# vtk DataFile Version 2.0
Wound Healing Simulation
ASCII
DATASET UNSTRUCTURED_GRID
POINTS 3012 float
69.9759 18.75 4
67.2507 60.3285 4
69.976 18.75 2
73.0099 25.446 4
71.1327 20.9142 4
68.6801 16.6661 4
67.824 19.9264 3.97887
67.2507 60.3286 2
71.1327 54.0858 4
68.6801 58.3339 4
65.6939 62.2254 4
65.3106 59.0005 3.97797
74.6784 42.3946 4
73.7221 47.2057 4
69.9759 18.75 0
73.0099 25.446 2
68.6801 16.6661 2
71.1327 20.9142 2
67.8245 19.9299 2
74.6792 32.6053 4
73.7222 27.7943 4
72.1454 23.1494 4
70.6129 26.2212 3.97852
68.8842 21.9581 3.97933
67.2507 14.6715 4
66.6354 17.9727 3.97798
65.7925 21.028 3.968
67.2507 60.3285 0
71.1327 54.0858 2
68.6801 58.3339 2
65.694 62.2255 2
65.3119 58.9959 2
72.1454 51.8506 4
69.9759 56.25 4
68.8349 53.1131 3.97855
64.0165 64.0165 4
66.6092 57.1333 3.97858
63.8837 60.7646 3.97826
63.496 57.7668 3.96883
60.3285 67.2507 4
74.6792 42.3947 2
73.7222 47.2057 2
74.9194 39.9526 4
74.2788 44.8158 4
72.1673 42.0857 3.97869
73.0099 49.554 4
71.2481 46.598 3.97802
73.0099 25.446 0
71.1327 20.9142 0
68.6801 16.6661 0
67.824 19.9264 0.0211302
74.6792 32.6053 2
73.7222 27.7943 2
67.2508 14.6715 2
72.1455 23.1494 2
70.6127 26.2218 2
66.6364 17.9772 2
68.8845 21.9604 2
65.7917 21.029 2
74.9197 35.0474 4
74.2794 30.1841 4
72.184 32.9437 3.979
71.2771 28.4317 3.9783
69.8142 24.0597 3.97911
68.3429 26.953 3.96745
66.7582 22.9353 3.96769
65.694 12.7746 4
65.3217 16.1049 3.97726
64.7089 19.1992 3.96842
63.856 22.0482 3.96536
71.1327 54.0858 0
65.6939 62.2254 0
68.6801 58.3339 0
65.3106 59.0005 0.0220331
72.1455 51.8506 2
69.9759 56.25 2
68.835 53.111 2
64.0165 64.0165 2
66.6101 57.1291 2
63.8856 60.7605 2
63.495 57.7665 2
62.2254 65.694 4
58.8933 65.4136 3.98785
69.7675 50.9889 3.97828
67.7822 55.1671 3.97865
66.6449 52.2077 3.96725
62.334 62.4258 3.98078
64.6563 56.0286 3.96848
62.1981 59.3957 3.96843
61.8129 56.6708 3.96429
58.3339 68.6801 4
60.3285 67.2508 2
73.7221 47.2057 0
74.6784 42.3946 0
74.9197 39.9526 2
74.2794 44.8159 2
72.1667 42.0855 2
73.0099 49.554 2
71.2479 46.5977 2
75 37.5 4
72.4046 39.8024 3.97945
71.7815 44.3529 3.97868
69.8008 41.79 3.96823
70.5738 48.8135 3.97794
68.9083 46.0144 3.96759
74.6792 32.6053 0
73.7222 27.7943 0
67.2507 14.6715 0
72.1454 23.1494 0
70.6129 26.2212 0.021482
68.8842 21.9581 0.02067
66.6354 17.9727 0.0220213
65.7925 21.028 0.031997
74.9197 35.0474 2
74.2794 30.1841 2
72.1834 32.9441 2
71.2769 28.4322 2
65.694 12.7745 2
65.3232 16.1099 2
69.8142 24.0609 2
68.3426 26.9538 2
64.708 19.2 2
66.7576 22.9362 2
63.856 22.0487 2
72.4125 35.2245 3.97946
71.803 30.6767 3.97895
69.837 33.2696 3.96839
68.9625 29.0396 3.96769
67.6072 24.9137 3.96752
66.1521 27.6454 3.96703
64.0165 10.9835 4
64.719 23.8425 3.96596
63.8877 14.3296 3.97807
63.5081 17.4543 3.96893
62.8811 20.3345 3.96455
62.0068 22.9745 3.96722
60.6823 11.1001 3.98245
57.6097 11.4559 3.97378
72.1454 51.8506 0
69.9759 56.25 0
68.8349 53.1131 0.0214525
64.0165 64.0165 0
63.8837 60.7646 0.0217385
66.6092 57.1333 0.0214169
63.496 57.7668 0.0311716
62.2255 65.694 2
58.8952 65.412 2
69.7674 50.9879 2
67.7826 55.1639 2
66.6443 52.2069 2
62.3361 62.4222 2
64.6552 56.0279 2
62.1971 59.3964 2
61.8125 56.6709 2
60.6669 63.9752 3.98346
57.0243 66.7347 3.98947
57.5559 63.6861 3.97591
67.5031 50.1755 3.96706
65.6974 54.1713 3.96771
64.4941 51.3729 3.96547
60.7691 60.9266 3.97119
62.8013 55.0578 3.96472
60.6481 58.1445 3.96436
60.2995 55.765 3.96421
56.25 69.9759 4
58.3339 68.6801 2
60.3285 67.2507 0
58.9199 9.65785 3.98477
62.2254 9.30607 4
73.0099 49.554 0
74.2788 44.8158 0
71.2481 46.598 0.0219833
72.1673 42.0857 0.0213111
74.9194 39.9526 0
75 37.5 2
72.4045 39.8025 2
71.7814 44.3525 2
69.8002 41.7897 2
70.5735 48.8131 2
68.9082 46.0138 2
72.488 37.5123 3.97908
70.0383 39.6579 3.96843
69.427 43.9075 3.96812
67.5575 41.4941 3.96919
68.2616 48.1063 3.96716
66.658 45.4311 3.96803
74.9197 35.0474 0
74.2794 30.1841 0
72.184 32.9437 0.0210014
71.2771 28.4317 0.0217007
65.694 12.7746 0
65.3217 16.1049 0.022737
69.8142 24.0597 0.020892
68.3429 26.953 0.0325487
66.7582 22.9353 0.0323087
64.7089 19.1992 0.031578
63.856 22.0482 0.034635
72.4124 35.2246 2
71.8029 30.6772 2
69.8363 33.27 2
68.9624 29.0402 2
64.0165 10.9835 2
63.8899 14.3343 2
63.507 17.4551 2
67.6068 24.9145 2
66.1523 27.6458 2
62.8815 20.3348 2
64.7188 23.843 2
62.0059 22.9751 2
60.6851 11.1038 2
57.6116 11.4554 2
70.0551 35.393 3.96847
69.4639 31.1508 3.96808
67.6198 33.596 3.96874
66.7288 29.6322 3.96749
65.4823 25.7111 3.96651
64.0274 28.2818 3.9713
62.3396 12.6577 3.9801
62.7582 24.6675 3.96868
62.1938 15.797 3.96944
61.7986 18.7003 3.96408
61.1417 21.3745 3.96518
60.2801 23.7768 3.97011
59.2426 12.7974 3.97182
55.8722 10.2415 3.97637
56.4001 13.1452 3.97104
69.7675 50.9889 0.0217192
62.2254 65.694 0
58.8933 65.4136 0.0121454
67.7822 55.1671 0.0213473
66.6449 52.2077 0.0327521
62.334 62.4258 0.0192242
62.1981 59.3957 0.0315678
64.6563 56.0286 0.0315235
61.8129 56.6708 0.0357107
60.6689 63.9727 2
57.0258 66.7336 2
57.5565 63.6866 2
67.5026 50.1748 2
65.6965 54.1705 2
64.4942 51.3726 2
60.7681 60.9277 2
62.802 55.0579 2
60.6477 58.1447 2
60.3001 55.7651 2
55.0702 67.9316 3.99099
59.2155 62.3528 3.97237
55.8029 64.9052 3.98026
56.3214 62.0686 3.97334
65.2799 49.3959 3.96625
63.6738 53.281 3.96497
62.3294 50.6217 3.96761
59.3241 59.5391 3.96518
61.0208 54.2849 3.96593
59.2624 56.9878 3.96308
59.1906 55.1537 3.96644
48.1007 68.5767 3.98653
50.948 69.9313 3.99133
54.0858 71.1327 4
56.25 69.976 2
58.3339 68.6801 0
57.0572 8.33709 3.98638
60.3285 7.74928 4
58.9228 9.6604 2
62.2255 9.30602 2
70.5738 48.8135 0.0220614
71.7815 44.3529 0.0213181
68.9083 46.0144 0.032406
69.8008 41.79 0.0317715
72.4046 39.8024 0.0205465
75 37.5 0
72.4874 37.5124 2
70.0382 39.6578 2
69.4268 43.9071 2
67.5573 41.4939 2
68.2614 48.1056 2
66.6572 45.4307 2
70.1264 37.5223 3.9685
67.7996 39.5113 3.96928
67.1761 43.4638 3.96856
65.4332 41.1993 3.97518
66.0145 47.407 3.96728
64.5122 44.826 3.97205
72.4125 35.2245 0.0205376
71.803 30.6767 0.0210486
69.837 33.2696 0.03161
68.9625 29.0396 0.0323123
64.0165 10.9835 0
63.8877 14.3296 0.0219329
63.5081 17.4543 0.0310708
67.6072 24.9137 0.0324809
66.1521 27.6454 0.0329692
64.719 23.8425 0.0340362
62.8811 20.3345 0.0354535
62.0068 22.9745 0.0327845
60.6823 11.1001 0.0175497
57.6097 11.4559 0.0262239
70.055 35.3932 2
69.4638 31.1513 2
67.6197 33.5963 2
66.7286 29.6326 2
62.3421 12.6624 2
62.1928 15.7974 2
61.799 18.7004 2
65.4823 25.7116 2
64.0257 28.2825 2
61.1404 21.3751 2
62.7571 24.6681 2
60.2797 23.7776 2
59.2441 12.7959 2
56.401 13.1428 2
55.8737 10.241 2
67.8397 35.5506 3.96923
67.2267 31.6296 3.96833
65.5846 33.9388 3.97453
64.5412 30.2146 3.97215
63.4291 26.4428 3.96997
62.0653 28.8181 3.97564
60.771 14.2392 3.97077
60.8838 25.3852 3.97246
60.6004 17.1478 3.96499
60.1592 19.851 3.96287
59.5235 22.3108 3.96667
58.7842 24.3848 3.973
54.0358 9.14267 3.97847
57.9024 14.3608 3.96999
54.7822 12.0323 3.97323
55.3025 14.688 3.96822
67.5031 50.1755 0.032944
57.0243 66.7347 0.0105262
60.6669 63.9752 0.0165442
57.5559 63.6861 0.0240894
65.6974 54.1713 0.0322879
64.4941 51.3729 0.0345261
60.7691 60.9266 0.0288125
60.6481 58.1445 0.0356358
62.8013 55.0578 0.0352778
60.2995 55.765 0.0357916
55.0714 67.9311 2
59.2162 62.3555 2
55.8034 64.9057 2
56.3208 62.071 2
65.2799 49.3955 2
63.6741 53.2808 2
62.3288 50.6213 2
59.323 59.5401 2
61.0215 54.285 2
59.2652 56.9882 2
59.1927 55.1538 2
53.0422 68.9995 3.9912
53.9653 66.0103 3.98309
57.8731 60.849 3.97073
54.6805 63.1982 3.97574
55.2014 60.5866 3.97076
63.0667 48.6316 3.96917
61.6538 52.5469 3.96673
60.0908 49.9717 3.96974
57.9998 58.2386 3.9658
59.2339 53.9104 3.96754
58.05 55.7748 3.96183
50.1074 67.8551 3.98598
47.4618 66.576 3.98241
46.0546 69.1557 3.9869
48.1009 68.5774 2
48.8019 70.7225 3.9915
50.9488 69.9311 2
51.8506 72.1454 4
54.0858 71.1327 2
56.25 69.9759 0
55.102 7.14154 3.98877
58.3339 6.31992 4
57.0596 8.33869 2
60.3286 7.74926 2
58.9199 9.65785 0.0152332
62.2254 9.30607 0
68.2616 48.1063 0.0328371
69.427 43.9075 0.0318783
66.658 45.4311 0.0319656
67.5575 41.4941 0.0308139
70.0383 39.6579 0.0315666
72.488 37.5123 0.020923
70.1259 37.5224 2
67.7988 39.5111 2
67.1768 43.4635 2
65.4313 41.1989 2
66.0146 47.4066 2
64.5102 44.8255 2
67.9001 37.523 3.9693
65.6732 39.3655 3.97579
65.0452 43.0088 3.97368
63.5535 40.9104 3.97692
63.826 46.6898 3.97049
62.5902 44.1819 3.97603
70.0551 35.393 0.0315346
69.4639 31.1508 0.0319239
67.6198 33.596 0.0312618
66.7288 29.6322 0.0325137
62.3396 12.6577 0.0198982
62.1938 15.797 0.0305553
61.7986 18.7003 0.0359248
65.4823 25.7111 0.033487
64.0274 28.2818 0.0287048
62.7582 24.6675 0.0313219
61.1417 21.3745 0.0348234
60.2801 23.7768 0.0298886
59.2426 12.7974 0.0281757
56.4001 13.1452 0.0289587
55.8722 10.2415 0.0236267
67.8388 35.5507 2
67.2274 31.6299 2
65.582 33.9392 2
64.5392 30.2151 2
60.7709 14.24 2
60.5995 17.1481 2
60.1599 19.8511 2
63.4279 26.4435 2
62.063 28.819 2
59.5248 22.3115 2
60.883 25.386 2
58.7835 24.3862 2
57.9029 14.3588 2
55.3032 14.6872 2
54.0372 9.14116 2
54.7833 12.0294 2
65.7663 35.6732 3.97546
65.0614 32.1719 3.97295
64.1098 34.2672 3.977
62.3863 30.6719 3.97665
61.4701 27.1173 3.97365
60.6088 29.1933 3.97704
59.3003 15.6933 3.96611
59.1085 25.8611 3.97581
59.0919 18.388 3.9622
58.6265 20.9071 3.96342
58.0965 23.1612 3.96773
57.7506 24.7404 3.97436
52.1112 8.15793 3.98196
53.0547 11.0317 3.97435
56.6622 15.7805 3.96798
53.8014 13.7159 3.9717
54.3577 16.0464 3.9677
55.0702 67.9316 0.00901386
65.2799 49.3959 0.0337511
55.8029 64.9052 0.0197409
59.2155 62.3528 0.0276321
56.3214 62.0686 0.0266587
63.6738 53.281 0.0350315
62.3294 50.6217 0.0323913
59.3241 59.5391 0.0348175
59.2624 56.9878 0.0369155
61.0208 54.2849 0.0340721
59.1906 55.1537 0.033563
53.0432 68.9992 2
53.9658 66.0109 2
57.8723 60.8513 2
54.6802 63.1989 2
55.2011 60.5884 2
63.0657 48.6311 2
61.6541 52.5468 2
60.0908 49.9711 2
57.9988 58.2395 2
59.2365 53.9104 2
58.0477 55.7737 2
52.0687 66.9978 3.98543
52.9516 64.2113 3.97968
56.634 59.4624 3.96797
53.6737 61.6036 3.9753
54.2424 59.2885 3.97221
60.7738 47.8328 3.97104
59.5608 52.0602 3.96823
57.7871 49.5548 3.97174
56.7392 56.9551 3.96637
56.9976 54.0732 3.96578
50.1076 67.8553 2
49.3359 65.9166 3.98244
47.462 66.5766 2
46.8909 64.7283 3.98102
45.5569 67.0928 3.98247
43.972 69.5876 3.98734
46.0547 69.1562 2
46.6084 71.367 3.99163
48.1007 68.5767 0.0134711
48.8027 70.7226 2
49.554 73.0099 4
50.948 69.9313 0.0086685
51.8506 72.1455 2
54.0858 71.1327 0
53.064 6.0724 3.99084
55.104 7.14195 2
56.25 5.02411 4
58.3339 6.3199 2
57.0572 8.33709 0.0136173
60.3285 7.74928 0
66.0145 47.407 0.0327249
67.1761 43.4638 0.0314395
64.5122 44.826 0.0279543
65.4332 41.1993 0.0248159
67.7996 39.5113 0.0307227
70.1264 37.5223 0.0314956
67.8998 37.5231 2
65.6712 39.3653 2
65.0425 43.0082 2
63.5507 40.9099 2
63.8242 46.6892 2
62.5878 44.1811 2
65.7792 37.5028 3.97567
63.7035 39.258 3.97675
63.1156 42.5225 3.97694
62.1727 40.6742 3.97671
61.745 45.8775 3.97333
61.1724 43.6384 3.97687
67.8397 35.5506 0.030771
67.2267 31.6296 0.0316728
65.5846 33.9388 0.0254702
64.5412 30.2146 0.0278547
60.771 14.2392 0.0292343
60.6004 17.1478 0.0350135
60.1592 19.851 0.0371322
63.4291 26.4428 0.0300262
62.0653 28.8181 0.0243574
60.8838 25.3852 0.0275388
59.5235 22.3108 0.0333318
58.7842 24.3848 0.0269973
57.9024 14.3608 0.0300133
55.3025 14.688 0.0317809
54.0358 9.14267 0.0215268
54.7822 12.0323 0.0267664
65.7644 35.6734 2
65.0591 32.1724 2
64.1073 34.2678 2
62.3844 30.6726 2
59.2992 15.6938 2
59.0933 18.3877 2
58.6308 20.9075 2
61.4684 27.1182 2
60.6077 29.1943 2
58.0934 23.1631 2
59.108 25.8624 2
57.7512 24.7423 2
56.6625 15.7784 2
54.3587 16.0481 2
53.8014 13.7094 2
52.112 8.15678 2
53.056 11.0296 2
63.9076 35.6429 3.97667
62.7131 33.0749 3.97675
60.3372 30.6655 3.97653
59.3182 27.9742 3.97638
57.9199 17.0171 3.96468
57.4888 25.8076 3.97637
57.6418 19.5257 3.96082
57.2016 21.9127 3.96347
56.9469 24.0327 3.96844
50.1119 7.28787 3.98557
51.2307 10.1345 3.97687
52.165 12.8204 3.97575
55.5132 17.017 3.9678
52.9642 15.3098 3.96952
53.7329 17.0348 3.97458
53.0422 68.9995 0.00880215
53.9653 66.0103 0.0169136
63.0667 48.6316 0.0308274
54.6805 63.1982 0.0242585
57.8731 60.849 0.0292671
55.2014 60.5866 0.0292357
61.6538 52.5469 0.033268
60.0908 49.9717 0.0302626
57.9998 58.2386 0.0341987
58.05 55.7748 0.0381681
59.2339 53.9104 0.0324581
52.0691 66.9984 2
52.9515 64.2121 2
56.6338 59.4639 2
53.6729 61.6033 2
54.2422 59.2907 2
60.7731 47.832 2
59.5615 52.0598 2
57.7845 49.5534 2
56.7375 56.9592 2
56.9953 54.0717 2
51.1669 65.1231 3.98191
52.0415 62.5282 3.97709
55.4554 58.2198 3.96999
52.8202 60.1027 3.97668
53.6143 58.4385 3.97616
57.9947 46.7811 3.97494
57.3744 51.7291 3.9683
55.9597 49.4804 3.97105
55.4057 55.7499 3.96413
55.2026 53.3266 3.96272
50.1074 67.8551 0.0140207
49.3359 65.9168 2
48.6165 64.1157 3.98135
47.4618 66.576 0.0175862
45.5571 67.0934 2
46.8911 64.7288 2
46.3797 63.0431 3.98246
45.1313 65.1884 3.98036
43.6302 67.4636 3.98314
41.8597 69.8747 3.98694
43.972 69.5881 2
44.3756 71.8617 3.99166
46.0546 69.1557 0.0130956
46.609 71.3671 2
47.2057 73.7222 4
48.8019 70.7225 0.00850357
49.554 73.0099 2
51.8506 72.1454 0
50.9544 5.13283 3.99172
53.0654 6.07257 2
54.0858 3.86728 4
55.102 7.14154 0.0112328
56.25 5.02406 2
58.3339 6.31992 0
63.826 46.6898 0.0295084
65.0452 43.0088 0.0263236
62.5902 44.1819 0.0239705
63.5535 40.9104 0.0230802
65.6732 39.3655 0.0242143
67.9001 37.523 0.0307049
65.7771 37.5028 2
63.7007 39.2579 2
63.1133 42.5217 2
62.1711 40.6737 2
61.7431 45.8766 2
61.1705 43.6376 2
63.7656 37.4581 3.97666
61.8875 39.3409 3.97699
60.9193 41.921 3.97685
59.9578 44.7162 3.9769
65.7663 35.6732 0.0245431
65.0614 32.1719 0.0270454
64.1098 34.2672 0.0230007
62.3863 30.6719 0.0233452
59.3003 15.6933 0.0338907
59.0919 18.388 0.0377977
58.6265 20.9071 0.0365755
61.4701 27.1173 0.0263525
60.6088 29.1933 0.0229633
59.1085 25.8611 0.0241932
58.0965 23.1612 0.0322672
57.7506 24.7404 0.025641
56.6622 15.7805 0.0320154
54.3577 16.0464 0.0322965
53.8014 13.7159 0.0283023
52.1112 8.15793 0.0180443
53.0547 11.0317 0.0256471
63.905 35.6431 2
62.7114 33.0756 2
60.336 30.6663 2
57.9185 17.0175 2
57.6464 19.5246 2
57.2025 21.9142 2
59.3172 27.9756 2
56.9501 24.0347 2
57.4878 25.8099 2
50.1126 7.28621 2
55.5145 17.0169 2
53.7329 17.0334 2
52.9646 15.3078 2
52.1663 12.8216 2
51.2319 10.133 2
61.9264 35.3765 3.97674
59.9698 32.7906 3.97671
58.2918 30.1471 3.97674
56.9858 27.4729 3.97702
56.5997 18.2006 3.96295
56.0219 25.2016 3.97448
56.2476 20.5884 3.96101
55.8933 22.9599 3.96218
48.0566 6.52922 3.98835
49.324 9.33826 3.98018
50.4286 12.012 3.97598
51.3657 14.5309 3.96999
54.3781 17.9741 3.96298
52.3388 17.1035 3.96229
52.0687 66.9978 0.0145651
52.9516 64.2113 0.0203198
60.7738 47.8328 0.0289627
53.6737 61.6036 0.0247016
56.634 59.4624 0.0320288
54.2424 59.2885 0.0277913
59.5608 52.0602 0.031767
57.7871 49.5548 0.0282551
56.7392 56.9551 0.033633
56.9976 54.0732 0.0342224
51.167 65.1238 2
52.041 62.5293 2
55.4553 58.2214 2
52.8196 60.1061 2
53.614 58.4401 2
57.9936 46.78 2
57.3737 51.7279 2
55.9561 49.4789 2
55.4051 55.7502 2
55.2057 53.3269 2
50.344 63.3735 3.98113
51.2345 60.9166 3.97621
54.1796 57.2351 3.97096
52.2882 58.5968 3.97418
56.2775 44.0953 3.97717
55.1467 47.812 3.97421
54.8344 51.3198 3.96539
53.8997 54.4945 3.9648
49.3359 65.9166 0.0175557
48.6166 64.1157 2
47.9587 62.4654 3.98142
45.5569 67.0928 0.0175297
46.8909 64.7283 0.0189815
43.6303 67.4642 2
46.3799 63.0437 2
45.1316 65.1891 2
45.9839 61.5742 3.98612
44.7655 63.4411 3.97926
43.3559 65.4982 3.98044
41.6625 67.6817 3.9827
39.7019 70.0207 3.98688
41.8596 69.8752 2
42.11 72.2064 3.99192
43.972 69.5876 0.012656
44.3762 71.8618 2
44.8159 74.2794 4
46.6084 71.367 0.00836652
47.2057 73.7222 2
49.554 73.0099 0
48.7853 4.32344 3.99246
50.9553 5.13241 2
51.8506 2.85458 4
53.064 6.0724 0.00916156
54.0858 3.86728 2
56.25 5.02411 0
61.745 45.8775 0.0266736
63.1156 42.5225 0.0230625
61.1724 43.6384 0.023134
62.1727 40.6742 0.0232887
63.7035 39.258 0.023255
65.7792 37.5028 0.0243298
63.7627 37.458 2
61.8865 39.3409 2
60.9186 41.9207 2
59.9572 44.7153 2
61.7207 37.4427 3.97694
59.8959 39.8215 3.97694
58.6068 42.8588 3.97664
63.9076 35.6429 0.0233317
62.7131 33.0749 0.0232458
60.3372 30.6655 0.0234668
57.9199 17.0171 0.0353243
57.6418 19.5257 0.0391812
57.2016 21.9127 0.0365257
59.3182 27.9742 0.0236227
57.4888 25.8076 0.0236306
56.9469 24.0327 0.031558
55.5132 17.017 0.0321996
53.7329 17.0348 0.0254227
52.9642 15.3098 0.0304828
50.1119 7.28787 0.0144334
52.165 12.8204 0.0242518
51.2307 10.1345 0.0231302
61.9255 35.3767 2
59.9688 32.7907 2
58.2916 30.1469 2
56.5995 18.2005 2
56.2515 20.5863 2
55.8962 22.9625 2
56.9849 27.4747 2
56.02 25.2043 2
48.0569 6.52721 2
49.3249 9.33607 2
54.3791 17.9744 2
52.3375 17.0995 2
51.3653 14.5269 2
50.4302 12.0094 2
59.5374 35.1413 3.97676
57.5875 32.3311 3.97608
56.1809 29.4358 3.97714
55.0974 26.7216 3.97685
55.2817 19.2464 3.95992
54.6741 24.1711 3.96456
54.8508 21.6478 3.95991
45.9629 5.88323 3.98897
43.3743 7.47532 3.98538
47.3555 8.62782 3.98369
48.5979 11.3052 3.97615
49.7033 13.7643 3.97446
50.6126 16.1746 3.9737
53.0792 18.7303 3.96188
51.2699 18.1373 3.97602
51.1669 65.1231 0.0180937
52.0415 62.5282 0.0229055
57.9947 46.7811 0.0250624
52.8202 60.1027 0.023325
55.4554 58.2198 0.0300078
53.6143 58.4385 0.0238409
57.3744 51.7291 0.0316968
55.9597 49.4804 0.0289503
55.4057 55.7499 0.0358697
55.2026 53.3266 0.0372833
50.3439 63.3737 2
51.2337 60.9158 2
54.1805 57.2372 2
52.2874 58.5981 2
56.2774 44.0942 2
55.1455 47.8107 2
54.8372 51.3198 2
53.9005 54.4963 2
49.5868 61.7362 3.97937
55.0788 41.6585 3.97502
50.5477 59.3028 3.97187
52.1335 56.4553 3.96897
53.7192 45.4605 3.97462
53.0088 49.2419 3.96937
52.4946 52.7921 3.96125
48.6165 64.1157 0.0186522
47.9585 62.4649 2
47.3224 60.9982 3.98635
43.6302 67.4636 0.0168643
45.1313 65.1884 0.0196419
46.3797 63.0431 0.0175428
41.6628 67.6818 2
43.3561 65.499 2
45.9839 61.5751 2
44.7658 63.4418 2
45.7584 60.6191 3.98456
44.4809 61.8189 3.9805
43.1455 63.7134 3.97853
41.5457 65.635 3.97909
39.6321 67.7601 3.98255
37.526 70.0454 3.98577
39.7018 70.0213 2
39.817 72.4029 3.9917
41.8597 69.8747 0.0130603
42.1105 72.2066 2
42.3947 74.6792 4
44.3756 71.8617 0.00834052
44.8159 74.2794 2
47.2057 73.7222 0
43.852 5.36047 3.98861
46.5714 3.64763 3.99265
48.7857 4.32266 2
49.554 1.99015 4
50.9544 5.13283 0.00827558
51.8506 2.85453 2
54.0858 3.86728 0
59.9578 44.7162 0.0231026
60.9193 41.921 0.0231482
61.8875 39.3409 0.0230129
63.7656 37.4581 0.0233399
61.7197 37.4426 2
59.896 39.8213 2
58.6069 42.8581 2
59.3941 37.5663 3.97733
57.5509 40.6172 3.9771
54.4892 39.6735 3.97531
61.9264 35.3765 0.0232594
59.9698 32.7906 0.0232863
58.2918 30.1471 0.02326
56.5997 18.2006 0.0370504
56.2476 20.5884 0.0389855
55.8933 22.9599 0.0378185
56.9858 27.4729 0.0229829
56.0219 25.2016 0.0255214
54.3781 17.9741 0.0370183
52.3388 17.1035 0.0377122
51.3657 14.5309 0.0300149
48.0566 6.52922 0.0116482
49.324 9.33826 0.0198224
50.4286 12.012 0.0240188
59.5378 35.1412 2
45.9626 5.88284 2
43.3742 7.47463 2
57.5879 32.3319 2
56.1802 29.4364 2
55.2779 19.2478 2
54.8599 21.6495 2
54.6718 24.1732 2
55.0946 26.7237 2
47.3559 8.62397 2
48.5992 11.3025 2
53.0783 18.7246 2
51.2705 18.1386 2
50.6133 16.1759 2
49.7037 13.7636 2
56.9366 34.7906 3.97718
55.2813 31.5954 3.97634
54.1011 28.5311 3.97727
53.47 25.6385 3.97648
53.8819 20.212 3.95873
53.3943 22.8267 3.95459
41.3995 7.08122 3.98538
45.3608 7.99552 3.98682
42.8665 9.41899 3.98152
46.6664 10.6605 3.981
47.7371 13.1169 3.97665
48.9145 15.4291 3.97172
49.9733 17.7397 3.96991
51.5934 19.416 3.96964
50.344 63.3735 0.0188714
51.2345 60.9166 0.023795
56.2775 44.0953 0.0228326
55.1467 47.812 0.0257904
52.2882 58.5968 0.0258187
54.1796 57.2351 0.0290376
54.8344 51.3198 0.0346137
53.8997 54.4945 0.0351979
49.5861 61.736 2
55.0731 41.6556 2
50.5469 59.3031 2
52.1344 56.4578 2
53.7186 45.4592 2
53.0175 49.2417 2
52.4962 52.7926 2
48.836 60.1908 3.97638
51.8927 42.5322 3.9828
49.7515 57.5985 3.96702
50.4835 54.3886 3.96397
51.3832 47.1675 3.97556
50.9671 50.8745 3.95484
47.5655 43.6575 3.98132
47.9587 62.4654 0.0185794
47.3221 60.9978 2
46.6063 59.7862 3.98918
41.6625 67.6817 0.0172959
43.3559 65.4982 0.0195629
44.7655 63.4411 0.0207374
45.9839 61.5742 0.0138813
39.6325 67.761 2
41.5456 65.6345 2
45.7584 60.6198 2
43.1457 63.7142 2
44.4807 61.8198 2
44.6149 60.2772 3.98901
42.9482 62.0656 3.97445
41.5997 63.806 3.97886
39.6472 65.6011 3.97815
37.5631 67.7408 3.98076
31.6977 65.118 3.97871
33.3925 67.4788 3.98071
35.3338 69.9554 3.98591
37.5258 70.0464 2
37.5093 72.4575 3.99209
39.7019 70.0207 0.0131204
39.8173 72.4033 2
39.9526 74.9197 4
42.11 72.2064 0.00808357
42.3947 74.6792 2
44.8159 74.2794 0
41.7365 4.96952 3.98892
43.852 5.3596 2
44.3266 3.1109 3.99296
46.5715 3.64741 2
47.2057 1.27793 4
48.7853 4.32344 0.00753952
49.554 1.99013 2
51.8506 2.85458 0
58.6068 42.8588 0.0233577
59.8959 39.8215 0.0230588
61.7207 37.4427 0.0230592
59.3943 37.5671 2
57.5504 40.6177 2
54.4843 39.6777 2
56.3124 37.8832 3.97708
48.9201 41.2417 3.98113
52.4839 39.308 3.98396
39.4432 6.80514 3.98564
59.5374 35.1413 0.0232417
57.5875 32.3311 0.0239226
56.1809 29.4358 0.0228574
55.2817 19.2464 0.0400758
54.8508 21.6478 0.0400941
54.6741 24.1711 0.035442
55.0974 26.7216 0.0231532
53.0792 18.7303 0.0381236
51.2699 18.1373 0.0239764
50.6126 16.1746 0.0262987
45.9629 5.88323 0.0110304
49.7033 13.7643 0.0255437
47.3555 8.62782 0.0163114
48.5979 11.3052 0.0238495
43.3743 7.47532 0.0146192
56.936 34.7906 2
41.3996 7.08005 2
45.3601 7.99558 2
42.866 9.41893 2
55.284 31.5938 2
54.1011 28.5314 2
53.8843 20.2163 2
53.3918 22.825 2
53.4671 25.6397 2
46.667 10.6537 2
47.7385 13.1121 2
51.5955 19.4176 2
49.9726 17.7376 2
48.9135 15.4311 2
54.3063 33.9871 3.97557
53.0146 30.6228 3.97688
52.1952 27.3597 3.97531
51.9152 24.2489 3.97798
52.2783 21.1581 3.971
41.0136 9.05372 3.98087
44.7266 9.99519 3.98501
42.467 10.9047 3.99092
45.9991 12.739 3.97625
47.6661 14.6036 3.97102
48.0802 17.0106 3.96991
49.7808 19.7791 3.97036
49.5868 61.7362 0.020627
50.5477 59.3028 0.0281257
55.0788 41.6585 0.0249837
53.7192 45.4605 0.0253842
53.0088 49.2419 0.0306251
52.1335 56.4553 0.0310276
52.4946 52.7921 0.0387504
48.8349 60.1893 2
51.9093 42.5403 2
49.7496 57.5992 2
50.4841 54.3913 2
51.389 47.1677 2
50.97 50.8739 2
47.5773 43.6838 2
47.9617 58.7225 3.9785
49.5301 45.1764 3.97857
48.5291 55.8904 3.96806
48.9677 52.5491 3.97622
49.3545 48.9621 3.97336
45.3181 39.8214 3.87176
45.7969 42.532 3.90278
46.0015 45.6763 3.98148
43.1327 41.0575 3.73029
41.7204 41.9177 3.55016
47.3224 60.9982 0.0136498
46.6053 59.7855 2
45.4498 58.7851 3.989
39.6321 67.7601 0.0174531
41.5457 65.635 0.0209119
43.1455 63.7134 0.0214708
44.4809 61.8189 0.0195025
45.7584 60.6191 0.0154365
41.5997 63.8058 2
37.5634 67.7417 2
39.6471 65.6022 2
44.6154 60.2781 2
42.9479 62.0664 2
41.7514 62.477 3.97717
42.4751 59.9571 3.97864
39.8941 63.5378 3.97663
37.642 65.4974 3.97768
35.4635 67.6502 3.98079
33.5756 65.3309 3.97757
31.9602 63.2846 3.9779
29.8846 64.7096 3.98084
31.6976 65.119 2
31.3774 67.1886 3.98116
33.3926 67.4798 2
33.1572 69.7493 3.986
35.3336 69.9564 2
35.1954 72.3718 3.99193
37.526 70.0454 0.0142287
37.5093 72.458 2
37.5 75 4
39.817 72.4029 0.00830082
39.9526 74.9197 2
42.3947 74.6792 0
39.6243 4.7173 3.98939
41.7367 4.96865 2
42.063 2.71827 3.99325
43.852 5.36047 0.0113867
44.3267 3.11027 2
44.8158 0.721173 4
46.5714 3.64763 0.00734616
47.2057 1.27779 2
49.554 1.99015 0
57.5509 40.6172 0.0229004
59.3941 37.5663 0.0226724
54.4892 39.6735 0.0246857
48.9471 41.2586 2
56.3123 37.8816 2
52.483 39.281 2
53.3352 36.6287 3.97776
46.8447 40.3424 3.90672
49.8634 38.5175 3.98773
37.5172 6.67617 3.98564
39.4432 6.8035 2
39.2113 8.69619 3.98316
35.9433 8.49551 3.98424
56.9366 34.7906 0.0228159
55.2813 31.5954 0.0236616
54.1011 28.5311 0.0227267
53.8819 20.212 0.0412701
53.3943 22.8267 0.0454097
53.47 25.6385 0.0235181
51.5934 19.416 0.0303552
49.9733 17.7397 0.0300897
48.9145 15.4291 0.02828
45.3608 7.99552 0.0131813
47.7371 13.1169 0.0233459
46.6664 10.6605 0.0190023
41.3995 7.08122 0.0146206
42.8665 9.41899 0.0184766
54.302 33.9876 2
41.0138 9.05264 2
44.7246 9.99602 2
42.4667 10.906 2
53.0105 30.6223 2
52.203 27.3597 2
52.2835 21.1596 2
51.9146 24.2551 2
45.9999 12.7283 2
47.6655 14.5974 2
49.7841 19.7835 2
48.0778 17.0075 2
51.831 32.8951 3.9819
50.819 29.3184 3.9766
50.473 25.8726 3.97233
49.8332 22.3745 3.98523
40.5684 11.615 3.98094
43.8548 11.9127 3.97955
45.7847 15.4402 3.98529
47.4762 19.3859 3.97816
45.7486 37.4808 3.86601
48.836 60.1908 0.0236195
49.7515 57.5985 0.0329805
51.8927 42.5322 0.017205
51.3832 47.1675 0.0244432
50.9671 50.8745 0.0451633
50.4835 54.3886 0.0360336
47.5655 43.6575 0.0186824
47.9602 58.7249 2
49.5443 45.1879 2
48.5259 55.8922 2
48.9682 52.5545 2
49.3602 48.9605 2
45.3817 39.8387 2
45.8246 42.5712 2
46.0097 45.6863 2
43.1626 41.0903 2
41.7474 41.9395 2
46.7989 57.3256 3.97722
43.8758 39.3586 3.73303
42.0745 40.8075 3.58906
47.6501 47.1995 3.98024
47.0662 54.2043 3.96737
47.3729 50.6983 3.97691
44.4498 47.2928 3.97616
44.4449 41.8765 3.85391
44.4863 44.4157 3.91478
42.0831 42.525 3.75702
40.6828 42.2241 3.57051
46.6063 59.7862 0.0108169
45.4495 58.7844 2
43.8559 57.6872 3.97941
37.5631 67.7408 0.0192422
39.6472 65.6011 0.0218474
41.5997 63.806 0.0211368
42.9482 62.0656 0.0255494
44.6149 60.2772 0.0109889
35.4638 67.6511 2
41.751 62.478 2
39.8938 63.5386 2
37.6421 65.4981 2
42.4758 59.9573 2
40.6221 61.6238 3.97899
40.437 58.1593 3.9796
37.8377 63.1955 3.97557
35.5729 65.4199 3.97814
33.5758 65.3318 2
31.96 63.286 2
33.6294 63.3233 3.97605
30.3797 62.8445 3.98016
32.1256 61.9877 3.98444
26.8746 61.4809 3.97704
28.0644 64.1375 3.97857
29.8841 64.7106 2
29.4072 66.7525 3.98195
31.6977 65.118 0.021286
31.3775 67.1895 2
31.0149 69.4142 3.98574
33.3925 67.4788 0.0192883
33.157 69.7501 2
32.893 72.1463 3.9918
35.3338 69.9554 0.0140869
35.1951 72.3724 2
35.0474 74.9194 4
37.5093 72.4575 0.00791044
37.5 75 2
39.9526 74.9197 0
35.6218 6.727 3.9854
37.524 4.6167 3.98954
39.6244 4.71594 2
39.7895 2.47491 3.99318
41.7365 4.96952 0.0110792
42.063 2.71774 2
42.3946 0.32156 4
44.3266 3.1109 0.00704393
44.8159 0.72056 2
47.2057 1.27793 0
48.9201 41.2417 0.0188712
56.3124 37.8832 0.0229246
52.4839 39.308 0.0160405
46.8705 40.3377 2
49.8673 38.5099 2
53.3384 36.6432 2
50.6585 35.574 3.97514
47.5163 37.7653 3.92342
45.3295 35.1583 3.87013
43.1468 33.9182 3.72872
41.7349 33.0628 3.5484
37.4588 8.53754 3.98444
37.5171 6.67486 2
39.4432 6.80514 0.0143574
39.2116 8.6943 2
38.9767 10.1314 3.98316
35.8995 9.77763 3.98041
34.1527 8.82695 3.98246
35.943 8.49382 2
54.3063 33.9871 0.0244275
53.0146 30.6228 0.0231224
52.1952 27.3597 0.0246889
52.2783 21.1581 0.0290002
51.9152 24.2489 0.0220219
49.7808 19.7791 0.0296414
48.0802 17.0106 0.030089
47.6661 14.6036 0.0289787
44.7266 9.99519 0.0149872
45.9991 12.739 0.0237453
41.0136 9.05372 0.0191311
42.467 10.9047 0.00908015
51.8361 32.8921 2
40.5695 11.6152 2
43.8529 11.9165 2
50.8393 29.3168 2
50.474 25.8731 2
49.8361 22.3746 2
45.781 15.4174 2
47.4781 19.4015 2
49.3924 31.515 3.98737
48.877 27.6405 3.97702
49.175 24.5385 3.97609
47.1251 22.1393 3.98556
38.3018 12.7436 3.97723
42.0959 14.3089 3.97975
44.782 18.5474 3.97563
44.2648 37.488 3.74002
45.8303 37.484 2
47.9617 58.7225 0.0215002
48.5291 55.8904 0.0319381
49.5301 45.1764 0.0214338
49.3545 48.9621 0.0266426
48.9677 52.5491 0.0237843
45.3181 39.8214 0.128235
45.7969 42.532 0.0972224
46.0015 45.6763 0.0185242
43.1327 41.0575 0.269706
41.7204 41.9177 0.449844
46.7965 57.3275 2
43.9205 39.3792 2
42.0729 40.8211 2
47.6573 47.2001 2
47.0627 54.2084 2
47.3772 50.7045 2
44.4701 47.274 2
44.4757 41.9029 2
44.5224 44.4367 2
42.1328 42.5643 2
40.7052 42.2297 2
45.3416 55.9086 3.99092
42.4107 39.2459 3.5991
40.5664 40.6885 3.70248
45.8045 48.8494 3.99686
45.3862 52.4818 3.98208
43.177 48.2869 3.99612
43.0929 45.9356 3.90067
43.2292 43.6481 3.84453
40.7998 43.5993 3.73342
39.2166 42.4933 3.58972
45.4498 58.7851 0.0109996
43.8547 57.6899 2
42.0833 56.279 3.98322
35.4635 67.6502 0.0192054
37.642 65.4974 0.0223217
39.8941 63.5378 0.0233717
41.7514 62.477 0.0228283
42.4751 59.9571 0.0213567
35.5731 65.4208 2
40.6222 61.6238 2
37.8376 63.196 2
40.4374 58.1607 2
38.912 56.458 3.99166
38.2501 60.3079 3.97938
35.6074 63.1898 3.97548
33.5756 65.3309 0.0224279
31.9602 63.2846 0.0221014
33.6295 63.3243 2
30.3794 62.8457 2
32.1261 61.9893 2
28.6849 62.1862 3.97868
33.3468 61.4966 3.97763
31.0721 61.2067 3.9803
27.581 59.5731 3.98058
23.8092 59.0617 3.98258
25.0413 60.8557 3.97719
26.8748 61.481 2
26.2322 63.4674 3.97797
28.064 64.1372 2
27.4642 66.1767 3.98151
29.8846 64.7096 0.0191576
29.4072 66.7529 2
28.9075 68.9399 3.98537
31.3774 67.1886 0.0188448
31.0147 69.4149 2
30.6157 71.7775 3.99126
33.1572 69.7493 0.0140037
32.8924 72.1467 2
32.6054 74.6784 4
35.1954 72.3718 0.0080669
35.0474 74.9197 2
37.5 75 0
33.7248 6.98277 3.98438
35.436 4.68679 3.98945
35.6217 6.72596 2
37.5152 2.38737 3.99324
37.524 4.61574 2
39.6243 4.7173 0.0106083
39.7893 2.47418 2
39.9526 0.0806499 4
42.063 2.71827 0.00675211
42.3947 0.320817 2
44.8158 0.721173 0
43.883 35.6185 3.73304
42.0846 34.1681 3.58186
46.8447 40.3424 0.093276
49.8634 38.5175 0.0122749
53.3352 36.6287 0.022243
47.5129 37.7429 2
50.6683 35.5688 2
45.3875 35.1343 2
43.1832 33.8832 2
41.7598 33.0413 2
47.6952 34.3096 3.95275
44.4623 33.0829 3.84425
42.1036 32.4579 3.75071
40.6958 32.7648 3.56844
37.3113 10.635 3.98092
37.4589 8.53579 2
37.5172 6.67617 0.0143557
39.2113 8.69619 0.0168352
38.9782 10.13 2
34.7557 10.3864 3.98133
35.9002 9.77428 2
32.3798 9.37442 3.97939
34.1515 8.82416 2
35.9433 8.49551 0.0157589
51.831 32.8951 0.0180964
50.819 29.3184 0.023397
50.473 25.8726 0.0276703
49.8332 22.3745 0.0147674
47.4762 19.3859 0.021843
45.7847 15.4402 0.0147135
43.8548 11.9127 0.0204489
40.5684 11.615 0.0190608
49.4077 31.5097 2
38.3019 12.7421 2
42.0972 14.3152 2
48.8859 27.6409 2
49.1763 24.5349 2
47.1189 22.1348 2
44.7833 18.5809 2
47.2546 29.6316 3.98438
46.8625 25.2772 3.97598
44.2487 21.5048 3.97901
36.5842 12.9468 3.9749
38.6825 14.8329 3.97554
41.7426 17.8974 3.97755
42.5474 37.4774 3.62931
44.309 37.4867 2
45.7486 37.4808 0.133991
46.7989 57.3256 0.0227825
47.0662 54.2043 0.0326308
47.6501 47.1995 0.0197557
47.3729 50.6983 0.0230901
43.8758 39.3586 0.26697
44.4449 41.8765 0.146087
44.4863 44.4157 0.085218
44.4498 47.2928 0.0238395
42.0831 42.525 0.242977
42.0745 40.8075 0.410937
40.6828 42.2241 0.429489
45.3387 55.9094 2
42.4055 39.2494 2
40.5778 40.6715 2
45.8095 48.8592 2
45.3842 52.4872 2
43.1868 48.304 2
43.1453 45.9737 2
43.2725 43.6773 2
40.834 43.6504 2
39.2144 42.4999 2
43.6697 54.3892 3.9998
40.6715 39.1076 3.7163
39.096 40.7574 3.68183
43.4954 50.3582 4.00546
41.7972 47.4694 3.93668
41.7024 45.0387 3.85959
39.3359 44.2602 3.72021
37.5046 42.5916 3.62083
43.8559 57.6872 0.0205875
42.0825 56.2806 2
40.3931 54.8561 3.98393
35.5729 65.4199 0.0218563
37.8377 63.1955 0.0244282
40.6221 61.6238 0.0210053
40.437 58.1593 0.0203995
35.6073 63.19 2
38.2503 60.3085 2
38.913 56.4498 2
37.9877 55.1557 3.99315
36.9326 57.605 3.98834
35.3647 60.8948 3.97757
33.6294 63.3233 0.0239513
30.3797 62.8445 0.0198402
32.1256 61.9877 0.0155648
33.3474 61.4977 2
28.6848 62.1865 2
31.0727 61.209 2
29.4127 60.2692 3.97616
32.3629 59.7218 3.98763
28.0451 58.3553 3.99809
27.5825 59.5737 2
25.398 58.5772 3.97729
22.7835 58.2152 3.96835
23.4096 60.3293 3.97941
23.8105 59.0625 2
25.0417 60.856 2
24.4362 62.759 3.97771
26.8746 61.4809 0.0229554
26.2322 63.4682 2
25.549 65.4853 3.98005
28.0644 64.1375 0.0214279
27.4641 66.1771 2
26.8371 68.3286 3.98536
29.4072 66.7525 0.0180514
28.9072 68.94 2
28.3708 71.2627 3.99086
31.0149 69.4142 0.0142582
30.6149 71.7776 2
30.1842 74.2788 4
32.893 72.1463 0.00820305
32.6053 74.6792 2
35.0474 74.9194 0
31.7894 7.42274 3.98296
33.3486 4.92646 3.98869
33.7244 6.98086 2
35.2455 2.46332 3.99318
35.4358 4.68621 2
35.6218 6.727 0.0146011
37.5 0 4
37.5147 2.38688 2
37.524 4.6167 0.0104591
39.7895 2.47491 0.00681951
39.9526 0.0802889 2
42.3946 0.32156 0
42.3996 35.7098 3.59513
43.9392 35.5906 2
40.5818 34.2956 3.70203
42.0796 34.1537 2
47.5163 37.7653 0.0765818
50.6585 35.574 0.0248578
45.3295 35.1583 0.129874
43.1468 33.9182 0.271283
41.7349 33.0628 0.4516
47.7091 34.324 2
44.4936 33.0632 2
42.1571 32.4161 2
40.7183 32.7587 2
45.7527 31.6905 3.92023
43.2482 31.3355 3.84273
40.8151 31.3885 3.73385
39.2268 32.5085 3.58714
35.6947 11.7832 3.97934
37.3135 10.6324 2
37.4588 8.53754 0.0155584
38.9767 10.1314 0.0168425
33.1009 11.2256 3.97552
34.7546 10.3814 2
35.8995 9.77763 0.0195923
30.4848 10.0241 3.97928
32.3785 9.37321 2
34.1527 8.82695 0.0175447
49.3924 31.515 0.0126333
48.877 27.6405 0.0229807
49.175 24.5385 0.0239141
47.1251 22.1393 0.0144444
44.782 18.5474 0.0243683
42.0959 14.3089 0.0202488
38.3018 12.7436 0.0227699
36.5816 12.9344 2
47.2716 29.5977 2
38.6801 14.8184 2
41.7371 17.8885 2
46.8667 25.2741 2
44.2434 21.4898 2
45.1722 27.7664 4.00559
43.6583 24.2041 4.01643
41.3134 20.8823 3.98129
35.7735 14.7844 3.9776
38.68 17.6343 3.97862
40.7233 37.4694 3.72953
42.5511 37.4804 2
44.2648 37.488 0.259984
45.3416 55.9086 0.00908324
45.3862 52.4818 0.0179189
45.8045 48.8494 0.00313504
42.4107 39.2459 0.4009
43.2292 43.6481 0.155474
43.0929 45.9356 0.0993279
43.177 48.2869 0.00388466
40.7998 43.5993 0.266582
40.5664 40.6885 0.297523
39.2166 42.4933 0.410284
43.6654 54.389 2
40.6647 39.1043 2
39.0973 40.7439 2
43.4939 50.3775 2
41.7894 47.498 2
41.7273 45.0764 2
37.5011 42.6021 2
39.3491 44.3117 2
41.8254 52.8984 3.9956
39.1093 39.126 3.70047
37.5067 40.8088 3.70236
35.7942 42.5017 3.59044
40.8447 49.5311 3.99542
39.7687 45.8351 3.83626
37.5031 44.5012 3.73525
42.0833 56.279 0.016777
40.3882 54.8677 2
38.7197 53.7124 3.99622
35.6074 63.1898 0.0245218
38.2501 60.3079 0.0206227
38.912 56.458 0.00833766
35.365 60.8943 2
36.9335 57.6053 2
37.9869 55.1523 2
36.3203 55.2264 3.99622
34.4916 58.5008 3.98889
33.3468 61.4966 0.0223743
28.6849 62.1862 0.021324
31.0721 61.2067 0.0196988
32.3637 59.7246 2
29.4137 60.2683 2
30.32 57.7945 3.98571
28.0469 58.3553 2
26.9895 56.8101 3.97256
27.581 59.5731 0.0194212
25.4 58.578 2
23.8873 56.7758 3.9609
21.3728 57.3648 3.96383
22.0075 59.5981 3.97593
22.7847 58.2168 2
22.7411 62.0103 3.97613
23.4102 60.3296 2
23.8092 59.0617 0.0174182
25.0413 60.8557 0.0228103
24.4364 62.7599 2
23.6835 64.7025 3.97922
26.2322 63.4674 0.0220271
25.5487 65.4865 2
24.8096 67.5894 3.9846
27.4642 66.1767 0.0184911
26.8369 68.3293 2
26.166 70.6037 3.99094
28.9075 68.9399 0.0146283
28.37 71.2626 2
27.7943 73.7221 4
30.6157 71.7775 0.00874459
30.1841 74.2794 2
32.6054 74.6784 0
29.8122 7.99743 3.98175
31.2541 5.33336 3.98772
31.7887 7.42132 2
32.9814 2.7016 3.99285
33.3481 4.92522 2
33.7248 6.98277 0.015623
35.0474 0.080333 4
35.245 2.4631 2
35.436 4.68679 0.0105537
37.5 0 2
37.5152 2.38737 0.00676165
39.9526 0.0806499 0
40.687 35.848 3.71461
42.3972 35.7124 2
43.883 35.6185 0.266963
28.5451 10.6989 3.97845
39.0966 34.2437 3.6812
40.5829 34.3106 2
42.0846 34.1681 0.418142
47.6952 34.3096 0.0472485
44.4623 33.0829 0.155747
42.1036 32.4579 0.249289
40.6958 32.7648 0.431564
45.7832 31.6676 2
43.2895 31.3036 2
40.8527 31.335 2
39.2297 32.5032 2
44.0603 29.8862 3.91526
41.7041 29.9425 3.86126
39.3482 30.735 3.71973
37.5187 32.4206 3.62068
34.0964 12.9482 3.97467
35.6931 11.7744 2
37.3113 10.635 0.0190811
31.1892 11.9948 3.9778
33.1002 11.2243 2
34.7557 10.3864 0.0186685
30.483 10.0215 2
32.3798 9.37442 0.0206093
47.2546 29.6316 0.0156172
46.8625 25.2772 0.0240178
36.5842 12.9468 0.0251002
44.2487 21.5048 0.0209915
41.7426 17.8974 0.0224547
38.6825 14.8329 0.0244599
35.7752 14.7908 2
45.1766 27.7619 2
38.6756 17.64 2
41.3076 20.8796 2
43.6566 24.193 2
33.6116 15.8975 3.97833
42.8234 26.6178 3.99156
40.8323 23.4652 3.9993
38.4082 20.4089 3.98974
35.8501 17.5372 3.98002
39.119 37.4876 3.72076
40.7134 37.471 2
42.5474 37.4774 0.370692
43.6697 54.3892 0.000204907
43.4954 50.3582 -0.00545513
40.6715 39.1076 0.283704
41.7024 45.0387 0.140407
41.7972 47.4694 0.0633222
39.3359 44.2602 0.27979
39.096 40.7574 0.31817
37.5046 42.5916 0.379165
41.8181 52.8992 2
39.1023 39.1121 2
37.5056 40.7913 2
40.841 49.5504 2
35.7912 42.5072 2
39.7907 45.8851 2
37.4934 44.5441 2
39.7632 51.7357 4.00213
37.5065 39.1335 3.73097
35.9215 40.7703 3.68227
34.3258 42.2402 3.57059
35.6739 44.2731 3.71468
38.6658 48.4801 3.9506
37.5179 46.1233 3.85915
40.3931 54.8561 0.0160672
38.7177 53.6998 2
36.7476 53.0301 3.99714
35.3647 60.8948 0.0224314
36.9326 57.605 0.0116629
37.9877 55.1557 0.00685068
34.4921 58.5 2
36.3206 55.2283 2
33.2483 55.4166 3.99248
32.3629 59.7218 0.0123665
29.4127 60.2692 0.0238403
30.322 57.7931 2
28.7596 55.2935 3.98157
28.0451 58.3553 0.00191035
26.991 56.8105 2
25.3905 55.1115 3.96365
21.8813 55.3108 3.96271
25.398 58.5772 0.0227138
23.8881 56.7784 2
20.2539 56.996 3.96519
20.6651 58.7475 3.96734
21.3733 57.3666 2
21.174 61.1516 3.97465
22.0082 59.5984 2
22.7835 58.2152 0.0316546
21.8975 63.8296 3.97826
22.7414 62.011 2
23.4096 60.3293 0.0205896
24.4362 62.759 0.0222907
23.6833 64.7033 2
22.8381 66.7324 3.98323
25.549 65.4853 0.0199493
24.8093 67.5904 2
24.0102 69.8049 3.9908
26.8371 68.3286 0.0146379
26.165 70.6038 2
25.446 73.0099 4
28.3708 71.2627 0.00914158
27.7943 73.7222 2
30.1842 74.2788 0
27.8219 8.65681 3.98171
29.1563 5.87963 3.98637
29.811 7.99519 2
30.7269 3.09853 3.99259
31.2534 5.33214 2
31.7894 7.42274 0.0170426
32.6053 0.320823 4
32.9807 2.70107 2
33.3486 4.92646 0.0113133
35.0474 0.0802903 2
35.2455 2.46332 0.00681648
37.5 0 0
39.1064 35.8617 3.70362
40.6719 35.8512 2
42.3996 35.7098 0.404868
28.5436 10.6977 2
26.6233 11.3951 3.97852
29.2284 12.6493 3.97975
37.5101 34.205 3.70074
39.1024 34.2603 2
40.5818 34.2956 0.297965
45.7527 31.6905 0.0797749
43.2482 31.3355 0.157274
40.8151 31.3885 0.266152
39.2268 32.5085 0.412857
44.082 29.8658 2
41.7285 29.9073 2
39.3566 30.6832 2
37.5198 32.4091 2
42.1415 28.5697 3.88534
39.7656 29.1509 3.8569
37.5172 30.508 3.73339
35.8071 32.5118 3.58993
31.9203 14.4939 3.9786
34.0962 12.95 2
35.6947 11.7832 0.020658
31.188 11.991 2
33.1009 11.2256 0.0244825
30.4848 10.0241 0.0207235
45.1722 27.7664 -0.00559309
43.6583 24.2041 -0.0164271
35.7735 14.7844 0.022401
41.3134 20.8823 0.0187058
38.68 17.6343 0.021377
33.6095 15.8921 2
35.8463 17.541 2
42.8281 26.6127 2
38.4 20.4191 2
40.8236 23.4475 2
33.5536 17.4127 3.97908
40.2633 25.845 3.96254
38.0604 23.17 4.00088
35.5837 20.1226 3.99131
37.5072 37.4958 3.74844
39.1119 37.4844 2
40.7233 37.4694 0.270471
41.8254 52.8984 0.00440357
40.8447 49.5311 0.00458318
39.1093 39.126 0.299534
39.7687 45.8351 0.16374
37.5031 44.5012 0.264751
37.5067 40.8088 0.297639
35.7942 42.5017 0.409562
39.759 51.7423 2
37.5075 39.1247 2
35.9202 40.7574 2
38.6765 48.5287 2
34.3041 42.2465 2
35.6533 44.3254 2
37.5123 46.1698 2
37.6683 50.7775 3.99869
35.9112 39.1425 3.70301
34.4508 40.7122 3.70424
33.2833 41.9369 3.55218
34.2008 43.6064 3.73197
35.2078 45.8413 3.85103
36.9246 48.0919 3.91798
38.7197 53.7124 0.00378169
36.7523 53.0332 2
34.4196 52.3541 3.9999
34.4916 58.5008 0.0111071
36.3203 55.2264 0.0037841
33.2503 55.4198 2
30.5947 53.3047 3.99535
30.32 57.7945 0.0142918
28.7608 55.294 2
27.0002 53.403 3.9671
26.9895 56.8101 0.0274431
25.3913 55.1151 2
23.7068 53.4355 3.95868
20.6312 53.166 3.96044
19.9896 55.7945 3.96321
21.8787 55.313 2
23.8873 56.7758 0.0390982
19.4611 57.8586 3.97009
20.2529 56.9975 2
19.7161 60.1726 3.97241
20.6653 58.7482 2
21.3728 57.3648 0.0361702
20.2109 62.85 3.97559
21.1747 61.154 2
22.0075 59.5981 0.0240665
20.9394 65.761 3.9817
21.8974 63.8305 2
22.7411 62.0103 0.0238675
23.6835 64.7025 0.0207805
22.8377 66.7329 2
21.9127 68.872 3.9903
24.8096 67.5894 0.0153973
24.0089 69.8048 2
23.1494 72.1454 4
26.166 70.6037 0.00905776
25.446 73.0099 2
27.7943 73.7221 0
25.8609 9.38569 3.98071
27.071 6.54361 3.9853
27.8205 8.65573 2
28.4893 3.64444 3.99193
29.1554 5.8782 2
29.8122 7.99743 0.0182482
30.1841 0.720592 4
30.7258 3.09812 2
31.2541 5.33336 0.01228
32.6053 0.320817 2
32.9814 2.7016 0.00714863
35.0474 0.080333 0
37.5075 35.8642 3.72931
39.0931 35.8677 2
40.687 35.848 0.285389
24.7788 12.0822 3.9777
23.7563 14.3745 3.97515
28.5451 10.6989 0.0215534
26.6221 11.3946 2
29.2273 12.6483 2
27.2949 13.3824 3.97852
29.7865 14.2103 3.97987
35.9211 34.2456 3.68086
37.5148 34.2227 2
39.0966 34.2437 0.318804
37.5187 32.4206 0.379315
44.0603 29.8862 0.0847398
41.7041 29.9425 0.138742
39.3482 30.735 0.280269
42.1703 28.5267 2
39.7804 29.1034 2
37.5204 30.4609 2
35.8063 32.5048 2
39.9329 27.7906 3.89392
37.4927 28.8782 3.85722
35.6866 30.7509 3.72338
34.3411 32.7741 3.5704
30.9337 16.8529 3.98167
31.9186 14.4878 2
34.0964 12.9482 0.0253278
31.1892 11.9948 0.0221963
42.8234 26.6178 0.00844411
40.8323 23.4652 0.000698891
33.6116 15.8975 0.0216663
35.8501 17.5372 0.0199813
38.4082 20.4089 0.0102583
33.5495 17.4209 2
35.5829 20.1264 2
40.3132 25.8396 2
38.0471 23.1484 2
32.875 19.8163 3.99299
37.7017 25.4758 3.97689
35.2001 22.8537 3.99924
35.8948 37.4991 3.72252
37.5053 37.4963 2
39.119 37.4876 0.279243
39.7632 51.7357 -0.00213277
38.6658 48.4801 0.0494046
37.5065 39.1335 0.269029
37.5179 46.1233 0.140845
35.6739 44.2731 0.285322
35.9215 40.7703 0.317728
34.3258 42.2402 0.429408
37.6579 50.8029 2
35.9222 39.1294 2
34.4395 40.6969 2
36.9028 48.1433 2
33.2555 41.9577 2
34.1714 43.657 2
35.1878 45.8848 2
35.5303 49.9551 3.98714
34.3455 39.1428 3.71568
32.9321 40.8301 3.58612
32.9187 42.5421 3.75362
33.3208 45.0458 3.85504
34.3889 47.2166 3.89147
36.7476 53.0301 0.00286111
34.4156 52.3606 2
32.1308 51.1202 4.01798
33.2483 55.4166 0.00752331
30.5961 53.3082 2
28.5771 51.5323 3.98952
28.7596 55.2935 0.0184268
27.0009 53.4064 2
25.2597 51.6845 3.95513
25.3905 55.1115 0.0363544
23.7053 53.4393 2
22.1783 51.7362 3.95257
19.4417 51.5656 3.96142
19.0352 54.2604 3.96261
20.6299 53.1656 2
18.4841 56.6904 3.96526
19.9873 55.7963 2
21.8813 55.3108 0.0372881
18.383 59.0802 3.96887
19.4604 57.8599 2
20.2539 56.996 0.0348104
18.6246 61.7447 3.97279
19.7168 60.1742 2
20.6651 58.7475 0.0326557
19.1285 64.6698 3.98011
20.2108 62.8509 2
21.174 61.1516 0.0253546
19.8869 67.8087 3.99007
20.9388 65.7615 2
21.8975 63.8296 0.0217379
22.8381 66.7324 0.0167747
21.9113 68.8714 2
20.9142 71.1327 4
24.0102 69.8049 0.00919795
23.1494 72.1455 2
25.446 73.0099 0
23.099 12.7988 3.97655
23.9736 10.1748 3.97915
25.0246 7.31435 3.98417
25.8597 9.38509 2
26.281 4.32849 3.99132
27.0699 6.54288 2
27.8219 8.65681 0.0182913
27.7943 1.27781 4
28.4878 3.64421 2
29.1563 5.87963 0.013634
30.1841 0.720551 2
30.7269 3.09853 0.00741208
32.6053 0.320823 0
35.9011 35.8603 3.69804
37.5115 35.8755 2
39.1064 35.8617 0.296384
24.777 12.0796 2
23.7563 14.3762 2
22.4869 15.0537 3.9802
25.3616 13.9215 3.97447
24.0376 15.6373 3.98207
26.6233 11.3951 0.0214801
29.2284 12.6493 0.020249
27.2951 13.3823 2
29.784 14.2091 2
28.3665 15.9832 3.98053
34.4566 34.3088 3.70209
35.9178 34.2587 2
37.5101 34.205 0.299264
35.8071 32.5118 0.410066
37.5172 30.508 0.266611
42.1415 28.5697 0.114663
39.7656 29.1509 0.143104
39.9515 27.7546 2
37.4945 28.8282 2
35.6705 30.6934 2
34.3162 32.7714 2
37.5864 27.515 3.90079
35.2282 29.1689 3.8561
34.2113 31.4052 3.73206
33.2983 33.0759 3.55141
30.2217 19.3891 3.98114
30.9306 16.8467 2
31.9203 14.4939 0.0214006
40.2633 25.845 0.0374635
38.0604 23.17 -0.000883633
33.5536 17.4127 0.0209163
35.5837 20.1226 0.00868972
32.8702 19.8246 2
35.1943 22.8404 2
37.7501 25.4559 2
32.3491 22.5303 3.99657
35.0505 25.4093 3.99854
34.2928 37.5112 3.73084
35.9003 37.5016 2
37.5072 37.4958 0.251562
37.6683 50.7775 0.00131492
36.9246 48.0919 0.0820182
35.9112 39.1425 0.296993
35.2078 45.8413 0.148974
34.2008 43.6064 0.26803
34.4508 40.7122 0.295762
33.2833 41.9369 0.447824
35.5175 49.9641 2
34.3553 39.138 2
32.933 40.8419 2
34.3868 47.2583 2
32.8778 42.5808 2
33.299 45.0835 2
33.3552 48.9948 3.97869
32.6079 39.2806 3.59715
31.8663 41.0762 3.73098
31.7657 43.6608 3.84551
32.5071 46.1776 3.89237
34.4196 52.3541 9.6334e-05
32.1324 51.1303 2
30.0796 49.6982 4.00251
30.5947 53.3047 0.00465457
28.5762 51.529 2
26.7427 49.907 3.9677
27.0002 53.403 0.0328993
25.2578 51.6836 2
23.6046 50.1012 3.96261
23.7068 53.4355 0.0413192
22.1768 51.7349 2
20.7483 50.2322 3.9649
18.2498 50.2605 3.96841
18.0262 52.7331 3.96386
19.4397 51.5649 2
17.5193 55.2999 3.96251
19.0303 54.2608 2
20.6312 53.166 0.0395568
17.1548 57.8463 3.9647
18.4828 56.6914 2
19.9896 55.7945 0.0367908
17.144 60.5209 3.96921
18.3829 59.0816 2
19.4611 57.8586 0.0299073
17.4096 63.4609 3.97504
18.6249 61.7448 2
19.7161 60.1726 0.0275886
17.9433 66.617 3.98843
19.1278 64.6699 2
20.2109 62.85 0.0244119
18.75 69.9759 4
19.8853 67.8077 2
20.9394 65.761 0.0183036
21.9127 68.872 0.0096959
20.9142 71.1327 2
23.1494 72.1454 0
21.5917 13.6242 3.97718
22.1919 11.0359 3.97733
23.0982 12.8001 2
23.0423 8.18094 3.98285
23.9719 10.1731 2
24.1187 5.14328 3.99072
25.0233 7.31377 2
25.8609 9.38569 0.019285
25.446 1.99014 4
26.2793 4.32875 2
27.071 6.54361 0.0146973
27.7943 1.27778 2
28.4893 3.64444 0.00807336
30.1841 0.720592 0
34.349 35.8776 3.71535
35.9095 35.8744 2
37.5075 35.8642 0.27069
21.3182 15.8542 3.9838
24.7788 12.0822 0.022296
23.7563 14.3745 0.0248456
25.3613 13.9165 2
22.4872 15.0535 2
24.0383 15.6402 2
23.2817 16.2662 3.97477
25.3936 16.108 3.98116
27.2949 13.3824 0.0214752
29.7865 14.2103 0.020128
28.3638 15.9885 2
27.4557 18.8377 3.97945
32.9374 34.1883 3.58917
34.4455 34.3252 2
35.9211 34.2456 0.319136
34.3411 32.7741 0.429604
35.6866 30.7509 0.276619
37.4927 28.8782 0.142779
39.9329 27.7906 0.106076
37.5698 27.4805 2
33.2741 33.0589 2
35.2246 29.114 2
34.1739 31.3512 2
35.1237 27.6177 3.90246
33.3151 29.9638 3.85605
32.9367 32.4663 3.73835
29.6472 21.9927 3.99757
30.2191 19.3952 2
30.9337 16.8529 0.0183339
37.7017 25.4758 0.0231114
35.2001 22.8537 0.000755797
32.875 19.8163 0.00700983
32.3502 22.5242 2
35.0796 25.3982 2
31.878 25.7748 4.00384
32.4552 37.5109 3.63035
34.3089 37.5084 2
35.8948 37.4991 0.277476
35.5303 49.9551 0.0128598
34.3889 47.2166 0.108535
34.3455 39.1428 0.28432
33.3208 45.0458 0.144959
32.9187 42.5421 0.246377
32.9321 40.8301 0.413883
33.3419 48.9943 2
32.6204 39.282 2
31.83 41.1077 2
32.4693 46.2185 2
31.7268 43.691 2
31.4118 47.8383 3.98069
31.1313 39.3803 3.7336
30.5532 41.9157 3.8484
30.8053 44.7985 3.91124
32.1308 51.1202 -0.0179774
30.0805 49.7142 2
28.1899 48.0856 3.95944
28.5771 51.5323 0.010478
26.7415 49.9069 2
24.9802 48.363 3.96963
25.2597 51.6845 0.0448744
23.6034 50.0999 2
22.0107 48.6894 3.9713
22.1783 51.7362 0.0474338
20.7456 50.231 2
19.3383 49.0125 3.97246
17.1362 49.2692 3.97393
16.9799 51.3493 3.96749
18.2524 50.2592 2
16.5115 53.8256 3.96479
18.0243 52.7328 2
19.4417 51.5656 0.0385785
16.0116 56.4483 3.96309
17.5154 55.3007 2
19.0352 54.2604 0.037386
15.7599 59.188 3.96701
17.155 57.8471 2
18.4841 56.6904 0.0347387
15.7918 62.1193 3.97166
17.144 60.5233 2
18.383 59.0802 0.0311348
16.0901 65.2988 3.98718
17.4087 63.4618 2
18.6246 61.7447 0.0272125
16.6661 68.6801 4
17.9414 66.6156 2
19.1285 64.6698 0.0198891
18.75 69.9759 2
19.8869 67.8087 0.00993047
20.9142 71.1327 0
20.2262 14.6206 3.97412
21.5912 13.6243 2
20.5323 12.0092 3.97565
21.145 9.15167 3.98137
22.1906 11.0364 2
23.099 12.7988 0.0234473
22.0178 6.08233 3.9902
23.0407 8.17995 2
23.9736 10.1748 0.0208512
23.1494 2.85457 4
24.1166 5.1438 2
25.0246 7.31435 0.0158292
25.446 1.99012 2
26.281 4.32849 0.00867759
27.7943 1.27781 0
32.5987 35.7444 3.59787
34.3572 35.8803 2
35.9011 35.8603 0.301959
21.3187 15.8526 2
20.324 16.9851 3.9793
22.1139 16.6571 3.96974
25.3616 13.9215 0.0255291
22.4869 15.0537 0.0197998
24.0376 15.6373 0.0179335
25.3937 16.1028 2
23.2826 16.2658 2
24.2241 18.5079 3.97118
27.0871 21.529 3.99452
28.3665 15.9832 0.0194691
27.4539 18.8406 2
31.889 33.9516 3.7279
32.9427 34.173 2
34.4566 34.3088 0.297912
33.2983 33.0759 0.448589
34.2113 31.4052 0.267941
35.2282 29.1689 0.143898
37.5864 27.515 0.0992124
35.1312 27.5729 2
32.8666 32.427 2
33.2958 29.932 2
32.7491 28.3013 3.91255
31.7706 31.3576 3.84263
28.9914 24.4825 3.98712
29.6433 22.0001 2
30.2217 19.3891 0.0188582
35.0505 25.4093 0.00145719
32.3491 22.5303 0.00343449
31.8722 25.7524 2
29.9263 27.422 3.97767
30.7369 37.5115 3.73901
32.4651 37.5094 2
34.2928 37.5112 0.269165
33.3552 48.9948 0.021307
32.5071 46.1776 0.107626
32.6079 39.2806 0.402852
31.7657 43.6608 0.154487
31.8663 41.0762 0.269015
31.4005 47.8506 2
31.0736 39.4043 2
30.5224 41.9324 2
30.7693 44.8311 2
29.5839 46.4528 3.99842
29.678 39.8476 3.87269
29.2485 43.0396 3.9139
30.0796 49.6982 -0.00250988
28.1858 48.0803 2
26.3602 46.5382 3.97954
26.7427 49.907 0.0323035
24.979 48.3626 2
23.2329 46.9598 3.97522
23.6046 50.1012 0.0373932
22.0082 48.6881 2
20.3224 47.5285 3.97702
20.7483 50.2322 0.035099
19.3397 49.0111 2
17.9497 48.1087 3.97709
16.3723 48.6263 3.9764
17.1376 49.2681 2
16.0579 50.1159 3.97146
15.5256 52.3702 3.96714
16.9812 51.3484 2
18.2498 50.2605 0.031593
14.9412 54.9456 3.96369
16.5128 53.8252 2
18.0262 52.7331 0.0361437
14.4727 57.7211 3.96518
16.0111 56.4487 2
17.5193 55.2999 0.0374905
14.2711 60.6773 3.97044
15.7609 59.1888 2
17.1548 57.8463 0.0353006
14.3354 63.8569 3.98288
15.7915 62.1222 2
17.144 60.5209 0.0307897
14.6715 67.2507 4
16.0876 65.2971 2
17.4096 63.4609 0.0249643
16.6661 68.6801 2
17.9433 66.617 0.0115695
18.75 69.9759 0
18.9434 15.8066 3.97577
20.2262 14.6187 2
18.9838 13.1259 3.9754
21.5917 13.6242 0.0228219
20.5315 12.0099 2
19.3447 10.2421 3.97949
19.9923 7.14706 3.98941
21.1435 9.15207 2
22.1919 11.0359 0.0226716
20.9142 3.86727 4
22.0152 6.08313 2
23.0423 8.18094 0.017149
23.1494 2.85451 2
24.1187 5.14328 0.00927855
25.446 1.99014 0
31.1495 35.6387 3.73048
32.6093 35.7403 2
34.349 35.8776 0.284654
21.3182 15.8542 0.0162015
22.1145 16.6562 2
20.3243 16.9822 2
19.2851 18.436 3.96262
21.8029 17.8881 3.98271
25.3936 16.108 0.0188415
23.2817 16.2662 0.0252296
24.2207 18.5134 2
22.3458 19.9463 3.96536
24.6703 21.4217 3.98812
26.6005 23.7853 3.97816
27.0883 21.5114 2
27.4557 18.8377 0.0205453
30.5974 33.115 3.86066
31.8544 33.9069 2
32.9374 34.1883 0.410832
32.9367 32.4663 0.261647
33.3151 29.9638 0.143949
35.1237 27.6177 0.0975446
32.7136 28.2736 2
31.7202 31.3232 2
30.4968 29.7008 3.93791
28.179 26.6321 3.99224
28.9815 24.491 2
29.6472 21.9927 0.0024303
31.878 25.7748 -0.00384418
29.9182 27.4012 2
29.2472 37.5129 3.86676
30.6948 37.5116 2
32.4552 37.5109 0.369647
31.4118 47.8383 0.0193097
30.8053 44.7985 0.0887569
31.1313 39.3803 0.266402
30.5532 41.9157 0.151604
29.5846 46.4527 2
29.622 39.8653 2
29.2185 43.0782 2
27.8118 44.7681 3.97176
27.4441 40.5837 3.94288
28.1899 48.0856 0.0405636
26.3565 46.5427 2
24.5147 45.0786 3.97684
24.9802 48.363 0.030371
23.2312 46.9594 2
21.3217 45.7982 3.97796
22.0107 48.6894 0.028702
20.3208 47.5273 2
18.6542 46.6584 3.9772
19.3383 49.0125 0.027539
17.9501 48.1076 2
16.5939 47.6526 3.97692
16.3738 48.6254 2
15.4017 48.9652 3.97519
17.1362 49.2692 0.0260689
16.0599 50.1149 2
14.6452 50.942 3.96977
13.9178 53.4032 3.96551
15.5265 52.3696 2
16.9799 51.3493 0.0325112
13.2753 56.1518 3.96406
14.9413 54.9456 2
16.5115 53.8256 0.0352077
12.8553 59.114 3.96852
14.4742 57.7212 2
16.0116 56.4483 0.0369121
12.6813 62.2986 3.97945
14.2718 60.6778 2
15.7599 59.188 0.0329854
12.7746 65.6939 4
14.3332 63.8535 2
15.7918 62.1193 0.0283403
14.6714 67.2507 2
16.0901 65.2988 0.0128245
16.6661 68.6801 0
17.6891 17.1842 3.97
18.9434 15.8051 2
17.5176 14.392 3.97379
20.2262 14.6206 0.0258796
18.9832 13.1254 2
17.6409 11.4624 3.97733
20.5323 12.0092 0.0243528
19.3432 10.2426 2
18.0525 8.34041 3.98812
18.75 5.0241 4
19.9896 7.14879 2
21.145 9.15167 0.0186279
20.9142 3.86727 2
22.0178 6.08233 0.00979894
23.1494 2.85457 0
29.6979 35.1887 3.87231
31.0943 35.6167 2
32.5987 35.7444 0.402128
22.1139 16.6571 0.0302566
20.324 16.9851 0.0207047
21.8024 17.8862 2
19.2842 18.4328 2
18.0721 19.9849 3.95852
20.9362 19.42 3.96483
24.2241 18.5079 0.0288244
22.3423 19.9477 2
24.6704 21.4183 2
22.475 21.7832 3.98131
24.87 23.2251 3.97525
25.7727 26.0173 3.97865
26.5996 23.7828 2
27.0871 21.529 0.00548151
28.9783 32.4629 3.91717
30.5453 33.0868 2
31.889 33.9516 0.272099
31.7706 31.3576 0.157374
32.7491 28.3013 0.0874539
30.4775 29.6975 2
27.4661 29.2161 4.00919
28.1684 26.639 2
28.9914 24.4825 0.012881
29.9263 27.422 0.0223305
27.5586 37.3616 3.92051
29.183 37.5054 2
30.7369 37.5115 0.260988
29.5839 46.4528 0.00157536
29.2485 43.0396 0.0861041
29.678 39.8476 0.127314
27.7995 44.7996 2
27.4219 40.5789 2
25.8587 43.0741 3.98895
24.7019 39.4492 3.97311
26.3602 46.5382 0.0204634
24.5038 45.0802 2
22.4066 43.8412 3.97744
23.2329 46.9598 0.0247754
21.3179 45.7979 2
19.3844 44.8936 3.97702
20.3224 47.5285 0.0229754
18.654 46.6579 2
16.9318 46.1471 3.97694
17.9497 48.1087 0.0229126
16.5951 47.6517 2
15.1565 47.6201 3.97629
16.3723 48.6263 0.0236044
15.4036 48.9643 2
13.9507 49.5059 3.97217
16.0579 50.1159 0.0285421
14.6462 50.9414 2
12.9908 51.8449 3.96727
12.1765 54.5117 3.96469
13.9177 53.4031 2
15.5256 52.3702 0.0328648
11.5411 57.4499 3.96824
13.276 56.1519 2
14.9412 54.9456 0.0363149
11.1361 60.6246 3.97785
12.8565 59.1136 2
14.4727 57.7211 0.0348171
10.9835 64.0165 4
12.6795 62.2949 2
14.2711 60.6773 0.0295644
12.7745 65.694 2
14.3354 63.8569 0.0171249
14.6715 67.2507 0
16.44 18.6802 3.96228
17.6882 17.1824 2
16.1127 15.8061 3.96856
18.9434 15.8066 0.024234
17.5172 14.391 2
16.0232 12.8175 3.97439
18.9838 13.1259 0.0246033
17.6397 11.4641 2
16.2035 9.66379 3.98684
19.3447 10.2421 0.020506
18.0497 8.3428 2
16.6661 6.31991 4
18.75 5.02404 2
19.9923 7.14706 0.010593
20.9142 3.86727 0
28.0928 34.8256 3.90997
29.6407 35.1609 2
31.1495 35.6387 0.26952
16.7901 21.4214 3.9655
21.8029 17.8881 0.0172921
19.2851 18.436 0.0373842
20.9339 19.418 2
18.0701 19.9836 2
19.8563 21.6295 3.96885
22.3458 19.9463 0.0346428
24.6703 21.4217 0.0118826
22.4729 21.7846 2
24.8678 23.2263 2
23.103 24.6751 3.97432
25.0096 28.605 3.97929
25.7658 26.0227 2
26.6005 23.7853 0.0218362
26.8295 31.806 3.97862
28.9503 32.4448 2
30.5974 33.115 0.139343
30.4968 29.7008 0.0620924
27.4804 29.1981 2
28.179 26.6321 0.00775931
25.3881 36.8556 3.97536
27.547 37.3596 2
29.2472 37.5129 0.133243
27.8118 44.7681 0.0282352
27.4441 40.5837 0.0571209
25.8395 43.0892 2
24.6836 39.4511 2
23.5929 41.81 3.98141
22.4191 38.5189 3.97813
24.5147 45.0786 0.0231618
22.407 43.841 2
20.2337 42.8332 3.97625
21.3217 45.7982 0.0220375
19.3851 44.8933 2
17.32 44.3196 3.97632
18.6542 46.6584 0.0227966
16.9334 46.1466 2
15.1078 46.0402 3.97627
16.5939 47.6526 0.0230827
15.1582 47.6194 2
13.4761 47.9702 3.97398
15.4017 48.9652 0.0248134
13.9519 49.5053 2
12.218 50.2255 3.96877
14.6452 50.942 0.0302343
12.9913 51.8446 2
11.1757 52.8231 3.96543
10.3317 55.7055 3.96807
12.1768 54.5117 2
13.9178 53.4032 0.0344935
9.70266 58.8472 3.97722
11.5417 57.4495 2
13.2753 56.1518 0.035942
9.30605 62.2254 4
11.1345 60.6207 2
12.8553 59.114 0.031481
10.9835 64.0165 2
12.6813 62.2986 0.0205517
12.7746 65.6939 0
15.2151 20.2189 3.96273
16.4418 18.6801 2
14.7629 17.3269 3.966
17.6891 17.1842 0.0300044
16.1119 15.804 2
14.4876 14.3085 3.97162
17.5176 14.392 0.0262144
16.0225 12.819 2
14.4463 11.116 3.98532
17.6409 11.4624 0.0226731
16.2009 9.66706 2
14.6715 7.74927 4
18.0525 8.34041 0.0118777
16.6661 6.31988 2
18.75 5.0241 0
26.0532 34.3239 3.98341
28.0716 34.8335 2
29.6979 35.1887 0.127691
18.0156 22.377 3.9717
15.6775 22.9658 3.96889
16.7896 21.4212 2
20.9362 19.42 0.0351652
18.0721 19.9849 0.0414798
19.8548 21.6287 2
19.9417 24.4579 3.97036
22.475 21.7832 0.0186874
24.87 23.2251 0.0247529
23.1003 24.6746 2
22.3726 27.9193 3.97279
24.3881 31.2873 3.97667
25.0168 28.603 2
25.7727 26.0173 0.0213492
26.8117 31.7753 2
28.9783 32.4629 0.0828292
27.4661 29.2161 -0.00918696
23.1417 36.2857 3.9826
25.3739 36.8588 2
27.5586 37.3616 0.0794874
25.8587 43.0741 0.0110454
24.7019 39.4492 0.0268913
23.5794 41.8101 2
22.4105 38.5164 2
21.2955 40.6269 3.97523
20.6721 37.8018 3.97708
22.4066 43.8412 0.0225563
20.2325 42.8344 2
17.7878 42.0533 3.97603
19.3844 44.8936 0.0229751
17.3211 44.32 2
15.1498 44.1507 3.97628
16.9318 46.1471 0.0230591
15.109 46.0396 2
13.1717 46.2592 3.97519
15.1565 47.6201 0.0237143
13.4776 47.9695 2
11.6024 48.524 3.97012
13.9507 49.5059 0.0278332
12.219 50.225 2
10.305 51.0683 3.96602
12.9908 51.8449 0.0327335
11.1762 52.8228 2
9.24057 53.886 3.96794
8.38608 56.9808 3.97796
10.3325 55.7048 2
12.1765 54.5117 0.0353117
7.74927 60.3285 4
9.70143 58.8432 2
11.5411 57.4499 0.0317573
9.306 62.2255 2
11.1361 60.6246 0.0221537
10.9835 64.0165 0
14.0438 21.7845 3.9655
15.2145 20.2184 2
13.4671 18.9203 3.96473
16.44 18.6802 0.0377242
14.7646 17.3267 2
13.034 15.9018 3.96961
16.1127 15.8061 0.0314415
14.4871 14.3045 2
12.7842 12.6902 3.98206
16.0232 12.8175 0.0256079
14.4437 11.1196 2
12.7746 9.30605 4
16.2035 9.66379 0.0131634
14.6715 7.74924 2
16.6661 6.31991 0
23.73 33.8595 3.98317
26.0301 34.3146 2
28.0928 34.8256 0.090026
17.8739 24.107 3.97034
18.02 22.3777 2
14.5185 24.5 3.97054
15.6785 22.9659 2
16.7901 21.4214 0.0344951
19.4152 27.2884 3.9727
19.8563 21.6295 0.0311459
19.9374 24.4577 2
21.7257 30.7616 3.97518
23.103 24.6751 0.0256765
22.3761 27.9208 2
24.3655 31.2862 2
25.0096 28.605 0.0207117
26.8295 31.806 0.0213813
20.795 35.956 3.97654
23.1427 36.2857 2
25.3881 36.8556 0.0246354
23.5929 41.81 0.0185902
22.4191 38.5189 0.0218692
21.3024 40.6282 2
20.6718 37.8006 2
18.5366 38.9985 3.97703
20.2337 42.8332 0.0237471
17.7878 42.0532 2
15.1348 41.8832 3.97645
17.32 44.3196 0.0236761
15.1508 44.1504 2
12.9341 44.3591 3.97605
15.1078 46.0402 0.0237311
13.1734 46.2586 2
11.1163 46.71 3.97155
13.4761 47.9702 0.0260237
11.6038 48.5235 2
9.57247 49.2292 3.96652
12.218 50.2255 0.0312252
10.3055 51.0679 2
8.27336 52.0002 3.96774
11.1757 52.8231 0.0345733
9.24123 53.8851 2
7.19508 55.0319 3.97877
6.31991 58.3339 4
8.38519 56.977 2
10.3317 55.7055 0.0319311
7.74924 60.3285 2
9.70266 58.8472 0.0227828
9.30605 62.2254 0
13.3973 25.4026 3.97412
12.9436 23.3143 3.96791
14.043 21.7841 2
12.2652 20.5672 3.96511
15.2151 20.2189 0.0372722
13.4677 18.9197 2
11.6647 17.5775 3.96998
14.7629 17.3269 0.0339962
13.0358 15.901 2
11.2223 14.3767 3.97779
14.4876 14.3085 0.0283797
12.7818 12.6945 2
10.9835 10.9835 4
14.4463 11.116 0.0146769
12.7745 9.306 2
14.6715 7.74927 0
21.1595 33.4635 3.97561
23.7315 33.8504 2
26.0532 34.3239 0.0165882
16.1996 26.4648 3.97294
17.8749 24.1073 2
18.0156 22.377 0.0283012
14.5185 24.5004 2
15.6775 22.9658 0.031111
18.806 30.2578 3.97505
19.4129 27.2887 2
19.9417 24.4579 0.0296388
21.7354 30.7622 2
22.3726 27.9193 0.0272073
24.3881 31.2873 0.0233305
18.147 35.9879 3.97776
20.7973 35.9568 2
23.1417 36.2857 0.0173977
21.2955 40.6269 0.0247651
20.6721 37.8018 0.0229248
18.5351 38.9979 2
14.6383 39.1671 3.97714
17.7878 42.0533 0.0239732
15.1351 41.883 2
12.6306 42.251 3.97678
15.1498 44.1507 0.0237229
12.9355 44.3585 2
10.705 44.7823 3.97269
13.1717 46.2592 0.0248063
11.118 46.7095 2
8.95818 47.3093 3.96696
11.6024 48.524 0.0298832
9.57264 49.2288 2
7.44016 50.0341 3.96743
10.305 51.0683 0.0339835
8.27382 51.9994 2
6.13572 53.0073 3.97918
9.24057 53.886 0.0320558
7.19457 55.0288 2
5.0241 56.25 4
6.31988 58.3339 2
8.38608 56.9808 0.0220434
7.74927 60.3285 0
13.6666 26.8566 3.97411
12.0538 24.8174 3.97015
13.3965 25.4028 2
11.1868 22.251 3.96562
12.9445 23.3145 2
14.0438 21.7845 0.0344995
12.2657 20.5668 2
10.3965 19.328 3.96883
13.4671 18.9203 0.0352705
11.6666 17.5775 2
9.76305 16.1601 3.97737
13.034 15.9018 0.030388
11.2205 14.3816 2
9.30607 12.7746 4
12.7842 12.6902 0.0179404
10.9835 10.9835 2
12.7746 9.30605 0
18.3161 33.1708 3.97671
21.1606 33.4658 2
23.73 33.8595 0.0168277
15.8232 29.6974 3.97573
16.2002 26.4654 2
17.8739 24.107 0.0296573
14.5185 24.5 0.0294619
18.8052 30.2585 2
19.4152 27.2884 0.0272996
21.7257 30.7616 0.0248178
15.2605 36.0347 3.97741
18.1467 35.9881 2
20.795 35.956 0.0234649
12.8606 37.8297 3.97726
18.5366 38.9985 0.022966
14.6385 39.167 2
12.1356 40.1272 3.9769
15.1348 41.8832 0.0235506
12.6321 42.2505 2
10.309 42.7629 3.97316
12.9341 44.3591 0.023949
10.7066 44.7819 2
8.43771 45.3127 3.96749
11.1163 46.71 0.0284474
8.95789 47.309 2
6.73123 47.9995 3.96723
9.57247 49.2292 0.0334846
7.44047 50.0333 2
5.2125 50.9107 3.97888
8.27336 52.0002 0.0322584
6.13548 53.0053 2
3.86727 54.0858 4
7.19508 55.0319 0.0212301
5.02404 56.25 2
6.31991 58.3339 0
13.1485 29.0718 3.97382
11.4989 26.5156 3.9706
13.6662 26.8569 2
10.2474 23.9817 3.96662
12.0555 24.8177 2
13.3973 25.4026 0.0258776
9.24913 21.1432 3.96826
11.1869 22.2509 2
12.9436 23.3143 0.0320872
12.2652 20.5672 0.0348885
10.3982 19.3282 2
8.41874 18.0308 3.9775
11.6647 17.5775 0.030021
9.76174 16.1651 2
7.74928 14.6715 4
11.2223 14.3767 0.0222062
9.30602 12.7745 2
10.9835 10.9835 0
14.8133 32.907 3.9769
18.3148 33.1702 2
21.1595 33.4635 0.0243876
15.8248 29.6981 2
16.1996 26.4648 0.0270609
18.806 30.2578 0.0249458
13.1538 36.2211 3.97701
15.2599 36.0345 2
18.147 35.9879 0.0222432
12.8621 37.8294 2
11.4737 38.3086 3.97696
14.6383 39.1671 0.0228594
12.1381 40.1267 2
9.88667 40.7455 3.97424
12.6306 42.251 0.02322
10.3115 42.7625 2
7.98518 43.2636 3.96819
10.705 44.7823 0.0273069
8.43838 45.3123 2
6.13704 45.9048 3.96736
8.95818 47.3093 0.033037
6.73152 47.9988 2
4.42394 48.7514 3.9783
7.44016 50.0341 0.0325743
5.21245 50.9096 2
2.85457 51.8506 4
6.13572 53.0073 0.020816
3.86727 54.0858 2
5.0241 56.25 0
12.2848 31.2869 3.97548
10.9185 28.4403 3.97103
13.1496 29.0723 2
9.46512 25.8103 3.9672
11.5001 26.5159 2
13.6666 26.8566 0.0258916
8.23595 23.0259 3.968
10.2477 23.9818 2
12.0538 24.8174 0.0298527
7.20093 19.9801 3.97835
9.25046 21.1436 2
11.1868 22.251 0.0343763
10.3965 19.328 0.0311711
8.41807 18.0353 2
6.31992 16.6661 4
9.76305 16.1601 0.0226253
7.74926 14.6714 2
9.30607 12.7746 0
12.3192 34.3169 3.97689
14.814 32.9077 2
18.3161 33.1708 0.0232945
15.8232 29.6974 0.0242721
11.0165 36.6173 3.97693
13.1548 36.2209 2
15.2605 36.0347 0.0225891
12.8606 37.8297 0.0227357
11.4766 38.3082 2
9.46926 38.8205 3.97501
12.1356 40.1272 0.0231032
9.88858 40.7452 2
7.59358 41.2074 3.96875
10.309 42.7629 0.0268448
7.9846 43.2633 2
5.64859 43.7678 3.96766
8.43771 45.3127 0.0325137
6.13725 45.9042 2
3.7694 46.537 3.97812
6.73123 47.9995 0.0327726
4.42411 48.7507 2
1.99014 49.554 4
5.2125 50.9107 0.021116
2.85451 51.8506 2
3.86727 54.0858 0
11.1051 32.9394 3.97675
10.2282 30.4026 3.97194
12.2864 31.2874 2
8.77556 27.7427 3.96747
10.9198 28.4406 2
13.1485 29.0718 0.0261777
7.36121 24.9839 3.96772
9.46503 25.8105 2
11.4989 26.5156 0.0294026
6.11792 22.0029 3.97916
8.23678 23.0263 2
10.2474 23.9817 0.0333836
5.02411 18.75 4
7.2007 19.9834 2
9.24913 21.1432 0.0317354
8.41874 18.0308 0.0225001
6.3199 16.6661 2
7.74928 14.6715 0
10.6126 35.0112 3.97675
12.3209 34.3173 2
14.8133 32.907 0.0231009
9.13395 36.9871 3.97476
11.0195 36.6175 2
13.1538 36.2211 0.0229861
11.4737 38.3086 0.0230425
9.47098 38.8203 2
7.27002 39.1805 3.96908
9.88667 40.7455 0.0257622
7.59399 41.2071 2
5.26359 41.6136 3.96772
7.98518 43.2636 0.0318051
5.64876 43.7673 2
3.24699 44.2817 3.9784
6.13704 45.9048 0.0326403
3.76965 46.5365 2
1.27781 47.2057 4
4.42394 48.7514 0.0216953
1.99012 49.554 2
2.85457 51.8506 0
10.2506 33.8957 3.97676
9.50965 32.1694 3.97257
11.1074 32.9399 2
8.1195 29.7041 3.96789
10.2299 30.403 2
12.2848 31.2869 0.0245242
6.60452 27.0094 3.96763
8.77525 27.7428 2
10.9185 28.4403 0.0289731
5.17329 24.0952 3.9791
7.36167 24.9843 2
9.46512 25.8103 0.0328044
3.86728 20.9142 4
6.1179 22.0047 2
8.23595 23.0259 0.0320038
5.02406 18.75 2
7.20093 19.9801 0.0216541
6.31992 16.6661 0
8.9546 35.286 3.97449
10.6154 35.0115 2
12.3192 34.3169 0.0231142
7.04835 37.2064 3.96903
9.13556 36.987 2
11.0165 36.6173 0.0230732
9.46926 38.8205 0.0249903
7.27097 39.1804 2
4.99104 39.4672 3.96802
7.59358 41.2074 0.0312544
5.26413 41.6133 2
2.85736 42.002 3.97851
5.64859 43.7678 0.0323358
3.24711 44.2813 2
0.720592 44.8159 4
3.7694 46.537 0.0218795
1.27778 47.2057 2
1.99014 49.554 0
8.99767 33.7081 3.97374
10.2533 33.8961 2
7.55257 31.6155 3.96842
9.51179 32.1697 2
11.1051 32.9394 0.0232457
5.94935 29.0703 3.96771
8.11909 29.7043 2
10.2282 30.4026 0.0280561
4.36087 26.2475 3.97869
6.60478 27.0098 2
8.77556 27.7427 0.0325286
2.85458 23.1494 4
5.1734 24.096 2
7.36121 24.9839 0.0322798
3.86728 20.9142 2
6.11792 22.0029 0.0208426
5.02411 18.75 0
6.99681 35.3084 3.96898
8.95635 35.286 2
10.6126 35.0112 0.023253
4.84104 37.3398 3.96848
7.04934 37.2063 2
9.13395 36.9871 0.0252396
7.27002 39.1805 0.0309239
4.99159 39.467 2
2.60534 39.7136 3.97861
5.26359 41.6136 0.0322752
2.85779 42.0018 2
0.320823 42.3947 4
3.24699 44.2817 0.0216015
0.720551 44.8159 2
1.27781 47.2057 0
7.16209 33.4652 3.96871
8.99955 33.7082 2
10.2506 33.8957 0.0232402
5.4197 31.134 3.96823
7.55265 31.6156 2
9.50965 32.1694 0.0274285
3.68244 28.4435 3.97839
5.9496 29.0706 2
8.1195 29.7041 0.0321067
1.99015 25.446 4
4.36106 26.2478 2
6.60452 27.0094 0.0323723
2.85453 23.1494 2
5.17329 24.0952 0.0208958
3.86728 20.9142 0
4.85545 35.2517 3.96837
6.99689 35.3084 2
8.9546 35.286 0.0255062
2.49674 37.4283 3.97944
4.84111 37.3399 2
7.04835 37.2064 0.0309679
4.99104 39.4672 0.0319809
2.60587 39.7139 2
0.080333 39.9526 4
2.85736 42.002 0.0214927
0.320817 42.3947 2
0.720592 44.8159 0
5.04888 33.1905 3.96838
7.16235 33.4653 2
8.99767 33.7081 0.0262556
3.14655 30.6662 3.97866
5.41992 31.1344 2
7.55257 31.6155 0.0315826
1.27793 27.7943 4
3.68275 28.4437 2
5.94935 29.0703 0.032294
1.99013 25.446 2
4.36087 26.2475 0.0213098
2.85458 23.1494 0
2.54887 35.1589 3.97911
4.85611 35.252 2
6.99681 35.3084 0.0310212
0 37.5 4
2.49681 37.4287 2
4.84104 37.3398 0.0315165
2.60534 39.7136 0.0213889
0.0802903 39.9526 2
0.320823 42.3947 0
2.76652 32.9057 3.97925
5.0491 33.1908 2
7.16209 33.4652 0.0312924
0.721173 30.1842 4
3.14687 30.6666 2
5.4197 31.134 0.0317673
1.27779 27.7943 2
3.68244 28.4435 0.021609
1.99015 25.446 0
0.0806499 35.0474 4
2.54949 35.1593 2
4.85545 35.2517 0.031628
0 37.5 2
2.49674 37.4283 0.0205575
0.080333 39.9526 0
0.32156 32.6054 4
2.76668 32.9062 2
5.04888 33.1905 0.0316243
0.72056 30.1841 2
3.14655 30.6662 0.0213354
1.27793 27.7943 0
0.0802889 35.0474 2
2.54887 35.1589 0.0208876
0 37.5 0
0.320817 32.6053 2
2.76652 32.9057 0.020754
0.721173 30.1842 0
0.0806499 35.0474 0
0.32156 32.6054 0
CELLS 1910 17190
8 18 6 25 56 2 0 5 16
8 57 23 6 18 17 4 0 2
8 78 36 9 29 31 11 1 7
8 31 11 1 7 79 37 10 30
8 110 57 18 50 48 17 2 14
8 50 18 56 111 14 2 16 49
8 116 62 22 55 52 20 3 15
8 56 25 67 118 16 5 24 53
8 119 63 23 57 54 21 4 17
8 55 22 63 119 15 3 21 54
8 58 26 68 121 18 6 25 56
8 122 65 26 58 57 23 6 18
8 73 31 7 27 142 79 30 71
8 143 78 29 72 73 31 7 27
8 83 147 76 34 32 74 28 8
8 84 148 78 36 33 75 29 9
8 76 34 8 28 148 84 33 75
8 37 79 150 86 10 30 77 35
8 151 87 36 78 80 38 11 31
8 80 38 11 31 152 88 37 79
8 175 100 42 94 96 44 12 40
8 44 96 176 101 12 40 95 43
8 101 176 98 46 43 95 41 13
8 46 98 178 103 13 41 97 45
8 178 103 45 97 147 83 32 74
8 189 116 55 109 106 52 15 47
8 111 56 118 191 49 16 53 107
8 192 119 57 110 108 54 17 48
8 109 55 119 192 47 15 54 108
8 194 122 58 112 110 57 18 50
8 112 58 121 195 50 18 56 111
8 115 61 19 51 197 124 59 113
8 115 61 125 198 51 19 60 114
8 198 125 62 116 114 60 20 52
8 200 127 64 120 116 62 22 55
8 118 67 132 202 53 24 66 117
8 121 68 133 203 56 25 67 118
8 120 64 128 204 55 22 63 119
8 204 128 65 122 119 63 23 57
8 206 134 68 121 123 69 26 58
8 123 69 26 58 207 131 65 122
8 226 147 74 138 140 76 28 70
8 229 148 75 139 143 78 29 72
8 140 76 28 70 229 148 75 139
8 142 79 30 71 231 150 77 141
8 144 80 31 73 232 152 79 142
8 233 151 78 143 144 80 31 73
8 150 86 35 77 235 154 81 145
8 235 154 81 145 146 82 39 91
8 146 82 39 91 236 155 90 165
8 238 157 83 147 149 85 34 76
8 239 158 84 148 151 87 36 78
8 149 85 34 76 239 158 84 148
8 152 88 37 79 241 160 86 150
8 242 161 87 151 153 89 38 80
8 153 89 38 80 243 162 88 152
8 171 98 41 92 265 178 97 169
8 265 178 97 169 226 147 74 138
8 172 96 40 93 266 176 95 170
8 266 176 95 170 171 98 41 92
8 269 175 94 173 172 96 40 93
8 271 180 99 174 175 100 42 94
8 197 124 59 113 271 180 99 174
8 272 181 100 175 177 102 44 96
8 273 182 101 176 179 104 46 98
8 177 102 44 96 273 182 101 176
8 179 104 46 98 275 184 103 178
8 275 184 103 178 238 157 83 147
8 188 115 51 105 283 197 113 186
8 188 115 198 284 105 51 114 187
8 284 198 116 189 187 114 52 106
8 286 200 120 193 189 116 55 109
8 191 118 202 288 107 53 117 190
8 195 121 203 289 111 56 118 191
8 193 120 204 290 109 55 119 192
8 290 204 122 194 192 119 57 110
8 196 123 58 112 292 207 122 194
8 293 206 121 195 196 123 58 112
8 199 126 61 115 297 211 124 197
8 298 212 127 200 198 125 62 116
8 199 126 212 298 115 61 125 198
8 205 129 64 120 300 214 127 200
8 301 217 130 201 202 132 66 117
8 209 136 168 264 301 217 130 201
8 302 219 132 202 203 133 67 118
8 303 220 133 203 206 134 68 121
8 205 129 215 304 120 64 128 204
8 304 215 131 207 204 128 65 122
8 306 221 134 206 208 135 69 123
8 208 135 69 123 307 218 131 207
8 210 137 167 263 309 223 136 209
8 328 238 147 226 230 149 76 140
8 228 146 91 166 329 236 165 260
8 231 150 77 141 330 235 145 227
8 330 235 145 227 228 146 91 166
8 332 239 148 229 233 151 78 143
8 230 149 76 140 332 239 148 229
8 232 152 79 142 334 241 150 231
8 234 153 80 144 335 243 152 232
8 336 242 151 233 234 153 80 144
8 236 155 90 165 338 245 164 259
8 241 160 86 150 339 246 154 235
8 339 246 154 235 237 156 82 146
8 237 156 82 146 340 247 155 236
8 342 249 157 238 240 159 85 149
8 343 250 158 239 242 161 87 151
8 240 159 85 149 343 250 158 239
8 243 162 88 152 345 252 160 241
8 244 163 253 346 153 89 161 242
8 244 163 89 153 347 254 162 243
8 311 224 261 371 210 137 167 263
8 263 167 262 372 209 136 168 264
8 267 179 98 171 375 275 178 265
8 375 275 178 265 328 238 147 226
8 376 273 176 266 267 179 98 171
8 268 177 96 172 376 273 176 266
8 379 272 175 269 268 177 96 172
8 380 271 174 270 269 175 94 173
8 283 197 113 186 380 271 174 270
8 381 277 180 271 272 181 100 175
8 297 211 124 197 381 277 180 271
8 382 278 181 272 274 183 102 177
8 274 183 102 177 383 279 182 273
8 383 279 182 273 276 185 104 179
8 385 281 184 275 342 249 157 238
8 276 185 104 179 385 281 184 275
8 285 199 115 188 393 297 197 283
8 394 298 200 286 284 198 116 189
8 285 199 298 394 188 115 198 284
8 291 205 120 193 396 300 200 286
8 397 301 201 287 288 202 117 190
8 295 209 264 374 397 301 201 287
8 398 302 202 288 289 203 118 191
8 399 303 203 289 293 206 121 195
8 291 205 304 400 193 120 204 290
8 400 304 207 292 290 204 122 194
8 294 208 123 196 402 307 207 292
8 403 306 206 293 294 208 123 196
8 296 210 263 373 405 309 209 295
8 408 312 213 299 297 211 126 199
8 299 213 313 409 199 126 212 298
8 409 313 214 300 298 212 127 200
8 305 216 129 205 411 315 214 300
8 412 318 217 301 302 219 132 202
8 309 223 136 209 412 318 217 301
8 413 320 219 302 303 220 133 203
8 306 221 321 414 206 134 220 303
8 307 218 131 207 415 316 215 304
8 305 216 316 415 205 129 215 304
8 417 322 221 306 308 222 135 208
8 308 222 135 208 418 319 218 307
8 310 225 137 210 420 325 223 309
8 423 326 224 311 310 225 137 210
8 329 236 165 260 441 338 259 368
8 442 342 238 328 333 240 149 230
8 331 237 146 228 443 340 236 329
8 334 241 150 231 444 339 235 330
8 444 339 235 330 331 237 146 228
8 446 343 239 332 336 242 151 233
8 333 240 149 230 446 343 239 332
8 335 243 152 232 448 345 241 334
8 337 244 153 234 449 347 243 335
8 337 244 346 450 234 153 242 336
8 338 245 164 259 452 349 258 367
8 340 247 155 236 453 350 245 338
8 345 252 160 241 454 351 246 339
8 454 351 246 339 341 248 156 237
8 341 248 156 237 455 352 247 340
8 240 159 251 344 342 249 354 457
8 242 161 253 346 343 250 355 458
8 343 250 355 458 240 159 251 344
8 347 254 162 243 460 357 252 345
8 348 255 358 461 244 163 253 346
8 348 255 163 244 462 359 254 347
8 473 360 257 365 363 256 364 482
8 452 349 258 367 365 257 366 485
8 422 324 369 488 311 224 261 371
8 371 261 370 490 263 167 262 372
8 407 311 371 491 296 210 263 373
8 373 263 372 492 295 209 264 374
8 493 385 275 375 442 342 238 328
8 377 276 179 267 493 385 275 375
8 378 274 177 268 494 383 273 376
8 494 383 273 376 377 276 179 267
8 497 382 272 379 378 274 177 268
8 498 381 271 380 379 272 175 269
8 393 297 197 283 498 381 271 380
8 499 387 277 381 382 278 181 272
8 408 312 211 297 499 387 277 381
8 500 388 278 382 384 280 183 274
8 501 389 279 383 386 282 185 276
8 384 280 183 274 501 389 279 383
8 386 282 185 276 503 391 281 385
8 503 391 281 385 457 354 249 342
8 511 408 299 395 393 297 199 285
8 395 299 409 512 285 199 298 394
8 512 409 300 396 394 298 200 286
8 401 305 205 291 514 411 300 396
8 515 412 301 397 398 302 202 288
8 405 309 209 295 515 412 301 397
8 516 413 302 398 399 303 203 289
8 403 306 414 517 293 206 303 399
8 402 307 207 292 518 415 304 400
8 401 305 415 518 291 205 304 400
8 404 308 208 294 520 418 307 402
8 521 417 306 403 404 308 208 294
8 406 310 210 296 523 420 309 405
8 526 423 311 407 406 310 210 296
8 410 314 213 299 527 424 312 408
8 528 425 315 411 409 313 214 300
8 410 314 425 528 299 213 313 409
8 416 317 216 305 530 427 315 411
8 531 430 318 412 413 320 219 302
8 420 325 223 309 531 430 318 412
8 532 432 320 413 414 321 220 303
8 417 322 433 533 306 221 321 414
8 418 319 218 307 534 428 316 415
8 416 317 428 534 305 216 316 415
8 419 323 434 536 308 222 322 417
8 419 323 222 308 537 431 319 418
8 421 327 225 310 539 438 325 420
8 421 327 439 541 310 225 326 423
8 543 437 324 422 423 326 224 311
8 441 338 259 368 559 452 367 486
8 443 340 236 329 560 453 338 441
8 333 240 344 447 442 342 457 561
8 445 341 237 331 562 455 340 443
8 448 345 241 334 563 454 339 444
8 563 454 339 444 445 341 237 331
8 336 242 346 450 446 343 458 565
8 446 343 458 565 333 240 344 447
8 449 347 243 335 567 460 345 448
8 451 348 244 337 568 462 347 449
8 451 348 461 569 337 244 346 450
8 570 463 349 452 473 360 257 365
8 453 350 245 338 570 463 349 452
8 455 352 247 340 571 464 350 453
8 460 357 252 345 572 465 351 454
8 572 465 351 454 456 353 248 341
8 456 353 248 341 573 466 352 455
8 344 251 356 459 457 354 468 575
8 458 355 469 576 344 251 356 459
8 346 253 358 461 458 355 469 576
8 462 359 254 347 578 471 357 460
8 348 255 359 462 461 358 472 579
8 591 474 360 473 475 361 256 363
8 475 361 256 363 594 477 362 479
8 363 256 364 482 479 362 480 603
8 590 473 365 484 481 363 482 605
8 482 364 257 365 606 483 366 485
8 559 452 367 486 484 365 485 607
8 542 436 487 609 422 324 369 488
8 525 422 488 611 407 311 371 491
8 488 369 489 612 371 261 370 490
8 491 371 490 613 373 263 372 492
8 495 386 276 377 614 503 385 493
8 614 503 385 493 561 457 342 442
8 615 501 383 494 495 386 276 377
8 496 384 274 378 615 501 383 494
8 618 500 382 497 496 384 274 378
8 619 499 381 498 497 382 272 379
8 511 408 297 393 619 499 381 498
8 620 505 387 499 500 388 278 382
8 527 424 312 408 620 505 387 499
8 502 390 506 621 384 280 388 500
8 622 507 389 501 504 392 282 386
8 502 390 280 384 622 507 389 501
8 504 392 282 386 624 509 391 503
8 624 509 391 503 575 468 354 457
8 513 410 299 395 630 527 408 511
8 631 528 411 514 512 409 300 396
8 513 410 528 631 395 299 409 512
8 519 416 305 401 633 530 411 514
8 634 531 412 515 516 413 302 398
8 523 420 309 405 634 531 412 515
8 635 532 413 516 517 414 303 399
8 521 417 533 636 403 306 414 517
8 520 418 307 402 637 534 415 518
8 519 416 534 637 401 305 415 518
8 522 419 308 404 639 537 418 520
8 522 419 536 640 404 308 417 521
8 524 421 310 406 642 539 420 523
8 524 421 541 644 406 310 423 526
8 646 543 422 525 526 423 311 407
8 529 426 314 410 647 544 424 527
8 528 425 545 648 411 315 427 530
8 529 426 545 648 410 314 425 528
8 535 429 317 416 649 546 427 530
8 650 548 430 531 532 432 320 413
8 539 438 325 420 650 548 430 531
8 533 433 550 651 414 321 432 532
8 536 434 551 652 417 322 433 533
8 537 431 319 418 653 547 428 534
8 535 429 547 653 416 317 428 534
8 538 435 552 654 419 323 434 536
8 538 435 323 419 655 549 431 537
8 540 440 327 421 657 556 438 539
8 540 440 557 659 421 327 439 541
8 541 439 555 660 423 326 437 543
8 661 554 436 542 543 437 324 422
8 676 570 452 559 590 473 365 484
8 560 453 338 441 676 570 452 559
8 562 455 340 443 677 571 453 560
8 447 344 459 566 561 457 575 678
8 564 456 341 445 679 573 455 562
8 567 460 345 448 680 572 454 563
8 680 572 454 563 564 456 341 445
8 565 458 576 682 447 344 459 566
8 450 346 461 569 565 458 576 682
8 568 462 347 449 684 578 460 567
8 451 348 462 568 569 461 579 685
8 686 580 463 570 591 474 360 473
8 571 464 350 453 686 580 463 570
8 573 466 352 455 687 581 464 571
8 572 465 582 688 460 357 471 578
8 574 467 582 688 456 353 465 572
8 574 467 353 456 689 583 466 573
8 459 356 470 577 575 468 585 691
8 576 469 586 692 459 356 470 577
8 461 358 472 579 576 469 586 692
8 462 359 471 578 579 472 588 694
8 704 591 473 590 593 475 363 481
8 595 476 592 705 475 361 474 591
8 593 475 363 481 707 594 479 602
8 594 477 362 479 709 598 478 600
8 595 476 361 475 711 597 477 594
8 479 362 480 603 600 478 601 720
8 481 363 482 605 602 479 603 722
8 603 480 364 482 723 604 483 606
8 605 482 365 484 724 606 485 607
8 656 553 608 726 542 436 487 609
8 645 542 609 728 525 422 488 611
8 609 487 610 729 488 369 489 612
8 611 488 612 730 491 371 490 613
8 616 504 386 495 731 624 503 614
8 731 624 503 614 678 575 457 561
8 732 622 501 615 616 504 386 495
8 617 502 384 496 732 622 501 615
8 617 502 621 735 496 384 500 618
8 736 620 499 619 618 500 382 497
8 630 527 408 511 736 620 499 619
8 621 506 626 737 500 388 505 620
8 647 544 424 527 737 626 505 620
8 623 508 627 738 502 390 506 621
8 623 508 390 502 739 628 507 622
8 625 510 628 739 504 392 507 622
8 740 629 509 624 691 585 468 575
8 625 510 392 504 740 629 509 624
8 632 529 410 513 744 647 527 630
8 631 528 648 745 514 411 530 633
8 632 529 648 745 513 410 528 631
8 638 535 416 519 746 649 530 633
8 747 650 531 634 635 532 413 516
8 642 539 420 523 747 650 531 634
8 636 533 651 748 517 414 532 635
8 640 536 652 749 521 417 533 636
8 639 537 418 520 750 653 534 637
8 638 535 653 750 519 416 534 637
8 641 538 419 522 751 655 537 639
8 641 538 654 752 522 419 536 640
8 643 540 421 524 753 657 539 642
8 643 540 659 755 524 421 541 644
8 644 541 660 757 526 423 543 646
8 758 661 542 645 646 543 422 525
8 529 426 544 647 648 545 662 759
8 530 427 545 648 649 546 663 760
8 535 429 546 649 653 547 664 761
8 762 666 548 650 651 550 432 532
8 657 556 438 539 762 666 548 650
8 652 551 668 763 533 433 550 651
8 654 552 669 764 536 434 551 652
8 655 549 431 537 765 665 547 653
8 538 435 549 655 654 552 667 766
8 661 554 671 768 542 436 553 656
8 658 558 440 540 769 674 556 657
8 658 558 675 770 540 440 557 659
8 659 557 673 771 541 439 555 660
8 660 555 672 772 543 437 554 661
8 788 686 570 676 704 591 473 590
8 677 571 453 560 788 686 570 676
8 679 573 455 562 789 687 571 677
8 566 459 577 683 678 575 691 790
8 681 574 456 564 791 689 573 679
8 680 572 688 792 567 460 578 684
8 681 574 688 792 564 456 572 680
8 682 576 692 794 566 459 577 683
8 569 461 579 685 682 576 692 794
8 568 462 578 684 685 579 694 796
8 687 581 464 571 798 696 580 686
8 798 696 580 686 705 592 474 591
8 689 583 466 573 799 697 581 687
8 688 582 698 800 578 471 588 694
8 690 584 698 800 574 467 582 688
8 690 584 467 574 801 699 583 689
8 693 587 701 803 577 470 585 691
8 693 587 470 577 804 702 586 692
8 695 589 702 804 579 472 586 692
8 695 589 472 579 805 703 588 694
8 708 595 705 813 593 475 591 704
8 710 596 706 814 595 476 592 705
8 707 594 479 602 816 709 600 719
8 708 595 475 593 817 711 594 707
8 709 598 478 600 819 715 599 717
8 711 597 477 594 820 714 598 709
8 710 596 476 595 822 713 597 711
8 600 478 601 720 717 599 718 832
8 602 479 603 722 719 600 720 834
8 720 601 480 603 835 721 604 723
8 722 603 482 605 836 723 606 724
8 767 670 725 839 656 553 608 726
8 756 656 726 841 645 542 609 728
8 726 608 727 842 609 487 610 729
8 728 609 729 843 611 488 612 730
8 844 740 624 731 790 691 575 678
8 733 625 504 616 844 740 624 731
8 734 623 502 617 845 739 622 732
8 733 625 739 845 616 504 622 732
8 734 623 738 846 617 502 621 735
8 735 621 737 847 618 500 620 736
8 744 647 527 630 847 737 620 736
8 621 506 627 738 737 626 741 848
8 647 544 626 737 759 662 741 848
8 623 508 628 739 738 627 742 849
8 740 629 585 691 850 743 700 802
8 625 510 629 740 739 628 743 850
8 632 529 647 744 745 648 759 854
8 633 530 648 745 746 649 760 855
8 638 535 649 746 750 653 761 856
8 857 762 650 747 748 651 532 635
8 753 657 539 642 857 762 650 747
8 749 652 763 858 636 533 651 748
8 752 654 764 859 640 536 652 749
8 751 655 537 639 860 765 653 750
8 641 538 655 751 752 654 766 861
8 754 658 540 643 862 769 657 753
8 754 658 770 863 643 540 659 755
8 755 659 771 864 644 541 660 757
8 758 661 768 866 645 542 656 756
8 757 660 772 867 646 543 661 758
8 759 662 773 868 648 545 663 760
8 649 546 663 760 761 664 774 871
8 765 665 547 653 872 775 664 761
8 873 777 666 762 763 668 550 651
8 769 674 556 657 873 777 666 762
8 764 669 779 874 652 551 668 763
8 654 552 667 766 764 669 778 875
8 655 549 665 765 766 667 776 876
8 768 671 782 877 656 553 670 767
8 772 672 783 878 661 554 671 768
8 658 558 674 769 770 675 786 879
8 659 557 675 770 771 673 785 881
8 882 784 672 772 771 673 555 660
8 789 687 571 677 897 798 686 788
8 897 798 686 788 813 705 591 704
8 791 689 573 679 898 799 687 789
8 795 693 803 900 683 577 691 790
8 793 690 574 681 901 801 689 791
8 792 688 800 902 684 578 694 796
8 793 690 800 902 681 574 688 792
8 795 693 577 683 903 804 692 794
8 797 695 804 903 685 579 692 794
8 797 695 579 685 904 805 694 796
8 905 806 697 799 798 696 581 687
8 814 706 806 905 705 592 696 798
8 689 583 697 799 801 699 808 907
8 800 698 809 908 694 588 703 805
8 690 584 699 801 800 698 809 908
8 803 701 810 909 691 585 700 802
8 693 587 702 804 803 701 811 910
8 695 589 703 805 804 702 812 911
8 818 710 814 919 708 595 705 813
8 821 712 815 920 710 596 706 814
8 816 709 600 719 922 819 717 831
8 817 711 594 707 923 820 709 816
8 818 710 595 708 924 822 711 817
8 819 715 599 717 926 827 716 829
8 820 714 598 709 927 826 715 819
8 929 825 713 822 820 714 597 711
8 821 712 596 710 930 824 713 822
8 717 599 718 832 829 716 830 942
8 719 600 720 834 831 717 832 944
8 832 718 601 720 945 833 721 835
8 834 720 603 722 946 835 723 836
8 869 780 838 950 767 670 725 839
8 865 767 839 952 756 656 726 841
8 839 725 840 953 726 608 727 842
8 841 726 842 954 728 609 729 843
8 844 740 691 790 955 850 802 899
8 733 625 740 844 845 739 850 955
8 734 623 739 845 846 738 849 956
8 735 621 738 846 847 737 848 957
8 744 647 737 847 854 759 848 957
8 738 627 742 849 848 741 851 958
8 848 741 851 958 759 662 773 868
8 850 743 700 802 959 852 807 906
8 849 742 628 739 959 852 743 850
8 854 759 868 965 745 648 760 855
8 746 649 760 855 856 761 871 966
8 860 765 653 750 967 872 761 856
8 968 873 762 857 858 763 651 748
8 862 769 657 753 968 873 762 857
8 859 764 874 969 749 652 763 858
8 752 654 766 861 859 764 875 970
8 751 655 765 860 861 766 876 971
8 754 658 769 862 863 770 879 972
8 755 659 770 863 864 771 881 974
8 976 882 772 867 864 771 660 757
8 866 768 877 977 756 656 767 865
8 867 772 878 978 758 661 768 866
8 760 663 773 868 871 774 883 980
8 870 781 837 948 982 890 780 869
8 982 890 780 869 877 782 670 767
8 761 664 774 871 872 775 884 984
8 876 776 665 765 985 885 775 872
8 873 777 668 763 986 887 779 874
8 769 674 777 873 879 786 887 986
8 764 669 778 875 874 779 888 987
8 766 667 776 876 875 778 886 988
8 878 783 892 989 768 671 782 877
8 878 783 672 772 990 893 784 882
8 880 787 675 770 991 896 786 879
8 880 787 895 992 770 675 785 881
8 881 785 894 993 771 673 784 882
8 1006 905 799 898 897 798 687 789
8 919 814 905 1006 813 705 798 897
8 791 689 799 898 901 801 907 1007
8 900 803 909 1009 790 691 802 899
8 795 693 804 903 900 803 910 1010
8 902 800 908 1011 796 694 805 904
8 793 690 801 901 902 800 908 1011
8 797 695 805 904 903 804 911 1012
8 799 697 806 905 907 808 912 1013
8 920 815 912 1013 814 706 806 905
8 802 700 810 909 906 807 913 1014
8 801 699 808 907 908 809 914 1015
8 805 703 809 908 911 812 915 1016
8 803 701 811 910 909 810 916 1017
8 911 812 917 1018 804 702 811 910
8 925 821 920 1030 818 710 814 919
8 928 823 921 1031 821 712 815 920
8 922 819 717 831 1033 926 829 941
8 923 820 709 816 1034 927 819 922
8 1035 929 822 924 923 820 711 817
8 925 821 710 818 1036 930 822 924
8 1038 933 825 929 927 826 714 820
8 926 827 716 829 1039 935 828 939
8 927 826 715 819 1040 934 827 926
8 928 823 712 821 1041 931 824 930
8 1042 932 824 930 929 825 713 822
8 829 716 830 942 939 828 940 1058
8 831 717 832 944 941 829 942 1060
8 942 830 718 832 1061 943 833 945
8 944 832 720 834 1062 945 835 946
8 981 889 947 1064 870 781 837 948
8 948 837 949 1067 869 780 838 950
8 975 869 950 1069 865 767 839 952
8 950 838 951 1070 839 725 840 953
8 952 839 953 1071 841 726 842 954
8 955 850 802 899 1072 959 906 1008
8 956 849 739 845 1072 959 850 955
8 846 738 849 956 957 848 958 1073
8 957 848 958 1073 854 759 868 965
8 849 742 852 959 958 851 961 1076
8 960 853 961 1076 906 807 852 959
8 958 851 961 1076 868 773 883 980
8 960 853 807 906 1077 963 913 1014
8 855 760 868 965 966 871 980 1085
8 856 761 871 966 967 872 984 1086
8 971 876 765 860 1087 985 872 967
8 968 873 763 858 1088 986 874 969
8 862 769 873 968 972 879 986 1088
8 859 764 875 970 969 874 987 1089
8 861 766 876 971 970 875 988 1090
8 973 880 770 863 1091 991 879 972
8 973 880 992 1092 863 770 881 974
8 974 881 993 1093 864 771 882 976
8 979 870 948 1066 1094 982 869 975
8 1094 982 869 975 977 877 767 865
8 978 878 772 867 1095 990 882 976
8 978 878 989 1096 866 768 877 977
8 871 774 883 980 984 884 994 1099
8 983 891 999 1100 870 781 889 981
8 1101 1000 890 982 989 892 782 877
8 983 891 781 870 1101 1000 890 982
8 872 775 884 984 985 885 995 1103
8 876 776 885 985 988 886 996 1104
8 986 887 779 874 1105 998 888 987
8 879 786 887 986 991 896 998 1105
8 875 778 886 988 987 888 997 1106
8 990 893 1002 1107 878 783 892 989
8 1108 1003 893 990 993 894 784 882
8 880 787 896 991 992 895 1005 1109
8 993 894 785 881 1110 1004 895 992
8 898 799 905 1006 1007 907 1013 1120
8 1030 920 1013 1120 919 814 905 1006
8 901 801 907 1007 1011 908 1015 1121
8 899 802 909 1009 1008 906 1014 1122
8 900 803 910 1010 1009 909 1017 1123
8 1012 911 1018 1124 903 804 910 1010
8 904 805 908 1011 1012 911 1016 1125
8 1013 912 1020 1127 907 808 914 1015
8 1031 921 1020 1127 920 815 912 1013
8 1019 918 962 1075 1128 1021 913 1014
8 1128 1021 913 1014 1017 916 810 909
8 1015 914 1022 1129 908 809 915 1016
8 1016 915 1023 1130 911 812 917 1018
8 1018 917 1024 1131 910 811 916 1017
8 1037 928 1031 1148 925 821 920 1030
8 928 823 931 1041 1031 921 1032 1149
8 1033 926 829 941 1151 1039 939 1057
8 1034 927 819 922 1152 1040 926 1033
8 1153 1038 929 1035 1034 927 820 923
8 1154 1042 930 1036 1035 929 822 924
8 1037 928 821 925 1155 1041 930 1036
8 1039 935 828 939 1156 1047 938 1055
8 1157 1043 932 1042 1038 933 825 929
8 1038 933 826 927 1158 1045 934 1040
8 1040 934 827 926 1159 1046 935 1039
8 930 824 932 1042 1041 931 1044 1160
8 1051 936 1048 1165 1175 1052 937 1053
8 1156 1047 938 1055 1053 937 1054 1178
8 939 828 940 1058 1055 938 1056 1181
8 941 829 942 1060 1057 939 1058 1183
8 942 830 943 1061 1058 940 1059 1184
8 1060 942 832 944 1185 1061 945 1062
8 1082 964 1063 1188 981 889 947 1064
8 1097 981 1064 1190 979 870 948 1066
8 1064 947 1065 1191 948 837 949 1067
8 1066 948 1067 1193 975 869 950 1069
8 1067 949 1068 1194 950 838 951 1070
8 1069 950 1070 1195 952 839 953 1071
8 956 849 959 1072 1073 958 1076 1197
8 1074 960 1076 1197 1008 906 959 1072
8 1073 958 1076 1197 965 868 980 1085
8 1074 960 906 1008 1198 1077 1014 1122
8 1133 1026 1079 1199 1019 918 962 1075
8 1077 963 913 1014 1200 1080 962 1075
8 960 853 963 1077 1076 961 1078 1201
8 980 883 961 1076 1099 994 1078 1201
8 1210 1083 964 1082 1100 999 889 981
8 966 871 980 1085 1086 984 1099 1215
8 967 872 984 1086 1087 985 1103 1216
8 971 876 985 1087 1090 988 1104 1217
8 1088 986 874 969 1218 1105 987 1089
8 972 879 986 1088 1091 991 1105 1218
8 970 875 988 1090 1089 987 1106 1219
8 973 880 991 1091 1092 992 1109 1220
8 1093 993 881 974 1221 1110 992 1092
8 1222 1108 990 1095 1093 993 882 976
8 1223 1101 982 1094 1096 989 877 977
8 1098 983 870 979 1223 1101 982 1094
8 1095 990 1107 1224 978 878 989 1096
8 1098 983 1100 1225 979 870 981 1097
8 984 884 994 1099 1103 995 1111 1227
8 1102 1001 1115 1228 983 891 999 1100
8 1101 1000 892 989 1229 1116 1002 1107
8 1102 1001 891 983 1229 1116 1000 1101
8 985 885 995 1103 1104 996 1112 1230
8 988 886 996 1104 1106 997 1113 1231
8 1105 998 888 987 1232 1114 997 1106
8 991 896 998 1105 1109 1005 1114 1232
8 1108 1003 1117 1233 990 893 1002 1107
8 1108 1003 894 993 1233 1117 1004 1110
8 992 895 1005 1109 1110 1004 1118 1234
8 1120 1013 1127 1244 1007 907 1015 1121
8 1148 1031 1127 1244 1030 920 1013 1120
8 1121 1015 1129 1245 1011 908 1016 1125
8 1126 1019 1075 1196 1246 1128 1014 1122
8 1246 1128 1014 1122 1123 1017 909 1009
8 1124 1018 1131 1247 1010 910 1017 1123
8 1125 1016 1130 1248 1012 911 1018 1124
8 1127 1020 1137 1254 1015 914 1022 1129
8 1031 921 1032 1149 1127 1020 1137 1254
8 1134 1027 918 1019 1257 1140 1021 1128
8 1257 1140 1021 1128 1131 1024 916 1017
8 1129 1022 1141 1258 1016 915 1023 1130
8 1130 1023 1142 1259 1018 917 1024 1131
8 1261 1144 1025 1132 1133 1026 1079 1199
8 1255 1138 1025 1132 1135 1028 1144 1261
8 1133 1026 918 1019 1262 1145 1027 1134
8 1136 1029 1139 1256 1263 1146 1028 1135
8 1037 928 1041 1155 1148 1031 1149 1275
8 1041 931 1044 1160 1149 1032 1150 1276
8 1151 1039 939 1057 1278 1156 1055 1180
8 1152 1040 926 1033 1279 1159 1039 1151
8 1153 1038 927 1034 1280 1158 1040 1152
8 1281 1157 1042 1154 1153 1038 929 1035
8 1036 930 1042 1154 1155 1041 1160 1282
8 1283 1164 1046 1159 1156 1047 935 1039
8 1165 1048 1164 1283 1053 937 1047 1156
8 1157 1043 933 1038 1284 1161 1045 1158
8 1157 1043 1161 1284 1042 932 1044 1160
8 1040 934 1046 1159 1158 1045 1163 1285
8 1166 1049 1167 1292 1051 936 1048 1165
8 1166 1049 936 1051 1293 1168 1050 1172
8 1051 936 1052 1175 1172 1050 1173 1306
8 1174 1051 1165 1290 1308 1175 1053 1177
8 1053 937 1054 1178 1175 1052 1176 1309
8 1278 1156 1055 1180 1177 1053 1178 1311
8 1055 938 1056 1181 1178 1054 1179 1312
8 1057 939 1058 1183 1180 1055 1181 1314
8 1058 940 1059 1184 1181 1056 1182 1315
8 1060 942 1061 1185 1183 1058 1184 1316
8 1208 1081 1187 1321 1082 964 1063 1188
8 1209 1082 1188 1322 1097 981 1064 1190
8 1188 1063 1189 1323 1064 947 1065 1191
8 1190 1064 1191 1325 1066 948 1067 1193
8 1191 1065 1192 1326 1067 949 1068 1194
8 1067 1193 1069 950 1194 1327 1195 1070
8 1250 1133 1199 1330 1126 1019 1075 1196
8 1198 1077 1014 1122 1331 1200 1075 1196
8 1074 960 1077 1198 1197 1076 1201 1332
8 1085 980 1076 1197 1215 1099 1201 1332
8 1199 1079 1203 1333 1075 962 1080 1200
8 1132 1025 1119 1243 1199 1079 1203 1333
8 1201 1078 963 1077 1334 1202 1080 1200
8 1099 994 1078 1201 1227 1111 1202 1334
8 1343 1207 1081 1208 1210 1083 964 1082
8 1214 1084 1186 1319 1343 1207 1081 1208
8 1345 1210 1082 1209 1225 1100 981 1097
8 1346 1211 1083 1210 1228 1115 999 1100
8 1086 984 1099 1215 1216 1103 1227 1352
8 1087 985 1103 1216 1217 1104 1230 1353
8 1090 988 1104 1217 1219 1106 1231 1354
8 1218 1105 987 1089 1355 1232 1106 1219
8 1091 991 1105 1218 1220 1109 1232 1355
8 1092 992 1109 1220 1221 1110 1234 1356
8 1222 1108 1233 1357 1095 990 1107 1224
8 1222 1108 993 1093 1357 1233 1110 1221
8 1223 1101 989 1096 1358 1229 1107 1224
8 1226 1102 983 1098 1358 1229 1101 1223
8 1226 1102 1228 1359 1098 983 1100 1225
8 1103 995 1111 1227 1230 1112 1235 1360
8 1107 1002 1117 1233 1229 1116 1240 1362
8 1102 1001 1116 1229 1228 1115 1240 1362
8 1104 996 1112 1230 1231 1113 1236 1363
8 1364 1237 1114 1232 1231 1113 997 1106
8 1109 1005 1114 1232 1234 1118 1238 1365
8 1110 1004 1118 1234 1233 1117 1241 1366
8 1242 1374 1255 1138 1119 1243 1132 1025
8 1244 1127 1254 1376 1121 1015 1129 1245
8 1148 1031 1149 1275 1244 1127 1254 1376
8 1245 1129 1258 1377 1125 1016 1130 1248
8 1251 1134 1019 1126 1378 1257 1128 1246
8 1378 1257 1128 1246 1247 1131 1017 1123
8 1248 1130 1259 1379 1124 1018 1131 1247
8 1261 1381 1250 1133 1132 1249 1330 1199
8 1255 1380 1252 1135 1132 1249 1381 1261
8 1250 1133 1019 1126 1382 1262 1134 1251
8 1253 1136 1256 1385 1384 1263 1135 1252
8 1254 1137 1265 1387 1129 1022 1141 1258
8 1149 1032 1150 1276 1254 1137 1265 1387
8 1028 1135 1255 1138 1139 1256 1388 1266
8 1136 1029 1147 1264 1256 1139 1267 1389
8 1390 1268 1140 1257 1259 1142 1024 1131
8 1260 1143 1027 1134 1390 1268 1140 1257
8 1258 1141 1269 1391 1130 1023 1142 1259
8 1262 1145 1027 1134 1393 1271 1143 1260
8 1261 1144 1026 1133 1394 1272 1145 1262
8 1135 1028 1144 1261 1263 1146 1272 1394
8 1136 1029 1146 1263 1264 1147 1273 1395
8 1155 1041 1160 1282 1275 1149 1276 1405
8 1276 1150 1044 1160 1406 1277 1162 1286
8 1408 1283 1159 1279 1278 1156 1039 1151
8 1290 1165 1283 1408 1177 1053 1156 1278
8 1152 1040 1159 1279 1280 1158 1285 1409
8 1281 1157 1038 1153 1410 1284 1158 1280
8 1281 1157 1284 1410 1154 1042 1160 1282
8 1159 1046 1164 1283 1285 1163 1289 1412
8 1292 1167 1289 1412 1165 1048 1164 1283
8 1158 1045 1163 1285 1284 1161 1288 1413
8 1284 1161 1288 1413 1160 1044 1162 1286
8 1291 1166 1292 1418 1174 1051 1165 1290
8 1291 1166 1051 1174 1419 1293 1172 1305
8 1294 1169 1296 1421 1166 1049 1167 1292
8 1293 1168 1050 1172 1422 1295 1171 1303
8 1294 1169 1049 1166 1423 1297 1168 1293
8 1422 1295 1171 1303 1301 1170 1302 1435
8 1172 1050 1173 1306 1303 1171 1304 1438
8 1174 1051 1175 1308 1305 1172 1306 1440
8 1175 1052 1176 1309 1306 1173 1307 1441
8 1177 1053 1178 1311 1308 1175 1309 1443
8 1178 1054 1179 1312 1309 1176 1310 1444
8 1180 1055 1181 1314 1311 1178 1312 1446
8 1056 1181 1312 1179 1182 1315 1447 1313
8 1183 1058 1184 1316 1314 1181 1315 1448
8 1319 1186 1084 1214 1451 1317 1213 1350
8 1319 1186 1318 1453 1208 1081 1187 1321
8 1321 1187 1320 1456 1188 1063 1189 1323
8 1344 1208 1321 1457 1209 1082 1188 1322
8 1322 1188 1323 1458 1190 1064 1191 1325
8 1323 1189 1324 1459 1191 1065 1192 1326
8 1191 1325 1193 1067 1326 1460 1327 1194
8 1242 1374 1243 1119 1328 1462 1335 1204
8 1330 1199 1333 1465 1196 1075 1200 1331
8 1132 1249 1330 1199 1243 1375 1465 1333
8 1332 1201 1077 1198 1466 1334 1200 1331
8 1215 1099 1201 1332 1352 1227 1334 1466
8 1119 1243 1333 1203 1204 1335 1470 1338
8 1333 1203 1338 1470 1200 1080 1202 1334
8 1227 1111 1202 1334 1360 1235 1338 1470
8 1328 1462 1335 1204 1205 1336 1471 1339
8 1337 1206 1340 1472 1464 1329 1205 1336
8 1346 1211 1342 1479 1210 1083 1207 1343
8 1346 1211 1115 1228 1479 1342 1239 1361
8 1348 1212 1084 1214 1479 1342 1207 1343
8 1480 1343 1208 1344 1345 1210 1082 1209
8 1351 1214 1319 1454 1480 1343 1208 1344
8 1481 1346 1210 1345 1359 1228 1100 1225
8 1348 1212 1347 1483 1214 1084 1213 1350
8 1216 1103 1227 1352 1353 1230 1360 1488
8 1217 1104 1230 1353 1354 1231 1363 1489
8 1490 1364 1232 1355 1354 1231 1106 1219
8 1220 1109 1232 1355 1356 1234 1365 1491
8 1221 1110 1234 1356 1357 1233 1366 1492
8 1224 1107 1233 1357 1358 1229 1362 1493
8 1226 1102 1229 1358 1359 1228 1362 1493
8 1230 1112 1235 1360 1363 1236 1367 1496
8 1361 1239 1115 1228 1497 1371 1240 1362
8 1366 1241 1372 1498 1233 1117 1240 1362
8 1364 1237 1113 1231 1499 1368 1236 1363
8 1364 1237 1368 1499 1232 1114 1238 1365
8 1234 1118 1238 1365 1366 1241 1369 1500
8 1507 1373 1242 1374 1388 1266 1138 1255
8 1508 1374 1243 1375 1380 1255 1132 1249
8 1376 1254 1387 1509 1245 1129 1258 1377
8 1275 1149 1276 1405 1376 1254 1387 1509
8 1377 1258 1391 1510 1248 1130 1259 1379
8 1511 1390 1257 1378 1379 1259 1131 1247
8 1383 1260 1134 1251 1511 1390 1257 1378
8 1252 1135 1256 1385 1380 1255 1388 1512
8 1261 1381 1513 1394 1133 1250 1382 1262
8 1135 1252 1384 1263 1261 1381 1513 1394
8 1382 1262 1134 1251 1514 1393 1260 1383
8 1253 1136 1263 1384 1386 1264 1395 1516
8 1253 1136 1264 1386 1385 1256 1389 1517
8 1387 1265 1397 1519 1258 1141 1269 1391
8 1276 1150 1277 1406 1387 1265 1397 1519
8 1256 1139 1267 1389 1388 1266 1398 1520
8 1264 1147 1274 1396 1389 1267 1399 1521
8 1392 1270 1143 1260 1522 1400 1268 1390
8 1390 1268 1142 1259 1522 1400 1269 1391
8 1392 1270 1401 1523 1260 1143 1271 1393
8 1272 1394 1524 1402 1145 1262 1393 1271
8 1395 1273 1146 1263 1524 1402 1272 1394
8 1273 1395 1264 1147 1403 1526 1396 1274
8 1405 1276 1160 1282 1534 1406 1286 1411
8 1414 1287 1407 1535 1286 1162 1277 1406
8 1279 1159 1283 1408 1409 1285 1412 1537
8 1418 1292 1412 1537 1290 1165 1283 1408
8 1280 1158 1285 1409 1410 1284 1413 1538
8 1410 1284 1413 1538 1282 1160 1286 1411
8 1285 1163 1289 1412 1413 1288 1417 1540
8 1421 1296 1417 1540 1292 1167 1289 1412
8 1414 1287 1162 1286 1541 1416 1288 1413
8 1420 1294 1421 1545 1291 1166 1292 1418
8 1419 1293 1172 1305 1546 1422 1303 1437
8 1420 1294 1166 1291 1547 1423 1293 1419
8 1294 1169 1297 1423 1421 1296 1425 1548
8 1423 1297 1168 1293 1549 1424 1295 1422
8 1301 1170 1298 1427 1422 1295 1424 1549
8 1432 1300 1428 1554 1301 1170 1298 1427
8 1431 1299 1428 1554 1560 1430 1300 1432
8 1563 1433 1300 1432 1435 1302 1170 1301
8 1546 1422 1303 1437 1434 1301 1435 1565
8 1303 1171 1304 1438 1435 1302 1436 1566
8 1305 1172 1306 1440 1437 1303 1438 1568
8 1306 1173 1307 1441 1438 1304 1439 1569
8 1308 1175 1309 1443 1440 1306 1441 1571
8 1309 1176 1310 1444 1441 1307 1442 1572
8 1311 1178 1312 1446 1443 1309 1444 1574
8 1179 1312 1444 1310 1313 1447 1575 1445
8 1314 1181 1315 1448 1446 1312 1447 1576
8 1350 1213 1349 1486 1451 1317 1449 1579
8 1451 1317 1450 1581 1319 1186 1318 1453
8 1454 1319 1214 1351 1582 1451 1350 1487
8 1453 1318 1452 1584 1321 1187 1320 1456
8 1454 1319 1453 1585 1344 1208 1321 1457
8 1456 1320 1455 1586 1323 1189 1324 1459
8 1457 1321 1456 1587 1322 1188 1323 1458
8 1458 1323 1459 1588 1325 1191 1326 1460
8 1205 1336 1464 1329 1328 1462 1590 1461
8 1507 1373 1461 1590 1374 1242 1328 1462
8 1508 1374 1462 1591 1375 1243 1335 1467
8 1337 1206 1329 1464 1473 1341 1463 1594
8 1375 1243 1335 1467 1465 1333 1470 1596
8 1465 1333 1470 1596 1331 1200 1334 1466
8 1352 1227 1334 1466 1488 1360 1470 1596
8 1591 1462 1336 1468 1467 1335 1471 1597
8 1469 1337 1472 1598 1595 1464 1336 1468
8 1471 1339 1474 1600 1335 1204 1338 1470
8 1600 1474 1367 1496 1470 1338 1235 1360
8 1336 1205 1340 1472 1471 1339 1475 1601
8 1337 1206 1341 1473 1472 1340 1476 1602
8 1495 1370 1478 1609 1361 1239 1342 1479
8 1348 1212 1342 1479 1483 1347 1478 1609
8 1481 1346 1479 1610 1345 1210 1343 1480
8 1481 1346 1228 1359 1610 1479 1361 1494
8 1484 1348 1214 1351 1610 1479 1343 1480
8 1483 1347 1482 1612 1350 1213 1349 1486
8 1484 1348 1483 1613 1351 1214 1350 1487
8 1353 1230 1360 1488 1489 1363 1496 1616
8 1490 1364 1231 1354 1617 1499 1363 1489
8 1490 1364 1499 1617 1355 1232 1365 1491
8 1356 1234 1365 1491 1492 1366 1500 1619
8 1492 1366 1498 1620 1357 1233 1362 1493
8 1494 1361 1228 1359 1621 1497 1362 1493
8 1495 1370 1239 1361 1622 1504 1371 1497
8 1363 1236 1367 1496 1499 1368 1501 1623
8 1497 1371 1240 1362 1624 1505 1372 1498
8 1625 1503 1372 1498 1500 1369 1241 1366
8 1365 1238 1368 1499 1500 1369 1502 1626
8 1520 1398 1506 1633 1388 1266 1373 1507
8 1634 1507 1374 1508 1512 1388 1255 1380
8 1509 1387 1519 1635 1377 1258 1391 1510
8 1405 1276 1406 1534 1509 1387 1519 1635
8 1515 1392 1260 1383 1636 1522 1390 1511
8 1511 1390 1259 1379 1636 1522 1391 1510
8 1385 1256 1389 1517 1512 1388 1520 1637
8 1513 1394 1262 1382 1638 1524 1393 1514
8 1395 1516 1638 1524 1263 1384 1513 1394
8 1515 1392 1523 1639 1383 1260 1393 1514
8 1516 1395 1526 1640 1386 1264 1396 1518
8 1386 1264 1396 1518 1517 1389 1521 1641
8 1519 1397 1527 1643 1391 1269 1400 1522
8 1535 1407 1527 1643 1406 1277 1397 1519
8 1389 1267 1399 1521 1520 1398 1528 1644
8 1645 1529 1399 1521 1525 1404 1274 1396
8 1392 1270 1400 1522 1523 1401 1531 1646
8 1524 1402 1271 1393 1648 1532 1401 1523
8 1403 1526 1648 1532 1273 1395 1524 1402
8 1525 1404 1274 1396 1649 1533 1403 1526
8 1539 1414 1535 1657 1411 1286 1406 1534
8 1542 1415 1536 1658 1414 1287 1407 1535
8 1409 1285 1412 1537 1538 1413 1540 1660
8 1545 1421 1540 1660 1418 1292 1412 1537
8 1539 1414 1286 1411 1661 1541 1413 1538
8 1540 1417 1544 1663 1413 1288 1416 1541
8 1421 1296 1425 1548 1540 1417 1544 1663
8 1542 1415 1287 1414 1664 1543 1416 1541
8 1420 1294 1423 1547 1545 1421 1548 1666
8 1547 1423 1293 1419 1667 1549 1422 1546
8 1434 1301 1427 1553 1546 1422 1549 1667
8 1423 1297 1424 1549 1548 1425 1550 1668
8 1551 1426 1550 1668 1427 1298 1424 1549
8 1551 1426 1298 1427 1671 1552 1428 1554
8 1562 1432 1554 1674 1434 1301 1427 1553
8 1431 1299 1429 1558 1554 1428 1555 1675
8 1431 1299 1430 1560 1558 1429 1557 1680
8 1560 1430 1300 1432 1683 1559 1433 1563
8 1561 1431 1554 1674 1684 1560 1432 1562
8 1685 1563 1432 1562 1565 1435 1301 1434
8 1435 1302 1436 1566 1563 1433 1564 1686
8 1437 1303 1438 1568 1565 1435 1566 1688
8 1438 1304 1439 1569 1566 1436 1567 1689
8 1440 1306 1441 1571 1568 1438 1569 1691
8 1441 1307 1442 1572 1569 1439 1570 1692
8 1443 1309 1444 1574 1571 1441 1572 1694
8 1310 1444 1572 1442 1445 1575 1695 1573
8 1446 1312 1447 1576 1574 1444 1575 1696
8 1486 1349 1485 1614 1579 1449 1577 1699
8 1451 1317 1449 1579 1581 1450 1578 1701
8 1487 1350 1486 1615 1582 1451 1579 1702
8 1581 1450 1580 1704 1453 1318 1452 1584
8 1582 1451 1581 1705 1454 1319 1453 1585
8 1584 1452 1583 1706 1456 1320 1455 1586
8 1585 1453 1584 1707 1457 1321 1456 1587
8 1587 1456 1586 1708 1458 1323 1459 1588
8 1633 1506 1589 1710 1507 1373 1461 1590
8 1464 1329 1461 1590 1594 1463 1589 1710
8 1468 1336 1462 1591 1595 1464 1590 1711
8 1634 1507 1590 1711 1508 1374 1462 1591
8 1473 1341 1463 1594 1603 1477 1593 1716
8 1469 1337 1464 1595 1599 1473 1594 1717
8 1471 1597 1467 1335 1600 1718 1596 1470
8 1718 1600 1496 1616 1596 1470 1360 1488
8 1336 1468 1597 1471 1472 1598 1719 1601
8 1469 1337 1473 1599 1598 1472 1602 1720
8 1722 1604 1501 1623 1600 1474 1367 1496
8 1475 1601 1471 1339 1604 1722 1600 1474
8 1602 1476 1605 1723 1472 1340 1475 1601
8 1476 1602 1724 1606 1341 1473 1603 1477
8 1483 1347 1478 1609 1612 1482 1608 1731
8 1495 1370 1504 1622 1609 1478 1608 1731
8 1618 1495 1609 1732 1494 1361 1479 1610
8 1484 1348 1479 1610 1613 1483 1609 1732
8 1486 1349 1482 1612 1614 1485 1611 1733
8 1613 1483 1612 1734 1487 1350 1486 1615
8 1489 1363 1496 1616 1617 1499 1623 1736
8 1491 1365 1499 1617 1619 1500 1626 1737
8 1618 1495 1361 1494 1738 1622 1497 1621
8 1739 1625 1498 1620 1619 1500 1366 1492
8 1621 1497 1362 1493 1740 1624 1498 1620
8 1742 1631 1504 1622 1624 1505 1371 1497
8 1743 1628 1502 1626 1623 1501 1368 1499
8 1744 1630 1505 1624 1625 1503 1372 1498
8 1745 1629 1503 1625 1626 1502 1369 1500
8 1520 1398 1528 1644 1633 1506 1632 1751
8 1637 1520 1633 1752 1512 1388 1507 1634
8 1635 1519 1643 1753 1510 1391 1522 1636
8 1657 1535 1643 1753 1534 1406 1519 1635
8 1515 1392 1522 1636 1639 1523 1646 1754
8 1517 1389 1521 1641 1637 1520 1644 1755
8 1524 1638 1756 1648 1393 1514 1639 1523
8 1640 1526 1395 1516 1756 1648 1524 1638
8 1642 1525 1396 1518 1757 1649 1526 1640
8 1758 1645 1521 1641 1642 1525 1396 1518
8 1646 1531 1400 1522 1760 1650 1527 1643
8 1535 1407 1536 1658 1643 1527 1650 1760
8 1521 1399 1529 1645 1644 1528 1651 1761
8 1647 1530 1652 1762 1525 1404 1529 1645
8 1401 1523 1648 1532 1531 1646 1763 1655
8 1525 1404 1533 1649 1647 1530 1654 1765
8 1533 1649 1766 1656 1403 1526 1648 1532
8 1662 1542 1658 1774 1539 1414 1535 1657
8 1542 1415 1543 1664 1658 1536 1659 1775
8 1660 1540 1663 1777 1538 1413 1541 1661
8 1545 1421 1548 1666 1660 1540 1663 1777
8 1662 1542 1414 1539 1778 1664 1541 1661
8 1664 1543 1416 1541 1779 1665 1544 1663
8 1548 1425 1550 1668 1663 1544 1665 1779
8 1547 1423 1549 1667 1666 1548 1668 1781
8 1670 1551 1668 1781 1553 1427 1549 1667
8 1551 1426 1552 1671 1668 1550 1669 1782
8 1670 1551 1427 1553 1784 1671 1554 1674
8 1675 1555 1672 1785 1554 1428 1552 1671
8 1678 1556 1673 1789 1558 1429 1555 1675
8 1561 1431 1558 1681 1674 1554 1675 1790
8 1794 1677 1556 1678 1680 1557 1429 1558
8 1560 1430 1559 1683 1680 1557 1679 1797
8 1561 1431 1560 1684 1681 1558 1680 1798
8 1563 1433 1564 1686 1683 1559 1682 1800
8 1684 1560 1432 1562 1801 1683 1563 1685
8 1565 1435 1566 1688 1685 1563 1686 1802
8 1566 1436 1567 1689 1686 1564 1687 1803
8 1568 1438 1569 1691 1688 1566 1689 1805
8 1569 1439 1570 1692 1689 1567 1690 1806
8 1571 1441 1572 1694 1691 1569 1692 1808
8 1442 1572 1692 1570 1573 1695 1809 1693
8 1574 1444 1575 1696 1694 1572 1695 1810
8 1614 1485 1592 1712 1699 1577 1697 1813
8 1579 1449 1577 1699 1701 1578 1698 1815
8 1615 1486 1614 1735 1702 1579 1699 1816
8 1701 1578 1700 1818 1581 1450 1580 1704
8 1582 1451 1579 1702 1705 1581 1701 1819
8 1704 1580 1703 1820 1584 1452 1583 1706
8 1705 1581 1704 1821 1585 1453 1584 1707
8 1707 1584 1706 1822 1587 1456 1586 1708
8 1710 1589 1506 1633 1824 1709 1632 1751
8 1594 1463 1589 1710 1716 1593 1709 1824
8 1752 1633 1710 1825 1634 1507 1590 1711
8 1595 1464 1590 1711 1717 1594 1710 1825
8 1830 1714 1592 1712 1733 1611 1485 1614
8 1603 1477 1593 1716 1725 1607 1715 1834
8 1599 1473 1594 1717 1721 1603 1716 1835
8 1837 1722 1623 1736 1718 1600 1496 1616
8 1719 1601 1722 1837 1597 1471 1600 1718
8 1602 1720 1598 1472 1723 1838 1719 1601
8 1720 1602 1473 1599 1839 1724 1603 1721
8 1723 1605 1726 1840 1601 1475 1604 1722
8 1840 1726 1628 1743 1722 1604 1501 1623
8 1724 1606 1727 1841 1602 1476 1605 1723
8 1725 1607 1728 1842 1603 1477 1606 1724
8 1612 1482 1608 1731 1733 1611 1730 1849
8 1741 1627 1730 1849 1622 1504 1608 1731
8 1613 1483 1609 1732 1734 1612 1731 1850
8 1618 1495 1622 1738 1732 1609 1731 1850
8 1615 1486 1612 1734 1735 1614 1733 1851
8 1852 1743 1626 1737 1736 1623 1499 1617
8 1853 1745 1625 1739 1737 1626 1500 1619
8 1855 1742 1622 1738 1740 1624 1497 1621
8 1856 1744 1624 1740 1739 1625 1498 1620
8 1741 1627 1504 1622 1857 1746 1631 1742
8 1742 1631 1505 1624 1858 1749 1630 1744
8 1859 1747 1629 1745 1743 1628 1502 1626
8 1860 1748 1630 1744 1745 1629 1503 1625
8 1644 1528 1651 1761 1751 1632 1750 1865
8 1637 1520 1644 1755 1752 1633 1751 1866
8 1754 1646 1522 1636 1867 1760 1643 1753
8 1657 1535 1658 1774 1753 1643 1760 1867
8 1639 1523 1646 1754 1756 1648 1763 1868
8 1641 1521 1645 1758 1755 1644 1761 1869
8 1757 1649 1526 1640 1870 1766 1648 1756
8 1642 1525 1649 1757 1759 1647 1765 1871
8 1759 1647 1762 1872 1642 1525 1645 1758
8 1760 1650 1767 1874 1646 1531 1655 1763
8 1658 1536 1659 1775 1760 1650 1767 1874
8 1762 1652 1768 1875 1645 1529 1651 1761
8 1764 1653 1769 1876 1647 1530 1652 1762
8 1656 1766 1877 1773 1532 1648 1763 1655
8 1771 1879 1765 1654 1653 1764 1647 1530
8 1533 1649 1765 1654 1656 1766 1880 1772
8 1662 1542 1664 1778 1774 1658 1775 1887
8 1664 1543 1665 1779 1775 1659 1776 1888
8 1778 1664 1541 1661 1890 1779 1663 1777
8 1666 1548 1668 1781 1777 1663 1779 1890
8 1782 1669 1780 1891 1668 1550 1665 1779
8 1670 1551 1671 1784 1781 1668 1782 1893
8 1671 1552 1672 1785 1782 1669 1783 1894
8 1790 1675 1785 1896 1674 1554 1671 1784
8 1675 1555 1673 1789 1785 1672 1786 1897
8 1792 1676 1788 1903 1678 1556 1673 1789
8 1795 1678 1789 1904 1681 1558 1675 1790
8 1792 1676 1556 1678 1906 1791 1677 1794
8 1680 1557 1679 1797 1794 1677 1793 1909
8 1910 1794 1678 1795 1798 1680 1558 1681
8 1683 1559 1682 1800 1797 1679 1796 1912
8 1684 1560 1683 1801 1798 1680 1797 1913
8 1686 1564 1687 1803 1800 1682 1799 1915
8 1685 1563 1686 1802 1801 1683 1800 1916
8 1688 1566 1689 1805 1802 1686 1803 1917
8 1689 1567 1690 1806 1803 1687 1804 1918
8 1691 1569 1692 1808 1805 1689 1806 1920
8 1692 1570 1693 1809 1806 1690 1807 1921
8 1694 1572 1695 1810 1808 1692 1809 1922
8 1829 1713 1811 1926 1712 1592 1697 1813
8 1813 1697 1812 1928 1699 1577 1698 1815
8 1735 1614 1712 1828 1816 1699 1813 1929
8 1815 1698 1814 1931 1701 1578 1700 1818
8 1702 1579 1699 1816 1819 1701 1815 1932
8 1818 1700 1817 1933 1704 1580 1703 1820
8 1819 1701 1818 1934 1705 1581 1704 1821
8 1821 1704 1820 1935 1707 1584 1706 1822
8 1824 1709 1632 1751 1937 1823 1750 1865
8 1716 1593 1709 1824 1834 1715 1823 1937
8 1825 1710 1633 1752 1938 1824 1751 1866
8 1717 1594 1710 1825 1835 1716 1824 1938
8 1945 1830 1712 1828 1851 1733 1614 1735
8 1830 1714 1831 1946 1712 1592 1713 1829
8 1947 1832 1714 1830 1849 1730 1611 1733
8 1843 1729 1607 1725 1950 1833 1715 1834
8 1721 1603 1716 1835 1836 1725 1834 1951
8 1836 1725 1842 1953 1721 1603 1724 1839
8 1723 1838 1719 1601 1840 1954 1837 1722
8 1954 1840 1743 1852 1837 1722 1623 1736
8 1724 1839 1720 1602 1841 1955 1838 1723
8 1841 1727 1844 1956 1723 1605 1726 1840
8 1956 1844 1747 1859 1840 1726 1628 1743
8 1728 1842 1724 1606 1845 1957 1841 1727
8 1725 1607 1729 1843 1842 1728 1846 1958
8 1741 1627 1746 1857 1849 1730 1848 1965
8 1734 1612 1731 1850 1851 1733 1849 1966
8 1854 1741 1849 1966 1738 1622 1731 1850
8 1967 1859 1745 1853 1852 1743 1626 1737
8 1968 1860 1744 1856 1853 1745 1625 1739
8 1854 1741 1622 1738 1969 1857 1742 1855
8 1855 1742 1624 1740 1970 1858 1744 1856
8 1857 1746 1631 1742 1971 1861 1749 1858
8 1858 1749 1630 1744 1972 1863 1748 1860
8 1859 1747 1862 1973 1745 1629 1748 1860
8 1875 1768 1864 1977 1761 1651 1750 1865
8 1755 1644 1761 1869 1866 1751 1865 1978
8 1867 1760 1874 1979 1754 1646 1763 1868
8 1774 1658 1775 1887 1867 1760 1874 1979
8 1870 1766 1648 1756 1980 1877 1763 1868
8 1872 1762 1875 1981 1758 1645 1761 1869
8 1757 1649 1766 1870 1871 1765 1880 1982
8 1983 1879 1764 1873 1871 1765 1647 1759
8 1873 1764 1876 1984 1759 1647 1762 1872
8 1877 1773 1655 1763 1986 1881 1767 1874
8 1775 1659 1776 1888 1874 1767 1881 1986
8 1876 1769 1882 1987 1762 1652 1768 1875
8 1878 1770 1883 1988 1764 1653 1769 1876
8 1880 1772 1656 1766 1989 1886 1773 1877
8 1878 1770 1653 1764 1990 1884 1771 1879
8 1765 1654 1772 1880 1879 1771 1885 1991
8 1778 1664 1779 1890 1887 1775 1888 1997
8 1998 1889 1776 1888 1891 1780 1665 1779
8 1893 1782 1891 2000 1781 1668 1779 1890
8 1894 1783 1892 2001 1782 1669 1780 1891
8 1784 1671 1785 1896 1893 1782 1894 2003
8 1897 1786 1895 2004 1785 1672 1783 1894
8 1790 1675 1789 1904 1896 1785 1897 2006
8 1901 1787 1898 2007 1789 1673 1786 1897
8 1903 1788 1900 2013 1789 1673 1787 1901
8 1792 1676 1791 1906 1903 1788 1902 2016
8 1907 1792 1903 2017 1795 1678 1789 1904
8 1906 1791 1677 1794 2019 1905 1793 1909
8 1907 1792 1678 1795 2020 1906 1794 1910
8 1797 1679 1796 1912 1909 1793 1908 2022
8 1798 1680 1797 1913 1910 1794 1909 2023
8 1800 1682 1799 1915 1912 1796 1911 2025
8 1801 1683 1800 1916 1913 1797 1912 2026
8 1803 1687 1804 1918 1915 1799 1914 2028
8 1802 1686 1803 1917 1916 1800 1915 2029
8 1805 1689 1806 1920 1917 1803 1918 2030
8 1806 1690 1807 1921 1918 1804 1919 2031
8 1808 1692 1809 1922 1920 1806 1921 2032
8 1939 1826 1924 2037 1829 1713 1811 1926
8 1926 1811 1925 2039 1813 1697 1812 1928
8 1944 1829 1926 2040 1828 1712 1813 1929
8 1928 1812 1927 2042 1815 1698 1814 1931
8 1929 1813 1928 2043 1816 1699 1815 1932
8 1931 1814 1930 2044 1818 1700 1817 1933
8 1932 1815 1931 2045 1819 1701 1818 1934
8 1934 1818 1933 2046 1821 1704 1820 1935
8 2048 1936 1823 1937 1977 1864 1750 1865
8 1950 1833 1715 1834 2048 1936 1823 1937
8 1938 1824 1751 1866 2049 1937 1865 1978
8 1835 1716 1824 1938 1951 1834 1937 2049
8 1939 1826 1713 1829 2053 1942 1831 1946
8 1940 1827 1923 2035 2053 1942 1826 1939
8 1945 1830 1946 2058 1828 1712 1829 1944
8 2059 1947 1830 1945 1966 1849 1733 1851
8 1947 1832 1730 1849 2060 1948 1848 1965
8 1947 1832 1948 2060 1830 1714 1831 1946
8 1959 1847 1729 1843 2063 1949 1833 1950
8 1952 1843 1725 1836 2064 1950 1834 1951
8 1836 1725 1843 1952 1953 1842 1958 2066
8 1953 1842 1957 2067 1839 1724 1841 1955
8 1841 1955 1838 1723 1956 2068 1954 1840
8 2068 1956 1859 1967 1954 1840 1743 1852
8 1956 1844 1960 2069 1859 1747 1862 1973
8 1845 1957 1841 1727 1960 2069 1956 1844
8 1728 1842 1957 1845 1846 1958 2071 1961
8 1962 2072 1959 1847 1846 1958 1843 1729
8 1971 1861 1964 2077 1857 1746 1848 1965
8 1854 1741 1857 1969 1966 1849 1965 2078
8 1967 1859 1973 2079 1853 1745 1860 1968
8 1970 1858 1744 1856 2080 1972 1860 1968
8 1969 1857 1742 1855 2081 1971 1858 1970
8 1971 1861 1749 1858 2082 1974 1863 1972
8 1973 1862 1975 2083 1860 1748 1863 1972
8 1987 1882 1976 2086 1875 1768 1864 1977
8 1981 1875 1977 2087 1869 1761 1865 1978
8 1980 1877 1763 1868 2088 1986 1874 1979
8 1887 1775 1888 1997 1979 1874 1986 2088
8 1880 1982 2089 1989 1766 1870 1980 1877
8 1984 1876 1987 2090 1872 1762 1875 1981
8 1765 1871 1983 1879 1880 1982 2091 1991
8 1985 1878 1764 1873 2092 1990 1879 1983
8 1985 1878 1988 2093 1873 1764 1876 1984
8 2094 1992 1881 1986 1998 1889 1776 1888
8 1986 1881 1992 2094 1877 1773 1886 1989
8 1988 1883 1993 2095 1876 1769 1882 1987
8 1878 1770 1884 1990 1988 1883 1994 2096
8 1991 1885 1772 1880 2097 1996 1886 1989
8 1879 1771 1885 1991 1990 1884 1995 2098
8 2103 1998 1888 1997 2000 1891 1779 1890
8 2104 1999 1889 1998 2001 1892 1780 1891
8 2003 1894 2001 2106 1893 1782 1891 2000
8 2004 1895 2002 2107 1894 1783 1892 2001
8 2006 1897 2004 2109 1896 1785 1894 2003
8 2007 1898 2005 2110 1897 1786 1895 2004
8 2014 1901 2007 2112 1904 1789 1897 2006
8 2011 1899 2008 2113 1901 1787 1898 2007
8 2119 2010 1899 2011 2013 1900 1787 1901
8 2016 1902 2012 2122 1903 1788 1900 2013
8 2017 1903 2013 2123 1904 1789 1901 2014
8 1906 1791 1905 2019 2016 1902 2015 2125
8 1907 1792 1906 2020 2017 1903 2016 2126
8 1909 1793 1908 2022 2019 1905 2018 2128
8 2020 1906 1794 1910 2129 2019 1909 2023
8 1912 1796 1911 2025 2022 1908 2021 2131
8 1913 1797 1912 2026 2023 1909 2022 2132
8 1915 1799 1914 2028 2025 1911 2024 2134
8 1916 1800 1915 2029 2026 1912 2025 2135
8 1918 1804 1919 2031 2028 1914 2027 2136
8 1917 1803 1918 2030 2029 1915 2028 2137
8 1920 1806 1921 2032 2030 1918 2031 2138
8 1940 1827 1941 2054 2035 1923 2033 2140
8 2035 1923 2034 2143 1939 1826 1924 2037
8 2037 1924 2036 2146 1926 1811 1925 2039
8 2051 1939 2037 2147 1944 1829 1926 2040
8 2039 1925 2038 2149 1928 1812 1927 2042
8 2040 1926 2039 2150 1929 1813 1928 2043
8 2042 1927 2041 2151 1931 1814 1930 2044
8 2043 1928 2042 2152 1932 1815 1931 2045
8 2045 1931 2044 2153 1934 1818 1933 2046
8 2155 2047 1936 2048 2086 1976 1864 1977
8 2063 1949 1833 1950 2155 2047 1936 2048
8 2156 2048 1937 2049 2087 1977 1865 1978
8 2064 1950 1834 1951 2156 2048 1937 2049
8 2051 1939 1829 1944 2160 2053 1946 2058
8 2052 1940 2035 2144 2160 2053 1939 2051
8 2053 1942 1831 1946 2163 2057 1948 2060
8 2055 1943 1827 1940 2163 2057 1942 2053
8 2055 1943 2056 2164 1940 1827 1941 2054
8 2059 1947 1849 1966 2167 2060 1965 2078
8 2059 1947 2060 2167 1945 1830 1946 2058
8 2077 1964 2061 2168 1965 1848 1948 2060
8 2070 1963 1847 1959 2170 2062 1949 2063
8 2065 1959 1843 1952 2171 2063 1950 2064
8 2173 2072 1958 2066 2065 1959 1843 1952
8 1953 1842 1958 2066 2067 1957 2071 2174
8 2068 1956 2069 2175 1967 1859 1973 2079
8 2067 1957 2069 2175 1955 1841 1956 2068
8 1845 1957 2069 1960 1961 2071 2176 2073
8 2069 1960 2073 2176 1973 1862 1975 2083
8 2070 1963 2075 2177 1959 1847 1962 2072
8 1846 1958 2071 1961 1962 2072 2178 2074
8 2077 1964 1861 1971 2182 2076 1974 2082
8 2081 1971 2077 2183 1969 1857 1965 2078
8 2079 1973 2083 2184 1968 1860 1972 2080
8 2081 1971 1858 1970 2185 2082 1972 2080
8 2083 1975 2084 2186 1972 1863 1974 2082
8 2086 1976 1882 1987 2189 2085 1993 2095
8 2090 1987 2086 2190 1981 1875 1977 2087
8 2191 2094 1986 2088 2103 1998 1888 1997
8 2088 1986 2094 2191 1980 1877 1989 2089
8 1991 2091 2192 2097 1880 1982 2089 1989
8 2093 1988 2095 2193 1984 1876 1987 2090
8 1879 1983 2092 1990 1991 2091 2194 2098
8 1985 1878 1990 2092 2093 1988 2096 2195
8 2097 1996 1886 1989 2196 2099 1992 2094
8 2196 2099 1992 2094 2104 1999 1889 1998
8 1994 2096 1988 1883 2100 2197 2095 1993
8 2096 1994 1884 1990 2198 2101 1995 2098
8 1995 2098 2199 2102 1885 1991 2097 1996
8 2203 2104 1998 2103 2106 2001 1891 2000
8 2107 2002 2105 2204 2001 1892 1999 2104
8 2109 2004 2107 2206 2003 1894 2001 2106
8 2110 2005 2108 2207 2004 1895 2002 2107
8 2112 2007 2110 2209 2006 1897 2004 2109
8 2113 2008 2111 2210 2007 1898 2005 2110
8 2120 2011 2113 2212 2014 1901 2007 2112
8 2117 2009 2114 2213 2011 1899 2008 2113
8 2219 2116 2009 2117 2119 2010 1899 2011
8 2222 2118 2010 2119 2122 2012 1900 2013
8 2223 2119 2011 2120 2123 2013 1901 2014
8 2016 1902 2015 2125 2122 2012 2121 2225
8 2126 2016 2122 2226 2017 1903 2013 2123
8 2019 1905 2018 2128 2125 2015 2124 2228
8 2020 1906 2019 2129 2126 2016 2125 2229
8 2022 1908 2021 2131 2128 2018 2127 2231
8 2023 1909 2022 2132 2129 2019 2128 2232
8 2025 1911 2024 2134 2131 2021 2130 2234
8 2026 1912 2025 2135 2132 2022 2131 2235
8 1914 2028 2134 2024 2027 2136 2236 2133
8 2029 1915 2028 2137 2135 2025 2134 2237
8 2030 1918 2031 2138 2137 2028 2136 2238
8 2157 2050 2139 2240 2054 1941 2033 2140
8 2052 1940 2054 2161 2144 2035 2140 2242
8 2140 2033 2141 2243 2035 1923 2034 2143
8 2143 2034 2142 2246 2037 1924 2036 2146
8 2144 2035 2143 2247 2051 1939 2037 2147
8 2146 2036 2145 2249 2039 1925 2038 2149
8 2147 2037 2146 2250 2040 1926 2039 2150
8 2149 2038 2148 2251 2042 1927 2041 2151
8 2150 2039 2149 2252 2043 1928 2042 2152
8 2152 2042 2151 2253 2045 1931 2044 2153
8 2255 2154 2047 2155 2189 2085 1976 2086
8 2170 2062 1949 2063 2255 2154 2047 2155
8 2256 2155 2048 2156 2190 2086 1977 2087
8 2171 2063 1950 2064 2256 2155 2048 2156
8 2258 2159 2050 2157 2164 2056 1941 2054
8 2160 2053 1946 2058 2262 2163 2060 2167
8 2162 2055 1940 2052 2262 2163 2053 2160
8 2162 2055 2164 2263 2052 1940 2054 2161
8 2163 2057 1948 2060 2264 2165 2061 2168
8 2055 1943 2057 2163 2164 2056 2165 2264
8 2182 2076 2166 2268 2077 1964 2061 2168
8 2183 2077 2168 2269 2078 1965 2060 2167
8 2070 1963 2062 2170 2177 2075 2169 2271
8 2172 2070 1959 2065 2272 2170 2063 2171
8 2172 2070 2177 2273 2065 1959 2072 2173
8 2066 1958 2072 2173 2174 2071 2178 2274
8 2067 1957 2071 2174 2175 2069 2176 2275
8 2175 2069 2176 2275 2079 1973 2083 2184
8 2071 1961 2074 2178 2176 2073 2179 2276
8 2176 2073 2179 2276 2083 1975 2084 2186
8 2072 1962 2075 2177 2178 2074 2180 2277
8 2182 2076 1974 2082 2280 2181 2084 2186
8 2183 2077 1971 2081 2281 2182 2082 2185
8 2184 2083 2186 2282 2080 1972 2082 2185
8 2189 2085 1993 2095 2285 2188 2100 2197
8 2190 2086 1987 2090 2286 2189 2095 2193
8 2192 2097 1989 2089 2287 2196 2094 2191
8 2287 2196 2094 2191 2203 2104 1998 2103
8 2194 2098 1991 2091 2288 2199 2097 2192
8 2195 2096 2197 2289 2093 1988 2095 2193
8 2096 2195 2290 2198 1990 2092 2194 2098
8 2097 1996 2099 2196 2199 2102 2200 2291
8 2196 2099 1999 2104 2291 2200 2105 2204
8 2100 2197 2292 2201 1994 2096 2198 2101
8 1995 2098 2198 2101 2102 2199 2293 2202
8 2206 2107 2204 2296 2106 2001 2104 2203
8 2207 2108 2205 2297 2107 2002 2105 2204
8 2209 2110 2207 2299 2109 2004 2107 2206
8 2210 2111 2208 2300 2110 2005 2108 2207
8 2212 2113 2210 2302 2112 2007 2110 2209
8 2213 2114 2211 2303 2113 2008 2111 2210
8 2220 2117 2213 2305 2120 2011 2113 2212
8 2216 2115 2214 2306 2117 2009 2114 2213
8 2216 2115 2009 2117 2311 2217 2116 2219
8 2219 2116 2010 2119 2314 2218 2118 2222
8 2315 2219 2117 2220 2223 2119 2011 2120
8 2122 2012 2121 2225 2222 2118 2221 2317
8 2318 2222 2119 2223 2226 2122 2013 2123
8 2125 2015 2124 2228 2225 2121 2224 2320
8 2126 2016 2125 2229 2226 2122 2225 2321
8 2128 2018 2127 2231 2228 2124 2227 2323
8 2129 2019 2128 2232 2229 2125 2228 2324
8 2131 2021 2130 2234 2231 2127 2230 2326
8 2132 2022 2131 2235 2232 2128 2231 2327
8 2134 2024 2133 2236 2234 2130 2233 2328
8 2135 2025 2134 2237 2235 2131 2234 2329
8 2137 2028 2136 2238 2237 2134 2236 2330
8 2157 2050 2158 2259 2240 2139 2239 2332
8 2257 2157 2240 2334 2161 2054 2140 2242
8 2240 2139 2241 2335 2140 2033 2141 2243
8 2242 2140 2243 2337 2144 2035 2143 2247
8 2243 2141 2244 2338 2143 2034 2142 2246
8 2246 2142 2245 2341 2146 2036 2145 2249
8 2247 2143 2246 2342 2147 2037 2146 2250
8 2249 2145 2248 2343 2149 2038 2148 2251
8 2250 2146 2249 2344 2150 2039 2149 2252
8 2252 2149 2251 2345 2152 2042 2151 2253
8 2169 2271 2347 2254 2062 2170 2255 2154
8 2189 2085 2188 2285 2255 2154 2254 2347
8 2348 2255 2155 2256 2286 2189 2086 2190
8 2272 2170 2063 2171 2348 2255 2155 2256
8 2349 2258 2157 2257 2263 2164 2054 2161
8 2258 2159 2261 2351 2157 2050 2158 2259
8 2258 2159 2056 2164 2351 2261 2165 2264
8 2262 2163 2060 2167 2355 2264 2168 2269
8 2162 2055 2163 2262 2263 2164 2264 2355
8 2357 2266 2165 2264 2268 2166 2061 2168
8 2268 2166 2076 2182 2361 2267 2181 2280
8 2281 2182 2268 2362 2183 2077 2168 2269
8 2271 2169 2270 2364 2177 2075 2180 2277
8 2172 2070 2170 2272 2273 2177 2271 2365
8 2072 2173 2274 2178 2177 2273 2366 2277
8 2071 2174 2275 2176 2178 2274 2367 2276
8 2275 2176 2276 2367 2184 2083 2186 2282
8 2283 2187 2084 2186 2368 2278 2179 2276
8 2178 2074 2180 2277 2276 2179 2278 2368
8 2283 2187 2279 2370 2186 2084 2181 2280
8 2281 2182 2082 2185 2371 2280 2186 2282
8 2188 2285 2374 2284 2100 2197 2292 2201
8 2286 2189 2095 2193 2375 2285 2197 2289
8 2192 2097 2196 2287 2288 2199 2291 2376
8 2287 2196 2104 2203 2376 2291 2204 2296
8 2194 2098 2199 2288 2290 2198 2293 2377
8 2289 2197 2096 2195 2378 2292 2198 2290
8 2291 2200 2105 2204 2379 2294 2205 2297
8 2199 2102 2200 2291 2293 2202 2294 2379
8 2198 2101 2202 2293 2292 2201 2295 2380
8 2299 2207 2297 2383 2206 2107 2204 2296
8 2300 2208 2298 2384 2207 2108 2205 2297
8 2302 2210 2300 2386 2209 2110 2207 2299
8 2303 2211 2301 2387 2210 2111 2208 2300
8 2305 2213 2303 2389 2212 2113 2210 2302
8 2306 2214 2304 2390 2213 2114 2211 2303
8 2310 2216 2306 2392 2220 2117 2213 2305
8 2308 2215 2307 2393 2216 2115 2214 2306
8 2308 2215 2115 2216 2396 2309 2217 2311
8 2310 2216 2117 2220 2398 2311 2219 2315
8 2311 2217 2116 2219 2399 2312 2218 2314
8 2314 2218 2118 2222 2402 2313 2221 2317
8 2315 2219 2119 2223 2403 2314 2222 2318
8 2225 2121 2224 2320 2317 2221 2316 2405
8 2226 2122 2225 2321 2318 2222 2317 2406
8 2228 2124 2227 2323 2320 2224 2319 2408
8 2229 2125 2228 2324 2321 2225 2320 2409
8 2231 2127 2230 2326 2323 2227 2322 2411
8 2232 2128 2231 2327 2324 2228 2323 2412
8 2234 2130 2233 2328 2326 2230 2325 2413
8 2235 2131 2234 2329 2327 2231 2326 2414
8 2237 2134 2236 2330 2329 2234 2328 2415
8 2259 2158 2260 2352 2332 2239 2331 2417
8 2257 2157 2259 2350 2334 2240 2332 2419
8 2240 2139 2239 2332 2335 2241 2333 2420
8 2334 2240 2335 2422 2242 2140 2243 2337
8 2335 2241 2336 2423 2243 2141 2244 2338
8 2337 2243 2338 2425 2247 2143 2246 2342
8 2338 2244 2339 2426 2246 2142 2245 2341
8 2341 2245 2340 2428 2249 2145 2248 2343
8 2342 2246 2341 2429 2250 2146 2249 2344
8 2344 2249 2343 2430 2252 2149 2251 2345
8 2188 2285 2347 2254 2284 2374 2432 2346
8 2347 2254 2346 2432 2271 2169 2270 2364
8 2365 2271 2170 2272 2433 2347 2255 2348
8 2286 2189 2285 2375 2348 2255 2347 2433
8 2349 2258 2351 2435 2257 2157 2259 2350
8 2349 2258 2164 2263 2435 2351 2264 2355
8 2259 2158 2261 2351 2352 2260 2354 2437
8 2356 2265 2354 2437 2264 2165 2261 2351
8 2441 2357 2264 2355 2362 2268 2168 2269
8 2356 2265 2165 2264 2442 2358 2266 2357
8 2443 2359 2266 2357 2361 2267 2166 2268
8 2370 2279 2360 2446 2280 2181 2267 2361
8 2362 2268 2182 2281 2447 2361 2280 2371
8 2180 2277 2368 2278 2270 2364 2449 2363
8 2271 2365 2273 2177 2364 2450 2366 2277
8 2372 2283 2186 2282 2451 2368 2276 2367
8 2178 2274 2367 2276 2277 2366 2451 2368
8 2283 2187 2278 2368 2370 2279 2369 2452
8 2372 2283 2370 2453 2282 2186 2280 2371
8 2284 2374 2455 2373 2201 2292 2380 2295
8 2375 2285 2197 2289 2456 2374 2292 2378
8 2376 2291 2204 2296 2457 2379 2297 2383
8 2288 2199 2291 2376 2377 2293 2379 2457
8 2198 2290 2378 2292 2293 2377 2458 2380
8 2293 2202 2294 2379 2380 2295 2381 2459
8 2384 2298 2381 2459 2297 2205 2294 2379
8 2386 2300 2384 2463 2299 2207 2297 2383
8 2387 2301 2385 2464 2300 2208 2298 2384
8 2389 2303 2387 2466 2302 2210 2300 2386
8 2390 2304 2388 2467 2303 2211 2301 2387
8 2392 2306 2390 2469 2305 2213 2303 2389
8 2393 2307 2391 2470 2306 2214 2304 2390
8 2395 2308 2393 2472 2310 2216 2306 2392
8 2308 2215 2309 2396 2393 2307 2394 2473
8 2395 2308 2216 2310 2475 2396 2311 2398
8 2396 2309 2217 2311 2476 2397 2312 2399
8 2398 2311 2219 2315 2478 2399 2314 2403
8 2399 2312 2218 2314 2479 2400 2313 2402
8 2317 2221 2316 2405 2402 2313 2401 2482
8 2403 2314 2222 2318 2483 2402 2317 2406
8 2320 2224 2319 2408 2405 2316 2404 2485
8 2321 2225 2320 2409 2406 2317 2405 2486
8 2323 2227 2322 2411 2408 2319 2407 2488
8 2324 2228 2323 2412 2409 2320 2408 2489
8 2326 2230 2325 2413 2411 2322 2410 2490
8 2327 2231 2326 2414 2412 2323 2411 2491
8 2329 2234 2328 2415 2414 2326 2413 2492
8 2417 2331 2260 2352 2494 2416 2353 2438
8 2350 2259 2352 2436 2419 2332 2417 2496
8 2332 2239 2331 2417 2420 2333 2418 2497
8 2334 2240 2332 2419 2422 2335 2420 2499
8 2420 2333 2421 2500 2335 2241 2336 2423
8 2422 2335 2423 2502 2337 2243 2338 2425
8 2423 2336 2424 2503 2338 2244 2339 2426
8 2425 2338 2426 2505 2342 2246 2341 2429
8 2426 2339 2427 2506 2341 2245 2340 2428
8 2429 2341 2428 2507 2344 2249 2343 2430
8 2432 2346 2284 2374 2509 2431 2373 2455
8 2432 2346 2431 2509 2364 2270 2363 2449
8 2375 2285 2374 2456 2433 2347 2432 2510
8 2347 2433 2365 2271 2432 2510 2450 2364
8 2350 2259 2351 2435 2436 2352 2437 2514
8 2440 2356 2437 2514 2355 2264 2351 2435
8 2352 2260 2354 2437 2438 2353 2439 2516
8 2356 2265 2358 2442 2437 2354 2439 2516
8 2440 2356 2264 2355 2518 2442 2357 2441
8 2519 2443 2357 2441 2447 2361 2268 2362
8 2443 2359 2444 2520 2357 2266 2358 2442
8 2443 2359 2267 2361 2520 2444 2360 2446
8 2446 2360 2279 2370 2523 2445 2369 2452
8 2453 2370 2446 2524 2371 2280 2361 2447
8 2449 2363 2448 2525 2368 2278 2369 2452
8 2366 2277 2364 2450 2451 2368 2449 2526
8 2372 2283 2368 2451 2453 2370 2452 2527
8 2455 2373 2295 2380 2529 2454 2382 2460
8 2456 2374 2292 2378 2530 2455 2380 2458
8 2377 2293 2379 2457 2458 2380 2459 2531
8 2463 2384 2459 2531 2383 2297 2379 2457
8 2533 2461 2382 2460 2459 2381 2295 2380
8 2464 2385 2461 2533 2384 2298 2381 2459
8 2466 2387 2464 2537 2386 2300 2384 2463
8 2467 2388 2465 2538 2387 2301 2385 2464
8 2469 2390 2467 2540 2389 2303 2387 2466
8 2470 2391 2468 2541 2390 2304 2388 2467
8 2472 2393 2470 2543 2392 2306 2390 2469
8 2393 2307 2394 2473 2470 2391 2471 2544
8 2395 2308 2396 2475 2472 2393 2473 2546
8 2396 2309 2397 2476 2473 2394 2474 2547
8 2475 2396 2311 2398 2549 2476 2399 2478
8 2476 2397 2312 2399 2550 2477 2400 2479
8 2478 2399 2314 2403 2552 2479 2402 2483
8 2479 2400 2313 2402 2553 2480 2401 2482
8 2405 2316 2404 2485 2482 2401 2481 2556
8 2406 2317 2405 2486 2483 2402 2482 2557
8 2408 2319 2407 2488 2485 2404 2484 2559
8 2409 2320 2408 2489 2486 2405 2485 2560
8 2411 2322 2410 2490 2488 2407 2487 2561
8 2412 2323 2411 2491 2489 2408 2488 2562
8 2414 2326 2413 2492 2491 2411 2490 2563
8 2513 2434 2493 2565 2438 2353 2416 2494
8 2496 2417 2352 2436 2567 2494 2438 2515
8 2494 2416 2495 2568 2417 2331 2418 2497
8 2419 2332 2417 2496 2499 2420 2497 2570
8 2497 2418 2498 2571 2420 2333 2421 2500
8 2499 2420 2500 2573 2422 2335 2423 2502
8 2500 2421 2501 2574 2423 2336 2424 2503
8 2502 2423 2503 2576 2425 2338 2426 2505
8 2503 2424 2504 2577 2426 2339 2427 2506
8 2505 2426 2506 2578 2429 2341 2428 2507
8 2509 2431 2373 2455 2580 2508 2454 2529
8 2509 2431 2508 2580 2449 2363 2448 2525
8 2432 2510 2581 2509 2374 2456 2530 2455
8 2432 2510 2450 2364 2509 2581 2526 2449
8 2583 2511 2434 2513 2516 2439 2353 2438
8 2436 2352 2437 2514 2515 2438 2516 2588
8 2440 2356 2442 2518 2514 2437 2516 2588
8 2442 2358 2444 2520 2516 2439 2517 2589
8 2519 2443 2520 2591 2441 2357 2442 2518
8 2519 2443 2361 2447 2591 2520 2446 2524
8 2446 2360 2445 2523 2520 2444 2521 2592
8 2525 2448 2522 2593 2452 2369 2445 2523
8 2524 2446 2370 2453 2594 2523 2452 2527
8 2526 2449 2525 2595 2451 2368 2452 2527
8 2534 2462 2528 2597 2460 2382 2454 2529
8 2530 2455 2380 2458 2598 2529 2460 2532
8 2599 2533 2460 2532 2531 2459 2380 2458
8 2537 2464 2533 2599 2463 2384 2459 2531
8 2534 2462 2382 2460 2601 2535 2461 2533
8 2538 2465 2535 2601 2464 2385 2461 2533
8 2540 2467 2538 2604 2466 2387 2464 2537
8 2541 2468 2539 2605 2467 2388 2465 2538
8 2543 2470 2541 2607 2469 2390 2467 2540
8 2470 2391 2471 2544 2541 2468 2542 2608
8 2472 2393 2473 2546 2543 2470 2544 2610
8 2473 2394 2474 2547 2544 2471 2545 2611
8 2475 2396 2476 2549 2546 2473 2547 2613
8 2476 2397 2477 2550 2547 2474 2548 2614
8 2549 2476 2399 2478 2616 2550 2479 2552
8 2479 2400 2480 2553 2550 2477 2551 2617
8 2552 2479 2402 2483 2619 2553 2482 2557
8 2482 2401 2481 2556 2553 2480 2554 2620
8 2485 2404 2484 2559 2556 2481 2555 2623
8 2486 2405 2485 2560 2557 2482 2556 2624
8 2488 2407 2487 2561 2559 2484 2558 2625
8 2489 2408 2488 2562 2560 2485 2559 2626
8 2491 2411 2490 2563 2562 2488 2561 2627
8 2513 2434 2512 2585 2565 2493 2564 2630
8 2586 2513 2565 2632 2515 2438 2494 2567
8 2565 2493 2566 2633 2494 2416 2495 2568
8 2567 2494 2568 2635 2496 2417 2497 2570
8 2568 2495 2569 2636 2497 2418 2498 2571
8 2570 2497 2571 2638 2499 2420 2500 2573
8 2571 2498 2572 2639 2500 2421 2501 2574
8 2573 2500 2574 2641 2502 2423 2503 2576
8 2574 2501 2575 2642 2503 2424 2504 2577
8 2576 2503 2577 2643 2505 2426 2506 2578
8 2597 2528 2579 2645 2529 2454 2508 2580
8 2580 2508 2579 2645 2525 2448 2522 2593
8 2581 2509 2455 2530 2646 2580 2529 2598
8 2581 2509 2580 2646 2526 2449 2525 2595
8 2583 2511 2582 2648 2513 2434 2512 2585
8 2583 2511 2439 2516 2648 2582 2517 2589
8 2649 2583 2513 2586 2588 2516 2438 2515
8 2589 2517 2444 2520 2653 2587 2521 2592
8 2518 2442 2520 2591 2588 2516 2589 2654
8 2593 2522 2590 2655 2523 2445 2521 2592
8 2524 2446 2523 2594 2591 2520 2592 2656
8 2595 2525 2593 2657 2527 2452 2523 2594
8 2602 2536 2596 2659 2534 2462 2528 2597
8 2600 2534 2597 2660 2532 2460 2529 2598
8 2600 2534 2460 2532 2661 2601 2533 2599
8 2604 2538 2601 2661 2537 2464 2533 2599
8 2602 2536 2462 2534 2663 2603 2535 2601
8 2601 2535 2465 2538 2663 2603 2539 2605
8 2607 2541 2605 2665 2540 2467 2538 2604
8 2608 2542 2606 2666 2541 2468 2539 2605
8 2543 2470 2544 2610 2607 2541 2608 2668
8 2544 2471 2545 2611 2608 2542 2609 2669
8 2546 2473 2547 2613 2610 2544 2611 2671
8 2547 2474 2548 2614 2611 2545 2612 2672
8 2549 2476 2550 2616 2613 2547 2614 2674
8 2550 2477 2551 2617 2614 2548 2615 2675
8 2552 2479 2553 2619 2616 2550 2617 2677
8 2553 2480 2554 2620 2617 2551 2618 2678
8 2557 2482 2556 2624 2619 2553 2620 2680
8 2556 2481 2555 2623 2620 2554 2621 2681
8 2559 2484 2558 2625 2623 2555 2622 2683
8 2560 2485 2559 2626 2624 2556 2623 2684
8 2562 2488 2561 2627 2626 2559 2625 2685
8 2690 2629 2564 2630 2650 2584 2512 2585
8 2586 2513 2585 2651 2632 2565 2630 2691
8 2630 2564 2631 2692 2565 2493 2566 2633
8 2632 2565 2633 2694 2567 2494 2568 2635
8 2633 2566 2634 2695 2568 2495 2569 2636
8 2635 2568 2636 2697 2570 2497 2571 2638
8 2636 2569 2637 2698 2571 2498 2572 2639
8 2638 2571 2639 2700 2573 2500 2574 2641
8 2639 2572 2640 2701 2574 2501 2575 2642
8 2641 2574 2642 2702 2576 2503 2577 2643
8 2597 2528 2596 2659 2645 2579 2644 2704
8 2645 2579 2644 2704 2593 2522 2590 2655
8 2660 2597 2645 2705 2598 2529 2580 2646
8 2646 2580 2645 2705 2595 2525 2593 2657
8 2650 2584 2512 2585 2707 2647 2582 2648
8 2648 2582 2517 2589 2707 2647 2587 2653
8 2649 2583 2648 2708 2586 2513 2585 2651
8 2649 2583 2516 2588 2708 2648 2589 2654
8 2655 2590 2652 2710 2592 2521 2587 2653
8 2654 2589 2520 2591 2711 2653 2592 2656
8 2657 2593 2655 2712 2594 2523 2592 2656
8 2602 2536 2603 2663 2659 2596 2658 2714
8 2662 2602 2659 2715 2600 2534 2597 2660
8 2662 2602 2534 2600 2717 2663 2601 2661
8 2661 2601 2538 2604 2717 2663 2605 2665
8 2666 2606 2664 2718 2605 2539 2603 2663
8 2668 2608 2666 2720 2607 2541 2605 2665
8 2608 2542 2609 2669 2666 2606 2667 2721
8 2610 2544 2611 2671 2668 2608 2669 2723
8 2611 2545 2612 2672 2669 2609 2670 2724
8 2613 2547 2614 2674 2671 2611 2672 2726
8 2614 2548 2615 2675 2672 2612 2673 2727
8 2616 2550 2617 2677 2674 2614 2675 2729
8 2617 2551 2618 2678 2675 2615 2676 2730
8 2619 2553 2620 2680 2677 2617 2678 2732
8 2620 2554 2621 2681 2678 2618 2679 2733
8 2624 2556 2623 2684 2680 2620 2681 2735
8 2681 2621 2555 2623 2736 2682 2622 2683
8 2626 2559 2625 2685 2684 2623 2683 2737
8 2688 2628 2584 2650 2740 2686 2647 2707
8 2688 2628 2687 2742 2650 2584 2629 2690
8 2690 2629 2689 2745 2630 2564 2631 2692
8 2746 2690 2630 2691 2709 2650 2585 2651
8 2691 2630 2692 2747 2632 2565 2633 2694
8 2692 2631 2693 2748 2633 2566 2634 2695
8 2694 2633 2695 2750 2635 2568 2636 2697
8 2695 2634 2696 2751 2636 2569 2637 2698
8 2697 2636 2698 2753 2638 2571 2639 2700
8 2698 2637 2699 2754 2639 2572 2640 2701
8 2700 2639 2701 2755 2641 2574 2642 2702
8 2659 2596 2658 2714 2704 2644 2703 2757
8 2704 2644 2703 2757 2655 2590 2652 2710
8 2660 2597 2659 2715 2705 2645 2704 2758
8 2705 2645 2704 2758 2657 2593 2655 2712
8 2759 2706 2647 2707 2710 2652 2587 2653
8 2709 2650 2585 2651 2760 2707 2648 2708
8 2708 2648 2589 2654 2760 2707 2653 2711
8 2712 2655 2710 2761 2656 2592 2653 2711
8 2763 2713 2658 2714 2718 2664 2603 2663
8 2662 2602 2663 2717 2715 2659 2714 2764
8 2720 2666 2718 2767 2665 2605 2663 2717
8 2768 2719 2664 2718 2721 2667 2606 2666
8 2668 2608 2669 2723 2720 2666 2721 2770
8 2669 2609 2670 2724 2721 2667 2722 2771
8 2671 2611 2672 2726 2723 2669 2724 2773
8 2672 2612 2673 2727 2724 2670 2725 2774
8 2674 2614 2675 2729 2726 2672 2727 2776
8 2675 2615 2676 2730 2727 2673 2728 2777
8 2677 2617 2678 2732 2729 2675 2730 2779
8 2678 2618 2679 2733 2730 2676 2731 2780
8 2680 2620 2681 2735 2732 2678 2733 2782
8 2733 2679 2621 2681 2783 2734 2682 2736
8 2735 2681 2623 2684 2784 2736 2683 2737
8 2740 2686 2647 2707 2787 2738 2706 2759
8 2688 2628 2686 2740 2742 2687 2739 2789
8 2743 2688 2650 2709 2790 2740 2707 2760
8 2742 2687 2741 2792 2690 2629 2689 2745
8 2743 2688 2742 2793 2709 2650 2690 2746
8 2745 2689 2744 2795 2692 2631 2693 2748
8 2746 2690 2745 2796 2691 2630 2692 2747
8 2747 2692 2748 2797 2694 2633 2695 2750
8 2748 2693 2749 2798 2695 2634 2696 2751
8 2750 2695 2751 2800 2697 2636 2698 2753
8 2751 2696 2752 2801 2698 2637 2699 2754
8 2753 2698 2754 2802 2700 2639 2701 2755
8 2763 2713 2756 2804 2714 2658 2703 2757
8 2759 2706 2652 2710 2804 2756 2703 2757
8 2715 2659 2714 2764 2758 2704 2757 2805
8 2758 2704 2757 2805 2712 2655 2710 2761
8 2806 2759 2707 2760 2761 2710 2653 2711
8 2765 2716 2762 2808 2718 2664 2713 2763
8 2809 2763 2714 2764 2767 2718 2663 2717
8 2765 2716 2664 2718 2811 2766 2719 2768
8 2813 2768 2718 2767 2770 2721 2666 2720
8 2814 2769 2719 2768 2771 2722 2667 2721
8 2723 2669 2724 2773 2770 2721 2771 2816
8 2724 2670 2725 2774 2771 2722 2772 2817
8 2726 2672 2727 2776 2773 2724 2774 2819
8 2727 2673 2728 2777 2774 2725 2775 2820
8 2729 2675 2730 2779 2776 2727 2777 2822
8 2730 2676 2731 2780 2777 2728 2778 2823
8 2732 2678 2733 2782 2779 2730 2780 2825
8 2780 2731 2679 2733 2826 2781 2734 2783
8 2782 2733 2681 2735 2827 2783 2736 2784
8 2830 2785 2738 2787 2804 2756 2706 2759
8 2789 2739 2686 2740 2832 2786 2738 2787
8 2790 2740 2707 2760 2833 2787 2759 2806
8 2742 2687 2739 2789 2792 2741 2788 2835
8 2743 2688 2740 2790 2793 2742 2789 2836
8 2792 2741 2791 2838 2745 2689 2744 2795
8 2793 2742 2792 2839 2746 2690 2745 2796
8 2795 2744 2794 2841 2748 2693 2749 2798
8 2796 2745 2795 2842 2747 2692 2748 2797
8 2797 2748 2798 2843 2750 2695 2751 2800
8 2798 2749 2799 2844 2751 2696 2752 2801
8 2800 2751 2801 2845 2753 2698 2754 2802
8 2808 2762 2803 2847 2763 2713 2756 2804
8 2809 2763 2804 2848 2764 2714 2757 2805
8 2806 2759 2710 2761 2848 2804 2757 2805
8 2765 2716 2766 2811 2808 2762 2807 2850
8 2810 2765 2808 2851 2767 2718 2763 2809
8 2810 2765 2718 2767 2852 2811 2768 2813
8 2811 2766 2719 2768 2853 2812 2769 2814
8 2855 2814 2768 2813 2816 2771 2721 2770
8 2856 2815 2769 2814 2817 2772 2722 2771
8 2773 2724 2774 2819 2816 2771 2817 2858
8 2774 2725 2775 2820 2817 2772 2818 2859
8 2776 2727 2777 2822 2819 2774 2820 2861
8 2777 2728 2778 2823 2820 2775 2821 2862
8 2779 2730 2780 2825 2822 2777 2823 2864
8 2823 2778 2731 2780 2865 2824 2781 2826
8 2825 2780 2733 2782 2866 2826 2783 2827
8 2869 2828 2785 2830 2847 2803 2756 2804
8 2871 2829 2786 2832 2830 2785 2738 2787
8 2872 2830 2787 2833 2848 2804 2759 2806
8 2789 2739 2786 2832 2835 2788 2831 2874
8 2836 2789 2740 2790 2875 2832 2787 2833
8 2792 2741 2788 2835 2838 2791 2834 2877
8 2793 2742 2789 2836 2839 2792 2835 2878
8 2838 2791 2837 2880 2795 2744 2794 2841
8 2839 2792 2838 2881 2796 2745 2795 2842
8 2841 2794 2840 2882 2798 2749 2799 2844
8 2842 2795 2841 2883 2797 2748 2798 2843
8 2843 2798 2844 2884 2800 2751 2801 2845
8 2886 2846 2803 2847 2850 2807 2762 2808
8 2851 2808 2847 2887 2809 2763 2804 2848
8 2850 2807 2766 2811 2889 2849 2812 2853
8 2810 2765 2811 2852 2851 2808 2850 2890
8 2852 2811 2768 2813 2891 2853 2814 2855
8 2853 2812 2769 2814 2892 2854 2815 2856
8 2894 2856 2814 2855 2858 2817 2771 2816
8 2817 2772 2818 2859 2856 2815 2857 2895
8 2819 2774 2820 2861 2858 2817 2859 2897
8 2820 2775 2821 2862 2859 2818 2860 2898
8 2822 2777 2823 2864 2861 2820 2862 2900
8 2823 2778 2824 2865 2862 2821 2863 2901
8 2864 2823 2780 2825 2902 2865 2826 2866
8 2904 2867 2828 2869 2886 2846 2803 2847
8 2869 2828 2868 2906 2830 2785 2829 2871
8 2907 2869 2830 2872 2887 2847 2804 2848
8 2871 2829 2870 2909 2832 2786 2831 2874
8 2910 2871 2832 2875 2872 2830 2787 2833
8 2835 2788 2831 2874 2877 2834 2873 2912
8 2836 2789 2832 2875 2878 2835 2874 2913
8 2877 2834 2876 2915 2838 2791 2837 2880
8 2839 2792 2835 2878 2881 2838 2877 2916
8 2880 2837 2879 2917 2841 2794 2840 2882
8 2881 2838 2880 2918 2842 2795 2841 2883
8 2883 2841 2882 2919 2843 2798 2844 2884
8 2921 2885 2846 2886 2889 2849 2807 2850
8 2922 2886 2847 2887 2890 2850 2808 2851
8 2889 2849 2812 2853 2924 2888 2854 2892
8 2890 2850 2811 2852 2925 2889 2853 2891
8 2891 2853 2814 2855 2926 2892 2856 2894
8 2892 2854 2815 2856 2927 2893 2857 2895
8 2858 2817 2859 2897 2894 2856 2895 2929
8 2859 2818 2860 2898 2895 2857 2896 2930
8 2861 2820 2862 2900 2897 2859 2898 2932
8 2862 2821 2863 2901 2898 2860 2899 2933
8 2864 2823 2865 2902 2900 2862 2901 2934
8 2904 2867 2846 2886 2936 2903 2885 2921
8 2904 2867 2903 2936 2869 2828 2868 2906
8 2937 2904 2869 2907 2922 2886 2847 2887
8 2906 2868 2905 2939 2871 2829 2870 2909
8 2907 2869 2906 2940 2872 2830 2871 2910
8 2909 2870 2908 2942 2874 2831 2873 2912
8 2910 2871 2909 2943 2875 2832 2874 2913
8 2912 2873 2911 2945 2877 2834 2876 2915
8 2878 2835 2874 2913 2916 2877 2912 2946
8 2915 2876 2914 2947 2880 2837 2879 2917
8 2916 2877 2915 2948 2881 2838 2880 2918
8 2918 2880 2917 2949 2883 2841 2882 2919
8 2921 2885 2849 2889 2951 2920 2888 2924
8 2952 2921 2886 2922 2925 2889 2850 2890
8 2924 2888 2854 2892 2954 2923 2893 2927
8 2925 2889 2853 2891 2955 2924 2892 2926
8 2926 2892 2856 2894 2956 2927 2895 2929
8 2895 2857 2896 2930 2927 2893 2928 2957
8 2897 2859 2898 2932 2929 2895 2930 2959
8 2898 2860 2899 2933 2930 2896 2931 2960
8 2900 2862 2901 2934 2932 2898 2933 2961
8 2936 2903 2885 2921 2963 2935 2920 2951
8 2936 2903 2935 2963 2906 2868 2905 2939
8 2937 2904 2886 2922 2964 2936 2921 2952
8 2937 2904 2936 2964 2907 2869 2906 2940
8 2939 2905 2938 2966 2909 2870 2908 2942
8 2940 2906 2939 2967 2910 2871 2909 2943
8 2942 2908 2941 2969 2912 2873 2911 2945
8 2943 2909 2942 2970 2913 2874 2912 2946
8 2945 2911 2944 2971 2915 2876 2914 2947
8 2946 2912 2945 2972 2916 2877 2915 2948
8 2948 2915 2947 2973 2918 2880 2917 2949
8 2951 2920 2888 2924 2975 2950 2923 2954
8 2952 2921 2889 2925 2976 2951 2924 2955
8 2927 2893 2928 2957 2954 2923 2953 2978
8 2955 2924 2892 2926 2979 2954 2927 2956
8 2929 2895 2930 2959 2956 2927 2957 2980
8 2930 2896 2931 2960 2957 2928 2958 2981
8 2932 2898 2933 2961 2959 2930 2960 2982
8 2951 2920 2950 2975 2963 2935 2962 2984
8 2963 2935 2962 2984 2939 2905 2938 2966
8 2964 2936 2921 2952 2985 2963 2951 2976
8 2964 2936 2963 2985 2940 2906 2939 2967
8 2966 2938 2965 2987 2942 2908 2941 2969
8 2967 2939 2966 2988 2943 2909 2942 2970
8 2969 2941 2968 2989 2945 2911 2944 2971
8 2970 2942 2969 2990 2946 2912 2945 2972
8 2972 2945 2971 2991 2948 2915 2947 2973
8 2954 2923 2953 2978 2975 2950 2974 2993
8 2976 2951 2924 2955 2994 2975 2954 2979
8 2957 2928 2958 2981 2978 2953 2977 2995
8 2956 2927 2957 2980 2979 2954 2978 2996
8 2959 2930 2960 2982 2980 2957 2981 2997
8 2984 2962 2983 2999 2966 2938 2965 2987
8 2975 2950 2974 2993 2984 2962 2983 2999
8 2976 2951 2975 2994 2985 2963 2984 3000
8 2985 2963 2984 3000 2967 2939 2966 2988
8 2987 2965 2986 3001 2969 2941 2968 2989
8 2988 2966 2987 3002 2970 2942 2969 2990
8 2990 2969 2989 3003 2972 2945 2971 2991
8 2978 2953 2977 2995 2993 2974 2992 3004
8 2979 2954 2978 2996 2994 2975 2993 3005
8 2980 2957 2981 2997 2996 2978 2995 3006
8 2974 2993 2999 2983 2992 3004 3007 2998
8 2983 2999 2987 2965 2998 3007 3001 2986
8 3000 2984 2999 3008 2988 2966 2987 3002
8 2994 2975 2993 3005 3000 2984 2999 3008
8 3002 2987 3001 3009 2990 2969 2989 3003
8 2996 2978 2995 3006 3005 2993 3004 3010
8 3005 2993 3004 3010 3008 2999 3007 3011
8 3008 2999 3007 3011 3002 2987 3001 3009

CELL_TYPES 1910
12
12
12
12
12
12
12
12
12
12
12
12
12
12
12
12
12
12
12
12
12
12
12
12
12
12
12
12
12
12
12
12
12
12
12
12
12
12
12
12
12
12
12
12
12
12
12
12
12
12
12
12
12
12
12
12
12
12
12
12
12
12
12
12
12
12
12
12
12
12
12
12
12
12
12
12
12
12
12
12
12
12
12
12
12
12
12
12
12
12
12
12
12
12
12
12
12
12
12
12
12
12
12
12
12
12
12
12
12
12
12
12
12
12
12
12
12
12
12
12
12
12
12
12
12
12
12
12
12
12
12
12
12
12
12
12
12
12
12
12
12
12
12
12
12
12
12
12
12
12
12
12
12
12
12
12
12
12
12
12
12
12
12
12
12
12
12
12
12
12
12
12
12
12
12
12
12
12
12
12
12
12
12
12
12
12
12
12
12
12
12
12
12
12
12
12
12
12
12
12
12
12
12
12
12
12
12
12
12
12
12
12
12
12
12
12
12
12
12
12
12
12
12
12
12
12
12
12
12
12
12
12
12
12
12
12
12
12
12
12
12
12
12
12
12
12
12
12
12
12
12
12
12
12
12
12
12
12
12
12
12
12
12
12
12
12
12
12
12
12
12
12
12
12
12
12
12
12
12
12
12
12
12
12
12
12
12
12
12
12
12
12
12
12
12
12
12
12
12
12
12
12
12
12
12
12
12
12
12
12
12
12
12
12
12
12
12
12
12
12
12
12
12
12
12
12
12
12
12
12
12
12
12
12
12
12
12
12
12
12
12
12
12
12
12
12
12
12
12
12
12
12
12
12
12
12
12
12
12
12
12
12
12
12
12
12
12
12
12
12
12
12
12
12
12
12
12
12
12
12
12
12
12
12
12
12
12
12
12
12
12
12
12
12
12
12
12
12
12
12
12
12
12
12
12
12
12
12
12
12
12
12
12
12
12
12
12
12
12
12
12
12
12
12
12
12
12
12
12
12
12
12
12
12
12
12
12
12
12
12
12
12
12
12
12
12
12
12
12
12
12
12
12
12
12
12
12
12
12
12
12
12
12
12
12
12
12
12
12
12
12
12
12
12
12
12
12
12
12
12
12
12
12
12
12
12
12
12
12
12
12
12
12
12
12
12
12
12
12
12
12
12
12
12
12
12
12
12
12
12
12
12
12
12
12
12
12
12
12
12
12
12
12
12
12
12
12
12
12
12
12
12
12
12
12
12
12
12
12
12
12
12
12
12
12
12
12
12
12
12
12
12
12
12
12
12
12
12
12
12
12
12
12
12
12
12
12
12
12
12
12
12
12
12
12
12
12
12
12
12
12
12
12
12
12
12
12
12
12
12
12
12
12
12
12
12
12
12
12
12
12
12
12
12
12
12
12
12
12
12
12
12
12
12
12
12
12
12
12
12
12
12
12
12
12
12
12
12
12
12
12
12
12
12
12
12
12
12
12
12
12
12
12
12
12
12
12
12
12
12
12
12
12
12
12
12
12
12
12
12
12
12
12
12
12
12
12
12
12
12
12
12
12
12
12
12
12
12
12
12
12
12
12
12
12
12
12
12
12
12
12
12
12
12
12
12
12
12
12
12
12
12
12
12
12
12
12
12
12
12
12
12
12
12
12
12
12
12
12
12
12
12
12
12
12
12
12
12
12
12
12
12
12
12
12
12
12
12
12
12
12
12
12
12
12
12
12
12
12
12
12
12
12
12
12
12
12
12
12
12
12
12
12
12
12
12
12
12
12
12
12
12
12
12
12
12
12
12
12
12
12
12
12
12
12
12
12
12
12
12
12
12
12
12
12
12
12
12
12
12
12
12
12
12
12
12
12
12
12
12
12
12
12
12
12
12
12
12
12
12
12
12
12
12
12
12
12
12
12
12
12
12
12
12
12
12
12
12
12
12
12
12
12
12
12
12
12
12
12
12
12
12
12
12
12
12
12
12
12
12
12
12
12
12
12
12
12
12
12
12
12
12
12
12
12
12
12
12
12
12
12
12
12
12
12
12
12
12
12
12
12
12
12
12
12
12
12
12
12
12
12
12
12
12
12
12
12
12
12
12
12
12
12
12
12
12
12
12
12
12
12
12
12
12
12
12
12
12
12
12
12
12
12
12
12
12
12
12
12
12
12
12
12
12
12
12
12
12
12
12
12
12
12
12
12
12
12
12
12
12
12
12
12
12
12
12
12
12
12
12
12
12
12
12
12
12
12
12
12
12
12
12
12
12
12
12
12
12
12
12
12
12
12
12
12
12
12
12
12
12
12
12
12
12
12
12
12
12
12
12
12
12
12
12
12
12
12
12
12
12
12
12
12
12
12
12
12
12
12
12
12
12
12
12
12
12
12
12
12
12
12
12
12
12
12
12
12
12
12
12
12
12
12
12
12
12
12
12
12
12
12
12
12
12
12
12
12
12
12
12
12
12
12
12
12
12
12
12
12
12
12
12
12
12
12
12
12
12
12
12
12
12
12
12
12
12
12
12
12
12
12
12
12
12
12
12
12
12
12
12
12
12
12
12
12
12
12
12
12
12
12
12
12
12
12
12
12
12
12
12
12
12
12
12
12
12
12
12
12
12
12
12
12
12
12
12
12
12
12
12
12
12
12
12
12
12
12
12
12
12
12
12
12
12
12
12
12
12
12
12
12
12
12
12
12
12
12
12
12
12
12
12
12
12
12
12
12
12
12
12
12
12
12
12
12
12
12
12
12
12
12
12
12
12
12
12
12
12
12
12
12
12
12
12
12
12
12
12
12
12
12
12
12
12
12
12
12
12
12
12
12
12
12
12
12
12
12
12
12
12
12
12
12
12
12
12
12
12
12
12
12
12
12
12
12
12
12
12
12
12
12
12
12
12
12
12
12
12
12
12
12
12
12
12
12
12
12
12
12
12
12
12
12
12
12
12
12
12
12
12
12
12
12
12
12
12
12
12
12
12
12
12
12
12
12
12
12
12
12
12
12
12
12
12
12
12
12
12
12
12
12
12
12
12
12
12
12
12
12
12
12
12
12
12
12
12
12
12
12
12
12
12
12
12
12
12
12
12
12
12
12
12
12
12
12
12
12
12
12
12
12
12
12
12
12
12
12
12
12
12
12
12
12
12
12
12
12
12
12
12
12
12
12
12
12
12
12
12
12
12
12
12
12
12
12
12
12
12
12
12
12
12
12
12
12
12
12
12
12
12
12
12
12
12
12
12
12
12
12
12
12
12
12
12
12
12
12
12
12
12
12
12
12
12
12
12
12
12
12
12
12
12
12
12
12
12
12
12
12
12
12
12
12
12
12
12
12
12
12
12
12
12
12
12
12
12
12
12
12
12
12
12
12
12
12
12
12
12
12
12
12
12
12
12
12
12
12
12
12
12
12
12
12
12
12
12
12
12
12
12
12
12
12
12
12
12
12
12
12
12
12
12
12
12
12
12
12
12
12
12
12
12
12
12
12
12
12
12
12
12
12
12
12
12
12
12
12
12
12
12
12
12
12
12
12
12
12
12
12
12
12
12
12
12
12
12
12
12
12
12
12
12
12
12
12
12
12
12
12
12
12
12
12
12
12
12
12
12
12
12
12
12
12
12
12
12
12
12
12
12
12
12
12
12
12
12
12
12
12
12
12
12
12
12
12
12
12
12
12
12
12
12
12
12
12
12
12
12
12
12
12
12
12
12
12
12
12
12
12
12
12
12
12
12
12
12
12
12
12
12
12
12
12
12
12
12
12
12
12
12
12
12
12
12
12
12
12
12
12
12
12
12
12
12
12
12
12
12
12
12
12
12
12
12
12
12
12
12
12
12
12
12
12
12
12
12
12
12
12
12
12
12
12
12
12
12
12
12
12
12
12
12
12
12
12
12
12
12
12
12
12
12
12
12
12
12
12
12
12
12
12
12
12
12
12
12
12
12
12
12
12
12
12
12
12
12
12
12
12
12
12
12
12
12
12
12
12
12
12
12
12
12
12
12
12
12
12
12
12
12
12
12
12
12
12
12
12
12
12
12
12
12
12
12
12
12
12
12
12
12
12
12
12
12
12
12
12
12
12
12
12
12
12
12
12
12
12
12
12
12
12
12
12
12
12
12
12
12
12
12
12
12
12
12
12
12
12
12
12
12
12
12
12
12
12
12
12
12
12
12
12
12
12
12
12
12
12
12
12
12
12
12
12
12
12
12
12
12
12
12
12
12
12
12
12
12
12
12
12
12
12
12
12
12
12
12
12
12
12
12
12
12
12
12
12
12
12
12
12
12
12
12
12
12
12
12
12
12
12
12
12
12
12
12
12
12
12
12
12
12
12
12
12
12
12
12
12
12
12
12

POINT_DATA 3012
SCALARS Jp_lamdaP float 4
LOOKUP_TABLE default
0.999792 1 1 0.999792
1 1 1 1
0.999798 1 1 0.999798
0.999743 1 1 0.999743
0.999792 1 1 0.999792
0.999782 1 1 0.999782
0.999147 1 1 0.999147
1 1 1 1
1 1 1 1
1 1 1 1
0.999865 1 1 0.999865
0.999289 1 1 0.999289
0.999715 1 1 0.999715
0.999738 1 1 0.999738
0.999799 1 1 0.999799
0.999763 1 1 0.999763
0.999787 1 1 0.999787
0.999804 1 1 0.999804
0.999149 1 1 0.999149
1 1 1 1
0.999722 1 1 0.999722
0.999772 1 1 0.999772
0.999016 1 1 0.999016
0.999119 1 1 0.999119
0.999796 1 1 0.999796
0.999173 1 1 0.999173
1.00281 1.00468 1 0.998139
1 1 1 1
0.999885 1 1 0.999885
0.999899 1 1 0.999899
1 1 1 1
0.999297 1 1 0.999297
0.999764 1 1 0.999764
0.999788 1 1 0.999788
0.999255 1 1 0.999255
1 1 1 1
0.999342 1 1 0.999342
0.999389 1 1 0.999389
0.999038 1.00089 1 0.998152
1 1 1 1
1 1 1 1
0.999868 1 1 0.999868
1 1 1 1
0.999734 1 1 0.999734
0.998943 1 1 0.998943
1 1 1 1
0.999157 1 1 0.999157
0.99978 1 1 0.99978
0.999811 1 1 0.999811
0.999788 1 1 0.999788
0.999155 1 1 0.999155
0.999851 1 1 0.999851
0.999741 1 1 0.999741
0.999807 1 1 0.999807
0.999789 1 1 0.999789
0.999015 1 1 0.999015
0.999177 1 1 0.999177
0.999121 1 1 0.999121
1.00319 1.00508 1 0.998124
1 1 1 1
0.999715 1 1 0.999715
0.999149 1 1 0.999149
0.99898 1 1 0.99898
0.999069 1 1 0.999069
1.00572 1.00789 1 0.997847
1.0041 1.00614 1 0.997974
0.999857 1 1 0.999857
0.999284 1 1 0.999284
1.00081 1.00257 1 0.99824
1.01464 1.01737 1 0.997318
1 1 1 1
1 1 1 1
1 1 1 1
0.999305 1 1 0.999305
1 1 1 1
1 1 1 1
0.999141 1 1 0.999141
0.999959 1 1 0.999959
0.999247 1 1 0.999247
0.999466 1 1 0.999466
0.998697 1.00055 1 0.998149
1 1 1 1
1.00015 1 1.00026 0.999897
0.999074 1 1 0.999074
0.999177 1 1 0.999177
1.00585 1.00815 1 0.997727
0.999654 1 1 0.999654
1.00109 1.00304 1 0.998051
0.998374 1.00008 1 0.998292
1.00116 1.00365 1 0.997526
1 1 1 1
1 1 1 1
1 1 1 1
1 1 1 1
1 1 1 1
0.999864 1 1 0.999864
0.99904 1 1 0.99904
0.999872 1 1 0.999872
0.999094 1 1 0.999094
1 1 1 1
0.998939 1 1 0.998939
0.999135 1 1 0.999135
1.00497 1.00752 1 0.997465
0.999193 1 1 0.999193
1.00726 1.00975 1 0.997535
0.999735 1 1 0.999735
0.999758 1 1 0.999758
0.999817 1 1 0.999817
0.999803 1 1 0.999803
0.999016 1 1 0.999016
0.999125 1 1 0.999125
0.999183 1 1 0.999183
1.00357 1.00547 1 0.99811
1 1 1 1
0.999733 1 1 0.999733
0.998965 1 1 0.998965
0.998977 1 1 0.998977
0.999928 1 1 0.999928
0.999347 1 1 0.999347
0.999071 1 1 0.999071
1.00571 1.00792 1 0.997805
1.00138 1.00317 1 0.998221
1.00435 1.00635 1 0.998004
1.01458 1.0173 1 0.997324
0.998962 1 1 0.998962
0.998963 1 1 0.998963
1.00453 1.00688 1 0.997659
1.00579 1.00808 1 0.997733
1.00548 1.00764 1 0.99786
1.0225 1.02541 1 0.997158
1 1 1 1
1.01725 1.02005 1 0.997261
0.999603 1 1.00009 0.999512
0.998898 1.00065 1 0.998251
1.01154 1.0142 1 0.997375
1.02448 1.02745 1 0.997106
1.00011 1 1.00036 0.999752
1.00204 1 1.00315 0.998902
1 1 1 1
1 1 1 1
0.999147 1 1 0.999147
1 1 1 1
0.99945 1 1 0.99945
0.999252 1 1 0.999252
0.998353 1.00021 1 0.998146
1 1 1 1
0.999946 1 1.00003 0.999917
0.999151 1 1 0.999151
0.999248 1 1 0.999248
1.00527 1.00756 1 0.997729
0.999669 1 1.00002 0.999647
1.00038 1.00233 1 0.998054
0.998308 1.00002 1 0.998291
1.00104 1.00354 1 0.997509
0.999885 1 1.0001 0.999784
0.999965 1 1 0.999965
1.00047 1 1.00134 0.999131
1.00717 1.00957 1 0.997618
1.0037 1.00582 1 0.99789
1.01863 1.02157 1 0.997121
0.998583 1 1.00004 0.998538
1.00715 1.00975 1 0.997429
1.00064 1.00246 1.00057 0.997616
1.00778 1.01047 1 0.997335
1 1 1 1
1 1 1 1
1 1 1 1
0.999843 1 1 0.999843
1 1 1 1
1 1 1 1
1 1 1 1
0.99903 1 1 0.99903
0.998972 1 1 0.998972
1 1 1 1
1 1 1 1
0.998941 1 1 0.998941
0.999072 1 1 0.999072
1.00536 1.00792 1 0.997465
0.999056 1 1 0.999056
1.00739 1.00988 1 0.997535
0.998934 1 1 0.998934
1.004 1.00659 1 0.997421
1.00621 1.00873 1 0.99751
1.02525 1.02833 1 0.996998
1.00755 1.01001 1 0.997561
1.02714 1.03019 1 0.997042
1 1 1 1
0.999751 1 1 0.999751
0.998764 1 1 0.998764
0.998975 1 1 0.998975
1 1 1 1
0.999412 1 1 0.999412
0.999074 1 1 0.999074
1.00569 1.00794 1 0.997764
1.00461 1.00659 1 0.998034
1.00194 1.00375 1 0.998203
1.01448 1.0172 1 0.997329
0.998959 1 1 0.998959
0.99896 1 1 0.99896
1.00437 1.00684 1 0.997552
1.00581 1.00807 1 0.997761
1 1 1 1
0.999533 1 1.00001 0.999524
0.999515 1.0012 1 0.998313
1.00542 1.00758 1 0.997858
1.02238 1.02532 1 0.997126
1.01098 1.01365 1 0.997364
1.01745 1.02021 1 0.997295
1.02405 1.02702 1 0.997113
1.00036 1 1.00062 0.999742
1.00189 1 1.00299 0.998904
1.00354 1.00611 1 0.997443
1.00509 1.00741 1 0.997701
1.02361 1.0266 1 0.997088
1.02297 1.02599 1 0.997065
1.01983 1.02265 1 0.997247
1.03308 1.03608 1 0.9971
1.00006 1 1.00042 0.99964
1.0264 1.02936 1 0.997126
0.998582 1.00005 1.00011 0.998424
1.00514 1.00767 1 0.997488
1.02214 1.0251 1 0.997115
1.02641 1.02931 1 0.997181
1.00172 1 1.00301 0.998721
0.999978 1 1.00085 0.99913
1.00223 1 1.00393 0.998299
0.999097 1 1 0.999097
1 1 1 1
0.999936 1 1 0.999936
0.999206 1 1 0.999206
1.00469 1.00697 1 0.99773
0.999711 1 1.00006 0.999653
0.99833 1 1.00004 0.998289
0.999613 1.00156 1 0.998058
1.00096 1.00348 1 0.997492
0.999962 1 1.00016 0.999805
0.999974 1 1 0.999974
1.00068 1 1.00154 0.999133
1.00685 1.00925 1 0.997617
1.00292 1.00504 1 0.997895
1.01871 1.02166 1 0.997118
0.998703 1 1.00016 0.998542
1.00748 1.01007 1 0.997438
1.00015 1.00207 1.00047 0.997612
1.00846 1.01117 1 0.997321
0.999992 1 1 0.999992
0.999541 1 1.00072 0.998817
1.00024 1 1.0008 0.999435
1.00102 1 1.0025 0.998524
1.02265 1.02568 1 0.997052
1.01359 1.01636 1 0.997277
1.02676 1.02989 1 0.996969
0.99923 1.00084 1.00049 0.997903
1.01523 1.01801 1 0.997264
1.0085 1.00965 1.00158 0.997284
1.01838 1.02124 1 0.997195
0.999797 1 1 0.999797
1 1 1 1
1 1 1 1
1 1 1 1
1 1 1 1
0.999914 1 1 0.999914
1 1 1 1
1.00006 1 1.00023 0.999831
1 1 1 1
0.999057 1 1 0.999057
0.999004 1 1 0.999004
1.0076 1.01009 1 0.997534
1.00573 1.00829 1 0.997466
0.998943 1 1 0.998943
1 1 1 1
0.998933 1 1 0.998933
1.00424 1.00683 1 0.997422
1.00659 1.0091 1 0.99751
1.02502 1.0281 1 0.996996
1.00755 1.01001 1 0.997559
1.02703 1.03008 1 0.99704
1.00343 1.00603 1 0.997416
1.02375 1.02688 1 0.996959
1.02683 1.02989 1 0.997029
1.03945 1.04245 1 0.997117
1.02606 1.02911 1 0.997041
1.0373 1.04032 1 0.997088
0.998957 1 1 0.998957
0.998957 1 1 0.998957
1.00422 1.0068 1 0.997447
1.00585 1.00808 1 0.997789
1 1 1 1
0.999536 1 1 0.999536
1.00008 1.00171 1 0.998375
1.00537 1.00753 1 0.997855
1.02227 1.02525 1 0.997093
1.0176 1.02033 1 0.997329
1.01044 1.01312 1 0.997353
1.02374 1.0267 1 0.99712
1.00043 1 1.0007 0.999731
1.00166 1 1.00275 0.998906
1.00349 1.00608 1 0.997419
1.00506 1.00738 1 0.997698
1.02365 1.02663 1 0.997093
1.02312 1.02611 1 0.997095
0.999973 1 1.00034 0.999629
0.998649 1.00017 1.00006 0.998421
1.00575 1.00825 1 0.997524
1.02012 1.02294 1 0.99724
1.03316 1.03614 1 0.997123
1.02153 1.02452 1 0.997084
1.02636 1.02931 1 0.99713
1.02677 1.02968 1 0.99718
1.00099 1 1.00227 0.998723
1.00228 1 1.00398 0.998301
1.00047 1 1.00135 0.999128
1.02287 1.0259 1 0.997041
1.02413 1.02709 1 0.997116
1.03791 1.04094 1 0.997088
1.03446 1.03748 1 0.997083
1.029 1.03194 1 0.997145
1.03288 1.03567 0.99997 0.997335
0.999007 1 1.00042 0.99859
1.0284 1.03123 1 0.997255
0.999859 1.00205 1 0.997808
1.01334 1.01632 1 0.99707
1.02361 1.0267 1 0.996988
1.02353 1.02622 1 0.997375
0.999467 1 1.00013 0.999336
0.998762 1 1.00052 0.998241
1.00378 1 1.00537 0.998416
1.00033 1 1.00223 0.998103
1.00654 1.00895 1 0.997616
0.999984 1 1 0.999984
0.999826 1 1 0.999826
1.0006 1 1.00147 0.999135
1.00215 1.00426 1 0.997899
1.01876 1.02171 1 0.997115
0.998756 1 1.00021 0.998546
0.999355 1.00142 1.00033 0.997607
1.0079 1.01048 1 0.997446
1.00875 1.01148 1 0.997307
0.999995 1 1 0.999995
0.999907 1 1.00109 0.998818
0.999887 1 1.00044 0.999443
1.00137 1 1.00285 0.998519
1.02254 1.02557 1 0.997048
1.01349 1.01625 1 0.997276
1.02659 1.02971 1 0.996967
0.998804 1.00045 1.00045 0.997909
1.01532 1.0181 1 0.997274
1.00804 1.00905 1.00173 0.997273
1.01855 1.02134 1 0.997265
0.999999 1 1 0.999999
0.99963 1 1 0.99963
0.999105 1 1.00086 0.998245
1.00091 1 1.0021 0.998811
1.00018 1 1.00196 0.998229
1.0306 1.03373 1 0.996972
1.02116 1.02414 1 0.997094
1.02439 1.02745 1 0.997027
1.00389 1.00438 1.00199 0.997527
1.01672 1.01955 1 0.997215
1.01142 1.01359 1.00086 0.997004
0.999774 1 1 0.999774
0.999343 1 1 0.999343
0.999814 1 1 0.999814
0.9998 1 1 0.9998
1 1 1 1
1 1 1 1
1 1 1 1
1 1 1 1
1 1 1 1
0.999965 1 1 0.999965
1 1 1 1
0.9999 1 1 0.9999
1 1 1 1
1.00039 1 1.00058 0.999818
1 1 1 1
1.00751 1.00997 1 0.997558
1.00689 1.00941 1 0.997509
1.02671 1.02976 1 0.997038
1.02477 1.02786 1 0.996995
1.00455 1.00715 1 0.997422
0.998932 1 1 0.998932
1.00359 1.00619 1 0.997416
1.02361 1.02673 1 0.996959
1.02642 1.02948 1 0.997027
1.03899 1.04225 0.999735 0.997134
1.02553 1.02858 1 0.997038
1.03703 1.04006 1 0.997086
1.02307 1.0262 1 0.99695
1.0382 1.04177 0.999439 0.997129
1.03919 1.0422 1 0.997112
1.03906 1.04346 0.998443 0.997334
1.03352 1.0366 1 0.997035
1.03714 1.04011 0.999767 0.99738
1.00347 1.00609 1 0.997394
1.00504 1.00736 1 0.997694
1.02373 1.02671 1 0.997099
1.02327 1.02622 1 0.997124
0.999876 1 1.00026 0.999618
0.998747 1.00033 1 0.998419
1.00653 1.009 1 0.997559
1.02043 1.02326 1 0.997233
1.03328 1.03624 1 0.997145
1.02631 1.02926 1 0.997134
1.02081 1.02382 1 0.997054
1.02713 1.03003 1 0.99718
1.00042 1 1.0017 0.998726
1.0024 1 1.0041 0.998304
1.00088 1 1.00176 0.999125
1.02293 1.026 1 0.997008
1.02432 1.02729 1 0.997114
1.03758 1.04061 0.999967 0.997115
1.03456 1.03759 1 0.997079
0.999054 1 1.00047 0.998588
1.00133 1.00353 1 0.997802
1.01211 1.015 1.00003 0.99712
1.02921 1.03217 1 0.997133
1.03289 1.03562 0.999985 0.997379
1.02385 1.02698 1 0.996953
1.0282 1.03103 1 0.997258
1.02373 1.02639 1 0.997405
0.999075 1 1.00083 0.998243
1.00039 1 1.00231 0.998082
0.999601 1 1.00027 0.999332
1.00344 1 1.005 0.998447
1.03795 1.04099 1 0.997081
1.03701 1.04002 1 0.997109
1.03626 1.0409 0.998294 0.997249
1.03422 1.03794 0.999028 0.997387
1.0302 1.03295 1 0.997343
1.0312 1.03455 0.999207 0.997552
0.998328 1.00024 1 0.998084
1.02451 1.02704 0.999978 0.997561
1.004 1.00663 1 0.997393
1.01489 1.01793 1.00018 0.996839
1.02493 1.02807 1 0.996938
1.02353 1.02616 1 0.997444
0.99949 1 1 0.99949
1.00104 1 1.00241 0.998637
0.998029 1 1 0.998029
1.00286 1 1.00469 0.998181
0.999543 1 1.00149 0.998055
0.999997 1 1 0.999997
1.02237 1.0254 1 0.997043
0.999556 1 1.00011 0.999451
1.00056 1 1.00174 0.998819
1.00185 1 1.00334 0.998513
1.01341 1.01617 1 0.997276
1.02646 1.02959 1 0.996964
0.998592 1.00017 1.00051 0.997915
1.00832 1.00913 1.00193 0.997263
1.01549 1.01825 1 0.997285
1.019 1.02172 1 0.997335
1 1 1 1
0.999638 1 1 0.999638
0.999029 1 1.00078 0.998247
1.00118 1 1.00237 0.998811
1.00058 1 1.00237 0.998208
1.03071 1.03384 1 0.996966
1.02138 1.02435 1 0.997092
1.02428 1.02735 1 0.997016
1.00288 1.00322 1.00213 0.997533
1.01936 1.02221 1 0.997219
1.01106 1.0131 1.00096 0.997022
0.999728 1 1 0.999728
0.999436 1 1.00036 0.999076
0.99915 1.00075 1.00048 0.997926
1.00228 1 1.00384 0.998455
0.999738 1 1.00162 0.99812
1.02887 1.03186 1 0.9971
1.01977 1.02274 1 0.997094
1.02272 1.02558 1 0.997212
1.00232 1.00121 1.00379 0.997324
1.00929 1.01242 1 0.996909
0.999777 1 1 0.999777
0.999274 1 1 0.999274
0.99932 1 1 0.99932
0.99909 1 1 0.99909
0.999353 1 1 0.999353
0.999821 1 1 0.999821
0.999816 1 1 0.999816
1 1 1 1
0.999802 1 1 0.999802
1 1 1 1
1 1 1 1
1 1 1 1
1 1 1 1
1 1 1 1
0.999993 1 1 0.999993
0.999952 1 1 0.999952
1 1 1 1
1 1 1 1
0.999886 1 1 0.999886
1 1 1 1
1.02509 1.02814 1 0.997035
1.02624 1.0293 1 0.997026
1.03691 1.03995 1 0.997084
1.0386 1.04215 0.999441 0.997152
1.02334 1.02646 1 0.996959
1.00367 1.00628 1 0.997415
1.02283 1.02596 1 0.996951
1.03822 1.04173 0.999508 0.997123
1.03899 1.042 1 0.997112
1.0385 1.04331 0.99801 0.997366
1.03414 1.03722 1 0.997029
1.03667 1.03996 0.999434 0.997401
1.03755 1.04098 0.999602 0.997097
1.03811 1.04344 0.997585 0.997303
1.03781 1.042 0.998561 0.99742
1.03573 1.04265 0.995855 0.997495
1.03366 1.0365 1 0.997262
1.03553 1.03978 0.998307 0.997601
1.02287 1.02597 1 0.996974
1.02449 1.02746 1 0.997112
1.03714 1.04019 0.999933 0.997143
1.03462 1.03766 1 0.997075
0.999068 1 1.00048 0.998586
1.00257 1.00479 1 0.997796
1.0109 1.01359 1.00018 0.99717
1.02943 1.0324 1 0.99712
1.03283 1.0355 0.999998 0.997423
1.02801 1.03083 1 0.997262
1.02412 1.02729 1 0.996918
1.02364 1.02627 1 0.997434
0.999348 1 1.00111 0.998245
1.00045 1 1.00239 0.998061
0.999761 1 1.00043 0.999327
1.00283 1 1.00436 0.998478
1.03792 1.04096 1 0.997081
1.03655 1.03958 1 0.997089
1.03606 1.04061 0.998344 0.997281
1.03469 1.03804 0.999406 0.997369
0.998627 1.00055 1 0.998077
1.00367 1.00621 1.00003 0.997439
1.01525 1.01808 1.00039 0.99683
1.02968 1.03246 1 0.997303
1.03067 1.03395 0.999216 0.997609
1.02335 1.02651 1 0.996924
1.02531 1.02782 0.999996 0.997563
1.0244 1.02697 1 0.997495
0.998235 1.00021 1 0.998026
0.999223 1.00018 1.00098 0.998061
1.00349 1 1.00532 0.998174
0.999454 1 1 0.999454
1.00091 1 1.00225 0.998667
1.0365 1.04235 0.997092 0.997292
1.03556 1.04033 0.99808 0.997332
1.03169 1.03752 0.99678 0.997597
1.02715 1.0307 0.998932 0.997623
0.999167 1.00136 1 0.997814
1.02894 1.03128 0.999988 0.997736
1.00301 1.00559 1.00029 0.997141
1.01332 1.01625 1.00051 0.996614
1.02144 1.0246 1 0.996914
0.99957 1 1 0.99957
0.999703 1 1.00079 0.998918
1.00163 1 1.00324 0.998401
0.998392 1.00042 1 0.997974
1.00346 1 1.0055 0.997971
0.99839 1.00011 1.00031 0.997969
1 1 1 1
0.999646 1 1 0.999646
1.03083 1.03397 1 0.99696
1.00153 1 1.00272 0.998811
0.998781 1 1.00053 0.998249
1.00112 1 1.00293 0.998187
1.02146 1.02444 1 0.997091
1.02401 1.02709 1 0.997006
1.00159 1.00177 1.00229 0.997538
1.00996 1.01217 1.00077 0.997041
1.0219 1.02475 1 0.997224
0.999733 1 1 0.999733
0.999334 1 1.00025 0.99908
0.998747 1.00041 1.00041 0.997926
1.00298 1 1.00454 0.998451
0.999744 1 1.00163 0.998119
1.02889 1.03189 1 0.997094
1.02009 1.02307 1 0.997084
1.02243 1.02526 1 0.997239
1.00238 1.00186 1.00324 0.997287
1.00812 1.01122 1.00006 0.99688
0.99924 1 1 0.99924
1.00141 1 1.00275 0.998665
1.00094 1.00116 1.002 0.997792
1.00227 1 1.00408 0.998199
0.999009 1 1.001 0.998016
1.02904 1.03167 0.999907 0.997545
1.01802 1.02108 1 0.997001
1.01904 1.02184 1 0.997258
1.00399 1.00254 1.00433 0.997123
1.00174 1.00507 1 0.996691
0.99978 1 1 0.99978
0.999292 1 1 0.999292
0.999008 1 1 0.999008
0.999297 1 1 0.999297
0.999353 1 1 0.999353
0.999059 1 1 0.999059
0.998922 1 1 0.998922
0.999018 1 1 0.999018
0.999358 1 1 0.999358
0.999817 1 1 0.999817
0.999821 1 1 0.999821
1 1 1 1
0.999817 1 1 0.999817
1 1 1 1
1 1 1 1
1 1 1 1
1 1 1 1
1 1 1 1
1 1 1 1
0.999987 1 1 0.999987
1 1 1 1
0.999939 1 1 0.999939
1 1 1 1
1 1 1 1
1.0347 1.03779 1 0.997023
1.03856 1.04157 1 0.997111
1.03618 1.0398 0.999087 0.997423
1.0379 1.04311 0.997599 0.997398
1.0383 1.04174 0.999584 0.997117
1.02272 1.02584 1 0.996951
1.03804 1.04129 0.999795 0.997077
1.03836 1.04346 0.997818 0.997295
1.03797 1.0419 0.998814 0.997402
1.03507 1.04231 0.995531 0.997509
1.03303 1.03586 1 0.997262
1.03422 1.03887 0.997869 0.997644
1.03776 1.04286 0.997819 0.997277
1.03644 1.04402 0.995242 0.997488
1.03568 1.04311 0.995255 0.997606
1.03271 1.03703 0.998152 0.997683
1.03802 1.04106 1 0.997081
1.03613 1.03917 1 0.997068
1.0359 1.04036 0.998403 0.997312
1.03522 1.03821 0.999764 0.997351
0.999027 1.00095 1 0.99807
1.00329 1.00582 1 0.997486
1.01553 1.01818 1.00058 0.996821
1.02909 1.03191 1 0.997263
1.03013 1.03337 0.999196 0.997666
1.02628 1.02879 1 0.997565
1.02209 1.02526 1 0.99691
1.02577 1.0283 1 0.997545
0.998591 1.00057 1 0.998024
0.998839 1.00032 1.00046 0.998067
1.00485 1 1.0067 0.998167
0.999443 1 1.00003 0.999418
1.00093 1 1.00223 0.998697
1.03699 1.04261 0.997311 0.997294
1.03558 1.04045 0.997986 0.99733
1.03155 1.03693 0.997214 0.997586
1.00009 1.00229 1 0.997807
1.00361 1.00618 1.00026 0.997186
1.01283 1.0155 1.00076 0.996603
1.02773 1.03126 0.998958 0.99761
1.02205 1.02512 1 0.997002
1.02641 1.02896 0.999811 0.997709
0.99959 1 1 0.99959
0.999069 1.00111 1 0.997963
0.99828 1.00002 1.00018 0.99808
1.00385 1 1.00591 0.997955
1.00181 1 1.0034 0.998417
0.999673 1 1.00079 0.998888
1.03478 1.04282 0.994905 0.997379
1.03363 1.04303 0.993457 0.997514
1.02586 1.03478 0.993683 0.997684
1.02961 1.03517 0.996792 0.997826
1.00075 1.00312 1 0.997639
1.02158 1.02429 1 0.997359
1.00296 1.00461 1.00165 0.996711
1.00704 1.00957 1.00104 0.996457
0.999731 1 1 0.999731
0.999123 1 1 0.999123
0.999843 1 1.00124 0.998602
1.00344 1 1.00538 0.998072
0.99899 1.00096 1.0002 0.997831
1.00379 1 1.00601 0.997795
0.999738 1 1 0.999738
0.999153 1 1.00007 0.999083
1.0291 1.03211 1 0.997087
1.00325 1 1.00481 0.998447
0.998267 1.00007 1.00027 0.997925
0.99964 1 1.00152 0.998118
1.02068 1.02367 1 0.997073
1.02241 1.02522 1 0.997265
1.00266 1.00269 1.00273 0.997249
1.00699 1.0099 1.00027 0.996851
0.999243 1 1 0.999243
1.00126 1 1.0026 0.998668
1.00061 1.00083 1.00198 0.997804
1.00231 1 1.00411 0.998205
0.998574 1 1.00048 0.998099
1.02955 1.0323 0.999755 0.997585
1.01737 1.02042 1 0.997011
1.02044 1.02317 1 0.997331
1.00339 1.00173 1.00458 0.997086
1.00229 1.00565 1.00003 0.996636
0.998921 1 1 0.998921
1.00238 1 1.00408 0.998312
1.00246 1.00104 1.00378 0.997647
0.999465 1 1.00157 0.997893
1.03056 1.04269 0.990519 0.997823
1.02331 1.02586 0.999872 0.997648
1.01026 1.01353 1 0.996776
1.00365 1.00269 1.00426 0.996713
0.99931 1 1 0.99931
0.999021 1 1 0.999021
0.998898 1 1 0.998898
0.999352 1 1 0.999352
0.999028 1 1 0.999028
0.999357 1 1 0.999357
0.99891 1 1 0.99891
0.999031 1 1 0.999031
0.998849 1 1 0.998849
0.998847 1 1 0.998847
0.998989 1 1 0.998989
0.999342 1 1 0.999342
0.999804 1 1 0.999804
0.999816 1 1 0.999816
1 1 1 1
0.999821 1 1 0.999821
1 1 1 1
1 1 1 1
1 1 1 1
1 1 1 1
1 1 1 1
1 1 1 1
0.999999 1 1 0.999999
1 1 1 1
0.99998 1 1 0.99998
1 1 1 1
1 1 1 1
1.03231 1.03514 1 0.997262
1.03821 1.0419 0.999072 0.997384
1.03296 1.038 0.997456 0.997687
1.03444 1.04201 0.995197 0.997522
1.03862 1.04348 0.998052 0.997287
1.03846 1.04154 0.999988 0.997057
1.03754 1.04278 0.997688 0.997277
1.03601 1.04348 0.99535 0.997479
1.03497 1.04245 0.995208 0.997605
1.03445 1.03858 0.998327 0.99769
1.03632 1.04372 0.995465 0.997431
1.03689 1.0481 0.991635 0.997651
1.03722 1.04623 0.993641 0.997737
1.03744 1.04283 0.997526 0.997297
1.03559 1.04055 0.997902 0.997328
1.03147 1.03631 0.997755 0.997576
1.00091 1.00312 1 0.9978
1.00415 1.00676 1.00018 0.997231
1.01203 1.01464 1.00085 0.996591
1.02833 1.03182 0.999017 0.997598
1.0237 1.02637 0.999714 0.997682
1.02227 1.02525 1 0.997091
0.999514 1.00157 1 0.997952
0.998191 1 1 0.998191
1.00408 1 1.00615 0.99794
0.99961 1 1 0.99961
1.00137 1 1.00294 0.998433
0.99955 1 1.00069 0.998858
1.03549 1.04315 0.995251 0.997386
1.03349 1.04309 0.993258 0.997523
1.02616 1.03443 0.994319 0.997677
1.00044 1.00282 1 0.997628
1.00251 1.00433 1.0014 0.996794
1.00671 1.00932 1.0009 0.996511
1.02973 1.03498 0.997085 0.997833
1.02151 1.02436 0.999882 0.997343
0.999778 1 1 0.999778
0.999123 1 1 0.999123
0.998336 1.00046 1 0.997877
1.00561 1.00011 1.00761 0.9979
1.00352 1 1.00543 0.998103
0.999796 1 1.00122 0.998577
1.0349 1.04588 0.991909 0.997571
1.026 1.04104 0.98788 0.997646
1.02433 1.03487 0.991928 0.997874
1.02105 1.02713 0.996218 0.997852
1.00099 1.00277 1.00091 0.997323
1.00599 1.00795 1.0014 0.996659
1.0028 1.00366 1.00264 0.996507
0.999886 1 1 0.999886
0.999476 1 1 0.999476
0.999254 1 1 0.999254
0.998805 1 1.00007 0.998731
1.00053 1 1.00223 0.998299
1.00611 1 1.00816 0.997964
0.997953 1.00004 1 0.997915
1.02441 1.00007 1.02632 0.998079
0.999245 1 1 0.999245
1.00135 1 1.00268 0.998671
1.02998 1.03284 0.999605 0.997625
1.00277 1 1.00456 0.998211
1.0005 1.00053 1.00215 0.997816
0.998217 1 1.00004 0.998182
1.01637 1.0194 1 0.997021
1.02162 1.02428 1 0.997404
1.00294 1.00109 1.00482 0.997049
1.00299 1.00643 1 0.99658
0.998965 1 1.00007 0.998897
1.00244 1 1.00412 0.998327
1.00274 1.00092 1.00415 0.997675
0.999329 1 1.00141 0.997927
1.03215 1.04375 0.991024 0.99784
1.02313 1.02563 0.999949 0.997605
1.01135 1.01458 1 0.996817
1.00432 1.0039 1.00377 0.996665
0.999394 1 1.0007 0.998697
1.02961 1.04665 0.985847 0.997845
1.00129 1 1.00326 0.998032
1.00168 1.00162 1.00268 0.997395
1.03012 1.03566 0.996709 0.997929
1.01122 1.01435 1 0.996914
1.00509 1.00537 1.00323 0.996503
0.999034 1 1 0.999034
0.998892 1 1 0.998892
0.998838 1 1 0.998838
0.999356 1 1 0.999356
0.999044 1 1 0.999044
0.998898 1 1 0.998898
0.99934 1 1 0.99934
0.998993 1 1 0.998993
0.998841 1 1 0.998841
0.998868 1 1 0.998868
0.998822 1 1 0.998822
0.998783 1 1 0.998783
0.998818 1 1.00002 0.998796
0.998962 1 1 0.998962
0.999303 1 1 0.999303
0.999787 1 1 0.999787
0.999803 1 1 0.999803
1 1 1 1
0.999815 1 1 0.999815
1 1 1 1
1 1 1 1
1 1 1 1
1 1 1 1
1 1 1 1
0.999914 1 1 0.999914
1 1 1 1
1 1 1 1
1 1 1 1
0.999998 1 1 0.999998
1 1 1 1
1 1 1 1
1.03621 1.04017 0.998496 0.997698
1.03423 1.04171 0.995196 0.997605
1.03555 1.04291 0.995461 0.99747
1.03732 1.0427 0.997558 0.997276
1.03586 1.04364 0.995091 0.99745
1.037 1.0478 0.992034 0.99764
1.03636 1.04569 0.993321 0.997747
1.03671 1.04806 0.99152 0.997627
1.04216 1.05459 0.99044 0.997757
1.02745 1.04611 0.984136 0.997992
1.03621 1.0435 0.9956 0.997393
1.03329 1.04319 0.992955 0.997531
1.02623 1.03404 0.994765 0.997669
1.00054 1.00287 1.00006 0.997618
1.00233 1.0042 1.00126 0.996878
1.00689 1.00958 1.00078 0.996566
1.02996 1.03491 0.997365 0.99784
1.02146 1.02449 0.999718 0.997328
0.997924 1 1 0.997923
1.00767 1.00036 1.00932 0.998005
1.00425 1 1.00612 0.998133
0.999824 1 1 0.999824
0.999122 1 1 0.999122
1.00001 1 1.00146 0.998552
1.03492 1.04621 0.991608 0.997583
0.999882 1 1 0.999882
0.999451 1 1 0.999451
1.02569 1.04022 0.988357 0.997646
1.02406 1.03501 0.991557 0.997843
1.00041 1.00197 1.00102 0.997414
1.00328 1.0035 1.0033 0.996488
1.00665 1.00918 1.00084 0.996656
1.01991 1.02617 0.996062 0.997832
0.999322 1 1 0.999322
0.99878 1 1.00005 0.998727
0.998573 1.00027 1.00047 0.997829
1.01933 1.00009 1.02105 0.998214
1.0049 1 1.00694 0.997969
1.00098 1 1.00267 0.998316
1.04102 1.05335 0.990553 0.997716
1.01171 1.03848 0.97638 0.997785
1.01887 1.03127 0.989919 0.998041
1.00421 1.01118 0.995548 0.997549
1.00158 1.00104 1.00311 0.997436
1.00368 1.00183 1.00547 0.996398
0.999452 1 1 0.999452
0.999425 1 1 0.999425
0.999169 1 1 0.999169
0.998811 1 1 0.998811
0.999118 1 1.00061 0.998507
1.00041 1 1.00239 0.998033
1.03309 1 1.0352 0.997956
1.00161 1.00014 1.00324 0.998233
0.999068 1 1.0002 0.998873
1.00212 1 1.00378 0.998343
1.03325 1.04415 0.991688 0.997857
1.02298 1.02548 1 0.997561
0.99911 1 1.00115 0.997961
1.00293 1.00082 1.00441 0.997703
1.01278 1.01593 1.00004 0.996859
1.00481 1.00486 1.00335 0.996616
0.999512 1 1.00083 0.998686
1.0311 1.04885 0.985163 0.997883
1.0012 1 1.00316 0.99805
1.00131 1.00128 1.00269 0.99735
1.02873 1.03497 0.996065 0.997903
1.01139 1.01446 1 0.996978
1.00523 1.00524 1.00348 0.996518
1.0006 1 1.00222 0.998387
1.01804 1.03492 0.985387 0.998276
1.00115 1.00149 1.00188 0.997794
1.00293 1.00213 1.00379 0.997023
1.01454 1.0209 0.996223 0.997537
1.00221 1.00333 1.00221 0.996678
0.996801 1.00613 0.992569 0.998141
0.998886 1 1 0.998886
0.998988 1 1.00015 0.998835
0.998827 1 1.0001 0.998725
0.999338 1 1 0.999338
0.998997 1 1 0.998997
0.99889 1 1 0.99889
0.998833 1 1 0.998833
0.999302 1 1 0.999302
0.998951 1 1 0.998951
0.998796 1 1 0.998796
0.998802 1 1.00001 0.998796
0.998788 1 1 0.998788
0.998775 1 1 0.998775
0.998908 1 1.00026 0.998646
0.998851 1 1.00007 0.998781
0.998872 1 1 0.998872
0.999212 1 1 0.999212
0.99902 1 1 0.99902
0.999199 1 1 0.999199
0.999777 1 1 0.999777
0.999786 1 1 0.999786
1 1 1 1
0.999801 1 1 0.999801
1 1 1 1
1 1 1 1
1 1 1 1
1 1 1 1
1 1 1 1
0.999933 1 1 0.999933
0.999912 1 1 0.999912
1 1 1 1
1 1 1 1
1 1 1 1
1 1 1 1
1 1 1 1
1 1 1 1
1.03563 1.04535 0.992925 0.997758
1.03706 1.04752 0.992361 0.99763
1.03542 1.04356 0.994719 0.997469
1.03664 1.04792 0.991591 0.997625
1.04031 1.05267 0.990475 0.997754
1.02811 1.04558 0.985316 0.997944
1.04194 1.05681 0.988085 0.99782
0.986285 1.01602 0.973668 0.996989
1.00826 1.03205 0.978343 0.998579
0.999545 1 1 0.999545
1.03492 1.04648 0.991337 0.997595
1.02575 1.0395 0.989105 0.997647
1.02398 1.03524 0.9913 0.997811
0.999409 1.00109 1.00082 0.997504
1.00347 1.00299 1.00402 0.99647
1.00719 1.01011 1.00045 0.996655
1.01855 1.02497 0.995911 0.997812
0.998111 1.00037 1 0.997744
1.01393 1 1.0156 0.998352
1.00343 1 1.00547 0.997973
0.999878 1 1 0.999878
1.00124 1 1.00291 0.998334
0.99939 1 1 0.99939
0.998745 1 1.00002 0.998722
0.999425 1 1 0.999425
1.03893 1.05365 0.988281 0.997724
0.999486 1 1 0.999486
0.999423 1 1 0.999423
0.99913 1 1 0.99913
1.01423 1.03816 0.979117 0.997786
1.01913 1.0317 0.9898 0.997995
1.00037 1.00095 1.00197 0.997458
1.00377 1.00175 1.00556 0.996475
1.00335 1.00944 0.996417 0.997539
0.998851 1 1 0.998851
0.999185 1 1.00072 0.998471
1.00602 1.00006 1.00783 0.99815
1.02683 1 1.0289 0.997993
1.00025 1 1.00219 0.998066
1.02806 1.04571 0.985278 0.997812
1.00715 1.03754 0.972743 0.997913
1.01132 1.0197 0.994029 0.997734
0.997277 1.00398 0.995985 0.997325
1.00324 1 1.00548 0.997767
0.999075 1 1 0.999075
0.99898 1 1 0.99898
0.998877 1 1.00002 0.998862
0.998884 1 1.00029 0.998592
1.00009 1 1.00179 0.998306
1.02259 1 1.02463 0.998012
1.02279 1 1.02488 0.997962
0.999544 1 1.00087 0.998675
1.00112 1 1.00306 0.998069
1.03198 1.0516 0.98338 0.99792
1.02743 1.03451 0.995265 0.997876
1.01123 1.01423 1 0.997042
1.00101 1.00104 1.00268 0.997306
1.00508 1.00495 1.0036 0.996534
1.00052 1 1.0021 0.998427
1.01587 1.0348 0.983386 0.998297
1.00014 1.00097 1.00137 0.997815
1.00251 1.00141 1.00408 0.99703
1.01509 1.02122 0.996351 0.997633
1.00215 1.00277 1.00273 0.996665
0.996039 1.00588 0.992746 0.997451
1.00021 1.00004 1.00193 0.998245
1.00711 1.02007 0.989012 0.998262
1.00042 1.00068 1.00194 0.997799
1.00435 1.00081 1.00644 0.99712
0.996027 1.0058 0.992943 0.997321
0.944131 0.982885 0.977817 0.982363
0.954529 0.98127 0.981417 0.991168
0.984016 0.994048 0.991726 0.998166
0.812415 0.877963 0.951654 0.97235
0.753635 0.864221 0.903012 0.965701
0.998984 1 1.00015 0.998831
0.99911 1 1.00036 0.998753
0.998841 1 1.0001 0.998744
0.999301 1 1 0.999301
0.99894 1 1 0.99894
0.998796 1 1 0.998796
0.998793 1 1 0.998793
0.99877 1 1 0.99877
0.999192 1 1.00043 0.998758
0.99924 1 1 0.99924
0.998889 1 1 0.998889
0.998765 1 1 0.998765
0.999232 1 1.00057 0.998661
1.00017 1 1.0015 0.99867
1.00023 1 1.00156 0.99868
0.999231 1 1.00054 0.998689
0.99884 1 1 0.99884
0.999193 1 1 0.999193
0.998914 1 1 0.998914
0.998848 1 1 0.998848
0.99901 1 1 0.99901
0.998986 1 1 0.998986
0.999284 1 1 0.999284
0.999197 1 1 0.999197
0.999772 1 1 0.999772
0.999776 1 1 0.999776
1 1 1 1
0.999784 1 1 0.999784
1 1 1 1
1 1 1 1
1 1 1 1
1 1 1 1
1 1 1 1
0.999946 1 1 0.999946
0.99993 1 1 0.99993
1 1 1 1
0.99991 1 1 0.99991
1 1 1 1
1 1 1 1
1 1 1 1
1 1 1 1
1 1 1 1
1.03828 1.05061 0.990484 0.997751
1.03663 1.04781 0.991683 0.997623
1.02925 1.04522 0.986795 0.997896
0.990492 1.01586 0.977918 0.997047
1.03936 1.05443 0.987868 0.997818
1.01655 1.03474 0.983929 0.998474
1.03322 1.04217 0.993493 0.997909
0.948333 0.983252 0.973905 0.990329
0.999426 1.01935 0.982807 0.997604
0.999552 1 1 0.999552
0.999543 1 1 0.999543
0.999175 1 1 0.999175
0.999216 1 1 0.999216
1.03705 1.05383 0.986312 0.997731
1.01592 1.03732 0.981541 0.997787
1.01915 1.0319 0.989673 0.99795
0.999325 1.00071 1.00114 0.997481
1.00378 1.00188 1.00536 0.996552
1.00262 1.0082 0.99692 0.99753
1.01095 1 1.01291 0.998065
1.0208 1 1.02282 0.998031
0.999904 1 1.00181 0.998099
0.999422 1 1 0.999422
0.999016 1 1.00058 0.998436
0.998892 1 1 0.998892
0.999521 1 1 0.999521
0.999091 1 1 0.999091
1.02562 1.04532 0.983295 0.997826
0.999121 1 1 0.999121
0.999023 1 1 0.999023
0.998933 1 1 0.998933
1.01027 1.03973 0.973696 0.997912
1.01006 1.01909 0.993392 0.997732
1.00287 1.00005 1.00508 0.997751
0.998262 1.0044 0.996513 0.997367
0.999094 1 1.00052 0.998575
0.999648 1 1.0014 0.998254
1.02526 1 1.02736 0.997952
1.02368 1 1.02576 0.997975
1.00368 1.03568 0.971092 0.997949
1.00118 1.02729 0.976661 0.997873
1.00382 1.00807 0.998344 0.997429
0.992246 1.00034 0.99382 0.998082
0.998742 1 1 0.998742
0.999454 1 1.00077 0.998687
1.00759 1 1.00917 0.998425
1.03931 1 1.04152 0.997873
0.921068 0.971961 0.966109 0.980882
1.00079 1 1.00232 0.998468
0.999326 1.0004 1.00109 0.997835
1.01456 1.03453 0.98235 0.998317
1.01587 1.02177 0.996484 0.997728
1.00244 1.0025 1.0033 0.99665
1.00222 1.00072 1.00447 0.997037
0.996389 1.00574 0.993937 0.996747
1.00019 1.00001 1.0019 0.998287
1.0079 1.02057 0.989314 0.998251
0.999897 1.00065 1.00144 0.997812
1.00405 1.00083 1.00611 0.997118
0.998683 1.0068 0.99458 0.997339
0.942962 0.986862 0.974044 0.980977
0.949873 0.978961 0.981093 0.988985
0.984145 0.992225 0.99366 0.998185
0.812362 0.875915 0.953528 0.972645
0.738211 0.853127 0.898699 0.962837
0.999638 1 1.00116 0.998482
0.839175 0.898826 0.958723 0.973832
0.796587 0.868854 0.947921 0.967195
0.988223 1.00713 0.983046 0.998145
1.00545 1.00077 1.00666 0.998035
1.01218 1.00407 1.01057 0.997537
0.975271 0.988056 0.988686 0.998356
0.938473 0.970949 0.985257 0.981015
0.932023 0.956414 0.986377 0.987956
0.791081 0.876951 0.926642 0.973494
0.814445 0.910832 0.924666 0.967027
0.999578 1 1.0008 0.99878
0.999547 1 1.00082 0.998728
1.00025 1 1.0013 0.998944
0.999267 1 1 0.999267
0.998905 1 1 0.998905
0.999446 1 1.00071 0.998735
0.999573 1 1.0009 0.998677
0.998754 1 1 0.998754
0.999193 1 1 0.999193
0.999959 1 1.0013 0.998664
0.999568 1 1.00086 0.998706
0.998868 1 1 0.998868
0.999946 1 1.00126 0.998687
1.00124 1 1.00258 0.998661
1.00201 1 1.00328 0.998737
0.998681 1 1.00001 0.998671
0.998875 1 1 0.998875
0.99891 1 1 0.99891
0.99884 1 1 0.99884
0.998739 1 1 0.998739
0.998993 1 1.00015 0.998841
0.998928 1 1.00013 0.998797
0.999448 1 1.00078 0.998669
0.999138 1 1.00016 0.998983
0.999009 1 1 0.999009
0.999307 1 1 0.999307
0.998952 1 1 0.998952
0.99926 1 1 0.99926
0.999767 1 1 0.999767
0.999194 1 1 0.999194
0.999772 1 1 0.999772
1 1 1 1
0.999776 1 1 0.999776
1 1 1 1
1 1 1 1
1 1 1 1
1 1 1 1
1 1 1 1
0.999521 1 1 0.999521
0.999946 1 1 0.999946
0.999943 1 1 0.999943
1 1 1 1
0.999927 1 1 0.999927
1 1 1 1
1 1 1 1
1 1 1 1
1 1 1 1
1 1 1 1
0.993619 1.01579 0.981009 0.997108
1.03742 1.05196 0.988332 0.997817
1.02201 1.03741 0.986765 0.998367
0.942856 0.977289 0.973211 0.991323
0.999652 1.01907 0.983182 0.997726
1.03456 1.04535 0.991797 0.997866
1.01468 1.02546 0.991898 0.997564
0.95693 0.978886 0.985182 0.992274
0.94404 0.98084 0.981523 0.9806
0.798125 0.872521 0.940223 0.972891
0.730819 0.833244 0.908816 0.965076
0.999168 1 1 0.999168
0.999551 1 1 0.999551
0.999541 1 1 0.999541
0.999163 1 1 0.999163
0.998935 1 1 0.998935
0.998969 1 1 0.998969
0.999141 1 1 0.999141
0.999187 1 1 0.999187
1.02292 1.04535 0.980665 0.99784
1.01444 1.043 0.97465 0.99791
1.00911 1.01847 0.99306 0.997731
1.00282 1.00016 1.00493 0.997736
0.999363 1.00446 0.99751 0.997408
1.02747 1 1.02959 0.997943
1.02525 1 1.02737 0.997938
0.999494 1 1.00129 0.998202
0.999066 1 1 0.999066
0.998982 1 1.00042 0.998557
0.999167 1 1 0.999167
0.999005 1 1 0.999005
1.00453 1.03621 0.971423 0.997943
0.998776 1 1 0.998771
0.998979 1 1.00026 0.998716
1.00133 1.02665 0.977438 0.99785
1.00122 1.0076 0.996118 0.997546
0.994506 1.00073 0.995776 0.997992
1.01082 1 1.01251 0.998335
1.0352 1 1.03739 0.997889
0.998062 1.02669 0.97413 0.997934
0.985702 1.00819 0.979743 0.997909
0.987544 1.00087 0.988733 0.997933
0.999467 1.00028 1.00102 0.998172
0.999548 1 1.00105 0.998498
1.00369 1 1.00523 0.998463
1.03357 1 1.0355 0.998136
0.829147 0.905765 0.939166 0.974706
0.936873 0.976953 0.975382 0.983179
0.999752 1 1.00143 0.998329
0.999469 1.00058 1.00107 0.997825
1.00883 1.02131 0.989517 0.998242
1.00104 1.00776 0.995955 0.997358
1.00374 1.00092 1.00571 0.997118
0.938344 0.977494 0.97869 0.980851
0.955318 0.985236 0.979809 0.989615
0.984849 0.990818 0.99577 0.998198
0.810168 0.877477 0.948039 0.973898
0.725462 0.842204 0.89736 0.959911
0.999666 1 1.00119 0.99848
0.834147 0.903077 0.948032 0.974305
0.78875 0.861524 0.947938 0.96581
0.989376 1.00796 0.983393 0.99814
1.00521 1.00084 1.00631 0.99806
1.01014 1.00237 1.01008 0.997688
0.967348 0.982032 0.986552 0.998475
0.943392 0.979769 0.983217 0.979307
0.933062 0.960775 0.98091 0.990055
0.794191 0.872088 0.936935 0.971975
0.811655 0.913455 0.919615 0.966224
1.00114 1 1.00234 0.9988
0.825964 0.87931 0.969511 0.968873
0.897917 0.94341 0.976295 0.974888
0.989934 0.999578 0.99162 0.998722
1.0134 1.00247 1.01223 0.998693
0.978102 0.972081 1.00772 0.998488
0.918701 0.943622 0.982323 0.99111
0.920937 0.948766 0.991768 0.978726
0.805421 0.879719 0.941381 0.972554
0.845656 0.939771 0.927879 0.969796
1.00018 1 1.00147 0.998713
1.00001 1 1.00109 0.998915
1.00379 1 1.00466 0.999132
0.999194 1 1 0.999194
0.998897 1 1 0.998897
0.999979 1 1.00126 0.998724
0.999939 1 1.00128 0.998657
0.999779 1 1.00109 0.998694
0.998874 1 1 0.998874
1.00036 1 1.00171 0.998659
0.998696 1 1.00002 0.998672
1.0031 1 1.00433 0.998775
1.01789 0.999848 1.01893 0.999127
1.00015 1 1.0015 0.998648
0.998638 1 1 0.998638
0.998907 1 1 0.998907
0.998832 1 1 0.998832
0.998735 1 1 0.998735
0.998996 1 1.00016 0.998835
0.998952 1 1.00012 0.998829
0.999554 1 1.00078 0.998776
0.99891 1 1.00019 0.998725
0.999464 1 1.00064 0.998821
0.998721 1 1.00013 0.998591
0.999042 1 1.00093 0.998115
0.999362 1 1.00081 0.998549
0.999412 1 1.00075 0.998667
0.999455 1 1.00054 0.998912
0.999217 1 1.00024 0.998981
0.999299 1 1 0.999299
0.999009 1 1 0.999009
0.999308 1 1 0.999308
0.999765 1 1 0.999765
0.999236 1 1 0.999236
0.999768 1 1 0.999768
1 1 1 1
0.999772 1 1 0.999772
1 1 1 1
1 1 1 1
1 1 1 1
1 1 1 1
1 1 1 1
0.999538 1 1 0.999538
0.999932 1 1 0.999932
0.999521 1 1 0.999521
1 1 1 1
0.999946 1 1 0.999946
0.999941 1 1 0.999941
1 1 1 1
1 1 1 1
1 1 1 1
1 1 1 1
1 1 1 1
0.830226 0.893424 0.955054 0.972995
0.796381 0.868708 0.947511 0.967527
0.945404 0.981444 0.971229 0.991815
1.00133 1.01871 0.985053 0.99785
1.0374 1.04851 0.991568 0.997823
0.942821 0.966833 0.981421 0.993625
1.01366 1.02487 0.991383 0.997651
0.951198 0.988823 0.979697 0.981885
0.807903 0.877423 0.946881 0.972422
0.725038 0.836147 0.901214 0.962166
0.972359 0.996744 0.98018 0.995261
0.941613 0.973865 0.985078 0.981528
0.785196 0.873474 0.923983 0.972891
0.801384 0.901293 0.920829 0.965597
0.999001 1 1.00018 0.998825
0.999194 1 1 0.999194
0.99955 1 1 0.99955
0.99915 1 1 0.99915
0.998975 1 1 0.998975
0.999274 1 1.00044 0.998832
0.998961 1 1 0.998961
0.998939 1 1 0.998939
0.999109 1 1 0.999109
0.999159 1 1 0.999159
1.00578 1.03621 0.972639 0.997939
0.999762 1.02474 0.977745 0.99783
0.998679 1.00748 0.993585 0.997664
0.99626 1.00097 0.997382 0.997902
1.03031 1 1.03247 0.997906
1.01482 1 1.01661 0.998244
0.998746 1 1 0.998746
0.998799 1 1 0.998799
0.997754 1.02698 0.973527 0.997965
1.00021 1 1.00174 0.998477
1.00381 1 1.00539 0.998428
0.985275 1.00663 0.980913 0.997829
0.986193 1.00044 0.987701 0.998038
1.00063 1.0009 1.00166 0.998078
1.02994 1 1.0319 0.998106
0.994038 1.00433 0.99147 0.998263
0.98126 1 0.982572 0.998665
1.01409 1.00045 1.0154 0.998264
1.00357 1 1.00512 0.998451
1.00268 1 1.00437 0.998311
1.01856 1 1.02037 0.998228
0.841222 0.890497 0.970676 0.973204
0.839232 0.904949 0.951574 0.974575
0.926839 0.97509 0.968987 0.980938
0.999625 1 1.00115 0.998479
1.00494 1.00081 1.00606 0.998085
0.991611 1.00862 0.984971 0.998137
1.00876 1.00082 1.01012 0.997837
0.826362 0.897595 0.94468 0.974553
0.942728 0.977153 0.983302 0.981153
0.924129 0.957517 0.976806 0.988047
0.963138 0.977213 0.986985 0.998594
0.793962 0.871975 0.937567 0.971166
0.790781 0.865902 0.945424 0.965964
0.799436 0.904044 0.914479 0.966987
1.0018 1 1.003 0.998804
0.827299 0.882776 0.965908 0.970234
0.905572 0.949653 0.978283 0.97475
0.991687 0.99967 0.993195 0.998811
1.01325 1.00108 1.01351 0.998664
0.974989 0.970704 1.00581 0.998616
0.91803 0.946599 0.980508 0.989098
0.923933 0.953134 0.988775 0.980368
0.82248 0.897416 0.942816 0.972086
0.833045 0.928382 0.924549 0.970537
1.00508 0.999746 1.00589 0.999446
0.908688 0.950837 0.976187 0.978985
0.884846 0.938836 0.962827 0.97888
0.997769 0.983944 1.01434 0.999715
0.938921 0.944583 0.999814 0.994191
0.928966 0.946303 1.00226 0.97947
0.859791 0.917255 0.964824 0.971526
0.857288 0.956322 0.924511 0.96964
0.999771 1 1.00089 0.998887
1.003 1 1.00387 0.999135
1.01807 1 1.01872 0.99936
0.998873 1 1 0.998873
0.998674 1 1 0.998674
0.999302 1 1.00065 0.998657
1.00397 1 1.00516 0.998814
0.998636 1 1 0.998636
1.0006 1 1.00196 0.998641
1.02046 1 1.02128 0.999189
1.03152 0.997257 1.03493 0.999446
1.01972 1 1.02067 0.999069
0.998618 1 1 0.998618
0.998731 1 1 0.998731
0.998894 1 1.00006 0.998829
0.99886 1 1 0.99886
0.998788 1 1.00005 0.998739
0.999381 1 1.00061 0.998776
0.99961 1 1.00078 0.99883
0.999218 1 1.00049 0.99873
1.00254 1 1.00351 0.999025
0.998656 1 1 0.998656
0.998855 1.00002 1.00021 0.99862
0.998975 1 1.00069 0.998281
0.999095 1 1.00153 0.997573
1.00028 1 1.00182 0.998459
0.999024 1 1.00079 0.998233
0.999317 1 1.00074 0.998579
0.999639 1 1.00087 0.998774
0.999403 1 1.00074 0.998664
0.99926 1 1.00035 0.99891
0.999245 1 1 0.999245
0.999207 1 1.00023 0.998978
0.999298 1 1 0.999298
0.999759 1 1 0.999759
0.999309 1 1 0.999309
0.999765 1 1 0.999765
1 1 1 1
0.999769 1 1 0.999769
1 1 1 1
1 1 1 1
1 1 1 1
1 1 1 1
1 1 1 1
0.99937 1 1 0.99937
0.999909 1 1 0.999909
0.999478 1 1 0.999478
1 1 1 1
0.999936 1 1 0.999936
0.999522 1 1 0.999522
1 1 1 1
1 1 1 1
0.999947 1 1 0.999947
1 1 1 1
1 1 1 1
1 1 1 1
0.825766 0.881189 0.965051 0.971041
0.835127 0.900895 0.952332 0.973396
0.903644 0.950401 0.975659 0.974523
0.788887 0.862846 0.945976 0.966498
0.941279 0.972996 0.975686 0.991509
1.01116 1.02428 0.98942 0.997744
0.957825 0.988704 0.985459 0.983062
0.812536 0.881115 0.947607 0.973155
0.723913 0.842455 0.895824 0.959217
0.970169 0.99337 0.982044 0.994502
0.93888 0.974254 0.984465 0.978898
0.798137 0.881557 0.931892 0.971542
0.803024 0.905162 0.920023 0.964281
0.951572 0.981158 0.976657 0.993026
0.932577 0.953319 0.999864 0.978375
0.823464 0.902688 0.939412 0.971071
0.839908 0.939482 0.923851 0.967701
0.999782 1 1.00116 0.998626
0.998862 1 1 0.998862
0.999219 1 1 0.999219
0.999016 1 1 0.999016
0.998694 1 1.0001 0.998592
0.998912 1 1.00005 0.998861
0.998954 1 1 0.998954
0.998905 1 1 0.998905
0.998971 1 1 0.998971
0.999078 1 1 0.999078
0.998975 1.02821 0.973516 0.997995
0.987049 1.006 0.983373 0.997751
0.98516 1.00029 0.986707 0.998142
1.00297 1.00178 1.00322 0.997986
1.02517 1 1.02715 0.998076
1.00314 1 1.00476 0.998394
1.00051 1 1.00206 0.998455
1.00266 1 1.00423 0.998431
0.990195 1.00495 0.987027 0.998271
1.00199 1 1.00369 0.998313
1.01811 1 1.01993 0.99822
0.980629 1.00036 0.981652 0.998598
1.01334 1.00117 1.01394 0.998233
0.96305 0.988537 0.975443 0.998744
0.998596 0.99671 1.00265 0.999243
1.02972 1 1.03128 0.998481
1.00122 1 1.0029 0.998325
1.00873 1 1.01051 0.99824
0.914208 0.951018 0.979763 0.98115
0.845206 0.890488 0.975424 0.973063
0.829331 0.899444 0.946693 0.973967
1.0024 1 1.00359 0.998807
1.01283 0.999669 1.01454 0.998635
0.991025 0.999347 0.992767 0.998897
0.834547 0.887657 0.968173 0.971075
0.933165 0.952426 1.00131 0.978498
0.918514 0.945267 0.981062 0.990455
0.964652 0.966245 0.999634 0.998717
0.822743 0.896834 0.94315 0.972684
0.911336 0.953732 0.98042 0.974631
0.835645 0.930635 0.925092 0.970637
1.00392 0.999249 1.00527 0.999416
0.905184 0.948941 0.973313 0.980043
0.886401 0.940247 0.963062 0.97889
1.00006 0.98716 1.01351 0.999564
0.947195 0.951154 1.00201 0.993841
0.912745 0.94146 0.99167 0.977643
0.859931 0.957559 0.925321 0.970523
0.86568 0.920955 0.96719 0.971868
1.00475 0.989816 1.01538 0.999711
0.886865 0.934508 0.962675 0.985814
0.899422 0.954669 0.961502 0.979853
0.840945 0.939666 0.924701 0.967816
0.981264 0.968561 1.01467 0.998464
0.951779 0.959575 1.01174 0.980367
0.886788 0.931956 0.97846 0.972482
1.00278 1 1.00364 0.999136
1.018 1 1.01873 0.999283
1.01946 0.993104 1.02698 0.999566
0.998635 1 1 0.998635
1.00091 1 1.00227 0.998634
1.02416 1 1.02493 0.999252
0.998628 1 1 0.998628
1.01854 1 1.01948 0.999081
1.03399 0.997331 1.03735 0.999421
1.01993 0.996084 1.02447 0.999489
1.01359 1 1.01454 0.999066
0.998753 1 1 0.998753
0.99929 1 1.00051 0.998776
0.999863 1 1.00102 0.998841
1.00187 1 1.00287 0.999002
0.999089 1 1.00035 0.998735
1.00105 1 1.00211 0.998943
0.998843 1 1 0.998843
1.00087 1 1.00286 0.998019
0.998963 1.00005 1.00026 0.998649
0.998863 1.00007 1.00057 0.998228
0.998393 1 1.00101 0.997383
1.00151 1.00278 1.00129 0.997449
1.00056 1 1.00236 0.998205
0.998986 1 1.00138 0.997603
1.00134 1 1.00272 0.998625
1.00058 1 1.00215 0.998431
0.998995 1 1.00065 0.99835
0.999273 1 1.00066 0.998609
0.999444 1 1.00064 0.998807
0.999159 1 1 0.999159
0.999154 1 1.00025 0.998909
0.999245 1 1 0.999245
0.999734 1 1 0.999734
0.999296 1 1 0.999296
0.999757 1 1 0.999757
0.999999 1 1 0.999999
0.999765 1 1 0.999765
1 1 1 1
1 1 1 1
1 1 1 1
1 1 1 1
1 1 1 1
0.999185 1 1 0.999185
0.999772 1 1 0.999772
0.999369 1 1 0.999369
1 1 1 1
0.999871 1 1 0.999871
0.999419 1 1 0.999419
1 1 1 1
1 1 1 1
0.999939 1 1 0.999939
1 1 1 1
1 1 1 1
1 1 1 1
0.901853 0.948676 0.97029 0.979753
0.817658 0.879678 0.956701 0.971565
0.833842 0.897345 0.954836 0.973186
0.998793 1 1 0.998793
0.888467 0.936004 0.96828 0.980308
0.902717 0.950203 0.974957 0.974427
0.786989 0.866339 0.939324 0.967086
0.97529 0.995242 0.986312 0.993553
0.939032 0.971036 0.98565 0.98112
0.804605 0.893706 0.927478 0.970699
0.797374 0.896523 0.922018 0.964632
0.951346 0.980074 0.979959 0.990539
0.920902 0.949004 0.989898 0.980291
0.834143 0.906545 0.947396 0.971225
0.837513 0.934364 0.92623 0.967735
0.924603 0.953561 0.981074 0.988337
0.926443 0.941507 1.00598 0.978152
0.87489 0.92982 0.968221 0.971808
0.857618 0.955147 0.926029 0.969614
0.999774 1 1.00135 0.998425
1.00036 1 1.00177 0.998593
0.9989 1 1 0.9989
0.998602 1 1 0.998602
0.998861 1 1.00022 0.99864
0.998891 1 1 0.998891
0.998913 1 1 0.998913
0.999003 1 1 0.999003
0.984583 1.00531 0.981072 0.998276
0.978633 1.00017 0.979906 0.998533
1.00205 1 1.00364 0.998412
1.01306 1.00191 1.01295 0.998199
1.01963 1 1.02145 0.998211
1.00183 1 1.00352 0.998315
1.00154 1 1.00321 0.998332
0.969034 0.990759 0.979249 0.998799
1.01034 1 1.01208 0.998275
1.02399 1.00028 1.02524 0.998494
0.993487 0.996596 0.997593 0.999286
1.00039 1 1.00201 0.998384
0.960294 0.9792 0.981773 0.998899
1.00622 0.992737 1.01414 0.999454
1.04322 0.999579 1.04514 0.998581
1.00225 1 1.00385 0.998413
0.899126 0.937735 0.971162 0.987299
0.913311 0.950386 0.979351 0.981251
0.850559 0.890577 0.981645 0.972924
1.00226 0.998692 1.00418 0.99939
1.00393 0.990511 1.01414 0.999418
0.903025 0.948169 0.970748 0.981088
0.936775 0.945183 1.01128 0.980053
0.94009 0.949402 0.999048 0.991135
0.86904 0.924439 0.968276 0.970872
0.887388 0.941212 0.96314 0.978896
0.863619 0.959673 0.926401 0.971404
1.00692 0.993326 1.01402 0.999669
0.888036 0.935215 0.963228 0.985802
0.897455 0.95265 0.959935 0.98138
0.990683 0.975326 1.01607 0.999685
0.837834 0.93443 0.926459 0.9678
0.935267 0.947124 1.00848 0.979182
0.896441 0.943371 0.9777 0.971928
1.00689 0.988186 1.01916 0.999771
0.90398 0.950656 0.963268 0.987162
0.887971 0.935721 0.967927 0.980414
0.800225 0.901295 0.919374 0.965723
0.874425 0.930802 0.967053 0.971438
0.964813 0.96246 1.00548 0.996986
0.953852 0.953156 1.02466 0.976649
1.01537 1 1.01617 0.999207
1.01952 0.992976 1.02721 0.999535
1.00534 0.981687 1.02452 0.999582
0.998638 1 1 0.998638
1.01782 1 1.01874 0.999092
1.03494 0.998289 1.03734 0.999396
1.00966 1 1.01062 0.999051
1.01984 0.996977 1.02345 0.999488
1.01059 0.995438 1.01599 0.999242
1.00099 1 1.00201 0.998979
0.999021 1 1.00028 0.99874
1.00235 1 1.00343 0.998918
1.00656 1 1.00822 0.998353
0.999028 1 1 0.999028
1.0003 1 1.00215 0.998154
1.00162 1.00026 1.00413 0.997251
1.00235 1.00364 1.00188 0.996845
0.998741 1.00016 1.0004 0.998173
0.998791 1.00045 1.00109 0.997252
1.00246 1.00441 1.00053 0.997541
1.00153 1.00103 1.00261 0.997892
1.00157 1.00281 1.00125 0.997514
1.00364 1 1.00519 0.998452
1.00084 1 1.00265 0.998194
0.998909 1 1.00128 0.997633
0.999119 1 1.0001 0.999014
1.00131 1 1.00269 0.998626
1.001 1 1.0026 0.998404
0.999242 1 1.0004 0.99884
0.999158 1 1 0.999158
0.999682 1 1 0.999682
0.999244 1 1 0.999244
0.999731 1 1 0.999731
0.999999 1 1 0.999999
0.999755 1 1 0.999755
0.999999 1 1 0.999999
1 1 1 1
0.999999 1 1 0.999999
1 1 1 1
1 1 1 1
0.999108 1 1 0.999108
0.999673 1 1 0.999673
0.99922 1 1 0.99922
1 1 1 1
0.999763 1 1 0.999763
0.999367 1 1 0.999367
1 1 1 1
1 1 1 1
0.999832 1 1 0.999832
1 1 1 1
1 1 1 1
1 1 1 1
0.890529 0.935933 0.96496 0.986039
0.904626 0.948569 0.9734 0.979736
0.817739 0.880592 0.955673 0.971696
0.998816 1 1 0.998816
0.998755 1 1 0.998755
0.998656 1 1 0.998656
0.89706 0.954694 0.959057 0.979744
0.885893 0.935595 0.965878 0.980328
0.903499 0.95011 0.975992 0.974333
0.956327 0.98293 0.980458 0.992326
0.917547 0.948328 0.988987 0.978316
0.823673 0.891785 0.949645 0.972599
0.849667 0.942357 0.9323 0.967115
0.929058 0.955862 0.981218 0.990562
0.924841 0.941921 1.00307 0.978857
0.85774 0.910175 0.968618 0.972922
0.858975 0.95687 0.925011 0.970467
0.917744 0.945403 0.981621 0.988919
0.93996 0.94985 1.01025 0.979548
0.887487 0.930137 0.980944 0.972682
0.847525 0.940335 0.929465 0.969698
0.998429 1 1.00001 0.998422
1.00019 1 1.00178 0.99841
1.00029 1 1.00173 0.998561
0.998596 1 1 0.998596
0.998688 1 1 0.998688
0.998921 1 1 0.998921
0.975893 0.993052 0.983861 0.998841
0.988598 0.996623 0.992621 0.999322
1.00176 1 1.00343 0.99834
1.01754 1.00051 1.01855 0.998506
1.01141 1 1.01312 0.998311
1.0005 1 1.00214 0.998356
1.0016 1 1.00317 0.998434
0.969229 0.980905 0.989119 0.998967
1.03764 0.999759 1.03924 0.998702
1.00734 0.988644 1.01946 0.999455
1.00046 1 1.0019 0.998561
0.982026 0.968931 1.01454 0.99899
1.00637 0.98556 1.02162 0.999504
1.03068 0.999676 1.03222 0.998826
0.917409 0.954633 0.971828 0.988865
0.89909 0.937848 0.970583 0.98773
0.912718 0.94972 0.979303 0.98135
1.01049 0.997265 1.01363 0.999627
0.98277 0.974841 1.00922 0.998921
0.889468 0.93607 0.963912 0.98579
0.932119 0.938083 1.01087 0.982957
0.893094 0.940496 0.97702 0.971934
0.896736 0.950967 0.959372 0.982907
0.850716 0.942528 0.933167 0.967233
1.00341 0.986286 1.01757 0.999788
0.905064 0.950883 0.963691 0.987676
0.886977 0.936198 0.96633 0.980435
0.96351 0.959474 1.01041 0.993857
0.801756 0.904611 0.918953 0.964467
0.854857 0.911594 0.964275 0.972503
0.962298 0.956962 1.02668 0.979446
1.00025 0.968687 1.03324 0.999367
0.891405 0.936414 0.965314 0.98614
0.907024 0.952881 0.976559 0.974724
0.729386 0.830957 0.909213 0.965413
0.821843 0.901459 0.938834 0.971079
0.938495 0.947923 1.01124 0.979048
0.943024 0.955056 0.995515 0.99185
1.02181 0.993154 1.02936 0.999501
1.00884 0.986969 1.02258 0.999586
1.0152 0.992793 1.02305 0.999529
1.00589 1 1.00686 0.999036
1.02003 0.997546 1.02306 0.999487
1.01271 0.994592 1.0189 0.999322
1.01072 1 1.01193 0.998813
1.00371 1 1.00482 0.998894
1.00662 1 1.0084 0.998228
1.01492 1.00029 1.01743 0.997244
0.999734 1 1.00145 0.998291
1.00309 1.0008 1.00509 0.997218
1.00477 1.00237 1.00596 0.996456
1.00347 1.00516 1.00191 0.996416
1.00132 1.00308 1.00108 0.997171
1.00215 1.00348 1.00189 0.996798
0.999107 1.00075 1.00124 0.997121
1.00029 1.00143 1.0011 0.997768
1.00226 1.00416 1.00048 0.997632
1.00231 1 1.00419 0.998127
1.00171 1.00104 1.00274 0.99794
1.00165 1.00291 1.00117 0.99758
1.00182 1 1.00306 0.99877
1.00277 1 1.00432 0.998453
1.00098 1.00001 1.0028 0.998182
0.999594 1 1 0.999594
0.999278 1 1.00027 0.999012
1.00111 1 1.00249 0.998626
0.999156 1 1 0.999156
0.999677 1 1 0.999677
0.999996 1 1 0.999996
0.999727 1 1 0.999727
0.999998 1 1 0.999998
1 1 1 1
0.999999 1 1 0.999999
1 1 1 1
1 1 1 1
0.999089 1 1 0.999089
0.99967 1 1 0.99967
0.99913 1 1 0.99913
1 1 1 1
0.999709 1 1 0.999709
0.999254 1 1 0.999254
1 1 1 1
1 1 1 1
0.999753 1 1 0.999753
1 1 1 1
1 1 1 1
1 1 1 1
0.903733 0.950323 0.963418 0.987084
0.891194 0.936549 0.965054 0.986031
0.905299 0.94829 0.974409 0.979736
0.998772 1 1.00007 0.998705
0.998601 1 1.00003 0.998571
0.998839 1 1 0.998839
0.99875 1 1 0.99875
0.998638 1 1 0.998638
0.998637 1 1 0.998637
0.998548 1 1 0.998548
0.88283 0.939195 0.960425 0.978718
0.89718 0.952356 0.960032 0.981284
0.883013 0.934802 0.963533 0.980349
0.860799 0.958843 0.924252 0.971324
0.918324 0.946845 0.981067 0.988594
0.925665 0.940758 1.00436 0.979683
0.864428 0.916118 0.970143 0.972617
0.910931 0.944649 0.975902 0.988119
0.933282 0.942225 1.01305 0.977748
0.898232 0.944427 0.97801 0.972472
0.833192 0.928657 0.924518 0.970453
0.922211 0.947085 0.983281 0.990294
0.943921 0.950589 1.01601 0.977341
0.863479 0.920583 0.965198 0.97179
0.813766 0.911168 0.92384 0.966728
1.00318 1 1.00462 0.998565
0.998724 1 1.0003 0.998426
1.00087 1 1.00248 0.998395
0.998589 1 1 0.998589
0.97523 0.980465 0.995609 0.999048
1.0081 0.985372 1.02363 0.999454
0.999552 1 1.00122 0.99833
1.00134 1 1.00289 0.998456
1.03135 0.999694 1.03288 0.998823
0.999979 1 1.00143 0.998553
1.03097 0.998723 1.03352 0.998813
0.979688 0.967678 1.01433 0.998109
1.00807 0.981687 1.02726 0.999623
1.01236 0.996608 1.01689 0.998936
0.974642 0.956959 1.02061 0.997909
1.02409 0.98714 1.03816 0.999296
0.899803 0.93773 0.971848 0.98735
0.914215 0.953413 0.969075 0.989487
0.898506 0.937763 0.969618 0.98816
0.998325 0.982894 1.0159 0.999805
0.968552 0.963142 1.00843 0.997206
0.904772 0.950404 0.96336 0.988194
0.958865 0.958803 1.0235 0.977102
0.858057 0.913994 0.965682 0.972161
0.88453 0.936552 0.96328 0.980455
0.797041 0.895832 0.922169 0.964815
1.00415 0.972108 1.03349 0.999488
0.891057 0.937096 0.964241 0.986135
0.904443 0.951429 0.975363 0.974627
0.945333 0.954574 0.99613 0.994166
0.724924 0.834864 0.902104 0.962543
0.829224 0.903057 0.94559 0.971079
0.935899 0.942663 1.01504 0.978118
1.00024 0.976423 1.02603 0.9984
0.902691 0.949268 0.970371 0.97997
0.797391 0.868818 0.948237 0.967888
0.78715 0.873928 0.925487 0.973222
0.92155 0.935839 1.00535 0.979487
0.918849 0.943375 0.984669 0.989167
1.01099 0.990691 1.0209 0.99959
1.01539 0.990705 1.02541 0.999522
0.999355 0.992346 1.00772 0.999348
1.01472 0.993745 1.02171 0.999402
1.00974 0.996576 1.01433 0.998893
1.00297 1.0008 1.00426 0.997924
1.00695 1 1.00886 0.998103
1.01402 1.00032 1.01656 0.997185
1.00899 1.00032 1.01222 0.996488
1.0048 1.00159 1.00604 0.997185
1.00519 1.0022 1.00664 0.996372
1.00269 1.00211 1.00445 0.996137
1.00891 1.01246 1 0.996489
1.00683 1.00945 1.00077 0.996639
1.00402 1.0055 1.00218 0.996362
1.00034 1.00279 1.00013 0.997433
1.00075 1.00278 1.00074 0.997232
1.00199 1.00335 1.0019 0.996752
0.9989 1 1.00112 0.997787
1.00056 1.00173 1.00108 0.997756
1.00193 1.00379 1.00043 0.997721
1.003 1 1.00457 0.998447
1.00214 1 1.00396 0.998179
1.00188 1.00102 1.00288 0.997988
0.999494 1 1.00008 0.999409
1.00145 1 1.00268 0.998772
1.00218 1 1.00373 0.998454
0.99999 1 1 0.99999
0.999587 1 1 0.999587
0.999493 1 1.00048 0.99901
0.999673 1 1 0.999673
0.999995 1 1 0.999995
1 1 1 1
0.999997 1 1 0.999997
1 1 1 1
1 1 1 1
0.999008 1 1.00032 0.998692
0.999007 1 1 0.999007
0.999594 1 1 0.999594
0.999087 1 1 0.999087
0.999997 1 1 0.999997
0.999674 1 1 0.999674
0.999153 1 1 0.999153
1 1 1 1
1 1 1 1
0.999745 1 1 0.999745
1 1 1 1
1 1 1 1
1 1 1 1
0.885755 0.934403 0.96165 0.985741
0.903847 0.950243 0.96311 0.987607
0.892088 0.937508 0.965042 0.986021
0.998764 1 1.00005 0.998717
0.998831 1 1.00027 0.998561
0.998648 1 1.00011 0.998542
0.998567 1 1 0.998567
1.00087 1 1.00239 0.998487
0.998744 1 1 0.998744
0.998621 1 1 0.998621
0.998638 1 1 0.998638
0.998551 1 1 0.998551
1.002 1 1.0034 0.998597
0.897962 0.943611 0.976397 0.974627
0.885703 0.94053 0.962156 0.978746
0.898331 0.951128 0.961001 0.982819
0.833685 0.930363 0.923259 0.970569
0.894141 0.939102 0.979375 0.972174
0.903273 0.94056 0.973005 0.987
0.941369 0.950263 1.0116 0.979277
0.922138 0.950234 0.982359 0.987859
0.955114 0.959672 1.01637 0.979225
0.868388 0.922023 0.968491 0.972471
0.812326 0.914456 0.919725 0.965849
0.93881 0.951113 0.997383 0.989655
0.942564 0.949524 1.01318 0.979755
0.806129 0.881287 0.940825 0.97225
0.756476 0.865732 0.905563 0.964925
1.00454 1 1.00549 0.999051
1.0042 1 1.00564 0.998563
0.999528 1 1.0011 0.99843
0.980872 0.969871 1.01418 0.997205
1.01106 0.978618 1.03341 0.999747
1.0001 1 1.00156 0.998545
1.03189 0.99768 1.03553 0.998799
1.01355 0.998227 1.01642 0.998944
1.02686 0.990762 1.03717 0.999285
0.975862 0.959689 1.01897 0.997919
1.01802 0.996557 1.0222 0.999345
0.984079 0.970997 1.01562 0.997886
0.913895 0.951299 0.979321 0.980966
0.899945 0.937934 0.971373 0.987774
0.91125 0.952258 0.966496 0.990108
1.00924 0.977137 1.03327 0.999596
0.945866 0.956918 0.997825 0.990605
0.89254 0.937809 0.96512 0.986125
0.94009 0.951217 1.01162 0.976948
0.819048 0.887756 0.948729 0.972464
0.903552 0.950007 0.975951 0.974536
0.72476 0.842055 0.896911 0.959631
0.999613 0.97527 1.02645 0.99855
0.905013 0.949048 0.97311 0.979952
0.790057 0.863537 0.946259 0.966868
0.922186 0.947515 0.98271 0.990392
0.799328 0.881696 0.932846 0.971843
0.909355 0.934804 0.994732 0.977928
0.969575 0.970093 1.00213 0.99734
0.826281 0.882102 0.96431 0.971387
0.799489 0.872643 0.941333 0.973268
0.931117 0.953789 0.997733 0.978448
0.905472 0.939615 0.972433 0.990981
1.01502 0.989058 1.02675 0.999515
1.00241 0.991248 1.01195 0.999321
1.0004 0.999949 1.00188 0.998578
1.0086 0.992859 1.0169 0.998971
1.00276 1.00093 1.00381 0.998016
0.999298 1.00199 1.00003 0.99729
1.01276 1.00028 1.01539 0.997125
1.00733 1.00049 1.01037 0.996502
0.999504 1.00152 1.00137 0.996621
1.00517 1.00193 1.00697 0.996289
1.00287 1.00302 1.0037 0.996163
1.00919 1.01256 1 0.996669
1.02359 1.02676 1 0.996918
1.01529 1.01879 1.00002 0.996544
1.00848 1.01201 1 0.996511
1.00581 1.00892 1 0.996916
1.00501 1.00736 1.00107 0.996591
1.00465 1.00592 1.00244 0.996307
0.999354 1.00177 1 0.997586
0.999509 1.00199 1.00002 0.997504
1.00012 1.00252 1.00032 0.997294
1 1 1.00188 0.99813
0.999469 1.00036 1.0013 0.99782
1.00085 1.00202 1.0011 0.997743
1.00134 1 1.00227 0.999079
1.00275 1 1.00431 0.998449
1.00188 1 1.00366 0.998231
0.999973 1 1 0.999973
0.999797 1 1.0004 0.999402
1.00107 1 1.0023 0.998774
1 1 1 1
0.999986 1 1 0.999986
0.99958 1 1 0.99958
0.999993 1 1 0.999993
1 1 1 1
1 1 1 1
0.999247 1 1.00064 0.99861
0.998949 1 1.00003 0.998916
0.998984 1 1.00031 0.998677
0.999526 1 1 0.999526
0.999006 1 1 0.999006
0.999987 1 1 0.999987
0.999597 1 1 0.999597
0.999084 1 1 0.999084
1 1 1 1
0.999999 1 1 0.999999
0.999677 1 1 0.999677
1 1 1 1
1 1 1 1
1 1 1 1
0.905409 0.951202 0.97001 0.981287
0.887268 0.935266 0.962411 0.985734
0.903713 0.949466 0.963243 0.988133
0.998557 1 1 0.998557
0.998778 1 1.00005 0.998729
0.998824 1 1.00027 0.998551
0.998656 1 1.00008 0.998577
0.99856 1 1 0.99856
1.00006 1 1.00154 0.998516
1.00412 1 1.00579 0.998343
1.0045 1 1.00603 0.998479
0.998639 1 1 0.998639
0.998554 1 1 0.998554
1.00192 1 1.00334 0.998586
1.00605 1 1.00728 0.998784
0.797332 0.869767 0.948237 0.966762
0.905428 0.950126 0.9779 0.974492
0.887366 0.940702 0.963765 0.978768
0.802646 0.906708 0.915801 0.966619
0.874363 0.929242 0.968232 0.971815
0.945619 0.951615 1.01668 0.977399
0.925606 0.947516 0.988144 0.988596
0.936486 0.947625 0.996684 0.991532
0.741361 0.855137 0.901049 0.962156
0.937222 0.94497 1.01437 0.977752
0.820905 0.896833 0.942011 0.971685
0.93197 0.95009 0.988717 0.992123
0.929155 0.943168 1.00466 0.98057
0.790357 0.87782 0.926142 0.972167
1.00058 1 1.00102 0.99956
1.00453 1 1.00548 0.999056
1.00486 1 1.0063 0.998561
0.971752 0.955882 1.01869 0.997951
1.02996 0.995021 1.03587 0.999273
1.01437 0.999303 1.01614 0.998952
1.0183 0.997955 1.02105 0.999344
0.982861 0.971563 1.01372 0.997937
0.99689 0.989532 1.0089 0.998549
0.843765 0.891467 0.974772 0.970987
0.911564 0.950372 0.976349 0.982401
0.898846 0.93778 0.969933 0.988196
0.999702 0.973592 1.02819 0.998668
0.91479 0.944635 0.977004 0.9912
0.904753 0.948741 0.973148 0.979949
0.916346 0.931857 1.004 0.979434
0.808031 0.895343 0.929382 0.971056
0.787584 0.866491 0.93951 0.967456
0.971448 0.969758 1.00435 0.997406
0.817896 0.880208 0.956076 0.971897
0.809602 0.87802 0.947827 0.972833
0.909464 0.941406 0.977403 0.988406
0.921188 0.952119 0.986953 0.980304
0.961936 0.980165 0.982718 0.998661
0.82827 0.892248 0.953773 0.973287
0.942671 0.976068 0.984164 0.981325
0.921966 0.954774 0.977177 0.988192
1.0061 0.99052 1.01644 0.999297
0.991783 0.99868 0.994404 0.998683
0.993203 1.00257 0.992709 0.997932
1.00308 1.0011 1.00388 0.998107
1.0019 1.00242 1.00221 0.997277
1.0002 1.0034 0.999428 0.997385
1.00606 1.00073 1.00884 0.996515
0.999439 1.00114 1.00167 0.996634
1.01544 1.01818 1 0.997315
1.00331 1.00395 1.00319 0.99619
1.00848 1.01184 1 0.996679
1.02334 1.02601 1 0.997403
1.028 1.03066 1 0.997415
1.02614 1.02939 1 0.996842
1.02296 1.02608 1 0.996953
1.01538 1.01869 1 0.996756
1.01424 1.01771 1 0.996591
1.00779 1.0113 1 0.996533
1.00551 1.00824 1 0.99729
1.00572 1.00867 1.00014 0.996943
1.00324 1.00524 1.00148 0.996543
0.99824 1.00037 1 0.997871
1.00051 1.00294 1 0.99758
0.998672 1.0011 1 0.997575
1.0012 1 1.00249 0.998717
0.999946 1.00004 1.00178 0.998131
1.00006 1.00076 1.00145 0.997853
0.999915 1 1 0.999915
1.00119 1 1.00211 0.999075
1.00221 1 1.00377 0.99845
1 1 1 1
0.999963 1 1 0.999963
1.00005 1 1.00065 0.999394
1 1 1 1
0.999982 1 1 0.999982
1 1 1 1
0.998952 1 1.00039 0.998558
0.999373 1 1.00077 0.998605
0.99942 1 1.00061 0.998806
0.999458 1 1 0.999458
0.998916 1 1 0.998916
0.998917 1 1.00026 0.998662
0.999972 1 1 0.999972
0.999529 1 1 0.999529
0.999005 1 1 0.999005
1 1 1 1
0.999991 1 1 0.999991
0.9996 1 1 0.9996
1 1 1 1
1 1 1 1
1 1 1 1
0.825159 0.878833 0.968866 0.969097
0.903892 0.949596 0.97002 0.981289
0.889335 0.936619 0.963266 0.985726
0.999243 1 1.0007 0.998539
0.999854 1.00006 1.00137 0.998421
1.00258 1 1.00416 0.998432
0.998942 1 1.00036 0.998587
0.998579 1 1 0.998579
1.00013 1 1.00159 0.998544
1.00428 1 1.00583 0.998467
1.00374 1 1.00539 0.998357
1.00528 1 1.00704 0.998258
0.996544 1 0.997537 0.999004
1.00134 1 1.00277 0.998576
1.0045 1 1.00575 0.998754
0.80627 0.874465 0.948894 0.971673
0.788546 0.861188 0.948515 0.96535
0.911356 0.954697 0.979703 0.97438
0.727662 0.843223 0.899532 0.959337
0.821284 0.895121 0.943656 0.972295
0.93245 0.944789 1.00707 0.980007
0.941752 0.950832 1.00118 0.989286
0.927655 0.947812 0.988406 0.990215
0.793459 0.871086 0.937883 0.971214
0.916854 0.936719 0.999474 0.979308
0.920979 0.951261 0.976912 0.991048
0.916956 0.952679 0.983283 0.978867
1.00668 1 1.00766 0.999021
1.00029 1 1.00079 0.999496
1.00429 1 1.00523 0.999061
0.982408 0.972654 1.01207 0.997981
1.01822 0.999139 1.01977 0.999344
0.997289 0.990295 1.00861 0.998461
0.988284 0.994418 0.996185 0.997637
0.830749 0.907723 0.938917 0.974742
0.846463 0.891104 0.977415 0.971853
0.911059 0.950306 0.974468 0.98382
0.972372 0.973992 1.00081 0.997525
0.909758 0.941757 0.976711 0.989057
0.818052 0.881297 0.954961 0.972015
0.915974 0.947919 0.987543 0.978489
0.816163 0.884302 0.948026 0.973546
0.965428 0.980461 0.98669 0.997951
0.834935 0.900967 0.951757 0.973684
0.941674 0.977223 0.984337 0.978956
0.929474 0.957634 0.98006 0.990342
0.971086 0.990751 0.981597 0.998526
0.946667 0.98283 0.982285 0.980576
0.949901 0.981484 0.975703 0.991921
0.982525 0.996995 0.986689 0.998781
0.990801 1.00328 0.989634 0.997907
0.98274 1.00713 0.977934 0.997798
1.0036 1.00278 1.00356 0.997264
0.999538 1.00352 0.998648 0.997381
1.01867 1.02559 0.995321 0.997915
0.999212 1.00071 1.00186 0.996646
1.01513 1.01822 0.999664 0.9973
1.02664 1.03048 0.99836 0.997904
1.00764 1.01099 1 0.996688
1.02283 1.02555 0.99995 0.997401
1.02891 1.03132 0.999822 0.997842
1.02582 1.02816 1 0.99772
1.02884 1.03145 1 0.997473
1.02815 1.03095 1 0.997283
1.02608 1.02926 1 0.996913
1.02658 1.02982 1 0.996851
1.02249 1.02558 1 0.996987
1.01396 1.01699 1 0.997024
1.0166 1.01987 1 0.996789
1.01325 1.01666 1 0.996638
1.00039 1.00277 1 0.997625
1.00542 1.00815 1 0.997284
1.00579 1.00867 1.00017 0.996971
0.998595 1 1.00014 0.99846
0.998755 1.00089 1 0.997869
1.0016 1.00404 1 0.997574
0.99986 1 1.00009 0.999772
1.00061 1 1.00189 0.998717
1.0002 1.00015 1.00192 0.998132
1 1 1 1
1.00004 1 1.00014 0.999894
1.00109 1 1.00202 0.999072
1 1 1 1
0.999953 1 1 0.999953
1 1 1 1
0.99849 1 1 0.99849
0.999114 1 1.00056 0.998559
0.999596 1 1.0009 0.998692
0.999369 1 1.00077 0.998601
0.999471 1 1.00067 0.998805
0.99956 1 1.0002 0.999361
0.999957 1 1 0.999957
0.99946 1 1 0.99946
0.998915 1 1 0.998915
1 1 1 1
0.999977 1 1 0.999977
0.999532 1 1 0.999532
1 1 1 1
0.999994 1 1 0.999994
1 1 1 1
0.836483 0.896913 0.957776 0.97374
0.827831 0.882901 0.967555 0.969068
0.90247 0.948339 0.969782 0.981286
0.999738 1 1.00122 0.998522
1.00332 1 1.00498 0.998348
0.999173 1.00005 1.00065 0.998478
0.998273 1.0001 1.00024 0.997938
1.00279 1 1.00446 0.998335
1.00419 1 1.00574 0.998456
1.00274 1 1.00437 0.998372
1.00563 1 1.00734 0.998305
0.998095 1 1 0.998095
0.991642 1.00065 0.992241 0.998748
0.995984 1.00035 0.997778 0.997852
0.998382 1 0.999325 0.999056
1.00312 1 1.0044 0.998724
0.934595 0.972736 0.9806 0.979798
0.808765 0.872124 0.953871 0.972197
0.789319 0.864251 0.945935 0.965497
0.790988 0.872469 0.934415 0.970242
0.926708 0.943897 1.00367 0.978198
0.930013 0.94404 0.992841 0.992245
0.922883 0.950305 0.978563 0.992418
0.925442 0.954389 0.988349 0.9811
0.949217 0.978926 0.977991 0.991473
0.998451 1.00132 0.998916 0.998218
1.00562 1 1.00663 0.998999
0.999887 1 1.00045 0.999433
0.998454 0.992076 1.00804 0.9984
0.993287 0.998239 0.997386 0.997648
0.923438 0.971166 0.969371 0.980899
0.840788 0.906561 0.951522 0.974699
0.849535 0.890254 0.981007 0.972737
0.971141 0.982785 0.990921 0.997206
0.927365 0.955652 0.981856 0.988333
0.835532 0.898138 0.955669 0.973448
0.939904 0.972067 0.985671 0.980969
0.976489 0.990704 0.987057 0.998577
0.952268 0.98896 0.98084 0.981707
0.947984 0.979639 0.977653 0.989806
0.992636 1.00432 0.99038 0.997965
0.969104 0.994603 0.979846 0.994403
0.990114 1.00465 0.987615 0.997894
0.983939 1.0066 0.979692 0.997748
1.0045 1.03032 0.976882 0.998007
0.999069 1.00358 0.998123 0.997376
1.01875 1.02551 0.995496 0.997897
1.02736 1.03867 0.990946 0.998152
1.01486 1.01831 0.999319 0.997286
1.02618 1.03061 0.997808 0.997884
1.02417 1.03015 0.996116 0.99807
1.02243 1.02524 0.999861 0.997398
1.02915 1.03174 0.999671 0.997824
1.02773 1.03026 0.999649 0.997897
1.02643 1.02872 1 0.997769
1.02537 1.0279 1 0.997539
1.02964 1.03219 1 0.99753
1.02811 1.03092 1 0.997275
1.02895 1.03191 1 0.997132
1.02199 1.02506 1 0.997003
1.02592 1.02911 1 0.996903
1.02695 1.03019 1 0.99686
1.00644 1.00905 1 0.997413
1.01308 1.01608 1 0.997042
1.01781 1.02105 1 0.996823
0.998452 1.00019 1 0.998265
1.00172 1.00411 1 0.99762
1.0052 1.00794 1 0.997278
0.999847 1 1.00027 0.999582
0.998643 1 1.00018 0.998461
0.999238 1.00137 1 0.997867
1 1 1 1
1.00013 1 1.00038 0.999748
1.00009 1 1.00137 0.998718
1 1 1 1
1.00036 1 1.00049 0.999872
1 1 1 1
1.00055 1.00259 1 0.997972
0.998486 1 1 0.998486
0.999412 1 1.00087 0.998539
0.99941 1 1.00085 0.998561
0.999633 1 1.00096 0.99867
0.999563 1 1.00036 0.999199
0.999422 1 1.00062 0.998804
0.99943 1 1.00007 0.999363
0.999938 1 1 0.999938
1 1 1 1
0.999961 1 1 0.999961
0.999463 1 1 0.999463
1 1 1 1
0.999981 1 1 0.999981
1 1 1 1
0.945967 0.983685 0.978967 0.982318
0.831596 0.901137 0.947186 0.974286
0.837156 0.888502 0.97284 0.968514
1.00412 1 1.00586 0.998263
0.998536 1 1 0.998536
1.00212 1 1.00379 0.998329
0.999221 1.00097 1.00028 0.997973
1.00557 1.00796 1.00014 0.997497
0.998103 1 1 0.998103
1.00627 1 1.00793 0.998351
0.997948 1 1 0.997948
0.994488 1.00043 0.995338 0.998719
0.997781 1.00058 0.999229 0.997971
0.993477 1.00303 0.992437 0.998025
0.996543 1.00129 0.997786 0.997469
0.99523 1.00082 0.996421 0.997988
1.00038 1 1.00128 0.999108
0.94903 0.981789 0.974812 0.991611
0.937818 0.97446 0.981658 0.980379
0.804976 0.873312 0.946949 0.97339
0.936091 0.960194 0.99633 0.978489
0.924201 0.949167 0.980241 0.993324
0.953633 0.978862 0.979999 0.99411
0.991739 1.00377 0.990081 0.997916
0.996642 1.00067 0.997733 0.998239
1.0046 1 1.00563 0.998978
0.994836 1.00089 0.996298 0.99764
0.954593 0.977322 0.984888 0.991731
0.937048 0.976417 0.97613 0.983148
0.83016 0.900614 0.946331 0.974048
0.978743 0.989846 0.990148 0.998622
0.951072 0.982278 0.976712 0.991317
0.958356 0.988945 0.986001 0.982827
0.986028 1.00312 0.984944 0.997987
0.966604 0.991584 0.980975 0.993713
0.989917 1.02425 0.9686 0.997816
1.00454 1.01605 0.991454 0.997198
0.984718 1.00608 0.981031 0.997693
1.00319 1.02931 0.976577 0.998001
1.00882 1.04241 0.969663 0.998051
1.01924 1.02595 0.995564 0.997879
1.02719 1.03854 0.990915 0.998135
1.01983 1.03245 0.989733 0.998018
1.02574 1.03071 0.997307 0.997864
1.02347 1.02951 0.996075 0.998053
1.02785 1.03355 0.99661 0.997868
1.02938 1.0321 0.999564 0.997805
1.02642 1.02902 0.999589 0.99789
1.02642 1.02897 0.999898 0.997619
1.02702 1.02927 1 0.997818
1.02561 1.0281 1 0.99758
1.02826 1.03107 1 0.99727
1.02815 1.03097 1 0.997267
1.02888 1.03185 1 0.997123
1.02549 1.02845 1 0.997125
1.01251 1.01528 1 0.997272
1.02189 1.02495 1 0.997017
1.02572 1.02892 1 0.996893
0.99932 1.00124 1 0.998084
1.00695 1.00956 1 0.997414
1.01234 1.01533 1 0.997059
0.999404 1 1 0.999404
0.998655 1.00039 1 0.998264
1.00297 1.00537 1 0.997616
1 1 1 1
0.999671 1 1.00011 0.999566
0.998617 1 1.00016 0.998461
1 1 1 1
1.00013 1 1.00041 0.999724
1 1 1 1
1.00435 1.0068 1 0.997574
1.00006 1.00207 1 0.997988
0.999573 1.00095 1.00042 0.998202
0.998481 1 1 0.998481
0.999306 1 1.0008 0.99851
0.999705 1 1.00073 0.998976
0.999822 1 1.00118 0.998648
0.99943 1 1.00023 0.999201
0.999906 1 1 0.999906
0.999366 1 1 0.999366
0.999944 1 1 0.999944
1 1 1 1
1 1 1 1
0.999966 1 1 0.999966
1 1 1 1
0.948772 0.981309 0.974531 0.992112
0.940516 0.983414 0.975395 0.980504
0.824606 0.895205 0.945259 0.97448
1.01444 1.01723 1.00007 0.997199
1.0014 1 1.00308 0.998323
1.00036 1.00206 1.0003 0.998009
0.998067 1 1 0.998067
1.00534 1.00749 1.00039 0.997484
1.00121 1.00329 1 0.997933
0.997802 1 1 0.997802
0.996747 1.00023 0.997819 0.998691
0.997364 1.00079 0.998576 0.998002
0.990342 1.0021 0.990274 0.997969
1.00112 1.00445 0.999352 0.997328
1.00167 1.0064 0.997836 0.997455
0.997408 1.00195 0.998036 0.997422
0.994527 1.00134 0.995066 0.998125
0.991827 1.00615 0.987322 0.998425
0.946397 0.981786 0.973137 0.990564
0.940579 0.97622 0.981812 0.981338
0.946231 0.97439 0.978649 0.992288
0.994905 1.00578 0.990768 0.998405
0.997141 1.0002 0.998683 0.998256
0.992195 1.00668 0.98843 0.997146
0.945472 0.967052 0.984491 0.993086
0.925504 0.974203 0.968404 0.981007
0.980398 1.00152 0.980867 0.998007
0.971797 0.993141 0.985584 0.99282
0.991812 1.02526 0.969433 0.997878
1.00341 1.01513 0.991051 0.997378
1.00046 1.03491 0.968771 0.997869
1.03272 1.0397 0.995518 0.997752
1.00136 1.02765 0.97638 0.997995
1.01153 1.04375 0.971022 0.998044
1.01172 1.04021 0.974684 0.997877
1.02636 1.03782 0.990815 0.998119
1.01938 1.03211 0.989624 0.998015
1.02616 1.03685 0.991912 0.997756
1.02266 1.02882 0.995965 0.998035
1.02722 1.03292 0.99659 0.99788
1.02984 1.03306 0.999321 0.997561
1.02515 1.0278 0.99953 0.997884
1.02691 1.02942 0.999936 0.997618
1.03011 1.03288 1 0.997319
1.02582 1.02827 1 0.997622
1.02835 1.03113 1 0.997302
1.02744 1.0304 1 0.99713
1.02878 1.03176 1 0.997113
1.02526 1.02824 1 0.997104
1.01599 1.01877 1 0.997268
1.00156 1.00361 1 0.997961
1.01206 1.0148 1 0.997295
1.02178 1.02482 1 0.997032
0.999264 1 1 0.999264
0.999991 1.00191 1 0.998083
1.00748 1.01009 1 0.997415
1 1 1 1
0.999391 1 1 0.999391
0.998871 1.00061 1 0.998263
1 1 1 1
0.99955 1 1 0.99955
1 1 1 1
1.00912 1.0119 1 0.997251
1.00448 1.00691 1 0.997578
1.00243 1.00457 1 0.997865
0.999358 1.00135 1.00001 0.998004
0.999143 1.00045 1.00048 0.998205
0.999378 1 1.00066 0.998719
0.999269 1 1.00079 0.998481
0.999936 1 1.00096 0.998977
1.00015 1 1.00031 0.99984
0.999306 1 1.0001 0.999203
0.999915 1 1 0.999915
1 1 1 1
0.999949 1 1 0.999949
1 1 1 1
1 1 1 1
0.990761 1.01057 0.982037 0.998336
0.943154 0.97853 0.973483 0.990102
0.937091 0.97424 0.978848 0.982654
1.01085 1.01338 1.00001 0.997492
1.02112 1.02406 1 0.997122
1.01235 1.01501 1.00013 0.99725
0.99803 1 1 0.99803
1.00489 1.00674 1.00069 0.99747
1.00225 1.00443 0.999939 0.997885
1.01226 1.01497 1 0.997334
0.997057 1.00095 0.998076 0.998032
0.98744 1.00105 0.988472 0.997911
1.0019 1.0058 0.998717 0.997398
1.01485 1.01901 0.998806 0.9971
1.01012 1.02104 0.991545 0.997746
1.00293 1.00744 0.998101 0.997426
0.998523 1.00262 0.998529 0.997376
0.995901 1.0083 0.989098 0.998589
0.950316 0.983074 0.97705 0.989384
0.995401 1.0067 0.989851 0.998909
1.01737 1.03026 0.989119 0.998358
0.991478 1.00539 0.988883 0.997247
0.947616 0.974772 0.980802 0.991169
0.994611 1.02665 0.970793 0.997937
1.00202 1.01456 0.990042 0.997568
1.0004 1.03536 0.968213 0.997958
1.03375 1.04144 0.994848 0.997761
1.02902 1.04703 0.985013 0.997754
1.05012 1.05921 0.993525 0.997874
1.01479 1.046 0.972071 0.998037
1.01482 1.04025 0.977618 0.997879
1.02939 1.04449 0.987858 0.99766
1.01929 1.03198 0.989672 0.998011
1.02621 1.03628 0.992512 0.997754
1.0321 1.03819 0.996594 0.997526
1.0266 1.03227 0.996601 0.997893
1.03019 1.03331 0.999421 0.997558
1.03301 1.03582 1 0.997293
1.02735 1.02983 0.999971 0.997617
1.02998 1.03274 1 0.997319
1.03035 1.03334 1 0.997109
1.02848 1.03123 1 0.997333
1.02714 1.03009 1 0.997139
1.01805 1.02088 1 0.997224
1.02508 1.02808 1 0.997083
1.01582 1.01861 1 0.997259
1.00348 1.0056 1 0.997889
0.999192 1 1 0.999192
1.00214 1.00419 1 0.99796
1.01165 1.01437 1 0.997319
1 1 1 1
0.999252 1 1 0.999252
1.00067 1.00259 1 0.998082
1 1 1 1
0.999379 1 1 0.999379
1 1 1 1
1.01646 1.01944 1 0.997079
1.00985 1.01266 1 0.997229
1.00616 1.00862 1 0.997559
1.00462 1.00706 1 0.997582
1.00124 1.00337 1 0.997871
0.999018 1.00028 1.00029 0.998452
0.998652 1 1.00044 0.998208
0.999785 1 1.00106 0.998721
0.999928 1 1.00022 0.999703
0.999828 1 1.00085 0.998977
0.999858 1 1 0.999855
1 1 1 1
0.999924 1 1 0.999924
1 1 1 1
1 1 1 1
1.00838 1.02888 0.981821 0.998228
0.988529 1.00952 0.981349 0.997817
0.942003 0.979997 0.970092 0.990865
1.02106 1.02388 1 0.997242
1.01159 1.01396 1 0.997667
1.03461 1.03761 1 0.997103
1.02181 1.02478 1 0.997108
1.01049 1.01304 1.00018 0.997303
1.02931 1.03238 0.999981 0.997051
1.00327 1.00565 0.9998 0.997838
1.01071 1.01347 1 0.997274
1.03291 1.04171 0.994253 0.997284
1.00234 1.0071 0.997799 0.997468
1.01597 1.02016 0.998822 0.997061
1.01031 1.0214 0.991351 0.997769
1.00311 1.00749 0.998247 0.997394
1.00007 1.01027 0.991143 0.998748
1.03921 1.0532 0.988759 0.997937
1.01739 1.03022 0.989163 0.998367
0.991581 1.00409 0.990174 0.997342
1.00051 1.03514 0.968435 0.998048
1.03365 1.04228 0.993934 0.997771
1.02644 1.04673 0.982806 0.997772
1.05038 1.06048 0.992592 0.997872
1.04308 1.05575 0.990216 0.99777
1.01743 1.03993 0.98044 0.997882
1.02956 1.04399 0.988484 0.997668
1.03335 1.04372 0.992508 0.997543
1.02612 1.03569 0.99299 0.997752
1.03165 1.03763 0.996722 0.997507
1.03529 1.03851 0.999643 0.99726
1.03063 1.03365 0.999523 0.997556
1.03304 1.03585 1 0.997291
1.03383 1.03687 1 0.99707
1.02983 1.0326 1 0.99732
1.03025 1.03323 1 0.997112
1.02066 1.02358 1 0.99715
1.02684 1.02977 1 0.997149
1.01821 1.02105 1 0.997228
1.00438 1.00658 1 0.997813
1.01561 1.01841 1 0.997251
1.00371 1.00583 1 0.997887
0.999305 1 1 0.999305
0.999764 1 1 0.999764
0.999244 1 1 0.999244
1.0027 1.00475 1 0.997959
1 1 1 1
0.999241 1 1 0.999241
1 1 1 1
1.04158 1.04454 1 0.997163
1.02682 1.02981 1 0.997098
1.01741 1.0204 1 0.997071
1.01001 1.01266 1 0.997385
1.01075 1.01358 1 0.997208
1.00544 1.0079 1 0.997561
0.999669 1.00145 1 0.998222
1.00001 1.00214 1 0.997877
0.999035 1.00015 1.00043 0.998455
0.999596 1 1.00009 0.999504
1.00051 1 1.00179 0.998723
1.00005 1 1.00033 0.999723
1 1 1 1
0.999869 1 1 0.999869
1 1 1 1
1 1 1 1
1.03608 1.05163 0.987493 0.997689
1.01229 1.03287 0.981735 0.998304
0.986531 1.00962 0.979776 0.997303
1.03294 1.03597 1 0.997082
1.0203 1.02306 1 0.997303
1.01208 1.01427 1 0.997838
1.03358 1.03657 1 0.997121
1.02246 1.02544 1 0.997094
1.04016 1.04681 0.996377 0.997262
1.02601 1.0291 0.999986 0.99701
1.00926 1.01208 1 0.997213
1.03221 1.041 0.99426 0.997279
1.01873 1.02267 0.999118 0.997022
1.01296 1.02467 0.99075 0.997798
1.04324 1.05567 0.990337 0.997865
1.04112 1.05445 0.989386 0.997959
1.0176 1.03028 0.989301 0.998378
1.02499 1.0474 0.980768 0.997789
1.05151 1.06246 0.991802 0.997871
1.04324 1.05675 0.989409 0.99778
1.03726 1.04625 0.993766 0.997621
1.02969 1.04336 0.989193 0.997677
1.03328 1.04321 0.992937 0.997532
1.03745 1.04181 0.998527 0.997284
1.03119 1.03702 0.996877 0.997488
1.036 1.03922 0.999635 0.99726
1.03689 1.03997 1 0.997033
1.03305 1.03585 1 0.997289
1.03387 1.03691 1 0.997071
1.02319 1.0262 1 0.997069
1.03016 1.03314 1 0.997115
1.02095 1.02387 1 0.997152
1.00519 1.0075 1 0.997714
1.01838 1.02121 1 0.997232
1.0046 1.00681 1 0.997812
0.99931 1 1 0.99931
1.00394 1.00607 1 0.997885
0.999301 1 1 0.999301
0.999779 1 1 0.999779
0.999886 1 1 0.999886
0.9993 1 1 0.9993
1 1 1 1
1.03801 1.04104 1 0.997095
1.03272 1.03568 1 0.99714
1.04096 1.04381 1 0.997274
1.017 1.01977 1 0.997276
1.02861 1.03161 1 0.997088
1.01842 1.02142 1 0.997064
1.01018 1.01283 1 0.997381
1.00239 1.00435 1 0.99804
1.00473 1.00718 1 0.997563
0.999222 1.001 1 0.998223
0.999321 1 1 0.999321
0.999046 1.00007 1.00052 0.998459
0.999678 1 1.00016 0.999522
1 1 1 1
0.999836 1 1.00009 0.999743
1 1 1 1
1 1 1 1
1.03935 1.05101 0.991308 0.997576
1.03528 1.0507 0.987618 0.997685
1.01462 1.035 0.981904 0.998371
1.0403 1.0441 0.999186 0.997174
1.03135 1.03437 1 0.997083
1.0196 1.02229 1 0.997364
1.0324 1.03536 1 0.99714
1.03917 1.04586 0.996352 0.997239
1.02258 1.0257 0.999992 0.996969
1.02913 1.03779 0.994364 0.997273
1.03908 1.04891 0.992928 0.997683
1.04242 1.05456 0.990634 0.997826
1.04291 1.05551 0.990062 0.997981
1.03657 1.04371 0.995633 0.997512
1.04306 1.0575 0.988527 0.99779
1.037 1.04624 0.993543 0.997608
1.0387 1.04399 0.997543 0.99738
1.03326 1.04275 0.993359 0.997522
1.03778 1.04219 0.998483 0.997287
1.03817 1.04127 1 0.997021
1.03669 1.03992 0.999628 0.99726
1.03657 1.03965 1 0.997035
1.02499 1.02807 1 0.997006
1.03384 1.03688 1 0.997071
1.02344 1.02644 1 0.99707
1.00586 1.00826 1 0.997613
1.02123 1.02414 1 0.997155
1.00539 1.0077 1 0.997713
0.999286 1 1 0.999286
1.00484 1.00704 1 0.99781
0.999301 1 1 0.999301
0.999783 1 1 0.999783
0.999298 1 1 0.999298
0.999783 1 1 0.999783
1 1 1 1
1.03863 1.04176 1 0.996996
1.0338 1.03687 1 0.997031
1.03926 1.04228 1 0.997104
1.02175 1.02454 1 0.997276
1.03335 1.0363 1 0.997157
1.04047 1.0432 1 0.997385
1.00516 1.00729 1 0.997885
1.01707 1.01986 1 0.997269
1.03049 1.03351 1 0.997077
1.01025 1.01291 1 0.997377
1.00141 1.00337 1 0.998041
0.99921 1 1 0.99921
0.998727 1.0005 1 0.998224
0.999334 1 1 0.999334
1 1 1 1
0.9998 1 1.00026 0.999541
1 1 1 1
1 1 1 1
1.0395 1.04604 0.996302 0.997432
1.03947 1.05151 0.990971 0.99756
1.03564 1.05106 0.987621 0.99768
1.03948 1.04329 0.999162 0.997188
1.02969 1.0327 1 0.997085
1.03853 1.04528 0.996319 0.997216
1.03728 1.04484 0.995241 0.997515
1.03954 1.04896 0.993333 0.997676
1.04166 1.05358 0.990876 0.997788
1.03715 1.04416 0.995744 0.997532
1.04026 1.04475 0.998374 0.997319
1.03674 1.04623 0.993311 0.997595
1.03876 1.04388 0.997746 0.99734
1.03837 1.04182 0.99959 0.997093
1.03803 1.04248 0.998439 0.997289
1.03829 1.04139 1 0.997024
1.02588 1.02901 1 0.996961
1.03641 1.03949 1 0.997036
1.02546 1.02854 1 0.997007
1.00627 1.00876 1 0.997539
1.0238 1.02681 1 0.997072
1.00601 1.00842 1 0.997613
0.999234 1 1 0.999234
1.0056 1.00791 1 0.997712
0.999272 1 1 0.999272
0.999765 1 1 0.999765
0.999295 1 1 0.999295
0.999794 1 1 0.999794
0.999784 1 1 0.999784
1.04056 1.04374 0.999734 0.997224
1.03628 1.03949 1 0.996913
1.03943 1.04266 0.999891 0.99702
1.02419 1.02712 1 0.997153
1.03317 1.03625 1 0.997028
1.04043 1.04344 1 0.997114
1.00627 1.00852 1 0.997774
1.02183 1.02467 1 0.997233
1.03385 1.03678 1 0.997174
0.999165 1 1 0.999165
1.00448 1.0066 1 0.997888
1.01725 1.02004 1 0.997263
1.00043 1.0024 1 0.998043
0.999221 1 1 0.999221
1 1 1 1
0.999348 1 1 0.999348
1 1 1 1
1 1 1 1
1.03674 1.04245 0.997106 0.99741
1.03875 1.04556 0.996048 0.997426
1.03941 1.05177 0.990681 0.997545
1.03865 1.04246 0.999135 0.997202
1.03899 1.04274 0.999119 0.99728
1.03791 1.04524 0.995452 0.997525
1.04002 1.04897 0.993788 0.997669
1.03773 1.04462 0.995843 0.997553
1.03968 1.04437 0.998177 0.99733
1.03887 1.04208 0.999824 0.9971
1.03889 1.04386 0.997935 0.997299
1.03873 1.04201 0.999792 0.997059
1.02594 1.02906 1 0.996966
1.03841 1.04151 1 0.997027
1.02616 1.02929 1 0.996964
1.00612 1.00866 1 0.997477
1.02572 1.0288 1 0.997008
1.00623 1.00871 1 0.997539
0.999054 1 1 0.999054
1.00611 1.00852 1 0.997613
0.999163 1 1 0.999163
1 1 1 1
0.99926 1 1 0.99926
0.999782 1 1 0.999782
0.999801 1 1 0.999801
1.03807 1.04145 0.99945 0.997307
1.03696 1.04007 1 0.997009
1.04022 1.04335 0.999781 0.997218
1.02587 1.02897 1 0.996982
1.03591 1.0391 1 0.996933
1.04032 1.04364 0.999778 0.997043
1.00686 1.00929 1 0.997586
1.02437 1.0273 1 0.997152
1.03261 1.03569 1 0.997024
0.999152 1 1 0.999152
1.00609 1.00838 1 0.99773
1.0219 1.02478 1 0.997191
1 1 1 1
0.999176 1 1 0.999176
1.00376 1.00588 1 0.997891
0.999232 1 1 0.999232
1 1 1 1
1 1 1 1
1.03758 1.04118 0.999243 0.997296
1.03735 1.04305 0.997105 0.997417
1.03793 1.04505 0.995754 0.997421
1.03828 1.04137 1 0.997039
1.03825 1.04225 0.998868 0.997293
1.03851 1.04561 0.995669 0.997536
1.03909 1.04398 0.997964 0.997341
1.03862 1.04204 0.999619 0.997101
1.02438 1.02743 1 0.997029
1.03899 1.04209 1 0.997025
1.02579 1.02889 1 0.996985
1.00569 1.00835 1 0.997358
1.02654 1.02966 1 0.996966
1.00604 1.00858 1 0.997478
0.999006 1 1 0.999006
1.00626 1.00874 1 0.997539
0.999052 1 1 0.999052
1 1 1 1
0.999081 1 1 0.999081
0.999875 1 1 0.999875
0.999795 1 1 0.999795
1.03635 1.03966 0.999559 0.997261
1.03687 1.03992 1 0.997065
1.03837 1.04163 0.999555 0.997314
1.02625 1.02935 1 0.996983
1.03752 1.04064 1 0.996996
1.03991 1.04298 0.999842 0.997212
1.00701 1.00955 1 0.997485
1.0258 1.02886 1 0.99702
1.0355 1.03867 1 0.996954
0.999126 1 1 0.999126
1.00682 1.00927 1 0.997572
1.02455 1.02748 1 0.997152
1 1 1 1
0.999161 1 1 0.999161
1.00595 1.00828 1 0.997686
1 1 1 1
0.999186 1 1 0.999186
1 1 1 1
1.03889 1.04194 0.999986 0.997089
1.0368 1.04041 0.999253 0.997281
1.03797 1.04367 0.997104 0.997423
1.02418 1.02724 1 0.997021
1.03826 1.04144 0.99988 0.997061
1.0376 1.04181 0.998647 0.997305
1.03839 1.04199 0.999441 0.997102
1.02444 1.02749 1 0.997029
1.005 1.00769 1 0.99733
1.02566 1.02875 1 0.997005
1.00562 1.00825 1 0.997391
0.998946 1 1 0.998946
1.0059 1.00844 1 0.997479
0.999003 1 1 0.999003
1 1 1 1
0.999049 1 1 0.999049
1 1 1 1
0.999774 1 1 0.999774
1.03819 1.04123 1 0.997088
1.03594 1.03924 0.999541 0.997283
1.02595 1.02904 1 0.997004
1.03722 1.04027 1 0.997063
1.0387 1.04186 0.999648 0.99732
1.00644 1.00895 1 0.997512
1.02592 1.02902 1 0.99698
1.03805 1.04119 1 0.996983
0.999076 1 1 0.999076
1.00716 1.00967 1 0.997514
1.0257 1.02873 1 0.997058
1 1 1 1
0.999132 1 1 0.999132
1.00677 1.00924 1 0.997558
1 1 1 1
0.999169 1 1 0.999169
1 1 1 1
1.0248 1.02783 1 0.997054
1.0387 1.04177 0.999983 0.997077
1.03598 1.0396 0.999248 0.997267
1.00418 1.00686 1 0.997337
1.02419 1.02725 1 0.997021
1.03817 1.0415 0.999723 0.997083
1.0245 1.02756 1 0.997028
1.00502 1.00771 1 0.997331
0.998906 1 1 0.998906
1.00558 1.00817 1 0.997425
0.998943 1 1 0.998943
1 1 1 1
0.999 1 1 0.999
1 1 1 1
1 1 1 1
1.02585 1.02893 1 0.997009
1.03792 1.04096 0.999958 0.997117
1.03547 1.03873 0.999557 0.997306
1.00577 1.0083 1 0.997496
1.02569 1.02877 1 0.997001
1.03752 1.04058 1 0.997062
0.999025 1 1 0.999025
1.00669 1.0092 1 0.99751
1.02562 1.02873 1 0.996976
1 1 1 1
0.99908 1 1 0.99908
1.00732 1.0098 1 0.997543
1 1 1 1
0.999138 1 1 0.999138
1 1 1 1
1.00404 1.00663 1 0.997425
1.02467 1.02773 1 0.997019
1.03855 1.04161 1 0.997065
0.998911 1 1 0.998911
1.00423 1.00692 1 0.997335
1.02421 1.02727 1 0.997021
1.00504 1.00773 1 0.997332
0.998906 1 1 0.998906
1 1 1 1
0.99894 1 1 0.99894
1 1 1 1
1 1 1 1
1.00481 1.00736 1 0.997466
1.02544 1.0285 1 0.997016
1.03768 1.04076 0.999894 0.997145
0.999145 1 1 0.999145
1.00599 1.00851 1 0.997494
1.02542 1.02851 1 0.996998
1 1 1 1
0.999026 1 1 0.999026
1.00692 1.00943 1 0.997508
1 1 1 1
0.999084 1 1 0.999084
1 1 1 1
0.998908 1 1 0.998908
1.00422 1.00685 1 0.997394
1.02456 1.02766 1 0.996984
1 1 1 1
0.998911 1 1 0.998911
1.00429 1.00697 1 0.997333
0.998904 1 1 0.998904
1 1 1 1
1 1 1 1
0.999099 1 1 0.999099
1.00512 1.00767 1 0.997466
1.02498 1.02804 1 0.997023
1 1 1 1
0.998989 1 1 0.998989
1.00621 1.00874 1 0.997492
1 1 1 1
0.999028 1 1 0.999028
1 1 1 1
0.9997 1 1 0.9997
0.999007 1 1 0.999007
1.00439 1.00704 1 0.997364
1 1 1 1
0.998912 1 1 0.998912
1 1 1 1
0.999717 1 1 0.999717
0.999032 1 1 0.999032
1.00545 1.00801 1 0.997466
0.99986 1 1 0.99986
0.998989 1 1 0.998989
1 1 1 1
1 1 1 1
0.998934 1 1 0.998934
1 1 1 1
0.999856 1 1 0.999856
0.998961 1 1 0.998961
1 1 1 1
1 1 1 1
1 1 1 1

VECTORS lamdaE float
1.00073 1.00015 0.994404
1.00043 1.00059 0.997302
1.00035 1.00036 0.994645
1.00095 0.999984 0.994248
1.00083 0.999965 0.994463
1.00067 1.00036 0.99426
1.00205 1.00048 0.991493
1.00045 1.0005 0.997305
1.00038 1.00019 0.99767
0.999912 1.00084 0.997708
1.00044 1.00051 0.994418
1.0018 1.00128 0.990396
1.00067 0.999992 0.994521
1.00041 0.999992 0.994728
1 1.00058 0.994859
1.00067 0.999965 0.994531
1.00025 1.0007 0.994475
1.00051 1.00003 0.994716
1.00224 1.0003 0.991388
1.00067 1.00001 0.997292
1.00093 1.00003 0.994217
1.00091 0.999924 0.994387
1.00231 1.00005 0.991478
1.0022 1.00013 0.99158
1.00067 1.00043 0.994149
1.00181 1.00102 0.991327
1.00471 1.00039 0.987041
1.00045 1.00045 0.997327
1.00056 1.00007 0.99605
1.00019 1.00061 0.996066
1.00042 1.00038 0.997386
1.0017 1.00142 0.990403
1.00086 0.999827 0.994354
1.00057 1.0003 0.994455
1.0025 1.0001 0.991844
0.999814 1.00028 0.997977
1.00216 1.00081 0.991793
1.00152 1.00168 0.990441
1.00399 1.00152 0.986407
0.999907 0.998926 0.998384
1.00069 0.999996 0.997274
1.0006 1 0.995989
1.00063 0.999984 0.997311
1.00029 1.00003 0.994871
1.00234 0.999977 0.990798
1.00053 0.99996 0.997586
1.0026 1.00006 0.991748
1.00039 0.999903 0.994813
1.00021 1.00007 0.994956
0.999836 1.00108 0.994673
1.00242 1.00012 0.991296
1.00052 1.00004 0.996053
1.00063 1.00005 0.994502
1.00022 1.00085 0.994342
1.00063 0.999904 0.994656
1.00243 1.00002 0.991352
1.00205 1.00076 0.991227
1.00235 1.00003 0.991471
1.00469 1.00042 0.987045
1.0006 1 0.997317
1.00082 1.00005 0.994352
1.00212 1.00001 0.992406
1.00227 1.00008 0.991511
1.00228 1.00002 0.991555
1.00472 1.00009 0.98723
1.00474 1.00009 0.987086
1.00051 1.00025 0.994424
1.00135 1.00186 0.991206
1.00457 1.00074 0.98694
1.00524 1.00027 0.985501
1.00078 1.0001 0.997291
1.00035 1.00025 0.997521
1.00048 1.00046 0.997303
1.00163 1.0015 0.990404
1.00089 0.99996 0.997236
1.00065 1.00029 0.997313
1.00237 1.00005 0.990548
1.00002 1.00017 0.996467
1.00193 1.00086 0.990512
1.00141 1.00187 0.991221
1.00406 1.00139 0.986409
1.00016 0.999573 0.997944
0.99989 1.00131 0.993716
1.00257 0.999949 0.990383
1.00232 1.00028 0.990528
1.00478 1.0002 0.986387
1.00094 1.00219 0.992482
1.00439 1.00081 0.986425
1.00316 1.00281 0.986553
1.00505 1.00119 0.984831
0.999768 0.998253 0.998752
0.999776 0.998789 0.998541
1.00085 0.999985 0.997207
1.00072 0.999994 0.997269
1.00067 0.999988 0.997309
1.00052 1 0.996075
1.00237 0.999965 0.991465
1.00069 0.999967 0.995955
1.00253 1.00007 0.991109
1.00064 0.999993 0.99732
1.00222 0.999902 0.991031
1.0025 1.00005 0.99192
1.00469 0.999575 0.987211
1.0026 0.999987 0.991752
1.00481 0.999802 0.986803
1.00064 1.00001 0.994566
1.00032 1.00005 0.994791
0.999772 1.00131 0.994535
1.00035 0.999859 0.994921
1.00255 1.00002 0.991225
1.0025 0.999943 0.991369
1.00229 1.00047 0.991136
1.00466 1.00045 0.987048
1.00065 0.999994 0.997317
1.00052 1.00005 0.994637
1.00227 0.99998 0.991291
1.00239 1.00006 0.991373
1.0003 1.00065 0.995887
1.00168 1.00165 0.991334
1.00241 0.999967 0.99144
1.00474 1.00003 0.987235
1.00453 1.00078 0.986948
1.00473 1.00019 0.987095
1.00524 1.00026 0.985528
1.0022 0.999946 0.99104
1.00216 1.00004 0.991701
1.0046 0.999528 0.987888
1.0047 0.999847 0.987387
1.00472 0.999982 0.987201
1.00526 0.999366 0.986633
1.00001 1.00031 0.997758
1.00525 0.999903 0.985857
1.00091 1.00264 0.990407
1.00413 1.00124 0.986418
1.00522 1.00071 0.985149
1.0052 0.999361 0.986411
1.00009 1.0027 0.991873
1.00071 1.00496 0.988475
1.00088 0.999987 0.997255
1.00061 1.0003 0.997311
1.00238 1.00004 0.990542
1.00014 0.999896 0.997842
1.00108 1.00224 0.990581
1.00191 1.00087 0.990523
1.00415 1.00125 0.986412
1 0.999462 0.998108
0.999827 1.00133 0.993758
1.00258 0.999986 0.991088
1.00232 1.00032 0.991191
1.00478 1.0002 0.986373
1.00062 1.00235 0.991315
1.00442 1.00076 0.986421
1.00324 1.00269 0.986543
1.00511 1.0011 0.984859
1.00013 1.00223 0.992393
0.999887 1.00027 0.994755
1.00077 1.00443 0.989363
1.00483 1.00006 0.986457
1.00464 1.00041 0.986384
1.00526 0.99993 0.985844
1.00211 1.00408 0.987119
1.00516 1.00068 0.985213
1.0047 1.00186 0.984845
1.00519 1.00103 0.984782
0.999764 0.997812 0.998947
0.999728 0.998153 0.998833
0.999696 0.998603 0.998671
0.999968 1.00203 0.992738
0.999836 0.999874 0.998056
1.00091 0.999966 0.997212
1.00076 0.999994 0.997235
1.00242 1.00009 0.990502
1.00227 0.999966 0.990872
1.00064 0.999989 0.997303
1.00062 0.99999 0.997318
1.0022 0.999912 0.991026
1.00243 1.00004 0.991287
1.00468 0.999575 0.987212
1.00249 1.00002 0.990413
1.00479 0.999805 0.986799
1.00217 0.999914 0.991076
1.00465 0.999509 0.987337
1.00474 0.999669 0.987034
1.00522 0.998205 0.987775
1.00484 0.999942 0.986593
1.0053 0.998739 0.987122
1.00062 0.999993 0.997314
1.00021 1.00008 0.994922
1.00228 0.999978 0.990297
1.00252 1.00006 0.991234
0.999731 1.0011 0.997697
1.00209 1.00127 0.991463
1.00254 0.99994 0.991327
1.00476 0.999955 0.987239
1.00472 1.00027 0.987104
1.00449 1.00084 0.986955
1.00523 1.00026 0.985555
1.00218 0.999936 0.991041
1.00229 1.00004 0.991561
1.00463 0.999513 0.987578
1.00472 0.999929 0.987353
1.00013 1.00037 0.997649
1.00113 1.00238 0.991153
1.00401 1.00154 0.986656
1.00473 1.00002 0.987168
1.00527 0.999152 0.986798
1.00521 1.00067 0.985177
1.00525 0.999958 0.98592
1.0052 0.999363 0.986437
1.00018 1.00257 0.991855
1.00085 1.00485 0.988479
1.00461 0.999561 0.987345
1.00463 0.999712 0.987685
1.00524 0.998557 0.987507
1.00528 0.998654 0.987212
1.00525 0.999439 0.986503
1.00522 0.997648 0.988252
1.00047 1.00287 0.99101
1.00521 0.9986 0.987183
1.00324 1.00253 0.986582
1.00518 1.00105 0.984768
1.0052 1.00034 0.98558
1.00518 0.997975 0.987934
1.00135 1.00475 0.987693
1.00051 1.00453 0.989353
1.00183 1.00475 0.987176
1.00248 0.999972 0.990464
0.999835 0.999338 0.998287
0.999788 1.00122 0.993799
1.00217 1.00036 0.990579
1.00478 1.0002 0.986357
1.00054 1.00249 0.991265
1.00326 1.00257 0.986532
1.00445 1.00072 0.986418
1.00515 1.00101 0.984887
1.00009 1.00218 0.992409
0.999886 1.00016 0.994801
1.00053 1.00453 0.989351
1.00482 1.00008 0.986439
1.00465 1.00041 0.986373
1.00527 0.999939 0.985823
1.0022 1.00393 0.987124
1.0052 1.0007 0.985169
1.00474 1.0018 0.984843
1.00521 1.00089 0.984843
0.999958 0.999489 0.995386
1.00138 1.00457 0.988056
1.00045 1.00332 0.990784
1.00124 1.00475 0.988146
1.00527 0.999521 0.986278
1.00524 1.00032 0.985458
1.00521 0.998902 0.986876
1.00378 1.00297 0.985435
1.00521 1.00009 0.985825
1.00499 1.0015 0.984734
1.00518 1.00056 0.98522
1.00025 1.0009 0.993496
1.0002 0.998605 0.995826
0.999819 0.997513 0.999039
0.99975 0.99776 0.998985
0.999702 0.99806 0.998899
0.999992 1.00116 0.993572
0.999766 0.999309 0.998312
1.00004 1.00199 0.992717
0.999941 0.999958 0.997947
1.00249 1.00005 0.990414
1.00235 1.00003 0.990686
1.00477 0.999808 0.986795
1.00467 0.999579 0.987212
1.00222 0.999926 0.991025
1.00066 0.999983 0.997315
1.00219 0.999911 0.991078
1.00464 0.999517 0.987339
1.00473 0.999677 0.987031
1.00523 0.998215 0.987763
1.00482 0.999953 0.986578
1.00529 0.998739 0.987107
1.00461 0.999521 0.98738
1.00521 0.99809 0.987925
1.00527 0.998428 0.987483
1.00524 0.995876 0.990085
1.00529 0.999109 0.98672
1.00525 0.996998 0.9889
1.00219 0.999929 0.991047
1.00242 1.00002 0.99142
1.00465 0.999483 0.98727
1.00475 1 0.987318
1.00023 1.00047 0.99754
1.00142 1.00216 0.991733
1.00399 1.00177 0.986891
1.00474 1.00005 0.987136
1.00527 0.998935 0.986963
1.00525 1.00002 0.985982
1.0052 1.00064 0.985206
1.0052 0.999362 0.986463
1.00025 1.0025 0.99184
1.00099 1.00476 0.988481
1.00462 0.999457 0.987391
1.00465 0.999691 0.987664
1.00524 0.998378 0.98772
1.00528 0.998886 0.987022
1.00056 1.00275 0.991
1.00325 1.00261 0.986587
1.00515 1.0011 0.984763
1.00525 0.999569 0.986393
1.00522 0.997386 0.988535
1.0052 1.00024 0.985686
1.00521 0.9986 0.987197
1.00518 0.997908 0.987922
1.00143 1.00468 0.987688
1.00162 1.00467 0.987176
1.00059 1.00446 0.989361
1.00522 0.998378 0.987717
1.00526 0.998497 0.98757
1.00524 0.996346 0.989602
1.00523 0.996982 0.988881
1.00522 0.997706 0.988008
1.00518 0.995837 0.990022
1.00234 1.00371 0.987039
1.00518 0.996908 0.98877
1.00493 1.00162 0.984809
1.0052 1.0012 0.984548
1.00517 0.999324 0.986535
1.00513 0.996988 0.988902
1.00023 1.00405 0.990365
1.00268 1.00383 0.986417
1.00094 1.00508 0.987929
1.00303 1.00371 0.986409
1.00481 1.00009 0.98642
0.999889 1.00005 0.994847
0.999965 1.00228 0.992429
1.0003 1.00469 0.98934
1.00467 1.00039 0.986362
1.00527 0.999948 0.985803
1.00223 1.00379 0.987134
1.00483 1.00177 0.984843
1.00522 1.00074 0.985124
1.00521 1.00076 0.984904
0.999972 0.999383 0.995423
1.00123 1.00467 0.988069
1.00031 1.00347 0.9908
1.00109 1.00483 0.988148
1.00527 0.99953 0.986259
1.00525 1.00033 0.985436
1.00521 0.998901 0.986866
1.00383 1.00286 0.98544
1.00521 1.00017 0.985714
1.00503 1.00134 0.984739
1.00517 1.00051 0.985356
1.00012 0.998873 0.995706
1.00034 1.00225 0.992027
1.00248 1.0039 0.986788
1.00062 1.00477 0.989365
1.00205 1.00393 0.987722
1.00523 0.998268 0.987527
1.00521 0.999497 0.986252
1.00517 0.997855 0.987817
1.00437 1.0017 0.985321
1.00515 0.999505 0.986388
1.00462 1.00141 0.985035
1.0003 1.00101 0.993302
1.00032 1.00231 0.992013
1.00016 1.0009 0.99366
1.00024 1.00091 0.993492
1.0002 0.998425 0.996531
1.00019 0.99858 0.996151
0.999987 0.997278 0.997817
0.999824 0.997471 0.999045
0.999741 0.997695 0.999012
0.999856 1.00044 0.994498
0.999769 0.998755 0.998577
1.00001 1.00118 0.993551
0.999846 0.999424 0.998225
1.00012 1.00185 0.992694
1.00005 1.00004 0.997833
1.00481 0.999962 0.986564
1.00472 0.999682 0.987028
1.00529 0.998758 0.987092
1.00524 0.998225 0.987751
1.00463 0.999526 0.987341
1.00218 0.999905 0.991077
1.00461 0.999521 0.987381
1.00521 0.998093 0.987923
1.00527 0.998446 0.987466
1.00523 0.995833 0.990147
1.00528 0.999115 0.986705
1.00525 0.997 0.988884
1.0052 0.998083 0.987942
1.00523 0.995622 0.990459
1.00526 0.996341 0.989573
1.00523 0.994961 0.990854
1.00523 0.997658 0.988205
1.00522 0.99545 0.990192
1.00462 0.999355 0.987438
1.00468 0.999683 0.987644
1.00523 0.998214 0.987932
1.00528 0.999123 0.986833
1.00066 1.00266 0.990993
1.00311 1.00282 0.986595
1.00512 1.00117 0.984757
1.00526 0.9997 0.986284
1.00521 0.997123 0.988817
1.00521 0.998601 0.987211
1.0052 1.00014 0.985791
1.00517 0.99784 0.987909
1.00153 1.00458 0.987681
1.00156 1.00464 0.987177
1.00066 1.00437 0.98937
1.00521 0.998278 0.987797
1.00526 0.998489 0.987559
1.00524 0.996095 0.989868
1.00523 0.997135 0.988745
1.0023 1.00383 0.987033
1.00485 1.00167 0.984815
1.00519 1.00126 0.984494
1.00523 0.997978 0.987756
1.00519 0.995613 0.99018
1.00517 0.999287 0.98648
1.00517 0.996938 0.988772
1.00515 0.996845 0.989004
1.00285 1.00368 0.986411
1.00287 1.00377 0.986315
1.00031 1.00391 0.990377
1.0008 1.00507 0.98806
1.00523 0.995721 0.990289
1.00524 0.996687 0.989195
1.00523 0.99522 0.990724
1.00519 0.99514 0.990598
1.00519 0.996098 0.989538
1.00519 0.995199 0.990546
1.00425 1.00221 0.985418
1.00515 0.995589 0.989923
1.00515 1.00199 0.984027
1.00513 1.00089 0.984855
1.00517 0.9987 0.986913
1.00516 0.996878 0.988983
1.00014 1.00304 0.991459
1.00044 1.00507 0.988821
1.004 1.00246 0.985624
1.00136 1.00504 0.987557
1.0036 1.00319 0.986186
0.99998 0.999292 0.995458
1.00527 0.999538 0.98624
1.00019 1.00361 0.990816
1.0011 1.00472 0.98808
1.00095 1.00486 0.988149
1.00526 1.00033 0.985414
1.0052 0.9989 0.986857
1.00404 1.00251 0.985441
1.00515 1.00121 0.984744
1.0052 1.00025 0.985604
1.00517 1.00046 0.985491
1.00012 0.998841 0.995728
1.00026 1.00232 0.992053
1.0025 1.00387 0.986786
1.00038 1.00482 0.989358
1.00183 1.00387 0.987716
1.00522 0.998261 0.987519
1.0052 0.999489 0.986242
1.00517 0.997823 0.987795
1.00465 1.00156 0.985328
1.00515 0.999553 0.986246
1.00483 1.0014 0.985032
1.00034 1.00142 0.992887
1.00037 1.00382 0.990648
1.00353 1.00218 0.986442
1.00077 1.00504 0.988976
1.00246 1.0025 0.988361
1.00519 0.997122 0.988588
1.00516 0.998596 0.987036
1.00519 0.997021 0.988242
1.00411 1.00113 0.985923
1.00493 1.00024 0.985604
1.00031 1.001 0.993301
1.00033 1.00227 0.991933
1.0002 1.00244 0.991975
1.00041 1.00276 0.991584
1.00022 1.00241 0.99208
1.00008 1.00092 0.993761
1.00015 1.00089 0.993663
1.00019 0.998369 0.996597
1.00023 1.00093 0.993488
1.0002 0.998444 0.996541
1.00007 0.997074 0.997863
1.00018 0.998577 0.996469
0.999936 0.997269 0.998443
0.999834 0.997412 0.999052
0.99984 0.999592 0.995378
0.999879 1.00049 0.994468
0.999715 0.9982 0.998855
0.999817 0.998852 0.998477
1.00004 1.00121 0.993529
0.999929 0.999515 0.998128
1.00528 0.99912 0.986691
1.00528 0.998446 0.987449
1.00526 0.996997 0.988868
1.00522 0.995807 0.990209
1.00521 0.998098 0.987922
1.00461 0.999522 0.987382
1.0052 0.998087 0.987944
1.00523 0.995591 0.990474
1.00525 0.996334 0.989576
1.00524 0.994955 0.990888
1.00524 0.997644 0.988187
1.00522 0.99543 0.990245
1.00523 0.995599 0.990488
1.00525 0.994955 0.99094
1.00522 0.995002 0.990737
1.00521 0.994935 0.99092
1.0052 0.996302 0.989423
1.00521 0.99495 0.990615
1.00521 0.998173 0.987877
1.00526 0.998495 0.987549
1.00525 0.995842 0.990135
1.00523 0.997282 0.988608
1.00229 1.00392 0.987029
1.00481 1.0017 0.984822
1.00518 1.00125 0.984439
1.00523 0.99825 0.987504
1.00519 0.995391 0.990339
1.00517 0.996967 0.988774
1.00517 0.999258 0.986426
1.00516 0.996701 0.989106
1.00282 1.00366 0.986406
1.00251 1.00381 0.986222
1.0004 1.00381 0.990388
1.00068 1.00506 0.988192
1.00523 0.99573 0.990282
1.00525 0.996797 0.989104
1.00522 0.99509 0.990837
1.00519 0.99514 0.9906
1.00401 1.00261 0.985397
1.00504 1.002 0.983997
1.00513 1.00085 0.984835
1.00519 0.996319 0.989346
1.00519 0.995089 0.990603
1.00515 0.99874 0.986884
1.00517 0.995597 0.989915
1.00516 0.99662 0.989132
1.00407 1.00234 0.985628
1.00339 1.00312 0.986206
1.00133 1.00504 0.987556
1.00014 1.00303 0.991412
1.00032 1.00503 0.988942
1.00523 0.994954 0.990979
1.00518 0.995039 0.990864
1.00519 0.994929 0.990685
1.00518 0.995123 0.990438
1.0049 1.00206 0.984644
1.00519 0.995384 0.990143
1.00509 1.00215 0.983648
1.00511 1.00059 0.985035
1.00514 0.998579 0.986967
0.999973 1.00192 0.992612
1.00013 1.00475 0.98991
1.00083 1.00503 0.988603
1.0047 1.00206 0.985313
1.00168 1.00506 0.986681
1.00394 1.0028 0.985188
1.00012 0.998814 0.99575
1.0002 1.00238 0.992079
1.00522 0.998255 0.98751
1.0001 1.00488 0.989349
1.00234 1.00409 0.986786
1.00161 1.00384 0.987708
1.0052 0.999483 0.986232
1.00517 0.997792 0.987774
1.00485 1.00141 0.985334
1.00505 1.00142 0.985029
1.00515 0.999593 0.986104
1.00031 1.0014 0.9929
1.00015 1.00397 0.990648
1.00375 1.0022 0.986261
1.00053 1.00505 0.988961
1.00232 1.0023 0.988489
1.00519 0.997101 0.988577
1.00515 0.99861 0.987013
1.00519 0.997065 0.98826
1.00443 1.00107 0.985811
1.00496 1.00036 0.985604
1.00034 1.00278 0.991601
0.999763 1.00473 0.990154
1.00421 1.0005 0.986859
1.00072 1.00426 0.989254
1.00325 1.00069 0.988447
1.00519 0.995857 0.989533
1.00517 0.99855 0.98693
1.00518 0.997115 0.988018
1.00447 1.00066 0.985994
1.00497 1.00023 0.985641
1.00031 1.00098 0.993299
1.00033 1.0023 0.991951
1.00011 1.0028 0.991714
1.00011 1.00253 0.991939
1.00016 1.0025 0.992071
1.00019 1.00293 0.991583
1.00014 1.00275 0.991931
1.00008 1.00328 0.991264
1.00011 1.00253 0.992156
1.00003 1.00105 0.993726
1.00007 1.00092 0.99376
1.00015 0.998397 0.996641
1.00014 1.00086 0.993667
1.0002 0.998387 0.996604
1.00011 0.996955 0.997897
1.00021 0.998448 0.996553
1.00005 0.997058 0.997869
0.999876 0.997248 0.999084
0.999896 0.998904 0.995997
0.999829 0.999702 0.995332
0.999697 0.997783 0.999033
0.999901 1.00055 0.99444
0.999761 0.998335 0.998763
0.999872 0.998954 0.998386
1.00524 0.997628 0.988168
1.00524 0.996334 0.989578
1.00522 0.995407 0.990297
1.00524 0.994931 0.990922
1.00522 0.995568 0.990488
1.0052 0.998091 0.987946
1.00522 0.995597 0.990467
1.00525 0.994961 0.99094
1.00522 0.994986 0.990802
1.00522 0.994934 0.990885
1.00521 0.996308 0.989429
1.00521 0.994944 0.990634
1.00525 0.994955 0.990993
1.00522 0.994941 0.990959
1.00522 0.994925 0.990791
1.00521 0.995194 0.990337
1.00524 0.995739 0.990276
1.00525 0.996897 0.989012
1.00522 0.994956 0.990951
1.00518 0.995141 0.990602
1.00389 1.00284 0.985376
1.00499 1.00202 0.983965
1.00514 1.00083 0.984817
1.00518 0.996541 0.989153
1.00519 0.994982 0.990659
1.00518 0.995616 0.989906
1.00514 0.998774 0.986854
1.00516 0.99634 0.989279
1.00401 1.00231 0.985632
1.00331 1.00277 0.986223
1.00125 1.00504 0.987554
1.00016 1.00295 0.99137
1.00027 1.00495 0.989064
1.00524 0.994949 0.990974
1.00519 0.99512 0.990761
1.00519 0.99493 0.990705
1.00463 1.00229 0.984636
1.00495 1.00227 0.983661
1.0051 1.00053 0.985026
1.00518 0.995181 0.990399
1.00516 0.998307 0.987298
1.00516 0.995472 0.990024
1.00002 1.00175 0.992789
1.0045 1.00193 0.985245
1.00349 1.00252 0.986171
1.00188 1.00507 0.986709
1.0008 1.00504 0.988732
1.00011 1.00472 0.989809
1.0052 0.994944 0.990978
1.00521 0.994926 0.990768
1.0052 0.994906 0.990633
1.00515 0.99496 0.990599
1.00507 1.00259 0.984034
1.00512 0.9965 0.988948
1.00492 1.00214 0.983686
1.00505 1.00097 0.98476
1.00008 1.00055 0.993883
0.999966 1.00371 0.991198
1.00036 1.00504 0.989442
1.00141 1.00503 0.987466
1.00469 1.0028 0.983803
1.00343 1.00417 0.984888
1.00027 1.00138 0.992913
0.999977 1.00407 0.99065
1.00519 0.997081 0.988566
1.00026 1.00505 0.988948
1.00399 1.00216 0.986079
1.00191 1.00228 0.98862
1.00515 0.998623 0.986991
1.00519 0.997123 0.988276
1.00474 1.00104 0.985697
1.00501 1.00048 0.985604
1.00025 1.00284 0.991609
0.999924 1.00477 0.990024
1.00455 1.00045 0.986757
1.00047 1.00452 0.989308
1.00308 1.00047 0.988801
1.0052 0.995838 0.989671
1.00517 0.998478 0.98707
1.00519 0.997248 0.988002
1.0045 1.00081 0.985967
1.00499 1.00036 0.985421
0.999781 1.00344 0.991329
0.99984 1.00505 0.989501
1.00443 0.999643 0.987125
1.00203 1.00187 0.988618
1.00524 0.994976 0.990165
1.00518 0.996412 0.989304
1.00502 0.999435 0.986084
1.00483 1.00015 0.985655
1.00036 1.00227 0.991969
1.00018 1.00279 0.991709
0.999776 1.0031 0.992315
1.00009 1.00261 0.992061
0.999979 1.00309 0.991583
1.00008 1.00256 0.992147
0.999998 1.00274 0.992089
1.00012 1.00331 0.991264
0.999941 1.0019 0.993076
1.00001 1.00356 0.99128
1.00006 1.00359 0.991007
1.0001 1.0026 0.992088
0.999987 1.00124 0.993559
1.00001 1.00104 0.993723
1.00008 0.998462 0.996683
1.00006 1.0009 0.99376
1.00015 0.998424 0.996646
1.0001 0.99694 0.997918
1.0002 0.998407 0.996613
1.0001 0.996938 0.997902
1.00003 0.997052 0.997869
1 0.998385 0.996355
0.999899 0.998978 0.995949
0.999733 0.997426 0.999138
0.999817 0.999819 0.995284
0.999725 0.997854 0.998987
0.999823 0.998414 0.998647
1.00521 0.996315 0.989436
1.00522 0.99497 0.990866
1.0052 0.994931 0.990653
1.00523 0.994931 0.990849
1.00525 0.994958 0.99094
1.00522 0.995591 0.990447
1.00525 0.994958 0.990968
1.00523 0.994943 0.99095
1.00522 0.994927 0.990787
1.0052 0.995164 0.990407
1.00523 0.994954 0.990977
1.00525 0.99493 0.990835
1.00525 0.994906 0.990624
1.00524 0.994942 0.990968
1.00519 0.995201 0.990658
1.00519 0.994932 0.990726
1.00441 1.00247 0.984629
1.00482 1.00237 0.98367
1.0051 1.00045 0.985017
1.00517 0.995229 0.99036
1.00513 0.995487 0.989905
1.00516 0.998022 0.987629
1.00439 1.00188 0.985172
1.00294 1.00233 0.987145
1.00219 1.00508 0.986737
1.00006 1.00159 0.992968
1.00061 1.00504 0.98886
1.00006 1.00474 0.989705
1.0052 0.994938 0.990977
1.0052 0.994922 0.990755
1.00519 0.994905 0.990638
1.00474 1.00261 0.984075
1.00499 1.00214 0.98358
1.00504 1.00073 0.985088
1.00515 0.994937 0.99055
1.00511 0.996486 0.988875
1.00009 1.00048 0.994074
0.999977 1.0037 0.991185
1.0044 1.00249 0.984121
1.00309 1.00419 0.985704
1.00134 1.00503 0.987732
1.00032 1.00504 0.989346
1.00523 0.994931 0.990859
1.00524 0.994887 0.990515
1.00517 0.994905 0.990616
1.00509 0.994936 0.990397
1.00479 1.0032 0.982846
1.00497 0.999515 0.986228
1.00489 1.00276 0.983453
1.00024 0.999896 0.994533
1.0003 1.00105 0.993343
0.99999 1.00203 0.992681
1.00009 1.00465 0.99003
1.00057 1.00504 0.988596
1.00118 1.00471 0.987131
1.00418 1.0028 0.984401
1.00338 1.00395 0.986369
1.00014 1.00297 0.991616
1.00006 1.00487 0.989893
1.00521 0.995816 0.989808
1.00054 1.00452 0.989357
1.00487 1.00046 0.986658
1.00286 1.00031 0.989148
1.00517 0.998384 0.987213
1.00519 0.997344 0.98799
1.00463 1.00092 0.985941
1.00496 1.00044 0.985202
0.999888 1.00352 0.991203
0.999989 1.00505 0.989527
1.00471 0.999663 0.987232
1.00229 1.00201 0.988706
1.00525 0.994978 0.990228
1.00518 0.996367 0.989153
1.00502 0.999377 0.986167
1.00491 1.00028 0.985542
0.999757 1.004 0.990895
1.00527 0.994877 0.990338
1.00162 1.00419 0.988517
1.00431 1.00004 0.987208
1.0052 0.995332 0.990324
1.00505 0.998234 0.986263
1.00478 1.00131 0.985036
1.0002 1.00283 0.991703
0.999746 1.00302 0.992246
0.999325 1.00271 0.993606
1.00007 1.00254 0.992138
1.00014 1.00334 0.991265
0.999587 1.00301 0.992247
1.00009 1.0026 0.992077
0.999983 1.00366 0.99103
0.999546 1.00213 0.993262
1.00013 1.00341 0.99126
0.999837 1.00091 0.994693
0.99969 1.00277 0.992557
1.00007 1.00438 0.990294
1.00032 1.00356 0.990699
1.00009 1.00288 0.991795
0.999933 1.00157 0.993322
0.999948 1.00133 0.993545
0.999999 0.998633 0.996684
0.999988 1.00109 0.99372
1.00008 0.998512 0.99668
1.00005 0.996957 0.997964
1.00016 0.998453 0.996652
1.0001 0.996919 0.99792
1.00009 0.996923 0.997903
1.00019 1.00002 0.994519
1.00009 0.998084 0.99652
1.00001 0.998435 0.996329
0.999816 0.997092 0.999196
0.999898 0.99906 0.995901
0.999748 0.997495 0.999112
0.999758 0.997955 0.998937
1.0052 0.99514 0.990475
1.00521 0.99493 0.990783
1.00523 0.994945 0.990942
1.00525 0.994965 0.990943
1.00523 0.994956 0.990973
1.00524 0.994933 0.990847
1.00524 0.994904 0.990596
1.00524 0.994939 0.990889
1.0053 0.994918 0.990651
1.0053 0.994935 0.991102
1.00521 0.994933 0.990975
1.00519 0.994919 0.990742
1.00519 0.994903 0.990643
1.00432 1.00269 0.984118
1.00506 1.00225 0.983484
1.00494 1.00056 0.985416
1.00516 0.994937 0.990502
1.00511 0.99657 0.988803
1.00431 1.00253 0.984449
1.0028 1.00425 0.986523
1.0011 1.00502 0.987998
1.00009 1.00034 0.994264
1.0001 1.00361 0.991174
1.00033 1.00504 0.989248
1.00523 0.994931 0.990851
1.0002 0.999935 0.994528
1.00024 1.00111 0.99325
1.00524 0.994896 0.990528
1.00516 0.9949 0.990626
1.00494 1.00319 0.982869
1.00479 1.0026 0.983559
1.00495 0.999386 0.986149
1.0051 0.995066 0.990324
1.00004 1.00198 0.992871
1.00011 1.00467 0.989996
1.00439 1.00324 0.984034
1.00251 1.0038 0.987151
1.00135 1.0048 0.987419
1.00062 1.00503 0.98866
1.00528 0.994927 0.990622
1.00524 0.994815 0.990526
1.00512 0.994897 0.990325
1.00479 0.995286 0.990261
1.00435 1.00357 0.983405
1.00431 1.00296 0.984205
1.00007 1.00157 0.992942
1.00029 1.00094 0.993435
1.00064 1.00119 0.992802
1.00034 1.00285 0.991294
1.00023 1.00495 0.989527
1.00186 1.00428 0.987817
1.00039 1.00519 0.987777
1.00346 1.00079 0.986775
1.00002 1.00351 0.991078
1.00024 1.00504 0.989555
1.00526 0.994975 0.990291
1.00518 0.996371 0.989003
1.00258 1.00218 0.988796
1.00487 0.999641 0.987342
1.00501 0.999346 0.986247
1.00505 1.00043 0.98543
0.999975 1.00391 0.990827
1.00528 0.99488 0.990532
1.00138 1.00426 0.988541
1.00448 1.00009 0.986962
1.0052 0.995312 0.990333
1.00504 0.99841 0.986532
1.00474 1.00119 0.985088
1.00014 1.00461 0.990244
1.00464 0.994871 0.9914
1.00296 1.00264 0.987748
1.00444 1.00124 0.985743
1.00483 0.996805 0.989446
1.00355 1.00175 0.985679
0.998548 0.997698 0.988029
0.999639 1.00305 0.992179
0.999012 1.0029 0.993582
0.999569 1.00225 0.993958
1.00003 1.00265 0.992065
0.999952 1.00373 0.991054
1.00036 1.00316 0.991242
0.999301 1.0022 0.99345
1.00007 1.0029 0.991793
1.00023 1.00368 0.990716
0.999782 1.001 0.9944
1.00008 1.00439 0.99031
0.999893 1.00269 0.992334
0.999402 1.00161 0.994615
1.00037 1.00472 0.989646
1.00011 1.00439 0.990352
1.00047 1.0038 0.990275
1.00011 1.00322 0.991247
1.00025 1.00385 0.99078
1.00011 1.00333 0.991098
0.99994 1.00165 0.993217
0.999953 1.00155 0.993307
0.999921 0.99877 0.996099
0.99996 1.00131 0.993529
0.999994 0.998694 0.996371
1.00001 0.99707 0.999128
1.00009 0.998558 0.996677
1.00007 0.996926 0.997966
1.00011 0.996897 0.997917
1.0001 1.00004 0.994583
1.00021 0.999935 0.994537
1.00009 0.998003 0.996628
1.00007 0.998106 0.996781
0.999891 0.996917 0.99923
1 0.998475 0.996303
0.999812 0.997195 0.999182
0.999766 0.997549 0.999087
1.00522 0.994903 0.990567
1.00524 0.994934 0.990859
1.00523 0.994957 0.990969
1.00524 0.994939 0.990889
1.00529 0.994918 0.990656
1.00529 0.994933 0.990741
1.00532 0.994921 0.990683
1.00124 0.994889 0.984365
1.00445 0.994903 0.992912
0.999998 1.00148 0.99332
1.00523 0.99493 0.990843
1.00524 0.994903 0.990541
1.00515 0.994894 0.990637
1.00475 1.003 0.982882
1.00499 1.00246 0.983663
1.005 0.999342 0.986075
1.00509 0.995207 0.990249
1.00488 1.00322 0.983664
1.00164 1.00367 0.987927
1.00148 1.0049 0.98771
1.00014 1.00004 0.994524
1.00069 1.00502 0.988723
1 1.00193 0.993055
1.00022 1.00462 0.989962
1.00024 1.00107 0.993157
1.00528 0.994911 0.990617
1.00009 1.00152 0.993054
1.00018 1.0011 0.993437
1.00055 1.00117 0.992872
1.00524 0.994837 0.990492
1.00513 0.994897 0.990348
1.0041 1.00381 0.98348
1.00451 1.00205 0.984819
1.00474 0.995841 0.99015
1.00005 1.00305 0.991454
1.00038 1.00489 0.98939
1.00338 1.00212 0.986598
1.00107 1.00499 0.987731
1.00159 1.00408 0.987971
1.00524 0.994881 0.990832
1.00513 0.994826 0.99076
1.00506 0.995188 0.989955
1.00453 0.997727 0.989492
1.00226 1.00343 0.987317
0.999886 1.00269 0.992105
1.00067 1.00119 0.99235
0.999911 1.00209 0.99242
1.00003 1.00442 0.991175
1.00026 1.00477 0.989696
1.00033 1.00457 0.988768
1.00158 1.00219 0.988717
1.00029 1.00378 0.990756
1.00098 1.00432 0.988564
1.0053 0.994872 0.990716
1.0052 0.995257 0.990337
1.00502 0.998603 0.986801
1.00455 1.00011 0.986713
1.0047 1.00102 0.985144
1.00036 1.00453 0.990268
1.00457 0.994868 0.991574
1.00292 1.00244 0.987564
1.00446 1.00114 0.985757
1.00493 0.996108 0.989721
1.00372 1.00191 0.985728
0.998581 0.997856 0.98599
1.00049 1.00432 0.990026
1.00256 0.998924 0.990997
1.00327 1.0016 0.987176
1.0027 1.00135 0.987385
1.00313 0.997841 0.990441
0.999993 0.994915 0.949355
0.996654 0.994839 0.968511
0.995972 1.00118 0.988246
0.999814 0.994821 0.879535
0.994703 0.994791 0.848122
0.998764 1.0031 0.993562
0.998921 1.00271 0.994221
0.999113 1.00289 0.994169
1.00006 1.00291 0.991792
1.00031 1.00352 0.990731
1.00009 1.00436 0.990327
1.00009 1.00259 0.992107
0.999719 1.0011 0.994107
1.00019 1.00427 0.990295
1.00011 1.00321 0.991331
1.00043 1.00379 0.99033
0.999585 1.00121 0.994294
1.00019 1.00463 0.989919
1.00025 1.0046 0.990054
0.999524 1.00469 0.990732
1.00007 1.00463 0.990152
1.00045 1.00407 0.989933
1.00019 1.00323 0.991115
1.00033 1.00417 0.990148
1.00025 1.00392 0.990675
0.999906 1.00401 0.990923
1.00018 1.00393 0.990696
1.00016 1.00313 0.991459
1.00014 1.00333 0.991089
0.999979 1.00161 0.993212
0.999958 1.00164 0.993219
0.999904 0.998862 0.996082
0.99994 1.0016 0.993294
0.999917 0.998801 0.996092
0.999984 0.997066 0.999146
0.999984 0.998763 0.996058
1.00001 0.997063 0.99854
1.00008 0.996895 0.997966
1.00002 1.00004 0.994721
1.00012 1.00003 0.994587
1.0001 0.997907 0.996725
1.00023 0.999853 0.994554
1.00009 0.997944 0.996889
0.999936 0.996741 0.999263
1.00006 0.998173 0.996499
0.999879 0.996979 0.999216
0.999814 0.99724 0.999169
1.00528 0.994917 0.99066
1.00524 0.994938 0.990888
1.00529 0.994933 0.990388
1.00085 0.994884 0.984489
1.00531 0.994919 0.990689
1.0043 0.995253 0.992539
1.00503 0.996324 0.991253
0.996444 0.994896 0.967766
1.00046 0.996759 0.986706
1.00005 1.00138 0.993371
1.00007 1.00144 0.993299
0.999849 1.0027 0.992328
0.999869 1.00229 0.992712
1.00528 0.994904 0.990612
1.00525 0.994862 0.990459
1.00514 0.994897 0.990372
1.00477 1.00368 0.983551
1.0044 1.00069 0.985426
1.00466 0.996345 0.990034
1.00294 1.00339 0.986437
1.00195 1.00478 0.987684
1.0014 1.00375 0.988123
1.00006 1.00135 0.993439
1.00032 1.00502 0.989251
1.00008 1.00318 0.991614
1.0001 1.00154 0.993165
1.00041 1.00115 0.992931
1.00525 0.994872 0.990838
1.00002 1.00267 0.992122
1.00072 1.00118 0.992536
0.999406 1.00196 0.993483
1.00514 0.994824 0.990659
1.005 0.995254 0.989964
1.00307 1.0024 0.987257
1.00422 0.997234 0.989946
1.0002 1.00395 0.990886
1.00039 1.00488 0.989086
1.00176 1.00327 0.988568
1.00141 1.00419 0.988462
1.00444 0.994788 0.991792
1.00497 0.995338 0.990872
1.00493 0.995935 0.989707
1.0024 0.998752 0.992022
0.999417 1.00371 0.991939
1.00038 1.00219 0.991713
0.998781 1.00442 0.992232
0.999296 1.00516 0.990084
0.999996 0.994907 0.938905
1.00049 1.00443 0.990291
1.00284 1.00237 0.987379
1.00443 0.99488 0.991763
1.00501 0.995627 0.98999
1.00381 1.00206 0.985761
1.00443 1.00111 0.985765
0.998701 0.997412 0.983862
1.00042 1.00413 0.990333
1.00261 0.998009 0.991007
1.00315 1.00192 0.987201
1.00335 1.00108 0.987392
1.0035 0.997871 0.990206
1.00078 0.994907 0.937982
0.996748 0.994845 0.964362
0.996208 1.00187 0.98825
0.99963 0.994811 0.883734
0.994709 0.994794 0.837199
1.00025 1.00402 0.990759
0.999801 0.994869 0.890674
0.994697 0.994791 0.844423
1.001 1.00007 0.991563
1.00175 1.00146 0.989785
1.00144 0.999748 0.991886
0.995579 1.00193 0.989604
0.999931 0.99509 0.945777
0.994904 0.994836 0.961688
0.997308 0.996258 0.894584
0.994738 0.994804 0.837531
0.9984 1.00302 0.994484
0.998861 1.00268 0.994041
0.9991 1.004 0.993016
1.00014 1.00317 0.991414
1.00038 1.00385 0.990385
0.999917 1.00452 0.99024
1.00001 1.00459 0.990193
0.999796 1.00074 0.993973
1.00018 1.00326 0.991114
1.00006 1.00487 0.990014
1.00003 1.00468 0.990121
1.00054 1.00391 0.990048
0.999458 1.00475 0.990917
0.999687 1.00507 0.990592
0.998709 1.00489 0.991593
1.0003 1.00454 0.989839
1.00042 1.00404 0.990167
1.00039 1.00412 0.990136
1.00015 1.00387 0.990799
1.0004 1.00437 0.989855
0.999864 1.00418 0.990906
0.999588 1.00374 0.991207
0.999837 1.00487 0.990138
0.999789 1.00446 0.990613
0.999986 1.00396 0.990927
1.00008 1.00306 0.991606
1.00011 1.00396 0.990613
1.00016 1.00311 0.991397
1.00003 1.00163 0.99313
1.00019 1.0033 0.991081
0.999964 1.00163 0.99322
0.999999 0.998811 0.996603
0.999942 1.00166 0.993222
0.999923 0.998822 0.996368
0.999975 0.99707 0.997984
0.999911 0.998819 0.996084
0.999982 0.997074 0.99915
1.00003 0.997067 0.99795
1.00011 1.0014 0.993212
0.999963 1.00006 0.994784
1.00002 1.00003 0.994721
1.00008 0.997889 0.996763
1.00014 0.999996 0.994589
1.00011 0.997863 0.996727
0.999975 0.996647 0.99928
1.00009 0.997933 0.997125
0.999953 0.996842 0.998737
0.999922 0.997053 0.998163
1.00049 0.994888 0.984624
1.0053 0.994921 0.990695
1.004 0.996096 0.992159
0.996635 0.994903 0.968702
1.00044 0.996393 0.987055
1.00503 0.9958 0.991163
1.00301 0.997151 0.987625
0.996591 0.996217 0.971733
0.999986 0.99489 0.946932
0.999505 0.995876 0.897634
0.994666 0.994754 0.846664
0.999805 1.00241 0.992578
1.00006 1.00138 0.993364
1.00015 1.00137 0.993278
0.9999 1.00265 0.992335
0.999586 1.00358 0.991949
1.00032 1.00222 0.991952
1.00004 1.00278 0.99219
0.999964 1.00226 0.992565
1.00525 0.994849 0.990841
1.00514 0.994828 0.99056
1.00497 0.995193 0.989974
1.0032 1.0021 0.987205
1.00398 0.997016 0.990407
1.00199 1.00422 0.988409
1.00231 1.00396 0.988158
1.00069 1.00504 0.98848
1.00048 1.00125 0.992726
1.00015 1.00397 0.990591
1.00015 1.00266 0.992146
0.999081 1.00184 0.994537
1.00439 0.994795 0.991993
0.999486 1.00364 0.99201
1.00028 1.00251 0.992043
1.00485 0.995125 0.990843
1.00483 0.995532 0.989895
1.00222 0.998747 0.99157
0.999536 1.00491 0.991157
1.00023 1.00459 0.99023
1.00316 0.994825 0.991954
1.00426 0.997167 0.990813
1.00474 0.995189 0.99102
1.00106 0.999227 0.993001
0.999795 1.00468 0.990439
0.999418 1.00414 0.991596
0.999428 1.00526 0.991123
0.999829 0.99488 0.892778
1.00033 0.994915 0.950455
1.00042 1.00393 0.990641
1.00313 1.0021 0.987231
1.00254 0.997454 0.991021
1.00396 0.998008 0.989979
1.00401 1.00078 0.987419
0.99998 0.994907 0.947956
0.9968 0.994864 0.963706
0.996332 1.00252 0.988224
0.999365 0.995024 0.897207
0.994715 0.994797 0.82577
1.00025 1.0038 0.99069
0.999816 0.994866 0.890406
0.994674 0.994791 0.838229
1.00108 1.00006 0.99162
1.0019 1.00133 0.989842
1.00158 0.999974 0.992227
0.995758 1.00226 0.990262
1.00126 0.995958 0.938962
0.994892 0.994809 0.964995
0.997836 0.998296 0.893665
0.994756 0.994793 0.836299
0.99956 1.00383 0.992688
0.994695 0.994838 0.839268
0.994754 0.994811 0.852484
0.998327 1.00146 0.995375
0.999727 1.00189 0.994253
0.995066 1.00214 0.989221
0.994889 0.996577 0.965174
0.997229 0.996539 0.935189
0.994737 0.999458 0.898668
0.994828 0.994813 0.839259
0.998767 1.00248 0.993919
0.999363 1.00362 0.992741
0.998319 1.004 0.993259
1.00016 1.00328 0.991113
1.00059 1.00377 0.990164
1.00003 1.0047 0.990087
0.99992 1.005 0.989974
0.999254 1.0048 0.991103
1.0004 1.00407 0.990165
0.999691 1.00499 0.990439
1.00035 1.00447 0.989848
0.998409 1.00498 0.991933
0.99653 1.00505 0.994838
0.999543 1.00472 0.991041
1.00053 1.00441 0.989698
1.00044 1.00407 0.990125
1.00013 1.00375 0.990921
1.00037 1.00447 0.989811
0.999948 1.00411 0.99085
0.999464 1.00364 0.991763
0.999568 1.00487 0.990508
0.99963 1.00452 0.990678
0.998991 1.0043 0.991916
1.00054 1.00229 0.991722
1.00088 1.00287 0.989696
0.999612 1.00479 0.990288
0.999961 1.00475 0.990156
0.99981 1.0048 0.990184
0.999837 1.00454 0.990606
0.999994 1.00334 0.991425
0.999986 1.00408 0.99093
1.0001 1.00307 0.991607
1.00009 1.00155 0.993049
1.00017 1.00312 0.991336
1.00002 1.00161 0.993146
1.00008 0.998818 0.996461
0.999964 1.00162 0.993228
0.999992 0.998794 0.996277
1.00003 0.997008 0.997928
0.999925 0.998805 0.996078
0.999984 0.997077 0.99915
0.999981 0.997076 0.999153
1.00015 1.00171 0.993139
0.999953 1.00019 0.994689
1.00008 1.00148 0.993222
1.00008 0.997884 0.996767
0.999961 1.00007 0.994785
1.00003 1.00004 0.994721
1.00009 0.997875 0.996758
1 0.996592 0.999283
1.00009 0.997836 0.997205
0.999991 0.996652 0.998785
0.999971 0.996852 0.998244
0.999834 0.99488 0.880745
0.994654 0.994771 0.839859
0.997734 0.994885 0.96859
1.0005 0.995409 0.987441
1.00507 0.995097 0.991074
0.996211 0.995747 0.972328
1.00334 0.996153 0.988054
1.00112 0.994897 0.944833
0.999771 0.99481 0.883684
0.994695 0.994765 0.835974
0.998524 0.994838 0.976608
0.99995 0.995618 0.946157
0.997442 0.997284 0.893144
0.994736 0.994775 0.839956
1.0001 1.00325 0.991525
0.99986 1.00225 0.992693
1.00009 1.00135 0.993358
0.999899 1.00263 0.992342
0.999603 1.00338 0.992101
1.00004 1.00357 0.991194
1.00025 1.00272 0.991763
1.00032 1.00329 0.990927
1.00006 1.00273 0.992078
0.999995 1.00234 0.992419
1.00438 0.994801 0.992184
1.00475 0.994883 0.990822
1.00455 0.995286 0.99008
1.00199 0.998962 0.991118
1.00093 1.00434 0.990379
0.999687 1.00515 0.990084
1.00039 1.00228 0.992387
0.99953 1.00366 0.992076
1.00288 0.995139 0.992298
0.999842 1.00472 0.990289
0.999193 1.00429 0.9915
1.00428 0.996316 0.990876
1.00466 0.995328 0.990643
1.001 0.999236 0.993168
0.999495 1.00523 0.990959
1.00052 0.995521 0.992429
1.00258 0.996784 0.993742
1.00003 1.00166 0.993385
0.998979 1.00483 0.990216
0.999476 1.00492 0.990306
0.999214 1.00512 0.991122
0.994725 0.994857 0.859553
0.999828 0.994896 0.89727
0.999979 0.994919 0.939163
1.00003 1.00376 0.990612
1.00209 1.0012 0.989889
1.00123 1.00005 0.991677
1.00164 0.999832 0.992565
0.999829 0.994862 0.899744
0.999797 0.994964 0.937216
0.994878 0.994824 0.961892
0.995814 1.00258 0.990902
0.99731 0.996432 0.881219
0.994657 0.994798 0.841996
0.994744 0.994799 0.84604
0.999353 1.00338 0.992514
0.994694 0.994835 0.847776
0.994779 0.994814 0.852052
0.998169 1.00122 0.995669
0.99936 1.00161 0.994213
0.99524 0.999419 0.99187
0.994906 0.996219 0.963849
0.997369 0.999199 0.945796
0.995869 0.999637 0.884655
0.994819 0.994806 0.848429
0.997333 1.00338 0.99597
0.99479 0.994854 0.860784
0.994809 0.994788 0.851141
0.995232 1.00206 1.0001
0.994857 0.998733 0.971623
0.994894 0.99994 0.946278
0.995108 0.99803 0.878454
0.994872 0.994843 0.849936
0.99959 1.00325 0.992452
0.99861 1.00392 0.993582
0.996917 1.00466 0.995616
1.00035 1.00413 0.990162
1.00045 1.00436 0.989857
0.999752 1.00493 0.990286
0.998079 1.00499 0.99228
1.00042 1.00449 0.989712
0.999533 1.0047 0.990994
0.996604 1.00502 0.995285
0.995159 1.00521 0.997366
0.996723 1.00499 0.9953
1.00009 1.00418 0.990634
1.00037 1.00456 0.989766
0.999998 1.00405 0.990794
0.999263 1.0037 0.992309
0.999638 1.0045 0.990756
0.999645 1.00488 0.990532
0.999014 1.00444 0.992005
0.999449 1.00448 0.991461
0.997619 1.0049 0.993778
1.00197 0.998386 0.992575
1.0005 1.00206 0.991954
1.00091 1.00248 0.990367
1.00323 1.00271 0.986678
1.00046 1.00418 0.990481
1.00044 1.00301 0.99056
0.999913 1.00468 0.990198
0.999783 1.00479 0.990007
1.0001 1.0046 0.990174
0.99993 1.00481 0.990191
1.00004 1.00378 0.990953
1.00003 1.00446 0.990599
1.00012 1.00325 0.991411
1.00014 1.00161 0.992935
1.00019 1.00296 0.991609
1.00013 1.00155 0.993054
1.00015 0.99884 0.996324
1.00004 1.00158 0.993161
1.00007 0.998822 0.996113
1.00006 0.997084 0.997803
0.999999 0.998782 0.99598
1.00001 0.997032 0.99854
0.99999 0.997055 0.999143
1.00019 1.00223 0.992297
1.00003 1.00032 0.994465
1.0001 1.00174 0.992961
1.00008 0.997942 0.996712
0.999963 1.00017 0.994692
1.00004 1.00155 0.993229
1.00002 0.996562 0.999283
1.00007 0.997888 0.996767
0.999964 1.00007 0.994786
1.00009 0.99786 0.996754
1 0.996612 0.999283
0.999975 0.996636 0.999281
0.994686 0.994814 0.844514
0.999832 0.994876 0.890079
0.994769 0.994801 0.850347
0.994684 0.994777 0.837984
0.995981 0.995471 0.969905
1.00354 0.995339 0.988514
1.00001 0.995 0.942271
0.999806 0.995369 0.897939
0.99473 0.994778 0.82495
0.998349 0.995242 0.975927
1.00147 0.995967 0.933761
0.997797 0.998453 0.892666
0.994758 0.994775 0.833994
0.995457 0.994992 0.969613
0.997315 0.99782 0.934969
0.994823 0.999259 0.878723
0.994823 0.994822 0.835629
1.00018 1.00421 0.990844
1.00001 1.00313 0.991649
0.999874 1.00221 0.992805
0.999612 1.00321 0.992255
1.00048 1.00401 0.989907
0.999952 1.00354 0.991354
1.00004 1.00311 0.991576
1.00069 1.0029 0.990925
1.0004 1.0033 0.991001
1.00007 1.00262 0.991967
1.00274 0.99484 0.992638
1.00432 0.995323 0.990957
1.00457 0.995501 0.990269
1.00098 0.998772 0.993352
1.00002 1.00518 0.990793
0.999341 1.00452 0.991411
0.999799 1.0049 0.99014
0.999902 1.00507 0.989911
1.00021 0.99565 0.992757
0.999815 1.00494 0.990193
0.999573 1.00513 0.991065
1.00264 0.996207 0.994003
1.00065 1.00045 0.993235
0.997822 0.996843 0.993485
0.997963 0.998742 0.999603
0.998192 1.00361 0.993649
0.999936 1.00462 0.990329
0.999138 1.00503 0.991496
0.994842 0.994841 0.865984
0.99473 0.994855 0.856477
0.999818 0.994883 0.883823
0.999265 1.0029 0.992358
0.999186 1.00141 0.994153
0.998224 1.00078 0.995974
0.994673 0.994827 0.847354
0.997398 0.997392 0.935901
0.994911 0.996381 0.964305
0.995545 0.99717 0.994732
0.994801 0.998781 0.899867
0.994789 0.994817 0.85187
0.994833 0.994816 0.848884
0.997486 1.00317 0.996379
0.994798 0.994846 0.863578
0.994799 0.994786 0.851471
0.995352 1.00187 0.999031
0.994905 0.99832 0.973368
0.995474 0.999254 0.935373
0.994862 0.994842 0.847941
0.994904 0.99965 0.886199
0.995415 1.00493 0.998818
0.994782 0.994826 0.865126
0.99484 0.994803 0.855495
0.994813 0.994822 0.836362
0.994976 0.999549 0.991476
0.994941 0.998973 0.94987
0.995248 0.998728 0.890848
0.999037 1.00401 0.993907
0.997412 1.0049 0.994832
0.995078 1.00517 0.998546
1.00034 1.00454 0.989726
0.999436 1.0047 0.990943
0.996666 1.00507 0.995719
0.999894 1.00436 0.990584
0.996938 1.005 0.995297
0.995406 1.0052 0.997355
0.995153 1.00528 0.997952
0.997115 1.00472 0.994847
0.999594 1.00452 0.990841
0.999714 1.00491 0.990556
0.999061 1.00455 0.992104
0.997902 1.00483 0.993634
0.999385 1.00446 0.991384
0.99907 1.00283 0.993567
1.00052 0.999044 0.994528
1.00185 1.00112 0.989334
1.00045 1.00186 0.992187
1.00151 1.00247 0.989997
1.00378 1.00228 0.986112
1.00457 1.00169 0.985085
1.00129 1.00365 0.989005
1.00273 1.00262 0.986901
1.00031 1.00494 0.98955
1.0002 1.00419 0.990592
0.999949 1.00314 0.99142
1.0002 1.00457 0.990107
0.999819 1.00486 0.990023
1.00018 1.00398 0.990534
1.00001 1.00481 0.990199
1.00013 1.00367 0.990963
1.00015 1.00193 0.992608
1.00018 1.00322 0.991396
1.00016 1.00161 0.992922
1.00015 0.998847 0.99628
1.00015 1.00153 0.993058
1.00014 0.998827 0.99599
1.00009 0.997154 0.997722
1.00009 0.9988 0.995807
1.00005 0.997082 0.99846
1.00002 0.997052 0.999111
1.0004 1.00234 0.991648
1.00009 1.00064 0.993797
1.00023 1.0022 0.992295
1.00011 0.998024 0.996574
1.00002 1.00033 0.994319
1.00009 1.00174 0.992788
1.00004 0.996609 0.999266
1.00008 0.997925 0.996718
0.999967 1.00013 0.994694
1.00002 0.996585 0.999283
1.00006 0.997894 0.996766
1 0.996601 0.999283
0.99483 0.994838 0.858236
0.994697 0.994834 0.85401
0.999836 0.994869 0.890024
1.00082 1.00283 0.990674
0.994813 0.994802 0.858083
0.994764 0.994796 0.850249
0.994706 0.994786 0.846828
0.998644 0.995648 0.974902
0.999629 0.995895 0.944712
0.997283 0.997122 0.879403
0.994746 0.994795 0.839271
0.996655 0.994939 0.966417
0.997356 0.999208 0.944756
0.995747 0.99979 0.882458
0.994814 0.994816 0.839984
0.994891 0.99497 0.961861
0.994889 0.999209 0.944183
0.994873 0.999977 0.888294
0.994877 0.994841 0.849626
1.00003 1.0047 0.990175
1.00011 1.00416 0.990618
1.00011 1.00294 0.991773
1.00061 1.00341 0.990377
1.00037 1.0041 0.990147
0.999979 1.00355 0.991511
1.00072 1.00296 0.990913
1.00041 1.00334 0.99107
0.999414 0.996576 0.99296
1.00279 0.995791 0.994207
1.00017 1.00508 0.989603
1.00116 0.999975 0.99308
0.999827 1.00515 0.991005
1 1.00504 0.990082
0.999804 1.00462 0.990279
0.996922 0.996452 0.994198
0.999309 1.00462 0.991755
0.998804 1.00345 0.993771
0.997828 0.998861 0.999781
0.999836 1.00471 0.990842
0.995866 0.999826 0.99059
0.995497 1.00304 0.999326
0.997011 1.00478 0.994703
0.999247 1.00398 0.992506
0.994779 0.994797 0.870768
0.994836 0.99483 0.86482
0.994735 0.994854 0.853369
0.997517 1.00315 0.996808
0.995347 1.00131 0.997964
0.994805 0.994838 0.866244
0.994887 0.999934 0.946275
0.994878 0.997974 0.97078
0.994835 0.999746 0.885397
0.994797 0.994783 0.851705
0.994851 0.994843 0.845966
0.995627 1.00476 0.998512
0.994783 0.994827 0.864976
0.994836 0.9948 0.858253
0.994848 1.00028 0.994983
0.994801 0.994819 0.840496
0.994925 0.997816 0.943302
0.995094 0.999107 0.894062
0.994924 1.00387 0.998368
0.9948 0.994839 0.869273
0.994796 0.994799 0.858732
0.99472 0.994776 0.840553
0.995157 0.999982 0.887981
0.994912 1.00017 0.978784
0.995166 0.998959 0.936196
0.998095 1.00493 0.994061
0.995451 1.00517 0.998191
0.994934 1.00514 0.998771
0.999726 1.00444 0.990533
0.997055 1.00506 0.995297
0.995677 1.00519 0.997356
0.997278 1.00465 0.994791
0.99525 1.00498 0.997976
0.997643 1.00212 0.99752
0.998157 1.00475 0.993482
0.99928 1.0044 0.991312
0.999135 1.00291 0.993852
0.998942 1.00334 0.992145
0.999092 0.999643 0.996429
1.00178 1.00078 0.990178
1.00398 1.00269 0.984847
1.0049 1.00182 0.984285
1.00211 1.00246 0.989612
1.00395 1.00245 0.985383
1.00517 1.00103 0.985184
1.00345 1.00198 0.986616
1.00436 1.00172 0.98528
1.00035 1.0051 0.988879
1.00141 1.00373 0.988902
1.00218 1.00255 0.987125
1.00018 1.00437 0.990007
1.00007 1.00499 0.989685
0.999986 1.00417 0.990704
0.999868 1.00495 0.990039
1.00023 1.00392 0.990544
1.00022 1.0023 0.992086
1.00022 1.00359 0.990973
1.00016 1.00194 0.992598
1.00012 0.999017 0.995533
1.0002 1.00163 0.992911
1.00017 0.998847 0.995626
0.999991 0.997152 0.99904
1.00015 0.998834 0.995672
1.00006 0.997153 0.998386
1.00004 0.997103 0.999061
1.00041 1.00248 0.991462
1.00022 1.00095 0.993267
1.00036 1.00239 0.991774
1.00015 0.998162 0.996366
1.00013 1.00064 0.993731
1.00023 1.00221 0.99229
1.00005 0.99664 0.999235
1.00011 0.998001 0.996587
1.00003 1.00032 0.994174
1.00004 0.996583 0.999272
1.00008 0.997908 0.996725
1.00002 0.996606 0.999283
0.994787 0.994832 0.868435
0.994825 0.994846 0.858292
0.99469 0.994835 0.85412
1.00073 1.00287 0.990803
1.00062 1.0031 0.990584
1.0008 1.00285 0.990841
0.994854 0.994802 0.854881
0.994813 0.994793 0.858329
0.994759 0.994786 0.85017
0.996763 0.994865 0.968149
0.997491 0.99753 0.933702
0.994786 0.999934 0.898511
0.994829 0.994823 0.83531
0.994953 0.995199 0.965307
0.995413 0.999938 0.94062
0.994824 0.999364 0.886314
0.99487 0.994837 0.847484
0.994956 0.995765 0.961568
0.994875 0.998701 0.945973
0.995314 0.999087 0.890467
0.994848 0.994813 0.839438
1.00022 1.00371 0.990633
1.00024 1.00449 0.989975
1.00032 1.00402 0.990392
1.00069 1.00333 0.990334
1.00018 1.0042 0.990391
1.00073 1.00304 0.990902
0.996262 0.996407 0.994912
0.99742 0.999073 1.00003
0.999911 1.00439 0.990226
0.999328 1.00257 0.993886
0.999292 1.00454 0.992011
0.999604 1.00468 0.990844
0.998885 1.00421 0.992637
0.99546 0.999925 0.990589
0.996919 1.00502 0.995349
0.995906 1.00303 0.998549
0.998885 1.00428 0.992708
0.995328 1.00187 0.987255
0.995654 1.00401 0.996493
0.996618 1.00464 0.996385
0.994799 0.994808 0.872441
0.994776 0.994803 0.870998
0.994833 0.994825 0.863657
0.995661 1.0045 0.998167
0.994798 1.00053 0.991418
0.99479 0.994829 0.864835
0.99484 0.999072 0.943733
0.995221 0.998722 0.880798
0.994833 0.9948 0.860995
0.994823 0.99483 0.836099
0.994955 1.0037 0.99889
0.994799 0.994841 0.870385
0.994805 0.994797 0.85898
0.994913 0.999755 0.975929
0.994749 0.994779 0.834822
0.995094 0.999972 0.885136
0.994932 0.99837 0.948136
0.995037 1.00504 0.992775
0.994781 0.994839 0.868632
0.994778 0.994808 0.851311
0.994661 0.994756 0.847813
0.995184 0.998517 0.878503
0.995168 0.999894 0.944447
0.994912 1.00065 0.969939
0.995842 1.0052 0.997826
0.995166 1.00469 0.998762
0.997124 1.00217 0.998225
0.997453 1.00463 0.994737
0.995432 1.00474 0.997969
0.996462 1.00361 0.997523
0.999208 0.997382 0.999545
0.999209 1.00308 0.994129
1.00093 1.00239 0.991596
1.00245 1.00367 0.987117
1.00163 1.00054 0.991086
1.00397 1.0026 0.985146
1.00437 1.00391 0.983158
1.00488 1.00174 0.984127
1.00504 1.00153 0.984478
1.00487 1.00192 0.984154
1.0043 1.00254 0.984657
1.00492 1.00087 0.986256
1.00509 1.00109 0.985056
1.00191 1.00347 0.987542
1.00343 1.00208 0.986823
1.00419 1.00177 0.985473
1.00022 1.00488 0.989109
1.00066 1.00507 0.988827
1.00147 1.00382 0.988795
1.0003 1.00288 0.991479
1.00037 1.00427 0.990009
0.999866 1.00503 0.98982
1.00031 1.0038 0.990554
1.00028 1.00227 0.992083
1.00007 0.999299 0.99534
1.0002 1.00191 0.992589
1.00013 0.999031 0.995518
0.999974 0.997288 0.999013
1.00018 0.998864 0.995617
1.00004 0.997184 0.998374
1.00004 0.997153 0.999033
1.00042 1.0029 0.991271
1.00032 1.00117 0.993089
1.00047 1.00243 0.991533
1.0002 0.99835 0.996087
1.00022 1.00096 0.993352
1.00036 1.00241 0.991902
1.00006 0.996722 0.999188
1.00015 0.998133 0.996384
1.00015 1.00062 0.993665
1.00005 0.996642 0.999244
1.00011 0.997981 0.9966
1.00004 0.996596 0.999278
0.994807 0.994837 0.868839
0.994789 0.994841 0.868282
0.994819 0.994857 0.858446
1.00039 1.00411 0.989882
1.00102 1.00399 0.989588
1.00061 1.00294 0.990935
1.00055 1.00329 0.990515
1.00054 1.00297 0.990899
1.00038 1.00336 0.990761
1.0004 1.00289 0.991246
0.994823 0.994787 0.850689
0.994849 0.994803 0.857718
0.994811 0.994796 0.858587
0.99486 0.994833 0.845416
0.994965 0.9954 0.962231
0.994879 0.999943 0.936643
0.99488 0.998296 0.897232
0.99489 0.996404 0.96054
0.99488 0.999425 0.9352
0.99496 0.998801 0.894272
0.99483 0.994804 0.848658
0.996181 0.996396 0.963825
0.994905 0.999603 0.93626
0.995146 0.998631 0.878888
0.994758 0.9948 0.837681
0.999021 1.00478 0.991818
1.00007 1.00396 0.990729
1.00029 1.0046 0.989774
1.00074 1.00341 0.990294
0.995107 1.00003 0.990854
0.996132 1.00327 0.997678
0.999464 1.00489 0.990847
0.998822 1.00412 0.992767
0.997058 1.00509 0.995976
0.998926 1.00408 0.992659
0.996563 1.00466 0.99637
0.996232 1.00203 0.984124
0.994875 1.0049 0.997097
0.996766 1.00435 0.996038
0.994706 1.00209 0.984732
0.995569 1.00365 0.998853
0.994776 0.994799 0.870914
0.994805 0.994808 0.875264
0.994766 0.994808 0.871222
0.994855 1.00355 0.999358
0.994945 0.998739 0.979531
0.994794 0.994836 0.871544
0.995555 0.99828 0.936997
0.995086 0.998862 0.896478
0.994811 0.994794 0.85922
0.994739 0.994799 0.840015
0.994916 1.0043 0.993534
0.994789 0.994832 0.868495
0.99476 0.994799 0.851229
0.994911 1.00053 0.970281
0.994691 0.994763 0.837286
0.995721 0.99981 0.88174
0.995024 0.999689 0.934466
0.995418 1.00449 0.987501
0.994824 0.99483 0.858674
0.994651 0.99477 0.841109
0.99778 0.99622 0.893985
0.994873 0.999883 0.943919
0.994898 0.999985 0.963246
0.995261 1.00442 0.999024
0.9962 1.00301 0.998343
0.996699 0.999361 1.00105
0.995368 1.00498 0.997516
0.997717 0.998654 0.999719
1.00197 0.998263 0.994049
1.00292 1.00133 0.991048
1.00305 1.00329 0.98676
1.00332 1.00428 0.984149
1.00377 1.00258 0.985445
1.00453 1.00381 0.982987
1.00428 1.0044 0.982771
1.00502 1.00081 0.984928
1.00506 1.00108 0.984758
1.00485 1.00194 0.984087
1.00497 1.00139 0.985139
1.00498 1.00141 0.984576
1.00479 1.00212 0.984023
1.00414 1.00163 0.986369
1.00465 1.00086 0.986115
1.00499 1.00114 0.98493
1.00099 1.00509 0.987934
1.00191 1.0037 0.987712
1.00344 1.00214 0.987034
1.00026 1.00372 0.990521
1.00049 1.00485 0.989129
1.0009 1.00503 0.988776
1.00003 0.999607 0.995105
1.00035 1.00277 0.991473
1.00051 1.00423 0.990011
1.0003 1.00227 0.992079
1.00008 0.999328 0.995319
0.999912 0.997497 0.998975
1.00015 0.999043 0.995502
0.999969 0.99732 0.999003
1.00001 0.997188 0.999024
1.00014 1.00485 0.989731
1.00057 1.00331 0.990652
1.00037 1.00158 0.992616
1.00045 1.00283 0.991261
1.00022 0.998612 0.995787
1.00032 1.00119 0.993084
1.00044 1.00247 0.991603
1.00007 0.996862 0.999121
1.00019 0.998346 0.996105
1.00021 1.00097 0.993435
1.00006 0.996714 0.999202
1.00015 0.998117 0.996401
1.00005 0.996616 0.999254
0.994783 0.99482 0.864706
0.994795 0.994833 0.869994
0.994797 0.994838 0.868114
1.00044 1.00421 0.989908
1.00072 1.0038 0.98972
1.00008 1.00269 0.99094
1.00015 1.00443 0.989839
1.00103 1.00374 0.990287
1.0006 1.00339 0.990444
1.00044 1.00307 0.990956
1.00046 1.00332 0.990775
1.00043 1.003 0.991282
0.999694 1.00419 0.991286
0.994773 0.994804 0.852484
0.994814 0.994784 0.851076
0.994849 0.994799 0.860506
0.994839 0.994811 0.849076
0.995294 0.999086 0.880798
0.994882 0.996881 0.959012
0.994873 0.999268 0.94587
0.99514 0.996639 0.960625
0.994904 0.997376 0.947061
0.994845 0.999753 0.887425
0.994775 0.99479 0.83633
0.994795 0.996809 0.96514
0.994867 0.999973 0.946681
0.994742 0.999659 0.897561
0.99469 0.994775 0.846735
0.998359 1.00365 0.993822
0.998968 1.00468 0.991876
1.00006 1.00397 0.990827
0.996391 1.00208 0.980738
0.9948 1.00515 0.997762
0.998886 1.00398 0.992607
0.996263 1.00482 0.99636
0.996978 1.00402 0.995993
0.995377 1.00332 0.99905
0.995134 1.00094 0.984072
0.995905 1.00208 0.99903
0.99577 0.999695 0.988729
0.994817 0.994826 0.865042
0.994777 0.994806 0.871138
0.994811 0.994812 0.878093
0.994917 1.00326 0.993929
0.994914 1.00007 0.967324
0.994797 0.994838 0.868328
0.99519 0.999919 0.944084
0.994746 0.999914 0.897504
0.994742 0.994784 0.851194
0.99472 0.994774 0.826407
0.995526 1.00432 0.988172
0.994813 0.994841 0.858685
0.994676 0.994772 0.839365
0.994905 0.999876 0.964214
0.997754 0.998149 0.893371
0.995429 0.999883 0.93902
0.994873 1.00413 0.985918
0.99468 0.994807 0.845155
0.999637 0.995291 0.898568
0.997288 0.997547 0.935005
0.994857 0.997213 0.966134
0.995583 1.00381 0.998443
0.996412 0.999502 1.00102
0.998889 1.00252 0.995812
0.996242 0.999934 0.999856
1.00085 0.998834 0.994556
1.00331 0.999963 0.988999
1.00368 1.00277 0.986394
1.00333 1.00422 0.984068
1.00417 1.00182 0.984872
1.00476 1.0038 0.982818
1.00428 1.00402 0.982878
1.00477 1.00081 0.985408
1.0052 0.998441 0.986824
1.00516 1.00009 0.985303
1.00499 1.0007 0.985021
1.00506 1.00135 0.984706
1.00506 1.00111 0.984715
1.00484 1.00209 0.984046
1.00502 1.0014 0.985189
1.00467 1.00133 0.985237
1.00495 1.0013 0.984674
1.00269 1.00348 0.986742
1.00382 1.00179 0.986439
1.0044 1.00091 0.985971
1.00031 1.00472 0.989075
1.0011 1.00499 0.987954
1.00199 1.00395 0.98788
0.999979 1.00032 0.995243
1.00042 1.00363 0.990509
1.00076 1.00484 0.989149
0.999878 0.997787 0.99743
1.00002 0.999743 0.995353
1.0004 1.00267 0.991466
1.00008 0.99936 0.995298
0.999911 0.997528 0.99896
0.999964 0.997331 0.998992
1.00011 1.00495 0.98991
1.00041 1.00434 0.989963
1.00007 1.00487 0.989714
1.00043 1.00207 0.99205
1.0004 1.00356 0.990648
1.00019 0.998939 0.995504
1.00038 1.00155 0.992624
1.00056 1.00271 0.991248
1.00006 0.997067 0.999051
1.00022 0.998596 0.995802
1.00031 1.00122 0.99308
1.00006 0.996854 0.999142
1.00018 0.998331 0.996123
1.00006 0.996702 0.999217
0.994791 0.994832 0.867052
0.994789 0.994825 0.864553
0.994784 0.994837 0.871184
1.00044 1.00252 0.991087
1.00026 1.0045 0.989934
1.00059 1.00367 0.989855
1.00047 1.00446 0.9897
1.00063 1.00261 0.990973
1.00063 1.00347 0.99089
1.00174 1.00267 0.989333
0.999224 1.00483 0.990727
1.00048 1.00328 0.99079
1.00018 1.00297 0.991315
0.99958 1.00411 0.991244
0.998713 1.00518 0.99225
0.99468 0.994783 0.844386
0.994794 0.994806 0.852047
0.994811 0.994781 0.851383
0.99476 0.994787 0.845955
0.994839 0.999725 0.886952
0.995242 0.998925 0.936282
0.994866 0.997083 0.960076
0.995058 0.996772 0.965651
0.994708 0.994778 0.83641
0.994878 0.99837 0.940246
0.995927 0.999925 0.883555
0.994893 0.996228 0.968435
0.994883 0.999919 0.947117
0.998239 0.997854 0.889857
0.999284 1.00019 0.996097
0.998436 1.00372 0.993788
0.99886 1.00458 0.991931
0.995295 1.00093 0.983964
0.995058 1.00302 0.999243
0.997215 1.0036 0.995961
0.996894 1.0019 0.999022
0.995272 0.99916 0.988837
0.996937 0.998879 0.992056
0.994727 0.994866 0.85409
0.994819 0.994814 0.867435
0.994772 0.994803 0.871339
0.995345 1.00425 0.988535
0.994861 0.999971 0.964176
0.994802 0.994844 0.858829
0.994833 0.999938 0.935604
0.99765 0.996112 0.88036
0.994702 0.994783 0.847998
0.994835 1.00409 0.985972
0.994693 0.994828 0.854601
0.999654 0.994799 0.884603
0.994858 0.996563 0.962025
0.99731 0.998857 0.944934
0.9948 1.00354 0.990771
0.999806 0.994864 0.881108
0.999932 0.995296 0.946861
0.994885 0.994867 0.961399
0.996058 0.999472 1.00108
0.998429 1.00168 0.995584
1.00185 1.00292 0.990088
0.999734 0.999479 0.995065
1.0028 1.00057 0.988861
1.00442 0.999253 0.987617
1.00328 1.00421 0.983987
1.00404 1.00203 0.984868
1.00495 0.99723 0.987866
1.00427 1.00357 0.982983
1.00468 1.00057 0.985447
1.00521 0.996675 0.988495
1.00517 0.99666 0.988863
1.00521 0.998653 0.986669
1.0052 0.998321 0.986967
1.00516 1.00016 0.985311
1.00516 1.00008 0.985428
1.00499 1.00058 0.985114
1.00514 1.00142 0.984567
1.00501 1.00126 0.984759
1.00507 1.00111 0.984671
1.00438 1.00155 0.985745
1.00477 1.00145 0.985169
1.00437 1.00125 0.985333
1.00126 1.0047 0.987793
1.00281 1.00347 0.986717
1.00339 1.00194 0.986511
0.999834 1.00149 0.993495
1.0007 1.00458 0.989075
1.00126 1.00498 0.987972
0.99972 0.998257 0.998781
0.999988 1.0004 0.994369
1.00058 1.00348 0.990497
0.999866 0.997759 0.998906
1 0.99983 0.994971
0.999911 0.997575 0.998945
1.00114 1.00371 0.989425
1.00013 1.00482 0.989816
1.00048 1.00482 0.98939
1.00033 1.0029 0.99138
1.00034 1.00433 0.989942
1.00016 1.0047 0.989699
1.00017 0.999289 0.995207
1.00038 1.00211 0.992063
1.00027 1.00372 0.990643
1.00003 0.997281 0.998982
1.0002 0.998887 0.995519
1.00038 1.00153 0.992632
1.00005 0.997032 0.999071
1.00021 0.998583 0.995817
1.00006 0.996827 0.999162
0.994697 0.994833 0.840925
0.994807 0.994833 0.867143
0.994801 0.99483 0.864408
1.00034 1.00271 0.991051
1.00303 1.00216 0.989154
1.00076 1.00311 0.99058
1.00051 1.00447 0.989559
1.0012 1.00242 0.991
0.999935 1.00297 0.991488
0.999656 1.00471 0.990514
1.0012 1.00308 0.98958
1.00094 1.0043 0.98917
0.999623 1.00002 0.994956
0.999958 1.00404 0.991203
0.99889 1.00514 0.99194
0.999793 0.996341 0.878255
0.994659 0.994779 0.838259
0.9948 0.994807 0.851891
0.994725 0.994786 0.825666
0.995884 0.998927 0.898266
0.994845 0.999686 0.936593
0.99554 0.995457 0.963074
0.994847 0.996164 0.966991
0.997783 0.99846 0.891526
0.995457 0.999519 0.936172
0.994864 0.99767 0.968725
0.997554 0.997718 0.934783
1.00164 0.99678 0.996269
0.999206 1.0006 0.996067
0.998527 1.00385 0.993756
0.994893 0.998948 0.988995
0.997615 1.00171 0.998983
0.99735 0.998995 0.991817
0.998055 0.996963 0.990492
0.999834 0.994887 0.892324
0.994721 0.994859 0.852843
0.994831 0.99481 0.869722
0.994857 1.00405 0.986248
0.99488 0.996066 0.960231
0.994689 0.994833 0.854601
0.99789 0.996653 0.934456
0.999711 0.994834 0.899034
0.994995 1.00212 0.987894
0.999817 0.994866 0.890496
1.00117 0.995719 0.934785
0.994881 0.994856 0.964451
0.997624 0.998128 0.989602
0.999987 0.994904 0.94768
0.995588 0.994924 0.967791
0.998054 1.00087 0.995289
1.00145 1.00094 0.990145
1.00458 0.998213 0.98948
1.00233 1.00103 0.988735
1.00411 0.999313 0.987631
1.00503 0.996145 0.989404
1.00399 1.00223 0.984866
1.0049 0.997666 0.987792
1.00518 0.995273 0.989842
1.0046 1.00033 0.985485
1.00521 0.996717 0.988446
1.00519 0.995346 0.990062
1.00517 0.99582 0.989984
1.00518 0.996519 0.989066
1.00518 0.997221 0.988487
1.00522 0.999092 0.986495
1.0052 0.998724 0.986751
1.00521 0.998205 0.987111
1.00521 1.0007 0.985046
1.00517 1.0002 0.985264
1.00515 1.00005 0.985553
1.00496 1.00125 0.985106
1.00509 1.00143 0.984592
1.00489 1.00122 0.984818
1.00254 1.00347 0.986982
1.00431 1.00171 0.985726
1.00459 1.0015 0.985149
1.00004 1.00249 0.99213
1.0014 1.00458 0.987803
1.00295 1.00325 0.986692
0.999767 0.998657 0.998583
0.999913 1.00147 0.993452
1.00102 1.00449 0.989075
0.999792 0.99826 0.997944
0.999995 1.00046 0.994374
0.999876 0.997858 0.99884
1.00208 1.00224 0.989272
1.00065 1.00391 0.989676
1.00041 1.00505 0.989038
1.00018 1.00484 0.989721
1.00031 1.00493 0.989379
1.00032 1.00367 0.990628
1.00007 0.999877 0.994803
1.00031 1.0029 0.991388
1.00022 1.00447 0.989922
0.999984 0.997507 0.998902
1.00015 0.999279 0.995224
1.00033 1.00215 0.992076
1.00003 0.997245 0.999003
1.00021 0.998854 0.995534
1.00005 0.997013 0.999092
0.999822 0.994867 0.890337
0.994691 0.994838 0.845363
0.994815 0.994832 0.867199
1.00023 1.00318 0.99101
1.00076 1.00401 0.989547
1.00228 1.00239 0.989587
1.00441 1.00332 0.984311
1.00071 1.00376 0.989747
0.999837 1.00475 0.990309
1.00088 1.00355 0.98983
1.00049 1.00434 0.989482
1.00219 1.00172 0.98813
1.00144 0.999861 0.993007
1.00385 0.995078 0.992499
1.00022 0.999455 0.994855
0.999599 1.00412 0.99163
0.998537 0.996123 0.945642
0.9998 0.995338 0.88338
0.994653 0.994786 0.841796
0.998164 0.9986 0.878231
0.994897 0.999921 0.944396
0.994811 0.995753 0.967786
0.994881 0.997401 0.970332
0.997346 0.99907 0.946463
0.995894 0.995928 0.970436
1.00122 0.995977 0.996551
1.00088 0.997558 0.996306
0.999072 1.00118 0.996039
0.99796 0.998525 0.991678
0.998569 0.997428 0.990781
0.999964 0.994962 0.938956
0.999825 0.994896 0.896928
0.994707 0.99485 0.851696
0.994894 1.00088 0.98488
0.99491 0.994867 0.961584
0.999811 0.994906 0.89053
0.999771 0.995341 0.94531
0.996881 0.998236 0.990041
1.00081 0.994909 0.9451
0.996541 0.994896 0.96507
1.0011 0.995945 0.989346
0.998799 0.994855 0.97461
1.00106 0.999152 0.9903
1.00427 0.997269 0.989433
1.00494 0.995611 0.990879
1.0037 0.999446 0.987642
1.00485 0.996224 0.989295
1.00517 0.994933 0.990327
1.0048 0.998128 0.987717
1.00517 0.995352 0.989781
1.00519 0.994933 0.990442
1.00521 0.996763 0.988397
1.00519 0.995389 0.990019
1.00518 0.995088 0.990489
1.00517 0.995644 0.990069
1.00517 0.996123 0.989705
1.00518 0.996375 0.989271
1.00518 0.997234 0.988472
1.00521 0.998032 0.987636
1.00523 0.999866 0.985882
1.00522 0.999145 0.986474
1.0052 0.998794 0.986834
1.00522 1.00091 0.984943
1.00521 1.00075 0.984954
1.00519 1.00024 0.985214
1.00354 1.00215 0.986467
1.00486 1.00134 0.985118
1.00499 1.00145 0.984617
1.00071 1.00251 0.990944
1.00249 1.00353 0.986987
1.00418 1.002 0.985706
0.999887 0.999435 0.998224
1.00016 1.00235 0.992113
1.00163 1.00447 0.987813
0.999848 0.998859 0.99847
1.00004 1.00133 0.993409
0.999866 0.998307 0.998662
1.00395 1.002 0.985669
1.00219 1.00198 0.989169
1.00075 1.00468 0.988513
1.0002 1.00387 0.98993
1.00039 1.00501 0.988978
1.00048 1.00428 0.989769
1.00019 1.00497 0.989368
1.00025 1.00374 0.990621
1.00006 1.00047 0.994259
0.999926 0.997891 0.998781
1.00007 0.999811 0.994824
1.00028 1.00289 0.991397
0.999982 0.997498 0.998929
1.00013 0.99925 0.995239
1.00003 0.997208 0.999024
0.999994 0.994917 0.949493
0.999838 0.994865 0.889603
0.994678 0.994836 0.840751
1.00074 1.00476 0.988516
1.00167 1.00233 0.990028
1.00136 1.00365 0.989333
1.00393 1.00351 0.98498
1.00454 1.00279 0.98375
1.00235 1.00312 0.986581
1.00011 1.00433 0.989785
1.00311 1.00149 0.987225
1.00133 0.999572 0.993184
1.00315 0.998487 0.989844
1.00434 0.995581 0.992034
1.00372 0.995684 0.992333
1.00349 0.995283 0.992734
0.999976 0.999973 0.994752
0.996034 0.995168 0.969104
0.999819 0.995999 0.942061
0.998409 0.996077 0.89716
0.99722 0.998847 0.934715
0.994883 0.997549 0.970764
0.995528 0.996354 0.975796
0.999652 0.996617 0.992105
1.00171 0.995539 0.99625
1.0003 0.998248 0.996351
0.999377 0.998392 0.991089
0.996754 0.996685 0.970105
1.00006 0.994923 0.950412
0.999822 0.994884 0.883389
0.99626 0.998479 0.990351
0.996787 0.994869 0.966543
1.00002 0.995091 0.942366
1.00045 0.995512 0.989505
0.998443 0.995318 0.974051
1.00331 0.995066 0.990697
1.00286 0.997665 0.985997
1.00388 0.996112 0.989354
1.00474 0.995394 0.990903
1.00515 0.994814 0.990785
1.00475 0.996316 0.989188
1.00517 0.994931 0.990293
1.00521 0.99492 0.990486
1.00518 0.99542 0.989721
1.00518 0.994937 0.990412
1.00521 0.994941 0.990523
1.00519 0.995421 0.989977
1.00516 0.995107 0.99045
1.00519 0.995281 0.990308
1.00517 0.995474 0.990152
1.00517 0.995988 0.989805
1.00519 0.997233 0.988615
1.00518 0.997248 0.988456
1.00521 0.998092 0.987612
1.00522 0.999185 0.986664
1.00526 1.0004 0.985307
1.00524 0.999959 0.985762
1.00522 0.9992 0.986454
1.00431 1.00106 0.986305
1.00516 1.00094 0.984965
1.0052 1.00079 0.984861
1.00124 1.00222 0.99031
1.0035 1.00231 0.98646
1.00473 1.00144 0.985131
1.00023 0.99999 0.997754
1.00081 1.00242 0.990927
1.00243 1.0036 0.986993
1.00004 0.999546 0.998038
1.00022 1.00231 0.992102
0.99996 0.998948 0.998326
1.00456 1.00201 0.984543
1.00428 1.00197 0.985791
1.00281 1.00296 0.986586
1.00216 1.00191 0.989066
1.00094 1.00445 0.988324
1.00099 1.00473 0.988685
1.0003 1.00496 0.988917
1.00042 1.00436 0.98976
1.00004 1.00111 0.993632
1.0002 1.00384 0.990614
1.00002 1.00044 0.994285
0.999868 0.998327 0.998621
0.999921 0.99782 0.998826
1.00006 0.999771 0.994846
0.999977 0.997448 0.998954
0.996948 0.994874 0.970357
0.999995 0.995127 0.938194
0.999822 0.994867 0.899361
1.00518 1.00044 0.984913
1.00203 1.00363 0.988926
1.00344 1.00368 0.98565
1.00295 1.00283 0.986721
1.00458 1.00306 0.983662
1.00412 1.0003 0.986954
1.00395 1.00161 0.986319
1.00104 0.999276 0.993365
1.00359 0.998623 0.989559
1.00428 0.995547 0.991389
1.00481 0.995435 0.990102
1.004 0.995476 0.992334
1.00364 0.995355 0.992345
1.00313 0.99543 0.992965
0.999616 0.996687 0.990884
0.995898 0.994926 0.967419
0.999258 0.995493 0.938803
0.995134 0.996606 0.974217
0.999509 0.996346 0.994345
1.00168 0.994952 0.995918
1.00095 0.997183 0.984445
0.996671 0.995746 0.971071
0.999965 0.994915 0.938927
0.999559 0.995409 0.989717
0.998624 0.995584 0.973152
1.00256 0.995355 0.991096
1.00294 0.997218 0.986679
1.00423 0.99482 0.991204
1.00465 0.997473 0.990633
1.00453 0.995168 0.990918
1.00515 0.994819 0.990677
1.00526 0.994817 0.99044
1.00517 0.99493 0.99026
1.0052 0.994913 0.990478
1.00524 0.994906 0.990473
1.00518 0.994937 0.990381
1.0052 0.994937 0.990524
1.00521 0.995047 0.990539
1.00515 0.995125 0.990412
1.00519 0.995263 0.990289
1.0052 0.996219 0.9895
1.00517 0.995853 0.989907
1.00519 0.997074 0.988797
1.00523 0.998552 0.987328
1.00521 0.998152 0.987587
1.00522 0.99916 0.986683
1.00526 1.00015 0.985656
1.00458 1.0005 0.986379
1.00525 1.00049 0.985241
1.00525 1.00005 0.985643
1.00179 1.00144 0.990178
1.00424 1.00116 0.9863
1.00512 1.00096 0.984986
1.00044 1.00031 0.997436
1.00144 1.00193 0.990301
1.00345 1.00241 0.986454
1.00034 1.00008 0.997616
1.00095 1.00228 0.990913
1.0002 0.999735 0.997856
1.00522 1.0012 0.984402
1.00491 1.00193 0.98449
1.00451 1.00174 0.985318
1.0047 1.00198 0.985915
1.00307 1.00312 0.986399
1.00177 1.00451 0.987557
1.00116 1.00425 0.988134
1.00075 1.00482 0.988701
1.0001 1.00184 0.992805
1.00031 1.00442 0.989751
1.00001 1.00107 0.993663
0.999823 0.998876 0.998439
0.99998 1.00039 0.994311
0.999865 0.998252 0.99868
0.99992 0.997768 0.998866
1.00104 0.994883 0.988473
0.996736 0.994896 0.967173
0.999969 0.99489 0.949592
1.00514 0.999021 0.986687
1.0052 0.998539 0.987075
1.00517 1.0003 0.985138
1.00349 1.0024 0.986856
1.00463 1.00335 0.983569
1.00421 1.00009 0.98723
1.00514 0.996494 0.988575
1.00414 0.998567 0.989282
1.00432 0.99583 0.990741
1.00476 0.996044 0.990242
1.00518 0.995099 0.990335
1.00408 0.995643 0.991658
1.00367 0.995707 0.992286
1.00385 0.995006 0.992362
1.00012 0.996411 0.991024
0.995635 0.994878 0.965832
0.999667 0.996164 0.996677
1.00441 0.995323 0.991301
1.00088 0.997135 0.984635
0.996585 0.995343 0.96893
1.00225 0.994842 0.991472
1.00297 0.996845 0.987393
1.00426 0.994897 0.991743
1.00468 0.996654 0.990688
1.00527 0.994908 0.990616
1.00535 0.99496 0.990812
1.00516 0.994826 0.990573
1.00527 0.994845 0.990416
1.00528 0.994886 0.990431
1.00519 0.994907 0.99047
1.00524 0.994903 0.990495
1.00521 0.994926 0.990614
1.0052 0.994934 0.990525
1.00521 0.995023 0.990521
1.0052 0.995595 0.990123
1.00519 0.995247 0.990271
1.0052 0.996245 0.989487
1.00524 0.997902 0.987913
1.00519 0.996911 0.988978
1.00523 0.998483 0.987397
1.00527 0.999843 0.985943
1.00522 0.999139 0.986702
1.00526 1.00009 0.985717
1.00469 1.00026 0.986456
1.00206 1.00077 0.990333
1.00456 1.00055 0.986379
1.00524 1.00058 0.985176
1.00054 1.00046 0.997285
1.00183 1.00138 0.990179
1.00415 1.00131 0.986296
1.00049 1.00037 0.997364
1.00157 1.00178 0.990294
1.00042 1.00018 0.997498
1.00526 0.999725 0.985836
1.00522 1.00113 0.984547
1.00515 1.00085 0.985141
1.00516 1.00183 0.984434
1.00464 1.00152 0.985356
1.00279 1.0032 0.986871
1.00328 1.00323 0.986213
1.00153 1.00461 0.98756
1.0004 1.00258 0.9916
1.00055 1.00493 0.988716
1.00002 1.00191 0.992835
0.99987 0.99947 0.99815
0.999981 1.00103 0.993693
0.999803 0.998739 0.998508
0.999853 0.998165 0.998735
1.00427 0.994867 0.992191
1.00104 0.994892 0.986514
0.996609 0.994901 0.966129
1.00516 0.997795 0.988044
1.00514 0.99859 0.986978
1.00524 0.997198 0.988351
1.00521 0.998524 0.987059
1.00516 1.00013 0.985361
1.00523 0.995689 0.989332
1.00434 0.999947 0.9875
1.00513 0.996825 0.988491
1.0053 0.994884 0.990265
1.00468 0.99641 0.990382
1.00513 0.995137 0.990166
1.00403 0.995669 0.991836
1.00312 0.995881 0.992236
1.00047 0.996055 0.991048
1.00532 0.994933 0.990581
1.00434 0.996164 0.991431
1.00092 0.996828 0.98484
1.00423 0.995034 0.992267
1.00468 0.995942 0.990747
1.00526 0.994887 0.990667
1.00535 0.994955 0.990757
1.0053 0.994937 0.990706
1.00528 0.99487 0.990393
1.00527 0.994898 0.990442
1.00521 0.994904 0.990695
1.00524 0.9949 0.990517
1.00521 0.994921 0.990613
1.00522 0.995171 0.990566
1.00522 0.994999 0.990503
1.00521 0.995619 0.990105
1.00524 0.997253 0.988582
1.00521 0.996271 0.989474
1.00524 0.997915 0.987926
1.00528 0.999519 0.98628
1.00523 0.998414 0.987466
1.00527 0.999839 0.985965
1.00473 1.00018 0.986489
1.00526 1.00004 0.985778
1.00469 1.00027 0.986459
1.00214 1.00038 0.992073
1.0008 1.00015 0.99425
1.00211 1.00074 0.99108
1.00454 1.0006 0.986378
1.00056 1.00049 0.997258
1.00195 1.00119 0.990176
1.00053 1.00044 0.997298
1.00525 0.996974 0.988721
1.00522 0.998664 0.987082
1.00525 0.999738 0.985997
1.00519 1.00045 0.985416
1.00522 1.00107 0.98469
1.00517 1.00082 0.985109
1.00378 1.00153 0.986717
1.00481 1.00129 0.985396
1.00288 1.00298 0.986865
1.00101 1.00253 0.990522
1.00133 1.00478 0.987562
1.0003 1.00262 0.991616
1.00005 1.00022 0.997696
0.999957 1.00183 0.992863
0.999792 0.999345 0.99827
0.999798 0.998634 0.998572
1.00533 0.994874 0.990521
1.00455 0.994862 0.991982
1.00123 0.994907 0.984603
1.0052 0.99621 0.989193
1.00515 0.997719 0.987887
1.00513 0.998183 0.98727
1.00524 0.997338 0.988339
1.00521 0.998513 0.987043
1.00527 0.995101 0.990332
1.00521 0.995719 0.989306
1.00512 0.997226 0.988406
1.00529 0.994883 0.990273
1.00511 0.995193 0.989996
1.00405 0.995732 0.992021
1.00527 0.994937 0.990798
1.00532 0.994935 0.990761
1.00427 0.996901 0.991565
1.00525 0.994868 0.990709
1.00536 0.994952 0.990706
1.0053 0.994931 0.990665
1.00521 0.994963 0.990901
1.00527 0.994911 0.990454
1.00522 0.99491 0.990676
1.00524 0.99496 0.990832
1.00522 0.994916 0.990612
1.00521 0.99518 0.990555
1.00525 0.996718 0.989115
1.00521 0.995645 0.990087
1.00524 0.997271 0.98859
1.00529 0.999202 0.986619
1.00524 0.997927 0.987939
1.00528 0.999514 0.986303
1.00475 1.00015 0.986496
1.00527 0.999833 0.985987
1.00474 1.00017 0.986499
1.00225 1.0001 0.992186
1.0047 1.00027 0.986462
1.00232 1.00028 0.991974
1.00082 1 0.9944
1.00056 1.00041 0.9958
1.00229 1.00068 0.99168
1.00055 1.00055 0.997243
1.00522 0.996099 0.989699
1.00523 0.998268 0.987428
1.00525 0.99677 0.988932
1.00527 0.999894 0.985847
1.00523 0.998736 0.987045
1.00524 0.999757 0.986158
1.00522 1.00044 0.985366
1.00434 1.00063 0.98666
1.0052 1.00081 0.985074
1.00389 1.00132 0.98672
1.00154 1.00189 0.990167
1.00293 1.00273 0.98686
1.00085 1.00271 0.990522
1.0002 1.00084 0.997346
1.0001 1.0028 0.991633
0.999908 1.00006 0.997881
0.99974 0.999183 0.99837
1.00526 0.994868 0.990649
1.00532 0.994874 0.990502
1.00475 0.994865 0.991751
1.00523 0.995362 0.990231
1.0052 0.996306 0.989162
1.00513 0.997641 0.987735
1.00523 0.99748 0.988329
1.00526 0.995077 0.990296
1.00518 0.995761 0.98928
1.00525 0.994882 0.990282
1.00522 0.994955 0.990927
1.00527 0.994934 0.990785
1.00533 0.994936 0.990938
1.00519 0.994974 0.991006
1.00531 0.994925 0.990624
1.00521 0.99496 0.990896
1.00525 0.994937 0.990911
1.00522 0.994916 0.990656
1.00522 0.994962 0.990824
1.00525 0.996384 0.98951
1.0052 0.995193 0.990544
1.00525 0.99674 0.989116
1.00529 0.9989 0.98697
1.00524 0.997289 0.988597
1.00529 0.999194 0.986637
1.00476 1.00009 0.986544
1.00528 0.999508 0.986326
1.00476 1.00013 0.986512
1.00231 1.00006 0.992139
1.00476 1.00015 0.986508
1.0024 1.00004 0.992061
1.00088 0.999892 0.99444
1.00249 1.00018 0.991883
1.00047 1.00017 0.994633
1.00006 1.00073 0.997644
1.00522 0.995977 0.989708
1.00524 0.997531 0.988268
1.00523 0.996179 0.989523
1.0053 0.999578 0.986261
1.00524 0.99799 0.987659
1.00524 0.996572 0.989142
1.0047 1.00007 0.986623
1.00527 0.999896 0.985811
1.00524 0.998803 0.987008
1.00525 1.00042 0.985316
1.00439 1.00053 0.986659
1.00185 1.00123 0.990276
1.00398 1.00111 0.986725
1.00142 1.00207 0.990169
1.00026 1.00108 0.997239
1.00076 1.00286 0.990524
1.00013 1.00067 0.997465
0.999798 0.999874 0.99805
1.00522 0.994955 0.990828
1.00526 0.99487 0.99063
1.00532 0.994874 0.990484
1.00522 0.995277 0.990335
1.00519 0.996394 0.98913
1.00527 0.995043 0.99026
1.00519 0.994961 0.990999
1.00522 0.994953 0.990938
1.00527 0.994931 0.990772
1.00519 0.994975 0.991011
1.00525 0.99496 0.990886
1.00521 0.994957 0.990891
1.00525 0.994996 0.990849
1.00524 0.996038 0.989951
1.00521 0.994961 0.990816
1.00527 0.996361 0.989503
1.00526 0.998628 0.987313
1.00526 0.99675 0.989118
1.00529 0.998886 0.986978
1.00475 0.999992 0.98668
1.0053 0.999186 0.986656
1.00477 1.00008 0.986558
1.00232 1.00013 0.992024
1.00478 1.00012 0.986527
1.00245 1.00001 0.991996
1.00094 0.999901 0.994349
1.00254 0.999987 0.991946
1.00057 0.999943 0.994694
1.00014 1.00035 0.994849
1.0052 0.995433 0.990463
1.00523 0.997257 0.988558
1.00523 0.995799 0.989839
1.00529 0.999001 0.986884
1.00524 0.997647 0.988131
1.00524 0.996256 0.989347
1.00482 0.999845 0.986682
1.0053 0.999382 0.986367
1.00525 0.997715 0.98789
1.00209 1.00053 0.990519
1.00471 1.00004 0.986622
1.00527 0.999902 0.985776
1.00444 1.00045 0.986658
1.0018 1.00131 0.990288
1.00032 1.00103 0.997255
1.0013 1.00225 0.990171
1.00025 1.00097 0.997268
1 1.00055 0.99761
1.00517 0.99494 0.990991
1.00522 0.99495 0.990786
1.00527 0.994872 0.990611
1.00521 0.995201 0.990438
1.00522 0.995011 0.990882
1.00519 0.994963 0.991
1.00522 0.994952 0.990948
1.00519 0.994978 0.991016
1.00525 0.995014 0.990887
1.00524 0.996101 0.989843
1.00525 0.995064 0.990786
1.00526 0.996253 0.989688
1.00522 0.998142 0.987953
1.00528 0.996348 0.989497
1.00526 0.998623 0.987319
1.00471 0.999874 0.986863
1.00529 0.998883 0.986985
1.00475 0.999983 0.986689
1.00235 1.00019 0.990502
1.00478 1.00007 0.986571
1.00245 1.0001 0.991161
1.00082 0.999959 0.997256
1.00258 0.999979 0.991855
1.00066 0.999889 0.994614
1.00029 0.999982 0.994931
1.00517 0.995312 0.990727
1.00522 0.996818 0.98913
1.00521 0.995484 0.990374
1.00526 0.998641 0.987214
1.00523 0.997263 0.988536
1.00524 0.99562 0.98997
1.00482 0.999643 0.986762
1.00529 0.998995 0.986894
1.00523 0.997761 0.987994
1.00228 0.999998 0.990726
1.0048 0.999774 0.986674
1.0053 0.999178 0.986473
1.00046 1.0007 0.997325
1.0021 1.00052 0.990526
1.00471 1.00001 0.98662
1.00173 1.00136 0.990302
1.00033 1.00096 0.997243
1.00021 1.00091 0.997309
1.0052 0.994975 0.990958
1.00517 0.994942 0.990982
1.00523 0.994947 0.990744
1.00525 0.996267 0.989705
1.00522 0.994992 0.990944
1.00518 0.994965 0.991001
1.00526 0.995072 0.990888
1.00524 0.996159 0.989844
1.00519 0.998157 0.98806
1.00527 0.996458 0.989426
1.00521 0.998389 0.987702
1.00468 0.999558 0.987164
1.00525 0.998607 0.987327
1.00471 0.999867 0.986868
1.00232 1.00014 0.990606
1.00476 0.999977 0.986698
1.00236 1.00017 0.990507
1.00079 1 0.997237
1.00248 1.00008 0.990416
1.0007 0.999957 0.995929
1.00038 0.999855 0.994878
1.00521 0.995378 0.99058
1.00523 0.996751 0.989228
1.00518 0.995206 0.99076
1.00525 0.998725 0.987149
1.00521 0.9969 0.989044
1.00522 0.995534 0.990286
1.0048 0.999589 0.986865
1.00526 0.998843 0.987051
1.00522 0.99727 0.988514
1.00238 0.999804 0.990755
1.0048 0.999634 0.986772
1.00529 0.998991 0.986904
1.00065 1.00029 0.997354
1.0023 0.999975 0.990731
1.00479 0.999701 0.986663
1.00047 1.00068 0.997293
1.0021 1.00051 0.990532
1.0003 1.00093 0.997251
1.00526 0.996219 0.989726
1.0052 0.995073 0.990886
1.00517 0.994945 0.990973
1.00523 0.998065 0.988092
1.00525 0.996212 0.989754
1.00523 0.994955 0.991006
1.00524 0.996215 0.989844
1.00519 0.998155 0.988062
1.00464 0.999434 0.987358
1.00521 0.998639 0.987451
1.00469 0.999651 0.987087
1.00231 1.00004 0.990729
1.00472 0.999858 0.986875
1.00231 1.00015 0.990611
1.00074 1.00002 0.997229
1.00235 1.00016 0.99051
1.00077 1.00002 0.997229
1.00078 0.999918 0.994368
1.00527 0.996703 0.989186
1.00521 0.995189 0.990707
1.00526 0.998552 0.987364
1.00523 0.996758 0.989226
1.0052 0.995104 0.990793
1.00477 0.99972 0.986922
1.00525 0.998734 0.987145
1.0052 0.99698 0.988958
1.00242 0.99984 0.990675
1.00479 0.999678 0.986833
1.00526 0.999049 0.986888
1.00079 1.00002 0.997312
1.0024 0.999799 0.990756
1.00479 0.999618 0.986781
1.00063 1.00032 0.997345
1.00231 0.999968 0.990734
1.00047 1.00066 0.997266
1.00525 0.998103 0.987979
1.00525 0.99632 0.989646
1.0052 0.995185 0.990814
1.00461 0.999375 0.987457
1.00522 0.998062 0.988099
1.00524 0.996172 0.989802
1.00519 0.998153 0.988065
1.00465 0.999422 0.987331
1.00224 0.999995 0.99089
1.00469 0.999744 0.98701
1.00229 1.00005 0.990734
1.00073 1.00002 0.99724
1.00231 1.00015 0.990618
1.00073 1.00004 0.997237
1.00076 1.00002 0.997227
1.00526 0.998392 0.987533
1.00526 0.996446 0.989449
1.00521 0.994975 0.990834
1.00471 0.999671 0.987091
1.00525 0.998558 0.987359
1.00522 0.996764 0.989225
1.00239 0.999943 0.990658
1.00475 0.999732 0.986917
1.00525 0.998742 0.987142
1.00084 0.999941 0.997246
1.00243 0.999856 0.990675
1.00477 0.999761 0.986801
1.00076 1.00007 0.997331
1.00241 0.999812 0.990757
1.00064 1.00032 0.997327
1.00463 0.999575 0.987314
1.00525 0.997989 0.98805
1.00525 0.996407 0.989566
1.0022 0.999927 0.99105
1.00461 0.99936 0.987448
1.00522 0.998058 0.988106
1.00468 0.999406 0.987304
1.00225 0.999973 0.990898
1.00071 1.00002 0.997247
1.00227 1.00006 0.990738
1.00072 1.00003 0.997236
1.0007 1.00005 0.997241
1.00466 0.999617 0.987236
1.00526 0.998224 0.987712
1.00526 0.996205 0.989712
1.00242 0.999991 0.992052
1.00469 0.999675 0.987093
1.00524 0.998566 0.987354
1.0008 0.999954 0.997221
1.0024 0.999961 0.990657
1.00473 0.999745 0.986911
1.00083 0.99997 0.997272
1.00243 0.999879 0.990675
1.00075 1.00009 0.997344
1.00228 0.999929 0.990962
1.00462 0.999472 0.987369
1.00525 0.997875 0.98812
1.00064 0.999988 0.997296
1.00219 0.999927 0.991046
1.00463 0.999347 0.98744
1.00224 0.999953 0.990902
1.00068 1.00001 0.997262
1.00071 1.00004 0.99724
1.00242 0.999965 0.992127
1.00465 0.999618 0.987235
1.00526 0.998051 0.987892
1.00033 0.999992 0.99768
1.00232 0.999994 0.990774
1.00467 0.999676 0.987095
1.00081 0.999965 0.997234
1.0024 0.999981 0.990654
1.00082 0.999991 0.997295
1.00062 0.999967 0.994625
1.0023 0.999928 0.991621
1.00462 0.999371 0.987422
1.00066 0.99999 0.997302
1.00219 0.99993 0.99105
1.00069 1 0.997275
1.00021 0.999991 0.995028
1.00233 0.999956 0.99153
1.00463 0.999623 0.987234
1.00052 0.999985 0.996091
1.00231 0.999996 0.990787
1.00082 0.999976 0.997251
1.00065 0.999979 0.997296
1.00219 0.99992 0.991052
1.00062 0.999992 0.9973
1.00044 0.999976 0.996166
1.00225 0.999951 0.990957
1.00076 0.99998 0.997245
1.00067 0.999976 0.997305
1.00067 0.999979 0.997283

TENSORS stress float
0.00192187 -0.000122164 0.000215853
-0.000122164 0.000837887 -3.32079e-05
0.000215853 -3.32079e-05 0.000814438
0.00601555 -2.75621e-05 0.000228932
-2.75621e-05 0.00335349 2.42654e-05
0.000228932 2.42654e-05 0.00334715
0.00165177 -5.42461e-05 9.48632e-05
-5.42461e-05 0.000675239 -1.32979e-05
9.48632e-05 -1.32979e-05 0.000642097
0.00201078 -7.09912e-05 0.000213322
-7.09912e-05 0.000866558 -1.98925e-05
0.000213322 -1.98925e-05 0.000849757
0.00198479 -0.000108694 0.000211778
-0.000108694 0.000866536 -2.94877e-05
0.000211778 -2.94877e-05 0.000845773
0.00186383 -0.000121212 0.000221581
-0.000121212 0.00080361 -3.38042e-05
0.000221581 -3.38042e-05 0.000781227
0.00163742 -0.000104771 3.87725e-05
-0.000104771 0.00058303 -1.136e-05
3.87725e-05 -1.136e-05 0.00048717
0.00595088 -3.50362e-05 -7.00034e-06
-3.50362e-05 0.00330383 -4.66538e-07
-7.00034e-06 -4.66538e-07 0.00330264
0.00588518 0.000142273 0.000112768
0.000142273 0.00324393 8.98395e-06
0.000112768 8.98395e-06 0.00322503
0.00574208 -0.000119349 4.7762e-05
-0.000119349 0.00317052 2.58542e-06
4.7762e-05 2.58542e-06 0.00314626
0.00175382 0.000150963 0.000223695
0.000150963 0.00072492 2.42033e-05
0.000223695 2.42033e-05 0.000720952
0.00057919 0.000227648 2.58567e-05
0.000227648 -4.12542e-05 1.70424e-05
2.58567e-05 1.70424e-05 -0.000150949
0.00170773 -3.43026e-05 0.000217105
-3.43026e-05 0.00067801 3.26492e-06
0.000217105 3.26492e-06 0.000674642
0.00135198 -3.88885e-06 4.91013e-05
-3.88885e-06 0.000483899 1.33973e-06
4.91013e-05 1.33973e-06 0.000442993
0.00143576 -5.14035e-05 -4.29935e-05
-5.14035e-05 0.000548636 7.47174e-06
-4.29935e-05 7.47174e-06 0.000505205
0.00168338 -7.31949e-05 7.19122e-05
-7.31949e-05 0.000682214 -4.22248e-06
7.19122e-05 -4.22248e-06 0.000651819
0.00164805 -3.91061e-05 0.000102293
-3.91061e-05 0.000680774 -1.35298e-05
0.000102293 -1.35298e-05 0.000644023
0.00166976 -6.63948e-05 8.44951e-05
-6.63948e-05 0.000676651 -1.07221e-05
8.44951e-05 -1.07221e-05 0.000647161
0.00169549 -0.000142799 -3.54839e-05
-0.000142799 0.000613338 4.41587e-06
-3.54839e-05 4.41587e-06 0.000526129
0.00576732 -0.000124139 0.000271989
-0.000124139 0.00318124 -9.80899e-06
0.000271989 -9.80899e-06 0.00319203
0.00196775 -5.0808e-05 0.000213655
-5.0808e-05 0.000839023 -1.47694e-05
0.000213655 -1.47694e-05 0.000824023
0.00202035 -9.13162e-05 0.000211874
-9.13162e-05 0.000878634 -2.49487e-05
0.000211874 -2.49487e-05 0.000860361
0.00163668 -0.000120338 6.01834e-05
-0.000120338 0.000562388 -9.09044e-06
6.01834e-05 -9.09044e-06 0.000476789
0.00164398 -0.000115536 4.8211e-05
-0.000115536 0.000572622 -1.06673e-05
4.8211e-05 -1.06673e-05 0.000484181
0.00181939 -9.66846e-05 0.000219469
-9.66846e-05 0.000768096 -3.02691e-05
0.000219469 -3.02691e-05 0.000749471
0.00160299 -9.48486e-05 3.10478e-05
-9.48486e-05 0.000582347 -1.21634e-05
3.10478e-05 -1.21634e-05 0.000476944
0.00203882 -0.000259723 1.56371e-05
-0.000259723 0.000661646 -6.75447e-06
1.56371e-05 -6.75447e-06 0.00049149
0.00591899 -5.01155e-05 -0.000226674
-5.01155e-05 0.00327548 -1.54496e-05
-0.000226674 -1.54496e-05 0.00327875
0.00379737 0.000113327 -0.000124173
0.000113327 0.00197354 -1.23204e-05
-0.000124173 -1.23204e-05 0.00195376
0.00368705 1.30121e-05 -0.000119124
1.30121e-05 0.00192287 -8.74772e-06
-0.000119124 -8.74772e-06 0.0019012
0.00581074 -0.000103693 -3.04536e-06
-0.000103693 0.00323194 2.94499e-07
-3.04536e-06 2.94499e-07 0.00322399
0.00053545 0.000209279 -1.66353e-06
0.000209279 -6.42524e-05 -1.00839e-06
-1.66353e-06 -1.00839e-06 -0.000173841
0.00169988 6.02237e-05 0.000217718
6.02237e-05 0.000680374 1.83767e-05
0.000217718 1.83767e-05 0.000666162
0.00182767 0.000142088 0.000221102
0.000142088 0.00078718 2.81514e-05
0.000221102 2.81514e-05 0.000764288
0.00270412 0.00019109 0.000134103
0.00019109 0.00121213 1.81701e-05
0.000134103 1.81701e-05 0.00113933
0.00499745 -0.000358341 -1.81944e-05
-0.000358341 0.00281332 8.52221e-06
-1.81944e-05 8.52221e-06 0.00274179
0.00279625 0.000252891 0.000135808
0.000252891 0.00130234 2.1939e-05
0.000135808 2.1939e-05 0.00121936
0.000531506 0.000186413 2.75082e-05
0.000186413 -6.52803e-05 2.18689e-05
2.75082e-05 2.18689e-05 -0.000171641
0.000870948 0.000202982 1.17343e-05
0.000202982 3.50681e-05 5.76962e-06
1.17343e-05 5.76962e-06 -0.000148032
0.00384429 -0.000103856 0.000140718
-0.000103856 0.00204563 8.55885e-06
0.000140718 8.55885e-06 0.00204865
0.0057754 7.55984e-05 3.66247e-06
7.55984e-05 0.00317532 -1.59909e-06
3.66247e-06 -1.59909e-06 0.00319192
0.00368104 7.57186e-05 -0.000103469
7.57186e-05 0.00189815 -4.18927e-06
-0.000103469 -4.18927e-06 0.00188557
0.00564986 5.99373e-05 0.000265877
5.99373e-05 0.00310178 3.55401e-06
0.000265877 3.55401e-06 0.00311861
0.00133301 8.0956e-05 5.20257e-05
8.0956e-05 0.000472492 3.16135e-06
5.20257e-05 3.16135e-06 0.000436357
0.00060241 1.03261e-05 1.59378e-05
1.03261e-05 -9.58157e-05 1.80049e-06
1.59378e-05 1.80049e-06 -0.000174299
0.00576561 0.000210031 0.00014561
0.000210031 0.00319573 1.33623e-05
0.00014561 1.33623e-05 0.00317195
0.00274328 6.68307e-05 0.000128593
6.68307e-05 0.00120307 7.83733e-06
0.000128593 7.83733e-06 0.0011486
0.0013019 -7.76769e-05 -6.31701e-05
-7.76769e-05 0.000466219 7.77715e-06
-6.31701e-05 7.77715e-06 0.000421213
0.00134506 -8.71517e-05 -5.54419e-05
-8.71517e-05 0.000495819 8.94081e-06
-5.54419e-05 8.94081e-06 0.000450531
0.00149437 -4.51468e-06 -3.11677e-05
-4.51468e-06 0.000587852 6.8849e-06
-3.11677e-05 6.8849e-06 0.000542578
0.00172763 -0.000148497 -0.000116819
-0.000148497 0.000625973 2.00221e-05
-0.000116819 2.00221e-05 0.000547531
0.00361583 -2.90529e-06 -0.000107497
-2.90529e-06 0.00186648 -1.98284e-06
-0.000107497 -1.98284e-06 0.00185238
0.00166253 -5.60341e-05 7.76701e-05
-5.60341e-05 0.000664875 -3.47472e-06
7.76701e-05 -3.47472e-06 0.000637621
0.00160778 -1.59038e-05 0.000105971
-1.59038e-05 0.000658775 -1.16523e-05
0.000105971 -1.16523e-05 0.000620962
0.00168164 -7.11433e-05 7.68183e-05
-7.11433e-05 0.000680254 -7.22494e-06
7.68183e-05 -7.22494e-06 0.000651279
0.00169973 -9.96255e-05 -2.85556e-05
-9.96255e-05 0.00059197 1.60184e-06
-2.85556e-05 1.60184e-06 0.000515545
0.0016695 -0.000139108 -4.09337e-05
-0.000139108 0.00061117 4.75749e-06
-4.09337e-05 4.75749e-06 0.000518094
0.00170009 -0.000135832 -3.03978e-05
-0.000135832 0.000605526 3.14033e-06
-3.03978e-05 3.14033e-06 0.00052332
0.00202437 -0.00025881 -8.29048e-06
-0.00025881 0.000649243 2.23068e-06
-8.29048e-06 2.23068e-06 0.000479217
0.00562761 2.5127e-05 0.000260784
2.5127e-05 0.00308701 -8.08295e-07
0.000260784 -8.08295e-07 0.0031049
0.00191684 -2.91914e-05 0.000211155
-2.91914e-05 0.000811445 -1.01469e-05
0.000211155 -1.01469e-05 0.000798936
0.00242661 5.30033e-06 4.37382e-05
5.30033e-06 0.00103164 -9.21923e-07
4.37382e-05 -9.21923e-07 0.000967787
0.00162495 -9.75707e-05 5.3335e-05
-9.75707e-05 0.000547794 -6.02164e-06
5.3335e-05 -6.02164e-06 0.000468347
0.00163809 -0.000119761 5.56525e-05
-0.000119761 0.000564181 -1.01807e-05
5.56525e-05 -1.01807e-05 0.000478028
0.0018937 -0.000164837 1.15606e-05
-0.000164837 0.000508294 -2.94842e-06
1.15606e-05 -2.94842e-06 0.000366041
0.00175416 -0.000219261 1.64558e-05
-0.000219261 0.0004549 -5.56779e-06
1.64558e-05 -5.56779e-06 0.000295393
0.0015548 -5.46944e-05 0.000193662
-5.46944e-05 0.000606971 -2.29421e-05
0.000193662 -2.29421e-05 0.000592026
0.00152199 -5.7222e-05 2.23899e-05
-5.7222e-05 0.000552274 -1.19773e-05
2.23899e-05 -1.19773e-05 0.000445983
0.00200901 -0.000277252 1.51073e-05
-0.000277252 0.000682147 -7.58142e-06
1.51073e-05 -7.58142e-06 0.000501872
0.00141368 -0.000302192 6.56004e-06
-0.000302192 0.000118281 -1.60539e-06
6.56004e-06 -1.60539e-06 -9.46787e-05
0.00617804 0.000202846 -0.000282757
0.000202846 0.00342366 -2.75661e-05
-0.000282757 -2.75661e-05 0.00342743
0.00562394 -0.000127747 -0.000194154
-0.000127747 0.00311948 -1.23834e-05
-0.000194154 -1.23834e-05 0.00311237
0.00598139 2.69392e-05 -0.000244115
2.69392e-05 0.00330275 -1.90118e-05
-0.000244115 -1.90118e-05 0.00331153
0.0004939 0.000201556 -2.46631e-05
0.000201556 -8.42253e-05 -1.76206e-05
-2.46631e-05 -1.76206e-05 -0.000195871
0.00616981 0.000200741 -2.69221e-06
0.000200741 0.00341626 -2.10379e-06
-2.69221e-06 -2.10379e-06 0.00342176
0.00618437 0.000142047 -8.89503e-06
0.000142047 0.00342473 -2.06161e-06
-8.89503e-06 -2.06161e-06 0.00343025
0.00045461 0.000126008 4.40719e-08
0.000126008 -0.000159108 -2.67425e-07
4.40719e-08 -2.67425e-07 -0.000257446
0.00317359 -0.0001233 -8.46847e-05
-0.0001233 0.00164264 -3.15684e-06
-8.46847e-05 -3.15684e-06 0.0016106
0.000458318 0.000194284 -1.70942e-07
0.000194284 -0.000116201 -4.04494e-07
-1.70942e-07 -4.04494e-07 -0.00022671
0.0016481 0.000183173 4.5933e-05
0.000183173 0.000618976 2.18227e-06
4.5933e-05 2.18227e-06 0.000530529
0.000840443 0.000198487 3.62143e-07
0.000198487 1.51735e-05 -1.06751e-08
3.62143e-07 -1.06751e-08 -0.000166393
0.00476475 -0.000120457 0.000173129
-0.000120457 0.0026086 1.29908e-05
0.000173129 1.29908e-05 0.00260465
0.000618751 6.6331e-06 8.08399e-06
6.6331e-06 5.31632e-05 1.10128e-05
8.08399e-06 1.10128e-05 -7.97805e-07
0.000558897 9.60899e-05 1.63229e-05
9.60899e-05 -0.0001166 9.31408e-06
1.63229e-05 9.31408e-06 -0.000209681
0.00060249 0.000153052 2.12466e-05
0.000153052 -5.5622e-05 1.63783e-05
2.12466e-05 1.63783e-05 -0.000160288
0.00102486 0.000184029 1.44365e-05
0.000184029 -6.13539e-06 5.35689e-06
1.44365e-05 5.35689e-06 -0.000172781
0.00277258 0.000129767 0.000113381
0.000129767 0.00132494 1.49057e-05
0.000113381 1.49057e-05 0.00125935
0.000908659 0.000202467 1.31972e-05
0.000202467 9.90139e-06 6.59203e-06
1.31972e-05 6.59203e-06 -0.000167686
0.000836377 0.00020551 1.09564e-05
0.00020551 7.70064e-05 5.23015e-06
1.09564e-05 5.23015e-06 -0.000113168
0.00104893 0.000273876 4.75842e-06
0.000273876 6.92374e-05 9.58589e-07
4.75842e-06 9.58589e-07 -0.000158675
0.00305326 -0.000121011 8.21213e-05
-0.000121011 0.00155946 3.38617e-06
8.21213e-05 3.38617e-06 0.00155955
0.00354744 -0.000148047 1.49953e-05
-0.000148047 0.00187213 -1.77018e-07
1.49953e-05 -1.77018e-07 0.00186433
0.00605169 4.17907e-05 -0.000273868
4.17907e-05 0.00333308 -1.24358e-05
-0.000273868 -1.24358e-05 0.0033484
0.00584136 6.59279e-05 -0.000272889
6.59279e-05 0.00321239 -7.67258e-06
-0.000272889 -7.67258e-06 0.00322988
0.00573679 8.45983e-05 -6.18823e-08
8.45983e-05 0.00316009 -3.23733e-06
-6.18823e-08 -3.23733e-06 0.00317324
0.00360081 2.27979e-05 -0.000116061
2.27979e-05 0.00184837 -5.3865e-06
-0.000116061 -5.3865e-06 0.00184
0.00163354 3.59125e-05 5.53952e-05
3.59125e-05 0.000533226 1.27348e-06
5.53952e-05 1.27348e-06 0.000469177
0.00380363 0.000128194 -0.00010576
0.000128194 0.00197723 -5.73858e-06
-0.00010576 -5.73858e-06 0.00195849
0.00167878 8.50069e-05 5.54991e-05
8.50069e-05 0.00055903 2.44606e-06
5.54991e-05 2.44606e-06 0.000487777
0.00570009 0.000132497 0.000269102
0.000132497 0.00314758 6.7636e-06
0.000269102 6.7636e-06 0.00315505
0.000519767 1.0734e-05 1.87846e-05
1.0734e-05 -0.000141488 6.89158e-07
1.87846e-05 6.89158e-07 -0.000217624
0.00274919 3.24551e-05 0.000127698
3.24551e-05 0.00120741 5.31516e-06
0.000127698 5.31516e-06 0.00115709
0.0010366 4.57153e-05 1.23403e-05
4.57153e-05 -2.66329e-05 1.08946e-06
1.23403e-05 1.08946e-06 -0.000154408
0.00267564 0.000109872 0.000132327
0.000109872 0.00116821 1.02358e-05
0.000132327 1.02358e-05 0.00110859
0.00109515 0.00010786 1.23073e-05
0.00010786 -3.42974e-06 2.22846e-06
1.23073e-05 2.22846e-06 -0.000144518
0.00173235 4.29735e-05 -0.000216082
4.29735e-05 0.000693479 2.19263e-06
-0.000216082 2.19263e-06 0.000690996
0.00132088 -6.78906e-06 -4.99625e-05
-6.78906e-06 0.000469446 2.0695e-06
-4.99625e-05 2.0695e-06 0.000428883
0.00148115 3.33658e-05 -2.28706e-05
3.33658e-05 0.000586053 6.91475e-06
-2.28706e-05 6.91475e-06 0.000537937
0.00130286 -8.8881e-05 -6.38525e-05
-8.8881e-05 0.000469608 9.2219e-06
-6.38525e-05 9.2219e-06 0.000424332
0.00181838 -7.93246e-05 -0.000113836
-7.93246e-05 0.000655249 1.01375e-05
-0.000113836 1.01375e-05 0.000588207
0.00177987 -0.000125855 -0.000114465
-0.000125855 0.000645432 1.6981e-05
-0.000114465 1.6981e-05 0.000572648
0.00168477 -0.000158513 -0.00011878
-0.000158513 0.000611778 2.1204e-05
-0.00011878 2.1204e-05 0.000528277
0.00200438 -0.000257348 -2.99891e-05
-0.000257348 0.000633876 1.03222e-05
-2.99891e-05 1.03222e-05 0.000464221
0.00572682 -9.30677e-05 2.14957e-06
-9.30677e-05 0.0031562 -1.68016e-06
2.14957e-06 -1.68016e-06 0.00316807
0.00158269 3.8683e-05 8.53792e-05
3.8683e-05 0.00061352 -3.67553e-06
8.53792e-05 -3.67553e-06 0.000591714
0.00113582 -5.42995e-06 -5.8469e-05
-5.42995e-06 0.000236137 1.37694e-06
-5.8469e-05 1.37694e-06 0.000170562
0.00168544 -6.22445e-05 -3.21342e-05
-6.22445e-05 0.000578955 2.20396e-06
-3.21342e-05 2.20396e-06 0.000506762
0.00374687 1.64353e-05 0.000203206
1.64353e-05 0.0019691 -8.19947e-06
0.000203206 -8.19947e-06 0.00195698
0.00218201 -0.00013294 -3.68067e-05
-0.00013294 0.00093708 2.00001e-06
-3.68067e-05 2.00001e-06 0.000843499
0.00170406 -0.000119908 -2.79513e-05
-0.000119908 0.000600276 2.14189e-06
-2.79513e-05 2.14189e-06 0.000521474
0.00187428 -0.00016148 -9.49146e-06
-0.00016148 0.000492677 1.69133e-06
-9.49146e-06 1.69133e-06 0.000351272
0.0019945 -0.000278687 -7.03747e-06
-0.000278687 0.000669516 2.08461e-06
-7.03747e-06 2.08461e-06 0.000488445
0.00189085 -0.00022535 -5.97083e-06
-0.00022535 0.000538404 1.53005e-06
-5.97083e-06 1.53005e-06 0.00037885
0.00143683 -0.000303122 4.48049e-07
-0.000303122 0.000133372 -1.45711e-07
4.48049e-07 -1.45711e-07 -7.90828e-05
0.000560203 1.19849e-05 1.94252e-05
1.19849e-05 -0.000120041 -9.92328e-07
1.94252e-05 -9.92328e-07 -0.000192928
0.00154431 7.93444e-06 4.41253e-05
7.93444e-06 0.000493255 -2.57487e-06
4.41253e-05 -2.57487e-06 0.000422306
0.00170675 -4.5e-05 1.2056e-05
-4.5e-05 0.000384022 -8.51454e-07
1.2056e-05 -8.51454e-07 0.000266982
0.00171181 -0.000126024 1.20935e-05
-0.000126024 0.000386415 -1.98714e-06
1.20935e-05 -1.98714e-06 0.00025265
0.00173431 -0.000188892 1.45001e-05
-0.000188892 0.00041856 -4.06685e-06
1.45001e-05 -4.06685e-06 0.000268896
0.00177718 -0.00021881 7.81379e-07
-0.00021881 0.000229845 -3.64985e-07
7.81379e-07 -3.64985e-07 6.74607e-05
0.0052355 0.000173613 0.000157351
0.000173613 0.00291248 -1.16745e-05
0.000157351 -1.16745e-05 0.00289234
0.00145031 -0.000279225 5.44019e-06
-0.000279225 9.89819e-05 -1.29187e-06
5.44019e-06 -1.29187e-06 -9.77893e-05
0.00036705 -0.000142568 2.05864e-05
-0.000142568 -0.000160906 -1.69853e-05
2.05864e-05 -1.69853e-05 -0.000251494
0.000856408 -0.000207998 1.17122e-05
-0.000207998 2.15552e-05 -7.46086e-06
1.17122e-05 -7.46086e-06 -0.000161709
0.00143508 -0.000331491 7.45235e-06
-0.000331491 0.000186249 -2.31685e-06
7.45235e-06 -2.31685e-06 -4.66362e-05
0.00170768 -0.000377855 3.16969e-06
-0.000377855 0.000177362 1.2411e-06
3.16969e-06 1.2411e-06 -4.06919e-05
0.000486652 -8.48845e-05 1.61831e-05
-8.48845e-05 -4.10954e-05 -1.41681e-05
1.61831e-05 -1.41681e-05 -0.000114918
0.000458642 -7.18187e-05 -5.48384e-07
-7.18187e-05 -3.06432e-05 -4.91011e-06
-5.48384e-07 -4.91011e-06 -0.000198014
0.00620115 0.000220378 -0.000294384
0.000220378 0.00344063 -2.73531e-05
-0.000294384 -2.73531e-05 0.00344331
0.00608252 0.000125118 -0.000263835
0.000125118 0.00336117 -2.38561e-05
-0.000263835 -2.38561e-05 0.00337005
0.000454292 0.000121486 -1.85771e-05
0.000121486 -0.0001611 -1.13656e-05
-1.85771e-05 -1.13656e-05 -0.000259456
0.00505322 -0.000190971 -0.000149838
-0.000190971 0.00280249 -1.09287e-05
-0.000149838 -1.09287e-05 0.00278169
0.000440128 0.000161649 -2.27911e-05
0.000161649 -0.00011816 -1.63921e-05
-2.27911e-05 -1.63921e-05 -0.000210494
0.000441595 0.000180175 -2.09826e-05
0.000180175 -0.000123856 -1.63748e-05
-2.09826e-05 -1.63748e-05 -0.00023574
0.000878486 0.000200536 -1.26766e-05
0.000200536 3.61423e-05 -6.06789e-06
-1.26766e-05 -6.06789e-06 -0.000144911
0.00445355 -0.000149081 1.33708e-05
-0.000149081 0.0024292 -1.14417e-06
1.33708e-05 -1.14417e-06 0.00241959
0.000551042 -5.68052e-06 8.67611e-07
-5.68052e-06 1.62144e-05 7.64359e-07
8.67611e-07 7.64359e-07 -3.6041e-05
0.00166384 0.000130523 5.6493e-05
0.000130523 0.000560003 4.32664e-06
5.6493e-05 4.32664e-06 0.000479187
0.00162488 0.000185769 5.54903e-05
0.000185769 0.000571991 4.38802e-06
5.54903e-05 4.38802e-06 0.000479209
0.000998384 0.000183021 9.76454e-08
0.000183021 -1.66277e-05 -2.49977e-07
9.76454e-08 -2.49977e-07 -0.000183721
0.000526109 0.000122409 -9.01667e-07
0.000122409 -4.5911e-05 -1.49992e-07
-9.01667e-07 -1.49992e-07 -0.000126104
0.000908129 0.000201007 6.89158e-07
0.000201007 1.36604e-05 9.03262e-08
6.89158e-07 9.03262e-08 -0.000163377
0.000841752 0.000201269 3.21813e-07
0.000201269 7.62083e-05 -7.92536e-07
3.21813e-07 -7.92536e-07 -0.000112508
0.00111032 0.000283109 -1.40947e-07
0.000283109 0.000103137 -3.59249e-07
-1.40947e-07 -3.59249e-07 -0.000126278
0.000665167 7.48775e-05 1.69033e-05
7.48775e-05 6.72543e-05 1.30329e-05
1.69033e-05 1.30329e-05 -2.51923e-06
0.000598087 -3.47337e-05 3.18252e-06
-3.47337e-05 4.3747e-05 8.97931e-06
3.18252e-06 8.97931e-06 2.55514e-06
0.00111804 0.000110355 2.55182e-06
0.000110355 0.000378483 5.94115e-06
2.55182e-06 5.94115e-06 0.000222606
0.00106807 0.00016238 1.36195e-05
0.00016238 -4.85822e-06 4.20384e-06
1.36195e-05 4.20384e-06 -0.000163501
0.000963771 0.000198638 1.43767e-05
0.000198638 -4.22276e-06 6.26157e-06
1.43767e-05 6.26157e-06 -0.000177584
0.00155741 0.000298701 4.90234e-06
0.000298701 0.000152149 8.74984e-07
4.90234e-06 8.74984e-07 -5.11916e-05
0.000787566 0.000206104 8.541e-06
0.000206104 0.000118488 5.51301e-06
8.541e-06 5.51301e-06 -7.18716e-05
0.00128859 0.000315039 4.34097e-06
0.000315039 0.000136025 6.32443e-07
4.34097e-06 6.32443e-07 -9.23745e-05
0.00108481 0.000274664 5.06852e-06
0.000274664 0.000140037 1.37368e-06
5.06852e-06 1.37368e-06 -9.89275e-05
0.00137103 0.000359131 -4.1051e-06
0.000359131 0.00019108 -2.3686e-06
-4.1051e-06 -2.3686e-06 -6.37345e-05
0.00268585 -0.000125933 4.43659e-05
-0.000125933 0.00133056 3.09726e-06
4.43659e-05 3.09726e-06 0.00132901
0.00292475 -0.00014407 1.08036e-05
-0.00014407 0.00148517 -7.92134e-07
1.08036e-05 -7.92134e-07 0.00147859
0.00326663 -0.000169029 -6.13855e-05
-0.000169029 0.00170488 -3.1129e-06
-6.13855e-05 -3.1129e-06 0.00169084
0.000452251 -5.22532e-05 1.1084e-05
-5.22532e-05 -5.15102e-05 -1.22306e-05
1.1084e-05 -1.22306e-05 -0.000114054
0.00457583 0.000171094 0.000127532
0.000171094 0.00251801 -1.06092e-05
0.000127532 -1.06092e-05 0.00249833
0.00617544 0.000194292 -0.000296036
0.000194292 0.0034216 -2.33408e-05
-0.000296036 -2.33408e-05 0.00342812
0.0058802 7.94218e-05 -0.00027226
7.94218e-05 0.00323358 -1.06486e-05
-0.00027226 -1.06486e-05 0.00325005
0.000537899 9.38803e-05 -1.97665e-05
9.38803e-05 -0.000134164 -5.13972e-06
-1.97665e-05 -5.13972e-06 -0.000218706
0.000519868 4.21769e-05 -1.93472e-05
4.21769e-05 -0.000140824 -2.60275e-06
-1.93472e-05 -2.60275e-06 -0.000220032
0.00568027 -9.27228e-06 -0.00026254
-9.27228e-06 0.0031163 -1.97219e-06
-0.00026254 -1.97219e-06 0.00313488
0.00563564 1.36006e-05 -4.08304e-07
1.36006e-05 0.00309072 -7.16261e-07
-4.08304e-07 -7.16261e-07 0.00310911
0.000502938 8.33432e-07 -1.07715e-07
8.33432e-07 -0.000154394 3.88555e-08
-1.07715e-07 3.88555e-08 -0.000228702
0.00161922 3.56131e-05 5.54317e-05
3.56131e-05 0.000521274 2.24677e-06
5.54317e-05 2.24677e-06 0.000456219
0.00100921 4.93816e-05 -4.57453e-08
4.93816e-05 -4.50667e-05 -1.53844e-07
-4.57453e-08 -1.53844e-07 -0.000173444
0.000499771 7.93789e-05 -4.06778e-07
7.93789e-05 -0.000154434 -3.54599e-07
-4.06778e-07 -3.54599e-07 -0.000243908
0.00103871 0.000108751 -1.87943e-07
0.000108751 -3.6963e-05 -1.67616e-07
-1.87943e-07 -1.67616e-07 -0.000178866
0.000496983 -2.97926e-05 1.93484e-05
-2.97926e-05 -0.000159659 -7.88526e-07
1.93484e-05 -7.88526e-07 -0.000231478
0.00100385 1.92666e-05 1.2145e-05
1.92666e-05 -3.93316e-05 4.73445e-07
1.2145e-05 4.73445e-07 -0.000164304
0.00104497 7.63062e-05 1.20162e-05
7.63062e-05 -2.82766e-05 1.79038e-06
1.20162e-05 1.79038e-06 -0.000161551
0.00156566 7.62271e-05 -3.04057e-07
7.62271e-05 4.86425e-05 -1.90436e-07
-3.04057e-07 -1.90436e-07 -7.19313e-05
0.00109638 0.000135928 1.28312e-05
0.000135928 1.35116e-07 3.0882e-06
1.28312e-05 3.0882e-06 -0.000149675
0.00167456 0.00017802 1.40904e-06
0.00017802 0.000110378 -2.56711e-07
1.40904e-06 -2.56711e-07 -3.53319e-05
0.00564858 -5.36973e-05 -0.000267807
-5.36973e-05 0.00310306 1.54278e-06
-0.000267807 1.54278e-06 0.00311886
0.00127942 -0.000144968 -5.17033e-05
-0.000144968 0.000453736 5.70914e-06
-5.17033e-05 5.70914e-06 0.000411697
-0.000271966 -3.5312e-06 -1.25829e-05
-3.5312e-06 -0.000617231 2.05586e-06
-1.25829e-05 2.05586e-06 -0.000704925
0.00178233 -5.51942e-05 -0.000113038
-5.51942e-05 0.000632036 7.1654e-06
-0.000113038 7.1654e-06 0.000567472
0.00561398 0.000335675 5.24138e-07
0.000335675 0.00317005 6.07139e-06
5.24138e-07 6.07139e-06 0.0031039
0.00282378 -0.00021923 -0.000121336
-0.00021923 0.00131979 2.16671e-05
-0.000121336 2.16671e-05 0.00123215
0.00181245 -0.000102671 -0.000113902
-0.000102671 0.000656477 1.34939e-05
-0.000113902 1.34939e-05 0.000587459
0.00182835 -0.000156824 -2.89179e-05
-0.000156824 0.000460736 5.47213e-06
-2.89179e-05 5.47213e-06 0.000320441
0.00200628 -0.000229984 -2.86324e-05
-0.000229984 0.000608598 8.664e-06
-2.86324e-05 8.664e-06 0.000449378
0.00200834 -0.000281881 -2.76129e-05
-0.000281881 0.00067513 1.10339e-05
-2.76129e-05 1.10339e-05 0.000492969
0.00146422 -0.000304324 -5.16094e-06
-0.000304324 0.000151251 1.25004e-06
-5.16094e-06 1.25004e-06 -6.07424e-05
0.00049886 6.29418e-06 -5.74262e-08
6.29418e-06 -0.000155266 1.62152e-07
-5.74262e-08 1.62152e-07 -0.000229123
0.00167268 -7.48883e-05 -3.1087e-05
-7.48883e-05 0.000573742 3.6468e-07
-3.1087e-05 3.6468e-07 0.000505173
0.00130591 -4.06391e-05 -8.65883e-06
-4.06391e-05 0.000141253 4.93861e-07
-8.65883e-06 4.93861e-07 1.97263e-05
0.00184332 -0.000127378 -6.84057e-06
-0.000127378 0.000465863 1.05366e-06
-6.84057e-06 1.05366e-06 0.000332525
0.0054395 0.000155354 -1.11477e-06
0.000155354 0.00303031 -9.33726e-08
-1.11477e-06 -9.33726e-08 0.00301377
0.00163264 -0.000135387 1.43216e-07
-0.000135387 0.000623002 2.11901e-07
1.43216e-07 2.11901e-07 0.000521029
0.00133043 -0.000239267 1.38912e-06
-0.000239267 0.000315544 -9.51014e-07
1.38912e-06 -9.51014e-07 0.000130303
0.00177527 -0.000190481 -7.02649e-06
-0.000190481 0.000443277 1.67888e-06
-7.02649e-06 1.67888e-06 0.000293275
0.00173096 -0.000219164 -1.7208e-06
-0.000219164 0.000198309 3.32221e-07
-1.7208e-06 3.32221e-07 3.83398e-05
0.00141624 -0.000329672 7.74023e-07
-0.000329672 0.000178874 -1.75208e-07
7.74023e-07 -1.75208e-07 -5.339e-05
0.00161356 -0.000286266 4.70665e-07
-0.000286266 0.000199256 -1.80585e-07
4.70665e-07 -1.80585e-07 3.24397e-06
0.00174169 -0.000378607 6.86734e-07
-0.000378607 0.000202526 4.92996e-08
6.86734e-07 4.92996e-08 -1.49993e-05
0.000496314 -9.0029e-05 -3.55556e-07
-9.0029e-05 -3.68681e-05 5.33929e-07
-3.55556e-07 5.33929e-07 -0.000114227
0.000651813 -0.000100116 2.00083e-07
-0.000100116 8.22674e-05 3.17297e-08
2.00083e-07 3.17297e-08 -8.64156e-05
0.000986282 -1.9685e-05 1.20868e-05
-1.9685e-05 -4.33593e-05 -7.73959e-07
1.20868e-05 -7.73959e-07 -0.000168233
0.0017527 -8.13202e-05 1.11174e-05
-8.13202e-05 0.000411392 -1.32099e-06
1.11174e-05 -1.32099e-06 0.000288397
0.00170888 -7.40539e-05 -3.06581e-07
-7.40539e-05 0.000153818 2.79835e-07
-3.06581e-07 2.79835e-07 3.02519e-05
0.00162233 -0.000175415 1.54688e-06
-0.000175415 0.000111286 3.38479e-07
1.54688e-06 3.38479e-07 -3.22651e-05
0.00171974 -0.000261117 2.33631e-06
-0.000261117 0.00022593 -2.02072e-07
2.33631e-06 -2.02072e-07 4.96555e-05
0.00187264 -0.000260293 1.07405e-07
-0.000260293 0.00015672 5.34741e-07
1.07405e-07 5.34741e-07 1.38657e-05
0.00046416 -0.000125605 1.90675e-05
-0.000125605 -7.7579e-05 -1.62739e-05
1.90675e-05 -1.62739e-05 -0.00016195
0.0017598 -0.000346235 1.2544e-06
-0.000346235 0.000167995 1.07811e-06
1.2544e-06 1.07811e-06 -2.18575e-05
0.000646158 -0.000194216 8.047e-06
-0.000194216 -3.85279e-05 -7.60063e-06
8.047e-06 -7.60063e-06 -0.000225886
0.00118239 -0.000319359 9.66151e-06
-0.000319359 0.000113 -3.88181e-06
9.66151e-06 -3.88181e-06 -0.000130483
0.00187888 -0.000429678 2.78928e-06
-0.000429678 0.000340262 6.28378e-07
2.78928e-06 6.28378e-07 8.57295e-05
0.00206132 -0.000413105 -2.12263e-06
-0.000413105 0.000340159 3.66685e-06
-2.12263e-06 3.66685e-06 0.000144262
0.00063884 -0.000165028 1.01665e-06
-0.000165028 8.28482e-05 -4.85433e-06
1.01665e-06 -4.85433e-06 -0.000119066
0.000571697 -6.09694e-05 -3.49951e-07
-6.09694e-05 3.05151e-05 -4.95925e-06
-3.49951e-07 -4.95925e-06 -0.000102679
0.00110059 -0.000220885 -2.08979e-06
-0.000220885 0.000378719 8.91293e-07
-2.08979e-06 8.91293e-07 0.000134914
0.000482993 0.000100741 -1.79587e-05
0.000100741 -0.000157513 -8.68253e-06
-1.79587e-05 -8.68253e-06 -0.000251443
0.00412289 -0.000184047 -0.000102782
-0.000184047 0.00223556 -5.98139e-06
-0.000102782 -5.98139e-06 0.00221737
0.000337172 -1.85907e-05 -2.97414e-06
-1.85907e-05 -0.000107054 -1.03983e-05
-2.97414e-06 -1.03983e-05 -0.000159873
0.000435548 0.000150788 -1.97859e-05
0.000150788 -0.000149691 -1.43299e-05
-1.97859e-05 -1.43299e-05 -0.000254876
0.000971386 0.000182217 -1.50297e-05
0.000182217 -2.75574e-05 -5.83492e-06
-1.50297e-05 -5.83492e-06 -0.000195113
0.000451452 0.000114671 -2.10542e-05
0.000114671 -9.28519e-05 -1.46639e-05
-2.10542e-05 -1.46639e-05 -0.000169238
0.000685897 0.000186288 -9.72558e-06
0.000186288 -2.02622e-05 -6.80674e-06
-9.72558e-06 -6.80674e-06 -0.000206582
0.00090904 0.000199534 -1.33254e-05
0.000199534 1.88601e-05 -6.78895e-06
-1.33254e-05 -6.78895e-06 -0.000157614
0.00114914 0.000290437 -5.44945e-06
0.000290437 0.000123108 -1.87578e-06
-5.44945e-06 -1.87578e-06 -0.000107539
0.000502732 6.20152e-05 2.25812e-06
6.20152e-05 -2.99648e-05 6.7766e-07
2.25812e-06 6.7766e-07 -9.74714e-05
0.000491322 -5.18217e-05 1.14854e-07
-5.18217e-05 -1.44679e-05 3.18244e-07
1.14854e-07 3.18244e-07 -5.83064e-05
0.000627453 6.54737e-05 1.25407e-06
6.54737e-05 6.45665e-05 7.71863e-08
1.25407e-06 7.71863e-08 -7.37592e-05
0.00103309 0.000162186 -6.26652e-08
0.000162186 -2.22489e-05 -2.66438e-07
-6.26652e-08 -2.66438e-07 -0.000181678
0.000953554 0.000197179 3.54239e-07
0.000197179 -4.19401e-06 -2.00357e-07
3.54239e-07 -2.00357e-07 -0.000177521
0.00154624 0.000298331 4.03281e-08
0.000298331 0.000144251 -5.77608e-08
4.03281e-08 -5.77608e-08 -5.95076e-05
0.000785391 0.000198709 -4.85719e-07
0.000198709 0.000113727 -1.45382e-07
-4.85719e-07 -1.45382e-07 -7.60822e-05
0.00136077 0.000318051 -1.40111e-07
0.000318051 0.000177393 -9.77664e-08
-1.40111e-07 -9.77664e-08 -5.14483e-05
0.00108818 0.0002749 -8.60428e-08
0.0002749 0.000143838 -5.91191e-07
-8.60428e-08 -5.91191e-07 -9.43574e-05
0.0013348 0.000369177 -8.8358e-07
0.000369177 0.000157017 4.48712e-07
-8.8358e-07 4.48712e-07 -0.000100592
0.000544032 -5.58548e-05 -1.09033e-06
-5.58548e-05 9.31636e-06 7.4428e-06
-1.09033e-06 7.4428e-06 -2.53688e-05
0.000966494 0.000149219 5.3866e-06
0.000149219 0.000264443 4.58581e-06
5.3866e-06 4.58581e-06 8.75171e-05
0.000714567 3.1252e-05 1.54114e-06
3.1252e-05 0.000107621 5.46889e-06
1.54114e-06 5.46889e-06 2.65948e-06
0.00100933 0.000139349 8.98456e-07
0.000139349 0.000339791 4.01916e-07
8.98456e-07 4.01916e-07 0.000123712
0.00162098 0.000265447 3.20893e-06
0.000265447 0.00013653 -3.03628e-07
3.20893e-06 -3.03628e-07 -4.67571e-05
0.001452 0.000317742 5.12728e-06
0.000317742 0.000155964 1.20522e-06
5.12728e-06 1.20522e-06 -6.39329e-05
0.00186185 0.000374411 1.22365e-06
0.000374411 0.00022511 -4.70508e-07
1.22365e-06 -4.70508e-07 1.97718e-05
0.00109525 0.000250138 5.30285e-06
0.000250138 0.000217959 1.91933e-06
5.30285e-06 1.91933e-06 -1.11058e-05
0.00191953 0.000449612 -2.58025e-06
0.000449612 0.000407353 -1.26876e-06
-2.58025e-06 -1.26876e-06 0.000152131
0.00138952 0.000359766 -2.11089e-06
0.000359766 0.00025898 -1.89632e-06
-2.11089e-06 -1.89632e-06 -2.00766e-05
0.0015613 0.000418037 -7.19448e-07
0.000418037 0.000189245 -8.56952e-07
-7.19448e-07 -8.56952e-07 -7.39418e-05
0.000582878 2.2579e-05 2.36935e-06
2.2579e-05 2.41525e-05 2.79208e-06
2.36935e-06 2.79208e-06 -3.33724e-05
0.000502073 -3.9129e-05 5.89735e-07
-3.9129e-05 -3.96979e-05 5.4225e-06
5.89735e-07 5.4225e-06 -6.22968e-05
0.00251996 -0.000113974 3.08299e-05
-0.000113974 0.00122126 3.46315e-06
3.08299e-05 3.46315e-06 0.00122292
0.00262835 -0.000130751 4.5905e-06
-0.000130751 0.00129662 -5.20212e-07
4.5905e-06 -5.20212e-07 0.00129361
0.00282164 -0.00015182 -3.85303e-05
-0.00015182 0.0014242 -3.1103e-06
-3.85303e-05 -3.1103e-06 0.0014151
0.000443472 -3.55011e-05 8.14979e-06
-3.55011e-05 -5.63401e-05 -1.05465e-05
8.14979e-06 -1.05465e-05 -0.000108627
0.00394995 0.00014435 0.000109665
0.00014435 0.00212458 -7.90936e-06
0.000109665 -7.90936e-06 0.00211366
0.000529603 -5.6253e-05 -1.20951e-06
-5.6253e-05 -8.27735e-06 3.36089e-07
-1.20951e-06 3.36089e-07 -7.25625e-05
0.00480168 0.00015356 -9.42592e-06
0.00015356 0.00264874 -1.40003e-06
-9.42592e-06 -1.40003e-06 0.00263311
0.00052947 0.000104488 -1.93459e-05
0.000104488 -0.000134345 -6.90554e-06
-1.93459e-05 -6.90554e-06 -0.000225538
0.000540528 3.38186e-05 -1.84914e-05
3.38186e-05 -0.000133468 -3.35997e-06
-1.84914e-05 -3.35997e-06 -0.000213343
0.00100402 0.000109613 -1.21079e-05
0.000109613 -5.87133e-05 -2.5229e-06
-1.21079e-05 -2.5229e-06 -0.000201292
0.000982841 5.1576e-05 -1.21921e-05
5.1576e-05 -6.28075e-05 -1.35975e-06
-1.21921e-05 -1.35975e-06 -0.00019163
0.000557935 -7.31525e-06 -1.94872e-05
-7.31525e-06 -0.000124578 -7.85757e-07
-1.94872e-05 -7.85757e-07 -0.000196945
0.00572229 -9.5947e-05 -0.000274746
-9.5947e-05 0.00315303 4.40999e-06
-0.000274746 4.40999e-06 0.00316619
0.000543133 -1.21476e-06 9.68189e-08
-1.21476e-06 -0.000132291 -5.66706e-07
9.68189e-08 -5.66706e-07 -0.000204206
0.000989745 2.42525e-05 -8.28977e-08
2.42525e-05 -4.87693e-05 -4.2436e-08
-8.28977e-08 -4.2436e-08 -0.000174039
0.0010327 7.83225e-05 -1.51652e-07
7.83225e-05 -3.78618e-05 -3.08162e-08
-1.51652e-07 -3.08162e-08 -0.000171728
0.0015799 7.54512e-05 -7.80072e-08
7.54512e-05 5.89807e-05 1.91774e-07
-7.80072e-08 1.91774e-07 -6.17214e-05
0.00104884 0.000136986 -2.28272e-07
0.000136986 -2.70728e-05 -2.4799e-07
-2.28272e-07 -2.4799e-07 -0.000177955
0.0016407 0.000177044 -1.09376e-07
0.000177044 9.05823e-05 2.31061e-08
-1.09376e-07 2.31061e-08 -5.56008e-05
0.000980422 -1.99283e-06 1.20692e-05
-1.99283e-06 -4.71083e-05 -2.4563e-07
1.20692e-05 -2.4563e-07 -0.000171441
0.00155103 3.75255e-05 1.87272e-07
3.75255e-05 4.96297e-05 6.60067e-09
1.87272e-07 6.60067e-09 -6.59288e-05
0.00161369 0.00012458 2.0345e-08
0.00012458 6.98327e-05 -4.6855e-07
2.0345e-08 -4.6855e-07 -6.10597e-05
0.00188146 0.000104627 9.86027e-08
0.000104627 8.15028e-05 -4.84092e-07
9.86027e-08 -4.84092e-07 -8.93009e-07
0.00166728 0.000225908 2.38071e-06
0.000225908 0.00012366 -1.22447e-07
2.38071e-06 -1.22447e-07 -3.99792e-05
0.00192164 0.000221501 8.29973e-07
0.000221501 0.000138427 -1.47402e-06
8.29973e-07 -1.47402e-06 1.67314e-05
0.00052507 -7.85762e-07 -1.86235e-05
-7.85762e-07 -0.000136673 9.98654e-07
-1.86235e-05 9.98654e-07 -0.000212555
0.00176014 -3.18566e-05 -0.000111714
-3.18566e-05 0.000619799 4.7245e-06
-0.000111714 4.7245e-06 0.00055902
0.000873773 -3.51748e-05 -1.57635e-05
-3.51748e-05 -0.000119949 1.74871e-06
-1.57635e-05 1.74871e-06 -0.000246254
0.00195541 -0.000127606 -2.61579e-05
-0.000127606 0.000533063 3.9411e-06
-2.61579e-05 3.9411e-06 0.000400317
0.00568169 0.000154816 -0.00018801
0.000154816 0.00318319 1.78093e-05
-0.00018801 1.78093e-05 0.00316276
0.00285402 -0.000195323 -0.000125089
-0.000195323 0.00135523 1.73424e-05
-0.000125089 1.73424e-05 0.00127754
0.00197252 -0.000286702 -2.28256e-05
-0.000286702 0.000707943 9.75506e-06
-2.28256e-05 9.75506e-06 0.000517965
0.00179526 -0.000190591 -2.80521e-05
-0.000190591 0.00045489 7.01222e-06
-2.80521e-05 7.01222e-06 0.000304901
0.00168169 -0.000219458 -4.43785e-06
-0.000219458 0.000164532 5.00338e-07
-4.43785e-06 5.00338e-07 6.97525e-06
0.00177741 -0.000293364 -5.53346e-06
-0.000293364 0.000300396 1.44296e-06
-5.53346e-06 1.44296e-06 0.000105128
0.00139006 -0.000327777 -6.4635e-06
-0.000327777 0.000166424 1.50478e-06
-6.4635e-06 1.50478e-06 -6.52709e-05
0.00177341 -0.000379568 -1.35572e-06
-0.000379568 0.000225132 -1.26537e-06
-1.35572e-06 -1.26537e-06 8.05482e-06
0.000557075 -0.000102409 -1.64089e-05
-0.000102409 -2.85193e-07 1.48297e-05
-1.64089e-05 1.48297e-05 -8.08902e-05
0.000895845 -0.000130248 -7.3121e-07
-0.000130248 0.000228775 4.64752e-06
-7.3121e-07 4.64752e-06 5.72532e-05
0.000920228 -1.4321e-05 -3.54629e-08
-1.4321e-05 -8.50529e-05 -2.22525e-08
-3.54629e-08 -2.22525e-08 -0.000209129
0.00175604 -8.22073e-05 -7.21886e-06
-8.22073e-05 0.000411915 8.33517e-07
-7.21886e-06 8.33517e-07 0.00028905
0.00174322 -7.05435e-05 -1.00089e-06
-7.05435e-05 0.000172649 2.32419e-07
-1.00089e-06 2.32419e-07 5.31301e-05
0.00167219 -0.000175922 -1.32216e-06
-0.000175922 0.000144945 4.09882e-07
-1.32216e-06 4.09882e-07 -1.56252e-06
0.000488175 -0.000136987 6.47963e-07
-0.000136987 -6.31644e-05 2.16484e-07
6.47963e-07 2.16484e-07 -0.000150751
0.000814535 -0.000205878 -5.41638e-07
-0.000205878 6.16589e-05 -2.39955e-07
-5.41638e-07 -2.39955e-07 -0.000127063
0.00114982 -0.000317318 1.83855e-06
-0.000317318 9.25787e-05 -7.61853e-07
1.83855e-06 -7.61853e-07 -0.000150802
0.00174513 -0.000260693 -3.07134e-06
-0.000260693 0.000241297 8.2092e-07
-3.07134e-06 8.2092e-07 6.33717e-05
0.00191656 -0.00026432 1.49341e-06
-0.00026432 0.000177441 -3.37482e-07
1.49341e-06 -3.37482e-07 3.9191e-05
0.00192183 -0.000437874 -1.19705e-06
-0.000437874 0.000365669 -1.43417e-07
-1.19705e-06 -1.43417e-07 0.000110414
0.00178742 -0.000347695 5.16471e-07
-0.000347695 0.000185305 1.40277e-08
5.16471e-07 1.40277e-08 -4.45165e-06
0.00195857 -0.000408666 8.38955e-07
-0.000408666 0.000270908 6.65591e-07
8.38955e-07 6.65591e-07 7.51803e-05
0.000711212 -0.000169633 1.4816e-07
-0.000169633 0.000119665 -2.09465e-07
1.4816e-07 -2.09465e-07 -7.70303e-05
0.000479266 -0.000139673 -7.72494e-07
-0.000139673 -1.51948e-05 -2.98249e-07
-7.72494e-07 -2.98249e-07 -0.000240073
0.000696365 -7.90448e-05 3.53355e-07
-7.90448e-05 0.000105243 1.29784e-07
3.53355e-07 1.29784e-07 -3.23577e-05
0.00166424 -3.08942e-05 -5.51461e-07
-3.08942e-05 0.000129477 1.89954e-07
-5.51461e-07 1.89954e-07 1.15547e-05
0.00179895 -0.000120632 -9.5872e-07
-0.000120632 0.000205696 1.02771e-06
-9.5872e-07 1.02771e-06 7.85062e-05
0.00179994 -9.38142e-05 6.65799e-07
-9.38142e-05 4.92935e-05 9.5484e-07
6.65799e-07 9.5484e-07 -4.03832e-05
0.00183133 -0.000215145 -1.9053e-06
-0.000215145 0.00010172 1.2038e-06
-1.9053e-06 1.2038e-06 -1.90138e-05
0.00171114 -0.000309657 -5.25576e-07
-0.000309657 9.31687e-05 1.99778e-06
-5.25576e-07 1.99778e-06 -6.85636e-05
0.00202084 -0.00028786 1.11641e-06
-0.00028786 0.000193489 2.34643e-07
1.11641e-06 2.34643e-07 8.06142e-05
0.00068541 -0.000201179 4.50115e-06
-0.000201179 5.21636e-05 -6.4089e-06
4.50115e-06 -6.4089e-06 -0.000141436
0.00183085 -0.000375554 -1.95847e-06
-0.000375554 0.000145959 1.95599e-06
-1.95847e-06 1.95599e-06 -2.03628e-05
0.001224 -0.00030088 6.29357e-06
-0.00030088 0.000225904 -4.54178e-06
6.29357e-06 -4.54178e-06 -1.41113e-05
0.00159239 -0.000459525 4.1086e-06
-0.000459525 0.000267956 1.84742e-07
4.1086e-06 1.84742e-07 -2.92214e-05
0.00201001 -0.000470284 1.98151e-06
-0.000470284 0.000359692 3.51571e-06
1.98151e-06 3.51571e-06 0.000110704
0.00211885 -0.000431668 -2.96078e-06
-0.000431668 0.000361251 3.07623e-06
-2.96078e-06 3.07623e-06 0.000180493
0.000612561 -5.33318e-05 -3.89405e-07
-5.33318e-05 6.85002e-05 -4.83713e-06
-3.89405e-07 -4.83713e-06 -4.73789e-05
0.000847552 -0.00021807 -3.20436e-07
-0.00021807 0.000145708 -1.8553e-07
-3.20436e-07 -1.8553e-07 -7.0141e-05
0.000398111 -0.000120571 -1.73543e-06
-0.000120571 -1.69846e-05 2.05611e-06
-1.73543e-06 2.05611e-06 -0.000244612
0.00158482 -0.0002947 -4.69133e-06
-0.0002947 0.000608415 1.9416e-06
-4.69133e-06 1.9416e-06 0.000360085
0.000995409 0.000162159 -1.42786e-05
0.000162159 -4.14327e-05 -4.69471e-06
-1.42786e-05 -4.69471e-06 -0.000201665
0.000397144 -5.96822e-05 2.96575e-06
-5.96822e-05 -6.69966e-05 -9.08655e-06
2.96575e-06 -9.08655e-06 -0.000112487
0.00036034 4.08824e-05 -1.1308e-05
4.08824e-05 -0.000112622 -1.28509e-05
-1.1308e-05 -1.28509e-05 -0.000176604
0.000274993 3.27432e-05 -7.64081e-07
3.27432e-05 -0.000147963 -5.46457e-06
-7.64081e-07 -5.46457e-06 -0.00027964
0.000944056 0.000196132 -1.45913e-05
0.000196132 -3.79659e-06 -6.75246e-06
-1.45913e-05 -6.75246e-06 -0.000177186
0.00153616 0.000297912 -4.80794e-06
0.000297912 0.000137141 -8.6072e-07
-4.80794e-06 -8.6072e-07 -6.70039e-05
0.00067133 0.000185843 -5.98758e-06
0.000185843 4.17892e-05 -4.35397e-06
-5.98758e-06 -4.35397e-06 -0.000145648
0.00126395 0.00028992 -6.87307e-06
0.00028992 0.000253465 -2.59574e-06
-6.87307e-06 -2.59574e-06 1.40054e-05
0.00139319 0.000317868 -4.06176e-06
0.000317868 0.00019491 -1.17076e-06
-4.06176e-06 -1.17076e-06 -3.40011e-05
0.00130248 0.000377599 2.25178e-07
0.000377599 0.00012859 1.7351e-06
2.25178e-07 1.7351e-06 -0.000131232
0.000471427 -5.89624e-05 -1.87901e-06
-5.89624e-05 -3.30966e-05 6.07291e-07
-1.87901e-06 6.07291e-07 -6.83787e-05
0.000734874 0.000153227 3.18799e-07
0.000153227 0.000136503 -7.27395e-07
3.18799e-07 -7.27395e-07 -4.45379e-05
0.000602908 1.10851e-05 5.3224e-07
1.10851e-05 4.36042e-05 4.80048e-07
5.3224e-07 4.80048e-07 -5.77168e-05
0.000767608 0.000120541 1.39529e-06
0.000120541 0.000190045 -4.37411e-07
1.39529e-06 -4.37411e-07 -2.08803e-05
0.00160847 0.000264514 -4.5205e-07
0.000264514 0.00012938 -6.37191e-07
-4.5205e-07 -6.37191e-07 -5.41901e-05
0.00144447 0.000317686 2.73792e-08
0.000317686 0.00015193 -1.07813e-07
2.73792e-08 -1.07813e-07 -6.8479e-05
0.00183709 0.000372213 2.86722e-07
0.000372213 0.000211693 2.16764e-07
2.86722e-07 2.16764e-07 6.53288e-06
0.00104797 0.000250204 1.90939e-06
0.000250204 0.000192924 -2.16947e-07
1.90939e-06 -2.16947e-07 -3.59374e-05
0.00183748 0.000435058 -8.57944e-07
0.000435058 0.000361704 -3.69116e-09
-8.57944e-07 -3.69116e-09 0.000108519
0.00129798 0.000352321 2.65375e-07
0.000352321 0.000201871 -1.30742e-06
2.65375e-07 -1.30742e-06 -7.67521e-05
0.00165438 0.000420832 -3.67353e-06
0.000420832 0.00024626 1.22524e-06
-3.67353e-06 1.22524e-06 -1.33796e-05
0.000502875 -4.86251e-05 4.62071e-08
-4.86251e-05 -2.97858e-05 6.10125e-06
4.62071e-08 6.10125e-06 -5.66676e-05
0.000662968 6.88562e-06 4.64675e-07
6.88562e-06 7.76179e-05 4.73429e-06
4.64675e-07 4.73429e-06 -3.51408e-06
0.000984771 0.000222887 8.61626e-07
0.000222887 0.000237529 7.91784e-07
8.61626e-07 7.91784e-07 2.38659e-05
0.00123542 0.00010201 -1.44597e-06
0.00010201 0.000488609 2.54717e-06
-1.44597e-06 2.54717e-06 0.000304599
0.00130843 0.000234256 -2.73524e-06
0.000234256 0.000482124 -8.9932e-07
-2.73524e-06 -8.9932e-07 0.000254026
0.00191491 0.000331304 6.48233e-07
0.000331304 0.000201621 -2.12485e-06
6.48233e-07 -2.12485e-06 2.55267e-05
0.00181234 0.000415125 3.42745e-07
0.000415125 0.000262741 -5.48554e-07
3.42745e-07 -5.48554e-07 2.88092e-05
0.00191314 0.000409852 -7.00401e-07
0.000409852 0.000225608 -5.65811e-07
-7.00401e-07 -5.65811e-07 2.84707e-05
0.000831193 0.000293141 2.46711e-06
0.000293141 1.47512e-06 1.85562e-06
2.46711e-06 1.85562e-06 -0.000263005
0.00208376 0.000505547 -7.08889e-07
0.000505547 0.000445351 -7.71458e-07
-7.08889e-07 -7.71458e-07 0.000184279
0.0010139 0.000366544 4.64242e-06
0.000366544 -2.70834e-05 -2.26117e-06
4.64242e-06 -2.26117e-06 -0.000309026
0.0005926 1.72439e-05 2.51344e-06
1.72439e-05 2.90153e-05 2.99651e-06
2.51344e-06 2.99651e-06 -3.13123e-05
0.000657069 6.17663e-05 -1.33017e-07
6.17663e-05 0.000100544 1.28637e-06
-1.33017e-07 1.28637e-06 8.74053e-07
0.000604383 3.28792e-05 2.32432e-06
3.28792e-05 4.24685e-05 2.80475e-06
2.32432e-06 2.80475e-06 -1.44146e-05
0.000565924 -5.07395e-06 -5.66326e-07
-5.07395e-06 1.51277e-05 7.97985e-10
-5.66326e-07 7.97985e-10 -4.28805e-05
0.00124653 -4.82722e-05 9.38187e-07
-4.82722e-05 0.000412748 3.07126e-06
9.38187e-07 3.07126e-06 0.000396313
0.000891968 -4.79087e-05 4.71502e-07
-4.79087e-05 0.000199349 -1.3478e-07
4.71502e-07 -1.3478e-07 0.000178691
0.000862175 -5.34062e-05 2.49163e-05
-5.34062e-05 0.00019089 8.08395e-06
2.49163e-05 8.08395e-06 0.000191028
0.00248045 -0.000111306 5.0842e-06
-0.000111306 0.001196 -4.72904e-07
5.0842e-06 -4.72904e-07 0.00119824
0.00255077 -0.000126484 -3.54506e-05
-0.000126484 0.00124846 -3.20728e-06
-3.54506e-05 -3.20728e-06 0.00124651
0.00038676 -1.01906e-05 3.3079e-06
-1.01906e-05 -8.45298e-05 -8.20803e-06
3.3079e-06 -8.20803e-06 -0.000125923
0.00353943 0.000142023 7.82761e-05
0.000142023 0.00186276 -4.76394e-06
7.82761e-05 -4.76394e-06 0.00185422
0.000497827 -3.54075e-05 -8.93216e-07
-3.54075e-05 -2.47792e-05 2.46378e-07
-8.93216e-07 2.46378e-07 -7.78549e-05
0.00419073 0.00013218 -8.39699e-06
0.00013218 0.00226796 -9.12991e-07
-8.39699e-06 -9.12991e-07 0.00225965
0.000511821 -5.83927e-05 -1.15268e-05
-5.83927e-05 -2.22238e-05 1.24843e-05
-1.15268e-05 1.24843e-05 -8.92287e-05
0.00503736 0.000133701 -0.000170037
0.000133701 0.0027847 1.42161e-05
-0.000170037 1.42161e-05 0.00277379
0.0010046 0.000137968 -1.30167e-05
0.000137968 -5.22391e-05 -3.53466e-06
-1.30167e-05 -3.53466e-06 -0.000204091
0.00100163 8.19226e-05 -1.20543e-05
8.19226e-05 -5.76095e-05 -1.82105e-06
-1.20543e-05 -1.82105e-06 -0.00019234
0.00163193 0.000173148 -2.39435e-06
0.000173148 8.7078e-05 1.972e-07
-2.39435e-06 1.972e-07 -5.89702e-05
0.00159215 7.48232e-05 -4.64809e-07
7.48232e-05 6.82492e-05 5.5745e-07
-4.64809e-07 5.5745e-07 -5.25995e-05
0.000981514 2.84731e-05 -1.21387e-05
2.84731e-05 -5.53515e-05 -5.95898e-07
-1.21387e-05 -5.95898e-07 -0.000180926
0.00050612 2.88189e-05 -1.9338e-05
2.88189e-05 -0.000155557 -3.63176e-07
-1.9338e-05 -3.63176e-07 -0.000226665
0.000978969 1.01292e-06 -1.34136e-08
1.01292e-06 -4.9114e-05 -9.36462e-08
-1.34136e-08 -9.36462e-08 -0.000173498
0.0015482 3.83939e-05 -6.44812e-08
3.83939e-05 4.95003e-05 1.12212e-07
-6.44812e-08 1.12212e-07 -6.61842e-05
0.00162742 0.000122267 -3.48182e-08
0.000122267 8.02609e-05 2.60447e-10
-3.48182e-08 2.60447e-10 -5.06121e-05
0.00189254 0.000102856 -9.71336e-08
0.000102856 8.60718e-05 4.49372e-07
-9.71336e-08 4.49372e-07 7.34e-06
0.00164328 0.000223855 -3.37273e-07
0.000223855 0.000112542 -5.21952e-08
-3.37273e-07 -5.21952e-08 -5.11623e-05
0.00190719 0.000219116 -4.80533e-07
0.000219116 0.000131772 9.07208e-09
-4.80533e-07 9.07208e-09 1.02397e-05
0.00153557 1.58799e-06 4.43821e-07
1.58799e-06 4.54078e-05 3.87195e-08
4.43821e-07 3.87195e-08 -6.90673e-05
0.00195433 5.40022e-05 -7.73855e-07
5.40022e-05 0.000128974 1.10472e-07
-7.73855e-07 1.10472e-07 6.21878e-05
0.00193063 0.00016486 7.90701e-07
0.00016486 0.000119165 -1.25204e-06
7.90701e-07 -1.25204e-06 1.99202e-05
0.00180539 0.000103676 6.02729e-06
0.000103676 -1.70102e-05 1.01417e-06
6.02729e-06 1.01417e-06 -6.91772e-05
0.00194305 0.000279143 5.48165e-07
0.000279143 0.000184158 -1.48116e-06
5.48165e-07 -1.48116e-06 3.66895e-05
0.00183057 0.000235769 1.58616e-06
0.000235769 2.13488e-05 -4.25615e-07
1.58616e-06 -4.25615e-07 -7.36923e-05
0.000855835 -1.04049e-05 -1.21952e-05
-1.04049e-05 -0.000125754 6.22183e-07
-1.21952e-05 6.22183e-07 -0.000249113
0.00178101 -8.40813e-05 -2.54433e-05
-8.40813e-05 0.000425597 2.87745e-06
-2.54433e-05 2.87745e-06 0.000302803
0.00180304 -6.52186e-05 -3.44962e-06
-6.52186e-05 0.000206211 -3.26011e-07
-3.44962e-06 -3.26011e-07 9.10428e-05
0.00172679 -0.000176325 -3.41601e-06
-0.000176325 0.000181683 7.04196e-07
-3.41601e-06 7.04196e-07 3.22465e-05
0.000607256 -0.000154572 -2.19786e-05
-0.000154572 9.56853e-06 1.68414e-05
-2.19786e-05 1.68414e-05 -8.2553e-05
0.000770377 -0.000202595 -1.00196e-05
-0.000202595 3.89379e-05 7.37927e-06
-1.00196e-05 7.37927e-06 -0.000149304
0.00114876 -0.000318188 -4.83784e-06
-0.000318188 9.08061e-05 2.46074e-06
-4.83784e-06 2.46074e-06 -0.000153107
0.00177023 -0.000260083 -6.90802e-06
-0.000260083 0.000256416 1.77407e-06
-6.90802e-06 1.77407e-06 7.68832e-05
0.00195923 -0.000268162 8.3716e-07
-0.000268162 0.000197078 -1.39453e-06
8.3716e-07 -1.39453e-06 6.34748e-05
0.00181636 -0.000349237 -6.69607e-07
-0.000349237 0.000203374 -9.37651e-07
-6.69607e-07 -9.37651e-07 1.37074e-05
0.00195185 -0.000444303 -3.87248e-06
-0.000444303 0.000384534 -1.79794e-06
-3.87248e-06 -1.79794e-06 0.000128975
0.00185362 -0.000402633 3.38396e-06
-0.000402633 0.000200653 -2.80417e-06
3.38396e-06 -2.80417e-06 5.60187e-06
0.000821683 -0.000165224 -3.23591e-06
-0.000165224 0.000173602 5.54705e-06
-3.23591e-06 5.54705e-06 -1.54163e-05
0.000266272 -0.000114158 1.18458e-06
-0.000114158 -0.000141702 -1.34285e-06
1.18458e-06 -1.34285e-06 -0.000366423
0.000753993 -9.73221e-05 -6.87212e-07
-9.73221e-05 0.000139292 4.5257e-06
-6.87212e-07 4.5257e-06 -1.94611e-06
0.00162822 -2.78396e-05 -1.28937e-06
-2.78396e-05 0.000106001 1.76328e-07
-1.28937e-06 1.76328e-07 -1.0765e-05
0.00178675 -0.000128639 -2.91008e-06
-0.000128639 0.000196526 4.37535e-07
-2.91008e-06 4.37535e-07 6.80677e-05
0.00185251 -9.23209e-05 2.48902e-06
-9.23209e-05 7.96526e-05 -1.5862e-07
2.48902e-06 -1.5862e-07 -4.30153e-06
0.00184324 -0.00021095 -2.13015e-06
-0.00021095 0.00011 5.74862e-07
-2.13015e-06 5.74862e-07 -1.24027e-05
0.000750875 -0.000207817 4.07148e-07
-0.000207817 9.53797e-05 -3.56042e-07
4.07148e-07 -3.56042e-07 -0.000100328
0.00112835 -0.000296199 -1.07392e-06
-0.000296199 0.000158114 -1.61933e-08
-1.07392e-06 -1.61933e-08 -8.18475e-05
0.00153707 -0.000448167 2.06352e-06
-0.000448167 0.000248245 2.15247e-08
2.06352e-06 2.15247e-08 -4.69519e-05
0.00172818 -0.000309002 -1.37189e-06
-0.000309002 0.000106998 8.10494e-07
-1.37189e-06 8.10494e-07 -5.92664e-05
0.00195438 -0.000286238 1.73337e-06
-0.000286238 0.000147589 -5.68055e-07
1.73337e-06 -5.68055e-07 3.8301e-05
0.00191062 -0.000469997 -5.18486e-07
-0.000469997 0.000292985 4.16477e-07
-5.18486e-07 4.16477e-07 4.15032e-05
0.00185226 -0.000375486 7.89025e-08
-0.000375486 0.000160742 4.97015e-07
7.89025e-08 4.97015e-07 -5.48101e-06
0.00210082 -0.000423392 1.9681e-06
-0.000423392 0.000343232 -4.93682e-07
1.9681e-06 -4.93682e-07 0.000167382
0.00105146 -0.000243326 8.48052e-08
-0.000243326 0.00027016 7.70569e-07
8.48052e-08 7.70569e-07 4.58269e-05
0.00113378 -0.000260266 -6.12513e-07
-0.000260266 0.000341174 1.6939e-07
-6.12513e-07 1.6939e-07 9.30853e-05
0.000631938 -6.48642e-05 -2.73424e-07
-6.48642e-05 7.74806e-05 4.22492e-08
-2.73424e-07 4.22492e-08 -3.96885e-05
0.000250283 -6.51064e-05 6.94916e-08
-6.51064e-05 -0.000123776 -1.09243e-06
6.94916e-08 -1.09243e-06 -0.000332272
0.00183366 -4.75704e-05 -4.11064e-07
-4.75704e-05 6.5595e-05 7.01214e-07
-4.11064e-07 7.01214e-07 -9.35579e-06
0.00179921 -0.000152928 7.69517e-07
-0.000152928 5.67207e-05 8.06925e-07
7.69517e-07 8.06925e-07 -4.69765e-05
0.00191866 -0.000100192 5.51219e-06
-0.000100192 8.07544e-05 -5.71292e-07
5.51219e-06 -5.71292e-07 2.73905e-05
0.00189837 -0.000234906 -1.48788e-06
-0.000234906 6.93365e-05 1.08012e-07
-1.48788e-06 1.08012e-07 -1.18793e-05
0.00176803 -0.000332042 -2.96148e-06
-0.000332042 7.15453e-05 1.59369e-06
-2.96148e-06 1.59369e-06 -6.48306e-05
0.00200557 -0.000300543 4.07934e-06
-0.000300543 0.000155789 -1.64726e-06
4.07934e-06 -1.64726e-06 6.05708e-05
0.00108456 -0.000271299 2.383e-06
-0.000271299 0.000207706 -4.33646e-06
2.383e-06 -4.33646e-06 -2.09606e-05
0.00174284 -0.000385836 -4.01908e-06
-0.000385836 8.06945e-05 1.29897e-06
-4.01908e-06 1.29897e-06 -6.37883e-05
0.00158197 -0.000432923 3.13199e-06
-0.000432923 0.000390301 -2.97742e-06
3.13199e-06 -2.97742e-06 8.78891e-05
0.0017758 -0.000525914 -4.1065e-07
-0.000525914 0.000321204 1.93135e-06
-4.1065e-07 1.93135e-06 5.92951e-06
0.00186446 -0.000477462 2.43179e-06
-0.000477462 0.000218853 4.42856e-06
2.43179e-06 4.42856e-06 -2.58958e-05
0.00221159 -0.000430845 -7.48576e-07
-0.000430845 0.000394216 -4.884e-07
-7.48576e-07 -4.884e-07 0.0002184
0.000500732 -5.63236e-05 -1.69513e-07
-5.63236e-05 1.65764e-06 -4.44695e-06
-1.69513e-07 -4.44695e-06 -9.71892e-05
0.000427639 -7.99214e-05 -3.85215e-06
-7.99214e-05 -3.4361e-06 -1.1753e-08
-3.85215e-06 -1.1753e-08 -0.00018773
0.00113301 -0.000289891 -2.02069e-06
-0.000289891 0.000262773 6.02259e-07
-2.02069e-06 6.02259e-07 2.4463e-05
0.00090505 -0.000187955 -3.03935e-06
-0.000187955 0.000281294 3.63114e-06
-3.03935e-06 3.63114e-06 3.94538e-05
0.00200376 -0.000373675 -9.20899e-06
-0.000373675 0.000845447 4.08473e-06
-9.20899e-06 4.08473e-06 0.000580673
0.000407425 -6.05264e-05 -2.08593e-07
-6.05264e-05 -7.1173e-05 -6.5212e-06
-2.08593e-07 -6.5212e-06 -0.000106299
0.00159332 0.000263258 -4.03005e-06
0.000263258 0.000121084 -8.60968e-07
-4.03005e-06 -8.60968e-07 -6.27213e-05
0.000537422 -1.08339e-05 5.98077e-07
-1.08339e-05 9.66334e-06 -5.56272e-06
5.98077e-07 -5.56272e-06 -9.02001e-05
0.000517293 0.000149688 -3.41783e-06
0.000149688 -4.30593e-06 -3.30154e-06
-3.41783e-06 -3.30154e-06 -0.000178096
0.000461229 0.000102697 2.08127e-06
0.000102697 7.06437e-07 4.49699e-07
2.08127e-06 4.49699e-07 -0.000205294
0.00143914 0.000317923 -4.95768e-06
0.000317923 0.000148961 -1.25495e-06
-4.95768e-06 -1.25495e-06 -7.20235e-05
0.00181012 0.000369982 -1.25472e-08
0.000369982 0.000196628 1.06115e-06
-1.25472e-08 1.06115e-06 -8.38298e-06
0.00105115 0.000258879 -3.55728e-06
0.000258879 0.000195484 -3.56677e-06
-3.55728e-06 -3.56677e-06 -3.65478e-05
0.00144999 0.000373735 -4.43347e-07
0.000373735 0.000286507 -1.59904e-06
-4.43347e-07 -1.59904e-06 2.05286e-06
0.00174022 0.000419717 2.11389e-07
0.000419717 0.000305932 1.36396e-06
2.11389e-07 1.36396e-06 5.48777e-05
0.0017633 0.000428131 -2.35363e-08
0.000428131 0.000312641 6.69281e-06
-2.35363e-08 6.69281e-06 5.50704e-05
0.000504684 -4.45236e-05 1.84752e-07
-4.45236e-05 -3.03846e-05 2.21638e-08
1.84752e-07 2.21638e-08 -5.61726e-05
0.000606506 -2.84939e-06 -6.24075e-07
-2.84939e-06 4.73965e-05 4.9888e-07
-6.24075e-07 4.9888e-07 -3.37493e-05
0.000990103 0.000228535 4.49234e-07
0.000228535 0.000244111 8.88061e-07
4.49234e-07 8.88061e-07 2.86498e-05
0.000680835 5.15267e-05 -8.69937e-07
5.15267e-05 0.000142825 -2.2298e-07
-8.69937e-07 -2.2298e-07 -2.81474e-05
0.000659964 0.000163618 6.84007e-07
0.000163618 7.10401e-05 -2.2908e-08
6.84007e-07 -2.2908e-08 -0.000137782
0.00188754 0.00033084 -7.96336e-07
0.00033084 0.000183725 -1.24256e-06
-7.96336e-07 -1.24256e-06 7.33879e-06
0.00177322 0.000412738 5.53262e-07
0.000412738 0.000238037 1.45198e-07
5.53262e-07 1.45198e-07 4.18988e-06
0.00184598 0.000406687 1.66496e-06
0.000406687 0.000187711 2.64328e-07
1.66496e-06 2.64328e-07 -9.69649e-06
0.00133068 0.000341474 1.40273e-06
0.000341474 0.000312098 7.41085e-07
1.40273e-06 7.41085e-07 3.82837e-05
0.00193141 0.000490002 1.63012e-06
0.000490002 0.000337248 6.83659e-08
1.63012e-06 6.83659e-08 7.73332e-05
0.00154487 0.000416358 -2.14792e-06
0.000416358 0.000294173 -2.12947e-07
-2.14792e-06 -2.12947e-07 4.33412e-06
0.000679326 1.10432e-05 1.30665e-06
1.10432e-05 8.31382e-05 3.54119e-06
1.30665e-06 3.54119e-06 1.59582e-05
0.00104559 0.00010406 6.6862e-07
0.00010406 0.0003519 2.59854e-06
6.6862e-07 2.59854e-06 0.000216133
0.000814643 0.000253783 -2.60745e-06
0.000253783 6.63211e-05 -1.60025e-06
-2.60745e-06 -1.60025e-06 -0.000158324
0.00149199 0.000131626 -1.58033e-06
0.000131626 0.000645086 7.97552e-07
-1.58033e-06 7.97552e-07 0.000434601
0.0012594 0.000198495 -8.95642e-06
0.000198495 0.000375202 -5.88912e-06
-8.95642e-06 -5.88912e-06 0.000186427
0.00188706 0.000343009 -3.48068e-06
0.000343009 0.000157718 -2.76304e-06
-3.48068e-06 -2.76304e-06 -6.83149e-07
0.00190581 0.000464143 -8.44891e-08
0.000464143 0.000270098 3.53565e-08
-8.44891e-08 3.53565e-08 3.63438e-05
0.00167301 0.00043714 3.88504e-06
0.00043714 5.07059e-05 -3.07161e-07
3.88504e-06 -3.07161e-07 -0.000146062
0.000425687 0.000291014 5.38862e-07
0.000291014 -0.000213261 -6.70206e-07
5.38862e-07 -6.70206e-07 -0.000498517
0.00139887 0.000444949 7.32221e-06
0.000444949 0.00011663 -9.57071e-07
7.32221e-06 -9.57071e-07 -0.000157899
0.000591605 1.03297e-05 -1.91532e-07
1.03297e-05 2.67767e-05 6.76432e-08
-1.91532e-07 6.76432e-08 -3.26517e-05
0.00050543 3.88229e-05 9.2715e-07
3.88229e-05 -4.16741e-06 1.85266e-06
9.2715e-07 1.85266e-06 -9.76838e-05
0.000494497 3.31092e-05 -6.29382e-07
3.31092e-05 -9.43903e-06 -1.83847e-07
-6.29382e-07 -1.83847e-07 -9.97208e-05
0.000934166 0.000117295 -3.70014e-07
0.000117295 0.000272047 -1.17075e-06
-3.70014e-07 -1.17075e-06 0.000157317
0.000667051 9.02206e-05 1.92433e-06
9.02206e-05 0.000108807 1.79149e-06
1.92433e-06 1.79149e-06 1.07292e-05
0.000569132 4.44944e-05 2.56976e-06
4.44944e-05 2.75052e-05 2.86062e-06
2.56976e-06 2.86062e-06 -3.02504e-05
0.000566521 1.64844e-06 -6.18597e-07
1.64844e-06 1.99685e-05 -1.87291e-08
-6.18597e-07 -1.87291e-08 -3.69144e-05
0.00123945 -3.41141e-05 8.82047e-07
-3.41141e-05 0.000406077 2.82318e-06
8.82047e-07 2.82318e-06 0.000391893
0.000578909 1.56031e-06 -1.48377e-06
1.56031e-06 1.99758e-05 -2.89624e-06
-1.48377e-06 -2.89624e-06 -3.60076e-05
0.00129826 -4.44838e-05 -6.21018e-06
-4.44838e-05 0.000444048 -1.45955e-06
-6.21018e-06 -1.45955e-06 0.000428356
0.000835286 -4.06843e-05 2.60814e-05
-4.06843e-05 0.000166382 8.07004e-06
2.60814e-05 8.07004e-06 0.000170171
0.00131915 -5.39922e-05 -1.04321e-05
-5.39922e-05 0.00046192 -4.35659e-06
-1.04321e-05 -4.35659e-06 0.000443753
0.00161636 -7.30966e-05 2.37687e-05
-7.30966e-05 0.000655491 1.75317e-06
2.37687e-05 1.75317e-06 0.000658688
0.0024286 -0.000107703 -3.1349e-05
-0.000107703 0.00116289 -3.72544e-06
-3.1349e-05 -3.72544e-06 0.00116591
0.000376186 7.51175e-05 -4.51464e-06
7.51175e-05 -7.49646e-05 -6.58772e-06
-4.51464e-06 -6.58772e-06 -0.000116152
0.000476251 -7.34258e-07 3.72208e-07
-7.34258e-07 -2.71074e-05 4.96669e-07
3.72208e-07 4.96669e-07 -7.21917e-05
0.0029995 0.000147711 2.46807e-05
0.000147711 0.00152928 -4.48343e-06
2.46807e-05 -4.48343e-06 0.00151956
0.00365239 0.000116132 -9.69415e-06
0.000116132 0.00192938 -6.97169e-07
-9.69415e-06 -6.97169e-07 0.00192684
0.00058966 -3.66131e-05 -8.39257e-06
-3.66131e-05 2.88495e-05 1.06123e-05
-8.39257e-06 1.06123e-05 -2.50291e-05
0.00439159 0.000111328 -0.000147568
0.000111328 0.00238412 1.15442e-05
-0.000147568 1.15442e-05 0.00238034
0.00161984 0.000222214 -3.14567e-06
0.000222214 0.000100988 5.25594e-08
-3.14567e-06 5.25594e-08 -6.28735e-05
0.0016179 0.000122616 -1.0625e-06
0.000122616 7.537e-05 3.94525e-07
-1.0625e-06 3.94525e-07 -5.60379e-05
0.00188565 0.000217844 -1.49997e-06
0.000217844 0.00011995 1.55938e-06
-1.49997e-06 1.55938e-06 -1.65282e-06
0.00193235 0.000101577 -3.51112e-07
0.000101577 0.000107923 1.25479e-06
-3.51112e-07 1.25479e-06 3.30718e-05
0.00154667 4.06647e-05 -3.70974e-07
4.06647e-05 5.13613e-05 2.22777e-07
-3.70974e-07 2.22777e-07 -6.44637e-05
0.000985041 5.67747e-06 -1.1925e-05
5.67747e-06 -4.62598e-05 -4.97679e-08
-1.1925e-05 -4.97679e-08 -0.000170607
0.00153972 5.11383e-06 6.07672e-08
5.11383e-06 5.07425e-05 9.07574e-08
6.07672e-08 9.07574e-08 -6.37634e-05
0.00191971 4.47104e-05 -1.25166e-06
4.47104e-05 0.000107905 -4.17547e-08
-1.25166e-06 -4.17547e-08 4.11145e-05
0.00189907 0.000161981 -4.77276e-07
0.000161981 0.000101013 6.5031e-08
-4.77276e-07 6.5031e-08 2.18079e-06
0.00186856 0.000103879 1.74887e-06
0.000103879 1.76966e-05 2.87401e-07
1.74887e-06 2.87401e-07 -2.94386e-05
0.00191031 0.000279516 -3.42724e-07
0.000279516 0.000158811 -1.46814e-07
-3.42724e-07 -1.46814e-07 1.07506e-05
0.00186425 0.000232194 -3.06583e-07
0.000232194 4.15946e-05 6.68053e-07
-3.06583e-07 6.68053e-07 -4.84905e-05
0.00191744 -6.696e-07 -1.47343e-07
-6.696e-07 0.000116027 1.57342e-07
-1.47343e-07 1.57342e-07 4.93901e-05
0.00187125 4.89787e-05 6.07059e-06
4.89787e-05 2.33266e-05 2.51288e-07
6.07059e-06 2.51288e-07 -1.56129e-05
0.00184922 0.000165083 2.34449e-06
0.000165083 1.04669e-05 6.03465e-07
2.34449e-06 6.03465e-07 -5.18892e-05
0.00194016 0.000104876 5.91916e-06
0.000104876 3.64221e-05 8.6823e-07
5.91916e-06 8.6823e-07 1.0402e-05
0.00185753 0.00027578 6.07885e-07
0.00027578 8.91615e-05 -1.8501e-06
6.07885e-07 -1.8501e-06 -3.23705e-05
0.0018909 0.000235734 4.16135e-06
0.000235734 1.81745e-05 1.18747e-06
4.16135e-06 1.18747e-06 -5.28685e-05
0.00157923 -2.48253e-05 -1.83819e-06
-2.48253e-05 7.56389e-05 -1.20963e-07
-1.83819e-06 -1.20963e-07 -3.9976e-05
0.00179509 -0.000134641 -4.83726e-06
-0.000134641 0.000199676 2.88943e-07
-4.83726e-06 2.88943e-07 7.02519e-05
0.0018999 -9.20163e-05 1.45036e-06
-9.20163e-05 0.00010791 -1.79405e-06
1.45036e-06 -1.79405e-06 2.94975e-05
0.00184518 -0.000207155 -1.16149e-06
-0.000207155 0.000112771 -9.76677e-08
-1.16149e-06 -9.76677e-08 -1.14097e-05
0.000873245 -0.000226429 -6.76493e-06
-0.000226429 0.000173662 7.10413e-06
-6.76493e-06 7.10413e-06 -2.60235e-05
0.00109857 -0.000297386 -6.7992e-06
-0.000297386 0.000131316 4.20634e-06
-6.7992e-06 4.20634e-06 -0.000109517
0.00138866 -0.000427588 6.44615e-07
-0.000427588 0.000172678 -1.17731e-08
6.44615e-07 -1.17731e-08 -0.000119419
0.00174552 -0.000308463 -1.10801e-06
-0.000308463 0.000120901 -1.09657e-08
-1.10801e-06 -1.09657e-08 -4.99315e-05
0.00189027 -0.000284346 1.3463e-06
-0.000284346 0.000103925 -1.16539e-06
1.3463e-06 -1.16539e-06 -1.69138e-06
0.00187035 -0.000375244 2.17389e-06
-0.000375244 0.000173568 -8.94115e-07
2.17389e-06 -8.94115e-07 7.44814e-06
0.00183131 -0.000472972 -1.03532e-06
-0.000472972 0.000237714 -2.31431e-06
-1.03532e-06 -2.31431e-06 -1.70818e-05
0.00207577 -0.000416367 6.28735e-06
-0.000416367 0.000323613 -5.74567e-06
6.28735e-06 -5.74567e-06 0.000152167
0.00095735 -0.000236551 8.80434e-07
-0.000236551 0.000212681 1.02806e-06
8.80434e-07 1.02806e-06 -1.21141e-05
0.000142036 -0.00015277 2.32937e-06
-0.00015277 -0.000270275 5.51268e-07
2.32937e-06 5.51268e-07 -0.000500363
0.000736873 -7.50396e-05 -6.1552e-07
-7.50396e-05 0.000137802 4.0019e-06
-6.1552e-07 4.0019e-06 1.92996e-05
0.00012275 -3.41483e-05 2.94651e-06
-3.41483e-05 -0.000211951 -3.59128e-06
2.94651e-06 -3.59128e-06 -0.000404606
0.00184857 -4.73535e-05 9.91188e-08
-4.73535e-05 7.51919e-05 3.2466e-07
9.91188e-08 3.2466e-07 1.62979e-07
0.00183293 -0.000153821 1.50965e-06
-0.000153821 8.17316e-05 -5.4813e-07
1.50965e-06 -5.4813e-07 -2.37063e-05
0.0018934 -9.95169e-05 1.99193e-06
-9.95169e-05 6.55122e-05 -6.17274e-07
1.99193e-06 -6.17274e-07 1.41938e-05
0.00186867 -0.000231944 -2.01392e-06
-0.000231944 5.69686e-05 5.65126e-07
-2.01392e-06 5.65126e-07 -2.75563e-05
0.00103934 -0.00026072 -1.65499e-06
-0.00026072 0.000183162 -3.13602e-08
-1.65499e-06 -3.13602e-08 -4.34843e-05
0.00121172 -0.000388572 1.4401e-06
-0.000388572 0.000172247 -1.16043e-06
1.4401e-06 -1.16043e-06 -0.000120173
0.00170116 -0.000525864 -7.27879e-08
-0.000525864 0.000272529 4.12943e-07
-7.27879e-08 4.12943e-07 -4.62928e-05
0.00177046 -0.000329857 -1.52631e-06
-0.000329857 8.19797e-05 7.99774e-07
-1.52631e-06 7.99774e-07 -5.79992e-05
0.00193449 -0.00029912 1.46526e-06
-0.00029912 0.000115179 -9.03087e-07
1.46526e-06 -9.03087e-07 2.15759e-05
0.00183995 -0.000479527 -1.55288e-07
-0.000479527 0.000216644 5.42236e-07
-1.55288e-07 5.42236e-07 -3.00615e-05
0.00178046 -0.000389694 -7.99326e-07
-0.000389694 9.44178e-05 1.1713e-06
-7.99326e-07 1.1713e-06 -5.09899e-05
0.00203992 -0.000416433 3.73318e-06
-0.000416433 0.000283981 -5.67531e-06
3.73318e-06 -5.67531e-06 0.000114813
0.00115495 -0.000292911 3.61579e-07
-0.000292911 0.000268913 8.59474e-07
3.61579e-07 8.59474e-07 3.10023e-05
0.00138558 -0.000307318 5.78857e-06
-0.000307318 0.000457736 1.31754e-06
5.78857e-06 1.31754e-06 0.000210323
0.000851794 -0.000159396 -1.95541e-07
-0.000159396 0.000246889 -3.81412e-08
-1.95541e-07 -3.81412e-08 3.65199e-06
0.000407845 -2.88179e-05 -1.84011e-06
-2.88179e-05 -5.56103e-05 6.15154e-07
-1.84011e-06 6.15154e-07 -0.000155
0.00022411 -3.26619e-05 -4.03323e-07
-3.26619e-05 -0.000133067 -5.46448e-07
-4.03323e-07 -5.46448e-07 -0.000307113
0.00189903 -5.63445e-05 5.21782e-06
-5.63445e-05 4.42317e-05 -4.80003e-07
5.21782e-06 -4.80003e-07 9.86745e-06
0.0019023 -0.000146251 4.74155e-06
-0.000146251 5.86952e-05 -1.01307e-06
4.74155e-06 -1.01307e-06 5.31096e-06
0.00196719 -0.000278964 2.7378e-06
-0.000278964 6.39123e-05 -1.36037e-06
2.7378e-06 -1.36037e-06 -1.18492e-07
0.00181222 -0.000335656 5.79771e-07
-0.000335656 6.45117e-05 -1.66262e-06
5.79771e-07 -1.66262e-06 -4.0858e-05
0.00158032 -0.000363478 -1.05525e-06
-0.000363478 0.000474676 -3.01367e-06
-1.05525e-06 -3.01367e-06 0.000207792
0.00212939 -0.000467881 -1.51731e-07
-0.000467881 0.000230079 -1.80909e-06
-1.51731e-07 -1.80909e-06 7.45539e-05
0.00142291 -0.000488506 1.46856e-06
-0.000488506 0.000276181 -1.1344e-06
1.46856e-06 -1.1344e-06 -6.31784e-05
0.00185406 -0.000583839 1.45852e-06
-0.000583839 0.000324725 6.06216e-07
1.45852e-06 6.06216e-07 -9.14132e-06
0.0018347 -0.000466846 -3.34855e-07
-0.000466846 0.000196761 2.92956e-06
-3.34855e-07 2.92956e-06 -4.20459e-05
0.000103148 2.67679e-07 -1.05028e-06
2.67679e-07 -0.000239573 -4.20706e-06
-1.05028e-06 -4.20706e-06 -0.000320092
0.000736649 -7.86562e-05 -1.2832e-06
-7.86562e-05 0.000192784 4.81248e-07
-1.2832e-06 4.81248e-07 3.47659e-05
0.00104955 -0.000115415 -2.61023e-06
-0.000115415 0.000371872 1.66992e-07
-2.61023e-06 1.66992e-07 0.000165593
0.00200033 -0.000400386 -9.42636e-06
-0.000400386 0.000756209 7.3589e-07
-9.42636e-06 7.3589e-07 0.000490722
0.000560853 -0.000157571 2.74089e-06
-0.000157571 4.62476e-05 5.53022e-06
2.74089e-06 5.53022e-06 -0.000209501
0.00101431 -0.000301303 -3.08095e-06
-0.000301303 0.000190527 7.2148e-07
-3.08095e-06 7.2148e-07 -6.47266e-05
0.000501925 -4.58843e-05 -7.63792e-07
-4.58843e-05 -3.23575e-05 -5.54993e-06
-7.63792e-07 -5.54993e-06 -5.80751e-05
0.000560972 -7.00311e-06 -7.6689e-07
-7.00311e-06 2.3514e-05 -4.35134e-06
-7.6689e-07 -4.35134e-06 -5.76663e-05
0.00186009 0.000330383 -2.1147e-06
0.000330383 0.000165733 -3.16947e-07
-2.1147e-06 -3.16947e-07 -1.09506e-05
4.82933e-05 -4.17981e-05 1.8375e-06
-4.17981e-05 -0.000240517 -2.22641e-06
1.8375e-06 -2.22641e-06 -0.000403599
0.000892587 0.000221631 -1.16263e-06
0.000221631 0.000191898 -2.79902e-07
-1.16263e-06 -2.79902e-07 -2.13685e-05
6.65805e-05 9.81821e-05 3.3097e-06
9.81821e-05 -0.000303622 5.49937e-07
3.3097e-06 5.49937e-07 -0.000495934
0.00173771 0.000410261 6.46508e-07
0.000410261 0.000216473 8.47199e-07
6.46508e-07 8.47199e-07 -1.72035e-05
0.00177745 0.000403 1.24119e-06
0.000403 0.000150345 5.46547e-07
1.24119e-06 5.46547e-07 -4.71968e-05
0.00161501 0.000366177 1.11673e-06
0.000366177 0.000496208 6.60436e-07
1.11673e-06 6.60436e-07 0.000216769
0.00213663 0.000469489 -1.35526e-06
0.000469489 0.000651225 6.31089e-08
-1.35526e-06 6.31089e-08 0.000355514
0.00177687 0.000474381 -5.53668e-07
0.000474381 0.000228097 1.30218e-06
-5.53668e-07 1.30218e-06 -3.06797e-05
0.000588108 1.18867e-05 -4.59876e-07
1.18867e-05 2.88868e-05 4.71717e-07
-4.59876e-07 4.71717e-07 -3.7805e-05
0.00072068 2.84887e-05 -7.9493e-07
2.84887e-05 0.000151194 2.69442e-07
-7.9493e-07 2.69442e-07 2.50895e-05
0.00111782 0.000285976 -1.11675e-06
0.000285976 0.000251398 -4.45419e-07
-1.11675e-06 -4.45419e-07 1.82239e-05
0.000859619 8.00996e-05 4.5138e-07
8.00996e-05 0.000253324 5.96983e-07
4.5138e-07 5.96983e-07 5.50895e-05
0.000780151 0.000195832 3.3561e-06
0.000195832 0.000104827 1.38974e-06
3.3561e-06 1.38974e-06 -8.83656e-05
0.00185195 0.000343939 -2.236e-06
0.000343939 0.000138306 -1.65397e-06
-2.236e-06 -1.65397e-06 -2.11058e-05
0.00188195 0.0004612 1.7133e-06
0.0004612 0.000255836 5.45742e-07
1.7133e-06 5.45742e-07 2.23986e-05
0.0017658 0.000437365 4.27428e-07
0.000437365 0.000107473 -1.2076e-07
4.27428e-07 -1.2076e-07 -8.77848e-05
0.00101047 0.000362839 2.45226e-06
0.000362839 0.000121694 2.82059e-06
2.45226e-06 2.82059e-06 -0.000173987
0.00165792 0.000470711 -2.59764e-06
0.000470711 0.000284242 -1.69477e-06
-2.59764e-06 -1.69477e-06 2.87934e-06
0.000803889 5.28762e-05 -1.09521e-07
5.28762e-05 0.000191626 2.23136e-06
-1.09521e-07 2.23136e-06 8.30354e-05
0.000184909 -3.32912e-07 -2.16585e-06
-3.32912e-07 -0.000150408 1.76435e-06
-2.16585e-06 1.76435e-06 -0.00030349
0.000845358 0.000282364 -5.20822e-06
0.000282364 4.05503e-05 -2.71805e-06
-5.20822e-06 -2.71805e-06 -0.000194676
0.00063266 0.000166776 -7.54755e-06
0.000166776 0.00012418 -4.15e-06
-7.54755e-06 -4.15e-06 -8.87049e-05
0.000828005 0.000253588 -3.52779e-06
0.000253588 7.97827e-05 -3.57233e-06
-3.52779e-06 -3.57233e-06 -0.000115606
0.00177605 0.00037053 -3.33849e-07
0.00037053 2.56337e-05 -1.46238e-06
-3.33849e-07 -1.46238e-06 -0.000113779
0.00200901 0.000509163 3.56382e-06
0.000509163 0.000311901 -1.63836e-06
3.56382e-06 -1.63836e-06 6.20226e-05
0.00168164 0.000455597 2.72847e-06
0.000455597 4.51123e-05 6.12913e-07
2.72847e-06 6.12913e-07 -0.000158787
0.00096422 0.000370177 3.44903e-06
0.000370177 5.8763e-05 4.61444e-06
3.44903e-06 4.61444e-06 -0.000247789
0.00177037 0.00051574 -1.96332e-06
0.00051574 0.000358262 -8.06684e-07
-1.96332e-06 -8.06684e-07 6.23979e-05
0.000569311 1.17839e-06 -1.63729e-06
1.17839e-06 1.28443e-05 -3.07919e-06
-1.63729e-06 -3.07919e-06 -4.62945e-05
0.00057224 4.40128e-05 1.18457e-06
4.40128e-05 3.82993e-05 3.91705e-07
1.18457e-06 3.91705e-07 -5.60266e-05
0.0004581 2.95849e-05 -5.42944e-07
2.95849e-05 -3.6623e-05 7.34369e-07
-5.42944e-07 7.34369e-07 -0.000130805
0.000354731 -2.25253e-05 -4.82881e-07
-2.25253e-05 -9.10963e-05 -1.78541e-06
-4.82881e-07 -1.78541e-06 -0.000181891
0.000625934 4.90693e-05 -3.05e-07
4.90693e-05 8.33084e-05 6.35125e-09
-3.05e-07 6.35125e-09 -1.29832e-05
0.000653564 6.95e-05 -6.61492e-07
6.95e-05 8.97615e-05 -2.40469e-07
-6.61492e-07 -2.40469e-07 -1.20847e-05
0.000769247 0.000104362 -2.2686e-06
0.000104362 0.000170091 -3.37292e-06
-2.2686e-06 -3.37292e-06 6.21908e-05
0.0004005 -1.51524e-07 6.86266e-07
-1.51524e-07 -4.46528e-05 -2.79977e-07
6.86266e-07 -2.79977e-07 -0.00015934
0.000676678 7.85983e-05 9.3683e-07
7.85983e-05 0.000109842 2.13105e-06
9.3683e-07 2.13105e-06 1.81141e-05
0.000594325 5.26153e-05 3.04205e-06
5.26153e-05 4.71911e-05 2.84434e-06
3.04205e-06 2.84434e-06 -1.27078e-05
0.000566942 1.1169e-05 -1.80649e-06
1.1169e-05 2.51018e-05 -7.69373e-09
-1.80649e-06 -7.69373e-09 -3.20055e-05
0.00123689 -2.06626e-05 1.11818e-06
-2.06626e-05 0.000405473 2.68832e-06
1.11818e-06 2.68832e-06 0.000392321
0.00051044 -5.2947e-05 7.67822e-07
-5.2947e-05 -9.19974e-06 -2.86592e-06
7.67822e-07 -2.86592e-06 -6.87756e-05
0.00129166 -3.03361e-05 -5.43153e-06
-3.03361e-05 0.000437659 -1.50982e-06
-5.43153e-06 -1.50982e-06 0.000423994
0.00081263 -3.1609e-05 2.24109e-05
-3.1609e-05 0.000148264 8.38757e-06
2.24109e-05 8.38757e-06 0.000153871
0.00133745 -4.18498e-05 -9.4639e-06
-4.18498e-05 0.000467674 -5.97406e-06
-9.4639e-06 -5.97406e-06 0.000452357
0.000784801 -4.2517e-05 8.25026e-06
-4.2517e-05 0.000134956 3.13504e-06
8.25026e-06 3.13504e-06 0.000137752
0.00234692 -0.000100966 -3.64737e-06
-0.000100966 0.00110477 -2.24801e-06
-3.64737e-06 -2.24801e-06 0.00110908
0.0004224 5.17116e-05 -2.03237e-06
5.17116e-05 -6.61286e-05 -4.25334e-06
-2.03237e-06 -4.25334e-06 -9.19382e-05
0.000454904 3.17653e-05 -2.21451e-06
3.17653e-05 -3.88648e-05 5.45535e-08
-2.21451e-06 5.45535e-08 -7.3933e-05
0.00260601 0.000119527 2.04832e-05
0.000119527 0.00128131 -4.06984e-06
2.04832e-05 -4.06984e-06 0.00127945
0.000593253 -2.35249e-05 -6.49834e-06
-2.35249e-05 3.72981e-05 8.62753e-06
-6.49834e-06 8.62753e-06 -5.61341e-06
0.00317702 0.000130097 -2.87344e-05
0.000130097 0.00163435 -9.35672e-07
-2.87344e-05 -9.35672e-07 0.00162921
0.00380456 9.70137e-05 -0.000124724
9.70137e-05 0.00201883 8.90346e-06
-0.000124724 8.90346e-06 0.00202043
0.00187612 0.000279662 -2.34536e-06
0.000279662 0.000132962 9.71348e-07
-2.34536e-06 9.71348e-07 -1.56449e-05
0.00187332 0.000158079 -2.00152e-07
0.000158079 8.8052e-05 1.68911e-06
-2.00152e-07 1.68911e-06 -1.0169e-05
0.00189369 0.00022835 -5.98336e-07
0.00022835 5.89742e-05 1.89848e-06
-5.98336e-07 1.89848e-06 -2.59766e-05
0.0019046 0.000103636 -2.6376e-06
0.000103636 3.57178e-05 -6.20754e-07
-2.6376e-06 -6.20754e-07 -6.52709e-06
0.00189371 3.74166e-05 -1.81356e-06
3.74166e-05 9.22959e-05 3.51319e-07
-1.81356e-06 3.51319e-07 2.53466e-05
0.00154667 7.87377e-06 -1.65123e-07
7.87377e-06 5.6508e-05 1.61105e-07
-1.65123e-07 1.61105e-07 -5.79697e-05
0.00187004 -8.63938e-08 -1.12628e-06
-8.63938e-08 8.62727e-05 7.23332e-08
-1.12628e-06 7.23332e-08 1.73155e-05
0.00186704 4.67814e-05 1.60275e-06
4.67814e-05 2.43436e-05 3.50158e-08
1.60275e-06 3.50158e-08 -1.66994e-05
0.00191303 0.000165849 -3.66494e-07
0.000165849 5.2394e-05 7.9878e-08
-3.66494e-07 7.9878e-08 -1.13046e-05
0.00192323 0.000106175 1.03168e-06
0.000106175 2.26975e-05 1.21965e-07
1.03168e-06 1.21965e-07 -6.08983e-07
0.00186266 0.000273688 -8.14445e-07
0.000273688 0.000100324 -3.45782e-07
-8.14445e-07 -3.45782e-07 -2.06429e-05
0.00191553 0.000241072 3.24554e-06
0.000241072 3.28401e-05 1.1541e-06
3.24554e-06 1.1541e-06 -3.43289e-05
0.00189919 -6.78268e-06 5.77165e-06
-6.78268e-06 5.33237e-05 1.23372e-07
5.77165e-06 1.23372e-07 1.38513e-05
0.00192454 4.92896e-05 4.7549e-06
4.92896e-05 1.94747e-05 6.75587e-08
4.7549e-06 6.75587e-08 3.4347e-06
0.00197422 0.000167701 3.62505e-06
0.000167701 2.79121e-05 1.10391e-06
3.62505e-06 1.10391e-06 -9.11139e-07
0.00197928 0.00031132 1.71891e-07
0.00031132 8.03819e-05 3.46081e-07
1.71891e-07 3.46081e-07 -8.5512e-06
0.00187233 -4.72007e-05 -5.33812e-07
-4.72007e-05 8.91796e-05 -3.51132e-08
-5.33812e-07 -3.51132e-08 1.41032e-05
0.0018537 -0.000155596 1.81025e-06
-0.000155596 9.86118e-05 -1.34106e-06
1.81025e-06 -1.34106e-06 -8.69995e-06
0.00185898 -9.84196e-05 -1.11932e-06
-9.84196e-05 4.44726e-05 -4.12423e-07
-1.11932e-06 -4.12423e-07 -4.88301e-06
0.00184199 -0.000228618 -3.65871e-06
-0.000228618 4.51709e-05 1.21532e-06
-3.65871e-06 1.21532e-06 -4.23807e-05
0.0010606 -0.000261901 -4.34162e-06
-0.000261901 0.000198362 3.73936e-06
-4.34162e-06 3.73936e-06 -2.99161e-05
0.00105408 -0.000366311 -1.61325e-07
-0.000366311 8.22519e-05 1.14323e-06
-1.61325e-07 1.14323e-06 -0.000204152
0.00165904 -0.000529561 1.06778e-06
-0.000529561 0.000244541 -1.32551e-06
1.06778e-06 -1.32551e-06 -7.88685e-05
0.00177642 -0.000328036 -9.42646e-07
-0.000328036 9.48087e-05 -3.73852e-08
-9.42646e-07 -3.73852e-08 -4.88212e-05
0.00186566 -0.000297902 2.52078e-07
-0.000297902 7.57055e-05 8.09084e-07
2.52078e-07 8.09084e-07 -1.6102e-05
0.00182972 -0.000394506 2.59385e-06
-0.000394506 0.000113666 1.00697e-06
2.59385e-06 1.00697e-06 -3.27471e-05
0.0018176 -0.00047839 -2.52436e-06
-0.00047839 0.000213488 -2.31931e-06
-2.52436e-06 -2.31931e-06 -3.40305e-05
0.00187152 -0.000401873 3.16213e-06
-0.000401873 0.000171245 -9.5072e-06
3.16213e-06 -9.5072e-06 8.92116e-06
0.000981704 -0.000276536 2.33727e-06
-0.000276536 0.000158618 1.12095e-06
2.33727e-06 1.12095e-06 -7.5759e-05
0.0007188 -0.000236365 4.01265e-06
-0.000236365 2.78076e-05 8.21202e-07
4.01265e-06 8.21202e-07 -0.000196496
0.00063842 -0.000133365 3.98544e-06
-0.000133365 0.000118873 -4.92909e-06
3.98544e-06 -4.92909e-06 -0.000127558
0.000283471 -7.9004e-06 9.89021e-08
-7.9004e-06 -0.00013112 3.88807e-06
9.89021e-08 3.88807e-06 -0.00023236
0.00017066 5.49963e-06 3.23448e-06
5.49963e-06 -0.00017026 -7.05398e-07
3.23448e-06 -7.05398e-07 -0.000338025
0.00190124 -6.38325e-05 -4.12667e-07
-6.38325e-05 4.46748e-05 -1.02213e-07
-4.12667e-07 -1.02213e-07 7.79564e-06
0.00187892 -0.000145433 1.42729e-06
-0.000145433 4.29819e-05 -3.88285e-07
1.42729e-06 -3.88285e-07 -1.15884e-05
0.00195186 -0.000272933 -1.3325e-06
-0.000272933 6.78852e-05 1.81544e-07
-1.3325e-06 1.81544e-07 8.6552e-07
0.00124586 -0.000331424 -1.5276e-06
-0.000331424 0.000269977 1.00667e-07
-1.5276e-06 1.00667e-07 7.74319e-06
0.00120778 -0.000453933 1.90478e-06
-0.000453933 0.000148159 -1.14595e-06
1.90478e-06 -1.14595e-06 -0.000181145
0.00175183 -0.000576783 -1.35264e-07
-0.000576783 0.000269179 -3.27851e-07
-1.35264e-07 -3.27851e-07 -6.68688e-05
0.00182383 -0.000335486 4.51101e-07
-0.000335486 6.83323e-05 6.25139e-08
4.51101e-07 6.25139e-08 -3.80728e-05
0.00195551 -0.000479908 7.97317e-07
-0.000479908 0.000262186 -2.97055e-06
7.97317e-07 -2.97055e-06 2.82617e-05
0.00197304 -0.00044995 -6.99325e-07
-0.00044995 0.000163106 -8.49885e-07
-6.99325e-07 -8.49885e-07 9.67299e-06
0.000218524 4.29529e-05 -1.03238e-06
4.29529e-05 -0.00017678 -8.07201e-07
-1.03238e-06 -8.07201e-07 -0.000251886
0.00120642 -0.000318597 1.52465e-07
-0.000318597 0.00026115 8.75888e-07
1.52465e-07 8.75888e-07 1.32838e-05
0.000848933 -0.000279949 1.72168e-06
-0.000279949 9.95212e-05 3.16151e-06
1.72168e-06 3.16151e-06 -0.000136739
0.00110231 -0.000218063 -3.90586e-07
-0.000218063 0.000383708 2.07823e-07
-3.90586e-07 2.07823e-07 0.000112647
0.00118702 -0.000119186 8.38076e-07
-0.000119186 0.000456271 -2.37383e-06
8.38076e-07 -2.37383e-06 0.000250852
0.000503455 -2.02998e-05 -6.59884e-07
-2.02998e-05 4.0402e-05 1.14309e-06
-6.59884e-07 1.14309e-06 -0.000111608
0.00191213 -7.61097e-05 4.48014e-06
-7.61097e-05 1.9482e-05 -5.55368e-07
4.48014e-06 -5.55368e-07 3.92894e-06
0.00201809 -0.000188511 2.41863e-06
-0.000188511 2.8068e-05 -6.86661e-07
2.41863e-06 -6.86661e-07 1.15888e-05
0.00199856 -0.000327674 2.32312e-06
-0.000327674 6.46801e-05 -1.61754e-06
2.32312e-06 -1.61754e-06 1.77358e-05
0.00209498 -0.000410343 2.6074e-06
-0.000410343 0.000140133 -3.03986e-06
2.6074e-06 -3.03986e-06 4.19143e-05
0.00211984 -0.000469204 -2.99525e-06
-0.000469204 0.000772926 -5.37294e-06
-2.99525e-06 -5.37294e-06 0.000463029
0.00193006 -0.000508183 4.36339e-06
-0.000508183 0.000177358 1.85325e-06
4.36339e-06 1.85325e-06 -2.32884e-05
0.00141568 -0.000546147 -4.44409e-06
-0.000546147 0.000234133 1.27102e-06
-4.44409e-06 1.27102e-06 -0.000141362
0.00204695 -0.000626866 -4.87065e-06
-0.000626866 0.000448336 1.11933e-06
-4.87065e-06 1.11933e-06 9.21054e-05
0.000210401 5.79862e-05 -3.05404e-06
5.79862e-05 -0.000186029 -1.71445e-06
-3.05404e-06 -1.71445e-06 -0.000246066
0.000666914 7.38608e-06 -1.27114e-06
7.38608e-06 0.000133763 -1.20282e-07
-1.27114e-06 -1.20282e-07 1.15438e-05
0.00108378 -0.000140481 -4.06394e-06
-0.000140481 0.000404447 3.24954e-06
-4.06394e-06 3.24954e-06 0.000224823
0.000926018 -4.23335e-05 -3.49623e-06
-4.23335e-05 0.000272932 2.71743e-06
-3.49623e-06 2.71743e-06 3.76655e-05
0.00111341 -0.000353644 -3.966e-06
-0.000353644 0.000185522 -6.33102e-06
-3.966e-06 -6.33102e-06 -0.000102913
0.00125267 -0.000313736 -1.01083e-05
-0.000313736 0.000399195 7.20276e-06
-1.01083e-05 7.20276e-06 9.09422e-05
0.000492337 4.56477e-06 -1.83067e-06
4.56477e-06 -2.90185e-05 -3.22206e-06
-1.83067e-06 -3.22206e-06 -9.46213e-05
0.000443637 -1.38601e-05 1.67849e-06
-1.38601e-05 -3.01313e-05 -2.00485e-06
1.67849e-06 -2.00485e-06 -0.00014159
0.0018224 0.000345779 -2.23261e-06
0.000345779 0.000120579 -7.32491e-07
-2.23261e-06 -7.32491e-07 -4.00223e-05
0.000172628 2.77747e-05 1.19821e-06
2.77747e-05 -0.000173686 -3.52131e-07
1.19821e-06 -3.52131e-07 -0.000356109
0.0013925 0.000314809 1.0064e-06
0.000314809 0.000417216 8.37602e-07
1.0064e-06 8.37602e-07 0.000177585
-7.80509e-05 9.43038e-05 6.29256e-06
9.43038e-05 -0.000429111 2.54698e-06
6.29256e-06 2.54698e-06 -0.000594058
0.00185734 0.000458638 1.0677e-06
0.000458638 0.000239073 5.55261e-07
1.0677e-06 5.55261e-07 5.82904e-06
0.00188912 0.000440069 -3.11058e-06
0.000440069 0.000179376 5.82014e-07
-3.11058e-06 5.82014e-07 -1.4838e-05
0.00161323 0.000436169 -7.7777e-07
0.000436169 0.000471629 1.96217e-06
-7.7777e-07 1.96217e-06 0.000163627
0.00195714 0.000499868 -2.53361e-06
0.000499868 0.000477461 3.84524e-07
-2.53361e-06 3.84524e-07 0.000187635
0.000680602 2.58483e-05 -1.02525e-06
2.58483e-05 0.000112157 2.32179e-07
-1.02525e-06 2.32179e-07 9.33125e-06
0.000445505 4.27443e-05 9.58823e-07
4.27443e-05 8.87683e-06 5.96694e-07
9.58823e-07 5.96694e-07 -0.000150969
0.00146754 0.000346277 -1.25718e-06
0.000346277 0.000421288 -1.40116e-06
-1.25718e-06 -1.40116e-06 0.000172345
0.000478304 6.94657e-05 -1.55421e-06
6.94657e-05 -7.18372e-06 -2.02743e-07
-1.55421e-06 -2.02743e-07 -0.000185342
0.000606401 0.000220279 5.47096e-07
0.000220279 -6.34563e-05 -1.38511e-06
5.47096e-07 -1.38511e-06 -0.000239585
0.0019821 0.000383814 -3.0074e-06
0.000383814 0.000141338 -1.23881e-06
-3.0074e-06 -1.23881e-06 3.89146e-06
0.0021032 0.000508971 2.30038e-06
0.000508971 0.000371486 -2.42785e-07
2.30038e-06 -2.42785e-07 0.000125807
0.00187891 0.000476898 2.17774e-06
0.000476898 0.000150466 2.7488e-06
2.17774e-06 2.7488e-06 -5.77348e-05
0.00123415 0.000401274 4.95834e-06
0.000401274 0.000230261 3.21057e-06
4.95834e-06 3.21057e-06 -8.37836e-05
0.00170627 0.000522374 -4.07889e-06
0.000522374 0.000318009 1.48439e-07
-4.07889e-06 1.48439e-07 1.40354e-05
1.64945e-05 -4.97287e-06 -1.56983e-06
-4.97287e-06 -0.000281827 2.85621e-06
-1.56983e-06 2.85621e-06 -0.000387666
-0.000104571 9.90214e-05 9.40395e-07
9.90214e-05 -0.000279808 1.31945e-06
9.40395e-07 1.31945e-06 -0.000483854
0.000621963 0.000269529 -3.21626e-07
0.000269529 -0.000100421 1.45029e-06
-3.21626e-07 1.45029e-06 -0.000348958
-0.000293199 0.00012487 3.49503e-06
0.00012487 -0.000554579 -8.59263e-07
3.49503e-06 -8.59263e-07 -0.000734677
0.00198691 0.000387472 9.41282e-07
0.000387472 -8.15581e-05 1.32656e-06
9.41282e-07 1.32656e-06 -0.0001176
0.00260978 0.000489619 2.12146e-06
0.000489619 0.000512284 -4.82692e-08
2.12146e-06 -4.82692e-08 0.000342743
0.00189897 0.00055392 -4.70428e-06
0.00055392 0.000278042 -4.29595e-06
-4.70428e-06 -4.29595e-06 -7.61391e-06
0.00108731 0.000440933 -1.05272e-06
0.000440933 6.47777e-05 2.97351e-07
-1.05272e-06 2.97351e-07 -0.00026656
0.000630722 7.89693e-05 -7.54948e-07
7.89693e-05 7.88724e-05 -1.08887e-06
-7.54948e-07 -1.08887e-06 -1.89053e-05
0.000602387 5.89363e-05 -3.66677e-07
5.89363e-05 6.21826e-05 1.66552e-08
-3.66677e-07 1.66552e-08 -4.06572e-05
0.000963434 5.78913e-05 -4.34423e-06
5.78913e-05 0.000278994 -2.12784e-06
-4.34423e-06 -2.12784e-06 0.000187559
0.000613745 2.69076e-05 -1.32265e-06
2.69076e-05 6.00154e-05 -1.97437e-06
-1.32265e-06 -1.97437e-06 -2.48383e-05
0.000359877 1.82929e-05 -4.00089e-07
1.82929e-05 -8.69852e-05 -1.38285e-07
-4.00089e-07 -1.38285e-07 -0.000184378
0.000632342 3.97078e-05 -2.77611e-07
3.97078e-05 8.55134e-05 6.63044e-08
-2.77611e-07 6.63044e-08 -7.13324e-06
0.00063636 0.000102678 -1.11553e-06
0.000102678 0.000102785 1.95912e-07
-1.11553e-06 1.95912e-07 -8.05455e-06
0.000544357 3.57717e-05 1.01748e-06
3.57717e-05 4.66788e-05 2.27214e-07
1.01748e-06 2.27214e-07 -7.17057e-05
0.000727136 7.56418e-05 1.35857e-06
7.56418e-05 0.000129032 -1.96145e-06
1.35857e-06 -1.96145e-06 4.38205e-05
0.000693102 -5.57716e-07 3.5496e-06
-5.57716e-07 0.000131237 -3.46281e-06
3.5496e-06 -3.46281e-06 1.45191e-05
0.000441872 6.00153e-05 4.52934e-07
6.00153e-05 -1.40137e-05 1.86473e-06
4.52934e-07 1.86473e-06 -0.00013508
0.000660071 9.04795e-05 1.85735e-06
9.04795e-05 0.000105925 2.56932e-06
1.85735e-06 2.56932e-06 9.49979e-06
0.000517389 6.09692e-05 2.72923e-06
6.09692e-05 6.96847e-06 2.67343e-06
2.72923e-06 2.67343e-06 -5.77673e-05
0.000525379 3.92358e-06 -1.47175e-06
3.92358e-06 6.40402e-06 -1.27922e-07
-1.47175e-06 -1.27922e-07 -5.37573e-05
0.00122423 -5.9048e-06 1.12567e-06
-5.9048e-06 0.000401134 2.5164e-06
1.12567e-06 2.5164e-06 0.000388252
0.000518314 -4.81272e-05 1.77097e-07
-4.81272e-05 -1.81798e-06 -2.70498e-06
1.77097e-07 -2.70498e-06 -6.02926e-05
0.0012935 -1.67461e-05 -4.78327e-06
-1.67461e-05 0.000440127 -1.5942e-06
-4.78327e-06 -1.5942e-06 0.000427235
0.000805015 -2.24936e-05 1.95634e-05
-2.24936e-05 0.000142852 8.6272e-06
1.95634e-05 8.6272e-06 0.000149269
0.00133684 -2.76832e-05 -8.32078e-06
-2.76832e-05 0.000465466 -5.88774e-06
-8.32078e-06 -5.88774e-06 0.000451952
0.000773827 -3.30184e-05 6.93962e-06
-3.30184e-05 0.000123572 3.22404e-06
6.93962e-06 3.22404e-06 0.000128519
0.000728569 -4.16528e-05 -6.68352e-07
-4.16528e-05 0.000100013 -2.4883e-06
-6.68352e-07 -2.4883e-06 0.000102659
0.000462811 3.8941e-05 -1.56198e-07
3.8941e-05 -5.67882e-05 -3.23771e-06
-1.56198e-07 -3.23771e-06 -7.4036e-05
0.000466681 6.32545e-05 -4.71978e-08
6.32545e-05 -3.47495e-05 1.91732e-07
-4.71978e-08 1.91732e-07 -6.38681e-05
0.00232593 9.72839e-05 1.67145e-05
9.72839e-05 0.00110181 -3.90313e-06
1.67145e-05 -3.90313e-06 0.001106
0.000528508 2.98158e-05 -3.43139e-06
2.98158e-05 8.07113e-06 7.10629e-06
-3.43139e-06 7.10629e-06 -2.90358e-05
0.00271109 0.000124289 -5.92178e-06
0.000124289 0.00134574 -5.7851e-07
-5.92178e-06 -5.7851e-07 0.00134263
0.00327392 8.73735e-05 -9.86728e-05
8.73735e-05 0.00168861 6.72433e-06
-9.86728e-05 6.72433e-06 0.00169359
0.00186967 0.000271421 -6.73653e-07
0.000271421 0.000113609 1.73318e-06
-6.73653e-07 1.73318e-06 -6.75941e-06
0.00197942 0.000166752 -4.20271e-06
0.000166752 9.5173e-05 -3.79878e-07
-4.20271e-06 -3.79878e-07 3.00589e-05
0.0019312 0.00024604 -1.84947e-07
0.00024604 4.2104e-05 -3.30507e-07
-1.84947e-07 -3.30507e-07 -2.13597e-05
0.00191024 0.000107837 -4.32098e-06
0.000107837 1.09619e-05 -8.61528e-07
-4.32098e-06 -8.61528e-07 -9.60046e-06
0.00185213 4.51162e-05 -3.86251e-06
4.51162e-05 1.83786e-05 -1.6023e-07
-3.86251e-06 -1.6023e-07 -2.47953e-05
0.00181225 -2.20798e-06 -1.55594e-06
-2.20798e-06 5.02148e-05 1.65313e-07
-1.55594e-06 1.65313e-07 -2.10091e-05
0.00186233 -4.56792e-06 -6.6923e-07
-4.56792e-06 2.99863e-05 -4.10935e-08
-6.6923e-07 -4.10935e-08 -8.78908e-06
0.00192254 5.08902e-05 1.1451e-06
5.08902e-05 2.40612e-05 1.36141e-07
1.1451e-06 1.36141e-07 6.68959e-06
0.00198713 0.000172413 7.08023e-07
0.000172413 3.8266e-05 2.13653e-07
7.08023e-07 2.13653e-07 8.99981e-06
0.00202588 0.000308206 5.48281e-07
0.000308206 9.64151e-05 2.25833e-07
5.48281e-07 2.25833e-07 8.4121e-06
0.00190028 -1.09154e-05 3.40429e-06
-1.09154e-05 1.80887e-05 -1.14718e-08
3.40429e-06 -1.14718e-08 1.12253e-06
0.00203738 9.92705e-05 1.97385e-06
9.92705e-05 2.04179e-06 2.74728e-09
1.97385e-06 2.74728e-09 1.46135e-05
0.00218017 0.000264561 2.89244e-06
0.000264561 7.59461e-05 1.30741e-06
2.89244e-06 1.30741e-06 4.38211e-05
0.00189921 -7.13526e-05 -4.3523e-06
-7.13526e-05 4.269e-05 6.08274e-07
-4.3523e-06 6.08274e-07 3.33905e-06
0.00185405 -0.000144706 -1.92905e-06
-0.000144706 2.66513e-05 -2.14916e-07
-1.92905e-06 -2.14916e-07 -2.91963e-05
0.00193626 -0.000267009 -3.36345e-06
-0.000267009 7.29853e-05 1.3413e-06
-3.36345e-06 1.3413e-06 2.02274e-06
0.000941531 -0.000301884 -1.10724e-06
-0.000301884 8.27994e-05 2.87956e-06
-1.10724e-06 2.87956e-06 -0.000174772
0.000976568 -0.000417294 3.73087e-06
-0.000417294 1.07083e-05 -9.95952e-07
3.73087e-06 -9.95952e-07 -0.000307616
0.00161651 -0.000568533 1.5778e-08
-0.000568533 0.000195136 1.29837e-07
1.5778e-08 1.29837e-07 -0.000141973
0.00182795 -0.000334788 -1.05472e-06
-0.000334788 6.75145e-05 9.93684e-07
-1.05472e-06 9.93684e-07 -4.007e-05
0.00171226 -0.000425926 -1.02037e-06
-0.000425926 3.48997e-05 -5.33451e-07
-1.02037e-06 -5.33451e-07 -0.000116049
0.00200821 -0.000488429 -5.65291e-07
-0.000488429 0.00029113 -7.46671e-06
-5.65291e-07 -7.46671e-06 6.24143e-05
0.000739458 -0.000271545 3.45837e-06
-0.000271545 -2.99349e-05 5.45989e-06
3.45837e-06 5.45989e-06 -0.000268504
0.000530306 -0.000243568 -9.09386e-06
-0.000243568 -8.06517e-05 7.01941e-06
-9.09386e-06 7.01941e-06 -0.00029539
0.00193561 -0.000297941 2.21869e-06
-0.000297941 0.000908615 -6.76229e-07
2.21869e-06 -6.76229e-07 0.000611594
0.000354473 4.02693e-05 1.70852e-06
4.02693e-05 -9.65343e-05 6.60176e-07
1.70852e-06 6.60176e-07 -0.00016932
0.000905378 -0.000122745 3.72249e-06
-0.000122745 0.000277064 -7.84265e-07
3.72249e-06 -7.84265e-07 8.64858e-05
0.000272411 3.31619e-05 4.58549e-06
3.31619e-05 -0.000108794 1.09599e-06
4.58549e-06 1.09599e-06 -0.000254726
0.00190697 -7.64663e-05 -5.04868e-07
-7.64663e-05 1.68687e-05 1.06273e-07
-5.04868e-07 1.06273e-07 -1.69899e-06
0.00198695 -0.000194469 2.09967e-07
-0.000194469 6.09854e-06 -8.8075e-08
2.09967e-07 -8.8075e-08 -9.63511e-06
0.00198187 -0.000323612 -4.30462e-07
-0.000323612 6.22286e-05 5.17216e-07
-4.30462e-07 5.17216e-07 1.07432e-05
0.00138764 -0.000394311 -2.55162e-06
-0.000394311 0.000334232 -1.30569e-07
-2.55162e-06 -1.30569e-07 3.94612e-05
0.00142055 -0.000542713 1.29628e-06
-0.000542713 0.000234822 -1.09201e-06
1.29628e-06 -1.09201e-06 -0.000137489
0.0021236 -0.000625399 -4.68978e-06
-0.000625399 0.000491881 9.3657e-07
-4.68978e-06 9.3657e-07 0.000145198
0.00200775 -0.000412375 6.00508e-07
-0.000412375 9.04616e-05 -2.60373e-07
6.00508e-07 -2.60373e-07 -1.21512e-05
0.00177056 -0.000494204 1.4027e-06
-0.000494204 8.16068e-05 -3.24494e-06
1.4027e-06 -3.24494e-06 -0.000116617
0.000399517 5.55225e-05 -8.18678e-07
5.55225e-05 -7.4634e-05 -1.03299e-06
-8.18678e-07 -1.03299e-06 -0.000130193
0.000665211 -1.31434e-05 -7.05282e-07
-1.31434e-05 0.000128894 3.38979e-07
-7.05282e-07 3.38979e-07 8.70147e-06
0.000370483 -0.000277053 -5.06435e-06
-0.000277053 -0.000258252 5.04816e-06
-5.06435e-06 5.04816e-06 -0.000523792
0.00158174 -0.000320673 3.68281e-06
-0.000320673 0.000622074 -2.73568e-06
3.68281e-06 -2.73568e-06 0.000308971
0.00112246 -9.71852e-05 -1.38109e-07
-9.71852e-05 0.000405718 -1.93241e-06
-1.38109e-07 -1.93241e-06 0.000166624
0.000837012 -0.000108154 -6.91173e-07
-0.000108154 0.000252492 9.20367e-07
-6.91173e-07 9.20367e-07 7.45487e-05
0.00197978 -0.000100315 5.93338e-07
-0.000100315 -8.97267e-06 4.76396e-10
5.93338e-07 4.76396e-10 1.44689e-06
0.00207994 -0.000277544 -4.00448e-09
-0.000277544 -1.30133e-05 1.47601e-07
-4.00448e-09 1.47601e-07 4.2906e-06
0.00204946 -0.000364968 2.45997e-06
-0.000364968 6.52302e-05 -1.79146e-06
2.45997e-06 -1.79146e-06 2.72809e-05
0.00206238 -0.000542566 6.69078e-06
-0.000542566 0.000103818 -2.66896e-06
6.69078e-06 -2.66896e-06 -3.15533e-05
0.000971049 -0.000413451 -5.69848e-07
-0.000413451 6.27035e-05 -5.16383e-06
-5.69848e-07 -5.16383e-06 -0.000279405
0.00205488 -0.000639032 -5.63999e-07
-0.000639032 0.000392438 1.25131e-05
-5.63999e-07 1.25131e-05 6.56366e-05
0.00217355 -0.000667164 -4.8455e-06
-0.000667164 0.00063397 -2.48586e-06
-4.8455e-06 -2.48586e-06 0.000215668
0.000598672 5.15463e-05 4.43919e-07
5.15463e-05 3.34504e-05 -1.11721e-06
4.43919e-07 -1.11721e-06 -1.14316e-05
0.000663427 -0.000123471 3.84038e-06
-0.000123471 0.000118418 -2.53147e-06
3.84038e-06 -2.53147e-06 2.70171e-05
0.000406874 7.14886e-05 -4.11695e-06
7.14886e-05 -3.86266e-05 7.24282e-07
-4.11695e-06 7.24282e-07 -0.000133333
0.000678149 -4.62027e-05 -3.11262e-06
-4.62027e-05 0.000154254 4.64057e-06
-3.11262e-06 4.64057e-06 -1.39455e-06
0.000417137 -5.37954e-05 8.9687e-07
-5.37954e-05 -3.88861e-05 -3.94087e-07
8.9687e-07 -3.94087e-07 -0.000218294
-0.000635991 -1.86964e-05 7.13043e-08
-1.86964e-05 -0.000629586 -2.66888e-07
7.13043e-08 -2.66888e-07 -0.000902109
0.000726379 -0.000339134 -1.29823e-05
-0.000339134 -3.30401e-05 -1.52438e-06
-1.29823e-05 -1.52438e-06 -0.000308773
0.00307525 -0.000483782 -1.48199e-05
-0.000483782 0.00159714 4.27742e-06
-1.48199e-05 4.27742e-06 0.00113675
0.000623032 4.02747e-06 -5.35886e-07
4.02747e-06 7.09595e-05 -1.17886e-06
-5.35886e-07 -1.17886e-06 -2.4837e-05
0.000745323 8.38167e-05 7.49839e-07
8.38167e-05 0.000195536 -9.55676e-07
7.49839e-07 -9.55676e-07 2.61988e-05
0.00217802 0.000396116 -1.9304e-06
0.000396116 0.000252172 -1.26804e-06
-1.9304e-06 -1.26804e-06 0.000116904
0.000733642 0.00011215 -1.07467e-06
0.00011215 0.000161466 2.93365e-06
-1.07467e-06 2.93365e-06 -3.00411e-05
0.00212221 0.000413902 1.10398e-06
0.000413902 0.000822723 1.29838e-06
1.10398e-06 1.29838e-06 0.000558054
0.000307347 0.000177381 6.92129e-07
0.000177381 -0.000251162 -1.08896e-07
6.92129e-07 -1.08896e-07 -0.000407209
0.00215673 0.000503673 -2.54374e-06
0.000503673 0.000410885 -3.90673e-07
-2.54374e-06 -3.90673e-07 0.000170603
0.00202089 0.000493998 -3.67363e-06
0.000493998 0.000224984 5.49047e-06
-3.67363e-06 5.49047e-06 1.34064e-05
0.0017578 0.000463815 -6.93193e-07
0.000463815 0.000546966 6.90597e-07
-6.93193e-07 6.90597e-07 0.000220627
0.00147946 0.000514289 6.42937e-07
0.000514289 0.0001811 5.6314e-07
6.42937e-07 5.6314e-07 -0.00012785
0.00021466 2.69519e-05 -1.59244e-07
2.69519e-05 -0.000156027 1.12943e-06
-1.59244e-07 1.12943e-06 -0.000270279
0.00030554 0.000136573 -8.19554e-07
0.000136573 -3.06418e-05 -2.73811e-06
-8.19554e-07 -2.73811e-06 -0.000239451
0.00155 0.00037174 3.84143e-06
0.00037174 0.000455843 -6.60708e-07
3.84143e-06 -6.60708e-07 0.00018894
0.000714407 0.000206569 -2.98396e-06
0.000206569 5.23226e-05 -2.62837e-06
-2.98396e-06 -2.62837e-06 -0.000138239
0.00210413 0.000379113 9.70374e-07
0.000379113 -1.50648e-05 -7.93205e-07
9.70374e-07 -7.93205e-07 -5.08027e-05
0.00232165 0.00048106 3.20589e-06
0.00048106 0.000350351 5.08525e-07
3.20589e-06 5.08525e-07 0.000176923
0.00193535 0.000548062 -6.00792e-07
0.000548062 0.000294449 4.77242e-07
-6.00792e-07 4.77242e-07 1.31635e-05
0.00132715 0.000467071 4.8512e-07
0.000467071 0.000187853 5.5316e-07
4.8512e-07 5.5316e-07 -0.00014346
0.000172722 4.62749e-05 -1.85864e-06
4.62749e-05 -0.000186781 3.70465e-06
-1.85864e-06 3.70465e-06 -0.000305547
0.00205997 0.000309123 3.91943e-06
0.000309123 -0.000105211 3.21964e-06
3.91943e-06 3.21964e-06 -7.56505e-05
0.0017969 0.000340207 4.25142e-06
0.000340207 0.000824794 6.59e-06
4.25142e-06 6.59e-06 0.00056746
0.00125513 0.000356792 5.5943e-06
0.000356792 0.000255729 1.2033e-06
5.5943e-06 1.2033e-06 -4.62048e-06
0.00243684 0.000472672 -1.74635e-05
0.000472672 0.000287715 -6.38327e-06
-1.74635e-05 -6.38327e-06 0.000177199
0.000985811 0.000502245 -8.72411e-06
0.000502245 -0.000347484 -9.09939e-06
-8.72411e-06 -9.09939e-06 -0.000610334
0.00207452 0.000571286 -3.49057e-06
0.000571286 0.00056079 2.50692e-06
-3.49057e-06 2.50692e-06 0.000205751
0.000707817 7.58615e-05 -1.06848e-06
7.58615e-05 0.000125064 -6.90932e-07
-1.06848e-06 -6.90932e-07 2.25506e-05
0.000664825 7.12722e-05 -2.3014e-06
7.12722e-05 0.000107561 -5.89914e-07
-2.3014e-06 -5.89914e-07 1.14666e-05
0.00114973 6.66352e-05 -3.28478e-06
6.66352e-05 0.000405243 -8.58678e-07
-3.28478e-06 -8.58678e-07 0.000325089
0.000567102 1.11946e-06 1.88039e-07
1.11946e-06 4.90511e-05 -2.72731e-06
1.88039e-07 -2.72731e-06 -4.53738e-05
0.000668811 6.58488e-05 1.30795e-06
6.58488e-05 0.000124704 3.773e-08
1.30795e-06 3.773e-08 3.94731e-06
0.000225832 4.77249e-05 -1.33064e-06
4.77249e-05 -0.000131885 3.40556e-06
-1.33064e-06 3.40556e-06 -0.000238356
0.000595375 1.11447e-05 -8.69383e-07
1.11447e-05 7.43441e-05 2.45673e-08
-8.69383e-07 2.45673e-08 -2.65652e-05
0.000379853 -1.53739e-05 -7.01325e-07
-1.53739e-05 -4.12258e-05 3.45883e-07
-7.01325e-07 3.45883e-07 -0.000166476
0.000351177 2.78918e-05 4.39769e-07
2.78918e-05 -8.78375e-05 5.81764e-07
4.39769e-07 5.81764e-07 -0.000166057
0.000750548 6.62103e-05 8.63688e-07
6.62103e-05 0.000179519 -7.53682e-07
8.63688e-07 -7.53682e-07 5.11377e-05
0.00138492 8.29895e-05 -1.09026e-07
8.29895e-05 0.000511856 -2.33968e-06
-1.09026e-07 -2.33968e-06 0.000451325
0.000624936 4.86744e-06 5.30547e-06
4.86744e-06 7.62238e-05 -4.25442e-06
5.30547e-06 -4.25442e-06 -1.38031e-05
0.000625281 6.67841e-05 1.02726e-07
6.67841e-05 0.000112027 1.84419e-06
1.02726e-07 1.84419e-06 -3.14826e-05
0.000598123 4.00776e-05 2.43817e-06
4.00776e-05 9.10822e-05 2.01222e-06
2.43817e-06 2.01222e-06 -4.68172e-05
0.000618216 2.9683e-05 1.97921e-06
2.9683e-05 8.19734e-05 2.4152e-06
1.97921e-06 2.4152e-06 -1.87149e-05
0.000520659 -4.21986e-05 -3.1941e-08
-4.21986e-05 7.90958e-06 2.58146e-06
-3.1941e-08 2.58146e-06 -5.76592e-05
0.000539526 -1.28993e-06 -3.60134e-07
-1.28993e-06 1.65104e-05 -1.35012e-07
-3.60134e-07 -1.35012e-07 -4.51766e-05
0.00127872 8.78036e-06 1.73518e-06
8.78036e-06 0.000439646 2.47045e-06
1.73518e-06 2.47045e-06 0.000425489
0.000539919 -1.84036e-05 6.43091e-07
-1.84036e-05 1.15479e-05 -2.79434e-06
6.43091e-07 -2.79434e-06 -4.5886e-05
0.00129694 -1.263e-06 -3.71028e-06
-1.263e-06 0.000446025 -1.61877e-06
-3.71028e-06 -1.61877e-06 0.000432966
0.000778013 -1.41385e-05 1.49437e-05
-1.41385e-05 0.000128127 8.53087e-06
1.49437e-05 8.53087e-06 0.000134951
0.00135592 -1.31166e-05 -6.59131e-06
-1.31166e-05 0.000478475 -6.01976e-06
-6.59131e-06 -6.01976e-06 0.000465503
0.000792548 -2.42811e-05 4.85738e-06
-2.42811e-05 0.000133198 3.32172e-06
4.85738e-06 3.32172e-06 0.000139109
0.000752455 -3.26664e-05 -4.32638e-07
-3.26664e-05 0.000108721 -2.41924e-06
-4.32638e-07 -2.41924e-06 0.000113654
0.000643192 5.94124e-06 1.59973e-06
5.94124e-06 5.81827e-05 -1.77166e-06
1.59973e-06 -1.77166e-06 1.584e-05
0.000496421 2.8689e-05 4.59424e-07
2.8689e-05 -4.60682e-05 -3.4413e-06
4.59424e-07 -3.4413e-06 -5.85985e-05
0.000503388 4.08404e-05 2.9312e-07
4.08404e-05 -3.08814e-05 1.83528e-07
2.9312e-07 1.83528e-07 -4.88327e-05
0.00213013 7.6603e-05 1.63032e-05
7.6603e-05 0.000972542 -3.95186e-06
1.63032e-05 -3.95186e-06 0.000982104
0.000517676 6.23248e-05 4.41049e-06
6.23248e-05 -4.15254e-06 5.68951e-06
4.41049e-06 5.68951e-06 -3.37306e-05
0.00242808 0.000101859 -5.32743e-06
0.000101859 0.00116485 -4.84282e-07
-5.32743e-06 -4.84282e-07 0.00116796
0.0028688 0.000123214 -2.46136e-05
0.000123214 0.00144068 4.78843e-06
-2.46136e-05 4.78843e-06 0.00143746
0.00208022 0.000305774 -3.852e-07
0.000305774 0.000116792 2.37464e-07
-3.852e-07 2.37464e-07 2.9644e-05
0.00199881 0.000176822 -3.50118e-06
0.000176822 4.87852e-05 -8.31529e-07
-3.50118e-06 -8.31529e-07 1.88e-05
0.00191648 5.39485e-05 -4.24348e-06
5.39485e-05 2.65661e-05 -4.56085e-07
-4.24348e-06 -4.56085e-07 7.8581e-06
0.00183425 -2.38973e-06 -4.54405e-06
-2.38973e-06 1.2322e-05 -9.28527e-08
-4.54405e-06 -9.28527e-08 -2.57506e-05
0.0019009 -6.28885e-06 -9.08479e-07
-6.28885e-06 1.54539e-05 2.77419e-08
-9.08479e-07 2.77419e-08 2.02491e-06
0.00201675 9.26669e-05 -2.95341e-08
9.26669e-05 -2.51221e-06 8.08809e-08
-2.95341e-08 8.08809e-08 7.21232e-06
0.00211334 0.000267381 -8.70207e-07
0.000267381 3.65069e-05 -5.07002e-08
-8.70207e-07 -5.07002e-08 6.56848e-06
0.00199096 -8.04053e-06 7.63844e-07
-8.04053e-06 -1.7692e-05 -4.90127e-07
7.63844e-07 -4.90127e-07 6.57525e-07
0.00216295 0.000144799 4.02888e-06
0.000144799 -9.82984e-06 -9.74205e-08
4.02888e-06 -9.74205e-08 8.39235e-06
0.00235603 9.72327e-05 8.74126e-07
9.72327e-05 0.00016407 9.65304e-06
8.74126e-07 9.65304e-06 0.000225347
0.00190274 -7.69289e-05 -4.68125e-06
-7.69289e-05 1.47571e-05 4.25596e-07
-4.68125e-06 4.25596e-07 -6.86549e-06
0.0019613 -0.00020148 -3.10346e-06
-0.00020148 -1.42965e-05 6.68488e-07
-3.10346e-06 6.68488e-07 -2.85679e-05
0.00196447 -0.000319187 -2.81289e-06
-0.000319187 5.85376e-05 9.99063e-07
-2.81289e-06 9.99063e-07 4.10937e-06
0.00047596 -0.0003004 -1.53914e-07
-0.0003004 -0.000213934 3.22721e-06
-1.53914e-07 3.22721e-06 -0.000490214
0.00159894 -0.000556808 2.14714e-06
-0.000556808 0.000338838 -3.08002e-07
2.14714e-06 -3.08002e-07 -3.50734e-05
0.00204774 -0.000604489 -2.17988e-06
-0.000604489 0.000456067 -1.15937e-07
-2.17988e-06 -1.15937e-07 0.000121813
0.00193234 -0.000413997 -4.22953e-07
-0.000413997 4.86915e-05 2.1806e-06
-4.22953e-07 2.1806e-06 -5.79853e-05
0.00176606 -0.000490262 -6.82483e-06
-0.000490262 7.85066e-05 -4.83739e-06
-6.82483e-06 -4.83739e-06 -0.000118463
0.000672437 -0.000301991 -6.40312e-06
-0.000301991 -7.28237e-05 6.24517e-06
-6.40312e-06 6.24517e-06 -0.000337863
0.00209137 -0.000351353 1.39918e-05
-0.000351353 0.000961052 -3.43938e-06
1.39918e-05 -3.43938e-06 0.000637763
0.000871065 -4.49087e-05 1.09713e-06
-4.49087e-05 0.000242128 5.89568e-07
1.09713e-06 5.89568e-07 2.06216e-05
0.000476093 1.62271e-05 8.29465e-07
1.62271e-05 -3.10184e-05 -2.48998e-07
8.29465e-07 -2.48998e-07 -8.22839e-05
0.000826412 3.67386e-05 3.82161e-06
3.67386e-05 0.000222889 4.32678e-07
3.82161e-06 4.32678e-07 0.000101334
0.000741753 -7.64942e-05 1.31157e-06
-7.64942e-05 0.000192009 1.22359e-06
1.31157e-06 1.22359e-06 1.28182e-05
0.00199381 -0.000102771 4.57184e-07
-0.000102771 -8.45788e-06 7.6219e-08
4.57184e-07 7.6219e-08 4.0425e-06
0.000539392 1.68181e-05 1.20669e-06
1.68181e-05 -2.23788e-06 1.98709e-07
1.20669e-06 1.98709e-07 -4.65255e-05
0.000477781 -5.76373e-05 -1.83309e-06
-5.76373e-05 -1.84689e-05 -1.40651e-07
-1.83309e-06 -1.40651e-07 -9.45718e-05
0.00207102 -0.000267596 -2.1804e-07
-0.000267596 -1.53309e-06 1.54514e-07
-2.1804e-07 1.54514e-07 1.26399e-05
0.00200259 -0.000359208 -1.39874e-06
-0.000359208 3.71732e-05 1.29268e-07
-1.39874e-06 1.29268e-07 3.71185e-06
0.00138015 -0.000459376 -2.18047e-06
-0.000459376 0.000297118 1.85648e-07
-2.18047e-06 1.85648e-07 -5.25101e-05
0.00181008 -0.00062876 8.91748e-07
-0.00062876 0.000436469 1.09379e-06
8.91748e-07 1.09379e-06 1.89239e-05
0.00169109 -0.000603585 4.20772e-06
-0.000603585 0.000178814 -2.31286e-06
4.20772e-06 -2.31286e-06 -0.00013828
0.00214646 -0.000544634 2.54279e-06
-0.000544634 0.000162455 -6.94535e-07
2.54279e-06 -6.94535e-07 2.59866e-05
0.000723442 -3.74771e-06 4.08473e-07
-3.74771e-06 0.000159886 -1.40935e-06
4.08473e-07 -1.40935e-06 6.28113e-05
0.000705547 -3.1557e-05 4.29978e-08
-3.1557e-05 0.000173282 1.58418e-06
4.29978e-08 1.58418e-06 1.5394e-05
0.00136391 -0.000387155 3.7294e-07
-0.000387155 0.00034205 -1.79982e-07
3.7294e-07 -1.79982e-07 5.00899e-05
0.00172491 -0.000339086 1.70115e-05
-0.000339086 0.000790184 -4.08871e-06
1.70115e-05 -4.08871e-06 0.000401779
0.000369321 -5.5316e-05 -3.6773e-06
-5.5316e-05 -4.9465e-05 -1.11013e-06
-3.6773e-06 -1.11013e-06 -0.000301184
0.000614698 -3.84661e-05 8.86076e-07
-3.84661e-05 9.36463e-05 -9.9374e-07
8.86076e-07 -9.9374e-07 -9.61791e-05
0.00202866 -0.00012013 2.67225e-06
-0.00012013 -8.08757e-05 -7.75242e-07
2.67225e-06 -7.75242e-07 -6.1023e-05
0.00202219 -0.000333839 3.41722e-08
-0.000333839 -0.000136752 1.1806e-06
3.41722e-08 1.1806e-06 -1.92075e-05
0.00211145 -0.000486478 -4.23861e-06
-0.000486478 3.17622e-05 -5.75269e-07
-4.23861e-06 -5.75269e-07 -2.46008e-05
0.00157103 -0.000625136 4.11168e-06
-0.000625136 -5.15582e-05 -2.22581e-06
4.11168e-06 -2.22581e-06 -0.000230527
0.00121434 -0.000445701 -3.61374e-06
-0.000445701 0.000226683 -6.8091e-06
-3.61374e-06 -6.8091e-06 -0.000130607
0.00232811 -0.000739242 -1.00274e-05
-0.000739242 0.000676573 9.97941e-06
-1.00274e-05 9.97941e-06 0.000228163
0.000287743 4.9798e-05 -1.26404e-06
4.9798e-05 -0.000121477 -2.62765e-06
-1.26404e-06 -2.62765e-06 -0.000204675
0.000642058 -5.96481e-05 4.6464e-06
-5.96481e-05 7.80253e-05 -8.57552e-07
4.6464e-06 -8.57552e-07 4.22791e-06
0.000962017 -0.000117683 1.74845e-06
-0.000117683 0.000283249 3.46383e-06
1.74845e-06 3.46383e-06 0.000180465
0.00047842 2.06202e-05 -3.40309e-06
2.06202e-05 1.86097e-05 8.15954e-06
-3.40309e-06 8.15954e-06 -0.000117549
0.000774001 -7.76208e-05 -4.68606e-06
-7.76208e-05 0.000187031 6.69158e-06
-4.68606e-06 6.69158e-06 2.98096e-05
0.00146026 -4.87443e-05 3.56253e-06
-4.87443e-05 0.000537401 -4.84609e-07
3.56253e-06 -4.84609e-07 0.000342271
-0.000993411 -0.000139991 7.61367e-06
-0.000139991 -0.000579993 -1.65244e-06
7.61367e-06 -1.65244e-06 -0.00112304
-0.000297185 -0.000346571 -2.62369e-05
-0.000346571 -0.000651677 -1.22444e-07
-2.62369e-05 -1.22444e-07 -0.000926795
0.000360098 5.4774e-05 3.29346e-08
5.4774e-05 -6.00277e-05 -6.94997e-07
3.29346e-08 -6.94997e-07 -0.00018502
0.000978265 0.000185868 -7.32235e-06
0.000185868 0.000371941 -4.63133e-06
-7.32235e-06 -4.63133e-06 0.000158874
0.00219673 0.000370138 -5.41841e-06
0.000370138 4.23137e-05 -2.94087e-06
-5.41841e-06 -2.94087e-06 5.48801e-06
0.00209838 0.000475885 -2.0346e-06
0.000475885 0.000226562 6.23472e-07
-2.0346e-06 6.23472e-07 4.8678e-05
0.00184547 0.000277252 -7.03394e-06
0.000277252 0.000718636 -1.31501e-06
-7.03394e-06 -1.31501e-06 0.000525284
0.00210404 0.000431598 -5.13724e-06
0.000431598 0.000788599 -5.15942e-06
-5.13724e-06 -5.15942e-06 0.000511881
0.00196982 0.00054252 2.68854e-06
0.00054252 0.000308662 2.3148e-06
2.68854e-06 2.3148e-06 3.10745e-05
0.00177838 0.000512185 2.29693e-07
0.000512185 0.000435473 -5.38531e-07
2.29693e-07 -5.38531e-07 0.000100817
0.000485784 8.19545e-05 7.24504e-07
8.19545e-05 1.69483e-05 -9.46318e-07
7.24504e-07 -9.46318e-07 -0.000118725
0.00219044 0.000293653 -1.69977e-06
0.000293653 -2.72924e-05 -1.26999e-06
-1.69977e-06 -1.26999e-06 6.58436e-06
0.00134813 0.000260266 1.33167e-06
0.000260266 0.000538356 1.37389e-06
1.33167e-06 1.37389e-06 0.000303013
0.00136006 0.000368618 1.49513e-06
0.000368618 0.000326092 3.53044e-07
1.49513e-06 3.53044e-07 5.87421e-05
0.00240657 0.000471998 2.03332e-06
0.000471998 0.000275723 4.88897e-07
2.03332e-06 4.88897e-07 0.000167296
0.00159421 0.000545675 -1.64297e-06
0.000545675 -2.16678e-06 -4.41258e-06
-1.64297e-06 -4.41258e-06 -0.000267206
0.0018773 0.000547867 2.03188e-07
0.000547867 0.000456942 5.19476e-07
2.03188e-07 5.19476e-07 0.000105014
0.0011374 0.00019838 -4.39694e-06
0.00019838 0.00043568 4.18242e-06
-4.39694e-06 4.18242e-06 0.000249657
0.00268014 0.00036151 -5.97796e-05
0.00036151 0.000316452 -1.70523e-05
-5.97796e-05 -1.70523e-05 0.00036553
0.00203098 0.000433415 -5.68396e-06
0.000433415 0.000857199 1.84952e-06
-5.68396e-06 1.84952e-06 0.000588863
0.00166069 0.000461419 -5.22739e-06
0.000461419 0.00041755 -4.10461e-06
-5.22739e-06 -4.10461e-06 0.000101797
0.00249222 0.000626566 -3.23171e-05
0.000626566 0.00038271 -1.53294e-05
-3.23171e-05 -1.53294e-05 0.000186812
0.000850703 0.00047369 -2.38152e-05
0.00047369 -0.000174527 -3.22207e-06
-2.38152e-05 -3.22207e-06 -0.000501796
0.00102099 0.000516744 3.18161e-05
0.000516744 -0.000698445 -2.92002e-05
3.18161e-05 -2.92002e-05 -0.000843654
0.000325164 8.36731e-05 1.96818e-06
8.36731e-05 -8.28517e-05 -2.36422e-07
1.96818e-06 -2.36422e-07 -0.000184607
0.000581979 7.29248e-05 -3.7074e-07
7.29248e-05 8.67774e-05 1.00078e-06
-3.7074e-07 1.00078e-06 2.07913e-06
0.00160979 0.000113933 5.28557e-07
0.000113933 0.000672407 -1.50591e-06
5.28557e-07 -1.50591e-06 0.000589086
0.000519373 -6.43492e-05 6.40863e-07
-6.43492e-05 3.65527e-05 -3.22966e-06
6.40863e-07 -3.22966e-06 -6.84238e-05
0.000446741 -4.02164e-05 -1.21989e-06
-4.02164e-05 -5.16141e-06 -3.42588e-07
-1.21989e-06 -3.42588e-07 -0.000126443
0.000933925 0.000154349 -1.7494e-07
0.000154349 0.00029341 1.30403e-06
-1.7494e-07 1.30403e-06 0.000156991
9.37019e-05 1.0262e-05 -2.55782e-06
1.0262e-05 -0.000228928 8.01658e-06
-2.55782e-06 8.01658e-06 -0.000307022
0.000581328 -1.99015e-05 -4.40631e-07
-1.99015e-05 7.35927e-05 -2.68685e-08
-4.40631e-07 -2.68685e-08 -3.53391e-05
0.000567351 5.37251e-05 2.94876e-09
5.37251e-05 5.60038e-05 -5.41167e-07
2.94876e-09 -5.41167e-07 -6.89267e-05
0.000952639 7.02507e-05 -1.83944e-07
7.02507e-05 0.000253928 2.32758e-06
-1.83944e-07 2.32758e-06 0.000190634
0.00068825 4.09953e-05 1.35584e-06
4.09953e-05 0.000134524 4.76067e-07
1.35584e-06 4.76067e-07 6.63662e-07
0.000687926 2.92654e-05 -1.39544e-06
2.92654e-05 0.000109705 -1.05853e-06
-1.39544e-06 -1.05853e-06 1.50432e-05
0.00120679 8.03213e-05 9.24463e-07
8.03213e-05 0.000423258 -7.34592e-06
9.24463e-07 -7.34592e-06 0.000358216
0.00094894 7.67124e-05 -2.33208e-06
7.67124e-05 0.000275221 -2.34193e-06
-2.33208e-06 -2.34193e-06 0.000131946
0.000819263 9.83167e-05 7.06819e-07
9.83167e-05 0.000206064 1.07192e-06
7.06819e-07 1.07192e-06 7.63706e-05
0.000703843 5.6358e-05 4.79647e-07
5.6358e-05 0.000156252 1.35441e-06
4.79647e-07 1.35441e-06 8.46202e-06
0.000373124 -2.3361e-05 -7.3132e-08
-2.3361e-05 -7.00898e-05 2.86978e-06
-7.3132e-08 2.86978e-06 -0.000176191
0.000951591 -3.48226e-05 1.96122e-07
-3.48226e-05 0.000335519 -1.31521e-06
1.96122e-07 -1.31521e-06 0.000182184
0.000312204 -2.77029e-05 -1.4394e-06
-2.77029e-05 -0.000103594 2.60153e-06
-1.4394e-06 2.60153e-06 -0.000213797
0.000507421 3.27272e-06 -1.7546e-06
3.27272e-06 3.76316e-06 2.73251e-06
-1.7546e-06 2.73251e-06 -6.56631e-05
0.000527893 3.01222e-05 2.02776e-06
3.01222e-05 1.42899e-05 -1.04785e-07
2.02776e-06 -1.04785e-07 -5.31845e-05
0.000454286 2.08896e-05 1.5092e-06
2.08896e-05 -5.79128e-05 4.02706e-06
1.5092e-06 4.02706e-06 -7.72823e-05
0.000517914 4.5085e-06 -2.72298e-06
4.5085e-06 6.86552e-06 -2.73773e-06
-2.72298e-06 -2.73773e-06 -5.74944e-05
0.000909847 1.19592e-05 -2.8587e-06
1.19592e-05 0.000215657 -1.65383e-06
-2.8587e-06 -1.65383e-06 0.000199095
0.00249798 -1.14642e-05 1.14799e-05
-1.14642e-05 0.00117987 5.27052e-06
1.14799e-05 5.27052e-06 0.00119395
0.0013701 1.29101e-06 -5.23687e-06
1.29101e-06 0.00049122 -5.88359e-06
-5.23687e-06 -5.88359e-06 0.000477796
0.000783834 -1.50273e-05 3.33183e-06
-1.50273e-05 0.000128851 3.3082e-06
3.33183e-06 3.3082e-06 0.000135554
0.000777388 -2.34092e-05 1.1765e-07
-2.34092e-05 0.000121575 -2.39145e-06
1.1765e-07 -2.39145e-06 0.000127618
0.000546078 1.71143e-05 -1.10554e-06
1.71143e-05 3.01133e-06 -1.5794e-06
-1.10554e-06 -1.5794e-06 -3.88236e-05
0.000584722 -8.40207e-06 1.04025e-06
-8.40207e-06 2.33974e-05 -2.30017e-07
1.04025e-06 -2.30017e-07 -1.96596e-05
0.000538449 2.23792e-05 3.90568e-07
2.23792e-05 -2.28693e-05 -3.41798e-06
3.90568e-07 -3.41798e-06 -3.34064e-05
0.000828503 3.61469e-05 -2.56524e-07
3.61469e-05 0.000159277 7.06515e-08
-2.56524e-07 7.06515e-08 0.000147925
0.00211261 6.16262e-05 1.27216e-05
6.16262e-05 0.000954537 -4.19949e-06
1.27216e-05 -4.19949e-06 0.000967207
0.000514584 4.64338e-05 2.15259e-06
4.64338e-05 -2.15476e-05 3.95461e-06
2.15259e-06 3.95461e-06 -4.10391e-05
0.0022514 8.19661e-05 -2.94254e-06
8.19661e-05 0.00104809 -2.26084e-07
-2.94254e-06 -2.26084e-07 0.00105628
0.00251433 0.000105997 -1.49442e-05
0.000105997 0.00121803 4.4723e-06
-1.49442e-05 4.4723e-06 0.00122012
0.00205223 0.000270587 -3.28584e-06
0.000270587 -1.56524e-06 -1.66364e-06
-3.28584e-06 -1.66364e-06 -2.86966e-05
0.0019977 8.73658e-05 -7.43131e-07
8.73658e-05 -6.82376e-06 2.2915e-07
-7.43131e-07 2.2915e-07 6.47375e-07
0.00190083 -2.95994e-06 -4.12599e-06
-2.95994e-06 1.22539e-05 -1.31603e-07
-4.12599e-06 -1.31603e-07 2.3934e-06
0.00198694 -5.26056e-06 1.45227e-07
-5.26056e-06 -1.77269e-05 -2.06894e-07
1.45227e-07 -2.06894e-07 1.71355e-07
0.00214319 0.000146942 -1.82336e-07
0.000146942 -5.66418e-06 2.81167e-07
-1.82336e-07 2.81167e-07 1.11847e-05
0.00205673 7.92427e-05 7.02599e-06
7.92427e-05 -3.18528e-05 -3.82774e-06
7.02599e-06 -3.82774e-06 2.35512e-05
0.00215625 -2.68928e-06 2.69328e-07
-2.68928e-06 -4.41522e-05 -8.80455e-07
2.69328e-07 -8.80455e-07 4.4443e-06
0.00373535 0.000494437 4.02892e-05
0.000494437 -0.000354723 7.06665e-06
4.02892e-05 7.06665e-06 7.92529e-05
0.00236872 5.56415e-05 -3.04083e-05
5.56415e-05 0.000317277 2.48932e-05
-3.04083e-05 2.48932e-05 0.000457921
0.000528067 9.38628e-05 -1.00848e-06
9.38628e-05 3.18596e-05 3.15417e-08
-1.00848e-06 3.15417e-08 -4.91957e-05
0.00200535 -0.000104123 -1.22835e-06
-0.000104123 -8.41435e-06 -4.3649e-08
-1.22835e-06 -4.3649e-08 5.99017e-06
0.00205061 -0.000257646 2.94464e-07
-0.000257646 4.14034e-06 1.67559e-07
2.94464e-07 1.67559e-07 1.30963e-05
0.00196419 -0.000356188 -1.30016e-06
-0.000356188 1.31062e-05 1.69783e-06
-1.30016e-06 1.69783e-06 -1.72547e-05
0.000592199 -0.000379957 -7.58105e-06
-0.000379957 -0.00016423 6.28513e-06
-7.58105e-06 6.28513e-06 -0.000496307
0.0023116 -0.00067986 3.47275e-06
-0.00067986 0.000718311 6.57553e-06
3.47275e-06 6.57553e-06 0.000291819
0.00168483 -0.000607095 -1.61868e-06
-0.000607095 0.000155922 -9.02693e-06
-1.61868e-06 -9.02693e-06 -0.000158831
0.00225133 -0.000548066 -4.1285e-06
-0.000548066 0.000234622 -1.21053e-06
-4.1285e-06 -1.21053e-06 9.64814e-05
0.00205675 -0.000434688 1.75748e-05
-0.000434688 0.000724672 -8.43877e-06
1.75748e-05 -8.43877e-06 0.000428087
0.000382797 -0.000195869 1.40818e-05
-0.000195869 -8.93765e-06 -3.3611e-06
1.40818e-05 -3.3611e-06 -0.000331499
0.00129073 -9.35678e-05 2.59345e-06
-9.35678e-05 0.000481336 -1.42925e-07
2.59345e-06 -1.42925e-07 0.000249938
0.000545483 6.53134e-06 -1.94926e-07
6.53134e-06 2.9167e-06 1.39376e-06
-1.94926e-07 1.39376e-06 -4.09091e-05
0.00087596 -2.12817e-05 2.96561e-06
-2.12817e-05 0.0002624 -2.02978e-07
2.96561e-06 -2.02978e-07 6.33835e-05
0.000830262 -2.3807e-05 3.62283e-06
-2.3807e-05 0.000232339 -2.13514e-06
3.62283e-06 -2.13514e-06 0.000134904
0.000870625 -3.39972e-05 2.30071e-06
-3.39972e-05 0.000269441 -2.98602e-06
2.30071e-06 -2.98602e-06 0.00010975
0.000288235 -3.61364e-05 -3.45918e-06
-3.61364e-05 -0.00014092 1.37117e-06
-3.45918e-06 1.37117e-06 -0.000213647
0.002065 -0.000135677 -3.3542e-07
-0.000135677 -8.58201e-05 1.04502e-07
-3.3542e-07 1.04502e-07 -4.70928e-05
0.000426507 3.38467e-05 -1.03972e-07
3.38467e-05 -2.87442e-05 -1.68154e-06
-1.03972e-07 -1.68154e-06 -0.000116146
0.000605888 -5.34219e-05 1.56745e-06
-5.34219e-05 7.23741e-05 7.08484e-07
1.56745e-06 7.08484e-07 -9.09535e-06
0.000813524 -8.99578e-05 1.30749e-06
-8.99578e-05 0.000189539 5.76181e-07
1.30749e-06 5.76181e-07 9.13879e-05
0.00205182 -0.00034004 1.49679e-06
-0.00034004 -9.94231e-05 -5.17759e-07
1.49679e-06 -5.17759e-07 -8.93873e-06
0.0021414 -0.000490263 4.71471e-07
-0.000490263 5.14027e-05 -7.52992e-07
4.71471e-07 -7.52992e-07 -5.30714e-06
0.000958122 -0.000398276 7.40509e-06
-0.000398276 8.15984e-05 -1.09312e-07
7.40509e-06 -1.09312e-07 -0.000255382
0.00236113 -0.000745271 8.75467e-06
-0.000745271 0.000695119 -4.1727e-07
8.75467e-06 -4.1727e-07 0.000257079
0.0021018 -0.000665147 -2.07489e-06
-0.000665147 0.000264701 1.68194e-06
-2.07489e-06 1.68194e-06 6.70497e-05
0.000289296 -2.72375e-05 -4.98779e-07
-2.72375e-05 -9.42649e-05 -9.46282e-07
-4.98779e-07 -9.46282e-07 -0.000221819
0.000860681 -8.58761e-05 -1.65532e-06
-8.58761e-05 0.000251787 9.38468e-07
-1.65532e-06 9.38468e-07 8.0214e-05
0.00116681 -0.000492291 -7.13822e-06
-0.000492291 0.000197502 8.58108e-07
-7.13822e-06 8.58108e-07 -0.000134857
0.000461563 -0.000132478 3.73368e-07
-0.000132478 0.000136735 -3.02485e-06
3.73368e-07 -3.02485e-06 -0.000292714
0.00072246 -6.04083e-05 4.07933e-07
-6.04083e-05 9.37132e-05 1.21576e-06
4.07933e-07 1.21576e-06 -9.12031e-05
0.00246966 -0.000261047 -1.579e-06
-0.000261047 0.000143511 3.19806e-07
-1.579e-06 3.19806e-07 0.000184806
0.00187417 -0.000366087 -1.39698e-05
-0.000366087 -0.000207584 4.35172e-06
-1.39698e-05 4.35172e-06 -7.12699e-05
0.00219678 -0.000636428 -9.78315e-06
-0.000636428 0.000149296 7.39805e-07
-9.78315e-06 7.39805e-07 -1.58167e-06
0.00314305 -0.00080851 -2.16894e-05
-0.00080851 0.000965133 -1.051e-06
-2.16894e-05 -1.051e-06 0.000696762
0.00105673 -0.000486568 -2.55282e-05
-0.000486568 0.000150675 -2.7142e-06
-2.55282e-05 -2.7142e-06 -0.000204131
0.000272803 -1.33614e-05 1.90666e-06
-1.33614e-05 -0.000119466 4.62659e-07
1.90666e-06 4.62659e-07 -0.000220795
0.00040525 1.25567e-05 9.14197e-07
1.25567e-05 -7.79162e-05 2.84701e-06
9.14197e-07 2.84701e-06 -0.000173742
-5.47297e-05 -2.26887e-05 -4.45076e-07
-2.26887e-05 -0.000319059 -2.99278e-06
-4.45076e-07 -2.99278e-06 -0.000421458
0.00189086 -0.000230125 -8.90773e-06
-0.000230125 0.000900644 1.33626e-05
-8.90773e-06 1.33626e-05 0.000736662
0.00085523 -8.58907e-05 -4.72771e-06
-8.58907e-05 0.000217327 1.32273e-05
-4.72771e-06 1.32273e-05 6.26615e-05
-0.000863985 -8.9212e-05 1.72669e-06
-8.9212e-05 -0.000456186 5.22316e-06
1.72669e-06 5.22316e-06 -0.000953927
-0.000471534 -0.000564284 -2.17945e-06
-0.000564284 -0.000398209 -7.91061e-06
-2.17945e-06 -7.91061e-06 -0.00095774
0.000971369 0.000141448 -4.08983e-07
0.000141448 0.000323939 -5.0901e-06
-4.08983e-07 -5.0901e-06 0.000168622
0.000464766 0.00012906 -3.66322e-06
0.00012906 -1.46747e-05 -2.57207e-06
-3.66322e-06 -2.57207e-06 -0.000215947
0.00230753 0.00027271 6.65536e-06
0.00027271 3.47195e-05 3.72347e-07
6.65536e-06 3.72347e-07 8.08018e-05
0.00233011 0.000468943 1.57199e-05
0.000468943 0.000235958 4.74589e-06
1.57199e-05 4.74589e-06 0.000132327
0.00221962 0.000589941 1.704e-05
0.000589941 0.000354849 4.68539e-06
1.704e-05 4.68539e-06 8.7694e-05
0.00118446 0.00035139 -3.37894e-07
0.00035139 0.000227165 3.33298e-07
-3.37894e-07 3.33298e-07 -4.15851e-05
0.00161487 0.0005179 2.99926e-06
0.0005179 0.000315444 3.03431e-06
2.99926e-06 3.03431e-06 -3.12603e-05
0.00162174 0.000192892 9.18037e-08
0.000192892 0.000696573 -2.71341e-07
9.18037e-08 -2.71341e-07 0.000525147
0.00246977 0.000310532 -9.92736e-07
0.000310532 0.000229426 1.16355e-06
-9.92736e-07 1.16355e-06 0.000289766
0.00136702 0.000337495 -1.69658e-06
0.000337495 0.000440565 2.34961e-06
-1.69658e-06 2.34961e-06 0.000195785
0.00155546 0.000453379 1.56481e-06
0.000453379 0.000388401 2.59947e-07
1.56481e-06 2.59947e-07 6.33209e-05
0.0021178 0.000593647 -1.56478e-06
0.000593647 0.000173086 -3.1138e-06
-1.56478e-06 -3.1138e-06 -8.16845e-07
0.00161422 0.000553015 -4.43844e-06
0.000553015 0.000262533 4.98278e-06
-4.43844e-06 4.98278e-06 -8.17634e-05
0.00277088 0.000696605 5.94382e-05
0.000696605 -0.00010641 5.19172e-06
5.94382e-05 5.19172e-06 -0.00033974
0.00130753 0.000267737 -6.08204e-06
0.000267737 0.000536652 1.16966e-06
-6.08204e-06 1.16966e-06 0.000334169
0.00387094 0.000582087 -8.15856e-05
0.000582087 0.0011599 -3.10894e-05
-8.15856e-05 -3.10894e-05 0.00108901
0.000944634 0.000337279 -3.24735e-06
0.000337279 7.04346e-05 -6.9494e-07
-3.24735e-06 -6.9494e-07 -0.000179191
-3.59452e-05 0.000317302 -3.06824e-06
0.000317302 -0.000530543 -1.1395e-05
-3.06824e-06 -1.1395e-05 -0.000840099
0.000646998 0.000559106 -3.17977e-05
0.000559106 -0.000436234 -6.50253e-06
-3.17977e-05 -6.50253e-06 -0.000630316
0.0125673 0.000398455 -0.000321143
0.000398455 0.00233004 -5.41543e-05
-0.000321143 -5.41543e-05 0.00152176
0.00560234 0.00117734 7.10154e-05
0.00117734 9.7785e-05 -6.55019e-05
7.10154e-05 -6.55019e-05 0.000292944
-0.000405092 0.000779587 1.1564e-06
0.000779587 -0.00108649 3.76585e-06
1.1564e-06 3.76585e-06 -0.00141565
-0.00312777 -0.00125883 0.000798362
-0.00125883 4.31239e-05 0.000160602
0.000798362 0.000160602 -0.00224737
0.0140155 -0.0048766 -2.07921e-05
-0.0048766 0.004122 4.6282e-05
-2.07921e-05 4.6282e-05 0.00428232
0.000204935 7.70604e-05 6.23982e-06
7.70604e-05 -0.000121105 1.32934e-06
6.23982e-06 1.32934e-06 -0.000209342
0.00101265 8.30203e-05 9.74248e-07
8.30203e-05 0.000345636 -1.94645e-06
9.74248e-07 -1.94645e-06 0.000264765
0.00167078 0.000190187 -1.2809e-06
0.000190187 0.000761673 -5.24189e-07
-1.2809e-06 -5.24189e-07 0.000651572
0.000558156 -6.10087e-05 -6.48151e-07
-6.10087e-05 6.83454e-05 -2.31492e-06
-6.48151e-07 -2.31492e-06 -4.58151e-05
0.000550277 6.21206e-05 -1.18962e-06
6.21206e-05 4.91312e-05 -1.92217e-06
-1.18962e-06 -1.92217e-06 -7.99167e-05
0.000692112 -1.71018e-05 -1.48376e-07
-1.71018e-05 0.000137589 -8.22072e-07
-1.48376e-07 -8.22072e-07 3.3128e-06
0.00070359 5.14713e-05 -3.85998e-06
5.14713e-05 0.000114155 6.34224e-06
-3.85998e-06 6.34224e-06 1.54235e-05
0.000509354 5.30836e-05 8.91925e-07
5.30836e-05 -1.15281e-05 6.08899e-06
8.91925e-07 6.08899e-06 -7.6772e-05
0.000741461 9.81894e-05 -2.05021e-06
9.81894e-05 0.000178063 -4.63408e-07
-2.05021e-06 -4.63408e-07 3.24746e-05
0.000467713 -7.49833e-06 3.04179e-07
-7.49833e-06 -4.44622e-06 8.95161e-07
3.04179e-07 8.95161e-07 -0.00011433
0.00065454 2.70551e-05 -2.46723e-07
2.70551e-05 0.000121848 4.75343e-09
-2.46723e-07 4.75343e-09 -2.11221e-05
0.000600972 6.60811e-05 1.58288e-07
6.60811e-05 5.04598e-05 -6.60485e-07
1.58288e-07 -6.60485e-07 -1.52953e-05
0.000759027 8.0563e-05 -1.27047e-06
8.0563e-05 0.000164521 -2.50854e-07
-1.27047e-06 -2.50854e-07 2.56982e-05
0.00104719 0.000125191 -1.73639e-06
0.000125191 0.000353996 -1.01362e-06
-1.73639e-06 -1.01362e-06 0.000202311
0.00035421 7.85955e-05 7.86543e-07
7.85955e-05 -4.79674e-05 -3.38974e-06
7.86543e-07 -3.38974e-06 -0.000185751
0.000790075 9.28562e-05 2.60726e-06
9.28562e-05 0.000198202 7.4195e-07
2.60726e-06 7.4195e-07 5.92921e-05
0.000558373 -3.11478e-05 1.62882e-06
-3.11478e-05 4.92575e-05 4.88443e-07
1.62882e-06 4.88443e-07 -8.99144e-05
0.000388385 -6.28526e-05 -1.38645e-06
-6.28526e-05 -5.54273e-05 2.48959e-06
-1.38645e-06 2.48959e-06 -0.000168637
0.000728959 -1.22645e-05 -7.44666e-07
-1.22645e-05 0.000165181 5.60721e-08
-7.44666e-07 5.60721e-08 2.39828e-05
0.000946563 2.90824e-05 -1.18192e-08
2.90824e-05 0.000298065 -6.17627e-06
-1.18192e-08 -6.17627e-06 0.000160476
0.000549468 -3.19947e-05 -4.82462e-07
-3.19947e-05 7.60439e-05 -2.98985e-07
-4.82462e-07 -2.98985e-07 -5.79013e-05
0.000781347 -3.58348e-05 1.48204e-06
-3.58348e-05 0.000208674 -6.45918e-07
1.48204e-06 -6.45918e-07 7.06224e-05
0.000661118 -0.000103561 -2.46921e-06
-0.000103561 0.000116218 1.70376e-06
-2.46921e-06 1.70376e-06 4.79735e-06
0.000368922 -1.83138e-05 1.51037e-07
-1.83138e-05 -6.62489e-05 1.04029e-06
1.51037e-07 1.04029e-06 -0.00017912
0.000540079 -3.76565e-05 -2.06956e-06
-3.76565e-05 1.54297e-05 2.95854e-06
-2.06956e-06 2.95854e-06 -5.00178e-05
0.000540655 -2.85826e-05 1.53313e-06
-2.85826e-05 2.1574e-05 5.37948e-08
1.53313e-06 5.37948e-08 -4.6847e-05
0.000514292 5.10628e-06 1.28515e-06
5.10628e-06 -2.02833e-05 5.89731e-06
1.28515e-06 5.89731e-06 -4.01614e-05
0.000554967 3.49862e-05 -1.47919e-06
3.49862e-05 2.637e-05 -2.7954e-06
-1.47919e-06 -2.7954e-06 -3.83507e-05
0.000477502 1.64848e-05 4.07072e-07
1.64848e-05 -4.36998e-05 4.60542e-08
4.07072e-07 4.60542e-08 -6.31186e-05
0.00244325 -4.03764e-07 -4.65487e-08
-4.03764e-07 0.00114766 5.27501e-06
-4.65487e-08 5.27501e-06 0.00116174
0.000537464 1.80154e-05 -1.97913e-06
1.80154e-05 -1.10638e-05 -6.20973e-06
-1.97913e-06 -6.20973e-06 -3.05053e-05
0.00165638 -8.98577e-06 -4.37767e-07
-8.98577e-06 0.000664496 1.00946e-07
-4.37767e-07 1.00946e-07 0.000674356
0.000781156 -1.38991e-05 4.41647e-07
-1.38991e-05 0.000124254 -2.22375e-06
4.41647e-07 -2.22375e-06 0.000131219
0.000538656 -1.25317e-05 7.40229e-07
-1.25317e-05 -1.73612e-07 -1.22753e-06
7.40229e-07 -1.22753e-06 -3.93814e-05
0.000586439 -3.0532e-05 3.25863e-07
-3.0532e-05 2.89427e-05 -4.85018e-08
3.25863e-07 -4.85018e-08 -1.43966e-05
0.000552638 1.36095e-05 7.52945e-07
1.36095e-05 -1.63642e-05 -3.06469e-06
7.52945e-07 -3.06469e-06 -2.49117e-05
0.000546474 -2.5576e-05 -1.73112e-06
-2.5576e-05 -1.07643e-06 1.37002e-06
-1.73112e-06 1.37002e-06 -4.37597e-05
0.000816401 2.65364e-05 -4.96489e-08
2.65364e-05 0.000147485 -7.40604e-07
-4.96489e-08 -7.40604e-07 0.000138992
0.00201274 4.57868e-05 9.14835e-06
4.57868e-05 0.00088841 -4.31225e-06
9.14835e-06 -4.31225e-06 0.000903893
0.000521254 3.18982e-05 -3.19362e-07
3.18982e-05 -2.79607e-05 3.39632e-06
-3.19362e-07 3.39632e-06 -4.15501e-05
0.00215001 6.41881e-05 -6.71189e-06
6.41881e-05 0.000979906 1.1178e-06
-6.71189e-06 1.1178e-06 0.00099189
0.00230063 8.59041e-05 -1.15946e-05
8.59041e-05 0.00107932 4.29616e-06
-1.15946e-05 4.29616e-06 0.00108659
0.00211616 0.000149914 -2.92876e-06
0.000149914 -5.14192e-06 -1.10171e-06
-2.92876e-06 -1.10171e-06 1.06328e-05
0.00198294 -4.07598e-06 -5.74775e-07
-4.07598e-06 -1.79584e-05 8.64515e-08
-5.74775e-07 8.64515e-08 -6.73152e-07
0.00179323 6.00265e-05 4.07823e-06
6.00265e-05 -0.000212482 1.5078e-06
4.07823e-06 1.5078e-06 -0.000161806
0.00236389 0.000354987 5.80028e-05
0.000354987 -0.000881122 1.29892e-05
5.80028e-05 1.29892e-05 -0.000548848
0.00212184 -2.21578e-05 -1.80674e-06
-2.21578e-05 -4.86583e-05 -1.67377e-06
-1.80674e-06 -1.67377e-06 5.88237e-07
0.00201986 6.10175e-05 2.5044e-06
6.10175e-05 0.000121082 -6.69644e-06
2.5044e-06 -6.69644e-06 0.000225439
0.00313388 -2.63559e-05 -2.84951e-05
-2.63559e-05 0.000857546 3.79827e-06
-2.84951e-05 3.79827e-06 0.000847512
0.00232657 -1.81706e-05 1.11529e-05
-1.81706e-05 -0.00172132 -3.04503e-05
1.11529e-05 -3.04503e-05 -0.00115174
0.0025233 0.000139103 6.97069e-05
0.000139103 -0.000416965 4.22065e-05
6.97069e-05 4.22065e-05 -8.32351e-05
0.00058991 7.74974e-05 3.23045e-07
7.74974e-05 7.17203e-05 -2.22924e-07
3.23045e-07 -2.22924e-07 -1.1494e-05
0.000603047 -7.25811e-06 4.83725e-07
-7.25811e-06 8.40363e-05 -1.57077e-07
4.83725e-07 -1.57077e-07 -3.04387e-06
0.000526625 -9.93499e-05 -1.97525e-06
-9.93499e-05 4.11504e-05 1.29803e-06
-1.97525e-06 1.29803e-06 -6.06131e-05
0.0005204 -4.60301e-05 -1.52863e-06
-4.60301e-05 5.75743e-05 9.91042e-07
-1.52863e-06 9.91042e-07 -5.17735e-05
0.0021154 -0.000150711 -4.65155e-06
-0.000150711 -7.8388e-05 8.13447e-08
-4.65155e-06 8.13447e-08 -2.37941e-05
0.00208156 -0.000340975 4.95129e-07
-0.000340975 -5.71589e-05 -8.5672e-07
4.95129e-07 -8.5672e-07 9.43266e-06
0.00215608 -0.000489392 -2.73306e-06
-0.000489392 6.47106e-05 1.41542e-06
-2.73306e-06 1.41542e-06 8.85028e-06
0.0026965 -0.000589419 1.18737e-05
-0.000589419 0.00106684 2.03724e-06
1.18737e-05 2.03724e-06 0.00070561
0.000884321 -0.000599715 1.02453e-05
-0.000599715 -0.000117683 -2.84005e-06
1.02453e-05 -2.84005e-06 -0.000528091
0.00242503 -0.000685831 5.50077e-06
-0.000685831 0.000464642 -3.12011e-06
5.50077e-06 -3.12011e-06 0.000254668
0.00162252 -0.000538852 -3.30287e-06
-0.000538852 0.000466622 2.19989e-06
-3.30287e-06 2.19989e-06 9.52642e-05
0.00243848 -0.000160597 2.15503e-06
-0.000160597 0.00116042 1.29539e-06
2.15503e-06 1.29539e-06 0.000842282
-1.11791e-05 -4.30902e-05 2.5216e-07
-4.30902e-05 -0.000359723 -7.5887e-07
2.5216e-07 -7.5887e-07 -0.00052711
0.000666738 -4.99266e-05 7.13374e-08
-4.99266e-05 0.000113193 9.83705e-07
7.13374e-08 9.83705e-07 3.17242e-05
0.000697 -0.000108322 1.82342e-06
-0.000108322 0.00016752 -6.3272e-06
1.82342e-06 -6.3272e-06 -1.28382e-05
0.00079427 2.53928e-06 1.98685e-06
2.53928e-06 0.000222372 -4.25144e-06
1.98685e-06 -4.25144e-06 8.85266e-05
0.000628407 2.98951e-06 3.3033e-08
2.98951e-06 0.000103859 5.19784e-09
3.3033e-08 5.19784e-09 1.15355e-05
0.000533965 -2.68584e-05 -6.40828e-06
-2.68584e-05 1.31421e-05 3.38861e-06
-6.40828e-06 3.38861e-06 -7.68678e-05
0.00242812 -0.000243813 1.57371e-06
-0.000243813 0.00012595 1.05506e-06
1.57371e-06 1.05506e-06 0.000183722
0.000594339 -2.28316e-05 6.40517e-07
-2.28316e-05 9.05081e-05 3.0474e-07
6.40517e-07 3.0474e-07 -2.30511e-05
0.000790077 -1.43952e-05 4.00102e-06
-1.43952e-05 0.000173704 -7.21397e-07
4.00102e-06 -7.21397e-07 6.62061e-05
4.06527e-05 2.46308e-06 9.66281e-07
2.46308e-06 -0.000257105 1.00958e-06
9.66281e-07 1.00958e-06 -0.000337777
0.00182804 -0.000369404 -9.38904e-08
-0.000369404 -0.000262267 -1.36556e-06
-9.38904e-08 -1.36556e-06 -0.000130684
0.00208655 -0.000621768 1.96061e-06
-0.000621768 9.74895e-05 -9.97373e-07
1.96061e-06 -9.97373e-07 -4.45736e-05
0.00172969 -0.000592419 -1.41782e-06
-0.000592419 0.00051736 1.18288e-07
-1.41782e-06 1.18288e-07 0.000147907
0.00221909 -0.000733944 -6.05755e-06
-0.000733944 0.000460457 1.49894e-06
-6.05755e-06 1.49894e-06 0.000198989
0.00119766 -9.56136e-05 -1.04526e-06
-9.56136e-05 0.000449063 1.22123e-06
-1.04526e-06 1.22123e-06 0.000302518
0.000448476 -6.40451e-05 2.3178e-06
-6.40451e-05 -3.5518e-05 8.8603e-07
2.3178e-06 8.8603e-07 -0.000192815
0.00142993 -0.000701426 4.3066e-06
-0.000701426 0.000668754 -1.01764e-06
4.3066e-06 -1.01764e-06 9.40178e-05
0.00118239 -0.000263666 -1.74474e-06
-0.000263666 0.000528913 -5.9296e-07
-1.74474e-06 -5.9296e-07 0.000134778
0.00271788 -0.000324802 -2.63963e-05
-0.000324802 0.000179591 6.75012e-07
-2.63963e-05 6.75012e-07 0.000370222
0.00241976 -0.000509056 -3.65606e-05
-0.000509056 0.000193666 1.02375e-05
-3.65606e-05 1.02375e-05 0.000228046
0.00244373 -0.000755698 -7.48382e-06
-0.000755698 0.000420498 -2.16515e-06
-7.48382e-06 -2.16515e-06 0.00017432
0.00202437 -0.000663516 -1.38855e-05
-0.000663516 0.000535689 -3.78235e-07
-1.38855e-05 -3.78235e-07 0.000284574
0.000396332 -3.78547e-05 -5.25678e-07
-3.78547e-05 -6.10447e-06 -2.62831e-06
-5.25678e-07 -2.62831e-06 -0.000129552
0.000254151 -7.76201e-05 -2.78483e-06
-7.76201e-05 -0.000117828 -8.86316e-06
-2.78483e-06 -8.86316e-06 -0.000259437
0.000172241 -0.000142615 -4.67339e-06
-0.000142615 6.10274e-06 2.16073e-05
-4.67339e-06 2.16073e-05 -0.000234941
-0.000652444 -0.000402421 -5.31308e-06
-0.000402421 -0.000116859 -1.90753e-05
-5.31308e-06 -1.90753e-05 -0.000848003
0.00158728 -0.000493089 3.47784e-05
-0.000493089 -0.00404996 1.02914e-06
3.47784e-05 1.02914e-06 -0.0041588
0.00182077 0.000180876 9.46779e-08
0.000180876 0.000800578 -4.30404e-06
9.46779e-08 -4.30404e-06 0.000636584
0.000771065 0.000262662 4.12854e-07
0.000262662 8.07053e-05 1.2929e-06
4.12854e-07 1.2929e-06 -0.000151687
0.00211559 0.000273766 6.24129e-05
0.000273766 4.28525e-05 1.54629e-05
6.24129e-05 1.54629e-05 0.000114061
0.00200355 0.000577783 2.42679e-05
0.000577783 0.000105167 8.4723e-06
2.42679e-05 8.4723e-06 -5.20618e-05
0.00208928 0.000603425 1.25473e-05
0.000603425 0.000546183 1.13732e-05
1.25473e-05 1.13732e-05 0.000187557
0.00142835 0.000443973 7.1834e-06
0.000443973 0.000335448 6.35282e-06
7.1834e-06 6.35282e-06 3.04185e-06
0.00378959 0.000834768 9.87435e-05
0.000834768 0.000104263 4.00551e-05
9.87435e-05 4.00551e-05 -0.000263092
0.00130021 0.000237494 4.79339e-06
0.000237494 0.000525873 5.64317e-07
4.79339e-06 5.64317e-07 0.000332244
0.00254373 0.000497216 -8.7556e-06
0.000497216 0.000398479 -2.35691e-07
-8.7556e-06 -2.35691e-07 0.000361807
0.00108177 0.00035192 -1.05323e-06
0.00035192 0.000178889 1.60305e-06
-1.05323e-06 1.60305e-06 -7.64181e-05
0.00130253 0.000476354 1.46045e-06
0.000476354 0.000228389 -4.0033e-06
1.46045e-06 -4.0033e-06 -0.000107497
0.00147653 0.000624358 -7.5638e-06
0.000624358 -2.43559e-06 -2.90635e-07
-7.5638e-06 -2.90635e-07 -0.000213086
0.00344735 -0.000478758 -0.000153855
-0.000478758 -0.00351587 -4.82751e-05
-0.000153855 -4.82751e-05 -0.00455512
0.00690394 0.00107826 -5.71516e-05
0.00107826 0.000579387 -6.02566e-05
-5.71516e-05 -6.02566e-05 0.000525756
0.00111042 0.000789934 -9.36344e-06
0.000789934 -0.000202252 7.27832e-06
-9.36344e-06 7.27832e-06 -0.000594056
-0.0012696 -0.00103732 0.000311229
-0.00103732 0.00184924 0.000133393
0.000311229 0.000133393 -0.000370138
0.00566366 -0.00484045 -0.000270917
-0.00484045 0.0017299 -0.00026615
-0.000270917 -0.00026615 0.00193616
0.00148495 0.000269579 -1.1303e-05
0.000269579 0.000594133 -7.48309e-08
-1.1303e-05 -7.48309e-08 0.000408672
0.000493601 0.00051261 0.000418324
0.00051261 0.00286631 3.46555e-05
0.000418324 3.46555e-05 0.001305
0.00142518 -0.0014577 -0.000155889
-0.0014577 0.00376915 -0.000212432
-0.000155889 -0.000212432 0.000414154
0.00265903 0.000785093 -4.27067e-05
0.000785093 0.000473627 -9.16475e-06
-4.27067e-05 -9.16475e-06 0.000410945
0.000721469 0.000226519 -1.98766e-05
0.000226519 -1.85666e-05 -6.64224e-06
-1.98766e-05 -6.64224e-06 -0.000238624
0.000444375 0.000482912 -3.09402e-05
0.000482912 -0.000202733 -2.17568e-05
-3.09402e-05 -2.17568e-05 -0.000498236
0.000189685 0.000786732 3.65832e-05
0.000786732 -0.000695134 8.40304e-05
3.65832e-05 8.40304e-05 -0.00094156
0.012624 0.00148393 7.43534e-06
0.00148393 0.00260243 -5.29862e-05
7.43534e-06 -5.29862e-05 0.00109391
0.00242104 0.00144936 3.28427e-07
0.00144936 2.26971e-05 -1.82471e-05
3.28427e-07 -1.82471e-05 -0.000714692
0.00711986 -0.00422842 0.000646062
-0.00422842 0.00137674 0.000397753
0.000646062 0.000397753 0.000348698
0.00910962 -0.0020418 -4.88228e-05
-0.0020418 0.00102792 0.000402266
-4.88228e-05 0.000402266 0.000834788
0.000524853 6.7419e-05 5.50987e-06
6.7419e-05 7.94783e-05 -2.08667e-06
5.50987e-06 -2.08667e-06 -1.18631e-06
0.000537839 0.000116492 6.81234e-06
0.000116492 8.69302e-05 4.49403e-07
6.81234e-06 4.49403e-07 -1.6797e-05
0.00158022 0.000223294 1.43829e-06
0.000223294 0.000721726 -3.01766e-06
1.43829e-06 -3.01766e-06 0.000575939
0.000601187 9.32209e-06 8.40399e-07
9.32209e-06 9.79502e-05 -6.49068e-07
8.40399e-07 -6.49068e-07 -2.49514e-05
0.000709772 4.96301e-05 -9.37337e-07
4.96301e-05 0.000153629 -1.67993e-06
-9.37337e-07 -1.67993e-06 1.35939e-05
0.000362608 1.02572e-05 -1.56404e-06
1.02572e-05 -6.55424e-05 2.04745e-07
-1.56404e-06 2.04745e-07 -0.000196569
0.000632265 8.12758e-05 -5.38066e-06
8.12758e-05 9.52069e-05 1.1077e-06
-5.38066e-06 1.1077e-06 -4.12767e-05
-2.66532e-05 5.13253e-05 -3.26465e-06
5.13253e-05 -0.000336696 6.14424e-07
-3.26465e-06 6.14424e-07 -0.000402842
0.00039519 -9.36876e-06 1.78275e-07
-9.36876e-06 -4.53619e-05 8.95047e-07
1.78275e-07 8.95047e-07 -0.000161896
0.000913821 7.38689e-05 1.39363e-06
7.38689e-05 0.000273959 2.04569e-07
1.39363e-06 2.04569e-07 0.000127115
0.000717429 4.22775e-05 6.61917e-07
4.22775e-05 0.000160594 3.69372e-07
6.61917e-07 3.69372e-07 1.74578e-05
0.000701214 2.02841e-05 1.08227e-06
2.02841e-05 0.00015265 -4.30543e-07
1.08227e-06 -4.30543e-07 2.21823e-06
0.000544006 8.69667e-05 -3.1829e-07
8.69667e-05 6.81953e-05 -1.64597e-06
-3.1829e-07 -1.64597e-06 -6.74068e-05
0.00112745 9.26626e-05 -1.70811e-06
9.26626e-05 0.000419926 -2.24498e-06
-1.70811e-06 -2.24498e-06 0.00027332
-0.000167625 3.25574e-05 -3.5212e-06
3.25574e-05 -0.000308315 -4.23862e-06
-3.5212e-06 -4.23862e-06 -0.000452556
0.000771516 -9.00184e-05 -1.82923e-07
-9.00184e-05 0.000187216 -1.52687e-07
-1.82923e-07 -1.52687e-07 4.16372e-05
0.000764629 -6.83035e-05 -5.79463e-07
-6.83035e-05 0.000200774 -8.17985e-08
-5.79463e-07 -8.17985e-08 4.8619e-05
0.000756781 -3.48416e-05 -2.0302e-07
-3.48416e-05 0.000194275 -3.19485e-07
-2.0302e-07 -3.19485e-07 4.39496e-05
0.000804482 -6.6604e-06 -2.02811e-06
-6.6604e-06 0.000201094 -1.85671e-07
-2.02811e-06 -1.85671e-07 7.40935e-05
0.000749312 2.71169e-05 -4.2269e-06
2.71169e-05 0.000198755 -3.20373e-06
-4.2269e-06 -3.20373e-06 3.5802e-05
0.000693242 -6.05581e-06 2.08189e-06
-6.05581e-06 0.000146633 -4.50214e-06
2.08189e-06 -4.50214e-06 1.90232e-05
-0.000197517 -2.65508e-05 -7.63237e-07
-2.65508e-05 -0.000407199 -4.51381e-06
-7.63237e-07 -4.51381e-06 -0.000514435
0.000582801 -2.68041e-05 1.35846e-06
-2.68041e-05 5.17401e-05 -5.70341e-07
1.35846e-06 -5.70341e-07 -7.51493e-05
0.000491281 -6.58699e-05 1.83433e-06
-6.58699e-05 1.43963e-05 9.11504e-07
1.83433e-06 9.11504e-07 -0.000105683
0.000681239 -6.62142e-05 -8.31833e-07
-6.62142e-05 0.000149972 -2.4732e-07
-8.31833e-07 -2.4732e-07 1.71723e-05
0.000583501 -6.90294e-05 -1.97635e-06
-6.90294e-05 5.40467e-05 1.36233e-06
-1.97635e-06 1.36233e-06 -4.4216e-05
0.000555135 -5.35077e-05 2.06349e-06
-5.35077e-05 4.73732e-05 1.79251e-07
2.06349e-06 1.79251e-07 -7.51695e-05
0.000549455 -9.40009e-05 1.09752e-07
-9.40009e-05 4.53071e-05 2.34226e-07
1.09752e-07 2.34226e-07 -6.50799e-05
0.00058106 -3.69989e-05 -2.34114e-06
-3.69989e-05 3.83706e-05 3.26794e-06
-2.34114e-06 3.26794e-06 -2.79519e-05
0.000440815 -6.44447e-06 1.37906e-06
-6.44447e-06 -1.04883e-05 -7.91551e-07
1.37906e-06 -7.91551e-07 -0.000132418
0.000538041 9.43158e-07 1.69187e-06
9.43158e-07 2.06044e-05 3.71808e-08
1.69187e-06 3.71808e-08 -4.83712e-05
0.00141434 -5.29283e-06 -4.89528e-06
-5.29283e-06 0.000524672 5.98912e-06
-4.89528e-06 5.98912e-06 0.000508941
0.000537398 5.03884e-05 -1.03423e-06
5.03884e-05 2.00185e-05 -2.80837e-06
-1.03423e-06 -2.80837e-06 -4.82277e-05
0.000910785 -4.76462e-06 -2.58517e-06
-4.76462e-06 0.000221346 7.6499e-07
-2.58517e-06 7.6499e-07 0.000203747
0.00079068 2.77229e-06 -4.00143e-06
2.77229e-06 0.000139494 4.87358e-06
-4.00143e-06 4.87358e-06 0.000145619
0.000477574 -3.95686e-06 1.46859e-06
-3.95686e-06 -4.34078e-05 -4.2307e-06
1.46859e-06 -4.2307e-06 -6.28215e-05
0.00245661 8.29521e-07 5.23555e-06
8.29521e-07 0.0011559 -1.15167e-08
5.23555e-06 -1.15167e-08 0.00116997
0.000864418 -1.3745e-06 -4.94839e-06
-1.3745e-06 0.000181452 -5.11669e-06
-4.94839e-06 -5.11669e-06 0.000187376
0.000539877 6.36069e-05 2.49804e-06
6.36069e-05 4.61668e-05 4.80628e-07
2.49804e-06 4.80628e-07 -4.37306e-05
0.000518942 3.96545e-05 -1.75877e-06
3.96545e-05 -4.33681e-06 -1.7576e-06
-1.75877e-06 -1.7576e-06 -4.66067e-05
0.000537109 -6.23132e-06 1.22924e-06
-6.23132e-06 4.59151e-06 2.64191e-08
1.22924e-06 2.64191e-08 -3.83417e-05
0.000544189 8.38812e-06 7.14017e-07
8.38812e-06 -2.13913e-05 -2.98102e-06
7.14017e-07 -2.98102e-06 -2.92679e-05
0.000580747 -4.61889e-05 -1.72547e-06
-4.61889e-05 2.85801e-05 1.55271e-06
-1.72547e-06 1.55271e-06 -1.7159e-05
0.000519608 1.38487e-05 4.81486e-08
1.38487e-05 -3.72224e-05 -7.57283e-07
4.81486e-08 -7.57283e-07 -4.54451e-05
0.00199659 3.11965e-05 6.23775e-06
3.11965e-05 0.000874785 -4.46541e-06
6.23775e-06 -4.46541e-06 0.000892005
0.0011125 3.3704e-05 -6.06886e-07
3.3704e-05 0.000329689 1.8197e-06
-6.06886e-07 1.8197e-06 0.000322464
0.00146278 3.9581e-05 -5.5647e-08
3.9581e-05 0.000551347 1.39207e-06
-5.5647e-08 1.39207e-06 0.000562623
0.000880988 4.30523e-05 -1.13775e-05
4.30523e-05 0.000199879 7.2744e-06
-1.13775e-05 7.2744e-06 0.000205014
0.00116705 0.000237452 8.56576e-05
0.000237452 -0.00138568 1.54906e-05
8.56576e-05 1.54906e-05 -0.00109045
0.00207943 -3.75082e-05 -3.51851e-07
-3.75082e-05 -5.0091e-05 2.84816e-06
-3.51851e-07 2.84816e-06 -6.60918e-06
0.00197535 7.24129e-05 3.71144e-05
7.24129e-05 0.00011299 -1.44146e-05
3.71144e-05 -1.44146e-05 0.000208366
0.00194717 0.000218888 -3.43385e-05
0.000218888 -0.00145396 -2.41617e-05
-3.43385e-05 -2.41617e-05 -0.000671825
0.00194346 8.71094e-05 2.72005e-05
8.71094e-05 -0.000568317 -1.39588e-06
2.72005e-05 -1.39588e-06 -0.000309965
0.00241001 -3.11706e-05 2.29179e-06
-3.11706e-05 0.000359933 -5.90819e-06
2.29179e-06 -5.90819e-06 0.000363759
0.00382982 -0.000174009 -5.05766e-05
-0.000174009 0.000898082 -8.40489e-06
-5.05766e-05 -8.40489e-06 0.000872047
0.00271304 -9.18725e-05 3.70968e-05
-9.18725e-05 9.10767e-05 1.97353e-05
3.70968e-05 1.97353e-05 0.000154977
0.0123515 -0.000669995 6.78803e-06
-0.000669995 0.0025353 3.67388e-05
6.78803e-06 3.67388e-05 0.00101873
0.0129381 0.00323574 0.000796217
0.00323574 0.00529893 -0.000330744
0.000796217 -0.000330744 0.0041891
0.0101384 0.00367986 -2.05516e-05
0.00367986 0.00712009 9.54865e-06
-2.05516e-05 9.54865e-06 0.00631429
0.000348572 -9.48802e-05 1.32168e-06
-9.48802e-05 -6.05341e-05 -3.65417e-07
1.32168e-06 -3.65417e-07 -0.000161897
0.000595657 -1.11643e-05 1.28685e-06
-1.11643e-05 7.74433e-05 -1.44546e-07
1.28685e-06 -1.44546e-07 -7.51433e-06
0.000674426 -8.64329e-05 -1.45603e-06
-8.64329e-05 0.000135017 1.2762e-06
-1.45603e-06 1.2762e-06 4.09567e-05
0.000589269 -4.59879e-05 3.81597e-08
-4.59879e-05 7.94919e-05 4.18816e-07
3.81597e-08 4.18816e-07 -2.37076e-05
0.000628434 6.39309e-05 -2.13874e-06
6.39309e-05 0.000128073 2.07544e-06
-2.13874e-06 2.07544e-06 7.39011e-06
0.000457412 0.000115432 1.92472e-06
0.000115432 -1.41574e-05 5.42515e-06
1.92472e-06 5.42515e-06 -0.000126124
0.000929858 -1.70975e-05 3.5327e-06
-1.70975e-05 0.000305276 1.6005e-06
3.5327e-06 1.6005e-06 0.000184152
0.000513054 -2.44726e-05 -1.44831e-06
-2.44726e-05 3.64809e-05 1.13573e-06
-1.44831e-06 1.13573e-06 -6.7151e-05
0.00236475 -0.000230537 4.84323e-06
-0.000230537 8.38278e-05 -4.18562e-08
4.84323e-06 -4.18562e-08 0.000164282
0.00183021 -0.000384381 1.1692e-05
-0.000384381 -0.000299883 -4.62726e-06
1.1692e-05 -4.62726e-06 -0.000176408
0.00192148 -0.000604068 5.42519e-06
-0.000604068 1.23862e-05 1.05305e-06
5.42519e-06 1.05305e-06 -0.000122473
0.00162476 -0.000582472 2.17067e-05
-0.000582472 0.000445601 2.32563e-07
2.17067e-05 2.32563e-07 8.02885e-05
0.00187884 -0.000716891 3.51739e-06
-0.000716891 0.000273122 5.51037e-06
3.51739e-06 5.51037e-06 1.3002e-05
0.00320952 -0.000822902 1.49742e-05
-0.000822902 0.00165848 2.18942e-06
1.49742e-05 2.18942e-06 0.00106544
0.00291941 -0.000418814 2.60614e-06
-0.000418814 0.00138881 -3.15193e-06
2.60614e-06 -3.15193e-06 0.00106011
0.000570862 -0.000136489 8.37015e-06
-0.000136489 5.74489e-05 -1.21539e-05
8.37015e-06 -1.21539e-05 -0.00012762
0.000564156 -4.64715e-05 -7.3633e-07
-4.64715e-05 3.73028e-05 3.96394e-06
-7.3633e-07 3.96394e-06 -6.20175e-05
0.000689626 -8.00037e-05 5.60077e-06
-8.00037e-05 0.000118817 -1.6259e-05
5.60077e-06 -1.6259e-05 -1.2846e-05
0.000941052 -3.01348e-05 2.00453e-06
-3.01348e-05 0.000303505 -1.92126e-07
2.00453e-06 -1.92126e-07 0.000185022
0.000591003 5.44635e-05 1.8428e-06
5.44635e-05 8.18303e-05 1.81564e-06
1.8428e-06 1.81564e-06 1.60574e-05
0.00213933 -0.000301055 -1.45055e-06
-0.000301055 -7.31565e-05 2.94962e-06
-1.45055e-06 2.94962e-06 0.000102435
0.000564704 -1.06824e-05 -1.91911e-06
-1.06824e-05 9.55284e-05 -9.209e-07
-1.91911e-06 -9.209e-07 -2.91331e-05
0.000939683 -0.000133204 -4.64748e-06
-0.000133204 0.000290381 4.9404e-06
-4.64748e-06 4.9404e-06 0.000159246
0.00172499 -0.000480249 4.27931e-06
-0.000480249 -0.000196356 -1.8083e-06
4.27931e-06 -1.8083e-06 -0.000148072
0.00166042 -0.000668709 5.45311e-07
-0.000668709 -7.75805e-06 -7.88509e-07
5.45311e-07 -7.88509e-07 -0.00020712
0.000897134 -0.0005545 -5.65458e-07
-0.0005545 -9.02472e-05 -1.32249e-06
-5.65458e-07 -1.32249e-06 -0.000333137
0.00135324 -0.000228553 7.56088e-07
-0.000228553 0.000650198 -1.08108e-05
7.56088e-07 -1.08108e-05 0.000386135
0.00131905 -0.000454451 -2.32394e-06
-0.000454451 0.000898847 2.43888e-06
-2.32394e-06 2.43888e-06 0.000265592
0.00329997 -0.000481857 -3.75205e-05
-0.000481857 0.000470724 7.92966e-06
-3.75205e-05 7.92966e-06 0.000574781
0.003377 -0.000721483 -4.39089e-05
-0.000721483 0.00089396 1.30533e-05
-4.39089e-05 1.30533e-05 0.000806988
0.00214816 -0.00077604 -9.03044e-06
-0.00077604 0.000341002 9.86416e-07
-9.03044e-06 9.86416e-07 0.000135423
-1.12253e-05 -0.000380351 -1.60026e-05
-0.000380351 -0.000372707 1.43187e-05
-1.60026e-05 1.43187e-05 -0.000566933
0.000590141 -0.000142803 1.95557e-06
-0.000142803 0.000120019 4.5153e-06
1.95557e-06 4.5153e-06 -4.47922e-05
0.000521183 -0.000137935 3.80384e-06
-0.000137935 0.000120615 1.13125e-06
3.80384e-06 1.13125e-06 -6.78914e-05
0.00144875 -0.000161601 -2.01673e-06
-0.000161601 0.000942103 -9.62433e-06
-2.01673e-06 -9.62433e-06 0.000441993
-0.00612419 -0.000201792 0.000361487
-0.000201792 -0.0045542 1.52178e-06
0.000361487 1.52178e-06 -0.00326449
0.0107518 -0.000207942 3.41346e-05
-0.000207942 0.00223229 2.8981e-06
3.41346e-05 2.8981e-06 0.00178093
0.00148936 0.000201947 7.72261e-06
0.000201947 0.000612484 -6.13462e-06
7.72261e-06 -6.13462e-06 0.000440205
0.00127609 0.000372003 -1.16022e-06
0.000372003 0.000324483 2.51191e-06
-1.16022e-06 2.51191e-06 6.15491e-05
0.00141431 0.000395007 6.28956e-05
0.000395007 -0.000224058 2.9809e-05
6.28956e-05 2.9809e-05 -0.00022789
0.00270678 0.000729733 2.39774e-05
0.000729733 0.000643018 7.22003e-06
2.39774e-05 7.22003e-06 0.000408877
0.00267501 0.00063756 1.65213e-05
0.00063756 0.000997981 4.71521e-06
1.65213e-05 4.71521e-06 0.000638128
0.0130227 0.000702305 6.96447e-05
0.000702305 0.00306761 1.21789e-05
6.96447e-05 1.21789e-05 0.00199525
0.00798005 0.00148805 -0.00018763
0.00148805 0.000383312 1.32327e-05
-0.00018763 1.32327e-05 0.000398614
0.00213111 0.000799757 4.57573e-06
0.000799757 0.000424223 -2.58786e-05
4.57573e-06 -2.58786e-05 -4.65021e-05
0.0113744 -0.00248169 -0.000261699
-0.00248169 0.00494138 -9.56188e-06
-0.000261699 -9.56188e-06 0.00347255
-0.00401034 -0.00492665 -0.00138863
-0.00492665 -0.000859218 -0.000990817
-0.00138863 -0.000990817 -0.000966964
0.000990958 0.000255469 3.0966e-07
0.000255469 0.000331815 2.67279e-07
3.0966e-07 2.67279e-07 0.000135659
-0.00246951 -0.00142038 0.000260771
-0.00142038 -0.00265498 4.58518e-05
0.000260771 4.58518e-05 -0.00349728
-0.00338667 -0.00105272 -0.000283592
-0.00105272 0.00300729 -0.000138696
-0.000283592 -0.000138696 -0.000682425
0.00304375 0.000733127 -1.60061e-05
0.000733127 0.000670003 -7.78633e-07
-1.60061e-05 -7.78633e-07 0.00062673
0.000997361 0.000318412 -5.33013e-06
0.000318412 0.000171541 3.47754e-06
-5.33013e-06 3.47754e-06 -8.22767e-05
0.00157263 0.00062309 5.13697e-06
0.00062309 0.000406521 2.32135e-06
5.13697e-06 2.32135e-06 8.10671e-05
0.0013896 0.000738293 3.07022e-05
0.000738293 0.000111722 2.08043e-05
3.07022e-05 2.08043e-05 -1.74444e-05
0.0125564 0.0013113 -0.000105444
0.0013113 0.00177223 -5.68355e-05
-0.000105444 -5.68355e-05 -0.00015237
0.00557847 0.00210024 -6.93229e-05
0.00210024 0.000760802 -4.27161e-05
-6.93229e-05 -4.27161e-05 0.000393532
0.0148543 -0.00308322 0.000280609
-0.00308322 0.00612655 -2.87393e-05
0.000280609 -2.87393e-05 0.00488065
0.00956548 -0.00265707 0.000195859
-0.00265707 0.000209155 0.000502126
0.000195859 0.000502126 0.000116312
0.00211327 0.000287314 -1.84041e-05
0.000287314 0.000989474 -1.15983e-05
-1.84041e-05 -1.15983e-05 0.000820985
-0.00900004 0.000727236 -0.000111548
0.000727236 0.00201968 -0.000101357
-0.000111548 -0.000101357 -0.00247556
0.00406296 0.000551441 -0.000260389
0.000551441 0.00272526 -0.000340215
-0.000260389 -0.000340215 -0.00119481
0.00202453 0.000597921 -2.41877e-05
0.000597921 0.000363615 9.0342e-06
-2.41877e-05 9.0342e-06 0.000376252
0.00197698 0.000556998 -6.25039e-05
0.000556998 0.000788286 -2.33968e-05
-6.25039e-05 -2.33968e-05 0.000514659
0.00175343 0.000589449 -6.1979e-05
0.000589449 0.00114934 -1.1982e-05
-6.1979e-05 -1.1982e-05 0.000590644
0.000305982 0.00131083 -6.205e-05
0.00131083 -0.000230172 -2.98282e-05
-6.205e-05 -2.98282e-05 -0.000417337
-0.000634347 0.00158026 0.000250236
0.00158026 -0.00141454 0.000131338
0.000250236 0.000131338 -0.00444662
0.013971 -0.00370112 0.000214831
-0.00370112 0.00594472 0.000469218
0.000214831 0.000469218 0.00412034
0.00696063 -0.00120965 -9.44148e-05
-0.00120965 -0.00205326 -9.52929e-05
-9.44148e-05 -9.52929e-05 -0.000871416
-0.00019378 0.000107007 2.44376e-06
0.000107007 -0.000324667 -4.85091e-06
2.44376e-06 -4.85091e-06 -0.000444337
0.00129715 0.000204645 8.62266e-06
0.000204645 0.00053863 3.74861e-06
8.62266e-06 3.74861e-06 0.000395917
-0.000125389 8.31496e-05 3.6498e-06
8.31496e-05 -0.00024522 -1.0601e-05
3.6498e-06 -1.0601e-05 -0.000390741
0.000380414 4.97257e-05 1.79195e-06
4.97257e-05 -5.40233e-05 -7.03666e-07
1.79195e-06 -7.03666e-07 -0.000170199
0.000795362 5.80932e-05 -6.54055e-07
5.80932e-05 0.000216299 -1.54778e-06
-6.54055e-07 -1.54778e-06 6.19134e-05
0.000686902 -3.82438e-06 -1.2826e-06
-3.82438e-06 0.000145791 1.65852e-06
-1.2826e-06 1.65852e-06 -1.13742e-06
0.000693954 2.36629e-05 4.63328e-06
2.36629e-05 0.000151724 -1.36057e-07
4.63328e-06 -1.36057e-07 1.55117e-06
0.000368345 6.93309e-05 -2.20219e-06
6.93309e-05 -3.28726e-05 1.69702e-06
-2.20219e-06 1.69702e-06 -0.000163316
0.00074608 4.54243e-05 1.21428e-07
4.54243e-05 0.000190239 -8.82614e-07
1.21428e-07 -8.82614e-07 3.82231e-05
0.000786386 6.44026e-05 5.78885e-07
6.44026e-05 0.000206815 6.7785e-08
5.78885e-07 6.7785e-08 6.65801e-05
0.000788625 -5.32693e-05 -8.7188e-07
-5.32693e-05 0.000197993 1.26379e-06
-8.7188e-07 1.26379e-06 5.09786e-05
-0.000313538 2.93202e-05 1.12638e-06
2.93202e-05 -0.000369041 9.19138e-07
1.12638e-06 9.19138e-07 -0.000522068
-0.000887762 2.31139e-05 -1.47583e-06
2.31139e-05 -0.000473699 3.0896e-06
-1.47583e-06 3.0896e-06 -0.000749614
0.00088012 -8.44661e-06 -4.38076e-06
-8.44661e-06 0.000282067 -6.20467e-06
-4.38076e-06 -6.20467e-06 0.000142715
0.000920966 -5.82809e-06 5.73351e-08
-5.82809e-06 0.000301533 -6.02962e-07
5.73351e-08 -6.02962e-07 0.000132888
0.000786401 -6.45001e-05 -3.89289e-07
-6.45001e-05 0.000218289 -9.77137e-07
-3.89289e-07 -9.77137e-07 6.27879e-05
0.000765518 -5.64642e-05 1.27638e-06
-5.64642e-05 0.000169758 3.78282e-06
1.27638e-06 3.78282e-06 4.91701e-05
0.000779039 -5.39154e-05 8.68631e-07
-5.39154e-05 0.00020494 -1.02372e-06
8.68631e-07 -1.02372e-06 4.9477e-05
0.000735462 -1.58292e-05 -1.14542e-06
-1.58292e-05 0.000164223 -5.33312e-08
-1.14542e-06 -5.33312e-08 3.83903e-05
0.000156444 -5.93621e-05 9.94394e-07
-5.93621e-05 -0.000179646 2.24596e-06
9.94394e-07 2.24596e-06 -0.000286699
0.000408204 -1.42183e-05 1.81016e-06
-1.42183e-05 -2.77449e-05 3.31497e-07
1.81016e-06 3.31497e-07 -0.000155184
0.000261363 -4.22833e-06 -4.4903e-06
-4.22833e-06 -9.25914e-05 -4.33172e-06
-4.4903e-06 -4.33172e-06 -0.000231238
0.000147749 -5.50646e-05 2.83309e-06
-5.50646e-05 -0.000158125 -3.15126e-06
2.83309e-06 -3.15126e-06 -0.000270894
0.000889746 -6.92629e-05 5.08098e-06
-6.92629e-05 0.000183395 -1.04126e-05
5.08098e-06 -1.04126e-05 8.53019e-05
-0.000220804 -3.28952e-05 -1.25222e-07
-3.28952e-05 -0.000480292 2.25321e-06
-1.25222e-07 2.25321e-06 -0.000622324
0.000118464 -2.4437e-05 -3.11345e-06
-2.4437e-05 -0.000216403 -1.58192e-06
-3.11345e-06 -1.58192e-06 -0.000344732
0.000745719 -4.23961e-05 5.19286e-07
-4.23961e-05 0.000145861 -1.61422e-07
5.19286e-07 -1.61422e-07 1.6972e-05
0.00043444 -3.31459e-05 4.48923e-07
-3.31459e-05 -2.93762e-05 3.45812e-07
4.48923e-07 3.45812e-07 -0.000152082
0.000716397 -6.59349e-05 3.76454e-07
-6.59349e-05 0.000167679 7.25127e-08
3.76454e-07 7.25127e-08 3.47239e-05
0.00051096 -1.11377e-05 4.00458e-07
-1.11377e-05 1.73972e-05 1.43851e-06
4.00458e-07 1.43851e-06 -8.58289e-05
0.000866589 -5.87366e-05 -1.47325e-06
-5.87366e-05 0.000259479 1.56167e-07
-1.47325e-06 1.56167e-07 0.000128045
0.000640034 -6.30459e-05 -8.18823e-07
-6.30459e-05 9.95933e-05 4.5431e-08
-8.18823e-07 4.5431e-08 -6.2037e-06
0.000488459 3.66667e-05 -7.24536e-07
3.66667e-05 -1.90623e-05 2.99249e-06
-7.24536e-07 2.99249e-06 -8.68236e-05
0.000483522 -8.44916e-05 1.94952e-06
-8.44916e-05 -5.01886e-07 -9.83185e-07
1.94952e-06 -9.83185e-07 -0.00010834
0.00055403 -2.03537e-05 -4.02603e-07
-2.03537e-05 2.00449e-05 6.91318e-08
-4.02603e-07 6.91318e-08 -4.473e-05
0.00141018 1.0085e-05 -5.93366e-06
1.0085e-05 0.000518406 6.34257e-06
-5.93366e-06 6.34257e-06 0.000501672
0.000542291 -4.3029e-05 1.43433e-06
-4.3029e-05 1.97321e-05 -2.70798e-06
1.43433e-06 -2.70798e-06 -4.69825e-05
0.000908624 -4.535e-06 -3.65936e-06
-4.535e-06 0.000216005 7.10777e-07
-3.65936e-06 7.10777e-07 0.000198269
0.000757974 1.39571e-05 5.63066e-07
1.39571e-05 0.000113796 2.0893e-06
5.63066e-07 2.0893e-06 0.000119645
0.000484946 -6.68322e-06 1.43483e-06
-6.68322e-06 -4.02331e-05 -4.14444e-06
1.43483e-06 -4.14444e-06 -5.93654e-05
0.00246637 1.3848e-05 5.59046e-06
1.3848e-05 0.00116194 5.39735e-08
5.59046e-06 5.39735e-08 0.00117593
0.00246305 2.02777e-06 -5.00405e-07
2.02777e-06 0.00115987 -5.12635e-06
-5.00405e-07 -5.12635e-06 0.00117391
0.000993862 7.35056e-05 -5.23001e-07
7.35056e-05 0.000318541 -1.32616e-07
-5.23001e-07 -1.32616e-07 0.0002285
0.000547632 4.87737e-05 -1.3259e-06
4.87737e-05 1.71497e-05 -2.12615e-06
-1.3259e-06 -2.12615e-06 -2.87719e-05
0.000591235 -1.28591e-05 3.99628e-07
-1.28591e-05 7.8345e-05 8.44561e-07
3.99628e-07 8.44561e-07 -1.13333e-05
0.000540167 4.57897e-06 7.39156e-07
4.57897e-06 -2.39051e-05 -3.23465e-06
7.39156e-07 -3.23465e-06 -3.15981e-05
0.000530576 -1.53988e-05 3.41555e-07
-1.53988e-05 3.05846e-06 -5.60602e-08
3.41555e-07 -5.60602e-08 -3.93898e-05
0.000572645 -4.63617e-05 -1.50392e-06
-4.63617e-05 2.77911e-05 1.27502e-06
-1.50392e-06 1.27502e-06 -1.65196e-05
0.000528982 7.55624e-06 -3.42841e-07
7.55624e-06 -3.08654e-05 -2.50443e-08
-3.42841e-07 -2.50443e-08 -3.86562e-05
0.0019876 1.78165e-05 1.46369e-06
1.78165e-05 0.000866846 -4.60869e-06
1.46369e-06 -4.60869e-06 0.000885039
0.00110758 2.18983e-05 -7.29558e-07
2.18983e-05 0.000323935 1.8118e-06
-7.29558e-07 1.8118e-06 0.000318827
0.00135225 2.60669e-05 -7.79084e-08
2.60669e-05 0.000478548 -1.01968e-08
-7.79084e-08 -1.01968e-08 0.000492475
0.000826827 3.08979e-05 -1.12129e-05
3.08979e-05 0.000161017 7.01611e-06
-1.12129e-05 7.01611e-06 0.000169462
-0.0092964 0.000729371 0.000305432
0.000729371 -0.00374721 -2.06041e-06
0.000305432 -2.06041e-06 -0.00546275
-0.00238021 -0.000102131 0.000545961
-0.000102131 0.00386241 -0.000118632
0.000545961 -0.000118632 0.00123461
0.0038738 0.000257194 -0.000207682
0.000257194 -0.000693363 -2.17313e-05
-0.000207682 -2.17313e-05 0.000273296
0.000737862 4.80658e-05 2.37259e-05
4.80658e-05 -0.00117043 -3.00897e-05
2.37259e-05 -3.00897e-05 -0.000937305
0.00152741 -4.73738e-05 1.35923e-05
-4.73738e-05 -0.000237846 7.12015e-06
1.35923e-05 7.12015e-06 -0.00023252
-0.000670758 5.33844e-05 -4.97201e-05
5.33844e-05 -0.00105305 -1.50086e-05
-4.97201e-05 -1.50086e-05 -0.000610469
0.00326652 -0.000218459 -1.05277e-06
-0.000218459 0.000425181 4.91562e-06
-1.05277e-06 4.91562e-06 0.000436225
0.0104434 3.13719e-05 0.000113027
3.13719e-05 0.000432195 -4.21566e-05
0.000113027 -4.21566e-05 -0.000587307
-0.00175666 0.00206459 -8.55165e-06
0.00206459 -9.02357e-05 -3.67142e-05
-8.55165e-06 -3.67142e-05 -0.00234973
0.00365681 0.00410766 -0.000283743
0.00410766 0.00338097 0.000152568
-0.000283743 0.000152568 0.00308148
0.00212732 -0.000431465 7.17967e-05
-0.000431465 -0.00115647 -2.6802e-05
7.17967e-05 -2.6802e-05 -0.000686813
0.014268 -0.00112113 0.000157685
-0.00112113 0.00275476 -4.85627e-05
0.000157685 -4.85627e-05 0.00111274
0.00805767 0.00397927 0.000268098
0.00397927 0.00175699 -0.000416143
0.000268098 -0.000416143 0.000965954
0.0119601 0.00265749 -0.000288974
0.00265749 0.00266736 0.000199396
-0.000288974 0.000199396 0.00181829
0.00080153 0.000120747 -2.26927e-06
0.000120747 0.000237693 2.61922e-06
-2.26927e-06 2.61922e-06 9.30678e-05
0.000423933 2.57326e-05 9.68968e-09
2.57326e-05 -2.3238e-05 -8.80841e-07
9.68968e-09 -8.80841e-07 -0.000119295
0.000615814 -9.33472e-05 -4.61531e-07
-9.33472e-05 9.63959e-05 6.46996e-07
-4.61531e-07 6.46996e-07 6.57823e-06
0.000562708 -4.65208e-06 2.39147e-06
-4.65208e-06 7.08214e-05 -9.55493e-07
2.39147e-06 -9.55493e-07 -3.68013e-05
0.000602153 5.87335e-05 1.40613e-06
5.87335e-05 0.000116928 1.34874e-06
1.40613e-06 1.34874e-06 -4.84204e-06
0.000642467 3.01073e-05 8.45532e-07
3.01073e-05 0.000138731 5.33796e-06
8.45532e-07 5.33796e-06 -5.32071e-06
0.000749361 9.31298e-05 1.2572e-06
9.31298e-05 0.000181166 2.2426e-06
1.2572e-06 2.2426e-06 5.64739e-05
0.000546142 3.89179e-05 4.81926e-06
3.89179e-05 4.29701e-05 8.68195e-07
4.81926e-06 8.68195e-07 -8.2686e-05
0.000727423 -3.3451e-05 2.09658e-06
-3.3451e-05 0.000182242 -1.02492e-06
2.09658e-06 -1.02492e-06 5.98649e-05
0.000504303 -8.44704e-06 7.24745e-08
-8.44704e-06 1.76424e-05 -1.1293e-06
7.24745e-08 -1.1293e-06 -8.0329e-05
0.0016685 -0.00027408 2.15277e-05
-0.00027408 -0.000253041 -2.73133e-06
2.15277e-05 -2.73133e-06 -0.000103385
0.00103058 -0.000438616 3.20531e-05
-0.000438616 -0.000576093 -8.32578e-06
3.20531e-05 -8.32578e-06 -0.000507736
0.000585975 -0.000552911 1.288e-05
-0.000552911 -0.000593874 -9.13368e-07
1.288e-05 -9.13368e-07 -0.000734216
-6.43255e-05 -0.000466877 6.81973e-06
-0.000466877 -0.000612019 2.00609e-06
6.81973e-06 2.00609e-06 -0.000844099
0.00309976 -0.000504579 5.99905e-06
-0.000504579 0.00181895 2.04574e-05
5.99905e-06 2.04574e-05 0.00127202
0.000598831 -0.000315811 6.80724e-06
-0.000315811 0.000192084 -4.34524e-06
6.80724e-06 -4.34524e-06 -0.000117994
0.00139529 -0.000164559 6.51078e-07
-0.000164559 0.00054789 -8.50905e-07
6.51078e-07 -8.50905e-07 0.000430413
0.000801941 -2.45494e-05 -2.58187e-06
-2.45494e-05 0.00023709 2.45905e-06
-2.58187e-06 2.45905e-06 0.000112447
0.00224387 -0.000401597 1.12642e-05
-0.000401597 -2.54196e-05 -5.89931e-06
1.12642e-05 -5.89931e-06 0.000103024
0.000545738 -6.55669e-05 -1.48315e-07
-6.55669e-05 9.56998e-05 2.54878e-08
-1.48315e-07 2.54878e-08 -7.68459e-05
3.15936e-05 -0.000124552 1.0638e-06
-0.000124552 -0.000162965 -2.86509e-06
1.0638e-06 -2.86509e-06 -0.000352316
0.00197586 -0.00061531 1.06784e-05
-0.00061531 0.000132353 -1.66643e-06
1.06784e-05 -1.66643e-06 8.52652e-05
0.00177929 -0.000758112 3.96533e-07
-0.000758112 7.6382e-05 4.36744e-06
3.96533e-07 4.36744e-06 -8.13687e-05
0.000184444 -0.00045637 1.24418e-05
-0.00045637 -0.000256094 -8.24802e-06
1.24418e-05 -8.24802e-06 -0.000494251
0.00135849 -0.000227687 -5.03832e-07
-0.000227687 0.000873232 -9.10998e-06
-5.03832e-07 -9.10998e-06 0.000385878
0.0022317 -0.000609215 -5.63261e-05
-0.000609215 0.000426881 1.44338e-05
-5.63261e-05 1.44338e-05 0.000109148
0.00167706 -0.000602392 -4.33343e-05
-0.000602392 0.000200318 1.22885e-05
-4.33343e-05 1.22885e-05 0.000126298
0.00110423 -0.000437571 -6.16392e-05
-0.000437571 0.000514761 3.75397e-05
-6.16392e-05 3.75397e-05 0.000182607
-0.00158109 -0.000108316 -5.70957e-07
-0.000108316 -0.00116079 5.95178e-06
-5.70957e-07 5.95178e-06 -0.00133722
-7.15982e-05 -0.000109623 4.27599e-06
-0.000109623 -0.000226416 4.71218e-06
4.27599e-06 4.71218e-06 -0.000432889
0.000783619 -6.6463e-05 6.39939e-06
-6.6463e-05 0.000373363 6.21913e-07
6.39939e-06 6.21913e-07 6.80645e-05
-0.00124192 0.00068683 -0.000252321
0.00068683 0.00546827 1.30237e-05
-0.000252321 1.30237e-05 0.00229471
0.00122927 -0.000854292 4.60881e-06
-0.000854292 0.00166712 2.46695e-05
4.60881e-06 2.46695e-05 0.00152772
0.00150349 0.000952948 -7.91952e-05
0.000952948 -0.00407379 -2.45297e-05
-7.91952e-05 -2.45297e-05 -0.00438723
0.000193926 0.000183526 6.48954e-06
0.000183526 -0.00012761 -4.97988e-07
6.48954e-06 -4.97988e-07 -0.000314699
0.0013666 0.000422882 9.30283e-06
0.000422882 0.000409902 1.55786e-05
9.30283e-06 1.55786e-05 0.000120574
0.00359534 0.00067161 4.97871e-05
0.00067161 0.000983231 1.30653e-05
4.97871e-05 1.30653e-05 0.000938773
0.00185525 0.00067669 2.07409e-05
0.00067669 0.000568677 1.8747e-05
2.07409e-05 1.8747e-05 0.000220465
0.0095502 -0.00161972 0.00011771
-0.00161972 0.00320604 4.13842e-05
0.00011771 4.13842e-05 0.00324446
0.00354386 0.000529289 -0.000260803
0.000529289 -0.0029337 -2.19238e-05
-0.000260803 -2.19238e-05 -0.00488504
0.00397257 0.00192754 -3.11227e-05
0.00192754 -0.000155029 4.32735e-06
-3.11227e-05 4.32735e-06 -0.000358532
0.00220322 0.000611744 3.92113e-05
0.000611744 0.000790391 -2.67609e-05
3.92113e-05 -2.67609e-05 0.000708351
-0.00128592 -0.00199025 -0.000257613
-0.00199025 0.000391725 -0.000245271
-0.000257613 -0.000245271 -0.00117496
-0.000857493 -0.00171531 -0.000298462
-0.00171531 0.0031536 -9.9155e-05
-0.000298462 -9.9155e-05 -0.000589416
0.0152707 -0.00334586 0.000396497
-0.00334586 0.00322769 0.000254056
0.000396497 0.000254056 0.00321932
0.000647361 0.000187372 1.13467e-05
0.000187372 0.00014511 -3.26608e-06
1.13467e-05 -3.26608e-06 -2.40803e-05
-0.00336762 0.000274691 -0.000133869
0.000274691 0.00365384 -3.01619e-05
-0.000133869 -3.01619e-05 -0.000112984
0.00444489 0.000658785 -4.65549e-05
0.000658785 0.00249344 -0.000123217
-4.65549e-05 -0.000123217 -0.00168411
0.00158311 0.000585 -2.00058e-06
0.000585 0.00020194 5.15953e-06
-2.00058e-06 5.15953e-06 0.000158788
0.000370223 0.000396198 8.09406e-06
0.000396198 -1.29949e-05 3.42222e-06
8.09406e-06 3.42222e-06 -0.000300704
-4.60265e-05 0.000559142 -1.13022e-05
0.000559142 3.31399e-05 -4.8771e-05
-1.13022e-05 -4.8771e-05 -0.00037775
0.00381123 0.00200943 -2.98994e-06
0.00200943 0.00122842 9.16198e-06
-2.98994e-06 9.16198e-06 0.000835722
0.0154178 0.00206828 7.96044e-05
0.00206828 0.00467173 2.47059e-05
7.96044e-05 2.47059e-05 0.00256492
0.0057907 -0.00236437 5.84965e-05
-0.00236437 0.00098318 -6.22767e-05
5.84965e-05 -6.22767e-05 -0.00121682
0.0122596 -0.00179245 -3.19035e-06
-0.00179245 0.00163359 -5.45911e-05
-3.19035e-06 -5.45911e-05 0.00295559
0.000102331 0.000238494 -4.18109e-06
0.000238494 -0.000124544 -1.40137e-05
-4.18109e-06 -1.40137e-05 -0.000300553
0.00252879 0.000159654 -0.000209426
0.000159654 0.0014585 -4.05451e-05
-0.000209426 -4.05451e-05 -0.00157507
0.000172315 0.000293421 -5.09127e-05
0.000293421 -0.000134654 -0.000132194
-5.09127e-05 -0.000132194 -0.00163841
-0.000907014 0.000172351 -4.07559e-06
0.000172351 -0.000373438 -2.19132e-05
-4.07559e-06 -2.19132e-05 -0.000568765
0.000179784 0.000362685 -8.52338e-05
0.000362685 0.00103771 2.04618e-05
-8.52338e-05 2.04618e-05 0.000270729
0.0119411 0.00262572 5.68441e-05
0.00262572 0.00433175 -7.2742e-06
5.68441e-05 -7.2742e-06 0.000752125
-0.00543652 -0.00338853 -1.91822e-05
-0.00338853 -0.00218032 0.000195564
-1.91822e-05 0.000195564 -0.00545705
0.00988866 0.000568926 4.12781e-05
0.000568926 -0.00138501 -0.000252047
4.12781e-05 -0.000252047 0.00112883
0.000913182 0.000161189 -5.62874e-07
0.000161189 0.000287408 1.16121e-05
-5.62874e-07 1.16121e-05 0.000155774
0.00097476 0.000187506 -7.89068e-06
0.000187506 0.000415743 -1.76259e-06
-7.89068e-06 -1.76259e-06 0.000254632
0.000406664 0.000123646 6.05279e-07
0.000123646 0.000252016 -6.38344e-06
6.05279e-07 -6.38344e-06 1.3265e-06
0.000722076 8.13124e-05 -1.88193e-06
8.13124e-05 0.000162771 -1.84885e-06
-1.88193e-06 -1.84885e-06 2.0029e-05
0.000899838 -3.85553e-05 -7.44167e-07
-3.85553e-05 0.000271469 2.66646e-06
-7.44167e-07 2.66646e-06 0.000118059
0.000641461 6.06513e-05 2.52263e-06
6.06513e-05 0.000112431 2.07872e-06
2.52263e-06 2.07872e-06 -2.2707e-05
-0.000648079 1.7651e-05 1.98718e-06
1.7651e-05 -0.000542839 2.3838e-06
1.98718e-06 2.3838e-06 -0.000701344
0.000782793 -1.82272e-05 1.15745e-06
-1.82272e-05 0.000196188 1.69643e-07
1.15745e-06 1.69643e-07 4.42354e-05
0.000751397 2.24116e-05 -1.67617e-08
2.24116e-05 0.000209328 -1.88562e-06
-1.67617e-08 -1.88562e-06 6.54348e-05
-8.84676e-05 -1.04183e-05 1.75106e-07
-1.04183e-05 -9.43855e-06 2.0996e-06
1.75106e-07 2.0996e-06 -0.000276161
-0.000918755 1.95627e-05 -1.65965e-06
1.95627e-05 -0.000247699 5.41823e-06
-1.65965e-06 5.41823e-06 -0.000656631
0.000242079 9.1301e-06 -2.7722e-06
9.1301e-06 0.000178344 -3.9497e-06
-2.7722e-06 -3.9497e-06 -8.50481e-05
0.00087139 2.52993e-05 -1.20305e-06
2.52993e-05 0.000264847 -5.12924e-06
-1.20305e-06 -5.12924e-06 0.000120313
0.000861126 -0.000125963 1.12787e-06
-0.000125963 0.000240859 9.88713e-07
1.12787e-06 9.88713e-07 9.34203e-05
0.000692709 -1.38392e-05 -1.1546e-06
-1.38392e-05 0.000128751 8.2216e-07
-1.1546e-06 8.2216e-07 7.12013e-06
0.000537446 -7.70594e-05 4.6057e-07
-7.70594e-05 6.11726e-05 7.3476e-06
4.6057e-07 7.3476e-06 -4.14443e-05
0.000385821 -3.06641e-05 1.88175e-06
-3.06641e-05 -3.09425e-05 2.43737e-06
1.88175e-06 2.43737e-06 -0.000159918
0.000664135 -2.5187e-05 7.19048e-07
-2.5187e-05 0.00012384 1.70951e-08
7.19048e-07 1.70951e-08 -3.91066e-06
0.000548328 -4.20226e-05 -2.16137e-07
-4.20226e-05 7.81302e-05 -1.13533e-06
-2.16137e-07 -1.13533e-06 -3.21294e-05
0.000930159 -4.73073e-05 -2.91089e-06
-4.73073e-05 0.000279016 -5.0117e-06
-2.91089e-06 -5.0117e-06 0.000167365
0.000253407 -4.64279e-05 5.04195e-06
-4.64279e-05 3.35404e-06 -6.28223e-06
5.04195e-06 -6.28223e-06 -0.000124042
0.000138525 -0.000115821 4.38585e-07
-0.000115821 -0.000335025 6.26908e-07
4.38585e-07 6.26908e-07 -0.000424392
0.000814449 -0.000111827 -5.44211e-06
-0.000111827 0.00015082 -5.33323e-07
-5.44211e-06 -5.33323e-07 4.38993e-05
0.000217685 -0.000117825 6.04129e-06
-0.000117825 -0.000205085 3.71562e-06
6.04129e-06 3.71562e-06 -0.000351804
0.00133268 -0.000316117 1.80053e-06
-0.000316117 0.000391586 1.09333e-05
1.80053e-06 1.09333e-05 0.000138139
0.00164856 -0.000171843 1.10356e-06
-0.000171843 0.000702998 -2.69573e-06
1.10356e-06 -2.69573e-06 0.000540504
7.03644e-05 -7.56591e-05 -4.93178e-06
-7.56591e-05 -0.000272581 -5.04321e-06
-4.93178e-06 -5.04321e-06 -0.000415326
0.000585408 -4.43681e-05 -1.13035e-07
-4.43681e-05 4.80033e-05 2.97766e-07
-1.13035e-07 2.97766e-07 -8.0247e-05
0.000106513 -3.06402e-05 -6.14545e-07
-3.06402e-05 -0.000222181 -6.5087e-07
-6.14545e-07 -6.5087e-07 -0.000352684
0.000901608 -6.77493e-05 -1.10972e-06
-6.77493e-05 0.000235064 1.13948e-06
-1.10972e-06 1.13948e-06 0.000104169
0.000762194 -8.04824e-05 -8.19831e-07
-8.04824e-05 0.000183481 5.98369e-07
-8.19831e-07 5.98369e-07 4.79072e-05
0.000604913 -4.35738e-05 -9.1487e-08
-4.35738e-05 6.11566e-05 1.57371e-06
-9.1487e-08 1.57371e-06 -4.16764e-05
0.0010593 -0.000109674 -7.95166e-07
-0.000109674 0.000393244 -9.69622e-07
-7.95166e-07 -9.69622e-07 0.000242984
0.000660693 -7.69846e-05 -4.90095e-07
-7.69846e-05 0.00010899 -4.06131e-08
-4.90095e-07 -4.06131e-08 1.81579e-06
0.000535732 1.79624e-05 -2.02819e-06
1.79624e-05 6.6728e-06 2.51651e-06
-2.02819e-06 2.51651e-06 -6.1638e-05
0.00071373 -0.000107571 1.58171e-06
-0.000107571 0.000146886 -1.77664e-06
1.58171e-06 -1.77664e-06 3.70966e-05
0.000608536 -3.35587e-05 -2.36732e-07
-3.35587e-05 4.96334e-05 9.22587e-08
-2.36732e-07 9.22587e-08 -1.65496e-05
0.00142046 1.84864e-05 -9.77022e-06
1.84864e-05 0.000521977 6.52113e-06
-9.77022e-06 6.52113e-06 0.000503825
0.000569867 -5.06299e-05 2.27739e-06
-5.06299e-05 3.46652e-05 -2.83718e-06
2.27739e-06 -2.83718e-06 -3.34561e-05
0.000919081 3.70993e-06 -4.79697e-06
3.70993e-06 0.000218537 6.64924e-07
-4.79697e-06 6.64924e-07 0.000199479
0.000774976 2.30552e-05 5.12162e-07
2.30552e-05 0.000123935 2.44682e-06
5.12162e-07 2.44682e-06 0.000127789
0.000494125 -8.27722e-06 9.69747e-07
-8.27722e-06 -3.86355e-05 -4.35043e-06
9.69747e-07 -4.35043e-06 -5.83319e-05
0.00160797 2.33502e-05 7.28717e-06
2.33502e-05 0.000635946 -1.47618e-06
7.28717e-06 -1.47618e-06 0.00064571
0.00243706 1.55557e-05 6.04757e-06
1.55557e-05 0.00114372 -5.1063e-06
6.04757e-06 -5.1063e-06 0.00115775
0.000628055 2.85259e-05 2.00369e-06
2.85259e-05 8.17088e-05 -1.04174e-06
2.00369e-06 -1.04174e-06 -1.09747e-05
0.000613997 4.6398e-05 -7.12856e-07
4.6398e-05 5.36198e-05 -1.87165e-06
-7.12856e-07 -1.87165e-06 5.49767e-06
0.000646265 -2.31591e-06 1.2256e-06
-2.31591e-06 0.000103297 5.00016e-07
1.2256e-06 5.00016e-07 1.48108e-05
0.000526413 -5.33379e-08 1.08075e-06
-5.33379e-08 -3.11828e-05 -3.53692e-06
1.08075e-06 -3.53692e-06 -3.96455e-05
0.000540791 3.82429e-05 1.26717e-07
3.82429e-05 9.77909e-06 -6.22099e-08
1.26717e-07 -6.22099e-08 -3.42587e-05
0.000590592 -0.000101997 -3.57637e-06
-0.000101997 7.17764e-05 9.61564e-07
-3.57637e-06 9.61564e-07 -1.30239e-05
0.00200032 4.52392e-06 -3.47678e-06
4.52392e-06 0.000872994 -4.72045e-06
-3.47678e-06 -4.72045e-06 0.000891702
0.000522009 3.61013e-06 -2.10863e-07
3.61013e-06 -3.44003e-05 1.29218e-08
-2.10863e-07 1.29218e-08 -4.21206e-05
0.000547684 -1.86976e-05 -1.86153e-06
-1.86976e-05 1.14779e-05 1.61514e-06
-1.86153e-06 1.61514e-06 -2.97939e-05
0.00050927 6.84479e-06 -1.03944e-06
6.84479e-06 -4.31403e-05 3.09842e-06
-1.03944e-06 3.09842e-06 -5.08597e-05
0.00201566 1.93225e-05 -4.56765e-06
1.93225e-05 0.000884208 -7.04887e-08
-4.56765e-06 -7.04887e-08 0.00090223
0.00198259 3.21485e-05 -7.8942e-06
3.21485e-05 0.00086618 4.34432e-06
-7.8942e-06 4.34432e-06 0.00088354
-0.00593589 -0.000948876 -0.000107081
-0.000948876 0.00332758 3.77171e-05
-0.000107081 3.77171e-05 0.000177675
0.000522748 0.000792011 -0.000159188
0.000792011 -8.07369e-05 4.29437e-05
-0.000159188 4.29437e-05 -0.00117463
0.00299714 -0.000687815 -0.000438085
-0.000687815 0.00114195 0.000208907
-0.000438085 0.000208907 -0.00282077
-0.00278252 0.00010913 0.00067916
0.00010913 0.0038706 -0.000258355
0.00067916 -0.000258355 0.00110724
0.000783756 0.00037859 -1.31781e-05
0.00037859 -0.00132268 -1.77135e-05
-1.31781e-05 -1.77135e-05 -0.000897552
0.00254477 -0.000282272 9.65874e-05
-0.000282272 -8.83035e-05 4.38056e-07
9.65874e-05 4.38056e-07 -5.97119e-05
0.000779254 -0.000377891 0.000129715
-0.000377891 -0.00331779 -7.19763e-05
0.000129715 -7.19763e-05 -0.00523807
0.0148894 0.0019512 -0.000361507
0.0019512 0.00688832 2.21674e-05
-0.000361507 2.21674e-05 0.00530396
-0.00376273 0.00473439 -0.00131585
0.00473439 -0.000937893 0.000971963
-0.00131585 0.000971963 -0.000998724
0.00359749 -0.000319028 5.01947e-06
-0.000319028 -0.000274543 4.6427e-06
5.01947e-06 4.6427e-06 -2.00847e-05
0.00738377 -0.00112288 9.57376e-05
-0.00112288 -0.000447064 -8.48959e-05
9.57376e-05 -8.48959e-05 -0.00281434
0.0161227 0.00350824 -0.00018039
0.00350824 0.00471371 -9.68905e-05
-0.00018039 -9.68905e-05 0.00400747
0.00835959 0.0027276 -7.82542e-05
0.0027276 0.000265368 0.000266881
-7.82542e-05 0.000266881 -0.000775331
0.00171638 -0.00103995 -8.37408e-05
-0.00103995 -0.00205099 2.30208e-05
-8.37408e-05 2.30208e-05 -0.0015359
0.00359267 -0.00188468 0.000260751
-0.00188468 -0.000166659 -0.000180117
0.000260751 -0.000180117 -0.00395229
-0.00109296 0.00223904 -1.36205e-05
0.00223904 -0.00234541 -0.000528089
-1.36205e-05 -0.000528089 -0.00395708
0.00655 0.00114031 -0.000150095
0.00114031 -0.00286794 4.8753e-06
-0.000150095 4.8753e-06 -0.0015796
0.00141674 -6.25877e-05 2.12736e-06
-6.25877e-05 0.000647701 9.20196e-06
2.12736e-06 9.20196e-06 0.000458643
0.000590055 0.000102647 -1.72786e-06
0.000102647 9.58322e-05 -1.89875e-06
-1.72786e-06 -1.89875e-06 -3.44564e-05
0.000569963 8.34546e-05 2.07816e-07
8.34546e-05 5.93408e-05 -1.85964e-06
2.07816e-07 -1.85964e-06 -3.2017e-05
0.000593874 5.24153e-05 4.80612e-06
5.24153e-05 0.000113814 5.97342e-07
4.80612e-06 5.97342e-07 -6.75387e-06
0.000552567 6.71469e-05 3.43771e-06
6.71469e-05 6.92227e-05 2.35105e-06
3.43771e-06 2.35105e-06 -9.41513e-05
0.000617661 4.91626e-05 -2.03886e-07
4.91626e-05 0.000119383 1.91698e-06
-2.03886e-07 1.91698e-06 -1.63258e-05
0.000525325 4.43958e-05 7.59066e-07
4.43958e-05 4.72087e-05 -1.15494e-06
7.59066e-07 -1.15494e-06 -7.56238e-05
0.000869593 0.000147988 2.56628e-06
0.000147988 0.000264222 3.20574e-06
2.56628e-06 3.20574e-06 0.000112491
0.000843211 0.000101408 -2.28373e-08
0.000101408 0.000253201 3.37081e-07
-2.28373e-08 3.37081e-07 0.000107054
0.00044117 -1.67919e-05 -4.45128e-06
-1.67919e-05 1.17278e-06 -3.48013e-06
-4.45128e-06 -3.48013e-06 -0.000118286
0.00068886 -0.000313289 5.61875e-05
-0.000313289 -0.000829468 -2.35795e-05
5.61875e-05 -2.35795e-05 -0.000680034
0.000530025 -0.000523183 3.38226e-05
-0.000523183 -0.00066367 -9.99152e-06
3.38226e-05 -9.99152e-06 -0.000681706
0.00141241 -0.000728187 8.52153e-06
-0.000728187 -0.000151861 4.50579e-06
8.52153e-06 4.50579e-06 -0.000275511
-0.000155488 -0.00047942 1.09717e-05
-0.00047942 -0.000434289 -1.00942e-05
1.09717e-05 -1.00942e-05 -0.00072541
0.00249023 -0.000290894 -6.58989e-06
-0.000290894 0.00142413 3.22153e-05
-6.58989e-06 3.22153e-05 0.00102399
0.000611135 -0.000118633 -2.81751e-06
-0.000118633 0.000191548 1.70856e-06
-2.81751e-06 1.70856e-06 -7.70593e-06
0.000490711 8.80294e-05 -1.60494e-06
8.80294e-05 6.82102e-05 -8.60883e-06
-1.60494e-06 -8.60883e-06 -0.000109213
0.000670063 -9.12538e-05 -1.13455e-06
-9.12538e-05 0.000197006 6.26516e-06
-1.13455e-06 6.26516e-06 -9.78082e-06
0.00150316 -0.000523014 6.95656e-07
-0.000523014 -8.7784e-05 -3.69663e-06
6.95656e-07 -3.69663e-06 -0.000227765
0.000666831 -3.71629e-05 3.36111e-07
-3.71629e-05 0.000190904 3.20496e-06
3.36111e-07 3.20496e-06 -7.95581e-06
0.00165066 -0.000191389 1.54989e-07
-0.000191389 0.000884912 -1.21994e-06
1.54989e-07 -1.21994e-06 0.000569773
0.00155257 -0.000600526 8.56553e-07
-0.000600526 9.99282e-05 3.44257e-06
8.56553e-07 3.44257e-06 4.36667e-05
0.000765664 -0.000474033 -1.65459e-05
-0.000474033 0.000264917 6.07455e-06
-1.65459e-05 6.07455e-06 -5.73286e-05
0.00238463 -0.000965907 1.50461e-05
-0.000965907 0.000333801 -2.04413e-05
1.50461e-05 -2.04413e-05 0.000291207
0.000454072 -0.000373044 -1.33947e-05
-0.000373044 -1.3382e-05 1.54127e-05
-1.33947e-05 1.54127e-05 -0.000120257
-0.000756218 -3.85134e-05 4.55213e-06
-3.85134e-05 -0.000352371 1.04855e-05
4.55213e-06 1.04855e-05 -0.000769814
0.000708633 9.29773e-06 -1.4268e-06
9.29773e-06 0.000183291 -2.66213e-06
-1.4268e-06 -2.66213e-06 7.61555e-06
0.00100774 3.70929e-05 6.66877e-06
3.70929e-05 0.000478735 -2.87705e-06
6.66877e-06 -2.87705e-06 0.000230393
0.00153597 1.88727e-05 -2.2601e-05
1.88727e-05 0.00159309 -1.09101e-05
-2.2601e-05 -1.09101e-05 -0.00128928
-0.00448414 0.000248321 -0.000214829
0.000248321 0.00474975 -9.93955e-06
-0.000214829 -9.93955e-06 0.00108485
-0.0116625 -0.0013147 -0.000450655
-0.0013147 -0.0057882 -1.7381e-05
-0.000450655 -1.7381e-05 -0.00564389
-0.00053909 0.000128096 7.20528e-06
0.000128096 -0.000525702 -4.93308e-07
7.20528e-06 -4.93308e-07 -0.00070806
-0.000576977 0.000311525 -6.59954e-07
0.000311525 -0.00047032 1.01588e-05
-6.59954e-07 1.01588e-05 -0.000772269
0.00152351 0.000649195 3.08292e-05
0.000649195 0.000161299 1.13097e-05
3.08292e-05 1.13097e-05 0.000102708
-0.00483147 0.00107568 7.5903e-06
0.00107568 0.00356361 3.66416e-05
7.5903e-06 3.66416e-05 0.000106008
0.00278034 0.00173693 -0.000150092
0.00173693 -8.44253e-05 -0.000135059
-0.000150092 -0.000135059 -0.00390962
0.00262456 0.00150354 0.000278704
0.00150354 0.000657211 8.12366e-05
0.000278704 8.12366e-05 0.000426183
-0.000415874 0.000529201 9.4541e-06
0.000529201 -0.000327364 -3.78898e-05
9.4541e-06 -3.78898e-05 -0.000444837
0.0175206 -0.00246226 -8.53123e-05
-0.00246226 0.00533714 -0.000215693
-8.53123e-05 -0.000215693 0.00394297
0.00481659 0.000774553 0.000285651
0.000774553 0.00247631 0.00010683
0.000285651 0.00010683 -0.00198094
0.0121628 -0.00157426 9.34327e-05
-0.00157426 0.00183934 2.65377e-05
9.34327e-05 2.65377e-05 0.00320983
0.000767242 0.000300746 3.03978e-06
0.000300746 0.000326686 -2.6502e-06
3.03978e-06 -2.6502e-06 0.000137312
0.00376818 0.000261653 7.48444e-06
0.000261653 0.00219491 1.3035e-05
7.48444e-06 1.3035e-05 -8.77619e-05
0.000885635 0.000305881 3.57837e-05
0.000305881 -8.58203e-06 9.76128e-06
3.57837e-05 9.76128e-06 -0.00156806
-0.000719624 0.000310348 -2.43593e-06
0.000310348 -0.000363829 -2.14132e-06
-2.43593e-06 -2.14132e-06 -0.000612666
0.00127469 0.000808331 -9.29933e-05
0.000808331 0.00111245 -4.21375e-05
-9.29933e-05 -4.21375e-05 4.26159e-05
0.00197432 0.00266337 0.000120608
0.00266337 0.000797409 7.65567e-05
0.000120608 7.65567e-05 -0.00294543
0.00766994 0.000187599 -1.33651e-05
0.000187599 -0.00316123 -0.000169077
-1.33651e-05 -0.000169077 -0.000330425
0.00360149 -0.00194834 -5.14833e-05
-0.00194834 0.0017266 -9.69465e-05
-5.14833e-05 -9.69465e-05 -0.001313
0.00116887 0.000252678 -3.6463e-06
0.000252678 0.000788146 -1.72005e-05
-3.6463e-06 -1.72005e-05 0.000563504
-0.00120806 1.92197e-05 4.19711e-06
1.92197e-05 -0.000151669 1.66936e-06
4.19711e-06 1.66936e-06 -0.000101485
0.00347788 1.16354e-05 5.62179e-05
1.16354e-05 -0.000122878 -0.000127304
5.62179e-05 -0.000127304 -0.00112868
0.0065766 0.0011979 0.000157074
0.0011979 -0.00269845 -1.34388e-05
0.000157074 -1.34388e-05 -0.00152971
-0.00148627 0.000111392 9.75105e-06
0.000111392 -6.8898e-05 -2.85718e-05
9.75105e-06 -2.85718e-05 -0.00072434
0.0115918 0.00215436 0.000185163
0.00215436 0.00529529 5.57385e-05
0.000185163 5.57385e-05 0.000910236
-0.00584586 -0.000474257 8.90943e-05
-0.000474257 0.000618202 0.000308655
8.90943e-05 0.000308655 -0.00202021
0.00265523 0.00034017 2.09043e-05
0.00034017 0.00143327 1.72056e-05
2.09043e-05 1.72056e-05 0.00124362
0.000884372 0.000192208 -5.82926e-06
0.000192208 0.000532539 -2.08283e-06
-5.82926e-06 -2.08283e-06 0.000254781
-0.000131775 7.70239e-05 9.70433e-07
7.70239e-05 0.000171946 1.32661e-06
9.70433e-07 1.32661e-06 -0.000147135
0.00067412 0.00014638 6.5097e-07
0.00014638 0.000145346 6.70283e-07
6.5097e-07 6.70283e-07 -1.35601e-05
0.000448319 5.56217e-05 1.7254e-06
5.56217e-05 2.10305e-05 2.3841e-06
1.7254e-06 2.3841e-06 -0.000118361
0.000780154 1.94934e-06 9.88648e-06
1.94934e-06 0.000522916 2.88486e-07
9.88648e-06 2.88486e-07 0.000241234
0.000570937 3.68355e-05 1.41835e-07
3.68355e-05 7.70748e-05 -5.83763e-07
1.41835e-07 -5.83763e-07 -5.85814e-05
0.00079238 -1.34532e-05 -3.0643e-06
-1.34532e-05 0.000492463 -2.14243e-06
-3.0643e-06 -2.14243e-06 0.00023714
-0.000156534 3.58204e-05 2.00512e-06
3.58204e-05 0.000180545 1.50391e-06
2.00512e-06 1.50391e-06 -0.000221227
0.000114957 8.22495e-06 -8.57837e-06
8.22495e-06 0.00022227 -5.1057e-06
-8.57837e-06 -5.1057e-06 -4.11247e-05
0.000221332 -2.9544e-05 -8.41607e-07
-2.9544e-05 0.00011303 -7.12691e-06
-8.41607e-07 -7.12691e-06 -0.00011007
0.000442497 -5.96731e-05 1.53995e-06
-5.96731e-05 -1.02176e-05 6.57804e-06
1.53995e-06 6.57804e-06 -0.000128486
0.000913237 -2.988e-05 -1.38073e-06
-2.988e-05 0.000271892 4.79266e-07
-1.38073e-06 4.79266e-07 0.00014324
0.000981757 -4.19311e-05 -9.58457e-06
-4.19311e-05 0.000336623 7.57272e-06
-9.58457e-06 7.57272e-06 0.000226525
0.000671563 -6.02302e-05 3.27246e-06
-6.02302e-05 0.000232219 -2.55699e-07
3.27246e-06 -2.55699e-07 0.000111649
0.000626997 -4.15025e-05 -1.6099e-06
-4.15025e-05 9.9836e-05 -6.18337e-07
-1.6099e-06 -6.18337e-07 -1.18499e-05
0.000575861 -0.000117337 1.92477e-06
-0.000117337 0.000110667 6.2335e-07
1.92477e-06 6.2335e-07 -9.76132e-06
0.000212377 -0.000109586 -5.93793e-06
-0.000109586 -0.000225528 -9.68781e-07
-5.93793e-06 -9.68781e-07 -0.000294879
-0.000828574 -0.000188281 9.26896e-06
-0.000188281 -0.000808989 7.04078e-06
9.26896e-06 7.04078e-06 -0.00102217
0.000738498 -0.000160206 1.77611e-06
-0.000160206 0.000117504 1.23327e-06
1.77611e-06 1.23327e-06 2.94716e-06
0.00124574 -0.000229165 -1.11005e-06
-0.000229165 0.00039992 5.57488e-06
-1.11005e-06 5.57488e-06 0.0002281
0.00147346 -0.000373951 -6.34532e-06
-0.000373951 0.000457362 6.94824e-06
-6.34532e-06 6.94824e-06 0.00018183
0.00105388 -0.00031412 -3.07268e-06
-0.00031412 0.000130455 -7.29303e-07
-3.07268e-06 -7.29303e-07 -0.000135438
0.000883245 -0.000219286 -1.38485e-06
-0.000219286 0.000246983 6.25893e-06
-1.38485e-06 6.25893e-06 3.2418e-05
0.000215968 -0.00018981 6.33204e-06
-0.00018981 -0.000275312 -1.6155e-06
6.33204e-06 -1.6155e-06 -0.000499142
0.000997176 -0.000117179 1.46015e-06
-0.000117179 0.000320631 -1.92397e-06
1.46015e-06 -1.92397e-06 0.000153137
0.00118627 -0.000162169 -3.76458e-06
-0.000162169 0.000448394 -2.43135e-07
-3.76458e-06 -2.43135e-07 0.000277395
0.000244624 -0.000106997 6.92864e-06
-0.000106997 -0.000138795 -1.34288e-05
6.92864e-06 -1.34288e-05 -0.000278575
0.00101633 -6.45995e-05 2.44192e-08
-6.45995e-05 0.000291358 8.2858e-07
2.44192e-08 8.2858e-07 0.000163378
0.000315853 -4.63435e-05 4.42291e-07
-4.63435e-05 -9.17339e-05 -3.08543e-07
4.42291e-07 -3.08543e-07 -0.000225225
0.000650417 -3.48892e-05 1.37483e-07
-3.48892e-05 7.95365e-05 9.95817e-07
1.37483e-07 9.95817e-07 -2.77384e-05
0.000963604 -0.000122625 -8.76057e-07
-0.000122625 0.000319963 4.41571e-08
-8.76057e-07 4.41571e-08 0.000172411
0.000667625 -6.2138e-05 -8.69112e-08
-6.2138e-05 0.000109788 6.60867e-08
-8.69112e-08 6.60867e-08 -2.10988e-06
0.000547737 2.1926e-05 6.76068e-07
2.1926e-05 2.12219e-05 2.96656e-06
6.76068e-07 2.96656e-06 -5.55845e-05
0.000751544 -9.76941e-05 1.35684e-07
-9.76941e-05 0.000174005 -1.92647e-06
1.35684e-07 -1.92647e-06 5.87241e-05
0.000557234 1.3192e-05 -1.48758e-06
1.3192e-05 2.381e-05 -1.26761e-07
-1.48758e-06 -1.26761e-07 -4.76583e-05
0.00137153 3.40137e-05 -1.08173e-05
3.40137e-05 0.000493864 4.42267e-06
-1.08173e-05 4.42267e-06 0.00047452
0.000615772 -4.54534e-05 2.59358e-06
-4.54534e-05 5.65715e-05 -2.98995e-06
2.59358e-06 -2.98995e-06 -1.14004e-05
0.000917397 1.52027e-05 -5.89467e-06
1.52027e-05 0.000214705 6.37345e-07
-5.89467e-06 6.37345e-07 0.000194424
0.000819483 3.26791e-05 -2.31037e-07
3.26791e-05 0.000151525 2.65798e-06
-2.31037e-07 2.65798e-06 0.000153499
0.000497176 5.89369e-07 1.04705e-06
5.89369e-07 -4.13542e-05 -4.83212e-06
1.04705e-06 -4.83212e-06 -6.23984e-05
0.00164987 3.56915e-05 1.00744e-05
3.56915e-05 0.000661379 -1.32206e-06
1.00744e-05 -1.32206e-06 0.000669635
0.00245148 3.11413e-05 9.58074e-06
3.11413e-05 0.0011522 -5.26519e-06
9.58074e-06 -5.26519e-06 0.00116557
0.000367805 1.1259e-05 1.2682e-06
1.1259e-05 -6.57378e-05 -3.2227e-07
1.2682e-06 -3.2227e-07 -0.000179667
0.000250369 1.21119e-05 2.45427e-07
1.21119e-05 -0.000169813 -3.26205e-06
2.45427e-07 -3.26205e-06 -0.000226181
0.00068096 3.46295e-05 -5.75732e-10
3.46295e-05 0.000121729 1.22405e-07
-5.75732e-10 1.22405e-07 2.28591e-05
0.000523599 -2.73048e-06 9.51334e-07
-2.73048e-06 -3.3386e-05 -3.67282e-06
9.51334e-07 -3.67282e-06 -4.34539e-05
0.000386627 2.25962e-06 1.40461e-06
2.25962e-06 -8.81706e-05 -3.16347e-08
1.40461e-06 -3.16347e-08 -0.000135537
0.000372723 -9.09456e-05 -1.95362e-06
-9.09456e-05 -6.2802e-05 2.65233e-07
-1.95362e-06 2.65233e-07 -0.000153537
0.00207301 -9.17889e-06 -8.10695e-06
-9.17889e-06 0.000917229 -4.76373e-06
-8.10695e-06 -4.76373e-06 0.000935507
0.000520817 -3.88808e-07 -6.83535e-08
-3.88808e-07 -3.49944e-05 -4.7767e-08
-6.83535e-08 -4.7767e-08 -4.33148e-05
0.000507747 -1.92749e-05 -2.22069e-06
-1.92749e-05 -1.31289e-05 1.95809e-06
-2.22069e-06 1.95809e-06 -5.52479e-05
0.00202426 5.93352e-06 -4.25699e-06
5.93352e-06 0.00088795 1.67088e-08
-4.25699e-06 1.67088e-08 0.000906478
0.000506687 3.03222e-06 -9.64733e-07
3.03222e-06 -4.3163e-05 3.2066e-06
-9.64733e-07 3.2066e-06 -5.09296e-05
0.00199898 2.06228e-05 -1.07785e-06
2.06228e-05 0.000874027 4.55144e-06
-1.07785e-06 4.55144e-06 0.00089205
0.000258841 -0.000397634 -0.000163121
-0.000397634 -0.000246493 4.49317e-05
-0.000163121 4.49317e-05 -0.00235607
0.00127319 0.000280471 -5.60878e-05
0.000280471 0.00515922 1.12106e-06
-5.60878e-05 1.12106e-06 0.00270536
0.0012798 -0.00032235 -0.000464602
-0.00032235 0.00283265 6.21923e-05
-0.000464602 6.21923e-05 0.00146361
0.000727444 0.000101491 3.10904e-06
0.000101491 0.00015108 1.73656e-06
3.10904e-06 1.73656e-06 9.58716e-06
0.00385497 -0.000485194 -2.26126e-05
-0.000485194 0.00274537 0.000150605
-2.26126e-05 0.000150605 0.00111026
0.00381077 -0.000817334 -0.000186192
-0.000817334 0.00144668 1.40059e-05
-0.000186192 1.40059e-05 -0.00243169
0.005365 0.00145902 0.000295949
0.00145902 0.00517481 -0.00022285
0.000295949 -0.00022285 0.00291779
0.00559093 -0.000500013 6.18666e-05
-0.000500013 0.000749559 -2.89949e-05
6.18666e-05 -2.89949e-05 0.000638405
0.0123259 -0.00119504 0.000184588
-0.00119504 0.0019479 -8.14956e-05
0.000184588 -8.14956e-05 0.000356111
0.001666 0.00304499 -0.000326317
0.00304499 -0.002506 0.000277684
-0.000326317 0.000277684 -0.00305397
0.00909045 0.00281497 3.02781e-05
0.00281497 0.00188051 0.000114293
3.02781e-05 0.000114293 0.00037475
0.0058972 -0.00131401 -0.00011363
-0.00131401 0.000246927 -5.71326e-06
-0.00011363 -5.71326e-06 0.000223086
0.0146523 -0.00193313 4.99709e-05
-0.00193313 0.00445276 -2.07544e-05
4.99709e-05 -2.07544e-05 0.00220633
0.00837961 0.00184095 0.000121203
0.00184095 0.00144909 -0.000212282
0.000121203 -0.000212282 -0.000322767
0.00851473 0.00108658 1.18471e-05
0.00108658 -0.00125712 1.94598e-05
1.18471e-05 1.94598e-05 -0.000424332
0.00269674 -0.00169844 -1.61165e-05
-0.00169844 -0.000208101 2.80576e-05
-1.61165e-05 2.80576e-05 -0.000655798
0.011121 -0.00254099 0.000125663
-0.00254099 0.00493141 -7.50883e-05
0.000125663 -7.50883e-05 0.000872394
0.00584721 -2.85959e-05 0.000110948
-2.85959e-05 0.00202846 -0.000305647
0.000110948 -0.000305647 0.000543445
0.00965037 0.000608605 -8.09209e-05
0.000608605 -0.0012557 0.000169236
-8.09209e-05 0.000169236 0.00101854
0.000811015 -1.91666e-05 3.55632e-06
-1.91666e-05 0.000263197 3.80987e-06
3.55632e-06 3.80987e-06 8.09112e-05
0.000845273 -9.2953e-05 -5.91303e-07
-9.2953e-05 0.000300563 2.55515e-07
-5.91303e-07 2.55515e-07 0.000111034
0.000724523 0.00012594 -3.49321e-07
0.00012594 0.00018119 -4.04092e-06
-3.49321e-07 -4.04092e-06 4.78097e-05
0.000670556 7.91101e-05 1.31517e-06
7.91101e-05 0.000102974 4.50908e-06
1.31517e-06 4.50908e-06 -3.3758e-05
0.000738975 0.000123038 -1.07916e-07
0.000123038 0.000194253 7.37754e-07
-1.07916e-07 7.37754e-07 2.8657e-05
0.000929106 7.13323e-05 -4.48462e-06
7.13323e-05 0.000309963 -2.27399e-06
-4.48462e-06 -2.27399e-06 0.000174496
0.00100985 0.000145286 -1.13314e-06
0.000145286 0.000349896 -2.18193e-08
-1.13314e-06 -2.18193e-08 0.000196947
0.0010257 0.000156759 3.96487e-07
0.000156759 0.000378851 2.01867e-06
3.96487e-07 2.01867e-06 0.000223653
0.000212504 -0.00036101 7.25833e-05
-0.00036101 -0.000845608 -3.35496e-05
7.25833e-05 -3.35496e-05 -0.000801492
0.00183053 -0.000635176 6.17434e-06
-0.000635176 0.000200987 -1.22346e-05
6.17434e-06 -1.22346e-05 0.000164593
0.000907518 -0.000199596 -8.60785e-07
-0.000199596 0.000346005 -1.29434e-05
-8.60785e-07 -1.29434e-05 0.000126264
0.00125565 -0.000546362 2.31343e-05
-0.000546362 0.000514581 -1.90719e-05
2.31343e-05 -1.90719e-05 0.00019451
0.00229729 -0.00031895 -1.00865e-05
-0.00031895 0.00123784 4.0649e-06
-1.00865e-05 4.0649e-06 0.000926419
0.00114363 -0.00010174 -1.75786e-06
-0.00010174 0.000465532 -1.27331e-05
-1.75786e-06 -1.27331e-05 0.000265302
0.00029524 -3.65961e-05 1.50019e-06
-3.65961e-05 -6.37092e-05 4.17287e-06
1.50019e-06 4.17287e-06 -0.00023837
0.000108068 -0.000749585 8.07321e-08
-0.000749585 -0.000855377 -1.99508e-06
8.07321e-08 -1.99508e-06 -0.00083551
0.00120821 3.37065e-05 -5.69241e-07
3.37065e-05 0.000603211 1.22264e-06
-5.69241e-07 1.22264e-06 0.000342555
0.000921353 -0.000202664 -4.91897e-07
-0.000202664 0.000522439 2.38687e-06
-4.91897e-07 2.38687e-06 0.000163425
0.000403972 -0.000321473 1.82543e-05
-0.000321473 -5.857e-05 2.74537e-06
1.82543e-05 2.74537e-06 -0.000111326
0.00135023 0.000113783 2.25125e-07
0.000113783 0.000538087 -1.37474e-06
2.25125e-07 -1.37474e-06 0.000395305
0.0014903 -0.000739396 -2.86835e-06
-0.000739396 0.000220453 -3.43923e-05
-2.86835e-06 -3.43923e-05 0.0001954
-0.000353628 -0.000279109 -1.34045e-05
-0.000279109 -0.000203528 1.82067e-05
-1.34045e-05 1.82067e-05 -0.000388833
-0.00059005 6.27382e-05 1.04494e-05
6.27382e-05 -6.38342e-05 6.43387e-07
1.04494e-05 6.43387e-07 -0.000592881
0.00122078 0.000210358 2.69113e-06
0.000210358 0.000551068 -4.85723e-06
2.69113e-06 -4.85723e-06 0.000367635
-0.000438473 3.21505e-05 2.81705e-05
3.21505e-05 0.000868599 -1.84402e-06
2.81705e-05 -1.84402e-06 0.000243196
0.000929291 -3.53332e-05 0.000108591
-3.53332e-05 0.00120112 -2.28091e-05
0.000108591 -2.28091e-05 -0.00166255
-0.00798535 -0.000174745 -0.000185718
-0.000174745 0.00415483 1.51887e-05
-0.000185718 1.51887e-05 -0.000111958
0.00137737 0.000344806 1.47461e-05
0.000344806 0.000765877 4.80929e-06
1.47461e-05 4.80929e-06 0.000565478
-0.00148611 0.000406194 3.00838e-06
0.000406194 -0.000818788 1.24865e-05
3.00838e-06 1.24865e-05 -0.00115489
0.00488602 0.000298429 0.000163976
0.000298429 0.00279087 2.06576e-05
0.000163976 2.06576e-05 0.00122771
0.00868249 0.00191818 0.000221728
0.00191818 0.00356161 0.000121951
0.000221728 0.000121951 -0.000413288
0.00322044 0.00133099 -8.70076e-05
0.00133099 0.00184889 -8.13049e-05
-8.70076e-05 -8.13049e-05 0.00064602
0.00517519 -0.00147403 -8.99814e-05
-0.00147403 0.00262282 -0.000329424
-8.99814e-05 -0.000329424 0.00015931
0.00157746 0.000301795 8.28764e-05
0.000301795 0.00011244 0.000158513
8.28764e-05 0.000158513 -0.00142544
0.00561134 -0.000109821 -3.01586e-05
-0.000109821 -0.00499562 -0.000186052
-3.01586e-05 -0.000186052 -0.00173936
0.000787951 0.000274329 8.9779e-07
0.000274329 0.000570445 -1.72552e-06
8.9779e-07 -1.72552e-06 0.000324165
-0.00107323 -1.18149e-05 -6.50161e-07
-1.18149e-05 -0.000142711 -9.55058e-07
-6.50161e-07 -9.55058e-07 -0.000162235
0.00339731 5.73246e-05 6.6633e-05
5.73246e-05 -2.39807e-05 2.16535e-05
6.6633e-05 2.16535e-05 -0.000490698
-0.00119489 0.000262381 -8.57704e-06
0.000262381 -0.000334032 -6.68441e-06
-8.57704e-06 -6.68441e-06 -0.000886693
0.0084776 0.00118516 -8.78393e-06
0.00118516 -0.00121711 -1.66247e-05
-8.78393e-06 -1.66247e-05 -0.000442743
0.00394719 0.00132274 0.000155276
0.00132274 0.00327379 9.46931e-05
0.000155276 9.46931e-05 -0.00144472
0.00485349 0.000625252 -0.000120188
0.000625252 0.00285732 3.67602e-06
-0.000120188 3.67602e-06 0.000643664
0.000403296 0.000283836 -1.21161e-05
0.000283836 0.000379262 -2.1136e-05
-1.21161e-05 -2.1136e-05 1.58577e-05
0.00137318 7.31937e-05 1.46923e-05
7.31937e-05 -0.000313144 -2.15747e-05
1.46923e-05 -2.15747e-05 -8.67609e-05
0.00359614 -0.000474223 1.68275e-05
-0.000474223 0.00270724 -0.000152938
1.68275e-05 -0.000152938 0.00117261
0.0119533 0.00284355 0.000271067
0.00284355 0.00248568 -0.000199569
0.000271067 -0.000199569 0.00175533
0.00647325 -6.96529e-05 -9.48961e-05
-6.96529e-05 0.00236009 0.000311116
-9.48961e-05 0.000311116 0.000838955
0.00066077 0.000271633 -6.04655e-06
0.000271633 0.000343161 -9.72538e-05
-6.04655e-06 -9.72538e-05 8.1071e-06
0.00105693 0.00138178 0.00019196
0.00138178 0.00392887 4.00723e-05
0.00019196 4.00723e-05 -0.00294641
0.00160957 0.000295 2.66488e-06
0.000295 0.000909508 1.85161e-05
2.66488e-06 1.85161e-05 0.000634353
0.000489431 0.000157813 2.89941e-06
0.000157813 0.000510215 6.67265e-08
2.89941e-06 6.67265e-08 0.000197543
0.000339804 -1.94541e-05 -1.06701e-05
-1.94541e-05 0.000488546 -1.24785e-05
-1.06701e-05 -1.24785e-05 0.000256572
0.000191201 -3.65888e-05 8.13391e-07
-3.65888e-05 -0.000167346 5.1909e-06
8.13391e-07 5.1909e-06 -0.00028944
0.00118879 1.31542e-06 3.74747e-06
1.31542e-06 0.000712081 6.09499e-07
3.74747e-06 6.09499e-07 0.0004669
0.000594382 1.09563e-05 2.84039e-06
1.09563e-05 0.000578408 -2.20819e-06
2.84039e-06 -2.20819e-06 0.000203163
0.000458381 -4.34687e-05 6.78072e-07
-4.34687e-05 0.000210446 -2.54301e-07
6.78072e-07 -2.54301e-07 2.44797e-05
-5.10789e-05 -1.46646e-05 2.95139e-06
-1.46646e-05 0.000126922 1.37678e-06
2.95139e-06 1.37678e-06 -0.000145738
0.00125004 -0.00022811 2.57925e-06
-0.00022811 0.000742262 -1.21495e-05
2.57925e-06 -1.21495e-05 0.000499815
0.000982445 -7.67278e-05 -3.5527e-06
-7.67278e-05 0.000399152 6.99858e-06
-3.5527e-06 6.99858e-06 0.000285406
0.000161076 -1.37748e-05 -7.74655e-07
-1.37748e-05 -0.000176 2.68117e-06
-7.74655e-07 2.68117e-06 -0.000286849
0.00133216 -0.000192999 2.40477e-06
-0.000192999 0.000545455 2.97798e-06
2.40477e-06 2.97798e-06 0.000408081
-0.00120535 -0.000179458 1.12571e-05
-0.000179458 -0.000843223 4.78539e-06
1.12571e-05 4.78539e-06 -0.00109979
0.000158664 -9.68632e-05 -2.40294e-06
-9.68632e-05 -0.000196442 7.8872e-07
-2.40294e-06 7.8872e-07 -0.000245045
-0.000229594 -0.000219004 3.01285e-06
-0.000219004 -0.000472539 -2.42419e-06
3.01285e-06 -2.42419e-06 -0.000668774
0.00114159 -0.000387796 7.04581e-06
-0.000387796 0.000210616 -4.96977e-06
7.04581e-06 -4.96977e-06 -0.000117246
0.0014914 -0.000445384 -2.25623e-06
-0.000445384 0.000313413 1.37532e-07
-2.25623e-06 1.37532e-07 -1.08675e-05
0.00221458 -0.000333833 1.35936e-07
-0.000333833 0.000969921 -5.24799e-08
1.35936e-07 -5.24799e-08 0.000773668
0.00113435 -0.000337519 9.9463e-07
-0.000337519 0.000231386 4.13842e-07
9.9463e-07 4.13842e-07 -4.7192e-05
0.00175915 -0.000398756 2.71092e-06
-0.000398756 0.000526476 -2.43247e-06
2.71092e-06 -2.43247e-06 0.000256497
0.000601267 -0.000231547 -1.0503e-06
-0.000231547 -4.73033e-05 4.22627e-06
-1.0503e-06 4.22627e-06 -0.000288423
0.00079656 -0.000280603 -7.0312e-07
-0.000280603 -1.67944e-05 -1.93042e-06
-7.0312e-07 -1.93042e-06 -0.000273015
0.000357376 -0.000100533 1.09028e-06
-0.000100533 -3.80354e-05 -2.31012e-06
1.09028e-06 -2.31012e-06 -0.000243114
0.00114962 -0.000271447 -5.94922e-06
-0.000271447 0.000420722 2.88211e-06
-5.94922e-06 2.88211e-06 0.00018847
-0.000965786 -5.69842e-05 -3.27562e-06
-5.69842e-05 -0.000979421 -5.25912e-06
-3.27562e-06 -5.25912e-06 -0.0011737
0.000473763 -2.65548e-05 1.0656e-06
-2.65548e-05 -2.42046e-05 1.27364e-06
1.0656e-06 1.27364e-06 -0.000143465
0.000663687 -9.61407e-05 3.64717e-08
-9.61407e-05 0.000132566 -1.83093e-07
3.64717e-08 -1.83093e-07 -3.44333e-05
0.000772356 -0.000156413 6.00497e-06
-0.000156413 0.000221936 -2.2772e-06
6.00497e-06 -2.2772e-06 4.11297e-05
0.000602447 -6.22411e-05 3.10249e-07
-6.22411e-05 8.50728e-05 1.766e-07
3.10249e-07 1.766e-07 -5.16138e-05
0.000691583 -4.99743e-05 -5.71315e-07
-4.99743e-05 0.000118421 7.03077e-08
-5.71315e-07 7.03077e-08 7.85222e-07
0.00052496 1.93392e-05 6.18464e-07
1.93392e-05 1.30219e-06 3.77497e-06
6.18464e-07 3.77497e-06 -7.99061e-05
0.000790233 -7.8594e-05 -7.15907e-08
-7.8594e-05 0.000194023 -1.20013e-06
-7.15907e-08 -1.20013e-06 7.34146e-05
0.000573113 1.39449e-05 -1.17989e-06
1.39449e-05 3.25944e-05 -1.9873e-07
-1.17989e-06 -1.9873e-07 -4.21095e-05
0.000487445 2.92136e-05 -1.06704e-06
2.92136e-05 -4.33993e-05 5.44048e-06
-1.06704e-06 5.44048e-06 -6.97664e-05
0.000675999 -3.93371e-05 2.12587e-06
-3.93371e-05 8.99299e-05 -2.90126e-06
2.12587e-06 -2.90126e-06 2.10603e-05
0.000505806 1.88806e-05 2.16226e-07
1.88806e-05 -3.81304e-05 -3.04583e-08
2.16226e-07 -3.04583e-08 -6.15958e-05
0.00243458 8.45454e-05 -3.21699e-06
8.45454e-05 0.00114799 2.26904e-06
-3.21699e-06 2.26904e-06 0.00115526
0.000503912 1.04432e-05 1.31224e-06
1.04432e-05 -3.94275e-05 -5.06243e-06
1.31224e-06 -5.06243e-06 -6.19663e-05
0.00168202 4.87107e-05 1.21209e-05
4.87107e-05 0.000682459 -1.10674e-06
1.21209e-05 -1.10674e-06 0.00068873
0.00250847 4.70073e-05 1.55257e-05
4.70073e-05 0.00118775 -5.30649e-06
1.55257e-05 -5.30649e-06 0.00119973
0.000326394 1.01297e-05 1.08375e-06
1.01297e-05 -0.000106854 -1.52855e-06
1.08375e-06 -1.52855e-06 -0.000213709
0.00026531 6.4941e-06 7.42682e-07
6.4941e-06 -0.000163901 -2.96494e-06
7.42682e-07 -2.96494e-06 -0.000228028
0.000523745 2.30433e-05 -4.91213e-07
2.30433e-05 2.88516e-05 -1.13136e-06
-4.91213e-07 -1.13136e-06 -8.21481e-05
0.000533482 -7.24829e-06 1.43459e-06
-7.24829e-06 -2.74767e-05 -4.02244e-06
1.43459e-06 -4.02244e-06 -4.01148e-05
0.000238801 9.89901e-06 -5.89051e-07
9.89901e-06 -0.000177321 -1.48999e-06
-5.89051e-07 -1.48999e-06 -0.000234906
0.00068901 4.30511e-05 -6.32929e-07
4.30511e-05 0.000136878 1.34063e-06
-6.32929e-07 1.34063e-06 3.14298e-05
0.00211045 -2.25155e-05 -1.33139e-05
-2.25155e-05 0.000940048 -4.66441e-06
-1.33139e-05 -4.66441e-06 0.000957716
0.000520613 -3.90817e-06 -3.68392e-07
-3.90817e-06 -3.55823e-05 -5.76954e-08
-3.68392e-07 -5.76954e-08 -4.54014e-05
0.000188763 8.84894e-06 7.48159e-07
8.84894e-06 -0.000206422 1.69296e-06
7.48159e-07 1.69296e-06 -0.000257002
0.00204409 -7.71691e-06 -3.86823e-06
-7.71691e-06 0.000899325 4.98622e-08
-3.86823e-06 4.98622e-08 0.000917844
0.00051323 -6.3128e-07 -1.06282e-06
-6.3128e-07 -3.98722e-05 3.45333e-06
-1.06282e-06 3.45333e-06 -4.80038e-05
0.00204708 7.44013e-06 3.8681e-06
7.44013e-06 0.000902222 4.70255e-06
3.8681e-06 4.70255e-06 0.000920521
0.000438669 -1.63538e-05 5.29733e-05
-1.63538e-05 0.000918557 1.1191e-05
5.29733e-05 1.1191e-05 0.000782726
0.000170291 -0.000240336 -1.9253e-05
-0.000240336 0.000100541 -1.49928e-05
-1.9253e-05 -1.49928e-05 -0.00244364
0.000586143 0.000220898 3.54923e-05
0.000220898 0.00489722 -2.8383e-05
3.54923e-05 -2.8383e-05 0.00254677
0.000756981 0.000109973 3.05093e-08
0.000109973 0.0001615 2.7766e-07
3.05093e-08 2.7766e-07 2.86379e-05
0.000514594 7.53769e-05 3.09639e-06
7.53769e-05 -1.76671e-06 4.78529e-07
3.09639e-06 4.78529e-07 -0.000124582
0.000979039 0.000155474 4.2845e-06
0.000155474 0.000296231 3.47931e-06
4.2845e-06 3.47931e-06 0.000156922
0.00386281 -8.39099e-05 -1.16619e-05
-8.39099e-05 -0.000302806 0.000209348
-1.16619e-05 0.000209348 -0.00103598
0.00381258 -0.000452841 4.50126e-05
-0.000452841 0.00260146 -6.24369e-06
4.50126e-05 -6.24369e-06 0.00129921
0.00434951 -0.000933273 9.77715e-05
-0.000933273 0.00177705 -0.000170508
9.77715e-05 -0.000170508 -0.00223428
0.00757994 -0.00163195 -7.22449e-05
-0.00163195 0.000859472 -1.87421e-05
-7.22449e-05 -1.87421e-05 0.000988596
0.00118216 -0.00170445 -0.000217627
-0.00170445 -0.00109088 9.96113e-05
-0.000217627 9.96113e-05 -0.00399519
0.0169021 0.00263383 0.000127158
0.00263383 0.00651167 8.50018e-05
0.000127158 8.50018e-05 0.00434585
0.00495346 0.000198291 0.000153267
0.000198291 -0.00311238 -0.000156945
0.000153267 -0.000156945 -0.00272462
0.0049453 -0.00195074 -3.07853e-05
-0.00195074 0.000742271 1.05874e-05
-3.07853e-05 1.05874e-05 0.000415739
0.00729228 -0.00218981 -6.54551e-05
-0.00218981 0.00303171 2.37898e-05
-6.54551e-05 2.37898e-05 -0.000884856
-0.00339613 0.00232534 -6.34896e-05
0.00232534 0.00151081 -0.000211158
-6.34896e-05 -0.000211158 -0.00168812
0.00763371 0.000211496 -3.66456e-05
0.000211496 -0.00321951 9.38927e-05
-3.66456e-05 9.38927e-05 -0.000368302
0.0010865 -0.00112286 -8.28836e-05
-0.00112286 0.000204939 1.47754e-05
-8.28836e-05 1.47754e-05 -0.000154249
0.0112461 -0.00215337 -0.000157682
-0.00215337 0.00525323 0.000111076
-0.000157682 0.000111076 0.00098212
-0.00600866 -3.67493e-05 3.44867e-05
-3.67493e-05 0.000869317 -0.000275489
3.44867e-05 -0.000275489 -0.00203526
0.00669147 -0.00122517 7.12907e-05
-0.00122517 -0.00200757 1.78152e-05
7.12907e-05 1.78152e-05 -0.00100633
0.000539082 7.8432e-05 2.51629e-06
7.8432e-05 4.49143e-05 9.0181e-06
2.51629e-06 9.0181e-06 -9.66869e-05
0.000740589 -2.0185e-05 2.27069e-06
-2.0185e-05 0.00021182 -1.80671e-06
2.27069e-06 -1.80671e-06 2.46093e-05
0.000870635 -0.000105811 -7.07507e-07
-0.000105811 0.00028838 -6.12521e-06
-7.07507e-07 -6.12521e-06 0.000104884
0.000699058 9.73993e-05 -1.36862e-06
9.73993e-05 0.000122934 1.54524e-07
-1.36862e-06 1.54524e-07 -1.81611e-05
0.000762154 0.000129886 2.21923e-08
0.000129886 0.000211433 -2.27543e-06
2.21923e-08 -2.27543e-06 5.31443e-05
0.00113491 0.000158896 -3.42894e-06
0.000158896 0.000431682 -1.63528e-06
-3.42894e-06 -1.63528e-06 0.000274505
-0.000837356 -0.000664453 1.77517e-05
-0.000664453 -0.00139373 2.10915e-06
1.77517e-05 2.10915e-06 -0.00135217
-0.000129555 -0.000235754 2.05881e-05
-0.000235754 -0.000361738 -1.99226e-05
2.05881e-05 -1.99226e-05 -0.000365646
0.00015945 2.28682e-05 -2.96525e-06
2.28682e-05 -0.000139308 -5.91468e-06
-2.96525e-06 -5.91468e-06 -0.000320751
0.00129139 -0.000325849 4.45281e-05
-0.000325849 0.000661839 -2.6819e-05
4.45281e-05 -2.6819e-05 0.000336319
0.00141488 -2.16965e-05 -5.20815e-06
-2.16965e-05 0.000724307 -4.79353e-06
-5.20815e-06 -4.79353e-06 0.000465872
0.000701977 9.21104e-05 1.29525e-06
9.21104e-05 0.000173347 2.17475e-06
1.29525e-06 2.17475e-06 2.15965e-05
0.000850299 0.000147662 2.07157e-07
0.000147662 0.000325358 -2.6696e-06
2.07157e-07 -2.6696e-06 0.000162934
0.000332965 -0.000750803 3.15725e-06
-0.000750803 -0.000418194 -5.0269e-06
3.15725e-06 -5.0269e-06 -0.000534873
0.000378175 5.9351e-07 -3.5912e-06
5.9351e-07 0.000410515 2.51097e-06
-3.5912e-06 2.51097e-06 -6.66991e-06
0.000966516 -0.000197969 8.09671e-06
-0.000197969 0.000536361 -4.7245e-06
8.09671e-06 -4.7245e-06 0.000312547
0.0010632 0.000142511 2.81834e-06
0.000142511 0.000431725 -5.18792e-06
2.81834e-06 -5.18792e-06 0.000291244
-0.00236511 -9.41599e-05 -9.17758e-05
-9.41599e-05 -0.00070493 -1.97076e-05
-9.17758e-05 -1.97076e-05 -0.00133898
-1.86718e-06 -0.000119404 -1.93038e-05
-0.000119404 0.000204633 1.07776e-05
-1.93038e-05 1.07776e-05 -2.65038e-05
0.000447396 0.000101075 6.04052e-06
0.000101075 0.000413906 6.17015e-06
6.04052e-06 6.17015e-06 7.81456e-05
0.000298097 2.95264e-05 -1.66552e-06
2.95264e-05 -0.000488904 4.88443e-07
-1.66552e-06 4.88443e-07 -0.000970834
-0.000782418 3.7888e-05 3.80999e-06
3.7888e-05 0.000570615 -1.53197e-05
3.80999e-06 -1.53197e-05 5.91287e-05
0.000223859 -8.70873e-05 0.000236711
-8.70873e-05 0.00079412 3.52166e-06
0.000236711 3.52166e-06 -0.00208086
-0.000281107 0.000222843 -2.12743e-06
0.000222843 -4.60135e-05 1.9861e-05
-2.12743e-06 1.9861e-05 -0.000316803
0.000843515 0.000576546 -9.01065e-07
0.000576546 0.000278889 -6.53275e-06
-9.01065e-07 -6.53275e-06 -0.000158298
-0.000987285 -2.67689e-05 3.35553e-06
-2.67689e-05 -0.000151242 -3.92583e-06
3.35553e-06 -3.92583e-06 -0.000250587
-0.00366667 0.000634293 5.03233e-05
0.000634293 0.00118012 0.000122142
5.03233e-05 0.000122142 -0.00339564
-0.0074121 0.000956201 -0.0001513
0.000956201 -0.00322865 -0.000358793
-0.0001513 -0.000358793 -0.00625799
0.00304889 8.83025e-05 5.74325e-05
8.83025e-05 5.08977e-05 9.03259e-05
5.74325e-05 9.03259e-05 -1.24837e-05
0.00487447 0.000262865 -0.00015834
0.000262865 -0.00297338 0.000156541
-0.00015834 0.000156541 -0.00269278
0.000458604 0.000242213 4.1905e-06
0.000242213 0.000439474 -1.30241e-06
4.1905e-06 -1.30241e-06 0.000128611
0.00111752 1.18281e-05 2.13756e-05
1.18281e-05 -0.000430918 -2.88651e-05
2.13756e-05 -2.88651e-05 -0.00017473
0.00354314 -0.00035557 -4.67503e-05
-0.00035557 0.0025517 7.52664e-06
-4.67503e-05 7.52664e-06 0.00125166
0.000797294 0.000393319 -7.3896e-05
0.000393319 0.000927101 -6.29868e-06
-7.3896e-05 -6.29868e-06 -2.06088e-05
0.00812161 0.0028489 7.43115e-05
0.0028489 0.000156954 -0.000261477
7.43115e-05 -0.000261477 -0.000757314
-0.00195238 0.00188044 5.7887e-05
0.00188044 0.00135035 0.000209629
5.7887e-05 0.000209629 -0.00155113
0.00674012 0.00027526 4.96714e-05
0.00027526 0.00618207 -2.47939e-05
4.96714e-05 -2.47939e-05 -5.7319e-05
0.00119562 -3.13688e-05 4.28764e-05
-3.13688e-05 0.00137725 -2.4638e-05
4.28764e-05 -2.4638e-05 0.000681337
0.000409955 -2.16219e-05 -4.51103e-05
-2.16219e-05 0.000878145 2.94217e-06
-4.51103e-05 2.94217e-06 0.000729254
0.0027398 -0.000641884 0.000461481
-0.000641884 0.000972772 -0.000202
0.000461481 -0.000202 -0.00303529
0.0098837 0.00386367 -5.23301e-06
0.00386367 0.007219 1.66086e-06
-5.23301e-06 1.66086e-06 0.00634979
-0.000978206 0.0022549 -3.13033e-05
0.0022549 -0.00226647 0.000513796
-3.13033e-05 0.000513796 -0.00378435
0.0124752 -0.00221769 0.000182066
-0.00221769 0.00540442 -0.000157368
0.000182066 -0.000157368 0.000903042
0.00319531 -0.00059942 -5.99038e-05
-0.00059942 0.00200323 5.48273e-05
-5.99038e-05 5.48273e-05 0.00140267
0.00122712 0.00021915 8.33374e-06
0.00021915 0.000927692 5.90172e-06
8.33374e-06 5.90172e-06 0.000612479
2.9772e-05 -2.14345e-05 -1.48668e-05
-2.14345e-05 0.000251058 -4.96678e-07
-1.48668e-05 -4.96678e-07 1.15968e-05
0.00156685 -0.000343848 2.30863e-05
-0.000343848 0.00098791 -9.81967e-06
2.30863e-05 -9.81967e-06 0.00062906
0.000798258 -8.50638e-05 6.85265e-07
-8.50638e-05 0.000380709 3.9883e-06
6.85265e-07 3.9883e-06 0.000224131
6.78815e-05 -3.98787e-05 -3.44901e-06
-3.98787e-05 0.00018818 4.04781e-06
-3.44901e-06 4.04781e-06 -8.67683e-05
0.000383474 -0.000207877 -2.1193e-06
-0.000207877 0.000321832 -4.69109e-07
-2.1193e-06 -4.69109e-07 7.43402e-05
0.00109723 -0.000405287 2.70884e-05
-0.000405287 0.000448669 -2.11365e-05
2.70884e-05 -2.11365e-05 0.000260005
0.00223104 -0.000275681 -4.25388e-06
-0.000275681 0.00106998 3.98561e-06
-4.25388e-06 3.98561e-06 0.0009099
0.00207926 -0.000503068 9.15239e-06
-0.000503068 0.000927585 -1.98592e-06
9.15239e-06 -1.98592e-06 0.000635657
0.00192183 -0.00050985 1.39251e-05
-0.00050985 0.000809682 -6.41073e-07
1.39251e-05 -6.41073e-07 0.000345313
0.000405181 -0.000230544 -4.03381e-06
-0.000230544 -0.000120772 -2.08363e-06
-4.03381e-06 -2.08363e-06 -0.000290358
0.00150137 -0.000423926 -2.93811e-06
-0.000423926 0.000382429 5.79585e-07
-2.93811e-06 5.79585e-07 5.08963e-05
0.00209246 -0.000575025 4.68321e-07
-0.000575025 0.000665969 1.27561e-06
4.68321e-07 1.27561e-06 0.000238379
0.00169043 -0.000574096 -3.47903e-06
-0.000574096 0.000326188 2.00671e-06
-3.47903e-06 2.00671e-06 -4.32503e-05
0.00150913 -0.000443277 -9.74419e-07
-0.000443277 0.000343168 9.70199e-07
-9.74419e-07 9.70199e-07 3.28777e-05
0.00142016 -0.000442216 -3.28398e-06
-0.000442216 0.000266647 1.4921e-06
-3.28398e-06 1.4921e-06 -6.00759e-05
0.00115994 -0.000341394 -5.74682e-06
-0.000341394 0.000215325 7.82774e-07
-5.74682e-06 7.82774e-07 -7.32025e-05
0.00231802 -0.000432654 3.31739e-06
-0.000432654 0.000918073 -4.83607e-07
3.31739e-06 -4.83607e-07 0.000654269
0.00144848 -0.000369205 4.68036e-06
-0.000369205 0.000341056 -2.29331e-06
4.68036e-06 -2.29331e-06 7.56008e-05
8.30269e-05 -0.000122727 -6.31863e-07
-0.000122727 -0.000285124 2.02049e-08
-6.31863e-07 2.02049e-08 -0.000502825
0.000952969 -0.000278043 3.4643e-06
-0.000278043 0.000181865 -1.93671e-06
3.4643e-06 -1.93671e-06 -6.8637e-05
0.000675909 -0.000261834 3.10456e-06
-0.000261834 -8.05897e-05 -4.23424e-06
3.10456e-06 -4.23424e-06 -0.000330067
1.06628e-05 -1.18236e-05 6.87701e-07
-1.18236e-05 -0.000275594 1.89261e-06
6.87701e-07 1.89261e-06 -0.000439681
0.00102848 -0.000157873 -4.52184e-07
-0.000157873 0.000368769 -9.97167e-08
-4.52184e-07 -9.97167e-08 0.000154276
0.00129205 -0.00031135 -2.63604e-06
-0.00031135 0.000520588 -2.2773e-06
-2.63604e-06 -2.2773e-06 0.000273162
0.000682847 -2.80709e-06 -7.74977e-07
-2.80709e-06 9.48371e-05 4.38859e-06
-7.74977e-07 4.38859e-06 4.97779e-06
0.000796476 -7.11551e-05 -2.31309e-07
-7.11551e-05 0.000172033 -2.05343e-07
-2.31309e-07 -2.05343e-07 4.57586e-05
0.000399763 -7.50777e-05 -2.539e-07
-7.50777e-05 -1.67746e-05 1.17417e-06
-2.539e-07 1.17417e-06 -0.000181459
0.000721185 -7.09272e-05 2.92846e-07
-7.09272e-05 0.000140977 -1.25417e-06
2.92846e-07 -1.25417e-06 1.80961e-05
0.000615751 -2.23055e-05 -1.14289e-07
-2.23055e-05 5.11131e-05 -2.44566e-07
-1.14289e-07 -2.44566e-07 -2.83821e-05
0.000493293 3.78233e-05 3.97083e-08
3.78233e-05 -3.28919e-05 6.43007e-06
3.97083e-08 6.43007e-06 -6.37385e-05
0.000616161 -2.92258e-05 1.36432e-06
-2.92258e-05 5.38859e-05 -2.96542e-06
1.36432e-06 -2.96542e-06 -1.90284e-05
0.000517614 3.20595e-05 -7.67703e-07
3.20595e-05 -2.50571e-05 -1.11278e-07
-7.67703e-07 -1.11278e-07 -5.19056e-05
0.00254302 9.30406e-05 -2.93363e-05
9.30406e-05 0.00122106 4.279e-06
-2.93363e-05 4.279e-06 0.00122707
0.000529604 2.01797e-05 1.25561e-06
2.01797e-05 -2.38155e-05 -5.1441e-06
1.25561e-06 -5.1441e-06 -4.74979e-05
0.00165578 6.21938e-05 1.42377e-05
6.21938e-05 0.000670108 -8.85545e-07
1.42377e-05 -8.85545e-07 0.000674639
0.00253996 6.3871e-05 1.99714e-05
6.3871e-05 0.00120947 -4.9806e-06
1.99714e-05 -4.9806e-06 0.00121973
0.000698995 7.63534e-05 1.95017e-06
7.63534e-05 0.000130033 -6.98607e-07
1.95017e-06 -6.98607e-07 1.3179e-05
0.000560238 3.54603e-05 7.77858e-07
3.54603e-05 1.4518e-05 -2.62419e-06
7.77858e-07 -2.62419e-06 -5.31183e-05
0.000501466 4.36953e-05 -1.14267e-06
4.36953e-05 1.30642e-05 -1.19971e-06
-1.14267e-06 -1.19971e-06 -0.000103029
0.000519772 -8.49122e-06 9.18589e-07
-8.49122e-06 -3.54821e-05 -4.71536e-06
9.18589e-07 -4.71536e-06 -5.16058e-05
0.000387264 2.78664e-05 -1.87878e-06
2.78664e-05 -8.86224e-05 -1.48133e-06
-1.87878e-06 -1.48133e-06 -0.000151947
0.000724103 5.76636e-05 -9.08415e-07
5.76636e-05 0.000152166 -1.01854e-06
-9.08415e-07 -1.01854e-06 4.19725e-05
0.00219347 -3.71034e-05 -1.78034e-05
-3.71034e-05 0.000991646 -4.67609e-06
-1.78034e-05 -4.67609e-06 0.0010079
0.000517388 -8.40603e-06 -1.46134e-07
-8.40603e-06 -3.75471e-05 -9.21488e-08
-1.46134e-07 -9.21488e-08 -4.99187e-05
0.000187853 8.21698e-06 -1.47679e-06
8.21698e-06 -0.0002087 5.51388e-07
-1.47679e-06 5.51388e-07 -0.000267268
0.00212745 -2.15713e-05 -4.68895e-06
-2.15713e-05 0.000950385 1.08201e-07
-4.68895e-06 1.08201e-07 0.000968084
0.000515363 -5.50578e-06 -1.48511e-06
-5.50578e-06 -3.9058e-05 3.50433e-06
-1.48511e-06 3.50433e-06 -4.86827e-05
0.00207565 -6.25145e-06 8.69507e-06
-6.25145e-06 0.000918605 4.74307e-06
8.69507e-06 4.74307e-06 0.000937014
0.00124828 -0.000100318 -2.24368e-05
-0.000100318 -0.000348388 2.58625e-05
-2.24368e-05 2.58625e-05 -0.0001572
0.000273008 -0.000117276 2.94138e-05
-0.000117276 0.000801418 -1.87848e-06
2.94138e-05 -1.87848e-06 0.000669334
0.000129863 -0.000237791 0.000134169
-0.000237791 0.000268065 -6.97942e-05
0.000134169 -6.97942e-05 -0.00243758
0.000435643 3.96884e-05 2.49487e-06
3.96884e-05 -5.91933e-05 7.16563e-07
2.49487e-06 7.16563e-07 -0.000179901
0.00144908 8.51162e-05 -3.84147e-08
8.51162e-05 0.000540562 3.23933e-06
-3.84147e-08 3.23933e-06 0.000401071
0.000766317 0.000119253 -1.24708e-06
0.000119253 0.000166617 -7.80037e-07
-1.24708e-06 -7.80037e-07 3.86453e-05
0.000530612 6.16302e-05 4.05212e-07
6.16302e-05 -2.04479e-06 5.92201e-07
4.05212e-07 5.92201e-07 -0.000117517
0.000602696 8.0967e-05 1.61733e-07
8.0967e-05 6.17217e-05 -1.53072e-09
1.61733e-07 -1.53072e-09 -6.59165e-05
0.000588631 7.07626e-05 2.44484e-06
7.07626e-05 4.20436e-05 -6.16378e-07
2.44484e-06 -6.16378e-07 -7.6317e-05
0.00064107 0.000163822 5.95165e-06
0.000163822 0.000121434 3.18016e-06
5.95165e-06 3.18016e-06 -2.39653e-05
0.000386719 0.000272909 9.46572e-05
0.000272909 -0.000336344 0.000209903
9.46572e-05 0.000209903 -0.00159728
0.0033609 -5.87973e-05 -2.18043e-05
-5.87973e-05 -3.209e-05 5.63894e-05
-2.18043e-05 5.63894e-05 -0.000564973
0.00351981 -0.000349604 7.88622e-05
-0.000349604 0.00241039 -8.64193e-05
7.88622e-05 -8.64193e-05 0.00143084
0.00563187 -0.000129041 -7.82635e-06
-0.000129041 -0.00520395 0.000109397
-7.82635e-06 0.000109397 -0.00170141
0.00307341 -0.00164204 -8.83273e-05
-0.00164204 0.000741434 6.27943e-05
-8.83273e-05 6.27943e-05 0.000250219
-0.0011419 -0.00224748 -8.10793e-05
-0.00224748 0.000433524 9.12714e-05
-8.10793e-05 9.12714e-05 -0.00422224
0.0112797 0.00281053 8.77273e-05
0.00281053 0.00567947 -9.98217e-05
8.77273e-05 -9.98217e-05 0.0027737
0.00304199 -0.00147632 -3.49241e-05
-0.00147632 0.00063368 1.31579e-05
-3.49241e-05 1.31579e-05 0.000536218
-0.00114032 -0.00058579 1.42949e-06
-0.00058579 0.00235616 4.00968e-05
1.42949e-06 4.00968e-05 -0.00310297
0.00548597 0.000336506 8.87551e-05
0.000336506 0.0026512 -1.48137e-05
8.87551e-05 -1.48137e-05 0.000413236
0.0120168 -0.00178661 -4.52474e-05
-0.00178661 0.00156878 -3.23348e-05
-4.52474e-05 -3.23348e-05 0.00290849
-0.000240669 -0.000280591 -9.82001e-05
-0.000280591 -0.000215828 9.06349e-05
-9.82001e-05 9.06349e-05 3.83343e-05
0.00201252 0.00181246 -0.000113299
0.00181246 0.00334363 -8.06619e-05
-0.000113299 -8.06619e-05 -0.00224203
-0.00481699 -0.0031922 4.63684e-05
-0.0031922 -0.00225321 -0.000195266
4.63684e-05 -0.000195266 -0.00545048
0.00900289 -0.00201154 7.67238e-05
-0.00201154 0.000926426 -0.000402594
7.67238e-05 -0.000402594 0.000859549
0.000815604 2.80513e-05 8.31033e-06
2.80513e-05 0.000264136 2.04707e-06
8.31033e-06 2.04707e-06 0.000117665
0.000651398 0.000112989 -8.34389e-07
0.000112989 0.000121678 -1.28594e-06
-8.34389e-07 -1.28594e-06 -2.19962e-05
0.000736831 -1.74983e-05 -6.90588e-07
-1.74983e-05 0.000220798 -2.51909e-06
-6.90588e-07 -2.51909e-06 1.95496e-05
0.000865807 9.58732e-05 -2.69484e-06
9.58732e-05 0.00024599 -5.40516e-06
-2.69484e-06 -5.40516e-06 8.88457e-05
-0.000306265 -0.000568298 -6.80505e-06
-0.000568298 -0.00067957 3.80348e-05
-6.80505e-06 3.80348e-05 -0.00081723
0.00189987 -0.000210721 -1.4489e-06
-0.000210721 0.00118459 -1.94584e-05
-1.4489e-06 -1.94584e-05 0.00088785
0.000674656 6.34934e-05 -3.96768e-06
6.34934e-05 0.000138324 -6.18027e-06
-3.96768e-06 -6.18027e-06 5.39985e-06
0.000743101 0.000197839 -2.31067e-06
0.000197839 0.00027283 1.34321e-06
-2.31067e-06 1.34321e-06 0.000105174
0.00165252 4.93429e-05 1.61542e-06
4.93429e-05 0.00107929 -1.17302e-05
1.61542e-06 -1.17302e-05 0.00075624
0.000810141 7.67115e-05 4.03204e-06
7.67115e-05 0.000245331 2.81779e-06
4.03204e-06 2.81779e-06 0.000127386
0.000313077 0.000133471 -1.26629e-06
0.000133471 0.000366598 7.86831e-07
-1.26629e-06 7.86831e-07 6.02167e-06
0.00128345 -0.000277882 -6.37578e-06
-0.000277882 0.00112645 3.73478e-06
-6.37578e-06 3.73478e-06 0.000313386
-0.00013179 -6.8579e-05 2.94816e-05
-6.8579e-05 0.000248128 -1.7563e-07
2.94816e-05 -1.7563e-07 -3.4796e-05
0.000233885 0.00011406 3.75417e-06
0.00011406 0.000175284 -1.65091e-06
3.75417e-06 -1.65091e-06 -4.38361e-05
0.000517031 -7.11763e-05 -4.50181e-05
-7.11763e-05 0.00161696 -4.20034e-05
-4.50181e-05 -4.20034e-05 0.000239601
0.00156115 0.000233863 1.37433e-06
0.000233863 0.00113022 1.82823e-05
1.37433e-06 1.82823e-05 0.000737572
-0.000532625 3.9787e-05 -2.81972e-05
3.9787e-05 0.000905316 1.29799e-05
-2.81972e-05 1.29799e-05 0.000224207
0.00100438 -8.26798e-06 1.80143e-06
-8.26798e-06 -0.000188872 7.38024e-07
1.80143e-06 7.38024e-07 -0.000251637
-0.00106478 3.96476e-05 3.53868e-06
3.96476e-05 0.000270344 -3.10648e-05
3.53868e-06 -3.10648e-05 -8.29496e-05
0.000108046 0.000149903 -6.01977e-06
0.000149903 0.000323939 7.84115e-06
-6.01977e-06 7.84115e-06 7.76289e-05
-0.00128073 0.000498909 8.74293e-05
0.000498909 -0.0006706 7.54309e-05
8.74293e-05 7.54309e-05 -0.00112746
0.000951555 -6.80422e-06 3.06891e-05
-6.80422e-06 -0.000507893 -4.96756e-06
3.06891e-05 -4.96756e-06 -0.000143608
0.00319979 -0.0015906 0.000125622
-0.0015906 0.00411348 -0.000152373
0.000125622 -0.000152373 -0.00259897
0.0127162 0.00257311 -0.00012297
0.00257311 0.00576011 9.08164e-05
-0.00012297 9.08164e-05 0.00317803
0.00350827 -0.000266942 -7.87898e-05
-0.000266942 0.0022976 9.15611e-05
-7.87898e-05 9.15611e-05 0.00139038
0.00866146 0.00284991 -1.64572e-05
0.00284991 0.00187215 -0.000105828
-1.64572e-05 -0.000105828 0.000332311
0.000282632 0.000127194 -4.42289e-05
0.000127194 0.00079898 1.05418e-05
-4.42289e-05 1.05418e-05 8.51751e-05
0.000482709 -5.23002e-05 -3.39983e-05
-5.23002e-05 0.000756415 1.55584e-06
-3.39983e-05 1.55584e-06 0.000724984
0.00362794 -0.000802883 0.000184242
-0.000802883 0.00138941 -1.62125e-05
0.000184242 -1.62125e-05 -0.00248315
-0.000916758 -0.000189159 2.08107e-05
-0.000189159 -0.000315188 2.78872e-05
2.08107e-05 2.78872e-05 -0.000597586
0.00330014 0.00425598 0.000299045
0.00425598 0.00346303 -0.000147101
0.000299045 -0.000147101 0.00309458
0.00765913 0.00182984 -0.000115271
0.00182984 0.00118374 0.000213834
-0.000115271 0.000213834 -0.000449203
-0.00300163 -0.000906944 9.13887e-05
-0.000906944 0.00164853 -0.000101084
9.13887e-05 -0.000101084 -0.00434473
5.75235e-06 -0.000282745 2.64437e-05
-0.000282745 0.0004565 -1.70823e-05
2.64437e-05 -1.70823e-05 -0.000228843
0.000291465 -0.000368258 0.000159711
-0.000368258 -0.000312216 -3.5606e-05
0.000159711 -3.5606e-05 -0.00240638
-0.00231329 -2.15393e-05 -0.000529695
-2.15393e-05 0.00395733 0.000128745
-0.000529695 0.000128745 0.00129678
0.00825352 0.00402982 -0.000382014
0.00402982 0.00178981 0.000426627
-0.000382014 0.000426627 0.000923827
0.00826831 -0.0018106 -5.58833e-05
-0.0018106 0.0035966 1.86295e-05
-5.58833e-05 1.86295e-05 -1.73178e-05
0.00273408 -0.000908892 -4.79734e-05
-0.000908892 0.00153672 3.13253e-05
-4.79734e-05 3.13253e-05 0.0010545
4.51036e-05 -2.43904e-05 1.30786e-05
-2.43904e-05 0.000214243 1.2374e-05
1.30786e-05 1.2374e-05 -2.24717e-05
0.000368135 -0.000255703 4.79459e-06
-0.000255703 0.00037636 -3.69489e-07
4.79459e-06 -3.69489e-07 2.21779e-05
0.00129627 -0.000510201 1.46419e-05
-0.000510201 0.00059927 -4.21859e-07
1.46419e-05 -4.21859e-07 0.000458504
-0.000452616 -0.000184926 -2.02431e-06
-0.000184926 -8.37268e-05 7.35892e-06
-2.02431e-06 7.35892e-06 -0.000331891
-0.000762933 -0.000241838 9.20458e-07
-0.000241838 -0.000481822 -1.8999e-06
9.20458e-07 -1.8999e-06 -0.000678237
0.00268739 -0.000622667 4.04808e-05
-0.000622667 0.00105846 -2.94182e-06
4.04808e-05 -2.94182e-06 0.000796904
0.00521555 -0.000835588 -1.31923e-05
-0.000835588 0.00261336 5.05617e-06
-1.31923e-05 5.05617e-06 0.00228037
0.00260582 -0.000589743 7.00211e-06
-0.000589743 0.00110679 2.3941e-07
7.00211e-06 2.3941e-07 0.000657731
0.00159642 -0.0005679 1.02389e-05
-0.0005679 0.000402293 -8.22003e-06
1.02389e-05 -8.22003e-06 -7.86705e-05
0.00146844 -0.000417613 -9.91622e-06
-0.000417613 0.000335624 5.83938e-07
-9.91622e-06 5.83938e-07 6.16321e-06
0.00221572 -0.000598938 1.9794e-06
-0.000598938 0.000706144 1.74326e-07
1.9794e-06 1.74326e-07 0.000271038
0.00225686 -0.000641426 3.40728e-06
-0.000641426 0.000679659 -8.14856e-06
3.40728e-06 -8.14856e-06 0.000240169
0.00201631 -0.000568767 -1.6247e-06
-0.000568767 0.00040077 -4.26746e-06
-1.6247e-06 -4.26746e-06 8.18379e-05
0.0019446 -0.000597514 -7.03045e-07
-0.000597514 0.000449825 1.59057e-06
-7.03045e-07 1.59057e-06 0.000100791
0.00186318 -0.000595417 -1.64341e-06
-0.000595417 0.000421191 -3.3435e-08
-1.64341e-06 -3.3435e-08 4.33431e-05
0.00188356 -0.000451407 7.23911e-06
-0.000451407 0.000594063 2.53441e-06
7.23911e-06 2.53441e-06 0.000306183
0.00126519 -0.000410256 8.39138e-07
-0.000410256 0.000200821 3.30456e-07
8.39138e-07 3.30456e-07 -9.60236e-05
0.00130123 -0.000432006 -2.9803e-07
-0.000432006 0.000196112 1.5704e-07
-2.9803e-07 1.5704e-07 -0.000131992
0.00150085 -0.000326727 3.53795e-06
-0.000326727 0.000467117 -2.61217e-07
3.53795e-06 -2.61217e-07 0.000223142
0.00141663 -0.000342355 -1.35324e-06
-0.000342355 0.0003667 -1.49103e-06
-1.35324e-06 -1.49103e-06 0.000118893
0.0010704 -0.000332165 9.54459e-06
-0.000332165 0.000115362 -5.53918e-06
9.54459e-06 -5.53918e-06 -0.000143735
0.000579076 -0.000147824 2.90907e-06
-0.000147824 9.03477e-05 8.78864e-07
2.90907e-06 8.78864e-07 -0.000138971
0.00065688 -0.000172226 -2.11586e-06
-0.000172226 8.1622e-05 2.12118e-06
-2.11586e-06 2.12118e-06 -0.000147024
0.001369 -0.000330389 6.58312e-06
-0.000330389 0.000447744 -6.06165e-06
6.58312e-06 -6.06165e-06 0.000187669
0.000444027 -6.16435e-06 8.21098e-07
-6.16435e-06 -5.15372e-05 5.16416e-06
8.21098e-07 5.16416e-06 -0.00015451
0.000688929 -5.49373e-05 -7.8473e-07
-5.49373e-05 0.000141293 -2.0576e-08
-7.8473e-07 -2.0576e-08 -3.39851e-05
0.00151284 -0.000218288 1.05623e-06
-0.000218288 0.000665866 -7.14951e-07
1.05623e-06 -7.14951e-07 0.000440947
0.000483223 3.28095e-05 -2.50882e-06
3.28095e-05 -3.55258e-05 9.2726e-06
-2.50882e-06 9.2726e-06 -6.94009e-05
0.000633167 -8.69282e-06 -3.85405e-07
-8.69282e-06 6.08362e-05 -2.34698e-07
-3.85405e-07 -2.34698e-07 -2.82338e-05
0.00108839 -0.000103611 -9.95674e-08
-0.000103611 0.00035737 -1.51092e-06
-9.95674e-08 -1.51092e-06 0.000220146
0.000656226 -2.20246e-05 9.70941e-07
-2.20246e-05 7.50391e-05 -3.52562e-06
9.70941e-07 -3.52562e-06 -4.81434e-06
0.000510876 3.54395e-05 3.16922e-07
3.54395e-05 -2.28322e-05 -1.10032e-08
3.16922e-07 -1.10032e-08 -5.35369e-05
0.00263797 0.000113169 -3.07891e-05
0.000113169 0.0012876 4.02716e-06
-3.07891e-05 4.02716e-06 0.00128908
0.000549719 3.45478e-05 1.51467e-08
3.45478e-05 -6.12092e-06 -5.78123e-06
1.51467e-08 -5.78123e-06 -3.33069e-05
0.0025639 9.64204e-05 3.51379e-06
9.64204e-05 0.00123469 3.69778e-07
3.51379e-06 3.69778e-07 0.00123998
0.00251127 7.99885e-05 2.3601e-05
7.99885e-05 0.00119631 -4.55017e-06
2.3601e-05 -4.55017e-06 0.00120468
0.000666876 7.75272e-05 5.68297e-07
7.75272e-05 0.000139591 -7.66709e-07
5.68297e-07 -7.66709e-07 -1.57109e-05
0.000762013 9.89481e-05 2.92515e-06
9.89481e-05 0.000180582 -1.32777e-06
2.92515e-06 -1.32777e-06 4.38597e-05
0.00060041 2.76485e-05 1.27115e-06
2.76485e-05 3.86746e-05 -3.17435e-06
1.27115e-06 -3.17435e-06 -3.59152e-05
0.000659658 8.95443e-05 9.04644e-08
8.95443e-05 0.000103141 -1.49967e-07
9.04644e-08 -1.49967e-07 -1.25893e-05
0.000508335 -9.11762e-06 -2.34639e-07
-9.11762e-06 -3.97938e-05 -5.62344e-06
-2.34639e-07 -5.62344e-06 -6.02059e-05
0.000578135 3.80309e-05 1.81157e-07
3.80309e-05 2.58974e-05 -1.11348e-07
1.81157e-07 -1.11348e-07 -4.18183e-05
0.000600836 4.71771e-05 -3.03421e-06
4.71771e-05 6.18518e-05 2.60405e-08
-3.03421e-06 2.60405e-08 -4.54008e-05
0.00231048 -5.22293e-05 -2.32503e-05
-5.22293e-05 0.00106529 -4.69806e-06
-2.32503e-05 -4.69806e-06 0.00107937
0.000517247 -1.23575e-05 -5.17566e-07
-1.23575e-05 -3.63941e-05 -8.05951e-08
-5.17566e-07 -8.05951e-08 -5.24737e-05
0.000513874 4.29997e-05 -2.39229e-06
4.29997e-05 -1.05151e-05 8.37812e-07
-2.39229e-06 8.37812e-07 -7.29326e-05
0.00219682 -3.61237e-05 -4.43005e-06
-3.61237e-05 0.000993596 1.92951e-07
-4.43005e-06 1.92951e-07 0.00100998
0.000517196 -8.48662e-06 -1.58411e-06
-8.48662e-06 -3.7862e-05 3.76692e-06
-1.58411e-06 3.76692e-06 -5.00019e-05
0.00210712 -2.04757e-05 1.29095e-05
-2.04757e-05 0.000937657 4.66736e-06
1.29095e-05 4.66736e-06 0.000955539
-0.000899835 -1.7465e-05 -7.49429e-06
-1.7465e-05 -0.00012675 -1.41351e-06
-7.49429e-06 -1.41351e-06 6.80339e-06
0.00122565 -0.000122977 -1.77142e-05
-0.000122977 -0.000396759 2.72941e-05
-1.77142e-05 2.72941e-05 -0.000109489
0.000385488 -0.000137596 8.88958e-06
-0.000137596 0.000763001 -2.28845e-05
8.88958e-06 -2.28845e-05 0.000625794
0.000738526 7.89982e-05 -2.36614e-07
7.89982e-05 0.000154814 2.21822e-07
-2.36614e-07 2.21822e-07 1.37733e-05
0.000597003 6.73063e-05 2.52527e-06
6.73063e-05 2.81708e-05 -7.46427e-07
2.52527e-06 -7.46427e-07 -0.000103778
-0.000848822 1.58975e-05 -4.42152e-06
1.58975e-05 -0.000829919 -5.82683e-06
-4.42152e-06 -5.82683e-06 -0.000937284
0.000258356 2.29888e-05 2.08764e-06
2.29888e-05 -0.000151648 5.91301e-06
2.08764e-06 5.91301e-06 -0.000279427
0.00213373 0.000265285 -9.30344e-07
0.000265285 0.00100666 9.02014e-07
-9.30344e-07 9.02014e-07 0.000818513
0.000700153 3.86187e-05 -3.24627e-06
3.86187e-05 9.23575e-05 -4.61331e-07
-3.24627e-06 -4.61331e-07 -2.03162e-05
0.000603226 7.27077e-05 -3.60602e-06
7.27077e-05 5.25397e-05 -4.15243e-06
-3.60602e-06 -4.15243e-06 -6.64114e-05
0.000748572 7.13359e-05 1.00117e-08
7.13359e-05 0.000142126 -2.76397e-07
1.00117e-08 -2.76397e-07 1.99223e-05
0.00094855 0.000125932 -6.46054e-08
0.000125932 0.000281447 -6.92555e-07
-6.46054e-08 -6.92555e-07 0.000150991
0.000842838 9.24802e-05 4.21427e-06
9.24802e-05 0.000276743 -3.40257e-06
4.21427e-06 -3.40257e-06 0.000114748
0.00406133 0.000478421 0.000252183
0.000478421 0.00275578 0.000334719
0.000252183 0.000334719 -0.00123615
0.000996373 0.000264258 1.28305e-05
0.000264258 -7.85347e-05 7.87974e-05
1.28305e-05 7.87974e-05 -0.00156422
0.00299189 -5.4543e-05 -5.60537e-06
-5.4543e-05 0.000160377 -1.30257e-05
-5.60537e-06 -1.30257e-05 -0.000138148
0.012102 -0.00154509 -0.000151916
-0.00154509 0.00164701 -0.000130195
-0.000151916 -0.000130195 0.0032654
-0.0074185 0.00137558 1.99985e-05
0.00137558 -0.00283775 0.000338826
1.99985e-05 0.000338826 -0.0061082
0.00394932 -0.00159488 -9.71215e-05
-0.00159488 0.00126848 1.55012e-05
-9.71215e-05 1.55012e-05 0.00120811
0.0107441 -0.00144908 -9.79867e-05
-0.00144908 0.00513202 1.63156e-06
-9.79867e-05 1.63156e-06 0.00110792
0.00122222 -0.000393227 -2.71947e-05
-0.000393227 0.000280346 8.04354e-05
-2.71947e-05 8.04354e-05 0.000176178
0.0105318 -0.000249152 -6.10612e-05
-0.000249152 0.00593134 -8.99616e-06
-6.10612e-05 -8.99616e-06 0.00061718
0.00352486 -0.00192121 7.64583e-05
-0.00192121 0.00173001 0.000113164
7.64583e-05 0.000113164 -0.00122438
0.00934223 -0.0025803 -0.000170175
-0.0025803 0.000107389 -0.000477206
-0.000170175 -0.000477206 2.70221e-05
0.0030389 0.000125097 -0.000108935
0.000125097 0.00168345 7.22322e-05
-0.000108935 7.22322e-05 0.00105727
0.0114012 0.00171565 -0.00010049
0.00171565 0.0054855 2.48504e-05
-0.00010049 2.48504e-05 0.00137176
0.0133803 -0.00365151 -0.000155333
-0.00365151 0.00550854 -0.00043188
-0.000155333 -0.00043188 0.00389182
0.0130667 -0.00451751 8.34175e-05
-0.00451751 0.0039528 -2.36471e-05
8.34175e-05 -2.36471e-05 0.00395088
0.000263052 0.000103846 8.86433e-06
0.000103846 8.78456e-06 9.64606e-07
8.86433e-06 9.64606e-07 -0.000160831
0.000598994 3.45665e-05 1.29677e-06
3.45665e-05 0.000163347 2.06057e-06
1.29677e-06 2.06057e-06 -3.67973e-06
0.000774042 0.000129981 -4.79301e-06
0.000129981 0.000199746 -6.83657e-06
-4.79301e-06 -6.83657e-06 5.22713e-05
0.00256567 -0.000300276 -4.46681e-05
-0.000300276 0.0014254 3.46402e-05
-4.46681e-05 3.46402e-05 0.000496021
0.00084487 -4.43885e-05 -2.83416e-05
-4.43885e-05 0.00083211 -2.97853e-05
-2.83416e-05 -2.97853e-05 0.000557816
0.000495398 5.04916e-06 -7.5378e-06
5.04916e-06 4.74422e-05 -1.1161e-06
-7.5378e-06 -1.1161e-06 -6.36023e-05
-0.000201753 4.04656e-05 -2.122e-06
4.04656e-05 8.7082e-05 -3.61998e-06
-2.122e-06 -3.61998e-06 -0.000282205
0.000251135 9.16776e-05 9.76272e-07
9.16776e-05 0.000158115 -1.22155e-06
9.76272e-07 -1.22155e-06 -6.40376e-05
0.000595163 0.000208557 7.20367e-06
0.000208557 0.00056556 1.8026e-06
7.20367e-06 1.8026e-06 0.000165021
-0.00119395 -7.70995e-05 0.000177061
-7.70995e-05 0.000648947 -2.39516e-05
0.000177061 -2.39516e-05 -0.000820295
-0.00165934 0.000128876 -1.21422e-05
0.000128876 -0.000847907 1.25921e-05
-1.21422e-05 1.25921e-05 -0.00113678
0.00246546 0.000496695 -0.00010022
0.000496695 0.00174491 -6.01559e-05
-0.00010022 -6.01559e-05 0.000720374
0.00169612 0.000135452 0.000116119
0.000135452 0.00147808 3.44032e-05
0.000116119 3.44032e-05 -0.00143989
-0.000831838 4.5072e-05 -2.72271e-06
4.5072e-05 0.0006232 1.72651e-05
-2.72271e-06 1.72651e-05 3.97119e-05
0.00171323 -0.00010787 -3.79472e-06
-0.00010787 0.000133703 9.9892e-07
-3.79472e-06 9.9892e-07 0.000447693
-0.00128541 0.000370784 0.00011414
0.000370784 -0.000118374 1.05253e-05
0.00011414 1.05253e-05 -0.000931482
0.00197125 0.000213904 -5.26236e-05
0.000213904 0.00139362 4.40638e-05
-5.26236e-05 4.40638e-05 0.000351149
0.000389698 -0.000114006 -1.42641e-05
-0.000114006 0.000740528 1.00192e-05
-1.42641e-05 1.00192e-05 0.000611449
0.0159609 -0.00257288 0.000144709
-0.00257288 0.00730705 -5.91406e-05
0.000144709 -5.91406e-05 0.00248344
0.015455 0.00277852 -6.49967e-05
0.00277852 0.00625362 -7.77485e-05
-6.49967e-05 -7.77485e-05 0.00409782
0.00440924 -0.000869002 -0.000117286
-0.000869002 0.00190506 0.000163859
-0.000117286 0.000163859 -0.00203196
-0.00384529 0.00487369 0.00134895
0.00487369 -0.000826352 -0.000982529
0.00134895 -0.000982529 -0.0009353
0.000686121 -0.000291242 2.00245e-05
-0.000291242 0.000873353 -5.76403e-06
2.00245e-05 -5.76403e-06 0.000111083
0.00026649 -0.000266429 1.63875e-05
-0.000266429 4.76157e-05 1.52272e-05
1.63875e-05 1.52272e-05 -0.00242397
-0.00261305 0.000214439 -0.000683596
0.000214439 0.00389731 0.000258551
-0.000683596 0.000258551 0.00116817
0.000918174 -0.000516381 -1.25644e-05
-0.000516381 0.000621787 3.48525e-05
-1.25644e-05 3.48525e-05 0.000195412
0.0159147 0.00368164 0.000191693
0.00368164 0.00460622 8.3914e-05
0.000191693 8.3914e-05 0.0038554
0.00778414 -0.00259032 0.000124482
-0.00259032 0.00301067 -6.36772e-05
0.000124482 -6.36772e-05 -0.00035252
0.00220028 -0.000796956 -7.80209e-06
-0.000796956 0.00111369 2.77882e-05
-7.80209e-06 2.77882e-05 0.000757228
-0.00584258 -0.000927685 7.42722e-05
-0.000927685 0.00318475 -4.2143e-05
7.42722e-05 -4.2143e-05 0.00018315
0.0127418 0.00334333 -0.000824867
0.00334333 0.00526668 0.000367219
-0.000824867 0.000367219 0.00414475
0.00325177 -0.00176246 -0.000278627
-0.00176246 -0.000531806 0.00016307
-0.000278627 0.00016307 -0.00409013
0.0022979 -0.00133175 0.00014854
-0.00133175 0.000490042 -8.02613e-05
0.00014854 -8.02613e-05 0.000929918
-0.000120204 -0.000257263 -6.03132e-05
-0.000257263 9.22299e-05 1.9527e-05
-6.03132e-05 1.9527e-05 -0.000241113
0.000696508 -0.000437126 -8.98024e-06
-0.000437126 0.000334847 1.18622e-05
-8.98024e-06 1.18622e-05 0.000121933
0.00322015 -0.000668691 2.53354e-05
-0.000668691 0.00144547 3.58363e-06
2.53354e-05 3.58363e-06 0.00119891
-0.00261659 -9.07956e-05 4.30471e-07
-9.07956e-05 -0.00140009 1.07529e-05
4.30471e-07 1.07529e-05 -0.00160484
0.000909615 -0.000423295 6.31431e-06
-0.000423295 0.000144633 1.20041e-06
6.31431e-06 1.20041e-06 -0.000110273
0.00219828 -0.000663425 7.54168e-06
-0.000663425 0.000532962 -1.64055e-06
7.54168e-06 -1.64055e-06 0.000240911
0.00315464 -0.000652467 -2.16531e-05
-0.000652467 0.00133136 7.13193e-06
-2.16531e-05 7.13193e-06 0.000900266
0.0013997 -0.000530994 -1.57557e-06
-0.000530994 0.000273901 -2.70108e-06
-1.57557e-06 -2.70108e-06 -0.000183928
0.00175332 -0.000663561 5.56702e-06
-0.000663561 0.000244985 -9.30461e-06
5.56702e-06 -9.30461e-06 -0.000124068
0.00262356 -0.000651922 -4.39899e-06
-0.000651922 0.000905743 1.66555e-06
-4.39899e-06 1.66555e-06 0.000462366
0.00184012 -0.000603227 2.11682e-07
-0.000603227 0.000428388 -4.69364e-06
2.11682e-07 -4.69364e-06 7.01222e-06
0.00232549 -0.00060061 2.37317e-06
-0.00060061 0.000517269 -8.15329e-06
2.37317e-06 -8.15329e-06 0.000207737
0.00167849 -0.000429851 -4.48328e-06
-0.000429851 6.7416e-05 -3.47058e-06
-4.48328e-06 -3.47058e-06 -0.000158747
0.00170503 -0.000555753 1.33617e-06
-0.000555753 0.000189024 -1.02508e-06
1.33617e-06 -1.02508e-06 -0.000123859
0.00189847 -0.000556703 2.29392e-06
-0.000556703 0.000333134 -2.83794e-06
2.29392e-06 -2.83794e-06 1.85154e-05
0.00185831 -0.000516525 1.00943e-06
-0.000516525 0.000467699 1.63716e-07
1.00943e-06 1.63716e-07 0.00015184
0.00192238 -0.000595374 -2.07796e-06
-0.000595374 0.000453144 1.31913e-07
-2.07796e-06 1.31913e-07 9.96835e-05
0.00201914 -0.000616851 3.65999e-07
-0.000616851 0.000505202 -3.15989e-06
3.65999e-07 -3.15989e-06 0.000119128
0.00185692 -0.00039333 4.74421e-06
-0.00039333 0.000609235 1.00366e-06
4.74421e-06 1.00366e-06 0.000346516
0.00116006 -0.000373789 1.55009e-06
-0.000373789 0.000171349 5.73264e-07
1.55009e-06 5.73264e-07 -9.78433e-05
0.00112912 -0.000389725 2.32651e-06
-0.000389725 0.000119632 -1.56624e-07
2.32651e-06 -1.56624e-07 -0.000165606
0.000870261 -0.000256958 -7.93367e-07
-0.000256958 0.00017154 5.59122e-07
-7.93367e-07 5.59122e-07 -6.01057e-05
0.00101019 -0.000274437 -1.33864e-06
-0.000274437 0.000173983 -8.08308e-07
-1.33864e-06 -8.08308e-07 -5.98968e-05
0.000669598 -0.000267561 -3.41458e-06
-0.000267561 -8.97885e-05 -1.4222e-06
-3.41458e-06 -1.4222e-06 -0.00032515
-3.40241e-05 -3.24167e-05 -1.01567e-06
-3.24167e-05 -0.000332121 5.26996e-06
-1.01567e-06 5.26996e-06 -0.000472876
0.000757169 -0.000157691 1.99606e-06
-0.000157691 0.000198417 2.57338e-07
1.99606e-06 2.57338e-07 -3.35225e-05
0.00144842 -0.000227043 -1.42342e-06
-0.000227043 0.000579364 1.03624e-06
-1.42342e-06 1.03624e-06 0.000337406
0.00158516 7.01318e-05 -2.52061e-05
7.01318e-05 0.000650128 6.26908e-06
-2.52061e-05 6.26908e-06 0.000610798
0.000689326 -4.3627e-05 6.44934e-07
-4.3627e-05 9.14148e-05 -5.025e-07
6.44934e-07 -5.025e-07 -1.44104e-05
0.00138541 -9.83043e-05 -2.7908e-06
-9.83043e-05 0.000570722 -2.43388e-06
-2.7908e-06 -2.43388e-06 0.000383236
0.000774921 4.92251e-05 -3.558e-05
4.92251e-05 0.000148474 4.55596e-06
-3.558e-05 4.55596e-06 0.000143147
0.00100966 4.89863e-05 -1.12847e-05
4.89863e-05 0.000289597 -4.18991e-07
-1.12847e-05 -4.18991e-07 0.000255966
0.000612169 -1.62172e-05 6.03015e-07
-1.62172e-05 4.37353e-05 -4.54733e-06
6.03015e-07 -4.54733e-06 -4.43581e-05
0.000527375 3.7192e-05 7.99052e-07
3.7192e-05 -1.2426e-05 -6.73231e-06
7.99052e-07 -6.73231e-06 -4.36273e-05
0.00265637 0.000114454 5.78538e-06
0.000114454 0.00129952 5.37914e-07
5.78538e-06 5.37914e-07 0.00130082
0.00255125 9.81002e-05 2.58729e-05
9.81002e-05 0.00122778 -4.38113e-06
2.58729e-05 -4.38113e-06 0.0012327
0.00102509 0.000108635 4.12617e-06
0.000108635 0.000338617 4.13512e-06
4.12617e-06 4.13512e-06 0.000191983
0.000901898 0.000110573 2.51467e-06
0.000110573 0.000274979 -2.45109e-06
2.51467e-06 -2.45109e-06 0.000125522
0.000497094 6.30631e-05 -7.84369e-07
6.30631e-05 1.08935e-05 1.24037e-06
-7.84369e-07 1.24037e-06 -0.000126227
0.000634162 1.8197e-05 1.34786e-06
1.8197e-05 5.83335e-05 -3.99595e-06
1.34786e-06 -3.99595e-06 -2.41439e-05
0.000731351 8.10544e-05 5.8962e-07
8.10544e-05 0.000150991 1.37963e-08
5.8962e-07 1.37963e-08 2.51396e-05
0.000506366 -8.40279e-06 -9.00654e-07
-8.40279e-06 -3.65214e-05 -6.42633e-06
-9.00654e-07 -6.42633e-06 -6.14117e-05
0.000570352 2.91663e-05 -4.87869e-08
2.91663e-05 2.16971e-05 -2.279e-07
-4.87869e-08 -2.279e-07 -5.34314e-05
0.000707637 6.84437e-05 -1.86859e-06
6.84437e-05 0.000150553 1.41108e-06
-1.86859e-06 1.41108e-06 2.07527e-05
0.00247816 -6.86621e-05 -3.03614e-05
-6.86621e-05 0.00117171 -4.5826e-06
-3.03614e-05 -4.5826e-06 0.00118295
0.000498229 -1.16242e-05 -7.27012e-07
-1.16242e-05 -4.57391e-05 -7.68932e-08
-7.27012e-07 -7.68932e-08 -6.59517e-05
0.000577072 4.21872e-05 -1.62755e-07
4.21872e-05 2.6084e-05 2.8332e-06
-1.62755e-07 2.8332e-06 -4.17271e-05
0.00232308 -5.18987e-05 -5.07037e-06
-5.18987e-05 0.00107292 2.92055e-07
-5.07037e-06 2.92055e-07 0.00108706
0.000498864 -1.48974e-05 -2.25406e-06
-1.48974e-05 -4.71776e-05 4.54002e-06
-2.25406e-06 4.54002e-06 -6.31701e-05
0.00220053 -3.4789e-05 1.81876e-05
-3.4789e-05 0.000995711 4.57148e-06
1.81876e-05 4.57148e-06 0.00101226
0.00582176 0.000274703 0.000183968
0.000274703 0.00270258 3.22178e-05
0.000183968 3.22178e-05 0.00118694
-0.000804772 -3.33529e-05 -6.76763e-07
-3.33529e-05 -0.000134461 -2.62549e-06
-6.76763e-07 -2.62549e-06 -9.12272e-05
0.00105145 -5.39922e-05 -2.39981e-05
-5.39922e-05 -0.000404847 1.57907e-06
-2.39981e-05 1.57907e-06 -5.5899e-05
7.56599e-06 9.50319e-05 -6.77924e-06
9.50319e-05 -0.000304661 -1.8427e-06
-6.77924e-06 -1.8427e-06 -0.000428186
0.00075145 7.48395e-05 -3.10484e-06
7.48395e-05 0.000157499 -8.42006e-07
-3.10484e-06 -8.42006e-07 2.50096e-05
0.000300563 5.55388e-05 3.1762e-07
5.55388e-05 -0.000154119 -2.62584e-06
3.1762e-07 -2.62584e-06 -0.000279377
0.000896285 5.36197e-05 4.32318e-07
5.36197e-05 0.000220881 -4.2986e-07
4.32318e-07 -4.2986e-07 8.98296e-05
0.000454077 8.55778e-05 -1.20134e-06
8.55778e-05 -5.68165e-05 1.7093e-07
-1.20134e-06 1.7093e-07 -0.000171776
0.00160116 0.000210298 7.69871e-07
0.000210298 0.000680698 -2.30665e-06
7.69871e-07 -2.30665e-06 0.000519833
0.000979816 0.000165351 -2.16016e-06
0.000165351 0.000275577 -1.00336e-05
-2.16016e-06 -1.00336e-05 7.14685e-05
-0.000221178 3.82235e-05 2.12103e-06
3.82235e-05 -0.000332775 5.16323e-06
2.12103e-06 5.16323e-06 -0.000521732
0.000762176 0.000126252 -2.51937e-06
0.000126252 0.000167617 -3.15397e-07
-2.51937e-06 -3.15397e-07 3.41034e-05
0.00033011 3.91852e-05 -4.01014e-06
3.91852e-05 -0.000124652 -3.10492e-06
-4.01014e-06 -3.10492e-06 -0.000226759
0.000371207 5.73685e-05 1.34184e-07
5.73685e-05 -1.54936e-05 9.85258e-07
1.34184e-07 9.85258e-07 -0.000169026
0.00123762 0.000207435 1.23505e-05
0.000207435 0.000593579 7.94428e-06
1.23505e-05 7.94428e-06 0.00037931
0.00134872 -0.00151875 0.000148965
-0.00151875 0.00367057 0.000232821
0.000148965 0.000232821 0.000148619
0.00459829 0.000616407 5.00064e-05
0.000616407 0.00251047 0.000125059
5.00064e-05 0.000125059 -0.00167602
0.00145941 0.00021034 -2.70085e-05
0.00021034 0.000237905 -6.20886e-05
-2.70085e-05 -6.20886e-05 -0.00145394
0.0150323 -0.00319401 -0.000414843
-0.00319401 0.00315154 -0.000263994
-0.000414843 -0.000263994 0.00301397
0.00625909 -0.00115564 0.0001458
-0.00115564 0.0023319 0.000349722
0.0001458 0.000349722 0.000135027
0.00222681 -0.0010749 -0.000137663
-0.0010749 0.00327077 8.53841e-05
-0.000137663 8.53841e-05 -0.00240954
0.00104805 -0.000493355 4.00129e-05
-0.000493355 0.00091744 3.10182e-05
4.00129e-05 3.10182e-05 0.000284075
0.00151182 -9.19709e-05 1.79464e-05
-9.19709e-05 0.000934181 4.98629e-05
1.79464e-05 4.98629e-05 0.000590974
0.00517863 -0.00465768 0.000242304
-0.00465768 0.00162353 0.00023784
0.000242304 0.00023784 0.00158696
0.00343119 0.00119746 -4.70087e-05
0.00119746 0.00377409 -4.99009e-05
-4.70087e-05 -4.99009e-05 -0.00154602
0.00501066 -0.0022135 -7.29188e-05
-0.0022135 0.000749578 7.23987e-05
-7.29188e-05 7.23987e-05 -0.00129564
0.00044066 0.000428178 -2.01117e-05
0.000428178 0.000469037 6.34196e-05
-2.01117e-05 6.34196e-05 0.000318323
0.00961817 0.00203363 -7.61717e-05
0.00203363 0.00396961 -8.86975e-06
-7.61717e-05 -8.86975e-06 0.000539855
0.00842653 -0.00383605 -0.000484375
-0.00383605 0.00170448 -0.000342385
-0.000484375 -0.000342385 0.000710335
0.000559932 0.000386842 4.97649e-06
0.000386842 3.05616e-06 -4.85546e-06
4.97649e-06 -4.85546e-06 -0.000162397
0.000546689 0.000109049 4.19677e-06
0.000109049 0.000169665 1.01276e-06
4.19677e-06 1.01276e-06 7.06402e-06
0.000248653 4.91888e-05 -5.94436e-06
4.91888e-05 -4.18337e-05 -3.09016e-06
-5.94436e-06 -3.09016e-06 -0.000212314
-0.00148216 -0.000216133 -0.000108483
-0.000216133 0.000633248 -4.38737e-05
-0.000108483 -4.38737e-05 -0.000801398
-0.000702869 0.000164782 5.22078e-06
0.000164782 -0.000209023 -1.73899e-05
5.22078e-06 -1.73899e-05 -0.00061401
0.000185424 7.74116e-05 -9.10064e-06
7.74116e-05 0.000103594 4.49873e-07
-9.10064e-06 4.49873e-07 -0.00012705
0.000700572 0.000411897 1.33254e-05
0.000411897 0.000370851 3.13027e-06
1.33254e-05 3.13027e-06 5.40089e-05
4.23482e-05 0.000309967 3.39922e-05
0.000309967 0.000518051 -2.94357e-05
3.39922e-05 -2.94357e-05 -0.000374387
0.000395738 0.000785311 4.08953e-05
0.000785311 -0.000186068 3.76916e-06
4.08953e-05 3.76916e-06 -0.000716695
-0.00359385 0.000654711 0.000220144
0.000654711 0.00424588 1.12854e-05
0.000220144 1.12854e-05 -0.000152292
0.00224088 -1.91608e-05 -4.60699e-06
-1.91608e-05 0.001657 4.13983e-05
-4.60699e-06 4.13983e-05 -0.000495353
-0.0011608 -3.16902e-05 -5.39639e-06
-3.16902e-05 0.000264272 2.6367e-05
-5.39639e-06 2.6367e-05 -0.000109735
-1.50091e-05 -0.000188115 -6.17143e-05
-0.000188115 0.000617782 1.09479e-05
-6.17143e-05 1.09479e-05 -0.000153426
-0.000986845 -0.000195335 -6.69475e-05
-0.000195335 -0.000808451 3.37499e-05
-6.69475e-05 3.37499e-05 -0.00050882
0.000478661 -0.000203107 -0.000124395
-0.000203107 0.000206403 6.25226e-05
-0.000124395 6.25226e-05 -0.00234034
-0.00191971 -0.0021607 0.00012717
-0.0021607 0.000837873 -0.000105279
0.00012717 -0.000105279 -0.00389453
0.0023122 0.00315407 0.000373859
0.00315407 -0.00236204 -0.000296093
0.000373859 -0.000296093 -0.00302307
0.00503755 0.00152361 -0.000308179
0.00152361 0.00511322 0.000204901
-0.000308179 0.000204901 0.00287637
0.0013242 -0.00044962 -3.91738e-06
-0.00044962 0.00084384 -3.20909e-06
-3.91738e-06 -3.20909e-06 0.000515817
0.00134382 0.000281099 6.06228e-05
0.000281099 0.00501601 -1.7959e-06
6.06228e-05 -1.7959e-06 0.00267285
-0.00190895 0.00217345 1.65522e-05
0.00217345 -0.000112782 3.52815e-05
1.65522e-05 3.52815e-05 -0.0024213
0.00288336 -0.0015594 7.22698e-05
-0.0015594 0.000956213 -2.53242e-05
7.22698e-05 -2.53242e-05 0.000735405
0.0147691 -0.00182446 2.52697e-05
-0.00182446 0.00399938 -1.36596e-05
2.52697e-05 -1.36596e-05 0.00210024
0.00283195 -0.00100235 -2.13902e-05
-0.00100235 0.000935097 2.56053e-05
-2.13902e-05 2.56053e-05 0.000845644
-0.00906824 0.000739251 -0.00032157
0.000739251 -0.00365951 2.70634e-05
-0.00032157 2.70634e-05 -0.00522798
0.0145301 -0.00117393 -0.000159308
-0.00117393 0.00291492 5.14479e-05
-0.000159308 5.14479e-05 0.00135847
0.0033524 -0.00179563 5.80384e-05
-0.00179563 -0.000221701 -4.84486e-05
5.80384e-05 -4.84486e-05 -0.00035316
-0.000203896 -0.000313391 -1.49657e-05
-0.000313391 -7.5769e-05 1.46483e-05
-1.49657e-05 1.46483e-05 -0.000360667
0.00128527 -0.000541041 -2.5374e-06
-0.000541041 0.000295595 6.36347e-07
-2.5374e-06 6.36347e-07 0.000167269
0.00408748 -0.000705481 1.62932e-05
-0.000705481 0.00157974 -3.79087e-06
1.62932e-05 -3.79087e-06 0.0013378
-0.000736595 -0.000243462 -9.83662e-06
-0.000243462 -0.000689696 4.6496e-06
-9.83662e-06 4.6496e-06 -0.000945823
0.00136255 -0.000576952 -6.97148e-06
-0.000576952 0.000124768 -3.5382e-06
-6.97148e-06 -3.5382e-06 -0.000183864
0.00268292 -0.000765203 4.97173e-06
-0.000765203 0.000603188 -6.74045e-06
4.97173e-06 -6.74045e-06 0.000306075
0.00112109 -0.00048784 -1.6708e-05
-0.00048784 0.000103451 1.63567e-06
-1.6708e-05 1.63567e-06 -0.00033304
0.00167092 -0.000639943 -6.25571e-07
-0.000639943 0.000215291 -3.19463e-07
-6.25571e-07 -3.19463e-07 -0.000156714
0.00149931 -0.000539323 3.6768e-06
-0.000539323 -9.53639e-05 -5.68578e-06
3.6768e-06 -5.68578e-06 -0.000330525
0.00131392 -0.000555229 -7.40317e-06
-0.000555229 0.000115134 6.33954e-07
-7.40317e-06 6.33954e-07 -0.000288844
0.00173881 -0.000537901 -4.10564e-07
-0.000537901 0.000197493 1.07185e-06
-4.10564e-07 1.07185e-06 -9.9794e-05
0.00183077 -0.0004288 -8.58835e-07
-0.0004288 9.37934e-05 -5.15725e-06
-8.58835e-07 -5.15725e-06 -8.92003e-05
0.00170742 -0.000342041 -4.92043e-06
-0.000342041 5.45395e-05 -2.22474e-06
-4.92043e-06 -2.22474e-06 -9.92969e-05
0.0015704 -0.000425681 -4.61552e-06
-0.000425681 2.25126e-05 -2.16149e-06
-4.61552e-06 -2.16149e-06 -0.000209857
0.00167794 -0.000421244 1.32584e-06
-0.000421244 7.53946e-05 2.14335e-06
1.32584e-06 2.14335e-06 -0.000145354
0.00151147 -0.000477743 -2.98738e-06
-0.000477743 0.000129224 -1.80327e-06
-2.98738e-06 -1.80327e-06 -0.000158293
0.00183997 -0.000559991 1.97071e-06
-0.000559991 0.000280447 -4.60576e-07
1.97071e-06 -4.60576e-07 -2.93456e-05
0.00185451 -0.00055076 1.62995e-06
-0.00055076 0.000307562 7.56298e-07
1.62995e-06 7.56298e-07 -3.43962e-06
0.00153366 -0.000420225 -1.45619e-06
-0.000420225 0.000327536 1.32643e-06
-1.45619e-06 1.32643e-06 4.21281e-05
0.00169069 -0.000502949 8.41735e-07
-0.000502949 0.000368803 -2.78874e-07
8.41735e-07 -2.78874e-07 5.47305e-05
0.00189667 -0.000591846 -3.92658e-06
-0.000591846 0.000454023 -9.6388e-07
-3.92658e-06 -9.6388e-07 9.60993e-05
0.00100206 -0.000260534 -2.67118e-06
-0.000260534 0.000127673 1.41742e-06
-2.67118e-06 1.41742e-06 -9.05348e-05
0.00124476 -0.000334618 1.63532e-06
-0.000334618 0.000231216 1.64119e-07
1.63532e-06 1.64119e-07 -2.0692e-05
0.000372005 -0.000288815 -1.05704e-06
-0.000288815 -0.000289412 -1.81761e-06
-1.05704e-06 -1.81761e-06 -0.000538783
0.000498522 -0.000146135 -2.68083e-06
-0.000146135 -2.01581e-05 3.22161e-06
-2.68083e-06 3.22161e-06 -0.000205949
0.00114376 -0.000274728 -2.08193e-07
-0.000274728 0.000326403 1.22902e-07
-2.08193e-07 1.22902e-07 9.56305e-05
0.000253824 -0.000200506 -4.43677e-06
-0.000200506 -0.00027929 4.7487e-08
-4.43677e-06 4.7487e-08 -0.000498978
0.000419807 1.01885e-05 -3.50577e-06
1.01885e-05 -6.10486e-05 1.05367e-05
-3.50577e-06 1.05367e-05 -0.000116712
0.000758188 -9.86585e-05 -1.11907e-07
-9.86585e-05 0.000152999 8.03154e-08
-1.11907e-07 8.03154e-08 -3.52851e-06
0.00115938 -0.000169559 9.50158e-07
-0.000169559 0.000441698 -1.74055e-06
9.50158e-07 -1.74055e-06 0.000206978
0.00299011 0.000172773 -3.36245e-06
0.000172773 0.00152736 3.041e-06
-3.36245e-06 3.041e-06 0.00151071
0.00046991 2.40223e-05 -1.55315e-07
2.40223e-05 -3.8995e-05 -6.60911e-08
-1.55315e-07 -6.60911e-08 -8.28018e-05
0.000872677 -7.09327e-05 2.67152e-06
-7.09327e-05 0.000202546 -5.87515e-06
2.67152e-06 -5.87515e-06 9.02499e-05
0.00280269 0.00013026 5.41698e-06
0.00013026 0.00139658 4.28579e-07
5.41698e-06 4.28579e-07 0.00139428
0.000554822 3.03219e-05 1.4409e-06
3.03219e-05 9.3762e-06 -7.7469e-06
1.4409e-06 -7.7469e-06 -2.65097e-05
0.00270489 0.00011564 3.49876e-05
0.00011564 0.00132971 -3.74413e-06
3.49876e-05 -3.74413e-06 0.00133088
0.0011006 0.000171551 4.8675e-06
0.000171551 0.000354316 5.56502e-06
4.8675e-06 5.56502e-06 0.000191988
0.000729301 0.000101226 5.38418e-07
0.000101226 0.000164687 2.60947e-07
5.38418e-07 2.60947e-07 1.39371e-05
0.000960904 9.51832e-05 1.34037e-06
9.51832e-05 0.000319598 -3.02772e-06
1.34037e-06 -3.02772e-06 0.000150542
0.000648809 2.10353e-05 9.36842e-07
2.10353e-05 7.48161e-05 -5.58751e-06
9.36842e-07 -5.58751e-06 -1.90756e-05
0.000690197 6.74559e-05 1.88431e-07
6.74559e-05 0.00013372 3.14437e-07
1.88431e-07 3.14437e-07 -5.57672e-06
0.000447148 7.97231e-05 -3.33592e-07
7.97231e-05 -1.27275e-05 1.54814e-06
-3.33592e-07 1.54814e-06 -0.000156137
0.000520635 -7.16382e-06 -1.82532e-06
-7.16382e-06 -2.44079e-05 -7.4377e-06
-1.82532e-06 -7.4377e-06 -5.38079e-05
0.000601827 2.571e-05 -5.32711e-08
2.571e-05 4.32633e-05 -2.09476e-07
-5.32711e-08 -2.09476e-07 -4.06597e-05
0.000616581 7.27361e-05 -1.64302e-06
7.27361e-05 7.55282e-05 1.35151e-06
-1.64302e-06 1.35151e-06 -4.29525e-05
0.0026196 -8.425e-05 -3.87528e-05
-8.425e-05 0.00126353 -4.29166e-06
-3.87528e-05 -4.29166e-06 0.0012719
0.00047536 -1.72142e-05 1.56094e-06
-1.72142e-05 -5.51118e-05 -1.11453e-07
1.56094e-06 -1.11453e-07 -8.0063e-05
0.000575415 3.33465e-05 -8.97712e-07
3.33465e-05 2.56226e-05 3.24651e-06
-8.97712e-07 3.24651e-06 -4.99682e-05
0.00245658 -6.81097e-05 -5.46098e-06
-6.81097e-05 0.00115815 3.70142e-07
-5.46098e-06 3.70142e-07 0.00116952
0.000490993 -1.63743e-05 -1.79172e-06
-1.63743e-05 -4.97855e-05 5.42277e-06
-1.79172e-06 5.42277e-06 -6.99688e-05
0.0023051 -5.08714e-05 2.18841e-05
-5.08714e-05 0.00106175 4.52198e-06
2.18841e-05 4.52198e-06 0.00107612
-0.00827622 0.000643452 -4.09705e-05
0.000643452 0.00230999 7.0184e-05
-4.09705e-05 7.0184e-05 -0.00198433
0.00553062 0.000149637 -7.1806e-06
0.000149637 0.00281421 -2.50589e-06
-7.1806e-06 -2.50589e-06 0.00135846
-0.0006649 -5.15822e-05 -4.24054e-07
-5.15822e-05 -0.000155157 -3.87691e-06
-4.24054e-07 -3.87691e-06 -0.000213745
-1.30716e-05 6.76861e-05 -2.34604e-06
6.76861e-05 -0.000319853 2.10426e-06
-2.34604e-06 2.10426e-06 -0.000442532
0.00335697 0.00051049 4.94133e-06
0.00051049 0.00169366 7.35249e-06
4.94133e-06 7.35249e-06 0.00144119
0.000946214 9.5898e-05 -4.40516e-06
9.5898e-05 0.00027281 4.25734e-08
-4.40516e-06 4.25734e-08 0.000109074
0.000828068 5.94116e-05 -3.58696e-06
5.94116e-05 0.000174469 -6.2659e-06
-3.58696e-06 -6.2659e-06 4.35821e-05
0.00165683 0.000178433 2.39658e-06
0.000178433 0.000658635 -1.47735e-06
2.39658e-06 -1.47735e-06 0.000532276
-2.17043e-05 5.84933e-05 -5.46281e-06
5.84933e-05 -0.0003091 1.68742e-06
-5.46281e-06 1.68742e-06 -0.000430061
0.000390511 7.26031e-05 -1.13447e-06
7.26031e-05 2.01321e-05 2.71079e-06
-1.13447e-06 2.71079e-06 -0.000171654
0.000571344 0.000118337 -3.18083e-06
0.000118337 4.9442e-05 -4.11943e-06
-3.18083e-06 -4.11943e-06 -0.000147679
0.00123666 0.00024648 6.36854e-06
0.00024648 0.000496551 -9.35848e-06
6.36854e-06 -9.35848e-06 0.000225304
0.000409072 0.000316759 -1.80148e-06
0.000316759 -0.00011788 8.41319e-06
-1.80148e-06 8.41319e-06 -0.000237894
0.00116081 8.07522e-05 -4.87348e-06
8.07522e-05 0.000459247 2.51787e-06
-4.87348e-06 2.51787e-06 0.0002967
0.0011394 0.000179944 1.98517e-06
0.000179944 0.000538465 1.91258e-06
1.98517e-06 1.91258e-06 0.000328474
-0.00283553 -0.00139378 -0.000766978
-0.00139378 0.000268239 -0.00011868
-0.000766978 -0.00011868 -0.00194167
-0.00354837 -0.00111309 0.000293064
-0.00111309 0.00301004 0.000140531
0.000293064 0.000140531 -0.000834713
0.00513492 0.000725723 -0.000281157
0.000725723 0.00246199 -0.000102472
-0.000281157 -0.000102472 -0.00195745
-0.00441246 -0.00486118 0.00122265
-0.00486118 -0.00086164 0.000899071
0.00122265 0.000899071 -0.00125963
0.0187372 -0.00237593 -3.94112e-06
-0.00237593 0.00594842 0.000226504
-3.94112e-06 0.000226504 0.00471548
-0.00186129 0.0013809 2.10399e-07
0.0013809 0.00112133 -0.000133312
2.10399e-07 -0.000133312 -0.00368309
0.000297985 0.000137745 -0.000238503
0.000137745 0.000662441 -1.66521e-05
-0.000238503 -1.66521e-05 -0.000419245
0.0015642 0.000541415 3.64488e-05
0.000541415 0.000974039 3.64011e-05
3.64488e-05 3.64011e-05 0.000785016
0.0130622 -0.00285163 -0.000328794
-0.00285163 0.00574074 4.16435e-05
-0.000328794 4.16435e-05 0.00437185
-0.0011516 0.00176293 -4.85879e-05
0.00176293 0.000524254 -4.37893e-05
-4.85879e-05 -4.37893e-05 -0.00352634
0.00233645 0.00127367 -2.19793e-05
0.00127367 0.000594099 -5.73367e-05
-2.19793e-05 -5.73367e-05 0.000908286
0.0034116 0.00263483 -0.000238791
0.00263483 -0.000819996 -0.000133664
-0.000238791 -0.000133664 -0.00347433
0.0026528 0.000848104 1.66044e-05
0.000848104 0.000841311 -1.24837e-05
1.66044e-05 -1.24837e-05 0.000551035
0.000929573 0.000400997 -4.88697e-06
0.000400997 0.000240863 1.32125e-07
-4.88697e-06 1.32125e-07 7.75775e-05
0.000969639 0.000149415 -7.90026e-06
0.000149415 0.0004188 -8.986e-07
-7.90026e-06 -8.986e-07 0.000255239
-0.00137947 0.000228458 -5.67599e-05
0.000228458 -0.000296733 -5.86695e-05
-5.67599e-05 -5.86695e-05 -0.0010787
0.00220309 0.000609003 -3.10554e-05
0.000609003 0.00112663 -1.77219e-05
-3.10554e-05 -1.77219e-05 0.000795698
0.00147804 0.000902653 1.37071e-05
0.000902653 0.000296151 -5.62975e-06
1.37071e-05 -5.62975e-06 -0.000225086
0.00124398 0.00118524 0.000105903
0.00118524 -0.000563599 3.60223e-05
0.000105903 3.60223e-05 -0.00078736
-0.00546415 -0.000206202 -0.000379845
-0.000206202 -0.00452486 1.63318e-05
-0.000379845 1.63318e-05 -0.00329209
-0.00563287 0.000319891 0.000219558
0.000319891 0.00401643 7.29322e-06
0.000219558 7.29322e-06 -0.000345573
0.00278077 -9.06805e-05 -8.95055e-05
-9.06805e-05 0.0018453 3.25821e-05
-8.95055e-05 3.25821e-05 0.000344739
0.00182421 -0.000524248 -4.35251e-05
-0.000524248 0.00079185 -4.74989e-05
-4.35251e-05 -4.74989e-05 0.000483884
0.000739921 -0.00135496 -1.12451e-05
-0.00135496 -0.000328318 3.56503e-05
-1.12451e-05 3.56503e-05 -0.000380257
0.000867767 0.000283377 -1.04452e-05
0.000283377 0.00477406 2.68848e-05
-1.04452e-05 2.68848e-05 0.0025124
0.00233888 -0.00176607 0.000276799
-0.00176607 -0.000759854 -0.000140511
0.000276799 -0.000140511 -0.00338887
0.0145706 0.00202711 0.000364041
0.00202711 0.00657221 -4.82525e-05
0.000364041 -4.82525e-05 0.00494476
0.00248873 -0.00115993 -2.6999e-05
-0.00115993 0.000680988 8.26731e-06
-2.6999e-05 8.26731e-06 0.000313608
0.000521077 0.000816024 0.000151934
0.000816024 -0.000193431 -4.09702e-05
0.000151934 -4.09702e-05 -0.00120177
0.00703257 -0.00106145 -9.80508e-05
-0.00106145 -0.000745696 8.63164e-05
-9.80508e-05 8.63164e-05 -0.00303647
0.00506631 -0.00191916 -2.8833e-05
-0.00191916 0.000566163 2.21133e-05
-2.8833e-05 2.21133e-05 0.00037345
0.00260979 -0.000908336 7.4896e-05
-0.000908336 0.000517889 -9.14205e-06
7.4896e-05 -9.14205e-06 0.000302515
0.0128413 -0.000614062 -2.64563e-06
-0.000614062 0.0028884 -9.1524e-06
-2.64563e-06 -9.1524e-06 0.00133911
0.0022847 -0.00106275 9.57506e-05
-0.00106275 -0.00203727 -7.16584e-05
9.57506e-05 -7.16584e-05 -0.00147075
-0.000408251 -0.000413085 -2.89e-05
-0.000413085 -0.000713004 1.5131e-05
-2.89e-05 1.5131e-05 -0.00072865
0.0001258 -0.000397603 -1.8611e-05
-0.000397603 -0.000612859 3.83283e-07
-1.8611e-05 3.83283e-07 -0.000703629
0.00419872 -0.000774269 4.30286e-05
-0.000774269 0.00125118 -2.20699e-05
4.30286e-05 -2.20699e-05 0.00115318
0.000434974 -0.000477497 -1.96633e-05
-0.000477497 -0.000338552 -5.42047e-06
-1.96633e-05 -5.42047e-06 -0.000653064
0.00184317 -0.000675394 -1.85628e-07
-0.000675394 0.000176283 -1.37442e-06
-1.85628e-07 -1.37442e-06 -0.000100262
0.00255636 -0.000636401 1.85596e-06
-0.000636401 0.000315466 -3.07517e-06
1.85596e-06 -3.07517e-06 0.000150478
0.00180588 -0.000638279 -5.52744e-06
-0.000638279 0.0002975 5.63801e-06
-5.52744e-06 5.63801e-06 -7.92496e-05
0.00190693 -0.000572914 -8.70945e-07
-0.000572914 0.000124525 1.54282e-06
-8.70945e-07 1.54282e-06 -0.000115859
0.00195502 -0.000438176 2.4246e-06
-0.000438176 5.42942e-05 -1.50693e-07
2.4246e-06 -1.50693e-07 -7.822e-05
0.00119755 -0.000478768 2.96473e-06
-0.000478768 -9.77793e-05 6.28303e-06
2.96473e-06 6.28303e-06 -0.000383283
0.00180441 -0.000420389 -6.22585e-07
-0.000420389 8.36149e-05 1.49224e-06
-6.22585e-07 1.49224e-06 -9.72614e-05
0.00186886 -0.000369767 -2.46022e-06
-0.000369767 7.89581e-05 7.1651e-08
-2.46022e-06 7.1651e-08 -4.80532e-05
0.00204084 -0.000352089 -3.85502e-06
-0.000352089 0.000256542 1.44538e-07
-3.85502e-06 1.44538e-07 0.000127728
0.00180279 -0.000346571 -2.64728e-06
-0.000346571 0.000104047 3.33399e-06
-2.64728e-06 3.33399e-06 -4.57042e-05
0.00185479 -0.000365597 -2.15064e-06
-0.000365597 0.00017166 -5.04825e-06
-2.15064e-06 -5.04825e-06 1.9104e-06
0.00178617 -0.000436992 -4.90779e-06
-0.000436992 0.000185353 -2.21054e-06
-4.90779e-06 -2.21054e-06 -5.23686e-05
0.00175882 -0.000440638 1.4879e-06
-0.000440638 0.000136746 5.74213e-07
1.4879e-06 5.74213e-07 -9.69818e-05
0.00168533 -0.000413506 5.22993e-06
-0.000413506 8.64398e-05 6.81397e-06
5.22993e-06 6.81397e-06 -0.000129058
0.00163165 -0.000447152 -6.26613e-06
-0.000447152 0.000268649 -4.14228e-07
-6.26613e-06 -4.14228e-07 -1.11091e-05
0.00152703 -0.000483164 -6.63855e-07
-0.000483164 0.000128643 2.29095e-07
-6.63855e-07 2.29095e-07 -0.000160984
0.00194978 -0.000563122 3.60817e-06
-0.000563122 0.000356116 3.74151e-07
3.60817e-06 3.74151e-07 4.94027e-05
0.0012406 -0.000298663 -6.17068e-06
-0.000298663 0.000214083 3.24479e-06
-6.17068e-06 3.24479e-06 -1.88482e-05
0.00145253 -0.000410639 4.76032e-07
-0.000410639 0.000278232 7.88113e-07
4.76032e-07 7.88113e-07 -4.67639e-06
0.00142232 -0.000479752 1.12463e-06
-0.000479752 0.000208694 2.31935e-08
1.12463e-06 2.31935e-08 -0.000101392
0.000801015 -0.000195754 -6.42516e-06
-0.000195754 9.81903e-05 4.56611e-06
-6.42516e-06 4.56611e-06 -8.97728e-05
0.00104629 -0.000266444 6.18659e-07
-0.000266444 0.000155869 -9.16882e-08
6.18659e-07 -9.16882e-08 -6.51103e-05
0.000864994 -0.000299136 -1.21514e-08
-0.000299136 -6.37265e-06 -1.05159e-06
-1.21514e-08 -1.05159e-06 -0.000252025
0.00042981 -6.67141e-05 -1.30143e-05
-6.67141e-05 -7.79499e-05 1.34362e-05
-1.30143e-05 1.34362e-05 -0.000145397
0.000682086 -0.000148066 6.07239e-07
-0.000148066 9.74501e-05 8.66199e-07
6.07239e-07 8.66199e-07 -9.43243e-05
0.00114807 -0.00029204 5.40935e-07
-0.00029204 0.000317554 -6.09859e-07
5.40935e-07 -6.09859e-07 8.72264e-05
0.00339523 0.000170696 -6.41062e-05
0.000170696 0.00177954 3.3231e-06
-6.41062e-05 3.3231e-06 0.00176501
0.000535 -9.55069e-06 5.28653e-07
-9.55069e-06 1.06141e-06 -6.5684e-07
5.28653e-07 -6.5684e-07 -5.45162e-05
0.00141187 -0.000141823 1.77379e-06
-0.000141823 0.000551609 -6.11085e-06
1.77379e-06 -6.11085e-06 0.000383505
0.0019751 0.000111843 3.33284e-05
0.000111843 0.000897997 9.60456e-07
3.33284e-05 9.60456e-07 0.000885917
0.000589505 1.80001e-05 4.12871e-06
1.80001e-05 3.10714e-05 -9.35475e-06
4.12871e-06 -9.35475e-06 -1.23765e-05
0.00287654 0.000126485 5.13947e-05
0.000126485 0.00144135 -3.3726e-06
5.13947e-05 -3.3726e-06 0.00143997
0.00114501 0.000204479 7.06374e-06
0.000204479 0.000328472 1.55875e-06
7.06374e-06 1.55875e-06 0.000167322
0.000520641 0.000100664 -7.98131e-07
0.000100664 -5.49113e-07 -3.68476e-07
-7.98131e-07 -3.68476e-07 -0.000143336
0.000646834 0.00010414 1.02124e-06
0.00010414 9.75889e-05 -1.34579e-06
1.02124e-06 -1.34579e-06 -5.84562e-05
0.000754413 0.000107449 -1.22521e-06
0.000107449 0.000180982 -1.06528e-06
-1.22521e-06 -1.06528e-06 2.71808e-05
0.000700413 7.07499e-05 9.18019e-08
7.07499e-05 0.000136268 4.06244e-07
9.18019e-08 4.06244e-07 -1.21576e-05
0.000674622 4.01241e-05 -1.69833e-07
4.01241e-05 9.12656e-05 -6.45164e-06
-1.69833e-07 -6.45164e-06 -1.5002e-05
0.000559329 -2.41678e-06 -2.91839e-06
-2.41678e-06 6.43663e-06 -8.98524e-06
-2.91839e-06 -8.98524e-06 -2.96748e-05
0.000610584 1.96408e-05 3.80788e-07
1.96408e-05 5.47189e-05 -1.50583e-07
3.80788e-07 -1.50583e-07 -4.02748e-05
0.000565499 3.8113e-05 -2.3732e-06
3.8113e-05 3.22617e-05 2.63685e-06
-2.3732e-06 2.63685e-06 -8.75208e-05
0.00272609 -9.7753e-05 -4.97775e-05
-9.7753e-05 0.00133523 -4.07075e-06
-4.97775e-05 -4.07075e-06 0.00134102
0.000484635 -7.83872e-06 4.25415e-07
-7.83872e-06 -4.38868e-05 -1.50199e-07
4.25415e-07 -1.50199e-07 -7.37039e-05
0.000539073 2.66065e-05 -1.10193e-06
2.66065e-05 1.06338e-05 3.97952e-06
-1.10193e-06 3.97952e-06 -7.51423e-05
0.00259539 -8.4404e-05 -5.90504e-06
-8.4404e-05 0.00124845 4.34981e-07
-5.90504e-06 4.34981e-07 0.0012567
0.000467379 -2.26415e-05 -1.91556e-07
-2.26415e-05 -5.87147e-05 6.25671e-06
-1.91556e-07 6.25671e-06 -8.41199e-05
0.00246004 -6.75807e-05 2.73733e-05
-6.75807e-05 0.00115993 4.53759e-06
2.73733e-05 4.53759e-06 0.00117135
0.000285418 0.000306456 -0.000432048
0.000306456 0.00267976 -8.18872e-06
-0.000432048 -8.18872e-06 0.00112725
-0.00438449 0.000120028 3.22996e-05
0.000120028 0.00307179 7.87342e-06
3.22996e-05 7.87342e-06 -0.00128053
0.00520089 4.23763e-05 -0.000124329
4.23763e-05 0.00284939 -2.88862e-05
-0.000124329 -2.88862e-05 0.00147659
0.000355085 5.13926e-05 5.08626e-07
5.13926e-05 -0.000100005 -5.01528e-06
5.08626e-07 -5.01528e-06 -0.000221465
0.000789828 6.84816e-05 4.51314e-06
6.84816e-05 0.000178839 2.5757e-06
4.51314e-06 2.5757e-06 -5.27103e-07
0.00235876 0.000397421 -2.63187e-06
0.000397421 0.00110994 2.297e-06
-2.63187e-06 2.297e-06 0.000887984
0.00182806 0.000431777 6.92411e-06
0.000431777 0.000654845 -3.11966e-06
6.92411e-06 -3.11966e-06 0.00034976
0.000695049 0.000233497 -1.49147e-06
0.000233497 0.000182188 -1.16618e-06
-1.49147e-06 -1.16618e-06 -5.12835e-05
0.000607442 0.000112594 -2.36355e-06
0.000112594 0.000153285 2.92696e-06
-2.36355e-06 2.92696e-06 -4.78077e-05
0.000785006 0.000140705 7.73397e-06
0.000140705 0.000199052 5.079e-06
7.73397e-06 5.079e-06 4.12719e-06
0.000553919 0.000234121 -6.39661e-06
0.000234121 0.000118916 -3.67303e-06
-6.39661e-06 -3.67303e-06 -0.000153292
-0.000635667 0.00023592 5.55641e-06
0.00023592 -0.000755061 -1.47483e-06
5.55641e-06 -1.47483e-06 -0.000983908
0.00215218 0.000526497 5.10044e-06
0.000526497 0.000787059 4.64902e-06
5.10044e-06 4.64902e-06 0.000635856
0.0014426 0.000638862 1.52297e-05
0.000638862 9.84625e-05 -7.14192e-06
1.52297e-05 -7.14192e-06 -0.000100227
0.00090872 0.00038209 -7.12607e-06
0.00038209 0.000184993 -6.4543e-07
-7.12607e-06 -6.4543e-07 3.07678e-05
0.00104363 0.000154013 -5.89446e-06
0.000154013 0.000408576 5.71662e-07
-5.89446e-06 5.71662e-07 0.000220586
0.012972 0.00148511 -7.75879e-05
0.00148511 0.0024532 5.12018e-05
-7.75879e-05 5.12018e-05 0.00100328
-0.000370846 -0.0011532 -0.000333054
-0.0011532 0.00264656 -0.00012098
-0.000333054 -0.00012098 0.000360518
-0.00116333 -0.00180244 0.000311927
-0.00180244 0.00321623 7.47104e-05
0.000311927 7.47104e-05 -0.000643011
0.00183029 -0.00166424 0.000121423
-0.00166424 0.00115913 0.000256148
0.000121423 0.000256148 -0.00017282
0.0115006 0.00240837 -3.27691e-05
0.00240837 0.00465331 -2.38073e-05
-3.27691e-05 -2.38073e-05 0.000897365
-0.00197827 0.000203738 -3.96153e-05
0.000203738 -0.000548721 -4.29621e-05
-3.96153e-05 -4.29621e-05 -0.000770184
0.00170363 0.00111802 -3.29719e-05
0.00111802 0.00040037 -1.12229e-05
-3.29719e-05 -1.12229e-05 0.000678683
0.0140617 0.00221804 2.51528e-05
0.00221804 0.00404893 2.74308e-05
2.51528e-05 2.74308e-05 0.00187684
0.00638173 0.00227424 -2.97768e-05
0.00227424 0.000787589 -7.7273e-05
-2.97768e-05 -7.7273e-05 0.00056405
0.00161476 0.000836811 7.31831e-06
0.000836811 0.000144045 -1.4671e-06
7.31831e-06 -1.4671e-06 -5.28161e-05
0.00133315 0.00065689 5.80958e-06
0.00065689 0.000272135 -1.06058e-06
5.80958e-06 -1.06058e-06 7.0188e-06
0.00136471 0.000401811 -1.90038e-05
0.000401811 0.000523488 7.31701e-06
-1.90038e-05 7.31701e-06 0.000366162
0.00252971 0.00105968 -5.28382e-05
0.00105968 0.000742055 -1.71182e-05
-5.28382e-05 -1.71182e-05 0.000235764
0.00207548 0.00126038 2.29634e-05
0.00126038 -0.000289907 1.92766e-05
2.29634e-05 1.92766e-05 -0.000528539
0.00137979 -0.000390281 -7.06733e-05
-0.000390281 -0.00372729 3.45962e-05
-7.06733e-05 3.45962e-05 -0.00406641
0.00155849 -0.000922672 4.6888e-06
-0.000922672 0.00146422 -2.15512e-05
4.6888e-06 -2.15512e-05 0.00130924
-0.00808955 -8.48422e-05 0.000216204
-8.48422e-05 0.00390911 -1.69927e-05
0.000216204 -1.69927e-05 -0.000424623
0.000947048 -0.00115946 -2.17761e-05
-0.00115946 -0.000242402 1.51318e-06
-2.17761e-05 1.51318e-06 -0.000781515
0.00345059 -0.00180733 4.18552e-05
-0.00180733 0.000276281 1.69199e-05
4.18552e-05 1.69199e-05 -0.000255322
0.00139238 -0.000282402 0.000478009
-0.000282402 0.0028875 -8.94314e-05
0.000478009 -8.94314e-05 0.00151245
0.0124731 -0.00127819 -0.000193938
-0.00127819 0.00210543 8.76575e-05
-0.000193938 8.76575e-05 0.000562452
0.00117728 -0.000861596 -3.07211e-05
-0.000861596 -0.000240849 -1.15921e-06
-3.07211e-05 -1.15921e-06 -0.000470111
0.00961327 9.54273e-07 -0.000125338
9.54273e-07 0.000151527 3.69401e-05
-0.000125338 3.69401e-05 -0.000930471
0.00587787 -0.001235 9.23287e-05
-0.001235 -3.41814e-05 1.22416e-05
9.23287e-05 1.22416e-05 0.000116721
0.00467484 -0.000863899 7.41871e-05
-0.000863899 0.00140193 -1.42622e-05
7.41871e-05 -1.42622e-05 0.00105583
0.00280746 -0.000462337 -6.65172e-05
-0.000462337 -0.000855597 1.29763e-05
-6.65172e-05 1.29763e-05 -0.000434129
-0.00341156 -0.000121801 -1.04318e-05
-0.000121801 -0.00255941 5.09434e-06
-1.04318e-05 5.09434e-06 -0.00253928
0.00166778 -0.000585098 -5.35141e-06
-0.000585098 -0.000102147 -8.11433e-08
-5.35141e-06 -8.11433e-08 -0.000140743
0.00288411 -0.000549833 2.48567e-05
-0.000549833 0.000374204 -1.21762e-05
2.48567e-05 -1.21762e-05 0.000410093
0.000828592 -0.000574127 -4.84242e-06
-0.000574127 -0.000335251 8.04878e-06
-4.84242e-06 8.04878e-06 -0.000591737
0.00192301 -0.000579042 -2.11377e-06
-0.000579042 -2.61615e-06 1.99341e-06
-2.11377e-06 1.99341e-06 -0.000162347
0.00218013 -0.000464371 4.53861e-06
-0.000464371 2.48859e-05 7.29243e-07
4.53861e-06 7.29243e-07 -2.46085e-05
0.00220862 -0.000594263 -6.49258e-06
-0.000594263 0.000290625 8.44941e-06
-6.49258e-06 8.44941e-06 4.68753e-05
0.00195702 -0.000437037 1.86642e-07
-0.000437037 5.53109e-05 1.47227e-06
1.86642e-07 1.47227e-06 -7.35483e-05
0.0020596 -0.000413048 -4.85301e-08
-0.000413048 0.000116529 1.57337e-06
-4.85301e-08 1.57337e-06 2.66956e-05
0.00177223 -0.000412277 2.6873e-06
-0.000412277 6.96701e-05 6.09926e-06
2.6873e-06 6.09926e-06 -0.000108937
0.00186297 -0.000372598 -1.69532e-07
-0.000372598 7.33463e-05 1.55742e-06
-1.69532e-07 1.55742e-06 -5.4244e-05
0.00200403 -0.000390273 -1.70872e-06
-0.000390273 0.000163625 1.13407e-06
-1.70872e-06 1.13407e-06 4.32394e-05
0.00192743 -0.000349984 -4.12948e-06
-0.000349984 0.000180844 3.33117e-06
-4.12948e-06 3.33117e-06 5.41798e-05
0.00200082 -0.00035621 1.94344e-09
-0.00035621 0.000255489 -2.49749e-06
1.94344e-09 -2.49749e-06 0.000117026
0.00189548 -0.000351752 3.70829e-06
-0.000351752 0.000152421 7.73076e-06
3.70829e-06 7.73076e-06 6.52655e-06
0.00186312 -0.000366103 3.50636e-07
-0.000366103 0.000175178 -8.20239e-07
3.50636e-07 -8.20239e-07 5.15564e-06
0.00176778 -0.000373905 -2.01729e-06
-0.000373905 0.000135788 -3.56081e-06
-2.01729e-06 -3.56081e-06 -5.4516e-05
0.00176946 -0.000407531 -4.44801e-06
-0.000407531 0.000250474 -2.24573e-06
-4.44801e-06 -2.24573e-06 9.75273e-06
0.00183944 -0.000442643 -3.29003e-08
-0.000442643 0.000218699 -1.3936e-07
-3.29003e-08 -1.3936e-07 -2.09163e-05
0.0019463 -0.000455143 6.18679e-06
-0.000455143 0.000251538 3.27686e-06
6.18679e-06 3.27686e-06 1.65703e-05
0.00132153 -0.000326591 -8.21689e-06
-0.000326591 0.00017899 3.03048e-06
-8.21689e-06 3.03048e-06 -6.06282e-05
0.00154251 -0.000434746 -1.43432e-06
-0.000434746 0.00022306 7.39553e-08
-1.43432e-06 7.39553e-08 -5.52468e-05
0.00153846 -0.0004872 3.32456e-06
-0.0004872 0.000126294 1.3173e-06
3.32456e-06 1.3173e-06 -0.000165121
0.000704816 -0.000189124 -8.58398e-06
-0.000189124 -2.93863e-05 6.57236e-06
-8.58398e-06 6.57236e-06 -0.000213216
0.00116117 -0.00029617 8.73514e-07
-0.00029617 0.000159823 8.71013e-08
8.73514e-07 8.71013e-08 -7.40642e-05
0.00126883 -0.000389852 3.33405e-06
-0.000389852 0.000169298 -1.88224e-07
3.33405e-06 -1.88224e-07 -0.000108898
0.000433536 -0.000137734 -2.0529e-05
-0.000137734 -0.00010673 1.5524e-05
-2.0529e-05 1.5524e-05 -0.000192241
0.000755211 -0.000202742 -5.84556e-07
-0.000202742 7.49595e-05 3.37017e-07
-5.84556e-07 3.37017e-07 -0.000114805
0.00111598 -0.000269378 3.42147e-06
-0.000269378 0.00019874 -1.45372e-06
3.42147e-06 -1.45372e-06 -2.32093e-05
0.00430696 0.000197647 -9.70042e-05
0.000197647 0.00234681 5.75444e-06
-9.70042e-05 5.75444e-06 0.00232481
0.000514584 -8.37172e-05 3.72813e-07
-8.37172e-05 -2.58488e-05 -6.7235e-07
3.72813e-07 -6.7235e-07 -9.97562e-05
0.0011116 -0.000182831 4.33586e-06
-0.000182831 0.000362002 -3.75716e-06
4.33586e-06 -3.75716e-06 0.000162138
0.00372862 0.000158144 1.27362e-05
0.000158144 0.00197973 2.79718e-07
1.27362e-05 2.79718e-07 0.00196939
0.000583456 -2.90937e-05 1.02892e-05
-2.90937e-05 2.4573e-05 -1.1572e-05
1.02892e-05 -1.1572e-05 -3.3595e-05
0.0032472 0.000129849 8.25032e-05
0.000129849 0.00167377 -3.15775e-06
8.25032e-05 -3.15775e-06 0.00167193
0.000483978 0.000242176 5.83906e-06
0.000242176 -0.00017353 -6.00216e-06
5.83906e-06 -6.00216e-06 -0.000401319
0.000873352 0.000199974 2.44587e-06
0.000199974 0.000166453 -9.60137e-07
2.44587e-06 -9.60137e-07 2.03964e-06
0.0001954 9.59877e-05 3.66059e-06
9.59877e-05 -0.00018885 -3.00536e-07
3.66059e-06 -3.00536e-07 -0.000354519
-0.000290443 3.18491e-05 -3.16387e-06
3.18491e-05 -0.000485614 -3.17119e-06
-3.16387e-06 -3.17119e-06 -0.00061613
0.000454434 5.07965e-05 -4.71593e-08
5.07965e-05 -2.63884e-05 9.0606e-07
-4.71593e-08 9.0606e-07 -0.000177438
0.000744964 6.22236e-05 -7.27371e-07
6.22236e-05 0.000124595 -7.32759e-06
-7.27371e-07 -7.32759e-06 5.07693e-06
0.000447871 3.56982e-05 -1.59269e-06
3.56982e-05 -3.13821e-05 2.84826e-06
-1.59269e-06 2.84826e-06 -0.000166845
0.000585073 2.78526e-05 2.482e-08
2.78526e-05 4.08315e-05 -1.6983e-07
2.482e-08 -1.6983e-07 -6.51814e-05
0.000614293 -2.60525e-06 -4.1646e-06
-2.60525e-06 4.25344e-05 -1.06382e-05
-4.1646e-06 -1.06382e-05 -1.28426e-06
0.00296434 -0.00011236 -6.5031e-05
-0.00011236 0.00148978 -4.04401e-06
-6.5031e-05 -4.04401e-06 0.00149214
0.000473275 -9.3176e-06 7.78018e-07
-9.3176e-06 -4.42914e-05 -2.11533e-07
7.78018e-07 -2.11533e-07 -8.04509e-05
0.000542016 2.12427e-05 -7.78687e-07
2.12427e-05 1.53513e-05 5.5506e-06
-7.78687e-07 5.5506e-06 -7.99931e-05
0.00274884 -0.000100989 -6.57223e-06
-0.000100989 0.00134936 5.35778e-07
-6.57223e-06 5.35778e-07 0.00135413
0.000420776 -3.59264e-05 -2.24885e-06
-3.59264e-05 -7.90972e-05 7.192e-06
-2.24885e-06 7.192e-06 -0.0001103
0.00258479 -8.43389e-05 3.37675e-05
-8.43389e-05 0.00124132 4.41508e-06
3.37675e-05 4.41508e-06 0.00124954
0.0129495 0.000527994 0.000319476
0.000527994 0.00242205 8.90269e-05
0.000319476 8.90269e-05 0.00165135
-0.00267721 -0.00159953 -0.000261258
-0.00159953 -0.00278493 -4.63979e-05
-0.000261258 -4.63979e-05 -0.00364631
-0.00754335 0.000860849 -0.0001149
0.000860849 0.00215235 -8.59242e-05
-0.0001149 -8.59242e-05 -0.00274905
0.000319955 2.86953e-05 1.58508e-05
2.86953e-05 -0.000104171 1.05835e-06
1.58508e-05 1.05835e-06 -0.000299732
0.00133923 0.000282458 -1.26473e-05
0.000282458 0.000501363 3.25564e-06
-1.26473e-05 3.25564e-06 0.000313198
0.00160552 0.000329135 -4.23009e-06
0.000329135 0.000701778 -2.08856e-06
-4.23009e-06 -2.08856e-06 0.000447848
0.00179644 0.000421511 -1.51088e-06
0.000421511 0.000663707 1.01148e-06
-1.51088e-06 1.01148e-06 0.000365923
0.000910478 0.00037998 1.08861e-05
0.00037998 -1.58362e-05 8.39323e-06
1.08861e-05 8.39323e-06 -0.000320865
-0.000379575 0.000232975 1.23882e-05
0.000232975 -0.000613036 -1.19505e-06
1.23882e-05 -1.19505e-06 -0.000859569
-2.68492e-05 0.000191886 -6.85836e-06
0.000191886 -0.000194772 -2.56087e-06
-6.85836e-06 -2.56087e-06 -0.00046915
0.000173202 0.000330434 3.97332e-06
0.000330434 -0.000316749 4.45078e-07
3.97332e-06 4.45078e-07 -0.000575152
0.00170616 0.000491054 7.99201e-09
0.000491054 0.000550566 1.78361e-06
7.99201e-09 1.78361e-06 0.000379273
0.000229862 0.000402706 7.15861e-06
0.000402706 -0.000413111 3.40789e-06
7.15861e-06 3.40789e-06 -0.000625011
0.00292069 0.000728033 1.95133e-06
0.000728033 0.00088425 -2.27076e-07
1.95133e-06 -2.27076e-07 0.000700674
0.00178026 0.00069995 8.37485e-06
0.00069995 0.000212367 1.37053e-06
8.37485e-06 1.37053e-06 -1.38496e-06
0.00103899 0.000592273 3.25097e-06
0.000592273 -0.000123446 -2.96345e-06
3.25097e-06 -2.96345e-06 -0.000292586
0.000807957 0.000369334 -2.46316e-06
0.000369334 0.00015352 -1.09775e-05
-2.46316e-06 -1.09775e-05 -1.53943e-05
0.0057199 0.00105927 3.45917e-06
0.00105927 -0.000165365 6.69303e-06
3.45917e-06 6.69303e-06 0.000502218
0.011211 0.00146724 0.000172919
0.00146724 0.00160183 8.21431e-05
0.000172919 8.21431e-05 -0.000183366
0.00922493 -0.00242647 0.00020931
-0.00242647 0.00448447 -4.61131e-05
0.00020931 -4.61131e-05 0.00296886
0.0045838 0.00255315 0.000406794
0.00255315 -0.000280221 0.000226823
0.000406794 0.000226823 -0.00420848
0.000203109 0.000773105 -5.85191e-05
0.000773105 -6.22325e-05 -8.7543e-06
-5.85191e-05 -8.7543e-06 0.000303735
0.00334107 0.00166227 -0.00010664
0.00166227 -0.000289149 -3.8082e-05
-0.00010664 -3.8082e-05 -0.00024235
0.00521584 0.00146159 6.12222e-05
0.00146159 0.0010845 1.79191e-05
6.12222e-05 1.79191e-05 0.000919154
0.00347174 0.00105274 1.45297e-05
0.00105274 0.00097029 3.2395e-06
1.45297e-05 3.2395e-06 0.000746238
0.000524472 0.000540649 -1.56232e-05
0.000540649 -0.000102754 1.02645e-05
-1.56232e-05 1.02645e-05 -0.000340883
0.00487054 0.00153588 -0.000142775
0.00153588 0.000977845 -1.47022e-05
-0.000142775 -1.47022e-05 0.000689908
0.0029632 -0.000312181 -1.3232e-05
-0.000312181 0.00027615 5.95198e-06
-1.3232e-05 5.95198e-06 0.000330291
0.0105159 -0.00038759 -1.74435e-05
-0.00038759 0.00211585 4.37868e-06
-1.74435e-05 4.37868e-06 0.0016081
-0.0110526 -0.00136742 0.000467143
-0.00136742 -0.00570444 5.2195e-07
0.000467143 5.2195e-07 -0.00561214
0.00014685 -0.000753049 -5.61534e-05
-0.000753049 -0.000804736 5.83431e-06
-5.61534e-05 5.83431e-06 -0.000992505
0.00817435 -0.0016164 6.96046e-05
-0.0016164 0.000794924 6.74258e-05
6.96046e-05 6.74258e-05 0.00116941
0.00128217 -0.000296539 -0.000136413
-0.000296539 -0.00300149 4.98553e-05
-0.000136413 4.98553e-05 -0.00497052
0.00187407 -0.000613711 1.15758e-05
-0.000613711 -0.000190775 2.62061e-06
1.15758e-05 2.62061e-06 -0.000277808
0.00398341 -0.000345579 -2.06004e-05
-0.000345579 -0.000207012 -1.10817e-07
-2.06004e-05 -1.10817e-07 5.8928e-05
0.00471895 -0.000578119 3.25744e-05
-0.000578119 0.00103833 -1.4597e-05
3.25744e-05 -1.4597e-05 0.00120869
0.00394087 -0.000201391 7.40992e-05
-0.000201391 0.000858601 5.31716e-06
7.40992e-05 5.31716e-06 0.000806502
-0.0014397 -0.00037881 -5.04307e-06
-0.00037881 -0.00180743 1.24033e-05
-5.04307e-06 1.24033e-05 -0.00174342
0.00192628 -0.000491416 -1.88139e-06
-0.000491416 -0.000150046 3.92003e-08
-1.88139e-06 3.92003e-08 -8.01165e-05
0.00196905 -0.00035884 1.73955e-05
-0.00035884 -0.000240532 -3.92431e-06
1.73955e-05 -3.92431e-06 -6.95562e-05
0.00158291 -0.000549199 -1.77464e-06
-0.000549199 -0.000177551 5.11489e-06
-1.77464e-06 5.11489e-06 -0.000336095
0.0021354 -0.000464785 1.56176e-06
-0.000464785 3.2728e-06 7.70066e-07
1.56176e-06 7.70066e-07 -4.77364e-05
0.00208557 -0.000393863 1.24779e-06
-0.000393863 3.52807e-05 9.366e-07
1.24779e-06 9.366e-07 1.81166e-05
0.0019554 -0.000435588 2.91005e-08
-0.000435588 5.37004e-05 3.58702e-06
2.91005e-08 3.58702e-06 -7.16402e-05
0.00198244 -0.00040288 3.90365e-07
-0.00040288 8.20685e-05 3.14572e-07
3.90365e-07 3.14572e-07 -6.08962e-06
0.00197877 -0.000362476 -3.0422e-06
-0.000362476 7.7834e-05 1.17771e-06
-3.0422e-06 1.17771e-06 -3.42766e-06
0.00184578 -0.000374328 4.08265e-06
-0.000374328 6.09623e-05 2.84332e-06
4.08265e-06 2.84332e-06 -6.7299e-05
0.00191474 -0.000383534 -5.53787e-08
-0.000383534 0.000125468 1.19792e-07
-5.53787e-08 1.19792e-07 5.30446e-06
0.00184645 -0.000351946 1.2183e-06
-0.000351946 0.000117272 -5.66356e-07
1.2183e-06 -5.66356e-07 -4.96881e-06
0.00181797 -0.000347955 -5.681e-07
-0.000347955 0.000108025 4.81602e-06
-5.681e-07 4.81602e-06 -1.65143e-05
0.0019603 -0.000349903 -2.21801e-06
-0.000349903 0.000225632 3.92799e-07
-2.21801e-06 3.92799e-07 9.10261e-05
0.00194935 -0.00035402 1.63192e-07
-0.00035402 0.000234805 -1.94666e-06
1.63192e-07 -1.94666e-06 7.349e-05
0.00187093 -0.00036567 3.65622e-06
-0.00036567 0.000178437 3.65946e-06
3.65622e-06 3.65946e-06 8.41533e-06
0.00182462 -0.000378983 2.46137e-07
-0.000378983 0.000171298 -4.51153e-07
2.46137e-07 -4.51153e-07 -2.05582e-05
0.00184221 -0.000362463 -1.44464e-06
-0.000362463 0.000246555 -2.23535e-06
-1.44464e-06 -2.23535e-06 4.13599e-05
0.00135634 -0.000319766 -8.912e-06
-0.000319766 0.000115591 1.11708e-06
-8.912e-06 1.11708e-06 -0.000110329
0.00174802 -0.000408631 -9.40702e-07
-0.000408631 0.000238771 -6.17785e-07
-9.40702e-07 -6.17785e-07 -4.82794e-06
0.00189006 -0.00044829 4.11144e-06
-0.00044829 0.000251074 1.67246e-06
4.11144e-06 1.67246e-06 9.52457e-06
0.00086393 -0.000203171 -1.18991e-05
-0.000203171 7.41387e-06 6.52281e-06
-1.18991e-05 6.52281e-06 -0.000174742
0.00125051 -0.000321285 4.20945e-07
-0.000321285 0.000133379 4.18583e-07
4.20945e-07 4.18583e-07 -0.000105321
0.001447 -0.000422291 2.62799e-06
-0.000422291 0.000172274 5.526e-07
2.62799e-06 5.526e-07 -0.000104611
0.000442607 -0.000154406 -2.05714e-05
-0.000154406 -0.000122978 1.61949e-05
-2.05714e-05 1.61949e-05 -0.000219373
0.000825453 -0.000198994 5.35164e-07
-0.000198994 4.53482e-05 3.55771e-07
5.35164e-07 3.55771e-07 -0.000140827
0.00100329 -0.000286384 6.62359e-06
-0.000286384 5.92653e-05 -2.4625e-06
6.62359e-06 -2.4625e-06 -0.000174327
0.00528436 0.000173055 -0.000156219
0.000173055 0.00292528 8.67575e-06
-0.000156219 8.67575e-06 0.00290932
0.000526628 -0.000144801 -1.16778e-06
-0.000144801 -5.05132e-05 -1.83014e-07
-1.16778e-06 -1.83014e-07 -0.000139125
0.000720296 -0.000210165 7.53091e-06
-0.000210165 5.61062e-05 -5.01995e-06
7.53091e-06 -5.01995e-06 -0.000133922
0.00458951 0.000149719 1.14231e-05
0.000149719 0.002505 5.25228e-07
1.14231e-05 5.25228e-07 0.00249441
0.000597462 -9.5523e-05 1.66963e-05
-9.5523e-05 2.24079e-05 -1.39471e-05
1.66963e-05 -1.39471e-05 -5.35515e-05
0.00392648 0.000110442 0.000133599
0.000110442 0.00209108 -7.90099e-06
0.000133599 -7.90099e-06 0.00209156
0.00067028 0.000304748 -4.5514e-06
0.000304748 -0.000137005 -3.11387e-06
-4.5514e-06 -3.11387e-06 -0.000399285
0.00144793 0.000333291 -4.82986e-07
0.000333291 0.000421656 -6.48706e-07
-4.82986e-07 -6.48706e-07 0.000177989
0.000206885 0.000156723 1.83412e-07
0.000156723 -0.000285602 -2.74444e-06
1.83412e-07 -2.74444e-06 -0.000481095
0.000536343 0.000188089 -5.45228e-06
0.000188089 -2.69258e-05 -1.86397e-06
-5.45228e-06 -1.86397e-06 -0.000195441
7.07217e-05 9.48445e-05 9.39301e-07
9.48445e-05 -0.000272193 -6.42094e-07
9.39301e-07 -6.42094e-07 -0.00043985
0.00111624 0.000171681 -2.79621e-06
0.000171681 0.000370828 -6.80992e-06
-2.79621e-06 -6.80992e-06 0.000205344
6.61909e-05 2.42174e-05 -1.09991e-06
2.42174e-05 -0.000267006 1.89228e-07
-1.09991e-06 1.89228e-07 -0.000413044
0.000705081 6.00297e-05 9.95406e-08
6.00297e-05 0.000105538 -3.47932e-07
9.95406e-08 -3.47932e-07 -1.48063e-05
0.000586067 8.50216e-06 -6.27109e-06
8.50216e-06 2.60909e-05 -1.22373e-05
-6.27109e-06 -1.22373e-05 -2.56118e-05
0.000600629 1.89111e-05 -7.57856e-07
1.89111e-05 5.3084e-05 7.1286e-06
-7.57856e-07 7.1286e-06 -5.28939e-05
0.000494521 1.59463e-06 2.18876e-07
1.59463e-06 -2.77622e-05 -1.9522e-07
2.18876e-07 -1.9522e-07 -7.09458e-05
0.00322267 -0.000125141 -8.11283e-05
-0.000125141 0.00165707 -4.31322e-06
-8.11283e-05 -4.31322e-06 0.00165583
0.00291497 -0.000117351 -6.14731e-06
-0.000117351 0.00145992 5.77447e-07
-6.14731e-06 5.77447e-07 0.00146072
0.000424448 6.7738e-06 3.73171e-06
6.7738e-06 -7.43344e-05 8.74852e-06
3.73171e-06 8.74852e-06 -0.000109273
0.00269837 -0.00010055 4.13614e-05
-0.00010055 0.0013183 4.16626e-06
4.13614e-05 4.16626e-06 0.00132294
0.003987 0.000103514 6.90207e-05
0.000103514 -0.00062547 1.88594e-05
6.90207e-05 1.88594e-05 0.000159595
0.00380329 -0.000741205 0.000104199
-0.000741205 -0.00307547 5.17028e-05
0.000104199 5.17028e-05 -0.00423239
0.00958009 -0.00171246 -0.000141573
-0.00171246 0.00352844 -7.26015e-05
-0.000141573 -7.26015e-05 0.00345034
0.00110226 0.000430749 8.45429e-06
0.000430749 -5.97365e-05 6.58573e-06
8.45429e-06 6.58573e-06 -0.000345002
0.00271161 0.000445641 -5.05684e-06
0.000445641 0.00134409 5.25945e-06
-5.05684e-06 5.25945e-06 0.00106559
0.00174839 0.00041147 -3.89912e-06
0.00041147 0.000659458 3.81767e-06
-3.89912e-06 3.81767e-06 0.000369233
0.000964541 0.000380641 2.89533e-06
0.000380641 0.000178489 1.94191e-06
2.89533e-06 1.94191e-06 -9.7393e-05
0.00128555 0.000417654 -2.21605e-06
0.000417654 0.000227122 1.06729e-06
-2.21605e-06 1.06729e-06 -9.13482e-05
0.00125599 0.000499997 1.51087e-05
0.000499997 0.000156847 1.15458e-05
1.51087e-05 1.15458e-05 -0.000124623
0.00130213 0.000454322 -2.0568e-05
0.000454322 0.000320896 -7.88519e-06
-2.0568e-05 -7.88519e-06 2.52623e-05
0.000791595 0.000427815 8.89667e-06
0.000427815 5.24677e-05 -4.23908e-06
8.89667e-06 -4.23908e-06 -0.000127479
0.00117088 0.000507431 1.72376e-06
0.000507431 0.000109788 -1.59531e-06
1.72376e-06 -1.59531e-06 -0.00012133
0.00172781 0.000617039 3.6289e-06
0.000617039 0.000198383 4.18766e-06
3.6289e-06 4.18766e-06 6.68473e-05
0.00159455 0.000643041 8.52735e-06
0.000643041 5.63947e-05 -7.90155e-07
8.52735e-06 -7.90155e-07 -0.000173672
0.00165551 0.00060636 1.63104e-05
0.00060636 0.000109167 8.04017e-06
1.63104e-05 8.04017e-06 -5.35008e-05
0.00109873 0.000637176 -3.94378e-06
0.000637176 -0.000152841 -4.84138e-06
-3.94378e-06 -4.84138e-06 -0.000351534
0.000541978 0.000534854 -8.03061e-06
0.000534854 -0.000389068 -1.18981e-06
-8.03061e-06 -1.18981e-06 -0.000528658
0.00159664 0.000566645 3.99412e-05
0.000566645 -0.000499453 3.39871e-05
3.99412e-05 3.39871e-05 -0.000379836
0.00562291 0.0011163 -7.45202e-05
0.0011163 -0.000581897 -2.00363e-05
-7.45202e-05 -2.00363e-05 0.00014995
0.00357754 0.0009757 0.000372169
0.0009757 -0.0027489 6.19336e-05
0.000372169 6.19336e-05 -0.00462235
0.000320477 0.00123026 -8.02003e-05
0.00123026 -0.00142056 -2.93691e-05
-8.02003e-05 -2.93691e-05 -0.00123567
0.00374345 0.00117863 -3.08087e-05
0.00117863 0.000662526 -6.78299e-06
-3.08087e-05 -6.78299e-06 0.000533032
0.00337116 0.00104628 -9.68866e-05
0.00104628 0.000875134 -2.93882e-05
-9.68866e-05 -2.93882e-05 0.000642805
0.00263592 -0.000241633 -3.82719e-05
-0.000241633 -0.000117237 -1.38804e-05
-3.82719e-05 -1.38804e-05 3.60974e-05
0.000409243 -0.000150861 3.83444e-05
-0.000150861 -0.00033265 9.38753e-06
3.83444e-05 9.38753e-06 -0.000170164
0.00163194 0.000829673 0.00013459
0.000829673 -0.00408861 -1.19242e-05
0.00013459 -1.19242e-05 -0.0043044
-0.0011533 -0.000388582 -2.69449e-05
-0.000388582 -0.00179511 3.51205e-05
-2.69449e-05 3.51205e-05 -0.00168253
0.00536289 -0.000344705 -9.27025e-05
-0.000344705 0.000587861 3.91482e-05
-9.27025e-05 3.91482e-05 0.000483234
0.00241766 -0.000428742 -2.43209e-05
-0.000428742 -0.000169552 8.95134e-06
-2.43209e-05 8.95134e-06 5.64393e-05
0.00376963 -0.000245291 2.13799e-06
-0.000245291 0.000686963 -4.18712e-06
2.13799e-06 -4.18712e-06 0.000666459
0.00194759 -0.000250447 4.08797e-05
-0.000250447 -0.000349872 -3.2233e-06
4.08797e-05 -3.2233e-06 -9.5553e-05
0.00344801 -7.36918e-05 3.03589e-05
-7.36918e-05 0.00104206 -2.83685e-07
3.03589e-05 -2.83685e-07 0.00100594
0.000886768 -0.000420524 -2.26039e-05
-0.000420524 -0.000707599 1.18647e-05
-2.26039e-05 1.18647e-05 -0.000601046
0.00191582 -0.00036972 -4.33072e-07
-0.00036972 -0.000292829 2.07181e-06
-4.33072e-07 2.07181e-06 -0.000130605
0.00215656 -0.000339598 2.37019e-06
-0.000339598 -0.000113996 -8.75275e-07
2.37019e-06 -8.75275e-07 1.44775e-05
0.00207759 -0.00045998 -2.70565e-06
-0.00045998 -1.92536e-05 1.55088e-06
-2.70565e-06 1.55088e-06 -7.04869e-05
0.00208216 -0.000393144 3.41499e-07
-0.000393144 3.83792e-05 -9.04415e-08
3.41499e-07 -9.04415e-08 2.01672e-05
0.00204794 -0.000328133 -2.01105e-06
-0.000328133 3.51168e-05 2.60139e-07
-2.01105e-06 2.60139e-07 5.41691e-06
0.00189679 -0.000391944 -3.42877e-07
-0.000391944 4.28395e-05 2.67786e-07
-3.42877e-07 2.67786e-07 -4.30502e-05
0.00196548 -0.00036816 -6.11468e-07
-0.00036816 7.61886e-05 1.15313e-07
-6.11468e-07 1.15313e-07 -6.90955e-06
0.00192008 -0.00032436 -1.42794e-06
-0.00032436 0.000108087 1.0065e-06
-1.42794e-06 1.0065e-06 5.38589e-06
0.0018249 -0.000376563 2.72856e-07
-0.000376563 8.69153e-05 -3.44691e-08
2.72856e-07 -3.44691e-08 -3.29863e-05
0.00180716 -0.000350791 1.04625e-06
-0.000350791 8.91509e-05 -7.11191e-07
1.04625e-06 -7.11191e-07 -3.35547e-05
0.0018387 -0.000332706 1.29672e-06
-0.000332706 0.000126526 -1.87983e-06
1.29672e-06 -1.87983e-06 -1.10231e-05
0.00192166 -0.000343653 -3.40576e-06
-0.000343653 0.000197305 4.11123e-06
-3.40576e-06 4.11123e-06 6.65519e-05
0.00198986 -0.000353695 -1.76561e-06
-0.000353695 0.000255057 4.94934e-07
-1.76561e-06 4.94934e-07 9.783e-05
0.00188124 -0.000336346 -1.06332e-06
-0.000336346 0.000236854 -1.72923e-06
-1.06332e-06 -1.72923e-06 5.4764e-05
0.00188295 -0.000384602 2.49682e-06
-0.000384602 0.000207469 2.3689e-06
2.49682e-06 2.3689e-06 1.39226e-05
0.00183912 -0.000364625 7.69039e-07
-0.000364625 0.00024526 -5.66055e-07
7.69039e-07 -5.66055e-07 3.94208e-05
0.00148727 -0.000291918 -6.92545e-06
-0.000291918 0.000146115 1.13302e-06
-6.92545e-06 1.13302e-06 -5.92132e-05
0.000897579 -0.000199315 -1.32689e-05
-0.000199315 -1.68133e-05 6.56814e-06
-1.32689e-05 6.56814e-06 -0.000192415
0.00134825 -0.0003171 -1.28355e-06
-0.0003171 0.000117101 -6.51853e-09
-1.28355e-06 -6.51853e-09 -0.000109208
0.00172609 -0.000410025 2.81783e-06
-0.000410025 0.000226417 5.01017e-07
2.81783e-06 5.01017e-07 -2.0155e-05
0.000484773 -0.000200509 -2.26477e-05
-0.000200509 -9.96502e-05 1.68266e-05
-2.26477e-05 1.68266e-05 -0.000212851
0.000843986 -0.000203743 5.17647e-07
-0.000203743 -6.2612e-06 1.21994e-07
5.17647e-07 1.21994e-07 -0.000189266
0.00124651 -0.000321841 7.54706e-06
-0.000321841 0.000127901 -1.54005e-06
7.54706e-06 -1.54005e-06 -0.000110814
0.00583144 0.000132756 -0.000196217
0.000132756 0.00323963 1.14439e-05
-0.000196217 1.14439e-05 0.00323084
0.000509002 -0.000197865 -1.16311e-06
-0.000197865 -7.86655e-05 3.93048e-07
-1.16311e-06 3.93048e-07 -0.000183232
0.000841664 -0.000205263 1.06893e-05
-0.000205263 5.77385e-05 -6.23366e-06
1.06893e-05 -6.23366e-06 -0.000130685
0.00548697 0.00014202 1.16014e-06
0.00014202 0.00304348 4.92159e-08
1.16014e-06 4.92159e-08 0.0030317
0.000647846 -0.000165652 2.188e-05
-0.000165652 2.49269e-05 -1.63681e-05
2.188e-05 -1.63681e-05 -6.95302e-05
0.00498462 0.000120997 0.000173359
0.000120997 0.00274007 -1.36072e-05
0.000173359 -1.36072e-05 0.00273339
0.00124243 0.000383367 -3.14196e-06
0.000383367 0.000106179 2.63477e-06
-3.14196e-06 2.63477e-06 -0.000169463
0.00135738 0.000374893 -3.67114e-06
0.000374893 0.00027521 -1.51195e-06
-3.67114e-06 -1.51195e-06 -1.28416e-06
0.00101457 0.00027416 -5.88981e-06
0.00027416 9.84115e-05 -1.71284e-06
-5.88981e-06 -1.71284e-06 -0.000129364
0.00268475 0.00045033 -1.6826e-06
0.00045033 0.0011848 3.84573e-06
-1.6826e-06 3.84573e-06 0.000920256
0.000824614 0.000218476 -1.67552e-06
0.000218476 9.87536e-05 -1.02114e-06
-1.67552e-06 -1.02114e-06 -0.000112342
0.0011437 0.000205781 -4.98411e-06
0.000205781 0.00036208 -3.82153e-06
-4.98411e-06 -3.82153e-06 0.000172608
6.70968e-05 9.27485e-05 -2.63815e-06
9.27485e-05 -0.000282838 -1.08805e-06
-2.63815e-06 -1.08805e-06 -0.000453503
0.000671138 9.57486e-05 -4.97143e-07
9.57486e-05 8.73806e-05 -3.08123e-07
-4.97143e-07 -3.08123e-07 -6.24021e-05
0.000615689 3.90191e-05 -1.0738e-05
3.90191e-05 3.87952e-05 -1.34085e-05
-1.0738e-05 -1.34085e-05 -2.43962e-05
0.000478979 3.09654e-05 2.27481e-07
3.09654e-05 -3.02017e-05 7.95542e-06
2.27481e-07 7.95542e-06 -0.000147112
0.000497995 4.21559e-06 2.49231e-07
4.21559e-06 -2.46743e-05 -1.84461e-07
2.49231e-07 -1.84461e-07 -7.60432e-05
0.00364847 -0.00013652 -0.000104705
-0.00013652 0.0019272 -4.79104e-06
-0.000104705 -4.79104e-06 0.00192254
0.000359501 4.76286e-06 4.21824e-06
4.76286e-06 -0.000107641 1.04777e-05
4.21824e-06 1.04777e-05 -0.000150217
0.00319058 -0.000134238 -5.80692e-06
-0.000134238 0.00163848 5.82328e-07
-5.80692e-06 5.82328e-07 0.00163482
0.00289529 -0.000119011 5.07869e-05
-0.000119011 0.0014477 3.9563e-06
5.07869e-05 3.9563e-06 0.0014479
0.000506206 8.58241e-05 9.36993e-06
8.58241e-05 -0.00127798 1.36498e-05
9.36993e-06 1.36498e-05 -0.000967746
0.00523879 3.09526e-05 5.94284e-05
3.09526e-05 0.00010107 4.8564e-06
5.94284e-05 4.8564e-06 0.000744283
0.0121038 0.00074871 -6.28441e-05
0.00074871 0.0028478 -1.37155e-05
-6.28441e-05 -1.37155e-05 0.0020487
0.00184061 0.000564083 4.26779e-06
0.000564083 0.00033302 3.55344e-06
4.26779e-06 3.55344e-06 4.98301e-05
0.00193186 0.000549279 2.5681e-06
0.000549279 0.000283086 2.74623e-06
2.5681e-06 2.74623e-06 2.11225e-05
0.0012275 0.000447455 7.6736e-07
0.000447455 2.85074e-05 -3.09883e-06
7.6736e-07 -3.09883e-06 -0.000257362
0.00195611 0.000492236 -5.3395e-06
0.000492236 0.000758797 4.9082e-06
-5.3395e-06 4.9082e-06 0.000461741
0.00170552 0.000457444 -3.89996e-06
0.000457444 0.000501615 -4.34026e-06
-3.89996e-06 -4.34026e-06 0.000168785
0.00161467 0.000538199 7.31021e-06
0.000538199 0.00034157 2.60272e-06
7.31021e-06 2.60272e-06 5.90866e-05
0.00172634 0.000606527 4.96961e-08
0.000606527 9.04696e-05 -2.21806e-06
4.96961e-08 -2.21806e-06 -0.000156709
0.00216322 0.000615306 -1.37896e-05
0.000615306 0.000648967 -9.9367e-07
-1.37896e-05 -9.9367e-07 0.000396978
0.00129879 0.000572503 2.16547e-06
0.000572503 -6.45286e-05 1.56256e-05
2.16547e-06 1.56256e-05 -0.00016206
0.00246434 0.000721688 -1.57916e-06
0.000721688 0.000541228 9.1267e-07
-1.57916e-06 9.1267e-07 0.000299321
0.0023625 0.000633199 -7.1374e-06
0.000633199 0.000333825 6.36579e-08
-7.1374e-06 6.36579e-08 0.000136919
0.000876117 0.000321634 2.04517e-05
0.000321634 -0.000448057 1.35331e-05
2.04517e-05 1.35331e-05 -0.000466321
0.000963128 0.000545149 1.07894e-05
0.000545149 -0.000237274 -1.33701e-06
1.07894e-05 -1.33701e-06 -0.000395063
0.00119442 0.000642068 -2.26124e-05
0.000642068 -0.000106721 3.6905e-08
-2.26124e-05 3.6905e-08 -0.000307592
0.002544 0.000618961 4.63773e-06
0.000618961 -7.11338e-06 8.79611e-06
4.63773e-06 8.79611e-06 4.60975e-05
0.00524854 0.000752852 -6.88113e-07
0.000752852 -0.00070328 -2.21619e-05
-6.88113e-07 -2.21619e-05 -0.000397741
0.00340945 0.000987832 -1.23798e-05
0.000987832 0.000809169 -3.52301e-05
-1.23798e-05 -3.52301e-05 0.000719453
0.00147365 -5.43331e-05 2.65256e-05
-5.43331e-05 -0.000156939 2.0951e-08
2.65256e-05 2.0951e-08 -0.000110478
0.00229043 -0.000174379 -3.83789e-05
-0.000174379 -0.000216888 1.47331e-06
-3.83789e-05 1.47331e-06 -0.000114999
0.00186459 0.000252308 1.76675e-05
0.000252308 -0.000599461 -8.5426e-06
1.76675e-05 -8.5426e-06 -0.00053966
0.000131396 -0.000300976 -3.95756e-05
-0.000300976 -0.0013701 2.92142e-05
-3.95756e-05 2.92142e-05 -0.00112593
0.00356583 -0.000321176 -0.000100397
-0.000321176 0.000480855 -4.72517e-06
-0.000100397 -4.72517e-06 0.000511913
0.00215094 -0.000275961 6.22577e-06
-0.000275961 -0.000151825 -3.64857e-06
6.22577e-06 -3.64857e-06 7.46288e-05
0.00242462 -7.65066e-05 -9.59492e-06
-7.65066e-05 0.000389184 4.32966e-07
-9.59492e-06 4.32966e-07 0.000362174
0.00219129 -0.000212887 5.64783e-06
-0.000212887 -1.25977e-05 -7.82674e-08
5.64783e-06 -7.82674e-08 3.99654e-05
0.00212963 -1.65837e-05 6.5462e-06
-1.65837e-05 -3.51443e-06 9.58045e-07
6.5462e-06 9.58045e-07 -9.10927e-07
0.00190207 -0.000388302 -1.069e-05
-0.000388302 -0.000333476 3.67741e-06
-1.069e-05 3.67741e-06 -0.000179469
0.00218245 -0.00034398 -2.14427e-06
-0.00034398 -8.49788e-05 3.64029e-07
-2.14427e-06 3.64029e-07 1.79223e-05
0.00213053 -0.000250026 -9.03878e-07
-0.000250026 -2.14273e-05 -4.04047e-07
-9.03878e-07 -4.04047e-07 1.26371e-06
0.00207676 -0.000393721 -2.75554e-06
-0.000393721 3.83294e-05 -4.85627e-07
-2.75554e-06 -4.85627e-07 1.79958e-05
0.00205251 -0.000325268 -7.92472e-08
-0.000325268 4.90415e-05 8.03817e-08
-7.92472e-08 8.03817e-08 1.46301e-05
0.00197143 -0.000281445 -1.99474e-06
-0.000281445 4.91896e-05 5.6069e-07
-1.99474e-06 5.6069e-07 -1.50596e-05
0.00195492 -0.000374249 4.4853e-08
-0.000374249 7.61712e-05 -1.55314e-06
4.4853e-08 -1.55314e-06 -9.02985e-06
0.00187225 -0.000320295 6.19364e-07
-0.000320295 7.69362e-05 -1.44596e-07
6.19364e-07 -1.44596e-07 -2.60881e-05
0.00186787 -0.000295583 2.06618e-08
-0.000295583 0.000101598 -5.70559e-07
2.06618e-08 -5.70559e-07 -1.3131e-05
0.00176673 -0.000349645 6.13854e-07
-0.000349645 6.06021e-05 -7.87651e-07
6.13854e-07 -7.87651e-07 -6.25537e-05
0.00187129 -0.00033417 1.43501e-07
-0.00033417 0.000146225 -4.02187e-07
1.43501e-07 -4.02187e-07 8.33981e-06
0.0018136 -0.000307525 -3.55906e-07
-0.000307525 0.000157314 -1.51089e-06
-3.55906e-07 -1.51089e-06 -5.35843e-06
0.00202611 -0.000353213 -2.00889e-06
-0.000353213 0.000272326 3.72952e-06
-2.00889e-06 3.72952e-06 0.000119205
0.0018817 -0.000336795 -5.84639e-07
-0.000336795 0.000238012 -1.4006e-07
-5.84639e-07 -1.4006e-07 5.70302e-05
0.00147994 -0.000265729 -5.80006e-06
-0.000265729 0.000109007 9.45729e-07
-5.80006e-06 9.45729e-07 -8.16603e-05
0.00184169 -0.000367035 3.41146e-06
-0.000367035 0.000247382 1.20699e-06
3.41146e-06 1.20699e-06 4.0878e-05
0.00150929 -0.00029456 -3.70421e-07
-0.00029456 0.000160024 -1.02587e-08
-3.70421e-07 -1.02587e-08 -4.49049e-05
0.000944374 -0.000186451 -1.41269e-05
-0.000186451 -2.06007e-05 6.31624e-06
-1.41269e-05 6.31624e-06 -0.000188218
0.000400999 -0.000180446 -2.01461e-05
-0.000180446 -0.000161602 1.56529e-05
-2.01461e-05 1.56529e-05 -0.000272848
0.000926387 -0.000202455 2.15219e-07
-0.000202455 -2.6202e-06 7.00055e-08
2.15219e-07 7.00055e-08 -0.000179017
0.00134995 -0.000315133 5.79865e-06
-0.000315133 0.000124379 -1.1916e-06
5.79865e-06 -1.1916e-06 -0.000102425
0.00609337 5.77759e-05 -0.000224717
5.77759e-05 0.00337588 1.34294e-05
-0.000224717 1.34294e-05 0.00337806
0.000490764 -0.000196002 -1.51749e-06
-0.000196002 -0.000103339 9.47152e-07
-1.51749e-06 9.47152e-07 -0.000212403
0.000863939 -0.000206386 1.21553e-05
-0.000206386 4.69335e-06 -6.16961e-06
1.21553e-05 -6.16961e-06 -0.00017941
0.00595112 0.00010898 -1.32584e-06
0.00010898 0.00331054 -2.14571e-08
-1.32584e-06 -2.14571e-08 0.00330275
0.000589791 -0.000202224 2.45197e-05
-0.000202224 -3.48593e-05 -1.67448e-05
2.45197e-05 -1.67448e-05 -0.000140026
0.005668 0.000130382 0.000194005
0.000130382 0.00315418 -1.64884e-05
0.000194005 -1.64884e-05 0.00314123
0.00157304 0.000455508 -1.4559e-06
0.000455508 0.00018446 3.61561e-06
-1.4559e-06 3.61561e-06 -8.0129e-05
0.00135212 0.000401368 3.10042e-07
0.000401368 0.000169402 9.03054e-07
3.10042e-07 9.03054e-07 -0.000109267
0.00125364 0.000314001 -7.33799e-06
0.000314001 0.000158834 -1.15857e-06
-7.33799e-06 -1.15857e-06 -7.49357e-05
0.00177359 0.000417874 1.10139e-06
0.000417874 0.000523522 2.48989e-06
1.10139e-06 2.48989e-06 0.00023819
0.00107665 0.000275127 -1.48214e-06
0.000275127 0.000137797 6.61986e-08
-1.48214e-06 6.61986e-08 -8.73731e-05
0.000888528 0.000214614 -9.41052e-06
0.000214614 0.000138813 -3.16023e-06
-9.41052e-06 -3.16023e-06 -5.22032e-05
0.00122725 0.000257635 -2.68357e-06
0.000257635 0.000347908 -6.16702e-07
-2.68357e-06 -6.16702e-07 0.000126894
0.000700263 0.000175685 2.93974e-07
0.000175685 0.000101357 3.77448e-07
2.93974e-07 3.77448e-07 -8.69124e-05
0.000727446 0.000108385 -1.91403e-05
0.000108385 9.26825e-05 -1.52693e-05
-1.91403e-05 -1.52693e-05 1.15711e-05
0.000353822 4.8285e-05 5.5302e-07
4.8285e-05 -0.000110701 6.11802e-06
5.5302e-07 6.11802e-06 -0.000250042
0.000544132 2.8958e-05 -9.18395e-07
2.8958e-05 -1.0729e-06 -5.55148e-07
-9.18395e-07 -5.55148e-07 -6.15926e-05
0.00421094 -0.00014172 -0.000134458
-0.00014172 0.00227749 -7.37769e-06
-0.000134458 -7.37769e-06 0.00226937
0.00040424 4.26431e-06 5.3562e-06
4.26431e-06 -7.93566e-05 1.18861e-05
5.3562e-06 1.18861e-05 -0.000130113
0.00349791 -0.000150586 -5.8572e-06
-0.000150586 0.00183738 5.72157e-07
-5.8572e-06 5.72157e-07 0.00182879
0.00311586 -0.000138341 6.16538e-05
-0.000138341 0.00159331 3.85969e-06
6.16538e-05 3.85969e-06 0.00158822
0.000720358 9.50236e-05 2.11292e-05
9.50236e-05 -0.00060137 1.38997e-05
2.11292e-05 1.38997e-05 -0.000480549
0.00229166 8.66817e-05 -9.94638e-06
8.66817e-05 -0.000555704 -3.16209e-06
-9.94638e-06 -3.16209e-06 -0.000219185
0.00393301 0.000132261 0.000168003
0.000132261 -0.00110024 4.66297e-05
0.000168003 4.66297e-05 6.6981e-06
0.0024907 0.000616384 -3.81234e-06
0.000616384 0.000536407 -2.4043e-07
-3.81234e-06 -2.4043e-07 0.00028386
0.00169346 0.000569965 -4.40656e-06
0.000569965 0.000231748 -4.273e-06
-4.40656e-06 -4.273e-06 -4.77528e-05
0.00202645 0.000462229 -5.12201e-07
0.000462229 0.000195715 3.81696e-06
-5.12201e-07 3.81696e-06 -7.31741e-06
0.00189675 0.000537906 9.85925e-07
0.000537906 0.000260413 3.09484e-07
9.85925e-07 3.09484e-07 1.40132e-06
0.00133872 0.00046268 1.85098e-07
0.00046268 0.000106145 -9.5476e-06
1.85098e-07 -9.5476e-06 -0.000179993
0.00181289 0.000476294 -1.01421e-06
0.000476294 3.5074e-06 1.29705e-06
-1.01421e-06 1.29705e-06 -0.000180501
0.00216094 0.000597005 -6.41192e-06
0.000597005 0.000638125 -2.98298e-06
-6.41192e-06 -2.98298e-06 0.000350356
0.0020209 0.000622388 2.71399e-07
0.000622388 0.000277334 -3.96371e-07
2.71399e-07 -3.96371e-07 2.59043e-05
0.00194343 0.000360955 -8.44665e-06
0.000360955 -5.1117e-05 -1.67289e-07
-8.44665e-06 -1.67289e-07 -0.000123366
0.00290103 0.000765644 -2.38685e-06
0.000765644 0.000779466 5.43039e-06
-2.38685e-06 5.43039e-06 0.000535877
0.0021629 0.000621573 -1.16353e-06
0.000621573 0.000214719 -1.55268e-07
-1.16353e-06 -1.55268e-07 1.67566e-05
0.000827304 0.000324818 5.25191e-06
0.000324818 -0.000437832 3.30925e-06
5.25191e-06 3.30925e-06 -0.000463127
-0.000444343 0.000432261 -1.44908e-05
0.000432261 -0.000963501 -2.32249e-06
-1.44908e-05 -2.32249e-06 -0.00110382
0.00282349 0.000654218 -7.89375e-05
0.000654218 0.000117308 -2.75988e-05
-7.89375e-05 -2.75988e-05 0.000114103
0.00197759 5.44982e-05 -1.27909e-06
5.44982e-05 -0.000122034 -1.06763e-06
-1.27909e-06 -1.06763e-06 -8.21244e-05
0.00232074 -5.28554e-05 3.31422e-06
-5.28554e-05 0.000387819 6.50717e-07
3.31422e-06 6.50717e-07 0.000426872
0.00186187 -0.000134431 -6.28413e-05
-0.000134431 -0.000342533 3.25451e-06
-6.28413e-05 3.25451e-06 -0.000346818
0.00233021 -0.000300123 -4.67439e-05
-0.000300123 2.87495e-05 4.27301e-06
-4.67439e-05 4.27301e-06 0.000220985
0.00150379 -9.07416e-05 -9.49764e-06
-9.07416e-05 -0.000198795 1.68519e-06
-9.49764e-06 1.68519e-06 -0.000215619
0.00213499 -0.000209071 -2.07048e-08
-0.000209071 -5.15347e-05 -1.19701e-06
-2.07048e-08 -1.19701e-06 1.67513e-05
0.00217726 -1.79676e-05 -1.75408e-06
-1.79676e-05 -9.26182e-07 1.29498e-06
-1.75408e-06 1.29498e-06 8.78064e-06
0.00218818 -7.29587e-05 -1.38677e-06
-7.29587e-05 -1.7189e-07 -2.83121e-07
-1.38677e-06 -2.83121e-07 2.6336e-05
0.00220059 -0.000344997 -4.3075e-06
-0.000344997 -5.56849e-05 4.25763e-07
-4.3075e-06 4.25763e-07 2.27885e-05
0.00210506 -0.000240907 4.36486e-07
-0.000240907 -2.19246e-05 -1.75082e-07
4.36486e-07 -1.75082e-07 -3.46842e-06
0.00204354 -0.000191077 -1.54258e-06
-0.000191077 1.12665e-05 1.96359e-07
-1.54258e-06 1.96359e-07 2.53404e-06
0.00205865 -0.000322477 1.13465e-06
-0.000322477 6.32654e-05 -6.99328e-07
1.13465e-06 -6.99328e-07 2.50427e-05
0.00196175 -0.000277952 1.79451e-07
-0.000277952 4.97761e-05 3.87953e-08
1.79451e-07 3.87953e-08 -1.51125e-05
0.00192267 -0.00023649 -1.10807e-06
-0.00023649 9.0728e-05 4.06006e-08
-1.10807e-06 4.06006e-08 2.01215e-06
0.00182186 -0.000316081 2.08358e-06
-0.000316081 4.35148e-05 -1.08198e-06
2.08358e-06 -1.08198e-06 -5.98161e-05
0.00188599 -0.00029614 2.1255e-07
-0.00029614 0.000110758 -2.29363e-07
2.1255e-07 -2.29363e-07 -4.24135e-06
0.00184401 -0.000269878 1.18938e-07
-0.000269878 0.000131085 -1.35384e-06
1.18938e-07 -1.35384e-06 -8.65651e-06
0.00190262 -0.000335606 -2.57711e-07
-0.000335606 0.000165217 9.08488e-07
-2.57711e-07 9.08488e-07 2.69907e-05
0.00184049 -0.000308526 -3.36276e-07
-0.000308526 0.000174722 -2.4853e-08
-3.36276e-07 -2.4853e-08 1.21619e-05
0.00153158 -0.000242328 -3.92364e-06
-0.000242328 0.000106317 5.87767e-07
-3.92364e-06 5.87767e-07 -7.07361e-05
0.00188098 -0.000337065 4.92472e-07
-0.000337065 0.00023833 1.58574e-06
4.92472e-07 1.58574e-06 5.85041e-05
0.0015103 -0.000267524 -3.44703e-07
-0.000267524 0.000126612 9.19546e-08
-3.44703e-07 9.19546e-08 -6.37848e-05
0.000963591 -0.000167989 -1.4323e-05
-0.000167989 -2.77983e-05 5.72707e-06
-1.4323e-05 5.72707e-06 -0.0001885
0.00152591 -0.00029687 5.93776e-06
-0.00029687 0.000170667 -7.96896e-07
5.93776e-06 -7.96896e-07 -3.38209e-05
0.00097114 -0.000187219 1.65102e-07
-0.000187219 -6.92703e-06 8.69225e-08
1.65102e-07 8.69225e-08 -0.000174324
0.00256362 -0.000145108 -3.87309e-05
-0.000145108 0.00113988 9.9834e-06
-3.87309e-05 9.9834e-06 0.00105139
0.00188387 -7.05232e-05 -0.00021285
-7.05232e-05 0.000798948 2.60311e-05
-0.00021285 2.60311e-05 0.000780857
0.0015597 -0.000175076 -9.05169e-06
-0.000175076 0.00053829 -3.55711e-07
-9.05169e-06 -3.55711e-07 0.000435365
0.000944396 -0.000204828 1.31172e-05
-0.000204828 5.44037e-06 -6.13411e-06
1.31172e-05 -6.13411e-06 -0.000171679
0.00615282 4.06343e-05 -6.78855e-06
4.06343e-05 0.00341885 1.76532e-07
-6.78855e-06 1.76532e-07 0.00341767
0.000521338 -0.0002223 2.47959e-05
-0.0002223 -8.58841e-05 -1.63379e-05
2.47959e-05 -1.63379e-05 -0.000196938
0.00603931 8.7897e-05 0.000217941
8.7897e-05 0.00336892 -1.93752e-05
0.000217941 -1.93752e-05 0.00335884
0.0020266 0.000356413 1.34433e-07
0.000356413 0.000170041 6.52588e-07
1.34433e-07 6.52588e-07 1.00824e-05
0.00186229 0.000447103 2.01933e-06
0.000447103 0.000236666 4.20214e-06
2.01933e-06 4.20214e-06 7.32416e-06
0.00182836 0.000478745 1.19544e-07
0.000478745 0.000329696 2.32254e-07
1.19544e-07 2.32254e-07 6.34222e-05
0.00134529 0.000338383 -6.32254e-06
0.000338383 0.000149677 -2.55269e-07
-6.32254e-06 -2.55269e-07 -8.34663e-05
0.00146341 0.000420944 4.92863e-06
0.000420944 0.000231583 -2.80563e-07
4.92863e-06 -2.80563e-07 -5.06868e-05
0.00119717 0.000305988 -5.11442e-07
0.000305988 0.000127397 3.16314e-07
-5.11442e-07 3.16314e-07 -0.000104532
0.000807443 0.000196784 -1.14616e-05
0.000196784 2.5706e-06 -5.12153e-06
-1.14616e-05 -5.12153e-06 -0.000175688
0.00122181 0.000284349 4.61434e-06
0.000284349 0.000228193 2.28552e-06
4.61434e-06 2.28552e-06 4.03165e-06
0.00077307 0.0001971 3.60152e-07
0.0001971 6.35482e-05 9.42882e-07
3.60152e-07 9.42882e-07 -0.000125148
0.000623255 0.000191162 -2.4596e-05
0.000191162 1.0709e-05 -1.65545e-05
-2.4596e-05 -1.65545e-05 -9.12906e-05
0.000436544 0.000144111 1.89948e-06
0.000144111 -5.51354e-05 2.99887e-06
1.89948e-06 2.99887e-06 -0.00024214
0.000527887 9.50986e-05 -1.68808e-06
9.50986e-05 -2.64309e-05 -6.45705e-07
-1.68808e-06 -6.45705e-07 -0.000104076
0.00509553 -0.000140642 -0.000176288
-0.000140642 0.00282213 -1.31922e-05
-0.000176288 -1.31922e-05 0.00280773
0.000311374 1.9218e-05 7.50275e-06
1.9218e-05 -0.000136663 1.31654e-05
7.50275e-06 1.31654e-05 -0.0001968
0.00400689 -0.000168977 -7.31606e-06
-0.000168977 0.00215961 6.01666e-07
-7.31606e-06 6.01666e-07 0.00214501
0.00342385 -0.000157969 7.65518e-05
-0.000157969 0.00179286 3.82966e-06
7.65518e-05 3.82966e-06 0.00178223
0.00209659 0.00018509 -3.04407e-06
0.00018509 -6.77538e-05 -4.88335e-07
-3.04407e-06 -4.88335e-07 -3.13586e-05
0.00198909 6.78056e-05 2.22448e-05
6.78056e-05 5.51684e-05 -2.65229e-06
2.22448e-05 -2.65229e-06 0.000166187
0.00469839 0.000126971 -0.000106904
0.000126971 0.000481684 -1.4067e-05
-0.000106904 -1.4067e-05 0.000858649
0.00190046 0.000412093 -4.2181e-06
0.000412093 7.54217e-05 1.40285e-06
-4.2181e-06 1.40285e-06 -9.24971e-05
0.00206225 0.000573443 -3.00183e-06
0.000573443 0.000306067 -1.82226e-07
-3.00183e-06 -1.82226e-07 5.9068e-05
0.00157651 0.000578167 -8.31363e-06
0.000578167 0.000149497 -8.26373e-06
-8.31363e-06 -8.26373e-06 -0.000126247
0.00214238 0.000456702 2.96189e-06
0.000456702 0.000282192 1.21406e-06
2.96189e-06 1.21406e-06 8.18624e-05
0.00185762 0.000527126 -1.43291e-06
0.000527126 0.000236369 -3.83686e-06
-1.43291e-06 -3.83686e-06 -2.00382e-05
0.00224162 0.000346474 -8.58806e-07
0.000346474 0.000130428 2.46193e-07
-8.58806e-07 2.46193e-07 4.61529e-05
0.00175635 0.000472536 9.62285e-08
0.000472536 -1.48144e-06 9.12063e-07
9.62285e-08 9.12063e-07 -0.00018626
0.00241874 0.000647437 -5.59659e-06
0.000647437 0.000521935 -1.26555e-06
-5.59659e-06 -1.26555e-06 0.000264154
0.00195841 0.000359168 -6.96185e-07
0.000359168 -3.5901e-05 -4.86264e-07
-6.96185e-07 -4.86264e-07 -0.000107595
0.00208376 0.000617294 1.42387e-05
0.000617294 0.000154625 2.58967e-06
1.42387e-05 2.58967e-06 -4.66697e-05
0.00103877 0.000326872 -3.43379e-05
0.000326872 -0.000296805 -1.14997e-05
-3.43379e-05 -1.14997e-05 -0.000329271
0.00215158 6.35263e-05 -7.71611e-07
6.35263e-05 -8.55979e-06 3.05894e-07
-7.71611e-07 3.05894e-07 1.96759e-05
0.00210167 6.55689e-05 -1.89094e-06
6.55689e-05 -3.27628e-05 3.18845e-07
-1.89094e-06 3.18845e-07 2.83193e-06
0.00302719 -4.64901e-05 -3.95533e-05
-4.64901e-05 0.000855129 2.92152e-06
-3.95533e-05 2.92152e-06 0.000883813
0.00205696 -0.000202764 -1.08047e-05
-0.000202764 -0.000106994 1.14836e-06
-1.08047e-05 1.14836e-06 -2.39624e-05
0.00221932 -1.5845e-05 -3.51646e-06
-1.5845e-05 -5.95347e-06 -2.19163e-06
-3.51646e-06 -2.19163e-06 1.03022e-05
0.0021557 -7.8168e-05 -5.04815e-07
-7.8168e-05 -3.78995e-05 -8.18942e-08
-5.04815e-07 -8.18942e-08 -4.799e-06
0.00195749 -6.04594e-05 -1.82174e-06
-6.04594e-05 -2.14192e-06 2.55407e-07
-1.82174e-06 2.55407e-07 -5.4839e-06
0.00207634 -0.000230592 9.75953e-07
-0.000230592 -2.22141e-05 -4.2888e-08
9.75953e-07 -4.2888e-08 -8.58383e-06
0.00200427 -0.000193993 -7.19365e-08
-0.000193993 -2.75761e-06 2.31445e-08
-7.19365e-08 2.31445e-08 -1.62177e-05
0.00195986 -0.000162173 -2.34937e-08
-0.000162173 7.56706e-05 -1.48159e-07
-2.34937e-08 -1.48159e-07 1.5388e-05
0.00195492 -0.000274542 2.36944e-06
-0.000274542 5.27258e-05 -5.93921e-07
2.36944e-06 -5.93921e-07 -1.3057e-05
0.00190215 -0.000235542 1.74047e-08
-0.000235542 7.22412e-05 -9.30879e-08
1.74047e-08 -9.30879e-08 -1.66303e-05
0.00186117 -0.000219867 -7.41608e-08
-0.000219867 9.61554e-05 -8.73824e-07
-7.41608e-08 -8.73824e-07 -2.18327e-05
0.0019098 -0.000296871 1.05305e-06
-0.000296871 0.000123508 7.50925e-08
1.05305e-06 7.50925e-08 8.25359e-06
0.00187409 -0.000271209 -3.05788e-07
-0.000271209 0.000149368 -1.01397e-07
-3.05788e-07 -1.01397e-07 9.5658e-06
0.00157685 -0.000212296 -2.69175e-06
-0.000212296 0.000100099 2.69789e-07
-2.69175e-06 2.69789e-07 -6.28709e-05
0.00186881 -0.000309645 8.84804e-08
-0.000309645 0.000192964 1.33228e-06
8.84804e-08 1.33228e-06 3.05e-05
0.00155695 -0.000243811 -2.8634e-07
-0.000243811 0.000120038 7.06058e-08
-2.8634e-07 7.06058e-08 -5.67023e-05
0.000980527 -0.000150047 -1.37953e-05
-0.000150047 -3.2598e-05 4.86427e-06
-1.37953e-05 4.86427e-06 -0.000188385
0.00154033 -0.000269331 4.8645e-06
-0.000269331 0.000144028 -7.44152e-07
4.8645e-06 -7.44152e-07 -4.61006e-05
0.000997643 -0.000168424 5.18658e-08
-0.000168424 -1.04756e-05 1.35005e-07
5.18658e-08 1.35005e-07 -0.000170601
0.00259001 -0.000146699 -4.67338e-05
-0.000146699 0.00114432 9.34956e-06
-4.67338e-05 9.34956e-06 0.00106351
0.00099579 -0.00018823 1.41325e-05
-0.00018823 5.51893e-06 -6.04955e-06
1.41325e-05 -6.04955e-06 -0.00016173
0.00270946 -0.000186823 4.21878e-05
-0.000186823 0.00122674 -5.99442e-06
4.21878e-05 -5.99442e-06 0.00114483
0.00193551 -0.000109205 -0.000215316
-0.000109205 0.000836783 3.06002e-05
-0.000215316 3.06002e-05 0.000816583
0.00393196 -6.21888e-05 -0.000210756
-6.21888e-05 0.00206457 1.75654e-05
-0.000210756 1.75654e-05 0.00205526
0.00279313 -0.000241476 0.000135112
-0.000241476 0.00128875 -2.02667e-05
0.000135112 -2.02667e-05 0.00120746
0.00620299 2.62427e-05 0.000233048
2.62427e-05 0.00345854 -2.28894e-05
0.000233048 -2.28894e-05 0.00345306
0.00221096 0.000354043 -2.45244e-06
0.000354043 0.000272536 -5.46406e-07
-2.45244e-06 -5.46406e-07 0.000133908
0.00170997 0.000345736 2.78956e-06
0.000345736 9.00509e-05 1.56963e-06
2.78956e-06 1.56963e-06 -9.60601e-05
0.0020184 0.000350078 5.07616e-07
0.000350078 0.000167322 -1.62298e-06
5.07616e-07 -1.62298e-06 1.38862e-05
0.00151149 0.000337934 -5.1664e-06
0.000337934 0.000160127 4.04596e-07
-5.1664e-06 4.04596e-07 -5.89474e-05
0.00194429 0.000451925 4.82015e-07
0.000451925 0.000274016 4.53154e-07
4.82015e-07 4.53154e-07 4.39379e-05
0.00209675 0.000503482 1.63208e-06
0.000503482 0.000482666 -2.99065e-06
1.63208e-06 -2.99065e-06 0.000214436
0.00134132 0.000339233 9.35333e-08
0.000339233 0.000144833 2.45607e-07
9.35333e-08 2.45607e-07 -8.93374e-05
0.000902275 0.000211494 -1.31436e-05
0.000211494 -2.64311e-06 -5.5035e-06
-1.31436e-05 -5.5035e-06 -0.000180029
0.00121535 0.000304525 8.21599e-06
0.000304525 0.000141891 2.78751e-06
8.21599e-06 2.78751e-06 -8.94367e-05
0.00078066 0.000193017 -1.93157e-07
0.000193017 -1.63377e-05 -1.8881e-07
-1.93157e-07 -1.8881e-07 -0.000192623
0.000506125 0.00022452 -2.57188e-05
0.00022452 -7.91661e-05 -1.69127e-05
-2.57188e-05 -1.69127e-05 -0.000188913
0.000518365 0.000180108 6.34043e-06
0.000180108 -9.37656e-05 3.55803e-06
6.34043e-06 3.55803e-06 -0.000280155
0.000466621 0.00016077 1.47e-06
0.00016077 -8.66775e-05 4.26568e-07
1.47e-06 4.26568e-07 -0.000181696
0.0058736 -0.000130181 -0.00020142
-0.000130181 0.00330181 -1.98923e-05
-0.00020142 -1.98923e-05 0.00327825
0.000335665 6.34792e-05 1.33148e-05
6.34792e-05 -0.000138573 1.45508e-05
1.33148e-05 1.45508e-05 -0.000210863
0.00476985 -0.00018059 -1.04167e-05
-0.00018059 0.00263051 4.71851e-07
-1.04167e-05 4.71851e-07 0.00261016
0.00378622 -0.000179788 9.04609e-05
-0.000179788 0.00202748 4.35787e-06
9.04609e-05 4.35787e-06 0.00200989
0.00214169 0.00020548 -1.40756e-06
0.00020548 -4.06404e-06 2.54578e-07
-1.40756e-06 2.54578e-07 -4.45343e-06
0.00203052 0.000187935 1.13722e-06
0.000187935 -0.000100324 -7.23688e-08
1.13722e-06 -7.23688e-08 -6.50255e-05
0.00299951 4.66771e-05 -7.74675e-05
4.66771e-05 0.000576076 -1.14022e-05
-7.74675e-05 -1.14022e-05 0.000684479
0.00206718 0.000303933 -3.38387e-07
0.000303933 0.000106814 3.5968e-07
-3.38387e-07 3.5968e-07 5.30517e-07
0.00195418 0.000412788 -9.70676e-08
0.000412788 0.000129016 4.62162e-07
-9.70676e-08 4.62162e-07 -3.95796e-05
0.00163215 0.00052917 1.58152e-06
0.00052917 7.4493e-05 -2.05333e-06
1.58152e-06 -2.05333e-06 -0.000166545
0.00225896 0.000450879 -4.75465e-08
0.000450879 0.00036969 -2.82722e-06
-4.75465e-08 -2.82722e-06 0.000172191
0.00212978 0.000333686 -6.294e-07
0.000333686 7.17798e-05 9.98343e-09
-6.294e-07 9.98343e-09 -1.08844e-05
0.00170468 0.000469253 -3.94821e-06
0.000469253 -3.55578e-06 -7.41502e-08
-3.94821e-06 -7.41502e-08 -0.000189229
0.00187983 0.000352351 1.03386e-05
0.000352351 -5.44359e-05 4.73576e-07
1.03386e-05 4.73576e-07 -0.000125558
0.00201237 5.54946e-05 3.91703e-09
5.54946e-05 5.07212e-06 4.74587e-07
3.91703e-09 4.74587e-07 1.04969e-05
0.00211046 6.14568e-05 2.59111e-08
6.14568e-05 -2.1845e-05 -3.51337e-08
2.59111e-08 -3.51337e-08 3.44172e-06
0.0022094 7.938e-05 -7.62132e-06
7.938e-05 4.92655e-05 -3.4919e-07
-7.62132e-06 -3.4919e-07 8.04762e-05
0.00188525 -1.00586e-05 -4.89383e-06
-1.00586e-05 9.22679e-06 5.15209e-07
-4.89383e-06 5.15209e-07 -8.57237e-06
0.0021352 -8.86834e-05 2.01284e-06
-8.86834e-05 -6.75809e-05 -3.75102e-07
2.01284e-06 -3.75102e-07 -2.7727e-05
0.00197533 -6.32937e-05 -7.17663e-07
-6.32937e-05 4.36521e-06 2.80042e-07
-7.17663e-07 2.80042e-07 2.18378e-06
0.0019187 -9.35054e-05 -3.86076e-06
-9.35054e-05 3.71649e-05 5.35563e-07
-3.86076e-06 5.35563e-07 -3.90439e-06
0.00196622 -0.000196865 2.15344e-06
-0.000196865 -1.66269e-05 -3.14445e-07
2.15344e-06 -3.14445e-07 -3.47653e-05
0.00191899 -0.000159724 1.97223e-06
-0.000159724 4.78726e-05 -5.07918e-07
1.97223e-06 -5.07918e-07 -1.20381e-05
0.00189835 -0.00015374 2.24066e-06
-0.00015374 9.84012e-05 -1.54921e-06
2.24066e-06 -1.54921e-06 -6.34669e-07
0.00188421 -0.000234125 1.60714e-06
-0.000234125 5.52703e-05 -2.42837e-07
1.60714e-06 -2.42837e-07 -3.36597e-05
0.00190713 -0.000219906 -1.28329e-07
-0.000219906 0.000126921 -1.79037e-07
-1.28329e-07 -1.79037e-07 9.16204e-06
0.00161597 -0.00017039 -1.81332e-06
-0.00017039 9.66039e-05 -7.80814e-09
-1.81332e-06 -7.80814e-09 -5.11463e-05
0.00190162 -0.000272239 -8.45841e-08
-0.000272239 0.000166649 9.79129e-07
-8.45841e-08 9.79129e-07 2.68338e-05
0.00159385 -0.000212406 -2.44858e-07
-0.000212406 0.000109111 6.33942e-08
-2.44858e-07 6.33942e-08 -5.33591e-05
0.000994231 -0.000129228 -1.30848e-05
-0.000129228 -3.82013e-05 3.84723e-06
-1.30848e-05 3.84723e-06 -0.000188604
0.00158136 -0.000245138 3.18101e-06
-0.000245138 0.000133304 -4.53129e-07
3.18101e-06 -4.53129e-07 -4.30884e-05
0.0010149 -0.000149518 -6.58202e-08
-0.000149518 -1.50823e-05 2.10589e-07
-6.58202e-08 2.10589e-07 -0.00016999
0.00259452 -0.000148243 -5.44388e-05
-0.000148243 0.00114291 9.16377e-06
-5.44388e-05 9.16377e-06 0.00106486
0.00103273 -0.00016896 1.42179e-05
-0.00016896 7.23287e-06 -5.48196e-06
1.42179e-05 -5.48196e-06 -0.000152277
0.00268172 -0.000172909 3.85813e-05
-0.000172909 0.00119956 -4.83924e-06
3.85813e-05 -4.83924e-06 0.00112417
0.00198099 -9.42062e-05 -0.000210834
-9.42062e-05 0.000857839 2.70572e-05
-0.000210834 2.70572e-05 0.000839521
0.00283672 -0.000198589 0.000132484
-0.000198589 0.00129998 -2.17301e-05
0.000132484 -2.17301e-05 0.00122525
0.0016647 -4.81348e-05 -9.15256e-05
-4.81348e-05 0.000675459 1.19859e-05
-9.15256e-05 1.19859e-05 0.000644642
0.00585686 9.60628e-05 5.80709e-05
9.60628e-05 0.00323278 -2.49154e-06
5.80709e-05 -2.49154e-06 0.00321118
0.00198122 0.000294892 5.74986e-07
0.000294892 0.000115655 4.62678e-07
5.74986e-07 4.62678e-07 -8.23407e-06
0.00199861 0.000327046 1.30781e-07
0.000327046 0.000217328 -3.90156e-07
1.30781e-07 -3.90156e-07 5.66063e-05
0.0020902 0.000349946 -3.87587e-06
0.000349946 0.000191792 1.49401e-09
-3.87587e-06 1.49401e-09 5.04916e-05
0.00173908 0.000308457 -2.43325e-06
0.000308457 0.000239263 2.14755e-07
-2.43325e-06 2.14755e-07 4.33667e-05
0.00172136 0.000351669 -2.40382e-07
0.000351669 8.34487e-05 -1.85139e-06
-2.40382e-07 -1.85139e-06 -9.96443e-05
0.00201627 0.000344133 -3.56165e-06
0.000344133 0.00016827 -4.91405e-06
-3.56165e-06 -4.91405e-06 2.13268e-05
0.000990562 0.000210635 -1.43935e-05
0.000210635 -4.04761e-06 -5.25923e-06
-1.43935e-05 -5.25923e-06 -0.000176367
0.00146153 0.000335156 4.10389e-07
0.000335156 0.000128497 3.42531e-07
4.10389e-07 3.42531e-07 -9.0981e-05
0.00201942 0.000455992 2.93414e-06
0.000455992 0.000306562 -2.84832e-06
2.93414e-06 -2.84832e-06 7.58816e-05
0.00131745 0.000338195 7.40926e-06
0.000338195 0.000128664 1.16226e-06
7.40926e-06 1.16226e-06 -0.000106206
0.000862998 0.000205734 -8.20989e-07
0.000205734 -2.15136e-05 2.13505e-08
-8.20989e-07 2.13505e-08 -0.000197139
0.000472547 0.000225994 -2.51699e-05
0.000225994 -0.000103352 -1.63051e-05
-2.51699e-05 -1.63051e-05 -0.00021785
0.000677747 0.000183444 1.10918e-05
0.000183444 -8.06457e-05 4.64973e-06
1.10918e-05 4.64973e-06 -0.000254074
0.000464533 0.000210497 2.19742e-06
0.000210497 -9.83014e-05 5.93037e-07
2.19742e-06 5.93037e-07 -0.0002087
0.00620943 -5.22284e-05 -0.000222432
-5.22284e-05 0.00349071 -2.47907e-05
-0.000222432 -2.47907e-05 0.00347224
0.000479869 0.000147893 2.20724e-05
0.000147893 -8.34319e-05 1.61846e-05
2.20724e-05 1.61846e-05 -0.000172979
0.00562665 -0.000154614 -7.33716e-07
-0.000154614 0.00314242 -6.07277e-07
-7.33716e-07 -6.07277e-07 0.00312343
0.00447111 -0.000215482 0.00010926
-0.000215482 0.00246029 6.35915e-06
0.00010926 6.35915e-06 0.00243126
0.00203997 0.000165284 -1.7986e-06
0.000165284 5.84779e-05 1.12841e-07
-1.7986e-06 1.12841e-07 1.89015e-05
0.00215468 0.000209215 2.72793e-07
0.000209215 -4.6051e-06 5.21452e-07
2.72793e-07 5.21452e-07 -2.62649e-06
0.00202941 0.00019172 3.33336e-06
0.00019172 -0.000106897 3.8388e-07
3.33336e-06 3.8388e-07 -7.22308e-05
0.00205543 0.000298592 1.00258e-07
0.000298592 0.000106814 -2.45787e-09
1.00258e-07 -2.45787e-09 4.26227e-06
0.00199598 0.000412397 -2.25471e-07
0.000412397 0.000176576 -7.56155e-07
-2.25471e-07 -7.56155e-07 7.46393e-06
0.00203533 0.000321622 1.03883e-06
0.000321622 2.05762e-05 -4.71165e-07
1.03883e-06 -4.71165e-07 -6.03929e-05
0.00193551 5.87387e-05 -2.96148e-06
5.87387e-05 2.11722e-05 2.64797e-07
-2.96148e-06 2.64797e-07 5.2989e-06
0.0020009 5.14865e-05 3.90867e-07
5.14865e-05 3.38527e-06 -9.97969e-08
3.90867e-07 -9.97969e-08 5.52819e-06
0.00206578 5.96377e-05 9.55955e-07
5.96377e-05 -3.88713e-05 -2.20036e-07
9.55955e-07 -2.20036e-07 -1.59488e-05
0.00190329 -1.20764e-05 -1.44244e-06
-1.20764e-05 1.73028e-05 7.9188e-08
-1.44244e-06 7.9188e-08 -1.17129e-06
0.00178558 -3.59157e-05 -5.37479e-06
-3.59157e-05 -3.27848e-05 3.4899e-07
-5.37479e-06 3.4899e-07 -7.88976e-05
0.00199268 -6.59184e-05 1.78726e-06
-6.59184e-05 1.0383e-05 -2.32811e-07
1.78726e-06 -2.32811e-07 9.44882e-06
0.00189568 -9.14409e-05 -1.68104e-06
-9.14409e-05 2.80318e-05 3.09261e-07
-1.68104e-06 3.09261e-07 -1.62688e-05
0.00192692 -9.38508e-05 -2.12051e-06
-9.38508e-05 0.000110171 -1.55867e-07
-2.12051e-06 -1.55867e-07 3.03685e-05
0.00187305 -0.000157435 4.11675e-06
-0.000157435 1.79067e-05 -8.27749e-07
4.11675e-06 -8.27749e-07 -4.17092e-05
0.00190109 -0.000155432 2.71768e-06
-0.000155432 9.86932e-05 -8.84829e-07
2.71768e-06 -8.84829e-07 -5.6882e-07
0.00164507 -0.000121474 1.01823e-07
-0.000121474 9.574e-05 -6.84634e-07
1.01823e-07 -6.84634e-07 -3.82097e-05
0.00193902 -0.000221186 -9.62728e-08
-0.000221186 0.00014813 4.72311e-07
-9.62728e-08 4.72311e-07 3.02935e-05
0.00162234 -0.000171051 -1.58624e-07
-0.000171051 9.65428e-05 5.82413e-08
-1.58624e-07 5.82413e-08 -5.1019e-05
0.00100819 -0.000103227 -1.25689e-05
-0.000103227 -4.12468e-05 2.80887e-06
-1.25689e-05 2.80887e-06 -0.000184719
0.00161465 -0.000212841 1.9763e-06
-0.000212841 0.000119413 -1.39023e-07
1.9763e-06 -1.39023e-07 -4.25945e-05
0.00102638 -0.000128001 -2.03675e-07
-0.000128001 -2.13713e-05 2.68089e-07
-2.03675e-07 2.68089e-07 -0.000170898
0.00256096 -0.000155563 -5.76147e-05
-0.000155563 0.00112011 8.14895e-06
-5.76147e-05 8.14895e-06 0.00104295
0.00104927 -0.000149049 1.36712e-05
-0.000149049 2.20983e-06 -4.51646e-06
1.36712e-05 -4.51646e-06 -0.000151799
0.00266076 -0.000152009 3.70842e-05
-0.000152009 0.00117893 -3.67993e-06
3.70842e-05 -3.67993e-06 0.00110729
0.00200912 -7.95963e-05 -0.000210255
-7.95963e-05 0.000868023 2.30206e-05
-0.000210255 2.30206e-05 0.000850706
0.00277345 -0.000168788 0.000130164
-0.000168788 0.0012491 -1.86263e-05
0.000130164 -1.86263e-05 0.00118173
0.00166715 -5.63233e-05 -8.3045e-05
-5.63233e-05 0.00067109 9.88904e-06
-8.3045e-05 9.88904e-06 0.000643014
0.00143436 -4.46415e-05 4.61639e-05
-4.46415e-05 0.000542364 -6.98633e-06
4.61639e-05 -6.98633e-06 0.000500356
0.00202374 0.000185875 -9.93417e-07
0.000185875 0.000120079 1.26444e-06
-9.93417e-07 1.26444e-06 3.74616e-05
0.00195997 0.000271893 -9.7248e-07
0.000271893 0.000160918 6.57751e-07
-9.7248e-07 6.57751e-07 2.00786e-05
0.0019645 0.000295719 -3.99264e-07
0.000295719 9.2217e-05 1.68673e-08
-3.99264e-07 1.68673e-08 -2.8173e-05
0.00184786 0.00028331 -1.48926e-06
0.00028331 0.000255888 2.52737e-07
-1.48926e-06 2.52737e-07 8.08953e-05
0.00193485 0.00032185 -2.81214e-07
0.00032185 0.000186838 -2.20459e-07
-2.81214e-07 -2.20459e-07 2.45534e-05
0.00196373 0.000345877 5.67065e-07
0.000345877 0.000107806 -4.90392e-09
5.67065e-07 -4.90392e-09 -3.62517e-05
0.00106242 0.000194287 -1.49879e-05
0.000194287 1.05815e-05 -4.87395e-06
-1.49879e-05 -4.87395e-06 -0.000153127
0.00163819 0.000307454 2.93761e-06
0.000307454 0.000170598 3.64976e-07
2.93761e-06 3.64976e-07 -2.42801e-05
0.00174221 0.000358378 -5.27327e-07
0.000358378 8.28756e-05 -3.29467e-06
-5.27327e-07 -3.29467e-06 -9.72947e-05
0.000404383 0.000182926 -2.25527e-05
0.000182926 -0.00016141 -1.37798e-05
-2.25527e-05 -1.37798e-05 -0.000269136
0.000957158 0.000206508 -5.7983e-07
0.000206508 -1.96497e-05 9.50518e-08
-5.7983e-07 9.50518e-08 -0.000191059
0.0014198 0.000333325 6.75091e-06
0.000333325 0.000101146 5.60613e-07
6.75091e-06 5.60613e-07 -0.000118942
0.000858682 0.000202654 1.32265e-05
0.000202654 -1.95287e-05 6.13591e-06
1.32265e-05 6.13591e-06 -0.000193819
0.000460304 0.00020912 1.16868e-06
0.00020912 -0.000107501 7.8511e-07
1.16868e-06 7.8511e-07 -0.000223184
0.00635706 4.70674e-05 -0.000237707
4.70674e-05 0.00356017 -2.83077e-05
-0.000237707 -2.83077e-05 0.0035487
0.000447908 0.000194438 2.29206e-05
0.000194438 -0.00010613 1.63099e-05
2.29206e-05 1.63099e-05 -0.000215307
0.00609068 -7.71548e-05 6.21551e-06
-7.71548e-05 0.00340626 -6.76603e-07
6.21551e-06 -6.76603e-07 0.00339502
0.0053445 -0.000194277 0.000152592
-0.000194277 0.00297667 8.21364e-06
0.000152592 8.21364e-06 0.0029524
0.00193373 0.000114721 -5.08681e-06
0.000114721 4.85438e-05 -6.01776e-07
-5.08681e-06 -6.01776e-07 1.03255e-05
0.00199068 0.000166378 1.0099e-06
0.000166378 2.81939e-05 4.78382e-07
1.0099e-06 4.78382e-07 -9.68168e-06
0.00215697 0.000213094 4.8501e-07
0.000213094 -9.54858e-06 -4.90727e-07
4.8501e-07 -4.90727e-07 -5.64269e-06
0.00205647 0.000293373 3.5302e-06
0.000293373 0.000114664 2.45231e-07
3.5302e-06 2.45231e-07 1.58812e-05
0.00174125 7.09167e-06 -3.57345e-06
7.09167e-06 -3.27913e-05 -5.63336e-08
-3.57345e-06 -5.63336e-08 -8.60743e-05
0.00192272 4.94178e-05 1.29625e-07
4.94178e-05 1.32037e-05 7.34582e-08
1.29625e-07 7.34582e-08 -4.06433e-06
0.00199109 4.74733e-05 7.34392e-07
4.74733e-05 3.53758e-06 -2.92589e-07
7.34392e-07 -2.92589e-07 1.90291e-06
0.00192305 -1.25034e-05 2.18179e-06
-1.25034e-05 2.66035e-05 -6.01161e-07
2.18179e-06 -6.01161e-07 7.46728e-06
0.00186776 -3.10627e-05 -1.36055e-06
-3.10627e-05 2.10633e-05 1.20637e-07
-1.36055e-06 1.20637e-07 -2.3212e-05
0.00175801 -3.89047e-05 -2.6959e-07
-3.89047e-05 1.14584e-05 -4.2176e-07
-2.6959e-07 -4.2176e-07 -6.86514e-05
0.00188362 -8.97246e-05 1.45333e-06
-8.97246e-05 2.50629e-05 1.45295e-07
1.45333e-06 1.45295e-07 -2.23816e-05
0.00187697 -9.40338e-05 -1.15127e-06
-9.40338e-05 8.15261e-05 5.76241e-07
-1.15127e-06 5.76241e-07 -4.88231e-06
0.00174915 -7.38228e-05 -1.38597e-06
-7.38228e-05 0.000152585 -4.33325e-07
-1.38597e-06 -4.33325e-07 3.51337e-05
0.00191904 -0.000156201 3.56508e-06
-0.000156201 0.000107862 -2.87898e-07
3.56508e-06 -2.87898e-07 8.6277e-06
0.00163398 -0.000119288 1.24463e-06
-0.000119288 8.63324e-05 -4.3947e-07
1.24463e-06 -4.3947e-07 -4.71103e-05
0.0010083 -7.39348e-05 -1.22877e-05
-7.39348e-05 -4.65457e-05 2.01731e-06
-1.22877e-05 2.01731e-06 -0.000183263
0.00163969 -0.000169722 1.5957e-06
-0.000169722 0.000104473 7.00847e-08
1.5957e-06 7.00847e-08 -4.25025e-05
0.00101859 -0.000102469 -1.17877e-07
-0.000102469 -3.51025e-05 1.89434e-07
-1.17877e-07 1.89434e-07 -0.00017809
0.000515467 -8.57562e-05 -1.99809e-05
-8.57562e-05 -0.000143874 5.32574e-06
-1.99809e-05 5.32574e-06 -0.000227746
0.00105653 -0.000126623 1.30371e-05
-0.000126623 -5.41925e-06 -3.39046e-06
1.30371e-05 -3.39046e-06 -0.000154029
0.00158281 -0.000100889 5.38574e-05
-0.000100889 0.000512094 -3.7827e-06
5.38574e-05 -3.7827e-06 0.000437486
0.00600859 -0.000138751 -0.000276566
-0.000138751 0.00331415 1.88075e-05
-0.000276566 1.88075e-05 0.00332558
0.00274387 -0.00013717 0.000128668
-0.00013717 0.00122024 -1.4946e-05
0.000128668 -1.4946e-05 0.00115741
0.00167928 -6.12741e-05 -7.50957e-05
-6.12741e-05 0.00067598 6.57704e-06
-7.50957e-05 6.57704e-06 0.000647804
0.00135223 -7.8361e-05 5.76562e-05
-7.8361e-05 0.000495245 -8.36223e-06
5.76562e-05 -8.36223e-06 0.000452133
0.00199901 0.000139523 -2.24223e-06
0.000139523 0.000131463 7.49748e-07
-2.24223e-06 7.49748e-07 6.368e-05
0.00197567 0.000198957 3.69551e-07
0.000198957 0.000158518 1.52993e-06
3.69551e-07 1.52993e-06 4.49842e-05
0.00197924 0.000181128 8.91854e-07
0.000181128 9.75369e-05 5.0765e-07
8.91854e-07 5.0765e-07 1.34801e-05
0.00171205 0.000226886 -1.53202e-06
0.000226886 0.000140778 5.00433e-07
-1.53202e-06 5.00433e-07 -1.51872e-05
0.00191535 0.000267445 6.23752e-07
0.000267445 0.000136548 3.4596e-08
6.23752e-07 3.4596e-08 -3.70399e-06
0.00194666 0.000297019 9.37912e-07
0.000297019 6.747e-05 2.45486e-07
9.37912e-07 2.45486e-07 -4.9512e-05
0.000932186 0.00016429 -1.59911e-05
0.00016429 -9.25643e-05 -4.03498e-06
-1.59911e-05 -4.03498e-06 -0.000247818
0.00185209 0.000283017 2.60706e-06
0.000283017 0.000257803 6.7504e-07
2.60706e-06 6.7504e-07 8.31418e-05
0.00186314 0.000315947 -7.58273e-07
0.000315947 0.000151841 -1.06332e-06
-7.58273e-07 -1.06332e-06 -1.19317e-05
0.000400584 0.000131608 -1.95334e-05
0.000131608 -0.000186865 -1.03719e-05
-1.95334e-05 -1.03719e-05 -0.000283651
0.000916357 0.000186897 3.87739e-07
0.000186897 -7.87863e-05 3.41474e-07
3.87739e-07 3.41474e-07 -0.000242348
0.00152615 0.000305588 8.04024e-06
0.000305588 9.49934e-05 2.61895e-07
8.04024e-06 2.61895e-07 -9.86983e-05
0.0063349 0.000130102 -0.000249523
0.000130102 0.00352579 -2.80671e-05
-0.000249523 -2.80671e-05 0.00352278
0.000422301 0.000173202 6.56909e-07
0.000173202 -0.00015094 7.49053e-07
6.56909e-07 7.49053e-07 -0.000259532
0.000913654 0.000201866 1.4479e-05
0.000201866 -4.09681e-05 5.72485e-06
1.4479e-05 5.72485e-06 -0.00021142
0.000392104 0.00019228 2.10336e-05
0.00019228 -0.000144903 1.60265e-05
2.10336e-05 1.60265e-05 -0.000261487
0.00623716 3.60093e-05 9.82208e-06
3.60093e-05 0.00347888 1.43701e-07
9.82208e-06 1.43701e-07 0.00347435
0.00595628 -0.000110853 0.000203637
-0.000110853 0.00331745 1.12707e-05
0.000203637 1.12707e-05 0.00330922
0.00186251 6.45221e-05 -6.66514e-06
6.45221e-05 4.47415e-05 -5.55052e-07
-6.66514e-06 -5.55052e-07 -1.06236e-05
0.00191882 0.000112443 2.85627e-07
0.000112443 3.47074e-05 2.02424e-07
2.85627e-07 2.02424e-07 -3.42984e-06
0.00194565 0.000167678 2.35132e-06
0.000167678 5.76947e-07 4.54618e-07
2.35132e-06 4.54618e-07 -3.52689e-05
0.00179019 1.83775e-06 7.57996e-07
1.83775e-06 4.33371e-05 -6.00614e-08
7.57996e-07 -6.00614e-08 -4.0546e-05
0.00181779 1.20533e-05 -2.96745e-08
1.20533e-05 1.55152e-05 -8.25661e-08
-2.96745e-08 -8.25661e-08 -3.43909e-05
0.00191023 3.88989e-05 2.40406e-06
3.88989e-05 5.43151e-06 -3.63635e-07
2.40406e-06 -3.63635e-07 -1.32372e-05
0.00195472 -2.70154e-05 1.91902e-06
-2.70154e-05 7.76774e-05 -7.04181e-09
1.91902e-06 -7.04181e-09 3.54248e-05
0.00183436 -3.75975e-05 -2.1989e-07
-3.75975e-05 5.91848e-05 1.61138e-07
-2.1989e-07 1.61138e-07 -1.91221e-05
0.00180078 -3.1878e-05 1.30272e-06
-3.1878e-05 0.000200438 -4.85028e-07
1.30272e-06 -4.85028e-07 8.79528e-05
0.00181259 -9.37054e-05 -1.40756e-06
-9.37054e-05 4.46884e-05 1.26652e-06
-1.40756e-06 1.26652e-06 -4.83321e-05
0.0017185 -7.42678e-05 3.27771e-07
-7.42678e-05 0.000137306 6.86627e-08
3.27771e-07 6.86627e-08 1.57224e-05
0.000910415 -4.00966e-05 -1.33312e-05
-4.00966e-05 -0.000111242 1.25681e-06
-1.33312e-05 1.25681e-06 -0.000240736
0.00160907 -0.000118995 2.32364e-06
-0.000118995 6.82616e-05 -2.47367e-07
2.32364e-06 -2.47367e-07 -6.5049e-05
0.00101034 -7.04175e-05 -6.98902e-08
-7.04175e-05 -4.53659e-05 7.92029e-08
-6.98902e-08 7.92029e-08 -0.00018143
0.000518232 -2.19062e-05 -1.86024e-05
-2.19062e-05 -0.000145488 3.30927e-06
-1.86024e-05 3.30927e-06 -0.000225904
0.00104737 -0.000101222 1.24472e-05
-0.000101222 -1.90332e-05 -2.45247e-06
1.24472e-05 -2.45247e-06 -0.000161356
0.000517681 -6.96887e-05 -1.67351e-07
-6.96887e-05 -0.000140732 3.96195e-07
-1.67351e-07 3.96195e-07 -0.000225688
0.00597358 -3.25535e-05 -0.000267048
-3.25535e-05 0.00328856 1.14272e-05
-0.000267048 1.14272e-05 0.00330341
0.000550723 -7.18448e-05 1.54011e-05
-7.18448e-05 -0.000120804 -7.2165e-06
1.54011e-05 -7.2165e-06 -0.00020932
0.0037757 -9.08272e-05 0.000120836
-9.08272e-05 0.00195599 -5.40005e-06
0.000120836 -5.40005e-06 0.00194012
0.00131723 -8.03641e-05 6.38641e-05
-8.03641e-05 0.000474539 -8.60783e-06
6.38641e-05 -8.60783e-06 0.000430515
0.00194025 0.000111062 -4.53513e-06
0.000111062 0.00011069 -1.07839e-07
-4.53513e-06 -1.07839e-07 4.22147e-05
0.00190433 0.000139508 1.60002e-06
0.000139508 0.00012201 2.22263e-06
1.60002e-06 2.22263e-06 2.10281e-05
0.00192257 0.00013315 -1.08211e-08
0.00013315 8.13125e-05 9.16759e-08
-1.08211e-08 9.16759e-08 1.41851e-05
0.00164255 0.0001671 -7.30461e-07
0.0001671 8.83703e-05 5.84641e-07
-7.30461e-07 5.84641e-07 -5.55022e-05
0.00194626 0.000197769 5.30955e-07
0.000197769 0.000136834 3.63312e-08
5.30955e-07 3.63312e-08 2.18263e-05
0.00193114 0.000175998 2.05561e-06
0.000175998 7.26935e-05 -5.01893e-07
2.05561e-06 -5.01893e-07 -1.28572e-05
0.000942574 0.000134372 -1.46362e-05
0.000134372 -9.79964e-05 -3.04474e-06
-1.46362e-05 -3.04474e-06 -0.000244618
0.00174987 0.000226252 6.80275e-07
0.000226252 0.000168924 4.36357e-07
6.80275e-07 4.36357e-07 1.07305e-05
0.00187307 0.000263002 2.61455e-07
0.000263002 0.00011378 -9.65481e-07
2.61455e-07 -9.65481e-07 -2.58521e-05
0.000422942 9.35153e-05 -1.8125e-05
9.35153e-05 -0.000191691 -7.44877e-06
-1.8125e-05 -7.44877e-06 -0.000280439
0.00087605 0.000161039 -2.14279e-06
0.000161039 -0.000125252 -1.51327e-07
-2.14279e-06 -1.51327e-07 -0.000280292
0.00186052 0.000283134 6.79035e-06
0.000283134 0.000262233 1.15832e-06
6.79035e-06 1.15832e-06 8.78279e-05
0.00622683 0.000198893 -0.000267082
0.000198893 0.00345239 -2.71091e-05
-0.000267082 -2.71091e-05 0.00345368
0.000427533 0.000128657 8.90512e-08
0.000128657 -0.000171889 4.17689e-07
8.90512e-08 4.17689e-07 -0.00026914
0.000778495 0.000180377 1.44033e-05
0.000180377 -0.000163528 4.86564e-06
1.44033e-05 4.86564e-06 -0.000327044
0.00625593 0.000145175 1.33232e-05
0.000145175 0.00348247 2.35545e-06
1.33232e-05 2.35545e-06 0.00347885
0.000428794 0.000162476 1.98828e-05
0.000162476 -0.000147361 1.363e-05
1.98828e-05 1.363e-05 -0.000256662
0.00613335 2.80633e-06 0.000233192
2.80633e-06 0.00340442 1.70292e-05
0.000233192 1.70292e-05 0.00340722
0.00184476 4.41024e-05 -7.18061e-07
4.41024e-05 6.38318e-05 -2.16337e-07
-7.18061e-07 -2.16337e-07 -1.99957e-05
0.00187322 6.53014e-05 -1.45294e-06
6.53014e-05 6.15644e-05 1.43208e-07
-1.45294e-06 1.43208e-07 4.53595e-06
0.00189976 0.000110014 4.44197e-06
0.000110014 1.83591e-05 5.1119e-07
4.44197e-06 5.1119e-07 -1.96751e-05
0.00179558 -3.74631e-06 2.0447e-06
-3.74631e-06 0.000196008 -2.60227e-07
2.0447e-06 -2.60227e-07 8.50897e-05
0.00178263 2.11114e-06 -9.12073e-07
2.11114e-06 3.54333e-05 -2.61251e-09
-9.12073e-07 -2.61251e-09 -4.63416e-05
0.00187189 1.8413e-05 5.8485e-06
1.8413e-05 4.93231e-05 3.9052e-07
5.8485e-06 3.9052e-07 2.50736e-06
0.00190684 -3.6847e-05 -5.75361e-07
-3.6847e-05 0.000104896 5.98427e-07
-5.75361e-07 5.98427e-07 2.81387e-05
0.00180337 -3.08476e-05 3.04454e-06
-3.08476e-05 0.000201359 -3.30581e-07
3.04454e-06 -3.30581e-07 8.89908e-05
0.000904286 -1.46278e-05 -1.2952e-05
-1.46278e-05 -0.000110341 4.4407e-07
-1.2952e-05 4.4407e-07 -0.000235786
0.00169232 -7.50426e-05 1.16241e-06
-7.50426e-05 0.000124598 2.98665e-07
1.16241e-06 2.98665e-07 -1.14775e-06
0.000955319 -3.99313e-05 -1.42361e-06
-3.99313e-05 -8.23931e-05 1.19649e-07
-1.42361e-06 1.19649e-07 -0.000212637
0.000520025 -7.31925e-06 -1.88249e-05
-7.31925e-06 -0.000146563 2.16883e-06
-1.88249e-05 2.16883e-06 -0.000224901
0.00101501 -6.8107e-05 1.17415e-05
-6.8107e-05 -4.19679e-05 -1.83917e-06
1.17415e-05 -1.83917e-06 -0.000177509
0.000497782 -3.36701e-05 8.52804e-07
-3.36701e-05 -0.000158683 -1.68515e-07
8.52804e-07 -1.68515e-07 -0.000238091
0.00586034 -0.000129385 -0.000272619
-0.000129385 0.00323162 1.23867e-05
-0.000272619 1.23867e-05 0.00324203
0.00048537 -5.2902e-05 1.797e-05
-5.2902e-05 -0.000160181 -4.09445e-06
1.797e-05 -4.09445e-06 -0.000244801
0.00593385 -6.88013e-05 7.59548e-06
-6.88013e-05 0.00326623 -6.49446e-08
7.59548e-06 -6.49446e-08 0.00328097
0.00165772 -2.71337e-05 0.00021458
-2.71337e-05 0.000653738 -1.29123e-05
0.00021458 -1.29123e-05 0.000642259
0.00180238 9.4321e-05 8.40712e-07
9.4321e-05 4.75134e-05 6.3316e-07
8.40712e-07 6.3316e-07 -4.8989e-05
0.00188995 0.000113705 -3.59006e-06
0.000113705 7.65229e-05 -1.0052e-06
-3.59006e-06 -1.0052e-06 1.07056e-05
0.0016443 0.000113566 9.76309e-08
0.000113566 8.63967e-05 6.60367e-07
9.76309e-08 6.60367e-07 -4.44258e-05
0.00190125 0.000138732 7.41369e-07
0.000138732 0.000117201 1.77202e-07
7.41369e-07 1.77202e-07 1.62124e-05
0.0018563 0.000127184 2.62649e-06
0.000127184 3.67652e-05 -1.32399e-06
2.62649e-06 -1.32399e-06 -2.96506e-05
0.00107649 0.000101631 -1.2702e-05
0.000101631 -1.33266e-05 -1.9879e-06
-1.2702e-05 -1.9879e-06 -0.000151943
0.00164247 0.000166367 1.46219e-07
0.000166367 9.11358e-05 8.39876e-08
1.46219e-07 8.39876e-08 -5.28056e-05
0.00191361 0.000196413 5.9527e-07
0.000196413 0.000113278 -1.3112e-06
5.9527e-07 -1.3112e-06 -3.18648e-06
0.000462671 6.76809e-05 -1.77776e-05
6.76809e-05 -0.000178452 -5.38208e-06
-1.77776e-05 -5.38208e-06 -0.00026302
0.000967456 0.000135573 -2.18356e-06
0.000135573 -7.98843e-05 -9.67978e-08
-2.18356e-06 -9.67978e-08 -0.000227223
0.0017912 0.000225566 3.0833e-06
0.000225566 0.000199589 5.80559e-07
3.0833e-06 5.80559e-07 3.91949e-05
0.00612436 0.000229972 -0.000284728
0.000229972 0.00339626 -2.57742e-05
-0.000284728 -2.57742e-05 0.00339635
0.000460917 9.4867e-05 -7.45223e-08
9.4867e-05 -0.000170079 1.69939e-07
-7.45223e-08 1.69939e-07 -0.000259163
0.000821515 0.000157868 1.04743e-05
0.000157868 -0.000157279 3.518e-06
1.04743e-05 3.518e-06 -0.000312034
0.00619915 0.000220456 1.1042e-05
0.000220456 0.00344683 3.84918e-06
1.1042e-05 3.84918e-06 0.00344292
0.000459566 0.000124066 1.86809e-05
0.000124066 -0.000154381 1.04681e-05
1.86809e-05 1.04681e-05 -0.000251681
0.00621016 0.000141805 0.000258221
0.000141805 0.00344451 2.47104e-05
0.000258221 2.47104e-05 0.00344786
0.0017717 3.49542e-05 2.95635e-06
3.49542e-05 0.000174185 2.39122e-07
2.95635e-06 2.39122e-07 6.12502e-05
0.00184515 4.16442e-05 -1.96735e-06
4.16442e-05 6.90886e-05 4.42876e-08
-1.96735e-06 4.42876e-08 -1.61652e-05
0.0019033 6.59431e-05 2.81305e-06
6.59431e-05 9.07219e-05 2.08407e-07
2.81305e-06 2.08407e-07 3.21723e-05
0.000886032 -7.86044e-06 -1.33884e-05
-7.86044e-06 -0.000113725 -1.58954e-07
-1.33884e-05 -1.58954e-07 -0.000237538
0.0017942 1.45817e-06 3.43463e-06
1.45817e-06 0.000195219 -8.2255e-08
3.43463e-06 -8.2255e-08 8.43598e-05
0.00179448 1.92203e-06 -1.2095e-06
1.92203e-06 3.98389e-05 3.29811e-07
-1.2095e-06 3.29811e-07 -3.95195e-05
0.00180622 -3.00295e-05 4.67964e-06
-3.00295e-05 0.000202358 1.8651e-07
4.67964e-06 1.8651e-07 9.01134e-05
0.000898097 -1.51175e-05 -1.0675e-06
-1.51175e-05 -0.000115518 5.1025e-08
-1.0675e-06 5.1025e-08 -0.000241203
0.000524986 -3.10807e-05 -1.9306e-05
-3.10807e-05 -0.000143683 9.37522e-07
-1.9306e-05 9.37522e-07 -0.000219386
0.000981638 -3.88731e-05 1.08298e-05
-3.88731e-05 -6.46972e-05 -1.24828e-06
1.08298e-05 -1.24828e-06 -0.000195715
0.000499683 3.87396e-06 3.40596e-07
3.87396e-06 -0.000159565 7.34143e-08
3.40596e-07 7.34143e-08 -0.000237011
0.00584584 -0.00010395 -0.00027674
-0.00010395 0.00322093 9.04375e-06
-0.00027674 9.04375e-06 0.00323393
0.000509873 -3.95968e-05 1.88106e-05
-3.95968e-05 -0.000149333 -2.88096e-06
1.88106e-05 -2.88096e-06 -0.000229859
0.00587641 -2.39214e-05 -3.04015e-06
-2.39214e-05 0.00323082 2.14888e-06
-3.04015e-06 2.14888e-06 0.00324761
0.00591918 -8.47022e-05 0.000272087
-8.47022e-05 0.00325712 -1.09339e-05
0.000272087 -1.09339e-05 0.00327259
0.00159938 6.74919e-05 2.6129e-07
6.74919e-05 6.07695e-05 3.8277e-07
2.6129e-07 3.8277e-07 -6.23949e-05
0.00183837 9.54333e-05 -2.47664e-06
9.54333e-05 6.56779e-05 -1.21988e-06
-2.47664e-06 -1.21988e-06 -2.54894e-05
0.00180146 0.000115844 -1.34132e-06
0.000115844 1.91927e-05 -8.70967e-07
-1.34132e-06 -8.70967e-07 -4.42174e-05
0.00107342 6.30625e-05 -1.22814e-05
6.30625e-05 -1.1924e-05 -1.54451e-06
-1.22814e-05 -1.54451e-06 -0.000142943
0.00162735 0.000112305 2.21042e-07
0.000112305 7.8428e-05 -5.09966e-08
2.21042e-07 -5.09966e-08 -5.26411e-05
0.00189442 0.000137762 -3.04012e-07
0.000137762 0.000110639 -1.80349e-06
-3.04012e-07 -1.80349e-06 9.64796e-06
0.000489791 4.40673e-05 -1.73699e-05
4.40673e-05 -0.000165107 -3.77848e-06
-1.73699e-05 -3.77848e-06 -0.000246806
0.00103943 0.000102822 3.01879e-07
0.000102822 -3.59913e-05 3.13231e-07
3.01879e-07 3.13231e-07 -0.000175415
0.00164193 0.000165646 1.34691e-06
0.000165646 9.32632e-05 -3.63308e-07
1.34691e-06 -3.63308e-07 -5.07679e-05
0.00601565 0.000204578 -0.000295747
0.000204578 0.00333148 -2.18073e-05
-0.000295747 -2.18073e-05 0.00333522
0.000492656 7.23014e-05 3.72832e-07
7.23014e-05 -0.000160231 1.45214e-07
3.72832e-07 1.45214e-07 -0.000245633
0.000990919 0.0001367 1.05207e-05
0.0001367 -6.28991e-05 2.96201e-06
1.05207e-05 2.96201e-06 -0.000210905
0.00613553 0.00024421 6.34829e-06
0.00024421 0.00340923 3.13151e-06
6.34829e-06 3.13151e-06 0.0034068
0.00050291 9.79931e-05 1.80598e-05
9.79931e-05 -0.000145074 7.98134e-06
1.80598e-05 7.98134e-06 -0.000234881
0.00619678 0.000247486 0.000276793
0.000247486 0.00344893 3.07567e-05
0.000276793 3.07567e-05 0.00344339
0.0010076 1.81515e-05 -1.27363e-05
1.81515e-05 -3.5793e-05 -5.55511e-07
-1.27363e-05 -5.55511e-07 -0.000161353
0.00170872 3.09068e-05 3.79297e-06
3.09068e-05 0.00013502 1.21075e-07
3.79297e-06 1.21075e-07 2.31019e-05
0.0018284 3.86795e-05 -4.24428e-06
3.86795e-05 6.33715e-05 -2.2828e-07
-4.24428e-06 -2.2828e-07 -2.34809e-05
0.000557951 3.08892e-05 -1.9887e-05
3.08892e-05 -0.00013104 -6.00629e-07
-1.9887e-05 -6.00629e-07 -0.000199242
0.000870387 -2.1312e-06 -1.29113e-06
-2.1312e-06 -0.000124348 3.01894e-08
-1.29113e-06 3.01894e-08 -0.000248291
0.00179319 7.64424e-06 4.84133e-06
7.64424e-06 0.000194581 4.28331e-08
4.84133e-06 4.28331e-08 8.37617e-05
0.000889331 -1.52329e-05 1.09401e-05
-1.52329e-05 -0.000122423 -4.43495e-07
1.09401e-05 -4.43495e-07 -0.000248329
0.000519054 -5.16632e-06 3.62679e-07
-5.16632e-06 -0.000147039 3.83693e-07
3.62679e-07 3.83693e-07 -0.000222938
0.00579515 2.82544e-05 -0.0002814
2.82544e-05 0.00318429 2.7489e-07
-0.0002814 2.7489e-07 0.00320264
0.000478902 1.53583e-05 1.83378e-05
1.53583e-05 -0.000173515 -1.25251e-06
1.83378e-05 -1.25251e-06 -0.000249764
0.00582219 -0.000102183 -7.7983e-06
-0.000102183 0.00320756 1.7507e-06
-7.7983e-06 1.7507e-06 0.00322023
0.00582895 -5.20178e-06 0.000262113
-5.20178e-06 0.00320218 -5.29483e-06
0.000262113 -5.29483e-06 0.00321894
0.00104094 3.50696e-05 -1.25525e-05
3.50696e-05 -2.27176e-05 -1.26624e-06
-1.25525e-05 -1.26624e-06 -0.000149551
0.00161811 6.54448e-05 -2.31235e-07
6.54448e-05 7.3017e-05 -8.77023e-08
-2.31235e-07 -8.77023e-08 -4.6918e-05
0.00189953 9.68607e-05 -4.17201e-06
9.68607e-05 9.92053e-05 -2.28558e-06
-4.17201e-06 -2.28558e-06 1.3532e-05
0.00264417 5.68356e-05 -0.000132031
5.68356e-05 0.00114697 -4.39093e-06
-0.000132031 -4.39093e-06 0.00109705
0.00102769 6.46641e-05 3.5274e-07
6.46641e-05 -3.9756e-05 7.81569e-08
3.5274e-07 7.81569e-08 -0.000171391
0.00161353 0.00011104 1.20687e-06
0.00011104 7.23324e-05 -6.40771e-07
1.20687e-06 -6.40771e-07 -5.89866e-05
0.00590501 0.000153666 -0.000295652
0.000153666 0.00325994 -1.58252e-05
-0.000295652 -1.58252e-05 0.00327006
0.000525387 6.2544e-05 8.38866e-07
6.2544e-05 -0.000141454 4.28463e-07
8.38866e-07 4.28463e-07 -0.000224997
0.00100546 0.00010404 1.25077e-05
0.00010404 -5.67098e-05 2.53186e-06
1.25077e-05 2.53186e-06 -0.000196913
0.00607683 0.000217847 1.71948e-06
0.000217847 0.00337025 1.64122e-06
1.71948e-06 1.64122e-06 0.00337284
0.000533282 7.98108e-05 1.82542e-05
7.98108e-05 -0.000134402 6.28376e-06
1.82542e-05 6.28376e-06 -0.000221296
0.00614095 0.000275198 0.000288288
0.000275198 0.00342369 3.17675e-05
0.000288288 3.17675e-05 0.00341526
0.000612371 1.04765e-05 -1.61536e-05
1.04765e-05 -8.74426e-05 -1.77518e-06
-1.61536e-05 -1.77518e-06 -0.000164429
0.000934599 1.70039e-05 5.36022e-07
1.70039e-05 -8.31797e-05 2.54732e-07
5.36022e-07 2.54732e-07 -0.000208173
0.00164417 2.58823e-05 3.89419e-06
2.58823e-05 9.47056e-05 -9.61926e-08
3.89419e-06 -9.61926e-08 -1.61489e-05
0.00564456 -9.68957e-05 -0.000264675
-9.68957e-05 0.00311019 2.37182e-06
-0.000264675 2.37182e-06 0.00311822
0.000515526 8.42559e-06 -5.65491e-07
8.42559e-06 -0.000152217 -3.58084e-09
-5.65491e-07 -3.58084e-09 -0.000223011
0.000869467 2.64444e-06 1.07788e-05
2.64444e-06 -0.000126257 -9.14736e-09
1.07788e-05 -9.14736e-09 -0.000250279
0.000474337 2.08656e-05 1.85847e-05
2.08656e-05 -0.000175035 2.19935e-07
1.85847e-05 2.19935e-07 -0.000250059
0.00573947 -7.71566e-06 2.26402e-06
-7.71566e-06 0.00315577 -1.26825e-06
2.26402e-06 -1.26825e-06 0.0031702
0.00582468 -2.12051e-05 0.000270249
-2.12051e-05 0.00319831 -3.31478e-06
0.000270249 -3.31478e-06 0.00321639
0.00272428 1.19775e-05 -0.00012772
1.19775e-05 0.0011936 -2.6222e-06
-0.00012772 -2.6222e-06 0.00114584
0.00102397 3.81877e-05 7.12022e-08
3.81877e-05 -3.46995e-05 4.99704e-08
7.12022e-08 4.99704e-08 -0.000162001
0.00163069 6.34969e-05 1.25031e-06
6.34969e-05 8.18001e-05 -6.04495e-07
1.25031e-06 -6.04495e-07 -3.48961e-05
0.00544507 -4.51205e-05 -0.000105778
-4.51205e-05 0.00299158 5.31136e-07
-0.000105778 5.31136e-07 0.00297898
0.000540689 5.4749e-05 5.62671e-08
5.4749e-05 -0.000132129 1.97763e-07
5.62671e-08 1.97763e-07 -0.000211552
0.000998599 6.68757e-05 1.21712e-05
6.68757e-05 -5.81136e-05 1.6992e-06
1.21712e-05 1.6992e-06 -0.000190309
0.00597086 0.000127063 -1.06957e-05
0.000127063 0.00329492 -1.53063e-06
-1.06957e-05 -1.53063e-06 0.00330659
0.000557383 8.54519e-05 1.96199e-05
8.54519e-05 -0.000121505 5.32803e-06
1.96199e-05 5.32803e-06 -0.000205911
0.00610906 0.000241874 0.000298145
0.000241874 0.00339703 2.80805e-05
0.000298145 2.80805e-05 0.00339635
0.00170953 -5.22367e-05 -0.000215477
-5.22367e-05 0.000682917 1.04335e-06
-0.000215477 1.04335e-06 0.000678284
0.00162936 2.84307e-05 -5.40955e-05
2.84307e-05 0.000524846 1.90906e-07
-5.40955e-05 1.90906e-07 0.000467338
0.000857581 1.84565e-05 1.24034e-05
1.84565e-05 -0.000132535 8.3109e-07
1.24034e-05 8.3109e-07 -0.000257036
0.0057139 -4.39056e-05 7.29388e-06
-4.39056e-05 0.00314636 2.00114e-06
7.29388e-06 2.00114e-06 0.00315912
0.000532388 -1.24707e-05 1.92104e-05
-1.24707e-05 -0.000135946 7.11798e-07
1.92104e-05 7.11798e-07 -0.000210398
0.00577533 -7.30955e-05 0.000283157
-7.30955e-05 0.00317998 -3.39661e-06
0.000283157 -3.39661e-06 0.00319445
0.0012974 1.7601e-05 -5.07071e-05
1.7601e-05 0.000457031 -8.03415e-07
-5.07071e-05 -8.03415e-07 0.000421319
0.00161864 1.56015e-05 -5.45731e-05
1.56015e-05 0.00052149 -9.95653e-07
-5.45731e-05 -9.95653e-07 0.000460378
0.00099737 3.99136e-05 1.23302e-05
3.99136e-05 -5.23778e-05 1.40659e-06
1.23302e-05 1.40659e-06 -0.000180171
0.00360389 5.96028e-05 0.000104504
5.96028e-05 0.00185224 2.79951e-06
0.000104504 2.79951e-06 0.0018429
0.000550598 6.53518e-05 1.99454e-05
6.53518e-05 -0.000126207 4.01629e-06
1.99454e-05 4.01629e-06 -0.00020564
0.00604026 0.000115231 0.000285255
0.000115231 0.00333031 1.68665e-05
0.000285255 1.68665e-05 0.00334534
0.00566782 -2.04684e-05 -8.90843e-06
-2.04684e-05 0.00312112 -2.60858e-06
-8.90843e-06 -2.60858e-06 0.00313286
0.000532473 4.70541e-05 2.06864e-05
4.70541e-05 -0.000146114 2.17495e-06
2.06864e-05 2.17495e-06 -0.000213955
0.00562555 4.34801e-05 0.000270818
4.34801e-05 0.00308902 1.97693e-07
0.000270818 1.97693e-07 0.00310509
0.00351048 2.91647e-05 0.000117469
2.91647e-05 0.00179987 4.18781e-06
0.000117469 4.18781e-06 0.00179163
0.000560828 6.8341e-06 1.90846e-05
6.8341e-06 -0.000120239 2.63172e-06
1.90846e-05 2.63172e-06 -0.000195545
0.00587208 -1.15426e-05 0.000274722
-1.15426e-05 0.00323007 7.365e-06
0.000274722 7.365e-06 0.00324582
0.00571425 -0.000122385 0.000267957
-0.000122385 0.00315406 -3.7076e-06
0.000267957 -3.7076e-06 0.00316118
0.00571063 5.01539e-08 0.000268536
5.01539e-08 0.00313149 4.07999e-06
0.000268536 4.07999e-06 0.00315025
