# vtk DataFile Version 2.0
Wound Healing Simulation
ASCII
DATASET UNSTRUCTURED_GRID
POINTS 3012 float
69.9759 18.75 4
67.2507 60.3285 4
69.976 18.75 2
73.0099 25.446 4
71.1327 20.9142 4
68.6801 16.6661 4
67.8189 19.9234 3.96939
67.2507 60.3286 2
71.1327 54.0858 4
68.6801 58.3339 4
65.6939 62.2254 4
65.3054 58.9999 3.96852
74.6784 42.3946 4
73.7221 47.2057 4
69.9759 18.75 0
73.0099 25.446 2
68.6801 16.6661 2
71.1327 20.9142 2
67.8193 19.9276 2
74.6792 32.6053 4
73.7222 27.7943 4
72.1454 23.1494 4
70.6102 26.2212 3.97062
68.88 21.9558 3.96985
67.2507 14.6715 4
66.6295 17.9702 3.96845
65.6869 21.0615 3.96033
67.2507 60.3285 0
71.1327 54.0858 2
68.6801 58.3339 2
65.694 62.2255 2
65.3071 58.9936 2
72.1454 51.8506 4
69.9759 56.25 4
68.8306 53.1153 3.9698
64.0165 64.0165 4
66.6036 57.1346 3.96917
63.8782 60.7615 3.96466
63.4115 57.7325 3.95691
60.3285 67.2507 4
74.6792 42.3947 2
73.7222 47.2057 2
74.9194 39.9526 4
74.2788 44.8158 4
72.1653 42.086 3.97322
73.0099 49.554 4
71.2458 46.5985 3.97157
73.0099 25.446 0
71.1327 20.9142 0
68.6801 16.6661 0
67.8189 19.9234 0.0306084
74.6792 32.6053 2
73.7222 27.7943 2
67.2508 14.6715 2
72.1455 23.1494 2
70.6094 26.2225 2
66.6307 17.9751 2
68.8798 21.9589 2
65.6884 21.0623 2
74.9197 35.0474 4
74.2794 30.1841 4
72.182 32.9448 3.9733
71.2749 28.4325 3.9713
69.8107 24.0586 3.97008
68.273 26.9728 3.96406
66.6659 22.9639 3.96234
65.694 12.7746 4
65.3162 16.1037 3.968
64.5957 19.2359 3.95802
63.6197 22.1385 3.96648
71.1327 54.0858 0
65.6939 62.2254 0
68.6801 58.3339 0
65.3054 58.9999 0.0314795
72.1455 51.8506 2
69.9759 56.25 2
68.8307 53.1115 2
64.0165 64.0165 2
66.605 57.1286 2
63.8797 60.7542 2
63.4032 57.7321 2
62.2254 65.694 4
58.8881 65.4085 3.97305
69.7639 50.9905 3.97014
67.7771 55.1695 3.96964
66.5443 52.1774 3.96305
62.3286 62.4222 3.96617
64.5524 55.9927 3.95921
62.1657 59.3695 3.95247
61.5958 56.5715 3.96147
58.3339 68.6801 4
60.3285 67.2508 2
73.7221 47.2057 0
74.6784 42.3946 0
74.9197 39.9526 2
74.2794 44.8159 2
72.1641 42.0848 2
73.0099 49.554 2
71.2449 46.5968 2
75 37.5 4
72.4026 39.8028 3.9741
71.7792 44.3532 3.9726
69.7703 41.7855 3.96792
70.571 48.8145 3.9709
68.8458 46.0001 3.96667
74.6792 32.6053 0
73.7222 27.7943 0
67.2507 14.6715 0
72.1454 23.1494 0
70.6102 26.2212 0.0293809
68.88 21.9558 0.0301545
66.6295 17.9702 0.0315451
65.6869 21.0615 0.0396741
74.9197 35.0474 2
74.2794 30.1841 2
72.1806 32.945 2
71.2738 28.4334 2
65.694 12.7745 2
65.3169 16.1098 2
69.8102 24.0606 2
68.2758 26.9735 2
64.589 19.2378 2
66.668 22.9648 2
63.6204 22.1389 2
72.4105 35.2254 3.97411
71.8009 30.6778 3.97269
69.8056 33.277 3.96716
68.9062 29.0549 3.96516
67.5266 24.9377 3.96342
65.9302 27.7068 3.97487
64.0165 10.9835 4
64.4822 23.9248 3.9697
63.881 14.3311 3.9642
63.404 17.4899 3.95489
62.6474 20.4317 3.96341
61.6655 23.1158 3.97325
60.6776 11.1061 3.96976
57.6006 11.5046 3.96307
72.1454 51.8506 0
69.9759 56.25 0
68.8306 53.1153 0.0301988
64.0165 64.0165 0
63.8782 60.7615 0.0353385
66.6036 57.1346 0.0308268
63.4115 57.7325 0.0430875
62.2255 65.694 2
58.8918 65.4023 2
69.7637 50.9877 2
67.7779 55.1645 2
66.5453 52.1764 2
62.3313 62.4128 2
64.5456 55.9914 2
62.1568 59.3695 2
61.6011 56.5731 2
60.6619 63.9707 3.96966
57.0196 66.7295 3.97515
57.5416 63.6376 3.96732
67.4089 50.1496 3.96418
65.5931 54.1377 3.96116
64.2417 51.2876 3.97103
60.7559 60.8963 3.95716
62.5642 54.9609 3.96553
60.4393 58.0396 3.95665
59.9796 55.6166 3.96764
56.25 69.9759 4
58.3339 68.6801 2
60.3285 67.2507 0
58.917 9.66424 3.97072
62.2254 9.30607 4
73.0099 49.554 0
74.2788 44.8158 0
71.2458 46.5985 0.0284316
72.1653 42.086 0.0267806
74.9194 39.9526 0
75 37.5 2
72.4018 39.802 2
71.7786 44.3517 2
69.772 41.7849 2
70.5705 48.8123 2
68.8489 45.9994 2
72.4862 37.513 3.97397
70.0156 39.6567 3.96789
69.3851 43.8988 3.96771
67.3427 41.472 3.97661
68.1797 48.0857 3.96519
66.4246 45.3813 3.97642
74.9197 35.0474 0
74.2794 30.1841 0
72.182 32.9448 0.0266982
71.2749 28.4325 0.0286989
65.694 12.7746 0
65.3162 16.1037 0.0319986
69.8107 24.0586 0.0299225
68.273 26.9728 0.0359413
66.6659 22.9639 0.037657
64.5957 19.2359 0.0419754
63.6197 22.1385 0.0335163
72.4097 35.2251 2
71.8001 30.6785 2
69.8083 33.2773 2
68.9102 29.0554 2
64.0165 10.9835 2
63.8829 14.3384 2
63.4143 17.4864 2
67.5293 24.9385 2
65.9276 27.7081 2
62.6542 20.4304 2
64.4813 23.9258 2
61.666 23.117 2
60.6802 11.1116 2
57.5979 11.4936 2
70.0296 35.3973 3.96744
69.4222 31.1617 3.96613
67.4096 33.6215 3.97654
66.51 29.6825 3.97604
65.2555 25.783 3.97309
63.678 28.3771 3.97544
62.3332 12.661 3.96652
62.4126 24.7999 3.97454
62.1603 15.8178 3.95309
61.556 18.8067 3.95974
60.8077 21.5248 3.9696
59.8593 23.9675 3.97422
59.2325 12.8296 3.96176
55.8676 10.2804 3.96911
56.371 13.2094 3.96115
69.7639 50.9905 0.0298621
62.2254 65.694 0
58.8881 65.4085 0.0269524
67.7771 55.1695 0.0303574
66.5443 52.1774 0.0369541
62.3286 62.4222 0.0338347
62.1657 59.3695 0.0475307
64.5524 55.9927 0.0407875
61.5958 56.5715 0.0385302
60.666 63.9638 2
57.0234 66.7239 2
57.5459 63.6469 2
67.4101 50.1485 2
65.5918 54.1366 2
64.2403 51.2869 2
60.7478 60.8973 2
62.568 54.9622 2
60.436 58.039 2
59.9773 55.6156 2
55.0653 67.9294 3.98124
59.209 62.3108 3.96934
55.7854 64.8517 3.96873
56.3051 62.0039 3.98057
65.0327 49.3208 3.97358
63.4186 53.1868 3.96802
61.9484 50.4819 3.97353
59.206 59.4539 3.9536
60.6758 54.137 3.97184
58.9041 56.8192 3.96012
58.7862 54.9692 3.97103
48.0966 68.5664 3.97802
50.9437 69.9297 3.98484
54.0858 71.1327 4
56.25 69.976 2
58.3339 68.6801 0
57.0552 8.33742 3.97894
60.3285 7.74928 4
58.9192 9.6695 2
62.2255 9.30602 2
70.571 48.8145 0.0290977
71.7792 44.3532 0.0274033
68.8458 46.0001 0.0333314
69.7703 41.7855 0.0320826
72.4026 39.8028 0.0259038
75 37.5 0
72.4848 37.5124 2
70.0179 39.6564 2
69.3862 43.8982 2
67.3397 41.4715 2
68.1799 48.0845 2
66.4208 45.3801 2
70.1035 37.5239 3.96774
67.5904 39.5022 3.97656
66.9538 43.4285 3.9765
65.1211 41.1723 3.97625
65.7718 47.344 3.97546
64.175 44.7631 3.9757
72.4105 35.2254 0.0258896
71.8009 30.6778 0.0273127
69.8056 33.277 0.0328384
68.9062 29.0549 0.0348391
64.0165 10.9835 0
63.881 14.3311 0.0357966
63.404 17.4899 0.0451102
67.5266 24.9377 0.0365808
65.9302 27.7068 0.0251263
64.4822 23.9248 0.0302977
62.6474 20.4317 0.036588
61.6655 23.1158 0.0267543
60.6776 11.1061 0.0302441
57.6006 11.5046 0.0369283
70.032 35.3975 2
69.4251 31.1621 2
67.4072 33.622 2
66.5067 29.6838 2
62.336 12.6681 2
62.1642 15.8178 2
61.5652 18.8049 2
65.2537 25.7842 2
63.6769 28.3776 2
60.8085 21.526 2
62.4122 24.8011 2
59.8576 23.9699 2
59.2314 12.8264 2
56.3668 13.1998 2
55.8675 10.2844 2
67.6321 35.5648 3.97665
67.0103 31.6684 3.97661
65.279 33.9716 3.97639
64.1995 30.2889 3.97563
63.0802 26.561 3.97462
61.6234 28.9442 3.9751
60.7533 14.2641 3.95437
60.4459 25.5617 3.97437
60.3934 17.2511 3.95622
59.8073 20.0162 3.96465
59.1085 22.5097 3.97211
58.2905 24.6185 3.97402
54.0374 9.15645 3.98824
57.8371 14.4322 3.95195
54.7713 12.111 3.97577
55.2211 14.7917 3.95205
67.4089 50.1496 0.0358182
57.0196 66.7295 0.0248479
60.6619 63.9707 0.0303379
57.5416 63.6376 0.0326799
65.5931 54.1377 0.0388442
64.2417 51.2876 0.0289656
60.7559 60.8963 0.0428369
60.4393 58.0396 0.0433523
62.5642 54.9609 0.0344719
59.9796 55.6166 0.0323585
55.0701 67.9239 2
59.2061 62.3159 2
55.7897 64.8467 2
56.3015 62.0068 2
65.0303 49.3197 2
63.4187 53.1867 2
61.9476 50.4815 2
59.2313 59.4626 2
60.6747 54.1364 2
58.9122 56.8211 2
58.7946 54.9707 2
53.0372 68.9958 3.98184
53.9529 65.9793 3.9698
57.8311 60.7909 3.95183
54.6534 63.102 3.96554
55.1591 60.514 3.97485
62.6891 48.5102 3.97397
61.2874 52.4 3.97322
59.5937 49.7776 3.97279
57.756 58.0983 3.95623
58.8115 53.7193 3.97255
57.5865 55.5608 3.96285
50.1017 67.8441 3.97404
47.4514 66.5559 3.97417
46.0516 69.1473 3.98062
48.101 68.5673 2
48.7977 70.7209 3.98716
50.9489 69.9262 2
51.8506 72.1454 4
54.0858 71.1327 2
56.25 69.9759 0
55.1012 7.14096 3.99255
58.3339 6.31992 4
57.0585 8.34241 2
60.3286 7.74926 2
58.917 9.66424 0.0292831
62.2254 9.30607 0
68.1797 48.0857 0.0348136
69.3851 43.8988 0.0322929
66.4246 45.3813 0.0235835
67.3427 41.472 0.0233865
70.0156 39.6567 0.032107
72.4862 37.513 0.026034
70.1068 37.5238 2
67.5873 39.5019 2
66.9515 43.4273 2
65.1209 41.1722 2
65.7691 47.3427 2
64.1745 44.763 2
67.6934 37.526 3.97651
65.3631 39.3534 3.97642
64.7256 42.9623 3.97609
63.166 40.8774 3.97629
63.4627 46.5984 3.97485
62.1596 44.1035 3.97566
70.0296 35.3973 0.0325597
69.4222 31.1617 0.0338677
67.4096 33.6215 0.0234625
66.51 29.6825 0.0239624
62.3332 12.661 0.0334823
62.1603 15.8178 0.0469101
61.556 18.8067 0.0402609
65.2555 25.783 0.0269106
63.678 28.3771 0.0245589
62.4126 24.7999 0.0254597
60.8077 21.5248 0.0303986
59.8593 23.9675 0.0257791
59.2325 12.8296 0.0382352
56.371 13.2094 0.038855
55.8676 10.2804 0.0308916
67.6296 35.5651 2
67.0079 31.6696 2
65.2778 33.9718 2
64.1991 30.2891 2
60.751 14.2649 2
60.3882 17.2524 2
59.806 20.018 2
63.0792 26.562 2
61.6234 28.9441 2
59.109 22.5116 2
60.4455 25.5623 2
58.286 24.6211 2
57.8362 14.4205 2
55.2095 14.7737 2
54.0402 9.14976 2
54.7611 12.1058 2
65.4618 35.6923 3.97642
64.7374 32.2213 3.97579
63.749 34.3025 3.9761
61.9496 30.7661 3.97541
61.0265 27.2639 3.97461
60.0884 29.3396 3.9755
59.163 15.7822 3.95426
58.5857 26.0741 3.97472
58.7403 18.5609 3.96026
58.1921 21.1209 3.96677
57.6238 23.4002 3.97231
57.2084 24.9953 3.97485
52.1029 8.18554 3.96797
53.0573 11.0651 3.97223
56.5157 15.906 3.95634
53.759 13.8004 3.9601
54.2031 16.1803 3.95598
55.0653 67.9294 0.0187582
65.0327 49.3208 0.0264152
55.7854 64.8517 0.0312694
59.209 62.3108 0.030664
56.3051 62.0039 0.0194293
63.4186 53.1868 0.0319787
61.9484 50.4819 0.0264715
59.206 59.4539 0.0464019
58.9041 56.8192 0.0398791
60.6758 54.137 0.0281597
58.7862 54.9692 0.0289722
53.0426 68.9924 2
53.9572 65.9781 2
57.8318 60.7997 2
54.6505 63.0996 2
55.1564 60.5128 2
62.6884 48.5097 2
61.2871 52.3997 2
59.5939 49.7774 2
57.7609 58.1006 2
58.8157 53.7193 2
57.5832 55.5586 2
52.0598 66.9784 3.97303
52.9274 64.138 3.96767
56.5006 59.3539 3.95222
53.6171 61.4723 3.96596
54.1534 59.1733 3.96342
60.2773 47.6764 3.97376
59.1014 51.8662 3.97267
57.188 49.3132 3.97341
56.422 56.775 3.96006
56.4294 53.8163 3.96746
50.1058 67.8407 2
49.3206 65.877 3.97309
47.4555 66.5482 2
46.8743 64.6722 3.97821
45.5521 67.0756 3.97811
43.9705 69.5805 3.98275
46.0556 69.1483 2
46.6051 71.3653 3.98876
48.0966 68.5664 0.0219797
48.8028 70.72 2
49.554 73.0099 4
50.9437 69.9297 0.0151649
51.8506 72.1455 2
54.0858 71.1327 0
53.0626 6.08149 3.97914
55.1048 7.14328 2
56.25 5.02411 4
58.3339 6.3199 2
57.0552 8.33742 0.0210564
60.3285 7.74928 0
65.7718 47.344 0.02454
66.9538 43.4285 0.0234951
64.175 44.7631 0.0243002
65.1211 41.1723 0.0237534
67.5904 39.5022 0.0234426
70.1035 37.5239 0.0322617
67.6903 37.5261 2
65.363 39.3535 2
64.7246 42.962 2
63.1669 40.8776 2
63.4623 46.5977 2
62.1601 44.1038 2
65.4727 37.5068 3.97634
63.3142 39.2453 3.97628
62.7124 42.472 3.97607
61.7134 40.6379 3.97648
61.2769 45.7594 3.97491
60.6652 43.5536 3.97607
67.6321 35.5648 0.023353
67.0103 31.6684 0.0233927
65.279 33.9716 0.0236082
64.1995 30.2889 0.0243746
60.7533 14.2641 0.0456253
60.3934 17.2511 0.0437793
59.8073 20.0162 0.0353499
63.0802 26.561 0.0253833
61.6234 28.9442 0.0248996
60.4459 25.5617 0.0256291
59.1085 22.5097 0.0278939
58.2905 24.6185 0.0259772
57.8371 14.4322 0.04805
55.2211 14.7917 0.0479509
54.0374 9.15645 0.0117612
54.7713 12.111 0.0242257
65.4613 35.6924 2
64.7369 32.2216 2
63.7501 34.3024 2
61.9497 30.7657 2
59.1814 15.7781 2
58.7431 18.5612 2
58.1887 21.1241 2
61.0261 27.2645 2
60.0891 29.3396 2
57.6195 23.4042 2
58.5833 26.0751 2
57.2038 24.9978 2
56.501 15.909 2
54.2072 16.1792 2
53.7409 13.7828 2
52.1027 8.19332 2
53.0551 11.0606 2
63.5274 35.6666 3.97607
62.2823 33.1352 3.9759
59.7915 30.7927 3.97535
58.7477 28.1616 3.97496
57.663 17.1692 3.95664
56.8853 26.0662 3.97471
57.202 19.7478 3.95968
56.7003 22.169 3.96847
56.41 24.3048 3.97367
50.1045 7.311 3.97352
51.1958 10.2131 3.96289
52.128 12.8796 3.96822
55.2732 17.1904 3.95524
52.868 15.4263 3.96267
53.5232 17.2036 3.95471
53.0372 68.9958 0.0181558
53.9529 65.9793 0.0301982
62.6891 48.5102 0.0260283
54.6534 63.102 0.0344612
57.8311 60.7909 0.0481726
55.1591 60.514 0.0251451
61.2874 52.4 0.0267776
59.5937 49.7776 0.0272073
57.756 58.0983 0.0437677
57.5865 55.5608 0.0371498
58.8115 53.7193 0.0274455
52.0641 66.9732 2
52.9285 64.1372 2
56.4948 59.354 2
53.6136 61.4687 2
54.1463 59.1727 2
60.2775 47.6761 2
59.1033 51.8658 2
57.1886 49.3137 2
56.418 56.7774 2
56.4266 53.8149 2
51.1475 65.0763 3.96631
51.9957 62.4213 3.96429
55.2511 58.0704 3.95962
52.6987 59.9472 3.95791
53.4798 58.294 3.9615
57.3181 46.5602 3.97457
56.8073 51.4715 3.97254
55.3081 49.1847 3.97504
55.0316 55.538 3.96041
54.5998 53.0489 3.96179
50.1017 67.8441 0.0259642
49.3235 65.8771 2
48.5918 64.0521 3.97752
47.4514 66.5559 0.025828
45.554 67.081 2
46.8772 64.6699 2
46.354 62.9744 3.98443
45.1182 65.1616 3.98101
43.6278 67.452 3.97983
41.8588 69.8681 3.98287
43.9728 69.5818 2
44.3732 71.8601 3.9896
46.0516 69.1473 0.019384
46.6088 71.3648 2
47.2057 73.7222 4
48.7977 70.7209 0.0128402
49.554 73.0099 2
51.8506 72.1454 0
50.9541 5.13705 3.9846
53.0651 6.0816 2
54.0858 3.86728 4
55.1012 7.14096 0.00745014
56.25 5.02406 2
58.3339 6.31992 0
63.4627 46.5984 0.0251547
64.7256 42.9623 0.0239122
62.1596 44.1035 0.0243355
63.166 40.8774 0.0237063
65.3631 39.3534 0.0235848
67.6934 37.526 0.0234933
65.4722 37.5069 2
63.3157 39.2456 2
62.7133 42.4717 2
61.7139 40.638 2
61.2772 45.759 2
60.6652 43.5536 2
63.3797 37.4631 3.97638
61.4054 39.3216 3.97665
60.4011 41.8545 3.97681
59.3664 44.5825 3.97526
65.4618 35.6923 0.0235807
64.7374 32.2213 0.0242053
63.749 34.3025 0.0239041
61.9496 30.7661 0.0245868
59.163 15.7822 0.0457429
58.7403 18.5609 0.0397438
58.1921 21.1209 0.0332315
61.0265 27.2639 0.0253914
60.0884 29.3396 0.0244951
58.5857 26.0741 0.0252842
57.6238 23.4002 0.0276877
57.2084 24.9953 0.0251473
56.5157 15.906 0.0436592
54.2031 16.1803 0.044021
53.759 13.8004 0.0399028
52.1029 8.18554 0.0320285
53.0573 11.0651 0.0277739
63.5287 35.6664 2
62.2841 33.1355 2
59.792 30.7926 2
57.671 17.1681 2
57.2033 19.7483 2
56.6962 22.1734 2
58.7476 28.161 2
56.4155 24.3066 2
56.8846 26.0661 2
50.1102 7.29458 2
55.2712 17.1884 2
53.5301 17.1955 2
52.858 15.4227 2
52.1358 12.882 2
51.2011 10.2133 2
61.4475 35.4107 3.97637
59.3945 32.8807 3.9759
57.6292 30.3215 3.97496
56.3263 27.7128 3.97505
56.2495 18.4029 3.95668
55.3823 25.4935 3.97372
55.7495 20.8499 3.96154
55.3355 23.2513 3.96849
48.0559 6.53605 3.97992
49.2985 9.38743 3.97294
50.3761 12.1454 3.97276
51.2869 14.6288 3.97698
54.097 18.1849 3.95951
52.1536 17.2633 3.95728
52.0598 66.9784 0.0269663
52.9274 64.138 0.0323266
60.2773 47.6764 0.0262387
53.6171 61.4723 0.0340381
56.5006 59.3539 0.0477785
54.1534 59.1733 0.0365829
59.1014 51.8662 0.0273309
57.188 49.3132 0.0265884
56.422 56.775 0.0399441
56.4294 53.8163 0.0325352
51.1493 65.0719 2
51.9971 62.4319 2
55.243 58.0689 2
52.6999 59.949 2
53.4727 58.2962 2
57.3181 46.5598 2
56.8063 51.4705 2
55.3075 49.184 2
55.0296 55.538 2
54.5987 53.0489 2
50.3097 63.304 3.96994
51.1406 60.7788 3.96973
53.9366 57.0576 3.96727
52.0596 58.4185 3.96517
55.4769 43.9191 3.97511
54.3846 47.5054 3.97515
54.0926 50.9983 3.96561
53.4539 54.2513 3.96412
49.3206 65.877 0.0269058
48.5901 64.0668 2
47.9181 62.3999 3.98991
45.5521 67.0756 0.0218897
46.8743 64.6722 0.0217922
43.6293 67.4538 2
46.3545 62.9708 2
45.1225 65.1549 2
45.9475 61.4925 3.99094
44.7463 63.3896 3.97619
43.35 65.4792 3.97912
41.6617 67.6705 3.97855
39.7014 70.0154 3.98233
41.8602 69.8705 2
42.1085 72.2041 3.99038
43.9705 69.5805 0.0172468
44.376 71.8598 2
44.8159 74.2794 4
46.6051 71.3653 0.0112361
47.2057 73.7222 2
49.554 73.0099 0
48.7849 4.32504 3.98587
50.9547 5.1355 2
51.8506 2.85458 4
53.0626 6.08149 0.0208612
54.0858 3.86728 2
56.25 5.02411 0
61.2769 45.7594 0.0250861
62.7124 42.472 0.0239279
60.6652 43.5536 0.02393
61.7134 40.6379 0.0235155
63.3142 39.2453 0.0237186
65.4727 37.5068 0.023657
63.3812 37.4631 2
61.4058 39.3224 2
60.4012 41.8545 2
59.3674 44.5822 2
61.2226 37.4518 3.97675
59.3032 39.7892 3.97662
57.9518 42.7603 3.97592
63.5274 35.6666 0.0239281
62.2823 33.1352 0.0240991
59.7915 30.7927 0.0246501
57.663 17.1692 0.0433577
57.202 19.7478 0.0403235
56.7003 22.169 0.0315284
58.7477 28.1616 0.0250427
56.8853 26.0662 0.0252946
56.41 24.3048 0.0263311
55.2732 17.1904 0.0447555
53.5232 17.2036 0.0452907
52.868 15.4263 0.0373318
50.1045 7.311 0.0264815
52.128 12.8796 0.0317753
51.1958 10.2131 0.0371064
61.4478 35.4105 2
59.3941 32.8811 2
57.6299 30.3223 2
56.2509 18.4033 2
55.7666 20.8459 2
55.3525 23.2521 2
56.3262 27.7126 2
55.3856 25.4982 2
48.0517 6.54582 2
49.3015 9.38901 2
54.1005 18.1865 2
52.1487 17.2585 2
51.2805 14.6241 2
50.3806 12.1399 2
58.918 35.1929 3.97636
56.8656 32.4633 3.97511
55.4156 29.6591 3.97503
54.3902 27.0245 3.97417
54.9005 19.4811 3.96052
54.0645 24.4788 3.97125
54.3135 21.9402 3.96539
45.9616 5.89642 3.98027
43.3684 7.49451 3.97902
47.3374 8.65865 3.97295
48.5598 11.4009 3.96901
49.6195 13.9147 3.9787
50.4807 16.3249 3.96121
52.7873 18.9712 3.96031
51.0625 18.3669 3.95244
51.1475 65.0763 0.0336851
51.9957 62.4213 0.0357108
57.3181 46.5602 0.0254264
52.6987 59.9472 0.0420907
55.2511 58.0704 0.0403835
53.4798 58.294 0.0385017
56.8073 51.4715 0.027463
55.3081 49.1847 0.0249601
55.0316 55.538 0.0395868
54.5998 53.0489 0.0382091
50.307 63.3014 2
51.1412 60.7793 2
53.9262 57.0575 2
52.0515 58.4217 2
55.4807 43.9186 2
54.3854 47.5059 2
54.0882 50.9968 2
53.4475 54.2525 2
49.5222 61.6631 3.97755
54.1476 41.5602 3.9743
50.3869 59.1456 3.96924
51.7709 56.2343 3.96478
52.7822 45.1521 3.97246
52.1658 48.8819 3.96959
51.8938 52.4989 3.95809
48.5918 64.0521 0.022482
47.9165 62.4028 2
47.2669 60.9205 3.99277
43.6278 67.452 0.0201664
45.1182 65.1616 0.0189869
46.354 62.9744 0.015574
41.6637 67.6728 2
43.357 65.4795 2
45.9482 61.4946 2
44.7483 63.3813 2
45.7011 60.5362 4.00509
44.4523 61.7507 3.98416
43.1327 63.675 3.98038
41.5431 65.6188 3.97327
39.6322 67.7502 3.97771
37.5261 70.04 3.98248
39.7023 70.0158 2
39.8164 72.4016 3.99069
41.8588 69.8681 0.0171335
42.1103 72.2051 2
42.3947 74.6792 4
44.3732 71.8601 0.0103971
44.8159 74.2794 2
47.2057 73.7222 0
43.8503 5.37006 3.97896
46.5694 3.65118 3.98722
48.7839 4.32903 2
49.554 1.99015 4
50.9541 5.13705 0.0153983
51.8506 2.85453 2
54.0858 3.86728 0
59.3664 44.5825 0.0247381
60.4011 41.8545 0.0231857
61.4054 39.3216 0.0233534
63.3797 37.4631 0.0236208
61.2239 37.4518 2
59.3015 39.7894 2
57.9504 42.7592 2
58.7601 37.5722 3.97673
56.8412 40.5432 3.97752
53.535 39.6086 3.97689
61.4475 35.4107 0.0236348
59.3945 32.8807 0.0241012
57.6292 30.3215 0.0250355
56.2495 18.4029 0.0433179
55.7495 20.8499 0.0384594
55.3355 23.2513 0.0315059
56.3263 27.7128 0.0249456
55.3823 25.4935 0.0262809
54.097 18.1849 0.040491
52.1536 17.2633 0.0427213
51.2869 14.6288 0.0230239
48.0559 6.53605 0.0200818
49.2985 9.38743 0.0270645
50.3761 12.1454 0.0272447
58.9157 35.1918 2
45.9612 5.89486 2
43.3696 7.49826 2
56.8645 32.4631 2
55.4181 29.6569 2
54.8903 19.4868 2
54.3411 21.9385 2
54.0613 24.4859 2
54.3904 27.0245 2
47.3399 8.65171 2
48.5631 11.3902 2
52.7826 18.9416 2
51.0642 18.3681 2
50.4879 16.3221 2
49.6155 13.916 2
56.1661 34.8711 3.97733
54.4146 31.8021 3.97428
53.2756 28.8096 3.97576
52.7632 25.961 3.97326
53.4815 20.4761 3.96762
52.8384 23.1451 3.96953
41.396 7.09315 3.97845
45.3483 8.01198 3.98442
42.8572 9.44896 3.97299
46.6411 10.729 3.97351
47.672 13.223 3.97361
48.7843 15.571 3.97731
49.7798 17.9583 3.95925
51.3016 19.6807 3.97702
50.3097 63.304 0.0300647
51.1406 60.7788 0.0302676
55.4769 43.9191 0.0248949
54.3846 47.5054 0.0248472
52.0596 58.4185 0.0348281
53.9366 57.0576 0.0327253
54.0926 50.9983 0.0343909
53.4539 54.2513 0.0358776
49.5236 61.6594 2
54.1415 41.5518 2
50.3858 59.1508 2
51.7739 56.2393 2
52.7761 45.1498 2
52.1613 48.8798 2
51.8992 52.5002 2
48.7289 60.1089 3.99629
50.7225 42.3618 3.98295
49.5081 57.4282 3.96334
50.0232 54.1315 3.9588
50.4457 46.7727 3.97705
50.2556 50.544 3.95275
46.4918 43.2969 3.95621
47.9181 62.3999 0.0100878
47.2724 60.917 2
46.5217 59.7056 3.99327
41.6617 67.6705 0.0214452
43.35 65.4792 0.0208822
44.7463 63.3896 0.0238135
45.9475 61.4925 0.00905591
39.6342 67.7509 2
41.5485 65.6152 2
45.7067 60.538 2
43.133 63.6712 2
44.4528 61.7458 2
44.5765 60.1918 3.99325
42.9262 62.0097 3.98039
41.5892 63.7851 3.98168
39.6451 65.5888 3.97594
37.5632 67.7324 3.97651
31.7034 65.0944 3.97203
33.3946 67.4707 3.97871
35.3344 69.9512 3.98257
37.5261 70.0419 2
37.5095 72.4556 3.99119
39.7014 70.0154 0.0176679
39.8175 72.4017 2
39.9526 74.9197 4
42.1085 72.2041 0.00961566
42.3947 74.6792 2
44.8159 74.2794 0
41.7354 4.97659 3.98405
43.8503 5.37078 2
44.3255 3.11342 3.98911
46.5706 3.6506 2
47.2057 1.27793 4
48.7849 4.32504 0.0141263
49.554 1.99013 2
51.8506 2.85458 0
57.9518 42.7603 0.0240823
59.3032 39.7892 0.0233847
61.2226 37.4518 0.0232542
58.7612 37.5725 2
56.8416 40.5448 2
53.5314 39.6097 2
55.4977 37.8844 3.97702
47.7358 41.0985 3.96665
51.257 39.2491 3.97915
39.4396 6.81607 3.97769
58.918 35.1929 0.023637
56.8656 32.4633 0.0248936
55.4156 29.6591 0.0249692
54.9005 19.4811 0.0394844
54.3135 21.9402 0.0346131
54.0645 24.4788 0.0287467
54.3902 27.0245 0.0258287
52.7873 18.9712 0.0396891
51.0625 18.3669 0.0475553
50.4807 16.3249 0.0387861
45.9616 5.89642 0.0197281
49.6195 13.9147 0.0213034
47.3374 8.65865 0.0270474
48.5598 11.4009 0.0309944
43.3684 7.49451 0.0209755
56.1644 34.8736 2
41.3975 7.09439 2
45.3491 8.01348 2
42.8543 9.44902 2
54.4108 31.8016 2
53.2709 28.8104 2
53.4838 20.4828 2
52.8143 23.1569 2
52.7695 25.9606 2
46.6409 10.7191 2
47.6742 13.2109 2
51.3072 19.6806 2
49.7806 17.9503 2
48.7939 15.5962 2
53.3129 34.1225 3.97563
52.0356 30.8765 3.97462
51.4095 27.6788 3.97491
51.2512 24.5764 3.97097
51.8585 21.458 3.974
41.0073 9.06858 3.9754
44.7125 10.0404 3.97848
42.4454 10.9372 4.00409
45.9425 12.81 3.97159
47.571 14.7486 3.97536
47.9154 17.1646 3.98026
49.5467 20.0797 3.98797
49.5222 61.6631 0.0224537
50.3869 59.1456 0.0307577
54.1476 41.5602 0.0257002
52.7822 45.1521 0.0275363
52.1658 48.8819 0.0304137
51.7709 56.2343 0.0352184
51.8938 52.4989 0.0419119
48.7288 60.1072 2
50.7496 42.3874 2
49.5074 57.4222 2
50.0232 54.1339 2
50.4464 46.7724 2
50.2586 50.544 2
46.5029 43.3394 2
47.8194 58.5788 3.99041
48.4905 44.8748 3.98223
48.2119 55.6846 3.9508
48.4314 52.2619 3.97726
48.562 48.5973 3.97225
44.1474 39.6725 3.80822
44.717 42.2438 3.85715
45.089 45.2192 3.97331
42.0671 40.9484 3.56625
41.1407 41.438 3.36434
47.2669 60.9205 0.00722694
46.5276 59.7062 2
45.3653 58.6824 3.99383
39.6322 67.7502 0.0222854
41.5431 65.6188 0.0267318
43.1327 63.675 0.0196168
44.4523 61.7507 0.0158447
45.7011 60.5362 -0.0050879
41.5932 63.7786 2
37.565 67.7346 2
39.6495 65.5906 2
44.5731 60.1953 2
42.9263 62.0021 2
41.736 62.4313 3.98588
42.4454 59.8795 3.98789
39.8862 63.5241 3.98031
37.6408 65.4869 3.9757
35.4639 67.6418 3.9757
33.5789 65.3117 3.97353
31.9701 63.2469 3.98781
29.8953 64.6855 3.97899
31.6968 65.1036 2
31.3823 67.1842 3.97879
33.3961 67.4755 2
33.1585 69.7451 3.98325
35.334 69.9529 2
35.1967 72.3708 3.99155
37.5261 70.04 0.0175188
37.5101 72.4563 2
37.5 75 4
39.8164 72.4016 0.00930506
39.9526 74.9197 2
42.3947 74.6792 0
39.624 4.72265 3.98536
41.7352 4.97721 2
42.0622 2.72026 3.99
43.8503 5.37006 0.0210417
44.3257 3.11355 2
44.8158 0.721173 4
46.5694 3.65118 0.0127789
47.2057 1.27779 2
49.554 1.99015 0
56.8412 40.5432 0.0224833
58.7601 37.5722 0.0232746
53.535 39.6086 0.0231057
47.7798 41.1251 2
55.495 37.8832 2
51.2725 39.2331 2
52.1969 36.6352 3.97697
45.6574 40.2063 3.87912
48.5885 38.465 3.96459
37.5143 6.68411 3.98203
39.4407 6.81482 2
39.2072 8.71623 3.98253
35.9419 8.50959 3.97773
56.1661 34.8711 0.0226659
54.4146 31.8021 0.0257175
53.2756 28.8096 0.0242406
53.4815 20.4761 0.0323794
52.8384 23.1451 0.0304722
52.7632 25.961 0.0267413
51.3016 19.6807 0.0229768
49.7798 17.9583 0.040748
48.7843 15.571 0.0226906
45.3483 8.01198 0.0155808
47.672 13.223 0.0263941
46.6411 10.729 0.0264911
41.396 7.09315 0.0215542
42.8572 9.44896 0.0270063
53.3151 34.1275 2
41.0035 9.07011 2
44.7112 10.0361 2
42.4423 10.9433 2
52.0404 30.8726 2
51.4122 27.6811 2
51.8557 21.4624 2
51.2395 24.5868 2
45.9441 12.7987 2
47.5652 14.7307 2
49.5631 20.0945 2
47.9152 17.1611 2
50.6914 33.1239 3.97493
49.845 29.6718 3.97646
49.7059 26.1962 3.97063
49.3917 22.6442 3.97207
40.5527 11.6293 3.98933
43.8078 11.9651 3.96695
45.6931 15.6131 4.00138
47.2633 19.6604 3.97794
44.4302 37.5071 3.81995
48.7289 60.1089 0.00371198
49.5081 57.4282 0.0366581
50.7225 42.3618 0.017045
50.4457 46.7727 0.0229511
50.2556 50.544 0.0472493
50.0232 54.1315 0.0411988
46.4918 43.2969 0.0437863
47.8114 58.5808 2
48.5053 44.8875 2
48.2058 55.6884 2
48.4315 52.2672 2
48.5658 48.5983 2
44.2693 39.6891 2
44.7531 42.2877 2
45.0958 45.2426 2
42.1322 41.0133 2
41.1829 41.4596 2
46.6091 57.1663 3.99235
42.6622 39.3963 3.55872
41.5166 40.4375 3.34551
46.7781 46.8351 3.99265
46.6826 53.965 3.95568
46.7509 50.39 3.97254
43.7673 46.8344 3.98058
43.3944 41.6422 3.81479
43.6455 44.0106 3.84342
41.4494 42.1266 3.5908
40.309 41.7078 3.28437
46.5217 59.7056 0.00673413
45.3578 58.6816 2
43.7765 57.544 3.9969
37.5632 67.7324 0.0234862
39.6451 65.5888 0.0240602
41.5892 63.7851 0.0183167
42.9262 62.0097 0.0196091
44.5765 60.1918 0.00674897
35.4654 67.6433 2
41.7353 62.4267 2
39.8886 63.5269 2
37.6439 65.4897 2
42.4433 59.8816 2
40.6075 61.5789 3.98803
40.414 58.0562 3.99202
37.8341 63.176 3.97372
35.5736 65.4044 3.97476
33.5747 65.304 2
31.9704 63.2304 2
33.6349 63.3023 3.98722
30.4021 62.7885 3.98232
32.1466 61.9467 3.995
26.9281 61.3669 3.9906
28.0858 64.0847 3.98858
29.8928 64.679 2
29.414 66.7364 3.98012
31.7034 65.0944 0.0279686
31.3835 67.1856 2
31.0169 69.4115 3.98375
33.3946 67.4707 0.0212924
33.1575 69.7478 2
32.8951 72.1451 3.99135
35.3344 69.9512 0.0174271
35.1962 72.3717 2
35.0474 74.9194 4
37.5095 72.4556 0.00880954
37.5 75 2
39.9526 74.9197 0
35.6191 6.73626 3.97909
37.5241 4.62157 3.9862
39.6233 4.72171 2
39.789 2.47628 3.99139
41.7354 4.97659 0.015953
42.0622 2.72058 2
42.3946 0.32156 4
44.3255 3.11342 0.0108902
44.8159 0.72056 2
47.2057 1.27793 0
47.7358 41.0985 0.0333453
55.4977 37.8844 0.0229823
51.257 39.2491 0.0208519
45.7199 40.1921 2
48.633 38.4597 2
52.1935 36.6307 2
49.438 35.6285 3.97858
46.2147 37.6996 3.83969
44.1761 35.3042 3.81131
42.1185 34.0084 3.56752
41.1864 33.5178 3.36783
37.457 8.54739 3.98018
37.5152 6.68427 2
39.4396 6.81607 0.0223119
39.2065 8.71752 2
38.9691 10.1539 3.99336
35.8974 9.79365 3.98145
34.1522 8.84071 3.97644
35.9408 8.51048 2
53.3129 34.1225 0.0243735
52.0356 30.8765 0.0253809
51.4095 27.6788 0.0250908
51.8585 21.458 0.0259965
51.2512 24.5764 0.0290307
49.5467 20.0797 0.0120331
47.9154 17.1646 0.0197392
47.571 14.7486 0.0246432
44.7125 10.0404 0.0215228
45.9425 12.81 0.0284059
41.0073 9.06858 0.0245965
42.4454 10.9372 -0.00408838
50.7151 33.1064 2
40.5547 11.645 2
43.8076 11.9444 2
49.855 29.6677 2
49.7052 26.2118 2
49.3848 22.6256 2
45.6768 15.5566 2
47.2763 19.7028 2
48.2961 31.6848 3.97949
48.0264 27.9834 3.97521
48.5581 24.8031 3.96737
46.7939 22.4705 3.9915
38.2962 12.7775 3.98049
42.0411 14.4291 3.99334
44.614 18.7169 3.9964
42.9239 37.4882 3.55263
44.5509 37.4938 2
47.8194 58.5788 0.00958765
48.2119 55.6846 0.0491957
48.4905 44.8748 0.0177657
48.562 48.5973 0.0277548
48.4314 52.2619 0.0227445
44.1474 39.6725 0.19178
44.717 42.2438 0.142846
45.089 45.2192 0.0266949
42.0671 40.9484 0.433746
41.1407 41.438 0.635658
46.602 57.173 2
42.7552 39.412 2
41.5443 40.443 2
46.7834 46.8387 2
46.6751 53.9681 2
46.7504 50.4029 2
43.8101 46.8514 2
43.4669 41.7043 2
43.7099 44.0492 2
41.5077 42.2236 2
40.3927 41.7246 2
45.1076 55.7271 4.00274
41.8256 39.0324 3.35614
40.1511 40.3909 3.38153
45.1264 48.476 4.0033
44.9038 52.19 3.99485
42.6057 47.8104 3.98754
42.4487 45.4696 3.85424
42.5025 43.3079 3.78329
40.6131 43.0013 3.55937
39.0905 42.0075 3.37449
45.3653 58.6824 0.00617193
43.7683 57.5567 2
42.0014 56.0817 3.9954
35.4639 67.6418 0.0242986
37.6408 65.4869 0.0242987
39.8862 63.5241 0.0196851
41.736 62.4313 0.014115
42.4454 59.8795 0.012106
35.5756 65.4109 2
40.6083 61.5649 2
37.8375 63.1791 2
40.4118 58.0673 2
38.9033 56.2303 3.9955
38.241 60.2589 3.98985
35.6084 63.1704 3.97498
33.5789 65.3117 0.0264735
31.9701 63.2469 0.0121858
33.6352 63.305 2
30.401 62.7755 2
32.1562 61.9338 2
28.7207 62.1186 3.98708
33.3639 61.4674 3.98933
31.1339 61.1541 4.01129
27.68 59.4688 3.96358
23.9311 58.9075 3.97714
25.1135 60.7093 3.98077
26.926 61.3758 2
26.2672 63.4082 3.977
28.0876 64.0911 2
27.4776 66.1547 3.97807
29.8953 64.6855 0.0210112
29.4144 66.75 2
28.9124 68.9309 3.98152
31.3823 67.1842 0.0212067
31.0152 69.4123 2
30.6185 71.7774 3.99099
33.1585 69.7451 0.0167509
32.8937 72.1463 2
32.6054 74.6784 4
35.1967 72.3708 0.00844777
35.0474 74.9197 2
37.5 75 0
33.722 6.99238 3.97753
35.4364 4.69151 3.9858
35.6202 6.73677 2
37.5152 2.38879 3.99162
37.5228 4.62092 2
39.624 4.72265 0.0146393
39.7886 2.476 2
39.9526 0.0806499 4
42.0622 2.72026 0.0100013
42.3947 0.320817 2
44.8158 0.721173 0
42.7021 35.57 3.56481
41.5591 34.5048 3.3315
45.6574 40.2063 0.120885
48.5885 38.465 0.0354065
52.1969 36.6352 0.0230264
46.2497 37.7139 2
49.4814 35.6461 2
44.2951 35.289 2
42.1812 33.941 2
41.2001 33.4903 2
46.5542 34.5355 3.92127
43.4503 33.3153 3.807
41.4892 32.8331 3.59388
40.326 33.2549 3.28217
37.3068 10.6489 3.98031
37.4567 8.54759 2
37.5143 6.68411 0.0179659
39.2072 8.71623 0.0174699
38.9715 10.1584 2
34.7556 10.4063 3.97482
35.9014 9.79436 2
32.381 9.39016 3.97171
34.1506 8.84242 2
35.9419 8.50959 0.0222658
50.6914 33.1239 0.0250738
49.845 29.6718 0.0235361
49.7059 26.1962 0.0293714
49.3917 22.6442 0.0279334
47.2633 19.6604 0.0220608
45.6931 15.6131 -0.0013755
43.8078 11.9651 0.0330518
40.5527 11.6293 0.010671
48.316 31.6625 2
38.2939 12.7822 2
42.0552 14.4233 2
48.0188 27.9813 2
48.5572 24.8135 2
46.7861 22.4603 2
44.6259 18.7847 2
46.3006 30.0225 3.97644
46.2569 25.5101 3.97727
44.0218 21.7422 3.98197
36.5903 12.9922 3.98152
38.6519 14.9431 3.98079
41.6413 18.0603 3.98962
41.9649 37.4555 3.36556
43.0113 37.4893 2
44.4302 37.5071 0.180053
46.6091 57.1663 0.00765367
46.6826 53.965 0.0443199
46.7781 46.8351 0.00734613
46.7509 50.39 0.0274561
42.6622 39.3963 0.441278
43.3944 41.6422 0.185208
43.6455 44.0106 0.15658
43.7673 46.8344 0.0194208
41.4494 42.1266 0.4092
41.5166 40.4375 0.654491
40.309 41.7078 0.715628
45.103 55.7284 2
41.8559 39.0391 2
40.2485 40.3797 2
45.1239 48.5027 2
44.8949 52.192 2
42.657 47.8346 2
42.5202 45.5499 2
42.5566 43.3431 2
40.6866 43.0938 2
39.0437 42.0527 2
43.4241 54.1401 4.00505
40.185 38.9257 3.4178
38.9993 40.495 3.38223
42.9543 49.9248 4.00384
41.3234 46.9428 3.90996
41.2253 44.5275 3.78242
39.3646 43.667 3.56235
37.5031 42.17 3.44717
43.7765 57.544 0.0030992
42.0021 56.0715 2
40.3014 54.6379 3.997
35.5736 65.4044 0.025237
37.8341 63.176 0.0262847
40.6075 61.5789 0.0119701
40.414 58.0562 0.00797795
35.6104 63.1725 2
38.2414 60.2408 2
38.9022 56.2211 2
37.9686 54.9113 3.99536
36.9325 57.4637 3.99394
35.369 60.8498 3.98607
33.6349 63.3023 0.0127808
30.4021 62.7885 0.0176792
32.1466 61.9467 0.00500033
33.3766 61.4604 2
28.7154 62.13 2
31.129 61.147 2
29.5057 60.2789 3.98
32.3903 59.598 3.99383
28.1726 58.2363 4.00744
27.6809 59.4749 2
25.5279 58.4339 3.97084
22.9432 58.052 3.96688
23.4925 60.1792 3.97037
23.9321 58.9065 2
25.1128 60.7046 2
24.4839 62.6741 3.96963
26.9281 61.3669 0.00940258
26.2676 63.4191 2
25.5692 65.4463 3.97347
28.0858 64.0847 0.0114195
27.4724 66.1382 2
26.8446 68.3229 3.98098
29.414 66.7364 0.0198757
28.908 68.9341 2
28.3748 71.2608 3.98767
31.0169 69.4115 0.0162493
30.6163 71.7767 2
30.1842 74.2788 4
32.8951 72.1451 0.008655
32.6053 74.6792 2
35.0474 74.9194 0
31.7864 7.43486 3.97511
33.3489 4.93116 3.9841
33.7232 6.99345 2
35.2459 2.46474 3.99125
35.4345 4.69209 2
35.6191 6.73626 0.0209126
37.5 0 4
37.5141 2.38868 2
37.5241 4.62157 0.0137965
39.789 2.47628 0.00861419
39.9526 0.0802889 2
42.3946 0.32156 0
41.8271 35.8794 3.30112
42.8107 35.5542 2
40.2116 34.5433 3.4031
41.5836 34.4904 2
46.2147 37.6996 0.160307
49.438 35.6285 0.0214156
44.1761 35.3042 0.188687
42.1185 34.0084 0.432485
41.1864 33.5178 0.632171
46.6036 34.535 2
43.5126 33.2534 2
41.5338 32.7383 2
40.3862 33.2399 2
44.7509 32.0259 3.87408
42.5347 31.6484 3.7714
40.6475 31.9593 3.56509
39.0851 32.9609 3.37472
35.6968 11.8127 3.97364
37.3135 10.6494 2
37.457 8.54739 0.0198177
38.9691 10.1539 0.00663998
33.1047 11.2561 3.97147
34.7593 10.4038 2
35.8974 9.79365 0.0185459
30.4897 10.0508 3.97238
32.3794 9.39615 2
34.1522 8.84071 0.0235566
48.2961 31.6848 0.0205072
48.0264 27.9834 0.0247916
48.5581 24.8031 0.0326291
46.7939 22.4705 0.00849689
44.614 18.7169 0.00360297
42.0411 14.4291 0.00666255
38.2962 12.7775 0.0195075
36.5841 12.9926 2
46.2807 29.9664 2
38.6629 14.9129 2
41.6198 18.0453 2
46.256 25.4962 2
44.0192 21.7377 2
44.4223 28.1942 3.98998
43.2291 24.4108 4.00575
41.1356 21.0995 3.99608
35.7773 14.8212 3.99381
38.6036 17.8203 3.99277
40.243 37.4096 3.44943
42.0047 37.4637 2
42.9239 37.4882 0.447367
45.1076 55.7271 -0.0027403
44.9038 52.19 0.00514923
45.1264 48.476 -0.00329915
41.8256 39.0324 0.643864
42.5025 43.3079 0.216707
42.4487 45.4696 0.145757
42.6057 47.8104 0.012457
40.6131 43.0013 0.440626
40.1511 40.3909 0.618472
39.0905 42.0075 0.625515
43.4174 54.1367 2
40.2459 38.9303 2
38.9633 40.4986 2
42.9366 49.9455 2
41.3192 46.9687 2
41.2504 44.5784 2
37.4909 42.1929 2
39.3816 43.7633 2
41.5811 52.5909 4.00461
39.0128 38.9912 3.36509
37.4957 40.5304 3.46228
35.9031 42.0302 3.37314
40.5853 49.0916 3.9876
39.5448 45.2245 3.75265
37.4961 43.9852 3.61366
42.0014 56.0817 0.00459898
40.2971 54.6448 2
38.6677 53.3768 3.99834
35.6084 63.1704 0.0250246
38.241 60.2589 0.0101534
38.9033 56.2303 0.0045032
35.3799 60.8408 2
36.9361 57.4783 2
37.9614 54.9066 2
36.3265 55.0234 3.99516
34.5156 58.3887 3.99492
33.3639 61.4674 0.010671
28.7207 62.1186 0.0129192
31.1339 61.1541 -0.0112939
32.395 59.5936 2
29.5056 60.2852 2
30.4162 57.598 3.98075
28.169 58.232 2
27.1896 56.6644 3.96352
27.68 59.4688 0.0364196
25.5295 58.4309 2
24.1285 56.5946 3.95853
21.6394 57.1756 3.96008
22.108 59.4559 3.97324
22.9484 58.0513 2
22.7997 61.8811 3.97051
23.4911 60.1797 2
23.9311 58.9075 0.0228647
25.1135 60.7093 0.0192346
24.4837 62.6823 2
23.7094 64.6531 3.96461
26.2672 63.4082 0.0230016
25.5653 65.4436 2
24.8182 67.5832 3.97174
27.4776 66.1547 0.0219343
26.8406 68.3256 2
26.1705 70.6031 3.98823
28.9124 68.9309 0.0184825
28.3714 71.2616 2
27.7943 73.7221 4
30.6185 71.7774 0.00900752
30.1841 74.2794 2
32.6054 74.6784 0
29.8098 8.01486 3.97045
31.2541 5.33996 3.98227
31.7882 7.43408 2
32.982 2.70284 3.99067
33.3467 4.93188 2
33.722 6.99238 0.0224714
35.0474 0.080333 4
35.2444 2.46513 2
35.4364 4.69151 0.0142039
37.5 0 2
37.5152 2.38879 0.00837875
39.9526 0.0806499 0
40.3354 35.9577 3.46008
41.8775 35.8789 2
42.7021 35.57 0.435194
28.5532 10.7331 3.97149
38.9885 34.4932 3.36279
40.2184 34.5353 2
41.5591 34.5048 0.668504
46.5542 34.5355 0.0787329
43.4503 33.3153 0.193002
41.4892 32.8331 0.406118
40.326 33.2549 0.717832
44.7765 31.994 2
42.5955 31.6056 2
40.7178 31.8696 2
39.0542 32.9158 2
43.2781 30.3304 3.85752
41.243 30.4125 3.78357
39.3644 31.2976 3.5685
37.5018 32.8234 3.44446
34.1038 12.9799 3.9825
35.7005 11.8054 2
37.3068 10.6489 0.0196871
31.1982 12.0338 3.97446
33.1076 11.2505 2
34.7556 10.4063 0.0251829
30.4858 10.0484 2
32.381 9.39016 0.0282889
46.3006 30.0225 0.0235617
46.2569 25.5101 0.0227312
36.5903 12.9922 0.0184803
44.0218 21.7422 0.0180262
41.6413 18.0603 0.010376
38.6519 14.9431 0.0192126
35.7647 14.8477 2
44.4171 28.2039 2
38.6186 17.8084 2
41.1545 21.0805 2
43.2181 24.3901 2
33.6411 15.953 3.99174
42.3691 26.9706 3.96643
40.713 23.8329 4.00365
38.3516 20.6491 3.99556
35.8192 17.7293 3.98475
39.0173 37.4909 3.34505
40.2805 37.4197 2
41.9649 37.4555 0.634441
43.4241 54.1401 -0.00504941
42.9543 49.9248 -0.00384028
40.185 38.9257 0.582198
41.2253 44.5275 0.217582
41.3234 46.9428 0.090045
39.3646 43.667 0.437651
38.9993 40.495 0.617772
37.5031 42.17 0.55283
41.5683 52.5867 2
38.9792 38.9869 2
37.4809 40.5366 2
40.5713 49.0958 2
35.9425 42.0709 2
39.5802 45.2999 2
37.4868 44.0667 2
39.6643 51.3274 3.99937
37.4946 38.9865 3.43159
36.0351 40.5189 3.37374
34.6936 41.7392 3.28075
35.6315 43.6875 3.56173
38.566 47.9036 3.91752
37.4838 45.5122 3.78579
40.3014 54.6379 0.00300217
38.6611 53.3882 2
36.7711 52.7283 3.99858
35.369 60.8498 0.0139303
36.9325 57.4637 0.00605812
37.9686 54.9113 0.00463889
34.5105 58.394 2
36.3321 55.0232 2
33.4104 55.2161 4.00837
32.3903 59.598 0.00616683
29.5057 60.2789 0.0200017
30.416 57.5855 2
29.0338 55.1819 3.9873
28.1726 58.2363 -0.00743751
27.1944 56.6626 2
25.7212 54.9188 3.95813
22.2916 55.0728 3.95964
25.5279 58.4339 0.0291569
24.1326 56.5922 2
20.5335 56.8074 3.96185
20.8034 58.6046 3.96084
21.6445 57.176 2
21.2427 61.0123 3.96706
22.1051 59.4571 2
22.9432 58.052 0.0331194
21.9321 63.7452 3.96857
22.7998 61.8864 2
23.4925 60.1792 0.0296321
24.4839 62.6741 0.03037
23.7045 64.6514 2
22.8478 66.7171 3.96956
25.5692 65.4463 0.0265256
24.8143 67.5771 2
24.0147 69.8047 3.9859
26.8446 68.3229 0.0190156
26.1652 70.6025 2
25.446 73.0099 4
28.3748 71.2608 0.0123263
27.7943 73.7222 2
30.1842 74.2788 0
27.8211 8.6873 3.97205
29.1559 5.88632 3.97982
29.8105 8.01215 2
30.7278 3.10041 3.9898
31.2518 5.33918 2
31.7864 7.43486 0.0248909
32.6053 0.320823 4
32.98 2.70335 2
33.3489 4.93116 0.0158986
35.0474 0.0802903 2
35.2459 2.46474 0.00875051
37.5 0 0
38.8984 36.0002 3.36164
40.308 35.9568 2
41.8271 35.8794 0.698885
28.5501 10.7348 2
26.6381 11.435 3.97234
29.2439 12.6827 3.97856
37.5118 34.4696 3.46247
39.0058 34.5023 2
40.2116 34.5433 0.596897
44.7509 32.0259 0.125925
42.5347 31.6484 0.228604
40.6475 31.9593 0.434907
39.0851 32.9609 0.625282
43.3331 30.2855 2
41.2879 30.3553 2
39.3809 31.1978 2
37.513 32.7977 2
41.6565 29.0668 3.84849
39.5643 29.7396 3.77514
37.4951 30.9945 3.61643
35.9118 32.9788 3.37962
31.9501 14.536 3.98596
34.1071 12.9798 2
35.6968 11.8127 0.0263614
31.1975 12.0209 2
33.1047 11.2561 0.0285255
30.4897 10.0508 0.0276178
44.4223 28.1942 0.0100169
43.2291 24.4108 -0.00575309
35.7773 14.8212 0.00618608
41.1356 21.0995 0.00391539
38.6036 17.8203 0.00722715
33.6205 15.932 2
35.8421 17.6088 2
42.4268 26.9276 2
38.2906 20.6865 2
40.6891 23.8497 2
33.5813 17.4968 3.99072
40.1452 26.3403 3.95982
37.9881 23.6131 3.99506
35.5151 20.4872 3.99499
37.5262 37.4844 3.45224
38.9744 37.4867 2
40.243 37.4096 0.550567
41.5811 52.5909 -0.00460813
40.5853 49.0916 0.0123999
39.0128 38.9912 0.634908
39.5448 45.2245 0.247347
37.4961 43.9852 0.386338
37.4957 40.5304 0.537719
35.9031 42.0302 0.626862
39.6517 51.3175 2
37.4789 38.9929 2
36.0178 40.4938 2
38.5908 47.9739 2
34.6214 41.756 2
35.6058 43.7876 2
37.491 45.5852 2
37.6716 50.2903 3.98965
36.106 39.0192 3.36953
34.8085 40.4276 3.40348
33.8375 41.478 3.36752
34.3893 43.0344 3.55624
35.3994 45.3029 3.78409
36.9428 47.5352 3.86848
38.6677 53.3768 0.00165637
36.7984 52.6731 2
34.5358 52.0782 3.99951
34.5156 58.3887 0.00508099
36.3265 55.0234 0.00483622
33.4149 55.2149 2
30.92 53.2 3.99445
30.4162 57.598 0.0192541
29.0392 55.1885 2
27.4107 53.1834 3.95247
27.1896 56.6644 0.0364814
25.73 54.9179 2
24.2034 53.163 3.9537
21.2199 52.8794 3.95883
20.3951 55.5706 3.96022
22.2938 55.0725 2
24.1285 56.5946 0.0414702
19.6808 57.6971 3.96115
20.5258 56.8113 2
19.7818 60.0688 3.97336
20.7924 58.6104 2
21.6394 57.1756 0.0399202
20.2585 62.7231 3.97114
21.2491 61.0196 2
22.108 59.4559 0.0267606
20.9539 65.7175 3.96548
21.9285 63.7393 2
22.7997 61.8811 0.0294932
23.7094 64.6531 0.0353899
22.845 66.7128 2
21.9183 68.8682 3.98172
24.8182 67.5832 0.0282595
24.0102 69.8005 2
23.1494 72.1454 4
26.1705 70.6031 0.0117737
25.446 73.0099 2
27.7943 73.7221 0
25.8623 9.42287 3.97189
27.0705 6.55286 3.97641
27.8205 8.67745 2
28.4902 3.64586 3.98866
29.1537 5.88733 2
29.8098 8.01486 0.029554
30.1841 0.720592 4
30.7247 3.10046 2
31.2541 5.33996 0.0177304
32.6053 0.320817 2
32.982 2.70284 0.00933157
35.0474 0.080333 0
37.5166 35.9868 3.4185
38.8728 35.959 2
40.3354 35.9577 0.539925
24.8023 12.1178 3.9679
23.805 14.5339 3.97942
28.5532 10.7331 0.0285144
26.6323 11.4406 2
29.2409 12.6994 2
27.3092 13.4646 3.97463
29.8248 14.2374 3.99899
36.0022 34.492 3.38983
37.5382 34.4545 2
38.9885 34.4932 0.637211
37.5018 32.8234 0.555535
43.2781 30.3304 0.142485
41.243 30.4125 0.216434
39.3644 31.2976 0.431501
41.6862 28.9884 2
39.5778 29.6655 2
37.5008 30.9137 2
35.9519 32.9343 2
39.747 28.3565 3.84582
37.4629 29.4422 3.77085
35.638 31.3206 3.56532
34.6773 33.2773 3.28945
30.999 16.8955 3.99696
31.9404 14.5121 2
34.1038 12.9799 0.0174997
31.1982 12.0338 0.0255364
42.3691 26.9706 0.0335747
40.713 23.8329 -0.00364814
33.6411 15.953 0.00826039
35.8192 17.7293 0.0152505
38.3516 20.6491 0.00443523
33.5345 17.5494 2
35.4602 20.5596 2
40.1521 26.3297 2
38.0568 23.6064 2
33.0193 20.056 3.99763
37.7667 26.0177 3.9539
35.4084 23.243 4.00709
36.0589 37.4844 3.35322
37.4971 37.4847 2
39.0173 37.4909 0.654952
39.6643 51.3274 0.000634887
38.566 47.9036 0.0824782
37.4946 38.9865 0.568413
37.4838 45.5122 0.214209
35.6315 43.6875 0.438272
36.0351 40.5189 0.626258
34.6936 41.7392 0.719254
37.6319 50.326 2
36.1604 39.0015 2
34.7589 40.445 2
36.9269 47.605 2
33.8004 41.5067 2
34.3158 43.1203 2
35.3705 45.3635 2
35.5912 49.4852 3.98077
34.7205 38.9924 3.45489
33.4605 40.4894 3.3302
33.5386 42.1638 3.59162
33.8048 44.5613 3.77296
34.7115 46.707 3.84805
36.7711 52.7283 0.00142204
34.5266 52.1041 2
32.4606 50.8517 4.00428
33.4104 55.2161 -0.0083748
30.9227 53.1989 2
29.0353 51.2031 3.98333
29.0338 55.1819 0.0126988
27.4176 53.1833 2
25.8262 51.3757 3.95487
25.7212 54.9188 0.0418672
24.2098 53.1655 2
22.8165 51.4275 3.95467
20.1369 51.2551 3.96569
19.5744 54.0019 3.96151
21.2202 52.8777 2
18.8395 56.4936 3.96141
20.3934 55.5724 2
22.2916 55.0728 0.0403555
18.5159 58.9591 3.95398
19.6761 57.6993 2
20.5335 56.8074 0.0381503
18.6614 61.6754 3.97733
19.7866 60.0712 2
20.8034 58.6046 0.0391633
19.1486 64.6041 3.9668
20.2568 62.7253 2
21.2427 61.0123 0.0329412
19.8917 67.808 3.98034
20.9488 65.7173 2
21.9321 63.7452 0.0314301
22.8478 66.7171 0.0304418
21.9135 68.8655 2
20.9142 71.1327 4
24.0147 69.8047 0.0141013
23.1494 72.1455 2
25.446 73.0099 0
23.1232 12.9283 3.97281
23.9813 10.2008 3.97011
25.0242 7.32582 3.97258
25.8625 9.42074 2
26.2821 4.33071 3.98738
27.0676 6.55356 2
27.8211 8.6873 0.0279479
27.7943 1.27781 4
28.4862 3.64776 2
29.1559 5.88632 0.020175
30.1841 0.720551 2
30.7278 3.10041 0.0102011
32.6053 0.320823 0
36.0134 35.9892 3.37041
37.563 36.0014 2
38.8984 36.0002 0.638355
24.7875 12.1602 2
23.8023 14.5425 2
22.5606 15.2 3.98332
25.3913 14.0683 3.97552
24.128 15.7876 4.01134
26.6381 11.435 0.0276592
29.2439 12.6827 0.0214367
27.3222 13.4357 2
29.8119 14.2544 2
28.4429 15.9965 3.98879
34.8345 34.5865 3.38835
36.0454 34.4914 2
37.5118 34.4696 0.537529
35.9118 32.9788 0.620379
37.4951 30.9945 0.383569
41.6565 29.0668 0.151508
39.5643 29.7396 0.224865
39.7944 28.297 2
37.4694 29.3963 2
35.6202 31.2259 2
34.6046 33.2599 2
37.6102 28.0601 3.83978
35.4521 29.7535 3.76921
34.3688 31.9808 3.56064
33.8348 33.5431 3.36803
30.3639 19.7074 3.98293
30.9583 16.9 2
31.9501 14.536 0.0140382
40.1452 26.3403 0.0401783
37.9881 23.6131 0.0049368
33.5813 17.4968 0.00927848
35.5151 20.4872 0.00501374
33.0099 20.0737 2
35.356 23.2282 2
37.7351 25.9883 2
32.6686 22.8252 4.00622
35.2619 25.8719 3.98139
34.724 37.5228 3.47327
36.0504 37.5081 2
37.5262 37.4844 0.547758
37.6716 50.2903 0.0103495
36.9428 47.5352 0.131522
36.106 39.0192 0.630468
35.3994 45.3029 0.215914
34.3893 43.0344 0.443757
34.8085 40.4276 0.596523
33.8375 41.478 0.632484
35.5827 49.4951 2
34.692 39.0056 2
33.4351 40.4917 2
34.6573 46.7829 2
33.4829 42.2619 2
33.7557 44.6166 2
33.6664 48.6067 3.96931
33.1717 39.0989 3.3032
32.8946 40.9843 3.56591
32.4825 43.3478 3.77957
33.0507 45.7017 3.84329
34.5358 52.0782 0.000485424
32.4761 50.8454 2
30.6524 49.3483 4.00269
30.92 53.2 0.00554925
29.0415 51.1913 2
27.394 49.5646 3.97939
27.4107 53.1834 0.0475318
25.8342 51.374 2
24.3063 49.7704 3.96916
24.2034 53.163 0.0462961
22.8191 51.4247 2
21.5202 49.8958 3.96787
18.8406 49.9862 3.97371
18.6258 52.4603 3.96701
20.1324 51.2541 2
17.9964 55.0734 3.96265
19.5677 54.0028 2
21.2199 52.8794 0.04117
17.4165 57.6905 3.9579
18.8396 56.4941 2
20.3951 55.5706 0.0397768
17.2151 60.448 3.94909
18.5148 58.9618 2
19.6808 57.6971 0.0388496
17.4144 63.4133 3.97247
18.6597 61.6696 2
19.7818 60.0688 0.0266401
17.9494 66.6075 3.97097
19.1405 64.6017 2
20.2585 62.7231 0.0288587
18.75 69.9759 4
19.8877 67.8028 2
20.9539 65.7175 0.0345181
21.9183 68.8682 0.0182832
20.9142 71.1327 2
23.1494 72.1454 0
21.6291 13.7475 3.96781
22.2056 11.0992 3.96416
23.1227 12.9203 2
23.043 8.19905 3.97163
23.9766 10.227 2
24.1199 5.1458 3.98635
25.02 7.32729 2
25.8623 9.42287 0.0281142
25.446 1.99014 4
26.2771 4.3324 2
27.0705 6.55286 0.0235865
27.7943 1.27778 2
28.4902 3.64586 0.0113397
30.1841 0.720592 0
34.8047 36.0317 3.42533
36.0528 35.9935 2
37.5166 35.9868 0.581499
21.429 16.0033 3.96025
24.8023 12.1178 0.0321028
23.805 14.5339 0.0205808
25.3914 14.0334 2
22.5628 15.1951 2
24.1288 15.8013 2
23.415 16.4094 3.96694
25.4759 16.2967 3.99001
27.3092 13.4646 0.0253741
29.8248 14.2374 0.00100925
28.4257 16.0548 2
27.6172 19.1104 3.98975
33.4606 34.5381 3.35037
34.7423 34.5969 2
36.0022 34.492 0.610165
34.6773 33.2773 0.71055
35.638 31.3206 0.43468
37.4629 29.4422 0.229152
39.747 28.3565 0.154176
37.5657 28.0308 2
33.7977 33.5239 2
35.4393 29.685 2
34.3065 31.8912 2
35.3321 28.1547 3.8596
33.7773 30.4421 3.78096
33.5229 32.8469 3.5965
30.0074 22.3263 4.01126
30.3413 19.7205 2
30.999 16.8955 0.00304186
37.7667 26.0177 0.0460985
35.4084 23.243 -0.00709482
33.0193 20.056 0.00236567
32.6647 22.7858 2
35.2715 25.8626 2
32.3464 26.1547 4.01799
33.021 37.5133 3.35311
34.7116 37.5161 2
36.0589 37.4844 0.646777
35.5912 49.4852 0.0192316
34.7115 46.707 0.151954
34.7205 38.9924 0.545114
33.8048 44.5613 0.227039
33.5386 42.1638 0.408384
33.4605 40.4894 0.669797
33.621 48.6009 2
33.1597 39.1045 2
32.8329 41.0535 2
33.0341 45.7698 2
32.434 43.3747 2
32.0238 47.3924 3.98389
32.3116 39.4235 3.56829
31.5662 41.6829 3.80969
31.6065 44.3843 3.84427
32.4606 50.8517 -0.00428097
30.6659 49.3674 2
28.9405 47.7681 3.97153
29.0353 51.2031 0.0166715
27.4003 49.5632 2
25.7929 48.0051 3.97676
25.8262 51.3757 0.0451314
24.3084 49.7681 2
22.8467 48.3281 3.97294
22.8165 51.4275 0.0453313
21.5202 49.8933 2
20.0181 48.7185 3.9752
17.7153 49.0296 3.976
17.5087 51.105 3.97244
18.8421 49.9843 2
17.0159 53.5973 3.96822
18.6249 52.4593 2
20.1369 51.2551 0.0343056
16.3931 56.2646 3.96221
17.9915 55.0744 2
19.5744 54.0019 0.0384913
15.8654 59.094 3.95523
17.4219 57.691 2
18.8395 56.4936 0.038591
15.7987 62.0647 3.96918
17.2059 60.4522 2
18.5159 58.9591 0.0460176
16.096 65.2986 3.97775
17.4136 63.4226 2
18.6614 61.6754 0.0226733
16.6661 68.6801 4
17.9447 66.6037 2
19.1486 64.6041 0.0332014
18.75 69.9759 2
19.8917 67.808 0.0196609
20.9142 71.1327 0
20.2857 14.7485 3.96357
21.6346 13.7499 2
20.555 12.1149 3.97067
21.1486 9.18054 3.97241
22.1963 11.1124 2
23.1232 12.9283 0.0271893
22.0207 6.08567 3.98571
23.0387 8.205 2
23.9813 10.2008 0.0298916
23.1494 2.85457 4
24.1144 5.14994 2
25.0242 7.32582 0.0274228
25.446 1.99012 2
26.2821 4.33071 0.012625
27.7943 1.27781 0
33.1496 35.9392 3.35478
34.7407 36.0321 2
36.0134 35.9892 0.629589
21.4397 16.0033 2
20.5127 17.1819 3.96244
22.2625 16.8128 3.96527
25.3913 14.0683 0.0244763
22.5606 15.2 0.016684
24.128 15.7876 -0.0113352
25.473 16.2943 2
23.4192 16.4173 2
24.4125 18.7573 3.98187
27.4649 21.9118 3.99065
28.4429 15.9965 0.0112114
27.6009 19.1044 2
32.893 34.0209 3.56401
33.4338 34.5376 2
34.8345 34.5865 0.611648
33.8348 33.5431 0.631973
34.3688 31.9808 0.439358
35.4521 29.7535 0.230789
37.6102 28.0601 0.160219
35.3124 28.1047 2
33.4783 32.7582 2
33.7297 30.3778 2
33.2478 28.7912 3.87114
32.4863 31.6557 3.77614
29.5152 24.808 4.01523
29.9984 22.2978 2
30.3639 19.7074 0.0170712
35.2619 25.8719 0.0186109
32.6686 22.8252 -0.00622062
32.3238 26.1131 2
30.6246 27.8173 3.99105
32.0816 37.4957 3.55078
32.9991 37.5143 2
34.724 37.5228 0.52673
33.6664 48.6067 0.0306911
33.0507 45.7017 0.156712
33.1717 39.0989 0.696796
32.4825 43.3478 0.220431
32.8946 40.9843 0.434087
31.9812 47.4218 2
32.2151 39.4291 2
31.497 41.7469 2
31.5341 44.4463 2
30.4051 46.0141 3.97817
30.8334 39.6956 3.81493
30.2607 42.7301 3.86754
30.6524 49.3483 -0.00268758
28.9452 47.7728 2
27.2657 46.1911 3.98678
27.394 49.5646 0.0206109
25.7985 48.0028 2
24.1634 46.591 3.97607
24.3063 49.7704 0.0308439
22.8474 48.3262 2
21.1112 47.225 3.97533
21.5202 49.8958 0.032127
20.0176 48.7175 2
18.6171 47.8538 3.97567
16.9602 48.4029 3.97557
17.7152 49.0297 2
16.5573 49.9 3.97486
15.9768 52.1655 3.97301
17.5104 51.1034 2
18.8406 49.9862 0.026288
15.3245 54.7688 3.96782
17.0164 53.5966 2
18.6258 52.4603 0.0329911
14.6707 57.6114 3.96118
16.3912 56.2655 2
17.9964 55.0734 0.0373549
14.2845 60.6453 3.96036
15.8658 59.0952 2
17.4165 57.6905 0.0421025
14.3395 63.8515 3.96625
15.8026 62.0679 2
17.2151 60.448 0.0509057
14.6715 67.2507 4
16.0908 65.2915 2
17.4144 63.4133 0.0275256
16.6661 68.6801 2
17.9494 66.6075 0.0290346
18.75 69.9759 0
19.054 15.9572 3.95693
20.2942 14.7387 2
19.014 13.2414 3.96738
21.6291 13.7475 0.0321888
20.5462 12.1177 2
19.3545 10.2826 3.97003
19.9958 7.14842 3.98231
21.1427 9.17512 2
22.2056 11.0992 0.0358389
20.9142 3.86727 4
22.0128 6.08743 2
23.043 8.19905 0.0283698
23.1494 2.85451 2
24.1199 5.1458 0.0136504
25.446 1.99014 0
32.3278 35.5764 3.55372
33.1294 35.9328 2
34.8047 36.0317 0.574671
21.429 16.0033 0.0397482
22.2742 16.8147 2
20.5256 17.1803 2
19.5873 18.6697 3.96736
21.9873 18.1584 3.98186
25.4759 16.2967 0.00998744
23.415 16.4094 0.0330614
24.421 18.7657 2
22.7185 20.2133 3.97
25.0776 21.7486 3.98774
27.1647 24.0704 3.97694
27.4787 21.8159 2
27.6172 19.1104 0.0102487
31.5716 33.3276 3.80722
32.8375 33.9668 2
33.4606 34.5381 0.649627
33.5229 32.8469 0.403497
33.7773 30.4421 0.219038
35.3321 28.1547 0.140401
33.2018 28.7437 2
32.4072 31.5926 2
31.3069 30.1418 3.88818
28.9226 26.9975 4.0144
29.5064 24.8022 2
30.0074 22.3263 -0.011263
32.3464 26.1547 -0.0179873
30.6225 27.8176 2
30.5682 37.4839 3.81861
31.974 37.4956 2
33.021 37.5133 0.646888
32.0238 47.3924 0.0161134
31.6065 44.3843 0.155728
32.3116 39.4235 0.43171
31.5662 41.6829 0.190311
30.4196 46.0302 2
30.7311 39.7046 2
30.2297 42.7636 2
28.7839 44.3963 3.95751
28.5848 40.3582 3.91321
28.9405 47.7681 0.0284675
27.2684 46.1893 2
25.5222 44.7349 3.97949
25.7929 48.0051 0.0232355
24.1644 46.5903 2
22.2134 45.5478 3.97656
22.8467 48.3281 0.0270574
21.1124 47.2246 2
19.4076 46.4203 3.97523
20.0181 48.7185 0.0248009
18.6179 47.8542 2
17.2285 47.4365 3.97498
16.9619 48.4034 2
15.9319 48.7614 3.97496
17.7153 49.0296 0.0239984
16.559 49.8992 2
15.077 50.7574 3.97429
14.2712 53.2465 3.97214
15.9773 52.1648 2
17.5087 51.105 0.0275618
13.5279 56.037 3.96229
15.3242 54.7691 2
17.0159 53.5973 0.0317772
12.9047 59.079 3.9509
14.6704 57.6121 2
16.3931 56.2646 0.0377905
12.6871 62.293 3.96446
14.2868 60.6485 2
15.8654 59.094 0.0447668
12.7746 65.6939 4
14.3357 63.8438 2
15.7987 62.0647 0.0308191
14.6714 67.2507 2
16.096 65.2986 0.0222546
16.6661 68.6801 0
17.9301 17.3628 3.95958
19.0735 15.9496 2
17.5622 14.4899 3.9573
20.2857 14.7485 0.0364271
19.0072 13.2248 2
17.6594 11.5385 3.9688
20.555 12.1149 0.0293332
19.3473 10.3018 2
18.0557 8.34314 3.97835
18.75 5.0241 4
19.988 7.15762 2
21.1486 9.18054 0.027594
20.9142 3.86727 2
22.0207 6.08567 0.014289
23.1494 2.85457 0
30.8346 35.3203 3.80919
32.226 35.5649 2
33.1496 35.9392 0.645223
22.2625 16.8128 0.0347256
20.5127 17.1819 0.0375589
22.0031 18.1473 2
19.5874 18.6652 2
18.5181 20.2396 3.96919
21.2834 19.6883 3.97445
24.4125 18.7573 0.0181307
22.728 20.2107 2
25.096 21.7104 2
23.0006 22.0921 3.97484
25.4881 23.3947 3.9748
26.5628 26.3653 3.98456
27.1655 24.0756 2
27.4649 21.9118 0.00934743
30.0054 32.7277 3.86586
31.4962 33.276 2
32.893 34.0209 0.435991
32.4863 31.6557 0.22386
33.2478 28.7912 0.128857
31.286 30.1022 2
28.4006 29.6103 4.00496
28.9133 27.011 2
29.5152 24.808 -0.0152348
30.6246 27.8173 0.00894527
28.8716 37.4319 3.84025
30.4545 37.4973 2
32.0816 37.4957 0.449219
30.4051 46.0141 0.0218264
30.2607 42.7301 0.132459
30.8334 39.6956 0.18507
28.7899 44.4556 2
28.5372 40.3831 2
26.9613 42.9056 3.98211
25.9263 39.3691 3.97768
27.2657 46.1911 0.0132179
25.5141 44.745 2
23.4815 43.6008 3.97474
24.1634 46.591 0.0239301
22.2118 45.5482 2
20.2513 44.6716 3.97475
21.1112 47.225 0.024671
19.4076 46.4209 2
17.6166 45.9477 3.97501
18.6171 47.8538 0.0243289
17.229 47.4368 2
15.7146 47.4385 3.97494
16.9602 48.4029 0.0244314
15.9338 48.7614 2
14.4019 49.3359 3.97448
16.5573 49.9 0.0251365
15.078 50.7565 2
13.3391 51.7025 3.9743
12.4191 54.4089 3.9658
14.2714 53.2464 2
15.9768 52.1655 0.0269891
11.6412 57.4076 3.95676
13.527 56.0374 2
15.3245 54.7688 0.0321832
11.1413 60.6207 3.96401
12.8989 59.0809 2
14.6707 57.6114 0.0388225
10.9835 64.0165 4
12.6842 62.2842 2
14.2845 60.6453 0.0396368
12.7745 65.694 2
14.3395 63.8515 0.0337492
14.6715 67.2507 0
16.7898 18.8804 3.96237
17.9365 17.3578 2
16.2307 15.9148 3.95575
19.054 15.9572 0.0430659
17.5664 14.4882 2
16.0329 12.8807 3.96185
19.014 13.2414 0.0326181
17.649 11.5372 2
16.2084 9.67102 3.97
19.3545 10.2826 0.0299701
18.0488 8.35126 2
16.6661 6.31991 4
18.75 5.02404 2
19.9958 7.14842 0.0176948
20.9142 3.86727 0
29.2332 34.9565 3.88006
30.711 35.2894 2
32.3278 35.5764 0.446277
17.2586 21.6649 3.9715
21.9873 18.1584 0.0181356
19.5873 18.6697 0.0326365
21.291 19.6847 2
18.5087 20.2327 2
20.4233 21.9397 3.97377
22.7185 20.2133 0.0300029
25.0776 21.7486 0.0122639
23.0034 22.09 2
25.4754 23.4409 2
23.8742 25.0197 3.97135
25.9749 28.9868 3.98383
26.5575 26.3872 2
27.1647 24.0704 0.0230564
27.8866 32.0797 3.97438
29.9542 32.7064 2
31.5716 33.3276 0.192784
31.3069 30.1418 0.111823
28.4096 29.5699 2
28.9226 26.9975 -0.0143984
26.6611 36.8922 3.95488
28.8189 37.3948 2
30.5682 37.4839 0.18139
28.7839 44.3963 0.0424885
28.5848 40.3582 0.0867875
26.9354 42.9403 2
25.8752 39.356 2
24.7444 41.5955 3.97646
23.6204 38.515 3.9757
25.5222 44.7349 0.0205093
23.479 43.6075 2
21.1705 42.648 3.97447
22.2134 45.5478 0.0234364
20.2527 44.6726 2
18.0479 44.1485 3.97505
19.4076 46.4203 0.0247684
17.6169 45.9484 2
15.6865 45.8802 3.97502
17.2285 47.4365 0.0250214
15.7149 47.4387 2
13.9409 47.8213 3.97484
15.9319 48.7614 0.0250386
14.4029 49.3356 2
12.5802 50.0933 3.97438
15.077 50.7574 0.0257062
13.3398 51.7021 2
11.414 52.7314 3.96857
10.443 55.6644 3.95968
12.4168 54.4092 2
14.2712 53.2465 0.0278632
9.70803 58.8457 3.96722
11.6463 57.407 2
13.5279 56.037 0.037705
9.30605 62.2254 4
11.1399 60.6129 2
12.9047 59.079 0.0491026
10.9835 64.0165 2
12.6871 62.293 0.0355407
12.7746 65.6939 0
15.5779 20.4082 3.96765
16.8 18.8778 2
14.9711 17.4511 3.95826
17.9301 17.3628 0.0404219
16.2172 15.9047 2
14.4965 14.3537 3.96062
17.5622 14.4899 0.0426966
16.0375 12.8767 2
14.4523 11.1217 3.96946
17.6594 11.5385 0.0311955
16.2019 9.68174 2
14.6715 7.74927 4
18.0557 8.34314 0.0216464
16.6661 6.31988 2
18.75 5.0241 0
27.1874 34.4761 3.97502
29.1927 34.9674 2
30.8346 35.3203 0.19081
18.567 22.6639 3.97443
16.1517 23.1982 3.97289
17.257 21.6605 2
21.2834 19.6883 0.0255478
18.5181 20.2396 0.0308094
20.4285 21.938 2
20.6062 24.7991 3.97196
23.0006 22.0921 0.0251573
25.4881 23.3947 0.025203
23.8746 25.0164 2
23.3536 28.3082 3.97089
25.464 31.5617 3.98298
25.9877 28.9089 2
26.5628 26.3653 0.0154405
27.8509 32.0532 2
30.0054 32.7277 0.134142
28.4006 29.6103 -0.00496171
24.3507 36.3511 3.97852
26.6092 36.8973 2
28.8716 37.4319 0.159748
26.9613 42.9056 0.0178934
25.9263 39.3691 0.0223153
24.711 41.6051 2
23.6137 38.517 2
22.3596 40.4922 3.97536
21.6461 37.7916 3.97816
23.4815 43.6008 0.0252621
21.1712 42.6465 2
18.5474 41.9367 3.97569
20.2513 44.6716 0.0252507
18.048 44.1485 2
15.7372 44.0252 3.97516
17.6166 45.9477 0.0249862
15.6861 45.8803 2
13.6378 46.1341 3.97495
15.7146 47.4385 0.025063
13.9409 47.8211 2
11.9714 48.4083 3.9749
14.4019 49.3359 0.0255209
12.5812 50.0928 2
10.5462 50.9861 3.97182
13.3391 51.7025 0.0257023
11.4145 52.7308 2
9.34321 53.8507 3.96185
8.39144 56.9815 3.96849
10.4456 55.6631 2
12.4191 54.4089 0.0341953
7.74927 60.3285 4
9.70673 58.8399 2
11.6412 57.4076 0.0432411
9.306 62.2255 2
11.1413 60.6207 0.0359852
10.9835 64.0165 0
14.4128 21.9589 3.97227
15.5809 20.4046 2
13.704 19.0399 3.96282
16.7898 18.8804 0.0376275
14.9689 17.445 2
13.0523 15.9305 3.95515
16.2307 15.9148 0.0442485
14.5073 14.3459 2
12.7886 12.6952 3.96618
16.0329 12.8807 0.0381511
14.4471 11.1345 2
12.7746 9.30605 4
16.2084 9.67102 0.0300012
14.6715 7.74924 2
16.6661 6.31991 0
24.8613 33.983 3.98068
27.1607 34.4282 2
29.2332 34.9565 0.119938
18.4573 24.4037 3.97228
18.5751 22.6632 2
14.9645 24.6856 3.97383
16.1508 23.1943 2
17.2586 21.6649 0.028495
20.1719 27.5823 3.97294
20.4233 21.9397 0.0262346
20.6106 24.7989 2
22.7304 31.01 3.97379
23.8742 25.0197 0.028653
23.3455 28.3161 2
25.4099 31.6292 2
25.9749 28.9868 0.0161708
27.8866 32.0797 0.0256207
21.7289 36.0077 3.9778
24.3473 36.3666 2
26.6611 36.8922 0.045123
24.7444 41.5955 0.0235432
23.6204 38.515 0.0243041
22.3647 40.4936 2
21.6453 37.7891 2
19.3464 38.9589 3.97709
21.1705 42.648 0.0255267
18.5477 41.9369 2
15.7269 41.8082 3.97586
18.0479 44.1485 0.0249516
15.7365 44.025 2
13.3961 44.2638 3.97516
15.6865 45.8802 0.0249773
13.6371 46.1341 2
11.4841 46.6145 3.97538
13.9409 47.8213 0.0251583
11.9726 48.4077 2
9.81447 49.1562 3.97419
12.5802 50.0933 0.0256185
10.5472 50.9852 2
8.36795 51.9702 3.96352
11.414 52.7314 0.0314306
9.34149 53.8497 2
7.19989 55.0335 3.96963
6.31991 58.3339 4
8.39011 56.9761 2
10.443 55.6644 0.0403175
7.74924 60.3285 2
9.70803 58.8457 0.0327782
9.30605 62.2254 0
13.7991 25.5656 3.97583
13.3018 23.4694 3.97394
14.4129 21.9552 2
12.5214 20.6792 3.9658
15.5779 20.4082 0.032346
13.6951 19.0337 2
11.7439 17.6144 3.95491
14.9711 17.4511 0.0417422
13.0657 15.9282 2
11.2271 14.3821 3.96401
14.4965 14.3537 0.0393786
12.7877 12.707 2
10.9835 10.9835 4
14.4523 11.1217 0.03054
12.7745 9.306 2
14.6715 7.74927 0
22.102 33.612 3.97686
24.8573 33.9307 2
27.1874 34.4761 0.0249813
16.763 26.6768 3.97387
18.4593 24.4026 2
18.567 22.6639 0.0255743
14.9609 24.685 2
16.1517 23.1982 0.0271107
19.5637 30.4568 3.97478
20.1717 27.579 2
20.6062 24.7991 0.0280445
22.7452 30.9977 2
23.3536 28.3082 0.0291089
25.464 31.5617 0.0170239
18.915 36.0374 3.97742
21.7337 36.0051 2
24.3507 36.3511 0.0214774
22.3596 40.4922 0.0246389
21.6461 37.7916 0.0218388
19.345 38.9585 2
15.2069 39.1416 3.97684
18.5474 41.9367 0.0243123
15.7267 41.8081 2
13.0839 42.1931 3.97582
15.7372 44.0252 0.0248413
13.3953 44.2637 2
11.0636 44.7113 3.97557
13.6378 46.1341 0.0250503
11.4849 46.614 2
9.20352 47.2463 3.97575
11.9714 48.4083 0.0251038
9.81642 49.1551 2
7.52779 50.009 3.9644
10.5462 50.9861 0.028176
8.36602 51.9692 2
6.13994 53.0087 3.97008
9.34321 53.8507 0.0381514
7.1993 55.0288 2
5.0241 56.25 4
6.31988 58.3339 2
8.39144 56.9815 0.0315116
7.74927 60.3285 0
14.1079 27.0087 3.97467
12.3995 24.9496 3.97467
13.7966 25.5645 2
11.4415 22.3513 3.9695
13.3002 23.4667 2
14.4128 21.9589 0.027729
12.5157 20.6747 2
10.5203 19.3724 3.9583
13.704 19.0399 0.0371765
11.7588 17.6137 2
9.76769 16.163 3.96678
13.0523 15.9305 0.0448477
11.2268 14.3895 2
9.30607 12.7746 4
12.7886 12.6952 0.0338209
10.9835 10.9835 2
12.7746 9.30605 0
19.069 33.27 3.97574
22.0953 33.6213 2
24.8613 33.983 0.0193167
16.3912 29.8578 3.975
16.7613 26.6782 2
18.4573 24.4037 0.0277165
14.9645 24.6856 0.026174
19.5591 30.4586 2
20.1719 27.5823 0.0270555
22.7304 31.01 0.0262092
15.8618 36.0661 3.97709
18.9141 36.0378 2
21.7289 36.0077 0.0222028
13.324 37.8311 3.97704
19.3464 38.9589 0.0229067
15.2067 39.1418 2
12.5689 40.0992 3.97638
15.7269 41.8082 0.0241388
13.0829 42.1928 2
10.6542 42.7155 3.97577
13.3961 44.2638 0.0248445
11.0641 44.7112 2
8.68 45.2615 3.97643
11.4841 46.6145 0.0246235
9.20639 47.2451 2
6.80766 47.9797 3.96532
9.81447 49.1562 0.0258087
7.5258 50.008 2
5.21602 50.9116 3.97049
8.36795 51.9702 0.0364827
6.13987 53.0052 2
3.86727 54.0858 4
7.19989 55.0335 0.0303711
5.02404 56.25 2
6.31991 58.3339 0
13.5806 29.1878 3.97421
11.8478 26.6237 3.9749
14.107 27.0091 2
10.4777 24.0652 3.97375
12.4001 24.9486 2
13.7991 25.5656 0.0241742
9.36568 21.1829 3.96194
11.4401 22.3489 2
13.3018 23.4694 0.0260618
12.5214 20.6792 0.0342005
10.5309 19.3727 2
8.42359 18.0312 3.96859
11.7439 17.6144 0.0450941
9.76774 16.1681 2
7.74928 14.6715 4
11.2271 14.3821 0.0359886
9.30602 12.7745 2
10.9835 10.9835 0
15.3626 32.977 3.97628
19.0696 33.2698 2
22.102 33.612 0.0231369
16.3921 29.8576 2
16.763 26.6768 0.0261295
19.5637 30.4568 0.0252158
13.6371 36.2387 3.9767
15.8615 36.0659 2
18.915 36.0374 0.0225757
13.3231 37.8312 2
11.8723 38.3035 3.97644
15.2069 39.1416 0.0231579
12.568 40.0994 2
10.2201 40.7189 3.97622
13.0839 42.1931 0.0241783
10.6548 42.715 2
8.22165 43.2273 3.97628
11.0636 44.7113 0.0244251
8.68335 45.2606 2
6.20015 45.8907 3.96659
9.20352 47.2463 0.0242536
6.80617 47.9789 2
4.42676 48.7519 3.97107
7.52779 50.009 0.0356017
5.21628 50.9091 2
2.85457 51.8506 4
6.13994 53.0087 0.0299169
3.86727 54.0858 2
5.0241 56.25 0
12.6956 31.3594 3.97557
11.2535 28.5287 3.9751
13.5805 29.1875 2
9.68984 25.8817 3.97491
11.848 26.624 2
14.1079 27.0087 0.0253322
8.33037 23.0572 3.96386
10.4794 24.0641 2
12.3995 24.9496 0.0253318
7.2055 19.9789 3.96964
9.37112 21.1835 2
11.4415 22.3513 0.0304982
10.5203 19.3724 0.0417008
8.42326 18.0354 2
6.31992 16.6661 4
9.76769 16.163 0.0332223
7.74926 14.6714 2
9.30607 12.7746 0
12.7416 34.3572 3.97659
15.3625 32.9771 2
19.069 33.27 0.0242578
16.3912 29.8578 0.0249955
11.3897 36.6315 3.97641
13.6363 36.2388 2
15.8618 36.0661 0.0229138
13.324 37.8311 0.0229606
11.8713 38.3035 2
9.78806 38.8136 3.97648
12.5689 40.0992 0.0236244
10.2202 40.7188 2
7.82003 41.1871 3.97626
10.6542 42.7155 0.02423
8.22388 43.226 2
5.69512 43.7593 3.96764
8.68 45.2615 0.0235684
6.1977 45.89 2
3.77183 46.5371 3.97164
6.80766 47.9797 0.034682
4.42736 48.7499 2
1.99014 49.554 4
5.21602 50.9116 0.029512
2.85451 51.8506 2
3.86727 54.0858 0
11.4664 32.9915 3.97634
10.5467 30.4648 3.97565
12.6945 31.3597 2
8.99272 27.8017 3.97555
11.2536 28.5286 2
13.5806 29.1878 0.0257868
7.44119 25.009 3.96456
9.69104 25.8812 2
11.8478 26.6237 0.0251037
6.12183 22.0015 3.97032
8.33107 23.0577 2
10.4777 24.0652 0.0262532
5.02411 18.75 4
7.20553 19.9823 2
9.36568 21.1829 0.0380602
8.42359 18.0312 0.0314096
6.3199 16.6661 2
7.74928 14.6715 0
10.9597 35.0372 3.97609
12.7406 34.3569 2
15.3626 32.977 0.0237188
9.43398 36.9951 3.97657
11.3884 36.6319 2
13.6371 36.2387 0.023295
11.8723 38.3035 0.0235575
9.78853 38.8137 2
7.48253 39.174 3.97653
10.2201 40.7189 0.0237797
7.8234 41.1865 2
5.29957 41.6096 3.96804
8.22165 43.2273 0.023716
5.69365 43.7588 2
3.24927 44.2819 3.97259
6.20015 45.8907 0.0334143
3.77271 46.5356 2
1.27781 47.2057 4
4.42676 48.7519 0.0289338
1.99012 49.554 2
2.85457 51.8506 0
10.5742 33.9291 3.97585
9.80327 32.2129 3.97628
11.4656 32.9915 2
8.32725 29.7501 3.97632
10.5471 30.4652 2
12.6956 31.3594 0.0244344
6.66881 27.0287 3.96511
8.99492 27.8018 2
11.2535 28.5287 0.0249013
5.17627 24.0946 3.97076
7.43972 25.0093 2
9.68984 25.8817 0.0250866
3.86728 20.9142 4
6.12219 22.0039 2
8.33037 23.0572 0.036141
5.02406 18.75 2
7.2055 19.9789 0.0303558
6.31992 16.6661 0
9.239 35.3065 3.97676
10.9589 35.0369 2
12.7416 34.3572 0.0234132
7.24923 37.2112 3.9766
9.43486 36.9952 2
11.3897 36.6315 0.0235903
9.78806 38.8136 0.0235219
7.48573 39.1737 2
5.02199 39.467 3.96795
7.82003 41.1871 0.0237382
5.29797 41.6092 2
2.85947 42.0024 3.97317
5.69512 43.7593 0.0323571
3.24996 44.2807 2
0.720592 44.8159 4
3.77183 46.5371 0.0283587
1.27778 47.2057 2
1.99014 49.554 0
9.27299 33.7381 3.97691
10.5739 33.9289 2
7.75065 31.6489 3.97647
9.80494 32.2129 2
11.4664 32.9915 0.0236566
6.00084 29.085 3.96536
8.32994 29.7505 2
10.5467 30.4648 0.0243535
4.36318 26.2481 3.97102
6.66646 27.029 2
8.99272 27.8017 0.0244519
2.85458 23.1494 4
5.17693 24.0962 2
7.44119 25.009 0.0354358
3.86728 20.9142 2
6.12183 22.0015 0.0296806
5.02411 18.75 0
7.18919 35.323 3.97676
9.24069 35.3064 2
10.9597 35.0372 0.0239058
4.86633 37.3427 3.96753
7.2522 37.2112 2
9.43398 36.9951 0.0234255
7.48253 39.174 0.0234711
5.02003 39.4667 2
2.60725 39.7143 3.97365
5.29957 41.6096 0.0319596
2.86046 42.0016 2
0.320823 42.3947 4
3.24927 44.2819 0.0274074
0.720551 44.8159 2
1.27781 47.2057 0
7.35099 33.4883 3.97692
9.27483 33.7383 2
10.5742 33.9291 0.0241521
5.45874 31.145 3.96587
7.75326 31.6494 2
9.80327 32.2129 0.0237157
3.68429 28.4449 3.97176
5.99751 29.0852 2
8.32725 29.7501 0.0236834
1.99015 25.446 4
4.36397 26.2491 2
6.66881 27.0287 0.0348881
2.85453 23.1494 2
5.17627 24.0946 0.0292358
3.86728 20.9142 0
4.87942 35.2572 3.96682
7.19111 35.3232 2
9.239 35.3065 0.0232442
2.49868 37.4293 3.97432
4.86291 37.3427 2
7.24923 37.2112 0.023399
5.02199 39.467 0.0320545
2.6084 39.7141 2
0.080333 39.9526 4
2.85947 42.0024 0.0268295
0.320817 42.3947 2
0.720592 44.8159 0
5.07845 33.1986 3.9663
7.35281 33.4888 2
9.27299 33.7381 0.023089
3.14832 30.6679 3.9726
5.45432 31.1452 2
7.75065 31.6489 0.0235269
1.27793 27.7943 4
3.68532 28.4458 2
6.00084 29.085 0.0346355
1.99013 25.446 2
4.36318 26.2481 0.0289759
2.85458 23.1494 0
2.55067 35.1603 3.97403
4.87624 35.2574 2
7.18919 35.323 0.0232433
0 37.5 4
2.49951 37.4294 2
4.86633 37.3427 0.0324687
2.60725 39.7143 0.0263539
0.0802903 39.9526 2
0.320823 42.3947 0
2.76837 32.9074 3.97368
5.07522 33.1988 2
7.35099 33.4883 0.0230779
0.721173 30.1842 4
3.14958 30.6688 2
5.45874 31.145 0.0341342
1.27779 27.7943 2
3.68429 28.4449 0.0282424
1.99015 25.446 0
0.0806499 35.0474 4
2.55207 35.1606 2
4.87942 35.2572 0.0331799
0 37.5 2
2.49868 37.4293 0.0256757
0.080333 39.9526 0
0.32156 32.6054 4
2.76926 32.9081 2
5.07845 33.1986 0.0336998
0.72056 30.1841 2
3.14832 30.6679 0.0274022
1.27793 27.7943 0
0.0802889 35.0474 2
2.55067 35.1603 0.0259687
0 37.5 0
0.320817 32.6053 2
2.76837 32.9074 0.0263228
0.721173 30.1842 0
0.0806499 35.0474 0
0.32156 32.6054 0
CELLS 1910 17190
8 18 6 25 56 2 0 5 16
8 57 23 6 18 17 4 0 2
8 78 36 9 29 31 11 1 7
8 31 11 1 7 79 37 10 30
8 110 57 18 50 48 17 2 14
8 50 18 56 111 14 2 16 49
8 116 62 22 55 52 20 3 15
8 56 25 67 118 16 5 24 53
8 119 63 23 57 54 21 4 17
8 55 22 63 119 15 3 21 54
8 58 26 68 121 18 6 25 56
8 122 65 26 58 57 23 6 18
8 73 31 7 27 142 79 30 71
8 143 78 29 72 73 31 7 27
8 83 147 76 34 32 74 28 8
8 84 148 78 36 33 75 29 9
8 76 34 8 28 148 84 33 75
8 37 79 150 86 10 30 77 35
8 151 87 36 78 80 38 11 31
8 80 38 11 31 152 88 37 79
8 175 100 42 94 96 44 12 40
8 44 96 176 101 12 40 95 43
8 101 176 98 46 43 95 41 13
8 46 98 178 103 13 41 97 45
8 178 103 45 97 147 83 32 74
8 189 116 55 109 106 52 15 47
8 111 56 118 191 49 16 53 107
8 192 119 57 110 108 54 17 48
8 109 55 119 192 47 15 54 108
8 194 122 58 112 110 57 18 50
8 112 58 121 195 50 18 56 111
8 115 61 19 51 197 124 59 113
8 115 61 125 198 51 19 60 114
8 198 125 62 116 114 60 20 52
8 200 127 64 120 116 62 22 55
8 118 67 132 202 53 24 66 117
8 121 68 133 203 56 25 67 118
8 120 64 128 204 55 22 63 119
8 204 128 65 122 119 63 23 57
8 206 134 68 121 123 69 26 58
8 123 69 26 58 207 131 65 122
8 226 147 74 138 140 76 28 70
8 229 148 75 139 143 78 29 72
8 140 76 28 70 229 148 75 139
8 142 79 30 71 231 150 77 141
8 144 80 31 73 232 152 79 142
8 233 151 78 143 144 80 31 73
8 150 86 35 77 235 154 81 145
8 235 154 81 145 146 82 39 91
8 146 82 39 91 236 155 90 165
8 238 157 83 147 149 85 34 76
8 239 158 84 148 151 87 36 78
8 149 85 34 76 239 158 84 148
8 152 88 37 79 241 160 86 150
8 242 161 87 151 153 89 38 80
8 153 89 38 80 243 162 88 152
8 171 98 41 92 265 178 97 169
8 265 178 97 169 226 147 74 138
8 172 96 40 93 266 176 95 170
8 266 176 95 170 171 98 41 92
8 269 175 94 173 172 96 40 93
8 271 180 99 174 175 100 42 94
8 197 124 59 113 271 180 99 174
8 272 181 100 175 177 102 44 96
8 273 182 101 176 179 104 46 98
8 177 102 44 96 273 182 101 176
8 179 104 46 98 275 184 103 178
8 275 184 103 178 238 157 83 147
8 188 115 51 105 283 197 113 186
8 188 115 198 284 105 51 114 187
8 284 198 116 189 187 114 52 106
8 286 200 120 193 189 116 55 109
8 191 118 202 288 107 53 117 190
8 195 121 203 289 111 56 118 191
8 193 120 204 290 109 55 119 192
8 290 204 122 194 192 119 57 110
8 196 123 58 112 292 207 122 194
8 293 206 121 195 196 123 58 112
8 199 126 61 115 297 211 124 197
8 298 212 127 200 198 125 62 116
8 199 126 212 298 115 61 125 198
8 205 129 64 120 300 214 127 200
8 301 217 130 201 202 132 66 117
8 209 136 168 264 301 217 130 201
8 302 219 132 202 203 133 67 118
8 303 220 133 203 206 134 68 121
8 205 129 215 304 120 64 128 204
8 304 215 131 207 204 128 65 122
8 306 221 134 206 208 135 69 123
8 208 135 69 123 307 218 131 207
8 210 137 167 263 309 223 136 209
8 328 238 147 226 230 149 76 140
8 228 146 91 166 329 236 165 260
8 231 150 77 141 330 235 145 227
8 330 235 145 227 228 146 91 166
8 332 239 148 229 233 151 78 143
8 230 149 76 140 332 239 148 229
8 232 152 79 142 334 241 150 231
8 234 153 80 144 335 243 152 232
8 336 242 151 233 234 153 80 144
8 236 155 90 165 338 245 164 259
8 241 160 86 150 339 246 154 235
8 339 246 154 235 237 156 82 146
8 237 156 82 146 340 247 155 236
8 342 249 157 238 240 159 85 149
8 343 250 158 239 242 161 87 151
8 240 159 85 149 343 250 158 239
8 243 162 88 152 345 252 160 241
8 244 163 253 346 153 89 161 242
8 244 163 89 153 347 254 162 243
8 311 224 261 371 210 137 167 263
8 263 167 262 372 209 136 168 264
8 267 179 98 171 375 275 178 265
8 375 275 178 265 328 238 147 226
8 376 273 176 266 267 179 98 171
8 268 177 96 172 376 273 176 266
8 379 272 175 269 268 177 96 172
8 380 271 174 270 269 175 94 173
8 283 197 113 186 380 271 174 270
8 381 277 180 271 272 181 100 175
8 297 211 124 197 381 277 180 271
8 382 278 181 272 274 183 102 177
8 274 183 102 177 383 279 182 273
8 383 279 182 273 276 185 104 179
8 385 281 184 275 342 249 157 238
8 276 185 104 179 385 281 184 275
8 285 199 115 188 393 297 197 283
8 394 298 200 286 284 198 116 189
8 285 199 298 394 188 115 198 284
8 291 205 120 193 396 300 200 286
8 397 301 201 287 288 202 117 190
8 295 209 264 374 397 301 201 287
8 398 302 202 288 289 203 118 191
8 399 303 203 289 293 206 121 195
8 291 205 304 400 193 120 204 290
8 400 304 207 292 290 204 122 194
8 294 208 123 196 402 307 207 292
8 403 306 206 293 294 208 123 196
8 296 210 263 373 405 309 209 295
8 408 312 213 299 297 211 126 199
8 299 213 313 409 199 126 212 298
8 409 313 214 300 298 212 127 200
8 305 216 129 205 411 315 214 300
8 412 318 217 301 302 219 132 202
8 309 223 136 209 412 318 217 301
8 413 320 219 302 303 220 133 203
8 306 221 321 414 206 134 220 303
8 307 218 131 207 415 316 215 304
8 305 216 316 415 205 129 215 304
8 417 322 221 306 308 222 135 208
8 308 222 135 208 418 319 218 307
8 310 225 137 210 420 325 223 309
8 423 326 224 311 310 225 137 210
8 329 236 165 260 441 338 259 368
8 442 342 238 328 333 240 149 230
8 331 237 146 228 443 340 236 329
8 334 241 150 231 444 339 235 330
8 444 339 235 330 331 237 146 228
8 446 343 239 332 336 242 151 233
8 333 240 149 230 446 343 239 332
8 335 243 152 232 448 345 241 334
8 337 244 153 234 449 347 243 335
8 337 244 346 450 234 153 242 336
8 338 245 164 259 452 349 258 367
8 340 247 155 236 453 350 245 338
8 345 252 160 241 454 351 246 339
8 454 351 246 339 341 248 156 237
8 341 248 156 237 455 352 247 340
8 240 159 251 344 342 249 354 457
8 242 161 253 346 343 250 355 458
8 343 250 355 458 240 159 251 344
8 347 254 162 243 460 357 252 345
8 348 255 358 461 244 163 253 346
8 348 255 163 244 462 359 254 347
8 473 360 257 365 363 256 364 482
8 452 349 258 367 365 257 366 485
8 422 324 369 488 311 224 261 371
8 371 261 370 490 263 167 262 372
8 407 311 371 491 296 210 263 373
8 373 263 372 492 295 209 264 374
8 493 385 275 375 442 342 238 328
8 377 276 179 267 493 385 275 375
8 378 274 177 268 494 383 273 376
8 494 383 273 376 377 276 179 267
8 497 382 272 379 378 274 177 268
8 498 381 271 380 379 272 175 269
8 393 297 197 283 498 381 271 380
8 499 387 277 381 382 278 181 272
8 408 312 211 297 499 387 277 381
8 500 388 278 382 384 280 183 274
8 501 389 279 383 386 282 185 276
8 384 280 183 274 501 389 279 383
8 386 282 185 276 503 391 281 385
8 503 391 281 385 457 354 249 342
8 511 408 299 395 393 297 199 285
8 395 299 409 512 285 199 298 394
8 512 409 300 396 394 298 200 286
8 401 305 205 291 514 411 300 396
8 515 412 301 397 398 302 202 288
8 405 309 209 295 515 412 301 397
8 516 413 302 398 399 303 203 289
8 403 306 414 517 293 206 303 399
8 402 307 207 292 518 415 304 400
8 401 305 415 518 291 205 304 400
8 404 308 208 294 520 418 307 402
8 521 417 306 403 404 308 208 294
8 406 310 210 296 523 420 309 405
8 526 423 311 407 406 310 210 296
8 410 314 213 299 527 424 312 408
8 528 425 315 411 409 313 214 300
8 410 314 425 528 299 213 313 409
8 416 317 216 305 530 427 315 411
8 531 430 318 412 413 320 219 302
8 420 325 223 309 531 430 318 412
8 532 432 320 413 414 321 220 303
8 417 322 433 533 306 221 321 414
8 418 319 218 307 534 428 316 415
8 416 317 428 534 305 216 316 415
8 419 323 434 536 308 222 322 417
8 419 323 222 308 537 431 319 418
8 421 327 225 310 539 438 325 420
8 421 327 439 541 310 225 326 423
8 543 437 324 422 423 326 224 311
8 441 338 259 368 559 452 367 486
8 443 340 236 329 560 453 338 441
8 333 240 344 447 442 342 457 561
8 445 341 237 331 562 455 340 443
8 448 345 241 334 563 454 339 444
8 563 454 339 444 445 341 237 331
8 336 242 346 450 446 343 458 565
8 446 343 458 565 333 240 344 447
8 449 347 243 335 567 460 345 448
8 451 348 244 337 568 462 347 449
8 451 348 461 569 337 244 346 450
8 570 463 349 452 473 360 257 365
8 453 350 245 338 570 463 349 452
8 455 352 247 340 571 464 350 453
8 460 357 252 345 572 465 351 454
8 572 465 351 454 456 353 248 341
8 456 353 248 341 573 466 352 455
8 344 251 356 459 457 354 468 575
8 458 355 469 576 344 251 356 459
8 346 253 358 461 458 355 469 576
8 462 359 254 347 578 471 357 460
8 348 255 359 462 461 358 472 579
8 591 474 360 473 475 361 256 363
8 475 361 256 363 594 477 362 479
8 363 256 364 482 479 362 480 603
8 590 473 365 484 481 363 482 605
8 482 364 257 365 606 483 366 485
8 559 452 367 486 484 365 485 607
8 542 436 487 609 422 324 369 488
8 525 422 488 611 407 311 371 491
8 488 369 489 612 371 261 370 490
8 491 371 490 613 373 263 372 492
8 495 386 276 377 614 503 385 493
8 614 503 385 493 561 457 342 442
8 615 501 383 494 495 386 276 377
8 496 384 274 378 615 501 383 494
8 618 500 382 497 496 384 274 378
8 619 499 381 498 497 382 272 379
8 511 408 297 393 619 499 381 498
8 620 505 387 499 500 388 278 382
8 527 424 312 408 620 505 387 499
8 502 390 506 621 384 280 388 500
8 622 507 389 501 504 392 282 386
8 502 390 280 384 622 507 389 501
8 504 392 282 386 624 509 391 503
8 624 509 391 503 575 468 354 457
8 513 410 299 395 630 527 408 511
8 631 528 411 514 512 409 300 396
8 513 410 528 631 395 299 409 512
8 519 416 305 401 633 530 411 514
8 634 531 412 515 516 413 302 398
8 523 420 309 405 634 531 412 515
8 635 532 413 516 517 414 303 399
8 521 417 533 636 403 306 414 517
8 520 418 307 402 637 534 415 518
8 519 416 534 637 401 305 415 518
8 522 419 308 404 639 537 418 520
8 522 419 536 640 404 308 417 521
8 524 421 310 406 642 539 420 523
8 524 421 541 644 406 310 423 526
8 646 543 422 525 526 423 311 407
8 529 426 314 410 647 544 424 527
8 528 425 545 648 411 315 427 530
8 529 426 545 648 410 314 425 528
8 535 429 317 416 649 546 427 530
8 650 548 430 531 532 432 320 413
8 539 438 325 420 650 548 430 531
8 533 433 550 651 414 321 432 532
8 536 434 551 652 417 322 433 533
8 537 431 319 418 653 547 428 534
8 535 429 547 653 416 317 428 534
8 538 435 552 654 419 323 434 536
8 538 435 323 419 655 549 431 537
8 540 440 327 421 657 556 438 539
8 540 440 557 659 421 327 439 541
8 541 439 555 660 423 326 437 543
8 661 554 436 542 543 437 324 422
8 676 570 452 559 590 473 365 484
8 560 453 338 441 676 570 452 559
8 562 455 340 443 677 571 453 560
8 447 344 459 566 561 457 575 678
8 564 456 341 445 679 573 455 562
8 567 460 345 448 680 572 454 563
8 680 572 454 563 564 456 341 445
8 565 458 576 682 447 344 459 566
8 450 346 461 569 565 458 576 682
8 568 462 347 449 684 578 460 567
8 451 348 462 568 569 461 579 685
8 686 580 463 570 591 474 360 473
8 571 464 350 453 686 580 463 570
8 573 466 352 455 687 581 464 571
8 572 465 582 688 460 357 471 578
8 574 467 582 688 456 353 465 572
8 574 467 353 456 689 583 466 573
8 459 356 470 577 575 468 585 691
8 576 469 586 692 459 356 470 577
8 461 358 472 579 576 469 586 692
8 462 359 471 578 579 472 588 694
8 704 591 473 590 593 475 363 481
8 595 476 592 705 475 361 474 591
8 593 475 363 481 707 594 479 602
8 594 477 362 479 709 598 478 600
8 595 476 361 475 711 597 477 594
8 479 362 480 603 600 478 601 720
8 481 363 482 605 602 479 603 722
8 603 480 364 482 723 604 483 606
8 605 482 365 484 724 606 485 607
8 656 553 608 726 542 436 487 609
8 645 542 609 728 525 422 488 611
8 609 487 610 729 488 369 489 612
8 611 488 612 730 491 371 490 613
8 616 504 386 495 731 624 503 614
8 731 624 503 614 678 575 457 561
8 732 622 501 615 616 504 386 495
8 617 502 384 496 732 622 501 615
8 617 502 621 735 496 384 500 618
8 736 620 499 619 618 500 382 497
8 630 527 408 511 736 620 499 619
8 621 506 626 737 500 388 505 620
8 647 544 424 527 737 626 505 620
8 623 508 627 738 502 390 506 621
8 623 508 390 502 739 628 507 622
8 625 510 628 739 504 392 507 622
8 740 629 509 624 691 585 468 575
8 625 510 392 504 740 629 509 624
8 632 529 410 513 744 647 527 630
8 631 528 648 745 514 411 530 633
8 632 529 648 745 513 410 528 631
8 638 535 416 519 746 649 530 633
8 747 650 531 634 635 532 413 516
8 642 539 420 523 747 650 531 634
8 636 533 651 748 517 414 532 635
8 640 536 652 749 521 417 533 636
8 639 537 418 520 750 653 534 637
8 638 535 653 750 519 416 534 637
8 641 538 419 522 751 655 537 639
8 641 538 654 752 522 419 536 640
8 643 540 421 524 753 657 539 642
8 643 540 659 755 524 421 541 644
8 644 541 660 757 526 423 543 646
8 758 661 542 645 646 543 422 525
8 529 426 544 647 648 545 662 759
8 530 427 545 648 649 546 663 760
8 535 429 546 649 653 547 664 761
8 762 666 548 650 651 550 432 532
8 657 556 438 539 762 666 548 650
8 652 551 668 763 533 433 550 651
8 654 552 669 764 536 434 551 652
8 655 549 431 537 765 665 547 653
8 538 435 549 655 654 552 667 766
8 661 554 671 768 542 436 553 656
8 658 558 440 540 769 674 556 657
8 658 558 675 770 540 440 557 659
8 659 557 673 771 541 439 555 660
8 660 555 672 772 543 437 554 661
8 788 686 570 676 704 591 473 590
8 677 571 453 560 788 686 570 676
8 679 573 455 562 789 687 571 677
8 566 459 577 683 678 575 691 790
8 681 574 456 564 791 689 573 679
8 680 572 688 792 567 460 578 684
8 681 574 688 792 564 456 572 680
8 682 576 692 794 566 459 577 683
8 569 461 579 685 682 576 692 794
8 568 462 578 684 685 579 694 796
8 687 581 464 571 798 696 580 686
8 798 696 580 686 705 592 474 591
8 689 583 466 573 799 697 581 687
8 688 582 698 800 578 471 588 694
8 690 584 698 800 574 467 582 688
8 690 584 467 574 801 699 583 689
8 693 587 701 803 577 470 585 691
8 693 587 470 577 804 702 586 692
8 695 589 702 804 579 472 586 692
8 695 589 472 579 805 703 588 694
8 708 595 705 813 593 475 591 704
8 710 596 706 814 595 476 592 705
8 707 594 479 602 816 709 600 719
8 708 595 475 593 817 711 594 707
8 709 598 478 600 819 715 599 717
8 711 597 477 594 820 714 598 709
8 710 596 476 595 822 713 597 711
8 600 478 601 720 717 599 718 832
8 602 479 603 722 719 600 720 834
8 720 601 480 603 835 721 604 723
8 722 603 482 605 836 723 606 724
8 767 670 725 839 656 553 608 726
8 756 656 726 841 645 542 609 728
8 726 608 727 842 609 487 610 729
8 728 609 729 843 611 488 612 730
8 844 740 624 731 790 691 575 678
8 733 625 504 616 844 740 624 731
8 734 623 502 617 845 739 622 732
8 733 625 739 845 616 504 622 732
8 734 623 738 846 617 502 621 735
8 735 621 737 847 618 500 620 736
8 744 647 527 630 847 737 620 736
8 621 506 627 738 737 626 741 848
8 647 544 626 737 759 662 741 848
8 623 508 628 739 738 627 742 849
8 740 629 585 691 850 743 700 802
8 625 510 629 740 739 628 743 850
8 632 529 647 744 745 648 759 854
8 633 530 648 745 746 649 760 855
8 638 535 649 746 750 653 761 856
8 857 762 650 747 748 651 532 635
8 753 657 539 642 857 762 650 747
8 749 652 763 858 636 533 651 748
8 752 654 764 859 640 536 652 749
8 751 655 537 639 860 765 653 750
8 641 538 655 751 752 654 766 861
8 754 658 540 643 862 769 657 753
8 754 658 770 863 643 540 659 755
8 755 659 771 864 644 541 660 757
8 758 661 768 866 645 542 656 756
8 757 660 772 867 646 543 661 758
8 759 662 773 868 648 545 663 760
8 649 546 663 760 761 664 774 871
8 765 665 547 653 872 775 664 761
8 873 777 666 762 763 668 550 651
8 769 674 556 657 873 777 666 762
8 764 669 779 874 652 551 668 763
8 654 552 667 766 764 669 778 875
8 655 549 665 765 766 667 776 876
8 768 671 782 877 656 553 670 767
8 772 672 783 878 661 554 671 768
8 658 558 674 769 770 675 786 879
8 659 557 675 770 771 673 785 881
8 882 784 672 772 771 673 555 660
8 789 687 571 677 897 798 686 788
8 897 798 686 788 813 705 591 704
8 791 689 573 679 898 799 687 789
8 795 693 803 900 683 577 691 790
8 793 690 574 681 901 801 689 791
8 792 688 800 902 684 578 694 796
8 793 690 800 902 681 574 688 792
8 795 693 577 683 903 804 692 794
8 797 695 804 903 685 579 692 794
8 797 695 579 685 904 805 694 796
8 905 806 697 799 798 696 581 687
8 814 706 806 905 705 592 696 798
8 689 583 697 799 801 699 808 907
8 800 698 809 908 694 588 703 805
8 690 584 699 801 800 698 809 908
8 803 701 810 909 691 585 700 802
8 693 587 702 804 803 701 811 910
8 695 589 703 805 804 702 812 911
8 818 710 814 919 708 595 705 813
8 821 712 815 920 710 596 706 814
8 816 709 600 719 922 819 717 831
8 817 711 594 707 923 820 709 816
8 818 710 595 708 924 822 711 817
8 819 715 599 717 926 827 716 829
8 820 714 598 709 927 826 715 819
8 929 825 713 822 820 714 597 711
8 821 712 596 710 930 824 713 822
8 717 599 718 832 829 716 830 942
8 719 600 720 834 831 717 832 944
8 832 718 601 720 945 833 721 835
8 834 720 603 722 946 835 723 836
8 869 780 838 950 767 670 725 839
8 865 767 839 952 756 656 726 841
8 839 725 840 953 726 608 727 842
8 841 726 842 954 728 609 729 843
8 844 740 691 790 955 850 802 899
8 733 625 740 844 845 739 850 955
8 734 623 739 845 846 738 849 956
8 735 621 738 846 847 737 848 957
8 744 647 737 847 854 759 848 957
8 738 627 742 849 848 741 851 958
8 848 741 851 958 759 662 773 868
8 850 743 700 802 959 852 807 906
8 849 742 628 739 959 852 743 850
8 854 759 868 965 745 648 760 855
8 746 649 760 855 856 761 871 966
8 860 765 653 750 967 872 761 856
8 968 873 762 857 858 763 651 748
8 862 769 657 753 968 873 762 857
8 859 764 874 969 749 652 763 858
8 752 654 766 861 859 764 875 970
8 751 655 765 860 861 766 876 971
8 754 658 769 862 863 770 879 972
8 755 659 770 863 864 771 881 974
8 976 882 772 867 864 771 660 757
8 866 768 877 977 756 656 767 865
8 867 772 878 978 758 661 768 866
8 760 663 773 868 871 774 883 980
8 870 781 837 948 982 890 780 869
8 982 890 780 869 877 782 670 767
8 761 664 774 871 872 775 884 984
8 876 776 665 765 985 885 775 872
8 873 777 668 763 986 887 779 874
8 769 674 777 873 879 786 887 986
8 764 669 778 875 874 779 888 987
8 766 667 776 876 875 778 886 988
8 878 783 892 989 768 671 782 877
8 878 783 672 772 990 893 784 882
8 880 787 675 770 991 896 786 879
8 880 787 895 992 770 675 785 881
8 881 785 894 993 771 673 784 882
8 1006 905 799 898 897 798 687 789
8 919 814 905 1006 813 705 798 897
8 791 689 799 898 901 801 907 1007
8 900 803 909 1009 790 691 802 899
8 795 693 804 903 900 803 910 1010
8 902 800 908 1011 796 694 805 904
8 793 690 801 901 902 800 908 1011
8 797 695 805 904 903 804 911 1012
8 799 697 806 905 907 808 912 1013
8 920 815 912 1013 814 706 806 905
8 802 700 810 909 906 807 913 1014
8 801 699 808 907 908 809 914 1015
8 805 703 809 908 911 812 915 1016
8 803 701 811 910 909 810 916 1017
8 911 812 917 1018 804 702 811 910
8 925 821 920 1030 818 710 814 919
8 928 823 921 1031 821 712 815 920
8 922 819 717 831 1033 926 829 941
8 923 820 709 816 1034 927 819 922
8 1035 929 822 924 923 820 711 817
8 925 821 710 818 1036 930 822 924
8 1038 933 825 929 927 826 714 820
8 926 827 716 829 1039 935 828 939
8 927 826 715 819 1040 934 827 926
8 928 823 712 821 1041 931 824 930
8 1042 932 824 930 929 825 713 822
8 829 716 830 942 939 828 940 1058
8 831 717 832 944 941 829 942 1060
8 942 830 718 832 1061 943 833 945
8 944 832 720 834 1062 945 835 946
8 981 889 947 1064 870 781 837 948
8 948 837 949 1067 869 780 838 950
8 975 869 950 1069 865 767 839 952
8 950 838 951 1070 839 725 840 953
8 952 839 953 1071 841 726 842 954
8 955 850 802 899 1072 959 906 1008
8 956 849 739 845 1072 959 850 955
8 846 738 849 956 957 848 958 1073
8 957 848 958 1073 854 759 868 965
8 849 742 852 959 958 851 961 1076
8 960 853 961 1076 906 807 852 959
8 958 851 961 1076 868 773 883 980
8 960 853 807 906 1077 963 913 1014
8 855 760 868 965 966 871 980 1085
8 856 761 871 966 967 872 984 1086
8 971 876 765 860 1087 985 872 967
8 968 873 763 858 1088 986 874 969
8 862 769 873 968 972 879 986 1088
8 859 764 875 970 969 874 987 1089
8 861 766 876 971 970 875 988 1090
8 973 880 770 863 1091 991 879 972
8 973 880 992 1092 863 770 881 974
8 974 881 993 1093 864 771 882 976
8 979 870 948 1066 1094 982 869 975
8 1094 982 869 975 977 877 767 865
8 978 878 772 867 1095 990 882 976
8 978 878 989 1096 866 768 877 977
8 871 774 883 980 984 884 994 1099
8 983 891 999 1100 870 781 889 981
8 1101 1000 890 982 989 892 782 877
8 983 891 781 870 1101 1000 890 982
8 872 775 884 984 985 885 995 1103
8 876 776 885 985 988 886 996 1104
8 986 887 779 874 1105 998 888 987
8 879 786 887 986 991 896 998 1105
8 875 778 886 988 987 888 997 1106
8 990 893 1002 1107 878 783 892 989
8 1108 1003 893 990 993 894 784 882
8 880 787 896 991 992 895 1005 1109
8 993 894 785 881 1110 1004 895 992
8 898 799 905 1006 1007 907 1013 1120
8 1030 920 1013 1120 919 814 905 1006
8 901 801 907 1007 1011 908 1015 1121
8 899 802 909 1009 1008 906 1014 1122
8 900 803 910 1010 1009 909 1017 1123
8 1012 911 1018 1124 903 804 910 1010
8 904 805 908 1011 1012 911 1016 1125
8 1013 912 1020 1127 907 808 914 1015
8 1031 921 1020 1127 920 815 912 1013
8 1019 918 962 1075 1128 1021 913 1014
8 1128 1021 913 1014 1017 916 810 909
8 1015 914 1022 1129 908 809 915 1016
8 1016 915 1023 1130 911 812 917 1018
8 1018 917 1024 1131 910 811 916 1017
8 1037 928 1031 1148 925 821 920 1030
8 928 823 931 1041 1031 921 1032 1149
8 1033 926 829 941 1151 1039 939 1057
8 1034 927 819 922 1152 1040 926 1033
8 1153 1038 929 1035 1034 927 820 923
8 1154 1042 930 1036 1035 929 822 924
8 1037 928 821 925 1155 1041 930 1036
8 1039 935 828 939 1156 1047 938 1055
8 1157 1043 932 1042 1038 933 825 929
8 1038 933 826 927 1158 1045 934 1040
8 1040 934 827 926 1159 1046 935 1039
8 930 824 932 1042 1041 931 1044 1160
8 1051 936 1048 1165 1175 1052 937 1053
8 1156 1047 938 1055 1053 937 1054 1178
8 939 828 940 1058 1055 938 1056 1181
8 941 829 942 1060 1057 939 1058 1183
8 942 830 943 1061 1058 940 1059 1184
8 1060 942 832 944 1185 1061 945 1062
8 1082 964 1063 1188 981 889 947 1064
8 1097 981 1064 1190 979 870 948 1066
8 1064 947 1065 1191 948 837 949 1067
8 1066 948 1067 1193 975 869 950 1069
8 1067 949 1068 1194 950 838 951 1070
8 1069 950 1070 1195 952 839 953 1071
8 956 849 959 1072 1073 958 1076 1197
8 1074 960 1076 1197 1008 906 959 1072
8 1073 958 1076 1197 965 868 980 1085
8 1074 960 906 1008 1198 1077 1014 1122
8 1133 1026 1079 1199 1019 918 962 1075
8 1077 963 913 1014 1200 1080 962 1075
8 960 853 963 1077 1076 961 1078 1201
8 980 883 961 1076 1099 994 1078 1201
8 1210 1083 964 1082 1100 999 889 981
8 966 871 980 1085 1086 984 1099 1215
8 967 872 984 1086 1087 985 1103 1216
8 971 876 985 1087 1090 988 1104 1217
8 1088 986 874 969 1218 1105 987 1089
8 972 879 986 1088 1091 991 1105 1218
8 970 875 988 1090 1089 987 1106 1219
8 973 880 991 1091 1092 992 1109 1220
8 1093 993 881 974 1221 1110 992 1092
8 1222 1108 990 1095 1093 993 882 976
8 1223 1101 982 1094 1096 989 877 977
8 1098 983 870 979 1223 1101 982 1094
8 1095 990 1107 1224 978 878 989 1096
8 1098 983 1100 1225 979 870 981 1097
8 984 884 994 1099 1103 995 1111 1227
8 1102 1001 1115 1228 983 891 999 1100
8 1101 1000 892 989 1229 1116 1002 1107
8 1102 1001 891 983 1229 1116 1000 1101
8 985 885 995 1103 1104 996 1112 1230
8 988 886 996 1104 1106 997 1113 1231
8 1105 998 888 987 1232 1114 997 1106
8 991 896 998 1105 1109 1005 1114 1232
8 1108 1003 1117 1233 990 893 1002 1107
8 1108 1003 894 993 1233 1117 1004 1110
8 992 895 1005 1109 1110 1004 1118 1234
8 1120 1013 1127 1244 1007 907 1015 1121
8 1148 1031 1127 1244 1030 920 1013 1120
8 1121 1015 1129 1245 1011 908 1016 1125
8 1126 1019 1075 1196 1246 1128 1014 1122
8 1246 1128 1014 1122 1123 1017 909 1009
8 1124 1018 1131 1247 1010 910 1017 1123
8 1125 1016 1130 1248 1012 911 1018 1124
8 1127 1020 1137 1254 1015 914 1022 1129
8 1031 921 1032 1149 1127 1020 1137 1254
8 1134 1027 918 1019 1257 1140 1021 1128
8 1257 1140 1021 1128 1131 1024 916 1017
8 1129 1022 1141 1258 1016 915 1023 1130
8 1130 1023 1142 1259 1018 917 1024 1131
8 1261 1144 1025 1132 1133 1026 1079 1199
8 1255 1138 1025 1132 1135 1028 1144 1261
8 1133 1026 918 1019 1262 1145 1027 1134
8 1136 1029 1139 1256 1263 1146 1028 1135
8 1037 928 1041 1155 1148 1031 1149 1275
8 1041 931 1044 1160 1149 1032 1150 1276
8 1151 1039 939 1057 1278 1156 1055 1180
8 1152 1040 926 1033 1279 1159 1039 1151
8 1153 1038 927 1034 1280 1158 1040 1152
8 1281 1157 1042 1154 1153 1038 929 1035
8 1036 930 1042 1154 1155 1041 1160 1282
8 1283 1164 1046 1159 1156 1047 935 1039
8 1165 1048 1164 1283 1053 937 1047 1156
8 1157 1043 933 1038 1284 1161 1045 1158
8 1157 1043 1161 1284 1042 932 1044 1160
8 1040 934 1046 1159 1158 1045 1163 1285
8 1166 1049 1167 1292 1051 936 1048 1165
8 1166 1049 936 1051 1293 1168 1050 1172
8 1051 936 1052 1175 1172 1050 1173 1306
8 1174 1051 1165 1290 1308 1175 1053 1177
8 1053 937 1054 1178 1175 1052 1176 1309
8 1278 1156 1055 1180 1177 1053 1178 1311
8 1055 938 1056 1181 1178 1054 1179 1312
8 1057 939 1058 1183 1180 1055 1181 1314
8 1058 940 1059 1184 1181 1056 1182 1315
8 1060 942 1061 1185 1183 1058 1184 1316
8 1208 1081 1187 1321 1082 964 1063 1188
8 1209 1082 1188 1322 1097 981 1064 1190
8 1188 1063 1189 1323 1064 947 1065 1191
8 1190 1064 1191 1325 1066 948 1067 1193
8 1191 1065 1192 1326 1067 949 1068 1194
8 1067 1193 1069 950 1194 1327 1195 1070
8 1250 1133 1199 1330 1126 1019 1075 1196
8 1198 1077 1014 1122 1331 1200 1075 1196
8 1074 960 1077 1198 1197 1076 1201 1332
8 1085 980 1076 1197 1215 1099 1201 1332
8 1199 1079 1203 1333 1075 962 1080 1200
8 1132 1025 1119 1243 1199 1079 1203 1333
8 1201 1078 963 1077 1334 1202 1080 1200
8 1099 994 1078 1201 1227 1111 1202 1334
8 1343 1207 1081 1208 1210 1083 964 1082
8 1214 1084 1186 1319 1343 1207 1081 1208
8 1345 1210 1082 1209 1225 1100 981 1097
8 1346 1211 1083 1210 1228 1115 999 1100
8 1086 984 1099 1215 1216 1103 1227 1352
8 1087 985 1103 1216 1217 1104 1230 1353
8 1090 988 1104 1217 1219 1106 1231 1354
8 1218 1105 987 1089 1355 1232 1106 1219
8 1091 991 1105 1218 1220 1109 1232 1355
8 1092 992 1109 1220 1221 1110 1234 1356
8 1222 1108 1233 1357 1095 990 1107 1224
8 1222 1108 993 1093 1357 1233 1110 1221
8 1223 1101 989 1096 1358 1229 1107 1224
8 1226 1102 983 1098 1358 1229 1101 1223
8 1226 1102 1228 1359 1098 983 1100 1225
8 1103 995 1111 1227 1230 1112 1235 1360
8 1107 1002 1117 1233 1229 1116 1240 1362
8 1102 1001 1116 1229 1228 1115 1240 1362
8 1104 996 1112 1230 1231 1113 1236 1363
8 1364 1237 1114 1232 1231 1113 997 1106
8 1109 1005 1114 1232 1234 1118 1238 1365
8 1110 1004 1118 1234 1233 1117 1241 1366
8 1242 1374 1255 1138 1119 1243 1132 1025
8 1244 1127 1254 1376 1121 1015 1129 1245
8 1148 1031 1149 1275 1244 1127 1254 1376
8 1245 1129 1258 1377 1125 1016 1130 1248
8 1251 1134 1019 1126 1378 1257 1128 1246
8 1378 1257 1128 1246 1247 1131 1017 1123
8 1248 1130 1259 1379 1124 1018 1131 1247
8 1261 1381 1250 1133 1132 1249 1330 1199
8 1255 1380 1252 1135 1132 1249 1381 1261
8 1250 1133 1019 1126 1382 1262 1134 1251
8 1253 1136 1256 1385 1384 1263 1135 1252
8 1254 1137 1265 1387 1129 1022 1141 1258
8 1149 1032 1150 1276 1254 1137 1265 1387
8 1028 1135 1255 1138 1139 1256 1388 1266
8 1136 1029 1147 1264 1256 1139 1267 1389
8 1390 1268 1140 1257 1259 1142 1024 1131
8 1260 1143 1027 1134 1390 1268 1140 1257
8 1258 1141 1269 1391 1130 1023 1142 1259
8 1262 1145 1027 1134 1393 1271 1143 1260
8 1261 1144 1026 1133 1394 1272 1145 1262
8 1135 1028 1144 1261 1263 1146 1272 1394
8 1136 1029 1146 1263 1264 1147 1273 1395
8 1155 1041 1160 1282 1275 1149 1276 1405
8 1276 1150 1044 1160 1406 1277 1162 1286
8 1408 1283 1159 1279 1278 1156 1039 1151
8 1290 1165 1283 1408 1177 1053 1156 1278
8 1152 1040 1159 1279 1280 1158 1285 1409
8 1281 1157 1038 1153 1410 1284 1158 1280
8 1281 1157 1284 1410 1154 1042 1160 1282
8 1159 1046 1164 1283 1285 1163 1289 1412
8 1292 1167 1289 1412 1165 1048 1164 1283
8 1158 1045 1163 1285 1284 1161 1288 1413
8 1284 1161 1288 1413 1160 1044 1162 1286
8 1291 1166 1292 1418 1174 1051 1165 1290
8 1291 1166 1051 1174 1419 1293 1172 1305
8 1294 1169 1296 1421 1166 1049 1167 1292
8 1293 1168 1050 1172 1422 1295 1171 1303
8 1294 1169 1049 1166 1423 1297 1168 1293
8 1422 1295 1171 1303 1301 1170 1302 1435
8 1172 1050 1173 1306 1303 1171 1304 1438
8 1174 1051 1175 1308 1305 1172 1306 1440
8 1175 1052 1176 1309 1306 1173 1307 1441
8 1177 1053 1178 1311 1308 1175 1309 1443
8 1178 1054 1179 1312 1309 1176 1310 1444
8 1180 1055 1181 1314 1311 1178 1312 1446
8 1056 1181 1312 1179 1182 1315 1447 1313
8 1183 1058 1184 1316 1314 1181 1315 1448
8 1319 1186 1084 1214 1451 1317 1213 1350
8 1319 1186 1318 1453 1208 1081 1187 1321
8 1321 1187 1320 1456 1188 1063 1189 1323
8 1344 1208 1321 1457 1209 1082 1188 1322
8 1322 1188 1323 1458 1190 1064 1191 1325
8 1323 1189 1324 1459 1191 1065 1192 1326
8 1191 1325 1193 1067 1326 1460 1327 1194
8 1242 1374 1243 1119 1328 1462 1335 1204
8 1330 1199 1333 1465 1196 1075 1200 1331
8 1132 1249 1330 1199 1243 1375 1465 1333
8 1332 1201 1077 1198 1466 1334 1200 1331
8 1215 1099 1201 1332 1352 1227 1334 1466
8 1119 1243 1333 1203 1204 1335 1470 1338
8 1333 1203 1338 1470 1200 1080 1202 1334
8 1227 1111 1202 1334 1360 1235 1338 1470
8 1328 1462 1335 1204 1205 1336 1471 1339
8 1337 1206 1340 1472 1464 1329 1205 1336
8 1346 1211 1342 1479 1210 1083 1207 1343
8 1346 1211 1115 1228 1479 1342 1239 1361
8 1348 1212 1084 1214 1479 1342 1207 1343
8 1480 1343 1208 1344 1345 1210 1082 1209
8 1351 1214 1319 1454 1480 1343 1208 1344
8 1481 1346 1210 1345 1359 1228 1100 1225
8 1348 1212 1347 1483 1214 1084 1213 1350
8 1216 1103 1227 1352 1353 1230 1360 1488
8 1217 1104 1230 1353 1354 1231 1363 1489
8 1490 1364 1232 1355 1354 1231 1106 1219
8 1220 1109 1232 1355 1356 1234 1365 1491
8 1221 1110 1234 1356 1357 1233 1366 1492
8 1224 1107 1233 1357 1358 1229 1362 1493
8 1226 1102 1229 1358 1359 1228 1362 1493
8 1230 1112 1235 1360 1363 1236 1367 1496
8 1361 1239 1115 1228 1497 1371 1240 1362
8 1366 1241 1372 1498 1233 1117 1240 1362
8 1364 1237 1113 1231 1499 1368 1236 1363
8 1364 1237 1368 1499 1232 1114 1238 1365
8 1234 1118 1238 1365 1366 1241 1369 1500
8 1507 1373 1242 1374 1388 1266 1138 1255
8 1508 1374 1243 1375 1380 1255 1132 1249
8 1376 1254 1387 1509 1245 1129 1258 1377
8 1275 1149 1276 1405 1376 1254 1387 1509
8 1377 1258 1391 1510 1248 1130 1259 1379
8 1511 1390 1257 1378 1379 1259 1131 1247
8 1383 1260 1134 1251 1511 1390 1257 1378
8 1252 1135 1256 1385 1380 1255 1388 1512
8 1261 1381 1513 1394 1133 1250 1382 1262
8 1135 1252 1384 1263 1261 1381 1513 1394
8 1382 1262 1134 1251 1514 1393 1260 1383
8 1253 1136 1263 1384 1386 1264 1395 1516
8 1253 1136 1264 1386 1385 1256 1389 1517
8 1387 1265 1397 1519 1258 1141 1269 1391
8 1276 1150 1277 1406 1387 1265 1397 1519
8 1256 1139 1267 1389 1388 1266 1398 1520
8 1264 1147 1274 1396 1389 1267 1399 1521
8 1392 1270 1143 1260 1522 1400 1268 1390
8 1390 1268 1142 1259 1522 1400 1269 1391
8 1392 1270 1401 1523 1260 1143 1271 1393
8 1272 1394 1524 1402 1145 1262 1393 1271
8 1395 1273 1146 1263 1524 1402 1272 1394
8 1273 1395 1264 1147 1403 1526 1396 1274
8 1405 1276 1160 1282 1534 1406 1286 1411
8 1414 1287 1407 1535 1286 1162 1277 1406
8 1279 1159 1283 1408 1409 1285 1412 1537
8 1418 1292 1412 1537 1290 1165 1283 1408
8 1280 1158 1285 1409 1410 1284 1413 1538
8 1410 1284 1413 1538 1282 1160 1286 1411
8 1285 1163 1289 1412 1413 1288 1417 1540
8 1421 1296 1417 1540 1292 1167 1289 1412
8 1414 1287 1162 1286 1541 1416 1288 1413
8 1420 1294 1421 1545 1291 1166 1292 1418
8 1419 1293 1172 1305 1546 1422 1303 1437
8 1420 1294 1166 1291 1547 1423 1293 1419
8 1294 1169 1297 1423 1421 1296 1425 1548
8 1423 1297 1168 1293 1549 1424 1295 1422
8 1301 1170 1298 1427 1422 1295 1424 1549
8 1432 1300 1428 1554 1301 1170 1298 1427
8 1431 1299 1428 1554 1560 1430 1300 1432
8 1563 1433 1300 1432 1435 1302 1170 1301
8 1546 1422 1303 1437 1434 1301 1435 1565
8 1303 1171 1304 1438 1435 1302 1436 1566
8 1305 1172 1306 1440 1437 1303 1438 1568
8 1306 1173 1307 1441 1438 1304 1439 1569
8 1308 1175 1309 1443 1440 1306 1441 1571
8 1309 1176 1310 1444 1441 1307 1442 1572
8 1311 1178 1312 1446 1443 1309 1444 1574
8 1179 1312 1444 1310 1313 1447 1575 1445
8 1314 1181 1315 1448 1446 1312 1447 1576
8 1350 1213 1349 1486 1451 1317 1449 1579
8 1451 1317 1450 1581 1319 1186 1318 1453
8 1454 1319 1214 1351 1582 1451 1350 1487
8 1453 1318 1452 1584 1321 1187 1320 1456
8 1454 1319 1453 1585 1344 1208 1321 1457
8 1456 1320 1455 1586 1323 1189 1324 1459
8 1457 1321 1456 1587 1322 1188 1323 1458
8 1458 1323 1459 1588 1325 1191 1326 1460
8 1205 1336 1464 1329 1328 1462 1590 1461
8 1507 1373 1461 1590 1374 1242 1328 1462
8 1508 1374 1462 1591 1375 1243 1335 1467
8 1337 1206 1329 1464 1473 1341 1463 1594
8 1375 1243 1335 1467 1465 1333 1470 1596
8 1465 1333 1470 1596 1331 1200 1334 1466
8 1352 1227 1334 1466 1488 1360 1470 1596
8 1591 1462 1336 1468 1467 1335 1471 1597
8 1469 1337 1472 1598 1595 1464 1336 1468
8 1471 1339 1474 1600 1335 1204 1338 1470
8 1600 1474 1367 1496 1470 1338 1235 1360
8 1336 1205 1340 1472 1471 1339 1475 1601
8 1337 1206 1341 1473 1472 1340 1476 1602
8 1495 1370 1478 1609 1361 1239 1342 1479
8 1348 1212 1342 1479 1483 1347 1478 1609
8 1481 1346 1479 1610 1345 1210 1343 1480
8 1481 1346 1228 1359 1610 1479 1361 1494
8 1484 1348 1214 1351 1610 1479 1343 1480
8 1483 1347 1482 1612 1350 1213 1349 1486
8 1484 1348 1483 1613 1351 1214 1350 1487
8 1353 1230 1360 1488 1489 1363 1496 1616
8 1490 1364 1231 1354 1617 1499 1363 1489
8 1490 1364 1499 1617 1355 1232 1365 1491
8 1356 1234 1365 1491 1492 1366 1500 1619
8 1492 1366 1498 1620 1357 1233 1362 1493
8 1494 1361 1228 1359 1621 1497 1362 1493
8 1495 1370 1239 1361 1622 1504 1371 1497
8 1363 1236 1367 1496 1499 1368 1501 1623
8 1497 1371 1240 1362 1624 1505 1372 1498
8 1625 1503 1372 1498 1500 1369 1241 1366
8 1365 1238 1368 1499 1500 1369 1502 1626
8 1520 1398 1506 1633 1388 1266 1373 1507
8 1634 1507 1374 1508 1512 1388 1255 1380
8 1509 1387 1519 1635 1377 1258 1391 1510
8 1405 1276 1406 1534 1509 1387 1519 1635
8 1515 1392 1260 1383 1636 1522 1390 1511
8 1511 1390 1259 1379 1636 1522 1391 1510
8 1385 1256 1389 1517 1512 1388 1520 1637
8 1513 1394 1262 1382 1638 1524 1393 1514
8 1395 1516 1638 1524 1263 1384 1513 1394
8 1515 1392 1523 1639 1383 1260 1393 1514
8 1516 1395 1526 1640 1386 1264 1396 1518
8 1386 1264 1396 1518 1517 1389 1521 1641
8 1519 1397 1527 1643 1391 1269 1400 1522
8 1535 1407 1527 1643 1406 1277 1397 1519
8 1389 1267 1399 1521 1520 1398 1528 1644
8 1645 1529 1399 1521 1525 1404 1274 1396
8 1392 1270 1400 1522 1523 1401 1531 1646
8 1524 1402 1271 1393 1648 1532 1401 1523
8 1403 1526 1648 1532 1273 1395 1524 1402
8 1525 1404 1274 1396 1649 1533 1403 1526
8 1539 1414 1535 1657 1411 1286 1406 1534
8 1542 1415 1536 1658 1414 1287 1407 1535
8 1409 1285 1412 1537 1538 1413 1540 1660
8 1545 1421 1540 1660 1418 1292 1412 1537
8 1539 1414 1286 1411 1661 1541 1413 1538
8 1540 1417 1544 1663 1413 1288 1416 1541
8 1421 1296 1425 1548 1540 1417 1544 1663
8 1542 1415 1287 1414 1664 1543 1416 1541
8 1420 1294 1423 1547 1545 1421 1548 1666
8 1547 1423 1293 1419 1667 1549 1422 1546
8 1434 1301 1427 1553 1546 1422 1549 1667
8 1423 1297 1424 1549 1548 1425 1550 1668
8 1551 1426 1550 1668 1427 1298 1424 1549
8 1551 1426 1298 1427 1671 1552 1428 1554
8 1562 1432 1554 1674 1434 1301 1427 1553
8 1431 1299 1429 1558 1554 1428 1555 1675
8 1431 1299 1430 1560 1558 1429 1557 1680
8 1560 1430 1300 1432 1683 1559 1433 1563
8 1561 1431 1554 1674 1684 1560 1432 1562
8 1685 1563 1432 1562 1565 1435 1301 1434
8 1435 1302 1436 1566 1563 1433 1564 1686
8 1437 1303 1438 1568 1565 1435 1566 1688
8 1438 1304 1439 1569 1566 1436 1567 1689
8 1440 1306 1441 1571 1568 1438 1569 1691
8 1441 1307 1442 1572 1569 1439 1570 1692
8 1443 1309 1444 1574 1571 1441 1572 1694
8 1310 1444 1572 1442 1445 1575 1695 1573
8 1446 1312 1447 1576 1574 1444 1575 1696
8 1486 1349 1485 1614 1579 1449 1577 1699
8 1451 1317 1449 1579 1581 1450 1578 1701
8 1487 1350 1486 1615 1582 1451 1579 1702
8 1581 1450 1580 1704 1453 1318 1452 1584
8 1582 1451 1581 1705 1454 1319 1453 1585
8 1584 1452 1583 1706 1456 1320 1455 1586
8 1585 1453 1584 1707 1457 1321 1456 1587
8 1587 1456 1586 1708 1458 1323 1459 1588
8 1633 1506 1589 1710 1507 1373 1461 1590
8 1464 1329 1461 1590 1594 1463 1589 1710
8 1468 1336 1462 1591 1595 1464 1590 1711
8 1634 1507 1590 1711 1508 1374 1462 1591
8 1473 1341 1463 1594 1603 1477 1593 1716
8 1469 1337 1464 1595 1599 1473 1594 1717
8 1471 1597 1467 1335 1600 1718 1596 1470
8 1718 1600 1496 1616 1596 1470 1360 1488
8 1336 1468 1597 1471 1472 1598 1719 1601
8 1469 1337 1473 1599 1598 1472 1602 1720
8 1722 1604 1501 1623 1600 1474 1367 1496
8 1475 1601 1471 1339 1604 1722 1600 1474
8 1602 1476 1605 1723 1472 1340 1475 1601
8 1476 1602 1724 1606 1341 1473 1603 1477
8 1483 1347 1478 1609 1612 1482 1608 1731
8 1495 1370 1504 1622 1609 1478 1608 1731
8 1618 1495 1609 1732 1494 1361 1479 1610
8 1484 1348 1479 1610 1613 1483 1609 1732
8 1486 1349 1482 1612 1614 1485 1611 1733
8 1613 1483 1612 1734 1487 1350 1486 1615
8 1489 1363 1496 1616 1617 1499 1623 1736
8 1491 1365 1499 1617 1619 1500 1626 1737
8 1618 1495 1361 1494 1738 1622 1497 1621
8 1739 1625 1498 1620 1619 1500 1366 1492
8 1621 1497 1362 1493 1740 1624 1498 1620
8 1742 1631 1504 1622 1624 1505 1371 1497
8 1743 1628 1502 1626 1623 1501 1368 1499
8 1744 1630 1505 1624 1625 1503 1372 1498
8 1745 1629 1503 1625 1626 1502 1369 1500
8 1520 1398 1528 1644 1633 1506 1632 1751
8 1637 1520 1633 1752 1512 1388 1507 1634
8 1635 1519 1643 1753 1510 1391 1522 1636
8 1657 1535 1643 1753 1534 1406 1519 1635
8 1515 1392 1522 1636 1639 1523 1646 1754
8 1517 1389 1521 1641 1637 1520 1644 1755
8 1524 1638 1756 1648 1393 1514 1639 1523
8 1640 1526 1395 1516 1756 1648 1524 1638
8 1642 1525 1396 1518 1757 1649 1526 1640
8 1758 1645 1521 1641 1642 1525 1396 1518
8 1646 1531 1400 1522 1760 1650 1527 1643
8 1535 1407 1536 1658 1643 1527 1650 1760
8 1521 1399 1529 1645 1644 1528 1651 1761
8 1647 1530 1652 1762 1525 1404 1529 1645
8 1401 1523 1648 1532 1531 1646 1763 1655
8 1525 1404 1533 1649 1647 1530 1654 1765
8 1533 1649 1766 1656 1403 1526 1648 1532
8 1662 1542 1658 1774 1539 1414 1535 1657
8 1542 1415 1543 1664 1658 1536 1659 1775
8 1660 1540 1663 1777 1538 1413 1541 1661
8 1545 1421 1548 1666 1660 1540 1663 1777
8 1662 1542 1414 1539 1778 1664 1541 1661
8 1664 1543 1416 1541 1779 1665 1544 1663
8 1548 1425 1550 1668 1663 1544 1665 1779
8 1547 1423 1549 1667 1666 1548 1668 1781
8 1670 1551 1668 1781 1553 1427 1549 1667
8 1551 1426 1552 1671 1668 1550 1669 1782
8 1670 1551 1427 1553 1784 1671 1554 1674
8 1675 1555 1672 1785 1554 1428 1552 1671
8 1678 1556 1673 1789 1558 1429 1555 1675
8 1561 1431 1558 1681 1674 1554 1675 1790
8 1794 1677 1556 1678 1680 1557 1429 1558
8 1560 1430 1559 1683 1680 1557 1679 1797
8 1561 1431 1560 1684 1681 1558 1680 1798
8 1563 1433 1564 1686 1683 1559 1682 1800
8 1684 1560 1432 1562 1801 1683 1563 1685
8 1565 1435 1566 1688 1685 1563 1686 1802
8 1566 1436 1567 1689 1686 1564 1687 1803
8 1568 1438 1569 1691 1688 1566 1689 1805
8 1569 1439 1570 1692 1689 1567 1690 1806
8 1571 1441 1572 1694 1691 1569 1692 1808
8 1442 1572 1692 1570 1573 1695 1809 1693
8 1574 1444 1575 1696 1694 1572 1695 1810
8 1614 1485 1592 1712 1699 1577 1697 1813
8 1579 1449 1577 1699 1701 1578 1698 1815
8 1615 1486 1614 1735 1702 1579 1699 1816
8 1701 1578 1700 1818 1581 1450 1580 1704
8 1582 1451 1579 1702 1705 1581 1701 1819
8 1704 1580 1703 1820 1584 1452 1583 1706
8 1705 1581 1704 1821 1585 1453 1584 1707
8 1707 1584 1706 1822 1587 1456 1586 1708
8 1710 1589 1506 1633 1824 1709 1632 1751
8 1594 1463 1589 1710 1716 1593 1709 1824
8 1752 1633 1710 1825 1634 1507 1590 1711
8 1595 1464 1590 1711 1717 1594 1710 1825
8 1830 1714 1592 1712 1733 1611 1485 1614
8 1603 1477 1593 1716 1725 1607 1715 1834
8 1599 1473 1594 1717 1721 1603 1716 1835
8 1837 1722 1623 1736 1718 1600 1496 1616
8 1719 1601 1722 1837 1597 1471 1600 1718
8 1602 1720 1598 1472 1723 1838 1719 1601
8 1720 1602 1473 1599 1839 1724 1603 1721
8 1723 1605 1726 1840 1601 1475 1604 1722
8 1840 1726 1628 1743 1722 1604 1501 1623
8 1724 1606 1727 1841 1602 1476 1605 1723
8 1725 1607 1728 1842 1603 1477 1606 1724
8 1612 1482 1608 1731 1733 1611 1730 1849
8 1741 1627 1730 1849 1622 1504 1608 1731
8 1613 1483 1609 1732 1734 1612 1731 1850
8 1618 1495 1622 1738 1732 1609 1731 1850
8 1615 1486 1612 1734 1735 1614 1733 1851
8 1852 1743 1626 1737 1736 1623 1499 1617
8 1853 1745 1625 1739 1737 1626 1500 1619
8 1855 1742 1622 1738 1740 1624 1497 1621
8 1856 1744 1624 1740 1739 1625 1498 1620
8 1741 1627 1504 1622 1857 1746 1631 1742
8 1742 1631 1505 1624 1858 1749 1630 1744
8 1859 1747 1629 1745 1743 1628 1502 1626
8 1860 1748 1630 1744 1745 1629 1503 1625
8 1644 1528 1651 1761 1751 1632 1750 1865
8 1637 1520 1644 1755 1752 1633 1751 1866
8 1754 1646 1522 1636 1867 1760 1643 1753
8 1657 1535 1658 1774 1753 1643 1760 1867
8 1639 1523 1646 1754 1756 1648 1763 1868
8 1641 1521 1645 1758 1755 1644 1761 1869
8 1757 1649 1526 1640 1870 1766 1648 1756
8 1642 1525 1649 1757 1759 1647 1765 1871
8 1759 1647 1762 1872 1642 1525 1645 1758
8 1760 1650 1767 1874 1646 1531 1655 1763
8 1658 1536 1659 1775 1760 1650 1767 1874
8 1762 1652 1768 1875 1645 1529 1651 1761
8 1764 1653 1769 1876 1647 1530 1652 1762
8 1656 1766 1877 1773 1532 1648 1763 1655
8 1771 1879 1765 1654 1653 1764 1647 1530
8 1533 1649 1765 1654 1656 1766 1880 1772
8 1662 1542 1664 1778 1774 1658 1775 1887
8 1664 1543 1665 1779 1775 1659 1776 1888
8 1778 1664 1541 1661 1890 1779 1663 1777
8 1666 1548 1668 1781 1777 1663 1779 1890
8 1782 1669 1780 1891 1668 1550 1665 1779
8 1670 1551 1671 1784 1781 1668 1782 1893
8 1671 1552 1672 1785 1782 1669 1783 1894
8 1790 1675 1785 1896 1674 1554 1671 1784
8 1675 1555 1673 1789 1785 1672 1786 1897
8 1792 1676 1788 1903 1678 1556 1673 1789
8 1795 1678 1789 1904 1681 1558 1675 1790
8 1792 1676 1556 1678 1906 1791 1677 1794
8 1680 1557 1679 1797 1794 1677 1793 1909
8 1910 1794 1678 1795 1798 1680 1558 1681
8 1683 1559 1682 1800 1797 1679 1796 1912
8 1684 1560 1683 1801 1798 1680 1797 1913
8 1686 1564 1687 1803 1800 1682 1799 1915
8 1685 1563 1686 1802 1801 1683 1800 1916
8 1688 1566 1689 1805 1802 1686 1803 1917
8 1689 1567 1690 1806 1803 1687 1804 1918
8 1691 1569 1692 1808 1805 1689 1806 1920
8 1692 1570 1693 1809 1806 1690 1807 1921
8 1694 1572 1695 1810 1808 1692 1809 1922
8 1829 1713 1811 1926 1712 1592 1697 1813
8 1813 1697 1812 1928 1699 1577 1698 1815
8 1735 1614 1712 1828 1816 1699 1813 1929
8 1815 1698 1814 1931 1701 1578 1700 1818
8 1702 1579 1699 1816 1819 1701 1815 1932
8 1818 1700 1817 1933 1704 1580 1703 1820
8 1819 1701 1818 1934 1705 1581 1704 1821
8 1821 1704 1820 1935 1707 1584 1706 1822
8 1824 1709 1632 1751 1937 1823 1750 1865
8 1716 1593 1709 1824 1834 1715 1823 1937
8 1825 1710 1633 1752 1938 1824 1751 1866
8 1717 1594 1710 1825 1835 1716 1824 1938
8 1945 1830 1712 1828 1851 1733 1614 1735
8 1830 1714 1831 1946 1712 1592 1713 1829
8 1947 1832 1714 1830 1849 1730 1611 1733
8 1843 1729 1607 1725 1950 1833 1715 1834
8 1721 1603 1716 1835 1836 1725 1834 1951
8 1836 1725 1842 1953 1721 1603 1724 1839
8 1723 1838 1719 1601 1840 1954 1837 1722
8 1954 1840 1743 1852 1837 1722 1623 1736
8 1724 1839 1720 1602 1841 1955 1838 1723
8 1841 1727 1844 1956 1723 1605 1726 1840
8 1956 1844 1747 1859 1840 1726 1628 1743
8 1728 1842 1724 1606 1845 1957 1841 1727
8 1725 1607 1729 1843 1842 1728 1846 1958
8 1741 1627 1746 1857 1849 1730 1848 1965
8 1734 1612 1731 1850 1851 1733 1849 1966
8 1854 1741 1849 1966 1738 1622 1731 1850
8 1967 1859 1745 1853 1852 1743 1626 1737
8 1968 1860 1744 1856 1853 1745 1625 1739
8 1854 1741 1622 1738 1969 1857 1742 1855
8 1855 1742 1624 1740 1970 1858 1744 1856
8 1857 1746 1631 1742 1971 1861 1749 1858
8 1858 1749 1630 1744 1972 1863 1748 1860
8 1859 1747 1862 1973 1745 1629 1748 1860
8 1875 1768 1864 1977 1761 1651 1750 1865
8 1755 1644 1761 1869 1866 1751 1865 1978
8 1867 1760 1874 1979 1754 1646 1763 1868
8 1774 1658 1775 1887 1867 1760 1874 1979
8 1870 1766 1648 1756 1980 1877 1763 1868
8 1872 1762 1875 1981 1758 1645 1761 1869
8 1757 1649 1766 1870 1871 1765 1880 1982
8 1983 1879 1764 1873 1871 1765 1647 1759
8 1873 1764 1876 1984 1759 1647 1762 1872
8 1877 1773 1655 1763 1986 1881 1767 1874
8 1775 1659 1776 1888 1874 1767 1881 1986
8 1876 1769 1882 1987 1762 1652 1768 1875
8 1878 1770 1883 1988 1764 1653 1769 1876
8 1880 1772 1656 1766 1989 1886 1773 1877
8 1878 1770 1653 1764 1990 1884 1771 1879
8 1765 1654 1772 1880 1879 1771 1885 1991
8 1778 1664 1779 1890 1887 1775 1888 1997
8 1998 1889 1776 1888 1891 1780 1665 1779
8 1893 1782 1891 2000 1781 1668 1779 1890
8 1894 1783 1892 2001 1782 1669 1780 1891
8 1784 1671 1785 1896 1893 1782 1894 2003
8 1897 1786 1895 2004 1785 1672 1783 1894
8 1790 1675 1789 1904 1896 1785 1897 2006
8 1901 1787 1898 2007 1789 1673 1786 1897
8 1903 1788 1900 2013 1789 1673 1787 1901
8 1792 1676 1791 1906 1903 1788 1902 2016
8 1907 1792 1903 2017 1795 1678 1789 1904
8 1906 1791 1677 1794 2019 1905 1793 1909
8 1907 1792 1678 1795 2020 1906 1794 1910
8 1797 1679 1796 1912 1909 1793 1908 2022
8 1798 1680 1797 1913 1910 1794 1909 2023
8 1800 1682 1799 1915 1912 1796 1911 2025
8 1801 1683 1800 1916 1913 1797 1912 2026
8 1803 1687 1804 1918 1915 1799 1914 2028
8 1802 1686 1803 1917 1916 1800 1915 2029
8 1805 1689 1806 1920 1917 1803 1918 2030
8 1806 1690 1807 1921 1918 1804 1919 2031
8 1808 1692 1809 1922 1920 1806 1921 2032
8 1939 1826 1924 2037 1829 1713 1811 1926
8 1926 1811 1925 2039 1813 1697 1812 1928
8 1944 1829 1926 2040 1828 1712 1813 1929
8 1928 1812 1927 2042 1815 1698 1814 1931
8 1929 1813 1928 2043 1816 1699 1815 1932
8 1931 1814 1930 2044 1818 1700 1817 1933
8 1932 1815 1931 2045 1819 1701 1818 1934
8 1934 1818 1933 2046 1821 1704 1820 1935
8 2048 1936 1823 1937 1977 1864 1750 1865
8 1950 1833 1715 1834 2048 1936 1823 1937
8 1938 1824 1751 1866 2049 1937 1865 1978
8 1835 1716 1824 1938 1951 1834 1937 2049
8 1939 1826 1713 1829 2053 1942 1831 1946
8 1940 1827 1923 2035 2053 1942 1826 1939
8 1945 1830 1946 2058 1828 1712 1829 1944
8 2059 1947 1830 1945 1966 1849 1733 1851
8 1947 1832 1730 1849 2060 1948 1848 1965
8 1947 1832 1948 2060 1830 1714 1831 1946
8 1959 1847 1729 1843 2063 1949 1833 1950
8 1952 1843 1725 1836 2064 1950 1834 1951
8 1836 1725 1843 1952 1953 1842 1958 2066
8 1953 1842 1957 2067 1839 1724 1841 1955
8 1841 1955 1838 1723 1956 2068 1954 1840
8 2068 1956 1859 1967 1954 1840 1743 1852
8 1956 1844 1960 2069 1859 1747 1862 1973
8 1845 1957 1841 1727 1960 2069 1956 1844
8 1728 1842 1957 1845 1846 1958 2071 1961
8 1962 2072 1959 1847 1846 1958 1843 1729
8 1971 1861 1964 2077 1857 1746 1848 1965
8 1854 1741 1857 1969 1966 1849 1965 2078
8 1967 1859 1973 2079 1853 1745 1860 1968
8 1970 1858 1744 1856 2080 1972 1860 1968
8 1969 1857 1742 1855 2081 1971 1858 1970
8 1971 1861 1749 1858 2082 1974 1863 1972
8 1973 1862 1975 2083 1860 1748 1863 1972
8 1987 1882 1976 2086 1875 1768 1864 1977
8 1981 1875 1977 2087 1869 1761 1865 1978
8 1980 1877 1763 1868 2088 1986 1874 1979
8 1887 1775 1888 1997 1979 1874 1986 2088
8 1880 1982 2089 1989 1766 1870 1980 1877
8 1984 1876 1987 2090 1872 1762 1875 1981
8 1765 1871 1983 1879 1880 1982 2091 1991
8 1985 1878 1764 1873 2092 1990 1879 1983
8 1985 1878 1988 2093 1873 1764 1876 1984
8 2094 1992 1881 1986 1998 1889 1776 1888
8 1986 1881 1992 2094 1877 1773 1886 1989
8 1988 1883 1993 2095 1876 1769 1882 1987
8 1878 1770 1884 1990 1988 1883 1994 2096
8 1991 1885 1772 1880 2097 1996 1886 1989
8 1879 1771 1885 1991 1990 1884 1995 2098
8 2103 1998 1888 1997 2000 1891 1779 1890
8 2104 1999 1889 1998 2001 1892 1780 1891
8 2003 1894 2001 2106 1893 1782 1891 2000
8 2004 1895 2002 2107 1894 1783 1892 2001
8 2006 1897 2004 2109 1896 1785 1894 2003
8 2007 1898 2005 2110 1897 1786 1895 2004
8 2014 1901 2007 2112 1904 1789 1897 2006
8 2011 1899 2008 2113 1901 1787 1898 2007
8 2119 2010 1899 2011 2013 1900 1787 1901
8 2016 1902 2012 2122 1903 1788 1900 2013
8 2017 1903 2013 2123 1904 1789 1901 2014
8 1906 1791 1905 2019 2016 1902 2015 2125
8 1907 1792 1906 2020 2017 1903 2016 2126
8 1909 1793 1908 2022 2019 1905 2018 2128
8 2020 1906 1794 1910 2129 2019 1909 2023
8 1912 1796 1911 2025 2022 1908 2021 2131
8 1913 1797 1912 2026 2023 1909 2022 2132
8 1915 1799 1914 2028 2025 1911 2024 2134
8 1916 1800 1915 2029 2026 1912 2025 2135
8 1918 1804 1919 2031 2028 1914 2027 2136
8 1917 1803 1918 2030 2029 1915 2028 2137
8 1920 1806 1921 2032 2030 1918 2031 2138
8 1940 1827 1941 2054 2035 1923 2033 2140
8 2035 1923 2034 2143 1939 1826 1924 2037
8 2037 1924 2036 2146 1926 1811 1925 2039
8 2051 1939 2037 2147 1944 1829 1926 2040
8 2039 1925 2038 2149 1928 1812 1927 2042
8 2040 1926 2039 2150 1929 1813 1928 2043
8 2042 1927 2041 2151 1931 1814 1930 2044
8 2043 1928 2042 2152 1932 1815 1931 2045
8 2045 1931 2044 2153 1934 1818 1933 2046
8 2155 2047 1936 2048 2086 1976 1864 1977
8 2063 1949 1833 1950 2155 2047 1936 2048
8 2156 2048 1937 2049 2087 1977 1865 1978
8 2064 1950 1834 1951 2156 2048 1937 2049
8 2051 1939 1829 1944 2160 2053 1946 2058
8 2052 1940 2035 2144 2160 2053 1939 2051
8 2053 1942 1831 1946 2163 2057 1948 2060
8 2055 1943 1827 1940 2163 2057 1942 2053
8 2055 1943 2056 2164 1940 1827 1941 2054
8 2059 1947 1849 1966 2167 2060 1965 2078
8 2059 1947 2060 2167 1945 1830 1946 2058
8 2077 1964 2061 2168 1965 1848 1948 2060
8 2070 1963 1847 1959 2170 2062 1949 2063
8 2065 1959 1843 1952 2171 2063 1950 2064
8 2173 2072 1958 2066 2065 1959 1843 1952
8 1953 1842 1958 2066 2067 1957 2071 2174
8 2068 1956 2069 2175 1967 1859 1973 2079
8 2067 1957 2069 2175 1955 1841 1956 2068
8 1845 1957 2069 1960 1961 2071 2176 2073
8 2069 1960 2073 2176 1973 1862 1975 2083
8 2070 1963 2075 2177 1959 1847 1962 2072
8 1846 1958 2071 1961 1962 2072 2178 2074
8 2077 1964 1861 1971 2182 2076 1974 2082
8 2081 1971 2077 2183 1969 1857 1965 2078
8 2079 1973 2083 2184 1968 1860 1972 2080
8 2081 1971 1858 1970 2185 2082 1972 2080
8 2083 1975 2084 2186 1972 1863 1974 2082
8 2086 1976 1882 1987 2189 2085 1993 2095
8 2090 1987 2086 2190 1981 1875 1977 2087
8 2191 2094 1986 2088 2103 1998 1888 1997
8 2088 1986 2094 2191 1980 1877 1989 2089
8 1991 2091 2192 2097 1880 1982 2089 1989
8 2093 1988 2095 2193 1984 1876 1987 2090
8 1879 1983 2092 1990 1991 2091 2194 2098
8 1985 1878 1990 2092 2093 1988 2096 2195
8 2097 1996 1886 1989 2196 2099 1992 2094
8 2196 2099 1992 2094 2104 1999 1889 1998
8 1994 2096 1988 1883 2100 2197 2095 1993
8 2096 1994 1884 1990 2198 2101 1995 2098
8 1995 2098 2199 2102 1885 1991 2097 1996
8 2203 2104 1998 2103 2106 2001 1891 2000
8 2107 2002 2105 2204 2001 1892 1999 2104
8 2109 2004 2107 2206 2003 1894 2001 2106
8 2110 2005 2108 2207 2004 1895 2002 2107
8 2112 2007 2110 2209 2006 1897 2004 2109
8 2113 2008 2111 2210 2007 1898 2005 2110
8 2120 2011 2113 2212 2014 1901 2007 2112
8 2117 2009 2114 2213 2011 1899 2008 2113
8 2219 2116 2009 2117 2119 2010 1899 2011
8 2222 2118 2010 2119 2122 2012 1900 2013
8 2223 2119 2011 2120 2123 2013 1901 2014
8 2016 1902 2015 2125 2122 2012 2121 2225
8 2126 2016 2122 2226 2017 1903 2013 2123
8 2019 1905 2018 2128 2125 2015 2124 2228
8 2020 1906 2019 2129 2126 2016 2125 2229
8 2022 1908 2021 2131 2128 2018 2127 2231
8 2023 1909 2022 2132 2129 2019 2128 2232
8 2025 1911 2024 2134 2131 2021 2130 2234
8 2026 1912 2025 2135 2132 2022 2131 2235
8 1914 2028 2134 2024 2027 2136 2236 2133
8 2029 1915 2028 2137 2135 2025 2134 2237
8 2030 1918 2031 2138 2137 2028 2136 2238
8 2157 2050 2139 2240 2054 1941 2033 2140
8 2052 1940 2054 2161 2144 2035 2140 2242
8 2140 2033 2141 2243 2035 1923 2034 2143
8 2143 2034 2142 2246 2037 1924 2036 2146
8 2144 2035 2143 2247 2051 1939 2037 2147
8 2146 2036 2145 2249 2039 1925 2038 2149
8 2147 2037 2146 2250 2040 1926 2039 2150
8 2149 2038 2148 2251 2042 1927 2041 2151
8 2150 2039 2149 2252 2043 1928 2042 2152
8 2152 2042 2151 2253 2045 1931 2044 2153
8 2255 2154 2047 2155 2189 2085 1976 2086
8 2170 2062 1949 2063 2255 2154 2047 2155
8 2256 2155 2048 2156 2190 2086 1977 2087
8 2171 2063 1950 2064 2256 2155 2048 2156
8 2258 2159 2050 2157 2164 2056 1941 2054
8 2160 2053 1946 2058 2262 2163 2060 2167
8 2162 2055 1940 2052 2262 2163 2053 2160
8 2162 2055 2164 2263 2052 1940 2054 2161
8 2163 2057 1948 2060 2264 2165 2061 2168
8 2055 1943 2057 2163 2164 2056 2165 2264
8 2182 2076 2166 2268 2077 1964 2061 2168
8 2183 2077 2168 2269 2078 1965 2060 2167
8 2070 1963 2062 2170 2177 2075 2169 2271
8 2172 2070 1959 2065 2272 2170 2063 2171
8 2172 2070 2177 2273 2065 1959 2072 2173
8 2066 1958 2072 2173 2174 2071 2178 2274
8 2067 1957 2071 2174 2175 2069 2176 2275
8 2175 2069 2176 2275 2079 1973 2083 2184
8 2071 1961 2074 2178 2176 2073 2179 2276
8 2176 2073 2179 2276 2083 1975 2084 2186
8 2072 1962 2075 2177 2178 2074 2180 2277
8 2182 2076 1974 2082 2280 2181 2084 2186
8 2183 2077 1971 2081 2281 2182 2082 2185
8 2184 2083 2186 2282 2080 1972 2082 2185
8 2189 2085 1993 2095 2285 2188 2100 2197
8 2190 2086 1987 2090 2286 2189 2095 2193
8 2192 2097 1989 2089 2287 2196 2094 2191
8 2287 2196 2094 2191 2203 2104 1998 2103
8 2194 2098 1991 2091 2288 2199 2097 2192
8 2195 2096 2197 2289 2093 1988 2095 2193
8 2096 2195 2290 2198 1990 2092 2194 2098
8 2097 1996 2099 2196 2199 2102 2200 2291
8 2196 2099 1999 2104 2291 2200 2105 2204
8 2100 2197 2292 2201 1994 2096 2198 2101
8 1995 2098 2198 2101 2102 2199 2293 2202
8 2206 2107 2204 2296 2106 2001 2104 2203
8 2207 2108 2205 2297 2107 2002 2105 2204
8 2209 2110 2207 2299 2109 2004 2107 2206
8 2210 2111 2208 2300 2110 2005 2108 2207
8 2212 2113 2210 2302 2112 2007 2110 2209
8 2213 2114 2211 2303 2113 2008 2111 2210
8 2220 2117 2213 2305 2120 2011 2113 2212
8 2216 2115 2214 2306 2117 2009 2114 2213
8 2216 2115 2009 2117 2311 2217 2116 2219
8 2219 2116 2010 2119 2314 2218 2118 2222
8 2315 2219 2117 2220 2223 2119 2011 2120
8 2122 2012 2121 2225 2222 2118 2221 2317
8 2318 2222 2119 2223 2226 2122 2013 2123
8 2125 2015 2124 2228 2225 2121 2224 2320
8 2126 2016 2125 2229 2226 2122 2225 2321
8 2128 2018 2127 2231 2228 2124 2227 2323
8 2129 2019 2128 2232 2229 2125 2228 2324
8 2131 2021 2130 2234 2231 2127 2230 2326
8 2132 2022 2131 2235 2232 2128 2231 2327
8 2134 2024 2133 2236 2234 2130 2233 2328
8 2135 2025 2134 2237 2235 2131 2234 2329
8 2137 2028 2136 2238 2237 2134 2236 2330
8 2157 2050 2158 2259 2240 2139 2239 2332
8 2257 2157 2240 2334 2161 2054 2140 2242
8 2240 2139 2241 2335 2140 2033 2141 2243
8 2242 2140 2243 2337 2144 2035 2143 2247
8 2243 2141 2244 2338 2143 2034 2142 2246
8 2246 2142 2245 2341 2146 2036 2145 2249
8 2247 2143 2246 2342 2147 2037 2146 2250
8 2249 2145 2248 2343 2149 2038 2148 2251
8 2250 2146 2249 2344 2150 2039 2149 2252
8 2252 2149 2251 2345 2152 2042 2151 2253
8 2169 2271 2347 2254 2062 2170 2255 2154
8 2189 2085 2188 2285 2255 2154 2254 2347
8 2348 2255 2155 2256 2286 2189 2086 2190
8 2272 2170 2063 2171 2348 2255 2155 2256
8 2349 2258 2157 2257 2263 2164 2054 2161
8 2258 2159 2261 2351 2157 2050 2158 2259
8 2258 2159 2056 2164 2351 2261 2165 2264
8 2262 2163 2060 2167 2355 2264 2168 2269
8 2162 2055 2163 2262 2263 2164 2264 2355
8 2357 2266 2165 2264 2268 2166 2061 2168
8 2268 2166 2076 2182 2361 2267 2181 2280
8 2281 2182 2268 2362 2183 2077 2168 2269
8 2271 2169 2270 2364 2177 2075 2180 2277
8 2172 2070 2170 2272 2273 2177 2271 2365
8 2072 2173 2274 2178 2177 2273 2366 2277
8 2071 2174 2275 2176 2178 2274 2367 2276
8 2275 2176 2276 2367 2184 2083 2186 2282
8 2283 2187 2084 2186 2368 2278 2179 2276
8 2178 2074 2180 2277 2276 2179 2278 2368
8 2283 2187 2279 2370 2186 2084 2181 2280
8 2281 2182 2082 2185 2371 2280 2186 2282
8 2188 2285 2374 2284 2100 2197 2292 2201
8 2286 2189 2095 2193 2375 2285 2197 2289
8 2192 2097 2196 2287 2288 2199 2291 2376
8 2287 2196 2104 2203 2376 2291 2204 2296
8 2194 2098 2199 2288 2290 2198 2293 2377
8 2289 2197 2096 2195 2378 2292 2198 2290
8 2291 2200 2105 2204 2379 2294 2205 2297
8 2199 2102 2200 2291 2293 2202 2294 2379
8 2198 2101 2202 2293 2292 2201 2295 2380
8 2299 2207 2297 2383 2206 2107 2204 2296
8 2300 2208 2298 2384 2207 2108 2205 2297
8 2302 2210 2300 2386 2209 2110 2207 2299
8 2303 2211 2301 2387 2210 2111 2208 2300
8 2305 2213 2303 2389 2212 2113 2210 2302
8 2306 2214 2304 2390 2213 2114 2211 2303
8 2310 2216 2306 2392 2220 2117 2213 2305
8 2308 2215 2307 2393 2216 2115 2214 2306
8 2308 2215 2115 2216 2396 2309 2217 2311
8 2310 2216 2117 2220 2398 2311 2219 2315
8 2311 2217 2116 2219 2399 2312 2218 2314
8 2314 2218 2118 2222 2402 2313 2221 2317
8 2315 2219 2119 2223 2403 2314 2222 2318
8 2225 2121 2224 2320 2317 2221 2316 2405
8 2226 2122 2225 2321 2318 2222 2317 2406
8 2228 2124 2227 2323 2320 2224 2319 2408
8 2229 2125 2228 2324 2321 2225 2320 2409
8 2231 2127 2230 2326 2323 2227 2322 2411
8 2232 2128 2231 2327 2324 2228 2323 2412
8 2234 2130 2233 2328 2326 2230 2325 2413
8 2235 2131 2234 2329 2327 2231 2326 2414
8 2237 2134 2236 2330 2329 2234 2328 2415
8 2259 2158 2260 2352 2332 2239 2331 2417
8 2257 2157 2259 2350 2334 2240 2332 2419
8 2240 2139 2239 2332 2335 2241 2333 2420
8 2334 2240 2335 2422 2242 2140 2243 2337
8 2335 2241 2336 2423 2243 2141 2244 2338
8 2337 2243 2338 2425 2247 2143 2246 2342
8 2338 2244 2339 2426 2246 2142 2245 2341
8 2341 2245 2340 2428 2249 2145 2248 2343
8 2342 2246 2341 2429 2250 2146 2249 2344
8 2344 2249 2343 2430 2252 2149 2251 2345
8 2188 2285 2347 2254 2284 2374 2432 2346
8 2347 2254 2346 2432 2271 2169 2270 2364
8 2365 2271 2170 2272 2433 2347 2255 2348
8 2286 2189 2285 2375 2348 2255 2347 2433
8 2349 2258 2351 2435 2257 2157 2259 2350
8 2349 2258 2164 2263 2435 2351 2264 2355
8 2259 2158 2261 2351 2352 2260 2354 2437
8 2356 2265 2354 2437 2264 2165 2261 2351
8 2441 2357 2264 2355 2362 2268 2168 2269
8 2356 2265 2165 2264 2442 2358 2266 2357
8 2443 2359 2266 2357 2361 2267 2166 2268
8 2370 2279 2360 2446 2280 2181 2267 2361
8 2362 2268 2182 2281 2447 2361 2280 2371
8 2180 2277 2368 2278 2270 2364 2449 2363
8 2271 2365 2273 2177 2364 2450 2366 2277
8 2372 2283 2186 2282 2451 2368 2276 2367
8 2178 2274 2367 2276 2277 2366 2451 2368
8 2283 2187 2278 2368 2370 2279 2369 2452
8 2372 2283 2370 2453 2282 2186 2280 2371
8 2284 2374 2455 2373 2201 2292 2380 2295
8 2375 2285 2197 2289 2456 2374 2292 2378
8 2376 2291 2204 2296 2457 2379 2297 2383
8 2288 2199 2291 2376 2377 2293 2379 2457
8 2198 2290 2378 2292 2293 2377 2458 2380
8 2293 2202 2294 2379 2380 2295 2381 2459
8 2384 2298 2381 2459 2297 2205 2294 2379
8 2386 2300 2384 2463 2299 2207 2297 2383
8 2387 2301 2385 2464 2300 2208 2298 2384
8 2389 2303 2387 2466 2302 2210 2300 2386
8 2390 2304 2388 2467 2303 2211 2301 2387
8 2392 2306 2390 2469 2305 2213 2303 2389
8 2393 2307 2391 2470 2306 2214 2304 2390
8 2395 2308 2393 2472 2310 2216 2306 2392
8 2308 2215 2309 2396 2393 2307 2394 2473
8 2395 2308 2216 2310 2475 2396 2311 2398
8 2396 2309 2217 2311 2476 2397 2312 2399
8 2398 2311 2219 2315 2478 2399 2314 2403
8 2399 2312 2218 2314 2479 2400 2313 2402
8 2317 2221 2316 2405 2402 2313 2401 2482
8 2403 2314 2222 2318 2483 2402 2317 2406
8 2320 2224 2319 2408 2405 2316 2404 2485
8 2321 2225 2320 2409 2406 2317 2405 2486
8 2323 2227 2322 2411 2408 2319 2407 2488
8 2324 2228 2323 2412 2409 2320 2408 2489
8 2326 2230 2325 2413 2411 2322 2410 2490
8 2327 2231 2326 2414 2412 2323 2411 2491
8 2329 2234 2328 2415 2414 2326 2413 2492
8 2417 2331 2260 2352 2494 2416 2353 2438
8 2350 2259 2352 2436 2419 2332 2417 2496
8 2332 2239 2331 2417 2420 2333 2418 2497
8 2334 2240 2332 2419 2422 2335 2420 2499
8 2420 2333 2421 2500 2335 2241 2336 2423
8 2422 2335 2423 2502 2337 2243 2338 2425
8 2423 2336 2424 2503 2338 2244 2339 2426
8 2425 2338 2426 2505 2342 2246 2341 2429
8 2426 2339 2427 2506 2341 2245 2340 2428
8 2429 2341 2428 2507 2344 2249 2343 2430
8 2432 2346 2284 2374 2509 2431 2373 2455
8 2432 2346 2431 2509 2364 2270 2363 2449
8 2375 2285 2374 2456 2433 2347 2432 2510
8 2347 2433 2365 2271 2432 2510 2450 2364
8 2350 2259 2351 2435 2436 2352 2437 2514
8 2440 2356 2437 2514 2355 2264 2351 2435
8 2352 2260 2354 2437 2438 2353 2439 2516
8 2356 2265 2358 2442 2437 2354 2439 2516
8 2440 2356 2264 2355 2518 2442 2357 2441
8 2519 2443 2357 2441 2447 2361 2268 2362
8 2443 2359 2444 2520 2357 2266 2358 2442
8 2443 2359 2267 2361 2520 2444 2360 2446
8 2446 2360 2279 2370 2523 2445 2369 2452
8 2453 2370 2446 2524 2371 2280 2361 2447
8 2449 2363 2448 2525 2368 2278 2369 2452
8 2366 2277 2364 2450 2451 2368 2449 2526
8 2372 2283 2368 2451 2453 2370 2452 2527
8 2455 2373 2295 2380 2529 2454 2382 2460
8 2456 2374 2292 2378 2530 2455 2380 2458
8 2377 2293 2379 2457 2458 2380 2459 2531
8 2463 2384 2459 2531 2383 2297 2379 2457
8 2533 2461 2382 2460 2459 2381 2295 2380
8 2464 2385 2461 2533 2384 2298 2381 2459
8 2466 2387 2464 2537 2386 2300 2384 2463
8 2467 2388 2465 2538 2387 2301 2385 2464
8 2469 2390 2467 2540 2389 2303 2387 2466
8 2470 2391 2468 2541 2390 2304 2388 2467
8 2472 2393 2470 2543 2392 2306 2390 2469
8 2393 2307 2394 2473 2470 2391 2471 2544
8 2395 2308 2396 2475 2472 2393 2473 2546
8 2396 2309 2397 2476 2473 2394 2474 2547
8 2475 2396 2311 2398 2549 2476 2399 2478
8 2476 2397 2312 2399 2550 2477 2400 2479
8 2478 2399 2314 2403 2552 2479 2402 2483
8 2479 2400 2313 2402 2553 2480 2401 2482
8 2405 2316 2404 2485 2482 2401 2481 2556
8 2406 2317 2405 2486 2483 2402 2482 2557
8 2408 2319 2407 2488 2485 2404 2484 2559
8 2409 2320 2408 2489 2486 2405 2485 2560
8 2411 2322 2410 2490 2488 2407 2487 2561
8 2412 2323 2411 2491 2489 2408 2488 2562
8 2414 2326 2413 2492 2491 2411 2490 2563
8 2513 2434 2493 2565 2438 2353 2416 2494
8 2496 2417 2352 2436 2567 2494 2438 2515
8 2494 2416 2495 2568 2417 2331 2418 2497
8 2419 2332 2417 2496 2499 2420 2497 2570
8 2497 2418 2498 2571 2420 2333 2421 2500
8 2499 2420 2500 2573 2422 2335 2423 2502
8 2500 2421 2501 2574 2423 2336 2424 2503
8 2502 2423 2503 2576 2425 2338 2426 2505
8 2503 2424 2504 2577 2426 2339 2427 2506
8 2505 2426 2506 2578 2429 2341 2428 2507
8 2509 2431 2373 2455 2580 2508 2454 2529
8 2509 2431 2508 2580 2449 2363 2448 2525
8 2432 2510 2581 2509 2374 2456 2530 2455
8 2432 2510 2450 2364 2509 2581 2526 2449
8 2583 2511 2434 2513 2516 2439 2353 2438
8 2436 2352 2437 2514 2515 2438 2516 2588
8 2440 2356 2442 2518 2514 2437 2516 2588
8 2442 2358 2444 2520 2516 2439 2517 2589
8 2519 2443 2520 2591 2441 2357 2442 2518
8 2519 2443 2361 2447 2591 2520 2446 2524
8 2446 2360 2445 2523 2520 2444 2521 2592
8 2525 2448 2522 2593 2452 2369 2445 2523
8 2524 2446 2370 2453 2594 2523 2452 2527
8 2526 2449 2525 2595 2451 2368 2452 2527
8 2534 2462 2528 2597 2460 2382 2454 2529
8 2530 2455 2380 2458 2598 2529 2460 2532
8 2599 2533 2460 2532 2531 2459 2380 2458
8 2537 2464 2533 2599 2463 2384 2459 2531
8 2534 2462 2382 2460 2601 2535 2461 2533
8 2538 2465 2535 2601 2464 2385 2461 2533
8 2540 2467 2538 2604 2466 2387 2464 2537
8 2541 2468 2539 2605 2467 2388 2465 2538
8 2543 2470 2541 2607 2469 2390 2467 2540
8 2470 2391 2471 2544 2541 2468 2542 2608
8 2472 2393 2473 2546 2543 2470 2544 2610
8 2473 2394 2474 2547 2544 2471 2545 2611
8 2475 2396 2476 2549 2546 2473 2547 2613
8 2476 2397 2477 2550 2547 2474 2548 2614
8 2549 2476 2399 2478 2616 2550 2479 2552
8 2479 2400 2480 2553 2550 2477 2551 2617
8 2552 2479 2402 2483 2619 2553 2482 2557
8 2482 2401 2481 2556 2553 2480 2554 2620
8 2485 2404 2484 2559 2556 2481 2555 2623
8 2486 2405 2485 2560 2557 2482 2556 2624
8 2488 2407 2487 2561 2559 2484 2558 2625
8 2489 2408 2488 2562 2560 2485 2559 2626
8 2491 2411 2490 2563 2562 2488 2561 2627
8 2513 2434 2512 2585 2565 2493 2564 2630
8 2586 2513 2565 2632 2515 2438 2494 2567
8 2565 2493 2566 2633 2494 2416 2495 2568
8 2567 2494 2568 2635 2496 2417 2497 2570
8 2568 2495 2569 2636 2497 2418 2498 2571
8 2570 2497 2571 2638 2499 2420 2500 2573
8 2571 2498 2572 2639 2500 2421 2501 2574
8 2573 2500 2574 2641 2502 2423 2503 2576
8 2574 2501 2575 2642 2503 2424 2504 2577
8 2576 2503 2577 2643 2505 2426 2506 2578
8 2597 2528 2579 2645 2529 2454 2508 2580
8 2580 2508 2579 2645 2525 2448 2522 2593
8 2581 2509 2455 2530 2646 2580 2529 2598
8 2581 2509 2580 2646 2526 2449 2525 2595
8 2583 2511 2582 2648 2513 2434 2512 2585
8 2583 2511 2439 2516 2648 2582 2517 2589
8 2649 2583 2513 2586 2588 2516 2438 2515
8 2589 2517 2444 2520 2653 2587 2521 2592
8 2518 2442 2520 2591 2588 2516 2589 2654
8 2593 2522 2590 2655 2523 2445 2521 2592
8 2524 2446 2523 2594 2591 2520 2592 2656
8 2595 2525 2593 2657 2527 2452 2523 2594
8 2602 2536 2596 2659 2534 2462 2528 2597
8 2600 2534 2597 2660 2532 2460 2529 2598
8 2600 2534 2460 2532 2661 2601 2533 2599
8 2604 2538 2601 2661 2537 2464 2533 2599
8 2602 2536 2462 2534 2663 2603 2535 2601
8 2601 2535 2465 2538 2663 2603 2539 2605
8 2607 2541 2605 2665 2540 2467 2538 2604
8 2608 2542 2606 2666 2541 2468 2539 2605
8 2543 2470 2544 2610 2607 2541 2608 2668
8 2544 2471 2545 2611 2608 2542 2609 2669
8 2546 2473 2547 2613 2610 2544 2611 2671
8 2547 2474 2548 2614 2611 2545 2612 2672
8 2549 2476 2550 2616 2613 2547 2614 2674
8 2550 2477 2551 2617 2614 2548 2615 2675
8 2552 2479 2553 2619 2616 2550 2617 2677
8 2553 2480 2554 2620 2617 2551 2618 2678
8 2557 2482 2556 2624 2619 2553 2620 2680
8 2556 2481 2555 2623 2620 2554 2621 2681
8 2559 2484 2558 2625 2623 2555 2622 2683
8 2560 2485 2559 2626 2624 2556 2623 2684
8 2562 2488 2561 2627 2626 2559 2625 2685
8 2690 2629 2564 2630 2650 2584 2512 2585
8 2586 2513 2585 2651 2632 2565 2630 2691
8 2630 2564 2631 2692 2565 2493 2566 2633
8 2632 2565 2633 2694 2567 2494 2568 2635
8 2633 2566 2634 2695 2568 2495 2569 2636
8 2635 2568 2636 2697 2570 2497 2571 2638
8 2636 2569 2637 2698 2571 2498 2572 2639
8 2638 2571 2639 2700 2573 2500 2574 2641
8 2639 2572 2640 2701 2574 2501 2575 2642
8 2641 2574 2642 2702 2576 2503 2577 2643
8 2597 2528 2596 2659 2645 2579 2644 2704
8 2645 2579 2644 2704 2593 2522 2590 2655
8 2660 2597 2645 2705 2598 2529 2580 2646
8 2646 2580 2645 2705 2595 2525 2593 2657
8 2650 2584 2512 2585 2707 2647 2582 2648
8 2648 2582 2517 2589 2707 2647 2587 2653
8 2649 2583 2648 2708 2586 2513 2585 2651
8 2649 2583 2516 2588 2708 2648 2589 2654
8 2655 2590 2652 2710 2592 2521 2587 2653
8 2654 2589 2520 2591 2711 2653 2592 2656
8 2657 2593 2655 2712 2594 2523 2592 2656
8 2602 2536 2603 2663 2659 2596 2658 2714
8 2662 2602 2659 2715 2600 2534 2597 2660
8 2662 2602 2534 2600 2717 2663 2601 2661
8 2661 2601 2538 2604 2717 2663 2605 2665
8 2666 2606 2664 2718 2605 2539 2603 2663
8 2668 2608 2666 2720 2607 2541 2605 2665
8 2608 2542 2609 2669 2666 2606 2667 2721
8 2610 2544 2611 2671 2668 2608 2669 2723
8 2611 2545 2612 2672 2669 2609 2670 2724
8 2613 2547 2614 2674 2671 2611 2672 2726
8 2614 2548 2615 2675 2672 2612 2673 2727
8 2616 2550 2617 2677 2674 2614 2675 2729
8 2617 2551 2618 2678 2675 2615 2676 2730
8 2619 2553 2620 2680 2677 2617 2678 2732
8 2620 2554 2621 2681 2678 2618 2679 2733
8 2624 2556 2623 2684 2680 2620 2681 2735
8 2681 2621 2555 2623 2736 2682 2622 2683
8 2626 2559 2625 2685 2684 2623 2683 2737
8 2688 2628 2584 2650 2740 2686 2647 2707
8 2688 2628 2687 2742 2650 2584 2629 2690
8 2690 2629 2689 2745 2630 2564 2631 2692
8 2746 2690 2630 2691 2709 2650 2585 2651
8 2691 2630 2692 2747 2632 2565 2633 2694
8 2692 2631 2693 2748 2633 2566 2634 2695
8 2694 2633 2695 2750 2635 2568 2636 2697
8 2695 2634 2696 2751 2636 2569 2637 2698
8 2697 2636 2698 2753 2638 2571 2639 2700
8 2698 2637 2699 2754 2639 2572 2640 2701
8 2700 2639 2701 2755 2641 2574 2642 2702
8 2659 2596 2658 2714 2704 2644 2703 2757
8 2704 2644 2703 2757 2655 2590 2652 2710
8 2660 2597 2659 2715 2705 2645 2704 2758
8 2705 2645 2704 2758 2657 2593 2655 2712
8 2759 2706 2647 2707 2710 2652 2587 2653
8 2709 2650 2585 2651 2760 2707 2648 2708
8 2708 2648 2589 2654 2760 2707 2653 2711
8 2712 2655 2710 2761 2656 2592 2653 2711
8 2763 2713 2658 2714 2718 2664 2603 2663
8 2662 2602 2663 2717 2715 2659 2714 2764
8 2720 2666 2718 2767 2665 2605 2663 2717
8 2768 2719 2664 2718 2721 2667 2606 2666
8 2668 2608 2669 2723 2720 2666 2721 2770
8 2669 2609 2670 2724 2721 2667 2722 2771
8 2671 2611 2672 2726 2723 2669 2724 2773
8 2672 2612 2673 2727 2724 2670 2725 2774
8 2674 2614 2675 2729 2726 2672 2727 2776
8 2675 2615 2676 2730 2727 2673 2728 2777
8 2677 2617 2678 2732 2729 2675 2730 2779
8 2678 2618 2679 2733 2730 2676 2731 2780
8 2680 2620 2681 2735 2732 2678 2733 2782
8 2733 2679 2621 2681 2783 2734 2682 2736
8 2735 2681 2623 2684 2784 2736 2683 2737
8 2740 2686 2647 2707 2787 2738 2706 2759
8 2688 2628 2686 2740 2742 2687 2739 2789
8 2743 2688 2650 2709 2790 2740 2707 2760
8 2742 2687 2741 2792 2690 2629 2689 2745
8 2743 2688 2742 2793 2709 2650 2690 2746
8 2745 2689 2744 2795 2692 2631 2693 2748
8 2746 2690 2745 2796 2691 2630 2692 2747
8 2747 2692 2748 2797 2694 2633 2695 2750
8 2748 2693 2749 2798 2695 2634 2696 2751
8 2750 2695 2751 2800 2697 2636 2698 2753
8 2751 2696 2752 2801 2698 2637 2699 2754
8 2753 2698 2754 2802 2700 2639 2701 2755
8 2763 2713 2756 2804 2714 2658 2703 2757
8 2759 2706 2652 2710 2804 2756 2703 2757
8 2715 2659 2714 2764 2758 2704 2757 2805
8 2758 2704 2757 2805 2712 2655 2710 2761
8 2806 2759 2707 2760 2761 2710 2653 2711
8 2765 2716 2762 2808 2718 2664 2713 2763
8 2809 2763 2714 2764 2767 2718 2663 2717
8 2765 2716 2664 2718 2811 2766 2719 2768
8 2813 2768 2718 2767 2770 2721 2666 2720
8 2814 2769 2719 2768 2771 2722 2667 2721
8 2723 2669 2724 2773 2770 2721 2771 2816
8 2724 2670 2725 2774 2771 2722 2772 2817
8 2726 2672 2727 2776 2773 2724 2774 2819
8 2727 2673 2728 2777 2774 2725 2775 2820
8 2729 2675 2730 2779 2776 2727 2777 2822
8 2730 2676 2731 2780 2777 2728 2778 2823
8 2732 2678 2733 2782 2779 2730 2780 2825
8 2780 2731 2679 2733 2826 2781 2734 2783
8 2782 2733 2681 2735 2827 2783 2736 2784
8 2830 2785 2738 2787 2804 2756 2706 2759
8 2789 2739 2686 2740 2832 2786 2738 2787
8 2790 2740 2707 2760 2833 2787 2759 2806
8 2742 2687 2739 2789 2792 2741 2788 2835
8 2743 2688 2740 2790 2793 2742 2789 2836
8 2792 2741 2791 2838 2745 2689 2744 2795
8 2793 2742 2792 2839 2746 2690 2745 2796
8 2795 2744 2794 2841 2748 2693 2749 2798
8 2796 2745 2795 2842 2747 2692 2748 2797
8 2797 2748 2798 2843 2750 2695 2751 2800
8 2798 2749 2799 2844 2751 2696 2752 2801
8 2800 2751 2801 2845 2753 2698 2754 2802
8 2808 2762 2803 2847 2763 2713 2756 2804
8 2809 2763 2804 2848 2764 2714 2757 2805
8 2806 2759 2710 2761 2848 2804 2757 2805
8 2765 2716 2766 2811 2808 2762 2807 2850
8 2810 2765 2808 2851 2767 2718 2763 2809
8 2810 2765 2718 2767 2852 2811 2768 2813
8 2811 2766 2719 2768 2853 2812 2769 2814
8 2855 2814 2768 2813 2816 2771 2721 2770
8 2856 2815 2769 2814 2817 2772 2722 2771
8 2773 2724 2774 2819 2816 2771 2817 2858
8 2774 2725 2775 2820 2817 2772 2818 2859
8 2776 2727 2777 2822 2819 2774 2820 2861
8 2777 2728 2778 2823 2820 2775 2821 2862
8 2779 2730 2780 2825 2822 2777 2823 2864
8 2823 2778 2731 2780 2865 2824 2781 2826
8 2825 2780 2733 2782 2866 2826 2783 2827
8 2869 2828 2785 2830 2847 2803 2756 2804
8 2871 2829 2786 2832 2830 2785 2738 2787
8 2872 2830 2787 2833 2848 2804 2759 2806
8 2789 2739 2786 2832 2835 2788 2831 2874
8 2836 2789 2740 2790 2875 2832 2787 2833
8 2792 2741 2788 2835 2838 2791 2834 2877
8 2793 2742 2789 2836 2839 2792 2835 2878
8 2838 2791 2837 2880 2795 2744 2794 2841
8 2839 2792 2838 2881 2796 2745 2795 2842
8 2841 2794 2840 2882 2798 2749 2799 2844
8 2842 2795 2841 2883 2797 2748 2798 2843
8 2843 2798 2844 2884 2800 2751 2801 2845
8 2886 2846 2803 2847 2850 2807 2762 2808
8 2851 2808 2847 2887 2809 2763 2804 2848
8 2850 2807 2766 2811 2889 2849 2812 2853
8 2810 2765 2811 2852 2851 2808 2850 2890
8 2852 2811 2768 2813 2891 2853 2814 2855
8 2853 2812 2769 2814 2892 2854 2815 2856
8 2894 2856 2814 2855 2858 2817 2771 2816
8 2817 2772 2818 2859 2856 2815 2857 2895
8 2819 2774 2820 2861 2858 2817 2859 2897
8 2820 2775 2821 2862 2859 2818 2860 2898
8 2822 2777 2823 2864 2861 2820 2862 2900
8 2823 2778 2824 2865 2862 2821 2863 2901
8 2864 2823 2780 2825 2902 2865 2826 2866
8 2904 2867 2828 2869 2886 2846 2803 2847
8 2869 2828 2868 2906 2830 2785 2829 2871
8 2907 2869 2830 2872 2887 2847 2804 2848
8 2871 2829 2870 2909 2832 2786 2831 2874
8 2910 2871 2832 2875 2872 2830 2787 2833
8 2835 2788 2831 2874 2877 2834 2873 2912
8 2836 2789 2832 2875 2878 2835 2874 2913
8 2877 2834 2876 2915 2838 2791 2837 2880
8 2839 2792 2835 2878 2881 2838 2877 2916
8 2880 2837 2879 2917 2841 2794 2840 2882
8 2881 2838 2880 2918 2842 2795 2841 2883
8 2883 2841 2882 2919 2843 2798 2844 2884
8 2921 2885 2846 2886 2889 2849 2807 2850
8 2922 2886 2847 2887 2890 2850 2808 2851
8 2889 2849 2812 2853 2924 2888 2854 2892
8 2890 2850 2811 2852 2925 2889 2853 2891
8 2891 2853 2814 2855 2926 2892 2856 2894
8 2892 2854 2815 2856 2927 2893 2857 2895
8 2858 2817 2859 2897 2894 2856 2895 2929
8 2859 2818 2860 2898 2895 2857 2896 2930
8 2861 2820 2862 2900 2897 2859 2898 2932
8 2862 2821 2863 2901 2898 2860 2899 2933
8 2864 2823 2865 2902 2900 2862 2901 2934
8 2904 2867 2846 2886 2936 2903 2885 2921
8 2904 2867 2903 2936 2869 2828 2868 2906
8 2937 2904 2869 2907 2922 2886 2847 2887
8 2906 2868 2905 2939 2871 2829 2870 2909
8 2907 2869 2906 2940 2872 2830 2871 2910
8 2909 2870 2908 2942 2874 2831 2873 2912
8 2910 2871 2909 2943 2875 2832 2874 2913
8 2912 2873 2911 2945 2877 2834 2876 2915
8 2878 2835 2874 2913 2916 2877 2912 2946
8 2915 2876 2914 2947 2880 2837 2879 2917
8 2916 2877 2915 2948 2881 2838 2880 2918
8 2918 2880 2917 2949 2883 2841 2882 2919
8 2921 2885 2849 2889 2951 2920 2888 2924
8 2952 2921 2886 2922 2925 2889 2850 2890
8 2924 2888 2854 2892 2954 2923 2893 2927
8 2925 2889 2853 2891 2955 2924 2892 2926
8 2926 2892 2856 2894 2956 2927 2895 2929
8 2895 2857 2896 2930 2927 2893 2928 2957
8 2897 2859 2898 2932 2929 2895 2930 2959
8 2898 2860 2899 2933 2930 2896 2931 2960
8 2900 2862 2901 2934 2932 2898 2933 2961
8 2936 2903 2885 2921 2963 2935 2920 2951
8 2936 2903 2935 2963 2906 2868 2905 2939
8 2937 2904 2886 2922 2964 2936 2921 2952
8 2937 2904 2936 2964 2907 2869 2906 2940
8 2939 2905 2938 2966 2909 2870 2908 2942
8 2940 2906 2939 2967 2910 2871 2909 2943
8 2942 2908 2941 2969 2912 2873 2911 2945
8 2943 2909 2942 2970 2913 2874 2912 2946
8 2945 2911 2944 2971 2915 2876 2914 2947
8 2946 2912 2945 2972 2916 2877 2915 2948
8 2948 2915 2947 2973 2918 2880 2917 2949
8 2951 2920 2888 2924 2975 2950 2923 2954
8 2952 2921 2889 2925 2976 2951 2924 2955
8 2927 2893 2928 2957 2954 2923 2953 2978
8 2955 2924 2892 2926 2979 2954 2927 2956
8 2929 2895 2930 2959 2956 2927 2957 2980
8 2930 2896 2931 2960 2957 2928 2958 2981
8 2932 2898 2933 2961 2959 2930 2960 2982
8 2951 2920 2950 2975 2963 2935 2962 2984
8 2963 2935 2962 2984 2939 2905 2938 2966
8 2964 2936 2921 2952 2985 2963 2951 2976
8 2964 2936 2963 2985 2940 2906 2939 2967
8 2966 2938 2965 2987 2942 2908 2941 2969
8 2967 2939 2966 2988 2943 2909 2942 2970
8 2969 2941 2968 2989 2945 2911 2944 2971
8 2970 2942 2969 2990 2946 2912 2945 2972
8 2972 2945 2971 2991 2948 2915 2947 2973
8 2954 2923 2953 2978 2975 2950 2974 2993
8 2976 2951 2924 2955 2994 2975 2954 2979
8 2957 2928 2958 2981 2978 2953 2977 2995
8 2956 2927 2957 2980 2979 2954 2978 2996
8 2959 2930 2960 2982 2980 2957 2981 2997
8 2984 2962 2983 2999 2966 2938 2965 2987
8 2975 2950 2974 2993 2984 2962 2983 2999
8 2976 2951 2975 2994 2985 2963 2984 3000
8 2985 2963 2984 3000 2967 2939 2966 2988
8 2987 2965 2986 3001 2969 2941 2968 2989
8 2988 2966 2987 3002 2970 2942 2969 2990
8 2990 2969 2989 3003 2972 2945 2971 2991
8 2978 2953 2977 2995 2993 2974 2992 3004
8 2979 2954 2978 2996 2994 2975 2993 3005
8 2980 2957 2981 2997 2996 2978 2995 3006
8 2974 2993 2999 2983 2992 3004 3007 2998
8 2983 2999 2987 2965 2998 3007 3001 2986
8 3000 2984 2999 3008 2988 2966 2987 3002
8 2994 2975 2993 3005 3000 2984 2999 3008
8 3002 2987 3001 3009 2990 2969 2989 3003
8 2996 2978 2995 3006 3005 2993 3004 3010
8 3005 2993 3004 3010 3008 2999 3007 3011
8 3008 2999 3007 3011 3002 2987 3001 3009

CELL_TYPES 1910
12
12
12
12
12
12
12
12
12
12
12
12
12
12
12
12
12
12
12
12
12
12
12
12
12
12
12
12
12
12
12
12
12
12
12
12
12
12
12
12
12
12
12
12
12
12
12
12
12
12
12
12
12
12
12
12
12
12
12
12
12
12
12
12
12
12
12
12
12
12
12
12
12
12
12
12
12
12
12
12
12
12
12
12
12
12
12
12
12
12
12
12
12
12
12
12
12
12
12
12
12
12
12
12
12
12
12
12
12
12
12
12
12
12
12
12
12
12
12
12
12
12
12
12
12
12
12
12
12
12
12
12
12
12
12
12
12
12
12
12
12
12
12
12
12
12
12
12
12
12
12
12
12
12
12
12
12
12
12
12
12
12
12
12
12
12
12
12
12
12
12
12
12
12
12
12
12
12
12
12
12
12
12
12
12
12
12
12
12
12
12
12
12
12
12
12
12
12
12
12
12
12
12
12
12
12
12
12
12
12
12
12
12
12
12
12
12
12
12
12
12
12
12
12
12
12
12
12
12
12
12
12
12
12
12
12
12
12
12
12
12
12
12
12
12
12
12
12
12
12
12
12
12
12
12
12
12
12
12
12
12
12
12
12
12
12
12
12
12
12
12
12
12
12
12
12
12
12
12
12
12
12
12
12
12
12
12
12
12
12
12
12
12
12
12
12
12
12
12
12
12
12
12
12
12
12
12
12
12
12
12
12
12
12
12
12
12
12
12
12
12
12
12
12
12
12
12
12
12
12
12
12
12
12
12
12
12
12
12
12
12
12
12
12
12
12
12
12
12
12
12
12
12
12
12
12
12
12
12
12
12
12
12
12
12
12
12
12
12
12
12
12
12
12
12
12
12
12
12
12
12
12
12
12
12
12
12
12
12
12
12
12
12
12
12
12
12
12
12
12
12
12
12
12
12
12
12
12
12
12
12
12
12
12
12
12
12
12
12
12
12
12
12
12
12
12
12
12
12
12
12
12
12
12
12
12
12
12
12
12
12
12
12
12
12
12
12
12
12
12
12
12
12
12
12
12
12
12
12
12
12
12
12
12
12
12
12
12
12
12
12
12
12
12
12
12
12
12
12
12
12
12
12
12
12
12
12
12
12
12
12
12
12
12
12
12
12
12
12
12
12
12
12
12
12
12
12
12
12
12
12
12
12
12
12
12
12
12
12
12
12
12
12
12
12
12
12
12
12
12
12
12
12
12
12
12
12
12
12
12
12
12
12
12
12
12
12
12
12
12
12
12
12
12
12
12
12
12
12
12
12
12
12
12
12
12
12
12
12
12
12
12
12
12
12
12
12
12
12
12
12
12
12
12
12
12
12
12
12
12
12
12
12
12
12
12
12
12
12
12
12
12
12
12
12
12
12
12
12
12
12
12
12
12
12
12
12
12
12
12
12
12
12
12
12
12
12
12
12
12
12
12
12
12
12
12
12
12
12
12
12
12
12
12
12
12
12
12
12
12
12
12
12
12
12
12
12
12
12
12
12
12
12
12
12
12
12
12
12
12
12
12
12
12
12
12
12
12
12
12
12
12
12
12
12
12
12
12
12
12
12
12
12
12
12
12
12
12
12
12
12
12
12
12
12
12
12
12
12
12
12
12
12
12
12
12
12
12
12
12
12
12
12
12
12
12
12
12
12
12
12
12
12
12
12
12
12
12
12
12
12
12
12
12
12
12
12
12
12
12
12
12
12
12
12
12
12
12
12
12
12
12
12
12
12
12
12
12
12
12
12
12
12
12
12
12
12
12
12
12
12
12
12
12
12
12
12
12
12
12
12
12
12
12
12
12
12
12
12
12
12
12
12
12
12
12
12
12
12
12
12
12
12
12
12
12
12
12
12
12
12
12
12
12
12
12
12
12
12
12
12
12
12
12
12
12
12
12
12
12
12
12
12
12
12
12
12
12
12
12
12
12
12
12
12
12
12
12
12
12
12
12
12
12
12
12
12
12
12
12
12
12
12
12
12
12
12
12
12
12
12
12
12
12
12
12
12
12
12
12
12
12
12
12
12
12
12
12
12
12
12
12
12
12
12
12
12
12
12
12
12
12
12
12
12
12
12
12
12
12
12
12
12
12
12
12
12
12
12
12
12
12
12
12
12
12
12
12
12
12
12
12
12
12
12
12
12
12
12
12
12
12
12
12
12
12
12
12
12
12
12
12
12
12
12
12
12
12
12
12
12
12
12
12
12
12
12
12
12
12
12
12
12
12
12
12
12
12
12
12
12
12
12
12
12
12
12
12
12
12
12
12
12
12
12
12
12
12
12
12
12
12
12
12
12
12
12
12
12
12
12
12
12
12
12
12
12
12
12
12
12
12
12
12
12
12
12
12
12
12
12
12
12
12
12
12
12
12
12
12
12
12
12
12
12
12
12
12
12
12
12
12
12
12
12
12
12
12
12
12
12
12
12
12
12
12
12
12
12
12
12
12
12
12
12
12
12
12
12
12
12
12
12
12
12
12
12
12
12
12
12
12
12
12
12
12
12
12
12
12
12
12
12
12
12
12
12
12
12
12
12
12
12
12
12
12
12
12
12
12
12
12
12
12
12
12
12
12
12
12
12
12
12
12
12
12
12
12
12
12
12
12
12
12
12
12
12
12
12
12
12
12
12
12
12
12
12
12
12
12
12
12
12
12
12
12
12
12
12
12
12
12
12
12
12
12
12
12
12
12
12
12
12
12
12
12
12
12
12
12
12
12
12
12
12
12
12
12
12
12
12
12
12
12
12
12
12
12
12
12
12
12
12
12
12
12
12
12
12
12
12
12
12
12
12
12
12
12
12
12
12
12
12
12
12
12
12
12
12
12
12
12
12
12
12
12
12
12
12
12
12
12
12
12
12
12
12
12
12
12
12
12
12
12
12
12
12
12
12
12
12
12
12
12
12
12
12
12
12
12
12
12
12
12
12
12
12
12
12
12
12
12
12
12
12
12
12
12
12
12
12
12
12
12
12
12
12
12
12
12
12
12
12
12
12
12
12
12
12
12
12
12
12
12
12
12
12
12
12
12
12
12
12
12
12
12
12
12
12
12
12
12
12
12
12
12
12
12
12
12
12
12
12
12
12
12
12
12
12
12
12
12
12
12
12
12
12
12
12
12
12
12
12
12
12
12
12
12
12
12
12
12
12
12
12
12
12
12
12
12
12
12
12
12
12
12
12
12
12
12
12
12
12
12
12
12
12
12
12
12
12
12
12
12
12
12
12
12
12
12
12
12
12
12
12
12
12
12
12
12
12
12
12
12
12
12
12
12
12
12
12
12
12
12
12
12
12
12
12
12
12
12
12
12
12
12
12
12
12
12
12
12
12
12
12
12
12
12
12
12
12
12
12
12
12
12
12
12
12
12
12
12
12
12
12
12
12
12
12
12
12
12
12
12
12
12
12
12
12
12
12
12
12
12
12
12
12
12
12
12
12
12
12
12
12
12
12
12
12
12
12
12
12
12
12
12
12
12
12
12
12
12
12
12
12
12
12
12
12
12
12
12
12
12
12
12
12
12
12
12
12
12
12
12
12
12
12
12
12
12
12
12
12
12
12
12
12
12
12
12
12
12
12
12
12
12
12
12
12
12
12
12
12
12
12
12
12
12
12
12
12
12
12
12
12
12
12
12
12
12
12
12
12
12
12
12
12
12
12
12
12
12
12
12
12
12
12
12
12
12
12
12
12
12
12
12
12
12
12
12
12
12
12
12
12
12
12
12
12
12
12
12
12
12
12
12
12
12
12
12
12
12
12
12
12
12
12
12
12
12
12
12
12
12
12
12
12
12
12
12
12
12
12
12
12
12
12
12
12
12
12
12
12
12
12
12
12
12
12
12
12
12
12
12
12
12
12
12
12
12
12
12
12
12
12
12
12
12
12
12
12
12
12
12
12
12
12
12
12
12
12
12
12
12
12
12
12
12
12
12
12
12
12
12
12
12
12
12
12
12
12
12
12
12
12
12
12
12
12
12
12
12
12
12
12
12
12
12
12
12
12
12
12
12
12
12
12
12
12
12
12
12
12
12
12
12
12
12
12
12
12
12
12
12
12
12
12
12
12
12
12
12
12
12
12
12
12
12
12
12
12
12
12
12
12
12
12
12
12
12
12
12
12
12
12
12
12
12
12
12
12
12
12
12
12
12
12
12
12
12
12
12
12
12
12
12
12
12
12
12
12
12
12
12
12
12
12
12
12
12
12
12
12
12
12
12
12
12
12
12
12
12
12
12
12
12
12
12
12
12
12
12
12
12
12
12
12
12
12
12
12
12
12
12
12
12
12
12
12
12
12
12
12
12
12
12
12
12
12
12

POINT_DATA 3012
SCALARS Jp_lamdaP float 4
LOOKUP_TABLE default
0.999323 1 1 0.999323
1 1 1 1
0.999345 1 1 0.999345
0.999269 1 1 0.999269
0.999326 1 1 0.999326
0.999289 1 1 0.999289
1.01973 1.02168 1 0.998092
1 1 1 1
1 1 1 1
1 1 1 1
0.999349 1 1 0.999349
1.01557 1.01758 1 0.998019
0.999345 1 1 0.999345
0.999315 1 1 0.999315
0.999355 1 1 0.999355
0.999313 1 1 0.999313
0.999303 1 1 0.999303
0.999359 1 1 0.999359
1.01956 1.02152 1 0.998086
1 1 1 1
0.999265 1 1 0.999265
0.999301 1 1 0.999301
1.0118 1.0138 1 0.998027
1.01693 1.01887 1 0.998097
0.999272 1 1 0.999272
1.02084 1.02283 1 0.998058
1.05431 1.05823 1 0.996299
1 1 1 1
0.999669 1 1 0.999669
0.999679 1 1 0.999679
1 1 1 1
1.0133 1.0153 1 0.998027
0.999329 1 1 0.999329
0.999356 1 1 0.999356
1.01788 1.01958 1 0.998336
1 1 1 1
1.01953 1.02118 1 0.99838
1.00761 1.0094 1.00017 0.99805
1.03935 1.0434 1 0.996117
1 1 1 1
1 1 1 1
0.999662 1 1 0.999662
1 1 1 1
0.999343 1 1 0.999343
1.00273 1.00479 1 0.997942
1 1 1 1
1.00881 1.01056 1 0.998267
0.99935 1 1 0.99935
0.999384 1 1 0.999384
0.999309 1 1 0.999309
1.0195 1.02145 1 0.998086
0.999645 1 1 0.999645
0.999303 1 1 0.999303
0.999285 1 1 0.999285
0.999341 1 1 0.999341
1.01153 1.01354 1 0.998014
1.02077 1.02276 1 0.998055
1.01673 1.01868 1 0.99809
1.05512 1.05905 1 0.996296
1 1 1 1
0.999292 1 1 0.999292
1.00375 1.00538 1 0.998379
1.00891 1.01091 1 0.998023
1.0142 1.01617 1 0.998065
1.05295 1.05695 1 0.996216
1.0549 1.05885 1 0.996267
0.999281 1 1 0.999281
1.01132 1.01327 1 0.998078
1.0533 1.05721 1 0.996296
1.07396 1.07878 1 0.995536
1 1 1 1
1 1 1 1
1 1 1 1
1.01116 1.01316 1 0.998033
1 1 1 1
1 1 1 1
1.01798 1.02004 1 0.997984
0.999728 1 1 0.999728
1.01862 1.02061 1 0.998047
1.00587 1.0071 1.00049 0.998295
1.04317 1.04725 1 0.996111
1 1 1 1
1.00444 1 1.00527 0.999177
1.01554 1.01768 1 0.9979
1.01891 1.02095 1 0.998
1.06003 1.06438 1 0.995907
1.00279 1.00252 1.00156 0.998719
1.05217 1.0563 1 0.996093
1.03222 1.03539 1.00068 0.996259
1.06834 1.07326 1 0.995414
1 1 1 1
1 1 1 1
1 1 1 1
1 1 1 1
1 1 1 1
0.999674 1 1 0.999674
1.00355 1.00541 1 0.998149
0.999656 1 1 0.999656
1.00999 1.01192 1 0.998093
1 1 1 1
1.00167 1.00368 1 0.998
1.0054 1.00712 1 0.998295
1.05154 1.05579 1 0.995974
1.01299 1.01472 1 0.998292
1.05867 1.063 1 0.995935
0.99937 1 1 0.99937
0.999338 1 1 0.999338
0.999294 1 1 0.999294
0.999376 1 1 0.999376
1.01126 1.01328 1 0.998005
1.01654 1.01849 1 0.998086
1.02033 1.02231 1 0.998056
1.05629 1.06022 1 0.996292
1 1 1 1
0.999327 1 1 0.999327
1.00328 1.00523 1 0.998053
1.00859 1.0106 1 0.998007
0.999648 1 1 0.999648
1.01308 1.01481 1.0001 0.998196
1.01398 1.01595 1 0.998056
1.05343 1.05743 1 0.996217
1.0531 1.05702 1 0.996292
1.0558 1.05975 1 0.996272
1.07321 1.07801 1 0.995546
1.0025 1.00449 1 0.998021
1.00593 1.00789 1 0.998056
1.04838 1.05244 0.999811 0.996327
1.05089 1.05485 1 0.996246
1.05418 1.05816 1 0.996246
1.08667 1.09238 0.998961 0.995809
1 1 1 1
1.07919 1.08392 1 0.995637
1.00229 1.00333 1.00085 0.998116
1.04523 1.04932 1 0.996106
1.06965 1.07456 1 0.99543
1.07599 1.08107 0.999565 0.995737
1.00259 1 1.0039 0.998686
1.01136 1.00189 1.01226 0.997231
1 1 1 1
1 1 1 1
1.01837 1.02043 1 0.997987
1 1 1 1
1.00372 1.00467 1.0009 0.998155
1.01822 1.0202 1 0.998053
1.04648 1.05058 1 0.996105
1 1 1 1
1.00498 1 1.00579 0.999201
1.0164 1.01833 1 0.998105
1.01939 1.02124 1 0.998189
1.05914 1.0635 1 0.995903
1.00231 1.00168 1.00213 0.998498
1.05179 1.05592 1 0.996092
1.03264 1.03599 1.00051 0.996254
1.06752 1.07242 1 0.995434
1.00295 1.00027 1.00384 0.998846
1.00625 1 1.00681 0.999443
1.01279 1.00361 1.01149 0.997679
1.06002 1.06442 1 0.995872
1.05904 1.06329 1 0.995999
1.08358 1.08847 0.999942 0.995567
1.02418 1.02509 1.00245 0.996667
1.06803 1.07275 1 0.995601
1.05662 1.06077 1.0007 0.995384
1.07693 1.08184 1 0.995464
1 1 1 1
1 1 1 1
1 1 1 1
1.00395 1 1.00501 0.998949
1 1 1 1
1 1 1 1
1 1 1 1
1.01096 1.01306 1 0.997927
1.00397 1.00599 1 0.997986
1 1 1 1
1 1 1 1
1.00188 1.00389 1 0.998
1.00618 1.00807 1 0.998124
1.05106 1.05531 1 0.995976
1.01349 1.01562 1 0.997912
1.05672 1.06104 1 0.995933
1.00165 1.00365 1 0.998007
1.0489 1.05315 1 0.99596
1.05494 1.05921 1 0.995973
1.08599 1.09345 0.997156 0.99601
1.05988 1.06426 1 0.995889
1.08591 1.0927 0.997856 0.995925
1 1 1 1
0.999364 1 1 0.999364
1.00274 1.00507 1 0.997684
1.00829 1.01032 1 0.997993
1 1 1 1
1.015 1.01671 1 0.998317
1.01376 1.01574 1 0.99805
1.05383 1.05784 1 0.996217
1.05679 1.06074 1 0.996276
1.05222 1.05613 1 0.996289
1.0718 1.07658 1 0.995557
1.0022 1.00419 1 0.998019
1.00568 1.00766 1 0.998042
1.0489 1.0532 0.999751 0.996173
1.05189 1.05587 1 0.99623
1 1 1 1
1.00518 1.00649 1.00042 0.998274
1.04221 1.04588 1.00025 0.996233
1.0547 1.05869 1 0.996235
1.08488 1.09131 0.99825 0.995847
1.06929 1.07419 1 0.995434
1.07929 1.084 1 0.995658
1.07561 1.08072 0.99952 0.995745
1.00226 1.00018 1.00341 0.998672
1.01106 1.00357 1.01027 0.997225
1.04765 1.05189 1 0.995974
1.04996 1.05411 0.999765 0.996298
1.08558 1.09212 0.99804 0.995966
1.08556 1.09272 0.99751 0.995926
1.0818 1.08822 0.998303 0.99579
1.07877 1.09045 0.993121 0.996146
1.00143 1.00079 1.00225 0.998389
1.07685 1.0842 0.997243 0.995963
1.03451 1.03783 1.0005 0.996297
1.06786 1.07286 1 0.99534
1.07612 1.08102 1 0.995472
1.07153 1.08046 0.995603 0.996112
1.01142 1.00848 1.0061 0.996829
1.01086 1.00025 1.0129 0.997728
1.01449 1.01094 1.00715 0.996382
1.01685 1.01894 1 0.99794
1 1 1 1
1.00503 1 1.0058 0.999225
1.01939 1.02139 1 0.998038
1.05843 1.06279 1 0.995899
1.00204 1.00095 1.0026 0.998496
1.0343 1.03785 1.00032 0.99625
1.05101 1.05514 1 0.996091
1.06804 1.07292 1 0.995454
1.00324 1.00018 1.0042 0.998871
1.00555 1 1.00609 0.999461
1.01107 1.00189 1.01151 0.99768
1.05898 1.06338 1 0.995866
1.05746 1.06171 1 0.995998
1.08343 1.08829 0.999968 0.995561
1.02002 1.02138 1.00201 0.996668
1.0694 1.07414 1 0.995591
1.06101 1.0653 1.00061 0.995369
1.07735 1.08223 1 0.995494
1.00479 1 1.00517 0.999626
1.01476 1.01098 1.0066 0.997155
1.01372 1.00046 1.01513 0.998151
1.01435 1.01134 1.00594 0.997052
1.08542 1.09102 0.999197 0.995661
1.07663 1.08143 1 0.99556
1.07989 1.08797 0.99679 0.995762
1.03745 1.03823 1.00357 0.99569
1.07177 1.07645 0.999867 0.995791
1.06613 1.06953 1.00158 0.995244
1.0902 1.09505 1 0.995569
1.00175 1 1.00258 0.999176
1.00024 1 1.00041 0.999828
1 1 1 1
1 1 1 1
1 1 1 1
1.00441 1 1.00516 0.999247
1 1 1 1
1.00416 1 1.00524 0.998926
1 1 1 1
1.01456 1.01668 1 0.997913
1.00707 1.00913 1 0.99796
1.05523 1.05954 1 0.995931
1.05063 1.05488 1 0.995977
1.00214 1.00415 1 0.998002
1 1 1 1
1.00162 1.00362 1 0.998007
1.04889 1.05315 1 0.995962
1.05407 1.05833 1 0.995973
1.08592 1.09334 0.997193 0.996009
1.05853 1.06291 1 0.995883
1.08729 1.09402 0.997917 0.995923
1.04753 1.05178 1 0.995961
1.08576 1.09312 0.997261 0.995991
1.08641 1.0935 0.997509 0.995994
1.07375 1.08642 0.991923 0.996383
1.08572 1.09218 0.998277 0.995802
1.07743 1.09064 0.991612 0.996248
1.00197 1.00396 1 0.998018
1.00543 1.00742 1 0.998026
1.04942 1.05398 0.99966 0.99602
1.05294 1.05694 1 0.996214
1 1 1 1
1.00795 1.00927 1.00026 0.998439
1.03976 1.04324 1.00031 0.996359
1.05521 1.05921 1 0.996225
1.08319 1.09037 0.997519 0.995885
1.07927 1.08396 1 0.995679
1.0703 1.07521 1 0.995438
1.07565 1.08079 0.999484 0.995753
1.00218 1.00043 1.0031 0.998658
1.0122 1.00543 1.00954 0.99722
1.04792 1.05225 0.99989 0.995993
1.05067 1.05472 0.999869 0.996292
1.08487 1.0918 0.997649 0.995995
1.08537 1.09199 0.998047 0.995885
1.00153 1.0014 1.00175 0.998375
1.03274 1.03602 1.00054 0.996298
1.07044 1.07544 1 0.995346
1.08264 1.08838 0.998964 0.995761
1.07843 1.0909 0.992336 0.9962
1.07567 1.08055 1 0.995486
1.07654 1.084 0.997138 0.995965
1.0717 1.08071 0.99555 0.996095
1.01447 1.01165 1.00598 0.996826
1.0151 1.00969 1.00901 0.996378
1.01287 1.00042 1.01475 0.997732
1.08561 1.09216 0.998036 0.995956
1.0856 1.09285 0.997369 0.995978
1.0736 1.0847 0.993435 0.996312
1.07668 1.09005 0.991464 0.996239
1.07657 1.08801 0.993328 0.996128
1.0701 1.08878 0.986296 0.9965
1.01866 1.02081 1.00133 0.996558
1.06723 1.08375 0.988409 0.996306
1.06138 1.06622 1 0.995461
1.07198 1.07722 1 0.99514
1.0705 1.07565 0.999586 0.99563
1.06278 1.07792 0.989528 0.996386
1.01606 1.00293 1.01503 0.998088
1.02501 1.02259 1.00635 0.996041
1.01405 1.00111 1.01616 0.99682
1.02302 1.01768 1.00935 0.995933
1.05803 1.06243 1 0.99586
1.00533 1 1.00585 0.999479
1.00362 1 1.00473 0.998898
1.01149 1.00076 1.01307 0.997679
1.05622 1.06046 1 0.995997
1.08319 1.08803 1 0.995556
1.01381 1.01568 1.0015 0.99667
1.06169 1.06616 1.00046 0.995353
1.0708 1.07555 1 0.995582
1.07564 1.08047 1 0.995523
1.00398 1 1.00434 0.99964
1.01145 1.00721 1.00706 0.997169
1.01467 1.00061 1.01593 0.998149
1.01254 1.00862 1.00685 0.997054
1.08575 1.09123 0.999321 0.995654
1.07727 1.08208 1 0.995557
1.07968 1.08775 0.996802 0.995762
1.03663 1.03724 1.00375 0.995686
1.07073 1.07546 0.99985 0.995757
1.06221 1.06546 1.00173 0.99523
1.0899 1.09463 1 0.995682
1.00171 1 1.00196 0.999742
1.01182 1 1.01333 0.998506
1.01978 1.01903 1.00438 0.996377
1.01751 1.00542 1.01465 0.997408
1.01225 1.01158 1.00382 0.996846
1.07912 1.09151 0.99271 0.995906
1.07606 1.08145 0.999279 0.995735
1.07045 1.08414 0.991386 0.995955
1.03244 1.03426 1.00291 0.995341
1.07592 1.08185 0.998629 0.995886
1.05225 1.05643 1.00086 0.995193
1.00319 1 1.00419 0.999008
1.00657 1 1.00815 0.998434
0.999661 1 1.00034 0.999319
1.00085 1 1.00167 0.999179
0.999897 1 1 0.999897
1.00009 1 1.00025 0.99984
0.999993 1 1 0.999993
1 1 1 1
1 1 1 1
1.00251 1 1.00297 0.999538
1 1 1 1
1.00453 1 1.00531 0.999222
1 1 1 1
1.00366 1 1.00476 0.998904
1 1 1 1
1.05688 1.06125 1 0.995877
1.05291 1.05717 1 0.995972
1.08829 1.09492 0.998013 0.995921
1.08578 1.09315 0.997233 0.996008
1.04883 1.05309 1 0.995963
1.00148 1.00348 1 0.998006
1.04772 1.05197 1 0.995961
1.08551 1.09289 0.997249 0.995992
1.08648 1.09362 0.997464 0.995992
1.07324 1.08658 0.991293 0.996399
1.08669 1.093 0.998418 0.995798
1.07711 1.0902 0.991716 0.996248
1.08534 1.09246 0.997485 0.99598
1.07278 1.08622 0.991185 0.996407
1.07556 1.08784 0.992347 0.996343
1.0747 1.09169 0.987801 0.996597
1.07696 1.09166 0.990402 0.996094
1.07455 1.0952 0.984522 0.996565
1.04804 1.05248 0.999768 0.996012
1.05142 1.05534 0.999999 0.996286
1.08424 1.09151 0.997305 0.996024
1.08506 1.09114 0.998579 0.995845
1.00185 1.0022 1.00129 0.998363
1.03198 1.03501 1.00077 0.996301
1.07347 1.07848 1 0.995352
1.08349 1.08852 0.999646 0.995731
1.07803 1.09128 0.991568 0.996255
1.07615 1.08374 0.997019 0.995966
1.07486 1.07971 1 0.995501
1.07165 1.08082 0.995423 0.996078
1.01756 1.01519 1.00553 0.996824
1.01415 1.00876 1.00901 0.996373
1.01313 1.00069 1.01473 0.997735
1.08514 1.09179 0.997925 0.995972
1.08491 1.09237 0.997187 0.995977
1.07324 1.08512 0.992667 0.996356
1.07728 1.09008 0.992012 0.996213
1.02373 1.02549 1.00173 0.996562
1.06143 1.06624 1.00002 0.995466
1.07206 1.07725 1.00003 0.995146
1.07697 1.0877 0.994032 0.996075
1.06988 1.08918 0.985685 0.996545
1.07122 1.07631 0.999679 0.995591
1.06761 1.08415 0.988397 0.996305
1.06265 1.07838 0.988951 0.996425
1.02358 1.02276 1.00478 0.996043
1.01965 1.01524 1.0085 0.995875
1.01334 1.00233 1.01291 0.998091
1.01181 1.00126 1.0137 0.996883
1.07327 1.08496 0.992839 0.996362
1.07617 1.0885 0.99237 0.996274
1.06991 1.08657 0.98811 0.996514
1.06766 1.09025 0.982638 0.99658
1.06806 1.08699 0.986075 0.996462
1.07163 1.09435 0.982478 0.996706
1.042 1.04543 1.001 0.995714
1.05949 1.08341 0.981195 0.996663
1.056 1.06112 1 0.995166
1.06558 1.0707 1.00018 0.995049
1.06796 1.07517 0.997614 0.995675
1.06463 1.08219 0.987275 0.996454
1.01285 1.00358 1.01095 0.998307
1.02272 1.00923 1.01627 0.99714
1.02627 1.02762 1.00305 0.995639
1.01318 1.00508 1.01163 0.996473
1.01951 1.01245 1.01132 0.995704
1.00282 1 1.00317 0.999655
1.08609 1.09145 0.999438 0.995648
1.01388 1.00071 1.01503 0.998146
1.00879 1.00395 1.00766 0.997185
1.00985 1.00556 1.00723 0.997055
1.07784 1.08265 1 0.995553
1.07942 1.08748 0.996813 0.995761
1.03964 1.04139 1.00265 0.995683
1.06187 1.06491 1.00193 0.995216
1.07006 1.07484 0.999833 0.995724
1.09051 1.09511 1 0.995794
1.00096 1 1.00121 0.999752
1.01253 1 1.01403 0.998517
1.0187 1.0184 1.00392 0.996391
1.01733 1.00453 1.01539 0.997396
1.01347 1.01215 1.00458 0.996731
1.07893 1.09135 0.992687 0.995902
1.07579 1.08121 0.999245 0.995735
1.06964 1.08349 0.991236 0.995944
1.0333 1.03531 1.00273 0.995337
1.08046 1.08637 0.998697 0.995857
1.05269 1.0567 1.00096 0.995248
1.00645 1 1.00766 0.998796
1.01645 1.0019 1.01684 0.997728
1.01118 1.01358 1.00166 0.995978
1.02347 1.01335 1.01302 0.997016
1.02091 1.02081 1.0036 0.996509
1.07296 1.09245 0.985963 0.996139
1.07039 1.07817 0.996883 0.995891
1.06062 1.07841 0.987285 0.996171
1.00905 1.00997 1.00379 0.995325
1.04819 1.05326 0.999882 0.995305
1.00332 1 1.00431 0.99901
1.00637 1 1.00809 0.998286
1.00697 1 1.00857 0.998415
1.00633 1 1.00812 0.998226
1.00295 1 1.0044 0.998562
0.999408 1 1 0.999406
0.999826 1 1.0005 0.999324
0.999941 1 1 0.999941
1.00071 1 1.00153 0.999181
0.99991 1 1 0.99991
1 1 1 1
0.999857 1 1 0.999853
0.999996 1 1 0.999996
1 1 1 1
1.00179 1 1.00205 0.999743
1.00365 1 1.00413 0.999523
1 1 1 1
1 1 1 1
1.00528 1 1.00608 0.999197
1 1 1 1
1.08783 1.09401 0.998549 0.995793
1.08684 1.09407 0.997392 0.995991
1.07693 1.08991 0.991814 0.996248
1.07281 1.08682 0.990662 0.996415
1.08525 1.09264 0.997235 0.995992
1.04811 1.05236 1 0.995961
1.08515 1.09228 0.997485 0.99598
1.07296 1.08613 0.991442 0.996403
1.07577 1.08804 0.992346 0.996343
1.07373 1.09148 0.987066 0.996624
1.07682 1.09168 0.990267 0.99609
1.07453 1.09531 0.984385 0.996588
1.07292 1.08574 0.991787 0.996379
1.07334 1.09164 0.98661 0.996581
1.07504 1.09282 0.98704 0.996651
1.07613 1.09935 0.982076 0.99674
1.074 1.09519 0.984209 0.996389
1.07894 1.10312 0.981235 0.996781
1.08472 1.09147 0.997826 0.995988
1.08418 1.09186 0.996975 0.995975
1.07279 1.0855 0.991866 0.996401
1.0779 1.09014 0.992564 0.996188
1.02707 1.0282 1.00234 0.996565
1.05857 1.06338 1 0.99547
1.0715 1.07652 1.00018 0.995153
1.07734 1.08738 0.994724 0.996021
1.06973 1.08958 0.985146 0.99659
1.06815 1.08469 0.9884 0.996305
1.07199 1.07696 0.999835 0.995553
1.06247 1.07878 0.988379 0.996465
1.02356 1.02194 1.00556 0.996047
1.01832 1.01217 1.0103 0.995817
1.01235 1.00192 1.01234 0.998094
1.01004 1.00171 1.01141 0.996945
1.0735 1.08517 0.992853 0.996361
1.07592 1.08825 0.992384 0.996259
1.06942 1.08636 0.987819 0.996543
1.06896 1.09057 0.98357 0.996563
1.04104 1.0425 1.00289 0.995713
1.05493 1.05999 1.00003 0.995189
1.06499 1.06989 1.00039 0.995036
1.06892 1.08722 0.986711 0.996413
1.0693 1.09291 0.981577 0.996761
1.06623 1.07311 0.997921 0.995661
1.06055 1.08448 0.981211 0.996663
1.06288 1.08109 0.986575 0.996529
1.02612 1.02604 1.00445 0.995647
1.01758 1.01082 1.01104 0.995688
1.0155 1.00463 1.01441 0.996473
1.01263 1.00243 1.0119 0.998291
1.01858 1.00453 1.01687 0.997171
1.07204 1.09008 0.986846 0.996559
1.07236 1.09291 0.984582 0.996564
1.06833 1.09886 0.975392 0.996746
1.06461 1.09007 0.979818 0.996756
1.03592 1.04067 1.00002 0.995418
1.06167 1.0873 0.979534 0.996829
1.03733 1.04229 1.00029 0.99496
1.05503 1.0603 1.00011 0.994926
1.06204 1.07429 0.992884 0.995688
1.00737 1 1.0087 0.998683
1.01812 1.00036 1.0203 0.99751
1.02087 1.01294 1.01102 0.996839
1.01837 1.01754 1.00529 0.995549
1.02071 1.00605 1.01868 0.995958
1.01955 1.00919 1.01476 0.995566
1.00053 1 1.00076 0.999763
1.0136 1 1.01509 0.998527
1.07867 1.09112 0.992665 0.995899
1.01807 1.00325 1.01744 0.997384
1.0168 1.01556 1.00483 0.996405
1.01549 1.01349 1.00538 0.996617
1.07524 1.0807 0.99921 0.995735
1.06903 1.08305 0.991088 0.995933
1.03213 1.03416 1.00272 0.995334
1.05188 1.05602 1.00077 0.995302
1.0853 1.09119 0.998763 0.995828
1.00644 1 1.00765 0.998802
1.0169 1.00076 1.01844 0.997733
1.01626 1.01788 1.00253 0.995892
1.02423 1.01197 1.01514 0.997021
1.02228 1.02225 1.00356 0.996484
1.07167 1.09101 0.986089 0.996135
1.07354 1.08127 0.996961 0.995877
1.06362 1.0818 0.986957 0.996191
1.01152 1.013 1.00324 0.99531
1.04567 1.05072 0.99993 0.995265
1.01 1.0001 1.01183 0.998086
1.0218 1.00297 1.02152 0.997316
1.00841 1.01004 1.00258 0.995824
1.0317 1.02265 1.01224 0.996651
1.04219 1.04488 1.00111 0.996323
1.06108 1.09125 0.975653 0.996621
1.07499 1.08468 0.995356 0.995696
1.07227 1.08754 0.989815 0.996104
1.01421 1.01455 1.00433 0.995346
1.02032 1.02542 1 0.995032
1.00295 1 1.00394 0.999013
1.00567 1 1.0074 0.998291
1.00126 1 1.00302 0.998244
1.00504 1 1.00666 0.998395
1.00222 1 1.00366 0.998558
1.00749 1 1.00928 0.998224
1.00259 1 1.00429 0.998307
1.00644 1 1.00829 0.998165
0.99993 1 1.00128 0.99865
0.999411 1 1 0.999411
0.999406 1 1 0.999406
0.999969 1 1 0.999969
0.999566 1 1.00024 0.999327
0.99995 1 1 0.99995
1 1 1 1
0.999923 1 1 0.999923
0.999999 1 1 0.999999
1 1 1 1
1.0002 1 1.00033 0.999874
1.00174 1 1.00202 0.999721
1 1 1 1
1.0039 1 1.00439 0.999507
1 1 1 1
1 1 1 1
1.07668 1.09169 0.990127 0.996086
1.07578 1.08804 0.992357 0.996344
1.0745 1.09543 0.984225 0.996611
1.07268 1.09123 0.986302 0.996651
1.07317 1.08605 0.991712 0.996398
1.08487 1.09199 0.997487 0.995981
1.07318 1.08569 0.99208 0.996362
1.07389 1.09163 0.987131 0.996574
1.07461 1.09223 0.987184 0.996638
1.07392 1.09825 0.981039 0.996749
1.07427 1.09518 0.984453 0.996391
1.07603 1.10147 0.980026 0.996816
1.07435 1.09157 0.987629 0.996553
1.07723 1.10184 0.980858 0.996744
1.07593 1.10208 0.979381 0.996823
1.06992 1.10256 0.973505 0.996813
1.07377 1.08543 0.992868 0.996361
1.07573 1.08804 0.992412 0.996244
1.06903 1.08624 0.987535 0.996572
1.07031 1.09095 0.984482 0.996546
1.0418 1.04295 1.0032 0.995711
1.05502 1.06009 1 0.995213
1.06425 1.06895 1.00058 0.995023
1.06963 1.08736 0.987286 0.996365
1.06694 1.09147 0.980644 0.996816
1.06137 1.08528 0.981243 0.996662
1.06452 1.07116 0.998153 0.995647
1.06216 1.08077 0.986134 0.996603
1.02281 1.02257 1.0046 0.995654
1.01457 1.00979 1.0091 0.995671
1.01888 1.00473 1.01767 0.996472
1.01034 1.00166 1.01041 0.998277
1.01517 1.00067 1.01732 0.997204
1.07182 1.08981 0.986886 0.99656
1.073 1.09349 0.984644 0.996561
1.06942 1.09829 0.9769 0.996739
1.03583 1.04039 1.0002 0.995417
1.03806 1.04302 1.00026 0.99499
1.05308 1.05794 1.00049 0.994915
1.06486 1.0898 0.980305 0.996743
1.06379 1.07607 0.992733 0.99582
1.05881 1.08465 0.979317 0.996796
1.00737 1 1.00862 0.998753
1.01533 1.01433 1.00547 0.995546
1.01874 1.00761 1.01547 0.995651
1.02391 1.00856 1.01936 0.995942
1.02209 1.01281 1.01233 0.996871
1.02099 1.00401 1.0195 0.997461
1.076 1.09974 0.981731 0.996626
1.0734 1.10569 0.974011 0.996704
1.0623 1.09786 0.970705 0.996811
1.05487 1.09017 0.970584 0.996941
1.02022 1.02473 1.00031 0.995292
1.05232 1.07296 0.98432 0.996382
1.02225 1.02605 1.00165 0.994659
1.03913 1.04564 0.998958 0.99481
1.00143 1 1.00223 0.999203
1.01622 1 1.01825 0.998014
1.01781 1.00692 1.01369 0.997155
1.02866 1.00956 1.0227 0.996298
1.01167 1.0059 1.0102 0.995574
1.02463 1.00741 1.02183 0.995371
1.00634 1 1.00754 0.998807
1.01664 1 1.01895 0.997737
1.07039 1.08958 0.986212 0.99613
1.02336 1.01 1.01626 0.997027
1.02118 1.02241 1.00301 0.995804
1.02198 1.02226 1.00328 0.996458
1.07684 1.08452 0.997042 0.995863
1.06629 1.08494 0.986552 0.996211
1.01453 1.01655 1.00273 0.995294
1.04294 1.0478 1.00013 0.995225
1.00993 1.0001 1.01175 0.998094
1.02179 1.00277 1.02176 0.997269
1.00894 1.0103 1.00285 0.995816
1.0316 1.0238 1.01102 0.996637
1.0473 1.05055 1.00055 0.996349
1.06394 1.09381 0.975946 0.996667
1.0748 1.08442 0.995358 0.995751
1.07288 1.08735 0.990459 0.996196
1.01645 1.01658 1.00458 0.995309
1.01937 1.02454 1.00003 0.994928
1.00716 1 1.0093 0.997886
1.02159 1.00321 1.02136 0.997023
1.02584 1.02619 1.00378 0.995888
1.03981 1.0406 1.00301 0.996254
1.06384 1.11834 0.954223 0.996901
1.05966 1.08806 0.977164 0.996657
1.05535 1.06151 0.998996 0.995204
1.02778 1.02863 1.00426 0.99494
1.00531 1 1.00702 0.998295
1.00247 1 1.00425 0.998225
1.00055 0.999582 1.00248 0.998484
1.00311 1 1.00456 0.998555
1.00974 1 1.01154 0.998221
1.00008 1 1.00144 0.998643
1.00251 0.999737 1.00444 0.998344
1.00831 1 1.01015 0.998178
1.00021 1 1.0016 0.998612
1.00829 1 1.01023 0.998079
1.00356 1 1.00545 0.998123
0.999225 1 1.00062 0.99861
0.999365 1 1 0.999365
0.999407 1 1 0.999407
0.999982 1 1 0.999982
0.999406 1 1 0.999406
0.999973 1 1 0.999973
1 1 1 1
0.999959 1 1 0.999959
1 1 1 1
0.999999 1 1 0.999999
0.999941 1 1 0.999941
1.00131 1 1.00146 0.99985
1 1 1 1
1.00324 1 1.00354 0.999701
1 1 1 1
1 1 1 1
1.07444 1.09509 0.984696 0.996394
1.07427 1.09173 0.987342 0.996624
1.07321 1.09986 0.978853 0.996851
1.07181 1.09722 0.980023 0.996758
1.07442 1.09159 0.987665 0.996567
1.07341 1.08565 0.992357 0.996346
1.0739 1.09134 0.987428 0.996554
1.07649 1.10105 0.980898 0.996734
1.07516 1.10158 0.979128 0.996817
1.0695 1.10204 0.973561 0.996826
1.07885 1.10236 0.981921 0.99669
1.07453 1.10723 0.973496 0.996888
1.07709 1.11376 0.970075 0.996905
1.07154 1.08948 0.986933 0.996561
1.0736 1.09402 0.984729 0.996558
1.0704 1.0977 0.978332 0.996733
1.03674 1.04086 1.00063 0.995417
1.0379 1.04291 1.00018 0.995019
1.05161 1.0562 1.00076 0.994904
1.06528 1.08976 0.980739 0.996731
1.05548 1.08196 0.978692 0.996764
1.0655 1.07799 0.992427 0.995953
1.01328 1.01135 1.0064 0.995543
1.01598 1.00575 1.0145 0.995738
1.0258 1.01075 1.01904 0.995926
1.00841 1 1.00959 0.998825
1.01991 1.01093 1.01202 0.996903
1.02395 1.00679 1.01969 0.997409
1.07729 1.1005 0.982213 0.996635
1.07223 1.10565 0.972981 0.996706
1.06278 1.09772 0.971274 0.996803
1.01945 1.0239 1.00038 0.995282
1.02133 1.0253 1.0014 0.994735
1.04197 1.04884 0.998517 0.994929
1.05593 1.09067 0.971112 0.996941
1.04908 1.07039 0.983676 0.996357
1.00202 1 1.00273 0.999294
1.01518 1 1.01721 0.998008
1.009 1.00496 1.00846 0.995597
1.02759 1.00713 1.02486 0.99557
1.02654 1.01014 1.01998 0.996321
1.01988 1.01007 1.01263 0.99712
1.07432 1.108 0.972719 0.996802
1.06366 1.11206 0.959583 0.996772
1.05633 1.09775 0.965178 0.996985
1.03885 1.07234 0.97176 0.996923
1.00408 1.00758 1.00133 0.995199
1.03254 1.04853 0.989281 0.995419
1.01739 1.02026 1.00264 0.994566
0.999566 1 1 0.999566
0.999424 1 1.00047 0.998954
1.0084 1 1.0099 0.998514
1.01167 1 1.01426 0.997446
1.01407 1 1.01734 0.996792
1.03577 1.01445 1.02525 0.99587
1.00905 1.00206 1.0111 0.995928
1.04889 1.00546 1.04719 0.996183
1.01036 1 1.01228 0.998102
1.02359 1.00307 1.0233 0.997223
1.06716 1.09666 0.976313 0.996714
1.03425 1.02749 1.00999 0.996623
1.00947 1.01026 1.00342 0.995809
1.05189 1.0555 1.0002 0.996376
1.0746 1.08416 0.995359 0.995805
1.0737 1.08734 0.99113 0.996289
1.01802 1.01795 1.00482 0.995274
1.01811 1.02341 1 0.994824
1.00845 1.00006 1.0106 0.997814
1.01996 1.00316 1.01983 0.996976
1.03262 1.0326 1.00415 0.995885
1.03783 1.03937 1.00225 0.996277
1.06499 1.12017 0.953675 0.99692
1.06622 1.09253 0.979246 0.996602
1.05091 1.05726 0.998722 0.995268
1.0293 1.0307 1.00377 0.994891
1.0063 0.999355 1.00912 0.997851
1.07588 1.13044 0.954659 0.996945
1.01261 1.00356 1.01242 0.996642
1.03268 1.03398 1.00306 0.995694
1.04223 1.09932 0.950866 0.997063
1.04159 1.05124 0.995459 0.995336
1.01953 1.02173 1.00323 0.994633
1.00399 1 1.0058 0.998206
0.998871 0.998402 1.002 0.998477
1.00083 0.997921 1.0042 0.998723
0.99974 1 1.00111 0.998636
1.00913 1 1.01096 0.99819
1.00278 0.999197 1.00521 0.998382
0.99898 1 1.00038 0.998605
1.00375 1 1.00563 0.998135
1.00055 0.999598 1.00229 0.998665
1.00712 1 1.00906 0.99808
0.997769 0.998947 1.00001 0.998815
1.00357 1 1.00515 0.998424
1.00817 1 1.01026 0.997926
0.999099 1 1.00115 0.997956
0.99857 1 1.00007 0.998495
0.999316 1 1 0.999316
0.99936 1 1 0.99936
0.999988 1 1 0.999988
0.999404 1 1 0.999404
0.999984 1 1 0.999984
1 1 1 1
0.999977 1 1 0.999977
1 1 1 1
1 1 1 1
0.999668 1 1.00004 0.999632
0.999971 1 1 0.999971
0.999932 1 1 0.999932
1 1 1 1
1.00114 1 1.00131 0.999826
1 1 1 1
1 1 1 1
1.06894 1.1014 0.973614 0.996839
1.07438 1.10103 0.978918 0.996811
1.07565 1.10017 0.980926 0.996724
1.07353 1.09115 0.987249 0.996556
1.0785 1.10242 0.981531 0.996708
1.07414 1.10693 0.973407 0.996879
1.07353 1.11012 0.970041 0.996907
1.0755 1.10912 0.972733 0.99687
1.08561 1.12548 0.967499 0.996969
1.0999 1.15002 0.959076 0.997225
1.07848 1.10119 0.982669 0.996645
1.07121 1.10558 0.972111 0.996708
1.06352 1.09758 0.972081 0.996796
1.01957 1.02395 1.00045 0.995274
1.02145 1.02548 1.00126 0.994816
1.04501 1.05214 0.998169 0.995046
1.05686 1.09066 0.971984 0.996941
1.04542 1.06691 0.983469 0.996331
1.00943 1.00447 1.00936 0.995619
1.03289 1.00788 1.02918 0.995762
1.02572 1.00945 1.01985 0.996344
1.00079 1 1.0014 0.999385
1.01411 1 1.01614 0.998001
1.0227 1.01359 1.01194 0.997084
1.0736 1.10784 0.972192 0.996811
0.999579 1 1.00002 0.999559
0.999895 1 1.00099 0.998904
1.0652 1.11134 0.961586 0.996774
1.05509 1.09634 0.965312 0.996956
1.00539 1.00822 1.00192 0.995277
1.01858 1.02094 1.00311 0.994602
1.02964 1.04535 0.989525 0.995402
1.03788 1.07182 0.971357 0.996891
1.00737 1 1.00877 0.998615
1.01227 1 1.01488 0.997429
1.01009 1.00217 1.01216 0.995797
1.04391 1.0066 1.04102 0.996193
1.03352 1.01109 1.02643 0.995871
1.01434 1.00241 1.01512 0.996833
1.08297 1.13094 0.960552 0.996905
1.04779 1.11027 0.946676 0.99688
1.03927 1.08512 0.960501 0.99713
1.02194 1.04809 0.978394 0.996586
1.00765 1.00472 1.0073 0.995645
1.01607 1.02196 0.999393 0.99484
0.999523 1 1.00069 0.998838
1.00215 1 1.00324 0.998918
1.00049 1.00021 1.00173 0.998552
1.00654 1 1.00879 0.997771
1.01427 1 1.01716 0.997162
1.01006 1.0004 1.01315 0.996549
1.07552 1.00634 1.07291 0.996113
0.993343 1.00049 0.995678 0.997162
1.00829 1 1.01057 0.997743
1.01724 1.00264 1.01768 0.996929
1.06511 1.12033 0.953631 0.996939
1.07228 1.09646 0.981338 0.996546
1.03639 1.03814 1.00202 0.9963
1.04071 1.04042 1.00441 0.995881
1.04691 1.05337 0.998524 0.995333
1.03182 1.03371 1.00335 0.994843
1.00624 0.999065 1.00937 0.997838
1.07689 1.13371 0.952712 0.997027
1.01351 1.00199 1.01481 0.996731
1.0278 1.02925 1.00298 0.995618
1.04314 1.09998 0.951134 0.997043
1.03722 1.04806 0.994184 0.995443
1.02134 1.02328 1.00348 0.994645
1.01527 0.998045 1.01963 0.997676
1.00258 1.07545 0.93468 0.997386
1.00599 0.999934 1.00965 0.996439
1.00984 1.01099 1.00386 0.995019
1.00836 1.0448 0.968446 0.996567
1.00415 1.00701 1.00221 0.99496
0.932315 1.00083 0.935709 0.995542
0.996259 0.996286 1.00151 0.998468
0.998906 0.99515 1.00505 0.998728
1.00138 0.996375 1.00637 0.998668
0.999092 1 1.00049 0.9986
1.00555 1 1.00742 0.998147
1.00591 1 1.00785 0.998081
1.00127 0.999378 1.00317 0.998721
0.998701 1 1.00021 0.998495
0.999724 1 1.00175 0.997976
0.996047 0.996883 1.00038 0.998781
1.00898 1 1.01108 0.997923
1.00386 1 1.00549 0.998381
0.999833 0.996076 1.00501 0.99877
1.00781 1 1.01003 0.9978
1.00699 1 1.00912 0.997888
0.998184 1 1.00034 0.99784
0.998378 1 1.00008 0.998301
1.0062 1 1.00817 0.998038
1.00041 1 1.00214 0.998272
0.999297 1 1 0.999297
0.999312 1 1 0.999312
0.999993 1 1 0.999993
0.999354 1 1 0.999354
0.999989 1 1 0.999989
1 1 1 1
0.999985 1 1 0.999985
1 1 1 1
1 1 1 1
0.999716 1 1 0.999716
0.999636 1 1 0.999636
0.999988 1 1 0.999988
0.999966 1 1 0.999966
1 1 1 1
1.00034 1 1.00041 0.999921
1 1 1 1
1 1 1 1
1.07023 1.10696 0.969815 0.996909
1.07385 1.10687 0.973216 0.99687
1.07825 1.10259 0.981137 0.996727
1.07525 1.10893 0.972675 0.996869
1.08277 1.12331 0.966848 0.99696
1.10143 1.15012 0.960416 0.997136
1.09409 1.14195 0.960934 0.997036
0.928698 1.01622 0.920231 0.993098
1.04382 1.0977 0.95296 0.997855
0.999534 1 1.00048 0.999059
1.07302 1.10794 0.971567 0.996819
1.06642 1.11047 0.963432 0.996776
1.05342 1.09484 0.965134 0.996927
1.00284 1.0067 1.00082 0.995351
1.01951 1.02141 1.00352 0.994635
1.02675 1.04209 0.989848 0.995385
1.03741 1.07208 0.970712 0.996858
1.0058 1.00221 1.00794 0.995675
1.03722 1.00743 1.03349 0.996214
1.03155 1.00769 1.02793 0.995871
1.00072 1 1.00117 0.999552
1.01405 1.00386 1.01332 0.996872
1.00736 1 1.00865 0.998712
1.01304 1 1.01567 0.997413
1.00037 1 1.00152 0.998854
1.08187 1.13126 0.959303 0.996911
0.999208 1 1.0003 0.998904
1.00299 1 1.00407 0.998921
1.00043 1.00054 1.00138 0.998512
1.05148 1.11071 0.949636 0.996878
1.03632 1.08243 0.960206 0.997078
1.00316 1.00309 1.00441 0.995683
1.01839 1.02415 0.999378 0.994993
1.02167 1.04758 0.978627 0.996568
1.00638 1 1.00856 0.997838
1.01302 1 1.01594 0.997123
1.00431 1.00031 1.0071 0.996921
1.06316 1.00477 1.06226 0.996088
1.01028 1.00353 1.01016 0.996605
1.05742 1.12446 0.943209 0.996997
1.01775 1.09339 0.933577 0.997048
1.02782 1.06007 0.972739 0.996747
1.00585 1.02726 0.982759 0.996337
1.00035 1.00037 1.00332 0.996673
0.998471 1 1.00001 0.99846
1.00403 1.00038 1.00548 0.998184
1.00289 0.999582 1.00498 0.99834
1.01504 1 1.01749 0.997597
1.01385 1 1.01666 0.99724
1.0462 0.999932 1.04955 0.996875
1.02756 1.00286 1.02741 0.997288
1.00683 0.999359 1.00967 0.997822
1.01398 1.00038 1.01682 0.996821
1.07728 1.13802 0.949375 0.997106
1.04476 1.10176 0.951098 0.997022
1.0331 1.04522 0.99282 0.99555
1.02123 1.02307 1.00268 0.995542
1.02228 1.02408 1.0036 0.994657
1.01587 0.998466 1.01967 0.9978
1.00502 1.07743 0.935177 0.997448
1.00314 1.00056 1.00615 0.996443
1.00739 1.00825 1.00416 0.995011
1.00649 1.04234 0.968788 0.996719
1.00522 1.00756 1.00273 0.994961
0.92961 0.998586 0.936429 0.994125
1.01648 0.99554 1.02343 0.997657
0.974234 1.02853 0.94971 0.997369
1.00055 1.00137 1.00312 0.996071
1.00424 1.00252 1.00614 0.9956
0.988445 1.00758 0.98446 0.996499
0.867472 0.969548 0.929568 0.962509
0.834956 0.945859 0.900558 0.980226
0.932998 0.972875 0.962752 0.996115
0.601614 0.767136 0.859257 0.912688
0.514349 0.691715 0.842113 0.883
0.997738 0.992615 1.00644 0.998733
1.0032 0.993957 1.0106 0.998721
1.00323 0.995301 1.00927 0.998703
0.998495 1 1 0.998495
0.999539 1 1.00155 0.997996
1.00849 1 1.01059 0.997919
1.00337 1 1.00504 0.998338
0.993649 0.994896 1 0.998747
1.00745 1 1.00958 0.997886
0.998343 1 1 0.998343
0.998322 1 1.00047 0.997856
0.99933 0.996822 1.00383 0.998693
1.00788 1 1.01001 0.997891
1.01261 1 1.01471 0.997936
1.01207 0.998614 1.01523 0.998267
1.00723 1 1.00938 0.997874
0.99898 1 1.00127 0.997708
0.999007 1 1.00075 0.998262
1.00233 1 1.00445 0.997886
1.00644 1 1.00837 0.998089
1.00602 1 1.00784 0.998193
1.00584 1 1.00784 0.998011
1.00092 1 1.00251 0.998422
1.00117 1 1.00291 0.998268
0.999294 1 1 0.999294
0.999298 1 1 0.999298
0.999997 1 1 0.999997
0.999307 1 1 0.999307
0.999995 1 1 0.999995
1 1 1 1
0.999991 1 1 0.999991
1 1 1 1
1 1 1 1
0.999801 1 1 0.999801
0.999781 1 1.00007 0.999714
0.999997 1 1 0.999997
0.999774 1 1.00013 0.999641
0.999984 1 1 0.999984
1 1 1 1
0.99996 1 1 0.99996
1 1 1 1
1 1 1 1
1.07974 1.12086 0.966266 0.996951
1.07454 1.10825 0.972624 0.996867
1.10541 1.15143 0.962873 0.997049
0.934166 1.01578 0.925968 0.993181
1.0929 1.14191 0.959935 0.997032
1.05086 1.10016 0.95736 0.997729
1.06744 1.11817 0.95736 0.997153
0.883107 0.968079 0.931206 0.979619
0.970004 1.02756 0.949784 0.993899
0.999121 1 1 0.999121
0.999349 1 1.0003 0.999051
0.999481 1 1.00093 0.998556
0.998671 1 1 0.998671
1.08058 1.13156 0.957897 0.996918
1.0549 1.1114 0.952138 0.996877
1.03363 1.07987 0.960033 0.997027
1.00263 1.00288 1.00404 0.995722
1.01998 1.02641 0.998581 0.99515
1.02054 1.04626 0.978795 0.99655
1.01688 1 1.02028 0.996671
1.05284 1.00439 1.05238 0.996063
1.01269 1.00685 1.00918 0.996662
1.0029 1 1.00398 0.998925
1.01224 1.00061 1.01457 0.997088
1.00587 1 1.00799 0.997904
0.99897 1 1 0.99897
1.00035 1.00052 1.00136 0.998473
1.05719 1.12633 0.941424 0.997011
0.999001 0.999999 1.00054 0.998461
1.00291 1.0006 1.00403 0.998286
1.00253 0.998514 1.00536 0.998669
1.02593 1.09747 0.937593 0.997035
1.02739 1.05961 0.972752 0.996745
0.998991 1.00295 0.999384 0.996666
1.00682 1.0267 0.984169 0.996406
1.01419 1 1.01677 0.997467
1.01404 1.00003 1.01702 0.997047
1.03451 1.00379 1.03342 0.997272
1.0478 1.00307 1.04801 0.996742
1.00766 1.07636 0.938874 0.997132
0.99674 1.06035 0.942786 0.997058
1.01171 1.02561 0.990047 0.996368
0.971782 1.0026 0.971612 0.997585
1.008 0.999596 1.00997 0.998454
1.00819 1 1.0105 0.997712
1.02145 0.99917 1.02423 0.998121
1.0681 1.00136 1.06953 0.99731
0.859972 0.967518 0.929871 0.955878
1.0165 0.998201 1.02045 0.997925
1.00142 1.00091 1.00408 0.996445
1.00747 1.0789 0.936113 0.997519
1.00445 1.0396 0.969221 0.996869
1.00648 1.00826 1.0033 0.994956
1.00589 1.00617 1.00475 0.994999
0.928756 0.998369 0.937166 0.992645
1.01276 0.995533 1.01963 0.997719
0.973032 1.0288 0.94832 0.99734
1.00065 1.00151 1.00308 0.996081
1.00609 1.00463 1.00585 0.995622
0.991248 1.00865 0.986222 0.996478
0.856536 0.9711 0.922575 0.956049
0.836271 0.94474 0.906439 0.976555
0.935576 0.973001 0.965212 0.996192
0.598649 0.764792 0.855313 0.915174
0.510144 0.696516 0.83527 0.876868
1.00451 0.995599 1.01121 0.997762
0.643478 0.791322 0.884548 0.919304
0.553859 0.720466 0.87111 0.882494
0.978322 1.00558 0.97518 0.997655
1.01057 1.00197 1.01163 0.996984
1.01605 1.00633 1.01263 0.997064
0.925962 0.959135 0.968521 0.996791
0.805934 0.936684 0.89603 0.960249
0.802409 0.912119 0.903373 0.973816
0.573472 0.742792 0.836842 0.922574
0.56017 0.769523 0.832423 0.87449
1.00449 0.991506 1.01434 0.998773
1.00353 0.993862 1.01107 0.998676
1.01377 0.996147 1.01887 0.998837
0.998384 1 1 0.998384
0.998701 1 1.00083 0.997871
1.00765 1 1.00979 0.997886
1.00891 1 1.01095 0.997982
0.999108 0.997542 1.00296 0.998616
0.998902 1 1.00064 0.998261
1.01282 1 1.01493 0.997922
1.00721 1 1.00939 0.997846
0.998747 1 1.00099 0.997761
1.01233 0.99847 1.01558 0.998326
1.01231 1 1.01414 0.998193
1.02878 0.997839 1.03256 0.998495
1.00561 1 1.00794 0.997684
0.999435 1 1.00164 0.997799
1.00135 1 1.00348 0.997877
1.00561 0.999849 1.00763 0.998147
1.00139 0.999955 1.00356 0.997888
1.00101 0.999821 1.00295 0.998238
1.01024 0.998617 1.01327 0.99839
1.01242 0.999713 1.0147 0.998036
1.00813 1 1.00993 0.998218
1.00793 1 1.00975 0.998196
1.00608 1 1.00763 0.998457
1.00755 1 1.00958 0.997985
1.00132 1 1.00294 0.998382
0.999265 1 1 0.999265
1.00187 1 1.00361 0.998264
0.999297 1 1 0.999297
0.999992 1 1 0.999992
0.999299 1 1 0.999299
0.999996 1 1 0.999996
1 1 1 1
0.999996 1 1 0.999996
1 1 1 1
1 1 1 1
0.999045 1 1 0.999045
0.999829 1 1 0.999829
0.999796 1 1 0.999796
1 1 1 1
0.999712 1 1 0.999712
0.999995 1 1 0.999995
1 1 1 1
0.99998 1 1 0.99998
1 1 1 1
1 1 1 1
0.936947 1.01506 0.929309 0.993264
1.09191 1.14144 0.959458 0.997028
1.05598 1.10187 0.960657 0.9976
0.869283 0.966499 0.916914 0.980914
0.964961 1.02702 0.945091 0.994158
1.06979 1.12085 0.957204 0.997113
0.976374 1.04601 0.937805 0.995332
0.889096 0.975167 0.927903 0.982577
0.866918 0.974458 0.926707 0.960003
0.612852 0.773958 0.85715 0.923808
0.479409 0.660425 0.823096 0.881926
0.999423 1 1.00077 0.998655
0.999264 1 1.00015 0.999118
0.999336 1 1.00029 0.999043
0.999612 1 1.00103 0.998584
1.00051 1 1.00204 0.998471
0.998696 1 1.0004 0.9983
0.999192 1 1.00077 0.998426
0.998627 1 1 0.998623
1.05888 1.12807 0.941465 0.997023
1.03459 1.10162 0.941957 0.997021
1.02728 1.05986 0.972423 0.996744
0.997378 1.00436 0.99638 0.99666
1.00842 1.02636 0.986002 0.996474
1.04189 1.00445 1.04014 0.997253
1.04857 1.00576 1.04611 0.996609
1.01149 1.00036 1.01432 0.996852
1.00191 1.00077 1.00275 0.998385
1.01477 1 1.01748 0.997331
0.999667 1 1.00121 0.998463
1.00194 0.998396 1.00456 0.999002
1.00335 1.07615 0.934975 0.997197
1.00725 0.999423 1.00943 0.998414
1.01017 1 1.01226 0.997938
0.99567 1.05843 0.943511 0.99703
1.01138 1.02802 0.987234 0.996534
0.974525 1.00239 0.974693 0.997442
1.03103 0.999981 1.03338 0.997736
1.06009 1.00325 1.05946 0.997358
0.95835 1.03484 0.928969 0.996892
0.997303 1.02061 0.980062 0.997046
0.97426 1.00266 0.974464 0.997135
0.971066 0.996275 0.976734 0.997914
1.01141 1 1.01362 0.997815
1.02107 0.998063 1.0251 0.998
1.05563 0.999186 1.05893 0.997699
0.667732 0.800256 0.90469 0.922303
0.86944 0.972875 0.927301 0.963744
1.00939 0.996826 1.01485 0.997782
1.0003 1.00132 1.0029 0.996095
0.973196 1.02905 0.948271 0.99731
0.994133 1.01004 0.987749 0.996461
1.00815 1.00681 1.00571 0.995652
0.859311 0.971966 0.92081 0.960129
0.842423 0.956544 0.901261 0.97718
0.936059 0.971168 0.967438 0.99629
0.613896 0.764886 0.868537 0.92408
0.505916 0.702471 0.827337 0.870497
1.0047 0.9975 1.00947 0.997773
0.658399 0.801959 0.892098 0.920289
0.524343 0.690909 0.864373 0.877998
0.977988 1.00671 0.973783 0.997624
1.01059 1.00271 1.01091 0.996982
1.01381 1.00409 1.0125 0.997208
0.921753 0.953373 0.969634 0.997112
0.807879 0.94409 0.895292 0.955803
0.801343 0.908916 0.902765 0.976607
0.59258 0.753222 0.854666 0.920508
0.568698 0.784742 0.830098 0.873022
1.00526 0.996713 1.01013 0.998462
0.561531 0.730062 0.873697 0.880345
0.610336 0.804353 0.856429 0.885994
0.983967 0.989201 0.996105 0.998598
1.01833 1.00263 1.01716 0.998526
0.932564 0.941979 0.993899 0.996083
0.822775 0.901114 0.932892 0.978746
0.744922 0.883714 0.884857 0.952633
0.62307 0.755384 0.894693 0.921924
0.645728 0.859294 0.853695 0.880248
1.0056 0.995489 1.01152 0.99865
1.01161 0.997487 1.01539 0.998787
1.01021 0.995229 1.01599 0.999074
0.998569 1 1.00031 0.998261
0.998537 1 1.00072 0.997814
1.00817 1 1.01037 0.997818
1.01303 1 1.01516 0.997908
1.01184 0.998071 1.01544 0.998385
0.998936 1 1.00115 0.997793
1.01304 1 1.01494 0.998126
1.00488 1 1.00722 0.997686
1.02575 0.995703 1.03166 0.998559
1.04288 0.993313 1.05086 0.999094
1.02033 1 1.02219 0.998177
1.00294 1 1.0053 0.997656
1.00015 1 1.00229 0.997869
1.00356 0.999855 1.00551 0.998204
1.00152 1 1.00365 0.997877
1.00097 1.00001 1.00275 0.998213
1.00532 0.996868 1.00997 0.998518
1.00461 0.999371 1.00705 0.9982
1.01581 0.997913 1.01973 0.998232
1.00075 0.993316 1.00893 0.998564
1.01354 1.00022 1.01533 0.998013
1.00524 1.00715 1.00093 0.997183
1.01629 1 1.01851 0.997813
1.01235 0.999761 1.01458 0.998039
1.01359 1 1.01566 0.997963
1.0082 1 1.00999 0.998223
1.00443 1 1.00604 0.9984
1.00663 1 1.00845 0.998199
1.00282 1 1.00436 0.998469
0.999365 1 1.00015 0.99921
1.00042 1 1.00208 0.998342
0.99927 1 1 0.99927
0.999973 1 1 0.999973
0.9993 1 1 0.9993
0.999988 1 1 0.999988
1 1 1 1
0.999996 1 1 0.999996
1 1 1 1
1 1 1 1
0.999018 1 1 0.999018
0.999782 1 1 0.999782
0.999048 1 1 0.999048
1 1 1 1
0.999828 1 1 0.999828
0.999792 1 1 0.999792
0.999999 1 1 0.999999
1 1 1 1
0.999992 1 1 0.999992
1 1 1 1
1 1 1 1
0.642043 0.790739 0.889378 0.912946
0.536738 0.71341 0.857344 0.877542
0.868585 0.964631 0.917277 0.981637
0.962763 1.02635 0.943288 0.994444
1.07132 1.1246 0.955417 0.997073
0.88316 0.959744 0.935451 0.9837
0.978613 1.04319 0.942225 0.995623
0.873956 0.98077 0.928096 0.960129
0.594621 0.767998 0.845824 0.915377
0.492751 0.682239 0.824642 0.875842
0.900076 0.991756 0.918351 0.988247
0.832237 0.952647 0.90897 0.961093
0.581576 0.750704 0.840141 0.922116
0.570209 0.776389 0.837843 0.876582
1.00108 1 1.0029 0.998188
0.998969 1 1.00027 0.998696
0.999363 1 1.00025 0.999116
0.999575 1 1.00096 0.998613
0.999919 1 1.00131 0.998615
1.00016 1 1.00222 0.997941
0.99896 1 1.00066 0.998297
1.00002 1 1.00208 0.997939
0.998917 1 1.00055 0.998371
0.998574 1 1 0.998574
0.996806 1.07581 0.929109 0.997258
0.994011 1.05615 0.943988 0.997005
1.01169 1.03037 0.985123 0.9967
0.977095 1.00242 0.977377 0.997299
1.05073 1.00517 1.04805 0.997407
1.0418 1.00061 1.04392 0.997358
1.01107 1 1.01293 0.998163
1.00629 0.999002 1.00894 0.998373
0.957974 1.03546 0.927901 0.997054
1.01462 1 1.0169 0.997753
1.02095 0.997565 1.02552 0.997978
0.986595 1.01625 0.97376 0.996984
0.972035 1.00206 0.972752 0.997211
0.973871 0.997975 0.977903 0.997898
1.04793 0.998257 1.05224 0.997643
0.939953 1.00193 0.940962 0.997002
0.969891 0.997041 0.974597 0.998125
1.01323 0.98917 1.0262 0.998168
1.01109 1 1.01346 0.997665
1.02604 0.998484 1.02995 0.997711
1.02859 0.997399 1.03351 0.997838
0.585275 0.740824 0.88299 0.894723
0.663922 0.79744 0.901426 0.92361
0.863736 0.973667 0.927836 0.95609
1.00354 0.99648 1.00933 0.99778
1.01024 1.00291 1.01036 0.996972
0.979192 1.00796 0.973806 0.997592
1.0118 1.00243 1.01203 0.997345
0.665381 0.795663 0.90377 0.925301
0.81527 0.947185 0.9004 0.955941
0.795274 0.906864 0.900411 0.973944
0.9229 0.950532 0.973461 0.997399
0.588341 0.76031 0.847339 0.913233
0.51216 0.678552 0.856935 0.880794
0.578052 0.789415 0.831587 0.880549
1.00479 0.996398 1.01003 0.998405
0.564944 0.729207 0.87469 0.885729
0.629616 0.824657 0.862176 0.885536
0.980607 0.98644 0.995364 0.998717
1.01728 1.00114 1.01768 0.998467
0.929826 0.939781 0.992388 0.996996
0.810191 0.90671 0.915867 0.975633
0.773497 0.89282 0.903538 0.958844
0.623532 0.763047 0.89419 0.913855
0.639226 0.850527 0.848661 0.885588
1.00602 0.994015 1.01266 0.999431
0.653584 0.827372 0.882259 0.895375
0.645245 0.839188 0.864257 0.889656
0.968818 0.946831 1.02351 0.999715
0.862464 0.900106 0.972762 0.98501
0.780134 0.861381 0.947028 0.956337
0.720402 0.854378 0.926375 0.910201
0.695067 0.905671 0.862738 0.889564
1.00965 0.998301 1.01264 0.998736
1.01283 0.995117 1.01876 0.999059
1.02324 0.982498 1.04214 0.999354
0.999102 1 1.00132 0.997787
1.00366 1 1.00598 0.997688
1.01312 1 1.01509 0.998059
1.02372 0.994115 1.0312 0.998624
1.00332 1 1.00568 0.997656
1.01915 0.999406 1.02163 0.998166
1.04814 0.993122 1.05628 0.999173
1.0406 0.980392 1.062 0.999446
1.04569 0.994171 1.05281 0.999068
1.01373 0.999499 1.0162 0.998065
1.00118 1 1.00332 0.997865
1.00095 1.00012 1.00266 0.998188
0.998926 0.993434 1.0069 0.998643
1.01416 0.99788 1.01809 0.998258
1.00221 0.999825 1.0042 0.998191
1.00373 0.992404 1.01283 0.998598
1.01804 0.999069 1.02075 0.998273
1.02013 0.987516 1.0341 0.998962
1.00472 1.00251 1.00398 0.99823
1.0098 1.00111 1.01066 0.998037
1.00077 1.00161 1.00171 0.997462
1.01057 1.01304 1.00153 0.996045
1.00872 1.00365 1.00758 0.997486
1.00315 1.00486 1.00075 0.997548
1.0144 0.999937 1.0167 0.997806
1.02306 1 1.02542 0.9977
1.01096 0.999874 1.01307 0.998043
1.01384 1 1.01591 0.997965
1.00785 1 1.0097 0.998171
1.00948 1 1.01128 0.998226
1.00692 1 1.00854 0.998398
1.00223 1 1.00313 0.999109
1.00305 1 1.00458 0.998482
1.00018 1 1.00097 0.999212
0.999939 1 1 0.999939
0.999274 1 1 0.999274
0.999964 1 1 0.999964
1 1 1 1
0.999984 1 1 0.999984
1 1 1 1
1 1 1 1
0.998938 1 1.0003 0.998637
0.999695 1 1 0.999695
0.99892 1 1 0.99892
0.999999 1 1 0.999999
0.999789 1 1 0.999789
0.999051 1 1 0.999051
1 1 1 1
1 1 1 1
0.999828 1 1 0.999828
0.999999 1 1 0.999999
1 1 1 1
1 1 1 1
0.545777 0.718179 0.860974 0.882658
0.653315 0.798008 0.891248 0.918579
0.629364 0.827826 0.858785 0.885275
0.534565 0.716349 0.851622 0.876252
0.882119 0.963368 0.933479 0.980913
0.981366 1.04015 0.947337 0.995931
0.869163 0.983539 0.920736 0.959787
0.608588 0.762792 0.86383 0.923611
0.507218 0.709327 0.8222 0.869703
0.906529 0.986281 0.931192 0.987056
0.804452 0.939876 0.898403 0.952705
0.596313 0.757836 0.855301 0.919983
0.55774 0.767534 0.833245 0.87209
0.857746 0.955311 0.913684 0.982693
0.740198 0.863854 0.90061 0.951417
0.65182 0.802455 0.892846 0.909768
0.636352 0.848267 0.854223 0.8782
1.00506 1 1.00734 0.997736
1.00105 1 1.00281 0.998249
0.998746 1 1.00001 0.998736
0.999515 1 1.00076 0.998759
0.99949 1 1.00199 0.997501
0.999723 1 1.00172 0.998011
0.999131 1 1.00084 0.998294
0.999848 1 1.00194 0.997907
0.999617 1 1.00164 0.997977
0.998623 1 1.00031 0.998315
0.958614 1.03645 0.927489 0.99721
0.97785 1.0123 0.968947 0.996927
0.968285 1.00129 0.96967 0.997286
0.976273 0.999674 0.978663 0.997883
1.03763 0.997652 1.04259 0.997583
1.02103 0.998143 1.02502 0.997958
1.0166 1 1.01895 0.997693
1.01057 1 1.01299 0.99761
0.941542 1.00147 0.94287 0.997123
1.02077 0.998796 1.02439 0.997669
1.02848 0.997859 1.03294 0.997816
0.968894 0.998476 0.972195 0.998126
1.00609 0.992332 1.01577 0.998124
0.93759 0.968752 0.970499 0.997253
0.95498 0.955082 1.00067 0.999226
1.0429 0.982076 1.06366 0.998377
1.00946 0.99908 1.01259 0.997827
1.03351 0.996654 1.03906 0.998004
0.668443 0.842336 0.880454 0.901306
0.577993 0.740383 0.874561 0.892639
0.653545 0.791744 0.901204 0.915942
1.00484 0.996913 1.00962 0.998354
1.01639 0.999201 1.01883 0.998407
0.975008 0.983846 0.992165 0.998842
0.557227 0.723332 0.86991 0.885564
0.745139 0.871988 0.897666 0.951946
0.81493 0.904046 0.922278 0.977389
0.919127 0.93329 0.986832 0.997966
0.634398 0.775815 0.886761 0.922141
0.644425 0.838583 0.867883 0.885452
0.63626 0.845949 0.848637 0.886274
1.00346 0.993773 1.01038 0.999376
0.657209 0.830965 0.881357 0.897364
0.641091 0.833359 0.864317 0.89005
0.971262 0.952206 1.02054 0.999485
0.874167 0.912548 0.972562 0.984967
0.753925 0.860965 0.922243 0.949505
0.687244 0.899169 0.860101 0.888628
0.736898 0.855217 0.942624 0.914098
0.988675 0.952591 1.03818 0.999711
0.649882 0.822932 0.877556 0.899903
0.690224 0.88189 0.87381 0.895691
0.634214 0.846941 0.852509 0.878382
0.922067 0.913146 1.01381 0.996011
0.849161 0.895735 0.989238 0.958319
0.799446 0.925052 0.939785 0.919591
1.01618 0.995301 1.02195 0.999043
1.0266 0.987469 1.04039 0.99927
1.03933 0.977065 1.06419 0.999566
1.00391 1 1.00626 0.997656
1.018 0.99901 1.02089 0.998153
1.05264 0.991536 1.06242 0.999251
1.01639 0.999416 1.01895 0.998075
1.04557 0.994061 1.05278 0.999079
1.04841 0.981554 1.06873 0.999421
1.03336 0.97191 1.06377 0.999489
1.02984 0.992039 1.03909 0.999058
1.01306 0.998137 1.0167 0.998287
1.00134 1.00018 1.00298 0.998183
1.00916 0.993981 1.01666 0.998633
1.02121 0.99125 1.03132 0.998933
1.02391 1.00005 1.02562 0.998285
1.01088 0.999696 1.0124 0.998805
1.00546 0.999982 1.00685 0.998627
1.00366 1.00194 1.00482 0.996914
1.00722 1.003 1.00614 0.998071
1.0024 1.00363 1.00144 0.997337
1.0033 1.00544 1.00227 0.995611
1.02717 1.03059 1.00129 0.995396
1.01069 1.01113 1.00258 0.996994
1.00711 1.00965 1.00138 0.996108
1.01616 1.00026 1.01858 0.997365
1.00954 1.00437 1.00765 0.997515
1.00154 1.00305 1.00059 0.997909
1.01359 1.0001 1.01572 0.9978
1.02227 1 1.02461 0.997719
1.01358 1 1.01571 0.997907
1.01489 1 1.01696 0.997968
1.00702 1.00007 1.0088 0.998169
1.00394 1 1.00503 0.998913
1.00516 1 1.00678 0.998395
1.00196 1 1.00286 0.999104
0.999906 1 1 0.999906
1.00024 1 1.00102 0.999213
0.99993 1 1 0.99993
1 1 1 1
0.999954 1 1 0.999954
1 1 1 1
1 1 1 1
0.999875 1 1.00161 0.998267
0.999388 1 1 0.999388
0.99915 1 1.00051 0.998636
0.999996 1 1 0.999996
0.999622 1 1 0.999622
0.998822 1 1 0.998822
1 1 1 1
1 1 1 1
0.999795 1 1 0.999795
1 1 1 1
1 1 1 1
1 1 1 1
0.670435 0.852866 0.878027 0.895299
0.558469 0.721605 0.870301 0.889262
0.640215 0.790299 0.883027 0.917403
1.00032 1 1.00252 0.997808
0.640453 0.829108 0.864388 0.893651
0.630464 0.826561 0.861792 0.885081
0.552661 0.737579 0.848912 0.882649
0.913466 0.991633 0.934483 0.985758
0.809064 0.933229 0.902867 0.96022
0.586229 0.76251 0.842658 0.912368
0.545729 0.744879 0.835496 0.876894
0.853605 0.951471 0.91642 0.978965
0.768267 0.883194 0.907763 0.95826
0.638955 0.780191 0.898889 0.911094
0.63836 0.849254 0.85438 0.879785
0.795614 0.897226 0.910171 0.974266
0.759905 0.850243 0.936765 0.954081
0.746211 0.861149 0.94665 0.915365
0.693438 0.900485 0.86567 0.889568
1.00238 1 1.0047 0.997685
1.00542 1 1.00772 0.997715
1.00092 1 1.00261 0.99831
0.999304 1 1.0016 0.997705
1.00015 1 1.00258 0.997579
0.999888 1 1.00181 0.99808
0.999979 1 1.00208 0.997906
0.999582 1 1.00157 0.998014
0.944117 1.00256 0.944339 0.997213
0.969373 1.00115 0.97007 0.998137
1.00929 1 1.01177 0.997552
0.998582 0.995313 1.00521 0.998079
1.02846 0.996642 1.03421 0.997793
1.02123 1 1.02367 0.997624
1.01453 0.999817 1.01695 0.997802
0.939462 0.96764 0.973387 0.997424
1.03068 0.997309 1.03553 0.998003
1.03398 0.987962 1.04823 0.998422
0.959245 0.959557 1.00041 0.99927
1.01768 0.999288 1.02037 0.998065
0.922131 0.930611 0.99427 0.996599
0.985199 0.955103 1.03205 0.999476
1.07125 0.992168 1.08128 0.998536
1.06195 0.995692 1.06846 0.998211
0.648346 0.81714 0.877318 0.904385
0.667082 0.841295 0.880824 0.900207
0.57138 0.738623 0.868715 0.890482
0.999945 0.993619 1.00705 0.999322
0.974715 0.956345 1.01997 0.999257
0.664063 0.837702 0.881534 0.899251
0.772661 0.844318 0.955548 0.957702
0.863026 0.910337 0.966845 0.980538
0.725591 0.845926 0.940684 0.911833
0.639713 0.831245 0.864352 0.890359
0.684551 0.896954 0.859776 0.887669
0.998053 0.964979 1.03462 0.999669
0.651174 0.824954 0.877093 0.899956
0.695197 0.882137 0.877846 0.897745
0.9392 0.925311 1.01633 0.998705
0.636523 0.84781 0.853288 0.879872
0.816863 0.874033 0.979617 0.954037
0.796239 0.914999 0.946797 0.919107
0.991872 0.955263 1.03873 0.999612
0.694664 0.866677 0.884897 0.905785
0.642822 0.827985 0.867975 0.89446
0.567079 0.77316 0.836699 0.876607
0.740692 0.856091 0.945925 0.914662
0.922752 0.924101 1.00835 0.990269
0.864174 0.903941 1.0084 0.948048
1.02838 0.993353 1.0361 0.999188
1.03408 0.970751 1.06574 0.999534
1.0161 0.94923 1.07089 0.999581
1.01804 0.998778 1.02125 0.998085
1.04666 0.992761 1.05526 0.999091
1.05755 0.983844 1.07556 0.999396
1.02521 0.99192 1.03455 0.999045
1.02867 0.972365 1.05844 0.999488
0.987644 0.968932 1.02009 0.999234
1.02154 0.993788 1.02905 0.998903
1.02843 0.998209 1.03203 0.998299
1.01711 0.999071 1.0193 0.998777
1.00348 0.998406 1.00712 0.997972
1.00595 0.998419 1.00853 0.999022
0.997762 1.00191 0.998687 0.997174
1.00777 1.00345 1.00945 0.994901
1.00887 1.0114 1.00283 0.99468
1.00301 1.00555 1.00028 0.9972
1.00354 1.00615 1.00205 0.995366
1.02488 1.02905 1.00053 0.995418
1.02255 1.02384 1.00261 0.996142
1.02353 1.02685 1.00125 0.995513
1.01315 1.00602 1.00996 0.997154
1.01445 1.01423 1.00328 0.996949
1.00281 1.00537 1.00128 0.996176
1.02065 1 1.02302 0.997684
1.01573 1.00046 1.01791 0.997398
1.01019 1.00477 1.00788 0.997542
1.02087 1 1.02319 0.997739
1.01324 1.00002 1.01534 0.997909
1.00965 1 1.01102 0.998646
1.00767 1.00005 1.00947 0.998166
1.00471 1 1.00581 0.998907
0.999859 1 1.00001 0.999853
1.00317 1 1.00407 0.999101
0.999897 1 1 0.999897
1 1 1 1
0.999921 1 1 0.999921
1 1 1 1
1 1 1 1
1.00045 1 1.00229 0.998172
1.00039 1 1.00127 0.999126
1.00023 1 1.0019 0.998337
0.999983 1 1 0.999983
0.99936 1 1 0.99936
0.999214 1 1.00058 0.998634
1 1 1 1
0.999998 1 1 0.999998
0.999549 1 1 0.999549
1 1 1 1
1 1 1 1
1 1 1 1
0.654404 0.825302 0.877381 0.903744
0.669575 0.850187 0.879601 0.895363
0.560006 0.71991 0.874772 0.889241
1.00051 1 1.00267 0.997852
1.00651 1 1.0088 0.997734
0.999307 1 1.00142 0.997891
0.695544 0.886327 0.876753 0.895062
0.639932 0.831685 0.860642 0.894031
0.628169 0.827986 0.857308 0.884946
0.856997 0.956724 0.912908 0.981218
0.738578 0.875381 0.886748 0.951479
0.650441 0.770155 0.916379 0.921627
0.640834 0.856824 0.853221 0.876581
0.802057 0.901555 0.910019 0.977603
0.774594 0.860871 0.943685 0.953474
0.739128 0.855762 0.94254 0.916361
0.687635 0.897445 0.862363 0.888505
0.820958 0.895042 0.941012 0.974726
0.816513 0.877539 0.973721 0.955568
0.801423 0.921512 0.945303 0.920004
0.64978 0.860929 0.856972 0.880709
0.999564 0.999717 1.0019 0.997955
1.00189 1 1.00426 0.997641
1.00473 1 1.00705 0.997694
0.998989 1 1.00131 0.997685
1.00026 1 1.00261 0.997657
0.99949 1 1.00159 0.997904
0.935391 0.960342 0.976339 0.997625
0.961302 0.959353 1.00275 0.999287
1.01336 1 1.01562 0.99778
1.03032 0.995938 1.03611 0.998466
1.02639 0.998855 1.02962 0.998
1.01626 0.998413 1.01983 0.998083
1.04263 0.989873 1.05515 0.998248
0.923953 0.928245 0.998656 0.996715
1.06466 0.98723 1.07986 0.998678
0.985625 0.943137 1.04586 0.99923
1.02856 0.986782 1.04399 0.998418
0.941844 0.925596 1.02149 0.996146
1.00864 0.954531 1.05772 0.999022
1.02788 0.958163 1.07406 0.998792
0.714145 0.881426 0.893758 0.906527
0.654638 0.821344 0.881008 0.904683
0.664915 0.840458 0.879903 0.899115
1.00796 0.977078 1.03199 0.999627
0.927506 0.924504 1.00669 0.996583
0.651214 0.825051 0.87699 0.900012
0.813198 0.859537 0.987035 0.958515
0.787689 0.918819 0.938849 0.913123
0.697745 0.884078 0.877137 0.899785
0.640556 0.85583 0.853587 0.876843
0.984521 0.948502 1.03827 0.999715
0.691459 0.860962 0.885915 0.906548
0.646284 0.836867 0.862978 0.894885
0.917888 0.919747 1.01294 0.985229
0.554319 0.762361 0.833529 0.872326
0.739223 0.854505 0.945257 0.91519
0.854527 0.900781 0.991485 0.956798
1.00474 0.943201 1.06775 0.997648
0.656783 0.824565 0.88075 0.904366
0.640777 0.834149 0.867063 0.885956
0.481586 0.658619 0.828451 0.882617
0.638552 0.790326 0.888613 0.909237
0.824938 0.873956 0.988379 0.955011
0.883193 0.903082 0.996846 0.981071
1.02837 0.96699 1.064 0.999501
1.02665 0.963918 1.06553 0.999573
0.997663 0.957449 1.0426 0.999427
1.02093 0.993123 1.029 0.999032
1.02402 0.973342 1.0526 0.999487
0.99278 0.966202 1.02821 0.999318
1.01137 0.992891 1.01989 0.998745
1.02482 0.999137 1.02699 0.998746
1.00055 1.00016 1.00276 0.997638
1.03085 1.00143 1.03402 0.995506
0.991468 1.00112 0.9929 0.997443
1.009 1.00309 1.01096 0.994987
1.00831 1.00446 1.00985 0.994042
1.01669 1.02051 1.00191 0.994361
1.01622 1.02015 1.00108 0.995075
1.00884 1.01114 1.00312 0.994621
1.00368 1.0069 1.00169 0.995124
1.01716 1.0204 1.0011 0.99574
1.02731 1.03145 1.00048 0.995514
1.01325 1.01174 1.00497 0.99653
1.02399 1.02506 1.00274 0.996234
1.0216 1.02488 1.00117 0.99563
1.0201 1.00331 1.01935 0.997429
1.01446 1.00702 1.01028 0.997138
1.01811 1.01731 1.0039 0.996901
1.01723 1.00018 1.0187 0.998379
1.01947 1 1.02184 0.997682
1.01622 1.00077 1.01806 0.997431
1.01345 1.00013 1.01544 0.997912
1.00864 1 1.01001 0.998644
1.00066 1 1.00091 0.999751
1.00422 1 1.00532 0.9989
0.999966 1 1.00013 0.99984
1 1 1 1
0.999889 1 1 0.999889
1 1 1 1
1 1 1 1
1.00087 1 1.00279 0.998089
1.00113 1 1.00208 0.999051
1.00122 1 1.00303 0.998199
0.999952 1 1 0.999952
0.999898 1 1.00072 0.99918
1.00034 1 1.00193 0.998408
1 1 1 1
0.999988 1 1 0.999988
0.999331 1 1 0.999331
1 1 1 1
0.999999 1 1 0.999999
1 1 1 1
0.691504 0.86411 0.884275 0.904978
0.661496 0.827124 0.884868 0.903813
0.671761 0.85009 0.882477 0.89546
1.02373 1 1.02619 0.997601
1.00733 1.00107 1.00855 0.997725
1.0005 1 1.0026 0.997898
1.00618 1 1.00849 0.997709
0.999638 1 1.00171 0.997927
1.00644 1 1.00859 0.997862
0.997009 0.998866 1 0.998142
0.652307 0.848008 0.86438 0.889912
0.698329 0.884619 0.879922 0.897139
0.646905 0.830915 0.870458 0.894409
0.685453 0.896906 0.861185 0.887431
0.806535 0.908969 0.910399 0.974637
0.782818 0.860553 0.95505 0.952483
0.744719 0.870326 0.92912 0.920956
0.808612 0.898286 0.92466 0.973517
0.820714 0.870968 0.993611 0.94836
0.795673 0.912769 0.947758 0.919763
0.643014 0.85453 0.849307 0.88599
0.858896 0.901687 0.974807 0.977161
0.842466 0.88575 1.00309 0.948206
0.723822 0.856943 0.927327 0.910849
0.565731 0.776714 0.832703 0.874699
1.04999 0.997448 1.05439 0.998375
1.002 0.999475 1.00455 0.997991
1.003 1 1.00542 0.997597
0.999278 1 1.00162 0.997666
0.932525 0.931374 1.0044 0.996846
0.985191 0.935218 1.05451 0.998978
1.01471 0.997678 1.01901 0.998101
1.03236 0.990193 1.04438 0.998285
1.04649 0.970601 1.07946 0.998821
1.03068 0.992858 1.03973 0.99842
1.03873 0.958337 1.08522 0.998779
0.942487 0.925657 1.0242 0.994122
1.01016 0.947623 1.06686 0.999194
1.0129 0.966901 1.04872 0.998906
0.93465 0.913205 1.03091 0.992799
0.982966 0.930163 1.05758 0.99923
0.655101 0.818454 0.884294 0.905143
0.708864 0.874766 0.891235 0.90924
0.663281 0.825704 0.887644 0.90497
0.974295 0.936911 1.04011 0.999805
0.925736 0.923941 1.01121 0.990838
0.6866 0.854409 0.885676 0.907324
0.87136 0.911743 1.0069 0.949162
0.74092 0.865276 0.930772 0.91997
0.653487 0.837504 0.871581 0.895247
0.543327 0.739149 0.838166 0.876999
1.00462 0.94479 1.0655 0.997957
0.662751 0.8308 0.881993 0.904457
0.63475 0.825474 0.868101 0.885786
0.886045 0.903158 0.996953 0.984051
0.495795 0.682742 0.828388 0.876621
0.629171 0.769488 0.898302 0.910216
0.823821 0.876362 0.990364 0.949193
0.986801 0.944331 1.05011 0.995112
0.67726 0.860698 0.878519 0.895681
0.533047 0.705307 0.860419 0.878371
0.580774 0.749397 0.839887 0.922729
0.764483 0.838626 0.953853 0.955692
0.833003 0.8767 0.973651 0.975871
1.03377 0.96938 1.06686 0.99959
1.00284 0.956007 1.04957 0.999442
0.982516 0.965181 1.01879 0.999182
0.997837 0.96324 1.03654 0.999402
1.01251 0.98037 1.03395 0.998865
1.02128 1.0008 1.02297 0.997553
0.997219 1.00193 0.997988 0.997307
1.03064 1.00169 1.03376 0.995302
1.01773 1.0034 1.02004 0.99435
1.01042 1.0029 1.01249 0.995072
1.00969 1.00476 1.01102 0.993945
1.00597 1.00762 1.00448 0.993912
1.05337 1.05947 0.999491 0.994756
1.03149 1.03615 1.00077 0.99474
1.01665 1.02026 1.00218 0.994304
1.01822 1.02281 1.00013 0.99539
1.01403 1.01822 1.00074 0.995139
1.00882 1.01073 1.00357 0.994561
1.02097 1.02341 1.00187 0.995746
1.01754 1.02082 1.00108 0.995714
1.0285 1.0326 1.00043 0.995612
1.01206 1.00638 1.0087 0.996965
1.01354 1.0108 1.00607 0.996662
1.02462 1.02543 1.00289 0.996327
1.01835 1.00289 1.01738 0.998066
1.01864 1.00425 1.01694 0.997436
1.0149 1.00816 1.00959 0.997122
1.00408 1 1.00446 0.99962
1.01632 1.0004 1.01757 0.998379
1.0175 1 1.01987 0.99768
1.00771 1 1.00908 0.998641
1.00149 1 1.00176 0.999738
1 1 1 1
1.00007 1 1.00024 0.999828
1 1 1 1
1 1 1 1
1.01718 1.00046 1.01914 0.997621
1.01137 1.00002 1.01353 0.997852
1.00119 1 1.00237 0.998821
1.00256 1 1.00448 0.998084
0.999909 1 1 0.999909
1.00103 1 1.00198 0.999052
1.00275 1 1.00453 0.998227
1 1 1 1
0.999962 1 1 0.999962
0.999566 1 1.00033 0.999234
1 1 1 1
0.999993 1 1 0.999993
1 1 1 1
0.656367 0.826953 0.881643 0.900271
0.685488 0.858776 0.881249 0.905777
0.661112 0.830715 0.880474 0.903872
1.02527 1 1.02775 0.997588
1.01076 1.00082 1.01221 0.997758
0.998017 1.00131 0.999218 0.997489
1.0275 0.99993 1.0299 0.997742
1.00862 1.00259 1.00823 0.997808
1.0082 1 1.01054 0.997683
0.999979 0.999991 1.00203 0.997962
1.00753 0.999583 1.0101 0.997869
0.998397 0.999872 1.00032 0.998204
1.0272 0.999409 1.02963 0.998232
0.61685 0.813184 0.85605 0.886117
0.648773 0.839961 0.867473 0.890384
0.695947 0.883815 0.875692 0.899214
0.639748 0.85243 0.846424 0.88667
0.790253 0.916304 0.944003 0.913594
0.803421 0.891374 0.927572 0.971707
0.821958 0.870265 0.989202 0.954802
0.849366 0.905945 0.963822 0.972739
0.845853 0.899844 0.984215 0.955075
0.740461 0.854673 0.946436 0.9154
0.57326 0.79017 0.830878 0.87316
0.875933 0.903401 0.993825 0.975619
0.825206 0.862925 1.00039 0.95592
0.63216 0.76022 0.90201 0.921883
0.518546 0.696374 0.84353 0.882763
1.03927 0.998653 1.04179 0.998928
1.05114 0.99653 1.05651 0.998382
1.00716 1 1.00915 0.99803
0.939942 0.924036 1.02545 0.991971
1.01289 0.944699 1.07291 0.999325
1.03143 0.996133 1.03707 0.998422
1.05284 0.956634 1.10192 0.998767
1.01833 0.972713 1.04804 0.998912
0.988624 0.93945 1.05313 0.99925
0.931531 0.911742 1.02907 0.992841
1.00556 0.979891 1.02687 0.999345
0.951523 0.937738 1.02048 0.99434
0.677508 0.849353 0.885348 0.900974
0.666612 0.828103 0.889093 0.905402
0.702086 0.868431 0.886446 0.912017
1.00855 0.956175 1.05669 0.998188
0.881376 0.904469 0.995658 0.978719
0.672651 0.839734 0.885567 0.904537
0.827802 0.876457 0.99197 0.952134
0.636271 0.757648 0.912377 0.920451
0.625084 0.82293 0.857574 0.885735
0.50877 0.709039 0.824243 0.870553
0.983584 0.942826 1.04796 0.99549
0.673891 0.853474 0.881558 0.89567
0.533213 0.710825 0.855264 0.877078
0.847082 0.892105 0.971109 0.97778
0.594942 0.75675 0.854133 0.920443
0.758148 0.851358 0.935957 0.95145
0.926974 0.924643 1.00943 0.993155
0.547027 0.717872 0.862716 0.883271
0.615703 0.775922 0.858319 0.924494
0.742939 0.868632 0.898945 0.951446
0.804 0.884369 0.928925 0.978682
1.00747 0.957317 1.05296 0.99946
0.985144 0.955191 1.03223 0.999151
0.997617 0.986694 1.01271 0.998383
1.01347 0.966215 1.04998 0.998979
1.01337 0.998937 1.01683 0.997652
0.991308 1.00444 0.990489 0.9964
1.02989 1.00163 1.03328 0.995094
1.01633 1.00475 1.01728 0.994342
1.0038 1.00811 1.00082 0.994909
1.01055 1.00496 1.01179 0.993848
1.00525 1.00764 1.0037 0.993954
1.0423 1.05223 0.995506 0.99504
1.07548 1.0885 0.992376 0.995631
1.06748 1.07298 1.00002 0.994859
1.05414 1.06053 0.999174 0.99479
1.04186 1.04705 1 0.995041
1.03004 1.03444 1.00107 0.994678
1.01716 1.02056 1.00244 0.994247
1.03672 1.04139 1.00007 0.995444
1.01595 1.02056 1.00002 0.995458
1.01167 1.01622 1.00032 0.995204
1.02036 1.01733 1.00676 0.99624
1.01775 1.01914 1.00281 0.995832
1.01878 1.02207 1.0011 0.995688
1.01965 1.00434 1.01767 0.997618
1.01657 1.0082 1.01138 0.996959
1.01446 1.01065 1.007 0.996792
1.00644 1 1.00696 0.99948
1.01995 1.00391 1.01794 0.998066
1.01848 1.00518 1.01583 0.997443
0.999896 1 1 0.999896
1.00553 1 1.00593 0.999603
1.01617 1.00051 1.0173 0.998379
1.00254 1 1.00281 0.999724
1 1 1 1
1 1 1 1
1.01092 1.0033 1.01019 0.997424
1.01717 1.0004 1.01919 0.997618
1.02 1.00021 1.02224 0.997595
1.00504 1 1.00646 0.998583
1.00964 1.0002 1.01162 0.997846
1.00025 1 1.0004 0.999852
1.00216 1 1.00333 0.998825
1.00352 1 1.00545 0.998078
1 1 1 1
0.999922 1 1 0.999922
1.00054 1 1.00149 0.999054
1 1 1 1
0.999972 1 1 0.999972
1 1 1 1
0.661715 0.835182 0.879805 0.900542
0.660301 0.831356 0.882151 0.900352
0.686144 0.850724 0.889685 0.906547
1.00993 1.00439 1.00834 0.997201
1.0228 1 1.02528 0.997576
1.00809 1 1.01032 0.997793
1.02163 1 1.02402 0.997668
1.00092 1.00356 0.999859 0.997509
1.00293 1.00117 1.00374 0.998031
1.01705 1.00317 1.01692 0.996978
1.02067 0.991715 1.03118 0.998072
1.00759 0.999211 1.01053 0.997877
0.998267 1 1 0.998267
1.02894 0.997576 1.03328 0.998217
1.04665 1.00086 1.04734 0.998474
0.554221 0.722095 0.869968 0.882238
0.63429 0.831302 0.861504 0.88567
0.648373 0.836395 0.870279 0.890749
0.582219 0.794594 0.832099 0.880574
0.729542 0.847659 0.941988 0.913657
0.847445 0.892041 1.00176 0.94834
0.854866 0.905655 0.969554 0.973561
0.871639 0.899735 0.990534 0.97803
0.514351 0.700864 0.837116 0.876679
0.817744 0.869863 0.989217 0.95033
0.633073 0.768203 0.901994 0.913638
0.87099 0.90718 0.979166 0.980536
0.783752 0.858191 0.953217 0.958082
0.581079 0.746866 0.844215 0.921593
0.985417 1.00094 0.984933 0.999549
1.04175 0.999109 1.0438 0.998934
1.04994 0.995578 1.05631 0.998386
0.936304 0.915855 1.02964 0.992893
0.996394 0.951753 1.04767 0.999273
1.02671 0.982793 1.04581 0.998919
1.00185 0.976658 1.02646 0.999353
0.947913 0.937793 1.01648 0.994406
0.972545 0.972205 1.00389 0.996477
0.579432 0.736329 0.884007 0.890173
0.67358 0.846166 0.881621 0.902926
0.671878 0.836018 0.887449 0.905589
0.982089 0.940271 1.04898 0.995701
0.841672 0.88944 0.96691 0.97868
0.668984 0.844581 0.884218 0.895808
0.775353 0.85051 0.958284 0.951318
0.586908 0.763441 0.84201 0.913015
0.554501 0.734842 0.854246 0.883335
0.926507 0.918476 1.01567 0.993182
0.560241 0.721292 0.872939 0.889774
0.597557 0.768736 0.848575 0.916035
0.802859 0.891725 0.924316 0.974066
0.771355 0.889805 0.904609 0.958293
0.920628 0.942429 0.979946 0.996859
0.642356 0.78894 0.891538 0.913255
0.836319 0.955646 0.910584 0.96107
0.796298 0.90498 0.903734 0.973635
0.988973 0.948029 1.0441 0.999126
0.983519 0.98573 0.999297 0.998459
0.987538 1.00028 0.989959 0.997277
1.00534 0.997559 1.01008 0.997751
0.993765 1.00435 0.99308 0.996354
0.995496 1.01025 0.989133 0.996224
1.01587 1.00665 1.01491 0.994335
1.00371 1.0079 1.00095 0.994904
1.03495 1.05289 0.986829 0.996082
1.00482 1.00767 1.00319 0.993997
1.04107 1.05131 0.99519 0.995045
1.07048 1.09083 0.984981 0.996309
1.06624 1.08517 0.986053 0.996452
1.07883 1.08854 0.995519 0.995543
1.07773 1.09062 0.992463 0.995683
1.07483 1.08013 1 0.995095
1.06511 1.07053 0.999997 0.994942
1.05387 1.06057 0.998844 0.994825
1.06094 1.06598 1 0.995267
1.04212 1.04716 1.00014 0.995058
1.0282 1.03224 1.00148 0.994616
1.04185 1.04417 1.00209 0.99569
1.03387 1.0384 1.00019 0.99544
1.01403 1.01859 1 0.995525
1.0148 1.00815 1.00953 0.997094
1.02339 1.0204 1.00672 0.996229
1.01361 1.01377 1.00394 0.99592
1.00578 1 1.00663 0.999157
1.01865 1.00645 1.01455 0.99761
1.01928 1.00989 1.01238 0.996952
1 1 1 1
1.00626 1 1.00689 0.999368
1.02078 1.00495 1.01772 0.998065
1 1 1 1
1.00664 1 1.00708 0.999564
1 1 1 1
1.00965 1.00888 1.00369 0.997085
1.00914 1.00305 1.00873 0.997367
1.01758 1.00196 1.01819 0.99745
1.01179 1 1.01345 0.998363
1.01949 1.00029 1.02164 0.997615
1.02556 1 1.02806 0.997568
1.0016 1 1.00183 0.999766
1.00451 1 1.00593 0.998589
1.00799 1 1.01017 0.99784
1 1 1 1
1.00019 1 1.00032 0.999866
1.00281 1 1.00399 0.998829
1 1 1 1
0.999934 1 1 0.999934
1 1 1 1
0.558985 0.726947 0.872422 0.881396
0.666272 0.841588 0.879023 0.900641
0.664424 0.836676 0.881912 0.900456
1.01644 1.00313 1.01614 0.997173
1.03095 1.01261 1.02145 0.996727
1.03365 1.00236 1.03423 0.997086
1.0222 1 1.02467 0.997593
1.00352 1.00666 0.999349 0.99753
1.0002 0.999015 1.00294 0.998246
1.02257 0.996646 1.0281 0.997967
1.01912 1.00306 1.0189 0.997173
1.01934 0.998846 1.02317 0.997404
0.971282 1.00011 0.972183 0.998964
1.03032 0.998793 1.03342 0.998201
1.04149 0.99946 1.04368 0.998437
0.605685 0.7696 0.863101 0.911843
0.526439 0.693977 0.864149 0.877838
0.64731 0.84307 0.866996 0.885587
0.510372 0.706414 0.830098 0.870358
0.643282 0.778467 0.896361 0.921888
0.805919 0.864493 0.979588 0.951669
0.866094 0.893112 0.994817 0.974801
0.856384 0.897986 0.975752 0.977371
0.599826 0.756811 0.861829 0.919638
0.764896 0.854898 0.940081 0.951751
0.834675 0.905717 0.940568 0.979793
0.744479 0.89274 0.875472 0.952545
0.993695 1 0.994607 0.999084
0.98571 1.00076 0.98547 0.999487
1.04262 0.998184 1.04563 0.998939
0.935799 0.929623 1.01221 0.994498
0.995251 0.970452 1.02621 0.99936
0.975068 0.975556 1.00307 0.996439
0.954018 0.983298 0.975011 0.995089
0.670701 0.800749 0.908594 0.921856
0.573668 0.735338 0.876849 0.88971
0.677045 0.847993 0.882463 0.904751
0.929036 0.926432 1.00943 0.993438
0.807232 0.891408 0.92932 0.974444
0.561612 0.72061 0.876023 0.889653
0.741331 0.881479 0.883416 0.951995
0.609694 0.76167 0.866022 0.924308
0.918305 0.945961 0.975542 0.995102
0.656167 0.799185 0.893422 0.918989
0.807584 0.942655 0.898895 0.953074
0.799736 0.903812 0.905975 0.97668
0.923075 0.970233 0.954788 0.996447
0.868655 0.974272 0.928565 0.960184
0.854847 0.954638 0.912913 0.98089
0.968802 0.982941 0.987083 0.998514
0.982577 1.00036 0.984943 0.997237
0.973051 1.00912 0.967154 0.997004
0.995764 1.00391 0.995554 0.996311
0.994805 1.00952 0.989172 0.996211
1.01431 1.05586 0.963643 0.996895
1.00304 1.00722 1.00095 0.9949
1.03124 1.05066 0.985408 0.996052
1.04901 1.08925 0.966023 0.99693
1.04026 1.05081 0.994891 0.99505
1.06904 1.09037 0.984084 0.996297
1.0564 1.08593 0.975786 0.996948
1.06393 1.08557 0.983176 0.996835
1.06603 1.08558 0.985406 0.99653
1.06891 1.08267 0.990963 0.996302
1.08291 1.08989 0.997975 0.995609
1.0798 1.08877 0.996163 0.995578
1.08057 1.09337 0.992526 0.995735
1.08054 1.08567 1 0.995277
1.0761 1.08138 0.999996 0.995118
1.06332 1.06865 0.999992 0.995025
1.06183 1.06668 1 0.995453
1.06268 1.06774 1 0.995266
1.04241 1.04739 1.00017 0.995075
1.01629 1.01845 1.00129 0.996589
1.04192 1.0449 1.00145 0.995699
1.03071 1.03512 1.0003 0.995437
1.005 1.00011 1.00613 0.998774
1.01731 1.01097 1.00921 0.997086
1.02797 1.02457 1.00712 0.996219
1 1 1 1
1.00602 1 1.00689 0.999134
1.01914 1.00859 1.01289 0.997602
0.999918 1 1 0.999918
1.00675 1 1.00739 0.999367
1 1 1 1
1.02092 1.01616 1.00801 0.996714
1.0086 1.00447 1.00704 0.997094
1.0103 1.00428 1.00875 0.997269
1.00647 1.00277 1.0064 0.997309
1.01648 1.00133 1.01771 0.997456
1.01753 1 1.01943 0.998133
1.00313 1 1.0035 0.999638
1.01079 1 1.01245 0.998362
1.01983 1 1.02227 0.997613
1 1 1 1
1.00069 1 1.0009 0.999784
1.00384 1 1.00525 0.998595
1 1 1 1
0.999882 1 1 0.999882
1 1 1 1
0.642813 0.790984 0.884461 0.918836
0.561485 0.72752 0.873265 0.883787
0.667735 0.844749 0.87753 0.900771
1.0213 1.00177 1.02241 0.997146
1.0417 1.00195 1.04302 0.996792
1.02494 1.01119 1.0169 0.996756
1.01701 1.01885 1.00242 0.99578
1.03138 1.00405 1.03003 0.997277
1.02043 0.999899 1.02271 0.99787
1.02015 1.00327 1.0195 0.997369
1.02019 1.00072 1.02198 0.997528
0.996602 1.0089 0.990709 0.997079
0.961781 1.00132 0.962019 0.998439
0.96912 1.00082 0.970619 0.99764
0.977563 1.00087 0.977705 0.998984
1.03568 0.998445 1.03895 0.998402
0.810287 0.939749 0.899974 0.95807
0.60086 0.76662 0.85706 0.914497
0.514505 0.6816 0.857288 0.880507
0.595176 0.764975 0.85265 0.912488
0.769729 0.857802 0.940092 0.954509
0.866131 0.899078 0.982461 0.980552
0.831318 0.901831 0.938621 0.982092
0.777403 0.893488 0.906489 0.959831
0.846543 0.950538 0.907829 0.981015
0.987486 1.00055 0.988683 0.998241
0.995188 0.999474 0.996655 0.999054
0.986132 1.00037 0.986329 0.999426
0.980245 0.980851 1.00292 0.996477
0.963617 0.986655 0.980666 0.995906
0.860162 0.964357 0.933173 0.95583
0.666251 0.798466 0.90369 0.923341
0.566473 0.731891 0.870314 0.889317
0.922128 0.954868 0.972308 0.993217
0.804099 0.914574 0.902723 0.973948
0.644483 0.79289 0.885579 0.917849
0.813786 0.938922 0.902599 0.960253
0.932639 0.972125 0.962692 0.996562
0.875308 0.98117 0.929273 0.960005
0.851726 0.951368 0.915742 0.977638
0.928252 0.999211 0.932871 0.995833
0.898716 0.987404 0.922354 0.986802
0.980448 1.00215 0.981064 0.997228
0.967074 1.00902 0.961352 0.996962
0.971867 1.0443 0.933159 0.997303
0.993848 1.00889 0.988853 0.996196
1.01799 1.05796 0.965245 0.996859
1.03758 1.0934 0.951562 0.997252
1.02762 1.04845 0.984046 0.996023
1.04908 1.08881 0.966505 0.9969
1.04647 1.08874 0.963912 0.997167
1.06708 1.08938 0.983186 0.996284
1.05609 1.08522 0.976162 0.996926
1.05988 1.09032 0.974986 0.997019
1.06171 1.0843 0.982215 0.996892
1.06546 1.08557 0.984783 0.996643
1.06555 1.08565 0.984829 0.996607
1.06817 1.08247 0.990462 0.996294
1.071 1.08084 0.994821 0.996056
1.08289 1.0883 0.999482 0.995545
1.08356 1.09011 0.998391 0.995597
1.08064 1.08888 0.996811 0.995614
1.07457 1.07956 1 0.995373
1.08275 1.0879 1 0.995265
1.07726 1.08252 0.999993 0.995142
1.03007 1.03327 1.00071 0.996203
1.06105 1.06588 1 0.995461
1.06469 1.06975 1 0.995264
1.00212 1.00088 1.0029 0.998342
1.01914 1.02086 1.00172 0.996595
1.04196 1.04516 1.00124 0.995707
1 1 1 1
1.00443 1.0002 1.00549 0.998745
1.01841 1.01343 1.00785 0.997079
1 1 1 1
1.00557 1 1.00647 0.999111
1 1 1 1
1.02971 1.03315 1.00086 0.995812
1.01968 1.01847 1.0045 0.996706
1.01264 1.00755 1.00822 0.996846
1.00851 1.00045 1.01098 0.997104
1.00986 1.00265 1.01 0.997218
1.01661 1.00265 1.01617 0.997793
1.01837 1.001 1.01994 0.99746
1.01885 1 1.02076 0.998125
1.00775 1 1.00832 0.999437
1 1 1 1
1.00321 1 1.00356 0.999652
1.0123 1 1.01396 0.998361
1 1 1 1
1.00074 1 1.00094 0.999797
1 1 1 1
0.86611 0.971536 0.926376 0.962336
0.657668 0.801017 0.89253 0.919904
0.555289 0.725299 0.869457 0.880549
1.05192 1.00153 1.05401 0.996496
1.01955 1.01134 1.01137 0.996784
1.02754 1.00536 1.02505 0.997089
1.016 1.01793 1.00224 0.995878
1.03936 1.04379 1.00016 0.995596
1.00176 1.01273 0.992406 0.996739
1.02402 1.00308 1.02328 0.997648
0.997909 1.01035 0.990809 0.996845
0.970325 1.00212 0.969802 0.99842
0.999229 1.00698 0.995215 0.997076
0.972577 1.00345 0.971622 0.997542
0.991184 1.0017 0.99238 0.9971
0.967799 1.00104 0.968983 0.997741
0.984257 0.999895 0.985341 0.999004
0.858291 0.962737 0.908895 0.980874
0.813954 0.94788 0.897345 0.956945
0.617559 0.766846 0.872454 0.923056
0.748009 0.881213 0.891847 0.951777
0.843182 0.904134 0.948461 0.983262
0.853288 0.93912 0.921581 0.985918
0.951406 1.00345 0.951807 0.996145
0.984343 0.999974 0.986209 0.998133
0.996206 0.998747 0.998428 0.999027
0.97094 0.989404 0.984581 0.996707
0.888194 0.973393 0.929592 0.981584
0.869044 0.970215 0.929557 0.963602
0.655851 0.792904 0.903417 0.915581
0.930936 0.967453 0.965438 0.996702
0.851139 0.95241 0.912387 0.979484
0.870585 0.98244 0.923486 0.959566
0.927481 0.997427 0.933618 0.99599
0.902982 0.984856 0.930142 0.985728
0.941778 1.02553 0.921658 0.996391
0.951738 1.02552 0.933077 0.994617
0.960553 1.00897 0.954959 0.996912
0.969407 1.04101 0.933735 0.997307
1.00649 1.08822 0.927471 0.997224
1.02239 1.06059 0.967061 0.996822
1.03751 1.09294 0.951926 0.997226
1.05541 1.09898 0.963132 0.997116
1.0494 1.08871 0.966924 0.996871
1.04785 1.08861 0.965311 0.997147
1.0663 1.09941 0.972828 0.996974
1.05599 1.0848 0.976469 0.996903
1.0585 1.08817 0.975644 0.997014
1.06625 1.09149 0.980068 0.996747
1.05965 1.08326 0.981201 0.996949
1.06492 1.08538 0.984407 0.996689
1.07029 1.08469 0.990364 0.996316
1.06749 1.08235 0.989947 0.996286
1.07157 1.08142 0.994827 0.996046
1.07751 1.08419 0.997997 0.99584
1.07639 1.08129 1 0.995472
1.08378 1.08904 0.999654 0.995509
1.0842 1.09027 0.998847 0.995585
1.04704 1.05123 1 0.996017
1.0731 1.07809 1 0.99538
1.08512 1.09029 1 0.995252
1.00391 1.005 1.00088 0.998041
1.02987 1.03286 1.00091 0.996203
1.05926 1.06408 1 0.995469
1 1 1 1
1.00247 1.00192 1.00224 0.998315
1.02208 1.02332 1.00219 0.996601
1 1 1 1
1.00419 1.00027 1.00521 0.998718
1 1 1 1
1.05158 1.05631 1 0.995522
1.02996 1.03376 1.00049 0.995835
1.03049 1.03168 1.00272 0.996139
1.01887 1.01994 1.00226 0.996699
1.01491 1.01146 1.00666 0.996766
1.01736 1.0117 1.00827 0.997344
1.00845 1.00008 1.01123 0.997168
1.01545 1.00186 1.0158 0.997796
1.00749 1 1.00832 0.999175
1.01701 1 1.01893 0.99812
1.00583 1 1.00638 0.999449
1 1 1 1
1 1 1 1
1.00185 1 1.00218 0.999668
1 1 1 1
0.883001 0.963524 0.932901 0.982343
0.857816 0.967735 0.928188 0.954996
0.664122 0.793577 0.904846 0.924878
1.06629 1.07114 0.999848 0.995622
1.02249 1.00594 1.01961 0.996905
1.01544 1.01742 1.00208 0.995975
1.0028 1.01389 0.992285 0.996751
1.03955 1.04375 1.0004 0.995581
1.02583 1.03022 0.999053 0.99668
1.00084 1.01194 0.992396 0.996613
0.976777 1.00204 0.976357 0.998398
0.997653 1.00865 0.991983 0.997091
0.964443 1.00277 0.964292 0.997393
1.02336 1.02494 1.00213 0.996337
0.97277 1.00782 0.967926 0.99721
0.990532 1.00227 0.991162 0.997099
0.967915 1.00134 0.968715 0.997841
0.937111 1.00512 0.935336 0.996792
0.845649 0.954416 0.904956 0.979096
0.816997 0.953346 0.896361 0.956064
0.851048 0.932502 0.928034 0.983423
0.95381 1.00334 0.953103 0.997406
0.981985 0.999948 0.983994 0.99801
0.959647 1.01448 0.952612 0.993003
0.885872 0.959198 0.939697 0.982822
0.861467 0.970376 0.92862 0.956006
0.932021 0.996562 0.938863 0.996138
0.910455 0.987501 0.936483 0.984512
0.944191 1.02745 0.922083 0.996615
0.959035 1.02593 0.939464 0.995032
0.990628 1.05899 0.938304 0.996958
1.05577 1.11558 0.949335 0.996897
0.965746 1.03701 0.933792 0.997311
1.01287 1.08987 0.931946 0.997206
1.05123 1.11455 0.946061 0.996968
1.0373 1.09209 0.952502 0.9972
1.05178 1.09666 0.961855 0.997113
1.06866 1.10943 0.966287 0.996856
1.04908 1.08825 0.966779 0.997128
1.06368 1.09732 0.972273 0.996988
1.07045 1.09657 0.979416 0.996699
1.05711 1.08594 0.976376 0.997009
1.06687 1.09205 0.980128 0.996745
1.07016 1.08902 0.986195 0.996444
1.0643 1.08511 0.984036 0.996735
1.0698 1.08473 0.989838 0.996362
1.07889 1.08777 0.995788 0.996031
1.07212 1.08202 0.994791 0.996037
1.07754 1.08397 0.99822 0.995841
1.07763 1.08238 1 0.995605
1.05419 1.05843 1 0.99599
1.07563 1.08054 1 0.995457
1.08462 1.08974 0.999827 0.995472
1.01325 1.01535 1 0.997937
1.04488 1.04906 1 0.996017
1.07208 1.07705 1 0.995387
1 1 1 1
1.00688 1.00847 1.0004 0.998023
1.03065 1.03383 1.00072 0.996204
1 1 1 1
1.00295 1.00338 1.00128 0.998289
1 1 1 1
1.06836 1.07328 1 0.995416
1.04981 1.05454 1 0.995514
1.05678 1.06132 1 0.995727
1.02943 1.03344 1.00026 0.995858
1.03559 1.03659 1.00295 0.996102
1.02657 1.02569 1.00395 0.996914
1.01644 1.01542 1.00434 0.996686
1.01374 1.00747 1.00891 0.99735
1.00441 1.00009 1.00544 0.998893
1.01607 1.00065 1.01766 0.997795
1.00735 1.00004 1.00812 0.99919
1 1 1 1
1.00525 1 1.00579 0.999461
1 1 1 1
1 1 1 1
0.939909 1.01033 0.933856 0.996195
0.872785 0.963135 0.925995 0.978613
0.85702 0.967203 0.92043 0.962682
1.06325 1.06811 0.999217 0.996237
1.07191 1.08245 0.994317 0.995924
1.06552 1.07046 0.999666 0.995722
1.00396 1.01538 0.991959 0.996761
1.03951 1.04343 1.00069 0.995564
1.02891 1.03415 0.998259 0.996672
1.05118 1.07029 0.985847 0.996253
0.996943 1.01037 0.989573 0.997107
0.959064 1.00248 0.959338 0.997244
1.02706 1.02868 1.00193 0.996499
1.02528 1.06148 0.969503 0.996276
0.979975 1.03138 0.952717 0.997319
0.984709 1.01129 0.976513 0.997134
0.993811 1.00275 0.993973 0.997096
0.934832 1.00601 0.931891 0.997168
0.855002 0.958953 0.912277 0.977333
0.954604 1.00203 0.953899 0.998714
1.0383 1.08352 0.960795 0.997372
0.955065 1.01341 0.948902 0.993172
0.886543 0.964956 0.937164 0.98034
0.946856 1.02979 0.9224 0.996821
0.964324 1.02641 0.943784 0.995473
0.984496 1.05908 0.932211 0.99717
1.05214 1.11403 0.94735 0.996934
1.05901 1.12878 0.941076 0.996933
1.10568 1.15669 0.958675 0.997108
1.01934 1.09265 0.935537 0.997187
1.05709 1.11795 0.948435 0.996968
1.07069 1.11945 0.959524 0.996789
1.04783 1.0944 0.960224 0.99711
1.06873 1.10899 0.966735 0.996858
1.06905 1.10198 0.973356 0.996673
1.06102 1.09524 0.971668 0.997002
1.0715 1.09755 0.979503 0.996696
1.07195 1.09211 0.985031 0.996459
1.0675 1.09265 0.980182 0.996742
1.07078 1.0896 0.986241 0.996441
1.07888 1.09093 0.99281 0.996116
1.0693 1.08475 0.989309 0.996407
1.07795 1.0872 0.995435 0.99604
1.08225 1.08702 0.999918 0.995693
1.07756 1.08372 0.998468 0.995843
1.0774 1.08214 1 0.99562
1.0548 1.05903 1 0.996001
1.0193 1.02139 1 0.997952
1.05437 1.05861 1 0.995992
1.07516 1.08009 1 0.995442
1 1 1 1
1.0147 1.01671 1.00009 0.997929
1.04191 1.04578 1.00029 0.996017
1 1 1 1
1.00903 1.01076 1.00028 0.998005
1 1 1 1
1.07545 1.0813 0.998959 0.99562
1.06759 1.07249 0.999992 0.995439
1.06957 1.07435 1 0.995554
1.04822 1.05295 1 0.995505
1.0579 1.06244 1 0.995724
1.03087 1.03326 1.00116 0.996534
1.04159 1.04247 1.0031 0.996065
1.02176 1.02087 1.00397 0.996916
1.00223 1.00117 1.00253 0.998533
1.01065 1.00442 1.00887 0.997358
1.00497 1.00009 1.00598 0.998913
1 1 1 1
1.0066 1 1.0074 0.999206
1 1 1 1
1 1 1 1
0.984853 1.0577 0.933336 0.997636
0.940933 1.00871 0.937629 0.994857
0.875641 0.966852 0.924527 0.979595
1.06462 1.08117 0.988473 0.996171
1.06159 1.06681 0.998649 0.996459
1.07798 1.09511 0.988199 0.996111
1.07123 1.08314 0.993069 0.995902
1.06446 1.06954 0.999427 0.995822
1.07216 1.10493 0.974161 0.996081
1.0321 1.03816 0.997495 0.996662
1.04913 1.06713 0.986895 0.996191
1.04874 1.10636 0.951336 0.996414
1.02533 1.03224 0.996627 0.99666
1.02555 1.06293 0.968537 0.996174
0.973891 1.03713 0.941506 0.997367
0.992263 1.01325 0.982177 0.997053
0.932905 1.00659 0.929141 0.997482
1.09122 1.14501 0.955745 0.997151
1.04409 1.08881 0.961427 0.997401
0.95632 1.01183 0.951469 0.993351
0.978547 1.05848 0.926919 0.997377
1.04906 1.11224 0.94606 0.996971
1.05138 1.12431 0.937994 0.996953
1.11367 1.16313 0.960255 0.997109
1.08724 1.13512 0.960716 0.99699
1.06278 1.12081 0.951104 0.996969
1.07132 1.11829 0.961069 0.996799
1.06972 1.10617 0.970216 0.99673
1.06892 1.10852 0.967312 0.996861
1.06977 1.10211 0.973919 0.996654
1.07133 1.09366 0.983057 0.996459
1.07258 1.09855 0.9796 0.996692
1.07243 1.09258 0.985054 0.996455
1.07745 1.09144 0.990971 0.996178
1.07141 1.09019 0.986289 0.996438
1.07918 1.09119 0.992853 0.996116
1.08693 1.09219 0.999411 0.995771
1.07702 1.08666 0.995057 0.99605
1.0823 1.08711 0.999869 0.995699
1.05544 1.05968 1 0.995994
1.07696 1.08168 1 0.995634
1.05593 1.06017 1 0.996003
1.01946 1.02113 1 0.998366
0.999281 1 1 0.999281
1.01943 1.02134 1 0.998124
1.05422 1.05846 1 0.995994
1 1 1 1
1.01681 1.01892 1 0.99792
1 1 1 1
1.08267 1.09731 0.990382 0.996238
1.07703 1.08713 0.994767 0.995919
1.07461 1.08145 0.998013 0.995653
1.06865 1.07341 1 0.995566
1.06718 1.07204 1 0.995462
1.06746 1.07224 1 0.995544
1.03441 1.03801 1.00029 0.99624
1.05822 1.06277 1 0.995721
1.03066 1.03322 1.001 0.996532
1.0056 1.00704 1.00041 0.998157
1.01628 1.01536 1.004 0.996917
1.00282 1.00089 1.00338 0.998554
1 1 1 1
1.00546 1.00009 1.00644 0.998934
1 1 1 1
1 1 1 1
1.0773 1.13471 0.952369 0.996882
0.997502 1.06899 0.935355 0.997615
0.938825 1.00863 0.93684 0.993546
1.07236 1.0969 0.981407 0.99615
1.06073 1.07746 0.98822 0.996212
1.06015 1.06561 0.998195 0.99668
1.07745 1.09309 0.989533 0.996126
1.07056 1.08368 0.991978 0.99588
1.07722 1.1216 0.963912 0.996392
1.06556 1.09929 0.973181 0.996037
1.0474 1.06437 0.987887 0.996128
1.04288 1.09981 0.951654 0.996416
1.0314 1.06667 0.970744 0.996072
0.969877 1.04686 0.928854 0.997425
1.08277 1.12366 0.966412 0.9971
1.09228 1.14548 0.956248 0.997189
1.04888 1.09469 0.960621 0.99743
1.04395 1.12057 0.934455 0.99697
1.12157 1.17028 0.961159 0.997111
1.08946 1.13756 0.960607 0.996993
1.07769 1.10731 0.976315 0.996863
1.07189 1.11707 0.962626 0.996809
1.07049 1.10603 0.971057 0.996713
1.07288 1.09496 0.983257 0.996514
1.07052 1.10227 0.97448 0.996634
1.07195 1.09425 0.983106 0.996458
1.07603 1.09065 0.990345 0.996215
1.07294 1.09307 0.985078 0.99645
1.07804 1.09197 0.991031 0.996176
1.08891 1.09492 0.998671 0.995828
1.07942 1.09139 0.992895 0.996115
1.08635 1.09169 0.999327 0.995775
1.05603 1.06032 1 0.995955
1.08237 1.08724 0.999818 0.995705
1.05658 1.06083 1 0.995997
1.01765 1.01929 1 0.998394
1.05745 1.06169 1 0.996005
1.01894 1.02061 1 0.998359
0.999316 1 1 0.999316
0.999659 1 1 0.999659
1.01967 1.02139 1 0.998315
1 1 1 1
1.07367 1.09389 0.985209 0.996254
1.07987 1.0899 0.99474 0.99604
1.08087 1.09576 0.99 0.99637
1.07819 1.08289 0.999989 0.995667
1.07937 1.08892 0.995297 0.995915
1.07377 1.08166 0.997008 0.995685
1.06919 1.07396 1 0.995555
1.05043 1.05454 1 0.9961
1.0661 1.07089 1 0.995534
1.03927 1.04304 1.00015 0.996241
1.01501 1.01706 1 0.997981
1.03066 1.03363 1.0006 0.996531
1.00402 1.00475 1.00109 0.998182
1 1 1 1
1.00318 1.00044 1.00417 0.998576
1 1 1 1
1 1 1 1
1.07681 1.11848 0.965877 0.996759
1.06793 1.12432 0.952807 0.996885
1.00964 1.07769 0.939125 0.997589
1.07442 1.10424 0.976581 0.996329
1.06948 1.0945 0.980919 0.996144
1.0564 1.0734 0.98786 0.996256
1.07661 1.09097 0.990668 0.996141
1.07766 1.12063 0.96516 0.996365
1.05851 1.09289 0.972436 0.995993
1.03352 1.08838 0.953009 0.996417
1.08143 1.11012 0.977154 0.996929
1.08146 1.12161 0.967057 0.997056
1.09315 1.14507 0.957312 0.997227
1.07658 1.09958 0.982262 0.996772
1.09145 1.13967 0.960575 0.996996
1.0773 1.10703 0.976224 0.996848
1.07534 1.09574 0.984698 0.996634
1.07128 1.10587 0.971927 0.996695
1.07318 1.09529 0.983232 0.996517
1.07594 1.08983 0.990972 0.99625
1.07252 1.09478 0.983155 0.996456
1.07634 1.09099 0.990321 0.996215
1.0887 1.09548 0.997922 0.995876
1.07862 1.0925 0.99109 0.996173
1.08786 1.09392 0.998623 0.995831
1.05594 1.06028 1 0.995914
1.08575 1.09118 0.999243 0.99578
1.05722 1.06151 1 0.99596
1.01588 1.01754 1 0.998374
1.05772 1.06197 1 0.996
1.01707 1.01873 1 0.998378
0.999318 1 1 0.999318
1.01827 1.01995 1 0.998356
0.999336 1 1 0.999336
1 1 1 1
1.07295 1.0928 0.985606 0.996167
1.07784 1.09167 0.991225 0.996065
1.07567 1.09504 0.986007 0.996253
1.08545 1.09062 0.99948 0.995771
1.07981 1.09166 0.993027 0.996095
1.0793 1.09436 0.989704 0.996502
1.06112 1.06534 1 0.996046
1.07873 1.08344 1 0.995656
1.08211 1.09101 0.995916 0.995912
1.0698 1.07459 1 0.995543
1.0511 1.05522 1 0.996098
1.02142 1.0235 1 0.99797
1.04324 1.04717 1 0.996241
1.01195 1.01393 1.00005 0.997997
1 1 1 1
1.00259 1.0027 1.00169 0.998204
1 1 1 1
1 1 1 1
1.0763 1.10423 0.977976 0.996651
1.07802 1.12069 0.965072 0.996733
1.06049 1.11719 0.952218 0.996889
1.07397 1.1036 0.976718 0.996346
1.06655 1.09214 0.980349 0.996138
1.0789 1.12081 0.966147 0.996339
1.07908 1.10106 0.983217 0.99677
1.0815 1.10995 0.977375 0.996924
1.0807 1.12013 0.967689 0.997012
1.07696 1.09961 0.982554 0.996794
1.07382 1.09142 0.987225 0.996601
1.0769 1.10676 0.976106 0.996833
1.07577 1.09556 0.985294 0.996597
1.07464 1.08865 0.990758 0.996345
1.07348 1.09563 0.983209 0.99652
1.07585 1.08977 0.990943 0.996252
1.08748 1.09533 0.996914 0.995905
1.07674 1.09142 0.990296 0.996214
1.08795 1.09482 0.997839 0.995877
1.05506 1.05941 1 0.9959
1.08682 1.09294 0.998562 0.995834
1.05735 1.06169 1 0.995918
1.01369 1.01539 1 0.998328
1.05845 1.06274 1 0.995964
1.01522 1.0169 1 0.998351
0.999293 1 1 0.999293
1.0165 1.01816 1 0.998367
0.999351 1 1 0.999351
0.999348 1 1 0.999348
1.07422 1.09378 0.985624 0.996444
1.07839 1.09116 0.992237 0.996031
1.07234 1.09369 0.984224 0.996192
1.08583 1.09338 0.997238 0.995844
1.07849 1.09134 0.992146 0.99605
1.07766 1.09621 0.986779 0.996252
1.05994 1.06418 1 0.996016
1.08453 1.09051 0.998719 0.995791
1.07957 1.09332 0.991235 0.996151
1.0204 1.02244 1 0.998005
1.05923 1.06344 1 0.996044
1.07901 1.08373 1 0.995645
1.05166 1.05578 1 0.996097
1.02025 1.02231 1 0.997979
1 1 1 1
1.00909 1.01089 1.00021 0.998013
1 1 1 1
1 1 1 1
1.07514 1.09597 0.984278 0.99666
1.07635 1.1043 0.977975 0.996639
1.0784 1.12201 0.964308 0.996708
1.07393 1.10316 0.977054 0.996364
1.07436 1.08894 0.990017 0.99656
1.07919 1.10137 0.983026 0.996781
1.08161 1.10975 0.977654 0.99692
1.07737 1.09965 0.982866 0.996815
1.07385 1.09183 0.986877 0.996611
1.07512 1.08761 0.992158 0.996333
1.07625 1.0954 0.985909 0.99656
1.07564 1.08886 0.991531 0.996294
1.08577 1.09438 0.996134 0.995984
1.07578 1.08972 0.990914 0.996255
1.08687 1.09467 0.996959 0.995907
1.0533 1.05764 1 0.995895
1.08703 1.09395 0.997786 0.995878
1.05628 1.06063 1 0.995901
1.01048 1.01257 1 0.997937
1.05867 1.06301 1 0.995922
1.01266 1.01455 1 0.998139
1 1 1 1
1.01455 1.01625 1 0.998331
0.999332 1 1 0.999332
0.999375 1 1 0.999375
1.07379 1.08965 0.988857 0.996552
1.07626 1.08961 0.991534 0.996178
1.07473 1.09317 0.986652 0.996438
1.08579 1.09271 0.997822 0.99584
1.07762 1.09054 0.992088 0.996031
1.07175 1.09459 0.982855 0.996217
1.05701 1.0613 1 0.995966
1.08617 1.09322 0.997697 0.995845
1.07925 1.09103 0.993141 0.996034
1.01659 1.0186 1 0.998035
1.0584 1.06264 1 0.996007
1.08336 1.09009 0.998005 0.995811
1 1 1 1
1.0213 1.02333 1 0.998013
1.05739 1.06159 1 0.996041
1.01913 1.02119 1 0.997988
1 1 1 1
0.999999 1 1 0.999999
1.07297 1.08655 0.990917 0.996561
1.07619 1.09657 0.984694 0.996665
1.07625 1.10424 0.977953 0.996626
1.07564 1.08635 0.99384 0.996277
1.07347 1.08861 0.989482 0.99657
1.07928 1.1017 0.982803 0.996793
1.07384 1.09223 0.986494 0.996621
1.07505 1.08765 0.992049 0.996333
1.08591 1.09331 0.997248 0.995971
1.07654 1.08899 0.992295 0.996243
1.08614 1.09417 0.99671 0.995935
1.05099 1.05564 0.99967 0.995925
1.08636 1.09412 0.996987 0.995908
1.0543 1.05864 1 0.995896
1.00745 1.00953 1 0.997936
1.05769 1.06204 1 0.995903
1.00958 1.01166 1 0.997936
1 1 1 1
1.01166 1.01377 1 0.997918
0.999637 1 1 0.999637
0.999366 1 1 0.999366
1.06953 1.08308 0.990938 0.996524
1.07599 1.08663 0.993916 0.996272
1.07318 1.08885 0.989018 0.996561
1.08513 1.0915 0.998312 0.995843
1.07668 1.08974 0.991816 0.996167
1.07516 1.09247 0.987678 0.996432
1.05495 1.05928 1 0.995916
1.0862 1.09268 0.998256 0.995811
1.07676 1.08987 0.991905 0.996031
1.01301 1.01503 1 0.998016
1.05606 1.06035 1 0.995958
1.08645 1.09307 0.998088 0.995845
1 1 1 1
1.01779 1.01979 1 0.998042
1.0572 1.06145 1 0.995997
1 1 1 1
1.0222 1.02423 1 0.998022
1 1 1 1
1.07647 1.08637 0.994555 0.99631
1.07209 1.08583 0.990767 0.996549
1.07724 1.09714 0.985141 0.996671
1.08608 1.09312 0.997593 0.995964
1.07513 1.08626 0.993429 0.996295
1.07257 1.08827 0.988952 0.996579
1.075 1.08769 0.991968 0.996334
1.08522 1.09281 0.997068 0.995971
1.0484 1.05291 0.999777 0.995938
1.08648 1.09397 0.997254 0.995885
1.05183 1.05634 0.999822 0.995905
1.00489 1.00698 1 0.997926
1.05513 1.05948 1 0.995896
1.00659 1.00868 1 0.997934
1 1 1 1
1.00859 1.01068 1 0.997934
1 1 1 1
0.999341 1 1 0.999341
1.07608 1.08555 0.994981 0.996284
1.06824 1.08274 0.990036 0.996538
1.08534 1.09143 0.998511 0.995908
1.07654 1.08714 0.993961 0.996272
1.07256 1.08807 0.989139 0.996569
1.05268 1.05703 1 0.995891
1.08577 1.09209 0.99837 0.99584
1.07722 1.09 0.992089 0.996155
1.00982 1.01188 1 0.997967
1.05437 1.05871 1 0.995902
1.0867 1.0927 0.998722 0.995782
1 1 1 1
1.01401 1.01602 1 0.998021
1.05515 1.05944 1 0.99595
1 1 1 1
1.01891 1.0209 1 0.998049
1 1 1 1
1.08616 1.09257 0.99815 0.995977
1.07647 1.08622 0.994705 0.996301
1.07121 1.08509 0.990633 0.996536
1.04673 1.05115 0.999834 0.995954
1.08548 1.09257 0.997537 0.995964
1.07461 1.08616 0.993027 0.996313
1.08454 1.09231 0.996902 0.995971
1.04903 1.05365 0.999681 0.995934
1.00339 1.00547 1 0.997934
1.05273 1.05708 1 0.995885
1.00442 1.00651 1 0.997925
1 1 1 1
1.00579 1.00787 1 0.997933
1 1 1 1
1 1 1 1
1.0864 1.09209 0.998833 0.995946
1.07574 1.08568 0.994499 0.996332
1.06704 1.08248 0.98914 0.996551
1.0504 1.0547 1 0.995919
1.08574 1.0918 0.998534 0.995905
1.07708 1.0876 0.994027 0.996271
1.00695 1.00903 1 0.997939
1.05178 1.05612 1 0.995889
1.08635 1.0926 0.998436 0.995836
1 1 1 1
1.01072 1.01277 1 0.997971
1.05372 1.05807 1 0.995888
1 1 1 1
1.01496 1.01697 1 0.998026
1 1 1 1
1.04689 1.05117 1 0.995933
1.08563 1.09223 0.997954 0.995988
1.07644 1.08609 0.994804 0.996292
1.00236 1.00439 1 0.997976
1.04731 1.05181 0.999766 0.995951
1.08486 1.09203 0.99746 0.995964
1.04962 1.05436 0.999573 0.99593
1.00307 1.00514 1 0.997935
1 1 1 1
1.00396 1.00605 1 0.997923
1 1 1 1
1 1 1 1
1.04813 1.05241 1 0.995939
1.08598 1.09196 0.998537 0.995978
1.07536 1.08574 0.994036 0.99638
1.00481 1.0065 1 0.998325
1.04952 1.05382 1 0.995919
1.08602 1.09207 0.998553 0.995902
1 1 1 1
1.00773 1.00982 1 0.99794
1.05088 1.05522 1 0.995886
1 1 1 1
1.01163 1.01368 1 0.997974
1 1 1 1
1.00189 1.00395 1 0.99795
1.04659 1.05096 0.999898 0.995949
1.08514 1.09189 0.997807 0.996
1 1 1 1
1.00218 1.00422 1 0.997974
1.04791 1.05249 0.999699 0.995949
1.00277 1.00484 1 0.997934
1 1 1 1
1 1 1 1
1.00302 1.00472 1 0.998311
1.04773 1.052 1 0.99594
1.08566 1.09194 0.998233 0.996009
1 1 1 1
1.00518 1.00725 1 0.99795
1.04885 1.05315 1 0.995919
1 1 1 1
1.00852 1.01061 1 0.997941
1 1 1 1
0.99936 1 1 0.99936
1.00227 1.00412 1 0.998156
1.0463 1.05078 0.999778 0.995964
1 1 1 1
1.00198 1.00401 1 0.997975
1 1 1 1
0.999364 1 1 0.999364
1.00333 1.00519 1 0.998146
1.04719 1.05146 1 0.995941
0.999672 1 1 0.999672
1.00584 1.0079 1 0.997954
1 1 1 1
1 1 1 1
1.00225 1.00426 1 0.997995
1 1 1 1
0.999683 1 1 0.999683
1.00369 1.00572 1 0.997986
1 1 1 1
1 1 1 1
1 1 1 1

VECTORS lamdaE float
1.00319 0.999652 0.991983
1.00271 1.00056 0.99591
1.00262 0.999803 0.992442
1.00261 1.00013 0.99224
1.00302 0.99982 0.992036
1.00334 0.999607 0.991886
1.00373 1.00077 0.989241
1.00279 1.00064 0.995831
1.00209 1 0.996679
1.00191 1.00061 0.996657
1.0024 1.00125 0.991308
1.00375 1.00169 0.986837
1.0019 0.999964 0.993205
1.00155 1.0001 0.993462
1.00207 0.999987 0.992875
1.00217 1.00014 0.992704
1.00265 0.999934 0.992317
1.00252 0.999868 0.992502
1.004 1.00069 0.988974
1.00197 1.00001 0.996362
1.00241 1.00016 0.992432
1.00285 0.999993 0.992094
1.00352 1.00029 0.990076
1.00367 1.00055 0.98959
1.00328 0.99978 0.991788
1.00376 1.00116 0.988758
1.00534 1.00153 0.985103
1.00289 1.00068 0.995727
1.0024 0.999911 0.994523
1.00234 1.00029 0.994429
1.00278 1.00119 0.995625
1.00374 1.00179 0.986777
1.0025 0.999859 0.992451
1.00269 0.999797 0.99229
1.00403 1.00052 0.989609
1.00106 1.00282 0.996412
1.00402 1.00115 0.989139
1.00389 1.00245 0.985841
1.0054 1.00315 0.982849
1.00119 1.00143 0.996578
1.00194 0.999985 0.996378
1.00185 1.00004 0.994864
1.00186 0.999964 0.996444
1.00138 1.00008 0.993677
1.00347 0.999842 0.989441
1.00179 0.999999 0.996766
1.00383 1.00019 0.990294
1.00174 1.00011 0.993166
1.00204 0.999903 0.992956
1.00204 1.00022 0.992734
1.00426 1.0006 0.988723
1.00174 1.00004 0.99497
1.00197 1.0002 0.992899
1.00267 1.00022 0.99215
1.00238 1.00001 0.992559
1.00375 1.00026 0.989813
1.00407 1.00101 0.98851
1.00392 1.00049 0.989323
1.00535 1.00147 0.985252
1.00186 0.999991 0.996419
1.00222 1.00009 0.99274
1.00321 0.999908 0.99127
1.0034 1.00014 0.990406
1.00363 1.00041 0.989819
1.00539 0.999559 0.987178
1.00532 1.00012 0.986582
1.00334 1.00034 0.991221
1.00371 1.0021 0.987942
1.00535 1.00252 0.984028
1.00534 0.998253 0.987665
1.00285 0.99984 0.996003
1.00272 1.00126 0.995674
1.00284 1.00021 0.995957
1.00375 1.00181 0.986717
1.00259 0.999889 0.996048
1.00283 0.999891 0.996008
1.00385 1.00056 0.987951
1.00148 1.00213 0.993971
1.00381 1.00109 0.987438
1.00391 1.00258 0.986867
1.00545 1.00304 0.982818
1.00171 1.00169 0.996094
1.00187 1.00335 0.98841
1.00393 1.00038 0.988118
1.00404 1.00058 0.987687
1.00532 0.999952 0.986304
1.00346 1.00349 0.987937
1.00542 1.00168 0.984263
1.00527 1.00437 0.981757
1.00557 1.00049 0.984936
1.00072 1.00098 0.997042
1.0009 1.0014 0.996764
1.00227 0.999993 0.996171
1.002 0.999983 0.996344
1.0019 0.999967 0.996436
1.00173 1 0.995014
1.0035 0.999841 0.990179
1.00208 0.999995 0.994717
1.00369 1.0002 0.989559
1.00187 0.999968 0.996455
1.00331 0.999701 0.989751
1.00372 1.00004 0.990592
1.00535 0.997861 0.988643
1.00386 1.00026 0.99009
1.00538 0.998335 0.988072
1.00191 0.999958 0.993197
1.00152 1.00023 0.99337
1.00198 1.00067 0.992503
1.00192 0.999994 0.993019
1.00397 1.00026 0.989551
1.00415 1.00046 0.989063
1.00434 1.00096 0.988267
1.00536 1.0014 0.985395
1.0019 0.999973 0.996436
1.0018 1.00009 0.993201
1.00344 0.999769 0.990154
1.00362 1.00011 0.990139
1.00289 1.001 0.993442
1.004 1.00183 0.988159
1.00386 1.00037 0.989557
1.00539 0.999216 0.987595
1.00537 1.0025 0.984181
1.00532 1.00041 0.986351
1.00534 0.99831 0.987659
1.00332 0.999739 0.989714
1.00329 0.999897 0.990802
1.00537 0.997751 0.989156
1.0054 0.998448 0.988336
1.0053 0.999392 0.987473
1.0053 0.99605 0.990339
1.00211 1.00167 0.996029
1.00535 0.997055 0.988829
1.00364 1.00301 0.98561
1.00541 1.00361 0.982129
1.00532 0.999578 0.986444
1.00531 0.995448 0.990314
1.00251 1.00355 0.987089
1.00368 1.00381 0.98532
1.0027 0.99987 0.996023
1.00292 0.999922 0.995987
1.00382 1.0006 0.987933
1.00198 1.00173 0.996004
1.00355 1.00288 0.98594
1.00384 1.00102 0.987412
1.00548 1.00296 0.982784
1.00152 1.00171 0.99629
1.002 1.00346 0.988371
1.00394 1.00043 0.988953
1.00407 1.00069 0.988496
1.00533 0.999958 0.986268
1.00296 1.00361 0.98617
1.00542 1.00173 0.984221
1.00527 1.00425 0.98173
1.00555 1.00018 0.985249
1.00253 1.0035 0.987251
1.00164 1.00297 0.989482
1.0028 1.00287 0.986633
1.00536 0.999321 0.98699
1.00539 1.00072 0.985357
1.00537 0.996439 0.989545
1.0041 1.00482 0.98298
1.00539 0.998534 0.987381
1.00563 1.00266 0.983259
1.00561 0.997942 0.987019
1.00042 1.00017 0.997596
1.00052 1.00081 0.997259
1.00068 1.00133 0.996934
1.00168 1.00398 0.988388
1.00123 1.00202 0.996325
1.00249 0.999929 0.99608
1.0021 0.999992 0.996253
1.00349 1.00026 0.988885
1.00333 0.999852 0.989545
1.00188 0.999964 0.996422
1.00184 0.999961 0.996455
1.00329 0.999711 0.98975
1.00359 1.00002 0.989881
1.00534 0.997873 0.988653
1.00367 1.00035 0.988523
1.00537 0.998346 0.988076
1.00328 0.999666 0.989804
1.00535 0.997826 0.98869
1.00536 0.998008 0.988459
1.00532 0.994958 0.991766
1.0054 0.998792 0.987542
1.00529 0.994998 0.991588
1.00186 0.99997 0.996444
1.00133 1.00017 0.993661
1.00347 0.999692 0.989224
1.00385 1.0001 0.989871
1.00189 1.00186 0.996236
1.00435 1.00128 0.988386
1.00408 1.00034 0.989298
1.00539 0.998862 0.988011
1.00532 1.00068 0.986119
1.00537 1.00239 0.984347
1.00532 0.998368 0.987653
1.0033 0.999729 0.989715
1.00349 0.99991 0.990543
1.00536 0.997656 0.989074
1.0054 0.99879 0.987999
1.00233 1.00155 0.995881
1.00369 1.0028 0.986817
1.00535 1.00378 0.982569
1.00531 0.999434 0.987446
1.00529 0.995744 0.990707
1.00531 0.999464 0.986535
1.00535 0.997348 0.988616
1.00531 0.9955 0.990276
1.00253 1.00355 0.987029
1.00335 1.00418 0.985207
1.00535 0.997972 0.988545
1.0054 0.998084 0.988827
1.00532 0.995542 0.991071
1.0053 0.995127 0.991332
1.00531 0.996666 0.989455
1.00518 0.994934 0.991435
1.00325 1.00315 0.986168
1.00533 0.994929 0.990936
1.00541 1.00453 0.981318
1.00539 1.00071 0.984862
1.00533 0.997009 0.988836
1.00535 0.994868 0.990831
1.00442 1.0038 0.983445
1.00112 1.00511 0.988679
1.0047 1.00362 0.983546
1.00374 1.00049 0.988198
1.00117 1.00169 0.996491
1.00184 1.00357 0.988337
1.00387 1.00071 0.987695
1.00534 0.999955 0.986235
1.00302 1.00345 0.986276
1.00545 1.00412 0.981697
1.0054 1.00178 0.984176
1.00554 0.999857 0.985567
1.0023 1.00365 0.987336
1.0014 1.00313 0.989477
1.00299 1.00349 0.986698
1.00534 0.99933 0.986971
1.00538 1.00075 0.985318
1.00537 0.996407 0.989569
1.00458 1.00429 0.98291
1.0054 0.998596 0.9873
1.0056 1.00253 0.983199
1.00559 0.997624 0.98729
1.00109 1.00258 0.990836
1.00301 1.004 0.985421
1.00264 1.00416 0.986757
1.00269 1.00188 0.987399
1.00527 0.995685 0.990548
1.00541 0.997536 0.988336
1.00538 0.99489 0.990777
1.00538 1.00456 0.981799
1.00541 0.995771 0.989828
1.00551 1.0007 0.985181
1.00558 0.996577 0.988398
1.00073 1.00412 0.990006
1.0004 1.00165 0.99263
1.00029 0.999396 0.997991
1.00031 0.99998 0.997763
1.00033 1.00061 0.997486
1.00037 1.00222 0.991717
1.00042 1.00134 0.996962
1.00179 1.00362 0.988337
1.00153 1.00193 0.996232
1.00363 1.00038 0.988528
1.00342 1.00001 0.989237
1.00536 0.998356 0.988087
1.00533 0.997886 0.988664
1.0033 0.999723 0.989755
1.00189 0.99995 0.996453
1.0033 0.999666 0.989811
1.00534 0.997836 0.988697
1.00535 0.998024 0.988472
1.00533 0.994959 0.991766
1.00538 0.998804 0.987541
1.00529 0.994986 0.9916
1.00535 0.997879 0.988646
1.00533 0.994954 0.991786
1.0053 0.99496 0.991721
1.00521 0.994933 0.99172
1.00525 0.995238 0.991226
1.00518 0.994974 0.991545
1.00332 0.999726 0.989724
1.00372 0.999862 0.990284
1.00536 0.997543 0.989
1.0054 0.999116 0.987662
1.00252 1.00148 0.995727
1.00396 1.00269 0.987748
1.0053 1.00372 0.982995
1.00531 0.999464 0.987419
1.00528 0.995435 0.991074
1.00536 0.997641 0.988404
1.00532 0.999373 0.986625
1.00531 0.995551 0.990237
1.0025 1.00347 0.986963
1.00313 1.00414 0.985097
1.00535 0.997683 0.988849
1.00539 0.998008 0.988841
1.00533 0.995549 0.991043
1.00528 0.995516 0.990992
1.00314 1.00331 0.986101
1.00536 1.00446 0.981349
1.00542 1.00106 0.984555
1.00532 0.996658 0.989511
1.00519 0.994934 0.991393
1.00533 0.996748 0.989117
1.00532 0.994944 0.990888
1.00534 0.994847 0.990751
1.00434 1.00418 0.983426
1.00434 1.00421 0.983681
1.00112 1.00424 0.988775
1.00533 0.995527 0.991145
1.00531 0.995682 0.990858
1.00519 0.994928 0.991845
1.00515 0.994956 0.991534
1.00532 0.994887 0.991074
1.00531 0.994912 0.991084
1.00504 1.00474 0.981733
1.00534 0.994825 0.990864
1.00547 1.00301 0.982783
1.00542 0.998234 0.98715
1.00532 0.995657 0.990116
1.00542 0.994791 0.990641
1.0011 1.00082 0.990992
1.00519 1.00527 0.981523
1.00133 1.00421 0.987233
1.00522 1.00392 0.982178
1.00532 0.999335 0.986954
1.00122 1.00333 0.98947
1.00219 1.00385 0.987407
1.0029 1.00395 0.986753
1.00538 1.00076 0.985281
1.00536 0.996373 0.989593
1.00483 1.00386 0.982833
1.00556 1.00243 0.983132
1.00541 0.998675 0.987219
1.00556 0.997342 0.987561
1.00083 1.00272 0.990851
1.00346 1.00381 0.985549
1.00234 1.00419 0.986601
1.00352 1.0015 0.987509
1.00531 0.995629 0.99056
1.0054 0.997473 0.988356
1.00538 0.994888 0.990812
1.00543 1.00456 0.981606
1.0054 0.996051 0.989605
1.00547 1.00057 0.985175
1.00558 0.996541 0.988704
1.00063 1.00219 0.991852
1.00202 1.00519 0.987004
1.00383 1.00443 0.983547
1.00329 1.00232 0.987403
1.00308 1.0024 0.987901
1.00533 0.994898 0.99103
1.00539 0.995079 0.990392
1.0054 0.994868 0.990574
1.00526 1.00363 0.982791
1.00547 0.995306 0.990054
1.00522 0.99937 0.986552
1.00109 1.00474 0.988716
1.00042 1.00509 0.989434
1.00026 1.00352 0.991183
1.00041 1.00424 0.990012
1.00029 1.0007 0.994619
1.00032 1.0016 0.993254
1.00046 0.99866 0.996128
1.00023 0.999395 0.99807
1.00027 0.999879 0.997882
1.0003 1.00058 0.993694
0.999806 0.999725 0.998227
1.00063 1.00239 0.991534
1.00082 1.00159 0.99668
1.00186 1.00333 0.988284
1.00178 1.00185 0.996116
1.00536 0.99882 0.987535
1.00534 0.99804 0.988482
1.00529 0.994962 0.991613
1.00533 0.994959 0.991767
1.00534 0.997849 0.988702
1.00328 0.999658 0.989814
1.00535 0.997883 0.988644
1.00534 0.994955 0.991784
1.00531 0.994958 0.991728
1.00521 0.994931 0.991708
1.00529 0.995172 0.991237
1.00518 0.994976 0.991544
1.00534 0.994953 0.991791
1.00521 0.994937 0.991746
1.0052 0.994957 0.99167
1.00533 0.994918 0.991507
1.00523 0.994937 0.991305
1.0053 0.994946 0.991187
1.00536 0.997408 0.989149
1.00539 0.997953 0.988855
1.00533 0.995556 0.991017
1.00527 0.995913 0.99065
1.00312 1.00347 0.986047
1.00536 1.00467 0.981381
1.00544 1.00133 0.984253
1.00532 0.99665 0.989565
1.00521 0.994933 0.99135
1.00532 0.99496 0.990839
1.00533 0.996465 0.989399
1.00533 0.994826 0.990669
1.00411 1.00468 0.983418
1.00372 1.00516 0.983818
1.00123 1.00385 0.988868
1.00533 0.995245 0.991463
1.00531 0.995649 0.990868
1.00519 0.994928 0.991783
1.00517 0.994956 0.99158
1.0049 1.00488 0.981811
1.00553 1.00294 0.982837
1.00541 0.998491 0.986779
1.00531 0.994886 0.991058
1.0053 0.994914 0.991041
1.00532 0.995495 0.990168
1.00532 0.994825 0.990861
1.00542 0.994771 0.990631
1.00496 1.00519 0.981629
1.0052 1.0043 0.982049
1.00161 1.00109 0.991072
1.00188 1.00399 0.987727
1.0052 0.994931 0.9918
1.00517 0.99495 0.99169
1.00533 0.994935 0.991522
1.00532 0.994905 0.991127
1.00531 0.994914 0.990855
1.00536 0.99489 0.990852
1.00547 1.00448 0.981482
1.00538 0.994831 0.990614
1.0054 1.00071 0.984763
1.00536 0.997209 0.988155
1.0054 0.995052 0.990424
1.0054 0.994788 0.990594
1.00308 1.00071 0.988628
1.00185 1.00093 0.988552
1.00514 1.00429 0.981903
1.00372 1.00484 0.985639
1.00521 1.00411 0.982059
1.00059 1.0028 0.990875
1.00536 0.995579 0.990573
1.00278 1.00435 0.986441
1.00352 1.00355 0.985702
1.00412 1.00094 0.987624
1.00539 0.997411 0.988376
1.00538 0.994886 0.990847
1.00549 1.00453 0.981426
1.00545 1.00048 0.985167
1.00539 0.996306 0.989382
1.00559 0.996494 0.989008
1.0005 1.00226 0.991875
1.00181 1.0052 0.986947
1.00439 1.00401 0.983597
1.00323 1.00234 0.987317
1.00361 1.0017 0.986942
1.00531 0.994897 0.991051
1.00539 0.995095 0.990432
1.00539 0.994867 0.990575
1.00528 1.00366 0.982798
1.00549 0.995383 0.989931
1.00522 0.999524 0.986905
1.00146 1.00513 0.987727
1.00323 1.00495 0.985789
1.00363 1.00491 0.983949
1.00391 1.00234 0.986488
1.00464 1.00343 0.98524
1.00537 0.994871 0.990782
1.00541 0.994889 0.99039
1.00538 0.994801 0.990465
1.00505 1.00173 0.984537
1.00517 0.998034 0.987879
1.00092 1.00481 0.988742
1.0009 1.00512 0.988198
0.999648 1.00509 0.989563
1 1.00493 0.990987
1.00023 1.00479 0.990525
0.999952 1.00314 0.991953
1.00003 1.00373 0.991203
1.00011 1.00025 0.995284
1.00021 1.00445 0.990017
1.00026 1.00066 0.994732
1.00032 0.997919 0.996804
1.00027 1.00164 0.993862
1.00024 0.998831 0.997245
1.00016 0.999244 0.998151
1.00039 1.00222 0.992423
1.00031 1.00055 0.993732
0.999847 0.999623 0.998383
1.00017 1.00008 0.997709
1.00099 1.00251 0.991375
1.00109 1.00193 0.996475
1.00532 0.995116 0.991247
1.0053 0.994956 0.991735
1.00518 0.994979 0.991543
1.00521 0.99493 0.991696
1.00534 0.994955 0.991781
1.00535 0.997885 0.988645
1.00534 0.994953 0.991787
1.00521 0.994936 0.991753
1.0052 0.994958 0.991666
1.00533 0.994917 0.991492
1.00521 0.994937 0.991316
1.0053 0.994941 0.991197
1.0052 0.994938 0.991783
1.00534 0.99492 0.991599
1.00531 0.994929 0.991408
1.00534 0.994904 0.991495
1.00533 0.994919 0.991011
1.00533 0.994925 0.991137
1.00533 0.99495 0.991783
1.00531 0.995617 0.990878
1.00519 0.994928 0.991719
1.00518 0.994957 0.991626
1.00469 1.00493 0.981878
1.00557 1.00297 0.982885
1.0054 0.998719 0.986412
1.00531 0.994887 0.991042
1.0053 0.994916 0.990998
1.00532 0.994825 0.990857
1.00532 0.99533 0.990219
1.00543 0.99476 0.990621
1.00481 1.00513 0.981727
1.00513 1.00486 0.981912
1.00208 1.00135 0.991144
1.00184 1.00305 0.988206
1.0052 0.994931 0.991803
1.00517 0.994947 0.991711
1.00533 0.99493 0.991488
1.00531 0.994907 0.991128
1.0054 1.00455 0.981577
1.00541 1.00083 0.984597
1.00537 0.997115 0.988158
1.00531 0.994911 0.990894
1.00535 0.994886 0.990843
1.0054 0.99502 0.990446
1.00538 0.994832 0.99061
1.0054 0.994791 0.990624
1.00517 1.00449 0.981955
1.00513 1.00461 0.982125
1.00306 1.00413 0.985711
1.00261 1.00166 0.988662
1.00206 1.00312 0.988329
1.00534 0.994921 0.991534
1.00534 0.994914 0.99136
1.00537 0.99486 0.99088
1.00535 0.994898 0.990679
1.00533 1.0031 0.983045
1.00536 0.994834 0.990419
1.00533 0.999784 0.985087
1.0053 0.996362 0.988938
1.00547 0.994782 0.990441
1.00104 1.00509 0.988054
1.00408 1.00353 0.987241
1.00261 1.00057 0.98856
1.00493 1.00507 0.982377
1.00416 1.00358 0.985514
1.00492 1.00394 0.983063
1.00039 1.00239 0.991897
1.00158 1.00521 0.986894
1.00529 0.994896 0.991072
1.00265 1.00268 0.987228
1.00521 1.00387 0.983642
1.00429 1.00094 0.985995
1.00539 0.995114 0.990472
1.00539 0.994866 0.990576
1.00528 1.00365 0.982819
1.0052 0.999687 0.987259
1.00551 0.995452 0.989807
1.00139 1.00515 0.987736
1.00268 1.00513 0.985788
1.00423 1.00493 0.983064
1.004 1.00162 0.986638
1.00449 1.00239 0.985097
1.00537 0.994872 0.990782
1.00543 0.994888 0.990371
1.0054 0.994782 0.990465
1.00504 1.00177 0.984793
1.00516 0.998153 0.987726
1.00274 1.00516 0.986321
1.00183 1.00505 0.986166
1.00455 1.003 0.984529
1.00304 1.00214 0.985147
1.00527 1.00158 0.98559
1.00538 0.994807 0.990603
1.00546 0.995489 0.989444
1.0054 0.994823 0.989926
1.005 1.00059 0.986213
1.00508 0.99899 0.987272
1.00078 1.00479 0.988771
1.00131 1.00512 0.988026
0.999065 1.00452 0.991294
0.999376 1.00508 0.989668
0.999729 1.00491 0.990492
0.999006 1.00476 0.991322
0.998812 1.00451 0.992815
0.998922 1.00505 0.991407
0.999656 1.00462 0.991081
1.00004 1.00275 0.992155
0.999954 1.00302 0.99194
1.00002 0.999923 0.995695
0.999818 1.00373 0.991217
1.00013 1.00015 0.995354
1.0002 0.997725 0.997195
1.00027 1.00053 0.994847
1.00027 0.998022 0.996758
0.999955 0.99897 0.998388
1.00019 1.00228 0.992347
1.00068 1.00121 0.992556
0.999677 1.00007 0.998185
1.00066 1.00025 0.993747
0.99981 0.999339 0.998438
1.00054 1.00049 0.997224
1.00519 0.994936 0.991326
1.0052 0.994958 0.991663
1.00531 0.994936 0.991207
1.00533 0.994915 0.991477
1.00521 0.994934 0.99176
1.00534 0.994953 0.991783
1.0052 0.99494 0.991801
1.00534 0.99492 0.99159
1.00531 0.994933 0.991416
1.00533 0.994898 0.991482
1.00533 0.99492 0.99101
1.00533 0.994918 0.991129
1.00532 0.994918 0.991607
1.00536 0.994903 0.991538
1.00532 0.994891 0.991448
1.00538 0.994882 0.990797
1.00519 0.994931 0.991806
1.00518 0.994945 0.991733
1.00532 0.994926 0.991454
1.00531 0.994909 0.991129
1.00537 1.00453 0.981679
1.00545 1.00096 0.984426
1.00537 0.997049 0.988159
1.00531 0.994907 0.990933
1.00535 0.994882 0.990835
1.00538 0.994832 0.990608
1.0054 0.994986 0.990468
1.00539 0.994791 0.990655
1.00522 1.00461 0.982009
1.00473 1.00459 0.982193
1.00318 1.00364 0.985787
1.00222 1.00248 0.988728
1.0026 1.0052 0.988125
1.00534 0.994922 0.991521
1.00533 0.994917 0.991367
1.00537 0.994866 0.990892
1.00528 1.00333 0.983047
1.00536 1.00001 0.984969
1.00532 0.996187 0.988982
1.00535 0.994901 0.990696
1.00542 0.994792 0.990508
1.00537 0.994836 0.990435
1.00066 1.00469 0.988364
1.00484 1.00454 0.982391
1.00504 1.00399 0.982588
1.00399 1.00347 0.98529
1.00277 1.00193 0.98832
1.0036 1.0032 0.986727
1.00536 0.994903 0.991463
1.00538 0.994863 0.991187
1.00538 0.994847 0.990693
1.00535 0.994841 0.990494
1.00519 1.00314 0.983383
1.00534 0.994846 0.990301
1.00531 0.998746 0.986658
1.00532 0.995451 0.989332
1.00004 1.00402 0.989916
1.00149 1.00511 0.98796
1.00345 1.00273 0.988202
1.00153 1.00177 0.990384
1.00442 1.00397 0.984041
1.00501 1.00339 0.983562
1.0012 1.00519 0.987742
1.00229 1.00488 0.98578
1.00536 0.994873 0.990782
1.0041 1.00086 0.98678
1.00492 1.00497 0.982169
1.00391 1.00269 0.984945
1.00545 0.994887 0.990353
1.00542 0.994763 0.990465
1.00503 1.00184 0.985048
1.00516 0.998296 0.987573
1.00218 1.00515 0.98638
1.00267 1.00487 0.985921
1.00448 1.00325 0.984288
1.00417 1.00312 0.984717
1.00519 1.00209 0.985266
1.00538 0.994813 0.990601
1.00546 0.99534 0.989706
1.00538 0.994852 0.990226
1.00503 1.00049 0.986121
1.00499 0.999376 0.986984
1.00019 1.00444 0.988589
1.00003 1.00477 0.987748
1.00485 1.00084 0.986255
1.00505 1.00119 0.985886
1.00545 0.994794 0.990482
1.00536 0.994711 0.99043
1.00529 0.997467 0.987867
1.00511 0.999818 0.9863
1.00173 1.00512 0.987861
0.999407 1.0048 0.990903
0.996902 1.00487 0.994605
0.999299 1.0051 0.99047
0.997669 1.00504 0.991652
0.999706 1.00457 0.99101
0.998367 1.00452 0.993179
0.999083 1.00506 0.991474
0.998678 1.00142 0.995964
0.9986 1.00501 0.99222
0.998861 1.00507 0.991178
0.999983 1.00443 0.990776
0.999958 1.00291 0.992084
0.999953 1.00284 0.992131
0.999928 0.9997 0.99596
0.999858 1.00313 0.99193
1.00002 0.99986 0.995733
1.00008 0.997637 0.997415
1.00011 1.00008 0.995421
1.00017 0.997766 0.997163
1.00016 0.998162 0.996699
1.0004 1.00085 0.993409
1.00026 1.00215 0.992277
0.999856 0.998894 0.99838
1.00056 1.00052 0.992693
0.999838 0.9999 0.998225
0.999987 0.998917 0.998356
1.00534 0.994921 0.99101
1.00531 0.994937 0.991424
1.00534 0.994911 0.991121
1.00533 0.994893 0.991469
1.00534 0.994921 0.991582
1.0052 0.994942 0.991818
1.00533 0.994918 0.991607
1.00535 0.994903 0.991533
1.00533 0.994895 0.991389
1.00537 0.994879 0.990843
1.00537 0.994902 0.99155
1.00535 0.994876 0.991488
1.00536 0.994859 0.991125
1.00534 0.994924 0.991508
1.00533 0.994919 0.991373
1.00537 0.99487 0.990904
1.00519 1.00356 0.983054
1.00536 1.00023 0.984853
1.00534 0.995968 0.989023
1.00535 0.994904 0.990713
1.0054 0.994829 0.990452
1.00537 0.994809 0.99058
1.00503 1.00421 0.982404
1.00515 1.00441 0.982128
1.00391 1.00376 0.985068
1.00073 1.00475 0.988672
1.00311 1.00309 0.98806
1.00293 1.00303 0.986193
1.00537 0.994906 0.99148
1.00538 0.994862 0.991157
1.00538 0.994852 0.990707
1.00505 1.00316 0.983378
1.0053 0.998601 0.986516
1.00535 0.995361 0.989513
1.00536 0.994836 0.990461
1.00538 0.994841 0.990293
0.999939 1.00446 0.990139
1.00127 1.00511 0.987877
1.00443 1.00373 0.983816
1.00465 1.00338 0.983709
1.00246 1.00242 0.989279
1.00282 1.00197 0.988307
1.00538 0.994866 0.991411
1.00542 0.994838 0.990827
1.00537 0.994809 0.990515
1.00532 0.99481 0.990267
1.00463 1.00139 0.985684
1.00537 0.994819 0.990262
1.00491 0.997854 0.988045
0.999961 1.00416 0.990798
1.0004 1.00367 0.990831
0.999434 1.00511 0.989476
1.00099 1.00512 0.988352
1.00148 1.00458 0.990458
1.00447 1.00061 0.986213
1.00375 1.00379 0.985446
1.00392 1.00425 0.985442
1.002 1.00516 0.986448
1.00312 1.00506 0.985673
1.00539 0.994819 0.9906
1.00527 1.00252 0.9843
1.00447 1.00334 0.984048
1.00536 1.0024 0.984955
1.00545 0.995173 0.989969
1.00537 0.994875 0.990524
1.00506 1.00036 0.98603
1.00491 0.999704 0.986696
1.00084 1.0042 0.988173
1.00146 1.00482 0.987188
1.00484 1.00095 0.985904
1.00508 1.0016 0.985688
1.00544 0.994796 0.990485
1.00538 0.994744 0.990437
1.00522 0.997364 0.987981
1.00511 0.99992 0.986337
0.998675 1.00371 0.992115
1.00549 0.994752 0.990873
1.00276 1.00363 0.988704
1.00471 1.00055 0.986305
1.00539 0.994738 0.990685
1.00511 0.996842 0.987775
1.00512 1.00072 0.985908
0.999674 1.0048 0.990515
0.997329 1.00454 0.994732
0.996063 1.00268 0.997335
0.999481 1.00448 0.990935
0.998956 1.00505 0.991535
0.99721 1.005 0.993554
0.999898 1.00432 0.99076
0.999001 1.00507 0.991277
0.996894 1.00316 0.996498
0.998794 1.00495 0.992041
0.996548 1.00263 0.998297
0.996722 1.00461 0.995149
0.998801 1.00496 0.99216
1.00017 1.00487 0.989867
1.00017 1.00424 0.990418
0.999981 1.00283 0.992083
0.999933 1.00293 0.992065
0.999799 0.999778 0.996119
0.999871 1.00298 0.992108
0.999939 0.999751 0.995975
0.999956 0.997748 0.997597
1.00002 0.999787 0.995779
1.00009 0.997669 0.997396
1.00018 0.997809 0.997125
1.00022 1.00358 0.990998
0.999967 1.00084 0.993971
1.00025 1.00104 0.993368
1.00004 0.998686 0.998546
1.00035 1.00184 0.99221
0.999843 0.999613 0.998278
0.999924 0.999698 0.998317
1.00535 0.994877 0.990889
1.00534 0.994899 0.99133
1.00534 0.994902 0.991528
1.00533 0.994918 0.991606
1.00536 0.994899 0.991558
1.00535 0.994872 0.991479
1.00536 0.994861 0.991066
1.00538 0.99487 0.991441
1.00536 0.994838 0.991489
1.0056 0.994721 0.991375
1.00537 0.994907 0.991496
1.00537 0.994859 0.991128
1.00537 0.994853 0.99072
1.00503 1.00314 0.983375
1.00529 0.998584 0.986385
1.00538 0.995273 0.989686
1.00536 0.994839 0.990428
1.00542 0.994836 0.990282
1.00466 1.00374 0.983586
1.00418 1.00334 0.983817
1.00258 1.0039 0.988179
1.00018 1.00441 0.990367
1.00094 1.00497 0.987789
1.00234 1.00146 0.988415
1.00538 0.994863 0.991402
1.00042 1.00359 0.990782
0.999899 1.00427 0.990736
1.00542 0.994829 0.990828
1.00538 0.99482 0.990538
1.00469 1.00163 0.985503
1.00524 0.997287 0.988338
1.00532 0.994808 0.99025
1.00531 0.994801 0.990208
1 1.0051 0.989572
1.00112 1.00506 0.988236
1.00336 1.00421 0.985231
1.00421 1.00381 0.983872
1.00428 1.0019 0.986041
1.00073 1.00298 0.991058
1.00545 0.994751 0.991335
1.0054 0.995091 0.990455
1.00536 0.994751 0.990499
1.00527 0.994801 0.989809
1.00349 1.00081 0.98769
1.0053 0.995813 0.989926
1.00012 1.00439 0.990264
0.999486 1.00401 0.990917
1.0006 1.00408 0.990727
1.00074 1.00474 0.988861
1.00099 1.00441 0.989551
1.00088 1.00093 0.991661
1.00264 1.00225 0.986731
1.00183 1.00231 0.990129
1.00112 1.00475 0.987775
1.00334 1.00493 0.986621
1.00542 0.994802 0.990488
1.00541 0.994778 0.990446
1.00508 1.0023 0.985483
1.00478 1.00118 0.985542
1.00516 0.997278 0.988096
1.00512 1.00002 0.986376
0.999236 1.00405 0.992055
1.00548 0.994739 0.991044
1.00167 1.00379 0.989312
1.00461 1.00069 0.986139
1.0054 0.99473 0.990764
1.00515 0.997002 0.987995
1.00511 1.00043 0.985828
0.998161 1.00441 0.994433
1.005 0.99469 0.99031
1.0016 1.00352 0.988925
1.00416 1.00274 0.984498
1.005 0.995211 0.991057
1.00388 1.00067 0.986857
0.99875 0.994769 0.981361
0.997582 1.00449 0.99484
0.996911 1.00259 0.997272
0.995959 1.00259 0.998219
0.999902 1.00421 0.990738
0.99866 1.00507 0.991388
0.999448 1.00494 0.991869
0.99567 1.0035 0.997057
1.00018 1.00418 0.990434
0.999773 1.0049 0.990275
0.99584 1.00142 0.999852
0.998463 1.00497 0.992095
0.997215 1.00467 0.994635
0.994928 1.00519 0.997955
0.99819 1.00503 0.993049
0.99883 1.0049 0.992106
1.00034 1.00423 0.990343
1.00002 1.00441 0.99019
1.00035 1.00478 0.990354
1.00004 1.0041 0.990511
0.999853 1.00286 0.99218
0.999924 1.00293 0.992067
0.99969 0.999739 0.995589
0.999964 1.00281 0.992051
0.999795 0.999764 0.995781
0.999966 0.997681 0.999017
0.999935 0.999755 0.995996
0.999987 0.99766 0.997583
1.00011 0.997688 0.99737
0.999941 1.00296 0.991928
1.00044 1.00329 0.991063
1.00009 1.00009 0.99462
1.00011 1.00069 0.994431
0.999956 0.998247 0.998716
1.00008 1.00153 0.993327
0.999945 0.998465 0.998522
0.999869 0.999889 0.998132
1.00536 0.99486 0.991008
1.00535 0.994869 0.991469
1.00536 0.994896 0.991566
1.00538 0.994872 0.991442
1.00538 0.994834 0.991422
1.00561 0.994735 0.99138
1.00547 0.99482 0.991468
1.00051 0.994618 0.979875
1.00547 0.994745 0.989787
1.0002 1.00374 0.990819
1.00537 0.994862 0.991393
1.00541 0.99483 0.990829
1.00538 0.994834 0.99056
1.00457 1.00181 0.985308
1.00529 0.996471 0.988611
1.00527 0.994818 0.990214
1.0053 0.9948 0.990147
1.00365 1.00428 0.985076
1.00473 1.00503 0.982369
1.00382 1.00227 0.98585
1.00058 1.00325 0.990768
1.00089 1.00215 0.991631
1.00063 1.00504 0.989648
1.00079 1.0051 0.988127
0.9999 1.00436 0.990643
1.00543 0.994782 0.99135
1.00035 1.00411 0.99031
1.00003 1.00418 0.990909
0.999786 1.0042 0.991195
1.00539 0.994909 0.99048
1.00534 0.994755 0.990461
1.00343 1.00172 0.987712
1.00508 0.995547 0.98991
1.0053 0.99485 0.989837
1.0006 1.00483 0.988917
1.00077 1.0044 0.989958
1.00289 1.00228 0.989281
1.00316 1.00418 0.985996
1.0026 0.999725 0.991873
1.00546 0.994744 0.990913
1.00536 0.994887 0.990513
1.00529 0.994761 0.990305
1.00461 0.997516 0.989338
1.00326 0.999938 0.989114
0.999642 1.00349 0.992161
1.00023 1.0043 0.989522
0.999174 1.00344 0.992664
1.0007 1.00366 0.991145
1.00037 1.00136 0.993537
0.999606 1.00098 0.993954
1.00201 0.99981 0.992658
1.00063 1.0036 0.99193
1.0001 1.00403 0.989928
1.00549 0.994715 0.991202
1.00542 0.994723 0.990827
1.00518 0.99717 0.988215
1.00454 1.00089 0.985976
1.0051 1.00014 0.985759
0.99796 1.00457 0.9954
1.00456 0.994674 0.99044
1.00172 1.00346 0.988767
1.00456 1.00257 0.98435
1.00477 0.995157 0.991304
1.00418 1.00054 0.986908
0.998635 0.994737 0.979697
0.997351 1.005 0.99437
1.00341 0.994676 0.990378
1.00224 1.0038 0.986369
1.00363 1.00093 0.987154
1.00351 0.997352 0.992049
0.999923 0.994848 0.934833
0.994854 0.994679 0.957299
0.997009 0.994675 0.984843
0.995008 0.99569 0.84236
0.994728 0.998244 0.801784
0.997903 1.00274 0.997215
0.996387 1.00256 0.99843
0.994907 1.00516 0.998456
1.00026 1.0041 0.990457
0.999594 1.00495 0.990685
0.998592 1.00495 0.992018
0.99754 1.00497 0.994093
0.995304 1.00075 1.00136
0.998634 1.00478 0.992468
1.00028 1.0042 0.990201
1.00026 1.00448 0.990233
0.99525 1.00465 0.997892
0.997741 1.00503 0.993439
0.997924 1.00503 0.99391
0.996341 1.00515 0.995716
0.998503 1.00454 0.992945
1.00011 1.0046 0.989971
1.00008 1.00437 0.990097
0.999196 1.00458 0.99109
0.998405 1.00409 0.993929
0.998954 1.00504 0.991871
0.999933 1.00481 0.990655
1.00012 1.00368 0.990991
0.999868 1.00407 0.990471
0.999954 1.00257 0.992427
0.999986 1.00276 0.992194
0.999673 0.99967 0.99571
0.999883 1.00304 0.992048
0.99968 0.999761 0.995593
0.999935 0.997661 0.999054
0.999781 0.999779 0.995451
0.999914 0.997684 0.998351
1.00004 0.997586 0.997564
0.999908 1.00222 0.992812
1.00009 1.00282 0.991957
1.00003 0.999579 0.995265
1.00062 1.00291 0.991124
1.00007 1.00014 0.995036
0.999992 0.997841 0.998867
1.0003 1.00047 0.993889
0.999991 0.998478 0.99864
0.999902 0.998947 0.998492
1.0054 0.994829 0.991354
1.00537 0.994873 0.991443
1.00563 0.994759 0.99141
0.999311 0.994682 0.97965
1.0055 0.994795 0.991461
1.00548 0.994737 0.989873
1.00547 0.994685 0.991266
0.994943 0.994784 0.960323
1.00462 0.99472 0.975841
1.00026 1.00323 0.991233
1.00037 1.00361 0.990815
0.999171 1.004 0.992159
1.00031 1.00374 0.990653
1.00543 0.994803 0.991365
1.00539 0.994839 0.990508
1.00533 0.994749 0.990423
1.0038 1.00159 0.987741
1.00513 0.995609 0.989942
1.00533 0.994844 0.989889
1.00286 1.00108 0.988371
1.00404 1.00468 0.985272
1.00267 0.997488 0.992138
1.00001 1.00483 0.99091
0.999956 1.00368 0.990397
1.00057 1.00496 0.98897
1.00057 1.00374 0.990351
0.999036 1.00473 0.991768
1.00549 0.994755 0.99089
0.9995 1.00389 0.991621
1.00061 1.00418 0.989709
0.996684 1.00442 0.995284
1.00537 0.994902 0.990501
1.00528 0.994749 0.990277
1.00391 0.998701 0.989292
1.00457 0.997498 0.989311
1.0011 1.00348 0.990525
0.999318 1.00177 0.992854
1.00158 0.999557 0.992749
1.00152 0.99993 0.993031
1.00385 0.996898 0.989689
1.00524 0.994673 0.990809
1.00396 0.998844 0.989532
1.00456 0.998215 0.989495
0.996232 1.00486 0.995923
1.00123 1.00358 0.989443
0.997904 0.999722 0.999106
0.997851 1.00341 0.994561
0.999629 0.997305 0.917761
0.997972 1.00445 0.996418
1.00135 1.00365 0.9886
1.004 0.994666 0.990615
1.0045 0.995093 0.991541
1.00437 1.00033 0.986929
1.0048 1.00255 0.984189
0.998308 0.994722 0.977712
0.997648 1.00474 0.994676
1.00302 0.994671 0.990316
1.00246 1.0041 0.986345
1.00397 1.00078 0.987336
1.00349 0.997669 0.991951
0.998555 0.994874 0.920247
0.995118 0.994721 0.954053
0.996816 0.995225 0.985295
0.996259 0.995485 0.849212
0.994777 0.997496 0.79898
0.997849 1.00426 0.993783
0.997379 0.994842 0.853016
0.994823 0.997029 0.797464
1.00144 0.994789 0.993833
1.00172 1.00216 0.98986
1.00143 1.00094 0.992513
0.995266 0.99576 0.988609
0.997412 0.994661 0.93262
0.994928 0.994744 0.948654
0.994736 0.997262 0.858534
0.99479 0.995575 0.778192
0.996668 1.00223 0.998649
0.995033 1.0052 0.998238
0.995321 1.00498 0.999207
1.00046 1.004 0.990206
1.00003 1.00464 0.990119
0.998002 1.00496 0.992834
0.997555 1.00506 0.993831
0.99562 1.004 0.997845
1.00019 1.00443 0.990061
0.99755 1.00497 0.994222
0.998383 1.00485 0.992513
1.00029 1.00457 0.989992
0.99609 1.00515 0.996131
0.996629 1.00512 0.995372
0.995185 1.00511 0.997252
0.998755 1.00509 0.991539
1.00014 1.00459 0.989973
0.999814 1.00436 0.991024
0.997586 1.00408 0.994715
0.997686 1.00392 0.99407
0.998374 1.00254 0.994928
0.995865 1.00319 0.998908
0.998782 1.00202 0.99407
0.997506 1.00493 0.993178
0.998854 1.00512 0.991872
0.99893 1.00499 0.991187
0.999501 1.0049 0.99096
1.00006 1.00419 0.990866
1.00005 1.00268 0.992396
1.00009 1.00418 0.990424
0.99992 1.0026 0.992454
0.999868 0.999508 0.996326
0.999762 1.00307 0.992211
0.999741 0.999612 0.996009
0.999914 0.997545 0.997862
0.999666 0.999763 0.99559
0.999924 0.997664 0.999065
0.999919 0.997724 0.997681
1.00035 1.00358 0.990895
0.999866 1.00195 0.993127
0.999955 1.00218 0.992802
0.999978 0.999183 0.995727
1.00018 1.00278 0.99199
1.00005 0.999596 0.995243
0.999995 0.997546 0.998992
1.00004 1.00034 0.995335
0.999962 0.997991 0.997999
0.99996 0.998283 0.996837
0.998624 0.994709 0.979398
1.00552 0.994777 0.991456
1.00548 0.994777 0.989947
0.996101 0.994747 0.960219
1.00451 0.994673 0.975968
1.00547 0.994756 0.991368
1.0041 0.994586 0.984603
0.999402 0.994729 0.958179
0.998232 0.995071 0.934063
0.996534 0.994811 0.86944
0.994848 0.998686 0.801985
0.999315 1.0039 0.991681
1.00026 1.00335 0.991269
1.00051 1.00361 0.990807
0.99923 1.00384 0.992359
0.99764 1.00494 0.993873
0.999962 1.00453 0.990751
1.00014 1.00487 0.989798
1.00009 1.00406 0.990707
1.0055 0.994771 0.990862
1.00538 0.994803 0.990486
1.00528 0.99476 0.990247
1.00417 0.998497 0.989464
1.00463 0.997398 0.989265
1.00123 0.999905 0.992834
1.00388 0.99851 0.99211
1.00058 1.0029 0.992162
1.00091 1.00357 0.98985
1.00122 1.00356 0.989852
0.99936 1.00469 0.991082
0.995061 1.00494 0.997568
1.00422 0.995742 0.990095
0.996475 1.00491 0.995597
1.00049 1.00309 0.991308
1.00502 0.994692 0.990779
1.00384 0.999192 0.989483
1.00384 0.998322 0.989866
0.998586 1.00016 0.99717
0.998917 1.00228 0.994783
1.00271 0.996512 0.988115
1.00274 0.99943 0.990662
1.00365 1.00077 0.989504
1.00164 0.998891 0.99347
0.997953 1.00479 0.993752
0.996458 1.00349 0.996362
0.996833 1.00227 0.997561
0.999822 0.999965 0.8464
1.00065 0.994875 0.934274
0.998189 1.00412 0.994983
1.00294 1.00421 0.986337
1.0026 0.994674 0.990241
1.00354 0.997814 0.991875
1.00418 1.00057 0.987562
0.999978 0.994831 0.93228
0.995627 0.994737 0.953533
0.996577 0.995824 0.986002
0.994813 0.996088 0.868217
0.994827 0.996131 0.7958
0.998264 1.0042 0.993869
0.999664 0.995176 0.85005
0.994774 0.995671 0.791427
1.0011 0.99543 0.993625
1.00158 1.0024 0.989902
1.00143 1.00062 0.993399
0.99567 0.996476 0.989689
0.995891 0.994639 0.925775
0.995104 0.994746 0.949644
0.994786 0.996483 0.862757
0.994825 0.996075 0.775361
0.996758 1.00497 0.996815
0.994793 0.994813 0.784659
0.994733 0.994734 0.770392
0.997203 1.00077 0.996756
0.999066 1.00228 0.997132
0.994868 0.998249 0.986916
0.994951 0.994791 0.954906
0.994884 0.994586 0.915842
0.99482 0.995896 0.866287
0.994898 0.994901 0.793608
0.995233 1.00521 0.998045
0.995121 1.00469 0.999461
0.99492 1.00486 0.999232
1.0003 1.00434 0.990019
1.00051 1.0046 0.990017
0.998463 1.00503 0.992082
0.997135 1.00473 0.99453
0.995797 1.00513 0.996544
1.00036 1.00467 0.989898
0.996797 1.00505 0.99498
0.999045 1.00505 0.991545
0.995275 1.00508 0.997391
0.995023 1.00506 0.998138
0.996464 1.00485 0.995449
0.999611 1.00492 0.991567
1.00036 1.00395 0.990963
0.997627 1.00379 0.995476
0.998043 1.00399 0.994003
0.999317 1.00168 0.994702
0.995208 1.00324 0.998923
0.999527 0.99976 0.995162
0.995364 1.00507 0.996254
0.996882 1.0014 0.999913
1.00163 1.0049 0.988156
1.00519 0.999929 0.988231
0.998008 1.00459 0.991444
0.998594 1.00274 0.994149
0.99868 1.0047 0.991171
0.998239 1.00477 0.993286
0.999766 1.00495 0.990637
0.99914 1.00511 0.99187
0.999375 1.0045 0.991325
0.99947 1.00344 0.991957
1.00005 1.00439 0.990734
0.999867 1.0026 0.992431
0.999961 0.999493 0.99613
1.00007 1.00233 0.992478
0.999853 0.999449 0.996006
1.00003 0.997263 0.997822
0.99972 0.999627 0.995712
0.999964 0.997508 0.999094
0.999921 0.997634 0.999078
1.00065 1.00379 0.99057
0.999912 1.00216 0.992911
1.00049 1.00331 0.990903
1 0.998995 0.995895
0.999974 1.00184 0.99311
1.00007 1.00204 0.99279
0.999998 0.999197 0.99571
0.999992 0.9973 0.999085
1.00005 0.999667 0.995907
1 0.997606 0.998222
0.999986 0.997966 0.997296
0.999114 0.99746 0.835668
0.994827 0.995039 0.78145
0.9955 0.994762 0.961149
1.00435 0.994646 0.976316
1.00549 0.994769 0.991461
1.00203 0.994769 0.9551
1.00331 0.994671 0.985361
0.999607 0.99494 0.929314
0.994816 0.994927 0.848438
0.994842 0.997119 0.799587
0.998686 0.994742 0.967889
0.994951 0.994702 0.935131
0.994728 0.995551 0.860324
0.994949 0.997091 0.790969
0.999773 1.00443 0.991926
0.999839 1.00367 0.991493
1.00025 1.00329 0.991316
0.999245 1.00335 0.992574
0.997167 1.00434 0.994957
1.0003 1.00477 0.989716
0.999354 1.0047 0.991216
1.00086 1.00508 0.988515
1.00028 1.00481 0.989717
0.999467 1.0048 0.990773
1.0044 0.994812 0.990471
1.00489 0.99471 0.990745
1.0035 0.999492 0.989431
1.00298 0.998518 0.990241
0.999507 1.00224 0.995001
0.998963 1.00052 0.995297
0.999378 1.0028 0.993411
0.996644 1.00493 0.995257
1.00219 0.995736 0.9888
0.997868 1.005 0.993538
0.996542 1.0034 0.996845
1.00258 0.999255 0.990735
1.00328 1.00163 0.988559
1.00076 0.999183 0.994335
0.99721 1.00249 0.99784
0.999489 0.995228 0.987045
1.00081 1.00164 0.992859
0.996722 1.00403 0.996399
0.998712 1.00401 0.993442
0.996118 1.00514 0.99537
0.9952 1.00457 0.998024
0.994777 0.994778 0.796936
0.999741 0.995138 0.857202
0.999815 0.997461 0.918027
0.998508 1.00423 0.993935
1.00175 1.00273 0.989888
1.00076 0.996048 0.9934
1.00128 1.00009 0.994293
0.999485 0.998258 0.864988
0.995115 0.994679 0.91955
0.994945 0.994694 0.948808
0.995947 0.997187 0.990525
0.994762 0.995942 0.845828
0.99473 0.995012 0.797677
0.994897 0.997385 0.790821
0.99687 1.00468 0.996512
0.994797 0.994882 0.790975
0.994769 0.994758 0.77011
0.997512 0.999005 0.997408
0.998758 1.00221 0.997036
0.994856 0.997124 0.988693
0.995225 0.99478 0.951415
0.995121 0.994602 0.928836
0.994802 0.996457 0.845507
0.995306 0.994894 0.80222
0.995798 1.00429 1.00062
0.994729 0.994775 0.778086
0.994818 0.994832 0.775812
0.994817 1.00213 1.00039
0.994851 0.996683 0.963365
0.994801 0.994771 0.926772
0.994934 0.994905 0.848753
0.995782 0.994908 0.823616
0.994905 1.00439 0.999709
0.994945 1.00503 0.999556
0.994895 1.0049 0.999877
1.00013 1.00497 0.989826
0.999395 1.005 0.991552
0.996923 1.005 0.994589
0.995362 1.00504 0.99753
0.999072 1.00491 0.991545
0.996688 1.00489 0.99535
0.995186 1.0049 0.998193
0.99517 1.005 0.998648
0.995596 1.0046 0.998014
0.99748 1.00485 0.994519
0.99838 1.00447 0.99392
0.999197 1.00109 0.994499
0.99485 1.00376 0.998986
0.995859 1.00457 0.996627
0.999597 1.00052 0.994841
0.995841 1.00109 1.0003
1.00128 1.00254 0.992798
0.994573 1.00527 0.999562
1.00288 0.999826 0.990396
1.0013 1.00374 0.989679
1.00277 1.00215 0.987823
1.00505 0.999976 0.986797
1.00386 1.00108 0.988403
1.00449 0.999582 0.988691
0.999493 1.00416 0.991468
0.99904 1.0052 0.989131
0.998546 1.00371 0.994233
0.999431 1.0047 0.991224
1.00108 1.0049 0.988438
0.998612 1.00462 0.993384
0.999362 1.00505 0.9907
0.999852 1.00406 0.990728
0.999913 1.00439 0.991463
0.999877 1.00333 0.991978
1.0002 0.999936 0.995452
0.999788 1.00279 0.992471
0.999946 0.99965 0.995637
1.00012 0.997416 0.997609
0.999867 0.999393 0.995714
1.00003 0.997315 0.998463
0.999979 0.997445 0.999094
1.00039 1.00469 0.989369
1.00002 1.00252 0.992448
1.00026 1.00415 0.990364
1.00004 0.999094 0.995744
0.999893 1.00214 0.992932
1.00034 1.00342 0.990908
1.00001 0.99724 0.999098
0.999982 0.999037 0.99589
0.999929 1.00198 0.9931
1.00002 0.999192 0.995695
0.999997 0.997367 0.99906
1 0.997613 0.99895
0.994765 0.994833 0.777454
0.998627 0.99533 0.850158
0.994808 0.994778 0.774519
0.99485 0.995063 0.783595
0.999345 0.994991 0.956297
1.00236 0.994736 0.986159
0.999149 0.994752 0.923996
0.995533 0.995003 0.868476
0.994851 0.995575 0.797483
0.998418 0.994778 0.966539
0.9961 0.994656 0.919153
0.994752 0.996313 0.864004
0.994823 0.996323 0.783677
0.994905 0.994772 0.959355
0.994768 0.994639 0.913186
0.994798 0.995741 0.839689
0.994864 0.994899 0.799921
1.00034 1.00429 0.990739
0.998798 1.00448 0.992118
0.999808 1.004 0.9913
0.996502 1.00377 0.996007
1.0008 1.00403 0.989283
1.00009 1.00489 0.98989
0.998891 1.00456 0.991671
1.00135 1.0049 0.988147
1.00107 1.00506 0.988479
1.0004 1.00466 0.989628
1.00237 0.994737 0.989404
1.0023 0.999175 0.990829
1.00302 1.00263 0.987626
1.00006 0.999196 0.995207
0.997218 1.00374 0.998103
0.997023 1.00292 0.997319
0.998228 1.00508 0.993324
0.999095 1.00321 0.99343
0.999491 0.996254 0.987731
0.997194 1.00506 0.994876
0.996592 1.00311 0.998194
1.00054 1.00124 0.992917
0.997517 1.00294 0.99645
0.996647 0.999696 0.986306
0.996728 1.00291 0.997587
0.994658 1.00548 0.998284
0.996092 1.00419 0.997295
0.995302 1.00465 0.997621
0.994741 0.994762 0.783622
0.994788 0.994728 0.791895
0.999788 1.00026 0.835752
0.996915 1.00442 0.996256
0.998888 1.00205 0.996964
0.998051 0.997971 0.998036
0.994783 0.994812 0.786101
0.994788 0.994601 0.913776
0.99494 0.99477 0.95223
0.99492 0.99565 0.990965
0.994791 0.996399 0.863754
0.994809 0.994777 0.770748
0.995983 0.994883 0.804404
0.99612 1.00415 1.00061
0.994743 0.994795 0.778569
0.994797 0.994831 0.777027
0.994901 1.00262 0.999073
0.994851 0.995708 0.965079
0.995285 0.994775 0.912234
0.995693 0.994901 0.818018
0.99542 0.99606 0.858236
0.994741 1.00489 1.00167
0.994763 0.994831 0.765277
0.994866 0.994847 0.795627
0.994868 0.994892 0.799393
0.994725 1.00004 0.987473
0.994831 0.995572 0.932425
0.997345 0.994883 0.87278
0.995022 1.00516 0.999881
0.995193 1.0047 0.999659
0.994956 1.00515 0.999391
0.99892 1.0047 0.991542
0.996854 1.0049 0.995251
0.995307 1.00467 0.998253
0.99693 1.00493 0.994613
0.995426 1.00435 0.998145
0.99522 1.00461 0.998546
0.995111 1.00456 0.999606
0.995216 1.00501 0.998103
0.996029 1.00366 0.997062
0.999681 1.0012 0.994504
0.994691 1.00075 1.00059
0.994693 1.00481 0.999289
0.999596 1.00158 0.993547
1.00082 1.00118 0.994225
1.00006 1.00128 0.993927
1.00343 1.00019 0.988503
1.00093 1.0022 0.9911
1.00305 1.00177 0.987919
1.00488 1.00127 0.985791
1.00511 1.00102 0.985386
1.00493 0.99899 0.987759
1.00489 0.999942 0.986806
1.00253 1.00419 0.987476
1.00295 1.00162 0.988536
1.0037 0.999196 0.989158
1.00087 1.00346 0.991487
1.00015 1.00519 0.988732
1.00193 1.0052 0.986252
0.999965 1.00474 0.991282
1.00124 1.0051 0.988371
1.00084 1.00478 0.988428
0.999706 1.00511 0.990744
1.00029 1.00374 0.990673
1.00028 1.00032 0.994978
1.00019 1.00274 0.991993
1.0002 0.999969 0.994987
1.00037 0.997647 0.996974
0.999894 0.999785 0.995307
1.00012 0.997374 0.998373
1.00008 0.997256 0.99907
1.00113 1.00509 0.987839
1.00022 1.00291 0.991329
1.0007 1.00453 0.98938
1.00008 0.999348 0.995424
1.00009 1.00244 0.992225
1.00041 1.00404 0.99016
1.00003 0.997304 0.999055
1.00003 0.999084 0.995759
1 1.00193 0.992948
1 0.997269 0.9991
0.999964 0.999064 0.995885
1 0.997378 0.999036
0.994793 0.994816 0.777041
0.994785 0.994948 0.792425
0.999288 0.995054 0.84946
1.00096 1.00509 0.988326
0.994779 0.994799 0.778575
0.994793 0.994795 0.774446
0.994872 0.995071 0.797155
0.997917 0.994728 0.966443
0.994942 0.994697 0.93407
0.994692 0.997213 0.846814
0.994801 0.99562 0.795502
0.995291 0.994763 0.956646
0.99493 0.994643 0.92829
0.994799 0.996304 0.845411
0.994889 0.994898 0.800521
0.994943 0.994751 0.9505
0.994815 0.994834 0.924202
0.996491 0.994917 0.86123
0.995294 0.994909 0.823963
0.998454 1.00356 0.993716
0.999482 1.00449 0.991248
0.998799 1.00388 0.992312
1.00123 1.00277 0.990321
1.00097 1.0045 0.989234
0.999974 1.00493 0.990061
1.0015 1.00511 0.988123
1.00132 1.00483 0.988443
0.99877 0.997215 0.988279
0.999841 1.00088 0.992909
0.99798 1.0038 0.993405
0.998075 1.00188 0.996436
0.99735 1.00256 0.998332
0.997786 1.00472 0.994286
0.996286 1.00398 0.996234
0.996335 0.999992 0.986395
0.996042 1.00485 0.997392
0.99553 1.00427 0.998271
0.996186 1.00311 0.997731
0.995007 1.00519 0.997007
0.99545 1.00418 0.983353
0.994693 1.00382 0.999272
0.994805 1.0051 0.999004
0.995286 1.00526 0.997376
0.994729 0.994806 0.766055
0.994733 0.994762 0.780023
0.994794 0.994675 0.786606
0.996053 1.00448 1.00057
0.994912 1.00189 0.997708
0.994762 0.994816 0.778916
0.994756 0.994825 0.927895
0.994847 0.99547 0.961379
0.995683 0.994907 0.857376
0.99478 0.994833 0.778005
0.994893 0.994895 0.812232
0.994792 1.00499 1.00151
0.994767 0.994826 0.765791
0.994876 0.994858 0.793464
0.994728 1.00077 0.991106
0.994885 0.994915 0.799901
0.994835 0.996763 0.925865
0.996691 0.996696 0.874167
0.99476 1.00428 0.997109
0.994833 0.994842 0.781705
0.99479 0.994814 0.780522
0.994825 0.997197 0.78953
0.996581 0.99491 0.86107
0.994853 1.00147 0.96946
0.994871 0.995198 0.918729
0.995403 1.00487 0.999471
0.995005 1.00522 0.999406
0.994701 1.00531 0.997998
0.996478 1.00505 0.994684
0.995353 1.00413 0.998279
0.995338 1.00456 0.998484
0.995263 1.00465 0.99801
0.994977 1.00482 0.999411
0.997261 1.00284 1
0.994779 1.00423 0.999026
0.997752 1.00057 0.994412
0.99933 1.00131 0.995089
1.001 0.99942 0.992173
0.99653 1.00319 0.997044
1.00283 1.00005 0.989225
1.00462 1.00257 0.984143
1.00477 1.00188 0.984904
1.00363 1.00175 0.987921
1.0048 1.00135 0.985428
1.00513 1.00154 0.984878
1.0049 1.00083 0.986065
1.00504 1.001 0.985452
1.00414 1.00112 0.987836
1.00412 0.999986 0.987653
1.00489 0.999792 0.986829
1.0017 1.00514 0.986383
1.00173 1.00453 0.987468
1.00175 1.0024 0.988647
1.00122 1.00521 0.988339
1.00249 1.00498 0.986235
1.00157 1.00511 0.986504
1.00106 1.00511 0.988306
1.00111 1.00473 0.988407
1.0003 1.00131 0.993086
1.00087 1.00372 0.990651
1.00042 1.0002 0.994077
1.00013 0.997738 0.998723
1.00023 0.999968 0.994636
1.00025 0.997649 0.997939
1.00016 0.997554 0.998911
1.00098 1.00508 0.987928
1.00053 1.00361 0.990081
1.00098 1.00509 0.988132
1.0002 0.999612 0.994986
1.00025 1.00298 0.991196
1.00068 1.00469 0.989385
1.00005 0.997445 0.998982
1.00011 0.999271 0.995448
1.00003 1.00244 0.992003
1.00002 0.997293 0.99907
1.00002 0.999089 0.995775
0.999994 0.997277 0.999102
0.994743 0.994811 0.773563
0.994785 0.994801 0.777405
0.994781 0.995319 0.790988
1.00103 1.005 0.988514
1.00033 1.00509 0.988511
1.00133 1.00331 0.990926
0.994879 0.994861 0.794332
0.994798 0.994798 0.779758
0.994789 0.994786 0.77455
0.996039 0.994747 0.95721
0.994872 0.994625 0.914432
0.9948 0.996869 0.864684
0.994888 0.994883 0.795026
0.994933 0.994782 0.952766
0.994993 0.994795 0.91983
0.996029 0.994915 0.861679
0.995379 0.994906 0.818215
0.994929 0.994844 0.952235
0.994798 0.995353 0.927874
0.996831 0.994899 0.872969
0.994893 0.994906 0.795984
0.997489 1.0032 0.9952
0.998438 1.00383 0.99367
0.999212 1.00505 0.991758
1.00084 1.00325 0.990221
1.00065 1.00498 0.98919
1.00139 1.0051 0.988095
0.995982 0.999885 0.986837
0.996319 1.00328 0.99791
0.997693 1.00295 0.995239
0.996619 1.00336 0.998134
0.997301 1.00429 0.997204
0.995253 1.00506 0.997083
0.995518 1.00525 0.996991
0.995233 1.00322 0.983418
0.994766 1.00522 0.999136
0.994678 1.00465 0.997687
0.995164 1.00537 0.99814
0.994723 1.0023 0.982443
0.994812 1.00494 0.994732
0.994915 1.00304 0.999028
0.994862 0.994854 0.768978
0.994738 0.994813 0.765632
0.994724 0.99476 0.776392
0.994861 1.00491 1.00132
0.99475 1.00161 0.986487
0.994762 0.994821 0.766319
0.994824 0.996698 0.926641
0.99626 0.994886 0.860482
0.994889 0.994853 0.79129
0.994887 0.994875 0.794585
0.994729 1.00441 0.997635
0.994813 0.994844 0.780397
0.994812 0.994796 0.781909
0.994871 1.00212 0.965826
0.994809 0.996724 0.782285
0.995959 0.996335 0.86044
0.994862 0.997337 0.932547
0.994807 1.00515 0.988007
0.994759 0.994814 0.776526
0.994787 0.994784 0.774594
0.994846 0.9997 0.800511
0.994779 0.996254 0.837466
0.994805 0.994907 0.930232
0.994799 1.0017 0.959256
0.995231 1.00495 0.999356
0.994769 1.00526 0.998155
0.995014 1.00493 0.998551
0.995208 1.00432 0.997916
0.994835 1.00483 0.999069
0.996171 1.00213 1.00048
0.998407 1.00248 0.998135
0.998092 1.00101 0.995896
1.0029 0.999134 0.991342
1.00186 1.00411 0.986357
1.00223 1.00023 0.990481
1.0045 1.00265 0.984271
1.00449 1.00268 0.983973
1.00521 0.999639 0.985977
1.0051 1.00133 0.98505
1.00483 1.00191 0.984832
1.00474 1.0016 0.985075
1.00499 1.00262 0.984389
1.00514 1.00137 0.984933
1.005 1.00071 0.986161
1.00489 1.00116 0.986199
1.00478 1.00097 0.985515
1.0023 1.00268 0.988239
1.00362 1.00095 0.98771
1.00378 1.00073 0.987531
1.00244 1.00522 0.985554
1.00224 1.00517 0.986387
1.00093 1.00438 0.987466
1.00286 1.00491 0.986237
1.00227 1.00514 0.986513
1.0006 1.00213 0.99171
1.00189 1.00453 0.988359
1.00042 1.00125 0.993012
1.00029 0.998262 0.998544
1.00066 0.999971 0.994004
1.00034 0.99783 0.997809
1.00027 0.997594 0.998744
1.00177 1.00514 0.987733
1.00102 1.00402 0.989457
1.00121 1.00512 0.98789
1.00025 1.0001 0.99444
1.0005 1.0037 0.990249
1.00094 1.00508 0.988432
1.00008 0.997544 0.998879
1.00019 0.999583 0.995008
1.00041 1.00301 0.991067
1.00005 0.99738 0.999004
1.00014 0.999213 0.995472
1.00002 0.99731 0.999086
0.994833 0.994844 0.778784
0.994749 0.994828 0.774106
0.994797 0.994784 0.777474
1.00048 1.00479 0.988344
1.00277 1.00229 0.99193
1.00053 1.00512 0.988711
1.00054 1.00508 0.988441
1.00025 1.00213 0.991676
1.00087 1.00255 0.991171
0.998283 1.00222 0.995127
0.994832 0.994838 0.778461
0.994876 0.994859 0.792024
0.994814 0.994824 0.780862
0.994892 0.994904 0.812236
0.995052 0.994764 0.950356
0.994837 0.994829 0.915148
0.995965 0.994895 0.872253
0.995146 0.99486 0.950722
0.994811 0.997402 0.913958
0.996402 0.995678 0.873352
0.99513 0.994898 0.804363
0.994858 0.995613 0.955117
0.994847 0.998411 0.915119
0.994944 0.994902 0.849468
0.994811 0.996095 0.780871
0.995406 1.00518 0.996979
0.997132 1.00369 0.995746
0.99809 1.00418 0.993626
1.00052 1.00422 0.99012
0.995272 1.00236 0.983333
0.994669 1.00522 0.996246
0.995298 1.00525 0.997188
0.996544 1.00525 0.996667
0.994603 1.00535 0.99961
0.995062 1.00535 0.998082
0.995921 1.00376 0.999383
0.994947 1.00228 0.979534
0.994883 1.00524 0.994604
0.995721 1.00291 1.00005
0.996267 1.00058 0.974485
0.994779 1.00386 0.998901
0.994736 0.99483 0.769899
0.994839 0.994856 0.77541
0.994749 0.994833 0.765203
0.994624 1.00489 0.998156
0.994874 1.00151 0.970412
0.994791 0.994845 0.779074
0.994874 0.995192 0.919912
0.995848 0.994907 0.871853
0.9948 0.994823 0.783002
0.994779 0.996138 0.7938
0.994777 1.00503 0.98911
0.994756 0.994827 0.777181
0.994781 0.99481 0.774579
0.994816 1.00201 0.959429
0.994838 0.997224 0.798185
0.994774 0.996624 0.843267
0.994843 0.995368 0.916379
0.9953 1.00406 0.98237
0.994817 0.99482 0.777752
0.994815 0.995074 0.780295
0.994718 0.99571 0.858875
0.994811 0.994875 0.926176
0.994843 0.999105 0.95503
0.994746 1.00512 0.998924
0.994919 1.00473 0.998616
0.994962 1.00508 0.997865
0.995009 1.00146 1.00096
0.996891 1.00259 0.998752
1.0008 1.0015 0.993622
1.00482 0.998723 0.990525
1.00304 1.00449 0.985514
1.00428 1.00183 0.985528
1.00442 1.00256 0.984394
1.00463 1.00267 0.983905
1.005 1.00105 0.985399
1.00538 0.996947 0.988177
1.00526 0.999465 0.98659
1.0052 0.999827 0.985993
1.00509 1.00176 0.985115
1.00512 1.00113 0.985077
1.00493 1.00182 0.984755
1.0052 1.00401 0.982785
1.00502 1.00257 0.984494
1.00524 1.00138 0.985
1.00418 1.0023 0.987462
1.00399 1.00143 0.986959
1.00465 1.00173 0.986336
1.00356 1.00287 0.986347
1.00247 1.00266 0.988203
1.00318 1.00158 0.987581
1.00119 1.00222 0.990644
1.00266 1.00515 0.985683
1.00266 1.00513 0.986389
1.00234 1.0051 0.986521
1.00068 1.00206 0.991697
1.00035 0.998911 0.998191
1.00038 1.00131 0.992947
1.0003 0.998331 0.998431
1.00034 0.997659 0.998631
1.00303 1.00449 0.988123
1.00289 1.00516 0.986892
1.00129 1.00468 0.98841
1.00161 1.00475 0.987723
1.00022 1.00077 0.993815
1.00094 1.00415 0.989424
1.00134 1.00516 0.987845
1.00007 0.997914 0.998747
1.00024 1.00007 0.994464
1.00053 1.00379 0.990413
1.00006 0.997603 0.99891
1.00018 0.999588 0.995035
1.00005 0.997359 0.999028
0.994779 0.994846 0.76799
0.994821 0.994834 0.777542
0.994747 0.994822 0.774653
1.00127 1.005 0.987911
0.999758 1.00208 0.992757
1.00201 1.00097 0.989821
0.997918 1.0044 0.992226
1.0017 0.998567 0.994424
1.00074 1.00509 0.988345
0.999482 1.00289 0.992505
1.00054 1.00336 0.991165
0.998665 1.00079 0.99677
0.9991 1.00289 0.99544
0.994769 0.994746 0.773801
0.994813 0.994844 0.779829
0.99487 0.994843 0.789832
0.995379 0.994882 0.80665
0.996294 0.994901 0.860692
0.994993 0.994874 0.949303
0.99477 0.995984 0.927013
0.99487 0.996476 0.949757
0.994856 0.998247 0.927515
0.995107 0.99589 0.859105
0.994838 0.99626 0.778106
0.994879 0.999004 0.950608
0.994798 0.996446 0.92697
0.994823 0.996077 0.867785
0.994744 0.998648 0.804321
0.998384 1.00025 0.997923
0.995426 1.00498 0.99729
0.997428 1.00318 0.996322
0.994799 1.00227 0.976101
0.994864 1.00523 0.9935
0.995161 1.00532 0.997933
0.99477 1.00439 0.999633
0.995372 1.00367 0.999888
0.994773 1.00228 0.999477
0.994807 1.00215 0.975373
0.995133 1.00208 1.00316
0.994759 1.00021 0.983378
0.994766 0.99478 0.78621
0.994755 0.994841 0.76919
0.994821 0.994847 0.782198
0.994814 1.00498 0.989445
0.994843 0.999773 0.95712
0.99477 0.994833 0.777826
0.994829 0.994909 0.92831
0.994782 0.997125 0.861994
0.994816 0.994785 0.774927
0.994846 0.995667 0.796211
0.995089 1.00433 0.983279
0.994814 0.994805 0.777735
0.994834 0.9955 0.782259
0.994855 0.998342 0.956388
0.99474 0.996541 0.86299
0.995077 0.994807 0.916694
0.994748 1.00255 0.98119
0.994754 0.994829 0.776668
0.996018 0.994933 0.869223
0.994792 0.994643 0.912722
0.994954 0.99487 0.955641
0.994972 1.00457 0.99871
0.994869 1.00518 0.997616
0.997965 1.00018 0.99658
0.995489 1.00269 0.999344
0.999698 1.00183 0.994494
1.0043 0.995755 0.992713
1.00416 1.00496 0.98465
1.00417 1.00174 0.985503
1.00503 0.997421 0.988535
1.00464 1.00282 0.983839
1.0049 1.00073 0.985445
1.00518 0.997266 0.988479
1.00541 0.994839 0.990332
1.0054 0.996699 0.988161
1.00537 0.996883 0.988215
1.00536 0.999327 0.986751
1.00525 0.999481 0.986539
1.00518 0.999958 0.98601
1.00533 1.00281 0.983604
1.00505 1.00161 0.984982
1.00507 1.00091 0.985104
1.00523 1.00501 0.983215
1.00424 1.00403 0.983518
1.00502 1.00233 0.984599
1.00242 1.00379 0.987694
1.003 1.00246 0.987349
1.00292 1.00185 0.987754
1.00185 1.00297 0.990784
1.0031 1.00326 0.986455
1.00255 1.00261 0.988165
1.00064 0.999969 0.994748
1.00134 1.00261 0.990861
1.00293 1.00517 0.985823
1.00089 1.00207 0.991663
1.00044 0.999073 0.998074
1.00035 0.998718 0.998313
1.00196 1.00176 0.987821
1.00293 1.00502 0.986402
1.00071 1.00445 0.988301
1.0013 1.00514 0.987928
1.00177 1.00514 0.986916
0.99996 1.00149 0.993352
1.00114 1.00474 0.988405
1.00147 1.00514 0.987706
1.00004 0.998298 0.998609
1.00021 1.00066 0.993867
1.00074 1.00422 0.989393
1.00006 0.997794 0.998788
1.00025 0.999959 0.994486
1.00005 0.997509 0.998942
0.994761 0.994825 0.784302
0.994784 0.99484 0.768612
0.994798 0.994856 0.776083
1.00265 1.00424 0.985956
1.00079 1.00496 0.987518
0.99821 1.00253 0.993854
0.999772 1.00499 0.991462
1.00324 1.00007 0.989486
0.999812 0.997693 0.997879
1.00329 1.0002 0.989827
0.995166 1.00517 0.996137
0.999597 1.00385 0.991107
0.998562 0.997713 0.998313
0.997244 1.00331 0.995555
0.997677 1.00231 0.996197
0.994828 0.997309 0.79885
0.994793 0.994767 0.773461
0.994799 0.994851 0.780863
0.99492 0.997389 0.793329
0.995311 0.9949 0.857836
0.994841 0.998407 0.915532
0.995223 0.995221 0.950563
0.995563 0.998877 0.951546
0.994794 0.997839 0.801513
0.994829 0.996482 0.918342
0.994815 0.996714 0.847069
0.994877 0.996685 0.958308
0.994787 0.994813 0.928702
0.994728 0.997234 0.861021
0.999194 0.996258 1.00247
0.998246 1.00028 0.997833
0.994893 1.00539 0.997574
0.995013 1.00247 0.975775
0.995786 1.0008 1.00004
0.995748 1.00291 0.999848
0.995809 1.00009 1.00354
0.994944 0.999493 0.983529
0.995477 0.997336 0.994743
0.99475 0.99475 0.792963
0.994762 0.994797 0.785477
0.994782 0.994833 0.768178
0.994746 1.00482 0.983334
0.994826 0.999791 0.955868
0.994795 0.994806 0.77802
0.994828 0.994827 0.913377
0.99468 0.997128 0.845622
0.994861 0.995954 0.795887
0.994784 1.00451 0.980906
0.994772 0.994914 0.791843
0.994897 0.994943 0.847651
0.995103 0.994839 0.949997
0.995008 0.994639 0.927828
0.995766 0.998395 0.988103
0.998987 0.997945 0.835101
0.99498 0.994716 0.935357
0.994943 0.99474 0.947927
0.994804 1.00526 0.997429
0.997652 1.00188 0.996274
1.00114 0.997701 0.993778
0.998585 1.00262 0.995368
1.00343 0.996855 0.992497
1.00487 0.994769 0.992087
1.00413 1.00159 0.98548
1.00502 0.997269 0.988404
1.0052 0.995359 0.990208
1.00481 1.00029 0.985492
1.00512 0.997112 0.988404
1.00536 0.994716 0.990461
1.00533 0.994745 0.991084
1.00539 0.994935 0.990263
1.00541 0.994858 0.99032
1.00547 0.996483 0.988353
1.00541 0.99661 0.988344
1.00538 0.996823 0.988253
1.0055 0.999701 0.985862
1.00534 0.999185 0.986621
1.00524 0.999505 0.986484
1.00538 1.00363 0.982035
1.00535 1.00281 0.983529
1.00504 1.00147 0.984846
1.00339 1.0029 0.986341
1.00412 1.00492 0.983186
1.00343 1.00409 0.984265
1.0018 1.00318 0.988686
1.00287 1.00278 0.987552
1.00186 1.00257 0.987219
1.00013 1.00208 0.997118
1.00184 1.0032 0.988824
1.00331 1.0027 0.986535
1.00055 0.999467 0.997741
1.00147 1.00255 0.990128
1.0005 0.998994 0.997954
1.00466 1.00323 0.985227
1.00338 1.00169 0.987443
1.0024 1.00444 0.986668
1.00165 1.00518 0.987807
1.00248 1.00508 0.986403
1.00044 1.00478 0.988467
1.00009 1.00204 0.992842
1.00118 1.00517 0.987949
1.00179 1.00438 0.986936
1.00002 0.998885 0.998502
0.999977 1.00158 0.993351
1.00106 1.00488 0.988398
1.00002 0.9983 0.998652
1.00019 1.00073 0.993908
1.00005 0.997817 0.998828
0.994772 0.994817 0.78425
0.99477 0.994814 0.784491
0.994788 0.994833 0.769346
1.00272 1.00418 0.986213
1.00458 1.00292 0.986167
1.00144 1.00487 0.987884
0.999507 1.00498 0.990668
1.00459 0.999977 0.98918
0.996218 0.997867 1.00098
0.997659 1.00197 0.99599
1.00164 1.0011 0.991502
1.0008 1.00035 0.993435
0.998529 1.00126 0.995814
0.997284 1.00314 0.995642
0.998685 1.00233 0.996187
0.995463 0.995683 0.842971
0.994779 0.995757 0.793216
0.994817 0.994784 0.774
0.99484 0.996143 0.798264
0.994791 0.996738 0.865386
0.994836 0.99581 0.915674
0.994825 0.999511 0.950619
0.99489 0.997588 0.954686
0.994786 0.996715 0.863943
0.994949 0.994796 0.914509
0.994928 0.995531 0.960301
0.994894 0.994575 0.916194
0.998433 0.995646 1.0059
0.999181 0.996087 1.00224
0.998014 1.00031 0.997813
0.99482 0.999683 0.983835
0.995992 0.999488 1.00385
0.995455 0.997507 0.994348
0.994955 0.995261 0.992047
0.999446 0.99998 0.84586
0.994774 0.994717 0.789226
0.994758 0.994819 0.784479
0.994825 1.00431 0.981426
0.995022 0.994834 0.949667
0.994771 0.995049 0.790122
0.994886 0.994613 0.914855
0.995503 0.995505 0.867826
0.9956 0.998352 0.984457
0.998711 0.995018 0.850284
0.99587 0.994654 0.919475
0.995033 0.994781 0.949459
0.997011 0.996617 0.98396
0.998204 0.994862 0.934432
0.994907 0.994761 0.957557
0.997242 1.00257 0.995989
1.00062 0.997179 0.993679
1.00343 0.996578 0.992686
1.00264 0.99747 0.992292
1.0046 0.994766 0.992025
1.00507 0.994608 0.991399
1.00504 0.997178 0.988275
1.00517 0.995458 0.990078
1.00533 0.99471 0.990468
1.00504 0.996975 0.988329
1.00537 0.99472 0.990413
1.00533 0.994815 0.990717
1.00535 0.994857 0.990801
1.00532 0.994745 0.991065
1.00535 0.994791 0.99106
1.00535 0.995082 0.990522
1.0054 0.995008 0.990385
1.00541 0.994871 0.990309
1.00548 0.996976 0.988192
1.00547 0.99644 0.988351
1.00541 0.996512 0.988527
1.00549 1.00119 0.984223
1.00552 0.999716 0.985863
1.00533 0.999084 0.986497
1.00506 1.00292 0.98332
1.00542 1.00371 0.982232
1.00538 1.00281 0.983451
1.00194 1.00416 0.987286
1.00324 1.00355 0.986278
1.00314 1.00482 0.983173
1.00101 1.00099 0.996934
1.00192 1.00311 0.988729
1.00273 1.00269 0.98742
1.00061 1.00117 0.995329
1.00176 1.00278 0.989142
1.0007 1.00039 0.997364
1.00488 1.00415 0.982716
1.00366 1.0037 0.985207
1.00317 1.00281 0.98615
1.0041 1.00229 0.987071
1.00281 1.00421 0.986732
1.00188 1.00517 0.987357
1.00068 1.00232 0.991829
1.00136 1.00517 0.987745
1.00106 1.00508 0.986417
1.0001 0.998829 0.998282
0.999988 1.002 0.992827
1.0012 1.00518 0.98797
0.999962 0.998604 0.99853
1.00004 1.00134 0.993381
1 0.998126 0.998694
0.997381 0.994848 0.852142
0.994786 0.994917 0.789746
0.994777 0.994808 0.784827
1.0027 1.00364 0.986476
1.0018 1.00485 0.987493
1.00439 1.00254 0.985547
1.00501 0.998894 0.987814
1.00269 0.999891 0.990923
0.999503 1.00205 0.995874
1.00168 1.00018 0.993153
1.00138 1.00022 0.993519
1.00479 0.996155 0.991178
1.00182 0.99881 0.994082
1.00202 0.998821 0.994035
1.00025 0.999552 0.995847
0.999245 1.00189 0.99625
0.997436 0.994664 0.930646
0.996458 0.995609 0.849091
0.994744 0.995038 0.798973
0.994753 0.996447 0.847888
0.994789 0.994818 0.925786
0.995088 0.997353 0.957662
0.994985 0.995361 0.962409
0.994901 0.994623 0.930785
0.995605 0.994773 0.958597
0.997127 0.995725 1.00526
0.997449 0.996459 1.00601
0.99941 0.995818 1.00197
0.995195 0.997132 0.99415
0.996222 0.994819 0.993702
0.999667 0.997458 0.917622
0.999737 0.995408 0.855834
0.994795 0.994685 0.785415
0.995494 0.997386 0.9803
0.994911 0.99475 0.948422
0.999089 0.994875 0.849415
0.994978 0.994675 0.934305
0.99718 0.995339 0.984122
0.999514 0.994842 0.929556
0.995319 0.994773 0.954827
0.999792 0.994646 0.983366
0.997997 0.994772 0.967013
1.00026 0.997287 0.993547
1.0025 0.995573 0.992751
1.00483 0.994675 0.992069
1.00425 0.994785 0.991957
1.00501 0.994628 0.991298
1.0053 0.99469 0.990697
1.00511 0.995542 0.989946
1.00532 0.994719 0.990428
1.00537 0.994813 0.99043
1.00538 0.994721 0.990366
1.00533 0.994805 0.990724
1.00538 0.994839 0.990549
1.00534 0.994859 0.990779
1.00537 0.994842 0.990778
1.0053 0.994745 0.991045
1.00535 0.994774 0.991064
1.00531 0.994843 0.991043
1.00535 0.995675 0.990126
1.00536 0.995133 0.990524
1.0054 0.995093 0.990508
1.00545 0.999657 0.985888
1.00551 0.99704 0.98807
1.00545 0.996375 0.988346
1.00532 1.00452 0.981885
1.00547 1.00142 0.984315
1.00556 0.999718 0.985863
1.00319 1.00371 0.985764
1.00459 1.00353 0.983434
1.00545 1.00381 0.982424
1.00107 1.00144 0.996618
1.0023 1.00383 0.987187
1.00301 1.00412 0.986227
1.00097 1.00092 0.996896
1.00221 1.00298 0.988777
1.00094 1.00067 0.997044
1.0051 1.00256 0.984856
1.00492 1.00453 0.982869
1.00322 1.00515 0.983032
1.00323 1.00371 0.98517
1.00268 1.00412 0.985761
1.00211 1.00441 0.985945
1.00245 1.00363 0.986775
1.00157 1.00516 0.987242
1.00141 1.00299 0.990013
1.00019 0.999811 0.997849
1.00037 1.00256 0.991813
1.00094 1.00519 0.987689
1 0.999212 0.99837
0.999765 1.00239 0.992767
0.999944 0.998636 0.998565
0.999957 0.994828 0.934713
0.999825 0.995856 0.848591
0.994779 0.994774 0.783801
1.00166 1.00503 0.987099
1.00429 1.00284 0.984924
1.00327 1.00005 0.990027
1.00498 0.999311 0.987399
1.00517 0.997099 0.988861
1.00492 0.995693 0.990573
1.00227 0.998408 0.993561
1.00497 0.996344 0.990466
1.00195 0.999149 0.993862
1.0044 0.998376 0.990028
1.00234 0.999639 0.99186
1.00236 0.998663 0.994231
1.00195 0.999537 0.994251
1.00107 0.998976 0.99587
0.994941 0.994765 0.958037
0.996392 0.994642 0.925468
0.994832 0.996156 0.867519
0.9948 0.994595 0.915195
0.994858 0.995744 0.963213
0.995716 0.994813 0.965165
0.998575 0.994745 0.989923
0.998442 0.995207 1.00379
0.996722 0.997236 1.00613
0.997402 0.994791 0.995398
0.999221 0.994706 0.95762
1.00084 0.994864 0.934048
0.99942 1.00099 0.834329
0.997161 0.995074 0.984547
0.995849 0.994767 0.955057
0.998622 0.994769 0.92433
0.999655 0.994853 0.983988
0.99769 0.994777 0.965692
1.00181 0.996433 0.98713
1.00378 0.994658 0.983977
1.00138 0.99496 0.992832
1.00411 0.994676 0.99221
1.00524 0.994833 0.990789
1.00495 0.994641 0.991196
1.00531 0.994687 0.990667
1.00541 0.99478 0.990459
1.00531 0.994722 0.990387
1.00537 0.994809 0.99044
1.00539 0.994828 0.990528
1.00533 0.994797 0.99073
1.00538 0.99484 0.990571
1.00537 0.994863 0.990713
1.00532 0.994859 0.990758
1.00537 0.994846 0.990769
1.00534 0.994855 0.990943
1.00534 0.994757 0.991069
1.00531 0.994828 0.99105
1.00533 0.99542 0.99051
1.00538 0.998018 0.987718
1.00536 0.995916 0.989791
1.00537 0.99519 0.990526
1.00536 1.0029 0.982838
1.00543 0.999813 0.985891
1.00553 0.997113 0.987949
1.00361 1.00313 0.985655
1.00494 1.0045 0.981915
1.00542 1.00171 0.984419
1.002 1.00207 0.995734
1.00313 1.00378 0.985626
1.00402 1.00424 0.983551
1.00149 1.00172 0.996201
1.00264 1.00351 0.987086
1.00116 1.00087 0.99669
1.00542 0.999715 0.986003
1.00499 1.00262 0.984465
1.00519 1.00384 0.982795
1.00484 1.00369 0.983015
1.00462 1.00452 0.98277
1.00352 1.00417 0.984286
1.00365 1.00517 0.985392
1.00307 1.00446 0.986022
1.00193 1.00362 0.987991
1.0017 1.00509 0.987157
1.00103 1.00319 0.99003
1.0004 1.00102 0.997137
1.00009 0.999481 0.998023
1.00013 1.00252 0.991818
0.999899 0.998958 0.99843
0.994939 0.994813 0.962375
0.998625 0.994974 0.91804
0.999572 0.998933 0.864165
1.00537 0.995766 0.989538
1.00405 1.00006 0.98915
1.00499 0.999419 0.986985
1.00514 0.995964 0.990555
1.00529 0.996962 0.988938
1.00535 0.99563 0.98998
1.00497 0.9964 0.989771
1.00142 0.999096 0.993681
1.00449 0.997368 0.990071
1.0021 0.999782 0.991453
1.00343 0.999076 0.99015
1.00346 0.99457 0.994522
1.00148 0.998347 0.994705
1.00148 0.999707 0.99448
0.99787 0.994732 0.98809
0.995302 0.994751 0.956224
0.995587 0.994681 0.919741
0.995109 0.994792 0.966404
0.998577 0.99472 0.992039
0.999291 0.994765 1.00228
1.00436 0.994659 0.975107
1.00083 0.9948 0.954868
0.999876 0.99714 0.917981
0.999194 0.994962 0.984557
0.996693 0.99477 0.965456
1.00133 0.995616 0.987899
1.00262 0.994663 0.984573
1.00315 0.996496 0.990183
1.00545 0.994546 0.990688
1.00351 0.994684 0.992351
1.00524 0.994803 0.990769
1.00542 0.994937 0.990493
1.00532 0.994692 0.990639
1.00541 0.994795 0.990472
1.0054 0.994838 0.990622
1.00537 0.994808 0.99045
1.00539 0.994829 0.990518
1.00538 0.994871 0.990786
1.00538 0.994843 0.990593
1.00538 0.994864 0.990707
1.00532 0.994889 0.990937
1.00537 0.994849 0.990761
1.00534 0.994853 0.990915
1.00534 0.994861 0.991074
1.00531 0.994812 0.991057
1.00533 0.995201 0.990699
1.00538 0.997219 0.988799
1.00534 1.00158 0.984446
1.00539 0.998337 0.987421
1.00537 0.996143 0.989455
1.00374 1.00209 0.986404
1.00538 1.003 0.982839
1.00543 0.999953 0.985889
1.00274 1.0016 0.995574
1.00359 1.00304 0.985629
1.00474 1.00458 0.981933
1.00221 1.00204 0.99564
1.00309 1.00378 0.98549
1.00173 1.00207 0.995891
1.00547 0.997318 0.987894
1.00536 0.999811 0.986036
1.00554 1.00216 0.983807
1.00484 1.00313 0.984083
1.00507 1.00414 0.982606
1.00417 1.00421 0.983068
1.00529 1.00463 0.982515
1.00358 1.00436 0.98432
1.00242 1.00402 0.986779
1.00283 1.00454 0.986023
1.00188 1.00394 0.988046
1.00077 1.00229 0.996509
1.0008 1.00353 0.990046
1.00016 1.00085 0.997421
0.999983 0.999675 0.998175
0.998634 0.994642 0.985499
0.996395 0.994777 0.956728
0.999986 0.994843 0.934331
1.00541 0.994929 0.99005
1.00536 0.994916 0.99038
1.0054 0.995519 0.989669
1.00524 0.996331 0.99053
1.00538 0.996716 0.98902
1.00534 0.995748 0.989984
1.00538 0.9951 0.98999
1.00472 0.996507 0.990106
1.00284 1.00042 0.991056
1.00363 0.998332 0.990579
1.00523 0.994766 0.991226
1.00352 0.994824 0.993098
1.00256 0.994669 0.994478
1.00143 0.998064 0.995186
0.998779 0.99468 0.987925
0.995975 0.994786 0.955385
0.99939 0.99472 0.994288
1.0053 0.994799 0.989287
1.00434 0.994693 0.975092
0.999208 0.994795 0.956011
1.00151 0.994793 0.988551
1.00148 0.994654 0.9852
1.00357 0.995677 0.990524
1.00537 0.994556 0.990899
1.00549 0.994723 0.99099
1.00553 0.994652 0.991426
1.00525 0.99477 0.990749
1.00543 0.994884 0.990509
1.00542 0.994843 0.990927
1.00541 0.994805 0.990483
1.00541 0.994837 0.990634
1.00537 0.994859 0.990932
1.00539 0.99483 0.990508
1.00537 0.994871 0.990787
1.00532 0.994905 0.991021
1.00538 0.994865 0.990701
1.00533 0.994889 0.990932
1.00524 0.994893 0.991267
1.00534 0.994853 0.990886
1.00534 0.994863 0.991025
1.00537 0.996227 0.989798
1.00532 0.99499 0.990888
1.00538 0.997104 0.988889
1.00533 1.0006 0.98555
1.00379 1.00128 0.987208
1.00534 1.00155 0.984477
1.00538 0.998669 0.987126
1.00292 1.00087 0.995666
1.00371 1.0021 0.986481
1.00539 1.00303 0.982837
1.00271 1.00151 0.995573
1.00354 1.00312 0.985605
1.00234 1.00214 0.995555
1.00536 0.995504 0.989826
1.00546 0.997168 0.988156
1.00542 1.00037 0.985576
1.00533 0.999932 0.986067
1.00553 1.00212 0.983707
1.00485 1.00431 0.982233
1.00541 1.00417 0.982413
1.00454 1.00431 0.983018
1.00263 1.00413 0.985995
1.0043 1.00436 0.984396
1.00228 1.00407 0.986836
1.00114 1.00266 0.996125
1.00152 1.00423 0.988104
1.00053 1.00205 0.996716
1.00008 1.00036 0.997674
1.00373 0.994703 0.992143
0.998081 0.994737 0.982849
0.99585 0.994775 0.95842
1.00541 0.994802 0.990254
1.00538 0.995023 0.990087
1.00531 0.994834 0.990801
1.00536 0.994975 0.990349
1.00543 0.995331 0.989789
1.00542 0.99479 0.99047
1.00532 0.995797 0.989982
1.00536 0.995024 0.990012
1.00531 0.994731 0.990925
1.00366 0.997519 0.991007
1.00524 0.994698 0.990851
1.00294 0.994775 0.993299
1.00137 0.994705 0.994463
0.999482 0.99463 0.987546
1.00546 0.994716 0.991627
1.00532 0.994636 0.989314
1.00412 0.994689 0.975168
1.00381 0.994863 0.990832
1.00539 0.994576 0.991099
1.00545 0.994726 0.990923
1.00559 0.994663 0.991567
1.00546 0.994776 0.991453
1.00543 0.994832 0.990528
1.00542 0.994837 0.990925
1.00537 0.994857 0.991234
1.00541 0.994837 0.990645
1.00537 0.994862 0.99093
1.00534 0.994906 0.99116
1.00537 0.994872 0.990789
1.00532 0.994906 0.991021
1.00517 0.994937 0.991451
1.00533 0.994889 0.990927
1.00527 0.994894 0.991241
1.00535 0.995508 0.990734
1.00534 0.994865 0.990976
1.00536 0.996284 0.989777
1.00532 0.99988 0.986381
1.00539 0.996985 0.988979
1.00533 1.00058 0.985582
1.00364 1.00106 0.989662
1.00329 0.999889 0.991873
1.0038 1.0013 0.988228
1.00533 1.00151 0.984507
1.00283 1.00082 0.995758
1.00369 1.00194 0.986558
1.00268 1.00148 0.99562
1.00531 0.994888 0.991028
1.00538 0.994888 0.990665
1.00535 0.995546 0.989994
1.00537 0.998593 0.98726
1.00545 0.996979 0.988419
1.00541 1.00025 0.985533
1.00527 1.00355 0.982481
1.00549 1.00216 0.983606
1.00508 1.00414 0.982187
1.00315 1.00355 0.985663
1.00469 1.00463 0.982971
1.00279 1.00405 0.986041
1.00183 1.00267 0.995723
1.00248 1.00406 0.986904
1.00106 1.0025 0.99628
1.00012 1.00193 0.996978
1.00539 0.994783 0.991412
1.00327 0.994775 0.991628
0.998075 0.994795 0.980192
1.00533 0.994867 0.990743
1.00542 0.994819 0.99021
1.00536 0.995015 0.990134
1.0053 0.994848 0.990844
1.00535 0.995027 0.990319
1.00537 0.994809 0.990993
1.00538 0.994776 0.990427
1.00532 0.995044 0.990034
1.00529 0.994717 0.990973
1.00521 0.994695 0.990474
1.00244 0.994516 0.993431
1.00542 0.994799 0.991483
1.00545 0.994714 0.991629
1.00535 0.994578 0.989345
1.00541 0.994724 0.990847
1.00564 0.994648 0.991707
1.00547 0.994777 0.99143
1.00537 0.994867 0.991496
1.00541 0.994832 0.990923
1.00537 0.994862 0.991191
1.00533 0.994906 0.991354
1.00537 0.994864 0.990927
1.00533 0.994906 0.991164
1.00518 0.99495 0.991555
1.00532 0.994906 0.991022
1.00519 0.994938 0.991438
1.00531 0.995113 0.991367
1.00529 0.994895 0.991215
1.0053 0.995565 0.990724
1.00534 0.999298 0.987014
1.00536 0.996339 0.989756
1.00531 0.999869 0.986414
1.00364 1.00076 0.989925
1.00533 1.00055 0.985616
1.00392 1.00088 0.989501
1.00312 0.999688 0.992086
1.00284 1.00024 0.994002
1.00402 1.00129 0.98902
1.00278 1.0007 0.995828
1.00528 0.994906 0.991044
1.00533 0.994896 0.991057
1.00531 0.994905 0.991066
1.00537 0.99697 0.988868
1.00537 0.994863 0.99076
1.00535 0.995574 0.990162
1.00536 0.998473 0.987279
1.00535 1.00198 0.983931
1.00539 1.0001 0.985494
1.00521 1.00367 0.982464
1.00351 1.00248 0.986358
1.00539 1.00402 0.982146
1.00317 1.00355 0.985712
1.00234 1.00207 0.995625
1.00279 1.00388 0.986091
1.00164 1.00243 0.995887
1.00083 1.00256 0.996383
1.00538 0.994823 0.991249
1.00535 0.994787 0.99146
1.00232 0.995043 0.991151
1.00531 0.994879 0.991045
1.00533 0.994851 0.990703
1.00543 0.994834 0.99017
1.0053 0.994861 0.990886
1.00539 0.994819 0.990945
1.00535 0.994763 0.990385
1.00527 0.994709 0.991016
1.00538 0.994862 0.991505
1.00541 0.994807 0.991461
1.00544 0.994728 0.991627
1.00534 0.994887 0.991561
1.00549 0.99478 0.991407
1.00537 0.994867 0.991486
1.00534 0.994905 0.991506
1.00537 0.994866 0.991149
1.00534 0.994907 0.991359
1.0052 0.994932 0.991648
1.00533 0.994906 0.991169
1.00518 0.994949 0.991559
1.00529 0.994951 0.99167
1.00521 0.994938 0.991426
1.00528 0.995143 0.991352
1.00537 0.998796 0.98757
1.00526 0.995622 0.990713
1.00535 0.999293 0.98703
1.00361 1.00054 0.990144
1.0053 0.999853 0.986447
1.0039 1.00062 0.989737
1.00301 0.999761 0.992151
1.00418 1.00068 0.989346
1.00255 0.999861 0.992518
1.00199 1.00062 0.996582
1.00527 0.994931 0.991146
1.00518 0.994916 0.991354
1.00528 0.994911 0.991069
1.00532 0.996622 0.989456
1.00533 0.994886 0.991076
1.0053 0.994925 0.991106
1.00534 1.00055 0.985529
1.00539 0.99691 0.988904
1.00536 0.994863 0.990855
1.00536 0.998345 0.987297
1.00535 1.00208 0.983901
1.00362 1.00155 0.987261
1.00535 1.00378 0.982434
1.00351 1.0025 0.986322
1.00249 1.00125 0.995812
1.00322 1.0036 0.985746
1.00228 1.00207 0.995639
1.0016 1.00234 0.99608
1.00532 0.994883 0.991378
1.00538 0.99482 0.991192
1.00531 0.994782 0.991513
1.0053 0.994883 0.991054
1.00533 0.994836 0.990664
1.0054 0.994829 0.990896
1.00534 0.994895 0.991567
1.00538 0.994864 0.991515
1.0054 0.994812 0.99144
1.00534 0.99489 0.991583
1.00532 0.994914 0.991617
1.00537 0.994869 0.991475
1.00533 0.994905 0.991524
1.00521 0.994918 0.991711
1.00534 0.994907 0.991364
1.0052 0.994932 0.991656
1.00532 0.99494 0.991733
1.00518 0.994949 0.991562
1.00529 0.994964 0.991654
1.00536 0.998334 0.988117
1.00526 0.995185 0.991337
1.00539 0.998788 0.987574
1.00348 1.00041 0.990444
1.00537 0.999289 0.987047
1.00384 1.00045 0.989955
1.00283 0.999877 0.992258
1.00414 1.0005 0.989556
1.00249 0.999841 0.9926
1.00199 1.00006 0.992935
1.00527 0.994921 0.991374
1.00514 0.994954 0.991487
1.00527 0.994924 0.991117
1.00528 0.996026 0.990267
1.00517 0.994922 0.991355
1.00528 0.994914 0.991092
1.00531 0.999736 0.986531
1.00533 0.996243 0.989836
1.00532 0.994873 0.991096
1.00368 1.00094 0.987809
1.00533 1.00061 0.985481
1.00539 0.996862 0.98894
1.00533 1.00215 0.98387
1.00362 1.00152 0.987193
1.00253 1.00068 0.995964
1.00348 1.00255 0.986293
1.00253 1.00136 0.995736
1.00216 1.00198 0.995696
1.00531 0.994916 0.991541
1.00532 0.99488 0.991337
1.00539 0.994819 0.991136
1.0053 0.994888 0.991064
1.0053 0.994928 0.991632
1.00534 0.994895 0.991572
1.00538 0.994869 0.991524
1.00534 0.994891 0.991605
1.00532 0.994913 0.991627
1.00519 0.99493 0.991867
1.00533 0.994905 0.991543
1.00521 0.99492 0.991763
1.00533 0.994945 0.991676
1.00519 0.994932 0.991665
1.00532 0.994941 0.991725
1.00534 0.997983 0.988543
1.0053 0.994964 0.991638
1.00538 0.998325 0.988106
1.00348 1.00027 0.98891
1.00541 0.998783 0.987576
1.0037 1.00035 0.989376
1.00234 0.999966 0.996146
1.00407 1.00037 0.989766
1.00236 0.999912 0.992697
1.002 0.999903 0.993032
1.00527 0.994935 0.991513
1.00511 0.994945 0.991628
1.00527 0.994927 0.991412
1.00526 0.995128 0.991356
1.00513 0.994952 0.991493
1.00527 0.994918 0.991088
1.00538 0.998454 0.987829
1.00529 0.996007 0.990262
1.00517 0.99493 0.991356
1.00373 1.00058 0.988116
1.00531 0.999364 0.986896
1.00534 0.995852 0.990214
1.00254 1.0003 0.996044
1.00369 1.00092 0.987763
1.00532 1.00068 0.985434
1.00364 1.00152 0.987131
1.00259 1.00073 0.995919
1.0026 1.0014 0.995667
1.00528 0.994947 0.991541
1.00532 0.994915 0.991532
1.00532 0.994875 0.991297
1.00515 0.99494 0.991977
1.0053 0.994927 0.991613
1.00534 0.994895 0.991577
1.00532 0.994913 0.991636
1.00519 0.994928 0.99187
1.00532 0.995413 0.991174
1.00521 0.994923 0.991816
1.00533 0.995203 0.991427
1.00533 0.997293 0.989316
1.00532 0.994942 0.991716
1.00535 0.99796 0.98853
1.0034 1.00003 0.989267
1.00539 0.998315 0.988097
1.0035 1.00023 0.988927
1.00222 1.00001 0.996193
1.00376 1.00031 0.9885
1.00215 1 0.994593
1.0019 0.999925 0.993134
1.00525 0.994956 0.99163
1.00506 0.994955 0.991836
1.00527 0.994937 0.991519
1.00525 0.99504 0.991614
1.00511 0.994946 0.991665
1.00527 0.994932 0.99145
1.00541 0.998076 0.988194
1.00527 0.995439 0.991018
1.00513 0.994949 0.9915
1.00369 1.00045 0.988338
1.00538 0.998395 0.98788
1.00529 0.995991 0.990257
1.0025 1.00009 0.99608
1.00372 1.0006 0.988098
1.00531 0.998996 0.987266
1.00261 1.00031 0.996018
1.0037 1.0009 0.987714
1.00261 1.00078 0.995873
1.00511 0.994958 0.991943
1.00528 0.994946 0.991569
1.00532 0.994914 0.991523
1.00531 0.995453 0.991174
1.00515 0.994937 0.991957
1.00529 0.994926 0.991593
1.00519 0.994925 0.991872
1.00532 0.995459 0.991166
1.00534 0.997209 0.989346
1.00533 0.995474 0.991176
1.00534 0.997545 0.989029
1.00333 0.999826 0.989559
1.00536 0.99794 0.988515
1.00339 1.00003 0.989277
1.00208 0.999999 0.996269
1.00351 1.00021 0.988941
1.00216 1.00003 0.996216
1.00225 0.999989 0.99266
1.00504 0.99497 0.99201
1.00525 0.994951 0.991544
1.00525 0.994973 0.991754
1.00507 0.994956 0.991839
1.00526 0.994938 0.991525
1.00541 0.998624 0.987673
1.00526 0.994995 0.991614
1.00511 0.994946 0.991703
1.00361 1.00039 0.988563
1.0054 0.998433 0.987848
1.00528 0.995765 0.99068
1.00238 1.00006 0.996089
1.00367 1.00049 0.988329
1.00538 0.998331 0.987932
1.00257 1.0001 0.996066
1.0037 1.00063 0.988074
1.00269 1.00031 0.995991
1.00526 0.995537 0.991141
1.00511 0.99496 0.991982
1.00528 0.994945 0.991596
1.00535 0.997323 0.989211
1.00531 0.995501 0.991162
1.00516 0.994934 0.991938
1.00532 0.995506 0.991157
1.00533 0.997265 0.989349
1.00329 0.999709 0.989767
1.00534 0.997785 0.988743
1.00334 0.999821 0.98956
1.002 0.999982 0.996352
1.0034 1.00003 0.989291
1.00204 1.00003 0.996307
1.00212 1.00004 0.996248
1.00522 0.995 0.991858
1.00505 0.994968 0.991935
1.00524 0.994945 0.991459
1.00538 0.998501 0.987873
1.00524 0.994963 0.991755
1.00509 0.994958 0.991842
1.0035 1.00029 0.988855
1.0054 0.998657 0.987681
1.00527 0.994948 0.991614
1.00223 1.0001 0.996117
1.00358 1.00044 0.98856
1.00539 0.998776 0.987501
1.00244 1.00006 0.996087
1.00364 1.00055 0.988318
1.00265 1.00008 0.996049
1.00536 0.998158 0.988306
1.00526 0.995259 0.99148
1.00511 0.994962 0.992022
1.00326 0.999686 0.989863
1.00535 0.997358 0.989232
1.00531 0.995548 0.99115
1.00533 0.997319 0.989352
1.00331 0.999688 0.989761
1.00192 0.999968 0.9964
1.00334 0.999817 0.989561
1.00196 0.999987 0.996365
1.00198 1.00004 0.996335
1.00537 0.998368 0.988095
1.00522 0.994992 0.991824
1.00506 0.994966 0.991861
1.00357 1.00014 0.990625
1.00538 0.998525 0.987883
1.00523 0.994954 0.991755
1.00209 1.00012 0.996187
1.00348 1.00033 0.988855
1.00539 0.998692 0.98769
1.00229 1.00009 0.996107
1.00356 1.00049 0.988556
1.00251 1.00004 0.99608
1.00343 0.999704 0.989647
1.00535 0.997858 0.988672
1.00526 0.994964 0.99182
1.00183 0.999971 0.996458
1.00327 0.999657 0.989846
1.00535 0.997394 0.989255
1.00332 0.999664 0.989753
1.00189 0.999961 0.996421
1.00192 0.999998 0.996385
1.00364 0.999922 0.990809
1.00536 0.998374 0.988104
1.00521 0.994984 0.99179
1.00139 1.00015 0.996961
1.00339 1.00015 0.989178
1.00538 0.998547 0.987895
1.00213 1.00012 0.996168
1.00345 1.00038 0.988855
1.00235 1.00007 0.996098
1.00186 0.999853 0.993375
1.00345 0.999739 0.990364
1.00535 0.99757 0.989036
1.00186 0.999967 0.996458
1.0033 0.999637 0.989837
1.00189 0.999958 0.996434
1.00121 1.00006 0.993916
1.00351 0.999864 0.990136
1.00536 0.998384 0.98811
1.00166 1.00011 0.995003
1.00336 1.00015 0.989202
1.00217 1.00012 0.996149
1.00187 0.999974 0.996435
1.00328 0.999739 0.98975
1.00184 0.999954 0.996449
1.00162 0.999953 0.995167
1.00337 0.999841 0.989525
1.00201 1.00012 0.996235
1.00187 1 0.996421
1.00192 1.00003 0.996337

TENSORS stress float
0.00289533 -0.000202679 0.000333124
-0.000202679 0.00156305 -6.40248e-05
0.000333124 -6.40248e-05 0.00153492
0.00876117 0.000219767 0.000421024
0.000219767 0.00541907 5.75145e-05
0.000421024 5.75145e-05 0.00544071
0.00247216 -0.000131406 0.000129482
-0.000131406 0.0012782 -2.40604e-05
0.000129482 -2.40604e-05 0.00123333
0.00260012 -0.000112008 0.000306083
-0.000112008 0.00136451 -3.54959e-05
0.000306083 -3.54959e-05 0.0013494
0.00281928 -0.000175321 0.00032181
-0.000175321 0.00151095 -5.53174e-05
0.00032181 -5.53174e-05 0.00148626
0.00304017 -0.000215047 0.000349791
-0.000215047 0.00165198 -6.8238e-05
0.000349791 -6.8238e-05 0.00162544
0.00232704 -0.000267295 6.59759e-05
-0.000267295 0.000980895 -1.67043e-05
6.59759e-05 -1.67043e-05 0.00080929
0.00896926 0.000217614 -8.66098e-06
0.000217614 0.0055458 -3.87876e-06
-8.66098e-06 -3.87876e-06 0.00557214
0.00761053 0.000304354 0.000202996
0.000304354 0.00470146 2.48039e-05
0.000202996 2.48039e-05 0.00466353
0.00814043 0.000137326 0.000148977
0.000137326 0.00498944 1.22555e-05
0.000148977 1.22555e-05 0.00496665
0.00244351 0.000277681 0.000377764
0.000277681 0.00129936 6.44628e-05
0.000377764 6.44628e-05 0.00127128
0.000209506 0.000341088 2.62458e-05
0.000341088 -0.00032369 2.664e-05
2.62458e-05 2.664e-05 -0.00054807
0.00209557 -2.48654e-05 0.000290953
-2.48654e-05 0.00103387 6.32979e-06
0.000290953 6.32979e-06 0.00104213
0.00185073 1.18842e-05 8.48564e-05
1.18842e-05 0.000900892 4.10225e-06
8.48564e-05 4.10225e-06 0.000846387
0.00211819 -0.000126711 -8.53841e-05
-0.000126711 0.00106215 1.65238e-05
-8.53841e-05 1.65238e-05 0.000989782
0.00224838 -0.00010791 9.78907e-05
-0.00010791 0.00115475 -6.86357e-06
9.78907e-05 -6.86357e-06 0.0011141
0.00257877 -0.000126497 0.00014288
-0.000126497 0.00134432 -2.77992e-05
0.00014288 -2.77992e-05 0.00129857
0.0024137 -0.000130617 0.00011637
-0.000130617 0.00124711 -1.77638e-05
0.00011637 -1.77638e-05 0.00120318
0.0024599 -0.000303805 -5.15337e-05
-0.000303805 0.00107018 9.41192e-06
-5.15337e-05 9.41192e-06 0.000909453
0.00686654 -0.000179732 0.000389237
-0.000179732 0.00421948 -2.16964e-05
0.000389237 -2.16964e-05 0.00425094
0.0024511 -8.52566e-05 0.000297481
-8.52566e-05 0.00126937 -2.67757e-05
0.000297481 -2.67757e-05 0.00125854
0.00273576 -0.000143513 0.000314898
-0.000143513 0.00145293 -4.53081e-05
0.000314898 -4.53081e-05 0.00143329
0.00215648 -0.000196119 7.93658e-05
-0.000196119 0.0009192 -1.30358e-05
7.93658e-05 -1.30358e-05 0.000795379
0.0022959 -0.000251204 7.26029e-05
-0.000251204 0.00097913 -1.63117e-05
7.26029e-05 -1.63117e-05 0.000826442
0.00302246 -0.000198874 0.000359114
-0.000198874 0.00163234 -6.64867e-05
0.000359114 -6.64867e-05 0.00161135
0.00239144 -0.000286724 6.42741e-05
-0.000286724 0.0010194 -1.82055e-05
6.42741e-05 -1.82055e-05 0.000823501
0.002286 -0.00053497 1.49618e-05
-0.00053497 0.000591825 -5.32019e-06
1.49618e-05 -5.32019e-06 0.000267969
0.00911254 0.000218862 -0.000460076
0.000218862 0.00562559 -5.17551e-05
-0.000460076 -5.17551e-05 0.00565953
0.00510208 0.000223207 -0.000177194
0.000223207 0.00303113 -2.30017e-05
-0.000177194 -2.30017e-05 0.0030039
0.00541497 0.000177266 -0.000190239
0.000177266 0.00322261 -2.52668e-05
-0.000190239 -2.52668e-05 0.0031995
0.00944301 0.00016378 -6.53784e-06
0.00016378 0.00585269 -3.09147e-06
-6.53784e-06 -3.09147e-06 0.00588117
0.000243808 0.0003267 -9.36581e-07
0.0003267 -0.000291395 -1.07104e-06
-9.36581e-07 -1.07104e-06 -0.000513585
0.0022553 8.73398e-05 0.000306024
8.73398e-05 0.00113319 3.30053e-05
0.000306024 3.30053e-05 0.00112334
0.00240299 0.000181251 0.000325842
0.000181251 0.00125194 5.30439e-05
0.000325842 5.30439e-05 0.0012282
0.00311489 0.000299575 0.000187462
0.000299575 0.0015225 3.06521e-05
0.000187462 3.06521e-05 0.00140027
0.00906383 -0.00015873 8.49156e-05
-0.00015873 0.00564487 4.90232e-06
8.49156e-05 4.90232e-06 0.00560342
0.003366 0.000416767 0.000208175
0.000416767 0.00172928 4.20443e-05
0.000208175 4.20443e-05 0.00156732
0.000172676 0.000308371 2.51934e-05
0.000308371 -0.000317512 3.66607e-05
2.51934e-05 3.66607e-05 -0.000546101
0.00163043 0.000601098 3.06703e-05
0.000601098 0.000282124 4.45458e-06
3.06703e-05 4.45458e-06 -0.00013423
0.00743476 -4.90257e-05 0.000305091
-4.90257e-05 0.00466361 4.06097e-05
0.000305091 4.06097e-05 0.0046648
0.00678995 9.6029e-05 2.72635e-06
9.6029e-05 0.00415242 -2.31193e-06
2.72635e-06 -2.31193e-06 0.00419396
0.0044951 0.000111883 -0.000146762
0.000111883 0.00263877 -7.6098e-06
-0.000146762 -7.6098e-06 0.00262973
0.00666372 5.81106e-05 0.000377568
5.81106e-05 0.00407143 5.65942e-06
0.000377568 5.65942e-06 0.00411446
0.00173711 9.2857e-05 8.65923e-05
9.2857e-05 0.000832159 7.32106e-06
8.65923e-05 7.32106e-06 0.000781049
0.000375094 2.00696e-05 1.19654e-05
2.00696e-05 -0.000225702 3.16228e-06
1.19654e-05 3.16228e-06 -0.00032628
0.00701605 0.000260049 0.000219279
0.000260049 0.00433821 2.3378e-05
0.000219279 2.3378e-05 0.00431096
0.00300093 0.000116316 0.000167953
0.000116316 0.00146558 1.33251e-05
0.000167953 1.33251e-05 0.00139722
0.00187984 -0.000108535 -0.000101031
-0.000108535 0.000935177 1.42907e-05
-0.000101031 1.42907e-05 0.00086836
0.0019965 -0.000143577 -9.70977e-05
-0.000143577 0.00100232 1.86038e-05
-9.70977e-05 1.86038e-05 0.000927068
0.00221187 -9.40742e-05 -7.37314e-05
-9.40742e-05 0.00110637 1.41449e-05
-7.37314e-05 1.41449e-05 0.00103744
0.00254831 -0.000305042 -0.000176188
-0.000305042 0.00111602 3.54929e-05
-0.000176188 3.54929e-05 0.000972133
0.0043804 -5.03735e-05 -0.000148919
-5.03735e-05 0.00257077 -4.23632e-07
-0.000148919 -4.23632e-07 0.00256313
0.00215669 -8.58483e-05 0.000100466
-8.58483e-05 0.00109387 -5.41119e-06
0.000100466 -5.41119e-06 0.00105873
0.00280605 -0.00010423 0.000148067
-0.00010423 0.0014861 -2.67486e-05
0.000148067 -2.67486e-05 0.0014407
0.00234801 -0.000119765 0.000105958
-0.000119765 0.00121181 -1.1577e-05
0.000105958 -1.1577e-05 0.00116924
0.00226051 -0.000176166 -4.19102e-05
-0.000176166 0.000972543 3.95346e-06
-4.19102e-05 3.95346e-06 0.000864849
0.00250949 -0.000335525 -5.94404e-05
-0.000335525 0.00109776 1.09791e-05
-5.94404e-05 1.09791e-05 0.000914003
0.00239511 -0.000264514 -4.61592e-05
-0.000264514 0.0010399 7.17099e-06
-4.61592e-05 7.17099e-06 0.000899827
0.00243615 -0.000547309 -1.01962e-05
-0.000547309 0.000689689 2.6618e-06
-1.01962e-05 2.6618e-06 0.000366497
0.00668438 -2.63899e-05 0.000375991
-2.63899e-05 0.00408103 -6.34458e-06
0.000375991 -6.34458e-06 0.00412542
0.00235874 -5.83275e-05 0.000290388
-5.83275e-05 0.00121246 -1.90974e-05
0.000290388 -1.90974e-05 0.00120735
0.00250562 -3.94803e-05 6.16264e-05
-3.94803e-05 0.00118836 -1.40069e-06
6.16264e-05 -1.40069e-06 0.0011099
0.0020917 -0.000153376 7.13023e-05
-0.000153376 0.000887183 -8.80508e-06
7.13023e-05 -8.80508e-06 0.000780016
0.00225753 -0.000226659 7.76803e-05
-0.000226659 0.000971481 -1.53041e-05
7.76803e-05 -1.53041e-05 0.000833659
0.00214325 -0.000334793 1.37834e-06
-0.000334793 0.000426686 -1.3677e-06
1.37834e-06 -1.3677e-06 0.000224242
0.00226283 -0.000475246 9.86155e-06
-0.000475246 0.000529266 -2.29195e-06
9.86155e-06 -2.29195e-06 0.000261569
0.00316229 -0.0001775 0.000373199
-0.0001775 0.00171852 -6.23885e-05
0.000373199 -6.23885e-05 0.00169728
0.00250368 -0.000250994 5.40994e-05
-0.000250994 0.0011345 -1.62583e-05
5.40994e-05 -1.62583e-05 0.000930993
0.00230748 -0.000609397 1.65222e-05
-0.000609397 0.000641441 -5.06812e-06
1.65222e-05 -5.06812e-06 0.000258568
0.0022655 -0.000713294 -2.33507e-06
-0.000713294 0.000318446 3.91282e-06
-2.33507e-06 3.91282e-06 -3.53729e-05
0.00813609 0.00035992 -0.000450432
0.00035992 0.00503582 -6.03795e-05
-0.000450432 -6.03795e-05 0.00504861
0.00948047 0.000130739 -0.000436487
0.000130739 0.00587921 -4.5763e-05
-0.000436487 -4.5763e-05 0.0059099
0.008625 0.000272485 -0.000444599
0.000272485 0.00531852 -5.50026e-05
-0.000444599 -5.50026e-05 0.00534693
0.000212719 0.000312351 -2.62952e-05
0.000312351 -0.000302279 -2.65439e-05
-2.62952e-05 -2.65439e-05 -0.00052407
0.00767647 0.000292459 -2.0331e-06
0.000292459 0.00473213 -2.98282e-06
-2.0331e-06 -2.98282e-06 0.00475321
0.00819812 0.000335037 -7.44594e-06
0.000335037 0.00506232 -4.2769e-06
-7.44594e-06 -4.2769e-06 0.0050773
0.000374847 0.000205637 -8.62072e-08
0.000205637 -0.000286409 -3.39094e-07
-8.62072e-08 -3.39094e-07 -0.000455017
0.00544539 2.19627e-05 -0.000190964
2.19627e-05 0.00328379 -1.5907e-05
-0.000190964 -1.5907e-05 0.00325029
0.000355398 0.000299458 1.63393e-06
0.000299458 -0.000255961 -4.07635e-07
1.63393e-06 -4.07635e-07 -0.000464258
0.00188504 0.000344978 9.60123e-05
0.000344978 0.000811926 7.64797e-06
9.60123e-05 7.64797e-06 0.000619232
0.00154136 0.000617815 1.88007e-07
0.000617815 0.000198986 4.01347e-07
1.88007e-07 4.01347e-07 -0.000228114
0.00834008 -1.14832e-05 0.000357121
-1.14832e-05 0.0052249 4.77946e-05
0.000357121 4.77946e-05 0.00523109
0.000386996 0.000242531 3.33594e-05
0.000242531 -0.00013807 1.8477e-05
3.33594e-05 1.8477e-05 -0.000268676
0.00048939 0.000165322 1.4596e-05
0.000165322 -0.000215812 1.28294e-05
1.4596e-05 1.28294e-05 -0.000366086
0.000478587 0.00024327 1.84083e-05
0.00024327 -0.000213275 2.22223e-05
1.84083e-05 2.22223e-05 -0.000397733
0.00168668 0.000456162 1.2143e-05
0.000456162 8.75326e-05 3.95474e-06
1.2143e-05 3.95474e-06 -0.00018723
0.00369415 0.000385032 0.000221133
0.000385032 0.00202223 4.22373e-05
0.000221133 4.22373e-05 0.0018742
0.00166576 0.000572902 2.6242e-05
0.000572902 0.000188107 5.59747e-06
2.6242e-05 5.59747e-06 -0.000182985
0.00134261 0.000579526 3.16779e-05
0.000579526 0.000197446 3.77422e-06
3.16779e-05 3.77422e-06 -0.000252628
0.00213726 0.000843155 -2.33528e-06
0.000843155 0.000372492 -8.39646e-06
-2.33528e-06 -8.39646e-06 -0.000119751
0.00637496 -0.000170141 0.000200284
-0.000170141 0.00399824 2.74277e-05
0.000200284 2.74277e-05 0.00397304
0.00699231 -0.0001394 8.99579e-06
-0.0001394 0.00438502 5.21232e-06
8.99579e-06 5.21232e-06 0.00436908
0.00727163 9.54937e-05 -0.000399384
9.54937e-05 0.00444961 -2.39957e-05
-0.000399384 -2.39957e-05 0.00448919
0.00688947 8.87119e-05 -0.000389794
8.87119e-05 0.00421252 -1.47858e-05
-0.000389794 -1.47858e-05 0.00425557
0.00674865 8.40914e-05 -3.97692e-07
8.40914e-05 0.00413078 -4.72853e-06
-3.97692e-07 -4.72853e-06 0.00417179
0.00436322 5.54347e-05 -0.000157232
5.54347e-05 0.002551 -9.56841e-06
-0.000157232 -9.56841e-06 0.00254837
0.00150514 4.95049e-05 7.47802e-05
4.95049e-05 0.000515926 2.54165e-06
7.47802e-05 2.54165e-06 0.000438302
0.00473305 0.000177199 -0.000151254
0.000177199 0.00279983 -1.02641e-05
-0.000151254 -1.02641e-05 0.00278112
0.00164757 0.000127887 7.60514e-05
0.000127887 0.000574785 4.58503e-06
7.60514e-05 4.58503e-06 0.000477535
0.00670971 0.000102346 0.000381521
0.000102346 0.00411202 7.18057e-06
0.000381521 7.18057e-06 0.00414921
0.000228455 1.08292e-05 1.48129e-05
1.08292e-05 -0.000311992 1.91172e-06
1.48129e-05 1.91172e-06 -0.00040794
0.00291438 6.61275e-05 0.000166151
6.61275e-05 0.00142699 9.35743e-06
0.000166151 9.35743e-06 0.00136962
0.00149898 0.000108552 4.85473e-06
0.000108552 -6.1802e-05 1.29046e-06
4.85473e-06 1.29046e-06 -0.000188305
0.00291958 0.000177149 0.000173852
0.000177149 0.00139639 1.72483e-05
0.000173852 1.72483e-05 0.00131188
0.00158402 0.000231529 3.39142e-06
0.000231529 -3.30225e-05 1.1884e-06
3.39142e-06 1.1884e-06 -0.000195027
0.00211212 3.01683e-05 -0.000291147
3.01683e-05 0.00103925 5.75121e-06
-0.000291147 5.75121e-06 0.00105072
0.00183351 -3.79981e-05 -8.7015e-05
-3.79981e-05 0.000894506 5.55506e-06
-8.7015e-05 5.55506e-06 0.000837363
0.00241094 -6.52252e-05 -6.91055e-05
-6.52252e-05 0.00122892 1.29038e-05
-6.91055e-05 1.29038e-05 0.00116063
0.00193263 -0.000128403 -0.000104024
-0.000128403 0.000967279 1.74924e-05
-0.000104024 1.74924e-05 0.000896048
0.00239203 -0.000155163 -0.00015811
-0.000155163 0.00104479 1.68656e-05
-0.00015811 1.68656e-05 0.000953271
0.00252446 -0.000250404 -0.000168802
-0.000250404 0.00110836 2.92067e-05
-0.000168802 2.92067e-05 0.000986573
0.0026898 -0.000367692 -0.000187266
-0.000367692 0.00122145 3.95865e-05
-0.000187266 3.95865e-05 0.0010487
0.0025955 -0.000562981 -3.24817e-05
-0.000562981 0.000793228 9.75136e-06
-3.24817e-05 9.75136e-06 0.000469551
0.0067649 -0.000128945 2.53503e-06
-0.000128945 0.00415037 -2.21818e-06
2.53503e-06 -2.21818e-06 0.00418541
0.00204958 4.4781e-06 0.000106445
4.4781e-06 0.00101242 -6.36842e-06
0.000106445 -6.36842e-06 0.000990268
0.00123605 -2.8667e-05 -7.80499e-05
-2.8667e-05 0.000336412 3.52105e-06
-7.80499e-05 3.52105e-06 0.000260012
0.00218561 -0.000119646 -4.36109e-05
-0.000119646 0.000936154 4.48358e-06
-4.36109e-05 4.48358e-06 0.000843842
0.00631804 -0.000171792 0.000362677
-0.000171792 0.00379643 -4.01538e-05
0.000362677 -4.01538e-05 0.00379856
0.00300976 -0.000337053 -5.58823e-05
-0.000337053 0.00147832 7.15021e-06
-5.58823e-05 7.15021e-06 0.00129261
0.00234656 -0.00022113 -4.3068e-05
-0.00022113 0.00101901 5.27197e-06
-4.3068e-05 5.27197e-06 0.000896328
0.00225297 -0.000339815 -8.65624e-06
-0.000339815 0.000496091 1.60157e-06
-8.65624e-06 1.60157e-06 0.00030132
0.00257153 -0.000641018 -7.79529e-06
-0.000641018 0.000828517 2.56409e-06
-7.79529e-06 2.56409e-06 0.000439812
0.00232708 -0.000479968 -1.08023e-05
-0.000479968 0.000574774 3.35889e-06
-1.08023e-05 3.35889e-06 0.000302154
0.0023124 -0.000716376 1.12343e-06
-0.000716376 0.000357427 -1.24467e-07
1.12343e-06 -1.24467e-07 2.67897e-06
0.000258572 -1.13502e-06 1.58001e-05
-1.13502e-06 -0.000302287 1.05454e-07
1.58001e-05 1.05454e-07 -0.000395754
0.00202524 -4.18823e-05 6.32229e-05
-4.18823e-05 0.000846308 -3.25834e-06
6.32229e-05 -3.25834e-06 0.000760611
0.00210974 -0.000123138 3.98909e-07
-0.000123138 0.000375264 3.33162e-07
3.98909e-07 3.33162e-07 0.000262412
0.00214674 -0.000270404 -6.16188e-07
-0.000270404 0.000419401 -3.96188e-08
-6.16188e-07 -3.96188e-08 0.000258569
0.00228143 -0.000408941 4.70504e-06
-0.000408941 0.000527739 -1.35367e-06
4.70504e-06 -1.35367e-06 0.000304525
0.00223222 -0.00046298 1.46777e-06
-0.00046298 0.000121136 -7.77064e-07
1.46777e-06 -7.77064e-07 -5.37254e-05
0.00916949 -7.81276e-05 0.000387382
-7.81276e-05 0.00570158 -4.08992e-05
0.000387382 -4.08992e-05 0.00572229
0.00214496 -0.000633657 3.69278e-07
-0.000633657 0.000157407 2.66582e-06
3.69278e-07 2.66582e-06 -0.000132296
0.000153382 -0.000262984 1.99402e-05
-0.000262984 -0.000353039 -3.04287e-05
1.99402e-05 -3.04287e-05 -0.000554204
0.00138665 -0.000660602 5.9372e-06
-0.000660602 8.70928e-05 -2.01047e-06
5.9372e-06 -2.01047e-06 -0.000381625
0.00244417 -0.000790585 -6.29177e-06
-0.000790585 0.000519386 5.88325e-06
-6.29177e-06 5.88325e-06 9.69036e-05
0.00232294 -0.000780638 -1.92647e-06
-0.000780638 0.000270717 2.32777e-06
-1.92647e-06 2.32777e-06 -5.18403e-05
0.00036133 -0.000253949 2.41326e-05
-0.000253949 -0.000167571 -2.47762e-05
2.41326e-05 -2.47762e-05 -0.00034338
0.0011814 -0.000261454 2.93715e-06
-0.000261454 0.000435102 3.81534e-06
2.93715e-06 3.81534e-06 9.52785e-05
0.00786013 0.00032193 -0.000444784
0.00032193 0.00485639 -5.31765e-05
-0.000444784 -5.31765e-05 0.0048746
0.0084285 0.000339303 -0.000453846
0.000339303 0.00521005 -6.09685e-05
-0.000453846 -6.09685e-05 0.00522962
0.000343567 0.00020717 -1.72203e-05
0.00020717 -0.000307169 -1.60176e-05
-1.72203e-05 -1.60176e-05 -0.000478034
0.00890197 3.43667e-05 -0.000372418
3.43667e-05 0.00554388 -3.7547e-05
-0.000372418 -3.7547e-05 0.00556417
0.000172332 0.000280725 -2.54493e-05
0.000280725 -0.000315868 -3.06751e-05
-2.54493e-05 -3.06751e-05 -0.000524312
0.000279994 0.000290515 -2.06275e-05
0.000290515 -0.000304195 -2.45823e-05
-2.06275e-05 -2.45823e-05 -0.00051375
0.00145685 0.000629682 -3.45385e-05
0.000629682 0.000119982 -4.24313e-06
-3.45385e-05 -4.24313e-06 -0.000316051
0.00821179 -6.68945e-06 -1.38069e-05
-6.68945e-06 0.00513659 7.71155e-07
-1.38069e-05 7.71155e-07 0.00514655
0.00077624 0.000212963 1.41881e-06
0.000212963 0.000107792 5.81388e-07
1.41881e-06 5.81388e-07 -1.87617e-05
0.00179008 0.00021657 8.18153e-05
0.00021657 0.000642573 8.25658e-06
8.18153e-05 8.25658e-06 0.000512118
0.00187617 0.000306958 8.75927e-05
0.000306958 0.000715656 1.08889e-05
8.75927e-05 1.08889e-05 0.000548983
0.0016581 0.000454409 -3.4172e-07
0.000454409 7.46278e-05 -1.87645e-07
-3.4172e-07 -1.87645e-07 -0.000201329
0.000172228 0.000277796 3.6141e-07
0.000277796 -0.000293782 -1.0341e-06
3.6141e-07 -1.0341e-06 -0.000490634
0.00164894 0.000569039 3.85412e-07
0.000569039 0.000180823 -9.92483e-08
3.85412e-07 -9.92483e-08 -0.000190525
0.00109655 0.00056137 3.02226e-06
0.00056137 2.7724e-05 -1.87324e-06
3.02226e-06 -1.87324e-06 -0.000416622
0.00214701 0.000848541 -3.32415e-07
0.000848541 0.000374431 5.63466e-07
-3.32415e-07 5.63466e-07 -0.000113829
0.000533023 0.00026198 2.18858e-05
0.00026198 -5.21072e-05 2.80521e-05
2.18858e-05 2.80521e-05 -0.000222509
0.000754367 0.000155955 2.2387e-05
0.000155955 0.000141085 1.9657e-05
2.2387e-05 1.9657e-05 1.72555e-05
-0.000542281 0.000349004 4.07335e-06
0.000349004 -0.000636458 -2.68729e-06
4.07335e-06 -2.68729e-06 -0.000954568
0.00170259 0.000391144 8.87163e-06
0.000391144 7.4015e-05 3.00172e-06
8.87163e-06 3.00172e-06 -0.000159495
0.001715 0.000520519 1.90142e-05
0.000520519 0.000141858 4.95897e-06
1.90142e-05 4.95897e-06 -0.000180074
0.00238439 0.00066541 2.65889e-06
0.00066541 0.00029248 -1.78259e-06
2.65889e-06 -1.78259e-06 5.81701e-06
0.000645607 0.000463078 1.36823e-05
0.000463078 -6.38072e-05 5.33443e-06
1.36823e-05 5.33443e-06 -0.000484928
0.00248331 0.000847466 -3.06358e-06
0.000847466 0.000543774 -6.4834e-06
-3.06358e-06 -6.4834e-06 0.000115192
0.00260161 0.0010427 -7.81045e-06
0.0010427 0.000853923 -1.13457e-05
-7.81045e-06 -1.13457e-05 0.000208211
0.0020122 0.000854577 -1.10574e-05
0.000854577 0.000161769 -8.58596e-06
-1.10574e-05 -8.58596e-06 -0.000291757
0.00531547 -0.000157297 0.000140941
-0.000157297 0.0032749 1.63123e-05
0.000140941 1.63123e-05 0.00325701
0.00599528 -0.000177179 9.66542e-06
-0.000177179 0.00372753 1.81385e-06
9.66542e-06 1.81385e-06 0.00370433
0.00666371 -0.000174403 -0.000188612
-0.000174403 0.00415537 -1.6247e-05
-0.000188612 -1.6247e-05 0.00413534
0.000810109 -0.000245754 2.62042e-05
-0.000245754 0.000178036 -2.37237e-05
2.62042e-05 -2.37237e-05 2.16306e-05
0.00808146 1.47318e-06 0.000310441
1.47318e-06 0.0050436 -3.59343e-05
0.000310441 -3.59343e-05 0.00504882
0.00756139 0.000256972 -0.000431347
0.000256972 0.00465551 -4.22917e-05
-0.000431347 -4.22917e-05 0.00468296
0.00699664 0.000121655 -0.00039151
0.000121655 0.00427955 -2.07395e-05
-0.00039151 -2.07395e-05 0.00431936
0.000293845 0.00012836 -1.54671e-05
0.00012836 -0.000318057 -7.82401e-06
-1.54671e-05 -7.82401e-06 -0.000440044
0.000211721 5.13982e-05 -1.4819e-05
5.13982e-05 -0.000333659 -4.02433e-06
-1.4819e-05 -4.02433e-06 -0.000435723
0.00669632 1.92229e-06 -0.000375765
1.92229e-06 0.00408811 -4.49988e-06
-0.000375765 -4.49988e-06 0.00413245
0.00664355 -6.77911e-06 6.5323e-08
-6.77911e-06 0.00405468 -1.42397e-06
6.5323e-08 -1.42397e-06 0.0040994
0.000205163 4.07916e-06 -1.1653e-07
4.07916e-06 -0.000330817 2.21426e-07
-1.1653e-07 2.21426e-07 -0.000425315
0.00155248 6.44423e-05 7.57506e-05
6.44423e-05 0.000528835 3.94419e-06
7.57506e-05 3.94419e-06 0.000445593
0.00150045 0.000111501 7.79173e-08
0.000111501 -5.06888e-05 -1.45623e-08
7.79173e-08 -1.45623e-08 -0.00017805
0.000367929 0.000134034 -8.72094e-07
0.000134034 -0.000282514 -3.61156e-07
-8.72094e-07 -3.61156e-07 -0.000418073
0.00158107 0.000231966 -1.35386e-07
0.000231966 -1.54472e-05 -4.61096e-08
-1.35386e-07 -4.61096e-08 -0.000178478
0.000201492 -3.27695e-05 1.5629e-05
-3.27695e-05 -0.000334836 9.51496e-09
1.5629e-05 9.51496e-09 -0.000426603
0.00145955 5.01868e-05 3.80338e-06
5.01868e-05 -7.12389e-05 9.57313e-07
3.80338e-06 9.57313e-07 -0.000190838
0.00152864 0.000170489 4.02142e-06
0.000170489 -5.6631e-05 1.45704e-06
4.02142e-06 1.45704e-06 -0.000197051
0.00231149 0.000168959 2.267e-06
0.000168959 9.85266e-05 8.90884e-07
2.267e-06 8.90884e-07 4.57642e-05
0.00167602 0.000314088 5.86864e-06
0.000314088 3.78476e-05 1.75844e-06
5.86864e-06 1.75844e-06 -0.000157344
0.00233697 0.000363134 3.29051e-06
0.000363134 0.000151568 1.21675e-06
3.29051e-06 1.21675e-06 4.41432e-05
0.00667647 -9.21325e-05 -0.000379481
-9.21325e-05 0.00408687 6.8269e-06
-0.000379481 6.8269e-06 0.00412552
0.00172921 -0.000168501 -8.64071e-05
-0.000168501 0.000853145 1.19691e-05
-8.64071e-05 1.19691e-05 0.000786724
-0.00013058 -1.6184e-05 -8.36084e-06
-1.6184e-05 -0.000560778 1.14693e-06
-8.36084e-06 1.14693e-06 -0.000667281
0.00230116 -0.000110006 -0.000153109
-0.000110006 0.00100236 1.199e-05
-0.000153109 1.199e-05 0.000923749
0.00933968 9.97523e-05 -0.000104035
9.97523e-05 0.00575722 4.97574e-06
-0.000104035 4.97574e-06 0.0057252
0.00324265 -0.000396948 -0.000189856
-0.000396948 0.00164405 4.08888e-05
-0.000189856 4.08888e-05 0.00147085
0.00246486 -0.000200595 -0.000163571
-0.000200595 0.00107959 2.27554e-05
-0.000163571 2.27554e-05 0.000974589
0.00234943 -0.000343809 -2.1358e-05
-0.000343809 0.000556467 4.09888e-06
-2.1358e-05 4.09888e-06 0.000369614
0.00236252 -0.000482865 -2.81549e-05
-0.000482865 0.000599069 8.74302e-06
-2.81549e-05 8.74302e-06 0.000322001
0.00268227 -0.000653457 -3.7528e-05
-0.000653457 0.000911711 1.12438e-05
-3.7528e-05 1.12438e-05 0.00052273
0.00233989 -0.000715467 3.01242e-06
-0.000715467 0.000388361 -3.78101e-06
3.01242e-06 -3.78101e-06 3.38531e-05
0.000213031 -3.63436e-06 7.10531e-08
-3.63436e-06 -0.000328923 4.02321e-07
7.10531e-08 4.02321e-07 -0.000423024
0.00213094 -0.000115717 -4.20913e-05
-0.000115717 0.000924742 1.15133e-06
-4.20913e-05 1.15133e-06 0.000841538
0.00187241 -0.000119892 -1.38863e-05
-0.000119892 0.000209922 8.34287e-07
-1.38863e-05 8.34287e-07 9.55794e-05
0.00214932 -0.000267644 -1.31318e-05
-0.000267644 0.000415146 2.28662e-06
-1.31318e-05 2.28662e-06 0.000249286
0.00931406 -7.69258e-05 5.06708e-06
-7.69258e-05 0.00578936 -1.14129e-06
5.06708e-06 -1.14129e-06 0.0058096
0.00168561 -0.000274518 1.20295e-05
-0.000274518 0.000663735 5.23096e-07
1.20295e-05 5.23096e-07 0.000456736
0.00208635 -0.000667095 4.91861e-06
-0.000667095 0.00056734 -2.52933e-06
4.91861e-06 -2.52933e-06 0.000120575
0.00231958 -0.000414251 -1.12529e-05
-0.000414251 0.000550444 3.34798e-06
-1.12529e-05 3.34798e-06 0.000325613
0.0023219 -0.0004706 3.09259e-06
-0.0004706 0.000181599 -1.04406e-06
3.09259e-06 -1.04406e-06 1.85676e-05
0.00237878 -0.000783843 1.71984e-06
-0.000783843 0.000478197 -1.20448e-07
1.71984e-06 -1.20448e-07 5.86558e-05
0.00223746 -0.000636665 1.67381e-07
-0.000636665 0.0002267 -1.33175e-07
1.67381e-07 -1.33175e-07 -6.67742e-05
0.00233038 -0.000779723 3.31851e-07
-0.000779723 0.000278747 8.88871e-07
3.31851e-07 8.88871e-07 -4.40234e-05
0.000334067 -0.000280291 1.15453e-06
-0.000280291 -0.00019204 2.46421e-07
1.15453e-06 2.46421e-07 -0.000367033
0.000780704 -0.000327019 1.0398e-06
-0.000327019 0.000184492 -1.0327e-06
1.0398e-06 -1.0327e-06 -0.000165417
0.00145533 -5.74315e-05 3.25763e-06
-5.74315e-05 -5.68273e-05 2.73528e-08
3.25763e-06 2.73528e-08 -0.000179063
0.00225615 -0.000197337 -1.09759e-06
-0.000197337 0.000475542 1.38678e-07
-1.09759e-06 1.38678e-07 0.000345464
0.00219262 -0.000181984 1.86064e-06
-0.000181984 3.1837e-05 -7.18533e-07
1.86064e-06 -7.18533e-07 -4.41722e-05
0.00222573 -0.000383782 1.87009e-08
-0.000383782 6.80137e-05 1.65275e-07
1.87009e-08 1.65275e-07 -4.53676e-05
0.0021783 -0.000557466 -9.58156e-07
-0.000557466 0.000123421 8.22393e-07
-9.58156e-07 8.22393e-07 -0.000100703
0.00233346 -0.000491415 4.8814e-06
-0.000491415 9.9139e-05 -1.07563e-06
4.8814e-06 -1.07563e-06 -5.90702e-06
0.000267567 -0.000258591 1.78187e-05
-0.000258591 -0.000262994 -3.04955e-05
1.78187e-05 -3.04955e-05 -0.000456215
0.00240701 -0.000706815 -3.24641e-07
-0.000706815 0.000254847 -3.14585e-07
-3.24641e-07 -3.14585e-07 1.03557e-05
0.00136616 -0.000579005 6.23648e-06
-0.000579005 0.000139541 -5.98861e-06
6.23648e-06 -5.98861e-06 -0.000309143
0.00211949 -0.000878576 1.13959e-06
-0.000878576 0.000354994 6.01087e-06
1.13959e-06 6.01087e-06 -0.000164844
0.00259084 -0.000862885 -3.97465e-06
-0.000862885 0.000515442 2.74688e-06
-3.97465e-06 2.74688e-06 0.000111971
0.00247846 -0.000814216 8.5837e-07
-0.000814216 0.000313133 -9.28585e-07
8.5837e-07 -9.28585e-07 3.37779e-05
0.000385953 -0.000306784 4.27418e-06
-0.000306784 -0.00011435 1.33609e-06
4.27418e-06 1.33609e-06 -0.000491447
0.00170833 -0.000206447 -7.35528e-06
-0.000206447 0.000894781 -8.28337e-06
-7.35528e-06 -8.28337e-06 0.000596377
0.00108416 -0.00045248 1.70746e-06
-0.00045248 0.000334199 9.38914e-06
1.70746e-06 9.38914e-06 -0.000119317
0.000342088 0.000173746 -1.58325e-05
0.000173746 -0.000310474 -1.22606e-05
-1.58325e-05 -1.22606e-05 -0.000465257
0.00766965 -5.53891e-05 -0.000292686
-5.53891e-05 0.00478452 -2.66824e-05
-0.000292686 -2.66824e-05 0.00479151
0.000462521 0.000167003 -2.0556e-05
0.000167003 -7.51833e-05 -2.01372e-05
-2.0556e-05 -2.01372e-05 -0.000204549
0.00031092 0.00024702 -1.88922e-05
0.00024702 -0.00031544 -2.03958e-05
-1.88922e-05 -2.03958e-05 -0.000504495
0.00162564 0.000453204 -1.42376e-05
0.000453204 5.76285e-05 -4.08942e-06
-1.42376e-05 -4.08942e-06 -0.000219679
0.000230843 0.000261564 -1.93299e-05
0.000261564 -0.000271094 -3.12258e-05
-1.93299e-05 -3.12258e-05 -0.00046109
0.00129577 0.000575774 -2.95167e-05
0.000575774 0.000125633 -8.69716e-06
-2.95167e-05 -8.69716e-06 -0.000316196
0.00160048 0.000561415 -2.77306e-05
0.000561415 0.000154801 -5.7285e-06
-2.77306e-05 -5.7285e-06 -0.000215882
0.00216341 0.000859439 -3.2671e-06
0.000859439 0.000371792 7.42262e-06
-3.2671e-06 7.42262e-06 -0.000114725
0.000337474 0.000260885 -7.80348e-06
0.000260885 -0.000181098 1.66817e-06
-7.80348e-06 1.66817e-06 -0.00034264
0.000400984 0.000122832 -1.41604e-06
0.000122832 -7.51084e-05 1.39968e-06
-1.41604e-06 1.39968e-06 -0.000195649
0.000900593 0.000336126 -1.4781e-07
0.000336126 0.000241689 6.10002e-08
-1.4781e-07 6.10002e-08 -3.6611e-05
0.00164141 0.000387714 -3.47299e-07
0.000387714 4.04682e-05 -2.26663e-07
-3.47299e-07 -2.26663e-07 -0.000193991
0.00167744 0.000514074 -1.3165e-07
0.000514074 0.000128746 -3.8717e-07
-1.3165e-07 -3.8717e-07 -0.00019283
0.00236191 0.000662505 -1.13359e-06
0.000662505 0.000278617 -3.66242e-07
-1.13359e-06 -3.66242e-07 -7.08229e-06
0.000882035 0.000432413 4.10156e-06
0.000432413 6.20823e-05 -2.97167e-07
4.10156e-06 -2.97167e-07 -0.00033042
0.00246844 0.000841843 -1.68045e-06
0.000841843 0.000528802 -7.14184e-07
-1.68045e-06 -7.14184e-07 0.000101165
0.00231616 0.00101604 -2.82585e-06
0.00101604 0.000634755 -2.44193e-06
-2.82585e-06 -2.44193e-06 -5.67108e-06
0.00198127 0.000854692 -3.10612e-07
0.000854692 0.000122199 4.64545e-06
-3.10612e-07 4.64545e-06 -0.000325383
0.00079972 9.13212e-05 1.26932e-05
9.13212e-05 0.000219183 1.80144e-05
1.26932e-05 1.80144e-05 0.000113189
1.94393e-05 0.000412564 1.30373e-06
0.000412564 -0.000328024 1.31352e-06
1.30373e-06 1.31352e-06 -0.000671199
0.00102004 0.000239971 -2.0681e-06
0.000239971 0.000400111 7.47926e-07
-2.0681e-06 7.47926e-07 9.87306e-05
-0.000977731 0.000227251 -8.47966e-06
0.000227251 -0.000937281 5.78049e-06
-8.47966e-06 5.78049e-06 -0.001267
0.00229284 0.000570992 2.62812e-06
0.000570992 0.000175405 -1.23374e-06
2.62812e-06 -1.23374e-06 -4.21448e-05
0.00242707 0.000758736 -1.15983e-07
0.000758736 0.00041234 -3.62346e-06
-1.15983e-07 -3.62346e-06 5.17488e-05
0.00238149 0.000724525 5.78248e-07
0.000724525 0.000208584 -9.80701e-08
5.78248e-07 -9.80701e-08 -4.57764e-05
0.00213605 0.000912334 -1.47136e-05
0.000912334 0.000774422 -1.23517e-05
-1.47136e-05 -1.23517e-05 0.000118391
0.00261338 0.00092879 -5.8204e-06
0.00092879 0.000520351 -3.21717e-06
-5.8204e-06 -3.21717e-06 0.000111108
0.00267164 0.00115051 -1.68514e-05
0.00115051 0.00077428 -1.67405e-05
-1.68514e-05 -1.67405e-05 9.91317e-05
0.00219085 0.000872803 -3.82027e-06
0.000872803 0.000133097 -3.20938e-06
-3.82027e-06 -3.20938e-06 -0.000285986
0.00100147 0.000147477 -2.79824e-06
0.000147477 0.000427645 7.46681e-06
-2.79824e-06 7.46681e-06 0.000273701
0.000435242 5.54804e-05 5.76678e-06
5.54804e-05 3.7155e-06 1.509e-05
5.76678e-06 1.509e-05 -6.29127e-05
0.0044767 -0.000138975 9.32574e-05
-0.000138975 0.00270348 1.08855e-05
9.32574e-05 1.08855e-05 0.00269128
0.00502874 -0.00019773 2.07504e-05
-0.00019773 0.00309605 -2.12769e-06
2.07504e-05 -2.12769e-06 0.00306657
0.00558716 -0.000248404 -0.000105127
-0.000248404 0.00348884 -1.56164e-05
-0.000105127 -1.56164e-05 0.00344292
-4.77909e-05 -0.000193422 2.04815e-05
-0.000193422 -0.00032518 -1.74254e-05
2.04815e-05 -1.74254e-05 -0.000438146
0.00614783 6.44566e-05 0.000199427
6.44566e-05 0.0038027 -2.65812e-05
0.000199427 -2.65812e-05 0.00379613
0.000513304 -0.000246541 2.26508e-06
-0.000246541 -2.55438e-05 1.05646e-06
2.26508e-06 1.05646e-06 -0.000185035
0.00851203 -4.14274e-05 5.09942e-06
-4.14274e-05 0.00531544 -5.56284e-07
5.09942e-06 -5.56284e-07 0.00532719
0.000335118 0.00015678 -1.60463e-05
0.00015678 -0.000305446 -9.85139e-06
-1.60463e-05 -9.85139e-06 -0.000444914
0.00024248 5.4409e-05 -1.36703e-05
5.4409e-05 -0.000335034 -4.90525e-06
-1.36703e-05 -4.90525e-06 -0.000443336
0.00158097 0.00023209 -3.63652e-06
0.00023209 -8.81545e-07 -8.91664e-07
-3.63652e-06 -8.91664e-07 -0.000164881
0.00150819 0.000113978 -4.55318e-06
0.000113978 -3.60623e-05 -1.15377e-06
-4.55318e-06 -1.15377e-06 -0.000164113
0.000250069 -1.72592e-06 -1.5263e-05
-1.72592e-06 -0.000304961 -1.85809e-06
-1.5263e-05 -1.85809e-06 -0.000398207
0.00673746 -0.000105029 -0.000387071
-0.000105029 0.00413017 7.21036e-06
-0.000387071 7.21036e-06 0.00416847
0.000243214 -4.10695e-06 -3.91951e-08
-4.10695e-06 -0.000307837 -6.704e-07
-3.91951e-08 -6.704e-07 -0.000399337
0.00146996 5.54534e-05 -4.83738e-09
5.54534e-05 -5.9721e-05 4.29389e-08
-4.83738e-09 4.29389e-08 -0.00017978
0.00153991 0.000170319 -7.69625e-09
0.000170319 -3.73604e-05 1.3879e-07
-7.69625e-09 1.3879e-07 -0.000178367
0.00232556 0.000166802 -9.1686e-08
0.000166802 0.000109139 1.35103e-07
-9.1686e-08 1.35103e-07 5.64619e-05
0.00162872 0.000310531 -4.32897e-07
0.000310531 1.74027e-05 -3.03137e-07
-4.32897e-07 -3.03137e-07 -0.000178478
0.00232189 0.000363964 -1.9848e-07
0.000363964 0.000132478 3.17112e-07
-1.9848e-07 3.17112e-07 2.45451e-05
0.001448 -5.39701e-06 2.89535e-06
-5.39701e-06 -6.54894e-05 4.07799e-07
2.89535e-06 4.07799e-07 -0.000184501
0.00231484 8.05627e-05 2.65928e-06
8.05627e-05 9.78014e-05 4.82831e-07
2.65928e-06 4.82831e-07 5.40102e-05
0.00230571 0.000260643 2.22597e-06
0.000260643 0.000109065 1.29163e-06
2.22597e-06 1.29163e-06 3.47046e-05
0.00218515 0.000172513 4.11607e-06
0.000172513 -1.26796e-05 5.24645e-07
4.11607e-06 5.24645e-07 -1.30072e-05
0.00231283 0.000469525 3.51202e-06
0.000469525 0.000157271 3.80307e-07
3.51202e-06 3.80307e-07 2.28256e-06
0.0022629 0.000351565 4.42111e-06
0.000351565 1.96712e-05 7.65275e-07
4.42111e-06 7.65275e-07 -2.31937e-05
0.000252341 -8.98404e-06 -1.48179e-05
-8.98404e-06 -0.000298553 5.43165e-08
-1.48179e-05 5.43165e-08 -0.00039459
0.00221046 -7.18647e-05 -0.000150347
-7.18647e-05 0.000961575 8.22018e-06
-0.000150347 8.22018e-06 0.000894288
0.00161512 -0.000116551 -1.46047e-05
-0.000116551 3.06372e-05 1.22321e-06
-1.46047e-05 1.22321e-06 -8.53009e-05
0.00213598 -0.000265334 -1.92085e-05
-0.000265334 0.000398294 3.14543e-06
-1.92085e-05 3.14543e-06 0.000227259
0.00944213 -0.000105516 -0.000418094
-0.000105516 0.00586176 5.06718e-05
-0.000418094 5.06718e-05 0.00588336
0.00348704 -0.000388876 -0.000219197
-0.000388876 0.00184818 4.05411e-05
-0.000219197 4.05411e-05 0.00167864
0.00244108 -0.00067599 -2.15745e-05
-0.00067599 0.00085561 7.85419e-06
-2.15745e-05 7.85419e-06 0.000418398
0.00234194 -0.000418544 -2.63018e-05
-0.000418544 0.000561571 6.8836e-06
-2.63018e-05 6.8836e-06 0.000335372
0.00240749 -0.000478096 5.18838e-07
-0.000478096 0.000237883 -1.14494e-06
5.18838e-07 -1.14494e-06 8.68948e-05
0.0023402 -0.000640488 2.62602e-07
-0.000640488 0.00030422 -1.50413e-06
2.62602e-07 -1.50413e-06 6.79487e-06
0.00240117 -0.000789115 7.61295e-06
-0.000789115 0.000487293 -5.58386e-06
7.61295e-06 -5.58386e-06 6.75034e-05
0.00235246 -0.000781754 3.28528e-06
-0.000781754 0.000293559 -8.80909e-07
3.28528e-06 -8.80909e-07 -3.03632e-05
6.47805e-05 -0.000293696 -2.45906e-05
-0.000293696 -0.000361499 2.67159e-05
-2.45906e-05 2.67159e-05 -0.000539568
6.38376e-05 -0.000327736 -5.61219e-06
-0.000327736 -0.000250114 -2.09136e-06
-5.61219e-06 -2.09136e-06 -0.000618463
0.00150595 -5.44368e-05 8.61609e-07
-5.44368e-05 -2.79646e-05 -8.59418e-08
8.61609e-07 -8.59418e-08 -0.000143126
0.00215678 -0.000196593 -1.23184e-05
-0.000196593 0.000401791 1.49126e-06
-1.23184e-05 1.49126e-06 0.000270993
0.00218047 -0.000177267 2.60925e-06
-0.000177267 1.89197e-05 -3.90905e-07
2.60925e-06 -3.90905e-07 -5.22879e-05
0.00222251 -0.000381163 -1.42216e-06
-0.000381163 8.59603e-05 4.41346e-07
-1.42216e-06 4.41346e-07 -3.94318e-05
0.000119667 -0.000270394 -1.609e-06
-0.000270394 -0.000340915 -3.60829e-07
-1.609e-06 -3.60829e-07 -0.000539157
0.00119926 -0.000577934 -1.72925e-06
-0.000577934 7.04793e-05 -3.966e-07
-1.72925e-06 -3.966e-07 -0.000385851
0.00225925 -0.000899713 -1.79487e-07
-0.000899713 0.000437217 1.63461e-06
-1.79487e-07 1.63461e-06 -9.45921e-05
0.00222895 -0.00055683 3.97375e-07
-0.00055683 0.000163878 -1.43166e-07
3.97375e-07 -1.43166e-07 -6.48279e-05
0.00235171 -0.000496532 4.55728e-07
-0.000496532 9.62034e-05 -2.52025e-07
4.55728e-07 -2.52025e-07 -2.4618e-06
0.00264084 -0.000867881 1.93905e-06
-0.000867881 0.000547106 -2.05622e-06
1.93905e-06 -2.05622e-06 0.00014775
0.00235786 -0.000700582 -4.21657e-07
-0.000700582 0.000221334 6.70633e-07
-4.21657e-07 6.70633e-07 -2.13006e-05
0.00235105 -0.000813378 1.33705e-07
-0.000813378 0.000220088 8.91794e-07
1.33705e-07 8.91794e-07 -6.13071e-05
0.000716842 -0.000335751 8.26e-08
-0.000335751 7.63552e-05 9.55547e-07
8.26e-08 9.55547e-07 -0.000304632
0.00126596 -0.000430088 -8.87395e-07
-0.000430088 0.000439427 1.36569e-06
-8.87395e-07 1.36569e-06 -1.0692e-06
0.000562711 -0.000185247 -4.86306e-06
-0.000185247 0.000211839 -2.92136e-07
-4.86306e-06 -2.92136e-07 -0.000121044
0.00219572 -8.92605e-05 2.29281e-06
-8.92605e-05 3.13734e-05 -3.82499e-07
2.29281e-06 -3.82499e-07 -3.2394e-05
0.00220942 -0.000272548 2.14481e-07
-0.000272548 3.87379e-05 -8.01941e-07
2.14481e-07 -8.01941e-07 -5.09838e-05
0.00227316 -0.000167963 6.39657e-06
-0.000167963 7.87982e-05 -6.06381e-07
6.39657e-06 -6.06381e-07 6.51829e-05
0.00228749 -0.000390043 3.21293e-06
-0.000390043 3.53489e-05 -6.08145e-07
3.21293e-06 -6.08145e-07 -1.6305e-05
0.00241349 -0.000626338 1.04169e-06
-0.000626338 0.000179446 -8.64947e-07
1.04169e-06 -8.64947e-07 1.53785e-05
0.00246837 -0.000522962 1.30385e-06
-0.000522962 9.60331e-05 1.90583e-07
1.30385e-06 1.90583e-07 4.73927e-05
0.00104546 -0.000449529 6.31147e-06
-0.000449529 0.000160958 -1.02139e-05
6.31147e-06 -1.02139e-05 -0.000248054
0.00247613 -0.000751538 1.14366e-06
-0.000751538 0.000196726 -1.75069e-06
1.14366e-06 -1.75069e-06 2.24078e-05
0.00229779 -0.00101422 -2.85266e-06
-0.00101422 0.000624569 2.97155e-06
-2.85266e-06 2.97155e-06 -2.12585e-05
0.00256351 -0.000990562 7.09093e-06
-0.000990562 0.000538894 3.78164e-06
7.09093e-06 3.78164e-06 2.01574e-05
0.00266099 -0.000884372 4.25112e-06
-0.000884372 0.000541383 -6.58845e-07
4.25112e-06 -6.58845e-07 0.000163218
0.00255416 -0.000867166 4.36187e-06
-0.000867166 0.00029105 -2.36209e-06
4.36187e-06 -2.36209e-06 4.90566e-05
-0.00141272 2.03275e-05 8.01956e-06
2.03275e-05 -0.00110695 7.64034e-09
8.01956e-06 7.64034e-09 -0.00139269
0.00207586 -0.000696606 -2.00513e-06
-0.000696606 0.000851792 9.78852e-06
-2.00513e-06 9.78852e-06 0.000285
-0.00125315 -0.000196211 1.90273e-05
-0.000196211 -0.000798585 5.45619e-06
1.90273e-05 5.45619e-06 -0.00127865
0.00110208 -0.000649117 1.57259e-05
-0.000649117 0.00035107 2.14606e-05
1.57259e-05 2.14606e-05 -0.000274405
0.00157922 0.000384587 -1.0502e-05
0.000384587 5.49657e-06 -3.358e-06
-1.0502e-05 -3.358e-06 -0.000229935
0.000267743 0.000118883 -1.54755e-05
0.000118883 -0.000159574 -1.95661e-05
-1.54755e-05 -1.95661e-05 -0.000276488
0.00046145 0.000220959 -2.63007e-05
0.000220959 -9.90211e-05 -2.39434e-05
-2.63007e-05 -2.39434e-05 -0.000253535
0.00146231 0.000288205 -3.42211e-06
0.000288205 0.00059728 7.17798e-06
-3.42211e-06 7.17798e-06 0.000326815
0.0016281 0.000508314 -2.03292e-05
0.000508314 0.000104701 -5.18194e-06
-2.03292e-05 -5.18194e-06 -0.000216924
0.00233594 0.000659136 -2.55938e-06
0.000659136 0.000262872 1.87312e-06
-2.55938e-06 1.87312e-06 -2.17786e-05
0.000684285 0.00037981 -1.39294e-05
0.00037981 -4.86665e-05 -1.10124e-05
-1.39294e-05 -1.10124e-05 -0.000412761
0.00203102 0.000969839 1.87494e-06
0.000969839 0.00043842 7.08973e-06
1.87494e-06 7.08973e-06 -0.000186373
0.00247407 0.000838849 4.11123e-06
0.000838849 0.000528187 6.35178e-06
4.11123e-06 6.35178e-06 0.000100689
0.00195594 0.000850343 1.00391e-05
0.000850343 9.99321e-05 1.52757e-05
1.00391e-05 1.52757e-05 -0.000339871
0.000400063 7.39044e-05 -2.08126e-06
7.39044e-05 -2.8846e-05 5.2752e-07
-2.08126e-06 5.2752e-07 -0.000134596
0.000970574 0.000333637 -3.60299e-06
0.000333637 0.000295477 2.67057e-06
-3.60299e-06 2.67057e-06 -3.46791e-05
0.00011406 0.000229613 4.3601e-06
0.000229613 -0.000175849 -1.82255e-06
4.3601e-06 -1.82255e-06 -0.000485788
0.000616677 0.000305054 -5.47536e-06
0.000305054 5.51419e-05 8.52192e-06
-5.47536e-06 8.52192e-06 -0.000276301
0.00234122 0.000575676 -1.4865e-06
0.000575676 0.000207366 -9.33184e-07
-1.4865e-06 -9.33184e-07 -1.15218e-05
0.00235647 0.000754344 -1.11857e-06
0.000754344 0.00035978 -4.08336e-07
-1.11857e-06 -4.08336e-07 1.41444e-07
0.00243135 0.000728737 3.43137e-07
0.000728737 0.000244986 1.57197e-07
3.43137e-07 1.57197e-07 -9.98849e-06
0.00196115 0.00091474 1.61413e-06
0.00091474 0.000666787 -1.74124e-06
1.61413e-06 -1.74124e-06 -1.09904e-06
0.00261886 0.000924816 1.16624e-06
0.000924816 0.000539488 7.95831e-07
1.16624e-06 7.95831e-07 0.000127011
0.00241168 0.00110098 -1.28769e-06
0.00110098 0.000629358 -2.45411e-06
-1.28769e-06 -2.45411e-06 -2.99038e-05
0.00247666 0.000872182 -8.6888e-06
0.000872182 0.000347616 3.30838e-06
-8.6888e-06 3.30838e-06 -5.87011e-05
0.000622177 6.66945e-05 8.77538e-06
6.66945e-05 0.000119936 1.66533e-05
8.77538e-06 1.66533e-05 3.82306e-05
0.00131667 0.000189332 -2.33417e-06
0.000189332 0.000637223 1.23176e-05
-2.33417e-06 1.23176e-05 0.000358443
0.000276586 0.00053751 -8.50374e-06
0.00053751 -0.000212143 -7.4712e-06
-8.50374e-06 -7.4712e-06 -0.000703435
0.000951456 0.000371232 1.16072e-05
0.000371232 0.000350958 -2.46201e-06
1.16072e-05 -2.46201e-06 -3.26859e-06
0.00151399 0.000279757 7.58843e-07
0.000279757 0.000513022 1.83445e-05
7.58843e-07 1.83445e-05 0.000175139
0.00248251 0.000625996 1.06031e-06
0.000625996 0.000190459 -4.48079e-07
1.06031e-06 -4.48079e-07 2.99934e-05
0.00231173 0.000827875 -1.58655e-06
0.000827875 0.000248908 -1.57946e-06
-1.58655e-06 -1.57946e-06 -9.38098e-05
0.00249051 0.000798904 -2.1095e-06
0.000798904 0.000224268 -1.44057e-08
-2.1095e-06 -1.44057e-08 -9.91275e-06
0.00234945 0.00122826 -2.84481e-06
0.00122826 0.00089723 -1.2218e-05
-2.84481e-06 -1.2218e-05 7.74072e-05
0.00283651 0.000979075 -5.88755e-06
0.000979075 0.000570989 -2.39403e-06
-5.88755e-06 -2.39403e-06 0.000166564
0.00206455 0.00115147 6.19952e-06
0.00115147 0.00029661 -7.97162e-06
6.19952e-06 -7.97162e-06 -0.000355706
0.000891002 0.000151442 -9.2604e-07
0.000151442 0.000353173 1.23259e-05
-9.2604e-07 1.23259e-05 0.000170635
0.000868406 0.000183582 -8.66816e-06
0.000183582 0.000483215 5.44353e-06
-8.66816e-06 5.44353e-06 0.000203681
0.00074572 0.0001077 -2.32342e-06
0.0001077 0.00025935 4.62886e-06
-2.32342e-06 4.62886e-06 0.000138436
0.000439618 5.70014e-05 -2.69209e-06
5.70014e-05 5.86052e-05 -4.25323e-09
-2.69209e-06 -4.25323e-09 -8.52719e-05
0.00162229 1.13864e-05 1.18632e-06
1.13864e-05 0.000792348 8.23936e-06
1.18632e-06 8.23936e-06 0.000744676
0.00103735 3.53666e-05 -6.46996e-07
3.53666e-05 0.000405595 -4.50078e-07
-6.46996e-07 -4.50078e-07 0.000343417
0.00116433 -9.25247e-06 8.79146e-05
-9.25247e-06 0.000484594 1.75768e-05
8.79146e-05 1.75768e-05 0.000474896
0.00446063 -0.000151328 1.54316e-05
-0.000151328 0.00269961 -1.7215e-06
1.54316e-05 -1.7215e-06 0.00268333
0.00496612 -0.000212385 -8.69015e-05
-0.000212385 0.00306043 -1.26555e-05
-8.69015e-05 -1.26555e-05 0.00302691
0.000198579 -0.000132027 3.00125e-05
-0.000132027 -0.00015723 -7.67392e-06
3.00125e-05 -7.67392e-06 -0.000228215
0.00421015 0.000141408 9.43925e-05
0.000141408 0.00255686 -1.41923e-05
9.43925e-05 -1.41923e-05 0.00253818
0.000547752 -0.000167544 -2.12543e-06
-0.000167544 7.03303e-05 1.52044e-06
-2.12543e-06 1.52044e-06 -5.48401e-05
0.00698345 2.9773e-05 -7.50237e-07
2.9773e-05 0.00436034 1.53968e-06
-7.50237e-07 1.53968e-06 0.00435716
0.000208411 -0.000240159 -2.24348e-05
-0.000240159 -0.0002257 2.24681e-05
-2.24348e-05 2.24681e-05 -0.000388765
0.00879849 -3.43486e-05 -0.000368764
-3.43486e-05 0.00549672 4.70022e-05
-0.000368764 4.70022e-05 0.00550776
0.00158595 0.000306304 -7.01547e-06
0.000306304 2.92958e-06 -2.18294e-06
-7.01547e-06 -2.18294e-06 -0.000193364
0.00154405 0.000171157 -3.84599e-06
0.000171157 -1.94594e-05 -8.53811e-07
-3.84599e-06 -8.53811e-07 -0.000161307
0.00231133 0.000361893 -3.48237e-06
0.000361893 0.000116474 -5.96373e-07
-3.48237e-06 -5.96373e-07 8.70866e-06
0.00233912 0.000164873 -2.49681e-06
0.000164873 0.000120225 -6.01028e-07
-2.49681e-06 -6.01028e-07 6.75444e-05
0.00147921 6.08533e-05 -3.74485e-06
6.08533e-05 -4.8543e-05 -7.82847e-07
-3.74485e-06 -7.82847e-07 -0.000169067
0.000209064 2.66789e-05 -1.54497e-05
2.66789e-05 -0.000332127 -1.63478e-06
-1.54497e-05 -1.63478e-06 -0.000421654
0.0014544 6.72217e-08 -4.0609e-08
6.72217e-08 -6.04288e-05 -1.13573e-08
-4.0609e-08 -1.13573e-08 -0.000179442
0.00232079 7.91415e-05 -1.14669e-07
7.91415e-05 0.000103692 1.0312e-07
-1.14669e-07 1.0312e-07 6.01705e-05
0.00233002 0.000259572 6.12144e-08
0.000259572 0.000122307 1.35999e-07
6.12144e-08 1.35999e-07 4.91201e-05
0.00217311 0.000168384 -3.94291e-07
0.000168384 -3.02569e-05 -5.19087e-08
-3.94291e-07 -5.19087e-08 -2.37782e-05
0.002329 0.00047402 -7.41902e-07
0.00047402 0.000161222 1.1402e-07
-7.41902e-07 1.1402e-07 4.67242e-06
0.00226547 0.000352191 -3.61912e-08
0.000352191 2.59541e-05 1.87862e-07
-3.61912e-08 1.87862e-07 -1.78696e-05
0.00231287 -5.86835e-06 2.21751e-06
-5.86835e-06 0.000101334 2.14862e-08
2.21751e-06 2.14862e-08 5.84019e-05
0.00213599 7.88729e-05 2.51649e-06
7.88729e-05 -5.66934e-05 3.09336e-08
2.51649e-06 3.09336e-08 -3.84081e-05
0.0021982 0.000246374 4.72954e-06
0.000246374 -2.13371e-06 7.7479e-07
4.72954e-06 7.7479e-07 -2.14125e-05
0.00228321 0.00016615 1.33057e-06
0.00016615 -4.47111e-05 1.67514e-08
1.33057e-06 1.67514e-08 -3.36166e-06
0.00243464 0.000502488 2.99706e-06
0.000502488 0.000119041 5.6574e-07
2.99706e-06 5.6574e-07 3.47453e-05
0.00235903 0.000375853 1.83499e-07
0.000375853 -5.84093e-05 -5.2186e-07
1.83499e-07 -5.2186e-07 -3.77738e-05
0.0015656 -5.17403e-05 -5.42161e-06
-5.17403e-05 9.67605e-06 1.98843e-07
-5.42161e-06 1.98843e-07 -9.83225e-05
0.00207844 -0.000195715 -2.21936e-05
-0.000195715 0.000342752 2.60077e-06
-2.21936e-05 2.60077e-06 0.000211051
0.00218016 -0.000171209 3.54658e-06
-0.000171209 1.26566e-05 -2.7007e-07
3.54658e-06 -2.7007e-07 -5.38129e-05
0.0022257 -0.000377735 5.56708e-08
-0.000377735 0.000109709 6.69881e-07
5.56708e-08 6.69881e-07 -2.73998e-05
0.000225167 -0.000298972 -2.43053e-05
-0.000298972 -0.0002661 3.05632e-05
-2.43053e-05 3.05632e-05 -0.00046775
0.0015766 -0.000602066 -9.36889e-06
-0.000602066 0.000320681 4.2892e-06
-9.36889e-06 4.2892e-06 -0.000139598
0.00227869 -0.000911996 7.63271e-06
-0.000911996 0.000433748 -4.4903e-06
7.63271e-06 -4.4903e-06 -0.00010864
0.00227161 -0.000555396 2.76608e-07
-0.000555396 0.000198962 -1.22813e-06
2.76608e-07 -1.22813e-06 -3.43187e-05
0.00236692 -0.000501349 -2.21609e-06
-0.000501349 9.17566e-05 1.14019e-07
-2.21609e-06 1.14019e-07 -6.23247e-07
0.00229742 -0.000692962 4.84824e-07
-0.000692962 0.000180535 1.03056e-06
4.84824e-07 1.03056e-06 -5.97954e-05
0.00265094 -0.000867948 3.63609e-06
-0.000867948 0.000554257 -5.55879e-06
3.63609e-06 -5.55879e-06 0.000160394
0.00220823 -0.000809326 -6.87351e-07
-0.000809326 0.000118 2.54202e-06
-6.87351e-07 2.54202e-06 -0.000163561
0.000882565 -0.000356245 -3.4607e-06
-0.000356245 0.000170697 1.46061e-06
-3.4607e-06 1.46061e-06 -0.000214239
0.00135505 -0.000378096 -7.90001e-06
-0.000378096 0.000508457 -1.45874e-05
-7.90001e-06 -1.45874e-05 9.21401e-05
0.000380711 -0.000260687 -1.94831e-07
-0.000260687 0.000112696 3.48554e-06
-1.94831e-07 3.48554e-06 -0.000242647
0.00225978 -8.59292e-05 3.89328e-06
-8.59292e-05 7.57938e-05 -1.81834e-07
3.89328e-06 -1.81834e-07 1.95776e-05
0.00215666 -0.000276038 2.09692e-06
-0.000276038 6.12283e-06 -6.61071e-07
2.09692e-06 -6.61071e-07 -8.2738e-05
0.00222703 -0.000161734 1.91825e-08
-0.000161734 2.89246e-05 8.48673e-08
1.91825e-08 8.48673e-08 2.37305e-05
0.00234759 -0.000385938 -5.63208e-07
-0.000385938 8.55734e-05 8.72131e-08
-5.63208e-07 8.72131e-08 3.00789e-05
0.0010716 -0.000475406 -2.13005e-06
-0.000475406 0.000151929 -1.22285e-06
-2.13005e-06 -1.22285e-06 -0.000272772
0.00241909 -0.00104766 1.07386e-06
-0.00104766 0.00069584 -1.1502e-06
1.07386e-06 -1.1502e-06 3.87523e-05
0.00236297 -0.000971449 7.44053e-07
-0.000971449 0.000409971 2.29113e-06
7.44053e-07 2.29113e-06 -0.000112957
0.00234107 -0.000615304 -9.00662e-07
-0.000615304 0.000141401 3.73028e-07
-9.00662e-07 3.73028e-07 -2.73732e-05
0.00244179 -0.000525448 7.91521e-08
-0.000525448 6.43877e-05 1.00649e-08
7.91521e-08 1.00649e-08 2.11057e-05
0.00255112 -0.00087454 -5.79771e-07
-0.00087454 0.000459041 -2.99016e-07
-5.79771e-07 -2.99016e-07 8.28834e-05
0.00244317 -0.000749477 -7.47887e-07
-0.000749477 0.000171383 3.27804e-07
-7.47887e-07 3.27804e-07 -1.84144e-06
0.0024666 -0.00086371 1.4598e-06
-0.00086371 0.000225273 -4.15535e-07
1.4598e-06 -4.15535e-07 -8.64964e-06
0.0015722 -0.00066761 -3.63839e-06
-0.00066761 0.000547515 -1.69765e-06
-3.63839e-06 -1.69765e-06 -1.4177e-05
0.00140924 -0.000670621 -3.13285e-06
-0.000670621 0.00055389 -2.53431e-07
-3.13285e-06 -2.53431e-07 -6.23924e-05
0.000298904 -3.09069e-05 6.661e-06
-3.09069e-05 -1.54015e-05 3.01707e-06
6.661e-06 3.01707e-06 -0.000276258
0.000445296 -0.000199274 2.26395e-06
-0.000199274 0.000167855 -7.85986e-06
2.26395e-06 -7.85986e-06 -0.000230886
0.00217285 -9.17022e-05 5.17269e-06
-9.17022e-05 -3.85277e-06 -3.00187e-07
5.17269e-06 -3.00187e-07 -2.81022e-06
0.00224694 -0.000267831 3.7285e-06
-0.000267831 1.99738e-05 -1.05715e-06
3.7285e-06 -1.05715e-06 -4.89425e-06
0.00230001 -0.000167632 1.98491e-06
-0.000167632 1.16497e-05 -1.96651e-07
1.98491e-06 -1.96651e-07 4.85413e-05
0.00239711 -0.000413516 -1.1822e-06
-0.000413516 -1.77923e-05 5.7859e-07
-1.1822e-06 5.7859e-07 8.26731e-06
0.00241405 -0.000646428 -6.46017e-07
-0.000646428 8.74462e-05 1.692e-07
-6.46017e-07 1.692e-07 -1.36401e-05
0.00252441 -0.000565809 1.36181e-06
-0.000565809 2.80307e-05 7.66079e-08
1.36181e-06 7.66079e-08 4.14101e-06
0.00192837 -0.000968859 -9.32949e-06
-0.000968859 0.000608185 8.92269e-06
-9.32949e-06 8.92269e-06 -7.67342e-05
0.00257327 -0.00081956 1.31708e-06
-0.00081956 0.00015729 -5.59747e-07
1.31708e-06 -5.59747e-07 2.68571e-05
0.00234621 -0.00115488 -1.2378e-07
-0.00115488 0.000603836 5.6605e-06
-1.2378e-07 5.6605e-06 -8.41778e-05
0.00273411 -0.00102522 9.81333e-06
-0.00102522 0.000626244 5.02506e-07
9.81333e-06 5.02506e-07 0.000115303
0.00263194 -0.000910423 1.22899e-06
-0.000910423 0.000468452 -1.41757e-06
1.22899e-06 -1.41757e-06 0.000108027
0.00252304 -0.000935157 5.65296e-07
-0.000935157 0.000190834 -3.4653e-06
5.65296e-07 -3.4653e-06 -5.08608e-05
-0.000323708 -0.00021747 1.2342e-05
-0.00021747 -0.000529236 -9.68113e-06
1.2342e-05 -9.68113e-06 -0.000782247
-0.00282843 7.20932e-05 9.75353e-06
7.20932e-05 -0.0020486 1.34041e-06
9.75353e-06 1.34041e-06 -0.00243774
0.00139224 -0.000892648 1.56253e-05
-0.000892648 0.000428372 1.19366e-05
1.56253e-05 1.19366e-05 -0.000271296
0.00326849 -0.000681198 1.45205e-05
-0.000681198 0.00195731 1.56196e-05
1.45205e-05 1.56196e-05 0.00144661
0.00140162 -0.00082057 -7.41169e-06
-0.00082057 0.000595495 1.19335e-05
-7.41169e-06 1.19335e-05 -0.000146822
-1.81846e-05 5.84212e-05 -8.50305e-06
5.84212e-05 -0.000294092 -1.80432e-05
-8.50305e-06 -1.80432e-05 -0.000394259
0.00239962 0.000580838 -3.9778e-06
0.000580838 0.000246592 2.82129e-08
-3.9778e-06 2.82129e-08 2.63468e-05
0.00114042 0.000136715 3.236e-06
0.000136715 0.00045983 -5.59699e-06
3.236e-06 -5.59699e-06 0.000162611
0.000953494 0.000364261 -5.46063e-06
0.000364261 0.000256104 7.84488e-06
-5.46063e-06 7.84488e-06 -4.53156e-05
0.00140812 0.000320632 -4.15377e-06
0.000320632 0.000550439 9.62292e-06
-4.15377e-06 9.62292e-06 0.000224918
0.00228556 0.000749837 3.55287e-07
0.000749837 0.000307659 3.49515e-06
3.55287e-07 3.49515e-06 -5.10347e-05
0.00247732 0.000732597 -7.10819e-07
0.000732597 0.000279028 -8.91908e-08
-7.10819e-07 -8.91908e-08 2.34966e-05
0.00174561 0.000959502 1.46554e-05
0.000959502 0.000532714 1.08865e-05
1.46554e-05 1.08865e-05 -0.000170604
0.00229897 0.00108924 7.11772e-06
0.00108924 0.000559443 1.05844e-05
7.11772e-06 1.05844e-05 -9.85947e-05
0.00259839 0.000915517 6.08811e-06
0.000915517 0.000538521 6.09138e-06
6.08811e-06 6.09138e-06 0.00012494
0.00281211 0.000883431 1.37625e-05
0.000883431 0.000592008 1.73887e-05
1.37625e-05 1.73887e-05 0.000193872
0.000464867 7.40208e-05 -1.82546e-06
7.40208e-05 1.9611e-05 3.35048e-07
-1.82546e-06 3.35048e-07 -5.79109e-05
0.000734685 0.000166333 -1.03872e-06
0.000166333 0.000279671 -6.17417e-07
-1.03872e-06 -6.17417e-07 -1.0542e-05
0.00104599 0.00058731 9.92205e-06
0.00058731 0.000283274 -2.5932e-06
9.92205e-06 -2.5932e-06 -0.000213262
0.000679558 0.000215153 -4.3556e-07
0.000215153 0.000165895 -4.78646e-06
-4.3556e-07 -4.78646e-06 -0.000173856
0.000419502 0.000286743 -1.45452e-06
0.000286743 -0.000186063 4.4734e-06
-1.45452e-06 4.4734e-06 -0.000557532
0.00246481 0.000624712 -7.94724e-07
0.000624712 0.0001791 -6.93109e-07
-7.94724e-07 -6.93109e-07 1.93553e-05
0.00239578 0.000833954 4.95587e-07
0.000833954 0.000309251 -1.45113e-07
4.95587e-07 -1.45113e-07 -3.37648e-05
0.00248025 0.000799194 1.30695e-06
0.000799194 0.000221635 5.27694e-07
1.30695e-06 5.27694e-07 -1.20569e-05
0.00242644 0.00123675 1.78438e-06
0.00123675 0.000964586 -1.92466e-06
1.78438e-06 -1.92466e-06 0.000142807
0.00280422 0.000975903 3.41833e-06
0.000975903 0.000524176 1.22442e-07
3.41833e-06 1.22442e-07 0.000118796
0.00273282 0.00122576 -5.75037e-06
0.00122576 0.000762078 7.78898e-07
-5.75037e-06 7.78898e-07 9.70116e-05
0.000922006 0.00017558 -1.00304e-06
0.00017558 0.000371074 1.32956e-05
-1.00304e-06 1.32956e-05 0.000150769
0.00217487 0.000500294 2.06201e-06
0.000500294 0.00125191 6.00052e-06
2.06201e-06 6.00052e-06 0.000836051
0.00125831 0.000837474 1.38269e-06
0.000837474 0.000463076 -2.90924e-07
1.38269e-06 -2.90924e-07 -0.000179035
0.00151076 0.000281127 9.52573e-06
0.000281127 0.000442067 4.2348e-07
9.52573e-06 4.2348e-07 0.000134917
0.0034583 0.000844408 2.74872e-06
0.000844408 0.00158346 2.51574e-07
2.74872e-06 2.51574e-07 0.00106102
0.00250912 0.000664408 -3.08405e-06
0.000664408 0.0001033 -1.5128e-06
-3.08405e-06 -1.5128e-06 -6.84362e-06
0.00252928 0.000912024 -3.296e-06
0.000912024 0.000342626 -2.35653e-08
-3.296e-06 -2.35653e-08 -7.37388e-06
0.00255285 0.000899245 -4.46257e-07
0.000899245 0.000227215 -7.2952e-07
-4.46257e-07 -7.2952e-07 -8.83141e-06
0.00180059 0.00125812 1.19284e-05
0.00125812 0.000627065 -7.37629e-06
1.19284e-05 -7.37629e-06 -0.000202327
0.00244959 0.00116825 1.64192e-05
0.00116825 0.00044479 -3.81359e-06
1.64192e-05 -3.81359e-06 -0.000141434
0.000627705 0.000127001 -2.4137e-07
0.000127001 0.000182595 -3.19752e-07
-2.4137e-07 -3.19752e-07 1.74805e-06
0.000268536 0.00026565 -5.57056e-06
0.00026565 3.2065e-05 4.80908e-07
-5.57056e-06 4.80908e-07 -0.000247846
-0.00073295 0.000105966 4.29223e-07
0.000105966 -0.000565053 -2.54303e-06
4.29223e-07 -2.54303e-06 -0.000832182
0.00192493 0.000330666 -1.14508e-05
0.000330666 0.00122892 -2.17438e-07
-1.14508e-05 -2.17438e-07 0.000915728
0.00158257 0.00027833 -4.99603e-06
0.00027833 0.000924462 2.62057e-07
-4.99603e-06 2.62057e-07 0.000690909
0.000594714 0.000108568 -3.54645e-07
0.000108568 0.000170474 2.35425e-06
-3.54645e-07 2.35425e-06 5.99822e-05
0.000558125 5.5028e-05 -1.66711e-06
5.5028e-05 0.000141603 -3.03387e-07
-1.66711e-06 -3.03387e-07 2.1153e-05
0.00153249 2.34836e-05 1.64544e-06
2.34836e-05 0.000737439 5.98972e-06
1.64544e-06 5.98972e-06 0.000697866
0.000313429 7.06788e-05 5.8343e-06
7.06788e-05 -3.04038e-05 -6.80297e-06
5.8343e-06 -6.80297e-06 -0.000166341
0.00165427 8.51882e-06 -1.79081e-05
8.51882e-06 0.000813545 -2.44047e-06
-1.79081e-05 -2.44047e-06 0.000770468
0.000743086 -8.66233e-06 6.26212e-05
-8.66233e-06 0.000205406 1.336e-05
6.26212e-05 1.336e-05 0.000202256
0.00186253 4.04176e-05 -3.64828e-05
4.04176e-05 0.000953947 -1.16094e-05
-3.64828e-05 -1.16094e-05 0.000901526
0.00250007 -7.42082e-05 7.72684e-05
-7.42082e-05 0.00138531 1.62543e-06
7.72684e-05 1.62543e-06 0.00137304
0.00418738 -0.000158494 -6.93648e-05
-0.000158494 0.00252334 -1.03669e-05
-6.93648e-05 -1.03669e-05 0.00250439
0.000952968 3.13629e-05 2.2629e-06
3.13629e-05 0.000346934 -9.30203e-06
2.2629e-06 -9.30203e-06 0.000264786
0.000252043 -0.000103662 4.95956e-06
-0.000103662 -0.000116716 1.52024e-06
4.95956e-06 1.52024e-06 -0.000197987
0.00438007 0.000177353 6.03555e-05
0.000177353 0.00267569 -1.11766e-05
6.03555e-05 -1.11766e-05 0.00264547
0.00478073 9.58656e-05 -1.8504e-05
9.58656e-05 0.00293073 2.51007e-06
-1.8504e-05 2.51007e-06 0.00291886
0.00134174 -0.000172673 -1.66045e-05
-0.000172673 0.000579085 2.09683e-05
-1.66045e-05 2.09683e-05 0.000442846
0.00782693 1.5063e-05 -0.000319284
1.5063e-05 0.00491544 4.53355e-05
-0.000319284 4.53355e-05 0.00491318
0.00234963 0.000479253 -3.42365e-06
0.000479253 0.000167386 2.13278e-07
-3.42365e-06 2.13278e-07 9.12615e-06
0.00233866 0.000260205 -2.76346e-06
0.000260205 0.000124445 -1.07796e-06
-2.76346e-06 -1.07796e-06 5.19701e-05
0.00226503 0.000353474 -4.13278e-06
0.000353474 2.96719e-05 -3.74823e-07
-4.13278e-06 -3.74823e-07 -1.52516e-05
0.0021612 0.000163998 -3.45591e-06
0.000163998 -4.84889e-05 -2.60873e-07
-3.45591e-06 -2.60873e-07 -3.51802e-05
0.00232829 7.83758e-05 -2.71528e-06
7.83758e-05 0.00011087 -2.39103e-07
-2.71528e-06 -2.39103e-07 6.7618e-05
0.00146727 5.46383e-06 -2.85758e-06
5.46383e-06 -5.30058e-05 -4.42516e-07
-2.85758e-06 -4.42516e-07 -0.000171987
0.00231118 -5.25883e-06 -1.55296e-08
-5.25883e-06 0.000101645 5.02256e-08
-1.55296e-08 5.02256e-08 5.86539e-05
0.00213746 7.09113e-05 -4.50099e-07
7.09113e-05 -5.27397e-05 -4.57343e-08
-4.50099e-07 -4.57343e-08 -3.64081e-05
0.00219819 0.000245949 -1.50931e-07
0.000245949 -4.38798e-06 3.51888e-08
-1.50931e-07 3.51888e-08 -2.35139e-05
0.00227375 0.000168274 9.61468e-08
0.000168274 -5.82947e-05 4.14308e-08
9.61468e-08 4.14308e-08 -1.01457e-05
0.00240454 0.000499865 1.14233e-07
0.000499865 9.69292e-05 1.24623e-07
1.14233e-07 1.24623e-07 1.4892e-05
0.00236032 0.000366259 2.29645e-07
0.000366259 -6.13283e-05 2.65063e-07
2.29645e-07 2.65063e-07 -3.6331e-05
0.00213761 -1.0809e-05 3.19442e-06
-1.0809e-05 -4.57832e-05 -1.45814e-07
3.19442e-06 -1.45814e-07 -3.05707e-05
0.00231955 7.08344e-05 5.13432e-07
7.08344e-05 -2.64984e-05 -5.33904e-07
5.13432e-07 -5.33904e-07 3.57897e-05
0.00228893 0.000240118 -7.42146e-07
0.000240118 -6.31551e-05 -5.40465e-07
-7.42146e-07 -5.40465e-07 -2.86964e-05
0.00240368 0.000178843 -2.89283e-08
0.000178843 -8.10166e-05 -5.54456e-07
-2.89283e-08 -5.54456e-07 1.37903e-05
0.00245803 0.000506821 -4.75075e-07
0.000506821 1.6232e-05 -4.83535e-07
-4.75075e-07 -4.83535e-07 -6.85636e-06
0.00247103 0.000359837 1.39497e-07
0.000359837 -9.53325e-05 -6.97616e-08
1.39497e-07 -6.97616e-08 -3.61475e-05
0.00230844 -8.25307e-05 1.2221e-06
-8.25307e-05 0.000108308 1.44881e-07
1.2221e-06 1.44881e-07 5.95195e-05
0.00212335 -0.000279156 4.07705e-06
-0.000279156 -1.52526e-05 -3.57328e-07
4.07705e-06 -3.57328e-07 -0.000102786
0.00217483 -0.000155597 -3.24366e-06
-0.000155597 -2.42098e-05 2.32751e-07
-3.24366e-06 2.32751e-07 -2.0805e-05
0.00240814 -0.000382542 -5.2284e-06
-0.000382542 0.00013661 1.27113e-06
-5.2284e-06 1.27113e-06 7.70602e-05
0.000773195 -0.00047189 -8.75426e-06
-0.00047189 -5.12122e-05 6.73125e-06
-8.75426e-06 6.73125e-06 -0.000486455
0.00261549 -0.001075 1.8947e-06
-0.001075 0.000838859 -4.0862e-06
1.8947e-06 -4.0862e-06 0.000174913
0.00212928 -0.00094455 2.93088e-06
-0.00094455 0.000263544 -2.70979e-06
2.93088e-06 -2.70979e-06 -0.000261256
0.00227625 -0.00060492 -3.25529e-06
-0.00060492 0.000108593 1.40215e-06
-3.25529e-06 1.40215e-06 -6.49286e-05
0.00241443 -0.000527501 1.01466e-07
-0.000527501 3.28581e-05 -7.20398e-07
1.01466e-07 -7.20398e-07 -5.61032e-06
0.00241542 -0.000748725 -1.13679e-06
-0.000748725 0.000148737 1.78079e-06
-1.13679e-06 1.78079e-06 -2.38899e-05
0.00246243 -0.000870551 -2.39939e-06
-0.000870551 0.000389054 8.21999e-08
-2.39939e-06 8.21999e-08 1.20088e-05
0.0024263 -0.000870909 -1.81457e-06
-0.000870909 0.000188293 1.25276e-06
-1.81457e-06 1.25276e-06 -4.16592e-05
0.0013111 -0.000636231 1.67734e-06
-0.000636231 0.00035892 -1.5678e-05
1.67734e-06 -1.5678e-05 -0.000195508
0.00185293 -0.000685272 -2.27749e-05
-0.000685272 0.000829033 -1.25014e-05
-2.27749e-05 -1.25014e-05 0.000220888
0.00188477 -7.90562e-05 8.88882e-06
-7.90562e-05 0.00101817 6.70599e-06
8.88882e-06 6.70599e-06 0.000758857
-0.000300391 -4.10111e-05 -1.24556e-05
-4.10111e-05 -0.000386705 -9.18692e-06
-1.24556e-05 -9.18692e-06 -0.000709389
0.00217173 -9.11228e-05 -1.13798e-07
-9.11228e-05 -6.10306e-06 3.13675e-08
-1.13798e-07 3.13675e-08 -5.12209e-06
0.00229271 -0.000270551 1.32985e-06
-0.000270551 5.42686e-05 -2.48192e-07
1.32985e-06 -2.48192e-07 2.87898e-05
0.00224956 -0.000165118 -4.11405e-08
-0.000165118 -2.79874e-05 -1.48645e-07
-4.11405e-08 -1.48645e-07 1.24634e-05
0.00236913 -0.000411976 -2.92625e-07
-0.000411976 -2.91561e-05 2.77102e-07
-2.92625e-07 2.77102e-07 -1.15278e-05
0.00201614 -0.000923021 -1.54366e-06
-0.000923021 0.000653246 -6.39377e-07
-1.54366e-06 -6.39377e-07 -8.04243e-06
0.00225228 -0.00114459 2.65743e-06
-0.00114459 0.000540777 3.38056e-07
2.65743e-06 3.38056e-07 -0.000147116
0.00265456 -0.00103281 -6.62039e-07
-0.00103281 0.00057094 9.0005e-07
-6.62039e-07 9.0005e-07 5.24206e-05
0.00243571 -0.000647914 -9.84022e-07
-0.000647914 0.000110696 1.40398e-07
-9.84022e-07 1.40398e-07 2.87637e-06
0.00249727 -0.000562154 7.22479e-07
-0.000562154 1.1137e-05 -4.51392e-07
7.22479e-07 -4.51392e-07 -2.81238e-06
0.00265497 -0.000917855 -1.92938e-06
-0.000917855 0.000494136 6.20346e-07
-1.92938e-06 6.20346e-07 0.000127021
0.00258218 -0.000824069 -1.15057e-06
-0.000824069 0.00015612 5.00192e-07
-1.15057e-06 5.00192e-07 2.41378e-05
0.00255048 -0.000933039 7.69539e-06
-0.000933039 0.000205917 -2.65733e-06
7.69539e-06 -2.65733e-06 -2.66751e-05
0.00181137 -0.000958215 1.77129e-06
-0.000958215 0.000716067 -7.43101e-07
1.77129e-06 -7.43101e-07 -1.74018e-05
0.00204955 -0.00090116 -3.70946e-06
-0.00090116 0.000991848 -1.33418e-06
-3.70946e-06 -1.33418e-06 0.000245866
0.000759103 -0.000479978 -3.68542e-06
-0.000479978 0.000359625 2.76847e-06
-3.68542e-06 2.76847e-06 -0.000143885
-1.97746e-05 -0.000164511 -7.07731e-06
-0.000164511 -0.000274097 -4.24011e-07
-7.07731e-06 -4.24011e-07 -0.000545744
0.00046624 0.000150474 -4.50705e-06
0.000150474 0.000132182 -3.8355e-06
-4.50705e-06 -3.8355e-06 -0.000247941
0.0022619 -0.000104428 -1.36592e-07
-0.000104428 -5.60163e-05 3.56311e-07
-1.36592e-07 3.56311e-07 1.28428e-06
0.00232207 -0.000249186 -1.29505e-06
-0.000249186 -6.77999e-05 -1.97063e-07
-1.29505e-06 -1.97063e-07 -1.25654e-05
0.00253077 -0.000503213 -5.37164e-07
-0.000503213 -8.10954e-05 -6.27263e-08
-5.37164e-07 -6.27263e-08 -1.17028e-05
0.00252015 -0.00068846 1.17268e-06
-0.00068846 3.78578e-05 6.49999e-07
1.17268e-06 6.49999e-07 -1.32016e-05
0.0022162 -0.00120519 -2.78387e-06
-0.00120519 0.000775343 1.96666e-06
-2.78387e-06 1.96666e-06 -4.21101e-06
0.00273475 -0.000956647 -1.04378e-06
-0.000956647 0.00015245 -2.1944e-06
-1.04378e-06 -2.1944e-06 -1.37989e-05
0.00177584 -0.00114424 -2.75957e-06
-0.00114424 0.000256978 6.90995e-06
-2.75957e-06 6.90995e-06 -0.000437296
0.00282106 -0.00109741 -8.3581e-07
-0.00109741 0.000663621 5.69829e-07
-8.3581e-07 5.69829e-07 0.000137816
0.00259189 -0.000950524 -1.17596e-05
-0.000950524 0.000368182 -2.95756e-06
-1.17596e-05 -2.95756e-06 4.10366e-05
0.000338073 -0.000191759 -3.226e-07
-0.000191759 5.15886e-05 -1.70064e-06
-3.226e-07 -1.70064e-06 -0.000206174
0.00419645 -0.000386469 -5.96503e-06
-0.000386469 0.00255872 3.44605e-06
-5.96503e-06 3.44605e-06 0.00214187
-0.00142296 -8.75463e-05 -7.92266e-06
-8.75463e-05 -0.00128995 7.16088e-06
-7.92266e-06 7.16088e-06 -0.00159466
0.00278321 -0.00117928 -8.90774e-06
-0.00117928 0.00135265 6.91684e-06
-8.90774e-06 6.91684e-06 0.000534793
0.00273746 -0.000716974 5.43179e-06
-0.000716974 0.00152941 9.90001e-06
5.43179e-06 9.90001e-06 0.000933423
0.00216059 -0.000972976 -1.17261e-05
-0.000972976 0.00103759 1.39351e-05
-1.17261e-05 1.39351e-05 0.0002459
0.000402447 7.59514e-05 -1.06578e-05
7.59514e-05 -1.89947e-05 -1.66363e-05
-1.06578e-05 -1.66363e-05 -9.40247e-05
8.8348e-05 0.000154474 7.72684e-07
0.000154474 -0.000115338 -1.31557e-05
7.72684e-07 -1.31557e-05 -0.000421907
0.00244572 0.000623306 -3.63341e-06
0.000623306 0.000167269 -1.30532e-06
-3.63341e-06 -1.30532e-06 8.25065e-06
-0.000376186 -7.37929e-07 -3.62462e-06
-7.37929e-07 -0.000470068 -8.56653e-07
-3.62462e-06 -8.56653e-07 -0.000824673
0.00286296 0.000667565 1.81379e-05
0.000667565 0.00141304 -4.5796e-06
1.81379e-05 -4.5796e-06 0.00092354
-0.000332717 0.000353855 -1.60215e-05
0.000353855 -0.000686955 -5.13471e-06
-1.60215e-05 -5.13471e-06 -0.00110804
0.00247835 0.000838952 1.47512e-06
0.000838952 0.000370771 6.80548e-07
1.47512e-06 6.80548e-07 2.78542e-05
0.00246875 0.000799697 2.47803e-06
0.000799697 0.00021689 4.76061e-07
2.47803e-06 4.76061e-07 -1.63573e-05
0.00241541 0.0012243 7.27363e-06
0.0012243 0.000983196 9.27584e-06
7.27363e-06 9.27584e-06 0.000165773
0.00332292 0.00128162 -5.59246e-06
0.00128162 0.00117717 8.18065e-06
-5.59246e-06 8.18065e-06 0.000507126
0.00276212 0.000975424 3.21499e-06
0.000975424 0.000466506 3.09751e-06
3.21499e-06 3.09751e-06 5.889e-05
0.000788358 0.000176785 4.94622e-08
0.000176785 0.00029147 -1.41615e-08
4.94622e-08 -1.41615e-08 6.7543e-05
0.00105394 0.000303038 -3.77095e-06
0.000303038 0.000531657 -5.01697e-07
-3.77095e-06 -5.01697e-07 0.000132974
0.00153442 0.000896025 -6.55581e-09
0.000896025 0.00061328 -1.26893e-07
-6.55581e-09 -1.26893e-07 -6.89215e-05
0.000899985 0.000238094 9.03697e-08
0.000238094 5.34819e-05 -7.43053e-07
9.03697e-08 -7.43053e-07 -0.000256341
0.00146308 0.000619811 1.97428e-06
0.000619811 0.000212705 -5.95784e-06
1.97428e-06 -5.95784e-06 -0.000254402
0.00249885 0.000662926 -2.05329e-06
0.000662926 0.000110272 -1.09147e-06
-2.05329e-06 -1.09147e-06 -1.6328e-06
0.00256692 0.000919911 2.64467e-06
0.000919911 0.000346234 4.46533e-07
2.64467e-06 4.46533e-07 -6.21608e-06
0.00259832 0.000905852 1.04138e-06
0.000905852 0.000224828 1.03866e-06
1.04138e-06 1.03866e-06 -7.71717e-06
0.00218049 0.00132853 2.62595e-06
0.00132853 0.000831786 1.09925e-06
2.62595e-06 1.09925e-06 -1.02598e-05
0.0023905 0.00118148 -3.06143e-06
0.00118148 0.000449795 -3.38773e-06
-3.06143e-06 -3.38773e-06 -0.000152247
0.00196013 0.000482996 2.80245e-06
0.000482996 0.00110648 7.44741e-06
2.80245e-06 7.44741e-06 0.000762322
-0.000333923 0.000291179 3.05176e-08
0.000291179 -0.000387334 -1.82684e-06
3.05176e-08 -1.82684e-06 -0.000801965
0.00187055 0.00104472 8.96048e-06
0.00104472 0.000806831 -5.57868e-06
8.96048e-06 -5.57868e-06 8.83322e-05
-0.00237102 0.000472021 1.1053e-05
0.000472021 -0.0021505 -2.73207e-06
1.1053e-05 -2.73207e-06 -0.00259771
0.00324168 0.00110049 1.05287e-05
0.00110049 0.00127991 -6.96352e-06
1.05287e-05 -6.96352e-06 0.000670941
0.00266073 0.000780958 -3.14635e-06
0.000780958 5.64238e-05 -7.1079e-07
-3.14635e-06 -7.1079e-07 6.32903e-06
0.00260928 0.000982794 9.40945e-06
0.000982794 0.000300823 -2.92761e-06
9.40945e-06 -2.92761e-06 -8.41532e-05
0.0023293 0.000865862 6.97006e-06
0.000865862 -2.70952e-05 6.76322e-08
6.97006e-06 6.76322e-08 -0.000276537
0.0025788 0.00140531 2.32868e-05
0.00140531 0.000981034 2.9373e-06
2.32868e-05 2.9373e-06 0.000152072
0.00281799 0.00141979 9.5196e-06
0.00141979 0.000795484 -8.05825e-07
9.5196e-06 -8.05825e-07 7.61164e-05
0.000319046 9.22678e-05 6.90507e-06
9.22678e-05 -1.8669e-05 -1.19247e-05
6.90507e-06 -1.19247e-05 -0.00019585
0.000961178 0.000240887 -9.74648e-07
0.000240887 0.000468716 6.72863e-07
-9.74648e-07 6.72863e-07 0.000197655
-0.000363116 0.000124214 -7.25711e-06
0.000124214 -0.000385831 -2.2136e-05
-7.25711e-06 -2.2136e-05 -0.000574241
-0.00120957 -3.54568e-05 9.72814e-06
-3.54568e-05 -0.0009175 -2.82693e-06
9.72814e-06 -2.82693e-06 -0.00114053
0.000562393 0.000129816 -2.27836e-06
0.000129816 0.000229123 1.10187e-07
-2.27836e-06 1.10187e-07 2.8509e-05
-0.000135557 0.000108893 4.89959e-06
0.000108893 -0.000152202 8.84395e-07
4.89959e-06 8.84395e-07 -0.000407401
0.0011841 0.000274856 -5.04078e-06
0.000274856 0.000724406 -1.03705e-06
-5.04078e-06 -1.03705e-06 0.00047793
0.000229611 -5.82963e-06 -1.08876e-05
-5.82963e-06 6.30313e-05 6.04583e-06
-1.08876e-05 6.04583e-06 -0.000171273
0.000833456 0.000148462 -3.08355e-06
0.000148462 0.000370761 -2.60177e-06
-3.08355e-06 -2.60177e-06 0.000210146
0.000511464 0.000102974 1.46827e-06
0.000102974 0.000110424 2.36354e-06
1.46827e-06 2.36354e-06 4.23157e-06
0.000407728 4.41477e-05 -3.27438e-06
4.41477e-05 3.74613e-05 1.7158e-07
-3.27438e-06 1.7158e-07 -6.63225e-05
0.00144668 8.04405e-06 1.67395e-06
8.04405e-06 0.000679886 4.94853e-06
1.67395e-06 4.94853e-06 0.000647475
8.20938e-05 -8.25932e-05 9.83979e-06
-8.25932e-05 -0.000162388 -3.38945e-06
9.83979e-06 -3.38945e-06 -0.000282163
0.00153159 9.81359e-06 -1.58252e-05
9.81359e-06 0.000733495 -2.348e-06
-1.58252e-05 -2.348e-06 0.000698714
0.00076032 -7.85938e-06 5.00893e-05
-7.85938e-06 0.000217299 1.20016e-05
5.00893e-05 1.20016e-05 0.000216677
0.00165144 1.12859e-05 -2.29415e-05
1.12859e-05 0.00080807 -1.12703e-05
-2.29415e-05 -1.12703e-05 0.000769396
0.00073571 -2.83308e-05 2.60433e-05
-2.83308e-05 0.00020076 4.91357e-06
2.60433e-05 4.91357e-06 0.00019038
0.00369862 -0.000166007 1.37201e-05
-0.000166007 0.00218989 -6.60516e-06
1.37201e-05 -6.60516e-06 0.00216811
0.000416311 0.000110404 -3.64939e-06
0.000110404 5.14749e-05 -1.00225e-05
-3.64939e-06 -1.00225e-05 -4.95575e-05
0.000342216 -4.686e-05 -6.84941e-06
-4.686e-05 -5.25198e-05 -1.9699e-06
-6.84941e-06 -1.9699e-06 -0.000140153
0.00435245 0.000252605 -3.23001e-05
0.000252605 0.0026768 -1.5154e-05
-3.23001e-05 -1.5154e-05 0.0026278
0.000640743 -0.000150102 -1.38076e-05
-0.000150102 0.000133222 1.42453e-05
-1.38076e-05 1.42453e-05 4.60894e-05
0.0039542 0.000151991 -1.40976e-05
0.000151991 0.00239751 -2.93491e-09
-1.40976e-05 -2.93491e-09 0.00237464
0.00550344 5.75809e-05 -0.000235168
5.75809e-05 0.0034308 4.26672e-05
-0.000235168 4.26672e-05 0.00341638
0.00237721 0.000497269 -3.84036e-06
0.000497269 7.66932e-05 -6.28765e-07
-3.84036e-06 -6.28765e-07 -3.02424e-06
0.00220092 0.000245056 -4.43294e-06
0.000245056 -3.53678e-06 -5.26364e-07
-4.43294e-06 -5.26364e-07 -2.2498e-05
0.00236257 0.000356947 1.03359e-06
0.000356947 -6.39858e-05 8.37962e-07
1.03359e-06 8.37962e-07 -3.4509e-05
0.00226371 0.000170894 1.05103e-06
0.000170894 -7.22088e-05 4.37433e-07
1.05103e-06 4.37433e-07 -1.70326e-05
0.00213763 6.37922e-05 -3.42086e-06
6.37922e-05 -4.96488e-05 1.33205e-07
-3.42086e-06 1.33205e-07 -3.54027e-05
0.00230715 -5.04823e-06 -2.11096e-06
-5.04823e-06 0.000100735 1.50193e-07
-2.11096e-06 1.50193e-07 5.7712e-05
0.00215008 -1.22521e-05 2.7252e-07
-1.22521e-05 -3.25777e-05 -2.52694e-08
2.7252e-07 -2.52694e-08 -2.01987e-05
0.00230052 7.3148e-05 4.77159e-07
7.3148e-05 -3.47876e-05 1.947e-08
4.77159e-07 1.947e-08 2.26017e-05
0.00231017 0.000240862 -6.43575e-07
0.000240862 -4.26988e-05 -5.16973e-08
-6.43575e-07 -5.16973e-08 -9.94431e-06
0.00237667 0.000180942 6.29951e-07
0.000180942 -0.000103188 1.59204e-07
6.29951e-07 1.59204e-07 1.98784e-06
0.00246172 0.000509153 -2.85547e-07
0.000509153 2.21057e-05 2.70156e-08
-2.85547e-07 2.70156e-08 -3.97143e-06
0.00248525 0.000364041 1.88984e-06
0.000364041 -8.58802e-05 7.51531e-07
1.88984e-06 7.51531e-07 -1.66888e-05
0.00225652 -1.68231e-05 -1.37614e-06
-1.68231e-05 -6.04294e-05 6.82013e-08
-1.37614e-06 6.82013e-08 -5.17413e-06
0.0024215 9.06309e-05 -8.18149e-07
9.06309e-05 -9.68546e-05 -1.01459e-06
-8.18149e-07 -1.01459e-06 1.97467e-05
0.00248094 0.000252286 -4.55302e-07
0.000252286 -8.20223e-05 -4.25125e-07
-4.55302e-07 -4.25125e-07 2.67327e-05
0.00258976 0.000524331 -1.44086e-06
0.000524331 -8.83681e-05 1.36544e-07
-1.44086e-06 1.36544e-07 -1.08318e-05
0.00216897 -9.0549e-05 -5.12885e-06
-9.0549e-05 -9.96902e-06 4.23061e-07
-5.12885e-06 4.23061e-07 -9.03702e-06
0.00233198 -0.000273696 -3.82568e-06
-0.000273696 8.48634e-05 1.05866e-06
-3.82568e-06 1.05866e-06 5.85956e-05
0.0021952 -0.000163492 -2.21035e-08
-0.000163492 -7.07764e-05 -1.26939e-07
-2.21035e-08 -1.26939e-07 -2.68921e-05
0.0023479 -0.000411124 -1.83045e-06
-0.000411124 -3.71279e-05 -2.69655e-07
-1.83045e-06 -2.69655e-07 -2.80224e-05
0.00209668 -0.000910596 9.19056e-06
-0.000910596 0.00070442 -9.0587e-06
9.19056e-06 -9.0587e-06 5.17617e-05
0.00225911 -0.0011519 1.02617e-05
-0.0011519 0.000535905 -4.75907e-06
1.02617e-05 -4.75907e-06 -0.000156829
0.00258635 -0.00104574 -8.09637e-06
-0.00104574 0.000524703 -1.18966e-06
-8.09637e-06 -1.18966e-06 -4.11544e-06
0.00245842 -0.000649258 -2.76534e-06
-0.000649258 0.000134657 1.06627e-06
-2.76534e-06 1.06627e-06 2.07169e-05
0.00247178 -0.000559201 1.96619e-06
-0.000559201 -4.60118e-06 -8.67535e-07
1.96619e-06 -8.67535e-07 -8.55218e-06
0.00258019 -0.000826534 -3.98956e-06
-0.000826534 0.000150061 1.56859e-06
-3.98956e-06 1.56859e-06 1.71346e-05
0.00263128 -0.000916364 -2.30029e-06
-0.000916364 0.000492286 2.26325e-06
-2.30029e-06 2.26325e-06 0.00012224
0.00253492 -0.000926641 1.75081e-06
-0.000926641 0.000191097 4.46681e-07
1.75081e-06 4.46681e-07 -3.27201e-05
0.00218858 -0.0010006 -1.77671e-05
-0.0010006 0.000973574 -9.40637e-06
-1.77671e-05 -9.40637e-06 0.000232574
0.0011342 -0.000768619 1.49486e-05
-0.000768619 0.000424789 -1.36406e-05
1.49486e-05 -1.36406e-05 -0.00027719
0.00040942 -0.000383163 -1.75479e-05
-0.000383163 0.000125752 -7.92956e-06
-1.75479e-05 -7.92956e-06 -0.00038749
0.000350448 -0.000108567 -6.28914e-06
-0.000108567 -7.02514e-06 1.92277e-06
-6.28914e-06 1.92277e-06 -0.000271006
0.00444264 0.000177599 2.51426e-06
0.000177599 0.00268718 -3.03004e-07
2.51426e-06 -3.03004e-07 0.00233031
0.00225411 -0.000112398 2.25539e-07
-0.000112398 -5.89586e-05 -9.50737e-08
2.25539e-07 -9.50737e-08 -3.04955e-06
0.00233354 -0.000250962 1.91895e-06
-0.000250962 -6.24504e-05 1.44504e-08
1.91895e-06 1.44504e-08 -8.75131e-06
0.00251205 -0.000496777 -1.00682e-06
-0.000496777 -7.3359e-05 1.67356e-07
-1.00682e-06 1.67356e-07 -1.68329e-05
0.00244965 -0.00121369 -2.28919e-06
-0.00121369 0.000925545 -3.27869e-08
-2.28919e-06 -3.27869e-08 0.000147546
0.00192422 -0.0011547 5.07774e-06
-0.0011547 0.00034322 -8.29927e-08
5.07774e-06 -8.29927e-08 -0.000352745
0.00270351 -0.00110259 -1.30353e-06
-0.00110259 0.000590267 -7.16249e-07
-1.30353e-06 -7.16249e-07 5.61395e-05
0.00252596 -0.000679907 2.325e-07
-0.000679907 4.92121e-05 -3.69231e-07
2.325e-07 -3.69231e-07 -3.45781e-06
0.00261079 -0.000968909 5.53267e-06
-0.000968909 0.00035989 -3.21995e-06
5.53267e-06 -3.21995e-06 2.98189e-05
0.00273383 -0.000945561 -6.38552e-07
-0.000945561 0.000178994 -6.72906e-07
-6.38552e-07 -6.72906e-07 1.68793e-05
-0.000678425 -3.05958e-05 -1.5291e-06
-3.05958e-05 -0.000644071 -2.04049e-07
-1.5291e-06 -2.04049e-07 -0.000866774
0.00183563 -0.00103447 1.02508e-06
-0.00103447 0.000766209 3.4668e-07
1.02508e-06 3.4668e-07 -1.41037e-05
0.00194602 -0.000966235 -6.01944e-06
-0.000966235 0.000908988 2.62991e-06
-6.01944e-06 2.62991e-06 9.55301e-05
0.0018237 -0.000660702 1.77731e-06
-0.000660702 0.000983135 3.36526e-06
1.77731e-06 3.36526e-06 0.000358555
0.000580216 -0.000199494 -5.60892e-06
-0.000199494 2.75322e-05 5.50087e-07
-5.60892e-06 5.50087e-07 -0.000311813
0.00189323 -0.000142796 -4.19971e-06
-0.000142796 0.00101577 5.31386e-06
-4.19971e-06 5.31386e-06 0.000602424
0.0023577 -0.000145241 -1.42736e-06
-0.000145241 -0.000119852 6.60284e-07
-1.42736e-06 6.60284e-07 -1.78846e-05
0.00252753 -0.000330995 1.48459e-06
-0.000330995 -0.000143599 4.81371e-07
1.48459e-06 4.81371e-07 -3.93438e-06
0.00262946 -0.000627361 -3.92304e-07
-0.000627361 -6.00592e-05 7.17427e-07
-3.92304e-07 7.17427e-07 7.61868e-06
0.00266523 -0.000818978 -5.57291e-08
-0.000818978 1.75882e-05 1.3221e-06
-5.57291e-08 1.3221e-06 2.71349e-06
0.00273689 -0.0013277 -6.02188e-06
-0.0013277 0.00111857 4.41178e-06
-6.02188e-06 4.41178e-06 0.000296211
0.00271785 -0.00108808 -1.38941e-06
-0.00108808 0.000257395 -7.16862e-06
-1.38941e-06 -7.16862e-06 -2.94233e-05
0.00273505 -0.0013856 -4.60202e-05
-0.0013856 0.000841135 1.19072e-05
-4.60202e-05 1.19072e-05 7.6021e-05
0.0023728 -0.00113302 -3.20109e-05
-0.00113302 0.000398216 2.19409e-06
-3.20109e-05 2.19409e-06 -0.000136309
-0.000867807 -6.8716e-06 -1.46775e-06
-6.8716e-06 -0.000794934 -2.30887e-06
-1.46775e-06 -2.30887e-06 -0.000936851
0.001296 -0.000212844 -2.67778e-06
-0.000212844 0.000802536 5.92226e-06
-2.67778e-06 5.92226e-06 0.000404056
0.00308858 -0.000417471 -1.49013e-05
-0.000417471 0.00174568 1.00204e-05
-1.49013e-05 1.00204e-05 0.00137801
0.000360377 -0.000220136 -8.1326e-07
-0.000220136 5.09274e-06 -5.28755e-06
-8.1326e-07 -5.28755e-06 -0.000400863
0.00253227 -0.00113162 -7.80606e-06
-0.00113162 0.0012084 2.01549e-05
-7.80606e-06 2.01549e-05 0.000397248
0.00226537 -0.00100422 -5.9907e-06
-0.00100422 0.00113466 1.69775e-05
-5.9907e-06 1.69775e-05 0.000277295
0.000404002 0.000159267 2.06128e-06
0.000159267 4.60184e-05 -1.27651e-05
2.06128e-06 -1.27651e-05 -0.000177212
-0.000275834 0.000119376 4.80499e-07
0.000119376 -0.000347842 -3.83391e-06
4.80499e-07 -3.83391e-06 -0.000720451
0.00248869 0.000661521 -8.96899e-07
0.000661521 0.000117045 -4.88723e-07
-8.96899e-07 -4.88723e-07 3.37752e-06
0.000193375 0.000191259 -6.89383e-06
0.000191259 -0.000381028 2.1783e-06
-6.89383e-06 2.1783e-06 -0.000692848
0.00201452 0.000978393 5.53573e-06
0.000978393 0.000900794 -3.03076e-06
5.53573e-06 -3.03076e-06 0.000174884
0.000182938 0.000406065 -1.69676e-05
0.000406065 -0.000560221 -1.34383e-06
-1.69676e-05 -1.34383e-06 -0.000961092
0.0026103 0.000928322 3.76909e-06
0.000928322 0.000352844 -3.02537e-07
3.76909e-06 -3.02537e-07 -2.17994e-06
0.00264538 0.000911479 -3.48435e-06
0.000911479 0.00022518 8.51549e-08
-3.48435e-06 8.51549e-08 -2.96452e-06
0.00262902 0.00140791 -9.63123e-06
0.00140791 0.00107846 5.0127e-06
-9.63123e-06 5.0127e-06 0.00022148
0.00236935 0.00119681 -1.00132e-05
0.00119681 0.000487461 2.81097e-06
-1.00132e-05 2.81097e-06 -0.000132022
0.00069236 0.00030106 -3.20401e-07
0.00030106 0.00029106 -7.73545e-07
-3.20401e-07 -7.73545e-07 -4.53058e-05
0.00106873 0.000398676 -1.47373e-07
0.000398676 0.000500894 -3.27987e-06
-1.47373e-07 -3.27987e-06 7.44153e-05
0.00163708 0.000991754 -3.50726e-06
0.000991754 0.000669647 -4.45186e-07
-3.50726e-06 -4.45186e-07 -3.70291e-05
0.00122549 0.000538095 -2.74872e-06
0.000538095 8.83883e-05 1.25671e-07
-2.74872e-06 1.25671e-07 -0.000309527
0.0032945 0.00102889 5.51471e-07
0.00102889 0.00133751 1.76637e-06
5.51471e-07 1.76637e-06 0.000755941
0.00269992 0.000790876 -2.57393e-06
0.000790876 6.38512e-05 -3.96076e-07
-2.57393e-06 -3.96076e-07 8.44916e-06
0.00271473 0.000952562 2.85605e-06
0.000952562 0.000378222 -9.16172e-07
2.85605e-06 -9.16172e-07 1.5351e-05
0.00271651 0.000898905 5.75275e-07
0.000898905 0.000237724 2.88748e-06
5.75275e-07 2.88748e-06 -2.09532e-05
0.00245659 0.0014037 6.04467e-06
0.0014037 0.000895308 1.76243e-06
6.04467e-06 1.76243e-06 5.97719e-05
0.00271539 0.00148115 -5.86993e-06
0.00148115 0.000740206 1.28197e-06
-5.86993e-06 1.28197e-06 -1.89046e-05
-0.00173416 0.000119977 -9.44388e-06
0.000119977 -0.00128991 -5.98973e-06
-9.44388e-06 -5.98973e-06 -0.0015441
-0.00290794 0.000465383 -1.61596e-06
0.000465383 -0.00166724 -3.43643e-06
-1.61596e-06 -3.43643e-06 -0.00230421
0.00223549 0.001126 1.97324e-05
0.001126 0.000884449 -3.46838e-06
1.97324e-05 -3.46838e-06 0.000177697
0.00264849 0.000775408 5.63961e-06
0.000775408 0.000868824 -1.08062e-05
5.63961e-06 -1.08062e-05 0.000426041
0.00284957 0.000718429 7.96376e-07
0.000718429 -0.000199831 2.91758e-06
7.96376e-07 2.91758e-06 -1.51507e-05
0.00274575 0.00096331 6.54377e-06
0.00096331 8.86608e-05 2.99525e-07
6.54377e-06 2.99525e-07 -4.76098e-05
0.00296574 0.00123802 1.16454e-05
0.00123802 0.000549182 -5.03356e-06
1.16454e-05 -5.03356e-06 -1.81911e-05
0.00248691 0.00153239 8.71534e-06
0.00153239 0.000690825 -1.55565e-06
8.71534e-06 -1.55565e-06 -0.000175835
0.00165703 0.000285785 7.7259e-06
0.000285785 0.000968753 -1.78502e-06
7.7259e-06 -1.78502e-06 0.000661058
0.000249842 0.000233244 -5.01081e-06
0.000233244 5.6873e-05 1.55157e-06
-5.01081e-06 1.55157e-06 -0.000170997
-0.000230949 9.8062e-05 -1.38829e-06
9.8062e-05 -0.000219911 -9.10016e-06
-1.38829e-06 -9.10016e-06 -0.000361249
-0.000172748 3.74913e-05 4.95788e-06
3.74913e-05 -0.000277415 -3.29e-07
4.95788e-06 -3.29e-07 -0.000457248
-0.00242524 2.0942e-05 3.04935e-06
2.0942e-05 -0.0015723 -2.81825e-06
3.04935e-06 -2.81825e-06 -0.00184222
0.000762918 9.72639e-05 -1.27969e-06
9.72639e-05 0.000327472 -2.46207e-07
-1.27969e-06 -2.46207e-07 0.000163458
0.000663642 0.000255054 8.2004e-06
0.000255054 0.000422446 3.01013e-06
8.2004e-06 3.01013e-06 0.000178915
0.000696031 0.000100072 1.7516e-06
0.000100072 0.000406666 2.19119e-06
1.7516e-06 2.19119e-06 0.000135087
0.000982445 0.000186587 -8.44053e-06
0.000186587 0.000452532 -9.57545e-06
-8.44053e-06 -9.57545e-06 0.000332643
0.000582661 4.71084e-05 -7.43376e-06
4.71084e-05 0.00035075 2.52982e-06
-7.43376e-06 2.52982e-06 7.76786e-05
-0.000201477 8.15771e-05 -5.63601e-06
8.15771e-05 -0.000255734 2.77198e-06
-5.63601e-06 2.77198e-06 -0.000455671
0.000853633 0.000164224 1.07335e-06
0.000164224 0.000381648 1.01742e-06
1.07335e-06 1.01742e-06 0.000216209
0.000456636 0.000105748 2.67728e-06
0.000105748 8.22965e-05 3.62576e-06
2.67728e-06 3.62576e-06 -2.87887e-05
0.000411005 2.33651e-05 -2.01636e-06
2.33651e-05 4.01137e-05 -4.83912e-07
-2.01636e-06 -4.83912e-07 -6.20628e-05
0.00129114 2.9021e-05 6.98927e-07
2.9021e-05 0.000582733 3.33272e-06
6.98927e-07 3.33272e-06 0.00055203
0.000341369 -5.30316e-05 4.02421e-06
-5.30316e-05 -1.05474e-05 -1.98906e-06
4.02421e-06 -1.98906e-06 -0.000109766
0.0013953 1.14881e-05 -1.40788e-05
1.14881e-05 0.000649491 -2.07137e-06
-1.40788e-05 -2.07137e-06 0.000617602
0.000682086 -3.5418e-07 4.4893e-05
-3.5418e-07 0.000168338 1.14309e-05
4.4893e-05 1.14309e-05 0.000169486
0.00146647 -4.03118e-05 -1.39554e-05
-4.03118e-05 0.000694447 -9.58172e-06
-1.39554e-05 -9.58172e-06 0.000660133
0.000714886 -1.89802e-05 2.18448e-05
-1.89802e-05 0.000186008 4.44633e-06
2.18448e-05 4.44633e-06 0.000181208
0.000606844 -3.59758e-05 5.75128e-06
-3.59758e-05 0.000118249 -5.26795e-06
5.75128e-06 -5.26795e-06 0.000104171
0.000384817 1.90064e-05 3.41998e-06
1.90064e-05 -2.88262e-05 -1.02233e-05
3.41998e-06 -1.02233e-05 -8.20034e-05
0.000326812 2.64007e-05 -2.03545e-06
2.64007e-05 -4.51234e-05 4.96681e-07
-2.03545e-06 4.96681e-07 -0.000129145
0.00333132 0.000186055 -2.61853e-05
0.000186055 0.00196855 -1.34054e-05
-2.61853e-05 -1.34054e-05 0.00194092
-0.000733974 -7.81838e-05 -2.35154e-05
-7.81838e-05 -0.00075805 5.12696e-06
-2.35154e-05 5.12696e-06 -0.000846191
0.00454398 0.000166577 -2.82327e-05
0.000166577 0.00277034 -1.74174e-06
-2.82327e-05 -1.74174e-06 0.00274326
0.00361447 7.38372e-05 -0.000120722
7.38372e-05 0.00216089 2.4317e-05
-0.000120722 2.4317e-05 0.00215829
0.00246276 0.000511004 9.31355e-07
0.000511004 2.69765e-05 7.36871e-07
9.31355e-07 7.36871e-07 -1.93694e-06
0.00233323 0.000241607 -2.0664e-07
0.000241607 -2.14557e-05 3.6817e-09
-2.0664e-07 3.6817e-09 9.47262e-06
0.00249805 0.000367355 1.76607e-06
0.000367355 -7.75447e-05 1.94653e-06
1.76607e-06 1.94653e-06 1.66243e-06
0.00234895 0.000182988 1.72366e-06
0.000182988 -0.0001262 5.67841e-07
1.72366e-06 5.67841e-07 -1.08179e-05
0.00228224 7.54893e-05 4.70715e-07
7.54893e-05 -4.21019e-05 6.09023e-07
4.70715e-07 6.09023e-07 1.02732e-05
0.00216486 -1.46429e-05 -5.02956e-06
-1.46429e-05 -1.80317e-05 1.49959e-07
-5.02956e-06 1.49959e-07 -8.30989e-06
0.00226367 -1.63837e-05 7.03231e-07
-1.63837e-05 -5.46601e-05 -3.4995e-08
7.03231e-07 -3.4995e-08 2.14608e-06
0.00238555 9.58614e-05 4.46464e-07
9.58614e-05 -0.000115559 2.16243e-07
4.46464e-07 2.16243e-07 5.75684e-07
0.00247341 0.00025748 7.15303e-07
0.00025748 -9.01349e-05 3.34453e-08
7.15303e-07 3.34453e-08 1.88787e-05
0.0025929 0.000506837 5.35589e-07
0.000506837 -8.48993e-05 2.81041e-07
5.35589e-07 2.81041e-07 -1.70382e-06
0.00239052 -1.5785e-05 -2.20769e-06
-1.5785e-05 -0.000110444 -3.29378e-08
-2.20769e-06 -3.29378e-08 -9.67824e-07
0.00252894 0.000157601 -3.0389e-07
0.000157601 -0.000144361 -8.50254e-07
-3.0389e-07 -8.50254e-07 3.61399e-05
0.00271026 0.000356542 7.36656e-07
0.000356542 -0.000130929 -8.59326e-08
7.36656e-07 -8.59326e-08 3.29317e-05
0.00225008 -0.000120071 6.02172e-07
-0.000120071 -5.8645e-05 -6.26123e-07
6.02172e-07 -6.26123e-07 -4.19079e-06
0.00234575 -0.000251693 -7.00432e-07
-0.000251693 -5.57986e-05 -3.79329e-07
-7.00432e-07 -3.79329e-07 -3.74329e-06
0.00248729 -0.000489491 -1.98414e-07
-0.000489491 -7.03633e-05 -9.21505e-09
-1.98414e-07 -9.21505e-09 -2.55667e-05
0.00256517 -0.00121419 4.34945e-07
-0.00121419 0.0009956 -4.04042e-06
4.34945e-07 -4.04042e-06 0.000216924
0.00199299 -0.00114183 1.00074e-05
-0.00114183 0.000385642 -5.10881e-06
1.00074e-05 -5.10881e-06 -0.000302234
0.00256675 -0.00109453 3.1509e-06
-0.00109453 0.000503903 -9.90855e-07
3.1509e-06 -9.90855e-07 -3.15751e-05
0.00253994 -0.000672448 -8.95424e-07
-0.000672448 6.36691e-05 4.71122e-08
-8.95424e-07 4.71122e-08 9.45837e-06
0.00274921 -0.000933538 -3.97992e-07
-0.000933538 0.00021291 2.33382e-06
-3.97992e-07 2.33382e-06 5.86042e-05
0.00265994 -0.000990805 8.72832e-06
-0.000990805 0.000369402 -2.71153e-06
8.72832e-06 -2.71153e-06 3.6475e-05
0.00186671 -0.00103926 3.11523e-07
-0.00103926 0.000790879 -6.82941e-06
3.11523e-07 -6.82941e-06 1.09332e-05
0.00226623 -0.00103196 2.06958e-05
-0.00103196 0.00111742 -2.21981e-05
2.06958e-05 -2.21981e-05 0.0002792
0.00170116 -0.000812205 -6.87432e-06
-0.000812205 0.000981294 -6.13832e-06
-6.87432e-06 -6.13832e-06 0.000289832
-4.76121e-06 1.85189e-05 5.80659e-06
1.85189e-05 -0.000174304 -2.59787e-06
5.80659e-06 -2.59787e-06 -0.000413935
0.00268781 -0.000322125 8.84762e-06
-0.000322125 0.00137227 -1.47785e-06
8.84762e-06 -1.47785e-06 0.00104233
-0.000659275 0.000131399 8.09434e-06
0.000131399 -0.000676922 1.19517e-07
8.09434e-06 1.19517e-07 -0.00108424
0.00238881 -0.000136377 -4.00231e-07
-0.000136377 -9.79306e-05 1.51058e-07
-4.00231e-07 1.51058e-07 8.42562e-08
0.00251993 -0.000346159 1.25906e-07
-0.000346159 -0.000157646 -4.17806e-07
1.25906e-07 -4.17806e-07 -1.22649e-05
0.0026237 -0.000613083 -4.24961e-07
-0.000613083 -5.78946e-05 -2.30796e-07
-4.24961e-07 -2.30796e-07 9.07798e-06
0.00240313 -0.00127418 -2.7237e-06
-0.00127418 0.000908386 3.6231e-07
-2.7237e-06 3.6231e-07 0.00010188
0.00225033 -0.00130415 9.57306e-06
-0.00130415 0.000561506 -3.14109e-06
9.57306e-06 -3.14109e-06 -0.000177565
0.00255761 -0.00114709 -1.33061e-06
-0.00114709 0.000485804 -1.99583e-06
-1.33061e-06 -1.99583e-06 -3.96504e-05
0.0026653 -0.000832574 5.21987e-07
-0.000832574 1.41777e-05 -5.67071e-07
5.21987e-07 -5.67071e-07 -1.12796e-05
0.00276944 -0.00108062 2.27065e-06
-0.00108062 0.000302253 -1.55713e-06
2.27065e-06 -1.55713e-06 2.36516e-05
-0.000121829 2.84421e-05 -1.184e-08
2.84421e-05 -0.00029357 -5.18242e-06
-1.184e-08 -5.18242e-06 -0.000439628
0.000661879 -0.000172346 -2.66539e-06
-0.000172346 0.000367436 1.19426e-06
-2.66539e-06 1.19426e-06 -9.48398e-06
0.00188702 -0.00105261 -6.29135e-06
-0.00105261 0.000815721 1.4528e-07
-6.29135e-06 1.4528e-07 3.20991e-05
0.00142039 -0.000828388 7.05111e-07
-0.000828388 0.000670956 3.71888e-07
7.05111e-07 3.71888e-07 -0.000165152
0.00205148 -0.000315144 -2.76841e-06
-0.000315144 0.00104465 -6.4577e-06
-2.76841e-06 -6.4577e-06 0.000630111
0.000648133 -0.000278589 3.83712e-06
-0.000278589 0.000154676 -2.33626e-06
3.83712e-06 -2.33626e-06 -0.000213915
0.0024841 -0.000182167 1.6606e-06
-0.000182167 -0.00018867 9.64481e-07
1.6606e-06 9.64481e-07 -3.75703e-06
0.00275197 -0.000511341 2.72766e-06
-0.000511341 -0.000183987 5.78325e-07
2.72766e-06 5.78325e-07 3.39095e-05
0.00268269 -0.00077492 8.49926e-07
-0.00077492 -0.000101489 1.86719e-06
8.49926e-07 1.86719e-06 -3.34175e-05
0.0028875 -0.0010722 2.63348e-06
-0.0010722 0.000188713 -1.11917e-06
2.63348e-06 -1.11917e-06 4.23506e-05
0.00224028 -0.00131068 -5.68034e-06
-0.00131068 0.000834689 -4.00145e-06
-5.68034e-06 -4.00145e-06 4.45093e-05
0.00307994 -0.00136643 5.20927e-06
-0.00136643 0.000637867 -1.10883e-05
5.20927e-06 -1.10883e-05 0.000139808
0.00247076 -0.0014552 -5.64743e-05
-0.0014552 0.000661386 6.22859e-06
-5.64743e-05 6.22859e-06 -0.00012551
0.000433596 3.16692e-05 2.22713e-06
3.16692e-05 4.49001e-05 -5.39433e-06
2.22713e-06 -5.39433e-06 -6.12279e-05
0.00073691 -0.000189718 4.71601e-06
-0.000189718 0.000334248 -7.96204e-06
4.71601e-06 -7.96204e-06 0.000151341
-0.00130964 1.2613e-05 -7.37029e-06
1.2613e-05 -0.00093926 1.68296e-06
-7.37029e-06 1.68296e-06 -0.00120901
0.000726954 -0.000320128 -1.04136e-05
-0.000320128 0.000460905 1.59938e-05
-1.04136e-05 1.59938e-05 6.13788e-05
0.00428743 -6.4531e-05 -1.3184e-05
-6.4531e-05 0.00258247 -2.22583e-06
-1.3184e-05 -2.22583e-06 0.00226478
-7.18501e-05 -0.000313181 -6.24967e-06
-0.000313181 -0.000324883 -3.62889e-06
-6.24967e-06 -3.62889e-06 -0.000890754
0.00245436 -0.00121333 -2.65549e-05
-0.00121333 0.00107083 4.19808e-05
-2.65549e-05 4.19808e-05 0.000256859
0.00351469 -0.00118676 -3.30603e-05
-0.00118676 0.00196107 2.44252e-05
-3.30603e-05 2.44252e-05 0.000938814
0.000356644 0.000169036 7.55643e-06
0.000169036 3.75629e-05 -5.5237e-06
7.55643e-06 -5.5237e-06 -0.000266822
0.00209898 0.000533728 3.5839e-06
0.000533728 0.00114383 8.00204e-06
3.5839e-06 8.00204e-06 0.000703685
0.00274402 0.000802624 8.94016e-08
0.000802624 7.21677e-05 -6.31289e-07
8.94016e-08 -6.31289e-07 1.03667e-05
0.00253587 0.000428801 2.12951e-06
0.000428801 0.000795559 -3.48815e-08
2.12951e-06 -3.48815e-08 0.000442333
0.00140917 0.000942142 -4.01582e-06
0.000942142 0.0005362 -2.21045e-06
-4.01582e-06 -2.21045e-06 -0.000161555
0.0037804 0.00104398 -1.12232e-05
0.00104398 0.00165113 1.19571e-05
-1.12232e-05 1.19571e-05 0.00106885
0.00278689 0.000917115 -5.43055e-06
0.000917115 0.000434108 -7.89465e-07
-5.43055e-06 -7.89465e-07 9.53198e-05
0.00309668 0.000931891 -3.56127e-06
0.000931891 0.000497229 6.83648e-06
-3.56127e-06 6.83648e-06 0.000228975
0.00228801 0.00139587 -1.07365e-05
0.00139587 0.00078059 1.11118e-06
-1.07365e-05 1.11118e-06 -5.83912e-05
0.00251496 0.00153515 -1.80357e-05
0.00153515 0.00062428 -2.832e-07
-1.80357e-05 -2.832e-07 -0.000172114
-0.00117964 0.000197357 5.36945e-07
0.000197357 -0.000873141 2.013e-07
5.36945e-07 2.013e-07 -0.00119095
-0.000174937 0.000546681 4.83455e-06
0.000546681 -5.92213e-06 -1.2822e-06
4.83455e-06 -1.2822e-06 -0.000595302
0.00193573 0.00111866 6.93031e-07
0.00111866 0.000640406 -7.71125e-07
6.93031e-07 -7.71125e-07 -7.80991e-05
0.00293129 0.000808406 -8.21151e-06
0.000808406 0.00115153 -3.95147e-07
-8.21151e-06 -3.95147e-07 0.000680911
0.00278211 0.000680797 6.96192e-08
0.000680797 -0.000280907 1.44179e-07
6.96192e-08 1.44179e-07 -6.84809e-05
0.00292318 0.00097099 3.50396e-06
0.00097099 0.000198527 -9.72296e-07
3.50396e-06 -9.72296e-07 3.74315e-05
0.0027051 0.00118222 -4.51413e-06
0.00118222 0.000453619 -6.91201e-07
-4.51413e-06 -6.91201e-07 -9.26215e-05
0.00273616 0.00153228 1.40639e-06
0.00153228 0.000831197 6.31856e-07
1.40639e-06 6.31856e-07 -1.92779e-05
-0.00139784 3.22812e-06 -6.87774e-06
3.22812e-06 -0.000977352 -4.07737e-06
-6.87774e-06 -4.07737e-06 -0.00120277
0.00276133 0.000468627 1.2997e-06
0.000468627 -0.000325588 4.79363e-06
1.2997e-06 4.79363e-06 -6.24655e-05
0.00374262 0.000986551 -9.31294e-06
0.000986551 0.00242864 9.72955e-06
-9.31294e-06 9.72955e-06 0.00175091
0.00200665 0.00100531 7.0416e-06
0.00100531 0.000595589 -4.41615e-06
7.0416e-06 -4.41615e-06 -3.64991e-05
0.00291242 0.000956782 -2.33952e-05
0.000956782 -4.67728e-05 -1.45852e-05
-2.33952e-05 -1.45852e-05 4.15047e-05
0.00184254 0.00110619 8.20694e-06
0.00110619 -0.000174663 -1.26067e-05
8.20694e-06 -1.26067e-05 -0.000656601
0.00370833 0.00169186 5.19146e-06
0.00169186 0.00133671 3.48686e-06
5.19146e-06 3.48686e-06 0.000445466
0.000279013 0.00019641 3.91122e-06
0.00019641 0.000100079 9.17348e-06
3.91122e-06 9.17348e-06 -0.000152963
0.000468062 0.000168423 -3.96469e-06
0.000168423 0.000237579 -2.7628e-07
-3.96469e-06 -2.7628e-07 8.13998e-05
-0.00157152 1.43067e-05 -1.15536e-05
1.43067e-05 -0.00103743 1.7313e-06
-1.15536e-05 1.7313e-06 -0.00115183
1.53407e-05 2.37173e-06 3.67392e-06
2.37173e-06 -0.000178672 5.04065e-07
3.67392e-06 5.04065e-07 -0.000324852
0.000487982 0.000136681 6.27435e-06
0.000136681 0.000267086 -7.67673e-06
6.27435e-06 -7.67673e-06 -1.55345e-06
-0.000808169 0.000132172 -6.39498e-06
0.000132172 -0.000516577 4.79123e-06
-6.39498e-06 4.79123e-06 -0.000725071
0.000473145 4.04125e-05 -1.63352e-06
4.04125e-05 0.000126908 -3.97044e-07
-1.63352e-06 -3.97044e-07 -3.12558e-05
0.000250138 9.0518e-06 2.05603e-07
9.0518e-06 6.63427e-05 -9.01743e-07
2.05603e-07 -9.01743e-07 -0.000155092
6.24853e-05 0.000117865 -6.2489e-06
0.000117865 -7.00306e-05 3.9392e-06
-6.2489e-06 3.9392e-06 -0.000179855
0.000682216 0.000166805 2.66714e-06
0.000166805 0.000423673 -3.89892e-06
2.66714e-06 -3.89892e-06 0.000142565
0.00100206 0.000179516 -3.44179e-06
0.000179516 0.000526722 -4.41607e-06
-3.44179e-06 -4.41607e-06 0.000447908
-0.00015845 7.44184e-05 5.04381e-06
7.44184e-05 -0.000183752 -9.91473e-06
5.04381e-06 -9.91473e-06 -0.000335307
0.00088997 0.00010803 -6.54793e-06
0.00010803 0.000558325 6.74386e-06
-6.54793e-06 6.74386e-06 0.000277173
0.000612179 5.62353e-05 -5.45951e-06
5.62353e-05 0.000269406 2.03985e-06
-5.45951e-06 2.03985e-06 4.82652e-05
0.000501835 5.14592e-05 4.44772e-07
5.14592e-05 0.000124385 2.15321e-06
4.44772e-07 2.15321e-06 -2.91784e-05
0.000398862 -8.64698e-05 -2.36367e-06
-8.64698e-05 3.22265e-05 3.34294e-06
-2.36367e-06 3.34294e-06 -7.31738e-05
0.000419175 1.76606e-05 6.48856e-07
1.76606e-05 3.79565e-05 -4.42443e-07
6.48856e-07 -4.42443e-07 -6.13368e-05
0.00134389 3.41963e-05 4.29625e-06
3.41963e-05 0.000621937 4.13803e-06
4.29625e-06 4.13803e-06 0.000591816
0.000419624 1.66713e-05 2.537e-06
1.66713e-05 2.68036e-05 -2.10176e-06
2.537e-06 -2.10176e-06 -6.31005e-05
0.00140631 2.20683e-05 -1.35372e-05
2.20683e-05 0.000662267 -2.21121e-06
-1.35372e-05 -2.21121e-06 0.000630498
0.000821303 5.32755e-06 4.06837e-05
5.32755e-06 0.00026437 1.02563e-05
4.06837e-05 1.02563e-05 0.000265375
0.00135673 -2.38057e-05 -1.25252e-05
-2.38057e-05 0.000622392 -8.54788e-06
-1.25252e-05 -8.54788e-06 0.000593305
0.000744835 -1.05375e-05 1.81026e-05
-1.05375e-05 0.000205776 4.40381e-06
1.81026e-05 4.40381e-06 0.000203703
0.000768094 -2.81649e-05 4.20381e-06
-2.81649e-05 0.000217131 -3.98682e-06
4.20381e-06 -3.98682e-06 0.000210107
0.000459948 -3.43347e-05 -1.28433e-07
-3.43347e-05 4.66975e-05 -5.98745e-06
-1.28433e-07 -5.98745e-06 -5.15514e-05
0.000185366 3.50744e-05 -2.73411e-07
3.50744e-05 -0.00014093 -9.45143e-06
-2.73411e-07 -9.45143e-06 -0.000193282
0.000246471 3.17165e-05 1.84723e-06
3.17165e-05 -0.000107254 1.11735e-06
1.84723e-06 1.11735e-06 -0.000167732
0.00368482 0.000147782 1.19232e-06
0.000147782 0.00217947 -9.26357e-06
1.19232e-06 -9.26357e-06 0.00216392
-2.61278e-05 -7.62629e-06 -3.26282e-06
-7.62629e-06 -0.000289542 9.90005e-06
-3.26282e-06 9.90005e-06 -0.000369708
0.00420396 0.000221105 -1.58482e-05
0.000221105 0.00255701 -2.16678e-06
-1.58482e-05 -2.16678e-06 0.00252016
0.00457412 0.000154214 -6.89879e-05
0.000154214 0.00278997 9.85237e-06
-6.89879e-05 9.85237e-06 0.00276882
0.00259595 0.000490663 1.51598e-06
0.000490663 -8.03715e-05 5.37828e-07
1.51598e-06 5.37828e-07 7.97046e-06
0.00246439 0.000263632 -1.83077e-08
0.000263632 -9.83393e-05 5.69732e-07
-1.83077e-08 5.69732e-07 1.02742e-05
0.00234232 0.0001013 1.71156e-06
0.0001013 -0.000138807 7.48314e-07
1.71156e-06 7.48314e-07 -2.28728e-05
0.00226856 -1.61071e-05 1.05899e-07
-1.61071e-05 -5.07131e-05 -1.08866e-07
1.05899e-07 -1.08866e-07 7.46472e-06
0.00238244 -1.25659e-05 -5.99551e-07
-1.25659e-05 -0.000120072 -8.78698e-08
-5.99551e-07 -8.78698e-08 -6.31588e-06
0.00248854 0.000156794 8.55086e-07
0.000156794 -0.000170796 2.33257e-07
8.55086e-07 2.33257e-07 1.16792e-05
0.00262671 0.000372544 -6.54875e-07
0.000372544 -0.000163345 -5.56001e-08
-6.54875e-07 -5.56001e-08 -1.68422e-06
0.00245037 -1.20601e-05 8.96161e-07
-1.20601e-05 -0.000225311 -4.09217e-09
8.96161e-07 -4.09217e-09 -2.64598e-05
0.00276568 0.000193618 2.68261e-06
0.000193618 -0.000190922 -1.49265e-06
2.68261e-06 -1.49265e-06 4.65726e-05
0.00255182 0.000199044 -1.49168e-06
0.000199044 -0.000473622 1.0003e-05
-1.49168e-06 1.0003e-05 -0.000180392
0.00240956 -0.000128278 1.18521e-06
-0.000128278 -8.33264e-05 -6.68573e-07
1.18521e-06 -6.68573e-07 1.11456e-05
0.00251239 -0.000362116 -2.19791e-06
-0.000362116 -0.00017041 -1.79565e-07
-2.19791e-06 -1.79565e-07 -2.1022e-05
0.00260918 -0.00059881 6.77535e-07
-0.00059881 -5.89277e-05 3.60714e-07
6.77535e-07 3.60714e-07 5.31786e-06
0.00237597 -0.00127171 -2.30318e-06
-0.00127171 0.000873108 -2.89599e-06
-2.30318e-06 -2.89599e-06 6.78046e-05
0.001966 -0.00126829 2.87185e-05
-0.00126829 0.000392911 -5.81898e-06
2.87185e-05 -5.81898e-06 -0.000337952
0.00268728 -0.00116166 2.19503e-05
-0.00116166 0.000541092 -2.0528e-06
2.19503e-05 -2.0528e-06 2.16438e-05
0.00264796 -0.000843121 1.65696e-06
-0.000843121 5.98724e-06 -1.41177e-06
1.65696e-06 -1.41177e-06 -3.19838e-05
0.00281261 -0.00106696 5.17019e-06
-0.00106696 0.000350875 4.21773e-06
5.17019e-06 4.21773e-06 7.96001e-05
0.00218266 -0.00110008 5.27739e-06
-0.00110008 0.000995729 -2.21989e-05
5.27739e-06 -2.21989e-05 0.000192706
0.000130554 -0.000587986 1.22706e-05
-0.000587986 -4.96056e-05 -1.58836e-05
1.22706e-05 -1.58836e-05 -0.000872896
0.00293626 -0.000458017 3.96549e-06
-0.000458017 0.00158473 -8.15779e-07
3.96549e-06 -8.15779e-07 0.00117362
0.000670919 -8.32281e-05 -3.67262e-06
-8.32281e-05 0.000228737 9.02415e-06
-3.67262e-06 9.02415e-06 8.78895e-05
-0.000418995 -1.98459e-05 8.67281e-06
-1.98459e-05 -0.000368958 -7.69173e-06
8.67281e-06 -7.69173e-06 -0.000717595
-0.00104802 -0.000129442 5.93579e-06
-0.000129442 -0.000959136 -1.50723e-05
5.93579e-06 -1.50723e-05 -0.00133185
0.00249501 -0.000183583 4.4182e-08
-0.000183583 -0.000186697 -5.79919e-07
4.4182e-08 -5.79919e-07 1.64595e-06
0.000598631 -5.46282e-05 1.90939e-06
-5.46282e-05 0.000151044 4.08802e-07
1.90939e-06 4.08802e-07 3.84253e-05
0.000345364 -0.000120677 -3.56244e-06
-0.000120677 4.90693e-05 -1.43033e-07
-3.56244e-06 -1.43033e-07 -0.000110632
0.00269001 -0.000501183 -1.83259e-08
-0.000501183 -0.000205116 1.66651e-07
-1.83259e-08 1.66651e-07 -3.31859e-07
0.00269497 -0.000762279 -1.66993e-06
-0.000762279 -7.53981e-05 3.54124e-07
-1.66993e-06 3.54124e-07 -5.57258e-06
0.00247898 -0.00136488 7.53898e-07
-0.00136488 0.000974273 1.35558e-06
7.53898e-07 1.35558e-06 0.000154854
0.00301915 -0.00156054 1.06038e-05
-0.00156054 0.000948111 -2.72681e-06
1.06038e-05 -2.72681e-06 0.000136616
0.00286081 -0.00132632 3.69495e-06
-0.00132632 0.000532068 -8.2779e-07
3.69495e-06 -8.2779e-07 4.593e-05
0.00277973 -0.00106475 2.43674e-06
-0.00106475 0.000125308 -1.31928e-06
2.43674e-06 -1.31928e-06 -1.4811e-05
0.000129387 -4.98822e-05 -3.1115e-06
-4.98822e-05 -6.19503e-06 -2.12294e-06
-3.1115e-06 -2.12294e-06 -0.000275087
0.000783317 -0.000237865 -6.18274e-07
-0.000237865 0.000491446 4.95669e-07
-6.18274e-07 4.95669e-07 8.87358e-05
0.00167801 -0.00104213 1.56195e-05
-0.00104213 0.000679698 6.65623e-06
1.56195e-05 6.65623e-06 -9.88735e-05
0.00123552 -0.000827074 1.57978e-05
-0.000827074 0.000669033 -1.72804e-05
1.57978e-05 -1.72804e-05 -0.0003362
0.0009329 -0.000391603 -2.28154e-06
-0.000391603 0.000410657 4.21851e-07
-2.28154e-06 4.21851e-07 -0.000182732
0.00102967 -0.000210781 8.38763e-06
-0.000210781 0.000480366 -2.85512e-06
8.38763e-06 -2.85512e-06 0.000186822
0.00254884 -0.000220536 2.30715e-06
-0.000220536 -0.000432802 -2.14589e-06
2.30715e-06 -2.14589e-06 -0.000124028
0.00291664 -0.000676674 -1.2886e-06
-0.000676674 -0.000164625 4.34813e-06
-1.2886e-06 4.34813e-06 0.00010312
0.00311344 -0.00112485 -1.4671e-07
-0.00112485 0.000108853 -4.91689e-08
-1.4671e-07 -4.91689e-08 6.95267e-05
0.00260689 -0.00126215 3.99425e-06
-0.00126215 0.000164708 -7.60825e-06
3.99425e-06 -7.60825e-06 -0.000155795
0.000995264 -0.00121578 3.96425e-06
-0.00121578 0.000144886 -8.07303e-06
3.96425e-06 -8.07303e-06 -0.000647288
0.00376947 -0.00182882 2.67394e-06
-0.00182882 0.0011963 -1.35346e-05
2.67394e-06 -1.35346e-05 0.000362211
0.000354938 7.00669e-05 -3.68518e-06
7.00669e-05 3.69297e-05 -5.99126e-06
-3.68518e-06 -5.99126e-06 -0.000118137
-0.000739823 -9.25751e-05 4.93054e-06
-9.25751e-05 -0.000637827 -2.57067e-06
4.93054e-06 -2.57067e-06 -0.000812772
0.00176727 -0.000266227 -9.82959e-06
-0.000266227 0.000991979 1.47382e-05
-9.82959e-06 1.47382e-05 0.000782257
0.00031192 -8.49473e-05 -6.81726e-06
-8.49473e-05 0.000120057 1.76717e-05
-6.81726e-06 1.76717e-05 -0.000191619
0.00147893 -0.000367417 -1.39918e-05
-0.000367417 0.000908051 2.92048e-05
-1.39918e-05 2.92048e-05 0.000524367
-0.000731886 -9.95711e-05 -1.00529e-05
-9.95711e-05 -0.000668157 -1.82733e-05
-1.00529e-05 -1.82733e-05 -0.000909955
-0.00141963 -0.000371546 -2.46484e-05
-0.000371546 -0.000496708 1.1547e-05
-2.46484e-05 1.1547e-05 -0.00162869
0.00156169 -0.00137163 -6.49146e-05
-0.00137163 0.000371342 2.72188e-05
-6.49146e-05 2.72188e-05 -0.000287288
-0.000363937 0.000407198 2.47234e-06
0.000407198 -0.000247635 2.59978e-06
2.47234e-06 2.59978e-06 -0.000642362
0.00376281 0.000728022 -3.62238e-06
0.000728022 0.00237977 -2.04197e-06
-3.62238e-06 -2.04197e-06 0.00187406
0.00269082 0.000640276 -2.60649e-06
0.000640276 -0.000365489 -3.84209e-06
-2.60649e-06 -3.84209e-06 -0.000129112
0.00309045 0.000976838 -5.16856e-06
0.000976838 0.000305721 -3.58292e-07
-5.16856e-06 -3.58292e-07 0.000120325
0.00356471 0.000815597 -7.97191e-06
0.000815597 0.00161918 4.48264e-06
-7.97191e-06 4.48264e-06 0.00115533
0.00167158 0.00111663 -1.95613e-05
0.00111663 0.000419873 -3.999e-06
-1.95613e-05 -3.999e-06 -0.000312434
0.00249126 0.00113071 -6.27345e-06
0.00113071 0.000386155 3.48731e-06
-6.27345e-06 3.48731e-06 -0.000140649
0.00299166 0.00152578 -1.35057e-05
0.00152578 0.000972676 -7.90903e-07
-1.35057e-05 -7.90903e-07 0.000140226
0.000358966 0.000335997 2.65545e-06
0.000335997 0.000239248 5.56793e-07
2.65545e-06 5.56793e-07 -8.31874e-05
0.00272814 0.000460045 -4.11046e-06
0.000460045 -0.000347067 -4.72168e-06
-4.11046e-06 -4.72168e-06 -6.57609e-05
0.00205395 0.000713776 2.42677e-06
0.000713776 0.00139306 6.27575e-06
2.42677e-06 6.27575e-06 0.000810828
0.00162355 0.000935027 2.92929e-06
0.000935027 0.00041955 2.29373e-06
2.92929e-06 2.29373e-06 -0.000196743
0.00301059 0.000919739 2.85151e-07
0.000919739 6.3237e-05 5.83509e-07
2.85151e-07 5.83509e-07 0.000149914
0.00242566 0.00120081 -3.27015e-06
0.00120081 0.000175146 -6.64314e-06
-3.27015e-06 -6.64314e-06 -0.000321173
0.0032207 0.00157553 -1.91916e-06
0.00157553 0.00107765 -4.74154e-07
-1.91916e-06 -4.74154e-07 0.000224436
0.00174267 0.000553494 -1.06364e-05
0.000553494 0.00123344 -1.77431e-06
-1.06364e-05 -1.77431e-06 0.000781634
0.00464139 0.000975189 -0.000140833
0.000975189 0.000579776 -5.59606e-05
-0.000140833 -5.59606e-05 0.00107534
0.00114894 0.000748468 -9.16304e-06
0.000748468 0.000683596 1.78877e-05
-9.16304e-06 1.78877e-05 6.88664e-05
0.00150651 0.00103828 4.65834e-07
0.00103828 0.000375893 -1.1232e-05
4.65834e-07 -1.1232e-05 -0.000340645
0.0037669 0.0013329 -5.1983e-05
0.0013329 0.000776941 -2.62522e-05
-5.1983e-05 -2.62522e-05 0.00051001
0.00183201 0.0013556 -3.34494e-05
0.0013556 0.000290086 -7.40652e-06
-3.34494e-05 -7.40652e-06 -0.000466705
0.00126106 0.00210081 -4.75016e-06
0.00210081 -0.00346797 -7.78288e-05
-4.75016e-06 -7.78288e-05 -0.00148918
0.00111483 0.000283652 1.23324e-05
0.000283652 0.000704511 1.39189e-05
1.23324e-05 1.39189e-05 0.000520318
0.00021921 0.000176853 -2.98858e-06
0.000176853 0.000142781 -7.7721e-07
-2.98858e-06 -7.7721e-07 -9.03768e-06
-0.000824975 8.1794e-05 -7.68214e-06
8.1794e-05 -0.000513392 4.06436e-06
-7.68214e-06 4.06436e-06 -0.000660747
0.00028765 -6.35224e-05 3.88192e-06
-6.35224e-05 6.22963e-06 -1.22601e-06
3.88192e-06 -1.22601e-06 -0.000152773
-0.000386992 1.37581e-05 4.77446e-06
1.37581e-05 -0.000343907 -3.98776e-06
4.77446e-06 -3.98776e-06 -0.000564861
0.00193658 0.000348274 6.92552e-07
0.000348274 0.0012606 -9.81655e-06
6.92552e-07 -9.81655e-06 0.000951216
-0.00154294 1.17854e-05 -6.81367e-06
1.17854e-05 -0.00103807 1.08798e-05
-6.81367e-06 1.08798e-05 -0.00113977
0.000451665 -4.20921e-06 -1.90587e-07
-4.20921e-06 0.000106755 -4.22898e-07
-1.90587e-07 -4.22898e-07 -5.64403e-05
0.000358718 9.63891e-05 5.64863e-07
9.63891e-05 6.48158e-05 -5.62102e-07
5.64863e-07 -5.62102e-07 -0.000120093
-0.00020464 0.000114182 1.47531e-06
0.000114182 -0.000206146 3.43608e-06
1.47531e-06 3.43608e-06 -0.000261995
3.37704e-05 8.94993e-05 7.45801e-07
8.94993e-05 -2.66035e-05 7.49993e-08
7.45801e-07 7.49993e-08 -0.000283213
0.000353309 9.59477e-05 4.26605e-07
9.59477e-05 0.000141021 7.38543e-07
4.26605e-07 7.38543e-07 -2.20313e-05
0.000242039 0.000118421 1.22838e-05
0.000118421 0.000179471 -1.05405e-05
1.22838e-05 -1.05405e-05 4.17571e-05
0.000863431 0.000164402 -5.63687e-06
0.000164402 0.000509368 6.87762e-06
-5.63687e-06 6.87762e-06 0.000267631
0.000811291 0.000131779 -4.58033e-06
0.000131779 0.000436083 2.81436e-06
-4.58033e-06 2.81436e-06 0.000206073
0.000771889 0.000146302 -7.58279e-06
0.000146302 0.000350487 -3.32249e-06
-7.58279e-06 -3.32249e-06 0.000149661
8.17569e-05 3.39067e-06 -2.89449e-06
3.39067e-06 -0.000163701 6.67011e-08
-2.89449e-06 6.67011e-08 -0.000310058
0.00158818 -0.000218168 7.63713e-06
-0.000218168 0.00102075 -1.02185e-05
7.63713e-06 -1.02185e-05 0.000696924
0.000127576 -7.57661e-05 -2.76449e-06
-7.57661e-05 -0.000109726 3.23171e-06
-2.76449e-06 3.23171e-06 -0.000278532
0.000287531 2.04041e-06 -2.74206e-06
2.04041e-06 -3.3513e-05 2.79587e-06
-2.74206e-06 2.79587e-06 -0.000140554
0.0003918 5.11914e-05 2.34807e-06
5.11914e-05 3.41627e-05 -9.46342e-08
2.34807e-06 -9.46342e-08 -7.44852e-05
0.000292987 1.96979e-05 -3.41857e-06
1.96979e-05 -6.27482e-05 5.54754e-06
-3.41857e-06 5.54754e-06 -9.94066e-05
0.000276796 -2.13045e-06 -7.42579e-07
-2.13045e-06 -4.34019e-05 -3.75155e-06
-7.42579e-07 -3.75155e-06 -0.00015074
0.000829854 1.81491e-05 -5.3078e-06
1.81491e-05 0.000287238 -1.58994e-06
-5.3078e-06 -1.58994e-06 0.000253896
0.00275531 1.02895e-05 3.64462e-05
1.02895e-05 0.00153988 6.81749e-06
3.64462e-05 6.81749e-06 0.00155097
0.00142504 6.97113e-05 -2.27735e-05
6.97113e-05 0.000680416 -8.66534e-06
-2.27735e-05 -8.66534e-06 0.000646687
0.000759322 -1.8063e-06 1.71757e-05
-1.8063e-06 0.000218844 4.2371e-06
1.71757e-05 4.2371e-06 0.000218384
0.00078921 -1.7865e-05 3.33989e-06
-1.7865e-05 0.000230829 -3.45432e-06
3.33989e-06 -3.45432e-06 0.000227377
0.000259653 9.48707e-06 -3.35273e-06
9.48707e-06 -6.26982e-05 -6.91282e-06
-3.35273e-06 -6.91282e-06 -0.000158615
0.000608067 -6.76684e-05 4.00131e-07
-6.76684e-05 0.000158018 -6.01141e-07
4.00131e-07 -6.01141e-07 4.90139e-05
0.00031299 2.71988e-05 -8.71026e-07
2.71988e-05 -6.84105e-05 -7.17024e-06
-8.71026e-07 -7.17024e-06 -0.000108794
0.000947731 4.52586e-05 -8.90573e-09
4.52586e-05 0.000355285 1.11219e-07
-8.90573e-09 1.11219e-07 0.000307505
0.00311507 0.000116014 -1.09182e-05
0.000116014 0.00179566 -8.75452e-06
-1.09182e-05 -8.75452e-06 0.00178878
0.000517723 3.72717e-05 5.09104e-07
3.72717e-05 7.97517e-05 1.08726e-05
5.09104e-07 1.08726e-05 1.55143e-05
0.00311889 0.000146874 -2.48933e-06
0.000146874 0.0018101 -1.38961e-07
-2.48933e-06 -1.38961e-07 0.00179455
0.00447089 0.000150427 -2.91736e-05
0.000150427 0.00270872 9.81753e-06
-2.91736e-05 9.81753e-06 0.00268504
0.00255274 0.000387303 -1.18253e-06
0.000387303 -0.000194461 -6.57442e-07
-1.18253e-06 -6.57442e-07 -3.27126e-05
0.00244216 0.000156072 1.1502e-08
0.000156072 -0.000204459 7.43937e-07
1.1502e-08 7.43937e-07 -1.85272e-05
0.00238877 -9.1168e-06 1.64404e-06
-9.1168e-06 -0.000120153 4.99696e-08
1.64404e-06 4.99696e-08 -2.3699e-06
0.00243255 -3.66813e-06 -3.09092e-08
-3.66813e-06 -0.000237563 -1.06061e-08
-3.09092e-08 -1.06061e-08 -3.73233e-05
0.00274595 0.000207752 1.17485e-06
0.000207752 -0.000190988 2.01747e-07
1.17485e-06 2.01747e-07 4.67804e-05
0.00272673 0.000167862 5.37081e-06
0.000167862 -0.000359467 -2.74219e-06
5.37081e-06 -2.74219e-06 -7.72647e-05
0.00287909 5.61856e-05 3.09289e-06
5.61856e-05 -0.000258151 1.61016e-06
3.09289e-06 1.61016e-06 4.78546e-05
0.00677433 0.00232535 2.00607e-05
0.00232535 -0.00153679 2.22351e-05
2.00607e-05 2.22351e-05 0.000794627
0.00286904 0.000207427 -7.37979e-05
0.000207427 -0.000373838 1.53425e-05
-7.37979e-05 1.53425e-05 0.000158924
0.000360272 0.000122486 -4.58991e-06
0.000122486 4.47522e-05 -2.88887e-06
-4.58991e-06 -2.88887e-06 -0.000104079
0.00250493 -0.000183456 -1.22384e-06
-0.000183456 -0.00018835 -5.11251e-07
-1.22384e-06 -5.11251e-07 4.64828e-06
0.00263152 -0.000489373 -3.1071e-06
-0.000489373 -0.000224633 -8.9512e-07
-3.1071e-06 -8.9512e-07 -3.15404e-05
0.00271973 -0.000746772 1.42155e-06
-0.000746772 -4.18568e-05 -1.55942e-06
1.42155e-06 -1.55942e-06 3.25442e-05
0.00210064 -0.00132223 -9.25881e-06
-0.00132223 0.000764722 1.07113e-06
-9.25881e-06 1.07113e-06 -4.77734e-05
0.00239764 -0.00144613 2.7649e-05
-0.00144613 0.000591965 2.47298e-06
2.7649e-05 2.47298e-06 -0.000178584
0.00267454 -0.00129266 -4.93477e-06
-0.00129266 0.000446653 1.04055e-05
-4.93477e-06 1.04055e-05 -3.08546e-05
0.00269195 -0.00106434 1.7259e-06
-0.00106434 6.64068e-05 -1.35862e-06
1.7259e-06 -1.35862e-06 -6.80902e-05
0.00238568 -0.00110092 4.5563e-05
-0.00110092 0.0010542 -5.58374e-05
4.5563e-05 -5.58374e-05 0.000304251
0.00219958 -0.00100304 3.89444e-05
-0.00100304 0.00115884 -4.63937e-05
3.89444e-05 -4.63937e-05 0.000187467
1.07371e-05 -0.000373974 1.82535e-05
-0.000373974 -8.46569e-05 7.89666e-06
1.82535e-05 7.89666e-06 -0.00073114
0.000453861 -2.87133e-05 -1.22436e-07
-2.87133e-05 5.21771e-05 6.50091e-06
-1.22436e-07 6.50091e-06 -6.5524e-05
0.0010887 -0.000254184 -2.9597e-06
-0.000254184 0.000522142 1.07545e-06
-2.9597e-06 1.07545e-06 0.000211826
0.00155603 -0.000187609 9.72978e-06
-0.000187609 0.00098374 -3.81835e-06
9.72978e-06 -3.81835e-06 0.000671697
-6.11121e-05 -0.000126837 6.53162e-06
-0.000126837 -9.96754e-05 -1.53183e-05
6.53162e-06 -1.53183e-05 -0.000472125
0.000344407 -9.91483e-05 -7.18851e-06
-9.91483e-05 5.61903e-05 5.47734e-06
-7.18851e-06 5.47734e-06 -0.000109669
0.00266292 -0.000242496 -9.57075e-07
-0.000242496 -0.000356915 -1.28065e-06
-9.57075e-07 -1.28065e-06 -4.86835e-05
0.000520437 6.53561e-05 1.09891e-06
6.53561e-05 0.000162976 -2.39495e-06
1.09891e-06 -2.39495e-06 -4.13875e-06
0.000724928 -0.000193359 2.17774e-06
-0.000193359 0.000399348 2.81687e-06
2.17774e-06 2.81687e-06 0.000163586
0.000749549 -0.000160238 9.9705e-06
-0.000160238 0.000319987 9.0602e-07
9.9705e-06 9.0602e-07 0.000137489
0.002754 -0.000675112 2.63771e-06
-0.000675112 -0.000281747 -6.07287e-07
2.63771e-06 -6.07287e-07 -2.52701e-05
0.00301556 -0.00109298 -8.68453e-07
-0.00109298 7.6427e-05 -1.80634e-07
-8.68453e-07 -1.80634e-07 5.00417e-05
0.00216574 -0.00130742 -3.55834e-06
-0.00130742 0.000775999 2.09792e-06
-3.55834e-06 2.09792e-06 2.41195e-05
0.00261246 -0.00165247 1.1741e-05
-0.00165247 0.000557873 -8.87838e-07
1.1741e-05 -8.87838e-07 -0.000224037
0.00283101 -0.00130578 4.69611e-07
-0.00130578 0.00029752 3.48998e-07
4.69611e-07 3.48998e-07 -4.62894e-05
0.000216488 -9.0954e-05 -1.31222e-06
-9.0954e-05 5.1683e-05 -9.20929e-07
-1.31222e-06 -9.20929e-07 -0.00025051
0.00155748 -0.000340684 8.62009e-06
-0.000340684 0.000974459 -7.19133e-07
8.62009e-06 -7.19133e-07 0.000590156
0.00334171 -0.00165381 -3.81659e-06
-0.00165381 0.00141645 1.03491e-05
-3.81659e-06 1.03491e-05 0.000559612
0.00188201 -0.000666167 -3.24598e-06
-0.000666167 0.00112353 8.89365e-06
-3.24598e-06 8.89365e-06 0.000254099
0.00196515 -0.000230109 1.19582e-05
-0.000230109 0.00102527 1.14501e-05
1.19582e-05 1.14501e-05 0.000738808
0.00296966 -0.000472047 -2.35371e-05
-0.000472047 -0.000305919 4.75424e-06
-2.35371e-05 4.75424e-06 7.64287e-05
0.00264488 -0.000794651 -2.41221e-05
-0.000794651 -0.000357096 1.20479e-05
-2.41221e-05 1.20479e-05 3.49227e-06
0.00307543 -0.00133526 -5.0504e-06
-0.00133526 0.000286172 -7.01731e-06
-5.0504e-06 -7.01731e-06 1.56256e-05
0.00340224 -0.00160817 1.12107e-05
-0.00160817 0.000885081 -7.29422e-06
1.12107e-05 -7.29422e-06 0.000283816
0.00165965 -0.00147617 6.21752e-06
-0.00147617 0.000298198 5.4376e-06
6.21752e-06 5.4376e-06 -0.000478683
0.000696375 -2.30809e-06 -2.63835e-06
-2.30809e-06 0.000296487 1.8264e-06
-2.63835e-06 1.8264e-06 0.000139623
-0.000528105 -7.74284e-05 -6.54156e-06
-7.74284e-05 -0.000542367 2.0089e-05
-6.54156e-06 2.0089e-05 -0.000749162
0.000295805 -0.000233416 -6.62028e-06
-0.000233416 8.84891e-05 5.35829e-06
-6.62028e-06 5.35829e-06 -0.000108723
0.0020444 -0.000454379 -5.1996e-05
-0.000454379 0.00123948 5.09029e-05
-5.1996e-05 5.09029e-05 0.000874233
0.00134402 -0.000281842 4.43614e-06
-0.000281842 0.000773175 2.55928e-05
4.43614e-06 2.55928e-05 0.000483176
-0.000852904 -0.000136676 -9.78974e-06
-0.000136676 -0.000152938 1.35977e-06
-9.78974e-06 1.35977e-06 -0.000853729
0.0025692 -0.00177079 -2.415e-05
-0.00177079 0.00129633 -1.61952e-05
-2.415e-05 -1.61952e-05 0.000268436
0.00288619 0.000766838 7.47003e-06
0.000766838 0.00186314 3.75703e-06
7.47003e-06 3.75703e-06 0.00145663
-0.000726879 0.000313958 -5.6716e-07
0.000313958 -0.000300687 -3.53746e-06
-5.6716e-07 -3.53746e-06 -0.000779395
0.00268695 0.000445117 1.44247e-05
0.000445117 -0.000385959 3.14326e-06
1.44247e-05 3.14326e-06 -7.35294e-05
0.00311993 0.000884365 2.21062e-05
0.000884365 0.000169282 1.37134e-05
2.21062e-05 1.37134e-05 0.000260991
0.00299316 0.00129182 4.4694e-06
0.00129182 0.000514934 4.96074e-06
4.4694e-06 4.96074e-06 6.24587e-06
0.00141353 0.000887106 -6.39987e-06
0.000887106 0.00035861 1.89282e-06
-6.39987e-06 1.89282e-06 -0.000246032
0.00271374 0.00146189 3.09672e-06
0.00146189 0.000811208 6.95009e-06
3.09672e-06 6.95009e-06 -4.79389e-06
0.00279915 0.000619618 -4.98521e-07
0.000619618 0.00189083 -7.11457e-07
-4.98521e-07 -7.11457e-07 0.00145512
0.00327336 0.000770235 2.08339e-05
0.000770235 -0.000204347 6.47241e-06
2.08339e-05 6.47241e-06 0.000399898
0.00113576 0.000686091 -6.97709e-06
0.000686091 0.00061207 7.50773e-06
-6.97709e-06 7.50773e-06 6.04157e-05
0.00218615 0.00116365 3.82891e-06
0.00116365 0.000797601 -2.3791e-06
3.82891e-06 -2.3791e-06 3.15064e-05
0.00313504 0.00122676 -3.65696e-06
0.00122676 0.000478819 -4.10231e-06
-3.65696e-06 -4.10231e-06 0.000264224
0.0026383 0.00148488 -4.47163e-06
0.00148488 0.000730236 8.3342e-06
-4.47163e-06 8.3342e-06 -6.44373e-05
0.00301974 0.00255159 5.70709e-05
0.00255159 -0.00281294 6.56763e-06
5.70709e-05 6.56763e-06 -0.000997658
0.00029257 0.000415016 2.12403e-06
0.000415016 0.00045677 4.49023e-06
2.12403e-06 4.49023e-06 -9.28913e-05
0.00462211 0.00162347 -0.000141927
0.00162347 0.000643374 -5.93195e-05
-0.000141927 -5.93195e-05 0.000776402
0.000156804 0.000695202 -1.9488e-05
0.000695202 -0.000221177 8.49058e-06
-1.9488e-05 8.49058e-06 -0.00079776
0.00134745 0.00119065 -6.8987e-06
0.00119065 0.000241632 -2.53763e-05
-6.8987e-06 -2.53763e-05 -0.000519967
0.00360326 0.00174581 -6.02747e-05
0.00174581 0.000958588 -3.35114e-05
-6.02747e-05 -3.35114e-05 0.000356155
0.015849 0.0011419 -0.000948157
0.0011419 -0.000958545 -7.5448e-05
-0.000948157 -7.5448e-05 0.00115721
0.0027149 0.00391774 -0.000207973
0.00391774 -0.00563594 -0.000193993
-0.000207973 -0.000193993 -0.000509767
0.000673418 0.00292518 3.22831e-05
0.00292518 -0.00181405 -1.04107e-05
3.22831e-05 -1.04107e-05 -0.00151628
0.00643353 -0.00772214 0.0040257
-0.00772214 0.00517286 -0.000284943
0.0040257 -0.000284943 -0.00391936
0.0372503 -0.0196373 -0.000203131
-0.0196373 0.0263248 -1.40604e-05
-0.000203131 -1.40604e-05 0.0101042
0.00272968 0.000351594 1.71222e-05
0.000351594 0.00175772 6.11255e-06
1.71222e-05 6.11255e-06 0.00156786
0.000487751 0.000159613 1.81176e-06
0.000159613 0.000360817 2.16991e-06
1.81176e-06 2.16991e-06 0.000174285
0.00028503 0.000233732 1.04041e-05
0.000233732 0.000309392 -2.911e-06
1.04041e-05 -2.911e-06 5.82469e-05
0.00054648 -5.90544e-05 2.32017e-06
-5.90544e-05 0.000181334 -6.26542e-07
2.32017e-06 -6.26542e-07 9.83652e-06
0.000599489 8.92785e-05 6.2895e-06
8.92785e-05 0.000246721 -2.79095e-06
6.2895e-06 -2.79095e-06 5.64609e-05
0.000194815 -3.15402e-05 3.88423e-06
-3.15402e-05 7.10098e-05 -6.36867e-06
3.88423e-06 -6.36867e-06 -0.000181805
0.000765589 0.000131934 6.8054e-06
0.000131934 0.000390383 3.66555e-06
6.8054e-06 3.66555e-06 0.000222778
-0.000298027 0.000108265 8.24092e-06
0.000108265 -0.000242449 1.05008e-05
8.24092e-06 1.05008e-05 -0.000277547
0.000688812 0.000149193 -2.91365e-06
0.000149193 0.000403102 1.96258e-06
-2.91365e-06 1.96258e-06 0.000149854
0.000367716 -4.74153e-06 4.50444e-07
-4.74153e-06 3.50073e-05 6.11948e-07
4.50444e-07 6.11948e-07 -0.000122942
0.000775154 8.67451e-05 -9.84441e-07
8.67451e-05 0.000356331 2.72993e-07
-9.84441e-07 2.72993e-07 0.000154283
0.000152515 0.0001191 -1.90189e-06
0.0001191 9.46315e-05 -5.08486e-06
-1.90189e-06 -5.08486e-06 -2.79245e-05
0.00035441 9.82983e-05 1.22579e-06
9.82983e-05 0.000179308 3.36184e-07
1.22579e-06 3.36184e-07 -4.65031e-05
0.00144499 0.000201032 -2.27168e-06
0.000201032 0.00092934 9.96923e-06
-2.27168e-06 9.96923e-06 0.000653977
0.00024195 9.63261e-05 1.57719e-06
9.63261e-05 0.000223647 -2.5231e-06
1.57719e-06 -2.5231e-06 -3.50315e-05
0.000720795 0.000112068 -1.03204e-06
0.000112068 0.000413172 5.17924e-10
-1.03204e-06 5.17924e-10 0.000176974
0.000265445 1.05574e-05 -3.95733e-06
1.05574e-05 -1.31678e-05 -4.34978e-06
-3.95733e-06 -4.34978e-06 -0.000196919
2.11373e-05 -4.81241e-05 -1.69836e-06
-4.81241e-05 -0.000193934 -1.32048e-06
-1.69836e-06 -1.32048e-06 -0.000352277
-0.000267684 -2.55892e-05 2.3375e-06
-2.55892e-05 -0.000321738 -5.4549e-06
2.3375e-06 -5.4549e-06 -0.00051285
0.00127205 -0.000152898 1.33286e-05
-0.000152898 0.000751284 6.48212e-06
1.33286e-05 6.48212e-06 0.000531986
0.000937176 -0.000117315 1.48852e-06
-0.000117315 0.000581636 -5.10476e-06
1.48852e-06 -5.10476e-06 0.000310733
0.00112927 -0.00023115 3.05525e-06
-0.00023115 0.000659168 9.90871e-07
3.05525e-06 9.90871e-07 0.000389201
0.000374727 -0.000145617 -4.06023e-06
-0.000145617 8.53528e-05 -3.03924e-06
-4.06023e-06 -3.03924e-06 -0.000100925
-0.000366274 -5.26711e-05 -1.01139e-06
-5.26711e-05 -0.00042846 1.86411e-06
-1.01139e-06 1.86411e-06 -0.000599955
0.000458479 -8.74469e-05 -2.65201e-06
-8.74469e-05 6.44715e-05 2.48203e-06
-2.65201e-06 2.48203e-06 -3.36476e-05
0.000465685 -5.66673e-05 2.83623e-06
-5.66673e-05 8.12407e-05 6.66772e-08
2.83623e-06 6.66772e-08 -2.71642e-05
0.000319428 4.0283e-06 5.18325e-06
4.0283e-06 -4.2345e-05 7.42728e-06
5.18325e-06 7.42728e-06 -7.95985e-05
0.000446529 7.66977e-05 -1.58558e-06
7.66977e-05 6.02824e-05 -3.95931e-06
-1.58558e-06 -3.95931e-06 -4.21619e-05
0.000306026 3.16428e-05 5.28956e-07
3.16428e-05 -5.48366e-05 1.88867e-07
5.28956e-07 1.88867e-07 -9.1004e-05
0.00270944 1.73456e-05 2.31792e-05
1.73456e-05 0.00151058 6.40751e-06
2.31792e-05 6.40751e-06 0.00152061
0.000343497 7.96264e-05 -6.53567e-06
7.96264e-05 -2.52694e-05 -9.05053e-06
-6.53567e-06 -9.05053e-06 -6.76332e-05
0.00170873 2.25384e-06 -1.39303e-05
2.25384e-06 0.000847606 -1.01986e-07
-1.39303e-05 -1.01986e-07 0.000852076
0.000766208 -7.84317e-06 2.20065e-06
-7.84317e-06 0.000216355 -2.28322e-06
2.20065e-06 -2.28322e-06 0.000215543
0.000388527 2.36975e-05 -2.36159e-07
2.36975e-05 -7.22771e-07 -3.96109e-06
-2.36159e-07 -3.96109e-06 -7.18678e-05
0.000428574 -5.49949e-05 1.45776e-06
-5.49949e-05 4.63096e-05 1.15954e-07
1.45776e-06 1.15954e-07 -5.09533e-05
0.000367728 -6.95306e-07 2.24726e-06
-6.95306e-07 -3.7631e-05 -6.46201e-06
2.24726e-06 -6.46201e-06 -6.81466e-05
0.000542932 -8.72594e-05 -1.25865e-06
-8.72594e-05 0.000115104 3.19369e-06
-1.25865e-06 3.19369e-06 3.48672e-06
0.000928312 3.8832e-05 8.43223e-07
3.8832e-05 0.00033896 -1.03366e-06
8.43223e-07 -1.03366e-06 0.000300082
0.00282586 8.19162e-05 -5.61986e-06
8.19162e-05 0.00159344 -7.48995e-06
-5.61986e-06 -7.48995e-06 0.00159486
0.000274181 2.6929e-05 -1.57506e-06
2.6929e-05 -9.78514e-05 8.82187e-06
-1.57506e-06 8.82187e-06 -0.000147594
0.00341508 0.000130797 -4.47597e-06
0.000130797 0.00200105 1.80668e-06
-4.47597e-06 1.80668e-06 0.00199088
0.00368213 0.000173215 3.31509e-05
0.000173215 0.00219374 1.43455e-05
3.31509e-05 1.43455e-05 0.00217173
0.00271359 0.000224113 -2.85434e-06
0.000224113 -0.000198429 -7.89794e-07
-2.85434e-06 -7.89794e-07 3.92307e-05
0.00242453 2.02616e-06 -5.73918e-07
2.02616e-06 -0.000238354 -2.86656e-07
-5.73918e-07 -2.86656e-07 -3.75003e-05
0.00296192 0.000134265 3.93778e-06
0.000134265 -0.00018663 -2.26997e-06
3.93778e-06 -2.26997e-06 6.70844e-05
0.00272688 0.00174959 0.00016306
0.00174959 -0.00368677 6.40621e-05
0.00016306 6.40621e-05 -0.00124766
0.00286253 1.67376e-05 -1.96461e-06
1.67376e-05 -0.000264368 3.22983e-07
-1.96461e-06 3.22983e-07 4.54268e-05
0.00290908 0.000166828 9.89361e-07
0.000166828 -0.000320765 -3.59378e-06
9.89361e-07 -3.59378e-06 0.000147475
0.0031512 -0.000107672 -5.06787e-05
-0.000107672 3.09111e-06 6.11023e-07
-5.06787e-05 6.11023e-07 0.000344823
0.00333148 0.00148157 -0.000235497
0.00148157 -0.00383426 9.94654e-06
-0.000235497 9.94654e-06 -0.000558513
0.00419117 0.000578007 0.000138346
0.000578007 -0.00169125 6.65884e-05
0.000138346 6.65884e-05 -0.000175028
0.00036144 8.38338e-05 9.84468e-07
8.38338e-05 4.41478e-05 -3.65591e-06
9.84468e-07 -3.65591e-06 -9.71139e-05
0.000548392 -3.97732e-05 2.22369e-07
-3.97732e-05 0.00018342 -2.25652e-07
2.22369e-07 -2.25652e-07 2.21684e-05
0.000373671 -0.000121737 -6.0589e-07
-0.000121737 8.28056e-05 4.0511e-06
-6.0589e-07 4.0511e-06 -6.887e-05
0.000405065 -9.57759e-05 -7.0289e-08
-9.57759e-05 9.70949e-05 4.39865e-07
-7.0289e-08 4.39865e-07 -7.49461e-05
0.00279006 -0.000265451 -3.63513e-06
-0.000265451 -0.000272106 3.74262e-06
-3.63513e-06 3.74262e-06 3.65055e-05
0.00271608 -0.000677227 -4.09519e-07
-0.000677227 -0.000298861 -2.31853e-06
-4.09519e-07 -2.31853e-06 -6.51546e-05
0.00290459 -0.00106288 -2.23887e-06
-0.00106288 3.23716e-05 -2.5996e-07
-2.23887e-06 -2.5996e-07 1.89847e-05
0.00309799 -0.00143915 1.44474e-05
-0.00143915 0.00132535 4.93363e-06
1.44474e-05 4.93363e-06 0.000534461
0.00280441 -0.0017359 -2.08415e-05
-0.0017359 0.00063833 1.76283e-05
-2.08415e-05 1.76283e-05 -0.000158339
0.00299187 -0.00133597 1.10499e-06
-0.00133597 0.000397638 3.39854e-06
1.10499e-06 3.39854e-06 3.71266e-05
0.000278203 -0.00119652 2.693e-05
-0.00119652 -0.000211394 -2.21915e-05
2.693e-05 -2.21915e-05 -0.00111935
0.00392007 -0.000745263 3.41181e-05
-0.000745263 0.00212457 -1.61449e-05
3.41181e-05 -1.61449e-05 0.00145058
-0.00072474 -0.000229726 1.45126e-05
-0.000229726 -0.000727155 7.75406e-06
1.45126e-05 7.75406e-06 -0.00102138
0.00167661 -0.000119195 9.27316e-06
-0.000119195 0.00100244 2.36822e-06
9.27316e-06 2.36822e-06 0.000778055
-0.000846995 -2.26756e-05 -1.54725e-05
-2.26756e-05 -0.00052367 -2.08928e-05
-1.54725e-05 -2.08928e-05 -0.000908589
0.000404637 -6.77608e-05 2.31872e-06
-6.77608e-05 0.000155983 -1.41908e-05
2.31872e-06 -1.41908e-05 -0.000130202
0.000532471 -3.51838e-05 8.01475e-07
-3.51838e-05 0.000179696 4.58621e-06
8.01475e-07 4.58621e-06 4.25538e-06
0.000614793 -0.000133185 -1.01463e-05
-0.000133185 0.000241074 4.3935e-06
-1.01463e-05 4.3935e-06 6.36191e-05
0.00287688 -0.000464124 4.17117e-06
-0.000464124 -0.000371325 5.71624e-08
4.17117e-06 5.71624e-08 3.44908e-05
0.000169839 -5.88754e-05 -1.73293e-06
-5.88754e-05 -4.78462e-05 5.32247e-06
-1.73293e-06 5.32247e-06 -0.00020722
0.000454619 -0.000156775 4.80687e-06
-0.000156775 0.000122296 -4.94856e-06
4.80687e-06 -4.94856e-06 -0.000109214
-0.000343493 -9.28844e-05 1.73343e-05
-9.28844e-05 -0.000263915 -6.17423e-06
1.73343e-05 -6.17423e-06 -0.000412737
0.00267331 -0.000842049 1.52879e-06
-0.000842049 -0.000343566 -9.94984e-07
1.52879e-06 -9.94984e-07 -3.74724e-05
0.00299599 -0.00132021 1.53008e-06
-0.00132021 0.00023574 -2.03029e-06
1.53008e-06 -2.03029e-06 -2.58585e-05
0.00205034 -0.00159589 -1.07899e-05
-0.00159589 0.000494709 3.04362e-07
-1.07899e-05 3.04362e-07 -0.000301221
0.00324731 -0.00164479 -3.91764e-06
-0.00164479 0.000775431 -5.57004e-07
-3.91764e-06 -5.57004e-07 0.000152611
0.0018233 -0.000317885 2.31068e-05
-0.000317885 0.00110446 -9.33132e-06
2.31068e-05 -9.33132e-06 0.00073538
-0.00162929 -5.22897e-05 1.34777e-05
-5.22897e-05 -0.00104578 1.58494e-06
1.34777e-05 1.58494e-06 -0.00139511
0.000938771 -0.00148518 1.73376e-07
-0.00148518 0.00051833 1.53068e-06
1.73376e-07 1.53068e-06 -0.000515797
0.00154795 -0.000592116 -1.9906e-05
-0.000592116 0.000871254 1.47048e-06
-1.9906e-05 1.47048e-06 0.000269822
0.0039934 -0.000703916 -8.5771e-05
-0.000703916 0.00037104 2.88908e-05
-8.5771e-05 2.88908e-05 0.000754121
0.00304948 -0.00117988 -4.29494e-05
-0.00117988 4.38358e-05 2.27481e-05
-4.29494e-05 2.27481e-05 0.000166418
0.00324838 -0.00150188 9.29146e-06
-0.00150188 0.000820792 -2.10692e-05
9.29146e-06 -2.10692e-05 0.000226447
0.00354579 -0.00194027 -4.71187e-06
-0.00194027 0.0011082 1.52044e-05
-4.71187e-06 1.52044e-05 0.000405482
9.85088e-05 -0.00021948 2.83472e-06
-0.00021948 0.000140375 -1.68068e-05
2.83472e-06 -1.68068e-05 -0.000101152
0.000819969 -0.000395883 -1.61182e-05
-0.000395883 0.000398569 2.76518e-05
-1.61182e-05 2.76518e-05 4.87122e-05
0.000849723 -0.000359224 -2.48951e-05
-0.000359224 0.000713336 6.97054e-05
-2.48951e-05 6.97054e-05 0.000325961
-0.000790591 -0.000924499 8.79961e-06
-0.000924499 0.000191165 -4.40294e-05
8.79961e-06 -4.40294e-05 -0.000913633
0.00756945 -0.000584153 1.7536e-05
-0.000584153 -0.00708062 3.58859e-05
1.7536e-05 3.58859e-05 -0.00767288
0.00409151 0.000608301 1.65806e-05
0.000608301 0.00267492 -3.99487e-06
1.65806e-05 -3.99487e-06 0.0022491
0.00017617 0.00052898 -1.84197e-06
0.00052898 1.37132e-05 -9.91379e-06
-1.84197e-06 -9.91379e-06 -0.000488759
0.00172614 0.000599549 8.88143e-05
0.000599549 -0.00114244 3.95587e-05
8.88143e-05 3.95587e-05 -0.000421391
0.00234863 0.00110508 3.09141e-05
0.00110508 9.3501e-05 1.44979e-05
3.09141e-05 1.44979e-05 -5.97965e-05
0.00298585 0.00153947 1.37651e-05
0.00153947 0.000921268 1.82542e-05
1.37651e-05 1.82542e-05 0.000107922
0.00264302 0.00125607 1.46577e-05
0.00125607 0.00108076 1.49408e-05
1.46577e-05 1.49408e-05 0.000272201
0.00390536 0.00291723 0.000131165
0.00291723 -0.00267943 6.90564e-05
0.000131165 6.90564e-05 -0.0010699
0.00105048 0.000448079 2.66236e-06
0.000448079 0.000849534 -6.64896e-06
2.66236e-06 -6.64896e-06 0.000371605
0.00320543 0.00141822 -7.17967e-06
0.00141822 -0.000177715 4.13322e-06
-7.17967e-06 4.13322e-06 0.000126589
0.00110072 0.00084316 -1.17258e-05
0.00084316 0.000366427 9.19601e-06
-1.17258e-05 9.19601e-06 -0.000260616
0.00234823 0.0013707 2.09994e-06
0.0013707 0.00080962 -9.91053e-06
2.09994e-06 -9.91053e-06 3.15499e-07
0.00384487 0.00170498 -1.31555e-05
0.00170498 0.00114307 -1.07308e-06
-1.31555e-05 -1.07308e-06 0.000531245
0.00407806 0.000509394 -0.000268029
0.000509394 -0.00983935 -0.000189382
-0.000268029 -0.000189382 -0.00863077
0.00670678 0.00430418 -0.00022173
0.00430418 -0.00308336 -0.000116757
-0.00022173 -0.000116757 0.000930919
0.00117825 0.00283673 -2.04031e-05
0.00283673 -0.00147578 -8.7192e-06
-2.04031e-05 -8.7192e-06 -0.00125128
0.0138419 -0.0052754 0.00108459
-0.0052754 0.00840803 0.000206616
0.00108459 0.000206616 0.00171147
0.037215 -0.0228771 -0.000443486
-0.0228771 0.0261032 -0.000543437
-0.000443486 -0.000543437 0.00864658
-0.000249609 0.000377439 1.3022e-07
0.000377439 -0.000168257 -4.54382e-06
1.3022e-07 -4.54382e-06 -0.000575797
0.00222415 -0.00240178 0.00249773
-0.00240178 0.00454829 -8.46986e-05
0.00249773 -8.46986e-05 0.000830372
0.0150254 -0.0124555 0.000281187
-0.0124555 0.017237 -0.000257081
0.000281187 -0.000257081 0.00122777
0.00437398 0.00250727 -9.29487e-05
0.00250727 0.000762754 -3.41205e-05
-9.29487e-05 -3.41205e-05 0.000255387
0.00140603 0.000943653 -3.79711e-05
0.000943653 0.000445852 -5.82252e-06
-3.79711e-05 -5.82252e-06 -0.000179488
0.00220892 0.00143697 -5.99766e-05
0.00143697 0.000701002 -5.22601e-05
-5.99766e-05 -5.22601e-05 -4.16382e-05
-0.000329375 0.00263852 0.000173296
0.00263852 -0.00145529 0.000141318
0.000173296 0.000141318 -0.00152766
0.0162045 0.00663743 0.00033444
0.00663743 -0.00316977 -1.63079e-05
0.00033444 -1.63079e-05 0.000856344
0.00695352 0.00653819 -0.000183789
0.00653819 -0.00149557 -0.000206833
-0.000183789 -0.000206833 0.000887014
0.028604 -0.0107648 0.00133652
-0.0107648 0.014722 3.49641e-05
0.00133652 3.49641e-05 0.00313013
0.0238202 -0.00252131 -0.000929085
-0.00252131 0.0125867 0.000851184
-0.000929085 0.000851184 0.00599973
0.00104892 0.000176549 1.05355e-05
0.000176549 0.000748764 -6.78045e-07
1.05355e-05 -6.78045e-07 0.000543268
0.000394455 0.000242286 2.28506e-06
0.000242286 0.000394064 8.56043e-07
2.28506e-06 8.56043e-07 0.000135078
0.00145526 0.000473818 7.73294e-06
0.000473818 0.00106053 -9.09425e-06
7.73294e-06 -9.09425e-06 0.00066213
0.000479511 4.51276e-06 3.69602e-06
4.51276e-06 0.000133434 1.2471e-06
3.69602e-06 1.2471e-06 -4.27231e-05
0.000333096 0.000108167 5.71368e-06
0.000108167 3.79214e-05 1.3621e-06
5.71368e-06 1.3621e-06 -0.000143073
3.46671e-05 3.5388e-05 4.74565e-06
3.5388e-05 -5.63057e-05 9.84231e-07
4.74565e-06 9.84231e-07 -0.000270093
0.000521963 0.000116401 -3.06491e-06
0.000116401 0.00030542 -3.90329e-06
-3.06491e-06 -3.90329e-06 7.20937e-05
8.06263e-05 0.000114533 -5.60756e-06
0.000114533 2.18872e-05 3.29758e-06
-5.60756e-06 3.29758e-06 -8.75997e-05
0.000293013 1.71601e-05 -1.36102e-07
1.71601e-05 -2.87762e-07 8.96057e-07
-1.36102e-07 8.96057e-07 -0.000170504
0.000923612 0.000115243 2.90063e-06
0.000115243 0.000578325 2.15014e-06
2.90063e-06 2.15014e-06 0.000322796
0.000273528 7.12845e-05 -3.55957e-07
7.12845e-05 0.000106158 -2.96232e-06
-3.55957e-07 -2.96232e-06 -0.000122654
0.000639406 8.49222e-05 1.20794e-06
8.49222e-05 0.000278011 7.26803e-08
1.20794e-06 7.26803e-08 6.22914e-05
0.000228212 9.14879e-05 -2.22508e-06
9.14879e-05 0.000223665 -2.08239e-06
-2.22508e-06 -2.08239e-06 -3.3815e-05
0.000590669 7.76605e-05 -2.75604e-07
7.76605e-05 0.000385192 6.84461e-06
-2.75604e-07 6.84461e-06 0.000152989
-0.000655708 2.42059e-05 2.6573e-06
2.42059e-05 -0.000119436 -4.28235e-06
2.6573e-06 -4.28235e-06 -0.000545169
6.64092e-05 -8.62193e-05 -4.93547e-06
-8.62193e-05 -3.28277e-05 1.96742e-06
-4.93547e-06 1.96742e-06 -0.000273983
0.000316335 -5.54594e-05 -6.22732e-06
-5.54594e-05 4.82163e-05 -7.30574e-06
-6.22732e-06 -7.30574e-06 -0.000154495
0.000728645 -1.72453e-05 7.03024e-07
-1.72453e-05 0.000365023 -5.37391e-06
7.03024e-07 -5.37391e-06 0.0001427
0.000490811 -0.000150547 -1.02774e-06
-0.000150547 0.000251979 3.54838e-06
-1.02774e-06 3.54838e-06 5.70992e-05
-0.000437503 0.000149434 -1.19249e-05
0.000149434 -0.000393795 6.69768e-07
-1.19249e-05 6.69768e-07 -0.000542886
0.000423788 -0.000232384 1.104e-05
-0.000232384 0.000104704 2.98919e-06
1.104e-05 2.98919e-06 -2.70225e-05
0.00116489 -9.60726e-05 -4.61979e-06
-9.60726e-05 0.000768458 1.04575e-05
-4.61979e-06 1.04575e-05 0.00059379
-0.000722386 -2.36152e-05 2.44083e-06
-2.36152e-05 -0.000491632 -8.94117e-06
2.44083e-06 -8.94117e-06 -0.000787389
-0.000695929 -1.6822e-05 -1.77551e-06
-1.6822e-05 -0.000494335 -9.43633e-06
-1.77551e-06 -9.43633e-06 -0.000718202
0.000827392 -0.000257831 -5.67762e-07
-0.000257831 0.000511616 9.90421e-07
-5.67762e-07 9.90421e-07 0.00023239
-0.000152515 -2.22527e-05 -1.75037e-06
-2.22527e-05 -0.000220204 -1.9095e-06
-1.75037e-06 -1.9095e-06 -0.000426123
0.000729869 -0.000262891 -2.33088e-06
-0.000262891 0.000352628 -3.15902e-07
-2.33088e-06 -3.15902e-07 0.000116566
0.000814354 -0.000171113 2.25722e-06
-0.000171113 0.000381189 -6.93157e-08
2.25722e-06 -6.93157e-08 0.000187538
0.00078148 -8.77657e-05 -1.31606e-06
-8.77657e-05 0.000277751 1.93032e-06
-1.31606e-06 1.93032e-06 0.000176571
0.000220712 2.26535e-05 1.33341e-06
2.26535e-05 -6.79695e-06 -1.99845e-07
1.33341e-06 -1.99845e-07 -0.00020869
0.000455987 -9.47013e-06 3.13781e-06
-9.47013e-06 7.71717e-05 1.28032e-07
3.13781e-06 1.28032e-07 -2.86723e-05
0.00139604 -4.30111e-05 -1.92305e-05
-4.30111e-05 0.0006561 7.47621e-06
-1.92305e-05 7.47621e-06 0.000628949
0.000432486 9.83141e-05 -1.92152e-06
9.83141e-05 6.53501e-05 -2.41863e-06
-1.92152e-06 -2.41863e-06 -4.24548e-05
0.000809308 -3.39328e-05 -7.1882e-06
-3.39328e-05 0.000281315 8.84058e-07
-7.1882e-06 8.84058e-07 0.000246104
0.000836853 -6.73758e-06 -1.84561e-05
-6.73758e-06 0.000273936 5.09629e-06
-1.84561e-05 5.09629e-06 0.000276332
0.000272101 -5.68409e-05 7.05938e-06
-5.68409e-05 -7.58662e-05 -6.22139e-06
7.05938e-06 -6.22139e-06 -0.00011225
0.00270806 2.65564e-06 2.12344e-05
2.65564e-06 0.00150962 6.22317e-08
2.12344e-05 6.22317e-08 0.0015195
0.000842719 1.10382e-05 -2.09909e-05
1.10382e-05 0.00027972 -6.08432e-06
-2.09909e-05 -6.08432e-06 0.000279471
0.000580334 8.30718e-05 2.72471e-06
8.30718e-05 0.000205904 -3.76926e-06
2.72471e-06 -3.76926e-06 4.77233e-05
0.000338082 7.55e-05 -1.82699e-06
7.55e-05 -9.90415e-06 -5.12953e-06
-1.82699e-06 -5.12953e-06 -9.09573e-05
0.00041966 3.09663e-06 2.82106e-06
3.09663e-06 4.15938e-05 2.35443e-07
2.82106e-06 2.35443e-07 -4.37071e-05
0.000339822 1.31812e-05 1.09525e-06
1.31812e-05 -5.68932e-05 -5.33718e-06
1.09525e-06 -5.33718e-06 -8.14066e-05
0.000611448 -0.000109539 -2.19322e-06
-0.000109539 0.000184274 5.85668e-06
-2.19322e-06 5.85668e-06 7.53639e-05
0.000414032 5.07059e-06 1.52352e-06
5.07059e-06 -7.80165e-06 -1.00102e-06
1.52352e-06 -1.00102e-06 -3.88274e-05
0.00258465 5.36872e-05 -2.6741e-06
5.36872e-05 0.00142764 -6.4944e-06
-2.6741e-06 -6.4944e-06 0.00143483
0.00156626 5.28549e-05 2.85518e-06
5.28549e-05 0.000764943 4.90954e-06
2.85518e-06 4.90954e-06 0.000724759
0.00174263 6.26441e-05 -2.43232e-06
6.26441e-05 0.000880674 2.42488e-06
-2.43232e-06 2.42488e-06 0.000875961
0.000496324 5.22163e-05 1.41657e-05
5.22163e-05 6.52356e-05 1.66167e-05
1.41657e-05 1.66167e-05 4.85393e-05
8.51289e-05 0.00136945 0.000180463
0.00136945 -0.00520372 3.89944e-05
0.000180463 3.89944e-05 -0.00252521
0.00279321 -1.99206e-05 -2.30436e-06
-1.99206e-05 -0.000303198 -2.00175e-06
-2.30436e-06 -2.00175e-06 9.04655e-06
0.00289647 0.000126995 6.53071e-05
0.000126995 -0.000268998 -1.11784e-05
6.53071e-05 -1.11784e-05 0.000126669
0.00574888 0.00169101 -0.000120123
0.00169101 -0.00360401 -4.68894e-05
-0.000120123 -4.68894e-05 0.000798765
0.00375827 0.00030764 0.000137485
0.00030764 -0.0022482 -1.23166e-05
0.000137485 -1.23166e-05 -0.00043391
0.00320148 -0.000129566 -1.16016e-07
-0.000129566 4.85571e-05 2.77803e-06
-1.16016e-07 2.77803e-06 0.000361723
0.0064861 -0.00106013 -9.81235e-05
-0.00106013 0.000258893 -3.38039e-05
-9.81235e-05 -3.38039e-05 0.00163229
0.00495382 -0.000785303 -0.000150955
-0.000785303 -0.00363051 -5.72791e-05
-0.000150955 -5.72791e-05 0.000217261
0.0190349 -0.00162073 6.22168e-05
-0.00162073 -0.000687727 -0.000154605
6.22168e-05 -0.000154605 0.000740382
0.0256837 0.0118283 0.00271452
0.0118283 0.0125574 4.52538e-05
0.00271452 4.52538e-05 0.00244022
0.0480086 0.0178567 0.000199418
0.0178567 0.0307393 0.000283065
0.000199418 0.000283065 0.0146985
-0.000152627 -9.62752e-05 6.41557e-06
-9.62752e-05 -0.000260075 4.40897e-07
6.41557e-06 4.40897e-07 -0.0004112
0.000562263 -3.58835e-05 2.28171e-06
-3.58835e-05 0.000192598 -3.73738e-09
2.28171e-06 -3.73738e-09 4.12547e-05
0.000846646 -0.000156592 -9.67959e-07
-0.000156592 0.000407791 4.09354e-06
-9.67959e-07 4.09354e-06 0.000226645
0.000559683 -0.00010447 6.25896e-06
-0.00010447 0.00019049 -8.4563e-07
6.25896e-06 -8.4563e-07 4.77941e-05
0.00067318 0.000137991 -2.26737e-06
0.000137991 0.000356531 -6.62681e-06
-2.26737e-06 -6.62681e-06 0.000189097
0.000908067 0.000197916 7.87781e-07
0.000197916 0.000457933 2.08223e-06
7.87781e-07 2.08223e-06 0.000266462
0.000462758 2.30706e-05 4.33534e-06
2.30706e-05 0.000136802 -3.9879e-06
4.33534e-06 -3.9879e-06 -5.19605e-05
0.000465558 -1.16748e-05 -7.43225e-07
-1.16748e-05 0.00012816 5.94721e-07
-7.43225e-07 5.94721e-07 -3.67005e-05
0.00278131 -0.000461061 2.04229e-05
-0.000461061 -0.00042733 -5.59176e-06
2.04229e-05 -5.59176e-06 -1.63508e-05
0.00258891 -0.000891043 2.22982e-05
-0.000891043 -0.000426058 -9.88586e-06
2.22982e-05 -9.88586e-06 -0.000164388
0.00294328 -0.00130957 -9.88787e-07
-0.00130957 0.000197998 7.81252e-06
-9.88787e-07 7.81252e-06 -5.41922e-05
0.00277783 -0.00166279 7.4056e-06
-0.00166279 0.000860457 7.14147e-06
7.4056e-06 7.14147e-06 0.000107769
0.00330115 -0.00168734 -2.71812e-05
-0.00168734 0.000802095 1.72107e-05
-2.71812e-05 1.72107e-05 0.000139712
0.000437732 -0.0013943 2.54225e-05
-0.0013943 0.000285164 1.89732e-05
2.54225e-05 1.89732e-05 -0.000776968
0.00442104 -0.00100302 2.2398e-05
-0.00100302 0.00228571 2.11918e-06
2.2398e-05 2.11918e-06 0.00173586
0.00213784 -0.000502394 3.03883e-05
-0.000502394 0.0013853 -5.16375e-05
3.03883e-05 -5.16375e-05 0.00093618
0.000498354 -5.45441e-05 -3.14566e-07
-5.45441e-05 0.000128165 -1.13125e-06
-3.14566e-07 -1.13125e-06 -8.57961e-05
0.00125436 -0.000155515 1.89477e-05
-0.000155515 0.000693951 -4.16666e-05
1.89477e-05 -4.16666e-05 0.000351088
0.000269746 -0.000151982 2.77755e-07
-0.000151982 1.14688e-05 3.9141e-06
2.77755e-07 3.9141e-06 -0.000155088
-6.96108e-05 4.75972e-06 -2.12476e-05
4.75972e-06 -6.9311e-05 -5.9396e-06
-2.12476e-05 -5.9396e-06 -0.000166387
0.00292103 -0.000634486 1.42101e-06
-0.000634486 -0.000325752 5.45202e-06
1.42101e-06 5.45202e-06 0.000183606
0.000278902 -0.000101175 -7.77442e-06
-0.000101175 0.000196923 4.7145e-06
-7.77442e-06 4.7145e-06 -1.45633e-05
0.000986049 -0.000308404 -2.9281e-06
-0.000308404 0.000512893 1.10156e-06
-2.9281e-06 1.10156e-06 0.000214029
0.0022918 -0.00111452 9.92479e-06
-0.00111452 -0.000399789 -5.7108e-06
9.92479e-06 -5.7108e-06 -0.000220475
0.00316689 -0.00148448 5.99481e-07
-0.00148448 0.00074243 5.66802e-06
5.99481e-07 5.66802e-06 0.000189532
0.00215109 -0.00168413 4.48863e-06
-0.00168413 0.000339812 -1.46002e-05
4.48863e-06 -1.46002e-05 -0.00028392
0.000546282 -0.00041488 -4.88247e-06
-0.00041488 0.000456714 -2.5255e-05
-4.88247e-06 -2.5255e-05 -5.32252e-05
0.000678782 -0.000968501 1.70292e-05
-0.000968501 0.000943884 -1.082e-06
1.70292e-05 -1.082e-06 -5.6681e-05
0.00639216 -0.00160583 -6.03471e-05
-0.00160583 0.00117621 4.80615e-05
-6.03471e-05 4.80615e-05 0.00176961
0.00269026 -0.00152688 -3.71994e-05
-0.00152688 0.000381177 2.29981e-05
-3.71994e-05 2.29981e-05 -6.80103e-05
0.00402286 -0.00199337 2.6395e-06
-0.00199337 0.00128411 8.16385e-06
2.6395e-06 8.16385e-06 0.000586077
0.00131097 -0.0012671 -4.05205e-05
-0.0012671 0.000321485 1.59196e-05
-4.05205e-05 1.59196e-05 -3.5022e-05
0.0008211 -0.000238219 1.1616e-05
-0.000238219 0.000640506 -3.0815e-06
1.1616e-05 -3.0815e-06 0.000277757
-0.00109432 -2.50673e-05 1.28011e-05
-2.50673e-05 -0.000484002 1.91872e-05
1.28011e-05 1.91872e-05 -0.000872563
-0.000835258 -0.000330945 -1.39648e-05
-0.000330945 5.23554e-05 -2.07842e-05
-1.39648e-05 -2.07842e-05 -0.000744
-0.00706933 -0.000913104 0.00166916
-0.000913104 0.00113061 -1.69078e-05
0.00166916 -1.69078e-05 -0.00574595
0.0144085 -0.000508635 -3.68543e-05
-0.000508635 -0.00251919 4.90596e-05
-3.68543e-05 4.90596e-05 -8.67871e-05
0.00195265 0.000503892 8.85691e-06
0.000503892 0.00128286 -1.68491e-05
8.85691e-06 -1.68491e-05 0.000879439
0.00247647 0.0010559 -5.65615e-06
0.0010559 0.00122148 8.13159e-06
-5.65615e-06 8.13159e-06 0.000525178
0.00165907 0.001153 0.000140574
0.001153 -0.00104312 6.85977e-05
0.000140574 6.85977e-05 -0.000582578
0.00404276 0.00166465 3.88485e-05
0.00166465 0.00130056 2.2565e-05
3.88485e-05 2.2565e-05 0.000672312
0.00293611 0.00148333 2.44786e-05
0.00148333 0.00112932 9.59929e-06
2.44786e-05 9.59929e-06 0.000291849
0.0203678 0.00114496 5.41321e-05
0.00114496 -8.49117e-05 -0.000275718
5.41321e-05 -0.000275718 0.00212
0.00847564 0.00512991 -0.000360171
0.00512991 -0.00408855 2.21491e-05
-0.000360171 2.21491e-05 0.000624759
0.00179706 0.0028403 -2.92454e-05
0.0028403 -0.000961278 -4.24282e-05
-2.92454e-05 -4.24282e-05 -0.000892402
0.0193875 -0.00957655 -0.0016407
-0.00957655 0.0110326 0.000469401
-0.0016407 0.000469401 0.00146588
0.0341785 -0.0267692 -0.00253307
-0.0267692 0.0257523 -0.00174134
-0.00253307 -0.00174134 0.00746681
0.000628436 0.000524151 8.73436e-06
0.000524151 0.000417663 -7.43123e-06
8.73436e-06 -7.43123e-06 -3.8245e-05
0.00386854 -0.00777713 0.00143649
-0.00777713 0.0018447 4.2936e-06
0.00143649 4.2936e-06 -0.00670012
0.00683156 -0.00939742 -0.00133765
-0.00939742 0.0174387 8.28195e-05
-0.00133765 8.28195e-05 0.00393754
0.00409492 0.00228424 -1.5879e-05
0.00228424 0.000564527 8.81999e-06
-1.5879e-05 8.81999e-06 0.00017502
0.00124213 0.00096757 -1.50491e-05
0.00096757 0.000418435 1.07193e-05
-1.50491e-05 1.07193e-05 -0.000249469
0.00317184 0.00165834 -3.82213e-06
0.00165834 0.00119138 -1.37766e-06
-3.82213e-06 -1.37766e-06 0.000376295
0.00228199 0.00283043 0.000103942
0.00283043 0.000252086 6.9173e-05
0.000103942 6.9173e-05 5.22504e-05
0.0138195 0.00734244 -0.000346232
0.00734244 -0.00522911 -0.000134543
-0.000346232 -0.000134543 -0.00208719
0.00354557 0.00624481 -8.44308e-05
0.00624481 -0.0017431 -0.000103253
-8.44308e-05 -0.000103253 0.000402163
0.0335276 -0.01006 0.00111212
-0.01006 0.0166331 -0.000345433
0.00111212 -0.000345433 0.00492356
0.0328071 -0.00714571 -0.000450178
-0.00714571 0.0134568 0.0010807
-0.000450178 0.0010807 0.00317813
0.0012801 0.000710227 -1.62627e-05
0.000710227 0.000742449 -1.50785e-05
-1.62627e-05 -1.50785e-05 0.000282301
-0.000501722 -0.000520742 0.000347062
-0.000520742 0.00873358 -0.000241841
0.000347062 -0.000241841 -0.00222459
0.0107571 0.0045329 -0.00119946
0.0045329 0.0079708 -0.000636997
-0.00119946 -0.000636997 0.0021923
0.0032507 0.00184174 -6.36849e-05
0.00184174 0.000620887 -3.76559e-05
-6.36849e-05 -3.76559e-05 0.000315012
0.00278881 0.00163606 -9.72428e-05
0.00163606 0.00125162 -4.28306e-05
-9.72428e-05 -4.28306e-05 0.00044197
0.0013662 0.00212529 -0.000128466
0.00212529 0.00111229 -5.95598e-05
-0.000128466 -5.95598e-05 0.000128351
-0.00205589 0.00478866 0.000100444
0.00478866 -0.00049749 -6.26603e-05
0.000100444 -6.26603e-05 -0.000685803
0.00593921 0.0106343 0.00134076
0.0106343 -0.0048365 0.000191405
0.00134076 0.000191405 -0.00337683
0.0340695 -0.0123778 -0.00133032
-0.0123778 0.020785 0.00132137
-0.00133032 0.00132137 0.00727232
0.0102104 0.00127876 -9.99276e-05
0.00127876 -0.00134354 -0.000286583
-9.99276e-05 -0.000286583 -0.00355225
0.000610431 0.000291458 -8.24937e-06
0.000291458 0.000533968 5.11622e-06
-8.24937e-06 5.11622e-06 0.000249967
0.000910011 0.000422562 8.09503e-06
0.000422562 0.000713047 3.6911e-07
8.09503e-06 3.6911e-07 0.000348409
-5.97953e-05 0.000355243 1.77835e-06
0.000355243 0.000178251 -7.77202e-07
1.77835e-06 -7.77202e-07 -0.00020777
0.000357341 8.97728e-05 5.65324e-06
8.97728e-05 4.63342e-05 3.19093e-06
5.65324e-06 3.19093e-06 -0.000127823
0.00120272 0.000175527 1.72429e-06
0.000175527 0.000674312 2.81029e-06
1.72429e-06 2.81029e-06 0.000437825
0.000107813 3.88588e-05 1.91258e-06
3.88588e-05 -2.02214e-06 1.98645e-06
1.91258e-06 1.98645e-06 -0.000239217
2.7515e-05 3.82987e-05 8.51543e-06
3.82987e-05 2.05089e-05 -4.50649e-06
8.51543e-06 -4.50649e-06 -0.000234434
9.45173e-05 7.93254e-05 -4.99416e-06
7.93254e-05 0.000141826 3.79698e-06
-4.99416e-06 3.79698e-06 -0.000105336
0.000796737 8.36921e-05 -9.70836e-07
8.36921e-05 0.000387791 -1.29442e-06
-9.70836e-07 -1.29442e-06 0.000164664
0.000329393 5.17289e-05 1.64091e-06
5.17289e-05 0.000221749 -3.16205e-06
1.64091e-06 -3.16205e-06 -2.40554e-05
0.000705229 -3.18883e-06 -5.64013e-08
-3.18883e-06 0.000390187 3.26242e-06
-5.64013e-08 3.26242e-06 0.000141321
-0.00027651 7.95219e-05 -2.31198e-06
7.95219e-05 0.000117775 -7.69682e-07
-2.31198e-06 -7.69682e-07 -0.000292617
-0.000207161 4.83975e-05 2.69764e-06
4.83975e-05 0.000329837 -1.09288e-06
2.69764e-06 -1.09288e-06 -0.00022878
-0.000115924 -5.25256e-05 8.26277e-07
-5.25256e-05 6.29009e-05 3.08002e-06
8.26277e-07 3.08002e-06 -0.000278176
0.00181249 -0.000106726 -1.04459e-05
-0.000106726 0.00117283 -3.73558e-06
-1.04459e-05 -3.73558e-06 0.000876727
0.00127882 -0.000195988 -3.39301e-06
-0.000195988 0.000740342 -2.31996e-06
-3.39301e-06 -2.31996e-06 0.000499106
0.00127024 -0.000223574 -1.25747e-05
-0.000223574 0.000726156 2.64493e-06
-1.25747e-05 2.64493e-06 0.000560648
0.000375193 -0.000120788 1.13871e-06
-0.000120788 0.000152585 1.40998e-06
1.13871e-06 1.40998e-06 -1.89952e-05
0.00108675 -0.000367866 1.68315e-06
-0.000367866 0.000492385 -2.51179e-06
1.68315e-06 -2.51179e-06 0.000353494
-0.000379724 -3.5021e-05 -8.66446e-06
-3.5021e-05 -0.000162517 9.61475e-06
-8.66446e-06 9.61475e-06 -0.000326836
-0.000630402 -0.000117982 1.30298e-05
-0.000117982 -0.000556129 -1.39437e-05
1.30298e-05 -1.39437e-05 -0.000729651
-0.00115326 -1.13779e-05 -1.82552e-05
-1.13779e-05 -0.000640812 7.51669e-06
-1.82552e-05 7.51669e-06 -0.000901802
0.00212452 -0.000306057 6.77073e-06
-0.000306057 0.00131662 -2.11675e-06
6.77073e-06 -2.11675e-06 0.00117418
0.0019175 -3.69018e-05 1.27805e-05
-3.69018e-05 0.00099046 -1.74182e-05
1.27805e-05 -1.74182e-05 0.000695947
0.00405221 -0.00079905 -3.1101e-06
-0.00079905 0.00217161 7.53226e-06
-3.1101e-06 7.53226e-06 0.00175204
-0.00262159 -0.000318097 3.01987e-06
-0.000318097 -0.00164109 2.99201e-06
3.01987e-06 2.99201e-06 -0.0020243
-5.3263e-06 1.38265e-05 1.11526e-06
1.38265e-05 -1.36738e-07 -5.97264e-07
1.11526e-06 -5.97264e-07 -0.000312139
-0.00122371 4.15026e-06 1.32766e-05
4.15026e-06 -0.000820386 -1.73315e-05
1.32766e-05 -1.73315e-05 -0.00112758
0.00097012 -0.000224252 -3.84318e-06
-0.000224252 0.000586668 -1.76534e-06
-3.84318e-06 -1.76534e-06 0.000334231
0.000929965 -8.53785e-05 8.78352e-06
-8.53785e-05 0.000479825 7.46058e-06
8.78352e-06 7.46058e-06 0.000251635
0.00147001 -0.000162992 1.75412e-06
-0.000162992 0.000905761 2.91941e-06
1.75412e-06 2.91941e-06 0.000641557
0.000349629 -6.71096e-05 -2.08459e-06
-6.71096e-05 8.84088e-05 4.13955e-07
-2.08459e-06 4.13955e-07 -9.98655e-05
-5.02834e-05 4.92912e-05 5.46497e-06
4.92912e-05 -0.000251517 -3.42059e-07
5.46497e-06 -3.42059e-07 -0.000357859
0.000907823 -0.000177477 8.94888e-07
-0.000177477 0.000431463 5.94465e-06
8.94888e-07 5.94465e-06 0.00024531
0.000321531 -5.21293e-05 -1.15603e-06
-5.21293e-05 -3.2762e-05 3.99187e-08
-1.15603e-06 3.99187e-08 -0.000124302
0.00130115 4.19323e-05 -8.97656e-06
4.19323e-05 0.000588019 8.09188e-06
-8.97656e-06 8.09188e-06 0.000561073
0.000458923 -9.83106e-05 2.06573e-06
-9.83106e-05 6.65982e-05 -1.68914e-06
2.06573e-06 -1.68914e-06 -3.40463e-05
0.000828341 -2.9889e-05 -1.36107e-05
-2.9889e-05 0.000282414 1.06277e-06
-1.36107e-05 1.06277e-06 0.000252425
0.000645957 7.6888e-06 2.26661e-06
7.6888e-06 0.000134854 1.75761e-06
2.26661e-06 1.75761e-06 0.000138288
0.000376115 -5.6152e-05 5.8885e-06
-5.6152e-05 -1.20209e-05 -5.30908e-06
5.8885e-06 -5.30908e-06 -4.58727e-05
0.00261288 2.35124e-07 6.46544e-06
2.35124e-07 0.00144385 -5.43237e-09
6.46544e-06 -5.43237e-09 0.00145526
0.00267571 -9.55929e-06 1.84506e-05
-9.55929e-06 0.00148742 -5.55955e-06
1.84506e-05 -5.55955e-06 0.00149748
0.00111403 8.42577e-05 -8.29022e-07
8.42577e-05 0.000550777 -4.75919e-06
-8.29022e-07 -4.75919e-06 0.000384856
0.000435761 8.66612e-05 -4.83082e-07
8.66612e-05 6.20183e-05 -6.80034e-06
-4.83082e-07 -6.80034e-06 -2.78503e-05
0.000508493 -2.22681e-05 -8.36947e-07
-2.22681e-05 0.000152022 9.30941e-07
-8.36947e-07 9.30941e-07 -4.60172e-06
0.00036143 1.68119e-05 1.31242e-06
1.68119e-05 -4.46464e-05 -5.38696e-06
1.31242e-06 -5.38696e-06 -6.69728e-05
0.000400753 -1.80003e-05 2.49738e-06
-1.80003e-05 2.61862e-05 -2.56294e-07
2.49738e-06 -2.56294e-07 -5.37221e-05
0.000444992 -8.85898e-05 -3.99576e-06
-8.85898e-05 6.23142e-05 5.19469e-06
-3.99576e-06 5.19469e-06 -2.74708e-05
0.000383134 -5.90749e-06 -4.44065e-07
-5.90749e-06 -2.97469e-05 1.53956e-07
-4.44065e-07 1.53956e-07 -5.41785e-05
0.0023573 3.34143e-05 -7.48452e-06
3.34143e-05 0.00127379 -6.14008e-06
-7.48452e-06 -6.14008e-06 0.00128494
0.00145295 1.99709e-05 -8.61665e-07
1.99709e-05 0.000678361 4.90382e-06
-8.61665e-07 4.90382e-06 0.000651224
0.00161086 3.876e-05 -7.15601e-06
3.876e-05 0.000782109 6.88718e-08
-7.15601e-06 6.88718e-08 0.000784102
0.000770078 4.72168e-05 8.11706e-06
4.72168e-05 0.000236712 1.33009e-05
8.11706e-06 1.33009e-05 0.00022746
-0.000264375 0.00535844 0.00167849
0.00535844 0.00263033 -5.43208e-05
0.00167849 -5.43208e-05 -0.00616704
0.00824041 0.00646566 0.0031947
0.00646566 0.0151381 -1.61779e-05
0.0031947 -1.61779e-05 0.00335359
0.0016846 0.00177048 -5.97015e-05
0.00177048 -0.00531684 -9.04191e-05
-5.97015e-05 -9.04191e-05 -0.000430449
0.00338083 2.70306e-05 0.00010631
2.70306e-05 -0.00267973 6.42874e-06
0.00010631 6.42874e-06 -0.000674788
0.0032954 -0.000147693 4.56601e-05
-0.000147693 8.16017e-05 -4.18326e-06
4.56601e-05 -4.18326e-06 0.000384247
0.0028702 0.000112535 -6.60919e-05
0.000112535 -0.00277739 -3.9498e-05
-6.60919e-05 -3.9498e-05 0.000498866
0.00493395 -0.000975954 2.5407e-05
-0.000975954 -0.000424286 1.08181e-06
2.5407e-05 1.08181e-06 0.000728264
0.0130189 -0.00136909 0.000450503
-0.00136909 -0.00468052 -0.000174149
0.000450503 -0.000174149 -0.00353726
0.0109498 0.00774015 -7.34224e-05
0.00774015 0.00476292 -0.000115737
-7.34224e-05 -0.000115737 -0.00267978
0.0422882 0.0220673 -0.000773477
0.0220673 0.0285313 0.000288769
-0.000773477 0.000288769 0.0115857
0.00400894 -0.00240394 -0.000102409
-0.00240394 -0.0040387 -1.9469e-05
-0.000102409 -1.9469e-05 -9.86989e-05
0.0139048 -0.00631161 0.000604045
-0.00631161 -0.00424103 -9.54793e-05
0.000604045 -9.54793e-05 -0.00247579
0.0295501 0.0105383 0.000348472
0.0105383 0.0146285 -0.000500498
0.000348472 -0.000500498 0.00283119
0.035997 0.00693107 -0.000531213
0.00693107 0.0168191 0.000466152
-0.000531213 0.000466152 0.00801573
0.00203328 0.000210601 -4.80534e-06
0.000210601 0.00130529 -8.32526e-08
-4.80534e-06 -8.32526e-08 0.00102062
0.000445906 4.60674e-05 1.43344e-06
4.60674e-05 0.000112829 -8.28901e-07
1.43344e-06 -8.28901e-07 -3.92972e-05
0.000522626 -0.000134717 2.01651e-06
-0.000134717 0.000175378 2.2096e-06
2.01651e-06 2.2096e-06 1.88633e-05
0.000184812 -7.31995e-06 4.69492e-06
-7.31995e-06 -4.9786e-05 -1.91284e-06
4.69492e-06 -1.91284e-06 -0.000189345
0.000282929 8.54165e-05 4.4618e-06
8.54165e-05 8.86586e-05 -5.82607e-07
4.4618e-06 -5.82607e-07 -4.1412e-05
0.000598377 0.000138412 1.13618e-06
0.000138412 0.000250819 1.88651e-06
1.13618e-06 1.88651e-06 2.48648e-05
0.000439458 7.59827e-05 -2.31508e-06
7.59827e-05 0.000155582 6.28195e-07
-2.31508e-06 6.28195e-07 -2.54309e-05
0.000581857 0.000133011 6.55069e-06
0.000133011 0.000204167 8.82842e-07
6.55069e-06 8.82842e-07 -1.78964e-05
0.000551706 1.71538e-05 9.90059e-07
1.71538e-05 0.000207989 -7.68468e-07
9.90059e-07 -7.68468e-07 8.06147e-06
0.000226594 -2.97523e-05 -7.29831e-08
-2.97523e-05 -3.82743e-05 1.35434e-06
-7.29831e-08 1.35434e-06 -0.000184347
0.00168408 -0.000552713 6.67431e-05
-0.000552713 -0.00116813 -2.75976e-05
6.67431e-05 -2.75976e-05 -0.000486486
0.00172378 -0.00104443 2.76038e-05
-0.00104443 -0.00069282 -1.74344e-05
2.76038e-05 -1.74344e-05 -0.00047698
0.0023353 -0.00135984 3.68826e-06
-0.00135984 0.000259878 9.84985e-06
3.68826e-06 9.84985e-06 -0.000218479
0.000436891 -0.00137666 -7.97212e-06
-0.00137666 -0.000600144 1.31998e-06
-7.97212e-06 1.31998e-06 -0.00114563
0.00258152 -0.00102342 -1.54021e-06
-0.00102342 0.00195133 6.05291e-05
-1.54021e-06 6.05291e-05 0.00104365
-0.000584871 -0.000695636 -1.53836e-05
-0.000695636 -0.000169856 -2.32353e-05
-1.53836e-05 -2.32353e-05 -0.000882666
0.0009207 -0.000322326 1.61793e-05
-0.000322326 0.000510113 -2.08422e-05
1.61793e-05 -2.08422e-05 0.000249623
0.000225547 -5.47423e-05 -3.609e-06
-5.47423e-05 0.00011705 2.87983e-06
-3.609e-06 2.87983e-06 -6.82866e-05
0.00354152 -0.00129352 9.61649e-06
-0.00129352 -0.000518693 -1.08336e-05
9.61649e-06 -1.08336e-05 0.000304407
0.000596054 -0.000110548 -6.48063e-07
-0.000110548 0.000493362 2.04975e-06
-6.48063e-07 2.04975e-06 0.000125121
-0.000259692 -0.000213899 -1.40108e-05
-0.000213899 4.5593e-05 1.73175e-06
-1.40108e-05 1.73175e-06 -0.000340724
0.00195062 -0.00135761 2.20208e-05
-0.00135761 -4.97933e-05 -1.30451e-06
2.20208e-05 -1.30451e-06 -0.000331494
0.00295233 -0.00176931 -1.12371e-06
-0.00176931 0.000747563 -6.91463e-06
-1.12371e-06 -6.91463e-06 9.91219e-05
0.000458148 -0.00113718 2.22975e-05
-0.00113718 -0.000123589 -1.62005e-05
2.22975e-05 -1.62005e-05 -0.00050683
0.00107664 -0.000609598 3.24645e-05
-0.000609598 0.00117049 -3.46307e-05
3.24645e-05 -3.46307e-05 0.000429054
0.00190006 -0.00207434 -3.5756e-05
-0.00207434 -0.00117696 5.06033e-05
-3.5756e-05 5.06033e-05 -0.000763998
0.00251978 -0.00155109 -4.36634e-05
-0.00155109 0.000742327 3.35084e-05
-4.36634e-05 3.35084e-05 0.000215549
-0.000295571 -0.00062613 -6.43439e-05
-0.00062613 0.000161873 2.1881e-05
-6.43439e-05 2.1881e-05 -0.000373521
0.00108566 0.000130832 2.30107e-07
0.000130832 0.000746068 -2.22556e-06
2.30107e-07 -2.22556e-06 0.000408986
-0.000890313 7.10871e-06 -3.61694e-06
7.10871e-06 -0.000292814 1.85215e-05
-3.61694e-06 1.85215e-05 -0.000753345
-0.000277354 -4.98574e-05 8.53913e-06
-4.98574e-05 0.000114674 8.56444e-06
8.53913e-06 8.56444e-06 -0.000301906
-0.00266531 0.0017322 -0.000836036
0.0017322 0.00891399 -2.88159e-05
-0.000836036 -2.88159e-05 0.000726933
0.00049442 -0.0026317 -8.80237e-06
-0.0026317 0.00624658 -7.9212e-05
-8.80237e-06 -7.9212e-05 0.00133117
0.00821579 0.00021733 -0.000100427
0.00021733 -0.00753314 -2.72489e-05
-0.000100427 -2.72489e-05 -0.00762199
0.00122291 0.000603224 1.73497e-05
0.000603224 0.000834905 -1.12176e-05
1.73497e-05 -1.12176e-05 0.000355008
0.00205573 0.00114925 2.41715e-05
0.00114925 0.000948829 3.26312e-05
2.41715e-05 3.26312e-05 0.000195821
0.00377992 0.00198345 0.000109355
0.00198345 0.000353012 5.59592e-05
0.000109355 5.59592e-05 0.000104855
0.0032381 0.00175082 4.41838e-05
0.00175082 0.00124397 4.05868e-05
4.41838e-05 4.05868e-05 0.000379422
0.0190469 -0.00921456 0.000342935
-0.00921456 0.0130723 0.000146316
0.000342935 0.000146316 0.00302845
0.00248498 0.00556334 -0.000953898
0.00556334 -0.0120453 -0.000166741
-0.000953898 -0.000166741 -0.00944834
0.00658253 0.00672264 -3.05539e-05
0.00672264 -0.000705089 2.95804e-05
-3.05539e-05 2.95804e-05 0.00128741
0.00427295 0.00281873 0.000122077
0.00281873 0.00158035 3.17625e-05
0.000122077 3.17625e-05 0.00131099
0.0242837 -0.00688377 -0.000723909
-0.00688377 0.0112573 -0.000188172
-0.000723909 -0.000188172 0.00108417
0.00708122 -0.0102355 -0.00210395
-0.0102355 0.0188206 -3.80315e-05
-0.00210395 -3.80315e-05 0.00606834
0.0452856 -0.0121641 0.00191158
-0.0121641 0.0179621 0.000486429
0.00191158 0.000486429 0.00556632
0.000702543 0.000657016 1.62214e-05
0.000657016 0.000439577 -4.42609e-06
1.62214e-05 -4.42609e-06 -3.50781e-05
0.00186712 -0.00230579 -3.95844e-05
-0.00230579 0.0114174 9.17221e-06
-3.95844e-05 9.17221e-06 0.000608616
0.0104466 0.00492913 -0.000348542
0.00492913 0.00541187 -0.000210969
-0.000348542 -0.000210969 -0.00151478
0.00297174 0.00199358 1.33361e-05
0.00199358 0.00063183 5.30297e-06
1.33361e-05 5.30297e-06 0.000172965
0.00143447 0.00137239 6.52439e-06
0.00137239 0.000636254 7.75141e-06
6.52439e-06 7.75141e-06 -0.000140001
0.000461386 0.00212541 -0.000165562
0.00212541 0.000570456 -0.00011197
-0.000165562 -0.00011197 -0.000210565
0.00414277 0.00713093 0.00011127
0.00713093 0.000915408 5.9292e-05
0.00011127 5.9292e-05 0.000736273
0.0118755 0.0111178 -3.85068e-05
0.0111178 -0.00109706 -1.64976e-05
-3.85068e-05 -1.64976e-05 -0.00166247
0.0168498 -0.00725914 7.77174e-05
-0.00725914 0.0139873 -0.000191248
7.77174e-05 -0.000191248 0.00133294
0.0208314 -0.00241444 -0.000161389
-0.00241444 0.00431577 -3.40047e-05
-0.000161389 -3.40047e-05 0.0023497
0.00146398 0.00121775 -1.60143e-05
0.00121775 0.000871935 -1.38763e-05
-1.60143e-05 -1.38763e-05 0.00018742
0.00180124 0.00129976 -0.000764814
0.00129976 0.00455241 -0.000205851
-0.000764814 -0.000205851 -0.00293053
0.00453752 0.00162033 -9.02789e-05
0.00162033 0.00152727 -0.000212695
-9.02789e-05 -0.000212695 -0.00245868
-0.00107229 0.000809247 -4.05831e-06
0.000809247 -3.12172e-05 -3.35913e-05
-4.05831e-06 -3.35913e-05 -0.000628349
-0.00269139 0.00213127 -9.56886e-05
0.00213127 0.000841752 4.52872e-05
-9.56886e-05 4.52872e-05 -0.000248415
0.00729848 0.00956429 0.000473154
0.00956429 0.00421937 5.61581e-05
0.000473154 5.61581e-05 -0.00151229
0.0135192 -0.00662029 4.11957e-05
-0.00662029 0.00499219 0.000224075
4.11957e-05 0.000224075 -0.00489304
0.0198851 -0.00114572 0.000126665
-0.00114572 0.000735797 -0.00034227
0.000126665 -0.00034227 0.000531387
0.000357685 0.000348858 -4.06941e-06
0.000348858 0.000357052 2.02161e-05
-4.06941e-06 2.02161e-05 3.81981e-05
0.000818306 0.000440631 -2.4028e-06
0.000440631 0.00072386 -5.25045e-06
-2.4028e-06 -5.25045e-06 0.000309585
0.000375818 0.000407944 6.94184e-06
0.000407944 0.000615069 -3.68786e-06
6.94184e-06 -3.68786e-06 6.54476e-05
0.000635912 0.00012782 1.99354e-06
0.00012782 0.000258539 4.99059e-06
1.99354e-06 4.99059e-06 5.43742e-05
0.0014438 -2.85238e-05 1.59587e-07
-2.85238e-05 0.000886723 4.77361e-06
1.59587e-07 4.77361e-06 0.00062586
-8.70457e-06 5.38039e-05 4.17688e-06
5.38039e-05 1.12992e-05 -4.85623e-06
4.17688e-06 -4.85623e-06 -0.000248501
4.95341e-05 0.000132256 1.6341e-07
0.000132256 0.000319674 1.50862e-06
1.6341e-07 1.50862e-06 -8.45515e-05
0.000551916 -2.53321e-05 3.86523e-06
-2.53321e-05 0.000279612 1.21745e-06
3.86523e-06 1.21745e-06 4.06655e-05
0.000335292 -7.37437e-06 1.13681e-07
-7.37437e-06 0.000328772 -4.27036e-06
1.13681e-07 -4.27036e-06 5.5503e-06
8.24522e-05 6.59838e-05 -4.63229e-07
6.59838e-05 0.000529522 8.38007e-07
-4.63229e-07 8.38007e-07 -5.63903e-05
-0.000228927 0.000114594 -1.44572e-07
0.000114594 0.000463864 3.09057e-06
-1.44572e-07 3.09057e-06 -0.000174052
0.000810748 -8.86295e-05 7.78387e-06
-8.86295e-05 0.000950071 -1.04648e-05
7.78387e-06 -1.04648e-05 0.000410768
0.000944452 -4.90149e-05 -1.88011e-05
-4.90149e-05 0.000730495 4.30105e-06
-1.88011e-05 4.30105e-06 0.000390605
0.00173 -0.000256147 4.66934e-06
-0.000256147 0.00106486 5.14522e-06
4.66934e-06 5.14522e-06 0.000859375
-0.000326538 -0.000409656 -7.98254e-06
-0.000409656 -0.000443889 -5.43477e-06
-7.98254e-06 -5.43477e-06 -0.000570663
-0.000432391 -4.90898e-05 2.34512e-05
-4.90898e-05 -0.000146654 -1.41457e-06
2.34512e-05 -1.41457e-06 -0.000299366
-0.000212772 -8.69285e-06 2.75586e-06
-8.69285e-06 -1.80318e-05 6.64424e-07
2.75586e-06 6.64424e-07 -0.000289257
0.000204394 -0.000162968 -2.11791e-06
-0.000162968 -6.85573e-05 4.9956e-06
-2.11791e-06 4.9956e-06 -0.000212992
-0.000228403 -0.000217108 -1.06868e-05
-0.000217108 -0.000131372 -1.29901e-06
-1.06868e-05 -1.29901e-06 -0.000264514
0.00398157 -0.000327379 1.44576e-05
-0.000327379 0.00235715 5.80569e-06
1.44576e-05 5.80569e-06 0.0020278
0.00162438 -0.000170892 2.53384e-06
-0.000170892 0.00132141 7.36081e-06
2.53384e-06 7.36081e-06 0.000976425
0.00104344 -0.000576451 -1.12202e-05
-0.000576451 0.000455499 8.35051e-06
-1.12202e-05 8.35051e-06 -6.57914e-06
0.00166057 -0.000202157 -2.25321e-05
-0.000202157 0.00081555 2.20839e-06
-2.25321e-05 2.20839e-06 0.000531227
0.000734112 -0.000449826 2.2989e-05
-0.000449826 0.000121166 2.85235e-06
2.2989e-05 2.85235e-06 -0.000205785
0.00208641 -0.000972621 -1.82723e-05
-0.000972621 0.000909349 2.03737e-05
-1.82723e-05 2.03737e-05 0.000295882
0.00234884 -0.000376238 1.99455e-05
-0.000376238 0.00110417 -7.7243e-06
1.99455e-05 -7.7243e-06 0.000832816
0.0023806 -0.000613749 1.00263e-06
-0.000613749 0.0011476 -8.53517e-06
1.00263e-06 -8.53517e-06 0.000789839
0.000397042 -0.000323458 7.53842e-07
-0.000323458 0.000196913 -1.96594e-06
7.53842e-07 -1.96594e-06 -0.000152673
-0.00264075 -0.000258215 9.14755e-06
-0.000258215 -0.00166713 -1.26378e-05
9.14755e-06 -1.26378e-05 -0.00210008
0.00143459 -5.18156e-05 7.78253e-07
-5.18156e-05 0.000925202 3.48686e-06
7.78253e-07 3.48686e-06 0.000617067
0.000739962 -0.000377691 6.11251e-06
-0.000377691 0.000383766 -2.49331e-06
6.11251e-06 -2.49331e-06 7.9293e-05
0.000745536 -0.000132874 1.42692e-05
-0.000132874 0.000312608 6.31038e-06
1.42692e-05 6.31038e-06 4.77169e-05
0.00178975 -0.000522197 -9.74364e-06
-0.000522197 0.00111984 1.21325e-05
-9.74364e-06 1.21325e-05 0.000837571
0.000218356 -0.000196527 -1.71165e-07
-0.000196527 7.25434e-05 -8.64949e-07
-1.71165e-07 -8.64949e-07 -0.000193148
-5.21839e-05 -4.4111e-05 6.0085e-06
-4.4111e-05 -0.00024644 4.95836e-06
6.0085e-06 4.95836e-06 -0.000390567
0.00161409 -0.000277652 -3.4144e-06
-0.000277652 0.000964434 6.15462e-06
-3.4144e-06 6.15462e-06 0.000736266
0.000744751 -0.000114231 9.27932e-08
-0.000114231 0.000271184 6.04759e-07
9.27932e-08 6.04759e-07 0.000153156
0.00151169 -6.62383e-06 -1.76197e-05
-6.62383e-06 0.000724114 8.53447e-06
-1.76197e-05 8.53447e-06 0.000687987
0.000463598 -0.000105799 -1.52446e-07
-0.000105799 8.78268e-05 -8.25069e-07
-1.52446e-07 -8.25069e-07 -1.90736e-05
0.000800079 -2.01026e-05 -1.638e-05
-2.01026e-05 0.000259156 7.85322e-07
-1.638e-05 7.85322e-07 0.000226582
0.000772375 1.69315e-05 3.50871e-06
1.69315e-05 0.000216128 3.11229e-06
3.50871e-06 3.11229e-06 0.000216446
0.000377949 -5.91698e-05 4.93926e-06
-5.91698e-05 -1.70491e-05 -5.3852e-06
4.93926e-06 -5.3852e-06 -4.97087e-05
0.00161619 1.05762e-05 1.8834e-05
1.05762e-05 0.000779833 -1.91602e-06
1.8834e-05 -1.91602e-06 0.000788222
0.00255533 -3.63995e-06 2.70202e-05
-3.63995e-06 0.00140487 -5.48364e-06
2.70202e-05 -5.48364e-06 0.0014171
0.000129921 0.000110627 1.4708e-06
0.000110627 -0.000145449 -5.4155e-06
1.4708e-06 -5.4155e-06 -0.000295107
0.000531021 8.96584e-05 6.62711e-07
8.96584e-05 0.000123154 -7.33998e-06
6.62711e-07 -7.33998e-06 2.62363e-05
0.000455494 2.50316e-05 1.08852e-06
2.50316e-05 0.000104934 7.68095e-07
1.08852e-06 7.68095e-07 -4.86287e-05
0.000371876 1.40222e-05 3.16191e-06
1.40222e-05 -3.87367e-05 -6.2761e-06
3.16191e-06 -6.2761e-06 -6.24849e-05
0.000406376 7.29845e-05 4.01886e-07
7.29845e-05 3.33828e-05 2.09148e-08
4.01886e-07 2.09148e-08 -5.00375e-05
0.000337582 -0.000121577 -4.29071e-06
-0.000121577 1.93023e-05 6.04109e-06
-4.29071e-06 6.04109e-06 -0.000122038
0.0023269 1.69664e-05 -1.27731e-05
1.69664e-05 0.00125169 -6.29338e-06
-1.27731e-05 -6.29338e-06 0.0012644
0.00037381 1.09222e-05 -4.83211e-07
1.09222e-05 -3.61042e-05 -2.02616e-08
-4.83211e-07 -2.02616e-08 -5.83772e-05
0.000498435 -2.06454e-06 -3.1723e-06
-2.06454e-06 7.8119e-05 4.6733e-06
-3.1723e-06 4.6733e-06 6.1141e-06
0.000409977 -1.03119e-05 -3.31939e-06
-1.03119e-05 -1.34124e-05 5.63067e-06
-3.31939e-06 5.63067e-06 -3.80149e-05
0.00242931 3.5106e-05 -6.73343e-06
3.5106e-05 0.00132197 -2.07182e-07
-6.73343e-06 -2.07182e-07 0.00133237
0.00263536 5.74734e-05 5.46676e-06
5.74734e-05 0.00146244 7.32749e-06
5.46676e-06 7.32749e-06 0.0014685
0.0029931 -0.00117882 -0.000504489
-0.00117882 0.0123686 7.3349e-05
-0.000504489 7.3349e-05 0.00494998
0.00760981 0.00607071 -0.000552371
0.00607071 0.00569728 0.000190696
-0.000552371 0.000190696 -0.00270763
0.00685047 -0.00251645 -0.000542762
-0.00251645 0.00260128 0.000359248
-0.000542762 0.000359248 -0.00304634
0.0134686 0.007318 0.00172259
0.007318 0.0151641 -5.74472e-05
0.00172259 -5.74472e-05 0.00295323
0.00543973 0.000966106 6.02367e-05
0.000966106 -0.00195319 9.08678e-06
6.02367e-05 9.08678e-06 0.000891512
0.00294828 -0.000964015 0.000126752
-0.000964015 -0.00143175 2.5639e-06
0.000126752 2.5639e-06 -0.000421764
0.00325829 -0.00104922 0.00065943
-0.00104922 -0.0114397 -2.44803e-05
0.00065943 -2.44803e-05 -0.00884727
0.0236545 0.00831352 -0.00263797
0.00831352 0.0152732 -0.000317162
-0.00263797 -0.000317162 0.0058918
0.0344088 0.0261505 -0.00269451
0.0261505 0.0243137 0.00175081
-0.00269451 0.00175081 0.00667617
0.00578958 -0.00173694 8.97835e-05
-0.00173694 -0.00260486 -4.75706e-06
8.97835e-05 -4.75706e-06 0.00028536
0.00873592 -0.00668803 0.000400951
-0.00668803 -0.0077762 -0.000239775
0.000400951 -0.000239775 -0.00568236
0.0324846 0.010453 -0.000661248
0.010453 0.0162164 -0.000379155
-0.000661248 -0.000379155 0.00400526
0.0270178 0.00639505 0.000513104
0.00639505 0.0130604 0.00060752
0.000513104 0.00060752 0.00446451
0.00282526 -0.00402433 -0.000105817
-0.00402433 -0.00488587 0.00013212
-0.000105817 0.00013212 -0.001146
0.000991956 -0.00978184 0.00121394
-0.00978184 -0.00431875 -0.000304207
0.00121394 -0.000304207 -0.0044591
0.0184984 0.00455503 -0.000748498
0.00455503 0.00978779 -0.00140853
-0.000748498 -0.00140853 -0.00119663
0.0123311 -0.0014439 -0.000407769
-0.0014439 0.00205167 5.06931e-05
-0.000407769 5.06931e-05 -0.00066097
0.00152012 -2.53359e-05 1.37009e-06
-2.53359e-05 0.00093325 1.28408e-05
1.37009e-06 1.28408e-05 0.000620053
0.000147846 1.47754e-05 -3.17109e-07
1.47754e-05 -1.52285e-05 -7.25606e-07
-3.17109e-07 -7.25606e-07 -0.000203106
0.000589237 0.000138097 -5.14652e-07
0.000138097 0.000202324 1.04329e-06
-5.14652e-07 1.04329e-06 5.34706e-05
-0.000514905 -0.000108053 -1.1479e-05
-0.000108053 -0.000523569 5.84058e-07
-1.1479e-05 5.84058e-07 -0.000561154
7.78685e-05 0.000155447 4.4609e-06
0.000155447 -0.000133928 1.68978e-05
4.4609e-06 1.68978e-05 -0.000352565
0.000507737 9.80483e-05 -1.15285e-06
9.80483e-05 0.00020711 -1.18636e-06
-1.15285e-06 -1.18636e-06 -1.76213e-05
-0.000156752 -4.47495e-05 7.6638e-07
-4.47495e-05 -0.000245296 1.95915e-06
7.6638e-07 1.95915e-06 -0.000406323
0.000880774 0.000217189 1.01716e-05
0.000217189 0.000445845 7.42302e-06
1.01716e-05 7.42302e-06 0.000182557
0.000957127 0.000229171 -4.08006e-07
0.000229171 0.000498379 -2.36711e-06
-4.08006e-07 -2.36711e-06 0.000241285
0.000493139 5.58332e-05 -4.10639e-06
5.58332e-05 0.00016863 1.19195e-06
-4.10639e-06 1.19195e-06 -3.32228e-05
0.00205801 -0.00117279 0.000150856
-0.00117279 -0.00137275 -9.06046e-05
0.000150856 -9.06046e-05 -0.000494329
0.00104113 -0.00121689 -3.08994e-06
-0.00121689 -0.00061675 -1.48725e-05
-3.08994e-06 -1.48725e-05 -0.000737936
0.00233723 -0.00162652 9.16045e-06
-0.00162652 0.00046497 1.40506e-05
9.16045e-06 1.40506e-05 -0.000151505
-0.000294667 -0.00107206 1.07663e-05
-0.00107206 -0.000550436 -5.14174e-06
1.07663e-05 -5.14174e-06 -0.00094624
0.00346914 -0.000782516 -7.52434e-05
-0.000782516 0.00245216 7.85808e-05
-7.52434e-05 7.85808e-05 0.00191007
0.000888012 -0.000332854 -1.04489e-06
-0.000332854 0.000784886 -1.70477e-05
-1.04489e-06 -1.70477e-05 0.00036183
0.00126726 6.49385e-05 -1.68715e-06
6.49385e-05 0.000909823 -9.60543e-06
-1.68715e-06 -9.60543e-06 0.000526303
0.000854385 5.50459e-05 -7.18824e-06
5.50459e-05 0.000552941 -5.3723e-07
-7.18824e-06 -5.3723e-07 0.00023164
0.00351274 -0.0021463 -3.6477e-05
-0.0021463 -0.000272152 5.52717e-06
-3.6477e-05 5.52717e-06 0.00022372
0.000959072 -8.9047e-05 -2.16373e-06
-8.9047e-05 0.000792491 7.21409e-06
-2.16373e-06 7.21409e-06 0.000370221
0.00118986 -0.000346123 1.22307e-05
-0.000346123 0.000968857 -7.1812e-06
1.22307e-05 -7.1812e-06 0.000527612
0.00141976 -0.00142012 1.75024e-05
-0.00142012 9.84845e-05 -3.60592e-06
1.75024e-05 -3.60592e-06 -0.000353422
0.000243295 -0.000682484 -1.21563e-05
-0.000682484 0.000317311 6.20797e-06
-1.21563e-05 6.20797e-06 -0.000120075
0.00228455 -0.00316357 2.09797e-05
-0.00316357 0.000248334 -5.12035e-06
2.09797e-05 -5.12035e-06 -0.000516658
0.000259212 -0.000999058 -8.93446e-06
-0.000999058 0.000415701 1.50341e-05
-8.93446e-06 1.50341e-05 -0.000101663
-0.00112404 -0.000200806 -4.84837e-07
-0.000200806 -3.51379e-05 -3.8666e-06
-4.84837e-07 -3.8666e-06 -0.000709549
0.000657204 0.000147179 1.25962e-05
0.000147179 0.000502335 -4.36867e-06
1.25962e-05 -4.36867e-06 0.000254492
-0.000519117 -0.000185924 -8.52183e-06
-0.000185924 -1.50119e-05 3.11678e-05
-8.52183e-06 3.11678e-05 -0.000480951
0.00313152 0.000386219 -0.000219536
0.000386219 0.0026872 -8.43448e-05
-0.000219536 -8.43448e-05 -0.00269543
-0.00678785 0.000392999 -0.00106966
0.000392999 0.00771211 2.91406e-05
-0.00106966 2.91406e-05 0.00123353
-0.00862542 -0.00464958 -0.00199901
-0.00464958 0.000845321 7.95443e-05
-0.00199901 7.95443e-05 -0.00633678
-1.55097e-07 0.000600306 1.81345e-05
0.000600306 7.92493e-05 -8.33914e-06
1.81345e-05 -8.33914e-06 -0.000423813
0.00134897 0.00130797 7.63122e-06
0.00130797 0.00067555 1.33017e-05
7.63122e-06 1.33017e-05 -0.000102599
0.00452175 0.00247225 8.01095e-05
0.00247225 0.00147921 7.86832e-05
8.01095e-05 7.86832e-05 0.000797279
0.000584129 5.7962e-05 0.000241968
5.7962e-05 0.0124608 9.1895e-05
0.000241968 9.1895e-05 0.00405515
0.00171483 0.0102142 -0.00115465
0.0102142 -0.00515005 -0.000227811
-0.00115465 -0.000227811 -0.00467393
0.000826491 0.00513856 0.000613992
0.00513856 -0.000704752 0.000317264
0.000613992 0.000317264 -0.000302381
-0.000100002 0.00198812 -6.62324e-06
0.00198812 0.000263239 -5.73209e-05
-6.62324e-06 -5.73209e-05 -0.000102777
0.0348119 -0.00724115 0.000328042
-0.00724115 0.0164892 -0.000764864
0.000328042 -0.000764864 0.00577514
0.0108679 0.0057126 0.00153531
0.0057126 0.00443643 0.000430341
0.00153531 0.000430341 -0.00355436
0.0149348 -0.000872449 5.0702e-05
-0.000872449 0.00392288 8.73832e-05
5.0702e-05 8.73832e-05 0.00375407
0.00212107 0.00127377 9.13662e-06
0.00127377 0.00127265 -8.15262e-07
9.13662e-06 -8.15262e-07 0.000589602
0.00420838 0.00250419 -0.000171256
0.00250419 0.00562782 -4.48721e-05
-0.000171256 -4.48721e-05 -0.000990125
0.00417833 0.00120516 0.000202441
0.00120516 0.0023225 -2.59239e-05
0.000202441 -2.59239e-05 -0.00130094
0.000348928 0.00136354 -2.96611e-05
0.00136354 0.00057885 -1.14338e-05
-2.96611e-05 -1.14338e-05 -0.000230053
-0.00142013 0.00330757 -0.000184131
0.00330757 0.000462109 -0.000136355
-0.000184131 -0.000136355 -0.00120889
0.00313387 0.0105551 0.000637819
0.0105551 0.00243276 0.000230587
0.000637819 0.000230587 -0.0031263
0.0150839 -0.000936855 2.95508e-05
-0.000936855 -0.00153838 -0.000213618
2.95508e-05 -0.000213618 -0.00133424
0.0109856 -0.00405935 -0.000144865
-0.00405935 0.00716935 -0.000278838
-0.000144865 -0.000278838 -0.00207781
0.00149776 0.00105095 -1.5454e-06
0.00105095 0.00138855 -1.62572e-05
-1.5454e-06 -1.62572e-05 0.00059402
-0.00343367 0.00138049 0.0001351
0.00138049 0.00307652 0.000109006
0.0001351 0.000109006 -0.00136977
0.00949494 -0.00182741 0.000539256
-0.00182741 0.00105517 -2.37891e-05
0.000539256 -2.37891e-05 -0.00189168
0.0125613 -0.00156292 0.000404189
-0.00156292 0.00195054 -3.29078e-05
0.000404189 -3.29078e-05 -0.000496592
-0.00321824 0.000862536 7.4354e-05
0.000862536 0.000742671 -6.39893e-06
7.4354e-05 -6.39893e-06 -0.000790169
0.00677168 0.00500431 0.000540399
0.00500431 0.00660705 0.000300039
0.000540399 0.000300039 -0.00149238
0.0129373 -0.000899358 -5.04171e-05
-0.000899358 0.0040236 0.000457732
-5.04171e-05 0.000457732 -0.000948327
0.00173143 0.000534867 1.62376e-05
0.000534867 0.00129569 1.29466e-05
1.62376e-05 1.29466e-05 0.00084501
0.000365904 0.00046089 -8.39594e-06
0.00046089 0.000594078 -2.96458e-06
-8.39594e-06 -2.96458e-06 -7.35538e-06
-5.8163e-05 0.000311602 8.93887e-06
0.000311602 0.000603637 -9.32838e-06
8.93887e-06 -9.32838e-06 -0.000214505
-0.000110868 7.82814e-05 7.65806e-06
7.82814e-05 -0.000155186 4.20477e-06
7.65806e-06 4.20477e-06 -0.000386229
0.00060915 9.35261e-05 5.33903e-06
9.35261e-05 0.000485146 -5.17909e-06
5.33903e-06 -5.17909e-06 0.00017655
0.000253634 5.86203e-05 2.40674e-06
5.86203e-05 0.000687446 2.39132e-06
2.40674e-06 2.39132e-06 7.21787e-05
-7.36436e-05 -4.3044e-05 -1.3854e-06
-4.3044e-05 7.13939e-05 -4.78596e-07
-1.3854e-06 -4.78596e-07 -0.000260383
0.000139774 -4.55521e-05 -1.70437e-06
-4.55521e-05 0.000570635 -1.44249e-06
-1.70437e-06 -1.44249e-06 1.05788e-05
-0.000323763 3.2608e-05 3.31897e-06
3.2608e-05 0.000481286 1.59257e-06
3.31897e-06 1.59257e-06 -0.00019094
0.000711154 -0.000154694 -1.49895e-05
-0.000154694 0.00098772 1.3726e-05
-1.49895e-05 1.3726e-05 0.000451177
0.000751233 -8.34181e-05 1.81157e-06
-8.34181e-05 0.000844 -1.00016e-05
1.81157e-06 -1.00016e-05 0.000409516
-0.000520543 4.84895e-07 1.64745e-05
4.84895e-07 -0.000226688 -6.05804e-06
1.64745e-05 -6.05804e-06 -0.00048215
0.00096238 -0.000160444 -6.15043e-06
-0.000160444 0.000389181 6.78701e-06
-6.15043e-06 6.78701e-06 0.00025093
-0.0030461 -0.000100504 1.43225e-06
-0.000100504 -0.00187834 -1.50352e-05
1.43225e-06 -1.50352e-05 -0.00201646
0.000896622 -0.000127329 -2.50906e-07
-0.000127329 0.000842625 5.87208e-06
-2.50906e-07 5.87208e-06 0.000502216
-0.000504843 -7.67122e-05 -1.5668e-05
-7.67122e-05 -0.000278019 1.54992e-06
-1.5668e-05 1.54992e-06 -0.000710347
0.00338306 -0.000844778 4.02998e-06
-0.000844778 0.0019907 1.62401e-05
4.02998e-06 1.62401e-05 0.00153013
0.00115331 -0.000468642 8.8226e-06
-0.000468642 0.000576057 -3.05545e-06
8.8226e-06 -3.05545e-06 0.000262589
0.000673136 -0.000542301 7.21764e-06
-0.000542301 8.25816e-05 1.53685e-05
7.21764e-06 1.53685e-05 -0.000309556
0.000607819 -0.000230228 -5.27663e-06
-0.000230228 0.000139969 1.09882e-06
-5.27663e-06 1.09882e-06 -0.000101003
0.000982573 -0.000491192 -6.41221e-06
-0.000491192 0.000294044 5.04076e-06
-6.41221e-06 5.04076e-06 -5.17089e-05
0.00253194 -0.00104475 -1.71319e-05
-0.00104475 0.00113279 1.54373e-05
-1.71319e-05 1.54373e-05 0.000478921
0.00193388 -0.00111866 -8.45598e-06
-0.00111866 0.000674535 7.94821e-07
-8.45598e-06 7.94821e-07 -4.39436e-05
0.00125929 -0.000540814 6.77062e-06
-0.000540814 0.000355894 5.93231e-08
6.77062e-06 5.93231e-08 -8.39934e-06
0.00157228 -0.000875042 5.56563e-06
-0.000875042 0.000606445 -1.19826e-06
5.56563e-06 -1.19826e-06 2.82782e-05
0.00202936 -0.000365376 4.55009e-06
-0.000365376 0.00115497 -1.13983e-05
4.55009e-06 -1.13983e-05 0.000742693
0.00108903 -0.000310267 -5.31868e-06
-0.000310267 0.000364466 3.32715e-06
-5.31868e-06 3.32715e-06 7.2699e-05
0.000448795 -0.000418777 1.39425e-05
-0.000418777 -4.33903e-05 -1.68116e-05
1.39425e-05 -1.68116e-05 -0.000340619
0.00275526 -0.000319515 -6.20663e-06
-0.000319515 0.00163603 4.17874e-06
-6.20663e-06 4.17874e-06 0.0012981
-0.000525154 -0.000395792 1.13311e-06
-0.000395792 -0.000388808 -1.99203e-06
1.13311e-06 -1.99203e-06 -0.000797291
1.11212e-05 -7.66711e-05 1.24937e-05
-7.66711e-05 -0.000137559 4.65682e-06
1.24937e-05 4.65682e-06 -0.000494163
0.0022858 -0.000856725 -1.17347e-05
-0.000856725 0.00130019 1.59246e-05
-1.17347e-05 1.59246e-05 0.00101033
0.00134323 -0.000324423 -8.15365e-08
-0.000324423 0.000715559 -6.66982e-07
-8.15365e-08 -6.66982e-07 0.000430838
-5.29394e-05 -0.000129195 9.06658e-06
-0.000129195 -0.00026503 1.45646e-05
9.06658e-06 1.45646e-05 -0.000452356
0.00117551 -0.000247393 -8.24952e-06
-0.000247393 0.000673096 -6.10476e-06
-8.24952e-06 -6.10476e-06 0.000427204
0.000400433 -5.67994e-05 -3.35089e-06
-5.67994e-05 5.13405e-05 -8.65853e-07
-3.35089e-06 -8.65853e-07 -0.000100567
0.00158147 -4.85892e-05 -2.84746e-05
-4.85892e-05 0.000766419 7.60786e-06
-2.84746e-05 7.60786e-06 0.000726878
0.000617337 -0.000107086 -1.65794e-06
-0.000107086 0.000179062 -8.71524e-07
-1.65794e-06 -8.71524e-07 6.07759e-05
0.000895809 -3.84114e-05 -1.53087e-05
-3.84114e-05 0.000315582 1.01953e-06
-1.53087e-05 1.01953e-06 0.000276994
0.000753536 2.54043e-05 3.3039e-06
2.54043e-05 0.000198004 2.99265e-06
3.3039e-06 2.99265e-06 0.000191283
0.000424667 -4.97216e-05 3.17747e-06
-4.97216e-05 1.03652e-05 -6.26781e-06
3.17747e-06 -6.26781e-06 -2.55517e-05
0.0017672 2.31328e-05 2.18754e-05
2.31328e-05 0.000876503 -1.42334e-06
2.18754e-05 -1.42334e-06 0.000883682
0.00246219 7.86501e-06 3.03404e-05
7.86501e-06 0.00133835 -5.67216e-06
3.03404e-05 -5.67216e-06 0.00135219
0.000183925 2.54902e-05 9.52778e-07
2.54902e-05 -6.91845e-05 1.68955e-06
9.52778e-07 1.68955e-06 -0.000285716
-4.56986e-05 3.65955e-05 3.93815e-07
3.65955e-05 -0.000274879 -8.92544e-06
3.93815e-07 -8.92544e-06 -0.000380252
0.000601832 8.12798e-05 2.24807e-07
8.12798e-05 0.00020147 1.09393e-06
2.24807e-07 1.09393e-06 2.20513e-05
0.000373771 1.63456e-05 3.81587e-06
1.63456e-05 -3.66881e-05 -6.84142e-06
3.81587e-06 -6.84142e-06 -6.47123e-05
0.000268643 5.40971e-06 1.59617e-06
5.40971e-06 -6.8671e-05 1.28805e-07
1.59617e-06 1.28805e-07 -0.000158212
0.0003323 -0.000135662 -3.74169e-07
-0.000135662 3.24702e-05 6.88818e-06
-3.74169e-07 6.88818e-06 -0.000132315
0.00240402 1.23991e-06 -1.73154e-05
1.23991e-06 0.00130207 -6.53907e-06
-1.73154e-05 -6.53907e-06 0.00131458
0.000365596 1.29191e-05 1.07462e-06
1.29191e-05 -4.23145e-05 -7.20046e-08
1.07462e-06 -7.20046e-08 -6.61454e-05
0.000359685 -1.73052e-05 -6.51472e-06
-1.73052e-05 -6.45994e-06 5.98294e-06
-6.51472e-06 5.98294e-06 -8.53455e-05
0.00235389 1.77933e-05 -6.06292e-06
1.77933e-05 0.00127022 -2.47932e-08
-6.06292e-06 -2.47932e-08 0.00128258
0.000364917 -2.48675e-06 -4.03572e-06
-2.48675e-06 -4.13792e-05 5.40395e-06
-4.03572e-06 5.40395e-06 -6.36552e-05
0.00242289 3.72327e-05 1.02875e-05
3.72327e-05 0.00131826 7.06182e-06
1.02875e-05 7.06182e-06 0.00132817
-0.00161018 -0.00262944 -0.000369643
-0.00262944 2.4768e-05 0.000149639
-0.000369643 0.000149639 -0.00537537
0.00740667 0.00453976 -0.000452332
0.00453976 0.015069 8.32335e-05
-0.000452332 8.32335e-05 0.00504704
0.00980605 0.00273176 -0.00224695
0.00273176 0.00769657 0.00033643
-0.00224695 0.00033643 0.00335161
0.000502603 0.00013218 1.03818e-05
0.00013218 0.000188487 2.02397e-06
1.03818e-05 2.02397e-06 -6.10783e-05
0.00871855 -0.00218004 -0.000275374
-0.00218004 0.00624655 0.000387058
-0.000275374 0.000387058 0.00212687
0.00537942 -0.00204897 -0.000292087
-0.00204897 0.00312724 3.44188e-05
-0.000292087 3.44188e-05 -0.00274999
0.0274612 0.0141726 -2.13754e-06
0.0141726 0.0179661 -0.000757375
-2.13754e-06 -0.000757375 0.00303368
0.00687303 -0.00269212 0.000215021
-0.00269212 -0.00252452 -4.18415e-05
0.000215021 -4.18415e-05 0.000124931
0.0117639 -0.00572507 0.000429915
-0.00572507 -0.00475259 -0.000365055
0.000429915 -0.000365055 -0.00173621
0.0233969 0.00825019 -0.00130882
0.00825019 0.010931 0.000151878
-0.00130882 0.000151878 -0.000218891
0.0200795 0.00587399 0.00063843
0.00587399 0.0143449 0.000403217
0.00063843 0.000403217 0.00795541
0.00748643 -0.00493713 -9.80738e-05
-0.00493713 -0.00203221 1.4072e-06
-9.80738e-05 1.4072e-06 0.000610372
0.0109116 -0.0101174 3.67321e-05
-0.0101174 -0.00061787 -9.32618e-05
3.67321e-05 -9.32618e-05 -0.00150423
0.0160772 0.0022201 6.52567e-05
0.0022201 0.0118518 -0.000593742
6.52567e-05 -0.000593742 0.00169447
0.0184937 0.00140458 -3.93916e-05
0.00140458 0.00458439 0.00010041
-3.93916e-05 0.00010041 0.000144159
0.00485605 -0.0064515 1.00838e-05
-0.0064515 0.000460796 5.19636e-05
1.00838e-05 5.19636e-05 0.0014438
0.0080625 -0.00910596 0.000445129
-0.00910596 0.00457783 -0.000266612
0.000445129 -0.000266612 0.000162788
0.00843155 0.000845455 -0.000164374
0.000845455 0.0078233 -0.000517136
-0.000164374 -0.000517136 0.00117167
0.0184196 -0.000979303 -0.000318136
-0.000979303 0.00155918 0.000346646
-0.000318136 0.000346646 0.000690813
0.000273751 0.000278829 2.25095e-05
0.000278829 0.000112804 2.06794e-05
2.25095e-05 2.06794e-05 -0.000116225
0.000495051 -0.000116027 -1.09632e-06
-0.000116027 0.000264242 -3.2096e-06
-1.09632e-06 -3.2096e-06 -1.23364e-05
-0.000444376 -3.74097e-05 3.1054e-06
-3.74097e-05 -0.000446881 2.14052e-06
3.1054e-06 2.14052e-06 -0.000595085
0.000746547 0.000255387 1.55781e-05
0.000255387 0.000282884 2.34656e-05
1.55781e-05 2.34656e-05 7.71573e-05
0.00107723 0.000286097 -3.52404e-06
0.000286097 0.000585984 -4.31873e-06
-3.52404e-06 -4.31873e-06 0.000312958
0.000563649 0.000108152 1.49103e-06
0.000108152 0.000249731 8.77465e-08
1.49103e-06 8.77465e-08 2.36143e-05
0.00146666 0.000256402 -1.93163e-06
0.000256402 0.00085996 -2.04318e-07
-1.93163e-06 -2.04318e-07 0.000573067
0.0011357 0.000229595 7.15082e-07
0.000229595 0.000632476 7.52391e-06
7.15082e-07 7.52391e-06 0.000359575
0.00286126 -0.00195926 0.000182192
-0.00195926 -0.000697892 -0.000115959
0.000182192 -0.000115959 4.48273e-05
-0.000982009 -0.00110513 -1.15371e-05
-0.00110513 -0.00128501 -1.71815e-05
-1.15371e-05 -1.71815e-05 -0.0015855
-0.000993505 6.07306e-05 -1.09237e-05
6.07306e-05 -0.000702481 -8.562e-06
-1.09237e-05 -8.562e-06 -0.000925491
6.73668e-05 -0.000652242 2.07377e-05
-0.000652242 7.18125e-05 -1.24464e-05
2.07377e-05 -1.24464e-05 -0.000262672
0.00251938 -0.000574836 -3.80541e-05
-0.000574836 0.00169785 1.11042e-05
-3.80541e-05 1.11042e-05 0.00127034
0.00103552 -0.000122433 1.46803e-05
-0.000122433 0.000827259 -3.14336e-05
1.46803e-05 -3.14336e-05 0.000374067
-0.000770739 0.000199828 3.0814e-06
0.000199828 -0.000413177 1.90812e-05
3.0814e-06 1.90812e-05 -0.00068867
0.0019509 -0.00301149 -2.05901e-05
-0.00301149 4.21838e-05 -4.41751e-06
-2.05901e-05 -4.41751e-06 -0.000634286
0.0011808 -0.000253489 -6.34402e-06
-0.000253489 0.00102584 4.75066e-06
-6.34402e-06 4.75066e-06 0.00054873
-0.000551351 -0.000196511 -2.03924e-06
-0.000196511 0.000117339 8.38952e-06
-2.03924e-06 8.38952e-06 -0.000446798
-0.000747418 -0.000860286 9.70181e-06
-0.000860286 -0.000322075 1.56927e-06
9.70181e-06 1.56927e-06 -0.000684677
-0.000895569 -4.02977e-05 2.24987e-05
-4.02977e-05 -0.00041739 -3.99514e-06
2.24987e-05 -3.99514e-06 -0.000706043
0.00294194 -0.00310197 -0.000104854
-0.00310197 0.00240277 -1.16559e-05
-0.000104854 -1.16559e-05 0.00086317
-0.000754681 -0.000777633 8.70248e-06
-0.000777633 5.87416e-05 -1.40604e-05
8.70248e-06 -1.40604e-05 -0.000577793
7.37756e-05 -5.94388e-06 2.1653e-05
-5.94388e-06 0.000657847 -9.19947e-06
2.1653e-05 -9.19947e-06 -6.15624e-05
-0.000390838 -7.98875e-05 1.57772e-05
-7.98875e-05 0.000392538 2.74845e-05
1.57772e-05 2.74845e-05 -0.000380339
0.00120155 -0.00025274 0.000414098
-0.00025274 0.00656969 9.95137e-05
0.000414098 9.95137e-05 0.00178801
-0.000334969 9.81061e-05 0.000213627
9.81061e-05 0.00133878 -9.79717e-06
0.000213627 -9.79717e-06 -0.00428234
-0.01323 -0.00074312 -0.00114287
-0.00074312 0.0058916 2.3613e-05
-0.00114287 2.3613e-05 0.000839718
0.00232898 0.00122979 2.70602e-05
0.00122979 0.00143731 6.66255e-06
2.70602e-05 6.66255e-06 0.000796304
-0.000512046 0.00160808 2.99277e-05
0.00160808 0.000157888 1.72428e-05
2.99277e-05 1.72428e-05 -0.000839051
0.00557728 0.00307901 0.000885283
0.00307901 0.00556976 0.00021941
0.000885283 0.00021941 -0.00047309
0.00319873 0.00646159 0.00024096
0.00646159 0.00349895 0.000274527
0.00024096 0.000274527 -0.000542988
0.000985447 0.00486546 -0.000280913
0.00486546 0.00171131 -0.000246715
-0.000280913 -0.000246715 -0.000789507
0.00840222 -0.00174894 -0.000133467
-0.00174894 0.00747996 -0.000545208
-0.000133467 -0.000545208 0.000647659
0.00486721 0.000441504 4.63672e-05
0.000441504 0.00300544 9.76756e-05
4.63672e-05 9.76756e-05 -0.000457191
0.0115088 -0.000130577 -4.10828e-05
-0.000130577 -0.00348025 -0.000304283
-4.10828e-05 -0.000304283 -0.00360456
0.000742778 0.00113159 5.1791e-06
0.00113159 0.000888017 -8.7014e-07
5.1791e-06 -8.7014e-07 1.59088e-05
-0.00202304 0.000912206 1.85461e-05
0.000912206 0.00343808 2.10969e-06
1.85461e-05 2.10969e-06 -0.00118574
0.00824383 -0.000661515 0.000320166
-0.000661515 0.000968798 7.09049e-06
0.000320166 7.09049e-06 -0.00227495
-0.00220652 0.00136191 -3.84811e-05
0.00136191 0.000374015 -1.9922e-05
-3.84811e-05 -1.9922e-05 -0.00110251
0.0195885 0.00179944 4.22912e-05
0.00179944 0.00453493 -0.000111919
4.22912e-05 -0.000111919 -8.16454e-07
0.00390681 0.00351513 0.000446873
0.00351513 0.00670206 0.000294084
0.000446873 0.000294084 -0.00104394
0.0163902 0.000710008 -0.000237537
0.000710008 0.0061173 -3.26285e-05
-0.000237537 -3.26285e-05 4.20048e-05
0.000117238 0.000986183 -6.9434e-07
0.000986183 0.000812184 -1.61672e-05
-6.9434e-07 -1.61672e-05 -0.000257185
0.00518034 2.52436e-05 0.000156142
2.52436e-05 0.00365459 7.75327e-05
0.000156142 7.75327e-05 9.68024e-05
0.00383147 -0.00421929 0.00042783
-0.00421929 0.00507346 -0.000264282
0.00042783 -0.000264282 0.00161486
0.0381389 0.0083934 0.000689465
0.0083934 0.0175622 -0.000446259
0.000689465 -0.000446259 0.00762501
0.0104077 -3.45367e-05 1.50381e-05
-3.45367e-05 0.0089697 0.000654755
1.50381e-05 0.000654755 0.00211219
-0.00201684 0.00124831 -0.000214395
0.00124831 0.00143011 -0.000135601
-0.000214395 -0.000135601 -0.000237442
0.00112426 -0.000159541 0.000174872
-0.000159541 0.00598211 -4.32554e-05
0.000174872 -4.32554e-05 -0.00463264
0.000659218 0.000575336 2.93581e-06
0.000575336 0.000729361 1.47357e-05
2.93581e-06 1.47357e-05 8.39771e-05
0.000456668 0.000367399 4.66922e-06
0.000367399 0.000945197 5.41036e-06
4.66922e-06 5.41036e-06 0.000178147
0.000392379 -0.000167217 -1.0117e-05
-0.000167217 0.00136806 2.22998e-05
-1.0117e-05 2.22998e-05 0.000604547
-0.000848063 3.76766e-05 1.6284e-05
3.76766e-05 -0.000437884 -3.46353e-06
1.6284e-05 -3.46353e-06 -0.000756294
-0.00022688 1.36381e-05 5.90215e-06
1.36381e-05 0.000367236 9.11374e-06
5.90215e-06 9.11374e-06 -0.000201682
0.000154432 4.77236e-05 -7.9133e-06
4.77236e-05 0.000774061 -2.59594e-06
-7.9133e-06 -2.59594e-06 9.21512e-05
0.000173087 -2.81073e-05 -5.14618e-06
-2.81073e-05 0.000449081 1.32001e-06
-5.14618e-06 1.32001e-06 5.1316e-05
0.000279855 -0.000105897 9.70407e-07
-0.000105897 0.000774817 2.75501e-06
9.70407e-07 2.75501e-06 0.000215391
0.00442357 -0.000846835 2.11185e-05
-0.000846835 0.00286478 -9.8872e-06
2.11185e-05 -9.8872e-06 0.0024251
-9.18127e-05 -5.41849e-05 -1.06701e-06
-5.41849e-05 0.000199186 -6.46434e-06
-1.06701e-06 -6.46434e-06 -0.000132516
-0.00526258 0.000101068 6.8702e-07
0.000101068 -0.00304535 -6.1256e-06
6.8702e-07 -6.1256e-06 -0.0035853
0.00100666 -0.000598884 -3.03114e-06
-0.000598884 0.000690705 4.85424e-06
-3.03114e-06 4.85424e-06 0.000105928
-0.00212377 -0.000193064 2.29119e-05
-0.000193064 -0.00133266 1.81687e-05
2.29119e-05 1.81687e-05 -0.00174584
-0.000428211 -0.000254435 4.78866e-06
-0.000254435 -0.00032758 -5.28738e-06
4.78866e-06 -5.28738e-06 -0.000522784
9.1915e-05 -0.00054556 -1.49656e-05
-0.00054556 -0.000276577 -5.33704e-06
-1.49656e-05 -5.33704e-06 -0.000647554
0.00200209 -0.00107496 -1.23141e-05
-0.00107496 0.000799784 5.03271e-06
-1.23141e-05 5.03271e-06 8.95925e-06
0.00235637 -0.00131699 -1.61563e-05
-0.00131699 0.000849994 5.38876e-06
-1.61563e-05 5.38876e-06 4.07363e-05
0.00240426 -0.00063815 5.55363e-06
-0.00063815 0.00117653 -1.31914e-05
5.55363e-06 -1.31914e-05 0.000804688
0.00196611 -0.000971137 -3.01068e-06
-0.000971137 0.000789595 2.57346e-06
-3.01068e-06 2.57346e-06 0.000147638
0.00199491 -0.00118817 9.57855e-06
-0.00118817 0.000640222 -6.46925e-06
9.57855e-06 -6.46925e-06 -9.76894e-05
0.00161259 -0.000837632 5.69682e-06
-0.000837632 0.000587567 2.48893e-06
5.69682e-06 2.48893e-06 1.16454e-05
0.00174564 -0.00109137 5.03697e-06
-0.00109137 0.000573642 -4.50793e-06
5.03697e-06 -4.50793e-06 -0.000135097
0.00210828 -0.000366222 -2.52206e-06
-0.000366222 0.000968797 -8.86532e-06
-2.52206e-06 -8.86532e-06 0.00065991
0.000598869 -0.000493163 -6.98335e-07
-0.000493163 -4.77813e-05 3.00941e-07
-6.98335e-07 3.00941e-07 -0.000427966
0.0013582 -0.000819811 9.98977e-06
-0.000819811 0.000492071 -1.15683e-05
9.98977e-06 -1.15683e-05 -6.25026e-05
-0.000396582 -0.000165037 6.5932e-06
-0.000165037 -0.000352177 -2.99893e-07
6.5932e-06 -2.99893e-07 -0.000778201
0.000526157 -0.000305135 -7.56246e-08
-0.000305135 0.000251353 -5.41699e-07
-7.56246e-08 -5.41699e-07 -0.000175765
-0.000547666 -0.000207927 2.57801e-07
-0.000207927 -0.000595985 -8.05775e-07
2.57801e-07 -8.05775e-07 -0.000909277
0.00154851 -0.000484943 -1.01588e-05
-0.000484943 0.000876444 1.72636e-05
-1.01588e-05 1.72636e-05 0.000487388
0.00102995 -0.00033077 2.08125e-06
-0.00033077 0.000496378 9.65553e-07
2.08125e-06 9.65553e-07 0.000135593
-0.000664893 -8.63693e-05 5.3075e-06
-8.63693e-05 -0.00063625 1.25278e-05
5.3075e-06 1.25278e-05 -0.000910889
0.000845938 -0.000554199 -1.42891e-05
-0.000554199 0.000439178 -6.82166e-06
-1.42891e-05 -6.82166e-06 0.000105363
0.000480484 -0.000113913 -8.2392e-07
-0.000113913 8.1447e-05 -1.24422e-07
-8.2392e-07 -1.24422e-07 -0.000113672
0.000366739 2.6537e-05 2.92189e-06
2.6537e-05 -3.30256e-05 1.36608e-05
2.92189e-06 1.36608e-05 -9.55114e-05
0.00167715 -0.00019841 -7.18537e-06
-0.00019841 0.000882147 -6.24124e-06
-7.18537e-06 -6.24124e-06 0.000717904
0.000449732 -5.34513e-05 -2.7735e-06
-5.34513e-05 1.00783e-05 1.9445e-07
-2.7735e-06 1.9445e-07 -3.68988e-05
0.0027997 9.62961e-05 5.14596e-06
9.62961e-05 0.00156528 3.85995e-06
5.14596e-06 3.85995e-06 0.00156432
0.000475842 -6.35274e-05 3.28064e-06
-6.35274e-05 3.56667e-05 -6.73924e-06
3.28064e-06 -6.73924e-06 -8.34119e-06
0.00183606 3.42156e-05 2.93821e-05
3.42156e-05 0.000923352 -1.74473e-06
2.93821e-05 -1.74473e-06 0.000925471
0.00286592 2.25383e-05 4.31551e-05
2.25383e-05 0.00160506 -6.81938e-06
4.31551e-05 -6.81938e-06 0.00161654
-4.29584e-05 9.48206e-05 1.50933e-06
9.48206e-05 -0.000229084 4.1039e-06
1.50933e-06 4.1039e-06 -0.000440897
-0.000105325 3.70014e-05 2.56068e-06
3.70014e-05 -0.000307746 -8.65595e-06
2.56068e-06 -8.65595e-06 -0.00044448
0.000263203 9.95394e-05 -3.33723e-07
9.95394e-05 -8.04033e-06 4.70742e-07
-3.33723e-07 4.70742e-07 -0.000224322
0.000403716 1.7566e-05 4.20791e-06
1.7566e-05 -1.96479e-05 -7.8694e-06
4.20791e-06 -7.8694e-06 -5.27202e-05
-6.64981e-05 3.58175e-05 -8.70698e-07
3.58175e-05 -0.000286601 -2.69755e-06
-8.70698e-07 -2.69755e-06 -0.000395045
0.000789494 0.000116178 -2.53665e-07
0.000116178 0.000358866 7.52078e-06
-2.53665e-07 7.52078e-06 0.00015785
0.0025504 -1.47099e-05 -2.37816e-05
-1.47099e-05 0.00139923 -6.67168e-06
-2.37816e-05 -6.67168e-06 0.00141057
0.000376709 1.45357e-05 -6.39802e-07
1.45357e-05 -3.66179e-05 -1.95427e-07
-6.39802e-07 -1.95427e-07 -6.38092e-05
-0.000178318 2.2003e-05 -2.63436e-07
2.2003e-05 -0.000365676 6.87811e-06
-2.63436e-07 6.87811e-06 -0.000455493
0.00239561 1.54207e-06 -4.88671e-06
1.54207e-06 0.0012967 1.12526e-07
-4.88671e-06 1.12526e-07 0.00130923
0.000375679 1.85207e-05 -2.45271e-06
1.85207e-05 -3.51621e-05 5.97488e-06
-2.45271e-06 5.97488e-06 -5.89123e-05
0.00235321 1.87172e-05 1.31407e-05
1.87172e-05 0.00127034 6.40746e-06
1.31407e-05 6.40746e-06 0.00128246
0.00105327 -0.000341225 0.000391783
-0.000341225 0.00660209 0.000224335
0.000391783 0.000224335 0.00337989
-0.00182363 -0.000886932 -6.67956e-05
-0.000886932 0.000376767 9.89807e-06
-6.67956e-05 9.89807e-06 -0.00547271
0.00345417 0.00448301 -0.000829615
0.00448301 0.0138405 -0.000213526
-0.000829615 -0.000213526 0.00371329
0.000811137 0.000207861 -4.76053e-07
0.000207861 0.000381638 7.33827e-07
-4.76053e-07 7.33827e-07 0.000137434
-0.000673972 0.000155946 9.33584e-06
0.000155946 -0.000523911 5.34348e-08
9.33584e-06 5.34348e-08 -0.000817579
0.00254813 0.000384082 3.0031e-05
0.000384082 0.00155014 6.79588e-06
3.0031e-05 6.79588e-06 0.00130057
0.0105557 -0.00141185 -0.000525603
-0.00141185 0.000872942 7.22941e-05
-0.000525603 7.22941e-05 -0.00295699
0.00972018 -0.00392875 0.000234241
-0.00392875 0.00551691 5.74118e-05
0.000234241 5.74118e-05 0.0025376
0.00483391 -0.00536226 0.000388905
-0.00536226 0.00219079 -0.000365432
0.000388905 -0.000365432 -0.00305015
0.00875776 -0.00560103 4.3995e-05
-0.00560103 -0.00208477 -0.000120269
4.3995e-05 -0.000120269 0.000816552
0.00366831 -0.00980827 -0.00128533
-0.00980827 -0.00464074 0.000101796
-0.00128533 0.000101796 -0.00352997
0.0330216 0.00878879 0.001068
0.00878879 0.019414 0.000398536
0.001068 0.000398536 0.00623389
0.0102292 -0.00196655 0.000533442
-0.00196655 -0.000337042 -0.00033439
0.000533442 -0.00033439 -0.00401292
0.00369307 -0.00600234 8.34004e-06
-0.00600234 -0.000465067 1.26929e-05
8.34004e-06 1.26929e-05 0.00102541
0.00403971 -0.00970074 -0.000353143
-0.00970074 0.00301952 1.52479e-05
-0.000353143 1.52479e-05 -0.00279632
0.0104114 0.00516943 -0.000221605
0.00516943 0.00872781 -0.000444961
-0.000221605 -0.000444961 0.000627617
0.0150325 -0.000615007 -0.000212582
-0.000615007 -0.000667161 0.000192601
-0.000212582 0.000192601 -0.00115067
0.000770775 -0.00512443 -0.000227029
-0.00512443 0.00196138 0.000132049
-0.000227029 0.000132049 0.000469094
0.00827829 -0.00483686 -0.000437398
-0.00483686 0.00688502 0.000338541
-0.000437398 0.000338541 0.000253404
0.0123074 -0.00028961 4.56621e-05
-0.00028961 0.00475031 -0.000400617
4.56621e-05 -0.000400617 -0.000781456
0.0104519 0.00127291 -7.89802e-05
0.00127291 -0.00041545 0.000263489
-7.89802e-05 0.000263489 -0.00333873
-0.000406985 0.000128835 1.77425e-05
0.000128835 -0.000316885 3.34259e-05
1.77425e-05 3.34259e-05 -0.000482992
0.000558492 1.1215e-05 -5.97581e-06
1.1215e-05 0.000303951 2.06352e-06
-5.97581e-06 2.06352e-06 8.00592e-05
0.0013891 -0.000395217 1.26354e-05
-0.000395217 0.000861592 -1.03604e-05
1.26354e-05 -1.03604e-05 0.000571412
0.000392022 0.000200428 4.81412e-07
0.000200428 4.99092e-05 4.9072e-06
4.81412e-07 4.9072e-06 -0.000143602
0.000938761 0.000299385 -2.02717e-06
0.000299385 0.000514896 -1.17135e-05
-2.02717e-06 -1.17135e-05 0.000238768
0.00117539 0.000310456 -7.91341e-06
0.000310456 0.000667397 -4.38678e-06
-7.91341e-06 -4.38678e-06 0.000383651
0.00128864 -0.00251391 8.14239e-05
-0.00251391 -5.42948e-05 -3.84571e-05
8.14239e-05 -3.84571e-05 -0.000505452
0.000428068 -0.000907444 1.33539e-05
-0.000907444 0.000170265 -3.15621e-05
1.33539e-05 -3.15621e-05 -0.000105152
-0.00034381 0.000265889 -1.09417e-05
0.000265889 -0.000194124 -3.51371e-05
-1.09417e-05 -3.51371e-05 -0.000488308
0.00081014 -0.000350456 4.03341e-05
-0.000350456 0.000725007 -2.33966e-05
4.03341e-05 -2.33966e-05 0.000212833
0.00317744 -0.000183363 2.57283e-06
-0.000183363 0.00220607 -4.33466e-05
2.57283e-06 -4.33466e-05 0.00174366
-0.000429225 5.44286e-05 9.38998e-06
5.44286e-05 -0.00011523 8.22155e-06
9.38998e-06 8.22155e-06 -0.000405321
-0.000481663 2.06024e-05 4.86671e-06
2.06024e-05 0.000322972 2.03468e-05
4.86671e-06 2.03468e-05 -0.000382809
0.00149372 -0.00269967 -2.28855e-05
-0.00269967 0.00169376 -1.16888e-05
-2.28855e-05 -1.16888e-05 0.000299243
8.39253e-05 -1.79808e-05 -6.56501e-06
-1.79808e-05 0.000717673 -1.44138e-06
-6.56501e-06 -1.44138e-06 -4.81494e-05
0.000254633 -0.000745654 -2.08165e-06
-0.000745654 0.000947154 5.74763e-06
-2.08165e-06 5.74763e-06 9.07849e-05
0.000272237 0.000257158 5.3222e-05
0.000257158 0.000640393 -4.7252e-05
5.3222e-05 -4.7252e-05 5.73457e-05
-0.00339767 -0.000459358 -0.000245006
-0.000459358 0.00026969 2.10307e-05
-0.000245006 2.10307e-05 -0.0010368
-0.000769026 -0.000312386 -7.14654e-05
-0.000312386 0.00115584 -2.36842e-05
-7.14654e-05 -2.36842e-05 0.000142904
-0.00346535 -0.000116978 6.75974e-06
-0.000116978 -0.00107003 -7.29094e-06
6.75974e-06 -7.29094e-06 -0.00188846
0.00200203 0.000857528 1.20471e-05
0.000857528 0.000196115 -1.83653e-05
1.20471e-05 -1.83653e-05 -0.00616762
-0.00100046 0.00153111 0.000276148
0.00153111 0.00609383 3.16432e-05
0.000276148 3.16432e-05 0.00170612
-0.00251631 0.000447338 0.000530513
0.000447338 0.000603547 4.90612e-05
0.000530513 4.90612e-05 -0.00461122
-0.000255819 0.00116988 1.51283e-05
0.00116988 0.000250256 2.97588e-05
1.51283e-05 2.97588e-05 -0.000697382
0.00157579 0.00210303 6.55187e-06
0.00210303 0.00177969 -4.74396e-05
6.55187e-06 -4.74396e-05 0.000285766
-0.00137309 0.000989913 -0.000374306
0.000989913 0.00396088 -0.000111205
-0.000374306 -0.000111205 -0.000781778
-0.00272222 0.00181898 0.000314178
0.00181898 0.00549296 0.000314725
0.000314178 0.000314725 -0.00145856
0.00920775 0.000275477 -0.000227115
0.000275477 6.73745e-05 -0.000540131
-0.000227115 -0.000540131 -0.0066065
0.00843515 0.000151756 0.000107407
0.000151756 0.000319837 -2.63783e-05
0.000107407 -2.63783e-05 -0.00220823
0.00918492 -0.00185998 -0.000548971
-0.00185998 -0.00093146 0.000321088
-0.000548971 0.000321088 -0.00424001
0.000599509 0.000894686 -2.02866e-05
0.000894686 0.00111361 -4.46535e-06
-2.02866e-05 -4.46535e-06 0.000168279
0.00274341 0.000852035 0.000110391
0.000852035 0.00362633 6.51139e-05
0.000110391 6.51139e-05 0.000179918
0.00890578 -0.002788 -0.000229032
-0.002788 0.00502511 -4.59812e-05
-0.000229032 -4.59812e-05 0.00233249
-0.000210531 0.00135774 -0.000188592
0.00135774 0.00327841 -3.08898e-05
-0.000188592 -3.08898e-05 0.000330589
0.027728 0.00804454 -0.000570023
0.00804454 0.0140854 -0.000608247
-0.000570023 -0.000608247 0.00473444
0.0147246 0.0040371 0.000142037
0.0040371 0.0101896 0.000507708
0.000142037 0.000507708 0.000820847
0.00792076 0.00310104 0.000124967
0.00310104 0.00852594 -1.02039e-06
0.000124967 -1.02039e-06 0.000555842
7.12013e-05 4.54007e-05 5.47593e-05
4.54007e-05 0.00199833 -1.72841e-05
5.47593e-05 -1.72841e-05 8.59049e-05
0.00243927 0.000413664 -0.000413982
0.000413664 0.00844267 -1.04183e-05
-0.000413982 -1.04183e-05 0.00488754
0.0013331 -0.00143929 0.000786111
-0.00143929 0.00121697 -0.000279223
0.000786111 -0.000279223 -0.00525669
0.0462401 0.0189835 -4.83618e-05
0.0189835 0.0314031 -0.000249268
-4.83618e-05 -0.000249268 0.014431
0.019542 0.00657138 0.000989352
0.00657138 0.0106514 0.00145594
0.000989352 0.00145594 -0.000782486
0.0121353 -0.00696126 0.000699147
-0.00696126 0.00907871 -0.000469329
0.000699147 -0.000469329 -5.93834e-05
7.26659e-05 -0.000924774 -9.47715e-05
-0.000924774 0.00409573 6.74197e-05
-9.47715e-05 6.74197e-05 0.00202195
0.00101783 0.000389388 -6.95418e-06
0.000389388 0.00127276 1.93362e-06
-6.95418e-06 1.93362e-06 0.000573636
-0.000213148 -0.000124593 -1.22912e-05
-0.000124593 0.000777803 -7.93935e-06
-1.22912e-05 -7.93935e-06 -6.8659e-05
0.0012041 -0.000949667 6.76889e-05
-0.000949667 0.00132994 -1.7341e-05
6.76889e-05 -1.7341e-05 0.000325088
-0.000653912 1.76688e-05 -1.53372e-07
1.76688e-05 -8.03715e-05 6.2608e-06
-1.53372e-07 6.2608e-06 -0.000460643
-0.000730054 -8.25886e-05 1.8866e-05
-8.25886e-05 0.000230594 -1.58125e-05
1.8866e-05 -1.58125e-05 -0.000355043
0.00114386 -0.000503047 -1.10835e-05
-0.000503047 0.00106378 1.19479e-06
-1.10835e-05 1.19479e-06 0.000675379
0.00265446 -0.00127372 5.07261e-05
-0.00127372 0.0016061 -1.4947e-05
5.07261e-05 -1.4947e-05 0.000784643
-0.00145433 -0.000337152 6.39505e-06
-0.000337152 -0.000686731 -5.55592e-06
6.39505e-06 -5.55592e-06 -0.00139357
0.0019258 -0.000959758 2.11355e-05
-0.000959758 0.000811285 -7.58593e-06
2.11355e-05 -7.58593e-06 0.000260798
-0.000698836 -0.000698409 -6.68057e-06
-0.000698409 -0.000482221 -2.71194e-06
-6.68057e-06 -2.71194e-06 -0.00149363
0.00077857 -0.000628624 -9.72342e-06
-0.000628624 0.00015574 1.11143e-06
-9.72342e-06 1.11143e-06 -0.000190541
0.00196584 -0.00106713 -1.73279e-08
-0.00106713 0.000762745 -1.21549e-06
-1.73279e-08 -1.21549e-06 -2.05941e-05
0.00229637 -0.00139524 -2.31922e-05
-0.00139524 0.000743227 3.3801e-06
-2.31922e-05 3.3801e-06 -0.000193505
0.00285833 -0.00153912 -1.45077e-05
-0.00153912 0.00084837 8.55037e-08
-1.45077e-05 8.55037e-08 1.3817e-05
0.00244805 -0.00144967 -4.0294e-06
-0.00144967 0.000828568 4.00314e-08
-4.0294e-06 4.00314e-08 -1.62503e-05
0.00251815 -0.0013315 -5.03952e-06
-0.0013315 0.000933426 1.38168e-06
-5.03952e-06 1.38168e-06 0.000120487
0.00170511 -0.000942959 8.17922e-06
-0.000942959 0.000622814 -1.07772e-05
8.17922e-06 -1.07772e-05 -1.80277e-05
0.00223184 -0.0011897 1.68625e-05
-0.0011897 0.000895681 -7.95185e-06
1.68625e-05 -7.95185e-06 0.000143313
0.00184772 -0.00118348 1.12723e-05
-0.00118348 0.000548089 -3.85372e-06
1.12723e-05 -3.85372e-06 -0.000189447
0.00144742 -0.000535667 -1.22334e-06
-0.000535667 0.000468202 -3.59423e-06
-1.22334e-06 -3.59423e-06 5.01112e-05
0.00227243 -0.000916802 5.44419e-06
-0.000916802 0.00098923 -5.47974e-06
5.44419e-06 -5.47974e-06 0.000398698
0.00106013 -0.000998074 3.00203e-06
-0.000998074 0.000154932 -5.59119e-06
3.00203e-06 -5.59119e-06 -0.000526395
0.000300531 2.0649e-06 9.59123e-07
2.0649e-06 -2.83421e-05 -2.41533e-06
9.59123e-07 -2.41533e-06 -0.000376895
0.000450651 -0.000385504 8.28876e-07
-0.000385504 -8.48834e-05 1.3997e-07
8.28876e-07 1.3997e-07 -0.000410982
0.000705454 -0.000522682 -1.22732e-05
-0.000522682 1.05716e-05 2.53495e-06
-1.22732e-05 2.53495e-06 -0.000393282
0.00023094 -0.000233748 5.03921e-06
-0.000233748 -4.93393e-05 9.96414e-06
5.03921e-06 9.96414e-06 -0.000398186
0.000986351 -0.000355311 -1.98116e-07
-0.000355311 0.000522832 1.10039e-06
-1.98116e-07 1.10039e-06 9.44753e-05
-0.0016483 -0.000443809 -4.06803e-06
-0.000443809 -0.00114134 1.04229e-05
-4.06803e-06 1.04229e-05 -0.00156506
0.00187771 -0.000521092 -7.2685e-06
-0.000521092 0.00103146 -3.4031e-06
-7.2685e-06 -3.4031e-06 0.000665329
0.00106255 -0.000187737 -7.64239e-07
-0.000187737 0.000453894 6.23445e-07
-7.64239e-07 6.23445e-07 0.000196708
0.000238393 -2.00342e-05 1.27752e-06
-2.00342e-05 -0.000113197 1.8801e-05
1.27752e-06 1.8801e-05 -0.00020283
0.00194602 -0.000192376 -1.85711e-06
-0.000192376 0.00101761 -1.40694e-05
-1.85711e-06 -1.40694e-05 0.000824774
0.000426545 -2.47704e-05 -7.46804e-06
-2.47704e-05 7.35257e-06 -9.20602e-07
-7.46804e-06 -9.20602e-07 -6.02636e-05
0.00364379 0.000107728 -5.40577e-05
0.000107728 0.0021332 7.7821e-06
-5.40577e-05 7.7821e-06 0.00213026
0.000552511 -6.05243e-05 2.59533e-06
-6.05243e-05 6.81096e-05 -1.12436e-05
2.59533e-06 -1.12436e-05 2.06215e-05
0.00212286 6.17569e-05 3.40453e-05
6.17569e-05 0.00111268 -6.21637e-07
3.40453e-05 -6.21637e-07 0.00111011
0.00293002 4.19978e-05 4.82286e-05
4.19978e-05 0.00164503 -6.51716e-06
4.82286e-05 -6.51716e-06 0.00165476
0.00157961 0.000243935 5.78225e-07
0.000243935 0.000885293 -1.06678e-05
5.78225e-07 -1.06678e-05 0.000614775
0.000692941 0.000122459 3.46373e-06
0.000122459 0.000230087 -7.12214e-06
3.46373e-06 -7.12214e-06 6.60541e-05
0.000473205 0.000113097 -1.36964e-06
0.000113097 0.000157536 2.37919e-06
-1.36964e-06 2.37919e-06 -8.99112e-05
0.00042365 4.0125e-05 -9.04295e-07
4.0125e-05 9.58086e-07 -1.07463e-05
-9.04295e-07 -1.07463e-05 -4.24251e-05
0.000177454 6.14545e-05 -2.63705e-06
6.14545e-05 -0.000117788 -4.07138e-06
-2.63705e-06 -4.07138e-06 -0.000251579
0.000588429 0.000104196 -1.22076e-06
0.000104196 0.00022207 -2.13944e-06
-1.22076e-06 -2.13944e-06 5.69105e-08
0.00260392 -3.17166e-05 -2.76201e-05
-3.17166e-05 0.0014355 -7.14069e-06
-2.76201e-05 -7.14069e-06 0.00144526
0.000365105 3.39883e-06 8.50725e-07
3.39883e-06 -4.25312e-05 -3.56674e-07
8.50725e-07 -3.56674e-07 -7.57018e-05
0.000142747 2.29636e-05 -3.02351e-06
2.29636e-05 -0.000143484 4.05179e-06
-3.02351e-06 4.05179e-06 -0.00025945
0.00248186 -1.47961e-05 -7.06189e-06
-1.47961e-05 0.0013537 1.54383e-07
-7.06189e-06 1.54383e-07 0.00136538
0.000383798 8.68224e-06 -5.42753e-06
8.68224e-06 -3.28057e-05 6.49664e-06
-5.42753e-06 6.49664e-06 -5.93369e-05
0.00242952 2.76839e-06 1.79237e-05
2.76839e-06 0.00131965 6.4598e-06
1.79237e-05 6.4598e-06 0.00133197
0.00399691 -0.000145345 -0.00031897
-0.000145345 0.00310196 -1.47948e-05
-0.00031897 -1.47948e-05 -0.000496205
-0.0022806 0.000245192 0.000264239
0.000245192 0.00630277 -9.49135e-07
0.000264239 -9.49135e-07 0.00204495
-6.92742e-05 -0.000599276 2.42888e-05
-0.000599276 0.00161183 -0.000302345
2.42888e-05 -0.000302345 -0.00491897
-0.000994664 -5.0866e-05 7.8883e-06
-5.0866e-05 -0.000643915 -7.76782e-06
7.8883e-06 -7.76782e-06 -0.00108611
0.00613804 0.00059411 1.91999e-05
0.00059411 0.00376186 2.05244e-05
1.91999e-05 2.05244e-05 0.00343166
0.000119956 0.00017304 -6.23458e-06
0.00017304 -4.29494e-05 -2.50226e-06
-6.23458e-06 -2.50226e-06 -0.000290699
-0.00026949 9.36569e-05 1.77377e-06
9.36569e-05 -0.000306682 -3.12574e-06
1.77377e-06 -3.12574e-06 -0.000584908
-0.000524835 5.79758e-05 8.23344e-07
5.79758e-05 -0.000558786 -6.00546e-06
8.23344e-07 -6.00546e-06 -0.000709023
0.000794719 0.000185628 1.09996e-05
0.000185628 0.0003589 -1.60639e-06
1.09996e-05 -1.60639e-06 0.00011991
-2.77515e-05 0.000100568 2.38575e-05
0.000100568 -0.000147599 -1.45137e-05
2.38575e-05 -1.45137e-05 -0.000267588
0.0065798 0.00225593 0.000205725
0.00225593 0.00095323 0.000224931
0.000205725 0.000224931 -0.00258215
0.00923681 -0.000446922 -0.000195107
-0.000446922 0.00115599 2.99269e-05
-0.000195107 2.99269e-05 -0.00291625
0.00742012 -0.00122945 0.000624605
-0.00122945 0.006393 -0.000122777
0.000624605 -0.000122777 0.00226708
0.012071 0.000280902 -6.24086e-05
0.000280902 -0.00295423 0.000239942
-6.24086e-05 0.000239942 -0.00344427
0.00645181 -0.00723729 -0.000129566
-0.00723729 0.000252939 1.96711e-05
-0.000129566 1.96711e-05 0.00106778
1.55615e-06 -0.00809419 -0.000518705
-0.00809419 0.00279405 0.000229333
-0.000518705 0.000229333 -0.00490314
0.0278742 0.00439111 0.000387209
0.00439111 0.0112027 -0.000392872
0.000387209 -0.000392872 0.00304964
0.00389985 -0.00677783 -0.000138525
-0.00677783 0.00173685 9.00656e-05
-0.000138525 9.00656e-05 0.000876079
-0.000299768 -0.00230214 -0.000167081
-0.00230214 0.00647136 8.5233e-05
-0.000167081 8.5233e-05 -0.00291276
0.015608 0.000238647 0.000512631
0.000238647 0.00618684 -4.82483e-05
0.000512631 -4.82483e-05 -0.000430238
0.0209105 -0.00198961 -4.97402e-05
-0.00198961 0.00401112 3.77215e-06
-4.97402e-05 3.77215e-06 0.00221736
-0.00576227 -0.000916107 -0.000235477
-0.000916107 0.000148451 0.000258798
-0.000235477 0.000258798 -0.00102974
0.00107436 0.000113863 -0.000227238
0.000113863 0.00659651 -0.000228674
-0.000227238 -0.000228674 -0.00259623
0.0141532 -0.00602176 -0.000110969
-0.00602176 0.00526409 -0.000250957
-0.000110969 -0.000250957 -0.00454073
0.024771 -0.00207889 0.000866032
-0.00207889 0.0122557 -0.000833558
0.000866032 -0.000833558 0.00590298
-0.000295849 0.000134252 5.07964e-05
0.000134252 0.000303541 -1.99686e-05
5.07964e-05 -1.99686e-05 -0.000336988
0.000264705 0.000201316 -3.49092e-06
0.000201316 0.00014732 -7.11491e-06
-3.49092e-06 -7.11491e-06 -4.26565e-05
0.000167845 -2.42489e-05 1.13252e-06
-2.42489e-05 7.29151e-05 -1.47838e-05
1.13252e-06 -1.47838e-05 -0.000163759
0.000898645 0.00017162 -7.71138e-06
0.00017162 0.000418504 -1.22711e-05
-7.71138e-06 -1.22711e-05 0.000203625
0.000605883 -0.00261197 5.7233e-05
-0.00261197 0.00112473 2.35487e-05
5.7233e-05 2.35487e-05 -0.000304798
0.00125602 -0.000716001 -5.18031e-06
-0.000716001 0.00172259 9.40754e-07
-5.18031e-06 9.40754e-07 0.000712598
0.000134614 6.22499e-05 -4.29225e-05
6.22499e-05 0.000218017 -1.67163e-05
-4.29225e-05 -1.67163e-05 -4.75264e-05
0.00154489 -0.000334781 1.12079e-05
-0.000334781 0.00126268 -7.57938e-05
1.12079e-05 -7.57938e-05 0.000758899
0.000793759 2.52455e-05 -1.64264e-05
2.52455e-05 0.00123323 1.42782e-05
-1.64264e-05 1.42782e-05 0.000580924
0.000319479 0.000179711 -5.34537e-06
0.000179711 0.00055446 1.37667e-05
-5.34537e-06 1.37667e-05 5.27951e-05
0.000979495 -0.000217886 2.44509e-06
-0.000217886 0.00129955 -1.36171e-06
2.44509e-06 -1.36171e-06 0.000589993
7.46606e-05 -0.00149686 5.18467e-05
-0.00149686 0.0020087 -1.61057e-05
5.18467e-05 -1.61057e-05 -4.55994e-05
0.000241221 -0.000133206 -1.75587e-05
-0.000133206 0.00160735 -1.80815e-05
-1.75587e-05 -1.80815e-05 0.000688142
0.000234164 0.00014042 4.06033e-05
0.00014042 0.000473099 -2.27662e-05
4.06033e-05 -2.27662e-05 5.53769e-06
-0.00169637 -0.000143685 -0.000309571
-0.000143685 0.00246287 1.81193e-05
-0.000309571 1.81193e-05 -0.000338313
0.00149464 0.000618698 3.92749e-05
0.000618698 0.00183845 -6.80236e-06
3.92749e-05 -6.80236e-06 0.00105398
-0.00483945 -0.000438173 -2.7297e-05
-0.000438173 0.00592643 -0.000150226
-2.7297e-05 -0.000150226 0.002012
0.00321157 0.000135557 5.38641e-05
0.000135557 0.00227581 3.09723e-05
5.38641e-05 3.09723e-05 -0.00217984
-0.00479524 0.00263305 -0.000181072
0.00263305 0.00544248 -0.000118415
-0.000181072 -0.000118415 0.00042672
0.00128235 0.000788108 -1.64741e-06
0.000788108 0.00162151 -8.50266e-07
-1.64741e-06 -8.50266e-07 0.000814478
-0.00121061 0.00173631 0.000352303
0.00173631 0.00184387 0.000126086
0.000352303 0.000126086 4.51069e-05
0.00102723 -6.33975e-05 9.35238e-05
-6.33975e-05 0.00420736 -5.98063e-06
9.35238e-05 -5.98063e-06 0.00091046
0.00546126 -0.00163795 0.000449193
-0.00163795 0.00650498 -0.000245181
0.000449193 -0.000245181 -0.00421936
0.0299976 0.00408223 -0.000509352
0.00408223 0.0119193 0.000375202
-0.000509352 0.000375202 0.00260074
0.00387483 -0.00110555 -0.000619309
-0.00110555 0.00452409 1.09171e-05
-0.000619309 1.09171e-05 0.000833555
0.0200866 0.00689698 -0.000738262
0.00689698 0.0157175 -0.000400143
-0.000738262 -0.000400143 0.00824238
0.000641551 0.000283755 -7.71184e-05
0.000283755 0.00209764 3.9689e-06
-7.71184e-05 3.9689e-06 0.000221771
-0.00142504 -0.00111896 -0.000224282
-0.00111896 0.00602508 8.46583e-06
-0.000224282 8.46583e-06 0.00271345
0.0013117 -0.00263862 0.000267265
-0.00263862 0.00286266 -6.94176e-05
0.000267265 -6.94176e-05 -0.00355411
-0.00407549 9.61817e-05 0.000101233
9.61817e-05 0.00158267 5.32103e-05
0.000101233 5.32103e-05 0.000133997
0.0410739 0.02259 0.000868281
0.02259 0.0290268 -0.000252531
0.000868281 -0.000252531 0.0111025
0.0170589 0.00383424 -7.12645e-05
0.00383424 0.0127899 0.00058453
-7.12645e-05 0.00058453 0.00191539
-0.000185464 -0.00226913 0.000423076
-0.00226913 0.00548256 -0.000266566
0.000423076 -0.000266566 -0.00451678
-0.00183738 -0.00114488 -3.8509e-05
-0.00114488 0.00130856 -5.4774e-05
-3.8509e-05 -5.4774e-05 -0.000709219
0.00218392 -0.00165759 0.00048549
-0.00165759 0.000428012 -0.000120327
0.00048549 -0.000120327 -0.00543627
0.0065443 0.00708609 -0.00321758
0.00708609 0.016508 5.30251e-05
-0.00321758 5.30251e-05 0.00428222
0.0289192 0.011163 -0.000381637
0.011163 0.0147332 0.000478166
-0.000381637 0.000478166 0.00285099
0.00551906 -0.00713698 -0.00039824
-0.00713698 0.00447374 0.000207527
-0.00039824 0.000207527 -0.000115798
0.00287335 -0.00377831 6.68639e-05
-0.00377831 0.00517232 7.76485e-05
6.68639e-05 7.76485e-05 0.00241391
-0.000245396 -0.000140435 2.34228e-05
-0.000140435 0.000690393 -2.25635e-05
2.34228e-05 -2.25635e-05 -0.000240852
0.000663945 -0.000756285 -1.71661e-05
-0.000756285 0.00114549 2.88087e-06
-1.71661e-05 2.88087e-06 8.435e-05
3.56132e-05 -0.00160748 2.11681e-05
-0.00160748 0.000442895 1.6675e-05
2.11681e-05 1.6675e-05 -0.00065397
-0.0022657 -0.000183856 8.52531e-06
-0.000183856 -0.000758835 1.44499e-06
8.52531e-06 1.44499e-06 -0.00110981
-0.000260495 -0.000745796 -1.42573e-05
-0.000745796 0.000145674 4.82875e-06
-1.42573e-05 4.82875e-06 -0.000524987
0.00239776 -0.00127834 3.94162e-05
-0.00127834 0.0010795 -9.65749e-06
3.94162e-05 -9.65749e-06 0.000256391
0.00581595 -0.00173114 -1.12342e-05
-0.00173114 0.00285409 8.51452e-06
-1.12342e-05 8.51452e-06 0.00217178
0.00229353 -0.00124083 1.12525e-05
-0.00124083 0.00104192 -3.82603e-06
1.12525e-05 -3.82603e-06 -2.69288e-06
0.00284317 -0.00167133 1.67579e-07
-0.00167133 0.000963506 -1.96889e-05
1.67579e-07 -1.96889e-05 -0.000123193
0.00177662 -0.00104162 1.87686e-06
-0.00104162 0.000617326 -1.01463e-05
1.87686e-06 -1.01463e-05 -0.00015645
0.00260597 -0.00145016 1.75997e-06
-0.00145016 0.000910853 -2.85741e-06
1.75997e-06 -2.85741e-06 -4.60504e-05
0.00384716 -0.00175224 -5.53917e-06
-0.00175224 0.00139037 -1.13164e-05
-5.53917e-06 -1.13164e-05 0.000447356
0.00266885 -0.00113154 -1.21348e-06
-0.00113154 0.000450555 -4.64648e-06
-1.21348e-06 -4.64648e-06 -8.93087e-05
0.00349161 -0.00157774 -6.27406e-06
-0.00157774 0.00117633 -2.08355e-06
-6.27406e-06 -2.08355e-06 0.000366316
0.00317336 -0.00159254 -4.36523e-06
-0.00159254 0.00101609 -8.04364e-07
-4.36523e-06 -8.04364e-07 0.000163588
0.00290333 -0.00147738 1.38646e-05
-0.00147738 0.00113253 -7.9226e-06
1.38646e-05 -7.9226e-06 0.000294781
0.00220503 -0.00137721 4.23731e-06
-0.00137721 0.000700716 -1.8004e-06
4.23731e-06 -1.8004e-06 -0.000110414
0.00262311 -0.00133523 1.21906e-05
-0.00133523 0.000978718 -5.81855e-06
1.21906e-05 -5.81855e-06 0.00016613
0.00233444 -0.00107146 1.8333e-05
-0.00107146 0.00104022 2.909e-06
1.8333e-05 2.909e-06 0.000310283
0.0023887 -0.00120798 -2.14275e-06
-0.00120798 0.000997683 -2.50636e-06
-2.14275e-06 -2.50636e-06 0.00024186
0.00221614 -0.0012481 -5.89658e-06
-0.0012481 0.000783644 4.7726e-06
-5.89658e-06 4.7726e-06 2.66314e-05
0.00328286 -0.000306223 1.13419e-05
-0.000306223 0.00177522 2.58903e-06
1.13419e-05 2.58903e-06 0.00141295
0.00105528 -0.000405523 -9.99826e-06
-0.000405523 0.000291577 4.23394e-06
-9.99826e-06 4.23394e-06 -0.0001149
0.00267802 -0.000975064 -9.27877e-06
-0.000975064 0.00125756 -7.3464e-06
-9.27877e-06 -7.3464e-06 0.000648599
0.000737886 -0.000268525 -1.71347e-07
-0.000268525 0.000136538 -2.1753e-06
-1.71347e-07 -2.1753e-06 -0.000169679
0.000629269 -0.000175343 -3.55431e-06
-0.000175343 0.000161689 2.39123e-07
-3.55431e-06 2.39123e-07 -0.000184791
7.72523e-05 -0.000170946 7.49737e-06
-0.000170946 -0.000282684 7.48834e-06
7.49737e-06 7.48834e-06 -0.000631519
0.00019759 -0.000115105 -1.84808e-05
-0.000115105 -0.000174918 2.40673e-05
-1.84808e-05 2.40673e-05 -0.000283023
0.000872156 -0.000242463 4.18568e-06
-0.000242463 0.000325082 2.25148e-06
4.18568e-06 2.25148e-06 5.06194e-06
0.00196191 -0.000501486 -4.0942e-06
-0.000501486 0.00112481 -1.42017e-06
-4.0942e-06 -1.42017e-06 0.000709996
0.00120471 -0.000162656 -5.28894e-06
-0.000162656 0.000536468 -1.31992e-05
-5.28894e-06 -1.31992e-05 0.00028695
0.000321487 -6.5152e-05 -2.24902e-07
-6.5152e-05 -7.7363e-05 -6.23377e-07
-2.24902e-07 -6.23377e-07 -0.000161403
0.00421902 0.000145268 -6.57454e-05
0.000145268 0.00252548 8.87305e-06
-6.57454e-05 8.87305e-06 0.00251217
0.000350153 -6.59654e-05 5.811e-06
-6.59654e-05 -5.14353e-05 -1.5547e-05
5.811e-06 -1.5547e-05 -0.000114483
0.00360566 0.000104342 1.12961e-05
0.000104342 0.00210767 1.05803e-06
1.12961e-05 1.05803e-06 0.00210509
0.00300741 6.39519e-05 5.43762e-05
6.39519e-05 0.00169774 -7.39653e-06
5.43762e-05 -7.39653e-06 0.00170531
0.00436724 0.000300565 1.54993e-05
0.000300565 0.00282459 -9.77231e-06
1.54993e-05 -9.77231e-06 0.00231851
0.00305727 0.000305425 1.33703e-05
0.000305425 0.00197878 -3.22808e-05
1.33703e-05 -3.22808e-05 0.00154865
0.00076887 0.000109479 4.83571e-06
0.000109479 0.000276952 -1.21956e-05
4.83571e-06 -1.21956e-05 9.38656e-05
0.000629422 0.000184061 1.40091e-06
0.000184061 0.000260935 1.26267e-06
1.40091e-06 1.26267e-06 -8.68175e-06
0.000436063 -2.86768e-05 7.75753e-06
-2.86768e-05 1.19359e-05 -1.2858e-05
7.75753e-06 -1.2858e-05 -3.94069e-05
0.000654421 0.000120814 -8.46123e-07
0.000120814 0.000205601 -5.16081e-07
-8.46123e-07 -5.16081e-07 4.28876e-05
0.000758953 0.000107208 -4.49145e-06
0.000107208 0.000338029 -9.19796e-06
-4.49145e-06 -9.19796e-06 8.73774e-05
0.00293711 -4.89536e-05 -4.01602e-05
-4.89536e-05 0.00166111 -7.97473e-06
-4.01602e-05 -7.97473e-06 0.00166796
0.000395817 1.71922e-06 -3.26374e-06
1.71922e-06 -1.86109e-05 -3.30942e-07
-3.26374e-06 -3.30942e-07 -6.03316e-05
0.000609205 0.000113138 -5.69653e-06
0.000113138 0.000175165 5.70202e-06
-5.69653e-06 5.70202e-06 3.96622e-05
0.00271084 -3.53007e-05 -7.08193e-06
-3.53007e-05 0.00150702 4.70881e-07
-7.08193e-06 4.70881e-07 0.00151593
0.000378624 -5.52045e-06 -6.39701e-06
-5.52045e-06 -3.45562e-05 7.57075e-06
-6.39701e-06 7.57075e-06 -6.68214e-05
0.00249187 -1.50074e-05 2.13438e-05
-1.50074e-05 0.00136003 6.5948e-06
2.13438e-05 6.5948e-06 0.00137164
-0.00139222 0.0016369 -9.82353e-05
0.0016369 0.00459501 -0.000186949
-9.82353e-05 -0.000186949 -0.0002638
0.00653622 -0.000612304 -6.35739e-05
-0.000612304 0.00468147 -0.000102618
-6.35739e-05 -0.000102618 0.00124076
0.000150649 -0.000664143 0.000137244
-0.000664143 0.00640445 -9.53429e-05
0.000137244 -9.53429e-05 0.00263917
0.000535759 8.19827e-05 2.8848e-06
8.19827e-05 0.000451582 -9.75657e-06
2.8848e-06 -9.75657e-06 -9.54232e-05
-0.000249867 0.000376769 4.44269e-07
0.000376769 -0.000224762 -1.12414e-05
4.44269e-07 -1.12414e-05 -0.000551102
-0.000658636 0.000251607 2.69868e-05
0.000251607 -0.000758687 -2.72534e-05
2.69868e-05 -2.72534e-05 -0.000955879
-0.00212507 9.60499e-06 4.44428e-06
9.60499e-06 -0.00114008 3.34575e-05
4.44428e-06 3.34575e-05 -0.00170139
0.00201419 0.00064772 5.74074e-06
0.00064772 0.00110599 -8.86223e-06
5.74074e-06 -8.86223e-06 0.000690793
5.97091e-05 0.000105705 -9.26117e-06
0.000105705 -7.93458e-05 4.96367e-06
-9.26117e-06 4.96367e-06 -0.000382762
2.07469e-05 0.000112984 -1.77882e-05
0.000112984 -0.000164417 -3.55848e-07
-1.77882e-05 -3.55848e-07 -0.000322491
0.00117922 2.22191e-05 1.05484e-05
2.22191e-05 0.00062523 1.62207e-06
1.05484e-05 1.62207e-06 0.00037302
0.00119349 0.000223386 -8.32523e-06
0.000223386 0.000638982 -9.44931e-06
-8.32523e-06 -9.44931e-06 0.000519968
0.00314663 0.000303635 -4.84673e-06
0.000303635 0.00211835 -3.796e-05
-4.84673e-06 -3.796e-05 0.00169538
0.0123311 0.00493539 0.00117323
0.00493539 0.00743893 0.000651275
0.00117323 0.000651275 0.00196911
0.00563251 0.00185843 2.87129e-05
0.00185843 0.00268527 6.52384e-05
2.87129e-05 6.52384e-05 -0.00132281
0.00985212 -0.00046155 0.000267376
-0.00046155 0.000899312 7.13305e-06
0.000267376 7.13305e-06 -0.00202592
0.0162204 -0.000389041 -0.000241013
-0.000389041 0.00287866 -0.000126844
-0.000241013 -0.000126844 0.00351822
0.00878015 0.000646974 0.000196687
0.000646974 0.000744907 0.000472407
0.000196687 0.000472407 -0.00625846
0.00383543 -0.00673443 -0.000164273
-0.00673443 0.00232183 6.95813e-05
-0.000164273 6.95813e-05 0.00114669
0.00356405 -0.00250827 -0.000585403
-0.00250827 0.00661309 0.00017953
-0.000585403 0.00017953 -0.000258968
-0.00154119 -0.00242652 -0.000139311
-0.00242652 0.00157656 0.000175827
-0.000139311 0.000175827 -0.000171835
0.0124121 -0.00037867 -0.000464332
-0.00037867 0.0097201 -9.59831e-06
-0.000464332 -9.59831e-06 0.000901173
0.0100135 -0.004037 0.000161911
-0.004037 0.00711681 0.000291383
0.000161911 0.000291383 -0.00167139
0.0332545 -0.00675702 0.000436567
-0.00675702 0.0132401 -0.00109541
0.000436567 -0.00109541 0.00322483
-0.00130301 0.000610167 -0.000278384
0.000610167 0.00304216 0.000127478
-0.000278384 0.000127478 0.000241159
0.00373725 0.00206184 -0.000421212
0.00206184 0.00752521 -0.000167755
-0.000421212 -0.000167755 0.000155117
0.0338171 -0.0122589 0.00137297
-0.0122589 0.0206201 -0.00133267
0.00137297 -0.00133267 0.00699194
0.0379519 -0.0195033 0.000167026
-0.0195033 0.0261944 -5.17493e-05
0.000167026 -5.17493e-05 0.0101189
0.000887144 0.00060832 5.77564e-05
0.00060832 0.000822686 1.65527e-05
5.77564e-05 1.65527e-05 0.000140981
-0.000185256 0.000100539 1.61933e-05
0.000100539 0.000413571 3.67684e-06
1.61933e-05 3.67684e-06 -0.000256057
0.00106319 0.000194494 -4.28193e-05
0.000194494 0.000664778 -1.48601e-05
-4.28193e-05 -1.48601e-05 0.000457567
0.00164066 -0.00201426 9.17109e-05
-0.00201426 0.00259837 9.47006e-06
9.17109e-05 9.47006e-06 5.53322e-05
-0.00190249 -0.000205873 0.000177558
-0.000205873 0.000607874 2.61665e-05
0.000177558 2.61665e-05 -0.000439356
0.00050353 0.000202892 -4.26689e-05
0.000202892 0.000621569 1.52848e-05
-4.26689e-05 1.52848e-05 0.000150116
-0.000517427 -0.000210919 -3.37153e-05
-0.000210919 0.000665624 -1.82943e-06
-3.37153e-05 -1.82943e-06 -0.000242617
0.000160403 0.000287972 -1.43365e-05
0.000287972 0.000482401 3.67238e-06
-1.43365e-05 3.67238e-06 -4.67579e-06
-0.000253314 0.000490593 3.11927e-05
0.000490593 0.00068073 7.32047e-06
3.11927e-05 7.32047e-06 -0.000101038
-0.00324379 4.40442e-05 0.000189417
4.40442e-05 0.00169014 -0.0001178
0.000189417 -0.0001178 -0.000762985
0.00229391 0.00118106 7.97933e-05
0.00118106 0.00132488 7.59388e-05
7.97933e-05 7.59388e-05 0.000698264
0.000731924 0.00133827 -0.00010551
0.00133827 0.00195634 -0.000146222
-0.00010551 -0.000146222 -0.000289467
-0.000248825 -0.00124415 0.000377127
-0.00124415 0.00137613 0.000144288
0.000377127 0.000144288 -0.00416566
-0.00391421 0.00107687 -0.000282332
0.00107687 0.00584988 -2.15199e-05
-0.000282332 -2.15199e-05 0.000834461
0.00667195 -0.000762887 -0.000217705
-0.000762887 0.00496926 1.84559e-05
-0.000217705 1.84559e-05 0.00255949
0.000314329 0.00091823 0.00010018
0.00091823 0.0015635 2.07634e-05
0.00010018 2.07634e-05 -0.000421364
-0.000568383 0.000519887 -5.50768e-05
0.000519887 0.00340338 0.000117183
-5.50768e-05 0.000117183 0.000711142
-0.00187269 -8.81728e-05 -0.000109654
-8.81728e-05 0.00473987 -0.000108618
-0.000109654 -0.000108618 0.000815832
0.013935 -0.00742683 0.000600022
-0.00742683 0.0105539 -0.000350864
0.000600022 -0.000350864 0.000463917
0.0327193 0.0107862 -0.00110902
0.0107862 0.0199783 -0.000447793
-0.00110902 -0.000447793 0.00638836
0.00835491 -0.00374759 -0.00061363
-0.00374759 0.00450172 0.000364502
-0.00061363 0.000364502 -0.000653435
0.0338209 0.0267493 0.00247043
0.0267493 0.0247865 -0.00177471
0.00247043 -0.00177471 0.00650132
-0.00101793 -0.000958804 2.27366e-05
-0.000958804 0.00153844 -1.73068e-06
2.27366e-05 -1.73068e-06 -0.00055522
0.000749592 -0.00115869 0.000135029
-0.00115869 0.00148907 3.98288e-06
0.000135029 3.98288e-06 -0.00473422
0.012099 0.00763651 -0.00171526
0.00763651 0.0160617 3.34632e-05
-0.00171526 3.34632e-05 0.00336961
4.38403e-06 -0.0023835 4.82608e-05
-0.0023835 0.00277141 3.92534e-05
4.82608e-05 3.92534e-05 0.000752564
0.0329701 0.0112145 0.000680389
0.0112145 0.0164788 0.000381348
0.000680389 0.000381348 0.00424463
0.00459402 -0.0103439 0.000560301
-0.0103439 0.0034924 -0.000186627
0.000560301 -0.000186627 -0.00226137
-0.000739522 -0.00274176 4.11113e-05
-0.00274176 0.000973615 5.63497e-05
4.11113e-05 5.63497e-05 -0.00103965
0.00261835 -0.000568762 0.000197875
-0.000568762 0.0127679 -0.000168267
0.000197875 -0.000168267 0.00523968
0.0249798 0.0120492 -0.00269908
0.0120492 0.0123605 1.31374e-05
-0.00269908 1.31374e-05 0.00199172
0.00193218 -0.00961127 -0.00120645
-0.00961127 -0.00470031 0.000288991
-0.00120645 0.000288991 -0.00443246
-0.000163345 -0.00415201 0.000267055
-0.00415201 0.00029531 -0.00021821
0.000267055 -0.00021821 0.000823487
0.000500166 -0.000642251 -9.37256e-05
-0.000642251 0.000980351 3.38476e-05
-9.37256e-05 3.38476e-05 -7.10433e-05
-7.51212e-05 -0.00126033 -2.48434e-05
-0.00126033 0.000524874 1.74782e-05
-2.48434e-05 1.74782e-05 -0.000520976
-0.00045231 -0.0012407 -5.2947e-06
-0.0012407 -0.000364687 -1.1108e-05
-5.2947e-06 -1.1108e-05 -0.0011574
-0.0028543 -0.000240592 1.80332e-05
-0.000240592 -0.00111905 -1.15846e-06
1.80332e-05 -1.15846e-06 -0.00165584
0.000790032 -0.00106986 5.43491e-06
-0.00106986 0.00022128 -7.05397e-06
5.43491e-06 -7.05397e-06 -0.000509996
0.00388514 -0.00187738 -2.23568e-06
-0.00187738 0.00122155 -1.52583e-06
-2.23568e-06 -1.52583e-06 0.000506548
0.00521239 -0.00174656 -2.98453e-05
-0.00174656 0.00255507 6.87233e-06
-2.98453e-05 6.87233e-06 0.00147919
0.00239418 -0.00154241 -2.26742e-06
-0.00154241 0.000710945 -1.90072e-06
-2.26742e-06 -1.90072e-06 -0.0003096
0.0035113 -0.00182628 3.2941e-06
-0.00182628 0.00094583 -1.042e-05
3.2941e-06 -1.042e-05 0.000115887
0.00276472 -0.00146869 1.10623e-05
-0.00146869 0.00101063 1.12483e-06
1.10623e-05 1.12483e-06 4.12175e-05
0.00313129 -0.00162756 3.0331e-06
-0.00162756 0.000999525 -4.73131e-06
3.0331e-06 -4.73131e-06 0.000102037
0.00328917 -0.00129007 -1.10083e-06
-0.00129007 0.000749249 -5.87144e-06
-1.10083e-06 -5.87144e-06 0.000204586
0.00230453 -0.000747894 -1.6332e-06
-0.000747894 5.70076e-05 -7.28376e-08
-1.6332e-06 -7.28376e-08 -0.000169009
0.00235183 -0.00109404 1.94766e-06
-0.00109404 0.000205425 -2.61242e-06
1.94766e-06 -2.61242e-06 -0.000330486
0.00265472 -0.0011392 4.74042e-06
-0.0011392 0.000421176 -1.61208e-06
4.74042e-06 -1.61208e-06 -0.000118015
0.00338865 -0.00141555 7.00021e-08
-0.00141555 0.0011682 -4.06892e-06
7.00021e-08 -4.06892e-06 0.000439537
0.00341806 -0.00157703 -4.66e-06
-0.00157703 0.00113786 -5.86371e-07
-4.66e-06 -5.86371e-07 0.000320244
0.00335022 -0.00162868 8.0499e-06
-0.00162868 0.00110262 -5.41068e-06
8.0499e-06 -5.41068e-06 0.000236091
0.00266258 -0.00131602 -2.00062e-07
-0.00131602 0.00101554 -1.18727e-05
-2.00062e-07 -1.18727e-05 0.000217036
0.00237632 -0.00140144 2.30491e-06
-0.00140144 0.000826318 -9.31242e-07
2.30491e-06 -9.31242e-07 9.62375e-06
0.00176349 -0.00128413 2.4218e-06
-0.00128413 0.000454685 1.31501e-06
2.4218e-06 1.31501e-06 -0.000318376
0.00409225 -0.000820182 1.48346e-05
-0.000820182 0.00223935 1.39027e-05
1.48346e-05 1.39027e-05 0.00168453
0.000996245 -0.000898804 4.07376e-06
-0.000898804 0.00025273 4.82889e-06
4.07376e-06 4.82889e-06 -0.000439581
0.0022356 -0.00117575 -1.71778e-05
-0.00117575 0.000896263 9.24446e-06
-1.71778e-05 9.24446e-06 0.000154566
0.00147886 -0.00035185 6.77688e-06
-0.00035185 0.000573822 -7.65226e-06
6.77688e-06 -7.65226e-06 0.000301922
0.000531867 -0.000387153 -1.34187e-06
-0.000387153 5.72471e-05 -7.49521e-06
-1.34187e-06 -7.49521e-06 -0.000331705
9.97365e-05 -0.000256803 -3.31397e-06
-0.000256803 -0.000229719 -1.88116e-06
-3.31397e-06 -1.88116e-06 -0.000628949
0.00307156 -0.000136984 -0.00011655
-0.000136984 0.00167881 1.66232e-05
-0.00011655 1.66232e-05 0.00158068
0.000430632 -0.000246062 -4.85756e-06
-0.000246062 -3.64769e-05 8.55612e-07
-4.85756e-06 8.55612e-07 -0.000354836
0.000748842 -0.000441067 -4.34606e-06
-0.000441067 0.000217624 8.6269e-07
-4.34606e-06 8.6269e-07 -0.000138668
0.0014835 -5.66614e-07 -0.00011327
-5.66614e-07 0.000696812 1.18078e-05
-0.00011327 1.18078e-05 0.000672296
0.00143269 -9.53701e-05 -3.21668e-05
-9.53701e-05 0.000649279 -8.87504e-07
-3.21668e-05 -8.87504e-07 0.000532112
0.00178588 -0.000304375 2.47446e-06
-0.000304375 0.000872924 -5.91148e-06
2.47446e-06 -5.91148e-06 0.000580064
0.000781547 -9.03013e-05 1.47053e-05
-9.03013e-05 0.000214284 -1.75331e-05
1.47053e-05 -1.75331e-05 0.000127119
0.0044855 0.000133629 1.35009e-05
0.000133629 0.0026994 9.38362e-07
1.35009e-05 9.38362e-07 0.00268968
0.00411178 9.92735e-05 8.24361e-05
9.92735e-05 0.00244193 -8.63087e-06
8.24361e-05 -8.63087e-06 0.00244022
-0.0024531 7.54575e-05 4.78771e-06
7.54575e-05 -0.0017858 7.73777e-06
4.78771e-06 7.73777e-06 -0.00212265
0.00233829 0.00041867 5.87676e-06
0.00041867 0.00150527 -2.4233e-05
5.87676e-06 -2.4233e-05 0.00102685
-0.0010121 9.70104e-05 3.98682e-06
9.70104e-05 -0.00063117 -8.90811e-08
3.98682e-06 -8.90811e-08 -0.00110446
0.00082236 0.000143305 -6.9181e-07
0.000143305 0.000320487 -1.46422e-05
-6.9181e-07 -1.46422e-05 0.000102491
0.000415343 0.000219887 6.65617e-06
0.000219887 0.000207641 -1.06758e-06
6.65617e-06 -1.06758e-06 -0.000175234
0.00022479 3.36771e-05 -7.04362e-06
3.36771e-05 -0.000105022 -1.56152e-05
-7.04362e-06 -1.56152e-05 -0.000171882
0.000517363 0.0001043 6.7599e-09
0.0001043 0.000122958 1.04338e-06
6.7599e-09 1.04338e-06 -6.9101e-05
0.000816861 0.000207497 -3.52084e-06
0.000207497 0.000430879 8.18895e-06
-3.52084e-06 8.18895e-06 0.000132926
0.00322714 -6.80965e-05 -5.51566e-05
-6.80965e-05 0.00186068 -8.62112e-06
-5.51566e-05 -8.62112e-06 0.00186431
0.000320882 1.81364e-05 -9.23321e-07
1.81364e-05 -5.9049e-05 -2.74281e-08
-9.23321e-07 -2.74281e-08 -0.000111248
0.000239146 0.000102402 -3.21308e-06
0.000102402 -7.21359e-05 8.87223e-06
-3.21308e-06 8.87223e-06 -0.000227061
0.00279535 -5.43006e-05 -9.50165e-06
-5.43006e-05 0.00156701 6.28022e-07
-9.50165e-06 6.28022e-07 0.00157303
0.000286544 -2.14812e-05 -9.19914e-06
-2.14812e-05 -9.02609e-05 9.68082e-06
-9.19914e-06 9.68082e-06 -0.000130471
0.00259095 -3.34842e-05 2.6082e-05
-3.34842e-05 0.00142764 6.86796e-06
2.6082e-05 6.86796e-06 0.0014373
0.00625178 0.00202785 0.000755128
0.00202785 0.00602951 0.000185307
0.000755128 0.000185307 0.00125163
-0.00142715 0.00158702 -4.34919e-05
0.00158702 0.00391511 -9.39201e-06
-4.34919e-05 -9.39201e-06 -0.00112723
0.000606413 0.00209767 2.8043e-06
0.00209767 0.00476856 -3.14793e-05
2.8043e-06 -3.14793e-05 0.000334111
0.000273378 0.000496314 -2.18095e-05
0.000496314 -1.10195e-05 4.08045e-06
-2.18095e-05 4.08045e-06 -0.000468838
-0.00120706 4.83102e-06 -2.09413e-05
4.83102e-06 -0.000778074 3.46378e-05
-2.09413e-05 3.46378e-05 -0.00125176
-0.00174942 6.81544e-05 -2.41215e-05
6.81544e-05 -0.00119653 -1.73396e-05
-2.41215e-05 -1.73396e-05 -0.00142277
0.00220646 0.00015749 1.23724e-05
0.00015749 0.00140124 8.60376e-09
1.23724e-05 8.60376e-09 0.00102105
0.000600088 0.000362135 4.16868e-06
0.000362135 -7.86914e-06 -8.29994e-06
4.16868e-06 -8.29994e-06 -0.000229833
0.000905341 0.000536486 -2.55941e-05
0.000536486 0.000401755 -1.05726e-05
-2.55941e-05 -1.05726e-05 0.000150744
0.00157087 0.000549646 1.57792e-05
0.000549646 0.00069669 -4.10663e-05
1.57792e-05 -4.10663e-05 0.000267896
-0.00211799 0.000153903 -2.36145e-05
0.000153903 -0.000952677 9.01543e-06
-2.36145e-05 9.01543e-06 -0.00140663
-0.000454629 5.0783e-05 -6.28467e-06
5.0783e-05 -0.000341642 -6.57161e-06
-6.28467e-06 -6.57161e-06 -0.000628118
-0.00128596 3.64526e-05 -1.71284e-05
3.64526e-05 -0.00106712 1.54001e-05
-1.71284e-05 1.54001e-05 -0.00109628
-0.000620859 6.52205e-05 -8.4027e-06
6.52205e-05 -0.000150254 4.17527e-06
-8.4027e-06 4.17527e-06 -0.000603567
-0.000399957 0.000426784 -1.47214e-06
0.000426784 0.000129172 2.19303e-05
-1.47214e-06 2.19303e-05 -0.000646777
0.0165672 -0.0126217 -0.000348911
-0.0126217 0.0171946 0.000249254
-0.000348911 0.000249254 0.00134065
0.0117849 0.00525432 0.000342251
0.00525432 0.00504554 0.00021235
0.000342251 0.00021235 -0.00143981
0.00566572 0.00112364 0.000224908
0.00112364 0.00391697 -5.55333e-05
0.000224908 -5.55333e-05 -0.000573444
0.0453963 -0.0117647 -0.00180502
-0.0117647 0.0176566 -0.000500817
-0.00180502 -0.000500817 0.00563917
0.00829304 -0.000952653 0.000359493
-0.000952653 0.00672689 0.000645894
0.000359493 0.000645894 0.000310358
0.00190365 -0.000348171 -0.000279266
-0.000348171 0.00654522 0.00020222
-0.000279266 0.00020222 -0.002721
-0.000576794 -0.00287108 -4.71673e-05
-0.00287108 0.00267518 0.000132558
-4.71673e-05 0.000132558 6.13792e-05
-0.00128816 -0.000469588 0.000238101
-0.000469588 0.00279174 4.49136e-05
0.000238101 4.49136e-05 0.000692387
0.0385714 -0.0227344 0.000369382
-0.0227344 0.0262108 0.000549845
0.000369382 0.000549845 0.00876884
0.00306216 0.00287054 -0.00025594
0.00287054 0.00674042 -0.000156912
-0.00025594 -0.000156912 -0.00204599
0.0163621 -0.00683388 -0.00011856
-0.00683388 0.0139381 0.000218763
-0.00011856 0.000218763 0.000928462
-0.000401811 0.00169922 2.23422e-05
0.00169922 0.00233431 -2.09365e-05
2.23422e-05 -2.09365e-05 0.000479948
0.00505474 0.00777862 -0.00030805
0.00777862 0.00348703 1.01485e-05
-0.00030805 1.01485e-05 -0.00119325
0.0298902 -0.0106425 -0.00117229
-0.0106425 0.0151385 -0.000129726
-0.00117229 -0.000129726 0.00283204
0.00215727 0.00119634 1.72484e-05
0.00119634 0.000992904 4.75885e-05
1.72484e-05 4.75885e-05 0.000612486
0.000275785 0.000523983 7.00904e-06
0.000523983 0.000535746 2.57857e-06
7.00904e-06 2.57857e-06 -0.000212749
-0.000646267 4.54462e-05 -6.9998e-05
4.54462e-05 0.00017778 1.47772e-05
-6.9998e-05 1.47772e-05 -0.00052812
-0.0018046 -0.000370985 -0.000188359
-0.000370985 0.00242022 -3.70185e-05
-0.000188359 -3.70185e-05 0.000104245
0.00123297 0.000567808 -7.79396e-05
0.000567808 0.00100359 1.11178e-07
-7.79396e-05 1.11178e-07 0.00037276
-0.000104182 0.000298258 -2.5217e-05
0.000298258 0.000315161 6.79229e-06
-2.5217e-05 6.79229e-06 -0.000206117
0.00135414 0.00103125 -5.14721e-06
0.00103125 0.00076178 -1.82791e-06
-5.14721e-06 -1.82791e-06 0.000161651
0.000183522 0.00141997 -7.11672e-05
0.00141997 0.00165481 -8.16369e-05
-7.11672e-05 -8.16369e-05 -0.000380625
0.00335321 0.00330165 0.000145556
0.00330165 0.00172204 5.02845e-05
0.000145556 5.02845e-05 -4.75456e-05
-0.0068755 0.00137 0.000749523
0.00137 0.00672385 -6.88916e-05
0.000749523 -6.88916e-05 -0.00297316
0.00114729 -0.00131886 -6.55802e-05
-0.00131886 0.00268085 0.000101152
-6.55802e-05 0.000101152 -0.00143422
-0.00246012 0.000421207 -8.0121e-05
0.000421207 0.00482063 0.000140263
-8.0121e-05 0.000140263 -4.37085e-05
-0.00192092 -0.00061036 -6.64758e-05
-0.00061036 0.00103907 3.04928e-06
-6.64758e-05 3.04928e-06 -0.0010509
-0.00145656 -0.00155484 -1.72348e-05
-0.00155484 0.00150153 7.79011e-06
-1.72348e-05 7.79011e-06 0.000653129
-0.00336112 -0.00218017 -0.000294518
-0.00218017 0.00128077 0.000207163
-0.000294518 0.000207163 -0.0050261
-0.00107633 -0.00804205 0.000460453
-0.00804205 0.00374894 -0.000293679
0.000460453 -0.000293679 -0.00475913
0.023795 0.00917278 0.0011649
0.00917278 0.0110137 -0.000226818
0.0011649 -0.000226818 -0.000286691
0.0273851 0.0141662 -0.000269998
0.0141662 0.0191457 0.000724299
-0.000269998 0.000724299 0.00307403
0.000228624 -0.00198357 -4.92198e-05
-0.00198357 0.00196916 1.61829e-05
-4.92198e-05 1.61829e-05 0.000127474
0.00802329 0.00419565 0.000561727
0.00419565 0.0155258 -7.25281e-05
0.000561727 -7.25281e-05 0.00504665
0.0106591 0.00805014 7.46256e-05
0.00805014 0.00523981 0.000126365
7.46256e-05 0.000126365 -0.0026441
0.00262107 -0.00644294 8.34726e-05
-0.00644294 0.00123575 -5.6525e-05
8.34726e-05 -5.6525e-05 0.000517932
0.0118273 -0.0101683 2.89116e-06
-0.0101683 -0.00128833 2.3232e-05
2.89116e-06 2.3232e-05 -0.00156247
0.00248023 -0.00328608 4.33457e-05
-0.00328608 0.00117356 2.66239e-06
4.33457e-05 2.66239e-06 0.000322193
-0.000218644 0.00537023 -0.0019097
0.00537023 0.00330962 0.000105912
-0.0019097 0.000105912 -0.00585798
0.0145625 -0.00654849 -0.000567207
-0.00654849 -0.00370015 8.5061e-05
-0.000567207 8.5061e-05 -0.00213085
0.00503503 -0.00652263 0.000121363
-0.00652263 -0.000963503 -0.000101799
0.000121363 -0.000101799 0.000847218
8.74224e-05 -0.000932063 -1.63855e-05
-0.000932063 0.000743869 -9.99126e-06
-1.63855e-05 -9.99126e-06 -0.000283302
0.00247465 -0.00193608 3.74773e-05
-0.00193608 0.000985795 -1.81262e-05
3.74773e-05 -1.81262e-05 0.000136148
0.00298791 -0.00170103 5.34432e-06
-0.00170103 0.000680566 -1.5138e-05
5.34432e-06 -1.5138e-05 7.44103e-05
-0.000168283 -0.000991502 -2.75865e-06
-0.000991502 -0.000310388 1.81823e-06
-2.75865e-06 1.81823e-06 -0.000975333
0.002412 -0.00170752 -6.9514e-06
-0.00170752 0.000459562 1.5087e-06
-6.9514e-06 1.5087e-06 -0.000217294
0.00410041 -0.0018441 -1.99092e-06
-0.0018441 0.00108454 -2.31909e-06
-1.99092e-06 -2.31909e-06 0.000464909
0.00206936 -0.00145281 4.32216e-06
-0.00145281 0.000513888 8.89289e-06
4.32216e-06 8.89289e-06 -0.000450849
0.00311118 -0.001769 -1.08182e-06
-0.001769 0.000728094 3.85663e-06
-1.08182e-06 3.85663e-06 -9.13977e-05
0.00308873 -0.00136609 -1.18991e-06
-0.00136609 0.000421727 -1.52235e-06
-1.18991e-06 -1.52235e-06 1.37749e-06
0.00225714 -0.00148192 7.35154e-06
-0.00148192 0.000516346 2.71847e-06
7.35154e-06 2.71847e-06 -0.000332261
0.00275264 -0.00120549 -2.97501e-06
-0.00120549 0.000443524 3.89212e-06
-2.97501e-06 3.89212e-06 -7.33495e-05
0.00255033 -0.000841483 5.39105e-08
-0.000841483 7.76253e-05 -2.45533e-07
5.39105e-08 -2.45533e-07 -9.58188e-05
0.00256236 -0.000814928 -3.27526e-06
-0.000814928 0.000211785 1.01983e-06
-3.27526e-06 1.01983e-06 4.78747e-05
0.00216545 -0.000740072 -3.99711e-06
-0.000740072 2.59772e-05 -2.48633e-08
-3.99711e-06 -2.48633e-08 -0.000239189
0.00227023 -0.000740014 8.52135e-07
-0.000740014 2.07307e-05 2.70119e-06
8.52135e-07 2.70119e-06 -0.000202904
0.00220717 -0.000948484 -3.33005e-06
-0.000948484 0.000182244 -4.44318e-06
-3.33005e-06 -4.44318e-06 -0.000284367
0.00247078 -0.00109273 4.24347e-06
-0.00109273 0.00030767 5.00634e-07
4.24347e-06 5.00634e-07 -0.00022139
0.00268615 -0.00114787 3.26472e-06
-0.00114787 0.00042431 3.81236e-06
3.26472e-06 3.81236e-06 -0.000113592
0.0026552 -0.00124036 -4.78061e-06
-0.00124036 0.000724627 -7.23174e-06
-4.78061e-06 -7.23174e-06 4.25202e-05
0.0029928 -0.00137497 1.59589e-06
-0.00137497 0.000916252 -1.07727e-06
1.59589e-06 -1.07727e-06 0.000192652
0.00335042 -0.00157212 -2.12171e-06
-0.00157212 0.00110657 -9.42518e-07
-2.12171e-06 -9.42518e-07 0.000283223
0.00148209 -0.000866726 -6.33169e-06
-0.000866726 0.000256812 -6.06611e-06
-6.33169e-06 -6.06611e-06 -0.000370029
0.00258402 -0.00130552 2.09521e-06
-0.00130552 0.00095862 -7.05736e-07
2.09521e-06 -7.05736e-07 0.000163364
0.00192497 -0.00133656 -2.25422e-06
-0.00133656 0.000564779 5.27584e-06
-2.25422e-06 5.27584e-06 -0.000234424
0.000843772 -0.000464316 -1.21738e-05
-0.000464316 5.37599e-05 -5.31526e-06
-1.21738e-05 -5.31526e-06 -0.000209776
0.00130947 -0.000788361 3.3497e-06
-0.000788361 0.000466239 3.70146e-06
3.3497e-06 3.70146e-06 -8.22305e-05
8.35882e-05 -0.00077627 -6.098e-06
-0.00077627 -0.000269266 9.67838e-06
-6.098e-06 9.67838e-06 -0.000926888
0.000336329 -0.000202431 -3.19697e-05
-0.000202431 -0.000169843 1.56349e-05
-3.19697e-05 1.56349e-05 -0.000293835
0.0008481 -0.000465411 3.36247e-06
-0.000465411 0.00024003 2.39167e-07
3.36247e-06 2.39167e-07 -8.93696e-05
-0.00220858 -0.000447076 -8.65949e-06
-0.000447076 -0.001661 -1.06769e-05
-8.65949e-06 -1.06769e-05 -0.00206494
0.0067632 0.000414057 3.76991e-05
0.000414057 0.00429923 1.3832e-05
3.76991e-05 1.3832e-05 0.00420278
0.000616096 -0.000190642 7.15862e-06
-0.000190642 3.86294e-05 1.93378e-06
7.15862e-06 1.93378e-06 -9.05162e-05
0.000247096 -0.000208725 -5.63573e-06
-0.000208725 -0.000177976 3.26273e-06
-5.63573e-06 3.26273e-06 -0.000488718
0.00479828 0.000163961 2.44923e-05
0.000163961 0.00292061 1.30383e-06
2.44923e-05 1.30383e-06 0.00290217
0.000623 -0.000120729 1.21204e-05
-0.000120729 0.000110558 -1.84433e-05
1.21204e-05 -1.84433e-05 -2.43255e-05
0.00432696 0.000121854 9.01396e-05
0.000121854 0.00258901 -1.138e-05
9.01396e-05 -1.138e-05 0.00258201
0.00267156 0.00056846 -1.21237e-06
0.00056846 0.00133169 1.10948e-05
-1.21237e-06 1.10948e-05 0.000944139
0.00031447 0.000258844 4.40297e-06
0.000258844 -8.05534e-05 8.11378e-07
4.40297e-06 8.11378e-07 -0.000406398
0.000776447 0.000819129 -3.43729e-06
0.000819129 0.00038094 -8.68912e-07
-3.43729e-06 -8.68912e-07 -6.48204e-05
0.00165938 0.000355518 -3.00595e-06
0.000355518 0.000825096 -1.27603e-05
-3.00595e-06 -1.27603e-05 0.000580018
0.0013345 0.000240552 -1.44904e-07
0.000240552 0.000880211 1.42901e-06
-1.44904e-07 1.42901e-06 0.000379295
-0.000984439 0.000168953 -3.65006e-06
0.000168953 -0.000534521 8.66284e-06
-3.65006e-06 8.66284e-06 -0.00104034
0.00057911 2.5295e-05 -5.51804e-06
2.5295e-05 0.000131352 -1.6979e-05
-5.51804e-06 -1.6979e-05 4.60663e-05
0.000613487 0.00014718 1.15063e-07
0.00014718 0.00018271 1.09492e-06
1.15063e-07 1.09492e-06 -3.12737e-05
-0.000613832 6.17379e-05 -1.16832e-05
6.17379e-05 -0.000551947 3.16604e-05
-1.16832e-05 3.16604e-05 -0.000868416
0.00387838 -9.73982e-05 -7.02593e-05
-9.73982e-05 0.00230311 -9.42928e-06
-7.02593e-05 -9.42928e-06 0.0023015
0.000389976 -3.07975e-05 9.00479e-07
-3.07975e-05 2.77944e-06 -2.60841e-07
9.00479e-07 -2.60841e-07 -6.35601e-05
0.000521855 9.95849e-05 -3.64339e-06
9.95849e-05 0.000137289 1.12806e-05
-3.64339e-06 1.12806e-05 -6.28433e-05
0.00325173 -7.88773e-05 -1.16895e-05
-7.88773e-05 0.00187851 9.81997e-07
-1.16895e-05 9.81997e-07 0.00187938
0.000433149 3.8286e-05 8.52959e-07
3.8286e-05 1.32798e-05 1.21559e-05
8.52959e-07 1.21559e-05 -3.76657e-05
0.00286532 -5.81998e-05 2.68443e-05
-5.81998e-05 0.00161365 7.41335e-06
2.68443e-05 7.41335e-06 0.00161875
-0.0017701 -0.00129098 -0.000693034
-0.00129098 0.00776756 0.00013403
-0.000693034 0.00013403 -0.00254116
0.0067494 0.0018703 0.000126303
0.0018703 0.0050204 7.90097e-06
0.000126303 7.90097e-06 0.000658429
-0.000310703 0.00184503 0.00035907
0.00184503 0.00384488 0.000144587
0.00035907 0.000144587 -0.00115551
0.000676029 0.00042353 -9.19462e-06
0.00042353 0.000307139 5.53653e-06
-9.19462e-06 5.53653e-06 -0.000225936
0.00401395 0.00127233 4.62111e-06
0.00127233 0.00220913 3.18242e-05
4.62111e-06 3.18242e-05 0.00145434
0.000725118 0.000407443 -2.60556e-05
0.000407443 0.000688123 1.24427e-06
-2.60556e-05 1.24427e-06 -8.24039e-05
0.000320019 0.000247588 -9.92701e-06
0.000247588 0.000266882 -1.80617e-05
-9.92701e-06 -1.80617e-05 -0.00015695
0.00338502 0.000625266 -3.25571e-06
0.000625266 0.00171892 -1.51661e-06
-3.25571e-06 -1.51661e-06 0.00143237
-0.00327838 9.89798e-05 3.38681e-06
9.89798e-05 -0.00227967 2.87669e-05
3.38681e-06 2.87669e-05 -0.0023126
-0.000820662 0.000307729 -1.26839e-06
0.000307729 -0.000350295 8.55352e-06
-1.26839e-06 8.55352e-06 -0.000783819
0.00100298 0.00042344 -1.3044e-05
0.00042344 0.000530922 3.35179e-07
-1.3044e-05 3.35179e-07 5.49072e-05
0.00115682 0.0010678 -3.50075e-05
0.0010678 0.000720898 -8.89304e-06
-3.50075e-05 -8.89304e-06 -2.62367e-05
-0.00114492 0.000860244 -5.49034e-05
0.000860244 -0.000951945 8.58757e-05
-5.49034e-05 8.58757e-05 -0.00131146
-0.000692806 0.0001262 -1.40789e-05
0.0001262 -0.000281114 2.37741e-05
-1.40789e-05 2.37741e-05 -0.000700405
0.0020198 0.000853662 2.87877e-05
0.000853662 0.00144768 -1.09599e-07
2.87877e-05 -1.09599e-07 0.000761995
0.00895162 -0.00754998 -0.00393463
-0.00754998 0.006234 0.000298634
-0.00393463 0.000298634 -0.0037109
0.00866828 -0.00969778 0.00125748
-0.00969778 0.0172042 -7.44361e-05
0.00125748 -7.44361e-05 0.00368257
0.0116863 0.00578489 -0.00146733
0.00578489 0.00406859 -0.000413263
-0.00146733 -0.000413263 -0.00333192
0.0355612 -0.0264356 0.00244261
-0.0264356 0.0258165 0.00174164
0.00244261 0.00174164 0.00740037
0.0337463 -0.00687952 -0.000345989
-0.00687952 0.0164897 0.000681083
-0.000345989 0.000681083 0.00572854
0.00013889 0.00250136 -0.00022446
0.00250136 0.00553692 -0.000272023
-0.00022446 -0.000272023 -0.00205083
5.71183e-05 -0.000293116 -0.000181167
-0.000293116 0.00459883 7.07223e-05
-0.000181167 7.07223e-05 0.00183074
0.000122749 0.00175957 5.71465e-05
0.00175957 0.00294587 5.29649e-05
5.71465e-05 5.29649e-05 0.00112651
0.0337775 -0.00991926 -0.00113064
-0.00991926 0.0167524 0.000353381
-0.00113064 0.000353381 0.0045079
-0.00109252 0.0079022 -0.000432273
0.0079022 0.00160695 -5.3444e-05
-0.000432273 -5.3444e-05 -0.00383596
0.00199124 0.00498162 2.05873e-05
0.00498162 0.001114 -0.000140024
2.05873e-05 -0.000140024 0.000936043
0.00731149 0.0131498 -0.00127161
0.0131498 -0.00388045 -0.000151755
-0.00127161 -0.000151755 -0.0039498
0.00402885 0.00207193 3.89904e-05
0.00207193 0.00176579 2.30945e-05
3.89904e-05 2.30945e-05 0.00106799
0.00169726 0.00108604 -1.2653e-05
0.00108604 0.000692443 -5.51287e-06
-1.2653e-05 -5.51287e-06 0.000397186
-0.000275732 0.000396713 -6.22433e-05
0.000396713 0.000180109 -1.47312e-05
-6.22433e-05 -1.47312e-05 -0.000519944
-0.000200376 0.00147009 -0.000177441
0.00147009 0.00161355 -9.56604e-05
-0.000177441 -9.56604e-05 -0.000217155
0.00118573 0.00110687 -8.93251e-05
0.00110687 0.000678728 -7.58725e-05
-8.93251e-05 -7.58725e-05 0.000110593
0.00301918 0.00329489 8.41419e-07
0.00329489 0.00133594 -1.73971e-05
8.41419e-07 -1.73971e-05 -0.000309599
-0.000321219 0.00350088 0.000188932
0.00350088 -0.00172747 0.000125911
0.000188932 0.000125911 -0.00232659
-0.00741056 -0.000748368 -0.00163717
-0.000748368 0.0013865 4.45299e-05
-0.00163717 4.45299e-05 -0.00622617
-0.0100273 0.000758616 0.00111928
0.000758616 0.00718615 -3.56845e-05
0.00111928 -3.56845e-05 -0.000444091
0.00108048 0.000710245 -0.000289821
0.000710245 0.00280798 4.81908e-05
-0.000289821 4.81908e-05 -0.00030765
0.00100658 -0.00230221 -0.000120133
-0.00230221 0.00175856 -7.76954e-05
-0.000120133 -7.76954e-05 -0.000101073
0.00114486 -0.00554801 0.000186922
-0.00554801 0.000916308 5.62969e-05
0.000186922 5.62969e-05 7.32238e-05
0.00451837 0.00429201 0.000982215
0.00429201 0.0144963 0.000260374
0.000982215 0.000260374 0.00408831
0.00592628 -0.0102804 0.00134672
-0.0102804 -0.00480201 -0.000200757
0.00134672 -0.000200757 -0.00331884
0.023282 0.00861066 0.00259377
0.00861066 0.0155826 0.000271703
0.00259377 0.000271703 0.00602065
0.00373125 -0.00427236 -2.10072e-05
-0.00427236 0.00148225 -7.30975e-06
-2.10072e-05 -7.30975e-06 0.00014085
0.00810649 0.00632694 0.000588568
0.00632694 0.00610209 -0.000184533
0.000588568 -0.000184533 -0.00273171
0.00873369 -0.00676655 -0.000410433
-0.00676655 -0.00781839 0.000229715
-0.000410433 0.000229715 -0.00573194
0.00297328 -0.00565345 -7.13694e-05
-0.00565345 -0.00166023 7.59586e-05
-7.13694e-05 7.59586e-05 0.000568913
0.00368701 -0.00325522 6.04993e-05
-0.00325522 0.000106097 -3.37257e-05
6.04993e-05 -3.37257e-05 0.000196825
0.018201 -0.00169658 -0.000126028
-0.00169658 -0.000660495 0.000161561
-0.000126028 0.000161561 0.000717127
0.0034451 -0.00404713 0.000146876
-0.00404713 -0.00514715 -0.000192452
0.000146876 -0.000192452 -0.00108644
0.00353398 -0.0023306 -9.06896e-05
-0.0023306 0.00147583 5.00993e-05
-9.06896e-05 5.00993e-05 0.000628102
0.000527062 -0.00136856 -1.93564e-05
-0.00136856 -0.000641364 2.9796e-06
-1.93564e-05 2.9796e-06 -0.00102579
0.00637094 -0.00189783 5.83724e-05
-0.00189783 0.00215818 -2.81451e-05
5.83724e-05 -2.81451e-05 0.00175799
0.000437367 -0.00143077 -5.81093e-06
-0.00143077 -0.000553734 8.04732e-07
-5.81093e-06 8.04732e-07 -0.00117792
0.00309271 -0.00169656 2.05107e-06
-0.00169656 0.000575281 -1.27424e-06
2.05107e-06 -1.27424e-06 8.57003e-06
0.00339247 -0.00134843 -5.03937e-07
-0.00134843 0.000417975 -1.7974e-06
-5.03937e-07 -1.7974e-06 0.000243643
0.00289026 -0.00173431 9.48734e-06
-0.00173431 0.000608116 1.09123e-05
9.48734e-06 1.09123e-05 -0.000205073
0.00302021 -0.0013412 -4.03103e-06
-0.0013412 0.000383575 2.45152e-06
-4.03103e-06 2.45152e-06 -1.75108e-05
0.00271492 -0.00090928 -7.49224e-07
-0.00090928 -4.97786e-06 2.45598e-08
-7.49224e-07 2.45598e-08 -1.78884e-05
0.00218238 -0.00111731 8.03599e-06
-0.00111731 0.00011981 6.93244e-06
8.03599e-06 6.93244e-06 -0.000369038
0.00248462 -0.00082838 -6.76928e-09
-0.00082838 3.26132e-05 2.54481e-06
-6.76928e-09 2.54481e-06 -0.000129485
0.00264505 -0.000878231 -2.33692e-06
-0.000878231 8.90287e-05 9.60605e-07
-2.33692e-06 9.60605e-07 5.22544e-06
0.00256607 -0.00084399 -4.37551e-06
-0.00084399 0.000131724 2.13896e-07
-4.37551e-06 2.13896e-07 -7.95066e-06
0.00250067 -0.000812921 -3.69106e-06
-0.000812921 0.000160938 1.87823e-06
-3.69106e-06 1.87823e-06 5.30992e-06
0.00251883 -0.000777189 -8.99639e-07
-0.000777189 0.000272295 -1.17206e-06
-8.99639e-07 -1.17206e-06 6.83986e-05
0.00248049 -0.000787737 -5.97394e-06
-0.000787737 0.000289825 -1.624e-06
-5.97394e-06 -1.624e-06 -1.46028e-05
0.00241039 -0.00075104 1.41109e-06
-0.00075104 0.000201917 1.30741e-06
1.41109e-06 1.30741e-06 -6.79657e-05
0.00223738 -0.000735483 2.80448e-06
-0.000735483 -2.06789e-05 5.92799e-06
2.80448e-06 5.92799e-06 -0.000242809
0.00238242 -0.000944802 -4.89674e-06
-0.000944802 0.000338438 -7.6945e-06
-4.89674e-06 -7.6945e-06 -0.000129357
0.00215191 -0.000960618 -4.1917e-07
-0.000960618 0.000126371 -1.17461e-07
-4.1917e-07 -1.17461e-07 -0.000346411
0.00257848 -0.00109432 6.78608e-06
-0.00109432 0.000396663 4.35796e-06
6.78608e-06 4.35796e-06 -0.000126961
0.00186729 -0.00103919 -7.76072e-06
-0.00103919 0.000249762 -6.15667e-06
-7.76072e-06 -6.15667e-06 -0.000375421
0.00277967 -0.00126113 -1.55852e-06
-0.00126113 0.00077482 8.2208e-07
-1.55852e-06 8.2208e-07 8.73534e-05
0.00266838 -0.00134543 2.88451e-06
-0.00134543 0.000706269 3.27353e-06
2.88451e-06 3.27353e-06 -1.53523e-05
0.000767066 -0.000378294 -6.6932e-06
-0.000378294 -0.000105074 8.23716e-06
-6.6932e-06 8.23716e-06 -0.000444025
0.00193918 -0.000930149 -2.25081e-06
-0.000930149 0.000554954 2.90033e-06
-2.25081e-06 2.90033e-06 -8.1401e-05
0.00256392 -0.00130326 4.73564e-06
-0.00130326 0.000937963 9.56857e-06
4.73564e-06 9.56857e-06 0.00014357
0.000167217 -0.000221639 -1.82111e-05
-0.000221639 -0.000257294 2.622e-05
-1.82111e-05 2.622e-05 -0.000443452
0.0013232 -0.000489595 -1.18669e-05
-0.000489595 0.000413581 -1.42006e-07
-1.18669e-05 -1.42006e-07 0.000104827
-0.00116543 -0.000751678 -2.20865e-06
-0.000751678 -0.00109861 -1.72691e-06
-2.20865e-06 -1.72691e-06 -0.00165895
0.00689777 0.000187223 -0.000202533
0.000187223 0.00430709 1.73508e-05
-0.000202533 1.73508e-05 0.00428531
0.000597051 -0.00021087 -6.51211e-06
-0.00021087 7.76325e-06 -1.73666e-06
-6.51211e-06 -1.73666e-06 -0.000131252
0.000169465 -0.000468582 1.7806e-05
-0.000468582 -0.000118028 -9.33347e-07
1.7806e-05 -9.33347e-07 -0.00049442
0.00397321 0.00014708 0.000102704
0.00014708 0.00238412 -2.90084e-06
0.000102704 -2.90084e-06 0.00233397
0.000279343 -0.000200125 3.07006e-05
-0.000200125 -0.000173248 -1.59104e-05
3.07006e-05 -1.59104e-05 -0.00031079
0.00594051 0.000116268 0.000192081
0.000116268 0.00366701 -1.6362e-05
0.000192081 -1.6362e-05 0.00366109
0.001252 0.000657148 -2.1723e-05
0.000657148 0.000330898 1.6155e-05
-2.1723e-05 1.6155e-05 -0.000214436
0.000848213 0.000390453 -8.41094e-06
0.000390453 0.000249801 1.64301e-06
-8.41094e-06 1.64301e-06 -0.000140299
-0.000319852 0.000219519 1.32919e-05
0.000219519 -0.000519733 9.71771e-06
1.32919e-05 9.71771e-06 -0.000839969
0.00234393 0.000453921 3.61165e-06
0.000453921 0.00123313 -4.24304e-06
3.61165e-06 -4.24304e-06 0.000875579
0.00145944 0.000252833 1.25222e-06
0.000252833 0.000797758 -4.30746e-07
1.25222e-06 -4.30746e-07 0.000389844
0.0015677 0.000216247 3.10763e-06
0.000216247 0.000837854 -1.60223e-05
3.10763e-06 -1.60223e-05 0.000499764
0.000910181 0.000141888 -2.06024e-05
0.000141888 0.000319225 -2.25161e-05
-2.06024e-05 -2.25161e-05 0.000217875
0.000805164 0.000205115 -2.26121e-06
0.000205115 0.000340683 8.52416e-07
-2.26121e-06 8.52416e-07 6.45058e-05
-0.00203501 -1.21382e-05 -1.92065e-05
-1.21382e-05 -0.00132455 2.82864e-05
-1.92065e-05 2.82864e-05 -0.00180227
0.00364309 -9.36994e-05 -9.15283e-05
-9.36994e-05 0.00215195 -1.30227e-05
-9.15283e-05 -1.30227e-05 0.00215222
0.00026625 7.72282e-05 1.2521e-06
7.72282e-05 -7.17841e-05 -6.48693e-07
1.2521e-06 -6.48693e-07 -0.000152035
0.000707283 0.000181806 -2.95601e-06
0.000181806 0.000254288 1.28885e-05
-2.95601e-06 1.28885e-05 3.73747e-05
0.00337546 -9.34824e-05 -1.07061e-05
-9.34824e-05 0.00197049 9.22231e-07
-1.07061e-05 9.22231e-07 0.00196835
0.000201727 -2.70144e-06 2.31833e-06
-2.70144e-06 -0.000118139 1.43122e-05
2.31833e-06 1.43122e-05 -0.000183218
0.00301263 -7.97904e-05 3.41061e-05
-7.97904e-05 0.00171937 8.32542e-06
3.41061e-05 8.32542e-06 0.00171985
0.00254721 -0.00303844 -0.00263408
-0.00303844 0.00466836 8.49799e-05
-0.00263408 8.49799e-05 0.000588919
-0.000386401 -0.00266464 -0.000196734
-0.00266464 0.00966373 -8.52555e-05
-0.000196734 -8.52555e-05 -0.0013099
0.00724708 0.00142368 -0.000748179
0.00142368 0.00450032 -0.000196718
-0.000748179 -0.000196718 0.000394753
0.000170884 0.000239169 6.69092e-07
0.000239169 -1.92847e-05 1.21175e-05
6.69092e-07 1.21175e-05 -0.000526005
0.00110609 0.000342516 1.57051e-05
0.000342516 0.000805141 1.87291e-06
1.57051e-05 1.87291e-06 8.83089e-05
0.00206447 0.00100521 -4.25092e-06
0.00100521 0.0009864 -2.0936e-06
-4.25092e-06 -2.0936e-06 0.000259468
0.00232217 0.00132068 1.11812e-05
0.00132068 0.000904593 2.09446e-05
1.11812e-05 2.09446e-05 0.000138671
0.00155684 0.0011033 -3.0893e-05
0.0011033 0.000973157 1.97582e-05
-3.0893e-05 1.97582e-05 0.000112961
0.00358664 0.000614326 5.31467e-06
0.000614326 0.00226651 4.69529e-06
5.31467e-06 4.69529e-06 0.00190465
0.00202869 0.000543223 2.71498e-05
0.000543223 0.00127505 1.92603e-05
2.71498e-05 1.92603e-05 0.000759798
0.00244863 0.00108984 -5.23517e-06
0.00108984 0.00145337 2.81998e-07
-5.23517e-06 2.81998e-07 0.000730835
0.00250614 0.00155238 -2.32209e-05
0.00155238 0.000958157 4.58311e-06
-2.32209e-05 4.58311e-06 0.000234371
0.00234701 0.00146795 -1.98524e-05
0.00146795 0.000796561 6.09443e-05
-1.98524e-05 6.09443e-05 0.000371899
0.00197608 0.00194685 4.4228e-05
0.00194685 0.000131358 -8.82075e-06
4.4228e-05 -8.82075e-06 -0.000383902
0.00130304 0.00121059 2.06703e-05
0.00121059 0.000461027 9.52686e-06
2.06703e-05 9.52686e-06 -3.15978e-05
0.00312979 0.00105086 -1.45781e-05
0.00105086 0.00211734 -5.30727e-06
-1.45781e-05 -5.30727e-06 0.00129092
0.0185443 0.00727078 -0.000207514
0.00727078 -0.000897832 8.91349e-05
-0.000207514 8.91349e-05 0.00108006
0.0155869 -0.00561038 -0.00102803
-0.00561038 0.00884802 -0.000214123
-0.00102803 -0.000214123 0.00156342
0.0087023 -0.0104871 0.00208473
-0.0104871 0.0187648 6.713e-05
0.00208473 6.713e-05 0.00581074
0.0255091 -0.00632011 0.000737775
-0.00632011 0.0115866 0.000162069
0.000737775 0.000162069 0.00093163
0.00925549 0.00971157 -0.000309424
0.00971157 0.00475378 -0.000125933
-0.000309424 -0.000125933 -0.00017492
-0.000375142 0.0018187 3.24322e-05
0.0018187 0.0028505 4.46631e-05
3.24322e-05 4.46631e-05 0.000897992
0.00164383 0.00463872 -0.0001684
0.00463872 0.000911318 -9.7073e-05
-0.0001684 -9.7073e-05 0.00117452
0.0107218 0.0108812 8.84856e-05
0.0108812 -0.000939416 0.000102573
8.84856e-05 0.000102573 -0.00198631
0.00818584 0.0077295 -0.000221631
0.0077295 -0.000963467 -0.000165023
-0.000221631 -0.000165023 0.000326615
0.00187777 0.00212527 6.51679e-06
0.00212527 0.000217341 -2.28375e-05
6.51679e-06 -2.28375e-05 -0.000317503
0.00222526 0.00173215 1.93788e-05
0.00173215 0.000811292 4.11519e-06
1.93788e-05 4.11519e-06 0.000222583
0.00152788 0.000993815 -2.2757e-05
0.000993815 0.000643102 -4.65072e-05
-2.2757e-05 -4.65072e-05 0.00037429
0.00172139 0.00319379 -0.000108795
0.00319379 0.000443735 -5.91683e-05
-0.000108795 -5.91683e-05 -0.00111537
0.00419185 0.00407594 0.000128677
0.00407594 0.000438285 4.73053e-05
0.000128677 4.73053e-05 -0.000610404
0.00754734 -0.000348307 -5.42362e-05
-0.000348307 -0.00640825 1.92522e-05
-5.42362e-05 1.92522e-05 -0.00717695
0.000344465 -0.00291599 -3.53916e-05
-0.00291599 0.00633283 0.000105426
-3.53916e-05 0.000105426 0.000903878
-0.0135248 -8.32227e-05 0.00144065
-8.32227e-05 0.0083604 2.95721e-05
0.00144065 2.95721e-05 0.00279031
0.00282101 -0.00493425 -0.000166838
-0.00493425 0.00051836 0.000104503
-0.000166838 0.000104503 -0.001087
0.00680917 -0.00727934 -1.872e-05
-0.00727934 -0.000860285 0.000133793
-1.872e-05 0.000133793 0.000864012
0.00956273 0.00292605 0.00258114
0.00292605 0.00764203 -0.00036609
0.00258114 -0.00036609 0.00295006
0.0126845 -0.00615591 -0.000480936
-0.00615591 -0.00491184 0.000374389
-0.000480936 0.000374389 -0.00179549
0.00267975 -0.00320423 -4.70892e-05
-0.00320423 -0.00051577 1.53104e-05
-4.70892e-05 1.53104e-05 -0.000526949
0.0134078 -0.0013269 -0.00044708
-0.0013269 -0.00433383 0.000154135
-0.00044708 0.000154135 -0.0032928
0.0078204 -0.00477896 0.000120225
-0.00477896 -0.00236641 -6.28674e-06
0.000120225 -6.28674e-06 0.000620559
0.0038534 -0.00251209 6.65295e-05
-0.00251209 -0.000980172 -7.9591e-05
6.65295e-05 -7.9591e-05 -0.000145815
0.00397421 -0.00196628 0.000147993
-0.00196628 -0.00420726 -4.17406e-05
0.000147993 -4.17406e-05 -0.00023163
-0.000503537 -0.00127015 5.829e-06
-0.00127015 -0.00130052 1.7382e-05
5.829e-06 1.7382e-05 -0.00152949
0.00216578 -0.00140767 -3.49495e-05
-0.00140767 -0.000318254 1.11623e-05
-3.49495e-05 1.11623e-05 -0.000292245
0.00470191 -0.00133263 5.25822e-05
-0.00133263 0.000962319 -2.72576e-05
5.25822e-05 -2.72576e-05 0.00109576
0.00183374 -0.0015105 -5.14379e-06
-0.0015105 -6.56957e-05 9.80189e-06
-5.14379e-06 9.80189e-06 -0.000562666
0.00303806 -0.00133117 -5.36921e-06
-0.00133117 0.000207078 2.02396e-06
-5.36921e-06 2.02396e-06 3.54508e-05
0.00306095 -0.000996656 4.60364e-06
-0.000996656 9.39207e-07 -1.8393e-06
4.60364e-06 -1.8393e-06 0.000104329
0.0028333 -0.00129779 -1.12754e-05
-0.00129779 0.000286242 9.26331e-06
-1.12754e-05 9.26331e-06 -9.12643e-05
0.00263186 -0.000900689 -1.8067e-07
-0.000900689 -5.71857e-05 1.31576e-06
-1.8067e-07 1.31576e-06 -6.84894e-05
0.00278397 -0.00087075 -1.12306e-06
-0.00087075 8.70184e-06 -5.66796e-07
-1.12306e-06 -5.66796e-07 3.97073e-05
0.00240683 -0.000811135 2.50136e-06
-0.000811135 -1.59237e-05 4.1251e-06
2.50136e-06 4.1251e-06 -0.000165345
0.00262327 -0.0008687 -2.40236e-07
-0.0008687 8.93261e-05 5.54914e-07
-2.40236e-07 5.54914e-07 4.68399e-06
0.00270413 -0.000844341 -2.28761e-06
-0.000844341 7.32325e-05 -8.45833e-08
-2.28761e-06 -8.45833e-08 1.03959e-05
0.00252572 -0.000844409 -5.03198e-06
-0.000844409 0.000102533 4.17651e-07
-5.03198e-06 4.17651e-07 -2.84228e-05
0.00247508 -0.00079054 -1.18155e-06
-0.00079054 0.000119566 -5.06578e-07
-1.18155e-06 -5.06578e-07 -2.40947e-05
0.00243675 -0.000810527 3.98607e-07
-0.000810527 0.000112016 2.86651e-06
3.98607e-07 2.86651e-06 -3.60672e-05
0.00250606 -0.000775028 9.44078e-07
-0.000775028 0.000261733 -5.62457e-07
9.44078e-07 -5.62457e-07 6.28852e-05
0.0024586 -0.000766669 -2.58301e-06
-0.000766669 0.000293864 1.67655e-07
-2.58301e-06 1.67655e-07 4.91105e-05
0.00253697 -0.000809335 -7.47571e-07
-0.000809335 0.00040006 -5.85911e-06
-7.47571e-07 -5.85911e-06 5.83872e-05
0.00259161 -0.000796245 -4.00002e-07
-0.000796245 0.000367343 9.03097e-08
-4.00002e-07 9.03097e-08 5.68858e-05
0.00266311 -0.000760959 7.70792e-06
-0.000760959 0.000387012 2.52033e-06
7.70792e-06 2.52033e-06 0.000112852
0.00225505 -0.000933059 -4.82771e-06
-0.000933059 0.000361365 -3.32648e-06
-4.82771e-06 -3.32648e-06 -0.000152058
0.00235825 -0.000960268 -3.375e-06
-0.000960268 0.000302885 -9.77446e-07
-3.375e-06 -9.77446e-07 -0.000174972
0.00203865 -0.000963919 4.10572e-06
-0.000963919 3.49441e-05 4.28022e-06
4.10572e-06 4.28022e-06 -0.000441371
0.00192352 -0.00065515 -1.36601e-05
-0.00065515 0.000568853 8.68417e-06
-1.36601e-05 8.68417e-06 0.000104686
0.00223783 -0.00107536 -1.43743e-06
-0.00107536 0.000510307 2.62668e-07
-1.43743e-06 2.62668e-07 -0.000122956
0.00290714 -0.00128338 4.87917e-06
-0.00128338 0.0008242 7.31838e-06
4.87917e-06 7.31838e-06 0.000131069
0.00034029 -0.000288639 -1.70172e-05
-0.000288639 -0.000199872 2.9568e-05
-1.70172e-05 2.9568e-05 -0.000412693
0.000719474 -0.000397416 4.56749e-06
-0.000397416 -0.00011214 -2.27216e-06
4.56749e-06 -2.27216e-06 -0.00047298
0.00240775 -0.000980712 7.58444e-06
-0.000980712 0.00085483 5.52823e-06
7.58444e-06 5.52823e-06 0.00021609
0.00727178 3.77595e-05 -0.000263878
3.77595e-05 0.00450766 2.32852e-05
-0.000263878 2.32852e-05 0.00451368
0.000409046 -0.000250539 -4.70295e-06
-0.000250539 -0.000110274 -1.83942e-07
-4.70295e-06 -1.83942e-07 -0.000301207
0.0015083 -0.000605563 5.95483e-06
-0.000605563 0.000637993 -1.70381e-06
5.95483e-06 -1.70381e-06 0.000257295
0.00666816 0.000131048 1.49661e-05
0.000131048 0.00414494 -4.05e-06
1.49661e-05 -4.05e-06 0.00413302
0.00117563 -0.000241113 2.40457e-05
-0.000241113 0.000374339 -2.09919e-05
2.40457e-05 -2.09919e-05 0.000231517
0.00641977 0.000196163 0.000164088
0.000196163 0.00400749 -2.21464e-05
0.000164088 -2.21464e-05 0.00397917
0.00324266 0.00129594 -9.9735e-06
0.00129594 0.00149125 1.88916e-05
-9.9735e-06 1.88916e-05 0.000723511
0.00209407 0.000830503 -1.3681e-06
0.000830503 0.000933207 1.92598e-06
-1.3681e-06 1.92598e-06 0.000323086
-0.00117846 0.000395192 -3.27637e-06
0.000395192 -0.00101321 9.68466e-06
-3.27637e-06 9.68466e-06 -0.00148187
-0.000329641 0.000228857 5.90672e-06
0.000228857 -0.000433109 -8.02848e-06
5.90672e-06 -8.02848e-06 -0.000815952
-0.000158388 0.000428831 3.41796e-06
0.000428831 -0.000399294 -5.61899e-06
3.41796e-06 -5.61899e-06 -0.000726825
-0.000885986 0.000558834 -1.19105e-05
0.000558834 -0.000875739 -5.99039e-06
-1.19105e-05 -5.99039e-06 -0.00120834
-0.000166751 0.000116786 -1.26827e-05
0.000116786 -0.00024499 -3.71446e-07
-1.26827e-05 -3.71446e-07 -0.000662217
0.000658495 0.000370708 4.32903e-06
0.000370708 0.000227113 4.03112e-07
4.32903e-06 4.03112e-07 -0.000110974
0.00101538 0.000205709 -2.76682e-05
0.000205709 0.000343349 -2.58799e-05
-2.76682e-05 -2.58799e-05 0.000209305
0.0046435 -0.000132068 -0.000120078
-0.000132068 0.0028361 -2.06178e-05
-0.000120078 -2.06178e-05 0.00282509
0.000505845 9.29662e-05 4.65419e-06
9.29662e-05 7.49521e-05 -3.35337e-07
4.65419e-06 -3.35337e-07 -3.1692e-05
-0.000270871 6.53734e-05 -6.13475e-06
6.53734e-05 -0.000304643 1.58078e-05
-6.13475e-06 1.58078e-05 -0.000614644
0.00411052 -0.000134121 -1.50389e-05
-0.000134121 0.00247262 1.80673e-06
-1.50389e-05 1.80673e-06 0.00246168
0.000222212 -7.69398e-05 -1.30171e-05
-7.69398e-05 -7.59396e-05 1.79223e-05
-1.30171e-05 1.79223e-05 -0.000168001
0.00343324 -0.000105984 4.63172e-05
-0.000105984 0.00201062 9.57011e-06
4.63172e-05 9.57011e-06 0.00200504
0.0162215 0.00110917 0.000867929
0.00110917 -0.00128708 0.000170944
0.000867929 0.000170944 0.00116478
0.0049122 -0.00807125 -0.00148161
-0.00807125 0.00264786 1.2776e-05
-0.00148161 1.2776e-05 -0.00646276
-0.00319034 -0.000179628 -0.000317273
-0.000179628 0.00906726 -7.4529e-05
-0.000317273 -7.4529e-05 -0.000523796
0.000483425 0.000169019 7.83227e-06
0.000169019 0.00037902 -1.75695e-05
7.83227e-06 -1.75695e-05 -0.000346678
0.00127425 0.00091424 1.91541e-05
0.00091424 0.000528273 -2.04837e-05
1.91541e-05 -2.04837e-05 -0.000219423
0.0020219 0.00106735 -1.09839e-05
0.00106735 0.00109522 -1.0686e-05
-1.09839e-05 -1.0686e-05 0.000327229
0.00218314 0.00132193 -3.87983e-06
0.00132193 0.000833654 -7.38334e-07
-3.87983e-06 -7.38334e-07 5.25303e-05
0.0021482 0.00123959 2.78494e-05
0.00123959 0.000543547 2.77716e-05
2.78494e-05 2.77716e-05 -0.000117563
0.00132631 0.00141158 -7.05243e-06
0.00141158 0.000197129 1.6094e-05
-7.05243e-06 1.6094e-05 -0.000474507
0.00201031 0.000986113 -8.29462e-06
0.000986113 0.00108307 -1.45259e-05
-8.29462e-06 -1.45259e-05 0.000372037
0.00228163 0.00154151 7.54782e-07
0.00154151 0.000783421 3.23245e-06
7.54782e-07 3.23245e-06 7.05602e-05
0.00286241 0.00146046 3.35218e-05
0.00146046 0.00123622 7.94765e-06
3.35218e-05 7.94765e-06 0.000655031
0.00364689 0.00156753 7.79926e-06
0.00156753 0.00149377 9.7915e-06
7.79926e-06 9.7915e-06 0.000782607
0.00162632 0.00152584 1.31808e-06
0.00152584 0.000141258 9.75014e-06
1.31808e-06 9.75014e-06 -0.000351383
0.00385816 0.00207739 1.89398e-05
0.00207739 0.00119566 2.10398e-05
1.89398e-05 2.10398e-05 0.000438891
0.00302361 0.00201136 1.53775e-05
0.00201136 0.000801743 3.99391e-06
1.53775e-05 3.99391e-06 0.000224377
0.00287271 0.0012991 -4.20192e-05
0.0012991 0.00132931 -0.000118887
-4.20192e-05 -0.000118887 0.000788627
0.00513487 0.00389208 3.42266e-05
0.00389208 -0.00481694 8.1911e-05
3.42266e-05 8.1911e-05 -0.000167683
0.0134727 0.00831015 0.000614044
0.00831015 -0.00476825 0.000289855
0.000614044 0.000289855 -0.00268631
0.0198622 -0.00977164 0.0016367
-0.00977164 0.0112413 -0.00047392
0.0016367 -0.00047392 0.00103595
0.00448073 0.012888 0.00149609
0.012888 -0.00346715 0.000515281
0.00149609 0.000515281 -0.00490079
-0.000710662 0.00355521 -3.31124e-05
0.00355521 0.000436278 4.12513e-05
-3.31124e-05 4.12513e-05 0.000467087
0.00360496 0.00465751 -0.000129002
0.00465751 -0.0016256 -0.000110437
-0.000129002 -0.000110437 0.000389823
0.00752363 0.00397536 5.34163e-05
0.00397536 0.000881834 2.63057e-05
5.34163e-05 2.63057e-05 0.000718422
0.00594824 0.00295621 2.50505e-05
0.00295621 0.00203673 6.44212e-06
2.50505e-05 6.44212e-06 0.00127333
0.00119376 0.00150056 -3.1308e-05
0.00150056 0.000265313 -2.23599e-05
-3.1308e-05 -2.23599e-05 -0.000246681
0.00903562 0.00473406 -0.000177169
0.00473406 0.00265366 6.70363e-05
-0.000177169 6.70363e-05 0.00127382
0.0061961 -0.00111879 0.000174155
-0.00111879 -0.00329448 7.7185e-05
0.000174155 7.7185e-05 0.000465065
0.015038 -0.000400136 -8.47007e-07
-0.000400136 -0.00183646 -5.18374e-05
-8.47007e-07 -5.18374e-05 0.000349245
-0.00870641 -0.00504674 0.00201165
-0.00504674 0.0011624 -0.000109952
0.00201165 -0.000109952 -0.00692522
0.00273866 -0.00312898 -0.000149518
-0.00312898 -0.000449851 8.38172e-05
-0.000149518 8.38172e-05 -0.000382097
0.00798216 -0.00513571 -0.000149973
-0.00513571 -0.00273655 0.000200824
-0.000149973 0.000200824 0.00063498
0.00302466 -0.00085411 -0.000573898
-0.00085411 -0.0110016 2.13149e-05
-0.000573898 2.13149e-05 -0.00882029
0.00385064 -0.0023678 4.94526e-05
-0.0023678 -0.000944051 7.53948e-07
4.94526e-05 7.53948e-07 9.23842e-05
0.00529556 -0.00198799 -0.000112765
-0.00198799 -0.00314899 1.45802e-05
-0.000112765 1.45802e-05 9.47801e-06
0.00649483 -0.00171899 7.27476e-05
-0.00171899 0.000694353 -6.8438e-05
7.27476e-05 -6.8438e-05 0.00164334
0.00894025 -0.00130933 0.000196907
-0.00130933 0.00140261 1.06971e-05
0.000196907 1.06971e-05 0.00291547
-0.00185514 -0.000996772 4.31474e-05
-0.000996772 -0.00283494 1.1471e-05
4.31474e-05 1.1471e-05 -0.00230415
0.0026817 -0.00114285 -1.68715e-05
-0.00114285 -0.000307314 2.61102e-06
-1.68715e-05 2.61102e-06 8.17227e-05
0.00288866 -0.000798526 3.33909e-05
-0.000798526 -0.000310844 -1.78909e-05
3.33909e-05 -1.78909e-05 0.000127605
0.00270618 -0.00132304 -3.9145e-06
-0.00132304 4.40848e-06 4.2455e-06
-3.9145e-06 4.2455e-06 -0.000170252
0.00302494 -0.000995722 4.15423e-07
-0.000995722 -1.0954e-05 1.15093e-06
4.15423e-07 1.15093e-06 9.03691e-05
0.00290667 -0.00081249 -1.47216e-07
-0.00081249 -8.27512e-05 -1.53312e-06
-1.47216e-07 -1.53312e-06 3.07088e-06
0.00254579 -0.00089481 1.39037e-06
-0.00089481 -0.000116869 2.72591e-06
1.39037e-06 2.72591e-06 -0.00012613
0.00275493 -0.000869045 -4.29037e-08
-0.000869045 1.26564e-06 2.50052e-07
-4.29037e-08 2.50052e-07 2.22936e-05
0.00267529 -0.000723588 -1.66553e-06
-0.000723588 -4.11034e-05 -8.23849e-07
-1.66553e-06 -8.23849e-07 -2.91107e-05
0.00260733 -0.000861777 1.71107e-06
-0.000861777 8.90132e-05 6.46566e-07
1.71107e-06 6.46566e-07 3.70884e-06
0.00270606 -0.000844371 -1.78874e-07
-0.000844371 0.000101197 -1.66386e-07
-1.78874e-07 -1.66386e-07 3.102e-05
0.0026062 -0.000726325 1.04808e-06
-0.000726325 0.000101163 -7.64242e-07
1.04808e-06 -7.64242e-07 3.0704e-05
0.00248175 -0.000844851 -1.93211e-06
-0.000844851 6.90159e-05 5.42554e-07
-1.93211e-06 5.42554e-07 -5.26331e-05
0.00246382 -0.000796272 -1.50195e-06
-0.000796272 0.000104953 2.10983e-07
-1.50195e-06 2.10983e-07 -3.51043e-05
0.00245348 -0.000736699 -1.75094e-06
-0.000736699 0.000195223 4.68801e-07
-1.75094e-06 4.68801e-07 1.42379e-05
0.00248724 -0.000771115 3.3368e-06
-0.000771115 0.000247283 4.39664e-07
3.3368e-06 4.39664e-07 5.42835e-05
0.00245675 -0.000758071 3.94518e-07
-0.000758071 0.000289315 -1.77589e-07
3.94518e-07 -1.77589e-07 4.76578e-05
0.00246591 -0.000762745 -1.21104e-06
-0.000762745 0.00033341 -6.87281e-07
-1.21104e-06 -6.87281e-07 4.60008e-05
0.00220462 -0.000763999 -7.63313e-07
-0.000763999 0.000277508 -6.33598e-06
-7.63313e-07 -6.33598e-06 -0.000105838
0.00245583 -0.000808715 -5.21893e-07
-0.000808715 0.000340646 -1.54901e-06
-5.21893e-07 -1.54901e-06 -1.0751e-05
0.00271202 -0.000806324 4.71576e-06
-0.000806324 0.000451843 1.93896e-06
4.71576e-06 1.93896e-06 0.00013445
0.00135872 -0.000625567 -2.04674e-05
-0.000625567 2.28156e-05 1.36848e-06
-2.04674e-05 1.36848e-06 -0.000412095
0.00240943 -0.000941281 -2.04433e-07
-0.000941281 0.000480482 3.05264e-07
-2.04433e-07 3.05264e-07 -3.36145e-05
0.00234085 -0.000977243 -7.07976e-07
-0.000977243 0.000270917 5.36471e-06
-7.07976e-07 5.36471e-06 -0.000217602
0.000327754 -0.000291491 -1.88645e-05
-0.000291491 -0.000227269 2.8986e-05
-1.88645e-05 2.8986e-05 -0.000444359
0.00106884 -0.000581205 7.93418e-06
-0.000581205 4.10462e-05 1.58256e-06
7.93418e-06 1.58256e-06 -0.000415456
0.00264557 -0.00111137 4.24775e-06
-0.00111137 0.000802842 5.49434e-06
4.24775e-06 5.49434e-06 0.000162016
0.00906887 -7.27964e-05 -0.000366895
-7.27964e-05 0.00563605 3.67548e-05
-0.000366895 3.67548e-05 0.00565045
9.31888e-05 -0.000297659 3.28961e-06
-0.000297659 -0.000349599 9.61254e-07
3.28961e-06 9.61254e-07 -0.000566703
0.000556446 -0.000389377 -2.93205e-06
-0.000389377 -0.000190822 -2.81519e-06
-2.93205e-06 -2.81519e-06 -0.000569969
0.00804103 6.28829e-06 -2.34488e-05
6.28829e-06 0.00501893 -1.56132e-06
-2.34488e-05 -1.56132e-06 0.00502013
0.000622757 -0.000240813 1.00095e-05
-0.000240813 2.14702e-05 -2.85535e-05
1.00095e-05 -2.85535e-05 -0.000175866
0.00672978 5.68231e-05 0.000279447
5.68231e-05 0.00419799 -3.95531e-05
0.000279447 -3.95531e-05 0.00419306
0.00234289 0.00114618 -1.30337e-05
0.00114618 0.000643014 1.91028e-05
-1.30337e-05 1.91028e-05 -1.45141e-05
0.00244562 0.00117359 5.75937e-07
0.00117359 0.000988015 3.77684e-07
5.75937e-07 3.77684e-07 0.000256263
0.00195725 0.000894796 -6.23279e-06
0.000894796 0.000680176 1.53716e-05
-6.23279e-06 1.53716e-05 6.26228e-05
0.000907589 0.000751062 2.29606e-05
0.000751062 0.000159492 -1.14971e-05
2.29606e-05 -1.14971e-05 -0.000442022
0.00106735 0.000477876 -2.60351e-06
0.000477876 0.000223452 -1.19537e-06
-2.60351e-06 -1.19537e-06 -0.00021441
-0.000179378 0.000335809 -5.84136e-06
0.000335809 -0.000424897 8.18896e-08
-5.84136e-06 8.18896e-08 -0.000818793
0.00317716 0.000356814 -2.79436e-07
0.000356814 0.00170622 -7.55203e-06
-2.79436e-07 -7.55203e-06 0.00137974
0.00154281 0.000282775 4.50164e-06
0.000282775 0.000705693 -1.94379e-06
4.50164e-06 -1.94379e-06 0.00037416
0.000325503 0.000253305 -3.37577e-05
0.000253305 -0.000163118 -2.74424e-05
-3.37577e-05 -2.74424e-05 -0.000321201
0.000712281 0.00027497 -1.09223e-06
0.00027497 0.000278892 1.8302e-05
-1.09223e-06 1.8302e-05 -6.08074e-05
0.000422096 0.000188059 -2.46206e-06
0.000188059 -2.2074e-05 -4.49749e-07
-2.46206e-06 -4.49749e-07 -0.000154009
0.00584541 -0.000133899 -0.000195078
-0.000133899 0.00364863 -3.06215e-05
-0.000195078 -3.06215e-05 0.00362893
0.00419958 -0.000148452 -1.78887e-05
-0.000148452 0.00254562 2.10404e-06
-1.78887e-05 2.10404e-06 0.00252907
-9.79296e-05 0.000158855 2.4133e-05
0.000158855 -0.000321782 2.1839e-05
2.4133e-05 2.1839e-05 -0.000416024
0.00360029 -0.000126859 5.95299e-05
-0.000126859 0.00213459 1.06331e-05
5.95299e-05 1.06331e-05 0.00212363
0.00131241 0.00106315 0.000180411
0.00106315 -0.00440169 5.15487e-05
0.000180411 5.15487e-05 -0.000700616
0.00414427 0.000385062 0.000315473
0.000385062 -0.00909758 0.000200775
0.000315473 0.000200775 -0.00875985
0.020191 -0.00930377 -0.000386202
-0.00930377 0.0141559 -0.000171135
-0.000386202 -0.000171135 0.00355994
0.00221906 0.00103502 1.53684e-05
0.00103502 0.000335934 1.68473e-05
1.53684e-05 1.68473e-05 -0.000163105
0.00286305 0.00113416 1.15479e-05
0.00113416 0.00145897 -1.67894e-05
1.15479e-05 -1.67894e-05 0.000723776
0.00172637 0.00128308 -9.07724e-07
0.00128308 0.000552797 -2.38493e-05
-9.07724e-07 -2.38493e-05 -0.000230863
0.00232172 0.00152182 3.53589e-06
0.00152182 0.000804385 1.97086e-06
3.53589e-06 1.97086e-06 8.92052e-05
0.00242243 0.00128339 9.68066e-07
0.00128339 0.000715588 3.11229e-06
9.68066e-07 3.11229e-06 3.89197e-05
0.00270465 0.0014088 9.52831e-06
0.0014088 0.000782306 1.58485e-05
9.52831e-06 1.58485e-05 0.000123008
0.00141444 0.00141107 3.12694e-06
0.00141107 0.000241653 -3.94776e-06
3.12694e-06 -3.94776e-06 -0.000435651
0.00113157 0.0011691 1.92285e-05
0.0011691 0.00027886 -6.06832e-05
1.92285e-05 -6.06832e-05 -0.000236604
0.00245259 0.00152146 1.32379e-06
0.00152146 0.000700194 -1.12422e-06
1.32379e-06 -1.12422e-06 4.5514e-05
0.000411909 0.0014083 1.24996e-05
0.0014083 -0.000599154 -3.21394e-05
1.24996e-05 -3.21394e-05 -0.000958346
0.00289172 0.00143651 1.53359e-05
0.00143651 0.00080525 -6.73055e-07
1.53359e-05 -6.73055e-07 9.74359e-05
0.00331271 0.00136282 6.0321e-05
0.00136282 0.000778738 7.38093e-05
6.0321e-05 7.38093e-05 0.000566271
0.00133692 0.00159335 -1.51222e-05
0.00159335 -8.35662e-05 -1.85436e-05
-1.51222e-05 -1.85436e-05 -0.000634812
0.00226509 0.00180974 -3.41509e-05
0.00180974 0.000432169 -1.45336e-05
-3.41509e-05 -1.45336e-05 -2.71941e-05
0.00276234 0.00181009 1.93019e-05
0.00181009 -0.00218612 6.48343e-05
1.93019e-05 6.48343e-05 -0.000386829
0.00651091 0.00424926 -0.000173559
0.00424926 -0.00401457 -7.81109e-05
-0.000173559 -7.81109e-05 0.000600868
0.00363661 0.00606669 0.00116359
0.00606669 -0.0114057 0.000330803
0.00116359 0.000330803 -0.00909105
0.00261488 0.00432497 -0.000292554
0.00432497 -0.00108026 -0.000146682
-0.000292554 -0.000146682 0.0004296
0.00582165 0.00323472 -2.78662e-05
0.00323472 0.000487777 -1.60658e-05
-2.78662e-05 -1.60658e-05 0.000599451
0.0087993 0.0035567 -0.000251778
0.0035567 0.00322282 -7.91211e-05
-0.000251778 -7.91211e-05 0.00232258
0.00490556 -6.37191e-05 -4.38862e-05
-6.37191e-05 -0.00118145 -2.69981e-05
-4.38862e-05 -2.69981e-05 0.000163968
0.00206577 -0.000494489 0.000115442
-0.000494489 -0.00311222 3.2224e-05
0.000115442 3.2224e-05 -0.000107156
0.00927022 -0.000209941 0.000210125
-0.000209941 -0.00668144 -4.24142e-05
0.000210125 -4.24142e-05 -0.00693622
0.00278873 -0.00212925 -8.32385e-05
-0.00212925 -0.00141384 0.000135805
-8.32385e-05 0.000135805 -0.000285762
0.00526544 -0.00200067 -0.000263797
-0.00200067 -0.00366071 9.51137e-05
-0.000263797 9.51137e-05 -0.000806933
0.00379019 -0.00144287 -1.49645e-05
-0.00144287 -0.000850248 1.30889e-05
-1.49645e-05 1.30889e-05 0.000274297
0.00510706 -0.00105314 -7.05596e-05
-0.00105314 -0.000548027 2.48924e-07
-7.05596e-05 2.48924e-07 0.000773949
0.00443674 -0.000703833 0.000127964
-0.000703833 0.000503084 -2.96381e-05
0.000127964 -2.96381e-05 0.000988949
0.00320467 -0.000145739 6.77394e-05
-0.000145739 -0.000120104 -2.22444e-06
6.77394e-05 -2.22444e-06 0.000311353
0.000881701 -0.00092673 -1.92471e-05
-0.00092673 -0.00133819 1.89785e-05
-1.92471e-05 1.89785e-05 -0.000747425
0.00284772 -0.000827469 -5.56066e-06
-0.000827469 -0.000310151 1.08799e-06
-5.56066e-06 1.08799e-06 7.63983e-05
0.00287111 -0.000594148 5.02166e-06
-0.000594148 -0.000274383 -3.90987e-06
5.02166e-06 -3.90987e-06 4.33206e-05
0.00297692 -0.000990723 -3.35962e-06
-0.000990723 -2.28036e-05 2.50002e-06
-3.35962e-06 2.50002e-06 7.56394e-05
0.00290885 -0.000786373 -3.40328e-07
-0.000786373 -4.18874e-05 -3.69122e-07
-3.40328e-07 -3.69122e-07 5.44844e-05
0.00268045 -0.000581634 -1.3304e-06
-0.000581634 -0.000169028 -7.5606e-07
-1.3304e-06 -7.5606e-07 -3.68498e-05
0.00272495 -0.000865345 -2.71508e-08
-0.000865345 -2.32818e-06 7.89043e-07
-2.71508e-08 7.89043e-07 8.12488e-06
0.00266176 -0.000725452 -6.54815e-07
-0.000725452 -3.31002e-05 -4.03179e-09
-6.54815e-07 -4.03179e-09 -1.90993e-05
0.00255936 -0.000594839 5.50082e-07
-0.000594839 1.35547e-05 -3.91579e-07
5.50082e-07 -3.91579e-07 5.16392e-06
0.00270796 -0.000843091 7.22381e-07
-0.000843091 0.000131077 2.58707e-07
7.22381e-07 2.58707e-07 5.31748e-05
0.00261015 -0.000727529 1.04736e-06
-0.000727529 0.000100276 -1.75527e-07
1.04736e-06 -1.75527e-07 2.89889e-05
0.00244859 -0.000647026 1.24377e-07
-0.000647026 0.000107639 -1.75442e-07
1.24377e-07 -1.75442e-07 6.37879e-06
0.00245455 -0.000802573 -1.2305e-06
-0.000802573 9.18654e-05 1.25675e-06
-1.2305e-06 1.25675e-06 -4.48547e-05
0.00241351 -0.000739396 -1.11552e-06
-0.000739396 0.000158493 2.7201e-07
-1.11552e-06 2.7201e-07 -1.73925e-05
0.00246046 -0.000709261 -1.53656e-06
-0.000709261 0.0002517 1.32688e-07
-1.53656e-06 1.32688e-07 2.78713e-05
0.00245668 -0.000749736 3.39392e-06
-0.000749736 0.00028529 -5.59727e-07
3.39392e-06 -5.59727e-07 4.70281e-05
0.00242236 -0.000756327 -4.54745e-07
-0.000756327 0.000304326 7.17463e-07
-4.54745e-07 7.17463e-07 2.00744e-05
0.00238656 -0.000701614 -1.30524e-06
-0.000701614 0.00036387 -3.08978e-06
-1.30524e-06 -3.08978e-06 4.40959e-05
0.00164701 -0.000558103 -2.09027e-05
-0.000558103 0.000141353 4.8749e-06
-2.09027e-05 4.8749e-06 -0.000220114
0.00222981 -0.000764711 3.39945e-07
-0.000764711 0.000305559 -1.88609e-06
3.39945e-07 -1.88609e-06 -8.39568e-05
0.00237304 -0.000807582 -9.01803e-07
-0.000807582 0.000279414 3.44035e-06
-9.01803e-07 3.44035e-06 -8.14011e-05
0.000196873 -0.000323554 -2.22603e-05
-0.000323554 -0.000334929 2.55386e-05
-2.22603e-05 2.55386e-05 -0.000566016
0.00156253 -0.000635574 -8.69055e-07
-0.000635574 0.000167415 -6.50235e-08
-8.69055e-07 -6.50235e-08 -0.000265382
0.0025764 -0.00095285 9.84561e-07
-0.00095285 0.000604549 5.82454e-06
9.84561e-07 5.82454e-06 8.87406e-05
0.00987855 -0.00014774 -0.000449152
-0.00014774 0.00612934 4.66174e-05
-0.000449152 4.66174e-05 0.00615663
8.35318e-05 -0.000322934 9.99961e-08
-0.000322934 -0.000370461 2.09722e-06
9.99961e-08 2.09722e-06 -0.00060545
0.000763119 -0.000563345 1.29548e-05
-0.000563345 -0.000155067 -8.58825e-07
1.29548e-05 -8.58825e-07 -0.000610384
0.00937776 -0.000112968 -5.41389e-06
-0.000112968 0.0058394 1.44829e-06
-5.41389e-06 1.44829e-06 0.00585837
-0.000197715 -0.000342214 2.47516e-05
-0.000342214 -0.000526533 -3.20485e-05
2.47516e-05 -3.20485e-05 -0.000748727
0.00866854 -2.70331e-05 0.000370861
-2.70331e-05 0.00542902 -5.02554e-05
0.000370861 -5.02554e-05 0.00543317
0.00206617 0.000958187 -5.75638e-06
0.000958187 0.000273754 1.6295e-05
-5.75638e-06 1.6295e-05 -0.000228882
0.00235073 0.00112859 -7.32928e-07
0.00112859 0.000671781 2.34599e-06
-7.32928e-07 2.34599e-06 2.20763e-05
0.00243972 0.00103616 2.95816e-06
0.00103616 0.00075009 1.95296e-05
2.95816e-06 1.95296e-05 0.00012133
0.00219845 0.00110997 5.37924e-06
0.00110997 0.000855888 -1.84242e-05
5.37924e-06 -1.84242e-05 0.000142537
0.0018076 0.000899663 1.72025e-06
0.000899663 0.000587647 1.73201e-06
1.72025e-06 1.73201e-06 -4.22058e-05
-1.66956e-05 0.000414152 -1.66494e-05
0.000414152 -0.000512932 3.46599e-06
-1.66494e-05 3.46599e-06 -0.000922514
0.00253358 0.000614238 3.1865e-06
0.000614238 0.00112219 -9.72712e-06
3.1865e-06 -9.72712e-06 0.000657905
0.000299203 0.000372052 3.60705e-06
0.000372052 -0.000173625 -1.61722e-06
3.60705e-06 -1.61722e-06 -0.000519933
0.000418983 0.000310409 -4.10372e-05
0.000310409 -0.000165396 -2.93486e-05
-4.10372e-05 -2.93486e-05 -0.000319583
0.00112701 0.000354627 3.15293e-06
0.000354627 0.000425951 5.25653e-06
3.15293e-06 5.25653e-06 9.59541e-05
0.000769056 0.000264322 1.74505e-06
0.000264322 0.000114099 -1.99877e-06
1.74505e-06 -1.99877e-06 -2.89253e-05
0.00761007 -0.000223347 -0.000231973
-0.000223347 0.00484877 -4.0405e-05
-0.000231973 -4.0405e-05 0.0047959
0.000382212 0.000179638 2.55871e-05
0.000179638 -3.32339e-05 2.6173e-05
2.55871e-05 2.6173e-05 -0.000165306
0.00544702 -0.000213399 -2.31638e-05
-0.000213399 0.00340987 2.43263e-06
-2.31638e-05 2.43263e-06 0.00336878
0.00445177 -0.000180713 7.53129e-05
-0.000180713 0.00272086 1.41358e-05
7.53129e-05 1.41358e-05 0.00269559
0.000880649 0.000855658 3.9499e-05
0.000855658 -0.00368662 6.43751e-05
3.9499e-05 6.43751e-05 -0.00126974
0.00600917 0.00101591 8.2347e-05
0.00101591 -0.00310673 2.72553e-05
8.2347e-05 2.72553e-05 0.000912813
0.0180466 0.00113651 4.41445e-05
0.00113651 -0.000946476 0.000197519
4.41445e-05 0.000197519 0.0018177
0.00238562 0.00113904 5.5139e-07
0.00113904 0.000338641 8.46837e-06
5.5139e-07 8.46837e-06 -0.000169071
0.00266978 0.00106533 3.20152e-06
0.00106533 0.000376256 8.43851e-06
3.20152e-06 8.43851e-06 -2.14501e-05
0.00219785 0.00104039 -1.49764e-06
0.00104039 0.000317513 -4.12063e-06
-1.49764e-06 -4.12063e-06 -0.000179181
0.00313894 0.00159892 1.59311e-05
0.00159892 0.00129835 -7.70361e-06
1.59311e-05 -7.70361e-06 0.000558113
0.00248179 0.00129355 -1.52586e-05
0.00129355 0.000752342 -1.79487e-05
-1.52586e-05 -1.79487e-05 7.13079e-05
0.00285166 0.00147127 7.96943e-06
0.00147127 0.00082147 2.37972e-06
7.96943e-06 2.37972e-06 0.000148267
0.00321404 0.00136858 -1.36701e-05
0.00136858 0.000548013 -7.44036e-08
-1.36701e-05 -7.44036e-08 0.000104597
0.00189111 0.00155161 8.20556e-06
0.00155161 0.000298871 -8.61661e-06
8.20556e-06 -8.61661e-06 -0.000344619
0.00252468 0.00174503 1.53894e-06
0.00174503 0.000634379 9.29887e-05
1.53894e-06 9.29887e-05 8.13388e-05
0.00282089 0.00152355 6.60164e-06
0.00152355 0.000687072 -4.20996e-06
6.60164e-06 -4.20996e-06 -2.73465e-05
0.00363014 0.00133513 3.45851e-06
0.00133513 0.000627041 2.7582e-05
3.45851e-06 2.7582e-05 0.000384901
0.00248076 0.000661929 8.80244e-05
0.000661929 0.000109818 9.4349e-06
8.80244e-05 9.4349e-06 0.000390207
0.000439413 0.00101311 -2.67597e-06
0.00101311 -0.000743266 -2.79433e-05
-2.67597e-06 -2.79433e-05 -0.000857959
0.00131337 0.00152637 -4.69492e-05
0.00152637 -2.93434e-05 4.52488e-06
-4.69492e-05 4.52488e-06 -0.000579652
0.00485597 0.00201482 4.79784e-05
0.00201482 -0.000991518 1.76143e-05
4.79784e-05 1.76143e-05 0.000690493
0.0104789 0.00428435 -0.000109639
0.00428435 -0.00146379 -7.80982e-05
-0.000109639 -7.80982e-05 0.00207304
0.0067817 0.00285421 -0.000126827
0.00285421 0.00159217 -0.000117212
-0.000126827 -0.000117212 0.00171762
0.00384823 1.06023e-05 0.000101182
1.06023e-05 0.000309255 6.70512e-06
0.000101182 6.70512e-06 0.000751809
0.00442439 -0.000226126 -0.000157727
-0.000226126 -0.00191651 1.28015e-05
-0.000157727 1.28015e-05 -6.46292e-05
0.00525147 0.000402944 -7.39425e-05
0.000402944 -0.00202352 -4.86294e-05
-7.39425e-05 -4.86294e-05 0.000745268
0.00264683 -0.00136372 -0.000143989
-0.00136372 -0.00147419 0.000103318
-0.000143989 0.000103318 -0.000331592
0.00138279 -0.000930928 -0.000114681
-0.000930928 -0.00260099 1.92581e-05
-0.000114681 1.92581e-05 -0.00133111
0.00371854 -0.00066098 8.10961e-06
-0.00066098 2.79863e-05 -9.50385e-06
8.10961e-06 -9.50385e-06 0.000632315
0.00268961 -0.000149787 -2.15141e-05
-0.000149787 -0.000419766 -2.2475e-06
-2.15141e-05 -2.2475e-06 2.91456e-05
0.00284349 -0.000375297 1.20534e-05
-0.000375297 -0.000393876 -5.09312e-06
1.20534e-05 -5.09312e-06 1.81744e-05
0.00255204 0.000139315 5.13537e-06
0.000139315 -0.000597239 -1.44369e-06
5.13537e-06 -1.44369e-06 -0.000266428
0.00285937 -0.000865832 -2.38766e-05
-0.000865832 -0.000292553 1.41679e-05
-2.38766e-05 1.41679e-05 4.67085e-05
0.0029022 -0.000625126 -3.32511e-06
-0.000625126 -0.000281208 8.67637e-07
-3.32511e-06 8.67637e-07 5.03622e-06
0.00276335 -0.000432845 -1.20877e-06
-0.000432845 -0.000232988 -8.95041e-07
-1.20877e-06 -8.95041e-07 1.60773e-05
0.00291574 -0.000760325 -2.69292e-06
-0.000760325 -3.99153e-06 1.22091e-06
-2.69292e-06 1.22091e-06 0.000106821
0.00268919 -0.000586375 2.85904e-07
-0.000586375 -0.000155534 -2.38831e-07
2.85904e-07 -2.38831e-07 -3.00403e-05
0.00258244 -0.0004788 8.89625e-07
-0.0004788 -8.67214e-05 -3.48836e-07
8.89625e-07 -3.48836e-07 9.48428e-06
0.00265193 -0.000728034 -4.95945e-07
-0.000728034 -2.41114e-05 1.0473e-06
-4.95945e-07 1.0473e-06 -7.79499e-06
0.00255612 -0.000592806 3.86722e-07
-0.000592806 4.13092e-06 -6.35266e-08
3.86722e-07 -6.35266e-08 -3.72011e-06
0.00241446 -0.000525117 3.01108e-07
-0.000525117 3.13959e-05 4.6467e-08
3.01108e-07 4.6467e-08 -7.43448e-06
0.00261418 -0.000729054 1.61693e-06
-0.000729054 9.90237e-05 2.93011e-07
1.61693e-06 2.93011e-07 2.68932e-05
0.00245432 -0.000647898 6.03938e-07
-0.000647898 0.000107238 -2.24843e-07
6.03938e-07 -2.24843e-07 5.49256e-06
0.00240966 -0.000610309 -2.97388e-06
-0.000610309 0.000163765 5.14321e-07
-2.97388e-06 5.14321e-07 1.29873e-05
0.00237656 -0.000742469 5.08095e-07
-0.000742469 0.000123719 2.31203e-07
5.08095e-07 2.31203e-07 -4.7169e-05
0.00241099 -0.000708823 6.14306e-07
-0.000708823 0.00021771 -2.53026e-07
6.14306e-07 -2.53026e-07 -3.90393e-06
0.00231114 -0.000641355 -1.64293e-06
-0.000641355 0.000241983 -2.38293e-06
-1.64293e-06 -2.38293e-06 -2.56726e-05
0.00238243 -0.000750484 -5.37711e-07
-0.000750484 0.000278652 2.26094e-06
-5.37711e-07 2.26094e-06 -2.92858e-06
0.00237299 -0.000703663 -3.90414e-07
-0.000703663 0.000354733 2.49558e-08
-3.90414e-07 2.49558e-08 3.56231e-05
0.00161664 -0.000481546 -1.39657e-05
-0.000481546 9.43323e-05 4.32853e-06
-1.39657e-05 4.32853e-06 -0.000208594
0.000298754 -0.000295476 -1.80219e-05
-0.000295476 -0.00030942 2.27139e-05
-1.80219e-05 2.27139e-05 -0.000522486
0.00164571 -0.000558363 5.46537e-08
-0.000558363 0.000138761 1.26986e-07
5.46537e-08 1.26986e-07 -0.000221636
0.00226162 -0.000767245 -3.84108e-07
-0.000767245 0.000336884 3.2915e-06
-3.84108e-07 3.2915e-06 -5.95061e-05
0.0093821 -0.000214366 -0.000449994
-0.000214366 0.0057928 4.86674e-05
-0.000449994 4.86674e-05 0.00582136
0.000283829 -0.000329406 -6.88587e-07
-0.000329406 -0.000292326 1.28855e-06
-6.88587e-07 1.28855e-06 -0.000518856
0.0016302 -0.000624357 1.94743e-05
-0.000624357 0.000228931 -3.15929e-06
1.94743e-05 -3.15929e-06 -0.000197323
0.00970609 -0.000167127 -5.33398e-06
-0.000167127 0.00601759 2.95372e-06
-5.33398e-06 2.95372e-06 0.00604135
6.68695e-05 -0.000335354 2.19743e-05
-0.000335354 -0.000383578 -2.93296e-05
2.19743e-05 -2.93296e-05 -0.000623319
0.00974703 -0.00014652 0.000432673
-0.00014652 0.0060701 -5.20173e-05
0.000432673 -5.20173e-05 0.00608863
0.00221228 0.000966754 4.67951e-06
0.000966754 0.0002174 1.41799e-05
4.67951e-06 1.41799e-05 -0.000215223
0.00223673 0.000977905 2.95653e-06
0.000977905 0.000396531 -1.53425e-07
2.95653e-06 -1.53425e-07 -0.00010705
0.00251872 0.000957736 6.59304e-06
0.000957736 0.000639961 1.75656e-05
6.59304e-06 1.75656e-05 0.000106464
0.00246567 0.00112521 1.2405e-05
0.00112521 0.000774194 -1.42999e-05
1.2405e-05 -1.42999e-05 0.000127704
0.00223442 0.00100717 4.51037e-07
0.00100717 0.000608319 1.65901e-06
4.51037e-07 1.65901e-06 -1.25768e-05
0.000868929 0.000512627 -3.05617e-05
0.000512627 -9.56622e-05 2.97971e-06
-3.05617e-05 2.97971e-06 -0.000522788
0.00243552 0.000928594 -1.08091e-05
0.000928594 0.000904993 -1.72888e-05
-1.08091e-05 -1.72888e-05 0.000286008
0.000894773 0.000411197 -9.83728e-07
0.000411197 6.77242e-05 -5.96779e-07
-9.83728e-07 -5.96779e-07 -0.000317293
-3.83269e-05 0.00030214 -3.26524e-05
0.00030214 -0.000428484 -3.29657e-05
-3.26524e-05 -3.29657e-05 -0.000619095
0.00214706 0.00026524 3.20125e-06
0.00026524 0.000951756 3.70175e-07
3.20125e-06 3.70175e-07 0.000654268
0.00021856 0.000272898 5.57487e-06
0.000272898 -0.000275083 -1.0018e-06
5.57487e-06 -1.0018e-06 -0.000436289
0.00849381 -0.000128472 -0.000293632
-0.000128472 0.00535596 -4.04548e-05
-0.000293632 -4.04548e-05 0.00533365
0.000389897 0.000243515 3.35932e-05
0.000243515 -0.000100696 2.89286e-05
3.35932e-05 2.89286e-05 -0.000249513
0.00705048 -0.000183442 -3.27504e-06
-0.000183442 0.00444357 -1.94521e-06
-3.27504e-06 -1.94521e-06 0.00441099
0.00492609 -0.000224215 9.68383e-05
-0.000224215 0.00306424 2.10629e-05
9.68383e-05 2.10629e-05 0.00302129
0.00156411 0.000472498 6.46702e-05
0.000472498 -0.000866498 4.32368e-05
6.46702e-05 4.32368e-05 -0.000263844
0.00141384 0.000966495 4.4672e-05
0.000966495 -0.00372222 -1.21246e-05
4.4672e-05 -1.21246e-05 -0.00138672
0.00597395 0.00184968 0.00030818
0.00184968 -0.00334563 0.00013963
0.00030818 0.00013963 0.00113333
0.00286576 0.00111237 -6.77756e-06
0.00111237 0.00038145 1.2814e-06
-6.77756e-06 1.2814e-06 3.0033e-05
0.00255723 0.00117867 -1.01992e-05
0.00117867 0.000440919 -3.95747e-06
-1.01992e-05 -3.95747e-06 -7.37669e-05
0.00254749 0.000821533 7.16567e-06
0.000821533 0.000165708 3.70763e-06
7.16567e-06 3.70763e-06 -4.83399e-05
0.0026653 0.00105678 1.11767e-06
0.00105678 0.000368648 2.14497e-07
1.11767e-06 2.14497e-07 -1.41074e-05
0.0022376 0.00104601 -8.51378e-06
0.00104601 0.000345523 -1.71606e-05
-8.51378e-06 -1.71606e-05 -0.000147969
0.0030458 0.00100073 -4.44487e-06
0.00100073 0.000198789 2.32269e-06
-4.44487e-06 2.32269e-06 5.24722e-05
0.0028759 0.00151949 3.10739e-06
0.00151949 0.000790691 -7.83265e-06
3.10739e-06 -7.83265e-06 0.000108107
0.00309048 0.00130307 -8.70422e-07
0.00130307 0.000509717 -1.32691e-06
-8.70422e-07 -1.32691e-06 8.33294e-05
0.00242252 0.000621006 -5.03139e-06
0.000621006 -0.000405917 3.39824e-06
-5.03139e-06 3.39824e-06 -0.00017483
0.00213444 0.00152868 -1.00157e-05
0.00152868 0.000224079 1.95757e-05
-1.00157e-05 1.95757e-05 -0.00045071
0.00309594 0.00126949 4.0391e-06
0.00126949 0.000326301 -6.27601e-06
4.0391e-06 -6.27601e-06 0.000104069
0.000900836 0.000667383 -4.09903e-05
0.000667383 -0.0010202 -4.03838e-06
-4.09903e-05 -4.03838e-06 -0.000546326
-0.0033468 0.000594381 -1.92345e-05
0.000594381 -0.00276993 -1.64131e-05
-1.92345e-05 -1.64131e-05 -0.00275983
0.00613385 0.00217053 -0.000245225
0.00217053 -0.000253988 -9.94763e-05
-0.000245225 -9.94763e-05 0.00130414
0.00280963 0.000249319 -1.72823e-06
0.000249319 -0.000311794 -2.37124e-06
-1.72823e-06 -2.37124e-06 1.31932e-05
0.00344158 4.11967e-05 -3.7575e-06
4.11967e-05 -1.78313e-05 -7.10193e-06
-3.7575e-06 -7.10193e-06 0.000436007
0.00346567 -0.000436534 -0.000208587
-0.000436534 -0.00253283 -2.18674e-05
-0.000208587 -2.18674e-05 -0.000592788
0.00255833 -0.000585672 -0.00013036
-0.000585672 -0.000722812 3.44769e-05
-0.00013036 3.44769e-05 2.29955e-05
0.0024038 -0.000165397 -2.44222e-05
-0.000165397 -0.000550525 1.75028e-06
-2.44222e-05 1.75028e-06 -0.000105056
0.00273044 -0.0003989 6.87429e-06
-0.0003989 -0.000500964 -1.18859e-06
6.87429e-06 -1.18859e-06 -3.62782e-05
0.00290308 0.000158264 -1.33227e-06
0.000158264 -0.000337914 2.9661e-06
-1.33227e-06 2.9661e-06 -3.80894e-05
0.00276983 -7.31658e-05 -7.9248e-08
-7.31658e-05 -0.000298785 -1.02387e-06
-7.9248e-08 -1.02387e-06 1.16565e-05
0.00289986 -0.000650189 -3.60525e-06
-0.000650189 -0.00030229 3.20837e-06
-3.60525e-06 3.20837e-06 -4.68893e-05
0.00269081 -0.000413996 3.36224e-07
-0.000413996 -0.000265422 -3.07558e-07
3.36224e-07 -3.07558e-07 -2.38287e-05
0.00259218 -0.000309332 1.06277e-06
-0.000309332 -0.000141913 -8.97399e-07
1.06277e-06 -8.97399e-07 3.71559e-05
0.00269739 -0.000591192 4.02665e-07
-0.000591192 -0.000140523 9.97656e-07
4.02665e-07 9.97656e-07 -2.31436e-05
0.00256808 -0.000477843 3.01054e-07
-0.000477843 -9.23155e-05 1.77549e-07
3.01054e-07 1.77549e-07 -8.19358e-07
0.00240174 -0.000401586 6.82373e-07
-0.000401586 -2.76613e-05 4.67238e-08
6.82373e-07 4.67238e-08 -2.08882e-06
0.00255348 -0.000590548 1.05552e-07
-0.000590548 -4.99921e-06 2.47555e-07
1.05552e-07 2.47555e-07 -1.22998e-05
0.00241773 -0.000525616 3.68707e-07
-0.000525616 2.92978e-05 -4.06973e-08
3.68707e-07 -4.06973e-08 -9.73361e-06
0.00233034 -0.000487855 -3.76316e-06
-0.000487855 7.56935e-05 7.59832e-07
-3.76316e-06 7.59832e-07 -7.39759e-06
0.00246086 -0.000648861 9.72294e-07
-0.000648861 0.000107294 -3.07866e-07
9.72294e-07 -3.07866e-07 5.02289e-06
0.00243579 -0.000612856 5.07049e-07
-0.000612856 0.000179949 -2.33656e-07
5.07049e-07 -2.33656e-07 2.7847e-05
0.00236965 -0.000568956 -2.06887e-06
-0.000568956 0.000230357 -1.00397e-06
-2.06887e-06 -1.00397e-06 1.91391e-05
0.00235994 -0.000708326 1.36794e-06
-0.000708326 0.000182049 3.0233e-08
1.36794e-06 3.0233e-08 -3.70711e-05
0.0023479 -0.000644076 -9.06044e-07
-0.000644076 0.000267419 -7.16046e-08
-9.06044e-07 -7.16046e-08 -7.79757e-07
0.00159377 -0.000425221 -1.03257e-05
-0.000425221 5.52756e-05 3.60629e-06
-1.03257e-05 3.60629e-06 -0.000206436
0.00235465 -0.000704135 9.45168e-07
-0.000704135 0.000343491 3.03935e-06
9.45168e-07 3.03935e-06 2.56355e-05
0.00163165 -0.000484417 -3.61008e-08
-0.000484417 9.55997e-05 1.99011e-07
-3.61008e-08 1.99011e-07 -0.000206919
0.00314025 -0.000310349 -6.47522e-05
-0.000310349 0.00154868 1.70308e-05
-6.47522e-05 1.70308e-05 0.00138118
0.00332745 -0.00017785 -0.000362395
-0.00017785 0.00182395 5.95507e-05
-0.000362395 5.95507e-05 0.00180681
0.00181174 -0.000325225 -2.17726e-05
-0.000325225 0.000682106 6.24462e-07
-2.17726e-05 6.24462e-07 0.000482797
0.00162134 -0.000556072 1.84999e-05
-0.000556072 0.000122412 -4.64585e-06
1.84999e-05 -4.64585e-06 -0.000236297
0.00923324 -0.000219421 -7.55153e-06
-0.000219421 0.00570834 3.34508e-06
-7.55153e-06 3.34508e-06 0.00573252
0.000104725 -0.000349224 2.39692e-05
-0.000349224 -0.000409572 -2.53611e-05
2.39692e-05 -2.53611e-05 -0.000641894
0.00966245 -0.000178837 0.000432696
-0.000178837 0.00599621 -5.31006e-05
0.000432696 -5.31006e-05 0.00601544
0.00240308 0.000641123 4.25233e-06
0.000641123 9.10389e-05 1.63588e-06
4.25233e-06 1.63588e-06 -5.14367e-05
0.00240921 0.000841617 8.98456e-06
0.000841617 0.000243427 9.21366e-06
8.98456e-06 9.21366e-06 -5.6648e-05
0.00249236 0.000990316 7.77958e-07
0.000990316 0.000400772 -1.21009e-07
7.77958e-07 -1.21009e-07 -2.47496e-05
0.00245586 0.00088326 7.52283e-06
0.00088326 0.000521356 1.49362e-05
7.52283e-06 1.49362e-05 6.98081e-05
0.00233388 0.000993705 4.04266e-06
0.000993705 0.000464049 -1.68958e-05
4.04266e-06 -1.68958e-05 -4.02723e-05
0.00227553 0.00092779 1.02604e-06
0.00092779 0.000480098 1.56387e-07
1.02604e-06 1.56387e-07 -4.51465e-05
0.00140561 0.000610611 -3.84832e-05
0.000610611 0.000164006 9.98699e-08
-3.84832e-05 9.98699e-08 -0.000271584
0.00205094 0.00097628 -9.19054e-07
0.00097628 0.000486952 -1.71119e-05
-9.19054e-07 -1.71119e-05 -0.000125056
0.00109189 0.00054043 -4.72183e-06
0.00054043 3.82313e-05 3.83428e-07
-4.72183e-06 3.83428e-07 -0.000390169
-0.000119491 0.000334225 -3.08804e-05
0.000334225 -0.000482652 -2.9127e-05
-3.08804e-05 -2.9127e-05 -0.000706733
0.00162294 0.000407523 2.03679e-05
0.000407523 0.000564191 -3.46876e-06
2.03679e-05 -3.46876e-06 0.000198888
0.000300898 0.000275749 3.10432e-06
0.000275749 -0.00022275 -2.76411e-07
3.10432e-06 -2.76411e-07 -0.000410001
0.00956078 2.77504e-05 -0.000386119
2.77504e-05 0.00597959 -4.72961e-05
-0.000386119 -4.72961e-05 0.00598324
0.000748804 0.000270026 3.60088e-05
0.000270026 4.68308e-05 3.00381e-05
3.60088e-05 3.00381e-05 -0.000102046
0.0083183 -0.000118429 1.2207e-05
-0.000118429 0.00522667 -3.52431e-06
1.2207e-05 -3.52431e-06 0.00521197
0.00630588 -0.00022295 0.000151683
-0.00022295 0.00396722 2.39916e-05
0.000151683 2.39916e-05 0.00392452
0.00257546 0.00028327 -2.31128e-06
0.00028327 -0.000449373 2.22168e-06
-2.31128e-06 2.22168e-06 -9.95205e-05
0.00150095 0.000390544 -4.58136e-06
0.000390544 -0.00127339 -1.01456e-05
-4.58136e-06 -1.01456e-05 -0.000440596
0.00317808 0.00117087 -0.000195776
0.00117087 -0.00320971 -7.02442e-05
-0.000195776 -7.02442e-05 -0.000740874
0.00265386 0.000775424 6.09468e-07
0.000775424 0.000118077 5.7432e-08
6.09468e-07 5.7432e-08 -1.1303e-06
0.00275608 0.00109057 -5.04958e-06
0.00109057 0.000345796 -6.58481e-07
-5.04958e-06 -6.58481e-07 3.64015e-06
0.00262078 0.00120789 -1.21821e-06
0.00120789 0.000471031 -9.07404e-06
-1.21821e-06 -9.07404e-06 -4.74267e-05
0.00255827 0.000806178 1.68313e-06
0.000806178 0.000196722 1.14974e-06
1.68313e-06 1.14974e-06 -2.15674e-05
0.00264502 0.00104955 -2.73113e-06
0.00104955 0.000352024 -1.04822e-05
-2.73113e-06 -1.04822e-05 -1.81082e-05
0.00289393 0.000610485 4.96902e-06
0.000610485 -5.82095e-05 3.45354e-07
4.96902e-06 3.45354e-07 7.98199e-05
0.00291997 0.000987077 -1.64194e-06
0.000987077 0.00014235 1.11132e-06
-1.64194e-06 1.11132e-06 9.06326e-06
0.00306548 0.00125358 6.77377e-06
0.00125358 0.000526913 -3.26711e-06
6.77377e-06 -3.26711e-06 0.000113222
0.00233589 0.000564799 -2.24714e-07
0.000564799 -0.00037837 7.10033e-07
-2.24714e-07 7.10033e-07 -0.00013515
0.00257426 0.00116593 4.28997e-06
0.00116593 3.2525e-05 -8.46783e-06
4.28997e-06 -8.46783e-06 -0.000165057
-0.000807313 0.000569213 -4.00741e-05
0.000569213 -0.00232608 -6.38861e-06
-4.00741e-05 -6.38861e-06 -0.00147615
0.00267967 0.000136139 1.11357e-06
0.000136139 -0.000230149 6.44526e-07
1.11357e-06 6.44526e-07 2.40507e-05
0.00275497 0.000228619 1.45665e-06
0.000228619 -0.000352421 -5.57244e-07
1.45665e-06 -5.57244e-07 -2.49536e-05
0.00319617 5.27015e-05 -6.83871e-05
5.27015e-05 -0.000205624 1.25002e-05
-6.83871e-05 1.25002e-05 0.000225766
0.00261752 -0.000430633 -3.04135e-05
-0.000430633 -0.000625633 8.44257e-06
-3.04135e-05 8.44257e-06 -0.000102987
0.003216 0.000182698 -8.0755e-07
0.000182698 -0.000121871 -1.25211e-06
-8.0755e-07 -1.25211e-06 0.000156717
0.00277212 -7.49369e-05 -1.04633e-06
-7.49369e-05 -0.000306187 -5.64914e-07
-1.04633e-06 -5.64914e-07 -1.11438e-07
0.00245908 -8.60641e-05 1.1138e-06
-8.60641e-05 -0.000166138 -4.76819e-07
1.1138e-06 -4.76819e-07 -4.88688e-06
0.00261205 -0.00039425 1.40256e-06
-0.00039425 -0.000301723 -3.76388e-08
1.40256e-06 -3.76388e-08 -6.70233e-05
0.00255501 -0.000319613 -3.64928e-08
-0.000319613 -0.000159785 7.46685e-08
-3.64928e-08 7.46685e-08 8.53972e-06
0.00234878 -0.000264444 1.81102e-06
-0.000264444 -7.70598e-05 -7.44986e-07
1.81102e-06 -7.44986e-07 -1.3621e-05
0.00254963 -0.000476663 -1.26223e-06
-0.000476663 -0.000100845 5.32787e-07
-1.26223e-06 5.32787e-07 -1.38552e-05
0.0023945 -0.000400174 2.10034e-08
-0.000400174 -3.64471e-05 1.04563e-07
2.10034e-08 1.04563e-07 -1.06914e-05
0.002301 -0.00036909 -4.15434e-06
-0.00036909 3.33502e-05 9.563e-07
-4.15434e-06 9.563e-07 -1.67312e-06
0.00242161 -0.000526235 3.61148e-07
-0.000526235 2.74099e-05 -2.39406e-07
3.61148e-07 -2.39406e-07 -1.18511e-05
0.00236052 -0.000491482 3.13325e-07
-0.000491482 9.32091e-05 -1.87648e-07
3.13325e-07 -1.87648e-07 8.41258e-06
0.00235309 -0.000473025 -2.60643e-06
-0.000473025 0.000182753 -1.30952e-07
-2.60643e-06 -1.30952e-07 2.69226e-05
0.00246142 -0.000615299 3.15885e-06
-0.000615299 0.000196352 -7.49529e-07
3.15885e-06 -7.49529e-07 4.29554e-05
0.00232754 -0.000564416 -8.15024e-07
-0.000564416 0.000204906 -9.27202e-08
-8.15024e-07 -9.27202e-08 -5.25862e-06
0.00153923 -0.000363289 -7.83278e-06
-0.000363289 -2.41291e-06 2.95457e-06
-7.83278e-06 2.95457e-06 -0.000228313
0.00238407 -0.000646792 1.92523e-06
-0.000646792 0.000292308 1.26199e-06
1.92523e-06 1.26199e-06 2.35694e-05
0.0016082 -0.000427615 -9.931e-08
-0.000427615 5.60131e-05 2.87316e-08
-9.931e-08 2.87316e-08 -0.000205157
0.00300462 -0.000277817 -6.99641e-05
-0.000277817 0.00146191 1.57707e-05
-6.99641e-05 1.57707e-05 0.00131432
0.00163977 -0.000488348 1.24656e-05
-0.000488348 8.92577e-05 -4.14861e-06
1.24656e-05 -4.14861e-06 -0.000213344
0.00324013 -0.000339465 6.13602e-05
-0.000339465 0.00161793 -1.11286e-05
6.13602e-05 -1.11286e-05 0.00146383
0.00293406 -0.00018675 -0.000333727
-0.00018675 0.0015837 5.97782e-05
-0.000333727 5.97782e-05 0.00156106
0.00585684 -0.000221025 -0.000323225
-0.000221025 0.00350684 4.37729e-05
-0.000323225 4.37729e-05 0.00350694
0.00343363 -0.000407867 0.00020392
-0.000407867 0.00175692 -3.86602e-05
0.00020392 -3.86602e-05 0.00159483
0.00903418 -0.000223575 0.000421658
-0.000223575 0.00558727 -5.54162e-05
0.000421658 -5.54162e-05 0.00560682
0.0024739 0.000613891 1.61498e-07
0.000613891 8.8649e-05 -1.0121e-06
1.61498e-07 -1.0121e-06 1.0122e-05
0.00239278 0.000681949 3.13562e-06
0.000681949 0.000213164 4.31793e-06
3.13562e-06 4.31793e-06 3.20401e-06
0.00241884 0.000629674 7.4205e-07
0.000629674 0.000111051 -7.41757e-08
7.4205e-07 -7.41757e-08 -2.25009e-05
0.00229433 0.000748543 2.17423e-06
0.000748543 0.000301987 1.09147e-05
2.17423e-06 1.09147e-05 -4.61798e-05
0.00248368 0.000845255 -1.99461e-07
0.000845255 0.000284143 -3.72229e-07
-1.99461e-07 -3.72229e-07 -1.79119e-05
0.00275572 0.00101273 -4.50774e-06
0.00101273 0.000570971 -1.34927e-05
-4.50774e-06 -1.34927e-05 0.000153412
0.00229718 0.000869942 7.39079e-07
0.000869942 0.000407922 2.28185e-07
7.39079e-07 2.28185e-07 -4.0584e-05
0.00163661 0.00061237 -3.41537e-05
0.00061237 0.000164946 -1.21349e-06
-3.41537e-05 -1.21349e-06 -0.000231416
0.00197653 0.000894311 -3.01095e-06
0.000894311 0.000279359 -1.70462e-05
-3.01095e-06 -1.70462e-05 -0.000237258
0.00141558 0.000638037 -3.83056e-06
0.000638037 0.000147616 8.18489e-08
-3.83056e-06 8.18489e-08 -0.000300362
0.000201425 0.000358755 -2.90011e-05
0.000358755 -0.000325333 -2.41956e-05
-2.90011e-05 -2.41956e-05 -0.000560429
0.00158762 0.000555709 3.34318e-05
0.000555709 0.000322968 7.49566e-07
3.34318e-05 7.49566e-07 -9.41937e-05
-1.26247e-06 0.000298066 1.50078e-06
0.000298066 -0.000418894 2.21087e-06
1.50078e-06 2.21087e-06 -0.000631482
0.00973461 0.000132771 -0.000412366
0.000132771 0.00605644 -5.28677e-05
-0.000412366 -5.28677e-05 0.00606628
8.3056e-05 0.000228928 2.69259e-05
0.000228928 -0.000372591 3.16909e-05
2.69259e-05 3.16909e-05 -0.00055232
0.00900317 -2.20867e-05 1.4005e-05
-2.20867e-05 0.00561757 -1.51322e-06
1.4005e-05 -1.51322e-06 0.00561963
0.008034 -0.000144885 0.000253751
-0.000144885 0.0050381 2.49098e-05
0.000253751 2.49098e-05 0.00502221
0.00272534 0.000368607 2.34996e-06
0.000368607 -0.000169785 -1.15232e-07
2.34996e-06 -1.15232e-07 3.54796e-05
0.00245792 0.000296688 2.72629e-06
0.000296688 -0.000441675 -2.1319e-06
2.72629e-06 -2.1319e-06 -9.49671e-05
0.000554574 0.000345368 -6.24646e-05
0.000345368 -0.00220648 -1.17661e-05
-6.24646e-05 -1.17661e-05 -0.00116614
0.00257296 0.000534156 3.48837e-06
0.000534156 -4.09617e-05 3.68433e-07
3.48837e-06 3.68433e-07 5.23741e-07
0.00258693 0.000768685 -1.27184e-06
0.000768685 8.45193e-05 8.56437e-07
-1.27184e-06 8.56437e-07 -2.71418e-05
0.00264265 0.00106475 6.71194e-06
0.00106475 0.00030926 -4.08129e-06
6.71194e-06 -4.08129e-06 -2.10849e-05
0.00257619 0.000791822 -5.98424e-06
0.000791822 0.000229975 -3.66293e-06
-5.98424e-06 -3.66293e-06 9.20187e-06
0.00281403 0.000598511 -2.0958e-06
0.000598511 -9.96688e-05 5.80983e-07
-2.0958e-06 5.80983e-07 3.21556e-05
0.00281296 0.000973214 1.18004e-07
0.000973214 0.000105538 -3.82241e-06
1.18004e-07 -3.82241e-06 -1.73157e-05
0.0021901 0.000559531 3.21022e-06
0.000559531 -0.000350146 -6.03967e-06
3.21022e-06 -6.03967e-06 -0.000115173
0.00251277 0.000108034 2.16949e-06
0.000108034 -0.000142023 3.62223e-07
2.16949e-06 3.62223e-07 9.60038e-06
0.00263278 0.00013856 8.6976e-08
0.00013856 -0.000242939 -3.86976e-07
8.6976e-08 -3.86976e-07 3.88451e-06
0.00270248 0.000222439 -8.49343e-06
0.000222439 -0.000376427 3.03975e-06
-8.49343e-06 3.03975e-06 -5.51007e-05
0.00231384 -1.18741e-05 8.65462e-07
-1.18741e-05 -0.000145422 -2.65927e-07
8.65462e-07 -2.65927e-07 -3.56965e-05
0.00278944 -8.09349e-05 1.01686e-06
-8.09349e-05 -0.000300716 -1.86712e-07
1.01686e-06 -1.86712e-07 -3.18042e-07
0.00246785 -9.07495e-05 -1.78891e-07
-9.07495e-05 -0.000159706 4.01884e-07
-1.78891e-07 4.01884e-07 2.90493e-07
0.00231797 -0.000137141 7.68725e-07
-0.000137141 -8.69305e-05 -4.07786e-07
7.68725e-07 -4.07786e-07 -1.27329e-05
0.00251696 -0.000329714 -7.92514e-07
-0.000329714 -0.000178242 8.36915e-07
-7.92514e-07 8.36915e-07 -2.08103e-05
0.00235171 -0.000260826 6.12493e-07
-0.000260826 -7.68691e-05 -4.42378e-07
6.12493e-07 -4.42378e-07 -1.24892e-05
0.00224978 -0.000252641 -3.16771e-06
-0.000252641 -5.28992e-06 5.83898e-07
-3.16771e-06 5.83898e-07 -1.37379e-05
0.00238881 -0.000398435 -3.48622e-07
-0.000398435 -4.42437e-05 1.03008e-07
-3.48622e-07 1.03008e-07 -1.82512e-05
0.00230359 -0.000368733 1.23055e-07
-0.000368733 3.20254e-05 -6.32923e-08
1.23055e-07 -6.32923e-08 -2.72315e-06
0.00231375 -0.000362881 -2.76472e-06
-0.000362881 0.00012458 8.03724e-07
-2.76472e-06 8.03724e-07 1.76304e-05
0.00239331 -0.000495074 4.05744e-06
-0.000495074 0.000112483 -1.10736e-06
4.05744e-06 -1.10736e-06 2.60225e-05
0.00231111 -0.00046722 -4.96152e-07
-0.00046722 0.000160489 -2.13129e-07
-4.96152e-07 -2.13129e-07 5.81587e-06
0.00155697 -0.000299311 -5.71146e-06
-0.000299311 -4.9258e-06 1.91223e-06
-5.71146e-06 1.91223e-06 -0.000197851
0.00228521 -0.000559707 1.99144e-06
-0.000559707 0.000179353 2.25124e-07
1.99144e-06 2.25124e-07 -2.97013e-05
0.00159576 -0.00036684 -2.46688e-07
-0.00036684 2.67957e-05 1.70288e-07
-2.46688e-07 1.70288e-07 -0.000198376
0.0028649 -0.000246475 -7.42789e-05
-0.000246475 0.00137685 1.44598e-05
-7.42789e-05 1.44598e-05 0.00124513
0.00161806 -0.000429961 8.44712e-06
-0.000429961 5.35803e-05 -3.55799e-06
8.44712e-06 -3.55799e-06 -0.000207002
0.00310916 -0.000293684 5.5807e-05
-0.000293684 0.00153028 -8.57424e-06
5.5807e-05 -8.57424e-06 0.00139643
0.0028572 -0.000156425 -0.000322219
-0.000156425 0.00152918 5.07619e-05
-0.000322219 5.07619e-05 0.00151045
0.00333196 -0.000339787 0.000190625
-0.000339787 0.00167287 -3.729e-05
0.000190625 -3.729e-05 0.00153647
0.00249987 -0.000120826 -0.000125856
-0.000120826 0.00129813 2.12155e-05
-0.000125856 2.12155e-05 0.00125622
0.00821585 -0.000153362 0.000157008
-0.000153362 0.0050428 -1.30747e-05
0.000157008 -1.30747e-05 0.00501882
0.00245484 0.000513426 9.1711e-09
0.000513426 6.24723e-05 1.74937e-07
9.1711e-09 1.74937e-07 2.07265e-05
0.00241404 0.000592572 -2.00177e-06
0.000592572 0.000149943 -5.29093e-07
-2.00177e-06 -5.29093e-07 2.01431e-05
0.00249117 0.000609896 -2.3169e-06
0.000609896 0.000103108 1.50838e-07
-2.3169e-06 1.50838e-07 1.88698e-05
0.00219589 0.000628426 -1.55606e-06
0.000628426 0.0001668 4.18608e-06
-1.55606e-06 4.18608e-06 -0.000104026
0.00244781 0.000696512 -8.79066e-07
0.000696512 0.000221803 -1.80229e-06
-8.79066e-07 -1.80229e-06 2.39276e-05
0.00243592 0.000617183 -7.55796e-06
0.000617183 0.000133792 -3.54224e-06
-7.55796e-06 -3.54224e-06 8.82173e-06
0.00167358 0.000524316 -2.3878e-05
0.000524316 8.70054e-05 -1.7856e-06
-2.3878e-05 -1.7856e-06 -0.000234057
0.00230635 0.000750138 1.59332e-06
0.000750138 0.000308553 4.57108e-07
1.59332e-06 4.57108e-07 -3.95835e-05
0.00260154 0.000853575 -4.058e-06
0.000853575 0.000354112 -8.51138e-06
-4.058e-06 -8.51138e-06 4.78668e-05
0.00215283 0.00085784 -6.23692e-06
0.00085784 0.000304452 -1.44722e-05
-6.23692e-06 -1.44722e-05 -0.000141154
0.00171015 0.000619914 -7.01355e-07
0.000619914 0.000214976 3.00268e-07
-7.01355e-07 3.00268e-07 -0.00018489
0.000429443 0.000340007 -2.60492e-05
0.000340007 -0.000213962 -2.03651e-05
-2.60492e-05 -2.03651e-05 -0.000438095
0.00185578 0.000694521 4.24412e-05
0.000694521 0.000406667 2.24201e-06
4.24412e-05 2.24201e-06 -5.57051e-05
0.000168469 0.000336413 8.4813e-07
0.000336413 -0.000335612 1.49925e-06
8.4813e-07 1.49925e-06 -0.000566266
0.00915954 0.000216397 -0.000406919
0.000216397 0.00568066 -5.86804e-05
-0.000406919 -5.86804e-05 0.00568736
0.000232625 0.000277228 2.7848e-05
0.000277228 -0.000272869 2.8382e-05
2.7848e-05 2.8382e-05 -0.000479513
0.00961594 9.12881e-05 8.92612e-06
9.12881e-05 0.0059737 1.65446e-06
8.92612e-06 1.65446e-06 0.00598859
0.0090662 -5.04752e-05 0.000331124
-5.04752e-05 0.00565362 2.80695e-05
0.000331124 2.80695e-05 0.00565985
0.00248166 0.000296222 1.156e-06
0.000296222 -0.000108031 1.00316e-06
1.156e-06 1.00316e-06 -1.07753e-06
0.00267972 0.00037614 -7.99226e-07
0.00037614 -0.000230791 6.93459e-07
-7.99226e-07 6.93459e-07 -1.51186e-05
0.00238958 0.000276408 -4.49938e-06
0.000276408 -0.000440671 7.00278e-08
-4.49938e-06 7.00278e-08 -8.39474e-05
0.00256139 0.000529178 -7.03079e-07
0.000529178 -4.4925e-05 2.64412e-07
-7.03079e-07 2.64412e-07 -1.8897e-06
0.00252791 0.000764264 -2.06059e-06
0.000764264 5.56552e-05 -1.90847e-06
-2.06059e-06 -1.90847e-06 -4.86816e-05
0.00274051 0.000582812 -5.7744e-07
0.000582812 -0.00014845 -1.59549e-06
-5.7744e-07 -1.59549e-06 -1.85738e-05
0.00240091 0.000100317 2.14513e-06
0.000100317 -8.45148e-05 2.78593e-07
2.14513e-06 2.78593e-07 8.95193e-06
0.00250447 0.000107327 1.50033e-07
0.000107327 -0.000141789 -8.54829e-08
1.50033e-07 -8.54829e-08 8.32437e-06
0.00256927 0.000139461 -1.30228e-06
0.000139461 -0.000273195 -5.07744e-08
-1.30228e-06 -5.07744e-08 -3.22617e-05
0.00235616 -7.76777e-06 -6.74424e-07
-7.76777e-06 -0.000111783 2.81884e-08
-6.74424e-07 2.81884e-08 -5.32046e-06
0.00229108 -3.1014e-05 -3.7013e-07
-3.1014e-05 -4.1612e-05 -3.47053e-07
-3.7013e-07 -3.47053e-07 1.74678e-05
0.00247518 -9.53559e-05 -1.80361e-06
-9.53559e-05 -0.000154743 6.86619e-07
-1.80361e-06 6.86619e-07 4.17928e-06
0.00232342 -0.000139395 -9.10041e-07
-0.000139395 -7.38437e-05 2.56776e-07
-9.10041e-07 2.56776e-07 -5.5864e-06
0.00216356 -0.000154092 -3.38503e-06
-0.000154092 -6.33417e-05 5.07398e-07
-3.38503e-06 5.07398e-07 -4.9706e-05
0.00235113 -0.000257469 -2.44821e-07
-0.000257469 -7.86537e-05 -1.10233e-07
-2.44821e-07 -1.10233e-07 -1.33628e-05
0.00223972 -0.000250826 9.69249e-07
-0.000250826 -1.08064e-05 -2.80605e-07
9.69249e-07 -2.80605e-07 -1.87354e-05
0.00236 -0.000265198 -2.25274e-06
-0.000265198 0.000125404 1.42696e-06
-2.25274e-06 1.42696e-06 5.58009e-05
0.00230126 -0.000369165 4.25172e-06
-0.000369165 2.7654e-05 -1.03528e-06
4.25172e-06 -1.03528e-06 -7.02541e-06
0.00231392 -0.000361421 -7.25722e-08
-0.000361421 0.000128277 -2.68378e-07
-7.25722e-08 -2.68378e-07 2.21352e-05
0.00156865 -0.000234454 -4.12171e-06
-0.000234454 -7.08936e-06 1.02088e-06
-4.12171e-06 1.02088e-06 -0.000170793
0.00227522 -0.00046171 2.64297e-06
-0.00046171 0.000142757 -5.29885e-07
2.64297e-06 -5.29885e-07 -1.07485e-05
0.00159926 -0.000301992 -3.4826e-07
-0.000301992 1.26951e-05 2.2165e-07
-3.4826e-07 2.2165e-07 -0.000179588
0.00274235 -0.000222442 -7.42599e-05
-0.000222442 0.00130718 1.22389e-05
-7.42599e-05 1.22389e-05 0.00119016
0.00165422 -0.000370693 6.63872e-06
-0.000370693 5.69675e-05 -2.70108e-06
6.63872e-06 -2.70108e-06 -0.000167478
0.00298891 -0.000244408 5.25791e-05
-0.000244408 0.00145244 -6.50299e-06
5.25791e-05 -6.50299e-06 0.00133617
0.0027651 -0.000126851 -0.000312864
-0.000126851 0.0014668 4.13322e-05
-0.000312864 4.13322e-05 0.00145177
0.00322216 -0.000282922 0.000183864
-0.000282922 0.00159411 -3.07855e-05
0.000183864 -3.07855e-05 0.00147818
0.00243941 -0.000112474 -0.0001146
-0.000112474 0.00126116 1.62472e-05
-0.0001146 1.62472e-05 0.00122177
0.00210853 -0.000111856 8.88978e-05
-0.000111856 0.00105984 -1.60816e-05
8.88978e-05 -1.60816e-05 0.000990753
0.00234731 0.000323416 9.39442e-07
0.000323416 -4.25199e-05 5.0286e-07
9.39442e-07 5.0286e-07 -1.91496e-05
0.00233955 0.000464193 -3.3485e-06
0.000464193 8.33632e-05 -8.88013e-08
-3.3485e-06 -8.88013e-08 -3.59823e-06
0.00244275 0.000514679 -7.38032e-07
0.000514679 3.24472e-05 -2.69643e-07
-7.38032e-07 -2.69643e-07 3.84336e-06
0.00232218 0.000565949 -1.72266e-07
0.000565949 0.000179613 1.49978e-06
-1.72266e-07 1.49978e-06 -2.06432e-05
0.00240178 0.000588412 -4.49832e-07
0.000588412 0.000151384 -2.14549e-07
-4.49832e-07 -2.14549e-07 1.41047e-05
0.00250848 0.000607119 -5.09146e-07
0.000607119 0.00011686 3.15854e-07
-5.09146e-07 3.15854e-07 2.66095e-05
0.00161159 0.000438678 -1.54368e-05
0.000438678 4.23204e-05 -2.1545e-06
-1.54368e-05 -2.1545e-06 -0.00022253
0.00226632 0.000640732 -4.73864e-08
0.000640732 0.000203508 -1.6621e-06
-4.73864e-08 -1.6621e-06 -5.67323e-05
0.00250476 0.000712085 -4.38387e-06
0.000712085 0.000230345 -5.11861e-06
-4.38387e-06 -5.11861e-06 4.47517e-05
0.000410221 0.000270382 -2.1897e-05
0.000270382 -0.00024346 -1.62826e-05
-2.1897e-05 -1.62826e-05 -0.000437013
0.00165293 0.000515152 1.89451e-07
0.000515152 9.02813e-05 4.76552e-08
1.89451e-07 4.76552e-08 -0.000229244
0.00230698 0.000749793 -1.97766e-06
0.000749793 0.00030883 -1.13833e-05
-1.97766e-06 -1.13833e-05 -3.86362e-05
0.00170678 0.000621972 3.67251e-05
0.000621972 0.000212595 1.62392e-06
3.67251e-05 1.62392e-06 -0.000190095
0.000298009 0.000325859 3.4599e-07
0.000325859 -0.000296305 1.01191e-06
3.4599e-07 1.01191e-06 -0.000520044
0.00863278 0.000300652 -0.000402587
0.000300652 0.00534117 -6.22323e-05
-0.000402587 -6.22323e-05 0.00534336
0.00012555 0.00031041 2.5974e-05
0.00031041 -0.000358138 2.30944e-05
2.5974e-05 2.30944e-05 -0.000582562
0.00930669 0.000198728 9.56231e-06
0.000198728 0.00576242 2.52045e-06
9.56231e-06 2.52045e-06 0.00577853
0.00929561 5.58935e-05 0.000376166
5.58935e-05 0.00575959 3.53311e-05
0.000376166 3.53311e-05 0.00577553
0.00239043 0.000184071 1.49005e-06
0.000184071 -4.25724e-05 4.41991e-07
1.49005e-06 4.41991e-07 3.01914e-05
0.00244962 0.000301159 4.62758e-07
0.000301159 -0.00013671 3.37032e-07
4.62758e-07 3.37032e-07 -2.97947e-05
0.00264921 0.000388176 -6.45541e-07
0.000388176 -0.000272039 -1.75239e-07
-6.45541e-07 -1.75239e-07 -4.86675e-05
0.00254243 0.000522208 2.13695e-07
0.000522208 -5.42716e-05 -6.16528e-07
2.13695e-07 -6.16528e-07 -1.05779e-05
0.00224765 4.58766e-05 -6.03237e-07
4.58766e-05 -2.52324e-05 3.51175e-08
-6.03237e-07 3.51175e-08 6.45719e-06
0.00240245 8.88292e-05 1.29061e-07
8.88292e-05 -8.72275e-05 -1.29364e-07
1.29061e-07 -1.29364e-07 9.41938e-06
0.00250711 0.000106323 -1.51687e-06
0.000106323 -0.000132462 -3.81093e-07
-1.51687e-06 -3.81093e-07 1.52553e-05
0.00239033 -3.31509e-06 -3.33359e-06
-3.31509e-06 -8.38717e-05 3.3907e-07
-3.33359e-06 3.3907e-07 1.93135e-05
0.00230285 -2.49262e-05 -6.28821e-07
-2.49262e-05 -3.94112e-05 -1.52795e-07
-6.28821e-07 -1.52795e-07 2.32204e-05
0.00222275 -5.73034e-05 -4.25015e-06
-5.73034e-05 6.99382e-06 -3.77261e-09
-4.25015e-06 -3.77261e-09 1.75427e-05
0.00232889 -0.000141537 -6.24036e-07
-0.000141537 -6.08812e-05 6.00694e-07
-6.24036e-07 6.00694e-07 1.26366e-06
0.00222176 -0.000155245 -1.60449e-06
-0.000155245 -1.28265e-05 3.19811e-07
-1.60449e-06 3.19811e-07 -7.02464e-06
0.00227945 -0.000174165 -2.17128e-06
-0.000174165 4.69475e-05 7.19028e-07
-2.17128e-06 7.19028e-07 2.79715e-06
0.00223565 -0.000248376 5.12538e-06
-0.000248376 -1.34817e-05 -1.13809e-06
5.12538e-06 -1.13809e-06 -2.0728e-05
0.00234833 -0.000262903 7.20037e-07
-0.000262903 0.000121179 -1.19212e-07
7.20037e-07 -1.19212e-07 5.16352e-05
0.00156174 -0.000173286 -4.38545e-06
-0.000173286 -1.65295e-05 8.59689e-07
-4.38545e-06 8.59689e-07 -0.000157876
0.00231382 -0.00035841 2.86576e-06
-0.00035841 0.000131245 -1.40556e-06
2.86576e-06 -1.40556e-06 2.62131e-05
0.0015754 -0.000234894 -9.36499e-08
-0.000234894 -1.25521e-05 6.90227e-08
-9.36499e-08 6.90227e-08 -0.000175634
0.000300486 -0.000119523 -1.60892e-05
-0.000119523 -0.000309291 7.17031e-06
-1.60892e-05 7.17031e-06 -0.000430073
0.00165007 -0.000304806 4.90878e-06
-0.000304806 3.72658e-05 -1.69084e-06
4.90878e-06 -1.69084e-06 -0.000154272
0.0016272 -0.000163608 7.73314e-05
-0.000163608 0.000557573 -6.7496e-06
7.73314e-05 -6.7496e-06 0.000447617
0.0073662 -0.000200397 -0.000407382
-0.000200397 0.00452269 3.51018e-05
-0.000407382 3.51018e-05 0.00455469
0.00312306 -0.000226723 0.000177216
-0.000226723 0.00152905 -2.3787e-05
0.000177216 -2.3787e-05 0.00143034
0.00236303 -0.000100937 -0.00010378
-0.000100937 0.00121663 1.04584e-05
-0.00010378 1.04584e-05 0.00117895
0.00201096 -0.000122103 9.91192e-05
-0.000122103 0.00100675 -1.71061e-05
9.91192e-05 -1.71061e-05 0.000938072
0.00229052 0.000217417 4.83883e-07
0.000217417 -1.88249e-05 -2.07833e-07
4.83883e-07 -2.07833e-07 2.4726e-06
0.00225638 0.000349963 -2.69311e-06
0.000349963 7.63428e-06 5.93905e-08
-2.69311e-06 5.93905e-08 -3.28401e-05
0.00237313 0.00031534 -4.3587e-07
0.00031534 -8.49208e-06 -7.89536e-08
-4.3587e-07 -7.89536e-08 7.13827e-06
0.00229574 0.000450894 9.34015e-08
0.000450894 0.000138224 1.7155e-06
9.34015e-08 1.7155e-06 -2.54357e-06
0.00233046 0.000465094 1.85431e-07
0.000465094 8.09669e-05 -7.73034e-08
1.85431e-07 -7.73034e-08 -4.76174e-06
0.00242838 0.000515716 -5.32293e-07
0.000515716 1.12656e-06 -4.4805e-07
-5.32293e-07 -4.4805e-07 -1.44548e-05
0.0016975 0.00038705 -7.15327e-06
0.00038705 8.95753e-05 1.03069e-07
-7.15327e-06 1.03069e-07 -0.000127032
0.00228976 0.000559295 -1.37167e-06
0.000559295 0.000160584 -8.16179e-07
-1.37167e-06 -8.16179e-07 -4.17504e-05
0.00238078 0.000582768 1.54852e-06
0.000582768 0.000148284 -5.49611e-07
1.54852e-06 -5.49611e-07 3.34164e-06
0.000378644 0.000200559 -1.83121e-05
0.000200559 -0.000269589 -1.20232e-05
-1.83121e-05 -1.20232e-05 -0.000434427
0.00159505 0.000435299 5.46933e-07
0.000435299 3.84677e-05 2.39886e-07
5.46933e-07 2.39886e-07 -0.000219262
0.00231664 0.00065034 -1.00986e-06
0.00065034 0.000228447 -9.13045e-06
-1.00986e-06 -9.13045e-06 -2.07801e-05
0.0082088 0.000345984 -0.000402566
0.000345984 0.00507076 -5.99395e-05
-0.000402566 -5.99395e-05 0.00507265
0.000359664 0.000269506 3.66474e-07
0.000269506 -0.000282517 7.65593e-07
3.66474e-07 7.65593e-07 -0.00047884
0.00163757 0.000507169 2.66336e-05
0.000507169 9.70666e-05 1.68594e-06
2.66336e-05 1.68594e-06 -0.000221254
0.000237019 0.000314097 2.37662e-05
0.000314097 -0.000332665 2.07711e-05
2.37662e-05 2.07711e-05 -0.000556539
0.0087871 0.000299762 9.35809e-06
0.000299762 0.00543782 3.49709e-06
9.35809e-06 3.49709e-06 0.00544582
0.00944141 0.00017319 0.000429803
0.00017319 0.00583137 4.42019e-05
0.000429803 4.42019e-05 0.0058562
0.00220055 0.000116272 -1.54816e-06
0.000116272 -3.86324e-05 2.1604e-07
-1.54816e-06 2.1604e-07 -2.16062e-05
0.00238558 0.0001782 -8.54925e-08
0.0001782 -4.7887e-05 -2.24747e-08
-8.54925e-08 -2.24747e-08 2.20027e-05
0.00241782 0.000306105 -5.41397e-07
0.000306105 -0.000164685 -5.04617e-07
-5.41397e-07 -5.04617e-07 -5.76968e-05
0.00224449 2.5089e-05 -6.12458e-06
2.5089e-05 5.34105e-05 -2.82378e-07
-6.12458e-06 -2.82378e-07 4.955e-05
0.00222911 5.37473e-05 8.98547e-07
5.37473e-05 -4.22261e-05 4.82964e-08
8.98547e-07 4.82964e-08 -5.85315e-06
0.00240486 7.65657e-05 -2.3369e-06
7.65657e-05 -8.98235e-05 -5.47315e-08
-2.3369e-06 -5.47315e-08 1.03302e-05
0.00231958 -1.89727e-05 -5.7342e-07
-1.89727e-05 -3.406e-05 4.1885e-07
-5.7342e-07 4.1885e-07 3.23831e-05
0.00222642 -5.65619e-05 -2.94179e-07
-5.65619e-05 8.46726e-06 2.19688e-08
-2.94179e-07 2.19688e-08 2.02784e-05
0.00208091 -7.95215e-05 -2.05011e-06
-7.95215e-05 -7.54845e-05 9.25249e-08
-2.05011e-06 9.25249e-08 -0.000129805
0.00227889 -0.00015664 4.026e-06
-0.00015664 3.77256e-05 -3.92676e-07
4.026e-06 -3.92676e-07 3.5789e-05
0.00226383 -0.000176848 6.2899e-07
-0.000176848 4.81333e-05 -2.46718e-09
6.2899e-07 -2.46718e-09 -7.3684e-06
0.0016476 -0.000111911 -4.85943e-06
-0.000111911 4.08845e-05 5.02153e-07
-4.85943e-06 5.02153e-07 -7.17179e-05
0.00232784 -0.000261741 3.16657e-06
-0.000261741 0.000111609 -1.62141e-06
3.16657e-06 -1.62141e-06 4.18192e-05
0.00154066 -0.000169636 6.28247e-08
-0.000169636 -4.31176e-05 -3.90566e-08
6.28247e-08 -3.90566e-08 -0.000183469
0.000259567 -4.68783e-05 -1.44985e-05
-4.68783e-05 -0.000327585 4.11775e-06
-1.44985e-05 4.11775e-06 -0.000434445
0.00157899 -0.000233804 3.88616e-06
-0.000233804 -2.31731e-05 -1.23331e-06
3.88616e-06 -1.23331e-06 -0.000185348
0.000312807 -0.000104095 -3.955e-07
-0.000104095 -0.000296335 4.86098e-07
-3.955e-07 4.86098e-07 -0.000415841
0.00722737 -9.26897e-05 -0.000394147
-9.26897e-05 0.00442351 2.28027e-05
-0.000394147 2.28027e-05 0.00446283
0.00044788 -0.000121652 1.25568e-05
-0.000121652 -0.000220052 -9.31268e-06
1.25568e-05 -9.31268e-06 -0.000351996
0.00472945 -0.000132763 0.000166377
-0.000132763 0.00278959 -1.05639e-05
0.000166377 -1.05639e-05 0.00277489
0.00193517 -0.000106222 0.000102498
-0.000106222 0.000961078 -1.55236e-05
0.000102498 -1.55236e-05 0.000896261
0.0023185 0.000182781 -4.20828e-06
0.000182781 7.73701e-05 -2.51838e-07
-4.20828e-06 -2.51838e-07 8.49961e-05
0.00221195 0.000248308 -5.61115e-06
0.000248308 1.88339e-05 -1.99283e-07
-5.61115e-06 -1.99283e-07 -1.50085e-05
0.0022775 0.000208003 -7.61273e-07
0.000208003 -2.08657e-05 -3.29925e-07
-7.61273e-07 -3.29925e-07 9.46775e-07
0.0023684 0.000363883 -4.00484e-07
0.000363883 0.000181872 8.82212e-07
-4.00484e-07 8.82212e-07 7.04934e-05
0.00229538 0.000347206 -1.32818e-07
0.000347206 3.75346e-05 -2.01381e-07
-1.32818e-07 -2.01381e-07 -4.20059e-06
0.00239795 0.000307586 6.09616e-08
0.000307586 2.52879e-05 -5.09393e-07
6.09616e-08 -5.09393e-07 3.31634e-05
0.00160214 0.000309018 -3.02964e-06
0.000309018 1.50686e-05 2.36995e-07
-3.02964e-06 2.36995e-07 -0.000166901
0.00226086 0.000448754 1.2908e-06
0.000448754 0.000123064 2.96556e-07
1.2908e-06 2.96556e-07 -2.81907e-05
0.00232285 0.000466163 3.25326e-06
0.000466163 7.95623e-05 -1.25096e-07
3.25326e-06 -1.25096e-07 -4.60558e-06
0.00034379 0.000149405 -1.59111e-05
0.000149405 -0.000287976 -8.7594e-06
-1.59111e-05 -8.7594e-06 -0.000432798
0.00166471 0.0003788 2.30968e-06
0.0003788 7.5293e-05 1.2826e-06
2.30968e-06 1.2826e-06 -0.000138274
0.00226841 0.000553532 -2.09094e-06
0.000553532 0.00014858 -3.0256e-06
-2.09094e-06 -3.0256e-06 -5.54158e-05
0.00782556 0.000361825 -0.000408712
0.000361825 0.00483716 -5.54209e-05
-0.000408712 -5.54209e-05 0.00483938
0.000355055 0.000205211 5.32969e-07
0.000205211 -0.000290278 5.44761e-07
5.32969e-07 5.44761e-07 -0.000458337
0.00159849 0.000434978 1.60946e-05
0.000434978 4.59365e-05 1.06914e-06
1.60946e-05 1.06914e-06 -0.000205473
0.00832831 0.000369656 1.13935e-05
0.000369656 0.00515921 5.82988e-06
1.13935e-05 5.82988e-06 0.00515781
0.000304686 0.000267596 1.97333e-05
0.000267596 -0.000325148 1.69764e-05
1.97333e-05 1.69764e-05 -0.000524206
0.00884138 0.000278917 0.000430808
0.000278917 0.00545652 5.35936e-05
0.000430808 5.35936e-05 0.00547514
0.00219054 9.31709e-05 -6.1123e-06
9.31709e-05 1.7425e-05 -1.78311e-08
-6.1123e-06 -1.78311e-08 3.36289e-06
0.0022285 0.000124653 -7.48127e-07
0.000124653 -1.15888e-05 -3.05209e-07
-7.48127e-07 -3.05209e-07 5.93882e-06
0.00238385 0.000172721 -1.22897e-06
0.000172721 -5.0192e-05 -3.29421e-07
-1.22897e-06 -3.29421e-07 1.63913e-05
0.00207976 2.56496e-06 -7.20026e-07
2.56496e-06 -7.02809e-05 -1.58765e-07
-7.20026e-07 -1.58765e-07 -0.000125016
0.0022295 2.79615e-05 -2.96942e-07
2.79615e-05 3.80224e-05 6.58598e-08
-2.96942e-07 6.58598e-08 3.81434e-05
0.00221023 6.2134e-05 3.44778e-07
6.2134e-05 -5.92829e-05 2.64473e-07
3.44778e-07 2.64473e-07 -1.82796e-05
0.00222885 -5.59898e-05 3.46831e-06
-5.59898e-05 9.35254e-06 1.34511e-07
3.46831e-06 1.34511e-07 2.2197e-05
0.00212729 -7.83892e-05 -1.65718e-06
-7.83892e-05 -3.71896e-05 2.01123e-07
-1.65718e-06 2.01123e-07 -8.95137e-05
0.00151414 -4.63553e-05 -3.23599e-06
-4.63553e-05 -3.3082e-05 2.09119e-07
-3.23599e-06 2.09119e-07 -0.000139062
0.00226186 -0.00017974 1.25373e-06
-0.00017974 5.93133e-05 -1.01143e-06
1.25373e-06 -1.01143e-06 -7.25538e-06
0.00159559 -0.000113622 3.22992e-06
-0.000113622 -7.51033e-07 -2.98971e-07
3.22992e-06 -2.98971e-07 -0.000120152
0.000220535 -2.14492e-05 -1.44626e-05
-2.14492e-05 -0.000339328 2.65969e-06
-1.44626e-05 2.65969e-06 -0.000439145
0.00151919 -0.00016788 4.47959e-06
-0.00016788 -6.74245e-05 -1.19182e-06
4.47959e-06 -1.19182e-06 -0.000207094
0.000252558 -5.55869e-05 4.40609e-07
-5.55869e-05 -0.000326735 -3.8401e-07
4.40609e-07 -3.8401e-07 -0.000432653
0.00698516 -0.000179472 -0.000391179
-0.000179472 0.00428669 2.44351e-05
-0.000391179 2.44351e-05 0.00431806
0.000308499 -8.83554e-05 1.41878e-05
-8.83554e-05 -0.000294816 -5.6519e-06
1.41878e-05 -5.6519e-06 -0.00041227
0.00713716 -0.000126829 6.54515e-06
-0.000126829 0.00437057 3.07042e-07
6.54515e-06 3.07042e-07 0.00440799
0.00216487 -5.63178e-05 0.000297625
-5.63178e-05 0.00107914 -2.39696e-05
0.000297625 -2.39696e-05 0.00107315
0.00223685 0.00017444 -7.85205e-06
0.00017444 6.45801e-05 -6.27573e-07
-7.85205e-06 -6.27573e-07 3.6146e-05
0.00221362 0.000183589 -6.4198e-07
0.000183589 -7.2301e-06 7.368e-08
-6.4198e-07 7.368e-08 8.91555e-06
0.00236877 0.000268916 8.64202e-07
0.000268916 0.000161907 6.49829e-07
8.64202e-07 6.49829e-07 7.68268e-05
0.0022486 0.000249339 6.45579e-07
0.000249339 4.08005e-05 3.79292e-08
6.45579e-07 3.79292e-08 6.69756e-06
0.0022659 0.000198424 1.01052e-07
0.000198424 -2.25751e-05 -4.15951e-07
1.01052e-07 -4.15951e-07 1.38706e-07
0.00151134 0.000232489 -9.66371e-07
0.000232489 -4.04998e-05 -3.40227e-07
-9.66371e-07 -3.40227e-07 -0.000209748
0.00233439 0.000363083 4.40999e-07
0.000363083 0.000150834 -1.19798e-07
4.40999e-07 -1.19798e-07 3.92275e-05
0.00233559 0.000344344 4.00517e-06
0.000344344 6.72243e-05 2.85026e-07
4.00517e-06 2.85026e-07 2.43453e-05
0.000330272 0.000111696 -1.47509e-05
0.000111696 -0.00028586 -6.41203e-06
-1.47509e-05 -6.41203e-06 -0.000416324
0.00157236 0.000304003 3.20034e-06
0.000304003 7.19744e-06 1.1022e-06
3.20034e-06 1.1022e-06 -0.000180657
0.00224932 0.00044822 -1.12629e-07
0.00044822 0.000124748 -1.31472e-06
-1.12629e-07 -1.31472e-06 -3.76206e-05
0.00751357 0.000339172 -0.000416355
0.000339172 0.00464761 -4.91913e-05
-0.000416355 -4.91913e-05 0.0046538
0.000354758 0.000156905 5.22543e-07
0.000156905 -0.000283978 2.46274e-07
5.22543e-07 2.46274e-07 -0.000431847
0.00162159 0.000369744 9.26212e-06
0.000369744 5.33563e-05 2.09544e-06
9.26212e-06 2.09544e-06 -0.000156884
0.00796861 0.000391479 8.42089e-06
0.000391479 0.00494163 6.01335e-06
8.42089e-06 6.01335e-06 0.00493847
0.000340588 0.000208884 1.67793e-05
0.000208884 -0.000304992 1.2805e-05
1.67793e-05 1.2805e-05 -0.000476176
0.00847997 0.000386839 0.000437222
0.000386839 0.00525485 6.39867e-05
0.000437222 6.39867e-05 0.00525695
0.00205208 9.06947e-05 9.83232e-07
9.06947e-05 -7.60303e-05 -3.64257e-07
9.83232e-07 -3.64257e-07 -0.000140948
0.00223688 9.38033e-05 -2.15134e-06
9.38033e-05 5.58299e-05 -2.34039e-08
-2.15134e-06 -2.34039e-08 4.05186e-05
0.00225459 0.00013291 2.55595e-06
0.00013291 1.43449e-05 -1.05906e-07
2.55595e-06 -1.05906e-07 3.22656e-05
0.00149924 -3.18738e-06 -1.89778e-06
-3.18738e-06 -2.63861e-05 1.65766e-07
-1.89778e-06 1.65766e-07 -0.000132793
0.00211359 4.52817e-06 -1.65095e-06
4.52817e-06 -3.88953e-05 3.29863e-08
-1.65095e-06 3.29863e-08 -9.32092e-05
0.00221531 3.03455e-05 3.99688e-06
3.03455e-05 2.3458e-05 3.2547e-07
3.99688e-06 3.2547e-07 2.74539e-05
0.00217371 -7.75268e-05 -1.81952e-06
-7.75268e-05 1.28631e-06 2.43932e-07
-1.81952e-06 2.43932e-07 -4.9187e-05
0.00159877 -4.98999e-05 2.54299e-06
-4.98999e-05 1.88809e-05 -1.08126e-07
2.54299e-06 -1.08126e-07 -8.61273e-05
0.000237379 -3.39427e-05 -1.52009e-05
-3.39427e-05 -0.000320362 1.77124e-06
-1.52009e-05 1.77124e-06 -0.000415353
0.00153183 -0.000114297 7.72048e-06
-0.000114297 -5.22354e-05 -1.40357e-06
7.72048e-06 -1.40357e-06 -0.000178558
0.000234001 -1.04468e-05 -5.80235e-08
-1.04468e-05 -0.000330114 5.77072e-08
-5.80235e-08 5.77072e-08 -0.000428179
0.00687876 -0.000144338 -0.000390639
-0.000144338 0.0042153 1.87131e-05
-0.000390639 1.87131e-05 0.00425127
0.000282855 -6.11547e-05 1.50341e-05
-6.11547e-05 -0.000300152 -4.09297e-06
1.50341e-05 -4.09297e-06 -0.000406196
0.00697686 -7.98676e-05 -2.63085e-06
-7.98676e-05 0.00426626 3.83395e-06
-2.63085e-06 3.83395e-06 0.00430707
0.00709995 -0.000139994 0.00039052
-0.000139994 0.00434949 -2.24211e-05
0.00039052 -2.24211e-05 0.00438645
0.00230164 0.000176137 1.66544e-06
0.000176137 0.000114675 -2.92478e-07
1.66544e-06 -2.92478e-07 4.55038e-05
0.00218785 0.000175866 -7.67469e-07
0.000175866 1.80993e-05 6.96078e-08
-7.67469e-07 6.96078e-08 -5.84891e-06
0.00210808 0.000184573 2.65037e-06
0.000184573 -9.28405e-05 2.45301e-07
2.65037e-06 2.45301e-07 -6.82596e-05
0.00146441 0.000159259 2.13296e-08
0.000159259 -6.63088e-05 -4.15045e-08
2.13296e-08 -4.15045e-08 -0.000215075
0.00233397 0.000266596 2.51249e-07
0.000266596 0.000133412 -2.18523e-08
2.51249e-07 -2.18523e-08 4.84573e-05
0.00228572 0.000250518 5.10013e-06
0.000250518 6.36299e-05 2.29948e-08
5.10013e-06 2.29948e-08 2.90601e-05
0.000304269 7.76693e-05 -1.38625e-05
7.76693e-05 -0.000290125 -4.7016e-06
-1.38625e-05 -4.7016e-06 -0.000408415
0.00154679 0.000233857 7.4447e-08
0.000233857 -2.66277e-06 2.11274e-07
7.4447e-08 2.11274e-07 -0.000172889
0.00229865 0.0003621 5.52148e-07
0.0003621 0.000119081 -1.25546e-06
5.52148e-07 -1.25546e-06 7.21218e-06
0.00725153 0.0002745 -0.000418346
0.0002745 0.00447415 -3.94273e-05
-0.000418346 -3.94273e-05 0.00449283
0.000340304 0.000120647 5.27993e-07
0.000120647 -0.000281475 2.29934e-07
5.27993e-07 2.29934e-07 -0.000414891
0.00152098 0.000297212 4.97314e-06
0.000297212 -1.59174e-05 1.77761e-06
4.97314e-06 1.77761e-06 -0.000209241
0.00763161 0.000359769 4.89977e-06
0.000359769 0.00472856 3.76977e-06
4.89977e-06 3.76977e-06 0.00473239
0.000362655 0.000165638 1.54318e-05
0.000165638 -0.000280628 9.62929e-06
1.54318e-05 9.62929e-06 -0.000432148
0.00811411 0.000434096 0.000440092
0.000434096 0.00505062 6.79648e-05
0.000440092 6.79648e-05 0.00504072
0.00140049 5.11917e-05 -2.50884e-06
5.11917e-05 -8.37436e-05 1.69908e-07
-2.50884e-06 1.69908e-07 -0.000210061
0.00215094 8.82656e-05 -2.87408e-06
8.82656e-05 -6.22257e-06 -2.54853e-07
-2.87408e-06 -2.54853e-07 -6.23955e-05
0.00228316 9.48935e-05 4.99198e-06
9.48935e-05 9.33215e-05 2.84812e-07
4.99198e-06 2.84812e-07 7.72073e-05
0.000274038 3.26371e-05 -1.59468e-05
3.26371e-05 -0.000298153 -3.6592e-07
-1.59468e-05 -3.6592e-07 -0.000385495
0.00157323 -1.93161e-07 2.73908e-06
-1.93161e-07 1.89499e-05 4.40412e-08
2.73908e-06 4.40412e-08 -8.64902e-05
0.00214978 8.24811e-06 -2.98128e-06
8.24811e-06 -6.34237e-06 1.7166e-07
-2.98128e-06 1.7166e-07 -6.00454e-05
0.00167697 -5.29291e-05 9.43102e-06
-5.29291e-05 6.6761e-05 -9.24462e-07
9.43102e-06 -9.24462e-07 -3.71646e-05
0.000238941 -8.69728e-06 1.8177e-07
-8.69728e-06 -0.000318097 3.9106e-07
1.8177e-07 3.9106e-07 -0.000412844
0.00676455 -4.46168e-06 -0.000391582
-4.46168e-06 0.0041304 4.67945e-06
-0.000391582 4.67945e-06 0.00417575
0.000233172 1.00467e-06 1.48221e-05
1.00467e-06 -0.000330435 -1.73152e-06
1.48221e-05 -1.73152e-06 -0.000426678
0.00682468 -0.00014113 -6.97544e-06
-0.00014113 0.00418233 2.3961e-06
-6.97544e-06 2.3961e-06 0.00421765
0.00690487 -6.34329e-05 0.000376403
-6.34329e-05 0.00421928 -1.34223e-05
0.000376403 -1.34223e-05 0.00426041
0.00146199 0.000100495 -1.40949e-06
0.000100495 -4.77177e-05 -2.10575e-07
-1.40949e-06 -2.10575e-07 -0.000182451
0.00225262 0.000170987 -2.62472e-07
0.000170987 7.38433e-05 -3.20379e-07
-2.62472e-07 -3.20379e-07 8.14989e-06
0.00213728 0.000176934 3.39466e-06
0.000176934 -2.87448e-05 -2.11242e-07
3.39466e-06 -2.11242e-07 -4.83992e-05
0.00276386 9.00275e-05 -0.000170755
9.00275e-05 0.00133857 -7.64416e-06
-0.000170755 -7.64416e-06 0.00127886
0.00151075 0.000161298 -3.452e-08
0.000161298 -2.22133e-05 1.11122e-07
-3.452e-08 1.11122e-07 -0.000171698
0.00229615 0.000263855 6.66903e-08
0.000263855 0.00010354 -6.25073e-07
6.66903e-08 -6.25073e-07 1.88121e-05
0.0070631 0.000204008 -0.000414581
0.000204008 0.00434331 -2.88503e-05
-0.000414581 -2.88503e-05 0.00437407
0.00032012 9.75613e-05 6.79588e-07
9.75613e-05 -0.000280177 4.67725e-07
6.79588e-07 4.67725e-07 -0.000401659
0.00158288 0.000234714 1.285e-06
0.000234714 3.56232e-05 5.22036e-07
1.285e-06 5.22036e-07 -0.000135548
0.00736633 0.000292049 2.2246e-06
0.000292049 0.00454953 2.02655e-06
2.2246e-06 2.02655e-06 0.00456644
0.000360381 0.000131812 1.51975e-05
0.000131812 -0.000269607 7.6081e-06
1.51975e-05 7.6081e-06 -0.000406598
0.00775541 0.000395469 0.000436668
0.000395469 0.00482188 6.18773e-05
0.000436668 6.18773e-05 0.00481975
0.000374032 1.99232e-05 -1.21545e-05
1.99232e-05 -0.000220725 -1.47513e-06
-1.21545e-05 -1.47513e-06 -0.000318024
0.00148505 5.14624e-05 -9.36101e-07
5.14624e-05 -2.73368e-05 -1.92482e-08
-9.36101e-07 -1.92482e-08 -0.000146232
0.00222813 8.44313e-05 -2.69936e-06
8.44313e-05 4.75508e-05 1.90357e-07
-2.69936e-06 1.90357e-07 -3.18984e-07
0.00664033 -0.000102077 -0.000375572
-0.000102077 0.00406685 6.80432e-06
-0.000375572 6.80432e-06 0.00410181
0.000234452 1.35275e-05 -7.24735e-07
1.35275e-05 -0.000319631 -2.79909e-07
-7.24735e-07 -2.79909e-07 -0.000409556
0.00165028 1.33811e-06 8.37338e-06
1.33811e-06 6.61286e-05 -4.76233e-07
8.37338e-06 -4.76233e-07 -3.83604e-05
0.000222043 1.60586e-05 1.51299e-05
1.60586e-05 -0.000329851 -3.79939e-07
1.51299e-05 -3.79939e-07 -0.000423235
0.00670999 -3.68158e-05 1.59705e-06
-3.68158e-05 0.00410218 -2.11596e-06
1.59705e-06 -2.11596e-06 0.00414193
0.00679313 -7.01579e-05 0.000379385
-7.01579e-05 0.00414826 -1.00721e-05
0.000379385 -1.00721e-05 0.0041901
0.00286607 3.63767e-05 -0.000165597
3.63767e-05 0.00140975 -4.01471e-06
-0.000165597 -4.01471e-06 0.0013575
0.00147021 0.000103218 -1.5929e-07
0.000103218 -3.77074e-05 -4.14478e-08
-1.5929e-07 -4.14478e-08 -0.000173136
0.00220595 0.000166104 -5.57626e-07
0.000166104 3.39503e-05 -5.61643e-07
-5.57626e-07 -5.61643e-07 -2.81953e-05
0.00661979 8.656e-06 -0.000184015
8.656e-06 0.00406378 -2.07557e-06
-0.000184015 -2.07557e-06 0.0040555
0.000286724 7.72938e-05 5.56941e-07
7.72938e-05 -0.000291443 2.19255e-07
5.56941e-07 2.19255e-07 -0.000401108
0.00155915 0.000164431 5.27802e-07
0.000164431 2.11457e-05 1.90603e-08
5.27802e-07 1.90603e-08 -0.000129192
0.00712936 0.000182161 -7.45407e-06
0.000182161 0.00437897 -1.69666e-06
-7.45407e-06 -1.69666e-06 0.00441108
0.000333322 0.00011883 1.60991e-05
0.00011883 -0.000273102 6.41948e-06
1.60991e-05 6.41948e-06 -0.000397054
0.00744588 0.000313251 0.000430954
0.000313251 0.00460528 4.99011e-05
0.000430954 4.99011e-05 0.00462069
0.00208304 -4.74837e-05 -0.000288835
-4.74837e-05 0.00102824 1.88874e-06
-0.000288835 1.88874e-06 0.00103661
0.00150297 4.17946e-05 -7.41065e-05
4.17946e-05 0.000514443 -4.05507e-07
-7.41065e-05 -4.05507e-07 0.000445293
0.00158583 5.43941e-05 4.5132e-06
5.43941e-05 4.16541e-05 -2.21281e-08
4.5132e-06 -2.21281e-08 -6.96785e-05
0.00669485 -4.86401e-05 6.42605e-06
-4.86401e-05 0.00409597 3.72332e-06
6.42605e-06 3.72332e-06 0.00413696
0.000239531 -3.69536e-06 1.57458e-05
-3.69536e-06 -0.000309458 1.83489e-07
1.57458e-05 1.83489e-07 -0.000403013
0.00672134 -9.46811e-05 0.000391652
-9.46811e-05 0.00411521 -8.14264e-06
0.000391652 -8.14264e-06 0.00415448
0.00165638 3.32538e-05 -8.57827e-05
3.32538e-05 0.000784182 -2.26833e-06
-8.57827e-05 -2.26833e-06 0.000737252
0.00150972 3.73539e-05 -7.48178e-05
3.73539e-05 0.000516091 -2.39861e-06
-7.48178e-05 -2.39861e-06 0.000440193
0.00148229 0.000104213 1.65935e-06
0.000104213 -2.39873e-05 -8.56281e-08
1.65935e-06 -8.56281e-08 -0.000159993
0.00434777 9.30501e-05 0.000147828
9.30501e-05 0.00254711 5.85991e-06
0.000147828 5.85991e-06 0.00254256
0.000262421 8.84761e-05 1.61281e-05
8.84761e-05 -0.000310447 4.95632e-06
1.61281e-05 4.95632e-06 -0.000420735
0.00719541 0.00017036 0.000409384
0.00017036 0.00441281 3.10747e-05
0.000409384 3.10747e-05 0.00444876
0.00668938 -7.2822e-06 -7.82637e-06
-7.2822e-06 0.0040975 -4.18902e-06
-7.82637e-06 -4.18902e-06 0.00413632
0.000242924 5.7758e-05 1.75877e-05
5.7758e-05 -0.000317954 2.33103e-06
1.75877e-05 2.33103e-06 -0.000406772
0.0066277 3.36292e-05 0.000382185
3.36292e-05 0.00404774 6.43684e-07
0.000382185 6.43684e-07 0.00409196
0.00425765 5.31552e-05 0.000158047
5.31552e-05 0.00248899 7.58956e-06
0.000158047 7.58956e-06 0.0024889
0.00026842 2.596e-05 1.55845e-05
2.596e-05 -0.000300888 2.57977e-06
1.55845e-05 2.57977e-06 -0.000400421
0.00695732 4.03044e-05 0.000393521
4.03044e-05 0.00425417 1.55528e-05
0.000393521 1.55528e-05 0.00429549
0.00671622 -9.6599e-05 0.00038254
-9.6599e-05 0.00411626 -3.79922e-06
0.00038254 -3.79922e-06 0.00415224
0.00675548 4.0009e-05 0.000385679
4.0009e-05 0.00412311 1.00783e-05
0.000385679 1.00783e-05 0.00416764
