# vtk DataFile Version 2.0
Wound Healing Simulation
ASCII
DATASET UNSTRUCTURED_GRID
POINTS 3012 float
69.9759 18.75 4
67.2507 60.3285 4
69.976 18.75 2
73.0099 25.446 4
71.1327 20.9142 4
68.6801 16.6661 4
67.8202 19.9252 3.97105
67.2507 60.3286 2
71.1327 54.0858 4
68.6801 58.3339 4
65.6939 62.2254 4
65.3072 58.9988 3.97019
74.6784 42.3946 4
73.7221 47.2057 4
69.9759 18.75 0
73.0099 25.446 2
68.6801 16.6661 2
71.1327 20.9142 2
67.8207 19.9294 2
74.6792 32.6053 4
73.7222 27.7943 4
72.1454 23.1494 4
70.6106 26.2217 3.97153
68.8809 21.9572 3.97152
67.2507 14.6715 4
66.6311 17.9723 3.97
65.7185 21.0527 3.96105
67.2507 60.3285 0
71.1327 54.0858 2
68.6801 58.3339 2
65.694 62.2255 2
65.3084 58.9938 2
72.1454 51.8506 4
69.9759 56.25 4
68.8314 53.1145 3.97145
64.0165 64.0165 4
66.605 57.1332 3.97103
63.8798 60.7608 3.96727
63.4445 57.7453 3.9585
60.3285 67.2507 4
74.6792 42.3947 2
73.7222 47.2057 2
74.9194 39.9526 4
74.2788 44.8158 4
72.1656 42.0859 3.97384
73.0099 49.554 4
71.246 46.5984 3.97224
73.0099 25.446 0
71.1327 20.9142 0
68.6801 16.6661 0
67.8202 19.9252 0.0289472
74.6792 32.6053 2
73.7222 27.7943 2
67.2508 14.6715 2
72.1455 23.1494 2
70.6099 26.223 2
66.6324 17.977 2
68.881 21.9602 2
65.7185 21.054 2
74.9197 35.0474 4
74.2794 30.1841 4
72.1822 32.945 3.97388
71.2753 28.4328 3.97217
69.8114 24.0594 3.97162
68.2996 26.967 3.96411
66.6912 22.9569 3.96232
65.694 12.7746 4
65.3179 16.1057 3.96916
64.6327 19.2254 3.95926
63.6747 22.1193 3.96531
71.1327 54.0858 0
65.6939 62.2254 0
68.6801 58.3339 0
65.3072 58.9988 0.0298093
72.1455 51.8506 2
69.9759 56.25 2
68.8315 53.1113 2
64.0165 64.0165 2
66.6061 57.1283 2
63.8807 60.7552 2
63.4354 57.7444 2
62.2254 65.694 4
58.8895 65.4091 3.97495
69.7645 50.99 3.97144
67.7782 55.1683 3.9713
66.5663 52.185 3.96266
62.3309 62.4219 3.96877
64.5829 56.0042 3.96024
62.1851 59.3808 3.95573
61.6455 56.5964 3.9607
58.3339 68.6801 4
60.3285 67.2508 2
73.7221 47.2057 0
74.6784 42.3946 0
74.9197 39.9526 2
74.2794 44.8159 2
72.1644 42.085 2
73.0099 49.554 2
71.2452 46.5969 2
75 37.5 4
72.4028 39.8028 3.97472
71.7795 44.3531 3.97321
69.7802 41.7865 3.96681
70.5713 48.8142 3.97159
68.8646 46.0039 3.96563
74.6792 32.6053 0
73.7222 27.7943 0
67.2507 14.6715 0
72.1454 23.1494 0
70.6106 26.2217 0.0284673
68.8809 21.9572 0.0284758
66.6311 17.9723 0.030002
65.7185 21.0527 0.0389511
74.9197 35.0474 2
74.2794 30.1841 2
72.181 32.9452 2
71.2743 28.4337 2
65.694 12.7745 2
65.3187 16.1113 2
69.8111 24.0614 2
68.303 26.9677 2
64.6261 19.2276 2
66.693 22.958 2
63.6751 22.1198 2
72.4107 35.2255 3.97468
71.8012 30.678 3.97334
69.8193 33.2755 3.96604
68.9285 29.0507 3.96449
67.5518 24.9314 3.96355
65.9825 27.6944 3.97393
64.0165 10.9835 4
64.534 23.9085 3.968
63.8828 14.332 3.9659
63.4464 17.478 3.95633
62.7003 20.4108 3.96231
61.7396 23.0856 3.97175
60.6788 11.1036 3.97212
57.6031 11.4919 3.96292
72.1454 51.8506 0
69.9759 56.25 0
68.8314 53.1145 0.0285528
64.0165 64.0165 0
63.8798 60.7608 0.032731
66.605 57.1332 0.0289677
63.4445 57.7453 0.0415009
62.2255 65.694 2
58.8928 65.403 2
69.7643 50.9877 2
67.7788 55.164 2
66.5678 52.1842 2
62.3325 62.4135 2
64.5774 56.003 2
62.1765 59.3803 2
61.6453 56.5972 2
60.6637 63.972 3.97414
57.0206 66.732 3.9798
57.5441 63.6448 3.9682
67.4328 50.1563 3.96408
65.6193 54.1471 3.96147
64.2875 51.3047 3.96892
60.7637 60.904 3.96389
62.616 54.9839 3.96412
60.5083 58.0725 3.95544
60.0496 55.6519 3.96672
56.25 69.9759 4
58.3339 68.6801 2
60.3285 67.2507 0
58.9164 9.66125 3.97483
62.2254 9.30607 4
73.0099 49.554 0
74.2788 44.8158 0
71.246 46.5984 0.0277608
72.1656 42.0859 0.0261642
74.9194 39.9526 0
75 37.5 2
72.4022 39.8022 2
71.7789 44.3518 2
69.783 41.7862 2
70.5708 48.8124 2
68.8692 46.0035 2
72.4864 37.513 3.97453
70.0238 39.6571 3.96687
69.3992 43.9011 3.96646
67.3941 41.4778 3.97684
68.2033 48.0914 3.96494
66.481 45.3934 3.97591
74.9197 35.0474 0
74.2794 30.1841 0
72.1822 32.945 0.0261161
71.2753 28.4328 0.0278322
65.694 12.7746 0
65.3179 16.1057 0.0308414
69.8114 24.0594 0.0283805
68.2996 26.967 0.0358897
66.6912 22.9569 0.03768
64.6327 19.2254 0.0407401
63.6747 22.1193 0.0346942
72.4101 35.2253 2
71.8005 30.6787 2
69.8226 33.2758 2
68.9334 29.0511 2
64.0165 10.9835 2
63.8845 14.3395 2
63.4477 17.477 2
67.5545 24.9324 2
65.9802 27.6956 2
62.7051 20.4099 2
64.5328 23.9094 2
61.7384 23.0868 2
60.6821 11.1094 2
57.6027 11.4845 2
70.0413 35.3967 3.96643
69.4396 31.1592 3.96517
67.4665 33.6153 3.97648
66.5692 29.671 3.97519
65.3006 25.7694 3.97075
63.7496 28.3631 3.97516
62.3348 12.6614 3.96775
62.4842 24.772 3.97432
62.1755 15.8112 3.95525
61.6122 18.7826 3.95936
60.8819 21.4923 3.96792
59.9487 23.9258 3.97385
59.2354 12.8253 3.96185
55.865 10.2821 3.97215
56.3856 13.1987 3.9637
69.7645 50.99 0.0285594
62.2254 65.694 0
58.8895 65.4091 0.0250459
67.7782 55.1683 0.0287037
66.5663 52.185 0.0373385
62.3309 62.4219 0.0312288
62.1851 59.3808 0.0442703
64.5829 56.0042 0.0397575
61.6455 56.5964 0.0393028
60.6672 63.966 2
57.0246 66.727 2
57.5465 63.652 2
67.4346 50.1555 2
65.6182 54.1462 2
64.2856 51.304 2
60.7574 60.9061 2
62.6168 54.9846 2
60.4987 58.0716 2
60.0494 55.6527 2
55.0661 67.9294 3.98278
59.2122 62.3192 3.96788
55.7913 64.8683 3.97022
56.3112 62.0146 3.98059
65.077 49.3363 3.97169
63.4717 53.2078 3.96653
62.0185 50.5123 3.97363
59.249 59.4814 3.95427
60.7447 54.1709 3.97043
58.9986 56.8635 3.96064
58.8733 55.0133 3.97108
48.0979 68.568 3.97954
50.9442 69.9305 3.98662
54.0858 71.1327 4
56.25 69.976 2
58.3339 68.6801 0
57.0539 8.34089 3.97542
60.3285 7.74928 4
58.9197 9.66706 2
62.2255 9.30602 2
70.5713 48.8142 0.0284051
71.7795 44.3531 0.0267884
68.8646 46.0039 0.0343703
69.7802 41.7865 0.0331857
72.4028 39.8028 0.0252834
75 37.5 0
72.4851 37.5126 2
70.0271 39.6569 2
69.4015 43.9006 2
67.3911 41.477 2
68.2047 48.0905 2
66.4772 45.3922 2
70.1124 37.5239 3.96675
67.642 39.5046 3.9767
67.0064 43.4371 3.9768
65.1769 41.1781 3.9767
65.8268 47.3582 3.97434
64.2333 44.7719 3.97616
72.4107 35.2255 0.0253174
71.8012 30.678 0.0266626
69.8193 33.2755 0.0339581
68.9285 29.0507 0.0355061
64.0165 10.9835 0
63.8828 14.332 0.0340957
63.4464 17.478 0.0436734
67.5518 24.9314 0.0364547
65.9825 27.6944 0.0260727
64.534 23.9085 0.0320041
62.7003 20.4108 0.0376876
61.7396 23.0856 0.0282457
60.6788 11.1036 0.0278839
57.6031 11.4919 0.0370838
70.0442 35.3968 2
69.4431 31.1595 2
67.4639 33.616 2
66.5663 29.6722 2
62.3379 12.669 2
62.1735 15.8122 2
61.6216 18.7806 2
65.2987 25.7706 2
63.7477 28.3637 2
60.8805 21.4936 2
62.483 24.7733 2
59.9473 23.9272 2
59.2349 12.8244 2
56.3866 13.1945 2
55.8666 10.2846 2
67.6869 35.561 3.97668
67.071 31.6585 3.97601
65.3371 33.9654 3.97691
64.2654 30.2785 3.97584
63.1539 26.5393 3.97495
61.7106 28.9231 3.97521
60.7616 14.2589 3.96102
60.5369 25.5305 3.97466
60.4647 17.2212 3.95547
59.8856 19.9798 3.96299
59.1969 22.4666 3.97061
58.3993 24.5689 3.9741
54.0294 9.17561 3.97078
57.8726 14.4094 3.95322
54.7728 12.0938 3.96489
55.2637 14.7628 3.9537
67.4328 50.1563 0.0359165
57.0206 66.732 0.0201959
60.6637 63.972 0.0258577
57.5441 63.6448 0.0318006
65.6193 54.1471 0.0385323
64.2875 51.3047 0.0310766
60.7637 60.904 0.0361092
60.5083 58.0725 0.0445604
62.616 54.9839 0.0358758
60.0496 55.6519 0.0332802
55.0705 67.9247 2
59.2095 62.3252 2
55.7945 64.864 2
56.3089 62.0161 2
65.0745 49.3353 2
63.4706 53.2076 2
62.0174 50.5123 2
59.2688 59.4905 2
60.7441 54.1713 2
59.0079 56.8669 2
58.8828 55.0159 2
53.0379 68.9969 3.98304
53.9579 65.9948 3.97109
57.8474 60.8029 3.95711
54.6602 63.1203 3.96391
55.1764 60.5277 3.97738
62.7603 48.5323 3.9744
61.3588 52.4337 3.97218
59.6873 49.8173 3.97337
57.8193 58.1339 3.95732
58.8986 53.765 3.97276
57.6944 55.6131 3.96351
50.1035 67.8462 3.97599
47.455 66.5622 3.97504
46.0526 69.1495 3.98188
48.1015 68.5688 2
48.7983 70.7213 3.98803
50.9484 69.9274 2
51.8506 72.1454 4
54.0858 71.1327 2
56.25 69.9759 0
55.0986 7.14418 3.98093
58.3339 6.31992 4
57.0578 8.3467 2
60.3286 7.74926 2
58.9164 9.66125 0.0251662
62.2254 9.30607 0
68.2033 48.0914 0.0350599
69.3992 43.9011 0.0335446
66.481 45.3934 0.0240938
67.3941 41.4778 0.0231615
70.0238 39.6571 0.0331299
72.4864 37.513 0.0254666
70.116 37.5238 2
67.6392 39.5044 2
67.0041 43.436 2
65.1758 41.1779 2
65.8243 47.3571 2
64.2319 44.7715 2
67.7462 37.5251 3.97663
65.4194 39.3555 3.97684
64.7812 42.9708 3.97659
63.2388 40.8839 3.97653
63.5293 46.6108 3.97487
62.232 44.1157 3.97583
70.0413 35.3967 0.0335695
69.4396 31.1592 0.0348272
67.4665 33.6153 0.0235242
66.5692 29.671 0.0248055
62.3348 12.6614 0.0322538
62.1755 15.8112 0.0447533
61.6122 18.7826 0.040644
65.3006 25.7694 0.0292518
63.7496 28.3631 0.0248443
62.4842 24.772 0.0256754
60.8819 21.4923 0.0320833
59.9487 23.9258 0.0261477
59.2354 12.8253 0.0381483
56.3856 13.1987 0.0363027
55.865 10.2821 0.027854
67.6844 35.5616 2
67.0688 31.6594 2
65.3353 33.9659 2
64.2641 30.2789 2
60.7596 14.2593 2
60.4603 17.2224 2
59.8821 19.9814 2
63.1524 26.5406 2
61.7102 28.9231 2
59.1981 22.4675 2
60.536 25.531 2
58.3962 24.5716 2
57.8766 14.406 2
55.2588 14.7548 2
54.0329 9.16892 2
54.7684 12.0957 2
65.519 35.6884 3.97691
64.7992 32.2129 3.97622
63.8185 34.2958 3.97638
62.0318 30.7499 3.9756
61.1178 27.2401 3.97485
60.1898 29.3138 3.97577
59.2214 15.7541 3.95444
58.698 26.0374 3.97498
58.8385 18.5166 3.95911
58.2874 21.0733 3.96499
57.7268 23.3479 3.97131
57.3325 24.9443 3.97582
52.1063 8.17148 3.96725
53.0415 11.0932 3.97119
56.5842 15.8671 3.9551
53.7828 13.7889 3.96733
54.2673 16.1502 3.95577
55.0661 67.9294 0.0172197
65.077 49.3363 0.028307
55.7913 64.8683 0.0297766
59.2122 62.3192 0.0321193
56.3112 62.0146 0.0194079
63.4717 53.2078 0.0334728
62.0185 50.5123 0.0263664
59.249 59.4814 0.0457278
58.9986 56.8635 0.0393593
60.7447 54.1709 0.0295713
58.8733 55.0133 0.0289231
53.0424 68.9939 2
53.9612 65.9941 2
57.8497 60.8071 2
54.6587 63.1211 2
55.1741 60.5268 2
62.7594 48.5321 2
61.3583 52.434 2
59.688 49.8172 2
57.828 58.1388 2
58.9036 53.7662 2
57.6919 55.6122 2
52.0629 66.9837 3.97349
52.9348 64.1609 3.96928
56.5493 59.385 3.95289
53.6304 61.4956 3.96575
54.1857 59.2019 3.96458
60.3697 47.7018 3.97408
59.1927 51.909 3.97306
57.3078 49.3606 3.97404
56.4982 56.8181 3.96121
56.5575 53.8791 3.96801
50.107 67.8428 2
49.3255 65.8871 3.9745
47.4583 66.5537 2
46.8803 64.6844 3.97728
45.5542 67.0801 3.97835
43.9708 69.5825 3.98326
46.0561 69.1494 2
46.6056 71.366 3.98949
48.0979 68.568 0.020464
48.8024 70.7206 2
49.554 73.0099 4
50.9442 69.9305 0.0133832
51.8506 72.1455 2
54.0858 71.1327 0
53.0612 6.07556 3.98561
55.1029 7.14643 2
56.25 5.02411 4
58.3339 6.3199 2
57.0539 8.34089 0.0245766
60.3285 7.74928 0
65.8268 47.3582 0.0256599
67.0064 43.4371 0.0231984
64.2333 44.7719 0.0238408
65.1769 41.1781 0.0233001
67.642 39.5046 0.0232993
70.1124 37.5239 0.0332484
67.7437 37.5255 2
65.4183 39.3556 2
64.7796 42.9703 2
63.239 40.8839 2
63.5283 46.6101 2
62.232 44.1158 2
65.5296 37.5057 3.97684
63.3886 39.248 3.97638
62.784 42.482 3.97626
61.8007 40.6445 3.97654
61.3595 45.7784 3.97517
60.7505 43.5682 3.97599
67.6869 35.561 0.0233247
67.071 31.6585 0.0239857
65.3371 33.9654 0.0230932
64.2654 30.2785 0.0241585
60.7616 14.2589 0.0389819
60.4647 17.2212 0.0445268
59.8856 19.9798 0.0370133
63.1539 26.5393 0.0250481
61.7106 28.9231 0.0247907
60.5369 25.5305 0.0253445
59.1969 22.4666 0.0293912
58.3993 24.5689 0.025902
57.8726 14.4094 0.0467766
55.2637 14.7628 0.0462952
54.0294 9.17561 0.0292223
54.7728 12.0938 0.0351072
65.5176 35.6886 2
64.7978 32.2135 2
63.819 34.2959 2
62.0317 30.7499 2
59.2403 15.7493 2
58.8359 18.5179 2
58.2838 21.0756 2
61.117 27.2403 2
60.1906 29.3137 2
57.7235 23.351 2
58.6954 26.0386 2
57.3306 24.9482 2
56.5618 15.8712 2
54.2713 16.1414 2
53.7712 13.7817 2
52.1082 8.17716 2
53.0453 11.0845 2
63.6006 35.6617 3.97629
62.3643 33.1245 3.97604
59.8948 30.7701 3.97544
58.8615 28.1285 3.97516
57.7493 17.127 3.95569
57.0156 26.0204 3.97519
57.311 19.6944 3.95952
56.8066 22.1129 3.96534
56.532 24.245 3.97346
50.1078 7.29805 3.97788
51.2159 10.1892 3.96597
52.1382 12.9043 3.97147
55.3608 17.1415 3.95582
52.9072 15.3987 3.95857
53.603 17.1612 3.95543
53.0379 68.9969 0.0169559
53.9579 65.9948 0.0289083
62.7603 48.5323 0.0256022
54.6602 63.1203 0.0360889
57.8474 60.8029 0.0428895
55.1764 60.5277 0.0226163
61.3588 52.4337 0.0278212
59.6873 49.8173 0.0266281
57.8193 58.1339 0.0426832
57.6944 55.6131 0.0364899
58.8986 53.765 0.02724
52.0662 66.9808 2
52.935 64.1604 2
56.5458 59.3859 2
53.6289 61.4957 2
54.1794 59.2038 2
60.3699 47.7016 2
59.1952 51.9094 2
57.3088 49.3613 2
56.4955 56.822 2
56.5554 53.8784 2
51.1535 65.092 3.96996
52.008 62.4452 3.96382
55.3146 58.1085 3.96109
52.731 59.9793 3.96195
53.5233 58.3292 3.96259
57.4445 46.6009 3.97494
56.9205 51.5322 3.97249
55.4368 49.2523 3.97432
55.1176 55.5876 3.96287
54.7269 53.1139 3.9628
50.1035 67.8462 0.0240101
49.3272 65.8885 2
48.6001 64.0721 3.97866
47.455 66.5622 0.0249563
45.5558 67.0837 2
46.8815 64.6842 2
46.3621 62.9877 3.98188
45.1231 65.1676 3.97982
43.6294 67.4545 3.9801
41.8587 69.8695 3.98337
43.973 69.5827 2
44.3734 71.8608 3.99017
46.0526 69.1495 0.0181235
46.6084 71.3654 2
47.2057 73.7222 4
48.7983 70.7213 0.0119681
49.554 73.0099 2
51.8506 72.1454 0
50.9531 5.13576 3.98803
53.0641 6.07584 2
54.0858 3.86728 4
55.0986 7.14418 0.0190705
56.25 5.02406 2
58.3339 6.31992 0
63.5293 46.6108 0.0251319
64.7812 42.9708 0.0234064
62.232 44.1157 0.0241676
63.2388 40.8839 0.0234692
65.4194 39.3555 0.0231626
67.7462 37.5251 0.0233669
65.5285 37.5058 2
63.3891 39.2483 2
62.7847 42.4816 2
61.8008 40.6443 2
61.3595 45.7782 2
60.7508 43.5683 2
63.4532 37.4617 3.97641
61.499 39.325 3.97673
60.4941 41.8663 3.97678
59.4669 44.6037 3.97559
65.519 35.6884 0.0230905
64.7992 32.2129 0.0237824
63.8185 34.2958 0.0236229
62.0318 30.7499 0.0243975
59.2214 15.7541 0.0455566
58.8385 18.5166 0.0408894
58.2874 21.0733 0.0350084
61.1178 27.2401 0.0251494
60.1898 29.3138 0.0242298
58.698 26.0374 0.0250153
57.7268 23.3479 0.0286898
57.3325 24.9443 0.024179
56.5842 15.8671 0.0449028
54.2673 16.1502 0.0442327
53.7828 13.7889 0.0326685
52.1063 8.17148 0.032748
53.0415 11.0932 0.0288129
63.6013 35.6616 2
62.3657 33.1249 2
59.8958 30.7705 2
57.7566 17.1248 2
57.3155 19.6936 2
56.8042 22.1165 2
58.862 28.1276 2
56.5419 24.2476 2
57.0147 26.0195 2
50.1112 7.29305 2
55.3564 17.1448 2
53.6066 17.1531 2
52.9039 15.4013 2
52.1499 12.8933 2
51.2172 10.1844 2
61.5418 35.4033 3.97644
59.5044 32.8639 3.9759
57.7554 30.2891 3.97512
56.4622 27.6691 3.97539
56.3618 18.3486 3.95728
55.526 25.4406 3.9747
55.868 20.7866 3.95774
55.4556 23.1857 3.96625
48.0547 6.53689 3.98147
49.3133 9.37081 3.97074
50.4013 12.0961 3.96542
51.3132 14.6278 3.96432
54.1894 18.1293 3.96112
52.2299 17.2331 3.95427
52.0629 66.9837 0.0265085
52.9348 64.1609 0.0307198
60.3697 47.7018 0.0259167
53.6304 61.4956 0.034248
56.5493 59.385 0.0471068
54.1857 59.2019 0.0354204
59.1927 51.909 0.0269446
57.3078 49.3606 0.0259637
56.4982 56.8181 0.0387873
56.5575 53.8791 0.0319871
51.1544 65.0883 2
52.0079 62.4518 2
55.308 58.1087 2
52.7327 59.9827 2
53.5178 58.3323 2
57.4446 46.5999 2
56.9195 51.5317 2
55.4359 49.2518 2
55.1169 55.5888 2
54.7258 53.1142 2
50.32 63.3286 3.97133
51.1676 60.8118 3.97237
54.008 57.1009 3.96784
52.1259 58.4581 3.97019
55.6207 43.9509 3.97555
54.528 47.5658 3.97554
54.2461 51.0738 3.96616
53.5504 54.3083 3.96495
49.3255 65.8871 0.0254966
48.5979 64.0815 2
47.9302 62.4205 3.98938
45.5542 67.0801 0.0216504
46.8803 64.6844 0.0227192
43.63 67.4552 2
46.3614 62.9888 2
45.1258 65.1619 2
45.9552 61.5142 3.99375
44.753 63.397 3.97466
43.3531 65.4827 3.97838
41.6629 67.6726 3.97884
39.7012 70.0167 3.98308
41.8602 69.871 2
42.1085 72.2047 3.99066
43.9708 69.5825 0.0167366
44.3756 71.8601 2
44.8159 74.2794 4
46.6056 71.366 0.0105128
47.2057 73.7222 2
49.554 73.0099 0
48.7847 4.32514 3.98861
50.9545 5.13502 2
51.8506 2.85458 4
53.0612 6.07556 0.0143881
54.0858 3.86728 2
56.25 5.02411 0
61.3595 45.7784 0.0248325
62.784 42.482 0.023743
60.7505 43.5682 0.0240113
61.8007 40.6445 0.0234577
63.3886 39.248 0.0236197
65.5296 37.5057 0.023157
63.4544 37.4618 2
61.4986 39.3255 2
60.4945 41.866 2
59.468 44.6035 2
61.3182 37.4502 3.9766
59.4159 39.7946 3.97677
58.063 42.776 3.97586
63.6006 35.6617 0.0237102
62.3643 33.1245 0.0239639
59.8948 30.7701 0.024564
57.7493 17.127 0.0443124
57.311 19.6944 0.0404829
56.8066 22.1129 0.034655
58.8615 28.1285 0.0248424
57.0156 26.0204 0.0248051
56.532 24.245 0.0265427
55.3608 17.1415 0.0441803
53.603 17.1612 0.0445658
52.9072 15.3987 0.0414313
50.1078 7.29805 0.0221167
52.1382 12.9043 0.0285321
51.2159 10.1892 0.0340307
61.5418 35.4033 2
59.5034 32.864 2
57.7571 30.2895 2
56.3629 18.3482 2
55.8913 20.7819 2
55.465 23.19 2
56.4638 27.6687 2
55.5296 25.4433 2
48.0541 6.53789 2
49.3131 9.36726 2
54.1898 18.133 2
52.222 17.2322 2
51.3162 14.6119 2
50.4039 12.0925 2
59.0375 35.1822 3.9765
57.003 32.4369 3.97518
55.5629 29.6168 3.97528
54.541 26.9698 3.97454
55.017 19.4173 3.96227
54.2163 24.4109 3.97206
54.4411 21.8708 3.9621
45.9618 5.89101 3.98407
43.3728 7.48341 3.98169
47.349 8.64512 3.9729
48.5757 11.3694 3.96741
49.6561 13.8563 3.96967
50.5219 16.2943 3.95098
52.8811 18.9115 3.96161
51.1411 18.3194 3.95551
51.1535 65.092 0.0300363
52.008 62.4452 0.036181
57.4445 46.6009 0.0250582
52.731 59.9793 0.0380474
55.3146 58.1085 0.0389145
53.5233 58.3292 0.0374066
56.9205 51.5322 0.0275076
55.4368 49.2523 0.0256827
55.1176 55.5876 0.037133
54.7269 53.1139 0.0372012
50.3169 63.3267 2
51.1678 60.8114 2
54.0006 57.1021 2
52.1174 58.4608 2
55.6234 43.9511 2
54.5283 47.5667 2
54.2412 51.0725 2
53.5456 54.31 2
49.5402 61.6854 3.97445
54.3012 41.5762 3.97413
50.4319 59.1849 3.96577
51.8624 56.288 3.96705
52.9593 45.2056 3.97273
52.3316 48.9647 3.96963
52.0153 52.5673 3.95905
48.6001 64.0721 0.0213393
47.9291 62.4212 2
47.2811 60.9436 3.98988
43.6294 67.4545 0.0199011
45.1231 65.1676 0.0201798
46.3621 62.9877 0.0181161
41.6639 67.6738 2
43.3582 65.4839 2
45.9574 61.5159 2
44.7538 63.3909 2
45.7201 60.5576 4.00245
44.4603 61.7611 3.97962
43.1376 63.681 3.97825
41.5452 65.623 3.97392
39.6327 67.7524 3.97828
37.5257 70.0412 3.98322
39.7021 70.0168 2
39.8162 72.402 3.99102
41.8587 69.8695 0.0166275
42.1101 72.2053 2
42.3947 74.6792 4
44.3734 71.8608 0.00983409
44.8159 74.2794 2
47.2057 73.7222 0
43.8514 5.36453 3.98462
46.5707 3.64999 3.98955
48.7846 4.3258 2
49.554 1.99015 4
50.9531 5.13576 0.0119671
51.8506 2.85453 2
54.0858 3.86728 0
59.4669 44.6037 0.0244126
60.4941 41.8663 0.0232238
61.499 39.325 0.0232665
63.4532 37.4617 0.0235895
61.3185 37.4502 2
59.4139 39.7935 2
58.063 42.7754 2
58.8857 37.5691 3.97685
56.968 40.5565 3.97752
53.6983 39.6147 3.97634
61.5418 35.4033 0.023558
59.5044 32.8639 0.024104
57.7554 30.2891 0.0248764
56.3618 18.3486 0.0427192
55.868 20.7866 0.0422607
55.4556 23.1857 0.0337461
56.4622 27.6691 0.0246076
55.526 25.4406 0.0253028
54.1894 18.1293 0.0388813
52.2299 17.2331 0.0457284
51.3132 14.6278 0.0356833
48.0547 6.53689 0.0185332
49.3133 9.37081 0.0292592
50.4013 12.0961 0.0345763
59.0362 35.1825 2
45.9609 5.88999 2
43.3712 7.48487 2
57.0012 32.4375 2
55.5652 29.6143 2
55.0059 19.4214 2
54.4753 21.8702 2
54.2115 24.4175 2
54.5434 26.9705 2
47.3477 8.64202 2
48.5777 11.3581 2
52.8711 18.8781 2
51.1364 18.321 2
50.5351 16.2942 2
49.6505 13.8679 2
56.3104 34.8537 3.9771
54.5775 31.7604 3.97448
53.4437 28.7541 3.97604
52.9202 25.896 3.97412
53.5984 20.4064 3.96412
52.9622 23.0681 3.9661
41.3988 7.08418 3.98301
45.3569 8.0072 3.98482
42.8644 9.4312 3.97359
46.6521 10.7045 3.97389
47.6964 13.1878 3.96922
48.8336 15.5235 3.97005
49.853 17.9105 3.96985
51.3969 19.6195 3.98559
50.32 63.3286 0.0286731
51.1676 60.8118 0.0276277
55.6207 43.9509 0.0244477
54.528 47.5658 0.0244582
52.1259 58.4581 0.0298081
54.008 57.1009 0.0321641
54.2461 51.0738 0.0338392
53.5504 54.3083 0.0350514
49.5408 61.6793 2
54.2991 41.5725 2
50.4293 59.1922 2
51.8669 56.2927 2
52.953 45.2032 2
52.3272 48.9628 2
52.0195 52.5683 2
48.7585 60.133 3.99757
50.9351 42.4167 3.98351
49.575 57.4684 3.9654
50.1286 54.1954 3.95984
50.6208 46.8629 3.97699
50.3988 50.6225 3.95253
46.682 43.3712 3.96032
47.9302 62.4205 0.010615
47.2846 60.9432 2
46.5519 59.725 3.99372
41.6629 67.6726 0.0211598
43.3531 65.4827 0.0216162
44.753 63.397 0.0253434
45.9552 61.5142 0.00624798
39.6339 67.7529 2
41.5489 65.619 2
45.7193 60.5609 2
43.1364 63.6773 2
44.4603 61.7609 2
44.5822 60.2104 3.99338
42.9318 62.0191 3.97799
41.5923 63.7903 3.9787
39.6465 65.592 3.97586
37.5635 67.7342 3.97684
31.6993 65.1059 3.97346
33.3931 67.4712 3.97738
35.3341 69.9521 3.98328
37.5257 70.0432 2
37.5093 72.456 3.99159
39.7012 70.0167 0.0169249
39.8172 72.402 2
39.9526 74.9197 4
42.1085 72.2047 0.00934336
42.3947 74.6792 2
44.8159 74.2794 0
41.7361 4.97174 3.98751
43.8504 5.36469 2
44.3265 3.11203 3.99132
46.5707 3.64971 2
47.2057 1.27793 4
48.7847 4.32514 0.0113889
49.554 1.99013 2
51.8506 2.85458 0
58.063 42.776 0.0241445
59.4159 39.7946 0.0232322
61.3182 37.4502 0.0234035
58.8838 37.5705 2
56.9706 40.5561 2
53.7007 39.615 2
55.6599 37.8818 3.97739
47.9526 41.1378 3.96683
51.4869 39.2346 3.979
39.4417 6.80975 3.98079
59.0375 35.1822 0.0235005
57.003 32.4369 0.0248211
55.5629 29.6168 0.0247237
55.017 19.4173 0.0377308
54.4411 21.8708 0.0379047
54.2163 24.4109 0.0279356
54.541 26.9698 0.0254552
52.8811 18.9115 0.038391
51.1411 18.3194 0.0444892
50.5219 16.2943 0.0490249
45.9618 5.89101 0.0159291
49.6561 13.8563 0.0303295
47.349 8.64512 0.0270968
48.5757 11.3694 0.0325929
43.3728 7.48341 0.0183121
56.3114 34.8575 2
41.3984 7.08641 2
45.3543 8.00638 2
42.8601 9.43474 2
54.5779 31.7625 2
53.4406 28.7531 2
53.6017 20.4129 2
52.9381 23.0733 2
52.9264 25.8965 2
46.6509 10.6936 2
47.6987 13.1821 2
51.3973 19.621 2
49.8528 17.9172 2
48.8422 15.5575 2
53.4958 34.0863 3.97529
52.2186 30.8339 3.97479
51.5753 27.6186 3.97505
51.419 24.5126 3.97211
51.9768 21.3778 3.98246
41.012 9.05546 3.97844
44.7224 10.0147 3.97705
42.4537 10.9162 4.00497
45.9607 12.7849 3.96694
47.6093 14.7126 3.96682
47.9796 17.1231 3.9773
49.6348 20.0244 3.98768
49.5402 61.6854 0.0255545
50.4319 59.1849 0.0342304
54.3012 41.5762 0.0258666
52.9593 45.2056 0.0272734
52.3316 48.9647 0.0303722
51.8624 56.288 0.0329507
52.0153 52.5673 0.0409523
48.7567 60.1298 2
50.9555 42.4356 2
49.5727 57.4677 2
50.1291 54.1977 2
50.6215 46.8622 2
50.4021 50.6225 2
46.691 43.4159 2
47.8613 58.6135 3.99016
48.6841 44.9253 3.98132
48.2891 55.7384 3.95432
48.5459 52.3345 3.98064
48.714 48.684 3.97096
44.3589 39.6878 3.81835
44.9104 42.3047 3.86579
45.2518 45.3125 3.97825
42.2533 40.9446 3.58728
41.2519 41.5172 3.38612
47.2811 60.9436 0.0101235
46.547 59.7304 2
45.3926 58.7093 3.99491
39.6327 67.7524 0.0217179
41.5452 65.623 0.026078
43.1376 63.681 0.0217454
44.4603 61.7611 0.0203811
45.7201 60.5576 -0.00245321
41.5951 63.7821 2
37.5642 67.7368 2
39.65 65.593 2
44.5813 60.2126 2
42.9312 62.0162 2
41.7406 62.4354 3.98376
42.4499 59.9091 3.98852
39.8881 63.527 3.97834
37.6412 65.4887 3.97429
35.4636 67.6437 3.976
33.5764 65.3193 3.9738
31.9655 63.2623 3.98216
29.8898 64.6926 3.9792
31.6967 65.1079 2
31.3792 67.1818 3.97815
33.3929 67.4731 2
33.158 69.745 3.98302
35.3334 69.9534 2
35.1963 72.3711 3.99174
37.5257 70.0412 0.0167837
37.5097 72.4566 2
37.5 75 4
39.8162 72.402 0.00897881
39.9526 74.9197 2
42.3947 74.6792 0
39.6242 4.71937 3.98771
41.7354 4.97224 2
42.063 2.71902 3.99207
43.8514 5.36453 0.0153783
44.3261 3.11193 2
44.8158 0.721173 4
46.5707 3.64999 0.0104494
47.2057 1.27779 2
49.554 1.99015 0
56.968 40.5565 0.0224822
58.8857 37.5691 0.0231528
53.6983 39.6147 0.0236583
47.9886 41.1558 2
55.6531 37.8776 2
51.5006 39.2249 2
52.4033 36.6269 3.97664
45.8803 40.2265 3.88266
48.8468 38.4802 3.96947
37.5156 6.6787 3.98421
39.442 6.81034 2
39.2094 8.70466 3.9799
35.9426 8.50143 3.9808
56.3104 34.8537 0.0229042
54.5775 31.7604 0.0255212
53.4437 28.7541 0.0239582
53.5984 20.4064 0.0358804
52.9622 23.0681 0.0338985
52.9202 25.896 0.025883
51.3969 19.6195 0.0144078
49.853 17.9105 0.0301512
48.8336 15.5235 0.0299457
45.3569 8.0072 0.0151814
47.6964 13.1878 0.0307816
46.6521 10.7045 0.0261124
41.3988 7.08418 0.0169901
42.8644 9.4312 0.0264143
53.4942 34.0879 2
41.0096 9.06063 2
44.7183 10.0144 2
42.4516 10.9274 2
52.2207 30.8291 2
51.5815 27.6175 2
51.9814 21.3793 2
51.4071 24.5178 2
45.9643 12.775 2
47.6037 14.6964 2
49.6451 20.0466 2
47.9815 17.1282 2
50.9109 33.0708 3.9761
50.0408 29.6014 3.97651
49.88 26.1231 3.97084
49.5288 22.5976 3.97818
40.5568 11.6121 3.98513
43.821 11.9397 3.96179
45.7323 15.5946 3.9898
47.3495 19.6215 3.97952
44.7212 37.4921 3.82669
48.7585 60.133 0.00243266
49.575 57.4684 0.0346014
50.9351 42.4167 0.0164905
50.6208 46.8629 0.0230066
50.3988 50.6225 0.0474683
50.1286 54.1954 0.0401648
46.682 43.3712 0.03968
47.8532 58.6186 2
48.6976 44.9411 2
48.285 55.7415 2
48.5458 52.3391 2
48.7185 48.6848 2
44.4871 39.7092 2
44.9448 42.3361 2
45.2594 45.3355 2
42.3196 41.0078 2
41.2931 41.5434 2
46.6588 57.2111 3.99162
42.8894 39.3641 3.57882
41.6335 40.506 3.36708
46.9382 46.9238 3.9901
46.7709 54.0247 3.95954
46.877 50.468 3.97394
43.9039 46.9377 3.98526
43.5759 41.6813 3.82265
43.7901 44.0801 3.85265
41.5215 42.1892 3.62959
40.3818 41.7932 3.31499
46.5519 59.725 0.00627969
45.3853 58.7093 2
43.7993 57.5791 3.991
37.5635 67.7342 0.0231611
39.6465 65.592 0.0241447
41.5923 63.7903 0.0213044
42.9318 62.0191 0.0220089
44.5822 60.2104 0.00661784
35.4637 67.6453 2
41.7387 62.431 2
39.8889 63.5299 2
37.6435 65.4925 2
42.4493 59.908 2
40.612 61.5829 3.9844
40.4223 58.0862 3.99104
37.8349 63.1818 3.9739
35.5728 65.4104 3.97459
33.5754 65.3156 2
31.9683 63.2585 2
33.6318 63.3115 3.98256
30.3914 62.8123 3.97874
32.1401 61.966 3.99241
26.9059 61.3937 3.98956
28.0767 64.1122 3.98529
29.889 64.689 2
29.4102 66.7428 3.97811
31.6993 65.1059 0.0265403
31.3789 67.1826 2
31.0161 69.4104 3.98265
33.3931 67.4712 0.0226214
33.1569 69.7465 2
32.8947 72.1451 3.99095
35.3341 69.9521 0.0167246
35.1958 72.3717 2
35.0474 74.9194 4
37.5093 72.456 0.00840703
37.5 75 2
39.9526 74.9197 0
35.6201 6.73078 3.98197
37.5241 4.61873 3.98846
39.6236 4.71929 2
39.7895 2.4754 3.99237
41.7361 4.97174 0.0124939
42.0624 2.71899 2
42.3946 0.32156 4
44.3265 3.11203 0.00868439
44.8159 0.72056 2
47.2057 1.27793 0
47.9526 41.1378 0.0331678
55.6599 37.8818 0.0226073
51.4869 39.2346 0.0210007
45.9238 40.2235 2
48.8709 38.454 2
52.4127 36.6251 2
49.6765 35.5729 3.97797
46.4849 37.708 3.85713
44.3856 35.2577 3.82158
42.3059 33.9864 3.58884
41.2941 33.413 3.38798
37.4578 8.5396 3.98346
37.5162 6.67927 2
39.4417 6.80975 0.0192085
39.2094 8.7066 2
38.9702 10.1397 3.99167
35.898 9.78479 3.982
34.1526 8.83356 3.97814
35.9429 8.5024 2
53.4958 34.0863 0.0247105
52.2186 30.8339 0.0252067
51.5753 27.6186 0.0249534
51.9768 21.3778 0.0175388
51.419 24.5126 0.0278937
49.6348 20.0244 0.0123176
47.9796 17.1231 0.0226964
47.6093 14.7126 0.0331812
44.7224 10.0147 0.0229495
45.9607 12.7849 0.0330581
41.012 9.05546 0.0215602
42.4537 10.9162 -0.00496619
50.9292 33.053 2
40.5619 11.6273 2
43.822 11.9288 2
50.0543 29.6004 2
49.8834 26.1371 2
49.5176 22.5668 2
45.7175 15.5354 2
47.3556 19.659 2
48.5079 31.6323 3.98097
48.2033 27.9001 3.97489
48.713 24.7372 3.97176
46.9082 22.4203 3.99278
38.2976 12.7639 3.97875
42.0602 14.4093 3.98616
44.6867 18.7092 3.99414
43.2143 37.4755 3.58715
44.8318 37.4794 2
47.8613 58.6135 0.00984163
48.2891 55.7384 0.04568
48.6841 44.9253 0.0186829
48.714 48.684 0.0290383
48.5459 52.3345 0.0193605
44.3589 39.6878 0.181654
44.9104 42.3047 0.134207
45.2518 45.3125 0.0217518
42.2533 40.9446 0.412717
41.2519 41.5172 0.613885
46.6544 57.2156 2
42.9818 39.3834 2
41.655 40.5166 2
46.9441 46.9267 2
46.7648 54.0285 2
46.8769 50.4802 2
43.9466 46.9501 2
43.6475 41.7378 2
43.8484 44.1157 2
41.5786 42.2826 2
40.4448 41.8127 2
45.1692 55.769 4.00202
41.9592 39.0767 3.37619
40.2467 40.4305 3.43344
45.2585 48.563 4.00323
45.0067 52.2582 3.9945
42.7238 47.9147 3.98952
42.576 45.5673 3.86026
42.6348 43.3945 3.80417
40.6347 43.0974 3.59339
39.12 42.0762 3.39994
45.3926 58.7093 0.00508954
43.792 57.5934 2
42.0256 56.1202 3.99631
35.4636 67.6437 0.0240024
37.6412 65.4887 0.0257107
39.8881 63.527 0.0216569
41.7406 62.4354 0.0162386
42.4499 59.9091 0.0114845
35.5741 65.4135 2
40.6102 61.5734 2
37.8362 63.1819 2
40.4204 58.0974 2
38.914 56.2664 3.99633
38.2432 60.2685 3.9855
35.6069 63.1772 3.97312
33.5764 65.3193 0.0262015
31.9655 63.2623 0.0178361
33.6337 63.3127 2
30.3933 62.8089 2
32.1452 61.9626 2
28.7019 62.1443 3.97755
33.3582 61.4751 3.98615
31.0986 61.1771 3.99408
27.6441 59.4918 3.97831
23.8923 58.9464 3.98185
25.0874 60.7519 3.98016
26.9065 61.3953 2
26.2524 63.435 3.97398
28.0768 64.1088 2
27.4703 66.1572 3.97721
29.8898 64.6926 0.0207996
29.4092 66.7461 2
28.9096 68.9344 3.98186
31.3792 67.1818 0.0218477
31.0144 69.4107 2
30.618 71.7768 3.99036
33.158 69.745 0.01698
32.8933 72.1458 2
32.6054 74.6784 4
35.1963 72.3711 0.0082566
35.0474 74.9197 2
37.5 75 0
33.7229 6.98726 3.98009
35.4362 4.68873 3.9878
35.621 6.73158 2
37.5153 2.38803 3.99254
37.5234 4.61844 2
39.6242 4.71937 0.0122947
39.7888 2.47524 2
39.9526 0.0806499 4
42.063 2.71902 0.00792702
42.3947 0.320817 2
44.8158 0.721173 0
42.9223 35.5786 3.58671
41.6722 34.4138 3.35153
45.8803 40.2265 0.117338
48.8468 38.4802 0.0305279
52.4033 36.6269 0.0233553
46.4997 37.7089 2
49.7082 35.6116 2
44.5001 35.2437 2
42.3635 33.921 2
41.3161 33.3858 2
46.7702 34.4698 3.92733
43.6341 33.2555 3.81508
41.566 32.7445 3.63286
40.4043 33.1447 3.3136
37.3075 10.6387 3.98116
37.4585 8.54112 2
37.5156 6.6787 0.0157909
39.2094 8.70466 0.0200986
38.9757 10.145 2
34.7564 10.3967 3.97618
35.9028 9.78454 2
32.3809 9.38429 3.97284
34.1523 8.83461 2
35.9426 8.50143 0.0191994
50.9109 33.0708 0.0239016
50.0408 29.6014 0.0234911
49.88 26.1231 0.0291606
49.5288 22.5976 0.0218209
47.3495 19.6215 0.0204844
45.7323 15.5946 0.0101951
43.821 11.9397 0.0382094
40.5568 11.6121 0.0148709
48.5281 31.6148 2
38.2991 12.7672 2
42.0718 14.4077 2
48.2018 27.8993 2
48.7146 24.7437 2
46.8984 22.4095 2
44.6905 18.7687 2
46.4857 29.9226 3.97834
46.4045 25.4428 3.97807
44.1135 21.7093 3.98531
36.5893 12.9803 3.97929
38.6608 14.9103 3.97915
41.6759 18.0357 3.99037
42.1226 37.4458 3.39834
43.2966 37.4763 2
44.7212 37.4921 0.173308
46.6588 57.2111 0.00837594
46.7709 54.0247 0.0404595
46.9382 46.9238 0.00990323
46.877 50.468 0.0260556
42.8894 39.3641 0.421176
43.5759 41.6813 0.177345
43.7901 44.0801 0.147345
43.9039 46.9377 0.0147398
41.5215 42.1892 0.370405
41.6335 40.506 0.632922
40.3818 41.7932 0.685013
45.1647 55.7717 2
41.9817 39.0845 2
40.3286 40.4222 2
45.2572 48.5881 2
45.0001 52.2618 2
42.7745 47.9391 2
42.6476 45.6371 2
42.6814 43.4278 2
40.7043 43.1867 2
39.0894 42.1137 2
43.4874 54.1975 4.00631
40.3113 38.9396 3.46552
39.0209 40.5279 3.42066
43.0609 50.0227 4.00335
41.4155 47.0467 3.91303
41.3289 44.6424 3.80195
39.3686 43.7538 3.58105
37.5101 42.2278 3.46583
43.7993 57.5791 0.00899894
42.0271 56.1107 2
40.3263 54.6818 3.99669
35.5728 65.4104 0.025407
37.8349 63.1818 0.0260975
40.612 61.5829 0.0155952
40.4223 58.0862 0.00895518
35.6096 63.1733 2
38.2401 60.2619 2
38.9165 56.2571 2
37.9872 54.945 3.99568
36.9359 57.4979 3.99379
35.368 60.8697 3.98732
33.6318 63.3115 0.0174366
30.3914 62.8123 0.0212593
32.1401 61.966 0.00759382
33.3641 61.4712 2
28.7007 62.1519 2
31.1038 61.1771 2
29.4587 60.2347 3.98484
32.3801 59.6266 3.99554
28.1339 58.2812 4.01271
27.6462 59.4909 2
25.4849 58.4754 3.97648
22.9006 58.0944 3.97101
23.4648 60.2165 3.97285
23.8941 58.9474 2
25.089 60.752 2
24.465 62.6993 3.97425
26.9059 61.3937 0.0104375
26.2526 63.4359 2
25.5589 65.4625 3.97409
28.0767 64.1122 0.0147133
27.468 66.1551 2
26.841 68.3227 3.98056
29.4102 66.7428 0.0218895
28.9069 68.9346 2
28.3738 71.262 3.98893
31.0161 69.4104 0.0173513
30.616 71.7763 2
30.1842 74.2788 4
32.8947 72.1451 0.00905082
32.6053 74.6792 2
35.0474 74.9194 0
31.7875 7.42939 3.97735
33.3485 4.92846 3.98627
33.7239 6.98781 2
35.2458 2.46394 3.99242
35.4353 4.68923 2
35.6201 6.73078 0.0180307
37.5 0 4
37.5143 2.38793 2
37.5241 4.61873 0.0115428
39.7895 2.4754 0.00763049
39.9526 0.0802889 2
42.3946 0.32156 0
41.9579 35.8129 3.33187
43.0269 35.5587 2
40.3053 34.478 3.44644
41.6862 34.3979 2
46.4849 37.708 0.142869
49.6765 35.5729 0.022025
44.3856 35.2577 0.17842
42.3059 33.9864 0.411157
41.2941 33.413 0.612019
46.8117 34.4724 2
43.6942 33.196 2
41.6149 32.6552 2
40.4527 33.1255 2
44.9415 31.94 3.88054
42.6791 31.5369 3.79406
40.6788 31.8383 3.59787
39.1228 32.8714 3.39811
35.6973 11.7997 3.97514
37.3159 10.6403 2
37.4578 8.5396 0.0165413
38.9702 10.1397 0.00833099
33.1052 11.2414 3.97313
34.7595 10.3939 2
35.898 9.78479 0.0179958
30.4886 10.0387 3.97404
32.3801 9.38463 2
34.1526 8.83356 0.0218594
48.5079 31.6323 0.0190258
48.2033 27.9001 0.0251065
48.713 24.7372 0.0282389
46.9082 22.4203 0.0072187
44.6867 18.7092 0.00585801
42.0602 14.4093 0.0138405
38.2976 12.7639 0.0212523
36.5858 12.9715 2
46.4731 29.8644 2
38.6675 14.8855 2
41.6639 18.0251 2
46.4105 25.4298 2
44.1005 21.6953 2
44.5775 28.0795 3.99391
43.3488 24.3594 4.01263
41.2178 21.0572 3.99499
35.7756 14.814 3.99222
38.6242 17.7817 3.99048
40.3677 37.4056 3.49461
42.151 37.4522 2
43.2143 37.4755 0.412846
45.1692 55.769 -0.00201744
45.0067 52.2582 0.00549715
45.2585 48.563 -0.00323193
41.9592 39.0767 0.623814
42.6348 43.3945 0.195832
42.576 45.5673 0.139738
42.7238 47.9147 0.0104816
40.6347 43.0974 0.406608
40.2467 40.4305 0.56656
39.12 42.0762 0.600059
43.4812 54.1951 2
40.3576 38.9435 2
39.0001 40.5325 2
43.0487 50.0445 2
41.4075 47.0723 2
41.3521 44.6857 2
37.5031 42.2537 2
39.3875 43.8418 2
41.6425 52.6458 4.00285
39.034 39.0033 3.40869
37.5059 40.568 3.48808
35.8979 42.0962 3.39644
40.6428 49.1714 3.98972
39.5957 45.3258 3.76901
37.5077 44.0574 3.6306
42.0256 56.1202 0.00369495
40.3228 54.6887 2
38.6956 53.416 3.99809
35.6069 63.1772 0.0268754
38.2432 60.2685 0.0145042
38.914 56.2664 0.00367004
35.3698 60.8506 2
36.9363 57.5012 2
37.9814 54.9385 2
36.344 55.0544 3.99794
34.508 58.4141 3.99805
33.3582 61.4751 0.0138511
28.7019 62.1443 0.0224482
31.0986 61.1771 0.00591509
32.3792 59.6293 2
29.4618 60.2419 2
30.3903 57.7001 3.98437
28.1354 58.2791 2
27.1394 56.7089 3.96426
27.6441 59.4918 0.021692
25.4875 58.4756 2
24.0737 56.6447 3.9595
21.5755 57.2245 3.95994
22.0764 59.4933 3.97223
22.9017 58.0963 2
22.7781 61.9166 3.97207
23.4666 60.217 2
23.8923 58.9464 0.0181471
25.0874 60.7519 0.0198446
24.4655 62.7011 2
23.6971 64.6716 3.9689
26.2524 63.435 0.0260212
25.5571 65.4641 2
24.8138 67.5834 3.97567
27.4703 66.1572 0.02279
26.838 68.3241 2
26.1693 70.603 3.98843
28.9096 68.9344 0.0181416
28.3712 71.2616 2
27.7943 73.7221 4
30.618 71.7768 0.00964022
30.1841 74.2794 2
32.6054 74.6784 0
29.8108 8.00833 3.97467
31.2537 5.33677 3.98463
31.7881 7.42881 2
32.9818 2.70203 3.99186
33.3475 4.92899 2
33.7229 6.98726 0.0199122
35.0474 0.080333 4
35.2446 2.46425 2
35.4362 4.68873 0.0121985
37.5 0 2
37.5153 2.38803 0.00745823
39.9526 0.0806499 0
40.4303 35.9247 3.49571
41.9948 35.8122 2
42.9223 35.5786 0.413287
28.5511 10.7159 3.97372
39.0225 34.4338 3.40644
40.316 34.4739 2
41.6722 34.4138 0.648472
46.7702 34.4698 0.0726721
43.6341 33.2555 0.184922
41.566 32.7445 0.36714
40.4043 33.1447 0.686403
44.9717 31.9167 2
42.7305 31.494 2
40.7428 31.7501 2
39.1051 32.8307 2
43.4374 30.2217 3.86374
41.3553 30.2805 3.80312
39.3786 31.1884 3.58617
37.5205 32.7403 3.46378
34.1038 12.9647 3.98036
35.7016 11.7896 2
37.3075 10.6387 0.0188366
31.1968 12.0136 3.97546
33.1067 11.2377 2
34.7564 10.3967 0.0238193
30.4846 10.0341 2
32.3809 9.38429 0.027155
46.4857 29.9226 0.0216575
46.4045 25.4428 0.0219331
36.5893 12.9803 0.0207117
44.1135 21.7093 0.0146903
41.6759 18.0357 0.00962502
38.6608 14.9103 0.0208454
35.7689 14.8287 2
44.5763 28.0794 2
38.6352 17.761 2
41.211 21.0373 2
43.345 24.336 2
33.6348 15.9239 3.98876
42.4898 26.8622 3.96864
40.7446 23.736 3.99844
38.3638 20.5909 3.9929
35.8281 17.6692 3.98362
39.0497 37.4799 3.39977
40.3962 37.4143 2
42.1226 37.4458 0.601656
43.4874 54.1975 -0.00631363
43.0609 50.0227 -0.00335
40.3113 38.9396 0.534481
41.3289 44.6424 0.19805
41.4155 47.0467 0.08697
39.3686 43.7538 0.418949
39.0209 40.5279 0.579345
37.5101 42.2278 0.534169
41.6309 52.6413 2
39.0102 38.9973 2
37.4962 40.5714 2
40.624 49.177 2
35.9227 42.1293 2
39.629 45.3984 2
37.499 44.1381 2
39.6822 51.3913 3.99915
37.5093 39.0002 3.46777
36.0196 40.5502 3.41723
34.6374 41.8223 3.31411
35.6466 43.7719 3.5805
38.595 47.9947 3.92076
37.5002 45.6169 3.80219
40.3263 54.6818 0.00330528
38.6893 53.4286 2
36.7702 52.7801 3.99819
35.368 60.8697 0.0126844
36.9359 57.4979 0.00620888
37.9872 54.945 0.00431585
34.5068 58.4299 2
36.3491 55.0478 2
33.3507 55.2525 4.0036
32.3801 59.6266 0.00445932
29.4587 60.2347 0.015157
30.3915 57.6891 2
28.9633 55.2194 3.99396
28.1339 58.2812 -0.012711
27.1429 56.7063 2
25.6498 54.9699 3.95646
22.2037 55.1322 3.95876
25.4849 58.4754 0.0235161
24.0759 56.6461 2
20.4671 56.855 3.96158
20.7636 58.6442 3.96022
21.5787 57.226 2
21.218 61.0499 3.96758
22.0763 59.4935 2
22.9006 58.0944 0.0289935
21.9182 63.7688 3.97191
22.7791 61.9183 2
23.4648 60.2165 0.0271499
24.465 62.6993 0.0257539
23.6956 64.6709 2
22.8422 66.7226 3.97246
25.5589 65.4625 0.0259092
24.811 67.5801 2
24.0136 69.8046 3.98721
26.841 68.3227 0.0194444
26.1656 70.6024 2
25.446 73.0099 4
28.3738 71.262 0.0110739
27.7943 73.7222 2
30.1842 74.2788 0
27.8215 8.67083 3.97446
29.156 5.88501 3.98147
29.8101 8.00477 2
30.7274 3.09951 3.99119
31.2527 5.33596 2
31.7875 7.42939 0.0226508
32.6053 0.320823 4
32.9803 2.70244 2
33.3485 4.92846 0.0137273
35.0474 0.0802903 2
35.2458 2.46394 0.00758183
37.5 0 0
38.9543 35.962 3.41584
40.4086 35.9204 2
41.9579 35.8129 0.668135
28.5467 10.7139 2
26.6344 11.4165 3.97332
29.2393 12.6677 3.97735
37.529 34.4044 3.48845
39.0447 34.4441 2
40.3053 34.478 0.553555
44.9415 31.94 0.119458
42.6791 31.5369 0.205935
40.6788 31.8383 0.402134
39.1228 32.8714 0.601887
43.4712 30.1918 2
41.3944 30.2326 2
39.3963 31.0994 2
37.5301 32.7115 2
41.7715 28.9468 3.85231
39.6125 29.6066 3.79213
37.516 30.8967 3.63174
35.9104 32.8834 3.40343
31.9429 14.5124 3.98453
34.1072 12.9663 2
35.6973 11.7997 0.0248627
31.1962 12.0031 2
33.1052 11.2414 0.026872
30.4886 10.0387 0.0259554
44.5775 28.0795 0.00609304
43.3488 24.3594 -0.0126268
35.7756 14.814 0.00778088
41.2178 21.0572 0.00501125
38.6242 17.7817 0.00951894
33.6175 15.9166 2
35.8426 17.5888 2
42.5572 26.8307 2
38.3377 20.629 2
40.7303 23.7446 2
33.5731 17.4637 3.99078
40.195 26.237 3.9642
38.0127 23.507 3.99688
35.5199 20.4035 3.99609
37.5317 37.4728 3.48653
39.0147 37.4717 2
40.3677 37.4056 0.505387
41.6425 52.6458 -0.00284666
40.6428 49.1714 0.0102754
39.034 39.0033 0.59131
39.5957 45.3258 0.23099
37.5077 44.0574 0.369397
37.5059 40.568 0.511917
35.8979 42.0962 0.603563
39.6661 51.3853 2
37.5003 39.0025 2
36.0065 40.5295 2
38.6181 48.0618 2
34.583 41.8422 2
35.6227 43.8589 2
37.5021 45.6812 2
37.6744 50.3493 3.98991
36.0674 39.0236 3.42075
34.7478 40.4682 3.4475
33.7508 41.5536 3.38929
34.3862 43.127 3.58931
35.3679 45.3916 3.79795
36.9321 47.6187 3.87584
38.6956 53.416 0.00190749
36.7842 52.7251 2
34.5213 52.1139 4.00056
34.508 58.4141 0.0019534
36.344 55.0544 0.00206277
33.3573 55.2618 2
30.8301 53.2058 3.99698
30.3903 57.7001 0.0156336
28.9675 55.2219 2
27.321 53.2307 3.9547
27.1394 56.7089 0.0357363
25.6543 54.9714 2
24.0972 53.2235 3.95338
21.1033 52.9459 3.95833
20.3092 55.6243 3.96056
22.2045 55.1323 2
24.0737 56.6447 0.0404974
19.6206 57.739 3.96188
20.461 56.8595 2
19.7549 60.1016 3.9729
20.7529 58.6497 2
21.5755 57.2245 0.0400622
20.2403 62.7618 3.97094
21.2229 61.0522 2
22.0764 59.4933 0.0277699
20.9464 65.7385 3.96952
21.917 63.77 2
22.7781 61.9166 0.0279336
23.6971 64.6716 0.0310975
22.8403 66.7202 2
21.9166 68.87 3.98444
24.8138 67.5834 0.0243337
24.0099 69.8019 2
23.1494 72.1454 4
26.1693 70.603 0.0115659
25.446 73.0099 2
27.7943 73.7221 0
25.8617 9.40286 3.97313
27.0709 6.55089 3.97905
27.8191 8.6677 2
28.49 3.64554 3.98988
29.1542 5.88353 2
29.8108 8.00833 0.0253339
30.1841 0.720592 4
30.7251 3.09947 2
31.2537 5.33677 0.0153727
32.6053 0.320817 2
32.9818 2.70203 0.00814274
35.0474 0.080333 0
37.5223 35.9515 3.45659
38.9322 35.9296 2
40.4303 35.9247 0.504289
24.7964 12.0925 3.96884
23.7915 14.4904 3.98051
28.5511 10.7159 0.0262776
26.6288 11.4154 2
29.2384 12.6664 2
27.3048 13.4329 3.97293
29.815 14.2226 3.99486
36.0056 34.4323 3.42763
37.5462 34.3963 2
39.0225 34.4338 0.593561
37.5205 32.7403 0.536224
43.4374 30.2217 0.136258
41.3553 30.2805 0.196882
39.3786 31.1884 0.413826
41.8009 28.8712 2
39.6332 29.5374 2
37.5191 30.8214 2
35.9364 32.8489 2
39.796 28.2304 3.85096
37.4813 29.3243 3.78928
35.6627 31.2107 3.58347
34.6349 33.1646 3.31972
30.9808 16.8734 3.99632
31.938 14.4954 2
34.1038 12.9647 0.0196377
31.1968 12.0136 0.0245408
42.4898 26.8622 0.031356
40.7446 23.736 0.00156145
33.6348 15.9239 0.0112386
35.8281 17.6692 0.0163821
38.3638 20.5909 0.00710072
33.544 17.507 2
35.4994 20.4648 2
40.2035 26.2145 2
38.0397 23.4992 2
32.9874 19.9773 3.99821
37.7549 25.9036 3.95785
35.3808 23.1579 4.01054
36.032 37.4702 3.40617
37.5091 37.4725 2
39.0497 37.4799 0.600228
39.6822 51.3913 0.00084575
38.595 47.9947 0.0792401
37.5093 39.0002 0.532232
37.5002 45.6169 0.197805
35.6466 43.7719 0.419499
36.0196 40.5502 0.58277
34.6374 41.8223 0.685887
37.6475 50.3858 2
36.1129 39.0087 2
34.6915 40.4818 2
36.9314 47.6854 2
33.711 41.5825 2
34.3184 43.2099 2
35.334 45.4517 2
35.5822 49.5519 3.98099
34.6455 39.0046 3.4903
33.371 40.5518 3.35359
33.4861 42.2229 3.63154
33.7191 44.6668 3.79302
34.6617 46.7902 3.85299
36.7702 52.7801 0.00181035
34.5042 52.1455 2
32.3842 50.917 4.00241
33.3507 55.2525 -0.00360467
30.8334 53.2015 2
28.9451 51.2752 3.98741
28.9633 55.2194 0.00604166
27.3267 53.2328 2
25.7134 51.445 3.95353
25.6498 54.9699 0.0435428
24.1023 53.2276 2
22.6924 51.4971 3.95612
20.0158 51.323 3.96421
19.4701 54.0615 3.96128
21.1079 52.9442 2
18.756 56.5436 3.96263
20.3076 55.627 2
22.2037 55.1322 0.0412448
18.4707 58.9945 3.95768
19.6178 57.7433 2
20.4671 56.855 0.0384184
18.6409 61.692 3.97692
19.757 60.1055 2
20.7636 58.6442 0.0397752
19.1407 64.6248 3.96863
20.2405 62.763 2
21.218 61.0499 0.0324231
19.8902 67.8077 3.98266
20.9439 65.7355 2
21.9182 63.7688 0.0280856
22.8422 66.7226 0.027538
21.9125 68.8673 2
20.9142 71.1327 4
24.0136 69.8046 0.0127896
23.1494 72.1455 2
25.446 73.0099 0
23.1167 12.8969 3.97683
23.9769 10.1854 3.97398
25.0246 7.32278 3.97624
25.8597 9.40306 2
26.2822 4.33027 3.98848
27.0679 6.55038 2
27.8215 8.67083 0.0255446
27.7943 1.27781 4
28.4866 3.64638 2
29.156 5.88501 0.0185271
30.1841 0.720551 2
30.7274 3.09951 0.00880674
32.6053 0.320823 0
36.006 35.9473 3.41349
37.562 35.964 2
38.9543 35.962 0.584165
24.7838 12.1308 2
23.7885 14.5015 2
22.5375 15.1682 3.98524
25.3829 14.0338 3.97402
24.1052 15.7445 4.01166
26.6344 11.4165 0.0266763
29.2393 12.6677 0.0226511
27.3149 13.408 2
29.8076 14.2238 2
28.4243 15.9879 3.99176
34.7721 34.5196 3.43626
36.0302 34.4304 2
37.529 34.4044 0.511549
35.9104 32.8834 0.596575
37.516 30.8967 0.368258
41.7715 28.9468 0.147693
39.6125 29.6066 0.207867
39.8468 28.1723 2
37.4912 29.2754 2
35.6433 31.1217 2
34.5792 33.1457 2
37.6336 27.9485 3.84928
35.4266 29.6243 3.78889
34.3746 31.8585 3.59515
33.7564 33.4375 3.38901
30.3298 19.6211 3.98287
30.9491 16.8746 2
31.9429 14.5124 0.0154742
40.195 26.237 0.0357977
38.0127 23.507 0.00311514
33.5731 17.4637 0.0092163
35.5199 20.4035 0.0039146
32.9967 20.0019 2
35.3326 23.1413 2
37.7358 25.8808 2
32.6212 22.7333 4.0027
35.2448 25.7702 3.98403
34.6353 37.5077 3.51153
36.026 37.4916 2
37.5317 37.4728 0.513471
37.6744 50.3493 0.0100936
36.9321 47.6187 0.124159
36.0674 39.0236 0.57925
35.3679 45.3916 0.202049
34.3862 43.127 0.410686
34.7478 40.4682 0.552502
33.7508 41.5536 0.610708
35.5613 49.5665 2
34.6216 39.0135 2
33.3529 40.5598 2
34.5948 46.8674 2
33.43 42.3158 2
33.6768 44.7133 2
33.5869 48.6868 3.97172
33.0633 39.1374 3.33671
32.7299 40.9786 3.58733
32.368 43.4293 3.80025
32.9501 45.794 3.84929
34.5213 52.1139 -0.000558345
32.4003 50.9154 2
30.5489 49.4243 4.00393
30.8301 53.2058 0.003021
28.9529 51.2792 2
27.276 49.6454 3.97746
27.321 53.2307 0.0452965
25.7182 51.4429 2
24.1782 49.8426 3.96863
24.0972 53.2235 0.0466232
22.6979 51.4947 2
21.385 49.9698 3.96744
18.7443 50.0444 3.97303
18.5191 52.5209 3.96654
20.0098 51.3232 2
17.9042 55.1268 3.96228
19.4666 54.0625 2
21.1033 52.9459 0.0416698
17.3491 57.7332 3.95855
18.7573 56.5444 2
20.3092 55.6243 0.0394422
17.1778 60.4686 3.95622
18.468 59.0003 2
19.6206 57.739 0.0381229
17.4135 63.4185 3.97322
18.6412 61.6934 2
19.7549 60.1016 0.0271038
17.9466 66.6107 3.97612
19.1371 64.6221 2
20.2403 62.7618 0.029064
18.75 69.9759 4
19.8866 67.8036 2
20.9464 65.7385 0.0304795
21.9166 68.87 0.0155636
20.9142 71.1327 2
23.1494 72.1454 0
21.6194 13.7217 3.96611
22.2013 11.0768 3.96704
23.1169 12.8871 2
23.0417 8.19076 3.97313
23.9746 10.204 2
24.1202 5.1448 3.98808
25.0204 7.32275 2
25.8617 9.40286 0.0268698
25.446 1.99014 4
26.2776 4.33151 2
27.0709 6.55089 0.020948
27.7943 1.27778 2
28.49 3.64554 0.0101203
30.1841 0.720592 0
34.7158 35.992 3.4703
36.0349 35.9567 2
37.5223 35.9515 0.543413
21.3931 15.9704 3.96163
24.7964 12.0925 0.0311608
23.7915 14.4904 0.0194948
25.3817 14.0086 2
22.5381 15.159 2
24.106 15.7541 2
23.3823 16.3747 3.96532
25.4586 16.2338 3.98578
27.3048 13.4329 0.0270721
29.815 14.2226 0.00513504
28.4156 16.0132 2
27.5709 19.0339 3.98353
33.3766 34.4451 3.3721
34.6922 34.5283 2
36.0056 34.4323 0.572371
34.6349 33.1646 0.680276
35.6627 31.2107 0.416532
37.4813 29.3243 0.210716
39.796 28.2304 0.149041
37.5877 27.915 2
33.7208 33.414 2
35.4159 29.5585 2
34.318 31.7741 2
35.3084 28.0402 3.86546
33.7015 30.3079 3.79713
33.48 32.7586 3.63659
29.9453 22.2305 4.00777
30.3266 19.6189 2
30.9808 16.8734 0.0036801
37.7549 25.9036 0.042152
35.3808 23.1579 -0.0105395
32.9874 19.9773 0.00179249
32.6047 22.695 2
35.2591 25.7626 2
32.2534 26.0427 4.01265
32.8935 37.4985 3.38981
34.6291 37.4988 2
36.032 37.4702 0.593829
35.5822 49.5519 0.0190052
34.6617 46.7902 0.147014
34.6455 39.0046 0.509704
33.7191 44.6668 0.206978
33.4861 42.2229 0.368458
33.371 40.5518 0.646405
33.5685 48.6743 2
33.0592 39.1451 2
32.6722 41.0429 2
32.94 45.8555 2
32.3236 43.4601 2
31.9226 47.4939 3.98615
32.1149 39.3895 3.58857
31.4062 41.7169 3.8177
31.4838 44.4524 3.85392
32.3842 50.917 -0.0024135
30.5574 49.4485 2
28.8096 47.8414 3.97345
28.9451 51.2752 0.0125873
27.2779 49.6464 2
25.6514 48.0853 3.97508
25.7134 51.445 0.0464714
24.1812 49.8406 2
22.7078 48.4006 3.97177
22.6924 51.4971 0.0438758
21.385 49.9677 2
19.902 48.7725 3.97525
17.6115 49.0736 3.9763
17.4233 51.1579 3.97228
18.7454 50.0432 2
16.9247 53.6496 3.9673
18.5169 52.521 2
20.0158 51.323 0.0357946
16.318 56.3097 3.96133
17.9004 55.1282 2
19.4701 54.0615 0.0387175
15.8347 59.1232 3.95484
17.3489 57.7352 2
18.756 56.5436 0.0373675
15.7948 62.078 3.96846
17.1767 60.4719 2
18.4707 58.9945 0.0423223
16.0928 65.2969 3.98016
17.4112 63.428 2
18.6409 61.692 0.0230757
16.6661 68.6801 4
17.9434 66.6062 2
19.1407 64.6248 0.0313743
18.75 69.9759 2
19.8902 67.8077 0.0173358
20.9142 71.1327 0
20.2636 14.7169 3.96933
21.6239 13.7222 2
20.5489 12.0891 3.97181
21.146 9.16731 3.97342
22.195 11.0893 2
23.1167 12.8969 0.0231735
22.02 6.08419 3.98628
23.0383 8.19464 2
23.9769 10.1854 0.0260152
23.1494 2.85457 4
24.1146 5.1475 2
25.0246 7.32278 0.0237554
25.446 1.99012 2
26.2822 4.33027 0.0115186
27.7943 1.27781 0
33.045 35.8707 3.37664
34.6619 35.9924 2
36.006 35.9473 0.586515
21.3997 15.9615 2
20.4653 17.1172 3.95813
22.2216 16.774 3.95459
25.3829 14.0338 0.0259772
22.5375 15.1682 0.0147609
24.1052 15.7445 -0.0116566
25.4571 16.2364 2
23.3845 16.3739 2
24.3578 18.6996 3.9836
27.3898 21.8295 3.99413
28.4243 15.9879 0.00824363
27.5599 19.0496 2
32.7471 34.0003 3.5847
33.3564 34.4386 2
34.7721 34.5196 0.563742
33.7564 33.4375 0.610992
34.3746 31.8585 0.404855
35.4266 29.6243 0.21111
37.6336 27.9485 0.150722
35.2924 27.9914 2
33.4349 32.6743 2
33.6575 30.253 2
33.1707 28.6704 3.8756
32.3706 31.5417 3.79696
29.4141 24.6957 4.01578
29.9221 22.2168 2
30.3298 19.6211 0.0171324
35.2448 25.7702 0.0159673
32.6212 22.7333 -0.00270272
32.2438 26.0073 2
30.5124 27.7228 3.98648
31.8084 37.482 3.58119
32.8827 37.4987 2
34.6353 37.5077 0.488467
33.5869 48.6868 0.0282787
32.9501 45.794 0.150714
33.0633 39.1374 0.663286
32.368 43.4293 0.19975
32.7299 40.9786 0.412667
31.8732 47.5239 2
32.0181 39.3995 2
31.3409 41.7767 2
31.4202 44.5063 2
30.2673 46.1113 3.98149
30.6461 39.7195 3.82477
30.096 42.7886 3.87413
30.5489 49.4243 -0.00392821
28.8113 47.8456 2
27.1147 46.2542 3.98092
27.276 49.6454 0.0225383
25.6549 48.0832 2
24.0045 46.6606 3.97641
24.1782 49.8426 0.0313744
22.7063 48.3996 2
20.9716 47.2764 3.97587
21.385 49.9698 0.0325637
19.9003 48.7714 2
18.4982 47.899 3.97634
16.8539 48.4427 3.97607
17.6107 49.0736 2
16.4695 49.9416 3.97509
15.9024 52.2111 3.97231
17.4247 51.1571 2
18.7443 50.0444 0.0269749
15.259 54.809 3.96543
16.9253 53.6493 2
18.5191 52.5209 0.0334596
14.6305 57.6392 3.95919
16.317 56.3109 2
17.9042 55.1268 0.0377237
14.2762 60.6533 3.9664
15.8335 59.1262 2
17.3491 57.7332 0.0414507
14.3375 63.8521 3.97106
15.7985 62.0775 2
17.1778 60.4686 0.0437792
14.6715 67.2507 4
16.0892 65.2927 2
17.4135 63.4185 0.0267765
16.6661 68.6801 2
17.9466 66.6107 0.0238831
18.75 69.9759 0
19.0125 15.9063 3.95758
20.2691 14.7064 2
19.006 13.2109 3.96926
21.6194 13.7217 0.0338926
20.5438 12.0923 2
19.3505 10.2657 3.97104
19.9949 7.14812 3.98467
21.1417 9.16419 2
22.2013 11.0768 0.0329636
20.9142 3.86727 4
22.0135 6.08756 2
23.0417 8.19076 0.0268688
23.1494 2.85451 2
24.1202 5.1448 0.0119249
25.446 1.99014 0
32.1356 35.5879 3.57654
33.0364 35.8641 2
34.7158 35.992 0.529705
21.3931 15.9704 0.0383692
22.227 16.771 2
20.4709 17.1139 2
19.5281 18.6068 3.95687
21.941 18.0871 3.99
25.4586 16.2338 0.0142197
23.3823 16.3747 0.0346757
24.3534 18.7114 2
22.6315 20.1484 3.97139
24.9834 21.6771 3.99345
27.0531 23.9787 3.98297
27.3887 21.7387 2
27.5709 19.0339 0.016466
31.4331 33.2668 3.81679
32.6881 33.9486 2
33.3766 34.4451 0.627904
33.48 32.7586 0.363407
33.7015 30.3079 0.202869
35.3084 28.0402 0.134542
33.1294 28.6289 2
32.3037 31.4841 2
31.1784 30.0337 3.8934
28.8035 26.8874 4.01217
29.4032 24.7057 2
29.9453 22.2305 -0.00776859
32.2534 26.0427 -0.0126473
30.5005 27.6991 2
30.2969 37.4698 3.82611
31.713 37.481 2
32.8935 37.4985 0.610186
31.9226 47.4939 0.0138474
31.4838 44.4524 0.14608
32.1149 39.3895 0.411431
31.4062 41.7169 0.182302
30.2768 46.1213 2
30.5435 39.7269 2
30.0651 42.82 2
28.6248 44.4564 3.96424
28.3911 40.3959 3.9193
28.8096 47.8414 0.0265522
27.1164 46.2538 2
25.351 44.7832 3.98035
25.6514 48.0853 0.0249242
24.0046 46.6591 2
22.0542 45.5922 3.97719
22.7078 48.4006 0.0282297
20.972 47.2752 2
19.2757 46.4617 3.97571
19.902 48.7725 0.024755
18.4984 47.899 2
17.1185 47.4739 3.97553
16.8551 48.4431 2
15.8359 48.7983 3.97521
17.6115 49.0736 0.0237028
16.4709 49.941 2
15.0043 50.7962 3.97452
14.2123 53.2811 3.97007
15.9029 52.2107 2
17.4233 51.1579 0.0277231
13.4863 56.0629 3.9614
15.2594 54.8091 2
16.9247 53.6496 0.0326966
12.8792 59.0943 3.95455
14.6295 57.6415 2
16.318 56.3097 0.0386707
12.6845 62.2921 3.96749
14.279 60.6544 2
15.8347 59.1232 0.0451593
12.7746 65.6939 4
14.3345 63.8455 2
15.7948 62.078 0.0315399
14.6714 67.2507 2
16.0928 65.2969 0.0198392
16.6661 68.6801 0
17.8709 17.31 3.95769
19.0214 15.8993 2
17.5469 14.4609 3.96422
20.2636 14.7169 0.0306716
19.0022 13.2023 2
17.6541 11.5158 3.97084
20.5489 12.0891 0.0281866
19.3459 10.2834 2
18.0546 8.34172 3.98145
18.75 5.0241 4
19.9882 7.15486 2
21.146 9.16731 0.0265767
20.9142 3.86727 2
22.02 6.08419 0.0137159
23.1494 2.85457 0
30.6533 35.276 3.8191
32.0362 35.5693 2
33.045 35.8707 0.623358
22.2216 16.774 0.0454084
20.4653 17.1172 0.0418687
21.9453 18.0817 2
19.5239 18.6027 2
18.4352 20.1769 3.96414
21.1946 19.6255 3.9765
24.3578 18.6996 0.0164044
22.6314 20.1435 2
24.9966 21.6404 2
22.8871 22.0161 3.97884
25.3725 23.3155 3.98135
26.4315 26.2671 3.98259
27.0546 23.9813 2
27.3898 21.8295 0.00587064
29.8553 32.6411 3.87361
31.3536 33.2169 2
32.7471 34.0003 0.415297
32.3706 31.5417 0.203035
33.1707 28.6704 0.124405
31.1582 30.0086 2
28.2487 29.5049 4.00791
28.7822 26.9029 2
29.4141 24.6957 -0.0157842
30.5124 27.7228 0.0135228
28.6236 37.3999 3.85671
30.1998 37.4827 2
31.8084 37.482 0.418809
30.2673 46.1113 0.0185145
30.096 42.7886 0.125871
30.6461 39.7195 0.175226
28.6283 44.5141 2
28.3472 40.4093 2
26.7764 42.9394 3.97926
25.711 39.3954 3.97792
27.1147 46.2542 0.0190815
25.3426 44.791 2
23.2982 43.6306 3.97533
24.0045 46.6606 0.023591
22.0524 45.5932 2
20.1047 44.7071 3.97498
20.9716 47.2764 0.0241312
19.2754 46.4625 2
17.501 45.9809 3.97535
18.4982 47.899 0.0236599
17.1188 47.4742 2
15.6181 47.4691 3.97522
16.8539 48.4427 0.0239329
15.8377 48.7983 2
14.3226 49.367 3.97486
16.4695 49.9416 0.0249141
15.0051 50.7957 2
13.2785 51.7345 3.97318
12.3783 54.4314 3.9643
14.2127 53.281 2
15.9024 52.2111 0.0276949
11.6172 57.421 3.95838
13.4867 56.0634 2
15.259 54.809 0.034567
11.1403 60.6203 3.96691
12.8797 59.0935 2
14.6305 57.6392 0.0408117
10.9835 64.0165 4
12.6829 62.2857 2
14.2762 60.6533 0.0336038
12.7745 65.694 2
14.3375 63.8521 0.0289413
14.6715 67.2507 0
16.7167 18.8263 3.96056
17.8708 17.3041 2
16.1845 15.8737 3.95603
19.0125 15.9063 0.0424245
17.5509 14.4573 2
16.0316 12.8647 3.96502
19.006 13.2109 0.0307436
17.6472 11.5182 2
16.2068 9.66924 3.97455
19.3505 10.2657 0.028956
18.049 8.34917 2
16.6661 6.31991 4
18.75 5.02404 2
19.9949 7.14812 0.015332
20.9142 3.86727 0
29.0505 34.907 3.88422
30.534 35.2393 2
32.1356 35.5879 0.423465
17.1731 21.6057 3.97027
21.941 18.0871 0.0100022
19.5281 18.6068 0.0431275
21.19 19.6199 2
18.4257 20.1719 2
20.3129 21.867 3.97408
22.6315 20.1484 0.0286105
24.9834 21.6771 0.00654652
22.8873 22.0111 2
25.3529 23.3737 2
23.7393 24.9264 3.97127
25.8198 28.8705 3.98431
26.4178 26.2776 2
27.0531 23.9787 0.0170292
27.7251 31.999 3.97706
29.8073 32.6218 2
31.4331 33.2668 0.183211
31.1784 30.0337 0.106602
28.2647 29.4612 2
28.8035 26.8874 -0.0121723
26.4271 36.8792 3.95765
28.5835 37.3866 2
30.2969 37.4698 0.173894
28.6248 44.4564 0.0357592
28.3911 40.3959 0.0806992
26.7517 42.9694 2
25.6676 39.3871 2
24.5487 41.6314 3.97732
23.4011 38.5132 3.97579
25.351 44.7832 0.0196541
23.2966 43.6352 2
21.0094 42.6753 3.97465
22.0542 45.5922 0.0228128
20.1062 44.708 2
17.9273 44.1754 3.97506
19.2757 46.4617 0.0242938
17.5012 45.9817 2
15.5911 45.9062 3.9753
17.1185 47.4739 0.0244741
15.6184 47.4693 2
13.8598 47.8461 3.975
15.8359 48.7983 0.024788
14.3237 49.3666 2
12.5166 50.1219 3.97492
15.0043 50.7962 0.0254754
13.2792 51.734 2
11.3696 52.7516 3.96683
10.4199 55.6764 3.96036
12.3782 54.4316 2
14.2123 53.2811 0.0299303
9.70659 58.8457 3.96956
11.6216 57.4201 2
13.4863 56.0629 0.038598
9.30605 62.2254 4
11.1388 60.6139 2
12.8792 59.0943 0.0454457
10.9835 64.0165 2
12.6845 62.2921 0.0325128
12.7746 65.6939 0
15.5185 20.3621 3.96541
16.7309 18.8256 2
14.9198 17.4122 3.95752
17.8709 17.31 0.0423126
16.1828 15.8681 2
14.4945 14.3377 3.96556
17.5469 14.4609 0.0357756
16.0343 12.8605 2
14.4506 11.1206 3.97337
17.6541 11.5158 0.0291629
16.2018 9.6778 2
14.6715 7.74927 4
18.0546 8.34172 0.0185546
16.6661 6.31988 2
18.75 5.0241 0
27.0066 34.4198 3.97339
29.0215 34.914 2
30.6533 35.276 0.180904
18.4691 22.5962 3.97468
16.0733 23.143 3.97267
17.171 21.6028 2
21.1946 19.6255 0.023497
18.4352 20.1769 0.0358646
20.3145 21.8651 2
20.4806 24.7193 3.97225
22.8871 22.0161 0.0211619
25.3725 23.3155 0.0186548
23.732 24.9205 2
23.1895 28.2168 3.97112
25.2952 31.5174 3.98325
25.8307 28.8243 2
26.4315 26.2671 0.0174062
27.6922 31.9681 2
29.8553 32.6411 0.126395
28.2487 29.5049 -0.00790806
24.1489 36.3353 3.97832
26.3903 36.8745 2
28.6236 37.3999 0.143286
26.7764 42.9394 0.020742
25.711 39.3954 0.0220787
24.5196 41.6366 2
23.4002 38.5103 2
22.1743 40.5174 3.97549
21.4708 37.7842 3.97793
23.2982 43.6306 0.0246708
21.0103 42.6743 2
18.4155 41.954 3.97569
20.1047 44.7071 0.0250203
17.9274 44.1756 2
15.6394 44.0437 3.97525
17.501 45.9809 0.0246459
15.5906 45.9066 2
13.5611 46.1534 3.9752
15.6181 47.4691 0.0247813
13.8601 47.8459 2
11.9064 48.4282 3.975
14.3226 49.367 0.0251385
12.5177 50.1213 2
10.5051 51.0028 3.96927
13.2785 51.7345 0.0268246
11.3705 52.7511 2
9.32395 53.8603 3.96179
8.39065 56.9812 3.97038
10.4217 55.6753 2
12.3783 54.4314 0.0357005
7.74927 60.3285 4
9.70561 58.8406 2
11.6172 57.421 0.0416208
9.306 62.2255 2
11.1403 60.6203 0.03309
10.9835 64.0165 0
14.3464 21.9151 3.97068
15.5206 20.3591 2
13.6612 19.0082 3.96139
16.7167 18.8263 0.0394394
14.9198 17.4084 2
13.0482 15.9202 3.959
16.1845 15.8737 0.0439725
14.5019 14.3339 2
12.7878 12.6952 3.96887
16.0316 12.8647 0.0349803
14.4465 11.1304 2
12.7746 9.30605 4
16.2068 9.66924 0.0254454
14.6715 7.74924 2
16.6661 6.31991 0
24.6788 33.9245 3.98188
26.9798 34.4037 2
29.0505 34.907 0.115781
18.3545 24.3369 3.97324
18.4774 22.5963 2
14.8857 24.6499 3.97416
16.0722 23.1402 2
17.1731 21.6057 0.0297288
20.0488 27.5207 3.9731
20.3129 21.867 0.025922
20.4837 24.7184 2
22.5739 30.9486 3.97391
23.7393 24.9264 0.0287277
23.1853 28.2246 2
25.2481 31.5517 2
25.8198 28.8705 0.015687
27.7251 31.999 0.0229366
21.5645 35.9825 3.97781
24.142 36.3341 2
26.4271 36.8792 0.04235
24.5487 41.6314 0.0226829
23.4011 38.5132 0.0242063
22.1785 40.5177 2
21.4744 37.7847 2
19.1991 38.9594 3.9771
21.0094 42.6753 0.0253494
18.4152 41.9537 2
15.6229 41.8185 3.97586
17.9273 44.1754 0.0249392
15.6384 44.0439 2
13.3198 44.2772 3.9754
15.5911 45.9062 0.0246955
13.5607 46.1535 2
11.4209 46.628 3.97528
13.8598 47.8461 0.0249963
11.9081 48.4275 2
9.77256 49.1712 3.97205
12.5166 50.1219 0.0250845
10.5064 51.002 2
8.34897 51.9784 3.96301
11.3696 52.7516 0.0331732
9.32227 53.8594 2
7.1993 55.0335 3.97121
6.31991 58.3339 4
8.38947 56.9765 2
10.4199 55.6764 0.0396355
7.74924 60.3285 2
9.70659 58.8457 0.0304363
9.30605 62.2254 0
13.7292 25.5323 3.97606
13.2352 23.4308 3.97401
14.3477 21.9125 2
12.4753 20.6511 3.96438
15.5185 20.3621 0.0345883
13.6546 19.0034 2
11.7147 17.5994 3.95774
14.9198 17.4122 0.0424829
13.0583 15.9175 2
11.2266 14.3816 3.96547
14.4945 14.3377 0.0344362
12.7868 12.7047 2
10.9835 10.9835 4
14.4506 11.1206 0.0266284
12.7745 9.306 2
14.6715 7.74927 0
21.9378 33.5749 3.97657
24.6785 33.9013 2
27.0066 34.4198 0.0266136
16.6682 26.6372 3.97417
18.358 24.3361 2
18.4691 22.5962 0.0253161
14.8821 24.6489 2
16.0733 23.143 0.0273282
19.4468 30.4132 3.9747
20.0507 27.5187 2
20.4806 24.7193 0.0277479
22.5896 30.9445 2
23.1895 28.2168 0.0288799
25.2952 31.5174 0.0167463
18.7731 36.0205 3.97761
21.5662 35.9837 2
24.1489 36.3353 0.0216792
22.1743 40.5174 0.0245061
21.4708 37.7842 0.0220726
19.1993 38.9582 2
15.1041 39.1421 3.97685
18.4155 41.954 0.0243119
15.6222 41.8182 2
13.006 42.2007 3.97593
15.6394 44.0437 0.0247543
13.319 44.2772 2
11.0039 44.7201 3.97596
13.5611 46.1534 0.0247963
11.4225 46.6276 2
9.14869 47.2604 3.97442
11.9064 48.4282 0.0250034
9.77437 49.1703 2
7.50455 50.0164 3.96413
10.5051 51.0028 0.0307339
8.34678 51.9774 2
6.13947 53.009 3.97149
9.32395 53.8603 0.0382111
7.19876 55.0294 2
5.0241 56.25 4
6.31988 58.3339 2
8.39065 56.9812 0.0296193
7.74927 60.3285 0
14.0336 26.9796 3.97496
12.3406 24.9214 3.9752
13.7266 25.531 2
11.3975 22.3274 3.96772
13.2355 23.4291 2
14.3464 21.9151 0.0293175
12.4715 20.6478 2
10.4904 19.3574 3.95993
13.6612 19.0082 0.0386093
11.7318 17.5998 2
9.76708 16.1623 3.96899
13.0482 15.9202 0.0410002
11.2265 14.3877 2
9.30607 12.7746 4
12.7878 12.6952 0.0311263
10.9835 10.9835 2
12.7746 9.30605 0
18.9412 33.2373 3.97561
21.9345 33.5784 2
24.6788 33.9245 0.0181236
16.2984 29.8227 3.97505
16.6664 26.6373 2
18.3545 24.3369 0.0267619
14.8857 24.6499 0.0258364
19.4405 30.4129 2
20.0488 27.5207 0.0268994
22.5739 30.9486 0.0260898
15.7536 36.0527 3.97707
18.7735 36.0207 2
21.5645 35.9825 0.022188
13.2401 37.8267 3.97699
19.1991 38.9594 0.0228961
15.1037 39.1418 2
12.4927 40.1009 3.97643
15.6229 41.8185 0.024137
13.005 42.2004 2
10.5956 42.7215 3.97611
13.3198 44.2772 0.0245989
11.005 44.7196 2
8.62135 45.2738 3.97565
11.4209 46.628 0.0247157
9.15099 47.2594 2
6.78427 47.9858 3.96453
9.77256 49.1712 0.0279534
7.50208 50.0155 2
5.21564 50.912 3.97149
8.34897 51.9784 0.0369905
6.13939 53.0059 2
3.86727 54.0858 4
7.1993 55.0335 0.0287895
5.02404 56.25 2
6.31991 58.3339 0
13.5084 29.1638 3.97436
11.7879 26.6036 3.97468
14.0322 26.9799 2
10.4383 24.0447 3.97144
12.3421 24.9204 2
13.7292 25.5323 0.0239447
9.34383 21.1708 3.96215
11.3962 22.3257 2
13.2352 23.4308 0.0259931
12.4753 20.6511 0.0356222
10.4999 19.3579 2
8.42313 18.0306 3.97035
11.7147 17.5994 0.042257
9.76633 16.167 2
7.74928 14.6715 4
11.2266 14.3816 0.0345288
9.30602 12.7745 2
10.9835 10.9835 0
15.271 32.9551 3.97621
18.9418 33.2388 2
21.9378 33.5749 0.0234251
16.2982 29.8227 2
16.6682 26.6372 0.0258307
19.4468 30.4132 0.0253042
13.552 36.2294 3.97659
15.7543 36.0526 2
18.7731 36.0205 0.0223923
13.2392 37.8265 2
11.8016 38.3003 3.97657
15.1041 39.1421 0.0231546
12.4916 40.1011 2
10.1626 40.7212 3.97657
13.006 42.2007 0.0240734
10.5967 42.721 2
8.16538 43.2353 3.97631
11.0039 44.7201 0.0240393
8.62483 45.2728 2
6.18058 45.8944 3.96493
9.14869 47.2604 0.0255764
6.782 47.985 2
4.42656 48.752 3.97147
7.50455 50.0164 0.0358668
5.2159 50.9097 2
2.85457 51.8506 4
6.13947 53.009 0.0285053
3.86727 54.0858 2
5.0241 56.25 0
12.6274 31.3415 3.97569
11.1958 28.511 3.97516
13.5085 29.1636 2
9.64235 25.863 3.97385
11.7884 26.6038 2
14.0336 26.9796 0.0250445
8.30979 23.047 3.96402
10.4404 24.0445 2
12.3406 24.9214 0.0248007
7.20512 19.9781 3.97149
9.34959 21.1718 2
11.3975 22.3274 0.0322787
10.4904 19.3574 0.0400666
8.42249 18.0351 2
6.31992 16.6661 4
9.76708 16.1623 0.0310134
7.74926 14.6714 2
9.30607 12.7746 0
12.6676 34.3438 3.97662
15.2704 32.9558 2
18.9412 33.2373 0.024392
16.2984 29.8227 0.0249467
11.3247 36.6246 3.97653
13.5519 36.2294 2
15.7536 36.0527 0.0229319
13.2401 37.8267 0.0230137
11.8007 38.3 2
9.73304 38.8111 3.97688
12.4927 40.1009 0.023573
10.1633 40.7209 2
7.76582 41.1898 3.9765
10.5956 42.7215 0.0238909
8.16791 43.2344 2
5.68126 43.7608 3.9656
8.62135 45.2738 0.0243492
6.17672 45.8939 2
3.77162 46.5371 3.97198
6.78427 47.9858 0.0354668
4.42717 48.7503 2
1.99014 49.554 4
5.21564 50.912 0.0285117
2.85451 51.8506 2
3.86727 54.0858 0
11.4056 32.9781 3.97643
10.492 30.4509 3.97567
12.626 31.3417 2
8.94198 27.7852 3.97451
11.1969 28.5113 2
13.5084 29.1638 0.0256362
7.42026 25 3.96452
9.64505 25.8633 2
11.7879 26.6036 0.0253176
6.12162 22.0005 3.97197
8.31096 23.0478 2
10.4383 24.0447 0.0285626
5.02411 18.75 4
7.20481 19.9818 2
9.34383 21.1708 0.0378451
8.42313 18.0306 0.0296504
6.3199 16.6661 2
7.74928 14.6715 0
10.8988 35.0279 3.97636
12.6664 34.3439 2
15.271 32.9551 0.0237922
9.38061 36.9898 3.97697
11.3239 36.6246 2
13.552 36.2294 0.0234084
11.8016 38.3003 0.0234325
9.73402 38.8108 2
7.42943 39.1728 3.9765
10.1626 40.7212 0.0234322
7.76932 41.1891 2
5.28905 41.6095 3.96603
8.16538 43.2353 0.0236865
5.67854 43.7603 2
3.24904 44.2817 3.97284
6.18058 45.8944 0.0350651
3.77249 46.5358 2
1.27781 47.2057 4
4.42656 48.752 0.0285332
1.99012 49.554 2
2.85457 51.8506 0
10.518 33.9191 3.97616
9.75125 32.2022 3.97637
11.4051 32.9783 2
8.27414 29.736 3.97499
10.493 30.4514 2
12.6274 31.3415 0.0243103
6.6497 27.0215 3.96457
8.94497 27.7857 2
11.1958 28.511 0.024845
5.17629 24.0935 3.97182
7.41839 25.0005 2
9.64235 25.863 0.0261515
3.86728 20.9142 4
6.1217 22.0031 2
8.30979 23.047 0.035981
5.02406 18.75 2
7.20512 19.9781 0.0285143
6.31992 16.6661 0
9.18719 35.2988 3.97702
10.8982 35.0279 2
12.6676 34.3438 0.0233816
7.19618 37.2071 3.97622
9.38197 36.9897 2
11.3247 36.6246 0.0234689
9.73304 38.8111 0.0231236
7.43272 39.1724 2
5.01036 39.4658 3.96633
7.76582 41.1898 0.0234998
5.28679 41.6092 2
2.85925 42.002 3.97341
5.68126 43.7608 0.0343958
3.24973 44.2807 2
0.720592 44.8159 4
3.77162 46.5371 0.0280193
1.27778 47.2057 2
1.99014 49.554 0
9.22201 33.7292 3.97698
10.5181 33.9193 2
7.69842 31.6382 3.97542
9.75334 32.2027 2
11.4056 32.9781 0.023568
5.98354 29.0794 3.96481
8.27703 29.7367 2
10.492 30.4509 0.0243276
4.36315 26.2468 3.97198
6.64657 27.0219 2
8.94198 27.7852 0.0254944
2.85458 23.1494 4
5.17672 24.0953 2
7.42026 25 0.0354849
3.86728 20.9142 2
6.12162 22.0005 0.0280344
5.02411 18.75 0
7.13722 35.3163 3.97594
9.18916 35.2989 2
10.8988 35.0279 0.0236423
4.85465 37.3407 3.96633
7.19933 37.2069 2
9.38061 36.9898 0.0230332
7.42943 39.1728 0.0235027
5.0079 39.4656 2
2.6071 39.7138 3.97382
5.28905 41.6095 0.033966
2.86021 42.0015 2
0.320823 42.3947 4
3.24904 44.2817 0.0271606
0.720551 44.8159 2
1.27781 47.2057 0
7.29983 33.4799 3.97575
9.22421 33.7296 2
10.518 33.9191 0.0238355
5.44263 31.1406 3.9653
7.70118 31.6388 2
9.75125 32.2022 0.0236343
3.68428 28.4436 3.97236
5.97943 29.0797 2
8.27414 29.736 0.0250076
1.99015 25.446 4
4.3638 26.2481 2
6.6497 27.0215 0.0354303
2.85453 23.1494 2
5.17629 24.0935 0.0281788
3.86728 20.9142 0
4.86687 35.2545 3.96604
7.13936 35.3164 2
9.18719 35.2988 0.0229848
2.49854 37.4286 3.9746
4.8516 37.3407 2
7.19618 37.2071 0.0237794
5.01036 39.4658 0.033668
2.60823 39.7138 2
0.080333 39.9526 4
2.85925 42.002 0.0265928
0.320817 42.3947 2
0.720592 44.8159 0
5.06318 33.1951 3.96573
7.30191 33.4803 2
9.22201 33.7292 0.0230229
3.14826 30.6669 3.97307
5.43811 31.1409 2
7.69842 31.6382 0.0245848
1.27793 27.7943 4
3.68521 28.4447 2
5.98354 29.0794 0.035186
1.99013 25.446 2
4.36315 26.2468 0.0280241
2.85458 23.1494 0
2.55053 35.1595 3.97441
4.86471 35.2548 2
7.13722 35.3163 0.0240588
0 37.5 4
2.49922 37.4289 2
4.85465 37.3407 0.0336694
2.6071 39.7138 0.0261835
0.0802903 39.9526 2
0.320823 42.3947 0
2.76826 32.9065 3.97412
5.06038 33.1954 2
7.29983 33.4799 0.024252
0.721173 30.1842 4
3.14937 30.6678 2
5.44263 31.1406 0.0346962
1.27779 27.7943 2
3.68428 28.4436 0.027639
1.99015 25.446 0
0.0806499 35.0474 4
2.5518 35.16 2
4.86687 35.2545 0.0339635
0 37.5 2
2.49854 37.4286 0.025396
0.080333 39.9526 0
0.32156 32.6054 4
2.76903 32.9073 2
5.06318 33.1951 0.0342724
0.72056 30.1841 2
3.14826 30.6669 0.0269348
1.27793 27.7943 0
0.0802889 35.0474 2
2.55053 35.1595 0.0255904
0 37.5 0
0.320817 32.6053 2
2.76826 32.9065 0.0258837
0.721173 30.1842 0
0.0806499 35.0474 0
0.32156 32.6054 0
CELLS 1910 17190
8 18 6 25 56 2 0 5 16
8 57 23 6 18 17 4 0 2
8 78 36 9 29 31 11 1 7
8 31 11 1 7 79 37 10 30
8 110 57 18 50 48 17 2 14
8 50 18 56 111 14 2 16 49
8 116 62 22 55 52 20 3 15
8 56 25 67 118 16 5 24 53
8 119 63 23 57 54 21 4 17
8 55 22 63 119 15 3 21 54
8 58 26 68 121 18 6 25 56
8 122 65 26 58 57 23 6 18
8 73 31 7 27 142 79 30 71
8 143 78 29 72 73 31 7 27
8 83 147 76 34 32 74 28 8
8 84 148 78 36 33 75 29 9
8 76 34 8 28 148 84 33 75
8 37 79 150 86 10 30 77 35
8 151 87 36 78 80 38 11 31
8 80 38 11 31 152 88 37 79
8 175 100 42 94 96 44 12 40
8 44 96 176 101 12 40 95 43
8 101 176 98 46 43 95 41 13
8 46 98 178 103 13 41 97 45
8 178 103 45 97 147 83 32 74
8 189 116 55 109 106 52 15 47
8 111 56 118 191 49 16 53 107
8 192 119 57 110 108 54 17 48
8 109 55 119 192 47 15 54 108
8 194 122 58 112 110 57 18 50
8 112 58 121 195 50 18 56 111
8 115 61 19 51 197 124 59 113
8 115 61 125 198 51 19 60 114
8 198 125 62 116 114 60 20 52
8 200 127 64 120 116 62 22 55
8 118 67 132 202 53 24 66 117
8 121 68 133 203 56 25 67 118
8 120 64 128 204 55 22 63 119
8 204 128 65 122 119 63 23 57
8 206 134 68 121 123 69 26 58
8 123 69 26 58 207 131 65 122
8 226 147 74 138 140 76 28 70
8 229 148 75 139 143 78 29 72
8 140 76 28 70 229 148 75 139
8 142 79 30 71 231 150 77 141
8 144 80 31 73 232 152 79 142
8 233 151 78 143 144 80 31 73
8 150 86 35 77 235 154 81 145
8 235 154 81 145 146 82 39 91
8 146 82 39 91 236 155 90 165
8 238 157 83 147 149 85 34 76
8 239 158 84 148 151 87 36 78
8 149 85 34 76 239 158 84 148
8 152 88 37 79 241 160 86 150
8 242 161 87 151 153 89 38 80
8 153 89 38 80 243 162 88 152
8 171 98 41 92 265 178 97 169
8 265 178 97 169 226 147 74 138
8 172 96 40 93 266 176 95 170
8 266 176 95 170 171 98 41 92
8 269 175 94 173 172 96 40 93
8 271 180 99 174 175 100 42 94
8 197 124 59 113 271 180 99 174
8 272 181 100 175 177 102 44 96
8 273 182 101 176 179 104 46 98
8 177 102 44 96 273 182 101 176
8 179 104 46 98 275 184 103 178
8 275 184 103 178 238 157 83 147
8 188 115 51 105 283 197 113 186
8 188 115 198 284 105 51 114 187
8 284 198 116 189 187 114 52 106
8 286 200 120 193 189 116 55 109
8 191 118 202 288 107 53 117 190
8 195 121 203 289 111 56 118 191
8 193 120 204 290 109 55 119 192
8 290 204 122 194 192 119 57 110
8 196 123 58 112 292 207 122 194
8 293 206 121 195 196 123 58 112
8 199 126 61 115 297 211 124 197
8 298 212 127 200 198 125 62 116
8 199 126 212 298 115 61 125 198
8 205 129 64 120 300 214 127 200
8 301 217 130 201 202 132 66 117
8 209 136 168 264 301 217 130 201
8 302 219 132 202 203 133 67 118
8 303 220 133 203 206 134 68 121
8 205 129 215 304 120 64 128 204
8 304 215 131 207 204 128 65 122
8 306 221 134 206 208 135 69 123
8 208 135 69 123 307 218 131 207
8 210 137 167 263 309 223 136 209
8 328 238 147 226 230 149 76 140
8 228 146 91 166 329 236 165 260
8 231 150 77 141 330 235 145 227
8 330 235 145 227 228 146 91 166
8 332 239 148 229 233 151 78 143
8 230 149 76 140 332 239 148 229
8 232 152 79 142 334 241 150 231
8 234 153 80 144 335 243 152 232
8 336 242 151 233 234 153 80 144
8 236 155 90 165 338 245 164 259
8 241 160 86 150 339 246 154 235
8 339 246 154 235 237 156 82 146
8 237 156 82 146 340 247 155 236
8 342 249 157 238 240 159 85 149
8 343 250 158 239 242 161 87 151
8 240 159 85 149 343 250 158 239
8 243 162 88 152 345 252 160 241
8 244 163 253 346 153 89 161 242
8 244 163 89 153 347 254 162 243
8 311 224 261 371 210 137 167 263
8 263 167 262 372 209 136 168 264
8 267 179 98 171 375 275 178 265
8 375 275 178 265 328 238 147 226
8 376 273 176 266 267 179 98 171
8 268 177 96 172 376 273 176 266
8 379 272 175 269 268 177 96 172
8 380 271 174 270 269 175 94 173
8 283 197 113 186 380 271 174 270
8 381 277 180 271 272 181 100 175
8 297 211 124 197 381 277 180 271
8 382 278 181 272 274 183 102 177
8 274 183 102 177 383 279 182 273
8 383 279 182 273 276 185 104 179
8 385 281 184 275 342 249 157 238
8 276 185 104 179 385 281 184 275
8 285 199 115 188 393 297 197 283
8 394 298 200 286 284 198 116 189
8 285 199 298 394 188 115 198 284
8 291 205 120 193 396 300 200 286
8 397 301 201 287 288 202 117 190
8 295 209 264 374 397 301 201 287
8 398 302 202 288 289 203 118 191
8 399 303 203 289 293 206 121 195
8 291 205 304 400 193 120 204 290
8 400 304 207 292 290 204 122 194
8 294 208 123 196 402 307 207 292
8 403 306 206 293 294 208 123 196
8 296 210 263 373 405 309 209 295
8 408 312 213 299 297 211 126 199
8 299 213 313 409 199 126 212 298
8 409 313 214 300 298 212 127 200
8 305 216 129 205 411 315 214 300
8 412 318 217 301 302 219 132 202
8 309 223 136 209 412 318 217 301
8 413 320 219 302 303 220 133 203
8 306 221 321 414 206 134 220 303
8 307 218 131 207 415 316 215 304
8 305 216 316 415 205 129 215 304
8 417 322 221 306 308 222 135 208
8 308 222 135 208 418 319 218 307
8 310 225 137 210 420 325 223 309
8 423 326 224 311 310 225 137 210
8 329 236 165 260 441 338 259 368
8 442 342 238 328 333 240 149 230
8 331 237 146 228 443 340 236 329
8 334 241 150 231 444 339 235 330
8 444 339 235 330 331 237 146 228
8 446 343 239 332 336 242 151 233
8 333 240 149 230 446 343 239 332
8 335 243 152 232 448 345 241 334
8 337 244 153 234 449 347 243 335
8 337 244 346 450 234 153 242 336
8 338 245 164 259 452 349 258 367
8 340 247 155 236 453 350 245 338
8 345 252 160 241 454 351 246 339
8 454 351 246 339 341 248 156 237
8 341 248 156 237 455 352 247 340
8 240 159 251 344 342 249 354 457
8 242 161 253 346 343 250 355 458
8 343 250 355 458 240 159 251 344
8 347 254 162 243 460 357 252 345
8 348 255 358 461 244 163 253 346
8 348 255 163 244 462 359 254 347
8 473 360 257 365 363 256 364 482
8 452 349 258 367 365 257 366 485
8 422 324 369 488 311 224 261 371
8 371 261 370 490 263 167 262 372
8 407 311 371 491 296 210 263 373
8 373 263 372 492 295 209 264 374
8 493 385 275 375 442 342 238 328
8 377 276 179 267 493 385 275 375
8 378 274 177 268 494 383 273 376
8 494 383 273 376 377 276 179 267
8 497 382 272 379 378 274 177 268
8 498 381 271 380 379 272 175 269
8 393 297 197 283 498 381 271 380
8 499 387 277 381 382 278 181 272
8 408 312 211 297 499 387 277 381
8 500 388 278 382 384 280 183 274
8 501 389 279 383 386 282 185 276
8 384 280 183 274 501 389 279 383
8 386 282 185 276 503 391 281 385
8 503 391 281 385 457 354 249 342
8 511 408 299 395 393 297 199 285
8 395 299 409 512 285 199 298 394
8 512 409 300 396 394 298 200 286
8 401 305 205 291 514 411 300 396
8 515 412 301 397 398 302 202 288
8 405 309 209 295 515 412 301 397
8 516 413 302 398 399 303 203 289
8 403 306 414 517 293 206 303 399
8 402 307 207 292 518 415 304 400
8 401 305 415 518 291 205 304 400
8 404 308 208 294 520 418 307 402
8 521 417 306 403 404 308 208 294
8 406 310 210 296 523 420 309 405
8 526 423 311 407 406 310 210 296
8 410 314 213 299 527 424 312 408
8 528 425 315 411 409 313 214 300
8 410 314 425 528 299 213 313 409
8 416 317 216 305 530 427 315 411
8 531 430 318 412 413 320 219 302
8 420 325 223 309 531 430 318 412
8 532 432 320 413 414 321 220 303
8 417 322 433 533 306 221 321 414
8 418 319 218 307 534 428 316 415
8 416 317 428 534 305 216 316 415
8 419 323 434 536 308 222 322 417
8 419 323 222 308 537 431 319 418
8 421 327 225 310 539 438 325 420
8 421 327 439 541 310 225 326 423
8 543 437 324 422 423 326 224 311
8 441 338 259 368 559 452 367 486
8 443 340 236 329 560 453 338 441
8 333 240 344 447 442 342 457 561
8 445 341 237 331 562 455 340 443
8 448 345 241 334 563 454 339 444
8 563 454 339 444 445 341 237 331
8 336 242 346 450 446 343 458 565
8 446 343 458 565 333 240 344 447
8 449 347 243 335 567 460 345 448
8 451 348 244 337 568 462 347 449
8 451 348 461 569 337 244 346 450
8 570 463 349 452 473 360 257 365
8 453 350 245 338 570 463 349 452
8 455 352 247 340 571 464 350 453
8 460 357 252 345 572 465 351 454
8 572 465 351 454 456 353 248 341
8 456 353 248 341 573 466 352 455
8 344 251 356 459 457 354 468 575
8 458 355 469 576 344 251 356 459
8 346 253 358 461 458 355 469 576
8 462 359 254 347 578 471 357 460
8 348 255 359 462 461 358 472 579
8 591 474 360 473 475 361 256 363
8 475 361 256 363 594 477 362 479
8 363 256 364 482 479 362 480 603
8 590 473 365 484 481 363 482 605
8 482 364 257 365 606 483 366 485
8 559 452 367 486 484 365 485 607
8 542 436 487 609 422 324 369 488
8 525 422 488 611 407 311 371 491
8 488 369 489 612 371 261 370 490
8 491 371 490 613 373 263 372 492
8 495 386 276 377 614 503 385 493
8 614 503 385 493 561 457 342 442
8 615 501 383 494 495 386 276 377
8 496 384 274 378 615 501 383 494
8 618 500 382 497 496 384 274 378
8 619 499 381 498 497 382 272 379
8 511 408 297 393 619 499 381 498
8 620 505 387 499 500 388 278 382
8 527 424 312 408 620 505 387 499
8 502 390 506 621 384 280 388 500
8 622 507 389 501 504 392 282 386
8 502 390 280 384 622 507 389 501
8 504 392 282 386 624 509 391 503
8 624 509 391 503 575 468 354 457
8 513 410 299 395 630 527 408 511
8 631 528 411 514 512 409 300 396
8 513 410 528 631 395 299 409 512
8 519 416 305 401 633 530 411 514
8 634 531 412 515 516 413 302 398
8 523 420 309 405 634 531 412 515
8 635 532 413 516 517 414 303 399
8 521 417 533 636 403 306 414 517
8 520 418 307 402 637 534 415 518
8 519 416 534 637 401 305 415 518
8 522 419 308 404 639 537 418 520
8 522 419 536 640 404 308 417 521
8 524 421 310 406 642 539 420 523
8 524 421 541 644 406 310 423 526
8 646 543 422 525 526 423 311 407
8 529 426 314 410 647 544 424 527
8 528 425 545 648 411 315 427 530
8 529 426 545 648 410 314 425 528
8 535 429 317 416 649 546 427 530
8 650 548 430 531 532 432 320 413
8 539 438 325 420 650 548 430 531
8 533 433 550 651 414 321 432 532
8 536 434 551 652 417 322 433 533
8 537 431 319 418 653 547 428 534
8 535 429 547 653 416 317 428 534
8 538 435 552 654 419 323 434 536
8 538 435 323 419 655 549 431 537
8 540 440 327 421 657 556 438 539
8 540 440 557 659 421 327 439 541
8 541 439 555 660 423 326 437 543
8 661 554 436 542 543 437 324 422
8 676 570 452 559 590 473 365 484
8 560 453 338 441 676 570 452 559
8 562 455 340 443 677 571 453 560
8 447 344 459 566 561 457 575 678
8 564 456 341 445 679 573 455 562
8 567 460 345 448 680 572 454 563
8 680 572 454 563 564 456 341 445
8 565 458 576 682 447 344 459 566
8 450 346 461 569 565 458 576 682
8 568 462 347 449 684 578 460 567
8 451 348 462 568 569 461 579 685
8 686 580 463 570 591 474 360 473
8 571 464 350 453 686 580 463 570
8 573 466 352 455 687 581 464 571
8 572 465 582 688 460 357 471 578
8 574 467 582 688 456 353 465 572
8 574 467 353 456 689 583 466 573
8 459 356 470 577 575 468 585 691
8 576 469 586 692 459 356 470 577
8 461 358 472 579 576 469 586 692
8 462 359 471 578 579 472 588 694
8 704 591 473 590 593 475 363 481
8 595 476 592 705 475 361 474 591
8 593 475 363 481 707 594 479 602
8 594 477 362 479 709 598 478 600
8 595 476 361 475 711 597 477 594
8 479 362 480 603 600 478 601 720
8 481 363 482 605 602 479 603 722
8 603 480 364 482 723 604 483 606
8 605 482 365 484 724 606 485 607
8 656 553 608 726 542 436 487 609
8 645 542 609 728 525 422 488 611
8 609 487 610 729 488 369 489 612
8 611 488 612 730 491 371 490 613
8 616 504 386 495 731 624 503 614
8 731 624 503 614 678 575 457 561
8 732 622 501 615 616 504 386 495
8 617 502 384 496 732 622 501 615
8 617 502 621 735 496 384 500 618
8 736 620 499 619 618 500 382 497
8 630 527 408 511 736 620 499 619
8 621 506 626 737 500 388 505 620
8 647 544 424 527 737 626 505 620
8 623 508 627 738 502 390 506 621
8 623 508 390 502 739 628 507 622
8 625 510 628 739 504 392 507 622
8 740 629 509 624 691 585 468 575
8 625 510 392 504 740 629 509 624
8 632 529 410 513 744 647 527 630
8 631 528 648 745 514 411 530 633
8 632 529 648 745 513 410 528 631
8 638 535 416 519 746 649 530 633
8 747 650 531 634 635 532 413 516
8 642 539 420 523 747 650 531 634
8 636 533 651 748 517 414 532 635
8 640 536 652 749 521 417 533 636
8 639 537 418 520 750 653 534 637
8 638 535 653 750 519 416 534 637
8 641 538 419 522 751 655 537 639
8 641 538 654 752 522 419 536 640
8 643 540 421 524 753 657 539 642
8 643 540 659 755 524 421 541 644
8 644 541 660 757 526 423 543 646
8 758 661 542 645 646 543 422 525
8 529 426 544 647 648 545 662 759
8 530 427 545 648 649 546 663 760
8 535 429 546 649 653 547 664 761
8 762 666 548 650 651 550 432 532
8 657 556 438 539 762 666 548 650
8 652 551 668 763 533 433 550 651
8 654 552 669 764 536 434 551 652
8 655 549 431 537 765 665 547 653
8 538 435 549 655 654 552 667 766
8 661 554 671 768 542 436 553 656
8 658 558 440 540 769 674 556 657
8 658 558 675 770 540 440 557 659
8 659 557 673 771 541 439 555 660
8 660 555 672 772 543 437 554 661
8 788 686 570 676 704 591 473 590
8 677 571 453 560 788 686 570 676
8 679 573 455 562 789 687 571 677
8 566 459 577 683 678 575 691 790
8 681 574 456 564 791 689 573 679
8 680 572 688 792 567 460 578 684
8 681 574 688 792 564 456 572 680
8 682 576 692 794 566 459 577 683
8 569 461 579 685 682 576 692 794
8 568 462 578 684 685 579 694 796
8 687 581 464 571 798 696 580 686
8 798 696 580 686 705 592 474 591
8 689 583 466 573 799 697 581 687
8 688 582 698 800 578 471 588 694
8 690 584 698 800 574 467 582 688
8 690 584 467 574 801 699 583 689
8 693 587 701 803 577 470 585 691
8 693 587 470 577 804 702 586 692
8 695 589 702 804 579 472 586 692
8 695 589 472 579 805 703 588 694
8 708 595 705 813 593 475 591 704
8 710 596 706 814 595 476 592 705
8 707 594 479 602 816 709 600 719
8 708 595 475 593 817 711 594 707
8 709 598 478 600 819 715 599 717
8 711 597 477 594 820 714 598 709
8 710 596 476 595 822 713 597 711
8 600 478 601 720 717 599 718 832
8 602 479 603 722 719 600 720 834
8 720 601 480 603 835 721 604 723
8 722 603 482 605 836 723 606 724
8 767 670 725 839 656 553 608 726
8 756 656 726 841 645 542 609 728
8 726 608 727 842 609 487 610 729
8 728 609 729 843 611 488 612 730
8 844 740 624 731 790 691 575 678
8 733 625 504 616 844 740 624 731
8 734 623 502 617 845 739 622 732
8 733 625 739 845 616 504 622 732
8 734 623 738 846 617 502 621 735
8 735 621 737 847 618 500 620 736
8 744 647 527 630 847 737 620 736
8 621 506 627 738 737 626 741 848
8 647 544 626 737 759 662 741 848
8 623 508 628 739 738 627 742 849
8 740 629 585 691 850 743 700 802
8 625 510 629 740 739 628 743 850
8 632 529 647 744 745 648 759 854
8 633 530 648 745 746 649 760 855
8 638 535 649 746 750 653 761 856
8 857 762 650 747 748 651 532 635
8 753 657 539 642 857 762 650 747
8 749 652 763 858 636 533 651 748
8 752 654 764 859 640 536 652 749
8 751 655 537 639 860 765 653 750
8 641 538 655 751 752 654 766 861
8 754 658 540 643 862 769 657 753
8 754 658 770 863 643 540 659 755
8 755 659 771 864 644 541 660 757
8 758 661 768 866 645 542 656 756
8 757 660 772 867 646 543 661 758
8 759 662 773 868 648 545 663 760
8 649 546 663 760 761 664 774 871
8 765 665 547 653 872 775 664 761
8 873 777 666 762 763 668 550 651
8 769 674 556 657 873 777 666 762
8 764 669 779 874 652 551 668 763
8 654 552 667 766 764 669 778 875
8 655 549 665 765 766 667 776 876
8 768 671 782 877 656 553 670 767
8 772 672 783 878 661 554 671 768
8 658 558 674 769 770 675 786 879
8 659 557 675 770 771 673 785 881
8 882 784 672 772 771 673 555 660
8 789 687 571 677 897 798 686 788
8 897 798 686 788 813 705 591 704
8 791 689 573 679 898 799 687 789
8 795 693 803 900 683 577 691 790
8 793 690 574 681 901 801 689 791
8 792 688 800 902 684 578 694 796
8 793 690 800 902 681 574 688 792
8 795 693 577 683 903 804 692 794
8 797 695 804 903 685 579 692 794
8 797 695 579 685 904 805 694 796
8 905 806 697 799 798 696 581 687
8 814 706 806 905 705 592 696 798
8 689 583 697 799 801 699 808 907
8 800 698 809 908 694 588 703 805
8 690 584 699 801 800 698 809 908
8 803 701 810 909 691 585 700 802
8 693 587 702 804 803 701 811 910
8 695 589 703 805 804 702 812 911
8 818 710 814 919 708 595 705 813
8 821 712 815 920 710 596 706 814
8 816 709 600 719 922 819 717 831
8 817 711 594 707 923 820 709 816
8 818 710 595 708 924 822 711 817
8 819 715 599 717 926 827 716 829
8 820 714 598 709 927 826 715 819
8 929 825 713 822 820 714 597 711
8 821 712 596 710 930 824 713 822
8 717 599 718 832 829 716 830 942
8 719 600 720 834 831 717 832 944
8 832 718 601 720 945 833 721 835
8 834 720 603 722 946 835 723 836
8 869 780 838 950 767 670 725 839
8 865 767 839 952 756 656 726 841
8 839 725 840 953 726 608 727 842
8 841 726 842 954 728 609 729 843
8 844 740 691 790 955 850 802 899
8 733 625 740 844 845 739 850 955
8 734 623 739 845 846 738 849 956
8 735 621 738 846 847 737 848 957
8 744 647 737 847 854 759 848 957
8 738 627 742 849 848 741 851 958
8 848 741 851 958 759 662 773 868
8 850 743 700 802 959 852 807 906
8 849 742 628 739 959 852 743 850
8 854 759 868 965 745 648 760 855
8 746 649 760 855 856 761 871 966
8 860 765 653 750 967 872 761 856
8 968 873 762 857 858 763 651 748
8 862 769 657 753 968 873 762 857
8 859 764 874 969 749 652 763 858
8 752 654 766 861 859 764 875 970
8 751 655 765 860 861 766 876 971
8 754 658 769 862 863 770 879 972
8 755 659 770 863 864 771 881 974
8 976 882 772 867 864 771 660 757
8 866 768 877 977 756 656 767 865
8 867 772 878 978 758 661 768 866
8 760 663 773 868 871 774 883 980
8 870 781 837 948 982 890 780 869
8 982 890 780 869 877 782 670 767
8 761 664 774 871 872 775 884 984
8 876 776 665 765 985 885 775 872
8 873 777 668 763 986 887 779 874
8 769 674 777 873 879 786 887 986
8 764 669 778 875 874 779 888 987
8 766 667 776 876 875 778 886 988
8 878 783 892 989 768 671 782 877
8 878 783 672 772 990 893 784 882
8 880 787 675 770 991 896 786 879
8 880 787 895 992 770 675 785 881
8 881 785 894 993 771 673 784 882
8 1006 905 799 898 897 798 687 789
8 919 814 905 1006 813 705 798 897
8 791 689 799 898 901 801 907 1007
8 900 803 909 1009 790 691 802 899
8 795 693 804 903 900 803 910 1010
8 902 800 908 1011 796 694 805 904
8 793 690 801 901 902 800 908 1011
8 797 695 805 904 903 804 911 1012
8 799 697 806 905 907 808 912 1013
8 920 815 912 1013 814 706 806 905
8 802 700 810 909 906 807 913 1014
8 801 699 808 907 908 809 914 1015
8 805 703 809 908 911 812 915 1016
8 803 701 811 910 909 810 916 1017
8 911 812 917 1018 804 702 811 910
8 925 821 920 1030 818 710 814 919
8 928 823 921 1031 821 712 815 920
8 922 819 717 831 1033 926 829 941
8 923 820 709 816 1034 927 819 922
8 1035 929 822 924 923 820 711 817
8 925 821 710 818 1036 930 822 924
8 1038 933 825 929 927 826 714 820
8 926 827 716 829 1039 935 828 939
8 927 826 715 819 1040 934 827 926
8 928 823 712 821 1041 931 824 930
8 1042 932 824 930 929 825 713 822
8 829 716 830 942 939 828 940 1058
8 831 717 832 944 941 829 942 1060
8 942 830 718 832 1061 943 833 945
8 944 832 720 834 1062 945 835 946
8 981 889 947 1064 870 781 837 948
8 948 837 949 1067 869 780 838 950
8 975 869 950 1069 865 767 839 952
8 950 838 951 1070 839 725 840 953
8 952 839 953 1071 841 726 842 954
8 955 850 802 899 1072 959 906 1008
8 956 849 739 845 1072 959 850 955
8 846 738 849 956 957 848 958 1073
8 957 848 958 1073 854 759 868 965
8 849 742 852 959 958 851 961 1076
8 960 853 961 1076 906 807 852 959
8 958 851 961 1076 868 773 883 980
8 960 853 807 906 1077 963 913 1014
8 855 760 868 965 966 871 980 1085
8 856 761 871 966 967 872 984 1086
8 971 876 765 860 1087 985 872 967
8 968 873 763 858 1088 986 874 969
8 862 769 873 968 972 879 986 1088
8 859 764 875 970 969 874 987 1089
8 861 766 876 971 970 875 988 1090
8 973 880 770 863 1091 991 879 972
8 973 880 992 1092 863 770 881 974
8 974 881 993 1093 864 771 882 976
8 979 870 948 1066 1094 982 869 975
8 1094 982 869 975 977 877 767 865
8 978 878 772 867 1095 990 882 976
8 978 878 989 1096 866 768 877 977
8 871 774 883 980 984 884 994 1099
8 983 891 999 1100 870 781 889 981
8 1101 1000 890 982 989 892 782 877
8 983 891 781 870 1101 1000 890 982
8 872 775 884 984 985 885 995 1103
8 876 776 885 985 988 886 996 1104
8 986 887 779 874 1105 998 888 987
8 879 786 887 986 991 896 998 1105
8 875 778 886 988 987 888 997 1106
8 990 893 1002 1107 878 783 892 989
8 1108 1003 893 990 993 894 784 882
8 880 787 896 991 992 895 1005 1109
8 993 894 785 881 1110 1004 895 992
8 898 799 905 1006 1007 907 1013 1120
8 1030 920 1013 1120 919 814 905 1006
8 901 801 907 1007 1011 908 1015 1121
8 899 802 909 1009 1008 906 1014 1122
8 900 803 910 1010 1009 909 1017 1123
8 1012 911 1018 1124 903 804 910 1010
8 904 805 908 1011 1012 911 1016 1125
8 1013 912 1020 1127 907 808 914 1015
8 1031 921 1020 1127 920 815 912 1013
8 1019 918 962 1075 1128 1021 913 1014
8 1128 1021 913 1014 1017 916 810 909
8 1015 914 1022 1129 908 809 915 1016
8 1016 915 1023 1130 911 812 917 1018
8 1018 917 1024 1131 910 811 916 1017
8 1037 928 1031 1148 925 821 920 1030
8 928 823 931 1041 1031 921 1032 1149
8 1033 926 829 941 1151 1039 939 1057
8 1034 927 819 922 1152 1040 926 1033
8 1153 1038 929 1035 1034 927 820 923
8 1154 1042 930 1036 1035 929 822 924
8 1037 928 821 925 1155 1041 930 1036
8 1039 935 828 939 1156 1047 938 1055
8 1157 1043 932 1042 1038 933 825 929
8 1038 933 826 927 1158 1045 934 1040
8 1040 934 827 926 1159 1046 935 1039
8 930 824 932 1042 1041 931 1044 1160
8 1051 936 1048 1165 1175 1052 937 1053
8 1156 1047 938 1055 1053 937 1054 1178
8 939 828 940 1058 1055 938 1056 1181
8 941 829 942 1060 1057 939 1058 1183
8 942 830 943 1061 1058 940 1059 1184
8 1060 942 832 944 1185 1061 945 1062
8 1082 964 1063 1188 981 889 947 1064
8 1097 981 1064 1190 979 870 948 1066
8 1064 947 1065 1191 948 837 949 1067
8 1066 948 1067 1193 975 869 950 1069
8 1067 949 1068 1194 950 838 951 1070
8 1069 950 1070 1195 952 839 953 1071
8 956 849 959 1072 1073 958 1076 1197
8 1074 960 1076 1197 1008 906 959 1072
8 1073 958 1076 1197 965 868 980 1085
8 1074 960 906 1008 1198 1077 1014 1122
8 1133 1026 1079 1199 1019 918 962 1075
8 1077 963 913 1014 1200 1080 962 1075
8 960 853 963 1077 1076 961 1078 1201
8 980 883 961 1076 1099 994 1078 1201
8 1210 1083 964 1082 1100 999 889 981
8 966 871 980 1085 1086 984 1099 1215
8 967 872 984 1086 1087 985 1103 1216
8 971 876 985 1087 1090 988 1104 1217
8 1088 986 874 969 1218 1105 987 1089
8 972 879 986 1088 1091 991 1105 1218
8 970 875 988 1090 1089 987 1106 1219
8 973 880 991 1091 1092 992 1109 1220
8 1093 993 881 974 1221 1110 992 1092
8 1222 1108 990 1095 1093 993 882 976
8 1223 1101 982 1094 1096 989 877 977
8 1098 983 870 979 1223 1101 982 1094
8 1095 990 1107 1224 978 878 989 1096
8 1098 983 1100 1225 979 870 981 1097
8 984 884 994 1099 1103 995 1111 1227
8 1102 1001 1115 1228 983 891 999 1100
8 1101 1000 892 989 1229 1116 1002 1107
8 1102 1001 891 983 1229 1116 1000 1101
8 985 885 995 1103 1104 996 1112 1230
8 988 886 996 1104 1106 997 1113 1231
8 1105 998 888 987 1232 1114 997 1106
8 991 896 998 1105 1109 1005 1114 1232
8 1108 1003 1117 1233 990 893 1002 1107
8 1108 1003 894 993 1233 1117 1004 1110
8 992 895 1005 1109 1110 1004 1118 1234
8 1120 1013 1127 1244 1007 907 1015 1121
8 1148 1031 1127 1244 1030 920 1013 1120
8 1121 1015 1129 1245 1011 908 1016 1125
8 1126 1019 1075 1196 1246 1128 1014 1122
8 1246 1128 1014 1122 1123 1017 909 1009
8 1124 1018 1131 1247 1010 910 1017 1123
8 1125 1016 1130 1248 1012 911 1018 1124
8 1127 1020 1137 1254 1015 914 1022 1129
8 1031 921 1032 1149 1127 1020 1137 1254
8 1134 1027 918 1019 1257 1140 1021 1128
8 1257 1140 1021 1128 1131 1024 916 1017
8 1129 1022 1141 1258 1016 915 1023 1130
8 1130 1023 1142 1259 1018 917 1024 1131
8 1261 1144 1025 1132 1133 1026 1079 1199
8 1255 1138 1025 1132 1135 1028 1144 1261
8 1133 1026 918 1019 1262 1145 1027 1134
8 1136 1029 1139 1256 1263 1146 1028 1135
8 1037 928 1041 1155 1148 1031 1149 1275
8 1041 931 1044 1160 1149 1032 1150 1276
8 1151 1039 939 1057 1278 1156 1055 1180
8 1152 1040 926 1033 1279 1159 1039 1151
8 1153 1038 927 1034 1280 1158 1040 1152
8 1281 1157 1042 1154 1153 1038 929 1035
8 1036 930 1042 1154 1155 1041 1160 1282
8 1283 1164 1046 1159 1156 1047 935 1039
8 1165 1048 1164 1283 1053 937 1047 1156
8 1157 1043 933 1038 1284 1161 1045 1158
8 1157 1043 1161 1284 1042 932 1044 1160
8 1040 934 1046 1159 1158 1045 1163 1285
8 1166 1049 1167 1292 1051 936 1048 1165
8 1166 1049 936 1051 1293 1168 1050 1172
8 1051 936 1052 1175 1172 1050 1173 1306
8 1174 1051 1165 1290 1308 1175 1053 1177
8 1053 937 1054 1178 1175 1052 1176 1309
8 1278 1156 1055 1180 1177 1053 1178 1311
8 1055 938 1056 1181 1178 1054 1179 1312
8 1057 939 1058 1183 1180 1055 1181 1314
8 1058 940 1059 1184 1181 1056 1182 1315
8 1060 942 1061 1185 1183 1058 1184 1316
8 1208 1081 1187 1321 1082 964 1063 1188
8 1209 1082 1188 1322 1097 981 1064 1190
8 1188 1063 1189 1323 1064 947 1065 1191
8 1190 1064 1191 1325 1066 948 1067 1193
8 1191 1065 1192 1326 1067 949 1068 1194
8 1067 1193 1069 950 1194 1327 1195 1070
8 1250 1133 1199 1330 1126 1019 1075 1196
8 1198 1077 1014 1122 1331 1200 1075 1196
8 1074 960 1077 1198 1197 1076 1201 1332
8 1085 980 1076 1197 1215 1099 1201 1332
8 1199 1079 1203 1333 1075 962 1080 1200
8 1132 1025 1119 1243 1199 1079 1203 1333
8 1201 1078 963 1077 1334 1202 1080 1200
8 1099 994 1078 1201 1227 1111 1202 1334
8 1343 1207 1081 1208 1210 1083 964 1082
8 1214 1084 1186 1319 1343 1207 1081 1208
8 1345 1210 1082 1209 1225 1100 981 1097
8 1346 1211 1083 1210 1228 1115 999 1100
8 1086 984 1099 1215 1216 1103 1227 1352
8 1087 985 1103 1216 1217 1104 1230 1353
8 1090 988 1104 1217 1219 1106 1231 1354
8 1218 1105 987 1089 1355 1232 1106 1219
8 1091 991 1105 1218 1220 1109 1232 1355
8 1092 992 1109 1220 1221 1110 1234 1356
8 1222 1108 1233 1357 1095 990 1107 1224
8 1222 1108 993 1093 1357 1233 1110 1221
8 1223 1101 989 1096 1358 1229 1107 1224
8 1226 1102 983 1098 1358 1229 1101 1223
8 1226 1102 1228 1359 1098 983 1100 1225
8 1103 995 1111 1227 1230 1112 1235 1360
8 1107 1002 1117 1233 1229 1116 1240 1362
8 1102 1001 1116 1229 1228 1115 1240 1362
8 1104 996 1112 1230 1231 1113 1236 1363
8 1364 1237 1114 1232 1231 1113 997 1106
8 1109 1005 1114 1232 1234 1118 1238 1365
8 1110 1004 1118 1234 1233 1117 1241 1366
8 1242 1374 1255 1138 1119 1243 1132 1025
8 1244 1127 1254 1376 1121 1015 1129 1245
8 1148 1031 1149 1275 1244 1127 1254 1376
8 1245 1129 1258 1377 1125 1016 1130 1248
8 1251 1134 1019 1126 1378 1257 1128 1246
8 1378 1257 1128 1246 1247 1131 1017 1123
8 1248 1130 1259 1379 1124 1018 1131 1247
8 1261 1381 1250 1133 1132 1249 1330 1199
8 1255 1380 1252 1135 1132 1249 1381 1261
8 1250 1133 1019 1126 1382 1262 1134 1251
8 1253 1136 1256 1385 1384 1263 1135 1252
8 1254 1137 1265 1387 1129 1022 1141 1258
8 1149 1032 1150 1276 1254 1137 1265 1387
8 1028 1135 1255 1138 1139 1256 1388 1266
8 1136 1029 1147 1264 1256 1139 1267 1389
8 1390 1268 1140 1257 1259 1142 1024 1131
8 1260 1143 1027 1134 1390 1268 1140 1257
8 1258 1141 1269 1391 1130 1023 1142 1259
8 1262 1145 1027 1134 1393 1271 1143 1260
8 1261 1144 1026 1133 1394 1272 1145 1262
8 1135 1028 1144 1261 1263 1146 1272 1394
8 1136 1029 1146 1263 1264 1147 1273 1395
8 1155 1041 1160 1282 1275 1149 1276 1405
8 1276 1150 1044 1160 1406 1277 1162 1286
8 1408 1283 1159 1279 1278 1156 1039 1151
8 1290 1165 1283 1408 1177 1053 1156 1278
8 1152 1040 1159 1279 1280 1158 1285 1409
8 1281 1157 1038 1153 1410 1284 1158 1280
8 1281 1157 1284 1410 1154 1042 1160 1282
8 1159 1046 1164 1283 1285 1163 1289 1412
8 1292 1167 1289 1412 1165 1048 1164 1283
8 1158 1045 1163 1285 1284 1161 1288 1413
8 1284 1161 1288 1413 1160 1044 1162 1286
8 1291 1166 1292 1418 1174 1051 1165 1290
8 1291 1166 1051 1174 1419 1293 1172 1305
8 1294 1169 1296 1421 1166 1049 1167 1292
8 1293 1168 1050 1172 1422 1295 1171 1303
8 1294 1169 1049 1166 1423 1297 1168 1293
8 1422 1295 1171 1303 1301 1170 1302 1435
8 1172 1050 1173 1306 1303 1171 1304 1438
8 1174 1051 1175 1308 1305 1172 1306 1440
8 1175 1052 1176 1309 1306 1173 1307 1441
8 1177 1053 1178 1311 1308 1175 1309 1443
8 1178 1054 1179 1312 1309 1176 1310 1444
8 1180 1055 1181 1314 1311 1178 1312 1446
8 1056 1181 1312 1179 1182 1315 1447 1313
8 1183 1058 1184 1316 1314 1181 1315 1448
8 1319 1186 1084 1214 1451 1317 1213 1350
8 1319 1186 1318 1453 1208 1081 1187 1321
8 1321 1187 1320 1456 1188 1063 1189 1323
8 1344 1208 1321 1457 1209 1082 1188 1322
8 1322 1188 1323 1458 1190 1064 1191 1325
8 1323 1189 1324 1459 1191 1065 1192 1326
8 1191 1325 1193 1067 1326 1460 1327 1194
8 1242 1374 1243 1119 1328 1462 1335 1204
8 1330 1199 1333 1465 1196 1075 1200 1331
8 1132 1249 1330 1199 1243 1375 1465 1333
8 1332 1201 1077 1198 1466 1334 1200 1331
8 1215 1099 1201 1332 1352 1227 1334 1466
8 1119 1243 1333 1203 1204 1335 1470 1338
8 1333 1203 1338 1470 1200 1080 1202 1334
8 1227 1111 1202 1334 1360 1235 1338 1470
8 1328 1462 1335 1204 1205 1336 1471 1339
8 1337 1206 1340 1472 1464 1329 1205 1336
8 1346 1211 1342 1479 1210 1083 1207 1343
8 1346 1211 1115 1228 1479 1342 1239 1361
8 1348 1212 1084 1214 1479 1342 1207 1343
8 1480 1343 1208 1344 1345 1210 1082 1209
8 1351 1214 1319 1454 1480 1343 1208 1344
8 1481 1346 1210 1345 1359 1228 1100 1225
8 1348 1212 1347 1483 1214 1084 1213 1350
8 1216 1103 1227 1352 1353 1230 1360 1488
8 1217 1104 1230 1353 1354 1231 1363 1489
8 1490 1364 1232 1355 1354 1231 1106 1219
8 1220 1109 1232 1355 1356 1234 1365 1491
8 1221 1110 1234 1356 1357 1233 1366 1492
8 1224 1107 1233 1357 1358 1229 1362 1493
8 1226 1102 1229 1358 1359 1228 1362 1493
8 1230 1112 1235 1360 1363 1236 1367 1496
8 1361 1239 1115 1228 1497 1371 1240 1362
8 1366 1241 1372 1498 1233 1117 1240 1362
8 1364 1237 1113 1231 1499 1368 1236 1363
8 1364 1237 1368 1499 1232 1114 1238 1365
8 1234 1118 1238 1365 1366 1241 1369 1500
8 1507 1373 1242 1374 1388 1266 1138 1255
8 1508 1374 1243 1375 1380 1255 1132 1249
8 1376 1254 1387 1509 1245 1129 1258 1377
8 1275 1149 1276 1405 1376 1254 1387 1509
8 1377 1258 1391 1510 1248 1130 1259 1379
8 1511 1390 1257 1378 1379 1259 1131 1247
8 1383 1260 1134 1251 1511 1390 1257 1378
8 1252 1135 1256 1385 1380 1255 1388 1512
8 1261 1381 1513 1394 1133 1250 1382 1262
8 1135 1252 1384 1263 1261 1381 1513 1394
8 1382 1262 1134 1251 1514 1393 1260 1383
8 1253 1136 1263 1384 1386 1264 1395 1516
8 1253 1136 1264 1386 1385 1256 1389 1517
8 1387 1265 1397 1519 1258 1141 1269 1391
8 1276 1150 1277 1406 1387 1265 1397 1519
8 1256 1139 1267 1389 1388 1266 1398 1520
8 1264 1147 1274 1396 1389 1267 1399 1521
8 1392 1270 1143 1260 1522 1400 1268 1390
8 1390 1268 1142 1259 1522 1400 1269 1391
8 1392 1270 1401 1523 1260 1143 1271 1393
8 1272 1394 1524 1402 1145 1262 1393 1271
8 1395 1273 1146 1263 1524 1402 1272 1394
8 1273 1395 1264 1147 1403 1526 1396 1274
8 1405 1276 1160 1282 1534 1406 1286 1411
8 1414 1287 1407 1535 1286 1162 1277 1406
8 1279 1159 1283 1408 1409 1285 1412 1537
8 1418 1292 1412 1537 1290 1165 1283 1408
8 1280 1158 1285 1409 1410 1284 1413 1538
8 1410 1284 1413 1538 1282 1160 1286 1411
8 1285 1163 1289 1412 1413 1288 1417 1540
8 1421 1296 1417 1540 1292 1167 1289 1412
8 1414 1287 1162 1286 1541 1416 1288 1413
8 1420 1294 1421 1545 1291 1166 1292 1418
8 1419 1293 1172 1305 1546 1422 1303 1437
8 1420 1294 1166 1291 1547 1423 1293 1419
8 1294 1169 1297 1423 1421 1296 1425 1548
8 1423 1297 1168 1293 1549 1424 1295 1422
8 1301 1170 1298 1427 1422 1295 1424 1549
8 1432 1300 1428 1554 1301 1170 1298 1427
8 1431 1299 1428 1554 1560 1430 1300 1432
8 1563 1433 1300 1432 1435 1302 1170 1301
8 1546 1422 1303 1437 1434 1301 1435 1565
8 1303 1171 1304 1438 1435 1302 1436 1566
8 1305 1172 1306 1440 1437 1303 1438 1568
8 1306 1173 1307 1441 1438 1304 1439 1569
8 1308 1175 1309 1443 1440 1306 1441 1571
8 1309 1176 1310 1444 1441 1307 1442 1572
8 1311 1178 1312 1446 1443 1309 1444 1574
8 1179 1312 1444 1310 1313 1447 1575 1445
8 1314 1181 1315 1448 1446 1312 1447 1576
8 1350 1213 1349 1486 1451 1317 1449 1579
8 1451 1317 1450 1581 1319 1186 1318 1453
8 1454 1319 1214 1351 1582 1451 1350 1487
8 1453 1318 1452 1584 1321 1187 1320 1456
8 1454 1319 1453 1585 1344 1208 1321 1457
8 1456 1320 1455 1586 1323 1189 1324 1459
8 1457 1321 1456 1587 1322 1188 1323 1458
8 1458 1323 1459 1588 1325 1191 1326 1460
8 1205 1336 1464 1329 1328 1462 1590 1461
8 1507 1373 1461 1590 1374 1242 1328 1462
8 1508 1374 1462 1591 1375 1243 1335 1467
8 1337 1206 1329 1464 1473 1341 1463 1594
8 1375 1243 1335 1467 1465 1333 1470 1596
8 1465 1333 1470 1596 1331 1200 1334 1466
8 1352 1227 1334 1466 1488 1360 1470 1596
8 1591 1462 1336 1468 1467 1335 1471 1597
8 1469 1337 1472 1598 1595 1464 1336 1468
8 1471 1339 1474 1600 1335 1204 1338 1470
8 1600 1474 1367 1496 1470 1338 1235 1360
8 1336 1205 1340 1472 1471 1339 1475 1601
8 1337 1206 1341 1473 1472 1340 1476 1602
8 1495 1370 1478 1609 1361 1239 1342 1479
8 1348 1212 1342 1479 1483 1347 1478 1609
8 1481 1346 1479 1610 1345 1210 1343 1480
8 1481 1346 1228 1359 1610 1479 1361 1494
8 1484 1348 1214 1351 1610 1479 1343 1480
8 1483 1347 1482 1612 1350 1213 1349 1486
8 1484 1348 1483 1613 1351 1214 1350 1487
8 1353 1230 1360 1488 1489 1363 1496 1616
8 1490 1364 1231 1354 1617 1499 1363 1489
8 1490 1364 1499 1617 1355 1232 1365 1491
8 1356 1234 1365 1491 1492 1366 1500 1619
8 1492 1366 1498 1620 1357 1233 1362 1493
8 1494 1361 1228 1359 1621 1497 1362 1493
8 1495 1370 1239 1361 1622 1504 1371 1497
8 1363 1236 1367 1496 1499 1368 1501 1623
8 1497 1371 1240 1362 1624 1505 1372 1498
8 1625 1503 1372 1498 1500 1369 1241 1366
8 1365 1238 1368 1499 1500 1369 1502 1626
8 1520 1398 1506 1633 1388 1266 1373 1507
8 1634 1507 1374 1508 1512 1388 1255 1380
8 1509 1387 1519 1635 1377 1258 1391 1510
8 1405 1276 1406 1534 1509 1387 1519 1635
8 1515 1392 1260 1383 1636 1522 1390 1511
8 1511 1390 1259 1379 1636 1522 1391 1510
8 1385 1256 1389 1517 1512 1388 1520 1637
8 1513 1394 1262 1382 1638 1524 1393 1514
8 1395 1516 1638 1524 1263 1384 1513 1394
8 1515 1392 1523 1639 1383 1260 1393 1514
8 1516 1395 1526 1640 1386 1264 1396 1518
8 1386 1264 1396 1518 1517 1389 1521 1641
8 1519 1397 1527 1643 1391 1269 1400 1522
8 1535 1407 1527 1643 1406 1277 1397 1519
8 1389 1267 1399 1521 1520 1398 1528 1644
8 1645 1529 1399 1521 1525 1404 1274 1396
8 1392 1270 1400 1522 1523 1401 1531 1646
8 1524 1402 1271 1393 1648 1532 1401 1523
8 1403 1526 1648 1532 1273 1395 1524 1402
8 1525 1404 1274 1396 1649 1533 1403 1526
8 1539 1414 1535 1657 1411 1286 1406 1534
8 1542 1415 1536 1658 1414 1287 1407 1535
8 1409 1285 1412 1537 1538 1413 1540 1660
8 1545 1421 1540 1660 1418 1292 1412 1537
8 1539 1414 1286 1411 1661 1541 1413 1538
8 1540 1417 1544 1663 1413 1288 1416 1541
8 1421 1296 1425 1548 1540 1417 1544 1663
8 1542 1415 1287 1414 1664 1543 1416 1541
8 1420 1294 1423 1547 1545 1421 1548 1666
8 1547 1423 1293 1419 1667 1549 1422 1546
8 1434 1301 1427 1553 1546 1422 1549 1667
8 1423 1297 1424 1549 1548 1425 1550 1668
8 1551 1426 1550 1668 1427 1298 1424 1549
8 1551 1426 1298 1427 1671 1552 1428 1554
8 1562 1432 1554 1674 1434 1301 1427 1553
8 1431 1299 1429 1558 1554 1428 1555 1675
8 1431 1299 1430 1560 1558 1429 1557 1680
8 1560 1430 1300 1432 1683 1559 1433 1563
8 1561 1431 1554 1674 1684 1560 1432 1562
8 1685 1563 1432 1562 1565 1435 1301 1434
8 1435 1302 1436 1566 1563 1433 1564 1686
8 1437 1303 1438 1568 1565 1435 1566 1688
8 1438 1304 1439 1569 1566 1436 1567 1689
8 1440 1306 1441 1571 1568 1438 1569 1691
8 1441 1307 1442 1572 1569 1439 1570 1692
8 1443 1309 1444 1574 1571 1441 1572 1694
8 1310 1444 1572 1442 1445 1575 1695 1573
8 1446 1312 1447 1576 1574 1444 1575 1696
8 1486 1349 1485 1614 1579 1449 1577 1699
8 1451 1317 1449 1579 1581 1450 1578 1701
8 1487 1350 1486 1615 1582 1451 1579 1702
8 1581 1450 1580 1704 1453 1318 1452 1584
8 1582 1451 1581 1705 1454 1319 1453 1585
8 1584 1452 1583 1706 1456 1320 1455 1586
8 1585 1453 1584 1707 1457 1321 1456 1587
8 1587 1456 1586 1708 1458 1323 1459 1588
8 1633 1506 1589 1710 1507 1373 1461 1590
8 1464 1329 1461 1590 1594 1463 1589 1710
8 1468 1336 1462 1591 1595 1464 1590 1711
8 1634 1507 1590 1711 1508 1374 1462 1591
8 1473 1341 1463 1594 1603 1477 1593 1716
8 1469 1337 1464 1595 1599 1473 1594 1717
8 1471 1597 1467 1335 1600 1718 1596 1470
8 1718 1600 1496 1616 1596 1470 1360 1488
8 1336 1468 1597 1471 1472 1598 1719 1601
8 1469 1337 1473 1599 1598 1472 1602 1720
8 1722 1604 1501 1623 1600 1474 1367 1496
8 1475 1601 1471 1339 1604 1722 1600 1474
8 1602 1476 1605 1723 1472 1340 1475 1601
8 1476 1602 1724 1606 1341 1473 1603 1477
8 1483 1347 1478 1609 1612 1482 1608 1731
8 1495 1370 1504 1622 1609 1478 1608 1731
8 1618 1495 1609 1732 1494 1361 1479 1610
8 1484 1348 1479 1610 1613 1483 1609 1732
8 1486 1349 1482 1612 1614 1485 1611 1733
8 1613 1483 1612 1734 1487 1350 1486 1615
8 1489 1363 1496 1616 1617 1499 1623 1736
8 1491 1365 1499 1617 1619 1500 1626 1737
8 1618 1495 1361 1494 1738 1622 1497 1621
8 1739 1625 1498 1620 1619 1500 1366 1492
8 1621 1497 1362 1493 1740 1624 1498 1620
8 1742 1631 1504 1622 1624 1505 1371 1497
8 1743 1628 1502 1626 1623 1501 1368 1499
8 1744 1630 1505 1624 1625 1503 1372 1498
8 1745 1629 1503 1625 1626 1502 1369 1500
8 1520 1398 1528 1644 1633 1506 1632 1751
8 1637 1520 1633 1752 1512 1388 1507 1634
8 1635 1519 1643 1753 1510 1391 1522 1636
8 1657 1535 1643 1753 1534 1406 1519 1635
8 1515 1392 1522 1636 1639 1523 1646 1754
8 1517 1389 1521 1641 1637 1520 1644 1755
8 1524 1638 1756 1648 1393 1514 1639 1523
8 1640 1526 1395 1516 1756 1648 1524 1638
8 1642 1525 1396 1518 1757 1649 1526 1640
8 1758 1645 1521 1641 1642 1525 1396 1518
8 1646 1531 1400 1522 1760 1650 1527 1643
8 1535 1407 1536 1658 1643 1527 1650 1760
8 1521 1399 1529 1645 1644 1528 1651 1761
8 1647 1530 1652 1762 1525 1404 1529 1645
8 1401 1523 1648 1532 1531 1646 1763 1655
8 1525 1404 1533 1649 1647 1530 1654 1765
8 1533 1649 1766 1656 1403 1526 1648 1532
8 1662 1542 1658 1774 1539 1414 1535 1657
8 1542 1415 1543 1664 1658 1536 1659 1775
8 1660 1540 1663 1777 1538 1413 1541 1661
8 1545 1421 1548 1666 1660 1540 1663 1777
8 1662 1542 1414 1539 1778 1664 1541 1661
8 1664 1543 1416 1541 1779 1665 1544 1663
8 1548 1425 1550 1668 1663 1544 1665 1779
8 1547 1423 1549 1667 1666 1548 1668 1781
8 1670 1551 1668 1781 1553 1427 1549 1667
8 1551 1426 1552 1671 1668 1550 1669 1782
8 1670 1551 1427 1553 1784 1671 1554 1674
8 1675 1555 1672 1785 1554 1428 1552 1671
8 1678 1556 1673 1789 1558 1429 1555 1675
8 1561 1431 1558 1681 1674 1554 1675 1790
8 1794 1677 1556 1678 1680 1557 1429 1558
8 1560 1430 1559 1683 1680 1557 1679 1797
8 1561 1431 1560 1684 1681 1558 1680 1798
8 1563 1433 1564 1686 1683 1559 1682 1800
8 1684 1560 1432 1562 1801 1683 1563 1685
8 1565 1435 1566 1688 1685 1563 1686 1802
8 1566 1436 1567 1689 1686 1564 1687 1803
8 1568 1438 1569 1691 1688 1566 1689 1805
8 1569 1439 1570 1692 1689 1567 1690 1806
8 1571 1441 1572 1694 1691 1569 1692 1808
8 1442 1572 1692 1570 1573 1695 1809 1693
8 1574 1444 1575 1696 1694 1572 1695 1810
8 1614 1485 1592 1712 1699 1577 1697 1813
8 1579 1449 1577 1699 1701 1578 1698 1815
8 1615 1486 1614 1735 1702 1579 1699 1816
8 1701 1578 1700 1818 1581 1450 1580 1704
8 1582 1451 1579 1702 1705 1581 1701 1819
8 1704 1580 1703 1820 1584 1452 1583 1706
8 1705 1581 1704 1821 1585 1453 1584 1707
8 1707 1584 1706 1822 1587 1456 1586 1708
8 1710 1589 1506 1633 1824 1709 1632 1751
8 1594 1463 1589 1710 1716 1593 1709 1824
8 1752 1633 1710 1825 1634 1507 1590 1711
8 1595 1464 1590 1711 1717 1594 1710 1825
8 1830 1714 1592 1712 1733 1611 1485 1614
8 1603 1477 1593 1716 1725 1607 1715 1834
8 1599 1473 1594 1717 1721 1603 1716 1835
8 1837 1722 1623 1736 1718 1600 1496 1616
8 1719 1601 1722 1837 1597 1471 1600 1718
8 1602 1720 1598 1472 1723 1838 1719 1601
8 1720 1602 1473 1599 1839 1724 1603 1721
8 1723 1605 1726 1840 1601 1475 1604 1722
8 1840 1726 1628 1743 1722 1604 1501 1623
8 1724 1606 1727 1841 1602 1476 1605 1723
8 1725 1607 1728 1842 1603 1477 1606 1724
8 1612 1482 1608 1731 1733 1611 1730 1849
8 1741 1627 1730 1849 1622 1504 1608 1731
8 1613 1483 1609 1732 1734 1612 1731 1850
8 1618 1495 1622 1738 1732 1609 1731 1850
8 1615 1486 1612 1734 1735 1614 1733 1851
8 1852 1743 1626 1737 1736 1623 1499 1617
8 1853 1745 1625 1739 1737 1626 1500 1619
8 1855 1742 1622 1738 1740 1624 1497 1621
8 1856 1744 1624 1740 1739 1625 1498 1620
8 1741 1627 1504 1622 1857 1746 1631 1742
8 1742 1631 1505 1624 1858 1749 1630 1744
8 1859 1747 1629 1745 1743 1628 1502 1626
8 1860 1748 1630 1744 1745 1629 1503 1625
8 1644 1528 1651 1761 1751 1632 1750 1865
8 1637 1520 1644 1755 1752 1633 1751 1866
8 1754 1646 1522 1636 1867 1760 1643 1753
8 1657 1535 1658 1774 1753 1643 1760 1867
8 1639 1523 1646 1754 1756 1648 1763 1868
8 1641 1521 1645 1758 1755 1644 1761 1869
8 1757 1649 1526 1640 1870 1766 1648 1756
8 1642 1525 1649 1757 1759 1647 1765 1871
8 1759 1647 1762 1872 1642 1525 1645 1758
8 1760 1650 1767 1874 1646 1531 1655 1763
8 1658 1536 1659 1775 1760 1650 1767 1874
8 1762 1652 1768 1875 1645 1529 1651 1761
8 1764 1653 1769 1876 1647 1530 1652 1762
8 1656 1766 1877 1773 1532 1648 1763 1655
8 1771 1879 1765 1654 1653 1764 1647 1530
8 1533 1649 1765 1654 1656 1766 1880 1772
8 1662 1542 1664 1778 1774 1658 1775 1887
8 1664 1543 1665 1779 1775 1659 1776 1888
8 1778 1664 1541 1661 1890 1779 1663 1777
8 1666 1548 1668 1781 1777 1663 1779 1890
8 1782 1669 1780 1891 1668 1550 1665 1779
8 1670 1551 1671 1784 1781 1668 1782 1893
8 1671 1552 1672 1785 1782 1669 1783 1894
8 1790 1675 1785 1896 1674 1554 1671 1784
8 1675 1555 1673 1789 1785 1672 1786 1897
8 1792 1676 1788 1903 1678 1556 1673 1789
8 1795 1678 1789 1904 1681 1558 1675 1790
8 1792 1676 1556 1678 1906 1791 1677 1794
8 1680 1557 1679 1797 1794 1677 1793 1909
8 1910 1794 1678 1795 1798 1680 1558 1681
8 1683 1559 1682 1800 1797 1679 1796 1912
8 1684 1560 1683 1801 1798 1680 1797 1913
8 1686 1564 1687 1803 1800 1682 1799 1915
8 1685 1563 1686 1802 1801 1683 1800 1916
8 1688 1566 1689 1805 1802 1686 1803 1917
8 1689 1567 1690 1806 1803 1687 1804 1918
8 1691 1569 1692 1808 1805 1689 1806 1920
8 1692 1570 1693 1809 1806 1690 1807 1921
8 1694 1572 1695 1810 1808 1692 1809 1922
8 1829 1713 1811 1926 1712 1592 1697 1813
8 1813 1697 1812 1928 1699 1577 1698 1815
8 1735 1614 1712 1828 1816 1699 1813 1929
8 1815 1698 1814 1931 1701 1578 1700 1818
8 1702 1579 1699 1816 1819 1701 1815 1932
8 1818 1700 1817 1933 1704 1580 1703 1820
8 1819 1701 1818 1934 1705 1581 1704 1821
8 1821 1704 1820 1935 1707 1584 1706 1822
8 1824 1709 1632 1751 1937 1823 1750 1865
8 1716 1593 1709 1824 1834 1715 1823 1937
8 1825 1710 1633 1752 1938 1824 1751 1866
8 1717 1594 1710 1825 1835 1716 1824 1938
8 1945 1830 1712 1828 1851 1733 1614 1735
8 1830 1714 1831 1946 1712 1592 1713 1829
8 1947 1832 1714 1830 1849 1730 1611 1733
8 1843 1729 1607 1725 1950 1833 1715 1834
8 1721 1603 1716 1835 1836 1725 1834 1951
8 1836 1725 1842 1953 1721 1603 1724 1839
8 1723 1838 1719 1601 1840 1954 1837 1722
8 1954 1840 1743 1852 1837 1722 1623 1736
8 1724 1839 1720 1602 1841 1955 1838 1723
8 1841 1727 1844 1956 1723 1605 1726 1840
8 1956 1844 1747 1859 1840 1726 1628 1743
8 1728 1842 1724 1606 1845 1957 1841 1727
8 1725 1607 1729 1843 1842 1728 1846 1958
8 1741 1627 1746 1857 1849 1730 1848 1965
8 1734 1612 1731 1850 1851 1733 1849 1966
8 1854 1741 1849 1966 1738 1622 1731 1850
8 1967 1859 1745 1853 1852 1743 1626 1737
8 1968 1860 1744 1856 1853 1745 1625 1739
8 1854 1741 1622 1738 1969 1857 1742 1855
8 1855 1742 1624 1740 1970 1858 1744 1856
8 1857 1746 1631 1742 1971 1861 1749 1858
8 1858 1749 1630 1744 1972 1863 1748 1860
8 1859 1747 1862 1973 1745 1629 1748 1860
8 1875 1768 1864 1977 1761 1651 1750 1865
8 1755 1644 1761 1869 1866 1751 1865 1978
8 1867 1760 1874 1979 1754 1646 1763 1868
8 1774 1658 1775 1887 1867 1760 1874 1979
8 1870 1766 1648 1756 1980 1877 1763 1868
8 1872 1762 1875 1981 1758 1645 1761 1869
8 1757 1649 1766 1870 1871 1765 1880 1982
8 1983 1879 1764 1873 1871 1765 1647 1759
8 1873 1764 1876 1984 1759 1647 1762 1872
8 1877 1773 1655 1763 1986 1881 1767 1874
8 1775 1659 1776 1888 1874 1767 1881 1986
8 1876 1769 1882 1987 1762 1652 1768 1875
8 1878 1770 1883 1988 1764 1653 1769 1876
8 1880 1772 1656 1766 1989 1886 1773 1877
8 1878 1770 1653 1764 1990 1884 1771 1879
8 1765 1654 1772 1880 1879 1771 1885 1991
8 1778 1664 1779 1890 1887 1775 1888 1997
8 1998 1889 1776 1888 1891 1780 1665 1779
8 1893 1782 1891 2000 1781 1668 1779 1890
8 1894 1783 1892 2001 1782 1669 1780 1891
8 1784 1671 1785 1896 1893 1782 1894 2003
8 1897 1786 1895 2004 1785 1672 1783 1894
8 1790 1675 1789 1904 1896 1785 1897 2006
8 1901 1787 1898 2007 1789 1673 1786 1897
8 1903 1788 1900 2013 1789 1673 1787 1901
8 1792 1676 1791 1906 1903 1788 1902 2016
8 1907 1792 1903 2017 1795 1678 1789 1904
8 1906 1791 1677 1794 2019 1905 1793 1909
8 1907 1792 1678 1795 2020 1906 1794 1910
8 1797 1679 1796 1912 1909 1793 1908 2022
8 1798 1680 1797 1913 1910 1794 1909 2023
8 1800 1682 1799 1915 1912 1796 1911 2025
8 1801 1683 1800 1916 1913 1797 1912 2026
8 1803 1687 1804 1918 1915 1799 1914 2028
8 1802 1686 1803 1917 1916 1800 1915 2029
8 1805 1689 1806 1920 1917 1803 1918 2030
8 1806 1690 1807 1921 1918 1804 1919 2031
8 1808 1692 1809 1922 1920 1806 1921 2032
8 1939 1826 1924 2037 1829 1713 1811 1926
8 1926 1811 1925 2039 1813 1697 1812 1928
8 1944 1829 1926 2040 1828 1712 1813 1929
8 1928 1812 1927 2042 1815 1698 1814 1931
8 1929 1813 1928 2043 1816 1699 1815 1932
8 1931 1814 1930 2044 1818 1700 1817 1933
8 1932 1815 1931 2045 1819 1701 1818 1934
8 1934 1818 1933 2046 1821 1704 1820 1935
8 2048 1936 1823 1937 1977 1864 1750 1865
8 1950 1833 1715 1834 2048 1936 1823 1937
8 1938 1824 1751 1866 2049 1937 1865 1978
8 1835 1716 1824 1938 1951 1834 1937 2049
8 1939 1826 1713 1829 2053 1942 1831 1946
8 1940 1827 1923 2035 2053 1942 1826 1939
8 1945 1830 1946 2058 1828 1712 1829 1944
8 2059 1947 1830 1945 1966 1849 1733 1851
8 1947 1832 1730 1849 2060 1948 1848 1965
8 1947 1832 1948 2060 1830 1714 1831 1946
8 1959 1847 1729 1843 2063 1949 1833 1950
8 1952 1843 1725 1836 2064 1950 1834 1951
8 1836 1725 1843 1952 1953 1842 1958 2066
8 1953 1842 1957 2067 1839 1724 1841 1955
8 1841 1955 1838 1723 1956 2068 1954 1840
8 2068 1956 1859 1967 1954 1840 1743 1852
8 1956 1844 1960 2069 1859 1747 1862 1973
8 1845 1957 1841 1727 1960 2069 1956 1844
8 1728 1842 1957 1845 1846 1958 2071 1961
8 1962 2072 1959 1847 1846 1958 1843 1729
8 1971 1861 1964 2077 1857 1746 1848 1965
8 1854 1741 1857 1969 1966 1849 1965 2078
8 1967 1859 1973 2079 1853 1745 1860 1968
8 1970 1858 1744 1856 2080 1972 1860 1968
8 1969 1857 1742 1855 2081 1971 1858 1970
8 1971 1861 1749 1858 2082 1974 1863 1972
8 1973 1862 1975 2083 1860 1748 1863 1972
8 1987 1882 1976 2086 1875 1768 1864 1977
8 1981 1875 1977 2087 1869 1761 1865 1978
8 1980 1877 1763 1868 2088 1986 1874 1979
8 1887 1775 1888 1997 1979 1874 1986 2088
8 1880 1982 2089 1989 1766 1870 1980 1877
8 1984 1876 1987 2090 1872 1762 1875 1981
8 1765 1871 1983 1879 1880 1982 2091 1991
8 1985 1878 1764 1873 2092 1990 1879 1983
8 1985 1878 1988 2093 1873 1764 1876 1984
8 2094 1992 1881 1986 1998 1889 1776 1888
8 1986 1881 1992 2094 1877 1773 1886 1989
8 1988 1883 1993 2095 1876 1769 1882 1987
8 1878 1770 1884 1990 1988 1883 1994 2096
8 1991 1885 1772 1880 2097 1996 1886 1989
8 1879 1771 1885 1991 1990 1884 1995 2098
8 2103 1998 1888 1997 2000 1891 1779 1890
8 2104 1999 1889 1998 2001 1892 1780 1891
8 2003 1894 2001 2106 1893 1782 1891 2000
8 2004 1895 2002 2107 1894 1783 1892 2001
8 2006 1897 2004 2109 1896 1785 1894 2003
8 2007 1898 2005 2110 1897 1786 1895 2004
8 2014 1901 2007 2112 1904 1789 1897 2006
8 2011 1899 2008 2113 1901 1787 1898 2007
8 2119 2010 1899 2011 2013 1900 1787 1901
8 2016 1902 2012 2122 1903 1788 1900 2013
8 2017 1903 2013 2123 1904 1789 1901 2014
8 1906 1791 1905 2019 2016 1902 2015 2125
8 1907 1792 1906 2020 2017 1903 2016 2126
8 1909 1793 1908 2022 2019 1905 2018 2128
8 2020 1906 1794 1910 2129 2019 1909 2023
8 1912 1796 1911 2025 2022 1908 2021 2131
8 1913 1797 1912 2026 2023 1909 2022 2132
8 1915 1799 1914 2028 2025 1911 2024 2134
8 1916 1800 1915 2029 2026 1912 2025 2135
8 1918 1804 1919 2031 2028 1914 2027 2136
8 1917 1803 1918 2030 2029 1915 2028 2137
8 1920 1806 1921 2032 2030 1918 2031 2138
8 1940 1827 1941 2054 2035 1923 2033 2140
8 2035 1923 2034 2143 1939 1826 1924 2037
8 2037 1924 2036 2146 1926 1811 1925 2039
8 2051 1939 2037 2147 1944 1829 1926 2040
8 2039 1925 2038 2149 1928 1812 1927 2042
8 2040 1926 2039 2150 1929 1813 1928 2043
8 2042 1927 2041 2151 1931 1814 1930 2044
8 2043 1928 2042 2152 1932 1815 1931 2045
8 2045 1931 2044 2153 1934 1818 1933 2046
8 2155 2047 1936 2048 2086 1976 1864 1977
8 2063 1949 1833 1950 2155 2047 1936 2048
8 2156 2048 1937 2049 2087 1977 1865 1978
8 2064 1950 1834 1951 2156 2048 1937 2049
8 2051 1939 1829 1944 2160 2053 1946 2058
8 2052 1940 2035 2144 2160 2053 1939 2051
8 2053 1942 1831 1946 2163 2057 1948 2060
8 2055 1943 1827 1940 2163 2057 1942 2053
8 2055 1943 2056 2164 1940 1827 1941 2054
8 2059 1947 1849 1966 2167 2060 1965 2078
8 2059 1947 2060 2167 1945 1830 1946 2058
8 2077 1964 2061 2168 1965 1848 1948 2060
8 2070 1963 1847 1959 2170 2062 1949 2063
8 2065 1959 1843 1952 2171 2063 1950 2064
8 2173 2072 1958 2066 2065 1959 1843 1952
8 1953 1842 1958 2066 2067 1957 2071 2174
8 2068 1956 2069 2175 1967 1859 1973 2079
8 2067 1957 2069 2175 1955 1841 1956 2068
8 1845 1957 2069 1960 1961 2071 2176 2073
8 2069 1960 2073 2176 1973 1862 1975 2083
8 2070 1963 2075 2177 1959 1847 1962 2072
8 1846 1958 2071 1961 1962 2072 2178 2074
8 2077 1964 1861 1971 2182 2076 1974 2082
8 2081 1971 2077 2183 1969 1857 1965 2078
8 2079 1973 2083 2184 1968 1860 1972 2080
8 2081 1971 1858 1970 2185 2082 1972 2080
8 2083 1975 2084 2186 1972 1863 1974 2082
8 2086 1976 1882 1987 2189 2085 1993 2095
8 2090 1987 2086 2190 1981 1875 1977 2087
8 2191 2094 1986 2088 2103 1998 1888 1997
8 2088 1986 2094 2191 1980 1877 1989 2089
8 1991 2091 2192 2097 1880 1982 2089 1989
8 2093 1988 2095 2193 1984 1876 1987 2090
8 1879 1983 2092 1990 1991 2091 2194 2098
8 1985 1878 1990 2092 2093 1988 2096 2195
8 2097 1996 1886 1989 2196 2099 1992 2094
8 2196 2099 1992 2094 2104 1999 1889 1998
8 1994 2096 1988 1883 2100 2197 2095 1993
8 2096 1994 1884 1990 2198 2101 1995 2098
8 1995 2098 2199 2102 1885 1991 2097 1996
8 2203 2104 1998 2103 2106 2001 1891 2000
8 2107 2002 2105 2204 2001 1892 1999 2104
8 2109 2004 2107 2206 2003 1894 2001 2106
8 2110 2005 2108 2207 2004 1895 2002 2107
8 2112 2007 2110 2209 2006 1897 2004 2109
8 2113 2008 2111 2210 2007 1898 2005 2110
8 2120 2011 2113 2212 2014 1901 2007 2112
8 2117 2009 2114 2213 2011 1899 2008 2113
8 2219 2116 2009 2117 2119 2010 1899 2011
8 2222 2118 2010 2119 2122 2012 1900 2013
8 2223 2119 2011 2120 2123 2013 1901 2014
8 2016 1902 2015 2125 2122 2012 2121 2225
8 2126 2016 2122 2226 2017 1903 2013 2123
8 2019 1905 2018 2128 2125 2015 2124 2228
8 2020 1906 2019 2129 2126 2016 2125 2229
8 2022 1908 2021 2131 2128 2018 2127 2231
8 2023 1909 2022 2132 2129 2019 2128 2232
8 2025 1911 2024 2134 2131 2021 2130 2234
8 2026 1912 2025 2135 2132 2022 2131 2235
8 1914 2028 2134 2024 2027 2136 2236 2133
8 2029 1915 2028 2137 2135 2025 2134 2237
8 2030 1918 2031 2138 2137 2028 2136 2238
8 2157 2050 2139 2240 2054 1941 2033 2140
8 2052 1940 2054 2161 2144 2035 2140 2242
8 2140 2033 2141 2243 2035 1923 2034 2143
8 2143 2034 2142 2246 2037 1924 2036 2146
8 2144 2035 2143 2247 2051 1939 2037 2147
8 2146 2036 2145 2249 2039 1925 2038 2149
8 2147 2037 2146 2250 2040 1926 2039 2150
8 2149 2038 2148 2251 2042 1927 2041 2151
8 2150 2039 2149 2252 2043 1928 2042 2152
8 2152 2042 2151 2253 2045 1931 2044 2153
8 2255 2154 2047 2155 2189 2085 1976 2086
8 2170 2062 1949 2063 2255 2154 2047 2155
8 2256 2155 2048 2156 2190 2086 1977 2087
8 2171 2063 1950 2064 2256 2155 2048 2156
8 2258 2159 2050 2157 2164 2056 1941 2054
8 2160 2053 1946 2058 2262 2163 2060 2167
8 2162 2055 1940 2052 2262 2163 2053 2160
8 2162 2055 2164 2263 2052 1940 2054 2161
8 2163 2057 1948 2060 2264 2165 2061 2168
8 2055 1943 2057 2163 2164 2056 2165 2264
8 2182 2076 2166 2268 2077 1964 2061 2168
8 2183 2077 2168 2269 2078 1965 2060 2167
8 2070 1963 2062 2170 2177 2075 2169 2271
8 2172 2070 1959 2065 2272 2170 2063 2171
8 2172 2070 2177 2273 2065 1959 2072 2173
8 2066 1958 2072 2173 2174 2071 2178 2274
8 2067 1957 2071 2174 2175 2069 2176 2275
8 2175 2069 2176 2275 2079 1973 2083 2184
8 2071 1961 2074 2178 2176 2073 2179 2276
8 2176 2073 2179 2276 2083 1975 2084 2186
8 2072 1962 2075 2177 2178 2074 2180 2277
8 2182 2076 1974 2082 2280 2181 2084 2186
8 2183 2077 1971 2081 2281 2182 2082 2185
8 2184 2083 2186 2282 2080 1972 2082 2185
8 2189 2085 1993 2095 2285 2188 2100 2197
8 2190 2086 1987 2090 2286 2189 2095 2193
8 2192 2097 1989 2089 2287 2196 2094 2191
8 2287 2196 2094 2191 2203 2104 1998 2103
8 2194 2098 1991 2091 2288 2199 2097 2192
8 2195 2096 2197 2289 2093 1988 2095 2193
8 2096 2195 2290 2198 1990 2092 2194 2098
8 2097 1996 2099 2196 2199 2102 2200 2291
8 2196 2099 1999 2104 2291 2200 2105 2204
8 2100 2197 2292 2201 1994 2096 2198 2101
8 1995 2098 2198 2101 2102 2199 2293 2202
8 2206 2107 2204 2296 2106 2001 2104 2203
8 2207 2108 2205 2297 2107 2002 2105 2204
8 2209 2110 2207 2299 2109 2004 2107 2206
8 2210 2111 2208 2300 2110 2005 2108 2207
8 2212 2113 2210 2302 2112 2007 2110 2209
8 2213 2114 2211 2303 2113 2008 2111 2210
8 2220 2117 2213 2305 2120 2011 2113 2212
8 2216 2115 2214 2306 2117 2009 2114 2213
8 2216 2115 2009 2117 2311 2217 2116 2219
8 2219 2116 2010 2119 2314 2218 2118 2222
8 2315 2219 2117 2220 2223 2119 2011 2120
8 2122 2012 2121 2225 2222 2118 2221 2317
8 2318 2222 2119 2223 2226 2122 2013 2123
8 2125 2015 2124 2228 2225 2121 2224 2320
8 2126 2016 2125 2229 2226 2122 2225 2321
8 2128 2018 2127 2231 2228 2124 2227 2323
8 2129 2019 2128 2232 2229 2125 2228 2324
8 2131 2021 2130 2234 2231 2127 2230 2326
8 2132 2022 2131 2235 2232 2128 2231 2327
8 2134 2024 2133 2236 2234 2130 2233 2328
8 2135 2025 2134 2237 2235 2131 2234 2329
8 2137 2028 2136 2238 2237 2134 2236 2330
8 2157 2050 2158 2259 2240 2139 2239 2332
8 2257 2157 2240 2334 2161 2054 2140 2242
8 2240 2139 2241 2335 2140 2033 2141 2243
8 2242 2140 2243 2337 2144 2035 2143 2247
8 2243 2141 2244 2338 2143 2034 2142 2246
8 2246 2142 2245 2341 2146 2036 2145 2249
8 2247 2143 2246 2342 2147 2037 2146 2250
8 2249 2145 2248 2343 2149 2038 2148 2251
8 2250 2146 2249 2344 2150 2039 2149 2252
8 2252 2149 2251 2345 2152 2042 2151 2253
8 2169 2271 2347 2254 2062 2170 2255 2154
8 2189 2085 2188 2285 2255 2154 2254 2347
8 2348 2255 2155 2256 2286 2189 2086 2190
8 2272 2170 2063 2171 2348 2255 2155 2256
8 2349 2258 2157 2257 2263 2164 2054 2161
8 2258 2159 2261 2351 2157 2050 2158 2259
8 2258 2159 2056 2164 2351 2261 2165 2264
8 2262 2163 2060 2167 2355 2264 2168 2269
8 2162 2055 2163 2262 2263 2164 2264 2355
8 2357 2266 2165 2264 2268 2166 2061 2168
8 2268 2166 2076 2182 2361 2267 2181 2280
8 2281 2182 2268 2362 2183 2077 2168 2269
8 2271 2169 2270 2364 2177 2075 2180 2277
8 2172 2070 2170 2272 2273 2177 2271 2365
8 2072 2173 2274 2178 2177 2273 2366 2277
8 2071 2174 2275 2176 2178 2274 2367 2276
8 2275 2176 2276 2367 2184 2083 2186 2282
8 2283 2187 2084 2186 2368 2278 2179 2276
8 2178 2074 2180 2277 2276 2179 2278 2368
8 2283 2187 2279 2370 2186 2084 2181 2280
8 2281 2182 2082 2185 2371 2280 2186 2282
8 2188 2285 2374 2284 2100 2197 2292 2201
8 2286 2189 2095 2193 2375 2285 2197 2289
8 2192 2097 2196 2287 2288 2199 2291 2376
8 2287 2196 2104 2203 2376 2291 2204 2296
8 2194 2098 2199 2288 2290 2198 2293 2377
8 2289 2197 2096 2195 2378 2292 2198 2290
8 2291 2200 2105 2204 2379 2294 2205 2297
8 2199 2102 2200 2291 2293 2202 2294 2379
8 2198 2101 2202 2293 2292 2201 2295 2380
8 2299 2207 2297 2383 2206 2107 2204 2296
8 2300 2208 2298 2384 2207 2108 2205 2297
8 2302 2210 2300 2386 2209 2110 2207 2299
8 2303 2211 2301 2387 2210 2111 2208 2300
8 2305 2213 2303 2389 2212 2113 2210 2302
8 2306 2214 2304 2390 2213 2114 2211 2303
8 2310 2216 2306 2392 2220 2117 2213 2305
8 2308 2215 2307 2393 2216 2115 2214 2306
8 2308 2215 2115 2216 2396 2309 2217 2311
8 2310 2216 2117 2220 2398 2311 2219 2315
8 2311 2217 2116 2219 2399 2312 2218 2314
8 2314 2218 2118 2222 2402 2313 2221 2317
8 2315 2219 2119 2223 2403 2314 2222 2318
8 2225 2121 2224 2320 2317 2221 2316 2405
8 2226 2122 2225 2321 2318 2222 2317 2406
8 2228 2124 2227 2323 2320 2224 2319 2408
8 2229 2125 2228 2324 2321 2225 2320 2409
8 2231 2127 2230 2326 2323 2227 2322 2411
8 2232 2128 2231 2327 2324 2228 2323 2412
8 2234 2130 2233 2328 2326 2230 2325 2413
8 2235 2131 2234 2329 2327 2231 2326 2414
8 2237 2134 2236 2330 2329 2234 2328 2415
8 2259 2158 2260 2352 2332 2239 2331 2417
8 2257 2157 2259 2350 2334 2240 2332 2419
8 2240 2139 2239 2332 2335 2241 2333 2420
8 2334 2240 2335 2422 2242 2140 2243 2337
8 2335 2241 2336 2423 2243 2141 2244 2338
8 2337 2243 2338 2425 2247 2143 2246 2342
8 2338 2244 2339 2426 2246 2142 2245 2341
8 2341 2245 2340 2428 2249 2145 2248 2343
8 2342 2246 2341 2429 2250 2146 2249 2344
8 2344 2249 2343 2430 2252 2149 2251 2345
8 2188 2285 2347 2254 2284 2374 2432 2346
8 2347 2254 2346 2432 2271 2169 2270 2364
8 2365 2271 2170 2272 2433 2347 2255 2348
8 2286 2189 2285 2375 2348 2255 2347 2433
8 2349 2258 2351 2435 2257 2157 2259 2350
8 2349 2258 2164 2263 2435 2351 2264 2355
8 2259 2158 2261 2351 2352 2260 2354 2437
8 2356 2265 2354 2437 2264 2165 2261 2351
8 2441 2357 2264 2355 2362 2268 2168 2269
8 2356 2265 2165 2264 2442 2358 2266 2357
8 2443 2359 2266 2357 2361 2267 2166 2268
8 2370 2279 2360 2446 2280 2181 2267 2361
8 2362 2268 2182 2281 2447 2361 2280 2371
8 2180 2277 2368 2278 2270 2364 2449 2363
8 2271 2365 2273 2177 2364 2450 2366 2277
8 2372 2283 2186 2282 2451 2368 2276 2367
8 2178 2274 2367 2276 2277 2366 2451 2368
8 2283 2187 2278 2368 2370 2279 2369 2452
8 2372 2283 2370 2453 2282 2186 2280 2371
8 2284 2374 2455 2373 2201 2292 2380 2295
8 2375 2285 2197 2289 2456 2374 2292 2378
8 2376 2291 2204 2296 2457 2379 2297 2383
8 2288 2199 2291 2376 2377 2293 2379 2457
8 2198 2290 2378 2292 2293 2377 2458 2380
8 2293 2202 2294 2379 2380 2295 2381 2459
8 2384 2298 2381 2459 2297 2205 2294 2379
8 2386 2300 2384 2463 2299 2207 2297 2383
8 2387 2301 2385 2464 2300 2208 2298 2384
8 2389 2303 2387 2466 2302 2210 2300 2386
8 2390 2304 2388 2467 2303 2211 2301 2387
8 2392 2306 2390 2469 2305 2213 2303 2389
8 2393 2307 2391 2470 2306 2214 2304 2390
8 2395 2308 2393 2472 2310 2216 2306 2392
8 2308 2215 2309 2396 2393 2307 2394 2473
8 2395 2308 2216 2310 2475 2396 2311 2398
8 2396 2309 2217 2311 2476 2397 2312 2399
8 2398 2311 2219 2315 2478 2399 2314 2403
8 2399 2312 2218 2314 2479 2400 2313 2402
8 2317 2221 2316 2405 2402 2313 2401 2482
8 2403 2314 2222 2318 2483 2402 2317 2406
8 2320 2224 2319 2408 2405 2316 2404 2485
8 2321 2225 2320 2409 2406 2317 2405 2486
8 2323 2227 2322 2411 2408 2319 2407 2488
8 2324 2228 2323 2412 2409 2320 2408 2489
8 2326 2230 2325 2413 2411 2322 2410 2490
8 2327 2231 2326 2414 2412 2323 2411 2491
8 2329 2234 2328 2415 2414 2326 2413 2492
8 2417 2331 2260 2352 2494 2416 2353 2438
8 2350 2259 2352 2436 2419 2332 2417 2496
8 2332 2239 2331 2417 2420 2333 2418 2497
8 2334 2240 2332 2419 2422 2335 2420 2499
8 2420 2333 2421 2500 2335 2241 2336 2423
8 2422 2335 2423 2502 2337 2243 2338 2425
8 2423 2336 2424 2503 2338 2244 2339 2426
8 2425 2338 2426 2505 2342 2246 2341 2429
8 2426 2339 2427 2506 2341 2245 2340 2428
8 2429 2341 2428 2507 2344 2249 2343 2430
8 2432 2346 2284 2374 2509 2431 2373 2455
8 2432 2346 2431 2509 2364 2270 2363 2449
8 2375 2285 2374 2456 2433 2347 2432 2510
8 2347 2433 2365 2271 2432 2510 2450 2364
8 2350 2259 2351 2435 2436 2352 2437 2514
8 2440 2356 2437 2514 2355 2264 2351 2435
8 2352 2260 2354 2437 2438 2353 2439 2516
8 2356 2265 2358 2442 2437 2354 2439 2516
8 2440 2356 2264 2355 2518 2442 2357 2441
8 2519 2443 2357 2441 2447 2361 2268 2362
8 2443 2359 2444 2520 2357 2266 2358 2442
8 2443 2359 2267 2361 2520 2444 2360 2446
8 2446 2360 2279 2370 2523 2445 2369 2452
8 2453 2370 2446 2524 2371 2280 2361 2447
8 2449 2363 2448 2525 2368 2278 2369 2452
8 2366 2277 2364 2450 2451 2368 2449 2526
8 2372 2283 2368 2451 2453 2370 2452 2527
8 2455 2373 2295 2380 2529 2454 2382 2460
8 2456 2374 2292 2378 2530 2455 2380 2458
8 2377 2293 2379 2457 2458 2380 2459 2531
8 2463 2384 2459 2531 2383 2297 2379 2457
8 2533 2461 2382 2460 2459 2381 2295 2380
8 2464 2385 2461 2533 2384 2298 2381 2459
8 2466 2387 2464 2537 2386 2300 2384 2463
8 2467 2388 2465 2538 2387 2301 2385 2464
8 2469 2390 2467 2540 2389 2303 2387 2466
8 2470 2391 2468 2541 2390 2304 2388 2467
8 2472 2393 2470 2543 2392 2306 2390 2469
8 2393 2307 2394 2473 2470 2391 2471 2544
8 2395 2308 2396 2475 2472 2393 2473 2546
8 2396 2309 2397 2476 2473 2394 2474 2547
8 2475 2396 2311 2398 2549 2476 2399 2478
8 2476 2397 2312 2399 2550 2477 2400 2479
8 2478 2399 2314 2403 2552 2479 2402 2483
8 2479 2400 2313 2402 2553 2480 2401 2482
8 2405 2316 2404 2485 2482 2401 2481 2556
8 2406 2317 2405 2486 2483 2402 2482 2557
8 2408 2319 2407 2488 2485 2404 2484 2559
8 2409 2320 2408 2489 2486 2405 2485 2560
8 2411 2322 2410 2490 2488 2407 2487 2561
8 2412 2323 2411 2491 2489 2408 2488 2562
8 2414 2326 2413 2492 2491 2411 2490 2563
8 2513 2434 2493 2565 2438 2353 2416 2494
8 2496 2417 2352 2436 2567 2494 2438 2515
8 2494 2416 2495 2568 2417 2331 2418 2497
8 2419 2332 2417 2496 2499 2420 2497 2570
8 2497 2418 2498 2571 2420 2333 2421 2500
8 2499 2420 2500 2573 2422 2335 2423 2502
8 2500 2421 2501 2574 2423 2336 2424 2503
8 2502 2423 2503 2576 2425 2338 2426 2505
8 2503 2424 2504 2577 2426 2339 2427 2506
8 2505 2426 2506 2578 2429 2341 2428 2507
8 2509 2431 2373 2455 2580 2508 2454 2529
8 2509 2431 2508 2580 2449 2363 2448 2525
8 2432 2510 2581 2509 2374 2456 2530 2455
8 2432 2510 2450 2364 2509 2581 2526 2449
8 2583 2511 2434 2513 2516 2439 2353 2438
8 2436 2352 2437 2514 2515 2438 2516 2588
8 2440 2356 2442 2518 2514 2437 2516 2588
8 2442 2358 2444 2520 2516 2439 2517 2589
8 2519 2443 2520 2591 2441 2357 2442 2518
8 2519 2443 2361 2447 2591 2520 2446 2524
8 2446 2360 2445 2523 2520 2444 2521 2592
8 2525 2448 2522 2593 2452 2369 2445 2523
8 2524 2446 2370 2453 2594 2523 2452 2527
8 2526 2449 2525 2595 2451 2368 2452 2527
8 2534 2462 2528 2597 2460 2382 2454 2529
8 2530 2455 2380 2458 2598 2529 2460 2532
8 2599 2533 2460 2532 2531 2459 2380 2458
8 2537 2464 2533 2599 2463 2384 2459 2531
8 2534 2462 2382 2460 2601 2535 2461 2533
8 2538 2465 2535 2601 2464 2385 2461 2533
8 2540 2467 2538 2604 2466 2387 2464 2537
8 2541 2468 2539 2605 2467 2388 2465 2538
8 2543 2470 2541 2607 2469 2390 2467 2540
8 2470 2391 2471 2544 2541 2468 2542 2608
8 2472 2393 2473 2546 2543 2470 2544 2610
8 2473 2394 2474 2547 2544 2471 2545 2611
8 2475 2396 2476 2549 2546 2473 2547 2613
8 2476 2397 2477 2550 2547 2474 2548 2614
8 2549 2476 2399 2478 2616 2550 2479 2552
8 2479 2400 2480 2553 2550 2477 2551 2617
8 2552 2479 2402 2483 2619 2553 2482 2557
8 2482 2401 2481 2556 2553 2480 2554 2620
8 2485 2404 2484 2559 2556 2481 2555 2623
8 2486 2405 2485 2560 2557 2482 2556 2624
8 2488 2407 2487 2561 2559 2484 2558 2625
8 2489 2408 2488 2562 2560 2485 2559 2626
8 2491 2411 2490 2563 2562 2488 2561 2627
8 2513 2434 2512 2585 2565 2493 2564 2630
8 2586 2513 2565 2632 2515 2438 2494 2567
8 2565 2493 2566 2633 2494 2416 2495 2568
8 2567 2494 2568 2635 2496 2417 2497 2570
8 2568 2495 2569 2636 2497 2418 2498 2571
8 2570 2497 2571 2638 2499 2420 2500 2573
8 2571 2498 2572 2639 2500 2421 2501 2574
8 2573 2500 2574 2641 2502 2423 2503 2576
8 2574 2501 2575 2642 2503 2424 2504 2577
8 2576 2503 2577 2643 2505 2426 2506 2578
8 2597 2528 2579 2645 2529 2454 2508 2580
8 2580 2508 2579 2645 2525 2448 2522 2593
8 2581 2509 2455 2530 2646 2580 2529 2598
8 2581 2509 2580 2646 2526 2449 2525 2595
8 2583 2511 2582 2648 2513 2434 2512 2585
8 2583 2511 2439 2516 2648 2582 2517 2589
8 2649 2583 2513 2586 2588 2516 2438 2515
8 2589 2517 2444 2520 2653 2587 2521 2592
8 2518 2442 2520 2591 2588 2516 2589 2654
8 2593 2522 2590 2655 2523 2445 2521 2592
8 2524 2446 2523 2594 2591 2520 2592 2656
8 2595 2525 2593 2657 2527 2452 2523 2594
8 2602 2536 2596 2659 2534 2462 2528 2597
8 2600 2534 2597 2660 2532 2460 2529 2598
8 2600 2534 2460 2532 2661 2601 2533 2599
8 2604 2538 2601 2661 2537 2464 2533 2599
8 2602 2536 2462 2534 2663 2603 2535 2601
8 2601 2535 2465 2538 2663 2603 2539 2605
8 2607 2541 2605 2665 2540 2467 2538 2604
8 2608 2542 2606 2666 2541 2468 2539 2605
8 2543 2470 2544 2610 2607 2541 2608 2668
8 2544 2471 2545 2611 2608 2542 2609 2669
8 2546 2473 2547 2613 2610 2544 2611 2671
8 2547 2474 2548 2614 2611 2545 2612 2672
8 2549 2476 2550 2616 2613 2547 2614 2674
8 2550 2477 2551 2617 2614 2548 2615 2675
8 2552 2479 2553 2619 2616 2550 2617 2677
8 2553 2480 2554 2620 2617 2551 2618 2678
8 2557 2482 2556 2624 2619 2553 2620 2680
8 2556 2481 2555 2623 2620 2554 2621 2681
8 2559 2484 2558 2625 2623 2555 2622 2683
8 2560 2485 2559 2626 2624 2556 2623 2684
8 2562 2488 2561 2627 2626 2559 2625 2685
8 2690 2629 2564 2630 2650 2584 2512 2585
8 2586 2513 2585 2651 2632 2565 2630 2691
8 2630 2564 2631 2692 2565 2493 2566 2633
8 2632 2565 2633 2694 2567 2494 2568 2635
8 2633 2566 2634 2695 2568 2495 2569 2636
8 2635 2568 2636 2697 2570 2497 2571 2638
8 2636 2569 2637 2698 2571 2498 2572 2639
8 2638 2571 2639 2700 2573 2500 2574 2641
8 2639 2572 2640 2701 2574 2501 2575 2642
8 2641 2574 2642 2702 2576 2503 2577 2643
8 2597 2528 2596 2659 2645 2579 2644 2704
8 2645 2579 2644 2704 2593 2522 2590 2655
8 2660 2597 2645 2705 2598 2529 2580 2646
8 2646 2580 2645 2705 2595 2525 2593 2657
8 2650 2584 2512 2585 2707 2647 2582 2648
8 2648 2582 2517 2589 2707 2647 2587 2653
8 2649 2583 2648 2708 2586 2513 2585 2651
8 2649 2583 2516 2588 2708 2648 2589 2654
8 2655 2590 2652 2710 2592 2521 2587 2653
8 2654 2589 2520 2591 2711 2653 2592 2656
8 2657 2593 2655 2712 2594 2523 2592 2656
8 2602 2536 2603 2663 2659 2596 2658 2714
8 2662 2602 2659 2715 2600 2534 2597 2660
8 2662 2602 2534 2600 2717 2663 2601 2661
8 2661 2601 2538 2604 2717 2663 2605 2665
8 2666 2606 2664 2718 2605 2539 2603 2663
8 2668 2608 2666 2720 2607 2541 2605 2665
8 2608 2542 2609 2669 2666 2606 2667 2721
8 2610 2544 2611 2671 2668 2608 2669 2723
8 2611 2545 2612 2672 2669 2609 2670 2724
8 2613 2547 2614 2674 2671 2611 2672 2726
8 2614 2548 2615 2675 2672 2612 2673 2727
8 2616 2550 2617 2677 2674 2614 2675 2729
8 2617 2551 2618 2678 2675 2615 2676 2730
8 2619 2553 2620 2680 2677 2617 2678 2732
8 2620 2554 2621 2681 2678 2618 2679 2733
8 2624 2556 2623 2684 2680 2620 2681 2735
8 2681 2621 2555 2623 2736 2682 2622 2683
8 2626 2559 2625 2685 2684 2623 2683 2737
8 2688 2628 2584 2650 2740 2686 2647 2707
8 2688 2628 2687 2742 2650 2584 2629 2690
8 2690 2629 2689 2745 2630 2564 2631 2692
8 2746 2690 2630 2691 2709 2650 2585 2651
8 2691 2630 2692 2747 2632 2565 2633 2694
8 2692 2631 2693 2748 2633 2566 2634 2695
8 2694 2633 2695 2750 2635 2568 2636 2697
8 2695 2634 2696 2751 2636 2569 2637 2698
8 2697 2636 2698 2753 2638 2571 2639 2700
8 2698 2637 2699 2754 2639 2572 2640 2701
8 2700 2639 2701 2755 2641 2574 2642 2702
8 2659 2596 2658 2714 2704 2644 2703 2757
8 2704 2644 2703 2757 2655 2590 2652 2710
8 2660 2597 2659 2715 2705 2645 2704 2758
8 2705 2645 2704 2758 2657 2593 2655 2712
8 2759 2706 2647 2707 2710 2652 2587 2653
8 2709 2650 2585 2651 2760 2707 2648 2708
8 2708 2648 2589 2654 2760 2707 2653 2711
8 2712 2655 2710 2761 2656 2592 2653 2711
8 2763 2713 2658 2714 2718 2664 2603 2663
8 2662 2602 2663 2717 2715 2659 2714 2764
8 2720 2666 2718 2767 2665 2605 2663 2717
8 2768 2719 2664 2718 2721 2667 2606 2666
8 2668 2608 2669 2723 2720 2666 2721 2770
8 2669 2609 2670 2724 2721 2667 2722 2771
8 2671 2611 2672 2726 2723 2669 2724 2773
8 2672 2612 2673 2727 2724 2670 2725 2774
8 2674 2614 2675 2729 2726 2672 2727 2776
8 2675 2615 2676 2730 2727 2673 2728 2777
8 2677 2617 2678 2732 2729 2675 2730 2779
8 2678 2618 2679 2733 2730 2676 2731 2780
8 2680 2620 2681 2735 2732 2678 2733 2782
8 2733 2679 2621 2681 2783 2734 2682 2736
8 2735 2681 2623 2684 2784 2736 2683 2737
8 2740 2686 2647 2707 2787 2738 2706 2759
8 2688 2628 2686 2740 2742 2687 2739 2789
8 2743 2688 2650 2709 2790 2740 2707 2760
8 2742 2687 2741 2792 2690 2629 2689 2745
8 2743 2688 2742 2793 2709 2650 2690 2746
8 2745 2689 2744 2795 2692 2631 2693 2748
8 2746 2690 2745 2796 2691 2630 2692 2747
8 2747 2692 2748 2797 2694 2633 2695 2750
8 2748 2693 2749 2798 2695 2634 2696 2751
8 2750 2695 2751 2800 2697 2636 2698 2753
8 2751 2696 2752 2801 2698 2637 2699 2754
8 2753 2698 2754 2802 2700 2639 2701 2755
8 2763 2713 2756 2804 2714 2658 2703 2757
8 2759 2706 2652 2710 2804 2756 2703 2757
8 2715 2659 2714 2764 2758 2704 2757 2805
8 2758 2704 2757 2805 2712 2655 2710 2761
8 2806 2759 2707 2760 2761 2710 2653 2711
8 2765 2716 2762 2808 2718 2664 2713 2763
8 2809 2763 2714 2764 2767 2718 2663 2717
8 2765 2716 2664 2718 2811 2766 2719 2768
8 2813 2768 2718 2767 2770 2721 2666 2720
8 2814 2769 2719 2768 2771 2722 2667 2721
8 2723 2669 2724 2773 2770 2721 2771 2816
8 2724 2670 2725 2774 2771 2722 2772 2817
8 2726 2672 2727 2776 2773 2724 2774 2819
8 2727 2673 2728 2777 2774 2725 2775 2820
8 2729 2675 2730 2779 2776 2727 2777 2822
8 2730 2676 2731 2780 2777 2728 2778 2823
8 2732 2678 2733 2782 2779 2730 2780 2825
8 2780 2731 2679 2733 2826 2781 2734 2783
8 2782 2733 2681 2735 2827 2783 2736 2784
8 2830 2785 2738 2787 2804 2756 2706 2759
8 2789 2739 2686 2740 2832 2786 2738 2787
8 2790 2740 2707 2760 2833 2787 2759 2806
8 2742 2687 2739 2789 2792 2741 2788 2835
8 2743 2688 2740 2790 2793 2742 2789 2836
8 2792 2741 2791 2838 2745 2689 2744 2795
8 2793 2742 2792 2839 2746 2690 2745 2796
8 2795 2744 2794 2841 2748 2693 2749 2798
8 2796 2745 2795 2842 2747 2692 2748 2797
8 2797 2748 2798 2843 2750 2695 2751 2800
8 2798 2749 2799 2844 2751 2696 2752 2801
8 2800 2751 2801 2845 2753 2698 2754 2802
8 2808 2762 2803 2847 2763 2713 2756 2804
8 2809 2763 2804 2848 2764 2714 2757 2805
8 2806 2759 2710 2761 2848 2804 2757 2805
8 2765 2716 2766 2811 2808 2762 2807 2850
8 2810 2765 2808 2851 2767 2718 2763 2809
8 2810 2765 2718 2767 2852 2811 2768 2813
8 2811 2766 2719 2768 2853 2812 2769 2814
8 2855 2814 2768 2813 2816 2771 2721 2770
8 2856 2815 2769 2814 2817 2772 2722 2771
8 2773 2724 2774 2819 2816 2771 2817 2858
8 2774 2725 2775 2820 2817 2772 2818 2859
8 2776 2727 2777 2822 2819 2774 2820 2861
8 2777 2728 2778 2823 2820 2775 2821 2862
8 2779 2730 2780 2825 2822 2777 2823 2864
8 2823 2778 2731 2780 2865 2824 2781 2826
8 2825 2780 2733 2782 2866 2826 2783 2827
8 2869 2828 2785 2830 2847 2803 2756 2804
8 2871 2829 2786 2832 2830 2785 2738 2787
8 2872 2830 2787 2833 2848 2804 2759 2806
8 2789 2739 2786 2832 2835 2788 2831 2874
8 2836 2789 2740 2790 2875 2832 2787 2833
8 2792 2741 2788 2835 2838 2791 2834 2877
8 2793 2742 2789 2836 2839 2792 2835 2878
8 2838 2791 2837 2880 2795 2744 2794 2841
8 2839 2792 2838 2881 2796 2745 2795 2842
8 2841 2794 2840 2882 2798 2749 2799 2844
8 2842 2795 2841 2883 2797 2748 2798 2843
8 2843 2798 2844 2884 2800 2751 2801 2845
8 2886 2846 2803 2847 2850 2807 2762 2808
8 2851 2808 2847 2887 2809 2763 2804 2848
8 2850 2807 2766 2811 2889 2849 2812 2853
8 2810 2765 2811 2852 2851 2808 2850 2890
8 2852 2811 2768 2813 2891 2853 2814 2855
8 2853 2812 2769 2814 2892 2854 2815 2856
8 2894 2856 2814 2855 2858 2817 2771 2816
8 2817 2772 2818 2859 2856 2815 2857 2895
8 2819 2774 2820 2861 2858 2817 2859 2897
8 2820 2775 2821 2862 2859 2818 2860 2898
8 2822 2777 2823 2864 2861 2820 2862 2900
8 2823 2778 2824 2865 2862 2821 2863 2901
8 2864 2823 2780 2825 2902 2865 2826 2866
8 2904 2867 2828 2869 2886 2846 2803 2847
8 2869 2828 2868 2906 2830 2785 2829 2871
8 2907 2869 2830 2872 2887 2847 2804 2848
8 2871 2829 2870 2909 2832 2786 2831 2874
8 2910 2871 2832 2875 2872 2830 2787 2833
8 2835 2788 2831 2874 2877 2834 2873 2912
8 2836 2789 2832 2875 2878 2835 2874 2913
8 2877 2834 2876 2915 2838 2791 2837 2880
8 2839 2792 2835 2878 2881 2838 2877 2916
8 2880 2837 2879 2917 2841 2794 2840 2882
8 2881 2838 2880 2918 2842 2795 2841 2883
8 2883 2841 2882 2919 2843 2798 2844 2884
8 2921 2885 2846 2886 2889 2849 2807 2850
8 2922 2886 2847 2887 2890 2850 2808 2851
8 2889 2849 2812 2853 2924 2888 2854 2892
8 2890 2850 2811 2852 2925 2889 2853 2891
8 2891 2853 2814 2855 2926 2892 2856 2894
8 2892 2854 2815 2856 2927 2893 2857 2895
8 2858 2817 2859 2897 2894 2856 2895 2929
8 2859 2818 2860 2898 2895 2857 2896 2930
8 2861 2820 2862 2900 2897 2859 2898 2932
8 2862 2821 2863 2901 2898 2860 2899 2933
8 2864 2823 2865 2902 2900 2862 2901 2934
8 2904 2867 2846 2886 2936 2903 2885 2921
8 2904 2867 2903 2936 2869 2828 2868 2906
8 2937 2904 2869 2907 2922 2886 2847 2887
8 2906 2868 2905 2939 2871 2829 2870 2909
8 2907 2869 2906 2940 2872 2830 2871 2910
8 2909 2870 2908 2942 2874 2831 2873 2912
8 2910 2871 2909 2943 2875 2832 2874 2913
8 2912 2873 2911 2945 2877 2834 2876 2915
8 2878 2835 2874 2913 2916 2877 2912 2946
8 2915 2876 2914 2947 2880 2837 2879 2917
8 2916 2877 2915 2948 2881 2838 2880 2918
8 2918 2880 2917 2949 2883 2841 2882 2919
8 2921 2885 2849 2889 2951 2920 2888 2924
8 2952 2921 2886 2922 2925 2889 2850 2890
8 2924 2888 2854 2892 2954 2923 2893 2927
8 2925 2889 2853 2891 2955 2924 2892 2926
8 2926 2892 2856 2894 2956 2927 2895 2929
8 2895 2857 2896 2930 2927 2893 2928 2957
8 2897 2859 2898 2932 2929 2895 2930 2959
8 2898 2860 2899 2933 2930 2896 2931 2960
8 2900 2862 2901 2934 2932 2898 2933 2961
8 2936 2903 2885 2921 2963 2935 2920 2951
8 2936 2903 2935 2963 2906 2868 2905 2939
8 2937 2904 2886 2922 2964 2936 2921 2952
8 2937 2904 2936 2964 2907 2869 2906 2940
8 2939 2905 2938 2966 2909 2870 2908 2942
8 2940 2906 2939 2967 2910 2871 2909 2943
8 2942 2908 2941 2969 2912 2873 2911 2945
8 2943 2909 2942 2970 2913 2874 2912 2946
8 2945 2911 2944 2971 2915 2876 2914 2947
8 2946 2912 2945 2972 2916 2877 2915 2948
8 2948 2915 2947 2973 2918 2880 2917 2949
8 2951 2920 2888 2924 2975 2950 2923 2954
8 2952 2921 2889 2925 2976 2951 2924 2955
8 2927 2893 2928 2957 2954 2923 2953 2978
8 2955 2924 2892 2926 2979 2954 2927 2956
8 2929 2895 2930 2959 2956 2927 2957 2980
8 2930 2896 2931 2960 2957 2928 2958 2981
8 2932 2898 2933 2961 2959 2930 2960 2982
8 2951 2920 2950 2975 2963 2935 2962 2984
8 2963 2935 2962 2984 2939 2905 2938 2966
8 2964 2936 2921 2952 2985 2963 2951 2976
8 2964 2936 2963 2985 2940 2906 2939 2967
8 2966 2938 2965 2987 2942 2908 2941 2969
8 2967 2939 2966 2988 2943 2909 2942 2970
8 2969 2941 2968 2989 2945 2911 2944 2971
8 2970 2942 2969 2990 2946 2912 2945 2972
8 2972 2945 2971 2991 2948 2915 2947 2973
8 2954 2923 2953 2978 2975 2950 2974 2993
8 2976 2951 2924 2955 2994 2975 2954 2979
8 2957 2928 2958 2981 2978 2953 2977 2995
8 2956 2927 2957 2980 2979 2954 2978 2996
8 2959 2930 2960 2982 2980 2957 2981 2997
8 2984 2962 2983 2999 2966 2938 2965 2987
8 2975 2950 2974 2993 2984 2962 2983 2999
8 2976 2951 2975 2994 2985 2963 2984 3000
8 2985 2963 2984 3000 2967 2939 2966 2988
8 2987 2965 2986 3001 2969 2941 2968 2989
8 2988 2966 2987 3002 2970 2942 2969 2990
8 2990 2969 2989 3003 2972 2945 2971 2991
8 2978 2953 2977 2995 2993 2974 2992 3004
8 2979 2954 2978 2996 2994 2975 2993 3005
8 2980 2957 2981 2997 2996 2978 2995 3006
8 2974 2993 2999 2983 2992 3004 3007 2998
8 2983 2999 2987 2965 2998 3007 3001 2986
8 3000 2984 2999 3008 2988 2966 2987 3002
8 2994 2975 2993 3005 3000 2984 2999 3008
8 3002 2987 3001 3009 2990 2969 2989 3003
8 2996 2978 2995 3006 3005 2993 3004 3010
8 3005 2993 3004 3010 3008 2999 3007 3011
8 3008 2999 3007 3011 3002 2987 3001 3009

CELL_TYPES 1910
12
12
12
12
12
12
12
12
12
12
12
12
12
12
12
12
12
12
12
12
12
12
12
12
12
12
12
12
12
12
12
12
12
12
12
12
12
12
12
12
12
12
12
12
12
12
12
12
12
12
12
12
12
12
12
12
12
12
12
12
12
12
12
12
12
12
12
12
12
12
12
12
12
12
12
12
12
12
12
12
12
12
12
12
12
12
12
12
12
12
12
12
12
12
12
12
12
12
12
12
12
12
12
12
12
12
12
12
12
12
12
12
12
12
12
12
12
12
12
12
12
12
12
12
12
12
12
12
12
12
12
12
12
12
12
12
12
12
12
12
12
12
12
12
12
12
12
12
12
12
12
12
12
12
12
12
12
12
12
12
12
12
12
12
12
12
12
12
12
12
12
12
12
12
12
12
12
12
12
12
12
12
12
12
12
12
12
12
12
12
12
12
12
12
12
12
12
12
12
12
12
12
12
12
12
12
12
12
12
12
12
12
12
12
12
12
12
12
12
12
12
12
12
12
12
12
12
12
12
12
12
12
12
12
12
12
12
12
12
12
12
12
12
12
12
12
12
12
12
12
12
12
12
12
12
12
12
12
12
12
12
12
12
12
12
12
12
12
12
12
12
12
12
12
12
12
12
12
12
12
12
12
12
12
12
12
12
12
12
12
12
12
12
12
12
12
12
12
12
12
12
12
12
12
12
12
12
12
12
12
12
12
12
12
12
12
12
12
12
12
12
12
12
12
12
12
12
12
12
12
12
12
12
12
12
12
12
12
12
12
12
12
12
12
12
12
12
12
12
12
12
12
12
12
12
12
12
12
12
12
12
12
12
12
12
12
12
12
12
12
12
12
12
12
12
12
12
12
12
12
12
12
12
12
12
12
12
12
12
12
12
12
12
12
12
12
12
12
12
12
12
12
12
12
12
12
12
12
12
12
12
12
12
12
12
12
12
12
12
12
12
12
12
12
12
12
12
12
12
12
12
12
12
12
12
12
12
12
12
12
12
12
12
12
12
12
12
12
12
12
12
12
12
12
12
12
12
12
12
12
12
12
12
12
12
12
12
12
12
12
12
12
12
12
12
12
12
12
12
12
12
12
12
12
12
12
12
12
12
12
12
12
12
12
12
12
12
12
12
12
12
12
12
12
12
12
12
12
12
12
12
12
12
12
12
12
12
12
12
12
12
12
12
12
12
12
12
12
12
12
12
12
12
12
12
12
12
12
12
12
12
12
12
12
12
12
12
12
12
12
12
12
12
12
12
12
12
12
12
12
12
12
12
12
12
12
12
12
12
12
12
12
12
12
12
12
12
12
12
12
12
12
12
12
12
12
12
12
12
12
12
12
12
12
12
12
12
12
12
12
12
12
12
12
12
12
12
12
12
12
12
12
12
12
12
12
12
12
12
12
12
12
12
12
12
12
12
12
12
12
12
12
12
12
12
12
12
12
12
12
12
12
12
12
12
12
12
12
12
12
12
12
12
12
12
12
12
12
12
12
12
12
12
12
12
12
12
12
12
12
12
12
12
12
12
12
12
12
12
12
12
12
12
12
12
12
12
12
12
12
12
12
12
12
12
12
12
12
12
12
12
12
12
12
12
12
12
12
12
12
12
12
12
12
12
12
12
12
12
12
12
12
12
12
12
12
12
12
12
12
12
12
12
12
12
12
12
12
12
12
12
12
12
12
12
12
12
12
12
12
12
12
12
12
12
12
12
12
12
12
12
12
12
12
12
12
12
12
12
12
12
12
12
12
12
12
12
12
12
12
12
12
12
12
12
12
12
12
12
12
12
12
12
12
12
12
12
12
12
12
12
12
12
12
12
12
12
12
12
12
12
12
12
12
12
12
12
12
12
12
12
12
12
12
12
12
12
12
12
12
12
12
12
12
12
12
12
12
12
12
12
12
12
12
12
12
12
12
12
12
12
12
12
12
12
12
12
12
12
12
12
12
12
12
12
12
12
12
12
12
12
12
12
12
12
12
12
12
12
12
12
12
12
12
12
12
12
12
12
12
12
12
12
12
12
12
12
12
12
12
12
12
12
12
12
12
12
12
12
12
12
12
12
12
12
12
12
12
12
12
12
12
12
12
12
12
12
12
12
12
12
12
12
12
12
12
12
12
12
12
12
12
12
12
12
12
12
12
12
12
12
12
12
12
12
12
12
12
12
12
12
12
12
12
12
12
12
12
12
12
12
12
12
12
12
12
12
12
12
12
12
12
12
12
12
12
12
12
12
12
12
12
12
12
12
12
12
12
12
12
12
12
12
12
12
12
12
12
12
12
12
12
12
12
12
12
12
12
12
12
12
12
12
12
12
12
12
12
12
12
12
12
12
12
12
12
12
12
12
12
12
12
12
12
12
12
12
12
12
12
12
12
12
12
12
12
12
12
12
12
12
12
12
12
12
12
12
12
12
12
12
12
12
12
12
12
12
12
12
12
12
12
12
12
12
12
12
12
12
12
12
12
12
12
12
12
12
12
12
12
12
12
12
12
12
12
12
12
12
12
12
12
12
12
12
12
12
12
12
12
12
12
12
12
12
12
12
12
12
12
12
12
12
12
12
12
12
12
12
12
12
12
12
12
12
12
12
12
12
12
12
12
12
12
12
12
12
12
12
12
12
12
12
12
12
12
12
12
12
12
12
12
12
12
12
12
12
12
12
12
12
12
12
12
12
12
12
12
12
12
12
12
12
12
12
12
12
12
12
12
12
12
12
12
12
12
12
12
12
12
12
12
12
12
12
12
12
12
12
12
12
12
12
12
12
12
12
12
12
12
12
12
12
12
12
12
12
12
12
12
12
12
12
12
12
12
12
12
12
12
12
12
12
12
12
12
12
12
12
12
12
12
12
12
12
12
12
12
12
12
12
12
12
12
12
12
12
12
12
12
12
12
12
12
12
12
12
12
12
12
12
12
12
12
12
12
12
12
12
12
12
12
12
12
12
12
12
12
12
12
12
12
12
12
12
12
12
12
12
12
12
12
12
12
12
12
12
12
12
12
12
12
12
12
12
12
12
12
12
12
12
12
12
12
12
12
12
12
12
12
12
12
12
12
12
12
12
12
12
12
12
12
12
12
12
12
12
12
12
12
12
12
12
12
12
12
12
12
12
12
12
12
12
12
12
12
12
12
12
12
12
12
12
12
12
12
12
12
12
12
12
12
12
12
12
12
12
12
12
12
12
12
12
12
12
12
12
12
12
12
12
12
12
12
12
12
12
12
12
12
12
12
12
12
12
12
12
12
12
12
12
12
12
12
12
12
12
12
12
12
12
12
12
12
12
12
12
12
12
12
12
12
12
12
12
12
12
12
12
12
12
12
12
12
12
12
12
12
12
12
12
12
12
12
12
12
12
12
12
12
12
12
12
12
12
12
12
12
12
12
12
12
12
12
12
12
12
12
12
12
12
12
12
12
12
12
12
12
12
12
12
12
12
12
12
12
12
12
12
12
12
12
12
12
12
12
12
12
12
12
12
12
12
12
12
12
12
12
12
12
12
12
12
12
12
12
12
12
12
12
12
12
12
12
12
12
12
12
12
12
12
12
12
12
12
12
12
12
12
12
12
12
12
12
12
12
12
12
12
12
12
12
12
12
12
12
12
12
12
12
12
12
12
12
12
12
12
12
12
12
12
12
12
12
12
12
12
12
12
12
12
12
12
12
12
12
12
12
12
12
12
12
12
12
12
12
12
12
12
12
12
12
12
12
12
12
12
12
12
12
12
12
12
12
12
12
12
12
12
12
12
12
12
12
12
12
12
12
12
12
12
12
12
12
12
12
12
12
12
12
12
12
12
12
12
12
12
12
12
12
12
12
12
12
12
12
12
12
12
12
12
12
12
12
12
12
12
12
12
12
12
12
12
12
12
12
12
12
12
12
12
12
12
12
12
12
12
12
12
12
12
12
12
12
12
12
12
12
12
12
12
12
12
12
12
12
12
12
12
12
12
12
12
12
12
12
12
12
12
12
12
12
12
12
12
12
12
12
12
12
12
12
12
12
12
12
12
12
12
12
12
12
12
12
12
12
12
12
12
12
12
12
12
12
12
12
12
12
12
12
12
12
12
12
12
12
12
12
12
12
12
12
12
12
12
12
12
12
12
12
12
12
12
12
12
12
12
12
12
12
12
12
12
12
12
12
12
12
12
12
12
12
12
12
12
12
12
12
12
12
12
12
12
12
12
12
12
12
12
12
12
12
12
12
12
12
12
12
12
12
12
12
12
12
12
12
12
12
12
12
12
12
12
12
12
12
12
12
12
12
12
12
12
12
12
12
12
12
12
12
12
12
12
12
12
12
12
12
12
12

POINT_DATA 3012
SCALARS Jp_lamdaP float 4
LOOKUP_TABLE default
0.999416 1 1 0.999416
1 1 1 1
0.999434 1 1 0.999434
0.999358 1 1 0.999358
0.999418 1 1 0.999418
0.999384 1 1 0.999384
1.01312 1.01487 1 0.998277
1 1 1 1
1 1 1 1
1 1 1 1
0.999458 1 1 0.999458
1.0093 1.01106 1 0.998259
0.999411 1 1 0.999411
0.99939 1 1 0.99939
0.999442 1 1 0.999442
0.999397 1 1 0.999397
0.999395 1 1 0.999395
0.999446 1 1 0.999446
1.01306 1.01481 1 0.998274
1 1 1 1
0.999348 1 1 0.999348
0.999392 1 1 0.999392
1.00647 1.00829 1 0.998191
1.01162 1.01337 1 0.998273
0.999368 1 1 0.999368
1.01309 1.01486 1 0.998257
1.0424 1.04595 1 0.996601
1 1 1 1
0.99971 1 1 0.99971
0.999721 1 1 0.999721
1 1 1 1
1.00733 1.00908 1 0.998268
0.99941 1 1 0.99941
0.99944 1 1 0.99944
1.01314 1.01467 1 0.998498
1 1 1 1
1.01328 1.01474 1 0.998555
1.00291 1.0046 1 0.998317
1.02899 1.03262 1 0.996484
1 1 1 1
1 1 1 1
0.999698 1 1 0.999698
1 1 1 1
0.999413 1 1 0.999413
1.00078 1.00268 1 0.998111
1 1 1 1
1.0052 1.00679 1 0.998415
0.999431 1 1 0.999431
0.999468 1 1 0.999468
0.999399 1 1 0.999399
1.01305 1.0148 1 0.998276
0.999683 1 1 0.999683
0.999383 1 1 0.999383
0.999382 1 1 0.999382
0.999428 1 1 0.999428
1.00621 1.00805 1 0.998181
1.01312 1.01489 1 0.998255
1.01143 1.01318 1 0.998268
1.04289 1.04646 1 0.996594
1 1 1 1
0.999369 1 1 0.999369
1.00094 1.00243 1 0.99851
1.00435 1.00619 1 0.998178
1.00914 1.01092 1 0.998234
1.04183 1.04553 1 0.99646
1.04347 1.0471 1 0.996529
0.999394 1 1 0.999394
1.00554 1.00725 1 0.9983
1.04114 1.04466 1 0.996629
1.06261 1.06712 1 0.995774
1 1 1 1
1 1 1 1
1 1 1 1
1.00561 1.00734 1 0.998275
1 1 1 1
1 1 1 1
1.01318 1.01501 1 0.998193
0.999783 1 1 0.999783
1.01221 1.01397 1 0.99827
1.00175 1.00312 1.00011 0.998532
1.03151 1.03516 1 0.996479
1 1 1 1
1.0038 1 1.00444 0.999363
1.01082 1.01274 1 0.998106
1.01368 1.01549 1 0.998215
1.04978 1.05381 1 0.996178
1.00032 1.0005 1.0009 0.99892
1.03996 1.04369 1 0.996421
1.02257 1.0259 1.00011 0.996648
1.05251 1.05702 1 0.995733
1 1 1 1
1 1 1 1
1 1 1 1
1 1 1 1
1 1 1 1
0.999708 1 1 0.999708
1.00141 1.00312 1 0.998298
0.999695 1 1 0.999695
1.0061 1.00786 1 0.998261
1 1 1 1
0.999957 1.0018 1 0.998159
1.00273 1.0043 1 0.998434
1.0399 1.04389 1 0.996178
1.00852 1.01009 1 0.998444
1.04627 1.05031 1 0.996156
0.999436 1 1 0.999436
0.999415 1 1 0.999415
0.99939 1 1 0.99939
0.999459 1 1 0.999459
1.00596 1.0078 1 0.998174
1.01124 1.01299 1 0.998267
1.01293 1.0147 1 0.998258
1.04362 1.04719 1 0.996587
1 1 1 1
0.999401 1 1 0.999401
1.00054 1.00234 1 0.998205
1.00399 1.00584 1 0.998166
0.999703 1 1 0.999703
1.00697 1.00858 1 0.998406
1.00892 1.01071 1 0.998228
1.04202 1.04574 1 0.996449
1.04049 1.04402 1 0.996621
1.04425 1.04787 1 0.99654
1.06221 1.0667 1 0.995784
1.00008 1.0019 1 0.998183
1.00238 1.00418 1 0.998203
1.03612 1.03974 1 0.996513
1.03891 1.04261 1 0.996456
1.04429 1.04798 1 0.996481
1.07696 1.08159 0.99976 0.995961
1 1 1 1
1.06731 1.07177 1 0.99584
1.0002 1.00133 1.00048 0.998393
1.03139 1.03502 1 0.996496
1.05883 1.0634 1 0.995705
1.06593 1.07032 1 0.995893
1.00251 1 1.00361 0.998908
1.00754 1.00028 1.00977 0.997512
1 1 1 1
1 1 1 1
1.01344 1.01528 1 0.998196
1 1 1 1
1.00062 1.0017 1.00051 0.998418
1.01149 1.01324 1 0.998276
1.03335 1.03701 1 0.996474
1 1 1 1
1.00403 1 1.00464 0.999388
1.01168 1.01341 1 0.998288
1.0138 1.01544 1 0.998383
1.04874 1.05276 1 0.996176
1.00064 1.00034 1.00155 0.998752
1.0399 1.04363 1 0.996421
1.02154 1.02485 1.00013 0.996644
1.05239 1.05689 1 0.995743
1.00205 1 1.00299 0.999063
1.00458 1 1.00499 0.999593
1.00963 1.0018 1.0099 0.997933
1.04994 1.05403 1 0.996122
1.04696 1.05085 1 0.996297
1.0717 1.07628 1 0.995749
1.01567 1.01723 1.00146 0.997013
1.05765 1.06206 1 0.995846
1.04028 1.04412 1.00057 0.99575
1.05989 1.06445 1 0.995716
1 1 1 1
1 1 1 1
1 1 1 1
1.00313 1 1.00401 0.99913
1 1 1 1
1 1 1 1
1 1 1 1
1.00679 1.0087 1 0.998113
1.00166 1.00352 1 0.998153
1 1 1 1
1 1 1 1
1.00015 1.00199 1 0.99816
1.00325 1.00497 1 0.998283
1.03976 1.04375 1 0.996179
1.00893 1.01084 1 0.998108
1.04483 1.04886 1 0.996153
0.999708 1.00155 1 0.998166
1.0374 1.0414 1 0.996162
1.04293 1.04692 1 0.996183
1.07781 1.08354 0.998595 0.99611
1.0481 1.05218 1 0.996123
1.07863 1.08426 0.998767 0.996034
1 1 1 1
0.999434 1 1 0.999434
1.00008 1.00222 1 0.997863
1.00366 1.00551 1 0.998155
1 1 1 1
1.00868 1.01018 1 0.998516
1.00871 1.0105 1 0.998225
1.04215 1.04587 1 0.996437
1.04516 1.04878 1 0.996552
1.03957 1.0431 1 0.996613
1.06139 1.06587 1 0.995795
0.999923 1.00175 1 0.998181
1.0021 1.00392 1 0.99819
1.0367 1.04049 1 0.996362
1.03963 1.04333 1 0.996451
1 1 1 1
1.00204 1.00328 1.00025 0.998522
1.03062 1.0341 1.00003 0.996609
1.04471 1.04841 1 0.996472
1.07613 1.08127 0.99925 0.995988
1.05881 1.06338 1 0.995706
1.0673 1.07173 1 0.995867
1.06548 1.06986 1 0.995902
1.00216 1 1.00327 0.998895
1.00753 1.00109 1.00895 0.997509
1.03578 1.03975 1 0.996182
1.03706 1.04071 1 0.996494
1.0767 1.08208 0.998937 0.99609
1.07579 1.08214 0.998079 0.996045
1.0717 1.07697 0.999138 0.995971
1.07323 1.08248 0.995183 0.99626
1.00066 1.00002 1.002 0.998646
1.06798 1.07287 0.999344 0.996094
1.02002 1.02329 1.00011 0.996702
1.05459 1.05918 1 0.995663
1.06511 1.06974 1 0.995677
1.06338 1.06852 0.998943 0.996247
1.00593 1.00306 1.00572 0.997163
1.00829 1.00013 1.01027 0.997912
1.00765 1.00495 1.00598 0.996724
1.01218 1.01407 1 0.998143
1 1 1 1
1.00384 1 1.00443 0.999412
1.01354 1.01531 1 0.998253
1.04786 1.05189 1 0.996173
1.00062 1 1.00187 0.998747
1.02182 1.02522 1.00004 0.99664
1.03965 1.04338 1 0.996421
1.05357 1.05806 1 0.995753
1.00246 1 1.00338 0.999087
1.00361 1 1.004 0.999612
1.00882 1.00072 1.01018 0.997932
1.04904 1.05313 1 0.996117
1.0458 1.04969 1 0.996298
1.07191 1.07649 1 0.995743
1.01235 1.0142 1.00116 0.997016
1.05852 1.06294 1 0.995839
1.04527 1.04923 1.00049 0.995738
1.06106 1.06561 1 0.995736
1.00217 1 1.00243 0.999739
1.00988 1.00692 1.00552 0.997441
1.01047 1 1.01209 0.998395
1.01138 1.00715 1.00694 0.997278
1.07647 1.08114 0.999877 0.99581
1.0652 1.06972 1 0.995778
1.07164 1.07679 0.999327 0.995894
1.02671 1.0296 1.00111 0.99609
1.05972 1.06402 1 0.995958
1.05445 1.0575 1.00158 0.995546
1.07362 1.07817 1 0.995774
1.00081 1 1.00149 0.99932
0.999894 1 1 0.999889
1 1 1 1
1 1 1 1
1 1 1 1
1.00371 1 1.00437 0.999347
1 1 1 1
1.00323 1 1.00412 0.99911
1 1 1 1
1.00983 1.01174 1 0.998109
1.00388 1.00576 1 0.998136
1.04388 1.04791 1 0.996152
1.03969 1.04367 1 0.99618
1.00037 1.00222 1 0.998162
1 1 1 1
0.999768 1.00161 1 0.998165
1.03753 1.04153 1 0.996163
1.04247 1.04647 1 0.996182
1.07758 1.08332 0.998587 0.996109
1.0474 1.05148 1 0.996118
1.07954 1.08505 0.998879 0.996031
1.03593 1.03992 1 0.996164
1.07711 1.08271 0.998731 0.996091
1.07852 1.08422 0.998642 0.996096
1.07044 1.08109 0.99364 0.996482
1.07903 1.08424 0.999271 0.995926
1.07314 1.08511 0.992591 0.996354
0.999844 1.00167 1 0.99818
1.00181 1.00364 1 0.998178
1.03732 1.04126 1 0.996213
1.04038 1.0441 1 0.996446
1 1 1 1
1.00367 1.00498 1.00004 0.998654
1.02998 1.03336 1.00001 0.996722
1.04512 1.04883 1 0.996463
1.07537 1.08108 0.998704 0.996014
1.06711 1.07151 1 0.995894
1.05959 1.06416 1 0.995707
1.06531 1.06969 1 0.995911
1.00197 1 1.00309 0.998882
1.00807 1.00199 1.00859 0.997507
1.03596 1.03992 1 0.99619
1.03772 1.04138 1 0.996488
1.07595 1.08169 0.998573 0.99612
1.07648 1.08229 0.998617 0.996016
1.00051 1.00031 1.00156 0.998635
1.02053 1.02371 1.00019 0.996702
1.05567 1.06025 1 0.995678
1.07204 1.0769 0.999549 0.995941
1.07236 1.08239 0.994393 0.996315
1.06444 1.06906 1 0.995683
1.06801 1.07298 0.999264 0.996097
1.0637 1.06882 0.998972 0.996233
1.00764 1.00489 1.0056 0.997161
1.00887 1.00545 1.0067 0.996719
1.00937 1.00021 1.01127 0.997914
1.07655 1.08188 0.998992 0.996078
1.0767 1.08286 0.998195 0.99611
1.07078 1.08033 0.994737 0.996407
1.07225 1.08408 0.992712 0.996347
1.06852 1.07648 0.99634 0.996252
1.06303 1.07891 0.988622 0.996621
1.00785 1.01 1.00093 0.99694
1.0614 1.07215 0.993513 0.996435
1.04397 1.04832 1 0.995847
1.05846 1.06335 1 0.995397
1.06014 1.06462 1 0.995793
1.05527 1.06401 0.995247 0.996523
1.01183 1 1.01364 0.998217
1.01144 1.01254 1.00247 0.996451
1.00933 1.00111 1.0112 0.997046
1.01303 1.01185 1.00486 0.996327
1.04819 1.05229 1 0.996112
1.00304 1 1.00342 0.99963
1.00297 1 1.00386 0.999112
1.00985 1.00011 1.01183 0.997931
1.04484 1.04872 1 0.996298
1.072 1.07659 1 0.995737
1.00731 1.00943 1.00089 0.997019
1.04663 1.05078 1.00033 0.995725
1.05947 1.0639 1 0.995833
1.06025 1.06477 1 0.995757
1.00152 1 1.00177 0.999753
1.00776 1.00439 1.00592 0.997451
1.01163 1.00009 1.01316 0.998397
1.01001 1.00547 1.00726 0.997277
1.07609 1.08069 0.99994 0.995803
1.06572 1.07024 1 0.995774
1.07119 1.07627 0.999386 0.995892
1.02448 1.02745 1.00101 0.996092
1.05908 1.06341 1 0.995932
1.05091 1.0538 1.00173 0.995532
1.073 1.07745 1 0.995876
0.999974 1 1.00015 0.999829
1.00787 1 1.00914 0.998744
1.01334 1.01414 1.0025 0.996714
1.01574 1.00344 1.01465 0.997643
1.00908 1.00902 1.00301 0.997054
1.073 1.08099 0.99657 0.996028
1.06572 1.07012 1 0.995883
1.06336 1.07212 0.995729 0.996089
1.02536 1.02772 1.00199 0.995714
1.06265 1.06694 0.999936 0.996039
1.04341 1.04729 1.00086 0.995447
1.00131 1 1.00212 0.999191
1.00397 1 1.00538 0.998601
0.99943 1 1 0.99943
0.999998 1 1.00068 0.999323
0.999932 1 1 0.999932
0.999899 1 1 0.999898
0.999999 1 1 0.999999
1 1 1 1
1 1 1 1
1.00249 1 1.0029 0.999593
1 1 1 1
1.00374 1 1.00441 0.999329
1 1 1 1
1.00284 1 1.00376 0.99909
1 1 1 1
1.04639 1.05047 1 0.996113
1.04173 1.04572 1 0.996181
1.08002 1.08542 0.998995 0.996028
1.07726 1.08301 0.998578 0.996108
1.03763 1.04162 1 0.996164
0.999751 1.00159 1 0.998164
1.03609 1.04008 1 0.996164
1.07673 1.08232 0.99873 0.996092
1.07863 1.0843 0.998672 0.996094
1.06996 1.08126 0.993021 0.996499
1.07862 1.08369 0.999398 0.995921
1.07309 1.085 0.992636 0.996353
1.07645 1.08193 0.998851 0.996079
1.06944 1.08068 0.993071 0.996507
1.07192 1.08301 0.993287 0.996443
1.06759 1.08194 0.990001 0.996704
1.07181 1.0834 0.993068 0.996208
1.06765 1.08611 0.986275 0.996683
1.03604 1.03999 1 0.996199
1.03841 1.04208 1 0.996481
1.07522 1.08131 0.998212 0.99615
1.07707 1.08233 0.999144 0.995986
1.00044 1.00069 1.00113 0.998624
1.02165 1.02478 1.00024 0.996704
1.05753 1.06211 1 0.995693
1.07241 1.07682 1 0.995911
1.07149 1.08226 0.993661 0.996371
1.06807 1.07313 0.999186 0.9961
1.06341 1.06801 1 0.995688
1.06388 1.06898 0.998999 0.996218
1.00964 1.0071 1.00538 0.997159
1.00864 1.00541 1.00653 0.996715
1.00978 1.00039 1.0115 0.997916
1.07612 1.08145 0.998984 0.996083
1.07597 1.08244 0.997907 0.996108
1.07032 1.08063 0.993988 0.996454
1.07241 1.08365 0.993279 0.996321
1.01222 1.01408 1.00123 0.996941
1.04308 1.04743 1 0.995849
1.05828 1.06312 1.00003 0.995415
1.06924 1.07657 0.996975 0.9962
1.06266 1.07926 0.987913 0.996668
1.06088 1.0654 1 0.995754
1.06183 1.07256 0.993535 0.996435
1.0561 1.06462 0.995428 0.996561
1.01199 1.01326 1.00231 0.996452
1.01075 1.00988 1.0046 0.996274
1.00994 1 1.01174 0.998219
1.00858 1.00078 1.01074 0.997092
1.07012 1.08018 0.994214 0.996458
1.07305 1.08394 0.993551 0.996377
1.06237 1.07719 0.989583 0.996621
1.06076 1.08052 0.98497 0.9967
1.06098 1.07631 0.989129 0.99659
1.06336 1.08301 0.984977 0.996834
1.02457 1.02825 1.00029 0.996135
1.05308 1.07026 0.987108 0.996799
1.04281 1.04753 1 0.995494
1.05375 1.05856 1.00018 0.995279
1.05844 1.06291 0.999968 0.995826
1.05952 1.0689 0.994614 0.996589
1.00738 1 1.00888 0.998506
1.01357 1.00198 1.01431 0.997301
1.01697 1.02 1.00098 0.996053
1.00866 1.00508 1.00686 0.99673
1.01257 1.00942 1.00705 0.996099
1.00067 1 1.0009 0.999767
1.07569 1.08023 0.999999 0.995796
1.01121 1.00021 1.01263 0.9984
1.00605 1.00217 1.00643 0.997461
1.00817 1.00367 1.00723 0.997275
1.06618 1.07071 1 0.995771
1.07072 1.07574 0.999444 0.99589
1.02606 1.02953 1.00054 0.996093
1.0507 1.05339 1.00193 0.995518
1.05866 1.06301 1 0.995907
1.07321 1.07754 1 0.995979
0.999854 1 1.00001 0.999839
1.00805 1 1.0093 0.998755
1.01122 1.01277 1.00176 0.996725
1.01589 1.00299 1.01526 0.997634
1.00941 1.00913 1.00331 0.99697
1.07315 1.08107 0.996637 0.996024
1.06527 1.06967 1 0.995882
1.06278 1.07165 0.995633 0.996078
1.0264 1.02858 1.00218 0.99571
1.06656 1.0709 0.999935 0.996014
1.0436 1.04732 1.00096 0.995492
1.003 1 1.004 0.999011
1.01367 1.0009 1.01478 0.998005
1.00637 1.0094 1.00069 0.996312
1.01925 1.00951 1.01241 0.997277
1.01545 1.01648 1.00219 0.996801
1.06663 1.08109 0.990317 0.996268
1.06095 1.0656 0.999603 0.996033
1.05572 1.0672 0.992907 0.996309
1.00661 1.0072 1.00379 0.995639
1.04002 1.0447 1 0.995519
1.0014 1 1.00221 0.999193
1.00242 1 1.00394 0.998484
1.00429 1 1.00572 0.998578
1.00386 1 1.00551 0.998354
1.00183 1 1.00314 0.998698
0.999496 1 1 0.999496
0.999651 1 1.00022 0.999433
0.999962 1 1 0.999962
1.00007 1 1.00075 0.999325
0.999941 1 1 0.999941
1 1 1 1
0.999906 1 1 0.999906
1 1 1 1
1 1 1 1
1.00081 1 1.00099 0.99982
1.00359 1 1.00402 0.999575
1 1 1 1
1 1 1 1
1.00422 1 1.00492 0.999311
1 1 1 1
1.07842 1.08335 0.999529 0.995916
1.07905 1.0847 0.998699 0.996092
1.07314 1.08502 0.992675 0.996353
1.06956 1.08153 0.992395 0.996515
1.07633 1.08193 0.99873 0.996092
1.03634 1.04033 1 0.996165
1.07617 1.08162 0.998876 0.99608
1.06963 1.0806 0.993332 0.996501
1.0721 1.08324 0.993251 0.996444
1.06669 1.08178 0.989291 0.996732
1.07248 1.08417 0.992995 0.996203
1.06771 1.08616 0.986263 0.996705
1.06975 1.08056 0.993495 0.996477
1.06573 1.08143 0.988758 0.996686
1.06831 1.08387 0.988846 0.996762
1.06891 1.08889 0.984749 0.996849
1.067 1.08505 0.986802 0.996511
1.07135 1.09275 0.983468 0.996901
1.0757 1.08103 0.998972 0.996088
1.07523 1.08199 0.997641 0.996107
1.06981 1.08089 0.993221 0.996501
1.07258 1.08323 0.993858 0.996294
1.01526 1.01673 1.00162 0.996942
1.0398 1.04414 1 0.995851
1.05754 1.0622 1.00018 0.995432
1.06989 1.07667 0.997547 0.996148
1.06231 1.07959 0.98724 0.996714
1.0624 1.07311 0.993562 0.996435
1.06161 1.06618 1 0.995714
1.05676 1.06508 0.995568 0.996601
1.01399 1.01429 1.00326 0.996452
1.00938 1.00837 1.0048 0.99622
1.00926 1 1.01106 0.99822
1.0082 1.00079 1.0103 0.997138
1.07035 1.08041 0.994211 0.996458
1.07269 1.08357 0.993581 0.996361
1.06212 1.07715 0.989362 0.996651
1.06194 1.08075 0.985868 0.996683
1.02458 1.02733 1.0012 0.99613
1.04154 1.04619 1.00003 0.995522
1.05311 1.05771 1.00039 0.995266
1.06189 1.07652 0.989834 0.99654
1.06142 1.08182 0.984199 0.99689
1.05642 1.06089 0.999976 0.995812
1.05413 1.07136 0.98708 0.996799
1.0585 1.06808 0.994349 0.996661
1.01532 1.01796 1.00135 0.996059
1.0104 1.00896 1.00537 0.996082
1.00912 1.00406 1.00833 0.996729
1.00807 1 1.00959 0.998486
1.01296 1.00084 1.01481 0.997339
1.06436 1.08013 0.988693 0.996666
1.06467 1.08274 0.986591 0.996677
1.06094 1.08723 0.97888 0.996874
1.05622 1.07829 0.982589 0.99689
1.02475 1.02907 1 0.995798
1.05628 1.07535 0.985251 0.996969
1.0268 1.03138 1.00029 0.995278
1.04491 1.04949 1.00051 0.995134
1.05498 1.0604 0.99905 0.995833
1.00345 1 1.00457 0.998887
1.01292 1 1.01521 0.997737
1.01033 1.00182 1.01151 0.997013
1.01142 1.01362 1.0019 0.995937
1.01212 1.00549 1.01038 0.996253
1.01061 1.00854 1.00613 0.995938
0.999848 1 1 0.999848
1.0085 1 1.00974 0.998766
1.07326 1.08111 0.99671 0.99602
1.01688 1.00233 1.01693 0.997625
1.00793 1.00972 1.00149 0.996737
1.01027 1.00975 1.00364 0.996887
1.06464 1.06905 1 0.995881
1.06241 1.07138 0.995544 0.996068
1.02559 1.02757 1.00238 0.995707
1.04265 1.04651 1.00077 0.995537
1.07081 1.07518 0.999941 0.995989
1.00247 1 1.00345 0.999017
1.01434 1.00039 1.01597 0.998009
1.00978 1.01283 1.00074 0.996255
1.01958 1.00841 1.01384 0.997278
1.0161 1.01732 1.00203 0.996779
1.0653 1.07972 0.990349 0.996263
1.06352 1.06816 0.999633 0.996019
1.05856 1.06985 0.993098 0.99633
1.00915 1.01032 1.00324 0.995616
1.0379 1.04255 1.00006 0.995483
1.00626 1 1.00793 0.998338
1.01746 1.00135 1.01856 0.997584
1.00582 1.0075 1.0022 0.996139
1.0251 1.0178 1.01026 0.99694
1.03217 1.0346 1.00107 0.996594
1.05619 1.07955 0.981552 0.996755
1.06462 1.07057 0.99857 0.995865
1.06518 1.07497 0.994605 0.99626
1.01175 1.01183 1.00433 0.995605
1.01809 1.02294 1 0.995264
1.00078 1 1.00159 0.999196
1.00193 1 1.00344 0.998493
0.999459 1 1.00111 0.998354
1.00242 1 1.00387 0.998555
1.0011 1 1.00241 0.998695
1.005 1 1.00667 0.998343
1.00089 1 1.0025 0.998388
1.00498 1 1.0067 0.998284
0.999583 1 1.00082 0.998769
0.999495 1 1 0.999495
0.999496 1 1 0.999496
0.999982 1 1 0.999982
0.999437 1 1 0.999437
0.999969 1 1 0.999969
1 1 1 1
0.999951 1 1 0.999951
1 1 1 1
1 1 1 1
0.999941 1 1 0.999941
1.00103 1 1.00124 0.999792
1 1 1 1
1.00395 1 1.00439 0.999558
1 1 1 1
1 1 1 1
1.07313 1.08491 0.992917 0.996199
1.0721 1.08327 0.993221 0.996445
1.06777 1.08621 0.986247 0.996727
1.06575 1.08158 0.988568 0.99676
1.06986 1.08052 0.993615 0.996496
1.07587 1.08129 0.998907 0.996081
1.07004 1.08059 0.993753 0.99646
1.06628 1.08141 0.989289 0.996679
1.06771 1.08318 0.98893 0.996748
1.06704 1.08795 0.983867 0.996858
1.06707 1.08491 0.986993 0.996513
1.06842 1.09089 0.982411 0.996936
1.06697 1.08169 0.989698 0.996658
1.06909 1.09057 0.983406 0.996851
1.06953 1.09207 0.982376 0.996934
1.06272 1.09067 0.977362 0.996942
1.07062 1.08068 0.994209 0.996457
1.07237 1.08324 0.993598 0.996344
1.06198 1.0772 0.989157 0.99668
1.06314 1.08105 0.986724 0.996666
1.02583 1.02856 1.00123 0.996126
1.04084 1.04549 1 0.99555
1.05244 1.05685 1.00058 0.995253
1.06266 1.07661 0.990517 0.996491
1.05943 1.08064 0.983373 0.996945
1.05501 1.07224 0.98709 0.996798
1.05487 1.05932 1 0.995797
1.05887 1.06826 0.994458 0.996733
1.01059 1.01295 1.00161 0.996065
1.00905 1.00887 1.00413 0.996064
1.01114 1.00352 1.01091 0.996727
1.00733 1 1.00888 0.998468
1.01233 1.00011 1.01487 0.997378
1.06419 1.07994 0.988715 0.996668
1.06537 1.08339 0.986645 0.996673
1.06171 1.08662 0.980145 0.996867
1.02452 1.02882 1.00003 0.995798
1.02679 1.03137 1.00026 0.995311
1.04358 1.0479 1.00076 0.995122
1.05647 1.07809 0.983014 0.996877
1.05773 1.06358 0.99853 0.995962
1.05303 1.07227 0.985078 0.996935
1.00349 1 1.00455 0.998948
1.00991 1.01093 1.00307 0.995934
1.01066 1.00652 1.0081 0.996036
1.01555 1.00778 1.01152 0.996243
1.01296 1.00442 1.0115 0.997037
1.0136 1.00015 1.01578 0.997704
1.06777 1.0885 0.984175 0.996736
1.06575 1.09396 0.977323 0.996823
1.05481 1.08573 0.974491 0.996944
1.04824 1.07908 0.974263 0.99708
1.01347 1.01761 1.00027 0.995654
1.04939 1.06209 0.991495 0.996522
1.01382 1.0173 1.00165 0.99494
1.03208 1.03618 1.00104 0.995003
1.00003 1 1.00068 0.99935
1.0093 1 1.01109 0.998231
1.01299 1.00244 1.01319 0.997372
1.01536 1.0048 1.01407 0.996487
1.00739 1.00572 1.00577 0.99591
1.01706 1.0067 1.01461 0.995745
1.0021 1 1.00308 0.999022
1.01426 1 1.01628 0.998013
1.06401 1.07838 0.99038 0.996259
1.01887 1.00693 1.01462 0.997278
1.0131 1.01639 1.00057 0.996198
1.01545 1.01699 1.00173 0.996758
1.06617 1.07082 0.999655 0.996005
1.06106 1.07224 0.993192 0.99635
1.01219 1.01391 1.00273 0.995592
1.03559 1.04005 1.00027 0.995447
1.00621 1 1.00788 0.998344
1.01755 1.00084 1.01919 0.997547
1.00616 1.00786 1.00219 0.996139
1.02396 1.01776 1.00918 0.996941
1.03577 1.03878 1.00048 0.996634
1.05878 1.08194 0.981731 0.996802
1.0645 1.07039 0.998573 0.995912
1.06613 1.07528 0.995127 0.996345
1.01347 1.01333 1.00458 0.99557
1.01745 1.02236 1.00003 0.995168
1.00537 1 1.00731 0.998079
1.01605 1.00193 1.0169 0.997238
1.0201 1.02018 1.00378 0.996147
1.03024 1.03099 1.00278 0.996501
1.05798 1.10388 0.96127 0.99704
1.05781 1.07674 0.985575 0.996797
1.04729 1.05238 0.999749 0.995422
1.02285 1.02343 1.00426 0.995197
1.00194 1 1.00344 0.998502
1.00023 1 1.00189 0.998346
0.999814 1 1.0013 0.998517
1.00184 1 1.00315 0.998693
1.00705 1 1.00873 0.998332
0.999666 1 1.0009 0.998764
1.00059 1 1.00218 0.998419
1.00647 1 1.00819 0.998294
0.999236 1 1.0006 0.998632
1.0057 1 1.00753 0.998183
1.00286 1 1.00463 0.998246
0.999054 1 1.00032 0.998737
0.99945 1 1 0.99945
0.999492 1 1 0.999492
0.999991 1 1 0.999991
0.999496 1 1 0.999496
0.999985 1 1 0.999985
1 1 1 1
0.999975 1 1 0.999975
1 1 1 1
1 1 1 1
0.99998 1 1 0.99998
1.00013 1 1.00021 0.999919
1 1 1 1
1.00208 1 1.00232 0.999765
1 1 1 1
1 1 1 1
1.06706 1.0847 0.987179 0.996516
1.06717 1.08256 0.989015 0.996734
1.06556 1.08908 0.981374 0.996972
1.06524 1.08709 0.98298 0.996868
1.0668 1.08138 0.989816 0.996672
1.0703 1.08061 0.993996 0.996442
1.06654 1.08145 0.98952 0.99666
1.06866 1.09003 0.983502 0.996841
1.06826 1.09123 0.98197 0.996929
1.06279 1.09059 0.977483 0.996954
1.07034 1.09073 0.984466 0.996797
1.06797 1.09661 0.976816 0.996997
1.07053 1.10221 0.974148 0.997025
1.06395 1.07968 0.988722 0.996669
1.06599 1.08395 0.986715 0.99667
1.06249 1.08599 0.981443 0.99686
1.02611 1.03033 1.00011 0.995797
1.02602 1.03064 1.00018 0.995343
1.04225 1.04649 1.00085 0.995111
1.05682 1.07806 0.983379 0.996864
1.04911 1.06901 0.98443 0.996902
1.05968 1.06607 0.997905 0.996091
1.00868 1.00863 1.00413 0.99593
1.00635 1.00344 1.00679 0.996135
1.01747 1.00974 1.01147 0.996234
1.00355 1 1.00455 0.999011
1.01313 1.00556 1.0105 0.997061
1.01513 1.00048 1.01701 0.997669
1.06869 1.08902 0.984537 0.996745
1.06475 1.09389 0.976462 0.996826
1.05525 1.08568 0.974964 0.996936
1.01227 1.0166 1.00009 0.995645
1.01317 1.01682 1.0014 0.995018
1.03315 1.03741 1.00078 0.995114
1.04911 1.07927 0.974901 0.997081
1.04501 1.05835 0.990867 0.996498
1.00001 1 1.00058 0.999433
1.00895 1 1.01074 0.998226
1.00394 1.00419 1.00383 0.995939
1.01963 1.00618 1.01751 0.995936
1.01602 1.00617 1.01331 0.996528
1.01238 1.00218 1.01288 0.997326
1.06689 1.09629 0.976188 0.996914
1.05593 1.09901 0.963786 0.996901
1.05025 1.08599 0.969885 0.997123
1.0348 1.0628 0.976515 0.997067
1.0023 1.0055 1.00133 0.995493
1.03136 1.03674 0.999243 0.995562
1.01235 1.01496 1.00264 0.994805
0.999678 1 1 0.999678
0.999073 1 1 0.999073
1.0027 1 1.00402 0.998686
1.00784 1 1.01021 0.997658
1.01061 1 1.01369 0.99696
1.02826 1.00782 1.02421 0.996171
1.00371 1.00194 1.00556 0.99622
1.04431 1.00412 1.04371 0.996469
1.0063 1 1.00796 0.998349
1.01873 1.00064 1.02061 0.997511
1.06169 1.08455 0.982013 0.996848
1.02455 1.01961 1.00793 0.996942
1.00652 1.00789 1.00251 0.99614
1.0388 1.04223 1.00004 0.996675
1.06439 1.07024 0.998574 0.995959
1.06726 1.07571 0.9957 0.99643
1.01462 1.01428 1.00482 0.995535
1.01652 1.02155 1 0.995072
1.00643 1 1.00843 0.99802
1.015 1.00127 1.01654 0.997211
1.02537 1.02507 1.00415 0.996154
1.02851 1.02993 1.00209 0.996536
1.05942 1.10619 0.960547 0.997059
1.06245 1.08023 0.986756 0.996742
1.04378 1.04898 0.999557 0.995483
1.02443 1.02556 1.00377 0.995148
1.00587 0.99988 1.00804 0.997964
1.07031 1.11491 0.96281 0.997073
1.00941 1.00204 1.01056 0.996835
1.02551 1.02695 1.00268 0.995937
1.03889 1.08705 0.958382 0.997195
1.03728 1.04442 0.997584 0.995561
1.01592 1.01783 1.00323 0.994908
1.00157 1 1.00324 0.998338
0.998647 0.999073 1.00107 0.998509
0.999629 0.998295 1.00262 0.998723
0.999311 1 1.00055 0.998759
1.00699 1 1.0087 0.998304
1.00064 0.999676 1.00251 0.99845
0.998834 1 1.0001 0.998733
1.00303 1 1.00478 0.998256
0.999256 0.999838 1.00074 0.998676
1.00481 1 1.00663 0.998189
0.998815 1 1 0.998815
1.00102 1 1.00257 0.99846
1.00685 1 1.00884 0.998028
0.999038 1 1.00093 0.998112
0.998632 1 1 0.998632
0.999402 1 1 0.999402
0.999445 1 1 0.999445
0.999994 1 1 0.999994
0.999489 1 1 0.999489
0.999992 1 1 0.999992
1 1 1 1
0.999988 1 1 0.999988
1 1 1 1
1 1 1 1
0.999732 1 1 0.999732
0.999995 1 1 0.999995
0.999972 1 1 0.999972
1 1 1 1
1.00006 1 1.00016 0.999898
1 1 1 1
1 1 1 1
1.06282 1.09045 0.977628 0.996966
1.06702 1.09039 0.981587 0.996925
1.06823 1.08948 0.983614 0.996832
1.06615 1.08122 0.989371 0.996661
1.07022 1.09098 0.98411 0.996816
1.06782 1.09629 0.976974 0.996988
1.06709 1.09882 0.974016 0.997029
1.06804 1.0974 0.976197 0.99698
1.08037 1.1148 0.971956 0.997078
1.09199 1.13074 0.968311 0.997337
1.06971 1.08963 0.984916 0.996754
1.06381 1.09382 0.975657 0.996829
1.0559 1.08556 0.975673 0.996929
1.01181 1.01619 1.00006 0.995638
1.01388 1.01759 1.00126 0.995099
1.0357 1.04018 1.00047 0.995225
1.04992 1.07909 0.975819 0.997082
1.04045 1.05412 0.99052 0.996473
1.00481 1.00381 1.00505 0.995969
1.02442 1.00678 1.02148 0.996122
1.01724 1.00657 1.01408 0.996568
0.999951 1 1.00044 0.999516
1.00884 1 1.01063 0.998222
1.01204 1.00197 1.01281 0.997281
1.06631 1.09636 0.975596 0.996923
0.999671 1 1 0.999671
0.999025 1 1 0.999025
1.05759 1.09822 0.965997 0.996904
1.04855 1.08433 0.969822 0.997094
1.00362 1.00614 1.00192 0.995574
1.01242 1.01432 1.00332 0.994829
1.02943 1.03607 0.998037 0.995546
1.034 1.06246 0.9761 0.997037
1.00294 1 1.00416 0.998782
1.00816 1 1.01054 0.997645
1.00421 1.00215 1.00598 0.996095
1.03799 1.00486 1.03657 0.996526
1.02546 1.00511 1.02417 0.996179
1.01165 1.00075 1.01395 0.996981
1.0769 1.11731 0.966717 0.997019
1.0396 1.09742 0.950147 0.99702
1.0343 1.07428 0.965428 0.997268
1.01951 1.04039 0.983134 0.996743
1.00517 1.00284 1.00649 0.995871
1.0131 1.01308 1.00504 0.995
0.998967 1 1 0.998967
0.999745 1 1.0007 0.999043
0.998883 1.00021 1 0.998677
1.00331 1 1.00536 0.997965
1.0124 1 1.01509 0.997347
1.01004 1.0004 1.01301 0.996667
1.06806 1.00189 1.06994 0.996359
0.992108 1.00049 0.994313 0.997291
1.00689 1 1.00894 0.997961
1.01298 1.00023 1.01561 0.997183
1.06001 1.1073 0.960095 0.997078
1.06656 1.08322 0.987889 0.996687
1.02769 1.02922 1.00195 0.996571
1.03182 1.03125 1.00441 0.99616
1.04065 1.04589 0.999445 0.995544
1.0269 1.02851 1.00335 0.995099
1.00563 0.999653 1.00805 0.997945
1.07223 1.11861 0.961285 0.997149
1.01031 1.00108 1.01235 0.996909
1.02187 1.02335 1.00269 0.995867
1.03987 1.08725 0.959141 0.997173
1.03425 1.04192 0.996958 0.995661
1.01747 1.01912 1.00348 0.994921
1.01242 0.998361 1.01638 0.997739
1.00577 1.06667 0.945239 0.99754
1.00549 1.00076 1.00814 0.996616
1.00728 1.00819 1.00379 0.995326
1.01472 1.04068 0.978296 0.996693
1.00347 1.00608 1.00221 0.995209
0.944443 1.00193 0.946316 0.996099
0.997104 0.99759 1.00101 0.9985
0.999218 0.996468 1.00404 0.998728
1.00245 0.998689 1.00511 0.998668
0.998948 1 1.00022 0.998728
1.00471 1 1.00646 0.998266
1.00327 1 1.00508 0.998195
0.99934 1 1.00062 0.998722
0.998741 1 1.00011 0.998631
0.999529 1 1.00141 0.998122
0.998781 1 1 0.998781
1.0071 1 1.00909 0.998027
1.00073 1 1.00231 0.998422
1.0005 0.99984 1.00189 0.99877
1.0026 1 1.00474 0.997875
1.00683 1 1.00886 0.997987
0.998329 1 1.00034 0.997986
0.998449 1 1 0.998449
1.00142 1 1.00323 0.998192
0.998881 1 1.00047 0.998416
0.999382 1 1 0.999382
0.999398 1 1 0.999398
0.999998 1 1 0.999998
0.99944 1 1 0.99944
0.999995 1 1 0.999995
1 1 1 1
0.999993 1 1 0.999993
1 1 1 1
1 1 1 1
0.999792 1 1 0.999792
0.999735 1 1 0.999735
1 1 1 1
0.999991 1 1 0.999991
1 1 1 1
0.999963 1 1 0.999963
1 1 1 1
1 1 1 1
1.06381 1.09568 0.973806 0.997033
1.06777 1.09619 0.977023 0.996979
1.07 1.09115 0.983731 0.996835
1.06783 1.09732 0.97607 0.996979
1.07699 1.11161 0.97171 0.997071
1.09238 1.1305 0.968941 0.997249
1.08649 1.12789 0.966054 0.997145
0.944763 1.01605 0.935636 0.9938
1.03835 1.08182 0.961719 0.998022
0.999172 1 1 0.999172
1.06582 1.09658 0.974941 0.996931
1.05898 1.09755 0.967852 0.996906
1.04642 1.08273 0.969308 0.997064
1.00079 1.00434 1.00082 0.995652
1.01158 1.01275 1.00402 0.99485
1.02693 1.03455 0.997098 0.99553
1.03368 1.06272 0.975603 0.997006
0.998893 1.00221 1.00072 0.995979
1.03064 1.00505 1.02897 0.996594
1.02342 1.0034 1.02386 0.996188
0.99968 1 1.00002 0.999665
1.01249 1.00138 1.01414 0.997002
1.00295 1 1.00408 0.998877
1.00848 1 1.01087 0.997631
0.999115 1 1.00014 0.998977
1.0751 1.11785 0.964624 0.997026
0.99903 1 1 0.99903
1.00012 1 1.00107 0.999047
0.99875 1.00057 0.999539 0.998637
1.04356 1.09802 0.953243 0.997018
1.03213 1.07236 0.965168 0.997218
1.0016 1.0022 1.0035 0.995908
1.01751 1.01751 1.00488 0.995151
1.01855 1.03893 0.983607 0.996723
1.00296 1 1.00493 0.998031
1.01124 1 1.01398 0.997299
1.00347 1.00031 1.00609 0.99708
1.05781 1.00233 1.05921 0.996357
1.00975 1.00131 1.01175 0.99672
1.0506 1.10927 0.949835 0.997124
1.01287 1.0819 0.93884 0.997186
1.02413 1.0517 0.976823 0.996892
1.00062 1.01992 0.984524 0.9965
1.00036 1 1.00354 0.996837
0.998554 1 1 0.998554
1.00054 1.00038 1.00181 0.998358
1.00291 1 1.00448 0.998436
1.0145 1 1.01679 0.997751
1.01301 1 1.01571 0.997339
1.04608 0.999932 1.04936 0.99694
1.02669 1.00186 1.02752 0.997341
1.00582 0.99999 1.00793 0.997924
1.01074 1.00014 1.01366 0.996984
1.07353 1.12263 0.958932 0.997223
1.04144 1.08836 0.959621 0.997149
1.03144 1.03975 0.996227 0.995762
1.01681 1.01837 1.00268 0.995797
1.01833 1.01984 1.0036 0.994935
1.0133 0.99935 1.01616 0.997838
1.00831 1.06828 0.946133 0.997597
1.0025 1.00091 1.00499 0.996622
1.00544 1.00603 1.00411 0.995322
1.01203 1.03885 0.977272 0.996836
1.00433 1.00642 1.00273 0.995208
0.943972 1.00063 0.948309 0.994802
1.01306 0.997056 1.01838 0.997712
0.983469 1.02732 0.95968 0.997532
1.0008 1.00137 1.00312 0.99632
1.00423 1.00229 1.00614 0.995825
0.990466 1.00739 0.986548 0.996609
0.882668 0.971568 0.940182 0.966301
0.860806 0.954385 0.918185 0.982317
0.947036 0.976331 0.973368 0.996535
0.640448 0.790164 0.876893 0.924315
0.551801 0.724581 0.847049 0.899056
0.999105 0.995048 1.00535 0.998733
1.00346 0.996379 1.00839 0.998721
1.00466 0.99917 1.0068 0.998703
0.998631 1 1 0.998631
0.999315 1 1.00119 0.998131
1.00616 1 1.00815 0.998026
1.00061 1 1.00223 0.998383
0.998709 0.999962 1 0.998747
1.00712 1 1.00916 0.997976
0.998489 1 1 0.998489
0.99837 1 1.00037 0.998003
1.00002 0.999951 1.00137 0.998698
1.00317 1 1.00522 0.997953
1.00914 1 1.01118 0.997984
1.00664 0.998992 1.0094 0.99828
1.00637 1 1.00844 0.99795
0.999053 1 1.00119 0.997869
0.998476 1 1.00006 0.998415
0.999513 1 1.0015 0.99802
1.00157 1 1.00342 0.998154
1.00182 1 1.00353 0.998298
1.00116 1 1.003 0.998158
0.998979 1 1.00043 0.998553
0.999197 1 1.00079 0.998413
0.999374 1 1 0.999374
0.999382 1 1 0.999382
1 1 1 1
0.999394 1 1 0.999394
0.999998 1 1 0.999998
1 1 1 1
0.999996 1 1 0.999996
1 1 1 1
1 1 1 1
0.999856 1 1 0.999856
0.999789 1 1 0.999789
1 1 1 1
0.999738 1 1 0.999738
0.999999 1 1 0.999999
1 1 1 1
0.999988 1 1 0.999988
1 1 1 1
1 1 1 1
1.07368 1.10843 0.971503 0.997064
1.06725 1.09684 0.975978 0.996977
1.09404 1.13098 0.970088 0.997162
0.947814 1.01578 0.938823 0.99389
1.08496 1.12668 0.965727 0.997142
1.04456 1.08414 0.96553 0.997892
1.06147 1.10232 0.965573 0.997272
0.899287 0.972007 0.942549 0.981578
0.97696 1.02264 0.960387 0.994735
0.999223 1 1 0.999223
0.999165 1 1 0.999165
0.998656 1 1 0.998656
0.998789 1 1 0.998789
1.07319 1.11794 0.962829 0.997032
1.0474 1.09836 0.956451 0.997016
1.03038 1.07051 0.96525 0.997167
1.00063 1.00164 1.00306 0.995946
1.02161 1.02219 1.00414 0.995304
1.01695 1.03674 0.984152 0.996704
1.01613 1 1.01933 0.996862
1.04906 1.00283 1.04992 0.996355
1.01019 1.00131 1.01214 0.996773
1.00074 1 1.00169 0.999051
1.01023 1.00061 1.01239 0.997253
1.00273 1 1.00464 0.998097
0.999092 1 1 0.999092
0.998941 1.00092 0.999428 0.998597
1.04919 1.11017 0.94778 0.997139
0.998567 1 1 0.998566
1.00012 1.0006 1.00107 0.998453
1.00311 0.999442 1.00496 0.998718
1.02071 1.08568 0.942824 0.997173
1.02442 1.05143 0.977357 0.996891
0.998086 1.00094 1.00032 0.996824
1.00224 1.01857 0.987352 0.996572
1.01349 1 1.0159 0.997636
1.01299 1.00003 1.01585 0.99716
1.03299 1.00263 1.03305 0.997321
1.04609 1.00196 1.04737 0.996818
1.00105 1.06637 0.94129 0.997301
0.99776 1.05307 0.950145 0.997189
1.01047 1.022 0.992157 0.996533
0.97251 1.00151 0.973264 0.997722
1.00767 1 1.00922 0.998457
1.00804 1 1.01015 0.997908
1.02136 0.999516 1.02378 0.998124
1.0648 1.00114 1.06644 0.997328
0.869256 0.968345 0.934301 0.960795
1.01414 0.999267 1.01698 0.997937
1.00066 1.00091 1.00313 0.996626
1.01011 1.06964 0.946561 0.997661
1.00936 1.03666 0.976618 0.996977
1.00532 1.00684 1.0033 0.995203
1.00428 1.00442 1.00457 0.995315
0.94404 1.00087 0.949433 0.993456
1.01055 0.99679 1.01607 0.99777
0.982575 1.02775 0.958433 0.997505
1.00076 1.00149 1.00296 0.996332
1.00538 1.00371 1.00585 0.995841
0.993746 1.00851 0.98874 0.996587
0.872861 0.974009 0.932642 0.960876
0.858114 0.950554 0.922208 0.978902
0.949576 0.976518 0.975727 0.996601
0.635259 0.785429 0.873139 0.926319
0.543086 0.723068 0.840902 0.893191
1.00365 0.997051 1.00879 0.997845
0.672909 0.807177 0.896368 0.930039
0.587989 0.743645 0.879618 0.898895
0.984026 1.00558 0.980809 0.997713
1.00932 1.00166 1.01054 0.997138
1.01488 1.00599 1.01173 0.997136
0.936585 0.962908 0.975496 0.997095
0.834766 0.942394 0.918677 0.964205
0.82342 0.918519 0.918032 0.976507
0.61784 0.770764 0.859374 0.932766
0.601084 0.792794 0.849225 0.892796
1.00396 0.993982 1.01128 0.998773
1.0032 0.997146 1.0074 0.998676
1.01419 0.997833 1.01757 0.998837
0.998529 1 1 0.998529
0.998579 1 1.00056 0.998021
1.00734 1 1.0094 0.997964
1.00407 1 1.00605 0.998032
0.99926 0.999999 1.00064 0.998626
0.998514 1 1.0001 0.998415
1.0096 1 1.01166 0.997957
1.00655 1 1.00863 0.997934
0.998614 1 1.0007 0.99792
1.00754 0.998844 1.01039 0.998333
1.00839 1 1.01021 0.998205
1.02628 0.998414 1.02946 0.998495
1.0034 1 1.00561 0.997801
0.998926 1 1.00097 0.997962
0.998904 1 1.00089 0.998013
1.00143 1 1.00323 0.998199
1.00042 1 1.00248 0.997949
1.00119 1 1.00293 0.99827
1.00899 1 1.01062 0.998393
1.0128 0.999986 1.01477 0.998072
1.00364 1 1.00537 0.998285
1.00205 1 1.00376 0.9983
1.00126 1 1.00268 0.998584
1.00124 1 1.00312 0.998125
0.999134 1 1.00062 0.998518
0.999347 1 1 0.999347
0.999484 1 1.00108 0.998409
0.999377 1 1 0.999377
0.999994 1 1 0.999994
0.999382 1 1 0.999382
0.999999 1 1 0.999999
1 1 1 1
0.999999 1 1 0.999999
1 1 1 1
1 1 1 1
0.999156 1 1 0.999156
0.999875 1 1 0.999875
0.999851 1 1 0.999851
1 1 1 1
0.999787 1 1 0.999787
1 1 1 1
1 1 1 1
0.999997 1 1 0.999997
1 1 1 1
1 1 1 1
0.950511 1.01524 0.94191 0.993982
1.08385 1.1257 0.965588 0.997139
1.0523 1.0864 0.970789 0.997759
0.886475 0.969305 0.930515 0.982839
0.974674 1.02249 0.958045 0.994976
1.06348 1.10523 0.964894 0.997228
0.986068 1.03942 0.95272 0.995754
0.904108 0.9755 0.941394 0.984514
0.880516 0.976008 0.935965 0.963882
0.647117 0.793001 0.874367 0.933286
0.511096 0.681865 0.834721 0.89797
0.998752 1 1 0.998752
0.99922 1 1 0.99922
0.999157 1 1 0.999157
0.99869 1 1.00001 0.998675
0.99911 1 1.0006 0.998516
0.998421 1 1 0.998421
0.99874 1 1.00016 0.998575
0.99874 1 1 0.99874
1.05003 1.11179 0.947146 0.997152
1.02888 1.08988 0.946726 0.99716
1.02439 1.05166 0.977116 0.99689
0.997305 1.00189 0.998608 0.996814
1.00419 1.01774 0.990005 0.996644
1.04137 1.00321 1.04085 0.997299
1.04601 1.0038 1.0455 0.996696
1.01145 1.00036 1.01415 0.996981
0.999275 1.00077 0.999957 0.998546
1.0141 1 1.01663 0.997514
0.998581 1 1 0.998581
1.00244 0.999253 1.00419 0.999002
0.998827 1.06669 0.93887 0.99735
1.00689 0.999776 1.00869 0.998433
1.00998 1 1.01192 0.998079
0.995816 1.05095 0.950238 0.997161
1.00893 1.0236 0.988934 0.996697
0.976137 1.00159 0.976958 0.997574
1.03205 1.00111 1.03322 0.997765
1.05766 1.00227 1.05804 0.997376
0.96465 1.03278 0.936722 0.99713
0.99559 1.01815 0.980607 0.99718
0.974324 1.00258 0.974464 0.997287
0.972955 0.997947 0.976949 0.997961
1.00934 1 1.0115 0.997864
1.02297 1 1.02499 0.998028
1.05434 0.999471 1.05732 0.997704
0.692303 0.815654 0.909711 0.933013
0.882497 0.975282 0.935266 0.967493
1.00797 0.997588 1.01261 0.997831
1.00046 1.00132 1.0028 0.996346
0.982851 1.02828 0.958242 0.997478
0.996987 1.00992 0.99059 0.996568
1.00679 1.00523 1.00571 0.995865
0.875272 0.973071 0.932974 0.964115
0.863334 0.961832 0.91636 0.97952
0.949793 0.975134 0.977263 0.996675
0.649446 0.786861 0.88395 0.933722
0.534777 0.722651 0.834194 0.88711
1.00366 0.998336 1.00749 0.997852
0.684737 0.817835 0.899283 0.931026
0.562362 0.719698 0.873134 0.89492
0.983343 1.00669 0.979067 0.997692
1.00923 1.00232 1.00979 0.997141
1.01263 1.00388 1.01147 0.99728
0.932036 0.957509 0.975962 0.997371
0.842987 0.954144 0.920023 0.960304
0.821092 0.914471 0.916968 0.979192
0.631504 0.775374 0.875224 0.930564
0.606144 0.80474 0.844891 0.891497
1.00543 0.997986 1.00897 0.998503
0.603852 0.755264 0.890598 0.897739
0.663961 0.832008 0.881988 0.9048
0.983496 0.98945 0.995357 0.99862
1.01646 1.0024 1.01551 0.998539
0.943711 0.949177 0.997716 0.996518
0.840542 0.907064 0.944604 0.981005
0.781738 0.894051 0.912921 0.95778
0.651531 0.773245 0.904242 0.931822
0.674848 0.87012 0.864061 0.8976
1.00297 0.99725 1.0071 0.99865
1.01203 0.998996 1.01428 0.998787
1.01135 0.99723 1.0151 0.999074
0.998415 1 1 0.998415
0.998234 1 1.00026 0.997971
1.00739 1 1.00949 0.997918
1.01054 1 1.01264 0.99793
1.00797 0.998674 1.01094 0.998386
0.998604 1 1.00065 0.997957
1.00827 1 1.01015 0.998145
1.00294 1 1.00514 0.997804
1.02332 0.996645 1.02825 0.998559
1.04287 0.994509 1.04958 0.999094
1.01605 1 1.01788 0.998206
1.00135 1 1.00359 0.997767
0.998466 1 1.00046 0.998006
1.00098 1 1.00275 0.998243
1.00097 1 1.00303 0.997938
1.00195 1 1.00371 0.998249
1.00662 0.999974 1.00814 0.998519
1.00852 0.999852 1.01047 0.998216
1.01324 0.999977 1.01505 0.998239
1.0087 0.997928 1.01224 0.998567
1.0014 1 1.00323 0.998181
1.00126 1.00297 1.00093 0.997368
1.01007 1 1.01219 0.997914
1.01122 0.999926 1.01325 0.998075
1.01217 1 1.01411 0.998084
1.00513 1 1.00686 0.998287
1.00107 1 1.00254 0.998539
1.00203 1 1.00374 0.998302
1.0003 1 1.00171 0.998592
0.999304 1 1 0.999304
0.999014 1 1.00053 0.998482
0.99935 1 1 0.99935
0.999978 1 1 0.999978
0.999379 1 1 0.999379
0.999991 1 1 0.999991
1 1 1 1
0.999998 1 1 0.999998
1 1 1 1
1 1 1 1
0.999139 1 1 0.999139
0.999834 1 1 0.999834
0.999159 1 1 0.999159
1 1 1 1
0.999875 1 1 0.999875
0.999847 1 1 0.999847
1 1 1 1
1 1 1 1
1 1 1 1
1 1 1 1
1 1 1 1
0.672914 0.808364 0.900032 0.9249
0.570835 0.735814 0.86653 0.89528
0.88566 0.968256 0.930047 0.983495
0.973945 1.02249 0.957081 0.995236
1.06194 1.10787 0.961248 0.997186
0.894831 0.958475 0.947086 0.985759
0.984897 1.03778 0.952855 0.996002
0.890311 0.984445 0.937865 0.964296
0.632897 0.790193 0.864506 0.926471
0.522271 0.702664 0.833149 0.892123
0.914604 0.993435 0.930331 0.989592
0.859653 0.958214 0.929777 0.964898
0.625145 0.777448 0.862618 0.932161
0.603377 0.795044 0.849078 0.893821
1.00081 1 1.00254 0.998277
0.998796 1 1 0.998796
0.999217 1 1 0.999217
0.998775 1 1.00008 0.998695
0.99902 1 1.00038 0.998637
0.999477 1 1.00138 0.998097
0.998602 1 1.0002 0.998405
0.998578 1 1.00045 0.998129
0.998604 1 1.00008 0.998523
0.998691 1 1 0.998691
0.993307 1.06639 0.933896 0.997398
0.993307 1.04836 0.950208 0.997137
1.00865 1.02526 0.986894 0.996863
0.978594 1.00177 0.979383 0.997425
1.04792 1.0037 1.04676 0.997423
1.04374 1.0025 1.04384 0.997411
1.01078 1 1.01255 0.99825
1.00609 0.999392 1.00831 0.998407
0.964255 1.03359 0.935476 0.997265
1.01205 1 1.01428 0.997807
1.02236 0.999673 1.02475 0.997995
0.986663 1.01451 0.975362 0.997117
0.972083 1.00205 0.972638 0.997384
0.974375 0.999191 0.977195 0.997922
1.04744 0.999571 1.05037 0.997645
0.951928 1.00244 0.952178 0.9973
0.965618 0.997121 0.970151 0.998201
1.01132 0.994033 1.01926 0.998168
1.01044 1 1.01274 0.99773
1.02156 0.999618 1.02426 0.99774
1.02986 1 1.03209 0.997838
0.631135 0.767938 0.902315 0.910831
0.691305 0.813742 0.909738 0.933827
0.873285 0.974641 0.932383 0.960986
1.00271 0.997564 1.00732 0.997856
1.00888 1.0025 1.00925 0.997137
0.984579 1.00793 0.979118 0.99767
1.01046 1.00227 1.01078 0.997417
0.690142 0.812656 0.908275 0.935006
0.844214 0.953111 0.921854 0.960831
0.81767 0.911696 0.918335 0.976623
0.933015 0.954968 0.979339 0.997624
0.629062 0.782151 0.869874 0.924584
0.554054 0.712238 0.867063 0.897172
0.611761 0.806839 0.844669 0.897653
1.00491 0.997668 1.00882 0.99846
0.606603 0.7546 0.890662 0.902557
0.680327 0.848902 0.886156 0.904378
0.981177 0.986825 0.995539 0.998732
1.01573 1.00116 1.0161 0.998486
0.941187 0.947501 0.996018 0.997307
0.828776 0.912132 0.928887 0.978175
0.813458 0.908244 0.930007 0.963045
0.657095 0.783482 0.906354 0.92534
0.668657 0.862358 0.859526 0.902105
1.00662 0.995678 1.01156 0.999431
0.705383 0.854916 0.903314 0.913404
0.686895 0.858147 0.881151 0.908403
0.973721 0.954636 1.02028 0.999715
0.877467 0.908922 0.978416 0.98669
0.812925 0.878836 0.962689 0.960853
0.743775 0.863799 0.934092 0.921805
0.720987 0.913833 0.872316 0.904454
1.01002 0.999464 1.01184 0.998736
1.01352 0.996905 1.01763 0.999059
1.02657 0.987126 1.04063 0.999354
0.998787 1 1.00084 0.997953
1.00267 1 1.00488 0.997807
1.00743 1 1.00936 0.998086
1.02091 0.995156 1.02729 0.998624
1.00191 1 1.00415 0.997768
1.01541 0.999852 1.0174 0.998195
1.0474 0.994234 1.05435 0.999173
1.04314 0.984179 1.06049 0.999446
1.04681 0.997794 1.0501 0.999068
1.01058 1 1.01251 0.998099
1.00092 1 1.003 0.997925
1.00244 1 1.00422 0.998229
1.0043 0.999976 1.00569 0.998643
1.01293 0.999991 1.0147 0.998263
1.00644 0.999993 1.00825 0.998213
1.01084 0.998603 1.01367 0.998599
1.00837 0.999177 1.01089 0.998335
1.01993 0.996339 1.02474 0.998962
0.996921 1.00146 0.99711 0.998354
1.00149 1.00069 1.00263 0.998181
0.998813 1.00047 1.00069 0.997647
1.00729 1.00951 1.00153 0.996278
1.00572 1.00176 1.00629 0.997676
1.00022 1.00175 1.00075 0.997718
1.01015 1 1.01227 0.997908
1.01876 1 1.02093 0.99787
1.00889 1 1.01084 0.998077
1.01127 1 1.01321 0.998085
1.00297 1 1.00461 0.998365
1.00573 1 1.00745 0.998288
1.00155 1 1.00302 0.998536
1.00045 1 1.00121 0.999236
1.00011 1 1.00151 0.998601
0.999648 1 1.00034 0.999305
0.999954 1 1 0.999954
0.999354 1 1 0.999354
0.999971 1 1 0.999971
1 1 1 1
0.999987 1 1 0.999987
1 1 1 1
1 1 1 1
0.998798 1 1 0.998798
0.999759 1 1 0.999759
0.999047 1 1 0.999047
1 1 1 1
0.99984 1 1 0.99984
0.999161 1 1 0.999161
1 1 1 1
1 1 1 1
0.999875 1 1 0.999875
1 1 1 1
1 1 1 1
1 1 1 1
0.589646 0.746255 0.877363 0.900585
0.681415 0.815122 0.899432 0.929439
0.676051 0.848781 0.881267 0.903808
0.568052 0.736416 0.862962 0.893866
0.893644 0.964288 0.942773 0.982994
0.986165 1.03628 0.955212 0.996264
0.889329 0.985026 0.936273 0.9643
0.648803 0.789724 0.880361 0.933205
0.534869 0.727231 0.829939 0.886194
0.919489 0.98816 0.941334 0.988497
0.83999 0.950591 0.922701 0.957679
0.638342 0.78402 0.875538 0.929932
0.592402 0.787226 0.845599 0.889924
0.875962 0.960932 0.925817 0.984618
0.783196 0.883921 0.926101 0.95675
0.686135 0.821988 0.905583 0.921755
0.667815 0.862784 0.864743 0.895091
1.00347 1 1.00562 0.99786
1.00018 1 1.00185 0.998335
0.998839 1 1 0.998839
0.998759 1 1 0.998759
0.998504 1 1.00084 0.99767
0.998704 1 1.00054 0.998161
0.99868 1 1.00029 0.998389
0.998106 1 1 0.998106
0.998389 1 1.00022 0.998169
0.99847 1 1 0.99847
0.965329 1.03485 0.935252 0.997396
0.979662 1.0113 0.971573 0.997059
0.967958 1.00129 0.969154 0.997481
0.976326 1.00075 0.977659 0.997884
1.03896 1 1.04148 0.997584
1.02188 0.999966 1.024 0.997963
1.0139 1 1.01619 0.99775
1.00988 1 1.01224 0.997668
0.952929 1.00267 0.952883 0.99739
1.01834 0.999931 1.02076 0.997699
1.02997 0.999979 1.03225 0.997816
0.965112 0.998526 0.968277 0.998203
1.00501 0.99651 1.01042 0.998124
0.942606 0.972019 0.972071 0.997602
0.960121 0.964732 0.995982 0.999235
1.04345 0.993007 1.05251 0.998377
1.00774 0.999921 1.01002 0.997827
1.03244 0.999726 1.03479 0.998004
0.719892 0.868154 0.902565 0.918739
0.625967 0.766568 0.89817 0.909165
0.682935 0.810015 0.908842 0.92768
1.00492 0.998096 1.00843 0.99842
1.01535 0.999548 1.0174 0.998432
0.976391 0.984357 0.993051 0.998849
0.600902 0.750278 0.887149 0.902786
0.788076 0.890033 0.924993 0.957246
0.833869 0.909326 0.935918 0.979807
0.930471 0.941336 0.990305 0.998134
0.6687 0.796935 0.900125 0.932193
0.691253 0.858722 0.890218 0.904249
0.668089 0.860055 0.860595 0.902629
1.00455 0.995693 1.00953 0.999376
0.70659 0.85683 0.900904 0.915365
0.68432 0.854517 0.88129 0.908699
0.975562 0.959126 1.01764 0.999505
0.890086 0.921211 0.979331 0.986606
0.784618 0.875765 0.938069 0.955073
0.7155 0.909323 0.870391 0.904018
0.760751 0.867429 0.948196 0.924933
0.994257 0.961914 1.03392 0.999711
0.696571 0.847251 0.894349 0.919276
0.727293 0.895809 0.889318 0.912928
0.665671 0.861164 0.863382 0.895305
0.933316 0.92429 1.01334 0.996475
0.871866 0.909896 0.995471 0.962563
0.81965 0.928246 0.950222 0.929266
1.01634 0.996794 1.02058 0.999043
1.0288 0.990726 1.03919 0.99927
1.03723 0.980033 1.05882 0.999566
1.0025 1 1.00474 0.997769
1.01353 0.999665 1.01572 0.998184
1.05184 0.992743 1.06033 0.999251
1.01156 1 1.01348 0.998106
1.04649 0.99757 1.05001 0.999079
1.04929 0.984414 1.06652 0.999421
1.03774 0.979609 1.05988 0.999489
1.03053 0.996515 1.03511 0.999058
1.01212 0.999982 1.01387 0.998289
1.0056 1 1.00741 0.99821
1.01344 0.999196 1.01565 0.998633
1.01905 0.997266 1.02294 0.998933
1.009 0.999447 1.01123 0.998347
1.00393 0.999367 1.00575 0.998827
0.997096 0.999939 0.998464 0.998691
1.00467 1.00049 1.0071 0.997104
1.00104 1.00148 1.00138 0.998191
1.00027 1.00224 1.00051 0.997525
1.00199 1.00386 1.00227 0.995883
1.02144 1.02455 1.00129 0.995683
1.0084 1.00844 1.00276 0.997209
1.0043 1.0066 1.00138 0.996343
1.01394 1.00026 1.01613 0.997579
1.00713 1.00263 1.00681 0.997699
0.99933 1.00068 1.00059 0.998063
1.01044 1 1.01257 0.997902
1.01724 1 1.01938 0.997897
1.00974 1 1.01161 0.998155
1.01094 1 1.01288 0.998087
1.0031 1 1.00474 0.998365
1.00108 1 1.00198 0.999099
1.00105 1 1.00252 0.998532
1.00043 1 1.0012 0.999232
0.99993 1 1 0.99993
0.99986 1 1.00055 0.999305
0.999947 1 1 0.999947
1 1 1 1
0.999964 1 1 0.999964
1 1 1 1
1 1 1 1
0.99847 1 1 0.99847
0.999486 1 1 0.999486
0.998796 1 1 0.998796
1 1 1 1
0.999693 1 1 0.999693
0.998956 1 1 0.998956
1 1 1 1
1 1 1 1
0.999846 1 1 0.999846
1 1 1 1
1 1 1 1
1 1 1 1
0.714697 0.873084 0.896159 0.913442
0.599084 0.748089 0.883992 0.905912
0.669964 0.80797 0.893106 0.928438
0.99833 1 1.00033 0.998
0.687307 0.852129 0.884308 0.912099
0.676118 0.848309 0.882027 0.903622
0.582804 0.75374 0.859984 0.899106
0.928571 0.992613 0.947574 0.987238
0.837307 0.940101 0.923822 0.964099
0.636341 0.795514 0.86604 0.923643
0.581328 0.76699 0.84807 0.893717
0.872811 0.956714 0.929857 0.98112
0.807635 0.899971 0.932356 0.962508
0.67373 0.801233 0.911257 0.922753
0.668244 0.861866 0.864846 0.896513
0.815116 0.902152 0.924918 0.97687
0.789645 0.867451 0.949449 0.958773
0.77251 0.874727 0.953722 0.925997
0.720307 0.910283 0.874908 0.904439
1.0016 1 1.00386 0.997741
1.00445 1 1.00664 0.997826
0.999938 1 1.00155 0.998394
0.998321 1 1.00047 0.997847
0.998896 1 1.00115 0.99775
0.998647 1 1.00042 0.998224
0.998165 1 1.00006 0.998106
0.998352 1 1.00014 0.998208
0.953986 1.00341 0.953167 0.997457
0.965644 1.00115 0.966264 0.998215
1.00925 1 1.01168 0.997605
0.998521 0.99879 1.00165 0.998079
1.02991 0.999181 1.03303 0.997793
1.01792 1 1.02031 0.997658
1.01064 1 1.01285 0.997812
0.942824 0.969899 0.974264 0.997763
1.0284 0.999681 1.03079 0.998005
1.03327 0.995734 1.03933 0.998422
0.962909 0.96927 0.994151 0.999282
1.01276 1 1.01473 0.998065
0.926767 0.940131 0.988665 0.997087
0.992432 0.966778 1.02707 0.999476
1.06598 0.995916 1.07192 0.998536
1.04899 0.997936 1.05305 0.998211
0.698956 0.84479 0.895919 0.92349
0.719254 0.867891 0.902804 0.91796
0.621879 0.764222 0.896738 0.907446
1.00146 0.995785 1.00639 0.999322
0.978313 0.962578 1.01706 0.999297
0.711066 0.861904 0.89943 0.917241
0.804536 0.864408 0.967438 0.962063
0.878406 0.91922 0.972603 0.982517
0.751804 0.859274 0.948028 0.922893
0.68434 0.85431 0.881309 0.908926
0.713835 0.907931 0.870125 0.903573
1.00207 0.972806 1.03042 0.999669
0.697952 0.849072 0.894187 0.919291
0.730853 0.895057 0.892274 0.915127
0.948763 0.935116 1.0157 0.998914
0.66625 0.860342 0.863674 0.896636
0.83921 0.888071 0.985594 0.958794
0.817806 0.922045 0.954936 0.928803
0.994086 0.961519 1.03422 0.999659
0.735151 0.883631 0.900499 0.923894
0.687612 0.849668 0.886643 0.912736
0.600787 0.792866 0.847638 0.893945
0.766879 0.870868 0.951651 0.925331
0.928967 0.930508 1.00685 0.991547
0.883686 0.913927 1.0141 0.953464
1.02972 0.995091 1.03564 0.999188
1.03436 0.976127 1.06015 0.999534
1.02027 0.957874 1.06559 0.999582
1.01384 0.999955 1.01581 0.998114
1.04868 0.996706 1.05311 0.999091
1.05725 0.985574 1.07338 0.999396
1.02577 0.996905 1.02994 0.999045
1.03571 0.981809 1.05544 0.999488
1.0024 0.98107 1.02252 0.999235
1.01875 0.998138 1.02178 0.998903
1.00949 0.999362 1.01179 0.998361
1.00758 0.999415 1.00938 0.998803
1.01166 0.99781 1.01588 0.998039
0.997705 0.998676 1 0.999028
0.999825 1.00047 1.00202 0.997342
1.00693 1.00228 1.00945 0.995237
1.00653 1.00874 1.00283 0.994996
1.00173 1.00408 1.00026 0.997392
1.00222 1.00454 1.00205 0.995651
1.02144 1.02529 1.00053 0.995726
1.0184 1.0194 1.00261 0.99641
1.01869 1.02171 1.00125 0.995798
1.01202 1.00492 1.00973 0.997361
1.01121 1.0107 1.00335 0.997167
1.00026 1.00259 1.00128 0.996411
1.01615 1 1.01825 0.99793
1.01364 1.00039 1.01567 0.997611
1.00855 1.00347 1.00737 0.997723
1.01574 1 1.01786 0.997924
1.00957 1 1.01144 0.998157
1.00404 1 1.00516 0.998885
1.00379 1 1.00543 0.998364
1.00151 1 1.00242 0.999094
0.999902 1 1 0.999902
1.00078 1 1.00155 0.999229
0.999925 1 1 0.999925
1 1 1 1
0.99994 1 1 0.99994
1 1 1 1
1 1 1 1
0.998499 1 1.00012 0.998375
0.999261 1 1 0.999261
0.998534 1 1 0.998532
0.999994 1 1 0.999994
0.999461 1 1 0.999461
0.998794 1 1 0.998794
1 1 1 1
1 1 1 1
0.999627 1 1 0.999627
1 1 1 1
1 1 1 1
1 1 1 1
0.702876 0.850751 0.895773 0.922313
0.715344 0.871156 0.898916 0.913482
0.600422 0.746615 0.887645 0.905985
0.998658 1 1.00062 0.998041
1.00343 1 1.00552 0.997926
0.998016 1 1 0.998016
0.730708 0.898999 0.890818 0.912422
0.6856 0.853182 0.880752 0.912379
0.674049 0.848947 0.878805 0.903479
0.879296 0.96456 0.927097 0.983288
0.77502 0.887134 0.913143 0.95672
0.680124 0.790677 0.923309 0.931627
0.672188 0.868904 0.865515 0.893808
0.821056 0.908343 0.922332 0.98002
0.806914 0.878086 0.958789 0.958445
0.760891 0.865108 0.948994 0.926806
0.716134 0.908441 0.872132 0.90389
0.837682 0.902241 0.95005 0.977259
0.843098 0.893051 0.983272 0.960126
0.819782 0.924538 0.953776 0.929667
0.678964 0.872558 0.866622 0.897889
0.999567 1 1.0016 0.997974
1.00163 1 1.00395 0.997694
1.00365 1 1.00587 0.997791
0.99809 1 1.00026 0.99783
0.99866 1 1.00083 0.99783
0.998109 1 1 0.998106
0.939683 0.963325 0.977472 0.997939
0.964052 0.969464 0.99511 0.999304
1.01064 1 1.01287 0.997797
1.02671 0.998888 1.02944 0.998466
1.02499 1 1.02704 0.998005
1.01195 0.999428 1.01448 0.998083
1.03512 0.993105 1.04413 0.998248
0.932409 0.938636 0.996161 0.997194
1.06081 0.992586 1.07015 0.998678
0.994482 0.957839 1.03902 0.999268
1.02113 0.990368 1.03269 0.998418
0.956155 0.939835 1.02073 0.9967
1.01094 0.963328 1.05033 0.999131
1.02985 0.965415 1.06803 0.998792
0.752519 0.895117 0.908348 0.925519
0.704044 0.84771 0.898984 0.923849
0.717879 0.867745 0.901986 0.91719
1.01026 0.98324 1.02786 0.999627
0.937613 0.933703 1.00718 0.997033
0.698281 0.849324 0.894328 0.919307
0.836029 0.874266 0.992874 0.963128
0.8114 0.925125 0.949304 0.92391
0.73278 0.895615 0.891937 0.917315
0.672185 0.867961 0.866178 0.89409
0.988035 0.956354 1.0334 0.999738
0.73335 0.879798 0.901389 0.924732
0.690631 0.856567 0.883066 0.913045
0.924202 0.926352 1.01094 0.986885
0.589855 0.783546 0.84561 0.890247
0.759852 0.864188 0.949793 0.925746
0.878665 0.912494 1.0019 0.9611
1.00727 0.949084 1.06344 0.997992
0.704164 0.849044 0.898822 0.92272
0.687893 0.856291 0.888187 0.904473
0.513642 0.680963 0.839258 0.898754
0.673364 0.81096 0.901164 0.921397
0.850861 0.891033 0.995277 0.959447
0.894759 0.913913 0.99584 0.983132
1.02935 0.973847 1.05752 0.999501
1.02976 0.971024 1.06094 0.999578
1.0082 0.970391 1.03953 0.999453
1.01867 0.997647 1.02206 0.999032
1.03328 0.984526 1.05005 0.999487
1.007 0.976865 1.03156 0.999319
1.01008 0.993869 1.01757 0.99876
1.01201 0.999748 1.01351 0.998777
1.00907 0.999107 1.01226 0.997736
1.02682 1.00079 1.03039 0.995761
0.995029 1.00002 0.997418 0.997584
1.00811 1.00196 1.01087 0.995316
1.00768 1.00349 1.00985 0.994384
1.01141 1.01492 1.00191 0.994644
1.01299 1.01659 1.00108 0.995383
1.00653 1.00851 1.00312 0.994937
1.00216 1.00508 1.00169 0.995421
1.01622 1.01912 1.0011 0.996059
1.02332 1.02712 1.00048 0.995822
1.0111 1.00966 1.00465 0.996789
1.02037 1.02116 1.00274 0.996498
1.01783 1.02081 1.00117 0.995913
1.01597 1.0024 1.01595 0.997631
1.01282 1.00573 1.00972 0.997349
1.01433 1.01337 1.00383 0.997123
1.0105 1 1.01186 0.99865
1.01467 1 1.01678 0.997928
1.01376 1.00069 1.01546 0.997643
1.00911 1 1.01097 0.998159
1.00391 1 1.00504 0.998882
0.99999 1 1.00015 0.999836
1.00135 1 1.00227 0.999088
0.999893 1 1 0.999893
1 1 1 1
0.999919 1 1 0.999919
1 1 1 1
1 1 1 1
0.998303 1 1 0.998299
0.999344 1 1.00014 0.999204
0.998531 1 1.00013 0.998404
0.999974 1 1 0.999974
0.999312 1 1 0.999312
0.998595 1 1 0.998595
1 1 1 1
0.999997 1 1 0.999997
0.999437 1 1 0.999437
1 1 1 1
1 1 1 1
1 1 1 1
0.732433 0.881547 0.899845 0.923326
0.708594 0.852142 0.901559 0.922342
0.717605 0.870169 0.902699 0.913564
1.01998 1 1.02224 0.997795
1.00701 1.00062 1.00859 0.997805
0.998409 1 1.00033 0.998083
1.00362 1 1.00573 0.997904
0.998369 1 1.00033 0.99804
1.00466 1 1.00669 0.997981
0.997446 0.999274 1 0.998171
0.692821 0.865565 0.881076 0.908464
0.734056 0.89762 0.894088 0.914653
0.68982 0.851427 0.887724 0.912663
0.714605 0.908058 0.871161 0.903346
0.824143 0.913255 0.923442 0.97724
0.81207 0.875957 0.967926 0.957786
0.767509 0.879204 0.938017 0.930642
0.82264 0.903493 0.932755 0.976153
0.845995 0.886902 0.999884 0.953988
0.816367 0.920231 0.954428 0.929491
0.671526 0.865605 0.859739 0.902353
0.873328 0.91286 0.9767 0.979518
0.864283 0.898694 1.00826 0.953834
0.747602 0.866994 0.93486 0.922375
0.60497 0.79821 0.848893 0.892819
1.03897 0.998477 1.04225 0.998375
1.00099 0.999724 1.00326 0.998007
1.0025 1 1.00487 0.997646
0.997819 1 1.00001 0.997814
0.942071 0.94188 1.00289 0.997324
0.994513 0.952222 1.0454 0.999054
1.01004 0.998702 1.01328 0.998101
1.02582 0.99244 1.03541 0.998285
1.0476 0.982829 1.06716 0.998821
1.02302 0.995519 1.02925 0.99842
1.0386 0.965733 1.07677 0.998779
0.95453 0.938013 1.02287 0.994853
1.01086 0.95533 1.05887 0.999296
1.01157 0.972955 1.04082 0.998906
0.942237 0.918319 1.03244 0.993811
0.990549 0.938927 1.05577 0.999256
0.703484 0.845044 0.900999 0.923954
0.74851 0.890737 0.905801 0.927717
0.710735 0.850785 0.903905 0.924199
0.981138 0.948253 1.03488 0.999805
0.930809 0.93024 1.00863 0.992051
0.72999 0.875304 0.901036 0.925584
0.889205 0.920744 1.01183 0.954457
0.762087 0.873863 0.938018 0.929717
0.696817 0.858247 0.888969 0.913313
0.58004 0.763095 0.850297 0.893942
1.00741 0.950736 1.06145 0.998264
0.709163 0.854931 0.898929 0.922762
0.680812 0.848529 0.88725 0.904304
0.896614 0.913905 0.99504 0.985972
0.525542 0.703776 0.836235 0.892986
0.664024 0.791738 0.909598 0.922046
0.847172 0.890167 0.99693 0.954631
0.990767 0.951216 1.04603 0.995743
0.719652 0.878654 0.896313 0.913786
0.568562 0.730058 0.86902 0.896169
0.625236 0.777134 0.862423 0.932883
0.789753 0.85462 0.962365 0.960236
0.846246 0.887214 0.975018 0.978264
1.03826 0.976632 1.06354 0.99959
1.01188 0.967568 1.04636 0.999464
0.981043 0.969508 1.01269 0.999217
1.01175 0.972741 1.04072 0.999402
1.00934 0.983238 1.0277 0.998872
1.01188 1.0008 1.01351 0.997595
1.00561 1.00031 1.00789 0.997435
1.02654 1.00098 1.03008 0.995584
1.01464 1.0026 1.01746 0.994643
1.00977 1.00199 1.01242 0.995395
1.00874 1.00351 1.01099 0.994289
1.00346 1.00481 1.00448 0.994207
1.04399 1.04927 1 0.994971
1.02452 1.02888 1.00077 0.995003
1.01158 1.01488 1.00218 0.994587
1.01451 1.01878 1.00013 0.995692
1.01094 1.01481 1.00074 0.995446
1.00655 1.00813 1.00357 0.994878
1.01659 1.01928 1.00126 0.996106
1.01593 1.01887 1.00108 0.996031
1.02425 1.02801 1.00043 0.995919
1.00995 1.0042 1.00856 0.997184
1.01187 1.00959 1.00538 0.996897
1.02093 1.02149 1.00288 0.996586
1.01432 1.00134 1.01467 0.998321
1.01546 1.003 1.01483 0.997638
1.0135 1.00687 1.00927 0.997337
1.00172 1 1.00199 0.999735
1.01005 1 1.01142 0.998647
1.01342 1 1.01552 0.997926
1.00415 1 1.00528 0.998878
1.00034 1 1.00052 0.999824
1 1 1 1
0.999883 1 1 0.999883
1 1 1 1
1 1 1 1
1.01485 1 1.01708 0.997814
1.0072 1 1.00913 0.998081
0.999158 1 1.00015 0.999005
0.999483 1 1.00119 0.998294
0.999941 1 1 0.999941
0.999286 1 1.00008 0.999207
0.998708 1 1.00028 0.998433
1 1 1 1
0.999981 1 1 0.999981
0.999362 1 1 0.999362
1 1 1 1
0.999999 1 1 0.999999
1 1 1 1
0.700686 0.849761 0.896826 0.91943
0.727789 0.877169 0.897759 0.924192
0.708802 0.855803 0.897946 0.922361
1.02213 1 1.02439 0.997796
1.0087 1.00059 1.01029 0.997832
1.00011 1.00128 1.0012 0.99763
1.02252 1 1.02475 0.997823
1.00648 1.00157 1.00707 0.997838
1.00549 1 1.00762 0.997881
0.999281 1 1.00122 0.998063
1.00514 0.999768 1.00741 0.997986
0.998386 1 1.00017 0.998219
1.0235 1 1.02529 0.998255
0.667557 0.837628 0.880918 0.904694
0.69021 0.85969 0.883407 0.908821
0.7334 0.897171 0.891571 0.916874
0.670104 0.864662 0.858363 0.902869
0.812265 0.922368 0.95269 0.924362
0.818057 0.897275 0.935593 0.974476
0.850128 0.888166 0.997604 0.959472
0.863462 0.915483 0.966856 0.975509
0.867536 0.911332 0.991867 0.95975
0.764418 0.867381 0.951598 0.926119
0.609628 0.809125 0.845195 0.89144
0.884977 0.909133 0.995016 0.978305
0.851404 0.881439 1.00561 0.960539
0.660609 0.778598 0.910714 0.931641
0.55443 0.727102 0.84855 0.898616
1.0321 0.999203 1.03403 0.998928
1.0403 0.998249 1.04382 0.998382
1.00484 1 1.00681 0.998042
0.953205 0.936451 1.02517 0.992901
1.01272 0.950625 1.06592 0.999443
1.02434 0.998272 1.02773 0.998422
1.05029 0.964669 1.0901 0.998767
1.01604 0.977811 1.04023 0.998912
0.996842 0.948417 1.05183 0.999263
0.942259 0.92096 1.02951 0.993802
1.00959 0.984371 1.02629 0.999345
0.95919 0.944837 1.02028 0.995013
0.725226 0.872061 0.905645 0.918266
0.71279 0.852418 0.904689 0.924293
0.743263 0.8862 0.901883 0.929951
1.01028 0.960997 1.05289 0.998475
0.891826 0.913211 0.995541 0.980957
0.717396 0.862105 0.901768 0.922794
0.852034 0.892497 0.997782 0.956786
0.666846 0.779239 0.919514 0.930672
0.670618 0.843585 0.879167 0.904223
0.536456 0.727282 0.831476 0.887118
0.988151 0.950289 1.04394 0.996074
0.71762 0.872257 0.900345 0.913779
0.568259 0.733409 0.865939 0.894772
0.860359 0.901972 0.97329 0.980042
0.637675 0.783861 0.874292 0.930472
0.787679 0.867282 0.949357 0.956664
0.937728 0.93566 1.00837 0.99389
0.591825 0.746931 0.879174 0.901235
0.649269 0.794415 0.87505 0.933995
0.783686 0.886557 0.923852 0.956826
0.820685 0.892033 0.937871 0.980963
1.01383 0.966463 1.04956 0.999477
0.984418 0.962825 1.02326 0.999188
0.993477 0.987113 1.00806 0.998398
1.00832 0.971014 1.03948 0.998979
1.00709 0.999094 1.01034 0.997691
0.994493 1.00376 0.994277 0.996471
1.02605 1.00094 1.02983 0.995402
1.01309 1.00339 1.01511 0.994637
1.00199 1.00553 1.00137 0.995112
1.0091 1.00334 1.01161 0.994195
1.00325 1.00534 1.0037 0.994247
1.03886 1.04437 0.999483 0.995241
1.07068 1.07767 0.997726 0.995779
1.05669 1.0619 1.00002 0.995074
1.0445 1.04974 1 0.995005
1.03264 1.03752 1 0.9953
1.02338 1.02747 1.00107 0.994943
1.01256 1.01565 1.00244 0.994529
1.02632 1.03066 1 0.995788
1.01283 1.01712 1.00002 0.995763
1.0087 1.01293 1.00032 0.99551
1.01042 1.01102 1.00284 0.996581
1.01342 1.01537 1.00192 0.996171
1.0165 1.01946 1.0011 0.996002
1.01448 1.00154 1.01512 0.997837
1.01269 1.0061 1.00939 0.997182
1.01246 1.00942 1.00603 0.997005
1.0038 1 1.0042 0.999605
1.01412 1.00156 1.01425 0.998318
1.01526 1.00357 1.01404 0.997646
0.999939 1 1 0.999939
1.00267 1 1.00295 0.999721
1.00961 1 1.01098 0.998643
1.00075 1 1.00094 0.99981
1 1 1 1
1 1 1 1
1.00991 1.00262 1.00967 0.997625
1.01366 1 1.01582 0.997865
1.01753 1 1.01979 0.997785
1.00184 1 1.00305 0.998788
1.0058 1 1.00774 0.998076
0.999895 1 1 0.999895
0.999519 1 1.00051 0.999009
1.00002 1 1.00173 0.998288
1 1 1 1
0.999951 1 1 0.999951
0.999209 1 1 0.999209
1 1 1 1
0.999988 1 1 0.999988
1 1 1 1
0.707961 0.859521 0.897123 0.918123
0.704675 0.853628 0.897812 0.919464
0.728736 0.871282 0.904165 0.925047
1.00357 1.00436 1.00175 0.997465
1.01971 1 1.02196 0.997797
1.00467 1 1.00683 0.997863
1.01563 1 1.01789 0.997773
1.0012 1.00266 1.00089 0.997659
1.00291 1.00042 1.00446 0.998045
1.01574 1.00188 1.01675 0.997133
1.01899 0.996418 1.02463 0.998074
1.00558 0.99959 1.00802 0.997992
0.998267 1 1 0.998267
1.02497 0.999071 1.02773 0.998239
1.04226 1.00172 1.04206 0.998474
0.587982 0.744461 0.878997 0.898534
0.68273 0.853226 0.884868 0.904287
0.690397 0.857667 0.885461 0.909098
0.614354 0.811141 0.843894 0.897499
0.75662 0.862236 0.949067 0.924603
0.868672 0.90354 1.00783 0.953939
0.866704 0.913285 0.972076 0.976257
0.882276 0.907904 0.99103 0.980568
0.545836 0.725731 0.842423 0.892805
0.841973 0.885712 0.994748 0.955637
0.665416 0.78809 0.912804 0.924997
0.881387 0.914998 0.980244 0.982682
0.814132 0.875877 0.965786 0.962433
0.625922 0.775151 0.86679 0.93158
0.98906 1.00145 0.98809 0.999531
1.03424 1.00021 1.03512 0.998934
1.04005 0.998796 1.04298 0.998386
0.94506 0.924629 1.02843 0.993841
1.00447 0.959847 1.04725 0.999273
1.02228 0.986043 1.03787 0.998919
1.00621 0.981899 1.02543 0.999345
0.954608 0.943673 1.0166 0.995068
0.981354 0.977915 1.00671 0.996826
0.628257 0.76538 0.905447 0.906562
0.720988 0.869653 0.900846 0.920305
0.7166 0.857698 0.903641 0.924584
0.988699 0.950056 1.04457 0.996272
0.854857 0.900419 0.967858 0.980927
0.714009 0.865262 0.902953 0.913883
0.803759 0.865612 0.970483 0.956786
0.637409 0.797034 0.865157 0.924372
0.586173 0.753183 0.864851 0.899879
0.935559 0.928303 1.01397 0.993932
0.601478 0.748775 0.886175 0.906461
0.635484 0.790635 0.866889 0.927181
0.81772 0.896703 0.933622 0.976754
0.80965 0.905339 0.929075 0.962578
0.928998 0.947489 0.983241 0.997197
0.672531 0.805953 0.901862 0.925258
0.862457 0.961238 0.929907 0.964866
0.816285 0.909221 0.919488 0.976396
0.988291 0.957652 1.03286 0.999164
0.981595 0.98646 0.996581 0.998482
0.992134 1.00044 0.994338 0.997341
1.00255 0.997768 1.00702 0.997788
0.996563 1.00372 0.996428 0.996432
1.00012 1.00803 0.995819 0.996322
1.01232 1.00471 1.01302 0.994631
1.00192 1.00517 1.00167 0.995111
1.03491 1.04656 0.992606 0.996233
1.00321 1.00577 1.00319 0.994288
1.03721 1.04311 0.99909 0.995249
1.06799 1.07972 0.992664 0.996449
1.06496 1.07587 0.993269 0.996571
1.07296 1.07859 0.999085 0.995691
1.07232 1.0793 0.997697 0.99583
1.062 1.06701 1 0.995306
1.05453 1.05967 1 0.995151
1.04375 1.04896 1 0.995038
1.04719 1.05187 1 0.995554
1.03331 1.03802 1.00014 0.99532
1.02193 1.02567 1.00148 0.994883
1.02705 1.03109 1 0.996082
1.02391 1.02824 1 0.995786
1.01103 1.01526 1 0.995833
1.00837 1.00374 1.0073 0.99734
1.01316 1.01344 1.00316 0.996572
1.01024 1.01122 1.0028 0.996237
1.00466 1 1.00534 0.999326
1.0128 1.0025 1.01247 0.997832
1.01479 1.00824 1.00935 0.997178
1 1 1 1
1.00434 1 1.00481 0.999533
1.01331 1.00164 1.01335 0.998316
1 1 1 1
1.00356 1 1.00387 0.999694
1 1 1 1
1.00562 1.00641 1.00185 0.997367
1.00796 1.00181 1.00857 0.997583
1.01388 1.0004 1.01581 0.997697
1.00763 1 1.00906 0.998577
1.01586 1 1.01803 0.997862
1.02321 1 1.02551 0.997756
1.00006 1 1.00023 0.999825
1.00104 1 1.00225 0.998794
1.0057 1 1.00765 0.99807
1 1 1 1
0.999908 1 1 0.999908
0.999523 1 1.00051 0.999014
1 1 1 1
0.999961 1 1 0.999961
1 1 1 1
0.602686 0.754077 0.889276 0.89875
0.71257 0.864847 0.897324 0.918204
0.708905 0.8583 0.898238 0.919512
1.00948 1.00291 1.00914 0.997433
1.01824 1.00855 1.01264 0.997011
1.02401 1.00236 1.02436 0.997296
1.01514 1 1.01746 0.997722
1.00244 1.00476 1 0.997688
1.00298 0.999507 1.00524 0.998246
1.01949 0.998576 1.023 0.997985
1.01754 1.00255 1.01769 0.997304
1.01882 1.00078 1.02062 0.997455
0.974244 1.00189 0.973417 0.998965
1.02489 0.999628 1.0271 0.998223
1.03699 1.00052 1.03807 0.998437
0.644648 0.792069 0.881363 0.923431
0.563767 0.721563 0.873344 0.894624
0.693192 0.862522 0.888863 0.904167
0.538723 0.725698 0.837125 0.886787
0.677437 0.799487 0.90935 0.931808
0.830049 0.879524 0.986063 0.957087
0.880777 0.905505 0.995072 0.977508
0.867338 0.905889 0.977179 0.979805
0.638533 0.778728 0.88207 0.929598
0.794817 0.870239 0.954248 0.957123
0.845403 0.910812 0.945312 0.981883
0.782059 0.902577 0.904787 0.957655
0.995628 1 0.996578 0.999046
0.988484 1.00074 0.988274 0.999477
1.03508 0.999461 1.03674 0.99894
0.944017 0.936642 1.01279 0.995142
1.00067 0.977249 1.02464 0.999345
0.983003 0.980444 1.00584 0.996785
0.96402 0.98623 0.981828 0.995571
0.694947 0.81742 0.911545 0.93267
0.623138 0.762896 0.901093 0.90646
0.723734 0.871885 0.900065 0.922245
0.937149 0.934808 1.00839 0.994161
0.821384 0.894757 0.939503 0.977109
0.602736 0.74824 0.888666 0.906458
0.776846 0.891732 0.910099 0.95722
0.650218 0.789404 0.881936 0.933948
0.928838 0.95141 0.980559 0.99563
0.683863 0.815761 0.901559 0.929848
0.842621 0.95282 0.923087 0.95803
0.817873 0.909337 0.918435 0.979293
0.93824 0.974455 0.96584 0.99689
0.883333 0.976248 0.938577 0.964039
0.873765 0.960227 0.925747 0.982943
0.969003 0.984478 0.985714 0.998546
0.986126 1.00036 0.988432 0.997306
0.980961 1.00912 0.974931 0.997091
0.9979 1.00337 0.998152 0.996395
0.999589 1.00768 0.995638 0.996311
1.02184 1.05121 0.974973 0.99701
1.00148 1.00452 1.00186 0.995112
1.03196 1.04496 0.991315 0.996206
1.04886 1.07911 0.974827 0.997069
1.03627 1.04255 0.998709 0.995255
1.06639 1.07914 0.991716 0.996438
1.05426 1.0765 0.982214 0.997077
1.0595 1.07543 0.988185 0.996961
1.06528 1.07691 0.992526 0.996649
1.06554 1.07298 0.996633 0.996421
1.07484 1.07953 0.999903 0.995753
1.07334 1.0787 0.99931 0.995722
1.07467 1.08168 0.997625 0.995881
1.06623 1.07106 1 0.995498
1.06343 1.06842 1 0.995331
1.05282 1.05787 1 0.995228
1.04859 1.05302 1 0.995794
1.04813 1.05282 1 0.995552
1.03412 1.03879 1.00017 0.99534
1.00882 1.01141 1.00052 0.996915
1.02717 1.03121 1 0.996086
1.02162 1.02595 1 0.995784
1.00393 1 1.00495 0.998988
1.01056 1.0059 1.00732 0.997335
1.01648 1.01594 1.00398 0.996563
1 1 1 1
1.00497 1 1.00568 0.999301
1.01274 1.00377 1.01114 0.997827
0.999953 1 1 0.999953
1.00523 1 1.00571 0.999524
1 1 1 1
1.00918 1.01047 1.00164 0.997089
1.00406 1.00316 1.00353 0.997378
1.00714 1.00163 1.00799 0.997529
1.0045 1.00057 1.0064 0.99754
1.01367 1.00054 1.01546 0.9977
1.01278 1 1.01445 0.998358
1.00116 1 1.00144 0.999721
1.00653 1 1.00797 0.998577
1.01584 1 1.01802 0.99786
1 1 1 1
0.999843 1 1 0.999843
1.00019 1 1.00139 0.998799
1 1 1 1
0.999922 1 1 0.999922
1 1 1 1
0.672352 0.80737 0.895782 0.929655
0.604868 0.75376 0.89097 0.900668
0.71392 0.86723 0.896459 0.918301
1.01347 1.00154 1.01455 0.997402
1.03007 1.00196 1.03111 0.997039
1.0153 1.00854 1.00967 0.997061
1.01053 1.01209 1.00242 0.996043
1.02606 1.00368 1.02498 0.997373
1.01784 1 1.01998 0.997902
1.01843 1.00313 1.01783 0.997475
1.01979 1.00142 1.02082 0.997575
0.99656 1.00687 0.992566 0.997176
0.963088 1.00163 0.963007 0.998454
0.968498 1.00035 0.970419 0.997667
0.979593 1.00193 0.978705 0.998984
1.03207 1.00052 1.03318 0.998403
0.839557 0.944971 0.923351 0.9622
0.63714 0.786462 0.875204 0.925652
0.555022 0.713237 0.867736 0.896786
0.637048 0.787911 0.875333 0.923681
0.799832 0.875669 0.952365 0.959082
0.875384 0.905411 0.983849 0.982707
0.843786 0.908696 0.94367 0.983996
0.817968 0.910593 0.931928 0.963896
0.861954 0.953361 0.919729 0.98303
0.990984 1.0013 0.991457 0.998221
0.996542 0.999912 0.997607 0.99902
0.988661 1.00037 0.988861 0.999424
0.986672 0.985001 1.00491 0.996807
0.973283 0.988986 0.987885 0.996191
0.870603 0.965902 0.938147 0.960762
0.69473 0.815915 0.911957 0.933678
0.616572 0.758061 0.897324 0.906423
0.932024 0.958944 0.977838 0.993956
0.824701 0.920805 0.917021 0.976674
0.674455 0.810172 0.896219 0.928884
0.841889 0.944565 0.924465 0.964124
0.94641 0.975995 0.972608 0.996997
0.892367 0.984798 0.939821 0.964164
0.870813 0.956952 0.928639 0.979913
0.944541 1.00116 0.946957 0.99629
0.91247 0.98958 0.93307 0.988219
0.983827 1.00215 0.984377 0.997301
0.975418 1.00902 0.969566 0.997046
0.982573 1.04293 0.944583 0.997398
0.998762 1.00726 0.995248 0.996299
1.02479 1.05293 0.976227 0.996975
1.04038 1.08431 0.962008 0.997381
1.02868 1.0431 0.989957 0.99618
1.049 1.07907 0.975011 0.997041
1.04247 1.0777 0.969921 0.997305
1.06402 1.07781 0.990746 0.996427
1.05399 1.07588 0.982553 0.997054
1.05497 1.07954 0.980039 0.997153
1.05774 1.07464 0.987216 0.997019
1.06042 1.07458 0.990023 0.996771
1.06526 1.07756 0.991834 0.996726
1.06553 1.07291 0.996691 0.996413
1.06682 1.07231 0.998698 0.996178
1.07252 1.07714 1 0.995707
1.07484 1.07952 0.999928 0.995741
1.07362 1.07868 0.999552 0.995754
1.06236 1.06699 1 0.995662
1.0677 1.07253 1 0.99549
1.06494 1.06991 1 0.995355
1.02134 1.02484 1 0.996584
1.04737 1.05179 1 0.995798
1.04877 1.05346 1 0.995551
1.00085 1.00003 1.00221 0.998604
1.01262 1.01488 1.00085 0.996918
1.02711 1.03115 1 0.996089
1 1 1 1
1.00336 1 1.0044 0.998961
1.01167 1.00785 1.00648 0.99733
1 1 1 1
1.00473 1 1.00546 0.999276
1 1 1 1
1.0226 1.0258 1.00073 0.99615
1.01009 1.01241 1.00063 0.997078
1.00507 1.00398 1.0039 0.997187
1.00376 1.00029 1.00611 0.997388
1.00647 1.00084 1.00815 0.997486
1.01189 1.00132 1.01253 0.998052
1.01629 1.00041 1.01822 0.997704
1.01387 1 1.01554 0.998354
1.00506 1 1.00549 0.999567
1 1 1 1
1.00116 1 1.00143 0.999736
1.0074 1 1.00883 0.998577
1 1 1 1
0.999857 1 1 0.999857
1 1 1 1
0.883167 0.974024 0.938489 0.966149
0.684265 0.817345 0.89947 0.930748
0.601243 0.752328 0.89001 0.897941
1.03693 1.00147 1.03875 0.996781
1.01287 1.00969 1.00605 0.997111
1.02142 1.00321 1.02098 0.997227
1.00989 1.01153 1.00224 0.996148
1.03192 1.03609 1.00016 0.995815
1.00111 1.00767 0.996628 0.99686
1.02283 1.00249 1.02265 0.99769
0.998081 1.00858 0.992601 0.996969
0.972247 1.0028 0.971046 0.998438
0.996086 1.00421 0.994683 0.997213
0.970729 1.00345 0.969714 0.997605
0.99335 1.00156 0.994639 0.99715
0.967979 1.00082 0.969353 0.997766
0.985279 1.00053 0.985742 0.999004
0.875947 0.966083 0.922474 0.9829
0.847427 0.955562 0.922406 0.961438
0.65212 0.787168 0.888158 0.93276
0.791402 0.898865 0.920025 0.95698
0.856462 0.911164 0.954184 0.985098
0.86611 0.942928 0.930147 0.987512
0.960774 1.00377 0.960516 0.996515
0.987848 1.00029 0.989419 0.998119
0.996676 0.999249 0.998428 0.998996
0.976439 0.989902 0.989572 0.996794
0.902803 0.973187 0.943176 0.983566
0.882564 0.972302 0.938324 0.967369
0.684464 0.811352 0.909595 0.927456
0.944004 0.971347 0.974659 0.997118
0.872967 0.960671 0.925644 0.981702
0.890483 0.984507 0.938207 0.964069
0.940883 0.999034 0.945182 0.996414
0.915896 0.986676 0.940267 0.987235
0.948151 1.02547 0.927675 0.996685
0.962684 1.0236 0.945146 0.995074
0.968744 1.00887 0.963124 0.996994
0.979904 1.03997 0.944704 0.997399
1.00747 1.08132 0.93418 0.997351
1.02877 1.05536 0.977792 0.996941
1.03988 1.08368 0.962125 0.997357
1.05053 1.08655 0.969515 0.997254
1.04974 1.07951 0.975342 0.997012
1.04382 1.07745 0.97143 0.997285
1.06033 1.0876 0.97775 0.99711
1.05405 1.07558 0.982896 0.997031
1.05352 1.07734 0.980687 0.997147
1.06033 1.08056 0.984349 0.996877
1.05622 1.0741 0.986231 0.997075
1.05981 1.07435 0.98961 0.996817
1.0652 1.07453 0.99486 0.996439
1.06557 1.07294 0.996718 0.996405
1.06762 1.07283 0.998969 0.996168
1.07048 1.07511 0.999708 0.995983
1.0658 1.0704 1 0.995706
1.07294 1.07759 1 0.995681
1.07479 1.07944 0.999966 0.995728
1.03755 1.04132 1 0.996385
1.06138 1.066 1 0.995669
1.06931 1.07416 1 0.995482
1.00059 1.00201 1.00027 0.998309
1.02206 1.02554 1.00002 0.996583
1.04599 1.0504 1 0.995802
1 1 1 1
1.00066 1.00048 1.0016 0.998582
1.0165 1.01839 1.00123 0.996921
1 1 1 1
1.00317 1 1.00424 0.998935
1 1 1 1
1.04045 1.04482 1 0.995818
1.02376 1.02718 1.00049 0.99618
1.02027 1.02236 1.00145 0.996509
1.0111 1.01348 1.00059 0.997067
1.00581 1.00527 1.00343 0.997116
1.0107 1.00677 1.00628 0.997647
1.00476 1 1.00733 0.997443
1.01146 1.00092 1.0125 0.998054
1.00535 1 1.00599 0.999362
1.01249 1 1.01416 0.99835
1.00348 1 1.0039 0.999579
1 1 1 1
1 1 1 1
1.00036 1 1.00061 0.999752
1 1 1 1
0.896756 0.966494 0.94281 0.984127
0.872805 0.970553 0.936778 0.959979
0.687693 0.81037 0.907943 0.934658
1.05575 1.06013 1.00007 0.995805
1.01595 1.0023 1.01658 0.997084
1.0105 1.0122 1.00208 0.996253
1.00168 1.00789 0.996956 0.996873
1.03049 1.0344 1.00042 0.995796
1.016 1.02001 0.999238 0.996832
1.00068 1.00986 0.99413 0.996763
0.978626 1.00289 0.977347 0.998419
0.99484 1.00566 0.991989 0.997227
0.96325 1.00246 0.963333 0.997459
1.01989 1.02126 1.00218 0.996485
0.984394 1.00764 0.979638 0.997237
0.991907 1.00218 0.99259 0.997133
0.969346 1.00134 0.970125 0.997864
0.949139 1.00565 0.946545 0.997107
0.865325 0.958639 0.919898 0.98126
0.846036 0.958432 0.9186 0.960951
0.865905 0.936571 0.938565 0.985067
0.963733 1.004 0.962172 0.997635
0.987709 1.00003 0.989652 0.998004
0.96747 1.01019 0.963607 0.993882
0.894837 0.957506 0.94887 0.984909
0.871549 0.971632 0.933476 0.960918
0.942306 0.997394 0.948054 0.996533
0.923421 0.989024 0.946864 0.986063
0.951359 1.0274 0.928892 0.996876
0.969033 1.02426 0.950406 0.99545
0.990752 1.05517 0.941663 0.99712
1.0576 1.10237 0.962246 0.997031
0.97609 1.03633 0.944331 0.997399
1.01391 1.08298 0.938723 0.997333
1.04368 1.10203 0.949802 0.997105
1.0388 1.08254 0.962158 0.997332
1.04656 1.08422 0.967921 0.997251
1.06215 1.09689 0.971252 0.996991
1.04487 1.07696 0.972865 0.997265
1.0578 1.08559 0.977206 0.997124
1.06418 1.08567 0.983327 0.996827
1.052 1.07506 0.981358 0.997141
1.06073 1.08093 0.984395 0.996875
1.06473 1.07921 0.989984 0.996567
1.0591 1.07403 0.989206 0.996863
1.06518 1.07478 0.994555 0.996485
1.07249 1.07755 0.999148 0.996152
1.06843 1.07336 0.999242 0.996158
1.07048 1.07498 0.99983 0.995978
1.06733 1.07182 1 0.99581
1.0449 1.04877 1 0.996314
1.06552 1.07012 1 0.9957
1.07335 1.07804 1 0.995655
1.00824 1.01007 1 0.998185
1.03543 1.03918 1 0.996385
1.06051 1.06512 1 0.995676
1 1 1 1
1.00295 1.00457 1.0001 0.998292
1.02303 1.02654 1 0.996584
1 1 1 1
1.00044 1.00108 1.0008 0.99856
1 1 1 1
1.05632 1.06093 1 0.995651
1.04038 1.04475 1 0.995809
1.04265 1.04676 1 0.996079
1.0246 1.02825 1.00024 0.996211
1.02421 1.02638 1.00141 0.99648
1.0174 1.01728 1.00287 0.997253
1.00619 1.00634 1.00282 0.997045
1.0087 1.00416 1.00688 0.997651
1.00288 1 1.00376 0.99912
1.01212 1.00021 1.01388 0.998054
1.00498 1 1.00561 0.999376
1 1 1 1
1.0029 1 1.00332 0.99959
1 1 1 1
1 1 1 1
0.956469 1.01057 0.949717 0.996579
0.888972 0.965827 0.938469 0.980773
0.872026 0.967902 0.932173 0.966499
1.0512 1.055 1.00001 0.996392
1.06553 1.07205 0.99784 0.996069
1.05443 1.05873 1.00005 0.995899
1.00199 1.00807 0.997076 0.996884
1.02841 1.03201 1.00073 0.995777
1.01906 1.0239 0.998441 0.996823
1.04373 1.05838 0.989717 0.996406
0.994252 1.0074 0.989679 0.997241
0.958286 1.00189 0.959056 0.997313
1.02244 1.02463 1.00123 0.996627
1.02567 1.05425 0.976408 0.996393
0.984942 1.03009 0.958684 0.997376
0.993188 1.01075 0.985411 0.997169
0.993122 1.00272 0.993289 0.997116
0.949909 1.00704 0.945669 0.99746
0.872484 0.962929 0.924952 0.979589
0.964026 1.00329 0.962027 0.998796
1.03828 1.07595 0.967346 0.997561
0.964186 1.00902 0.961291 0.994043
0.89776 0.965423 0.946528 0.982447
0.954467 1.02971 0.929664 0.997053
0.974031 1.02454 0.954667 0.995848
0.984818 1.05537 0.93566 0.997317
1.05433 1.10116 0.960299 0.99706
1.05478 1.11434 0.949348 0.997055
1.10088 1.14061 0.967857 0.997217
1.02055 1.08568 0.942538 0.997314
1.04994 1.10503 0.952904 0.997105
1.06387 1.10647 0.964479 0.996914
1.04255 1.082 0.9662 0.997248
1.06211 1.09628 0.971752 0.996993
1.06325 1.09079 0.977878 0.996798
1.05527 1.08361 0.976643 0.997138
1.06517 1.0866 0.9834 0.996824
1.06648 1.08299 0.98814 0.99658
1.06116 1.08132 0.984435 0.996872
1.06534 1.07978 0.990029 0.996564
1.07447 1.08211 0.996694 0.996232
1.06511 1.07502 0.994229 0.996531
1.07187 1.0771 0.998982 0.996163
1.07182 1.07627 1 0.995868
1.07048 1.07484 0.999965 0.995974
1.06703 1.07151 1 0.995821
1.04528 1.04916 1 0.996295
1.01432 1.01617 1 0.998179
1.04462 1.04848 1 0.996315
1.06533 1.06993 1 0.995694
1 1 1 1
1.00987 1.01172 1 0.998175
1.03288 1.03662 1 0.996385
1 1 1 1
1.00483 1.00657 1 0.998276
1 1 1 1
1.06633 1.07101 0.999848 0.995789
1.05552 1.06012 1 0.995666
1.05731 1.06171 1 0.995856
1.03964 1.04402 1 0.995801
1.04369 1.0478 1 0.99608
1.02364 1.02633 1.00048 0.996905
1.02782 1.03001 1.00143 0.996451
1.01354 1.01333 1.00296 0.997255
1.00081 1.00038 1.00164 0.998793
1.00726 1.0022 1.00741 0.997657
1.00342 1 1.00429 0.999139
1 1 1 1
1.00435 1 1.00496 0.99939
1 1 1 1
1 1 1 1
0.992501 1.05425 0.943579 0.997724
0.953866 1.00915 0.949587 0.995395
0.891611 0.96858 0.937763 0.981628
1.05867 1.06941 0.993614 0.996315
1.05065 1.05451 0.999725 0.996612
1.07493 1.08625 0.993315 0.996239
1.06513 1.07277 0.996817 0.996048
1.05276 1.05702 0.999976 0.995994
1.06596 1.09185 0.979993 0.99622
1.02245 1.02807 0.99772 0.996814
1.04237 1.05602 0.990697 0.996344
1.04901 1.0963 0.960186 0.996538
1.0205 1.02767 0.996241 0.99677
1.02666 1.05527 0.976499 0.996302
0.983566 1.03504 0.95273 0.99742
0.998515 1.01214 0.989412 0.997096
0.950615 1.00777 0.945403 0.997763
1.08706 1.13118 0.963645 0.997254
1.0446 1.07899 0.970471 0.997587
0.963291 1.00753 0.961661 0.994211
0.979482 1.05513 0.930624 0.99751
1.05135 1.10023 0.958361 0.997091
1.04843 1.11109 0.946372 0.997077
1.10712 1.14598 0.968789 0.997215
1.08159 1.12151 0.967215 0.997099
1.05594 1.1075 0.956214 0.997106
1.06474 1.10547 0.966131 0.996925
1.06377 1.09505 0.974511 0.996847
1.06211 1.09564 0.97232 0.996994
1.0639 1.09098 0.978324 0.996779
1.0656 1.08435 0.986079 0.996575
1.06618 1.08754 0.983483 0.99682
1.06684 1.08334 0.988157 0.996575
1.07486 1.08566 0.993747 0.996287
1.06595 1.08035 0.990075 0.996562
1.07422 1.08187 0.996683 0.996232
1.07712 1.08154 1 0.995914
1.07129 1.07669 0.998805 0.996175
1.07152 1.07596 1 0.995875
1.04593 1.04985 1 0.996263
1.06661 1.07108 1 0.995832
1.04617 1.05006 1 0.996296
1.015 1.01649 1 0.998536
0.999374 1 1 0.999374
1.0146 1.0163 1 0.998328
1.04418 1.04804 1 0.996316
1 1 1 1
1.01197 1.01383 1 0.998164
1 1 1 1
1.07778 1.08816 0.994082 0.996359
1.07066 1.07645 0.998561 0.996054
1.06617 1.07129 0.999407 0.995816
1.05873 1.06317 1 0.995816
1.05554 1.06012 1 0.99568
1.05614 1.06054 1 0.995847
1.02716 1.03065 1 0.996612
1.04495 1.04906 1 0.99608
1.02183 1.02436 1.00063 0.996903
1.00259 1.00404 1.00012 0.998432
1.00924 1.00905 1.00293 0.997257
1.00133 1.0003 1.00221 0.998812
1 1 1 1
1.00374 1 1.00458 0.999158
1 1 1 1
1 1 1 1
1.07323 1.12317 0.958419 0.996992
1.00219 1.06483 0.943323 0.997724
0.950585 1.00938 0.947213 0.994236
1.06756 1.08699 0.985796 0.996279
1.05414 1.06542 0.993027 0.996358
1.05015 1.05401 0.999501 0.996831
1.07378 1.08414 0.994169 0.996252
1.0647 1.07338 0.995873 0.996028
1.07191 1.10994 0.969112 0.996517
1.06064 1.0872 0.979311 0.996178
1.04138 1.0541 0.99162 0.996281
1.04416 1.09092 0.960462 0.996539
1.03244 1.05906 0.978579 0.99621
0.985162 1.04439 0.945674 0.997475
1.07743 1.11155 0.972014 0.997208
1.08836 1.13209 0.963982 0.997293
1.0505 1.08263 0.972645 0.997614
1.04245 1.10832 0.943309 0.997096
1.11359 1.15142 0.969846 0.997212
1.08316 1.12357 0.966836 0.997103
1.07106 1.09611 0.980114 0.996971
1.06556 1.10442 0.96778 0.996935
1.06443 1.0949 0.975264 0.99683
1.06664 1.08547 0.98598 0.996626
1.06458 1.09121 0.978768 0.996759
1.06627 1.085 0.986113 0.996574
1.07385 1.08628 0.992203 0.996319
1.06725 1.08373 0.988174 0.996571
1.07473 1.08551 0.993762 0.996285
1.08002 1.08483 0.999609 0.995948
1.07392 1.08158 0.996669 0.996232
1.07741 1.08185 0.999981 0.995919
1.04671 1.0507 1 0.996206
1.07123 1.07566 1 0.995881
1.04741 1.05133 1 0.996266
1.01358 1.01505 1 0.998558
1.04732 1.05121 1 0.996296
1.01463 1.01612 1 0.998529
0.999406 1 1 0.999406
0.999703 1 1 0.999703
1.01497 1.0165 1 0.998492
1 1 1 1
1.06864 1.08514 0.988379 0.996375
1.07336 1.0797 0.997956 0.996163
1.07566 1.08665 0.993376 0.99649
1.06739 1.07182 1 0.995868
1.07309 1.07857 0.998862 0.996047
1.06597 1.07158 0.99892 0.995842
1.05938 1.06385 1 0.995805
1.03984 1.04356 1 0.996435
1.0557 1.06012 1 0.995838
1.03077 1.03428 1 0.996613
1.00993 1.01172 1 0.998234
1.02057 1.0232 1.00052 0.996903
1.00173 1.00273 1.00055 0.998455
1 1 1 1
1.00166 1 1.00283 0.998833
1 1 1 1
1 1 1 1
1.07142 1.1074 0.970546 0.996875
1.06492 1.11381 0.958996 0.996994
1.01043 1.07242 0.944356 0.997718
1.0687 1.09478 0.979657 0.996451
1.06491 1.08455 0.985563 0.996275
1.04941 1.06127 0.99239 0.996403
1.07241 1.08196 0.99489 0.996266
1.0715 1.10858 0.969956 0.996491
1.05462 1.08171 0.978742 0.996136
1.03489 1.08024 0.961337 0.996539
1.07446 1.09846 0.981064 0.997037
1.07625 1.10989 0.972449 0.997165
1.08943 1.13263 0.964434 0.997331
1.06998 1.0892 0.985431 0.996878
1.08453 1.12557 0.966329 0.997107
1.07068 1.09585 0.980019 0.996957
1.06876 1.08596 0.987383 0.996741
1.06509 1.09473 0.976039 0.996813
1.06691 1.08576 0.985962 0.996628
1.07334 1.0852 0.992699 0.996351
1.0669 1.0856 0.986149 0.996573
1.0739 1.08631 0.992231 0.996318
1.08073 1.08612 0.999044 0.995982
1.07453 1.08529 0.993779 0.996283
1.08029 1.08516 0.999565 0.995951
1.04551 1.04956 1 0.996151
1.0777 1.08215 0.999967 0.995924
1.04779 1.05178 1 0.99621
1.01147 1.01296 1 0.998534
1.04889 1.05282 1 0.996268
1.01293 1.01441 1 0.998543
0.999408 1 1 0.999408
1.01414 1.01564 1 0.998526
0.999423 1 1 0.999423
1 1 1 1
1.06715 1.08462 0.987567 0.996286
1.0739 1.08431 0.9942 0.99618
1.07058 1.08642 0.989009 0.996373
1.07569 1.08006 1 0.995952
1.074 1.0815 0.996832 0.996217
1.07373 1.08527 0.992729 0.99662
1.05027 1.05414 1 0.996337
1.06756 1.072 1 0.995857
1.0757 1.08083 0.999218 0.996039
1.05991 1.06439 1 0.995793
1.04059 1.04431 1 0.996434
1.01579 1.01762 1 0.998196
1.03297 1.03648 1 0.996614
1.0074 1.00917 1 0.99825
1 1 1 1
1.00088 1.00142 1.00099 0.998476
1 1 1 1
1 1 1 1
1.07013 1.09433 0.981069 0.996763
1.07228 1.10894 0.969993 0.996852
1.05921 1.10771 0.959094 0.996996
1.06836 1.09431 0.979747 0.996468
1.06216 1.08201 0.985331 0.99627
1.07216 1.10846 0.970677 0.996466
1.07209 1.09061 0.986101 0.996876
1.07444 1.09827 0.981213 0.997032
1.07511 1.10825 0.972898 0.997122
1.07025 1.08919 0.985669 0.996899
1.06746 1.0822 0.989641 0.996705
1.07028 1.09558 0.979901 0.996942
1.06925 1.08588 0.987941 0.996703
1.07231 1.08376 0.99296 0.996444
1.06721 1.08608 0.985945 0.996631
1.07328 1.08515 0.992677 0.996353
1.08022 1.0858 0.998847 0.996006
1.07407 1.08645 0.992254 0.996318
1.08053 1.086 0.99897 0.995984
1.04352 1.04759 1 0.996123
1.08069 1.0856 0.999513 0.995954
1.04626 1.0503 1 0.996154
1.00899 1.01052 1 0.998481
1.04891 1.0529 1 0.996213
1.01071 1.01221 1 0.998512
0.999381 1 1 0.999381
1.01228 1.01377 1 0.998532
0.999437 1 1 0.999437
0.999432 1 1 0.999432
1.06872 1.08578 0.987689 0.996556
1.07458 1.08565 0.993634 0.996141
1.06669 1.08546 0.986346 0.996311
1.07857 1.08436 0.998662 0.995996
1.07431 1.08401 0.994862 0.996165
1.07245 1.08765 0.989615 0.996372
1.05068 1.05461 1 0.996279
1.07496 1.0799 0.999462 0.99596
1.07453 1.08328 0.99563 0.99627
1.01568 1.0175 1 0.998216
1.04888 1.05274 1 0.996337
1.06777 1.07223 1 0.995845
1.04159 1.04532 1 0.996433
1.01448 1.0163 1 0.998206
1 1 1 1
1.00532 1.00706 1 0.998267
1 1 1 1
1 1 1 1
1.06884 1.08687 0.986608 0.996766
1.07037 1.09446 0.981177 0.996752
1.0725 1.10982 0.969445 0.996828
1.0683 1.09402 0.979932 0.996485
1.06845 1.08081 0.991874 0.996662
1.07215 1.09083 0.985942 0.996888
1.07445 1.09812 0.981367 0.997027
1.07058 1.0892 0.985937 0.996921
1.06755 1.08266 0.989295 0.996714
1.07305 1.08322 0.994164 0.996427
1.06977 1.08581 0.988526 0.996666
1.07326 1.08399 0.993685 0.996392
1.07835 1.08452 0.998218 0.996086
1.07323 1.08513 0.992657 0.996355
1.0796 1.08525 0.998783 0.996008
1.0418 1.04587 1 0.996107
1.08005 1.0856 0.998899 0.995985
1.04412 1.04818 1 0.996124
1.00629 1.00818 1 0.998124
1.04685 1.05089 1 0.996158
1.0081 1.00981 1 0.998313
1 1 1 1
1.00994 1.01146 1 0.998493
0.999417 1 1 0.999417
0.999457 1 1 0.999457
1.06824 1.082 0.990589 0.996659
1.07381 1.08528 0.993122 0.996283
1.06914 1.08525 0.988567 0.996549
1.07835 1.08435 0.998494 0.995959
1.07405 1.08522 0.993547 0.996141
1.0663 1.08637 0.985138 0.996337
1.04688 1.05088 1 0.996191
1.07847 1.08404 0.998863 0.995997
1.07479 1.08376 0.995561 0.99615
1.01228 1.01406 1 0.998238
1.04911 1.05305 1 0.996259
1.07397 1.07939 0.999006 0.995969
1 1 1 1
1.01626 1.01806 1 0.998226
1.04738 1.05123 1 0.996336
1.01305 1.01486 1 0.998218
1 1 1 1
1 1 1 1
1.0671 1.079 0.99228 0.996666
1.0696 1.0872 0.987002 0.996772
1.07046 1.09446 0.98127 0.996741
1.07405 1.08301 0.995343 0.996368
1.06764 1.08051 0.99139 0.996673
1.0722 1.09107 0.985768 0.996899
1.06758 1.08311 0.988905 0.996724
1.07294 1.08322 0.994057 0.996428
1.07778 1.08379 0.998364 0.996091
1.07414 1.08415 0.994401 0.996339
1.07846 1.08434 0.998534 0.996045
1.0399 1.04396 1 0.99611
1.07907 1.08479 0.998711 0.99601
1.04237 1.04644 1 0.996108
1.00426 1.00616 1 0.998113
1.04499 1.04905 1 0.996126
1.0057 1.0076 1 0.998123
1 1 1 1
1.00727 1.00917 1 0.998117
0.999681 1 1 0.999681
0.999448 1 1 0.999448
1.06471 1.07668 0.992228 0.996626
1.07458 1.08367 0.995228 0.99637
1.06774 1.08136 0.990707 0.996668
1.07809 1.08345 0.999094 0.995956
1.07443 1.08562 0.993396 0.99627
1.06947 1.08463 0.989441 0.996541
1.0435 1.04755 1 0.996131
1.07848 1.08401 0.998959 0.995941
1.07347 1.08474 0.993442 0.996141
1.00882 1.01063 1 0.998215
1.04605 1.05006 1 0.996182
1.07829 1.08369 0.99901 0.995998
1 1 1 1
1.01341 1.01519 1 0.998247
1.04785 1.0518 1 0.996239
1 1 1 1
1.01687 1.01867 1 0.998235
1 1 1 1
1.07478 1.08333 0.995687 0.996403
1.0664 1.07838 0.992216 0.996653
1.07032 1.08746 0.987418 0.996778
1.07768 1.08353 0.998514 0.996084
1.0736 1.08292 0.994988 0.996387
1.06683 1.08021 0.990906 0.996683
1.07284 1.08322 0.993966 0.996429
1.07722 1.08328 0.998308 0.996091
1.0373 1.04134 1 0.99612
1.07861 1.08419 0.998847 0.996005
1.04053 1.04461 1 0.9961
1.00253 1.00444 1 0.998094
1.04281 1.04689 1 0.996109
1.00368 1.00558 1 0.998111
1 1 1 1
1.00501 1.0069 1 0.99812
1 1 1 1
0.999419 1 1 0.999419
1.07484 1.08317 0.995915 0.996377
1.06381 1.07658 0.99146 0.996642
1.07789 1.08304 0.99923 0.996015
1.07497 1.08409 0.995205 0.996369
1.06726 1.08075 0.990807 0.996676
1.04094 1.04499 1 0.996122
1.07832 1.08356 0.999204 0.995952
1.07515 1.08605 0.993686 0.996258
1.00595 1.00781 1 0.998162
1.04324 1.0473 1 0.996127
1.07865 1.08368 0.99943 0.995923
1 1 1 1
1.00976 1.01156 1 0.998221
1.04529 1.0493 1 0.996172
1 1 1 1
1.01449 1.01627 1 0.998254
1 1 1 1
1.07778 1.08336 0.998751 0.996099
1.07484 1.08323 0.995844 0.996392
1.06571 1.07775 0.992162 0.996639
1.03523 1.03924 1 0.99614
1.07715 1.08302 0.998487 0.996084
1.07312 1.0828 0.994633 0.996405
1.07667 1.08277 0.99827 0.996092
1.03804 1.04209 1 0.996117
1.0012 1.00311 1 0.998096
1.04116 1.04525 1 0.99609
1.00212 1.00403 1 0.998093
1 1 1 1
1.00315 1.00505 1 0.998109
1 1 1 1
1 1 1 1
1.07844 1.08341 0.99936 0.996048
1.07442 1.08321 0.995442 0.996426
1.06296 1.07655 0.990689 0.996658
1.0386 1.04262 1 0.996145
1.07815 1.08323 0.999301 0.996012
1.07533 1.08448 0.995183 0.996368
1.00342 1.0053 1 0.998125
1.0403 1.04435 1 0.99612
1.07848 1.08361 0.999313 0.995949
1 1 1 1
1.00672 1.00857 1 0.998165
1.04296 1.04702 1 0.996124
1 1 1 1
1.01063 1.01243 1 0.998226
1 1 1 1
1.03492 1.03893 1 0.996146
1.07729 1.08294 0.998677 0.996099
1.07492 1.08316 0.995989 0.996382
1.00009 1.00196 1 0.998134
1.03586 1.03987 1 0.996136
1.07662 1.08252 0.998457 0.996085
1.03878 1.04285 0.999989 0.996113
1.00084 1.00275 1 0.998097
1 1 1 1
1.00173 1.00364 1 0.998091
1 1 1 1
1 1 1 1
1.03617 1.04016 1 0.996158
1.07789 1.08312 0.999094 0.99608
1.07396 1.0832 0.994974 0.996476
1.00152 1.00306 1 0.998464
1.03789 1.0419 1 0.996144
1.07832 1.08332 0.999373 0.996009
1 1 1 1
1.00412 1.006 1 0.998127
1.0397 1.04376 1 0.996117
1 1 1 1
1.00749 1.00934 1 0.998168
1 1 1 1
0.999481 1.00137 1 0.998114
1.03498 1.03898 1 0.99615
1.07682 1.08255 0.998607 0.9961
1 1 1 1
0.999867 1.00174 1 0.998133
1.0365 1.04052 1 0.996133
1.00048 1.00239 1 0.998096
1 1 1 1
1 1 1 1
1.00014 1.0017 1 0.998445
1.03604 1.04003 1 0.996159
1.07744 1.08292 0.998826 0.996112
1 1 1 1
1.00186 1.00374 1 0.998128
1.03737 1.04139 1 0.996144
1 1 1 1
1.00479 1.00668 1 0.998128
1 1 1 1
0.999422 1 1 0.999422
0.999698 1.0014 1 0.998301
1.035 1.039 1 0.996154
1 1 1 1
0.999632 1.0015 1 0.998134
1 1 1 1
0.999428 1 1 0.999428
1.00035 1.00205 1 0.998298
1.03578 1.03977 1 0.99616
0.999706 1 1 0.999706
1.00246 1.00433 1 0.998131
1 1 1 1
1 1 1 1
0.999601 1.00145 1 0.998156
1 1 1 1
0.999715 1 1 0.999715
1.00061 1.00246 1 0.998154
1 1 1 1
1 1 1 1
1 1 1 1

VECTORS lamdaE float
1.00266 0.999884 0.992394
1.00217 1.00073 0.996162
1.00209 1.00007 0.992815
1.00238 1.00014 0.992463
1.0026 0.999905 0.992455
1.0027 1.00002 0.992252
1.00347 1.00076 0.989536
1.00223 1.00081 0.996093
1.00178 1.00005 0.996861
1.00145 1.00078 0.996858
1.00183 1.00129 0.991869
1.00347 1.00154 0.987456
1.00175 0.999956 0.993335
1.00143 1.00008 0.993563
1.00157 1.00028 0.993209
1.00195 1.00014 0.992907
1.00203 1.00038 0.992646
1.00211 0.99996 0.992884
1.00373 1.00067 0.989303
1.00182 1.00002 0.996467
1.0022 1.00016 0.99263
1.00249 1.00003 0.992461
1.00342 1.0003 0.990147
1.00348 1.00049 0.989826
1.0026 1.0003 0.992072
1.00343 1.00126 0.989079
1.00534 1.00144 0.985185
1.00229 1.00085 0.996015
1.00207 0.999947 0.994796
1.00184 1.00047 0.994735
1.00219 1.00126 0.995944
1.00344 1.00163 0.987416
1.00226 0.999837 0.992729
1.00227 0.999922 0.992687
1.00381 1.00042 0.989962
1.0006 1.00267 0.996715
1.00372 1.00106 0.989592
1.0035 1.00221 0.986693
1.00528 1.00288 0.983274
1.00077 1.00104 0.996979
1.00179 0.999981 0.996485
1.00172 1.00004 0.99497
1.0017 0.999959 0.996549
1.00126 1.00007 0.993771
1.00341 0.999855 0.989477
1.00166 0.999998 0.996855
1.00376 1.00018 0.990331
1.00155 1.00011 0.993349
1.00165 1 0.993301
1.00143 1.00073 0.993023
1.00398 1.00056 0.989086
1.00159 1.00004 0.995074
1.00178 1.0002 0.993072
1.00201 1.00076 0.992407
1.00205 1.00002 0.992898
1.00363 1.00025 0.989908
1.00373 1.00109 0.988854
1.00371 1.00042 0.989589
1.00535 1.00139 0.985301
1.00171 0.999992 0.996522
1.00204 1.0001 0.992891
1.00316 0.999932 0.991269
1.00331 1.0002 0.990374
1.00344 1.00036 0.990031
1.00528 0.99981 0.986998
1.00534 1.0002 0.986372
1.00268 1.00075 0.99156
1.00334 1.00222 0.988236
1.00534 1.00229 0.984223
1.00533 0.999052 0.986866
1.00246 0.999919 0.996235
1.00209 1.0013 0.995999
1.00227 1.00042 0.996196
1.0034 1.00167 0.987375
1.00233 0.999905 0.996229
1.00241 1.00003 0.996245
1.00365 1.00041 0.988372
1.00094 1.00196 0.994468
1.00351 1.00099 0.987976
1.0035 1.00249 0.987699
1.00531 1.00281 0.983239
1.00116 1.00139 0.99653
1.00141 1.00304 0.989498
1.00376 1.0003 0.988398
1.00379 1.00046 0.98816
1.00533 1.00022 0.985958
1.00284 1.0034 0.98903
1.00536 1.00168 0.984348
1.00464 1.00395 0.982931
1.00543 1.00134 0.984315
1.00046 1.00031 0.997438
1.00057 1.00086 0.997151
1.00211 0.999995 0.996285
1.00185 0.999979 0.996451
1.00174 0.999964 0.996542
1.00159 0.999995 0.995115
1.00344 0.999854 0.990208
1.00191 0.999994 0.994844
1.00363 1.0002 0.9896
1.00172 0.999968 0.996558
1.00325 0.999714 0.989785
1.00366 1.00005 0.990617
1.00539 0.998254 0.988041
1.00376 1.00024 0.990208
1.00538 0.99877 0.987524
1.00177 0.999953 0.993319
1.00135 1.00023 0.993518
1.00136 1.00118 0.992731
1.00162 0.999992 0.993332
1.00383 1.00023 0.98967
1.00393 1.00037 0.989359
1.004 1.00099 0.988637
1.00536 1.00135 0.985413
1.00176 0.999971 0.996539
1.00164 1.00009 0.993331
1.00339 0.999814 0.990108
1.00352 1.00016 0.990132
1.00225 1.00139 0.993712
1.00365 1.00199 0.988466
1.00366 1.00031 0.989792
1.0053 0.99952 0.987356
1.00535 1.00229 0.984364
1.00535 1.00048 0.986174
1.00532 0.999081 0.986881
1.00327 0.99975 0.989731
1.00323 0.999962 0.990696
1.00539 0.998033 0.988774
1.00532 0.998812 0.988023
1.00529 0.999641 0.987197
1.00533 0.996395 0.98984
1.00146 1.0017 0.996277
1.00536 0.997906 0.987945
1.00332 1.00316 0.986162
1.00538 1.00339 0.982365
1.00532 1.00027 0.985724
1.0053 0.99618 0.989563
1.0019 1.00365 0.987913
1.00349 1.0044 0.985302
1.00239 0.999902 0.99623
1.00245 1.00008 0.996231
1.00364 1.00043 0.988346
1.00133 1.00157 0.99645
1.00305 1.00274 0.98687
1.00356 1.00091 0.987953
1.00537 1.00276 0.983197
1.00099 1.00141 0.996723
1.00146 1.00318 0.989483
1.00377 1.00035 0.989222
1.00382 1.00054 0.988952
1.00533 1.00024 0.985921
1.00226 1.00348 0.987349
1.00535 1.00171 0.984309
1.00496 1.00359 0.982907
1.00541 1.00109 0.984606
1.00184 1.0033 0.988484
1.00112 1.00264 0.990652
1.00247 1.00361 0.98684
1.00528 0.999651 0.986647
1.00537 1.00089 0.985184
1.00537 0.997378 0.988613
1.00366 1.00405 0.984352
1.00531 0.999388 0.986627
1.00545 1.00316 0.982876
1.00548 0.99878 0.986486
1.00027 0.999572 0.997921
1.00028 1.00019 0.99765
1.00034 1.00078 0.997353
1.0016 1.00332 0.988962
1.0009 1.00144 0.996741
1.00229 0.999942 0.996232
1.00195 0.999991 0.996364
1.00343 1.00024 0.988931
1.00328 0.999861 0.989569
1.00173 0.999961 0.996529
1.00169 0.999959 0.996559
1.00323 0.999725 0.989783
1.00353 1.00003 0.989904
1.00538 0.998263 0.988053
1.00358 1.00031 0.988649
1.00536 0.998785 0.987517
1.00323 0.999684 0.989832
1.00538 0.998191 0.988122
1.0054 0.998432 0.987836
1.00528 0.994953 0.991719
1.00532 0.999187 0.987149
1.00521 0.995317 0.991283
1.00171 0.999969 0.996546
1.00118 1.00018 0.99377
1.00342 0.999761 0.98912
1.00374 1.00014 0.989889
1.0013 1.00223 0.996412
1.00399 1.00143 0.988703
1.00387 1.00028 0.989556
1.00531 0.999221 0.987714
1.00535 1.00074 0.985974
1.00536 1.00222 0.984512
1.0053 0.999108 0.986896
1.00325 0.999744 0.989735
1.00342 0.999988 0.990457
1.0054 0.99795 0.988613
1.00534 0.999124 0.987658
1.00174 1.00168 0.9961
1.00332 1.0029 0.987276
1.00524 1.00365 0.982817
1.00529 0.999671 0.987151
1.0053 0.996143 0.990222
1.00531 1.00015 0.985819
1.00536 0.998185 0.987795
1.0053 0.996226 0.989542
1.00203 1.00349 0.987902
1.00319 1.00429 0.985234
1.00539 0.998334 0.987969
1.00539 0.998385 0.98842
1.00528 0.995763 0.990809
1.00533 0.995502 0.990926
1.00535 0.997266 0.988808
1.00528 0.994927 0.991156
1.0027 1.00354 0.986761
1.00531 0.99528 0.99055
1.00534 1.00419 0.982185
1.00539 1.00137 0.984194
1.00533 0.997918 0.987907
1.00531 0.995284 0.990514
1.00389 1.00442 0.983972
1.00265 1.00403 0.987023
1.0047 1.00391 0.983633
1.0036 1.00039 0.988482
1.00075 1.00131 0.996874
1.00133 1.00329 0.989475
1.00364 1.00054 0.988189
1.00533 1.00025 0.985886
1.0024 1.00346 0.98741
1.00529 1.00326 0.982879
1.00534 1.00174 0.984268
1.00539 1.00081 0.984903
1.00172 1.00343 0.988511
1.00087 1.00278 0.990652
1.00255 1.0041 0.986851
1.00529 0.999669 0.986611
1.00535 1.00092 0.985148
1.00536 0.99734 0.988622
1.00409 1.00367 0.984307
1.00533 0.999498 0.986514
1.00545 1.0031 0.982789
1.00546 0.998399 0.98681
1.00066 1.00224 0.991672
1.0031 1.00374 0.985916
1.00194 1.00472 0.987162
1.00278 1.00134 0.987668
1.00535 0.996408 0.989706
1.00533 0.998482 0.987469
1.00532 0.99518 0.990532
1.005 1.00443 0.982138
1.00536 0.996569 0.98921
1.00532 1.00111 0.985003
1.00551 0.997011 0.988183
1.00042 1.00387 0.990576
1.00027 1.00131 0.993245
1.00023 0.999062 0.998152
1.00022 0.999463 0.998012
1.0002 0.99996 0.997829
1.00121 1.00308 0.989908
1.00065 1.00111 0.997021
1.00164 1.00328 0.988893
1.00112 1.00155 0.996571
1.00353 1.00034 0.98866
1.00337 1.00002 0.989258
1.00533 0.998801 0.987516
1.00537 0.998276 0.988065
1.00324 0.999741 0.989788
1.00175 0.999945 0.996557
1.00324 0.999681 0.989838
1.00538 0.998201 0.988128
1.00538 0.998451 0.987843
1.00528 0.994953 0.991721
1.00531 0.9992 0.987131
1.00526 0.995249 0.991283
1.00538 0.998228 0.988083
1.00529 0.994955 0.99172
1.00525 0.995041 0.991616
1.00508 0.994971 0.991828
1.00525 0.995741 0.990643
1.00517 0.994943 0.991557
1.00326 0.999744 0.989745
1.00363 0.999951 0.990218
1.0054 0.997837 0.988461
1.00536 0.999426 0.987293
1.00191 1.00178 0.995935
1.00359 1.00285 0.98813
1.00504 1.00367 0.983257
1.00529 0.999686 0.987104
1.00527 0.99589 0.990602
1.00536 0.998465 0.987646
1.00532 1.00006 0.985912
1.00531 0.996283 0.98952
1.00215 1.00338 0.987894
1.00303 1.00417 0.985171
1.00539 0.997998 0.988317
1.00539 0.998359 0.988419
1.00529 0.995751 0.990804
1.00529 0.995873 0.990549
1.00266 1.00356 0.986715
1.00491 1.00417 0.982207
1.00544 1.00163 0.983945
1.00536 0.997316 0.988763
1.0053 0.994927 0.991163
1.00533 0.997677 0.988185
1.0053 0.99531 0.990513
1.00531 0.995268 0.990405
1.00385 1.00457 0.983955
1.00431 1.00405 0.983496
1.00228 1.00407 0.98701
1.00529 0.995672 0.990935
1.0053 0.995915 0.990525
1.00506 0.994981 0.991908
1.00519 0.994943 0.991435
1.00534 0.994946 0.990905
1.00528 0.994921 0.99101
1.00467 1.00406 0.982996
1.00531 0.994883 0.990782
1.00552 1.00331 0.982298
1.00541 0.999281 0.98614
1.00529 0.996497 0.989342
1.00537 0.995084 0.990503
1.00201 1.00444 0.987266
1.00522 1.00471 0.981774
1.00295 1.00351 0.985753
1.00517 1.00413 0.982152
1.0053 0.999685 0.986578
1.00069 1.00296 0.990651
1.00161 1.00364 0.988539
1.0025 1.00418 0.986851
1.00534 1.00094 0.985112
1.00535 0.997304 0.988632
1.00443 1.00321 0.984268
1.00544 1.0031 0.982693
1.00534 0.999616 0.986401
1.00543 0.998032 0.987136
1.00051 1.00236 0.99168
1.00329 1.00342 0.986066
1.00176 1.00482 0.987015
1.00337 1.00154 0.987752
1.00534 0.996359 0.98972
1.00534 0.998442 0.987466
1.00533 0.99516 0.990565
1.0052 1.00456 0.981985
1.00535 0.996845 0.988925
1.00531 1.00092 0.984998
1.00552 0.996841 0.988509
1.00042 1.00197 0.992376
1.00182 1.00511 0.987339
1.00366 1.00381 0.984401
1.00336 1.00255 0.987132
1.00301 1.00175 0.988423
1.00533 0.994885 0.990922
1.00533 0.99578 0.989852
1.00534 0.994857 0.990632
1.00517 1.00348 0.982939
1.00543 0.995473 0.989943
1.00521 0.999216 0.986666
1.0008 1.00444 0.989305
1.00028 1.0051 0.989614
1.00016 1.00315 0.991583
1.00021 1.00395 0.990582
1.00021 1.00036 0.995019
1.00023 1.00113 0.993796
1.00039 0.998227 0.996518
1.0002 0.998992 0.998231
1.00019 0.999432 0.998076
1.00048 1.00278 0.991185
1.00029 1.00069 0.997463
1.00127 1.003 0.989855
1.00074 1.00118 0.996934
1.00169 1.00322 0.988829
1.00134 1.00157 0.996389
1.00529 0.999215 0.98711
1.00537 0.998466 0.987848
1.0053 0.995202 0.991285
1.00528 0.994952 0.991724
1.00537 0.998211 0.988134
1.00323 0.999669 0.989841
1.00538 0.998234 0.988082
1.0053 0.994953 0.991718
1.00526 0.995022 0.991623
1.00508 0.994971 0.991804
1.00529 0.995677 0.990646
1.00515 0.994942 0.991568
1.0053 0.99497 0.991708
1.0051 0.994956 0.991813
1.00509 0.994977 0.991769
1.00525 0.994949 0.991528
1.00529 0.994879 0.991223
1.00526 0.994941 0.99116
1.0054 0.997661 0.988663
1.0054 0.998352 0.988419
1.00529 0.99575 0.990799
1.00525 0.996249 0.990172
1.00266 1.00348 0.986664
1.00464 1.00453 0.982232
1.00547 1.00185 0.983702
1.00537 0.99736 0.988718
1.00531 0.994922 0.99117
1.00529 0.995333 0.990476
1.00533 0.997412 0.988461
1.00532 0.995241 0.990296
1.00371 1.00468 0.98394
1.00396 1.00456 0.98336
1.00206 1.00439 0.986994
1.00529 0.995338 0.991305
1.0053 0.995927 0.990531
1.00507 0.994978 0.991858
1.00521 0.994943 0.991449
1.00446 1.00429 0.983062
1.00551 1.00332 0.982388
1.00544 0.999459 0.985819
1.00533 0.995005 0.99081
1.00529 0.994927 0.990975
1.00529 0.996345 0.989352
1.00532 0.994882 0.990765
1.00535 0.995049 0.990533
1.00495 1.00482 0.981807
1.00512 1.00453 0.982007
1.00218 1.00431 0.987336
1.00306 1.00391 0.98606
1.00506 0.994981 0.991916
1.00511 0.994959 0.991623
1.00522 0.994968 0.991563
1.00527 0.994927 0.991082
1.0053 0.994894 0.990846
1.00532 0.994935 0.990807
1.00544 1.00463 0.981319
1.00537 0.994832 0.990604
1.0054 1.00152 0.983978
1.00536 0.998334 0.986981
1.00528 0.995844 0.989791
1.00536 0.994895 0.990587
1.00233 1.00471 0.986757
1.00277 1.00284 0.987428
1.00523 1.00485 0.981383
1.00376 1.00374 0.985341
1.00499 1.00477 0.981857
1.00035 1.0024 0.991692
1.00534 0.996311 0.989735
1.00196 1.00512 0.986868
1.00323 1.00337 0.986228
1.0037 1.00159 0.987838
1.00535 0.998401 0.987463
1.00534 0.99514 0.990599
1.00531 1.00439 0.981836
1.00532 1.00077 0.984989
1.00534 0.997115 0.988641
1.00552 0.996679 0.988831
1.00035 1.00193 0.992407
1.00155 1.00511 0.98735
1.00409 1.00357 0.984504
1.00311 1.00279 0.987011
1.00346 1.00134 0.987424
1.00533 0.994883 0.990954
1.00533 0.995744 0.989885
1.00534 0.994856 0.990641
1.00517 1.00353 0.982898
1.00545 0.995609 0.989766
1.00521 0.999273 0.986973
1.00128 1.00496 0.98814
1.00316 1.00507 0.986076
1.00367 1.00403 0.984347
1.00393 1.0023 0.986533
1.00457 1.00251 0.985917
1.00533 0.994834 0.990834
1.00536 0.994953 0.990362
1.00531 0.994842 0.990498
1.00503 1.00129 0.984851
1.0052 0.997687 0.987999
1.00067 1.0046 0.989309
1.00058 1.00512 0.988825
0.999648 1.00509 0.989705
1.0004 1.00456 0.99058
1.00024 1.00465 0.990543
1.00003 1.00273 0.992175
0.999993 1.00336 0.991601
1.00008 0.999961 0.995566
1.00006 1.00418 0.990587
1.00018 1.00032 0.995109
1.00029 0.997709 0.997028
1.00021 1.00105 0.994333
1.00022 0.99839 0.997528
1.00015 0.998801 0.998316
0.999861 1.0021 0.992784
1.00069 1.00248 0.991254
1.00004 0.999784 0.998073
1.00052 1.00067 0.997265
1.00136 1.00281 0.989808
1.00087 1.00126 0.996831
1.00533 0.995608 0.990649
1.00527 0.994985 0.991629
1.00514 0.994941 0.991579
1.00509 0.994971 0.991781
1.0053 0.994951 0.991716
1.00539 0.998238 0.988082
1.0053 0.99497 0.991703
1.0051 0.994959 0.991819
1.00509 0.994978 0.99177
1.00525 0.994947 0.991497
1.00527 0.994874 0.991246
1.00526 0.994938 0.991168
1.00508 0.994962 0.991855
1.00527 0.994951 0.991577
1.00523 0.994955 0.991383
1.00529 0.994931 0.991435
1.0053 0.994904 0.991009
1.00531 0.994933 0.991073
1.00529 0.995006 0.991676
1.00529 0.995939 0.990536
1.00507 0.994977 0.991807
1.00522 0.994944 0.991463
1.00414 1.00451 0.98313
1.00549 1.00337 0.982471
1.00546 0.999598 0.985504
1.00531 0.995073 0.990714
1.0053 0.994932 0.99094
1.00533 0.99488 0.990748
1.00529 0.996195 0.989361
1.00534 0.995014 0.990564
1.00459 1.00497 0.981837
1.00493 1.00498 0.981862
1.00213 1.00396 0.987397
1.00253 1.00341 0.986372
1.00506 0.994982 0.991915
1.00512 0.994959 0.991665
1.00521 0.994967 0.991526
1.00527 0.994928 0.991082
1.00538 1.00457 0.981404
1.00541 1.00168 0.983792
1.00536 0.998331 0.986957
1.0053 0.994891 0.99088
1.00531 0.994931 0.990811
1.00528 0.995806 0.989802
1.00536 0.994832 0.990592
1.00535 0.99484 0.990714
1.00516 1.00481 0.981462
1.00488 1.00502 0.981855
1.00324 1.00422 0.985355
1.00184 1.00459 0.98708
1.00233 1.00295 0.987358
1.00525 0.994961 0.991516
1.00527 0.994944 0.991328
1.00533 0.994904 0.990813
1.00534 0.994913 0.990661
1.00531 1.00377 0.98227
1.00533 0.994786 0.99056
1.00531 1.00064 0.984349
1.00532 0.99775 0.987552
1.00533 0.995224 0.989987
1.00072 1.00483 0.988808
1.00267 1.00444 0.98631
1.00371 1.00214 0.986993
1.005 1.00466 0.982174
1.00372 1.00532 0.983909
1.00488 1.00479 0.98252
1.00029 1.00195 0.992435
1.00132 1.00514 0.987361
1.00533 0.994881 0.990985
1.00261 1.00316 0.986888
1.00492 1.00361 0.98461
1.004 1.0008 0.986437
1.00533 0.995711 0.989918
1.00533 0.994855 0.99065
1.00516 1.00354 0.982874
1.00521 0.999359 0.987283
1.00547 0.995722 0.989587
1.0012 1.00502 0.988144
1.00244 1.00509 0.986091
1.00421 1.00436 0.983378
1.00394 1.00173 0.986685
1.00433 1.0019 0.985779
1.00533 0.994837 0.990836
1.00537 0.994972 0.990354
1.00534 0.994831 0.990461
1.00502 1.00127 0.985119
1.0052 0.9978 0.987878
1.00216 1.0051 0.987182
1.00172 1.00515 0.986281
1.00453 1.00273 0.984818
1.00237 1.00179 0.986134
1.0052 1.00122 0.986379
1.00534 0.994814 0.990655
1.00541 0.995543 0.989448
1.00538 0.994882 0.989896
1.00504 0.999796 0.986602
1.00511 0.998612 0.987435
1.00056 1.00465 0.989315
1.00088 1.00511 0.988676
0.999367 1.00389 0.991478
0.999451 1.00509 0.989779
0.999781 1.00474 0.99052
0.999471 1.00471 0.990823
0.999759 1.00329 0.992061
0.999336 1.00507 0.99076
0.999736 1.00443 0.991054
1.00006 1.00253 0.992327
1.00004 1.00266 0.992166
1.00003 0.999638 0.995905
0.99989 1.00333 0.991612
1.00011 0.999823 0.995626
1.00021 0.997476 0.997371
1.00019 1.00017 0.995202
1.00025 0.997781 0.996999
0.999998 0.998521 0.998561
0.999823 1.00102 0.994004
1.00006 1.00198 0.992761
0.99985 0.999032 0.998529
1.00098 1.00224 0.991315
1.00023 0.999944 0.997841
1.00066 1.00089 0.997113
1.00524 0.994869 0.991269
1.00509 0.994979 0.991772
1.00526 0.994935 0.991177
1.00524 0.994944 0.991466
1.0051 0.994961 0.991825
1.0053 0.994967 0.991699
1.00508 0.994962 0.991889
1.00527 0.994953 0.991572
1.00523 0.994957 0.991399
1.00529 0.994927 0.991417
1.0053 0.994907 0.991012
1.00531 0.994927 0.991038
1.00526 0.994957 0.991546
1.00532 0.994934 0.991453
1.00529 0.994918 0.991338
1.00535 0.99487 0.990778
1.00506 0.994983 0.991915
1.00512 0.994959 0.991707
1.00521 0.994965 0.991489
1.00528 0.994929 0.991081
1.00535 1.00449 0.981492
1.00542 1.00185 0.983604
1.00536 0.998355 0.986933
1.00531 0.994888 0.990915
1.0053 0.994929 0.990816
1.00536 0.994832 0.99058
1.00528 0.995779 0.989812
1.00533 0.994792 0.990841
1.00527 1.00486 0.981538
1.00468 1.00493 0.981853
1.00384 1.00407 0.985365
1.00166 1.00436 0.987425
1.00239 1.00346 0.987285
1.00524 0.994961 0.99151
1.00527 0.994945 0.991342
1.00533 0.994913 0.990833
1.00533 1.00389 0.98228
1.00531 1.00086 0.98427
1.00531 0.997646 0.987562
1.00533 0.994915 0.990678
1.00532 0.995195 0.990149
1.00535 0.994785 0.990585
1.00042 1.00449 0.989115
1.00492 1.00451 0.982216
1.00477 1.00471 0.98218
1.00411 1.00452 0.98383
1.00366 1.00209 0.987361
1.00298 1.00415 0.986049
1.00531 0.994939 0.991406
1.00533 0.994914 0.991102
1.00534 0.994898 0.990647
1.00531 0.994879 0.99052
1.00514 1.0033 0.983187
1.00531 0.994744 0.990515
1.00517 1.00063 0.985011
1.00533 0.996783 0.987976
1.00009 1.00319 0.990838
1.00161 1.00526 0.98754
1.00412 1.0034 0.985997
1.00317 1.0042 0.985357
1.00453 1.00338 0.984282
1.00497 1.0049 0.981977
1.00105 1.00509 0.988148
1.00181 1.0051 0.986106
1.00533 0.99484 0.990838
1.00395 1.00125 0.986827
1.00492 1.00473 0.982394
1.0037 1.00229 0.985635
1.00539 0.995 0.990346
1.00537 0.99482 0.990424
1.00501 1.00131 0.985388
1.00519 0.997922 0.987759
1.00167 1.0051 0.987253
1.00249 1.00512 0.985865
1.00446 1.00295 0.984573
1.00349 1.00278 0.985803
1.00511 1.00147 0.985901
1.00534 0.994817 0.990652
1.00541 0.995416 0.989692
1.00536 0.995023 0.990073
1.00506 0.999696 0.986607
1.00503 0.998944 0.987167
0.999838 1.00492 0.988581
0.999592 1.00512 0.987994
1.00488 1.00034 0.98661
1.00406 1.0005 0.987335
1.00543 0.994751 0.990469
1.00534 0.99477 0.990411
1.00526 0.997384 0.987876
1.00519 0.99918 0.986643
1.00125 1.00509 0.98853
0.999552 1.00444 0.991096
0.997807 1.00428 0.994229
0.999437 1.00496 0.990505
0.998369 1.00507 0.991061
0.999807 1.00439 0.991001
0.999249 1.00384 0.992447
0.999443 1.00509 0.990847
0.998977 1.00085 0.995622
0.999329 1.00509 0.991074
0.999232 1.00503 0.990646
0.999969 1.00431 0.990818
0.999973 1.00263 0.992309
1.00001 1.00256 0.992307
0.999957 0.999486 0.996092
0.99998 1.00275 0.99216
1.00004 0.999571 0.995932
1.00011 0.997399 0.997546
1.00011 0.999729 0.995685
1.00017 0.997534 0.997345
1.00015 0.997895 0.996958
1.00009 1.00011 0.994621
0.99985 1.00121 0.993917
0.999814 0.998388 0.998738
1.00013 1.00201 0.992742
0.999952 0.999148 0.998389
1.00045 0.999953 0.99758
1.00531 0.99491 0.991015
1.00524 0.994958 0.991416
1.00532 0.994921 0.991004
1.00528 0.994924 0.991398
1.00527 0.994955 0.991566
1.00508 0.994962 0.991923
1.00526 0.994955 0.991564
1.00532 0.994933 0.991447
1.0053 0.994923 0.991291
1.00533 0.994869 0.99081
1.00533 0.994936 0.991454
1.0053 0.994907 0.99142
1.00535 0.994875 0.991037
1.00524 0.994962 0.991504
1.00527 0.994945 0.991357
1.00533 0.994917 0.990853
1.00529 1.00394 0.982297
1.0053 1.00111 0.984193
1.0053 0.997526 0.98757
1.00533 0.994917 0.990695
1.00536 0.994797 0.990609
1.00532 0.995115 0.990312
1.00483 1.00439 0.982257
1.00501 1.0049 0.981858
1.00406 1.00482 0.983754
1.00047 1.0044 0.98942
1.00318 1.00223 0.987711
1.00279 1.00378 0.985779
1.00532 0.994943 0.991416
1.00533 0.994905 0.991067
1.00534 0.994898 0.990655
1.00514 1.00317 0.983141
1.00514 1.00052 0.985098
1.00534 0.996675 0.988281
1.00532 0.994878 0.990496
1.00533 0.994764 0.990477
1.00002 1.00353 0.991074
1.00143 1.00526 0.987498
1.00457 1.00285 0.984024
1.00467 1.00482 0.982366
1.0035 1.00427 0.985176
1.00367 1.00282 0.986287
1.00533 0.994909 0.991339
1.00538 0.994883 0.990726
1.00534 0.994861 0.990509
1.00528 0.994775 0.990363
1.00444 1.00186 0.985099
1.00534 0.994948 0.990005
1.00485 0.999812 0.986352
1.0001 1.00242 0.992341
1.00007 1.00308 0.991899
0.999853 1.00515 0.989362
1.00168 1.00516 0.986796
1.00285 1.00487 0.986533
1.00456 1.00379 0.983787
1.00367 1.00255 0.986141
1.00448 1.00215 0.986978
1.00132 1.00511 0.987329
1.00329 1.00516 0.985449
1.00535 0.994819 0.990648
1.00455 1.00288 0.985482
1.00441 1.00308 0.984331
1.00525 1.00164 0.985435
1.00542 0.995269 0.989937
1.00535 0.995162 0.99025
1.00507 0.999571 0.98661
1.00495 0.99923 0.986898
1.00079 1.00464 0.988148
1.00102 1.0052 0.987372
1.0049 1.00042 0.986322
1.00447 1.00112 0.986965
1.00542 0.994764 0.990474
1.00538 0.99479 0.990405
1.0052 0.99732 0.987964
1.00519 0.999318 0.986648
0.998388 1.00473 0.99163
1.00547 0.994746 0.990752
1.0023 1.00495 0.988236
1.00475 0.99942 0.987246
1.00536 0.994758 0.990704
1.00507 0.99694 0.987593
1.00508 1.00045 0.986045
0.99959 1.00451 0.990717
0.998108 1.00365 0.994341
0.996306 1.00381 0.996738
0.999661 1.00425 0.990947
0.999303 1.00511 0.990931
0.99785 1.00503 0.992862
0.999988 1.00412 0.990806
0.999378 1.00501 0.990722
0.99743 1.00246 0.99619
0.999431 1.00497 0.990947
0.997345 1.00144 0.998277
0.997414 1.0042 0.994309
0.999239 1.00506 0.991118
1.00025 1.00483 0.989711
1.0003 1.00394 0.990493
1.00002 1.00253 0.992324
0.999976 1.00263 0.99229
0.999835 0.999559 0.996255
0.999945 1.00267 0.992289
0.999965 0.999527 0.996106
0.999987 0.997558 0.99767
1.00005 0.999499 0.995964
1.00011 0.997467 0.997534
1.0002 0.997593 0.997314
1.00013 1.00172 0.993018
1.00003 0.99959 0.995122
1.00003 1.00019 0.994583
0.999921 0.998067 0.99883
0.99987 1.00117 0.993831
0.999853 0.998627 0.998693
1.00011 0.999176 0.99823
1.00532 0.994867 0.990843
1.00531 0.994929 0.991244
1.00531 0.99493 0.991441
1.00526 0.994952 0.991582
1.00533 0.994935 0.991448
1.0053 0.994901 0.991416
1.00533 0.994878 0.990978
1.00533 0.994909 0.991388
1.00532 0.994867 0.99141
1.0056 0.99472 0.99124
1.00532 0.994947 0.991426
1.00533 0.994903 0.991031
1.00534 0.994902 0.990663
1.00523 1.00298 0.983098
1.0051 1.00048 0.985197
1.00533 0.996592 0.988578
1.00533 0.994871 0.99047
1.00534 0.994785 0.990438
1.00453 1.00319 0.983759
1.00429 1.00445 0.98273
1.00366 1.00487 0.985001
1.00016 1.00336 0.991315
1.00096 1.00525 0.987457
1.00358 1.00267 0.986577
1.00532 0.994912 0.991323
1.00018 1.0023 0.992299
0.999882 1.00332 0.99177
1.00538 0.994879 0.990732
1.00535 0.994866 0.990527
1.00466 1.00197 0.985069
1.005 0.999346 0.986758
1.00528 0.995003 0.989961
1.00528 0.994798 0.99031
1.00033 1.00482 0.989567
1.00193 1.00515 0.986734
1.00336 1.0034 0.985797
1.00446 1.00225 0.985355
1.00422 1.00457 0.983419
1.00248 1.00385 0.98692
1.00539 0.994844 0.991196
1.00539 0.995053 0.990405
1.00533 0.99486 0.990486
1.00524 0.994888 0.990006
1.00345 1.00126 0.987716
1.00501 0.997162 0.989093
1.00025 1.00272 0.991732
0.999628 1.00389 0.991266
1.00104 1.00292 0.990979
1.00104 1.00516 0.988074
1.00184 1.00514 0.987099
1.00135 1.00249 0.988473
1.00261 1.00258 0.987385
1.00173 0.999675 0.992703
1.00102 1.005 0.987727
1.00304 1.00515 0.986736
1.00539 0.994781 0.990481
1.00541 0.994812 0.990398
1.00487 1.00161 0.986582
1.00488 1.00054 0.986024
1.00514 0.99727 0.988052
1.00519 0.999457 0.986657
0.99915 1.00451 0.991586
1.00546 0.994724 0.990944
1.00137 1.00452 0.989082
1.0047 0.999748 0.986996
1.00538 0.994742 0.990793
1.00512 0.99713 0.987797
1.0051 1.00011 0.986009
0.998221 1.00472 0.993969
1.00506 0.994659 0.990397
1.00173 1.00357 0.989155
1.00434 1.00168 0.985124
1.00506 0.995389 0.990699
1.00351 1.00085 0.986927
0.999012 0.994755 0.98243
0.998319 1.00327 0.994421
0.997102 1.00281 0.996687
0.996007 1.00302 0.99795
1.00003 1.00399 0.990789
0.99907 1.00505 0.990805
0.999966 1.00506 0.990822
0.996469 1.00277 0.996764
1.00028 1.00394 0.990494
1 1.0048 0.989979
0.996266 1.00115 0.999515
0.99908 1.00507 0.991043
0.998039 1.00429 0.993738
0.995422 1.0044 0.997679
0.998729 1.00512 0.9919
0.999499 1.00497 0.991078
1.00058 1.00409 0.989932
1.00033 1.00406 0.990085
1.00017 1.00504 0.990107
1.00006 1.00445 0.990104
0.999932 1.00265 0.992292
0.999971 1.0026 0.992307
0.999716 0.999518 0.995755
0.99999 1.00254 0.992274
0.999822 0.999547 0.995933
0.99998 0.997537 0.999052
0.999965 0.999531 0.996124
1.00002 0.997508 0.99766
1.00012 0.997523 0.997516
0.999973 1.00126 0.993632
1.00017 1.00164 0.993048
1.0001 0.998982 0.995722
1.00005 0.999654 0.995466
0.99993 0.997689 0.998959
0.999956 1.00042 0.994544
0.999896 0.998103 0.998812
0.999919 0.998712 0.998627
1.00533 0.99488 0.990918
1.00531 0.994894 0.991412
1.00533 0.994935 0.991443
1.00533 0.994907 0.991391
1.00534 0.994855 0.99135
1.00563 0.994738 0.991173
1.00541 0.994847 0.991427
1.00081 0.994658 0.979998
1.00548 0.994751 0.990082
1.0001 1.00259 0.992149
1.00532 0.994911 0.991306
1.00538 0.994876 0.990738
1.00535 0.994873 0.990545
1.00477 1.00162 0.985025
1.00508 0.998924 0.987148
1.00519 0.995122 0.989896
1.00528 0.994813 0.990256
1.00372 1.00322 0.985519
1.00471 1.00351 0.983786
1.00399 1.00467 0.983018
1.00015 1.00247 0.992259
1.00272 1.00328 0.987274
1.00063 1.00463 0.989763
1.00198 1.00515 0.986676
0.999698 1.00343 0.991639
1.0054 0.994867 0.99119
1.00024 1.00255 0.991915
0.999934 1.00382 0.991297
1.00024 1.00341 0.991309
1.00539 0.994907 0.990421
1.0053 0.994845 0.990454
1.00282 1.00202 0.987787
1.00496 0.996795 0.989264
1.00526 0.994861 0.990002
1.00094 1.00516 0.988058
1.00213 1.00508 0.987199
1.00268 0.999773 0.991429
1.00295 1.00381 0.986824
1.00319 1.00153 0.988434
1.00546 0.994827 0.990812
1.00536 0.994871 0.990504
1.00526 0.994847 0.990268
1.00464 0.997798 0.989937
1.00205 0.999727 0.99105
1.0003 1.00192 0.992279
1.00107 1.00386 0.988755
0.999688 1.00371 0.991513
1.00143 1.00507 0.988512
1.00137 1.00347 0.989682
1.00065 1.0008 0.991849
1.00155 0.998755 0.99412
1.00064 1.0038 0.991477
0.999741 1.00434 0.98995
1.00547 0.994685 0.991127
1.0054 0.994723 0.990869
1.00516 0.997332 0.988
1.00462 1.00006 0.98675
1.00513 0.999771 0.985983
0.997838 1.00482 0.995064
1.00464 0.994655 0.990567
1.00158 1.00349 0.989079
1.00462 1.00173 0.984973
1.00486 0.995317 0.990998
1.00393 1.00078 0.986989
0.998853 0.994746 0.980771
0.997427 1.00475 0.994555
1.00364 0.994724 0.99049
1.00243 1.00258 0.987077
1.00319 1.00035 0.988075
1.00338 0.997401 0.991611
0.999974 0.994858 0.936517
0.99489 0.99471 0.958973
0.996551 0.995762 0.986156
0.995905 0.994761 0.844513
0.994699 0.996098 0.80396
0.998079 1.00217 0.996663
0.996163 1.00319 0.998137
0.994954 1.00474 0.998394
1.00035 1.00388 0.990499
0.999858 1.00491 0.990246
0.999341 1.00504 0.990963
0.998481 1.00451 0.993126
0.995417 1.00139 1.00073
0.999245 1.00494 0.991354
1.00046 1.00394 0.99014
1.00044 1.00446 0.989905
0.995965 1.00392 0.997511
0.998407 1.00503 0.992369
0.998875 1.00493 0.992582
0.996595 1.00519 0.995042
0.999254 1.00463 0.991741
1.0004 1.00456 0.989428
1.00026 1.00439 0.989903
0.999806 1.00467 0.990329
0.99931 1.00406 0.992158
0.999255 1.00509 0.991287
0.999885 1.00501 0.99027
1.00007 1.00425 0.990482
1.00005 1.00445 0.990077
0.999876 1.00285 0.992211
0.999923 1.0027 0.9923
0.999674 0.999544 0.995811
0.999931 1.00271 0.992286
0.999703 0.999555 0.995758
0.999939 0.997521 0.999091
0.999799 0.999564 0.995617
0.999935 0.99754 0.99841
1.00005 0.99747 0.997646
0.999915 1.00098 0.99401
1.00005 1.00119 0.993647
1.0001 0.998603 0.996156
1.00017 1.00159 0.993078
1.00008 0.998995 0.996054
0.999965 0.997269 0.999094
1.00009 0.999769 0.994981
0.99993 0.997889 0.998894
0.999894 0.998309 0.998794
1.00536 0.994843 0.991291
1.00532 0.994905 0.991393
1.0057 0.994777 0.991126
0.99985 0.994703 0.979937
1.00545 0.994831 0.991368
1.00547 0.994856 0.99015
1.00551 0.99479 0.991172
0.995447 0.994823 0.961018
1.00395 0.994817 0.977559
1.0003 1.00206 0.992407
1.00031 1.00237 0.99213
0.999782 1.00322 0.991923
0.999984 1.00302 0.991879
1.00541 0.994875 0.991183
1.00541 0.99487 0.990438
1.00527 0.994833 0.990424
1.00373 1.00221 0.987851
1.0051 0.995792 0.989479
1.00529 0.994792 0.990019
1.00272 0.999116 0.990079
1.00322 1.00428 0.986294
1.00375 1.00025 0.988458
1.00007 1.0038 0.991327
1.0019 1.00422 0.987326
1.00111 1.00516 0.988037
1.00033 1.00234 0.992097
0.999587 1.00401 0.991718
1.00549 0.994819 0.990795
1.00009 1.00268 0.991963
1.00117 1.00404 0.989012
0.997335 1.00393 0.994592
1.00536 0.994924 0.990477
1.00525 0.994833 0.990249
1.00341 0.998173 0.991182
1.00448 0.997463 0.989812
1.00168 1.00513 0.988069
1.00106 1.00322 0.98884
1.00136 0.998408 0.99423
1.00189 1.00109 0.99138
1.00402 0.996631 0.990015
1.00522 0.994786 0.990746
1.00416 0.998093 0.989695
1.00367 0.997246 0.992042
0.997335 1.00472 0.994364
1.00198 1.00488 0.987037
0.999054 1.00216 0.994601
0.99798 1.00286 0.994913
0.99993 0.995892 0.920753
0.997569 1.00468 0.996214
1.00113 1.00356 0.98899
1.00411 0.994691 0.990778
1.0046 0.995236 0.991288
1.00422 1.00061 0.987019
1.00479 1.00189 0.984806
0.998662 0.994741 0.978843
0.997584 1.00449 0.994842
1.00323 0.994725 0.990392
1.00261 1.00305 0.987039
1.00368 1.00019 0.98825
1.00348 0.997843 0.991451
0.999296 0.994864 0.922008
0.995324 0.994757 0.955747
0.996513 0.996046 0.98664
0.996736 0.994785 0.850012
0.994762 0.995652 0.799587
0.997869 1.00375 0.994052
0.998137 0.994831 0.854581
0.994795 0.994967 0.796207
1.00111 0.995623 0.993712
1.0016 1.00116 0.990848
1.00118 1.00086 0.992863
0.995004 0.996079 0.990106
0.997427 0.994709 0.935526
0.994908 0.994782 0.951383
0.994721 0.995668 0.866866
0.994772 0.994961 0.780693
0.996138 1.00312 0.998315
0.995146 1.00478 0.99821
0.995238 1.00507 0.998467
1.00064 1.00377 0.990193
1.00028 1.00454 0.989876
0.998666 1.00494 0.991635
0.998287 1.00509 0.992837
0.99645 1.00318 0.997367
1.00039 1.00424 0.989898
0.998272 1.00508 0.992954
0.999121 1.00478 0.991416
1.00065 1.00451 0.989544
0.996628 1.00496 0.995398
0.997483 1.00488 0.994161
0.995597 1.00507 0.996531
0.999175 1.00505 0.990792
1.00059 1.00458 0.989496
1.00014 1.00454 0.990283
0.998852 1.00391 0.992714
0.998893 1.00418 0.992562
0.999749 1.00322 0.99214
0.997301 1.00372 0.995606
0.997459 1.00479 0.99336
0.998325 1.00514 0.991827
0.999234 1.00514 0.991257
0.999513 1.0049 0.990522
0.99965 1.00511 0.990436
1.00014 1.00441 0.990388
0.999991 1.00293 0.992061
1.00014 1.00446 0.990049
0.999935 1.00276 0.992235
0.999855 0.999584 0.996239
0.999913 1.00273 0.992309
0.999738 0.999528 0.996069
0.999902 0.997482 0.997895
0.999687 0.999552 0.995757
0.999929 0.997542 0.9991
0.999938 0.997583 0.997764
1.00034 1.0024 0.992068
0.999893 1.00089 0.994138
0.999959 1.00096 0.99401
1.00005 0.998473 0.996344
1.00008 1.00118 0.993666
1.00011 0.998577 0.996154
0.999995 0.99703 0.999167
1.00007 0.999145 0.996282
0.999954 0.997444 0.998393
0.999925 0.997896 0.99743
0.999253 0.994707 0.979848
1.00547 0.994829 0.991311
1.00544 0.994796 0.990213
0.996291 0.99478 0.961116
1.00403 0.994726 0.977854
1.00549 0.994842 0.991218
1.00378 0.994643 0.985197
0.998929 0.994764 0.960599
0.998941 0.99487 0.936053
0.996623 0.99476 0.872288
0.99481 0.995635 0.803732
0.999429 1.00319 0.992314
1.00025 1.00216 0.992399
1.00043 1.00225 0.992104
0.999812 1.00296 0.992276
0.998147 1.00504 0.993155
1.00004 1.00353 0.991448
1.00018 1.00415 0.990651
1.00004 1.003 0.99183
1.00549 0.994845 0.990771
1.00535 0.994868 0.99045
1.00526 0.99482 0.99023
1.00355 0.997779 0.991325
1.0043 0.997755 0.989669
1.00125 0.99796 0.994343
1.00378 1.00066 0.990898
1.0025 1.00345 0.987985
1.00106 1.00395 0.98923
1.00155 1.00515 0.987578
0.999903 1.00354 0.991644
0.996072 1.00394 0.997367
1.00422 0.995674 0.990374
0.997408 1.00465 0.99435
1.001 1.00443 0.989176
1.005 0.994807 0.990715
1.00388 0.998489 0.989762
1.00321 0.997252 0.992049
0.999949 1.00182 0.993449
0.999157 1.00174 0.994961
1.0029 0.996389 0.988769
1.00295 0.999136 0.990768
1.00344 0.999608 0.990583
1.00123 0.997935 0.994794
0.998784 1.00468 0.992613
0.997439 1.00444 0.993898
0.997431 1.00251 0.996459
0.999844 0.997167 0.852477
1.00071 0.994886 0.936683
0.998042 1.00407 0.995135
1.00299 1.00332 0.98702
1.00284 0.994738 0.990281
1.00367 0.998139 0.991312
1.00407 1.00003 0.988469
0.999987 0.994832 0.934256
0.995804 0.994768 0.955231
0.996459 0.996606 0.987315
0.995591 0.994793 0.869636
0.994828 0.994899 0.79485
0.998331 1.00378 0.994078
0.99984 0.994888 0.851817
0.99474 0.994884 0.789974
1.00098 0.996365 0.993511
1.00157 1.00123 0.990892
1.00117 1.0005 0.993584
0.995166 0.997193 0.991081
0.996548 0.994686 0.928552
0.994928 0.994788 0.951862
0.994787 0.995116 0.86861
0.994804 0.995283 0.778207
0.996872 1.00454 0.996489
0.994774 0.994804 0.782903
0.994738 0.994747 0.777631
0.996766 1.00133 0.997214
0.998928 1.00175 0.997387
0.99484 0.998636 0.987699
0.994913 0.994808 0.956249
0.994883 0.994649 0.921848
0.994815 0.994878 0.87188
0.994887 0.994896 0.793558
0.995545 1.00489 0.998043
0.995454 1.00498 0.998342
0.994944 1.00427 0.999212
1.00052 1.00413 0.989888
1.00075 1.00455 0.989662
0.999175 1.00502 0.99109
0.997638 1.00505 0.993324
0.996509 1.00475 0.995756
1.00065 1.00464 0.989446
0.997588 1.00496 0.993853
0.999641 1.00496 0.990755
0.995499 1.00514 0.996746
0.995112 1.00503 0.998155
0.997275 1.00506 0.994345
1.00013 1.00474 0.990964
1.00066 1.00402 0.99024
0.998741 1.00367 0.993261
0.999088 1.00393 0.992533
1.00001 1.00301 0.992017
0.996851 1.00376 0.996112
0.998041 1.00448 0.992525
0.996366 1.0051 0.9951
0.997308 1.00239 0.99671
0.999771 1.00284 0.992734
1.00449 0.999807 0.989792
0.99803 1.00466 0.992248
0.998022 1.00464 0.993376
0.998634 1.00516 0.990461
0.998725 1.00513 0.991938
0.999958 1.00503 0.990154
0.999209 1.00512 0.991225
0.999754 1.00472 0.990621
0.999755 1.00337 0.991741
1.00023 1.00444 0.990293
0.99994 1.00289 0.992078
0.999979 0.99962 0.995988
0.999913 1.00276 0.99226
0.999843 0.999578 0.99587
1.00001 0.997412 0.99772
0.999725 0.99955 0.995767
0.999956 0.997442 0.999114
0.999926 0.997512 0.999111
1.0005 1.00284 0.991665
0.999939 1.00114 0.993889
1.00035 1.00231 0.992088
1.00004 0.998409 0.996402
0.999947 1.00085 0.994126
1.00001 1.00089 0.994004
1.00007 0.998456 0.996336
1.00001 0.996941 0.999199
1.00009 0.998612 0.996693
1.00001 0.997077 0.998568
0.99998 0.99738 0.997842
0.999187 0.995863 0.838213
0.994792 0.994875 0.78125
0.995881 0.994777 0.961895
1.00373 0.994687 0.978337
1.00553 0.994972 0.991257
1.00067 0.994788 0.95793
1.00335 0.994743 0.98589
0.999807 0.994866 0.931419
0.995585 0.994738 0.850646
0.994821 0.995299 0.799711
0.998149 0.994791 0.969474
0.996085 0.994723 0.937126
0.994739 0.9947 0.868815
0.994814 0.995879 0.792289
0.999553 1.00406 0.992169
0.999741 1.00288 0.992352
1.00022 1.00223 0.9924
0.999847 1.00259 0.992647
0.997853 1.00415 0.994177
1.00042 1.00411 0.990199
0.999485 1.00402 0.991773
1.00083 1.00431 0.989179
1.00021 1.0041 0.990514
0.999618 1.00358 0.991786
1.00423 0.994865 0.990708
1.00489 0.994818 0.990682
1.00334 0.998814 0.989827
1.00251 0.99717 0.992056
0.999765 1.00176 0.995012
0.999758 1.00179 0.992342
0.999849 1.00426 0.991549
0.997288 1.0046 0.994294
1.00218 0.995676 0.989393
0.998537 1.00498 0.992476
0.997325 1.00452 0.994282
1.00278 0.998972 0.990744
1.00309 1.00007 0.989895
1.00073 0.997789 0.995487
0.997706 1.00257 0.996884
0.999526 0.995464 0.98798
1.00068 1.0007 0.993838
0.996858 1.00257 0.997284
0.998485 1.0039 0.992895
0.996632 1.00521 0.994356
0.996105 1.0045 0.99701
0.994742 0.994792 0.800895
0.999842 0.99489 0.860648
0.999968 0.99593 0.921024
0.998608 1.00395 0.994086
1.0018 1.00137 0.990884
1.00081 0.996869 0.993296
1.00107 1.00007 0.994308
0.999795 0.995896 0.867067
0.996057 0.994726 0.921894
0.994934 0.994742 0.951456
0.995292 0.998168 0.991831
0.994789 0.994802 0.852086
0.994687 0.994864 0.79647
0.99483 0.995829 0.79425
0.99687 1.00461 0.996199
0.994768 0.994816 0.791254
0.994766 0.994758 0.777096
0.996987 0.9997 0.997889
0.998632 1.0017 0.997307
0.994832 0.997316 0.989551
0.995023 0.994791 0.953639
0.994922 0.994665 0.934187
0.994787 0.995371 0.851378
0.99521 0.994891 0.802842
0.995744 1.00408 1.00054
0.994742 0.994792 0.785337
0.994818 0.994833 0.77971
0.994753 1.00227 1.00027
0.994866 0.99656 0.964424
0.994805 0.994792 0.93142
0.99491 0.994904 0.850353
0.995833 0.994906 0.821526
0.995705 1.00485 0.998206
0.995202 1.00463 0.999364
0.994848 1.00439 0.999797
1.00044 1.00473 0.989391
0.999997 1.00479 0.990719
0.997628 1.00514 0.993544
0.995442 1.00517 0.996961
0.999535 1.00487 0.990949
0.997092 1.00512 0.994385
0.994997 1.00503 0.998279
0.994769 1.0051 0.999028
0.995007 1.00498 0.998339
0.997656 1.00517 0.994117
0.999198 1.00412 0.992495
1.00004 1.00278 0.991894
0.996159 1.00391 0.996607
0.996567 1.00499 0.995208
0.999135 1.00385 0.992453
0.996352 1.00347 0.996885
0.997772 1.00386 0.994417
0.994885 1.00512 0.998366
1.00174 0.999639 0.993325
0.999373 1.00228 0.993573
1.00246 1.0002 0.990617
1.00513 0.999068 0.987868
1.00324 1.00166 0.989088
1.00353 0.999421 0.990483
0.998977 1.00435 0.992094
0.999071 1.00526 0.989612
0.998667 1.00449 0.9934
0.999534 1.0052 0.99054
1.00058 1.00513 0.988737
0.999254 1.00517 0.99204
0.999781 1.00508 0.990167
0.999825 1.00407 0.990909
0.999909 1.00469 0.990721
0.999926 1.00336 0.991752
1.00014 0.9998 0.995624
0.999982 1.00284 0.992097
0.999957 0.999692 0.995563
1.0001 0.997534 0.997534
0.999841 0.999557 0.995564
1.00001 0.997417 0.998414
0.999972 0.997432 0.999093
1.00043 1.00393 0.990268
1.00003 1.00149 0.99343
1.00033 1.003 0.991441
1.00006 0.998496 0.996293
0.999938 1.00109 0.99391
1.0003 1.00227 0.992107
1.00002 0.996913 0.999206
1.00003 0.998432 0.996401
0.999935 1.00091 0.994118
1.00008 0.998439 0.996328
1.00001 0.996957 0.999191
0.999993 0.997048 0.999158
0.99474 0.994801 0.778983
0.999082 0.994878 0.852272
0.994789 0.99477 0.778747
0.994818 0.994852 0.782889
0.999068 0.994858 0.958317
1.00269 0.994811 0.986599
0.999342 0.99479 0.926027
0.99619 0.994767 0.871687
0.994843 0.994881 0.795821
0.998223 0.994813 0.968224
0.99637 0.994692 0.921855
0.994747 0.995015 0.869383
0.994807 0.995301 0.784744
0.994924 0.99481 0.960645
0.994759 0.994678 0.920024
0.994803 0.994946 0.845255
0.994856 0.994891 0.798263
1.00033 1.00443 0.990947
0.998891 1.00414 0.992336
0.999824 1.00284 0.992384
0.997258 1.00347 0.995184
1.0009 1.00368 0.989684
1 1.00452 0.990395
0.998857 1.00413 0.992094
1.00139 1.00403 0.989
1.001 1.00454 0.989108
1.00028 1.00399 0.990375
1.00214 0.994805 0.989962
1.00246 0.998822 0.99075
1.00307 1.00055 0.989213
1.00011 0.997666 0.996186
0.998445 1.00273 0.997289
0.997559 1.00443 0.994664
0.99848 1.00511 0.992358
0.999289 1.00344 0.992699
0.999375 0.996388 0.988665
0.997569 1.00515 0.993829
0.99734 1.00332 0.997139
1.00045 1.00043 0.993983
0.997881 1.0014 0.99725
0.996271 1.00072 0.987457
0.996691 1.00224 0.998741
0.994767 1.00506 0.998044
0.996379 1.00425 0.996434
0.9954 1.00522 0.996665
0.99476 0.994779 0.791829
0.994751 0.994753 0.795944
0.999833 0.997142 0.840077
0.996847 1.00465 0.995956
0.998688 1.00139 0.997246
0.997339 0.998856 0.998551
0.994745 0.994802 0.787634
0.994787 0.994657 0.920548
0.994921 0.994786 0.953875
0.994822 0.995762 0.991916
0.994773 0.995602 0.870687
0.994801 0.994771 0.777575
0.995628 0.99488 0.804943
0.995979 1.00372 1.0007
0.994758 0.994804 0.786783
0.9948 0.994832 0.780966
0.994786 1.00254 0.999104
0.994859 0.995712 0.966248
0.995032 0.994793 0.917999
0.995516 0.994902 0.816107
0.995254 0.996924 0.859622
0.994691 1.005 1.00124
0.994777 0.994833 0.773228
0.994863 0.994848 0.797117
0.994858 0.994894 0.79777
0.994742 0.999693 0.987975
0.994824 0.995378 0.935902
0.997245 0.994878 0.873006
0.995564 1.00498 0.999522
0.995158 1.0046 0.999587
0.995194 1.00512 0.999314
0.999133 1.00484 0.990944
0.997045 1.00524 0.994424
0.994881 1.00505 0.998402
0.997025 1.00522 0.994208
0.995199 1.00481 0.998413
0.994767 1.00508 0.998874
0.994665 1.00482 0.999843
0.995124 1.00465 0.998773
0.996479 1.00484 0.995351
1.00012 1.00321 0.992373
0.995662 1.00426 0.997065
0.994921 1.0051 0.99822
0.997214 1.00424 0.994481
0.999479 1.00083 0.995646
0.998716 1.00037 0.99686
1.00266 0.99999 0.989516
0.999103 1.00205 0.994319
1.00266 1.00018 0.990384
1.00474 1.00105 0.986314
1.00519 1.00091 0.985435
1.00481 0.99919 0.987754
1.00451 0.999196 0.987803
1.00191 1.00436 0.988107
1.00209 1.00218 0.989319
1.00235 0.999054 0.991152
0.99989 1.00404 0.991937
0.999796 1.00525 0.989417
1.00103 1.00512 0.987494
1.00031 1.0052 0.990626
1.00086 1.00508 0.988711
1.00047 1.00456 0.989391
0.999961 1.00508 0.990172
1.00009 1.00384 0.990884
1.00017 1.00016 0.995232
1.00004 1.00319 0.991759
1.00011 0.999844 0.995177
1.00027 0.997577 0.997224
0.999942 0.999748 0.995227
1.0001 0.997492 0.998289
1.00005 0.997409 0.999025
1.00083 1.00415 0.989169
1.00014 1.00202 0.992312
1.00052 1.00381 0.990282
1.0001 0.998712 0.996027
1.00009 1.00142 0.993221
1.00031 1.003 0.991219
1.00003 0.996956 0.999176
1.00006 0.99848 0.996309
1.00001 1.00093 0.993926
1.00001 0.996939 0.999205
1.00003 0.998442 0.996399
1.00001 0.996959 0.999185
0.994807 0.994814 0.783275
0.994752 0.994836 0.79423
0.999199 0.994847 0.851164
1.001 1.00444 0.989016
0.994782 0.994803 0.78396
0.994786 0.994793 0.778649
0.994861 0.994856 0.797364
0.998189 0.99475 0.967952
0.996058 0.99473 0.936634
0.994668 0.995314 0.852124
0.994782 0.994909 0.79648
0.995515 0.994791 0.958092
0.994832 0.994681 0.933509
0.994778 0.995339 0.849676
0.994872 0.994893 0.799784
0.994929 0.994772 0.952404
0.994796 0.994812 0.929636
0.996297 0.994912 0.863089
0.995454 0.994904 0.821808
0.998762 1.00358 0.993201
0.999475 1.00435 0.991262
0.999009 1.00362 0.992512
1.00131 1.00241 0.990372
1.00103 1.00386 0.989637
0.999875 1.0048 0.990587
1.00151 1.00398 0.988974
1.00113 1.00449 0.989036
0.998557 0.997299 0.989173
0.999837 1.00013 0.994047
0.998869 1.00368 0.992477
0.998924 1.00022 0.997201
0.998106 1.00289 0.997251
0.998391 1.00512 0.993241
0.996916 1.00416 0.995347
0.995881 1.00036 0.987661
0.996562 1.00506 0.996422
0.995899 1.00354 0.998122
0.995983 1.00202 0.998834
0.995672 1.00527 0.996291
0.994989 1.00354 0.984592
0.994996 1.0037 0.99893
0.995519 1.00467 0.998161
0.995967 1.00561 0.996688
0.994744 0.994811 0.776073
0.994752 0.994783 0.788283
0.994756 0.994715 0.790764
0.995844 1.00382 1.00085
0.994812 1.00193 0.997888
0.994773 0.994817 0.788052
0.99476 0.994844 0.93291
0.994849 0.995588 0.962965
0.995532 0.995142 0.85832
0.994783 0.994832 0.781968
0.994892 0.994905 0.810556
0.994735 1.00495 1.00119
0.994776 0.99483 0.773653
0.994873 0.994858 0.795608
0.994781 1.00031 0.991686
0.994873 0.994939 0.799355
0.994834 0.996798 0.928806
0.996664 0.997336 0.87457
0.995027 1.00406 0.997253
0.994837 0.994846 0.787219
0.994794 0.994813 0.785967
0.994806 0.995933 0.791367
0.996469 0.995959 0.862899
0.9949 1.00126 0.970389
0.994926 0.995468 0.921596
0.995451 1.00487 0.999404
0.995031 1.00511 0.999355
0.994732 1.00513 0.998278
0.996525 1.0053 0.994294
0.994834 1.00441 0.998487
0.994781 1.00504 0.998761
0.994857 1.00435 0.998676
0.994623 1.00482 0.999687
0.99707 1.00227 0.999937
0.994909 1.00516 0.998063
0.996286 1.00491 0.994583
0.998446 1.00132 0.9966
0.999377 0.999685 0.993979
0.995718 1.00098 1.00005
1.00223 0.999828 0.990573
1.00433 1.00358 0.983489
1.00461 1.00267 0.984392
1.00298 1.00012 0.990069
1.00459 1.00118 0.985859
1.00501 1.0018 0.984647
1.00497 1.00123 0.985672
1.00495 1.00102 0.985491
1.00402 1.00059 0.987865
1.00432 0.999913 0.987626
1.00427 0.99926 0.987763
1.00099 1.00519 0.987507
1.00122 1.00453 0.988183
1.00082 1.00278 0.989546
1.00058 1.00524 0.989224
1.00148 1.00515 0.987518
1.00089 1.00512 0.987901
1.00104 1.00505 0.988683
1.0007 1.00446 0.989375
1.00021 1.00081 0.993694
1.00045 1.0038 0.990876
1.00025 1.00015 0.994357
1.00013 0.997688 0.998769
1.00012 0.999932 0.994812
1.0002 0.997557 0.998075
1.00014 0.997491 0.998921
1.00081 1.0045 0.988908
1.00036 1.00292 0.991155
1.00075 1.00431 0.989359
1.00016 0.999065 0.995598
1.00026 1.00205 0.992179
1.00061 1.00376 0.990289
1.00005 0.997077 0.999116
1.00012 0.998645 0.996049
1.0001 1.00139 0.993013
1.00003 0.996951 0.999187
1.00005 0.99847 0.996326
1.00001 0.99694 0.999205
0.994764 0.994819 0.782626
0.9948 0.994805 0.783659
0.994748 0.994848 0.793092
1.00106 1.00427 0.989068
1.0003 1.00513 0.988637
1.00178 1.00236 0.990693
0.994874 0.994863 0.795891
0.994794 0.994802 0.785143
0.9948 0.994778 0.778722
0.996259 0.994775 0.958452
0.99486 0.994659 0.920639
0.994776 0.995648 0.870688
0.994878 0.994869 0.794016
0.99491 0.994812 0.953881
0.994842 0.994787 0.925267
0.996082 0.99598 0.862127
0.995355 0.994901 0.816255
0.994897 0.994856 0.952954
0.99483 0.994864 0.931305
0.997159 0.994894 0.872686
0.994881 0.994905 0.795467
0.99797 1.00313 0.994465
0.999069 1.00346 0.993068
0.999296 1.0047 0.991581
1.00124 1.00259 0.990289
1.00069 1.00436 0.989598
1.00153 1.00401 0.988943
0.995632 1 0.988218
0.995796 1.00223 0.998996
0.998234 1.00328 0.994306
0.997535 1.0025 0.998067
0.997811 1.00432 0.996206
0.995773 1.00501 0.996218
0.995711 1.00542 0.996407
0.994904 1.00323 0.984634
0.995217 1.00525 0.998354
0.994589 1.00432 0.997792
0.995372 1.00534 0.997828
0.9947 1.00122 0.983316
0.994914 1.00519 0.994636
0.994689 1.00264 0.999329
0.994868 0.994854 0.777032
0.994756 0.99482 0.775287
0.994746 0.994783 0.784745
0.994783 1.00475 1.0011
0.99481 1.00073 0.987154
0.994775 0.994828 0.774091
0.994801 0.996454 0.928924
0.996091 0.994877 0.860193
0.994887 0.994856 0.794073
0.994874 0.994874 0.793767
0.994958 1.00394 0.997772
0.99482 0.994847 0.78624
0.994812 0.994802 0.787318
0.99489 1.00166 0.967274
0.994791 0.995533 0.784015
0.996006 0.997239 0.8611
0.994865 0.996908 0.935504
0.994847 1.0051 0.988289
0.99477 0.994821 0.784688
0.994781 0.994788 0.779465
0.9948 0.995837 0.803135
0.994787 0.995167 0.843283
0.994811 0.994937 0.932778
0.994823 1.00141 0.960854
0.995047 1.00507 0.999335
0.994755 1.00511 0.998358
0.994872 1.00505 0.998319
0.995173 1.00424 0.998582
0.994576 1.00503 0.999455
0.996121 1.0024 1.0002
0.997865 1.00187 0.998883
0.997243 1.00179 0.997527
1.00165 0.999418 0.993103
1.00178 1.00478 0.986853
1.00171 0.999564 0.992081
1.0044 1.00354 0.983969
1.00427 1.00315 0.983533
1.00513 1.00039 0.985408
1.00509 1.00159 0.984765
1.0047 1.00244 0.984409
1.00463 1.00135 0.985414
1.00457 1.00299 0.984628
1.00511 1.0017 0.984649
1.00461 1.00099 0.986279
1.00478 1.00157 0.985808
1.00443 1.00119 0.985551
1.0024 1.00202 0.98842
1.00365 1.00108 0.987741
1.00384 1.00065 0.987475
1.0014 1.00524 0.986918
1.00149 1.00519 0.987487
1.00035 1.0045 0.988262
1.00187 1.00516 0.987552
1.00136 1.00498 0.987925
1.00029 1.00162 0.992709
1.00117 1.00422 0.989346
1.00027 1.0008 0.993645
1.00023 0.998002 0.998646
1.00036 1.00005 0.994333
1.00026 0.99772 0.997918
1.00021 0.99754 0.998811
1.00152 1.00429 0.988599
1.00061 1.00342 0.990529
1.00101 1.0044 0.988862
1.00021 0.999554 0.995017
1.00036 1.00293 0.991245
1.00063 1.0044 0.989558
1.00007 0.997231 0.999018
1.00018 0.998963 0.995628
1.00036 1.00204 0.992049
1.00005 0.997021 0.999135
1.00014 0.998591 0.996072
1.00003 0.996969 0.999199
0.994831 0.994846 0.784892
0.994768 0.994834 0.783087
0.994805 0.994799 0.783898
1.0001 1.00524 0.988759
1.00248 1.00145 0.992284
1.00084 1.00427 0.989134
1.00055 1.00494 0.988543
1.0007 1.00214 0.991332
1.00095 1.0026 0.990955
0.998945 1.00154 0.994702
0.994832 0.994835 0.781943
0.994874 0.994863 0.794313
0.994798 0.99483 0.786285
0.994889 0.994907 0.810562
0.995259 0.99481 0.952324
0.994831 0.994814 0.919889
0.99598 0.99492 0.874171
0.994995 0.995046 0.951857
0.994835 0.997674 0.917452
0.996463 0.996888 0.873761
0.995094 0.994932 0.804573
0.994816 0.995697 0.956077
0.99493 0.99766 0.918732
0.994902 0.995002 0.850925
0.994785 0.995329 0.782807
0.99567 1.00536 0.996668
0.99784 1.00352 0.994988
0.998717 1.00404 0.992934
1.00114 1.00315 0.990208
0.994902 1.00255 0.984514
0.994504 1.00456 0.996725
0.996047 1.00514 0.996154
0.996605 1.00533 0.996111
0.994739 1.00536 0.998753
0.995132 1.00533 0.997723
0.995905 1.00349 0.999505
0.995041 1.00189 0.980384
0.995134 1.00521 0.994702
0.995997 1.0027 0.999745
0.995891 1.00106 0.975977
0.994656 1.00286 0.999825
0.994749 0.994832 0.778964
0.994846 0.994854 0.782338
0.994766 0.994838 0.774487
0.994731 1.00405 0.998286
0.994879 1.00129 0.971298
0.994801 0.994848 0.78527
0.994914 0.996268 0.922833
0.99584 0.994982 0.873817
0.994801 0.99483 0.788424
0.994767 0.995107 0.795369
0.994882 1.00506 0.989323
0.994775 0.994833 0.785228
0.99477 0.994802 0.779422
0.99481 1.00139 0.960912
0.994817 0.995235 0.799235
0.994763 0.995465 0.847733
0.994849 0.995964 0.919247
0.995038 1.00404 0.982897
0.994826 0.994818 0.783788
0.994762 0.994878 0.781312
0.994733 0.9947 0.867613
0.994813 0.994881 0.930599
0.994798 0.99962 0.956416
0.994773 1.00505 0.998937
0.994774 1.00499 0.998345
0.995027 1.00463 0.997961
0.995454 1.00215 1.00046
0.996577 1.00264 0.999313
1.00043 1.00088 0.994644
1.00387 0.999155 0.992244
1.00276 1.00484 0.985973
1.00428 1.00205 0.985174
1.00422 1.00344 0.984445
1.00451 1.00316 0.983476
1.00474 1.00135 0.985223
1.00527 0.99779 0.987551
1.00519 0.999923 0.986185
1.00512 1.00058 0.98542
1.00508 1.00156 0.985068
1.00507 1.00138 0.984801
1.00478 1.00223 0.984422
1.00424 1.00448 0.983627
1.0046 1.00277 0.984654
1.00515 1.00162 0.984663
1.00378 1.00173 0.987888
1.00373 1.00174 0.986956
1.0048 1.00184 0.985947
1.00284 1.00265 0.9872
1.00266 1.00202 0.988394
1.00316 1.00193 0.987616
1.00057 1.00208 0.991781
1.00178 1.00524 0.986999
1.00192 1.00519 0.987466
1.00155 1.00488 0.987947
1.00034 1.00163 0.992687
1.00023 0.998473 0.998418
1.00025 1.00089 0.9936
1.00024 0.998046 0.998579
1.00026 0.99762 0.998709
1.00194 1.00447 0.989197
1.00191 1.00515 0.988069
1.00093 1.00395 0.989556
1.00127 1.00443 0.988595
1.00019 1.00015 0.994453
1.00056 1.00358 0.990523
1.00099 1.00465 0.988811
1.00007 0.99759 0.998877
1.0002 0.999534 0.995044
1.00042 1.00297 0.991331
1.00006 0.997226 0.999048
1.00019 0.998926 0.995662
1.00005 0.997003 0.999155
0.994785 0.994847 0.775553
0.994823 0.994837 0.783959
0.99477 0.994827 0.783539
1.00079 1.00526 0.988396
1.00017 1.00131 0.99302
1.00213 0.999481 0.989852
0.998386 1.00362 0.991701
1.00181 0.998835 0.993955
1.00085 1.00507 0.988435
0.999929 1.0027 0.991992
1.00064 1.00344 0.990929
0.998987 1.00092 0.995896
0.999002 1.00308 0.995049
0.994764 0.99475 0.779948
0.99481 0.994841 0.783353
0.994872 0.994849 0.79278
0.995346 0.994884 0.806602
0.996046 0.994888 0.860081
0.994912 0.994879 0.950685
0.994819 0.995562 0.930327
0.994871 0.996404 0.951462
0.994897 0.99763 0.931258
0.995098 0.996956 0.860495
0.994812 0.99533 0.78046
0.994992 0.99802 0.953016
0.994768 0.996239 0.930947
0.994796 0.995061 0.873355
0.994717 0.996064 0.806609
0.998352 1.00019 0.997403
0.995407 1.0052 0.996949
0.998011 1.00291 0.995523
0.99467 1.00283 0.976998
0.994796 1.00518 0.994109
0.995067 1.0053 0.997553
0.994711 1.00441 0.999722
0.995387 1.00339 0.99955
0.994699 1.00148 1.00035
0.994792 1.00186 0.976712
0.99585 1.00143 1.00206
0.994903 1.00004 0.98434
0.994785 0.994802 0.793034
0.994773 0.994842 0.778007
0.994829 0.994844 0.78787
0.994922 1.00505 0.989682
0.994837 0.999948 0.958801
0.994793 0.994841 0.785771
0.994844 0.994949 0.931619
0.994768 0.995793 0.868035
0.994785 0.994777 0.779746
0.994843 0.994888 0.795495
0.995202 1.00454 0.98373
0.994815 0.994811 0.783897
0.994791 0.994873 0.782759
0.994834 0.998483 0.957554
0.994738 0.995074 0.868511
0.994878 0.994822 0.922544
0.99477 1.00254 0.98153
0.994733 0.994806 0.779162
0.996393 0.994763 0.872087
0.994791 0.994687 0.919495
0.994905 0.99485 0.95714
0.995222 1.00495 0.998419
0.994925 1.00478 0.997791
0.997735 1.00027 0.997418
0.995324 1.00332 0.999739
0.999278 1.00156 0.995429
1.00431 0.995461 0.992502
1.00385 1.00495 0.985068
1.00424 1.00188 0.985078
1.00488 0.99826 0.987921
1.00483 1.00323 0.983417
1.00472 1.00121 0.985275
1.00491 0.99785 0.988245
1.00531 0.995375 0.989863
1.0053 0.997322 0.9877
1.0053 0.99768 0.987579
1.00526 0.99988 0.98628
1.00518 0.999963 0.986108
1.00501 1.00069 0.985433
1.00533 1.00261 0.983705
1.00496 1.00163 0.985041
1.00509 1.00111 0.984836
1.00451 1.00471 0.984411
1.00384 1.00415 0.984183
1.00471 1.00255 0.984678
1.00215 1.00337 0.987952
1.00293 1.00217 0.987813
1.00325 1.00228 0.987628
1.00109 1.00263 0.99196
1.00267 1.00306 0.987272
1.0029 1.00221 0.988367
1.00039 0.999395 0.995447
1.00068 1.00231 0.992042
1.00204 1.00523 0.987084
1.00046 1.00163 0.992654
1.00028 0.998584 0.998327
1.00026 0.998224 0.998507
1.00181 1.00217 0.9886
1.00232 1.00514 0.987357
1.00004 1.00482 0.989107
1.00105 1.0047 0.988718
1.00126 1.00489 0.988042
1.00006 1.00079 0.993961
1.00078 1.00415 0.989539
1.00113 1.00473 0.988584
1.00006 0.997913 0.998761
1.0002 1.00006 0.994488
1.00046 1.00362 0.990518
1.00006 0.997502 0.99892
1.00021 0.999415 0.99507
1.00006 0.997134 0.999079
0.994768 0.99482 0.792062
0.99479 0.994844 0.776066
0.994804 0.994856 0.782909
1.00302 1.00342 0.986085
1.0006 1.00501 0.988054
0.99908 1.002 0.993976
0.999978 1.00481 0.991019
1.00354 0.999606 0.989666
1.00036 0.997741 0.997588
1.00372 1.00033 0.988945
0.995565 1.00527 0.995108
0.999498 1.0039 0.990892
0.99882 0.998972 0.997075
0.997389 1.00335 0.995072
0.998067 1.00214 0.995856
0.994804 0.995034 0.797709
0.994786 0.994762 0.779401
0.994796 0.994847 0.78445
0.994834 0.996838 0.796331
0.995267 0.995214 0.859001
0.994961 0.997355 0.919019
0.995594 0.995001 0.95145
0.995421 0.998511 0.953665
0.994776 0.996501 0.802121
0.994813 0.996546 0.922518
0.994787 0.995663 0.852992
0.994877 0.996457 0.959606
0.9948 0.994833 0.932686
0.994726 0.995886 0.869905
0.999819 0.995254 1.00162
0.99866 1.00021 0.997265
0.994968 1.00552 0.997216
0.994804 1.00245 0.97686
0.996037 0.999986 1.00081
0.995985 1.0027 0.99945
0.996539 0.999757 1.00243
0.99488 0.999164 0.984458
0.995705 0.998187 0.993312
0.99473 0.994776 0.796055
0.994776 0.994808 0.792996
0.994797 0.994839 0.776819
0.994801 1.00469 0.983858
0.994832 0.999794 0.956648
0.994796 0.994812 0.784299
0.994827 0.994834 0.917876
0.99466 0.995205 0.851266
0.994842 0.994896 0.796948
0.994799 1.00477 0.981175
0.994748 0.994841 0.794222
0.995707 0.994745 0.850095
0.994975 0.995071 0.952162
0.994856 0.994685 0.933141
0.995327 0.999626 0.989077
0.999246 0.995846 0.837587
0.996034 0.994746 0.937302
0.994939 0.994752 0.950378
0.994742 1.00536 0.997637
0.997363 1.00165 0.997102
1.00074 0.998157 0.99372
0.998281 1.00215 0.996217
1.0037 0.996377 0.992241
1.00499 0.994936 0.99134
1.00411 1.00177 0.984985
1.00481 0.998215 0.987805
1.005 0.996132 0.989801
1.00467 1.00097 0.985333
1.00488 0.997751 0.988179
1.00534 0.994819 0.990326
1.00528 0.994827 0.99103
1.00529 0.99537 0.989889
1.00533 0.995324 0.989899
1.00538 0.997233 0.987743
1.00529 0.997289 0.987883
1.00532 0.997562 0.987606
1.00542 1.00049 0.98517
1.00524 0.999762 0.986212
1.00517 1.00006 0.986028
1.00554 1.00347 0.9824
1.00523 1.00279 0.983688
1.00481 1.00171 0.985012
1.00299 1.00262 0.98701
1.00368 1.0046 0.984352
1.00321 1.00392 0.98475
1.00107 1.00306 0.99003
1.00273 1.00268 0.987872
1.00199 1.00241 0.987727
0.999944 1.00115 0.997602
1.00113 1.0027 0.990332
1.00298 1.00305 0.987334
1.00031 0.999076 0.998047
1.00081 1.00229 0.99139
1.00032 0.998606 0.99823
1.00496 1.00154 0.986292
1.00299 1.00155 0.98796
1.00234 1.00443 0.987282
1.00136 1.00505 0.988261
1.00175 1.00517 0.98737
0.99992 1.00512 0.989011
0.999982 1.00164 0.993379
1.0009 1.00478 0.988731
1.00121 1.00418 0.988005
1.00004 0.998306 0.998636
1.00006 1.00082 0.993971
1.00062 1.00448 0.989519
1.00004 0.997894 0.998792
1.00019 1.00007 0.994514
1.00004 0.99745 0.998964
0.99476 0.994802 0.784144
0.99478 0.994814 0.792339
0.994797 0.994839 0.776663
1.00328 1.00308 0.986055
1.00481 1.00486 0.984944
1.00164 1.00473 0.987634
0.999832 1.00529 0.990312
1.00512 0.999127 0.989507
0.996891 0.997521 1.0009
0.997665 1.00309 0.995197
1.00187 1.00104 0.990721
1.00074 1.00016 0.993492
0.998729 0.998889 0.997234
0.997689 1.0035 0.995058
0.999113 1.0022 0.995464
0.996306 0.994745 0.845381
0.994758 0.994882 0.791835
0.99481 0.994775 0.779793
0.99483 0.994948 0.79719
0.994773 0.995588 0.872362
0.99482 0.995409 0.918896
0.994783 0.998168 0.952986
0.99488 0.997312 0.956672
0.994793 0.995201 0.869988
0.994861 0.994813 0.919595
0.994913 0.996919 0.961124
0.994902 0.994644 0.922241
0.998983 0.995153 1.00546
0.999824 0.995104 1.00156
0.998338 1.0002 0.997265
0.994831 0.999102 0.984763
0.996264 0.999393 1.00277
0.995867 0.998334 0.992991
0.995087 0.99582 0.991173
0.999669 0.998368 0.850506
0.994741 0.994751 0.792524
0.994773 0.99482 0.792644
0.994835 1.00439 0.981709
0.994982 0.99484 0.950818
0.994744 0.994853 0.792863
0.994887 0.994661 0.920899
0.996215 0.994778 0.871209
0.995295 0.998341 0.985445
0.99914 0.994879 0.852267
0.996306 0.994696 0.922088
0.994945 0.9948 0.951573
0.996258 0.997155 0.985435
0.998965 0.994852 0.936363
0.994923 0.994799 0.958967
0.996793 1.00218 0.996806
1.00013 0.998622 0.993683
1.00327 0.99746 0.991863
1.00299 0.997317 0.991995
1.00484 0.994978 0.991266
1.00514 0.994619 0.991128
1.00478 0.998142 0.987691
1.00492 0.996251 0.989696
1.00532 0.994718 0.990405
1.00486 0.997691 0.988111
1.00535 0.994828 0.990275
1.00528 0.994777 0.990821
1.00532 0.994828 0.990872
1.00527 0.99482 0.991042
1.0053 0.994863 0.991033
1.00533 0.995669 0.989947
1.0053 0.995416 0.990049
1.00534 0.995265 0.989938
1.00547 0.998046 0.987211
1.00537 0.997275 0.987679
1.00529 0.997244 0.988066
1.00551 1.00205 0.983505
1.00548 1.00051 0.985158
1.00522 0.999664 0.986147
1.00474 1.00217 0.984768
1.00555 1.00312 0.982534
1.00512 1.00289 0.983672
1.00132 1.00401 0.98858
1.00291 1.00326 0.986936
1.00298 1.0041 0.984307
1.00044 1.00052 0.997392
1.0013 1.00281 0.990052
1.00282 1.00244 0.987791
1.00027 1.00051 0.996055
1.00118 1.00231 0.990556
1.00038 0.999723 0.997762
1.00534 1.00392 0.9828
1.00374 1.0026 0.986183
1.00322 1.00211 0.987092
1.00389 1.00211 0.987326
1.00226 1.00433 0.987331
1.00143 1.00517 0.987891
1.00034 1.00191 0.992624
1.00104 1.0051 0.98824
1.00034 1.00521 0.987395
1.00006 0.998601 0.998438
0.999954 1.00143 0.993388
1.0009 1.00482 0.988744
0.999999 0.99823 0.998678
1.00005 1.00064 0.99401
1.00002 0.997808 0.998825
0.998334 0.994834 0.853633
0.994762 0.9948 0.790128
0.994786 0.994808 0.79278
1.0033 1.00342 0.986037
1.0025 1.00513 0.985772
1.00445 1.00439 0.984249
1.0052 1.00249 0.984213
1.00129 1.00088 0.992453
0.998942 1.00282 0.995323
1.00159 1.00056 0.99249
1.00089 1.00045 0.993658
1.00451 0.994791 0.992455
1.00195 0.997099 0.995885
1.00153 0.998027 0.995744
1.00037 0.997947 0.996983
0.999668 1.00139 0.995085
0.997421 0.994696 0.933637
0.996841 0.994817 0.850242
0.994713 0.994858 0.797915
0.994775 0.995142 0.854475
0.994794 0.994841 0.930685
0.994917 0.996833 0.958892
0.99495 0.996164 0.962992
0.994843 0.994686 0.935644
0.995783 0.994806 0.960227
0.997117 0.995932 1.00479
0.997688 0.995809 1.00553
1.00009 0.994832 1.00139
0.995695 0.997746 0.992826
0.996238 0.995311 0.992445
0.999935 0.996411 0.920301
0.999784 0.994901 0.859015
0.99475 0.994726 0.78904
0.995352 0.997702 0.981359
0.994916 0.994774 0.950915
0.999239 0.99484 0.851268
0.99603 0.994725 0.936756
0.996284 0.996846 0.985662
0.999718 0.994856 0.931474
0.995365 0.994795 0.956549
0.999655 0.994624 0.984563
0.997663 0.994818 0.968471
0.999709 0.998979 0.993632
1.00238 0.996776 0.99189
1.00501 0.994577 0.991709
1.00466 0.995088 0.991183
1.00508 0.994636 0.991064
1.00529 0.994606 0.9908
1.0048 0.996342 0.98959
1.00531 0.994721 0.990355
1.00534 0.994773 0.990523
1.00535 0.99484 0.990225
1.00527 0.994787 0.990816
1.00533 0.994833 0.990666
1.00531 0.994828 0.990864
1.00536 0.994837 0.9908
1.00525 0.994814 0.991053
1.00529 0.994854 0.991038
1.00527 0.995071 0.990833
1.00536 0.996575 0.989161
1.00533 0.99568 0.989953
1.0053 0.995471 0.990208
1.00542 1.00048 0.985059
1.00548 0.998162 0.987015
1.00536 0.997305 0.987614
1.00528 1.00337 0.98305
1.00553 1.00201 0.983611
1.00553 1.00051 0.985144
1.00247 1.00371 0.987028
1.00429 1.00265 0.984824
1.00556 1.00314 0.982661
1.00045 1.00132 0.997032
1.0015 1.00377 0.988527
1.00292 1.00378 0.986867
1.00043 1.0007 0.99732
1.00146 1.00259 0.990078
1.00047 1.00032 0.997485
1.00537 1.0038 0.982956
1.00537 1.00346 0.982876
1.00334 1.00424 0.984549
1.0028 1.00283 0.986058
1.00267 1.00318 0.986866
1.00183 1.00418 0.986926
1.00207 1.00344 0.987368
1.00122 1.00517 0.987797
1.00082 1.00259 0.991243
1.00009 0.999192 0.998137
1.00011 1.00214 0.992616
1.00061 1.00518 0.988225
1 0.998682 0.998511
0.999928 1.0016 0.993357
0.999965 0.998201 0.998713
0.99997 0.994834 0.936407
0.999845 0.994908 0.850816
0.994748 0.994775 0.783918
1.00306 1.00587 0.983863
1.0041 1.00415 0.983548
1.00265 1.00051 0.990635
1.00489 1.00271 0.984309
1.00527 0.999264 0.986401
1.00415 0.995727 0.991467
1.00115 0.999843 0.993796
1.00479 0.995162 0.991505
1.00183 0.996761 0.995883
1.0042 0.997539 0.991068
1.00208 0.99826 0.993788
1.00162 0.998781 0.994635
1.00133 0.998292 0.995855
1.00137 0.997319 0.996738
0.994961 0.994784 0.959202
0.996966 0.994675 0.928529
0.995817 0.994796 0.869163
0.9948 0.994653 0.921494
0.994906 0.996127 0.963578
0.995767 0.995283 0.966242
0.998738 0.994823 0.990536
0.998702 0.995498 1.00335
0.997193 0.996561 1.00561
0.998037 0.996467 0.993831
0.998947 0.994756 0.959799
1.00058 0.994875 0.93631
0.999665 0.998373 0.83822
0.996115 0.996948 0.986114
0.995946 0.994793 0.956591
0.999033 0.9948 0.926211
0.999223 0.99587 0.985158
0.997571 0.994824 0.96731
1.00225 0.996953 0.987344
1.00339 0.994729 0.984687
1.00141 0.99677 0.991915
1.00439 0.994591 0.99179
1.00521 0.994805 0.990873
1.00502 0.994645 0.991001
1.00529 0.99463 0.990751
1.00539 0.994814 0.99047
1.00531 0.994721 0.990303
1.00534 0.994777 0.990524
1.00536 0.994843 0.990551
1.00527 0.994794 0.990811
1.00533 0.994833 0.990691
1.00535 0.994864 0.990731
1.00529 0.994829 0.990857
1.00535 0.994834 0.990797
1.00532 0.994867 0.990955
1.00529 0.994846 0.991042
1.00527 0.995019 0.990858
1.00528 0.996026 0.989996
1.00535 0.998984 0.986815
1.00537 0.996811 0.988823
1.00534 0.995695 0.989959
1.00534 1.00265 0.983258
1.00542 1.00065 0.985075
1.00551 0.998296 0.986819
1.00319 1.00285 0.98674
1.00474 1.00373 0.983085
1.00554 1.00206 0.983726
1.00133 1.00197 0.996221
1.00246 1.00363 0.986931
1.00375 1.00324 0.984895
1.00087 1.00152 0.996674
1.00174 1.00348 0.988482
1.00063 1.00059 0.997134
1.00537 1.0012 0.984698
1.00534 1.00343 0.9829
1.0047 1.00402 0.982995
1.00538 1.00259 0.982949
1.00435 1.00369 0.98421
1.00317 1.00328 0.985712
1.0027 1.00498 0.986651
1.00249 1.00422 0.986951
1.0013 1.00318 0.989517
1.00122 1.00512 0.987724
1.00052 1.00277 0.991252
1.00021 1.00031 0.997564
1.00004 0.999064 0.998259
0.999887 1.00214 0.992623
0.999946 0.998593 0.998576
0.995428 0.994837 0.96307
0.999293 0.994885 0.920178
0.999815 0.996447 0.866183
1.00531 0.996911 0.988362
1.00405 1.00024 0.988865
1.00455 1.00289 0.984399
1.00456 0.99581 0.991399
1.00526 0.99936 0.986491
1.00523 0.995868 0.990075
1.00507 0.995445 0.990561
1.0013 0.996757 0.995904
1.00458 0.995926 0.991112
1.00182 0.998213 0.993793
1.00357 0.998345 0.990344
1.0032 0.99475 0.994584
1.00122 0.998442 0.994953
1.00113 0.99846 0.99597
0.998281 0.994693 0.988821
0.995521 0.994769 0.957639
0.996459 0.994716 0.922122
0.995369 0.994957 0.967815
0.998747 0.994839 0.9929
0.999237 0.995099 1.00188
1.00401 0.995037 0.976432
0.999767 0.994836 0.957645
1.00013 0.995876 0.920456
0.998432 0.996787 0.985716
0.997128 0.994814 0.966921
1.00154 0.995875 0.98803
1.00264 0.994736 0.985175
1.00332 0.997067 0.990094
1.00543 0.994657 0.990721
1.00384 0.994607 0.991878
1.0052 0.994782 0.990878
1.00539 0.994886 0.990482
1.00529 0.99466 0.990703
1.00539 0.994813 0.99048
1.0054 0.994848 0.99054
1.00534 0.994784 0.990525
1.00536 0.994843 0.990557
1.00533 0.99488 0.990784
1.00533 0.994834 0.990715
1.00535 0.994865 0.990724
1.00532 0.994873 0.990927
1.00535 0.994831 0.990794
1.00531 0.994857 0.990932
1.00531 0.995067 0.990949
1.00528 0.994968 0.990882
1.00528 0.995788 0.990175
1.00532 0.998303 0.98777
1.00532 1.00158 0.984441
1.00533 0.999275 0.986545
1.00538 0.997026 0.988485
1.00351 1.00157 0.987229
1.0053 1.00269 0.983272
1.00542 1.00076 0.985089
1.00209 1.00162 0.995944
1.00319 1.00261 0.986671
1.00442 1.00386 0.983103
1.00156 1.002 0.996072
1.00243 1.00351 0.986818
1.00112 1.00192 0.996369
1.00537 0.998665 0.9867
1.00533 1.00124 0.98465
1.00543 1.00266 0.983307
1.00532 1.00332 0.982852
1.00498 1.00409 0.982729
1.00368 1.00376 0.984599
1.00534 1.0029 0.983877
1.00322 1.00362 0.985755
1.00174 1.00362 0.988247
1.00242 1.00431 0.986926
1.00124 1.00342 0.989554
1.00049 1.00144 0.997011
1.00033 1.003 0.991261
1.00005 1.00008 0.997799
0.999972 0.999093 0.998357
0.999139 0.994659 0.985528
0.996458 0.994803 0.958035
0.999986 0.994823 0.93613
1.00538 0.995346 0.989779
1.00531 0.995155 0.990103
1.00532 0.996635 0.988587
1.00498 0.995834 0.991333
1.00527 0.999347 0.98659
1.00525 0.995722 0.990118
1.00538 0.994837 0.990039
1.00491 0.994934 0.991162
1.00207 0.998196 0.993819
1.00355 0.998035 0.99104
1.0052 0.994771 0.991128
1.00365 0.994698 0.993272
1.00256 0.994788 0.99446
1.00131 0.998189 0.99527
0.998909 0.994651 0.988694
0.996335 0.994799 0.956716
0.999112 0.994844 0.995399
1.00483 0.995803 0.989444
1.00378 0.995248 0.976523
0.998981 0.994848 0.957996
1.00149 0.994833 0.988605
1.00202 0.994734 0.98569
1.0036 0.995991 0.990447
1.00541 0.994658 0.990882
1.00546 0.99474 0.990951
1.0055 0.994797 0.991322
1.00521 0.994762 0.99088
1.00541 0.994871 0.990497
1.0054 0.994846 0.990826
1.00538 0.994807 0.990489
1.0054 0.994845 0.990565
1.00534 0.994861 0.990867
1.00535 0.994842 0.990563
1.00534 0.99488 0.990781
1.00529 0.994904 0.991011
1.00536 0.994866 0.990718
1.00532 0.994873 0.990927
1.00532 0.994888 0.99113
1.00531 0.994847 0.990909
1.0053 0.995081 0.990858
1.00533 0.997335 0.988705
1.00529 0.995561 0.990354
1.00531 0.998185 0.987906
1.00532 1.00087 0.98525
1.00363 1.00093 0.987824
1.00533 1.00154 0.984472
1.00533 0.999582 0.986274
1.00243 1.00087 0.996014
1.00348 1.00169 0.987285
1.0052 1.00293 0.983285
1.00218 1.00148 0.995946
1.00323 1.00265 0.986615
1.00178 1.00206 0.995963
1.00534 0.996294 0.989035
1.00536 0.998479 0.986994
1.00546 1.00103 0.984838
1.00531 1.00132 0.984596
1.00546 1.00271 0.983186
1.00438 1.00379 0.983459
1.00542 1.00404 0.982457
1.00395 1.00358 0.984586
1.00227 1.00385 0.987047
1.00371 1.00367 0.985823
1.00164 1.00372 0.988275
1.00085 1.00202 0.996564
1.00093 1.00366 0.989588
1.00029 1.00121 0.997199
1.00001 0.999736 0.998007
1.00371 0.994955 0.992266
0.998768 0.994845 0.982948
0.996228 0.994794 0.959099
1.00535 0.994849 0.990326
1.00535 0.995265 0.989891
1.00529 0.994838 0.990813
1.00532 0.995347 0.990053
1.00533 0.996425 0.9888
1.00542 0.994768 0.990429
1.00526 0.995568 0.990146
1.00535 0.994919 0.990037
1.00534 0.994717 0.990849
1.00357 0.997239 0.991729
1.00521 0.994753 0.99077
1.00299 0.994613 0.993506
1.00157 0.994805 0.994369
0.999459 0.99461 0.988314
1.00545 0.994787 0.991489
1.00526 0.995042 0.989448
1.00361 0.995011 0.976705
1.00372 0.99489 0.99078
1.00539 0.994651 0.991036
1.00542 0.994736 0.990911
1.00554 0.994799 0.991433
1.00541 0.994817 0.991359
1.00542 0.99485 0.990514
1.0054 0.994842 0.990825
1.00535 0.994869 0.991128
1.00541 0.994842 0.99059
1.00534 0.994863 0.990868
1.00528 0.994909 0.991153
1.00534 0.994881 0.990778
1.0053 0.994904 0.991008
1.00525 0.994905 0.991321
1.00531 0.994874 0.990927
1.00532 0.994889 0.991093
1.00533 0.996396 0.98977
1.00529 0.995095 0.990766
1.00534 0.997381 0.988694
1.00532 1.00028 0.985928
1.0053 0.998056 0.988042
1.00533 1.00084 0.985279
1.00355 1.00076 0.99003
1.0028 0.999886 0.992353
1.00363 1.00097 0.98878
1.00534 1.0015 0.984502
1.00235 1.0008 0.996079
1.00345 1.00153 0.98734
1.00217 1.00143 0.995977
1.00529 0.994867 0.991061
1.0053 0.995342 0.9904
1.00532 0.99633 0.989267
1.0053 0.99946 0.986461
1.00534 0.998244 0.987288
1.0054 1.00102 0.984775
1.00508 1.00304 0.983243
1.00546 1.00275 0.983065
1.00478 1.00342 0.983422
1.00302 1.00311 0.986368
1.00436 1.00346 0.984581
1.00226 1.00384 0.987084
1.00152 1.00232 0.996028
1.00172 1.00378 0.988315
1.00071 1.00186 0.996746
0.999999 1.00102 0.997426
1.00537 0.994817 0.991278
1.00349 0.994938 0.991704
0.998784 0.995169 0.980424
1.00532 0.994815 0.99077
1.00534 0.994954 0.99027
1.00532 0.99514 0.990021
1.00529 0.994851 0.990831
1.00532 0.995535 0.990004
1.00537 0.994846 0.990842
1.0054 0.994762 0.99038
1.00533 0.995037 0.990038
1.00529 0.994728 0.990891
1.0052 0.994757 0.990411
1.00265 0.994519 0.993698
1.00536 0.994848 0.99141
1.00543 0.994799 0.99149
1.00538 0.994787 0.989452
1.00539 0.99472 0.990864
1.00558 0.994805 0.991542
1.00543 0.994832 0.991335
1.00535 0.994894 0.991391
1.0054 0.994844 0.990823
1.00535 0.994872 0.991088
1.00528 0.994922 0.991314
1.00535 0.994867 0.990868
1.00528 0.994909 0.991152
1.00516 0.994935 0.991538
1.0053 0.994905 0.991005
1.00527 0.994906 0.991298
1.00533 0.995718 0.990642
1.00532 0.99489 0.991056
1.00533 0.99643 0.989757
1.0053 0.999804 0.986507
1.00536 0.997425 0.988683
1.00531 1.00026 0.985963
1.00354 1.00058 0.990195
1.00534 1.0008 0.985309
1.0038 1.00061 0.989868
1.0028 0.999628 0.992475
1.00244 1.00022 0.994362
1.00383 1.00098 0.989522
1.00233 1.00068 0.996128
1.00529 0.994873 0.991027
1.00529 0.99508 0.990801
1.00528 0.994872 0.991093
1.00531 0.997987 0.987991
1.00529 0.995266 0.990521
1.00531 0.996392 0.989499
1.0053 0.999404 0.986442
1.00536 1.00168 0.984246
1.00537 1.00101 0.984713
1.00518 1.00296 0.983235
1.00342 1.00197 0.987014
1.00501 1.0033 0.98339
1.00301 1.00323 0.986442
1.00201 1.00183 0.995892
1.00225 1.00379 0.987125
1.0013 1.00207 0.996242
1.00049 1.00181 0.996878
1.00535 0.994877 0.991109
1.00534 0.994817 0.991336
1.00284 0.994762 0.991168
1.0053 0.994896 0.990961
1.00532 0.994815 0.990727
1.00534 0.995041 0.990216
1.0053 0.994858 0.990847
1.00539 0.994857 0.990807
1.00537 0.99476 0.990331
1.00527 0.994748 0.990928
1.00537 0.994891 0.991394
1.00536 0.99485 0.991373
1.0054 0.994807 0.991489
1.00533 0.994912 0.991457
1.00543 0.994848 0.991312
1.00535 0.994892 0.991381
1.00529 0.994929 0.991441
1.00535 0.994874 0.991047
1.00528 0.994922 0.991319
1.00512 0.994961 0.991697
1.00528 0.99491 0.991151
1.00518 0.994935 0.991529
1.00532 0.995301 0.991203
1.00529 0.994907 0.991275
1.00529 0.995751 0.99064
1.0053 0.999418 0.98693
1.00534 0.996459 0.989744
1.00529 0.999791 0.986542
1.0035 1.00051 0.990292
1.00531 1.00023 0.985998
1.00377 1.00047 0.990011
1.00272 0.999703 0.992484
1.00403 1.00045 0.989713
1.00227 0.999779 0.992877
1.00169 1.00058 0.996794
1.00526 0.994924 0.991094
1.00529 0.994884 0.991121
1.00528 0.994877 0.991043
1.00533 0.997346 0.988652
1.00531 0.994971 0.990902
1.00528 0.994877 0.991127
1.00536 1.00056 0.985445
1.00532 0.997905 0.987999
1.0053 0.995191 0.990643
1.00531 0.999348 0.986422
1.00535 1.00172 0.984212
1.00344 1.00118 0.987862
1.00537 1.00284 0.983212
1.00336 1.00204 0.986992
1.00212 1.00111 0.996088
1.00296 1.00326 0.986494
1.00194 1.00185 0.995903
1.00114 1.00197 0.996474
1.00532 0.994911 0.99126
1.00537 0.994871 0.991041
1.0053 0.994808 0.991399
1.0053 0.994898 0.990967
1.00533 0.994814 0.990685
1.0054 0.994863 0.990772
1.00533 0.994919 0.991445
1.00537 0.994895 0.991401
1.00536 0.994855 0.991336
1.00533 0.994912 0.991471
1.00527 0.994937 0.991599
1.00535 0.99489 0.991372
1.00528 0.994931 0.991473
1.00511 0.994955 0.991743
1.00528 0.994923 0.991324
1.00512 0.99496 0.991696
1.0053 0.995051 0.9915
1.0052 0.994936 0.991521
1.00528 0.995343 0.991199
1.00535 0.999058 0.98726
1.00525 0.995787 0.990638
1.00531 0.999405 0.986949
1.00342 1.00045 0.990428
1.00528 0.999776 0.986578
1.00372 1.00042 0.990096
1.00259 0.999871 0.992474
1.00398 1.00036 0.989835
1.00224 0.999758 0.992907
1.00175 0.99996 0.993266
1.00525 0.994933 0.991298
1.00522 0.994937 0.991339
1.00526 0.994921 0.991067
1.00529 0.996459 0.989791
1.0053 0.994894 0.991089
1.00528 0.994881 0.991057
1.0053 0.999919 0.986299
1.00533 0.996977 0.989049
1.00532 0.994893 0.991003
1.00354 1.0006 0.988333
1.00535 1.00062 0.985403
1.00532 0.99783 0.988009
1.00535 1.00175 0.984178
1.00347 1.00115 0.987818
1.00217 1.00062 0.996229
1.00332 1.00222 0.986983
1.00217 1.00123 0.996011
1.00184 1.00179 0.995982
1.00528 0.994932 0.99146
1.00532 0.994908 0.991219
1.00539 0.994863 0.990973
1.00529 0.994903 0.990972
1.00524 0.994948 0.991627
1.00533 0.994917 0.991448
1.00536 0.994896 0.991407
1.00532 0.994913 0.991486
1.00527 0.994935 0.991602
1.0051 0.99495 0.991886
1.00528 0.994934 0.991506
1.00511 0.994956 0.9918
1.00529 0.995016 0.991565
1.00513 0.99496 0.991695
1.00528 0.99511 0.991494
1.00539 0.998724 0.987567
1.00524 0.995398 0.991196
1.00537 0.999037 0.987259
1.00344 1.00038 0.988788
1.00533 0.999393 0.986968
1.00363 1.00041 0.989341
1.00221 0.999961 0.996233
1.00394 1.00035 0.989899
1.00216 0.999884 0.992898
1.00179 0.999801 0.993314
1.00523 0.99495 0.991455
1.00517 0.994946 0.991493
1.00525 0.994936 0.991334
1.00526 0.995614 0.990847
1.00521 0.994938 0.991301
1.00526 0.994919 0.99104
1.00526 0.998942 0.987494
1.00529 0.996429 0.989789
1.0053 0.994905 0.991057
1.00359 1.00032 0.988547
1.0053 0.999637 0.986588
1.00532 0.996577 0.989444
1.00225 1.00019 0.996301
1.00356 1.00056 0.988296
1.00533 1.00067 0.985359
1.0035 1.0011 0.987776
1.00222 1.00064 0.996189
1.0022 1.00129 0.995921
1.00523 0.994955 0.991541
1.00529 0.994935 0.991444
1.00531 0.994907 0.991179
1.00509 0.994954 0.991972
1.00524 0.994945 0.991598
1.00534 0.994916 0.991451
1.00527 0.994932 0.991606
1.0051 0.99495 0.991884
1.0053 0.995716 0.990887
1.00511 0.994958 0.991857
1.00529 0.995383 0.991224
1.0054 0.99783 0.988543
1.00527 0.99516 0.991487
1.0054 0.998705 0.987562
1.00339 1.00015 0.989101
1.0054 0.999019 0.987262
1.00348 1.00034 0.988796
1.0021 1.00002 0.996265
1.0037 1.00039 0.988437
1.00202 1.00001 0.994666
1.00172 0.999879 0.993321
1.0052 0.994952 0.991611
1.00513 0.994955 0.991711
1.00523 0.994948 0.991467
1.00526 0.995567 0.991007
1.00517 0.994948 0.991527
1.00525 0.994939 0.991369
1.00533 0.998585 0.987761
1.00527 0.995887 0.990483
1.00521 0.994938 0.991263
1.0036 1.00027 0.988606
1.00526 0.998863 0.987534
1.00529 0.996394 0.989786
1.00228 0.999966 0.996293
1.00359 1.00032 0.988528
1.0053 0.999348 0.98688
1.0023 1.00022 0.996277
1.00359 1.00052 0.98826
1.00223 1.0007 0.996157
1.0051 0.994956 0.991857
1.00522 0.994953 0.991572
1.0053 0.994937 0.991428
1.00532 0.995739 0.990848
1.00509 0.994952 0.991934
1.00524 0.994942 0.991569
1.0051 0.994949 0.991881
1.00529 0.995704 0.990885
1.00539 0.997717 0.988661
1.00528 0.995736 0.990882
1.0054 0.99815 0.988161
1.00335 0.999942 0.989378
1.00541 0.998683 0.987556
1.00339 1.00016 0.989109
1.00197 1.00002 0.996332
1.00349 1.00032 0.9888
1.00204 1.00004 0.996284
1.00212 1.00002 0.992737
1.00509 0.994955 0.991824
1.00519 0.99495 0.991544
1.00526 0.995455 0.991167
1.00513 0.994956 0.991714
1.00522 0.994946 0.99148
1.00535 0.999044 0.987202
1.00527 0.995484 0.991007
1.00516 0.994948 0.991561
1.00354 1.0003 0.988708
1.00532 0.9989 0.98741
1.00529 0.996169 0.99012
1.00223 0.99994 0.996259
1.00358 1.00031 0.988604
1.00525 0.998785 0.987577
1.00231 0.999987 0.9963
1.00359 1.00034 0.988505
1.00237 1.00023 0.99625
1.00531 0.995823 0.990724
1.0051 0.994956 0.99189
1.00521 0.994952 0.991603
1.00539 0.99777 0.988615
1.00531 0.995737 0.990844
1.00509 0.994949 0.991896
1.00529 0.995689 0.990883
1.0054 0.997694 0.98865
1.00329 0.999824 0.989603
1.00541 0.998478 0.987778
1.00335 0.999943 0.989383
1.00188 1 0.996407
1.0034 1.00016 0.989119
1.00192 1.00005 0.996366
1.002 1.00005 0.996312
1.00528 0.995354 0.991294
1.0051 0.994956 0.991796
1.00518 0.994949 0.991478
1.00536 0.998865 0.987395
1.00528 0.995388 0.991167
1.00513 0.994958 0.991717
1.00346 1.00026 0.98891
1.00534 0.999075 0.987206
1.00529 0.995401 0.991006
1.0021 0.999999 0.996253
1.00352 1.00033 0.988708
1.00531 0.999208 0.987058
1.00227 0.999943 0.996271
1.00356 1.00035 0.988598
1.00238 0.999979 0.996298
1.00539 0.998511 0.987761
1.00531 0.995516 0.991086
1.0051 0.994955 0.991922
1.00326 0.999758 0.98975
1.0054 0.997734 0.988622
1.0053 0.995733 0.99084
1.0054 0.997673 0.98864
1.00331 0.999797 0.989604
1.00181 0.999992 0.996453
1.00335 0.999945 0.989388
1.00185 1.00001 0.996419
1.00186 1.00007 0.996392
1.00538 0.998687 0.987598
1.00529 0.995319 0.991312
1.0051 0.994957 0.991768
1.00354 1.00012 0.990634
1.00535 0.998884 0.987402
1.00529 0.995321 0.991167
1.00198 1.00005 0.996292
1.00343 1.00029 0.988911
1.00533 0.999105 0.987212
1.00216 0.999988 0.996256
1.0035 1.00037 0.988708
1.00232 0.999934 0.996284
1.00339 0.999763 0.989594
1.00538 0.998196 0.988128
1.0053 0.995214 0.991448
1.00173 0.999975 0.996515
1.00326 0.999739 0.98974
1.00541 0.997702 0.988631
1.00332 0.999769 0.989602
1.00178 0.999983 0.996474
1.00182 1.00003 0.996437
1.00359 0.99994 0.990802
1.00537 0.998693 0.987604
1.0053 0.995283 0.99133
1.00131 1.00009 0.997022
1.00336 1.00014 0.989177
1.00534 0.998901 0.987412
1.00201 1.00004 0.996284
1.00341 1.00033 0.98891
1.00221 0.999974 0.996257
1.00173 0.99989 0.993441
1.00341 0.999787 0.990321
1.00537 0.997872 0.988492
1.00175 0.999974 0.996521
1.00327 0.999727 0.989737
1.0018 0.999975 0.99649
1.00113 1.00004 0.99397
1.00346 0.999902 0.990125
1.00535 0.998703 0.987609
1.00157 1.00006 0.99508
1.00333 1.00015 0.989201
1.00206 1.00003 0.996279
1.00175 0.999969 0.996511
1.00325 0.999787 0.989704
1.00172 0.999967 0.996518
1.00149 0.999958 0.995236
1.00331 0.999894 0.989506
1.00191 1.00005 0.996335
1.00176 0.999986 0.996503
1.0018 1.00001 0.996426

TENSORS stress float
0.00271167 -0.000192829 0.000315134
-0.000192829 0.00143197 -5.92844e-05
0.000315134 -5.92844e-05 0.00140334
0.00824124 0.000179855 0.000388554
0.000179855 0.00503053 5.06059e-05
0.000388554 5.06059e-05 0.00504816
0.00229866 -0.000122214 0.000124282
-0.000122214 0.00115745 -2.24625e-05
0.000124282 -2.24625e-05 0.00111338
0.00250387 -0.000107221 0.000294353
-0.000107221 0.00128121 -3.33651e-05
0.000294353 -3.33651e-05 0.00126514
0.00267241 -0.000167343 0.000305086
-0.000167343 0.00139983 -5.14336e-05
0.000305086 -5.14336e-05 0.0013753
0.00280967 -0.000202737 0.000329781
-0.000202737 0.00149403 -6.2636e-05
0.000329781 -6.2636e-05 0.00146586
0.00219596 -0.000233655 6.29232e-05
-0.000233655 0.00092464 -1.63573e-05
6.29232e-05 -1.63573e-05 0.000769344
0.0084046 0.000172939 -9.91897e-06
0.000172939 0.00512713 -3.51385e-06
-9.91897e-06 -3.51385e-06 0.00514882
0.00732861 0.000284604 0.000189893
0.000284604 0.00446059 2.21816e-05
0.000189893 2.21816e-05 0.00442542
0.00770785 9.94223e-05 0.000132361
9.94223e-05 0.00465854 9.63071e-06
0.000132361 9.63071e-06 0.00463731
0.00206256 0.00026782 0.000350717
0.00026782 0.00103769 5.57032e-05
0.000350717 5.57032e-05 0.00101441
0.000257132 0.00030399 2.58111e-05
0.00030399 -0.000260779 2.35158e-05
2.58111e-05 2.35158e-05 -0.000457641
0.00201808 -2.81424e-05 0.000282275
-2.81424e-05 0.000963966 5.74724e-06
0.000282275 5.74724e-06 0.00097048
0.00177772 9.0477e-06 8.08604e-05
9.0477e-06 0.000834483 3.50817e-06
8.08604e-05 3.50817e-06 0.000781456
0.00196105 -0.000119711 -7.83672e-05
-0.000119711 0.000953594 1.50879e-05
-7.83672e-05 1.50879e-05 0.000884233
0.00215281 -0.000104525 9.43647e-05
-0.000104525 0.00107373 -6.48968e-06
9.43647e-05 -6.48968e-06 0.00103382
0.00237182 -0.000115493 0.000137114
-0.000115493 0.00120652 -2.56286e-05
0.000137114 -2.56286e-05 0.00116013
0.00225833 -0.000122965 0.000111143
-0.000122965 0.00113302 -1.66125e-05
0.000111143 -1.66125e-05 0.00109093
0.00232191 -0.000270176 -4.87656e-05
-0.000270176 0.00100783 8.54107e-06
-4.87656e-05 8.54107e-06 0.000862728
0.00677326 -0.000174859 0.000376947
-0.000174859 0.00410449 -2.00338e-05
0.000376947 -2.00338e-05 0.0041327
0.00236413 -8.0973e-05 0.000286812
-8.0973e-05 0.00119227 -2.50999e-05
0.000286812 -2.50999e-05 0.00118031
0.00259762 -0.000136591 0.00029853
-0.000136591 0.00134558 -4.2392e-05
0.00029853 -4.2392e-05 0.00132559
0.00210176 -0.000179774 7.77936e-05
-0.000179774 0.000901252 -1.30452e-05
7.77936e-05 -1.30452e-05 0.000784162
0.00217419 -0.000222977 7.00745e-05
-0.000222977 0.00091595 -1.58839e-05
7.00745e-05 -1.58839e-05 0.000776448
0.00271548 -0.000184933 0.000336259
-0.000184933 0.00142777 -6.02752e-05
0.000336259 -6.02752e-05 0.00140352
0.00222752 -0.0002437 5.9818e-05
-0.0002437 0.000953268 -1.73263e-05
5.9818e-05 -1.73263e-05 0.000777766
0.00218529 -0.000476568 1.70291e-05
-0.000476568 0.000587639 -6.47094e-06
1.70291e-05 -6.47094e-06 0.000292405
0.00848542 0.000172929 -0.000419879
0.000172929 0.00516762 -4.36581e-05
-0.000419879 -4.36581e-05 0.00519722
0.00488479 0.000208542 -0.000169448
0.000208542 0.00285312 -2.14635e-05
-0.000169448 -2.14635e-05 0.00282718
0.00506568 0.000151924 -0.000179505
0.000151924 0.00296496 -2.26531e-05
-0.000179505 -2.26531e-05 0.00294245
0.00875611 0.000114649 -3.69542e-06
0.000114649 0.00535646 -2.22119e-06
-3.69542e-06 -2.22119e-06 0.00537957
0.00025278 0.000290639 -1.41408e-06
0.000290639 -0.000255621 -1.14327e-06
-1.41408e-06 -1.14327e-06 -0.000450131
0.00218088 8.35584e-05 0.00029646
8.35584e-05 0.00106734 3.08508e-05
0.00029646 3.08508e-05 0.00105754
0.00229263 0.000175753 0.00030956
0.000175753 0.00116764 4.85151e-05
0.00030956 4.85151e-05 0.00114374
0.00303677 0.000274911 0.000179758
0.000274911 0.00147656 2.83625e-05
0.000179758 2.83625e-05 0.00136589
0.00828584 -0.000200781 6.629e-05
-0.000200781 0.00510334 4.15588e-06
6.629e-05 4.15588e-06 0.00505798
0.00322242 0.000379779 0.000197131
0.000379779 0.00164685 3.78046e-05
0.000197131 3.78046e-05 0.00150396
0.00019378 0.000276856 2.63095e-05
0.000276856 -0.000281032 3.27367e-05
2.63095e-05 3.27367e-05 -0.000479151
0.00139501 0.000501277 3.03857e-05
0.000501277 0.00020726 5.59586e-06
3.03857e-05 5.59586e-06 -0.00015669
0.00655976 -9.31186e-05 0.000251741
-9.31186e-05 0.00404896 3.32193e-05
0.000251741 3.32193e-05 0.00404123
0.0066901 9.2694e-05 2.90699e-06
9.2694e-05 0.00403401 -2.217e-06
2.90699e-06 -2.217e-06 0.00407194
0.00441938 0.000107491 -0.000142209
0.000107491 0.00255174 -7.10062e-06
-0.000142209 -7.10062e-06 0.0025421
0.00656039 5.73207e-05 0.00036489
5.73207e-05 0.00395179 5.315e-06
0.00036489 5.315e-06 0.00399107
0.00166791 9.32119e-05 8.28084e-05
9.32119e-05 0.00076794 6.6715e-06
8.28084e-05 6.6715e-06 0.000718826
0.000418808 1.70572e-05 1.23104e-05
1.70572e-05 -0.000194591 2.8244e-06
1.23104e-05 2.8244e-06 -0.000292657
0.00693908 0.000255564 0.000212532
0.000255564 0.00423101 2.20411e-05
0.000212532 2.20411e-05 0.00420416
0.0029872 0.000104174 0.000164124
0.000104174 0.00145077 1.24592e-05
0.000164124 1.24592e-05 0.00138454
0.0017869 -0.000105382 -9.67191e-05
-0.000105382 0.000857352 1.3609e-05
-9.67191e-05 1.3609e-05 0.00079305
0.00184052 -0.000137887 -9.04321e-05
-0.000137887 0.00088983 1.72856e-05
-9.04321e-05 1.72856e-05 0.000818355
0.00204553 -8.46577e-05 -6.64533e-05
-8.46577e-05 0.000996936 1.26771e-05
-6.64533e-05 1.26771e-05 0.000929672
0.0024041 -0.000271399 -0.000167535
-0.000271399 0.00104978 3.33625e-05
-0.000167535 3.33625e-05 0.000920104
0.00428735 -4.48498e-05 -0.000145124
-4.48498e-05 0.00247406 -7.77877e-07
-0.000145124 -7.77877e-07 0.00246514
0.00207363 -8.30022e-05 9.70825e-05
-8.30022e-05 0.00102038 -5.01488e-06
9.70825e-05 -5.01488e-06 0.000985857
0.00252844 -9.09192e-05 0.000141471
-9.09192e-05 0.00130413 -2.43695e-05
0.000141471 -2.43695e-05 0.00125664
0.00220517 -0.000113435 0.000101095
-0.000113435 0.00110293 -1.07792e-05
0.000101095 -1.07792e-05 0.00106216
0.0021843 -0.000157187 -3.98338e-05
-0.000157187 0.000940157 3.57144e-06
-3.98338e-05 3.57144e-06 0.000838606
0.00234876 -0.000291503 -5.62558e-05
-0.000291503 0.00103149 9.98595e-06
-5.62558e-05 9.98595e-06 0.000867913
0.00226385 -0.000237018 -4.335e-05
-0.000237018 0.000971541 6.34936e-06
-4.335e-05 6.34936e-06 0.000843297
0.00232444 -0.000487657 -1.03365e-05
-0.000487657 0.000677506 2.78747e-06
-1.03365e-05 2.78747e-06 0.000382721
0.00658367 -2.07278e-05 0.000363309
-2.07278e-05 0.00396333 -5.44073e-06
0.000363309 -5.44073e-06 0.00400395
0.00227686 -5.42082e-05 0.000280628
-5.42082e-05 0.00113834 -1.77512e-05
0.000280628 -1.77512e-05 0.00113164
0.00253408 -3.18793e-05 6.07822e-05
-3.18793e-05 0.00119988 -1.37159e-06
6.07822e-05 -1.37159e-06 0.00112309
0.00201216 -0.00014159 6.98309e-05
-0.00014159 0.000848117 -8.7066e-06
6.98309e-05 -8.7066e-06 0.000744361
0.00212863 -0.000201161 7.5033e-05
-0.000201161 0.000902251 -1.49475e-05
7.5033e-05 -1.49475e-05 0.000775285
0.00202981 -0.000293317 1.93577e-06
-0.000293317 0.000414971 -1.75255e-06
1.93577e-06 -1.75255e-06 0.000223127
0.00210043 -0.000421122 1.214e-05
-0.000421122 0.000480013 -3.62308e-06
1.214e-05 -3.62308e-06 0.00023093
0.00282211 -0.000155063 0.000341955
-0.000155063 0.00148931 -5.54113e-05
0.000341955 -5.54113e-05 0.00146528
0.0022293 -0.000201326 5.14074e-05
-0.000201326 0.000992195 -1.59203e-05
5.14074e-05 -1.59203e-05 0.000810462
0.00213261 -0.000533353 2.01654e-05
-0.000533353 0.000588189 -6.40851e-06
2.01654e-05 -6.40851e-06 0.000244979
0.00214166 -0.000639275 1.21012e-06
-0.000639275 0.000302092 2.75279e-06
1.21012e-06 2.75279e-06 -3.11079e-05
0.0078229 0.000339764 -0.00042507
0.000339764 0.00477459 -5.4971e-05
-0.00042507 -5.4971e-05 0.00478511
0.00864679 7.56215e-05 -0.000380942
7.56215e-05 0.00528822 -3.67897e-05
-0.000380942 -3.67897e-05 0.00531109
0.0080824 0.000231559 -0.000405474
0.000231559 0.0049129 -4.71359e-05
-0.000405474 -4.71359e-05 0.00493732
0.000169356 0.000271443 -2.5499e-05
0.000271443 -0.000301227 -2.33091e-05
-2.5499e-05 -2.33091e-05 -0.000494568
0.00748177 0.000281307 -2.05606e-06
0.000281307 0.00454828 -2.8166e-06
-2.05606e-06 -2.8166e-06 0.00456663
0.00788148 0.000309952 -7.98988e-06
0.000309952 0.00480023 -4.02788e-06
-7.98988e-06 -4.02788e-06 0.00481326
0.00036365 0.000184278 1.54056e-07
0.000184278 -0.000269476 -2.98673e-07
1.54056e-07 -2.98673e-07 -0.000422394
0.0047453 -3.57663e-06 -0.000168049
-3.57663e-06 0.00280458 -1.23206e-05
-0.000168049 -1.23206e-05 0.00277138
0.000317611 0.00026932 1.90113e-06
0.00026932 -0.000246811 -4.05121e-07
1.90113e-06 -4.05121e-07 -0.000432128
0.00204935 0.000320251 8.52993e-05
0.000320251 0.000923527 5.85089e-06
8.52993e-05 5.85089e-06 0.000757139
0.00130162 0.000507388 9.97868e-07
0.000507388 0.00012894 3.24414e-07
9.97868e-07 3.24414e-07 -0.000240445
0.00736148 -4.84674e-05 0.000309529
-4.84674e-05 0.00454358 4.00965e-05
0.000309529 4.00965e-05 0.0045432
0.000442849 0.000194488 3.26885e-05
0.000194488 -7.8082e-05 1.74165e-05
3.26885e-05 1.74165e-05 -0.000194052
0.000456628 0.000145436 1.37614e-05
0.000145436 -0.000215655 1.21941e-05
1.37614e-05 1.21941e-05 -0.000354256
0.000450997 0.000219109 1.81217e-05
0.000219109 -0.000203955 2.06136e-05
1.81217e-05 2.06136e-05 -0.000370413
0.00157643 0.000404626 1.24917e-05
0.000404626 7.69022e-05 3.8986e-06
1.24917e-05 3.8986e-06 -0.000181437
0.00371778 0.000333779 0.000198182
0.000333779 0.00203747 3.58218e-05
0.000198182 3.58218e-05 0.00190915
0.00149572 0.000492582 2.54758e-05
0.000492582 0.00015758 6.1308e-06
2.54758e-05 6.1308e-06 -0.000175226
0.000745721 0.000442677 2.79597e-05
0.000442677 -0.000104745 5.09392e-06
2.79597e-05 5.09392e-06 -0.000475141
0.00191576 0.000738639 7.70292e-06
0.000738639 0.000327347 -6.27513e-06
7.70292e-06 -6.27513e-06 -0.000126032
0.00544211 -0.00014771 0.000178388
-0.00014771 0.00332254 2.08848e-05
0.000178388 2.08848e-05 0.00330736
0.00608721 -0.000151262 1.01754e-05
-0.000151262 0.00374373 3.76498e-06
1.01754e-05 3.76498e-06 0.00372683
0.00718684 8.76109e-05 -0.000386875
8.76109e-05 0.00433851 -2.22399e-05
-0.000386875 -2.22399e-05 0.00437468
0.00679401 8.49384e-05 -0.000377013
8.49384e-05 0.00409647 -1.36546e-05
-0.000377013 -1.36546e-05 0.00413586
0.0066471 8.37473e-05 -2.84257e-07
8.37473e-05 0.00401211 -4.58188e-06
-2.84257e-07 -4.58188e-06 0.00404908
0.00427906 4.93544e-05 -0.000153005
4.93544e-05 0.00245942 -9.04375e-06
-0.000153005 -9.04375e-06 0.00245595
0.00154426 4.64322e-05 7.26209e-05
4.64322e-05 0.000537447 2.38207e-06
7.26209e-05 2.38207e-06 0.000461203
0.00463177 0.000171833 -0.000146885
0.000171833 0.00269515 -9.66889e-06
-0.000146885 -9.66889e-06 0.00267613
0.00164952 0.000116922 7.40007e-05
0.000116922 0.000581451 4.28812e-06
7.40007e-05 4.28812e-06 0.000488171
0.00661698 0.000106652 0.000369414
0.000106652 0.00399969 7.28525e-06
0.000369414 7.28525e-06 0.00403272
0.000285275 1.05103e-05 1.57961e-05
1.05103e-05 -0.000272821 1.64615e-06
1.57961e-05 1.64615e-06 -0.000366473
0.00293014 5.8358e-05 0.000162412
5.8358e-05 0.00142647 8.67166e-06
0.000162412 8.67166e-06 0.00136966
0.00135663 9.65194e-05 3.17919e-06
9.65194e-05 -6.34327e-05 9.14928e-07
3.17919e-06 9.14928e-07 -0.000194783
0.00291145 0.000160988 0.000170547
0.000160988 0.00139215 1.62365e-05
0.000170547 1.62365e-05 0.00131295
0.00148016 0.000204907 1.79075e-06
0.000204907 -1.40028e-05 9.52702e-07
1.79075e-06 9.52702e-07 -0.000176129
0.00204518 3.45748e-05 -0.000283307
3.45748e-05 0.00097601 5.15554e-06
-0.000283307 5.15554e-06 0.000985796
0.00174587 -3.43785e-05 -8.26058e-05
-3.43785e-05 0.00082013 5.03446e-06
-8.26058e-05 5.03446e-06 0.000764962
0.00213321 -5.38554e-05 -6.07255e-05
-5.38554e-05 0.00104783 1.15289e-05
-6.07255e-05 1.15289e-05 0.000980543
0.00178577 -0.000123277 -9.79884e-05
-0.000123277 0.000857402 1.64457e-05
-9.79884e-05 1.64457e-05 0.000790003
0.00229192 -0.000134086 -0.000152323
-0.000134086 0.000996128 1.61356e-05
-0.000152323 1.61356e-05 0.000910124
0.00237926 -0.000222757 -0.000160392
-0.000222757 0.00103158 2.75622e-05
-0.000160392 2.75622e-05 0.000920192
0.0024939 -0.000318812 -0.000177578
-0.000318812 0.00112715 3.67987e-05
-0.000177578 3.67987e-05 0.000974869
0.00247507 -0.000501385 -3.46366e-05
-0.000501385 0.000775019 1.09795e-05
-3.46366e-05 1.09795e-05 0.000479913
0.00667631 -0.000126545 2.65853e-06
-0.000126545 0.00403937 -2.17837e-06
2.65853e-06 -2.17837e-06 0.00407083
0.00196665 1.06657e-05 0.000103743
1.06657e-05 0.000939306 -6.03646e-06
0.000103743 -6.03646e-06 0.000917105
0.00121917 -2.32127e-05 -7.6392e-05
-2.32127e-05 0.000329498 3.18864e-06
-7.6392e-05 3.18864e-06 0.000253517
0.00210197 -0.000106408 -4.16747e-05
-0.000106408 0.000895527 4.03445e-06
-4.16747e-05 4.03445e-06 0.000805677
0.00588656 -0.000140183 0.000338262
-0.000140183 0.00349013 -3.41818e-05
0.000338262 -3.41818e-05 0.00348777
0.00289472 -0.000294717 -5.29703e-05
-0.000294717 0.00142719 6.44473e-06
-5.29703e-05 6.44473e-06 0.00126168
0.00222351 -0.000196365 -4.00531e-05
-0.000196365 0.000954381 4.69385e-06
-4.00531e-05 4.69385e-06 0.000841261
0.00216606 -0.000297894 -8.80091e-06
-0.000297894 0.000503628 2.0531e-06
-8.80091e-06 2.0531e-06 0.000318665
0.0023895 -0.000560166 -8.54937e-06
-0.000560166 0.000769294 2.67202e-06
-8.54937e-06 2.67202e-06 0.000422139
0.00221394 -0.000428296 -1.05317e-05
-0.000428296 0.00055816 3.07347e-06
-1.05317e-05 3.07347e-06 0.000304855
0.00216927 -0.000641322 1.03764e-06
-0.000641322 0.000324702 -8.40278e-08
1.03764e-06 -8.40278e-08 -8.83794e-06
0.000302691 2.57343e-06 1.66825e-05
2.57343e-06 -0.000267253 -1.04215e-07
1.66825e-05 -1.04215e-07 -0.000358185
0.00192868 -3.04304e-05 6.16004e-05
-3.04304e-05 0.000789188 -3.28474e-06
6.16004e-05 -3.28474e-06 0.000704405
0.00207869 -0.000108826 8.17002e-07
-0.000108826 0.00044123 2.38206e-07
8.17002e-07 2.38206e-07 0.000325307
0.00206712 -0.000237966 -5.81906e-08
-0.000237966 0.000444341 -4.23348e-07
-5.81906e-08 -4.23348e-07 0.000287793
0.00222315 -0.000363299 7.25226e-06
-0.000363299 0.000540603 -1.7679e-06
7.25226e-06 -1.7679e-06 0.000330505
0.00211888 -0.000413919 8.43243e-07
-0.000413919 0.000105781 -2.24172e-07
8.43243e-07 -2.24172e-07 -6.74364e-05
0.00817537 -2.07009e-05 0.000327396
-2.07009e-05 0.00500921 -3.29904e-05
0.000327396 -3.29904e-05 0.00502048
0.00204 -0.000576627 2.16173e-06
-0.000576627 0.00016105 1.76096e-06
2.16173e-06 1.76096e-06 -0.00011912
0.000463352 -0.000261704 2.29365e-05
-0.000261704 -0.000141171 -2.91438e-05
2.29365e-05 -2.91438e-05 -0.000323669
0.00118088 -0.000525533 1.76242e-05
-0.000525533 4.84648e-05 -5.56515e-06
1.76242e-05 -5.56515e-06 -0.000349491
0.00231964 -0.000710256 -1.02099e-06
-0.000710256 0.000491562 3.8588e-06
-1.02099e-06 3.8588e-06 9.74862e-05
0.00221054 -0.000706512 1.28221e-06
-0.000706512 0.000254711 3.02647e-06
1.28221e-06 3.02647e-06 -5.0559e-05
0.000282916 -0.000206436 2.10988e-05
-0.000206436 -0.000187999 -2.52438e-05
2.10988e-05 -2.52438e-05 -0.000347805
0.00157386 -0.000241765 -1.25696e-06
-0.000241765 0.000667671 -4.25585e-06
-1.25696e-06 -4.25585e-06 0.00036756
0.00762052 0.000309163 -0.000422901
0.000309163 0.00464352 -4.90843e-05
-0.000422901 -4.90843e-05 0.00465866
0.0080373 0.000309537 -0.000423146
0.000309537 0.00489911 -5.42044e-05
-0.000423146 -5.42044e-05 0.00491627
0.000334638 0.000184876 -1.73844e-05
0.000184876 -0.000289251 -1.48805e-05
-1.73844e-05 -1.48805e-05 -0.000443828
0.00792201 -1.53338e-05 -0.000316939
-1.53338e-05 0.00486262 -2.95114e-05
-0.000316939 -2.95114e-05 0.00487497
0.000158488 0.000251148 -2.48179e-05
0.000251148 -0.000303035 -2.62629e-05
-2.48179e-05 -2.62629e-05 -0.000483015
0.000283705 0.000259692 -2.13301e-05
0.000259692 -0.00026759 -2.20784e-05
-2.13301e-05 -2.20784e-05 -0.000453553
0.00129629 0.000516516 -3.38948e-05
0.000516516 0.000111575 -6.27662e-06
-3.38948e-05 -6.27662e-06 -0.000262941
0.00726431 -5.22085e-05 -1.10134e-05
-5.22085e-05 0.00447452 1.53902e-06
-1.10134e-05 1.53902e-06 0.00447661
0.000735254 0.000168932 2.25746e-06
0.000168932 0.000108481 3.77855e-07
2.25746e-06 3.77855e-07 -3.59339e-06
0.0017514 0.000195395 7.818e-05
0.000195395 0.000629878 7.74875e-06
7.818e-05 7.74875e-06 0.000509932
0.00180034 0.000277382 8.30554e-05
0.000277382 0.000683971 9.88149e-06
8.30554e-05 9.88149e-06 0.000534844
0.00154198 0.000402045 -1.56887e-07
0.000402045 6.19699e-05 -3.95592e-07
-1.56887e-07 -3.95592e-07 -0.000197392
5.28782e-05 0.000240619 -2.94447e-07
0.000240619 -0.000342593 -3.13736e-07
-2.94447e-07 -3.13736e-07 -0.000511472
0.00145391 0.000488511 5.3659e-07
0.000488511 0.000130839 -1.07058e-08
5.3659e-07 -1.07058e-08 -0.000202362
0.000948191 0.000445357 4.3123e-06
0.000445357 1.4893e-05 -1.73725e-06
4.3123e-06 -1.73725e-06 -0.000349958
0.00195602 0.000749724 -1.9369e-06
0.000749724 0.000349899 1.03492e-07
-1.9369e-06 1.03492e-07 -0.000102295
0.000438793 0.000226775 2.30766e-05
0.000226775 -9.48667e-05 2.35239e-05
2.30766e-05 2.35239e-05 -0.000234982
0.00077807 0.000106013 1.66102e-05
0.000106013 0.000178529 1.84635e-05
1.66102e-05 1.84635e-05 7.19626e-05
7.44278e-05 0.000329962 2.48269e-06
0.000329962 -0.000246783 -5.9e-07
2.48269e-06 -5.9e-07 -0.000528072
0.00152207 0.000337848 8.36182e-06
0.000337848 1.57735e-05 2.80824e-06
8.36182e-06 2.80824e-06 -0.00020467
0.00157375 0.000458252 1.86466e-05
0.000458252 0.000126393 5.4325e-06
1.86466e-05 5.4325e-06 -0.000170729
0.00232542 0.000611077 3.83178e-06
0.000611077 0.000323192 -1.91279e-06
3.83178e-06 -1.91279e-06 4.39524e-05
0.000391476 0.00035046 1.13652e-05
0.00035046 -0.000195335 5.68449e-06
1.13652e-05 5.68449e-06 -0.000530491
0.00229784 0.000753747 2.21607e-06
0.000753747 0.000478065 -5.4085e-06
2.21607e-06 -5.4085e-06 8.13739e-05
0.00216255 0.000845688 4.39468e-06
0.000845688 0.000664692 -9.36647e-06
4.39468e-06 -9.36647e-06 0.000111374
0.0019252 0.000779796 -1.11572e-05
0.000779796 0.000219531 -1.02796e-05
-1.11572e-05 -1.02796e-05 -0.000207465
0.00465947 -0.00015353 0.00011312
-0.00015353 0.00279164 1.17919e-05
0.00011312 1.17919e-05 0.00277753
0.00518356 -0.000183456 1.55325e-05
-0.000183456 0.00314862 2.59285e-07
1.55325e-05 2.59285e-07 0.00312573
0.00574318 -0.000196112 -0.000147806
-0.000196112 0.00351617 -1.35224e-05
-0.000147806 -1.35224e-05 0.00349018
0.000530768 -0.000219207 2.44106e-05
-0.000219207 -1.06445e-05 -2.10526e-05
2.44106e-05 -2.10526e-05 -0.00014727
0.00715491 3.74037e-05 0.00027373
3.74037e-05 0.00439013 -2.99606e-05
0.00027373 -2.99606e-05 0.00439279
0.00743079 0.000250097 -0.000415186
0.000250097 0.0045135 -3.95438e-05
-0.000415186 -3.95438e-05 0.00453758
0.00690496 0.000115902 -0.000378928
0.000115902 0.00416513 -1.91968e-05
-0.000378928 -1.91968e-05 0.00420164
0.00029212 0.000118549 -1.57377e-05
0.000118549 -0.000302682 -7.34428e-06
-1.57377e-05 -7.34428e-06 -0.000418853
0.000252379 4.90227e-05 -1.5752e-05
4.90227e-05 -0.000300948 -3.70992e-06
-1.5752e-05 -3.70992e-06 -0.000400275
0.00659247 -1.05496e-06 -0.000362757
-1.05496e-06 0.00396828 -3.97224e-06
-0.000362757 -3.97224e-06 0.00400875
0.00654375 -5.30884e-06 1.63553e-07
-5.30884e-06 0.00393775 -1.36268e-06
1.63553e-07 -1.36268e-06 0.00397863
0.000257514 2.56113e-06 -1.95729e-07
2.56113e-06 -0.000294251 1.94213e-07
-1.95729e-07 1.94213e-07 -0.000386318
0.00157521 5.68175e-05 7.35384e-05
5.68175e-05 0.000544023 3.6811e-06
7.35384e-05 3.6811e-06 0.000463033
0.00135697 9.99e-05 5.86939e-08
9.99e-05 -5.85512e-05 9.53115e-09
5.86939e-08 9.53115e-09 -0.000190704
0.00035209 0.000118315 -9.01986e-07
0.000118315 -0.000273308 -4.36805e-07
-9.01986e-07 -4.36805e-07 -0.000400744
0.00142567 0.00020433 -2.22091e-07
0.00020433 -3.66346e-05 -1.40258e-07
-2.22091e-07 -1.40258e-07 -0.000200071
0.000249274 -3.36391e-05 1.65526e-05
-3.36391e-05 -0.000299948 -2.17393e-07
1.65526e-05 -2.17393e-07 -0.000389317
0.00131232 4.30087e-05 2.65892e-06
4.30087e-05 -7.53269e-05 6.54716e-07
2.65892e-06 6.54716e-07 -0.000200085
0.00139465 0.000152322 2.28945e-06
0.000152322 -5.47705e-05 1.00635e-06
2.28945e-06 1.00635e-06 -0.000198939
0.00219368 0.000153381 1.29089e-06
0.000153381 8.90944e-05 9.28888e-07
1.29089e-06 9.28888e-07 2.55812e-05
0.00150847 0.000270079 4.82845e-06
0.000270079 3.81971e-06 1.85125e-06
4.82845e-06 1.85125e-06 -0.000184169
0.00220119 0.00033627 2.52403e-06
0.00033627 0.000115337 3.08829e-07
2.52403e-06 3.08829e-07 1.87728e-06
0.00658261 -8.90027e-05 -0.000367257
-8.90027e-05 0.00397295 6.10312e-06
-0.000367257 6.10312e-06 0.00400808
0.00163814 -0.000169827 -8.24447e-05
-0.000169827 0.000774878 1.12663e-05
-8.24447e-05 1.12663e-05 0.00071104
-0.000210604 -1.24381e-05 -7.97582e-06
-1.24381e-05 -0.000597027 1.27392e-06
-7.97582e-06 1.27392e-06 -0.000703059
0.00221808 -9.64524e-05 -0.0001476
-9.64524e-05 0.000962416 1.13529e-05
-0.0001476 1.13529e-05 0.000885497
0.00883793 0.000144238 -8.69351e-05
0.000144238 0.0053961 4.13999e-06
-8.69351e-05 4.13999e-06 0.00535886
0.00314107 -0.00035157 -0.000180035
-0.00035157 0.00159576 3.77282e-05
-0.000180035 3.77282e-05 0.00144196
0.0023484 -0.000176307 -0.000155733
-0.000176307 0.00101963 2.15174e-05
-0.000155733 2.15174e-05 0.00092295
0.00228989 -0.000301467 -2.20603e-05
-0.000301467 0.000584406 4.50274e-06
-2.20603e-05 4.50274e-06 0.000406538
0.00229705 -0.000433626 -2.98688e-05
-0.000433626 0.00061451 9.6143e-06
-2.98688e-05 9.6143e-06 0.00035739
0.00252608 -0.000573962 -3.95005e-05
-0.000573962 0.00086927 1.21472e-05
-3.95005e-05 1.21472e-05 0.000521553
0.00217148 -0.00063964 1.96846e-07
-0.00063964 0.0003337 -2.73676e-06
1.96846e-07 -2.73676e-06 7.82174e-07
0.000253969 -8.21107e-07 4.6334e-08
-8.21107e-07 -0.00029644 3.85288e-07
4.6334e-08 3.85288e-07 -0.000388156
0.00205093 -0.000108351 -4.01199e-05
-0.000108351 0.000878742 8.92903e-07
-4.01199e-05 8.92903e-07 0.000795897
0.00176085 -0.000104927 -1.44057e-05
-0.000104927 0.000226269 9.9335e-07
-1.44057e-05 9.9335e-07 0.000107197
0.00204287 -0.000234818 -1.31038e-05
-0.000234818 0.000421057 2.15022e-06
-1.31038e-05 2.15022e-06 0.000259378
0.00853507 -3.21507e-05 5.53561e-06
-3.21507e-05 0.00523843 -5.95107e-07
5.53561e-06 -5.95107e-07 0.00525145
0.00168467 -0.000252245 9.87963e-06
-0.000252245 0.000672485 4.63585e-07
9.87963e-06 4.63585e-07 0.000485885
0.00185767 -0.000548804 1.49578e-06
-0.000548804 0.000499731 -1.83373e-06
1.49578e-06 -1.83373e-06 0.00011386
0.00222034 -0.00036741 -1.07085e-05
-0.00036741 0.000533818 3.05192e-06
-1.07085e-05 3.05192e-06 0.000321974
0.00224355 -0.000425208 2.59995e-06
-0.000425208 0.000187407 -1.01721e-06
2.59995e-06 -1.01721e-06 2.31238e-05
0.00225375 -0.000705278 1.64875e-06
-0.000705278 0.000447947 -1.04569e-07
1.64875e-06 -1.04569e-07 5.61086e-05
0.00219386 -0.000582234 2.25773e-07
-0.000582234 0.000272408 -1.44174e-07
2.25773e-07 -1.44174e-07 -1.05328e-05
0.00224227 -0.000708674 5.74075e-07
-0.000708674 0.000279765 4.72169e-07
5.74075e-07 4.72169e-07 -2.65088e-05
0.00035421 -0.000231027 2.09412e-06
-0.000231027 -0.000154624 6.08298e-07
2.09412e-06 6.08298e-07 -0.000311568
0.00062522 -0.000257587 -8.3073e-07
-0.000257587 9.04668e-05 2.25656e-07
-8.3073e-07 2.25656e-07 -0.000225493
0.00130904 -5.19851e-05 3.06342e-06
-5.19851e-05 -6.03389e-05 2.00784e-09
3.06342e-06 2.00784e-09 -0.000187639
0.00213971 -0.000172197 -6.33223e-07
-0.000172197 0.000483838 1.70861e-07
-6.33223e-07 1.70861e-07 0.000351885
0.00209479 -0.000169709 1.345e-06
-0.000169709 3.78316e-05 -7.26437e-07
1.345e-06 -7.26437e-07 -4.71691e-05
0.00226504 -0.000353279 -3.32353e-07
-0.000353279 0.000165393 4.34995e-07
-3.32353e-07 4.34995e-07 5.0185e-05
0.00216701 -0.00050937 -1.15423e-06
-0.00050937 0.00018564 7.56175e-07
-1.15423e-06 7.56175e-07 -3.64664e-05
0.00220772 -0.000457624 5.28632e-06
-0.000457624 5.92039e-05 -1.16221e-06
5.28632e-06 -1.16221e-06 -5.54543e-05
0.000409441 -0.000243203 1.89858e-05
-0.000243203 -0.000150265 -2.96293e-05
1.89858e-05 -2.96293e-05 -0.000326903
0.00227302 -0.000641567 8.84943e-07
-0.000641567 0.000238414 1.01969e-06
8.84943e-07 1.01969e-06 -4.25833e-06
0.00178436 -0.000485957 1.5274e-05
-0.000485957 0.000524551 -1.09432e-05
1.5274e-05 -1.09432e-05 0.000151031
0.00192033 -0.000787318 6.15421e-06
-0.000787318 0.000301863 4.68745e-06
6.15421e-06 4.68745e-06 -0.000181805
0.00248407 -0.000784668 1.21133e-07
-0.000784668 0.000496087 2.83965e-06
1.21133e-07 2.83965e-06 0.000115984
0.00242521 -0.000740629 2.24858e-07
-0.000740629 0.000363643 1.82048e-06
2.24858e-07 1.82048e-06 8.26826e-05
0.000761946 -0.000270529 2.44772e-06
-0.000270529 0.000135038 -2.77717e-06
2.44772e-06 -2.77717e-06 -0.000192494
0.00144365 -0.000290425 4.17991e-06
-0.000290425 0.00061606 -3.5506e-07
4.17991e-06 -3.5506e-07 0.00035003
0.00161856 -0.000394269 -1.87749e-06
-0.000394269 0.000682433 1.20753e-06
-1.87749e-06 1.20753e-06 0.00029577
0.000332383 0.000154387 -1.59029e-05
0.000154387 -0.000294562 -1.16325e-05
-1.59029e-05 -1.16325e-05 -0.000436895
0.00678317 -9.32369e-05 -0.000247362
-9.32369e-05 0.00416363 -2.12594e-05
-0.000247362 -2.12594e-05 0.00416351
0.000550997 0.0001425 -2.019e-05
0.0001425 -9.76885e-07 -1.91763e-05
-2.019e-05 -1.91763e-05 -0.000110409
0.000281895 0.000219324 -1.88157e-05
0.000219324 -0.000305422 -1.8734e-05
-1.88157e-05 -1.8734e-05 -0.000474382
0.00150154 0.000399619 -1.41928e-05
0.000399619 4.17328e-05 -4.48443e-06
-1.41928e-05 -4.48443e-06 -0.000218738
0.000460619 0.000242573 -2.16832e-05
0.000242573 -0.000101311 -2.78535e-05
-2.16832e-05 -2.78535e-05 -0.000264682
0.00122717 0.000462141 -2.738e-05
0.000462141 0.00017366 -1.15057e-05
-2.738e-05 -1.15057e-05 -0.00018845
0.00138554 0.000481675 -2.68934e-05
0.000481675 8.7507e-05 -6.31872e-06
-2.68934e-05 -6.31872e-06 -0.000245508
0.00196749 0.000764503 -1.02485e-05
0.000764503 0.000342079 6.90432e-06
-1.02485e-05 6.90432e-06 -0.00011111
0.000373492 0.000222375 -7.69842e-06
0.000222375 -0.000138995 2.00994e-06
-7.69842e-06 2.00994e-06 -0.000274105
0.000375875 7.91603e-05 -6.68604e-07
7.91603e-05 -7.08135e-05 1.37324e-06
-6.68604e-07 1.37324e-06 -0.00017325
0.000996797 0.000292365 -3.81765e-07
0.000292365 0.000310608 9.56976e-09
-3.81765e-07 9.56976e-09 5.73048e-05
0.00151489 0.000337848 -3.17252e-07
0.000337848 1.87287e-05 -1.69022e-07
-3.17252e-07 -1.69022e-07 -0.000203064
0.00151392 0.000451234 3.28963e-08
0.000451234 9.52609e-05 -3.10758e-07
3.28963e-08 -3.10758e-07 -0.000201584
0.00226539 0.000606183 -7.90836e-07
0.000606183 0.000280609 -3.51556e-07
-7.90836e-07 -3.51556e-07 2.57402e-06
0.000746691 0.000349706 1.34203e-06
0.000349706 2.62872e-05 9.89718e-07
1.34203e-06 9.89718e-07 -0.000295274
0.00231895 0.000750278 -1.15923e-06
0.000750278 0.000490849 -4.34202e-07
-1.15923e-06 -4.34202e-07 9.41202e-05
0.00200745 0.000838631 -1.72154e-06
0.000838631 0.000526879 -2.99416e-06
-1.72154e-06 -2.99416e-06 -2.7671e-05
0.00186175 0.000784699 -1.17794e-06
0.000784699 0.000154086 3.97289e-06
-1.17794e-06 3.97289e-06 -0.000269163
0.000580323 5.78303e-05 1.06045e-05
5.78303e-05 7.54828e-05 1.6262e-05
1.06045e-05 1.6262e-05 -9.05705e-06
0.000549529 0.00034016 5.7228e-06
0.00034016 1.55812e-05 1.48669e-07
5.7228e-06 1.48669e-07 -0.000282484
0.000819243 0.000180898 1.93249e-06
0.000180898 0.00027525 2.29123e-06
1.93249e-06 2.29123e-06 5.36597e-06
-0.00116057 0.000178444 -8.27799e-06
0.000178444 -0.00104521 5.80389e-06
-8.27799e-06 5.80389e-06 -0.00134403
0.00232291 0.000524739 2.76623e-06
0.000524739 0.000249953 -2.20582e-06
2.76623e-06 -2.20582e-06 3.26889e-05
0.00224548 0.000682014 3.20083e-06
0.000682014 0.000357207 -2.92591e-06
3.20083e-06 -2.92591e-06 1.5727e-05
0.00224351 0.000660443 8.33387e-07
0.000660443 0.000189433 -1.93465e-06
8.33387e-07 -1.93465e-06 -6.55168e-05
0.00144906 0.000689615 -8.47241e-06
0.000689615 0.000360627 -8.189e-06
-8.47241e-06 -8.189e-06 -0.000161169
0.00262079 0.000856945 -6.5297e-06
0.000856945 0.000589355 -5.17218e-06
-6.5297e-06 -5.17218e-06 0.000206537
0.00240222 0.000982107 -1.85363e-05
0.000982107 0.000677392 -1.87373e-05
-1.85363e-05 -1.87373e-05 8.84844e-05
0.00215534 0.000818226 -6.27122e-06
0.000818226 0.00021345 -5.92546e-06
-6.27122e-06 -5.92546e-06 -0.000181966
0.000788679 0.000114619 -1.9819e-06
0.000114619 0.000271419 7.51578e-06
-1.9819e-06 7.51578e-06 0.000139005
0.000573898 3.41746e-05 3.77444e-06
3.41746e-05 8.39068e-05 1.39172e-05
3.77444e-06 1.39172e-05 2.78663e-05
0.00416495 -0.000133739 8.75678e-05
-0.000133739 0.00245422 8.37583e-06
8.75678e-05 8.37583e-06 0.00244521
0.00449805 -0.000178513 1.55282e-05
-0.000178513 0.0026934 -1.6969e-06
1.55282e-05 -1.6969e-06 0.00267191
0.00489514 -0.000233691 -8.99498e-05
-0.000233691 0.00298208 -1.24019e-05
-8.99498e-05 -1.24019e-05 0.00294275
0.000595196 -0.000230351 3.1938e-05
-0.000230351 4.96639e-05 -1.83944e-05
3.1938e-05 -1.83944e-05 -7.13929e-05
0.0064629 7.83429e-05 0.000227704
7.83429e-05 0.00395981 -2.64769e-05
0.000227704 -2.64769e-05 0.00395538
0.000486003 -0.000224359 3.30715e-06
-0.000224359 -4.70887e-05 7.46785e-07
3.30715e-06 7.46785e-07 -0.000186259
0.00756205 1.46093e-05 4.79963e-06
1.46093e-05 0.00464593 -1.06466e-07
4.79963e-06 -1.06466e-07 0.00465014
0.000320999 0.000141814 -1.61789e-05
0.000141814 -0.000293704 -9.49239e-06
-1.61789e-05 -9.49239e-06 -0.000424534
0.000272074 4.74859e-05 -1.43727e-05
4.74859e-05 -0.00030445 -4.62216e-06
-1.43727e-05 -4.62216e-06 -0.000408988
0.00139216 0.000204064 -2.56506e-06
0.000204064 -4.99289e-05 -1.11646e-06
-2.56506e-06 -1.11646e-06 -0.000214602
0.00136366 0.000102835 -3.14069e-06
0.000102835 -5.00681e-05 -7.66533e-07
-3.14069e-06 -7.66533e-07 -0.000182887
0.000298085 -4.44106e-06 -1.61948e-05
-4.44106e-06 -0.000271374 -1.58119e-06
-1.61948e-05 -1.58119e-06 -0.000362054
0.00663997 -0.000106385 -0.000374423
-0.000106385 0.00401401 7.01397e-06
-0.000374423 7.01397e-06 0.00404829
0.000294789 -4.09382e-06 -2.86234e-08
-4.09382e-06 -0.000271578 -6.79538e-07
-2.86234e-08 -6.79538e-07 -0.000360664
0.00132088 4.83641e-05 6.69565e-09
4.83641e-05 -6.75108e-05 7.74935e-08
6.69565e-09 7.74935e-08 -0.000192687
0.00140025 0.000152796 3.03682e-09
0.000152796 -4.4793e-05 8.91352e-08
3.03682e-09 8.91352e-08 -0.000189679
0.00219486 0.000151477 -4.52274e-08
0.000151477 9.10872e-05 1.60699e-07
-4.52274e-08 1.60699e-07 2.79463e-05
0.00146776 0.000268673 -3.27156e-07
0.000268673 -1.65371e-05 -1.44801e-07
-3.27156e-07 -1.44801e-07 -0.000205775
0.00220955 0.000338236 -4.51933e-07
0.000338236 0.000114822 1.65426e-07
-4.51933e-07 1.65426e-07 4.83878e-07
0.00129327 -7.04678e-06 2.47936e-06
-7.04678e-06 -7.47371e-05 2.48536e-07
2.47936e-06 2.48536e-07 -0.000199003
0.00218127 7.09108e-05 1.52522e-06
7.09108e-05 8.17242e-05 2.82004e-07
1.52522e-06 2.82004e-07 2.54788e-05
0.00220102 0.000242379 1.25445e-06
0.000242379 0.000102454 9.64142e-07
1.25445e-06 9.64142e-07 2.03035e-05
0.00215128 0.000163262 5.47835e-06
0.000163262 8.01142e-06 8.44945e-07
5.47835e-06 8.44945e-07 -6.11232e-06
0.00221608 0.000427181 3.24332e-06
0.000427181 0.000137009 -3.56014e-07
3.24332e-06 -3.56014e-07 -2.15253e-05
0.00229538 0.000348978 5.22908e-06
0.000348978 7.54663e-05 7.75099e-07
5.22908e-06 7.75099e-07 2.53848e-05
0.00029513 -7.15774e-06 -1.5711e-05
-7.15774e-06 -0.000265961 2.6685e-07
-1.5711e-05 2.6685e-07 -0.000359829
0.00215367 -6.39147e-05 -0.000145521
-6.39147e-05 0.000932348 7.77779e-06
-0.000145521 7.77779e-06 0.000864333
0.00141285 -0.000100705 -1.39596e-05
-0.000100705 -1.02041e-05 1.30406e-06
-1.39596e-05 1.30406e-06 -0.000132827
0.00201113 -0.000232408 -1.95952e-05
-0.000232408 0.000391582 3.64862e-06
-1.95952e-05 3.64862e-06 0.000224636
0.00886356 -5.66077e-05 -0.00038118
-5.66077e-05 0.00544303 4.40379e-05
-0.00038118 4.40379e-05 0.0054567
0.0034387 -0.000367755 -0.000207743
-0.000367755 0.00181917 3.75712e-05
-0.000207743 3.75712e-05 0.00166763
0.00198895 -0.000564078 -2.91694e-05
-0.000564078 0.000629806 9.77564e-06
-2.91694e-05 9.77564e-06 0.000246443
0.00219879 -0.000370409 -2.77255e-05
-0.000370409 0.000513603 7.42051e-06
-2.77255e-05 7.42051e-06 0.000300273
0.0023737 -0.000436962 -5.78123e-07
-0.000436962 0.0002714 -1.34829e-06
-5.78123e-07 -1.34829e-06 0.00011632
0.00234803 -0.000587803 -7.71439e-07
-0.000587803 0.000385637 -9.91294e-07
-7.71439e-07 -9.91294e-07 9.99006e-05
0.00227107 -0.000709133 2.28957e-06
-0.000709133 0.000454256 -4.21114e-06
2.28957e-06 -4.21114e-06 6.27927e-05
0.00230167 -0.00071438 -4.41696e-08
-0.00071438 0.000320862 -2.07164e-06
-4.41696e-08 -2.07164e-06 1.26539e-05
0.000474163 -0.000246458 -2.06825e-05
-0.000246458 -8.07648e-05 2.56914e-05
-2.06825e-05 2.56914e-05 -0.000240776
-1.97037e-05 -0.00023324 -6.85703e-07
-0.00023324 -0.000295748 2.99206e-06
-6.85703e-07 2.99206e-06 -0.000625151
0.00134963 -4.83922e-05 8.75152e-07
-4.83922e-05 -3.69395e-05 -9.94096e-08
8.75152e-07 -9.94096e-08 -0.000157581
0.0021011 -0.000172614 -1.22703e-05
-0.000172614 0.000453006 1.55752e-06
-1.22703e-05 1.55752e-06 0.000321192
0.00208557 -0.000165184 2.56169e-06
-0.000165184 2.76675e-05 -3.49417e-07
2.56169e-06 -3.49417e-07 -5.27206e-05
0.00213735 -0.000347442 -1.86635e-06
-0.000347442 8.75257e-05 5.21258e-07
-1.86635e-06 5.21258e-07 -3.97201e-05
0.00027022 -0.00026092 -1.90261e-06
-0.00026092 -0.000226636 -5.52285e-08
-1.90261e-06 -5.52285e-08 -0.000407849
0.000759716 -0.000442419 -5.51575e-06
-0.000442419 -9.74805e-05 -4.50957e-07
-5.51575e-06 -4.50957e-07 -0.000477993
0.00204593 -0.00080136 -2.65843e-07
-0.00080136 0.000379701 1.45689e-06
-2.65843e-07 1.45689e-06 -0.000111411
0.0021783 -0.000507805 -1.19156e-06
-0.000507805 0.000197439 2.98315e-07
-1.19156e-06 2.98315e-07 -2.88898e-05
0.00228949 -0.000467033 8.27282e-07
-0.000467033 0.000105353 -7.24031e-07
8.27282e-07 -7.24031e-07 -3.28446e-06
0.00257085 -0.000793154 1.30858e-06
-0.000793154 0.000552457 -1.63518e-06
1.30858e-06 -1.63518e-06 0.000175439
0.00223049 -0.000637125 1.52082e-07
-0.000637125 0.000208345 7.07361e-07
1.52082e-07 7.07361e-07 -3.34014e-05
0.00229895 -0.000736743 1.77381e-07
-0.000736743 0.000272599 9.3949e-07
1.77381e-07 9.3949e-07 -1.06956e-05
0.00085021 -0.000294814 4.82674e-07
-0.000294814 0.000198236 -9.38776e-07
4.82674e-07 -9.38776e-07 -0.00013996
0.00067359 -0.000303572 1.43697e-06
-0.000303572 6.86478e-05 1.10495e-07
1.43697e-06 1.10495e-07 -0.000306102
0.000583753 -0.000241495 3.42599e-06
-0.000241495 0.000108052 1.63062e-06
3.42599e-06 1.63062e-06 -0.000178584
0.00206456 -8.29375e-05 1.57495e-06
-8.29375e-05 1.54753e-05 -7.00125e-07
1.57495e-06 -7.00125e-07 -5.80857e-05
0.00209131 -0.00025144 -7.28716e-07
-0.00025144 2.42408e-05 -3.46035e-07
-7.28716e-07 -3.46035e-07 -7.26485e-05
0.00222116 -0.0001634 7.36027e-06
-0.0001634 7.47986e-05 -8.77385e-07
7.36027e-06 -8.77385e-07 5.03044e-05
0.00227987 -0.000376324 3.93557e-06
-0.000376324 6.45554e-05 -3.50852e-07
3.93557e-06 -3.50852e-07 5.56623e-06
0.00227562 -0.000572585 7.97461e-07
-0.000572585 0.000165773 -3.29859e-07
7.97461e-07 -3.29859e-07 -7.15789e-06
0.00233567 -0.000487171 2.04497e-06
-0.000487171 7.301e-05 -1.11061e-07
2.04497e-06 -1.11061e-07 1.48709e-05
0.0008666 -0.000332872 8.30383e-06
-0.000332872 9.46784e-05 -8.59209e-06
8.30383e-06 -8.59209e-06 -0.000232709
0.00229421 -0.000681902 1.34069e-06
-0.000681902 0.000169499 -4.15093e-07
1.34069e-06 -4.15093e-07 -2.34484e-05
0.00196517 -0.000853404 -9.29952e-07
-0.000853404 0.000494928 1.14712e-06
-9.29952e-07 1.14712e-06 -7.28092e-05
0.00240115 -0.00091765 1.1521e-05
-0.00091765 0.00050259 3.77887e-06
1.1521e-05 3.77887e-06 4.9983e-06
0.00262376 -0.000808921 4.39416e-06
-0.000808921 0.000570213 2.17414e-06
4.39416e-06 2.17414e-06 0.000212865
0.00250396 -0.000790472 1.40968e-06
-0.000790472 0.000373594 -8.5329e-07
1.40968e-06 -8.5329e-07 0.000113324
0.000671533 -0.000195308 1.02368e-06
-0.000195308 0.000231488 -1.13738e-06
1.02368e-06 -1.13738e-06 -7.22093e-05
0.00165934 -0.000513473 -9.08969e-06
-0.000513473 0.000594242 -2.11143e-06
-9.08969e-06 -2.11143e-06 0.000157667
-0.000453579 -0.000136924 6.42704e-07
-0.000136924 -0.000512447 -6.15202e-07
6.42704e-07 -6.15202e-07 -0.000864755
0.00119449 -0.000540003 7.95576e-06
-0.000540003 0.000387626 5.97822e-06
7.95576e-06 5.97822e-06 -0.000116314
0.00150721 0.000338153 -1.05874e-05
0.000338153 2.08362e-05 -3.15761e-06
-1.05874e-05 -3.15761e-06 -0.000202327
0.000230653 6.57266e-05 -1.02557e-05
6.57266e-05 -0.000158858 -1.82234e-05
-1.02557e-05 -1.82234e-05 -0.000258331
0.000420866 0.000181251 -2.79278e-05
0.000181251 -9.9684e-05 -2.05543e-05
-2.79278e-05 -2.05543e-05 -0.000233403
0.000984014 0.000239438 -7.44204e-06
0.000239438 0.000298123 4.55556e-06
-7.44204e-06 4.55556e-06 4.79899e-05
0.00144738 0.000444911 -1.99476e-05
0.000444911 5.80188e-05 -5.78388e-06
-1.99476e-05 -5.78388e-06 -0.000238871
0.0022097 0.000601375 -3.79377e-06
0.000601375 0.000241583 1.86053e-06
-3.79377e-06 1.86053e-06 -3.52165e-05
0.000785664 0.00031337 -1.36686e-05
0.00031337 5.62341e-05 -5.68381e-06
-1.36686e-05 -5.68381e-06 -0.000242629
0.00188561 0.000816587 -7.85903e-06
0.000816587 0.000435582 4.58209e-06
-7.85903e-06 4.58209e-06 -0.000111658
0.00235183 0.000747573 -1.84544e-06
0.000747573 0.000511517 4.89666e-06
-1.84544e-06 4.89666e-06 0.000114701
0.00178872 0.000781848 1.15905e-05
0.000781848 9.70068e-05 1.63333e-05
1.15905e-05 1.63333e-05 -0.000319409
0.000394038 4.24375e-05 -2.97298e-06
4.24375e-05 -3.8121e-05 3.25632e-07
-2.97298e-06 3.25632e-07 -0.00012093
0.000734496 0.00026182 -1.2343e-06
0.00026182 0.00014291 4.27602e-07
-1.2343e-06 4.27602e-07 -0.000146644
0.000311624 0.00018035 5.26093e-06
0.00018035 -4.86747e-05 -1.90785e-06
5.26093e-06 -1.90785e-06 -0.000323613
0.000662235 0.000272464 -5.80451e-06
0.000272464 0.000101318 6.63195e-06
-5.80451e-06 6.63195e-06 -0.000204289
0.00225662 0.000518788 -1.84708e-06
0.000518788 0.000208085 -1.28847e-06
-1.84708e-06 -1.28847e-06 -8.32965e-06
0.00222291 0.000681422 -7.93424e-07
0.000681422 0.000338762 -3.24433e-07
-7.93424e-07 -3.24433e-07 -2.7758e-06
0.00228743 0.000663405 1.88974e-07
0.000663405 0.000224102 -1.0976e-07
1.88974e-07 -1.0976e-07 -3.12519e-05
0.00184477 0.000727092 2.39605e-06
0.000727092 0.000625502 -6.54788e-07
2.39605e-06 -6.54788e-07 9.51529e-05
0.00253703 0.000841768 1.52979e-06
0.000841768 0.000547467 1.0501e-06
1.52979e-06 1.0501e-06 0.000163734
0.00217535 0.000940619 -8.73651e-07
0.000940619 0.000549041 -2.04603e-06
-8.73651e-07 -2.04603e-06 -2.69281e-05
0.00232376 0.000809192 -7.80324e-06
0.000809192 0.000340496 3.25287e-06
-7.80324e-06 3.25287e-06 -4.00251e-05
0.000626438 3.93134e-05 6.90418e-06
3.93134e-05 0.000112058 1.50823e-05
6.90418e-06 1.50823e-05 4.58088e-05
0.00126241 0.000132791 -2.34311e-06
0.000132791 0.000575329 1.15223e-05
-2.34311e-06 1.15223e-05 0.000336364
0.000138142 0.00040727 -1.00062e-05
0.00040727 -0.000310076 -2.56167e-06
-1.00062e-05 -2.56167e-06 -0.00069878
0.00107559 0.000262403 1.08642e-05
0.000262403 0.000440308 -5.44863e-06
1.08642e-05 -5.44863e-06 9.31187e-05
0.00119313 0.000189583 -3.07917e-06
0.000189583 0.000339245 1.52209e-05
-3.07917e-06 1.52209e-05 6.24848e-05
0.0022924 0.000569072 3.05301e-07
0.000569072 0.000136577 -1.50798e-06
3.05301e-07 -1.50798e-06 -3.90764e-05
0.00231673 0.000764528 -1.42733e-06
0.000764528 0.000317218 -3.55187e-06
-1.42733e-06 -3.55187e-06 -9.37947e-06
0.00234368 0.000729319 -3.07307e-06
0.000729319 0.000215729 -9.63083e-07
-3.07307e-06 -9.63083e-07 -2.62139e-05
0.00208031 0.000995426 -7.05087e-06
0.000995426 0.000750074 -1.42949e-05
-7.05087e-06 -1.42949e-05 7.72144e-05
0.00266801 0.000897039 -7.24184e-06
0.000897039 0.000538103 -4.70299e-06
-7.24184e-06 -4.70299e-06 0.000160264
0.00197966 0.000992784 3.21973e-06
0.000992784 0.000319476 -1.01306e-05
3.21973e-06 -1.01306e-05 -0.000240085
0.000672137 0.000112758 -1.93794e-06
0.000112758 0.000188151 1.05318e-05
-1.93794e-06 1.05318e-05 3.4879e-05
0.000871512 0.000147861 -6.67621e-06
0.000147861 0.000437799 7.30019e-06
-6.67621e-06 7.30019e-06 0.000200335
0.000580735 8.39519e-05 -1.90024e-06
8.39519e-05 0.000130179 5.94505e-06
-1.90024e-06 5.94505e-06 2.48239e-05
0.00044836 3.7373e-05 -1.93535e-06
3.7373e-05 4.83932e-05 2.06427e-07
-1.93535e-06 2.06427e-07 -7.57742e-05
0.00157591 -8.70789e-07 1.67623e-06
-8.70789e-07 0.000741423 7.4011e-06
1.67623e-06 7.4011e-06 0.000700609
0.000998868 1.76661e-05 -4.85495e-07
1.76661e-05 0.000364699 -1.79089e-07
-4.85495e-07 -1.79089e-07 0.00031224
0.000994888 -2.14984e-05 7.09106e-05
-2.14984e-05 0.000356542 1.53685e-05
7.09106e-05 1.53685e-05 0.000349334
0.00410139 -0.000147878 1.46059e-05
-0.000147878 0.00241741 -1.44577e-06
1.46059e-05 -1.44577e-06 0.00240439
0.00447362 -0.000193993 -7.83524e-05
-0.000193993 0.0026822 -9.59649e-06
-7.83524e-05 -9.59649e-06 0.0026564
0.000236959 -0.000146496 2.21299e-05
-0.000146496 -0.000136193 -1.54634e-05
2.21299e-05 -1.54634e-05 -0.000236977
0.0056533 0.000137469 0.000160119
0.000137469 0.00345529 -1.9886e-05
0.000160119 -1.9886e-05 0.00343696
0.000536022 -0.000202607 2.85864e-06
-0.000202607 2.13367e-05 1.21478e-06
2.85864e-06 1.21478e-06 -0.000107927
0.00666336 6.35875e-05 -1.14559e-06
6.35875e-05 0.00409463 9.07805e-07
-1.14559e-06 9.07805e-07 0.00408988
0.000437938 -0.000228703 -2.49041e-05
-0.000228703 -8.10073e-05 2.25245e-05
-2.49041e-05 2.25245e-05 -0.000221842
0.0078468 2.63043e-06 -0.000330629
2.63043e-06 0.00482912 4.08428e-05
-0.000330629 4.08428e-05 0.00483504
0.00141878 0.000266237 -6.22243e-06
0.000266237 -3.9851e-05 -2.16998e-06
-6.22243e-06 -2.16998e-06 -0.000230107
0.00138484 0.000153906 -2.5074e-06
0.000153906 -4.58372e-05 -6.14541e-07
-2.5074e-06 -6.14541e-07 -0.000191712
0.00224858 0.000337802 -2.72099e-06
0.000337802 0.0001368 2.64627e-07
-2.72099e-06 2.64627e-07 2.24536e-05
0.00219551 0.00014948 -1.52395e-06
0.00014948 9.34588e-05 -6.30375e-07
-1.52395e-06 -6.30375e-07 3.07109e-05
0.00133438 5.37669e-05 -2.68268e-06
5.37669e-05 -5.625e-05 -5.47616e-07
-2.68268e-06 -5.47616e-07 -0.000181805
0.000260319 2.7787e-05 -1.64383e-05
2.7787e-05 -0.000296742 -1.35679e-06
-1.64383e-05 -1.35679e-06 -0.000383829
0.00130074 -2.12008e-06 -4.22421e-08
-2.12008e-06 -6.87857e-05 1.97841e-08
-4.22421e-08 1.97841e-08 -0.000193043
0.00218342 6.99677e-05 -3.46826e-08
6.99677e-05 8.60972e-05 1.01191e-07
-3.46826e-08 1.01191e-07 2.9957e-05
0.00221407 0.000241306 -9.4015e-08
0.000241306 0.00010786 3.17281e-07
-9.4015e-08 3.17281e-07 2.61704e-05
0.00214209 0.000159033 -4.05095e-07
0.000159033 -7.49191e-06 -1.65685e-08
-4.05095e-07 -1.65685e-08 -1.50538e-05
0.00222598 0.000427201 -1.02563e-06
0.000427201 0.000147344 3.2372e-08
-1.02563e-06 3.2372e-08 -1.17269e-05
0.00227247 0.000347774 -2.20641e-08
0.000347774 6.08201e-05 2.88046e-07
-2.20641e-08 2.88046e-07 1.09621e-05
0.00217426 -7.99296e-06 1.17081e-06
-7.99296e-06 8.23547e-05 -4.11733e-07
1.17081e-06 -4.11733e-07 2.71503e-05
0.00207954 7.3182e-05 4.16154e-06
7.3182e-05 -4.81591e-05 1.05619e-07
4.16154e-06 1.05619e-07 -4.62373e-05
0.0021971 0.000240627 5.81253e-06
0.000240627 2.95246e-05 1.17808e-06
5.81253e-06 1.17808e-06 3.55467e-06
0.0022164 0.0001493 3.16876e-06
0.0001493 -1.09058e-05 5.31067e-07
3.16876e-06 5.31067e-07 1.18741e-05
0.00239566 0.000478931 3.33033e-06
0.000478931 0.000148879 -7.42738e-08
3.33033e-06 -7.42738e-08 4.92182e-05
0.00231085 0.000357734 1.30182e-06
0.000357734 -2.978e-05 -1.87195e-07
1.30182e-06 -1.87195e-07 -2.14678e-05
0.00138285 -4.51036e-05 -4.92828e-06
-4.51036e-05 -1.72613e-05 3.05933e-07
-4.92828e-06 3.05933e-07 -0.000131294
0.00208348 -0.000172851 -2.30713e-05
-0.000172851 0.000436575 2.75889e-06
-2.30713e-05 2.75889e-06 0.000304954
0.00210284 -0.000159443 3.40363e-06
-0.000159443 3.43634e-05 -3.11239e-07
3.40363e-06 -3.11239e-07 -4.10041e-05
0.00200622 -0.000340508 6.08512e-07
-0.000340508 8.34344e-06 6.1365e-07
6.08512e-07 6.1365e-07 -0.000130638
8.69551e-05 -0.000274595 -2.31363e-05
-0.000274595 -0.000336356 2.9559e-05
-2.31363e-05 2.9559e-05 -0.000519308
0.000711168 -0.000445993 -1.31345e-05
-0.000445993 -0.000128566 6.38612e-06
-1.31345e-05 6.38612e-06 -0.000513029
0.00208654 -0.000811835 3.9922e-06
-0.000811835 0.00039587 -3.33746e-06
3.9922e-06 -3.33746e-06 -0.000103026
0.0021831 -0.000505486 -1.48426e-06
-0.000505486 0.00020518 -6.39081e-07
-1.48426e-06 -6.39081e-07 -2.54985e-05
0.0023612 -0.000475527 -2.57485e-06
-0.000475527 0.000145199 -1.27787e-07
-2.57485e-06 -1.27787e-07 4.22272e-05
0.00218292 -0.000632284 -7.72348e-07
-0.000632284 0.000174472 2.7979e-07
-7.72348e-07 2.7979e-07 -6.6246e-05
0.00260656 -0.00079588 -2.43993e-07
-0.00079588 0.000577897 -6.05592e-06
-2.43993e-07 -6.05592e-06 0.000205394
0.00214882 -0.000728896 1.35845e-07
-0.000728896 0.000167625 3.00943e-07
1.35845e-07 3.00943e-07 -0.000116681
0.00061635 -0.000317197 -6.56288e-06
-0.000317197 5.68001e-05 4.46463e-06
-6.56288e-06 4.46463e-06 -0.000294236
0.000353919 -0.000270578 1.80754e-06
-0.000270578 -0.000121795 2.78691e-07
1.80754e-06 2.78691e-07 -0.000491348
0.000499734 -0.000288289 2.97097e-06
-0.000288289 7.5644e-05 2.79637e-06
2.97097e-06 2.79637e-06 -0.000224855
0.00212409 -7.93969e-05 3.74982e-06
-7.93969e-05 5.64294e-05 -2.43266e-07
3.74982e-06 -2.43266e-07 -9.92408e-06
0.0020879 -0.000257378 1.47663e-06
-0.000257378 2.77071e-05 -4.87415e-07
1.47663e-06 -4.87415e-07 -6.79483e-05
0.00219786 -0.000158187 5.00281e-07
-0.000158187 4.31295e-05 -4.52829e-08
5.00281e-07 -4.52829e-08 2.68704e-05
0.00228963 -0.000369556 -7.80487e-07
-0.000369556 8.15468e-05 2.41896e-07
-7.80487e-07 2.41896e-07 1.86108e-05
0.000864834 -0.000362491 -8.1898e-07
-0.000362491 8.31756e-05 7.04023e-07
-8.1898e-07 7.04023e-07 -0.000261045
0.00206174 -0.000875122 4.22298e-07
-0.000875122 0.000562197 -1.77036e-06
4.22298e-07 -1.77036e-06 -1.19099e-05
0.00224707 -0.000900834 5.69543e-07
-0.000900834 0.000406992 1.85809e-06
5.69543e-07 1.85809e-06 -9.33149e-05
0.00216626 -0.00055781 -8.47439e-07
-0.00055781 9.96712e-05 4.25576e-07
-8.47439e-07 4.25576e-07 -7.8242e-05
0.00234518 -0.000491878 1.18208e-07
-0.000491878 6.63276e-05 9.91647e-08
1.18208e-07 9.91647e-08 1.36875e-05
0.00246151 -0.000797509 -5.92386e-07
-0.000797509 0.000452111 2.54986e-07
-5.92386e-07 2.54986e-07 9.66939e-05
0.00229818 -0.000682056 -7.06114e-07
-0.000682056 0.000168301 6.342e-07
-7.06114e-07 6.342e-07 -2.46717e-05
0.0024207 -0.000780121 1.25414e-06
-0.000780121 0.000318076 -4.47326e-07
1.25414e-06 -4.47326e-07 6.13747e-05
0.00120527 -0.000501057 -4.53902e-06
-0.000501057 0.000335491 -7.37107e-07
-4.53902e-06 -7.37107e-07 -0.000114523
0.00144509 -0.000553562 -2.26871e-06
-0.000553562 0.00056465 6.33127e-07
-2.26871e-06 6.33127e-07 6.20257e-05
0.00101401 -0.000254723 -1.06299e-06
-0.000254723 0.00041799 -1.72623e-06
-1.06299e-06 -1.72623e-06 0.000136291
0.000833356 -0.000220011 -7.64558e-07
-0.000220011 0.000281533 -2.46749e-07
-7.64558e-07 -2.46749e-07 -5.11674e-05
0.0021709 -8.8369e-05 6.26376e-06
-8.8369e-05 3.41194e-05 -5.39598e-07
6.26376e-06 -5.39598e-07 2.37602e-05
0.00213301 -0.000257182 4.42591e-06
-0.000257182 -3.33155e-05 -1.18023e-06
4.42591e-06 -1.18023e-06 -6.71882e-05
0.0022025 -0.000154306 3.76605e-06
-0.000154306 1.63017e-05 -5.57872e-07
3.76605e-06 -5.57872e-07 4.16191e-05
0.00229452 -0.000388003 -5.44933e-07
-0.000388003 -1.6847e-05 1.69041e-07
-5.44933e-07 1.69041e-07 -6.05158e-06
0.00232023 -0.00060016 -2.75183e-07
-0.00060016 9.96283e-05 5.37141e-07
-2.75183e-07 5.37141e-07 -1.0633e-05
0.0023965 -0.000526269 1.22001e-06
-0.000526269 2.16463e-05 -4.12366e-08
1.22001e-06 -4.12366e-08 -1.20136e-05
0.0017187 -0.00076154 -8.48699e-06
-0.00076154 0.000549934 2.73398e-06
-8.48699e-06 2.73398e-06 -1.2622e-05
0.00243024 -0.00075161 -4.48761e-07
-0.00075161 0.000170288 -3.64301e-07
-4.48761e-07 -3.64301e-07 1.64009e-05
0.00216445 -0.00102852 2.42488e-06
-0.00102852 0.000560144 5.90128e-06
2.42488e-06 5.90128e-06 -6.82381e-05
0.0025095 -0.000948435 1.12271e-05
-0.000948435 0.000535005 1.78458e-06
1.12271e-05 1.78458e-06 4.31616e-05
0.00246726 -0.000808817 -1.40494e-06
-0.000808817 0.000438876 2.03103e-06
-1.40494e-06 2.03103e-06 9.11443e-05
0.0024115 -0.000847966 -3.81302e-06
-0.000847966 0.000239393 -3.13752e-06
-3.81302e-06 -3.13752e-06 -2.89856e-05
0.00104645 -0.000269005 1.75287e-06
-0.000269005 0.000433945 -1.08953e-05
1.75287e-06 -1.08953e-05 0.000173141
0.00048557 -0.000204683 -4.40943e-06
-0.000204683 0.000128929 1.22223e-05
-4.40943e-06 1.22223e-05 -0.000237987
0.00164479 -0.00075885 1.66819e-05
-0.00075885 0.000597873 3.33427e-06
1.66819e-05 3.33427e-06 1.08989e-05
0.00145374 -0.000407165 6.91115e-06
-0.000407165 0.000653511 -2.62463e-07
6.91115e-06 -2.62463e-07 0.000262284
0.0014943 -0.000682974 -6.56372e-06
-0.000682974 0.000621804 1.17821e-05
-6.56372e-06 1.17821e-05 1.57695e-05
9.32906e-05 3.11301e-05 -8.11034e-06
3.11301e-05 -0.000228933 -1.59314e-05
-8.11034e-06 -1.59314e-05 -0.00030645
0.0021929 0.000512726 -4.48102e-06
0.000512726 0.000168435 4.72787e-07
-4.48102e-06 4.72787e-07 -4.7047e-05
0.000984945 7.83134e-05 3.39528e-06
7.83134e-05 0.000385052 -7.07651e-06
3.39528e-06 -7.07651e-06 0.000108392
0.000753307 0.000315325 -6.44104e-06
0.000315325 0.000130179 7.30823e-06
-6.44104e-06 7.30823e-06 -0.000135544
0.0016463 0.000330852 -3.84213e-06
0.000330852 0.000736456 1.04804e-05
-3.84213e-06 1.04804e-05 0.000422405
0.00219886 0.00068069 -3.10824e-06
0.00068069 0.000319754 2.8336e-06
-3.10824e-06 2.8336e-06 -2.18529e-05
0.00232726 0.000665902 -1.88204e-07
0.000665902 0.000256238 1.59996e-06
-1.88204e-07 1.59996e-06 5.92434e-07
0.00160186 0.000752854 7.75741e-06
0.000752854 0.000483448 4.51464e-06
7.75741e-06 4.51464e-06 -7.27887e-05
0.00204038 0.000926817 1.02219e-05
0.000926817 0.000461154 1.32074e-05
1.02219e-05 1.32074e-05 -0.000113025
0.00245617 0.0008254 5.32874e-06
0.0008254 0.000505881 7.56195e-06
5.32874e-06 7.56195e-06 0.000121893
0.0025279 0.000811031 1.57668e-05
0.000811031 0.000486422 1.94262e-05
1.57668e-05 1.94262e-05 0.000116374
0.000434411 4.43438e-05 -4.05716e-07
4.43438e-05 -8.99746e-06 1.22334e-07
-4.05716e-07 1.22334e-07 -7.39185e-05
0.00062441 0.000107609 -2.28555e-06
0.000107609 0.000179266 1.58345e-08
-2.28555e-06 1.58345e-08 -6.46735e-05
0.000931683 0.00047918 8.28386e-06
0.00047918 0.000221169 -7.74278e-07
8.28386e-06 -7.74278e-07 -0.000179314
0.00063266 0.000172593 1.9471e-06
0.000172593 0.000151005 -5.49943e-06
1.9471e-06 -5.49943e-06 -0.000186365
0.000286164 0.000181216 -2.0069e-06
0.000181216 -0.000243358 4.70545e-06
-2.0069e-06 4.70545e-06 -0.000539526
0.00234398 0.000574369 -1.29596e-06
0.000574369 0.000171843 -8.50421e-07
-1.29596e-06 -8.50421e-07 -5.21346e-06
0.00231112 0.000761639 2.21499e-07
0.000761639 0.000318622 -8.1349e-08
2.21499e-07 -8.1349e-08 -6.36384e-06
0.00233813 0.000729795 1.43933e-06
0.000729795 0.000215959 3.51189e-07
1.43933e-06 3.51189e-07 -2.5823e-05
0.00206763 0.000995305 1.029e-06
0.000995305 0.000759418 -2.86028e-06
1.029e-06 -2.86028e-06 8.1207e-05
0.00264636 0.00089504 3.5905e-06
0.00089504 0.00050121 1.92471e-07
3.5905e-06 1.92471e-07 0.000121511
0.00247005 0.00104349 -4.95636e-06
0.00104349 0.000657767 4.55419e-07
-4.95636e-06 4.55419e-07 9.20697e-05
0.000916257 0.000158241 8.27344e-07
0.000158241 0.000327643 1.07666e-05
8.27344e-07 1.07666e-05 0.000151332
0.00265479 0.000443846 -9.66366e-07
0.000443846 0.00153734 5.42276e-06
-9.66366e-07 5.42276e-06 0.00115719
0.000651956 0.000612373 -2.05556e-06
0.000612373 5.59977e-05 -1.0928e-06
-2.05556e-06 -1.0928e-06 -0.000445352
0.00151732 0.000260601 9.37699e-06
0.000260601 0.000501977 -3.06759e-06
9.37699e-06 -3.06759e-06 0.000208064
0.00292791 0.000709127 -2.83457e-07
0.000709127 0.00130763 -3.27495e-06
-2.83457e-07 -3.27495e-06 0.000873597
0.00237406 0.00061349 -3.3953e-06
0.00061349 0.00010113 -1.54734e-06
-3.3953e-06 -1.54734e-06 -2.754e-05
0.00233091 0.000826029 -4.73586e-06
0.000826029 0.000291634 -1.86524e-06
-4.73586e-06 -1.86524e-06 -4.31991e-05
0.00237788 0.000805347 -4.12102e-08
0.000805347 0.000205855 -1.33456e-06
-4.12102e-08 -1.33456e-06 -3.88233e-05
0.0015525 0.00103252 7.07299e-06
0.00103252 0.000487402 -1.10892e-05
7.07299e-06 -1.10892e-05 -0.000204271
0.00219996 0.0010108 1.32243e-05
0.0010108 0.000356079 -4.9746e-06
1.32243e-05 -4.9746e-06 -0.000146764
0.000602048 9.80371e-05 -3.93652e-07
9.80371e-05 0.000143615 1.6354e-07
-3.93652e-07 1.6354e-07 -7.89302e-06
0.000483683 0.000228816 -2.09254e-06
0.000228816 0.000123015 1.26899e-06
-2.09254e-06 1.26899e-06 -9.37138e-05
-0.000488344 0.000100906 5.14876e-07
0.000100906 -0.000453878 -2.94495e-06
5.14876e-07 -2.94495e-06 -0.000674347
0.0017748 0.000300465 -6.71956e-06
0.000300465 0.00105344 -8.10415e-07
-6.71956e-06 -8.10415e-07 0.000784753
0.00146672 0.000243467 -3.065e-06
0.000243467 0.000806882 3.03038e-06
-3.065e-06 3.03038e-06 0.000599554
0.000532994 9.3641e-05 -4.52853e-08
9.3641e-05 0.000106995 4.13357e-06
-4.52853e-08 4.13357e-06 6.83093e-06
0.000543785 3.94515e-05 -1.26508e-06
3.94515e-05 0.000113195 -2.81368e-07
-1.26508e-06 -2.81368e-07 5.98272e-06
0.00148771 1.21328e-05 1.88182e-06
1.21328e-05 0.000686677 5.64636e-06
1.88182e-06 5.64636e-06 0.000652835
0.000434315 6.07516e-05 3.99671e-06
6.07516e-05 3.4263e-05 -7.34699e-06
3.99671e-06 -7.34699e-06 -8.41882e-05
0.00158761 -2.16226e-06 -1.49757e-05
-2.16226e-06 0.000749922 -2.1787e-06
-1.49757e-05 -2.1787e-06 0.000712663
0.000755829 -1.7334e-05 5.39266e-05
-1.7334e-05 0.000198499 1.20029e-05
5.39266e-05 1.20029e-05 0.000196664
0.00158533 1.88874e-05 -2.93854e-05
1.88874e-05 0.000751874 -1.0352e-05
-2.93854e-05 -1.0352e-05 0.000706489
0.00227484 -7.48257e-05 6.27107e-05
-7.48257e-05 0.00120611 1.29575e-06
6.27107e-05 1.29575e-06 0.00119788
0.0038344 -0.000148308 -6.18645e-05
-0.000148308 0.00224358 -8.17817e-06
-6.18645e-05 -8.17817e-06 0.00222984
0.000102473 1.35025e-05 2.59629e-06
1.35025e-05 -0.000197887 -1.03772e-05
2.59629e-06 -1.03772e-05 -0.000270112
0.000394318 -0.000131666 -2.72496e-06
-0.000131666 -3.65354e-05 5.44577e-07
-2.72496e-06 5.44577e-07 -0.000145102
0.00463845 0.000220605 3.94732e-05
0.000220605 0.0028065 -1.18757e-05
3.94732e-05 -1.18757e-05 0.0027657
0.00585833 0.000110125 -5.10404e-06
0.000110125 0.00359483 7.54982e-07
-5.10404e-06 7.54982e-07 0.00357921
0.000424771 -0.000200641 -2.34232e-05
-0.000200641 -5.23464e-05 1.99908e-05
-2.34232e-05 1.99908e-05 -0.000187162
0.00691392 6.58595e-05 -0.000263693
6.58595e-05 0.00426548 3.78419e-05
-0.000263693 3.78419e-05 0.00425652
0.00223534 0.000427904 -3.13343e-06
0.000427904 0.000155664 1.09557e-06
-3.13343e-06 1.09557e-06 -4.1673e-06
0.0021957 0.000241955 -1.74056e-06
0.000241955 9.08591e-05 -2.80337e-07
-1.74056e-06 -2.80337e-07 8.9414e-06
0.00224988 0.000347469 -4.90035e-06
0.000347469 4.61287e-05 -1.23496e-07
-4.90035e-06 -1.23496e-07 -3.70199e-06
0.00213274 0.000154799 -4.78027e-06
0.000154799 -2.38955e-05 -6.1483e-07
-4.78027e-06 -6.1483e-07 -2.48495e-05
0.00218383 6.98403e-05 -1.70279e-06
6.98403e-05 8.93864e-05 -7.09448e-08
-1.70279e-06 -7.09448e-08 3.33119e-05
0.00131303 2.95651e-06 -2.28521e-06
2.95651e-06 -6.07917e-05 -2.82799e-07
-2.28521e-06 -2.82799e-07 -0.000184988
0.00217527 -6.37264e-06 3.98657e-08
-6.37264e-06 8.57891e-05 8.77944e-08
3.98657e-08 8.77944e-08 3.02862e-05
0.00208724 6.55906e-05 -4.97081e-07
6.55906e-05 -3.97677e-05 -8.29581e-08
-4.97081e-07 -8.29581e-08 -3.99145e-05
0.0022038 0.000239675 -7.7514e-08
0.000239675 3.15253e-05 1.29608e-07
-7.7514e-08 1.29608e-07 6.24322e-06
0.00218467 0.000150459 -1.09586e-08
0.000150459 -4.05767e-05 4.20269e-08
-1.09586e-08 4.20269e-08 -1.10519e-05
0.00237902 0.00047984 2.10219e-07
0.00047984 0.000131387 -3.60046e-08
2.10219e-07 -3.60046e-08 3.24554e-05
0.0022875 0.00034751 1.99418e-07
0.00034751 -4.77074e-05 2.00019e-07
1.99418e-07 2.00019e-07 -3.60528e-05
0.00208217 -1.08541e-05 4.47761e-06
-1.08541e-05 -4.02498e-05 -2.75382e-07
4.47761e-06 -2.75382e-07 -3.99254e-05
0.00224693 6.3292e-05 2.72057e-06
6.3292e-05 6.51149e-06 -4.11152e-07
2.72057e-06 -4.11152e-07 4.91059e-05
0.00219718 0.000219978 4.07444e-07
0.000219978 -6.1016e-05 -1.18481e-08
4.07444e-07 -1.18481e-08 -4.03724e-05
0.00232241 0.000159414 1.04538e-06
0.000159414 -5.31653e-05 1.80862e-07
1.04538e-06 1.80862e-07 1.81597e-05
0.00237906 0.000481279 -6.11725e-09
0.000481279 3.59941e-05 -4.79829e-07
-6.11725e-09 -4.79829e-07 -2.37589e-06
0.00243174 0.00034307 3.05471e-07
0.00034307 -4.87126e-05 1.46093e-07
3.05471e-07 1.46093e-07 -8.1786e-06
0.00218942 -7.60888e-05 1.58925e-06
-7.60888e-05 0.000101421 4.81983e-07
1.58925e-06 4.81983e-07 4.23018e-05
0.00210183 -0.00026269 3.70528e-06
-0.00026269 4.09768e-05 -5.22785e-07
3.70528e-06 -5.22785e-07 -5.33624e-05
0.00217037 -0.000153346 -3.99003e-06
-0.000153346 9.72664e-06 4.34984e-07
-3.99003e-06 4.34984e-07 1.62929e-06
0.0023018 -0.000363549 -5.62905e-06
-0.000363549 0.000100675 1.17503e-06
-5.62905e-06 1.17503e-06 3.35381e-05
0.000521118 -0.000370674 -4.8756e-06
-0.000370674 -0.00012131 8.93805e-06
-4.8756e-06 8.93805e-06 -0.000481883
0.002178 -0.000888286 -8.92238e-07
-0.000888286 0.000660032 -2.90463e-06
-8.92238e-07 -2.90463e-06 8.36625e-05
0.00205768 -0.000878258 -1.10241e-06
-0.000878258 0.000292332 -2.44239e-06
-1.10241e-06 -2.44239e-06 -0.000209439
0.0020594 -0.000543294 -3.199e-06
-0.000543294 3.51793e-05 7.73992e-07
-3.199e-06 7.73992e-07 -0.000147239
0.00235146 -0.000496184 -1.65183e-07
-0.000496184 5.79378e-05 -5.62713e-07
-1.65183e-07 -5.62713e-07 1.05997e-05
0.00229368 -0.000681958 -1.37614e-06
-0.000681958 0.000160766 9.05267e-07
-1.37614e-06 9.05267e-07 -3.21795e-05
0.00232492 -0.000792848 -1.9716e-06
-0.000792848 0.000348784 -2.936e-06
-1.9716e-06 -2.936e-06 -7.20941e-06
0.00235831 -0.000779242 1.89494e-06
-0.000779242 0.000273775 2.20042e-07
1.89494e-06 2.20042e-07 1.76875e-05
0.000616176 -0.000468285 6.97445e-06
-0.000468285 -2.77579e-05 -4.23754e-06
6.97445e-06 -4.23754e-06 -0.000487981
0.00144538 -0.000511954 -1.33733e-05
-0.000511954 0.000534247 -1.57684e-06
-1.33733e-05 -1.57684e-06 6.23027e-05
0.0004858 -0.000252659 -5.42178e-06
-0.000252659 6.07303e-05 2.14457e-06
-5.42178e-06 2.14457e-06 -0.000208537
-0.000722741 -0.000169429 -1.80273e-06
-0.000169429 -0.000732057 -3.59791e-06
-1.80273e-06 -3.59791e-06 -0.00103466
0.00217173 -8.81655e-05 -1.25975e-07
-8.81655e-05 3.2783e-05 4.20162e-08
-1.25975e-07 4.20162e-08 2.24322e-05
0.00220436 -0.000261367 1.72623e-06
-0.000261367 2.02138e-05 -4.15278e-07
1.72623e-06 -4.15278e-07 -1.45311e-05
0.00215118 -0.00015228 -1.09056e-08
-0.00015228 -2.3365e-05 -1.85095e-07
-1.09056e-08 -1.85095e-07 4.63654e-06
0.0022878 -0.000386588 -3.78689e-07
-0.000386588 -1.29696e-05 2.81091e-07
-3.78689e-07 2.81091e-07 -1.04932e-05
0.00166113 -0.000717069 -1.76246e-06
-0.000717069 0.000492835 -5.00018e-08
-1.76246e-06 -5.00018e-08 -4.71274e-05
0.00208417 -0.00102157 3.5689e-06
-0.00102157 0.00051317 4.1321e-08
3.5689e-06 4.1321e-08 -0.00011732
0.00249498 -0.000964697 -2.63883e-07
-0.000964697 0.000523217 7.58435e-07
-2.63883e-07 7.58435e-07 2.07133e-05
0.00233317 -0.000599782 -9.72881e-07
-0.000599782 0.000117185 1.22191e-07
-9.72881e-07 1.22191e-07 2.52178e-07
0.00238319 -0.000524221 8.04906e-07
-0.000524221 1.41877e-05 -3.63047e-07
8.04906e-07 -3.63047e-07 -1.12342e-05
0.00247135 -0.000814488 -1.47807e-06
-0.000814488 0.000449351 9.74237e-07
-1.47807e-06 9.74237e-07 9.87516e-05
0.00240078 -0.000754002 -1.12539e-06
-0.000754002 0.000143295 6.55295e-07
-1.12539e-06 6.55295e-07 -1.11768e-05
0.00244817 -0.000846918 6.89435e-06
-0.000846918 0.000262605 -4.21087e-06
6.89435e-06 -4.21087e-06 5.65294e-07
0.00152272 -0.000754238 8.04472e-07
-0.000754238 0.000530662 -1.60813e-06
8.04472e-07 -1.60813e-06 -6.02494e-05
0.00161734 -0.000699483 -7.89864e-07
-0.000699483 0.000682042 1.00086e-06
-7.89864e-07 1.00086e-06 9.05116e-05
0.000868061 -0.000341185 1.22001e-06
-0.000341185 0.000312235 -2.31279e-06
1.22001e-06 -2.31279e-06 -7.85162e-05
0.000177137 -0.000137724 -4.66085e-06
-0.000137724 -0.000105172 1.70099e-06
-4.66085e-06 1.70099e-06 -0.000371411
-0.000514626 -0.000154409 1.63051e-07
-0.000154409 -0.000534 1.48702e-06
1.63051e-07 1.48702e-06 -0.000871836
0.00214595 -9.57047e-05 1.69243e-06
-9.57047e-05 -5.61751e-05 -4.64613e-09
1.69243e-06 -4.64613e-09 -1.53823e-05
0.00222878 -0.000229976 2.25414e-07
-0.000229976 -5.44692e-05 -5.54513e-07
2.25414e-07 -5.54513e-07 -1.53462e-05
0.00242849 -0.000470116 -1.07968e-06
-0.000470116 -6.05424e-05 -6.33735e-07
-1.07968e-06 -6.33735e-07 -1.51082e-05
0.00241048 -0.000638181 4.26614e-07
-0.000638181 4.55699e-05 9.43212e-07
4.26614e-07 9.43212e-07 -1.05419e-05
0.00191577 -0.000989823 3.88877e-06
-0.000989823 0.000640895 2.06242e-06
3.88877e-06 2.06242e-06 -2.88238e-05
0.00261969 -0.00089543 -2.91583e-06
-0.00089543 0.000171762 -1.27998e-06
-2.91583e-06 -1.27998e-06 -1.30438e-05
0.00158875 -0.00104145 -7.2525e-06
-0.00104145 0.000211701 7.39227e-06
-7.2525e-06 7.39227e-06 -0.000434827
0.00274132 -0.00102982 5.885e-07
-0.00102982 0.000654217 2.13863e-06
5.885e-07 2.13863e-06 0.000140038
0.00215308 -0.000798863 -1.27387e-05
-0.000798863 0.000206249 -2.83591e-06
-1.27387e-05 -2.83591e-06 -0.000123159
0.000360591 -9.80252e-05 1.63906e-06
-9.80252e-05 3.10104e-05 -8.17818e-06
1.63906e-06 -8.17818e-06 -0.000172542
0.000866213 -0.00031718 -8.55595e-07
-0.00031718 0.000417055 6.52673e-06
-8.55595e-07 6.52673e-06 3.50244e-05
0.00117734 -0.000265471 -7.95896e-06
-0.000265471 0.000517942 1.34339e-05
-7.95896e-06 1.34339e-05 0.000167301
0.00217886 -0.000919007 -2.99716e-06
-0.000919007 0.000941259 5.7514e-06
-2.99716e-06 5.7514e-06 0.000289816
0.00190311 -0.000523649 2.56571e-06
-0.000523649 0.000941757 5.74961e-06
2.56571e-06 5.74961e-06 0.000450288
0.00244475 -0.000894965 -5.26545e-06
-0.000894965 0.00116932 1.48414e-05
-5.26545e-06 1.48414e-05 0.000514721
0.000371595 4.4005e-05 -6.13464e-06
4.4005e-05 -4.72161e-05 -1.56049e-05
-6.13464e-06 -1.56049e-05 -0.000112161
0.000120536 9.20194e-05 -5.30833e-07
9.20194e-05 -0.000132104 -1.07861e-05
-5.30833e-07 -1.07861e-05 -0.000380827
0.00239278 0.000579615 -3.76847e-06
0.000579615 0.000205492 -6.14976e-07
-3.76847e-06 -6.14976e-07 2.69561e-05
-0.00025106 2.68754e-05 -2.0892e-06
2.68754e-05 -0.000385625 -5.23251e-07
-2.0892e-06 -5.23251e-07 -0.000734801
0.00311566 0.000607771 1.63565e-05
0.000607771 0.00159783 -6.03938e-06
1.63565e-05 -6.03938e-06 0.00119873
-0.000577219 0.000196536 -1.3572e-05
0.000196536 -0.000817156 4.46209e-07
-1.3572e-05 4.46209e-07 -0.00113851
0.00230238 0.000757733 1.9365e-06
0.000757733 0.000319517 3.27377e-06
1.9365e-06 3.27377e-06 -3.51682e-06
0.00233488 0.000731033 3.11363e-06
0.000731033 0.000216338 1.04122e-06
3.11363e-06 1.04122e-06 -2.5517e-05
0.00198841 0.000979223 1.02541e-05
0.000979223 0.000729301 1.18426e-05
1.02541e-05 1.18426e-05 5.22794e-05
0.00297575 0.00108856 -2.39129e-06
0.00108856 0.00100558 1.02544e-05
-2.39129e-06 1.02544e-05 0.000438091
0.00259693 0.000893159 5.54308e-06
0.000893159 0.000442294 5.58266e-06
5.54308e-06 5.58266e-06 6.02353e-05
0.000805361 0.000154761 1.1318e-06
0.000154761 0.000257514 -1.45213e-07
1.1318e-06 -1.45213e-07 8.44615e-05
0.000937574 0.000238852 -3.04108e-06
0.000238852 0.000432889 5.51065e-07
-3.04108e-06 5.51065e-07 7.0411e-05
0.00110456 0.000685665 1.51194e-07
0.000685665 0.0003234 1.75029e-07
1.51194e-07 1.75029e-07 -0.000215759
0.0009218 0.000216684 2.32269e-07
0.000216684 0.000117551 -1.79691e-06
2.32269e-07 -1.79691e-06 -0.000172929
0.00131328 0.000463709 3.29581e-06
0.000463709 0.000201738 -5.29042e-06
3.29581e-06 -5.29042e-06 -0.000167691
0.002379 0.000613413 -2.16243e-06
0.000613413 0.000117499 -9.8679e-07
-2.16243e-06 -9.8679e-07 -1.25829e-05
0.00240489 0.000837041 2.56149e-06
0.000837041 0.000321299 4.85616e-07
2.56149e-06 4.85616e-07 -1.62774e-05
0.00241067 0.0008126 1.14527e-06
0.0008126 0.000202942 6.70256e-07
1.14527e-06 6.70256e-07 -4.39764e-05
0.00189856 0.00109637 2.55602e-06
0.00109637 0.000668892 1.12082e-06
2.55602e-06 1.12082e-06 -3.26428e-05
0.00218462 0.00102209 -2.53699e-06
0.00102209 0.000379614 -3.12344e-06
-2.53699e-06 -3.12344e-06 -0.000135073
0.00183574 0.000393313 2.88765e-06
0.000393313 0.000987653 6.58764e-06
2.88765e-06 6.58764e-06 0.000704521
-0.000294923 0.000192672 7.87418e-07
0.000192672 -0.0003473 -3.26208e-06
7.87418e-07 -3.26208e-06 -0.000739213
0.00184988 0.000877038 4.51842e-06
0.000877038 0.000788441 -8.51945e-06
4.51842e-06 -8.51945e-06 0.000187822
-0.00318789 0.000308166 7.77284e-06
0.000308166 -0.00255989 -4.90427e-06
7.77284e-06 -4.90427e-06 -0.00291309
0.00365245 0.000931151 6.00317e-06
0.000931151 0.00162568 -8.40114e-06
6.00317e-06 -8.40114e-06 0.00113288
0.00255507 0.000721939 -3.03329e-06
0.000721939 8.97054e-05 -7.42281e-07
-3.03329e-06 -7.42281e-07 1.15581e-05
0.00243477 0.000890837 8.9968e-06
0.000890837 0.000277677 -3.46942e-06
8.9968e-06 -3.46942e-06 -9.16125e-05
0.00222492 0.000797743 7.36476e-06
0.000797743 4.86459e-06 -3.50081e-07
7.36476e-06 -3.50081e-07 -0.000257994
0.0021291 0.0011532 1.74661e-05
0.0011532 0.000722951 -5.34652e-07
1.74661e-05 -5.34652e-07 3.68684e-05
0.00262403 0.00122093 7.88345e-06
0.00122093 0.000705062 -1.39606e-06
7.88345e-06 -1.39606e-06 9.73565e-05
0.000441774 8.2058e-05 4.6394e-06
8.2058e-05 3.61011e-05 -1.09286e-05
4.6394e-06 -1.09286e-05 -0.000108785
0.000949247 0.000189248 -4.42274e-08
0.000189248 0.000417388 -6.18772e-07
-4.42274e-08 -6.18772e-07 0.000203031
-0.000271418 0.00011278 -3.92053e-06
0.00011278 -0.0003775 -1.57076e-05
-3.92053e-06 -1.57076e-05 -0.000524862
-0.000825384 -1.75855e-05 6.7241e-06
-1.75855e-05 -0.000709413 -4.11819e-06
6.7241e-06 -4.11819e-06 -0.000892966
0.000515573 0.000112056 -1.77776e-06
0.000112056 0.000164114 2.32134e-07
-1.77776e-06 2.32134e-07 -1.37241e-05
0.000185185 0.000116616 3.52979e-06
0.000116616 -9.94277e-06 -2.21642e-07
3.52979e-06 -2.21642e-07 -0.000229911
0.000587888 0.000218256 -1.04681e-06
0.000218256 0.000247775 -6.683e-06
-1.04681e-06 -6.683e-06 4.20302e-05
0.000314289 6.42661e-06 -7.40425e-06
6.42661e-06 8.04233e-05 4.97584e-06
-7.40425e-06 4.97584e-06 -0.000141171
0.000727841 0.00013178 -1.40907e-06
0.00013178 0.000274227 -6.04085e-08
-1.40907e-06 -6.04085e-08 0.000126497
0.000529247 9.63514e-05 1.75731e-06
9.63514e-05 0.000103683 3.67868e-06
1.75731e-06 3.67868e-06 4.98321e-06
0.000437464 3.70559e-05 -2.99977e-06
3.70559e-05 3.75732e-05 1.22948e-07
-2.99977e-06 1.22948e-07 -5.8134e-05
0.00141125 6.82941e-06 2.03288e-06
6.82941e-06 0.000635013 5.06278e-06
2.03288e-06 5.06278e-06 0.000606982
0.000269438 -8.79693e-05 8.2923e-06
-8.79693e-05 -5.46668e-05 -4.8213e-06
8.2923e-06 -4.8213e-06 -0.000164834
0.00145701 4.13221e-06 -1.31678e-05
4.13221e-06 0.000663319 -2.01653e-06
-1.31678e-05 -2.01653e-06 0.000633306
0.000719828 -1.32189e-05 4.32956e-05
-1.32189e-05 0.000174177 1.12425e-05
4.32956e-05 1.12425e-05 0.000175499
0.00152407 9.43307e-07 -1.99712e-05
9.43307e-07 0.000705798 -1.02702e-05
-1.99712e-05 -1.02702e-05 0.000672028
0.000744007 -3.15319e-05 2.17909e-05
-3.15319e-05 0.000190376 4.42521e-06
2.17909e-05 4.42521e-06 0.000183056
0.00344361 -0.000149842 6.74226e-06
-0.000149842 0.00197981 -5.31147e-06
6.74226e-06 -5.31147e-06 0.00196486
0.000188596 8.04376e-05 -3.67815e-06
8.04376e-05 -0.000116131 -8.06238e-06
-3.67815e-06 -8.06238e-06 -0.000184096
0.00035279 -4.6204e-05 -4.96787e-06
-4.6204e-05 -3.84521e-05 6.68284e-07
-4.96787e-06 6.68284e-07 -0.000116662
0.00378228 0.000208008 -1.96303e-05
0.000208008 0.00223717 -1.10023e-05
-1.96303e-05 -1.10023e-05 0.00220628
0.000828793 -0.000169701 -2.05872e-05
-0.000169701 0.000236075 1.40788e-05
-2.05872e-05 1.40788e-05 0.000123558
0.00497039 0.000161996 -4.69222e-05
0.000161996 0.00301789 8.46314e-09
-4.69222e-05 8.46314e-09 0.00299156
0.00626907 0.000135189 -0.000209776
0.000135189 0.00388805 3.77763e-05
-0.000209776 3.77763e-05 0.00385931
0.00236022 0.000480459 -4.08389e-06
0.000480459 0.000112542 -3.5942e-07
-4.08389e-06 -3.5942e-07 1.44804e-05
0.00221351 0.000237977 -5.48368e-06
0.000237977 3.65394e-05 -8.32456e-07
-5.48368e-06 -8.32456e-07 1.20735e-05
0.00226645 0.000337485 3.84104e-07
0.000337485 -6.41303e-05 5.27319e-07
3.84104e-07 5.27319e-07 -4.92103e-05
0.00215278 0.000152059 -5.58043e-07
0.000152059 -7.02274e-05 -1.32908e-07
-5.58043e-07 -1.32908e-07 -3.38861e-05
0.0020948 5.8891e-05 -4.95482e-06
5.8891e-05 -3.11431e-05 1.63654e-07
-4.95482e-06 1.63654e-07 -3.35929e-05
0.00217213 -5.08052e-06 -1.14382e-06
-5.08052e-06 8.62828e-05 6.47802e-07
-1.14382e-06 6.47802e-07 3.04816e-05
0.00211876 -1.23754e-05 2.56107e-07
-1.23754e-05 -1.09965e-05 -2.01849e-08
2.56107e-07 -2.01849e-08 -1.30978e-05
0.00223009 6.60811e-05 5.83252e-07
6.60811e-05 5.87011e-07 -1.05514e-08
5.83252e-07 -1.05514e-08 3.80772e-05
0.00222512 0.000221262 -5.21172e-07
0.000221262 -3.53832e-05 -6.30314e-08
-5.21172e-07 -6.30314e-08 -1.59218e-05
0.00229038 0.000159822 6.33613e-07
0.000159822 -7.86979e-05 1.13048e-07
6.33613e-07 1.13048e-07 1.507e-06
0.00238591 0.000482277 -3.45597e-07
0.000482277 4.46613e-05 4.92926e-08
-3.45597e-07 4.92926e-08 4.26666e-06
0.00241394 0.000346183 2.0599e-06
0.000346183 -6.00894e-05 6.59664e-07
2.0599e-06 6.59664e-07 -1.06989e-05
0.00215879 -1.6864e-05 5.97668e-07
-1.6864e-05 -4.6929e-05 -1.66297e-07
5.97668e-07 -1.66297e-07 -1.15998e-05
0.00232461 8.09517e-05 1.0742e-06
8.09517e-05 -7.36972e-05 -6.34286e-07
1.0742e-06 -6.34286e-07 1.87511e-05
0.00239766 0.000230093 -1.00894e-06
0.000230093 -6.18155e-05 2.68015e-07
-1.00894e-06 2.68015e-07 2.07208e-05
0.00252626 0.000502937 -2.01009e-06
0.000502937 -3.69915e-05 1.14431e-07
-2.01009e-06 1.14431e-07 1.02355e-05
0.00217293 -8.79637e-05 -6.38786e-06
-8.79637e-05 3.12876e-05 6.50274e-07
-6.38786e-06 6.50274e-07 2.09307e-05
0.00226525 -0.00026601 -3.93083e-06
-0.00026601 6.71545e-05 8.11315e-07
-3.93083e-06 8.11315e-07 3.15419e-05
0.00210018 -0.000151074 -1.99542e-06
-0.000151074 -6.31144e-05 3.62984e-07
-1.99542e-06 3.62984e-07 -3.26997e-05
0.00228659 -0.000385926 -2.73099e-06
-0.000385926 -6.84021e-06 3.34439e-07
-2.73099e-06 3.34439e-07 -1.25381e-05
0.00161867 -0.000702335 9.91082e-06
-0.000702335 0.000456471 -3.12679e-06
9.91082e-06 -3.12679e-06 -7.56437e-05
0.00205106 -0.00102001 2.96321e-06
-0.00102001 0.000491521 -4.17613e-06
2.96321e-06 -4.17613e-06 -0.000141416
0.00249284 -0.000985022 -7.68393e-06
-0.000985022 0.000519433 -2.30009e-06
-7.68393e-06 -2.30009e-06 4.42573e-06
0.00235586 -0.000599772 -3.32033e-06
-0.000599772 0.000141812 9.77019e-07
-3.32033e-06 9.77019e-07 1.82877e-05
0.00237404 -0.000522925 2.24254e-06
-0.000522925 9.43997e-06 -7.14968e-07
2.24254e-06 -7.14968e-07 -7.5792e-06
0.00237509 -0.00075465 -2.59933e-06
-0.00075465 0.000120772 1.42285e-06
-2.59933e-06 1.42285e-06 -3.40167e-05
0.00244248 -0.00080842 -1.04165e-07
-0.00080842 0.000440022 -6.20175e-07
-1.04165e-07 -6.20175e-07 9.06608e-05
0.00247706 -0.00084237 8.12366e-06
-0.00084237 0.000279212 9.27334e-07
8.12366e-06 9.27334e-07 2.19769e-05
0.00196008 -0.000806581 -1.95847e-05
-0.000806581 0.000842575 -2.43614e-06
-1.95847e-05 -2.43614e-06 0.000237134
0.00100319 -0.000632564 9.64211e-06
-0.000632564 0.000286837 -1.36704e-05
9.64211e-06 -1.36704e-05 -0.000283208
0.00210952 -0.000398114 -3.0464e-06
-0.000398114 0.00107737 -5.76941e-06
-3.0464e-06 -5.76941e-06 0.000683386
-7.8056e-05 -4.60218e-05 -3.18383e-08
-4.60218e-05 -0.000263292 2.60857e-06
-3.18383e-08 2.60857e-06 -0.000524163
0.000252885 -8.87849e-05 1.05416e-05
-8.87849e-05 -4.60466e-05 -1.2237e-05
1.05416e-05 -1.2237e-05 -0.000376386
0.0021345 -0.000103137 1.39787e-07
-0.000103137 -6.22791e-05 -5.36012e-08
1.39787e-07 -5.36012e-08 -2.24609e-05
0.00224962 -0.000231794 1.8321e-06
-0.000231794 -4.35209e-05 -2.81529e-08
1.8321e-06 -2.81529e-08 -5.70648e-06
0.00242487 -0.000463718 -9.58357e-07
-0.000463718 -4.3452e-05 2.81449e-07
-9.58357e-07 2.81449e-07 -8.72479e-06
0.00219118 -0.00100263 -2.21326e-06
-0.00100263 0.000811713 -1.77095e-07
-2.21326e-06 -1.77095e-07 0.000145014
0.00172602 -0.00104471 6.71771e-06
-0.00104471 0.000297322 -1.19862e-06
6.71771e-06 -1.19862e-06 -0.000347342
0.00256049 -0.00103023 -1.55957e-06
-0.00103023 0.000543305 1.4421e-07
-1.55957e-06 1.4421e-07 2.18663e-05
0.00241892 -0.000630795 3.8782e-07
-0.000630795 5.76682e-05 -4.45217e-07
3.8782e-07 -4.45217e-07 -3.33122e-08
0.0023494 -0.000841818 3.81658e-06
-0.000841818 0.000294012 -4.32981e-06
3.81658e-06 -4.32981e-06 -3.9323e-05
0.00262263 -0.000884337 -1.19489e-06
-0.000884337 0.000204791 -6.91532e-07
-1.19489e-06 -6.91532e-07 2.39915e-05
-0.000389552 1.44914e-05 -1.72497e-06
1.44914e-05 -0.000477586 -4.14452e-07
-1.72497e-06 -4.14452e-07 -0.000655
0.00178778 -0.000855964 1.06943e-06
-0.000855964 0.000718448 -2.46656e-07
1.06943e-06 -2.46656e-07 7.70088e-05
0.00162111 -0.000796613 -4.68755e-06
-0.000796613 0.000681035 -3.4407e-07
-4.68755e-06 -3.4407e-07 1.60931e-05
0.00156404 -0.00049096 -1.11223e-06
-0.00049096 0.000708157 2.22214e-06
-1.11223e-06 2.22214e-06 0.000209849
0.00152199 -0.000356009 6.52505e-07
-0.000356009 0.000738858 -1.7804e-06
6.52505e-07 -1.7804e-06 0.000375206
0.000837906 -0.000205808 2.63188e-09
-0.000205808 0.000369331 1.41193e-06
2.63188e-09 1.41193e-06 -8.88698e-06
0.00227139 -0.000132387 -8.68718e-08
-0.000132387 -8.83452e-05 -3.12612e-08
-8.68718e-08 -3.12612e-08 -9.0205e-06
0.00244889 -0.00030827 1.43852e-06
-0.00030827 -0.000104338 -4.33311e-07
1.43852e-06 -4.33311e-07 5.95397e-06
0.00252452 -0.000581942 -1.53355e-06
-0.000581942 -3.9003e-05 3.92375e-07
-1.53355e-06 3.92375e-07 8.64951e-06
0.00254078 -0.000764202 -2.05076e-06
-0.000764202 1.41975e-05 1.46181e-06
-2.05076e-06 1.46181e-06 -8.54851e-06
0.00243154 -0.00111712 -5.97297e-06
-0.00111712 0.000963173 3.90718e-06
-5.97297e-06 3.90718e-06 0.000259871
0.00259155 -0.00100789 -2.10814e-06
-0.00100789 0.000273607 -5.20321e-06
-2.10814e-06 -5.20321e-06 -3.09796e-05
0.00242905 -0.00124401 -5.56108e-05
-0.00124401 0.000720572 8.7952e-06
-5.56108e-05 8.7952e-06 5.91761e-07
0.0022129 -0.00104044 -2.82402e-05
-0.00104044 0.000351069 1.7102e-06
-2.82402e-05 1.7102e-06 -0.000176234
-0.000601397 2.38812e-05 -2.59044e-06
2.38812e-05 -0.000636282 -4.35817e-06
-2.59044e-06 -4.35817e-06 -0.000751805
0.00129362 -7.74137e-05 -7.12537e-08
-7.74137e-05 0.000711256 5.04693e-06
-7.12537e-08 5.04693e-06 0.00038686
0.00243949 -0.000381241 -7.87412e-06
-0.000381241 0.00138082 9.27649e-06
-7.87412e-06 9.27649e-06 0.0009789
0.000621614 -0.000298652 -8.62098e-06
-0.000298652 0.000155929 4.97677e-06
-8.62098e-06 4.97677e-06 -0.000247257
0.002446 -0.000964942 -1.03553e-06
-0.000964942 0.00110457 1.95134e-05
-1.03553e-06 1.95134e-05 0.000450845
0.00205205 -0.000828898 2.15284e-06
-0.000828898 0.000975801 1.68707e-05
2.15284e-06 1.68707e-05 0.000248636
0.000538989 0.000130593 1.90607e-06
0.000130593 8.75921e-05 -1.07231e-05
1.90607e-06 -1.07231e-05 -8.20129e-05
-0.00056723 9.53412e-05 2.79472e-07
9.53412e-05 -0.00054582 -3.59652e-06
2.79472e-07 -3.59652e-06 -0.000884958
0.00238299 0.000613336 -9.03929e-07
0.000613336 0.000132761 -3.16499e-07
-9.03929e-07 -3.16499e-07 1.26592e-06
0.000421113 0.000178024 -5.03099e-06
0.000178024 -0.000191875 6.35593e-06
-5.03099e-06 6.35593e-06 -0.000481855
0.00195525 0.000808456 9.08156e-06
0.000808456 0.000855204 -1.56132e-06
9.08156e-06 -1.56132e-06 0.000265957
0.000102238 0.000239778 -1.08045e-05
0.000239778 -0.000548781 6.05989e-07
-1.08045e-05 6.05989e-07 -0.000847131
0.00249289 0.000849366 4.86178e-06
0.000849366 0.000359439 1.61863e-06
4.86178e-06 1.61863e-06 1.88673e-05
0.00243915 0.000818177 -3.21914e-06
0.000818177 0.000198691 6.39043e-07
-3.21914e-06 6.39043e-07 -4.91228e-05
0.00230548 0.00116668 -4.68102e-06
0.00116668 0.000891216 8.04865e-06
-4.68102e-06 8.04865e-06 0.000177909
0.00217782 0.00103259 -7.86352e-06
0.00103259 0.00041645 3.63082e-06
-7.86352e-06 3.63082e-06 -0.000110974
0.000755874 0.000278095 -3.00035e-07
0.000278095 0.000290832 -4.68389e-07
-3.00035e-07 -4.68389e-07 1.82324e-05
0.000943702 0.000329971 1.39436e-06
0.000329971 0.000423663 -3.47308e-06
1.39436e-06 -3.47308e-06 2.05268e-05
0.00159385 0.000829044 -2.86762e-06
0.000829044 0.000634707 3.5376e-08
-2.86762e-06 3.5376e-08 4.58437e-05
0.000502018 0.000389613 -3.93298e-06
0.000389613 -0.000257848 1.42026e-06
-3.93298e-06 1.42026e-06 -0.000586249
0.00308813 0.000835416 1.5323e-06
0.000835416 0.00125951 1.29012e-06
1.5323e-06 1.29012e-06 0.000791066
0.00259476 0.000730143 -2.50702e-06
0.000730143 9.68268e-05 -4.35771e-07
-2.50702e-06 -4.35771e-07 1.49613e-05
0.00257586 0.000875753 2.76707e-06
0.000875753 0.000374437 -7.34982e-07
2.76707e-06 -7.34982e-07 1.99969e-05
0.0026122 0.000834346 5.5616e-07
0.000834346 0.000258136 2.77729e-06
5.5616e-07 2.77729e-06 -1.48877e-05
0.0020854 0.00116077 4.83222e-06
0.00116077 0.000686751 1.3513e-06
4.83222e-06 1.3513e-06 -6.19027e-06
0.00249084 0.00126034 -5.43746e-06
0.00126034 0.000631074 8.17075e-07
-5.43746e-06 8.17075e-07 -5.22401e-06
-0.00184833 1.28021e-05 -1.09549e-05
1.28021e-05 -0.00135494 8.42768e-07
-1.09549e-05 8.42768e-07 -0.00159353
-0.00304841 0.000384202 -1.9301e-06
0.000384202 -0.0018237 -3.75888e-06
-1.9301e-06 -3.75888e-06 -0.00235323
0.00208549 0.000946922 1.2985e-05
0.000946922 0.000805766 -5.601e-06
1.2985e-05 -5.601e-06 0.000212266
0.00114258 0.000485521 5.52289e-06
0.000485521 3.90078e-05 -1.09567e-05
5.52289e-06 -1.09567e-05 -0.000295802
0.00273783 0.000677703 3.72062e-07
0.000677703 -0.000161532 1.20754e-06
3.72062e-07 1.20754e-06 -2.51376e-05
0.00265863 0.000878797 7.05497e-06
0.000878797 0.000144626 -2.41334e-07
7.05497e-06 -2.41334e-07 -3.0615e-05
0.00273467 0.00109487 1.16216e-05
0.00109487 0.000477322 -4.45328e-06
1.16216e-05 -4.45328e-06 -2.56567e-05
0.00228523 0.00130112 6.07807e-06
0.00130112 0.000607898 -1.35661e-06
6.07807e-06 -1.35661e-06 -0.000121638
0.00153156 0.000246191 4.58006e-06
0.000246191 0.000832308 -1.03782e-06
4.58006e-06 -1.03782e-06 0.00058539
0.000388027 0.000215689 -5.1005e-06
0.000215689 9.0675e-05 1.28345e-06
-5.1005e-06 1.28345e-06 -9.42019e-05
0.000543604 0.000134216 -7.70303e-06
0.000134216 0.000208271 -5.95239e-06
-7.70303e-06 -5.95239e-06 8.11047e-05
2.01072e-05 4.48051e-05 3.09804e-06
4.48051e-05 -0.00018034 -3.15252e-06
3.09804e-06 -3.15252e-06 -0.0003399
-0.001552 5.45779e-05 5.79304e-07
5.45779e-05 -0.0010821 -1.35081e-06
5.79304e-07 -1.35081e-06 -0.00131282
0.000763605 8.53468e-05 -1.0836e-06
8.53468e-05 0.000300644 -6.50824e-08
-1.0836e-06 -6.50824e-08 0.00014908
0.000729548 0.000249093 4.72579e-06
0.000249093 0.000380647 2.57934e-06
4.72579e-06 2.57934e-06 0.00016688
0.000703833 9.95603e-05 1.34231e-06
9.95603e-05 0.000365431 2.40362e-06
1.34231e-06 2.40362e-06 0.000114273
0.000392255 0.000130772 -4.05653e-06
0.000130772 2.79271e-05 -9.49489e-06
-4.05653e-06 -9.49489e-06 -6.38555e-05
0.000775894 6.62629e-05 -5.32701e-06
6.62629e-05 0.000419441 -2.2451e-06
-5.32701e-06 -2.2451e-06 0.000159817
-0.000151214 7.76504e-05 -2.84803e-06
7.76504e-05 -0.000249105 3.9672e-06
-2.84803e-06 3.9672e-06 -0.000442851
0.00074712 0.000145182 2.12052e-06
0.000145182 0.000285301 2.5235e-06
2.12052e-06 2.5235e-06 0.000133512
0.000443065 9.76153e-05 2.4203e-06
9.76153e-05 5.46925e-05 4.03001e-06
2.4203e-06 4.03001e-06 -4.75671e-05
0.000423092 2.10966e-05 -1.94517e-06
2.10966e-05 3.04067e-05 -4.12027e-07
-1.94517e-06 -4.12027e-07 -6.47724e-05
0.00128193 2.08568e-05 5.23867e-07
2.08568e-05 0.000555486 3.72139e-06
5.23867e-07 3.72139e-06 0.000528405
0.000425772 -5.10869e-05 3.48318e-06
-5.10869e-05 2.67084e-05 -3.76723e-06
3.48318e-06 -3.76723e-06 -6.57839e-05
0.00136008 5.69785e-06 -1.15844e-05
5.69785e-06 0.00060377 -1.94085e-06
-1.15844e-05 -1.94085e-06 0.000576445
0.000636677 -4.23343e-06 3.90856e-05
-4.23343e-06 0.000121975 1.09561e-05
3.90856e-05 1.09561e-05 0.000125002
0.00139586 -3.57127e-05 -1.23892e-05
-3.57127e-05 0.000625966 -9.26029e-06
-1.23892e-05 -9.26029e-06 0.000596582
0.000705381 -2.18544e-05 1.78749e-05
-2.18544e-05 0.000163801 4.09352e-06
1.78749e-05 4.09352e-06 0.000161598
0.00062577 -3.6513e-05 3.8275e-06
-3.6513e-05 0.0001159 -4.66591e-06
3.8275e-06 -4.66591e-06 0.000105734
0.000385675 3.7715e-05 2.26572e-07
3.7715e-05 -2.91041e-05 -6.63109e-06
2.26572e-07 -6.63109e-06 -7.1268e-05
0.000413468 4.15361e-05 -1.73193e-06
4.15361e-05 5.30597e-06 -1.85543e-08
-1.73193e-06 -1.85543e-08 -5.15345e-05
0.00306912 0.000160887 -1.62774e-05
0.000160887 0.00175492 -9.51434e-06
-1.62774e-05 -9.51434e-06 0.00173802
0.000558021 -5.40185e-05 -1.53014e-05
-5.40185e-05 9.34406e-05 1.15932e-05
-1.53014e-05 1.15932e-05 9.36117e-06
0.00398926 0.000168778 -2.85272e-05
0.000168778 0.00235888 -2.12455e-06
-2.85272e-05 -2.12455e-06 0.00233601
0.0051108 7.28698e-05 -0.000185972
7.28698e-05 0.00310013 2.87891e-05
-0.000185972 2.87891e-05 0.00309454
0.00239021 0.000482838 4.26739e-07
0.000482838 5.23304e-05 6.76472e-07
4.26739e-07 6.76472e-07 1.00929e-05
0.00225233 0.000222579 -1.45593e-06
0.000222579 -1.08888e-05 -5.20341e-07
-1.45593e-06 -5.20341e-07 7.42502e-06
0.00239405 0.0003485 1.9986e-06
0.0003485 -7.31042e-05 1.48187e-06
1.9986e-06 1.48187e-06 -1.47188e-05
0.00226182 0.000160339 4.97176e-07
0.000160339 -0.000102186 -9.13103e-08
4.97176e-07 -9.13103e-08 -1.30827e-05
0.00221167 6.88847e-05 -1.97331e-06
6.88847e-05 -6.37139e-06 4.34537e-07
-1.97331e-06 4.34537e-07 2.60963e-05
0.00215402 -1.50877e-05 -6.16148e-06
-1.50877e-05 1.69631e-05 3.39654e-07
-6.16148e-06 3.39654e-07 1.2625e-05
0.00217279 -1.62574e-05 7.55823e-07
-1.62574e-05 -3.60268e-05 1.24748e-08
7.55823e-07 1.24748e-08 8.94489e-07
0.00229471 8.56216e-05 4.24568e-07
8.56216e-05 -8.90769e-05 1.558e-07
4.24568e-07 1.558e-07 2.27615e-06
0.00239208 0.000235797 8.77767e-07
0.000235797 -6.68847e-05 1.40823e-07
8.77767e-07 1.40823e-07 1.73425e-05
0.00250377 0.000486334 5.461e-07
0.000486334 -5.36495e-05 2.12467e-07
5.461e-07 2.12467e-07 -1.35404e-06
0.00229332 -1.64582e-05 -4.9264e-07
-1.64582e-05 -8.32304e-05 -2.77337e-07
-4.9264e-07 -2.77337e-07 1.33179e-06
0.00243437 0.000137829 1.35251e-07
0.000137829 -0.000121231 6.74842e-07
1.35251e-07 6.74842e-07 2.87896e-05
0.00265423 0.000344299 -1.22834e-06
0.000344299 -7.41592e-05 3.12958e-07
-1.22834e-06 3.12958e-07 5.13103e-05
0.00212081 -0.000110387 -1.29493e-06
-0.000110387 -6.96089e-05 -1.45122e-07
-1.29493e-06 -1.45122e-07 -3.05983e-05
0.00227029 -0.000232719 -1.90844e-06
-0.000232719 -3.17445e-05 8.24105e-08
-1.90844e-06 8.24105e-08 4.76616e-06
0.00241133 -0.000456335 1.45861e-07
-0.000456335 -3.29693e-05 3.3705e-07
1.45861e-07 3.3705e-07 -8.70652e-06
0.00222971 -0.000994738 -5.36553e-06
-0.000994738 0.00081869 -3.44094e-06
-5.36553e-06 -3.44094e-06 0.000158424
0.00188652 -0.00104181 1.14689e-05
-0.00104181 0.000402126 -5.82372e-06
1.14689e-05 -5.82372e-06 -0.000236776
0.0024166 -0.00103029 8.26254e-07
-0.00103029 0.000457694 -7.66869e-07
8.26254e-07 -7.66869e-07 -6.84966e-05
0.00243122 -0.000624684 -3.66489e-07
-0.000624684 7.02254e-05 -1.63411e-07
-3.66489e-07 -1.63411e-07 1.10744e-05
0.00264899 -0.000874867 2.52261e-06
-0.000874867 0.000250201 1.23562e-06
2.52261e-06 1.23562e-06 7.65851e-05
0.00250952 -0.000883094 1.18482e-05
-0.000883094 0.000361734 -4.71535e-06
1.18482e-05 -4.71535e-06 2.55782e-05
0.00141038 -0.000795993 -2.54328e-06
-0.000795993 0.00050079 -5.25481e-06
-2.54328e-06 -5.25481e-06 -0.000129371
0.00215371 -0.000884322 3.4647e-06
-0.000884322 0.0010052 -2.40711e-05
3.4647e-06 -2.40711e-05 0.000324769
0.00171866 -0.000563783 -5.21654e-06
-0.000563783 0.000854326 7.70475e-06
-5.21654e-06 7.70475e-06 0.000314613
3.86614e-05 2.89835e-05 6.04864e-06
2.89835e-05 -0.000194964 2.89894e-06
6.04864e-06 2.89894e-06 -0.000371321
0.00110838 -0.000330909 1.30456e-05
-0.000330909 0.000421216 -1.75114e-05
1.30456e-05 -1.75114e-05 9.68523e-05
-0.000515888 -0.000133983 3.80534e-06
-0.000133983 -0.000520779 -8.2323e-06
3.80534e-06 -8.2323e-06 -0.000898417
0.0022956 -0.000125216 -3.23942e-07
-0.000125216 -7.11869e-05 4.38203e-08
-3.23942e-07 4.38203e-08 5.25196e-06
0.00242686 -0.000321188 3.97391e-07
-0.000321188 -0.000127954 -5.65753e-08
3.97391e-07 -5.65753e-08 -1.24443e-05
0.00251751 -0.000569704 -4.98428e-07
-0.000569704 -3.93266e-05 -1.08353e-07
-4.98428e-07 -1.08353e-07 7.80371e-06
0.00220337 -0.0010868 -2.61044e-06
-0.0010868 0.000810403 9.2083e-07
-2.61044e-06 9.2083e-07 0.000117526
0.00225456 -0.0012071 1.01304e-05
-0.0012071 0.000628354 -1.84208e-06
1.01304e-05 -1.84208e-06 -7.59093e-05
0.00246945 -0.00105597 -1.70884e-06
-0.00105597 0.000496936 -2.58422e-06
-1.70884e-06 -2.58422e-06 -2.0175e-05
0.00257338 -0.000779106 6.50718e-07
-0.000779106 3.53738e-05 -3.98394e-07
6.50718e-07 -3.98394e-07 2.30948e-08
0.00257999 -0.000986332 2.32902e-06
-0.000986332 0.000290206 -1.57884e-06
2.32902e-06 -1.57884e-06 -2.16513e-06
9.98348e-05 6.0597e-05 -2.64605e-06
6.0597e-05 -0.000172331 -3.04806e-06
-2.64605e-06 -3.04806e-06 -0.000288045
0.000797196 -0.000115043 -2.2452e-06
-0.000115043 0.000373404 1.5331e-06
-2.2452e-06 1.5331e-06 6.39741e-05
0.00137016 -0.000834107 -4.44612e-06
-0.000834107 0.000448129 6.31848e-07
-4.44612e-06 6.31848e-07 -0.000161422
0.00162951 -0.000731373 -6.64827e-06
-0.000731373 0.000741454 1.95646e-06
-6.64827e-06 1.95646e-06 3.53695e-05
0.0013417 -0.000235339 -1.54877e-06
-0.000235339 0.000580417 -1.09171e-05
-1.54877e-06 -1.09171e-05 0.000172561
0.000943193 -0.000377385 -3.9791e-06
-0.000377385 0.000410213 -3.3237e-09
-3.9791e-06 -3.3237e-09 2.57741e-05
0.00239835 -0.000162796 1.15974e-06
-0.000162796 -0.000147917 -1.12972e-06
1.15974e-06 -1.12972e-06 4.23192e-06
0.00263817 -0.000475718 1.04807e-06
-0.000475718 -0.000164629 -1.14425e-06
1.04807e-06 -1.14425e-06 2.27399e-05
0.00258314 -0.000722826 -4.5296e-07
-0.000722826 -7.67094e-05 2.42421e-06
-4.5296e-07 2.42421e-06 -3.00425e-05
0.00272951 -0.000990971 -1.78523e-07
-0.000990971 0.00016298 -9.00845e-07
-1.78523e-07 -9.00845e-07 1.75145e-05
0.0014398 -0.00101391 -8.65139e-06
-0.00101391 0.000390578 -3.05667e-06
-8.65139e-06 -3.05667e-06 -0.000267302
0.00268359 -0.00117844 6.73095e-06
-0.00117844 0.000522901 -3.77761e-06
6.73095e-06 -3.77761e-06 2.7618e-05
0.00246503 -0.00134303 -6.55075e-05
-0.00134303 0.000693815 4.04727e-06
-6.55075e-05 4.04727e-06 -5.3174e-05
0.000473736 5.13142e-05 1.3497e-06
5.13142e-05 5.33739e-05 -2.8904e-06
1.3497e-06 -2.8904e-06 -3.19186e-05
0.000710067 -0.000160877 7.21055e-06
-0.000160877 0.000283561 -7.64787e-06
7.21055e-06 -7.64787e-06 0.000136988
-0.000384996 7.34019e-05 -5.50106e-06
7.34019e-05 -0.000416207 -4.72818e-07
-5.50106e-06 -4.72818e-07 -0.000618725
0.000293851 -0.000204493 -6.33817e-06
-0.000204493 6.70322e-05 1.25019e-05
-6.33817e-06 1.25019e-05 -0.000278288
0.00238148 -0.000250296 -8.37284e-06
-0.000250296 0.00130085 -8.77132e-06
-8.37284e-06 -8.77132e-06 0.000958706
0.00119102 -0.00035399 -1.44906e-05
-0.00035399 0.00057091 -2.11612e-07
-1.44906e-05 -2.11612e-07 6.36313e-06
0.00152371 -0.00093454 -1.07222e-05
-0.00093454 0.000503659 3.93738e-05
-1.07222e-05 3.93738e-05 -0.000117727
0.00426633 -0.00114888 -2.94604e-05
-0.00114888 0.00233023 1.49472e-05
-2.94604e-05 1.49472e-05 0.00144019
5.37668e-05 0.000148513 4.63051e-06
0.000148513 -0.000191206 -3.77702e-06
4.63051e-06 -3.77702e-06 -0.000434557
0.00236489 0.000504367 2.76976e-06
0.000504367 0.00129029 4.74169e-06
2.76976e-06 4.74169e-06 0.000882309
0.00263499 0.000739921 -2.02607e-07
0.000739921 0.000102803 -6.44101e-07
-2.02607e-07 -6.44101e-07 1.60989e-05
0.00281552 0.000353632 1.40555e-06
0.000353632 0.00113272 4.03871e-06
1.40555e-06 4.03871e-06 0.00081919
0.00127774 0.000773874 6.0074e-07
0.000773874 0.000442808 1.21484e-06
6.0074e-07 1.21484e-06 -0.000135201
0.00304527 0.000813921 -3.90818e-06
0.000813921 0.00121778 1.07984e-05
-3.90818e-06 1.07984e-05 0.000753025
0.00268484 0.000855693 -5.01672e-06
0.000855693 0.000450894 3.21413e-07
-5.01672e-06 3.21413e-07 0.000113088
0.00300439 0.000872096 -4.5138e-06
0.000872096 0.000514313 7.13897e-06
-4.5138e-06 7.13897e-06 0.000230259
0.00203505 0.00116853 -6.09045e-06
0.00116853 0.000643718 3.82167e-06
-6.09045e-06 3.82167e-06 -5.48852e-05
0.00229773 0.00129644 -1.5557e-05
0.00129644 0.000517936 2.48586e-07
-1.5557e-05 2.48586e-07 -0.000145568
-0.000658082 0.000118533 1.7561e-06
0.000118533 -0.000552758 1.57551e-06
1.7561e-06 1.57551e-06 -0.00084839
-0.000380272 0.000462653 5.0544e-06
0.000462653 -0.000169556 -2.74689e-06
5.0544e-06 -2.74689e-06 -0.000682462
0.00188671 0.000949575 -1.69067e-07
0.000949575 0.000635843 -6.60804e-07
-1.69067e-07 -6.60804e-07 3.02246e-05
0.00245818 0.000638499 -6.31907e-06
0.000638499 0.000928843 -2.39565e-07
-6.31907e-06 -2.39565e-07 0.00054836
0.00268344 0.000646856 8.88953e-08
0.000646856 -0.000232028 -4.24105e-07
8.88953e-08 -4.24105e-07 -7.0681e-05
0.00282417 0.000891758 3.29291e-06
0.000891758 0.000240191 -7.33361e-07
3.29291e-06 -7.33361e-07 4.77754e-05
0.00252489 0.00104749 -4.11043e-06
0.00104749 0.00040329 -4.83919e-07
-4.11043e-06 -4.83919e-07 -8.22432e-05
0.00252476 0.00130884 1.66317e-06
0.00130884 0.000736309 7.13917e-07
1.66317e-06 7.13917e-07 1.70833e-05
-0.00123883 -3.5447e-06 -5.09422e-06
-3.5447e-06 -0.000889297 -2.6942e-06
-5.09422e-06 -2.6942e-06 -0.00110763
0.00265283 0.000446574 -1.82506e-06
0.000446574 -0.000271484 1.03318e-06
-1.82506e-06 1.03318e-06 -7.69511e-05
0.00385334 0.00088685 -7.51349e-06
0.00088685 0.0024593 8.73875e-06
-7.51349e-06 8.73875e-06 0.00186625
0.00173671 0.000860327 2.59633e-06
0.000860327 0.000432852 -3.71277e-06
2.59633e-06 -3.71277e-06 -9.38544e-05
0.00279715 0.000870449 -1.83365e-05
0.000870449 -9.82171e-06 -1.16211e-05
-1.83365e-05 -1.16211e-05 4.56992e-05
0.00157217 0.000969861 8.5541e-06
0.000969861 -0.000264605 -1.16382e-05
8.5541e-06 -1.16382e-05 -0.000704591
0.00337698 0.00143897 4.56177e-06
0.00143897 0.00117982 3.76164e-06
4.56177e-06 3.76164e-06 0.000425298
6.03706e-06 0.000148432 1.53583e-06
0.000148432 -0.000133015 5.69568e-06
1.53583e-06 5.69568e-06 -0.000335202
0.000491693 0.00016058 -1.52334e-06
0.00016058 0.000186132 -4.14071e-07
-1.52334e-06 -4.14071e-07 5.13505e-05
-0.000160659 7.9056e-05 -6.56777e-06
7.9056e-05 -0.000168795 -3.40068e-06
-6.56777e-06 -3.40068e-06 -0.000277203
0.000137667 -3.03682e-06 2.73839e-06
-3.03682e-06 -0.000117298 -1.74488e-06
2.73839e-06 -1.74488e-06 -0.000255932
0.000532115 0.000134261 4.15632e-06
0.000134261 0.000250058 -6.41173e-06
4.15632e-06 -6.41173e-06 3.87734e-06
-0.00024369 0.000183492 -6.20007e-06
0.000183492 -0.000212997 8.40964e-06
-6.20007e-06 8.40964e-06 -0.000404839
0.000487674 2.79042e-05 -1.70992e-06
2.79042e-05 0.000114363 -2.06864e-07
-1.70992e-06 -2.06864e-07 -3.4424e-05
0.000271592 4.53e-06 -1.16938e-08
4.53e-06 4.91692e-05 -4.17137e-07
-1.16938e-08 -4.17137e-07 -0.000164196
-0.000128893 9.27636e-05 -9.23114e-06
9.27636e-05 -0.000245275 4.16283e-06
-9.23114e-06 4.16283e-06 -0.000329538
0.000650729 0.000168154 2.66248e-06
0.000168154 0.000348396 -2.80819e-06
2.66248e-06 -2.80819e-06 8.42868e-05
0.00117556 0.000179552 -8.64724e-08
0.000179552 0.000579196 -6.81602e-06
-8.64724e-08 -6.81602e-06 0.000512142
-0.000362009 4.63765e-05 1.20457e-05
4.63765e-05 -0.000369303 -1.2067e-05
1.20457e-05 -1.2067e-05 -0.000495022
0.0005618 0.000134764 -4.1427e-06
0.000134764 0.000305686 5.22137e-06
-4.1427e-06 5.22137e-06 3.36461e-05
0.000573787 3.80023e-05 -3.17412e-06
3.80023e-05 0.000214538 4.414e-06
-3.17412e-06 4.414e-06 6.02237e-06
0.000509499 3.31996e-05 1.58815e-06
3.31996e-05 0.00010541 2.63925e-06
1.58815e-06 2.63925e-06 -3.92402e-05
0.000443185 -7.64084e-05 -1.85417e-06
-7.64084e-05 4.36432e-05 3.39815e-06
-1.85417e-06 3.39815e-06 -5.37941e-05
0.000444702 1.75884e-05 4.93014e-07
1.75884e-05 3.77634e-05 -4.31095e-07
4.93014e-07 -4.31095e-07 -5.43185e-05
0.00134334 2.7597e-05 3.85473e-06
2.7597e-05 0.000599808 4.09072e-06
3.85473e-06 4.09072e-06 0.000573395
0.000434955 1.62406e-05 2.29127e-06
1.62406e-05 2.0723e-05 -3.40707e-06
2.29127e-06 -3.40707e-06 -6.33843e-05
0.00137402 2.07277e-05 -1.15941e-05
2.07277e-05 0.000618323 -2.10668e-06
-1.15941e-05 -2.10668e-06 0.000590524
0.000767224 1.52584e-06 3.51596e-05
1.52584e-06 0.000212011 9.98408e-06
3.51596e-05 9.98408e-06 0.000214302
0.0013216 -1.73982e-05 -1.10839e-05
-1.73982e-05 0.000577334 -8.5271e-06
-1.10839e-05 -8.5271e-06 0.000552113
0.000747122 -1.30584e-05 1.48537e-05
-1.30584e-05 0.000190788 4.09147e-06
1.48537e-05 4.09147e-06 0.000190896
0.00081682 -2.98663e-05 2.86827e-06
-2.98663e-05 0.000232063 -3.82328e-06
2.86827e-06 -3.82328e-06 0.000227898
0.000503925 -1.54258e-05 1.25326e-06
-1.54258e-05 5.54649e-05 -4.48419e-06
1.25326e-06 -4.48419e-06 -1.22095e-05
0.000221397 3.02035e-05 1.88547e-07
3.02035e-05 -0.000138686 -6.34445e-06
1.88547e-07 -6.34445e-06 -0.000172843
0.000312154 3.63033e-05 1.80046e-06
3.63033e-05 -7.18055e-05 6.18601e-07
1.80046e-06 6.18601e-07 -0.000116418
0.00298291 0.000130695 -5.26598e-06
0.000130695 0.00168301 -7.73716e-06
-5.26598e-06 -7.73716e-06 0.00167503
0.000282116 1.33065e-05 -2.5248e-06
1.33065e-05 -9.18343e-05 9.51022e-06
-2.5248e-06 9.51022e-06 -0.000144325
0.00344168 0.000173264 -1.23971e-05
0.000173264 0.00200126 -1.56241e-06
-1.23971e-05 -1.56241e-06 0.00198153
0.0041585 0.000109153 -8.53732e-05
0.000109153 0.0024549 1.15499e-05
-8.53732e-05 1.15499e-05 0.00244512
0.00247674 0.000470328 1.99771e-06
0.000470328 -7.29168e-05 5.15018e-07
1.99771e-06 5.15018e-07 -1.58489e-05
0.00238538 0.000242485 2.50657e-07
0.000242485 -7.23083e-05 -1.05829e-07
2.50657e-07 -1.05829e-07 1.31658e-05
0.00225635 9.02415e-05 -2.23806e-08
9.02415e-05 -0.000109966 1.24775e-07
-2.23806e-08 1.24775e-07 -1.97002e-05
0.00218982 -1.55554e-05 -2.0378e-06
-1.55554e-05 -2.28118e-05 1.37907e-07
-2.0378e-06 1.37907e-07 1.54098e-05
0.00228255 -1.27068e-05 -4.68288e-07
-1.27068e-05 -9.62213e-05 7.5049e-08
-4.68288e-07 7.5049e-08 -7.84342e-06
0.00239708 0.000134397 9.98908e-07
0.000134397 -0.000141933 2.51009e-07
9.98908e-07 2.51009e-07 7.62964e-06
0.00255143 0.000358101 -6.64498e-07
0.000358101 -0.00012147 -2.52267e-07
-6.64498e-07 -2.52267e-07 3.73813e-06
0.00236465 -1.49987e-05 2.67201e-06
-1.49987e-05 -0.000180821 -5.90189e-07
2.67201e-06 -5.90189e-07 -1.62349e-05
0.00269578 0.000171635 7.91754e-07
0.000171635 -0.000146122 1.69348e-06
7.91754e-07 1.69348e-06 4.91569e-05
0.00239034 0.00016424 -2.60854e-06
0.00016424 -0.000411792 7.06234e-06
-2.60854e-06 7.06234e-06 -0.000199794
0.00231426 -0.000118342 -2.56554e-07
-0.000118342 -5.85692e-05 -2.33675e-08
-2.56554e-07 -2.33675e-08 1.49728e-05
0.00241729 -0.000334815 -2.55656e-06
-0.000334815 -0.000142206 1.34765e-07
-2.55656e-06 1.34765e-07 -2.27253e-05
0.00251161 -0.000556615 1.86624e-06
-0.000556615 -3.53346e-05 2.83965e-07
1.86624e-06 2.83965e-07 9.05827e-06
0.00216549 -0.00108698 -1.93221e-06
-0.00108698 0.000768865 -9.25067e-07
-1.93221e-06 -9.25067e-07 7.67489e-05
0.00219911 -0.00120048 3.5347e-05
-0.00120048 0.000590581 -4.28162e-06
3.5347e-05 -4.28162e-06 -0.000109212
0.00269947 -0.0010729 1.71664e-05
-0.0010729 0.000617907 -2.71178e-06
1.71664e-05 -2.71178e-06 0.000109407
0.00256395 -0.000788887 3.39871e-06
-0.000788887 3.37741e-05 -1.52566e-06
3.39871e-06 -1.52566e-06 -1.39552e-05
0.00254116 -0.000958233 5.13868e-06
-0.000958233 0.000296429 1.08103e-06
5.13868e-06 1.08103e-06 1.63779e-05
0.00133161 -0.000830534 -6.48662e-06
-0.000830534 0.00044233 -2.19649e-05
-6.48662e-06 -2.19649e-05 -0.000191339
0.000461137 -0.000535987 9.94361e-06
-0.000535987 7.32023e-05 -1.889e-05
9.94361e-06 -1.889e-05 -0.000611498
0.00235663 -0.000274525 7.40625e-06
-0.000274525 0.00119029 3.78463e-06
7.40625e-06 3.78463e-06 0.000796745
0.000508056 -2.38139e-06 -1.37168e-06
-2.38139e-06 9.14941e-05 3.45274e-06
-1.37168e-06 3.45274e-06 -2.10131e-05
-0.000379309 -1.23982e-05 4.78467e-06
-1.23982e-05 -0.000401674 -4.10005e-06
4.78467e-06 -4.10005e-06 -0.000692652
0.000951749 -0.000366383 -2.9835e-06
-0.000366383 0.00041452 -6.33327e-06
-2.9835e-06 -6.33327e-06 3.67479e-05
0.00239307 -0.000165846 2.06799e-07
-0.000165846 -0.000160689 -3.01259e-07
2.06799e-07 -3.01259e-07 -4.01629e-06
0.000412222 -1.52406e-05 1.6707e-06
-1.52406e-05 1.11435e-05 5.25902e-07
1.6707e-06 5.25902e-07 -7.45969e-05
0.000459936 -8.63689e-05 -3.57943e-06
-8.63689e-05 8.63371e-05 -9.2424e-07
-3.57943e-06 -9.2424e-07 -3.71259e-05
0.00259527 -0.00046347 -1.88051e-07
-0.00046347 -0.00016752 1.09549e-07
-1.88051e-07 1.09549e-07 3.88318e-06
0.00258067 -0.000708162 -1.68751e-06
-0.000708162 -5.96162e-05 1.21316e-07
-1.68751e-06 1.21316e-07 -8.87748e-06
0.0021613 -0.00114668 1.34774e-06
-0.00114668 0.000800342 2.95128e-06
1.34774e-06 2.95128e-06 9.74231e-05
0.00277689 -0.0013962 1.28488e-05
-0.0013962 0.000867965 -1.64809e-06
1.28488e-05 -1.64809e-06 0.000109993
0.0025362 -0.00115054 1.97839e-06
-0.00115054 0.00043671 -2.19617e-06
1.97839e-06 -2.19617e-06 -4.12643e-05
0.00266964 -0.000990722 2.3218e-06
-0.000990722 0.000127163 -1.61512e-06
2.3218e-06 -1.61512e-06 -1.5092e-05
0.000539269 -1.25551e-05 -2.77036e-06
-1.25551e-05 0.000191739 -1.53754e-06
-2.77036e-06 -1.53754e-06 -2.39098e-05
0.000756747 -0.000183269 -3.49358e-07
-0.000183269 0.000376073 2.06977e-06
-3.49358e-07 2.06977e-06 1.74325e-05
0.00139521 -0.000871302 1.1277e-05
-0.000871302 0.000477347 1.10485e-05
1.1277e-05 1.10485e-05 -0.000133946
0.00182067 -0.000782903 2.99381e-05
-0.000782903 0.000939078 -1.71921e-05
2.99381e-05 -1.71921e-05 0.000114455
0.000867262 -0.000349787 -1.57894e-06
-0.000349787 0.000445305 1.04598e-06
-1.57894e-06 1.04598e-06 -0.000152022
0.00053688 -0.000277382 5.97753e-06
-0.000277382 0.00014206 -6.26537e-06
5.97753e-06 -6.26537e-06 -0.000205228
0.00245357 -0.000189884 2.01136e-06
-0.000189884 -0.000370582 -1.07714e-06
2.01136e-06 -1.07714e-06 -0.000123252
0.00275108 -0.000618361 -2.45153e-06
-0.000618361 -0.000198659 2.27463e-06
-2.45153e-06 2.27463e-06 6.16801e-05
0.00304147 -0.00103873 -3.95429e-06
-0.00103873 0.000146871 3.34187e-06
-3.95429e-06 3.34187e-06 0.000104067
0.00269945 -0.00120806 2.52702e-06
-0.00120806 0.000277226 -5.46986e-06
2.52702e-06 -5.46986e-06 -4.4591e-05
0.00152439 -0.00113696 -2.99111e-07
-0.00113696 0.0004916 -7.77499e-06
-2.99111e-07 -7.77499e-06 -0.000223155
0.00348269 -0.00161425 -1.66288e-06
-0.00161425 0.00110868 -1.16128e-06
-1.66288e-06 -1.16128e-06 0.000328805
0.000383712 5.48108e-05 -1.69288e-07
5.48108e-05 1.87414e-05 -9.81518e-06
-1.69288e-07 -9.81518e-06 -0.000100816
-2.75782e-05 -4.60198e-05 8.04004e-06
-4.60198e-05 -0.000229067 -3.36398e-06
8.04004e-06 -3.36398e-06 -0.000355995
0.00151204 -0.000222672 -4.51916e-06
-0.000222672 0.000756753 8.57411e-06
-4.51916e-06 8.57411e-06 0.00058765
0.000561588 1.29675e-05 -2.23667e-06
1.29675e-05 0.000223856 1.43884e-05
-2.23667e-06 1.43884e-05 -5.5261e-05
0.00112695 -0.000304421 -1.06024e-05
-0.000304421 0.000601046 1.65397e-05
-1.06024e-05 1.65397e-05 0.000229378
-0.001894 -0.000195514 -6.48615e-06
-0.000195514 -0.00141503 -3.27013e-05
-6.48615e-06 -3.27013e-05 -0.00171902
1.23542e-05 -0.000340463 -2.81215e-05
-0.000340463 0.000305111 -2.0784e-06
-2.81215e-05 -2.0784e-06 -0.000692515
0.00132675 -0.0011683 -5.61062e-05
-0.0011683 0.00024503 2.72831e-05
-5.61062e-05 2.72831e-05 -0.000247867
-0.000264177 0.000305989 7.9863e-07
0.000305989 -0.000213209 -1.45613e-06
7.9863e-07 -1.45613e-06 -0.000583261
0.00355062 0.000654956 -1.22554e-05
0.000654956 0.00223489 -3.16874e-06
-1.22554e-05 -3.16874e-06 0.00176872
0.00260445 0.000613488 -2.57612e-06
0.000613488 -0.000311111 -1.48081e-06
-2.57612e-06 -1.48081e-06 -0.000125877
0.00298367 0.000902805 -5.79682e-06
0.000902805 0.000335915 -1.21547e-07
-5.79682e-06 -1.21547e-07 0.000126916
0.00360347 0.000726673 -9.21097e-06
0.000726673 0.00166144 3.70438e-06
-9.21097e-06 3.70438e-06 0.00126875
0.00165493 0.000949634 -1.40156e-05
0.000949634 0.000443978 5.45363e-07
-1.40156e-05 5.45363e-07 -0.00017332
0.00232739 0.00100019 -6.75986e-06
0.00100019 0.000337885 3.32475e-06
-6.75986e-06 3.32475e-06 -0.000130951
0.00277335 0.00131237 -1.04906e-05
0.00131237 0.000868793 -6.16409e-07
-1.04906e-05 -6.16409e-07 0.000160924
0.000184524 0.000243511 3.66397e-06
0.000243511 8.7993e-05 4.49916e-07
3.66397e-06 4.49916e-07 -0.000209011
0.00261863 0.000434805 -2.46635e-06
0.000434805 -0.000299053 -2.7914e-06
-2.46635e-06 -2.7914e-06 -8.60319e-05
0.00208431 0.000629658 3.61073e-06
0.000629658 0.00136879 7.56326e-06
3.61073e-06 7.56326e-06 0.000858967
0.0016698 0.000831243 4.24942e-06
0.000831243 0.000451501 1.80071e-06
4.24942e-06 1.80071e-06 -7.35008e-05
0.00293435 0.000841753 2.07332e-07
0.000841753 0.00012093 3.16311e-07
2.07332e-07 3.16311e-07 0.000169737
0.00219675 0.00105951 -2.64504e-06
0.00105951 0.000105229 -6.08812e-06
-2.64504e-06 -6.08812e-06 -0.00035068
0.00296245 0.00134999 -2.43709e-06
0.00134999 0.000957731 -4.65365e-07
-2.43709e-06 -4.65365e-07 0.000231188
0.00173144 0.00047686 -6.78562e-06
0.00047686 0.00117914 -4.14138e-06
-6.78562e-06 -4.14138e-06 0.000780632
0.00439856 0.000855711 -0.000121118
0.000855711 0.000627422 -4.34623e-05
-0.000121118 -4.34623e-05 0.0010068
0.00202969 0.000754938 -4.61177e-06
0.000754938 0.00118535 9.40623e-06
-4.61177e-06 9.40623e-06 0.000634265
0.00134495 0.000895935 -3.98212e-06
0.000895935 0.000258543 -1.02975e-05
-3.98212e-06 -1.02975e-05 -0.000351423
0.00353947 0.0011998 -4.58465e-05
0.0011998 0.000711667 -2.56313e-05
-4.58465e-05 -2.56313e-05 0.000432456
0.00115555 0.0010804 -3.03776e-05
0.0010804 -5.87425e-05 -4.06798e-06
-3.03776e-05 -4.06798e-06 -0.000688068
0.00140626 0.00175106 6.52465e-06
0.00175106 -0.00277849 -7.41052e-05
6.52465e-06 -7.41052e-05 -0.00131657
0.000516576 0.000220204 9.14563e-06
0.000220204 0.0002483 1.00761e-05
9.14563e-06 1.00761e-05 9.36138e-05
0.000187508 0.000149661 7.4707e-07
0.000149661 8.06531e-05 -8.83791e-07
7.4707e-07 -8.83791e-07 -5.56062e-05
-0.000369442 7.98859e-05 2.22843e-06
7.98859e-05 -0.000265415 -2.82289e-06
2.22843e-06 -2.82289e-06 -0.000393913
0.000368859 -6.82451e-05 2.51211e-06
-6.82451e-05 3.9791e-05 -2.95486e-06
2.51211e-06 -2.95486e-06 -0.000111674
-0.000277012 3.17508e-06 2.30911e-06
3.17508e-06 -0.000304467 -3.87861e-06
2.30911e-06 -3.87861e-06 -0.000515926
0.00183783 0.000336464 -2.64808e-08
0.000336464 0.00113232 -5.769e-06
-2.64808e-08 -5.769e-06 0.000846047
-0.00113561 4.88317e-05 -8.20802e-06
4.88317e-05 -0.000846438 1.82752e-05
-8.20802e-06 1.82752e-05 -0.000920133
0.000469172 -9.77391e-06 -2.48355e-07
-9.77391e-06 9.6244e-05 -4.00867e-07
-2.48355e-07 -4.00867e-07 -5.88853e-05
0.000361176 9.25397e-05 5.65427e-07
9.25397e-05 3.75808e-05 -5.0421e-07
5.65427e-07 -5.0421e-07 -0.000138947
-5.42774e-05 0.000110591 3.03794e-06
0.000110591 -0.000164952 3.29115e-06
3.03794e-06 3.29115e-06 -0.000212899
0.000125664 0.000102241 1.03124e-06
0.000102241 -1.44563e-05 -2.57081e-07
1.03124e-06 -2.57081e-07 -0.00025841
0.000463439 0.00010147 4.6126e-07
0.00010147 0.000137573 -1.47784e-06
4.6126e-07 -1.47784e-06 3.0934e-06
-9.01818e-05 9.13383e-05 9.98146e-06
9.13383e-05 -0.000118311 -1.37161e-05
9.98146e-06 -1.37161e-05 -0.00021547
0.000626196 0.000177067 -6.07703e-06
0.000177067 0.000277677 1.60005e-06
-6.07703e-06 1.60005e-06 7.73306e-05
0.00101939 0.000147803 -1.99849e-06
0.000147803 0.000531097 4.10153e-06
-1.99849e-06 4.10153e-06 0.000297594
0.000594797 0.000125705 -5.12423e-06
0.000125705 0.000195242 -1.1261e-06
-5.12423e-06 -1.1261e-06 5.27057e-06
0.000161092 -1.05936e-05 -1.65102e-06
-1.05936e-05 -0.000134226 8.07456e-07
-1.65102e-06 8.07456e-07 -0.000276711
0.00124171 -0.000139078 2.84039e-06
-0.000139078 0.000713134 -4.15179e-06
2.84039e-06 -4.15179e-06 0.000457362
0.000139065 -5.58193e-05 -1.30943e-06
-5.58193e-05 -0.000131546 4.04985e-06
-1.30943e-06 4.04985e-06 -0.00028253
0.000365652 6.72165e-06 -1.91609e-06
6.72165e-06 2.57233e-06 3.54585e-06
-1.91609e-06 3.54585e-06 -9.98605e-05
0.00040456 4.86633e-05 2.27325e-06
4.86633e-05 2.45176e-05 -9.04662e-08
2.27325e-06 -9.04662e-08 -7.59554e-05
0.000305915 2.02919e-05 -2.55198e-06
2.02919e-05 -6.90564e-05 5.37644e-06
-2.55198e-06 5.37644e-06 -0.000101036
0.000312395 -3.25954e-06 -7.38599e-07
-3.25954e-06 -3.57784e-05 -4.18084e-06
-7.38599e-07 -4.18084e-06 -0.000135859
0.000836506 1.78245e-05 -4.7624e-06
1.78245e-05 0.000272697 -1.52359e-06
-4.7624e-06 -1.52359e-06 0.000243589
0.00267802 6.80523e-06 3.18354e-05
6.80523e-06 0.00145892 6.39146e-06
3.18354e-05 6.39146e-06 0.00147076
0.00139834 5.91532e-05 -1.94444e-05
5.91532e-05 0.000638509 -8.4615e-06
-1.94444e-05 -8.4615e-06 0.000609232
0.000760574 -3.88481e-06 1.42531e-05
-3.88481e-06 0.000203333 3.9966e-06
1.42531e-05 3.9966e-06 0.000204328
0.000830965 -1.87659e-05 2.28951e-06
-1.87659e-05 0.000242105 -3.54964e-06
2.28951e-06 -3.54964e-06 0.000240896
0.000360491 1.0591e-05 -9.01055e-07
1.0591e-05 -2.2801e-05 -5.7314e-06
-9.01055e-07 -5.7314e-06 -8.9834e-05
0.000511102 -4.12444e-05 5.56289e-07
-4.12444e-05 7.26716e-05 -1.89127e-07
5.56289e-07 -1.89127e-07 -2.5674e-06
0.000352357 2.74616e-05 3.87017e-07
2.74616e-05 -6.19079e-05 -5.31612e-06
3.87017e-07 -5.31612e-06 -8.68777e-05
0.000832055 4.78362e-05 -1.54456e-08
4.78362e-05 0.000261453 2.3576e-07
-1.54456e-08 2.3576e-07 0.000227915
0.00264445 9.69653e-05 -1.9143e-06
9.69653e-05 0.00145061 -6.49275e-06
-1.9143e-06 -6.49275e-06 0.00145125
0.000418611 4.71847e-05 2.24809e-06
4.71847e-05 3.61505e-06 7.82005e-06
2.24809e-06 7.82005e-06 -4.40779e-05
0.00295158 0.000135545 -5.0031e-06
0.000135545 0.00166575 -5.03831e-07
-5.0031e-06 -5.03831e-07 0.00165651
0.00362872 0.000143784 -1.2249e-05
0.000143784 0.00211048 7.66729e-06
-1.2249e-05 7.66729e-06 0.00209648
0.00246402 0.000370979 6.76789e-07
0.000370979 -0.00016096 -3.916e-07
6.76789e-07 -3.916e-07 -3.54919e-05
0.00237079 0.000131914 -6.74226e-07
0.000131914 -0.000157098 -8.58601e-07
-6.74226e-07 -8.58601e-07 -7.06651e-06
0.00228049 -8.85419e-06 -2.98939e-07
-8.85419e-06 -0.000102811 2.31945e-07
-2.98939e-07 2.31945e-07 -1.05913e-05
0.00236156 -5.57359e-06 -2.58998e-08
-5.57359e-06 -0.000183061 9.18568e-08
-2.58998e-08 9.18568e-08 -1.6931e-05
0.00266741 0.00018443 1.73344e-06
0.00018443 -0.000142431 -3.41656e-07
1.73344e-06 -3.41656e-07 4.96453e-05
0.00255629 0.000141725 3.11387e-06
0.000141725 -0.000314824 -1.60762e-06
3.11387e-06 -1.60762e-06 -0.000109261
0.00279616 3.61852e-05 2.76189e-06
3.61852e-05 -0.000197606 5.17363e-06
2.76189e-06 5.17363e-06 5.97691e-05
0.00603176 0.0018664 5.75541e-05
0.0018664 -0.00129848 2.33719e-05
5.75541e-05 2.33719e-05 0.000508846
0.00273924 0.000157857 -5.77298e-05
0.000157857 -0.000171696 1.90291e-05
-5.77298e-05 1.90291e-05 0.000219263
0.000434056 0.000122686 -3.12857e-06
0.000122686 6.98532e-05 -5.28735e-06
-3.12857e-06 -5.28735e-06 -5.12204e-05
0.00239416 -0.000167413 -1.22509e-06
-0.000167413 -0.000170371 1.00946e-06
-1.22509e-06 1.00946e-06 -8.58097e-06
0.00253837 -0.000451568 -1.15709e-06
-0.000451568 -0.000184815 1.14046e-06
-1.15709e-06 1.14046e-06 -2.58017e-05
0.00258576 -0.000692858 2.67665e-06
-0.000692858 -4.12572e-05 -1.82992e-06
2.67665e-06 -1.82992e-06 1.73334e-05
0.00187068 -0.00113444 -8.73117e-06
-0.00113444 0.000627184 7.87561e-06
-8.73117e-06 7.87561e-06 -7.46456e-05
0.00296869 -0.00139766 3.44962e-05
-0.00139766 0.000987609 3.90895e-06
3.44962e-05 3.90895e-06 0.000240771
0.00232803 -0.001112 -7.57642e-06
-0.001112 0.000326517 2.17738e-06
-7.57642e-06 2.17738e-06 -0.000133624
0.00264331 -0.000997165 4.82456e-06
-0.000997165 0.000107704 -3.21234e-07
4.82456e-06 -3.21234e-07 -3.41346e-05
0.00176535 -0.000885911 2.93063e-05
-0.000885911 0.000613378 -5.43862e-05
2.93063e-05 -5.43862e-05 5.92091e-05
0.00195927 -0.000818005 3.33954e-05
-0.000818005 0.000987077 -4.96308e-05
3.33954e-05 -4.96308e-05 0.000212223
-8.60844e-05 -0.00025122 2.66245e-05
-0.00025122 -0.000177992 5.5942e-06
2.66245e-05 5.5942e-06 -0.000765139
0.000538248 6.21032e-06 1.60285e-06
6.21032e-06 9.89005e-05 4.45149e-06
1.60285e-06 4.45149e-06 9.22218e-06
0.000869217 -0.000329545 -2.84408e-06
-0.000329545 0.000384697 1.5951e-05
-2.84408e-06 1.5951e-05 -2.01602e-06
0.00119964 -9.59193e-05 4.98193e-06
-9.59193e-05 0.000655135 -2.22141e-06
4.98193e-06 -2.22141e-06 0.000417085
0.000786869 -0.000179282 3.73996e-06
-0.000179282 0.000383999 -1.29459e-05
3.73996e-06 -1.29459e-05 2.85382e-05
5.49131e-06 -4.46552e-05 -8.09628e-06
-4.46552e-05 -0.000214527 7.02258e-06
-8.09628e-06 7.02258e-06 -0.000332422
0.00257172 -0.000215263 -1.5864e-06
-0.000215263 -0.000304741 -1.67887e-06
-1.5864e-06 -1.67887e-06 -4.84778e-05
0.000360841 5.19588e-05 1.04684e-06
5.19588e-05 2.01732e-05 -2.34303e-06
1.04684e-06 -2.34303e-06 -0.00010691
0.000610853 -0.000104957 3.02814e-06
-0.000104957 0.000235676 2.34584e-06
3.02814e-06 2.34584e-06 7.03082e-05
0.000853263 -0.000113559 9.39585e-06
-0.000113559 0.00032317 9.41589e-07
9.39585e-06 9.41589e-07 0.000178486
0.00263476 -0.000626541 2.30752e-06
-0.000626541 -0.000280051 -7.04396e-07
2.30752e-06 -7.04396e-07 -3.83132e-05
0.00289557 -0.00100918 -6.93353e-07
-0.00100918 7.94241e-05 -7.54335e-07
-6.93353e-07 -7.54335e-07 4.97556e-05
0.000921629 -0.000953043 6.90516e-06
-0.000953043 0.000117736 -9.85462e-07
6.90516e-06 -9.85462e-07 -0.000486838
0.00299208 -0.00153544 1.4734e-05
-0.00153544 0.000834663 9.63733e-07
1.4734e-05 9.63733e-07 8.26457e-05
0.00270917 -0.00122141 8.37014e-09
-0.00122141 0.00029097 6.31447e-07
8.37014e-09 6.31447e-07 -4.50563e-05
0.000314542 -5.22372e-05 -1.09238e-06
-5.22372e-05 5.31855e-05 -2.11342e-06
-1.09238e-06 -2.11342e-06 -0.00021329
0.00187005 -0.00036774 4.8455e-06
-0.00036774 0.00110527 5.30874e-07
4.8455e-06 5.30874e-07 0.000704712
0.00229809 -0.00130317 -2.98824e-06
-0.00130317 0.000845348 6.04072e-06
-2.98824e-06 6.04072e-06 0.000175954
0.00203554 -0.000507725 -6.86643e-07
-0.000507725 0.00121659 1.09938e-05
-6.86643e-07 1.09938e-05 0.000445289
0.00106814 -0.000291174 1.07399e-05
-0.000291174 0.00046958 8.87651e-06
1.07399e-05 8.87651e-06 0.000127794
0.00291114 -0.000431508 -1.78049e-05
-0.000431508 -0.00019788 4.02141e-06
-1.78049e-05 4.02141e-06 0.000116166
0.00247494 -0.000729744 -2.29264e-05
-0.000729744 -0.000371391 1.01392e-05
-2.29264e-05 1.01392e-05 -3.69554e-05
0.00292002 -0.00122323 -1.20304e-05
-0.00122323 0.000253681 -2.65394e-06
-1.20304e-05 -2.65394e-06 5.27982e-06
0.00449316 -0.00165222 3.00927e-06
-0.00165222 0.00154998 9.55223e-07
3.00927e-06 9.55223e-07 0.000945947
0.000373187 -0.00108096 -1.62756e-05
-0.00108096 -0.000319394 1.60712e-05
-1.62756e-05 1.60712e-05 -0.000929779
0.000132586 -3.78803e-05 2.5294e-06
-3.78803e-05 -0.000141241 -4.01365e-06
2.5294e-06 -4.01365e-06 -0.000266768
-0.00025392 -2.02801e-05 -2.29533e-06
-2.02801e-05 -0.000435262 1.15572e-05
-2.29533e-06 1.15572e-05 -0.000603832
0.000282727 -0.000176422 -8.51831e-06
-0.000176422 3.44142e-05 -5.06516e-06
-8.51831e-06 -5.06516e-06 -0.000164205
0.00213933 -0.000411078 -4.83794e-05
-0.000411078 0.00123123 4.37187e-05
-4.83794e-05 4.37187e-05 0.00086666
0.00128382 -0.000255495 -1.39449e-06
-0.000255495 0.000686414 1.93736e-05
-1.39449e-06 1.93736e-05 0.000360309
-0.00139693 -3.71026e-05 -5.62729e-06
-3.71026e-05 -0.000621941 3.50614e-07
-5.62729e-06 3.50614e-07 -0.00131074
0.0018705 -0.00137748 -2.8562e-06
-0.00137748 0.00091129 -1.75149e-05
-2.8562e-06 -1.75149e-05 7.2355e-05
0.00259347 0.000593053 6.14569e-06
0.000593053 0.00161866 -9.51531e-07
6.14569e-06 -9.51531e-07 0.00126063
-0.00103933 0.000216228 -3.48156e-06
0.000216228 -0.000544159 5.78594e-07
-3.48156e-06 5.78594e-07 -0.000952884
0.00256612 0.000417246 1.53433e-05
0.000417246 -0.000342514 3.40836e-06
1.53433e-05 3.40836e-06 -0.000103939
0.00307658 0.000814954 1.83067e-05
0.000814954 0.000245162 1.11264e-05
1.83067e-05 1.11264e-05 0.000292505
0.00281843 0.00114789 4.1936e-06
0.00114789 0.000471448 4.66327e-06
4.1936e-06 4.66327e-06 1.07878e-06
0.00148305 0.000785257 -5.31266e-06
0.000785257 0.000405901 2.556e-06
-5.31266e-06 2.556e-06 -0.000112561
0.00254189 0.00126441 2.92917e-06
0.00126441 0.000734494 5.87034e-06
2.92917e-06 5.87034e-06 3.51814e-05
0.00247025 0.000511646 -4.72201e-07
0.000511646 0.00161476 1.04529e-06
-4.72201e-07 1.04529e-06 0.00125346
0.00316252 0.000674172 1.45709e-05
0.000674172 -6.56243e-05 6.62611e-06
1.45709e-05 6.62611e-06 0.000397694
0.00138791 0.000612487 -6.90171e-06
0.000612487 0.000731687 4.09851e-06
-6.90171e-06 4.09851e-06 0.000260522
0.00197883 0.00100417 2.91382e-06
0.00100417 0.000662222 -1.77709e-06
2.91382e-06 -1.77709e-06 7.91666e-06
0.00302609 0.00112256 -2.32801e-06
0.00112256 0.000466672 -3.85755e-06
-2.32801e-06 -3.85755e-06 0.000234753
0.00238655 0.00126592 -6.01051e-06
0.00126592 0.000616493 8.23676e-06
-6.01051e-06 8.23676e-06 -6.22615e-05
0.00313558 0.00214663 6.05407e-05
0.00214663 -0.00216356 1.10884e-05
6.05407e-05 1.10884e-05 -0.00087866
0.000547947 0.000381409 4.26091e-06
0.000381409 0.000529539 -7.46866e-07
4.26091e-06 -7.46866e-07 7.51471e-05
0.00464054 0.0014106 -0.000130893
0.0014106 0.000829653 -5.85907e-05
-0.000130893 -5.85907e-05 0.00089997
-1.09003e-05 0.000568664 -1.99788e-05
0.000568664 -0.000378883 6.55995e-06
-1.99788e-05 6.55995e-06 -0.000851839
0.00062605 0.000920233 -4.65472e-06
0.000920233 -0.000162607 -2.17382e-05
-4.65472e-06 -2.17382e-05 -0.000778753
0.00255742 0.00142499 -5.1847e-05
0.00142499 0.000425298 -2.65457e-05
-5.1847e-05 -2.65457e-05 -5.52267e-05
0.0157974 0.00105762 -0.000879618
0.00105762 0.000248117 -9.28946e-05
-0.000879618 -9.28946e-05 0.0012885
0.00263123 0.00323798 -0.000151543
0.00323798 -0.00486692 -0.000143698
-0.000151543 -0.000143698 -0.000905745
0.000578576 0.00248064 3.06658e-05
0.00248064 -0.00152209 -9.70464e-06
3.06658e-05 -9.70464e-06 -0.00148723
0.00500592 -0.00581974 0.00337577
-0.00581974 0.00361335 6.11066e-05
0.00337577 6.11066e-05 -0.00347106
0.0337467 -0.0165912 -0.000139443
-0.0165912 0.0210132 1.18321e-05
-0.000139443 1.18321e-05 0.00887348
0.00156121 0.000257215 7.16771e-06
0.000257215 0.000952595 8.6025e-06
7.16771e-06 8.6025e-06 0.000790753
0.000529507 0.000129766 2.12701e-07
0.000129766 0.000345321 2.50447e-06
2.12701e-07 2.50447e-06 0.000187148
-0.000113202 0.000161482 1.41997e-05
0.000161482 -1.9149e-05 -2.184e-06
1.41997e-05 -2.184e-06 -0.000211225
0.000542225 -6.29344e-05 9.03154e-07
-6.29344e-05 0.000155528 -1.68834e-06
9.03154e-07 -1.68834e-06 -7.98295e-06
0.000552072 7.06484e-05 4.07222e-06
7.06484e-05 0.000182501 -4.7303e-06
4.07222e-06 -4.7303e-06 2.961e-07
0.000575255 -1.72631e-05 1.76044e-06
-1.72631e-05 0.000262314 -5.36558e-06
1.76044e-06 -5.36558e-06 2.42265e-05
0.00095178 0.000125552 6.01453e-06
0.000125552 0.000431105 9.16947e-06
6.01453e-06 9.16947e-06 0.000289954
3.53043e-05 0.000102582 2.10782e-06
0.000102582 -8.20093e-05 1.13085e-05
2.10782e-06 1.13085e-05 -0.00011973
0.000757918 0.00016866 -2.784e-06
0.00016866 0.00041069 1.08071e-06
-2.784e-06 1.08071e-06 0.000153792
0.000379481 -1.42674e-05 4.3568e-07
-1.42674e-05 1.89358e-05 7.89601e-07
4.3568e-07 7.89601e-07 -0.000132746
0.000756176 6.63333e-05 -1.17209e-06
6.63333e-05 0.000314218 2.65366e-07
-1.17209e-06 2.65366e-07 0.000118561
0.000309614 0.000113683 -2.64354e-06
0.000113683 0.000104751 -5.62755e-06
-2.64354e-06 -5.62755e-06 1.37547e-05
0.000406223 0.000123139 1.25865e-06
0.000123139 0.000137187 1.74063e-06
1.25865e-06 1.74063e-06 -5.12105e-05
0.00165207 0.000225234 -1.1399e-06
0.000225234 0.000991594 7.1123e-06
-1.1399e-06 7.1123e-06 0.000733262
-4.67879e-05 6.83501e-05 2.27411e-06
6.83501e-05 -2.5407e-05 -4.06518e-06
2.27411e-06 -4.06518e-06 -0.000230506
0.000895001 0.000108901 1.67565e-06
0.000108901 0.000468706 7.5869e-08
1.67565e-06 7.5869e-08 0.000239509
0.000143192 3.01956e-05 -1.5929e-06
3.01956e-05 -0.000126435 -2.77892e-06
-1.5929e-06 -2.77892e-06 -0.000303397
0.000239517 -6.8096e-05 -2.25446e-07
-6.8096e-05 -6.88944e-05 1.01898e-06
-2.25446e-07 1.01898e-06 -0.000222384
0.000224594 -3.45318e-05 2.73251e-07
-3.45318e-05 -4.58482e-05 -3.64586e-06
2.73251e-07 -3.64586e-06 -0.000218826
0.000831857 -7.92195e-05 4.3089e-06
-7.92195e-05 0.000373106 -3.93327e-06
4.3089e-06 -3.93327e-06 0.000196061
0.000915663 -8.47229e-05 -8.4574e-07
-8.47229e-05 0.000487873 -3.69639e-07
-8.4574e-07 -3.69639e-07 0.000270346
0.000801559 -0.000126733 2.01914e-06
-0.000126733 0.000377198 -4.66282e-08
2.01914e-06 -4.66282e-08 0.000163335
0.000397147 -0.000128213 -2.29616e-06
-0.000128213 5.91245e-05 1.85063e-06
-2.29616e-06 1.85063e-06 -0.000101442
9.06091e-05 -3.64357e-05 -2.61255e-07
-3.64357e-05 -0.000154682 1.4546e-06
-2.61255e-07 1.4546e-06 -0.000312137
0.000415963 -7.43747e-05 -1.20732e-06
-7.43747e-05 2.49657e-05 4.15041e-06
-1.20732e-06 4.15041e-06 -7.13339e-05
0.000432997 -4.74747e-05 2.28053e-06
-4.74747e-05 4.43994e-05 1.11505e-07
2.28053e-06 1.11505e-07 -5.67604e-05
0.000321705 5.78147e-06 5.04643e-06
5.78147e-06 -5.47473e-05 7.42625e-06
5.04643e-06 7.42625e-06 -8.79596e-05
0.000455534 7.05356e-05 -1.74809e-06
7.05356e-05 4.80428e-05 -3.97952e-06
-1.74809e-06 -3.97952e-06 -4.63207e-05
0.000333962 2.90633e-05 5.80375e-07
2.90633e-05 -5.07869e-05 1.5447e-07
5.80375e-07 1.5447e-07 -8.26122e-05
0.00261664 1.42101e-05 1.81261e-05
1.42101e-05 0.00142021 5.98669e-06
1.81261e-05 5.98669e-06 0.00143118
0.000355209 7.05763e-05 -5.74031e-06
7.05763e-05 -3.37557e-05 -8.70898e-06
-5.74031e-06 -8.70898e-06 -7.06257e-05
0.00167703 5.88726e-07 -1.10402e-05
5.88726e-07 0.000804319 6.53397e-08
-1.10402e-05 6.53397e-08 0.000810098
0.000792588 -8.31949e-06 1.54333e-06
-8.31949e-06 0.000218382 -2.49099e-06
1.54333e-06 -2.49099e-06 0.000219002
0.000375264 2.06273e-05 2.14964e-08
2.06273e-05 -2.78985e-05 -4.19138e-06
2.14964e-08 -4.19138e-06 -8.03436e-05
0.000447913 -4.16332e-05 1.54865e-06
-4.16332e-05 3.25873e-05 2.76641e-08
1.54865e-06 2.76641e-08 -3.49175e-05
0.000440987 3.01254e-06 2.78436e-06
3.01254e-06 -1.11025e-05 -4.82888e-06
2.78436e-06 -4.82888e-06 -2.84236e-05
0.00049064 -6.20606e-05 -2.15243e-06
-6.20606e-05 6.48259e-05 2.86429e-06
-2.15243e-06 2.86429e-06 -1.32724e-05
0.000798645 3.17954e-05 5.59157e-07
3.17954e-05 0.000230165 -8.23274e-07
5.59157e-07 -8.23274e-07 0.000207314
0.00230963 6.8246e-05 -7.30925e-07
6.8246e-05 0.00122248 -5.76361e-06
-7.30925e-07 -5.76361e-06 0.0012305
0.000403442 2.9245e-05 -1.42653e-06
2.9245e-05 -2.21489e-05 6.35208e-06
-1.42653e-06 6.35208e-06 -5.81233e-05
0.00283716 0.000110731 3.82511e-08
0.000110731 0.00158398 1.96554e-06
3.82511e-08 1.96554e-06 0.00158122
0.00322018 0.000147741 2.39936e-05
0.000147741 0.00184659 1.03615e-05
2.39936e-05 1.03615e-05 0.00183454
0.00262415 0.000198815 -1.92921e-06
0.000198815 -0.000149125 -2.96544e-06
-1.92921e-06 -2.96544e-06 3.97999e-05
0.00233562 1.7399e-07 -2.38226e-06
1.7399e-07 -0.00019872 1.13459e-07
-2.38226e-06 1.13459e-07 -3.0885e-05
0.00286213 0.000113577 1.10237e-05
0.000113577 -0.000101879 -1.41708e-06
1.10237e-05 -1.41708e-06 8.28266e-05
0.00286293 0.0014211 0.000148711
0.0014211 -0.00291591 4.97942e-05
0.000148711 4.97942e-05 -0.00104624
0.00274249 -5.54107e-07 -4.3222e-06
-5.54107e-07 -0.0002209 -1.32378e-06
-4.3222e-06 -1.32378e-06 3.47079e-05
0.00289934 0.000128043 -6.27921e-07
0.000128043 -2.91983e-05 -2.79247e-06
-6.27921e-07 -2.79247e-06 0.000303437
0.00296194 -7.41432e-05 -4.61048e-05
-7.41432e-05 9.10713e-05 -8.78132e-06
-4.61048e-05 -8.78132e-06 0.000337895
0.00331446 0.0011305 -0.00018314
0.0011305 -0.00309673 -1.03203e-05
-0.00018314 -1.03203e-05 -0.000692682
0.00337887 0.000417131 0.000145862
0.000417131 -0.00147055 7.922e-05
0.000145862 7.922e-05 -0.000380561
0.000485047 9.25086e-05 1.07042e-06
9.25086e-05 0.000102384 -4.56021e-06
1.07042e-06 -4.56021e-06 -1.77188e-05
0.000569117 -2.08162e-05 -8.20921e-07
-2.08162e-05 0.000165739 -3.94046e-07
-8.20921e-07 -3.94046e-07 3.52211e-05
0.000335128 -0.000117004 -4.2001e-06
-0.000117004 8.53695e-06 -7.24691e-07
-4.2001e-06 -7.24691e-07 -0.000123694
0.000402644 -8.06085e-05 -2.02737e-06
-8.06085e-05 8.15764e-05 -1.29873e-06
-2.02737e-06 -1.29873e-06 -6.67525e-05
0.00269148 -0.000237782 -2.08232e-06
-0.000237782 -0.000232806 3.74632e-06
-2.08232e-06 3.74632e-06 2.96842e-05
0.0026802 -0.000636551 1.60269e-06
-0.000636551 -0.000230332 -3.38563e-07
1.60269e-06 -3.38563e-07 -2.52801e-05
0.00274478 -0.000982102 7.01368e-07
-0.000982102 7.51212e-06 -2.36323e-06
7.01368e-07 -2.36323e-06 -1.15356e-05
0.0039276 -0.00135302 2.86214e-05
-0.00135302 0.00182284 9.25186e-07
2.86214e-05 9.25186e-07 0.00112496
0.00221338 -0.00147869 -1.4568e-05
-0.00147869 0.000359681 6.61948e-06
-1.4568e-05 6.61948e-06 -0.00037188
0.00275019 -0.0012393 2.96327e-06
-0.0012393 0.000322965 -8.01371e-07
2.96327e-06 -8.01371e-07 -2.59897e-05
-0.000454172 -0.00091885 1.8365e-06
-0.00091885 -0.000635694 -1.30787e-05
1.8365e-06 -1.30787e-05 -0.00137782
0.00272208 -0.000582022 2.62152e-05
-0.000582022 0.00142863 -9.06291e-06
2.62152e-05 -9.06291e-06 0.000807447
0.000566174 -0.000321642 9.17162e-06
-0.000321642 0.000167525 1.57581e-05
9.17162e-06 1.57581e-05 -0.000197441
0.000957956 -0.000109969 2.44505e-06
-0.000109969 0.000455901 2.41714e-06
2.44505e-06 2.41714e-06 0.000286126
0.00022138 -0.000148221 -1.15735e-05
-0.000148221 9.92596e-05 -1.1573e-05
-1.15735e-05 -1.1573e-05 -0.000319561
0.000671296 -4.49405e-05 -5.83643e-07
-4.49405e-05 0.000275187 -9.27951e-06
-5.83643e-07 -9.27951e-06 1.29194e-05
0.000512981 -1.82167e-05 -9.60172e-07
-1.82167e-05 0.000138274 6.59679e-06
-9.60172e-07 6.59679e-06 -7.14642e-07
0.000797568 -9.17977e-05 -1.01454e-05
-9.17977e-05 0.000291975 1.31628e-05
-1.01454e-05 1.31628e-05 0.000153986
0.00281806 -0.000413978 3.5011e-06
-0.000413978 -0.000261022 1.40934e-06
3.5011e-06 1.40934e-06 8.16835e-05
0.000285341 -5.44768e-05 4.26825e-08
-5.44768e-05 -1.77388e-05 3.78157e-06
4.26825e-08 3.78157e-06 -0.00015749
0.000618161 -0.000108428 4.93399e-06
-0.000108428 0.000160867 -4.78806e-06
4.93399e-06 -4.78806e-06 -3.34479e-05
-0.000535945 -7.69957e-05 1.35282e-05
-7.69957e-05 -0.000432169 -3.54107e-06
1.35282e-05 -3.54107e-06 -0.000578852
0.00253358 -0.000767634 9.64852e-07
-0.000767634 -0.000337468 -8.81701e-07
9.64852e-07 -8.81701e-07 -5.27484e-05
0.00284673 -0.00121447 2.01593e-06
-0.00121447 0.000207376 -1.6014e-06
2.01593e-06 -1.6014e-06 -3.77699e-05
0.0022288 -0.00144303 -1.64066e-05
-0.00144303 0.000682574 1.99639e-06
-1.64066e-05 1.99639e-06 -1.2529e-05
0.00344649 -0.00156094 -5.39616e-06
-0.00156094 0.000942599 -5.63305e-07
-5.39616e-06 -5.63305e-07 0.000362191
0.00212999 -0.000283713 1.85121e-05
-0.000283713 0.00125716 -7.93599e-06
1.85121e-05 -7.93599e-06 0.000879584
-0.00104322 -0.000111823 9.01145e-06
-0.000111823 -0.000749945 3.4595e-06
9.01145e-06 3.4595e-06 -0.00113237
0.000852069 -0.00132971 5.65993e-07
-0.00132971 0.000475387 -7.18822e-07
5.65993e-07 -7.18822e-07 -0.000452394
0.00184271 -0.000541818 -1.10995e-05
-0.000541818 0.0010413 -2.04682e-06
-1.10995e-05 -2.04682e-06 0.000455278
0.00403634 -0.000632495 -7.21292e-05
-0.000632495 0.000511378 2.26236e-05
-7.21292e-05 2.26236e-05 0.000867059
0.00281363 -0.00103236 -4.52578e-05
-0.00103236 1.63666e-05 1.89417e-05
-4.52578e-05 1.89417e-05 0.000123016
0.00307138 -0.00136963 -3.6988e-06
-0.00136963 0.000706343 -1.69482e-05
-3.6988e-06 -1.69482e-05 0.000190277
0.00301866 -0.0016279 6.24965e-06
-0.0016279 0.000902552 3.0203e-05
6.24965e-06 3.0203e-05 0.000354892
0.000233759 -0.000229782 -2.74682e-06
-0.000229782 0.000161344 -2.07744e-05
-2.74682e-06 -2.07744e-05 -7.85906e-05
0.00106192 -0.000365537 -1.7657e-05
-0.000365537 0.000527067 8.03359e-06
-1.7657e-05 8.03359e-06 0.000163183
0.000797665 -0.000347492 -2.20312e-05
-0.000347492 0.000618929 7.5803e-05
-2.20312e-05 7.5803e-05 0.000193447
-0.000697168 -0.000935477 1.73956e-05
-0.000935477 0.000243828 -4.37848e-05
1.73956e-05 -4.37848e-05 -0.000845933
0.00639868 -0.000569845 4.67237e-05
-0.000569845 -0.00673582 2.33424e-05
4.67237e-05 2.33424e-05 -0.00722504
0.00325075 0.000467735 1.38681e-05
0.000467735 0.00209782 -4.92456e-06
1.38681e-05 -4.92456e-06 0.00174628
0.000139412 0.000432015 -3.15267e-06
0.000432015 -4.12315e-05 -1.45734e-06
-3.15267e-06 -1.45734e-06 -0.000463289
0.00177933 0.000521245 7.38079e-05
0.000521245 -0.000891582 2.81283e-05
7.38079e-05 2.81283e-05 -0.000329635
0.0023552 0.0010288 2.70153e-05
0.0010288 0.00013485 1.41508e-05
2.70153e-05 1.41508e-05 -4.23638e-05
0.00304907 0.00136411 1.22737e-05
0.00136411 0.000983796 1.59262e-05
1.22737e-05 1.59262e-05 0.000276695
0.00245481 0.00109002 1.58819e-05
0.00109002 0.000962176 1.34798e-05
1.58819e-05 1.34798e-05 0.000269587
0.00457251 0.00255612 0.000112741
0.00255612 -0.00178149 5.50748e-05
0.000112741 5.50748e-05 -0.000710968
0.000938029 0.000373273 2.65053e-06
0.000373273 0.000722333 -6.03644e-06
2.65053e-06 -6.03644e-06 0.000321178
0.00310396 0.00121326 -5.63361e-06
0.00121326 -4.47908e-05 4.35636e-06
-5.63361e-06 4.35636e-06 0.000161554
0.00104309 0.000722592 -9.36304e-06
0.000722592 0.000289508 8.19385e-06
-9.36304e-06 8.19385e-06 -0.000235341
0.00200546 0.00114629 1.49991e-06
0.00114629 0.000620199 -1.01421e-05
1.49991e-06 -1.01421e-05 -5.20706e-05
0.00328879 0.00145782 -1.44601e-05
0.00145782 0.000861526 -9.94546e-07
-1.44601e-05 -9.94546e-07 0.000350962
0.00493297 4.95655e-05 -0.000245249
4.95655e-05 -0.00786818 -0.000175474
-0.000245249 -0.000175474 -0.00751135
0.00674353 0.00357753 -0.000209803
0.00357753 -0.00219417 -9.89132e-05
-0.000209803 -9.89132e-05 0.000876422
0.00131243 0.00243687 -1.80846e-05
0.00243687 -0.00107173 -4.34789e-06
-1.80846e-05 -4.34789e-06 -0.00112544
0.0101688 -0.00441591 0.00095652
-0.00441591 0.00650212 0.000255758
0.00095652 0.000255758 0.00127572
0.0304778 -0.0189169 -0.000542918
-0.0189169 0.0199689 -0.000562596
-0.000542918 -0.000562596 0.00720303
-0.000356098 0.000297078 -7.86465e-08
0.000297078 -0.000294424 -3.3252e-06
-7.86465e-08 -3.3252e-06 -0.0006204
0.0021106 -0.00090736 0.00190369
-0.00090736 0.00448746 3.10822e-05
0.00190369 3.10822e-05 0.00167677
0.0105511 -0.00903968 0.00010531
-0.00903968 0.0126924 -0.000218021
0.00010531 -0.000218021 0.00079229
0.00348798 0.00203627 -8.33421e-05
0.00203627 0.000461158 -3.08854e-05
-8.33421e-05 -3.08854e-05 4.28002e-05
0.00113515 0.000759698 -3.55622e-05
0.000759698 0.000255956 -6.87802e-06
-3.55622e-05 -6.87802e-06 -0.000241429
0.00192009 0.00121547 -5.62723e-05
0.00121547 0.000564791 -4.59938e-05
-5.62723e-05 -4.59938e-05 -5.453e-05
-0.000146483 0.00229295 0.000163401
0.00229295 -0.00121045 0.000134223
0.000163401 0.000134223 -0.00141508
0.015922 0.00530037 0.000247648
0.00530037 -0.0011982 -3.01309e-06
0.000247648 -3.01309e-06 0.00110243
0.00696792 0.00544022 -0.000140113
0.00544022 -0.000950129 -0.000146697
-0.000140113 -0.000146697 0.00110838
0.0254134 -0.00971934 0.00134297
-0.00971934 0.0116641 0.000234261
0.00134297 0.000234261 0.00234309
0.0203521 -0.00307097 -0.000572111
-0.00307097 0.0101534 0.000793065
-0.000572111 0.000793065 0.0048916
0.000638271 0.00013046 2.46973e-06
0.00013046 0.00045682 4.63694e-06
2.46973e-06 4.63694e-06 0.000280933
0.000190548 0.000193804 1.59789e-06
0.000193804 0.000193878 5.10891e-07
1.59789e-06 5.10891e-07 -7.62065e-06
0.000608527 0.00029061 7.90838e-06
0.00029061 0.000520143 -7.95103e-06
7.90838e-06 -7.95103e-06 0.000183843
0.000600284 4.00778e-06 2.12067e-06
4.00778e-06 0.000192492 1.16761e-06
2.12067e-06 1.16761e-06 1.95147e-05
0.000462082 0.000112127 2.78687e-06
0.000112127 0.000101686 -4.62076e-07
2.78687e-06 -4.62076e-07 -7.73872e-05
-0.000180238 3.14993e-05 2.47607e-06
3.14993e-05 -0.000229372 -2.25785e-06
2.47607e-06 -2.25785e-06 -0.000447489
0.000880213 0.000142911 -3.81254e-06
0.000142911 0.000451539 -1.18268e-06
-3.81254e-06 -1.18268e-06 0.000259406
0.000235437 0.000107061 -7.10542e-06
0.000107061 3.14459e-05 5.14251e-06
-7.10542e-06 5.14251e-06 -4.81143e-05
0.000295358 -1.32273e-08 -2.36352e-07
-1.32273e-08 -2.54178e-05 7.22259e-07
-2.36352e-07 7.22259e-07 -0.000185998
0.00099605 0.000130382 1.97181e-06
0.000130382 0.000559607 2.72042e-06
1.97181e-06 2.72042e-06 0.000321578
0.00032835 6.20875e-05 -6.9191e-07
6.20875e-05 9.69821e-05 -1.76895e-06
-6.9191e-07 -1.76895e-06 -0.000129813
0.000782799 7.64696e-05 1.404e-06
7.64696e-05 0.000342319 1.84894e-07
1.404e-06 1.84894e-07 0.00012855
0.00024693 8.76478e-05 -1.12489e-06
8.76478e-05 0.000158286 -3.88167e-06
-1.12489e-06 -3.88167e-06 -5.17713e-05
0.000526977 6.54194e-05 3.46712e-06
6.54194e-05 0.000264795 4.09728e-06
3.46712e-06 4.09728e-06 6.27347e-05
-0.000706066 -9.73254e-07 4.17519e-06
-9.73254e-07 -0.000204662 -7.04243e-06
4.17519e-06 -7.04243e-06 -0.000592086
-4.7405e-05 -6.5744e-05 -7.67556e-07
-6.5744e-05 -0.00016223 1.19167e-06
-7.67556e-07 1.19167e-06 -0.000375131
0.000673576 -6.23331e-05 -5.24732e-06
-6.23331e-05 0.000266192 -1.99385e-06
-5.24732e-06 -1.99385e-06 5.66004e-05
0.000731171 -6.25448e-05 -3.98607e-07
-6.25448e-05 0.00031291 -3.06613e-06
-3.98607e-07 -3.06613e-06 0.000114781
0.000345028 -7.72624e-05 -4.95432e-06
-7.72624e-05 5.85086e-05 1.85451e-06
-4.95432e-06 1.85451e-06 -9.89564e-05
0.000565932 -2.41989e-05 -9.19249e-06
-2.41989e-05 0.000250337 -2.78007e-06
-9.19249e-06 -2.78007e-06 6.19745e-05
0.000638006 -0.000180487 9.14398e-06
-0.000180487 0.000187467 -5.67876e-06
9.14398e-06 -5.67876e-06 4.08049e-05
0.00050334 -6.38722e-05 -4.44938e-06
-6.38722e-05 0.000267732 -3.23481e-07
-4.44938e-06 -3.23481e-07 7.54748e-05
-0.000850546 -2.78102e-06 -1.52448e-06
-2.78102e-06 -0.000510894 -6.90835e-06
-1.52448e-06 -6.90835e-06 -0.000822305
-0.000409933 -3.93334e-05 -8.44034e-07
-3.93334e-05 -0.000385151 1.14165e-06
-8.44034e-07 1.14165e-06 -0.000570061
0.000899341 -0.000192795 -4.92412e-07
-0.000192795 0.00046968 1.23452e-06
-4.92412e-07 1.23452e-06 0.000254626
0.000139769 -6.55572e-05 -9.99031e-08
-6.55572e-05 -0.00010128 9.47886e-07
-9.99031e-08 9.47886e-07 -0.00026247
0.000650528 -0.000151321 1.87136e-06
-0.000151321 0.000241876 -1.83278e-06
1.87136e-06 -1.83278e-06 5.82017e-05
0.000666519 -0.000151366 4.11414e-07
-0.000151366 0.000239788 3.29185e-07
4.11414e-07 3.29185e-07 7.16189e-05
0.000584532 -7.44867e-05 -1.01662e-06
-7.44867e-05 0.00013308 4.60032e-06
-1.01662e-06 4.60032e-06 3.36793e-05
0.000244368 -1.68937e-06 5.06681e-07
-1.68937e-06 -2.93489e-05 -1.4727e-06
5.06681e-07 -1.4727e-06 -0.000206062
0.000445864 2.73518e-06 2.91898e-06
2.73518e-06 5.55497e-05 1.05043e-07
2.91898e-06 1.05043e-07 -4.83059e-05
0.00139417 -4.14663e-05 -1.66736e-05
-4.14663e-05 0.000636324 7.88965e-06
-1.66736e-05 7.88965e-06 0.000609171
0.000458411 9.48594e-05 -3.06237e-06
9.48594e-05 6.18161e-05 -3.5225e-06
-3.06237e-06 -3.5225e-06 -3.96804e-05
0.000806203 -2.8488e-05 -6.3269e-06
-2.8488e-05 0.000261629 7.44784e-07
-6.3269e-06 7.44784e-07 0.000229883
0.000807838 -2.17513e-06 -1.2078e-05
-2.17513e-06 0.000240125 5.07954e-06
-1.2078e-05 5.07954e-06 0.000242897
0.000290997 -4.74959e-05 6.06564e-06
-4.74959e-05 -7.79554e-05 -5.93416e-06
6.06564e-06 -5.93416e-06 -0.000109667
0.00263974 3.70464e-06 1.586e-05
3.70464e-06 0.00143554 5.44026e-08
1.586e-05 5.44026e-08 0.00144627
0.000846262 8.19594e-06 -1.65767e-05
8.19594e-06 0.00026484 -5.86253e-06
-1.65767e-05 -5.86253e-06 0.000266008
0.000572699 8.38362e-05 2.86358e-06
8.38362e-05 0.000174619 -3.60367e-06
2.86358e-06 -3.60367e-06 3.99915e-05
0.000368426 6.76014e-05 -2.02618e-06
6.76014e-05 -1.20276e-05 -4.85986e-06
-2.02618e-06 -4.85986e-06 -7.48011e-05
0.000434748 6.03822e-07 1.8546e-06
6.03822e-07 2.81804e-05 1.50888e-07
1.8546e-06 1.50888e-07 -3.57236e-05
0.000411592 6.80381e-06 2.19112e-06
6.80381e-06 -2.96157e-05 -4.42518e-06
2.19112e-06 -4.42518e-06 -4.45087e-05
0.000533026 -8.34982e-05 -2.98944e-06
-8.34982e-05 0.000101823 5.08894e-06
-2.98944e-06 5.08894e-06 2.53853e-05
0.000425469 6.77091e-06 7.60001e-07
6.77091e-06 -2.17582e-05 -8.47715e-07
7.60001e-07 -8.47715e-07 -3.89982e-05
0.00213522 4.561e-05 -5.74632e-07
4.561e-05 0.00110272 -5.4564e-06
-5.74632e-07 -5.4564e-06 0.00111519
0.00131308 4.70192e-05 1.45257e-06
4.70192e-05 0.000569735 3.58925e-06
1.45257e-06 3.58925e-06 0.000545734
0.00154992 5.58673e-05 -1.65893e-06
5.58673e-05 0.000727417 1.88959e-06
-1.65893e-06 1.88959e-06 0.000729892
0.000763704 6.06315e-05 1.25231e-05
6.06315e-05 0.000224295 1.32503e-05
1.25231e-05 1.32503e-05 0.000214259
0.000614325 0.00107064 0.000135462
0.00107064 -0.00406229 2.82894e-05
0.000135462 2.82894e-05 -0.00209309
0.00262912 -3.30132e-05 2.3808e-06
-3.30132e-05 -0.000289651 -2.80993e-06
2.3808e-06 -2.80993e-06 -3.34152e-05
0.00272286 0.00010054 5.69529e-05
0.00010054 -7.87815e-05 -1.52079e-05
5.69529e-05 -1.52079e-05 0.000165869
0.00511501 0.00113137 -0.000115064
0.00113137 -0.00297665 -4.80752e-05
-0.000115064 -4.80752e-05 0.000428678
0.00357222 0.000169987 0.000111478
0.000169987 -0.00142532 -8.96837e-06
0.000111478 -8.96837e-06 -0.000192817
0.00292293 -9.63666e-05 -4.57285e-06
-9.63666e-05 4.88299e-05 9.55687e-07
-4.57285e-06 9.55687e-07 0.000279988
0.00532218 -0.000815813 -8.26289e-05
-0.000815813 0.00010198 -4.92324e-05
-8.26289e-05 -4.92324e-05 0.00110075
0.00498922 -0.000919519 -4.72747e-05
-0.000919519 -0.00237396 -2.17862e-05
-4.72747e-05 -2.17862e-05 0.000388056
0.0201956 -0.00133983 9.97576e-05
-0.00133983 0.00110474 -0.000116687
9.97576e-05 -0.000116687 0.00165472
0.0230253 0.0106827 0.00251888
0.0106827 0.0103322 -0.000236741
0.00251888 -0.000236741 0.00232121
0.038657 0.0138164 0.000202895
0.0138164 0.0249039 0.000168261
0.000202895 0.000168261 0.0138581
1.84522e-05 -0.000113225 3.16487e-06
-0.000113225 -0.000166884 -3.08939e-06
3.16487e-06 -3.08939e-06 -0.000301141
0.000508868 -1.70211e-05 2.50478e-06
-1.70211e-05 0.000123559 3.67411e-08
2.50478e-06 3.67411e-08 8.77009e-07
0.000614013 -0.000109996 -3.28356e-06
-0.000109996 0.000205318 7.01841e-06
-3.28356e-06 7.01841e-06 6.61573e-05
0.000544333 -7.40472e-05 2.68338e-06
-7.40472e-05 0.000136037 -4.94281e-07
2.68338e-06 -4.94281e-07 1.09527e-05
0.000956611 0.000156986 -6.59995e-06
0.000156986 0.000506257 -8.36144e-06
-6.59995e-06 -8.36144e-06 0.000344995
0.000677456 0.000165524 -1.39909e-06
0.000165524 0.000259068 1.33478e-06
-1.39909e-06 1.33478e-06 9.99928e-05
0.000765218 2.99565e-05 3.69035e-06
2.99565e-05 0.000319095 -3.39165e-06
3.69035e-06 -3.39165e-06 0.000145327
0.000458979 -1.73368e-05 -1.35865e-06
-1.73368e-05 0.000100731 8.22684e-07
-1.35865e-06 8.22684e-07 -4.07235e-05
0.00270841 -0.000407886 1.65925e-05
-0.000407886 -0.000333133 -6.78431e-06
1.65925e-05 -6.78431e-06 2.59507e-05
0.00244248 -0.000805824 2.14534e-05
-0.000805824 -0.000424978 -8.66609e-06
2.14534e-05 -8.66609e-06 -0.000175221
0.00282513 -0.00120914 4.91372e-06
-0.00120914 0.000185713 2.98908e-06
4.91372e-06 2.98908e-06 -5.07192e-05
0.00239066 -0.00147815 1.07925e-05
-0.00147815 0.000694552 6.93433e-08
1.07925e-05 6.93433e-08 3.67449e-05
0.00315629 -0.00152808 -2.45177e-05
-0.00152808 0.000795259 4.70132e-06
-2.45177e-05 4.70132e-06 0.000196431
-5.28318e-05 -0.00130235 1.13191e-05
-0.00130235 4.41004e-05 2.35187e-05
1.13191e-05 2.35187e-05 -0.000974398
0.00544875 -0.00102629 1.23544e-05
-0.00102629 0.00303078 1.37144e-05
1.23544e-05 1.37144e-05 0.00247374
0.00164633 -0.000460007 2.75335e-05
-0.000460007 0.000990673 -4.44174e-05
2.75335e-05 -4.44174e-05 0.000507958
0.000583471 -4.6237e-05 -5.93008e-06
-4.6237e-05 0.000128895 6.92477e-06
-5.93008e-06 6.92477e-06 -4.97462e-05
0.0010905 -0.000131635 1.52189e-05
-0.000131635 0.000572405 -3.35742e-05
1.52189e-05 -3.35742e-05 0.000212592
0.000673666 -0.000106496 9.81207e-07
-0.000106496 0.00024663 9.07059e-06
9.81207e-07 9.07059e-06 9.51706e-05
0.000511561 2.93493e-05 -1.5926e-06
2.93493e-05 0.000247271 7.02872e-06
-1.5926e-06 7.02872e-06 0.000154305
0.00276929 -0.000554129 2.03541e-06
-0.000554129 -0.000269072 4.94632e-06
2.03541e-06 4.94632e-06 0.000191563
0.000291145 -9.97773e-05 -8.09219e-06
-9.97773e-05 0.000157781 3.2607e-06
-8.09219e-06 3.2607e-06 -5.57928e-05
0.00112091 -0.000279828 -3.39262e-06
-0.000279828 0.000574605 3.35687e-06
-3.39262e-06 3.35687e-06 0.000260752
0.00207509 -0.000971061 9.23587e-06
-0.000971061 -0.000412364 -5.40434e-06
9.23587e-06 -5.40434e-06 -0.00025174
0.0027297 -0.00130228 1.8873e-06
-0.00130228 0.000512419 5.30599e-06
1.8873e-06 5.30599e-06 5.28893e-05
0.001779 -0.00143813 -4.02976e-07
-0.00143813 0.000173936 -1.71115e-05
-4.02976e-07 -1.71115e-05 -0.000319163
0.00106296 -0.000443885 1.47892e-06
-0.000443885 0.000694808 -2.7664e-05
1.47892e-06 -2.7664e-05 0.000163741
0.000834363 -0.000929931 1.59057e-05
-0.000929931 0.00102469 2.80692e-07
1.59057e-05 2.80692e-07 4.95447e-05
0.00646672 -0.00137339 -6.18202e-05
-0.00137339 0.00149682 4.09232e-05
-6.18202e-05 4.09232e-05 0.00192363
0.00296592 -0.00136917 -4.71497e-05
-0.00136917 0.000565873 1.9561e-05
-4.71497e-05 1.9561e-05 0.000200534
0.00328419 -0.00166909 -1.67988e-06
-0.00166909 0.00092917 1.66963e-05
-1.67988e-06 1.66963e-05 0.000374129
0.000814668 -0.000994549 -2.56247e-05
-0.000994549 1.84292e-05 2.45872e-05
-2.56247e-05 2.45872e-05 -0.000209123
0.00103015 -0.000258527 2.88056e-06
-0.000258527 0.000704675 -2.47365e-06
2.88056e-06 -2.47365e-06 0.000363983
-0.000839959 -0.000143611 2.85787e-06
-0.000143611 -0.00038535 1.50309e-05
2.85787e-06 1.50309e-05 -0.000788661
-0.000417681 -0.000361657 -5.47116e-06
-0.000361657 0.000272677 -1.48924e-05
-5.47116e-06 -1.48924e-05 -0.000514726
-0.00791004 -0.000764812 0.00126122
-0.000764812 -0.00153162 -4.06712e-05
0.00126122 -4.06712e-05 -0.00557511
0.01351 -0.000563699 4.58387e-05
-0.000563699 -0.00145375 5.42222e-05
4.58387e-05 5.42222e-05 0.00029261
0.00188926 0.000415655 3.92157e-06
0.000415655 0.00120334 -8.73652e-06
3.92157e-06 -8.73652e-06 0.000869036
0.00234432 0.000911729 -1.04665e-06
0.000911729 0.00111238 7.00764e-06
-1.04665e-06 7.00764e-06 0.000525018
0.00160523 0.000977782 0.000121947
0.000977782 -0.00086323 6.51871e-05
0.000121947 6.51871e-05 -0.000549921
0.00408085 0.00150695 3.63271e-05
0.00150695 0.00132605 2.00974e-05
3.63271e-05 2.00974e-05 0.0007762
0.0031687 0.00133893 2.51636e-05
0.00133893 0.00126572 6.59917e-06
2.51636e-05 6.59917e-06 0.000546732
0.0197272 0.000985287 0.000101597
0.000985287 0.001015 -0.000206927
0.000101597 -0.000206927 0.00207511
0.00877185 0.00433568 -0.00033008
0.00433568 -0.00302656 -1.07946e-05
-0.00033008 -1.07946e-05 0.000735655
0.00253907 0.00251656 -1.51229e-05
0.00251656 -0.0002987 -3.93865e-05
-1.51229e-05 -3.93865e-05 -0.000505065
0.0180811 -0.0083182 -0.00126136
-0.0083182 0.00914945 0.000241604
-0.00126136 0.000241604 0.00181958
0.0250696 -0.0215298 -0.00311177
-0.0215298 0.0191349 -0.00178025
-0.00311177 -0.00178025 0.00586047
0.000677629 0.000452334 7.63983e-06
0.000452334 0.000399186 -5.817e-06
7.63983e-06 -5.817e-06 2.10614e-05
0.00237628 -0.00578085 0.00113509
-0.00578085 -6.42992e-05 6.58194e-05
0.00113509 6.58194e-05 -0.00608377
0.00375796 -0.00701382 -0.00111283
-0.00701382 0.0134729 -6.52298e-05
-0.00111283 -6.52298e-05 0.00286615
0.00404172 0.00195168 -2.24875e-05
0.00195168 0.000691184 5.24622e-06
-2.24875e-05 5.24622e-06 0.000345443
0.00109557 0.000806786 -1.36084e-05
0.000806786 0.00029941 8.95519e-06
-1.36084e-05 8.95519e-06 -0.000242543
0.00254151 0.00138722 -1.06379e-06
0.00138722 0.000877931 -2.64854e-07
-1.06379e-06 -2.64854e-07 0.000201906
0.00219413 0.00239421 9.21854e-05
0.00239421 0.00034221 6.2794e-05
9.21854e-05 6.2794e-05 8.07247e-05
0.0144293 0.00575645 -0.000255238
0.00575645 -0.00299553 -0.000135598
-0.000255238 -0.000135598 -0.00179189
0.0029923 0.00501613 -3.70678e-05
0.00501613 -0.0016979 -6.91797e-05
-3.70678e-05 -6.91797e-05 0.000355198
0.0287778 -0.00858127 0.000968718
-0.00858127 0.0135856 -0.000176508
0.000968718 -0.000176508 0.00431271
0.0284903 -0.00658728 -0.000250603
-0.00658728 0.0106279 0.000995984
-0.000250603 0.000995984 0.00275676
0.000891664 0.000521578 -9.90818e-06
0.000521578 0.000447131 -1.62148e-05
-9.90818e-06 -1.62148e-05 9.41624e-05
-0.00441096 0.000489059 0.000129655
0.000489059 0.00711339 -0.000187215
0.000129655 -0.000187215 -0.00267842
0.00886081 0.00291349 -0.000878266
0.00291349 0.00686043 -0.000640651
-0.000878266 -0.000640651 0.00116442
0.0028988 0.00153322 -5.67322e-05
0.00153322 0.000581855 -3.30355e-05
-5.67322e-05 -3.30355e-05 0.000370315
0.00246219 0.00137079 -9.09097e-05
0.00137079 0.00107109 -3.95672e-05
-9.09097e-05 -3.95672e-05 0.000412847
0.00211313 0.00187273 -0.000121085
0.00187273 0.0013443 -4.9058e-05
-0.000121085 -4.9058e-05 0.00041007
-0.00242476 0.00379855 8.13564e-05
0.00379855 -0.000730967 -3.43002e-05
8.13564e-05 -3.43002e-05 -0.000817062
0.00588465 0.0085084 0.0010774
0.0085084 -0.00311212 0.000127325
0.0010774 0.000127325 -0.00303639
0.0301232 -0.010732 -0.000709627
-0.010732 0.0176107 0.00112611
-0.000709627 0.00112611 0.00695901
0.00982888 0.000982657 -0.000172855
0.000982657 -0.00151298 -0.000264425
-0.000172855 -0.000264425 -0.00245952
0.00108581 0.000293328 -8.16143e-06
0.000293328 0.000771008 3.44299e-06
-8.16143e-06 3.44299e-06 0.000540261
0.00083968 0.000329397 4.22653e-06
0.000329397 0.00062448 3.07327e-07
4.22653e-06 3.07327e-07 0.000309422
-0.000563349 0.000222877 3.77328e-06
0.000222877 -0.000165844 -8.46218e-07
3.77328e-06 -8.46218e-07 -0.000485929
0.000416129 8.17977e-05 3.15618e-06
8.17977e-05 5.79679e-05 1.37352e-06
3.15618e-06 1.37352e-06 -0.000108129
0.00124587 0.000129606 4.52447e-07
0.000129606 0.000667202 1.69758e-06
4.52447e-07 1.69758e-06 0.000438834
0.000341486 2.18026e-05 -3.31736e-07
2.18026e-05 0.000108168 9.25072e-07
-3.31736e-07 9.25072e-07 -0.000127143
-5.37902e-05 6.77215e-05 6.17291e-06
6.77215e-05 -7.28299e-05 -2.32749e-06
6.17291e-06 -2.32749e-06 -0.000319574
0.000170525 7.74814e-05 -5.78714e-06
7.74814e-05 0.000108259 3.76049e-06
-5.78714e-06 3.76049e-06 -9.55193e-05
0.000843873 4.47122e-05 -3.88517e-07
4.47122e-05 0.000385849 -1.01876e-06
-3.88517e-07 -1.01876e-06 0.000168623
0.000458859 4.66031e-05 5.59476e-07
4.66031e-05 0.000223353 -2.07311e-06
5.59476e-07 -2.07311e-06 1.59388e-05
0.000850047 -3.03189e-05 -3.57761e-07
-3.03189e-05 0.0004327 2.40139e-06
-3.57761e-07 2.40139e-06 0.00019931
-0.00054205 6.08121e-05 -1.40495e-06
6.08121e-05 -8.63817e-05 -3.42863e-07
-1.40495e-06 -3.42863e-07 -0.000468408
8.46281e-05 1.83052e-05 1.30931e-06
1.83052e-05 0.000459527 2.14723e-06
1.30931e-06 2.14723e-06 -6.10501e-05
0.00052724 -5.03817e-05 1.62247e-06
-5.03817e-05 0.000396128 -3.49253e-06
1.62247e-06 -3.49253e-06 9.56448e-05
0.00194055 -7.20472e-05 -5.69341e-06
-7.20472e-05 0.00120317 4.08105e-06
-5.69341e-06 4.08105e-06 0.000922164
0.00109406 -0.000142194 -5.76037e-07
-0.000142194 0.000554508 -2.488e-06
-5.76037e-07 -2.488e-06 0.000341732
0.000513916 -0.000103481 -2.48832e-06
-0.000103481 0.000164994 7.94404e-06
-2.48832e-06 7.94404e-06 1.63204e-05
0.000616058 -0.000162641 5.9452e-07
-0.000162641 0.000269981 7.2403e-07
5.9452e-07 7.2403e-07 8.24478e-05
0.000799031 -0.000178405 2.35504e-07
-0.000178405 0.00028696 -2.40585e-06
2.35504e-07 -2.40585e-06 0.000129225
0.000207418 -7.44598e-05 -4.67025e-06
-7.44598e-05 9.34337e-05 6.42392e-06
-4.67025e-06 6.42392e-06 -8.14886e-05
-0.00109225 -3.88656e-05 8.6419e-07
-3.88656e-05 -0.000738948 -1.08788e-05
8.6419e-07 -1.08788e-05 -0.000989418
-0.000469642 -0.000105935 -1.03135e-05
-0.000105935 -0.000231104 4.15342e-06
-1.03135e-05 4.15342e-06 -0.000505021
-1.16939e-05 -0.000106355 3.87997e-06
-0.000106355 -4.35401e-05 -8.3796e-06
3.87997e-06 -8.3796e-06 -0.000237013
0.00114097 -0.000170469 2.7178e-05
-0.000170469 0.000474529 -1.4378e-05
2.7178e-05 -1.4378e-05 0.00032409
0.00437617 -0.000745804 -3.18299e-06
-0.000745804 0.00240492 2.67639e-06
-3.18299e-06 2.67639e-06 0.00204335
-0.00125993 -0.000195068 -1.16977e-06
-0.000195068 -0.000863886 -5.26056e-07
-1.16977e-06 -5.26056e-07 -0.00112958
0.000327785 -3.10942e-05 2.57336e-06
-3.10942e-05 0.00020448 1.05641e-06
2.57336e-06 1.05641e-06 -8.92653e-05
-0.0016763 4.22698e-05 7.99489e-06
4.22698e-05 -0.00111575 -3.05542e-06
7.99489e-06 -3.05542e-06 -0.0014136
0.000694651 -0.000238031 -3.39807e-06
-0.000238031 0.000339226 -1.41419e-06
-3.39807e-06 -1.41419e-06 0.000120957
0.000835726 -6.15267e-05 4.65374e-06
-6.15267e-05 0.000357647 6.76148e-07
4.65374e-06 6.76148e-07 0.000172707
0.000767765 -0.000205211 3.41164e-06
-0.000205211 0.00035497 -2.7183e-06
3.41164e-06 -2.7183e-06 0.000158008
0.00057076 -8.96223e-05 -8.21997e-07
-8.96223e-05 0.000190991 3.0078e-07
-8.21997e-07 3.0078e-07 2.01978e-05
0.000209433 4.44994e-05 2.95124e-06
4.44994e-05 -0.000100388 3.62878e-06
2.95124e-06 3.62878e-06 -0.000205106
0.000792152 -0.000160043 2.61203e-07
-0.000160043 0.000314756 -7.69108e-08
2.61203e-07 -7.69108e-08 0.000146866
0.000430517 -5.61975e-05 -6.71571e-07
-5.61975e-05 2.69009e-05 1.92154e-07
-6.71571e-07 1.92154e-07 -6.72668e-05
0.00136886 3.57475e-05 -9.59945e-06
3.57475e-05 0.000613083 8.46479e-06
-9.59945e-06 8.46479e-06 0.00058556
0.000441853 -8.48003e-05 9.82566e-07
-8.48003e-05 4.60424e-05 -3.30904e-06
9.82566e-07 -3.30904e-06 -5.28874e-05
0.000835592 -2.85968e-05 -1.25206e-05
-2.85968e-05 0.000273138 9.97653e-07
-1.25206e-05 9.97653e-07 0.000242434
0.00071279 9.2653e-06 2.12763e-06
9.2653e-06 0.000168109 2.2541e-06
2.12763e-06 2.2541e-06 0.000169652
0.000393669 -4.66823e-05 4.69282e-06
-4.66823e-05 -1.42203e-05 -5.53316e-06
4.69282e-06 -5.53316e-06 -4.51889e-05
0.00257631 4.26742e-06 6.6764e-06
4.26742e-06 0.00139223 -1.23243e-08
6.6764e-06 -1.23243e-08 0.00140396
0.00260488 -5.7957e-06 1.31547e-05
-5.7957e-06 0.00141218 -5.34326e-06
1.31547e-05 -5.34326e-06 0.00142312
0.00102535 7.76015e-05 -8.11957e-07
7.76015e-05 0.000463031 -4.54776e-06
-8.11957e-07 -4.54776e-06 0.000322558
0.000478103 7.9146e-05 -1.18122e-06
7.9146e-05 6.63192e-05 -5.97039e-06
-1.18122e-06 -5.97039e-06 -5.13271e-06
0.000504223 -2.38694e-05 -9.04117e-07
-2.38694e-05 0.000125209 9.37649e-07
-9.04117e-07 9.37649e-07 -6.65028e-06
0.000383344 1.36457e-05 1.6909e-06
1.36457e-05 -4.77125e-05 -4.62548e-06
1.6909e-06 -4.62548e-06 -6.20573e-05
0.000407277 -1.2246e-05 2.18935e-06
-1.2246e-05 9.65429e-06 -2.73911e-07
2.18935e-06 -2.73911e-07 -5.19667e-05
0.000445724 -7.61594e-05 -4.30133e-06
-7.61594e-05 3.90313e-05 4.91105e-06
-4.30133e-06 4.91105e-06 -2.81691e-05
0.000412995 1.32438e-06 -6.22108e-07
1.32438e-06 -2.94774e-05 1.55179e-08
-6.22108e-07 1.55179e-08 -4.43158e-05
0.00207841 2.95416e-05 -5.9054e-06
2.95416e-05 0.00106295 -5.44166e-06
-5.9054e-06 -5.44166e-06 0.00107755
0.00119411 2.00513e-05 -1.56975e-06
2.00513e-05 0.000482542 3.43096e-06
-1.56975e-06 3.43096e-06 0.000468268
0.00139931 3.52865e-05 -4.67837e-06
3.52865e-05 0.000618977 1.49193e-08
-4.67837e-06 1.49193e-08 0.000627419
0.000745085 4.20743e-05 1.9883e-07
4.20743e-05 0.000198676 9.98388e-06
1.9883e-07 9.98388e-06 0.000198411
-0.00404871 0.00391731 0.00132172
0.00391731 -0.000149822 -0.000111064
0.00132172 -0.000111064 -0.0067577
0.00474113 0.00409663 0.00274014
0.00409663 0.0122692 -0.000257599
0.00274014 -0.000257599 0.003523
0.00195713 0.00130049 -0.000111726
0.00130049 -0.00429162 -6.97184e-05
-0.000111726 -6.97184e-05 -0.000507959
0.00304317 -3.849e-05 6.22812e-05
-3.849e-05 -0.00184562 -2.58427e-05
6.22812e-05 -2.58427e-05 -0.000451981
0.00317855 -0.000109013 4.8349e-05
-0.000109013 0.000188175 8.35169e-06
4.8349e-05 8.35169e-06 0.000422888
0.00102725 -0.000159726 -0.000118577
-0.000159726 -0.00258059 -3.89546e-05
-0.000118577 -3.89546e-05 2.04821e-06
0.00468941 -0.000801757 1.18209e-05
-0.000801757 -0.00014328 1.66129e-06
1.18209e-05 1.66129e-06 0.000695157
0.0130016 -0.000915624 0.000377371
-0.000915624 -0.0035915 -0.000148665
0.000377371 -0.000148665 -0.00305683
0.00860157 0.00709058 -2.87208e-05
0.00709058 0.00333745 -0.000104292
-2.87208e-05 -0.000104292 -0.00277603
0.0337656 0.0173734 -0.000865425
0.0173734 0.0224728 0.000313545
-0.000865425 0.000313545 0.0105053
0.00318366 -0.00187894 -4.32685e-05
-0.00187894 -0.00375757 -3.74965e-05
-4.32685e-05 -3.74965e-05 -0.000600686
0.0155558 -0.00521976 0.000433609
-0.00521976 -0.00169266 -8.18918e-05
0.000433609 -8.18918e-05 -0.00126656
0.0269715 0.00941187 0.000510023
0.00941187 0.0117726 -0.00047405
0.000510023 -0.00047405 0.00215957
0.0327901 0.00652412 -0.000448806
0.00652412 0.014011 0.000433573
-0.000448806 0.000433573 0.00711098
0.00137458 0.000209318 -7.93708e-06
0.000209318 0.000803111 -2.16659e-06
-7.93708e-06 -2.16659e-06 0.000570316
0.000353051 2.99808e-05 1.30723e-06
2.99808e-05 2.29627e-05 -5.43473e-07
1.30723e-06 -5.43473e-07 -0.000101618
0.000526753 -0.000116143 2.35431e-06
-0.000116143 0.000147099 4.70258e-06
2.35431e-06 4.70258e-06 1.76224e-05
0.000612755 -2.73648e-05 3.63273e-06
-2.73648e-05 0.000185826 3.67531e-06
3.63273e-06 3.67531e-06 5.9997e-05
0.00046351 6.69871e-05 4.41319e-06
6.69871e-05 0.000160701 3.63524e-08
4.41319e-06 3.63524e-08 3.84326e-05
0.000660077 0.000104954 1.91715e-07
0.000104954 0.000259425 2.57212e-06
1.91715e-07 2.57212e-06 5.55619e-05
0.000586245 8.25276e-05 -1.37933e-06
8.25276e-05 0.000219886 1.99703e-06
-1.37933e-06 1.99703e-06 6.00036e-05
0.000403711 0.000128318 5.3452e-06
0.000128318 3.4607e-05 3.49955e-06
5.3452e-06 3.49955e-06 -0.000142181
0.000552967 2.37245e-05 1.36965e-06
2.37245e-05 0.000179494 -1.17044e-06
1.36965e-06 -1.17044e-06 5.60592e-06
0.00026981 -3.16642e-05 1.16255e-06
-3.16642e-05 -3.61047e-05 2.74259e-06
1.16255e-06 2.74259e-06 -0.000161238
0.0012196 -0.00045793 5.41186e-05
-0.00045793 -0.0012985 -2.19745e-05
5.41186e-05 -2.19745e-05 -0.000653012
0.00153812 -0.000909404 3.15774e-05
-0.000909404 -0.000689012 -1.40003e-05
3.15774e-05 -1.40003e-05 -0.000494491
0.00152019 -0.00112576 1.1731e-05
-0.00112576 -0.000168582 5.85721e-06
1.1731e-05 5.85721e-06 -0.00053491
-0.000327335 -0.00111038 -8.90693e-06
-0.00111038 -0.000990698 -1.07381e-05
-8.90693e-06 -1.07381e-05 -0.0014084
0.0026436 -0.000961484 -1.15254e-05
-0.000961484 0.00194482 5.30678e-05
-1.15254e-05 5.30678e-05 0.00109141
-0.00099691 -0.000721271 -5.64573e-06
-0.000721271 -0.000452649 -1.99017e-05
-5.64573e-06 -1.99017e-05 -0.00120251
0.00152298 -0.000333879 1.54382e-05
-0.000333879 0.000865802 -1.06616e-05
1.54382e-05 -1.06616e-05 0.00059448
-0.000150783 -2.56659e-05 3.22229e-06
-2.56659e-05 -0.000152275 8.22553e-06
3.22229e-06 8.22553e-06 -0.000338268
0.00311965 -0.00104948 1.2662e-05
-0.00104948 -0.000502112 -1.15639e-05
1.2662e-05 -1.15639e-05 0.000175577
0.000691799 -0.00015082 -2.61868e-07
-0.00015082 0.00048054 2.30727e-06
-2.61868e-07 2.30727e-06 0.000141693
-0.000394966 -0.00026576 -1.45455e-05
-0.00026576 -8.4143e-05 1.07441e-06
-1.45455e-05 1.07441e-06 -0.000500135
0.00202935 -0.00120485 2.06404e-05
-0.00120485 3.11341e-05 -2.11471e-06
2.06404e-05 -2.11471e-06 -0.000191138
0.00220139 -0.0014803 -1.04055e-06
-0.0014803 0.000316691 -5.76995e-06
-1.04055e-06 -5.76995e-06 -0.000145244
0.000138128 -0.000972547 1.86184e-05
-0.000972547 -0.000327813 -1.57363e-05
1.86184e-05 -1.57363e-05 -0.00061988
0.00119835 -0.00060593 3.09276e-05
-0.00060593 0.00118914 -2.91405e-05
3.09276e-05 -2.91405e-05 0.000463365
0.00198248 -0.00171777 -4.23146e-05
-0.00171777 -0.000753626 4.8469e-05
-4.23146e-05 4.8469e-05 -0.000601267
0.00234662 -0.00134638 -5.38025e-05
-0.00134638 0.000544163 3.00086e-05
-5.38025e-05 3.00086e-05 0.000258246
-0.000602875 -0.000593792 -4.86209e-05
-0.000593792 -0.000150677 2.98188e-05
-4.86209e-05 2.98188e-05 -0.00059256
-0.000371957 -1.99736e-06 -6.67144e-06
-1.99736e-06 -0.000253262 3.5641e-06
-6.67144e-06 3.5641e-06 -0.000539424
-0.000919795 -6.35491e-06 -5.74588e-06
-6.35491e-06 -0.000388882 2.02977e-05
-5.74588e-06 2.02977e-05 -0.000801111
0.000496121 -8.40479e-05 6.61098e-06
-8.40479e-05 0.000501217 8.35237e-06
6.61098e-06 8.35237e-06 0.000110127
-0.00265905 0.00154181 -0.000747341
0.00154181 0.00865812 1.05675e-05
-0.000747341 1.05675e-05 0.00118342
2.07742e-05 -0.0025309 -2.02503e-05
-0.0025309 0.00492613 -6.74505e-05
-2.02503e-05 -6.74505e-05 0.00178686
0.00653758 0.00050067 -0.000140354
0.00050067 -0.0074594 -4.06137e-05
-0.000140354 -4.06137e-05 -0.0074969
0.00148179 0.000556026 1.73835e-05
0.000556026 0.000950862 -9.05768e-06
1.73835e-05 -9.05768e-06 0.000539699
0.00183474 0.000975873 2.17687e-05
0.000975873 0.000785276 3.11432e-05
2.17687e-05 3.11432e-05 0.000166125
0.00415784 0.00175541 0.000101598
0.00175541 0.000705024 4.96806e-05
0.000101598 4.96806e-05 0.000462669
0.00264404 0.00146843 3.67372e-05
0.00146843 0.000949006 3.45138e-05
3.67372e-05 3.45138e-05 0.000237436
0.0170155 -0.00681179 0.000371452
-0.00681179 0.00981367 0.000119677
0.000371452 0.000119677 0.00302951
0.00304578 0.00421305 -0.000748344
0.00421305 -0.00930666 -0.000156192
-0.000748344 -0.000156192 -0.00844399
0.0065309 0.00539047 4.57091e-06
0.00539047 9.06319e-05 1.99916e-05
4.57091e-06 1.99916e-05 0.00160824
0.00400368 0.00235676 0.000111506
0.00235676 0.00158238 2.19145e-05
0.000111506 2.19145e-05 0.00127231
0.0195279 -0.00538375 -0.000782629
-0.00538375 0.00862025 -0.000200047
-0.000782629 -0.000200047 0.000473856
0.00476303 -0.0084221 -0.00172
-0.0084221 0.0147105 -0.000192405
-0.00172 -0.000192405 0.00441412
0.0404161 -0.0103157 0.00158625
-0.0103157 0.0147768 0.000515396
0.00158625 0.000515396 0.00546744
0.000543606 0.00050486 1.33468e-05
0.00050486 0.000305614 -5.31712e-06
1.33468e-05 -5.31712e-06 -7.54313e-05
-0.000460311 -0.000810429 -0.000133137
-0.000810429 0.0096625 -8.12409e-06
-0.000133137 -8.12409e-06 0.000602416
0.00907529 0.0034714 -0.000312608
0.0034714 0.00492367 -0.00021264
-0.000312608 -0.00021264 -0.00171951
0.00245431 0.00161285 1.30969e-05
0.00161285 0.000493184 4.68293e-06
1.30969e-05 4.68293e-06 0.000160965
0.00119574 0.00113566 1.00373e-05
0.00113566 0.00048893 8.11982e-06
1.00373e-05 8.11982e-06 -0.000142593
0.000965731 0.00186204 -0.000147462
0.00186204 0.000672845 -0.000102223
-0.000147462 -0.000102223 -6.00102e-05
0.00352789 0.00578462 9.47013e-05
0.00578462 0.000637363 5.64072e-05
9.47013e-05 5.64072e-05 0.000772871
0.0123489 0.00911269 -3.6442e-05
0.00911269 -0.000314985 -1.20349e-05
-3.6442e-05 -1.20349e-05 -0.00167718
0.0136832 -0.00613266 0.000120257
-0.00613266 0.0111702 -0.000174141
0.000120257 -0.000174141 0.000778989
0.0196888 -0.00223426 -9.46166e-05
-0.00223426 0.00357776 -5.00118e-05
-9.46166e-05 -5.00118e-05 0.00274447
0.00156927 0.00101055 -1.99022e-05
0.00101055 0.000905567 -1.49255e-05
-1.99022e-05 -1.49255e-05 0.00035751
0.00155858 0.000780196 -0.000655079
0.000780196 0.00398915 -0.000181779
-0.000655079 -0.000181779 -0.00325654
0.00321212 0.00171355 -0.000165625
0.00171355 0.000947697 -0.000221884
-0.000165625 -0.000221884 -0.00215319
-0.00103368 0.00065645 -6.92851e-06
0.00065645 -0.00013081 -3.21749e-05
-6.92851e-06 -3.21749e-05 -0.000618317
-0.00249551 0.00155715 -0.00014454
0.00155715 0.000665082 2.54817e-05
-0.00014454 2.54817e-05 -0.000224258
0.00853897 0.0083662 0.000368491
0.0083662 0.00399619 3.25772e-05
0.000368491 3.25772e-05 -0.00143807
0.00986659 -0.00679515 -9.43409e-06
-0.00679515 0.00347641 0.000231646
-9.43409e-06 0.000231646 -0.00495722
0.0175998 -0.000816871 9.8372e-05
-0.000816871 -0.000217492 -0.00035134
9.8372e-05 -0.00035134 0.000561212
0.0011326 0.000356695 1.25995e-06
0.000356695 0.000774182 2.34692e-05
1.25995e-06 2.34692e-05 0.000481606
0.000935886 0.000378544 -4.49806e-06
0.000378544 0.000753884 -4.85392e-06
-4.49806e-06 -4.85392e-06 0.000398899
-0.00029079 0.000262301 7.33002e-06
0.000262301 0.000191371 -3.11959e-06
7.33002e-06 -3.11959e-06 -0.000302044
0.000415445 9.15992e-05 5.22044e-07
9.15992e-05 7.5206e-05 -3.55369e-07
5.22044e-07 -3.55369e-07 -0.000116931
0.00137424 -1.50731e-05 -2.8261e-06
-1.50731e-05 0.000791656 4.44524e-06
-2.8261e-06 4.44524e-06 0.000539158
0.000371842 7.76234e-05 2.28587e-06
7.76234e-05 0.00016754 -9.10119e-07
2.28587e-06 -9.10119e-07 -4.59628e-05
-0.000361069 0.000116344 6.63858e-07
0.000116344 3.60827e-05 5.18277e-06
6.63858e-07 5.18277e-06 -0.000345047
0.000739875 -6.83831e-05 2.87827e-06
-6.83831e-05 0.000358385 6.77745e-07
2.87827e-06 6.77745e-07 0.000133416
0.000236196 3.30349e-05 7.44929e-08
3.30349e-05 0.00020367 -2.24332e-06
7.44929e-08 -2.24332e-06 -8.75685e-05
-2.13279e-05 2.9907e-05 -1.36813e-06
2.9907e-05 0.000451378 1.61945e-06
-1.36813e-06 1.61945e-06 -0.000112472
-0.000359644 7.57031e-05 1.91985e-07
7.57031e-05 0.000385799 6.65581e-06
1.91985e-07 6.65581e-06 -0.000234552
0.000435241 -4.47515e-05 1.11012e-06
-4.47515e-05 0.000674079 -6.26743e-06
1.11012e-06 -6.26743e-06 0.000159352
0.00129037 -4.07503e-05 -8.79312e-06
-4.07503e-05 0.00088793 6.93104e-06
-8.79312e-06 6.93104e-06 0.000589892
0.00109122 -0.0002082 5.29289e-06
-0.0002082 0.000592014 2.93983e-06
5.29289e-06 2.93983e-06 0.000391814
0.000364318 -0.000158451 -3.22773e-06
-0.000158451 1.83371e-06 3.59465e-06
-3.22773e-06 3.59465e-06 -0.000155777
-0.000508367 -3.73817e-05 1.43254e-05
-3.73817e-05 -0.000365747 7.37345e-06
1.43254e-05 7.37345e-06 -0.000502978
6.8937e-06 -4.17802e-05 2.11141e-06
-4.17802e-05 6.43715e-05 1.84613e-06
2.11141e-06 1.84613e-06 -0.000201588
0.000520708 -7.29125e-05 1.09431e-06
-7.29125e-05 0.000214269 1.86594e-06
1.09431e-06 1.86594e-06 -7.06761e-06
-0.000417067 -8.87864e-05 -4.6846e-06
-8.87864e-05 -0.00026393 -1.44372e-07
-4.6846e-06 -1.44372e-07 -0.000460631
8.06112e-05 -0.000128898 -6.46922e-06
-0.000128898 -3.02259e-05 -5.49e-06
-6.46922e-06 -5.49e-06 -0.000233801
0.000500967 -8.02674e-05 3.6002e-06
-8.02674e-05 0.0005044 -6.7333e-06
3.6002e-06 -6.7333e-06 0.00021227
0.00234798 -0.000524666 2.22084e-07
-0.000524666 0.00114712 8.14031e-06
2.22084e-07 8.14031e-06 0.000945881
0.000643546 -0.0001708 -2.26689e-05
-0.0001708 0.000171813 8.12796e-07
-2.26689e-05 8.12796e-07 2.16646e-05
0.00114561 -0.000442985 9.35289e-06
-0.000442985 0.000383973 7.01241e-06
9.35289e-06 7.01241e-06 0.000115524
0.00250456 -0.00090232 -9.29445e-06
-0.00090232 0.00116496 1.66851e-05
-9.29445e-06 1.66851e-05 0.000637982
0.00267104 -0.00035917 1.53873e-05
-0.00035917 0.00133798 -7.29192e-06
1.53873e-05 -7.29192e-06 0.0010925
0.00236932 -0.000542722 7.83397e-07
-0.000542722 0.00117264 -7.7663e-06
7.83397e-07 -7.7663e-06 0.000874897
0.000362805 -0.000208171 -3.35411e-07
-0.000208171 0.000135408 -6.49873e-07
-3.35411e-07 -6.49873e-07 -0.000135403
-0.00175084 -0.000133366 2.86366e-06
-0.000133366 -0.00113206 -5.5383e-06
2.86366e-06 -5.5383e-06 -0.00150151
0.00169904 -7.16193e-05 3.77955e-06
-7.16193e-05 0.00104319 3.3295e-06
3.77955e-06 3.3295e-06 0.00076657
0.000691194 -0.000243018 3.96396e-06
-0.000243018 0.000344541 -1.94476e-06
3.96396e-06 -1.94476e-06 5.80033e-05
0.000419236 -9.5263e-05 6.96178e-06
-9.5263e-05 5.59134e-05 5.39529e-07
6.96178e-06 5.39529e-07 -0.000147472
0.00217103 -0.000440176 -7.81661e-06
-0.000440176 0.00130443 1.33208e-06
-7.81661e-06 1.33208e-06 0.00105492
0.000519464 -0.000170774 -3.80254e-07
-0.000170774 0.000172009 -3.93822e-07
-3.80254e-07 -3.93822e-07 -2.39729e-05
0.000201057 -2.76549e-05 2.96176e-06
-2.76549e-05 -0.000108911 5.52094e-06
2.96176e-06 5.52094e-06 -0.000227696
0.00102591 -0.000191231 -2.26747e-06
-0.000191231 0.000506125 1.80331e-06
-2.26747e-06 1.80331e-06 0.000321228
0.000617252 -9.01481e-05 -2.14082e-07
-9.01481e-05 0.000164149 1.29821e-07
-2.14082e-07 1.29821e-07 5.47684e-05
0.00146677 -4.60084e-07 -1.58168e-05
-4.60084e-07 0.00067382 9.14326e-06
-1.58168e-05 9.14326e-06 0.000641664
0.000470079 -8.75792e-05 6.17175e-07
-8.75792e-05 6.78112e-05 -4.03067e-06
6.17175e-07 -4.03067e-06 -3.61194e-05
0.000821617 -1.95174e-05 -1.48047e-05
-1.95174e-05 0.000257894 9.18008e-07
-1.48047e-05 9.18008e-07 0.000225905
0.000821784 1.80993e-05 2.6486e-06
1.80993e-05 0.000237075 3.29857e-06
2.6486e-06 3.29857e-06 0.00023596
0.000378947 -5.09358e-05 4.06038e-06
-5.09358e-05 -2.75281e-05 -6.03212e-06
4.06038e-06 -6.03212e-06 -6.0378e-05
0.001694 1.39982e-05 1.73817e-05
1.39982e-05 0.000812182 -1.73763e-06
1.73817e-05 -1.73763e-06 0.000819248
0.00256781 6.02066e-07 2.33643e-05
6.02066e-07 0.0013861 -5.58505e-06
2.33643e-05 -5.58505e-06 0.00139814
0.00046537 8.806e-05 1.24946e-06
8.806e-05 6.84491e-05 -3.94117e-06
1.24946e-06 -3.94117e-06 -7.14142e-05
0.000530159 8.10998e-05 -5.47943e-07
8.10998e-05 9.82822e-05 -6.34437e-06
-5.47943e-07 -6.34437e-06 2.05771e-05
0.000546039 2.19063e-05 6.67681e-07
2.19063e-05 0.000141885 6.22817e-07
6.67681e-07 6.22817e-07 7.60702e-06
0.000400091 7.53382e-06 3.5445e-06
7.53382e-06 -3.70584e-05 -5.37365e-06
3.5445e-06 -5.37365e-06 -5.25319e-05
0.000422207 6.55799e-05 2.96494e-07
6.55799e-05 2.14445e-05 -1.21302e-07
2.96494e-07 -1.21302e-07 -4.42535e-05
0.000368508 -0.000119872 -3.8906e-06
-0.000119872 1.83848e-05 5.59656e-06
-3.8906e-06 5.59656e-06 -0.000100993
0.00207842 1.45968e-05 -1.09856e-05
1.45968e-05 0.00106136 -5.51365e-06
-1.09856e-05 -5.51365e-06 0.00107708
0.000399251 8.09312e-06 -4.79253e-07
8.09312e-06 -3.73572e-05 1.2827e-10
-4.79253e-07 1.2827e-10 -5.15922e-05
0.000475401 6.83726e-07 -2.07906e-06
6.83726e-07 4.22489e-05 4.54608e-06
-2.07906e-06 4.54608e-06 -1.22758e-05
0.000411879 -1.21084e-06 -3.29957e-06
-1.21084e-06 -3.12122e-05 4.5921e-06
-3.29957e-06 4.5921e-06 -4.59846e-05
0.00209287 3.05475e-05 -6.11866e-06
3.05475e-05 0.00107265 -1.68919e-07
-6.11866e-06 -1.68919e-07 0.00108701
0.0021424 4.73183e-05 7.81626e-07
4.73183e-05 0.00110799 5.634e-06
7.81626e-07 5.634e-06 0.0011201
-0.000299246 -0.00184936 -0.000423724
-0.00184936 0.0102595 7.47517e-05
-0.000423724 7.47517e-05 0.00424574
0.00642679 0.0042969 -0.000506036
0.0042969 0.00396744 0.000165357
-0.000506036 0.000165357 -0.00204274
0.00401815 -0.00163877 -0.0006012
-0.00163877 0.00175353 0.000331263
-0.0006012 0.000331263 -0.00362121
0.008741 0.00487479 0.0016781
0.00487479 0.0121457 -0.00019449
0.0016781 -0.00019449 0.00291817
0.00518119 0.00107843 8.99111e-06
0.00107843 -0.00113382 -9.22406e-06
8.99111e-06 -9.22406e-06 0.000915804
0.00338633 -0.000847688 0.000117788
-0.000847688 -0.000837102 2.5723e-05
0.000117788 2.5723e-05 -9.56342e-05
0.0028006 -0.000734419 0.000555514
-0.000734419 -0.00922635 -3.06416e-05
0.000555514 -3.06416e-05 -0.00824553
0.0248952 0.00697076 -0.00216188
0.00697076 0.0133846 -0.000114908
-0.00216188 -0.000114908 0.00604368
0.0262834 0.0209828 -0.0031348
0.0209828 0.0183432 0.00184329
-0.0031348 0.00184329 0.00558939
0.00548599 -0.00144685 7.77118e-05
-0.00144685 -0.00206009 1.85806e-07
7.77118e-05 1.85806e-07 0.000239088
0.00798619 -0.00521761 0.000301678
-0.00521761 -0.00632265 -0.000228166
0.000301678 -0.000228166 -0.00599486
0.0290799 0.00924219 -0.000539765
0.00924219 0.0129249 -0.00025212
-0.000539765 -0.00025212 0.00319929
0.0240392 0.00602166 0.00035372
0.00602166 0.0104524 0.000555406
0.00035372 0.000555406 0.00373296
0.0025252 -0.00334688 -0.000111512
-0.00334688 -0.00455041 8.95145e-05
-0.000111512 8.95145e-05 -0.00137144
0.00366769 -0.00806638 0.000947903
-0.00806638 -0.0028102 -0.000295936
0.000947903 -0.000295936 -0.00424072
0.0165636 0.00441731 -0.000450175
0.00441731 0.0076638 -0.00123545
-0.000450175 -0.00123545 -0.00180981
0.0112207 -0.000932549 -0.00043437
-0.000932549 0.000685397 6.40237e-05
-0.00043437 6.40237e-05 -0.000794808
0.00201238 -5.42135e-05 -2.79319e-06
-5.42135e-05 0.00123936 1.56545e-05
-2.79319e-06 1.56545e-05 0.000932267
0.000188476 4.38683e-05 -9.68301e-07
4.38683e-05 -1.82023e-05 -2.01356e-06
-9.68301e-07 -2.01356e-06 -0.000185557
0.000532942 0.000121616 3.31238e-06
0.000121616 0.00013429 3.16606e-06
3.31238e-06 3.16606e-06 1.20337e-05
-0.000420221 -8.53485e-05 -5.25524e-07
-8.53485e-05 -0.000480381 3.33755e-06
-5.25524e-07 3.33755e-06 -0.000526208
0.00041684 0.000173872 4.0004e-06
0.000173872 7.12664e-05 1.27895e-05
4.0004e-06 1.27895e-05 -0.000134869
0.000545642 9.15701e-05 -9.13223e-07
9.15701e-05 0.000196095 -3.49259e-07
-9.13223e-07 -3.49259e-07 8.53323e-07
-0.000236726 -8.07985e-06 2.24546e-06
-8.07985e-06 -0.000329698 3.11492e-06
2.24546e-06 3.11492e-06 -0.000463715
0.000999518 0.000204589 9.24411e-06
0.000204589 0.000481643 1.01903e-05
9.24411e-06 1.01903e-05 0.000253746
0.00100136 0.000195537 -3.71993e-07
0.000195537 0.000488244 -5.9389e-07
-3.71993e-07 -5.9389e-07 0.000263387
0.000352073 2.13252e-05 -2.76337e-06
2.13252e-05 4.09843e-05 8.8577e-07
-2.76337e-06 8.8577e-07 -0.000130393
0.00123383 -0.000903407 0.000128961
-0.000903407 -0.0015871 -7.36293e-05
0.000128961 -7.36293e-05 -0.000831212
0.000706152 -0.00103215 1.07327e-05
-0.00103215 -0.000746934 -1.19574e-05
1.07327e-05 -1.19574e-05 -0.000822624
0.00196846 -0.00142159 1.18559e-05
-0.00142159 0.000193096 9.66751e-06
1.18559e-05 9.66751e-06 -0.000223324
-0.000818109 -0.000933159 5.68877e-06
-0.000933159 -0.000881603 -1.26593e-05
5.68877e-06 -1.26593e-05 -0.00119822
0.00405706 -0.000767455 -7.69347e-05
-0.000767455 0.00270868 6.83713e-05
-7.69347e-05 6.83713e-05 0.0021808
0.00061083 -0.000327015 1.09892e-07
-0.000327015 0.00054174 -1.2679e-05
1.09892e-07 -1.2679e-05 0.00011438
0.00059272 3.58782e-05 4.74378e-06
3.58782e-05 0.000394809 -9.5623e-06
4.74378e-06 -9.5623e-06 6.39613e-05
0.000641206 2.19088e-05 -5.69944e-06
2.19088e-05 0.000370966 3.01462e-06
-5.69944e-06 3.01462e-06 6.86925e-05
0.00311832 -0.00173725 -3.01128e-05
-0.00173725 -0.000153174 2.68716e-06
-3.01128e-05 2.68716e-06 0.000133436
0.000530646 -4.64322e-05 1.11511e-06
-4.64322e-05 0.00043961 3.97486e-06
1.11511e-06 3.97486e-06 6.51154e-05
0.00200059 -0.000487535 1.08622e-05
-0.000487535 0.00137633 -6.83095e-06
1.08622e-05 -6.83095e-06 0.000969996
0.00163476 -0.00127293 2.18108e-05
-0.00127293 0.000135922 -3.31125e-06
2.18108e-05 -3.31125e-06 -0.000139897
0.000293348 -0.000703449 -2.3997e-05
-0.000703449 0.000259316 7.56316e-06
-2.3997e-05 7.56316e-06 -0.000126549
0.00287283 -0.00283072 5.72266e-05
-0.00283072 0.000492098 -2.08719e-05
5.72266e-05 -2.08719e-05 -0.000186597
0.00139811 -0.000904816 -2.17025e-05
-0.000904816 0.00083975 2.5651e-05
-2.17025e-05 2.5651e-05 0.000479604
-0.00151406 -0.000174082 7.13743e-06
-0.000174082 -0.000427072 6.88282e-07
7.13743e-06 6.88282e-07 -0.00101964
0.000200289 0.000139282 6.52603e-06
0.000139282 0.000139667 2.1811e-06
6.52603e-06 2.1811e-06 -6.93123e-05
-0.000683816 -0.000269449 -8.91064e-06
-0.000269449 -0.000203683 3.36241e-05
-8.91064e-06 3.36241e-05 -0.000627721
0.00251303 0.000387221 -0.000165571
0.000387221 0.00263753 -5.69443e-05
-0.000165571 -5.69443e-05 -0.00277264
-0.00761157 0.000335099 -0.000835217
0.000335099 0.00773092 -9.40572e-07
-0.000835217 -9.40572e-07 0.00138032
-0.012001 -0.00441433 -0.00155084
-0.00441433 -0.00219371 2.23955e-05
-0.00155084 2.23955e-05 -0.00685493
0.000111391 0.000488211 1.73835e-05
0.000488211 0.000122476 -3.31719e-06
1.73835e-05 -3.31719e-06 -0.000296958
0.000695306 0.00103871 5.35709e-06
0.00103871 0.00029233 1.23273e-05
5.35709e-06 1.23273e-05 -0.000337694
0.00359797 0.00194374 6.76932e-05
0.00194374 0.00112188 6.46359e-05
6.76932e-05 6.46359e-05 0.000642413
-0.00163428 0.00166193 0.000202677
0.00166193 0.0107735 8.25991e-05
0.000202677 8.25991e-05 0.00395751
0.0038263 0.00819373 -0.000869451
0.00819373 -0.00334164 -0.000232412
-0.000869451 -0.000232412 -0.00437798
0.000400842 0.00403557 0.000556633
0.00403557 -0.000663254 0.000252615
0.000556633 0.000252615 -0.000284283
0.00014196 0.0017307 -6.96776e-06
0.0017307 0.000216385 -4.81782e-05
-6.96776e-06 -4.81782e-05 -0.000122331
0.0333496 -0.00587792 0.000167146
-0.00587792 0.0143425 -0.000637491
0.000167146 -0.000637491 0.00569325
0.00973638 0.00427825 0.00124096
0.00427825 0.004363 0.000383909
0.00124096 0.000383909 -0.00309714
0.0141613 -0.00101361 0.000123838
-0.00101361 0.00317721 8.60189e-05
0.000123838 8.60189e-05 0.0037253
0.00190101 0.00103488 1.08822e-05
0.00103488 0.00112551 -5.9067e-07
1.08822e-05 -5.9067e-07 0.000582666
0.00408679 0.00183425 -0.00011187
0.00183425 0.00503846 -1.86503e-05
-0.00011187 -1.86503e-05 -0.000973515
0.00318403 0.00130312 0.000163662
0.00130312 0.00148929 -2.17005e-05
0.000163662 -2.17005e-05 -0.00136127
3.37524e-05 0.00108291 -1.70831e-05
0.00108291 0.000326335 -8.37812e-06
-1.70831e-05 -8.37812e-06 -0.000318027
-0.00110582 0.00264506 -0.000162345
0.00264506 0.000378239 -0.000108538
-0.000162345 -0.000108538 -0.00110185
0.00284047 0.00883964 0.000504574
0.00883964 0.00188325 0.000170485
0.000504574 0.000170485 -0.00309723
0.0137821 -0.00067779 1.91888e-05
-0.00067779 -0.00237198 -0.000225646
1.91888e-05 -0.000225646 -0.00122631
0.0103491 -0.0034067 -0.000158981
-0.0034067 0.00622743 -0.000258025
-0.000158981 -0.000258025 -0.00186423
0.00139676 0.000887367 -4.75914e-06
0.000887367 0.00123921 -1.53076e-05
-4.75914e-06 -1.53076e-05 0.000571465
-0.00408283 0.00108609 8.25842e-05
0.00108609 0.00194936 8.62494e-05
8.25842e-05 8.62494e-05 -0.0011153
0.0085184 -0.00139365 0.000377936
-0.00139365 0.000643983 -8.40516e-05
0.000377936 -8.40516e-05 -0.00172753
0.0111155 -0.000854948 0.000399951
-0.000854948 0.000606554 -2.32967e-05
0.000399951 -2.32967e-05 -0.000643742
-0.00305778 0.000591448 7.35528e-05
0.000591448 0.000517968 -1.17914e-05
7.35528e-05 -1.17914e-05 -0.00076331
0.0075613 0.0046015 0.000474431
0.0046015 0.00603188 0.000247482
0.000474431 0.000247482 -0.00145679
0.00927504 -0.000542316 -2.22619e-05
-0.000542316 0.0034811 0.000432256
-2.22619e-05 0.000432256 -0.00132906
0.00265864 0.00056379 2.05436e-05
0.00056379 0.00180859 1.43342e-05
2.05436e-05 1.43342e-05 0.00141257
0.000332144 0.000386184 -9.51307e-06
0.000386184 0.000545812 -3.07543e-06
-9.51307e-06 -3.07543e-06 3.66213e-06
0.00058711 0.000425812 2.14049e-06
0.000425812 0.000844662 -1.28778e-05
2.14049e-06 -1.28778e-05 9.89804e-05
-0.000234263 5.9606e-05 4.94507e-06
5.9606e-05 -0.000280773 -4.31593e-06
4.94507e-06 -4.31593e-06 -0.000488557
0.000358249 9.44074e-05 3.53719e-07
9.44074e-05 0.000266754 -1.83552e-06
3.53719e-07 -1.83552e-06 -5.90684e-06
8.77553e-06 3.21128e-05 2.86179e-06
3.21128e-05 0.000543896 -8.64567e-07
2.86179e-06 -8.64567e-07 -5.78051e-05
1.44161e-05 -8.82746e-06 -1.09496e-06
-8.82746e-06 5.08961e-05 -4.19489e-07
-1.09496e-06 -4.19489e-07 -0.000219521
0.000696687 -0.000105017 -2.70238e-07
-0.000105017 0.000859965 -2.79498e-06
-2.70238e-07 -2.79498e-06 0.000333221
-0.000192404 3.74567e-05 2.80307e-06
3.74567e-05 0.000534292 1.05162e-06
2.80307e-06 1.05162e-06 -0.000103441
0.000441876 -0.000121671 -8.12051e-06
-0.000121671 0.000808469 1.49849e-05
-8.12051e-06 1.49849e-05 0.000295047
0.0010204 -8.85291e-05 1.70886e-06
-8.85291e-05 0.000936645 -1.50945e-05
1.70886e-06 -1.50945e-05 0.000550261
-0.000207387 -2.23869e-05 9.43304e-06
-2.23869e-05 -0.000105539 9.88377e-07
9.43304e-06 9.88377e-07 -0.000342796
0.00186807 -0.000113637 5.40041e-07
-0.000113637 0.00100005 5.32595e-06
5.40041e-07 5.32595e-06 0.000803306
-0.000592041 -7.61477e-05 -3.08745e-06
-7.61477e-05 -0.0003355 5.99669e-06
-3.08745e-06 5.99669e-06 -0.000545249
0.000405713 -6.63347e-05 1.28734e-06
-6.63347e-05 0.000420564 1.65416e-06
1.28734e-06 1.65416e-06 0.000147081
-0.000675511 -3.1984e-05 -5.30406e-06
-3.1984e-05 -0.000451619 -1.65543e-06
-5.30406e-06 -1.65543e-06 -0.000673649
0.00171416 -0.000499217 9.26286e-07
-0.000499217 0.000895031 6.91493e-06
9.26286e-07 6.91493e-06 0.000652153
0.000911498 -0.000324593 -1.95329e-05
-0.000324593 0.000366992 -1.10255e-06
-1.95329e-05 -1.10255e-06 0.000242521
-0.000265958 -0.000411442 1.02605e-05
-0.000411442 -0.000340921 1.91135e-05
1.02605e-05 1.91135e-05 -0.000740779
0.000747928 -0.00015397 5.02968e-07
-0.00015397 0.000260474 9.73957e-07
5.02968e-07 9.73957e-07 0.000110678
0.00129138 -0.000452776 -5.75516e-06
-0.000452776 0.000471229 8.0591e-06
-5.75516e-06 8.0591e-06 0.000197243
0.00251191 -0.000917816 -1.05732e-05
-0.000917816 0.00113362 1.22559e-05
-1.05732e-05 1.22559e-05 0.000567263
0.00201289 -0.000967162 -3.00503e-06
-0.000967162 0.000733088 -1.62205e-06
-3.00503e-06 -1.62205e-06 0.000119146
0.001197 -0.000479035 9.17275e-06
-0.000479035 0.000338189 -9.93042e-07
9.17275e-06 -9.93042e-07 3.73849e-06
0.00096671 -0.000669513 7.74022e-06
-0.000669513 0.000214955 -2.58076e-06
7.74022e-06 -2.58076e-06 -0.000242048
0.00172833 -0.000301741 3.80176e-06
-0.000301741 0.000946151 -4.05752e-06
3.80176e-06 -4.05752e-06 0.000580386
0.000946748 -0.000263136 -7.80564e-06
-0.000263136 0.000317239 1.66363e-06
-7.80564e-06 1.66363e-06 5.06123e-05
-0.000191628 -0.000284098 1.89916e-05
-0.000284098 -0.000421268 -1.16322e-05
1.89916e-05 -1.16322e-05 -0.000641764
0.00190671 -0.000223995 -6.39596e-06
-0.000223995 0.00108297 3.91559e-06
-6.39596e-06 3.91559e-06 0.000807071
-0.000279295 -0.000218456 9.65835e-07
-0.000218456 -0.000237471 6.15596e-07
9.65835e-07 6.15596e-07 -0.000592197
-0.000360389 -4.19033e-05 5.29798e-06
-4.19033e-05 -0.000399227 9.73431e-07
5.29798e-06 9.73431e-07 -0.000688976
0.00273849 -0.000581386 -5.84184e-06
-0.000581386 0.00161233 3.16304e-06
-5.84184e-06 3.16304e-06 0.00132478
0.000957269 -0.000247467 -4.90199e-07
-0.000247467 0.000421638 -4.23969e-07
-4.90199e-07 -4.23969e-07 0.000194327
0.000208091 -5.26214e-05 6.56747e-06
-5.26214e-05 -0.000103682 9.78618e-06
6.56747e-06 9.78618e-06 -0.000256998
0.000938797 -0.000257114 -3.71074e-06
-0.000257114 0.000453689 -1.13819e-06
-3.71074e-06 -1.13819e-06 0.000248174
0.000437451 -2.37359e-05 -2.85033e-06
-2.37359e-05 5.98856e-05 -6.08874e-07
-2.85033e-06 -6.08874e-07 -7.37039e-05
0.00150656 -2.94521e-05 -2.53021e-05
-2.94521e-05 0.000698549 7.48565e-06
-2.53021e-05 7.48565e-06 0.000663333
0.00062824 -0.00010065 -1.34707e-07
-0.00010065 0.000176341 -4.27526e-06
-1.34707e-07 -4.27526e-06 6.13586e-05
0.00084847 -2.7697e-05 -1.34748e-05
-2.7697e-05 0.000269413 7.22244e-07
-1.34748e-05 7.22244e-07 0.00023474
0.000836609 2.85052e-05 2.3145e-06
2.85052e-05 0.000241266 3.61401e-06
2.3145e-06 3.61401e-06 0.000236719
0.000402594 -4.93566e-05 3.9926e-06
-4.93566e-05 -1.61839e-05 -7.09423e-06
3.9926e-06 -7.09423e-06 -5.20931e-05
0.00182081 2.61976e-05 2.07092e-05
2.61976e-05 0.000892539 -1.38633e-06
2.07092e-05 -1.38633e-06 0.000897995
0.00262212 1.29119e-05 2.86394e-05
1.29119e-05 0.00141835 -5.92797e-06
2.86394e-05 -5.92797e-06 0.00143047
0.000116915 4.36079e-05 2.21351e-06
4.36079e-05 -0.000145909 2.38369e-06
2.21351e-06 2.38369e-06 -0.000317264
-5.13783e-05 2.74392e-05 5.30373e-07
2.74392e-05 -0.000292972 -7.81018e-06
5.30373e-07 -7.81018e-06 -0.000380273
0.000505685 9.29133e-05 -5.23375e-07
9.29133e-05 0.000106133 8.54e-07
-5.23375e-07 8.54e-07 -4.25221e-05
0.000405444 1.43798e-05 2.57855e-06
1.43798e-05 -3.25841e-05 -5.88119e-06
2.57855e-06 -5.88119e-06 -5.17332e-05
0.000280161 6.05523e-06 1.72146e-06
6.05523e-06 -8.00818e-05 6.35128e-08
1.72146e-06 6.35128e-08 -0.000152065
0.000165585 -0.00010691 -2.55556e-07
-0.00010691 -0.000110799 5.92723e-06
-2.55556e-07 5.92723e-06 -0.000244337
0.00213139 -1.40112e-07 -1.50091e-05
-1.40112e-07 0.00109548 -5.69509e-06
-1.50091e-05 -5.69509e-06 0.00111111
0.00039291 8.63577e-06 6.72025e-07
8.63577e-06 -4.16032e-05 -7.47154e-08
6.72025e-07 -7.47154e-08 -5.69964e-05
0.000386067 -1.48187e-05 -4.92539e-06
-1.48187e-05 -1.00408e-05 5.33032e-06
-4.92539e-06 5.33032e-06 -7.13843e-05
0.00210379 1.56562e-05 -5.30291e-06
1.56562e-05 0.0010785 -2.30315e-08
-5.30291e-06 -2.30315e-08 0.0010939
0.000396539 3.18935e-06 -3.17479e-06
3.18935e-06 -3.88745e-05 4.5896e-06
-3.17479e-06 4.5896e-06 -5.31519e-05
0.00208834 3.17409e-05 6.24466e-06
3.17409e-05 0.00106991 5.72067e-06
6.24466e-06 5.72067e-06 0.00108402
-0.00111806 -0.00204665 -0.000387542
-0.00204665 -0.000154403 0.000161892
-0.000387542 0.000161892 -0.00502209
0.00572964 0.002984 -0.000338839
0.002984 0.0127508 8.06592e-05
-0.000338839 8.06592e-05 0.00471156
0.00715876 0.00163738 -0.00185964
0.00163738 0.00617334 0.000362847
-0.00185964 0.000362847 0.00294545
0.0007156 0.000138079 1.21502e-05
0.000138079 0.000290514 7.58372e-06
1.21502e-05 7.58372e-06 7.48692e-05
0.00733398 -0.00171398 -0.000240053
-0.00171398 0.00503958 0.000367209
-0.000240053 0.000367209 0.00157525
0.00472606 -0.00181123 -0.000332262
-0.00181123 0.00263153 3.93788e-05
-0.000332262 3.93788e-05 -0.00290428
0.0235847 0.0104896 0.000156963
0.0104896 0.014524 -0.000632634
0.000156963 -0.000632634 0.00361809
0.00742032 -0.00220045 0.000186392
-0.00220045 -0.00132769 -2.4057e-05
0.000186392 -2.4057e-05 0.000527515
0.0143121 -0.00474542 0.000411878
-0.00474542 -0.00175713 -0.00030567
0.000411878 -0.00030567 -0.000216441
0.02039 0.00719087 -0.0011488
0.00719087 0.00750077 0.000308964
-0.0011488 0.000308964 -0.00156003
0.017864 0.0052865 0.000406825
0.0052865 0.0117552 0.000326181
0.000406825 0.000326181 0.00662796
0.00763244 -0.00413086 -9.49904e-05
-0.00413086 -0.00141695 -3.4854e-06
-9.49904e-05 -3.4854e-06 0.000656134
0.0116935 -0.00843959 1.07029e-05
-0.00843959 4.14717e-05 -6.49448e-05
1.07029e-05 -6.49448e-05 -0.00158595
0.0138956 0.00248457 0.000111709
0.00248457 0.00953831 -0.000520228
0.000111709 -0.000520228 0.000999293
0.0170753 0.00139384 -2.66926e-05
0.00139384 0.00311085 8.45149e-05
-2.66926e-05 8.45149e-05 0.000131574
0.00443738 -0.0049602 -1.64005e-06
-0.0049602 0.000626773 4.78436e-05
-1.64005e-06 4.78436e-05 0.00158931
0.0101529 -0.00804656 0.000383789
-0.00804656 0.00475113 -0.000226675
0.000383789 -0.000226675 0.00074133
0.00707176 0.000523858 -7.35019e-05
0.000523858 0.00659069 -0.00052258
-7.35019e-05 -0.00052258 0.000708347
0.0167738 -0.000696656 -0.000272854
-0.000696656 0.000459601 0.000338143
-0.000272854 0.000338143 0.00066064
0.000308674 0.000197423 1.36623e-05
0.000197423 0.000102583 1.81783e-05
1.36623e-05 1.81783e-05 -0.000110398
0.000320874 -7.68647e-05 3.80222e-07
-7.68647e-05 0.000119895 -1.19302e-06
3.80222e-07 -1.19302e-06 -0.000134525
-3.02667e-05 3.05259e-05 6.45948e-06
3.05259e-05 -0.000184451 2.30877e-06
6.45948e-06 2.30877e-06 -0.000329789
0.000548829 0.000217015 1.12463e-05
0.000217015 9.84866e-05 2.50095e-05
1.12463e-05 2.50095e-05 -7.07804e-05
0.000934321 0.000278283 -1.78745e-06
0.000278283 0.000438782 -2.5877e-06
-1.78745e-06 -2.5877e-06 0.000204419
0.000922121 0.000164759 2.74557e-07
0.000164759 0.000456985 -2.28095e-07
2.74557e-07 -2.28095e-07 0.000255615
0.00116113 0.000229495 -2.14615e-06
0.000229495 0.000586059 -4.76997e-08
-2.14615e-06 -4.76997e-08 0.000354935
0.00113761 0.000276233 2.13706e-06
0.000276233 0.000592803 2.57665e-06
2.13706e-06 2.57665e-06 0.000353121
0.00209193 -0.00149885 0.000169632
-0.00149885 -0.000773955 -0.000104733
0.000169632 -0.000104733 -0.000216321
-0.000390001 -0.00102924 -1.51784e-05
-0.00102924 -0.00103153 -1.68858e-05
-1.51784e-05 -1.68858e-05 -0.00119146
-0.000349558 -4.72811e-05 9.56398e-07
-4.72811e-05 -0.000292676 -2.13129e-05
9.56398e-07 -2.13129e-05 -0.000552765
0.00114393 -0.00080998 2.67837e-05
-0.00080998 0.000673211 -2.27139e-05
2.67837e-05 -2.27139e-05 0.000316836
0.00354854 -0.000724062 -3.74361e-05
-0.000724062 0.00224197 8.82506e-06
-3.74361e-05 8.82506e-06 0.00184271
0.00163602 -0.000191244 1.74688e-05
-0.000191244 0.00112681 -2.95624e-05
1.74688e-05 -2.95624e-05 0.00071982
-0.000224985 0.000128293 1.99495e-06
0.000128293 -0.000131945 1.33316e-05
1.99495e-06 1.33316e-05 -0.00037551
0.00141469 -0.00246227 -1.73466e-05
-0.00246227 -0.000157818 -4.14309e-06
-1.73466e-05 -4.14309e-06 -0.00067538
0.00151298 -0.000193784 -4.41598e-06
-0.000193784 0.00115997 -1.95919e-06
-4.41598e-06 -1.95919e-06 0.000721651
-0.000647726 -0.000241056 -7.21343e-06
-0.000241056 -5.44441e-05 9.78519e-06
-7.21343e-06 9.78519e-06 -0.000581949
-0.000838863 -0.000705906 2.16713e-05
-0.000705906 -0.000543894 -2.35434e-06
2.16713e-05 -2.35434e-06 -0.000710324
-0.000212949 3.95452e-05 1.21187e-05
3.95452e-05 -7.13801e-05 -5.53226e-06
1.21187e-05 -5.53226e-06 -0.000306218
0.00181602 -0.00254258 -0.000103147
-0.00254258 0.00145672 -2.17443e-05
-0.000103147 -2.17443e-05 0.000360122
-0.000208124 -0.000711938 -2.40546e-05
-0.000711938 0.000233737 8.30114e-06
-2.40546e-05 8.30114e-06 -0.000307141
0.000244729 0.000156214 2.15186e-06
0.000156214 0.000593641 -8.90689e-06
2.15186e-06 -8.90689e-06 -3.493e-06
0.000991478 0.000152137 2.88045e-06
0.000152137 0.00111669 1.61628e-05
2.88045e-06 1.61628e-05 0.000461932
0.000104776 -2.37174e-05 0.000325691
-2.37174e-05 0.00484017 8.30538e-05
0.000325691 8.30538e-05 0.0015429
-0.000206328 8.89626e-05 0.000226856
8.89626e-05 0.00139316 -2.86963e-05
0.000226856 -2.86963e-05 -0.00432984
-0.0144737 -0.000651692 -0.000779594
-0.000651692 0.0065217 2.46271e-05
-0.000779594 2.46271e-05 0.000932448
0.00181693 0.000972243 2.10263e-05
0.000972243 0.00113262 5.10751e-06
2.10263e-05 5.10751e-06 0.000627726
-0.00040794 0.00135288 2.50353e-05
0.00135288 0.000101764 1.63253e-05
2.50353e-05 1.63253e-05 -0.000716954
0.00593787 0.00241205 0.0007271
0.00241205 0.00523264 0.00018682
0.0007271 0.00018682 0.000231849
0.00524496 0.0059697 0.000241427
0.0059697 0.00349747 0.000237875
0.000241427 0.000237875 -0.000509113
0.00170245 0.00409772 -0.000207119
0.00409772 0.00159387 -0.000199078
-0.000207119 -0.000199078 -0.000400102
0.00591428 -0.00207111 -0.00013658
-0.00207111 0.00628864 -0.000541146
-0.00013658 -0.000541146 0.000185328
0.00405776 0.000626959 0.000115774
0.000626959 0.00194877 0.000141808
0.000115774 0.000141808 -0.000836013
0.0106902 -0.000171829 -4.17368e-05
-0.000171829 -0.00434256 -0.00028187
-4.17368e-05 -0.00028187 -0.00326079
0.000691162 0.000940105 5.21032e-06
0.000940105 0.000759662 -1.01086e-06
5.21032e-06 -1.01086e-06 4.01363e-05
-0.00284607 0.000644809 7.23549e-06
0.000644809 0.00228546 8.18427e-06
7.23549e-06 8.18427e-06 -0.000994957
0.00711828 -0.00058728 0.000251552
-0.00058728 0.000533832 9.86108e-06
0.000251552 9.86108e-06 -0.00182784
-0.00198556 0.0010991 -2.96891e-05
0.0010991 0.000199592 -1.61125e-05
-2.96891e-05 -1.61125e-05 -0.00103817
0.0177572 0.00175651 3.16337e-05
0.00175651 0.00303554 -9.15795e-05
3.16337e-05 -9.15795e-05 4.20553e-05
0.00433641 0.00319883 0.000390071
0.00319883 0.00607337 0.000250026
0.000390071 0.000250026 -0.00102339
0.014935 0.000655382 -0.000219492
0.000655382 0.00562654 -1.38566e-05
-0.000219492 -1.38566e-05 0.000236012
0.000775047 0.000947963 -3.91e-06
0.000947963 0.000994574 -2.2985e-05
-3.91e-06 -2.2985e-05 7.9045e-05
0.00391661 -2.49977e-05 5.82233e-05
-2.49977e-05 0.00256432 4.67092e-05
5.82233e-05 4.67092e-05 5.27668e-05
0.0039333 -0.00323365 0.000333011
-0.00323365 0.00447012 -0.000284205
0.000333011 -0.000284205 0.00151685
0.0342769 0.00772498 0.000539269
0.00772498 0.0143783 -0.000408254
0.000539269 -0.000408254 0.00673624
0.00997872 -0.000309262 -8.07558e-05
-0.000309262 0.00800777 0.000639394
-8.07558e-05 0.000639394 0.00209646
-0.00181419 0.00102906 -0.000191373
0.00102906 0.00107485 -0.00013151
-0.000191373 -0.00013151 -0.000268001
0.0012294 0.000440538 0.000189841
0.000440538 0.00585229 3.42298e-06
0.000189841 3.42298e-06 -0.00437619
0.00100127 0.000535634 5.28243e-06
0.000535634 0.000912286 1.36578e-05
5.28243e-06 1.36578e-05 0.000325036
0.000396485 0.000358507 7.8186e-06
0.000358507 0.000816357 7.06616e-06
7.8186e-06 7.06616e-06 0.000112165
0.00050666 -0.000128818 -9.4499e-06
-0.000128818 0.00127312 2.13513e-05
-9.4499e-06 2.13513e-05 0.000592889
-0.000936654 -3.18355e-05 8.48935e-06
-3.18355e-05 -0.00054646 -7.26445e-06
8.48935e-06 -7.26445e-06 -0.000822092
-0.00072125 1.08259e-05 6.11817e-06
1.08259e-05 3.35049e-05 5.43275e-06
6.11817e-06 5.43275e-06 -0.000532008
-0.00013229 2.33921e-05 -4.59966e-06
2.33921e-05 0.00062071 -6.45565e-06
-4.59966e-06 -6.45565e-06 -5.44339e-05
-0.000215338 -8.50041e-07 -3.54507e-07
-8.50041e-07 0.00013242 3.55025e-07
-3.54507e-07 3.55025e-07 -0.000218893
5.9888e-06 -9.21762e-05 2.64914e-06
-9.21762e-05 0.00056469 2.90235e-06
2.64914e-06 2.90235e-06 2.85139e-05
0.00301398 -0.000651398 1.32243e-05
-0.000651398 0.00196906 -1.40459e-05
1.32243e-05 -1.40459e-05 0.00158635
0.000278254 -6.88759e-05 -4.39736e-06
-6.88759e-05 0.000326632 7.3089e-06
-4.39736e-06 7.3089e-06 6.40089e-05
-0.00178664 2.02654e-05 5.9614e-06
2.02654e-05 -0.00109768 1.11479e-06
5.9614e-06 1.11479e-06 -0.00132868
0.00121525 -0.000467818 -3.68369e-06
-0.000467818 0.000635509 3.97215e-06
-3.68369e-06 3.97215e-06 0.000345512
-0.00353078 -3.80177e-05 2.43463e-05
-3.80177e-05 -0.00203643 1.97022e-05
2.43463e-05 1.97022e-05 -0.00245843
-0.00112722 -0.000130295 3.93392e-05
-0.000130295 -0.000799909 -1.255e-05
3.93392e-05 -1.255e-05 -0.000865718
7.525e-05 -0.000476149 -1.6308e-05
-0.000476149 -0.00018225 -2.92713e-06
-1.6308e-05 -2.92713e-06 -0.000554273
0.00164261 -0.000887567 -3.70052e-06
-0.000887567 0.0006102 -3.50138e-07
-3.70052e-06 -3.50138e-07 -9.34227e-05
0.00225887 -0.00112299 -1.44136e-05
-0.00112299 0.000817497 2.88854e-06
-1.44136e-05 2.88854e-06 0.000112231
0.00156844 -0.000474477 3.87405e-06
-0.000474477 0.000627232 -7.32904e-06
3.87405e-06 -7.32904e-06 0.000348042
0.00169882 -0.00081026 2.20891e-07
-0.00081026 0.000631245 1.26449e-06
2.20891e-07 1.26449e-06 8.58409e-05
0.00167034 -0.000971821 6.71812e-06
-0.000971821 0.000461812 -8.21002e-06
6.71812e-06 -8.21002e-06 -0.000160489
0.00175315 -0.000736872 5.16499e-06
-0.000736872 0.000679024 1.52244e-06
5.16499e-06 1.52244e-06 0.000171176
0.00159336 -0.000903897 3.45094e-06
-0.000903897 0.000489632 -5.32832e-06
3.45094e-06 -5.32832e-06 -0.000105245
0.00106914 -0.000279002 -1.29837e-06
-0.000279002 0.000309347 -3.70558e-06
-1.29837e-06 -3.70558e-06 1.54587e-05
0.000909062 -0.000452968 5.63318e-07
-0.000452968 0.000151584 5.86386e-08
5.63318e-07 5.86386e-08 -0.00019139
0.000337595 -0.00055835 1.83244e-06
-0.00055835 -0.000149719 -7.63221e-06
1.83244e-06 -7.63221e-06 -0.000570842
-0.000318733 -0.000122362 2.90036e-06
-0.000122362 -0.000325684 -3.28053e-06
2.90036e-06 -3.28053e-06 -0.000680813
0.000357829 -0.000246508 -9.18866e-07
-0.000246508 0.000129001 -8.78139e-07
-9.18866e-07 -8.78139e-07 -0.000251614
-0.000961294 -0.000157074 3.20964e-06
-0.000157074 -0.000805774 6.56142e-07
3.20964e-06 6.56142e-07 -0.00109646
0.00134883 -0.000300608 -3.72648e-06
-0.000300608 0.000749811 6.35351e-06
-3.72648e-06 6.35351e-06 0.000415122
0.000818593 -0.00022072 1.31413e-06
-0.00022072 0.000350715 8.08386e-07
1.31413e-06 8.08386e-07 5.33056e-05
-0.000133807 -6.11268e-05 3.38724e-06
-6.11268e-05 -0.000329526 1.08108e-05
3.38724e-06 1.08108e-05 -0.000522601
0.00131027 -0.000398685 -6.84175e-06
-0.000398685 0.000676617 -2.51823e-07
-6.84175e-06 -2.51823e-07 0.000418173
0.000580889 -7.44262e-05 -1.39838e-06
-7.44262e-05 0.000121528 -1.50633e-07
-1.39838e-06 -1.50633e-07 -2.86093e-05
0.000336122 3.96578e-05 3.23356e-06
3.96578e-05 -5.90222e-05 1.16045e-05
3.23356e-06 1.16045e-05 -0.000115254
0.00120002 -0.000140114 -2.99657e-06
-0.000140114 0.00054581 -5.73806e-06
-2.99657e-06 -5.73806e-06 0.000408532
0.000437442 -3.67391e-05 -2.06374e-06
-3.67391e-05 -4.92195e-06 9.49096e-08
-2.06374e-06 9.49096e-08 -4.80101e-05
0.00283711 9.71344e-05 2.24118e-06
9.71344e-05 0.00156124 3.52487e-06
2.24118e-06 3.52487e-06 0.00156104
0.000480731 -5.1459e-05 3.73271e-06
-5.1459e-05 2.84173e-05 -7.76817e-06
3.73271e-06 -7.76817e-06 -1.16943e-05
0.00182619 3.87365e-05 2.48297e-05
3.87365e-05 0.00089558 -1.2571e-06
2.48297e-05 -1.2571e-06 0.000898588
0.00278293 2.87016e-05 3.62756e-05
2.87016e-05 0.00152163 -6.4469e-06
3.62756e-05 -6.4469e-06 0.00153269
0.000207073 6.65384e-05 4.44551e-06
6.65384e-05 -9.97533e-05 1.37512e-06
4.44551e-06 1.37512e-06 -0.000267983
9.54242e-05 1.97208e-05 2.75081e-06
1.97208e-05 -0.000193891 -5.74938e-06
2.75081e-06 -5.74938e-06 -0.000302831
0.000432992 5.82128e-05 8.83334e-08
5.82128e-05 6.60313e-05 -9.26227e-07
8.83334e-08 -9.26227e-07 -0.000104782
0.000444246 1.29411e-05 3.29739e-06
1.29411e-05 -7.04523e-06 -6.55741e-06
3.29739e-06 -6.55741e-06 -3.16145e-05
5.13017e-05 3.02741e-05 -1.06235e-06
3.02741e-05 -0.000224888 -2.37822e-06
-1.06235e-06 -2.37822e-06 -0.00031639
0.000631306 8.71013e-05 8.78157e-07
8.71013e-05 0.000212415 4.96897e-06
8.78157e-07 4.96897e-06 4.67114e-05
0.00225737 -1.49e-05 -2.09873e-05
-1.49e-05 0.00117821 -5.7519e-06
-2.09873e-05 -5.7519e-06 0.00119277
0.000408169 8.79709e-06 -1.24653e-06
8.79709e-06 -3.26887e-05 -1.68019e-07
-1.24653e-06 -1.68019e-07 -5.09969e-05
-5.62485e-05 1.41002e-05 8.60848e-07
1.41002e-05 -0.000298988 5.88406e-06
8.60848e-07 5.88406e-06 -0.000373817
0.00213081 4.40542e-07 -4.17474e-06
4.40542e-07 0.00109524 9.5782e-08
-4.17474e-06 9.5782e-08 0.00111087
0.000391023 9.36648e-06 -2.9178e-06
9.36648e-06 -4.28791e-05 4.99655e-06
-2.9178e-06 4.99655e-06 -5.79328e-05
0.00209402 1.65741e-05 1.12066e-05
1.65741e-05 0.00107246 5.678e-06
1.12066e-05 5.678e-06 0.00108769
0.00104305 -0.000183429 0.000309505
-0.000183429 0.00532341 0.000183743
0.000309505 0.000183743 0.0028611
-0.000938167 -0.000736246 -7.61571e-05
-0.000736246 0.000500387 7.82122e-06
-7.61571e-05 7.82122e-06 -0.00505453
0.00202449 0.00296224 -0.000493307
0.00296224 0.0118938 -0.000137719
-0.000493307 -0.000137719 0.0034853
0.000696584 0.000166607 -2.46064e-07
0.000166607 0.000244504 7.43513e-07
-2.46064e-07 7.43513e-07 4.81418e-05
-0.000450991 0.000121708 9.2862e-06
0.000121708 -0.000446124 4.55559e-06
9.2862e-06 4.55559e-06 -0.000682909
0.00196853 0.000316752 2.2531e-05
0.000316752 0.00107287 1.96175e-05
2.2531e-05 1.96175e-05 0.000868455
0.00952094 -0.00123116 -0.000378627
-0.00123116 0.000575493 0.000125036
-0.000378627 0.000125036 -0.00237446
0.00804543 -0.00295819 0.000193459
-0.00295819 0.00456143 4.59538e-05
0.000193459 4.59538e-05 0.00207795
0.00480273 -0.00429402 0.000363593
-0.00429402 0.0020972 -0.00036247
0.000363593 -0.00036247 -0.00310294
0.00897017 -0.00481997 -3.40976e-06
-0.00481997 -0.00155532 -7.10564e-05
-3.40976e-06 -7.10564e-05 0.000734056
0.00419484 -0.00804238 -0.00105077
-0.00804238 -0.00312896 4.88083e-05
-0.00105077 4.88083e-05 -0.00324522
0.0312793 0.00741398 0.000800946
0.00741398 0.0168656 0.000338975
0.000800946 0.000338975 0.00611905
0.00922199 -0.00142484 0.000492102
-0.00142484 -0.00105536 -0.000342217
0.000492102 -0.000342217 -0.00349802
0.00281085 -0.00478395 6.40539e-06
-0.00478395 -0.000846156 1.34952e-05
6.40539e-06 1.34952e-05 0.000717854
0.00489024 -0.00821469 -0.000309323
-0.00821469 0.00265444 6.5178e-06
-0.000309323 6.5178e-06 -0.00272735
0.00839483 0.00474593 -0.00015234
0.00474593 0.00791219 -0.000423161
-0.00015234 -0.000423161 0.000599473
0.0138751 -0.000454097 -0.000172228
-0.000454097 -0.00176811 0.00018668
-0.000172228 0.00018668 -0.00112002
-0.000287712 -0.00381982 -0.000184735
-0.00381982 0.00112424 0.000100746
-0.000184735 0.000100746 0.00013919
0.00825249 -0.00431537 -0.000463065
-0.00431537 0.00616986 0.0002961
-0.000463065 0.0002961 -0.00016973
0.0086711 -0.000210586 5.09322e-05
-0.000210586 0.00406538 -0.000408439
5.09322e-05 -0.000408439 -0.001056
0.0101271 0.000877872 2.80606e-05
0.000877872 -0.00100473 0.00020557
2.80606e-05 0.00020557 -0.00243674
-0.000405859 9.26778e-05 8.62481e-06
9.26778e-05 -0.000362674 2.59516e-05
8.62481e-06 2.59516e-05 -0.000514807
0.000679714 1.20734e-05 -1.30347e-06
1.20734e-05 0.000339885 4.98419e-07
-1.30347e-06 4.98419e-07 0.0001195
0.00088845 -0.000277012 1.30831e-05
-0.000277012 0.000466654 -1.09257e-05
1.30831e-05 -1.09257e-05 0.000219641
0.000519692 0.000196358 -7.80046e-07
0.000196358 8.97847e-05 2.80553e-06
-7.80046e-07 2.80553e-06 -8.29025e-05
0.000773929 0.000250553 -9.92653e-07
0.000250553 0.000345503 -1.03482e-05
-9.92653e-07 -1.03482e-05 0.000115854
0.00121573 0.000255562 -8.24442e-06
0.000255562 0.000618577 -6.74583e-06
-8.24442e-06 -6.74583e-06 0.000388004
0.000876553 -0.00209028 8.19625e-05
-0.00209028 -0.000181853 -3.31025e-05
8.19625e-05 -3.31025e-05 -0.000560372
-0.000633569 -0.000642728 1.26438e-05
-0.000642728 -0.000520921 -2.81916e-05
1.26438e-05 -2.81916e-05 -0.000609778
0.000142958 0.000260055 -7.98994e-06
0.000260055 9.37236e-05 -2.7884e-05
-7.98994e-06 -2.7884e-05 -0.000191956
0.00209151 -0.000556672 5.99719e-05
-0.000556672 0.00139318 -3.28353e-05
5.99719e-05 -3.28353e-05 0.000934076
0.00319258 -0.000159454 9.32076e-06
-0.000159454 0.00212525 -2.90739e-05
9.32076e-06 -2.90739e-05 0.00172255
-0.000510407 7.85353e-05 1.02772e-05
7.85353e-05 -0.000228337 2.69994e-06
1.02772e-05 2.69994e-06 -0.000482745
-0.000332417 2.11787e-05 3.39535e-06
2.11787e-05 0.000250568 1.15767e-05
3.39535e-06 1.15767e-05 -0.000326817
0.00167523 -0.00234183 -6.48572e-05
-0.00234183 0.00139533 -3.66074e-07
-6.48572e-05 -3.66074e-07 0.000269721
0.000416206 -8.11669e-05 -6.03541e-06
-8.11669e-05 0.000802378 -1.42078e-06
-6.03541e-06 -1.42078e-06 0.000126893
-5.1631e-06 -0.000530351 -4.00573e-06
-0.000530351 0.000642447 2.85242e-06
-4.00573e-06 2.85242e-06 -8.7548e-05
0.000625164 0.000260694 2.29392e-05
0.000260694 0.000741086 -4.17824e-05
2.29392e-05 -4.17824e-05 0.000276853
-0.0039903 -0.000265101 -0.00016734
-0.000265101 -0.000437206 1.28175e-05
-0.00016734 1.28175e-05 -0.00161353
-0.000282987 -0.000246367 -2.50084e-05
-0.000246367 0.0010637 -1.92396e-05
-2.50084e-05 -1.92396e-05 0.000219118
-0.00390581 -0.000132054 -2.88735e-05
-0.000132054 -0.00131951 -1.31567e-05
-2.88735e-05 -1.31567e-05 -0.00209801
0.00138392 0.000709147 -2.48416e-07
0.000709147 1.32848e-06 -6.08946e-06
-2.48416e-07 -6.08946e-06 -0.00455588
-0.00161056 0.00102142 0.000204395
0.00102142 0.0045006 1.22399e-05
0.000204395 1.22399e-05 0.00127974
-0.00205718 0.000134205 0.000498218
0.000134205 0.000501546 4.99783e-05
0.000498218 4.99783e-05 -0.00504857
-0.00029009 0.000944483 1.00711e-05
0.000944483 0.000126237 2.51215e-05
1.00711e-05 2.51215e-05 -0.000639951
0.000865339 0.00165816 -1.15818e-05
0.00165816 0.00118861 -3.72954e-05
-1.15818e-05 -3.72954e-05 -2.60128e-05
-0.00219821 0.00066982 -0.000244816
0.00066982 0.00270466 -7.29106e-05
-0.000244816 -7.29106e-05 -0.000710482
-0.00398793 0.00126969 0.00024236
0.00126969 0.0044524 0.000265703
0.00024236 0.000265703 -0.00212133
0.00549093 0.000626606 -0.000222109
0.000626606 -0.000984806 -0.00052864
-0.000222109 -0.00052864 -0.00723632
0.00681287 0.00015651 0.000122418
0.00015651 0.000112314 1.60795e-05
0.000122418 1.60795e-05 -0.00158401
0.00831253 -0.00121478 -0.000484222
-0.00121478 -0.00136965 0.00031649
-0.000484222 0.00031649 -0.00366166
0.000711018 0.000800034 -1.08594e-05
0.000800034 0.00101568 -1.14745e-06
-1.08594e-05 -1.14745e-06 0.00021302
0.00215035 0.000525835 7.72063e-05
0.000525835 0.00251967 4.64408e-05
7.72063e-05 4.64408e-05 6.85893e-05
0.00707793 -0.00209173 -0.000183046
-0.00209173 0.00423812 -3.1961e-05
-0.000183046 -3.1961e-05 0.00194118
-5.49182e-05 0.00113647 -0.000165575
0.00113647 0.00282735 -2.56824e-05
-0.000165575 -2.56824e-05 0.000380786
0.0241599 0.0073805 -0.000371871
0.0073805 0.0110596 -0.000552191
-0.000371871 -0.000552191 0.0038134
0.0117536 0.00387146 0.000109384
0.00387146 0.00890159 0.00046659
0.000109384 0.00046659 0.000680303
0.00729995 0.00222343 9.9017e-05
0.00222343 0.00791365 4.81242e-07
9.9017e-05 4.81242e-07 0.000119086
-0.000159301 6.78662e-05 2.79945e-05
6.78662e-05 0.00165089 -1.29803e-05
2.79945e-05 -1.29803e-05 -3.36269e-05
0.00118338 0.000116427 -0.000309882
0.000116427 0.00646844 -7.34565e-06
-0.000309882 -7.34565e-06 0.00370741
0.000591899 -0.00101977 0.000858705
-0.00101977 0.000656316 -0.000284213
0.000858705 -0.000284213 -0.00546837
0.0367622 0.0147469 -9.39204e-05
0.0147469 0.0252958 -0.000150998
-9.39204e-05 -0.000150998 0.0135434
0.0167394 0.00587982 0.000596037
0.00587982 0.00815411 0.00125644
0.000596037 0.00125644 -0.00147735
0.011549 -0.00598223 0.000635206
-0.00598223 0.00779982 -0.000393407
0.000635206 -0.000393407 -0.000547822
0.000434973 -0.000803436 -9.61848e-05
-0.000803436 0.00356055 5.54688e-05
-9.61848e-05 5.54688e-05 0.00190247
0.000700729 0.000336944 -7.93967e-06
0.000336944 0.00100621 2.06882e-06
-7.93967e-06 2.06882e-06 0.000372416
-0.000210399 -0.000106808 -1.80908e-06
-0.000106808 0.000678973 -7.17831e-06
-1.80908e-06 -7.17831e-06 -8.39151e-05
0.000782394 -0.000748411 6.44938e-05
-0.000748411 0.000936626 -2.30269e-05
6.44938e-05 -2.30269e-05 8.74582e-05
0.000213914 -7.12051e-05 -1.99809e-06
-7.12051e-05 0.000334531 1.29673e-05
-1.99809e-06 1.29673e-05 4.4162e-05
-0.000187404 -8.74989e-05 8.32552e-06
-8.74989e-05 0.000415873 -1.93433e-05
8.32552e-06 -1.93433e-05 -0.000107372
0.00109128 -0.000434471 -5.54366e-06
-0.000434471 0.00096549 -3.73821e-07
-5.54366e-06 -3.73821e-07 0.000581651
0.00164532 -0.000968738 3.06798e-05
-0.000968738 0.000968524 -1.67844e-05
3.06798e-05 -1.67844e-05 0.00036457
0.000219323 -0.00040017 6.99369e-06
-0.00040017 9.75844e-05 -9.03176e-07
6.99369e-06 -9.03176e-07 -0.000269658
0.00136535 -0.000791927 1.99678e-05
-0.000791927 0.000623175 -6.92691e-06
1.99678e-05 -6.92691e-06 7.96467e-05
0.000819977 -0.000841719 6.36293e-06
-0.000841719 0.000340554 -5.25302e-06
6.36293e-06 -5.25302e-06 -0.000573675
0.000680189 -0.000521027 -5.76659e-06
-0.000521027 0.000144701 -1.34343e-06
-5.76659e-06 -1.34343e-06 -0.000178723
0.00252818 -0.00102259 -2.23471e-06
-0.00102259 0.00108502 -4.31728e-07
-2.23471e-06 -4.31728e-07 0.000370219
0.00166846 -0.00114221 -2.0461e-05
-0.00114221 0.000413802 -1.14378e-06
-2.0461e-05 -1.14378e-06 -0.000407106
0.00273545 -0.00137424 -1.61016e-05
-0.00137424 0.000813255 -7.38235e-07
-1.61016e-05 -7.38235e-07 6.51179e-05
0.00233992 -0.00124403 -6.15453e-06
-0.00124403 0.000789523 -1.40636e-06
-6.15453e-06 -1.40636e-06 6.12975e-05
0.00223278 -0.00111671 -5.25989e-06
-0.00111671 0.000792357 3.97654e-07
-5.25989e-06 3.97654e-07 8.95703e-05
0.00148548 -0.000793105 2.22586e-06
-0.000793105 0.000477088 -6.5679e-06
2.22586e-06 -6.5679e-06 -6.91308e-05
0.00200203 -0.00097327 1.15559e-05
-0.00097327 0.000766856 -1.05624e-05
1.15559e-05 -1.05624e-05 0.000139396
0.00181345 -0.00100539 1.01648e-05
-0.00100539 0.000543914 -3.05368e-06
1.01648e-05 -3.05368e-06 -8.88637e-05
0.000973937 -0.000407612 -1.86087e-06
-0.000407612 0.000186793 -3.43925e-06
-1.86087e-06 -3.43925e-06 -0.000172205
0.00199503 -0.00075865 4.30046e-06
-0.00075865 0.000816194 -4.11987e-06
4.30046e-06 -4.11987e-06 0.000307483
0.00051438 -0.000751525 -7.98869e-06
-0.000751525 -0.000174209 -9.2654e-07
-7.98869e-06 -9.2654e-07 -0.00072647
-0.000177252 1.31776e-07 -1.30994e-06
1.31776e-07 -0.000340027 -4.02468e-06
-1.30994e-06 -4.02468e-06 -0.000662961
0.000711215 -0.000263951 8.24791e-07
-0.000263951 8.65904e-05 3.44889e-07
8.24791e-07 3.44889e-07 -0.0002131
0.000648189 -0.000438833 -9.55427e-06
-0.000438833 -2.35489e-05 1.02927e-06
-9.55427e-06 1.02927e-06 -0.000377356
-0.000172823 -0.000159287 3.44956e-07
-0.000159287 -0.000326619 1.01339e-05
3.44956e-07 1.01339e-05 -0.000594647
0.000864611 -0.000257862 -9.50836e-08
-0.000257862 0.000411755 3.94738e-07
-9.50836e-08 3.94738e-07 6.1252e-05
-0.00167548 -0.000299384 -1.81026e-06
-0.000299384 -0.0011475 3.57886e-06
-1.81026e-06 3.57886e-06 -0.00152148
0.00183223 -0.0003528 -2.80799e-06
-0.0003528 0.000997034 3.57006e-07
-2.80799e-06 3.57006e-07 0.000695724
0.000807062 -0.000143237 -1.60952e-07
-0.000143237 0.000265287 3.02326e-07
-1.60952e-07 3.02326e-07 7.25875e-05
0.000279141 -5.82262e-06 1.47184e-06
-5.82262e-06 -9.35987e-05 1.5595e-05
1.47184e-06 1.5595e-05 -0.000164806
0.00128618 -0.000139561 -8.74751e-07
-0.000139561 0.000571852 -9.82864e-06
-8.74751e-07 -9.82864e-06 0.000416749
0.00039345 -1.34052e-05 -5.88543e-06
-1.34052e-05 -2.60134e-05 -6.90511e-07
-5.88543e-06 -6.90511e-07 -8.22387e-05
0.00333982 0.000103706 -5.06499e-05
0.000103706 0.00189828 6.71778e-06
-5.06499e-05 6.71778e-06 0.00189766
0.000508242 -4.56205e-05 3.1154e-06
-4.56205e-05 3.58662e-05 -9.93823e-06
3.1154e-06 -9.93823e-06 -7.33019e-06
0.00199343 6.17034e-05 3.02241e-05
6.17034e-05 0.00100635 -5.87225e-07
3.02241e-05 -5.87225e-07 0.00100496
0.00287201 4.7911e-05 4.35083e-05
4.7911e-05 0.00157922 -6.24976e-06
4.35083e-05 -6.24976e-06 0.00158875
0.001103 0.000170582 3.19831e-06
0.000170582 0.000500654 -1.11752e-05
3.19831e-06 -1.11752e-05 0.00029882
0.000489117 8.28049e-05 4.25161e-06
8.28049e-05 6.69852e-05 -5.11912e-06
4.25161e-06 -5.11912e-06 -5.73739e-05
0.000438525 7.91716e-05 -4.7428e-07
7.91716e-05 7.81321e-05 -4.77858e-07
-4.7428e-07 -4.77858e-07 -0.000110642
0.000426537 3.04394e-05 2.47963e-07
3.04394e-05 -1.23575e-05 -8.44861e-06
2.47963e-07 -8.44861e-06 -4.67244e-05
0.000223057 5.28699e-05 -2.58477e-06
5.28699e-05 -0.00010747 -2.75893e-06
-2.58477e-06 -2.75893e-06 -0.000216681
0.000576685 0.00010081 -2.69335e-06
0.00010081 0.000167615 -2.51652e-06
-2.69335e-06 -2.51652e-06 -3.27869e-06
0.00237897 -3.18289e-05 -2.44307e-05
-3.18289e-05 0.00125916 -6.08039e-06
-2.44307e-05 -6.08039e-06 0.00127159
0.000386045 2.31475e-06 1.14009e-06
2.31475e-06 -4.48343e-05 -3.5528e-07
1.14009e-06 -3.5528e-07 -6.89293e-05
8.58112e-05 2.33968e-05 -2.15205e-06
2.33968e-05 -0.000200955 2.69167e-06
-2.15205e-06 2.69167e-06 -0.00029664
0.00220107 -1.46223e-05 -6.22421e-06
-1.46223e-05 0.00114112 1.28968e-07
-6.22421e-06 1.28968e-07 0.00115603
0.000409425 2.44836e-06 -5.08626e-06
2.44836e-06 -3.28361e-05 5.55512e-06
-5.08626e-06 5.55512e-06 -5.05157e-05
0.00216563 1.84246e-06 1.60892e-05
1.84246e-06 0.00111844 5.67171e-06
1.60892e-05 5.67171e-06 0.00113388
0.00298992 -0.000278679 -0.000206474
-0.000278679 0.00214296 7.96402e-06
-0.000206474 7.96402e-06 -0.000428373
-0.00194468 5.46061e-05 0.000184667
5.46061e-05 0.00484029 -4.48933e-06
0.000184667 -4.48933e-06 0.00159364
-0.000405171 -0.000449053 0.000133309
-0.000449053 0.00154138 -0.000295087
0.000133309 -0.000295087 -0.00483503
-0.000581205 -4.39249e-05 4.59713e-06
-4.39249e-05 -0.000421625 -6.93316e-06
4.59713e-06 -6.93316e-06 -0.000800284
0.00474716 0.000511229 1.6497e-05
0.000511229 0.00284181 1.46708e-05
1.6497e-05 1.46708e-05 0.00255848
0.000285905 0.000156021 -6.96431e-06
0.000156021 -1.47639e-05 -7.89837e-06
-6.96431e-06 -7.89837e-06 -0.000208159
-0.000274808 7.54715e-05 8.19312e-07
7.54715e-05 -0.000353364 -3.85829e-06
8.19312e-07 -3.85829e-06 -0.000590831
0.000106971 0.000104296 4.08238e-08
0.000104296 -0.000177155 -3.01875e-06
4.08238e-08 -3.01875e-06 -0.000320631
0.000822765 0.000159544 7.85594e-06
0.000159544 0.000335091 1.342e-05
7.85594e-06 1.342e-05 0.000123066
-5.56033e-05 0.000102492 1.78021e-05
0.000102492 -0.000201726 7.42489e-06
1.78021e-05 7.42489e-06 -0.000317768
0.00506362 0.00206559 0.000275925
0.00206559 0.000459139 0.000244291
0.000275925 0.000244291 -0.00230599
0.00799312 -0.000443134 -0.000141559
-0.000443134 0.000675257 3.9315e-05
-0.000141559 3.9315e-05 -0.00238373
0.00592627 -0.00103721 0.000514306
-0.00103721 0.00522369 -0.000133373
0.000514306 -0.000133373 0.00196437
0.0111052 0.000124568 -3.84042e-05
0.000124568 -0.00398056 0.000211824
-3.84042e-05 0.000211824 -0.00318165
0.00687457 -0.00606601 -0.000169345
-0.00606601 0.000685441 3.71567e-05
-0.000169345 3.71567e-05 0.00147608
-0.00014229 -0.00684537 -0.000485622
-0.00684537 0.00224518 0.00019148
-0.000485622 0.00019148 -0.00488594
0.0256398 0.0046425 0.000320694
0.0046425 0.0101612 -0.000304833
0.000320694 -0.000304833 0.00301959
0.00301363 -0.00516703 -0.000101549
-0.00516703 0.000979919 6.16285e-05
-0.000101549 6.16285e-05 0.000925769
0.000184001 -0.00191295 -0.000115651
-0.00191295 0.00614118 7.27576e-05
-0.000115651 7.27576e-05 -0.00275491
0.0153023 0.000213228 0.00038999
0.000213228 0.00587773 -4.22414e-05
0.00038999 -4.22414e-05 0.000157243
0.019835 -0.0019971 -7.67609e-05
-0.0019971 0.00331468 -8.49727e-08
-7.67609e-05 -8.49727e-08 0.00269847
-0.00586531 -0.000690721 -0.0002335
-0.000690721 -0.000605049 0.000243925
-0.0002335 0.000243925 -0.00146153
0.000959355 0.000786349 -0.000250201
0.000786349 0.00606932 -0.000214671
-0.000250201 -0.000214671 -0.00283399
0.0101901 -0.00641345 -5.65496e-05
-0.00641345 0.00348987 -0.000272424
-5.65496e-05 -0.000272424 -0.00487949
0.0212544 -0.002752 0.000542038
-0.002752 0.00986876 -0.000799389
0.000542038 -0.000799389 0.00487076
0.000309812 6.80775e-05 3.72009e-05
6.80775e-05 0.000506772 -1.03226e-05
3.72009e-05 -1.03226e-05 2.85926e-05
0.000614537 0.000206926 -1.40687e-06
0.000206926 0.000314012 -3.65088e-06
-1.40687e-06 -3.65088e-06 0.000138793
0.000484765 -2.17059e-05 8.52902e-07
-2.17059e-05 0.000233876 -1.07859e-05
8.52902e-07 -1.07859e-05 9.30713e-07
0.000976787 0.000188792 -6.4855e-06
0.000188792 0.000412643 -1.544e-05
-6.4855e-06 -1.544e-05 0.000221716
0.000849743 -0.00208796 7.63857e-05
-0.00208796 0.000882591 2.66372e-05
7.63857e-05 2.66372e-05 -0.000239936
0.000642559 -0.000537752 -6.14536e-06
-0.000537752 0.00119367 -9.47422e-06
-6.14536e-06 -9.47422e-06 0.000332172
0.000269116 8.98783e-05 -3.97388e-05
8.98783e-05 0.000233379 -7.39675e-06
-3.97388e-05 -7.39675e-06 -3.4012e-07
0.00130298 -0.000258136 1.48712e-05
-0.000258136 0.00103714 -4.77839e-05
1.48712e-05 -4.77839e-05 0.000623186
2.42656e-05 -7.36961e-05 -1.58791e-05
-7.36961e-05 0.000626793 1.0631e-05
-1.58791e-05 1.0631e-05 3.0817e-05
0.000137544 0.000145542 -2.06867e-07
0.000145542 0.000339682 1.05316e-05
-2.06867e-07 1.05316e-05 -5.8616e-05
0.00100337 -0.000151632 1.71236e-06
-0.000151632 0.0012499 1.2125e-07
1.71236e-06 1.2125e-07 0.000621146
0.000696372 -0.00132451 4.16966e-05
-0.00132451 0.00187829 -1.60045e-05
4.16966e-05 -1.60045e-05 6.28377e-05
0.000626954 -0.000177004 -5.6651e-06
-0.000177004 0.00158815 -1.86211e-05
-5.6651e-06 -1.86211e-05 0.00081009
0.000567558 0.000140156 1.17864e-05
0.000140156 0.000608476 -2.1164e-05
1.17864e-05 -2.1164e-05 0.000222867
-0.00150306 0.00010499 -0.000247559
0.00010499 0.00241089 1.39359e-06
-0.000247559 1.39359e-06 -9.84477e-05
0.000918865 0.000524252 1.72575e-05
0.000524252 0.00143462 -7.00251e-06
1.72575e-05 -7.00251e-06 0.00073567
-0.00393922 -0.000194155 -7.27341e-05
-0.000194155 0.00450892 -0.000116005
-7.27341e-05 -0.000116005 0.00156269
0.00259784 0.000208257 4.20479e-05
0.000208257 0.00144225 2.24053e-05
4.20479e-05 2.24053e-05 -0.00157524
-0.00449235 0.0016891 -0.000127211
0.0016891 0.00386453 -0.00010849
-0.000127211 -0.00010849 0.000124513
0.000451789 0.000594713 -1.3361e-05
0.000594713 0.00102722 2.0217e-06
-1.3361e-05 2.0217e-06 0.00034429
-0.00128085 0.00142397 0.000303252
0.00142397 0.00134181 0.000120815
0.000303252 0.000120815 -9.70602e-05
0.00110623 6.68188e-05 0.000106018
6.68188e-05 0.00282588 -1.22593e-05
0.000106018 -1.22593e-05 0.000591291
0.0063693 -0.00204496 0.000412686
-0.00204496 0.00669823 -0.000241366
0.000412686 -0.000241366 -0.00335099
0.0270809 0.00435731 -0.000411919
0.00435731 0.0105005 0.000290117
-0.000411919 0.000290117 0.00260687
0.00330654 -0.00100488 -0.000498094
-0.00100488 0.0035669 6.31389e-05
-0.000498094 6.31389e-05 0.000578535
0.0172092 0.00612792 -0.000436238
0.00612792 0.0126049 -0.000334756
-0.000436238 -0.000334756 0.00665862
0.000702359 0.000248419 -5.8325e-05
0.000248419 0.00188829 5.35385e-06
-5.8325e-05 5.35385e-06 0.000263937
-0.00076786 -0.000717819 -0.00016965
-0.000717819 0.00473486 4.12664e-06
-0.00016965 4.12664e-06 0.00223554
0.00198234 -0.00235301 0.000303553
-0.00235301 0.00242342 -6.76617e-05
0.000303553 -6.76617e-05 -0.00358062
-0.00398944 7.07283e-05 9.49822e-05
7.07283e-05 0.000835747 4.55853e-05
9.49822e-05 4.55853e-05 -0.00022721
0.0324666 0.0179168 0.000927476
0.0179168 0.0227189 -0.000287535
0.000927476 -0.000287535 0.010033
0.0142545 0.00366053 -0.000121808
0.00366053 0.0101056 0.000512435
-0.000121808 0.000512435 0.00113636
-0.000890241 -0.00206061 0.00034223
-0.00206061 0.00469151 -0.000226774
0.00034223 -0.000226774 -0.00463855
-0.00240382 -0.000861525 -4.40661e-05
-0.000861525 0.000611895 -5.07935e-05
-4.40661e-05 -5.07935e-05 -0.00114339
0.00181009 -0.00146317 0.000462566
-0.00146317 0.000228165 -0.000118065
0.000462566 -0.000118065 -0.00489323
0.00428993 0.00449051 -0.00264735
0.00449051 0.0134454 0.00026406
-0.00264735 0.00026406 0.00440365
0.0263199 0.0100525 -0.000565591
0.0100525 0.0117928 0.000449337
-0.000565591 0.000449337 0.00211814
0.00650836 -0.00611047 -0.00033823
-0.00611047 0.00416599 0.000173599
-0.00033823 0.000173599 0.000195013
0.00363249 -0.00319155 0.000100135
-0.00319155 0.00479491 4.18095e-05
0.000100135 4.18095e-05 0.00276205
-0.000100306 -0.000112694 1.0389e-05
-0.000112694 0.000671752 -2.20654e-05
1.0389e-05 -2.20654e-05 -0.000159387
0.000324406 -0.00055865 -4.96439e-06
-0.00055865 0.00081494 -2.23808e-07
-4.96439e-06 -2.23808e-07 -9.73141e-05
0.000119643 -0.00131837 -2.33228e-06
-0.00131837 0.000348827 1.23211e-05
-2.33228e-06 1.23211e-05 -0.000484699
-0.000642634 -0.000237638 1.50236e-06
-0.000237638 9.74346e-05 1.07078e-05
1.50236e-06 1.07078e-05 -0.000298672
-6.58701e-06 -0.000653202 -6.26404e-06
-0.000653202 0.000225159 3.77286e-06
-6.26404e-06 3.77286e-06 -0.000316443
0.00204052 -0.00111817 3.54173e-05
-0.00111817 0.000832958 -2.31863e-05
3.54173e-05 -2.31863e-05 0.000191296
0.00614551 -0.00154082 -9.45568e-06
-0.00154082 0.00321927 6.54855e-06
-9.45568e-06 6.54855e-06 0.00255825
0.0026482 -0.00114365 1.25989e-05
-0.00114365 0.00125361 -4.64524e-06
1.25989e-05 -4.64524e-06 0.000332911
0.00271636 -0.00146201 2.34531e-06
-0.00146201 0.000887335 -2.12731e-05
2.34531e-06 -2.12731e-05 -5.11917e-05
0.00257755 -0.0010311 -5.57968e-06
-0.0010311 0.00107569 -7.52692e-06
-5.57968e-06 -7.52692e-06 0.00037566
0.00231518 -0.00124868 8.40582e-07
-0.00124868 0.000756975 -2.72113e-06
8.40582e-07 -2.72113e-06 -9.23968e-05
0.00308269 -0.00148536 -8.78816e-06
-0.00148536 0.00100479 -1.09973e-05
-8.78816e-06 -1.09973e-05 0.000182742
0.00260352 -0.00104475 -2.34131e-06
-0.00104475 0.000488744 -6.85199e-06
-2.34131e-06 -6.85199e-06 -2.10569e-05
0.00320293 -0.00139695 -9.89897e-06
-0.00139695 0.00104593 -2.13322e-06
-9.89897e-06 -2.13322e-06 0.00032769
0.00302744 -0.00141455 -4.81481e-06
-0.00141455 0.000970779 -4.42574e-07
-4.81481e-06 -4.42574e-07 0.000210105
0.00245442 -0.00124128 9.05097e-06
-0.00124128 0.000876617 -8.65124e-06
9.05097e-06 -8.65124e-06 0.000167338
0.00198094 -0.00116623 3.69204e-06
-0.00116623 0.000588555 -1.17681e-06
3.69204e-06 -1.17681e-06 -0.00010717
0.00224747 -0.00111344 1.06377e-05
-0.00111344 0.000779852 -3.51126e-06
1.06377e-05 -3.51126e-06 7.99552e-05
0.00174335 -0.000815932 1.66867e-05
-0.000815932 0.00068018 -2.5143e-06
1.66867e-05 -2.5143e-06 9.56455e-05
0.00180713 -0.000951941 -1.68374e-06
-0.000951941 0.000644181 -1.59766e-06
-1.68374e-06 -1.59766e-06 2.24349e-05
0.00181714 -0.00102061 -6.78144e-07
-0.00102061 0.000544945 6.55334e-06
-6.78144e-07 6.55334e-06 -9.34014e-05
0.00204024 -0.000293621 2.8091e-06
-0.000293621 0.00103544 -3.42246e-06
2.8091e-06 -3.42246e-06 0.000684386
0.000832608 -0.000315942 -7.45837e-06
-0.000315942 0.000159896 3.97291e-06
-7.45837e-06 3.97291e-06 -0.000196904
0.00262598 -0.000809477 -9.56484e-06
-0.000809477 0.00119898 -4.98774e-06
-9.56484e-06 -4.98774e-06 0.000686441
-5.87958e-05 -0.000136688 -4.07445e-07
-0.000136688 -0.000320434 1.16322e-06
-4.07445e-07 1.16322e-06 -0.000606571
0.000451624 -0.000116602 -1.21908e-06
-0.000116602 4.34996e-05 7.60705e-07
-1.21908e-06 7.60705e-07 -0.000277387
0.000569881 -0.000167911 5.83963e-06
-0.000167911 5.79655e-05 1.86443e-06
5.83963e-06 1.86443e-06 -0.000276832
0.000274566 -7.55166e-05 -1.52513e-05
-7.55166e-05 -0.00011828 2.0895e-05
-1.52513e-05 2.0895e-05 -0.000202111
0.000896761 -0.000167936 9.38518e-07
-0.000167936 0.000328902 9.30443e-07
9.38518e-07 9.30443e-07 7.9321e-05
0.0018946 -0.000401444 -2.14195e-06
-0.000401444 0.00105467 1.15409e-06
-2.14195e-06 1.15409e-06 0.000705761
0.00116189 -0.000157345 -6.3181e-07
-0.000157345 0.000484494 -9.98268e-06
-6.3181e-07 -9.98268e-06 0.000293456
0.000401053 -3.4822e-05 -1.58382e-07
-3.4822e-05 -2.69058e-05 -4.50341e-07
-1.58382e-07 -4.50341e-07 -9.43254e-05
0.0036955 0.000140786 -5.46618e-05
0.000140786 0.00214386 7.49263e-06
-5.46618e-05 7.49263e-06 0.00213355
0.000429688 -4.31358e-05 4.39095e-06
-4.31358e-05 -1.01431e-05 -1.28091e-05
4.39095e-06 -1.28091e-05 -6.23387e-05
0.00332127 0.000103698 8.83003e-06
0.000103698 0.00188607 9.64846e-07
8.83003e-06 9.64846e-07 0.00188533
0.0029458 7.00303e-05 4.86234e-05
7.00303e-05 0.00162972 -6.39789e-06
4.86234e-05 -6.39789e-06 0.00163667
0.00331368 0.000113621 1.29253e-05
0.000113621 0.00211032 -7.47606e-06
1.29253e-05 -7.47606e-06 0.00168314
0.00250358 0.000238895 1.20112e-05
0.000238895 0.00156261 -2.36983e-05
1.20112e-05 -2.36983e-05 0.00121122
0.000609245 8.58571e-05 6.06109e-06
8.58571e-05 0.000138783 -8.91104e-06
6.06109e-06 -8.91104e-06 -1.3233e-06
0.000722471 0.000176017 1.03982e-07
0.000176017 0.000276566 1.59761e-06
1.03982e-07 1.59761e-06 6.20345e-05
0.000443304 -2.00552e-05 6.30402e-06
-2.00552e-05 1.6027e-06 -1.01213e-05
6.30402e-06 -1.01213e-05 -3.97067e-05
0.000592454 9.19307e-05 -1.4891e-07
9.19307e-05 0.000138795 -3.27769e-07
-1.4891e-07 -3.27769e-07 1.29213e-05
0.000687705 8.97906e-05 -7.22404e-06
8.97906e-05 0.000231867 -2.58142e-06
-7.22404e-06 -2.58142e-06 4.79469e-05
0.00270901 -5.04519e-05 -3.4038e-05
-5.04519e-05 0.00147938 -6.62692e-06
-3.4038e-05 -6.62692e-06 0.00148821
0.000425624 3.91316e-06 -2.41119e-06
3.91316e-06 -1.36877e-05 -3.20374e-07
-2.41119e-06 -3.20374e-07 -4.66636e-05
0.000543097 8.28051e-05 -6.01852e-06
8.28051e-05 0.000106259 2.33853e-06
-6.01852e-06 2.33853e-06 -5.362e-06
0.00240097 -3.30615e-05 -5.88645e-06
-3.30615e-05 0.00127366 3.41333e-07
-5.88645e-06 3.41333e-07 0.00128598
0.000418891 2.05166e-06 -4.52792e-06
2.05166e-06 -2.51232e-05 6.12977e-06
-4.52792e-06 6.12977e-06 -4.82438e-05
0.00221423 -1.46587e-05 1.90197e-05
-1.46587e-05 0.00114944 5.68822e-06
1.90197e-05 5.68822e-06 0.00116431
-0.0022387 0.00118332 -4.84893e-05
0.00118332 0.0031163 -0.000152763
-4.84893e-05 -0.000152763 -0.000235333
0.00468767 -0.000414108 -3.92337e-05
-0.000414108 0.00328901 -7.50757e-05
-3.92337e-05 -7.50757e-05 0.000933049
0.000317034 -0.000523815 7.69734e-05
-0.000523815 0.00481141 -7.97047e-05
7.69734e-05 -7.97047e-05 0.00202874
0.000514413 4.6567e-06 2.60173e-06
4.6567e-06 0.000379726 -8.42492e-06
2.60173e-06 -8.42492e-06 -9.31105e-05
6.12383e-05 0.000314357 1.30512e-05
0.000314357 -8.86486e-05 -8.79024e-06
1.30512e-05 -8.79024e-06 -0.000357842
-0.00243453 7.78024e-05 3.40387e-05
7.78024e-05 -0.00190018 -2.42441e-05
3.40387e-05 -2.42441e-05 -0.00206481
-0.00285333 -2.76228e-05 -3.38693e-06
-2.76228e-05 -0.00170326 2.59197e-05
-3.38693e-06 2.59197e-05 -0.00217472
0.00200143 0.000472582 1.15809e-05
0.000472582 0.00105998 -5.40179e-06
1.15809e-05 -5.40179e-06 0.000743665
0.000487019 6.88992e-05 -8.83966e-06
6.88992e-05 0.00013553 1.30138e-06
-8.83966e-06 1.30138e-06 -0.000119826
7.11768e-05 0.000112735 -1.27772e-05
0.000112735 -0.000168076 -1.52072e-05
-1.27772e-05 -1.52072e-05 -0.000314029
0.00125833 -3.89044e-06 8.47522e-06
-3.89044e-06 0.000609311 2.42156e-06
8.47522e-06 2.42156e-06 0.000399767
0.000881772 0.000190966 -4.02547e-06
0.000190966 0.000399876 -7.66154e-06
-4.02547e-06 -7.66154e-06 0.000286113
0.00268951 0.000215276 -3.2607e-06
0.000215276 0.00177381 -1.55125e-05
-3.2607e-06 -1.55125e-05 0.00140101
0.0101207 0.00322788 0.000895057
0.00322788 0.00650549 0.000630166
0.000895057 0.000630166 0.00111552
0.00447581 0.00167304 2.63575e-05
0.00167304 0.00173051 7.73019e-05
2.63575e-05 7.73019e-05 -0.00136666
0.00810673 -0.000368335 0.000188592
-0.000368335 0.000382293 -6.52158e-08
0.000188592 -6.52158e-08 -0.00173535
0.0152026 -0.000671156 -0.000289595
-0.000671156 0.00246147 -0.000134056
-0.000289595 -0.000134056 0.00370853
0.00476837 0.000782252 0.000164016
0.000782252 -0.000656363 0.000483105
0.000164016 0.000483105 -0.00701014
0.0032021 -0.00518423 -0.000118668
-0.00518423 0.00172239 2.88382e-05
-0.000118668 2.88382e-05 0.00129381
0.00408098 -0.00241428 -0.000436676
-0.00241428 0.00596306 0.000138043
-0.000436676 0.000138043 -0.000750397
-0.000918324 -0.00192287 -0.000113458
-0.00192287 0.00118461 0.000146906
-0.000113458 0.000146906 1.38211e-05
0.0122911 -0.000363921 -0.00038463
-0.000363921 0.00909412 -2.20496e-06
-0.00038463 -2.20496e-06 0.00100923
0.00988071 -0.00338294 0.000179158
-0.00338294 0.00632496 0.000283707
0.000179158 0.000283707 -0.00143705
0.0289167 -0.00623486 0.000238399
-0.00623486 0.0104167 -0.00100401
0.000238399 -0.00100401 0.00279647
-0.00114577 0.000485087 -0.000234133
0.000485087 0.00264732 0.000134501
-0.000234133 0.000134501 0.000399605
0.00494467 0.00223456 -0.000345625
0.00223456 0.00702572 -0.000126902
-0.000345625 -0.000126902 -2.70148e-05
0.0300994 -0.0107917 0.000740301
-0.0107917 0.0174372 -0.00114303
0.000740301 -0.00114303 0.00657484
0.034315 -0.0163921 9.46124e-05
-0.0163921 0.0210729 -7.26671e-05
9.46124e-05 -7.26671e-05 0.00906953
0.000215121 0.000428572 4.06156e-05
0.000428572 0.000308817 1.95463e-05
4.06156e-05 1.95463e-05 -0.000217158
-0.000268151 7.39442e-05 1.36941e-05
7.39442e-05 0.000231104 3.31848e-06
1.36941e-05 3.31848e-06 -0.000314706
0.000900889 0.00018737 -3.03742e-05
0.00018737 0.000497508 -1.5147e-05
-3.03742e-05 -1.5147e-05 0.000314488
0.00277989 -0.00173118 9.37543e-05
-0.00173118 0.0027226 5.9249e-07
9.37543e-05 5.9249e-07 0.000493156
-0.00158961 -0.000186628 0.000125494
-0.000186628 0.000593417 1.65416e-05
0.000125494 1.65416e-05 -0.000320982
-0.000135057 0.000132273 -2.01988e-05
0.000132273 0.000145325 1.64036e-05
-2.01988e-05 1.64036e-05 -0.000240184
-0.000208721 -0.000277732 9.87649e-06
-0.000277732 0.000680762 -8.04349e-07
9.87649e-06 -8.04349e-07 -0.00012459
-0.000323031 0.00018035 -1.04806e-05
0.00018035 0.000120711 2.57929e-06
-1.04806e-05 2.57929e-06 -0.000278844
-0.000405306 0.000372746 2.97992e-05
0.000372746 0.000492069 7.8356e-06
2.97992e-05 7.8356e-06 -0.000237505
-0.00285841 0.000118731 0.00018939
0.000118731 0.00152799 -9.41357e-05
0.00018939 -9.41357e-05 -0.000784903
0.00196162 0.00101511 6.3076e-05
0.00101511 0.00106719 5.88043e-05
6.3076e-05 5.88043e-05 0.000507941
0.00153888 0.00124898 -0.000120024
0.00124898 0.00206402 -0.000138534
-0.000120024 -0.000138534 4.23578e-05
-1.74025e-05 -0.000592322 0.000335465
-0.000592322 0.00168776 0.000128866
0.000335465 0.000128866 -0.00404796
-0.00341063 0.000720499 -0.000216475
0.000720499 0.00433223 -8.22971e-06
-0.000216475 -8.22971e-06 0.000604496
0.00533302 -0.000558206 -0.000148392
-0.000558206 0.00343953 6.68888e-06
-0.000148392 6.68888e-06 0.00199698
0.000557556 0.000723582 7.67173e-05
0.000723582 0.00145201 2.30593e-05
7.67173e-05 2.30593e-05 -0.000256939
0.000116007 0.000391206 -9.35272e-05
0.000391206 0.00326641 0.000117005
-9.35272e-05 0.000117005 0.00102337
-0.00142108 -0.000206566 -4.83283e-05
-0.000206566 0.0036683 -7.92648e-05
-4.83283e-05 -7.92648e-05 0.000693392
0.0141574 -0.0064516 0.000448663
-0.0064516 0.00966119 -0.000283215
0.000448663 -0.000283215 0.000556227
0.0302873 0.00892721 -0.000805452
0.00892721 0.0171248 -0.000371293
-0.000805452 -0.000371293 0.00614872
0.00708694 -0.00309484 -0.000572535
-0.00309484 0.00400377 0.000361987
-0.000572535 0.000361987 -0.000944785
0.0254449 0.021519 0.00299826
0.021519 0.0185392 -0.00183756
0.00299826 -0.00183756 0.00534591
-0.000141288 -0.000871044 3.87826e-05
-0.000871044 0.00162276 -8.80887e-06
3.87826e-05 -8.80887e-06 -0.000182375
0.000238292 -0.000978598 0.000102472
-0.000978598 0.00125612 5.83825e-06
0.000102472 5.83825e-06 -0.00450528
0.00799951 0.00514698 -0.00168965
0.00514698 0.0127303 0.000172668
-0.00168965 0.000172668 0.00321326
0.000208732 -0.0018591 5.5508e-05
-0.0018591 0.00231136 3.16326e-05
5.5508e-05 3.16326e-05 0.00080418
0.029261 0.00996297 0.00055484
0.00996297 0.0130136 0.000252392
0.00055484 0.000252392 0.00330275
0.00533719 -0.00886254 0.000449607
-0.00886254 0.00303046 -0.000128528
0.000449607 -0.000128528 -0.00202945
-0.000590776 -0.00230723 2.46677e-05
-0.00230723 0.000587325 5.15685e-05
2.46677e-05 5.15685e-05 -0.00106687
-0.000449362 -0.00147125 0.000211435
-0.00147125 0.0104517 -0.000136353
0.000211435 -0.000136353 0.00430786
0.0226945 0.0108179 -0.00246129
0.0108179 0.0102977 0.000289567
-0.00246129 0.000289567 0.00218858
0.00405415 -0.007765 -0.000915308
-0.007765 -0.00313527 0.000274624
-0.000915308 0.000274624 -0.0041332
-0.000686061 -0.00326263 0.000218511
-0.00326263 -9.05397e-05 -0.000180558
0.000218511 -0.000180558 0.000712054
0.0015026 -0.000692103 -0.000123866
-0.000692103 0.00131975 4.79135e-05
-0.000123866 4.79135e-05 0.000434253
7.75478e-05 -0.00107553 -1.46245e-05
-0.00107553 0.000419874 1.24947e-05
-1.46245e-05 1.24947e-05 -0.000400591
0.000108686 -0.00112267 6.29216e-06
-0.00112267 -0.00012 -2.25407e-05
6.29216e-06 -2.25407e-05 -0.000765755
-0.00165881 -0.000329725 1.39066e-05
-0.000329725 -0.00050528 4.92682e-06
1.39066e-05 4.92682e-06 -0.000991607
0.000654412 -0.000934586 5.58025e-06
-0.000934586 0.000117927 -2.55647e-06
5.58025e-06 -2.55647e-06 -0.000469994
0.00326653 -0.00158568 4.23005e-06
-0.00158568 0.000918218 -1.08815e-05
4.23005e-06 -1.08815e-05 0.000315341
0.00482637 -0.00149949 -3.2263e-05
-0.00149949 0.00236209 8.79325e-06
-3.2263e-05 8.79325e-06 0.00142639
0.00224868 -0.00135496 -4.17095e-06
-0.00135496 0.000616896 -1.42543e-06
-4.17095e-06 -1.42543e-06 -0.000274976
0.00325661 -0.00162217 4.4361e-06
-0.00162217 0.000849169 -9.6201e-06
4.4361e-06 -9.6201e-06 0.000108839
0.00328226 -0.00139825 1.01672e-05
-0.00139825 0.00128149 4.18409e-06
1.01672e-05 4.18409e-06 0.000400617
0.00284073 -0.00143668 3.81327e-06
-0.00143668 0.000868382 -3.68328e-06
3.81327e-06 -3.68328e-06 7.1312e-05
0.0028896 -0.00113218 -1.85622e-06
-0.00113218 0.000608582 -6.86172e-06
-1.85622e-06 -6.86172e-06 9.39872e-05
0.00214471 -0.000678254 -5.50309e-07
-0.000678254 5.05491e-05 -2.41462e-06
-5.50309e-07 -2.41462e-06 -0.000208347
0.00219731 -0.00100621 6.55521e-07
-0.00100621 0.000180017 -4.16738e-06
6.55521e-07 -4.16738e-06 -0.000318286
0.00258557 -0.00105587 4.0798e-06
-0.00105587 0.000457612 -1.93482e-06
4.0798e-06 -1.93482e-06 -5.48757e-05
0.00305494 -0.00125096 -1.4778e-06
-0.00125096 0.00101294 -3.97759e-06
-1.4778e-06 -3.97759e-06 0.000363382
0.00315413 -0.00139233 -4.63285e-06
-0.00139233 0.00102215 -4.51632e-07
-4.63285e-06 -4.51632e-07 0.000298592
0.00293096 -0.00140234 1.15852e-05
-0.00140234 0.00090855 -3.36086e-06
1.15852e-05 -3.36086e-06 0.000146659
0.00236962 -0.00112072 7.06816e-06
-0.00112072 0.00086547 -1.13749e-05
7.06816e-06 -1.13749e-05 0.000182883
0.00216219 -0.00119718 1.63266e-06
-0.00119718 0.000719048 -9.85153e-07
1.63266e-06 -9.85153e-07 2.16084e-05
0.0016546 -0.00109946 4.54777e-06
-0.00109946 0.000406534 2.29912e-06
4.54777e-06 2.29912e-06 -0.000260406
0.00354588 -0.000674203 7.22991e-06
-0.000674203 0.00191995 7.61653e-06
7.22991e-06 7.61653e-06 0.00147277
0.00105966 -0.000727085 9.51343e-07
-0.000727085 0.000285527 3.40615e-06
9.51343e-07 3.40615e-06 -0.00027247
0.00186024 -0.000953013 -9.86423e-06
-0.000953013 0.000675384 1.04766e-05
-9.86423e-06 1.04766e-05 5.63088e-05
0.00057503 -0.000275987 -1.85039e-07
-0.000275987 3.94743e-05 -6.06108e-06
-1.85039e-07 -6.06108e-06 -0.000221362
0.00056309 -0.000246878 -3.32052e-07
-0.000246878 9.47278e-05 -5.34774e-06
-3.32052e-07 -5.34774e-06 -0.000246294
0.00137094 -0.000211975 -2.38237e-06
-0.000211975 0.000531967 1.75138e-07
-2.38237e-06 1.75138e-07 0.00018684
0.00253989 -8.1765e-05 -8.99928e-05
-8.1765e-05 0.00133787 1.33997e-05
-8.99928e-05 1.33997e-05 0.00125793
0.000326009 -0.00016497 7.1266e-09
-0.00016497 -7.93401e-05 1.65276e-06
7.1266e-09 1.65276e-06 -0.000356926
0.00130451 -0.00023822 -2.89363e-06
-0.00023822 0.00058112 3.24658e-06
-2.89363e-06 3.24658e-06 0.000253537
0.00113965 1.29465e-05 -8.95245e-05
1.29465e-05 0.000458884 9.79283e-06
-8.95245e-05 9.79283e-06 0.000438795
0.00123164 -5.89975e-05 -2.70302e-05
-5.89975e-05 0.00051394 -9.0748e-07
-2.70302e-05 -9.0748e-07 0.000425185
0.00165689 -0.000192932 1.27627e-06
-0.000192932 0.000793587 -8.63473e-06
1.27627e-06 -8.63473e-06 0.00055792
0.00063602 -5.45881e-05 1.03454e-05
-5.45881e-05 0.00011721 -1.49759e-05
1.03454e-05 -1.49759e-05 4.9264e-05
0.00383871 0.000132836 1.32231e-05
0.000132836 0.00223627 1.06845e-06
1.32231e-05 1.06845e-06 0.00222843
0.00352851 0.000100352 6.3748e-05
0.000100352 0.0020213 -7.02686e-06
6.3748e-05 -7.02686e-06 0.00202136
-0.00108927 0.000110604 1.32159e-06
0.000110604 -0.000916783 1.37236e-05
1.32159e-06 1.37236e-05 -0.00121471
0.00248073 0.000302193 6.68958e-06
0.000302193 0.00156264 -2.06297e-05
6.68958e-06 -2.06297e-05 0.00114681
-0.000848356 7.37863e-05 5.25248e-06
7.37863e-05 -0.00054104 -1.34322e-06
5.25248e-06 -1.34322e-06 -0.000954219
0.000799005 0.000117422 6.35617e-07
0.000117422 0.000269365 -1.20286e-05
6.35617e-07 -1.20286e-05 9.62823e-05
0.000565006 0.00017265 4.95798e-06
0.00017265 0.000247043 -9.27583e-07
4.95798e-06 -9.27583e-07 -5.51477e-05
0.000340646 1.67359e-05 -1.95162e-06
1.67359e-05 -5.16375e-05 -1.36877e-05
-1.95162e-06 -1.36877e-05 -0.000104296
0.000509267 8.98188e-05 2.75412e-08
8.98188e-05 8.34241e-05 7.21719e-08
2.75412e-08 7.21719e-08 -6.14511e-05
0.00078497 0.000102854 -5.75568e-06
0.000102854 0.000343127 8.55754e-06
-5.75568e-06 8.55754e-06 0.000114651
0.00297895 -7.01496e-05 -4.52189e-05
-7.01496e-05 0.00166207 -6.84806e-06
-4.52189e-05 -6.84806e-06 0.00166762
0.000363703 1.19717e-05 -8.15473e-07
1.19717e-05 -4.67329e-05 2.53905e-08
-8.15473e-07 2.53905e-08 -8.89066e-05
0.000403818 8.91114e-05 -3.53928e-06
8.91114e-05 1.64392e-05 5.78193e-06
-3.53928e-06 5.78193e-06 -0.000107562
0.00260788 -5.30335e-05 -8.3698e-06
-5.30335e-05 0.00141315 5.52092e-07
-8.3698e-06 5.52092e-07 0.00142175
0.000301604 -1.98404e-05 -8.43819e-06
-1.98404e-05 -9.44849e-05 7.6806e-06
-8.43819e-06 7.6806e-06 -0.00012629
0.00230774 -3.12583e-05 2.37128e-05
-3.12583e-05 0.00121222 5.85603e-06
2.37128e-05 5.85603e-06 0.00122534
0.00681906 0.00167787 0.000665738
0.00167787 0.00566038 0.000164116
0.000665738 0.000164116 0.0016129
-0.00210836 0.00108391 -2.61178e-05
0.00108391 0.00266911 -1.40504e-05
-2.61178e-05 -1.40504e-05 -0.000972487
0.000559708 0.00134742 -4.92599e-06
0.00134742 0.0033872 -2.48332e-05
-4.92599e-06 -2.48332e-05 0.000278939
0.000171444 0.000406981 -1.50809e-05
0.000406981 -0.000154958 1.0397e-05
-1.50809e-05 1.0397e-05 -0.000510404
-0.000777251 3.82755e-05 -1.64677e-05
3.82755e-05 -0.000536425 3.11037e-05
-1.64677e-05 3.11037e-05 -0.000947759
-0.00014061 0.000137145 -2.34874e-05
0.000137145 -0.000239024 -1.25862e-05
-2.34874e-05 -1.25862e-05 -0.000429409
0.00182682 0.000164206 1.07882e-05
0.000164206 0.00108297 1.27951e-07
1.07882e-05 1.27951e-07 0.000763663
0.000971437 0.000330294 1.87973e-07
0.000330294 0.000233462 -1.14806e-05
1.87973e-07 -1.14806e-05 3.58607e-05
0.00197981 0.000510219 -2.17674e-05
0.000510219 0.00104878 -8.58474e-06
-2.17674e-05 -8.58474e-06 0.00083712
0.00153438 0.000470502 2.20419e-05
0.000470502 0.000661024 -3.16254e-05
2.20419e-05 -3.16254e-05 0.00027803
-0.00242121 0.000159987 -1.85414e-05
0.000159987 -0.00121108 3.35928e-06
-1.85414e-05 3.35928e-06 -0.00164849
-0.00084402 -2.51467e-06 -4.91268e-06
-2.51467e-06 -0.000664904 -1.81614e-05
-4.91268e-06 -1.81614e-05 -0.000898414
-0.000614383 5.46785e-05 -1.30985e-05
5.46785e-05 -0.000638186 -1.33751e-05
-1.30985e-05 -1.33751e-05 -0.000683827
-0.00079704 6.16185e-05 -8.16403e-06
6.16185e-05 -0.00035916 2.67035e-06
-8.16403e-06 2.67035e-06 -0.000743874
0.000103163 0.000394679 -2.81176e-06
0.000394679 0.000328481 1.89855e-05
-2.81176e-06 1.89855e-05 -0.000326445
0.0115114 -0.0091458 -0.000192119
-0.0091458 0.0127283 0.00020387
-0.000192119 0.00020387 0.000907795
0.0102132 0.00376831 0.000305573
0.00376831 0.00466591 0.00020919
0.000305573 0.00020919 -0.00159378
0.00483097 0.000971849 9.63145e-05
0.000971849 0.00266206 -6.82191e-05
9.63145e-05 -6.82191e-05 -0.000810097
0.0411911 -0.0101309 -0.00150562
-0.0101309 0.014689 -0.00050202
-0.00150562 -0.00050202 0.00565215
0.00628043 -0.00132692 0.000344495
-0.00132692 0.00559393 0.000638809
0.000344495 0.000638809 -0.000100171
0.00126065 -0.000805721 -0.000229104
-0.000805721 0.00594927 0.000190984
-0.000229104 0.000190984 -0.00303422
7.7028e-06 -0.00247936 4.66693e-06
-0.00247936 0.00228625 9.60095e-05
4.66693e-06 9.60095e-05 0.000252592
-0.00107587 -0.000201133 0.000204089
-0.000201133 0.00229327 3.98378e-05
0.000204089 3.98378e-05 0.000696209
0.0320702 -0.0189019 0.000489577
-0.0189019 0.0203255 0.000562006
0.000489577 0.000562006 0.00747372
0.00392822 0.00272292 -0.000239649
0.00272292 0.0062728 -0.000147218
-0.000239649 -0.000147218 -0.00181322
0.0136743 -0.00589912 -0.000159771
-0.00589912 0.0112346 0.000197553
-0.000159771 0.000197553 0.000480762
-0.000503807 0.00125587 8.69858e-06
0.00125587 0.00181298 8.06171e-07
8.69858e-06 8.06171e-07 0.000517219
0.00593278 0.00670491 -0.000263796
0.00670491 0.0030913 4.48059e-06
-0.000263796 4.48059e-06 -0.00128586
0.0274422 -0.00950376 -0.00121511
-0.00950376 0.012274 -0.00030732
-0.00121511 -0.00030732 0.00211636
0.00161275 0.000962655 2.08739e-05
0.000962655 0.000643663 2.99183e-05
2.08739e-05 2.99183e-05 0.000367406
0.000720919 0.000437058 6.90511e-06
0.000437058 0.000651166 3.46775e-06
6.90511e-06 3.46775e-06 6.78796e-05
-0.000589525 4.43273e-05 -4.77602e-05
4.43273e-05 4.88983e-05 5.21707e-06
-4.77602e-05 5.21707e-06 -0.000517163
-0.00195265 -0.000292848 -0.00013461
-0.000292848 0.00190685 -2.6235e-05
-0.00013461 -2.6235e-05 -0.000240945
0.00169089 0.000503 -5.11501e-05
0.000503 0.00113703 -3.35715e-06
-5.11501e-05 -3.35715e-06 0.000589178
-2.4216e-05 0.000264086 -9.71114e-06
0.000264086 0.000290927 1.04119e-05
-9.71114e-06 1.04119e-05 -0.000156665
0.00153255 0.000937209 5.65314e-06
0.000937209 0.000813311 -6.4743e-07
5.65314e-06 -6.4743e-07 0.000274844
-3.68535e-05 0.00107682 -1.51185e-05
0.00107682 0.0013221 -5.70569e-05
-1.51185e-05 -5.70569e-05 -0.000438595
0.00276444 0.00276645 0.000122256
0.00276645 0.00123035 3.65489e-05
0.000122256 3.65489e-05 -0.000310245
-0.00687137 0.0011707 0.000634205
0.0011707 0.00663522 -5.07233e-05
0.000634205 -5.07233e-05 -0.00295736
0.00175814 -0.000893764 -4.07907e-05
-0.000893764 0.00269611 0.00010285
-4.07907e-05 0.00010285 -0.00129171
-0.00296635 0.00016666 -5.3217e-05
0.00016666 0.00344345 0.000120143
-5.3217e-05 0.000120143 -0.000104876
-0.00154864 -0.000515627 -5.99368e-05
-0.000515627 0.000875071 1.12595e-05
-5.99368e-05 1.12595e-05 -0.000949055
-0.0017379 -0.00123004 -4.97221e-05
-0.00123004 0.000720181 3.1717e-05
-4.97221e-05 3.1717e-05 0.000312311
-0.0021201 -0.00145109 -0.000301192
-0.00145109 0.00152535 0.000207448
-0.000301192 0.000207448 -0.00460472
-0.00170733 -0.00675342 0.000365353
-0.00675342 0.00294124 -0.000222143
0.000365353 -0.000222143 -0.00483393
0.0207896 0.00802865 0.00102886
0.00802865 0.00748187 -0.00035735
0.00102886 -0.00035735 -0.00164105
0.0226918 0.0102824 -0.00039395
0.0102824 0.0149756 0.00061343
-0.00039395 0.00061343 0.00331489
0.000556734 -0.00172752 -4.80421e-05
-0.00172752 0.00178725 1.32357e-05
-4.80421e-05 1.32357e-05 0.000219555
0.00617535 0.00272028 0.000408254
0.00272028 0.0129022 -7.64604e-05
0.000408254 -7.64604e-05 0.00454129
0.00839784 0.00738086 4.44009e-05
0.00738086 0.00373448 0.000116345
4.44009e-05 0.000116345 -0.00272848
0.00238766 -0.00523588 7.71524e-05
-0.00523588 0.00101104 -6.06364e-05
7.71524e-05 -6.06364e-05 0.000829822
0.01237 -0.00836719 8.63341e-07
-0.00836719 -0.000570048 1.92453e-05
8.63341e-07 1.92453e-05 -0.00156727
0.00306744 -0.00291527 2.78017e-05
-0.00291527 0.00144399 1.65946e-05
2.78017e-05 1.65946e-05 0.000639335
-0.0038488 0.00361192 -0.00145102
0.00361192 0.000710251 0.000171834
-0.00145102 0.000171834 -0.00609978
0.0157499 -0.00540382 -0.000403919
-0.00540382 -0.00152632 7.91722e-05
-0.000403919 7.91722e-05 -0.00111937
0.0047675 -0.00511346 0.000121826
-0.00511346 -0.00042842 -9.97332e-05
0.000121826 -9.97332e-05 0.00115392
0.000493204 -0.000878019 -2.85111e-06
-0.000878019 0.000774431 -4.09613e-06
-2.85111e-06 -4.09613e-06 -6.70956e-05
0.00225952 -0.00163902 3.50928e-05
-0.00163902 0.000834194 -1.44314e-05
3.50928e-05 -1.44314e-05 0.000189062
0.00188 -0.00134727 4.42572e-06
-0.00134727 0.000188588 -1.25767e-05
4.42572e-06 -1.25767e-05 -0.000309001
-0.000336181 -0.000820493 -2.80156e-06
-0.000820493 -0.000400124 1.27189e-05
-2.80156e-06 1.27189e-05 -0.000947973
0.00227056 -0.00148279 -7.22952e-06
-0.00148279 0.000403701 2.40329e-07
-7.22952e-06 2.40329e-07 -0.000196662
0.00357949 -0.00161176 1.67666e-06
-0.00161176 0.000849835 -3.98869e-06
1.67666e-06 -3.98869e-06 0.000284407
0.00159688 -0.00122364 -6.36034e-06
-0.00122364 0.000240842 1.05435e-05
-6.36034e-06 1.05435e-05 -0.000606015
0.00286451 -0.00156076 -5.50442e-07
-0.00156076 0.000644186 3.98808e-06
-5.50442e-07 3.98808e-06 -8.7453e-05
0.00294286 -0.00120891 5.44656e-07
-0.00120891 0.000425657 -3.10766e-06
5.44656e-07 -3.10766e-06 1.69319e-05
0.00240669 -0.00136434 1.04514e-05
-0.00136434 0.000621997 4.85295e-06
1.04514e-05 4.85295e-06 -0.000146429
0.0025194 -0.00107477 -2.3803e-06
-0.00107477 0.000396414 2.56391e-06
-2.3803e-06 2.56391e-06 -9.85445e-05
0.00240702 -0.000758897 1.47066e-06
-0.000758897 9.00993e-05 -1.05147e-06
1.47066e-06 -1.05147e-06 -0.000122024
0.00242797 -0.000709923 -2.0799e-06
-0.000709923 0.000219543 2.8453e-07
-2.0799e-06 2.8453e-07 3.10074e-05
0.00198609 -0.00067493 -3.54941e-06
-0.00067493 -1.54103e-05 -1.86793e-06
-3.54941e-06 -1.86793e-06 -0.000294993
0.00213735 -0.000672859 1.11412e-06
-0.000672859 3.39254e-05 2.96334e-06
1.11412e-06 2.96334e-06 -0.000220928
0.002053 -0.000871979 -3.58639e-06
-0.000871979 0.000156824 -5.79271e-06
-3.58639e-06 -5.79271e-06 -0.000282196
0.00234263 -0.00100975 3.81743e-06
-0.00100975 0.000298339 6.32945e-07
3.81743e-06 6.32945e-07 -0.000195251
0.0025306 -0.00105498 3.44902e-06
-0.00105498 0.000414866 4.88561e-06
3.44902e-06 4.88561e-06 -9.61082e-05
0.0023931 -0.00109279 -1.52511e-06
-0.00109279 0.00063071 -7.1722e-06
-1.52511e-06 -7.1722e-06 1.5761e-05
0.00276015 -0.00122253 1.60286e-06
-0.00122253 0.000825824 -1.05619e-06
1.60286e-06 -1.05619e-06 0.000179006
0.00314935 -0.00138949 2.89076e-06
-0.00138949 0.00102831 -7.95988e-08
2.89076e-06 -7.95988e-08 0.000299302
0.00193711 -0.000797647 -5.70844e-06
-0.000797647 0.000623474 -1.9639e-06
-5.70844e-06 -1.9639e-06 8.41686e-05
0.00233526 -0.00110273 1.58839e-06
-0.00110273 0.000851675 3.74651e-07
1.58839e-06 3.74651e-07 0.00017716
0.00178751 -0.0011418 1.69447e-07
-0.0011418 0.000514253 5.22752e-06
1.69447e-07 5.22752e-06 -0.000168823
0.00039176 -0.000341491 -1.16908e-05
-0.000341491 -0.000173238 -9.28133e-07
-1.16908e-05 -9.28133e-07 -0.000406189
0.00135816 -0.000646483 2.82049e-06
-0.000646483 0.000505655 2.81311e-07
2.82049e-06 2.81311e-07 7.14761e-05
-3.24618e-05 -0.000609435 -8.08549e-06
-0.000609435 -0.000355378 1.03332e-05
-8.08549e-06 1.03332e-05 -0.000887795
0.000413053 -0.000141806 -2.58904e-05
-0.000141806 -7.18827e-05 1.3388e-05
-2.58904e-05 1.3388e-05 -0.000186508
0.000833771 -0.000364795 3.05891e-06
-0.000364795 0.000253883 -2.04381e-07
3.05891e-06 -2.04381e-07 -4.5447e-05
-0.00141151 -0.000211658 -1.9332e-06
-0.000211658 -0.00118766 -2.25054e-06
-1.9332e-06 -2.25054e-06 -0.0015022
0.00572948 0.00038552 3.80127e-05
0.00038552 0.00357208 1.34262e-05
3.80127e-05 1.34262e-05 0.00348432
0.000422086 -0.000127666 4.15293e-06
-0.000127666 -5.317e-05 1.45135e-06
4.15293e-06 1.45135e-06 -0.000162671
0.00115785 -0.000163435 -1.57474e-06
-0.000163435 0.000433334 1.13649e-07
-1.57474e-06 1.13649e-07 0.000169668
0.00421009 0.000154276 1.62904e-05
0.000154276 0.00249119 8.57334e-07
1.62904e-05 8.57334e-07 0.00247708
0.00058346 -8.02627e-05 1.04687e-05
-8.02627e-05 8.77624e-05 -1.69524e-05
1.04687e-05 -1.69524e-05 -1.59806e-05
0.00380086 0.000116978 7.91857e-05
0.000116978 0.00220653 -9.04689e-06
7.91857e-05 -9.04689e-06 0.00220243
0.00242722 0.000480812 -3.0938e-07
0.000480812 0.00115193 8.85834e-06
-3.0938e-07 8.85834e-06 0.000836271
-9.15491e-05 0.000201009 3.24575e-06
0.000201009 -0.000309806 2.40818e-06
3.24575e-06 2.40818e-06 -0.000613619
0.00151427 0.000719862 -7.04357e-06
0.000719862 0.000851723 -3.91664e-06
-7.04357e-06 -3.91664e-06 0.000446823
0.00146639 0.00026075 -2.50682e-06
0.00026075 0.00068491 -1.3374e-05
-2.50682e-06 -1.3374e-05 0.00047848
0.00117968 0.000182929 -2.60885e-07
0.000182929 0.000748976 5.0141e-07
-2.60885e-07 5.0141e-07 0.000311033
-0.000855207 9.12169e-05 -2.40118e-06
9.12169e-05 -0.000500907 6.53393e-06
-2.40118e-06 6.53393e-06 -0.000942046
0.000570085 1.37198e-05 -4.64378e-06
1.37198e-05 0.000105273 -1.58362e-05
-4.64378e-06 -1.58362e-05 3.94668e-05
0.000588044 9.95646e-05 6.92229e-07
9.95646e-05 0.000132078 6.75675e-07
6.92229e-07 6.75675e-07 -3.41245e-05
-0.000643673 5.75489e-05 -7.56811e-06
5.75489e-05 -0.000579565 2.44143e-05
-7.56811e-06 2.44143e-05 -0.00085284
0.00332997 -8.99654e-05 -6.06856e-05
-8.99654e-05 0.00190019 -7.75064e-06
-6.06856e-05 -7.75064e-06 0.00190235
0.00040395 -3.09783e-05 1.64486e-06
-3.09783e-05 -8.11081e-06 -4.92482e-07
1.64486e-06 -4.92482e-07 -6.14946e-05
0.000612223 7.18296e-05 -4.87712e-06
7.18296e-05 0.000162494 9.10892e-06
-4.87712e-06 9.10892e-06 1.2978e-05
0.00294877 -7.45019e-05 -9.97995e-06
-7.45019e-05 0.00164327 7.8769e-07
-9.97995e-06 7.8769e-07 0.00164743
0.000397354 2.70749e-05 -7.02101e-07
2.70749e-05 -2.60911e-05 9.72052e-06
-7.02101e-07 9.72052e-06 -6.69592e-05
0.00256576 -5.3767e-05 2.46507e-05
-5.3767e-05 0.00138554 6.19458e-06
2.46507e-05 6.19458e-06 0.00139418
-0.00454985 8.28983e-06 -0.000513625
8.28983e-06 0.00649788 8.14428e-05
-0.000513625 8.14428e-05 -0.00271425
0.00669991 0.00145113 8.62129e-05
0.00145113 0.00472607 3.84996e-06
8.62129e-05 3.84996e-06 0.000911146
-0.00104652 0.0011552 0.000240653
0.0011552 0.00266605 0.000109259
0.000240653 0.000109259 -0.00110683
0.000198618 0.000338206 -1.3639e-05
0.000338206 -9.568e-05 1.26883e-05
-1.3639e-05 1.26883e-05 -0.000515304
0.00554002 0.00135695 2.81219e-05
0.00135695 0.00313529 3.6249e-05
2.81219e-05 3.6249e-05 0.00246486
0.000609129 0.000330118 -1.49133e-05
0.000330118 0.000547154 8.1889e-06
-1.49133e-05 8.1889e-06 -0.000107393
0.00111309 0.000248851 -1.63878e-05
0.000248851 0.000671207 -1.23807e-05
-1.63878e-05 -1.23807e-05 0.000331852
0.00391705 0.000596664 -7.1007e-06
0.000596664 0.00205512 -8.1913e-06
-7.1007e-06 -8.1913e-06 0.00180849
-0.00210228 8.28156e-05 -1.05732e-05
8.28156e-05 -0.00150311 1.92856e-05
-1.05732e-05 1.92856e-05 -0.00156289
-0.000284847 0.000359285 2.35529e-08
0.000359285 -6.22649e-05 1.00402e-05
2.35529e-08 1.00402e-05 -0.000449732
0.0004005 0.000260186 -1.57362e-05
0.000260186 0.000120039 -6.18852e-06
-1.57362e-05 -6.18852e-06 -0.000286824
0.000922446 0.000964299 -1.67328e-05
0.000964299 0.000528744 -1.25518e-05
-1.67328e-05 -1.25518e-05 -0.000128214
-0.00152761 0.000701478 -4.45411e-05
0.000701478 -0.0012116 7.38377e-05
-4.45411e-05 7.38377e-05 -0.00146489
0.00011614 3.68742e-05 -1.67367e-05
3.68742e-05 0.000113504 8.59835e-06
-1.67367e-05 8.59835e-06 -0.00021617
0.00215921 0.000662986 2.37358e-05
0.000662986 0.00145206 -4.27348e-06
2.37358e-05 -4.27348e-06 0.000869559
0.00694246 -0.00561867 -0.00333267
-0.00561867 0.00453899 -4.3391e-05
-0.00333267 -4.3391e-05 -0.00340382
0.00513875 -0.00719772 0.00107114
-0.00719772 0.0134218 6.22076e-05
0.00107114 6.22076e-05 0.0027555
0.0106374 0.00444788 -0.00123047
0.00444788 0.00401539 -0.000366623
-0.00123047 -0.000366623 -0.0029912
0.026465 -0.0212463 0.00306046
-0.0212463 0.0193411 0.00178279
0.00306046 0.00178279 0.00585224
0.0324337 -0.00560003 -0.000204402
-0.00560003 0.0144262 0.00058625
-0.000204402 0.00058625 0.00561032
-0.00180517 0.00184652 -0.000164946
0.00184652 0.00432168 -0.000238908
-0.000164946 -0.000238908 -0.00276405
-0.000770896 3.81443e-05 -0.00018622
3.81443e-05 0.0034475 1.65778e-05
-0.00018622 1.65778e-05 0.00109487
0.000489393 0.00139621 7.95199e-05
0.00139621 0.00261482 6.08775e-05
7.95199e-05 6.08775e-05 0.00137668
0.0291613 -0.00839782 -0.000995274
-0.00839782 0.0137292 0.000179869
-0.000995274 0.000179869 0.0038883
-0.00121401 0.00651486 -0.000347584
0.00651486 0.00118184 -4.43902e-05
-0.000347584 -4.43902e-05 -0.00388284
0.00316666 0.00416583 6.14875e-05
0.00416583 0.00140483 -0.000105055
6.14875e-05 -0.000105055 0.00175167
0.00757268 0.0109964 -0.00106571
0.0109964 -0.00252721 -0.000102204
-0.00106571 -0.000102204 -0.00369937
0.00464825 0.00197446 4.25981e-05
0.00197446 0.00201405 -6.99813e-07
4.25981e-05 -6.99813e-07 0.0013857
0.00150536 0.000918224 -7.34548e-06
0.000918224 0.00052141 -5.29449e-06
-7.34548e-06 -5.29449e-06 0.000290795
-0.000128029 0.000337728 -4.4793e-05
0.000337728 0.000164486 -1.54242e-05
-4.4793e-05 -1.54242e-05 -0.000428477
-0.000457778 0.00105965 -0.000161682
0.00105965 0.00126153 -8.07161e-05
-0.000161682 -8.07161e-05 -0.000276558
0.00054465 0.000893525 -7.54671e-05
0.000893525 0.00024564 -6.10937e-05
-7.54671e-05 -6.10937e-05 -0.00023855
0.00307499 0.00281835 3.80661e-06
0.00281835 0.00123318 -1.44028e-05
3.80661e-06 -1.44028e-05 -0.00022545
-0.00139171 0.00277555 0.000150071
0.00277555 -0.00217155 9.1093e-05
0.000150071 9.1093e-05 -0.00272634
-0.00696287 -0.000817981 -0.00125539
-0.000817981 -0.000929277 7.46955e-05
-0.00125539 7.46955e-05 -0.00546713
-0.0105642 0.000533852 0.00087819
0.000533852 0.00709745 -6.25242e-06
0.00087819 -6.25242e-06 -0.00069311
0.00201947 0.000352147 -0.000257035
0.000352147 0.00257476 3.94854e-05
-0.000257035 3.94854e-05 -0.00013221
0.00119459 -0.00192553 -9.98044e-05
-0.00192553 0.00152636 -6.75324e-05
-9.98044e-05 -6.75324e-05 -9.98021e-06
-0.000123913 -0.00410442 0.000229112
-0.00410442 0.000368853 2.33553e-05
0.000229112 2.33553e-05 5.23509e-05
0.003107 0.00288937 0.000590364
0.00288937 0.0121893 0.000150661
0.000590364 0.000150661 0.00363827
0.005954 -0.0082796 0.00108682
-0.0082796 -0.00322641 -0.000114703
0.00108682 -0.000114703 -0.00297379
0.0244435 0.00713545 0.00208201
0.00713545 0.0135715 7.49368e-05
0.00208201 7.49368e-05 0.00614511
0.00284888 -0.00348703 -2.34033e-05
-0.00348703 0.00100848 -2.54886e-06
-2.34033e-05 -2.54886e-06 -0.000132086
0.00671076 0.00443615 0.000525905
0.00443615 0.00420687 -0.000158612
0.000525905 -0.000158612 -0.00216006
0.00811157 -0.00518883 -0.00030643
-0.00518883 -0.00626407 0.000223501
-0.00030643 0.000223501 -0.00590628
0.00267595 -0.00457098 -3.656e-05
-0.00457098 -0.00153668 4.88251e-05
-3.656e-05 4.88251e-05 0.00064563
0.00232111 -0.00259786 4.38983e-05
-0.00259786 -0.000317355 -1.59333e-05
4.38983e-05 -1.59333e-05 -0.000397626
0.0195849 -0.00142567 -0.000139732
-0.00142567 0.00130013 0.000133319
-0.000139732 0.000133319 0.00169555
0.00313185 -0.00333782 0.000139286
-0.00333782 -0.00463528 -0.000150479
0.000139286 -0.000150479 -0.00129218
0.0025781 -0.00185314 -7.38614e-05
-0.00185314 0.000896376 4.842e-05
-7.38614e-05 4.842e-05 0.000340013
0.000622244 -0.00115315 -1.55524e-05
-0.00115315 -0.000480863 1.50449e-06
-1.55524e-05 1.50449e-06 -0.000814485
0.00540444 -0.00160522 5.0072e-05
-0.00160522 0.00171758 -2.61602e-05
5.0072e-05 -2.61602e-05 0.00137749
0.000994479 -0.00132591 -1.30207e-05
-0.00132591 -0.000247032 9.09601e-06
-1.30207e-05 9.09601e-06 -0.000829101
0.0029868 -0.00152759 6.42368e-07
-0.00152759 0.000556925 -1.23787e-06
6.42368e-07 -1.23787e-06 1.58197e-05
0.00320378 -0.0012154 1.19735e-06
-0.0012154 0.000379249 -1.79545e-06
1.19735e-06 -1.79545e-06 0.000177684
0.00250397 -0.00150018 8.2485e-06
-0.00150018 0.000456577 1.08653e-05
8.2485e-06 1.08653e-05 -0.000264312
0.00275582 -0.00117359 -4.37955e-06
-0.00117359 0.000322115 1.61445e-06
-4.37955e-06 1.61445e-06 -6.79612e-05
0.00257714 -0.000815928 1.07847e-06
-0.000815928 5.46507e-06 8.62666e-08
1.07847e-06 8.62666e-08 -4.76944e-05
0.00224891 -0.00103497 7.06256e-06
-0.00103497 0.000235264 6.70734e-06
7.06256e-06 6.70734e-06 -0.000245309
0.00233615 -0.000745025 -4.73531e-08
-0.000745025 4.37854e-05 2.41046e-06
-4.73531e-08 2.41046e-06 -0.000157008
0.00250157 -0.000786294 -8.53916e-07
-0.000786294 8.84258e-05 1.38635e-06
-8.53916e-07 1.38635e-06 -1.40001e-05
0.00242789 -0.000754956 -3.38124e-06
-0.000754956 0.000132798 2.68875e-07
-3.38124e-06 2.68875e-07 -1.49609e-05
0.00240363 -0.000710204 -3.60102e-06
-0.000710204 0.000189821 2.2558e-06
-3.60102e-06 2.2558e-06 9.79818e-06
0.00241661 -0.000686839 -3.67285e-07
-0.000686839 0.000291069 -2.01598e-06
-3.67285e-07 -2.01598e-06 7.26859e-05
0.00241741 -0.00073093 -5.81553e-06
-0.00073093 0.000305717 -3.20058e-06
-5.81553e-06 -3.20058e-06 -2.79415e-07
0.00224148 -0.000691939 1.32155e-06
-0.000691939 0.000160949 1.44865e-06
1.32155e-06 1.44865e-06 -0.00012101
0.00212344 -0.000670382 2.13078e-06
-0.000670382 5.67856e-06 7.89463e-06
2.13078e-06 7.89463e-06 -0.000245895
0.00233636 -0.000873837 -6.05493e-06
-0.000873837 0.000385511 -7.23625e-06
-6.05493e-06 -7.23625e-06 -6.08484e-05
0.00200337 -0.000880571 -5.47473e-07
-0.000880571 0.000107973 9.99556e-08
-5.47473e-07 9.99556e-08 -0.000336694
0.0025081 -0.00102019 7.8526e-06
-0.00102019 0.000421942 5.52764e-06
7.8526e-06 5.52764e-06 -6.92487e-05
0.00188922 -0.000909699 -7.44419e-06
-0.000909699 0.000359686 -5.81836e-06
-7.44419e-06 -5.81836e-06 -0.000202985
0.00256307 -0.00111825 -5.67677e-07
-0.00111825 0.000717811 6.05541e-07
-5.67677e-07 6.05541e-07 9.61444e-05
0.00250962 -0.0012009 4.05236e-06
-0.0012009 0.000662881 3.65055e-06
4.05236e-06 3.65055e-06 1.71624e-05
0.000897112 -0.000338436 -1.05701e-05
-0.000338436 6.82457e-05 8.54411e-06
-1.05701e-05 8.54411e-06 -0.000219926
0.00165382 -0.000771406 7.21008e-07
-0.000771406 0.000431527 2.34969e-06
7.21008e-07 2.34969e-06 -9.91204e-05
0.00217175 -0.00107036 -1.51602e-06
-0.00107036 0.000752161 1.031e-05
-1.51602e-06 1.031e-05 8.93946e-05
0.000390597 -0.000207326 -2.23287e-05
-0.000207326 -0.000104184 2.2046e-05
-2.23287e-05 2.2046e-05 -0.000256053
0.00100214 -0.000367182 -6.53138e-06
-0.000367182 0.000263419 1.24451e-06
-6.53138e-06 1.24451e-06 -1.11996e-05
-0.00105956 -0.000567592 -7.71462e-07
-0.000567592 -0.00104891 3.30265e-07
-7.71462e-07 3.30265e-07 -0.00147036
0.00565391 0.000176631 -0.000159286
0.000176631 0.00344766 1.27208e-05
-0.000159286 1.27208e-05 0.00342728
0.000648191 -0.000172046 -3.02224e-06
-0.000172046 6.49735e-05 -1.60939e-06
-3.02224e-06 -1.60939e-06 -5.24855e-05
0.000607349 -0.00034106 1.10047e-05
-0.00034106 0.000140715 -1.23273e-06
1.10047e-05 -1.23273e-06 -0.000177377
0.00334261 0.000148235 8.53941e-05
0.000148235 0.00194214 -2.36005e-07
8.53941e-05 -2.36005e-07 0.00189823
0.000313929 -0.000140619 2.58897e-05
-0.000140619 -0.00012514 -1.40826e-05
2.58897e-05 -1.40826e-05 -0.000239405
0.00489628 0.000129593 0.000143329
0.000129593 0.00293895 -1.23842e-05
0.000143329 -1.23842e-05 0.00293113
0.00212872 0.000606501 -6.00813e-06
0.000606501 0.000861203 8.98504e-06
-6.00813e-06 8.98504e-06 0.000433172
0.000808119 0.000317918 -4.35751e-06
0.000317918 0.000174341 6.98635e-07
-4.35751e-06 6.98635e-07 -0.000118127
9.85617e-05 0.000211419 6.80528e-06
0.000211419 -0.00024408 4.16544e-06
6.80528e-06 4.16544e-06 -0.000524518
0.0019365 0.000399059 2.00973e-06
0.000399059 0.00101012 -5.70987e-06
2.00973e-06 -5.70987e-06 0.000671164
0.00122644 0.000164944 -5.89666e-07
0.000164944 0.000641195 2.73841e-07
-5.89666e-07 2.73841e-07 0.000275525
0.00129291 0.00015865 8.06998e-07
0.00015865 0.000634734 -1.81351e-05
8.06998e-07 -1.81351e-05 0.000348764
0.000723996 0.000100348 -1.53493e-05
0.000100348 0.000188046 -2.01888e-05
-1.53493e-05 -2.01888e-05 0.000108796
0.000694378 0.00014604 -1.63733e-06
0.00014604 0.000234074 4.51539e-07
-1.63733e-06 4.51539e-07 8.54296e-06
-0.0020544 -3.99265e-05 -1.44291e-05
-3.99265e-05 -0.00136821 2.41363e-05
-1.44291e-05 2.41363e-05 -0.00176483
0.00351006 -9.91035e-05 -8.13473e-05
-9.91035e-05 0.00202655 -1.02665e-05
-8.13473e-05 -1.02665e-05 0.00202742
0.000213782 5.05651e-05 9.29363e-07
5.05651e-05 -0.000125627 -3.23446e-07
9.29363e-07 -3.23446e-07 -0.000188937
0.00065323 0.000136437 -3.22241e-06
0.000136437 0.000180965 1.15096e-05
-3.22241e-06 1.15096e-05 1.45918e-05
0.00318032 -9.51703e-05 -1.08539e-05
-9.51703e-05 0.00180394 9.66004e-07
-1.08539e-05 9.66004e-07 0.00180394
0.000180651 -3.71337e-06 2.48072e-07
-3.71337e-06 -0.000149783 1.22128e-05
2.48072e-07 1.22128e-05 -0.000203101
0.00282689 -7.5809e-05 3.13114e-05
-7.5809e-05 0.00156333 6.88016e-06
3.13114e-05 6.88016e-06 0.00156696
0.00289335 -0.00150674 -0.00203518
-0.00150674 0.00456213 -3.75366e-05
-0.00203518 -3.75366e-05 0.00149017
-0.00255417 -0.00128367 -7.88443e-05
-0.00128367 0.00817903 -6.27248e-05
-7.88443e-05 -6.27248e-05 -0.00155425
0.00704975 0.000944747 -0.000631614
0.000944747 0.00440701 -0.000165279
-0.000631614 -0.000165279 0.000780989
0.000679212 0.000239045 -2.13891e-08
0.000239045 0.000202633 6.97137e-06
-2.13891e-08 6.97137e-06 -0.000206588
0.000736727 0.000279364 1.49398e-05
0.000279364 0.000470868 3.61444e-06
1.49398e-05 3.61444e-06 -0.000148571
0.00288777 0.000989931 -6.69022e-06
0.000989931 0.00146072 8.8283e-07
-6.69022e-06 8.8283e-07 0.000838067
0.00273501 0.00121611 2.61099e-05
0.00121611 0.00119891 1.83798e-05
2.61099e-05 1.83798e-05 0.000451213
0.00161237 0.000944266 -3.47156e-06
0.000944266 0.0010309 2.11942e-05
-3.47156e-06 2.11942e-05 0.000357028
0.00257761 0.000436967 4.04042e-07
0.000436967 0.00161703 2.27866e-06
4.04042e-07 2.27866e-06 0.001302
0.00147101 0.000410138 1.52345e-05
0.000410138 0.000890643 1.23255e-05
1.52345e-05 1.23255e-05 0.00044565
0.00187613 0.000908285 -6.23247e-06
0.000908285 0.00109922 9.68955e-07
-6.23247e-06 9.68955e-07 0.000468075
0.00163156 0.00125307 1.05882e-06
0.00125307 0.000422564 5.13142e-06
1.05882e-06 5.13142e-06 -0.000124271
0.00310628 0.00136109 6.32505e-06
0.00136109 0.00122895 5.00801e-05
6.32505e-06 5.00801e-05 0.000892049
0.0021379 0.00163099 4.71949e-05
0.00163099 0.00031105 -7.21968e-06
4.71949e-05 -7.21968e-06 -6.08262e-05
0.00136638 0.00102033 1.45389e-05
0.00102033 0.000467672 6.57926e-06
1.45389e-05 6.57926e-06 8.2984e-05
0.0021025 0.000881638 7.62787e-07
0.000881638 0.00140431 6.36464e-06
7.62787e-07 6.36464e-06 0.000707006
0.017777 0.00582275 -0.000164266
0.00582275 0.000556224 7.44088e-05
-0.000164266 7.44088e-05 0.00104902
0.0112103 -0.00465249 -0.000933133
-0.00465249 0.00678089 -0.000253684
-0.000933133 -0.000253684 0.00102722
0.00583181 -0.00861549 0.00178273
-0.00861549 0.0147938 0.000215167
0.00178273 0.000215167 0.00428997
0.0212799 -0.00477477 0.000795409
-0.00477477 0.00899605 0.000182444
0.000795409 0.000182444 0.000273677
0.0108428 0.00867156 -0.000239472
0.00867156 0.004595 -9.25345e-05
-0.000239472 -9.25345e-05 7.11572e-05
-0.00172252 0.00112433 -1.13568e-05
0.00112433 0.00178252 1.49148e-05
-1.13568e-05 1.49148e-05 0.000434001
0.00180215 0.00369528 -0.000137149
0.00369528 0.000678469 -6.80287e-05
-0.000137149 -6.80287e-05 0.00145607
0.0114912 0.00921831 4.0802e-05
0.00921831 -0.000394426 6.60919e-05
4.0802e-05 6.60919e-05 -0.00224209
0.00800241 0.00660233 -0.000207069
0.00660233 -0.000781652 -0.000155
-0.000207069 -0.000155 0.000508971
0.00128478 0.00178429 2.21041e-05
0.00178429 -3.89056e-05 -2.44856e-05
2.21041e-05 -2.44856e-05 -0.000475873
0.00155903 0.00142137 1.73911e-05
0.00142137 0.00044763 1.8438e-06
1.73911e-05 1.8438e-06 -1.08437e-05
0.00150436 0.00085345 -3.3293e-05
0.00085345 0.000599465 -3.31634e-05
-3.3293e-05 -3.31634e-05 0.000405517
0.0017462 0.00268639 -9.78715e-05
0.00268639 0.000364739 -5.14665e-05
-9.78715e-05 -5.14665e-05 -0.000992977
0.00187056 0.00316365 0.000125227
0.00316365 -0.000650665 6.74824e-05
0.000125227 6.74824e-05 -0.00150254
0.00667009 -0.000435265 -0.000101962
-0.000435265 -0.00595546 2.31849e-05
-0.000101962 2.31849e-05 -0.00663558
-0.000297014 -0.00276353 -6.17219e-06
-0.00276353 0.00460992 9.89941e-05
-6.17219e-06 9.89941e-05 0.000978619
-0.0143721 -0.000335917 0.000929635
-0.000335917 0.00826348 6.30709e-06
0.000929635 6.30709e-06 0.00238116
0.00268044 -0.00415603 -0.00013389
-0.00415603 0.000463273 7.24916e-05
-0.00013389 7.24916e-05 -0.000964955
0.00679468 -0.00610718 1.57838e-05
-0.00610718 -0.000551101 0.000101602
1.57838e-05 0.000101602 0.0010394
0.00742727 0.00175102 0.00207132
0.00175102 0.00641998 -0.000400277
0.00207132 -0.000400277 0.00281665
0.0145454 -0.00499678 -0.000450979
-0.00499678 -0.00195815 0.000312023
-0.000450979 0.000312023 -0.000413532
0.00228523 -0.00261496 -2.50966e-05
-0.00261496 -0.000348384 1.18106e-05
-2.50966e-05 1.18106e-05 -0.000582046
0.013136 -0.000842701 -0.00038365
-0.000842701 -0.00333928 0.00012484
-0.00038365 0.00012484 -0.0030017
0.00750976 -0.00389762 0.000109071
-0.00389762 -0.00192339 4.17358e-06
0.000109071 4.17358e-06 0.000520563
0.00297934 -0.00202577 4.68502e-05
-0.00202577 -0.000950107 -6.03676e-05
4.68502e-05 -6.03676e-05 -0.000502347
0.00328301 -0.00155431 9.42385e-05
-0.00155431 -0.00382984 -2.14382e-05
9.42385e-05 -2.14382e-05 -0.000611132
-0.000211027 -0.00106364 -1.11594e-05
-0.00106364 -0.000981472 2.10366e-05
-1.11594e-05 2.10366e-05 -0.00119357
0.00165608 -0.00117756 -2.40917e-05
-0.00117756 -0.000431998 6.14609e-06
-2.40917e-05 6.14609e-06 -0.000443881
0.00419688 -0.00116878 4.56475e-05
-0.00116878 0.000740173 -2.24147e-05
4.56475e-05 -2.24147e-05 0.000853388
0.00240975 -0.00144262 -9.70934e-06
-0.00144262 0.000273121 9.1941e-06
-9.70934e-06 9.1941e-06 -0.000240972
0.00291298 -0.00119954 -4.18589e-06
-0.00119954 0.000212325 1.84973e-06
-4.18589e-06 1.84973e-06 8.99327e-06
0.00293075 -0.000915666 5.16901e-06
-0.000915666 1.34322e-05 -1.31449e-06
5.16901e-06 -1.31449e-06 6.78417e-05
0.00243111 -0.00111615 -1.06728e-05
-0.00111615 0.000148747 8.43917e-06
-1.06728e-05 8.43917e-06 -0.000216136
0.00246657 -0.000806552 4.46077e-08
-0.000806552 -6.66932e-05 1.72914e-06
4.46077e-08 1.72914e-06 -0.000117437
0.00266879 -0.000802379 -3.79778e-07
-0.000802379 2.68134e-05 -1.26417e-07
-3.79778e-07 -1.26417e-07 3.50309e-05
0.0022631 -0.000726774 1.01366e-06
-0.000726774 2.07362e-06 5.04398e-06
1.01366e-06 5.04398e-06 -0.000185633
0.00247681 -0.000777569 -1.00865e-07
-0.000777569 8.61176e-05 7.34703e-07
-1.00865e-07 7.34703e-07 -1.75772e-05
0.00260858 -0.000782632 -1.50425e-06
-0.000782632 0.000100278 1.44006e-07
-1.50425e-06 1.44006e-07 2.05843e-05
0.00240774 -0.000759323 -5.14502e-06
-0.000759323 0.000113879 6.2569e-07
-5.14502e-06 6.2569e-07 -2.63221e-05
0.00238322 -0.000712462 -7.86033e-07
-0.000712462 0.000153758 -6.26497e-07
-7.86033e-07 -6.26497e-07 -4.93929e-06
0.00238244 -0.000710452 -2.16421e-07
-0.000710452 0.000165958 3.77738e-06
-2.16421e-07 3.77738e-06 -6.18785e-06
0.00241633 -0.000682971 8.90868e-07
-0.000682971 0.000291048 -5.6001e-07
8.90868e-07 -5.6001e-07 7.32503e-05
0.00236307 -0.000689379 -2.34745e-06
-0.000689379 0.000295226 -9.89627e-07
-2.34745e-06 -9.89627e-07 4.56192e-05
0.00243648 -0.000737493 -1.96031e-06
-0.000737493 0.000384223 -6.81078e-06
-1.96031e-06 -6.81078e-06 5.543e-05
0.00247333 -0.000738664 -5.11727e-07
-0.000738664 0.000343033 1.81174e-07
-5.11727e-07 1.81174e-07 3.44235e-05
0.00250396 -0.000707716 7.35993e-06
-0.000707716 0.000345749 4.67895e-06
7.35993e-06 4.67895e-06 6.17813e-05
0.0020207 -0.000819345 -7.95434e-06
-0.000819345 0.000277785 -3.78094e-06
-7.95434e-06 -3.78094e-06 -0.000193295
0.00224875 -0.000876121 -2.55644e-06
-0.000876121 0.000313809 -1.05026e-06
-2.55644e-06 -1.05026e-06 -0.000139184
0.0019235 -0.000884846 4.51001e-06
-0.000884846 3.96088e-05 5.45546e-06
4.51001e-06 5.45546e-06 -0.000409473
0.00170413 -0.000540616 -1.73745e-05
-0.000540616 0.000468759 1.34861e-05
-1.73745e-05 1.34861e-05 8.69044e-05
0.00204482 -0.000922038 -1.25022e-06
-0.000922038 0.000469957 1.30347e-06
-1.25022e-06 1.30347e-06 -9.27399e-05
0.00270111 -0.00113819 1.98067e-06
-0.00113819 0.000785805 7.69436e-06
1.98067e-06 7.69436e-06 0.000159424
0.000471779 -0.000258156 -1.97404e-05
-0.000258156 -8.42111e-05 2.58829e-05
-1.97404e-05 2.58829e-05 -0.000268337
0.000623098 -0.000330341 2.42743e-06
-0.000330341 -0.000119555 -2.71956e-06
2.42743e-06 -2.71956e-06 -0.000416895
0.00190804 -0.00079034 6.91532e-06
-0.00079034 0.000582088 4.17531e-06
6.91532e-06 4.17531e-06 5.491e-05
0.00635999 7.67434e-05 -0.000215379
7.67434e-05 0.00387865 1.74473e-05
-0.000215379 1.74473e-05 0.00387646
0.000393114 -0.000215949 -5.11614e-06
-0.000215949 -9.47981e-05 -5.93806e-07
-5.11614e-06 -5.93806e-07 -0.0002555
0.00167031 -0.000516986 9.51173e-06
-0.000516986 0.000766504 -3.86571e-06
9.51173e-06 -3.86571e-06 0.000431055
0.0057809 0.000152856 8.07539e-06
0.000152856 0.0035334 -3.27557e-06
8.07539e-06 -3.27557e-06 0.00351496
0.00075785 -0.000197944 2.48639e-05
-0.000197944 0.000133474 -1.7703e-05
2.48639e-05 -1.7703e-05 1.02138e-05
0.00556173 0.000183736 0.000143168
0.000183736 0.00340059 -1.77111e-05
0.000143168 -1.77111e-05 0.00337582
0.0029148 0.00110789 -6.53399e-06
0.00110789 0.00130766 1.17336e-05
-6.53399e-06 1.17336e-05 0.000616566
0.00165247 0.000648882 -2.29838e-06
0.000648882 0.000602382 8.21284e-07
-2.29838e-06 8.21284e-07 0.000129736
-2.33747e-05 0.000334415 1.92223e-06
0.000334415 -0.000342395 8.20298e-07
1.92223e-06 8.20298e-07 -0.000680946
-0.00136718 0.000121149 3.11781e-06
0.000121149 -0.00115413 -1.51081e-05
3.11781e-06 -1.51081e-05 -0.00143457
2.15101e-05 0.000361078 5.39391e-06
0.000361078 -0.000299216 -3.04974e-06
5.39391e-06 -3.04974e-06 -0.000571305
-0.000462438 0.000421288 -1.04544e-05
0.000421288 -0.000607036 -8.76448e-06
-1.04544e-05 -8.76448e-06 -0.000872439
-0.000494061 9.00326e-05 -7.71193e-06
9.00326e-05 -0.00045198 2.90286e-06
-7.71193e-06 2.90286e-06 -0.000836647
0.000669582 0.000257182 3.25666e-06
0.000257182 0.000220476 5.07512e-07
3.25666e-06 5.07512e-07 -6.35407e-05
0.000854253 0.000144429 -2.08387e-05
0.000144429 0.000256775 -2.30029e-05
-2.08387e-05 -2.30029e-05 0.000144105
0.00400011 -0.000119135 -0.000103788
-0.000119135 0.00236195 -1.53363e-05
-0.000103788 -1.53363e-05 0.00235697
0.000499275 6.23501e-05 4.64783e-06
6.23501e-05 5.84669e-05 -2.42362e-07
4.64783e-06 -2.42362e-07 -2.4197e-05
-0.000250885 2.91453e-05 -5.45964e-06
2.91453e-05 -0.000335379 1.5104e-05
-5.45964e-06 1.5104e-05 -0.000582747
0.0036041 -0.000122705 -1.29948e-05
-0.000122705 0.00209333 1.44466e-06
-1.29948e-05 1.44466e-06 0.00208731
0.000336336 -7.83642e-05 -1.26354e-05
-7.83642e-05 -2.82602e-05 1.65962e-05
-1.26354e-05 1.65962e-05 -0.00010158
0.0031126 -9.80927e-05 4.22088e-05
-9.80927e-05 0.00176061 7.55589e-06
4.22088e-05 7.55589e-06 0.00175925
0.0162755 0.00101236 0.000787242
0.00101236 -3.65329e-05 0.000171979
0.000787242 0.000171979 0.00123201
0.00288565 -0.00607862 -0.00117432
-0.00607862 0.000278512 -6.22428e-05
-0.00117432 -6.22428e-05 -0.00611923
-0.00606528 0.00108072 -0.000294696
0.00108072 0.00772265 -9.55423e-05
-0.000294696 -9.55423e-05 -0.00126572
0.000466778 0.000152449 7.13294e-06
0.000152449 0.000218712 -3.11007e-05
7.13294e-06 -3.11007e-05 -0.000410336
0.000529943 0.000697399 -8.15694e-06
0.000697399 2.11506e-05 -1.49857e-05
-8.15694e-06 -1.49857e-05 -0.000593703
0.0019896 0.000903498 -1.67865e-05
0.000903498 0.00110225 -9.62376e-06
-1.67865e-05 -9.62376e-06 0.000459848
0.00228558 0.00115524 1.9948e-06
0.00115524 0.000954705 3.21314e-08
1.9948e-06 3.21314e-08 0.000218659
0.00194609 0.00107662 2.5356e-05
0.00107662 0.000451127 2.91688e-05
2.5356e-05 2.91688e-05 -0.000164543
0.000549859 0.0010651 3.18423e-05
0.0010651 -0.00020446 1.47276e-05
3.18423e-05 1.47276e-05 -0.000744611
0.00166892 0.00080829 -1.37164e-05
0.00080829 0.00095485 -8.84107e-06
-1.37164e-05 -8.84107e-06 0.000349825
0.00160188 0.00125317 2.6685e-06
0.00125317 0.000368103 5.74261e-06
2.6685e-06 5.74261e-06 -0.000179843
0.00223802 0.00122886 2.96044e-05
0.00122886 0.000827791 4.653e-06
2.96044e-05 4.653e-06 0.000404378
0.0033505 0.00134866 1.62526e-05
0.00134866 0.001322 1.06544e-05
1.62526e-05 1.06544e-05 0.000749001
0.00187228 0.00134337 1.29874e-05
0.00134337 0.000263423 6.16317e-06
1.29874e-05 6.16317e-06 -5.87541e-05
0.00239371 0.00160544 2.96925e-05
0.00160544 0.000510165 1.12507e-05
2.96925e-05 1.12507e-05 -7.77064e-05
0.0020025 0.00158255 1.40408e-05
0.00158255 0.000280766 1.17778e-06
1.40408e-05 1.17778e-06 -6.86018e-05
0.00287485 0.00114403 -4.13652e-05
0.00114403 0.00130263 -9.99331e-05
-4.13652e-05 -9.99331e-05 0.000881416
0.00395623 0.00316938 3.18051e-05
0.00316938 -0.0045301 6.16272e-05
3.18051e-05 6.16272e-05 -0.000727416
0.0136477 0.00669935 0.000483881
0.00669935 -0.00273067 0.000270976
0.000483881 0.000270976 -0.00238914
0.018234 -0.00833221 0.00127387
-0.00833221 0.00950547 -0.000245047
0.00127387 -0.000245047 0.00154528
0.00636473 0.0106879 0.00121063
0.0106879 -0.00220923 0.000485134
0.00121063 0.000485134 -0.00482537
-0.000969024 0.00261862 -2.87936e-05
0.00261862 0.000122631 3.61687e-05
-2.87936e-05 3.61687e-05 0.000559838
0.00360737 0.00394454 -0.000103118
0.00394454 -0.00146124 -7.84132e-05
-0.000103118 -7.84132e-05 0.00049279
0.00737528 0.00351278 5.39901e-05
0.00351278 0.00100442 2.992e-05
5.39901e-05 2.992e-05 0.000835298
0.00630268 0.002723 2.55896e-05
0.002723 0.00222487 1.30775e-05
2.55896e-05 1.30775e-05 0.00153499
0.00121234 0.00131601 -4.52902e-05
0.00131601 0.000241964 2.92047e-07
-4.52902e-05 2.92047e-07 -0.000169556
0.0100761 0.00442101 -0.000220106
0.00442101 0.00319846 1.64343e-06
-0.000220106 1.64343e-06 0.00186982
0.00625221 -0.00120163 5.91282e-05
-0.00120163 -0.00200177 5.31187e-05
5.91282e-05 5.31187e-05 0.000651833
0.0131353 -0.000535847 -5.1138e-05
-0.000535847 -0.00122726 -5.0567e-05
-5.1138e-05 -5.0567e-05 0.000212743
-0.0110965 -0.00470224 0.00159328
-0.00470224 -0.00153124 -4.76856e-05
0.00159328 -4.76856e-05 -0.00673773
0.00244635 -0.00248076 -0.000143854
-0.00248076 -0.000166523 6.13759e-05
-0.000143854 6.13759e-05 -0.000304329
0.00807077 -0.00441942 -0.000101283
-0.00441942 -0.00226185 0.00015833
-0.000101283 0.00015833 0.000463238
0.00278549 -0.000591709 -0.000513281
-0.000591709 -0.00883616 1.42651e-05
-0.000513281 1.42651e-05 -0.0081321
0.00364664 -0.00193777 5.46441e-05
-0.00193777 -0.00057397 -1.3953e-06
5.46441e-05 -1.3953e-06 0.000120168
0.00509872 -0.00162487 -0.000101099
-0.00162487 -0.00250178 2.05042e-06
-0.000101099 2.05042e-06 1.33397e-05
0.00731147 -0.00152373 7.35908e-05
-0.00152373 0.00148942 -5.3893e-05
7.35908e-05 -5.3893e-05 0.00220777
0.00756223 -0.00102315 0.00016851
-0.00102315 0.0010472 1.25236e-05
0.00016851 1.25236e-05 0.00225006
-0.00124044 -0.000886154 2.24183e-05
-0.000886154 -0.00222424 1.27454e-05
2.24183e-05 1.27454e-05 -0.00187998
0.00238951 -0.000999755 -1.26018e-05
-0.000999755 -0.000353171 3.87072e-06
-1.26018e-05 3.87072e-06 -4.64859e-05
0.00274233 -0.00072667 2.95626e-05
-0.00072667 -0.000308539 -1.30492e-05
2.95626e-05 -1.30492e-05 8.50031e-05
0.00260016 -0.00118871 -3.31835e-06
-0.00118871 2.89933e-05 4.25081e-06
-3.31835e-06 4.25081e-06 -0.000181021
0.00290372 -0.000912261 7.41191e-07
-0.000912261 9.69366e-06 1.18256e-06
7.41191e-07 1.18256e-06 6.19637e-05
0.00281677 -0.000758933 -4.23756e-10
-0.000758933 -3.42984e-05 -1.45323e-06
-4.23756e-10 -1.45323e-06 1.6026e-05
0.00236663 -0.000802343 7.74455e-07
-0.000802343 -0.000136973 3.14421e-06
7.74455e-07 3.14421e-06 -0.000187922
0.00263491 -0.000799034 8.52717e-08
-0.000799034 1.96436e-05 3.51523e-07
8.52717e-08 3.51523e-07 1.69376e-05
0.00257473 -0.000674993 -1.49693e-06
-0.000674993 -1.30704e-05 -9.31294e-07
-1.49693e-06 -9.31294e-07 -2.65452e-05
0.00245465 -0.000771474 7.47592e-07
-0.000771474 8.11654e-05 8.26656e-07
7.47592e-07 8.26656e-07 -2.42807e-05
0.00260531 -0.000780691 -9.39902e-08
-0.000780691 0.000125719 -1.79996e-07
-9.39902e-08 -1.79996e-07 3.96756e-05
0.00249292 -0.000676738 1.34086e-06
-0.000676738 0.000109184 -8.50759e-07
1.34086e-06 -8.50759e-07 2.1378e-05
0.00238799 -0.000763969 -3.21251e-06
-0.000763969 9.34057e-05 6.87061e-07
-3.21251e-06 6.87061e-07 -3.90981e-05
0.00235559 -0.000714402 -1.54714e-06
-0.000714402 0.000130305 1.73294e-07
-1.54714e-06 1.73294e-07 -2.3528e-05
0.00238406 -0.000668223 -2.07522e-06
-0.000668223 0.000230752 2.56444e-07
-2.07522e-06 2.56444e-07 3.80587e-05
0.00240711 -0.000677042 2.75445e-06
-0.000677042 0.000285143 1.30403e-06
2.75445e-06 1.30403e-06 6.88494e-05
0.00234298 -0.000681136 1.36465e-07
-0.000681136 0.000278943 5.50881e-08
1.36465e-07 5.50881e-08 2.99803e-05
0.002415 -0.000686878 -9.92854e-07
-0.000686878 0.00035519 -2.21963e-06
-9.92854e-07 -2.21963e-06 7.73186e-05
0.00213072 -0.00068417 -4.79658e-06
-0.00068417 0.000287381 -5.15786e-06
-4.79658e-06 -5.15786e-06 -7.24702e-05
0.00234609 -0.000735981 -7.53694e-07
-0.000735981 0.000320068 -1.72343e-06
-7.53694e-07 -1.72343e-06 -1.64707e-05
0.00253458 -0.000747698 4.20944e-06
-0.000747698 0.00038458 3.98705e-06
4.20944e-06 3.98705e-06 7.27481e-05
0.00135859 -0.000554181 -2.27355e-05
-0.000554181 9.30036e-05 4.80992e-06
-2.27355e-05 4.80992e-06 -0.000294087
0.00225187 -0.000837397 -9.65855e-07
-0.000837397 0.000442395 4.05332e-07
-9.65855e-07 4.05332e-07 -3.16852e-05
0.00220234 -0.000883161 1.23546e-06
-0.000883161 0.000268996 5.27911e-06
1.23546e-06 5.27911e-06 -0.000191944
0.000512713 -0.000281814 -2.09389e-05
-0.000281814 -8.99056e-05 2.59002e-05
-2.09389e-05 2.59002e-05 -0.00027786
0.000994607 -0.0004916 8.15312e-06
-0.0004916 3.44053e-05 1.26371e-06
8.15312e-06 1.26371e-06 -0.000345562
0.00228594 -0.000942585 6.69476e-06
-0.000942585 0.000639507 5.74909e-06
6.69476e-06 5.74909e-06 7.45803e-05
0.00817344 -2.08117e-05 -0.000319755
-2.08117e-05 0.00501269 2.84911e-05
-0.000319755 2.84911e-05 0.00502203
0.000199999 -0.000271059 3.16436e-06
-0.000271059 -0.000253794 2.0498e-08
3.16436e-06 2.0498e-08 -0.000439813
0.000324652 -0.000309274 7.92157e-07
-0.000309274 -0.000317988 -8.03792e-06
7.92157e-07 -8.03792e-06 -0.000624466
0.00708303 3.48792e-05 -1.2047e-05
3.48792e-05 0.0043475 -1.81986e-06
-1.2047e-05 -1.81986e-06 0.00434689
0.000485626 -0.000200279 1.2946e-05
-0.000200279 -3.62227e-05 -2.31928e-05
1.2946e-05 -2.31928e-05 -0.000202008
0.00581255 8.99444e-05 0.00022853
8.99444e-05 0.00356023 -3.17769e-05
0.00022853 -3.17769e-05 0.00354873
0.00227854 0.00102397 -1.69643e-05
0.00102397 0.000670761 1.45725e-05
-1.69643e-05 1.45725e-05 6.20406e-05
0.00220523 0.00100711 -1.63215e-06
0.00100711 0.000844957 -5.28652e-07
-1.63215e-06 -5.28652e-07 0.000188156
0.00117442 0.000682764 -1.01487e-05
0.000682764 0.000245659 7.20341e-06
-1.01487e-05 7.20341e-06 -0.000265337
0.000508962 0.000579484 1.0756e-05
0.000579484 -0.000125553 -6.68346e-06
1.0756e-05 -6.68346e-06 -0.000602728
0.00118925 0.000374411 -3.89025e-06
0.000374411 0.000340309 -3.06433e-06
-3.89025e-06 -3.06433e-06 3.21399e-06
-0.00026666 0.000241244 -6.12133e-06
0.000241244 -0.000500749 -2.61864e-06
-6.12133e-06 -2.61864e-06 -0.000806349
0.00242371 0.00025348 1.21841e-06
0.00025348 0.00122896 -4.1725e-06
1.21841e-06 -4.1725e-06 0.000969519
0.00116058 0.000215891 3.12211e-06
0.000215891 0.000464685 -1.27963e-06
3.12211e-06 -1.27963e-06 0.00017965
0.000419886 0.000201733 -3.1513e-05
0.000201733 -7.68709e-05 -2.27503e-05
-3.1513e-05 -2.27503e-05 -0.000204707
0.000459719 0.000203791 -3.70239e-07
0.000203791 9.79049e-05 2.00793e-05
-3.70239e-07 2.00793e-05 -0.000187844
0.000426624 0.000133291 -8.33719e-07
0.000133291 -1.04524e-05 -4.97069e-07
-8.33719e-07 -4.97069e-07 -0.000117286
0.00507278 -0.000131274 -0.00016432
-0.000131274 0.00308272 -2.25886e-05
-0.00016432 -2.25886e-05 0.00306953
0.00387612 -0.000141371 -1.41287e-05
-0.000141371 0.00228556 1.53507e-06
-1.41287e-05 1.53507e-06 0.0022742
-6.02705e-06 0.000109869 1.66754e-05
0.000109869 -0.000268803 1.92774e-05
1.66754e-05 1.92774e-05 -0.000342898
0.00343778 -0.000126258 5.1616e-05
-0.000126258 0.00198552 8.62084e-06
5.1616e-05 8.62084e-06 0.00197761
0.00141324 0.000719374 0.000146476
0.000719374 -0.003526 3.49575e-05
0.000146476 3.49575e-05 -0.000645559
0.00518975 -0.000201421 0.00029434
-0.000201421 -0.00722676 0.000176154
0.00029434 0.000176154 -0.0075023
0.0180742 -0.00691084 -0.000374294
-0.00691084 0.0107772 -0.000144493
-0.000374294 -0.000144493 0.00374582
0.00189887 0.000912873 1.42581e-05
0.000912873 0.000184429 1.45687e-05
1.42581e-05 1.45687e-05 -0.000277573
0.00274351 0.00095321 -2.2355e-05
0.00095321 0.00138979 -1.94846e-05
-2.2355e-05 -1.94846e-05 0.00076753
0.00166951 0.0010789 -1.23723e-05
0.0010789 0.000598515 -2.28254e-05
-1.23723e-05 -2.28254e-05 -0.000123449
0.00171406 0.00120672 1.78321e-06
0.00120672 0.000503874 2.27081e-06
1.78321e-06 2.27081e-06 -8.44864e-05
0.00220417 0.00110897 7.965e-07
0.00110897 0.000636728 6.31033e-06
7.965e-07 6.31033e-06 8.11222e-06
0.00267389 0.00126823 2.59583e-05
0.00126823 0.000821148 2.0382e-05
2.59583e-05 2.0382e-05 0.000243671
0.00149289 0.0012227 -2.45061e-05
0.0012227 0.000283177 -8.3681e-06
-2.45061e-05 -8.3681e-06 -0.00027386
0.000855562 0.000985312 4.93322e-06
0.000985312 8.62471e-05 -4.89794e-05
4.93322e-06 -4.89794e-05 -0.000292915
0.00213423 0.00131999 2.844e-06
0.00131999 0.000510771 -9.7023e-07
2.844e-06 -9.7023e-07 -1.18306e-05
0.000963549 0.00126363 1.52077e-05
0.00126363 -0.000319507 -3.59339e-05
1.52077e-05 -3.59339e-05 -0.000512377
0.00255001 0.00127172 2.91242e-05
0.00127172 0.000589597 3.67136e-07
2.91242e-05 3.67136e-07 -3.55512e-06
0.00259214 0.00114099 4.19853e-05
0.00114099 0.000485933 4.94004e-05
4.19853e-05 4.94004e-05 0.000271441
0.00117234 0.00135814 -1.17604e-05
0.00135814 -0.000120345 -1.21813e-05
-1.17604e-05 -1.21813e-05 -0.000576258
0.00188774 0.0015065 -4.75805e-05
0.0015065 0.000243436 -7.4148e-06
-4.75805e-05 -7.4148e-06 -4.55689e-05
0.00293037 0.00152581 2.28694e-05
0.00152581 -0.00156454 4.82265e-05
2.28694e-05 4.82265e-05 -0.000206472
0.00639041 0.00350038 -0.000140591
0.00350038 -0.00314074 -5.94642e-05
-0.000140591 -5.94642e-05 0.000493316
0.0039152 0.00478344 0.00094379
0.00478344 -0.00898826 0.00027712
0.00094379 0.00027712 -0.00837503
0.00307115 0.00355631 -0.00029788
0.00355631 -0.000571042 -0.000143415
-0.00029788 -0.000143415 0.0007784
0.0061366 0.00293391 -3.62655e-05
0.00293391 0.000887817 -1.08472e-05
-3.62655e-05 -1.08472e-05 0.000860265
0.00788377 0.00305697 -0.000237307
0.00305697 0.00284297 -6.72635e-05
-0.000237307 -6.72635e-05 0.00207507
0.00452577 -0.000216219 -3.90359e-05
-0.000216219 -0.000601274 -2.40567e-05
-3.90359e-05 -2.40567e-05 0.000283308
0.000766805 -0.000732952 0.000138634
-0.000732952 -0.00264763 3.47986e-05
0.000138634 3.47986e-05 -0.000248926
0.00800976 -4.90042e-06 0.000288365
-4.90042e-06 -0.00644253 -2.54834e-05
0.000288365 -2.54834e-05 -0.0067059
0.00281402 -0.00170553 -8.85931e-05
-0.00170553 -0.000924186 0.000111305
-8.85931e-05 0.000111305 -8.22497e-05
0.00597288 -0.00162622 -0.000239881
-0.00162622 -0.00237743 7.0725e-05
-0.000239881 7.0725e-05 -0.000233663
0.00357212 -0.00121061 -2.62908e-05
-0.00121061 -0.000716336 1.23788e-05
-2.62908e-05 1.23788e-05 0.000233949
0.00477993 -0.00087596 -4.49537e-05
-0.00087596 -0.000337588 9.59671e-07
-4.49537e-05 9.59671e-07 0.000672669
0.00484394 -0.00062313 0.00011583
-0.00062313 0.000895239 -2.1788e-05
0.00011583 -2.1788e-05 0.0012977
0.00292962 -0.000126675 5.23955e-05
-0.000126675 -4.33436e-05 4.54584e-06
5.23955e-05 4.54584e-06 0.000234392
0.000680497 -0.000807079 -1.64514e-05
-0.000807079 -0.00131831 1.65445e-05
-1.64514e-05 1.65445e-05 -0.000843253
0.00269655 -0.000755817 -4.33745e-06
-0.000755817 -0.000321103 5.50213e-07
-4.33745e-06 5.50213e-07 3.04167e-05
0.00274344 -0.000556133 4.08576e-06
-0.000556133 -0.000278862 -2.49071e-06
4.08576e-06 -2.49071e-06 1.79491e-05
0.00286922 -0.0009031 -3.89018e-06
-0.0009031 8.87217e-06 2.97988e-06
-3.89018e-06 2.97988e-06 6.07096e-05
0.00281878 -0.000733304 -2.63912e-07
-0.000733304 1.88815e-06 -4.26544e-07
-2.63912e-07 -4.26544e-07 6.53689e-05
0.00259436 -0.000544511 -1.28335e-06
-0.000544511 -0.00012804 -8.40277e-07
-1.28335e-06 -8.40277e-07 -3.25442e-05
0.00260017 -0.000793312 -7.98391e-07
-0.000793312 1.55906e-05 5.66026e-07
-7.98391e-07 5.66026e-07 2.74433e-06
0.00256893 -0.000676993 -6.28351e-07
-0.000676993 -7.53068e-08 -5.83682e-08
-6.28351e-07 -5.83682e-08 -1.15441e-05
0.00245086 -0.000556572 5.95887e-07
-0.000556572 2.47721e-05 -6.6567e-07
5.95887e-07 -6.6567e-07 -5.92807e-06
0.00260115 -0.00077747 -2.83028e-07
-0.00077747 0.000152088 -1.44416e-07
-2.83028e-07 -1.44416e-07 5.97253e-05
0.0025018 -0.000678184 1.01944e-06
-0.000678184 0.000112802 -1.86683e-07
1.01944e-06 -1.86683e-07 2.41425e-05
0.00236971 -0.000601803 -4.00063e-07
-0.000601803 0.00012911 -6.12627e-08
-4.00063e-07 -6.12627e-08 1.16207e-05
0.00232757 -0.00071682 -1.87759e-06
-0.00071682 0.000106947 1.22611e-06
-1.87759e-06 1.22611e-06 -4.22494e-05
0.00231993 -0.000667204 -1.04034e-06
-0.000667204 0.000179822 4.64904e-07
-1.04034e-06 4.64904e-07 -8.95629e-06
0.00243739 -0.000648955 -1.35944e-06
-0.000648955 0.000312325 -1.36064e-06
-1.35944e-06 -1.36064e-06 8.21343e-05
0.00232982 -0.000673545 2.8635e-06
-0.000673545 0.000266887 1.54208e-06
2.8635e-06 1.54208e-06 1.83962e-05
0.00235536 -0.000682487 -4.65179e-07
-0.000682487 0.000313703 4.45166e-07
-4.65179e-07 4.45166e-07 3.87937e-05
0.00225721 -0.000626238 -3.22674e-06
-0.000626238 0.000336793 -2.71241e-06
-3.22674e-06 -2.71241e-06 3.20021e-05
0.00148183 -0.000487916 -2.0089e-05
-0.000487916 8.83798e-05 5.88399e-06
-2.0089e-05 5.88399e-06 -0.000239969
0.00210858 -0.000681759 -2.73164e-07
-0.000681759 0.00027961 -1.53962e-06
-2.73164e-07 -1.53962e-06 -8.5324e-05
0.00221903 -0.000731357 9.04097e-07
-0.000731357 0.000230283 3.62825e-06
9.04097e-07 3.62825e-06 -0.000113326
0.00012513 -0.000281345 -2.14805e-05
-0.000281345 -0.000358319 2.30702e-05
-2.14805e-05 2.30702e-05 -0.00055675
0.00135147 -0.000543832 -7.38385e-08
-0.000543832 0.000100897 -9.89959e-08
-7.38385e-08 -9.89959e-08 -0.000280503
0.00241398 -0.000849243 5.08023e-06
-0.000849243 0.00055875 4.9778e-06
5.08023e-06 4.9778e-06 8.31781e-05
0.00904401 -8.91838e-05 -0.000393707
-8.91838e-05 0.00553861 3.70701e-05
-0.000393707 3.70701e-05 0.00555926
6.11964e-05 -0.00029398 1.15975e-06
-0.00029398 -0.000366277 2.14115e-06
1.15975e-06 2.14115e-06 -0.000567028
0.000476719 -0.000462343 1.59707e-05
-0.000462343 -0.000290817 -5.05785e-06
1.59707e-05 -5.05785e-06 -0.000670626
0.00853723 -5.74849e-05 -9.26381e-06
-5.74849e-05 0.00524905 1.15689e-06
-9.26381e-06 1.15689e-06 0.00526208
-0.000211483 -0.000307666 2.24144e-05
-0.000307666 -0.000508929 -2.78147e-05
2.24144e-05 -2.78147e-05 -0.000697613
0.00780357 1.63369e-05 0.00032746
1.63369e-05 0.00482483 -4.17759e-05
0.00032746 -4.17759e-05 0.00482339
0.0018973 0.000849941 -7.80045e-06
0.000849941 0.000230816 1.37145e-05
-7.80045e-06 1.37145e-05 -0.000237911
0.00219519 0.00100429 -1.85508e-06
0.00100429 0.00062537 1.70836e-06
-1.85508e-06 1.70836e-06 2.26537e-05
0.00200267 0.000853178 -7.00574e-06
0.000853178 0.000544378 1.12801e-05
-7.00574e-06 1.12801e-05 -9.68185e-07
0.00186811 0.000945359 5.31259e-06
0.000945359 0.000625736 -1.08317e-05
5.31259e-06 -1.08317e-05 -6.22345e-06
0.001597 0.00071322 -2.58577e-06
0.00071322 0.000479005 -1.10313e-06
-2.58577e-06 -1.10313e-06 -3.46647e-05
0.000240313 0.000342728 -1.33212e-05
0.000342728 -0.000279402 -1.57494e-06
-1.33212e-05 -1.57494e-06 -0.000612977
0.0020109 0.000428933 3.56752e-06
0.000428933 0.000801637 -7.49927e-06
3.56752e-06 -7.49927e-06 0.000455407
0.000406716 0.000293945 3.31198e-06
0.000293945 -0.000109874 -1.07895e-06
3.31198e-06 -1.07895e-06 -0.00038323
0.000346294 0.000241129 -3.4018e-05
0.000241129 -0.000170351 -2.4048e-05
-3.4018e-05 -2.4048e-05 -0.000301542
0.00110873 0.000253587 2.85114e-06
0.000253587 0.000417518 9.39803e-06
2.85114e-06 9.39803e-06 0.000135901
0.000678628 0.000199025 -1.21356e-06
0.000199025 9.06806e-05 -1.18884e-06
-1.21356e-06 -1.18884e-06 -2.99366e-05
0.00654833 -0.000197307 -0.000199966
-0.000197307 0.00407469 -3.0195e-05
-0.000199966 -3.0195e-05 0.0040374
0.000318217 0.000134591 2.05553e-05
0.000134591 -7.24494e-05 2.31815e-05
2.05553e-05 2.31815e-05 -0.000176452
0.00467774 -0.000187285 -1.94576e-05
-0.000187285 0.00283993 2.11026e-06
-1.94576e-05 2.11026e-06 0.00281135
0.00389949 -0.00016123 6.7436e-05
-0.00016123 0.00230469 1.08137e-05
6.7436e-05 1.08137e-05 0.00228744
0.000522681 0.000577272 2.85755e-05
0.000577272 -0.00310127 2.05261e-05
2.85755e-05 2.05261e-05 -0.00140646
0.00549174 0.000577475 7.51549e-05
0.000577475 -0.00220725 3.41972e-05
7.51549e-05 3.41972e-05 0.000752277
0.0175595 0.000966952 3.38315e-05
0.000966952 0.000174659 0.000139426
3.38315e-05 0.000139426 0.00183539
0.0023268 0.00105275 2.31632e-06
0.00105275 0.000367949 7.87513e-06
2.31632e-06 7.87513e-06 -0.000102257
0.00237177 0.000957302 1.88899e-06
0.000957302 0.000247596 7.92714e-06
1.88899e-06 7.92714e-06 -0.000134288
0.00191509 0.000920063 -7.46733e-07
0.000920063 0.000197038 -4.89698e-06
-7.46733e-07 -4.89698e-06 -0.000262898
0.00285789 0.00133981 -9.11662e-06
0.00133981 0.00119475 -4.04564e-06
-9.11662e-06 -4.04564e-06 0.000565447
0.00234799 0.00112194 -1.7366e-05
0.00112194 0.000750362 -1.62388e-05
-1.7366e-05 -1.62388e-05 0.000115447
0.00258195 0.00129937 6.92227e-06
0.00129937 0.00071348 1.83433e-06
6.92227e-06 1.83433e-06 0.000134521
0.00276955 0.00122234 -8.50536e-06
0.00122234 0.000347371 1.83368e-07
-8.50536e-06 1.83368e-07 -5.35207e-05
0.00165928 0.00136329 -8.49735e-06
0.00136329 0.000152099 -1.03032e-05
-8.49735e-06 -1.03032e-05 -0.00035879
0.00129839 0.00135374 -3.26934e-05
0.00135374 -0.000123906 0.000105131
-3.26934e-05 0.000105131 -0.0003742
0.00283727 0.0013678 3.69454e-06
0.0013678 0.000712315 -5.787e-06
3.69454e-06 -5.787e-06 0.000106289
0.00334616 0.00119254 2.6e-06
0.00119254 0.000545425 1.59655e-05
2.6e-06 1.59655e-05 0.000309782
0.00240695 0.000580361 7.31218e-05
0.000580361 0.000160333 7.99259e-06
7.31218e-05 7.99259e-06 0.000379793
0.000338164 0.000884507 4.70068e-06
0.000884507 -0.000692753 -1.66582e-05
4.70068e-06 -1.66582e-05 -0.00085947
0.00146034 0.00133888 -5.60068e-05
0.00133888 7.90077e-05 -8.77974e-07
-5.60068e-05 -8.77974e-07 -0.000374242
0.00429659 0.00167122 3.66251e-05
0.00167122 -0.000789827 1.60727e-05
3.66251e-05 1.60727e-05 0.000445526
0.0106727 0.0036216 -9.59581e-05
0.0036216 -0.000650508 -6.11944e-05
-9.59581e-05 -6.11944e-05 0.00210956
0.00607154 0.00248689 -9.05274e-05
0.00248689 0.00139596 -0.000110066
-9.05274e-05 -0.000110066 0.00146837
0.00363349 -3.66744e-05 8.32586e-05
-3.66744e-05 0.0004218 6.71889e-06
8.32586e-05 6.71889e-06 0.000756958
0.00396831 -0.000268575 -0.000123702
-0.000268575 -0.00117109 1.06798e-05
-0.000123702 1.06798e-05 4.85667e-05
0.0053422 0.000570325 -4.74967e-05
0.000570325 -0.000857242 -2.72359e-05
-4.74967e-05 -2.72359e-05 0.00101153
0.00144511 -0.00108584 -0.000114281
-0.00108584 -0.00197629 8.38742e-05
-0.000114281 8.38742e-05 -0.000938365
0.00234393 -0.000834381 -0.000111282
-0.000834381 -0.00157581 8.45662e-06
-0.000111282 8.45662e-06 -0.000705861
0.00346354 -0.000563725 8.58011e-07
-0.000563725 -1.01426e-05 -6.59164e-06
8.58011e-07 -6.59164e-06 0.000554854
0.00259059 -0.000125536 -1.71044e-05
-0.000125536 -0.000246625 -2.84675e-06
-1.71044e-05 -2.84675e-06 5.42073e-05
0.00270628 -0.000333584 8.81782e-06
-0.000333584 -0.000338319 -4.07133e-07
8.81782e-06 -4.07133e-07 2.83574e-06
0.00251533 0.000102413 2.59489e-06
0.000102413 -0.000427544 1.06843e-06
2.59489e-06 1.06843e-06 -0.00019048
0.00274377 -0.000795287 -2.11015e-05
-0.000795287 -0.000285899 1.0011e-05
-2.11015e-05 1.0011e-05 2.05067e-05
0.00280609 -0.000586456 -3.17305e-06
-0.000586456 -0.000255439 6.78759e-07
-3.17305e-06 6.78759e-07 2.7073e-06
0.00267521 -0.000399925 -5.38718e-07
-0.000399925 -0.000192562 -3.3319e-07
-5.38718e-07 -3.3319e-07 1.51549e-05
0.00281615 -0.000707946 -3.03684e-06
-0.000707946 2.98917e-05 1.22742e-06
-3.03684e-06 1.22742e-06 0.000108754
0.00261168 -0.000548516 2.73275e-07
-0.000548516 -0.000107174 -2.23503e-07
2.73275e-07 -2.23503e-07 -1.82966e-05
0.0024825 -0.00044458 1.00101e-06
-0.00044458 -6.4402e-05 -3.71177e-07
1.00101e-06 -3.71177e-07 -1.85659e-06
0.00256221 -0.000679465 -8.99925e-07
-0.000679465 1.08846e-05 7.86e-07
-8.99925e-07 7.86e-07 1.6724e-06
0.00246291 -0.000555549 4.07474e-07
-0.000555549 2.58898e-05 -1.3199e-07
4.07474e-07 -1.3199e-07 -4.79269e-06
0.00234259 -0.000494452 -2.62294e-07
-0.000494452 5.12889e-05 -1.66922e-07
-2.62294e-07 -1.66922e-07 -5.83561e-06
0.00251245 -0.000680007 1.44878e-06
-0.000680007 0.0001172 3.95371e-07
1.44878e-06 3.95371e-07 2.76314e-05
0.0023628 -0.000602519 5.53689e-07
-0.000602519 0.000120489 -9.70127e-08
5.53689e-07 -9.70127e-08 2.59727e-06
0.00238598 -0.00056954 -2.56609e-06
-0.00056954 0.000213216 4.59285e-07
-2.56609e-06 4.59285e-07 4.30138e-05
0.00225643 -0.000666352 5.24869e-07
-0.000666352 0.000129072 3.36209e-07
5.24869e-07 3.36209e-07 -5.56607e-05
0.00232146 -0.000641521 2.2354e-07
-0.000641521 0.000234126 -5.49905e-07
2.2354e-07 -5.49905e-07 5.26518e-06
0.00218203 -0.000576884 -2.4528e-06
-0.000576884 0.000219512 -2.17351e-06
-2.4528e-06 -2.17351e-06 -4.20551e-05
0.00230866 -0.000679089 -6.55568e-08
-0.000679089 0.000281635 3.74335e-06
-6.55568e-08 3.74335e-06 9.35537e-06
0.00226942 -0.000629813 -6.17456e-07
-0.000629813 0.00034656 -1.23809e-07
-6.17456e-07 -1.23809e-07 4.27755e-05
0.00147303 -0.000422605 -1.44401e-05
-0.000422605 5.7904e-05 5.16755e-06
-1.44401e-05 5.16755e-06 -0.000224152
0.000335872 -0.000270224 -1.87068e-05
-0.000270224 -0.000262041 2.13308e-05
-1.87068e-05 2.13308e-05 -0.000450934
0.00151288 -0.000489572 2.92329e-08
-0.000489572 0.000110146 1.72957e-07
2.92329e-08 1.72957e-07 -0.000217115
0.00214406 -0.000684745 3.74217e-06
-0.000684745 0.000310543 2.38357e-06
3.74217e-06 2.38357e-06 -6.05807e-05
0.00887062 -0.00017136 -0.000418382
-0.00017136 0.00540477 4.13812e-05
-0.000418382 4.13812e-05 0.00543189
0.000322512 -0.000295946 -1.25342e-06
-0.000295946 -0.000243298 9.90406e-07
-1.25342e-06 9.90406e-07 -0.000439951
0.00148039 -0.000536329 2.12975e-05
-0.000536329 0.000200228 -5.50248e-06
2.12975e-05 -5.50248e-06 -0.000174534
0.0090541 -0.000119144 -1.36255e-06
-0.000119144 0.00554269 2.14796e-06
-1.36255e-06 2.14796e-06 0.0055634
0.000135915 -0.000306544 2.49001e-05
-0.000306544 -0.000321738 -2.60219e-05
2.49001e-05 -2.60219e-05 -0.000526445
0.00899625 -9.32733e-05 0.000391712
-9.32733e-05 0.00553415 -4.34368e-05
0.000391712 -4.34368e-05 0.00554866
0.00206879 0.000868033 2.12997e-06
0.000868033 0.000176314 1.27606e-05
2.12997e-06 1.27606e-05 -0.000227977
0.0020344 0.000870797 2.48909e-06
0.000870797 0.000332764 2.3598e-08
2.48909e-06 2.3598e-08 -0.0001379
0.00233795 0.000841918 -8.68405e-08
0.000841918 0.00058165 1.24438e-05
-8.68405e-08 1.24438e-05 9.69495e-05
0.00215268 0.000985415 1.41186e-05
0.000985415 0.00061882 -1.04518e-05
1.41186e-05 -1.04518e-05 2.19032e-05
0.00196288 0.000847629 -2.02027e-07
0.000847629 0.000513679 1.67028e-06
-2.02027e-07 1.67028e-06 -3.17946e-05
0.000646577 0.000418976 -2.59109e-05
0.000418976 -0.000170917 -4.33042e-07
-2.59109e-05 -4.33042e-07 -0.000526447
0.0022193 0.000734814 1.85297e-06
0.000734814 0.000816753 -6.92928e-06
1.85297e-06 -6.92928e-06 0.000310715
0.000594567 0.0003205 3.86517e-07
0.0003205 -6.21302e-05 -7.20297e-07
3.86517e-07 -7.20297e-07 -0.000375017
0.000271023 0.000290395 -3.37817e-05
0.000290395 -0.000220306 -2.83557e-05
-3.37817e-05 -2.83557e-05 -0.000384639
0.00174822 0.000219754 3.07282e-06
0.000219754 0.000724214 2.41862e-06
3.07282e-06 2.41862e-06 0.000468769
0.000277876 0.000225748 4.41841e-06
0.000225748 -0.000207549 -1.33169e-06
4.41841e-06 -1.33169e-06 -0.000339871
0.00758743 -0.000150806 -0.000262465
-0.000150806 0.00471836 -3.44075e-05
-0.000262465 -3.44075e-05 0.00469273
0.000320963 0.000185203 2.7807e-05
0.000185203 -0.000121865 2.47429e-05
2.7807e-05 2.47429e-05 -0.000242961
0.00603816 -0.000188139 -7.55872e-06
-0.000188139 0.00372666 -4.036e-07
-7.55872e-06 -4.036e-07 0.00369678
0.00439895 -0.000200696 8.72392e-05
-0.000200696 0.00265771 1.56277e-05
8.72392e-05 1.56277e-05 0.00262658
0.00151203 0.000379954 5.36116e-05
0.000379954 -0.000716567 1.81499e-05
5.36116e-05 1.81499e-05 -0.000214041
0.00159173 0.00067581 1.3104e-05
0.00067581 -0.0028847 -7.3271e-06
1.3104e-05 -7.3271e-06 -0.00115873
0.0056251 0.0012546 0.00029452
0.0012546 -0.00233964 0.000115966
0.00029452 0.000115966 0.000979917
0.00271004 0.00101503 -8.15418e-06
0.00101503 0.000364212 1.49068e-06
-8.15418e-06 1.49068e-06 1.87514e-05
0.00236985 0.00107678 -1.00846e-05
0.00107678 0.000384304 -5.39387e-06
-1.00846e-05 -5.39387e-06 -8.81658e-05
0.00247642 0.000767318 5.96912e-06
0.000767318 0.00018735 4.72972e-06
5.96912e-06 4.72972e-06 -4.51123e-05
0.00254364 0.000963719 1.47603e-06
0.000963719 0.000358292 3.65141e-07
1.47603e-06 3.65141e-07 -1.52572e-05
0.00200715 0.00092953 -7.11492e-06
0.00092953 0.000266076 -1.77161e-05
-7.11492e-06 -1.77161e-05 -0.000191621
0.00290885 0.000923691 -5.45764e-06
0.000923691 0.000198239 1.87124e-06
-5.45764e-06 1.87124e-06 3.74109e-05
0.00245699 0.00132822 -4.82653e-06
0.00132822 0.000585981 -9.08456e-06
-4.82653e-06 -9.08456e-06 4.77144e-06
0.00281683 0.00118055 -1.4005e-06
0.00118055 0.000407631 -1.30142e-06
-1.4005e-06 -1.30142e-06 1.41381e-05
0.0023766 0.000567199 -1.00094e-05
0.000567199 -0.000333458 -9.83981e-07
-1.00094e-05 -9.83981e-07 -0.000166106
0.00259049 0.00141459 -1.77403e-05
0.00141459 0.000484406 1.99703e-05
-1.77403e-05 1.99703e-05 -6.88142e-05
0.00292848 0.00114364 1.93067e-06
0.00114364 0.000311376 -4.76496e-06
1.93067e-06 -4.76496e-06 8.26351e-05
0.000603781 0.000547268 -2.43386e-05
0.000547268 -0.00104784 7.66339e-09
-2.43386e-05 7.66339e-09 -0.000667007
-0.00292889 0.000543709 -2.68497e-05
0.000543709 -0.00243411 -1.53443e-05
-2.68497e-05 -1.53443e-05 -0.00251355
0.00520733 0.00181707 -0.000195658
0.00181707 -0.000280653 -7.70865e-05
-0.000195658 -7.70865e-05 0.00082986
0.00275074 0.000204331 6.14373e-08
0.000204331 -0.000217581 -2.18639e-06
6.14373e-08 -2.18639e-06 3.62492e-05
0.00329729 -8.14296e-06 -7.06305e-06
-8.14296e-06 0.000216429 1.95338e-06
-7.06305e-06 1.95338e-06 0.00049904
0.00301313 -0.000358676 -0.000151489
-0.000358676 -0.00180301 -1.37091e-05
-0.000151489 -1.37091e-05 -0.000415734
0.00169515 -0.00047716 -0.000102528
-0.00047716 -0.00115287 2.41578e-05
-0.000102528 2.41578e-05 -0.000412165
0.00223083 -0.000135167 -1.68545e-05
-0.000135167 -0.00046411 -3.48086e-06
-1.68545e-05 -3.48086e-06 -0.000143622
0.00259851 -0.000348725 5.58018e-06
-0.000348725 -0.000432962 -7.53409e-07
5.58018e-06 -7.53409e-07 -4.62206e-05
0.00278834 0.000119566 -2.97315e-06
0.000119566 -0.000250494 7.2952e-08
-2.97315e-06 7.2952e-08 -2.92454e-05
0.00266813 -6.79138e-05 -2.37855e-06
-6.79138e-05 -0.000242007 -1.75913e-07
-2.37855e-06 -1.75913e-07 4.94064e-06
0.00284296 -0.000611412 -3.56989e-06
-0.000611412 -0.000241367 1.92216e-06
-3.56989e-06 1.92216e-06 -2.12329e-05
0.002602 -0.000383202 3.14975e-07
-0.000383202 -0.000222222 -3.20336e-07
3.14975e-07 -3.20336e-07 -2.41405e-05
0.002507 -0.000287042 1.42698e-06
-0.000287042 -0.000108082 -1.56963e-07
1.42698e-06 -1.56963e-07 3.28378e-05
0.00263001 -0.000552813 8.64373e-08
-0.000552813 -8.42267e-05 1.00142e-06
8.64373e-08 1.00142e-06 -2.87303e-06
0.00247814 -0.000443189 2.88835e-07
-0.000443189 -6.40548e-05 1.18081e-07
2.88835e-07 1.18081e-07 -5.18669e-06
0.00231971 -0.000373469 1.14181e-07
-0.000373469 -1.14042e-05 -1.87861e-08
1.14181e-07 -1.87861e-08 -6.79976e-06
0.00247562 -0.000554277 2.1025e-07
-0.000554277 2.74206e-05 4.36771e-07
2.1025e-07 4.36771e-07 -3.24942e-06
0.00235578 -0.000495598 3.9764e-07
-0.000495598 5.66231e-05 -7.36794e-08
3.9764e-07 -7.36794e-08 -9.1629e-07
0.00233581 -0.000468134 -3.96376e-06
-0.000468134 0.000118864 5.43605e-07
-3.96376e-06 5.43605e-07 1.7584e-05
0.00235774 -0.000603448 1.46109e-06
-0.000603448 0.000113189 -1.73339e-07
1.46109e-06 -1.73339e-07 -5.18363e-06
0.00233705 -0.000564711 6.7005e-07
-0.000564711 0.000180753 -2.30061e-07
6.7005e-07 -2.30061e-07 1.12768e-05
0.00220977 -0.000502118 -1.74962e-06
-0.000502118 0.000182413 -1.83666e-06
-1.74962e-06 -1.83666e-06 -2.69567e-05
0.00220621 -0.000634175 6.59749e-07
-0.000634175 0.000155795 3.46956e-07
6.59749e-07 3.46956e-07 -7.16315e-05
0.00225776 -0.000581872 -7.71435e-07
-0.000581872 0.000274365 1.48656e-07
-7.71435e-07 1.48656e-07 1.18571e-05
0.0014758 -0.0003696 -1.0844e-05
-0.0003696 3.65232e-05 4.13112e-06
-1.0844e-05 4.13112e-06 -0.000210116
0.00225932 -0.000631115 2.24006e-06
-0.000631115 0.000341716 2.76334e-06
2.24006e-06 2.76334e-06 3.94843e-05
0.00150352 -0.000425688 -1.26881e-08
-0.000425688 7.03786e-05 2.30394e-07
-1.26881e-08 2.30394e-07 -0.000211095
0.00305628 -0.00027776 -6.1625e-05
-0.00027776 0.00149075 1.57281e-05
-6.1625e-05 1.57281e-05 0.00134167
0.00299045 -0.000155974 -0.000330347
-0.000155974 0.00158616 5.2236e-05
-0.000330347 5.2236e-05 0.00156917
0.001755 -0.000294436 -1.91567e-05
-0.000294436 0.000656833 4.71998e-07
-1.91567e-05 4.71998e-07 0.000480548
0.00150815 -0.000487763 1.81645e-05
-0.000487763 0.000108807 -5.51184e-06
1.81645e-05 -5.51184e-06 -0.000216683
0.00866208 -0.000173837 -9.61523e-06
-0.000173837 0.00528129 3.02881e-06
-9.61523e-06 3.02881e-06 0.00530238
9.80189e-05 -0.0003139 2.31397e-05
-0.0003139 -0.000389221 -2.33183e-05
2.31397e-05 -2.33183e-05 -0.000591289
0.00900321 -0.000128977 0.000393761
-0.000128977 0.00551515 -4.53424e-05
0.000393761 -4.53424e-05 0.00553087
0.00233775 0.00059982 3.36266e-06
0.00059982 0.000116073 1.89699e-06
3.36266e-06 1.89699e-06 -4.30885e-05
0.00239694 0.000776838 6.54308e-06
0.000776838 0.000312738 8.66704e-06
6.54308e-06 8.66704e-06 5.90002e-06
0.00241339 0.000893152 8.76372e-07
0.000893152 0.000401902 7.88853e-08
8.76372e-07 7.88853e-08 1.6086e-06
0.00224787 0.00077704 2.40046e-06
0.00077704 0.000437123 1.13209e-05
2.40046e-06 1.13209e-05 2.31236e-05
0.00207662 0.000887484 7.81461e-06
0.000887484 0.000361696 -1.28452e-05
7.81461e-06 -1.28452e-05 -0.000110858
0.00210908 0.000816505 6.18618e-07
0.000816505 0.000432507 3.84683e-07
6.18618e-07 3.84683e-07 -4.70982e-05
0.00116831 0.000506545 -3.69817e-05
0.000506545 6.79542e-05 -2.18805e-06
-3.69817e-05 -2.18805e-06 -0.000303771
0.00187398 0.000839344 8.52781e-06
0.000839344 0.000444129 -9.01655e-06
8.52781e-06 -9.01655e-06 -0.000101119
0.000960328 0.000436478 -4.26052e-06
0.000436478 3.19587e-05 4.06184e-07
-4.26052e-06 4.06184e-07 -0.000322284
-4.53998e-05 0.000323081 -3.17243e-05
0.000323081 -0.00043188 -2.54248e-05
-3.17243e-05 -2.54248e-05 -0.000625468
0.00137578 0.000315271 1.5176e-05
0.000315271 0.000432166 -1.19811e-06
1.5176e-05 -1.19811e-06 0.000138898
0.000250682 0.000251713 2.61464e-06
0.000251713 -0.000236482 -9.70765e-07
2.61464e-06 -9.70765e-07 -0.000397087
0.00886845 -1.79316e-05 -0.000352153
-1.79316e-05 0.00547809 -4.0588e-05
-0.000352153 -4.0588e-05 0.00547697
0.000602726 0.000215622 3.37804e-05
0.000215622 -3.48465e-06 2.41981e-05
3.37804e-05 2.41981e-05 -0.000130251
0.00730571 -0.000152347 8.44962e-06
-0.000152347 0.00452194 -3.74062e-06
8.44962e-06 -3.74062e-06 0.00450115
0.00539468 -0.000234423 0.000119993
-0.000234423 0.00332887 2.03735e-05
0.000119993 2.03735e-05 0.00328372
0.00252615 0.000255897 -4.52474e-06
0.000255897 -0.000385174 1.01265e-06
-4.52474e-06 1.01265e-06 -8.98863e-05
0.00174722 0.000311868 7.8886e-06
0.000311868 -0.000871874 -3.99732e-06
7.8886e-06 -3.99732e-06 -0.000227907
0.00380703 0.000809714 -0.000179348
0.000809714 -0.00200844 -2.42104e-05
-0.000179348 -2.42104e-05 -0.000199773
0.00256835 0.000718023 -2.15074e-08
0.000718023 0.000130273 1.16633e-06
-2.15074e-08 1.16633e-06 -1.17611e-06
0.00267037 0.00100172 -4.50906e-06
0.00100172 0.000378497 -7.68713e-07
-4.50906e-06 -7.68713e-07 4.0602e-05
0.00236194 0.00109586 -2.40221e-06
0.00109586 0.000367783 -9.94986e-06
-2.40221e-06 -9.94986e-06 -0.000105099
0.00248243 0.000750332 1.38923e-06
0.000750332 0.000211509 1.28288e-06
1.38923e-06 1.28288e-06 -2.07929e-05
0.00269323 0.000970417 -2.15502e-06
0.000970417 0.000455348 -9.44452e-06
-2.15502e-06 -9.44452e-06 8.87762e-05
0.00279481 0.000563807 5.29007e-06
0.000563807 -4.37621e-05 1.03553e-06
5.29007e-06 1.03553e-06 5.91402e-05
0.00281467 0.000915945 -1.96271e-06
0.000915945 0.00015876 7.6137e-07
-1.96271e-06 7.6137e-07 5.35335e-06
0.00292965 0.0011517 4.2919e-06
0.0011517 0.000502249 -3.83014e-06
4.2919e-06 -3.83014e-06 0.000112704
0.00228153 0.000528024 -2.46624e-08
0.000528024 -0.000322695 6.08308e-07
-2.46624e-08 6.08308e-07 -0.000146662
0.00252223 0.00107512 7.79484e-06
0.00107512 7.24638e-05 -3.0192e-07
7.79484e-06 -3.0192e-07 -0.000145616
-0.000472285 0.000496664 -4.22166e-05
0.000496664 -0.00181094 -9.1378e-06
-4.22166e-05 -9.1378e-06 -0.00126166
0.00260351 0.000114599 -9.936e-07
0.000114599 -0.000169765 2.17599e-07
-9.936e-07 2.17599e-07 3.08533e-05
0.00265655 0.000193562 -1.45593e-07
0.000193562 -0.000284766 1.09937e-06
-1.45593e-07 1.09937e-06 -2.82715e-05
0.00291019 1.45051e-05 -5.80547e-05
1.45051e-05 -1.70193e-05 -5.63167e-06
-5.80547e-05 -5.63167e-06 0.000221878
0.00246564 -0.000366596 -2.44297e-05
-0.000366596 -0.000552871 2.99423e-06
-2.44297e-05 2.99423e-06 -0.000117208
0.00308607 0.000142304 4.83322e-06
0.000142304 -5.31411e-05 1.78687e-06
4.83322e-06 1.78687e-06 0.000150573
0.00268729 -7.38625e-05 -1.05205e-06
-7.38625e-05 -0.000237283 -7.07788e-07
-1.05205e-06 -7.07788e-07 8.21498e-06
0.00236859 -8.29209e-05 8.80345e-07
-8.29209e-05 -0.00012957 4.03181e-07
8.80345e-07 4.03181e-07 -5.68615e-06
0.00252882 -0.000365746 8.04626e-07
-0.000365746 -0.000250926 -5.41414e-07
8.04626e-07 -5.41414e-07 -6.23456e-05
0.00246656 -0.000295807 -1.60218e-08
-0.000295807 -0.000128565 -2.96397e-08
-1.60218e-08 -2.96397e-08 3.03827e-06
0.00226449 -0.00024538 1.28097e-06
-0.00024538 -5.9311e-05 -4.98034e-07
1.28097e-06 -4.98034e-07 -1.85185e-05
0.00247195 -0.000441672 -1.29072e-06
-0.000441672 -6.49803e-05 8.49343e-07
-1.29072e-06 8.49343e-07 -9.71392e-06
0.00232529 -0.000372896 9.9403e-08
-0.000372896 -1.21456e-05 5.90894e-08
9.9403e-08 5.90894e-08 -7.61317e-06
0.00228452 -0.000357618 -4.62529e-06
-0.000357618 5.027e-05 6.07423e-07
-4.62529e-06 6.07423e-07 1.95473e-06
0.0023692 -0.000496746 9.79327e-07
-0.000496746 6.17678e-05 -1.7021e-08
9.79327e-07 -1.7021e-08 3.82463e-06
0.00235187 -0.000469178 4.31174e-07
-0.000469178 0.000130666 -7.10291e-08
4.31174e-07 -7.10291e-08 2.87079e-05
0.00227003 -0.000422445 -2.02242e-06
-0.000422445 0.000186201 -1.01702e-06
-2.02242e-06 -1.01702e-06 2.7192e-05
0.00228187 -0.000559368 2.67415e-06
-0.000559368 0.00014445 -4.94674e-07
2.67415e-06 -4.94674e-07 -2.41811e-05
0.00225311 -0.000506049 -8.26714e-07
-0.000506049 0.000209408 8.5693e-09
-8.26714e-07 8.5693e-09 -6.9222e-07
0.0014549 -0.0003157 -8.44336e-06
-0.0003157 3.62822e-06 3.10658e-06
-8.44336e-06 3.10658e-06 -0.00021281
0.00233373 -0.000586914 2.33871e-06
-0.000586914 0.000329421 1.79773e-06
2.33871e-06 1.79773e-06 6.59614e-05
0.00150469 -0.000373744 -7.8832e-08
-0.000373744 4.37054e-05 2.54058e-07
-7.8832e-08 2.54058e-07 -0.000202674
0.00297391 -0.000252904 -6.78037e-05
-0.000252904 0.00143951 1.48548e-05
-6.78037e-05 1.48548e-05 0.00130582
0.0015403 -0.000430437 1.31776e-05
-0.000430437 8.53783e-05 -4.84141e-06
1.31776e-05 -4.84141e-06 -0.000195994
0.00315216 -0.000309109 5.86041e-05
-0.000309109 0.00155674 -1.02947e-05
5.86041e-05 -1.02947e-05 0.0014192
0.00277399 -0.000175498 -0.000315969
-0.000175498 0.00145745 5.49262e-05
-0.000315969 5.49262e-05 0.00143614
0.00553365 -0.000196862 -0.000307775
-0.000196862 0.00325868 3.97342e-05
-0.000307775 3.97342e-05 0.00325882
0.0032991 -0.000374006 0.000195133
-0.000374006 0.00166873 -3.55512e-05
0.000195133 -3.55512e-05 0.00152651
0.00851979 -0.00018387 0.000390952
-0.00018387 0.00519758 -4.90212e-05
0.000390952 -4.90212e-05 0.00521496
0.00243254 0.000574234 4.48005e-07
0.000574234 0.000119315 -7.58491e-07
4.48005e-07 -7.58491e-07 2.74854e-05
0.00217775 0.00061468 1.42786e-06
0.00061468 0.000134231 3.56655e-06
1.42786e-06 3.56655e-06 -8.30665e-05
0.00233913 0.000589541 6.73963e-07
0.000589541 0.000123688 1.14064e-07
6.73963e-07 1.14064e-07 -2.38821e-05
0.00227034 0.000680423 2.96798e-07
0.000680423 0.000352996 8.51514e-06
2.96798e-07 8.51514e-06 2.23423e-05
0.00244962 0.00078229 3.01503e-08
0.00078229 0.000334165 -4.18654e-07
3.01503e-08 -4.18654e-07 2.69841e-05
0.00281435 0.00092406 -1.88786e-06
0.00092406 0.000664521 -1.18825e-05
-1.88786e-06 -1.18825e-05 0.000267207
0.00216661 0.00077203 9.97465e-07
0.00077203 0.000376687 3.1837e-07
9.97465e-07 3.1837e-07 -3.71043e-05
0.00151564 0.000533684 -3.38266e-05
0.000533684 0.000154175 -3.67516e-06
-3.38266e-05 -3.67516e-06 -0.000197273
0.00193481 0.000798964 3.69121e-06
0.000798964 0.000317196 -1.13027e-05
3.69121e-06 -1.13027e-05 -0.000159605
0.00126689 0.00052884 -3.50483e-06
0.00052884 0.000105467 -1.08103e-07
-3.50483e-06 -1.08103e-07 -0.000273052
0.000195392 0.000317714 -2.81359e-05
0.000317714 -0.000311598 -2.26307e-05
-2.81359e-05 -2.26307e-05 -0.000515389
0.00126561 0.000448917 2.73833e-05
0.000448917 0.000230153 4.6823e-06
2.73833e-05 4.6823e-06 -0.000120369
0.000238657 0.000290883 2.07283e-06
0.000290883 -0.000262936 2.31038e-06
2.07283e-06 2.31038e-06 -0.000447723
0.00911226 8.32182e-05 -0.000377982
8.32182e-05 0.00559538 -4.57237e-05
-0.000377982 -4.57237e-05 0.00560184
0.000194574 0.000213332 2.6842e-05
0.000213332 -0.000284884 2.68136e-05
2.6842e-05 2.68136e-05 -0.000436834
0.00827545 -6.26568e-05 1.18463e-05
-6.26568e-05 0.00509671 -2.01745e-06
1.18463e-05 -2.01745e-06 0.00509398
0.0069239 -0.000175279 0.000206006
-0.000175279 0.00427236 1.95262e-05
0.000206006 1.95262e-05 0.00425036
0.00262818 0.000325698 2.41157e-06
0.000325698 -0.000150486 -2.12832e-07
2.41157e-06 -2.12832e-07 1.82399e-05
0.00243821 0.000259166 2.42106e-06
0.000259166 -0.000361586 -1.45653e-06
2.42106e-06 -1.45653e-06 -7.10809e-05
0.000744167 0.000254481 -5.92748e-05
0.000254481 -0.00181647 -2.48194e-06
-5.92748e-05 -2.48194e-06 -0.000980525
0.00249896 0.000495889 4.00737e-06
0.000495889 -2.71687e-05 8.72375e-07
4.00737e-06 8.72375e-07 -3.25917e-06
0.00252961 0.000711766 -1.41354e-06
0.000711766 0.00011906 3.64283e-07
-1.41354e-06 3.64283e-07 -8.41499e-06
0.00260885 0.000983676 6.9732e-06
0.000983676 0.000378919 -3.70258e-06
6.9732e-06 -3.70258e-06 5.08557e-05
0.00248474 0.000733011 -4.39715e-06
0.000733011 0.000231273 -4.14952e-06
-4.39715e-06 -4.14952e-06 5.98895e-07
0.0027378 0.000548886 -2.43811e-06
0.000548886 -6.68257e-05 -2.62626e-07
-2.43811e-06 -2.62626e-07 3.32584e-05
0.00271443 0.000903073 1.62618e-06
0.000903073 0.000125346 -3.04896e-06
1.62618e-06 -3.04896e-06 -2.05684e-05
0.00218956 0.000513937 8.07218e-06
0.000513937 -0.00026595 -1.34003e-06
8.07218e-06 -1.34003e-06 -9.50801e-05
0.00243246 8.92611e-05 1.06416e-06
8.92611e-05 -9.56592e-05 5.11335e-07
1.06416e-06 5.11335e-07 1.8541e-05
0.00252995 0.000115699 3.11711e-07
0.000115699 -0.000206113 -2.99232e-07
3.11711e-07 -2.99232e-07 -9.79981e-06
0.00254435 0.000188188 -8.01658e-06
0.000188188 -0.000360359 -7.58994e-07
-8.01658e-06 -7.58994e-07 -0.000103194
0.00225263 -1.57695e-05 -3.54993e-08
-1.57695e-05 -9.57606e-05 4.18351e-07
-3.54993e-08 4.18351e-07 -1.78973e-05
0.00269771 -8.45629e-05 3.59322e-06
-8.45629e-05 -0.000241191 -4.70109e-07
3.59322e-06 -4.70109e-07 4.65942e-06
0.00237804 -8.73573e-05 -4.58257e-07
-8.73573e-05 -0.000123727 3.00628e-07
-4.58257e-07 3.00628e-07 -7.1981e-07
0.00221436 -0.000128815 3.34552e-07
-0.000128815 -7.69606e-05 2.86343e-08
3.34552e-07 2.86343e-08 -2.76778e-05
0.00242619 -0.000304599 -1.25579e-06
-0.000304599 -0.000148815 3.48169e-07
-1.25579e-06 3.48169e-07 -2.67053e-05
0.00226832 -0.000241831 6.57567e-07
-0.000241831 -5.81992e-05 -3.5282e-07
6.57567e-07 -3.5282e-07 -1.6586e-05
0.00224662 -0.000244511 -3.81966e-06
-0.000244511 2.76816e-05 6.38662e-07
-3.81966e-06 6.38662e-07 5.28545e-06
0.00233325 -0.000372031 2.34154e-07
-0.000372031 -1.13924e-05 4.26721e-08
2.34154e-07 4.26721e-08 -6.88774e-06
0.0023177 -0.000358563 1.91649e-07
-0.000358563 7.30246e-05 -1.9677e-07
1.91649e-07 -1.9677e-07 2.40445e-05
0.00224819 -0.000336577 -1.95741e-06
-0.000336577 0.000141726 -8.95612e-08
-1.95741e-06 -8.95612e-08 2.54706e-05
0.00237259 -0.000470382 4.29835e-06
-0.000470382 0.000146254 -5.76622e-07
4.29835e-06 -5.76622e-07 4.35788e-05
0.0022155 -0.000419107 -8.38511e-07
-0.000419107 0.000146164 -1.71651e-07
-8.38511e-07 -1.71651e-07 -1.23203e-05
0.00139072 -0.000258727 -5.3534e-06
-0.000258727 -4.42278e-05 2.39826e-06
-5.3534e-06 2.39826e-06 -0.000234974
0.00229535 -0.00050984 2.31988e-06
-0.00050984 0.000235577 1.05262e-06
2.31988e-06 1.05262e-06 2.47644e-05
0.00147323 -0.000316671 -3.14602e-07
-0.000316671 6.29735e-06 5.63373e-08
-3.14602e-07 5.63373e-08 -0.000209029
0.00284086 -0.000225042 -7.26653e-05
-0.000225042 0.00136249 1.38388e-05
-7.26653e-05 1.38388e-05 0.00124075
0.00152532 -0.00037746 9.5119e-06
-0.00037746 4.51927e-05 -3.74376e-06
9.5119e-06 -3.74376e-06 -0.000200835
0.00304787 -0.000268377 5.32696e-05
-0.000268377 0.00148799 -7.98908e-06
5.32696e-05 -7.98908e-06 0.00136656
0.00270952 -0.000146883 -0.00030531
-0.000146883 0.00141069 4.70336e-05
-0.00030531 4.70336e-05 0.00139234
0.00323037 -0.000310665 0.000182681
-0.000310665 0.00160242 -3.4832e-05
0.000182681 -3.4832e-05 0.00148046
0.00235179 -0.000110631 -0.000120582
-0.000110631 0.00118219 1.98901e-05
-0.000120582 1.98901e-05 0.00114346
0.00786222 -0.000118885 0.000142224
-0.000118885 0.00475525 -1.06337e-05
0.000142224 -1.06337e-05 0.00473424
0.00241173 0.000479367 3.19521e-09
0.000479367 8.16246e-05 2.05152e-09
3.19521e-09 2.05152e-09 3.3137e-05
0.00234744 0.000553117 -2.77319e-06
0.000553117 0.000146032 -8.83117e-07
-2.77319e-06 -8.83117e-07 3.0999e-06
0.00242344 0.000569901 -2.83662e-06
0.000569901 0.000113347 1.86801e-07
-2.83662e-06 1.86801e-07 1.73498e-05
0.00211288 0.000570257 -2.20878e-06
0.000570257 0.000166064 3.29853e-06
-2.20878e-06 3.29853e-06 -9.77513e-05
0.00224692 0.00063343 -1.1003e-06
0.00063343 0.000155412 -2.10899e-06
-1.1003e-06 -2.10899e-06 -5.45814e-05
0.00233515 0.000577486 -6.58921e-06
0.000577486 0.000128722 -3.80281e-06
-6.58921e-06 -3.80281e-06 -6.97783e-06
0.00157765 0.000466176 -2.46734e-05
0.000466176 8.62896e-05 -3.54169e-06
-2.46734e-05 -3.54169e-06 -0.000208298
0.0021926 0.00067516 1.4806e-06
0.00067516 0.000297268 4.03861e-07
1.4806e-06 4.03861e-07 -3.22622e-05
0.00251836 0.000789217 -4.28713e-07
0.000789217 0.000366498 -8.53403e-06
-4.28713e-07 -8.53403e-06 5.80727e-05
0.00207591 0.000765212 -7.69528e-07
0.000765212 0.000311548 -1.05532e-05
-7.69528e-07 -1.05532e-05 -0.000101497
0.00151078 0.000536183 -6.94783e-07
0.000536183 0.00014842 1.69644e-07
-6.94783e-07 1.69644e-07 -0.000205474
0.000360239 0.000310112 -2.57435e-05
0.000310112 -0.000234264 -2.02732e-05
-2.57435e-05 -2.02732e-05 -0.000431626
0.00151166 0.000556192 3.96143e-05
0.000556192 0.000242763 4.53322e-06
3.96143e-05 4.53322e-06 -0.000141395
0.000135787 0.000301733 9.72846e-07
0.000301733 -0.000338618 1.24917e-06
9.72846e-07 1.24917e-06 -0.000539483
0.0086125 0.000172205 -0.000376282
0.000172205 0.00526719 -5.20612e-05
-0.000376282 -5.20612e-05 0.0052725
0.000237852 0.00025417 2.64263e-05
0.00025417 -0.000265149 2.54081e-05
2.64263e-05 2.54081e-05 -0.000444329
0.00898786 4.45929e-05 7.24015e-06
4.45929e-05 0.0055113 1.03335e-06
7.24015e-06 1.03335e-06 0.0055225
0.00810924 -9.6275e-05 0.000281533
-9.6275e-05 0.00498676 2.15898e-05
0.000281533 2.15898e-05 0.00498517
0.00241565 0.000265521 1.42881e-06
0.000265521 -7.70958e-05 -2.13127e-08
1.42881e-06 -2.13127e-08 4.95385e-06
0.0026032 0.000333062 -8.39126e-07
0.000333062 -0.000188215 2.558e-07
-8.39126e-07 2.558e-07 -1.33974e-05
0.00235599 0.000250475 -1.25488e-06
0.000250475 -0.000371472 3.13672e-07
-1.25488e-06 3.13672e-07 -7.81435e-05
0.00248635 0.000490678 -2.24271e-07
0.000490678 -3.30833e-05 7.62496e-09
-2.24271e-07 7.62496e-09 -7.24555e-06
0.00249703 0.000707523 -1.20712e-06
0.000707523 0.000112081 -2.15811e-06
-1.20712e-06 -2.15811e-06 -1.22129e-05
0.00266285 0.000532604 -3.58565e-07
0.000532604 -0.000113773 -6.50596e-07
-3.58565e-07 -6.50596e-07 -1.3692e-05
0.00231249 8.47801e-05 8.50754e-07
8.47801e-05 -6.00767e-05 3.15511e-07
8.50754e-07 3.15511e-07 6.26254e-06
0.0024191 8.91213e-05 1.20839e-07
8.91213e-05 -9.92114e-05 -2.12721e-07
1.20839e-07 -2.12721e-07 1.41963e-05
0.00248642 0.000117204 3.3129e-07
0.000117204 -0.000219607 1.26266e-07
3.3129e-07 1.26266e-07 -2.87712e-05
0.00226986 -1.2142e-05 -5.4798e-07
-1.2142e-05 -8.15871e-05 7.19892e-08
-5.4798e-07 7.19892e-08 -5.8369e-06
0.00223944 -3.36896e-05 -1.54381e-06
-3.36896e-05 1.57533e-06 4.18081e-07
-1.54381e-06 4.18081e-07 3.77757e-05
0.00239041 -9.14929e-05 -1.01052e-06
-9.14929e-05 -0.000115966 1.76662e-09
-1.01052e-06 1.76662e-09 6.25259e-06
0.00224117 -0.000130617 -1.05661e-06
-0.000130617 -4.97807e-05 1.88211e-07
-1.05661e-06 1.88211e-07 -6.01892e-06
0.00211625 -0.000149924 -4.37894e-06
-0.000149924 -5.23721e-05 7.4228e-07
-4.37894e-06 7.4228e-07 -5.85702e-05
0.00226856 -0.000238593 3.24277e-07
-0.000238593 -5.92186e-05 -2.94183e-07
3.24277e-07 -2.94183e-07 -1.68315e-05
0.00225013 -0.000244634 1.28543e-06
-0.000244634 3.16412e-05 -3.34146e-07
1.28543e-06 -3.34146e-07 9.13231e-06
0.00219071 -0.000246635 -1.1716e-06
-0.000246635 7.82203e-05 1.82108e-07
-1.1716e-06 1.82108e-07 -8.45555e-06
0.00234562 -0.000360312 4.76106e-06
-0.000360312 9.24e-05 -1.01019e-06
4.76106e-06 -1.01019e-06 4.25791e-05
0.0022095 -0.000334148 -3.67902e-07
-0.000334148 0.000115711 -1.33427e-07
-3.67902e-07 -1.33427e-07 -4.3236e-08
0.00139398 -0.000206399 -3.22682e-06
-0.000206399 -4.25457e-05 1.50867e-06
-3.22682e-06 1.50867e-06 -0.00021162
0.00216378 -0.000416132 2.0527e-06
-0.000416132 0.000107026 1.7626e-07
2.0527e-06 1.7626e-07 -5.09655e-05
0.00143965 -0.00025994 -2.98389e-07
-0.00025994 -1.84742e-05 1.33747e-07
-2.98389e-07 1.33747e-07 -0.000208003
0.0027286 -0.000206688 -7.34957e-05
-0.000206688 0.00130063 1.18369e-05
-7.34957e-05 1.18369e-05 0.00118948
0.00149257 -0.000317877 6.73258e-06
-0.000317877 9.25276e-06 -2.98334e-06
6.73258e-06 -2.98334e-06 -0.000204947
0.00294312 -0.00022259 5.02511e-05
-0.00022259 0.00142357 -6.13443e-06
5.02511e-05 -6.13443e-06 0.00131578
0.00263461 -0.00011939 -0.000298181
-0.00011939 0.00135943 3.87547e-05
-0.000298181 3.87547e-05 0.00134331
0.00313135 -0.000256963 0.000176484
-0.000256963 0.00153295 -2.89162e-05
0.000176484 -2.89162e-05 0.00142791
0.00229625 -0.00010417 -0.000109731
-0.00010417 0.00114764 1.5299e-05
-0.000109731 1.5299e-05 0.00111075
0.00197722 -0.000103618 8.27701e-05
-0.000103618 0.000955513 -1.43595e-05
8.27701e-05 -1.43595e-05 0.000892071
0.00228441 0.000298403 9.29839e-07
0.000298403 -3.04079e-05 2.59262e-07
9.29839e-07 2.59262e-07 -2.0798e-05
0.00235071 0.000443874 -4.35831e-06
0.000443874 0.000116999 -4.54022e-07
-4.35831e-06 -4.54022e-07 2.41072e-05
0.00238916 0.00048006 -4.73972e-07
0.00048006 4.65812e-05 -2.44605e-07
-4.73972e-07 -2.44605e-07 9.67035e-06
0.0022925 0.000520081 -1.20721e-06
0.000520081 0.000210323 7.72047e-07
-1.20721e-06 7.72047e-07 8.0084e-06
0.0023131 0.000547394 -7.26522e-07
0.000547394 0.000129971 -2.85884e-07
-7.26522e-07 -2.85884e-07 -1.78637e-05
0.00242094 0.000567556 -4.42838e-07
0.000567556 0.000111894 3.1127e-07
-4.42838e-07 3.1127e-07 1.11591e-05
0.00151384 0.000386198 -1.70838e-05
0.000386198 2.75811e-05 -3.56101e-06
-1.70838e-05 -3.56101e-06 -0.000218568
0.00217829 0.000580258 4.50599e-07
0.000580258 0.000201585 -1.41177e-06
4.50599e-07 -1.41177e-06 -5.28897e-05
0.00235995 0.000656647 -3.90401e-06
0.000656647 0.00020599 -5.58814e-06
-3.90401e-06 -5.58814e-06 2.60658e-06
0.000385533 0.00024542 -2.21885e-05
0.00024542 -0.000242203 -1.66859e-05
-2.21885e-05 -1.66859e-05 -0.000414653
0.00154485 0.000458093 -7.0368e-08
0.000458093 7.75684e-05 2.72174e-07
-7.0368e-08 2.72174e-07 -0.000216029
0.00210793 0.000669111 1.13591e-06
0.000669111 0.000237002 -8.43904e-06
1.13591e-06 -8.43904e-06 -9.12302e-05
0.0014733 0.000538067 3.59106e-05
0.000538067 0.000118045 4.15581e-06
3.59106e-05 4.15581e-06 -0.000238688
0.000301511 0.000295903 -1.6805e-08
0.000295903 -0.000268931 9.76601e-07
-1.6805e-08 9.76601e-07 -0.000465684
0.00821164 0.000261602 -0.000374898
0.000261602 0.00500721 -5.60337e-05
-0.000374898 -5.60337e-05 0.00500947
0.000286001 0.000290577 2.6367e-05
0.000290577 -0.0002382 2.10142e-05
2.6367e-05 2.10142e-05 -0.000435479
0.00879507 0.000150278 9.99135e-06
0.000150278 0.00537088 2.11355e-06
9.99135e-06 2.11355e-06 0.00538494
0.00878676 6.12425e-06 0.000342421
6.12425e-06 0.00537595 2.87081e-05
0.000342421 2.87081e-05 0.0053874
0.00231276 0.000162587 7.95924e-07
0.000162587 -2.6931e-05 -1.9532e-07
7.95924e-07 -1.9532e-07 2.60568e-05
0.00237947 0.000269575 5.38338e-07
0.000269575 -0.000107477 3.21331e-07
5.38338e-07 3.21331e-07 -2.66028e-05
0.00256755 0.000341379 -8.19283e-07
0.000341379 -0.000228764 1.03245e-06
-8.19283e-07 1.03245e-06 -4.81564e-05
0.00247744 0.000484407 -1.17703e-06
0.000484407 -3.69666e-05 -5.9227e-07
-1.17703e-06 -5.9227e-07 -9.63332e-06
0.00220508 3.75313e-05 -2.00248e-06
3.75313e-05 1.14441e-05 3.65955e-07
-2.00248e-06 3.65955e-07 2.6184e-05
0.00231018 7.48482e-05 1.77856e-08
7.48482e-05 -6.44791e-05 -2.61531e-08
1.77856e-08 -2.61531e-08 4.49365e-06
0.0023972 8.85981e-05 -2.56019e-07
8.85981e-05 -0.000109211 -3.46847e-07
-2.56019e-07 -3.46847e-07 3.57417e-06
0.00229002 -7.98815e-06 -2.73433e-06
-7.98815e-06 -6.4985e-05 -5.94547e-07
-2.73433e-06 -5.94547e-07 8.33271e-06
0.00224594 -2.74501e-05 -6.32431e-07
-2.74501e-05 -9.79602e-07 -1.36786e-07
-6.32431e-07 -1.36786e-07 3.87949e-05
0.00215463 -5.96454e-05 -4.84843e-06
-5.96454e-05 -2.85307e-06 6.95435e-07
-4.84843e-06 6.95435e-07 -1.06263e-05
0.00226978 -0.000132377 9.31442e-08
-0.000132377 -2.10773e-05 2.41717e-07
9.31442e-08 2.41717e-07 1.68666e-05
0.00218424 -0.000151534 -1.68703e-06
-0.000151534 3.78062e-06 3.1547e-07
-1.68703e-06 3.1547e-07 -9.78359e-06
0.00217653 -0.000161291 -1.60974e-06
-0.000161291 5.43306e-05 3.79833e-07
-1.60974e-06 3.79833e-07 -8.39209e-06
0.00225957 -0.000244076 6.23197e-06
-0.000244076 3.83431e-05 -1.27245e-06
6.23197e-06 -1.27245e-06 1.58887e-05
0.00222407 -0.000244494 6.70922e-07
-0.000244494 0.000106296 -2.76906e-07
6.70922e-07 -2.76906e-07 2.0614e-05
0.00141184 -0.000155642 -3.2839e-06
-0.000155642 -3.08132e-05 8.8239e-07
-3.2839e-06 8.8239e-07 -0.000181685
0.0021927 -0.000330515 2.13304e-06
-0.000330515 0.00010594 -4.34218e-07
2.13304e-06 -4.34218e-07 -8.81815e-06
0.00141592 -0.000206401 -1.5012e-07
-0.000206401 -3.28622e-05 1.39919e-07
-1.5012e-07 1.39919e-07 -0.000200983
0.000288198 -0.000109738 -1.67195e-05
-0.000109738 -0.000300534 6.88712e-06
-1.67195e-05 6.88712e-06 -0.000417955
0.00148498 -0.000260795 4.38132e-06
-0.000260795 6.19133e-06 -2.15607e-06
4.38132e-06 -2.15607e-06 -0.000182032
0.00160764 -0.000147245 7.49319e-05
-0.000147245 0.000554714 -6.33033e-06
7.49319e-05 -6.33033e-06 0.000449463
0.00729175 -0.000194167 -0.000395333
-0.000194167 0.0044158 3.30341e-05
-0.000395333 3.30341e-05 0.00444482
0.00305249 -0.000204106 0.000171385
-0.000204106 0.0014837 -2.26694e-05
0.000171385 -2.26694e-05 0.00139215
0.00224374 -9.46181e-05 -0.000100014
-9.46181e-05 0.00111822 9.94872e-06
-0.000100014 9.94872e-06 0.00108172
0.00187782 -0.000115937 9.33256e-05
-0.000115937 0.000901041 -1.56855e-05
9.33256e-05 -1.56855e-05 0.000837049
0.00222368 0.000197303 -1.53201e-07
0.000197303 -1.10558e-05 -5.64503e-07
-1.53201e-07 -5.64503e-07 -2.9775e-06
0.00230763 0.000336844 -2.96459e-06
0.000336844 6.60987e-05 -7.69007e-08
-2.96459e-06 -7.69007e-08 1.43769e-05
0.00230312 0.000290599 -4.87587e-07
0.000290599 -3.66085e-06 -1.22324e-07
-4.87587e-07 -1.22324e-07 -5.03637e-07
0.00231756 0.000418394 -8.25377e-07
0.000418394 0.000202179 9.81095e-07
-8.25377e-07 9.81095e-07 5.89557e-05
0.00229057 0.000440908 5.97606e-07
0.000440908 7.69412e-05 1.0486e-07
5.97606e-07 1.0486e-07 -1.49466e-05
0.00236418 0.000480256 -7.3582e-07
0.000480256 9.63728e-06 -3.25168e-07
-7.3582e-07 -3.25168e-07 -1.5687e-05
0.00164853 0.000338256 -9.68947e-06
0.000338256 0.000123134 -1.16558e-06
-9.68947e-06 -1.16558e-06 -8.14327e-05
0.00223662 0.000511183 -4.97332e-07
0.000511183 0.000175175 -4.17916e-07
-4.97332e-07 -4.17916e-07 -2.63423e-05
0.0022754 0.000539924 1.99156e-06
0.000539924 0.000112656 -1.08618e-06
1.99156e-06 -1.08618e-06 -3.98163e-05
0.000363236 0.000178793 -1.87248e-05
0.000178793 -0.000263669 -1.26985e-05
-1.87248e-05 -1.26985e-05 -0.000412018
0.00153029 0.000383912 5.45192e-07
0.000383912 4.76647e-05 4.12978e-07
5.45192e-07 4.12978e-07 -0.000192878
0.00219574 0.000584903 1.91387e-06
0.000584903 0.000206034 -7.30404e-06
1.91387e-06 -7.30404e-06 -3.82993e-05
0.00785425 0.000314351 -0.000377258
0.000314351 0.00477751 -5.44398e-05
-0.000377258 -5.44398e-05 0.00478038
0.000338612 0.00024289 4.09296e-07
0.00024289 -0.000277213 7.25022e-07
4.09296e-07 7.25022e-07 -0.000451554
0.00149371 0.000448715 2.66196e-05
0.000448715 5.72141e-05 3.94391e-06
2.66196e-05 3.94391e-06 -0.000235187
0.000242169 0.000283058 2.32731e-05
0.000283058 -0.000303572 2.05796e-05
2.32731e-05 2.05796e-05 -0.000499893
0.00829315 0.000259478 9.61692e-06
0.000259478 0.00505613 2.93365e-06
9.61692e-06 2.93365e-06 0.00506442
0.00882888 0.000126278 0.00039728
0.000126278 0.00537741 3.7388e-05
0.00039728 3.7388e-05 0.00540022
0.00215095 0.000101936 -2.91934e-06
0.000101936 -1.6803e-05 -2.82875e-08
-2.91934e-06 -2.82875e-08 -1.07475e-05
0.00230669 0.000156993 -1.46751e-07
0.000156993 -3.09672e-05 9.12701e-08
-1.46751e-07 9.12701e-08 1.91017e-05
0.00234637 0.00027325 -9.75857e-07
0.00027325 -0.000134709 3.42643e-07
-9.75857e-07 3.42643e-07 -5.50176e-05
0.00220232 1.89134e-05 -6.61174e-06
1.89134e-05 4.72754e-05 2.65701e-07
-6.61174e-06 2.65701e-07 2.9886e-05
0.00217105 4.41115e-05 7.41292e-07
4.41115e-05 -1.60966e-05 2.22455e-08
7.41292e-07 2.22455e-08 2.88331e-06
0.00230992 6.40551e-05 -1.22004e-06
6.40551e-05 -6.77481e-05 -3.03986e-07
-1.22004e-06 -3.03986e-07 4.00187e-06
0.00225113 -2.14575e-05 5.64843e-07
-2.14575e-05 -4.90239e-06 -3.8619e-07
5.64843e-07 -3.8619e-07 3.88798e-05
0.00215693 -5.82963e-05 -5.05061e-07
-5.82963e-05 -2.16842e-06 1.30461e-08
-5.05061e-07 1.30461e-08 -8.80578e-06
0.00210855 -7.5161e-05 -1.38132e-06
-7.5161e-05 2.1579e-05 4.67726e-07
-1.38132e-06 4.67726e-07 -4.56684e-05
0.00225304 -0.000153303 4.46523e-06
-0.000153303 6.11763e-05 -6.09277e-07
4.46523e-06 -6.09277e-07 4.03604e-05
0.00217995 -0.000163419 8.04433e-07
-0.000163419 6.81419e-05 -3.34749e-08
8.04433e-07 -3.34749e-08 -4.60937e-06
0.00152341 -9.83694e-05 -3.74017e-06
-9.83694e-05 4.63252e-05 2.72385e-07
-3.74017e-06 2.72385e-07 -7.6904e-05
0.00223744 -0.000243454 2.56011e-06
-0.000243454 0.000121073 -8.13371e-07
2.56011e-06 -8.13371e-07 3.5954e-05
0.00140097 -0.000151878 7.40035e-08
-0.000151878 -4.44763e-05 2.26361e-08
7.40035e-08 2.26361e-08 -0.000194306
0.000275083 -3.90225e-05 -1.53082e-05
-3.90225e-05 -0.000306527 3.87415e-06
-1.53082e-05 3.87415e-06 -0.000412142
0.00145294 -0.000205646 2.48725e-06
-0.000205646 -1.61986e-05 -1.3076e-06
2.48725e-06 -1.3076e-06 -0.000183112
0.000318227 -9.46244e-05 -4.77874e-07
-9.46244e-05 -0.00027818 5.04459e-07
-4.77874e-07 5.04459e-07 -0.000394906
0.00717492 -8.50557e-05 -0.000383299
-8.50557e-05 0.0043324 2.1231e-05
-0.000383299 2.1231e-05 0.00436833
0.000422059 -0.000106267 1.25848e-05
-0.000106267 -0.0002199 -9.17016e-06
1.25848e-05 -9.17016e-06 -0.000346735
0.00465972 -0.000127968 0.000163231
-0.000127968 0.00270424 -9.88352e-06
0.000163231 -9.88352e-06 0.00268873
0.00183167 -0.000101985 9.78666e-05
-0.000101985 0.000874786 -1.4545e-05
9.78666e-05 -1.4545e-05 0.00081303
0.00224135 0.000165289 -5.0444e-06
0.000165289 6.60034e-05 -6.89207e-07
-5.0444e-06 -6.89207e-07 6.46158e-05
0.002284 0.000240739 -5.28144e-06
0.000240739 8.15287e-05 -4.83389e-07
-5.28144e-06 -4.83389e-07 3.70417e-05
0.00221677 0.000189847 -7.0635e-07
0.000189847 -9.9566e-06 -3.03106e-07
-7.0635e-07 -3.03106e-07 -1.29135e-06
0.00230976 0.000332604 -8.42716e-07
0.000332604 0.000189475 5.16597e-07
-8.42716e-07 5.16597e-07 7.0861e-05
0.00232552 0.000333904 -1.01481e-07
0.000333904 7.90141e-05 -9.46556e-08
-1.01481e-07 -9.46556e-08 2.60409e-05
0.00232381 0.00028327 5.46459e-07
0.00028327 2.49982e-05 -4.53243e-08
5.46459e-07 -4.53243e-08 2.1654e-05
0.0015438 0.000268238 -4.32127e-06
0.000268238 5.7291e-05 -7.63583e-07
-4.32127e-06 -7.63583e-07 -0.000118802
0.00218901 0.000410503 1.78601e-06
0.000410503 0.000122758 3.4175e-07
1.78601e-06 3.4175e-07 -3.03215e-05
0.00222588 0.00043804 3.71702e-06
0.00043804 3.37916e-05 -5.35567e-08
3.71702e-06 -5.35567e-08 -5.692e-05
0.000334764 0.00013025 -1.65127e-05
0.00013025 -0.00027946 -9.32712e-06
-1.65127e-05 -9.32712e-06 -0.0004121
0.00156076 0.00032809 1.75762e-06
0.00032809 7.10728e-05 1.09242e-06
1.75762e-06 1.09242e-06 -0.000130714
0.00217825 0.000503103 8.18591e-07
0.000503103 0.000138074 -1.92601e-06
8.18591e-07 -1.92601e-06 -6.2505e-05
0.00756702 0.000340177 -0.000389293
0.000340177 0.00460537 -5.12257e-05
-0.000389293 -5.12257e-05 0.00460861
0.00034924 0.000182875 5.61245e-07
0.000182875 -0.000277818 4.24482e-07
5.61245e-07 4.24482e-07 -0.000428832
0.00154666 0.000383739 1.78312e-05
0.000383739 6.53903e-05 2.65189e-06
1.78312e-05 2.65189e-06 -0.000170236
0.00796361 0.000336756 1.13996e-05
0.000336756 0.00485838 5.3228e-06
1.13996e-05 5.3228e-06 0.00485808
0.000307405 0.000240565 1.98485e-05
0.000240565 -0.000302494 1.71588e-05
1.98485e-05 1.71588e-05 -0.000478818
0.00836957 0.000234476 0.000396597
0.000234476 0.00508863 4.62208e-05
0.000396597 4.62208e-05 0.00510694
0.00214164 8.29323e-05 -6.33282e-06
8.29323e-05 -1.97197e-06 1.97321e-08
-6.33282e-06 1.97321e-08 -2.60195e-05
0.00216513 0.000109651 -8.35424e-07
0.000109651 2.53299e-07 -2.47591e-07
-8.35424e-07 -2.47591e-07 6.22597e-06
0.00229931 0.000151825 -4.45531e-07
0.000151825 -3.51709e-05 1.85389e-07
-4.45531e-07 1.85389e-07 1.17528e-05
0.00209599 -1.86212e-06 -4.33343e-07
-1.86212e-06 1.58842e-05 2.40428e-07
-4.33343e-07 2.40428e-07 -5.05191e-05
0.00216608 2.0701e-05 -6.05747e-07
2.0701e-05 1.73532e-05 -4.87076e-09
-6.05747e-07 -4.87076e-09 3.24146e-06
0.00213669 5.14243e-05 1.94422e-06
5.14243e-05 -4.38765e-05 -1.17898e-07
1.94422e-06 -1.17898e-07 -2.06784e-05
0.00215687 -5.70457e-05 3.56604e-06
-5.70457e-05 -2.97711e-06 -5.91174e-07
3.56604e-06 -5.91174e-07 -8.64217e-06
0.00207689 -7.37569e-05 -1.44363e-06
-7.37569e-05 2.49864e-06 2.6419e-07
-1.44363e-06 2.6419e-07 -6.39802e-05
0.00145844 -3.99973e-05 -3.1282e-06
-3.99973e-05 2.2944e-05 -1.60524e-08
-3.1282e-06 -1.60524e-08 -9.21732e-05
0.00216678 -0.000165287 3.08376e-07
-0.000165287 6.95663e-05 -5.24704e-07
3.08376e-07 -5.24704e-07 -1.31805e-05
0.00144184 -9.93607e-05 3.556e-06
-9.93607e-05 -1.37075e-05 -3.91443e-07
3.556e-06 -3.91443e-07 -0.000143747
0.000262946 -1.70374e-05 -1.56948e-05
-1.70374e-05 -0.000306649 2.33774e-06
-1.56948e-05 2.33774e-06 -0.000406106
0.00138164 -0.000149589 2.66591e-06
-0.000149589 -6.19751e-05 -9.37868e-07
2.66591e-06 -9.37868e-07 -0.000211032
0.000287118 -4.9926e-05 3.74117e-07
-4.9926e-05 -0.000295462 -3.44346e-07
3.74117e-07 -3.44346e-07 -0.000400276
0.00693597 -0.000176249 -0.0003811
-0.000176249 0.00419888 2.29237e-05
-0.0003811 2.29237e-05 0.00422695
0.000326393 -7.92035e-05 1.52827e-05
-7.92035e-05 -0.000270555 -5.43889e-06
1.52827e-05 -5.43889e-06 -0.000385697
0.00708734 -0.000120508 6.7898e-06
-0.000120508 0.0042813 2.27627e-07
6.7898e-06 2.27627e-07 0.00431555
0.00211495 -5.22824e-05 0.000290841
-5.22824e-05 0.00102626 -2.25605e-05
0.000290841 -2.25605e-05 0.00101865
0.00217991 0.000165576 -7.63205e-06
0.000165576 2.72639e-05 -7.97193e-07
-7.63205e-06 -7.97193e-07 -9.60558e-06
0.00216071 0.000166262 -9.46971e-07
0.000166262 -6.41052e-07 -9.82357e-08
-9.46971e-07 -9.82357e-08 5.01977e-06
0.00230007 0.000245662 7.43136e-07
0.000245662 0.000167161 4.20405e-07
7.43136e-07 4.20405e-07 7.23978e-05
0.00228909 0.000240339 7.46695e-07
0.000240339 8.1226e-05 3.79466e-08
7.46695e-07 3.79466e-08 3.73267e-05
0.00220707 0.000182193 8.90335e-07
0.000182193 -1.13141e-05 7.72106e-08
8.90335e-07 7.72106e-08 -1.866e-06
0.00134823 0.000196106 -1.33448e-06
0.000196106 -6.56869e-05 -8.52986e-07
-1.33448e-06 -8.52986e-07 -0.000232418
0.00223916 0.000330002 3.50339e-07
0.000330002 0.000137055 2.3618e-08
3.50339e-07 2.3618e-08 1.78563e-05
0.00234232 0.000330884 4.33183e-06
0.000330884 9.06873e-05 3.9941e-07
4.33183e-06 3.9941e-07 3.63273e-05
0.000329035 9.6187e-05 -1.55021e-05
9.6187e-05 -0.000274055 -6.99585e-06
-1.55021e-05 -6.99585e-06 -0.000396045
0.0014633 0.00026248 3.09823e-06
0.00026248 1.02936e-05 1.03864e-06
3.09823e-06 1.03864e-06 -0.000171563
0.00207819 0.000403573 8.43721e-07
0.000403573 5.58134e-05 -3.31626e-07
8.43721e-07 -3.31626e-07 -0.000107308
0.0073304 0.000324949 -0.000399739
0.000324949 0.00446582 -4.58029e-05
-0.000399739 -4.58029e-05 0.00447165
0.000346516 0.000137183 6.64352e-07
0.000137183 -0.000274707 3.17649e-07
6.64352e-07 3.17649e-07 -0.000409869
0.00148216 0.000318161 9.82908e-06
0.000318161 2.44951e-05 3.07767e-06
9.82908e-06 3.07767e-06 -0.000174318
0.00767683 0.000367981 8.1628e-06
0.000367981 0.00468807 5.64481e-06
8.1628e-06 5.64481e-06 0.00468561
0.000346103 0.000186358 1.73008e-05
0.000186358 -0.000284895 1.33839e-05
1.73008e-05 1.33839e-05 -0.0004385
0.00809835 0.000351861 0.000409486
0.000351861 0.00494124 5.72601e-05
0.000409486 5.72601e-05 0.00494509
0.00204672 7.93276e-05 1.07689e-06
7.93276e-05 -1.35742e-05 -7.24718e-08
1.07689e-06 -7.24718e-08 -8.73102e-05
0.00217264 8.34932e-05 -2.47517e-06
8.34932e-05 2.4548e-05 -1.64398e-07
-2.47517e-06 -1.64398e-07 -8.96093e-07
0.00217983 0.000117086 3.70343e-06
0.000117086 1.78283e-05 1.0382e-07
3.70343e-06 1.0382e-07 2.36528e-05
0.00142499 -5.97255e-06 -3.30043e-06
-5.97255e-06 2.01527e-05 -8.88097e-09
-3.30043e-06 -8.88097e-09 -9.39982e-05
0.00206251 9.11928e-07 -1.13365e-06
9.11928e-07 -3.1453e-06 1.01088e-07
-1.13365e-06 1.01088e-07 -6.94116e-05
0.00212969 2.19248e-05 3.81635e-06
2.19248e-05 -1.23602e-05 -1.79011e-07
3.81635e-06 -1.79011e-07 -2.31958e-05
0.00204007 -7.26269e-05 -1.9514e-06
-7.26269e-05 -1.98926e-05 1.92303e-08
-1.9514e-06 1.92303e-08 -8.58086e-05
0.00143341 -4.26801e-05 2.76585e-06
-4.26801e-05 -4.16765e-06 -1.63377e-07
2.76585e-06 -1.63377e-07 -0.000119432
0.000274218 -3.4494e-05 -1.64431e-05
-3.4494e-05 -0.000292362 1.35319e-06
-1.64431e-05 1.35319e-06 -0.000387219
0.00137255 -9.9753e-05 6.51446e-06
-9.9753e-05 -6.51699e-05 -1.11935e-06
6.51446e-06 -1.11935e-06 -0.000201936
0.000279564 -5.86576e-06 -3.29655e-08
-5.86576e-06 -0.00029585 5.52971e-08
-3.29655e-08 5.52971e-08 -0.000393604
0.00682632 -0.000142636 -0.000380577
-0.000142636 0.00412639 1.75219e-05
-0.000380577 1.75219e-05 0.00415865
0.000335862 -5.71085e-05 1.63215e-05
-5.71085e-05 -0.000258993 -3.79333e-06
1.63215e-05 -3.79333e-06 -0.000364279
0.00692608 -7.372e-05 -2.77889e-06
-7.372e-05 0.00417777 3.68375e-06
-2.77889e-06 3.68375e-06 0.00421507
0.00705025 -0.000134153 0.000380409
-0.000134153 0.00426021 -2.08698e-05
0.000380409 -2.08698e-05 0.00429409
0.00220992 0.00015864 1.28303e-06
0.00015864 0.000102588 -3.62707e-10
1.28303e-06 -3.62707e-10 2.4143e-05
0.00218587 0.000165807 -1.41642e-06
0.000165807 2.25287e-05 -1.74228e-07
-1.41642e-06 -1.74228e-07 -9.25056e-06
0.00208147 0.000167448 3.33767e-06
0.000167448 -6.68171e-05 5.71172e-07
3.33767e-06 5.71172e-07 -5.40963e-05
0.00132068 0.000133034 -1.16022e-06
0.000133034 -7.47321e-05 -4.77006e-07
-1.16022e-06 -4.77006e-07 -0.000223972
0.00223987 0.000242791 2.46451e-07
0.000242791 0.00012166 -1.01648e-07
2.46451e-07 -1.01648e-07 2.66412e-05
0.00229713 0.000239906 4.9741e-06
0.000239906 8.32315e-05 2.25595e-07
4.9741e-06 2.25595e-07 3.99282e-05
0.000321655 6.60683e-05 -1.47834e-05
6.60683e-05 -0.00026756 -5.14415e-06
-1.47834e-05 -5.14415e-06 -0.00038039
0.00137935 0.000198088 1.14487e-07
0.000198088 -3.49789e-05 2.38855e-07
1.14487e-07 2.38855e-07 -0.000202774
0.00217098 0.000327216 1.05266e-06
0.000327216 8.66041e-05 -6.06723e-07
1.05266e-06 -6.06723e-07 -3.30984e-05
0.00710872 0.000263231 -0.000404165
0.000263231 0.00432048 -3.67742e-05
-0.000404165 -3.67742e-05 0.00433784
0.000334939 0.000104602 7.95341e-07
0.000104602 -0.000271862 2.04179e-07
7.95341e-07 2.04179e-07 -0.000396399
0.00136781 0.000255412 4.71832e-06
0.000255412 -4.72805e-05 2.51345e-06
4.71832e-06 2.51345e-06 -0.000234641
0.00744776 0.000345169 4.51102e-06
0.000345169 0.00454586 3.63002e-06
4.51102e-06 3.63002e-06 0.00454959
0.000354528 0.000145316 1.57678e-05
0.000145316 -0.0002711 1.03384e-05
1.57678e-05 1.03384e-05 -0.00040938
0.00779956 0.00040892 0.000414596
0.00040892 0.00478077 6.19913e-05
0.000414596 6.19913e-05 0.00477183
0.00124841 4.28846e-05 -4.66059e-06
4.28846e-05 -9.20776e-05 -2.64032e-07
-4.66059e-06 -2.64032e-07 -0.000222932
0.00212308 7.6599e-05 -1.76841e-06
7.6599e-05 3.90896e-05 -6.69846e-08
-1.76841e-06 -6.69846e-08 -2.71007e-05
0.00220487 8.44439e-05 4.10182e-06
8.44439e-05 5.13737e-05 1.24129e-07
4.10182e-06 1.24129e-07 2.46103e-05
0.000313795 3.26519e-05 -1.71328e-05
3.26519e-05 -0.000268723 -8.09764e-07
-1.71328e-05 -8.09764e-07 -0.000355035
0.00141329 -2.22722e-06 2.70844e-06
-2.22722e-06 3.47562e-06 2.29844e-08
2.70844e-06 2.29844e-08 -0.00011048
0.00202659 5.26439e-06 -2.06867e-06
5.26439e-06 -2.41023e-05 -9.7456e-08
-2.06867e-06 -9.7456e-08 -9.02163e-05
0.00141097 -4.49087e-05 8.84372e-06
-4.49087e-05 -2.93229e-05 -7.27125e-07
8.84372e-06 -7.27125e-07 -0.000144631
0.000283208 -8.0137e-06 2.27231e-07
-8.0137e-06 -0.000285276 4.21278e-07
2.27231e-07 4.21278e-07 -0.000379841
0.00672836 -2.12648e-06 -0.000382299
-2.12648e-06 0.00405286 4.08383e-06
-0.000382299 4.08383e-06 0.00409438
0.000287329 5.49889e-06 1.58947e-05
5.49889e-06 -0.000291162 -1.36959e-06
1.58947e-05 -1.36959e-06 -0.000387142
0.00678804 -0.000140024 -7.49947e-06
-0.000140024 0.00410382 2.37262e-06
-7.49947e-06 2.37262e-06 0.00413551
0.00685904 -5.68282e-05 0.000366405
-5.68282e-05 0.00413447 -1.22446e-05
0.000366405 -1.22446e-05 0.00417208
0.00130414 8.39977e-05 -3.33795e-06
8.39977e-05 -6.48184e-05 -6.01111e-07
-3.33795e-06 -6.01111e-07 -0.000202196
0.0022258 0.000154464 -2.45986e-07
0.000154464 0.000110335 -2.68753e-07
-2.45986e-07 -2.68753e-07 3.57035e-05
0.00219113 0.000165808 2.40699e-06
0.000165808 1.77794e-05 -6.10959e-08
2.40699e-06 -6.10959e-08 -8.96876e-06
0.0027787 8.03913e-05 -0.000168153
8.03913e-05 0.00134051 -7.33939e-06
-0.000168153 -7.33939e-06 0.00128206
0.00133596 0.00013438 4.47352e-08
0.00013438 -5.51967e-05 9.39816e-08
4.47352e-08 9.39816e-08 -0.000205199
0.00217611 0.000239575 3.8904e-07
0.000239575 7.44347e-05 -6.00904e-07
3.8904e-07 -6.00904e-07 -2.08241e-05
0.0069528 0.000193535 -0.000401984
0.000193535 0.00421252 -2.66696e-05
-0.000401984 -2.66696e-05 0.00424125
0.000327389 8.58697e-05 1.07086e-06
8.58697e-05 -0.000263776 5.05907e-07
1.07086e-06 5.05907e-07 -0.0003795
0.00140654 0.00019955 1.81752e-06
0.00019955 -7.20948e-06 1.12742e-06
1.81752e-06 1.12742e-06 -0.000176065
0.00722967 0.000281051 1.61298e-06
0.000281051 0.00439938 1.82875e-06
1.61298e-06 1.82875e-06 0.00441499
0.000348818 0.000115184 1.55241e-05
0.000115184 -0.000263475 8.08765e-06
1.55241e-05 8.08765e-06 -0.000391128
0.00755453 0.000380998 0.000417117
0.000380998 0.0046281 5.76076e-05
0.000417117 5.76076e-05 0.0046253
0.000401248 1.67594e-05 -1.27504e-05
1.67594e-05 -0.000197766 -1.95528e-06
-1.27504e-05 -1.95528e-06 -0.000293818
0.00131727 4.28217e-05 -6.06276e-07
4.28217e-05 -4.91369e-05 8.34187e-08
-6.06276e-07 8.34187e-08 -0.000173702
0.00220315 7.25335e-05 -1.23394e-06
7.25335e-05 9.42955e-05 -1.80186e-07
-1.23394e-06 -1.80186e-07 3.56448e-05
0.00658875 -0.000106595 -0.000366071
-0.000106595 0.00398109 6.46033e-06
-0.000366071 6.46033e-06 0.00401169
0.00026952 1.20256e-05 -7.15316e-07
1.20256e-05 -0.000292134 -2.35269e-07
-7.15316e-07 -2.35269e-07 -0.000381088
0.00140913 2.31836e-07 8.80566e-06
2.31836e-07 -8.34329e-06 -2.62905e-07
8.80566e-06 -2.62905e-07 -0.000122085
0.000263082 1.81559e-05 1.61217e-05
1.81559e-05 -0.000298812 9.87075e-08
1.61217e-05 9.87075e-08 -0.000391885
0.00667251 -3.59976e-05 1.57835e-06
-3.59976e-05 0.00402401 -2.03356e-06
1.57835e-06 -2.03356e-06 0.00406015
0.00676325 -6.64446e-05 0.000370783
-6.64446e-05 0.0040742 -9.20363e-06
0.000370783 -9.20363e-06 0.00411269
0.00287128 2.86139e-05 -0.000162858
2.86139e-05 0.00140356 -3.91577e-06
-0.000162858 -3.91577e-06 0.00135118
0.00129364 8.65693e-05 -1.03786e-07
8.65693e-05 -6.98797e-05 -7.62563e-08
-1.03786e-07 -7.62563e-08 -0.00020804
0.00223867 0.000150445 1.03004e-07
0.000150445 0.000115489 -5.12138e-07
1.03004e-07 -5.12138e-07 4.4648e-05
0.0065131 -7.26262e-06 -0.000175376
-7.26262e-06 0.00393991 -1.11549e-06
-0.000175376 -1.11549e-06 0.00393103
0.000300532 6.96799e-05 7.14158e-07
6.96799e-05 -0.000272122 2.35682e-07
7.14158e-07 2.35682e-07 -0.000378053
0.00135537 0.00013681 1.6813e-06
0.00013681 -3.48421e-05 5.09408e-07
1.6813e-06 5.09408e-07 -0.000185709
0.00702262 0.000171052 -8.64073e-06
0.000171052 0.0042507 -1.78917e-06
-8.64073e-06 -1.78917e-06 0.00428066
0.000328143 0.000107748 1.65707e-05
0.000107748 -0.000264335 6.92149e-06
1.65707e-05 6.92149e-06 -0.000382156
0.00732571 0.000303449 0.000416983
0.000303449 0.00446556 4.69505e-05
0.000416983 4.69505e-05 0.00447974
0.00202255 -5.16709e-05 -0.000282321
-5.16709e-05 0.000969208 1.84153e-06
-0.000282321 1.84153e-06 0.000975345
0.0015346 3.83174e-05 -7.20827e-05
3.83174e-05 0.000532973 -2.44401e-07
-7.20827e-05 -2.44401e-07 0.000464411
0.00137715 4.53536e-05 6.35575e-06
4.53536e-05 -1.19007e-05 2.51452e-07
6.35575e-06 2.51452e-07 -0.000130219
0.00665291 -5.21749e-05 6.53218e-06
-5.21749e-05 0.00401582 3.58625e-06
6.53218e-06 3.58625e-06 0.0040526
0.000282041 -7.06846e-06 1.6712e-05
-7.06846e-06 -0.000276279 6.85594e-07
1.6712e-05 6.85594e-07 -0.000369096
0.00670404 -9.64061e-05 0.00038345
-9.64061e-05 0.00404999 -7.74487e-06
0.00038345 -7.74487e-06 0.00408549
0.00160173 2.98968e-05 -8.21569e-05
2.98968e-05 0.00072951 -1.99419e-06
-8.21569e-05 -1.99419e-06 0.000683813
0.00152859 2.98891e-05 -7.28512e-05
2.98891e-05 0.000529363 -2.1164e-06
-7.28512e-05 -2.1164e-06 0.00045471
0.00128845 8.74819e-05 3.55515e-06
8.74819e-05 -7.03948e-05 3.42834e-07
3.55515e-06 3.42834e-07 -0.000209212
0.00427262 8.53303e-05 0.000143127
8.53303e-05 0.00245927 5.20565e-06
0.000143127 5.20565e-06 0.00245422
0.000278806 8.07729e-05 1.67845e-05
8.07729e-05 -0.000288365 5.2374e-06
1.67845e-05 5.2374e-06 -0.000394748
0.00710365 0.000158982 0.000396181
0.000158982 0.00429409 2.88165e-05
0.000396181 2.88165e-05 0.00432784
0.00661392 -1.38368e-05 -8.32714e-06
-1.38368e-05 0.00399538 -4.05606e-06
-8.32714e-06 -4.05606e-06 0.00403023
0.000266284 5.5922e-05 1.84234e-05
5.5922e-05 -0.000295748 2.68615e-06
1.84234e-05 2.68615e-06 -0.000382429
0.00657073 3.19425e-05 0.000372081
3.19425e-05 0.00395798 3.63789e-07
0.000372081 3.63789e-07 0.00399835
0.00416999 4.50954e-05 0.000154303
4.50954e-05 0.00239535 7.01941e-06
0.000154303 7.01941e-06 0.00239413
0.000289382 1.86605e-05 1.63465e-05
1.86605e-05 -0.000276191 2.86083e-06
1.63465e-05 2.86083e-06 -0.000373317
0.00688099 2.74923e-05 0.000381875
2.74923e-05 0.0041489 1.39186e-05
0.000381875 1.39186e-05 0.00418681
0.00665618 -0.000106383 0.000371811
-0.000106383 0.00402501 -4.36682e-06
0.000371811 -4.36682e-06 0.00405638
0.0066839 2.96632e-05 0.000374329
2.96632e-05 0.00402253 8.74488e-06
0.000374329 8.74488e-06 0.00406362
