# vtk DataFile Version 2.0
Wound Healing Simulation
ASCII
DATASET UNSTRUCTURED_GRID
POINTS 3012 float
69.9759 18.75 4
67.2507 60.3285 4
69.976 18.75 2
73.0099 25.446 4
71.1327 20.9142 4
68.6801 16.6661 4
67.8244 19.9262 3.97989
67.2507 60.3286 2
71.1327 54.0858 4
68.6801 58.3339 4
65.6939 62.2254 4
65.3109 59.0006 3.97892
74.6784 42.3946 4
73.7221 47.2057 4
69.9759 18.75 0
73.0099 25.446 2
68.6801 16.6661 2
71.1327 20.9142 2
67.825 19.9297 2
74.6792 32.6053 4
73.7222 27.7943 4
72.1454 23.1494 4
70.6132 26.221 3.97946
68.8846 21.958 3.98029
67.2507 14.6715 4
66.6358 17.9725 3.97894
65.7934 21.0273 3.9691
67.2507 60.3285 0
71.1327 54.0858 2
68.6801 58.3339 2
65.694 62.2255 2
65.3123 58.9964 2
72.1454 51.8506 4
69.9759 56.25 4
68.8353 53.113 3.97947
64.0165 64.0165 4
66.6095 57.1333 3.9794
63.884 60.7648 3.97916
63.4968 57.7676 3.97009
60.3285 67.2507 4
74.6792 42.3947 2
73.7222 47.2057 2
74.9194 39.9526 4
74.2788 44.8158 4
72.1676 42.0856 3.97935
73.0099 49.554 4
71.2484 46.598 3.97879
73.0099 25.446 0
71.1327 20.9142 0
68.6801 16.6661 0
67.8244 19.9262 0.0201102
74.6792 32.6053 2
73.7222 27.7943 2
67.2508 14.6715 2
72.1455 23.1494 2
70.6131 26.2216 2
66.6368 17.977 2
68.8849 21.9603 2
65.7927 21.0283 2
74.9197 35.0474 4
74.2794 30.1841 4
72.1842 32.9435 3.9796
71.2774 28.4315 3.97909
69.8145 24.0595 3.98006
68.3437 26.9525 3.96843
66.759 22.9347 3.96873
65.694 12.7746 4
65.322 16.1046 3.97829
64.7097 19.1983 3.96943
63.87 22.0431 3.96584
71.1327 54.0858 0
65.6939 62.2254 0
68.6801 58.3339 0
65.3109 59.0006 0.0210789
72.1455 51.8506 2
69.9759 56.25 2
68.8354 53.111 2
64.0165 64.0165 2
66.6104 57.1293 2
63.8858 60.761 2
63.4961 57.7673 2
62.2254 65.694 4
58.8936 65.4137 3.9888
69.7678 50.9889 3.97921
67.7826 55.1671 3.97954
66.6459 52.2078 3.96809
62.3345 62.4265 3.98241
64.657 56.029 3.96935
62.1986 59.397 3.96905
61.8152 56.673 3.96575
58.3339 68.6801 4
60.3285 67.2508 2
73.7221 47.2057 0
74.6784 42.3946 0
74.9197 39.9526 2
74.2794 44.8159 2
72.167 42.0855 2
73.0099 49.554 2
71.2482 46.5977 2
75 37.5 4
72.4049 39.8023 3.98003
71.7818 44.3528 3.9793
69.8015 41.7897 3.96884
70.5741 48.8135 3.97885
68.9091 46.0142 3.96828
74.6792 32.6053 0
73.7222 27.7943 0
67.2507 14.6715 0
72.1454 23.1494 0
70.6132 26.221 0.0205352
68.8846 21.958 0.0197054
66.6358 17.9725 0.0210586
65.7934 21.0273 0.0308995
74.9197 35.0474 2
74.2794 30.1841 2
72.1836 32.9439 2
71.2772 28.432 2
65.694 12.7745 2
65.3236 16.1095 2
69.8146 24.0608 2
68.3435 26.9532 2
64.7089 19.1992 2
66.7586 22.9356 2
63.8698 22.0436 2
72.4127 35.2243 3.98009
71.8032 30.6764 3.97958
69.8375 33.2691 3.96897
68.9632 29.0391 3.9685
67.608 24.9132 3.9685
66.1678 27.6413 3.96698
64.0165 10.9835 4
64.7345 23.8375 3.96628
63.8882 14.329 3.97943
63.5087 17.4531 3.96988
62.8938 20.3293 3.96514
62.032 22.9652 3.96701
60.6825 11.0995 3.98375
57.6107 11.4541 3.97531
72.1454 51.8506 0
69.9759 56.25 0
68.8353 53.113 0.020531
64.0165 64.0165 0
63.884 60.7648 0.0208417
66.6095 57.1333 0.020604
63.4968 57.7676 0.0299062
62.2255 65.694 2
58.8952 65.4127 2
69.7678 50.9878 2
67.7831 55.1639 2
66.6454 52.2069 2
62.3366 62.4234 2
64.6562 56.0284 2
62.1978 59.3975 2
61.8145 56.6728 2
60.6673 63.976 3.98533
57.0248 66.7346 3.99028
57.5561 63.6872 3.97799
67.504 50.1755 3.96786
65.6983 54.1715 3.96853
64.5113 51.377 3.96558
60.7697 60.9298 3.97208
62.8111 55.0612 3.96507
60.6487 58.1465 3.96474
60.3126 55.7703 3.96432
56.25 69.9759 4
58.3339 68.6801 2
60.3285 67.2507 0
58.9203 9.65715 3.98663
62.2254 9.30607 4
73.0099 49.554 0
74.2788 44.8158 0
71.2484 46.598 0.0212067
72.1676 42.0856 0.0206517
74.9194 39.9526 0
75 37.5 2
72.4048 39.8024 2
71.7817 44.3524 2
69.8009 41.7893 2
70.574 48.8131 2
68.9091 46.0136 2
72.4883 37.5122 3.97966
70.039 39.6576 3.96899
69.4276 43.9072 3.96865
67.5717 41.4949 3.96865
68.2626 48.1062 3.96796
66.6756 45.4336 3.96767
74.9197 35.0474 0
74.2794 30.1841 0
72.1842 32.9435 0.0203965
71.2774 28.4315 0.0209092
65.694 12.7746 0
65.322 16.1046 0.0217082
69.8145 24.0595 0.0199416
68.3437 26.9525 0.0315731
66.759 22.9347 0.0312722
64.7097 19.1983 0.0305714
63.87 22.0431 0.0341599
72.4127 35.2244 2
71.8032 30.677 2
69.8369 33.2695 2
68.9631 29.0397 2
64.0165 10.9835 2
63.8904 14.3334 2
63.5079 17.4538 2
67.6077 24.914 2
66.168 27.6417 2
62.8938 20.3297 2
64.7343 23.838 2
62.0315 22.9657 2
60.6852 11.1025 2
57.6123 11.4533 2
70.0557 35.3925 3.96911
69.4645 31.1503 3.96868
67.6332 33.5942 3.96828
66.745 29.6287 3.96735
65.4978 25.7065 3.96655
64.0557 28.2745 3.97051
62.3401 12.6567 3.98193
62.7852 24.6587 3.96836
62.1944 15.7948 3.97014
61.8035 18.6961 3.9654
61.1656 21.3648 3.9652
60.3134 23.7641 3.9695
59.2436 12.7898 3.97316
55.8729 10.2398 3.97784
56.4018 13.1365 3.97253
69.7678 50.9889 0.0207914
62.2254 65.694 0
58.8936 65.4137 0.0111988
67.7826 55.1671 0.0204622
66.6459 52.2078 0.0319124
62.3345 62.4265 0.0175918
62.1986 59.397 0.0309499
64.657 56.029 0.0306488
61.8152 56.673 0.0342526
60.6693 63.9742 2
57.0259 66.734 2
57.5564 63.6885 2
67.5037 50.1747 2
65.6975 54.1707 2
64.5113 51.3767 2
60.7692 60.9309 2
62.8107 55.0611 2
60.6485 58.1467 2
60.3129 55.7701 2
55.0707 67.9315 3.99146
59.2163 62.3581 3.97302
55.8035 64.9064 3.98197
56.3229 62.0747 3.9743
65.2983 49.3998 3.96613
63.6889 53.285 3.96519
62.3596 50.6292 3.9673
59.3257 59.5427 3.96669
61.0446 54.2919 3.96576
59.2697 56.9925 3.9633
59.2116 55.1613 3.96571
48.1012 68.5769 3.98684
50.9485 69.9312 3.99159
54.0858 71.1327 4
56.25 69.976 2
58.3339 68.6801 0
57.0577 8.33688 3.98757
60.3285 7.74928 4
58.9228 9.65896 2
62.2255 9.30602 2
70.5741 48.8135 0.0211465
71.7818 44.3528 0.0207049
68.9091 46.0142 0.0317157
69.8015 41.7897 0.0311646
72.4049 39.8023 0.0199684
75 37.5 0
72.4877 37.5123 2
70.0389 39.6575 2
69.4274 43.9068 2
67.5716 41.4946 2
68.2624 48.1055 2
66.675 45.4332 2
70.127 37.5219 3.96906
67.8126 39.5113 3.9688
67.1921 43.4654 3.96805
65.4581 41.2011 3.97341
66.0327 47.4102 3.967
64.5442 44.831 3.97122
72.4127 35.2243 0.0199149
71.8032 30.6764 0.02042
69.8375 33.2691 0.0310316
68.9632 29.0391 0.0314979
64.0165 10.9835 0
63.8882 14.329 0.0205736
63.5087 17.4531 0.0301219
67.608 24.9132 0.0315027
66.1678 27.6413 0.0330216
64.7345 23.8375 0.0337179
62.8938 20.3293 0.0348644
62.032 22.9652 0.0329938
60.6825 11.0995 0.0162507
57.6107 11.4541 0.0246903
70.0556 35.3927 2
69.4644 31.1508 2
67.6332 33.5944 2
66.745 29.6291 2
62.3426 12.6609 2
62.1937 15.7947 2
61.8027 18.6965 2
65.4978 25.707 2
64.0542 28.275 2
61.1647 21.3653 2
62.7845 24.6592 2
60.3131 23.765 2
59.2452 12.789 2
56.4027 13.134 2
55.8741 10.2391 2
67.852 35.5494 3.96872
67.2404 31.6271 3.96786
65.6107 33.9354 3.97312
64.5709 30.2082 3.97154
63.4571 26.4347 3.96946
62.1036 28.8079 3.97483
60.772 14.2336 3.97227
60.9191 25.3731 3.97173
60.6013 17.1441 3.96562
60.1806 19.841 3.96298
59.5556 22.2973 3.96622
58.8249 24.369 3.97229
54.0365 9.14075 3.98028
57.905 14.3523 3.9721
54.7837 12.0258 3.974
55.3052 14.6775 3.97053
67.504 50.1755 0.0321439
57.0248 66.7346 0.00972468
60.6673 63.976 0.0146725
57.5561 63.6872 0.0220089
65.6983 54.1715 0.0314724
64.5113 51.377 0.0344206
60.7697 60.9298 0.0279226
60.6487 58.1465 0.0352589
62.8111 55.0612 0.0349297
60.3126 55.7703 0.0356793
55.0716 67.9313 2
59.2167 62.3598 2
55.8035 64.9073 2
56.3222 62.077 2
65.2982 49.3993 2
63.689 53.2848 2
62.3593 50.6288 2
59.3249 59.5438 2
61.0453 54.2917 2
59.2704 56.9924 2
59.2132 55.1611 2
53.0427 68.9993 3.99148
53.9659 66.011 3.9842
57.8751 60.8547 3.97259
54.6816 63.2003 3.977
55.2043 60.5932 3.97274
63.0982 48.6385 3.96866
61.6809 52.5543 3.96657
60.1304 49.9818 3.96929
58.0021 58.2425 3.9655
59.2647 53.9197 3.96711
58.0709 55.7833 3.96094
50.1079 67.8554 3.98647
47.4621 66.5767 3.98301
46.055 69.1559 3.98707
48.1012 68.5776 2
48.8025 70.7224 3.9917
50.949 69.9311 2
51.8506 72.1454 4
54.0858 71.1327 2
56.25 69.9759 0
55.1025 7.14124 3.98967
58.3339 6.31992 4
57.0597 8.33807 2
60.3286 7.74926 2
58.9203 9.65715 0.0133743
62.2254 9.30607 0
68.2626 48.1062 0.0320358
69.4276 43.9072 0.0313537
66.6756 45.4336 0.0323329
67.5717 41.4949 0.0313468
70.039 39.6576 0.0310053
72.4883 37.5122 0.0203399
70.1265 37.522 2
67.8122 39.5112 2
67.1927 43.4651 2
65.4565 41.2008 2
66.0328 47.4098 2
64.5426 44.8305 2
67.912 37.5225 3.9688
65.6955 39.3659 3.97391
65.0755 43.0123 3.97263
63.5901 40.9146 3.97731
63.8577 46.6959 3.96976
62.6323 44.1895 3.97545
70.0557 35.3925 0.0308909
69.4645 31.1503 0.0313186
67.6332 33.5942 0.0317153
66.745 29.6287 0.0326493
62.3401 12.6567 0.0180673
62.1944 15.7948 0.0298563
61.8035 18.6961 0.0345955
65.4978 25.7065 0.0334453
64.0557 28.2745 0.0294857
62.7852 24.6587 0.0316367
61.1656 21.3648 0.0347975
60.3134 23.7641 0.0305023
59.2436 12.7898 0.0268356
56.4018 13.1365 0.0274697
55.8729 10.2398 0.0221566
67.8514 35.5495 2
67.2409 31.6274 2
65.6089 33.9357 2
64.5694 30.2086 2
60.7719 14.2345 2
60.6008 17.1441 2
60.1821 19.841 2
63.4561 26.4352 2
62.1011 28.8088 2
59.557 22.298 2
60.9185 25.3739 2
58.8239 24.3702 2
57.9054 14.3507 2
55.3059 14.6763 2
54.0375 9.13919 2
54.7847 12.0229 2
65.7881 35.6711 3.9736
65.0896 32.1669 3.97204
64.1448 34.2614 3.97742
62.4231 30.6623 3.97597
61.5091 27.1058 3.97296
60.653 29.1796 3.97717
59.3027 15.6869 3.96816
59.1505 25.8456 3.97518
59.1009 18.3798 3.96299
58.6558 20.8932 3.96314
58.1352 23.1445 3.96713
57.7925 24.7224 3.97402
52.1116 8.1567 3.98317
53.056 11.0279 3.9754
56.6659 15.7703 3.97072
53.804 13.7075 3.97331
54.362 16.0337 3.97142
55.0707 67.9315 0.00853843
65.2983 49.3998 0.0338731
55.8035 64.9064 0.0180319
59.2163 62.3581 0.0269849
56.3229 62.0747 0.0256997
63.6889 53.285 0.0348093
62.3596 50.6292 0.0326992
59.3257 59.5427 0.0333063
59.2697 56.9925 0.0366993
61.0446 54.2919 0.0342365
59.2116 55.1613 0.0342876
53.0433 68.9993 2
53.966 66.0118 2
57.8743 60.8563 2
54.6811 63.2012 2
55.2038 60.5951 2
63.0973 48.638 2
61.6816 52.5541 2
60.1304 49.9812 2
58.0013 58.2437 2
59.2671 53.9195 2
58.0689 55.7822 2
52.0692 66.9982 3.98607
52.9523 64.213 3.98082
56.6373 59.4691 3.97116
53.6761 61.6084 3.97608
54.2468 59.295 3.97389
60.8167 47.8427 3.97039
59.5955 52.0701 3.96787
57.8343 49.5675 3.97116
56.7461 56.9615 3.96636
57.0309 54.0845 3.96523
50.1079 67.8557 2
49.3361 65.9176 3.98305
47.4621 66.5773 2
46.8913 64.7294 3.98139
45.5571 67.0934 3.98299
43.9723 69.5879 3.9874
46.055 69.1564 2
46.609 71.3669 3.99177
48.1012 68.5769 0.0131633
48.803 70.7226 2
49.554 73.0099 4
50.9485 69.9312 0.00840602
51.8506 72.1455 2
54.0858 71.1327 0
53.0643 6.07225 3.99118
55.1042 7.14141 2
56.25 5.02411 4
58.3339 6.3199 2
57.0577 8.33688 0.0124333
60.3285 7.74928 0
66.0327 47.4102 0.0329967
67.1921 43.4654 0.0319462
64.5442 44.831 0.0287759
65.4581 41.2011 0.0265901
67.8126 39.5113 0.0311968
70.127 37.5219 0.0309366
67.9119 37.5225 2
65.6939 39.3658 2
65.0735 43.0118 2
63.5873 40.9138 2
63.8562 46.6953 2
62.6299 44.1886 2
65.8015 37.5019 3.97375
63.7396 39.2592 3.97724
63.1546 42.5287 3.97671
62.215 40.6778 3.97702
61.7893 45.8863 3.97282
61.2214 43.648 3.97704
67.852 35.5494 0.0312781
67.2404 31.6271 0.0321358
65.6107 33.9354 0.0268785
64.5709 30.2082 0.0284559
60.772 14.2336 0.0277331
60.6013 17.1441 0.0343831
60.1806 19.841 0.0370183
63.4571 26.4347 0.0305355
62.1036 28.8079 0.025167
60.9191 25.3731 0.0282735
59.5556 22.2973 0.0337797
58.8249 24.369 0.0277078
57.905 14.3523 0.0278975
55.3052 14.6775 0.0294693
54.0365 9.14075 0.0197185
54.7837 12.0258 0.0260018
65.7865 35.6712 2
65.0878 32.1673 2
64.1428 34.2619 2
62.4217 30.663 2
59.3016 15.6877 2
59.1017 18.3796 2
58.6609 20.8935 2
61.5075 27.1067 2
60.6518 29.1805 2
58.1328 23.1461 2
59.1497 25.8467 2
57.7922 24.7241 2
56.6661 15.7683 2
54.363 16.035 2
53.8041 13.7009 2
52.1122 8.15559 2
53.057 11.0263 2
63.9422 35.6391 3.97702
62.7518 33.0665 3.97655
60.3853 30.6524 3.97637
59.3652 27.9583 3.97611
57.9233 17.0095 3.96525
57.5376 25.7878 3.97643
57.6645 19.5121 3.96037
57.2379 21.8953 3.96319
56.9925 24.0126 3.96806
50.1121 7.28714 3.98626
51.2316 10.1323 3.9784
52.1674 12.8142 3.97626
55.5182 17.006 3.96829
52.9683 15.3006 3.97079
53.7384 17.0208 3.97712
53.0427 68.9993 0.00851964
53.9659 66.011 0.0158017
63.0982 48.6385 0.0313396
54.6816 63.2003 0.0230045
57.8751 60.8547 0.0274055
55.2043 60.5932 0.0272619
61.6809 52.5543 0.0334288
60.1304 49.9818 0.0307139
58.0021 58.2425 0.0345037
58.0709 55.7833 0.039063
59.2647 53.9197 0.0328888
52.0693 66.9989 2
52.952 64.2139 2
56.6368 59.4704 2
53.6752 61.6083 2
54.2464 59.2971 2
60.8156 47.8418 2
59.5957 52.0695 2
57.8319 49.5662 2
56.7445 56.9656 2
57.0288 54.0833 2
51.1673 65.1242 3.98275
52.0433 62.5304 3.97767
55.4607 58.2268 3.97358
52.8239 60.1093 3.97714
53.6199 58.4452 3.97821
58.0513 46.7948 3.97445
57.4164 51.7415 3.96771
56.0149 49.4956 3.97072
55.4201 55.7586 3.96268
55.2391 53.3385 3.96269
50.1079 67.8554 0.0135321
49.3361 65.9177 2
48.6172 64.1171 3.98186
47.4621 66.5767 0.0169907
45.5572 67.094 2
46.8913 64.7299 2
46.3807 63.0444 3.98216
45.1316 65.1895 3.98085
43.6304 67.464 3.98337
41.8599 69.8749 3.98706
43.9722 69.5884 2
44.3762 71.8616 3.99179
46.055 69.1559 0.0129347
46.6094 71.3671 2
47.2057 73.7222 4
48.8025 70.7224 0.00830428
49.554 73.0099 2
51.8506 72.1454 0
50.9546 5.13271 3.99187
53.0654 6.07231 2
54.0858 3.86728 4
55.1025 7.14124 0.0103277
56.25 5.02406 2
58.3339 6.31992 0
63.8577 46.6959 0.0302414
65.0755 43.0123 0.0273676
62.6323 44.1895 0.0245529
63.5901 40.9146 0.0226893
65.6955 39.3659 0.0260923
67.912 37.5225 0.0312033
65.7999 37.5018 2
63.7369 39.2589 2
63.1524 42.5279 2
62.2128 40.6771 2
61.7872 45.8854 2
61.2195 43.6471 2
63.8017 37.4569 3.97709
61.932 39.3422 3.97702
60.9687 41.9274 3.97691
60.0103 44.7276 3.97673
65.7881 35.6711 0.0263969
65.0896 32.1669 0.0279625
64.1448 34.2614 0.0225754
62.4231 30.6623 0.024033
59.3027 15.6869 0.0318436
59.1009 18.3798 0.037013
58.6558 20.8932 0.0368595
61.5091 27.1058 0.0270404
60.653 29.1796 0.0228318
59.1505 25.8456 0.0248224
58.1352 23.1445 0.0328656
57.7925 24.7224 0.0259849
56.6659 15.7703 0.0292833
54.362 16.0337 0.0285769
53.804 13.7075 0.0266882
52.1116 8.1567 0.016833
53.056 11.0279 0.0246046
63.9396 35.6394 2
62.75 33.0673 2
60.3838 30.6532 2
57.922 17.0102 2
57.6693 19.511 2
57.2404 21.8962 2
59.3639 27.9593 2
56.9927 24.0147 2
57.5363 25.7897 2
50.1127 7.28548 2
55.5191 17.0055 2
53.7387 17.02 2
52.9688 15.2983 2
52.1686 12.8148 2
51.2325 10.1308 2
61.9691 35.3741 3.97709
60.0195 32.7819 3.97687
58.3491 30.1323 3.97693
57.0386 27.4509 3.97701
56.6082 18.1892 3.96584
56.0706 25.1788 3.97405
56.2749 20.5717 3.96054
55.9343 22.9391 3.96223
48.0567 6.52856 3.98851
49.3244 9.33665 3.98105
50.4304 12.0069 3.97556
51.3693 14.523 3.97122
54.3858 17.9601 3.96904
52.3429 17.0854 3.966
52.0692 66.9982 0.0139328
52.9523 64.213 0.0191803
60.8167 47.8427 0.0296095
53.6761 61.6084 0.0239228
56.6373 59.4691 0.0288381
54.2468 59.295 0.0261059
59.5955 52.0701 0.0321263
57.8343 49.5675 0.0288396
56.7461 56.9615 0.0336394
57.0309 54.0845 0.0347742
51.1672 65.1249 2
52.0426 62.5313 2
55.4603 58.2284 2
52.8234 60.1126 2
53.6194 58.4465 2
58.0499 46.7937 2
57.4151 51.7403 2
56.0119 49.4945 2
55.4193 55.7591 2
55.2417 53.3387 2
50.345 63.3751 3.98166
51.2375 60.9206 3.97658
54.1876 57.2427 3.97426
52.2938 58.6034 3.97542
56.3505 44.1125 3.97734
55.2077 47.8285 3.97408
54.8867 51.3348 3.96558
53.9226 54.5038 3.96435
49.3361 65.9176 0.0169458
48.617 64.1171 2
47.9602 62.467 3.98151
45.5571 67.0934 0.0170082
46.8913 64.7294 0.0186115
43.6305 67.4646 2
46.3807 63.0449 2
45.1316 65.19 2
45.9856 61.5754 3.98464
44.7662 63.4426 3.9797
43.356 65.4988 3.98066
41.6628 67.6822 3.98308
39.702 70.0214 3.98711
41.8597 69.8755 2
42.1106 72.2064 3.99193
43.9723 69.5879 0.0126031
44.3766 71.8618 2
44.8159 74.2794 4
46.609 71.3669 0.00823084
47.2057 73.7222 2
49.554 73.0099 0
48.7854 4.32321 3.99256
50.9553 5.13217 2
51.8506 2.85458 4
53.0643 6.07225 0.00881815
54.0858 3.86728 2
56.25 5.02411 0
61.7893 45.8863 0.0271768
63.1546 42.5287 0.0232939
61.2214 43.648 0.022958
62.215 40.6778 0.0229769
63.7396 39.2592 0.0227638
65.8015 37.5019 0.02625
63.7988 37.457 2
61.9304 39.3421 2
60.9673 41.9267 2
60.0097 44.7267 2
61.7668 37.4425 3.97718
59.9512 39.8241 3.97704
58.6685 42.8683 3.97677
63.9422 35.6391 0.0229782
62.7518 33.0665 0.0234456
60.3853 30.6524 0.0236338
57.9233 17.0095 0.0347476
57.6645 19.5121 0.0396269
57.2379 21.8953 0.0368109
59.3652 27.9583 0.0238855
57.5376 25.7878 0.0235686
56.9925 24.0126 0.0319353
55.5182 17.006 0.0317072
53.7384 17.0208 0.0228792
52.9683 15.3006 0.0292067
50.1121 7.28714 0.0137418
52.1674 12.8142 0.0237368
51.2316 10.1323 0.0215977
61.9675 35.3744 2
60.0181 32.7821 2
58.3483 30.1329 2
56.607 18.1905 2
56.2782 20.5693 2
55.9373 22.9411 2
57.0384 27.4527 2
56.0701 25.1811 2
48.0569 6.52706 2
49.3251 9.33457 2
54.3867 17.9601 2
52.3432 17.0847 2
51.3691 14.5178 2
50.4317 12.0048 2
59.5927 35.1377 3.97698
57.6482 32.3207 3.97629
56.2427 29.416 3.97747
55.1528 26.6947 3.97706
55.2957 19.2306 3.96057
54.7184 24.1459 3.964
54.8823 21.6277 3.9597
45.9629 5.8831 3.98899
43.3743 7.47473 3.98577
47.3556 8.62667 3.9841
48.5987 11.3029 3.97778
49.7065 13.7596 3.97557
50.6184 16.1677 3.97475
53.0878 18.7111 3.96453
51.2755 18.1137 3.97701
51.1673 65.1242 0.0172529
52.0433 62.5304 0.0223261
58.0513 46.7948 0.0255488
52.8239 60.1093 0.0228636
55.4607 58.2268 0.0264208
53.6199 58.4452 0.0217907
57.4164 51.7415 0.0322945
56.0149 49.4956 0.02928
55.4201 55.7586 0.0373168
55.2391 53.3385 0.0373147
50.3446 63.3754 2
51.2366 60.9208 2
54.1877 57.2444 2
52.2931 58.6042 2
56.3502 44.1116 2
55.2069 47.8277 2
54.8887 51.3347 2
53.9232 54.5053 2
49.589 61.7376 3.9797
55.1666 41.6637 3.97545
50.5523 59.3075 3.97278
52.1438 56.4613 3.97029
53.793 45.4798 3.97463
53.0728 49.2591 3.96936
52.5316 52.8033 3.96149
48.6172 64.1171 0.018136
47.9599 62.4665 2
47.325 60.9998 3.98572
43.6304 67.464 0.0166323
45.1316 65.1895 0.0191512
46.3807 63.0444 0.0178359
41.663 67.6823 2
43.3559 65.4996 2
45.9855 61.576 2
44.7662 63.4433 2
45.7611 60.6198 3.98416
44.4821 61.8209 3.98057
43.1458 63.7143 3.97855
41.5457 65.6358 3.97958
39.6323 67.761 3.98277
37.5261 70.046 3.98626
39.7018 70.0219 2
39.8174 72.4031 3.99172
41.8599 69.8749 0.0129389
42.1109 72.2067 2
42.3947 74.6792 4
44.3762 71.8616 0.008214
44.8159 74.2794 2
47.2057 73.7222 0
43.852 5.36018 3.98884
46.5713 3.64755 3.99271
48.7857 4.3226 2
49.554 1.99015 4
50.9546 5.13271 0.00812821
51.8506 2.85453 2
54.0858 3.86728 0
60.0103 44.7276 0.0232726
60.9687 41.9274 0.0230906
61.932 39.3422 0.0229848
63.8017 37.4569 0.0229058
61.7653 37.4424 2
59.9509 39.824 2
58.6682 42.8673 2
59.4516 37.5657 3.97743
57.6195 40.622 3.9772
54.5819 39.68 3.97525
61.9691 35.3741 0.0229077
60.0195 32.7819 0.02313
58.3491 30.1323 0.0230651
56.6082 18.1892 0.0341584
56.2749 20.5717 0.039463
55.9343 22.9391 0.0377719
57.0386 27.4509 0.0229894
56.0706 25.1788 0.0259483
54.3858 17.9601 0.0309635
52.3429 17.0854 0.0340015
51.3693 14.523 0.0287816
48.0567 6.52856 0.0114892
49.3244 9.33665 0.0189517
50.4304 12.0069 0.0244367
59.5926 35.1376 2
45.9627 5.88251 2
43.3742 7.47387 2
57.6484 32.3215 2
56.2417 29.4168 2
55.2944 19.2314 2
54.8901 21.6286 2
54.7176 24.1479 2
55.1502 26.697 2
47.356 8.62386 2
48.5998 11.3003 2
53.0889 18.7096 2
51.2766 18.1143 2
50.6195 16.1682 2
49.7069 13.7583 2
57.0044 34.784 3.9773
55.3543 31.5812 3.97665
54.1618 28.5071 3.97744
53.5204 25.6086 3.97611
53.9008 20.1929 3.95811
53.4277 22.8004 3.95456
41.3995 7.08065 3.98585
45.3606 7.99564 3.98667
42.8664 9.41815 3.98223
46.6668 10.6586 3.98134
47.74 13.1143 3.97744
48.9193 15.424 3.97249
49.9809 17.7323 3.97293
51.6045 19.3921 3.97345
50.345 63.3751 0.0183356
51.2375 60.9206 0.0234224
56.3505 44.1125 0.022661
55.2077 47.8285 0.025919
52.2938 58.6034 0.024577
54.1876 57.2427 0.025736
54.8867 51.3348 0.0344158
53.9226 54.5038 0.0356544
49.5881 61.7374 2
55.1627 41.6617 2
50.5517 59.3086 2
52.1438 56.4629 2
53.7945 45.4795 2
53.0804 49.2592 2
52.5322 52.8028 2
48.8397 60.1928 3.97757
51.994 42.5476 3.98196
49.76 57.6014 3.9682
50.5044 54.3958 3.96259
51.4618 47.1876 3.97548
51.0148 50.888 3.95557
47.6618 43.6821 3.98592
47.9602 62.467 0.01849
47.3248 60.9993 2
46.6099 59.7873 3.98691
41.6628 67.6822 0.0169221
43.356 65.4988 0.0193359
44.7662 63.4426 0.0203002
45.9856 61.5754 0.0153574
39.6327 67.7617 2
41.5455 65.6354 2
45.7609 60.6204 2
43.1458 63.7151 2
44.482 61.8215 2
44.6178 60.2786 3.98586
42.9491 62.0668 3.97542
41.5996 63.8068 3.97851
39.6472 65.6021 3.97828
37.5633 67.742 3.98152
31.6976 65.1205 3.97933
33.3926 67.4803 3.9814
35.3339 69.9562 3.98653
37.5259 70.047 2
37.5094 72.4576 3.99193
39.702 70.0214 0.0128902
39.8177 72.4034 2
39.9526 74.9197 4
42.1106 72.2064 0.00807359
42.3947 74.6792 2
44.8159 74.2794 0
41.7365 4.96931 3.98904
43.8521 5.35927 2
44.3265 3.11077 3.99302
46.5715 3.64724 2
47.2057 1.27793 4
48.7854 4.32321 0.00744012
49.554 1.99013 2
51.8506 2.85458 0
58.6685 42.8683 0.0232286
59.9512 39.8241 0.0229557
61.7668 37.4425 0.0228192
59.4518 37.5663 2
57.619 40.6223 2
54.5789 39.683 2
56.3878 37.8839 3.97714
49.0239 41.2552 3.98378
52.5874 39.3066 3.98389
39.4431 6.80455 3.98587
59.5927 35.1377 0.0230187
57.6482 32.3207 0.023712
56.2427 29.416 0.0225342
55.2957 19.2306 0.0394341
54.8823 21.6277 0.0403015
54.7184 24.1459 0.0360032
55.1528 26.6947 0.0229395
53.0878 18.7111 0.035472
51.2755 18.1137 0.0229917
50.6184 16.1677 0.0252549
45.9629 5.8831 0.0110101
49.7065 13.7596 0.0244255
47.3556 8.62667 0.0158967
48.5987 11.3029 0.0222171
43.3743 7.47473 0.0142334
57.004 34.7835 2
41.3995 7.07934 2
45.3603 7.99519 2
42.8662 9.41758 2
55.3571 31.5791 2
54.1621 28.5079 2
53.9028 20.1953 2
53.4264 22.7989 2
53.5189 25.6099 2
46.6673 10.6537 2
47.741 13.1102 2
51.6069 19.3932 2
49.9809 17.7299 2
48.919 15.4249 2
54.391 33.9811 3.97567
53.0929 30.5961 3.97739
52.254 27.3288 3.97549
51.953 24.2172 3.97759
52.2993 21.1326 3.97179
41.0137 9.05248 3.98184
44.726 9.9956 3.98478
42.4678 10.9043 3.98823
46.0016 12.7371 3.97679
47.6704 14.5999 3.97223
48.0879 17.0068 3.97136
49.7886 19.7459 3.97115
49.589 61.7376 0.020303
50.5523 59.3075 0.0272157
55.1666 41.6637 0.0245469
53.793 45.4798 0.0253701
53.0728 49.2591 0.0306432
52.1438 56.4613 0.0297066
52.5316 52.8033 0.0385053
48.8389 60.1912 2
52.0098 42.5527 2
49.7588 57.6024 2
50.5044 54.3977 2
51.4657 47.1871 2
51.0162 50.8867 2
47.6725 43.7063 2
47.9678 58.7253 3.97857
49.6217 45.1933 3.97824
48.5425 55.8946 3.97276
48.9991 52.5561 3.97696
49.4136 48.9773 3.97338
45.4227 39.8288 3.87742
45.8946 42.5495 3.90689
46.0817 45.709 3.98242
43.2324 41.074 3.75212
41.771 41.9514 3.58079
47.325 60.9998 0.0142783
46.6091 59.7867 2
45.4546 58.7832 3.98504
39.6323 67.761 0.0172291
41.5457 65.6358 0.02042
43.1458 63.7143 0.0214546
44.4821 61.8209 0.0194329
45.7611 60.6198 0.0158389
41.5995 63.8067 2
37.5636 67.743 2
39.6471 65.6028 2
44.6178 60.2792 2
42.9491 62.0674 2
41.7523 62.4779 3.97753
42.4766 59.96 3.97926
39.8937 63.5383 3.9759
37.6421 65.4994 3.97891
35.4637 67.6517 3.98163
33.5757 65.333 3.97844
31.9597 63.2876 3.97855
29.8841 64.7122 3.98079
31.6974 65.1212 2
31.3774 67.1904 3.98189
33.3927 67.4812 2
33.1573 69.7502 3.98653
35.3337 69.957 2
35.1953 72.372 3.99175
37.5261 70.046 0.0137449
37.5095 72.4582 2
37.5 75 4
39.8174 72.4031 0.00828067
39.9526 74.9197 2
42.3947 74.6792 0
39.6242 4.71698 3.98944
41.7367 4.96837 2
42.0629 2.7182 3.99328
43.852 5.36018 0.0111606
44.3267 3.11017 2
44.8158 0.721173 4
46.5713 3.64755 0.00729168
47.2057 1.27779 2
49.554 1.99015 0
57.6195 40.622 0.0228009
59.4516 37.5657 0.0225691
54.5819 39.68 0.0247486
49.0482 41.2713 2
56.3884 37.8832 2
52.5866 39.2858 2
53.4351 36.6293 3.9775
46.9481 40.3541 3.91204
49.9654 38.5204 3.98919
37.517 6.67571 3.9858
39.4431 6.80297 2
39.2112 8.69536 3.98332
35.9429 8.49525 3.98409
57.0044 34.784 0.022697
55.3543 31.5812 0.0233455
54.1618 28.5071 0.0225554
53.9008 20.1929 0.0418929
53.4277 22.8004 0.0454443
53.5204 25.6086 0.0238929
51.6045 19.3921 0.0265537
49.9809 17.7323 0.0270729
48.9193 15.424 0.0275063
45.3606 7.99564 0.0133347
47.74 13.1143 0.0225562
46.6668 10.6586 0.0186564
41.3995 7.08065 0.0141494
42.8664 9.41815 0.0177745
54.3877 33.9828 2
41.0139 9.05121 2
44.7248 9.99551 2
42.4676 10.9047 2
53.0894 30.5961 2
52.2629 27.3289 2
52.3042 21.134 2
51.9537 24.2223 2
46.002 12.7294 2
47.6704 14.5952 2
49.7916 19.7473 2
48.0867 17.0043 2
51.9236 32.8899 3.98125
50.8896 29.2883 3.97627
50.5197 25.8459 3.97279
49.8532 22.3393 3.98396
40.5688 11.6128 3.98089
43.8565 11.9148 3.97993
45.7893 15.4373 3.98325
47.4816 19.3565 3.97783
45.8324 37.4835 3.87177
48.8397 60.1928 0.0224267
49.76 57.6014 0.0318027
51.994 42.5476 0.018038
51.4618 47.1876 0.0245218
51.0148 50.888 0.0444278
50.5044 54.3958 0.0374124
47.6618 43.6821 0.0140837
47.9666 58.7273 2
49.6343 45.204 2
48.54 55.897 2
48.9985 52.5608 2
49.4178 48.9744 2
45.4756 39.8454 2
45.9205 42.5848 2
46.0889 45.7175 2
43.2599 41.1043 2
41.7948 41.9708 2
46.8079 57.3277 3.9791
43.9817 39.3673 3.75159
42.1222 40.8302 3.62605
47.7229 47.2019 3.97983
47.0862 54.209 3.96931
47.4126 50.7073 3.97202
44.5066 47.317 3.97712
44.5426 41.8939 3.85524
44.5616 44.4458 3.92202
42.1632 42.5559 3.77029
40.7174 42.2633 3.61106
46.6099 59.7873 0.0130866
45.4545 58.783 2
43.8594 57.6929 3.98056
37.5633 67.742 0.0184822
39.6472 65.6021 0.0217243
41.5996 63.8068 0.0214859
42.9491 62.0668 0.0245816
44.6178 60.2786 0.0141379
35.4639 67.6525 2
41.7523 62.4781 2
39.8934 63.5388 2
37.642 65.5003 2
42.4769 59.9603 2
40.6227 61.6296 3.97866
40.4383 58.173 3.97975
37.837 63.1984 3.97712
35.573 65.422 3.97896
33.5756 65.3337 2
31.9594 63.2883 2
33.629 63.3261 3.97707
30.3792 62.8472 3.97991
32.1245 61.9907 3.98361
26.8723 61.4884 3.97735
28.0633 64.1408 3.98018
29.8838 64.7128 2
29.4071 66.7544 3.98263
31.6976 65.1205 0.0206713
31.3775 67.1911 2
31.015 69.4151 3.98636
33.3926 67.4803 0.0185983
33.1571 69.7509 2
32.8926 72.1465 3.9918
35.3339 69.9562 0.0134735
35.195 72.3725 2
35.0474 74.9194 4
37.5094 72.4576 0.00806837
37.5 75 2
39.9526 74.9197 0
35.6217 6.72672 3.98546
37.5238 4.61639 3.98957
39.6243 4.71564 2
39.7894 2.4748 3.99324
41.7365 4.96931 0.0109601
42.0629 2.71764 2
42.3946 0.32156 4
44.3265 3.11077 0.00697671
44.8159 0.72056 2
47.2057 1.27793 0
49.0239 41.2552 0.0162209
56.3878 37.8839 0.0228594
52.5874 39.3066 0.0161132
46.9714 40.3506 2
49.971 38.5101 2
53.44 36.6397 2
50.7561 35.5766 3.9755
47.6178 37.7593 3.9286
45.4288 35.1535 3.87433
43.2406 33.9083 3.74724
41.7739 33.0396 3.57686
37.4585 8.53699 3.98433
37.517 6.67439 2
39.4431 6.80455 0.0141251
39.2116 8.69352 2
38.9765 10.1303 3.98342
35.8992 9.7772 3.98101
34.1522 8.8263 3.98262
35.9427 8.49356 2
54.391 33.9811 0.024332
53.0929 30.5961 0.0226113
52.254 27.3288 0.02451
52.2993 21.1326 0.0282149
51.953 24.2172 0.0224056
49.7886 19.7459 0.0288455
48.0879 17.0068 0.0286433
47.6704 14.5999 0.0277679
44.726 9.9956 0.0152174
46.0016 12.7371 0.0232133
41.0137 9.05248 0.0181567
42.4678 10.9043 0.0117715
51.9301 32.8894 2
40.5698 11.6127 2
43.8551 11.9163 2
50.9094 29.2876 2
50.5237 25.8478 2
49.8554 22.337 2
45.7873 15.4205 2
47.484 19.3641 2
49.4758 31.4993 3.98729
48.9343 27.6148 3.97572
49.211 24.5173 3.97676
47.1373 22.1038 3.98466
38.3023 12.7424 3.97762
42.0983 14.3075 3.97957
44.7855 18.5331 3.97699
44.3511 37.49 3.7599
45.9086 37.4882 2
47.9678 58.7253 0.0214344
48.5425 55.8946 0.0272362
49.6217 45.1933 0.0217564
49.4136 48.9773 0.0266168
48.9991 52.5561 0.023037
45.4227 39.8288 0.122583
45.8946 42.5495 0.0931141
46.0817 45.709 0.0175789
43.2324 41.074 0.247883
41.771 41.9514 0.419206
46.8059 57.3294 2
44.021 39.3889 2
42.1182 40.8424 2
47.728 47.2056 2
47.0838 54.2132 2
47.416 50.712 2
44.5207 47.2955 2
44.5705 41.9192 2
44.5915 44.4651 2
42.2121 42.5913 2
40.7361 42.2658 2
45.3528 55.9136 3.98967
42.4506 39.2576 3.63618
40.5978 40.7134 3.73649
45.8544 48.8597 3.99266
45.4155 52.4921 3.98278
43.2222 48.3172 3.99715
43.146 45.9726 3.90498
43.3019 43.6698 3.85102
40.8451 43.6515 3.74825
39.2346 42.541 3.62419
45.4546 58.7832 0.0149596
43.8586 57.6944 2
42.0869 56.2927 3.98358
35.4637 67.6517 0.0183669
37.6421 65.4994 0.0210912
39.8937 63.5383 0.0240962
41.7523 62.4779 0.0224713
42.4766 59.96 0.0207413
35.573 65.423 2
40.6227 61.6301 2
37.8365 63.1993 2
40.4385 58.1745 2
38.9152 56.4695 3.99104
38.2506 60.312 3.97922
35.6069 63.1925 3.97641
33.5757 65.333 0.0215551
31.9597 63.2876 0.0214473
33.6288 63.3269 2
30.379 62.8478 2
32.1249 61.9916 2
28.683 62.1926 3.97971
33.3459 61.5001 3.97796
31.0704 61.208 3.97878
27.5775 59.5809 3.98101
23.8044 59.0691 3.97937
25.0389 60.8621 3.97839
26.8726 61.4888 2
26.2307 63.4713 3.97934
28.0632 64.1406 2
27.464 66.1788 3.98271
29.8841 64.7122 0.0192079
29.4072 66.7548 2
28.9074 68.9411 3.98605
31.3774 67.1904 0.0181099
31.0148 69.4158 2
30.6151 71.7776 3.99142
33.1573 69.7502 0.0134652
32.8921 72.1469 2
32.6054 74.6784 4
35.1953 72.372 0.00824715
35.0474 74.9197 2
37.5 75 0
33.7246 6.98228 3.98462
35.4358 4.68661 3.98945
35.6216 6.72564 2
37.515 2.38726 3.99327
37.5238 4.61546 2
39.6242 4.71698 0.0105642
39.7892 2.47407 2
39.9526 0.0806499 4
42.0629 2.7182 0.00672258
42.3947 0.320817 2
44.8158 0.721173 0
43.9921 35.6102 3.75035
42.1261 34.1538 3.62031
46.9481 40.3541 0.0879591
49.9654 38.5204 0.0108088
53.4351 36.6293 0.0224989
47.616 37.7515 2
50.7682 35.5711 2
45.4735 35.1287 2
43.2748 33.8756 2
41.7979 33.0191 2
47.79 34.3066 3.95641
44.5493 33.072 3.84875
42.1715 32.4337 3.76199
40.7217 32.7323 3.60808
37.311 10.6345 3.98102
37.4586 8.53517 2
37.517 6.67571 0.0142037
39.2112 8.69536 0.0166754
38.9778 10.1287 2
34.7552 10.3855 3.98138
35.8998 9.7741 2
32.3792 9.37388 3.97995
34.1511 8.82376 2
35.9429 8.49525 0.0159113
51.9236 32.8899 0.0187505
50.8896 29.2883 0.0237325
50.5197 25.8459 0.0272112
49.8532 22.3393 0.0160412
47.4816 19.3565 0.022167
45.7893 15.4373 0.0167515
43.8565 11.9148 0.0200735
40.5688 11.6128 0.0191075
49.4913 31.4943 2
38.3023 12.7406 2
42.0992 14.3118 2
48.9432 27.617 2
49.2146 24.516 2
47.133 22.0978 2
44.7867 18.5584 2
47.3239 29.6108 3.98434
46.8987 25.2602 3.97782
44.2575 21.4723 3.97876
36.5837 12.943 3.97565
38.683 14.8266 3.97572
41.7443 17.8889 3.97808
42.5771 37.4813 3.65893
44.39 37.4889 2
45.8324 37.4835 0.128225
46.8079 57.3277 0.0209038
47.0862 54.209 0.030686
47.7229 47.2019 0.0201749
47.4126 50.7073 0.0279796
43.9817 39.3673 0.248408
44.5426 41.8939 0.144764
44.5616 44.4458 0.0779769
44.5066 47.317 0.0228774
42.1632 42.5559 0.229712
42.1222 40.8302 0.373948
40.7174 42.2633 0.388943
45.3507 55.9135 2
42.4424 39.259 2
40.6033 40.6963 2
45.8573 48.8682 2
45.4143 52.4985 2
43.2284 48.3336 2
43.1928 46.006 2
43.3418 43.6969 2
40.8795 43.6981 2
39.2319 42.5441 2
43.6819 54.4017 3.99904
40.7006 39.1253 3.74906
39.1064 40.782 3.72212
43.5316 50.3843 4.00466
41.8347 47.5117 3.94146
41.7368 45.0718 3.86663
39.3355 44.3188 3.74404
37.5066 42.6374 3.65197
43.8594 57.6929 0.01944
42.0865 56.2934 2
40.3988 54.8685 3.98159
35.573 65.422 0.0210381
37.837 63.1984 0.0228827
40.6227 61.6296 0.0213438
40.4383 58.173 0.0202486
35.6066 63.1928 2
38.2507 60.3128 2
38.9152 56.4684 2
37.991 55.1862 3.99218
36.933 57.6097 3.98624
35.3641 60.8978 3.97674
33.629 63.3261 0.0229313
30.3792 62.8472 0.0200854
32.1245 61.9907 0.0163876
33.3465 61.5009 2
28.6832 62.1923 2
31.071 61.2088 2
29.4091 60.2772 3.97741
32.362 59.7266 3.98767
28.0403 58.3627 3.99352
27.5789 59.5814 2
25.3934 58.5839 3.97752
22.7754 58.2224 3.96796
23.407 60.3377 3.97944
23.8055 59.0701 2
25.0395 60.8625 2
24.4342 62.7632 3.97943
26.8723 61.4884 0.0226477
26.2307 63.472 2
25.5484 65.488 3.98151
28.0633 64.1408 0.0198213
27.464 66.1791 2
26.8371 68.3295 3.98606
29.4071 66.7544 0.0173681
28.9072 68.9412 2
28.3701 71.2628 3.99125
31.015 69.4151 0.0136418
30.6145 71.7778 2
30.1842 74.2788 4
32.8926 72.1465 0.00820156
32.6053 74.6792 2
35.0474 74.9194 0
31.7891 7.42236 3.98327
33.3483 4.92623 3.9888
33.7242 6.98047 2
35.2453 2.46327 3.99318
35.4356 4.68597 2
35.6217 6.72672 0.014535
37.5 0 4
37.5147 2.38677 2
37.5238 4.61639 0.010434
39.7894 2.4748 0.00676457
39.9526 0.0802889 2
42.3946 0.32156 0
42.4373 35.7097 3.63337
44.0357 35.5863 2
40.6051 34.2781 3.73548
42.1185 34.1416 2
47.6178 37.7593 0.0714048
50.7561 35.5766 0.024498
45.4288 35.1535 0.125673
43.2406 33.9083 0.252763
41.7739 33.0396 0.423143
47.8069 34.3108 2
44.5788 33.0532 2
42.2249 32.3955 2
40.7408 32.7293 2
45.831 31.6649 3.92647
43.3062 31.3237 3.85086
40.8507 31.3453 3.7497
39.2369 32.4665 3.62225
35.6942 11.7825 3.97938
37.3129 10.6318 2
37.4585 8.53699 0.0156664
38.9765 10.1303 0.0165754
33.1002 11.2246 3.97636
34.7544 10.381 2
35.8992 9.7772 0.0189938
30.4843 10.0237 3.97971
32.3782 9.3728 2
34.1522 8.8263 0.0173823
49.4758 31.4993 0.0127071
48.9343 27.6148 0.0242831
49.211 24.5173 0.0232443
47.1373 22.1038 0.0153395
44.7855 18.5331 0.0230081
42.0983 14.3075 0.0204312
38.3023 12.7424 0.022377
36.5821 12.9344 2
47.3405 29.5823 2
38.6812 14.8148 2
41.7409 17.8811 2
46.9053 25.2585 2
44.2527 21.4598 2
45.2243 27.7414 4.00423
43.6794 24.1835 4.01195
41.3189 20.8617 3.98058
35.7739 14.7781 3.97751
38.6814 17.629 3.97866
40.7508 37.4742 3.76172
42.5767 37.4842 2
44.3511 37.49 0.2401
45.3528 55.9136 0.0103262
45.4155 52.4921 0.0172237
45.8544 48.8597 0.00734138
42.4506 39.2576 0.363823
43.3019 43.6698 0.148982
43.146 45.9726 0.0950245
43.2222 48.3172 0.00284509
40.8451 43.6515 0.251751
40.5978 40.7134 0.263514
39.2346 42.541 0.375811
43.6788 54.4009 2
40.6896 39.1212 2
39.107 40.7658 2
43.5313 50.4012 2
41.8244 47.5361 2
41.7614 45.1079 2
37.5034 42.6441 2
39.3503 44.3644 2
41.8351 52.9263 3.99514
39.1205 39.1395 3.74265
37.5077 40.832 3.7398
35.7807 42.5488 3.62518
40.8501 49.568 3.99616
39.7844 45.8886 3.84315
37.5043 44.5523 3.75021
42.0869 56.2927 0.0164182
40.3939 54.8822 2
38.719 53.7432 3.99631
35.6069 63.1925 0.0235932
38.2506 60.312 0.020779
38.9152 56.4695 0.00895656
35.3645 60.8972 2
36.9338 57.6099 2
37.9896 55.1772 2
36.3222 55.2606 3.99742
34.4903 58.5032 3.9873
33.3459 61.5001 0.0220447
28.683 62.1926 0.0202922
31.0704 61.208 0.0212193
32.3628 59.7283 2
29.4102 60.2768 2
30.3169 57.8042 3.98505
28.0419 58.3629 2
26.9793 56.8172 3.97513
27.5775 59.5809 0.01899
25.3951 58.5846 2
23.8749 56.7838 3.96129
21.3601 57.3731 3.96623
22.0038 59.6067 3.97648
22.7763 58.2243 2
22.7393 62.0138 3.97762
23.4077 60.3383 2
23.8044 59.0691 0.0206348
25.0389 60.8621 0.0216104
24.4344 62.7639 2
23.6827 64.7055 3.98081
26.2307 63.4713 0.0206633
25.5483 65.489 2
24.8093 67.5907 3.98561
27.464 66.1788 0.0172917
26.8369 68.3302 2
26.1653 70.6036 3.99128
28.9074 68.9411 0.013951
28.3695 71.2628 2
27.7943 73.7221 4
30.6151 71.7776 0.00857657
30.1841 74.2794 2
32.6054 74.6784 0
29.8118 7.99711 3.98215
31.2537 5.3332 3.98784
31.7886 7.42107 2
32.9811 2.70156 3.99287
33.3479 4.92499 2
33.7246 6.98228 0.015381
35.0474 0.080333 4
35.2449 2.46299 2
35.4358 4.68661 0.0105518
37.5 0 2
37.515 2.38726 0.00672568
39.9526 0.0806499 0
40.7094 35.8386 3.7466
42.4315 35.7127 2
43.9921 35.6102 0.249646
28.5447 10.6989 3.97862
39.1015 34.2241 3.72149
40.6021 34.2943 2
42.1261 34.1538 0.379694
47.79 34.3066 0.043587
44.5493 33.072 0.151248
42.1715 32.4337 0.238006
40.7217 32.7323 0.391925
45.8615 31.6431 2
43.3437 31.2914 2
40.8882 31.2956 2
39.2392 32.4644 2
44.1213 29.8608 3.92154
41.7342 29.9205 3.86671
39.3419 30.6828 3.74329
37.5122 32.3794 3.65198
34.0954 12.9462 3.97532
35.693 11.775 2
37.311 10.6345 0.0189813
31.1886 11.9944 3.97784
33.0999 11.2233 2
34.7552 10.3855 0.0186242
30.4826 10.0209 2
32.3792 9.37388 0.0200528
47.3239 29.6108 0.0156597
46.8987 25.2602 0.0221764
36.5837 12.943 0.0243542
44.2575 21.4723 0.0212389
41.7443 17.8889 0.0219202
38.683 14.8266 0.0242836
35.7751 14.7847 2
45.2295 27.7378 2
38.6783 17.6312 2
41.314 20.8569 2
43.6813 24.1755 2
33.6115 15.8955 3.97724
42.8556 26.5935 3.99097
40.8473 23.4364 4.0026
38.4099 20.4053 3.98693
35.8519 17.5314 3.97989
39.1268 37.4887 3.76501
40.7397 37.4755 2
42.5771 37.4813 0.341071
43.6819 54.4017 0.000963642
43.5316 50.3843 -0.00465984
40.7006 39.1253 0.250942
41.7368 45.0718 0.13337
41.8347 47.5117 0.0585377
39.3355 44.3188 0.255955
39.1064 40.782 0.27788
37.5066 42.6374 0.348027
41.8305 52.9248 2
39.1128 39.1255 2
37.5065 40.8122 2
40.8487 49.5851 2
35.7777 42.5515 2
39.8041 45.9331 2
37.4962 44.5914 2
39.7744 51.7773 4.0012
37.5044 39.1483 3.77168
35.9125 40.7949 3.72296
34.2954 42.2784 3.60976
35.6752 44.3301 3.74019
38.6662 48.5328 3.95554
37.516 46.1762 3.86296
40.3988 54.8685 0.018412
38.7178 53.7329 2
36.7472 53.0717 3.99804
35.3641 60.8978 0.0232581
36.933 57.6097 0.0137566
37.991 55.1862 0.0078177
34.4909 58.5023 2
36.3217 55.2626 2
33.2481 55.4503 3.99263
32.362 59.7266 0.0123271
29.4091 60.2772 0.0225859
30.3187 57.8034 2
28.744 55.3029 3.98066
28.0403 58.3627 0.00648172
26.9807 56.8176 2
25.3719 55.121 3.96526
21.8595 55.322 3.96344
25.3934 58.5839 0.0224768
23.8755 56.7867 2
20.2468 57.0028 3.96707
20.6596 58.7564 3.96956
21.3604 57.3747 2
21.172 61.1579 3.97643
22.0046 59.6076 2
22.7754 58.2224 0.0320423
21.8966 63.8323 3.97947
22.7397 62.0143 2
23.407 60.3377 0.0205563
24.4342 62.7632 0.020568
23.6827 64.7062 2
22.8377 66.734 3.98457
25.5484 65.488 0.0184949
24.8092 67.5917 2
24.0095 69.8049 3.99136
26.8371 68.3295 0.0139407
26.1645 70.6038 2
25.446 73.0099 4
28.3701 71.2628 0.0087495
27.7943 73.7222 2
30.1842 74.2788 0
27.8216 8.6566 3.98192
29.1559 5.87954 3.98657
29.8109 7.9948 2
30.7265 3.09855 3.99259
31.2533 5.33207 2
31.7891 7.42236 0.0167334
32.6053 0.320823 4
32.9806 2.701 2
33.3483 4.92623 0.0112001
35.0474 0.0802903 2
35.2453 2.46327 0.00682027
37.5 0 0
39.1172 35.8504 3.74459
40.6935 35.8431 2
42.4373 35.7097 0.366631
28.5433 10.6976 2
26.623 11.395 3.97861
29.2277 12.6498 3.97911
37.5043 34.1866 3.73836
39.1044 34.2421 2
40.6051 34.2781 0.264521
45.831 31.6649 0.0735291
43.3062 31.3237 0.149143
40.8507 31.3453 0.250298
39.2369 32.4665 0.377753
44.1319 29.8481 2
41.7557 29.8888 2
39.3518 30.6368 2
37.5138 32.372 2
42.1805 28.5351 3.89082
39.782 29.1043 3.86367
37.5129 30.4591 3.74856
35.7872 32.4686 3.62404
31.919 14.4941 3.97786
34.0957 12.9473 2
35.6942 11.7825 0.0206169
31.1875 11.9903 2
33.1002 11.2246 0.0236425
30.4843 10.0237 0.020293
45.2243 27.7414 -0.00422979
43.6794 24.1835 -0.0119547
35.7739 14.7781 0.0224853
41.3189 20.8617 0.019418
38.6814 17.629 0.0213398
33.6098 15.8899 2
35.8484 17.5354 2
42.8622 26.5929 2
38.4057 20.4079 2
40.8366 23.4206 2
33.5552 17.4066 3.97916
40.2935 25.8113 3.97251
38.0636 23.1159 4.00023
35.5829 20.1179 3.98522
37.5031 37.4982 3.78974
39.119 37.4865 2
40.7508 37.4742 0.238277
41.8351 52.9263 0.00485703
40.8501 49.568 0.00383745
39.1205 39.1395 0.257348
39.7844 45.8886 0.156846
37.5043 44.5523 0.24979
37.5077 40.832 0.260197
35.7807 42.5488 0.374821
39.773 51.7821 2
37.5052 39.1371 2
35.9109 40.7798 2
38.6775 48.5781 2
34.2765 42.2806 2
35.6559 44.3769 2
37.516 46.2214 2
37.6629 50.8281 4.0001
35.8944 39.1564 3.74414
34.4194 40.7358 3.73699
33.2388 41.9668 3.57918
34.1551 43.6549 3.74808
35.1987 45.8897 3.85712
36.9218 48.1497 3.92326
38.719 53.7432 0.00368577
36.7474 53.0742 2
34.4098 52.3883 3.99758
34.4903 58.5032 0.0127045
36.3222 55.2606 0.00258015
33.2492 55.4544 2
30.5781 53.3249 3.99092
30.3169 57.8042 0.0149486
28.7451 55.3035 2
26.9739 53.4148 3.97104
26.9793 56.8172 0.0248711
25.3724 55.1254 2
23.6758 53.4487 3.95889
20.5923 53.181 3.96088
19.9742 55.8039 3.96433
21.8577 55.3239 2
23.8749 56.7838 0.038714
19.457 57.8642 3.96915
20.2464 57.0043 2
19.714 60.1829 3.97399
20.6599 58.7569 2
21.3601 57.3731 0.0337709
20.2099 62.8523 3.97676
21.1727 61.16 2
22.0038 59.6067 0.0235209
20.9391 65.7625 3.98315
21.8966 63.8331 2
22.7393 62.0138 0.0223803
23.6827 64.7055 0.019193
22.8376 66.7344 2
21.912 68.872 3.991
24.8093 67.5907 0.0143924
24.0085 69.8049 2
23.1494 72.1454 4
26.1653 70.6036 0.00871965
25.446 73.0099 2
27.7943 73.7221 0
25.8607 9.38552 3.98088
27.0706 6.54355 3.98549
27.8205 8.65549 2
28.4888 3.64455 3.99198
29.1552 5.87803 2
29.8118 7.99711 0.0178504
30.1841 0.720592 4
30.7257 3.09811 2
31.2537 5.3332 0.0121625
32.6053 0.320817 2
32.9811 2.70156 0.00713074
35.0474 0.080333 0
37.5037 35.8546 3.77044
39.105 35.859 2
40.7094 35.8386 0.253404
24.7783 12.0815 3.97804
23.7548 14.372 3.97563
28.5447 10.6989 0.0213784
26.622 11.3946 2
29.2267 12.6485 2
27.294 13.383 3.97832
29.7851 14.2115 3.97902
35.9071 34.2249 3.72116
37.5073 34.206 2
39.1015 34.2241 0.27851
37.5122 32.3794 0.348019
44.1213 29.8608 0.0784628
41.7342 29.9205 0.133294
39.3419 30.6828 0.256711
42.204 28.4984 2
39.7959 29.0612 2
37.516 30.4175 2
35.7867 32.4652 2
39.9565 27.7441 3.89904
37.4953 28.827 3.86178
35.6818 30.6965 3.74694
34.3054 32.7396 3.60941
30.9325 16.8546 3.97918
31.9175 14.4874 2
34.0954 12.9462 0.0246838
31.1886 11.9944 0.0221637
42.8556 26.5935 0.00902707
40.8473 23.4364 -0.00259542
33.6115 15.8955 0.0227623
35.8519 17.5314 0.0201136
38.4099 20.4053 0.0130659
33.551 17.4163 2
35.5828 20.1221 2
40.3223 25.8007 2
38.0495 23.1039 2
32.8719 19.8102 3.99281
37.7408 25.4237 3.98535
35.1964 22.8204 3.99641
35.8793 37.5022 3.76641
37.5024 37.4986 2
39.1268 37.4887 0.234994
39.7744 51.7773 -0.00120136
38.6662 48.5328 0.0444578
37.5044 39.1483 0.228321
37.516 46.1762 0.137038
35.6752 44.3301 0.259814
35.9125 40.7949 0.277043
34.2954 42.2784 0.39024
37.6507 50.8509 2
35.9055 39.1439 2
34.4128 40.7211 2
36.8984 48.1963 2
33.2147 41.9849 2
34.1271 43.7014 2
35.1823 45.9277 2
35.5211 50.0006 3.98938
34.3142 39.1583 3.74841
32.8848 40.8507 3.62275
32.8421 42.5738 3.76469
33.2808 45.0782 3.86264
34.3693 47.263 3.89776
36.7472 53.0717 0.00195938
34.404 52.3949 2
32.1054 51.139 4.01487
33.2481 55.4503 0.007366
30.5785 53.3276 2
28.544 51.5487 3.98762
28.744 55.3029 0.0193399
26.9738 53.4186 2
25.2209 51.6996 3.95478
25.3719 55.121 0.0347393
23.6747 53.4521 2
22.1325 51.753 3.95342
19.3891 51.5831 3.96175
19.0021 54.2734 3.96296
20.5913 53.1805 2
18.4743 56.6983 3.96709
19.9726 55.8055 2
21.8595 55.322 0.0365572
18.3802 59.0869 3.96791
19.4568 57.8653 2
20.2468 57.0028 0.0329335
18.6231 61.7511 3.97381
19.7148 60.1841 2
20.6596 58.7564 0.0304421
19.1281 64.6714 3.98142
20.21 62.8531 2
21.172 61.1579 0.0235748
19.8862 67.8086 3.99084
20.9388 65.7631 2
21.8966 63.8323 0.0205347
22.8377 66.734 0.0154285
21.911 68.8716 2
20.9142 71.1327 4
24.0095 69.8049 0.00864053
23.1494 72.1455 2
25.446 73.0099 0
23.0979 12.7976 3.97717
23.9733 10.1744 3.97954
25.0242 7.31432 3.98439
25.8597 9.38488 2
26.2806 4.32862 3.99142
27.0698 6.54271 2
27.8216 8.6566 0.0180847
27.7943 1.27781 4
28.4877 3.64416 2
29.1559 5.87954 0.0134338
30.1841 0.720551 2
30.7265 3.09855 0.00741468
32.6053 0.320823 0
35.8837 35.8516 3.74038
37.5054 35.8669 2
39.1172 35.8504 0.255414
24.7769 12.0794 2
23.7552 14.373 2
22.4847 15.0505 3.97897
25.3606 13.9203 3.97573
24.0339 15.6353 3.98063
26.623 11.395 0.021386
29.2277 12.6498 0.0208874
27.2941 13.383 2
29.7829 14.2098 2
28.3642 15.9859 3.97888
34.42 34.2889 3.73538
35.9046 34.2411 2
37.5043 34.1866 0.261643
35.7872 32.4686 0.375959
37.5129 30.4591 0.251439
42.1805 28.5351 0.10918
39.782 29.1043 0.136328
39.9732 27.7112 2
37.4971 28.783 2
35.6657 30.6454 2
34.2841 32.7405 2
37.5771 27.4642 3.90815
35.2128 29.1219 3.86273
34.1629 31.3609 3.74818
33.2519 33.052 3.5782
30.2193 19.381 3.98084
30.9299 16.848 2
31.919 14.4941 0.0221438
40.2935 25.8113 0.0274897
38.0636 23.1159 -0.000225827
33.5552 17.4066 0.0208429
35.5829 20.1179 0.0147814
32.8682 19.8188 2
35.1873 22.8061 2
37.7657 25.409 2
32.3309 22.5204 3.99616
35.0296 25.3717 4.00047
34.2591 37.5128 3.7629
35.8867 37.5037 2
37.5031 37.4982 0.210256
37.6629 50.8281 -9.82424e-05
36.9218 48.1497 0.076738
35.8944 39.1564 0.255856
35.1987 45.8897 0.142881
34.1551 43.6549 0.251916
34.4194 40.7358 0.26301
33.2388 41.9668 0.420824
35.5074 50.0075 2
34.3288 39.1532 2
32.8889 40.8604 2
34.3653 47.3041 2
32.8024 42.6087 2
33.2623 45.1118 2
33.3449 49.0245 3.97958
32.5629 39.2881 3.63629
31.7659 41.0927 3.75012
31.6988 43.6801 3.85276
32.4623 46.2163 3.8978
34.4098 52.3883 0.0024155
32.107 51.1496 2
30.0351 49.6961 3.99923
30.5781 53.3249 0.00908188
28.5425 51.5461 2
26.6951 49.9245 3.96862
26.9739 53.4148 0.0289582
25.2192 51.6988 2
23.5505 50.1211 3.96331
23.6758 53.4487 0.0411102
22.1312 51.7513 2
20.6887 50.2516 3.9647
18.1987 50.2773 3.96803
17.9815 52.7485 3.9639
19.3871 51.5825 2
17.4928 55.3111 3.96249
18.998 54.2739 2
20.5923 53.181 0.0391178
17.1511 57.8509 3.96561
18.4736 56.6987 2
19.9742 55.8039 0.0356686
17.1421 60.5277 3.9706
18.3803 59.088 2
19.457 57.8642 0.0308548
17.4091 63.4625 3.97661
18.6235 61.7517 2
19.714 60.1829 0.0260127
17.9427 66.6171 3.98954
19.1278 64.6719 2
20.2099 62.8523 0.0232391
18.75 69.9759 4
19.8851 67.8081 2
20.9391 65.7625 0.0168527
21.912 68.872 0.00900172
20.9142 71.1327 2
23.1494 72.1454 0
21.5899 13.6206 3.97707
22.1913 11.035 3.97814
23.0976 12.7983 2
23.0419 8.18089 3.98328
23.9721 10.1728 2
24.1182 5.14344 3.99084
25.0233 7.31353 2
25.8607 9.38552 0.0191162
25.446 1.99014 4
26.2793 4.32867 2
27.0706 6.54355 0.0145075
27.7943 1.27778 2
28.4888 3.64455 0.00802319
30.1841 0.720592 0
34.3131 35.8656 3.74875
35.8919 35.8653 2
37.5037 35.8546 0.229558
21.314 15.8491 3.9821
24.7783 12.0815 0.0219604
23.7548 14.372 0.0243707
25.3605 13.9169 2
22.4854 15.0504 2
24.0344 15.6377 2
23.2766 16.2653 3.97511
25.39 16.1065 3.97983
27.294 13.383 0.0216757
29.7851 14.2115 0.0209803
28.3616 15.9899 2
27.4518 18.8322 3.97916
32.8887 34.1703 3.62456
34.4164 34.3059 2
35.9071 34.2249 0.27884
34.3054 32.7396 0.390595
35.6818 30.6965 0.253061
37.4953 28.827 0.138217
39.9565 27.7441 0.100956
37.5724 27.4288 2
33.2277 33.0352 2
35.2061 29.0713 2
34.1259 31.3088 2
35.1089 27.5729 3.9077
33.2732 29.935 3.86189
32.8559 32.4387 3.75035
29.625 21.983 3.99591
30.2169 19.3891 2
30.9325 16.8546 0.0208188
37.7408 25.4237 0.0146475
35.1964 22.8204 0.0035907
32.8719 19.8102 0.00718972
32.3296 22.5136 2
35.059 25.3598 2
31.8408 25.7556 4.00643
32.4177 37.5134 3.66162
34.2752 37.5107 2
35.8793 37.5022 0.233586
35.5211 50.0006 0.0106169
34.3693 47.263 0.10224
34.3142 39.1583 0.251589
33.2808 45.0782 0.13736
32.8421 42.5738 0.235313
32.8848 40.8507 0.377251
33.3318 49.0245 2
32.5769 39.2877 2
31.729 41.1216 2
32.4303 46.251 2
31.6638 43.7092 2
31.3633 47.8673 3.9824
31.018 39.3917 3.75133
30.4575 41.9317 3.85234
30.7332 44.8284 3.91803
32.1054 51.139 -0.0148733
30.0352 49.716 2
28.1334 48.108 3.95904
28.544 51.5487 0.0123776
26.6933 49.9235 2
24.9167 48.387 3.97171
25.2209 51.6996 0.0452172
23.5496 50.1195 2
21.9432 48.7107 3.97044
22.1325 51.753 0.0465804
20.6861 50.2505 2
19.2795 49.0311 3.97209
17.0887 49.2843 3.97357
16.9346 51.3641 3.96708
18.2012 50.276 2
16.4773 53.838 3.96466
17.9795 52.7483 2
19.3891 51.5831 0.0382459
15.9981 56.4555 3.96414
17.4892 55.3119 2
19.0021 54.2734 0.0370364
15.7587 59.1916 3.96726
17.1514 57.8515 2
18.4743 56.6983 0.0329143
15.7912 62.1256 3.97266
17.1424 60.5297 2
18.3802 59.0869 0.0320856
16.0897 65.2993 3.98855
17.4086 63.4636 2
18.6231 61.7511 0.026186
16.6661 68.6801 4
17.9413 66.6161 2
19.1281 64.6714 0.0185815
18.75 69.9759 2
19.8862 67.8086 0.00916189
20.9142 71.1327 0
20.224 14.6142 3.97567
21.5898 13.6207 2
20.5311 12.0075 3.97688
21.1446 9.15148 3.98225
22.1905 11.0353 2
23.0979 12.7976 0.0228339
22.0173 6.08259 3.99026
23.0408 8.17971 2
23.9733 10.1744 0.0204604
23.1494 2.85457 4
24.1166 5.14365 2
25.0242 7.31432 0.0156068
25.446 1.99012 2
26.2806 4.32862 0.00857673
27.7943 1.27781 0
32.5506 35.7379 3.63614
34.326 35.8696 2
35.8837 35.8516 0.259621
21.3148 15.8481 2
20.3174 16.9813 3.97902
22.1088 16.6536 3.97114
25.3606 13.9203 0.0242668
22.4847 15.0505 0.0210278
24.0339 15.6353 0.0193745
25.3897 16.1034 2
23.2772 16.2654 2
24.2186 18.4941 3.97266
27.066 21.5072 3.9935
28.3642 15.9859 0.0211195
27.4507 18.8317 2
31.7814 33.9385 3.74601
32.8957 34.1588 2
34.42 34.2889 0.264622
33.2519 33.052 0.421797
34.1629 31.3609 0.251824
35.2128 29.1219 0.13727
37.5771 27.4642 0.0918502
35.1154 27.5297 2
32.7861 32.4044 2
33.2571 29.9122 2
32.7114 28.2696 3.91811
31.6986 31.3457 3.85199
28.952 24.4696 3.98415
29.6193 21.9917 2
30.2193 19.381 0.0191645
35.0296 25.3717 -0.000470636
32.3309 22.5204 0.00383502
31.8383 25.7339 2
29.8699 27.403 3.97699
30.6423 37.513 3.75846
32.4296 37.5118 2
34.2591 37.5128 0.237102
33.3449 49.0245 0.0204243
32.4623 46.2163 0.102203
32.5629 39.2881 0.363712
31.6988 43.6801 0.147238
31.7659 41.0927 0.249882
31.3585 47.873 2
30.9692 39.4158 2
30.4281 41.9482 2
30.7063 44.855 2
29.5148 46.479 3.99969
29.5683 39.8529 3.87696
29.1588 43.067 3.9194
30.0351 49.6961 0.000770452
28.129 48.1021 2
26.2862 46.5655 3.97697
26.6951 49.9245 0.03138
24.9157 48.3852 2
23.1567 46.9843 3.97514
23.5505 50.1211 0.0366926
21.9409 48.7097 2
20.2579 47.5488 3.97717
20.6887 50.2516 0.0352981
19.2812 49.0295 2
17.8972 48.1254 3.97695
16.326 48.6404 3.97632
17.0901 49.2833 2
16.0141 50.1295 3.9709
15.4891 52.3823 3.96678
16.9358 51.3633 2
18.1987 50.2773 0.0319661
14.9149 54.9552 3.96398
16.4779 53.8377 2
17.9815 52.7485 0.0361031
14.4708 57.7241 3.96646
15.9985 56.4557 2
17.4928 55.3111 0.0375141
14.2706 60.6805 3.9712
15.7593 59.1924 2
17.1511 57.8509 0.0343913
14.3351 63.8573 3.98385
15.7909 62.1272 2
17.1421 60.5277 0.0294045
14.6715 67.2507 4
16.0878 65.2981 2
17.4091 63.4625 0.0233884
16.6661 68.6801 2
17.9427 66.6171 0.0104601
18.75 69.9759 0
18.9403 15.8006 3.97679
20.2243 14.6134 2
18.9823 13.1214 3.97577
21.5899 13.6206 0.0229331
20.5306 12.0076 2
19.344 10.2409 3.98104
19.9918 7.14732 3.98956
21.1438 9.1514 2
22.1913 11.035 0.0218649
20.9142 3.86727 4
22.0153 6.08302 2
23.0419 8.18089 0.0167205
23.1494 2.85451 2
24.1182 5.14344 0.00916187
25.446 1.99014 0
31.0372 35.6371 3.74996
32.5635 35.7375 2
34.3131 35.8656 0.25125
21.314 15.8491 0.0178957
22.1094 16.6535 2
20.3178 16.9794 2
19.2727 18.4321 3.96891
21.797 17.8794 3.98132
25.39 16.1065 0.0201737
23.2766 16.2653 0.0248934
24.2167 18.4973 2
22.3252 19.9339 3.96693
24.6485 21.3926 3.98783
26.5609 23.775 3.97477
27.0653 21.5 2
27.4518 18.8322 0.0208372
30.4934 33.1056 3.86493
31.7508 33.8976 2
32.8887 34.1703 0.375441
32.8559 32.4387 0.249652
33.2732 29.935 0.138113
35.1089 27.5729 0.0923033
32.6693 28.2404 2
31.6559 31.3094 2
30.4185 29.6735 3.94053
28.1206 26.6156 3.99094
28.9438 24.4829 2
29.625 21.983 0.00409196
31.8408 25.7556 -0.00642717
29.8613 27.3796 2
29.1567 37.5177 3.8726
30.6079 37.5135 2
32.4177 37.5134 0.338381
31.3633 47.8673 0.0175956
30.7332 44.8284 0.0819739
31.018 39.3917 0.248667
30.4575 41.9317 0.14766
29.5148 46.4882 2
29.5282 39.8721 2
29.1284 43.0986 2
27.7281 44.7876 3.97069
27.3389 40.591 3.94631
28.1334 48.108 0.0409604
26.2814 46.5669 2
24.4285 45.1051 3.97642
24.9167 48.387 0.0282932
23.1554 46.9843 2
21.2498 45.8161 3.97812
21.9432 48.7107 0.0295598
20.2564 47.5475 2
18.5916 46.6762 3.97758
19.2795 49.0311 0.0279103
17.898 48.1243 2
16.5412 47.668 3.97696
16.3273 48.6396 2
15.3584 48.9778 3.97455
17.0887 49.2843 0.0264328
16.0159 50.1287 2
14.6092 50.9531 3.96917
13.8908 53.4125 3.96558
15.49 52.3818 2
16.9346 51.3641 0.0329232
13.2674 56.1562 3.96509
14.9145 54.9553 2
16.4773 53.838 0.0353356
12.8545 59.1159 3.96988
14.4719 57.7242 2
15.9981 56.4555 0.0358598
12.681 62.2993 3.98094
14.2711 60.6811 2
15.7587 59.1916 0.0327415
12.7746 65.6939 4
14.3332 63.8549 2
15.7912 62.1256 0.0273425
14.6714 67.2507 2
16.0897 65.2993 0.0114527
16.6661 68.6801 0
17.6838 17.1792 3.96849
18.9407 15.7997 2
17.5153 14.3871 3.9753
20.224 14.6142 0.0243342
18.982 13.1215 2
17.64 11.4614 3.97872
20.5311 12.0075 0.0231213
19.3434 10.2407 2
18.0519 8.34052 3.98884
18.75 5.0241 4
19.9897 7.14857 2
21.1446 9.15148 0.0177471
20.9142 3.86727 2
22.0173 6.08259 0.00973794
23.1494 2.85457 0
29.5873 35.1812 3.87773
30.9846 35.6146 2
32.5506 35.7379 0.363863
22.1088 16.6536 0.0288555
20.3174 16.9813 0.0209752
21.7971 17.8774 2
19.2722 18.4305 2
18.0417 19.9738 3.95895
20.918 19.4102 3.96993
24.2186 18.4941 0.0273402
22.3233 19.9343 2
24.6475 21.3929 2
22.4408 21.7683 3.97908
24.8291 23.2158 3.97432
25.7114 26.0074 3.97821
26.5613 23.7706 2
27.066 21.5072 0.0065008
28.8719 32.4439 3.92289
30.4497 33.0809 2
31.7814 33.9385 0.253994
31.6986 31.3457 0.148009
32.7114 28.2696 0.0818942
30.4068 29.6747 2
27.3794 29.2031 4.00785
28.1088 26.6255 2
28.952 24.4696 0.01585
29.8699 27.403 0.0230127
27.4491 37.3674 3.92565
29.0945 37.5071 2
30.6423 37.513 0.241535
29.5148 46.479 0.000307195
29.1588 43.067 0.0806044
29.5683 39.8529 0.123043
27.7168 44.8165 2
27.3173 40.5928 2
25.7631 43.093 3.98832
24.5955 39.4523 3.97416
26.2862 46.5655 0.0230259
24.4186 45.1056 2
22.3156 43.8635 3.97759
23.1567 46.9843 0.0248557
21.2465 45.8159 2
19.3096 44.9101 3.97731
20.2579 47.5488 0.0228312
18.5916 46.6752 2
16.8722 46.1635 3.97711
17.8972 48.1254 0.0230538
16.5424 47.6672 2
15.1095 47.6329 3.97596
16.326 48.6404 0.0236843
15.3602 48.977 2
13.9134 49.5164 3.97145
16.0141 50.1295 0.0290991
14.61 50.9526 2
12.9641 51.8535 3.96701
12.1617 54.517 3.96532
13.8907 53.4124 2
15.4891 52.3823 0.0332209
11.5403 57.4511 3.96927
13.2681 56.1563 2
14.9149 54.9552 0.0360193
11.1357 60.6252 3.97907
12.8555 59.1154 2
14.4708 57.7241 0.0335417
10.9835 64.0165 4
12.679 62.296 2
14.2706 60.6805 0.0288048
12.7745 65.694 2
14.3351 63.8573 0.0161548
14.6715 67.2507 0
16.4294 18.6744 3.96374
17.6836 17.1781 2
16.1097 15.7985 3.97125
18.9403 15.8006 0.023213
17.5151 14.3866 2
16.0223 12.8164 3.97619
18.9823 13.1214 0.0242285
17.6396 11.4615 2
16.203 9.66385 3.98793
19.344 10.2409 0.018959
18.0498 8.34219 2
16.6661 6.31991 4
18.75 5.02404 2
19.9918 7.14732 0.0104384
20.9142 3.86727 0
27.9832 34.818 3.91546
29.5411 35.1584 2
31.0372 35.6371 0.250043
16.7551 21.4094 3.96537
21.797 17.8794 0.0186825
19.2727 18.4321 0.0310903
20.917 19.4083 2
18.041 19.973 2
19.8164 21.6156 3.96815
22.3252 19.9339 0.0330686
24.6485 21.3926 0.0121654
22.4394 21.7688 2
24.8277 23.2153 2
23.048 24.6595 3.9738
24.9219 28.5917 3.97887
25.7054 26.0051 2
26.5609 23.775 0.025231
26.7217 31.7909 3.97985
28.8438 32.4224 2
30.4934 33.1056 0.135075
30.4185 29.6735 0.0594683
27.3982 29.1844 2
28.1206 26.6156 0.0090583
25.2793 36.858 3.97843
27.4374 37.3597 2
29.1567 37.5177 0.1274
27.7281 44.7876 0.0293131
27.3389 40.591 0.0536941
25.7445 43.109 2
24.5772 39.4531 2
23.4887 41.813 3.98058
22.3122 38.5214 3.97779
24.4285 45.1051 0.023577
22.3148 43.8637 2
20.1499 42.8467 3.97653
21.2498 45.8161 0.0218754
19.31 44.91 2
17.2536 44.3325 3.9766
18.5916 46.6762 0.0224206
16.8739 46.1628 2
15.0561 46.0534 3.9762
16.5412 47.668 0.0230398
15.1109 47.6323 2
13.4354 47.9802 3.97328
15.3584 48.9778 0.0254493
13.9145 49.5158 2
12.1899 50.2335 3.96835
14.6092 50.9531 0.0308256
12.9645 51.8532 2
11.1606 52.828 3.96584
10.3307 55.7064 3.96908
12.162 54.5169 2
13.8908 53.4125 0.0344186
9.70232 58.8476 3.97818
11.5409 57.4508 2
13.2674 56.1562 0.034909
9.30605 62.2254 4
11.1341 60.6214 2
12.8545 59.1159 0.0301173
10.9835 64.0165 2
12.681 62.2993 0.019061
12.7746 65.6939 0
15.1869 20.2091 3.96328
16.4296 18.6744 2
14.7621 17.3232 3.96485
17.6838 17.1792 0.0315105
16.1097 15.7971 2
14.4864 14.3012 3.97341
17.5153 14.3871 0.0246966
16.0218 12.8162 2
14.4459 11.1155 3.98671
17.64 11.4614 0.0212822
16.2009 9.66612 2
14.6715 7.74927 4
18.0519 8.34052 0.0111591
16.6661 6.31988 2
18.75 5.0241 0
25.9434 34.3129 3.98613
27.9608 34.8263 2
29.5873 35.1812 0.122273
17.9722 22.363 3.97119
15.6358 22.9534 3.96828
16.755 21.4095 2
20.918 19.4102 0.0300673
18.0417 19.9738 0.0410537
19.8156 21.615 2
19.8844 24.4405 3.97069
22.4408 21.7683 0.020922
24.8291 23.2158 0.0256753
23.0445 24.6596 2
22.2875 27.8986 3.97327
24.2793 31.2694 3.97657
24.9326 28.5932 2
25.7114 26.0074 0.0217943
26.704 31.7584 2
28.8719 32.4439 0.077114
27.3794 29.2031 -0.0078537
23.0328 36.2876 3.98254
25.265 36.8624 2
27.4491 37.3674 0.0743531
25.7631 43.093 0.0116841
24.5955 39.4523 0.0258371
23.4759 41.8123 2
22.3031 38.5188 2
21.1987 40.632 3.97536
20.5834 37.803 3.97697
22.3156 43.8635 0.0224099
20.1483 42.8481 2
17.718 42.0623 3.97627
19.3096 44.9101 0.0226868
17.2548 44.3327 2
15.0942 44.1638 3.97614
16.8722 46.1635 0.0228893
15.0573 46.0529 2
13.1288 46.2688 3.97438
15.1095 47.6329 0.0240386
13.4367 47.9797 2
11.5716 48.5316 3.96949
13.9134 49.5164 0.0285461
12.1907 50.2331 2
10.2891 51.0729 3.9662
12.9641 51.8535 0.0329871
11.1611 52.8278 2
9.23955 53.8866 3.96898
8.3857 56.9811 3.979
10.3314 55.7057 2
12.1617 54.517 0.0346757
7.74927 60.3285 4
9.70105 58.8437 2
11.5403 57.4511 0.0307335
9.306 62.2255 2
11.1357 60.6252 0.0209344
10.9835 64.0165 0
14.0164 21.7753 3.9651
15.1865 20.209 2
13.463 18.917 3.96542
16.4294 18.6744 0.036261
14.7629 17.3228 2
13.0338 15.8986 3.97058
16.1097 15.7985 0.0287508
14.4857 14.3002 2
12.7838 12.6896 3.98397
16.0223 12.8164 0.0238051
14.4437 11.1181 2
12.7746 9.30605 4
16.203 9.66385 0.0120666
14.6715 7.74924 2
16.6661 6.31991 0
23.6206 33.8501 3.98359
25.9189 34.3043 2
27.9832 34.818 0.0845394
17.8209 24.0914 3.96999
17.9746 22.3635 2
14.4725 24.4876 3.96998
15.6369 22.9538 2
16.7551 21.4094 0.0346328
19.3486 27.2694 3.97236
19.8164 21.6156 0.0318495
19.8798 24.4405 2
21.6349 30.7427 3.97561
23.048 24.6595 0.0262008
22.2938 27.9008 2
24.2573 31.2703 2
24.9219 28.5917 0.0211261
26.7217 31.7909 0.0201504
20.7054 35.9552 3.97656
23.0334 36.2872 2
25.2793 36.858 0.0215696
23.4887 41.813 0.0194151
22.3122 38.5214 0.02221
21.2048 40.6325 2
20.5818 37.8013 2
18.4636 39.0018 3.97713
20.1499 42.8467 0.0234744
17.7182 42.0622 2
15.0796 41.8885 3.97665
17.2536 44.3325 0.0233968
15.0954 44.1633 2
12.8899 44.3683 3.97542
15.0561 46.0534 0.0237972
13.1304 46.2683 2
11.084 46.7168 3.97046
13.4354 47.9802 0.0267165
11.5726 48.5312 2
9.55557 49.2334 3.96643
12.1899 50.2335 0.0316475
10.2895 51.0726 2
8.27234 52.0006 3.96878
11.1606 52.828 0.034158
9.24018 53.8858 2
7.19468 55.0321 3.97975
6.31991 58.3339 4
8.38479 56.9774 2
10.3307 55.7064 0.0309217
7.74924 60.3285 2
9.70232 58.8476 0.0218159
9.30605 62.2254 0
13.3581 25.3925 3.97319
12.9116 23.3052 3.9673
14.0154 21.7752 2
12.2511 20.5626 3.96539
15.1869 20.2091 0.0367198
13.4643 18.9168 2
11.6647 17.5758 3.9702
14.7621 17.3232 0.0351549
13.0345 15.8977 2
11.222 14.3759 3.97934
14.4864 14.3012 0.0265857
12.7813 12.6929 2
10.9835 10.9835 4
14.4459 11.1155 0.0132903
12.7745 9.306 2
14.6715 7.74927 0
21.0698 33.4564 3.97568
23.6207 33.8451 2
25.9434 34.3129 0.0138735
16.143 26.4496 3.97244
17.8213 24.0917 2
17.9722 22.363 0.0288149
14.4728 24.4882 2
15.6358 22.9534 0.0317163
18.737 30.2385 3.97497
19.3461 27.2698 2
19.8844 24.4405 0.029305
21.6413 30.7429 2
22.2875 27.8986 0.0267342
24.2793 31.2694 0.0234325
18.0754 35.9866 3.97784
20.7071 35.9556 2
23.0328 36.2876 0.0174597
21.1987 40.632 0.0246428
20.5834 37.803 0.0230283
18.4616 39.0016 2
14.585 39.1689 3.97742
17.718 42.0623 0.0237307
15.0803 41.8882 2
12.5851 42.2588 3.97655
15.0942 44.1638 0.0238587
12.8912 44.3678 2
10.671 44.788 3.97167
13.1288 46.2688 0.0256189
11.0852 46.7165 2
8.9405 47.3131 3.96673
11.5716 48.5316 0.0305135
9.55571 49.2331 2
7.4392 50.0344 3.9684
10.2891 51.0729 0.033804
8.27278 51.9999 2
6.13532 53.0074 3.98016
9.23955 53.8866 0.0310174
7.19415 55.0291 2
5.0241 56.25 4
6.31988 58.3339 2
8.3857 56.9811 0.0209961
7.74927 60.3285 0
13.6253 26.8465 3.97282
12.0219 24.8094 3.96936
13.3575 25.3928 2
11.1676 22.246 3.96592
12.9122 23.3055 2
14.0164 21.7753 0.0348976
12.2521 20.5626 2
10.3958 19.3268 3.96954
13.463 18.917 0.0345789
11.6659 17.5761 2
9.76293 16.1596 3.97817
13.0338 15.8986 0.0294245
11.22 14.3803 2
9.30607 12.7746 4
12.7838 12.6896 0.0160283
10.9835 10.9835 2
12.7746 9.30605 0
18.2471 33.1643 3.97697
21.0707 33.4582 2
23.6206 33.8501 0.0164108
15.7663 29.6828 3.97539
16.1433 26.4503 2
17.8209 24.0914 0.0300083
14.4725 24.4876 0.0300218
18.7362 30.2393 2
19.3486 27.2694 0.0276352
21.6349 30.7427 0.0243871
15.2052 36.036 3.97757
18.0753 35.9866 2
20.7054 35.9552 0.0234434
12.816 37.8302 3.97769
18.4636 39.0018 0.0228707
14.5855 39.1687 2
12.0901 40.1313 3.97744
15.0796 41.8885 0.0233535
12.5865 42.2584 2
10.2774 42.7669 3.97173
12.8899 44.3683 0.0245844
10.6721 44.7877 2
8.41987 45.3158 3.9671
11.084 46.7168 0.0295357
8.94019 47.3128 2
6.73031 47.9998 3.96817
9.55557 49.2334 0.0335731
7.43948 50.0337 2
5.21212 50.9108 3.97985
8.27234 52.0006 0.0312219
6.13507 53.0054 2
3.86727 54.0858 4
7.19468 55.0321 0.02025
5.02404 56.25 2
6.31991 58.3339 0
13.1043 29.0632 3.97242
11.4663 26.5084 3.96986
13.6251 26.8469 2
10.229 23.9772 3.9667
12.0233 24.8098 2
13.3581 25.3925 0.0268099
9.24814 21.1426 3.96896
11.168 22.2462 2
12.9116 23.3052 0.0326962
12.2511 20.5626 0.034608
10.397 19.3273 2
8.41852 18.0303 3.97846
11.6647 17.5758 0.0298002
9.76139 16.1644 2
7.74928 14.6715 4
11.222 14.3759 0.0206618
9.30602 12.7745 2
10.9835 10.9835 0
14.7585 32.8984 3.97713
18.2456 33.164 2
21.0698 33.4564 0.0243213
15.7678 29.6836 2
16.143 26.4496 0.0275591
18.737 30.2385 0.0250267
13.1079 36.2202 3.97727
15.2049 36.0358 2
18.0754 35.9866 0.0221618
12.8179 37.8299 2
11.433 38.3083 3.97734
14.585 39.1689 0.0225785
12.0927 40.1308 2
9.86039 40.7476 3.97209
12.5851 42.2588 0.0234521
10.2794 42.7666 2
7.9697 43.2658 3.96759
10.671 44.788 0.0283313
8.42032 45.3154 2
6.13636 45.905 3.96805
8.9405 47.3131 0.033274
6.73055 47.9992 2
4.42358 48.7515 3.97927
7.4392 50.0344 0.0316005
5.21205 50.9097 2
2.85457 51.8506 4
6.13532 53.0074 0.0198423
3.86727 54.0858 2
5.0241 56.25 0
12.2465 31.2808 3.97354
10.8882 28.4344 3.9701
13.1057 29.0637 2
9.44704 25.8064 3.96706
11.4674 26.5088 2
13.6253 26.8465 0.0271825
8.23492 23.0257 3.96882
10.2295 23.9775 2
12.0219 24.8094 0.0306358
7.20062 19.9797 3.97927
9.24924 21.1433 2
11.1676 22.246 0.0340799
10.3958 19.3268 0.0304592
8.41768 18.0349 2
6.31992 16.6661 4
9.76293 16.1596 0.0218345
7.74926 14.6714 2
9.30607 12.7746 0
12.2746 34.3131 3.97717
14.7596 32.8991 2
18.2471 33.1643 0.0230271
15.7663 29.6828 0.024607
10.9785 36.6157 3.97692
13.1092 36.2201 2
15.2052 36.036 0.0224317
12.816 37.8302 0.0223141
11.4359 38.3082 2
9.44613 38.8212 3.97286
12.0901 40.1313 0.0225616
9.86177 40.7474 2
7.57949 41.2088 3.96816
10.2774 42.7669 0.0282731
7.96905 43.2655 2
5.648 43.768 3.96823
8.41987 45.3158 0.032901
6.13654 45.9045 2
3.76912 46.537 3.97888
6.73031 47.9998 0.0318304
4.42372 48.7509 2
1.99014 49.554 4
5.21212 50.9108 0.0201532
2.85451 51.8506 2
3.86727 54.0858 0
11.0682 32.9353 3.97574
10.2021 30.3982 3.97077
12.2483 31.2814 2
8.75891 27.7395 3.96721
10.8894 28.4347 2
13.1043 29.0632 0.0275763
7.36027 24.9839 3.96857
9.4471 25.8067 2
11.4663 26.5084 0.030141
6.11757 22.0027 3.98003
8.2356 23.0264 2
10.229 23.9772 0.0333034
5.02411 18.75 4
7.20024 19.9832 2
9.24814 21.1426 0.0310416
8.41852 18.0303 0.0215376
6.3199 16.6661 2
7.74928 14.6715 0
10.5769 35.0088 3.9762
12.277 34.3136 2
14.7585 32.8984 0.022869
9.10769 36.9866 3.97332
10.9812 36.6158 2
13.1079 36.2202 0.0227307
11.433 38.3083 0.0226559
9.44764 38.821 2
7.25646 39.1813 3.9685
9.86039 40.7476 0.0279149
7.57964 41.2086 2
5.26289 41.6139 3.96837
7.9697 43.2658 0.0324084
5.64813 43.7676 2
3.24676 44.2818 3.97906
6.13636 45.905 0.0319502
3.76935 46.5366 2
1.27781 47.2057 4
4.42358 48.7515 0.0207335
1.99012 49.554 2
2.85457 51.8506 0
10.2142 33.8925 3.97643
9.48326 32.1662 3.9716
11.0704 32.9357 2
8.10468 29.7017 3.96769
10.2035 30.3986 2
12.2465 31.2808 0.0264597
6.60367 27.0095 3.96847
8.75856 27.7397 2
10.8882 28.4344 0.0299012
5.17295 24.0952 3.97995
7.36063 24.9845 2
9.44704 25.8064 0.0329393
3.86728 20.9142 4
6.11745 22.0047 2
8.23492 23.0257 0.0311769
5.02406 18.75 2
7.20062 19.9797 0.0207309
6.31992 16.6661 0
8.92836 35.2844 3.9734
10.5792 35.009 2
12.2746 34.3131 0.0228299
7.03525 37.2066 3.96843
9.10916 36.9865 2
10.9785 36.6157 0.023078
9.44613 38.8212 0.0271353
7.25703 39.1812 2
4.99048 39.4674 3.96851
7.57949 41.2088 0.0318424
5.26338 41.6136 2
2.8571 42.0021 3.97924
5.648 43.768 0.0317687
3.24685 44.2815 2
0.720592 44.8159 4
3.76912 46.537 0.0211216
1.27778 47.2057 2
1.99014 49.554 0
8.96985 33.7058 3.97284
10.2162 33.8928 2
7.53853 31.6138 3.96798
9.4849 32.1666 2
11.0682 32.9353 0.0242567
5.94851 29.0703 3.96862
8.10416 29.7019 2
10.2021 30.3982 0.0292252
4.36055 26.2475 3.97953
6.60385 27.0099 2
8.75891 27.7395 0.0327931
2.85458 23.1494 4
5.17296 24.0961 2
7.36027 24.9839 0.0314306
3.86728 20.9142 2
6.11757 22.0027 0.0199683
5.02411 18.75 0
6.98328 35.308 3.96839
8.92978 35.2845 2
10.5769 35.0088 0.0237997
4.8406 37.3399 3.96886
7.03597 37.2065 2
9.10769 36.9866 0.0266778
7.25646 39.1813 0.0314967
4.99097 39.4673 2
2.60513 39.7137 3.97921
5.26289 41.6139 0.0316294
2.85749 42.002 2
0.320823 42.3947 4
3.24676 44.2818 0.0209357
0.720551 44.8159 2
1.27781 47.2057 0
7.14765 33.4641 3.96817
8.97116 33.706 2
10.2142 33.8925 0.0235651
5.4191 31.134 3.96886
7.53846 31.6139 2
9.48326 32.1662 0.0283994
3.68213 28.4435 3.97925
5.94868 29.0707 2
8.10468 29.7017 0.0323147
1.99015 25.446 4
4.36066 26.2479 2
6.60367 27.0095 0.0315251
2.85453 23.1494 2
5.17295 24.0952 0.0200474
3.86728 20.9142 0
4.85494 35.2518 3.9689
6.98326 35.308 2
8.92836 35.2844 0.0266049
2.49657 37.4283 3.97992
4.84065 37.34 2
7.03525 37.2066 0.0315687
4.99048 39.4674 0.0314878
2.60561 39.7141 2
0.080333 39.9526 4
2.8571 42.0021 0.0207607
0.320817 42.3947 2
0.720592 44.8159 0
5.04837 33.1905 3.9689
7.14772 33.4642 2
8.96985 33.7058 0.02716
3.14632 30.6662 3.97931
5.41928 31.1345 2
7.53853 31.6138 0.0320173
1.27793 27.7943 4
3.68237 28.4437 2
5.94851 29.0703 0.0313825
1.99013 25.446 2
4.36055 26.2475 0.0204677
2.85458 23.1494 0
2.54868 35.1589 3.97968
4.85552 35.2521 2
6.98328 35.308 0.0316084
0 37.5 4
2.49662 37.4288 2
4.8406 37.3399 0.0311414
2.60513 39.7137 0.0207859
0.0802903 39.9526 2
0.320823 42.3947 0
2.76632 32.9057 3.97981
5.04854 33.1909 2
7.14765 33.4641 0.0318263
0.721173 30.1842 4
3.14659 30.6666 2
5.4191 31.134 0.0311445
1.27779 27.7943 2
3.68213 28.4435 0.0207498
1.99015 25.446 0
0.0806499 35.0474 4
2.54924 35.1594 2
4.85494 35.2518 0.0311047
0 37.5 2
2.49657 37.4283 0.0200825
0.080333 39.9526 0
0.32156 32.6054 4
2.76644 32.9063 2
5.04837 33.1905 0.0311001
0.72056 30.1841 2
3.14632 30.6662 0.0206853
1.27793 27.7943 0
0.0802889 35.0474 2
2.54868 35.1589 0.0203201
0 37.5 0
0.320817 32.6053 2
2.76632 32.9057 0.0201928
0.721173 30.1842 0
0.0806499 35.0474 0
0.32156 32.6054 0
CELLS 1910 17190
8 18 6 25 56 2 0 5 16
8 57 23 6 18 17 4 0 2
8 78 36 9 29 31 11 1 7
8 31 11 1 7 79 37 10 30
8 110 57 18 50 48 17 2 14
8 50 18 56 111 14 2 16 49
8 116 62 22 55 52 20 3 15
8 56 25 67 118 16 5 24 53
8 119 63 23 57 54 21 4 17
8 55 22 63 119 15 3 21 54
8 58 26 68 121 18 6 25 56
8 122 65 26 58 57 23 6 18
8 73 31 7 27 142 79 30 71
8 143 78 29 72 73 31 7 27
8 83 147 76 34 32 74 28 8
8 84 148 78 36 33 75 29 9
8 76 34 8 28 148 84 33 75
8 37 79 150 86 10 30 77 35
8 151 87 36 78 80 38 11 31
8 80 38 11 31 152 88 37 79
8 175 100 42 94 96 44 12 40
8 44 96 176 101 12 40 95 43
8 101 176 98 46 43 95 41 13
8 46 98 178 103 13 41 97 45
8 178 103 45 97 147 83 32 74
8 189 116 55 109 106 52 15 47
8 111 56 118 191 49 16 53 107
8 192 119 57 110 108 54 17 48
8 109 55 119 192 47 15 54 108
8 194 122 58 112 110 57 18 50
8 112 58 121 195 50 18 56 111
8 115 61 19 51 197 124 59 113
8 115 61 125 198 51 19 60 114
8 198 125 62 116 114 60 20 52
8 200 127 64 120 116 62 22 55
8 118 67 132 202 53 24 66 117
8 121 68 133 203 56 25 67 118
8 120 64 128 204 55 22 63 119
8 204 128 65 122 119 63 23 57
8 206 134 68 121 123 69 26 58
8 123 69 26 58 207 131 65 122
8 226 147 74 138 140 76 28 70
8 229 148 75 139 143 78 29 72
8 140 76 28 70 229 148 75 139
8 142 79 30 71 231 150 77 141
8 144 80 31 73 232 152 79 142
8 233 151 78 143 144 80 31 73
8 150 86 35 77 235 154 81 145
8 235 154 81 145 146 82 39 91
8 146 82 39 91 236 155 90 165
8 238 157 83 147 149 85 34 76
8 239 158 84 148 151 87 36 78
8 149 85 34 76 239 158 84 148
8 152 88 37 79 241 160 86 150
8 242 161 87 151 153 89 38 80
8 153 89 38 80 243 162 88 152
8 171 98 41 92 265 178 97 169
8 265 178 97 169 226 147 74 138
8 172 96 40 93 266 176 95 170
8 266 176 95 170 171 98 41 92
8 269 175 94 173 172 96 40 93
8 271 180 99 174 175 100 42 94
8 197 124 59 113 271 180 99 174
8 272 181 100 175 177 102 44 96
8 273 182 101 176 179 104 46 98
8 177 102 44 96 273 182 101 176
8 179 104 46 98 275 184 103 178
8 275 184 103 178 238 157 83 147
8 188 115 51 105 283 197 113 186
8 188 115 198 284 105 51 114 187
8 284 198 116 189 187 114 52 106
8 286 200 120 193 189 116 55 109
8 191 118 202 288 107 53 117 190
8 195 121 203 289 111 56 118 191
8 193 120 204 290 109 55 119 192
8 290 204 122 194 192 119 57 110
8 196 123 58 112 292 207 122 194
8 293 206 121 195 196 123 58 112
8 199 126 61 115 297 211 124 197
8 298 212 127 200 198 125 62 116
8 199 126 212 298 115 61 125 198
8 205 129 64 120 300 214 127 200
8 301 217 130 201 202 132 66 117
8 209 136 168 264 301 217 130 201
8 302 219 132 202 203 133 67 118
8 303 220 133 203 206 134 68 121
8 205 129 215 304 120 64 128 204
8 304 215 131 207 204 128 65 122
8 306 221 134 206 208 135 69 123
8 208 135 69 123 307 218 131 207
8 210 137 167 263 309 223 136 209
8 328 238 147 226 230 149 76 140
8 228 146 91 166 329 236 165 260
8 231 150 77 141 330 235 145 227
8 330 235 145 227 228 146 91 166
8 332 239 148 229 233 151 78 143
8 230 149 76 140 332 239 148 229
8 232 152 79 142 334 241 150 231
8 234 153 80 144 335 243 152 232
8 336 242 151 233 234 153 80 144
8 236 155 90 165 338 245 164 259
8 241 160 86 150 339 246 154 235
8 339 246 154 235 237 156 82 146
8 237 156 82 146 340 247 155 236
8 342 249 157 238 240 159 85 149
8 343 250 158 239 242 161 87 151
8 240 159 85 149 343 250 158 239
8 243 162 88 152 345 252 160 241
8 244 163 253 346 153 89 161 242
8 244 163 89 153 347 254 162 243
8 311 224 261 371 210 137 167 263
8 263 167 262 372 209 136 168 264
8 267 179 98 171 375 275 178 265
8 375 275 178 265 328 238 147 226
8 376 273 176 266 267 179 98 171
8 268 177 96 172 376 273 176 266
8 379 272 175 269 268 177 96 172
8 380 271 174 270 269 175 94 173
8 283 197 113 186 380 271 174 270
8 381 277 180 271 272 181 100 175
8 297 211 124 197 381 277 180 271
8 382 278 181 272 274 183 102 177
8 274 183 102 177 383 279 182 273
8 383 279 182 273 276 185 104 179
8 385 281 184 275 342 249 157 238
8 276 185 104 179 385 281 184 275
8 285 199 115 188 393 297 197 283
8 394 298 200 286 284 198 116 189
8 285 199 298 394 188 115 198 284
8 291 205 120 193 396 300 200 286
8 397 301 201 287 288 202 117 190
8 295 209 264 374 397 301 201 287
8 398 302 202 288 289 203 118 191
8 399 303 203 289 293 206 121 195
8 291 205 304 400 193 120 204 290
8 400 304 207 292 290 204 122 194
8 294 208 123 196 402 307 207 292
8 403 306 206 293 294 208 123 196
8 296 210 263 373 405 309 209 295
8 408 312 213 299 297 211 126 199
8 299 213 313 409 199 126 212 298
8 409 313 214 300 298 212 127 200
8 305 216 129 205 411 315 214 300
8 412 318 217 301 302 219 132 202
8 309 223 136 209 412 318 217 301
8 413 320 219 302 303 220 133 203
8 306 221 321 414 206 134 220 303
8 307 218 131 207 415 316 215 304
8 305 216 316 415 205 129 215 304
8 417 322 221 306 308 222 135 208
8 308 222 135 208 418 319 218 307
8 310 225 137 210 420 325 223 309
8 423 326 224 311 310 225 137 210
8 329 236 165 260 441 338 259 368
8 442 342 238 328 333 240 149 230
8 331 237 146 228 443 340 236 329
8 334 241 150 231 444 339 235 330
8 444 339 235 330 331 237 146 228
8 446 343 239 332 336 242 151 233
8 333 240 149 230 446 343 239 332
8 335 243 152 232 448 345 241 334
8 337 244 153 234 449 347 243 335
8 337 244 346 450 234 153 242 336
8 338 245 164 259 452 349 258 367
8 340 247 155 236 453 350 245 338
8 345 252 160 241 454 351 246 339
8 454 351 246 339 341 248 156 237
8 341 248 156 237 455 352 247 340
8 240 159 251 344 342 249 354 457
8 242 161 253 346 343 250 355 458
8 343 250 355 458 240 159 251 344
8 347 254 162 243 460 357 252 345
8 348 255 358 461 244 163 253 346
8 348 255 163 244 462 359 254 347
8 473 360 257 365 363 256 364 482
8 452 349 258 367 365 257 366 485
8 422 324 369 488 311 224 261 371
8 371 261 370 490 263 167 262 372
8 407 311 371 491 296 210 263 373
8 373 263 372 492 295 209 264 374
8 493 385 275 375 442 342 238 328
8 377 276 179 267 493 385 275 375
8 378 274 177 268 494 383 273 376
8 494 383 273 376 377 276 179 267
8 497 382 272 379 378 274 177 268
8 498 381 271 380 379 272 175 269
8 393 297 197 283 498 381 271 380
8 499 387 277 381 382 278 181 272
8 408 312 211 297 499 387 277 381
8 500 388 278 382 384 280 183 274
8 501 389 279 383 386 282 185 276
8 384 280 183 274 501 389 279 383
8 386 282 185 276 503 391 281 385
8 503 391 281 385 457 354 249 342
8 511 408 299 395 393 297 199 285
8 395 299 409 512 285 199 298 394
8 512 409 300 396 394 298 200 286
8 401 305 205 291 514 411 300 396
8 515 412 301 397 398 302 202 288
8 405 309 209 295 515 412 301 397
8 516 413 302 398 399 303 203 289
8 403 306 414 517 293 206 303 399
8 402 307 207 292 518 415 304 400
8 401 305 415 518 291 205 304 400
8 404 308 208 294 520 418 307 402
8 521 417 306 403 404 308 208 294
8 406 310 210 296 523 420 309 405
8 526 423 311 407 406 310 210 296
8 410 314 213 299 527 424 312 408
8 528 425 315 411 409 313 214 300
8 410 314 425 528 299 213 313 409
8 416 317 216 305 530 427 315 411
8 531 430 318 412 413 320 219 302
8 420 325 223 309 531 430 318 412
8 532 432 320 413 414 321 220 303
8 417 322 433 533 306 221 321 414
8 418 319 218 307 534 428 316 415
8 416 317 428 534 305 216 316 415
8 419 323 434 536 308 222 322 417
8 419 323 222 308 537 431 319 418
8 421 327 225 310 539 438 325 420
8 421 327 439 541 310 225 326 423
8 543 437 324 422 423 326 224 311
8 441 338 259 368 559 452 367 486
8 443 340 236 329 560 453 338 441
8 333 240 344 447 442 342 457 561
8 445 341 237 331 562 455 340 443
8 448 345 241 334 563 454 339 444
8 563 454 339 444 445 341 237 331
8 336 242 346 450 446 343 458 565
8 446 343 458 565 333 240 344 447
8 449 347 243 335 567 460 345 448
8 451 348 244 337 568 462 347 449
8 451 348 461 569 337 244 346 450
8 570 463 349 452 473 360 257 365
8 453 350 245 338 570 463 349 452
8 455 352 247 340 571 464 350 453
8 460 357 252 345 572 465 351 454
8 572 465 351 454 456 353 248 341
8 456 353 248 341 573 466 352 455
8 344 251 356 459 457 354 468 575
8 458 355 469 576 344 251 356 459
8 346 253 358 461 458 355 469 576
8 462 359 254 347 578 471 357 460
8 348 255 359 462 461 358 472 579
8 591 474 360 473 475 361 256 363
8 475 361 256 363 594 477 362 479
8 363 256 364 482 479 362 480 603
8 590 473 365 484 481 363 482 605
8 482 364 257 365 606 483 366 485
8 559 452 367 486 484 365 485 607
8 542 436 487 609 422 324 369 488
8 525 422 488 611 407 311 371 491
8 488 369 489 612 371 261 370 490
8 491 371 490 613 373 263 372 492
8 495 386 276 377 614 503 385 493
8 614 503 385 493 561 457 342 442
8 615 501 383 494 495 386 276 377
8 496 384 274 378 615 501 383 494
8 618 500 382 497 496 384 274 378
8 619 499 381 498 497 382 272 379
8 511 408 297 393 619 499 381 498
8 620 505 387 499 500 388 278 382
8 527 424 312 408 620 505 387 499
8 502 390 506 621 384 280 388 500
8 622 507 389 501 504 392 282 386
8 502 390 280 384 622 507 389 501
8 504 392 282 386 624 509 391 503
8 624 509 391 503 575 468 354 457
8 513 410 299 395 630 527 408 511
8 631 528 411 514 512 409 300 396
8 513 410 528 631 395 299 409 512
8 519 416 305 401 633 530 411 514
8 634 531 412 515 516 413 302 398
8 523 420 309 405 634 531 412 515
8 635 532 413 516 517 414 303 399
8 521 417 533 636 403 306 414 517
8 520 418 307 402 637 534 415 518
8 519 416 534 637 401 305 415 518
8 522 419 308 404 639 537 418 520
8 522 419 536 640 404 308 417 521
8 524 421 310 406 642 539 420 523
8 524 421 541 644 406 310 423 526
8 646 543 422 525 526 423 311 407
8 529 426 314 410 647 544 424 527
8 528 425 545 648 411 315 427 530
8 529 426 545 648 410 314 425 528
8 535 429 317 416 649 546 427 530
8 650 548 430 531 532 432 320 413
8 539 438 325 420 650 548 430 531
8 533 433 550 651 414 321 432 532
8 536 434 551 652 417 322 433 533
8 537 431 319 418 653 547 428 534
8 535 429 547 653 416 317 428 534
8 538 435 552 654 419 323 434 536
8 538 435 323 419 655 549 431 537
8 540 440 327 421 657 556 438 539
8 540 440 557 659 421 327 439 541
8 541 439 555 660 423 326 437 543
8 661 554 436 542 543 437 324 422
8 676 570 452 559 590 473 365 484
8 560 453 338 441 676 570 452 559
8 562 455 340 443 677 571 453 560
8 447 344 459 566 561 457 575 678
8 564 456 341 445 679 573 455 562
8 567 460 345 448 680 572 454 563
8 680 572 454 563 564 456 341 445
8 565 458 576 682 447 344 459 566
8 450 346 461 569 565 458 576 682
8 568 462 347 449 684 578 460 567
8 451 348 462 568 569 461 579 685
8 686 580 463 570 591 474 360 473
8 571 464 350 453 686 580 463 570
8 573 466 352 455 687 581 464 571
8 572 465 582 688 460 357 471 578
8 574 467 582 688 456 353 465 572
8 574 467 353 456 689 583 466 573
8 459 356 470 577 575 468 585 691
8 576 469 586 692 459 356 470 577
8 461 358 472 579 576 469 586 692
8 462 359 471 578 579 472 588 694
8 704 591 473 590 593 475 363 481
8 595 476 592 705 475 361 474 591
8 593 475 363 481 707 594 479 602
8 594 477 362 479 709 598 478 600
8 595 476 361 475 711 597 477 594
8 479 362 480 603 600 478 601 720
8 481 363 482 605 602 479 603 722
8 603 480 364 482 723 604 483 606
8 605 482 365 484 724 606 485 607
8 656 553 608 726 542 436 487 609
8 645 542 609 728 525 422 488 611
8 609 487 610 729 488 369 489 612
8 611 488 612 730 491 371 490 613
8 616 504 386 495 731 624 503 614
8 731 624 503 614 678 575 457 561
8 732 622 501 615 616 504 386 495
8 617 502 384 496 732 622 501 615
8 617 502 621 735 496 384 500 618
8 736 620 499 619 618 500 382 497
8 630 527 408 511 736 620 499 619
8 621 506 626 737 500 388 505 620
8 647 544 424 527 737 626 505 620
8 623 508 627 738 502 390 506 621
8 623 508 390 502 739 628 507 622
8 625 510 628 739 504 392 507 622
8 740 629 509 624 691 585 468 575
8 625 510 392 504 740 629 509 624
8 632 529 410 513 744 647 527 630
8 631 528 648 745 514 411 530 633
8 632 529 648 745 513 410 528 631
8 638 535 416 519 746 649 530 633
8 747 650 531 634 635 532 413 516
8 642 539 420 523 747 650 531 634
8 636 533 651 748 517 414 532 635
8 640 536 652 749 521 417 533 636
8 639 537 418 520 750 653 534 637
8 638 535 653 750 519 416 534 637
8 641 538 419 522 751 655 537 639
8 641 538 654 752 522 419 536 640
8 643 540 421 524 753 657 539 642
8 643 540 659 755 524 421 541 644
8 644 541 660 757 526 423 543 646
8 758 661 542 645 646 543 422 525
8 529 426 544 647 648 545 662 759
8 530 427 545 648 649 546 663 760
8 535 429 546 649 653 547 664 761
8 762 666 548 650 651 550 432 532
8 657 556 438 539 762 666 548 650
8 652 551 668 763 533 433 550 651
8 654 552 669 764 536 434 551 652
8 655 549 431 537 765 665 547 653
8 538 435 549 655 654 552 667 766
8 661 554 671 768 542 436 553 656
8 658 558 440 540 769 674 556 657
8 658 558 675 770 540 440 557 659
8 659 557 673 771 541 439 555 660
8 660 555 672 772 543 437 554 661
8 788 686 570 676 704 591 473 590
8 677 571 453 560 788 686 570 676
8 679 573 455 562 789 687 571 677
8 566 459 577 683 678 575 691 790
8 681 574 456 564 791 689 573 679
8 680 572 688 792 567 460 578 684
8 681 574 688 792 564 456 572 680
8 682 576 692 794 566 459 577 683
8 569 461 579 685 682 576 692 794
8 568 462 578 684 685 579 694 796
8 687 581 464 571 798 696 580 686
8 798 696 580 686 705 592 474 591
8 689 583 466 573 799 697 581 687
8 688 582 698 800 578 471 588 694
8 690 584 698 800 574 467 582 688
8 690 584 467 574 801 699 583 689
8 693 587 701 803 577 470 585 691
8 693 587 470 577 804 702 586 692
8 695 589 702 804 579 472 586 692
8 695 589 472 579 805 703 588 694
8 708 595 705 813 593 475 591 704
8 710 596 706 814 595 476 592 705
8 707 594 479 602 816 709 600 719
8 708 595 475 593 817 711 594 707
8 709 598 478 600 819 715 599 717
8 711 597 477 594 820 714 598 709
8 710 596 476 595 822 713 597 711
8 600 478 601 720 717 599 718 832
8 602 479 603 722 719 600 720 834
8 720 601 480 603 835 721 604 723
8 722 603 482 605 836 723 606 724
8 767 670 725 839 656 553 608 726
8 756 656 726 841 645 542 609 728
8 726 608 727 842 609 487 610 729
8 728 609 729 843 611 488 612 730
8 844 740 624 731 790 691 575 678
8 733 625 504 616 844 740 624 731
8 734 623 502 617 845 739 622 732
8 733 625 739 845 616 504 622 732
8 734 623 738 846 617 502 621 735
8 735 621 737 847 618 500 620 736
8 744 647 527 630 847 737 620 736
8 621 506 627 738 737 626 741 848
8 647 544 626 737 759 662 741 848
8 623 508 628 739 738 627 742 849
8 740 629 585 691 850 743 700 802
8 625 510 629 740 739 628 743 850
8 632 529 647 744 745 648 759 854
8 633 530 648 745 746 649 760 855
8 638 535 649 746 750 653 761 856
8 857 762 650 747 748 651 532 635
8 753 657 539 642 857 762 650 747
8 749 652 763 858 636 533 651 748
8 752 654 764 859 640 536 652 749
8 751 655 537 639 860 765 653 750
8 641 538 655 751 752 654 766 861
8 754 658 540 643 862 769 657 753
8 754 658 770 863 643 540 659 755
8 755 659 771 864 644 541 660 757
8 758 661 768 866 645 542 656 756
8 757 660 772 867 646 543 661 758
8 759 662 773 868 648 545 663 760
8 649 546 663 760 761 664 774 871
8 765 665 547 653 872 775 664 761
8 873 777 666 762 763 668 550 651
8 769 674 556 657 873 777 666 762
8 764 669 779 874 652 551 668 763
8 654 552 667 766 764 669 778 875
8 655 549 665 765 766 667 776 876
8 768 671 782 877 656 553 670 767
8 772 672 783 878 661 554 671 768
8 658 558 674 769 770 675 786 879
8 659 557 675 770 771 673 785 881
8 882 784 672 772 771 673 555 660
8 789 687 571 677 897 798 686 788
8 897 798 686 788 813 705 591 704
8 791 689 573 679 898 799 687 789
8 795 693 803 900 683 577 691 790
8 793 690 574 681 901 801 689 791
8 792 688 800 902 684 578 694 796
8 793 690 800 902 681 574 688 792
8 795 693 577 683 903 804 692 794
8 797 695 804 903 685 579 692 794
8 797 695 579 685 904 805 694 796
8 905 806 697 799 798 696 581 687
8 814 706 806 905 705 592 696 798
8 689 583 697 799 801 699 808 907
8 800 698 809 908 694 588 703 805
8 690 584 699 801 800 698 809 908
8 803 701 810 909 691 585 700 802
8 693 587 702 804 803 701 811 910
8 695 589 703 805 804 702 812 911
8 818 710 814 919 708 595 705 813
8 821 712 815 920 710 596 706 814
8 816 709 600 719 922 819 717 831
8 817 711 594 707 923 820 709 816
8 818 710 595 708 924 822 711 817
8 819 715 599 717 926 827 716 829
8 820 714 598 709 927 826 715 819
8 929 825 713 822 820 714 597 711
8 821 712 596 710 930 824 713 822
8 717 599 718 832 829 716 830 942
8 719 600 720 834 831 717 832 944
8 832 718 601 720 945 833 721 835
8 834 720 603 722 946 835 723 836
8 869 780 838 950 767 670 725 839
8 865 767 839 952 756 656 726 841
8 839 725 840 953 726 608 727 842
8 841 726 842 954 728 609 729 843
8 844 740 691 790 955 850 802 899
8 733 625 740 844 845 739 850 955
8 734 623 739 845 846 738 849 956
8 735 621 738 846 847 737 848 957
8 744 647 737 847 854 759 848 957
8 738 627 742 849 848 741 851 958
8 848 741 851 958 759 662 773 868
8 850 743 700 802 959 852 807 906
8 849 742 628 739 959 852 743 850
8 854 759 868 965 745 648 760 855
8 746 649 760 855 856 761 871 966
8 860 765 653 750 967 872 761 856
8 968 873 762 857 858 763 651 748
8 862 769 657 753 968 873 762 857
8 859 764 874 969 749 652 763 858
8 752 654 766 861 859 764 875 970
8 751 655 765 860 861 766 876 971
8 754 658 769 862 863 770 879 972
8 755 659 770 863 864 771 881 974
8 976 882 772 867 864 771 660 757
8 866 768 877 977 756 656 767 865
8 867 772 878 978 758 661 768 866
8 760 663 773 868 871 774 883 980
8 870 781 837 948 982 890 780 869
8 982 890 780 869 877 782 670 767
8 761 664 774 871 872 775 884 984
8 876 776 665 765 985 885 775 872
8 873 777 668 763 986 887 779 874
8 769 674 777 873 879 786 887 986
8 764 669 778 875 874 779 888 987
8 766 667 776 876 875 778 886 988
8 878 783 892 989 768 671 782 877
8 878 783 672 772 990 893 784 882
8 880 787 675 770 991 896 786 879
8 880 787 895 992 770 675 785 881
8 881 785 894 993 771 673 784 882
8 1006 905 799 898 897 798 687 789
8 919 814 905 1006 813 705 798 897
8 791 689 799 898 901 801 907 1007
8 900 803 909 1009 790 691 802 899
8 795 693 804 903 900 803 910 1010
8 902 800 908 1011 796 694 805 904
8 793 690 801 901 902 800 908 1011
8 797 695 805 904 903 804 911 1012
8 799 697 806 905 907 808 912 1013
8 920 815 912 1013 814 706 806 905
8 802 700 810 909 906 807 913 1014
8 801 699 808 907 908 809 914 1015
8 805 703 809 908 911 812 915 1016
8 803 701 811 910 909 810 916 1017
8 911 812 917 1018 804 702 811 910
8 925 821 920 1030 818 710 814 919
8 928 823 921 1031 821 712 815 920
8 922 819 717 831 1033 926 829 941
8 923 820 709 816 1034 927 819 922
8 1035 929 822 924 923 820 711 817
8 925 821 710 818 1036 930 822 924
8 1038 933 825 929 927 826 714 820
8 926 827 716 829 1039 935 828 939
8 927 826 715 819 1040 934 827 926
8 928 823 712 821 1041 931 824 930
8 1042 932 824 930 929 825 713 822
8 829 716 830 942 939 828 940 1058
8 831 717 832 944 941 829 942 1060
8 942 830 718 832 1061 943 833 945
8 944 832 720 834 1062 945 835 946
8 981 889 947 1064 870 781 837 948
8 948 837 949 1067 869 780 838 950
8 975 869 950 1069 865 767 839 952
8 950 838 951 1070 839 725 840 953
8 952 839 953 1071 841 726 842 954
8 955 850 802 899 1072 959 906 1008
8 956 849 739 845 1072 959 850 955
8 846 738 849 956 957 848 958 1073
8 957 848 958 1073 854 759 868 965
8 849 742 852 959 958 851 961 1076
8 960 853 961 1076 906 807 852 959
8 958 851 961 1076 868 773 883 980
8 960 853 807 906 1077 963 913 1014
8 855 760 868 965 966 871 980 1085
8 856 761 871 966 967 872 984 1086
8 971 876 765 860 1087 985 872 967
8 968 873 763 858 1088 986 874 969
8 862 769 873 968 972 879 986 1088
8 859 764 875 970 969 874 987 1089
8 861 766 876 971 970 875 988 1090
8 973 880 770 863 1091 991 879 972
8 973 880 992 1092 863 770 881 974
8 974 881 993 1093 864 771 882 976
8 979 870 948 1066 1094 982 869 975
8 1094 982 869 975 977 877 767 865
8 978 878 772 867 1095 990 882 976
8 978 878 989 1096 866 768 877 977
8 871 774 883 980 984 884 994 1099
8 983 891 999 1100 870 781 889 981
8 1101 1000 890 982 989 892 782 877
8 983 891 781 870 1101 1000 890 982
8 872 775 884 984 985 885 995 1103
8 876 776 885 985 988 886 996 1104
8 986 887 779 874 1105 998 888 987
8 879 786 887 986 991 896 998 1105
8 875 778 886 988 987 888 997 1106
8 990 893 1002 1107 878 783 892 989
8 1108 1003 893 990 993 894 784 882
8 880 787 896 991 992 895 1005 1109
8 993 894 785 881 1110 1004 895 992
8 898 799 905 1006 1007 907 1013 1120
8 1030 920 1013 1120 919 814 905 1006
8 901 801 907 1007 1011 908 1015 1121
8 899 802 909 1009 1008 906 1014 1122
8 900 803 910 1010 1009 909 1017 1123
8 1012 911 1018 1124 903 804 910 1010
8 904 805 908 1011 1012 911 1016 1125
8 1013 912 1020 1127 907 808 914 1015
8 1031 921 1020 1127 920 815 912 1013
8 1019 918 962 1075 1128 1021 913 1014
8 1128 1021 913 1014 1017 916 810 909
8 1015 914 1022 1129 908 809 915 1016
8 1016 915 1023 1130 911 812 917 1018
8 1018 917 1024 1131 910 811 916 1017
8 1037 928 1031 1148 925 821 920 1030
8 928 823 931 1041 1031 921 1032 1149
8 1033 926 829 941 1151 1039 939 1057
8 1034 927 819 922 1152 1040 926 1033
8 1153 1038 929 1035 1034 927 820 923
8 1154 1042 930 1036 1035 929 822 924
8 1037 928 821 925 1155 1041 930 1036
8 1039 935 828 939 1156 1047 938 1055
8 1157 1043 932 1042 1038 933 825 929
8 1038 933 826 927 1158 1045 934 1040
8 1040 934 827 926 1159 1046 935 1039
8 930 824 932 1042 1041 931 1044 1160
8 1051 936 1048 1165 1175 1052 937 1053
8 1156 1047 938 1055 1053 937 1054 1178
8 939 828 940 1058 1055 938 1056 1181
8 941 829 942 1060 1057 939 1058 1183
8 942 830 943 1061 1058 940 1059 1184
8 1060 942 832 944 1185 1061 945 1062
8 1082 964 1063 1188 981 889 947 1064
8 1097 981 1064 1190 979 870 948 1066
8 1064 947 1065 1191 948 837 949 1067
8 1066 948 1067 1193 975 869 950 1069
8 1067 949 1068 1194 950 838 951 1070
8 1069 950 1070 1195 952 839 953 1071
8 956 849 959 1072 1073 958 1076 1197
8 1074 960 1076 1197 1008 906 959 1072
8 1073 958 1076 1197 965 868 980 1085
8 1074 960 906 1008 1198 1077 1014 1122
8 1133 1026 1079 1199 1019 918 962 1075
8 1077 963 913 1014 1200 1080 962 1075
8 960 853 963 1077 1076 961 1078 1201
8 980 883 961 1076 1099 994 1078 1201
8 1210 1083 964 1082 1100 999 889 981
8 966 871 980 1085 1086 984 1099 1215
8 967 872 984 1086 1087 985 1103 1216
8 971 876 985 1087 1090 988 1104 1217
8 1088 986 874 969 1218 1105 987 1089
8 972 879 986 1088 1091 991 1105 1218
8 970 875 988 1090 1089 987 1106 1219
8 973 880 991 1091 1092 992 1109 1220
8 1093 993 881 974 1221 1110 992 1092
8 1222 1108 990 1095 1093 993 882 976
8 1223 1101 982 1094 1096 989 877 977
8 1098 983 870 979 1223 1101 982 1094
8 1095 990 1107 1224 978 878 989 1096
8 1098 983 1100 1225 979 870 981 1097
8 984 884 994 1099 1103 995 1111 1227
8 1102 1001 1115 1228 983 891 999 1100
8 1101 1000 892 989 1229 1116 1002 1107
8 1102 1001 891 983 1229 1116 1000 1101
8 985 885 995 1103 1104 996 1112 1230
8 988 886 996 1104 1106 997 1113 1231
8 1105 998 888 987 1232 1114 997 1106
8 991 896 998 1105 1109 1005 1114 1232
8 1108 1003 1117 1233 990 893 1002 1107
8 1108 1003 894 993 1233 1117 1004 1110
8 992 895 1005 1109 1110 1004 1118 1234
8 1120 1013 1127 1244 1007 907 1015 1121
8 1148 1031 1127 1244 1030 920 1013 1120
8 1121 1015 1129 1245 1011 908 1016 1125
8 1126 1019 1075 1196 1246 1128 1014 1122
8 1246 1128 1014 1122 1123 1017 909 1009
8 1124 1018 1131 1247 1010 910 1017 1123
8 1125 1016 1130 1248 1012 911 1018 1124
8 1127 1020 1137 1254 1015 914 1022 1129
8 1031 921 1032 1149 1127 1020 1137 1254
8 1134 1027 918 1019 1257 1140 1021 1128
8 1257 1140 1021 1128 1131 1024 916 1017
8 1129 1022 1141 1258 1016 915 1023 1130
8 1130 1023 1142 1259 1018 917 1024 1131
8 1261 1144 1025 1132 1133 1026 1079 1199
8 1255 1138 1025 1132 1135 1028 1144 1261
8 1133 1026 918 1019 1262 1145 1027 1134
8 1136 1029 1139 1256 1263 1146 1028 1135
8 1037 928 1041 1155 1148 1031 1149 1275
8 1041 931 1044 1160 1149 1032 1150 1276
8 1151 1039 939 1057 1278 1156 1055 1180
8 1152 1040 926 1033 1279 1159 1039 1151
8 1153 1038 927 1034 1280 1158 1040 1152
8 1281 1157 1042 1154 1153 1038 929 1035
8 1036 930 1042 1154 1155 1041 1160 1282
8 1283 1164 1046 1159 1156 1047 935 1039
8 1165 1048 1164 1283 1053 937 1047 1156
8 1157 1043 933 1038 1284 1161 1045 1158
8 1157 1043 1161 1284 1042 932 1044 1160
8 1040 934 1046 1159 1158 1045 1163 1285
8 1166 1049 1167 1292 1051 936 1048 1165
8 1166 1049 936 1051 1293 1168 1050 1172
8 1051 936 1052 1175 1172 1050 1173 1306
8 1174 1051 1165 1290 1308 1175 1053 1177
8 1053 937 1054 1178 1175 1052 1176 1309
8 1278 1156 1055 1180 1177 1053 1178 1311
8 1055 938 1056 1181 1178 1054 1179 1312
8 1057 939 1058 1183 1180 1055 1181 1314
8 1058 940 1059 1184 1181 1056 1182 1315
8 1060 942 1061 1185 1183 1058 1184 1316
8 1208 1081 1187 1321 1082 964 1063 1188
8 1209 1082 1188 1322 1097 981 1064 1190
8 1188 1063 1189 1323 1064 947 1065 1191
8 1190 1064 1191 1325 1066 948 1067 1193
8 1191 1065 1192 1326 1067 949 1068 1194
8 1067 1193 1069 950 1194 1327 1195 1070
8 1250 1133 1199 1330 1126 1019 1075 1196
8 1198 1077 1014 1122 1331 1200 1075 1196
8 1074 960 1077 1198 1197 1076 1201 1332
8 1085 980 1076 1197 1215 1099 1201 1332
8 1199 1079 1203 1333 1075 962 1080 1200
8 1132 1025 1119 1243 1199 1079 1203 1333
8 1201 1078 963 1077 1334 1202 1080 1200
8 1099 994 1078 1201 1227 1111 1202 1334
8 1343 1207 1081 1208 1210 1083 964 1082
8 1214 1084 1186 1319 1343 1207 1081 1208
8 1345 1210 1082 1209 1225 1100 981 1097
8 1346 1211 1083 1210 1228 1115 999 1100
8 1086 984 1099 1215 1216 1103 1227 1352
8 1087 985 1103 1216 1217 1104 1230 1353
8 1090 988 1104 1217 1219 1106 1231 1354
8 1218 1105 987 1089 1355 1232 1106 1219
8 1091 991 1105 1218 1220 1109 1232 1355
8 1092 992 1109 1220 1221 1110 1234 1356
8 1222 1108 1233 1357 1095 990 1107 1224
8 1222 1108 993 1093 1357 1233 1110 1221
8 1223 1101 989 1096 1358 1229 1107 1224
8 1226 1102 983 1098 1358 1229 1101 1223
8 1226 1102 1228 1359 1098 983 1100 1225
8 1103 995 1111 1227 1230 1112 1235 1360
8 1107 1002 1117 1233 1229 1116 1240 1362
8 1102 1001 1116 1229 1228 1115 1240 1362
8 1104 996 1112 1230 1231 1113 1236 1363
8 1364 1237 1114 1232 1231 1113 997 1106
8 1109 1005 1114 1232 1234 1118 1238 1365
8 1110 1004 1118 1234 1233 1117 1241 1366
8 1242 1374 1255 1138 1119 1243 1132 1025
8 1244 1127 1254 1376 1121 1015 1129 1245
8 1148 1031 1149 1275 1244 1127 1254 1376
8 1245 1129 1258 1377 1125 1016 1130 1248
8 1251 1134 1019 1126 1378 1257 1128 1246
8 1378 1257 1128 1246 1247 1131 1017 1123
8 1248 1130 1259 1379 1124 1018 1131 1247
8 1261 1381 1250 1133 1132 1249 1330 1199
8 1255 1380 1252 1135 1132 1249 1381 1261
8 1250 1133 1019 1126 1382 1262 1134 1251
8 1253 1136 1256 1385 1384 1263 1135 1252
8 1254 1137 1265 1387 1129 1022 1141 1258
8 1149 1032 1150 1276 1254 1137 1265 1387
8 1028 1135 1255 1138 1139 1256 1388 1266
8 1136 1029 1147 1264 1256 1139 1267 1389
8 1390 1268 1140 1257 1259 1142 1024 1131
8 1260 1143 1027 1134 1390 1268 1140 1257
8 1258 1141 1269 1391 1130 1023 1142 1259
8 1262 1145 1027 1134 1393 1271 1143 1260
8 1261 1144 1026 1133 1394 1272 1145 1262
8 1135 1028 1144 1261 1263 1146 1272 1394
8 1136 1029 1146 1263 1264 1147 1273 1395
8 1155 1041 1160 1282 1275 1149 1276 1405
8 1276 1150 1044 1160 1406 1277 1162 1286
8 1408 1283 1159 1279 1278 1156 1039 1151
8 1290 1165 1283 1408 1177 1053 1156 1278
8 1152 1040 1159 1279 1280 1158 1285 1409
8 1281 1157 1038 1153 1410 1284 1158 1280
8 1281 1157 1284 1410 1154 1042 1160 1282
8 1159 1046 1164 1283 1285 1163 1289 1412
8 1292 1167 1289 1412 1165 1048 1164 1283
8 1158 1045 1163 1285 1284 1161 1288 1413
8 1284 1161 1288 1413 1160 1044 1162 1286
8 1291 1166 1292 1418 1174 1051 1165 1290
8 1291 1166 1051 1174 1419 1293 1172 1305
8 1294 1169 1296 1421 1166 1049 1167 1292
8 1293 1168 1050 1172 1422 1295 1171 1303
8 1294 1169 1049 1166 1423 1297 1168 1293
8 1422 1295 1171 1303 1301 1170 1302 1435
8 1172 1050 1173 1306 1303 1171 1304 1438
8 1174 1051 1175 1308 1305 1172 1306 1440
8 1175 1052 1176 1309 1306 1173 1307 1441
8 1177 1053 1178 1311 1308 1175 1309 1443
8 1178 1054 1179 1312 1309 1176 1310 1444
8 1180 1055 1181 1314 1311 1178 1312 1446
8 1056 1181 1312 1179 1182 1315 1447 1313
8 1183 1058 1184 1316 1314 1181 1315 1448
8 1319 1186 1084 1214 1451 1317 1213 1350
8 1319 1186 1318 1453 1208 1081 1187 1321
8 1321 1187 1320 1456 1188 1063 1189 1323
8 1344 1208 1321 1457 1209 1082 1188 1322
8 1322 1188 1323 1458 1190 1064 1191 1325
8 1323 1189 1324 1459 1191 1065 1192 1326
8 1191 1325 1193 1067 1326 1460 1327 1194
8 1242 1374 1243 1119 1328 1462 1335 1204
8 1330 1199 1333 1465 1196 1075 1200 1331
8 1132 1249 1330 1199 1243 1375 1465 1333
8 1332 1201 1077 1198 1466 1334 1200 1331
8 1215 1099 1201 1332 1352 1227 1334 1466
8 1119 1243 1333 1203 1204 1335 1470 1338
8 1333 1203 1338 1470 1200 1080 1202 1334
8 1227 1111 1202 1334 1360 1235 1338 1470
8 1328 1462 1335 1204 1205 1336 1471 1339
8 1337 1206 1340 1472 1464 1329 1205 1336
8 1346 1211 1342 1479 1210 1083 1207 1343
8 1346 1211 1115 1228 1479 1342 1239 1361
8 1348 1212 1084 1214 1479 1342 1207 1343
8 1480 1343 1208 1344 1345 1210 1082 1209
8 1351 1214 1319 1454 1480 1343 1208 1344
8 1481 1346 1210 1345 1359 1228 1100 1225
8 1348 1212 1347 1483 1214 1084 1213 1350
8 1216 1103 1227 1352 1353 1230 1360 1488
8 1217 1104 1230 1353 1354 1231 1363 1489
8 1490 1364 1232 1355 1354 1231 1106 1219
8 1220 1109 1232 1355 1356 1234 1365 1491
8 1221 1110 1234 1356 1357 1233 1366 1492
8 1224 1107 1233 1357 1358 1229 1362 1493
8 1226 1102 1229 1358 1359 1228 1362 1493
8 1230 1112 1235 1360 1363 1236 1367 1496
8 1361 1239 1115 1228 1497 1371 1240 1362
8 1366 1241 1372 1498 1233 1117 1240 1362
8 1364 1237 1113 1231 1499 1368 1236 1363
8 1364 1237 1368 1499 1232 1114 1238 1365
8 1234 1118 1238 1365 1366 1241 1369 1500
8 1507 1373 1242 1374 1388 1266 1138 1255
8 1508 1374 1243 1375 1380 1255 1132 1249
8 1376 1254 1387 1509 1245 1129 1258 1377
8 1275 1149 1276 1405 1376 1254 1387 1509
8 1377 1258 1391 1510 1248 1130 1259 1379
8 1511 1390 1257 1378 1379 1259 1131 1247
8 1383 1260 1134 1251 1511 1390 1257 1378
8 1252 1135 1256 1385 1380 1255 1388 1512
8 1261 1381 1513 1394 1133 1250 1382 1262
8 1135 1252 1384 1263 1261 1381 1513 1394
8 1382 1262 1134 1251 1514 1393 1260 1383
8 1253 1136 1263 1384 1386 1264 1395 1516
8 1253 1136 1264 1386 1385 1256 1389 1517
8 1387 1265 1397 1519 1258 1141 1269 1391
8 1276 1150 1277 1406 1387 1265 1397 1519
8 1256 1139 1267 1389 1388 1266 1398 1520
8 1264 1147 1274 1396 1389 1267 1399 1521
8 1392 1270 1143 1260 1522 1400 1268 1390
8 1390 1268 1142 1259 1522 1400 1269 1391
8 1392 1270 1401 1523 1260 1143 1271 1393
8 1272 1394 1524 1402 1145 1262 1393 1271
8 1395 1273 1146 1263 1524 1402 1272 1394
8 1273 1395 1264 1147 1403 1526 1396 1274
8 1405 1276 1160 1282 1534 1406 1286 1411
8 1414 1287 1407 1535 1286 1162 1277 1406
8 1279 1159 1283 1408 1409 1285 1412 1537
8 1418 1292 1412 1537 1290 1165 1283 1408
8 1280 1158 1285 1409 1410 1284 1413 1538
8 1410 1284 1413 1538 1282 1160 1286 1411
8 1285 1163 1289 1412 1413 1288 1417 1540
8 1421 1296 1417 1540 1292 1167 1289 1412
8 1414 1287 1162 1286 1541 1416 1288 1413
8 1420 1294 1421 1545 1291 1166 1292 1418
8 1419 1293 1172 1305 1546 1422 1303 1437
8 1420 1294 1166 1291 1547 1423 1293 1419
8 1294 1169 1297 1423 1421 1296 1425 1548
8 1423 1297 1168 1293 1549 1424 1295 1422
8 1301 1170 1298 1427 1422 1295 1424 1549
8 1432 1300 1428 1554 1301 1170 1298 1427
8 1431 1299 1428 1554 1560 1430 1300 1432
8 1563 1433 1300 1432 1435 1302 1170 1301
8 1546 1422 1303 1437 1434 1301 1435 1565
8 1303 1171 1304 1438 1435 1302 1436 1566
8 1305 1172 1306 1440 1437 1303 1438 1568
8 1306 1173 1307 1441 1438 1304 1439 1569
8 1308 1175 1309 1443 1440 1306 1441 1571
8 1309 1176 1310 1444 1441 1307 1442 1572
8 1311 1178 1312 1446 1443 1309 1444 1574
8 1179 1312 1444 1310 1313 1447 1575 1445
8 1314 1181 1315 1448 1446 1312 1447 1576
8 1350 1213 1349 1486 1451 1317 1449 1579
8 1451 1317 1450 1581 1319 1186 1318 1453
8 1454 1319 1214 1351 1582 1451 1350 1487
8 1453 1318 1452 1584 1321 1187 1320 1456
8 1454 1319 1453 1585 1344 1208 1321 1457
8 1456 1320 1455 1586 1323 1189 1324 1459
8 1457 1321 1456 1587 1322 1188 1323 1458
8 1458 1323 1459 1588 1325 1191 1326 1460
8 1205 1336 1464 1329 1328 1462 1590 1461
8 1507 1373 1461 1590 1374 1242 1328 1462
8 1508 1374 1462 1591 1375 1243 1335 1467
8 1337 1206 1329 1464 1473 1341 1463 1594
8 1375 1243 1335 1467 1465 1333 1470 1596
8 1465 1333 1470 1596 1331 1200 1334 1466
8 1352 1227 1334 1466 1488 1360 1470 1596
8 1591 1462 1336 1468 1467 1335 1471 1597
8 1469 1337 1472 1598 1595 1464 1336 1468
8 1471 1339 1474 1600 1335 1204 1338 1470
8 1600 1474 1367 1496 1470 1338 1235 1360
8 1336 1205 1340 1472 1471 1339 1475 1601
8 1337 1206 1341 1473 1472 1340 1476 1602
8 1495 1370 1478 1609 1361 1239 1342 1479
8 1348 1212 1342 1479 1483 1347 1478 1609
8 1481 1346 1479 1610 1345 1210 1343 1480
8 1481 1346 1228 1359 1610 1479 1361 1494
8 1484 1348 1214 1351 1610 1479 1343 1480
8 1483 1347 1482 1612 1350 1213 1349 1486
8 1484 1348 1483 1613 1351 1214 1350 1487
8 1353 1230 1360 1488 1489 1363 1496 1616
8 1490 1364 1231 1354 1617 1499 1363 1489
8 1490 1364 1499 1617 1355 1232 1365 1491
8 1356 1234 1365 1491 1492 1366 1500 1619
8 1492 1366 1498 1620 1357 1233 1362 1493
8 1494 1361 1228 1359 1621 1497 1362 1493
8 1495 1370 1239 1361 1622 1504 1371 1497
8 1363 1236 1367 1496 1499 1368 1501 1623
8 1497 1371 1240 1362 1624 1505 1372 1498
8 1625 1503 1372 1498 1500 1369 1241 1366
8 1365 1238 1368 1499 1500 1369 1502 1626
8 1520 1398 1506 1633 1388 1266 1373 1507
8 1634 1507 1374 1508 1512 1388 1255 1380
8 1509 1387 1519 1635 1377 1258 1391 1510
8 1405 1276 1406 1534 1509 1387 1519 1635
8 1515 1392 1260 1383 1636 1522 1390 1511
8 1511 1390 1259 1379 1636 1522 1391 1510
8 1385 1256 1389 1517 1512 1388 1520 1637
8 1513 1394 1262 1382 1638 1524 1393 1514
8 1395 1516 1638 1524 1263 1384 1513 1394
8 1515 1392 1523 1639 1383 1260 1393 1514
8 1516 1395 1526 1640 1386 1264 1396 1518
8 1386 1264 1396 1518 1517 1389 1521 1641
8 1519 1397 1527 1643 1391 1269 1400 1522
8 1535 1407 1527 1643 1406 1277 1397 1519
8 1389 1267 1399 1521 1520 1398 1528 1644
8 1645 1529 1399 1521 1525 1404 1274 1396
8 1392 1270 1400 1522 1523 1401 1531 1646
8 1524 1402 1271 1393 1648 1532 1401 1523
8 1403 1526 1648 1532 1273 1395 1524 1402
8 1525 1404 1274 1396 1649 1533 1403 1526
8 1539 1414 1535 1657 1411 1286 1406 1534
8 1542 1415 1536 1658 1414 1287 1407 1535
8 1409 1285 1412 1537 1538 1413 1540 1660
8 1545 1421 1540 1660 1418 1292 1412 1537
8 1539 1414 1286 1411 1661 1541 1413 1538
8 1540 1417 1544 1663 1413 1288 1416 1541
8 1421 1296 1425 1548 1540 1417 1544 1663
8 1542 1415 1287 1414 1664 1543 1416 1541
8 1420 1294 1423 1547 1545 1421 1548 1666
8 1547 1423 1293 1419 1667 1549 1422 1546
8 1434 1301 1427 1553 1546 1422 1549 1667
8 1423 1297 1424 1549 1548 1425 1550 1668
8 1551 1426 1550 1668 1427 1298 1424 1549
8 1551 1426 1298 1427 1671 1552 1428 1554
8 1562 1432 1554 1674 1434 1301 1427 1553
8 1431 1299 1429 1558 1554 1428 1555 1675
8 1431 1299 1430 1560 1558 1429 1557 1680
8 1560 1430 1300 1432 1683 1559 1433 1563
8 1561 1431 1554 1674 1684 1560 1432 1562
8 1685 1563 1432 1562 1565 1435 1301 1434
8 1435 1302 1436 1566 1563 1433 1564 1686
8 1437 1303 1438 1568 1565 1435 1566 1688
8 1438 1304 1439 1569 1566 1436 1567 1689
8 1440 1306 1441 1571 1568 1438 1569 1691
8 1441 1307 1442 1572 1569 1439 1570 1692
8 1443 1309 1444 1574 1571 1441 1572 1694
8 1310 1444 1572 1442 1445 1575 1695 1573
8 1446 1312 1447 1576 1574 1444 1575 1696
8 1486 1349 1485 1614 1579 1449 1577 1699
8 1451 1317 1449 1579 1581 1450 1578 1701
8 1487 1350 1486 1615 1582 1451 1579 1702
8 1581 1450 1580 1704 1453 1318 1452 1584
8 1582 1451 1581 1705 1454 1319 1453 1585
8 1584 1452 1583 1706 1456 1320 1455 1586
8 1585 1453 1584 1707 1457 1321 1456 1587
8 1587 1456 1586 1708 1458 1323 1459 1588
8 1633 1506 1589 1710 1507 1373 1461 1590
8 1464 1329 1461 1590 1594 1463 1589 1710
8 1468 1336 1462 1591 1595 1464 1590 1711
8 1634 1507 1590 1711 1508 1374 1462 1591
8 1473 1341 1463 1594 1603 1477 1593 1716
8 1469 1337 1464 1595 1599 1473 1594 1717
8 1471 1597 1467 1335 1600 1718 1596 1470
8 1718 1600 1496 1616 1596 1470 1360 1488
8 1336 1468 1597 1471 1472 1598 1719 1601
8 1469 1337 1473 1599 1598 1472 1602 1720
8 1722 1604 1501 1623 1600 1474 1367 1496
8 1475 1601 1471 1339 1604 1722 1600 1474
8 1602 1476 1605 1723 1472 1340 1475 1601
8 1476 1602 1724 1606 1341 1473 1603 1477
8 1483 1347 1478 1609 1612 1482 1608 1731
8 1495 1370 1504 1622 1609 1478 1608 1731
8 1618 1495 1609 1732 1494 1361 1479 1610
8 1484 1348 1479 1610 1613 1483 1609 1732
8 1486 1349 1482 1612 1614 1485 1611 1733
8 1613 1483 1612 1734 1487 1350 1486 1615
8 1489 1363 1496 1616 1617 1499 1623 1736
8 1491 1365 1499 1617 1619 1500 1626 1737
8 1618 1495 1361 1494 1738 1622 1497 1621
8 1739 1625 1498 1620 1619 1500 1366 1492
8 1621 1497 1362 1493 1740 1624 1498 1620
8 1742 1631 1504 1622 1624 1505 1371 1497
8 1743 1628 1502 1626 1623 1501 1368 1499
8 1744 1630 1505 1624 1625 1503 1372 1498
8 1745 1629 1503 1625 1626 1502 1369 1500
8 1520 1398 1528 1644 1633 1506 1632 1751
8 1637 1520 1633 1752 1512 1388 1507 1634
8 1635 1519 1643 1753 1510 1391 1522 1636
8 1657 1535 1643 1753 1534 1406 1519 1635
8 1515 1392 1522 1636 1639 1523 1646 1754
8 1517 1389 1521 1641 1637 1520 1644 1755
8 1524 1638 1756 1648 1393 1514 1639 1523
8 1640 1526 1395 1516 1756 1648 1524 1638
8 1642 1525 1396 1518 1757 1649 1526 1640
8 1758 1645 1521 1641 1642 1525 1396 1518
8 1646 1531 1400 1522 1760 1650 1527 1643
8 1535 1407 1536 1658 1643 1527 1650 1760
8 1521 1399 1529 1645 1644 1528 1651 1761
8 1647 1530 1652 1762 1525 1404 1529 1645
8 1401 1523 1648 1532 1531 1646 1763 1655
8 1525 1404 1533 1649 1647 1530 1654 1765
8 1533 1649 1766 1656 1403 1526 1648 1532
8 1662 1542 1658 1774 1539 1414 1535 1657
8 1542 1415 1543 1664 1658 1536 1659 1775
8 1660 1540 1663 1777 1538 1413 1541 1661
8 1545 1421 1548 1666 1660 1540 1663 1777
8 1662 1542 1414 1539 1778 1664 1541 1661
8 1664 1543 1416 1541 1779 1665 1544 1663
8 1548 1425 1550 1668 1663 1544 1665 1779
8 1547 1423 1549 1667 1666 1548 1668 1781
8 1670 1551 1668 1781 1553 1427 1549 1667
8 1551 1426 1552 1671 1668 1550 1669 1782
8 1670 1551 1427 1553 1784 1671 1554 1674
8 1675 1555 1672 1785 1554 1428 1552 1671
8 1678 1556 1673 1789 1558 1429 1555 1675
8 1561 1431 1558 1681 1674 1554 1675 1790
8 1794 1677 1556 1678 1680 1557 1429 1558
8 1560 1430 1559 1683 1680 1557 1679 1797
8 1561 1431 1560 1684 1681 1558 1680 1798
8 1563 1433 1564 1686 1683 1559 1682 1800
8 1684 1560 1432 1562 1801 1683 1563 1685
8 1565 1435 1566 1688 1685 1563 1686 1802
8 1566 1436 1567 1689 1686 1564 1687 1803
8 1568 1438 1569 1691 1688 1566 1689 1805
8 1569 1439 1570 1692 1689 1567 1690 1806
8 1571 1441 1572 1694 1691 1569 1692 1808
8 1442 1572 1692 1570 1573 1695 1809 1693
8 1574 1444 1575 1696 1694 1572 1695 1810
8 1614 1485 1592 1712 1699 1577 1697 1813
8 1579 1449 1577 1699 1701 1578 1698 1815
8 1615 1486 1614 1735 1702 1579 1699 1816
8 1701 1578 1700 1818 1581 1450 1580 1704
8 1582 1451 1579 1702 1705 1581 1701 1819
8 1704 1580 1703 1820 1584 1452 1583 1706
8 1705 1581 1704 1821 1585 1453 1584 1707
8 1707 1584 1706 1822 1587 1456 1586 1708
8 1710 1589 1506 1633 1824 1709 1632 1751
8 1594 1463 1589 1710 1716 1593 1709 1824
8 1752 1633 1710 1825 1634 1507 1590 1711
8 1595 1464 1590 1711 1717 1594 1710 1825
8 1830 1714 1592 1712 1733 1611 1485 1614
8 1603 1477 1593 1716 1725 1607 1715 1834
8 1599 1473 1594 1717 1721 1603 1716 1835
8 1837 1722 1623 1736 1718 1600 1496 1616
8 1719 1601 1722 1837 1597 1471 1600 1718
8 1602 1720 1598 1472 1723 1838 1719 1601
8 1720 1602 1473 1599 1839 1724 1603 1721
8 1723 1605 1726 1840 1601 1475 1604 1722
8 1840 1726 1628 1743 1722 1604 1501 1623
8 1724 1606 1727 1841 1602 1476 1605 1723
8 1725 1607 1728 1842 1603 1477 1606 1724
8 1612 1482 1608 1731 1733 1611 1730 1849
8 1741 1627 1730 1849 1622 1504 1608 1731
8 1613 1483 1609 1732 1734 1612 1731 1850
8 1618 1495 1622 1738 1732 1609 1731 1850
8 1615 1486 1612 1734 1735 1614 1733 1851
8 1852 1743 1626 1737 1736 1623 1499 1617
8 1853 1745 1625 1739 1737 1626 1500 1619
8 1855 1742 1622 1738 1740 1624 1497 1621
8 1856 1744 1624 1740 1739 1625 1498 1620
8 1741 1627 1504 1622 1857 1746 1631 1742
8 1742 1631 1505 1624 1858 1749 1630 1744
8 1859 1747 1629 1745 1743 1628 1502 1626
8 1860 1748 1630 1744 1745 1629 1503 1625
8 1644 1528 1651 1761 1751 1632 1750 1865
8 1637 1520 1644 1755 1752 1633 1751 1866
8 1754 1646 1522 1636 1867 1760 1643 1753
8 1657 1535 1658 1774 1753 1643 1760 1867
8 1639 1523 1646 1754 1756 1648 1763 1868
8 1641 1521 1645 1758 1755 1644 1761 1869
8 1757 1649 1526 1640 1870 1766 1648 1756
8 1642 1525 1649 1757 1759 1647 1765 1871
8 1759 1647 1762 1872 1642 1525 1645 1758
8 1760 1650 1767 1874 1646 1531 1655 1763
8 1658 1536 1659 1775 1760 1650 1767 1874
8 1762 1652 1768 1875 1645 1529 1651 1761
8 1764 1653 1769 1876 1647 1530 1652 1762
8 1656 1766 1877 1773 1532 1648 1763 1655
8 1771 1879 1765 1654 1653 1764 1647 1530
8 1533 1649 1765 1654 1656 1766 1880 1772
8 1662 1542 1664 1778 1774 1658 1775 1887
8 1664 1543 1665 1779 1775 1659 1776 1888
8 1778 1664 1541 1661 1890 1779 1663 1777
8 1666 1548 1668 1781 1777 1663 1779 1890
8 1782 1669 1780 1891 1668 1550 1665 1779
8 1670 1551 1671 1784 1781 1668 1782 1893
8 1671 1552 1672 1785 1782 1669 1783 1894
8 1790 1675 1785 1896 1674 1554 1671 1784
8 1675 1555 1673 1789 1785 1672 1786 1897
8 1792 1676 1788 1903 1678 1556 1673 1789
8 1795 1678 1789 1904 1681 1558 1675 1790
8 1792 1676 1556 1678 1906 1791 1677 1794
8 1680 1557 1679 1797 1794 1677 1793 1909
8 1910 1794 1678 1795 1798 1680 1558 1681
8 1683 1559 1682 1800 1797 1679 1796 1912
8 1684 1560 1683 1801 1798 1680 1797 1913
8 1686 1564 1687 1803 1800 1682 1799 1915
8 1685 1563 1686 1802 1801 1683 1800 1916
8 1688 1566 1689 1805 1802 1686 1803 1917
8 1689 1567 1690 1806 1803 1687 1804 1918
8 1691 1569 1692 1808 1805 1689 1806 1920
8 1692 1570 1693 1809 1806 1690 1807 1921
8 1694 1572 1695 1810 1808 1692 1809 1922
8 1829 1713 1811 1926 1712 1592 1697 1813
8 1813 1697 1812 1928 1699 1577 1698 1815
8 1735 1614 1712 1828 1816 1699 1813 1929
8 1815 1698 1814 1931 1701 1578 1700 1818
8 1702 1579 1699 1816 1819 1701 1815 1932
8 1818 1700 1817 1933 1704 1580 1703 1820
8 1819 1701 1818 1934 1705 1581 1704 1821
8 1821 1704 1820 1935 1707 1584 1706 1822
8 1824 1709 1632 1751 1937 1823 1750 1865
8 1716 1593 1709 1824 1834 1715 1823 1937
8 1825 1710 1633 1752 1938 1824 1751 1866
8 1717 1594 1710 1825 1835 1716 1824 1938
8 1945 1830 1712 1828 1851 1733 1614 1735
8 1830 1714 1831 1946 1712 1592 1713 1829
8 1947 1832 1714 1830 1849 1730 1611 1733
8 1843 1729 1607 1725 1950 1833 1715 1834
8 1721 1603 1716 1835 1836 1725 1834 1951
8 1836 1725 1842 1953 1721 1603 1724 1839
8 1723 1838 1719 1601 1840 1954 1837 1722
8 1954 1840 1743 1852 1837 1722 1623 1736
8 1724 1839 1720 1602 1841 1955 1838 1723
8 1841 1727 1844 1956 1723 1605 1726 1840
8 1956 1844 1747 1859 1840 1726 1628 1743
8 1728 1842 1724 1606 1845 1957 1841 1727
8 1725 1607 1729 1843 1842 1728 1846 1958
8 1741 1627 1746 1857 1849 1730 1848 1965
8 1734 1612 1731 1850 1851 1733 1849 1966
8 1854 1741 1849 1966 1738 1622 1731 1850
8 1967 1859 1745 1853 1852 1743 1626 1737
8 1968 1860 1744 1856 1853 1745 1625 1739
8 1854 1741 1622 1738 1969 1857 1742 1855
8 1855 1742 1624 1740 1970 1858 1744 1856
8 1857 1746 1631 1742 1971 1861 1749 1858
8 1858 1749 1630 1744 1972 1863 1748 1860
8 1859 1747 1862 1973 1745 1629 1748 1860
8 1875 1768 1864 1977 1761 1651 1750 1865
8 1755 1644 1761 1869 1866 1751 1865 1978
8 1867 1760 1874 1979 1754 1646 1763 1868
8 1774 1658 1775 1887 1867 1760 1874 1979
8 1870 1766 1648 1756 1980 1877 1763 1868
8 1872 1762 1875 1981 1758 1645 1761 1869
8 1757 1649 1766 1870 1871 1765 1880 1982
8 1983 1879 1764 1873 1871 1765 1647 1759
8 1873 1764 1876 1984 1759 1647 1762 1872
8 1877 1773 1655 1763 1986 1881 1767 1874
8 1775 1659 1776 1888 1874 1767 1881 1986
8 1876 1769 1882 1987 1762 1652 1768 1875
8 1878 1770 1883 1988 1764 1653 1769 1876
8 1880 1772 1656 1766 1989 1886 1773 1877
8 1878 1770 1653 1764 1990 1884 1771 1879
8 1765 1654 1772 1880 1879 1771 1885 1991
8 1778 1664 1779 1890 1887 1775 1888 1997
8 1998 1889 1776 1888 1891 1780 1665 1779
8 1893 1782 1891 2000 1781 1668 1779 1890
8 1894 1783 1892 2001 1782 1669 1780 1891
8 1784 1671 1785 1896 1893 1782 1894 2003
8 1897 1786 1895 2004 1785 1672 1783 1894
8 1790 1675 1789 1904 1896 1785 1897 2006
8 1901 1787 1898 2007 1789 1673 1786 1897
8 1903 1788 1900 2013 1789 1673 1787 1901
8 1792 1676 1791 1906 1903 1788 1902 2016
8 1907 1792 1903 2017 1795 1678 1789 1904
8 1906 1791 1677 1794 2019 1905 1793 1909
8 1907 1792 1678 1795 2020 1906 1794 1910
8 1797 1679 1796 1912 1909 1793 1908 2022
8 1798 1680 1797 1913 1910 1794 1909 2023
8 1800 1682 1799 1915 1912 1796 1911 2025
8 1801 1683 1800 1916 1913 1797 1912 2026
8 1803 1687 1804 1918 1915 1799 1914 2028
8 1802 1686 1803 1917 1916 1800 1915 2029
8 1805 1689 1806 1920 1917 1803 1918 2030
8 1806 1690 1807 1921 1918 1804 1919 2031
8 1808 1692 1809 1922 1920 1806 1921 2032
8 1939 1826 1924 2037 1829 1713 1811 1926
8 1926 1811 1925 2039 1813 1697 1812 1928
8 1944 1829 1926 2040 1828 1712 1813 1929
8 1928 1812 1927 2042 1815 1698 1814 1931
8 1929 1813 1928 2043 1816 1699 1815 1932
8 1931 1814 1930 2044 1818 1700 1817 1933
8 1932 1815 1931 2045 1819 1701 1818 1934
8 1934 1818 1933 2046 1821 1704 1820 1935
8 2048 1936 1823 1937 1977 1864 1750 1865
8 1950 1833 1715 1834 2048 1936 1823 1937
8 1938 1824 1751 1866 2049 1937 1865 1978
8 1835 1716 1824 1938 1951 1834 1937 2049
8 1939 1826 1713 1829 2053 1942 1831 1946
8 1940 1827 1923 2035 2053 1942 1826 1939
8 1945 1830 1946 2058 1828 1712 1829 1944
8 2059 1947 1830 1945 1966 1849 1733 1851
8 1947 1832 1730 1849 2060 1948 1848 1965
8 1947 1832 1948 2060 1830 1714 1831 1946
8 1959 1847 1729 1843 2063 1949 1833 1950
8 1952 1843 1725 1836 2064 1950 1834 1951
8 1836 1725 1843 1952 1953 1842 1958 2066
8 1953 1842 1957 2067 1839 1724 1841 1955
8 1841 1955 1838 1723 1956 2068 1954 1840
8 2068 1956 1859 1967 1954 1840 1743 1852
8 1956 1844 1960 2069 1859 1747 1862 1973
8 1845 1957 1841 1727 1960 2069 1956 1844
8 1728 1842 1957 1845 1846 1958 2071 1961
8 1962 2072 1959 1847 1846 1958 1843 1729
8 1971 1861 1964 2077 1857 1746 1848 1965
8 1854 1741 1857 1969 1966 1849 1965 2078
8 1967 1859 1973 2079 1853 1745 1860 1968
8 1970 1858 1744 1856 2080 1972 1860 1968
8 1969 1857 1742 1855 2081 1971 1858 1970
8 1971 1861 1749 1858 2082 1974 1863 1972
8 1973 1862 1975 2083 1860 1748 1863 1972
8 1987 1882 1976 2086 1875 1768 1864 1977
8 1981 1875 1977 2087 1869 1761 1865 1978
8 1980 1877 1763 1868 2088 1986 1874 1979
8 1887 1775 1888 1997 1979 1874 1986 2088
8 1880 1982 2089 1989 1766 1870 1980 1877
8 1984 1876 1987 2090 1872 1762 1875 1981
8 1765 1871 1983 1879 1880 1982 2091 1991
8 1985 1878 1764 1873 2092 1990 1879 1983
8 1985 1878 1988 2093 1873 1764 1876 1984
8 2094 1992 1881 1986 1998 1889 1776 1888
8 1986 1881 1992 2094 1877 1773 1886 1989
8 1988 1883 1993 2095 1876 1769 1882 1987
8 1878 1770 1884 1990 1988 1883 1994 2096
8 1991 1885 1772 1880 2097 1996 1886 1989
8 1879 1771 1885 1991 1990 1884 1995 2098
8 2103 1998 1888 1997 2000 1891 1779 1890
8 2104 1999 1889 1998 2001 1892 1780 1891
8 2003 1894 2001 2106 1893 1782 1891 2000
8 2004 1895 2002 2107 1894 1783 1892 2001
8 2006 1897 2004 2109 1896 1785 1894 2003
8 2007 1898 2005 2110 1897 1786 1895 2004
8 2014 1901 2007 2112 1904 1789 1897 2006
8 2011 1899 2008 2113 1901 1787 1898 2007
8 2119 2010 1899 2011 2013 1900 1787 1901
8 2016 1902 2012 2122 1903 1788 1900 2013
8 2017 1903 2013 2123 1904 1789 1901 2014
8 1906 1791 1905 2019 2016 1902 2015 2125
8 1907 1792 1906 2020 2017 1903 2016 2126
8 1909 1793 1908 2022 2019 1905 2018 2128
8 2020 1906 1794 1910 2129 2019 1909 2023
8 1912 1796 1911 2025 2022 1908 2021 2131
8 1913 1797 1912 2026 2023 1909 2022 2132
8 1915 1799 1914 2028 2025 1911 2024 2134
8 1916 1800 1915 2029 2026 1912 2025 2135
8 1918 1804 1919 2031 2028 1914 2027 2136
8 1917 1803 1918 2030 2029 1915 2028 2137
8 1920 1806 1921 2032 2030 1918 2031 2138
8 1940 1827 1941 2054 2035 1923 2033 2140
8 2035 1923 2034 2143 1939 1826 1924 2037
8 2037 1924 2036 2146 1926 1811 1925 2039
8 2051 1939 2037 2147 1944 1829 1926 2040
8 2039 1925 2038 2149 1928 1812 1927 2042
8 2040 1926 2039 2150 1929 1813 1928 2043
8 2042 1927 2041 2151 1931 1814 1930 2044
8 2043 1928 2042 2152 1932 1815 1931 2045
8 2045 1931 2044 2153 1934 1818 1933 2046
8 2155 2047 1936 2048 2086 1976 1864 1977
8 2063 1949 1833 1950 2155 2047 1936 2048
8 2156 2048 1937 2049 2087 1977 1865 1978
8 2064 1950 1834 1951 2156 2048 1937 2049
8 2051 1939 1829 1944 2160 2053 1946 2058
8 2052 1940 2035 2144 2160 2053 1939 2051
8 2053 1942 1831 1946 2163 2057 1948 2060
8 2055 1943 1827 1940 2163 2057 1942 2053
8 2055 1943 2056 2164 1940 1827 1941 2054
8 2059 1947 1849 1966 2167 2060 1965 2078
8 2059 1947 2060 2167 1945 1830 1946 2058
8 2077 1964 2061 2168 1965 1848 1948 2060
8 2070 1963 1847 1959 2170 2062 1949 2063
8 2065 1959 1843 1952 2171 2063 1950 2064
8 2173 2072 1958 2066 2065 1959 1843 1952
8 1953 1842 1958 2066 2067 1957 2071 2174
8 2068 1956 2069 2175 1967 1859 1973 2079
8 2067 1957 2069 2175 1955 1841 1956 2068
8 1845 1957 2069 1960 1961 2071 2176 2073
8 2069 1960 2073 2176 1973 1862 1975 2083
8 2070 1963 2075 2177 1959 1847 1962 2072
8 1846 1958 2071 1961 1962 2072 2178 2074
8 2077 1964 1861 1971 2182 2076 1974 2082
8 2081 1971 2077 2183 1969 1857 1965 2078
8 2079 1973 2083 2184 1968 1860 1972 2080
8 2081 1971 1858 1970 2185 2082 1972 2080
8 2083 1975 2084 2186 1972 1863 1974 2082
8 2086 1976 1882 1987 2189 2085 1993 2095
8 2090 1987 2086 2190 1981 1875 1977 2087
8 2191 2094 1986 2088 2103 1998 1888 1997
8 2088 1986 2094 2191 1980 1877 1989 2089
8 1991 2091 2192 2097 1880 1982 2089 1989
8 2093 1988 2095 2193 1984 1876 1987 2090
8 1879 1983 2092 1990 1991 2091 2194 2098
8 1985 1878 1990 2092 2093 1988 2096 2195
8 2097 1996 1886 1989 2196 2099 1992 2094
8 2196 2099 1992 2094 2104 1999 1889 1998
8 1994 2096 1988 1883 2100 2197 2095 1993
8 2096 1994 1884 1990 2198 2101 1995 2098
8 1995 2098 2199 2102 1885 1991 2097 1996
8 2203 2104 1998 2103 2106 2001 1891 2000
8 2107 2002 2105 2204 2001 1892 1999 2104
8 2109 2004 2107 2206 2003 1894 2001 2106
8 2110 2005 2108 2207 2004 1895 2002 2107
8 2112 2007 2110 2209 2006 1897 2004 2109
8 2113 2008 2111 2210 2007 1898 2005 2110
8 2120 2011 2113 2212 2014 1901 2007 2112
8 2117 2009 2114 2213 2011 1899 2008 2113
8 2219 2116 2009 2117 2119 2010 1899 2011
8 2222 2118 2010 2119 2122 2012 1900 2013
8 2223 2119 2011 2120 2123 2013 1901 2014
8 2016 1902 2015 2125 2122 2012 2121 2225
8 2126 2016 2122 2226 2017 1903 2013 2123
8 2019 1905 2018 2128 2125 2015 2124 2228
8 2020 1906 2019 2129 2126 2016 2125 2229
8 2022 1908 2021 2131 2128 2018 2127 2231
8 2023 1909 2022 2132 2129 2019 2128 2232
8 2025 1911 2024 2134 2131 2021 2130 2234
8 2026 1912 2025 2135 2132 2022 2131 2235
8 1914 2028 2134 2024 2027 2136 2236 2133
8 2029 1915 2028 2137 2135 2025 2134 2237
8 2030 1918 2031 2138 2137 2028 2136 2238
8 2157 2050 2139 2240 2054 1941 2033 2140
8 2052 1940 2054 2161 2144 2035 2140 2242
8 2140 2033 2141 2243 2035 1923 2034 2143
8 2143 2034 2142 2246 2037 1924 2036 2146
8 2144 2035 2143 2247 2051 1939 2037 2147
8 2146 2036 2145 2249 2039 1925 2038 2149
8 2147 2037 2146 2250 2040 1926 2039 2150
8 2149 2038 2148 2251 2042 1927 2041 2151
8 2150 2039 2149 2252 2043 1928 2042 2152
8 2152 2042 2151 2253 2045 1931 2044 2153
8 2255 2154 2047 2155 2189 2085 1976 2086
8 2170 2062 1949 2063 2255 2154 2047 2155
8 2256 2155 2048 2156 2190 2086 1977 2087
8 2171 2063 1950 2064 2256 2155 2048 2156
8 2258 2159 2050 2157 2164 2056 1941 2054
8 2160 2053 1946 2058 2262 2163 2060 2167
8 2162 2055 1940 2052 2262 2163 2053 2160
8 2162 2055 2164 2263 2052 1940 2054 2161
8 2163 2057 1948 2060 2264 2165 2061 2168
8 2055 1943 2057 2163 2164 2056 2165 2264
8 2182 2076 2166 2268 2077 1964 2061 2168
8 2183 2077 2168 2269 2078 1965 2060 2167
8 2070 1963 2062 2170 2177 2075 2169 2271
8 2172 2070 1959 2065 2272 2170 2063 2171
8 2172 2070 2177 2273 2065 1959 2072 2173
8 2066 1958 2072 2173 2174 2071 2178 2274
8 2067 1957 2071 2174 2175 2069 2176 2275
8 2175 2069 2176 2275 2079 1973 2083 2184
8 2071 1961 2074 2178 2176 2073 2179 2276
8 2176 2073 2179 2276 2083 1975 2084 2186
8 2072 1962 2075 2177 2178 2074 2180 2277
8 2182 2076 1974 2082 2280 2181 2084 2186
8 2183 2077 1971 2081 2281 2182 2082 2185
8 2184 2083 2186 2282 2080 1972 2082 2185
8 2189 2085 1993 2095 2285 2188 2100 2197
8 2190 2086 1987 2090 2286 2189 2095 2193
8 2192 2097 1989 2089 2287 2196 2094 2191
8 2287 2196 2094 2191 2203 2104 1998 2103
8 2194 2098 1991 2091 2288 2199 2097 2192
8 2195 2096 2197 2289 2093 1988 2095 2193
8 2096 2195 2290 2198 1990 2092 2194 2098
8 2097 1996 2099 2196 2199 2102 2200 2291
8 2196 2099 1999 2104 2291 2200 2105 2204
8 2100 2197 2292 2201 1994 2096 2198 2101
8 1995 2098 2198 2101 2102 2199 2293 2202
8 2206 2107 2204 2296 2106 2001 2104 2203
8 2207 2108 2205 2297 2107 2002 2105 2204
8 2209 2110 2207 2299 2109 2004 2107 2206
8 2210 2111 2208 2300 2110 2005 2108 2207
8 2212 2113 2210 2302 2112 2007 2110 2209
8 2213 2114 2211 2303 2113 2008 2111 2210
8 2220 2117 2213 2305 2120 2011 2113 2212
8 2216 2115 2214 2306 2117 2009 2114 2213
8 2216 2115 2009 2117 2311 2217 2116 2219
8 2219 2116 2010 2119 2314 2218 2118 2222
8 2315 2219 2117 2220 2223 2119 2011 2120
8 2122 2012 2121 2225 2222 2118 2221 2317
8 2318 2222 2119 2223 2226 2122 2013 2123
8 2125 2015 2124 2228 2225 2121 2224 2320
8 2126 2016 2125 2229 2226 2122 2225 2321
8 2128 2018 2127 2231 2228 2124 2227 2323
8 2129 2019 2128 2232 2229 2125 2228 2324
8 2131 2021 2130 2234 2231 2127 2230 2326
8 2132 2022 2131 2235 2232 2128 2231 2327
8 2134 2024 2133 2236 2234 2130 2233 2328
8 2135 2025 2134 2237 2235 2131 2234 2329
8 2137 2028 2136 2238 2237 2134 2236 2330
8 2157 2050 2158 2259 2240 2139 2239 2332
8 2257 2157 2240 2334 2161 2054 2140 2242
8 2240 2139 2241 2335 2140 2033 2141 2243
8 2242 2140 2243 2337 2144 2035 2143 2247
8 2243 2141 2244 2338 2143 2034 2142 2246
8 2246 2142 2245 2341 2146 2036 2145 2249
8 2247 2143 2246 2342 2147 2037 2146 2250
8 2249 2145 2248 2343 2149 2038 2148 2251
8 2250 2146 2249 2344 2150 2039 2149 2252
8 2252 2149 2251 2345 2152 2042 2151 2253
8 2169 2271 2347 2254 2062 2170 2255 2154
8 2189 2085 2188 2285 2255 2154 2254 2347
8 2348 2255 2155 2256 2286 2189 2086 2190
8 2272 2170 2063 2171 2348 2255 2155 2256
8 2349 2258 2157 2257 2263 2164 2054 2161
8 2258 2159 2261 2351 2157 2050 2158 2259
8 2258 2159 2056 2164 2351 2261 2165 2264
8 2262 2163 2060 2167 2355 2264 2168 2269
8 2162 2055 2163 2262 2263 2164 2264 2355
8 2357 2266 2165 2264 2268 2166 2061 2168
8 2268 2166 2076 2182 2361 2267 2181 2280
8 2281 2182 2268 2362 2183 2077 2168 2269
8 2271 2169 2270 2364 2177 2075 2180 2277
8 2172 2070 2170 2272 2273 2177 2271 2365
8 2072 2173 2274 2178 2177 2273 2366 2277
8 2071 2174 2275 2176 2178 2274 2367 2276
8 2275 2176 2276 2367 2184 2083 2186 2282
8 2283 2187 2084 2186 2368 2278 2179 2276
8 2178 2074 2180 2277 2276 2179 2278 2368
8 2283 2187 2279 2370 2186 2084 2181 2280
8 2281 2182 2082 2185 2371 2280 2186 2282
8 2188 2285 2374 2284 2100 2197 2292 2201
8 2286 2189 2095 2193 2375 2285 2197 2289
8 2192 2097 2196 2287 2288 2199 2291 2376
8 2287 2196 2104 2203 2376 2291 2204 2296
8 2194 2098 2199 2288 2290 2198 2293 2377
8 2289 2197 2096 2195 2378 2292 2198 2290
8 2291 2200 2105 2204 2379 2294 2205 2297
8 2199 2102 2200 2291 2293 2202 2294 2379
8 2198 2101 2202 2293 2292 2201 2295 2380
8 2299 2207 2297 2383 2206 2107 2204 2296
8 2300 2208 2298 2384 2207 2108 2205 2297
8 2302 2210 2300 2386 2209 2110 2207 2299
8 2303 2211 2301 2387 2210 2111 2208 2300
8 2305 2213 2303 2389 2212 2113 2210 2302
8 2306 2214 2304 2390 2213 2114 2211 2303
8 2310 2216 2306 2392 2220 2117 2213 2305
8 2308 2215 2307 2393 2216 2115 2214 2306
8 2308 2215 2115 2216 2396 2309 2217 2311
8 2310 2216 2117 2220 2398 2311 2219 2315
8 2311 2217 2116 2219 2399 2312 2218 2314
8 2314 2218 2118 2222 2402 2313 2221 2317
8 2315 2219 2119 2223 2403 2314 2222 2318
8 2225 2121 2224 2320 2317 2221 2316 2405
8 2226 2122 2225 2321 2318 2222 2317 2406
8 2228 2124 2227 2323 2320 2224 2319 2408
8 2229 2125 2228 2324 2321 2225 2320 2409
8 2231 2127 2230 2326 2323 2227 2322 2411
8 2232 2128 2231 2327 2324 2228 2323 2412
8 2234 2130 2233 2328 2326 2230 2325 2413
8 2235 2131 2234 2329 2327 2231 2326 2414
8 2237 2134 2236 2330 2329 2234 2328 2415
8 2259 2158 2260 2352 2332 2239 2331 2417
8 2257 2157 2259 2350 2334 2240 2332 2419
8 2240 2139 2239 2332 2335 2241 2333 2420
8 2334 2240 2335 2422 2242 2140 2243 2337
8 2335 2241 2336 2423 2243 2141 2244 2338
8 2337 2243 2338 2425 2247 2143 2246 2342
8 2338 2244 2339 2426 2246 2142 2245 2341
8 2341 2245 2340 2428 2249 2145 2248 2343
8 2342 2246 2341 2429 2250 2146 2249 2344
8 2344 2249 2343 2430 2252 2149 2251 2345
8 2188 2285 2347 2254 2284 2374 2432 2346
8 2347 2254 2346 2432 2271 2169 2270 2364
8 2365 2271 2170 2272 2433 2347 2255 2348
8 2286 2189 2285 2375 2348 2255 2347 2433
8 2349 2258 2351 2435 2257 2157 2259 2350
8 2349 2258 2164 2263 2435 2351 2264 2355
8 2259 2158 2261 2351 2352 2260 2354 2437
8 2356 2265 2354 2437 2264 2165 2261 2351
8 2441 2357 2264 2355 2362 2268 2168 2269
8 2356 2265 2165 2264 2442 2358 2266 2357
8 2443 2359 2266 2357 2361 2267 2166 2268
8 2370 2279 2360 2446 2280 2181 2267 2361
8 2362 2268 2182 2281 2447 2361 2280 2371
8 2180 2277 2368 2278 2270 2364 2449 2363
8 2271 2365 2273 2177 2364 2450 2366 2277
8 2372 2283 2186 2282 2451 2368 2276 2367
8 2178 2274 2367 2276 2277 2366 2451 2368
8 2283 2187 2278 2368 2370 2279 2369 2452
8 2372 2283 2370 2453 2282 2186 2280 2371
8 2284 2374 2455 2373 2201 2292 2380 2295
8 2375 2285 2197 2289 2456 2374 2292 2378
8 2376 2291 2204 2296 2457 2379 2297 2383
8 2288 2199 2291 2376 2377 2293 2379 2457
8 2198 2290 2378 2292 2293 2377 2458 2380
8 2293 2202 2294 2379 2380 2295 2381 2459
8 2384 2298 2381 2459 2297 2205 2294 2379
8 2386 2300 2384 2463 2299 2207 2297 2383
8 2387 2301 2385 2464 2300 2208 2298 2384
8 2389 2303 2387 2466 2302 2210 2300 2386
8 2390 2304 2388 2467 2303 2211 2301 2387
8 2392 2306 2390 2469 2305 2213 2303 2389
8 2393 2307 2391 2470 2306 2214 2304 2390
8 2395 2308 2393 2472 2310 2216 2306 2392
8 2308 2215 2309 2396 2393 2307 2394 2473
8 2395 2308 2216 2310 2475 2396 2311 2398
8 2396 2309 2217 2311 2476 2397 2312 2399
8 2398 2311 2219 2315 2478 2399 2314 2403
8 2399 2312 2218 2314 2479 2400 2313 2402
8 2317 2221 2316 2405 2402 2313 2401 2482
8 2403 2314 2222 2318 2483 2402 2317 2406
8 2320 2224 2319 2408 2405 2316 2404 2485
8 2321 2225 2320 2409 2406 2317 2405 2486
8 2323 2227 2322 2411 2408 2319 2407 2488
8 2324 2228 2323 2412 2409 2320 2408 2489
8 2326 2230 2325 2413 2411 2322 2410 2490
8 2327 2231 2326 2414 2412 2323 2411 2491
8 2329 2234 2328 2415 2414 2326 2413 2492
8 2417 2331 2260 2352 2494 2416 2353 2438
8 2350 2259 2352 2436 2419 2332 2417 2496
8 2332 2239 2331 2417 2420 2333 2418 2497
8 2334 2240 2332 2419 2422 2335 2420 2499
8 2420 2333 2421 2500 2335 2241 2336 2423
8 2422 2335 2423 2502 2337 2243 2338 2425
8 2423 2336 2424 2503 2338 2244 2339 2426
8 2425 2338 2426 2505 2342 2246 2341 2429
8 2426 2339 2427 2506 2341 2245 2340 2428
8 2429 2341 2428 2507 2344 2249 2343 2430
8 2432 2346 2284 2374 2509 2431 2373 2455
8 2432 2346 2431 2509 2364 2270 2363 2449
8 2375 2285 2374 2456 2433 2347 2432 2510
8 2347 2433 2365 2271 2432 2510 2450 2364
8 2350 2259 2351 2435 2436 2352 2437 2514
8 2440 2356 2437 2514 2355 2264 2351 2435
8 2352 2260 2354 2437 2438 2353 2439 2516
8 2356 2265 2358 2442 2437 2354 2439 2516
8 2440 2356 2264 2355 2518 2442 2357 2441
8 2519 2443 2357 2441 2447 2361 2268 2362
8 2443 2359 2444 2520 2357 2266 2358 2442
8 2443 2359 2267 2361 2520 2444 2360 2446
8 2446 2360 2279 2370 2523 2445 2369 2452
8 2453 2370 2446 2524 2371 2280 2361 2447
8 2449 2363 2448 2525 2368 2278 2369 2452
8 2366 2277 2364 2450 2451 2368 2449 2526
8 2372 2283 2368 2451 2453 2370 2452 2527
8 2455 2373 2295 2380 2529 2454 2382 2460
8 2456 2374 2292 2378 2530 2455 2380 2458
8 2377 2293 2379 2457 2458 2380 2459 2531
8 2463 2384 2459 2531 2383 2297 2379 2457
8 2533 2461 2382 2460 2459 2381 2295 2380
8 2464 2385 2461 2533 2384 2298 2381 2459
8 2466 2387 2464 2537 2386 2300 2384 2463
8 2467 2388 2465 2538 2387 2301 2385 2464
8 2469 2390 2467 2540 2389 2303 2387 2466
8 2470 2391 2468 2541 2390 2304 2388 2467
8 2472 2393 2470 2543 2392 2306 2390 2469
8 2393 2307 2394 2473 2470 2391 2471 2544
8 2395 2308 2396 2475 2472 2393 2473 2546
8 2396 2309 2397 2476 2473 2394 2474 2547
8 2475 2396 2311 2398 2549 2476 2399 2478
8 2476 2397 2312 2399 2550 2477 2400 2479
8 2478 2399 2314 2403 2552 2479 2402 2483
8 2479 2400 2313 2402 2553 2480 2401 2482
8 2405 2316 2404 2485 2482 2401 2481 2556
8 2406 2317 2405 2486 2483 2402 2482 2557
8 2408 2319 2407 2488 2485 2404 2484 2559
8 2409 2320 2408 2489 2486 2405 2485 2560
8 2411 2322 2410 2490 2488 2407 2487 2561
8 2412 2323 2411 2491 2489 2408 2488 2562
8 2414 2326 2413 2492 2491 2411 2490 2563
8 2513 2434 2493 2565 2438 2353 2416 2494
8 2496 2417 2352 2436 2567 2494 2438 2515
8 2494 2416 2495 2568 2417 2331 2418 2497
8 2419 2332 2417 2496 2499 2420 2497 2570
8 2497 2418 2498 2571 2420 2333 2421 2500
8 2499 2420 2500 2573 2422 2335 2423 2502
8 2500 2421 2501 2574 2423 2336 2424 2503
8 2502 2423 2503 2576 2425 2338 2426 2505
8 2503 2424 2504 2577 2426 2339 2427 2506
8 2505 2426 2506 2578 2429 2341 2428 2507
8 2509 2431 2373 2455 2580 2508 2454 2529
8 2509 2431 2508 2580 2449 2363 2448 2525
8 2432 2510 2581 2509 2374 2456 2530 2455
8 2432 2510 2450 2364 2509 2581 2526 2449
8 2583 2511 2434 2513 2516 2439 2353 2438
8 2436 2352 2437 2514 2515 2438 2516 2588
8 2440 2356 2442 2518 2514 2437 2516 2588
8 2442 2358 2444 2520 2516 2439 2517 2589
8 2519 2443 2520 2591 2441 2357 2442 2518
8 2519 2443 2361 2447 2591 2520 2446 2524
8 2446 2360 2445 2523 2520 2444 2521 2592
8 2525 2448 2522 2593 2452 2369 2445 2523
8 2524 2446 2370 2453 2594 2523 2452 2527
8 2526 2449 2525 2595 2451 2368 2452 2527
8 2534 2462 2528 2597 2460 2382 2454 2529
8 2530 2455 2380 2458 2598 2529 2460 2532
8 2599 2533 2460 2532 2531 2459 2380 2458
8 2537 2464 2533 2599 2463 2384 2459 2531
8 2534 2462 2382 2460 2601 2535 2461 2533
8 2538 2465 2535 2601 2464 2385 2461 2533
8 2540 2467 2538 2604 2466 2387 2464 2537
8 2541 2468 2539 2605 2467 2388 2465 2538
8 2543 2470 2541 2607 2469 2390 2467 2540
8 2470 2391 2471 2544 2541 2468 2542 2608
8 2472 2393 2473 2546 2543 2470 2544 2610
8 2473 2394 2474 2547 2544 2471 2545 2611
8 2475 2396 2476 2549 2546 2473 2547 2613
8 2476 2397 2477 2550 2547 2474 2548 2614
8 2549 2476 2399 2478 2616 2550 2479 2552
8 2479 2400 2480 2553 2550 2477 2551 2617
8 2552 2479 2402 2483 2619 2553 2482 2557
8 2482 2401 2481 2556 2553 2480 2554 2620
8 2485 2404 2484 2559 2556 2481 2555 2623
8 2486 2405 2485 2560 2557 2482 2556 2624
8 2488 2407 2487 2561 2559 2484 2558 2625
8 2489 2408 2488 2562 2560 2485 2559 2626
8 2491 2411 2490 2563 2562 2488 2561 2627
8 2513 2434 2512 2585 2565 2493 2564 2630
8 2586 2513 2565 2632 2515 2438 2494 2567
8 2565 2493 2566 2633 2494 2416 2495 2568
8 2567 2494 2568 2635 2496 2417 2497 2570
8 2568 2495 2569 2636 2497 2418 2498 2571
8 2570 2497 2571 2638 2499 2420 2500 2573
8 2571 2498 2572 2639 2500 2421 2501 2574
8 2573 2500 2574 2641 2502 2423 2503 2576
8 2574 2501 2575 2642 2503 2424 2504 2577
8 2576 2503 2577 2643 2505 2426 2506 2578
8 2597 2528 2579 2645 2529 2454 2508 2580
8 2580 2508 2579 2645 2525 2448 2522 2593
8 2581 2509 2455 2530 2646 2580 2529 2598
8 2581 2509 2580 2646 2526 2449 2525 2595
8 2583 2511 2582 2648 2513 2434 2512 2585
8 2583 2511 2439 2516 2648 2582 2517 2589
8 2649 2583 2513 2586 2588 2516 2438 2515
8 2589 2517 2444 2520 2653 2587 2521 2592
8 2518 2442 2520 2591 2588 2516 2589 2654
8 2593 2522 2590 2655 2523 2445 2521 2592
8 2524 2446 2523 2594 2591 2520 2592 2656
8 2595 2525 2593 2657 2527 2452 2523 2594
8 2602 2536 2596 2659 2534 2462 2528 2597
8 2600 2534 2597 2660 2532 2460 2529 2598
8 2600 2534 2460 2532 2661 2601 2533 2599
8 2604 2538 2601 2661 2537 2464 2533 2599
8 2602 2536 2462 2534 2663 2603 2535 2601
8 2601 2535 2465 2538 2663 2603 2539 2605
8 2607 2541 2605 2665 2540 2467 2538 2604
8 2608 2542 2606 2666 2541 2468 2539 2605
8 2543 2470 2544 2610 2607 2541 2608 2668
8 2544 2471 2545 2611 2608 2542 2609 2669
8 2546 2473 2547 2613 2610 2544 2611 2671
8 2547 2474 2548 2614 2611 2545 2612 2672
8 2549 2476 2550 2616 2613 2547 2614 2674
8 2550 2477 2551 2617 2614 2548 2615 2675
8 2552 2479 2553 2619 2616 2550 2617 2677
8 2553 2480 2554 2620 2617 2551 2618 2678
8 2557 2482 2556 2624 2619 2553 2620 2680
8 2556 2481 2555 2623 2620 2554 2621 2681
8 2559 2484 2558 2625 2623 2555 2622 2683
8 2560 2485 2559 2626 2624 2556 2623 2684
8 2562 2488 2561 2627 2626 2559 2625 2685
8 2690 2629 2564 2630 2650 2584 2512 2585
8 2586 2513 2585 2651 2632 2565 2630 2691
8 2630 2564 2631 2692 2565 2493 2566 2633
8 2632 2565 2633 2694 2567 2494 2568 2635
8 2633 2566 2634 2695 2568 2495 2569 2636
8 2635 2568 2636 2697 2570 2497 2571 2638
8 2636 2569 2637 2698 2571 2498 2572 2639
8 2638 2571 2639 2700 2573 2500 2574 2641
8 2639 2572 2640 2701 2574 2501 2575 2642
8 2641 2574 2642 2702 2576 2503 2577 2643
8 2597 2528 2596 2659 2645 2579 2644 2704
8 2645 2579 2644 2704 2593 2522 2590 2655
8 2660 2597 2645 2705 2598 2529 2580 2646
8 2646 2580 2645 2705 2595 2525 2593 2657
8 2650 2584 2512 2585 2707 2647 2582 2648
8 2648 2582 2517 2589 2707 2647 2587 2653
8 2649 2583 2648 2708 2586 2513 2585 2651
8 2649 2583 2516 2588 2708 2648 2589 2654
8 2655 2590 2652 2710 2592 2521 2587 2653
8 2654 2589 2520 2591 2711 2653 2592 2656
8 2657 2593 2655 2712 2594 2523 2592 2656
8 2602 2536 2603 2663 2659 2596 2658 2714
8 2662 2602 2659 2715 2600 2534 2597 2660
8 2662 2602 2534 2600 2717 2663 2601 2661
8 2661 2601 2538 2604 2717 2663 2605 2665
8 2666 2606 2664 2718 2605 2539 2603 2663
8 2668 2608 2666 2720 2607 2541 2605 2665
8 2608 2542 2609 2669 2666 2606 2667 2721
8 2610 2544 2611 2671 2668 2608 2669 2723
8 2611 2545 2612 2672 2669 2609 2670 2724
8 2613 2547 2614 2674 2671 2611 2672 2726
8 2614 2548 2615 2675 2672 2612 2673 2727
8 2616 2550 2617 2677 2674 2614 2675 2729
8 2617 2551 2618 2678 2675 2615 2676 2730
8 2619 2553 2620 2680 2677 2617 2678 2732
8 2620 2554 2621 2681 2678 2618 2679 2733
8 2624 2556 2623 2684 2680 2620 2681 2735
8 2681 2621 2555 2623 2736 2682 2622 2683
8 2626 2559 2625 2685 2684 2623 2683 2737
8 2688 2628 2584 2650 2740 2686 2647 2707
8 2688 2628 2687 2742 2650 2584 2629 2690
8 2690 2629 2689 2745 2630 2564 2631 2692
8 2746 2690 2630 2691 2709 2650 2585 2651
8 2691 2630 2692 2747 2632 2565 2633 2694
8 2692 2631 2693 2748 2633 2566 2634 2695
8 2694 2633 2695 2750 2635 2568 2636 2697
8 2695 2634 2696 2751 2636 2569 2637 2698
8 2697 2636 2698 2753 2638 2571 2639 2700
8 2698 2637 2699 2754 2639 2572 2640 2701
8 2700 2639 2701 2755 2641 2574 2642 2702
8 2659 2596 2658 2714 2704 2644 2703 2757
8 2704 2644 2703 2757 2655 2590 2652 2710
8 2660 2597 2659 2715 2705 2645 2704 2758
8 2705 2645 2704 2758 2657 2593 2655 2712
8 2759 2706 2647 2707 2710 2652 2587 2653
8 2709 2650 2585 2651 2760 2707 2648 2708
8 2708 2648 2589 2654 2760 2707 2653 2711
8 2712 2655 2710 2761 2656 2592 2653 2711
8 2763 2713 2658 2714 2718 2664 2603 2663
8 2662 2602 2663 2717 2715 2659 2714 2764
8 2720 2666 2718 2767 2665 2605 2663 2717
8 2768 2719 2664 2718 2721 2667 2606 2666
8 2668 2608 2669 2723 2720 2666 2721 2770
8 2669 2609 2670 2724 2721 2667 2722 2771
8 2671 2611 2672 2726 2723 2669 2724 2773
8 2672 2612 2673 2727 2724 2670 2725 2774
8 2674 2614 2675 2729 2726 2672 2727 2776
8 2675 2615 2676 2730 2727 2673 2728 2777
8 2677 2617 2678 2732 2729 2675 2730 2779
8 2678 2618 2679 2733 2730 2676 2731 2780
8 2680 2620 2681 2735 2732 2678 2733 2782
8 2733 2679 2621 2681 2783 2734 2682 2736
8 2735 2681 2623 2684 2784 2736 2683 2737
8 2740 2686 2647 2707 2787 2738 2706 2759
8 2688 2628 2686 2740 2742 2687 2739 2789
8 2743 2688 2650 2709 2790 2740 2707 2760
8 2742 2687 2741 2792 2690 2629 2689 2745
8 2743 2688 2742 2793 2709 2650 2690 2746
8 2745 2689 2744 2795 2692 2631 2693 2748
8 2746 2690 2745 2796 2691 2630 2692 2747
8 2747 2692 2748 2797 2694 2633 2695 2750
8 2748 2693 2749 2798 2695 2634 2696 2751
8 2750 2695 2751 2800 2697 2636 2698 2753
8 2751 2696 2752 2801 2698 2637 2699 2754
8 2753 2698 2754 2802 2700 2639 2701 2755
8 2763 2713 2756 2804 2714 2658 2703 2757
8 2759 2706 2652 2710 2804 2756 2703 2757
8 2715 2659 2714 2764 2758 2704 2757 2805
8 2758 2704 2757 2805 2712 2655 2710 2761
8 2806 2759 2707 2760 2761 2710 2653 2711
8 2765 2716 2762 2808 2718 2664 2713 2763
8 2809 2763 2714 2764 2767 2718 2663 2717
8 2765 2716 2664 2718 2811 2766 2719 2768
8 2813 2768 2718 2767 2770 2721 2666 2720
8 2814 2769 2719 2768 2771 2722 2667 2721
8 2723 2669 2724 2773 2770 2721 2771 2816
8 2724 2670 2725 2774 2771 2722 2772 2817
8 2726 2672 2727 2776 2773 2724 2774 2819
8 2727 2673 2728 2777 2774 2725 2775 2820
8 2729 2675 2730 2779 2776 2727 2777 2822
8 2730 2676 2731 2780 2777 2728 2778 2823
8 2732 2678 2733 2782 2779 2730 2780 2825
8 2780 2731 2679 2733 2826 2781 2734 2783
8 2782 2733 2681 2735 2827 2783 2736 2784
8 2830 2785 2738 2787 2804 2756 2706 2759
8 2789 2739 2686 2740 2832 2786 2738 2787
8 2790 2740 2707 2760 2833 2787 2759 2806
8 2742 2687 2739 2789 2792 2741 2788 2835
8 2743 2688 2740 2790 2793 2742 2789 2836
8 2792 2741 2791 2838 2745 2689 2744 2795
8 2793 2742 2792 2839 2746 2690 2745 2796
8 2795 2744 2794 2841 2748 2693 2749 2798
8 2796 2745 2795 2842 2747 2692 2748 2797
8 2797 2748 2798 2843 2750 2695 2751 2800
8 2798 2749 2799 2844 2751 2696 2752 2801
8 2800 2751 2801 2845 2753 2698 2754 2802
8 2808 2762 2803 2847 2763 2713 2756 2804
8 2809 2763 2804 2848 2764 2714 2757 2805
8 2806 2759 2710 2761 2848 2804 2757 2805
8 2765 2716 2766 2811 2808 2762 2807 2850
8 2810 2765 2808 2851 2767 2718 2763 2809
8 2810 2765 2718 2767 2852 2811 2768 2813
8 2811 2766 2719 2768 2853 2812 2769 2814
8 2855 2814 2768 2813 2816 2771 2721 2770
8 2856 2815 2769 2814 2817 2772 2722 2771
8 2773 2724 2774 2819 2816 2771 2817 2858
8 2774 2725 2775 2820 2817 2772 2818 2859
8 2776 2727 2777 2822 2819 2774 2820 2861
8 2777 2728 2778 2823 2820 2775 2821 2862
8 2779 2730 2780 2825 2822 2777 2823 2864
8 2823 2778 2731 2780 2865 2824 2781 2826
8 2825 2780 2733 2782 2866 2826 2783 2827
8 2869 2828 2785 2830 2847 2803 2756 2804
8 2871 2829 2786 2832 2830 2785 2738 2787
8 2872 2830 2787 2833 2848 2804 2759 2806
8 2789 2739 2786 2832 2835 2788 2831 2874
8 2836 2789 2740 2790 2875 2832 2787 2833
8 2792 2741 2788 2835 2838 2791 2834 2877
8 2793 2742 2789 2836 2839 2792 2835 2878
8 2838 2791 2837 2880 2795 2744 2794 2841
8 2839 2792 2838 2881 2796 2745 2795 2842
8 2841 2794 2840 2882 2798 2749 2799 2844
8 2842 2795 2841 2883 2797 2748 2798 2843
8 2843 2798 2844 2884 2800 2751 2801 2845
8 2886 2846 2803 2847 2850 2807 2762 2808
8 2851 2808 2847 2887 2809 2763 2804 2848
8 2850 2807 2766 2811 2889 2849 2812 2853
8 2810 2765 2811 2852 2851 2808 2850 2890
8 2852 2811 2768 2813 2891 2853 2814 2855
8 2853 2812 2769 2814 2892 2854 2815 2856
8 2894 2856 2814 2855 2858 2817 2771 2816
8 2817 2772 2818 2859 2856 2815 2857 2895
8 2819 2774 2820 2861 2858 2817 2859 2897
8 2820 2775 2821 2862 2859 2818 2860 2898
8 2822 2777 2823 2864 2861 2820 2862 2900
8 2823 2778 2824 2865 2862 2821 2863 2901
8 2864 2823 2780 2825 2902 2865 2826 2866
8 2904 2867 2828 2869 2886 2846 2803 2847
8 2869 2828 2868 2906 2830 2785 2829 2871
8 2907 2869 2830 2872 2887 2847 2804 2848
8 2871 2829 2870 2909 2832 2786 2831 2874
8 2910 2871 2832 2875 2872 2830 2787 2833
8 2835 2788 2831 2874 2877 2834 2873 2912
8 2836 2789 2832 2875 2878 2835 2874 2913
8 2877 2834 2876 2915 2838 2791 2837 2880
8 2839 2792 2835 2878 2881 2838 2877 2916
8 2880 2837 2879 2917 2841 2794 2840 2882
8 2881 2838 2880 2918 2842 2795 2841 2883
8 2883 2841 2882 2919 2843 2798 2844 2884
8 2921 2885 2846 2886 2889 2849 2807 2850
8 2922 2886 2847 2887 2890 2850 2808 2851
8 2889 2849 2812 2853 2924 2888 2854 2892
8 2890 2850 2811 2852 2925 2889 2853 2891
8 2891 2853 2814 2855 2926 2892 2856 2894
8 2892 2854 2815 2856 2927 2893 2857 2895
8 2858 2817 2859 2897 2894 2856 2895 2929
8 2859 2818 2860 2898 2895 2857 2896 2930
8 2861 2820 2862 2900 2897 2859 2898 2932
8 2862 2821 2863 2901 2898 2860 2899 2933
8 2864 2823 2865 2902 2900 2862 2901 2934
8 2904 2867 2846 2886 2936 2903 2885 2921
8 2904 2867 2903 2936 2869 2828 2868 2906
8 2937 2904 2869 2907 2922 2886 2847 2887
8 2906 2868 2905 2939 2871 2829 2870 2909
8 2907 2869 2906 2940 2872 2830 2871 2910
8 2909 2870 2908 2942 2874 2831 2873 2912
8 2910 2871 2909 2943 2875 2832 2874 2913
8 2912 2873 2911 2945 2877 2834 2876 2915
8 2878 2835 2874 2913 2916 2877 2912 2946
8 2915 2876 2914 2947 2880 2837 2879 2917
8 2916 2877 2915 2948 2881 2838 2880 2918
8 2918 2880 2917 2949 2883 2841 2882 2919
8 2921 2885 2849 2889 2951 2920 2888 2924
8 2952 2921 2886 2922 2925 2889 2850 2890
8 2924 2888 2854 2892 2954 2923 2893 2927
8 2925 2889 2853 2891 2955 2924 2892 2926
8 2926 2892 2856 2894 2956 2927 2895 2929
8 2895 2857 2896 2930 2927 2893 2928 2957
8 2897 2859 2898 2932 2929 2895 2930 2959
8 2898 2860 2899 2933 2930 2896 2931 2960
8 2900 2862 2901 2934 2932 2898 2933 2961
8 2936 2903 2885 2921 2963 2935 2920 2951
8 2936 2903 2935 2963 2906 2868 2905 2939
8 2937 2904 2886 2922 2964 2936 2921 2952
8 2937 2904 2936 2964 2907 2869 2906 2940
8 2939 2905 2938 2966 2909 2870 2908 2942
8 2940 2906 2939 2967 2910 2871 2909 2943
8 2942 2908 2941 2969 2912 2873 2911 2945
8 2943 2909 2942 2970 2913 2874 2912 2946
8 2945 2911 2944 2971 2915 2876 2914 2947
8 2946 2912 2945 2972 2916 2877 2915 2948
8 2948 2915 2947 2973 2918 2880 2917 2949
8 2951 2920 2888 2924 2975 2950 2923 2954
8 2952 2921 2889 2925 2976 2951 2924 2955
8 2927 2893 2928 2957 2954 2923 2953 2978
8 2955 2924 2892 2926 2979 2954 2927 2956
8 2929 2895 2930 2959 2956 2927 2957 2980
8 2930 2896 2931 2960 2957 2928 2958 2981
8 2932 2898 2933 2961 2959 2930 2960 2982
8 2951 2920 2950 2975 2963 2935 2962 2984
8 2963 2935 2962 2984 2939 2905 2938 2966
8 2964 2936 2921 2952 2985 2963 2951 2976
8 2964 2936 2963 2985 2940 2906 2939 2967
8 2966 2938 2965 2987 2942 2908 2941 2969
8 2967 2939 2966 2988 2943 2909 2942 2970
8 2969 2941 2968 2989 2945 2911 2944 2971
8 2970 2942 2969 2990 2946 2912 2945 2972
8 2972 2945 2971 2991 2948 2915 2947 2973
8 2954 2923 2953 2978 2975 2950 2974 2993
8 2976 2951 2924 2955 2994 2975 2954 2979
8 2957 2928 2958 2981 2978 2953 2977 2995
8 2956 2927 2957 2980 2979 2954 2978 2996
8 2959 2930 2960 2982 2980 2957 2981 2997
8 2984 2962 2983 2999 2966 2938 2965 2987
8 2975 2950 2974 2993 2984 2962 2983 2999
8 2976 2951 2975 2994 2985 2963 2984 3000
8 2985 2963 2984 3000 2967 2939 2966 2988
8 2987 2965 2986 3001 2969 2941 2968 2989
8 2988 2966 2987 3002 2970 2942 2969 2990
8 2990 2969 2989 3003 2972 2945 2971 2991
8 2978 2953 2977 2995 2993 2974 2992 3004
8 2979 2954 2978 2996 2994 2975 2993 3005
8 2980 2957 2981 2997 2996 2978 2995 3006
8 2974 2993 2999 2983 2992 3004 3007 2998
8 2983 2999 2987 2965 2998 3007 3001 2986
8 3000 2984 2999 3008 2988 2966 2987 3002
8 2994 2975 2993 3005 3000 2984 2999 3008
8 3002 2987 3001 3009 2990 2969 2989 3003
8 2996 2978 2995 3006 3005 2993 3004 3010
8 3005 2993 3004 3010 3008 2999 3007 3011
8 3008 2999 3007 3011 3002 2987 3001 3009

CELL_TYPES 1910
12
12
12
12
12
12
12
12
12
12
12
12
12
12
12
12
12
12
12
12
12
12
12
12
12
12
12
12
12
12
12
12
12
12
12
12
12
12
12
12
12
12
12
12
12
12
12
12
12
12
12
12
12
12
12
12
12
12
12
12
12
12
12
12
12
12
12
12
12
12
12
12
12
12
12
12
12
12
12
12
12
12
12
12
12
12
12
12
12
12
12
12
12
12
12
12
12
12
12
12
12
12
12
12
12
12
12
12
12
12
12
12
12
12
12
12
12
12
12
12
12
12
12
12
12
12
12
12
12
12
12
12
12
12
12
12
12
12
12
12
12
12
12
12
12
12
12
12
12
12
12
12
12
12
12
12
12
12
12
12
12
12
12
12
12
12
12
12
12
12
12
12
12
12
12
12
12
12
12
12
12
12
12
12
12
12
12
12
12
12
12
12
12
12
12
12
12
12
12
12
12
12
12
12
12
12
12
12
12
12
12
12
12
12
12
12
12
12
12
12
12
12
12
12
12
12
12
12
12
12
12
12
12
12
12
12
12
12
12
12
12
12
12
12
12
12
12
12
12
12
12
12
12
12
12
12
12
12
12
12
12
12
12
12
12
12
12
12
12
12
12
12
12
12
12
12
12
12
12
12
12
12
12
12
12
12
12
12
12
12
12
12
12
12
12
12
12
12
12
12
12
12
12
12
12
12
12
12
12
12
12
12
12
12
12
12
12
12
12
12
12
12
12
12
12
12
12
12
12
12
12
12
12
12
12
12
12
12
12
12
12
12
12
12
12
12
12
12
12
12
12
12
12
12
12
12
12
12
12
12
12
12
12
12
12
12
12
12
12
12
12
12
12
12
12
12
12
12
12
12
12
12
12
12
12
12
12
12
12
12
12
12
12
12
12
12
12
12
12
12
12
12
12
12
12
12
12
12
12
12
12
12
12
12
12
12
12
12
12
12
12
12
12
12
12
12
12
12
12
12
12
12
12
12
12
12
12
12
12
12
12
12
12
12
12
12
12
12
12
12
12
12
12
12
12
12
12
12
12
12
12
12
12
12
12
12
12
12
12
12
12
12
12
12
12
12
12
12
12
12
12
12
12
12
12
12
12
12
12
12
12
12
12
12
12
12
12
12
12
12
12
12
12
12
12
12
12
12
12
12
12
12
12
12
12
12
12
12
12
12
12
12
12
12
12
12
12
12
12
12
12
12
12
12
12
12
12
12
12
12
12
12
12
12
12
12
12
12
12
12
12
12
12
12
12
12
12
12
12
12
12
12
12
12
12
12
12
12
12
12
12
12
12
12
12
12
12
12
12
12
12
12
12
12
12
12
12
12
12
12
12
12
12
12
12
12
12
12
12
12
12
12
12
12
12
12
12
12
12
12
12
12
12
12
12
12
12
12
12
12
12
12
12
12
12
12
12
12
12
12
12
12
12
12
12
12
12
12
12
12
12
12
12
12
12
12
12
12
12
12
12
12
12
12
12
12
12
12
12
12
12
12
12
12
12
12
12
12
12
12
12
12
12
12
12
12
12
12
12
12
12
12
12
12
12
12
12
12
12
12
12
12
12
12
12
12
12
12
12
12
12
12
12
12
12
12
12
12
12
12
12
12
12
12
12
12
12
12
12
12
12
12
12
12
12
12
12
12
12
12
12
12
12
12
12
12
12
12
12
12
12
12
12
12
12
12
12
12
12
12
12
12
12
12
12
12
12
12
12
12
12
12
12
12
12
12
12
12
12
12
12
12
12
12
12
12
12
12
12
12
12
12
12
12
12
12
12
12
12
12
12
12
12
12
12
12
12
12
12
12
12
12
12
12
12
12
12
12
12
12
12
12
12
12
12
12
12
12
12
12
12
12
12
12
12
12
12
12
12
12
12
12
12
12
12
12
12
12
12
12
12
12
12
12
12
12
12
12
12
12
12
12
12
12
12
12
12
12
12
12
12
12
12
12
12
12
12
12
12
12
12
12
12
12
12
12
12
12
12
12
12
12
12
12
12
12
12
12
12
12
12
12
12
12
12
12
12
12
12
12
12
12
12
12
12
12
12
12
12
12
12
12
12
12
12
12
12
12
12
12
12
12
12
12
12
12
12
12
12
12
12
12
12
12
12
12
12
12
12
12
12
12
12
12
12
12
12
12
12
12
12
12
12
12
12
12
12
12
12
12
12
12
12
12
12
12
12
12
12
12
12
12
12
12
12
12
12
12
12
12
12
12
12
12
12
12
12
12
12
12
12
12
12
12
12
12
12
12
12
12
12
12
12
12
12
12
12
12
12
12
12
12
12
12
12
12
12
12
12
12
12
12
12
12
12
12
12
12
12
12
12
12
12
12
12
12
12
12
12
12
12
12
12
12
12
12
12
12
12
12
12
12
12
12
12
12
12
12
12
12
12
12
12
12
12
12
12
12
12
12
12
12
12
12
12
12
12
12
12
12
12
12
12
12
12
12
12
12
12
12
12
12
12
12
12
12
12
12
12
12
12
12
12
12
12
12
12
12
12
12
12
12
12
12
12
12
12
12
12
12
12
12
12
12
12
12
12
12
12
12
12
12
12
12
12
12
12
12
12
12
12
12
12
12
12
12
12
12
12
12
12
12
12
12
12
12
12
12
12
12
12
12
12
12
12
12
12
12
12
12
12
12
12
12
12
12
12
12
12
12
12
12
12
12
12
12
12
12
12
12
12
12
12
12
12
12
12
12
12
12
12
12
12
12
12
12
12
12
12
12
12
12
12
12
12
12
12
12
12
12
12
12
12
12
12
12
12
12
12
12
12
12
12
12
12
12
12
12
12
12
12
12
12
12
12
12
12
12
12
12
12
12
12
12
12
12
12
12
12
12
12
12
12
12
12
12
12
12
12
12
12
12
12
12
12
12
12
12
12
12
12
12
12
12
12
12
12
12
12
12
12
12
12
12
12
12
12
12
12
12
12
12
12
12
12
12
12
12
12
12
12
12
12
12
12
12
12
12
12
12
12
12
12
12
12
12
12
12
12
12
12
12
12
12
12
12
12
12
12
12
12
12
12
12
12
12
12
12
12
12
12
12
12
12
12
12
12
12
12
12
12
12
12
12
12
12
12
12
12
12
12
12
12
12
12
12
12
12
12
12
12
12
12
12
12
12
12
12
12
12
12
12
12
12
12
12
12
12
12
12
12
12
12
12
12
12
12
12
12
12
12
12
12
12
12
12
12
12
12
12
12
12
12
12
12
12
12
12
12
12
12
12
12
12
12
12
12
12
12
12
12
12
12
12
12
12
12
12
12
12
12
12
12
12
12
12
12
12
12
12
12
12
12
12
12
12
12
12
12
12
12
12
12
12
12
12
12
12
12
12
12
12
12
12
12
12
12
12
12
12
12
12
12
12
12
12
12
12
12
12
12
12
12
12
12
12
12
12
12
12
12
12
12
12
12
12
12
12
12
12
12
12
12
12
12
12
12
12
12
12
12
12
12
12
12
12
12
12
12
12
12
12
12
12
12
12
12
12
12
12
12
12
12
12
12
12
12
12
12
12
12
12
12
12
12
12
12
12
12
12
12
12
12
12
12
12
12
12
12
12
12
12
12
12
12
12
12
12
12
12
12
12
12
12
12
12
12
12
12
12
12
12
12
12
12
12
12
12
12
12
12
12
12
12
12
12
12
12
12
12
12
12
12
12
12
12
12
12
12
12
12
12
12
12
12
12
12
12
12
12
12
12
12
12
12
12
12
12
12
12
12
12
12
12
12
12
12
12
12
12
12
12
12
12
12
12
12
12
12
12
12
12
12
12
12
12
12
12
12
12
12
12
12
12
12
12
12
12
12
12
12
12
12
12
12
12
12
12
12
12
12
12
12
12
12
12
12
12
12
12
12
12
12
12
12
12
12
12
12
12
12
12
12
12
12
12
12
12
12
12
12
12
12
12
12
12
12
12
12
12
12
12
12
12
12
12
12
12
12
12
12
12
12
12
12
12
12
12
12
12
12
12
12
12
12
12
12
12
12
12
12
12
12
12
12
12
12
12
12
12
12
12
12
12
12
12
12
12
12
12
12
12
12
12
12
12
12
12
12
12
12
12
12
12
12
12
12
12
12
12
12
12
12
12
12
12
12
12
12
12
12
12
12
12
12
12
12
12
12
12
12
12
12
12
12
12
12
12
12
12
12
12
12
12
12
12
12
12
12
12
12
12
12
12
12
12
12
12
12
12
12
12
12
12
12
12
12
12
12
12
12
12
12
12
12
12
12
12
12
12
12
12
12
12
12
12
12
12
12
12
12
12
12
12
12
12
12
12
12
12
12
12
12
12
12
12
12
12
12
12

POINT_DATA 3012
SCALARS Jp_lamdaP float 4
LOOKUP_TABLE default
0.999828 1 1 0.999828
1 1 1 1
0.999833 1 1 0.999833
0.999782 1 1 0.999782
0.999828 1 1 0.999828
0.99982 1 1 0.99982
0.999245 1 1 0.999245
1 1 1 1
1 1 1 1
1 1 1 1
0.999901 1 1 0.999901
0.999397 1 1 0.999397
0.999749 1 1 0.999749
0.999775 1 1 0.999775
0.999833 1 1 0.999833
0.9998 1 1 0.9998
0.999825 1 1 0.999825
0.999837 1 1 0.999837
0.999248 1 1 0.999248
1 1 1 1
0.999762 1 1 0.999762
0.999809 1 1 0.999809
0.999115 1 1 0.999115
0.999216 1 1 0.999216
0.999838 1 1 0.999838
0.999275 1 1 0.999275
1.00012 1.00179 1 0.998329
1 1 1 1
0.999903 1 1 0.999903
0.999916 1 1 0.999916
1 1 1 1
0.999406 1 1 0.999406
0.9998 1 1 0.9998
0.999823 1 1 0.999823
0.999341 1 1 0.999341
1 1 1 1
0.999429 1 1 0.999429
0.999496 1 1 0.999496
0.998424 1.00006 1 0.998359
1 1 1 1
1 1 1 1
0.999886 1 1 0.999886
1 1 1 1
0.999769 1 1 0.999769
0.999043 1 1 0.999043
1 1 1 1
0.999244 1 1 0.999244
0.999814 1 1 0.999814
0.999844 1 1 0.999844
0.999826 1 1 0.999826
0.999253 1 1 0.999253
0.99987 1 1 0.99987
0.999779 1 1 0.999779
0.999848 1 1 0.999848
0.999824 1 1 0.999824
0.999115 1 1 0.999115
0.999279 1 1 0.999279
0.999218 1 1 0.999218
1.00043 1.00212 1 0.998314
1 1 1 1
0.999752 1 1 0.999752
0.999227 1 1 0.999227
0.999079 1 1 0.999079
0.999167 1 1 0.999167
1.00262 1.0046 1 0.998033
1.0011 1.00294 1 0.998164
0.999896 1 1 0.999896
0.999389 1 1 0.999389
0.999087 1.00066 1 0.998432
1.00905 1.01152 1 0.99755
1 1 1 1
1 1 1 1
1 1 1 1
0.999414 1 1 0.999414
1 1 1 1
1 1 1 1
0.999246 1 1 0.999246
0.999974 1 1 0.999974
0.999353 1 1 0.999353
0.999561 1 1 0.999561
0.998377 1.00002 1 0.998356
1 1 1 1
0.999929 1 1 0.999929
0.999183 1 1 0.999183
0.999282 1 1 0.999282
1.00251 1.00458 1 0.997934
0.999725 1 1 0.999725
0.999147 1.00089 1 0.998257
0.998496 1 1 0.998496
0.998986 1.00122 1 0.997771
1 1 1 1
1 1 1 1
1 1 1 1
1 1 1 1
1 1 1 1
0.999881 1 1 0.999881
0.99913 1 1 0.99913
0.999891 1 1 0.999891
0.999192 1 1 0.999192
1 1 1 1
0.999034 1 1 0.999034
0.99922 1 1 0.99922
1.0022 1.00456 1 0.997654
0.999281 1 1 0.999281
1.0039 1.00618 1 0.997734
0.999768 1 1 0.999768
0.999794 1 1 0.999794
0.999858 1 1 0.999858
0.999836 1 1 0.999836
0.999116 1 1 0.999116
0.999223 1 1 0.999223
0.999285 1 1 0.999285
1.00074 1.00244 1 0.9983
1 1 1 1
0.999768 1 1 0.999768
0.999059 1 1 0.999059
0.999077 1 1 0.999077
0.999948 1 1 0.999948
0.999447 1 1 0.999447
0.999169 1 1 0.999169
1.0026 1.00462 1 0.997992
0.999387 1.00098 1 0.998414
1.00132 1.00314 1 0.998193
1.00907 1.01154 1 0.997554
0.999056 1 1 0.999056
0.999058 1 1 0.999058
1.00185 1.00402 1 0.997832
1.00264 1.00474 1 0.997917
1.00238 1.00434 1 0.998048
1.01639 1.01907 1 0.997364
1 1 1 1
1.01137 1.01392 1 0.997485
0.999617 1 1 0.999617
0.998527 1.00007 1 0.998457
1.00675 1.00916 1 0.997614
1.01964 1.02239 1 0.997318
0.999821 1 1 0.999821
1.00028 1 1.00123 0.999054
1 1 1 1
1 1 1 1
0.999252 1 1 0.999252
1 1 1 1
0.999553 1 1 0.999553
0.999358 1 1 0.999358
0.998353 1 1 0.998353
1 1 1 1
0.999945 1 1 0.999945
0.999249 1 1 0.999249
0.999344 1 1 0.999344
1.002 1.00407 1 0.997937
0.99973 1 1 0.99973
0.998839 1.00058 1 0.998261
0.998495 1 1 0.998495
0.998815 1.00106 1 0.997754
0.999841 1 1 0.999841
0.99998 1 1 0.99998
0.999759 1 1.0005 0.999261
1.00368 1.00587 1 0.997824
1.00079 1.00269 1 0.998098
1.01255 1.01525 1 0.997347
0.998728 1 1 0.998728
1.0034 1.00575 1 0.997667
0.999146 1.00072 1.00057 0.997861
1.0039 1.00633 1 0.997585
1 1 1 1
1 1 1 1
1 1 1 1
0.999891 1 1 0.999891
1 1 1 1
1 1 1 1
1 1 1 1
0.999136 1 1 0.999136
0.99907 1 1 0.99907
1 1 1 1
1 1 1 1
0.999035 1 1 0.999035
0.999166 1 1 0.999166
1.0025 1.00486 1 0.997655
0.999164 1 1 0.999164
1.00398 1.00626 1 0.997733
0.999027 1 1 0.999027
1.00146 1.00386 1 0.997608
1.00314 1.00545 1 0.997704
1.01963 1.02251 1 0.997179
1.00407 1.00632 1 0.997764
1.02025 1.02308 1 0.997239
1 1 1 1
0.999784 1 1 0.999784
0.998877 1 1 0.998877
0.999076 1 1 0.999076
1 1 1 1
0.999506 1 1 0.999506
0.999172 1 1 0.999172
1.00257 1.00462 1 0.997951
1.00156 1.00334 1 0.998223
0.999654 1.00126 1 0.998395
1.00908 1.01155 1 0.997559
0.999053 1 1 0.999053
0.999056 1 1 0.999056
1.0017 1.00398 1 0.997733
1.00266 1.00473 1 0.997945
1 1 1 1
0.999621 1 1 0.999621
0.99872 1.00021 1 0.998513
1.00233 1.00429 1 0.998046
1.01626 1.01898 1 0.997328
1.00648 1.0089 1 0.997603
1.01159 1.01411 1 0.997517
1.01921 1.02195 1 0.997325
0.999837 1 1.00003 0.999811
1.00032 1 1.00127 0.999055
1.00107 1.00345 1 0.997629
1.00232 1.00445 1 0.997879
1.01767 1.02046 1 0.997274
1.01669 1.01948 1 0.997258
1.01379 1.01638 1 0.997456
1.02768 1.03049 1 0.99727
0.99973 1 1 0.99973
1.02146 1.0242 1 0.997321
0.998731 1 1.00011 0.998625
1.0016 1.00388 1 0.997735
1.01738 1.02008 1 0.997347
1.02209 1.0248 1 0.997359
1.00005 1 1.00116 0.998891
0.999478 1 1.00022 0.99926
1.00113 1 1.00265 0.998482
0.999204 1 1 0.999204
1 1 1 1
0.999962 1 1 0.999962
0.99931 1 1 0.99931
1.00149 1.00356 1 0.997939
0.999738 1 1 0.999738
0.998534 1 1.00004 0.998494
0.998525 1.00026 1 0.998264
0.998631 1.0009 1 0.997737
0.999861 1 1 0.999861
0.999986 1 1 0.999986
0.999886 1 1.00062 0.999263
1.00338 1.00557 1 0.997824
1.00023 1.00213 1 0.998102
1.01253 1.01523 1 0.997344
0.998756 1 1.00002 0.998731
1.00315 1.00549 1 0.997677
0.998985 1.00066 1.00047 0.997857
1.00415 1.00659 1 0.99757
0.999997 1 1 0.999997
0.999254 1 1.00027 0.998982
0.99991 1 1.00038 0.99953
1.00012 1 1.00143 0.998684
1.01624 1.01902 1 0.997268
1.00834 1.01085 1 0.99751
1.02179 1.02469 1 0.997172
0.9988 1.00019 1.00048 0.998132
1.01005 1.01259 1 0.997491
1.00547 1.00636 1.00158 0.997536
1.01356 1.01616 1 0.997438
0.999832 1 1 0.999832
1 1 1 1
1 1 1 1
1 1 1 1
1 1 1 1
0.999943 1 1 0.999943
1 1 1 1
0.999879 1 1 0.999879
1 1 1 1
0.999165 1 1 0.999165
0.999107 1 1 0.999107
1.00413 1.00641 1 0.997733
1.00278 1.00513 1 0.997655
0.999037 1 1 0.999037
1 1 1 1
0.999026 1 1 0.999026
1.00164 1.00404 1 0.997608
1.00341 1.00572 1 0.997703
1.01931 1.0222 1 0.997178
1.00405 1.0063 1 0.997763
1.02022 1.02305 1 0.997237
1.001 1.00341 1 0.997601
1.01861 1.02153 1 0.997137
1.02031 1.02316 1 0.997217
1.03331 1.03616 1 0.997246
1.01934 1.02215 1 0.997247
1.03165 1.0345 1 0.997244
0.999051 1 1 0.999051
0.999054 1 1 0.999054
1.00156 1.00394 1 0.997635
1.00269 1.00472 1 0.997974
1 1 1 1
0.999623 1 1 0.999623
0.998938 1.00037 1 0.998569
1.00228 1.00424 1 0.998045
1.01614 1.0189 1 0.997292
1.01178 1.01427 1 0.997549
1.00621 1.00864 1 0.997591
1.01889 1.02162 1 0.997332
0.999801 1 1 0.999801
1.00024 1 1.00118 0.999057
1.00103 1.00343 1 0.997604
1.00229 1.00442 1 0.997876
1.01786 1.02064 1 0.997275
1.01682 1.01959 1 0.997292
0.99972 1 1 0.99972
0.998664 1 1.00004 0.998623
1.00232 1.00456 1 0.997771
1.01404 1.01663 1 0.997451
1.02791 1.0307 1 0.997286
1.01671 1.01945 1 0.997314
1.02135 1.02409 1 0.997324
1.02249 1.0252 1 0.997358
0.999641 1 1.00075 0.998894
1.00106 1 1.00258 0.998484
0.999813 1 1.00056 0.999258
1.01761 1.02044 1 0.997223
1.01794 1.02069 1 0.997301
1.03195 1.03482 1 0.997228
1.02931 1.03216 1 0.997238
1.02359 1.02634 1 0.99732
1.02848 1.0311 1 0.997462
0.998922 1 1.00014 0.998778
1.02411 1.02676 1 0.997412
0.998775 1.00072 1 0.998053
1.00856 1.01126 1 0.997327
1.01959 1.02245 1 0.997199
1.02033 1.02286 1 0.997529
0.999442 1 1 0.999442
0.998729 1 1.00029 0.998442
1.00196 1 1.00338 0.998582
0.999801 1 1.0015 0.998301
1.00309 1.00528 1 0.997823
0.999993 1 1 0.999993
0.999881 1 1 0.999881
0.999745 1 1.00048 0.999266
0.99964 1.00154 1 0.998107
1.01249 1.01519 1 0.997341
0.998841 1 1.00011 0.998735
0.998747 1.00057 1.00033 0.997852
1.00292 1.00525 1 0.997688
1.00422 1.00669 1 0.997555
0.999998 1 1 0.999998
0.999356 1 1.00037 0.998982
0.999706 1 1.00017 0.999538
1.00042 1 1.00175 0.998679
1.0161 1.01889 1 0.997264
1.00785 1.01036 1 0.997511
1.0217 1.0246 1 0.997169
0.998666 1.00008 1.00045 0.998138
1.01026 1.01279 1 0.997504
1.00517 1.00593 1.00173 0.997525
1.01373 1.01627 1 0.997506
1 1 1 1
0.999697 1 1 0.999697
0.998965 1 1.00053 0.998439
1.00011 1 1.00117 0.998942
0.999925 1 1.00153 0.998398
1.02523 1.02815 1 0.997159
1.01614 1.01888 1 0.997311
1.02045 1.02331 1 0.997207
1.00237 1.00262 1.00199 0.997761
1.01287 1.01548 1 0.99743
1.009 1.01091 1.00086 0.997253
0.999813 1 1 0.999813
0.999413 1 1 0.999413
0.999846 1 1 0.999846
0.999835 1 1 0.999835
1 1 1 1
1 1 1 1
1 1 1 1
1 1 1 1
1 1 1 1
0.999978 1 1 0.999978
1 1 1 1
0.99993 1 1 0.99993
1 1 1 1
0.999919 1 1.00005 0.999867
1 1 1 1
1.00399 1.00624 1 0.997762
1.00362 1.00593 1 0.997703
1.02001 1.02284 1 0.997236
1.01898 1.02186 1 0.997176
1.00188 1.00428 1 0.997608
0.999026 1 1 0.999026
1.00114 1.00354 1 0.9976
1.0185 1.02143 1 0.997137
1.01991 1.02276 1 0.997216
1.03338 1.03629 0.999924 0.997261
1.01888 1.0217 1 0.997244
1.03124 1.03409 1 0.997242
1.01806 1.021 1 0.997127
1.03265 1.03567 0.999827 0.997248
1.03314 1.03599 1 0.997252
1.03516 1.03846 0.999389 0.997438
1.02794 1.03082 1 0.997207
1.03221 1.0348 0.999993 0.997501
1.00102 1.00345 1 0.997578
1.00225 1.00439 1 0.997873
1.01805 1.02083 1 0.997276
1.01695 1.01968 1 0.997326
0.999709 1 1 0.999709
0.99862 1 1 0.99862
1.00302 1.00522 1 0.997806
1.01431 1.0169 1 0.997447
1.02817 1.03095 1 0.997302
1.02124 1.02398 1 0.997328
1.01596 1.01873 1 0.997281
1.02287 1.02558 1 0.997358
0.999402 1 1.00051 0.998896
1.00103 1 1.00255 0.998486
1.00007 1 1.00082 0.999255
1.01774 1.02061 1 0.997188
1.01808 1.02083 1 0.997299
1.03154 1.03439 1 0.997248
1.02951 1.03237 1 0.997237
0.998912 1 1.00014 0.998776
0.999606 1.00156 1 0.998046
1.0077 1.01032 1.00003 0.997378
1.02376 1.02652 1 0.997314
1.02822 1.03079 1 0.997502
1.01971 1.02261 1 0.997165
1.02408 1.02673 1 0.997415
1.02013 1.02263 1 0.997556
0.998897 1 1.00045 0.998444
0.999808 1 1.00153 0.998282
0.999437 1 1 0.999437
1.00175 1 1.00314 0.99861
1.03202 1.03491 1 0.997206
1.03161 1.03445 1 0.997256
1.03256 1.03577 0.99954 0.997357
1.03031 1.03336 0.999555 0.997498
1.02572 1.02831 1 0.997481
1.0271 1.0295 1 0.997664
0.998311 1 1 0.998311
1.02082 1.02318 1 0.997689
1.00045 1.0028 1 0.997661
1.01173 1.01451 1.00018 0.997091
1.02087 1.0238 1 0.99714
1.01964 1.02209 1 0.997595
0.99957 1 1 0.99957
0.999789 1 1.00101 0.998783
0.998248 1 1 0.998248
1.00169 1 1.00334 0.998356
0.999089 1 1.00083 0.998257
1 1 1 1
1.01589 1.01868 1 0.99726
0.999545 1 1 0.999545
0.999585 1 1.0006 0.998983
1.00081 1 1.00214 0.998674
1.0074 1.00991 1 0.997511
1.02167 1.02458 1 0.997167
0.998649 1 1.00051 0.998144
1.00522 1.00578 1.00193 0.997515
1.01054 1.01306 1 0.997516
1.01409 1.01656 1 0.997573
1 1 1 1
0.999704 1 1 0.999704
0.998964 1 1.00052 0.998441
1.00028 1 1.00134 0.998942
1.00026 1 1.00189 0.998377
1.02544 1.02837 1 0.997154
1.01646 1.0192 1 0.99731
1.02035 1.02322 1 0.997197
1.00168 1.00179 1.00213 0.997766
1.01547 1.01808 1 0.997437
1.00837 1.01016 1.00096 0.997272
0.999775 1 1 0.999775
0.999298 1 1.00012 0.999177
0.998783 1.00018 1.00048 0.998126
1.00139 1 1.0028 0.998597
0.999694 1 1.00142 0.998274
1.02455 1.02737 1 0.997262
1.01612 1.01887 1 0.997293
1.01839 1.02106 1 0.997382
1.00183 1.00051 1.00379 0.997545
1.00764 1.01053 1 0.997144
0.999815 1 1 0.999815
0.999346 1 1 0.999346
0.999391 1 1 0.999391
0.999172 1 1 0.999172
0.999423 1 1 0.999423
0.999851 1 1 0.999851
0.999847 1 1 0.999847
1 1 1 1
0.999837 1 1 0.999837
1 1 1 1
1 1 1 1
1 1 1 1
1 1 1 1
1 1 1 1
0.999996 1 1 0.999996
0.999969 1 1 0.999969
1 1 1 1
1 1 1 1
0.999918 1 1 0.999918
1 1 1 1
1.01852 1.02134 1 0.997241
1.0197 1.02255 1 0.997215
1.03095 1.03381 1 0.99724
1.0335 1.03651 0.999814 0.997276
1.01831 1.02124 1 0.997137
1.00121 1.00361 1 0.9976
1.01788 1.02081 1 0.997128
1.03267 1.03568 0.999845 0.997242
1.03311 1.03595 1 0.997252
1.03456 1.03811 0.999114 0.997468
1.0285 1.03139 1 0.997201
1.03201 1.03479 0.999788 0.997521
1.03194 1.03494 0.99989 0.997215
1.03351 1.03759 0.998663 0.997405
1.0339 1.03702 0.99947 0.997526
1.03276 1.03777 0.997567 0.997595
1.02891 1.03159 1 0.997403
1.03171 1.03482 0.999282 0.99771
1.01779 1.0207 1 0.997153
1.01819 1.02095 1 0.997297
1.03106 1.03388 1 0.997268
1.02968 1.03253 1 0.997237
0.998863 1 1.00009 0.998775
1.00045 1.00241 1 0.99804
1.00698 1.0094 1.00018 0.997428
1.02394 1.0267 1 0.997307
1.02786 1.0304 1 0.997541
1.02407 1.02672 1 0.997419
1.01987 1.0228 1 0.997132
1.01976 1.02223 1 0.997583
0.999046 1 1.0006 0.998446
0.999805 1 1.00154 0.998263
0.999476 1 1.00004 0.999432
1.00132 1 1.00269 0.998639
1.03187 1.03476 1 0.997206
1.03112 1.03398 1 0.997238
1.03242 1.03558 0.999563 0.997384
1.03046 1.03328 0.999792 0.997481
0.998351 1.00005 1 0.998305
1.00064 1.00291 1.00003 0.997708
1.01195 1.01451 1.00039 0.997082
1.02534 1.02796 1 0.997446
1.02665 1.02906 0.999932 0.997719
1.01978 1.02272 1 0.997127
1.02134 1.0237 1 0.997691
1.02073 1.02314 1 0.997641
0.998245 1 1 0.998245
0.998701 1 1.00044 0.998263
1.00242 1 1.00408 0.998349
0.999535 1 1 0.999535
0.999784 1 1.00097 0.99881
1.03264 1.03694 0.998464 0.99739
1.03275 1.0362 0.99923 0.997436
1.02796 1.03212 0.998256 0.997704
1.02367 1.02629 0.999704 0.997736
0.998397 1.00034 1 0.998063
1.02458 1.02679 1 0.997856
1.00058 1.00288 1.00029 0.997419
1.01099 1.01365 1.00051 0.996861
1.01841 1.02136 1 0.997114
0.999624 1 1 0.999624
0.9992 1 1.00016 0.999038
1.00064 1 1.00208 0.998554
0.998202 1 1 0.998202
1.00245 1 1.0043 0.998164
0.99819 1 1 0.99819
1 1 1 1
0.999712 1 1 0.999712
1.02567 1.02861 1 0.997148
1.00052 1 1.00158 0.998942
0.998831 1 1.00039 0.998443
1.00077 1 1.00242 0.998356
1.01664 1.01938 1 0.997309
1.02008 1.02296 1 0.997187
1.0009 1.00084 1.00229 0.997771
1.00722 1.00917 1.00077 0.997291
1.0179 1.02051 1 0.997446
0.99978 1 1 0.99978
0.999268 1 1.00009 0.999181
0.998634 1.00009 1.00041 0.998129
1.00195 1 1.00336 0.998593
0.999778 1 1.00151 0.998269
1.0245 1.02732 1 0.997255
1.01653 1.01929 1 0.997283
1.01816 1.02081 1 0.997408
1.00166 1.00091 1.00324 0.997511
1.00647 1.00932 1.00006 0.997115
0.999319 1 1 0.999319
1.00063 1 1.00185 0.998781
1.00044 1.00047 1.002 0.997979
1.00178 1 1.00345 0.998335
0.999159 1 1.001 0.998165
1.02484 1.02722 1 0.997682
1.01417 1.01702 1 0.997202
1.0149 1.01752 1 0.997432
1.00367 1.00201 1.00433 0.997344
1.00117 1.00426 1 0.996924
0.999818 1 1 0.999818
0.999363 1 1 0.999363
0.999086 1 1 0.999086
0.999369 1 1 0.999369
0.999422 1 1 0.999422
0.999141 1 1 0.999141
0.998998 1 1 0.998998
0.999108 1 1 0.999108
0.999427 1 1 0.999427
0.999847 1 1 0.999847
0.999851 1 1 0.999851
1 1 1 1
0.999849 1 1 0.999849
1 1 1 1
1 1 1 1
1 1 1 1
1 1 1 1
1 1 1 1
1 1 1 1
0.999993 1 1 0.999993
1 1 1 1
0.999959 1 1 0.999959
1 1 1 1
1 1 1 1
1.02901 1.03191 1 0.997196
1.03288 1.03573 1 0.997252
1.0318 1.03479 0.999572 0.997541
1.03393 1.0377 0.998866 0.997498
1.03273 1.03572 0.999874 0.997235
1.01779 1.02073 1 0.997128
1.03228 1.03525 0.999933 0.997197
1.03375 1.03762 0.998871 0.997396
1.03391 1.03686 0.999651 0.997506
1.03213 1.03742 0.997279 0.997609
1.02825 1.03093 1 0.997402
1.03074 1.03405 0.999046 0.997752
1.03324 1.03696 0.999039 0.997375
1.03288 1.039 0.99652 0.997587
1.03234 1.03772 0.997095 0.997709
1.02883 1.03197 0.999163 0.997799
1.03178 1.03467 1 0.997206
1.03065 1.03353 1 0.99722
1.03231 1.03541 0.999585 0.997411
1.03069 1.03331 0.999999 0.997464
0.998416 1.00012 1 0.998298
1.00055 1.0028 1 0.997754
1.01214 1.01452 1.00058 0.997073
1.02489 1.02755 1 0.997411
1.02627 1.02868 0.999886 0.997773
1.02201 1.02437 1 0.997694
1.01888 1.02183 1 0.997114
1.02195 1.02432 1 0.997688
0.998243 1 1 0.998243
0.998268 1 1 0.998268
1.00383 1 1.0055 0.998342
0.9995 1 1 0.9995
0.999834 1 1.001 0.998838
1.03317 1.03713 0.998787 0.997393
1.03282 1.03633 0.999176 0.997436
1.02791 1.03167 0.998658 0.997693
0.998877 1.00082 1 0.998056
1.00172 1.00401 1.00026 0.997463
1.0107 1.01312 1.00076 0.99685
1.02432 1.02695 0.999718 0.997725
1.0185 1.02137 1 0.997194
1.02271 1.02503 0.999908 0.997833
0.99964 1 1 0.99964
0.998432 1.00024 1 0.998193
0.998276 1 1 0.998276
1.00243 1 1.00429 0.998148
1.00065 1 1.00208 0.998567
0.999146 1 1.00014 0.99901
1.03208 1.0383 0.996523 0.997476
1.03057 1.03794 0.995268 0.997618
1.0235 1.02997 0.995917 0.997791
1.02764 1.03158 0.998248 0.997934
0.999293 1.0014 1 0.997901
1.01885 1.02139 1 0.99751
1.00274 1.00411 1.00165 0.996991
1.00635 1.00862 1.00104 0.99671
0.999756 1 1 0.999756
0.99921 1 1 0.99921
0.999116 1 1.00038 0.998737
1.00268 1 1.00443 0.998251
0.998251 1.00016 1 0.998088
1.00143 1 1.00341 0.998025
0.999785 1 1 0.999785
0.999184 1 1 0.999184
1.02464 1.02746 1 0.997249
1.0021 1 1.00351 0.99859
0.998402 1 1.00027 0.998133
0.999744 1 1.00148 0.998265
1.01723 1.02001 1 0.997273
1.01817 1.02079 1 0.997433
1.00168 1.00148 1.00273 0.997476
1.00536 1.00802 1.00027 0.997086
0.999321 1 1 0.999321
1.0004 1 1.00162 0.998786
1.00023 1.00025 1.00198 0.997994
1.00193 1 1.00359 0.99834
0.998715 1 1.00048 0.99824
1.02527 1.02768 0.999932 0.997718
1.0135 1.01634 1 0.997209
1.01628 1.01882 1 0.997505
1.00306 1.00118 1.00458 0.997308
1.00178 1.00489 1.00003 0.996874
0.999008 1 1 0.999008
1.00143 1 1.00299 0.998444
1.00218 1.00058 1.00378 0.997829
0.999593 1 1.00155 0.998043
1.02755 1.03686 0.993068 0.997943
1.01944 1.02183 0.999872 0.99779
1.00791 1.01095 1 0.996996
1.00346 1.00227 1.00426 0.996944
0.999381 1 1 0.999381
0.999099 1 1 0.999099
0.998964 1 1 0.998964
0.999422 1 1 0.999422
0.99911 1 1 0.99911
0.999426 1 1 0.999426
0.998983 1 1 0.998983
0.999121 1 1 0.999121
0.998901 1 1 0.998901
0.998938 1 1 0.998938
0.999086 1 1 0.999086
0.999412 1 1 0.999412
0.999838 1 1 0.999838
0.999846 1 1 0.999846
1 1 1 1
0.999851 1 1 0.999851
1 1 1 1
1 1 1 1
1 1 1 1
1 1 1 1
1 1 1 1
1 1 1 1
1 1 1 1
1 1 1 1
0.999989 1 1 0.999989
1 1 1 1
1 1 1 1
1.0275 1.03017 1 0.997402
1.03401 1.03678 0.99984 0.997487
1.02978 1.03328 0.998819 0.997793
1.03151 1.03709 0.996993 0.997623
1.03397 1.03764 0.999072 0.997388
1.03262 1.03554 1 0.997179
1.03289 1.0369 0.998756 0.997376
1.03234 1.03832 0.996657 0.997578
1.03179 1.03725 0.997028 0.997709
1.0305 1.03352 0.999272 0.997805
1.03247 1.03865 0.996514 0.997529
1.03287 1.0421 0.993378 0.997753
1.03337 1.03997 0.995801 0.997845
1.03367 1.0373 0.999108 0.997396
1.0329 1.03644 0.99915 0.997436
1.02785 1.03115 0.999114 0.997682
0.999528 1.00148 1 0.998049
1.00291 1.00524 1.00018 0.997508
1.01006 1.01241 1.00085 0.996839
1.02492 1.02756 0.999714 0.997714
1.0208 1.02321 0.999835 0.997809
1.01866 1.02145 1 0.997275
0.998752 1.00057 1 0.998184
0.998363 1 1 0.998363
1.00233 1 1.0042 0.998133
0.999656 1 1 0.999656
1.0001 1 1.00152 0.998581
0.999083 1 1.0001 0.998982
1.03283 1.03859 0.99696 0.997484
1.03073 1.03812 0.995239 0.997627
1.02387 1.02972 0.99653 0.997783
0.999671 1.00178 1 0.99789
1.00222 1.00375 1.0014 0.997077
1.0058 1.00816 1.0009 0.996757
1.02763 1.03129 0.998507 0.997942
1.01917 1.02181 0.999917 0.997496
0.999799 1 1 0.999799
0.99921 1 1 0.99921
0.99825 1.00013 1 0.998125
1.00264 1 1.00454 0.998112
1.00265 1 1.00438 0.998274
0.999043 1 1.00033 0.998713
1.03162 1.04052 0.993753 0.997672
1.02318 1.03532 0.990494 0.997755
1.02308 1.03081 0.994502 0.997981
1.0204 1.02492 0.997622 0.997965
1.00046 1.00197 1.00088 0.99762
1.00543 1.00716 1.0014 0.996878
1.003 1.00357 1.00264 0.996793
0.999897 1 1 0.999897
0.999515 1 1 0.999515
0.999309 1 1 0.999309
0.998847 1 1 0.998847
0.99993 1 1.00148 0.998452
1.00331 1 1.00517 0.998146
0.998157 1 1 0.998157
1.01769 1 1.01944 0.998274
0.999324 1 1 0.999324
1.0004 1 1.00161 0.998792
1.0256 1.02805 0.999864 0.997755
1.0024 1 1.00406 0.998345
1.00016 1 1.00215 0.998008
0.998349 1 1.00004 0.998314
1.01254 1.01537 1 0.997216
1.01746 1.01993 1 0.997579
1.0026 1.00052 1.00482 0.997273
1.00251 1.00571 1 0.996823
0.998988 1 1 0.998987
1.00157 1 1.00311 0.998458
1.00238 1.00038 1.00415 0.997855
0.999433 1 1.00136 0.998074
1.02892 1.03773 0.993538 0.997958
1.01928 1.02163 0.999949 0.99775
1.00896 1.01196 1 0.997035
1.00374 1.00308 1.00377 0.996899
0.99924 1 1.00045 0.998795
1.02632 1.04002 0.988846 0.997958
1.00109 1 1.00291 0.998186
1.00134 1.00109 1.00268 0.99758
1.02669 1.03076 0.997999 0.998046
1.00923 1.01214 1 0.997129
1.00486 1.00489 1.00323 0.996749
0.999112 1 1 0.999112
0.998959 1 1 0.998959
0.998877 1 1 0.998877
0.999425 1 1 0.999425
0.999134 1 1 0.999134
0.998968 1 1 0.998968
0.99941 1 1 0.99941
0.99909 1 1 0.99909
0.998889 1 1 0.998889
0.998959 1 1 0.998959
0.998841 1 1 0.998841
0.998847 1 1 0.998847
0.998911 1 1 0.998911
0.999066 1 1 0.999066
0.999379 1 1 0.999379
0.999826 1 1 0.999826
0.999837 1 1 0.999837
1 1 1 1
0.999845 1 1 0.999845
1 1 1 1
1 1 1 1
1 1 1 1
1 1 1 1
1 1 1 1
0.999925 1 1 0.999925
1 1 1 1
1 1 1 1
1 1 1 1
1 1 1 1
1 1 1 1
1 1 1 1
1.03221 1.03511 0.999392 0.99781
1.03121 1.03671 0.996978 0.997708
1.03181 1.03765 0.996796 0.997569
1.03251 1.03683 0.998453 0.997378
1.03201 1.03857 0.996123 0.997548
1.03304 1.04193 0.993713 0.997742
1.03274 1.03963 0.995509 0.997856
1.03274 1.04244 0.992952 0.997728
1.03715 1.0474 0.992337 0.997863
1.02234 1.03874 0.986101 0.998088
1.03361 1.03891 0.997396 0.997491
1.03086 1.03837 0.995116 0.997635
1.02413 1.02946 0.997033 0.997776
0.999938 1.00201 1.00006 0.997879
1.0016 1.00319 1.00126 0.997163
1.0055 1.00794 1.00078 0.996804
1.02781 1.03116 0.998803 0.997951
1.01918 1.02194 0.999817 0.997483
0.998162 1 1 0.998162
1.00385 1.00009 1.00557 0.998199
1.0033 1 1.00501 0.998298
0.999841 1 1 0.999841
0.99921 1 1 0.99921
0.999184 1 1.00049 0.99869
1.03159 1.04084 0.993407 0.997684
0.999893 1 1 0.999893
0.999492 1 1 0.999492
1.02273 1.03449 0.990859 0.997755
1.02327 1.0313 0.994256 0.997949
0.99968 1.00114 1.00084 0.997708
1.00332 1.00325 1.0033 0.996772
1.00595 1.00825 1.00084 0.996877
1.01929 1.02392 0.99753 0.997947
0.999373 1 1 0.999373
0.998843 1 1 0.998843
0.998184 1.00006 1.00005 0.998081
1.01338 1 1.01501 0.998393
1.00284 1 1.0047 0.998144
1.00041 1 1.00195 0.998467
1.03641 1.04662 0.992406 0.997823
1.01122 1.03287 0.981103 0.997894
1.01898 1.02845 0.992621 0.998155
1.00479 1.01016 0.997012 0.997667
1.0009 1.00072 1.00247 0.997721
1.00395 1.00183 1.00547 0.996666
0.999499 1 1 0.999499
0.999462 1 1 0.999462
0.999223 1 1 0.999223
0.998899 1 1 0.998899
0.998912 1 1.00028 0.998636
1.00024 1 1.00204 0.998204
1.02515 1 1.02708 0.998121
1.00102 1 1.0026 0.998421
0.999 1 1.00003 0.998966
1.00137 1 1.0029 0.998473
1.02992 1.03813 0.994103 0.997973
1.01925 1.02159 1 0.99771
0.999216 1 1.00111 0.998105
1.00242 1.00014 1.00441 0.997881
1.01029 1.01322 1.00004 0.997075
1.00386 1.00367 1.00335 0.996854
0.999293 1 1.00051 0.998786
1.02762 1.04202 0.98816 0.997992
1.00098 1 1.00278 0.998204
1.00093 1.00071 1.00269 0.997543
1.02543 1.03003 0.997505 0.998019
1.00941 1.01226 1 0.997186
1.00488 1.00464 1.00348 0.996763
1.00038 1 1.00188 0.998501
1.018 1.03197 0.988081 0.998364
1.00073 1.00092 1.00184 0.997967
1.00259 1.00157 1.00379 0.997245
1.01269 1.01842 0.996685 0.997675
1.00237 1.00326 1.00221 0.996906
1.00068 1.00678 0.995613 0.998324
0.998955 1 1 0.998955
0.998988 1 1.00011 0.998874
0.998861 1 1.0001 0.998758
0.999408 1 1 0.999408
0.999093 1 1 0.999093
0.998981 1 1 0.998981
0.998877 1 1 0.998877
0.999379 1 1 0.999379
0.999055 1 1 0.999055
0.99882 1 1 0.99882
0.99891 1 1 0.99891
0.998857 1 1 0.998857
0.998799 1 1 0.998799
0.998787 1 1.00001 0.998775
0.998896 1 1 0.998896
0.998987 1 1 0.998987
0.999301 1 1 0.999301
0.999122 1 1 0.999122
0.999291 1 1 0.999291
0.999818 1 1 0.999818
0.999825 1 1 0.999825
1 1 1 1
0.999836 1 1 0.999836
1 1 1 1
1 1 1 1
1 1 1 1
1 1 1 1
1 1 1 1
0.999943 1 1 0.999943
0.999922 1 1 0.999922
1 1 1 1
1 1 1 1
1 1 1 1
1 1 1 1
1 1 1 1
1 1 1 1
1.0322 1.03945 0.995153 0.997867
1.03317 1.04177 0.994002 0.997731
1.03154 1.03849 0.99573 0.997567
1.03263 1.04227 0.993002 0.997726
1.03547 1.04563 0.992402 0.997861
1.02309 1.03838 0.987206 0.998049
1.03641 1.04902 0.990034 0.997926
0.990292 1.01596 0.977357 0.99732
1.00873 1.02934 0.981323 0.998628
0.999585 1 1 0.999585
1.03153 1.04109 0.993096 0.997696
1.02268 1.03373 0.991536 0.997755
1.02361 1.0318 0.994134 0.997918
0.999289 1.00067 1.00082 0.997796
1.00355 1.00279 1.00402 0.996751
1.00657 1.00927 1.00045 0.996877
1.01802 1.02274 0.997452 0.997929
0.998005 1 1 0.998005
1.00902 1 1.01052 0.998513
1.00213 1 1.00399 0.998142
0.999889 1 1 0.999889
1.00064 1 1.00216 0.998483
0.999436 1 1 0.999436
0.998839 1 1 0.998839
0.999469 1 1 0.999469
1.03482 1.04698 0.990527 0.997831
0.999531 1 1 0.999531
0.999461 1 1 0.999461
0.999183 1 1 0.999183
1.01297 1.0324 0.983252 0.997896
1.01901 1.02863 0.992523 0.998109
1.0002 1.00063 1.00184 0.997742
1.00399 1.00172 1.00556 0.996729
1.00391 1.00859 0.997702 0.99766
0.998936 1 1 0.998936
0.999027 1 1.00042 0.998604
1.00457 1 1.00623 0.998343
1.02045 1 1.02233 0.99816
1 1 1.00177 0.998233
1.02483 1.03968 0.98777 0.997914
1.00947 1.0343 0.977937 0.998016
1.0116 1.01828 0.995572 0.997857
0.99964 1.00397 0.998214 0.997464
1.00317 1 1.00523 0.997956
0.999144 1 1 0.999144
0.999045 1 1 0.999045
0.998927 1 1 0.998927
0.998927 1 1.00024 0.998686
0.999814 1 1.00138 0.998435
1.01794 1 1.01981 0.998161
1.01887 1 1.0208 0.99811
0.999303 1 1.00053 0.998776
1.00083 1 1.00261 0.998222
1.02848 1.04443 0.986673 0.998026
1.02407 1.02942 0.996805 0.997992
1.00916 1.01195 1 0.997244
1.00059 1.00042 1.00268 0.997506
1.00465 1.00428 1.0036 0.996778
1.0003 1 1.00176 0.99854
1.01571 1.03161 0.986182 0.99838
0.999858 1.00052 1.00135 0.997992
1.00226 1.00094 1.00408 0.997254
1.01355 1.01896 0.996926 0.997764
1.00227 1.0027 1.00269 0.996892
0.999661 1.00673 0.995246 0.997718
1.0002 1 1.00183 0.998365
1.00663 1.01901 0.989473 0.998359
1.0002 1.00028 1.00194 0.99798
1.00421 1.00057 1.00636 0.997304
0.998218 1.0058 0.995008 0.99744
0.948451 0.982213 0.981248 0.984079
0.962936 0.98366 0.986688 0.992139
0.984428 0.996172 0.98984 0.998354
0.830279 0.887277 0.957931 0.976856
0.779759 0.879048 0.912746 0.971846
0.998963 1 1.00009 0.998871
0.999107 1 1.00033 0.99878
0.998776 1 1 0.998776
0.999378 1 1 0.999378
0.999045 1 1 0.999045
0.99891 1 1 0.99891
0.998867 1 1 0.998867
0.998799 1 1 0.998799
0.998943 1 1.00007 0.998875
0.999326 1 1 0.999326
0.999002 1 1 0.999002
0.998795 1 1 0.998795
0.998895 1 1.00011 0.998785
0.999002 1 1.00021 0.998792
0.999284 1 1.0005 0.998784
0.998811 1 1 0.998811
0.998959 1 1 0.998959
0.999284 1 1 0.999284
0.999028 1 1 0.999028
0.998954 1 1 0.998954
0.999108 1 1 0.999108
0.99909 1 1 0.99909
0.999367 1 1 0.999367
0.999289 1 1 0.999289
0.999813 1 1 0.999813
0.999817 1 1 0.999817
1 1 1 1
0.999824 1 1 0.999824
1 1 1 1
1 1 1 1
1 1 1 1
1 1 1 1
1 1 1 1
0.999953 1 1 0.999953
0.99994 1 1 0.99994
1 1 1 1
0.99992 1 1 0.99992
1 1 1 1
1 1 1 1
1 1 1 1
1 1 1 1
1 1 1 1
1.03366 1.04376 0.992453 0.997858
1.03254 1.04213 0.993064 0.997724
1.02411 1.03803 0.988552 0.998009
0.994141 1.01579 0.98127 0.997371
1.03413 1.04687 0.98989 0.997924
1.01554 1.03177 0.985712 0.998533
1.03008 1.0378 0.994553 0.998
0.953843 0.984045 0.977807 0.991309
1.00194 1.01935 0.985032 0.997856
0.999591 1 1 0.999591
0.999584 1 1 0.999584
0.999239 1 1 0.999239
0.999272 1 1 0.999272
1.03316 1.04724 0.988697 0.997839
1.01383 1.03144 0.985001 0.997898
1.01885 1.02865 0.9924 0.998062
0.998992 1.00046 1.00077 0.997763
1.00384 1.00171 1.00536 0.99679
1.00313 1.00742 0.998088 0.997653
1.00806 1 1.00981 0.998264
1.01579 1 1.01763 0.998198
0.999704 1 1.00144 0.998262
0.99946 1 1 0.99946
0.998983 1 1.00041 0.998572
0.998973 1 1 0.998973
0.999563 1 1 0.999563
0.999143 1 1 0.999143
1.02267 1.03917 0.986158 0.997929
0.999189 1 1 0.999189
0.999083 1 1 0.999083
0.998976 1 1 0.998976
1.0123 1.03645 0.978634 0.998017
1.01019 1.01743 0.995017 0.997856
1.00271 1.00002 1.00476 0.997942
1.00042 1.00437 0.998575 0.997494
0.999027 1 1.00035 0.998675
0.999412 1 1.00102 0.998396
1.0206 1 1.02254 0.998104
1.01879 1 1.02069 0.99813
1.00664 1.03351 0.97593 0.998029
1.00304 1.02639 0.979234 0.997976
1.00446 1.00794 0.998979 0.997559
0.99532 1.00034 0.996822 0.998158
0.998819 1 1 0.998819
0.999238 1 1.00047 0.998768
1.006 1 1.00751 0.998499
1.03258 1 1.03466 0.997992
0.926818 0.972059 0.970025 0.982922
1.00054 1 1.00196 0.99858
0.999209 1.0001 1.00109 0.998017
1.01406 1.03107 0.985087 0.998397
1.0147 1.01974 0.997202 0.997853
1.00262 1.00246 1.0033 0.996877
1.00202 1.0003 1.00447 0.997261
0.999245 1.00661 0.99557 0.997099
1.00022 1 1.00183 0.998401
1.00724 1.01956 0.989545 0.998348
0.999687 1.00026 1.00144 0.997992
1.00389 1.00049 1.00611 0.997303
1.00015 1.00679 0.995935 0.997462
0.947403 0.985747 0.977659 0.983064
0.958426 0.981224 0.986502 0.99013
0.984524 0.994169 0.99191 0.998375
0.831899 0.885752 0.961319 0.976991
0.764018 0.867831 0.908116 0.969453
0.999529 1 1.00095 0.998582
0.856576 0.908631 0.964057 0.977858
0.822714 0.883679 0.956573 0.973276
0.985992 1.00713 0.98074 0.998234
1.00516 1.00045 1.00657 0.998159
1.01149 1.0036 1.01026 0.99763
0.976614 0.989791 0.988151 0.998518
0.943571 0.971437 0.988179 0.982934
0.942746 0.960707 0.991987 0.989232
0.807797 0.887066 0.931529 0.977575
0.8386 0.922763 0.933533 0.973498
0.999521 1 1.00072 0.998802
0.999193 1 1.00043 0.998764
0.999898 1 1.0009 0.998998
0.999352 1 1 0.999352
0.999017 1 1 0.999017
0.999007 1 1.00015 0.998853
0.998964 1 1.00017 0.998795
0.998791 1 1 0.998791
0.999284 1 1 0.999284
0.999014 1 1.00023 0.998786
0.998906 1 1.00008 0.998829
0.998985 1 1 0.998985
0.999267 1 1.00048 0.998787
0.99948 1 1.00071 0.998771
1.00021 1 1.00139 0.99882
0.998793 1 1 0.998793
0.998989 1 1 0.998989
0.999025 1 1 0.999025
0.998943 1 1 0.998943
0.998862 1 1 0.998862
0.998943 1 1 0.998943
0.998894 1 1 0.998894
0.998797 1 1.00001 0.998786
0.999086 1 1 0.999086
0.999108 1 1 0.999108
0.999387 1 1 0.999387
0.999058 1 1 0.999058
0.999345 1 1 0.999345
0.999809 1 1 0.999809
0.999287 1 1 0.999287
0.999813 1 1 0.999813
1 1 1 1
0.999817 1 1 0.999817
1 1 1 1
1 1 1 1
1 1 1 1
1 1 1 1
1 1 1 1
0.999564 1 1 0.999564
0.999952 1 1 0.999952
0.999951 1 1 0.999951
1 1 1 1
0.999936 1 1 0.999936
1 1 1 1
1 1 1 1
1 1 1 1
1 1 1 1
1 1 1 1
0.996675 1.01579 0.983712 0.997427
1.03244 1.04473 0.99029 0.997922
1.02056 1.03428 0.988279 0.998436
0.948492 0.978577 0.976819 0.992258
1.00203 1.01907 0.985281 0.997964
1.03172 1.04086 0.993249 0.99796
1.01565 1.02474 0.993353 0.997766
0.96095 0.980647 0.986738 0.993084
0.949115 0.980249 0.985538 0.982445
0.813579 0.881055 0.945328 0.976819
0.75983 0.850342 0.919955 0.971307
0.999227 1 1 0.999227
0.99959 1 1 0.99959
0.999582 1 1 0.999582
0.999226 1 1 0.999226
0.99901 1 1 0.99901
0.999043 1 1 0.999043
0.999209 1 1 0.999209
0.999247 1 1 0.999247
1.02058 1.03907 0.98423 0.997943
1.01607 1.03961 0.979305 0.998018
1.00912 1.01667 0.994707 0.997854
1.00295 1.0001 1.00493 0.997929
1.00124 1.00445 0.999282 0.997524
1.02214 1 1.02409 0.998098
1.0202 1 1.02214 0.998099
0.999208 1 1.00085 0.998358
0.999122 1 1 0.999122
0.998978 1 1.00031 0.998664
0.999234 1 1 0.999234
0.999026 1 1 0.999026
1.0075 1.03385 0.976442 0.998018
0.998846 1 1 0.998846
0.998992 1 1.0002 0.99879
1.0037 1.02585 0.980417 0.997953
1.0024 1.0075 0.997257 0.997671
0.997395 1.00068 0.998638 0.998079
1.00854 1 1.01012 0.998431
1.02926 1 1.03132 0.998005
1.00293 1.02661 0.978876 0.998013
0.986179 1.00798 0.980317 0.998012
0.9915 1.00068 0.992783 0.998029
1.0026 1.00025 1.00413 0.998223
0.99905 1 1.00044 0.998609
1.00314 1 1.0046 0.998548
1.02776 1 1.02958 0.998231
0.845575 0.914492 0.944906 0.978552
0.94142 0.976784 0.978628 0.984843
0.99983 1 1.0014 0.998436
0.999298 1.00023 1.00107 0.998004
1.00827 1.02043 0.989732 0.998338
1.00196 1.00771 0.996805 0.997485
1.00342 1.00043 1.00571 0.997302
0.943543 0.977703 0.982121 0.982629
0.962704 0.986749 0.984716 0.990775
0.985644 0.99287 0.994323 0.99839
0.827146 0.887077 0.953625 0.977785
0.750748 0.85654 0.906387 0.967016
0.99937 1 1.00079 0.998582
0.850354 0.911961 0.953154 0.978274
0.815974 0.877117 0.956926 0.972166
0.987878 1.00796 0.98182 0.998227
1.00481 1.00047 1.00617 0.998183
1.01 1.00199 1.01025 0.997772
0.968371 0.984139 0.985334 0.998624
0.949398 0.980137 0.986922 0.981474
0.944683 0.964952 0.987712 0.991175
0.811567 0.881691 0.942936 0.976171
0.835974 0.924887 0.929188 0.972749
1.00102 1 1.00216 0.998861
0.850722 0.893666 0.976385 0.97497
0.920469 0.953776 0.98443 0.980343
0.989452 0.999768 0.990916 0.998755
1.01283 1.00212 1.01197 0.998733
0.980791 0.974528 1.00772 0.998718
0.927336 0.948773 0.985069 0.992221
0.930745 0.953062 0.995432 0.981066
0.825343 0.893625 0.945657 0.976664
0.866588 0.947927 0.936537 0.976142
0.999523 1 1.00077 0.998752
0.999533 1 1.00056 0.998973
1.00328 1 1.0041 0.999178
0.999285 1 1 0.999285
0.999011 1 1 0.999011
0.998983 1 1.00014 0.998846
0.999058 1 1.00028 0.998779
0.99924 1 1.00045 0.998789
0.998988 1 1 0.998988
0.999142 1 1.00037 0.998772
0.998795 1 1 0.998795
1.0014 1 1.00255 0.998851
1.01351 0.999973 1.01441 0.999148
0.999374 1 1.00063 0.998746
0.998765 1 1 0.998765
0.999022 1 1 0.999022
0.998933 1 1 0.998933
0.998859 1 1 0.998859
0.998938 1 1 0.998938
0.998936 1 1.00002 0.998915
0.998898 1 1.00001 0.998886
0.998865 1 1.00003 0.998833
0.998902 1 1 0.998902
0.998739 1 1.00007 0.998671
0.999177 1 1.00093 0.99825
0.99886 1 1.0002 0.998662
0.998789 1 1.00001 0.998783
0.999023 1 1 0.999023
0.999084 1 1 0.999084
0.999382 1 1 0.999382
0.999107 1 1 0.999107
0.999387 1 1 0.999387
0.99981 1 1 0.99981
0.999323 1 1 0.999323
0.99981 1 1 0.99981
1 1 1 1
0.999813 1 1 0.999813
1 1 1 1
1 1 1 1
1 1 1 1
1 1 1 1
1 1 1 1
0.999583 1 1 0.999583
0.999941 1 1 0.999941
0.999565 1 1 0.999565
1 1 1 1
0.999953 1 1 0.999953
0.999949 1 1 0.999949
1 1 1 1
1 1 1 1
1 1 1 1
1 1 1 1
1 1 1 1
0.846812 0.902358 0.960188 0.977353
0.825211 0.885307 0.957251 0.973745
0.951124 0.982325 0.975302 0.992757
1.00415 1.01871 0.987607 0.998074
1.03442 1.04379 0.993091 0.997919
0.950644 0.970592 0.98496 0.994404
1.01509 1.02423 0.993222 0.997838
0.954377 0.986812 0.983107 0.983751
0.826315 0.887121 0.953596 0.976784
0.752178 0.851535 0.911705 0.968865
0.979052 0.99765 0.985433 0.995866
0.946341 0.973848 0.98814 0.983418
0.801499 0.882508 0.929525 0.977064
0.827128 0.913591 0.931335 0.972108
0.99891 1 1 0.99891
0.99925 1 1 0.99925
0.99959 1 1 0.99959
0.999214 1 1 0.999214
0.999046 1 1 0.999046
0.999201 1 1.00028 0.998923
0.99904 1 1 0.99904
0.999037 1 1 0.999037
0.99918 1 1 0.99918
0.999222 1 1 0.999222
1.00857 1.03368 0.977653 0.998009
1.00278 1.02407 0.981236 0.997933
1.0004 1.00731 0.995339 0.997784
0.999155 1.00097 1.00018 0.997999
1.02489 1 1.02693 0.998018
1.01142 1 1.01308 0.998363
0.998813 1 1 0.998813
0.998872 1 1 0.998872
1.00237 1.0269 0.978033 0.998034
0.999509 1 1.00092 0.998591
1.00315 1 1.00464 0.998515
0.98607 1.0065 0.981729 0.997931
0.990535 1.00043 0.991952 0.998143
1.0035 1.00081 1.00458 0.998125
1.02465 1 1.0265 0.998204
0.996231 1.00441 0.993512 0.998331
0.984531 1 0.985781 0.998731
1.0134 1.00043 1.01469 0.998307
1.00232 1 1.00376 0.998567
1.00172 1 1.0033 0.998426
1.01628 1 1.01799 0.998322
0.862176 0.902822 0.976059 0.978403
0.854855 0.913552 0.956468 0.978338
0.932675 0.975926 0.972249 0.98296
0.999158 1 1.00058 0.998582
1.00448 1.00044 1.00585 0.998206
0.99046 1.00861 0.983749 0.998222
1.0087 1.00042 1.01038 0.997913
0.842872 0.906271 0.950709 0.978264
0.949414 0.978197 0.987058 0.983302
0.936635 0.962771 0.98336 0.989315
0.96407 0.979453 0.985545 0.99873
0.811901 0.882117 0.943232 0.975795
0.818466 0.882232 0.954253 0.972197
0.824517 0.916872 0.924052 0.973183
1.00171 1 1.00285 0.998866
0.851733 0.897154 0.972718 0.976
0.927155 0.959088 0.986199 0.980233
0.991511 1.00004 0.992624 0.99884
1.01253 1.00073 1.0131 0.998708
0.978078 0.97345 1.00601 0.998751
0.927579 0.951317 0.984606 0.990292
0.933188 0.957216 0.99241 0.982354
0.839545 0.908151 0.946548 0.976659
0.854603 0.937283 0.933667 0.976566
1.00376 0.999757 1.00456 0.999454
0.926265 0.959159 0.981546 0.983861
0.905929 0.947071 0.971981 0.984133
1.00114 0.987375 1.01423 0.999715
0.947224 0.950996 1.00102 0.995015
0.938151 0.951538 1.00448 0.981537
0.876656 0.927377 0.968158 0.976397
0.875223 0.96231 0.932116 0.975739
0.999323 1 1.00037 0.998949
1.00208 1 1.0029 0.999181
1.01514 1 1.01577 0.99938
0.998987 1 1 0.998987
0.998796 1 1 0.998796
0.998774 1 1 0.998774
1.00218 1 1.0033 0.998883
0.998763 1 1 0.998763
0.999614 1 1.00088 0.99874
1.01563 1 1.01644 0.999202
1.02548 0.997452 1.02867 0.999446
1.01358 1 1.01452 0.999081
0.998727 1 1 0.998727
0.998856 1 1 0.998856
0.998933 1 1 0.998933
0.998935 1 1 0.998935
0.998845 1 1 0.998845
0.998891 1 1.00001 0.998885
0.998928 1 1.00002 0.99891
0.998901 1 1.00008 0.998816
1.0003 1 1.00124 0.999062
0.998716 1 1 0.998716
0.99875 1 1.00005 0.9987
0.999089 1 1.00069 0.998396
0.999301 1 1.00153 0.997778
0.999414 1 1.00085 0.99857
0.999142 1 1.00079 0.998351
0.998812 1 1.00012 0.998694
0.999069 1 1.00018 0.998889
0.99878 1 1 0.99878
0.999021 1 1 0.999021
0.999337 1 1 0.999337
0.999082 1 1 0.999082
0.999381 1 1 0.999381
0.999806 1 1 0.999806
0.999388 1 1 0.999388
0.99981 1 1 0.99981
1 1 1 1
0.999811 1 1 0.999811
1 1 1 1
1 1 1 1
1 1 1 1
1 1 1 1
1 1 1 1
0.999435 1 1 0.999435
0.999922 1 1 0.999922
0.999527 1 1 0.999527
1 1 1 1
0.999944 1 1 0.999944
0.999565 1 1 0.999565
1 1 1 1
1 1 1 1
0.999954 1 1 0.999954
1 1 1 1
1 1 1 1
1 1 1 1
0.852107 0.896184 0.973328 0.976872
0.851214 0.909298 0.957719 0.97745
0.925321 0.960005 0.983482 0.98006
0.816963 0.878612 0.95579 0.972843
0.948242 0.975308 0.979695 0.992399
1.01253 1.02378 0.991079 0.997914
0.959728 0.986682 0.987524 0.98497
0.829355 0.890548 0.953132 0.977079
0.748686 0.85588 0.905172 0.966397
0.975841 0.994717 0.985819 0.995136
0.944365 0.974044 0.988086 0.981221
0.81414 0.890326 0.937131 0.975776
0.827361 0.916325 0.929856 0.971024
0.957419 0.982595 0.980339 0.99392
0.942136 0.958078 1.00266 0.980749
0.839447 0.912279 0.942928 0.975859
0.861177 0.948019 0.93234 0.974318
0.99944 1 1.00071 0.998727
0.998944 1 1 0.998944
0.999273 1 1 0.999273
0.999083 1 1 0.999083
0.998721 1 1.00001 0.998714
0.998953 1 1 0.998949
0.999036 1 1 0.999036
0.999003 1 1 0.999003
0.999067 1 1 0.999067
0.999151 1 1 0.999151
1.00331 1.02811 0.977778 0.998055
0.987981 1.00597 0.984234 0.997853
0.989518 1.00024 0.99101 0.998255
1.00525 1.00143 1.00579 0.998029
1.02118 1 1.02304 0.998177
1.00268 1 1.0042 0.998483
0.999857 1 1.00129 0.998573
1.0015 1 1.00295 0.998554
0.992678 1.00527 0.989117 0.998342
1.00128 1 1.00286 0.998431
1.01582 1 1.01753 0.998315
0.983564 1.0003 0.984596 0.998656
1.01332 1.00103 1.01402 0.998279
0.965528 0.989596 0.976829 0.998823
1.00075 0.997117 1.0044 0.999253
1.02431 1 1.02582 0.998525
1.00058 1 1.00214 0.998441
1.00836 1 1.01005 0.998328
0.929293 0.956757 0.985397 0.985688
0.866305 0.902672 0.980935 0.978364
0.846131 0.908669 0.951984 0.978143
1.00235 1 1.00348 0.99887
1.01228 0.999463 1.01416 0.998682
0.991286 1 0.992357 0.99892
0.860365 0.902726 0.975703 0.976808
0.942233 0.956466 1.00437 0.980832
0.928685 0.950964 0.98484 0.991605
0.967688 0.969084 0.999801 0.998758
0.840327 0.907721 0.947793 0.976748
0.932414 0.962733 0.988139 0.980133
0.855847 0.938502 0.933722 0.97666
1.00324 0.999358 1.00446 0.999427
0.922921 0.956908 0.979384 0.984786
0.907847 0.948761 0.972295 0.984141
1.0028 0.989848 1.01352 0.999567
0.953617 0.955923 1.00297 0.994635
0.925006 0.947982 0.995589 0.980086
0.878179 0.963939 0.93285 0.976611
0.878541 0.928556 0.968909 0.976498
1.0039 0.991936 1.01235 0.999711
0.904967 0.943029 0.96931 0.990022
0.918637 0.961415 0.970087 0.984968
0.862646 0.948662 0.933216 0.974403
0.985784 0.972679 1.01482 0.998673
0.957672 0.962574 1.0128 0.982333
0.892651 0.932548 0.979814 0.976937
1.00159 1 1.00241 0.999183
1.01449 1 1.01519 0.999309
1.01707 0.995064 1.02256 0.999566
0.998761 1 1 0.998761
0.999839 1 1.00111 0.998734
1.0195 1 1.02026 0.999256
0.998738 1 1 0.998738
1.01284 1 1.01376 0.99909
1.02759 0.997582 1.03067 0.999421
1.0138 0.996834 1.01754 0.999489
1.00877 1 1.00969 0.999081
0.998857 1 1 0.998857
0.998885 1 1 0.998885
0.999022 1 1.0001 0.998919
0.9998 1 1.00076 0.999042
0.99888 1 1.00006 0.998824
0.999831 1 1.00085 0.998981
0.998873 1 1 0.998873
1.00074 1 1.00259 0.998151
0.998774 1 1.00005 0.998728
0.998917 1 1.00057 0.998351
0.998609 1 1.00101 0.997599
0.999087 1.00012 1.00129 0.997686
1.00013 1 1.00178 0.99835
0.999182 1 1.00138 0.997803
0.999894 1 1.00114 0.998751
0.99961 1 1.00107 0.998541
0.999097 1 1.00065 0.998453
0.998766 1 1.00004 0.998725
0.99904 1 1.00012 0.998921
0.999261 1 1 0.999261
0.999019 1 1 0.999019
0.999337 1 1 0.999337
0.999787 1 1 0.999787
0.999379 1 1 0.999379
0.999804 1 1 0.999804
1 1 1 1
0.99981 1 1 0.99981
1 1 1 1
1 1 1 1
1 1 1 1
1 1 1 1
1 1 1 1
0.999265 1 1 0.999265
0.999801 1 1 0.999801
0.999433 1 1 0.999433
1 1 1 1
0.999887 1 1 0.999887
0.999473 1 1 0.999473
1 1 1 1
1 1 1 1
0.999947 1 1 0.999947
1 1 1 1
1 1 1 1
1 1 1 1
0.919007 0.955212 0.97711 0.984637
0.842317 0.894266 0.964011 0.977073
0.850585 0.905746 0.960939 0.977272
0.998899 1 1 0.998899
0.908526 0.944095 0.976696 0.985285
0.925335 0.960025 0.983556 0.97998
0.814089 0.881421 0.94911 0.973132
0.979831 0.996249 0.98922 0.994237
0.945186 0.972111 0.989033 0.983084
0.820508 0.902071 0.932545 0.975377
0.821484 0.908557 0.930972 0.971204
0.958269 0.982262 0.983855 0.991583
0.929348 0.952702 0.993044 0.982319
0.850017 0.915903 0.950974 0.97591
0.859387 0.943561 0.934908 0.974204
0.935131 0.958659 0.985699 0.989609
0.936464 0.946595 1.00918 0.980297
0.885688 0.935985 0.969196 0.976338
0.875431 0.960955 0.93367 0.975721
0.999453 1 1.00091 0.998543
0.99982 1 1.00112 0.9987
0.998978 1 1 0.998978
0.998716 1 1 0.998716
0.998895 1 1.00014 0.998757
0.998975 1 1 0.998975
0.999011 1 1 0.999011
0.999096 1 1 0.999096
0.986515 1.00541 0.982829 0.998351
0.981511 1.00015 0.982755 0.998583
1.00073 1 1.00219 0.998542
1.01364 1.00168 1.01371 0.998249
1.01677 1 1.0185 0.998308
1.00125 1 1.00282 0.998436
1.00086 1 1.00241 0.998449
0.970404 0.991431 0.979903 0.998865
1.00957 1 1.01123 0.998359
1.02034 1.00025 1.02159 0.998531
0.99576 0.997505 0.998959 0.999291
1.00022 1 1.00174 0.99849
0.960977 0.98058 0.980922 0.99907
1.00709 0.994136 1.01358 0.999454
1.03612 1 1.03755 0.998614
1.0021 1 1.00362 0.998485
0.917855 0.946143 0.978731 0.991183
0.928716 0.956134 0.985311 0.985805
0.871576 0.90266 0.986954 0.978328
1.00202 0.998853 1.00377 0.999403
1.00614 0.992688 1.01414 0.999423
0.920734 0.95574 0.977348 0.9857
0.946075 0.950529 1.01348 0.982078
0.94768 0.954501 1.00077 0.992089
0.882746 0.932418 0.970433 0.975572
0.908999 0.949761 0.972499 0.984147
0.88218 0.966554 0.933735 0.977479
1.0056 0.994602 1.01139 0.99967
0.905975 0.943581 0.969825 0.990019
0.916487 0.959424 0.968535 0.986281
0.994857 0.979372 1.01607 0.999749
0.860148 0.9442 0.93506 0.974248
0.943982 0.952618 1.00971 0.981401
0.903015 0.945218 0.978544 0.976299
1.00629 0.990128 1.01656 0.999771
0.92053 0.95819 0.969275 0.99115
0.909015 0.944758 0.976461 0.985362
0.826378 0.913999 0.929981 0.972207
0.885201 0.93721 0.967737 0.975996
0.968201 0.965554 1.00522 0.997536
0.960579 0.956525 1.0256 0.979173
1.01171 1 1.01248 0.99924
1.01652 0.994454 1.02266 0.999537
1.00413 0.983485 1.02142 0.999582
0.998749 1 1 0.998749
1.01158 1 1.0125 0.999099
1.02811 0.998402 1.03037 0.999396
1.00549 1 1.00643 0.999067
1.01389 0.997503 1.01695 0.999488
1.00844 0.996507 1.01274 0.999245
0.999066 1 1.00004 0.999022
0.998849 1 1.00002 0.998831
1.00083 1 1.00188 0.998955
1.00635 1 1.00795 0.998422
0.999028 1 1 0.999028
1.00028 1 1.00202 0.998268
1.00161 1 1.00413 0.997491
1.00101 1.00204 1.00188 0.997104
0.99871 1 1.0004 0.998306
0.998889 1.00031 1.00109 0.997486
0.999012 1.00071 1.00053 0.997776
1.0005 1 1.00241 0.99809
0.999109 1.00011 1.00125 0.997747
1.00158 1 1.00299 0.998594
1.00024 1 1.0019 0.998341
0.999104 1 1.00128 0.997828
0.99913 1 1 0.99913
0.999939 1 1.00119 0.998749
0.999908 1 1.0014 0.998512
0.999008 1 1.00006 0.998953
0.999259 1 1 0.999259
0.999746 1 1 0.999746
0.999336 1 1 0.999336
0.999784 1 1 0.999784
1 1 1 1
0.999803 1 1 0.999803
1 1 1 1
1 1 1 1
1 1 1 1
1 1 1 1
1 1 1 1
0.999194 1 1 0.999194
0.999715 1 1 0.999715
0.999297 1 1 0.999297
1 1 1 1
0.999793 1 1 0.999793
0.999432 1 1 0.999432
1 1 1 1
1 1 1 1
0.999852 1 1 0.999852
1 1 1 1
1 1 1 1
1 1 1 1
0.908021 0.944218 0.97124 0.990142
0.92124 0.955367 0.979338 0.984623
0.842348 0.895427 0.962681 0.97719
0.998919 1 1 0.998919
0.998864 1 1 0.998864
0.998761 1 1 0.998761
0.915826 0.960863 0.967754 0.984887
0.906124 0.943645 0.974561 0.985304
0.926868 0.960154 0.985133 0.979901
0.964155 0.984933 0.985525 0.993282
0.92663 0.952288 0.992187 0.980718
0.83976 0.902743 0.952408 0.976715
0.870451 0.950567 0.940396 0.973757
0.938716 0.960172 0.985866 0.991671
0.933758 0.946408 1.00564 0.981096
0.871665 0.918859 0.970491 0.977483
0.877112 0.962969 0.932695 0.976569
0.927078 0.949756 0.985762 0.990221
0.95067 0.956104 1.0129 0.98165
0.893915 0.93102 0.982618 0.977131
0.867619 0.947671 0.937997 0.976045
0.998534 1 1 0.998534
0.99978 1 1.00125 0.998533
0.999886 1 1.00121 0.998672
0.99871 1 1 0.99871
0.998799 1 1 0.998799
0.99902 1 1 0.99902
0.977391 0.993922 0.984454 0.998897
0.99138 0.997906 0.994133 0.999323
1.00105 1 1.0026 0.998458
1.01546 1.00046 1.01648 0.998538
1.01041 1 1.01204 0.99839
1.00004 1 1.00158 0.998464
1.00167 1 1.00317 0.998503
0.97133 0.982841 0.989156 0.999123
1.03104 1 1.03235 0.998724
1.00672 0.989674 1.01776 0.999474
0.999978 1 1.00135 0.998627
0.984807 0.971447 1.01454 0.999224
1.0033 0.986992 1.01701 0.99952
1.0256 1 1.02679 0.998846
0.934691 0.962069 0.978843 0.992541
0.917586 0.946295 0.977914 0.991561
0.928498 0.955388 0.985735 0.985918
1.00868 0.997571 1.01151 0.99963
0.98848 0.980183 1.00937 0.999107
0.90713 0.944194 0.970433 0.990017
0.942323 0.945103 1.01219 0.985051
0.900787 0.942334 0.978685 0.976729
0.9154 0.957748 0.96779 0.987594
0.87143 0.951093 0.940851 0.973842
1.00371 0.988972 1.01512 0.999788
0.921394 0.958405 0.969557 0.991569
0.907617 0.944888 0.974806 0.985381
0.967453 0.962727 1.01037 0.994595
0.825846 0.915997 0.928345 0.971171
0.868973 0.920891 0.965717 0.977121
0.968254 0.960389 1.02719 0.981505
1.00047 0.970813 1.03108 0.99949
0.908735 0.944768 0.971353 0.990227
0.927798 0.962273 0.983636 0.980215
0.757753 0.848061 0.919641 0.971589
0.839553 0.912671 0.942627 0.975876
0.949447 0.954641 1.01358 0.981231
0.946643 0.958182 0.995116 0.992806
1.01716 0.993949 1.02386 0.999507
1.00764 0.988281 1.02001 0.999586
1.01623 0.993967 1.02288 0.999529
1.0023 1 1.00326 0.999052
1.01458 0.997661 1.01748 0.999487
1.01022 0.996132 1.01483 0.999324
1.01349 1 1.01469 0.998813
1.00196 1 1.00304 0.998928
1.00656 1 1.00827 0.998308
1.01482 1 1.01743 0.997431
0.99983 1 1.00145 0.998387
1.00313 1.0006 1.00509 0.99745
1.00487 1.00217 1.00596 0.996743
1.00321 1.00464 1.00191 0.996681
0.999512 1.00101 1.00108 0.997425
1.00091 1.00197 1.00189 0.997061
0.999181 1.00057 1.00124 0.997373
0.999239 1.00017 1.0011 0.997979
0.998804 1.00046 1.00048 0.997869
1.00135 1 1.00305 0.998304
1.00063 1 1.0025 0.998133
0.99909 1.00011 1.00117 0.997808
1.00055 1 1.00164 0.998907
1.00103 1 1.00244 0.998596
1.00023 1 1.0019 0.998331
0.999673 1 1 0.999673
0.999184 1 1.00006 0.999127
0.999849 1 1.0011 0.998746
0.999257 1 1 0.999257
0.999742 1 1 0.999742
1 1 1 1
0.999781 1 1 0.999781
1 1 1 1
1 1 1 1
1 1 1 1
1 1 1 1
1 1 1 1
0.99918 1 1 0.99918
0.999716 1 1 0.999716
0.999214 1 1 0.999214
1 1 1 1
0.999749 1 1 0.999749
0.999329 1 1 0.999329
1 1 1 1
1 1 1 1
0.999785 1 1 0.999785
1 1 1 1
1 1 1 1
1 1 1 1
0.920168 0.957632 0.969514 0.991093
0.908398 0.944684 0.971161 0.990143
0.921476 0.955392 0.979562 0.984624
0.998829 1 1 0.998829
0.998704 1 1 0.998704
0.998939 1 1 0.998939
0.99886 1 1 0.99886
0.998742 1 1 0.998742
0.998745 1 1 0.998745
0.998647 1 1 0.998647
0.903487 0.946977 0.969585 0.984003
0.915668 0.958639 0.968532 0.986209
0.903326 0.94293 0.972267 0.985324
0.879361 0.965378 0.931942 0.97742
0.927416 0.950563 0.985661 0.989842
0.935579 0.946201 1.00687 0.982031
0.876967 0.922554 0.973125 0.976839
0.921082 0.949176 0.980735 0.989465
0.942285 0.948076 1.01393 0.980234
0.905355 0.946491 0.979247 0.97681
0.854276 0.937092 0.933582 0.97648
0.928542 0.951135 0.984617 0.991498
0.951032 0.955224 1.01611 0.97983
0.879746 0.930083 0.968525 0.976617
0.836562 0.92165 0.932656 0.97322
1.00131 1 1.00266 0.998651
0.998674 1 1.00014 0.998536
1.00031 1 1.00179 0.998523
0.998705 1 1 0.998705
0.978244 0.983491 0.995477 0.999184
1.00553 0.986148 1.02017 0.999493
0.998622 1 1.00018 0.998439
1.00141 1 1.00289 0.998521
1.02573 1 1.02693 0.998834
0.999488 1 1.00087 0.998619
1.02605 0.999396 1.02787 0.998832
0.981579 0.970172 1.01333 0.998448
1.00595 0.985197 1.02144 0.999632
1.01194 0.998177 1.01485 0.998953
0.983429 0.965863 1.01995 0.998272
1.02231 0.990988 1.03234 0.999296
0.918402 0.946174 0.979239 0.991227
0.930873 0.960515 0.975947 0.993025
0.916943 0.946449 0.976699 0.991938
0.99961 0.986448 1.01354 0.999805
0.971472 0.96533 1.00867 0.997717
0.921273 0.958048 0.969376 0.991993
0.96413 0.960896 1.02429 0.979572
0.871942 0.921873 0.968668 0.976431
0.905282 0.944975 0.972189 0.985401
0.820621 0.907881 0.930543 0.971353
1.00507 0.974488 1.0318 0.999591
0.908503 0.945185 0.970674 0.99023
0.926763 0.96128 0.983634 0.980133
0.948884 0.957733 0.995688 0.995051
0.751984 0.850282 0.912516 0.96918
0.846452 0.913682 0.949399 0.975795
0.946758 0.949362 1.01696 0.980623
1.00039 0.977861 1.0244 0.998669
0.920399 0.95623 0.977365 0.98482
0.825291 0.884914 0.957475 0.974044
0.804462 0.883638 0.93149 0.977356
0.932899 0.942276 1.00858 0.981627
0.925399 0.948303 0.985291 0.990416
1.01048 0.992185 1.01885 0.99959
1.01681 0.992316 1.02517 0.999522
1.00509 0.995664 1.01012 0.999354
1.01214 0.995919 1.01689 0.999402
1.01236 0.997655 1.01586 0.998892
1.00578 1.0008 1.00702 0.997971
1.00704 1 1.00886 0.998195
1.01394 1.00005 1.01656 0.997377
1.00897 1.00017 1.01209 0.996751
1.00475 1.00131 1.00604 0.99741
1.00517 1.00193 1.00659 0.996664
1.00293 1.00209 1.00442 0.996437
1.0068 1.01009 1 0.996737
1.0058 1.00816 1.00077 0.99689
1.00374 1.00494 1.00218 0.996628
0.999435 1.00164 1.00013 0.99767
0.999108 1.00089 1.00074 0.997483
1.00084 1.00194 1.0019 0.997018
0.999113 1 1.00112 0.998
0.999424 1.00037 1.00108 0.997969
0.998527 1.00014 1.00043 0.997962
1.00168 1 1.00307 0.998613
1.0013 1 1.00295 0.998351
1.00076 1 1.00259 0.998176
0.999512 1 1 0.999512
1.0003 1 1.00139 0.998909
1.00068 1 1.00209 0.998599
0.999997 1 1 0.999997
0.999666 1 1 0.999666
0.999315 1 1.00019 0.999125
0.999737 1 1 0.999737
0.999999 1 1 0.999999
1 1 1 1
1 1 1 1
1 1 1 1
1 1 1 1
0.99882 1 1 0.99882
0.999112 1 1 0.999112
0.999651 1 1 0.999651
0.999178 1 1 0.999178
0.999999 1 1 0.999999
0.99972 1 1 0.99972
0.999235 1 1 0.999235
1 1 1 1
1 1 1 1
0.999783 1 1 0.999783
1 1 1 1
1 1 1 1
1 1 1 1
0.904156 0.943055 0.968463 0.989973
0.92051 0.957849 0.969238 0.991519
0.909131 0.945335 0.971277 0.990142
0.99884 1 1 0.99884
0.998721 1 1.00003 0.998691
0.998652 1 1.00001 0.998646
0.998694 1 1 0.998694
0.999989 1 1.00139 0.998606
0.998856 1 1 0.998856
0.998724 1 1 0.998724
0.998745 1 1 0.998745
0.998649 1 1 0.998649
1.00077 1 1.00208 0.998695
0.919395 0.952596 0.984737 0.980106
0.906733 0.948575 0.971407 0.984025
0.91645 0.957282 0.969435 0.987529
0.853823 0.938073 0.932007 0.976589
0.901945 0.940921 0.981192 0.976952
0.91342 0.945101 0.977796 0.988426
0.950575 0.95598 1.01319 0.981404
0.92911 0.953835 0.984684 0.98923
0.962249 0.964253 1.0169 0.981332
0.881461 0.929887 0.970228 0.97701
0.835782 0.924518 0.929674 0.972405
0.948002 0.958373 0.998312 0.990852
0.951875 0.955888 1.01422 0.981837
0.824763 0.894292 0.944536 0.976407
0.782788 0.880556 0.915357 0.971174
1.00326 1 1.00416 0.999101
1.00263 1 1.00399 0.998648
0.999448 1 1.00091 0.998538
0.981525 0.970679 1.01355 0.997655
1.00895 0.983 1.02666 0.999748
0.999767 1 1.00116 0.998611
1.02733 0.998942 1.02964 0.998818
1.01317 0.999197 1.01504 0.998961
1.02393 0.993491 1.03137 0.999285
0.981623 0.964716 1.01926 0.998298
1.01782 0.997743 1.02079 0.999345
0.988592 0.975364 1.01542 0.998173
0.93087 0.958462 0.985455 0.985547
0.918238 0.946373 0.978491 0.991598
0.927121 0.958979 0.973097 0.993508
1.01064 0.979292 1.03234 0.999683
0.948851 0.959814 0.996866 0.991686
0.909491 0.945617 0.971287 0.990229
0.950028 0.957076 1.01373 0.979195
0.837614 0.900596 0.952328 0.976624
0.926589 0.960286 0.984545 0.980057
0.750125 0.856007 0.906452 0.966744
0.999589 0.97652 1.02485 0.998802
0.922436 0.956474 0.979291 0.984808
0.817831 0.879414 0.955635 0.973146
0.928205 0.952017 0.98327 0.991577
0.816228 0.890879 0.938692 0.976044
0.920506 0.940449 0.998523 0.980242
0.972182 0.973635 1.00079 0.997723
0.852609 0.897135 0.972572 0.977172
0.815455 0.881504 0.946708 0.977146
0.941107 0.958491 1.00106 0.980823
0.917732 0.946147 0.977712 0.99208
1.01658 0.990859 1.02646 0.999515
1.00729 0.994231 1.01382 0.999326
0.998952 1.001 0.999323 0.998626
1.01097 0.994966 1.01713 0.99897
1.00545 1.00093 1.00646 0.998067
1.0003 1.00199 1.00089 0.997437
1.01277 1.0001 1.01539 0.997324
1.00738 1.00037 1.01028 0.996765
0.999579 1.00147 1.00124 0.99687
1.00511 1.00164 1.0069 0.996586
1.00312 1.00301 1.00366 0.996461
1.00735 1.01047 1 0.996906
1.01928 1.02222 1 0.997121
1.01218 1.01543 1.00002 0.996783
1.00628 1.00956 1 0.996757
1.00411 1.00696 1 0.997168
1.00403 1.00613 1.00107 0.996843
1.00431 1.00532 1.00244 0.996575
0.998601 1.00078 1 0.997824
0.999004 1.00124 1.00002 0.997738
0.99865 1.00079 1.00032 0.997542
0.99984 1 1.00151 0.998329
0.999379 1.00006 1.00129 0.99803
0.999666 1.00061 1.0011 0.99796
1.00032 1 1.00111 0.999217
1.00138 1 1.00277 0.998615
1.00119 1 1.00279 0.998398
0.999987 1 1 0.999987
0.999651 1 1.00015 0.999504
0.999988 1 1.00108 0.998911
1 1 1 1
0.999995 1 1 0.999995
0.999659 1 1 0.999659
0.999999 1 1 0.999999
1 1 1 1
1 1 1 1
0.99889 1 1.00016 0.998734
0.999036 1 1 0.999036
0.998806 1 1 0.998806
0.999596 1 1 0.999596
0.999111 1 1 0.999111
0.999992 1 1 0.999992
0.999654 1 1 0.999654
0.999175 1 1 0.999175
1 1 1 1
0.999999 1 1 0.999999
0.999723 1 1 0.999723
1 1 1 1
1 1 1 1
1 1 1 1
0.92406 0.959615 0.976772 0.985848
0.905155 0.943547 0.969026 0.989975
0.920468 0.957436 0.969193 0.991948
0.998656 1 1 0.998656
0.998851 1 1 0.998851
0.998678 1 1 0.998678
0.998706 1 1 0.998706
0.998664 1 1 0.998664
0.999494 1 1.00087 0.998621
1.00203 1 1.00355 0.998482
1.00226 1 1.00368 0.998587
0.998746 1 1 0.998746
0.998651 1 1 0.998651
1.00082 1 1.00213 0.998685
1.00292 1 1.00406 0.998863
0.823663 0.885239 0.956373 0.972885
0.926324 0.958637 0.986015 0.979997
0.908609 0.948834 0.973132 0.984045
0.827231 0.91833 0.925943 0.972846
0.88759 0.936858 0.970314 0.976397
0.95258 0.956083 1.01679 0.979886
0.933712 0.953243 0.989424 0.98998
0.946283 0.954923 0.998279 0.99266
0.766834 0.869436 0.910341 0.968856
0.946321 0.950945 1.01536 0.980086
0.83743 0.907622 0.945054 0.976308
0.938857 0.954755 0.990124 0.993156
0.939127 0.948592 1.00758 0.982572
0.808264 0.887982 0.932149 0.97648
1.0006 1 1.00102 0.999573
1.00314 1 1.00403 0.999105
1.00357 1 1.00493 0.998646
0.977893 0.961374 1.01888 0.998331
1.02638 0.997192 1.03002 0.999273
1.01394 0.999794 1.0152 0.998968
1.01791 0.998985 1.01961 0.999344
0.988442 0.976964 1.01355 0.998224
0.998431 0.990716 1.00906 0.998738
0.864879 0.903891 0.979894 0.976473
0.928677 0.957195 0.983174 0.986812
0.917354 0.946452 0.977101 0.99197
0.999714 0.974873 1.0266 0.998914
0.922271 0.950428 0.977843 0.992362
0.922307 0.956594 0.979033 0.984806
0.929041 0.939796 1.00684 0.981838
0.824222 0.903607 0.934874 0.975689
0.8148 0.881806 0.949221 0.973443
0.974184 0.973955 1.00245 0.997786
0.842954 0.895006 0.963656 0.977363
0.828997 0.888124 0.955257 0.977145
0.920902 0.947254 0.982304 0.989694
0.929961 0.9558 0.990468 0.982329
0.964498 0.984433 0.980898 0.998829
0.846053 0.902141 0.959301 0.977615
0.948071 0.976184 0.987808 0.983188
0.933368 0.960032 0.982558 0.989485
1.01028 0.993465 1.01764 0.9993
0.991485 0.999835 0.99291 0.998731
0.989581 1.0027 0.988832 0.998065
1.00561 1.00109 1.00637 0.998162
1.00248 1.00241 1.00265 0.997426
1.00034 1.00336 0.999428 0.997562
1.00612 1.00059 1.00877 0.99678
0.99958 1.00113 1.00157 0.996883
1.01352 1.01607 1 0.997491
1.00354 1.00395 1.00312 0.996484
1.00675 1.00986 1 0.996915
1.01871 1.0212 1 0.997565
1.02426 1.02676 1 0.997569
1.02168 1.0247 1 0.99705
1.01865 1.02156 1 0.997152
1.01195 1.015 1 0.996995
1.01125 1.01447 1 0.996827
1.00557 1.00883 1 0.996777
1.00246 1.00493 1 0.997542
1.004 1.00669 1.00014 0.997194
1.00235 1.00409 1.00148 0.996796
0.998126 1.00003 1 0.998095
0.999511 1.0017 1 0.997818
0.998453 1.00065 1 0.997806
1.00013 1 1.00124 0.998888
0.999739 1 1.00141 0.99833
0.999694 1.00019 1.00145 0.998059
0.999948 1 1 0.999948
1.00027 1 1.00105 0.999214
1.00096 1 1.00235 0.998616
1 1 1 1
0.99998 1 1 0.99998
0.999776 1 1.00028 0.999497
1 1 1 1
0.999993 1 1 0.999993
1 1 1 1
0.998792 1 1.0001 0.99869
0.998938 1 1.00021 0.998732
0.999 1 1.00006 0.998938
0.999542 1 1 0.999542
0.999036 1 1 0.999036
0.998792 1 1 0.998792
0.999981 1 1 0.999981
0.999599 1 1 0.999599
0.99911 1 1 0.99911
1 1 1 1
0.999994 1 1 0.999994
0.999657 1 1 0.999657
1 1 1 1
1 1 1 1
1 1 1 1
0.849672 0.892946 0.97581 0.975126
0.921965 0.95744 0.976768 0.985851
0.90655 0.944369 0.969674 0.989976
0.99898 1 1.00034 0.998639
0.999227 1 1.00067 0.998558
1.00093 1 1.00239 0.998542
0.998779 1 1.00006 0.998719
0.998682 1 1 0.998682
0.999643 1 1.00101 0.998636
1.00214 1 1.00357 0.99858
1.00182 1 1.00333 0.998491
1.00282 1 1.00443 0.998398
0.997678 1 0.998654 0.999023
1.00043 1 1.00175 0.998676
1.00195 1 1.00312 0.998837
0.824949 0.884453 0.955391 0.976273
0.815756 0.877287 0.956899 0.971746
0.93221 0.963264 0.98761 0.979903
0.751991 0.856555 0.908352 0.966503
0.838405 0.905828 0.947917 0.976423
0.944166 0.951934 1.00962 0.982394
0.949445 0.955219 1.00345 0.990539
0.936816 0.954114 0.990457 0.991329
0.810697 0.880933 0.943353 0.975531
0.927709 0.943213 1.00191 0.981686
0.930565 0.956546 0.980622 0.992064
0.927029 0.956948 0.987276 0.98122
1.00683 1 1.00781 0.999028
1.0003 1 1.00079 0.999509
1.00271 1 1.0036 0.999109
0.987723 0.977633 1.01207 0.998269
1.01766 0.999912 1.01842 0.999344
0.998753 0.99145 1.00873 0.998643
0.98993 0.995164 0.996886 0.997848
0.846254 0.915993 0.944069 0.978599
0.868051 0.903728 0.982801 0.977331
0.927641 0.956353 0.981696 0.988064
0.974908 0.977382 0.999574 0.997893
0.920233 0.946879 0.98128 0.990399
0.843017 0.896204 0.962335 0.97747
0.925857 0.952186 0.99132 0.980863
0.834529 0.894581 0.954427 0.977415
0.968102 0.984391 0.985221 0.998205
0.851758 0.909803 0.957549 0.977704
0.947086 0.977067 0.987851 0.981237
0.940818 0.962854 0.985501 0.991489
0.975574 0.992593 0.984154 0.99868
0.951855 0.982548 0.986132 0.982385
0.955143 0.982592 0.97902 0.992896
0.984268 0.998429 0.98697 0.998831
0.988687 1.00359 0.987085 0.998041
0.983641 1.00703 0.978788 0.99794
1.00375 1.00278 1.00356 0.997416
0.999669 1.00347 0.998648 0.997557
1.01738 1.02309 0.99636 0.998051
0.999399 1.00071 1.0018 0.996895
1.01342 1.01609 0.999887 0.997479
1.02346 1.0263 0.999198 0.998031
1.006 1.0091 1 0.996923
1.01814 1.02062 1 0.997564
1.02486 1.02696 0.999999 0.997964
1.02212 1.02433 1 0.997845
1.02492 1.02736 1 0.997621
1.02419 1.02681 1 0.997447
1.02118 1.02413 1 0.997125
1.02218 1.0252 1 0.997057
1.01814 1.02102 1 0.997184
1.00924 1.01201 1 0.997267
1.01284 1.01586 1 0.99703
1.01036 1.01353 1 0.996872
0.998806 1.00095 1 0.997863
1.00292 1.0054 1 0.997535
1.00407 1.0067 1.00017 0.997219
0.998747 1 1.00009 0.998652
0.998271 1.00018 1 0.998094
1.00043 1.00262 1 0.997813
0.999837 1 1 0.999837
0.999806 1 1.00092 0.998888
0.999744 1 1.00142 0.998331
1 1 1 1
0.999928 1 1 0.999928
1.00014 1 1.00093 0.99921
1 1 1 1
0.999973 1 1 0.999973
1 1 1 1
0.998625 1 1 0.998625
0.998863 1 1.00018 0.998687
0.998948 1 1.00011 0.998833
0.998926 1 1.0002 0.99873
0.998999 1 1.00006 0.998938
0.999461 1 1 0.999461
0.999971 1 1 0.999971
0.999544 1 1 0.999544
0.999036 1 1 0.999036
1 1 1 1
0.999984 1 1 0.999984
0.999601 1 1 0.999601
1 1 1 1
0.999997 1 1 0.999997
1 1 1 1
0.853477 0.905982 0.963442 0.977792
0.852663 0.897422 0.974515 0.974972
0.920249 0.955836 0.976586 0.985851
0.999147 1 1.00052 0.998623
1.00129 1 1.00281 0.998481
0.99886 1 1.00025 0.998606
0.998183 1 1 0.998183
1.00091 1 1.00245 0.99846
1.00207 1 1.0035 0.998573
1.00116 1 1.00267 0.998499
1.00281 1 1.00438 0.998437
0.998256 1 1 0.998256
0.995393 1.00065 0.995942 0.9988
0.998182 1.00035 0.999905 0.997926
0.99917 1 1.00009 0.999077
1.00137 1 1.00257 0.998811
0.941908 0.974704 0.984338 0.981729
0.827511 0.882605 0.960049 0.976593
0.816664 0.880326 0.954622 0.97178
0.808463 0.882049 0.940056 0.975021
0.934846 0.948295 1.0056 0.980331
0.939712 0.951552 0.99423 0.993288
0.931972 0.955178 0.982239 0.993348
0.934556 0.958641 0.99168 0.983055
0.957282 0.98234 0.981978 0.992375
0.999741 1.00132 1.0002 0.998225
1.00566 1 1.00666 0.999006
0.999898 1 1.00045 0.999445
0.99995 0.993393 1.00804 0.998571
0.995447 0.999245 0.998389 0.997807
0.928976 0.97255 0.971784 0.982931
0.855972 0.915026 0.956049 0.978467
0.872195 0.903533 0.986825 0.978204
0.97225 0.985797 0.988678 0.997552
0.937057 0.959499 0.986863 0.989612
0.852639 0.907232 0.961461 0.977496
0.945583 0.972744 0.988978 0.982912
0.97805 0.99246 0.986746 0.998717
0.955674 0.987505 0.983946 0.983556
0.955438 0.981883 0.981995 0.990908
0.99565 1.00449 0.993061 0.998125
0.974604 0.995448 0.983897 0.995084
0.988527 1.00465 0.985902 0.998026
0.984921 1.00642 0.980703 0.997891
1.00535 1.02893 0.978937 0.998113
0.999246 1.00358 0.998123 0.997553
1.01713 1.02286 0.996356 0.998036
1.02509 1.03452 0.992603 0.998266
1.01336 1.01621 0.999733 0.997466
1.0231 1.02647 0.998708 0.998013
1.02154 1.02595 0.997515 0.998181
1.01774 1.02023 1 0.997563
1.02514 1.02735 0.999906 0.997947
1.02404 1.0261 0.999985 0.998008
1.02271 1.02487 1 0.997892
1.0218 1.02418 1 0.997673
1.02553 1.02792 1 0.997674
1.02413 1.02676 1 0.997439
1.0241 1.02686 1 0.997317
1.01664 1.01947 1 0.997228
1.02106 1.02401 1 0.997115
1.02263 1.02564 1 0.997064
1.00227 1.00463 1 0.997654
1.00857 1.01132 1 0.997287
1.01369 1.01667 1 0.997064
0.998469 1 1 0.998469
0.999738 1.00188 1 0.997858
1.00309 1.00557 1 0.997529
0.999675 1 1 0.999675
0.998703 1 1.00005 0.998653
0.99843 1.00034 1 0.998092
1 1 1 1
0.999849 1 1.00004 0.999813
0.999575 1 1.00069 0.998889
1 1 1 1
0.999979 1 1.00007 0.999908
1 1 1 1
0.999493 1.0013 1 0.998199
0.998623 1 1 0.998623
0.998888 1 1.0002 0.998691
0.998993 1 1.00031 0.998683
0.998995 1 1.00018 0.998812
0.99932 1 1 0.99932
0.99905 1 1.00011 0.998937
0.999464 1 1 0.999464
0.999959 1 1 0.999959
1 1 1 1
0.999974 1 1 0.999974
0.999546 1 1 0.999546
1 1 1 1
0.999988 1 1 0.999988
1 1 1 1
0.950865 0.983545 0.982456 0.984038
0.847442 0.909307 0.952644 0.978292
0.862896 0.903483 0.979977 0.974591
1.00182 1 1.00341 0.99842
0.998654 1 1 0.998654
1.00063 1 1.00217 0.998462
0.99852 1.00031 1 0.998206
1.00326 1.00549 1.00002 0.997768
0.998292 1 1 0.998292
1.00298 1 1.00451 0.998476
0.99813 1 1 0.99813
0.997143 1.00042 0.997949 0.998768
0.998546 1.00058 0.999863 0.998102
0.997553 1.00303 0.99643 0.998105
0.99777 1.00129 0.998942 0.997542
0.997608 1.00082 0.99873 0.998059
1.00067 1 1.00154 0.99913
0.955938 0.984341 0.978451 0.992533
0.944769 0.976058 0.985273 0.982411
0.823169 0.883558 0.95327 0.977322
0.946948 0.96508 1.00035 0.980871
0.932413 0.953916 0.983128 0.994233
0.961345 0.982773 0.983316 0.994795
0.992664 1.00377 0.990861 0.99806
0.997649 1.00067 0.99872 0.998259
1.00461 1 1.00563 0.998984
0.995809 1.00112 0.996939 0.997748
0.959562 0.979333 0.987121 0.992595
0.942053 0.977047 0.979055 0.984811
0.846006 0.909344 0.951049 0.978233
0.980372 0.99271 0.988807 0.99875
0.959492 0.984434 0.982179 0.992347
0.959982 0.987101 0.987612 0.984726
0.98907 1.00356 0.987397 0.998142
0.971801 0.992762 0.984383 0.994417
0.99407 1.02412 0.972668 0.997936
1.00519 1.01562 0.992265 0.997448
0.98576 1.00577 0.982232 0.997837
1.00454 1.02803 0.979006 0.998105
1.0092 1.03855 0.973538 0.998155
1.01714 1.02304 0.996203 0.99802
1.02485 1.03439 0.992512 0.99825
1.01723 1.02791 0.991473 0.998128
1.02274 1.02656 0.998275 0.997995
1.02083 1.02537 0.997404 0.998164
1.02428 1.02866 0.997756 0.997977
1.02537 1.02769 0.999808 0.997929
1.02306 1.02523 0.999873 0.998002
1.02236 1.02468 0.999999 0.997737
1.0233 1.02541 1 0.997939
1.0219 1.02424 1 0.997711
1.02393 1.02656 1 0.997432
1.02414 1.02678 1 0.997432
1.02403 1.0268 1 0.997308
1.02023 1.02296 1 0.997332
1.00681 1.00933 1 0.997507
1.01634 1.01914 1 0.997245
1.02089 1.02386 1 0.997106
0.99851 1.00022 1 0.998291
1.00319 1.00555 1 0.997655
1.00815 1.01087 1 0.997307
0.999513 1 1 0.999513
0.998482 1.00001 1 0.998468
1.00067 1.00282 1 0.997854
1 1 1 1
0.999659 1 1 0.999659
0.998653 1 1 0.998653
1 1 1 1
0.99979 1 1 0.99979
1 1 1 1
1.00219 1.00437 1 0.997831
0.998899 1.00069 1 0.998212
0.998524 1.00005 1.00007 0.998405
0.99862 1 1 0.99862
0.998838 1 1.00017 0.998666
0.999122 1 1 0.999122
0.999004 1 1.00021 0.998791
0.999322 1 1 0.999322
0.999936 1 1 0.999936
0.999466 1 1 0.999466
0.999963 1 1 0.999963
1 1 1 1
1 1 1 1
0.999977 1 1 0.999977
1 1 1 1
0.95651 0.983084 0.979849 0.992977
0.945902 0.983602 0.97872 0.982581
0.840856 0.904172 0.950679 0.97822
1.01026 1.01278 1.00007 0.997449
1.00021 1 1.00175 0.998465
0.998921 1.00069 1 0.99823
0.998256 1 1 0.998256
1.00287 1.005 1.00012 0.997756
1.00059 1.00246 1 0.998129
0.998004 1 1 0.998004
0.998734 1.00023 0.999762 0.998737
0.998503 1.00078 0.999585 0.998138
0.995544 1.0021 0.995381 0.998064
1.00139 1.00403 0.999913 0.997453
1.00253 1.006 0.999032 0.997522
0.998676 1.00195 0.999232 0.997495
0.997079 1.00134 0.997552 0.998192
0.993277 1.00617 0.9886 0.998568
0.954333 0.984616 0.977493 0.991562
0.94816 0.977645 0.986177 0.983435
0.954392 0.978563 0.98209 0.993085
0.996315 1.0058 0.992072 0.998486
0.998467 1.0002 0.999977 0.99829
0.994874 1.00668 0.990787 0.997459
0.953229 0.970873 0.987845 0.993907
0.932589 0.975701 0.972309 0.983035
0.982478 1.00191 0.982416 0.998156
0.976441 0.994218 0.988478 0.993567
0.996017 1.0252 0.973497 0.997986
1.00418 1.01446 0.992234 0.997607
1.00367 1.03318 0.973422 0.997964
1.02765 1.0339 0.996091 0.997858
1.00351 1.02665 0.979325 0.998098
1.0119 1.0398 0.974975 0.99815
1.01007 1.03398 0.978845 0.997988
1.02416 1.03381 0.992421 0.998235
1.01725 1.02784 0.991554 0.998124
1.02304 1.03121 0.994202 0.997866
1.02009 1.02476 0.997281 0.998148
1.02393 1.02814 0.997917 0.99799
1.02527 1.0279 0.999772 0.997671
1.02208 1.02436 0.99978 0.997997
1.02267 1.02499 1 0.997736
1.02566 1.02827 1 0.997459
1.02195 1.02425 1 0.99775
1.02401 1.02662 1 0.997459
1.0221 1.02485 1 0.997322
1.02394 1.02671 1 0.997299
1.02003 1.02278 1 0.997311
1.01015 1.01269 1 0.997496
0.999375 1.00121 1 0.998167
1.0068 1.00929 1 0.997532
1.01599 1.01878 1 0.997262
0.999376 1 1 0.999376
0.998747 1.00046 1 0.998291
1.00406 1.00642 1 0.997656
1 1 1 1
0.9995 1 1 0.9995
0.99849 1.00002 1 0.998467
1 1 1 1
0.999643 1 1 0.999643
1 1 1 1
1.005 1.0075 1 0.997511
1.00174 1.00391 1 0.997837
0.999805 1.00171 1 0.998101
0.998271 1.00004 1.00001 0.998226
0.998479 1 1.00007 0.998411
0.999202 1 1.00031 0.998894
0.998766 1 1.00013 0.998641
0.999182 1 1.00006 0.999122
0.999886 1 1 0.999886
0.999324 1 1 0.999324
0.999943 1 1 0.999943
1 1 1 1
0.999966 1 1 0.999966
1 1 1 1
1 1 1 1
0.994775 1.01057 0.985847 0.998507
0.950745 0.980754 0.978108 0.9911
0.943421 0.975403 0.982582 0.984357
1.00792 1.01023 1.00001 0.9977
1.01644 1.01917 1 0.997322
1.00863 1.01103 1.00013 0.997495
0.99822 1 1 0.99822
1.00238 1.0044 1.00024 0.997743
1.00147 1.0034 1 0.998076
1.00994 1.01248 1 0.997495
0.998408 1.00095 0.999286 0.998174
0.993456 1.00104 0.994391 0.998023
1.00216 1.00508 0.999567 0.997519
1.01241 1.01555 0.999691 0.997215
1.00993 1.01905 0.99321 0.997827
1.00309 1.00664 0.998971 0.997494
0.99935 1.00262 0.999284 0.997448
0.997507 1.0084 0.990476 0.99871
0.957837 0.985505 0.981298 0.990449
0.996661 1.0069 0.990896 0.998924
1.01548 1.02599 0.991292 0.998446
0.993953 1.00539 0.991049 0.997552
0.954155 0.97704 0.984366 0.992087
0.998535 1.02658 0.974595 0.998033
1.00241 1.01362 0.991143 0.997773
1.00323 1.03345 0.972664 0.998041
1.029 1.03585 0.995516 0.997867
1.02454 1.04013 0.987124 0.997862
1.04279 1.05058 0.994597 0.997977
1.01484 1.04176 0.975963 0.998146
1.01227 1.03384 0.981109 0.997991
1.02607 1.03813 0.99059 0.997771
1.01751 1.02792 0.991734 0.998121
1.02321 1.0307 0.994856 0.997863
1.02874 1.03304 0.998202 0.997634
1.02355 1.02759 0.998068 0.998002
1.02564 1.0282 0.999837 0.997669
1.02829 1.03096 1 0.997418
1.02298 1.0253 1 0.997736
1.02546 1.02808 1 0.99746
1.02465 1.02743 1 0.997288
1.02412 1.0267 1 0.997486
1.02185 1.02459 1 0.99733
1.01195 1.01454 1 0.997446
1.01985 1.02263 1 0.997289
1.00999 1.01253 1 0.997486
1.00054 1.00245 1 0.998094
0.999301 1 1 0.999301
0.999731 1.00157 1 0.998166
1.00684 1.0093 1 0.997557
1 1 1 1
0.999365 1 1 0.999365
0.999001 1.00071 1 0.99829
1 1 1 1
0.999488 1 1 0.999488
1 1 1 1
1.01014 1.01286 1 0.997307
1.00537 1.0079 1 0.997487
1.00274 1.00495 1 0.997802
1.00123 1.00339 1 0.997842
0.99936 1.00126 1 0.998106
0.9988 1 1.00015 0.998647
0.998489 1 1.00007 0.998416
0.999214 1 1.00032 0.998895
0.999876 1 1.0001 0.999778
0.999122 1 1 0.999122
0.9999 1 1 0.9999
1 1 1 1
0.999951 1 1 0.999951
1 1 1 1
1 1 1 1
1.00861 1.02532 0.985392 0.998295
0.992258 1.00952 0.984809 0.998061
0.949067 0.981815 0.974551 0.991888
1.0176 1.02024 1 0.997416
1.00858 1.01074 1 0.997868
1.02863 1.03144 1 0.997271
1.01697 1.01971 1 0.997307
1.00718 1.00948 1.00018 0.997542
1.02473 1.02761 1 0.997192
1.00243 1.00441 1 0.998024
1.00869 1.01128 1 0.997436
1.02918 1.03511 0.996863 0.9974
1.00283 1.00601 0.99925 0.997585
1.01367 1.01676 0.999784 0.99718
1.00974 1.01892 0.993133 0.997846
1.00308 1.00641 0.999228 0.997464
1.00167 1.01029 0.99261 0.998851
1.03335 1.04518 0.990616 0.998046
1.01547 1.02601 0.991262 0.998452
0.99429 1.00409 0.992584 0.997639
1.00303 1.03317 0.972656 0.998118
1.0293 1.03697 0.994712 0.997876
1.02266 1.04013 0.985293 0.997879
1.04294 1.05163 0.993749 0.997977
1.03766 1.04854 0.991733 0.997875
1.01411 1.0334 0.983313 0.997994
1.02596 1.03765 0.99093 0.997779
1.03116 1.03892 0.994869 0.997648
1.02328 1.03019 0.995423 0.997861
1.02836 1.03239 0.998472 0.997615
1.03059 1.03332 0.999979 0.997373
1.02608 1.02859 0.999899 0.997667
1.02816 1.03083 1 0.997416
1.02788 1.03073 1 0.997233
1.02527 1.02788 1 0.99746
1.02459 1.02737 1 0.997291
1.01411 1.01679 1 0.997365
1.02161 1.02433 1 0.997338
1.01209 1.01468 1 0.99745
1.0013 1.00329 1 0.998017
1.0098 1.01235 1 0.997476
1.00075 1.00266 1 0.998092
0.99939 1 1 0.99939
0.999802 1 1 0.999802
0.999344 1 1 0.999344
1.00007 1.00191 1 0.998165
1 1 1 1
0.999354 1 1 0.999354
1 1 1 1
1.0353 1.03808 1 0.997324
1.02094 1.02371 1 0.997297
1.01123 1.01397 1 0.997296
1.006 1.0084 1 0.99762
1.00579 1.00835 1 0.997462
1.00186 1.00406 1 0.997805
0.998613 1.00019 1 0.998423
0.998913 1.0008 1 0.998112
0.998959 1 1.00031 0.998651
0.999607 1 1 0.999607
0.999327 1 1.00043 0.998897
0.999798 1 1 0.999798
1 1 1 1
0.999914 1 1 0.999914
1 1 1 1
1 1 1 1
1.03192 1.04359 0.991004 0.997798
1.01236 1.029 0.985429 0.998375
0.989983 1.00962 0.982892 0.997619
1.0283 1.03116 1 0.997228
1.01705 1.01962 1 0.997481
1.009 1.01099 1 0.998032
1.02791 1.0307 1 0.99729
1.01748 1.02024 1 0.997293
1.03633 1.04067 0.998455 0.997377
1.02195 1.02487 1 0.997152
1.00754 1.01019 1 0.997376
1.0286 1.03447 0.99693 0.997394
1.01604 1.01913 0.999818 0.997144
1.01179 1.02144 0.992668 0.997871
1.03862 1.04905 0.992079 0.997968
1.03521 1.04639 0.991233 0.998063
1.01582 1.02608 0.991526 0.99846
1.02171 1.04099 0.983549 0.997895
1.0439 1.05336 0.993031 0.997977
1.03787 1.04944 0.991071 0.997886
1.03397 1.04174 0.994808 0.99772
1.02576 1.03705 0.991307 0.997788
1.03079 1.03826 0.995155 0.997638
1.03303 1.03614 0.999609 0.997388
1.02794 1.03169 0.998765 0.997596
1.03141 1.03414 0.999979 0.997373
1.03083 1.03374 1 0.997185
1.02799 1.03065 1 0.997415
1.02797 1.03082 1 0.997234
1.01631 1.01908 1 0.997277
1.02453 1.02731 1 0.997293
1.01438 1.01706 1 0.997367
1.00193 1.00402 1 0.997918
1.01223 1.01481 1 0.997453
1.00148 1.00347 1 0.998016
0.999392 1 1 0.999392
1.00096 1.00287 1 0.99809
0.999385 1 1 0.999385
0.999815 1 1 0.999815
0.999904 1 1 0.999904
0.999389 1 1 0.999389
1 1 1 1
1.03279 1.03566 1 0.997233
1.02665 1.0294 1 0.997331
1.03486 1.03752 1 0.99743
1.01074 1.01327 1 0.997501
1.02254 1.02532 1 0.997288
1.01241 1.01516 1 0.997284
1.00535 1.00775 1 0.997617
0.999811 1.00157 1 0.998242
1.00093 1.00312 1 0.997808
0.998517 1.00009 1 0.998424
0.999435 1 1 0.999435
0.99914 1 1.00049 0.998654
0.999674 1 1.00005 0.999626
1 1 1 1
0.999817 1 1 0.999817
1 1 1 1
1 1 1 1
1.03685 1.04491 0.994587 0.997682
1.03143 1.04301 0.991089 0.997795
1.0145 1.031 0.985522 0.998449
1.03586 1.03889 0.999786 0.997294
1.0269 1.02975 1 0.997231
1.01665 1.01915 1 0.997546
1.02704 1.02981 1 0.997309
1.0356 1.03997 0.998439 0.997355
1.01913 1.02208 1 0.997112
1.02615 1.03186 0.997077 0.997388
1.03577 1.04386 0.994459 0.997782
1.03794 1.04799 0.992465 0.99793
1.03694 1.04746 0.991865 0.99808
1.03389 1.03986 0.996643 0.997608
1.0378 1.05008 0.990393 0.997897
1.03376 1.04164 0.994713 0.997708
1.03447 1.03803 0.999085 0.997481
1.03047 1.03766 0.995433 0.997628
1.03386 1.03704 0.99954 0.997391
1.03193 1.03487 1 0.997165
1.03222 1.03496 0.99998 0.997373
1.03048 1.03339 1 0.997186
1.01808 1.02093 1 0.997207
1.02802 1.03087 1 0.997235
1.01654 1.01932 1 0.997278
1.00246 1.00465 1 0.997817
1.01463 1.01731 1 0.997369
1.0021 1.00419 1 0.997917
0.999369 1 1 0.999369
1.00167 1.00367 1 0.998014
0.999384 1 1 0.999384
0.999819 1 1 0.999819
0.999383 1 1 0.999383
0.999818 1 1 0.999818
1 1 1 1
1.03312 1.03609 1 0.997135
1.02774 1.03062 1 0.997202
1.0337 1.03655 1 0.997246
1.01447 1.01703 1 0.997491
1.02711 1.02985 1 0.997342
1.03451 1.03707 1 0.997535
1.00166 1.00358 1 0.998088
1.0107 1.01324 1 0.997495
1.02424 1.02704 1 0.997278
1.00461 1.00701 1 0.997615
0.999278 1.00104 1 0.998244
0.999322 1 1 0.999322
0.998436 1.00001 1 0.998426
0.999448 1 1 0.999448
1 1 1 1
0.999644 1 1 0.999644
1 1 1 1
1 1 1 1
1.03656 1.0412 0.997998 0.997536
1.03681 1.04532 0.994177 0.997667
1.03183 1.04342 0.991086 0.997791
1.03526 1.03823 0.999838 0.997306
1.02542 1.02827 1 0.997233
1.03496 1.03937 0.998418 0.997333
1.0346 1.04052 0.996688 0.997613
1.03616 1.04391 0.994793 0.997775
1.03734 1.04706 0.992815 0.997891
1.03441 1.04032 0.996678 0.997629
1.03534 1.03883 0.999222 0.997422
1.03354 1.04154 0.994613 0.997695
1.03455 1.03812 0.999117 0.997442
1.03208 1.03495 1 0.997225
1.03458 1.03783 0.99947 0.997393
1.03165 1.03458 1 0.997168
1.01933 1.02224 1 0.997154
1.03027 1.03318 1 0.997188
1.01845 1.0213 1 0.997207
1.00285 1.00512 1 0.99774
1.01688 1.01966 1 0.997279
1.0026 1.00479 1 0.997817
0.999319 1 1 0.999319
1.00228 1.00437 1 0.997915
0.999356 1 1 0.999356
0.999803 1 1 0.999803
0.999378 1 1 0.999378
0.999828 1 1 0.999828
0.999819 1 1 0.999819
1.03517 1.03793 1 0.997344
1.02998 1.033 1 0.997077
1.03378 1.03673 1 0.997155
1.01703 1.01973 1 0.997353
1.02728 1.03016 1 0.997201
1.03456 1.0374 1 0.99726
1.00259 1.00463 1 0.997975
1.01455 1.01715 1 0.997446
1.02742 1.03015 1 0.997354
0.99927 1 1 0.99927
1.00112 1.00304 1 0.998091
1.01075 1.01329 1 0.997489
0.998749 1.0005 1 0.998245
0.999332 1 1 0.999332
1 1 1 1
0.999462 1 1 0.999462
1 1 1 1
1 1 1 1
1.03393 1.03816 0.998409 0.997509
1.03566 1.04064 0.997673 0.997532
1.03667 1.0456 0.993798 0.997652
1.03462 1.03753 0.999884 0.997317
1.03455 1.03778 0.9995 0.997384
1.03526 1.04116 0.996708 0.997623
1.03653 1.0439 0.995162 0.997767
1.03493 1.04081 0.996696 0.997649
1.03472 1.0384 0.999023 0.997433
1.0325 1.03537 1 0.997234
1.03473 1.03832 0.999135 0.997404
1.03197 1.03487 0.999999 0.997198
1.02005 1.02298 1 0.997145
1.03137 1.0343 1 0.997171
1.0196 1.02251 1 0.997156
1.00297 1.0053 1 0.997675
1.01864 1.02149 1 0.997208
1.00289 1.00516 1 0.99774
0.999161 1 1 0.999161
1.00269 1.00489 1 0.997816
0.999259 1 1 0.999259
1 1 1 1
0.999345 1 1 0.999345
0.999817 1 1 0.999817
0.999833 1 1 0.999833
1.03387 1.03663 0.999914 0.997417
1.03113 1.03407 1 0.997161
1.03472 1.03748 1 0.997339
1.01937 1.02226 1 0.997176
1.02985 1.03284 1 0.997099
1.03452 1.03745 1 0.997174
1.00323 1.00546 1 0.997785
1.01716 1.01986 1 0.997353
1.0269 1.02978 1 0.997201
0.999252 1 1 0.999252
1.00239 1.00447 1 0.997931
1.01464 1.01728 1 0.997401
1 1 1 1
0.999281 1 1 0.999281
1.00055 1.00246 1 0.998094
0.999343 1 1 0.999343
1 1 1 1
1 1 1 1
1.03318 1.03619 0.999692 0.997398
1.03454 1.03873 0.998446 0.997516
1.03473 1.04006 0.997335 0.997527
1.03211 1.03503 1 0.997177
1.03376 1.0371 0.999383 0.997394
1.03587 1.04173 0.99673 0.997633
1.03414 1.03797 0.998861 0.997444
1.03245 1.03535 0.999968 0.997235
1.01927 1.02212 1 0.997205
1.03174 1.03467 1 0.997171
1.02 1.0229 1 0.997169
1.00289 1.00536 1 0.997549
1.01995 1.02285 1 0.997159
1.003 1.00534 1 0.997675
0.99911 1 1 0.99911
1.00298 1.00525 1 0.99774
0.999158 1 1 0.999158
1 1 1 1
0.999189 1 1 0.999189
0.999895 1 1 0.999895
0.999829 1 1 0.999829
1.03143 1.03432 0.999835 0.997374
1.03111 1.03399 1 0.997213
1.03381 1.03653 0.999947 0.997422
1.02016 1.02305 1 0.997178
1.03172 1.03466 1 0.99715
1.0343 1.03706 1 0.997335
1.00378 1.00612 1 0.997681
1.0193 1.02214 1 0.997217
1.02966 1.03264 1 0.99712
0.999226 1 1 0.999226
1.0032 1.00544 1 0.997771
1.01729 1.01999 1 0.997352
1 1 1 1
0.999261 1 1 0.999261
1.00221 1.00434 1 0.997888
1 1 1 1
0.999292 1 1 0.999292
1 1 1 1
1.03257 1.03545 1 0.997225
1.03253 1.03558 0.999674 0.997385
1.0352 1.03936 0.998467 0.997523
1.01827 1.02113 1 0.997195
1.03218 1.0351 0.999988 0.997197
1.03305 1.03649 0.999275 0.997405
1.03238 1.03533 0.999921 0.997235
1.01932 1.02218 1 0.997204
1.00232 1.00482 1 0.997517
1.01998 1.02285 1 0.997194
1.00286 1.00529 1 0.997584
0.999048 1 1 0.999048
1.00299 1.00532 1 0.997676
0.999107 1 1 0.999107
1 1 1 1
0.999155 1 1 0.999155
1 1 1 1
0.999809 1 1 0.999809
1.03153 1.03439 1 0.997237
1.03119 1.034 0.99989 0.997392
1.01967 1.02254 1 0.997195
1.03137 1.03425 1 0.997212
1.03376 1.03644 0.999989 0.997427
1.00348 1.00579 1 0.997707
1.01988 1.02277 1 0.997175
1.03227 1.03523 1 0.997139
0.999178 1 1 0.999178
1.0039 1.0062 1 0.997711
1.0192 1.02201 1 0.997258
1 1 1 1
0.999232 1 1 0.999232
1.00316 1.00542 1 0.997757
1 1 1 1
0.99927 1 1 0.99927
1 1 1 1
1.01839 1.02122 1 0.99723
1.03242 1.0353 1 0.997215
1.03182 1.03489 0.999666 0.997373
1.00145 1.00394 1 0.997522
1.01832 1.02118 1 0.997195
1.03221 1.03514 0.999955 0.997216
1.01938 1.02223 1 0.997203
1.00233 1.00482 1 0.997518
0.999004 1 1 0.999004
1.00285 1.00525 1 0.997618
0.999045 1 1 0.999045
1 1 1 1
0.999104 1 1 0.999104
1 1 1 1
1 1 1 1
1.01913 1.022 1 0.997197
1.03131 1.03415 1 0.997259
1.03091 1.03365 0.999941 0.99741
1.00278 1.0051 1 0.997688
1.01954 1.02241 1 0.997192
1.03161 1.0345 1 0.997211
0.999127 1 1 0.999127
1.00367 1.00597 1 0.997705
1.01965 1.02254 1 0.997172
1 1 1 1
0.999182 1 1 0.999182
1.00401 1.00628 1 0.997741
1 1 1 1
0.999238 1 1 0.999238
1 1 1 1
1.00116 1.00355 1 0.997612
1.01829 1.02116 1 0.997194
1.03228 1.03517 1 0.997206
0.999006 1 1 0.999006
1.00149 1.00398 1 0.99752
1.01837 1.02124 1 0.997195
1.00233 1.00482 1 0.99752
0.999003 1 1 0.999003
1 1 1 1
0.999041 1 1 0.999041
1 1 1 1
1 1 1 1
1.00182 1.00417 1 0.997655
1.01882 1.02168 1 0.997199
1.03112 1.03393 1 0.99728
0.999226 1 1 0.999226
1.00301 1.00534 1 0.997686
1.01941 1.02228 1 0.997189
1 1 1 1
0.999129 1 1 0.999129
1.00383 1.00614 1 0.997703
1 1 1 1
0.999185 1 1 0.999185
1 1 1 1
0.999004 1 1 0.999004
1.0013 1.00373 1 0.997581
1.01821 1.02111 1 0.997158
1 1 1 1
0.999005 1 1 0.999005
1.00153 1.00402 1 0.997518
0.999002 1 1 0.999002
1 1 1 1
1 1 1 1
0.999179 1 1 0.999179
1.00211 1.00447 1 0.997655
1.01846 1.02131 1 0.997202
1 1 1 1
0.99909 1 1 0.99909
1.00326 1.00559 1 0.997684
1 1 1 1
0.99913 1 1 0.99913
1 1 1 1
0.999732 1 1 0.999732
0.999094 1 1 0.999094
1.00143 1.00389 1 0.99755
1 1 1 1
0.999006 1 1 0.999006
1 1 1 1
0.999748 1 1 0.999748
0.999121 1 1 0.999121
1.00243 1.00479 1 0.997656
0.999876 1 1 0.999876
0.999089 1 1 0.999089
1 1 1 1
1 1 1 1
0.999028 1 1 0.999028
1 1 1 1
0.999871 1 1 0.999871
0.999057 1 1 0.999057
1 1 1 1
1 1 1 1
1 1 1 1

VECTORS lamdaE float
1.00053 1.00013 0.994675
1.00028 1.00052 0.997432
1.00017 1.00035 0.994892
1.00077 0.99996 0.994497
1.00063 0.99995 0.994724
1.00048 1.00033 0.994517
1.00182 1.00048 0.991789
1.0003 1.00043 0.997437
1.00021 1.0002 0.997775
0.999772 1.00081 0.997802
1.0003 1.00044 0.994673
1.00162 1.00125 0.990711
1.00053 0.999998 0.99468
1.00027 0.999996 0.994895
0.999843 1.00057 0.995082
1.00051 0.99994 0.994758
1.00009 1.00067 0.994709
1.00033 1.00002 0.994955
1.00201 1.00029 0.991694
1.00055 1.00001 0.997393
1.00077 1.00002 0.994425
1.00072 0.9999 0.994643
1.00212 1.00003 0.991737
1.00199 1.00012 0.991861
1.00049 1.00037 0.994417
1.0016 1.00101 0.991602
1.00454 1.0003 0.98735
1.0003 1.00038 0.997458
1.00038 1.00009 0.996218
1.00004 1.00059 0.99622
1.00028 1.00026 0.997525
1.00151 1.0014 0.990715
1.00067 0.999838 0.994587
1.00038 1.00033 0.994676
1.00227 1.00013 0.992116
0.999737 0.999931 0.998141
1.00194 1.00083 0.992055
1.00131 1.00168 0.990783
1.00376 1.00155 0.986699
0.999828 0.998673 0.998547
1.00055 1 0.997378
1.00045 1.00001 0.996126
1.0005 0.999989 0.997408
1.00018 1.00004 0.995003
1.00218 0.999996 0.990999
1.00037 0.999964 0.99769
1.00241 1.00008 0.991965
1.00024 0.999878 0.99502
1.00005 1.00007 0.995173
0.9997 1.00105 0.994883
1.00218 1.00011 0.991613
1.0004 1.00003 0.996172
1.00049 1.00002 0.994692
1.00007 1.00079 0.994591
1.00046 0.999884 0.99489
1.00223 0.999992 0.991623
1.00183 1.00076 0.991512
1.00213 1.00002 0.991764
1.00451 1.00033 0.987353
1.00048 1 0.997418
1.00068 1.00004 0.994523
1.00199 1 0.992562
1.00211 1.00006 0.991715
1.00208 0.999998 0.991825
1.00457 1.00003 0.987469
1.00458 1.00002 0.98732
1.00031 1.00007 0.994781
1.00115 1.00182 0.991503
1.00439 1.00066 0.987242
1.00522 1.00022 0.985504
1.00058 1.00012 0.997425
1.00019 1.00008 0.997687
1.00031 1.00044 0.997434
1.00143 1.0015 0.990712
1.0007 0.999969 0.997373
1.00046 1.00031 0.997444
1.00215 1.00009 0.99086
0.999902 0.9999 0.996736
1.00172 1.00089 0.990808
1.0012 1.0018 0.991579
1.00383 1.00144 0.9867
1.00003 0.999219 0.998157
0.999833 1.00093 0.994213
1.00235 0.999971 0.990703
1.00209 1.00033 0.990836
1.00462 1.00021 0.986557
1.00076 1.00192 0.99296
1.00419 1.00085 0.986669
1.00286 1.00303 0.9868
1.00488 1.00122 0.98507
0.999703 0.998151 0.998852
0.999714 0.998569 0.998677
1.00068 0.99999 0.997333
1.00059 0.999998 0.997371
1.00053 0.999992 0.997407
1.00039 1.00001 0.996192
1.00222 0.999983 0.991649
1.00052 0.999972 0.996116
1.00234 1.00009 0.991347
1.00051 0.999993 0.997419
1.00207 0.999922 0.991215
1.00234 1.00007 0.992101
1.00458 0.999626 0.987258
1.00239 1 0.99201
1.00467 0.999844 0.986895
1.00051 1.00001 0.99472
1.0002 1.00003 0.994964
0.999653 1.00124 0.994767
1.00019 0.999843 0.995133
1.00234 0.999994 0.991509
1.00227 0.999931 0.991673
1.00206 1.00047 0.991429
1.00449 1.00037 0.987356
1.00052 0.999995 0.997417
1.0004 1.00004 0.99479
1.00213 0.999978 0.991463
1.00222 1.00004 0.99159
1.00014 1.00044 0.99615
1.00146 1.00161 0.991645
1.0022 0.999943 0.991721
1.00459 0.999992 0.987432
1.00436 1.00071 0.987247
1.00457 1.00011 0.987356
1.00521 1.00022 0.985529
1.00206 0.999958 0.99123
1.00203 1.00003 0.991849
1.0045 0.999591 0.987885
1.00457 0.999867 0.987495
1.00459 0.999934 0.987385
1.00523 0.999489 0.986486
0.999924 0.99997 0.997953
1.00523 0.999914 0.985804
1.00067 1.00248 0.990931
1.0039 1.00131 0.986677
1.00518 1.00063 0.985219
1.00521 0.999589 0.986123
0.999934 1.0022 0.992497
1.00047 1.00482 0.989055
1.00068 0.999996 0.997392
1.00042 1.00031 0.997439
1.00216 1.00007 0.990854
1.00001 0.999603 0.998052
1.0009 1.00212 0.990957
1.00169 1.00091 0.990826
1.00389 1.00133 0.986702
0.999904 0.999145 0.998306
0.999803 1.00082 0.994266
1.00236 1 0.991385
1.00209 1.00036 0.991474
1.00462 1.00022 0.986545
1.00047 1.00204 0.991889
1.00421 1.00081 0.986675
1.00291 1.00296 0.986785
1.00495 1.00112 0.985025
1.0001 1.00167 0.993006
0.999816 1 0.995133
1.00052 1.0041 0.99
1.00468 1.00007 0.986614
1.00447 1.00045 0.986566
1.00523 1.00005 0.985675
1.00182 1.00429 0.987379
1.00504 1.00075 0.985209
1.00443 1.00214 0.985019
1.00512 1.0012 0.984674
0.999698 0.997776 0.999016
0.999662 0.998064 0.998922
0.999645 0.998427 0.998786
0.999868 1.00149 0.993379
0.999767 0.999523 0.998252
1.00072 0.999972 0.997348
1.00061 0.999999 0.997345
1.00224 1.00011 0.99075
1.00212 0.999983 0.991064
1.00051 0.999994 0.997404
1.00048 0.999993 0.997416
1.00206 0.999931 0.99121
1.00227 1.00006 0.991482
1.00457 0.999625 0.987258
1.00228 1.00004 0.990711
1.00466 0.999844 0.98689
1.00203 0.999928 0.99126
1.00454 0.999565 0.987386
1.00463 0.999716 0.987084
1.00523 0.998529 0.987331
1.00469 0.999965 0.98673
1.00526 0.999035 0.986768
1.00049 0.999993 0.997413
1.00012 1.00006 0.995058
1.00214 0.999974 0.990477
1.00233 1.00004 0.991464
0.999621 1.00085 0.997845
1.00184 1.00127 0.991787
1.00232 0.999914 0.991619
1.00461 0.99994 0.987396
1.00456 1.00019 0.987392
1.00432 1.00078 0.987252
1.0052 1.00022 0.985555
1.00204 0.999946 0.991232
1.00215 1.00003 0.99172
1.00453 0.999575 0.987567
1.00459 0.999927 0.987492
1 1.00003 0.997852
1.00092 1.0022 0.991626
1.00378 1.00159 0.986925
1.00459 0.999975 0.987356
1.00523 0.999311 0.986595
1.00515 1.00062 0.985241
1.00523 0.999958 0.985887
1.00521 0.999587 0.98615
1.00002 1.0022 0.992482
1.0006 1.00465 0.989069
1.0045 0.9996 0.98741
1.00454 0.999753 0.98769
1.00524 0.998807 0.987172
1.00523 0.998928 0.986933
1.00524 0.999525 0.986386
1.00522 0.998026 0.987809
1.00028 1.00251 0.991617
1.0052 0.998906 0.986832
1.00275 1.00305 0.986899
1.00508 1.00096 0.984897
1.0052 1.00047 0.985402
1.00518 0.998404 0.987462
1.00091 1.00488 0.98827
1.00034 1.00419 0.989969
1.00144 1.00471 0.987812
1.00226 0.99999 0.990777
0.999765 0.99903 0.998459
0.99978 1.00071 0.994317
1.00196 1.0004 0.990877
1.00462 1.00022 0.986533
1.00037 1.00215 0.991817
1.00292 1.00288 0.98677
1.00422 1.00078 0.986682
1.005 1.00102 0.984981
1.00003 1.00165 0.993033
0.999823 0.999878 0.995175
1.00031 1.0042 0.989992
1.00467 1.00009 0.986598
1.00448 1.00044 0.986558
1.00524 1.00006 0.985657
1.00181 1.00432 0.987389
1.00511 1.00076 0.985153
1.00445 1.00208 0.985018
1.00516 1.00109 0.984674
0.99991 0.999282 0.99565
1.0011 1.00448 0.98848
1.00023 1.00298 0.991437
1.0009 1.00476 0.988702
1.00525 0.999702 0.986036
1.00519 1.00042 0.985348
1.0052 0.999223 0.986528
1.00324 1.00352 0.985784
1.00521 1.00033 0.98552
1.00491 1.00173 0.98452
1.00523 1.00085 0.98477
1.00027 1.00071 0.993627
1.00016 0.998521 0.995956
0.999756 0.997517 0.999078
0.999684 0.997732 0.99904
0.999635 0.997988 0.998975
0.999904 1.00072 0.994135
0.999707 0.999004 0.998491
0.999903 1.00155 0.993356
0.999873 0.999596 0.99814
1.00228 1.00007 0.990708
1.0022 1.00004 0.990889
1.00465 0.999845 0.986886
1.00456 0.999626 0.987258
1.00208 0.999942 0.991209
1.00052 0.999989 0.997412
1.00205 0.999928 0.991261
1.00453 0.999572 0.987387
1.00462 0.999722 0.987082
1.00523 0.998538 0.987325
1.00468 0.999975 0.986716
1.00526 0.999037 0.986753
1.0045 0.999573 0.987432
1.00522 0.998408 0.987484
1.00525 0.99875 0.98707
1.00524 0.996567 0.989313
1.00526 0.99935 0.986417
1.00521 0.997503 0.988366
1.00205 0.999937 0.991237
1.00228 1 0.99159
1.00456 0.999545 0.987251
1.00461 0.999978 0.987489
1.0001 1.00014 0.997744
1.0012 1.00201 0.99217
1.00377 1.0018 0.987172
1.0046 1 0.987327
1.00523 0.999129 0.986705
1.00522 1 0.985969
1.00511 1.0006 0.985264
1.00521 0.999584 0.986177
1.00009 1.0022 0.992468
1.00071 1.0046 0.989081
1.00451 0.999519 0.987415
1.00456 0.999737 0.987671
1.00524 0.998657 0.987354
1.00523 0.999114 0.986794
1.00037 1.00245 0.991603
1.00283 1.00299 0.986905
1.00503 1.00104 0.984945
1.00524 0.999637 0.986288
1.00521 0.997789 0.988072
1.00521 1.00041 0.985468
1.0052 0.998904 0.98685
1.00518 0.99834 0.987454
1.001 1.00482 0.988269
1.00127 1.00463 0.987826
1.00041 1.00413 0.989973
1.00522 0.998639 0.987367
1.00524 0.998778 0.987236
1.00525 0.996894 0.988937
1.00519 0.997459 0.988414
1.00522 0.998096 0.987595
1.00517 0.996215 0.989564
1.00176 1.00421 0.987538
1.00517 0.997368 0.988287
1.00445 1.00199 0.985107
1.00518 1.00134 0.98438
1.00516 0.999716 0.986129
1.00513 0.997401 0.988439
1.00018 1.00349 0.990996
1.00203 1.00412 0.987185
1.00068 1.00508 0.988375
1.00243 1.00371 0.987332
1.00466 1.0001 0.986582
0.999831 0.99976 0.995216
0.999938 1.00164 0.993061
1.00015 1.00445 0.989985
1.00449 1.00043 0.986549
1.00524 1.00007 0.985638
1.00176 1.00428 0.987402
1.00449 1.00206 0.985017
1.00518 1.00078 0.985097
1.00517 1.00099 0.984674
0.999929 0.999184 0.99568
1.00098 1.00465 0.988493
1.00015 1.00307 0.991459
1.00075 1.00486 0.988677
1.00525 0.999713 0.986019
1.00521 1.00043 0.985325
1.0052 0.999221 0.986517
1.00324 1.00345 0.985811
1.00522 1.00039 0.985444
1.00499 1.00154 0.984529
1.00523 1.00082 0.984864
1.00007 0.998749 0.995877
1.00029 1.00184 0.992495
1.00189 1.00431 0.987363
1.0004 1.00463 0.989835
1.00156 1.00395 0.988422
1.00521 0.998657 0.987105
1.00521 0.99976 0.985951
1.00516 0.998271 0.987406
1.00411 1.00218 0.985448
1.00518 0.999871 0.98596
1.00464 1.00178 0.984493
1.00031 1.00077 0.993502
1.00032 1.0021 0.992206
1.00019 1.00076 0.993731
1.00026 1.00072 0.993623
1.00017 0.998353 0.996617
1.00015 0.998502 0.996268
0.999918 0.997316 0.997881
0.999762 0.997478 0.999081
0.999677 0.997677 0.999059
0.999828 1.00009 0.994895
0.9997 0.99855 0.998709
0.999912 1.00079 0.994109
0.99977 0.999113 0.998414
0.99995 1.00157 0.993333
0.999961 0.999668 0.998031
1.00467 0.999981 0.986702
1.00461 0.999725 0.987079
1.00525 0.999055 0.986737
1.00523 0.998547 0.98732
1.00452 0.99958 0.987388
1.00204 0.999926 0.991259
1.0045 0.999573 0.987434
1.00522 0.998412 0.987483
1.00525 0.998767 0.987058
1.00523 0.996423 0.98945
1.00526 0.999358 0.986403
1.00522 0.997514 0.988346
1.00522 0.998396 0.987501
1.00525 0.996134 0.989773
1.00522 0.996944 0.988945
1.00516 0.995264 0.990623
1.00522 0.998099 0.987717
1.00521 0.995784 0.989828
1.00451 0.99944 0.98742
1.00458 0.999734 0.987653
1.00524 0.99852 0.987536
1.00523 0.999303 0.986655
1.0005 1.00239 0.991591
1.00276 1.00304 0.986912
1.00498 1.00113 0.984993
1.00524 0.99975 0.986189
1.00521 0.997552 0.988335
1.00521 0.998901 0.986867
1.00521 1.00035 0.985532
1.00518 0.998276 0.987444
1.00112 1.00465 0.988267
1.00124 1.00459 0.987841
1.00047 1.00403 0.989979
1.00522 0.998561 0.987403
1.00524 0.998772 0.987229
1.00525 0.996626 0.989238
1.00519 0.997586 0.988287
1.00174 1.00428 0.98752
1.00447 1.00198 0.985113
1.00517 1.00139 0.984371
1.00522 0.998338 0.987366
1.00519 0.996002 0.989751
1.00517 0.999687 0.986063
1.00517 0.997388 0.988295
1.00514 0.997271 0.988556
1.0022 1.00399 0.987165
1.00232 1.00376 0.987274
1.00023 1.00339 0.990995
1.00057 1.00507 0.988487
1.00526 0.996415 0.989464
1.0052 0.997169 0.98876
1.00518 0.995382 0.990445
1.00518 0.995458 0.990246
1.00517 0.996548 0.989111
1.0052 0.995391 0.990275
1.00346 1.0029 0.986008
1.00515 0.995947 0.989533
1.00511 1.00205 0.984013
1.00514 1.00123 0.984513
1.00516 0.999127 0.98647
1.00516 0.997174 0.988644
1.00013 1.0025 0.991998
1.00028 1.00498 0.989177
1.00314 1.00293 0.986447
1.00099 1.00504 0.988095
1.00279 1.00321 0.987249
0.999941 0.999102 0.995709
1.00525 0.999723 0.986003
1.00008 1.00312 0.991481
1.00083 1.00482 0.988505
1.00061 1.00492 0.988652
1.00522 1.00043 0.985304
1.00519 0.99922 0.986507
1.00339 1.00318 0.985836
1.00512 1.00138 0.984539
1.00522 1.00044 0.98537
1.00524 1.0008 0.98496
1.00008 0.998724 0.995894
1.00023 1.00189 0.992522
1.00192 1.00425 0.98737
1.00019 1.00465 0.989824
1.00135 1.00392 0.988441
1.00521 0.998651 0.987094
1.0052 0.99975 0.98594
1.00516 0.998241 0.987381
1.00421 1.0021 0.985479
1.00518 0.99991 0.985818
1.00489 1.00177 0.984487
1.00033 1.0011 0.993186
1.00025 1.00353 0.991066
1.0029 1.00263 0.987242
1.00052 1.005 0.989353
1.00194 1.00263 0.989043
1.00517 0.997539 0.988162
1.00515 0.998987 0.98664
1.00516 0.997468 0.987809
1.00381 1.00159 0.986037
1.00492 1.00078 0.985061
1.00031 1.00076 0.993499
1.00032 1.00204 0.992165
1.00022 1.00221 0.992165
1.00038 1.00266 0.991702
1.00022 1.00224 0.992225
1.00011 1.00082 0.993793
1.00018 1.00075 0.993732
1.00017 0.998315 0.996656
1.00025 1.00074 0.993619
1.00017 0.998381 0.996622
1.00001 0.997104 0.997911
1.00014 0.998503 0.996574
0.999876 0.997284 0.998489
0.999772 0.997422 0.999084
0.999864 0.999328 0.995604
0.99984 1.00014 0.994864
0.999668 0.998067 0.998927
0.999742 0.998624 0.998627
0.999918 1.00086 0.994082
0.999855 0.999173 0.998322
1.00525 0.999365 0.986389
1.00525 0.998768 0.987048
1.00522 0.997519 0.988326
1.00522 0.996295 0.989587
1.00521 0.998416 0.987482
1.0045 0.999574 0.987435
1.00521 0.998399 0.987503
1.00525 0.996112 0.989786
1.00522 0.996943 0.988939
1.00518 0.995136 0.990725
1.00522 0.998092 0.987696
1.0052 0.995754 0.989911
1.00526 0.996117 0.989788
1.0052 0.995158 0.990733
1.00517 0.995235 0.99055
1.00517 0.99493 0.99091
1.00519 0.996695 0.989024
1.00519 0.9951 0.990428
1.00522 0.99848 0.987438
1.00524 0.998776 0.987222
1.00525 0.996356 0.989539
1.00518 0.99771 0.988161
1.00174 1.00434 0.987504
1.0045 1.00196 0.98512
1.00512 1.00138 0.984362
1.00522 0.998581 0.987138
1.0052 0.995793 0.989938
1.00516 0.997408 0.988302
1.00518 0.999671 0.985999
1.00515 0.997139 0.988673
1.00219 1.00398 0.987147
1.00204 1.00382 0.987217
1.0003 1.00334 0.990995
1.00045 1.00506 0.988601
1.00526 0.996422 0.989458
1.0052 0.997279 0.988629
1.00518 0.995192 0.990671
1.00519 0.995475 0.990215
1.00324 1.0033 0.985977
1.00495 1.00205 0.984018
1.00514 1.00118 0.984488
1.00517 0.99676 0.988904
1.00518 0.995259 0.990395
1.00514 0.999181 0.986441
1.00516 0.995968 0.989528
1.00515 0.996898 0.988803
1.00329 1.00281 0.98644
1.00272 1.00315 0.987313
1.001 1.00504 0.988078
1.00014 1.0025 0.991937
1.00019 1.00489 0.989299
1.00519 0.99495 0.990947
1.00514 0.995247 0.99067
1.00523 0.994984 0.990534
1.00516 0.995351 0.990188
1.00432 1.00247 0.985024
1.00517 0.995655 0.989955
1.0051 1.00231 0.983569
1.00509 1.001 0.984662
1.00512 0.998933 0.986592
1.00001 1.00156 0.992935
1.0001 1.00442 0.990247
1.00064 1.00505 0.988823
1.00376 1.00251 0.986152
1.00127 1.00492 0.987439
1.00305 1.00252 0.986807
1.00008 0.998704 0.995911
1.00018 1.00191 0.99255
1.00521 0.998645 0.987082
0.999973 1.00465 0.989813
1.00177 1.00439 0.987377
1.00116 1.00387 0.988459
1.0052 0.999741 0.985927
1.00515 0.998213 0.987355
1.00426 1.00199 0.985509
1.00511 1.00179 0.984479
1.00519 0.999942 0.985676
1.0003 1.00108 0.993198
1.0001 1.00361 0.991073
1.00298 1.00265 0.987114
1.00031 1.00501 0.989327
1.00183 1.0024 0.98918
1.00517 0.997529 0.988145
1.00515 0.998996 0.986616
1.00516 0.997511 0.987842
1.00407 1.00154 0.98587
1.00496 1.00089 0.985064
1.00029 1.00248 0.991924
0.999744 1.00463 0.990345
1.00351 1.00075 0.987858
1.00052 1.00431 0.989593
1.00261 1.00085 0.989313
1.00516 0.99619 0.989213
1.00515 0.998989 0.98653
1.00516 0.997438 0.98773
1.00419 1.00119 0.985905
1.00487 1.00066 0.985268
1.00032 1.00075 0.993497
1.00032 1.00206 0.992191
1.00012 1.00265 0.991838
1.00014 1.00228 0.992124
1.00017 1.00232 0.992216
1.00021 1.00279 0.991678
1.00015 1.00281 0.991831
1.0001 1.00314 0.991352
1.00011 1.00241 0.992246
1.00005 1.00096 0.993765
1.0001 1.00082 0.993792
1.00014 0.998339 0.996683
1.00017 1.00074 0.993733
1.00017 0.998339 0.99666
1.00006 0.996987 0.997932
1.00018 0.998396 0.996629
0.999994 0.997079 0.997919
0.999829 0.997246 0.999111
0.999917 0.998762 0.996098
0.999851 0.999426 0.995563
0.999679 0.9977 0.999066
0.999854 1.00021 0.994833
0.999707 0.99819 0.998857
0.99979 0.998714 0.998558
1.00522 0.998085 0.987675
1.00521 0.996948 0.988933
1.00519 0.995724 0.989993
1.00519 0.994992 0.990827
1.00525 0.996088 0.989799
1.00521 0.998401 0.987506
1.00526 0.996219 0.98968
1.0052 0.99516 0.990749
1.00518 0.995199 0.990602
1.00517 0.994928 0.990893
1.00519 0.996702 0.989023
1.00519 0.995044 0.990493
1.0052 0.994948 0.990978
1.00516 0.994963 0.990935
1.00521 0.994933 0.990722
1.00519 0.99539 0.990142
1.00527 0.99643 0.989451
1.0052 0.997381 0.988499
1.00518 0.994999 0.990895
1.0052 0.995497 0.990184
1.00316 1.00354 0.985946
1.00487 1.00204 0.984025
1.00515 1.00116 0.984463
1.00516 0.996968 0.988697
1.00517 0.995091 0.990514
1.00517 0.995989 0.989522
1.00513 0.999221 0.986411
1.00515 0.99662 0.988961
1.00342 1.00272 0.986433
1.00271 1.00277 0.987375
1.00094 1.00504 0.988061
1.00017 1.00244 0.99188
1.00018 1.00479 0.989422
1.00519 0.994947 0.990941
1.00514 0.995333 0.990566
1.00522 0.994974 0.990541
1.00415 1.0027 0.98502
1.0049 1.00232 0.983612
1.00507 1.00095 0.984655
1.00516 0.995395 0.990151
1.00514 0.998661 0.986924
1.00515 0.995666 0.989818
1.00004 1.0014 0.993084
1.00386 1.00219 0.98608
1.0027 1.00218 0.987686
1.00145 1.00503 0.987423
1.00064 1.00506 0.988944
1.0001 1.0044 0.990174
1.00514 0.994934 0.991
1.00519 0.994946 0.990702
1.00519 0.994922 0.990559
1.00514 0.99505 0.990525
1.00482 1.00233 0.984539
1.0051 0.996816 0.988645
1.00489 1.00263 0.98328
1.005 1.00131 0.984426
1.00011 1.0004 0.993996
1.00001 1.00324 0.991566
1.00033 1.00494 0.989499
1.00117 1.00503 0.987872
1.00396 1.00247 0.985267
1.00272 1.004 0.986185
1.00028 1.00107 0.993209
0.999966 1.00366 0.991082
1.00518 0.997519 0.988127
1.00008 1.00505 0.989302
1.00309 1.00267 0.986985
1.00148 1.00232 0.98932
1.00514 0.999006 0.986592
1.00516 0.997557 0.987873
1.00427 1.00155 0.985702
1.00504 1.00099 0.985067
1.00022 1.00253 0.991936
0.999873 1.00468 0.990223
1.00378 1.00073 0.987761
1.00028 1.00454 0.989627
1.00248 1.00059 0.989681
1.00517 0.996152 0.989377
1.00515 0.998931 0.98665
1.00515 0.99758 0.987702
1.00428 1.00136 0.985793
1.00492 1.00073 0.98508
0.999835 1.00324 0.991492
0.99976 1.00504 0.989646
1.00384 0.999889 0.987917
1.00152 1.0022 0.989101
1.00522 0.995126 0.990054
1.00513 0.996645 0.989076
1.00501 0.999645 0.9859
1.00457 1.00065 0.985468
1.00034 1.00203 0.992216
1.00017 1.00265 0.991842
0.999823 1.00305 0.992247
1.00011 1.00242 0.992207
1.00004 1.00292 0.991654
1.00008 1.00245 0.992237
1.00005 1.00279 0.991942
1.00014 1.00315 0.991371
1.00001 1.00219 0.992663
1.00006 1.00345 0.991266
1.0001 1.00349 0.99103
1.00008 1.00253 0.992164
0.999997 1.00112 0.993645
1.00004 1.00094 0.993763
1.00009 0.998394 0.996702
1.00009 1.00081 0.993792
1.00014 0.998369 0.996685
1.00007 0.996944 0.997946
1.00018 0.998365 0.996666
1.00005 0.99696 0.997938
0.999977 0.997061 0.99792
1.00002 0.998302 0.996403
0.999923 0.998815 0.996058
0.999729 0.997356 0.999153
0.999836 0.999524 0.995521
0.999698 0.997756 0.99903
0.999752 0.99827 0.998761
1.00519 0.996708 0.989023
1.00519 0.995164 0.990655
1.00519 0.994988 0.990559
1.00516 0.994926 0.990876
1.0052 0.995165 0.990764
1.00526 0.996307 0.989573
1.0052 0.99505 0.990858
1.00517 0.994959 0.990948
1.0052 0.994932 0.990718
1.0052 0.995317 0.990226
1.00516 0.994967 0.991008
1.00522 0.994933 0.990784
1.00523 0.994927 0.990549
1.00519 0.994943 0.990937
1.00514 0.995413 0.990462
1.00521 0.994978 0.990549
1.00393 1.00294 0.985016
1.00485 1.00235 0.983649
1.00508 1.00089 0.984647
1.00516 0.995454 0.990114
1.00512 0.995645 0.98968
1.00514 0.998378 0.987257
1.00394 1.002 0.986004
1.00234 1.00205 0.988558
1.00174 1.00504 0.987407
1.00007 1.00127 0.993234
1.00046 1.00506 0.989063
1.00007 1.00439 0.990099
1.00514 0.994931 0.991007
1.00519 0.994929 0.9907
1.00518 0.994931 0.990571
1.00446 1.00262 0.984545
1.00485 1.00262 0.983218
1.00499 1.00109 0.984755
1.00514 0.995007 0.990473
1.00509 0.996793 0.988576
1.0001 1.00035 0.99417
1.00003 1.00323 0.991568
1.00365 1.00225 0.985675
1.00253 1.004 0.986844
1.00106 1.00503 0.988129
1.00027 1.00497 0.989477
1.00518 0.994926 0.990852
1.00521 0.994909 0.990504
1.00515 0.994895 0.990619
1.00508 0.995025 0.990289
1.00479 1.00309 0.982913
1.00486 1.00006 0.985828
1.00481 1.00319 0.983068
1.00022 0.999852 0.994575
1.00026 1.00098 0.993448
1.00004 1.00183 0.992785
1.00002 1.0043 0.990443
1.00046 1.00501 0.988828
1.00087 1.00465 0.987907
1.00345 1.00233 0.985836
1.00266 1.00396 0.987554
1.00014 1.00262 0.991948
0.99999 1.00476 0.9901
1.00517 0.996109 0.989542
1.00034 1.00456 0.989657
1.00407 1.00072 0.987666
1.00231 1.0004 0.990045
1.00515 0.998856 0.986772
1.00515 0.997703 0.987677
1.0044 1.00148 0.985684
1.00495 1.00078 0.984894
0.999897 1.00336 0.991371
0.99991 1.00504 0.989684
1.00408 0.999914 0.987984
1.00179 1.00237 0.989204
1.00522 0.995098 0.990149
1.00513 0.996635 0.988911
1.00502 0.99958 0.985944
1.00478 1.0007 0.985308
0.999722 1.00392 0.991051
1.00525 0.994889 0.990322
1.00121 1.00453 0.988784
1.00389 1.00037 0.987575
1.00518 0.995555 0.990125
1.00509 0.998353 0.986129
1.00484 1.00141 0.984784
1.00018 1.00269 0.991846
0.999776 1.003 0.992196
0.999432 1.0028 0.993218
1.00008 1.00243 0.992229
1.00016 1.00316 0.991391
0.999725 1.00298 0.992052
1.00006 1.00255 0.99215
1.00003 1.00353 0.991062
0.999698 1.00237 0.992806
1.00017 1.00332 0.991264
0.999952 1.00153 0.993748
0.99986 1.00291 0.992144
1.00014 1.00425 0.990325
1.00029 1.00356 0.99074
1.00007 1.00279 0.991912
0.999953 1.00136 0.993483
0.999973 1.00119 0.993635
1.00004 0.998528 0.996684
1.00002 1.00098 0.99376
1.0001 0.998442 0.996698
1.00005 0.996941 0.997968
1.00015 0.998401 0.996689
1.00007 0.996918 0.997948
1.00005 0.996937 0.997939
1.0002 0.999913 0.994589
1.00009 0.998038 0.996554
1.00002 0.998342 0.996382
0.999818 0.997049 0.999205
0.999925 0.998878 0.996017
0.999739 0.997436 0.999131
0.999725 0.997843 0.998996
1.0052 0.995244 0.99031
1.00519 0.994932 0.990714
1.00517 0.994955 0.990961
1.0052 0.995165 0.990738
1.00516 0.994966 0.990993
1.00521 0.994937 0.990797
1.00523 0.994926 0.990514
1.0052 0.994945 0.990855
1.00526 0.994936 0.990599
1.00528 0.994925 0.991019
1.00514 0.994928 0.991015
1.00518 0.994917 0.990698
1.00518 0.99493 0.990584
1.004 1.00286 0.984556
1.00499 1.00264 0.983166
1.00493 1.00091 0.985083
1.00514 0.994962 0.990422
1.00509 0.996826 0.988507
1.00346 1.00217 0.98609
1.00237 1.00407 0.987503
1.00079 1.00504 0.988386
1.00009 1.00024 0.994344
1.00011 1.00316 0.991571
1.00024 1.00503 0.989451
1.00519 0.994929 0.990835
1.00019 0.999883 0.994569
1.00021 1.00104 0.993362
1.00521 0.994908 0.990523
1.00514 0.99489 0.990624
1.00471 1.00321 0.983103
1.0048 1.00299 0.983182
1.00487 0.999914 0.985753
1.00508 0.995176 0.990214
1.00006 1.00181 0.99297
1.00009 1.00427 0.990412
1.00374 1.00287 0.98542
1.00195 1.00384 0.988131
1.00098 1.00469 0.988144
1.00044 1.00503 0.988938
1.00525 0.994931 0.990574
1.0052 0.994808 0.990555
1.0051 0.9949 0.990302
1.00474 0.995613 0.990044
1.00421 1.00381 0.983351
1.00427 1.00348 0.983842
1.00009 1.00136 0.993123
1.00023 1.00098 0.993463
1.00052 1.00132 0.992819
1.00025 1.00285 0.991418
1.00009 1.00487 0.98987
1.00152 1.00431 0.988176
1.00009 1.00509 0.988547
1.00275 1.00115 0.987809
0.999967 1.00343 0.991251
1.00014 1.00503 0.989724
1.00521 0.995075 0.990243
1.00513 0.996652 0.988747
1.00207 1.00253 0.989308
1.0043 0.999907 0.988051
1.00504 0.999543 0.985985
1.00503 1.00078 0.985147
0.999883 1.0039 0.990993
1.00526 0.99489 0.990476
1.001 1.00449 0.988816
1.00408 1.00043 0.987234
1.00519 0.995451 0.990135
1.00508 0.998491 0.986399
1.00481 1.00135 0.984821
1.00002 1.00466 0.990381
1.00457 0.994919 0.991492
1.00261 1.00283 0.988092
1.00432 1.00137 0.985983
1.00488 0.996753 0.989273
1.00367 1.00156 0.985625
0.9985 0.997787 0.989321
0.999677 1.00303 0.992146
0.999206 1.00295 0.993194
0.999662 1.00262 0.993336
1.00002 1.0026 0.992136
1.00001 1.00359 0.991093
1.00035 1.00312 0.991263
0.999509 1.00239 0.992949
1.00005 1.00279 0.991914
1.00023 1.00365 0.990721
0.99988 1.00155 0.993644
1.00012 1.00428 0.990339
1.00002 1.00282 0.991987
0.999743 1.00207 0.99341
1.00033 1.00456 0.989796
1.0002 1.00442 0.990165
1.0004 1.0038 0.990318
1.0001 1.00299 0.991508
1.00023 1.00369 0.99094
1.00011 1.00305 0.991373
0.999954 1.00139 0.993434
0.999964 1.00135 0.993475
1 0.99865 0.996073
0.999984 1.00117 0.993624
1.00004 0.998584 0.996374
1.00002 0.997 0.999128
1.0001 0.998486 0.996695
1.00006 0.996905 0.997972
1.00007 0.996892 0.997947
1.00013 0.999916 0.994646
1.00021 0.999845 0.994602
1.0001 0.997939 0.996658
1.00007 0.99805 0.996812
0.999891 0.996872 0.999237
1.00001 0.998378 0.996362
0.99981 0.997133 0.999192
0.99975 0.997482 0.999109
1.00522 0.994924 0.990479
1.0052 0.994939 0.99081
1.00516 0.994966 0.990979
1.0052 0.994947 0.990857
1.00526 0.994936 0.990606
1.00527 0.994935 0.990641
1.00529 0.994933 0.990603
1.00115 0.994872 0.985307
1.00446 0.994881 0.993003
1.00002 1.00136 0.993399
1.00519 0.994933 0.990819
1.00521 0.994907 0.990541
1.00513 0.994884 0.990629
1.0043 1.00323 0.983285
1.0049 1.0029 0.983297
1.00491 0.999832 0.985684
1.00508 0.995331 0.990137
1.00433 1.0029 0.985006
1.00116 1.00373 0.988709
1.00113 1.00475 0.988383
1.00015 0.999955 0.994565
1.00047 1.00504 0.989049
1.00003 1.00178 0.99315
1.00021 1.00419 0.990382
1.0002 1.00101 0.993275
1.00524 0.994916 0.990572
1.00011 1.00131 0.993228
1.00017 1.00108 0.993462
1.00045 1.00133 0.992824
1.00521 0.994834 0.990526
1.00511 0.994897 0.99033
1.0042 1.00381 0.983407
1.00434 1.00267 0.984461
1.00467 0.996154 0.989931
1.00004 1.00299 0.991568
1.00024 1.00475 0.989718
1.00267 1.00227 0.987549
1.00067 1.00488 0.988545
1.00132 1.00417 0.988314
1.00523 0.994921 0.990713
1.00513 0.99477 0.990755
1.00506 0.995351 0.989892
1.00447 0.998073 0.989187
1.00219 1.00375 0.987248
1.00003 1.00236 0.99223
1.00053 1.00142 0.992345
1.00004 1.00217 0.992261
0.999974 1.00437 0.991098
1.00018 1.00472 0.989698
1.00031 1.00459 0.988992
1.00114 1.00275 0.989126
1.00012 1.00384 0.990932
1.00067 1.00448 0.988846
1.00527 0.994882 0.990623
1.0052 0.995386 0.990142
1.00508 0.998657 0.98667
1.00423 1.00047 0.986892
1.00477 1.00121 0.984862
1.00019 1.00454 0.990459
1.00454 0.995034 0.991627
1.00254 1.00273 0.987931
1.00424 1.0014 0.98589
1.005 0.996132 0.98954
1.00387 1.00174 0.985647
0.998516 0.997833 0.987136
1.00039 1.00427 0.990121
1.00255 0.998747 0.991288
1.00267 1.00189 0.988075
1.00256 1.00161 0.987554
1.00345 0.997698 0.989828
1.00003 0.994921 0.951005
0.996951 0.99487 0.969761
0.996214 1.00134 0.988893
0.999806 0.99569 0.886737
0.994739 0.994797 0.857795
0.999008 1.00312 0.993172
0.999119 1.00299 0.993537
0.999466 1.003 0.993172
1.00004 1.00281 0.991915
1.0003 1.00353 0.9907
1.00011 1.0043 0.990354
1.00019 1.00272 0.991827
0.999769 1.00157 0.993539
1.00025 1.00434 0.990105
1.0001 1.00298 0.991584
1.00037 1.0038 0.990359
0.999838 1.00185 0.993226
1.00022 1.00449 0.990007
1.00023 1.00478 0.989992
0.999637 1.00444 0.990769
1.00022 1.00461 0.989886
1.00036 1.00376 0.990361
1.00016 1.00296 0.991415
1.0003 1.00391 0.990454
1.00014 1.00401 0.990728
1.00005 1.00364 0.991094
1.00019 1.00375 0.990848
1.00017 1.00283 0.991723
1.00013 1.00306 0.991368
1.00001 1.00132 0.993442
0.99997 1.00139 0.993435
0.999997 0.998722 0.99605
0.99995 1.00139 0.993467
1 0.998671 0.996068
1 0.996991 0.999137
1.00004 0.998646 0.996065
1.00003 0.996992 0.998538
1.00007 0.996871 0.997973
1.00005 0.999945 0.994751
1.00015 0.999907 0.99465
1.00011 0.997848 0.996748
1.00022 0.999788 0.994615
1.0001 0.997888 0.996917
0.999939 0.996704 0.999268
1.00008 0.998097 0.996531
0.99988 0.996942 0.999223
0.999808 0.997195 0.99918
1.00525 0.994935 0.990612
1.0052 0.99495 0.990859
1.00527 0.994944 0.990268
1.00084 0.994918 0.985433
1.00528 0.99493 0.990604
1.00431 0.995223 0.992601
1.00505 0.996264 0.991184
0.996457 0.994899 0.968952
1.00045 0.996813 0.98749
1.00005 1.00134 0.993388
1.00008 1.0013 0.993385
0.999961 1.00242 0.992425
0.999945 1.00223 0.992645
1.00524 0.994911 0.99057
1.00521 0.994863 0.990498
1.00512 0.994895 0.990358
1.00481 1.00365 0.983457
1.00425 1.00143 0.985071
1.00459 0.996682 0.989813
1.0023 1.00361 0.987293
1.00142 1.00465 0.988542
1.00115 1.00392 0.988452
1.0001 1.00123 0.993461
1.00027 1.00475 0.989562
1.00005 1.00307 0.991719
1.00011 1.00131 0.993333
1.00033 1.00137 0.992823
1.00524 0.994909 0.99072
1.00009 1.00237 0.992284
1.00054 1.00142 0.992523
0.999666 1.00209 0.993004
1.00513 0.994787 0.990653
1.00496 0.995406 0.98991
1.00286 1.00288 0.987174
1.00412 0.997689 0.989651
1.0001 1.00405 0.990872
1.00032 1.00485 0.989199
1.0013 1.00358 0.988991
1.00114 1.0043 0.988781
1.00448 0.994842 0.991688
1.00504 0.9954 0.990642
1.00498 0.996083 0.989673
1.00219 0.999267 0.991738
0.999687 1.0034 0.991815
1.00028 1.00253 0.991634
0.999044 1.00459 0.991672
0.999392 1.00494 0.99016
0.999997 0.994906 0.941385
1.00029 1.0044 0.990537
1.00239 1.00276 0.987768
1.00448 0.994947 0.991772
1.00508 0.995639 0.989802
1.00397 1.00183 0.985657
1.00412 1.00152 0.985791
0.998636 0.997555 0.984879
1.00027 1.00434 0.990344
1.00259 0.998057 0.991315
1.00261 1.00205 0.988095
1.00317 1.00119 0.987533
1.00376 0.997737 0.989712
1.00096 0.994916 0.940142
0.9969 0.994875 0.96544
0.996312 1.002 0.988804
0.999779 0.994826 0.890578
0.994725 0.994841 0.846825
1.00012 1.00386 0.991081
0.999805 0.994871 0.897456
0.994679 0.994834 0.855747
1.0013 1.00004 0.991391
1.00139 1.00181 0.990067
1.00172 1.00055 0.990507
0.996031 1.00215 0.989614
1.00061 0.996031 0.94693
0.994894 0.995326 0.963022
0.997255 0.99795 0.898675
0.994787 0.994825 0.849902
0.998721 1.00327 0.993736
0.99927 1.00304 0.993058
0.999381 1.00348 0.992909
1.00013 1.00292 0.991659
1.00037 1.00383 0.990399
0.999992 1.00456 0.990048
1.0001 1.00445 0.990218
0.99998 1.0016 0.993042
1.00016 1.00297 0.991418
1.00004 1.0049 0.989986
1.00021 1.00462 0.989875
1.00044 1.00367 0.990422
0.999604 1.00442 0.990924
0.999783 1.00501 0.990453
0.998747 1.00499 0.991555
1.00036 1.00414 0.990122
1.00036 1.00376 0.990496
1.00033 1.00388 0.990443
1.00006 1.00401 0.990809
1.00037 1.00413 0.990093
0.999958 1.00402 0.990908
0.999515 1.00421 0.991004
0.999744 1.00472 0.990424
0.999926 1.00387 0.991047
1.0001 1.00358 0.991097
1.0001 1.00273 0.991909
1.00014 1.00378 0.990756
1.00017 1.00283 0.99165
1.00007 1.0013 0.993379
1.00017 1.00304 0.991363
0.999989 1.00134 0.993446
1.00006 0.99865 0.996626
0.999952 1.00141 0.993436
1.00001 0.998679 0.996352
1.00002 0.997009 0.997947
0.999996 0.998686 0.996064
1 0.997008 0.999137
1.00004 0.997001 0.997947
1.0001 1.00139 0.993221
0.999992 0.999986 0.994795
1.00005 0.999931 0.994753
1.0001 0.997826 0.996783
1.00016 0.999875 0.994654
1.00012 0.997805 0.996751
0.999978 0.996608 0.999284
1.00009 0.99788 0.997151
0.999956 0.996798 0.998748
0.999924 0.997003 0.998179
1.00048 0.995171 0.985576
1.00527 0.994932 0.990605
1.00407 0.996014 0.992192
0.996665 0.994897 0.970006
1.00041 0.996507 0.987818
1.00507 0.995797 0.991063
1.00304 0.997323 0.98794
0.996529 0.99667 0.972948
1.00003 0.995005 0.94818
0.99953 0.996949 0.901913
0.994678 0.994776 0.855855
0.999885 1.00232 0.992538
1.00008 1.00132 0.993382
1.00016 1.00123 0.993371
0.999981 1.00241 0.992424
0.999699 1.00334 0.991956
1.00028 1.00232 0.99193
1.00003 1.00275 0.992196
0.999983 1.00226 0.992521
1.00525 0.994869 0.990722
1.00514 0.994799 0.99055
1.00485 0.995293 0.989931
1.003 1.00251 0.987108
1.00382 0.997559 0.990123
1.00151 1.00442 0.988848
1.00187 1.00412 0.988571
1.00061 1.00501 0.988705
1.00038 1.00145 0.992705
1.00008 1.00409 0.990643
1.00016 1.00239 0.992343
0.99947 1.00201 0.993742
1.0045 0.994806 0.991859
0.999702 1.00341 0.99188
1.00022 1.00271 0.991871
1.00491 0.995181 0.990607
1.0048 0.995624 0.98983
1.00209 0.999259 0.991341
0.999607 1.00494 0.990896
1.0002 1.00452 0.990263
1.00324 0.994991 0.992015
1.00436 0.996903 0.99068
1.0047 0.99515 0.991024
1.00125 0.999267 0.99278
0.999897 1.00451 0.990454
0.999468 1.00417 0.991407
0.999402 1.00522 0.991052
0.999831 0.994855 0.899099
1.00038 0.994926 0.952214
1.00022 1.00439 0.990568
1.00262 1.00204 0.98812
1.00253 0.997526 0.991349
1.00413 0.997881 0.989602
1.00388 1.00077 0.987529
1.00001 0.994927 0.949575
0.997136 0.994887 0.964687
0.996404 1.00256 0.988668
0.99963 0.995971 0.902744
0.994724 0.99501 0.83541
1.00017 1.00362 0.991028
0.999837 0.995094 0.89669
0.994689 0.994903 0.849862
1.00134 1.00005 0.991443
1.00156 1.00166 0.99013
1.00185 1.00038 0.991029
0.99613 1.00246 0.990259
1.0017 0.996108 0.93994
0.99491 0.994921 0.966697
0.998227 0.99854 0.898142
0.994792 0.994785 0.848588
0.999636 1.00351 0.992668
0.99469 0.995159 0.851629
0.9948 0.9948 0.866054
0.998895 1.00157 0.994399
0.999648 1.00244 0.993712
0.995426 1.00235 0.989641
0.994875 0.997036 0.966414
0.997413 0.998296 0.936842
0.994712 0.999711 0.903273
0.994826 0.994803 0.851606
0.999217 1.00297 0.99295
0.999575 1.00322 0.992714
0.998305 1.00417 0.993077
1.00016 1.00297 0.991421
1.00047 1.0036 0.990484
1.00023 1.00461 0.989862
0.999911 1.00499 0.98998
0.999447 1.00451 0.99108
1.00036 1.00377 0.990496
0.999803 1.00492 0.990325
1.00038 1.00409 0.990141
0.998481 1.00504 0.991835
0.996733 1.00512 0.994409
0.999782 1.00443 0.990943
1.00052 1.00422 0.989859
1.00035 1.00386 0.990432
1.00007 1.00392 0.990888
1.00035 1.00423 0.990047
1.00002 1.00397 0.99086
0.99943 1.00407 0.991482
0.999729 1.00451 0.990684
0.999688 1.00449 0.990615
0.999286 1.00401 0.991615
1.00036 1.00252 0.991686
1.00065 1.00367 0.989341
0.999581 1.00474 0.990493
0.999848 1.00465 0.990433
0.999785 1.00435 0.990786
0.999944 1.0039 0.991038
1.00002 1.00284 0.991883
1.00009 1.00363 0.9911
1.00011 1.00272 0.991918
1.00014 1.00118 0.993326
1.00017 1.00283 0.991578
1.00007 1.00127 0.993392
1.00011 0.998639 0.996541
0.999991 1.00134 0.99345
1.00006 0.998626 0.99631
1.00005 0.996935 0.997934
1.00002 0.998652 0.996057
1 0.99701 0.999133
1 0.997002 0.999138
1.00013 1.00167 0.993177
0.999979 1.00012 0.994702
1.00009 1.00145 0.993229
1.0001 0.997827 0.99678
0.999993 0.999992 0.994797
1.00006 0.999938 0.994756
1.0001 0.997814 0.996779
1.00001 0.996549 0.999287
1.0001 0.997778 0.997228
0.999995 0.996616 0.998793
0.999976 0.996809 0.998259
0.999829 0.995126 0.88786
0.994682 0.99493 0.852128
0.998017 0.994888 0.969812
1.00046 0.995444 0.988169
1.00513 0.995044 0.990943
0.996161 0.995824 0.97374
1.00335 0.996231 0.988338
1.00117 0.995388 0.946469
0.99981 0.995713 0.889578
0.994709 0.994975 0.84494
0.998584 0.994863 0.977679
1.00001 0.996563 0.947539
0.99789 0.998276 0.896368
0.994781 0.99477 0.850791
1.00007 1.00327 0.991517
0.999896 1.00224 0.992635
1.00011 1.00128 0.993378
0.999965 1.0024 0.992423
0.999709 1.00316 0.992124
1.00003 1.00355 0.991249
1.00021 1.00272 0.991804
1.00029 1.00319 0.991061
1.00006 1.00268 0.992089
0.999978 1.00237 0.992398
1.00454 0.994802 0.992024
1.00485 0.994976 0.990585
1.00448 0.995332 0.989984
1.00187 0.999354 0.990945
1.00074 1.0045 0.990368
0.99974 1.00514 0.990121
1.00027 1.00258 0.992114
0.999687 1.00347 0.991942
1.0031 0.995232 0.992317
0.99989 1.00463 0.990316
0.999334 1.00429 0.991332
1.00447 0.996216 0.990626
1.0046 0.995255 0.990712
1.00111 0.999274 0.992925
0.999512 1.00518 0.990982
1.00058 0.996295 0.992522
1.00272 0.996587 0.993715
1.0002 1.00135 0.993119
0.999219 1.00473 0.990228
0.999514 1.00497 0.990269
0.999255 1.00509 0.991087
0.994742 0.995537 0.870057
0.999832 0.99488 0.903009
0.999985 0.994916 0.941733
0.999992 1.00361 0.99097
1.00169 1.00157 0.990185
1.00138 1.00005 0.991494
1.002 1.00009 0.991545
0.999829 0.994858 0.90543
0.999994 0.995897 0.939318
0.994882 0.994853 0.96324
0.996196 1.00229 0.990883
0.997281 0.998083 0.886393
0.99469 0.994886 0.852962
0.994754 0.994768 0.856693
0.999381 1.00328 0.992565
0.994687 0.995046 0.859361
0.994803 0.994824 0.865646
0.998741 1.0014 0.994573
0.999389 1.00209 0.993708
0.995404 0.999505 0.992369
0.994881 0.996902 0.965314
0.997418 0.999566 0.947236
0.996519 0.999904 0.890184
0.994804 0.994793 0.860047
0.99749 1.00336 0.995844
0.994799 0.995264 0.874257
0.994785 0.994777 0.86638
0.995453 1.00211 0.99975
0.994813 0.999147 0.972903
0.994893 0.999951 0.947997
0.994923 0.998814 0.885062
0.99488 0.994828 0.859774
0.999758 1.00283 0.992512
0.998599 1.0041 0.993381
0.996994 1.00493 0.995197
1.00031 1.00384 0.990497
1.00044 1.00401 0.990159
0.999873 1.00477 0.990196
0.998205 1.00509 0.992123
1.00043 1.00428 0.989867
0.999739 1.00445 0.990892
0.996888 1.00514 0.994852
0.995176 1.00529 0.997262
0.997271 1.00496 0.994649
1.00026 1.0041 0.990408
1.00036 1.00432 0.99
1.00005 1.00395 0.990811
0.999274 1.00401 0.991953
0.999718 1.00444 0.990694
0.999773 1.00448 0.990712
0.999301 1.00427 0.991668
0.999914 1.00374 0.991464
0.997907 1.00454 0.993421
1.00175 0.999034 0.992411
1.00036 1.00236 0.991837
1.0008 1.00282 0.990293
1.00274 1.00358 0.986553
1.00013 1.00453 0.990526
1.0004 1.00386 0.989835
0.999794 1.00464 0.990476
0.999651 1.00455 0.990576
0.999945 1.00457 0.990442
0.99991 1.0042 0.990792
1.00001 1.0032 0.991561
1.00007 1.0038 0.991029
1.0001 1.00279 0.991876
1.00019 1.00117 0.993268
1.00017 1.00264 0.991926
1.00017 1.00119 0.993333
1.00015 0.998641 0.996464
1.00008 1.00125 0.993405
1.00012 0.998631 0.996214
1.00005 0.997018 0.997853
1.00007 0.99861 0.996009
1.00003 0.996964 0.998534
1.00001 0.99699 0.999132
1.00017 1.00216 0.992388
1.00004 1.00025 0.994498
1.0001 1.00169 0.992999
1.00009 0.997891 0.996719
0.999987 1.0001 0.994705
1.00006 1.0015 0.993235
1.00003 0.996525 0.999285
1.00009 0.997829 0.99678
0.999996 0.999989 0.994799
1.0001 0.9978 0.996775
1 0.99657 0.999287
0.999978 0.996602 0.999285
0.994672 0.994806 0.85697
0.999855 0.995201 0.89601
0.994787 0.994998 0.86416
0.994682 0.994874 0.850029
0.995901 0.995605 0.971231
1.00347 0.995828 0.988771
1.00006 0.995616 0.944281
0.999821 0.996177 0.902399
0.99474 0.995538 0.833718
0.998272 0.995522 0.976952
1.00154 0.996575 0.935736
0.998119 0.998884 0.896818
0.9948 0.995084 0.845188
0.995453 0.995449 0.971202
0.997523 0.998451 0.937
0.995238 0.999659 0.88472
0.994822 0.994811 0.847269
1.00013 1.00412 0.990842
1.00003 1.0031 0.991645
0.99989 1.00225 0.992731
0.999716 1.00301 0.992293
1.00044 1.00397 0.990033
0.999973 1.00348 0.991397
1.00002 1.00304 0.99168
1.00058 1.00299 0.990988
1.00034 1.00322 0.99114
1.00009 1.00257 0.991981
1.00302 0.994828 0.992609
1.00454 0.995459 0.99059
1.00462 0.995438 0.990399
1.00111 0.998939 0.993082
1 1.00486 0.990911
0.999441 1.00444 0.991261
0.999831 1.00476 0.990179
0.999938 1.00492 0.989979
1.00036 0.996051 0.992824
0.999847 1.00492 0.990155
0.999556 1.00508 0.991059
1.00286 0.996104 0.993832
1.00086 1.00034 0.992965
0.998034 0.996914 0.993435
0.998106 0.999293 0.999378
0.998522 1.0035 0.993244
0.99999 1.00467 0.990199
0.999248 1.00494 0.991285
0.994848 0.995542 0.878874
0.994738 0.995418 0.867126
0.999815 0.994863 0.890858
0.999214 1.00301 0.992471
0.99915 1.00166 0.99369
0.99872 1.00125 0.994759
0.994683 0.994822 0.859237
0.997397 0.99826 0.937977
0.994845 0.996818 0.965634
0.995698 0.997545 0.995326
0.994779 0.99967 0.904069
0.994822 0.994848 0.865404
0.99482 0.994802 0.860356
0.997521 1.00316 0.99624
0.994815 0.995003 0.877001
0.994786 0.994776 0.866558
0.99557 1.00218 0.998712
0.994852 0.998819 0.974543
0.995796 0.999628 0.937618
0.994873 0.994825 0.858509
0.994882 0.999863 0.892706
0.995519 1.00496 0.998477
0.994758 0.99481 0.882211
0.99484 0.994787 0.870015
0.994802 0.994807 0.847977
0.99501 0.999925 0.99188
0.994943 0.999335 0.951439
0.995056 0.999241 0.895572
0.99904 1.0041 0.993681
0.997561 1.00509 0.994306
0.995119 1.00516 0.998389
1.00039 1.00429 0.989875
0.999634 1.0045 0.990838
0.996858 1.00497 0.995281
1.00008 1.00426 0.990379
0.997378 1.00481 0.994664
0.995357 1.0053 0.997159
0.995149 1.00526 0.998111
0.997415 1.00472 0.994325
0.999708 1.00446 0.990779
0.999826 1.00445 0.990741
0.999355 1.00446 0.99173
0.998219 1.00463 0.993282
0.999769 1.00373 0.991379
0.99948 1.00253 0.993243
1.00067 0.99957 0.993805
1.00158 1.00142 0.98966
1.00036 1.00222 0.991992
1.00136 1.00282 0.989899
1.00352 1.00246 0.986153
1.00383 1.00237 0.985626
1.00071 1.00456 0.989212
1.00234 1.00345 0.986739
0.999975 1.00485 0.990127
0.999967 1.00458 0.990512
1.0001 1.00403 0.99033
0.999998 1.00455 0.990458
0.999711 1.00448 0.990634
1.00006 1.00353 0.991163
1.00001 1.00408 0.990798
1.00008 1.00312 0.991567
1.00019 1.00139 0.993058
1.00015 1.00277 0.99187
1.00021 1.00117 0.99326
1.00015 0.998638 0.996453
1.00018 1.00116 0.99334
1.00016 0.998625 0.996145
1.00004 0.997099 0.997816
1.00014 0.998593 0.995912
1.00003 0.997019 0.998486
1.00002 0.99699 0.999116
1.00036 1.00231 0.991752
1.0001 1.00057 0.993847
1.0002 1.00214 0.992387
1.00012 0.99798 0.996583
1.00004 1.00025 0.994353
1.0001 1.00168 0.992825
1.00003 0.996579 0.999267
1.00009 0.997875 0.996725
0.99999 1.00007 0.994707
1.00002 0.996543 0.999286
1.00008 0.997832 0.99678
1 0.996563 0.999287
0.994838 0.994815 0.872289
0.994682 0.995048 0.865194
0.999841 0.995106 0.896323
1.00072 1.00302 0.99063
0.994788 0.994794 0.873037
0.994796 0.994871 0.864028
0.994688 0.994782 0.857347
0.998538 0.99586 0.975809
0.999685 0.996922 0.946336
0.997765 0.998115 0.884304
0.994791 0.995131 0.849398
0.996615 0.995056 0.967786
0.997428 0.99908 0.946467
0.996312 0.99989 0.888744
0.994812 0.994809 0.8513
0.994886 0.995207 0.96337
0.995127 0.999664 0.94601
0.99487 0.999977 0.894156
0.994886 0.994831 0.859476
1.0001 1.00463 0.990088
1.00009 1.00414 0.990641
1.00009 1.00296 0.991773
1.00052 1.00366 0.99028
1.00033 1.00404 0.990253
1 1.00344 0.991543
1.00062 1.003 0.990996
1.00035 1.00325 0.991214
0.999763 0.996973 0.993026
1.00306 0.995643 0.993901
1.00011 1.00503 0.989729
1.00132 0.999917 0.992805
0.999822 1.0051 0.991027
0.999998 1.00501 0.990042
0.999858 1.00469 0.99016
0.997207 0.997093 0.994117
0.999455 1.00469 0.991443
0.999073 1.00332 0.993332
0.997958 0.9991 0.999477
0.999989 1.00462 0.990507
0.99601 0.999752 0.991318
0.995137 1.00337 1.00016
0.997327 1.00501 0.993863
0.999461 1.00437 0.991733
0.994758 0.994782 0.887711
0.994852 0.99541 0.878125
0.994735 0.995356 0.864171
0.997498 1.00314 0.996661
0.995376 1.00185 0.997666
0.994812 0.994828 0.879631
0.994886 0.999955 0.948039
0.99486 0.998467 0.971848
0.99483 0.999933 0.892119
0.994785 0.994774 0.866669
0.994859 0.994826 0.857254
0.995784 1.00483 0.998131
0.994763 0.994813 0.882014
0.994833 0.994783 0.873237
0.99487 1.00068 0.995325
0.994795 0.994811 0.851813
0.99492 0.998508 0.945285
0.995008 0.999517 0.899453
0.994935 1.00408 0.998315
0.994783 0.994825 0.886183
0.994747 0.994801 0.873677
0.994781 0.994789 0.851254
0.995387 0.99999 0.893902
0.994902 1.0001 0.9802
0.995025 0.99948 0.93801
0.998261 1.00513 0.993423
0.995518 1.00517 0.997944
0.994923 1.0051 0.999219
0.999911 1.00434 0.99035
0.997445 1.00486 0.994682
0.995796 1.00528 0.997068
0.997603 1.00464 0.99425
0.995255 1.00482 0.99812
0.997648 1.00272 0.996956
0.998516 1.00473 0.993135
0.999531 1.0038 0.991295
0.999501 1.00268 0.993471
0.999041 1.00326 0.992053
0.999589 1.00007 0.99517
1.00152 1.00108 0.990374
1.00375 1.00258 0.985409
1.00485 1.00172 0.984438
1.00192 1.00282 0.989496
1.00383 1.00258 0.985392
1.00505 1.00123 0.985529
1.00207 1.00357 0.987187
1.00376 1.00242 0.985775
1.00003 1.00508 0.989479
1.00075 1.00455 0.98915
1.00194 1.00335 0.986927
1.00004 1.00406 0.990561
0.999798 1.00488 0.990234
0.999832 1.0046 0.990496
0.999782 1.00442 0.990693
1.00012 1.00346 0.991171
1.00022 1.00173 0.992646
1.00015 1.00307 0.991574
1.0002 1.0014 0.993048
1.00011 0.998762 0.995792
1.00023 1.00119 0.993253
1.00017 0.998636 0.995824
0.999935 0.997139 0.999079
1.00017 0.998619 0.995834
1.00002 0.997098 0.998447
1.00001 0.997045 0.999086
1.00038 1.00249 0.991491
1.00022 1.00089 0.993328
1.00032 1.00235 0.991866
1.00015 0.998133 0.99638
1.00013 1.00057 0.993783
1.0002 1.00215 0.992383
1.00004 0.996624 0.999236
1.00012 0.997961 0.996595
1.00005 1.00026 0.994209
1.00004 0.99655 0.999273
1.0001 0.997858 0.996731
1.00002 0.996561 0.999287
0.99477 0.994823 0.884505
0.994829 0.995136 0.872238
0.994676 0.995414 0.865323
1.00062 1.00306 0.990747
1.00055 1.00325 0.990508
1.00069 1.00323 0.990586
0.994858 0.994788 0.869426
0.99479 0.994793 0.873155
0.994807 0.9948 0.8639
0.996601 0.994868 0.969816
0.997996 0.9985 0.935686
0.995008 0.999935 0.902933
0.994832 0.994833 0.846995
0.994906 0.995704 0.9669
0.995706 0.99995 0.942409
0.994818 0.999668 0.892905
0.994878 0.994827 0.858089
0.994944 0.995946 0.962824
0.994877 0.999275 0.947858
0.99516 0.999654 0.895196
0.994833 0.994804 0.851609
1.00033 1.00393 0.990233
1.00023 1.00449 0.989923
1.00027 1.00401 0.990441
1.0006 1.00355 0.990246
1.00016 1.00412 0.990478
1.00063 1.00305 0.991004
0.996605 0.997279 0.994795
0.997549 0.998844 0.999622
0.999996 1.00442 0.990121
0.999607 1.00259 0.993414
0.999471 1.00464 0.991599
0.999825 1.00461 0.990423
0.99911 1.00446 0.991887
0.995662 0.999785 0.991441
0.997424 1.00509 0.994505
0.995503 1.00284 0.999326
0.999297 1.00394 0.992355
0.995464 1.00054 0.989332
0.995859 1.00343 0.996951
0.997514 1.00501 0.994774
0.994768 0.994782 0.890463
0.994754 0.994782 0.888306
0.994858 0.995222 0.877371
0.995925 1.00466 0.997757
0.994827 1.00082 0.991952
0.994772 0.994819 0.881824
0.994843 0.999207 0.946234
0.995032 0.999234 0.887089
0.994825 0.994784 0.876444
0.994817 0.994834 0.84771
0.995041 1.00391 0.99883
0.994777 0.994826 0.887503
0.994763 0.99479 0.873801
0.994911 0.999719 0.977146
0.994791 0.995267 0.845795
0.994914 0.999971 0.892208
0.994927 0.999468 0.949293
0.995079 1.00493 0.993645
0.994773 0.994819 0.884765
0.99482 0.995208 0.864857
0.994674 0.995184 0.856627
0.995637 0.998817 0.884551
0.995446 0.999942 0.946367
0.994928 1.00055 0.971091
0.995959 1.00521 0.9975
0.995222 1.0044 0.999144
0.997103 1.00269 0.99795
0.997766 1.00463 0.994177
0.995498 1.0044 0.998124
0.996514 1.00401 0.997085
0.999434 0.998416 0.998188
0.999549 1.00284 0.993697
1.00079 1.00248 0.991619
1.00232 1.00345 0.987436
1.00142 1.00084 0.991122
1.00365 1.00261 0.985677
1.00423 1.00396 0.983279
1.00481 1.0019 0.984099
1.00491 1.00136 0.984765
1.00483 1.00186 0.984275
1.00423 1.00264 0.984632
1.00454 1.00159 0.986169
1.00486 1.00116 0.985489
1.00107 1.00439 0.987925
1.0022 1.0036 0.987377
1.00373 1.00249 0.985922
1.00005 1.00475 0.989587
1.00025 1.00507 0.989444
1.00075 1.00456 0.989086
1.00023 1.00235 0.992067
1.00018 1.00399 0.990564
0.999641 1.00489 0.99034
1.00019 1.00337 0.991178
1.00025 1.00173 0.992639
1.00005 0.998997 0.995669
1.00023 1.00138 0.993039
1.00012 0.998768 0.995781
0.9999 0.997263 0.999065
1.00017 0.998641 0.99582
0.999976 0.997162 0.998443
0.99999 0.99712 0.999071
1.0004 1.00288 0.991296
1.00031 1.00112 0.993138
1.00042 1.00246 0.99156
1.00019 0.998324 0.996116
1.00021 1.00089 0.993412
1.00032 1.00236 0.991981
1.00005 0.996729 0.99919
1.00015 0.998104 0.996397
1.00015 1.00056 0.993719
1.00004 0.996623 0.999245
1.00012 0.997946 0.996607
1.00004 0.996557 0.99928
0.994789 0.994824 0.885812
0.994776 0.994823 0.884311
0.99482 0.995311 0.872297
1.00041 1.00397 0.990004
1.00084 1.00397 0.989633
1.00053 1.00311 0.990866
1.00049 1.00342 0.990457
1.00048 1.00335 0.990601
1.00035 1.00369 0.990461
1.00042 1.00341 0.990666
0.994795 0.994778 0.865857
0.994848 0.994786 0.872713
0.994788 0.99478 0.873284
0.994869 0.994822 0.856754
0.994913 0.99592 0.963787
0.994999 0.999957 0.938795
0.994873 0.99911 0.902356
0.994967 0.996644 0.961828
0.994881 0.999708 0.937762
0.994962 0.999369 0.899601
0.994812 0.994793 0.860125
0.995871 0.996299 0.965484
0.994912 0.999844 0.938275
0.995001 0.999323 0.885581
0.994809 0.994911 0.849467
0.999342 1.0049 0.991211
1.00018 1.00418 0.990289
1.0003 1.00461 0.989758
1.00068 1.00352 0.990213
0.995338 1.00014 0.991761
0.995536 1.00344 0.998436
0.999719 1.005 0.990341
0.999065 1.00436 0.99204
0.99768 1.0051 0.995134
0.999288 1.0039 0.992266
0.997339 1.00499 0.99476
0.995672 1.00167 0.986363
0.99502 1.0046 0.997558
0.997103 1.0044 0.995662
0.994755 1.00063 0.986685
0.996478 1.0039 0.998005
0.994755 0.994783 0.88784
0.994777 0.994783 0.893271
0.994745 0.994781 0.888896
0.994956 1.00376 0.999285
0.994935 0.99853 0.980947
0.994772 0.994815 0.888866
0.995638 0.998897 0.938725
0.994924 0.999427 0.901798
0.994777 0.994772 0.873923
0.994767 0.995334 0.849937
0.994907 1.00411 0.994377
0.994777 0.994812 0.884586
0.994795 0.994986 0.86475
0.994937 1.00066 0.971608
0.994714 0.995123 0.845764
0.996362 0.999909 0.888242
0.994915 0.999868 0.937203
0.995523 1.00468 0.988172
0.994833 0.994808 0.872945
0.99468 0.99513 0.853028
0.998306 0.997049 0.897097
0.994896 0.99993 0.945982
0.995006 1.00002 0.964457
0.995266 1.00388 0.999341
0.996206 1.00348 0.998029
0.99703 0.999839 0.999968
0.995447 1.00511 0.997203
0.998045 0.999344 0.998378
1.0022 0.998573 0.993369
1.00255 1.00155 0.991186
1.00278 1.00319 0.987302
1.00326 1.00418 0.984311
1.00348 1.00264 0.985947
1.00446 1.00388 0.983035
1.00423 1.00453 0.982674
1.00495 1.00113 0.98476
1.00502 1.00118 0.984671
1.00477 1.0021 0.984049
1.00489 1.0011 0.985246
1.00492 1.00123 0.984886
1.00478 1.00206 0.984113
1.00336 1.00309 0.986103
1.00423 1.00152 0.986092
1.00464 1.00108 0.985452
1.00069 1.00501 0.988369
1.0011 1.00451 0.988164
1.00234 1.00359 0.987571
1.00017 1.00329 0.9911
1.00028 1.00472 0.989607
1.00043 1.00507 0.989409
0.999978 0.999301 0.995481
1.00027 1.00229 0.992055
1.00031 1.00393 0.990567
1.00027 1.00173 0.992632
1.00005 0.999026 0.99565
0.99983 0.997449 0.999045
1.00013 0.998769 0.99577
0.999895 0.997292 0.999061
0.999948 0.997176 0.99907
1.00031 1.00444 0.989844
1.00055 1.0032 0.990765
1.00035 1.00152 0.992683
1.00042 1.00283 0.991285
1.00019 0.998588 0.995833
1.0003 1.00114 0.993136
1.00038 1.00251 0.991628
1.00004 0.996872 0.999128
1.00018 0.99832 0.996134
1.00021 1.0009 0.993495
1.00005 0.996708 0.999204
1.00015 0.998086 0.996414
1.00005 0.996592 0.999255
0.994757 0.994804 0.881781
0.994777 0.994822 0.887175
0.994784 0.994826 0.884096
1.00047 1.00403 0.990024
1.00063 1.00396 0.989717
1.00023 1.00325 0.990482
1.00019 1.00436 0.989847
1.00076 1.00413 0.990033
1.00051 1.00351 0.990404
1.0004 1.00347 0.990616
1.00043 1.00365 0.99047
1.00046 1.0035 0.990717
0.99991 1.00445 0.990692
0.994827 0.99481 0.865672
0.994791 0.994774 0.866103
0.994839 0.994785 0.875962
0.994818 0.994802 0.860416
0.995143 0.999649 0.886969
0.995037 0.997512 0.960249
0.994893 0.999703 0.947668
0.995288 0.996438 0.962295
0.994913 0.998564 0.948552
0.994849 0.999882 0.893966
0.994814 0.994841 0.847907
0.99482 0.995913 0.966989
0.99488 0.999974 0.948332
0.995007 0.999814 0.902008
0.994758 0.995182 0.855399
0.998459 1.00399 0.993247
0.999409 1.00475 0.991154
1.00018 1.00415 0.990347
0.995643 1.00191 0.983176
0.994969 1.00468 0.998178
0.99922 1.0038 0.992177
0.996768 1.00508 0.994757
0.997161 1.00402 0.995648
0.99592 1.00351 0.998149
0.995026 1.00019 0.986308
0.995867 1.00201 0.999063
0.995884 0.999685 0.989571
0.994824 0.995271 0.878324
0.994754 0.994788 0.888409
0.994788 0.994792 0.896084
0.994922 1.00294 0.994718
0.994946 1.00053 0.968496
0.994783 0.99483 0.884376
0.995467 0.999957 0.945754
0.994791 0.999925 0.902191
0.99477 0.995115 0.864675
0.994757 0.995634 0.834582
0.995544 1.00456 0.988802
0.994822 0.994909 0.872894
0.994695 0.995137 0.850915
0.994941 0.999995 0.965417
0.998187 0.99855 0.897423
0.995732 0.999916 0.941201
0.994987 1.00465 0.986218
0.99467 0.994802 0.857946
0.99977 0.996378 0.90287
0.997409 0.998158 0.937072
0.994847 0.997378 0.967535
0.995575 1.00428 0.998092
0.996709 1.00023 0.999934
0.99946 1.00266 0.994849
0.996641 1.00038 0.998526
1.00104 0.9991 0.993788
1.00346 0.999585 0.98899
1.00318 1.00286 0.987162
1.00324 1.00415 0.984266
1.00419 1.00192 0.984739
1.00471 1.0039 0.982794
1.00425 1.00414 0.982783
1.00474 1.00105 0.985178
1.00516 0.99884 0.98651
1.00511 1.00039 0.985103
1.00491 1.00102 0.984852
1.00508 1.0014 0.984574
1.00503 1.00122 0.984632
1.00474 1.00224 0.983998
1.00462 1.00178 0.985214
1.00462 1.00114 0.985396
1.00494 1.0011 0.985007
1.00212 1.00408 0.987009
1.00311 1.00307 0.98628
1.0039 1.00149 0.986013
1.00019 1.00451 0.989599
1.00084 1.00501 0.98837
1.00118 1.00464 0.988402
0.999916 0.999929 0.995662
1.00029 1.00323 0.991082
1.0005 1.0047 0.989628
0.999773 0.997711 0.997637
0.999971 0.999422 0.995717
1.00032 1.00222 0.992042
1.00004 0.999056 0.995632
0.999828 0.997477 0.999034
0.999889 0.997299 0.999056
1.00019 1.00467 0.9899
1.00046 1.0039 0.990221
1.00026 1.00447 0.989807
1.00039 1.00194 0.992207
1.00041 1.00339 0.990761
1.00017 0.998912 0.995554
1.00035 1.00149 0.99269
1.00051 1.00273 0.991274
1.00002 0.997075 0.999061
1.00019 0.998568 0.995848
1.00029 1.00116 0.993133
1.00004 0.996861 0.999147
1.00017 0.998304 0.996152
1.00005 0.996693 0.999218
0.994802 0.994827 0.880578
0.994765 0.994812 0.881587
0.994766 0.994821 0.88857
1.00049 1.00296 0.990733
1.00035 1.00424 0.990044
1.00054 1.00392 0.9898
1.00041 1.00442 0.989769
1.00064 1.00309 0.990518
1.00052 1.00388 0.990483
1.00132 1.00334 0.989286
0.999474 1.00483 0.990372
1.00047 1.00359 0.99048
1.00019 1.00352 0.990766
0.999787 1.00437 0.990668
0.999003 1.0051 0.991914
0.994693 0.995359 0.854894
0.994825 0.994864 0.865305
0.994791 0.994771 0.86629
0.994786 0.994775 0.855998
0.994836 0.999908 0.893689
0.99511 0.999441 0.938297
0.994999 0.996398 0.961608
0.994951 0.995992 0.968101
0.994752 0.995475 0.844751
0.994886 0.999149 0.942447
0.996479 0.999931 0.889055
0.994881 0.996148 0.969907
0.99489 0.999938 0.948749
0.998712 0.998358 0.893198
0.999064 1.0014 0.995425
0.998557 1.0041 0.993219
0.99934 1.00464 0.991096
0.995079 1.00042 0.986378
0.995375 1.00323 0.998282
0.99727 1.00366 0.99564
0.996942 1.00189 0.998967
0.995312 0.999359 0.989689
0.996955 0.998545 0.992863
0.994751 0.995416 0.864779
0.994833 0.995031 0.881127
0.994745 0.994779 0.888968
0.995369 1.00448 0.989123
0.994861 0.999997 0.965455
0.99481 0.994973 0.872962
0.994832 0.999942 0.938038
0.998189 0.997002 0.885111
0.994726 0.994805 0.858173
0.994941 1.00446 0.986271
0.994681 0.99488 0.866033
0.9998 0.995375 0.890564
0.994876 0.996847 0.963562
0.997434 0.998743 0.946567
0.995285 1.00331 0.991028
0.999807 0.995055 0.888431
1 0.996192 0.94811
0.994881 0.994921 0.962908
0.996337 1.00034 0.999986
0.999023 1.00171 0.994746
1.00231 1.00251 0.989421
0.999983 0.999701 0.994208
1.00293 1.00026 0.988881
1.00442 0.998889 0.987855
1.00322 1.00413 0.98422
1.0041 1.00202 0.984731
1.00495 0.997486 0.98764
1.00425 1.0037 0.98289
1.00465 1.00083 0.98522
1.00516 0.997037 0.988199
1.00514 0.997008 0.988525
1.00517 0.999064 0.986321
1.00516 0.998712 0.986658
1.00514 1.00044 0.985058
1.00511 1.00039 0.985208
1.00489 1.00091 0.984943
1.00512 1.00122 0.984739
1.00497 1.00131 0.984691
1.00503 1.00123 0.984591
1.00382 1.00232 0.985898
1.0045 1.00179 0.985201
1.00441 1.00115 0.985544
1.00093 1.00486 0.988174
1.00224 1.00406 0.986984
1.00278 1.00302 0.986459
0.999796 1.00097 0.994012
1.0005 1.00433 0.989601
1.00104 1.00501 0.98837
0.999669 0.998092 0.998897
0.999909 1.00004 0.994866
1.00042 1.00314 0.991064
0.999776 0.997692 0.998993
0.999946 0.999511 0.995363
0.999827 0.997525 0.999023
1.00089 1.00379 0.989627
1.00024 1.00462 0.989815
1.00044 1.00447 0.989719
1.00028 1.00261 0.991724
1.00041 1.00392 0.990211
1.00033 1.00437 0.98977
1.00015 0.999243 0.995267
1.00035 1.00199 0.992216
1.0003 1.00354 0.990757
0.999992 0.997295 0.998992
1.00018 0.998863 0.995569
1.00036 1.00148 0.992696
1.00003 0.997036 0.999081
1.00019 0.998551 0.995864
1.00004 0.996826 0.999166
0.994696 0.995056 0.853286
0.994821 0.994824 0.880587
0.994778 0.994822 0.8814
1.00035 1.00321 0.990676
1.00208 1.003 0.989558
1.00063 1.00346 0.990282
1.00045 1.00452 0.98969
1.00104 1.00292 0.990551
1.00004 1.00346 0.990929
0.9998 1.00476 0.990235
1.00095 1.00362 0.989476
1.00065 1.00453 0.989317
0.999762 1.00058 0.994286
1.00007 1.0043 0.990645
0.999125 1.00503 0.991581
0.999807 0.996968 0.88446
0.994699 0.995403 0.849003
0.994827 0.994941 0.865128
0.99476 0.995954 0.833717
0.996227 0.999126 0.90241
0.99485 0.999851 0.939365
0.995274 0.995543 0.965588
0.994849 0.996074 0.96852
0.99817 0.999089 0.895609
0.995789 0.999778 0.9385
0.994876 0.997454 0.970156
0.998086 0.998371 0.936884
1.00169 0.997446 0.995325
0.998983 1.00162 0.995354
0.998611 1.00425 0.993197
0.994849 0.999101 0.989789
0.997676 1.00179 0.998844
0.997479 0.998681 0.992526
0.998487 0.997476 0.990722
0.999838 0.994864 0.898649
0.994733 0.995204 0.864037
0.994854 0.994817 0.883828
0.994908 1.00454 0.986522
0.994871 0.996436 0.961644
0.994678 0.994965 0.866126
0.998413 0.997617 0.93628
0.999803 0.995436 0.903514
0.995267 1.00241 0.988378
0.999833 0.99506 0.896678
1.00133 0.996219 0.936666
0.994889 0.995071 0.96618
0.997946 0.998001 0.990006
1.00002 0.995059 0.94894
0.995968 0.995267 0.969059
0.998496 1.00083 0.994572
1.00201 1.00082 0.989429
1.00483 0.998273 0.988802
1.00232 1.00083 0.988783
1.00411 0.99898 0.987874
1.00494 0.996211 0.989395
1.00411 1.00209 0.984725
1.00491 0.997863 0.987557
1.00515 0.995431 0.989687
1.00458 1.00062 0.985261
1.00517 0.997065 0.988164
1.00516 0.995506 0.989881
1.00514 0.996094 0.989718
1.00515 0.996838 0.988742
1.00515 0.997643 0.988077
1.00519 0.999463 0.986156
1.00517 0.999134 0.986385
1.00516 0.998584 0.986808
1.00518 1.00078 0.984986
1.00516 1.00047 0.985024
1.0051 1.00037 0.985313
1.00477 1.00124 0.985359
1.00506 1.00125 0.984743
1.00483 1.00127 0.984811
1.0021 1.0039 0.987289
1.00378 1.00244 0.985891
1.00445 1.00183 0.985188
0.99999 1.00198 0.992601
1.00106 1.00478 0.988179
1.00242 1.00395 0.986961
0.999723 0.998436 0.998723
0.999837 1.00106 0.993965
1.00075 1.00433 0.989603
0.999721 0.998095 0.99814
0.999906 1.00011 0.994859
0.999791 0.997781 0.998942
1.00151 1.00279 0.989523
1.0005 1.004 0.989807
1.00032 1.0049 0.989328
1.00033 1.00461 0.98973
1.0003 1.00462 0.989703
1.00025 1.00328 0.991132
1.00007 0.999704 0.994952
1.00028 1.00257 0.991731
1.00031 1.00404 0.990202
0.999946 0.997528 0.998914
1.00013 0.999234 0.995281
1.00031 1.00202 0.992225
0.999993 0.997254 0.999014
1.00018 0.998832 0.995583
1.00003 0.997017 0.999101
0.999813 0.99487 0.896975
0.994694 0.994941 0.856925
0.994822 0.994818 0.880552
1.00021 1.0036 0.990619
1.00066 1.00419 0.989465
1.00157 1.00308 0.989857
1.00335 1.00346 0.985764
1.00055 1.00406 0.989914
0.99997 1.00482 0.990103
1.00074 1.00394 0.989669
1.00032 1.00454 0.989588
1.00148 1.00276 0.988521
1.00149 0.999767 0.992829
1.00413 0.995957 0.991314
1.0002 1.00003 0.994287
0.999694 1.00415 0.991248
0.998568 0.996844 0.947244
0.999791 0.996822 0.889585
0.994708 0.995311 0.851903
0.998662 0.999319 0.882793
0.995182 0.99996 0.946142
0.994808 0.995857 0.9694
0.994879 0.99733 0.971784
0.997406 0.998872 0.948171
0.995855 0.99673 0.97143
1.00164 0.995933 0.995781
1.00098 0.998144 0.995371
0.998897 1.00196 0.99528
0.99819 0.998205 0.992292
0.998894 0.997504 0.990847
0.999978 0.995009 0.941475
0.999832 0.994891 0.902877
0.994703 0.994949 0.863403
0.994909 1.00162 0.985648
0.994932 0.994887 0.963199
0.999826 0.99512 0.897056
1.00021 0.996225 0.946726
0.997038 0.998718 0.990479
1.0009 0.995313 0.94673
0.996606 0.994902 0.966232
1.00136 0.996152 0.989298
0.998915 0.99509 0.975533
1.00193 0.99897 0.989537
1.00474 0.997105 0.988752
1.00501 0.995836 0.990428
1.00376 0.999115 0.98789
1.00473 0.996354 0.989309
1.00517 0.99493 0.990269
1.00479 0.998306 0.987475
1.00515 0.995529 0.989627
1.00514 0.994949 0.990445
1.00517 0.997072 0.988129
1.00516 0.995558 0.989835
1.00517 0.995169 0.990376
1.00514 0.995878 0.989833
1.00513 0.996516 0.989307
1.00516 0.996668 0.988958
1.00515 0.997654 0.988057
1.00519 0.998463 0.987211
1.0052 1.00009 0.98567
1.00519 0.999514 0.986135
1.00517 0.999203 0.98645
1.00511 1.00076 0.985184
1.00516 1.00082 0.984918
1.00518 1.00049 0.984988
1.00323 1.00234 0.986817
1.00467 1.00135 0.985365
1.00496 1.00129 0.984748
1.00056 1.00226 0.991412
1.00209 1.00388 0.987291
1.00365 1.00265 0.985884
0.999858 0.999136 0.998367
1.00009 1.00199 0.992581
1.00128 1.00458 0.988182
0.999795 0.998607 0.998613
0.999905 1.00112 0.993917
0.999792 0.998135 0.9988
1.00329 1.00283 0.98596
1.00161 1.00265 0.989461
1.00059 1.00444 0.989017
1.00015 1.00408 0.989989
1.00028 1.00484 0.989318
1.00032 1.00392 0.990356
1.0002 1.00467 0.989688
1.00021 1.00328 0.991135
1.00001 1.00019 0.994577
0.999879 0.997865 0.998824
1.00006 0.999657 0.994967
1.00028 1.00254 0.991738
0.999947 0.997513 0.99894
1.00012 0.999214 0.995293
0.999998 0.997211 0.999035
1.00003 0.994943 0.951183
0.999865 0.994877 0.895987
0.994695 0.994838 0.852885
1.00068 1.00476 0.988648
1.00116 1.00289 0.99016
1.00098 1.00387 0.989625
1.00318 1.00356 0.986063
1.00436 1.00257 0.984186
1.00167 1.00342 0.987747
1.00002 1.0045 0.989854
1.0023 1.00256 0.98768
1.00133 0.999617 0.992917
1.00312 0.999284 0.989247
1.00472 0.995438 0.991306
1.00394 0.995937 0.991695
1.0037 0.995987 0.991695
1.00001 1.00017 0.994289
0.996003 0.995595 0.970453
0.999916 0.996679 0.943874
0.9982 0.996789 0.90195
0.997396 0.999207 0.936864
0.994878 0.997636 0.972232
0.995612 0.997038 0.976539
0.999557 0.997337 0.992129
1.00207 0.995638 0.995566
1.00049 0.998847 0.995421
0.999958 0.998335 0.990979
0.996555 0.997162 0.971396
1.00009 0.994999 0.952177
0.999825 0.994881 0.890632
0.996249 0.999377 0.990779
0.996754 0.994864 0.967955
1.00003 0.995962 0.944364
1.00072 0.996081 0.989414
0.998401 0.995588 0.974954
1.00357 0.995382 0.990462
1.00276 0.998061 0.986492
1.00452 0.996033 0.988666
1.00483 0.995605 0.990468
1.00516 0.994867 0.990675
1.00462 0.99649 0.989224
1.00517 0.994934 0.990231
1.00516 0.994937 0.990503
1.00515 0.995586 0.989568
1.00513 0.994993 0.990412
1.00519 0.994974 0.99051
1.00516 0.995619 0.989789
1.00515 0.995207 0.990321
1.00516 0.995553 0.990018
1.00514 0.995671 0.989945
1.00514 0.996372 0.989431
1.00516 0.997699 0.988144
1.00515 0.997665 0.988036
1.00519 0.998523 0.987184
1.00521 0.999462 0.986367
1.0052 1.00038 0.985361
1.00521 1.00016 0.985578
1.00519 0.999565 0.986115
1.00405 1.00108 0.98665
1.00506 1.0008 0.985201
1.00514 1.00085 0.984849
1.00106 1.00206 0.990749
1.00318 1.00245 0.986821
1.00457 1.00146 0.985372
1.00013 0.999727 0.997911
1.00068 1.00214 0.991399
1.00207 1.00388 0.987293
0.999997 0.999266 0.998187
1.00015 1.00204 0.992563
0.999905 0.998707 0.998472
1.00443 1.00227 0.984558
1.00369 1.00274 0.986012
1.00229 1.00389 0.986793
1.00157 1.00266 0.989399
1.00075 1.00433 0.988853
1.00076 1.00422 0.98938
1.00021 1.00484 0.989307
1.0003 1.00392 0.990348
0.999961 1.00075 0.994109
1.00017 1.00328 0.991138
0.999992 1.00015 0.994601
0.99981 0.998223 0.998718
0.999882 0.9978 0.998855
1.00006 0.999621 0.994982
0.999944 0.99746 0.998964
0.996877 0.994851 0.971899
1.00001 0.995418 0.940639
0.999839 0.994904 0.904835
1.00517 1.0007 0.984707
1.00143 1.00379 0.989337
1.00301 1.00369 0.986364
1.00217 1.00323 0.987615
1.00442 1.0028 0.984154
1.00393 1.00066 0.986903
1.00307 1.00257 0.986839
1.0011 0.999502 0.99301
1.00353 0.999244 0.989056
1.00472 0.995549 0.990695
1.0048 0.995929 0.989699
1.0041 0.995533 0.992146
1.00384 0.995611 0.991698
1.00324 0.996102 0.992074
0.999788 0.996867 0.991429
0.995816 0.995361 0.968747
0.999301 0.99602 0.940989
0.995148 0.9969 0.975208
0.999647 0.996588 0.994284
1.00195 0.995028 0.995333
1.00066 0.997479 0.985474
0.996464 0.995994 0.972576
0.999972 0.9949 0.941511
0.999868 0.996489 0.989597
0.998502 0.995823 0.973963
1.00297 0.995468 0.990821
1.00287 0.997464 0.987067
1.00434 0.994842 0.991109
1.00466 0.997444 0.990603
1.0047 0.995362 0.990503
1.00516 0.994866 0.990568
1.00523 0.994857 0.990423
1.00516 0.994935 0.990193
1.00515 0.994929 0.990496
1.00522 0.994915 0.99048
1.00513 0.995045 0.990378
1.00518 0.994955 0.990501
1.0052 0.99522 0.990339
1.00514 0.995228 0.990267
1.00516 0.995565 0.990002
1.00517 0.996724 0.989009
1.00515 0.996229 0.989556
1.00517 0.997547 0.988326
1.00521 0.998921 0.986926
1.00519 0.998584 0.987157
1.0052 0.999454 0.986368
1.00522 1.00015 0.985623
1.00438 1.00047 0.986674
1.00518 1.00046 0.98532
1.00522 1.00024 0.985486
1.00158 1.00139 0.990551
1.00401 1.00115 0.986641
1.00502 1.00084 0.985217
1.0003 1.00012 0.997612
1.00125 1.00181 0.990742
1.00314 1.0025 0.986825
1.00024 0.999805 0.997786
1.00084 1.00197 0.991389
1.00013 0.999406 0.998013
1.00514 1.0013 0.984402
1.00469 1.00217 0.984536
1.00418 1.00248 0.985295
1.00411 1.00266 0.986064
1.00244 1.00391 0.98673
1.00137 1.00442 0.988156
1.00095 1.00425 0.988687
1.00055 1.00442 0.989384
0.999995 1.00141 0.993421
1.00022 1.00397 0.990342
0.999942 1.00069 0.994139
0.999764 0.998646 0.998581
0.999973 1.0001 0.994625
0.99981 0.998159 0.998757
0.999886 0.997761 0.998885
1.00105 0.994861 0.989403
0.996694 0.99487 0.968641
0.999994 0.994912 0.951464
1.0051 0.999427 0.986311
1.00518 0.998991 0.986642
1.00515 1.00057 0.984897
1.00265 1.00292 0.987479
1.0045 1.00304 0.984119
1.00407 1.00047 0.987053
1.00501 0.997047 0.988268
1.00396 0.999131 0.988869
1.00472 0.995745 0.990077
1.00481 0.996228 0.989824
1.00507 0.995218 0.990236
1.00415 0.995485 0.991659
1.00377 0.995684 0.992097
1.00401 0.995302 0.991699
1.00016 0.99665 0.991559
0.995739 0.995222 0.967118
0.999941 0.996356 0.996526
1.00432 0.995432 0.991595
1.0006 0.997452 0.98567
0.996354 0.995649 0.970395
1.00275 0.994874 0.991155
1.00293 0.997235 0.987676
1.00441 0.994952 0.99156
1.00468 0.996702 0.990617
1.00527 0.994929 0.99049
1.00533 0.994965 0.99068
1.00517 0.994863 0.990464
1.00523 0.994881 0.990405
1.00523 0.994908 0.990427
1.00514 0.994924 0.990489
1.00522 0.994914 0.990489
1.00522 0.995019 0.990504
1.00518 0.994949 0.990492
1.0052 0.995203 0.990322
1.00517 0.996063 0.989643
1.00517 0.995579 0.989986
1.00517 0.996747 0.989005
1.00522 0.998354 0.987418
1.00517 0.99739 0.988507
1.00521 0.998857 0.986994
1.00523 0.999929 0.985823
1.0052 0.999448 0.986369
1.00522 1.00011 0.985666
1.00451 1.00022 0.986739
1.00185 1.00074 0.99069
1.00437 1.00051 0.986668
1.00515 1.00054 0.985279
1.00038 1.00035 0.997436
1.00163 1.00132 0.990548
1.00395 1.00128 0.986633
1.00035 1.00019 0.99753
1.00136 1.00167 0.990737
1.00031 0.999908 0.997672
1.00525 1.00004 0.98551
1.00516 1.00121 0.984518
1.005 1.00112 0.984996
1.00493 1.00206 0.984514
1.0041 1.00243 0.985308
1.00243 1.00352 0.987154
1.00252 1.0039 0.98667
1.00112 1.00471 0.988181
1.00026 1.00213 0.992266
1.00038 1.00467 0.989389
0.999943 1.00136 0.993448
0.999788 0.999149 0.998345
0.999928 1.00063 0.994168
0.999746 0.998545 0.998635
0.999809 0.998086 0.998793
1.00418 0.99485 0.992363
1.00103 0.994886 0.987545
0.996568 0.994879 0.967759
1.00513 0.9982 0.987666
1.00512 0.999014 0.986581
1.00523 0.997649 0.987891
1.00519 0.998967 0.986635
1.00513 1.00043 0.985088
1.00516 0.99605 0.989135
1.00422 1.00032 0.987203
1.005 0.997325 0.988241
1.00522 0.9949 0.990285
1.00482 0.996444 0.98995
1.00502 0.995291 0.990111
1.00414 0.995574 0.991811
1.00324 0.995779 0.992044
1.00048 0.996301 0.991583
1.0053 0.99493 0.990486
1.00425 0.99621 0.991696
1.00066 0.997093 0.98586
1.00442 0.995117 0.991999
1.00467 0.996011 0.990636
1.00526 0.994917 0.990532
1.00534 0.994975 0.990618
1.00526 0.99495 0.99066
1.00524 0.994904 0.990387
1.00523 0.994916 0.990444
1.00518 0.994926 0.990677
1.00521 0.994912 0.990498
1.00522 0.994995 0.990477
1.00518 0.995552 0.990158
1.00519 0.995186 0.990305
1.00518 0.996089 0.98963
1.00523 0.997798 0.987987
1.00517 0.99677 0.989001
1.00522 0.998364 0.987434
1.00525 0.999695 0.986063
1.0052 0.998794 0.987063
1.00523 0.999923 0.985844
1.00456 1.00012 0.986755
1.00522 1.00007 0.98571
1.00451 1.00022 0.986739
1.00191 1.00038 0.992369
1.00061 1.00011 0.994518
1.00189 1.00072 0.991409
1.00436 1.00056 0.986663
1.0004 1.00039 0.997405
1.00176 1.00114 0.990542
1.00038 1.00029 0.997455
1.00525 0.997507 0.98814
1.00525 0.999025 0.986624
1.00525 1.00004 0.985644
1.00509 1.00055 0.985342
1.00519 1.00114 0.984631
1.00503 1.00108 0.984974
1.00354 1.00179 0.986805
1.00406 1.00235 0.98532
1.00242 1.00343 0.987154
1.0008 1.0024 0.991037
1.00092 1.0049 0.988204
1.00012 1.00227 0.992291
0.999937 0.99986 0.997914
0.999899 1.00134 0.993474
0.999725 0.999041 0.998443
0.99974 0.998464 0.998683
1.00529 0.994853 0.990486
1.0045 0.994849 0.992209
1.0012 0.994902 0.985737
1.00518 0.996608 0.988786
1.00512 0.998124 0.987505
1.00513 0.998622 0.98685
1.00522 0.997792 0.987862
1.0052 0.998936 0.986629
1.00524 0.995269 0.99021
1.00514 0.99606 0.989099
1.00498 0.997629 0.988213
1.00522 0.994899 0.990291
1.00502 0.995388 0.989986
1.00414 0.995692 0.991979
1.00525 0.994927 0.990746
1.0053 0.99493 0.990665
1.00417 0.996962 0.991804
1.00525 0.994908 0.990566
1.00535 0.994961 0.990558
1.00527 0.994946 0.990609
1.00514 0.994957 0.99094
1.00522 0.994926 0.99046
1.00519 0.994927 0.990641
1.0052 0.995178 0.990589
1.00522 0.994971 0.990451
1.00519 0.995566 0.990151
1.00523 0.997354 0.988454
1.0052 0.996115 0.989616
1.00523 0.997808 0.987997
1.00526 0.999457 0.986315
1.00522 0.998372 0.987449
1.00525 0.999686 0.986082
1.00459 1.0001 0.986733
1.00523 0.999916 0.985864
1.00457 1.00011 0.986761
1.00203 1.0001 0.992477
1.00451 1.00023 0.986739
1.00208 1.00029 0.99228
1.00062 0.99999 0.994662
1.00039 1.00036 0.996001
1.00206 1.00066 0.991989
1.00039 1.00047 0.997388
1.00519 0.99677 0.988992
1.00525 0.998639 0.986965
1.00524 0.997313 0.988341
1.00522 1 0.985721
1.00526 0.999107 0.986581
1.00525 1.00005 0.985779
1.00514 1.00053 0.985304
1.00417 1.00077 0.986757
1.00508 1.00106 0.984952
1.00367 1.0016 0.986793
1.00138 1.00184 0.99049
1.0024 1.00338 0.987156
1.00064 1.00254 0.991044
1.00009 1.00058 0.997516
0.999943 1.00233 0.992314
0.999804 0.99973 0.998093
0.999692 0.998909 0.998526
1.00524 0.994876 0.9906
1.00528 0.994855 0.990467
1.00476 0.994857 0.992026
1.00519 0.995738 0.989869
1.00516 0.996701 0.988766
1.00511 0.998053 0.987349
1.00521 0.997938 0.987835
1.00522 0.995269 0.990164
1.00512 0.996086 0.989062
1.00521 0.9949 0.990298
1.00518 0.994928 0.99093
1.00524 0.994926 0.990741
1.00529 0.994932 0.990842
1.00511 0.994952 0.991068
1.00527 0.994939 0.990558
1.00515 0.994952 0.990931
1.00521 0.994988 0.990832
1.0052 0.994927 0.990604
1.00517 0.9952 0.990593
1.00523 0.997103 0.988723
1.00519 0.995583 0.990145
1.00522 0.997368 0.988462
1.00526 0.999207 0.986589
1.00523 0.99782 0.988008
1.00526 0.999445 0.986333
1.00462 1.00007 0.986729
1.00525 0.999677 0.986101
1.0046 1.00009 0.986746
1.00209 1.00005 0.992425
1.00459 1.0001 0.986767
1.00217 1.00004 0.992363
1.00068 0.999889 0.9947
1.00224 1.00019 0.992199
1.0003 1.00015 0.994873
0.999922 1.00066 0.997759
1.0052 0.996683 0.988983
1.00523 0.998012 0.987721
1.00521 0.996841 0.988836
1.00527 0.999664 0.986151
1.00526 0.998412 0.987165
1.00523 0.997125 0.988542
1.00449 1.0002 0.986773
1.00523 0.999995 0.985688
1.00526 0.999184 0.986539
1.0052 1.00052 0.985266
1.00421 1.00069 0.98676
1.00166 1.00123 0.990569
1.00377 1.00138 0.986783
1.00125 1.002 0.990494
1.00013 1.00094 0.997374
1.0005 1.00272 0.991057
0.999997 1.00041 0.997656
0.999701 0.999544 0.998247
1.00517 0.995165 0.990624
1.00524 0.994877 0.990594
1.00527 0.994855 0.990448
1.00519 0.995617 0.989999
1.00515 0.996783 0.988746
1.00522 0.995253 0.990119
1.00516 0.994934 0.991006
1.00518 0.994934 0.990939
1.00524 0.994924 0.990737
1.0051 0.994957 0.991089
1.0052 0.995258 0.990652
1.00516 0.994947 0.990923
1.00519 0.995184 0.990684
1.00528 0.996591 0.989213
1.00514 0.995218 0.990597
1.00524 0.997079 0.988728
1.00526 0.998944 0.986867
1.00522 0.99737 0.988471
1.00526 0.999193 0.986597
1.00463 0.999992 0.986788
1.00526 0.999434 0.986351
1.00462 1.00007 0.986743
1.00213 1.00012 0.992282
1.00461 1.00008 0.986758
1.00222 1 0.992292
1.00074 0.999893 0.994606
1.0023 0.999993 0.992258
1.00039 0.99994 0.994932
0.999987 1.00034 0.995068
1.00522 0.99604 0.989729
1.00525 0.997769 0.987936
1.00521 0.996482 0.989142
1.00527 0.999177 0.986665
1.00523 0.998113 0.987606
1.00522 0.996909 0.98868
1.00463 0.999902 0.98685
1.00528 0.999509 0.986202
1.00526 0.998186 0.987365
1.00186 1.0006 0.990829
1.0045 1.00018 0.986773
1.00525 0.999988 0.985655
1.00425 1.00061 0.986763
1.00161 1.00131 0.990577
1.00016 1.00097 0.99739
1.00115 1.00218 0.990499
1.00013 1.00082 0.997411
0.999865 1.00028 0.997819
1.00517 0.995003 0.990855
1.00517 0.995181 0.990566
1.00523 0.994879 0.990588
1.00519 0.995508 0.990129
1.00517 0.995322 0.990586
1.00514 0.994943 0.991018
1.00518 0.99494 0.990947
1.0051 0.99496 0.991109
1.0052 0.995273 0.990649
1.00529 0.996673 0.989159
1.00517 0.995376 0.990536
1.00529 0.996878 0.98891
1.00525 0.998498 0.987362
1.00526 0.997067 0.988732
1.00527 0.998939 0.986865
1.00462 0.999878 0.986921
1.00526 0.999189 0.986605
1.00463 0.999987 0.986796
1.00218 1.00018 0.990759
1.00463 1.00006 0.986756
1.00225 1.00009 0.991454
1.00064 0.999949 0.997395
1.00235 0.999974 0.99216
1.00048 0.999881 0.99485
1.00012 0.99998 0.995148
1.0052 0.995654 0.990217
1.00524 0.997386 0.988416
1.00522 0.996096 0.989694
1.00526 0.998875 0.986873
1.00524 0.997777 0.987917
1.00522 0.996279 0.989301
1.00466 0.999674 0.986869
1.00528 0.999175 0.986673
1.00522 0.998212 0.987491
1.00204 1.00008 0.99103
1.00462 0.999848 0.986814
1.00528 0.999344 0.986254
1.00027 1.00069 0.997458
1.00186 1.00059 0.990835
1.0045 1.00015 0.986772
1.00156 1.00135 0.990587
1.00018 1.00088 0.997376
1.00007 1.00075 0.997468
1.00519 0.995206 0.990653
1.00517 0.995014 0.990828
1.00517 0.995195 0.990508
1.00524 0.996852 0.989022
1.00519 0.995218 0.990695
1.00512 0.994952 0.99103
1.00521 0.995272 0.990645
1.00529 0.996656 0.989164
1.00524 0.998487 0.987552
1.0053 0.997169 0.988607
1.00525 0.998703 0.987201
1.00458 0.99962 0.987124
1.00527 0.998925 0.986864
1.00462 0.999874 0.986926
1.00218 1.00013 0.990824
1.00464 0.999985 0.986805
1.0022 1.00016 0.990761
1.00063 0.999994 0.997364
1.00228 1.00007 0.990733
1.00053 0.999946 0.996107
1.00022 0.999848 0.995092
1.00521 0.995723 0.990117
1.00523 0.997256 0.98862
1.00521 0.99557 0.990282
1.00524 0.998948 0.986834
1.00525 0.997455 0.988338
1.00522 0.996155 0.98966
1.00466 0.999603 0.986966
1.00526 0.999036 0.986772
1.00523 0.997785 0.987899
1.00216 0.999853 0.99105
1.00465 0.999667 0.986877
1.00528 0.999175 0.986681
1.00045 1.0003 0.997483
1.00206 1.00006 0.991033
1.00461 0.999793 0.986776
1.00028 1.00066 0.997428
1.00186 1.00058 0.99084
1.00016 1.00084 0.99738
1.00524 0.996737 0.989167
1.00519 0.99533 0.990552
1.00517 0.995031 0.990802
1.00524 0.998387 0.987643
1.00525 0.996715 0.989132
1.0052 0.995103 0.990805
1.00529 0.996657 0.989169
1.00523 0.998486 0.987546
1.00455 0.999521 0.987286
1.00525 0.99891 0.987039
1.00459 0.999697 0.987095
1.00216 1.00004 0.990941
1.00463 0.999868 0.986931
1.00216 1.00014 0.99083
1.0006 1.00002 0.997341
1.00219 1.00015 0.990761
1.00062 1.00001 0.997349
1.00061 0.999905 0.9946
1.00525 0.997159 0.988646
1.0052 0.9955 0.990297
1.00525 0.998814 0.987003
1.00524 0.997265 0.988604
1.00522 0.995478 0.990346
1.00463 0.999699 0.987083
1.00524 0.998958 0.986829
1.00525 0.997523 0.988261
1.00222 0.999852 0.990968
1.00465 0.999665 0.986973
1.00526 0.999201 0.98667
1.00061 1.00004 0.99744
1.00218 0.999847 0.99105
1.00464 0.999653 0.986884
1.00043 1.00033 0.997476
1.00207 1.00005 0.991034
1.00029 1.00064 0.997403
1.00525 0.998392 0.987589
1.00524 0.996824 0.989066
1.00519 0.995452 0.990451
1.00453 0.999475 0.987365
1.00524 0.998389 0.987642
1.00525 0.996588 0.98924
1.00523 0.998488 0.987541
1.00457 0.99951 0.987267
1.00211 1 0.991071
1.00459 0.999772 0.987066
1.00214 1.00005 0.990945
1.00059 1.00001 0.99735
1.00216 1.00014 0.990836
1.00059 1.00003 0.997348
1.00062 1.00001 0.997342
1.00526 0.998675 0.987124
1.00525 0.996899 0.988916
1.00519 0.995283 0.990477
1.0046 0.999678 0.987182
1.00524 0.998822 0.986993
1.00524 0.997274 0.988587
1.00221 0.999945 0.990928
1.00462 0.999708 0.987077
1.00524 0.998967 0.986823
1.00066 0.99995 0.997376
1.00223 0.999869 0.990967
1.00464 0.999721 0.98698
1.00057 1.00008 0.997459
1.00218 0.999859 0.991051
1.00044 1.00032 0.99746
1.00454 0.99962 0.987328
1.00525 0.99831 0.987615
1.00524 0.996912 0.988967
1.00208 0.999939 0.991199
1.00454 0.999456 0.987357
1.00524 0.99839 0.987641
1.00458 0.999496 0.987248
1.00211 0.999982 0.991076
1.00057 1.00001 0.997352
1.00212 1.00006 0.990949
1.00058 1.00002 0.997346
1.00056 1.00004 0.997352
1.00457 0.999643 0.987269
1.00526 0.998519 0.98729
1.00525 0.996639 0.989186
1.00226 0.999998 0.992246
1.00458 0.99968 0.987183
1.00524 0.998832 0.986982
1.00064 0.99996 0.997342
1.00221 0.999966 0.990928
1.0046 0.999718 0.987072
1.00065 0.999979 0.997401
1.00223 0.999893 0.990966
1.00056 1.0001 0.997473
1.00215 0.999937 0.991125
1.00454 0.999539 0.98734
1.00525 0.998227 0.987642
1.00052 0.999991 0.997388
1.00207 0.999937 0.991196
1.00455 0.99944 0.987348
1.00211 0.999964 0.991078
1.00055 1.00001 0.997362
1.00057 1.00003 0.997347
1.00228 0.99997 0.992287
1.00456 0.999643 0.987269
1.00525 0.998359 0.987456
1.00021 0.999998 0.997759
1.00216 1 0.990993
1.00457 0.99968 0.987186
1.00064 0.999971 0.99736
1.00221 0.999988 0.990927
1.00064 0.999999 0.997424
1.00051 0.99997 0.994763
1.00217 0.999937 0.991773
1.00454 0.999459 0.987351
1.00054 0.999992 0.997392
1.00207 0.999938 0.9912
1.00057 1 0.997368
1.00011 0.999997 0.995147
1.0022 0.999961 0.9917
1.00455 0.999647 0.987269
1.00038 0.999992 0.996214
1.00215 1 0.991006
1.00065 0.999981 0.997378
1.00053 0.999982 0.997389
1.00207 0.999932 0.991211
1.00051 0.999992 0.997391
1.00033 0.999979 0.996273
1.00211 0.999957 0.991133
1.0006 0.999985 0.997362
1.00054 0.999981 0.997399
1.00054 0.999983 0.997383

TENSORS stress float
0.00185264 -0.000112517 0.000202826
-0.000112517 0.000781585 -3.01854e-05
0.000202826 -3.01854e-05 0.00075914
0.00579758 -5.46935e-05 0.000209811
-5.46935e-05 0.00318559 2.19727e-05
0.000209811 2.19727e-05 0.00317469
0.00159673 -4.42445e-05 9.07501e-05
-4.42445e-05 0.000631158 -1.19771e-05
9.07501e-05 -1.19771e-05 0.000599289
0.00194895 -6.58079e-05 0.000201173
-6.58079e-05 0.00081485 -1.83475e-05
0.000201173 -1.83475e-05 0.000797847
0.0019133 -0.000100439 0.000198995
-0.000100439 0.000808837 -2.69329e-05
0.000198995 -2.69329e-05 0.00078859
0.001798 -0.000110945 0.000208674
-0.000110945 0.000748598 -3.05309e-05
0.000208674 -3.05309e-05 0.000727376
0.00157416 -9.23942e-05 3.49692e-05
-9.23942e-05 0.000535366 -1.08581e-05
3.49692e-05 -1.08581e-05 0.000444447
0.00573212 -6.27388e-05 -6.89868e-06
-6.27388e-05 0.00313578 -1.1744e-07
-6.89868e-06 -1.1744e-07 0.00312998
0.00568927 0.000115481 0.000100846
0.000115481 0.00308408 7.37029e-06
0.000100846 7.37029e-06 0.00306728
0.00552751 -0.00015105 3.66007e-05
-0.00015105 0.00301073 2.51313e-06
3.66007e-05 2.51313e-06 0.00298331
0.00172605 0.000127101 0.00020772
0.000127101 0.000697648 2.15223e-05
0.00020772 2.15223e-05 0.000691003
0.000610056 0.000213683 2.48033e-05
0.000213683 -2.82685e-05 1.60542e-05
2.48033e-05 1.60542e-05 -0.000131553
0.0016769 -3.41135e-05 0.000207054
-3.41135e-05 0.000646684 2.99306e-06
0.000207054 2.99306e-06 0.000641589
0.00132008 -6.13092e-06 4.4056e-05
-6.13092e-06 0.000453899 1.25716e-06
4.4056e-05 1.25716e-06 0.000414445
0.00139536 -3.9722e-05 -3.80738e-05
-3.9722e-05 0.000513726 6.78091e-06
-3.80738e-05 6.78091e-06 0.000473447
0.00163397 -6.88703e-05 6.88104e-05
-6.88703e-05 0.000639339 -3.98384e-06
6.88104e-05 -3.98384e-06 0.000610064
0.00159403 -2.83327e-05 9.80416e-05
-2.83327e-05 0.000637198 -1.19567e-05
9.80416e-05 -1.19567e-05 0.000601436
0.00161421 -5.785e-05 8.08573e-05
-5.785e-05 0.000631174 -9.92837e-06
8.08573e-05 -9.92837e-06 0.000603105
0.00163585 -0.000131738 -3.38058e-05
-0.000131738 0.000565842 3.93578e-06
-3.38058e-05 3.93578e-06 0.000483507
0.00565646 -0.000118408 0.00025632
-0.000118408 0.00307256 -8.66253e-06
0.00025632 -8.66253e-06 0.00308096
0.00191205 -4.65546e-05 0.000202482
-4.65546e-05 0.000790627 -1.36675e-05
0.000202482 -1.36675e-05 0.000774961
0.00195602 -8.48214e-05 0.000199523
-8.48214e-05 0.000825094 -2.2884e-05
0.000199523 -2.2884e-05 0.000806983
0.00158706 -0.000114116 5.63207e-05
-0.000114116 0.000520113 -8.58747e-06
5.63207e-05 -8.58747e-06 0.00043859
0.00158695 -0.000104953 4.42849e-05
-0.000104953 0.000527172 -1.00815e-05
4.42849e-05 -1.00815e-05 0.000443546
0.00173899 -8.50944e-05 0.000204875
-8.50944e-05 0.000704698 -2.69434e-05
0.000204875 -2.69434e-05 0.000686971
0.0015454 -8.15771e-05 2.75275e-05
-8.15771e-05 0.000537738 -1.17346e-05
2.75275e-05 -1.17346e-05 0.000437345
0.00201541 -0.000240126 1.50932e-05
-0.000240126 0.000648431 -6.65941e-06
1.50932e-05 -6.65941e-06 0.00048994
0.00568619 -7.69504e-05 -0.000206641
-7.69504e-05 0.00309927 -1.33819e-05
-0.000206641 -1.33819e-05 0.00309799
0.0036674 9.7625e-05 -0.000117009
9.7625e-05 0.00186891 -1.09109e-05
-0.000117009 -1.09109e-05 0.00184977
0.00355183 -6.08959e-06 -0.000111837
-6.08959e-06 0.0018183 -7.25753e-06
-0.000111837 -7.25753e-06 0.00179569
0.0055572 -0.000129788 -2.06105e-06
-0.000129788 0.00304479 5.56593e-07
-2.06105e-06 5.56593e-07 0.00303123
0.000559441 0.000198677 -1.91068e-06
0.000198677 -5.67766e-05 -8.37087e-07
-1.91068e-06 -8.37087e-07 -0.000158639
0.00164882 5.74726e-05 0.000205282
5.74726e-05 0.000638523 1.6819e-05
0.000205282 1.6819e-05 0.000623488
0.00178608 0.000136285 0.000208289
0.000136285 0.000747631 2.55139e-05
0.000208289 2.55139e-05 0.00072526
0.00267229 0.000184803 0.000126706
0.000184803 0.00117559 1.6877e-05
0.000126706 1.6877e-05 0.0011056
0.00458158 -0.000323403 -1.17332e-05
-0.000323403 0.00251192 6.98261e-06
-1.17332e-05 6.98261e-06 0.00245121
0.00276468 0.000240311 0.000128093
0.000240311 0.00126185 1.9928e-05
0.000128093 1.9928e-05 0.00118369
0.000565096 0.000174128 2.75741e-05
0.000174128 -5.00758e-05 2.03596e-05
2.75741e-05 2.03596e-05 -0.000148475
0.000866452 0.000191517 1.09668e-05
0.000191517 2.94659e-05 5.90615e-06
1.09668e-05 5.90615e-06 -0.000144223
0.00356197 -0.000104592 0.000124499
-0.000104592 0.00184114 6.39439e-06
0.000124499 6.39439e-06 0.00184486
0.00565551 7.26035e-05 3.59703e-06
7.26035e-05 0.0030624 -1.49795e-06
3.59703e-06 -1.49795e-06 0.00307614
0.00359101 7.02094e-05 -9.72756e-05
7.02094e-05 0.00181748 -3.77522e-06
-9.72756e-05 -3.77522e-06 0.00180432
0.00553861 6.02606e-05 0.000250212
6.02606e-05 0.00299487 3.20765e-06
0.000250212 3.20765e-06 0.00300868
0.00131075 7.79258e-05 4.71866e-05
7.79258e-05 0.000447098 2.78417e-06
4.71866e-05 2.78417e-06 0.000412326
0.00063127 9.77954e-06 1.60949e-05
9.77954e-06 -8.37365e-05 1.76327e-06
1.60949e-05 1.76327e-06 -0.000159699
0.00558865 0.000201606 0.000134134
0.000201606 0.00304769 1.2076e-05
0.000134134 1.2076e-05 0.00302451
0.00272469 6.3212e-05 0.000122584
6.3212e-05 0.0011734 7.41106e-06
0.000122584 7.41106e-06 0.00111999
0.00126083 -7.52799e-05 -5.79018e-05
-7.52799e-05 0.000430419 7.17399e-06
-5.79018e-05 7.17399e-06 0.000387657
0.00130789 -7.81922e-05 -5.0335e-05
-7.81922e-05 0.000461716 8.04393e-06
-5.0335e-05 8.04393e-06 0.000419905
0.00146235 9.21345e-06 -2.63686e-05
9.21345e-06 0.000559315 6.48596e-06
-2.63686e-05 6.48596e-06 0.000515953
0.00167022 -0.00013918 -0.000109845
-0.00013918 0.000579377 1.84657e-05
-0.000109845 1.84657e-05 0.000505016
0.00354349 2.85929e-06 -0.000101935
2.85929e-06 0.00179617 -1.97291e-06
-0.000101935 -1.97291e-06 0.00178115
0.00162202 -5.23729e-05 7.50428e-05
-5.23729e-05 0.000626981 -3.33559e-06
7.50428e-05 -3.33559e-06 0.00060037
0.00155078 -4.78325e-06 0.000101498
-4.78325e-06 0.000613842 -9.97701e-06
0.000101498 -9.97701e-06 0.000576855
0.00163048 -6.47865e-05 7.34834e-05
-6.47865e-05 0.000636391 -6.80691e-06
7.34834e-05 -6.80691e-06 0.000608829
0.00164642 -9.4196e-05 -2.71878e-05
-9.4196e-05 0.000547664 1.41119e-06
-2.71878e-05 1.41119e-06 0.000474492
0.00161987 -0.000126672 -3.92163e-05
-0.000126672 0.000569158 4.14318e-06
-3.92163e-05 4.14318e-06 0.000481024
0.00164378 -0.000126805 -2.88846e-05
-0.000126805 0.000559605 2.81219e-06
-2.88846e-05 2.81219e-06 0.000481742
0.00201156 -0.000239354 -7.80853e-06
-0.000239354 0.000643193 2.11147e-06
-7.80853e-06 2.11147e-06 0.000484825
0.00551667 3.15109e-05 0.000245217
3.15109e-05 0.00298059 -4.8318e-07
0.000245217 -4.8318e-07 0.00299542
0.001875 -2.61079e-05 0.000201351
-2.61079e-05 0.000770964 -9.37512e-06
0.000201351 -9.37512e-06 0.000757424
0.00242513 1.05469e-05 4.05152e-05
1.05469e-05 0.00101246 -9.39191e-07
4.05152e-05 -9.39191e-07 0.000950086
0.0015833 -9.25751e-05 4.97265e-05
-9.25751e-05 0.000509435 -5.77698e-06
4.97265e-05 -5.77698e-06 0.000433082
0.00158788 -0.000111352 5.17499e-05
-0.000111352 0.000521536 -9.53113e-06
5.17499e-05 -9.53113e-06 0.000440016
0.00189195 -0.000150969 1.16063e-05
-0.000150969 0.000514779 -3.04081e-06
1.16063e-05 -3.04081e-06 0.000380135
0.00171038 -0.00020015 1.62514e-05
-0.00020015 0.000436284 -5.7414e-06
1.62514e-05 -5.7414e-06 0.000286501
0.0013754 -4.32708e-05 0.000172994
-4.32708e-05 0.000486279 -1.98424e-05
0.000172994 -1.98424e-05 0.000472231
0.00143985 -4.16202e-05 1.8833e-05
-4.16202e-05 0.000494847 -1.16693e-05
1.8833e-05 -1.16693e-05 0.000393891
0.00199873 -0.000258744 1.43178e-05
-0.000258744 0.00066899 -7.34924e-06
1.43178e-05 -7.34924e-06 0.000500671
0.00133239 -0.000264537 7.09649e-06
-0.000264537 9.72453e-05 -1.95325e-06
7.09649e-06 -1.95325e-06 -0.000101191
0.005971 0.000179734 -0.000262949
0.000179734 0.00325492 -2.41928e-05
-0.000262949 -2.41928e-05 0.00325829
0.00528842 -0.000153805 -0.000167904
-0.000153805 0.00288462 -1.09013e-05
-0.000167904 -1.09013e-05 0.00287131
0.00576137 -5.74344e-07 -0.00022423
-5.74344e-07 0.00313283 -1.63981e-05
-0.00022423 -1.63981e-05 0.00313834
0.000508753 0.000190711 -2.43477e-05
0.000190711 -8.17589e-05 -1.63366e-05
-2.43477e-05 -1.63366e-05 -0.000185382
0.00597643 0.000185939 -2.81356e-06
0.000185939 0.00325654 -2.01061e-06
-2.81356e-06 -2.01061e-06 0.00326065
0.00598312 0.00011575 -8.89577e-06
0.00011575 0.00326156 -1.73991e-06
-8.89577e-06 -1.73991e-06 0.00326577
0.000487856 0.00012423 -6.55183e-08
0.00012423 -0.000140903 -2.55329e-07
-6.55183e-08 -2.55329e-07 -0.000234524
0.00292796 -0.000130304 -7.04868e-05
-0.000130304 0.00147143 -2.95799e-06
-7.04868e-05 -2.95799e-06 0.0014399
0.000488608 0.000188965 -3.0584e-07
0.000188965 -0.000102989 -4.36067e-07
-3.0584e-07 -4.36067e-07 -0.000206836
0.00160742 0.000163171 4.25525e-05
0.000163171 0.00058347 1.64095e-06
4.25525e-05 1.64095e-06 0.000501258
0.000865068 0.0001895 1.07319e-07
0.0001895 2.54512e-05 2.01262e-07
1.07319e-07 2.01262e-07 -0.000147316
0.0043079 -0.000113654 0.000154844
-0.000113654 0.00229072 1.01417e-05
0.000154844 1.01417e-05 0.00228978
0.000688736 -9.49741e-06 6.73269e-06
-9.49741e-06 8.70255e-05 9.72067e-06
6.73269e-06 9.72067e-06 3.98995e-05
0.000598213 9.43008e-05 1.66862e-05
9.43008e-05 -9.54209e-05 9.11276e-06
1.66862e-05 9.11276e-06 -0.000184076
0.000642779 0.00015045 2.16523e-05
0.00015045 -3.49394e-05 1.58477e-05
2.16523e-05 1.58477e-05 -0.000134443
0.000995077 0.000166487 1.40683e-05
0.000166487 -9.54511e-06 5.50414e-06
1.40683e-05 5.50414e-06 -0.000167491
0.00265975 0.000100708 0.000100636
0.000100708 0.00123952 1.33357e-05
0.000100636 1.33357e-05 0.00117892
0.000936275 0.000189367 1.2675e-05
0.000189367 3.07147e-05 6.66289e-06
1.2675e-05 6.66289e-06 -0.00013726
0.000850117 0.000199169 1.04732e-05
0.000199169 8.35378e-05 5.03269e-06
1.04732e-05 5.03269e-06 -9.97161e-05
0.00109126 0.000248967 5.03494e-06
0.000248967 9.68647e-05 2.19618e-06
5.03494e-06 2.19618e-06 -0.000115
0.00293097 -0.000121053 7.25285e-05
-0.000121053 0.00145912 2.64837e-06
7.25285e-05 2.64837e-06 0.00145922
0.00331505 -0.000141594 1.31278e-05
-0.000141594 0.00169882 -2.29036e-07
1.31278e-05 -2.29036e-07 0.00169315
0.00588827 3.4455e-05 -0.00025548
3.4455e-05 0.00319353 -1.12151e-05
-0.00025548 -1.12151e-05 0.00320601
0.00572251 6.28829e-05 -0.000256957
6.28829e-05 0.00309966 -6.87523e-06
-0.000256957 -6.87523e-06 0.00311431
0.00561992 8.43941e-05 -1.09659e-07
8.43941e-05 0.00304943 -2.99209e-06
-1.09659e-07 -2.99209e-06 0.00305941
0.00352839 1.90031e-05 -0.000110487
1.90031e-05 0.00177836 -4.83601e-06
-0.000110487 -4.83601e-06 0.00176909
0.00164213 3.46328e-05 5.2581e-05
3.46328e-05 0.000526139 1.14719e-06
5.2581e-05 1.14719e-06 0.000463531
0.00368983 0.000120165 -9.92307e-05
0.000120165 0.00188139 -5.19673e-06
-9.92307e-05 -5.19673e-06 0.00186282
0.00168469 8.17932e-05 5.23336e-05
8.17932e-05 0.000551307 2.18779e-06
5.23336e-05 2.18779e-06 0.000482357
0.0055841 0.000135754 0.000253155
0.000135754 0.00303794 6.37762e-06
0.000253155 6.37762e-06 0.003042
0.000553077 1.06463e-05 1.87106e-05
1.06463e-05 -0.0001265 6.28662e-07
1.87106e-05 6.28662e-07 -0.000200374
0.00273455 2.9545e-05 0.000122128
2.9545e-05 0.00117923 4.97567e-06
0.000122128 4.97567e-06 0.00112946
0.00102555 4.08095e-05 1.244e-05
4.08095e-05 -2.27016e-05 1.20197e-06
1.244e-05 1.20197e-06 -0.000147909
0.0026485 0.000105726 0.000125422
0.000105726 0.00113495 9.56064e-06
0.000125422 9.56064e-06 0.00107698
0.0010642 9.67002e-05 1.22482e-05
9.67002e-05 -6.34417e-06 2.49471e-06
1.22482e-05 2.49471e-06 -0.000142818
0.00169161 4.28506e-05 -0.000205692
4.28506e-05 0.000656328 1.9726e-06
-0.000205692 1.9726e-06 0.000651765
0.00129612 -3.58624e-06 -4.49149e-05
-3.58624e-06 0.000442941 1.93474e-06
-4.49149e-05 1.93474e-06 0.000404114
0.00144949 4.86167e-05 -1.78561e-05
4.86167e-05 0.000559352 6.69954e-06
-1.78561e-05 6.69954e-06 0.000512175
0.00126381 -8.37878e-05 -5.85739e-05
-8.37878e-05 0.00043449 8.39344e-06
-5.85739e-05 8.39344e-06 0.000392022
0.00176469 -7.41093e-05 -0.000107639
-7.41093e-05 0.000610293 9.49337e-06
-0.000107639 9.49337e-06 0.000545793
0.00172106 -0.00011822 -0.000107805
-0.00011822 0.000598094 1.5802e-05
-0.000107805 1.5802e-05 0.000528658
0.0016301 -0.000147625 -0.000111755
-0.000147625 0.000566047 1.94693e-05
-0.000111755 1.94693e-05 0.00048695
0.00200687 -0.000238534 -2.88996e-05
-0.000238534 0.000637899 1.00966e-05
-2.88996e-05 1.00966e-05 0.000479782
0.00560741 -8.92358e-05 2.07323e-06
-8.92358e-05 0.00304325 -1.57785e-06
2.07323e-06 -1.57785e-06 0.00305244
0.00155194 4.15644e-05 8.31496e-05
4.15644e-05 0.000582636 -3.38037e-06
8.31496e-05 -3.38037e-06 0.000560374
0.00113365 -3.68326e-06 -5.57315e-05
-3.68326e-06 0.000225044 1.17542e-06
-5.57315e-05 1.17542e-06 0.000160894
0.00164397 -5.78381e-05 -3.09269e-05
-5.78381e-05 0.000540797 1.96556e-06
-3.09269e-05 1.96556e-06 0.000470987
0.00345691 3.1533e-05 0.000184828
3.1533e-05 0.00176925 -5.82303e-06
0.000184828 -5.82303e-06 0.00175598
0.00209895 -0.000114706 -3.50211e-05
-0.000114706 0.00087331 1.42028e-06
-3.50211e-05 1.42028e-06 0.00078518
0.0016502 -0.000112885 -2.657e-05
-0.000112885 0.000555409 1.90467e-06
-2.657e-05 1.90467e-06 0.000480393
0.00184556 -0.000146522 -9.19364e-06
-0.000146522 0.000483861 1.64405e-06
-9.19364e-06 1.64405e-06 0.00034942
0.00199886 -0.00026025 -6.64445e-06
-0.00026025 0.000667192 1.9265e-06
-6.64445e-06 1.9265e-06 0.000498197
0.0018676 -0.000206909 -5.30084e-06
-0.000206909 0.000530593 1.35043e-06
-5.30084e-06 1.35043e-06 0.00038108
0.00135286 -0.000265468 3.92006e-07
-0.000265468 0.000109972 -1.2259e-07
3.92006e-07 -1.2259e-07 -8.80711e-05
0.000593623 1.2504e-05 1.9325e-05
1.2504e-05 -0.000105106 -1.07165e-06
1.9325e-05 -1.07165e-06 -0.000175771
0.00151535 1.14456e-05 4.07629e-05
1.14456e-05 0.000463132 -2.60073e-06
4.07629e-05 -2.60073e-06 0.000393743
0.0016765 -3.90555e-05 1.25047e-05
-3.90555e-05 0.000372138 -9.45783e-07
1.25047e-05 -9.45783e-07 0.000256692
0.00168676 -0.000114913 1.23904e-05
-0.000114913 0.000381925 -2.30055e-06
1.23904e-05 -2.30055e-06 0.000252817
0.00169128 -0.000171711 1.46229e-05
-0.000171711 0.000401266 -4.25201e-06
1.46229e-05 -4.25201e-06 0.000259572
0.00174333 -0.000194047 1.16152e-06
-0.000194047 0.000240971 -5.53559e-07
1.16152e-06 -5.53559e-07 8.4029e-05
0.00483641 0.00018494 0.000137877
0.00018494 0.00263543 -1.00351e-05
0.000137877 -1.00351e-05 0.00261317
0.00138116 -0.000245755 5.86541e-06
-0.000245755 8.92741e-05 -1.65354e-06
5.86541e-06 -1.65354e-06 -9.61141e-05
0.000345747 -0.000122634 1.90662e-05
-0.000122634 -0.000172909 -1.58548e-05
1.90662e-05 -1.58548e-05 -0.000254143
0.000852776 -0.000195189 1.10226e-05
-0.000195189 1.4785e-05 -6.86963e-06
1.10226e-05 -6.86963e-06 -0.000159055
0.00137765 -0.000288807 7.99344e-06
-0.000288807 0.000169691 -3.0443e-06
7.99344e-06 -3.0443e-06 -4.4192e-05
0.00164489 -0.000339932 3.07909e-06
-0.000339932 0.000164453 9.01596e-07
3.07909e-06 9.01596e-07 -4.32947e-05
0.000309321 -5.6933e-05 1.15399e-05
-5.6933e-05 -0.000148178 -1.3181e-05
1.15399e-05 -1.3181e-05 -0.000213149
0.000543801 -5.70807e-05 1.6716e-07
-5.70807e-05 2.75528e-06 -4.84022e-06
1.6716e-07 -4.84022e-06 -0.000137056
0.00599858 0.000204109 -0.000274624
0.000204109 0.00327476 -2.43836e-05
-0.000274624 -2.43836e-05 0.00327633
0.00587851 9.84619e-05 -0.0002445
9.84619e-05 0.003197 -2.07077e-05
-0.0002445 -2.07077e-05 0.00320448
0.000484357 0.000118677 -1.84791e-05
0.000118677 -0.00014483 -1.10451e-05
-1.84791e-05 -1.10451e-05 -0.000238368
0.00465117 -0.000189388 -0.000132259
-0.000189388 0.00251968 -8.79955e-06
-0.000132259 -8.79955e-06 0.00249991
0.000441823 0.000146353 -2.18472e-05
0.000146353 -0.000121374 -1.5518e-05
-2.18472e-05 -1.5518e-05 -0.00020596
0.000463792 0.000173897 -2.06585e-05
0.000173897 -0.000114584 -1.54925e-05
-2.06585e-05 -1.54925e-05 -0.000219812
0.000874731 0.000189531 -1.21351e-05
0.000189531 2.81637e-05 -5.6444e-06
-1.21351e-05 -5.6444e-06 -0.000144075
0.00409145 -0.000140834 1.08696e-05
-0.000140834 0.00216909 -7.60529e-07
1.08696e-05 -7.60529e-07 0.00216292
0.000517572 -2.10078e-05 5.07194e-07
-2.10078e-05 -1.15125e-05 6.4e-07
5.07194e-07 6.4e-07 -5.8375e-05
0.0016617 0.000125918 5.2992e-05
0.000125918 0.000548718 3.81866e-06
5.2992e-05 3.81866e-06 0.000471406
0.00161748 0.000179119 5.17899e-05
0.000179119 0.000556444 3.75858e-06
5.17899e-05 3.75858e-06 0.000468208
0.000976804 0.000166251 1.07851e-07
0.000166251 -1.5656e-05 -2.28087e-07
1.07851e-07 -2.28087e-07 -0.000174091
0.000575623 9.68752e-05 -4.96607e-07
9.68752e-05 -1.78633e-05 -5.16646e-08
-4.96607e-07 -5.16646e-08 -9.06602e-05
0.000915462 0.000187557 6.95962e-07
0.000187557 2.04984e-05 2.07324e-08
6.95962e-07 2.07324e-08 -0.000147073
0.000844305 0.000190129 3.75458e-07
0.000190129 7.61558e-05 -1.11749e-06
3.75458e-07 -1.11749e-06 -0.000105129
0.00105988 0.000249397 -3.65886e-07
0.000249397 7.44764e-05 -1.82738e-09
-3.65886e-07 -1.82738e-09 -0.000138025
0.000704739 4.95053e-05 1.43895e-05
4.95053e-05 8.16561e-05 1.18385e-05
1.43895e-05 1.18385e-05 2.0401e-05
0.000616044 -4.66479e-05 2.05236e-06
-4.66479e-05 4.8771e-05 7.63364e-06
2.05236e-06 7.63364e-06 1.05644e-05
0.000968066 9.56701e-05 2.63731e-06
9.56701e-05 0.000272652 5.32566e-06
2.63731e-06 5.32566e-06 0.000137326
0.00103529 0.000146105 1.33901e-05
0.000146105 -8.34353e-06 4.35978e-06
1.33901e-05 4.35978e-06 -0.000159369
0.000955702 0.000181725 1.39094e-05
0.000181725 1.55742e-06 6.31688e-06
1.39094e-05 6.31688e-06 -0.000162453
0.00145598 0.000262522 5.34818e-06
0.000262522 0.000124755 1.25406e-06
5.34818e-06 1.25406e-06 -6.84924e-05
0.000801602 0.00019833 8.10857e-06
0.00019833 0.000124131 6.28895e-06
8.10857e-06 6.28895e-06 -5.81744e-05
0.00113158 0.000264964 5.10772e-06
0.000264964 5.69171e-05 1.50639e-06
5.10772e-06 1.50639e-06 -0.000153477
0.00117371 0.000263222 5.97574e-06
0.000263222 0.000196762 1.43968e-06
5.97574e-06 1.43968e-06 -3.17939e-05
0.00132171 0.000306541 -2.06313e-06
0.000306541 0.000170996 -1.1415e-06
-2.06313e-06 -1.1415e-06 -6.29274e-05
0.00261181 -0.000124768 3.73499e-05
-0.000124768 0.00126298 2.97252e-06
3.73499e-05 2.97252e-06 0.0012616
0.00280362 -0.000140312 9.77687e-06
-0.000140312 0.00138635 -7.55089e-07
9.77687e-06 -7.55089e-07 0.00138074
0.00309293 -0.000161487 -5.39832e-05
-0.000161487 0.00156939 -2.58103e-06
-5.39832e-05 -2.58103e-06 0.00155773
0.000368564 -3.13437e-05 8.60009e-06
-3.13437e-05 -0.00010598 -1.06193e-05
8.60009e-06 -1.06193e-05 -0.00016111
0.00422333 0.000158807 0.000116132
0.000158807 0.00225992 -7.74456e-06
0.000116132 -7.74456e-06 0.00224552
0.00598484 0.000184576 -0.000276889
0.000184576 0.00326428 -2.10859e-05
-0.000276889 -2.10859e-05 0.00326861
0.00575017 7.30923e-05 -0.000255358
7.30923e-05 0.00311401 -9.5448e-06
-0.000255358 -9.5448e-06 0.00312779
0.000570089 9.18904e-05 -1.97306e-05
9.18904e-05 -0.000118625 -5.02595e-06
-1.97306e-05 -5.02595e-06 -0.000199751
0.00055466 4.13006e-05 -1.93439e-05
4.13006e-05 -0.00012487 -2.47675e-06
-1.93439e-05 -2.47675e-06 -0.000201657
0.00556159 -1.12444e-05 -0.000246319
-1.12444e-05 0.00300493 -1.72294e-06
-0.000246319 -1.72294e-06 0.00302054
0.00552167 1.58684e-05 -5.3553e-07
1.58684e-05 0.00298244 -5.889e-07
-5.3553e-07 -5.889e-07 0.00299778
0.000535895 8.62754e-07 -1.29095e-07
8.62754e-07 -0.000139345 -2.68238e-10
-1.29095e-07 -2.68238e-10 -0.000211451
0.00162955 3.37977e-05 5.26625e-05
3.37977e-05 0.000515593 1.98472e-06
5.26625e-05 1.98472e-06 0.000452161
0.00100054 4.44877e-05 -3.43929e-08
4.44877e-05 -3.88464e-05 -1.29629e-07
-3.43929e-08 -1.29629e-07 -0.00016456
0.000536405 7.72126e-05 -4.2361e-07
7.72126e-05 -0.000134931 -3.17857e-07
-4.2361e-07 -3.17857e-07 -0.000220339
0.00101641 9.7861e-05 -1.47019e-07
9.7861e-05 -3.41838e-05 -1.51519e-07
-1.47019e-07 -1.51519e-07 -0.000171348
0.000529604 -2.87701e-05 1.92479e-05
-2.87701e-05 -0.000144847 -8.31342e-07
1.92479e-05 -8.31342e-07 -0.0002145
0.000999016 1.73568e-05 1.22547e-05
1.73568e-05 -3.30101e-05 5.43428e-07
1.22547e-05 5.43428e-07 -0.00015576
0.00102784 6.85766e-05 1.21587e-05
6.85766e-05 -2.58044e-05 1.89525e-06
1.21587e-05 1.89525e-06 -0.000155827
0.00152885 6.9848e-05 7.24856e-07
6.9848e-05 5.7711e-05 -1.73106e-08
7.24856e-07 -1.73106e-08 -6.68223e-05
0.00106092 0.000121733 1.26639e-05
0.000121733 -4.4387e-06 3.30411e-06
1.26639e-05 3.30411e-06 -0.000148007
0.00158001 0.000155894 1.92619e-06
0.000155894 9.49674e-05 9.17632e-08
1.92619e-06 9.17632e-08 -5.04047e-05
0.00552925 -4.95282e-05 -0.000251924
-4.95282e-05 0.00299076 1.09275e-06
-0.000251924 1.09275e-06 0.0030039
0.00126508 -0.000141081 -4.70218e-05
-0.000141081 0.000431067 5.05301e-06
-4.70218e-05 5.05301e-06 0.000391566
-0.000273485 -2.61423e-06 -1.27369e-05
-2.61423e-06 -0.000619058 2.09957e-06
-1.27369e-05 2.09957e-06 -0.00070405
0.00173988 -5.14449e-05 -0.000107488
-5.14449e-05 0.000592983 6.79381e-06
-0.000107488 6.79381e-06 0.000530194
0.00520787 0.000354147 1.06688e-05
0.000354147 0.00290053 7.34489e-06
1.06688e-05 7.34489e-06 0.00282886
0.00275245 -0.000200938 -0.000113596
-0.000200938 0.00125699 1.96986e-05
-0.000113596 1.96986e-05 0.00117544
0.00175522 -9.6382e-05 -0.000107482
-9.6382e-05 0.000609539 1.26012e-05
-0.000107482 1.26012e-05 0.00054341
0.00177067 -0.000140829 -2.82135e-05
-0.000140829 0.000435583 5.50432e-06
-2.82135e-05 5.50432e-06 0.000301588
0.0020051 -0.000212382 -2.73655e-05
-0.000212382 0.000612812 8.45135e-06
-2.73655e-05 8.45135e-06 0.00046391
0.00202222 -0.000262915 -2.65109e-05
-0.000262915 0.000680506 1.07101e-05
-2.65109e-05 1.07101e-05 0.000510655
0.00137151 -0.000266251 -5.76649e-06
-0.000266251 0.000121786 1.61626e-06
-5.76649e-06 1.61626e-06 -7.58565e-05
0.000532159 6.76524e-06 -6.23593e-08
6.76524e-06 -0.000140001 1.48264e-07
-6.23593e-08 1.48264e-07 -0.000211618
0.00164084 -7.12336e-05 -3.01112e-05
-7.12336e-05 0.000539667 3.33776e-07
-3.01112e-05 3.33776e-07 0.000472997
0.0012639 -3.45558e-05 -7.95908e-06
-3.45558e-05 0.000124716 4.45917e-07
-7.95908e-06 4.45917e-07 4.77315e-06
0.00182945 -0.000116137 -6.17941e-06
-0.000116137 0.00046663 9.46993e-07
-6.17941e-06 9.46993e-07 0.000338412
0.00498615 0.000161514 -5.96562e-06
0.000161514 0.00271646 -8.72858e-07
-5.96562e-06 -8.72858e-07 0.00269963
0.00157059 -0.000111854 -1.01829e-06
-0.000111854 0.000578211 9.6824e-08
-1.01829e-06 9.6824e-08 0.000484049
0.00132431 -0.000223899 1.3924e-06
-0.000223899 0.000306689 -9.17842e-07
1.3924e-06 -9.17842e-07 0.000131759
0.0017275 -0.000172761 -6.41754e-06
-0.000172761 0.000423076 1.48361e-06
-6.41754e-06 1.48361e-06 0.000281121
0.00165646 -0.000192659 -2.07014e-06
-0.000192659 0.000186174 3.8574e-07
-2.07014e-06 3.8574e-07 3.08457e-05
0.00130259 -0.000284101 3.38309e-07
-0.000284101 0.000127831 -1.29681e-07
3.38309e-07 -1.29681e-07 -8.55475e-05
0.001554 -0.000253136 4.33012e-07
-0.000253136 0.000192871 -1.38473e-07
4.33012e-07 -1.38473e-07 8.45494e-06
0.00167293 -0.000340245 6.44618e-07
-0.000340245 0.000185846 1.29235e-08
6.44618e-07 1.29235e-08 -2.12966e-05
0.000519384 -6.49084e-05 -1.07819e-06
-6.49084e-05 -2.66563e-05 2.73185e-07
-1.07819e-06 2.73185e-07 -9.30156e-05
0.000635209 -8.2121e-05 2.67842e-08
-8.2121e-05 5.65271e-05 5.75652e-08
2.67842e-08 5.75652e-08 -8.64967e-05
0.000982634 -1.66482e-05 1.22144e-05
-1.66482e-05 -3.69258e-05 -7.74055e-07
1.22144e-05 -7.74055e-07 -0.00015928
0.0017176 -7.2421e-05 1.16745e-05
-7.2421e-05 0.000396165 -1.53423e-06
1.16745e-05 -1.53423e-06 0.000275559
0.00169619 -6.42084e-05 2.29107e-07
-6.42084e-05 0.000177767 1.60798e-07
2.29107e-07 1.60798e-07 5.22758e-05
0.00156765 -0.000154744 2.03596e-06
-0.000154744 0.00011701 -3.28957e-08
2.03596e-06 -3.28957e-08 -2.52673e-05
0.00169743 -0.000234115 2.81933e-06
-0.000234115 0.00024309 -5.67474e-07
2.81933e-06 -5.67474e-07 7.4608e-05
0.00183267 -0.00023413 -3.009e-07
-0.00023413 0.000161301 5.16798e-07
-3.009e-07 5.16798e-07 1.922e-05
0.000374988 -9.92576e-05 1.70245e-05
-9.92576e-05 -0.000131888 -1.47076e-05
1.70245e-05 -1.47076e-05 -0.000205304
0.00169808 -0.000311523 1.22695e-06
-0.000311523 0.000158109 8.82648e-07
1.22695e-06 8.82648e-07 -2.49632e-05
0.000711519 -0.000180581 7.11579e-06
-0.000180581 8.9819e-06 -7.37205e-06
7.11579e-06 -7.37205e-06 -0.000170594
0.00103105 -0.000269341 9.89597e-06
-0.000269341 2.95588e-05 -3.69056e-06
9.89597e-06 -3.69056e-06 -0.000191771
0.00182279 -0.000384868 2.73842e-06
-0.000384868 0.000326808 3.21322e-07
2.73842e-06 3.21322e-07 8.86961e-05
0.00199508 -0.00037468 -1.85898e-06
-0.00037468 0.000322574 3.3047e-06
-1.85898e-06 3.3047e-06 0.000133195
0.000613112 -0.000136296 1.27413e-06
-0.000136296 5.20936e-05 -5.16335e-06
1.27413e-06 -5.16335e-06 -0.000117588
0.000588876 -4.51148e-05 -7.0771e-08
-4.51148e-05 3.02889e-05 -4.75798e-06
-7.0771e-08 -4.75798e-06 -8.745e-05
0.00106401 -0.000191925 -1.4051e-06
-0.000191925 0.000335764 1.39343e-06
-1.4051e-06 1.39343e-06 0.000123308
0.000515521 9.80078e-05 -1.78809e-05
9.80078e-05 -0.000139992 -8.45136e-06
-1.78809e-05 -8.45136e-06 -0.000229366
0.00379741 -0.000169786 -9.38776e-05
-0.000169786 0.00199843 -4.16716e-06
-9.38776e-05 -4.16716e-06 0.00198492
0.000366919 -3.37283e-05 -1.28928e-06
-3.37283e-05 -9.59714e-05 -8.94791e-06
-1.28928e-06 -8.94791e-06 -0.000143839
0.000466277 0.000147467 -1.96851e-05
0.000147467 -0.000134203 -1.37688e-05
-1.96851e-05 -1.37688e-05 -0.000233967
0.000957328 0.000166191 -1.46787e-05
0.000166191 -2.25705e-05 -5.93236e-06
-1.46787e-05 -5.93236e-06 -0.000181512
0.000362778 8.89488e-05 -1.83044e-05
8.89488e-05 -0.000145515 -1.38124e-05
-1.83044e-05 -1.38124e-05 -0.000214655
0.000723613 0.000175966 -8.80044e-06
0.000175966 1.60391e-06 -6.87992e-06
-8.80044e-06 -6.87992e-06 -0.000177474
0.000908588 0.000186797 -1.23505e-05
0.000186797 1.8542e-05 -6.95004e-06
-1.23505e-05 -6.95004e-06 -0.000148764
0.000980341 0.000245523 -6.55645e-06
0.000245523 2.3733e-05 -1.90748e-06
-6.55645e-06 -1.90748e-06 -0.000188702
0.000531055 3.80335e-05 2.33292e-06
3.80335e-05 -2.00765e-05 5.27191e-07
2.33292e-06 5.27191e-07 -7.89283e-05
0.000501438 -5.90383e-05 2.85523e-07
-5.90383e-05 -1.53449e-05 2.64321e-07
2.85523e-07 2.64321e-07 -5.54815e-05
0.000577926 4.74393e-05 6.4402e-07
4.74393e-05 2.49156e-05 5.7455e-07
6.4402e-07 5.7455e-07 -9.53165e-05
0.00100722 0.000146325 -2.15271e-08
0.000146325 -2.16968e-05 -2.7144e-07
-2.15271e-08 -2.7144e-07 -0.000173438
0.000943767 0.000180905 3.3158e-07
0.000180905 -9.85932e-07 -2.08375e-07
3.3158e-07 -2.08375e-07 -0.000165111
0.00145181 0.000262471 8.71268e-08
0.000262471 0.000121886 -3.99498e-08
8.71268e-08 -3.99498e-08 -7.17529e-05
0.000823539 0.000182124 -5.56598e-07
0.000182124 0.000136576 -7.54893e-08
-5.56598e-07 -7.54893e-08 -4.37095e-05
0.00123687 0.000269779 3.60808e-07
0.000269779 0.000120172 4.72703e-08
3.60808e-07 4.72703e-08 -9.07818e-05
0.00110422 0.000257874 2.44093e-07
0.000257874 0.00015545 -9.97909e-07
2.44093e-07 -9.97909e-07 -7.18141e-05
0.00130723 0.000316421 -8.59709e-07
0.000316421 0.000155441 2.48454e-09
-8.59709e-07 2.48454e-09 -8.16215e-05
0.000544746 -6.43552e-05 -1.60297e-06
-6.43552e-05 2.77478e-06 6.53452e-06
-1.60297e-06 6.53452e-06 -3.02906e-05
0.000810788 0.000139077 5.58269e-06
0.000139077 0.000157134 4.91674e-06
5.58269e-06 4.91674e-06 -2.40534e-06
0.000667799 1.80872e-05 1.9825e-06
1.80872e-05 7.37401e-05 4.53533e-06
1.9825e-06 4.53533e-06 -1.88942e-05
0.00102871 0.000126733 1.35332e-06
0.000126733 0.000335761 5.98287e-08
1.35332e-06 5.98287e-08 0.000143864
0.00152571 0.000233591 3.89256e-06
0.000233591 0.000116008 1.91368e-07
3.89256e-06 1.91368e-07 -6.07224e-05
0.00134086 0.000276318 5.93001e-06
0.000276318 0.000115689 1.61774e-06
5.93001e-06 1.61774e-06 -9.057e-05
0.00179821 0.00033957 1.13614e-06
0.00033957 0.000214669 -1.71706e-07
1.13614e-06 -1.71706e-07 1.67403e-05
0.00111541 0.000234349 4.48134e-06
0.000234349 0.000241335 2.83801e-06
4.48134e-06 2.83801e-06 2.22752e-05
0.00180559 0.000391761 -1.83717e-06
0.000391761 0.000366902 -8.20461e-07
-1.83717e-06 -8.20461e-07 0.000129657
0.00129572 0.000311983 3.54876e-07
0.000311983 0.000201743 -7.7955e-07
3.54876e-07 -7.7955e-07 -5.91215e-05
0.00149047 0.000357366 7.00028e-08
0.000357366 0.000162462 -2.77069e-07
7.00028e-08 -2.77069e-07 -8.20892e-05
0.000599656 1.56405e-05 2.54575e-06
1.56405e-05 1.94087e-05 2.56332e-06
2.54575e-06 2.56332e-06 -3.48124e-05
0.000516561 -4.21048e-05 7.67359e-07
-4.21048e-05 -4.02914e-05 4.95672e-06
7.67359e-07 4.95672e-06 -6.17049e-05
0.00246966 -0.000109389 2.9204e-05
-0.000109389 0.00116868 3.3348e-06
2.9204e-05 3.3348e-06 0.00117122
0.00254813 -0.000124305 3.88156e-06
-0.000124305 0.00122465 -4.27156e-07
3.88156e-06 -4.27156e-07 0.00122319
0.0027003 -0.000142626 -3.64299e-05
-0.000142626 0.00132513 -2.84848e-06
-3.64299e-05 -2.84848e-06 0.00131852
0.000439162 -1.8635e-05 6.41456e-06
-1.8635e-05 -6.55572e-05 -9.09949e-06
6.41456e-06 -9.09949e-06 -0.000111055
0.00366214 0.00013569 9.93857e-05
0.00013569 0.00191255 -5.82514e-06
9.93857e-05 -5.82514e-06 0.00190524
0.000516361 -3.41808e-05 -3.53793e-07
-3.41808e-05 -2.02588e-05 4.81452e-07
-3.53793e-07 4.81452e-07 -7.60173e-05
0.00443668 0.000143269 -7.98959e-06
0.000143269 0.00238228 -1.12354e-06
-7.98959e-06 -1.12354e-06 0.00237162
0.000562954 0.000101859 -1.9308e-05
0.000101859 -0.0001171 -6.69594e-06
-1.9308e-05 -6.69594e-06 -0.000204095
0.000574582 3.34675e-05 -1.84964e-05
3.34675e-05 -0.00011776 -3.36004e-06
-1.84964e-05 -3.36004e-06 -0.000195024
0.00098854 9.89495e-05 -1.2089e-05
9.89495e-05 -5.12787e-05 -2.7797e-06
-1.2089e-05 -2.7797e-06 -0.000189003
0.000975333 4.65505e-05 -1.2335e-05
4.65505e-05 -5.50873e-05 -1.43113e-06
-1.2335e-05 -1.43113e-06 -0.000181159
0.000589747 -6.93623e-06 -1.94243e-05
-6.93623e-06 -0.000110685 -7.87667e-07
-1.94243e-05 -7.87667e-07 -0.000180809
0.00560424 -9.47891e-05 -0.00025897
-9.47891e-05 0.0030411 4.04406e-06
-0.00025897 4.04406e-06 0.00305144
0.000575249 -8.46131e-07 1.21922e-07
-8.46131e-07 -0.000118059 -5.32822e-07
1.21922e-07 -5.32822e-07 -0.000187826
0.000986906 2.22511e-05 -6.15903e-08
2.22511e-05 -4.07867e-05 -5.85473e-08
-6.15903e-08 -5.85473e-08 -0.000163786
0.0010154 7.03818e-05 -1.18513e-07
7.03818e-05 -3.45983e-05 -9.47777e-08
-1.18513e-07 -9.47777e-08 -0.000165091
0.00152809 6.87691e-05 -7.10433e-08
6.87691e-05 5.97361e-05 1.30887e-07
-7.10433e-08 1.30887e-07 -6.49007e-05
0.00102306 0.000123143 -1.75302e-07
0.000123143 -2.55816e-05 -2.19923e-07
-1.75302e-07 -2.19923e-07 -0.000170096
0.00155696 0.00015579 -8.54425e-08
0.00015579 8.13117e-05 3.14953e-08
-8.54425e-08 3.14953e-08 -6.45989e-05
0.000981148 -1.29951e-06 1.22087e-05
-1.29951e-06 -3.83669e-05 -2.80088e-07
1.22087e-05 -2.80088e-07 -0.000160472
0.00151542 3.56658e-05 9.81022e-07
3.56658e-05 5.6142e-05 1.27163e-07
9.81022e-07 1.27163e-07 -6.38506e-05
0.0015508 0.000111613 9.47175e-07
0.000111613 7.03641e-05 -1.43822e-07
9.47175e-07 -1.43822e-07 -6.29774e-05
0.00185756 9.94523e-05 -1.33888e-06
9.94523e-05 0.000104598 -4.79675e-07
-1.33888e-06 -4.79675e-07 1.17115e-05
0.00157327 0.000198276 2.89144e-06
0.000198276 0.000106579 2.17262e-07
2.89144e-06 2.17262e-07 -5.37224e-05
0.00184264 0.000198694 9.27459e-12
0.000198694 0.000124034 -1.43298e-06
9.27459e-12 -1.43298e-06 -6.6656e-07
0.000556349 3.0296e-08 -1.85804e-05
3.0296e-08 -0.000123077 1.08644e-06
-1.85804e-05 1.08644e-06 -0.000196572
0.00172477 -2.86227e-05 -0.000106706
-2.86227e-05 0.000583843 4.47608e-06
-0.000106706 4.47608e-06 0.000524099
0.00082188 -2.88687e-05 -1.52445e-05
-2.88687e-05 -0.000139822 1.72114e-06
-1.52445e-05 1.72114e-06 -0.000264513
0.0019554 -0.000116191 -2.5304e-05
-0.000116191 0.000540866 3.99031e-06
-2.5304e-05 3.99031e-06 0.000413719
0.00522126 0.000142256 -0.000173323
0.000142256 0.00285424 1.40227e-05
-0.000173323 1.40227e-05 0.00283967
0.00279214 -0.000164089 -0.00011285
-0.000164089 0.00130203 1.56407e-05
-0.00011285 1.56407e-05 0.00122888
0.00195856 -0.000269434 -2.15877e-05
-0.000269434 0.000692248 9.16743e-06
-2.15877e-05 9.16743e-06 0.000513434
0.00174273 -0.000172406 -2.69451e-05
-0.000172406 0.000431943 6.86759e-06
-2.69451e-05 6.86759e-06 0.000290059
0.00156618 -0.000191163 -5.01025e-06
-0.000191163 0.000128991 8.01189e-07
-5.01025e-06 8.01189e-07 -2.47175e-05
0.00172784 -0.000260636 -6.11461e-06
-0.000260636 0.000297457 1.7937e-06
-6.11461e-06 1.7937e-06 0.000113988
0.00122457 -0.000279771 -6.97862e-06
-0.000279771 8.38193e-05 1.91417e-06
-6.97862e-06 1.91417e-06 -0.000129224
0.00170256 -0.000341005 -1.38262e-06
-0.000341005 0.000207101 -1.00888e-06
-1.38262e-06 -1.00888e-06 4.65067e-07
0.000681995 -7.68357e-05 -1.49673e-05
-7.68357e-05 6.86867e-05 1.31287e-05
-1.49673e-05 1.31287e-05 2.76635e-07
0.000863821 -0.000107549 -1.09738e-06
-0.000107549 0.000194669 4.37246e-06
-1.09738e-06 4.37246e-06 4.75776e-05
0.00089338 -1.15832e-05 -1.41343e-07
-1.15832e-05 -9.1628e-05 -8.81064e-09
-1.41343e-07 -8.81064e-09 -0.000213885
0.00172651 -7.36402e-05 -6.61936e-06
-7.36402e-05 0.000400241 7.20675e-07
-6.61936e-06 7.20675e-07 0.000279722
0.00173792 -6.07834e-05 -1.48117e-06
-6.07834e-05 0.000199782 2.15291e-07
-1.48117e-06 2.15291e-07 7.77178e-05
0.00162043 -0.000154871 -9.77966e-07
-0.000154871 0.00015091 3.31027e-07
-9.77966e-07 3.31027e-07 6.60694e-06
0.000495044 -0.00010971 8.41408e-07
-0.00010971 -6.02249e-05 3.54701e-07
8.41408e-07 3.54701e-07 -0.000137519
0.000837085 -0.000194905 -7.50645e-07
-0.000194905 8.10851e-05 -4.7086e-07
-7.50645e-07 -4.7086e-07 -9.98221e-05
0.0010844 -0.000274567 2.61218e-06
-0.000274567 6.21364e-05 -8.9915e-07
2.61218e-06 -8.9915e-07 -0.000159848
0.00171581 -0.000233128 -3.01633e-06
-0.000233128 0.000253896 7.84287e-07
-3.01633e-06 7.84287e-07 8.40723e-05
0.0018766 -0.000238291 1.17116e-06
-0.000238291 0.000181457 -3.33196e-07
1.17116e-06 -3.33196e-07 4.34926e-05
0.00185509 -0.000392523 -1.42454e-06
-0.000392523 0.00034745 9.69774e-08
-1.42454e-06 9.69774e-08 0.000107948
0.00172156 -0.000312479 5.24745e-07
-0.000312479 0.000173311 1.83147e-08
5.24745e-07 1.83147e-08 -9.52442e-06
0.00191335 -0.000371637 8.14214e-07
-0.000371637 0.000266333 6.47943e-07
8.14214e-07 6.47943e-07 7.70291e-05
0.0007417 -0.000145938 1.14658e-08
-0.000145938 0.000125966 -2.57044e-07
1.14658e-08 -2.57044e-07 -4.27845e-05
0.000533253 -0.000122911 -5.73189e-07
-0.000122911 1.33493e-06 -3.83312e-07
-5.73189e-07 -3.83312e-07 -0.000193686
0.0006744 -5.94892e-05 -1.52474e-08
-5.94892e-05 8.09924e-05 1.74629e-07
-1.52474e-08 1.74629e-07 -4.0062e-05
0.00167122 -2.64162e-05 -1.07641e-08
-2.64162e-05 0.000160321 1.21524e-07
-1.07641e-08 1.21524e-07 3.95453e-05
0.00177378 -0.000105548 -3.58041e-07
-0.000105548 0.000224747 6.15457e-07
-3.58041e-07 6.15457e-07 9.63209e-05
0.00176177 -8.48657e-05 -1.10533e-06
-8.48657e-05 6.11161e-05 1.16642e-06
-1.10533e-06 1.16642e-06 -3.65378e-05
0.00180803 -0.000193534 -2.40616e-06
-0.000193534 0.000118396 1.30158e-06
-2.40616e-06 1.30158e-06 -4.37056e-06
0.00167958 -0.000280384 -4.07663e-07
-0.000280384 0.000107212 1.67411e-06
-4.07663e-07 1.67411e-06 -5.13455e-05
0.00190872 -0.000259974 2.03361e-07
-0.000259974 0.000150346 4.65948e-07
2.03361e-07 4.65948e-07 3.72611e-05
0.000742719 -0.000178777 4.14555e-06
-0.000178777 9.36808e-05 -6.25114e-06
4.14555e-06 -6.25114e-06 -8.53766e-05
0.00178358 -0.000339019 -1.91384e-06
-0.000339019 0.000142977 1.81573e-06
-1.91384e-06 1.81573e-06 -1.8842e-05
0.00106921 -0.000262229 5.44889e-06
-0.000262229 0.000140712 -5.11427e-06
5.44889e-06 -5.11427e-06 -8.26234e-05
0.0014892 -0.000394738 3.59216e-06
-0.000394738 0.000228355 -6.28348e-07
3.59216e-06 -6.28348e-07 -4.31306e-05
0.00195226 -0.000426683 1.5209e-06
-0.000426683 0.000346319 3.31588e-06
1.5209e-06 3.31588e-06 0.000108905
0.00205808 -0.0003944 -2.68836e-06
-0.0003944 0.000337665 3.3629e-06
-2.68836e-06 3.3629e-06 0.000163244
0.000617017 -3.94759e-05 -1.08985e-07
-3.94759e-05 5.71011e-05 -4.31151e-06
-1.08985e-07 -4.31151e-06 -4.62961e-05
0.000792615 -0.000188576 -2.45264e-07
-0.000188576 0.000118492 -2.0015e-09
-2.45264e-07 -2.0015e-09 -7.59361e-05
0.000460256 -0.000107292 -1.31695e-06
-0.000107292 -2.48565e-06 2.39972e-06
-1.31695e-06 2.39972e-06 -0.000199224
0.00145732 -0.000261365 -4.08678e-06
-0.000261365 0.000524125 3.03956e-06
-4.08678e-06 3.03956e-06 0.000304821
0.000976036 0.00014671 -1.4022e-05
0.00014671 -3.70573e-05 -4.84506e-06
-1.4022e-05 -4.84506e-06 -0.000189534
0.000405785 -6.32388e-05 2.15349e-06
-6.32388e-05 -7.05708e-05 -7.58053e-06
2.15349e-06 -7.58053e-06 -0.000111294
0.000315104 1.84659e-05 -7.89024e-06
1.84659e-05 -0.000144165 -1.15425e-05
-7.89024e-06 -1.15425e-05 -0.000201656
0.00052351 5.54708e-06 -3.85984e-07
5.54708e-06 -5.25715e-06 -5.09378e-06
-3.85984e-07 -5.09378e-06 -0.00012145
0.000930352 0.00018022 -1.40992e-05
0.00018022 -4.2105e-06 -6.84525e-06
-1.40992e-05 -6.84525e-06 -0.000168493
0.00144961 0.00026244 -5.21515e-06
0.00026244 0.000120287 -1.24212e-06
-5.21515e-06 -1.24212e-06 -7.37209e-05
0.000666204 0.000163573 -5.41781e-06
0.000163573 4.18232e-05 -4.65553e-06
-5.41781e-06 -4.65553e-06 -0.000135685
0.00117441 0.000264912 -6.79306e-06
0.000264912 0.000198098 -3.49837e-06
-6.79306e-06 -3.49837e-06 -2.96301e-05
0.00135519 0.000275661 -5.34963e-06
0.000275661 0.000191184 -2.22075e-06
-5.34963e-06 -2.22075e-06 -2.05166e-05
0.00122443 0.000319326 -2.44096e-06
0.000319326 0.000100862 -2.24827e-08
-2.44096e-06 -2.24827e-08 -0.000138123
0.000489808 -6.37433e-05 -9.09117e-07
-6.37433e-05 -3.09841e-05 3.73433e-07
-9.09117e-07 3.73433e-07 -6.35501e-05
0.000755692 0.000132686 5.15833e-07
0.000132686 0.000135692 -6.47244e-07
5.15833e-07 -6.47244e-07 -2.73364e-05
0.000617877 -2.86598e-06 5.66722e-08
-2.86598e-06 4.6999e-05 5.17275e-07
5.66722e-08 5.17275e-07 -4.38066e-05
0.000767474 0.000105974 1.2819e-06
0.000105974 0.000176016 -6.98868e-07
1.2819e-06 -6.98868e-07 -1.07801e-05
0.00151889 0.000233053 -2.30885e-07
0.000233053 0.00011264 -5.30169e-07
-2.30885e-07 -5.30169e-07 -6.43932e-05
0.00135462 0.000276939 1.33479e-07
0.000276939 0.00012715 -8.15795e-08
1.33479e-07 -8.15795e-08 -7.9502e-05
0.00177348 0.000337623 2.87765e-07
0.000337623 0.000200508 1.9765e-07
2.87765e-07 1.9765e-07 2.67531e-06
0.00104277 0.000232442 1.87027e-06
0.000232442 0.000201074 -3.89418e-08
1.87027e-06 -3.89418e-08 -1.75711e-05
0.00176157 0.000381964 -9.31238e-07
0.000381964 0.000341717 -4.10329e-08
-9.31238e-07 -4.10329e-08 0.000106019
0.00126184 0.000310454 2.25888e-07
0.000310454 0.000177866 -1.29658e-06
2.25888e-07 -1.29658e-06 -8.33905e-05
0.00158679 0.000362543 -3.78608e-06
0.000362543 0.00021991 1.00565e-06
-3.78608e-06 1.00565e-06 -2.26681e-05
0.000510692 -5.46268e-05 -2.66151e-07
-5.46268e-05 -3.31605e-05 5.49109e-06
-2.66151e-07 5.49109e-06 -5.90475e-05
0.000662391 -1.51337e-06 1.22777e-06
-1.51337e-06 6.46466e-05 3.96173e-06
1.22777e-06 3.96173e-06 -8.64677e-06
0.00101385 0.000202849 7.33016e-07
0.000202849 0.000260296 1.57458e-06
7.33016e-07 1.57458e-06 6.26949e-05
0.00118449 8.33669e-05 -1.01242e-06
8.33669e-05 0.000439456 2.35676e-06
-1.01242e-06 2.35676e-06 0.000275314
0.00117763 0.000202632 -1.29663e-06
0.000202632 0.000394414 -1.90514e-06
-1.29663e-06 -1.90514e-06 0.000189678
0.00184856 0.000299446 7.30573e-07
0.000299446 0.000193644 -1.70973e-06
7.30573e-07 -1.70973e-06 2.12869e-05
0.00172682 0.00037358 5.02367e-07
0.00037358 0.000240435 -2.03232e-07
5.02367e-07 -2.03232e-07 1.81563e-05
0.00187051 0.000374235 -1.41165e-07
0.000374235 0.000223512 -2.50826e-07
-1.41165e-07 -2.50826e-07 3.30544e-05
0.00112705 0.00029405 3.31158e-06
0.00029405 0.000187921 3.84859e-06
3.31158e-06 3.84859e-06 -6.68705e-05
0.00203037 0.000453507 8.27713e-08
0.000453507 0.000433932 -6.30293e-07
8.27713e-08 -6.30293e-07 0.000188016
0.000880707 0.00030537 4.99273e-06
0.00030537 -0.000109985 -1.78634e-06
4.99273e-06 -1.78634e-06 -0.000373589
0.000601045 1.00831e-05 2.75834e-06
1.00831e-05 1.98073e-05 2.65473e-06
2.75834e-06 2.65473e-06 -3.63733e-05
0.000674642 5.55161e-05 1.54634e-07
5.55161e-05 9.47157e-05 1.31133e-06
1.54634e-07 1.31133e-06 1.15582e-06
0.000619676 2.60258e-05 2.39066e-06
2.60258e-05 3.65358e-05 2.59592e-06
2.39066e-06 2.59592e-06 -1.76526e-05
0.000585135 -9.59599e-06 -5.54137e-07
-9.59599e-06 1.23956e-05 -7.22583e-09
-5.54137e-07 -7.22583e-09 -4.2516e-05
0.00124601 -5.00839e-05 1.12935e-06
-5.00839e-05 0.000397482 2.84408e-06
1.12935e-06 2.84408e-06 0.000382051
0.000904132 -5.01367e-05 4.72825e-07
-5.01367e-05 0.000194544 -1.03132e-07
4.72825e-07 -1.03132e-07 0.000175062
0.000883996 -5.32123e-05 2.40386e-05
-5.32123e-05 0.000193894 7.76187e-06
2.40386e-05 7.76187e-06 0.000194311
0.00243362 -0.000106773 4.41456e-06
-0.000106773 0.00114579 -4.00523e-07
4.41456e-06 -4.00523e-07 0.00114889
0.00247767 -0.00012019 -3.39493e-05
-0.00012019 0.00118137 -3.05752e-06
-3.39493e-05 -3.05752e-06 0.00118087
0.000423727 5.61331e-06 2.15913e-06
5.61331e-06 -7.09552e-05 -7.1737e-06
2.15913e-06 -7.1737e-06 -0.00010802
0.00330229 0.000136786 6.80353e-05
0.000136786 0.00168776 -3.74799e-06
6.80353e-05 -3.74799e-06 0.00168112
0.000525084 -1.90748e-05 -6.38247e-07
-1.90748e-05 -1.45866e-05 1.35681e-07
-6.38247e-07 1.35681e-07 -6.09795e-05
0.00387029 0.000126077 -7.04333e-06
0.000126077 0.00203525 -6.52143e-07
-7.04333e-06 -6.52143e-07 0.00203008
0.000648179 -3.71995e-05 -9.11098e-06
-3.71995e-05 5.60992e-05 1.1137e-05
-9.11098e-06 1.1137e-05 -9.28651e-07
0.00460496 0.000126856 -0.00015286
0.000126856 0.00247744 1.08906e-05
-0.00015286 1.08906e-05 0.00247038
0.000989331 0.00012453 -1.29084e-05
0.00012453 -4.42746e-05 -3.69998e-06
-1.29084e-05 -3.69998e-06 -0.000189643
0.000987132 7.39501e-05 -1.21036e-05
7.39501e-05 -5.18159e-05 -2.06339e-06
-1.21036e-05 -2.06339e-06 -0.000183032
0.00155384 0.000152614 -2.841e-06
0.000152614 8.04234e-05 -1.29058e-07
-2.841e-06 -1.29058e-07 -6.54788e-05
0.00152709 6.78412e-05 -1.20554e-06
6.78412e-05 6.17609e-05 3.11205e-07
-1.20554e-06 3.11205e-07 -6.29855e-05
0.000980281 2.62482e-05 -1.22927e-05
2.62482e-05 -4.58442e-05 -7.02545e-07
-1.22927e-05 -7.02545e-07 -0.000169098
0.000539514 2.82249e-05 -1.92382e-05
2.82249e-05 -0.000139855 -2.41046e-07
-1.92382e-05 -2.41046e-07 -0.000209066
0.000979768 1.4564e-06 -9.00931e-09
1.4564e-06 -4.01379e-05 -1.21192e-07
-9.00931e-09 -1.21192e-07 -0.000162285
0.00151236 3.68577e-05 -6.86604e-08
3.68577e-05 5.54667e-05 9.85947e-08
-6.86604e-08 9.85947e-08 -6.46569e-05
0.00155141 0.00010896 -9.74243e-09
0.00010896 7.30224e-05 -2.52971e-08
-9.74243e-09 -2.52971e-08 -6.02946e-05
0.00183422 9.74571e-05 8.46356e-08
9.74571e-05 8.56372e-05 3.68804e-07
8.46356e-08 3.68804e-07 -3.99392e-06
0.00155682 0.000196899 -2.86191e-07
0.000196899 9.97407e-05 -5.94496e-08
-2.86191e-07 -5.94496e-08 -6.07135e-05
0.00184371 0.00019671 -4.2265e-07
0.00019671 0.000128 3.52632e-08
-4.2265e-07 3.52632e-08 3.37938e-06
0.00150703 3.46553e-06 1.21482e-06
3.46553e-06 5.50809e-05 7.18881e-08
1.21482e-06 7.18881e-08 -6.38931e-05
0.00186318 5.00256e-05 -2.69984e-06
5.00256e-05 0.0001082 6.12993e-08
-2.69984e-06 6.12993e-08 2.8905e-05
0.00186956 0.000152358 -7.57455e-07
0.000152358 0.000119077 -9.86653e-07
-7.57455e-07 -9.86653e-07 1.27765e-05
0.00180896 9.8457e-05 4.889e-06
9.8457e-05 2.3851e-05 1.03215e-06
4.889e-06 1.03215e-06 -3.95058e-05
0.00186977 0.000249859 2.31912e-07
0.000249859 0.000173467 -1.3809e-06
2.31912e-07 -1.3809e-06 2.65198e-05
0.00179979 0.000216819 7.93074e-07
0.000216819 3.57037e-05 -7.69598e-07
7.93074e-07 -7.69598e-07 -6.204e-05
0.000806145 -7.99888e-06 -1.22053e-05
-7.99888e-06 -0.000145146 6.73044e-07
-1.22053e-05 6.73044e-07 -0.000267374
0.00175781 -7.60527e-05 -2.47913e-05
-7.60527e-05 0.000417779 2.94019e-06
-2.47913e-05 2.94019e-06 0.000297292
0.00180429 -5.53371e-05 -4.51201e-06
-5.53371e-05 0.000236092 -1.43129e-07
-4.51201e-06 -1.43129e-07 0.000117735
0.00167702 -0.000155005 -3.69712e-06
-0.000155005 0.000187252 9.14542e-07
-3.69712e-06 9.14542e-07 4.09344e-05
0.000721979 -0.000128318 -2.00104e-05
-0.000128318 7.39246e-05 1.55002e-05
-2.00104e-05 1.55002e-05 -7.52854e-06
0.000745055 -0.000193836 -9.33729e-06
-0.000193836 2.80764e-05 6.82851e-06
-9.33729e-06 6.82851e-06 -0.000152358
0.00115489 -0.000280596 -5.16627e-06
-0.000280596 0.00010539 2.62356e-06
-5.16627e-06 2.62356e-06 -0.0001173
0.00173436 -0.000231999 -7.46197e-06
-0.000231999 0.000264679 2.09461e-06
-7.46197e-06 2.09461e-06 9.35492e-05
0.0019214 -0.000242409 6.65547e-07
-0.000242409 0.000201757 -1.34178e-06
6.65547e-07 -1.34178e-06 6.79423e-05
0.00174331 -0.000313312 -6.11084e-07
-0.000313312 0.000187512 -7.38839e-07
-6.11084e-07 -7.38839e-07 4.92835e-06
0.0018745 -0.000398542 -3.91991e-06
-0.000398542 0.000361053 -1.20318e-06
-3.91991e-06 -1.20318e-06 0.000120558
0.00183127 -0.000367424 3.18039e-06
-0.000367424 0.000210281 -2.59888e-06
3.18039e-06 -2.59888e-06 2.14201e-05
0.000797744 -0.000147449 -3.19741e-06
-0.000147449 0.000150355 5.55021e-06
-3.19741e-06 5.55021e-06 -1.50058e-05
0.000408927 -0.000104578 7.43633e-07
-0.000104578 -7.28199e-05 -1.94836e-06
7.43633e-07 -1.94836e-06 -0.000266428
0.000704488 -7.13439e-05 -8.2177e-07
-7.13439e-05 9.8436e-05 4.10178e-06
-8.2177e-07 4.10178e-06 -2.5447e-05
0.00161176 -2.37889e-05 -1.71435e-06
-2.37889e-05 0.000122923 1.48292e-07
-1.71435e-06 1.48292e-07 2.55934e-06
0.00176813 -0.000113646 -2.92758e-06
-0.000113646 0.000219961 4.30389e-07
-2.92758e-06 4.30389e-07 9.04755e-05
0.00181485 -8.264e-05 2.14049e-06
-8.264e-05 9.32995e-05 3.62091e-07
2.14049e-06 3.62091e-07 1.43523e-06
0.00178837 -0.000188769 -1.9095e-06
-0.000188769 0.000106373 6.18219e-07
-1.9095e-06 6.18219e-07 -1.7929e-05
0.000761769 -0.000186256 2.57292e-07
-0.000186256 0.000107731 -5.54731e-08
2.57292e-07 -5.54731e-08 -7.30808e-05
0.00112487 -0.000269639 -1.28159e-06
-0.000269639 0.000166027 -3.87178e-07
-1.28159e-06 -3.87178e-07 -5.85135e-05
0.00146483 -0.000387103 2.26705e-06
-0.000387103 0.000224617 -1.23232e-08
2.26705e-06 -1.23232e-08 -4.50772e-05
0.00168327 -0.000278976 -1.19478e-06
-0.000278976 0.000112511 7.14813e-07
-1.19478e-06 7.14813e-07 -4.99893e-05
0.00192759 -0.000261884 1.75536e-06
-0.000261884 0.000158135 -3.43011e-07
1.75536e-06 -3.43011e-07 4.88559e-05
0.0018599 -0.000426906 -6.24653e-07
-0.000426906 0.000285527 4.0253e-07
-6.24653e-07 4.0253e-07 4.55341e-05
0.00180543 -0.000339161 9.94182e-08
-0.000339161 0.000156412 4.3078e-07
9.94182e-08 4.3078e-07 -5.23727e-06
0.00207261 -0.000389328 2.03118e-06
-0.000389328 0.000342497 -3.63643e-07
2.03118e-06 -3.63643e-07 0.000172267
0.00101907 -0.000215509 2.61944e-07
-0.000215509 0.000254598 8.38661e-07
2.61944e-07 8.38661e-07 5.26641e-05
0.00117301 -0.000243654 -3.7107e-07
-0.000243654 0.000359508 2.49772e-07
-3.7107e-07 2.49772e-07 0.000139287
0.00062421 -4.76898e-05 -1.75131e-07
-4.76898e-05 5.88817e-05 1.76963e-07
-1.75131e-07 1.76963e-07 -4.49182e-05
0.000329216 -5.46434e-05 -5.31816e-08
-5.46434e-05 -9.54262e-05 -9.50872e-07
-5.31816e-08 -9.50872e-07 -0.000276429
0.00182667 -4.46206e-05 -1.91499e-06
-4.46206e-05 9.62886e-05 4.68372e-07
-1.91499e-06 4.68372e-07 9.8575e-06
0.00182862 -0.000135764 -1.80947e-08
-0.000135764 0.00010948 1.1864e-06
-1.80947e-08 1.1864e-06 2.34387e-06
0.0017254 -9.01049e-05 3.85295e-06
-9.01049e-05 -8.42021e-07 -5.20089e-07
3.85295e-06 -5.20089e-07 -6.77207e-05
0.00186649 -0.000214291 -2.27631e-06
-0.000214291 7.91269e-05 3.05032e-07
-2.27631e-06 3.05032e-07 -7.26003e-06
0.00176019 -0.00030133 -3.10469e-06
-0.00030133 9.56831e-05 2.01339e-06
-3.10469e-06 2.01339e-06 -3.80093e-05
0.00192737 -0.00027123 3.84799e-06
-0.00027123 0.000142707 -1.52067e-06
3.84799e-06 -1.52067e-06 4.41188e-05
0.00103606 -0.000246086 1.49124e-06
-0.000246086 0.000197705 -4.64997e-06
1.49124e-06 -4.64997e-06 -1.69973e-05
0.00169194 -0.000349278 -3.91027e-06
-0.000349278 7.12047e-05 1.90933e-06
-3.91027e-06 1.90933e-06 -6.76337e-05
0.00155955 -0.000378357 2.74898e-06
-0.000378357 0.000382981 -3.38955e-06
2.74898e-06 -3.38955e-06 0.00010753
0.00173607 -0.000469726 -1.89257e-06
-0.000469726 0.000315511 2.02513e-06
-1.89257e-06 2.02513e-06 2.09437e-05
0.00180684 -0.000433488 2.61523e-06
-0.000433488 0.000208562 4.69349e-06
2.61523e-06 4.69349e-06 -2.52286e-05
0.00216417 -0.000388 6.35502e-07
-0.000388 0.000383193 9.4761e-08
6.35502e-07 9.4761e-08 0.000216915
0.000516739 -4.54589e-05 2.23421e-07
-4.54589e-05 -3.97007e-06 -3.82411e-06
2.23421e-07 -3.82411e-06 -9.23536e-05
0.000451275 -5.92235e-05 -3.29326e-06
-5.92235e-05 -1.04065e-05 -6.50443e-07
-3.29326e-06 -6.50443e-07 -0.000171344
0.000883326 -0.000240269 -1.90459e-06
-0.000240269 0.000126695 5.13846e-07
-1.90459e-06 5.13846e-07 -8.746e-05
0.000831346 -0.000169949 -1.47923e-06
-0.000169949 0.000220999 4.53036e-06
-1.47923e-06 4.53036e-06 5.51006e-06
0.00158267 -0.000306504 -7.2275e-06
-0.000306504 0.000587261 3.9811e-06
-7.2275e-06 3.9811e-06 0.000359796
0.000441877 -6.29094e-05 -2.55409e-07
-6.29094e-05 -6.07526e-05 -5.61578e-06
-2.55409e-07 -5.61578e-06 -9.25297e-05
0.00150921 0.000232189 -4.33352e-06
0.000232189 0.000108092 -1.17216e-06
-4.33352e-06 -1.17216e-06 -6.92014e-05
0.000547435 -2.3128e-05 -5.05598e-08
-2.3128e-05 9.27443e-06 -4.30188e-06
-5.05598e-08 -4.30188e-06 -8.1028e-05
0.000666608 0.000116749 -2.31366e-06
0.000116749 7.54333e-05 -4.77523e-06
-2.31366e-06 -4.77523e-06 -7.94573e-05
0.000453888 8.57779e-05 1.42297e-06
8.57779e-05 -1.56963e-05 -2.35059e-08
1.42297e-06 -2.35059e-08 -0.000197232
0.00136814 0.000277724 -5.75359e-06
0.000277724 0.000138102 -1.69506e-06
-5.75359e-06 -1.69506e-06 -6.90047e-05
0.00174887 0.00033583 5.76004e-08
0.00033583 0.00018592 7.10924e-07
5.76004e-08 7.10924e-07 -1.18656e-05
0.00103645 0.000240796 -2.25193e-06
0.000240796 0.00019931 -3.84067e-06
-2.25193e-06 -3.84067e-06 -2.26171e-05
0.00141123 0.000328279 -2.57031e-06
0.000328279 0.000261061 -2.24703e-06
-2.57031e-06 -2.24703e-06 -4.58389e-06
0.00170934 0.000371762 -6.93663e-07
0.000371762 0.000310853 3.09488e-07
-6.93663e-07 3.09488e-07 7.67474e-05
0.00170733 0.000371876 -2.48692e-06
0.000371876 0.000292341 5.84783e-06
-2.48692e-06 5.84783e-06 5.05902e-05
0.000519386 -4.99886e-05 3.88529e-08
-4.99886e-05 -3.03161e-05 8.34057e-10
3.88529e-08 8.34057e-10 -5.49027e-05
0.000621147 -1.0918e-05 -6.65847e-07
-1.0918e-05 4.35059e-05 4.26576e-07
-6.65847e-07 4.26576e-07 -2.99061e-05
0.000976551 0.000205122 2.11197e-08
0.000205122 0.000239964 9.57553e-07
2.11197e-08 9.57553e-07 4.13594e-05
0.00067782 3.79556e-05 -6.15808e-07
3.79556e-05 0.00012556 -6.97541e-08
-6.15808e-07 -6.97541e-08 -2.62198e-05
0.000639372 0.000140972 6.93253e-07
0.000140972 5.88357e-05 -3.71033e-07
6.93253e-07 -3.71033e-07 -0.000130507
0.00182105 0.00029932 -5.44752e-07
0.00029932 0.000174885 -1.06242e-06
-5.44752e-07 -1.06242e-06 2.12615e-06
0.00169405 0.000372003 5.32795e-07
0.000372003 0.00021837 1.02788e-07
5.32795e-07 1.02788e-07 -3.98609e-06
0.00179576 0.000370591 1.71326e-06
0.000370591 0.000181327 2.35868e-07
1.71326e-06 2.35868e-07 -9.38156e-06
0.00128777 0.000307775 1.54579e-06
0.000307775 0.000293655 8.31476e-07
1.54579e-06 8.31476e-07 3.53284e-05
0.00188929 0.00043988 1.41316e-06
0.00043988 0.000332197 7.5076e-08
1.41316e-06 7.5076e-08 8.69993e-05
0.00149148 0.000359643 -1.93652e-06
0.000359643 0.000256809 1.04597e-07
-1.93652e-06 1.04597e-07 -1.45761e-05
0.000681009 3.45506e-06 1.89554e-06
3.45506e-06 6.95989e-05 2.97548e-06
1.89554e-06 2.97548e-06 8.03521e-06
0.000976856 8.20212e-05 9.13173e-07
8.20212e-05 0.000293542 2.57126e-06
9.13173e-07 2.57126e-06 0.000170593
0.00109164 0.000260498 -3.18865e-06
0.000260498 0.000251714 -1.44525e-06
-3.18865e-06 -1.44525e-06 3.91717e-05
0.00139223 0.000109902 -4.14743e-07
0.000109902 0.000562932 4.51814e-07
-4.14743e-07 4.51814e-07 0.000374363
0.00117272 0.000168944 -6.54619e-06
0.000168944 0.000325548 -6.35326e-06
-6.54619e-06 -6.35326e-06 0.000153744
0.0018325 0.000309958 -2.91186e-06
0.000309958 0.000152488 -2.5673e-06
-2.91186e-06 -2.5673e-06 -2.3606e-06
0.00186493 0.000425752 7.1243e-07
0.000425752 0.000266852 2.99617e-07
7.1243e-07 2.99617e-07 4.28338e-05
0.00160987 0.000396421 3.5578e-06
0.000396421 4.25149e-05 -5.48244e-07
3.5578e-06 -5.48244e-07 -0.000146465
0.000506773 0.000257847 -1.27907e-06
0.000257847 -0.000161204 2.38489e-06
-1.27907e-06 2.38489e-06 -0.000426388
0.00138146 0.000395449 7.04865e-06
0.000395449 0.000111935 -1.56354e-06
7.04865e-06 -1.56354e-06 -0.000148477
0.00060658 2.9138e-06 -1.95593e-07
2.9138e-06 2.18757e-05 4.06374e-08
-1.95593e-07 4.06374e-08 -3.36767e-05
0.000530543 3.16174e-05 1.43133e-06
3.16174e-05 -3.69348e-06 1.82728e-06
1.43133e-06 1.82728e-06 -9.10499e-05
0.000521766 2.49007e-05 -6.06988e-07
2.49007e-05 -6.38746e-06 -1.48312e-07
-6.06988e-07 -1.48312e-07 -9.22904e-05
0.000941559 0.000107457 2.81073e-07
0.000107457 0.000259005 -7.61105e-07
2.81073e-07 -7.61105e-07 0.00015003
0.000671666 8.24433e-05 2.06646e-06
8.24433e-05 9.54937e-05 1.75647e-06
2.06646e-06 1.75647e-06 2.82836e-06
0.000590735 3.80118e-05 2.51415e-06
3.80118e-05 2.56486e-05 2.68673e-06
2.51415e-06 2.68673e-06 -2.97522e-05
0.00058737 -2.73503e-06 -6.09578e-07
-2.73503e-06 1.80539e-05 -2.28631e-08
-6.09578e-07 -2.28631e-08 -3.63726e-05
0.00124558 -3.66267e-05 9.88825e-07
-3.66267e-05 0.000394598 2.68456e-06
9.88825e-07 2.68456e-06 0.00038109
0.000597006 -6.32941e-06 -1.58232e-06
-6.32941e-06 1.73446e-05 -2.64267e-06
-1.58232e-06 -2.64267e-06 -3.60198e-05
0.00130083 -4.66778e-05 -5.76161e-06
-4.66778e-05 0.000430392 -1.44073e-06
-5.76161e-06 -1.44073e-06 0.000415517
0.000845695 -4.1035e-05 2.45901e-05
-4.1035e-05 0.000162392 7.87253e-06
2.45901e-05 7.87253e-06 0.00016621
0.00132015 -5.60546e-05 -9.99594e-06
-5.60546e-05 0.000447409 -4.06182e-06
-9.99594e-06 -4.06182e-06 0.000430275
0.00160115 -7.12507e-05 2.20112e-05
-7.12507e-05 0.00063053 1.8606e-06
2.20112e-05 1.8606e-06 0.000634201
0.00238113 -0.000103402 -2.99262e-05
-0.000103402 0.00111269 -3.6307e-06
-2.99262e-05 -3.6307e-06 0.0011165
0.000423246 7.03162e-05 -3.45165e-06
7.03162e-05 -6.27886e-05 -5.77154e-06
-3.45165e-06 -5.77154e-06 -9.85689e-05
0.000489397 9.4758e-06 4.44104e-07
9.4758e-06 -2.9706e-05 4.38702e-07
4.44104e-07 4.38702e-07 -6.91724e-05
0.00283568 0.000133308 3.02742e-05
0.000133308 0.00140154 -3.79744e-06
3.02742e-05 -3.79744e-06 0.00139592
0.00339621 0.000111829 -7.97165e-06
0.000111829 0.00174163 -5.53509e-07
-7.97165e-06 -5.53509e-07 0.001741
0.000606661 -2.1165e-05 -7.36005e-06
-2.1165e-05 3.34203e-05 9.23552e-06
-7.36005e-06 9.23552e-06 -1.37589e-05
0.00403953 0.000106697 -0.000134255
0.000106697 0.00213142 8.86682e-06
-0.000134255 8.86682e-06 0.00213069
0.00154116 0.000195903 -3.59128e-06
0.000195903 9.26406e-05 -3.13262e-07
-3.59128e-06 -3.13262e-07 -6.80438e-05
0.00153549 0.000109135 -1.68824e-06
0.000109135 6.49032e-05 5.56711e-08
-1.68824e-06 5.56711e-08 -6.88794e-05
0.00183889 0.000195871 -7.9801e-07
0.000195871 0.000127738 1.50906e-06
-7.9801e-07 1.50906e-06 2.98664e-06
0.00183308 9.58905e-05 6.04107e-07
9.58905e-05 7.96317e-05 7.92431e-07
6.04107e-07 7.92431e-07 -6.47614e-06
0.00150412 3.93993e-05 -1.12663e-06
3.93993e-05 5.25813e-05 1.02552e-07
-1.12663e-06 1.02552e-07 -6.77261e-05
0.000984612 6.08167e-06 -1.20574e-05
6.08167e-06 -3.79235e-05 -6.8015e-08
-1.20574e-05 -6.8015e-08 -0.000160035
0.00150404 7.07566e-06 6.86637e-08
7.07566e-06 5.55731e-05 4.84447e-08
6.86637e-08 4.84447e-08 -6.34677e-05
0.00184115 4.1434e-05 -1.87635e-06
4.1434e-05 9.47677e-05 -8.44685e-08
-1.87635e-06 -8.44685e-08 1.57968e-05
0.00184933 0.000150317 -3.59521e-07
0.000150317 0.000106637 2.03191e-07
-3.59521e-07 2.03191e-07 5.33285e-07
0.00183159 9.73684e-05 2.27118e-06
9.73684e-05 3.36482e-05 5.87554e-07
2.27118e-06 5.87554e-07 -2.46016e-05
0.00184306 0.000250487 -2.94099e-07
0.000250487 0.000152486 -1.62046e-07
-2.94099e-07 -1.62046e-07 4.87565e-06
0.00183692 0.000213443 -3.62473e-07
0.000213443 5.816e-05 7.2459e-07
-3.62473e-07 7.2459e-07 -3.55873e-05
0.00183496 3.7915e-07 -1.98125e-06
3.7915e-07 9.97271e-05 1.30525e-07
-1.98125e-06 1.30525e-07 2.11668e-05
0.00182511 4.50995e-05 5.1961e-06
4.50995e-05 3.80956e-05 3.84822e-07
5.1961e-06 3.84822e-07 -1.27475e-05
0.00186416 0.000156818 1.39952e-06
0.000156818 5.47583e-05 2.46606e-07
1.39952e-06 2.46606e-07 -1.6519e-05
0.00191214 0.000100774 6.26478e-06
0.000100774 5.63451e-05 1.14941e-06
6.26478e-06 1.14941e-06 1.63003e-05
0.00183557 0.000249066 2.71994e-07
0.000249066 0.000106041 -1.96381e-06
2.71994e-07 -1.96381e-06 -1.45053e-05
0.00182814 0.000218714 4.07778e-06
0.000218714 1.40813e-05 1.25104e-06
4.07778e-06 1.25104e-06 -6.39549e-05
0.0015405 -2.12897e-05 -2.9302e-06
-2.12897e-05 7.90798e-05 -6.57672e-08
-2.9302e-06 -6.57672e-08 -4.08831e-05
0.00177892 -0.000119387 -5.56396e-06
-0.000119387 0.000224899 5.55172e-07
-5.56396e-06 5.55172e-07 9.46437e-05
0.00185862 -8.16456e-05 2.72054e-06
-8.16456e-05 0.000120657 -1.51634e-06
2.72054e-06 -1.51634e-06 3.44004e-05
0.00175755 -0.000184314 -5.44923e-07
-0.000184314 8.82264e-05 -6.05554e-08
-5.44923e-07 -6.05554e-08 -3.77082e-05
0.000844484 -0.000207532 -5.90332e-06
-0.000207532 0.00016182 7.4383e-06
-5.90332e-06 7.4383e-06 -2.28464e-05
0.00119761 -0.000278573 -7.19827e-06
-0.000278573 0.00020142 4.08158e-06
-7.19827e-06 4.08158e-06 -2.45824e-05
0.00129829 -0.000366505 3.80366e-07
-0.000366505 0.000136207 6.23276e-07
3.80366e-07 6.23276e-07 -0.000130212
0.00169009 -0.000277747 -9.83195e-07
-0.000277747 0.000119623 9.11345e-08
-9.83195e-07 9.11345e-08 -4.68493e-05
0.00195184 -0.000263449 1.83427e-06
-0.000263449 0.000170199 -1.36249e-06
1.83427e-06 -1.36249e-06 6.47872e-05
0.00182937 -0.000339489 2.29091e-06
-0.000339489 0.000170942 -9.27646e-07
2.29091e-06 -9.27646e-07 9.43279e-06
0.00178988 -0.00043021 -7.63843e-07
-0.00043021 0.000237612 -1.9953e-06
-7.63843e-07 -1.9953e-06 -5.69593e-06
0.0020685 -0.000383746 5.5417e-06
-0.000383746 0.000338055 -6.04551e-06
5.5417e-06 -6.04551e-06 0.000171932
0.000955149 -0.000212813 8.1763e-07
-0.000212813 0.000215601 1.59419e-06
8.1763e-07 1.59419e-06 1.31671e-05
0.000454314 -0.000163263 1.78734e-06
-0.000163263 -8.13111e-05 -4.20784e-07
1.78734e-06 -4.20784e-07 -0.000286098
0.000720613 -5.53019e-05 -5.58977e-07
-5.53019e-05 0.00011384 3.89613e-06
-5.58977e-07 3.89613e-06 9.41574e-06
0.000180634 -2.36272e-05 2.16633e-06
-2.36272e-05 -0.000192006 -3.56436e-06
2.16633e-06 -3.56436e-06 -0.000360642
0.00183476 -4.46263e-05 4.69143e-08
-4.46263e-05 0.000102535 2.11377e-07
4.69143e-08 2.11377e-07 1.6015e-05
0.00180048 -0.000135553 1.06477e-06
-0.000135553 9.63024e-05 -3.6935e-07
1.06477e-06 -3.6935e-07 -1.30798e-05
0.00176565 -8.92255e-05 2.44823e-06
-8.92255e-05 2.37669e-05 -6.26553e-07
2.44823e-06 -6.26553e-07 -3.91767e-05
0.00184803 -0.000211857 -2.04301e-06
-0.000211857 7.31503e-05 6.121e-07
-2.04301e-06 6.121e-07 -1.57373e-05
0.00101291 -0.000236202 -1.45462e-06
-0.000236202 0.000188555 1.96291e-07
-1.45462e-06 1.96291e-07 -2.43534e-05
0.00112581 -0.000330127 1.84526e-06
-0.000330127 0.00012545 -1.53816e-06
1.84526e-06 -1.53816e-06 -0.000139407
0.00164951 -0.000468691 -7.17673e-08
-0.000468691 0.000261316 6.1562e-07
-7.17673e-08 6.1562e-07 -3.66044e-05
0.00173788 -0.000298257 -1.58625e-06
-0.000298257 8.95548e-05 7.91695e-07
-1.58625e-06 7.91695e-07 -4.7772e-05
0.00188005 -0.000270036 1.68391e-06
-0.000270036 0.000115731 -8.60092e-07
1.68391e-06 -8.60092e-07 2.03282e-05
0.00179122 -0.000435931 -3.42024e-07
-0.000435931 0.000208403 5.76769e-07
-3.42024e-07 5.76769e-07 -2.73068e-05
0.00174436 -0.000353246 -7.38842e-07
-0.000353246 9.56139e-05 1.09792e-06
-7.38842e-07 1.09792e-06 -4.39477e-05
0.0019731 -0.00037421 3.73549e-06
-0.00037421 0.000260127 -5.69023e-06
3.73549e-06 -5.69023e-06 0.000100124
0.00110561 -0.000262925 4.15001e-07
-0.000262925 0.000254681 1.37426e-06
4.15001e-07 1.37426e-06 3.69456e-05
0.00138673 -0.000281616 4.99041e-06
-0.000281616 0.000460106 1.86169e-06
4.99041e-06 1.86169e-06 0.0002427
0.000810678 -0.00013849 -1.81391e-07
-0.00013849 0.000206582 -1.54277e-07
-1.81391e-07 -1.54277e-07 -1.13603e-05
0.000441749 -1.70123e-05 -1.64338e-06
-1.70123e-05 -4.93867e-05 5.50464e-07
-1.64338e-06 5.50464e-07 -0.000139015
0.000263941 -1.77786e-05 -2.99532e-07
-1.77786e-05 -0.000127627 -5.09214e-07
-2.99532e-07 -5.09214e-07 -0.000280709
0.00182522 -5.43334e-05 3.67641e-06
-5.43334e-05 3.86308e-05 -8.29867e-07
3.67641e-06 -8.29867e-07 -7.43057e-06
0.00188349 -0.00013219 4.24144e-06
-0.00013219 7.77115e-05 -7.01812e-07
4.24144e-06 -7.01812e-07 1.36188e-05
0.00193382 -0.000257865 2.48346e-06
-0.000257865 8.29782e-05 -1.90828e-06
2.48346e-06 -1.90828e-06 1.01386e-05
0.00175265 -0.000301002 4.47741e-07
-0.000301002 6.06517e-05 -8.65638e-07
4.47741e-07 -8.65638e-07 -4.57236e-05
0.00133224 -0.000306886 -1.46251e-06
-0.000306886 0.000328351 -4.92925e-06
-1.46251e-06 -4.92925e-06 8.5531e-05
0.00219952 -0.000425643 -1.21797e-06
-0.000425643 0.000297419 -7.85545e-07
-1.21797e-06 -7.85545e-07 0.000153436
0.00155634 -0.000436629 1.27983e-06
-0.000436629 0.000362008 -4.28198e-06
1.27983e-06 -4.28198e-06 5.17531e-05
0.001808 -0.000523526 -3.85159e-07
-0.000523526 0.000316665 1.50317e-06
-3.85159e-07 1.50317e-06 4.24857e-06
0.00175557 -0.00042404 1.64302e-06
-0.00042404 0.000166512 3.37862e-06
1.64302e-06 3.37862e-06 -6.10582e-05
0.00017871 6.72362e-06 -6.22197e-07
6.72362e-06 -0.000206677 -3.76429e-06
-6.22197e-07 -3.76429e-06 -0.000280867
0.000707344 -5.67429e-05 -4.10855e-07
-5.67429e-05 0.000150765 -6.35338e-07
-4.10855e-07 -6.35338e-07 9.74813e-06
0.000988471 -8.82256e-05 -2.12459e-06
-8.82256e-05 0.00031036 1.23658e-06
-2.12459e-06 1.23658e-06 0.000125534
0.0015294 -0.000317979 -9.55128e-06
-0.000317979 0.000485852 -8.19031e-07
-9.55128e-06 -8.19031e-07 0.000253892
0.000456425 -0.000141001 2.4702e-06
-0.000141001 -2.34406e-05 5.83252e-06
2.4702e-06 5.83252e-06 -0.000252162
0.000664837 -0.000237267 -3.54207e-06
-0.000237267 -8.71414e-06 -4.34106e-07
-3.54207e-06 -4.34106e-07 -0.000220556
0.000524269 -4.83309e-05 -1.10428e-06
-4.83309e-05 -2.86227e-05 -4.95911e-06
-1.10428e-06 -4.95911e-06 -5.26528e-05
0.000570293 -1.48491e-05 -1.45586e-06
-1.48491e-05 1.59756e-05 -3.46178e-06
-1.45586e-06 -3.46178e-06 -5.73797e-05
0.00179348 0.000299215 -1.79166e-06
0.000299215 0.00015593 -4.17903e-07
-1.79166e-06 -4.17903e-07 -1.7235e-05
0.000115563 -4.42596e-05 1.27264e-06
-4.42596e-05 -0.000214222 -2.40707e-06
1.27264e-06 -2.40707e-06 -0.000358002
0.000825068 0.000193035 -8.85221e-07
0.000193035 0.000153454 -8.2088e-09
-8.85221e-07 -8.2088e-09 -4.20096e-05
0.000105935 8.03508e-05 2.13502e-06
8.03508e-05 -0.000273036 1.31824e-06
2.13502e-06 1.31824e-06 -0.000448469
0.00166235 0.000370134 5.52259e-07
0.000370134 0.000198057 4.2937e-07
5.52259e-07 4.2937e-07 -2.42712e-05
0.00172199 0.000366576 7.06988e-07
0.000366576 0.000141052 2.08237e-07
7.06988e-07 2.08237e-07 -4.97874e-05
0.0012802 0.000304038 1.25128e-06
0.000304038 0.00029908 -8.82689e-07
1.25128e-06 -8.82689e-07 4.03161e-05
0.00208236 0.000410298 -1.46914e-06
0.000410298 0.000610403 -5.57271e-07
-1.46914e-06 -5.57271e-07 0.000333944
0.00174805 0.000426239 -1.48867e-06
0.000426239 0.000231307 8.47164e-07
-1.48867e-06 8.47164e-07 -1.31874e-05
0.000599284 3.94135e-06 -4.203e-07
3.94135e-06 2.1569e-05 3.88424e-07
-4.203e-07 3.88424e-07 -3.96433e-05
0.000706292 1.48849e-05 -7.61167e-07
1.48849e-05 0.000127482 3.68083e-07
-7.61167e-07 3.68083e-07 1.22181e-05
0.00111571 0.000263576 -1.10405e-06
0.000263576 0.000267368 -2.56715e-07
-1.10405e-06 -2.56715e-07 5.26274e-05
0.000834264 5.99927e-05 3.75539e-07
5.99927e-05 0.000221136 2.1033e-07
3.75539e-07 2.1033e-07 4.31928e-05
0.000753232 0.000173734 2.5194e-06
0.000173734 9.29412e-05 1.36213e-06
2.5194e-06 1.36213e-06 -8.47873e-05
0.0018053 0.000311105 -2.11574e-06
0.000311105 0.000138352 -1.62598e-06
-2.11574e-06 -1.62598e-06 -1.7564e-05
0.00182773 0.000422253 1.65797e-06
0.000422253 0.000244125 4.69077e-07
1.65797e-06 4.69077e-07 2.03851e-05
0.00172 0.000398274 4.87069e-07
0.000398274 0.000108707 -1.50254e-07
4.87069e-07 -1.50254e-07 -7.89362e-05
0.000888517 0.000305889 1.54388e-06
0.000305889 5.47096e-05 3.53187e-06
1.54388e-06 3.53187e-06 -0.000217581
0.00164821 0.000419694 -2.4332e-06
0.000419694 0.000282384 -1.4593e-06
-2.4332e-06 -1.4593e-06 1.61801e-05
0.000771169 4.13405e-05 4.39425e-07
4.13405e-05 0.000155058 2.19221e-06
4.39425e-07 2.19221e-06 5.52438e-05
0.000296007 -8.42549e-06 -1.39262e-06
-8.42549e-06 -9.91291e-05 1.75506e-06
-1.39262e-06 1.75506e-06 -0.000239302
0.000924407 0.000264344 -4.10443e-06
0.000264344 0.000105996 -2.40622e-06
-4.10443e-06 -2.40622e-06 -0.000107197
0.000741666 0.000147919 -5.92812e-06
0.000147919 0.00017709 -4.77603e-06
-5.92812e-06 -4.77603e-06 -1.99202e-05
0.000757096 0.000231773 -1.75382e-06
0.000231773 5.09925e-05 -3.26832e-06
-1.75382e-06 -3.26832e-06 -0.00012751
0.00171688 0.000333755 -4.60664e-07
0.000333755 2.13771e-05 -1.9198e-06
-4.60664e-07 -1.9198e-06 -0.000113049
0.00196967 0.000462878 3.66153e-06
0.000462878 0.0003121 -1.76139e-06
3.66153e-06 -1.76139e-06 7.4842e-05
0.00161705 0.000413941 2.61679e-06
0.000413941 3.79053e-05 1.85165e-07
2.61679e-06 1.85165e-07 -0.000155177
0.000907849 0.00031587 1.19469e-06
0.00031587 2.88962e-05 7.34882e-06
1.19469e-06 7.34882e-06 -0.000256336
0.00156696 0.000443311 -1.09394e-06
0.000443311 0.00024543 -7.64599e-07
-1.09394e-06 -7.64599e-07 -2.85149e-05
0.000587951 -6.71605e-06 -1.83383e-06
-6.71605e-06 1.08336e-05 -2.7389e-06
-1.83383e-06 -2.7389e-06 -4.47877e-05
0.000586744 3.65249e-05 1.11338e-06
3.65249e-05 3.18958e-05 3.93155e-07
1.11338e-06 3.93155e-07 -5.60803e-05
0.000493289 1.94988e-05 9.30125e-08
1.94988e-05 -2.72776e-05 1.03595e-06
9.30125e-08 1.03595e-06 -0.000118054
0.000391224 -2.42776e-05 -8.0644e-07
-2.42776e-05 -8.31484e-05 -1.73446e-06
-8.0644e-07 -1.73446e-06 -0.000168911
0.000640967 4.42028e-05 -2.83631e-07
4.42028e-05 7.65054e-05 -2.76766e-09
-2.83631e-07 -2.76766e-09 -1.45268e-05
0.000676919 6.1017e-05 -5.34767e-07
6.1017e-05 8.8406e-05 -3.11756e-07
-5.34767e-07 -3.11756e-07 -9.04177e-06
0.00080228 9.48729e-05 -1.37995e-06
9.48729e-05 0.000173596 -2.53548e-06
-1.37995e-06 -2.53548e-06 6.83789e-05
0.000444853 -4.19333e-06 1.22108e-06
-4.19333e-06 -3.24557e-05 5.15764e-08
1.22108e-06 5.15764e-08 -0.000142522
0.000681274 7.10679e-05 1.01637e-06
7.10679e-05 9.78206e-05 2.00381e-06
1.01637e-06 2.00381e-06 1.02744e-05
0.000610463 4.55417e-05 2.83438e-06
4.55417e-05 4.22822e-05 2.70866e-06
2.83438e-06 2.70866e-06 -1.50309e-05
0.000589673 6.83207e-06 -1.55503e-06
6.83207e-06 2.44719e-05 -5.15341e-09
-1.55503e-06 -5.15341e-09 -3.05288e-05
0.00125032 -2.37805e-05 1.12729e-06
-2.37805e-05 0.000397535 2.61395e-06
1.12729e-06 2.61395e-06 0.000384992
0.000542684 -4.92557e-05 2.3354e-07
-4.92557e-05 -4.35039e-06 -2.67735e-06
2.3354e-07 -2.67735e-06 -6.11269e-05
0.00129989 -3.32108e-05 -5.00918e-06
-3.32108e-05 0.000427168 -1.49629e-06
-5.00918e-06 -1.49629e-06 0.000414048
0.000832095 -3.25809e-05 2.09494e-05
-3.25809e-05 0.000149467 8.23843e-06
2.09494e-05 8.23843e-06 0.000154947
0.00134473 -4.43221e-05 -9.00354e-06
-4.43221e-05 0.000456673 -5.74944e-06
-9.00354e-06 -5.74944e-06 0.000442038
0.000795447 -4.23613e-05 7.58247e-06
-4.23613e-05 0.000131291 3.0807e-06
7.58247e-06 3.0807e-06 0.000134375
0.00231197 -9.6818e-05 -4.14006e-06
-9.6818e-05 0.0010624 -2.10004e-06
-4.14006e-06 -2.10004e-06 0.00106763
0.000459353 4.85446e-05 -1.39884e-06
4.85446e-05 -5.77572e-05 -3.99146e-06
-1.39884e-06 -3.99146e-06 -8.10025e-05
0.00048045 3.81012e-05 -1.93799e-06
3.81012e-05 -3.61102e-05 -4.74987e-08
-1.93799e-06 -4.74987e-08 -6.78204e-05
0.00252957 0.000111342 2.30326e-05
0.000111342 0.00120927 -3.786e-06
2.30326e-05 -3.786e-06 0.00120969
0.000586225 -9.52927e-06 -5.42622e-06
-9.52927e-06 2.32863e-05 7.62151e-06
-5.42622e-06 7.62151e-06 -1.44499e-05
0.00300937 0.000126859 -2.36988e-05
0.000126859 0.00150496 -9.68203e-07
-2.36988e-05 -9.68203e-07 0.0015012
0.00354685 9.78719e-05 -0.000110328
9.78719e-05 0.00182982 6.68495e-06
-0.000110328 6.68495e-06 0.00183237
0.00181494 0.000250901 -2.02078e-06
0.000250901 0.000131052 7.93967e-07
-2.02078e-06 7.93967e-07 -1.71819e-05
0.00182982 0.000147121 6.71398e-07
0.000147121 9.58576e-05 1.53123e-06
6.71398e-07 1.53123e-06 -9.86603e-06
0.00187572 0.000210197 -5.93319e-08
0.000210197 8.12058e-05 1.93742e-06
-5.93319e-08 1.93742e-06 -8.459e-06
0.00183207 9.57948e-05 -6.62541e-07
9.57948e-05 3.01537e-05 -1.53188e-07
-6.62541e-07 -1.53188e-07 -2.31605e-05
0.00181783 3.48574e-05 -1.15578e-06
3.48574e-05 8.05052e-05 2.259e-07
-1.15578e-06 2.259e-07 1.71473e-06
0.00150498 9.97088e-06 -9.24916e-07
9.97088e-06 5.74087e-05 5.69149e-08
-9.24916e-07 5.69149e-08 -6.16321e-05
0.00182332 1.31763e-06 -1.8638e-06
1.31763e-06 9.20308e-05 5.10922e-08
-1.8638e-06 5.10922e-08 1.10079e-05
0.00183674 4.34644e-05 2.16843e-06
4.34644e-05 4.88313e-05 1.06564e-07
2.16843e-06 1.06564e-07 -3.75487e-06
0.00190626 0.00015679 -8.67098e-07
0.00015679 8.22455e-05 -2.45355e-07
-8.67098e-07 -2.45355e-07 1.03521e-05
0.00188859 0.000101701 1.17357e-06
0.000101701 3.98317e-05 1.98066e-07
1.17357e-06 1.98066e-07 2.32766e-06
0.00182228 0.000246444 -8.40768e-07
0.000246444 0.000106096 -3.24441e-07
-8.40768e-07 -3.24441e-07 -1.40108e-05
0.0018614 0.000223456 3.28179e-06
0.000223456 3.44578e-05 1.33057e-06
3.28179e-06 1.33057e-06 -4.05343e-05
0.00182643 -6.43253e-06 4.07761e-06
-6.43253e-06 5.14819e-05 -6.57005e-08
4.07761e-06 -6.57005e-08 1.94549e-06
0.00186746 4.63518e-05 5.52858e-06
4.63518e-05 2.05401e-05 3.01557e-07
5.52858e-06 3.01557e-07 -6.38551e-06
0.0019447 0.000158817 4.337e-06
0.000158817 5.02838e-05 1.37897e-06
4.337e-06 1.37897e-06 6.75486e-06
0.00195554 0.00028525 2.51125e-07
0.00028525 0.000102861 1.77225e-07
2.51125e-07 1.77225e-07 9.51365e-06
0.00184905 -4.47091e-05 9.29045e-07
-4.47091e-05 0.000111992 -2.83567e-08
9.29045e-07 -2.83567e-08 2.54037e-05
0.00175994 -0.000136382 2.1857e-06
-0.000136382 7.54717e-05 -1.17142e-06
2.1857e-06 -1.17142e-06 -3.62895e-05
0.00180281 -8.8037e-05 1.69496e-06
-8.8037e-05 4.62425e-05 -1.3017e-06
1.69496e-06 -1.3017e-06 -1.27315e-05
0.00184225 -0.00020941 -2.6214e-06
-0.00020941 7.32824e-05 9.77126e-07
-2.6214e-06 9.77126e-07 -1.77913e-05
0.00110841 -0.000243995 -3.15364e-06
-0.000243995 0.000250641 4.66119e-06
-3.15364e-06 4.66119e-06 3.49074e-05
0.000893345 -0.000301225 -4.46505e-07
-0.000301225 -1.20321e-05 1.845e-06
-4.46505e-07 1.845e-06 -0.000269125
0.00161664 -0.000472644 2.20474e-06
-0.000472644 0.000239608 -1.35218e-06
2.20474e-06 -1.35218e-06 -6.26675e-05
0.0017068 -0.000295026 -5.24752e-07
-0.000295026 7.8612e-05 -5.85459e-08
-5.24752e-07 -5.85459e-08 -6.23387e-05
0.00177537 -0.000267062 9.59933e-07
-0.000267062 5.40229e-05 2.71116e-07
9.59933e-07 2.71116e-07 -3.81746e-05
0.00180984 -0.000358188 2.56494e-06
-0.000358188 0.000126193 2.98834e-07
2.56494e-06 2.98834e-07 -1.42006e-05
0.00176984 -0.000436025 -2.91447e-06
-0.000436025 0.00020327 -2.3604e-06
-2.91447e-06 -2.3604e-06 -3.35903e-05
0.00180796 -0.000361503 1.73494e-06
-0.000361503 0.000151365 -1.06382e-05
1.73494e-06 -1.06382e-05 -2.41833e-06
0.00130397 -0.000283033 3.47787e-06
-0.000283033 0.000369444 1.6683e-06
3.47787e-06 1.6683e-06 0.000148374
0.000928815 -0.000233883 7.19132e-06
-0.000233883 0.000163852 -6.01015e-07
7.19132e-06 -6.01015e-07 -3.55722e-05
0.000645879 -0.000112587 3.153e-06
-0.000112587 0.000108325 -5.89828e-06
3.153e-06 -5.89828e-06 -0.000113613
0.000337974 3.09586e-06 -2.18749e-07
3.09586e-06 -0.000111714 3.5158e-06
-2.18749e-07 3.5158e-06 -0.000203373
0.000262215 1.75805e-05 2.63527e-06
1.75805e-05 -0.000132307 -1.51312e-07
2.63527e-06 -1.51312e-07 -0.00028119
0.00182475 -6.05784e-05 -4.69492e-07
-6.05784e-05 3.8952e-05 -1.33434e-07
-4.69492e-07 -1.33434e-07 -1.04514e-05
0.00186461 -0.00013283 1.51692e-06
-0.00013283 6.48384e-05 -5.5039e-07
1.51692e-06 -5.5039e-07 -9.72092e-07
0.00187563 -0.000249953 -1.59454e-06
-0.000249953 5.98418e-05 3.0255e-07
-1.59454e-06 3.0255e-07 -1.57521e-05
0.00123205 -0.000296545 -1.86408e-06
-0.000296545 0.000270558 -7.72907e-08
-1.86408e-06 -7.72907e-08 2.83954e-05
0.00106585 -0.000377882 7.293e-07
-0.000377882 6.43606e-05 -1.54953e-06
7.293e-07 -1.54953e-06 -0.000231069
0.00168258 -0.000515002 -3.0719e-07
-0.000515002 0.000247255 -1.99652e-07
-3.0719e-07 -1.99652e-07 -6.71754e-05
0.00175364 -0.000300701 5.16013e-07
-0.000300701 5.66773e-05 -2.02843e-07
5.16013e-07 -2.02843e-07 -5.05699e-05
0.00186609 -0.000431376 9.24553e-07
-0.000431376 0.000230018 -2.75246e-06
9.24553e-07 -2.75246e-06 8.66823e-06
0.00193727 -0.000404054 -5.02842e-07
-0.000404054 0.000163777 -1.01463e-06
-5.02842e-07 -1.01463e-06 2.15204e-05
0.000250973 4.00252e-05 -7.27759e-07
4.00252e-05 -0.000169982 -8.70396e-07
-7.27759e-07 -8.70396e-07 -0.000239218
0.00123313 -0.000288073 -8.98194e-07
-0.000288073 0.000290273 2.42077e-07
-8.98194e-07 2.42077e-07 6.63888e-05
0.000544531 -0.000220972 1.44184e-06
-0.000220972 -7.38877e-05 2.05938e-06
1.44184e-06 2.05938e-06 -0.000270023
0.00104713 -0.000196371 -4.67917e-07
-0.000196371 0.000336105 4.82404e-07
-4.67917e-07 4.82404e-07 9.56806e-05
0.00116099 -9.31809e-05 7.26305e-07
-9.31809e-05 0.000414591 -1.95092e-06
7.26305e-07 -1.95092e-06 0.000230525
0.000568213 -8.75142e-06 -7.16599e-07
-8.75142e-06 5.85401e-05 7.15285e-07
-7.16599e-07 7.15285e-07 -7.79532e-05
0.0018848 -7.14696e-05 4.80301e-06
-7.14696e-05 3.77479e-05 -6.89332e-07
4.80301e-06 -6.89332e-07 9.14216e-06
0.00196791 -0.000173095 2.62144e-06
-0.000173095 3.67848e-05 -5.00657e-07
2.62144e-06 -5.00657e-07 6.71936e-06
0.00189486 -0.000295663 2.44384e-06
-0.000295663 4.643e-05 -2.08883e-06
2.44384e-06 -2.08883e-06 -1.27216e-05
0.00209372 -0.000373533 1.39047e-06
-0.000373533 0.000166928 -3.01163e-06
1.39047e-06 -3.01163e-06 6.63375e-05
0.001869 -0.000391675 -4.09869e-06
-0.000391675 0.000611581 -4.46907e-06
-4.09869e-06 -4.46907e-06 0.000341143
0.00188454 -0.000454579 2.81258e-06
-0.000454579 0.000169454 3.02901e-06
2.81258e-06 3.02901e-06 -1.69338e-05
0.00141415 -0.000482016 -3.67503e-06
-0.000482016 0.000236522 1.40586e-06
-3.67503e-06 1.40586e-06 -0.000113275
0.00186845 -0.000549887 -4.66859e-06
-0.000549887 0.000358244 1.81242e-06
-4.66859e-06 1.81242e-06 2.79558e-05
0.000261612 5.6718e-05 -2.65508e-06
5.6718e-05 -0.000167714 -1.96554e-06
-2.65508e-06 -1.96554e-06 -0.000224523
0.000669827 1.4272e-06 -1.26767e-06
1.4272e-06 0.000115942 -2.31129e-07
-1.26767e-06 -2.31129e-07 3.36609e-06
0.000997373 -0.000119837 -3.2722e-06
-0.000119837 0.000321606 2.75693e-06
-3.2722e-06 2.75693e-06 0.000159651
0.000957441 -3.19051e-05 -3.06107e-06
-3.19051e-05 0.000277671 4.90723e-06
-3.06107e-06 4.90723e-06 5.99329e-05
0.000859706 -0.000285461 -5.78743e-06
-0.000285461 4.91115e-05 -5.97156e-06
-5.78743e-06 -5.97156e-06 -0.000192561
0.00107996 -0.000269574 -9.84534e-06
-0.000269574 0.000290345 2.09027e-06
-9.84534e-06 2.09027e-06 3.27554e-05
0.000523054 -3.31803e-06 -2.24345e-06
-3.31803e-06 -2.38808e-05 -2.71558e-06
-2.24345e-06 -2.71558e-06 -8.42975e-05
0.000470885 -2.40482e-05 9.61297e-07
-2.40482e-05 -2.42296e-05 -1.9343e-06
9.61297e-07 -1.9343e-06 -0.000128112
0.00178085 0.000312902 -2.46688e-06
0.000312902 0.000124315 -8.29875e-07
-2.46688e-06 -8.29875e-07 -3.28034e-05
0.000257497 1.0935e-05 5.17786e-07
1.0935e-05 -0.00013285 -2.04633e-07
5.17786e-07 -2.04633e-07 -0.000297547
0.00121662 0.000274081 1.74248e-06
0.000274081 0.000329648 2.82847e-07
1.74248e-06 2.82847e-07 0.000111882
-4.27082e-05 8.13197e-05 4.1174e-06
8.13197e-05 -0.000397133 3.50826e-06
4.1174e-06 3.50826e-06 -0.000550061
0.00179229 0.00041936 3.10059e-07
0.00041936 0.000220192 2.1213e-07
3.10059e-07 2.1213e-07 -3.4249e-06
0.00183771 0.000401009 -2.69827e-06
0.000401009 0.000176797 8.62806e-07
-2.69827e-06 8.62806e-07 -9.71895e-06
0.00118093 0.000343704 -1.19054e-06
0.000343704 0.000221507 8.45506e-07
-1.19054e-06 8.45506e-07 -5.72279e-05
0.00198464 0.000449974 -2.69336e-06
0.000449974 0.000494596 8.86876e-07
-2.69336e-06 8.86876e-07 0.000220702
0.000684851 1.75671e-05 -1.00452e-06
1.75671e-05 9.92535e-05 2.2359e-07
-1.00452e-06 2.2359e-07 4.25128e-06
0.000512799 3.21933e-05 9.55152e-07
3.21933e-05 3.06711e-05 7.02356e-07
9.55152e-07 7.02356e-07 -0.000113984
0.00140225 0.000311816 -5.4299e-07
0.000311816 0.000399629 -2.35596e-06
-5.4299e-07 -2.35596e-06 0.00017489
0.000529365 5.57257e-05 -1.2579e-06
5.57257e-05 1.65131e-05 -3.00111e-07
-1.2579e-06 -3.00111e-07 -0.000149778
0.000563839 0.000197705 -1.07302e-06
0.000197705 -7.62569e-05 -7.05563e-07
-1.07302e-06 -7.05563e-07 -0.000234889
0.00192185 0.000345724 -2.99028e-06
0.000345724 0.000136959 -1.2298e-06
-2.99028e-06 -1.2298e-06 4.50361e-06
0.00205031 0.000462941 2.11823e-06
0.000462941 0.00036377 -2.79584e-07
2.11823e-06 -2.79584e-07 0.000129892
0.00179089 0.000433115 1.74834e-06
0.000433115 0.000128953 2.61107e-06
1.74834e-06 2.61107e-06 -6.81537e-05
0.00123066 0.000352532 4.65916e-06
0.000352532 0.000229443 4.30913e-06
4.65916e-06 4.30913e-06 -6.47704e-05
0.00157473 0.000453637 -3.57519e-06
0.000453637 0.000244968 4.96772e-07
-3.57519e-06 4.96772e-07 -3.61325e-05
0.000129931 -1.4045e-05 -1.14007e-06
-1.4045e-05 -0.000223421 3.05264e-06
-1.14007e-06 3.05264e-06 -0.000325627
-7.50367e-05 8.61359e-05 9.01259e-07
8.61359e-05 -0.000282609 1.7664e-07
9.01259e-07 1.7664e-07 -0.000466571
0.000660534 0.000246952 1.43837e-06
0.000246952 -6.22033e-05 2.30568e-06
1.43837e-06 2.30568e-06 -0.00029055
-0.000380863 0.000103186 4.11658e-06
0.000103186 -0.000591065 -1.02667e-06
4.11658e-06 -1.02667e-06 -0.000759664
0.00197564 0.000351065 -4.36422e-07
0.000351065 -3.13186e-05 4.52863e-07
-4.36422e-07 4.52863e-07 -8.15726e-05
0.00246788 0.000441869 1.33822e-06
0.000441869 0.000454903 -9.13875e-07
1.33822e-06 -9.13875e-07 0.000296457
0.00186635 0.000499716 -3.10225e-06
0.000499716 0.00027536 -3.94605e-06
-3.10225e-06 -3.94605e-06 1.04086e-05
0.000819475 0.000360182 -7.93085e-07
0.000360182 -8.2434e-05 1.70514e-06
-7.93085e-07 1.70514e-06 -0.000388465
0.000644158 7.01022e-05 -1.07937e-06
7.01022e-05 7.10572e-05 -1.03654e-06
-1.07937e-06 -1.03654e-06 -2.00361e-05
0.000614571 4.86182e-05 -2.84975e-07
4.86182e-05 5.53547e-05 1.37302e-07
-2.84975e-07 1.37302e-07 -4.26592e-05
0.000948641 4.53948e-05 -2.97729e-06
4.53948e-05 0.000253825 -1.74209e-06
-2.97729e-06 -1.74209e-06 0.000164451
0.000630351 1.94919e-05 -1.51615e-06
1.94919e-05 5.67086e-05 -1.86392e-06
-1.51615e-06 -1.86392e-06 -2.44977e-05
0.000406547 8.98047e-06 -7.56035e-07
8.98047e-06 -7.15753e-05 -5.09666e-07
-7.56035e-07 -5.09666e-07 -0.00016639
0.000645804 3.46957e-05 -1.3782e-07
3.46957e-05 7.91852e-05 3.39277e-08
-1.3782e-07 3.39277e-08 -9.35428e-06
0.000656516 9.35722e-05 -9.11556e-07
9.35722e-05 9.79988e-05 -1.94465e-08
-9.11556e-07 -1.94465e-08 -1.05674e-05
0.000565791 3.06301e-05 9.38979e-07
3.06301e-05 4.35912e-05 2.78661e-07
9.38979e-07 2.78661e-07 -6.93849e-05
0.000771798 6.67687e-05 1.28174e-06
6.67687e-05 0.000141724 -1.75708e-06
1.28174e-06 -1.75708e-06 5.3703e-05
0.000671926 -6.55311e-06 3.31686e-06
-6.55311e-06 0.000103163 -2.50047e-06
3.31686e-06 -2.50047e-06 -1.06912e-05
0.000489989 5.60473e-05 9.89034e-07
5.60473e-05 -5.23656e-07 1.93219e-06
9.89034e-07 1.93219e-06 -0.000117595
0.000662175 8.30116e-05 1.64599e-06
8.30116e-05 9.30932e-05 2.46276e-06
1.64599e-06 2.46276e-06 8.59193e-07
0.000543507 5.43321e-05 2.43956e-06
5.43321e-05 8.57872e-06 2.52604e-06
2.43956e-06 2.52604e-06 -5.27268e-05
0.000553003 -1.69501e-08 -1.39643e-06
-1.69501e-08 9.42107e-06 -5.74826e-08
-1.39643e-06 -5.74826e-08 -4.86451e-05
0.00124371 -1.06768e-05 1.00936e-06
-1.06768e-05 0.000395625 2.4763e-06
1.00936e-06 2.4763e-06 0.000383363
0.000544183 -4.83792e-05 1.5835e-07
-4.83792e-05 7.03314e-07 -2.62478e-06
1.5835e-07 -2.62478e-06 -5.62622e-05
0.00130362 -2.04212e-05 -4.31049e-06
-2.04212e-05 0.000429892 -1.57712e-06
-4.31049e-06 -1.57712e-06 0.00041752
0.000823684 -2.38776e-05 1.79179e-05
-2.38776e-05 0.000142447 8.50691e-06
1.79179e-05 8.50691e-06 0.000148869
0.00134822 -3.08646e-05 -7.72038e-06
-3.08646e-05 0.000456562 -5.75433e-06
-7.72038e-06 -5.75433e-06 0.000443505
0.000788072 -3.34476e-05 6.24651e-06
-3.34476e-05 0.000121855 3.18324e-06
6.24651e-06 3.18324e-06 0.000126885
0.000737301 -4.115e-05 -1.02521e-06
-4.115e-05 9.54581e-05 -2.32131e-06
-1.02521e-06 -2.32131e-06 9.85479e-05
0.000494691 3.80294e-05 7.15706e-08
3.80294e-05 -4.97611e-05 -3.24672e-06
7.15706e-08 -3.24672e-06 -6.5818e-05
0.000491997 5.87914e-05 1.07433e-08
5.87914e-05 -3.45406e-05 1.64541e-07
1.07433e-08 1.64541e-07 -6.04048e-05
0.00227848 9.1424e-05 1.84057e-05
9.1424e-05 0.00104914 -3.79444e-06
1.84057e-05 -3.79444e-06 0.00105492
0.00052816 3.25068e-05 -3.08012e-06
3.25068e-05 -6.80596e-06 6.23039e-06
-3.08012e-06 6.23039e-06 -3.92078e-05
0.0026065 0.00011421 -6.52961e-06
0.00011421 0.00125587 -5.56869e-07
-6.52961e-06 -5.56869e-07 0.00125559
0.00310031 8.8874e-05 -8.81636e-05
8.8874e-05 0.00155518 5.27714e-06
-8.81636e-05 5.27714e-06 0.00156036
0.00180619 0.000243456 -6.70039e-07
0.000243456 0.000105591 1.80482e-06
-6.70039e-07 1.80482e-06 -1.40263e-05
0.00195152 0.00015689 -3.12204e-06
0.00015689 0.000111118 -1.26276e-07
-3.12204e-06 -1.26276e-07 3.85176e-05
0.00189576 0.000228001 4.46502e-07
0.000228001 5.55383e-05 -6.39237e-08
4.46502e-07 -6.39237e-08 -1.64594e-05
0.00186802 0.000102993 -5.05478e-06
0.000102993 2.50619e-05 -1.16817e-06
-5.05478e-06 -1.16817e-06 -1.00053e-05
0.00185333 4.26161e-05 -1.43992e-06
4.26161e-05 6.26232e-05 -1.91146e-07
-1.43992e-06 -1.91146e-07 8.29637e-06
0.00179168 -7.39502e-07 -8.35013e-07
-7.39502e-07 7.19667e-05 4.18118e-08
-8.35013e-07 4.18118e-08 -1.16568e-05
0.00179978 -3.48836e-06 -5.74731e-07
-3.48836e-06 3.42994e-05 5.49589e-09
-5.74731e-07 5.49589e-09 -1.47354e-05
0.00188739 4.75234e-05 9.73642e-07
4.75234e-05 4.00329e-05 1.82324e-07
9.73642e-07 1.82324e-07 1.1776e-05
0.00193336 0.000162967 5.50807e-07
0.000162967 4.46878e-05 3.12415e-08
5.50807e-07 3.12415e-08 9.8007e-07
0.00198845 0.00028217 4.20715e-07
0.00028217 0.000108973 2.23228e-07
4.20715e-07 2.23228e-07 1.72957e-05
0.00187451 -9.03008e-06 4.05274e-06
-9.03008e-06 3.85872e-05 -1.57439e-07
4.05274e-06 -1.57439e-07 1.32505e-05
0.00198255 9.40713e-05 2.64959e-06
9.40713e-05 1.31782e-05 9.07334e-08
2.64959e-06 9.07334e-08 1.09383e-05
0.00209129 0.0002445 2.95615e-06
0.0002445 7.22987e-05 1.2824e-06
2.95615e-06 1.2824e-06 2.54776e-05
0.00182301 -6.67876e-05 -2.65422e-06
-6.67876e-05 3.86641e-05 6.51872e-07
-2.65422e-06 6.51872e-07 -1.40576e-05
0.00183586 -0.00013347 -1.3086e-06
-0.00013347 4.64016e-05 -4.10005e-07
-1.3086e-06 -4.10005e-07 -2.13506e-05
0.00183538 -0.000242638 -3.02899e-06
-0.000242638 4.88061e-05 1.57296e-06
-3.02899e-06 1.57296e-06 -3.00985e-05
0.00101305 -0.000274872 -9.9577e-07
-0.000274872 0.000140472 4.09597e-06
-9.9577e-07 4.09597e-06 -9.88725e-05
0.000994366 -0.000362058 3.53647e-06
-0.000362058 1.50559e-05 5.98345e-07
3.53647e-06 5.98345e-07 -0.000273717
0.00162249 -0.000514921 1.57759e-06
-0.000514921 0.000214221 -7.74611e-07
1.57759e-06 -7.74611e-07 -0.000102558
0.00178078 -0.000301366 -9.85995e-07
-0.000301366 6.83393e-05 7.42295e-07
-9.85995e-07 7.42295e-07 -3.97259e-05
0.00161516 -0.000380512 -9.58474e-07
-0.000380512 -6.13891e-06 -1.46163e-06
-9.58474e-07 -1.46163e-06 -0.000146664
0.00192983 -0.000436801 -2.62795e-06
-0.000436801 0.000265784 -7.55697e-06
-2.62795e-06 -7.55697e-06 5.05567e-05
0.00103733 -0.000269566 2.73056e-06
-0.000269566 0.000161015 5.02376e-06
2.73056e-06 5.02376e-06 -5.85923e-05
0.000678095 -0.000228323 -7.39388e-06
-0.000228323 2.05373e-05 4.82157e-06
-7.39388e-06 4.82157e-06 -0.00016595
0.0017758 -0.000253521 1.9614e-06
-0.000253521 0.000785465 -1.80038e-06
1.9614e-06 -1.80038e-06 0.000525636
0.00034329 3.35458e-05 1.33071e-06
3.35458e-05 -0.000116358 6.10809e-07
1.33071e-06 6.10809e-07 -0.000183452
0.000879852 -9.65828e-05 2.90456e-06
-9.65828e-05 0.000239243 -1.10586e-06
2.90456e-06 -1.10586e-06 6.8937e-05
0.000384011 3.27883e-05 4.10275e-06
3.27883e-05 -5.99137e-05 1.53352e-06
4.10275e-06 1.53352e-06 -0.000191571
0.001882 -7.13952e-05 -3.9536e-07
-7.13952e-05 3.81118e-05 1.57533e-07
-3.9536e-07 1.57533e-07 5.7542e-06
0.00194363 -0.000179539 2.35844e-07
-0.000179539 1.94778e-05 -1.43316e-07
2.35844e-07 -1.43316e-07 -1.11456e-05
0.00191448 -0.00029451 -3.90824e-07
-0.00029451 6.47461e-05 4.02709e-07
-3.90824e-07 4.02709e-07 9.3104e-07
0.00138958 -0.00034447 -1.78137e-06
-0.00034447 0.00033041 7.77933e-07
-1.78137e-06 7.77933e-07 6.71558e-05
0.00119022 -0.000455492 2.174e-07
-0.000455492 0.00010449 -1.17657e-06
2.174e-07 -1.17657e-06 -0.000237428
0.0019743 -0.000551679 -4.15228e-06
-0.000551679 0.000419893 7.02422e-07
-4.15228e-06 7.02422e-07 9.81575e-05
0.0019687 -0.000373238 6.63022e-07
-0.000373238 9.6432e-05 -2.71046e-07
6.63022e-07 -2.71046e-07 -7.84946e-06
0.00172494 -0.000444183 1.31696e-06
-0.000444183 7.07502e-05 -3.13449e-06
1.31696e-06 -3.13449e-06 -0.000114379
0.000428866 5.13715e-05 -5.74507e-07
5.13715e-05 -7.04184e-05 -1.03054e-06
-5.74507e-07 -1.03054e-06 -0.000122901
0.000692786 -1.01398e-05 -6.6533e-07
-1.01398e-05 0.000127357 3.64517e-07
-6.6533e-07 3.64517e-07 1.58711e-05
0.000322909 -0.000231408 -5.00401e-06
-0.000231408 -0.000267954 6.01793e-06
-5.00401e-06 6.01793e-06 -0.000493071
0.00154343 -0.000292007 1.81055e-06
-0.000292007 0.000582885 -9.38609e-07
1.81055e-06 -9.38609e-07 0.000321829
0.00104373 -8.49721e-05 -2.29285e-07
-8.49721e-05 0.00034229 -1.8526e-06
-2.29285e-07 -1.8526e-06 0.000123117
0.000844714 -9.20468e-05 -6.74254e-07
-9.20468e-05 0.000230895 1.08745e-06
-6.74254e-07 1.08745e-06 6.99297e-05
0.00193143 -8.88656e-05 1.33703e-06
-8.88656e-05 3.3211e-06 1.41442e-07
1.33703e-06 1.41442e-07 -1.18118e-06
0.00203088 -0.000255552 2.02663e-07
-0.000255552 1.08656e-05 1.71163e-07
2.02663e-07 1.71163e-07 1.00787e-05
0.00199428 -0.00032268 1.89417e-06
-0.00032268 7.41964e-05 -2.07898e-06
1.89417e-06 -2.07898e-06 2.44625e-05
0.00197817 -0.000491426 4.90243e-06
-0.000491426 7.93211e-05 -2.62632e-06
4.90243e-06 -2.62632e-06 -5.23012e-05
0.000895445 -0.00035413 -3.35624e-06
-0.00035413 7.60296e-06 -6.45284e-06
-3.35624e-06 -6.45284e-06 -0.000303367
0.00192551 -0.00055946 -2.09328e-06
-0.00055946 0.000342114 1.23611e-05
-2.09328e-06 1.23611e-05 3.86814e-05
0.00197752 -0.000574407 -3.73469e-06
-0.000574407 0.000531463 -1.32242e-06
-3.73469e-06 -1.32242e-06 0.000145731
0.000601656 5.22486e-05 3.35531e-08
5.22486e-05 2.37715e-05 -1.13768e-06
3.35531e-08 -1.13768e-06 -2.02701e-05
0.000668655 -0.000115577 3.18257e-06
-0.000115577 0.000105359 -1.80265e-06
3.18257e-06 -1.80265e-06 1.91719e-05
0.000434958 6.0833e-05 -3.2886e-06
6.0833e-05 -3.77959e-05 -1.45732e-07
-3.2886e-06 -1.45732e-07 -0.000127811
0.00064154 -4.75894e-05 -2.37946e-06
-4.75894e-05 0.000115082 3.80928e-06
-2.37946e-06 3.80928e-06 -2.79468e-05
0.000499253 -4.52514e-05 2.28894e-07
-4.52514e-05 -4.45628e-06 4.68651e-07
2.28894e-07 4.68651e-07 -0.000170203
-0.000314088 -5.61196e-05 -1.33874e-06
-5.61196e-05 -0.000462679 1.18834e-06
-1.33874e-06 1.18834e-06 -0.000686939
0.000206807 -0.000249674 -8.25745e-06
-0.000249674 -0.000323474 -7.51703e-06
-8.25745e-06 -7.51703e-06 -0.000551534
0.00295316 -0.000433748 -1.48977e-05
-0.000433748 0.00149772 3.19996e-06
-1.48977e-05 3.19996e-06 0.00111281
0.000636131 -1.71912e-06 -1.06018e-06
-1.71912e-06 6.39773e-05 -1.08078e-06
-1.06018e-06 -1.08078e-06 -2.46833e-05
0.000741733 6.41939e-05 3.01757e-07
6.41939e-05 0.000171454 -1.0978e-06
3.01757e-07 -1.0978e-06 1.94269e-05
0.00211464 0.000356601 -1.65431e-06
0.000356601 0.000246582 -8.11867e-07
-1.65431e-06 -8.11867e-07 0.000116326
0.000758329 9.61187e-05 -1.45582e-06
9.61187e-05 0.000167239 3.33413e-06
-1.45582e-06 3.33413e-06 -1.18724e-05
0.00197697 0.00037052 2.12846e-06
0.00037052 0.000750253 -6.52545e-07
2.12846e-06 -6.52545e-07 0.000510966
0.000364037 0.000162351 -4.91614e-07
0.000162351 -0.00020402 1.59922e-06
-4.91614e-07 1.59922e-06 -0.000343944
0.00209965 0.00045899 -3.00279e-06
0.00045899 0.000400408 -2.40935e-07
-3.00279e-06 -2.40935e-07 0.000170846
0.00194145 0.000450572 -2.1916e-06
0.000450572 0.000207888 5.82931e-06
-2.1916e-06 5.82931e-06 7.21988e-06
0.00160227 0.000397586 -9.8203e-07
0.000397586 0.000454783 -2.55549e-07
-9.8203e-07 -2.55549e-07 0.000150254
0.00146014 0.000453538 -2.79214e-07
0.000453538 0.000171612 1.17714e-06
-2.79214e-07 1.17714e-06 -0.000114403
0.000284061 1.68199e-05 -1.2559e-07
1.68199e-05 -0.00012487 1.19595e-06
-1.2559e-07 1.19595e-06 -0.000234316
0.000351891 0.000122654 -7.39373e-07
0.000122654 -2.44278e-05 -2.31039e-06
-7.39373e-07 -2.31039e-06 -0.000214742
0.00143091 0.000329187 4.31996e-06
0.000329187 0.000396655 -1.65379e-06
4.31996e-06 -1.65379e-06 0.000153518
0.000722861 0.000190436 -2.73997e-06
0.000190436 6.6391e-05 -2.82133e-06
-2.73997e-06 -2.82133e-06 -0.000112925
0.00205582 0.000342248 9.87067e-07
0.000342248 1.46022e-05 -8.45877e-07
9.87067e-07 -8.45877e-07 -3.51863e-05
0.00221097 0.000434913 3.13961e-06
0.000434913 0.0003127 6.05646e-07
3.13961e-06 6.05646e-07 0.000150077
0.00186903 0.000492707 -8.34604e-07
0.000492707 0.000270272 3.83854e-07
-8.34604e-07 3.83854e-07 9.01025e-06
0.00125183 0.000405313 2.47088e-08
0.000405313 0.000147456 6.26923e-07
2.47088e-08 6.26923e-07 -0.00016096
0.000226162 4.05279e-05 -1.30731e-06
4.05279e-05 -0.000164379 3.13564e-06
-1.30731e-06 3.13564e-06 -0.000276539
0.00202922 0.000281617 1.65038e-06
0.000281617 -6.095e-05 2.68907e-06
1.65038e-06 2.68907e-06 -5.1287e-05
0.00171161 0.000311162 3.02858e-06
0.000311162 0.00075931 4.83145e-06
3.02858e-06 4.83145e-06 0.000520294
0.00118093 0.000318247 6.44001e-06
0.000318247 0.000219645 3.06482e-06
6.44001e-06 3.06482e-06 -2.15354e-05
0.00244321 0.000429464 -1.80151e-05
0.000429464 0.000326958 -5.77439e-06
-1.80151e-05 -5.77439e-06 0.000216037
0.00102403 0.000457678 -6.05279e-06
0.000457678 -0.000309358 -8.16123e-06
-6.05279e-06 -8.16123e-06 -0.000553333
0.00202959 0.000509559 -1.37989e-06
0.000509559 0.000527827 2.81046e-06
-1.37989e-06 2.81046e-06 0.000198776
0.000697934 6.46805e-05 -1.53775e-06
6.46805e-05 0.000104674 -7.73909e-07
-1.53775e-06 -7.73909e-07 7.22303e-06
0.000670373 5.998e-05 -1.90642e-06
5.998e-05 9.63334e-05 -6.11079e-07
-1.90642e-06 -6.11079e-07 2.82453e-06
0.00100318 5.11674e-05 -2.2573e-06
5.11674e-05 0.000299949 2.88407e-07
-2.2573e-06 2.88407e-07 0.000218325
0.000591464 -1.37776e-06 8.46139e-08
-1.37776e-06 4.96159e-05 -2.55703e-06
8.46139e-08 -2.55703e-06 -4.07104e-05
0.000661758 5.86832e-05 7.7876e-07
5.86832e-05 0.000103194 -7.94408e-08
7.7876e-07 -7.94408e-08 -1.14062e-05
0.000278135 3.69191e-05 -1.59333e-06
3.69191e-05 -0.000115756 2.31497e-06
-1.59333e-06 2.31497e-06 -0.000222073
0.000609476 7.43694e-06 -7.83543e-07
7.43694e-06 6.93241e-05 1.25266e-08
-7.83543e-07 1.25266e-08 -2.74594e-05
0.000409707 -1.61841e-05 -5.56059e-07
-1.61841e-05 -3.88539e-05 4.29993e-07
-5.56059e-07 4.29993e-07 -0.00015966
0.000437018 1.91388e-05 1.77641e-07
1.91388e-05 -5.00575e-05 5.39562e-07
1.77641e-07 5.39562e-07 -0.00013248
0.000751271 5.71245e-05 7.44975e-07
5.71245e-05 0.000163092 -5.60775e-07
7.44975e-07 -5.60775e-07 3.86135e-05
0.00123774 6.63071e-05 6.47509e-07
6.63071e-05 0.00040721 -1.35326e-06
6.47509e-07 -1.35326e-06 0.000337594
0.000677509 -3.97621e-06 4.04976e-06
-3.97621e-06 9.17348e-05 -3.27217e-06
4.04976e-06 -3.27217e-06 -1.65302e-06
0.000663879 6.04369e-05 4.72915e-07
6.04369e-05 0.000117143 1.2738e-06
4.72915e-07 1.2738e-06 -2.12451e-05
0.000613248 3.91116e-05 2.56527e-06
3.91116e-05 8.55487e-05 2.2967e-06
2.56527e-06 2.2967e-06 -4.7259e-05
0.00064517 2.46832e-05 1.8292e-06
2.46832e-05 8.4571e-05 2.42594e-06
1.8292e-06 2.42594e-06 -1.15259e-05
0.000550189 -3.71175e-05 -3.94357e-08
-3.71175e-05 1.15046e-05 2.3892e-06
-3.94357e-08 2.3892e-06 -4.98661e-05
0.000563768 -4.7592e-06 -3.9719e-07
-4.7592e-06 1.74904e-05 -5.7873e-08
-3.9719e-07 -5.7873e-08 -4.1399e-05
0.00128513 1.70234e-06 1.27819e-06
1.70234e-06 0.000424096 2.39747e-06
1.27819e-06 2.39747e-06 0.000410931
0.00056808 -2.33562e-05 6.51255e-07
-2.33562e-05 1.56425e-05 -2.74782e-06
6.51255e-07 -2.74782e-06 -4.03512e-05
0.0013091 -7.19409e-06 -3.33504e-06
-7.19409e-06 0.000435657 -1.61165e-06
-3.33504e-06 -1.61165e-06 0.000423233
0.000808927 -1.57347e-05 1.35001e-05
-1.57347e-05 0.000133692 8.51293e-06
1.35001e-05 8.51293e-06 0.000140546
0.00136287 -1.80254e-05 -5.72301e-06
-1.80254e-05 0.000465956 -5.88766e-06
-5.72301e-06 -5.88766e-06 0.000453468
0.000801912 -2.50349e-05 4.19645e-06
-2.50349e-05 0.000127547 3.28647e-06
4.19645e-06 3.28647e-06 0.000133637
0.00075828 -3.25782e-05 -6.79497e-07
-3.25782e-05 0.000102166 -2.29738e-06
-6.79497e-07 -2.29738e-06 0.000107313
0.000648173 9.96246e-06 1.3124e-06
9.96246e-06 4.76418e-05 -1.43151e-06
1.3124e-06 -1.43151e-06 6.98718e-06
0.000515842 2.87619e-05 3.98316e-07
2.87619e-05 -4.5387e-05 -3.37782e-06
3.98316e-07 -3.37782e-06 -5.73041e-05
0.000522498 3.9434e-05 2.46693e-07
3.9434e-05 -3.20462e-05 1.56419e-07
2.46693e-07 1.56419e-07 -4.86468e-05
0.00212922 7.305e-05 1.72116e-05
7.305e-05 0.000949596 -3.9296e-06
1.72116e-05 -3.9296e-06 0.000960104
0.000530763 6.25822e-05 4.15895e-06
6.25822e-05 -9.54923e-06 5.29201e-06
4.15895e-06 5.29201e-06 -3.70725e-05
0.00238928 9.57908e-05 -4.83793e-06
9.57908e-05 0.00111687 -4.0918e-07
-4.83793e-06 -4.0918e-07 0.0011216
0.00275099 0.000120155 -2.24353e-05
0.000120155 0.0013436 4.43001e-06
-2.24353e-05 4.43001e-06 0.0013418
0.00201936 0.000279399 -4.31052e-07
0.000279399 0.000113705 4.85362e-07
-4.31052e-07 4.85362e-07 2.35433e-05
0.00191962 0.000166811 -3.69095e-06
0.000166811 3.82961e-05 -9.21466e-07
-3.69095e-06 -9.21466e-07 -5.70313e-06
0.00190395 5.03805e-05 -4.85269e-06
5.03805e-05 5.76626e-05 -4.93261e-07
-4.85269e-06 -4.93261e-07 2.80827e-05
0.00179067 -5.80726e-07 -2.8958e-06
-5.80726e-07 2.80409e-05 -2.29891e-08
-2.8958e-06 -2.29891e-08 -2.03425e-05
0.00185867 -4.79834e-06 -8.37395e-07
-4.79834e-06 2.5292e-05 -8.89397e-10
-8.37395e-07 -8.89397e-10 3.56351e-06
0.00196343 8.84073e-05 4.66105e-08
8.84073e-05 8.22001e-06 3.44035e-08
4.66105e-08 3.44035e-08 3.64465e-06
0.00203876 0.000247053 -7.43009e-07
0.000247053 4.04676e-05 -7.28093e-08
-7.43009e-07 -7.28093e-08 -4.50966e-06
0.0019513 -3.73064e-06 1.27469e-06
-3.73064e-06 -1.74976e-06 -4.65807e-07
1.27469e-06 -4.65807e-07 4.18088e-06
0.00209648 0.000137226 3.19318e-06
0.000137226 5.02471e-06 -1.96333e-07
3.19318e-06 -1.96333e-07 7.11928e-06
0.00230326 9.14865e-05 -2.01152e-06
9.14865e-05 0.000177195 7.29846e-06
-2.01152e-06 7.29846e-06 0.00022646
0.00187742 -7.14498e-05 -5.0917e-06
-7.14498e-05 3.70904e-05 3.33156e-07
-5.0917e-06 3.33156e-07 9.84583e-07
0.00193294 -0.000187178 -3.46935e-06
-0.000187178 8.52129e-06 8.16961e-07
-3.46935e-06 8.16961e-07 -2.20281e-05
0.00191785 -0.000292499 -3.34969e-06
-0.000292499 7.26199e-05 1.92257e-06
-3.34969e-06 1.92257e-06 5.12512e-06
0.000568737 -0.000260995 1.4668e-06
-0.000260995 -0.000152685 5.71595e-06
1.4668e-06 5.71595e-06 -0.000401458
0.00149463 -0.00048151 1.7656e-06
-0.00048151 0.000281419 -9.19681e-07
1.7656e-06 -9.19681e-07 -6.25968e-05
0.00198918 -0.000541306 -2.1686e-06
-0.000541306 0.000434403 -1.04015e-06
-2.1686e-06 -1.04015e-06 0.000123079
0.00183076 -0.000370438 6.17626e-07
-0.000370438 1.91502e-05 1.70974e-06
6.17626e-07 1.70974e-06 -8.85527e-05
0.00165545 -0.000436573 -5.20873e-06
-0.000436573 2.95103e-05 -5.52093e-06
-5.20873e-06 -5.52093e-06 -0.000154266
0.000328927 -0.00022794 -2.25492e-06
-0.00022794 -0.000261225 1.11398e-05
-2.25492e-06 1.11398e-05 -0.000479314
0.00217465 -0.000336449 1.63982e-05
-0.000336449 0.000982445 -3.16716e-06
1.63982e-05 -3.16716e-06 0.000713124
0.000747557 -3.5643e-05 1.25618e-06
-3.5643e-05 0.000154913 -8.74305e-07
1.25618e-06 -8.74305e-07 -4.70503e-05
0.000503365 1.58025e-05 4.96737e-07
1.58025e-05 -2.77048e-05 1.63671e-07
4.96737e-07 1.63671e-07 -7.63466e-05
0.000808104 3.29247e-05 2.9189e-06
3.29247e-05 0.00019275 4.98172e-07
2.9189e-06 4.98172e-07 8.12756e-05
0.00084195 -6.30778e-05 1.44104e-06
-6.30778e-05 0.000230947 1.53645e-06
1.44104e-06 1.53645e-06 6.8111e-05
0.00194888 -9.15103e-05 3.1271e-07
-9.15103e-05 5.48342e-06 -3.45261e-09
3.1271e-07 -3.45261e-09 3.42754e-06
0.000563351 1.85248e-05 1.06878e-06
1.85248e-05 -1.09272e-07 1.47671e-07
1.06878e-06 1.47671e-07 -4.3033e-05
0.000508485 -4.84815e-05 -1.7878e-06
-4.84815e-05 -1.21136e-05 -5.65742e-08
-1.7878e-06 -5.65742e-08 -8.48667e-05
0.00201752 -0.000245611 -1.6346e-07
-0.000245611 1.83994e-05 2.2816e-07
-1.6346e-07 2.2816e-07 1.55112e-05
0.00193731 -0.000318831 -1.31735e-06
-0.000318831 3.84995e-05 1.36442e-07
-1.31735e-06 1.36442e-07 -8.44044e-06
0.00113973 -0.000377238 -2.7313e-06
-0.000377238 0.000155325 1.24833e-06
-2.7313e-06 1.24833e-06 -0.000155511
0.00183048 -0.000560756 4.64581e-07
-0.000560756 0.000451888 7.66096e-07
4.64581e-07 7.66096e-07 6.3631e-05
0.00161949 -0.00053286 3.65213e-06
-0.00053286 0.000156622 -1.9081e-06
3.65213e-06 -1.9081e-06 -0.000138417
0.00209907 -0.000495764 2.41654e-06
-0.000495764 0.000158352 -8.34895e-07
2.41654e-06 -8.34895e-07 2.47158e-05
0.000706568 -6.02596e-06 7.03204e-07
-6.02596e-06 0.000131859 -1.25575e-06
7.03204e-07 -1.25575e-06 4.01332e-05
0.000709889 -3.03886e-05 2.33366e-07
-3.03886e-05 0.000157278 1.41812e-06
2.33366e-07 1.41812e-06 1.13081e-05
0.00114409 -0.000316053 -2.52691e-06
-0.000316053 0.000222602 -1.47784e-06
-2.52691e-06 -1.47784e-06 -2.05777e-05
0.00176174 -0.000317046 1.63626e-05
-0.000317046 0.000785725 -3.27042e-06
1.63626e-05 -3.27042e-06 0.00046118
0.000393509 -7.31869e-05 -3.08257e-06
-7.31869e-05 -5.26284e-05 -6.10956e-07
-3.08257e-06 -6.10956e-07 -0.000269086
0.000638839 -3.58211e-05 7.30955e-07
-3.58211e-05 9.33875e-05 -8.01186e-07
7.30955e-07 -8.01186e-07 -8.12458e-05
0.00197406 -0.000107291 1.73178e-06
-0.000107291 -6.33258e-05 -9.08105e-07
1.73178e-06 -9.08105e-07 -5.89091e-05
0.00195394 -0.000298434 -2.96338e-07
-0.000298434 -0.000103086 7.05447e-07
-2.96338e-07 7.05447e-07 -2.0355e-05
0.00205598 -0.00043692 -4.7711e-06
-0.00043692 3.30686e-05 -1.17317e-06
-4.7711e-06 -1.17317e-06 -3.21801e-05
0.00155842 -0.000564634 1.05857e-06
-0.000564634 -3.31382e-05 -1.38089e-06
1.05857e-06 -1.38089e-06 -0.000204189
0.00107166 -0.00035817 -6.90626e-06
-0.00035817 0.000141325 -7.78987e-06
-6.90626e-06 -7.78987e-06 -0.000176098
0.00238252 -0.000661214 -9.58696e-06
-0.000661214 0.000725764 9.49709e-06
-9.58696e-06 9.49709e-06 0.000309728
0.000349005 5.19204e-05 -1.3072e-06
5.19204e-05 -9.64267e-05 -2.10553e-06
-1.3072e-06 -2.10553e-06 -0.00017595
0.000646514 -5.8075e-05 3.70197e-06
-5.8075e-05 7.02349e-05 -6.79278e-07
3.70197e-06 -6.79278e-07 -2.23524e-06
0.000942372 -0.000103134 1.37223e-06
-0.000103134 0.000259324 2.83396e-06
1.37223e-06 2.83396e-06 0.00015947
0.0004726 1.9777e-05 -2.68531e-06
1.9777e-05 2.54637e-06 5.16695e-06
-2.68531e-06 5.16695e-06 -0.000127148
0.000853264 -7.27654e-05 -3.48702e-06
-7.27654e-05 0.000221608 5.04507e-06
-3.48702e-06 5.04507e-06 7.57028e-05
0.00122897 -5.42716e-05 1.86887e-06
-5.42716e-05 0.000394621 3.1673e-07
1.86887e-06 3.1673e-07 0.000207654
-0.000753438 -0.000118304 5.57609e-06
-0.000118304 -0.000513421 2.10548e-07
5.57609e-06 2.10548e-07 -0.000947874
-0.00025057 -0.000288222 -2.5739e-05
-0.000288222 -0.000586838 1.35443e-06
-2.5739e-05 1.35443e-06 -0.000823366
0.000386717 4.97644e-05 -4.32198e-07
4.97644e-05 -5.59448e-05 -7.66414e-07
-4.32198e-07 -7.66414e-07 -0.000173711
0.000982411 0.000169494 -6.63763e-06
0.000169494 0.000349487 -3.29425e-06
-6.63763e-06 -3.29425e-06 0.000154826
0.00213094 0.000334156 -4.24979e-06
0.000334156 6.11818e-05 -2.08323e-06
-4.24979e-06 -2.08323e-06 1.0855e-05
0.00198408 0.000429302 -1.09831e-06
0.000429302 0.00018743 1.45452e-06
-1.09831e-06 1.45452e-06 2.04486e-05
0.0018301 0.000255209 -7.85029e-06
0.000255209 0.000711221 -1.33456e-06
-7.85029e-06 -1.33456e-06 0.000530293
0.00207856 0.000396818 -5.17122e-06
0.000396818 0.00078303 -8.24244e-06
-5.17122e-06 -8.24244e-06 0.000528907
0.00190431 0.000489127 1.65935e-06
0.000489127 0.000281977 2.05605e-06
1.65935e-06 2.05605e-06 2.33225e-05
0.00182342 0.000461712 -1.54287e-07
0.000461712 0.000460982 -1.41332e-06
-1.54287e-07 -1.41332e-06 0.000147961
0.00051537 7.36593e-05 7.0812e-07
7.36593e-05 2.19025e-05 -1.01792e-06
7.0812e-07 -1.01792e-06 -0.000104396
0.00211903 0.000266784 -1.31512e-06
0.000266784 -1.09486e-05 -9.17076e-07
-1.31512e-06 -9.17076e-07 3.8473e-06
0.00117416 0.000227604 1.28773e-06
0.000227604 0.000423523 1.51739e-06
1.28773e-06 1.51739e-06 0.00020579
0.00127404 0.000329084 1.33862e-06
0.000329084 0.000279532 -8.0909e-07
1.33862e-06 -8.0909e-07 3.0332e-05
0.0023119 0.000424301 2.42846e-06
0.000424301 0.000255773 6.16955e-07
2.42846e-06 6.16955e-07 0.000147885
0.001619 0.00049902 -1.43901e-06
0.00049902 2.39993e-05 -4.0568e-06
-1.43901e-06 -4.0568e-06 -0.000221414
0.00189391 0.000494603 -1.51982e-07
0.000494603 0.000459304 3.43203e-07
-1.51982e-07 3.43203e-07 0.000131243
0.00112844 0.000176941 -3.79709e-06
0.000176941 0.000411759 3.56356e-06
-3.79709e-06 3.56356e-06 0.000238863
0.00242373 0.000312339 -5.22133e-05
0.000312339 0.000225038 -1.40089e-05
-5.22133e-05 -1.40089e-05 0.000257487
0.00198213 0.000397797 -5.51434e-06
0.000397797 0.000816985 9.11564e-07
-5.51434e-06 9.11564e-07 0.000568601
0.00189054 0.000440946 -7.12448e-06
0.000440946 0.000548413 -1.43519e-06
-7.12448e-06 -1.43519e-06 0.00025494
0.00229434 0.000565594 -2.65689e-05
0.000565594 0.000289998 -1.35279e-05
-2.65689e-05 -1.35279e-05 0.000111502
0.000814541 0.000422243 -1.97765e-05
0.000422243 -0.000201116 -2.02774e-06
-1.97765e-05 -2.02774e-06 -0.000502933
0.00122236 0.00044636 3.45435e-05
0.00044636 -0.000423478 -2.37616e-05
3.45435e-05 -2.37616e-05 -0.000651767
0.000380429 7.35631e-05 1.14558e-06
7.35631e-05 -6.38231e-05 -5.96112e-07
1.14558e-06 -5.96112e-07 -0.000162387
0.000602388 5.98548e-05 -1.03751e-07
5.98548e-05 7.88957e-05 1.06636e-06
-1.03751e-07 1.06636e-06 -6.72427e-06
0.00151386 9.66229e-05 8.18107e-07
9.66229e-05 0.000596261 -1.32779e-07
8.18107e-07 -1.32779e-07 0.000509332
0.000552037 -6.39057e-05 4.04969e-07
-6.39057e-05 4.29724e-05 -3.13263e-06
4.04969e-07 -3.13263e-06 -5.79471e-05
0.000468539 -4.03125e-05 -1.45655e-06
-4.03125e-05 -8.16149e-06 -3.65552e-07
-1.45655e-06 -3.65552e-07 -0.000124922
0.000926227 0.000143779 -5.95936e-07
0.000143779 0.000269545 9.9107e-07
-5.95936e-07 9.9107e-07 0.000139079
0.000195153 2.82672e-06 -2.36462e-06
2.82672e-06 -0.000182425 5.56155e-06
-2.36462e-06 5.56155e-06 -0.000265366
0.000602875 -2.23524e-05 -2.46188e-07
-2.23524e-05 7.22802e-05 -2.52318e-08
-2.46188e-07 -2.52318e-08 -3.16011e-05
0.000589394 4.9209e-05 -6.15364e-08
4.9209e-05 5.48106e-05 -5.14346e-07
-6.15364e-08 -5.14346e-07 -6.62896e-05
0.00093095 5.74032e-05 -1.14557e-06
5.74032e-05 0.000227348 1.18194e-06
-1.14557e-06 1.18194e-06 0.000156752
0.000702249 3.79976e-05 1.08103e-06
3.79976e-05 0.000125534 1.42329e-07
1.08103e-06 1.42329e-07 -3.12965e-06
0.000729657 1.96489e-05 -9.06331e-07
1.96489e-05 0.000119314 -6.49579e-07
-9.06331e-07 -6.49579e-07 2.23145e-05
0.00101142 6.0064e-05 1.47119e-06
6.0064e-05 0.000282728 -4.70177e-06
1.47119e-06 -4.70177e-06 0.000207257
0.00087633 7.01763e-05 -1.98705e-06
7.01763e-05 0.000213507 -2.01328e-06
-1.98705e-06 -2.01328e-06 7.97138e-05
0.000856013 9.06571e-05 9.17413e-07
9.06571e-05 0.000208809 9.27654e-07
9.17413e-07 9.27654e-07 8.15198e-05
0.000635833 4.46192e-05 5.7958e-07
4.46192e-05 9.85853e-05 1.82131e-06
5.7958e-07 1.82131e-06 -4.19232e-05
0.000438003 -2.42885e-05 -2.51737e-07
-2.42885e-05 -4.33804e-05 2.67536e-06
-2.51737e-07 2.67536e-06 -0.000143263
0.000944069 -3.52301e-05 4.63343e-07
-3.52301e-05 0.000310628 -7.2169e-07
4.63343e-07 -7.2169e-07 0.00016563
0.000337181 -2.2491e-05 -1.01976e-06
-2.2491e-05 -0.000101043 2.62175e-06
-1.01976e-06 2.62175e-06 -0.000204597
0.000521662 3.68502e-06 -1.5474e-06
3.68502e-06 -2.40761e-06 2.48212e-06
-1.5474e-06 2.48212e-06 -6.643e-05
0.000544548 2.66411e-05 1.74949e-06
2.66411e-05 1.00492e-05 -4.6983e-08
1.74949e-06 -4.6983e-08 -5.28849e-05
0.00049224 1.33446e-05 1.06756e-06
1.33446e-05 -5.12803e-05 3.93888e-06
1.06756e-06 3.93888e-06 -6.95663e-05
0.000544706 2.04122e-06 -2.39957e-06
2.04122e-06 8.60371e-06 -2.59077e-06
-2.39957e-06 -2.59077e-06 -5.23107e-05
0.000924679 6.34264e-06 -2.35896e-06
6.34264e-06 0.000207365 -1.66031e-06
-2.35896e-06 -1.66031e-06 0.000191751
0.0024573 -1.28804e-05 9.52325e-06
-1.28804e-05 0.0011307 5.29383e-06
9.52325e-06 5.29383e-06 0.0011452
0.00137207 -4.84976e-06 -4.10604e-06
-4.84976e-06 0.000474264 -5.77677e-06
-4.10604e-06 -5.77677e-06 0.000461516
0.000795047 -1.61143e-05 2.5681e-06
-1.61143e-05 0.000123015 3.3015e-06
2.5681e-06 3.3015e-06 0.000129869
0.000777156 -2.36965e-05 -9.49771e-08
-2.36965e-05 0.000110573 -2.30992e-06
-9.49771e-08 -2.30992e-06 0.000116878
0.000571109 1.54073e-05 -9.14377e-07
1.54073e-05 4.0315e-06 -1.34036e-06
-9.14377e-07 -1.34036e-06 -3.58981e-05
0.000597935 -3.95261e-06 1.12309e-06
-3.95261e-06 1.86045e-05 -1.58873e-07
1.12309e-06 -1.58873e-07 -2.29436e-05
0.000550309 2.21101e-05 3.44029e-07
2.21101e-05 -2.75196e-05 -3.31205e-06
3.44029e-07 -3.31205e-06 -3.73393e-05
0.000849416 3.55824e-05 -3.21774e-07
3.55824e-05 0.000158151 5.67799e-08
-3.21774e-07 5.67799e-08 0.00014755
0.0021039 5.86167e-05 1.34319e-05
5.86167e-05 0.000927228 -4.16231e-06
1.34319e-05 -4.16231e-06 0.000940654
0.000533628 4.38142e-05 1.46563e-06
4.38142e-05 -2.33034e-05 3.77386e-06
1.46563e-06 3.77386e-06 -4.10235e-05
0.00221466 7.72212e-05 -2.87981e-06
7.72212e-05 0.00100262 -2.05711e-07
-2.87981e-06 -2.05711e-07 0.00101204
0.00245303 9.89215e-05 -1.78786e-05
9.89215e-05 0.00115587 4.14911e-06
-1.78786e-05 4.14911e-06 0.00115981
0.00199444 0.000250127 -3.60234e-06
0.000250127 1.16963e-05 -1.94036e-06
-3.60234e-06 -1.94036e-06 -3.09322e-05
0.00194348 8.37411e-05 -1.4872e-06
8.37411e-05 2.32001e-06 2.47554e-07
-1.4872e-06 2.47554e-07 -4.22651e-06
0.00184544 -1.98862e-06 -4.79369e-06
-1.98862e-06 1.3527e-05 -9.01327e-08
-4.79369e-06 -9.01327e-08 -4.52508e-06
0.00194297 -1.76924e-06 1.46506e-07
-1.76924e-06 -4.03988e-06 -2.06507e-07
1.46506e-07 -2.06507e-07 1.61068e-06
0.00207963 0.000138604 -7.73887e-08
0.000138604 1.04468e-05 2.37695e-07
-7.73887e-08 2.37695e-07 1.12525e-05
0.00200414 7.65019e-05 6.21337e-06
7.65019e-05 -1.51643e-05 -2.67217e-06
6.21337e-06 -2.67217e-06 2.78287e-05
0.00208683 2.07911e-06 -1.02071e-06
2.07911e-06 -2.7208e-05 -1.10495e-06
-1.02071e-06 -1.10495e-06 3.89311e-06
0.00335211 0.00041307 3.79377e-05
0.00041307 -0.000378535 6.40865e-06
3.79377e-05 6.40865e-06 -3.00305e-05
0.00233689 5.0325e-05 -3.066e-05
5.0325e-05 0.000343402 2.07454e-05
-3.066e-05 2.07454e-05 0.000453349
0.000557154 8.87601e-05 -9.69783e-07
8.87601e-05 3.3329e-05 6.94945e-08
-9.69783e-07 6.94945e-08 -4.34365e-05
0.00196481 -9.33932e-05 -1.58106e-06
-9.33932e-05 7.9551e-06 -2.05198e-07
-1.58106e-06 -2.05198e-07 8.10633e-06
0.00199642 -0.000235716 -7.45346e-08
-0.000235716 2.31964e-05 1.67045e-07
-7.45346e-08 1.67045e-07 1.57033e-05
0.00189009 -0.000317894 -1.18518e-06
-0.000317894 8.24818e-06 2.12552e-06
-1.18518e-06 2.12552e-06 -3.73837e-05
0.000311957 -0.000293482 -3.78836e-06
-0.000293482 -0.000325134 8.68874e-06
-3.78836e-06 8.68874e-06 -0.000617224
0.00213515 -0.000589709 3.45492e-06
-0.000589709 0.000627893 5.32017e-06
3.45492e-06 5.32017e-06 0.000233746
0.00155345 -0.000531653 5.92263e-07
-0.000531653 9.93682e-05 -8.66416e-06
5.92263e-07 -8.66416e-06 -0.000192474
0.00222695 -0.000501337 -2.63744e-06
-0.000501337 0.000242432 -1.36246e-06
-2.63744e-06 -1.36246e-06 0.000106188
0.00208586 -0.000382759 1.93087e-05
-0.000382759 0.000754686 -1.41447e-06
1.93087e-05 -1.41447e-06 0.00049926
0.000369889 -0.000184154 1.46109e-05
-0.000184154 -3.8451e-05 -4.74951e-06
1.46109e-05 -4.74951e-06 -0.000304953
0.00120992 -0.000111232 2.84866e-06
-0.000111232 0.000422975 -1.9541e-06
2.84866e-06 -1.9541e-06 0.000212957
0.000565303 5.80745e-06 -3.08971e-07
5.80745e-06 1.00332e-06 1.35645e-06
-3.08971e-07 1.35645e-06 -4.09717e-05
0.000865044 -2.06997e-05 2.92115e-06
-2.06997e-05 0.00024058 -1.69227e-06
2.92115e-06 -1.69227e-06 5.8074e-05
0.000857801 -3.09612e-05 2.97235e-06
-3.09612e-05 0.000230737 -1.29238e-06
2.97235e-06 -1.29238e-06 0.000137654
0.000863455 -2.80275e-05 2.39425e-06
-2.80275e-05 0.000245748 -2.04009e-06
2.39425e-06 -2.04009e-06 9.7618e-05
0.000336616 -3.19912e-05 -2.54897e-06
-3.19912e-05 -0.000122143 7.82696e-07
-2.54897e-06 7.82696e-07 -0.000191723
0.002002 -0.000121851 -3.1074e-07
-0.000121851 -7.04189e-05 2.125e-07
-3.1074e-07 2.125e-07 -5.0356e-05
0.000456751 3.63464e-05 -9.87659e-08
3.63464e-05 -2.48076e-05 -1.52866e-06
-9.87659e-08 -1.52866e-06 -0.000107564
0.00062205 -5.36719e-05 1.20419e-06
-5.36719e-05 6.7502e-05 5.5535e-07
1.20419e-06 5.5535e-07 -1.09887e-05
0.000794352 -7.38316e-05 5.36795e-07
-7.38316e-05 0.000167806 7.27414e-07
5.36795e-07 7.27414e-07 7.09565e-05
0.00198905 -0.000302024 1.38992e-06
-0.000302024 -6.53e-05 -2.67417e-07
1.38992e-06 -2.67417e-07 -3.60274e-06
0.002091 -0.000439712 2.32992e-07
-0.000439712 5.80328e-05 -6.03433e-07
2.32992e-07 -6.03433e-07 -7.43664e-06
0.00111838 -0.000361298 8.33989e-06
-0.000361298 0.000163951 -7.19005e-07
8.33989e-06 -7.19005e-07 -0.000147909
0.00224287 -0.00064899 7.47518e-06
-0.00064899 0.000651286 -2.27127e-07
7.47518e-06 -2.27127e-07 0.000247004
0.0020029 -0.000594762 -1.39505e-06
-0.000594762 0.000234982 1.62313e-06
-1.39505e-06 1.62313e-06 4.87966e-05
0.000379516 -1.84735e-05 -5.15991e-07
-1.84735e-05 -5.00785e-05 -5.19286e-07
-5.15991e-07 -5.19286e-07 -0.000174116
0.000843718 -8.38531e-05 -1.9291e-06
-8.38531e-05 0.000224623 6.51215e-07
-1.9291e-06 6.51215e-07 6.64393e-05
0.000788323 -0.000384718 -7.09779e-06
-0.000384718 1.95944e-05 -2.41583e-07
-7.09779e-06 -2.41583e-07 -0.000266241
0.000495473 -0.000123701 2.42057e-08
-0.000123701 0.000118671 -2.1727e-06
2.42057e-08 -2.1727e-06 -0.000237754
0.000728844 -6.76647e-05 4.70504e-08
-6.76647e-05 9.40519e-05 6.98742e-07
4.70504e-08 6.98742e-07 -8.25204e-05
0.00237741 -0.000240996 -3.44483e-06
-0.000240996 0.000135309 -1.22343e-06
-3.44483e-06 -1.22343e-06 0.000159522
0.00181072 -0.000320947 -1.33394e-05
-0.000320947 -0.000192585 2.9075e-06
-1.33394e-05 2.9075e-06 -8.97463e-05
0.00233694 -0.000596654 -1.14275e-05
-0.000596654 0.000243628 -7.39519e-07
-1.14275e-05 -7.39519e-07 9.59968e-05
0.00301654 -0.000726528 -2.35365e-05
-0.000726528 0.000913097 1.62722e-07
-2.35365e-05 1.62722e-07 0.000658918
0.00121327 -0.000422149 -2.55898e-05
-0.000422149 0.000255505 -2.4472e-06
-2.55898e-05 -2.4472e-06 -6.79527e-05
0.000369052 -6.18238e-06 1.44134e-06
-6.18238e-06 -7.68018e-05 3.51598e-07
1.44134e-06 3.51598e-07 -0.000175377
0.000443307 2.96995e-05 5.44951e-07
2.96995e-05 -5.51267e-05 2.21633e-06
5.44951e-07 2.21633e-06 -0.000153206
0.000180184 -1.12963e-05 -3.22978e-07
-1.12963e-05 -0.000188191 -1.29552e-06
-3.22978e-07 -1.29552e-06 -0.000293144
0.00158881 -0.000192528 -5.53712e-06
-0.000192528 0.000691777 9.44744e-06
-5.53712e-06 9.44744e-06 0.00053953
0.0006176 -6.92407e-05 -3.15688e-06
-6.92407e-05 6.21032e-05 1.01204e-05
-3.15688e-06 1.01204e-05 -8.4716e-05
-0.000419158 -9.20569e-05 6.6583e-07
-9.20569e-05 -0.000294962 5.25008e-06
6.6583e-07 5.25008e-06 -0.000700799
-0.000272921 -0.000449798 -1.08346e-06
-0.000449798 -0.000320705 -1.95717e-06
-1.08346e-06 -1.95717e-06 -0.00078547
0.000931358 0.000120822 2.25841e-08
0.000120822 0.000284607 -4.73578e-06
2.25841e-08 -4.73578e-06 0.000141102
0.000360874 0.000112053 -3.08471e-06
0.000112053 -7.84961e-05 -1.66905e-06
-3.08471e-06 -1.66905e-06 -0.000267758
0.00219905 0.000247555 7.53838e-06
0.000247555 2.70303e-05 2.0917e-07
7.53838e-06 2.0917e-07 5.30127e-05
0.0022452 0.000421768 1.52454e-05
0.000421768 0.000222271 4.19397e-06
1.52454e-05 4.19397e-06 0.00011889
0.00226178 0.000542848 1.38315e-05
0.000542848 0.000386951 3.95384e-06
1.38315e-05 3.95384e-06 0.0001399
0.00119568 0.000323317 -6.32739e-07
0.000323317 0.000236112 -1.01775e-06
-6.32739e-07 -1.01775e-06 -1.77875e-05
0.00165592 0.000470124 1.54749e-06
0.000470124 0.0003317 1.73317e-06
1.54749e-06 1.73317e-06 7.12731e-06
0.00151438 0.00016489 5.13859e-08
0.00016489 0.000616329 5.63598e-08
5.13859e-08 5.63598e-08 0.000457354
0.00243573 0.000277791 -2.44707e-06
0.000277791 0.000265238 9.68133e-07
-2.44707e-06 9.68133e-07 0.000304983
0.00141268 0.000315054 -1.93294e-06
0.000315054 0.000465241 1.32071e-06
-1.93294e-06 1.32071e-06 0.000236521
0.00153278 0.000407141 9.97111e-07
0.000407141 0.000372836 1.7219e-06
9.97111e-07 1.7219e-06 7.23277e-05
0.00209726 0.000544904 -1.33684e-06
0.000544904 0.000174781 -2.68347e-06
-1.33684e-06 -2.68347e-06 1.32736e-05
0.00165056 0.000504223 -3.89938e-06
0.000504223 0.000270399 5.20989e-06
-3.89938e-06 5.20989e-06 -4.75024e-05
0.00248766 0.000585109 5.34721e-05
0.000585109 -9.59393e-05 4.42704e-06
5.34721e-05 4.42704e-06 -0.000389406
0.00114823 0.000229467 -5.65012e-06
0.000229467 0.000419375 -2.17004e-09
-5.65012e-06 -2.17004e-09 0.000232741
0.00347693 0.000500067 -6.93039e-05
0.000500067 0.000976021 -2.91272e-05
-6.93039e-05 -2.91272e-05 0.000921821
0.00107353 0.000314841 -3.50002e-06
0.000314841 0.000169007 -1.64401e-06
-3.50002e-06 -1.64401e-06 -5.68457e-05
0.00021577 0.000301767 -1.50452e-06
0.000301767 -0.000381972 -7.40391e-06
-1.50452e-06 -7.40391e-06 -0.000671778
0.000559334 0.000504683 -2.39406e-05
0.000504683 -0.000491995 -5.98023e-06
-2.39406e-05 -5.98023e-06 -0.000683059
0.0117813 0.000416522 -0.000263129
0.000416522 0.00237474 -5.87995e-05
-0.000263129 -5.87995e-05 0.00151142
0.00602896 0.00103085 0.00010934
0.00103085 0.000574288 -4.94462e-05
0.00010934 -4.94462e-05 0.000535444
-0.000127319 0.00068531 8.42774e-06
0.00068531 -0.000888648 4.7705e-06
8.42774e-06 4.7705e-06 -0.00121012
-0.00351255 -0.00103571 0.000607842
-0.00103571 -0.000168868 0.000107942
0.000607842 0.000107942 -0.00205716
0.0116373 -0.0038651 -2.86223e-05
-0.0038651 0.00309568 2.99791e-05
-2.86223e-05 2.99791e-05 0.00376432
0.000308325 6.70978e-05 4.6729e-06
6.70978e-05 -8.1349e-05 8.74637e-07
4.6729e-06 8.74637e-07 -0.00016977
0.00095071 6.77282e-05 1.35512e-06
6.77282e-05 0.000288113 -1.16595e-06
1.35512e-06 -1.16595e-06 0.000202928
0.00131163 0.000149566 -1.30724e-06
0.000149566 0.000512348 -1.95916e-07
-1.30724e-06 -1.95916e-07 0.000403572
0.000573387 -6.25063e-05 -3.15428e-07
-6.25063e-05 6.33386e-05 -2.24975e-06
-3.15428e-07 -2.24975e-06 -4.55746e-05
0.000560853 5.82048e-05 -1.58423e-06
5.82048e-05 4.06751e-05 -2.27286e-06
-1.58423e-06 -2.27286e-06 -8.45223e-05
0.000729065 -2.0065e-05 -4.2087e-07
-2.0065e-05 0.0001434 -8.8599e-07
-4.2087e-07 -8.8599e-07 1.39682e-05
0.000776473 4.25063e-05 -3.40249e-06
4.25063e-05 0.000142933 4.3593e-06
-3.40249e-06 4.3593e-06 4.26337e-05
0.000523806 4.29872e-05 -1.11693e-06
4.29872e-05 -1.11536e-05 3.79952e-06
-1.11693e-06 3.79952e-06 -8.21674e-05
0.000776148 9.51829e-05 -2.06863e-06
9.51829e-05 0.000177444 -6.34669e-07
-2.06863e-06 -6.34669e-07 3.73783e-05
0.00050555 -9.84069e-06 1.02199e-07
-9.84069e-06 4.40086e-06 7.83118e-07
1.02199e-07 7.83118e-07 -9.87648e-05
0.000633805 1.87233e-05 3.19162e-07
1.87233e-05 9.38752e-05 1.91719e-07
3.19162e-07 1.91719e-07 -4.32713e-05
0.000655755 5.50016e-05 6.44734e-07
5.50016e-05 6.63252e-05 -8.49759e-07
6.44734e-07 -8.49759e-07 -1.0065e-05
0.00081089 7.06802e-05 -1.15025e-06
7.06802e-05 0.000175163 -9.90679e-08
-1.15025e-06 -9.90679e-08 4.59712e-05
0.0012354 0.000121507 -1.53998e-06
0.000121507 0.000440599 -1.06015e-06
-1.53998e-06 -1.06015e-06 0.000303612
0.000367589 6.55206e-05 9.35587e-07
6.55206e-05 -6.73906e-05 -3.17539e-06
9.35587e-07 -3.17539e-06 -0.000188913
0.000769495 8.81572e-05 2.07831e-06
8.81572e-05 0.000159655 9.43924e-07
2.07831e-06 9.43924e-07 2.68923e-05
0.000552118 -2.63499e-05 1.37291e-06
-2.63499e-05 3.07349e-05 1.05793e-07
1.37291e-06 1.05793e-07 -9.72842e-05
0.000395595 -5.80305e-05 -1.24421e-06
-5.80305e-05 -6.44009e-05 2.38016e-06
-1.24421e-06 2.38016e-06 -0.000169958
0.000752357 -9.32132e-06 -3.14234e-07
-9.32132e-06 0.000163564 2.16537e-07
-3.14234e-07 2.16537e-07 3.07516e-05
0.000902339 3.09833e-05 2.63948e-07
3.09833e-05 0.00025868 -4.18205e-06
2.63948e-07 -4.18205e-06 0.000126822
0.000646052 -3.4921e-05 -6.53255e-07
-3.4921e-05 0.000112065 3.77463e-07
-6.53255e-07 3.77463e-07 -1.48045e-05
0.000793569 -3.13678e-05 1.38583e-06
-3.13678e-05 0.000198208 -6.78242e-07
1.38583e-06 -6.78242e-07 6.69199e-05
0.000666535 -9.6666e-05 -2.38153e-06
-9.6666e-05 0.000102379 1.81809e-06
-2.38153e-06 1.81809e-06 -1.39345e-06
0.000390375 -1.54943e-05 1.73015e-07
-1.54943e-05 -6.66032e-05 9.62685e-07
1.73015e-07 9.62685e-07 -0.000172413
0.000558282 -3.04975e-05 -1.7826e-06
-3.04975e-05 1.16236e-05 2.76391e-06
-1.7826e-06 2.76391e-06 -4.87856e-05
0.00055768 -2.51414e-05 1.31257e-06
-2.51414e-05 1.72021e-05 3.97408e-08
1.31257e-06 3.97408e-08 -4.60109e-05
0.000542842 5.59821e-06 6.43487e-07
5.59821e-06 -2.00721e-05 5.82076e-06
6.43487e-07 5.82076e-06 -3.88951e-05
0.000559906 2.7943e-05 -1.26487e-06
2.7943e-05 1.57966e-05 -2.52785e-06
-1.26487e-06 -2.52785e-06 -4.48094e-05
0.00050674 8.48247e-06 4.19766e-07
8.48247e-06 -4.22786e-05 1.94856e-08
4.19766e-07 1.94856e-08 -6.06616e-05
0.00241821 -1.31707e-06 -7.18774e-07
-1.31707e-06 0.00110756 5.32647e-06
-7.18774e-07 5.32647e-06 0.00112211
0.000561485 1.02747e-05 -1.49641e-06
1.02747e-05 -1.18652e-05 -6.02049e-06
-1.49641e-06 -6.02049e-06 -3.01109e-05
0.00163306 -9.72374e-06 -5.368e-08
-9.72374e-06 0.000630997 9.73781e-08
-5.368e-08 9.73781e-08 0.000641355
0.000775449 -1.44778e-05 3.05357e-07
-1.44778e-05 0.000108789 -2.1839e-06
3.05357e-07 -2.1839e-06 0.000115968
0.000571348 -1.6117e-05 9.10016e-07
-1.6117e-05 6.88063e-06 -1.17981e-06
9.10016e-07 -1.17981e-06 -3.17365e-05
0.000603621 -2.60786e-05 3.73935e-07
-2.60786e-05 2.46828e-05 -5.51404e-08
3.73935e-07 -5.51404e-08 -1.64387e-05
0.000566287 1.39298e-05 5.78723e-07
1.39298e-05 -2.00541e-05 -3.02246e-06
5.78723e-07 -3.02246e-06 -2.80201e-05
0.000571166 -2.02047e-05 -1.4009e-06
-2.02047e-05 9.27192e-07 1.17943e-06
-1.4009e-06 1.17943e-06 -3.98908e-05
0.000832017 2.61468e-05 -4.85026e-08
2.61468e-05 0.000143333 -7.20325e-07
-4.85026e-08 -7.20325e-07 0.000135497
0.00202239 4.35729e-05 9.93272e-06
4.35729e-05 0.000872879 -4.28023e-06
9.93272e-06 -4.28023e-06 0.000888905
0.000536301 3.12151e-05 -3.70393e-07
3.12151e-05 -3.12299e-05 3.34691e-06
-3.70393e-07 3.34691e-06 -4.39259e-05
0.00215442 6.10718e-05 -6.9493e-06
6.10718e-05 0.000960131 1.1085e-06
-6.9493e-06 1.1085e-06 0.000972866
0.00228111 8.10921e-05 -1.38469e-05
8.10921e-05 0.00104403 4.1426e-06
-1.38469e-05 4.1426e-06 0.0010525
0.00205568 0.000140367 -2.58594e-06
0.000140367 1.2232e-05 -8.35961e-07
-2.58594e-06 -8.35961e-07 1.19437e-05
0.00193797 -9.22329e-07 -1.14103e-06
-9.22329e-07 -4.46908e-06 1.43075e-07
-1.14103e-06 1.43075e-07 7.87044e-07
0.0017233 6.09096e-05 7.18972e-06
6.09096e-05 -0.000200471 1.219e-06
7.18972e-06 1.219e-06 -0.000162906
0.00229215 0.000295279 4.79472e-05
0.000295279 -0.000728027 1.05882e-05
4.79472e-05 1.05882e-05 -0.000493383
0.00204765 -1.45656e-05 -2.06737e-06
-1.45656e-05 -3.65778e-05 -1.19355e-06
-2.06737e-06 -1.19355e-06 -4.75805e-06
0.00194798 5.77342e-05 3.17533e-06
5.77342e-05 0.000120089 -5.01399e-06
3.17533e-06 -5.01399e-06 0.000204312
0.00300873 -2.10467e-05 -2.9097e-05
-2.10467e-05 0.000797903 4.23617e-06
-2.9097e-05 4.23617e-06 0.000781155
0.00193371 -4.33548e-06 3.03356e-05
-4.33548e-06 -0.00168124 -3.1977e-05
3.03356e-05 -3.1977e-05 -0.00130757
0.00247845 0.000113673 5.22009e-05
0.000113673 -0.000280829 3.01743e-05
5.22009e-05 3.01743e-05 -3.94932e-05
0.000603371 7.38458e-05 1.60764e-07
7.38458e-05 6.42398e-05 -2.75613e-07
1.60764e-07 -2.75613e-07 -1.54998e-05
0.000623314 -7.90785e-06 5.27206e-07
-7.90785e-06 7.88664e-05 -1.92414e-07
5.27206e-07 -1.92414e-07 -3.36941e-06
0.000576441 -9.84137e-05 -1.45953e-06
-9.84137e-05 5.19036e-05 1.40677e-06
-1.45953e-06 1.40677e-06 -4.50213e-05
0.00056141 -4.34958e-05 -1.45124e-06
-4.34958e-05 6.46582e-05 1.24529e-06
-1.45124e-06 1.24529e-06 -4.20188e-05
0.00204651 -0.000135403 -3.71561e-06
-0.000135403 -6.58459e-05 1.17889e-07
-3.71561e-06 1.17889e-07 -3.07233e-05
0.00201802 -0.000300315 8.27063e-07
-0.000300315 -2.7402e-05 -6.96048e-07
8.27063e-07 -6.96048e-07 1.72411e-05
0.00211287 -0.000438432 -1.91256e-06
-0.000438432 7.69078e-05 1.63813e-06
-1.91256e-06 1.63813e-06 1.23891e-05
0.00260506 -0.000523736 1.32022e-05
-0.000523736 0.00100167 1.77351e-06
1.32022e-05 1.77351e-06 0.000673102
0.000977905 -0.00053166 1.17276e-05
-0.00053166 -4.45148e-05 -3.22681e-06
1.17276e-05 -3.22681e-06 -0.000427198
0.0023825 -0.000619409 7.65489e-06
-0.000619409 0.000464037 -3.22893e-06
7.65489e-06 -3.22893e-06 0.000265908
0.00139287 -0.000432162 -2.86201e-06
-0.000432162 0.000378488 3.32112e-06
-2.86201e-06 3.32112e-06 5.76e-05
0.00216923 -0.000160954 2.44126e-06
-0.000160954 0.000995173 -2.8811e-07
2.44126e-06 -2.8811e-07 0.000716768
0.000132213 -6.21787e-05 8.17536e-07
-6.21787e-05 -0.000268866 -1.39353e-06
8.17536e-07 -1.39353e-06 -0.000431597
0.000670104 -4.48571e-05 3.08718e-08
-4.48571e-05 9.74099e-05 8.7417e-07
3.08718e-08 8.7417e-07 1.96726e-05
0.000679646 -9.72524e-05 1.50263e-06
-9.72524e-05 0.000138377 -4.62706e-06
1.50263e-06 -4.62706e-06 -2.97398e-05
0.000736496 -3.70634e-06 1.52549e-06
-3.70634e-06 0.000168791 -2.51939e-06
1.52549e-06 -2.51939e-06 4.2972e-05
0.000627825 5.60762e-06 1.34383e-07
5.60762e-06 8.48574e-05 -3.42654e-07
1.34383e-07 -3.42654e-07 -9.91763e-07
0.000538922 -1.31684e-05 -4.43444e-06
-1.31684e-05 1.16496e-05 2.44815e-06
-4.43444e-06 2.44815e-06 -8.03902e-05
0.00236005 -0.00022488 1.49923e-06
-0.00022488 0.000132329 8.70016e-07
1.49923e-06 8.70016e-07 0.000171125
0.000617423 -1.73919e-05 9.72825e-07
-1.73919e-05 8.57707e-05 -1.98932e-08
9.72825e-07 -1.98932e-08 -2.21937e-05
0.000726662 -4.93238e-06 3.16579e-06
-4.93238e-06 0.000127596 -4.20182e-07
3.16579e-06 -4.20182e-07 2.27378e-05
0.000215566 1.65841e-05 4.38235e-07
1.65841e-05 -0.000165573 1.10343e-06
4.38235e-07 1.10343e-06 -0.000252996
0.0017982 -0.00032529 -5.54723e-07
-0.00032529 -0.000226089 -1.51027e-06
-5.54723e-07 -1.51027e-06 -0.000128477
0.00211939 -0.0005728 1.77572e-06
-0.0005728 0.000138133 -6.18883e-07
1.77572e-06 -6.18883e-07 -1.33391e-08
0.00170417 -0.000507512 -1.71353e-06
-0.000507512 0.000522022 6.76874e-07
-1.71353e-06 6.76874e-07 0.000187604
0.00215442 -0.000658017 -6.03592e-06
-0.000658017 0.000446619 1.79211e-06
-6.03592e-06 1.79211e-06 0.000198435
0.0011298 -8.79407e-05 -1.05304e-06
-8.79407e-05 0.000392674 7.6986e-07
-1.05304e-06 7.6986e-07 0.000252562
0.000447615 -6.83462e-05 1.07965e-06
-6.83462e-05 -4.36394e-05 9.56923e-07
1.07965e-06 9.56923e-07 -0.0001955
0.00121638 -0.000548686 4.32698e-06
-0.000548686 0.000519572 -1.54939e-06
4.32698e-06 -1.54939e-06 3.87262e-05
0.00117179 -0.000227898 -4.85201e-07
-0.000227898 0.000496272 -5.7563e-07
-4.85201e-07 -5.7563e-07 0.000151324
0.00250037 -0.00028272 -2.59956e-05
-0.00028272 0.000114965 -1.11501e-06
-2.59956e-05 -1.11501e-06 0.000266614
0.00240666 -0.000466707 -3.3547e-05
-0.000466707 0.000193028 7.66798e-06
-3.3547e-05 7.66798e-06 0.000219207
0.0027661 -0.000728368 -1.19628e-05
-0.000728368 0.000598265 -4.7762e-06
-1.19628e-05 -4.7762e-06 0.000364779
0.00177227 -0.000576084 -1.25343e-05
-0.000576084 0.000423736 1.90508e-06
-1.25343e-05 1.90508e-06 0.000189297
0.000468569 -2.36097e-05 -1.07088e-06
-2.36097e-05 1.44609e-05 -1.83416e-06
-1.07088e-06 -1.83416e-06 -0.000107595
0.000417187 -8.11692e-05 -1.68051e-06
-8.11692e-05 -3.11054e-05 -5.63035e-06
-1.68051e-06 -5.63035e-06 -0.000166687
0.000327243 -0.000132377 -4.5655e-06
-0.000132377 4.45945e-05 1.61546e-05
-4.5655e-06 1.61546e-05 -0.000171062
-0.000514671 -0.000290826 -5.72266e-06
-0.000290826 -0.000168971 -1.05386e-05
-5.72266e-06 -1.05386e-05 -0.000760465
0.00124203 -0.000464049 3.05365e-05
-0.000464049 -0.00364827 -2.52986e-06
3.05365e-05 -2.52986e-06 -0.00381823
0.00166993 0.00015405 3.38952e-07
0.00015405 0.000694892 -4.19594e-06
3.38952e-07 -4.19594e-06 0.00054408
0.000817491 0.000241153 1.58702e-06
0.000241153 0.000111229 2.29872e-06
1.58702e-06 2.29872e-06 -0.000105426
0.00211469 0.000244783 5.88397e-05
0.000244783 9.94366e-05 1.24995e-05
5.88397e-05 1.24995e-05 0.000145998
0.00198311 0.000528329 1.9742e-05
0.000528329 0.00010439 6.66584e-06
1.9742e-05 6.66584e-06 -4.24883e-05
0.0020724 0.000547263 9.08053e-06
0.000547263 0.000521029 9.20879e-06
9.08053e-06 9.20879e-06 0.000190068
0.00121022 0.000376797 6.37732e-06
0.000376797 0.000212624 4.95002e-06
6.37732e-06 4.95002e-06 -9.48393e-05
0.00348694 0.000704149 8.57227e-05
0.000704149 0.000119095 3.58857e-05
8.57227e-05 3.58857e-05 -0.000284205
0.00127458 0.000210854 4.36703e-06
0.000210854 0.000494434 7.19388e-07
4.36703e-06 7.19388e-07 0.000312612
0.00250931 0.000441968 -8.88462e-06
0.000441968 0.000416975 -6.86581e-07
-8.88462e-06 -6.86581e-07 0.000392479
0.00112257 0.00032036 9.4375e-07
0.00032036 0.000221185 9.88901e-07
9.4375e-07 9.88901e-07 -7.78751e-06
0.00119292 0.000416998 1.82005e-06
0.000416998 0.000168961 -3.28184e-06
1.82005e-06 -3.28184e-06 -0.000139167
0.00136935 0.000566839 -6.09292e-06
0.000566839 -7.06098e-05 -9.48296e-07
-6.09292e-06 -9.48296e-07 -0.000272455
0.0028552 -0.000395742 -0.00014319
-0.000395742 -0.00317196 -4.29058e-05
-0.00014319 -4.29058e-05 -0.00420329
0.00647699 0.000898223 -3.5391e-05
0.000898223 0.000640593 -5.55247e-05
-3.5391e-05 -5.55247e-05 0.000355511
0.000809772 0.000643542 -7.80037e-06
0.000643542 -0.000301981 7.04007e-06
-7.80037e-06 7.04007e-06 -0.000662651
-0.00230248 -0.000834824 0.000254477
-0.000834824 0.00128615 0.000108866
0.000254477 0.000108866 -0.000736996
0.00349286 -0.00384982 -0.000201108
-0.00384982 0.000565618 -0.000204554
-0.000201108 -0.000204554 0.00136663
0.00134955 0.000243596 -8.66248e-06
0.000243596 0.000509334 -1.86745e-06
-8.66248e-06 -1.86745e-06 0.000339726
0.000728713 0.000501497 0.000319752
0.000501497 0.00250907 1.11186e-05
0.000319752 1.11186e-05 0.00115313
0.00105687 -0.00113516 -0.000141735
-0.00113516 0.00321141 -0.000199336
-0.000141735 -0.000199336 0.000382794
0.00271147 0.000694127 -3.6016e-05
0.000694127 0.000509985 -1.07754e-05
-3.6016e-05 -1.07754e-05 0.000498454
0.000662056 0.000192757 -1.64457e-05
0.000192757 -3.32141e-05 -5.15032e-06
-1.64457e-05 -5.15032e-06 -0.000238895
0.000563124 0.000455934 -2.86296e-05
0.000455934 -0.00015702 -1.92377e-05
-2.86296e-05 -1.92377e-05 -0.000450994
0.000285165 0.000671964 3.80976e-05
0.000671964 -0.000635114 7.85099e-05
3.80976e-05 7.85099e-05 -0.00083404
0.0135956 0.0011944 -5.9654e-06
0.0011944 0.003564 -5.33585e-05
-5.9654e-06 -5.33585e-05 0.00207219
0.00243011 0.00123125 7.00653e-06
0.00123125 0.000221421 -4.09173e-06
7.00653e-06 -4.09173e-06 -0.000760277
0.00527837 -0.00339819 0.000503348
-0.00339819 0.000612971 0.000324857
0.000503348 0.000324857 0.000277117
0.00772641 -0.00170408 -4.79893e-05
-0.00170408 0.000405792 0.00033035
-4.79893e-05 0.00033035 0.000582638
0.000621833 5.37338e-05 3.02561e-06
5.37338e-05 0.000113982 -2.70194e-06
3.02561e-06 -2.70194e-06 2.82429e-05
0.000690111 0.000109369 5.0373e-06
0.000109369 0.000146962 7.89401e-07
5.0373e-06 7.89401e-07 4.08185e-05
0.00141326 0.000193268 -3.85796e-07
0.000193268 0.000588852 -2.54091e-06
-3.85796e-07 -2.54091e-06 0.000458619
0.000602793 6.68241e-06 8.83035e-07
6.68241e-06 8.19049e-05 -5.58437e-07
8.83035e-07 -5.58437e-07 -3.30179e-05
0.000736384 4.00063e-05 -1.28872e-07
4.00063e-05 0.000153614 -2.12987e-06
-1.28872e-07 -2.12987e-06 1.81859e-05
0.000378443 4.66696e-06 -2.00602e-06
4.66696e-06 -7.35049e-05 -4.5013e-07
-2.00602e-06 -4.5013e-07 -0.000199376
0.000749535 7.32049e-05 -3.83756e-06
7.32049e-05 0.000140478 9.18399e-07
-3.83756e-06 9.18399e-07 1.55479e-05
0.000383869 5.08483e-05 -2.86002e-06
5.08483e-05 -0.000103019 -1.51668e-07
-2.86002e-06 -1.51668e-07 -0.000180016
0.000410995 -6.57544e-06 2.01034e-07
-6.57544e-06 -4.98357e-05 8.19058e-07
2.01034e-07 8.19058e-07 -0.000158547
0.000902525 5.85587e-05 7.61423e-07
5.85587e-05 0.000243681 7.23619e-07
7.61423e-07 7.23619e-07 0.000110799
0.000764996 3.57314e-05 6.40831e-07
3.57314e-05 0.000159675 5.70424e-07
6.40831e-07 5.70424e-07 2.52085e-05
0.000685135 1.90651e-05 8.32414e-07
1.90651e-05 0.000126631 -2.62727e-07
8.32414e-07 -2.62727e-07 -1.24789e-05
0.000464076 6.95827e-05 -3.37494e-07
6.95827e-05 -7.05211e-06 -1.26533e-06
-3.37494e-07 -1.26533e-06 -0.000128188
0.00111138 7.93374e-05 -1.13266e-06
7.93374e-05 0.000375876 -2.7797e-06
-1.13266e-06 -2.7797e-06 0.000248352
3.36677e-05 4.4392e-05 -3.27057e-06
4.4392e-05 -0.000209694 -5.11729e-06
-3.27057e-06 -5.11729e-06 -0.000336114
0.00076534 -8.81883e-05 -2.38711e-07
-8.81883e-05 0.00016169 -3.86785e-07
-2.38711e-07 -3.86785e-07 2.58193e-05
0.000751632 -5.97742e-05 -2.86975e-07
-5.97742e-05 0.000175039 -2.14225e-07
-2.86975e-07 -2.14225e-07 3.3188e-05
0.00077169 -2.84559e-05 -2.37897e-07
-2.84559e-05 0.000186976 -3.40377e-07
-2.37897e-07 -3.40377e-07 4.58286e-05
0.000838221 -5.01148e-06 -1.82389e-06
-5.01148e-06 0.000210287 -2.23972e-07
-1.82389e-06 -2.23972e-07 8.72648e-05
0.000729511 3.69631e-05 -3.38915e-06
3.69631e-05 0.000168285 -2.11829e-06
-3.38915e-06 -2.11829e-06 1.48426e-05
0.000738437 -3.7008e-06 1.63217e-06
-3.7008e-06 0.00015188 -2.32721e-06
1.63217e-06 -2.32721e-06 3.10338e-05
4.27425e-05 -2.47836e-05 -2.67028e-07
-2.47836e-05 -0.000264173 -2.67799e-06
-2.67028e-07 -2.67799e-06 -0.000372262
0.000570197 -1.49672e-05 6.84496e-07
-1.49672e-05 3.21261e-05 -1.87829e-07
6.84496e-07 -1.87829e-07 -8.21006e-05
0.00064346 -6.23004e-05 4.66344e-07
-6.23004e-05 8.37167e-05 9.35573e-07
4.66344e-07 9.35573e-07 -2.50747e-05
0.0007104 -6.01589e-05 -3.26522e-07
-6.01589e-05 0.000143554 -3.32044e-08
-3.26522e-07 -3.32044e-08 1.94011e-05
0.000640794 -6.32686e-05 -2.08634e-06
-6.32686e-05 7.27884e-05 1.56074e-06
-2.08634e-06 1.56074e-06 -1.83146e-05
0.000607143 -4.56357e-05 1.43533e-06
-4.56357e-05 6.3859e-05 -6.92283e-07
1.43533e-06 -6.92283e-07 -5.34512e-05
0.000565988 -8.77546e-05 1.31248e-07
-8.77546e-05 3.90502e-05 2.35672e-07
1.31248e-07 2.35672e-07 -6.40321e-05
0.000604506 -2.94552e-05 -2.15346e-06
-2.94552e-05 3.62459e-05 3.03496e-06
-2.15346e-06 3.03496e-06 -2.45654e-05
0.000463568 -4.79742e-06 1.21893e-06
-4.79742e-06 -1.13706e-05 -8.79069e-07
1.21893e-06 -8.79069e-07 -0.000125446
0.000557426 1.49272e-06 1.50789e-06
1.49272e-06 1.66804e-05 7.6947e-09
1.50789e-06 7.6947e-09 -4.67162e-05
0.00140404 3.41907e-06 -3.84133e-06
3.41907e-06 0.000497381 5.76942e-06
-3.84133e-06 5.76942e-06 0.000483018
0.000551646 4.34274e-05 -8.97082e-07
4.34274e-05 1.40904e-05 -2.58594e-06
-8.97082e-07 -2.58594e-06 -4.89546e-05
0.000933799 -6.10636e-07 -2.16987e-06
-6.10636e-07 0.00021595 7.94909e-07
-2.16987e-06 7.94909e-07 0.000199531
0.000818454 2.82962e-06 -4.22124e-06
2.82962e-06 0.000140392 5.05631e-06
-4.22124e-06 5.05631e-06 0.000146694
0.000512591 -6.429e-07 8.49077e-07
-6.429e-07 -3.85008e-05 -4.03198e-06
8.49077e-07 -4.03198e-06 -5.6965e-05
0.00244054 3.20558e-07 4.9529e-06
3.20558e-07 0.00112117 -8.43414e-09
4.9529e-06 -8.43414e-09 0.00113564
0.000856777 -2.2389e-06 -4.52773e-06
-2.2389e-06 0.000162202 -5.19979e-06
-4.52773e-06 -5.19979e-06 0.00016857
0.000560167 6.34043e-05 2.17599e-06
6.34043e-05 4.37276e-05 4.37712e-07
2.17599e-06 4.37712e-07 -4.29134e-05
0.000545608 3.43737e-05 -1.65486e-06
3.43737e-05 -2.41807e-06 -1.67527e-06
-1.65486e-06 -1.67527e-06 -4.30447e-05
0.000559889 -6.13214e-06 1.12312e-06
-6.13214e-06 3.37475e-06 1.87766e-08
1.12312e-06 1.87766e-08 -3.74589e-05
0.000563466 8.33236e-06 5.14087e-07
8.33236e-06 -2.1993e-05 -2.96126e-06
5.14087e-07 -2.96126e-06 -2.9289e-05
0.000594473 -4.04285e-05 -1.67291e-06
-4.04285e-05 2.1523e-05 1.30173e-06
-1.67291e-06 1.30173e-06 -2.14871e-05
0.000533251 1.4018e-05 2.8558e-08
1.4018e-05 -4.06542e-05 -7.55175e-07
2.8558e-08 -7.55175e-07 -4.82945e-05
0.00200471 2.95062e-05 6.71897e-06
2.95062e-05 0.000858508 -4.43506e-06
6.71897e-06 -4.43506e-06 0.00087616
0.0011259 3.29713e-05 -5.84619e-07
3.29713e-05 0.000322385 1.76241e-06
-5.84619e-07 1.76241e-06 0.00031582
0.00147014 3.76736e-05 1.50202e-08
3.76736e-05 0.000537967 1.38369e-06
1.50202e-08 1.38369e-06 0.000549855
0.000882664 4.09966e-05 -1.22623e-05
4.09966e-05 0.000186705 7.16705e-06
-1.22623e-05 7.16705e-06 0.00019265
0.001479 0.000201693 8.12841e-05
0.000201693 -0.00102353 1.5966e-05
8.12841e-05 1.5966e-05 -0.000818762
0.00200654 -2.83732e-05 1.51127e-06
-2.83732e-05 -4.15454e-05 2.14202e-06
1.51127e-06 2.14202e-06 -1.43084e-05
0.00192296 7.00188e-05 3.66483e-05
7.00188e-05 0.000121619 -1.35533e-05
3.66483e-05 -1.35533e-05 0.000196977
0.0017525 0.000179549 -2.61977e-05
0.000179549 -0.00134846 -1.77219e-05
-2.61977e-05 -1.77219e-05 -0.000738212
0.0019391 7.47726e-05 2.32468e-05
7.47726e-05 -0.000450496 -5.50962e-07
2.32468e-05 -5.50962e-07 -0.000242699
0.00239717 -2.47456e-05 1.57824e-06
-2.47456e-05 0.000374612 -4.52895e-06
1.57824e-06 -4.52895e-06 0.000367567
0.00373845 -0.00013104 -5.81109e-05
-0.00013104 0.000902286 -2.19192e-06
-5.81109e-05 -2.19192e-06 0.000873258
0.00304306 -8.46857e-05 6.18404e-05
-8.46857e-05 0.000290746 1.04766e-05
6.18404e-05 1.04766e-05 0.000317772
0.0110643 -0.0005781 1.42002e-05
-0.0005781 0.0023829 4.23116e-05
1.42002e-05 4.23116e-05 0.000788099
0.011637 0.00263727 0.000615941
0.00263727 0.00501088 -0.00026372
0.000615941 -0.00026372 0.00440665
0.00757713 0.00293814 -3.24767e-05
0.00293814 0.00569853 1.75688e-05
-3.24767e-05 1.75688e-05 0.0053212
0.000398843 -9.37853e-05 1.50481e-06
-9.37853e-05 -4.61608e-05 -3.81623e-08
1.50481e-06 -3.81623e-08 -0.000144846
0.000617695 -1.16396e-05 1.33859e-06
-1.16396e-05 7.47054e-05 -1.64358e-07
1.33859e-06 -1.64358e-07 -6.83454e-06
0.000678466 -8.29649e-05 -1.56612e-06
-8.29649e-05 0.000118794 9.61009e-07
-1.56612e-06 9.61009e-07 3.02631e-05
0.000606377 -4.6054e-05 -8.8301e-08
-4.6054e-05 7.1517e-05 3.26751e-07
-8.8301e-08 3.26751e-07 -2.70157e-05
0.000604053 5.87946e-05 -1.88076e-06
5.87946e-05 9.33005e-05 2.25559e-06
-1.88076e-06 2.25559e-06 -2.27534e-05
0.000538607 0.000117976 1.6195e-06
0.000117976 2.49076e-05 4.98759e-06
1.6195e-06 4.98759e-06 -8.61376e-05
0.000892796 -1.52741e-05 3.15359e-06
-1.52741e-05 0.000263008 1.15966e-06
3.15359e-06 1.15966e-06 0.000147987
0.000539475 -2.70624e-05 -1.26286e-06
-2.70624e-05 3.77187e-05 1.06665e-06
-1.26286e-06 1.06665e-06 -6.32409e-05
0.00230743 -0.000212382 6.21831e-06
-0.000212382 0.000100429 1.74115e-06
6.21831e-06 1.74115e-06 0.000156586
0.00182024 -0.000339786 1.11885e-05
-0.000339786 -0.000251541 -3.23285e-06
1.11885e-05 -3.23285e-06 -0.000160963
0.00164221 -0.000530543 7.67289e-06
-0.000530543 -0.000110336 2.18016e-06
7.67289e-06 2.18016e-06 -0.000237979
0.0015028 -0.000504275 1.92738e-05
-0.000504275 0.000397158 -2.60825e-07
1.92738e-05 -2.60825e-07 6.02849e-05
0.00180801 -0.000636945 6.34508e-06
-0.000636945 0.00026259 4.02334e-06
6.34508e-06 4.02334e-06 1.64364e-05
0.00278708 -0.00065468 1.25604e-05
-0.00065468 0.00140618 -1.4847e-06
1.25604e-05 -1.4847e-06 0.000902501
0.00262639 -0.000359859 2.71286e-06
-0.000359859 0.00124133 -3.50949e-06
2.71286e-06 -3.50949e-06 0.000933645
0.000717797 -0.000137392 6.73872e-06
-0.000137392 0.000129713 -8.15003e-06
6.73872e-06 -8.15003e-06 -4.45596e-05
0.00061948 -3.42877e-05 1.36261e-07
-3.42877e-05 6.32569e-05 2.60184e-06
1.36261e-07 2.60184e-06 -3.50832e-05
0.000805555 -6.08312e-05 3.73869e-06
-6.08312e-05 0.000179007 -1.13866e-05
3.73869e-06 -1.13866e-05 5.0697e-05
0.000915614 -2.44567e-05 2.03501e-06
-2.44567e-05 0.000268912 -3.6473e-07
2.03501e-06 -3.6473e-07 0.000156956
0.000677957 7.57427e-05 2.0211e-06
7.57427e-05 0.000115911 1.45657e-06
2.0211e-06 1.45657e-06 3.84652e-05
0.00206684 -0.000267762 -1.01828e-06
-0.000267762 -5.98232e-05 2.40539e-06
-1.01828e-06 2.40539e-06 7.52811e-05
0.000615287 2.28417e-06 -1.71642e-06
2.28417e-06 0.000103602 -2.87564e-07
-1.71642e-06 -2.87564e-07 -1.89463e-05
0.000890224 -0.000108813 -3.48383e-06
-0.000108813 0.000243135 2.91629e-06
-3.48383e-06 2.91629e-06 0.000117515
0.00169207 -0.000438472 2.87673e-06
-0.000438472 -0.000201436 -1.85624e-06
2.87673e-06 -1.85624e-06 -0.000167278
0.00161948 -0.000621328 4.05794e-07
-0.000621328 -1.81169e-05 -3.34774e-07
4.05794e-07 -3.34774e-07 -0.000210256
0.000961694 -0.000500319 -9.96688e-07
-0.000500319 -2.06719e-05 -1.98872e-06
-9.96688e-07 -1.98872e-06 -0.000259992
0.00122604 -0.000194903 2.77143e-07
-0.000194903 0.000539298 -7.79343e-06
2.77143e-07 -7.79343e-06 0.000302202
0.00122448 -0.0003642 -2.27057e-06
-0.0003642 0.00074495 1.91147e-06
-2.27057e-06 1.91147e-06 0.000216131
0.00305197 -0.000409975 -3.71743e-05
-0.000409975 0.000410659 5.87302e-06
-3.71743e-05 5.87302e-06 0.000479611
0.00304067 -0.000646864 -4.08954e-05
-0.000646864 0.000694247 8.42928e-06
-4.08954e-05 8.42928e-06 0.000636941
0.00203493 -0.000713856 -1.26825e-05
-0.000713856 0.0002896 -2.24901e-07
-1.26825e-05 -2.24901e-07 9.24498e-05
0.000291872 -0.000353447 -1.67302e-05
-0.000353447 -0.000207297 1.49141e-05
-1.67302e-05 1.49141e-05 -0.000414318
0.000654833 -0.000142331 1.76559e-06
-0.000142331 0.000133071 3.51015e-06
1.76559e-06 3.51015e-06 -2.05856e-05
0.000448982 -0.000123556 3.11804e-06
-0.000123556 5.43039e-05 1.65841e-06
3.11804e-06 1.65841e-06 -0.000123137
0.00125883 -0.000139772 -1.86254e-06
-0.000139772 0.000757124 -5.13375e-06
-1.86254e-06 -5.13375e-06 0.000326617
-0.0056729 -0.000155566 0.00031753
-0.000155566 -0.00421008 2.26428e-06
0.00031753 2.26428e-06 -0.00294879
0.0104778 -0.000176201 2.40671e-05
-0.000176201 0.00245914 1.58614e-06
2.40671e-05 1.58614e-06 0.00195624
0.00155568 0.000188608 6.80388e-06
0.000188608 0.000644368 -4.81489e-06
6.80388e-06 -4.81489e-06 0.00047744
0.00111957 0.000320655 1.01534e-06
0.000320655 0.000242242 -8.36364e-08
1.01534e-06 -8.36364e-08 1.09215e-05
0.0014643 0.000361197 5.16744e-05
0.000361197 -0.000168016 2.63802e-05
5.16744e-05 2.63802e-05 -0.000162486
0.00254515 0.000662656 1.81093e-05
0.000662656 0.000544836 6.66514e-06
1.81093e-05 6.66514e-06 0.000327637
0.0024819 0.000563224 1.32213e-05
0.000563224 0.000883181 2.17997e-06
1.32213e-05 2.17997e-06 0.000555204
0.0121449 0.000690412 6.18348e-05
0.000690412 0.00298963 2.99651e-05
6.18348e-05 2.99651e-05 0.00188167
0.00782266 0.0012626 -0.000179455
0.0012626 0.000688781 -1.93042e-06
-0.000179455 -1.93042e-06 0.000490675
0.00146836 0.000614234 2.02476e-06
0.000614234 0.000137626 -2.18984e-05
2.02476e-06 -2.18984e-05 -0.000289549
0.0114053 -0.00205307 -0.000183793
-0.00205307 0.00506668 2.86784e-06
-0.000183793 2.86784e-06 0.00399127
-0.00572634 -0.0039256 -0.00105315
-0.0039256 -0.00209715 -0.000790352
-0.00105315 -0.000790352 -0.00147157
0.000993076 0.000228176 -3.98215e-07
0.000228176 0.000314616 -7.37535e-07
-3.98215e-07 -7.37535e-07 0.000141777
-0.00248151 -0.00113315 0.000205486
-0.00113315 -0.00250723 3.38115e-05
0.000205486 3.38115e-05 -0.00305121
-0.00332263 -0.000795482 -0.000232988
-0.000795482 0.00237129 -0.000116216
-0.000232988 -0.000116216 -0.000788157
0.00297552 0.000638805 -1.40013e-05
0.000638805 0.000658598 -1.10724e-06
-1.40013e-05 -1.10724e-06 0.000651595
0.000961489 0.000277857 -4.73614e-06
0.000277857 0.000167508 2.02476e-06
-4.73614e-06 2.02476e-06 -6.635e-05
0.00132635 0.000552732 6.09932e-06
0.000552732 0.000256714 2.28017e-06
6.09932e-06 2.28017e-06 -5.62426e-05
0.0012395 0.00059926 2.48685e-05
0.00059926 2.92205e-05 1.92198e-05
2.48685e-05 1.92198e-05 -4.16168e-05
0.0107975 0.000982485 -8.47016e-05
0.000982485 0.00147991 -4.19433e-05
-8.47016e-05 -4.19433e-05 -0.000459329
0.00571184 0.00179102 -6.95359e-05
0.00179102 0.00110321 -3.69159e-05
-6.95359e-05 -3.69159e-05 0.000470395
0.0129425 -0.00253421 0.00020927
-0.00253421 0.00552312 -4.11144e-05
0.00020927 -4.11144e-05 0.00480049
0.00772597 -0.00217581 0.000181021
-0.00217581 -0.000392687 0.000423731
0.000181021 0.000423731 -6.79856e-05
0.00183404 0.000237432 -1.7638e-05
0.000237432 0.000811197 -1.01893e-05
-1.7638e-05 -1.01893e-05 0.000659389
-0.00792088 0.000566217 -9.65453e-05
0.000566217 0.0015432 -7.74154e-05
-9.65453e-05 -7.74154e-05 -0.00227412
0.00375239 0.000466846 -0.000227975
0.000466846 0.00236063 -0.0002895
-0.000227975 -0.0002895 -0.00120825
0.00190846 0.000543375 -2.12213e-05
0.000543375 0.000338136 7.69735e-06
-2.12213e-05 7.69735e-06 0.000341037
0.00186632 0.000499178 -5.85215e-05
0.000499178 0.000745383 -2.05086e-05
-5.85215e-05 -2.05086e-05 0.000487343
0.00221262 0.000501979 -6.10516e-05
0.000501979 0.00132105 -6.5799e-06
-6.10516e-05 -6.5799e-06 0.000835192
0.000740995 0.00113796 -5.46476e-05
0.00113796 -0.000190745 -2.03685e-05
-5.46476e-05 -2.03685e-05 -0.000398412
-0.000148635 0.00122791 0.000203318
0.00122791 -0.000971096 0.000128412
0.000203318 0.000128412 -0.00393273
0.0119964 -0.00301092 0.000161226
-0.00301092 0.00470129 0.000385568
0.000161226 0.000385568 0.00348925
0.00606116 -0.00110407 -7.13802e-05
-0.00110407 -0.00206013 -7.67927e-05
-7.13802e-05 -7.67927e-05 -0.000861889
0.00029608 0.000113634 2.48488e-06
0.000113634 -7.15723e-05 -1.52292e-06
2.48488e-06 -1.52292e-06 -0.000188809
0.00123873 0.00017728 7.29993e-06
0.00017728 0.000473167 3.51478e-06
7.29993e-06 3.51478e-06 0.00034711
-0.000147148 6.61058e-05 4.08381e-06
6.61058e-05 -0.000268518 -8.99776e-06
4.08381e-06 -8.99776e-06 -0.000405842
0.000421981 4.81777e-05 1.56297e-06
4.81777e-05 -4.34295e-05 -6.3933e-07
1.56297e-06 -6.3933e-07 -0.000151953
0.000753049 5.36524e-05 -2.29754e-07
5.36524e-05 0.000173929 -1.17888e-06
-2.29754e-07 -1.17888e-06 3.08433e-05
0.000770655 -9.52185e-06 -6.79774e-07
-9.52185e-06 0.000163562 1.55447e-06
-6.79774e-07 1.55447e-06 2.82396e-05
0.000702397 1.68531e-05 3.55225e-06
1.68531e-05 0.000133787 -2.16478e-07
3.55225e-06 -2.16478e-07 -2.02726e-06
0.000433126 5.89576e-05 -9.80442e-07
5.89576e-05 -2.00553e-05 2.15021e-06
-9.80442e-07 2.15021e-06 -0.000138726
0.000753393 4.76346e-05 5.71227e-08
4.76346e-05 0.000176769 -8.52049e-07
5.71227e-08 -8.52049e-07 3.459e-05
0.000842954 5.61906e-05 2.30117e-07
5.61906e-05 0.000211287 1.08729e-07
2.30117e-07 1.08729e-07 8.59402e-05
0.000777544 -4.6702e-05 -7.76299e-07
-4.6702e-05 0.000170188 8.94939e-07
-7.76299e-07 8.94939e-07 3.31429e-05
-0.000174046 3.09559e-05 7.693e-07
3.09559e-05 -0.000310786 5.46586e-07
7.693e-07 5.46586e-07 -0.000444473
-0.000876718 1.35302e-05 -5.91902e-07
1.35302e-05 -0.000522162 -6.63713e-07
-5.91902e-07 -6.63713e-07 -0.000753739
0.000953095 -3.29255e-06 -4.32188e-06
-3.29255e-06 0.000293312 -5.93247e-06
-4.32188e-06 -5.93247e-06 0.000164474
0.000903478 3.23339e-06 2.86452e-07
3.23339e-06 0.000269611 -1.00281e-07
2.86452e-07 -1.00281e-07 0.000109911
0.000769538 -5.71145e-05 -6.73853e-07
-5.71145e-05 0.000191249 -1.07318e-06
-6.73853e-07 -1.07318e-06 4.59757e-05
0.000849116 -5.37982e-05 3.8565e-07
-5.37982e-05 0.000209733 1.7185e-06
3.8565e-07 1.7185e-06 9.1466e-05
0.000775992 -4.57354e-05 7.01269e-07
-4.57354e-05 0.000184659 -7.27408e-07
7.01269e-07 -7.27408e-07 3.82418e-05
0.000758838 -1.63879e-05 -4.10362e-07
-1.63879e-05 0.000157238 6.37005e-08
-4.10362e-07 6.37005e-08 3.82215e-05
0.000311315 -5.48072e-05 5.38692e-07
-5.48072e-05 -9.27147e-05 1.6678e-06
5.38692e-07 1.6678e-06 -0.00020041
0.000576873 -6.65549e-06 6.53308e-07
-6.65549e-06 4.73735e-05 1.23106e-06
6.53308e-07 1.23106e-06 -6.68778e-05
0.0003121 1.89554e-06 -3.64544e-06
1.89554e-06 -7.91104e-05 -3.66395e-06
-3.64544e-06 -3.66395e-06 -0.000211963
5.92511e-05 -4.55808e-05 2.47188e-06
-4.55808e-05 -0.000241067 -1.21186e-06
2.47188e-06 -1.21186e-06 -0.000345322
0.0007719 -5.32451e-05 3.54509e-06
-5.32451e-05 0.000111554 -7.72531e-06
3.54509e-06 -7.72531e-06 1.47782e-05
-0.000125617 -4.20001e-05 -3.48413e-07
-4.20001e-05 -0.000412809 1.8423e-06
-3.48413e-07 1.8423e-06 -0.00056215
0.000290867 -9.33798e-06 -1.80374e-06
-9.33798e-06 -0.000124434 -1.00266e-06
-1.80374e-06 -1.00266e-06 -0.000242761
0.000741114 -2.52458e-05 1.84484e-07
-2.52458e-05 0.000131315 1.21084e-07
1.84484e-07 1.21084e-07 1.48774e-05
0.000619832 -2.5513e-05 1.52136e-07
-2.5513e-05 6.55158e-05 9.71864e-07
1.52136e-07 9.71864e-07 -4.17925e-05
0.000713704 -4.55228e-05 -1.08389e-07
-4.55228e-05 0.000140545 -1.0836e-08
-1.08389e-07 -1.0836e-08 2.15251e-05
0.000540574 -5.39772e-06 -3.10071e-07
-5.39772e-06 1.88694e-05 1.4569e-06
-3.10071e-07 1.4569e-06 -7.46214e-05
0.000768353 -4.09936e-05 -2.84789e-07
-4.09936e-05 0.000175122 -3.91379e-07
-2.84789e-07 -3.91379e-07 5.30752e-05
0.000649795 -5.55336e-05 -6.06912e-07
-5.55336e-05 8.8123e-05 1.15649e-07
-6.06912e-07 1.15649e-07 -9.35004e-06
0.000526142 3.95416e-05 -6.5507e-07
3.95416e-05 -1.19731e-05 2.88113e-06
-6.5507e-07 2.88113e-06 -7.42947e-05
0.000477808 -7.6619e-05 1.85185e-06
-7.6619e-05 -1.96669e-05 -1.35352e-06
1.85185e-06 -1.35352e-06 -0.000120249
0.000572967 -1.2665e-05 -4.32967e-07
-1.2665e-05 1.61384e-05 2.60429e-08
-4.32967e-07 2.60429e-08 -4.36423e-05
0.00140047 1.53295e-05 -5.34601e-06
1.53295e-05 0.000492783 6.02385e-06
-5.34601e-06 6.02385e-06 0.000477665
0.000564916 -3.60451e-05 1.24782e-06
-3.60451e-05 1.8267e-05 -2.56774e-06
1.24782e-06 -2.56774e-06 -4.33298e-05
0.000928681 2.3486e-06 -3.06822e-06
2.3486e-06 0.00020971 7.1776e-07
-3.06822e-06 7.1776e-07 0.000193408
0.000759467 1.44328e-05 2.58544e-07
1.44328e-05 0.000100749 2.08841e-06
2.58544e-07 2.08841e-06 0.000107156
0.000507397 -6.96346e-06 1.12271e-06
-6.96346e-06 -4.31419e-05 -4.03467e-06
1.12271e-06 -4.03467e-06 -6.13304e-05
0.00244511 1.39633e-05 4.97964e-06
1.39633e-05 0.00112399 6.4395e-08
4.97964e-06 6.4395e-08 0.00113833
0.00243205 1.95187e-06 -5.57295e-07
1.95187e-06 0.00111605 -5.25906e-06
-5.57295e-07 -5.25906e-06 0.00113052
0.0009908 7.30011e-05 -8.43235e-07
7.30011e-05 0.000299003 -2.337e-07
-8.43235e-07 -2.337e-07 0.000213007
0.000568646 4.37358e-05 -1.3967e-06
4.37358e-05 1.53296e-05 -1.98005e-06
-1.3967e-06 -1.98005e-06 -2.86477e-05
0.000611293 -1.12301e-05 5.13754e-07
-1.12301e-05 7.47142e-05 8.63987e-07
5.13754e-07 8.63987e-07 -1.16155e-05
0.000563754 3.88028e-06 5.02397e-07
3.88028e-06 -2.19842e-05 -3.2024e-06
5.02397e-07 -3.2024e-06 -2.91819e-05
0.000558158 -1.56973e-05 1.89774e-07
-1.56973e-05 5.74622e-06 -2.72971e-08
1.89774e-07 -2.72971e-08 -3.52952e-05
0.000589637 -4.07403e-05 -1.42887e-06
-4.07403e-05 2.27064e-05 1.11188e-06
-1.42887e-06 1.11188e-06 -1.9305e-05
0.00054745 7.75116e-06 -2.85041e-07
7.75116e-06 -3.17704e-05 -2.09675e-08
-2.85041e-07 -2.09675e-08 -3.89901e-05
0.00199073 1.63313e-05 2.09104e-06
1.63313e-05 0.000847615 -4.58147e-06
2.09104e-06 -4.58147e-06 0.000866211
0.00111674 2.14888e-05 -6.92755e-07
2.14888e-05 0.000313992 1.73912e-06
-6.92755e-07 1.73912e-06 0.000309505
0.00136899 2.48866e-05 3.14355e-07
2.48866e-05 0.000471715 -1.14481e-08
3.14355e-07 -1.14481e-08 0.000486058
0.000847769 2.9643e-05 -1.18492e-05
2.9643e-05 0.000159912 6.95972e-06
-1.18492e-05 6.95972e-06 0.000168949
-0.00911361 0.000613825 0.00027053
0.000613825 -0.00383397 -7.48814e-07
0.00027053 -7.48814e-07 -0.00521148
-0.00228232 -6.62346e-05 0.000412583
-6.62346e-05 0.00314933 -6.42045e-05
0.000412583 -6.42045e-05 0.000846158
0.00439393 0.000253099 -0.000227001
0.000253099 -0.000186832 -1.82993e-05
-0.000227001 -1.82993e-05 0.000562191
0.000530571 4.45439e-05 2.63649e-05
4.45439e-05 -0.00113943 -2.13624e-05
2.63649e-05 -2.13624e-05 -0.000994505
0.00147463 -3.60292e-05 1.69229e-05
-3.60292e-05 -0.000241857 3.75284e-06
1.69229e-05 3.75284e-06 -0.000246989
-0.000385844 4.82053e-05 -3.50633e-05
4.82053e-05 -0.000942751 -1.13617e-05
-3.50633e-05 -1.13617e-05 -0.000688018
0.00292024 -0.000171899 -2.85739e-06
-0.000171899 0.000322123 4.90506e-06
-2.85739e-06 4.90506e-06 0.00030102
0.0100046 7.61188e-05 8.5277e-05
7.61188e-05 0.000895152 -3.70864e-05
8.5277e-05 -3.70864e-05 -0.000162196
-0.00257349 0.00164037 -1.26391e-05
0.00164037 -0.000442094 -2.62805e-05
-1.26391e-05 -2.62805e-05 -0.002279
0.00121414 0.00325297 -0.00021626
0.00325297 0.00202029 0.000115725
-0.00021626 0.000115725 0.00224677
0.00195783 -0.000346679 6.83782e-05
-0.000346679 -0.000964349 -1.37887e-05
6.83782e-05 -1.37887e-05 -0.000755459
0.0136183 -0.000806572 0.000136324
-0.000806572 0.00303478 -3.73021e-05
0.000136324 -3.73021e-05 0.00142945
0.0060504 0.00314045 0.000208135
0.00314045 0.00106171 -0.000354786
0.000208135 -0.000354786 0.000930147
0.00967405 0.0022058 -0.000269455
0.0022058 0.00188176 0.000174831
-0.000269455 0.000174831 0.00131013
0.000792351 0.000109207 -2.37703e-06
0.000109207 0.000213414 2.31875e-06
-2.37703e-06 2.31875e-06 7.59006e-05
0.000454548 2.1283e-05 -7.677e-08
2.1283e-05 -1.92772e-05 -8.28863e-07
-7.677e-08 -8.28863e-07 -0.000112938
0.000642019 -9.14094e-05 -7.03132e-07
-9.14094e-05 9.52566e-05 6.44382e-07
-7.03132e-07 6.44382e-07 9.01501e-06
0.000550725 -8.2948e-06 1.76775e-06
-8.2948e-06 4.625e-05 -9.53182e-07
1.76775e-06 -9.53182e-07 -5.68685e-05
0.000607843 5.73438e-05 1.14319e-06
5.73438e-05 0.000100869 1.39613e-06
1.14319e-06 1.39613e-06 -1.6377e-05
0.000706816 4.50428e-05 4.8784e-07
4.50428e-05 0.000161093 4.40458e-06
4.8784e-07 4.40458e-06 2.30354e-05
0.000753374 9.22641e-05 1.36925e-06
9.22641e-05 0.000169386 2.09335e-06
1.36925e-06 2.09335e-06 4.86055e-05
0.000570004 2.97975e-05 3.99641e-06
2.97975e-05 4.40369e-05 8.65677e-07
3.99641e-06 8.65677e-07 -7.6559e-05
0.000713748 -2.90974e-05 1.73283e-06
-2.90974e-05 0.000155335 -9.59156e-07
1.73283e-06 -9.59156e-07 3.84288e-05
0.000513127 -8.57741e-06 -4.69265e-09
-8.57741e-06 9.87297e-06 -1.01096e-06
-4.69265e-09 -1.01096e-06 -8.51252e-05
0.00174747 -0.000249539 2.25597e-05
-0.000249539 -0.000158809 -4.19907e-07
2.25597e-05 -4.19907e-07 -4.87233e-05
0.00117911 -0.000411885 3.06421e-05
-0.000411885 -0.00047298 -5.64693e-06
3.06421e-05 -5.64693e-06 -0.000433591
0.000342319 -0.000497895 1.62665e-05
-0.000497895 -0.000705554 2.51886e-06
1.62665e-05 2.51886e-06 -0.000847547
-6.56369e-05 -0.000407407 8.51833e-06
-0.000407407 -0.000571613 3.10926e-08
8.51833e-06 3.10926e-08 -0.000805431
0.00285165 -0.000427931 6.29167e-06
-0.000427931 0.00160196 1.08553e-05
6.29167e-06 1.08553e-05 0.00113905
0.000765822 -0.000247296 6.39245e-06
-0.000247296 0.00026956 -3.64389e-06
6.39245e-06 -3.64389e-06 -4.57549e-06
0.00118771 -0.000130184 4.50081e-07
-0.000130184 0.000405618 -1.0982e-06
4.50081e-07 -1.0982e-06 0.000292486
0.000751459 -6.8227e-06 -2.05194e-06
-6.8227e-06 0.000184246 1.6383e-06
-2.05194e-06 1.6383e-06 6.32002e-05
0.00223517 -0.00035065 8.02299e-06
-0.00035065 4.59272e-05 -4.71038e-06
8.02299e-06 -4.71038e-06 0.000132735
0.000611262 -6.60736e-05 -1.62479e-07
-6.60736e-05 0.000110744 -1.60851e-07
-1.62479e-07 -1.60851e-07 -4.87549e-05
0.000167267 -0.000108148 1.06118e-06
-0.000108148 -0.000106045 -2.30656e-06
1.06118e-06 -2.30656e-06 -0.000284898
0.00200203 -0.000573889 8.44328e-06
-0.000573889 0.000141807 -1.60118e-06
8.44328e-06 -1.60118e-06 9.94041e-05
0.00161378 -0.000687985 4.7523e-07
-0.000687985 1.64958e-05 3.16759e-06
4.7523e-07 3.16759e-06 -0.00014599
0.000251969 -0.000391313 9.71782e-06
-0.000391313 -0.000224121 -6.05602e-06
9.71782e-06 -6.05602e-06 -0.000457614
0.00142742 -0.000204099 -1.11034e-06
-0.000204099 0.000831618 -6.73174e-06
-1.11034e-06 -6.73174e-06 0.000419904
0.00237128 -0.00055292 -4.32867e-05
-0.00055292 0.000533495 9.18973e-06
-4.32867e-05 9.18973e-06 0.00023367
0.00168533 -0.000550646 -4.48746e-05
-0.000550646 0.000225039 8.32358e-06
-4.48746e-05 8.32358e-06 0.000139656
0.00077515 -0.000335458 -4.4652e-05
-0.000335458 0.000274311 3.47199e-05
-4.4652e-05 3.47199e-05 -1.92278e-05
-0.0010859 -6.66863e-05 -1.25779e-07
-6.66863e-05 -0.000882675 4.26325e-06
-1.25779e-07 4.26325e-06 -0.00104509
7.54411e-05 -0.000109572 3.4258e-06
-0.000109572 -0.000164467 4.10918e-06
3.4258e-06 4.10918e-06 -0.000353395
0.000812925 -8.54467e-05 4.70837e-06
-8.54467e-05 0.000358994 2.64828e-06
4.70837e-06 2.64828e-06 7.74453e-05
-0.000603348 0.000501841 -0.000211848
0.000501841 0.00489007 8.12111e-06
-0.000211848 8.12111e-06 0.00228227
0.00143484 -0.000659504 1.17307e-05
-0.000659504 0.00150622 2.60263e-05
1.17307e-05 2.60263e-05 0.0014727
0.00139701 0.000879107 -6.94278e-05
0.000879107 -0.00364511 -7.94844e-06
-6.94278e-05 -7.94844e-06 -0.00397461
0.000410547 0.000175953 5.74094e-06
0.000175953 -1.83634e-05 1.79043e-06
5.74094e-06 1.79043e-06 -0.00018363
0.0012288 0.000361105 8.45892e-06
0.000361105 0.000347183 1.32439e-05
8.45892e-06 1.32439e-05 8.631e-05
0.00321721 0.0005674 3.84187e-05
0.0005674 0.000810655 1.43851e-05
3.84187e-05 1.43851e-05 0.000799696
0.00190516 0.000609821 1.88207e-05
0.000609821 0.000573324 1.58642e-05
1.88207e-05 1.58642e-05 0.000247354
0.00852404 -0.00129303 9.51513e-05
-0.00129303 0.00293053 4.48677e-05
9.51513e-05 4.48677e-05 0.00309898
0.00366694 0.000338335 -0.0002079
0.000338335 -0.00234289 -7.70935e-06
-0.0002079 -7.70935e-06 -0.00423719
0.00340083 0.00164461 -4.44569e-05
0.00164461 -0.000268589 -5.43621e-06
-4.44569e-05 -5.43621e-06 -0.000725464
0.00134473 0.000449317 3.05748e-05
0.000449317 0.000319534 -2.73093e-05
3.05748e-05 -2.73093e-05 0.000302912
-0.00271776 -0.00157182 -0.000189347
-0.00157182 -0.000283576 -0.000197652
-0.000189347 -0.000197652 -0.00132059
-0.000829236 -0.00132485 -0.0002022
-0.00132485 0.00242979 -6.08465e-05
-0.0002022 -6.08465e-05 -0.000760001
0.0128106 -0.00274951 0.000325383
-0.00274951 0.00228856 0.000218023
0.000325383 0.000218023 0.0027556
0.000650055 0.000164839 9.17666e-06
0.000164839 0.00013876 -2.76561e-06
9.17666e-06 -2.76561e-06 -1.70264e-05
-0.00286998 0.000211952 -0.000116361
0.000211952 0.00302111 -2.80301e-05
-0.000116361 -2.80301e-05 -0.000166024
0.00406598 0.000532651 -2.91902e-05
0.000532651 0.00222222 -0.000106859
-2.91902e-05 -0.000106859 -0.00154662
0.00137726 0.000511406 -3.4864e-06
0.000511406 0.000110854 4.89422e-06
-3.4864e-06 4.89422e-06 7.51972e-05
0.000539857 0.000354072 6.75035e-06
0.000354072 8.14751e-05 3.04149e-06
6.75035e-06 3.04149e-06 -0.00018675
-0.000302997 0.000428113 1.95256e-06
0.000428113 -0.000134869 -4.42842e-05
1.95256e-06 -4.42842e-05 -0.000489544
0.00456868 0.00181036 -5.93723e-06
0.00181036 0.00157355 8.16556e-06
-5.93723e-06 8.16556e-06 0.00108452
0.0140622 0.0015323 7.41745e-05
0.0015323 0.00455894 2.55262e-05
7.41745e-05 2.55262e-05 0.00245173
0.0053236 -0.00194353 4.36701e-05
-0.00194353 0.000508407 -5.62643e-05
4.36701e-05 -5.62643e-05 -0.000949897
0.011173 -0.00157056 -2.4513e-06
-0.00157056 0.00147458 -4.73438e-05
-2.4513e-06 -4.73438e-05 0.00276207
0.000390035 0.000227014 -6.54229e-06
0.000227014 3.47816e-05 -1.26379e-05
-6.54229e-06 -1.26379e-05 -0.000117493
0.00287018 0.00014329 -0.000174152
0.00014329 0.0013141 -2.87893e-05
-0.000174152 -2.87893e-05 -0.00115537
3.48133e-05 0.000196413 -3.37526e-05
0.000196413 -6.83853e-05 -0.000115316
-3.37526e-05 -0.000115316 -0.00158396
-0.000966446 0.000126295 -7.32154e-06
0.000126295 -0.000426575 -1.80453e-05
-7.32154e-06 -1.80453e-05 -0.000609317
0.000728276 0.000359018 -6.29808e-05
0.000359018 0.00100115 3.30278e-05
-6.29808e-05 3.30278e-05 0.000264159
0.0108827 0.00203698 4.79059e-05
0.00203698 0.00412025 -1.14577e-06
4.79059e-05 -1.14577e-06 0.000747831
-0.00639489 -0.00280534 -3.39048e-05
-0.00280534 -0.00293914 0.000167487
-3.39048e-05 0.000167487 -0.00573756
0.00908639 0.000547655 3.2379e-05
0.000547655 -0.0012429 -0.000226435
3.2379e-05 -0.000226435 0.00111366
0.000850034 0.000138081 6.51976e-07
0.000138081 0.000222482 9.15918e-06
6.51976e-07 9.15918e-06 0.000106645
0.000944057 0.000163627 -6.45313e-06
0.000163627 0.000375529 -1.4953e-06
-6.45313e-06 -1.4953e-06 0.000231478
0.000438518 0.000106032 -9.51145e-07
0.000106032 0.000241413 -7.18537e-06
-9.51145e-07 -7.18537e-06 1.80613e-05
0.000733942 8.06976e-05 -2.40805e-06
8.06976e-05 0.000153707 -1.62485e-06
-2.40805e-06 -1.62485e-06 2.00668e-05
0.000839135 -3.26402e-05 -6.15742e-07
-3.26402e-05 0.00021583 2.28962e-06
-6.15742e-07 2.28962e-06 7.185e-05
0.00060196 4.35929e-05 1.80418e-06
4.35929e-05 6.24204e-05 2.35189e-06
1.80418e-06 2.35189e-06 -6.15023e-05
-0.000400058 2.02893e-05 1.52844e-06
2.02893e-05 -0.000422427 4.12856e-06
1.52844e-06 4.12856e-06 -0.000561512
0.000776568 -1.1052e-05 1.11647e-06
-1.1052e-05 0.000173342 1.55289e-07
1.11647e-06 1.55289e-07 2.90333e-05
0.000790213 2.45046e-05 8.0196e-08
2.45046e-05 0.00020083 -1.34305e-06
8.0196e-08 -1.34305e-06 6.89667e-05
0.000194548 -6.65062e-06 7.14207e-07
-6.65062e-06 0.000102092 2.15584e-06
7.14207e-07 2.15584e-06 -0.000125257
-0.000846914 1.72284e-05 -1.03982e-06
1.72284e-05 -0.000260694 3.08104e-06
-1.03982e-06 3.08104e-06 -0.000608833
0.000662093 3.92409e-06 -2.49763e-06
3.92409e-06 0.000334561 -5.75946e-06
-2.49763e-06 -5.75946e-06 0.000129737
0.000891521 3.06065e-05 -1.10615e-06
3.06065e-05 0.000250917 -3.98826e-06
-1.10615e-06 -3.98826e-06 0.000109623
0.000865664 -0.000117443 7.74768e-07
-0.000117443 0.00022554 4.94168e-07
7.74768e-07 4.94168e-07 8.63046e-05
0.000720997 -1.9135e-05 -1.48997e-07
-1.9135e-05 0.000127202 -2.91592e-07
-1.48997e-07 -2.91592e-07 1.13135e-05
0.000523233 -6.56106e-05 -8.39005e-07
-6.56106e-05 4.27693e-05 4.32252e-06
-8.39005e-07 4.32252e-06 -6.11118e-05
0.00042995 -2.48082e-05 1.96741e-06
-2.48082e-05 -2.09542e-05 2.10632e-06
1.96741e-06 2.10632e-06 -0.000145816
0.000693508 -1.42688e-05 2.91475e-07
-1.42688e-05 0.000116913 -2.64062e-07
2.91475e-07 -2.64062e-07 1.08821e-06
0.000560934 -4.21246e-05 9.86162e-08
-4.21246e-05 5.46849e-05 -4.88345e-07
9.86162e-08 -4.88345e-07 -4.78989e-05
0.00105253 -4.4912e-05 -2.55014e-06
-4.4912e-05 0.000311284 -4.27537e-06
-2.55014e-06 -4.27537e-06 0.000208918
-6.56032e-05 -3.79862e-05 4.36993e-06
-3.79862e-05 -0.000230944 -5.39811e-06
4.36993e-06 -5.39811e-06 -0.000334123
0.000342667 -0.000119889 -6.772e-08
-0.000119889 -0.000207998 5.14137e-08
-6.772e-08 5.14137e-08 -0.000300619
0.000758156 -8.89515e-05 -3.83535e-06
-8.89515e-05 0.000112436 -4.52238e-07
-3.83535e-06 -4.52238e-07 9.3457e-06
0.000366135 -0.000110762 5.56844e-06
-0.000110762 -0.000121099 3.66657e-06
5.56844e-06 3.66657e-06 -0.000264856
0.00121405 -0.000275234 -1.37131e-06
-0.000275234 0.000323511 8.82091e-06
-1.37131e-06 8.82091e-06 8.21757e-05
0.00144796 -0.000147879 7.08823e-07
-0.000147879 0.000572647 -1.1959e-06
7.08823e-07 -1.1959e-06 0.000423389
0.000197522 -8.36586e-05 -3.32075e-06
-8.36586e-05 -0.000196833 -5.3044e-06
-3.32075e-06 -5.3044e-06 -0.000349583
0.00066653 -2.898e-05 -3.51031e-08
-2.898e-05 8.66877e-05 3.73434e-07
-3.51031e-08 3.73434e-07 -3.04666e-05
0.000275223 -1.71971e-05 -4.0298e-07
-1.71971e-05 -0.00012971 -1.29213e-07
-4.0298e-07 -1.29213e-07 -0.000245106
0.000889608 -4.20594e-05 -7.47067e-07
-4.20594e-05 0.000218186 9.8899e-07
-7.47067e-07 9.8899e-07 9.91283e-05
0.000722972 -5.69704e-05 -6.88251e-07
-5.69704e-05 0.000139512 7.00086e-07
-6.88251e-07 7.00086e-07 2.05442e-05
0.000591821 -3.34173e-05 -4.24206e-07
-3.34173e-05 3.98738e-05 1.43908e-06
-4.24206e-07 1.43908e-06 -5.208e-05
0.000860466 -7.93232e-05 -3.99165e-07
-7.93232e-05 0.000243302 -1.36603e-06
-3.99165e-07 -1.36603e-06 0.00011088
0.000666666 -6.5641e-05 -5.80837e-07
-6.5641e-05 9.56717e-05 -4.24664e-08
-5.80837e-07 -4.24664e-08 -9.66094e-07
0.000554577 2.63607e-05 -2.06151e-06
2.63607e-05 3.28739e-06 2.36184e-06
-2.06151e-06 2.36184e-06 -5.97395e-05
0.00070002 -9.70261e-05 1.90408e-06
-9.70261e-05 0.000121109 -1.7042e-06
1.90408e-06 -1.7042e-06 2.03185e-05
0.000623405 -2.4573e-05 -2.40226e-07
-2.4573e-05 4.20845e-05 7.15128e-08
-2.40226e-07 7.15128e-08 -1.82083e-05
0.00140043 2.64813e-05 -8.33151e-06
2.64813e-05 0.000491357 6.12446e-06
-8.33151e-06 6.12446e-06 0.000475208
0.000591417 -4.28881e-05 2.11873e-06
-4.28881e-05 3.09524e-05 -2.64414e-06
2.11873e-06 -2.64414e-06 -3.13545e-05
0.00094071 1.25147e-05 -4.20762e-06
1.25147e-05 0.000214357 6.95924e-07
-4.20762e-06 6.95924e-07 0.00019715
0.000767969 2.33711e-05 1.00624e-07
2.33711e-05 0.000107277 2.31986e-06
1.00624e-07 2.31986e-06 0.000111971
0.000517815 -2.42079e-07 6.11624e-07
-2.42079e-07 -4.02407e-05 -4.18635e-06
6.11624e-07 -4.18635e-06 -5.84844e-05
0.001591 2.35496e-05 6.47897e-06
2.35496e-05 0.000606217 -1.49418e-06
6.47897e-06 -1.49418e-06 0.000616419
0.00241744 1.61702e-05 5.01333e-06
1.61702e-05 0.00110712 -5.19782e-06
5.01333e-06 -5.19782e-06 0.00112152
0.000660341 1.97649e-05 1.64898e-06
1.97649e-05 8.81204e-05 -1.02652e-06
1.64898e-06 -1.02652e-06 -1.2231e-06
0.000626796 4.04095e-05 -8.28503e-07
4.04095e-05 4.70276e-05 -1.74877e-06
-8.28503e-07 -1.74877e-06 1.02559e-06
0.000667457 -3.51641e-06 1.2455e-06
-3.51641e-06 0.000100946 4.31359e-07
1.2455e-06 4.31359e-07 1.59465e-05
0.000549446 -1.16867e-06 7.11156e-07
-1.16867e-06 -2.95015e-05 -3.45037e-06
7.11156e-07 -3.45037e-06 -3.75637e-05
0.000562699 3.28319e-05 1.00662e-07
3.28319e-05 9.13798e-06 -4.16722e-08
1.00662e-07 -4.16722e-08 -3.33087e-05
0.000626551 -9.83961e-05 -3.54091e-06
-9.83961e-05 7.78848e-05 1.0568e-06
-3.54091e-06 1.0568e-06 -3.98365e-06
0.00200549 3.27351e-06 -2.76352e-06
3.27351e-06 0.000855047 -4.70752e-06
-2.76352e-06 -4.70752e-06 0.000874045
0.000544072 3.18533e-06 -1.86698e-07
3.18533e-06 -3.33149e-05 4.38506e-09
-1.86698e-07 4.38506e-09 -4.05251e-05
0.000565894 -1.94808e-05 -1.63138e-06
-1.94808e-05 8.3857e-06 1.51433e-06
-1.63138e-06 1.51433e-06 -3.14542e-05
0.000528157 7.25305e-06 -7.94109e-07
7.25305e-06 -4.35548e-05 3.05265e-06
-7.94109e-07 3.05265e-06 -5.07141e-05
0.00201923 1.7869e-05 -4.27737e-06
1.7869e-05 0.000865069 -6.0116e-08
-4.27737e-06 -6.0116e-08 0.00088349
0.00199525 3.04233e-05 -8.60769e-06
3.04233e-05 0.000852768 4.31324e-06
-8.60769e-06 4.31324e-06 0.000870543
-0.00546135 -0.000696076 -7.65402e-05
-0.000696076 0.00255879 2.82447e-05
-7.65402e-05 2.82447e-05 -0.000269218
0.000219279 0.000675631 -0.000129209
0.000675631 -0.000148114 3.17362e-05
-0.000129209 3.17362e-05 -0.00100281
0.00314424 -0.000567891 -0.000369056
-0.000567891 0.00113859 0.000190762
-0.000369056 0.000190762 -0.0024092
-0.00304936 6.79965e-05 0.000542419
6.79965e-05 0.00316906 -0.000217759
0.000542419 -0.000217759 0.000796057
0.000544288 0.000335663 -1.28949e-05
0.000335663 -0.00128609 -5.38574e-06
-1.28949e-05 -5.38574e-06 -0.00104615
0.00254906 -0.000232471 0.000102258
-0.000232471 1.59691e-05 -5.26699e-06
0.000102258 -5.26699e-06 2.61354e-05
0.00105515 -0.000386154 4.99245e-05
-0.000386154 -0.0027118 -7.41395e-05
4.99245e-05 -7.41395e-05 -0.00449396
0.0128477 0.00159332 -0.000252809
0.00159332 0.00606302 1.89734e-06
-0.000252809 1.89734e-06 0.00486589
-0.00563347 0.00371798 -0.00097787
0.00371798 -0.00206531 0.000753994
-0.00097787 0.000753994 -0.00137509
0.00324176 -0.000229064 2.00346e-07
-0.000229064 -0.000255289 -9.88774e-07
2.00346e-07 -9.88774e-07 -0.000165477
0.00633427 -0.000841309 7.79491e-05
-0.000841309 -0.00032038 -7.14452e-05
7.79491e-05 -7.14452e-05 -0.00261932
0.0139336 0.00286279 -0.000140384
0.00286279 0.00408251 -9.36972e-05
-0.000140384 -9.36972e-05 0.00399927
0.00648012 0.00221621 -8.19578e-05
0.00221621 -0.000282668 0.000227367
-8.19578e-05 0.000227367 -0.000914661
0.00212933 -0.0008933 -8.09924e-05
-0.0008933 -0.00153135 2.42423e-05
-8.09924e-05 2.42423e-05 -0.001192
0.00323768 -0.00148781 0.000239834
-0.00148781 -9.50143e-05 -0.000162753
0.000239834 -0.000162753 -0.00369806
-0.00236133 0.00179605 -6.11389e-05
0.00179605 -0.00308503 -0.000438593
-6.11389e-05 -0.000438593 -0.0040257
0.00551891 0.0010532 -0.000114267
0.0010532 -0.00295172 6.87503e-06
-0.000114267 6.87503e-06 -0.00164658
0.00120764 -4.99407e-05 1.58405e-06
-4.99407e-05 0.00048635 7.25312e-06
1.58405e-06 7.25312e-06 0.000316367
0.000617449 8.91716e-05 -1.72414e-06
8.91716e-05 9.5862e-05 -1.56701e-06
-1.72414e-06 -1.56701e-06 -2.9933e-05
0.000590797 7.62091e-05 2.61791e-07
7.62091e-05 5.73271e-05 -1.84529e-06
2.61791e-07 -1.84529e-06 -3.18159e-05
0.000643239 5.97205e-05 4.39358e-06
5.97205e-05 0.000124673 4.54513e-07
4.39358e-06 4.54513e-07 8.25907e-06
0.000611894 6.01955e-05 2.46116e-06
6.01955e-05 9.08355e-05 2.37367e-06
2.46116e-06 2.37367e-06 -6.59537e-05
0.000674645 5.68805e-05 -2.27078e-07
5.68805e-05 0.000138503 1.67482e-06
-2.27078e-07 1.67482e-06 6.95667e-06
0.000559779 3.87618e-05 7.90941e-07
3.87618e-05 5.53841e-05 -1.01383e-06
7.90941e-07 -1.01383e-06 -6.30512e-05
0.000871115 0.000140131 2.02813e-06
0.000140131 0.000249664 2.89754e-06
2.02813e-06 2.89754e-06 0.000104003
0.000840848 9.19388e-05 -8.95106e-08
9.19388e-05 0.00023426 3.44471e-07
-8.95106e-08 3.44471e-07 9.54149e-05
0.000471497 -1.46608e-05 -3.8392e-06
-1.46608e-05 4.84964e-06 -2.98808e-06
-3.8392e-06 -2.98808e-06 -0.000110981
0.000700205 -0.000267307 5.11619e-05
-0.000267307 -0.000749926 -2.03056e-05
5.11619e-05 -2.03056e-05 -0.000640776
0.000809638 -0.000506021 3.78513e-05
-0.000506021 -0.000502634 -5.86121e-06
3.78513e-05 -5.86121e-06 -0.000535855
0.00166056 -0.000698422 1.50627e-05
-0.000698422 1.90315e-05 6.23022e-06
1.50627e-05 6.23022e-06 -0.000129556
0.000137548 -0.000433868 1.12967e-05
-0.000433868 -0.000283424 -1.24399e-05
1.12967e-05 -1.24399e-05 -0.000559253
0.00218681 -0.000250674 -2.87292e-06
-0.000250674 0.00118836 2.18492e-05
-2.87292e-06 2.18492e-05 0.000835773
0.000562938 -0.000104749 -1.61682e-06
-0.000104749 0.00013416 3.62682e-07
-1.61682e-06 3.62682e-07 -5.20685e-05
0.000462729 8.49477e-05 -1.01598e-06
8.49477e-05 2.69117e-05 -6.52915e-06
-1.01598e-06 -6.52915e-06 -0.000136487
0.000672623 -7.40767e-05 -7.45947e-07
-7.40767e-05 0.000168473 4.6086e-06
-7.45947e-07 4.6086e-06 -1.8469e-05
0.00128069 -0.000432885 -1.89826e-07
-0.000432885 -0.000131773 -2.3464e-06
-1.89826e-07 -2.3464e-06 -0.000286019
0.000699931 -3.09115e-05 2.59265e-07
-3.09115e-05 0.000186692 2.42378e-06
2.59265e-07 2.42378e-06 6.92332e-07
0.00154042 -0.000170455 -1.9862e-07
-0.000170455 0.000784213 -1.19031e-06
-1.9862e-07 -1.19031e-06 0.000495289
0.00169414 -0.00055978 4.52705e-07
-0.00055978 0.000192907 3.03708e-06
4.52705e-07 3.03708e-06 0.000121562
0.00086371 -0.000407448 -1.43945e-05
-0.000407448 0.000280546 5.22363e-06
-1.43945e-05 5.22363e-06 -1.41885e-05
0.00148597 -0.000767368 4.25864e-06
-0.000767368 -5.67424e-05 -2.224e-05
4.25864e-06 -2.224e-05 -9.14266e-05
0.00115378 -0.00032437 -1.34355e-05
-0.00032437 0.000404097 1.30609e-05
-1.34355e-05 1.30609e-05 0.000281854
-0.000544138 -5.25395e-05 1.07213e-07
-5.25395e-05 -0.000307216 1.44324e-05
1.07213e-07 1.44324e-05 -0.000664329
0.000762615 1.29185e-05 -1.02327e-06
1.29185e-05 0.000191884 -3.96719e-06
-1.02327e-06 -3.96719e-06 2.67251e-05
0.000863384 4.26246e-05 4.22546e-06
4.26246e-05 0.000367942 1.15365e-06
4.22546e-06 1.15365e-06 0.000127786
0.00174194 -2.4879e-05 -2.33688e-05
-2.4879e-05 0.00154554 -1.10932e-05
-2.33688e-05 -1.10932e-05 -0.000864888
-0.00373683 0.000186248 -0.000177863
0.000186248 0.00406575 -7.24643e-06
-0.000177863 -7.24643e-06 0.000947628
-0.010975 -0.000997815 -0.000385449
-0.000997815 -0.00566038 -7.15444e-06
-0.000385449 -7.15444e-06 -0.00541713
-0.000337777 0.000121052 6.75907e-06
0.000121052 -0.000412157 -1.21523e-06
6.75907e-06 -1.21523e-06 -0.00058131
-0.000853374 0.00023192 -1.18918e-07
0.00023192 -0.000635055 7.02115e-06
-1.18918e-07 7.02115e-06 -0.000914138
0.00131787 0.000519073 2.78229e-05
0.000519073 6.35458e-05 9.29038e-06
2.78229e-05 9.29038e-06 4.08876e-05
-0.00442226 0.000833449 -8.72222e-06
0.000833449 0.00270272 2.82847e-05
-8.72222e-06 2.82847e-05 -0.000370139
0.00209635 0.00131579 -0.000120585
0.00131579 -2.13087e-05 -0.000122068
-0.000120585 -0.000122068 -0.00371143
0.00281219 0.00134239 0.000238862
0.00134239 0.000636906 6.2462e-05
0.000238862 6.2462e-05 0.000333708
-0.000172315 0.000430636 6.95052e-06
0.000430636 -0.000216604 -3.5868e-05
6.95052e-06 -3.5868e-05 -0.000303597
0.0151661 -0.00204839 -4.27287e-05
-0.00204839 0.00447361 -0.000171314
-4.27287e-05 -0.000171314 0.00358407
0.00439862 0.000601192 0.000225354
0.000601192 0.00225098 8.4054e-05
0.000225354 8.4054e-05 -0.0017458
0.0112085 -0.00138331 7.26504e-05
-0.00138331 0.00170707 2.32945e-05
7.26504e-05 2.32945e-05 0.00303594
0.00072995 0.000252754 2.68634e-06
0.000252754 0.000294621 -2.46062e-06
2.68634e-06 -2.46062e-06 0.000131823
0.0037454 0.00019228 1.04056e-05
0.00019228 0.00193885 8.93026e-06
1.04056e-05 8.93026e-06 3.2958e-05
0.000691242 0.000219996 2.76359e-05
0.000219996 1.95193e-05 1.05333e-05
2.76359e-05 1.05333e-05 -0.00155269
-0.000496869 0.000265257 -3.66496e-06
0.000265257 -0.000254632 -1.95091e-06
-3.66496e-06 -1.95091e-06 -0.000485031
0.00163304 0.000717781 -8.89476e-05
0.000717781 0.00109712 -4.12509e-05
-8.89476e-05 -4.12509e-05 0.000116981
0.00250416 0.00224143 0.00010551
0.00224143 0.00097203 6.8645e-05
0.00010551 6.8645e-05 -0.0025802
0.00698621 0.000191357 -1.2682e-05
0.000191357 -0.00294485 -0.000148667
-1.2682e-05 -0.000148667 -0.000260842
0.00296028 -0.00166776 -4.72365e-05
-0.00166776 0.00119794 -7.26268e-05
-4.72365e-05 -7.26268e-05 -0.00128216
0.00101003 0.000209304 -4.65229e-06
0.000209304 0.000667905 -1.43425e-05
-4.65229e-06 -1.43425e-05 0.000475694
-0.000538666 -1.34995e-05 1.86671e-06
-1.34995e-05 -9.28154e-05 -1.1916e-06
1.86671e-06 -1.1916e-06 -7.74465e-06
0.0031394 3.08342e-05 4.49746e-05
3.08342e-05 2.7019e-05 -0.00011132
4.49746e-05 -0.00011132 -0.00101531
0.00557895 0.00110527 0.000122639
0.00110527 -0.00282916 -1.42312e-05
0.000122639 -1.42312e-05 -0.0016399
-0.00119094 0.000109527 6.77942e-06
0.000109527 -7.56913e-05 -2.25256e-05
6.77942e-06 -2.25256e-05 -0.000681336
0.0110726 0.00177872 0.000159239
0.00177872 0.00522525 5.29303e-05
0.000159239 5.29303e-05 0.00113039
-0.00754461 -0.000464114 7.99946e-05
-0.000464114 5.73437e-05 0.000260296
7.99946e-05 0.000260296 -0.00230816
0.00252279 0.000302414 1.96653e-05
0.000302414 0.00131871 1.57308e-05
1.96653e-05 1.57308e-05 0.00115348
0.000857235 0.000169758 -5.5114e-06
0.000169758 0.000471041 -2.93831e-06
-5.5114e-06 -2.93831e-06 0.000228192
-0.000232132 7.09519e-05 -9.43181e-07
7.09519e-05 6.3917e-05 8.40869e-07
-9.43181e-07 8.40869e-07 -0.000204223
0.000702328 0.000143759 4.55367e-08
0.000143759 0.000142903 1.9794e-07
4.55367e-08 1.9794e-07 -9.0476e-06
0.000519187 6.14679e-05 1.3615e-06
6.14679e-05 3.52954e-05 2.44962e-06
1.3615e-06 2.44962e-06 -9.24796e-05
0.000485005 1.15266e-05 8.01784e-06
1.15266e-05 0.000304347 4.19364e-06
8.01784e-06 4.19364e-06 5.18686e-05
0.000622361 4.23034e-05 -1.34299e-07
4.23034e-05 8.60475e-05 -5.74788e-07
-1.34299e-07 -5.74788e-07 -4.79278e-05
0.000721832 -1.33607e-05 -2.57885e-06
-1.33607e-05 0.00036804 -2.21401e-06
-2.57885e-06 -2.21401e-06 0.000163445
-0.000406115 4.02889e-05 3.89414e-06
4.02889e-05 -1.30175e-05 4.57034e-06
3.89414e-06 4.57034e-06 -0.000363233
0.000377702 2.09347e-06 -6.68089e-06
2.09347e-06 0.000306632 -5.20833e-06
-6.68089e-06 -5.20833e-06 0.000109512
0.000208317 -3.51963e-05 -1.97187e-06
-3.51963e-05 3.52624e-05 -7.16862e-06
-1.97187e-06 -7.16862e-06 -0.000140119
0.000571922 -5.63514e-05 1.76787e-06
-5.63514e-05 5.1215e-05 4.81189e-06
1.76787e-06 4.81189e-06 -6.45422e-05
0.000824316 -1.74561e-05 -9.90588e-07
-1.74561e-05 0.000193656 -3.69853e-07
-9.90588e-07 -3.69853e-07 7.67793e-05
0.00108031 -4.41593e-05 -8.93661e-06
-4.41593e-05 0.00036068 6.43933e-06
-8.93661e-06 6.43933e-06 0.00025867
0.00067023 -5.39946e-05 4.27661e-06
-5.39946e-05 0.000185046 -6.25519e-07
4.27661e-06 -6.25519e-07 8.62047e-05
0.000547092 -3.61607e-05 -1.56249e-06
-3.61607e-05 1.80931e-05 -5.23083e-08
-1.56249e-06 -5.23083e-08 -8.52995e-05
0.000742252 -0.000108563 1.75253e-06
-0.000108563 0.000168228 -2.47031e-07
1.75253e-06 -2.47031e-07 6.21401e-05
0.000337138 -0.000104598 -3.62077e-06
-0.000104598 -0.000164766 -7.96534e-07
-3.62077e-06 -7.96534e-07 -0.000239764
-0.000555414 -0.00016482 7.91709e-06
-0.00016482 -0.000659397 4.22639e-06
7.91709e-06 4.22639e-06 -0.000849769
0.000767458 -0.000127686 1.15612e-06
-0.000127686 0.000126604 1.27466e-06
1.15612e-06 1.27466e-06 1.74228e-05
0.00125897 -0.000205906 -8.77731e-07
-0.000205906 0.000397551 3.89954e-06
-8.77731e-07 3.89954e-06 0.000232639
0.00119798 -0.000314964 -5.39206e-06
-0.000314964 0.000274261 5.18823e-06
-5.39206e-06 5.18823e-06 2.19634e-05
0.000973683 -0.000270101 -3.82396e-06
-0.000270101 0.000118614 -1.24446e-07
-3.82396e-06 -1.24446e-07 -0.000125928
0.00107887 -0.000214044 -2.70631e-06
-0.000214044 0.000369906 6.39369e-06
-2.70631e-06 6.39369e-06 0.000168831
0.000269895 -0.000172859 3.23446e-06
-0.000172859 -0.00023457 -3.26797e-07
3.23446e-06 -3.26797e-07 -0.000452964
0.000907642 -9.53707e-05 1.0802e-06
-9.53707e-05 0.000253103 -1.06311e-06
1.0802e-06 -1.06311e-06 0.000110663
0.00107496 -0.000137722 -2.09723e-06
-0.000137722 0.000365387 -4.50806e-07
-2.09723e-06 -4.50806e-07 0.000210215
0.000376561 -0.000111894 5.59743e-06
-0.000111894 -6.91167e-05 -1.31389e-05
5.59743e-06 -1.31389e-05 -0.000221484
0.00103327 -4.96451e-05 6.29302e-07
-4.96451e-05 0.000292699 1.92134e-07
6.29302e-07 1.92134e-07 0.000176886
0.00040229 -2.7521e-05 4.51963e-07
-2.7521e-05 -5.10967e-05 -2.11562e-07
4.51963e-07 -2.11562e-07 -0.000169242
0.000621763 -2.30108e-05 -1.86915e-07
-2.30108e-05 5.44439e-05 1.07902e-06
-1.86915e-07 1.07902e-06 -4.27215e-05
0.000793735 -7.93467e-05 -4.43236e-07
-7.93467e-05 0.000193767 -1.76826e-07
-4.43236e-07 -1.76826e-07 6.40825e-05
0.000667373 -4.88729e-05 -6.50892e-08
-4.88729e-05 9.46265e-05 4.0091e-08
-6.50892e-08 4.0091e-08 -5.37541e-06
0.000566211 2.51397e-05 4.19152e-08
2.51397e-05 1.4151e-05 2.55227e-06
4.19152e-08 2.55227e-06 -5.365e-05
0.000731864 -8.20775e-05 4.09059e-07
-8.20775e-05 0.000143663 -1.80418e-06
4.09059e-07 -1.80418e-06 4.00843e-05
0.000579494 1.67514e-05 -1.22106e-06
1.67514e-05 1.9167e-05 -8.90106e-08
-1.22106e-06 -8.90106e-08 -4.49838e-05
0.00136426 4.15404e-05 -9.35766e-06
4.15404e-05 0.000471835 4.14396e-06
-9.35766e-06 4.14396e-06 0.00045454
0.000625169 -3.61475e-05 2.41357e-06
-3.61475e-05 4.50239e-05 -2.74373e-06
2.41357e-06 -2.74373e-06 -1.66406e-05
0.000929645 2.34234e-05 -5.22398e-06
2.34234e-05 0.000206493 6.34164e-07
-5.22398e-06 6.34164e-07 0.000188278
0.000803759 3.26416e-05 -5.95771e-07
3.26416e-05 0.000131042 2.47873e-06
-5.95771e-07 2.47873e-06 0.000134123
0.000511072 8.77792e-06 7.58453e-07
8.77792e-06 -4.74888e-05 -4.54301e-06
7.58453e-07 -4.54301e-06 -6.65312e-05
0.0016143 3.57445e-05 8.92448e-06
3.57445e-05 0.000621486 -1.34682e-06
8.92448e-06 -1.34682e-06 0.000630347
0.00241478 3.17077e-05 8.43522e-06
3.17077e-05 0.00110607 -5.23755e-06
8.43522e-06 -5.23755e-06 0.00111987
0.000405745 8.66916e-06 1.08104e-06
8.66916e-06 -5.43038e-05 -1.61988e-07
1.08104e-06 -1.61988e-07 -0.00016408
0.000282369 8.59201e-06 7.16766e-09
8.59201e-06 -0.000161533 -3.12357e-06
7.16766e-09 -3.12357e-06 -0.000215904
0.000705428 2.82287e-05 4.50593e-09
2.82287e-05 0.000122046 1.27252e-07
4.50593e-09 1.27252e-07 2.73642e-05
0.000545474 -4.82265e-06 5.9158e-07
-4.82265e-06 -3.20413e-05 -3.57574e-06
5.9158e-07 -3.57574e-06 -4.17778e-05
0.000410918 1.41176e-06 1.31972e-06
1.41176e-06 -8.54016e-05 -5.17348e-08
1.31972e-06 -5.17348e-08 -0.00013128
0.000402482 -8.74527e-05 -1.6886e-06
-8.74527e-05 -5.82781e-05 3.56966e-07
-1.6886e-06 3.56966e-07 -0.000145755
0.00207792 -1.02369e-05 -7.2987e-06
-1.02369e-05 0.000898848 -4.74954e-06
-7.2987e-06 -4.74954e-06 0.00091732
0.000543953 -1.3807e-06 -9.23096e-08
-1.3807e-06 -3.31503e-05 -4.81336e-08
-9.23096e-08 -4.81336e-08 -4.10845e-05
0.000534889 -1.91359e-05 -1.87615e-06
-1.91359e-05 -9.84078e-06 1.81856e-06
-1.87615e-06 1.81856e-06 -5.075e-05
0.0020244 4.69819e-06 -4.10087e-06
4.69819e-06 0.000866736 1.63364e-08
-4.10087e-06 1.63364e-08 0.000885607
0.000527272 2.78525e-06 -6.95415e-07
2.78525e-06 -4.29013e-05 3.18094e-06
-6.95415e-07 3.18094e-06 -5.01388e-05
0.002007 1.92384e-05 -1.6589e-06
1.92384e-05 0.000857731 4.51426e-06
-1.6589e-06 4.51426e-06 0.000876134
0.00026517 -0.000285996 -0.000135103
-0.000285996 -0.000278245 3.27804e-05
-0.000135103 3.27804e-05 -0.00211048
0.00126553 0.000232159 -4.49641e-05
0.000232159 0.00444148 -2.26216e-06
-4.49641e-05 -2.26216e-06 0.00243803
0.00105891 -0.000334315 -0.000390186
-0.000334315 0.00245451 3.96338e-05
-0.000390186 3.96338e-05 0.00125521
0.000743654 9.39625e-05 2.59763e-06
9.39625e-05 0.000148649 1.45487e-06
2.59763e-06 1.45487e-06 1.01825e-05
0.00359153 -0.000376667 -1.49833e-05
-0.000376667 0.00260585 0.000124633
-1.49833e-05 0.000124633 0.00106932
0.00374462 -0.00066442 -0.000154163
-0.00066442 0.00140232 1.00377e-05
-0.000154163 1.00377e-05 -0.00214013
0.00390524 0.00108938 0.000262856
0.00108938 0.00440304 -0.000196348
0.000262856 -0.000196348 0.00254703
0.00494613 -0.000378865 4.97124e-05
-0.000378865 0.000560718 -3.60678e-05
4.97124e-05 -3.60678e-05 0.000344343
0.0121462 -0.000864462 0.000156876
-0.000864462 0.00244253 -7.46953e-05
0.000156876 -7.46953e-05 0.00083899
0.000346655 0.00245324 -0.000234669
0.00245324 -0.00297946 0.000219448
-0.000234669 0.000219448 -0.00287719
0.00746472 0.00231277 3.35129e-05
0.00231277 0.00116909 7.77343e-05
3.35129e-05 7.77343e-05 0.000106961
0.00542294 -0.00109039 -0.000104952
-0.00109039 0.00021504 -3.08398e-06
-0.000104952 -3.08398e-06 5.77166e-05
0.0128728 -0.00144959 5.48031e-05
-0.00144959 0.00416592 -1.78862e-05
5.48031e-05 -1.78862e-05 0.0019705
0.00785192 0.00153262 9.88149e-05
0.00153262 0.0010769 -0.000171681
9.88149e-05 -0.000171681 -5.84192e-05
0.00735931 0.000984417 7.44755e-06
0.000984417 -0.0014099 1.49089e-05
7.44755e-06 1.49089e-05 -0.000514863
0.00264628 -0.00147213 5.35351e-06
-0.00147213 -0.000202136 1.54863e-05
5.35351e-06 1.54863e-05 -0.000778048
0.0116187 -0.00207691 0.00011471
-0.00207691 0.00523192 -6.33071e-05
0.00011471 -6.33071e-05 0.00135965
0.00471997 -5.82914e-05 9.70788e-05
-5.82914e-05 0.00130536 -0.000255934
9.70788e-05 -0.000255934 0.000219973
0.00879286 0.000538531 -6.62898e-05
0.000538531 -0.00113252 0.000144713
-6.62898e-05 0.000144713 0.00100446
0.000804713 -2.01943e-05 2.81397e-06
-2.01943e-05 0.000229723 3.05262e-06
2.81397e-06 3.05262e-06 6.00164e-05
0.000859822 -7.64322e-05 -4.68185e-07
-7.64322e-05 0.000280582 -4.07095e-08
-4.68185e-07 -4.07095e-08 0.000106958
0.000761197 0.000113714 -2.89251e-07
0.000113714 0.000187226 -3.58813e-06
-2.89251e-07 -3.58813e-06 5.81222e-05
0.000715029 6.46646e-05 1.36829e-06
6.46646e-05 0.000119844 4.10054e-06
1.36829e-06 4.10054e-06 -1.51219e-05
0.000752666 0.000110047 -3.52025e-07
0.000110047 0.000184933 7.4934e-07
-3.52025e-07 7.4934e-07 2.71949e-05
0.000904841 6.75489e-05 -3.17779e-06
6.75489e-05 0.000276385 -1.73339e-06
-3.17779e-06 -1.73339e-06 0.000145956
0.000999637 0.000134451 -1.05533e-06
0.000134451 0.000326083 -7.00387e-08
-1.05533e-06 -7.00387e-08 0.000180032
0.000999096 0.000143814 6.29164e-07
0.000143814 0.000342557 1.95668e-06
6.29164e-07 1.95668e-06 0.000196146
0.00056424 -0.000329766 6.57601e-05
-0.000329766 -0.000579336 -2.75825e-05
6.57601e-05 -2.75825e-05 -0.000565265
0.00183554 -0.000580379 1.07733e-05
-0.000580379 0.000219823 -9.60517e-06
1.07733e-05 -9.60517e-06 0.000172731
0.000910687 -0.00019078 -1.03072e-06
-0.00019078 0.000318235 -8.03853e-06
-1.03072e-06 -8.03853e-06 0.000120877
0.00129719 -0.000474231 2.06035e-05
-0.000474231 0.000501093 -1.85221e-05
2.06035e-05 -1.85221e-05 0.000203931
0.00224813 -0.000266748 -7.0322e-06
-0.000266748 0.00118283 1.57859e-06
-7.0322e-06 1.57859e-06 0.000892684
0.00106456 -8.91465e-05 -1.9475e-06
-8.91465e-05 0.000392285 -1.07377e-05
-1.9475e-06 -1.07377e-05 0.000206156
0.000400832 -2.22408e-05 1.11742e-06
-2.22408e-05 -1.96381e-05 3.71928e-06
1.11742e-06 3.71928e-06 -0.000184716
0.000216649 -0.000661771 -3.35599e-06
-0.000661771 -0.000748741 -1.18691e-06
-3.35599e-06 -1.18691e-06 -0.000722959
0.00125661 4.03119e-05 3.92836e-08
4.03119e-05 0.000602424 5.55581e-07
3.92836e-08 5.55581e-07 0.000351608
0.00088129 -0.000190609 -6.38377e-06
-0.000190609 0.000440255 2.76687e-06
-6.38377e-06 2.76687e-06 0.000122028
0.000477365 -0.000255897 1.85674e-05
-0.000255897 6.29098e-06 2.48994e-06
1.85674e-05 2.48994e-06 -6.44019e-05
0.0011582 9.08819e-05 1.23337e-06
9.08819e-05 0.000396169 -1.61656e-06
1.23337e-06 -1.61656e-06 0.000257386
0.00127263 -0.000610025 8.61434e-06
-0.000610025 5.97454e-05 -3.7153e-05
8.61434e-06 -3.7153e-05 0.000132066
0.000172781 -0.00018912 -8.79533e-07
-0.00018912 0.000115609 1.7119e-05
-8.79533e-07 1.7119e-05 -3.88329e-05
-0.000608456 5.05166e-05 6.56691e-06
5.05166e-05 -0.000147258 5.49191e-06
6.56691e-06 5.49191e-06 -0.000628719
0.00125852 0.000202435 2.41386e-06
0.000202435 0.000543546 -4.53919e-06
2.41386e-06 -4.53919e-06 0.000360671
-8.20946e-05 1.36137e-05 9.23703e-06
1.36137e-05 0.000787577 -5.4231e-06
9.23703e-06 -5.4231e-06 0.000163506
0.00110809 -3.88301e-05 9.8092e-05
-3.88301e-05 0.00117326 -1.74585e-05
9.8092e-05 -1.74585e-05 -0.00125262
-0.00701842 -0.00010408 -0.000176044
-0.00010408 0.0033559 1.1662e-05
-0.000176044 1.1662e-05 -0.000349164
0.00120414 0.000280258 1.50582e-05
0.000280258 0.000645894 4.15071e-06
1.50582e-05 4.15071e-06 0.000472439
-0.00156958 0.000334762 1.9982e-06
0.000334762 -0.000861992 9.71426e-06
1.9982e-06 9.71426e-06 -0.00117186
0.00459035 0.000196015 0.000132085
0.000196015 0.00246529 1.21672e-05
0.000132085 1.21672e-05 0.00112047
0.00790988 0.00142177 0.000194999
0.00142177 0.00347573 0.00010148
0.000194999 0.00010148 -0.000364981
0.00338647 0.00114851 -0.000103404
0.00114851 0.00178241 -8.71285e-05
-0.000103404 -8.71285e-05 0.000642745
0.00500848 -0.00117737 -5.76208e-05
-0.00117737 0.00213737 -0.000282115
-5.76208e-05 -0.000282115 6.37413e-05
0.00126303 0.000233906 6.76741e-05
0.000233906 9.57636e-05 0.000142615
6.76741e-05 0.000142615 -0.00145924
0.00504923 -9.24791e-05 -2.34663e-05
-9.24791e-05 -0.00471794 -0.00015674
-2.34663e-05 -0.00015674 -0.00159758
0.000817153 0.000238571 -1.28311e-06
0.000238571 0.000558074 -2.81063e-06
-1.28311e-06 -2.81063e-06 0.00034606
-0.000484308 -3.06562e-05 1.00392e-07
-3.06562e-05 -0.000107994 -1.12215e-06
1.00392e-07 -1.12215e-06 -7.16118e-05
0.00313289 6.47104e-05 5.40912e-05
6.47104e-05 0.000157206 2.02482e-05
5.40912e-05 2.02482e-05 -0.000411047
-0.00107271 0.000212784 -8.76924e-06
0.000212784 -0.000342291 -6.36481e-06
-8.76924e-06 -6.36481e-06 -0.000840435
0.0074288 0.00108245 -5.8974e-06
0.00108245 -0.00139379 -1.29337e-05
-5.8974e-06 -1.29337e-05 -0.000543675
0.004575 0.00117783 0.000140504
0.00117783 0.00325457 7.85552e-05
0.000140504 7.85552e-05 -0.00110576
0.00423313 0.00054548 -9.97481e-05
0.00054548 0.00268524 6.00048e-06
-9.97481e-05 6.00048e-06 0.000886226
0.000197225 0.00023096 -1.17256e-05
0.00023096 0.000234889 -1.82887e-05
-1.17256e-05 -1.82887e-05 -7.85716e-05
0.00151562 8.88103e-05 1.33986e-05
8.88103e-05 -0.000324433 -1.85822e-05
1.33986e-05 -1.85822e-05 -5.67311e-05
0.00349897 -0.000330935 2.09111e-05
-0.000330935 0.00256307 -0.000127752
2.09111e-05 -0.000127752 0.00108159
0.00968132 0.00235126 0.000256165
0.00235126 0.00169222 -0.000171305
0.000256165 -0.000171305 0.00123928
0.00634861 -0.000139087 -0.000100748
-0.000139087 0.00191532 0.000258333
-0.000100748 0.000258333 0.000909713
0.000885122 0.00020661 2.40964e-06
0.00020661 0.000315408 -8.47119e-05
2.40964e-06 -8.47119e-05 7.89761e-05
-0.000162343 0.00125387 0.000151427
0.00125387 0.00318106 3.09729e-05
0.000151427 3.09729e-05 -0.00330311
0.00148486 0.000260408 3.56707e-06
0.000260408 0.000789613 2.06597e-05
3.56707e-06 2.06597e-05 0.000549146
0.000329788 0.000122276 2.71337e-06
0.000122276 0.000373729 4.62159e-07
2.71337e-06 4.62159e-07 0.000103991
0.000706388 -5.88447e-06 -1.1218e-05
-5.88447e-06 0.000642416 -1.13662e-05
-1.1218e-05 -1.13662e-05 0.00045404
0.000288421 -2.82627e-05 6.83325e-07
-2.82627e-05 -0.000127555 4.07852e-06
6.83325e-07 4.07852e-06 -0.000248243
0.0010005 -4.12054e-06 2.61333e-06
-4.12054e-06 0.000525507 3.23781e-06
2.61333e-06 3.23781e-06 0.000326628
0.000660681 -4.98201e-06 2.40956e-06
-4.98201e-06 0.000553988 -5.12767e-06
2.40956e-06 -5.12767e-06 0.000233364
0.000477391 -5.08522e-05 5.47537e-07
-5.08522e-05 0.000156032 -2.14205e-07
5.47537e-07 -2.14205e-07 1.02136e-05
-2.43877e-06 -1.6627e-05 1.56151e-06
-1.6627e-05 8.80078e-05 1.80477e-06
1.56151e-06 1.80477e-06 -0.000118381
0.00137483 -0.000238521 5.57372e-06
-0.000238521 0.000778355 -1.16332e-05
5.57372e-06 -1.16332e-05 0.000564144
0.00136111 -7.69639e-05 -2.63465e-06
-7.69639e-05 0.000576116 5.34587e-06
-2.63465e-06 5.34587e-06 0.000482027
-8.23138e-05 -1.6244e-05 -2.14065e-07
-1.6244e-05 -0.000345679 2.12414e-06
-2.14065e-07 2.12414e-06 -0.000449168
0.00141474 -0.000177543 1.99095e-06
-0.000177543 0.000553294 2.17543e-06
1.99095e-06 2.17543e-06 0.000432212
-0.00112715 -0.00012994 7.29175e-06
-0.00012994 -0.000813685 2.72162e-06
7.29175e-06 2.72162e-06 -0.00104634
0.000250125 -8.55338e-05 -3.26664e-06
-8.55338e-05 -0.000171032 1.04171e-06
-3.26664e-06 1.04171e-06 -0.000228272
-0.000148586 -0.000183132 3.35498e-06
-0.000183132 -0.000431679 -1.33821e-06
3.35498e-06 -1.33821e-06 -0.000607747
0.00117932 -0.000352168 8.8753e-06
-0.000352168 0.000226378 -5.92408e-06
8.8753e-06 -5.92408e-06 -7.24109e-05
0.00144367 -0.000394319 -3.98594e-06
-0.000394319 0.000279662 1.31136e-06
-3.98594e-06 1.31136e-06 -1.65988e-05
0.00213404 -0.000300083 -1.08115e-06
-0.000300083 0.000906599 4.04531e-07
-1.08115e-06 4.04531e-07 0.000720133
0.00110756 -0.00030627 5.354e-07
-0.00030627 0.000195215 2.53731e-07
5.354e-07 2.53731e-07 -6.58178e-05
0.00229336 -0.000418847 3.01736e-06
-0.000418847 0.00086238 -2.00835e-06
3.01736e-06 -2.00835e-06 0.000602874
0.000260319 -0.000161315 -1.10115e-06
-0.000161315 -0.000198089 3.95069e-06
-1.10115e-06 3.95069e-06 -0.000417051
0.00104534 -0.000271993 -6.73801e-07
-0.000271993 0.000169816 -1.05832e-06
-6.73801e-07 -1.05832e-06 -7.25851e-05
0.000450548 -8.44271e-05 4.86114e-07
-8.44271e-05 -3.08858e-06 -1.73937e-06
4.86114e-07 -1.73937e-06 -0.000174068
0.00107799 -0.000230748 -4.47834e-06
-0.000230748 0.000374481 2.59405e-06
-4.47834e-06 2.59405e-06 0.000166551
-0.000657791 -7.26522e-05 -2.72832e-06
-7.26522e-05 -0.00078063 -4.34447e-06
-2.72832e-06 -4.34447e-06 -0.000977887
0.000507577 -7.61435e-06 1.02092e-06
-7.61435e-06 -6.60897e-06 1.45571e-06
1.02092e-06 1.45571e-06 -0.000117919
0.000643025 -7.65098e-05 3.03418e-07
-7.65098e-05 0.000106189 -9.2535e-08
3.03418e-07 -9.2535e-08 -3.67637e-05
0.000740746 -0.000130796 5.22018e-06
-0.000130796 0.000180477 -3.06632e-06
5.22018e-06 -3.06632e-06 1.80868e-05
0.000585865 -3.85684e-05 3.77937e-07
-3.85684e-05 6.09827e-05 -2.6194e-07
3.77937e-07 -2.6194e-07 -6.00622e-05
0.000688317 -3.43105e-05 -6.75602e-07
-3.43105e-05 0.00010624 -6.06009e-08
-6.75602e-07 -6.06009e-08 -4.27065e-07
0.000537086 2.92461e-05 2.19605e-07
2.92461e-05 -4.19469e-06 3.29047e-06
2.19605e-07 3.29047e-06 -7.7048e-05
0.000774792 -6.25518e-05 2.63862e-07
-6.25518e-05 0.00016787 -1.15424e-06
2.63862e-07 -1.15424e-06 6.03006e-05
0.000584867 2.25058e-05 -1.13242e-06
2.25058e-05 2.37984e-05 -1.85083e-07
-1.13242e-06 -1.85083e-07 -4.34883e-05
0.000517063 3.8072e-05 -8.78322e-07
3.8072e-05 -3.66918e-05 4.87547e-06
-8.78322e-07 4.87547e-06 -6.039e-05
0.000669782 -2.87909e-05 2.21816e-06
-2.87909e-05 6.83191e-05 -2.61676e-06
2.21816e-06 -2.61676e-06 6.59435e-06
0.000524681 2.71665e-05 2.08476e-07
2.71665e-05 -3.83708e-05 5.35307e-09
2.08476e-07 5.35307e-09 -5.96201e-05
0.00238041 8.15389e-05 -3.65057e-06
8.15389e-05 0.00109416 2.12871e-06
-3.65057e-06 2.12871e-06 0.0011022
0.000511049 1.87986e-05 9.13671e-07
1.87986e-05 -4.78583e-05 -4.73638e-06
9.13671e-07 -4.73638e-06 -6.82018e-05
0.00163534 4.82168e-05 1.06269e-05
4.82168e-05 0.000637031 -1.13583e-06
1.06269e-05 -1.13583e-06 0.000644112
0.00244711 4.70659e-05 1.37501e-05
4.70659e-05 0.00112747 -5.15887e-06
1.37501e-05 -5.15887e-06 0.00113995
0.00035533 8.0526e-06 9.17698e-07
8.0526e-06 -0.000100204 -1.45716e-06
9.17698e-07 -1.45716e-06 -0.000204239
0.00030338 3.94786e-06 3.76634e-07
3.94786e-06 -0.000151738 -2.71044e-06
3.76634e-07 -2.71044e-06 -0.000213675
0.000540671 1.94008e-05 -4.61794e-07
1.94008e-05 2.61819e-05 -1.12626e-06
-4.61794e-07 -1.12626e-06 -8.05325e-05
0.000552226 -9.96693e-06 9.36538e-07
-9.96693e-06 -2.7316e-05 -3.87268e-06
9.36538e-07 -3.87268e-06 -3.97401e-05
0.000266284 7.00229e-06 -5.3171e-07
7.00229e-06 -0.000171678 -1.38491e-06
-5.3171e-07 -1.38491e-06 -0.000227147
0.000707336 3.71711e-05 -3.62086e-07
3.71711e-05 0.00013267 1.31415e-06
-3.62086e-07 1.31415e-06 3.20479e-05
0.00212017 -2.34934e-05 -1.23367e-05
-2.34934e-05 0.000924739 -4.66768e-06
-1.23367e-05 -4.66768e-06 0.000942455
0.000541273 -5.6466e-06 -2.93367e-07
-5.6466e-06 -3.48058e-05 -5.4857e-08
-2.93367e-07 -5.4857e-08 -4.43348e-05
0.000224599 6.77618e-06 8.544e-07
6.77618e-06 -0.000195758 1.61052e-06
8.544e-07 1.61052e-06 -0.0002446
0.00204879 -8.71435e-06 -3.78034e-06
-8.71435e-06 0.000880959 4.58616e-08
-3.78034e-06 4.58616e-08 0.000899697
0.000534898 -1.55304e-06 -7.23298e-07
-1.55304e-06 -3.88474e-05 3.39268e-06
-7.23298e-07 3.39268e-06 -4.66076e-05
0.0020464 6.20664e-06 3.10829e-06
6.20664e-06 0.000880313 4.65755e-06
3.10829e-06 4.65755e-06 0.000898989
0.00058053 -5.53022e-06 3.14871e-05
-5.53022e-06 0.000650546 5.29547e-06
3.14871e-05 5.29547e-06 0.000581226
0.000408701 -0.000189437 -9.75764e-06
-0.000189437 6.42847e-05 -1.47262e-05
-9.75764e-06 -1.47262e-05 -0.00204731
0.0010311 0.000142828 2.97139e-05
0.000142828 0.00433417 -2.36863e-05
2.97139e-05 -2.36863e-05 0.00250545
0.000744877 0.000100847 -1.02665e-07
0.000100847 0.000141946 3.46972e-07
-1.02665e-07 3.46972e-07 1.21061e-05
0.000530825 6.96725e-05 2.47062e-06
6.96725e-05 -2.76027e-06 2.39437e-07
2.47062e-06 2.39437e-07 -0.000123586
0.000965482 0.000143237 3.63206e-06
0.000143237 0.000274392 3.54723e-06
3.63206e-06 3.54723e-06 0.000136236
0.00332217 -6.61676e-05 -9.98792e-07
-6.61676e-05 -0.000146059 0.000192111
-9.98792e-07 0.000192111 -0.000937733
0.00356974 -0.000335608 3.17423e-05
-0.000335608 0.00250491 -7.11433e-06
3.17423e-05 -7.11433e-06 0.00123342
0.00416315 -0.000738592 7.48532e-05
-0.000738592 0.00170343 -0.00014366
7.48532e-05 -0.00014366 -0.00200203
0.00698164 -0.00136509 -8.12076e-05
-0.00136509 0.000876026 -1.17682e-05
-8.12076e-05 -1.17682e-05 0.00080771
0.00199477 -0.00136227 -0.000178691
-0.00136227 -0.000517041 9.71218e-05
-0.000178691 9.71218e-05 -0.00326758
0.0145473 0.00216926 0.000123418
0.00216926 0.00537075 6.08551e-05
0.000123418 6.08551e-05 0.00391326
0.00405419 0.000238316 0.00011699
0.000238316 -0.00312717 -0.000132429
0.00011699 -0.000132429 -0.00260805
0.00518291 -0.00173394 -2.61575e-05
-0.00173394 0.000979873 8.51505e-06
-2.61575e-05 8.51505e-06 0.000517059
0.00683761 -0.00174469 -4.80632e-05
-0.00174469 0.00301272 2.42125e-05
-4.80632e-05 2.42125e-05 -0.000695023
-0.00329406 0.0018233 -5.06896e-05
0.0018233 0.000868757 -0.000176954
-5.06896e-05 -0.000176954 -0.00182297
0.00690259 0.00017047 -2.76404e-05
0.00017047 -0.00296883 7.61889e-05
-2.76404e-05 7.61889e-05 -0.000289718
0.000963184 -0.000941978 -5.2578e-05
-0.000941978 8.61412e-05 -4.0305e-06
-5.2578e-05 -4.0305e-06 -0.000372859
0.0115019 -0.00189055 -0.00011642
-0.00189055 0.00518872 8.67519e-05
-0.00011642 8.67519e-05 0.00111211
-0.00752809 -9.74096e-05 3.77755e-05
-9.74096e-05 0.000358529 -0.000243329
3.77755e-05 -0.000243329 -0.00231301
0.00571359 -0.00112198 5.49149e-05
-0.00112198 -0.00200655 2.69716e-06
5.49149e-05 2.69716e-06 -0.000963843
0.000584406 6.85294e-05 2.14288e-06
6.85294e-05 5.42619e-05 9.04983e-06
2.14288e-06 9.04983e-06 -8.79889e-05
0.000708516 -1.28422e-05 1.60052e-06
-1.28422e-05 0.000167419 -1.35222e-06
1.60052e-06 -1.35222e-06 -6.63424e-06
0.000833203 -9.86769e-05 -2.28243e-07
-9.86769e-05 0.000245843 -4.58973e-06
-2.28243e-07 -4.58973e-06 7.46613e-05
0.000707468 8.30181e-05 -1.08572e-06
8.30181e-05 0.000116102 -2.20393e-07
-1.08572e-06 -2.20393e-07 -2.19769e-05
0.0007546 0.000120451 2.74881e-07
0.000120451 0.000188846 -1.92733e-06
2.74881e-07 -1.92733e-06 3.78553e-05
0.00111189 0.000146677 -2.88404e-06
0.000146677 0.000398755 -1.64011e-06
-2.88404e-06 -1.64011e-06 0.000249059
-0.000297259 -0.000625006 1.8884e-05
-0.000625006 -0.0010527 6.58928e-06
1.8884e-05 6.58928e-06 -0.00104233
-0.000922068 -0.000193286 1.95136e-05
-0.000193286 -0.000787578 -1.51404e-05
1.95136e-05 -1.51404e-05 -0.00081501
0.00029598 3.12881e-05 -2.45351e-06
3.12881e-05 -7.71236e-05 -4.34992e-06
-2.45351e-06 -4.34992e-06 -0.000249666
0.00142002 -0.000304213 4.2073e-05
-0.000304213 0.000691146 -2.78266e-05
4.2073e-05 -2.78266e-05 0.000392738
0.00146068 -3.23599e-07 -4.70364e-06
-3.23599e-07 0.000716587 -5.78315e-06
-4.70364e-06 -5.78315e-06 0.000468304
0.000587445 7.24199e-05 5.67457e-07
7.24199e-05 7.44108e-05 2.51155e-06
5.67457e-07 2.51155e-06 -7.10374e-05
0.000726297 0.000132775 3.56088e-07
0.000132775 0.0002271 -2.1097e-06
3.56088e-07 -2.1097e-06 6.23282e-05
0.000339099 -0.000643409 1.88137e-07
-0.000643409 -0.000424812 -5.4802e-06
1.88137e-07 -5.4802e-06 -0.000499866
0.000622087 -7.96063e-06 -1.56445e-06
-7.96063e-06 0.000465456 8.38919e-07
-1.56445e-06 8.38919e-07 0.000100341
0.000275912 -0.00014698 1.58953e-06
-0.00014698 0.00021915 -3.43812e-06
1.58953e-06 -3.43812e-06 1.76355e-05
0.00111602 0.000126057 2.57457e-06
0.000126057 0.000415458 -6.18228e-06
2.57457e-06 -6.18228e-06 0.000286456
-0.00227093 -6.50832e-05 -6.17805e-05
-6.50832e-05 -0.000754726 -2.10885e-05
-6.17805e-05 -2.10885e-05 -0.00130531
-0.000156566 -3.91999e-05 7.14026e-06
-3.91999e-05 5.28313e-05 1.43563e-05
7.14026e-06 1.43563e-05 -0.000139013
0.0010252 4.45436e-05 8.31459e-06
4.45436e-05 0.000642753 3.92092e-06
8.31459e-06 3.92092e-06 0.000355106
0.000559771 6.1837e-06 -1.0869e-06
6.1837e-06 -0.000365483 8.43816e-07
-1.0869e-06 8.43816e-07 -0.000813434
-0.000343762 1.62574e-05 -6.34091e-06
1.62574e-05 0.000513436 -1.43888e-05
-6.34091e-06 -1.43888e-05 1.1904e-05
0.000330506 -5.40019e-05 0.000214619
-5.40019e-05 0.000780278 -3.91776e-06
0.000214619 -3.91776e-06 -0.00170823
0.000170757 0.000220885 3.99025e-06
0.000220885 0.000182817 1.83148e-05
3.99025e-06 1.83148e-05 -5.1767e-05
0.000911181 0.000506068 3.47033e-06
0.000506068 0.000235098 -9.95703e-06
3.47033e-06 -9.95703e-06 -0.00014445
-0.000448874 -3.82234e-05 9.51284e-06
-3.82234e-05 -0.000125337 -1.6062e-06
9.51284e-06 -1.6062e-06 -0.000146095
-0.00338472 0.000608285 4.55721e-05
0.000608285 0.000779884 9.77136e-05
4.55721e-05 9.77136e-05 -0.00350972
-0.0089003 0.000768206 -0.000118346
0.000768206 -0.00352532 -0.000307707
-0.000118346 -0.000307707 -0.00618542
0.0029332 8.38387e-05 4.79659e-05
8.38387e-05 0.000275643 7.98238e-05
4.79659e-05 7.98238e-05 7.7213e-05
0.00406701 0.000309557 -0.000123973
0.000309557 -0.00305304 0.000133176
-0.000123973 0.000133176 -0.00258917
0.000488351 0.000213307 4.56472e-06
0.000213307 0.00041166 -1.12623e-06
4.56472e-06 -1.12623e-06 0.000142917
0.00127368 1.96601e-05 1.82948e-05
1.96601e-05 -0.000446877 -2.87928e-05
1.82948e-05 -2.87928e-05 -0.000148637
0.00347752 -0.000251785 -3.20874e-05
-0.000251785 0.00245045 7.28757e-06
-3.20874e-05 7.28757e-06 0.00118492
0.000915208 0.000313861 -6.55616e-05
0.000313861 0.000763638 -5.28865e-06
-6.55616e-05 -5.28865e-06 -5.24075e-05
0.0063803 0.00229767 7.47152e-05
0.00229767 -0.000407642 -0.000222451
7.47152e-05 -0.000222451 -0.000856733
-0.00244475 0.0015488 4.84349e-05
0.0015488 0.000487957 0.000174378
4.84349e-05 0.000174378 -0.0018339
0.0072832 0.00019381 5.36536e-05
0.00019381 0.00616471 -2.55677e-05
5.36536e-05 -2.55677e-05 0.000310806
0.00138015 -4.64058e-05 4.99168e-05
-4.64058e-05 0.00138 -2.1579e-05
4.99168e-05 -2.1579e-05 0.000780922
0.000628761 1.61093e-05 -2.98436e-05
1.61093e-05 0.000630274 4.38102e-07
-2.98436e-05 4.38102e-07 0.000566596
0.00310587 -0.000528719 0.000392021
-0.000528719 0.0010248 -0.00019002
0.000392021 -0.00019002 -0.00250116
0.00760803 0.00304453 6.68419e-06
0.00304453 0.00585822 -2.75832e-06
6.68419e-06 -2.75832e-06 0.00552355
-0.00205725 0.00177942 1.70988e-05
0.00177942 -0.00307763 0.000435003
1.70988e-05 0.000435003 -0.00395182
0.0128558 -0.00189279 0.000149041
-0.00189279 0.00544348 -0.000135903
0.000149041 -0.000135903 0.0012244
0.0030607 -0.000525611 -6.17607e-05
-0.000525611 0.00163568 6.16972e-05
-6.17607e-05 6.16972e-05 0.00113922
0.00109476 0.000182191 7.9547e-06
0.000182191 0.000801787 5.10392e-06
7.9547e-06 5.10392e-06 0.000527963
0.000159676 -8.05618e-06 -2.26068e-05
-8.05618e-06 0.000279206 5.05984e-07
-2.26068e-05 5.05984e-07 8.01144e-05
0.00157245 -0.00032677 2.40996e-05
-0.00032677 0.000997105 -9.27374e-06
2.40996e-05 -9.27374e-06 0.000658482
0.000780258 -7.9381e-05 1.21624e-06
-7.9381e-05 0.000304663 3.17467e-06
1.21624e-06 3.17467e-06 0.000183762
2.84312e-05 -4.22127e-05 -2.30243e-06
-4.22127e-05 0.000103228 3.13427e-06
-2.30243e-06 3.13427e-06 -0.000111929
0.000508182 -0.000216321 -1.65307e-06
-0.000216321 0.000343941 -7.05046e-07
-1.65307e-06 -7.05046e-07 0.000130552
0.00136503 -0.000384057 2.44127e-05
-0.000384057 0.000605003 -1.98523e-05
2.44127e-05 -1.98523e-05 0.000397924
0.00215424 -0.000249458 -4.90117e-06
-0.000249458 0.00097831 4.18347e-06
-4.90117e-06 4.18347e-06 0.000838913
0.00192367 -0.000427 7.07238e-06
-0.000427 0.000823749 -1.19183e-06
7.07238e-06 -1.19183e-06 0.000562173
0.00171275 -0.000436812 1.43049e-05
-0.000436812 0.000697758 9.91814e-07
1.43049e-05 9.91814e-07 0.000263032
0.000361762 -0.000192122 -3.07867e-06
-0.000192122 -0.000148596 -1.98978e-06
-3.07867e-06 -1.98978e-06 -0.000304032
0.0014301 -0.000374284 -3.03722e-06
-0.000374284 0.000345006 9.9378e-07
-3.03722e-06 9.9378e-07 4.24613e-05
0.00191105 -0.000501229 -4.091e-07
-0.000501229 0.000563958 1.29817e-06
-4.091e-07 1.29817e-06 0.000169282
0.0016402 -0.000505666 -3.75733e-06
-0.000505666 0.000302677 2.52216e-06
-3.75733e-06 2.52216e-06 -3.57516e-05
0.00136505 -0.000375083 -2.01177e-06
-0.000375083 0.000257213 1.9184e-06
-2.01177e-06 1.9184e-06 -1.86531e-05
0.00139629 -0.000393371 -2.56629e-06
-0.000393371 0.000249363 1.4895e-06
-2.56629e-06 1.4895e-06 -5.04282e-05
0.00116025 -0.00031325 -6.3162e-06
-0.00031325 0.000196418 2.00214e-06
-6.3162e-06 2.00214e-06 -7.57277e-05
0.00233528 -0.000407349 4.89715e-06
-0.000407349 0.000930745 -8.65969e-07
4.89715e-06 -8.65969e-07 0.000677234
0.00163266 -0.000352887 3.16148e-06
-0.000352887 0.000466767 -2.62447e-06
3.16148e-06 -2.62447e-06 0.00022065
-0.000117991 -7.5202e-05 1.2372e-06
-7.5202e-05 -0.000391688 1.35694e-06
1.2372e-06 1.35694e-06 -0.000584617
0.000881732 -0.000230886 2.42351e-06
-0.000230886 0.000183836 -1.57011e-06
2.42351e-06 -1.57011e-06 -4.67399e-05
0.00123417 -0.000285996 5.86792e-06
-0.000285996 0.000291204 -4.87004e-06
5.86792e-06 -4.87004e-06 4.89449e-05
0.000152667 -6.98331e-06 7.56846e-07
-6.98331e-06 -0.000205 1.69404e-06
7.56846e-07 1.69404e-06 -0.000347015
0.000940411 -0.000131867 -5.57192e-07
-0.000131867 0.000295447 -3.63777e-08
-5.57192e-07 -3.63777e-08 0.000114293
0.00099295 -0.000237809 -1.45261e-06
-0.000237809 0.00032886 -1.80826e-06
-1.45261e-06 -1.80826e-06 0.000116667
0.000642036 6.5086e-06 -9.60931e-07
6.5086e-06 5.80726e-05 3.81622e-06
-9.60931e-07 3.81622e-06 -2.21703e-05
0.000763948 -4.92258e-05 -2.28557e-07
-4.92258e-05 0.000145914 -2.17653e-07
-2.28557e-07 -2.17653e-07 3.046e-05
0.000413678 -5.6033e-05 2.14656e-07
-5.6033e-05 -2.10895e-05 6.18758e-07
2.14656e-07 6.18758e-07 -0.000163755
0.000736495 -5.30617e-05 2.11987e-07
-5.30617e-05 0.00013883 -1.35914e-06
2.11987e-07 -1.35914e-06 2.77094e-05
0.000621842 -1.0214e-05 -2.15918e-07
-1.0214e-05 4.07742e-05 -2.45675e-07
-2.15918e-07 -2.45675e-07 -2.95616e-05
0.000516437 4.48056e-05 -1.29269e-07
4.48056e-05 -2.96275e-05 5.63998e-06
-1.29269e-07 5.63998e-06 -5.68456e-05
0.00062851 -1.86919e-05 1.65817e-06
-1.86919e-05 4.39157e-05 -2.61103e-06
1.65817e-06 -2.61103e-06 -2.05565e-05
0.000532264 3.94299e-05 -4.16173e-07
3.94299e-05 -2.75256e-05 -6.37194e-08
-4.16173e-07 -6.37194e-08 -5.1468e-05
0.00244693 8.94816e-05 -2.70411e-05
8.94816e-05 0.00114147 4.10256e-06
-2.70411e-05 4.10256e-06 0.0011483
0.000528585 2.79879e-05 1.02923e-06
2.79879e-05 -3.59304e-05 -4.73199e-06
1.02923e-06 -4.73199e-06 -5.73002e-05
0.00161335 6.08675e-05 1.27102e-05
6.08675e-05 0.000628548 -9.3795e-07
1.27102e-05 -9.3795e-07 0.000633832
0.00247555 6.31351e-05 1.79686e-05
6.31351e-05 0.00114831 -4.83932e-06
1.79686e-05 -4.83932e-06 0.00115902
0.000695473 7.19324e-05 1.24708e-06
7.19324e-05 0.000112503 -6.75962e-07
1.24708e-06 -6.75962e-07 -1.39142e-07
0.000587355 3.15059e-05 1.26147e-07
3.15059e-05 1.7692e-05 -2.32439e-06
1.26147e-07 -2.32439e-06 -4.74588e-05
0.000525979 4.26026e-05 -1.18737e-06
4.26026e-05 1.53621e-05 -1.20676e-06
-1.18737e-06 -1.20676e-06 -9.7325e-05
0.000536712 -1.28737e-05 6.62937e-07
-1.28737e-05 -3.57975e-05 -4.4329e-06
6.62937e-07 -4.4329e-06 -5.16567e-05
0.000409937 2.35905e-05 -1.71041e-06
2.35905e-05 -8.67706e-05 -1.37734e-06
-1.71041e-06 -1.37734e-06 -0.000147675
0.000739113 5.08859e-05 -5.9672e-07
5.08859e-05 0.000146034 -1.18038e-06
-5.9672e-07 -1.18038e-06 4.03289e-05
0.00221513 -3.79144e-05 -1.70116e-05
-3.79144e-05 0.000983548 -4.65135e-06
-1.70116e-05 -4.65135e-06 0.000999683
0.000536139 -1.04998e-05 -1.64572e-07
-1.04998e-05 -3.73614e-05 -8.63745e-08
-1.64572e-07 -8.63745e-08 -4.95081e-05
0.000207515 5.70928e-06 -1.0735e-06
5.70928e-06 -0.000207379 5.47359e-07
-1.0735e-06 5.47359e-07 -0.000263707
0.00213427 -2.24397e-05 -4.42766e-06
-2.24397e-05 0.000933118 1.02521e-07
-4.42766e-06 1.02521e-07 0.000950909
0.000535743 -6.77538e-06 -9.83513e-07
-6.77538e-06 -3.82876e-05 3.41998e-06
-9.83513e-07 3.41998e-06 -4.76583e-05
0.00207298 -7.23067e-06 7.87995e-06
-7.23067e-06 0.000895493 4.7098e-06
7.87995e-06 4.7098e-06 0.000914181
0.00136881 -6.80781e-05 -1.75833e-05
-6.80781e-05 -0.000343317 2.25172e-05
-1.75833e-05 2.25172e-05 -0.000106495
0.000531391 -7.1032e-05 1.93762e-05
-7.1032e-05 0.000586581 -1.39367e-06
1.93762e-05 -1.39367e-06 0.000527497
0.000583803 -0.000178276 0.000123945
-0.000178276 0.000227462 -4.95249e-05
0.000123945 -4.95249e-05 -0.00194039
0.00048716 3.30878e-05 1.68859e-06
3.30878e-05 -4.13006e-05 3.11765e-07
1.68859e-06 3.11765e-07 -0.000157198
0.00109507 7.19637e-05 -2.67978e-07
7.19637e-05 0.000312812 2.26138e-06
-2.67978e-07 2.26138e-06 0.000181087
0.000776827 0.000111185 -8.6685e-07
0.000111185 0.000160653 -6.60352e-07
-8.6685e-07 -6.60352e-07 3.50327e-05
0.000546381 5.5206e-05 3.02113e-07
5.5206e-05 -1.7394e-06 4.33665e-07
3.02113e-07 4.33665e-07 -0.000116182
0.000651563 7.30602e-05 1.54618e-07
7.30602e-05 8.09727e-05 2.11492e-07
1.54618e-07 2.11492e-07 -4.80006e-05
0.000618222 6.53377e-05 1.96272e-06
6.53377e-05 5.13083e-05 -7.87691e-07
1.96272e-06 -7.87691e-07 -6.96e-05
0.000646049 0.000157703 5.14374e-06
0.000157703 0.000108536 3.82038e-06
5.14374e-06 3.82038e-06 -3.96132e-05
0.000144498 0.000155546 7.09823e-05
0.000155546 -0.000243049 0.000188699
7.09823e-05 0.000188699 -0.00154564
0.00300897 -4.34975e-05 -1.64191e-05
-4.34975e-05 0.000146577 5.45338e-05
-1.64191e-05 5.45338e-05 -0.000461914
0.00341582 -0.000250933 5.32629e-05
-0.000250933 0.00236558 -7.62711e-05
5.32629e-05 -7.62711e-05 0.00137002
0.00500694 -0.000133399 -9.04598e-06
-0.000133399 -0.00483986 8.54512e-05
-9.04598e-06 8.54512e-05 -0.00155597
0.00318113 -0.00145174 -9.15795e-05
-0.00145174 0.000937733 6.79078e-05
-9.15795e-05 6.79078e-05 0.0002828
-0.00183558 -0.00182835 -5.37535e-05
-0.00182835 6.54194e-05 9.29724e-05
-5.37535e-05 9.29724e-05 -0.00430765
0.0103795 0.00237292 8.50817e-05
0.00237292 0.00529681 -8.25556e-05
8.50817e-05 -8.25556e-05 0.00281933
0.00312793 -0.00129052 -3.26943e-05
-0.00129052 0.000721127 8.31313e-06
-3.26943e-05 8.31313e-06 0.00044367
-0.000933881 -0.000543832 1.69444e-05
-0.000543832 0.0019824 3.51849e-05
1.69444e-05 3.51849e-05 -0.00307294
0.00509894 0.000255939 5.57067e-05
0.000255939 0.00260737 -1.27614e-05
5.57067e-05 -1.27614e-05 0.000747287
0.0108954 -0.00157313 -3.62265e-05
-0.00157313 0.00142267 -3.60589e-05
-3.62265e-05 -3.60589e-05 0.00272041
-0.000427742 -0.000185108 -0.000105369
-0.000185108 -0.000588991 8.33414e-05
-0.000105369 8.33414e-05 -0.000326717
0.00129971 0.0016278 -8.63895e-05
0.0016278 0.00264953 -8.25704e-05
-8.63895e-05 -8.25704e-05 -0.00249597
-0.00567715 -0.00267048 5.15301e-05
-0.00267048 -0.00290818 -0.000169729
5.15301e-05 -0.000169729 -0.00562956
0.00734214 -0.00169259 7.29446e-05
-0.00169259 0.000314091 -0.000336988
7.29446e-05 -0.000336988 0.000600093
0.000945539 2.8942e-05 7.3943e-06
2.8942e-05 0.000299992 2.17354e-06
7.3943e-06 2.17354e-06 0.000166451
0.000658868 9.22081e-05 -5.8601e-07
9.22081e-05 0.000105902 -1.0816e-06
-5.8601e-07 -1.0816e-06 -3.70467e-05
0.000796405 -1.41954e-05 -2.91822e-07
-1.41954e-05 0.000234143 -2.74544e-06
-2.91822e-07 -2.74544e-06 4.49191e-05
0.000822393 7.62448e-05 -2.19652e-06
7.62448e-05 0.000201313 -5.47258e-06
-2.19652e-06 -5.47258e-06 5.00502e-05
0.000265421 -0.000501466 -5.19439e-06
-0.000501466 -0.000416376 3.60978e-05
-5.19439e-06 3.60978e-05 -0.000533717
0.00106848 -0.000140671 -1.29134e-05
-0.000140671 0.000770368 -1.7793e-05
-1.29134e-05 -1.7793e-05 0.000513888
0.000785426 5.65408e-05 -3.74983e-06
5.65408e-05 0.000171784 -6.50369e-06
-3.74983e-06 -6.50369e-06 4.63004e-05
0.000685624 0.000175382 -1.06546e-06
0.000175382 0.000214068 3.91644e-06
-1.06546e-06 3.91644e-06 4.47727e-05
0.00212344 2.03741e-05 4.2648e-06
2.03741e-05 0.0012548 -1.64825e-05
4.2648e-06 -1.64825e-05 0.00098297
0.000915358 7.78427e-05 4.38672e-06
7.78427e-05 0.000274591 3.44102e-06
4.38672e-06 3.44102e-06 0.000160714
0.000527253 0.000125461 -2.08245e-06
0.000125461 0.000386753 -7.11824e-07
-2.08245e-06 -7.11824e-07 7.0227e-05
0.000915809 -0.000170344 1.41672e-06
-0.000170344 0.000842838 -2.11358e-06
1.41672e-06 -2.11358e-06 0.00015415
7.89747e-06 -1.07311e-05 2.49406e-05
-1.07311e-05 0.000226328 -1.72005e-06
2.49406e-05 -1.72005e-06 2.73125e-07
0.000654559 0.000137828 1.54609e-06
0.000137828 0.000379265 -3.13641e-06
1.54609e-06 -3.13641e-06 0.000170194
-2.08396e-05 -3.66018e-05 -3.72282e-05
-3.66018e-05 0.000980141 -4.39907e-05
-3.72282e-05 -4.39907e-05 -0.000349983
0.00281937 0.000185167 1.58568e-05
0.000185167 0.00168521 2.21666e-05
1.58568e-05 2.21666e-05 0.00137768
-0.000115606 2.66251e-05 -1.35775e-05
2.66251e-05 0.00082027 1.40307e-05
-1.35775e-05 1.40307e-05 0.000159803
0.00113398 -1.8166e-05 2.9471e-07
-1.8166e-05 -0.000111134 4.39281e-07
2.9471e-07 4.39281e-07 -0.000200799
-0.000539231 1.20991e-05 4.68152e-06
1.20991e-05 0.000227483 -2.51838e-05
4.68152e-06 -2.51838e-05 -0.000111172
0.00017976 0.00013753 -3.24179e-06
0.00013753 0.000307993 6.48632e-06
-3.24179e-06 6.48632e-06 9.17662e-05
-0.00130226 0.000408797 7.41092e-05
0.000408797 -0.00079181 6.31403e-05
7.41092e-05 6.31403e-05 -0.00116331
0.00110553 -1.40049e-05 2.51056e-05
-1.40049e-05 -0.000521996 -6.08576e-06
2.51056e-05 -6.08576e-06 -0.000152175
0.00254711 -0.001443 0.000133965
-0.001443 0.00365816 -0.00013314
0.000133965 -0.00013314 -0.00258057
0.0111548 0.00228626 -9.82733e-05
0.00228626 0.00512275 7.68872e-05
-9.82733e-05 7.68872e-05 0.00295469
0.00351297 -0.000183431 -6.0697e-05
-0.000183431 0.00229621 8.16588e-05
-6.0697e-05 8.16588e-05 0.00133342
0.0071737 0.00233351 -2.34848e-05
0.00233351 0.00114313 -7.57112e-05
-2.34848e-05 -7.57112e-05 0.00013367
0.000189277 0.000124341 -4.41067e-05
0.000124341 0.000678406 1.15644e-05
-4.41067e-05 1.15644e-05 4.03171e-05
0.000662962 -1.99003e-05 -2.26469e-05
-1.99003e-05 0.000560345 1.66973e-06
-2.26469e-05 1.66973e-06 0.000559624
0.00364652 -0.000625614 0.00015277
-0.000625614 0.00133913 -1.31646e-05
0.00015277 -1.31646e-05 -0.00217761
-0.000494254 -0.000194427 1.68027e-05
-0.000194427 -0.000316636 2.65197e-05
1.68027e-05 2.65197e-05 -0.0005266
0.000922672 0.00332806 0.000223026
0.00332806 0.00210747 -0.000109458
0.000223026 -0.000109458 0.00228263
0.00780313 0.00148869 -9.17102e-05
0.00148869 0.000958815 0.000171527
-9.17102e-05 0.000171527 -2.4503e-05
-0.00305594 -0.000831397 8.04149e-05
-0.000831397 0.00122421 -8.85935e-05
8.04149e-05 -8.85935e-05 -0.00441189
0.000349586 -0.000244031 3.97002e-05
-0.000244031 0.000506018 -1.23039e-05
3.97002e-05 -1.23039e-05 -5.29557e-05
0.000408161 -0.000271332 0.000125413
-0.000271332 -0.000292633 -3.21419e-05
0.000125413 -3.21419e-05 -0.00211903
-0.0022516 6.86363e-06 -0.000402895
6.86363e-06 0.00323355 7.17474e-05
-0.000402895 7.17474e-05 0.000954057
0.0063141 0.00314095 -0.00030779
0.00314095 0.00108967 0.000368265
-0.00030779 0.000368265 0.000840916
0.00786496 -0.00137634 -4.61495e-05
-0.00137634 0.00355657 1.45724e-05
-4.61495e-05 1.45724e-05 2.90378e-05
0.00287922 -0.000756244 -5.76787e-05
-0.000756244 0.00137085 3.85177e-05
-5.76787e-05 3.85177e-05 0.00094495
-0.00040489 1.19006e-05 2.05541e-05
1.19006e-05 -6.95125e-05 9.53044e-06
2.05541e-05 9.53044e-06 -0.000277593
0.000349595 -0.000236469 1.8631e-07
-0.000236469 0.000359908 4.72401e-07
1.8631e-07 4.72401e-07 2.63558e-05
0.00104055 -0.000423424 1.54096e-05
-0.000423424 0.000431515 -2.7202e-06
1.54096e-05 -2.7202e-06 0.000291376
-0.000469762 -0.000185618 -4.91686e-06
-0.000185618 -0.000153784 7.31073e-06
-4.91686e-06 7.31073e-06 -0.000364913
-0.000710855 -0.000214335 2.56511e-07
-0.000214335 -0.000467913 -2.41758e-06
2.56511e-07 -2.41758e-06 -0.000678368
0.00290868 -0.00059945 3.77855e-05
-0.00059945 0.00116251 -3.9026e-06
3.77855e-05 -3.9026e-06 0.000899757
0.00480934 -0.00072855 -1.1162e-05
-0.00072855 0.00236312 4.25689e-06
-1.1162e-05 4.25689e-06 0.00206948
0.00250152 -0.000521093 7.74426e-06
-0.000521093 0.00105628 1.07728e-07
7.74426e-06 1.07728e-07 0.000642523
0.00147533 -0.000497793 9.33481e-06
-0.000497793 0.000340662 -8.19085e-06
9.33481e-06 -8.19085e-06 -0.000105552
0.00149836 -0.000378235 -9.43244e-06
-0.000378235 0.000359983 2.04224e-06
-9.43244e-06 2.04224e-06 5.65494e-05
0.00213434 -0.000533662 1.28715e-06
-0.000533662 0.000659687 5.03235e-07
1.28715e-06 5.03235e-07 0.000256736
0.0021367 -0.000565881 2.74135e-06
-0.000565881 0.000618018 -6.73237e-06
2.74135e-06 -6.73237e-06 0.000211408
0.00198199 -0.000515247 -1.4833e-06
-0.000515247 0.000400462 -3.62709e-06
-1.4833e-06 -3.62709e-06 0.000102817
0.00182926 -0.000519143 -6.65579e-07
-0.000519143 0.000388183 2.38545e-06
-6.65579e-07 2.38545e-06 7.18505e-05
0.00178225 -0.000523718 -1.40862e-06
-0.000523718 0.000381914 1.05711e-08
-1.40862e-06 1.05711e-08 3.54995e-05
0.00144692 -0.000361457 5.47169e-06
-0.000361457 0.000314796 6.67895e-07
5.47169e-06 6.67895e-07 6.26312e-05
0.00132952 -0.000363961 1.28421e-06
-0.000363961 0.000235164 2.95903e-07
1.28421e-06 2.95903e-07 -3.1376e-05
0.00133108 -0.000389388 9.03136e-07
-0.000389388 0.00021124 -4.11443e-07
9.03136e-07 -4.11443e-07 -9.17006e-05
0.00133998 -0.000286686 3.45933e-06
-0.000286686 0.000388526 1.76592e-06
3.45933e-06 1.76592e-06 0.000149584
0.00134301 -0.000309145 -1.77e-06
-0.000309145 0.000330323 -9.7797e-07
-1.77e-06 -9.7797e-07 9.39427e-05
0.000881603 -0.000277384 7.85841e-06
-0.000277384 1.76318e-05 -4.62397e-06
7.85841e-06 -4.62397e-06 -0.000213136
0.000400674 -0.000113796 2.41518e-06
-0.000113796 -4.24647e-05 7.17221e-07
2.41518e-06 7.17221e-07 -0.000238922
0.000472853 -0.000132944 -1.01657e-06
-0.000132944 -1.87154e-05 1.47322e-06
-1.01657e-06 1.47322e-06 -0.000223679
0.00149213 -0.000299751 3.65534e-06
-0.000299751 0.000558748 -5.65857e-06
3.65534e-06 -5.65857e-06 0.000316625
0.000472806 6.50376e-06 3.10666e-07
6.50376e-06 -4.15606e-05 4.5701e-06
3.10666e-07 4.5701e-06 -0.000135455
0.000695206 -4.86354e-05 -5.71858e-07
-4.86354e-05 0.000128702 -6.73872e-08
-5.71858e-07 -6.73872e-08 -2.50893e-05
0.001328 -0.000184349 7.10258e-07
-0.000184349 0.000534273 -7.13816e-07
7.10258e-07 -7.13816e-07 0.00034258
0.000495553 4.39727e-05 -1.82795e-06
4.39727e-05 -3.56568e-05 8.11227e-06
-1.82795e-06 8.11227e-06 -6.62408e-05
0.000637252 2.27315e-06 -3.43622e-07
2.27315e-06 5.2204e-05 -2.82274e-07
-3.43622e-07 -2.82274e-07 -2.77237e-05
0.000990642 -7.67339e-05 -7.27805e-08
-7.67339e-05 0.000288121 -1.51136e-06
-7.27805e-08 -1.51136e-06 0.000164079
0.000660177 -1.07142e-05 1.19992e-06
-1.07142e-05 6.30186e-05 -3.20194e-06
1.19992e-06 -3.20194e-06 -7.52786e-06
0.00052569 4.5512e-05 3.45925e-07
4.5512e-05 -2.35427e-05 1.27076e-08
3.45925e-07 1.27076e-08 -5.11305e-05
0.0025108 0.000107323 -2.84176e-05
0.000107323 0.00118837 3.76958e-06
-2.84176e-05 3.76958e-06 0.00119131
0.000545109 4.27077e-05 -2.96021e-07
4.27077e-05 -1.96548e-05 -5.21033e-06
-2.96021e-07 -5.21033e-06 -4.41327e-05
0.00246966 9.26998e-05 3.0876e-06
9.26998e-05 0.00115605 3.09211e-07
3.0876e-06 3.09211e-07 0.00116226
0.00244767 7.81736e-05 2.15206e-05
7.81736e-05 0.00113652 -4.35592e-06
2.15206e-05 -4.35592e-06 0.00114537
0.000696066 7.12192e-05 2.0713e-07
7.12192e-05 0.000126616 -8.17424e-07
2.0713e-07 -8.17424e-07 -1.66103e-05
0.00076708 9.2838e-05 1.71467e-06
9.2838e-05 0.000166182 -1.19169e-06
1.71467e-06 -1.19169e-06 3.5719e-05
0.000619821 2.35611e-05 3.68777e-07
2.35611e-05 3.73103e-05 -2.72859e-06
3.68777e-07 -2.72859e-06 -3.44417e-05
0.000678352 8.52696e-05 2.86656e-08
8.52696e-05 0.000100241 -1.0842e-07
2.86656e-08 -1.0842e-07 -1.1872e-05
0.000526796 -1.42435e-05 -3.80375e-07
-1.42435e-05 -3.87218e-05 -5.17702e-06
-3.80375e-07 -5.17702e-06 -5.87079e-05
0.000598664 3.31309e-05 1.00035e-07
3.31309e-05 2.51115e-05 -1.02401e-07
1.00035e-07 -1.02401e-07 -4.00997e-05
0.000606813 4.49309e-05 -2.55811e-06
4.49309e-05 5.26482e-05 -3.44712e-08
-2.55811e-06 -3.44712e-08 -5.09751e-05
0.00232375 -5.26546e-05 -2.22926e-05
-5.26546e-05 0.00105169 -4.6287e-06
-2.22926e-05 -4.6287e-06 0.00106566
0.000535223 -1.52913e-05 -4.23871e-07
-1.52913e-05 -3.61641e-05 -7.44658e-08
-4.23871e-07 -7.44658e-08 -5.19803e-05
0.000523367 3.68967e-05 -1.77056e-06
3.68967e-05 -1.77135e-05 6.33112e-07
-1.77056e-06 6.33112e-07 -7.75312e-05
0.00220423 -3.66793e-05 -4.28142e-06
-3.66793e-05 0.00097669 1.7528e-07
-4.28142e-06 1.7528e-07 0.000993073
0.000535489 -1.04354e-05 -1.05152e-06
-1.04354e-05 -3.80176e-05 3.63591e-06
-1.05152e-06 3.63591e-06 -4.99197e-05
0.00210956 -2.1183e-05 1.20741e-05
-2.1183e-05 0.000917812 4.65101e-06
1.20741e-05 4.65101e-06 0.000935839
-0.000320028 -5.06313e-05 -3.49751e-06
-5.06313e-05 -9.34887e-05 2.34529e-06
-3.49751e-06 2.34529e-06 5.28325e-05
0.00132239 -0.000102766 -1.75255e-05
-0.000102766 -0.000420142 2.78261e-05
-1.75255e-05 2.78261e-05 -0.000109727
0.000569171 -0.000103227 1.0458e-05
-0.000103227 0.000561396 -1.83434e-05
1.0458e-05 -1.83434e-05 0.000485226
0.000741947 7.22165e-05 -2.27152e-07
7.22165e-05 0.000137687 1.68004e-07
-2.27152e-07 1.68004e-07 3.7773e-06
0.000660503 5.85566e-05 1.7269e-06
5.85566e-05 5.5348e-05 -4.83326e-07
1.7269e-06 -4.83326e-07 -7.10786e-05
-0.000267994 2.86714e-05 -4.31037e-06
2.86714e-05 -0.000491938 -4.76376e-06
-4.31037e-06 -4.76376e-06 -0.000603538
0.000305589 1.98572e-05 1.62921e-06
1.98572e-05 -0.000136174 3.75024e-06
1.62921e-06 3.75024e-06 -0.000260326
0.00170518 0.000206339 -7.18177e-07
0.000206339 0.000726142 2.14497e-07
-7.18177e-07 2.14497e-07 0.000556382
0.000662051 3.4551e-05 -2.42602e-06
3.4551e-05 6.00702e-05 -1.68253e-07
-2.42602e-06 -1.68253e-07 -5.10441e-05
0.000647344 6.25814e-05 -3.05154e-06
6.25814e-05 6.96827e-05 -3.87986e-06
-3.05154e-06 -3.87986e-06 -5.18428e-05
0.000752849 6.94586e-05 -7.12194e-08
6.94586e-05 0.000133794 -2.19982e-07
-7.12194e-08 -2.19982e-07 9.76623e-06
0.000964914 0.000114761 8.76832e-08
0.000114761 0.000275447 -3.01413e-07
8.76832e-08 -3.01413e-07 0.000141283
0.000950945 8.93984e-05 3.54209e-06
8.93984e-05 0.000305203 -2.0376e-06
3.54209e-06 -2.0376e-06 0.000152826
0.00344708 0.00033996 0.000219852
0.00033996 0.00241586 0.0002858
0.000219852 0.0002858 -0.00125307
0.000698629 0.000168161 1.07416e-05
0.000168161 -3.98903e-05 7.33691e-05
1.07416e-05 7.33691e-05 -0.00154602
0.00275672 -4.88154e-05 -1.19704e-05
-4.88154e-05 0.000373696 -9.67862e-06
-1.19704e-05 -9.67862e-06 -2.53434e-05
0.0110949 -0.00136693 -0.000119111
-0.00136693 0.0015241 -0.000120308
-0.000119111 -0.000120308 0.00306174
-0.00878794 0.00115212 -3.37702e-06
0.00115212 -0.00311411 0.000299506
-3.37702e-06 0.000299506 -0.0060372
0.0047731 -0.00143378 -0.000116507
-0.00143378 0.00171319 2.69601e-05
-0.000116507 2.69601e-05 0.00146857
0.0109917 -0.00120762 -8.67612e-05
-0.00120762 0.00500601 -2.42568e-06
-8.67612e-05 -2.42568e-06 0.00120462
0.00188785 -0.000344344 -2.81723e-05
-0.000344344 0.000459662 7.43566e-05
-2.81723e-05 7.43566e-05 0.000326284
0.0112284 -0.000171514 -3.36002e-05
-0.000171514 0.00598683 -1.12182e-05
-3.36002e-05 -1.12182e-05 0.00109124
0.00296947 -0.00164817 6.53748e-05
-0.00164817 0.00120022 9.13697e-05
6.53748e-05 9.13697e-05 -0.00122163
0.00716551 -0.00210567 -0.000159245
-0.00210567 -0.000477954 -0.000404657
-0.000159245 -0.000404657 -0.000197677
0.00280936 0.000134118 -0.000116767
0.000134118 0.00113348 6.11516e-05
-0.000116767 6.11516e-05 0.000556116
0.0106334 0.00139515 -7.40046e-05
0.00139515 0.00501754 1.68649e-05
-7.40046e-05 1.68649e-05 0.00112627
0.0122589 -0.00293888 -0.000116078
-0.00293888 0.00459329 -0.000358106
-0.000116078 -0.000358106 0.00366589
0.0106329 -0.00352667 8.81785e-05
-0.00352667 0.00292804 -1.28252e-05
8.81785e-05 -1.28252e-05 0.00345391
0.000220478 8.33818e-05 7.60055e-06
8.33818e-05 -4.46499e-05 -1.0717e-06
7.60055e-06 -1.0717e-06 -0.000198248
0.000798915 2.98953e-05 1.40243e-06
2.98953e-05 0.000234189 2.37549e-06
1.40243e-06 2.37549e-06 7.99556e-05
0.000676761 0.000103683 -3.80284e-06
0.000103683 0.000118178 -6.71963e-06
-3.80284e-06 -6.71963e-06 -2.73487e-05
0.00185822 -0.00025185 -2.9967e-05
-0.00025185 0.00111864 2.85766e-05
-2.9967e-05 2.85766e-05 0.000299515
0.000724521 -3.30821e-05 -4.26386e-05
-3.30821e-05 0.000655468 -2.22373e-05
-4.26386e-05 -2.22373e-05 0.000448332
0.000468636 7.38225e-06 -6.22229e-06
7.38225e-06 5.40478e-06 3.56254e-07
-6.22229e-06 3.56254e-07 -0.000104478
-0.000846179 8.1496e-05 -7.89779e-06
8.1496e-05 -0.000350101 -3.89088e-06
-7.89779e-06 -3.89088e-06 -0.000710437
0.00024795 0.000103043 4.95284e-07
0.000103043 0.000126027 -1.65797e-06
4.95284e-07 -1.65797e-06 -8.82824e-05
0.000664186 0.000171126 3.10319e-06
0.000171126 0.000522338 2.35595e-06
3.10319e-06 2.35595e-06 0.000173012
-0.000836299 -7.37076e-05 0.000133099
-7.37076e-05 0.000665996 -3.3822e-05
0.000133099 -3.3822e-05 -0.000694193
-0.00198525 6.10907e-05 -1.62377e-05
6.10907e-05 -0.00102294 1.22806e-05
-1.62377e-05 1.22806e-05 -0.00128137
0.00266959 0.000422743 -7.99388e-05
0.000422743 0.00175695 -5.27634e-05
-7.99388e-05 -5.27634e-05 0.0008269
0.00194168 8.53222e-05 0.000101798
8.53222e-05 0.00139646 2.65644e-05
0.000101798 2.65644e-05 -0.00108896
-0.000362452 2.55938e-05 7.45835e-06
2.55938e-05 0.000551787 1.61465e-05
7.45835e-06 1.61465e-05 4.54623e-06
0.00171438 -8.5729e-05 -6.09985e-07
-8.5729e-05 0.000158271 3.42204e-07
-6.09985e-07 3.42204e-07 0.000400282
-0.00163347 0.000339412 0.000112419
0.000339412 -0.000337644 7.32956e-06
0.000112419 7.32956e-06 -0.00108622
0.00257637 0.000184734 -3.84421e-05
0.000184734 0.00147072 2.81315e-05
-3.84421e-05 2.81315e-05 0.000579192
0.000590481 -7.06876e-05 -1.17959e-05
-7.06876e-05 0.000548901 1.20726e-05
-1.17959e-05 1.20726e-05 0.00048591
0.0159325 -0.00215179 0.000144162
-0.00215179 0.00712772 -4.72114e-05
0.000144162 -4.72114e-05 0.00263645
0.0129839 0.00225632 -6.69798e-05
0.00225632 0.00495924 -6.0548e-05
-6.69798e-05 -6.0548e-05 0.00342624
0.0043028 -0.000675222 -9.75739e-05
-0.000675222 0.00179424 0.000144062
-9.75739e-05 0.000144062 -0.00179728
-0.0057309 0.0037903 0.00101872
0.0037903 -0.00199858 -0.000777636
0.00101872 -0.000777636 -0.00139212
0.000712487 -0.000241153 1.45826e-05
-0.000241153 0.000787862 -4.55274e-06
1.45826e-05 -4.55274e-06 0.000147703
0.00051938 -0.000198751 8.44961e-06
-0.000198751 -1.28903e-05 1.4513e-05
8.44961e-06 1.4513e-05 -0.00208786
-0.00282454 0.000160655 -0.000549752
0.000160655 0.00318433 0.000219256
-0.000549752 0.000219256 0.000877468
0.00108079 -0.000430271 -1.95661e-05
-0.000430271 0.000458019 3.51503e-05
-1.95661e-05 3.51503e-05 8.73633e-05
0.0140948 0.00296579 0.000148072
0.00296579 0.00411481 8.55373e-05
0.000148072 8.55373e-05 0.00394331
0.00791908 -0.0020786 0.000107686
-0.0020786 0.00321963 -6.07828e-05
0.000107686 -6.07828e-05 1.40309e-07
0.00233423 -0.000628715 3.47307e-07
-0.000628715 0.00111862 2.47813e-05
3.47307e-07 2.47813e-05 0.000886717
-0.00517023 -0.000673672 5.26285e-05
-0.000673672 0.00252509 -3.323e-05
5.26285e-05 -3.323e-05 -0.000156188
0.0118826 0.00271792 -0.000634634
0.00271792 0.00514454 0.00029056
-0.000634634 0.00029056 0.0045217
0.00258252 -0.00136571 -0.000249993
-0.00136571 -0.00053051 0.00015571
-0.000249993 0.00015571 -0.00397145
0.00248391 -0.00115438 0.000117829
-0.00115438 0.000557355 -5.99679e-05
0.000117829 -5.99679e-05 0.000767748
-0.000233271 -0.000215624 -5.44976e-05
-0.000215624 2.74413e-05 1.67618e-05
-5.44976e-05 1.67618e-05 -0.000287564
0.00066909 -0.000370692 -6.63118e-06
-0.000370692 0.000304316 1.03702e-05
-6.63118e-06 1.03702e-05 9.10969e-05
0.00348334 -0.000636749 2.63841e-05
-0.000636749 0.00153507 -2.088e-07
2.63841e-05 -2.088e-07 0.00132979
-0.00272667 -6.879e-05 -1.11558e-06
-6.879e-05 -0.00149358 1.03142e-05
-1.11558e-06 1.03142e-05 -0.001709
0.000822246 -0.000374866 5.42226e-06
-0.000374866 8.97096e-05 1.23215e-06
5.42226e-06 1.23215e-06 -0.000164369
0.00217846 -0.000608717 6.81019e-06
-0.000608717 0.000509271 -8.71254e-07
6.81019e-06 -8.71254e-07 0.000239871
0.00302094 -0.000573975 -1.83675e-05
-0.000573975 0.00126893 6.76959e-06
-1.83675e-05 6.76959e-06 0.000879782
0.00132457 -0.000468053 -2.31504e-06
-0.000468053 0.000236338 -3.84826e-06
-2.31504e-06 -3.84826e-06 -0.000187218
0.00172974 -0.000595079 5.69339e-06
-0.000595079 0.000238319 -8.33992e-06
5.69339e-06 -8.33992e-06 -9.98709e-05
0.00255346 -0.000584217 -3.83549e-06
-0.000584217 0.000866389 5.99512e-07
-3.83549e-06 5.99512e-07 0.000455469
0.00175038 -0.00053266 3.3553e-07
-0.00053266 0.000381307 -4.1984e-06
3.3553e-07 -4.1984e-06 -8.66371e-06
0.0022076 -0.000537543 1.77957e-06
-0.000537543 0.000468571 -7.36519e-06
1.77957e-06 -7.36519e-06 0.000180907
0.00167474 -0.000400459 -4.1794e-06
-0.000400459 9.41508e-05 -3.47715e-06
-4.1794e-06 -3.47715e-06 -0.000124276
0.00166222 -0.000498699 1.61331e-06
-0.000498699 0.000190892 -9.36707e-07
1.61331e-06 -9.36707e-07 -9.9997e-05
0.0018301 -0.000500424 2.084e-06
-0.000500424 0.000315586 -2.62583e-06
2.084e-06 -2.62583e-06 2.24034e-05
0.00178171 -0.000448226 9.00819e-07
-0.000448226 0.000421848 1.14308e-06
9.00819e-07 1.14308e-06 0.00013538
0.0018402 -0.000520714 -1.92889e-06
-0.000520714 0.000411503 1.17111e-07
-1.92889e-06 1.17111e-07 9.01779e-05
0.00186922 -0.000537923 7.7868e-07
-0.000537923 0.000428981 -3.381e-06
7.7868e-07 -3.381e-06 7.53078e-05
0.00147963 -0.00032315 2.97556e-06
-0.00032315 0.000375681 2.4485e-07
2.97556e-06 2.4485e-07 0.000136022
0.00100304 -0.000313992 8.59559e-07
-0.000313992 6.10626e-05 -3.81983e-07
8.59559e-07 -3.81983e-07 -0.000178788
0.00133579 -0.000358256 3.46093e-06
-0.000358256 0.000236151 -1.64358e-06
3.46093e-06 -1.64358e-06 -2.1463e-05
0.000764539 -0.000225424 -5.27779e-07
-0.000225424 0.000109771 9.05387e-07
-5.27779e-07 9.05387e-07 -0.000106151
0.000909766 -0.000240856 -8.42493e-08
-0.000240856 0.000133666 7.28346e-08
-8.42493e-08 7.28346e-08 -9.52393e-05
0.00035891 -0.000211989 -2.29526e-06
-0.000211989 -0.000263825 -6.73116e-07
-2.29526e-06 -6.73116e-07 -0.000483567
0.000145956 -7.87156e-06 -5.76813e-07
-7.87156e-06 -0.000231183 5.4445e-06
-5.76813e-07 5.4445e-06 -0.000356157
0.000776516 -0.000133599 1.50561e-06
-0.000133599 0.000188289 2.74687e-07
1.50561e-06 2.74687e-07 -1.60584e-05
0.00120309 -0.000193788 -2.31039e-06
-0.000193788 0.000437043 -1.82031e-08
-2.31039e-06 -1.82031e-08 0.000218772
0.00150283 8.01327e-05 -2.07599e-05
8.01327e-05 0.000586426 5.46694e-06
-2.07599e-05 5.46694e-06 0.000550625
0.00067805 -2.55609e-05 4.02116e-07
-2.55609e-05 7.65623e-05 -6.03885e-07
4.02116e-07 -6.03885e-07 -1.9288e-05
0.00125167 -8.61254e-05 -2.1916e-06
-8.61254e-05 0.000470349 -2.08208e-06
-2.1916e-06 -2.08208e-06 0.000305389
0.000746047 4.98741e-05 -3.14761e-05
4.98741e-05 0.000122532 4.09349e-06
-3.14761e-05 4.09349e-06 0.000118828
0.000992685 5.96887e-05 -9.8868e-06
5.96887e-05 0.000268025 -2.69284e-07
-9.8868e-06 -2.69284e-07 0.000237558
0.000638882 -3.53313e-06 7.58886e-07
-3.53313e-06 4.97043e-05 -4.10375e-06
7.58886e-07 -4.10375e-06 -2.97398e-05
0.0005323 4.77633e-05 1.60323e-07
4.77633e-05 -1.85961e-05 -5.97925e-06
1.60323e-07 -5.97925e-06 -4.68018e-05
0.0025294 0.000108948 4.89895e-06
0.000108948 0.00120034 4.49075e-07
4.89895e-06 4.49075e-07 0.00120301
0.00245685 9.44875e-05 2.34945e-05
9.44875e-05 0.00114916 -4.12554e-06
2.34945e-05 -4.12554e-06 0.00115502
0.000843324 8.31733e-05 1.4023e-06
8.31733e-05 0.000199704 2.52821e-06
1.4023e-06 2.52821e-06 6.59114e-05
0.000795471 8.60832e-05 1.50925e-06
8.60832e-05 0.000185665 -2.19328e-06
1.50925e-06 -2.19328e-06 4.78302e-05
0.000580116 5.5564e-05 -5.60811e-07
5.5564e-05 3.4503e-05 7.67393e-07
-5.60811e-07 7.67393e-07 -9.35721e-05
0.000629878 1.29104e-05 2.15504e-07
1.29104e-05 4.34121e-05 -3.2306e-06
2.15504e-07 -3.2306e-06 -3.49733e-05
0.00072251 7.28338e-05 5.58853e-07
7.28338e-05 0.000127558 8.55577e-09
5.58853e-07 8.55577e-09 8.01434e-06
0.000525923 -1.45254e-05 -1.03597e-06
-1.45254e-05 -3.46802e-05 -5.80625e-06
-1.03597e-06 -5.80625e-06 -5.91117e-05
0.000590192 2.56897e-05 -3.46412e-08
2.56897e-05 2.07011e-05 -1.70409e-07
-3.46412e-08 -1.70409e-07 -5.15344e-05
0.000720586 6.91651e-05 -1.21288e-06
6.91651e-05 0.000142994 1.37104e-06
-1.21288e-06 1.37104e-06 1.76565e-05
0.00247961 -6.84596e-05 -2.91384e-05
-6.84596e-05 0.00115001 -4.49616e-06
-2.91384e-05 -4.49616e-06 0.0011612
0.000517195 -1.67658e-05 -6.19006e-07
-1.67658e-05 -4.44021e-05 -6.47655e-08
-6.19006e-07 -6.47655e-08 -6.42512e-05
0.000589589 3.64571e-05 2.42346e-07
3.64571e-05 2.04935e-05 2.4821e-06
2.42346e-07 2.4821e-06 -4.47476e-05
0.00233434 -5.21268e-05 -4.75495e-06
-5.21268e-05 0.00105791 2.62697e-07
-4.75495e-06 2.62697e-07 0.00107199
0.000517734 -1.68285e-05 -1.49571e-06
-1.68285e-05 -4.63868e-05 4.26087e-06
-1.49571e-06 4.26087e-06 -6.20942e-05
0.00220703 -3.53414e-05 1.71807e-05
-3.53414e-05 0.000978104 4.5553e-06
1.71807e-05 4.5553e-06 0.000994673
0.00547985 0.000179873 0.000149463
0.000179873 0.00236501 2.44761e-05
0.000149463 2.44761e-05 0.00105101
-0.000292393 -5.72732e-05 -5.51248e-07
-5.72732e-05 -0.000112366 -1.42217e-06
-5.51248e-07 -1.42217e-06 -1.87016e-05
0.00120814 -6.72133e-05 -2.15502e-05
-6.72133e-05 -0.000453134 3.31613e-06
-2.15502e-05 3.31613e-06 -8.4478e-05
0.000299001 0.000103624 -6.3744e-06
0.000103624 -0.000139195 -2.10409e-06
-6.3744e-06 -2.10409e-06 -0.000266006
0.000796921 7.00389e-05 -2.05841e-06
7.00389e-05 0.000165894 -6.13184e-07
-2.05841e-06 -6.13184e-07 3.85606e-05
0.000492627 4.89697e-05 2.7968e-07
4.89697e-05 -4.81863e-05 -1.14066e-06
2.7968e-07 -1.14066e-06 -0.000169279
0.000846869 4.89639e-05 3.3328e-07
4.89639e-05 0.000177025 -3.65876e-07
3.3328e-07 -3.65876e-07 5.18363e-05
0.000581779 8.29495e-05 -1.06008e-06
8.29495e-05 9.27965e-06 2.82168e-07
-1.06008e-06 2.82168e-07 -0.000109928
0.00137343 0.000170435 6.43276e-07
0.000170435 0.00052295 -1.5757e-06
6.43276e-07 -1.5757e-06 0.000371808
0.000900951 0.000131266 -1.17194e-06
0.000131266 0.000212373 -7.85942e-06
-1.17194e-06 -7.85942e-06 3.25636e-05
-7.37998e-05 3.16652e-05 1.36686e-06
3.16652e-05 -0.000290493 3.16338e-06
1.36686e-06 3.16338e-06 -0.000452043
0.000772258 0.000121743 -2.03209e-06
0.000121743 0.000160538 1.71547e-07
-2.03209e-06 1.71547e-07 2.58633e-05
0.000425131 3.17732e-05 -3.63819e-06
3.17732e-05 -7.57418e-05 -3.05739e-06
-3.63819e-06 -3.05739e-06 -0.000183528
0.000477052 6.0555e-05 -1.74243e-08
6.0555e-05 1.72274e-05 8.89438e-07
-1.74243e-08 8.89438e-07 -0.000128394
0.00140156 0.000185594 1.10779e-05
0.000185594 0.000633457 6.75728e-06
1.10779e-05 6.75728e-06 0.000455278
0.00115439 -0.00117876 0.000141984
-0.00117876 0.00313967 0.000217422
0.000141984 0.000217422 0.000266948
0.00400528 0.000448385 3.2128e-05
0.000448385 0.00225998 0.000107795
3.2128e-05 0.000107795 -0.00154938
0.00107282 0.000149162 -2.44275e-05
0.000149162 0.000215586 -5.05991e-05
-2.44275e-05 -5.05991e-05 -0.00147835
0.012291 -0.00261925 -0.000343333
-0.00261925 0.00224662 -0.00022964
-0.000343333 -0.00022964 0.00250737
0.00605027 -0.000943907 0.000105612
-0.000943907 0.00190964 0.00030147
0.000105612 0.00030147 0.000113315
0.00138781 -0.000943293 -0.000114268
-0.000943293 0.00253129 8.90953e-05
-0.000114268 8.90953e-05 -0.00270507
0.000993075 -0.000409878 2.13213e-05
-0.000409878 0.00047324 4.5201e-05
2.13213e-05 4.5201e-05 -8.59607e-05
0.00197581 -0.000104188 1.89417e-05
-0.000104188 0.000829246 5.02959e-05
1.89417e-05 5.02959e-05 0.000486851
0.00296801 -0.00361315 0.000177926
-0.00361315 0.000513916 0.000184953
0.000177926 0.000184953 0.00114676
0.00411557 0.0010737 -2.9224e-05
0.0010737 0.0037365 -3.81892e-05
-2.9224e-05 -3.81892e-05 -0.00117082
0.00405702 -0.00178283 -5.58735e-05
-0.00178283 -7.88576e-06 6.48074e-05
-5.58735e-05 6.48074e-05 -0.00127804
0.000605052 0.000378546 -1.93753e-05
0.000378546 0.000312695 5.80502e-05
-1.93753e-05 5.80502e-05 0.000190053
0.0085508 0.00154121 -5.35551e-05
0.00154121 0.00379672 -2.54212e-05
-5.35551e-05 -2.54212e-05 0.000426512
0.00607217 -0.0030214 -0.000363794
-0.0030214 0.000810559 -0.000285371
-0.000363794 -0.000285371 0.00044547
0.000811278 0.000365795 7.27071e-06
0.000365795 0.000171068 -9.02838e-06
7.27071e-06 -9.02838e-06 8.463e-06
0.000622032 9.86266e-05 2.97546e-06
9.86266e-05 0.000183848 8.0779e-08
2.97546e-06 8.0779e-08 3.56449e-05
0.000375713 4.70169e-05 -5.14677e-06
4.70169e-05 -1.14283e-05 -3.03434e-06
-5.14677e-06 -3.03434e-06 -0.000172735
-0.000690551 -0.000152287 -0.000130262
-0.000152287 0.000911309 -4.0056e-05
-0.000130262 -4.0056e-05 -0.000408292
-0.00133172 0.000160685 1.74581e-06
0.000160685 -0.000611371 -1.74363e-05
1.74581e-06 -1.74363e-05 -0.000972446
-1.41037e-05 8.69665e-05 -8.2649e-06
8.69665e-05 -2.66769e-05 1.45204e-06
-8.2649e-06 1.45204e-06 -0.00025674
0.000634571 0.000364012 1.3887e-05
0.000364012 0.00033486 3.11347e-06
1.3887e-05 3.11347e-06 4.82916e-05
0.000448578 0.000295471 1.36417e-05
0.000295471 0.000560767 -3.32713e-05
1.36417e-05 -3.32713e-05 -0.000245927
0.000100125 0.000646608 3.74008e-05
0.000646608 -0.000362801 4.76375e-06
3.74008e-05 4.76375e-06 -0.000801481
-0.00253968 0.000485279 0.000186568
0.000485279 0.00387247 6.14413e-06
0.000186568 6.14413e-06 0.000243047
0.00225258 -1.37364e-05 -4.15069e-06
-1.37364e-05 0.00153414 3.2638e-05
-4.15069e-06 3.2638e-05 -0.000368975
-0.000632123 -2.00925e-05 -3.66707e-06
-2.00925e-05 0.000224501 2.15412e-05
-3.66707e-06 2.15412e-05 -0.00014267
-2.535e-05 -0.00015803 -5.88659e-05
-0.00015803 0.000514356 6.85372e-06
-5.88659e-05 6.85372e-06 -0.000136187
-0.000803623 -0.000141265 -6.92448e-05
-0.000141265 -0.000976505 2.83597e-05
-6.92448e-05 2.83597e-05 -0.000686557
0.000763552 -0.00015134 -0.000108094
-0.00015134 0.000107705 4.74323e-05
-0.000108094 4.74323e-05 -0.00199236
-0.00253544 -0.00179989 0.000103185
-0.00179989 0.000304136 -0.000113869
0.000103185 -0.000113869 -0.00417482
0.000896691 0.00249085 0.00028626
0.00249085 -0.00281502 -0.00024052
0.00028626 -0.00024052 -0.00286746
0.00369984 0.00115312 -0.000272707
0.00115312 0.00433183 0.000184278
-0.000272707 0.000184278 0.00249178
0.00134045 -0.000335502 -3.26197e-06
-0.000335502 0.000691663 -3.39108e-06
-3.26197e-06 -3.39108e-06 0.000510864
0.00137804 0.000239646 4.60034e-05
0.000239646 0.00434367 3.068e-06
4.60034e-05 3.068e-06 0.00241656
-0.00268683 0.00172191 2.18258e-05
0.00172191 -0.000443694 2.40208e-05
2.18258e-05 2.40208e-05 -0.00239004
0.0032768 -0.00135195 6.04255e-05
-0.00135195 0.00115027 -1.85323e-05
6.04255e-05 -1.85323e-05 0.000763347
0.013105 -0.00134092 2.08608e-05
-0.00134092 0.00380142 -1.27407e-05
2.08608e-05 -1.27407e-05 0.00189984
0.00287466 -0.000854141 -1.67029e-05
-0.000854141 0.000940995 2.33562e-05
-1.67029e-05 2.33562e-05 0.000889771
-0.00886394 0.000638019 -0.000272639
0.000638019 -0.00382863 1.52983e-05
-0.000272639 1.52983e-05 -0.00510371
0.013686 -0.000834751 -0.000135995
-0.000834751 0.00311334 4.0904e-05
-0.000135995 4.0904e-05 0.0015356
0.00308705 -0.00152222 3.01039e-05
-0.00152222 -0.000284977 -3.24958e-05
3.01039e-05 -3.24958e-05 -0.000590698
-8.82513e-05 -0.000259494 -1.46511e-05
-0.000259494 -2.89265e-05 1.57281e-05
-1.46511e-05 1.57281e-05 -0.000311762
0.00149488 -0.000499083 -3.09849e-06
-0.000499083 0.000355035 6.4597e-07
-3.09849e-06 6.4597e-07 0.000272404
0.00362678 -0.000628089 1.52997e-05
-0.000628089 0.0012649 -3.71328e-06
1.52997e-05 -3.71328e-06 0.00109999
-0.000884011 -0.000193277 -8.26718e-06
-0.000193277 -0.000772879 5.36588e-06
-8.26718e-06 5.36588e-06 -0.00102944
0.00140178 -0.000529411 -6.77383e-06
-0.000529411 0.000137064 -2.85957e-06
-6.77383e-06 -2.85957e-06 -0.000148718
0.00253736 -0.000683108 4.58755e-06
-0.000683108 0.000532474 -2.95203e-06
4.58755e-06 -2.95203e-06 0.000271022
0.00117679 -0.00044123 -1.77065e-05
-0.00044123 0.000137075 6.73914e-07
-1.77065e-05 6.73914e-07 -0.000266685
0.00157864 -0.000568165 -1.60486e-07
-0.000568165 0.000168323 2.10169e-07
-1.60486e-07 2.10169e-07 -0.000172549
0.00151784 -0.000490979 2.78992e-06
-0.000490979 -6.70333e-05 -6.18389e-06
2.78992e-06 -6.18389e-06 -0.00028555
0.00124667 -0.000489276 -6.10832e-06
-0.000489276 8.01085e-05 -9.91481e-09
-6.10832e-06 -9.91481e-09 -0.000294
0.00168167 -0.000484844 -4.40667e-07
-0.000484844 0.000181072 7.71206e-07
-4.40667e-07 7.71206e-07 -9.6777e-05
0.00179006 -0.00039562 -1.34025e-06
-0.00039562 0.000100276 -5.41536e-06
-1.34025e-06 -5.41536e-06 -7.52651e-05
0.00167399 -0.000315063 -4.66157e-06
-0.000315063 5.38413e-05 -2.74837e-06
-4.66157e-06 -2.74837e-06 -9.61128e-05
0.00154633 -0.000391808 -4.09967e-06
-0.000391808 3.85597e-05 -2.29545e-06
-4.09967e-06 -2.29545e-06 -0.000185187
0.00165552 -0.000390526 1.24329e-06
-0.000390526 9.13455e-05 1.85228e-06
1.24329e-06 1.85228e-06 -0.000121604
0.00146034 -0.000427194 -2.44936e-06
-0.000427194 0.000121335 -1.5942e-06
-2.44936e-06 -1.5942e-06 -0.000147694
0.00177234 -0.000501523 1.8279e-06
-0.000501523 0.000265867 -4.82954e-07
1.8279e-06 -4.82954e-07 -2.22121e-05
0.00174703 -0.00049118 1.70677e-06
-0.00049118 0.000269695 4.16598e-07
1.70677e-06 4.16598e-07 -1.96589e-05
0.00146127 -0.000358169 -1.92058e-06
-0.000358169 0.000283233 1.53107e-06
-1.92058e-06 1.53107e-06 2.93739e-05
0.00153386 -0.000426718 1.01859e-06
-0.000426718 0.00027836 -4.59302e-07
1.01859e-06 -4.59302e-07 -4.13698e-06
0.00180253 -0.000516795 -3.10002e-06
-0.000516795 0.000406583 -1.29859e-06
-3.10002e-06 -1.29859e-06 8.0739e-05
0.0010106 -0.000243037 -2.3616e-06
-0.000243037 0.000144726 2.34174e-06
-2.3616e-06 2.34174e-06 -6.65503e-05
0.00118358 -0.000295665 1.25459e-06
-0.000295665 0.000191283 -7.88579e-08
1.25459e-06 -7.88579e-08 -4.34213e-05
0.000669327 -0.000276359 -2.86108e-07
-0.000276359 -0.000126583 -3.09009e-06
-2.86108e-07 -3.09009e-06 -0.00035629
0.00050189 -0.000122298 -2.14769e-06
-0.000122298 -2.71135e-05 4.38719e-06
-2.14769e-06 4.38719e-06 -0.000192018
0.00102681 -0.000228084 2.84869e-08
-0.000228084 0.000258451 4.99253e-08
2.84869e-08 4.99253e-08 4.29253e-05
0.00024677 -0.000175324 -3.15992e-06
-0.000175324 -0.000260818 5.72795e-08
-3.15992e-06 5.72795e-08 -0.000475943
0.000350379 2.24567e-05 -2.21506e-06
2.24567e-05 -0.00010902 9.25416e-06
-2.21506e-06 9.25416e-06 -0.000159119
0.00069101 -8.07628e-05 -2.69882e-07
-8.07628e-05 9.76241e-05 -8.38133e-08
-2.69882e-07 -8.38133e-08 -3.8985e-05
0.00128395 -0.000154349 9.0406e-07
-0.000154349 0.000495491 -2.15446e-06
9.0406e-07 -2.15446e-06 0.000283652
0.00283335 0.000159789 -5.06815e-06
0.000159789 0.00140419 2.44769e-06
-5.06815e-06 2.44769e-06 0.00139193
0.000506618 3.70004e-05 -2.28051e-07
3.70004e-05 -2.257e-05 -7.94001e-08
-2.28051e-07 -7.94001e-08 -6.17683e-05
0.000848896 -5.16274e-05 2.73123e-06
-5.16274e-05 0.000178295 -5.22339e-06
2.73123e-06 -5.22339e-06 7.78089e-05
0.0026533 0.00012366 4.71878e-06
0.00012366 0.00128274 3.73308e-07
4.71878e-06 3.73308e-07 0.00128202
0.000559446 4.16164e-05 8.05467e-07
4.16164e-05 4.45248e-06 -6.78412e-06
8.05467e-07 -6.78412e-06 -2.78239e-05
0.00258347 0.000110847 3.1155e-05
0.000110847 0.00123373 -3.51568e-06
3.1155e-05 -3.51568e-06 0.00123606
0.000923774 0.000144666 2.47035e-06
0.000144666 0.000233763 3.24131e-06
2.47035e-06 3.24131e-06 8.45442e-05
0.000759956 8.66731e-05 2.46925e-07
8.66731e-05 0.000153149 3.27901e-07
2.46925e-07 3.27901e-07 1.53338e-05
0.000871055 7.55458e-05 7.85051e-07
7.55458e-05 0.000238939 -2.76071e-06
7.85051e-07 -2.76071e-06 8.75008e-05
0.000650152 1.41572e-05 -3.72368e-07
1.41572e-05 6.29761e-05 -4.31816e-06
-3.72368e-07 -4.31816e-06 -2.39908e-05
0.000701427 5.31665e-05 2.11252e-07
5.31665e-05 0.000118804 2.52379e-07
2.11252e-07 2.52379e-07 -1.10537e-05
0.000541825 7.41621e-05 3.07736e-07
7.41621e-05 1.90442e-05 1.25538e-06
3.07736e-07 1.25538e-06 -0.000115959
0.000536031 -1.22899e-05 -1.89773e-06
-1.22899e-05 -2.51493e-05 -6.55335e-06
-1.89773e-06 -6.55335e-06 -5.38786e-05
0.000613771 1.98231e-05 -2.53806e-08
1.98231e-05 3.77626e-05 -1.20189e-07
-2.53806e-08 -1.20189e-07 -4.19804e-05
0.0006614 6.83284e-05 -6.02802e-07
6.83284e-05 8.7082e-05 1.26049e-06
-6.02802e-07 1.26049e-06 -2.69855e-05
0.00262014 -8.36136e-05 -3.7412e-05
-8.36136e-05 0.0012404 -4.20824e-06
-3.7412e-05 -4.20824e-06 0.00124868
0.000498287 -1.84396e-05 8.18094e-07
-1.84396e-05 -5.14656e-05 -1.12976e-07
8.18094e-07 -1.12976e-07 -7.57232e-05
0.000596615 2.9214e-05 -1.09022e-07
2.9214e-05 2.5356e-05 2.79579e-06
-1.09022e-07 2.79579e-06 -4.72491e-05
0.00245438 -6.76445e-05 -5.16918e-06
-6.76445e-05 0.00113429 3.35103e-07
-5.16918e-06 3.35103e-07 0.00114569
0.000508482 -1.95729e-05 -1.20051e-06
-1.95729e-05 -4.94322e-05 5.00052e-06
-1.20051e-06 5.00052e-06 -6.92127e-05
0.00230645 -5.08298e-05 2.11678e-05
-5.08298e-05 0.00104074 4.48441e-06
2.11678e-05 4.48441e-06 0.00105514
-0.00714852 0.000454523 -2.90739e-05
0.000454523 0.00189707 5.59398e-05
-2.90739e-05 5.59398e-05 -0.00174944
0.00522686 8.31386e-05 -7.23211e-06
8.31386e-05 0.00251185 -3.61956e-07
-7.23211e-06 -3.61956e-07 0.00124356
-0.000225049 -6.60059e-05 -8.06494e-06
-6.60059e-05 -0.000132823 -5.043e-06
-8.06494e-06 -5.043e-06 -0.000102527
0.000240675 7.18742e-05 -1.72891e-06
7.18742e-05 -0.000178557 1.81165e-06
-1.72891e-06 1.81165e-06 -0.000300719
0.00278921 0.000411652 2.38018e-06
0.000411652 0.00135345 5.12884e-06
2.38018e-06 5.12884e-06 0.00113459
0.000771129 8.50603e-05 -3.75525e-06
8.50603e-05 0.000144766 -5.24097e-08
-3.75525e-06 -5.24097e-08 -4.03755e-06
0.000980467 5.32414e-05 -2.12045e-06
5.32414e-05 0.000251635 -4.05289e-06
-2.12045e-06 -4.05289e-06 0.000127932
0.0013969 0.00015051 2.59905e-06
0.00015051 0.000489518 -5.88255e-07
2.59905e-06 -5.88255e-07 0.000362644
0.000194418 5.67459e-05 -4.049e-06
5.67459e-05 -0.000195294 2.05119e-06
-4.049e-06 2.05119e-06 -0.000315557
0.000469861 7.25845e-05 -1.17634e-06
7.25845e-05 3.01428e-05 1.81066e-06
-1.17634e-06 1.81066e-06 -0.000139773
0.000624369 9.96046e-05 -2.46648e-06
9.96046e-05 5.76859e-05 -3.07906e-06
-2.46648e-06 -3.07906e-06 -0.000114365
0.00106686 0.000193627 4.2159e-06
0.000193627 0.000367693 -6.34454e-06
4.2159e-06 -6.34454e-06 0.000141786
0.000604175 0.000283714 2.0466e-06
0.000283714 -1.65346e-05 1.74672e-07
2.0466e-06 1.74672e-07 -0.000132709
0.00105847 8.52301e-05 -3.83593e-06
8.52301e-05 0.000368227 8.18759e-07
-3.83593e-06 8.18759e-07 0.000212448
0.00108006 0.00015882 1.33587e-06
0.00015882 0.000447636 3.10764e-06
1.33587e-06 3.10764e-06 0.000270824
-0.00408211 -0.00118901 -0.000593412
-0.00118901 -0.000378482 -6.83729e-05
-0.000593412 -6.83729e-05 -0.00221282
-0.00334391 -0.00088038 0.000239755
-0.00088038 0.00236573 0.000116161
0.000239755 0.000116161 -0.000837156
0.00458064 0.000522144 -0.000218674
0.000522144 0.00225816 -8.10379e-05
-0.000218674 -8.10379e-05 -0.00173565
-0.006043 -0.00373254 0.000880313
-0.00373254 -0.00192671 0.000692433
0.000880313 0.000692433 -0.00148152
0.0164415 -0.0019852 -3.10653e-05
-0.0019852 0.0051007 0.000188508
-3.10653e-05 0.000188508 0.00435976
-0.00175909 0.00123744 -3.54826e-06
0.00123744 0.000736857 -0.000106277
-3.54826e-06 -0.000106277 -0.00381382
0.00165302 4.77462e-05 -0.00016169
4.77462e-05 0.00101607 1.15779e-05
-0.00016169 1.15779e-05 4.40937e-05
0.00186976 0.000490062 1.59949e-05
0.000490062 0.000839112 3.00348e-05
1.59949e-05 3.00348e-05 0.000628945
0.011746 -0.00226845 -0.000253252
-0.00226845 0.0053117 5.10932e-05
-0.000253252 5.10932e-05 0.00455241
-0.000511102 0.00147018 -3.00429e-05
0.00147018 0.000588722 -3.87759e-05
-3.00429e-05 -3.87759e-05 -0.00316442
0.00212702 0.00104841 -2.46098e-05
0.00104841 0.000441714 -6.1243e-05
-2.46098e-05 -6.1243e-05 0.000640529
0.00403719 0.00217722 -0.000222562
0.00217722 -0.000271197 -0.000128785
-0.000222562 -0.000128785 -0.00279169
0.00244994 0.000752018 1.91434e-05
0.000752018 0.000738318 -1.6829e-05
1.91434e-05 -1.6829e-05 0.000471963
0.000871744 0.000350938 -4.70787e-06
0.000350938 0.000212397 4.31576e-07
-4.70787e-06 4.31576e-07 5.79016e-05
0.000994152 0.000113878 -8.2384e-06
0.000113878 0.00039613 7.00506e-07
-8.2384e-06 7.00506e-07 0.000255089
-0.00133121 0.000212462 -4.27362e-05
0.000212462 -0.000457827 -5.33611e-05
-4.27362e-05 -5.33611e-05 -0.00116541
0.00222983 0.000577766 -2.84159e-05
0.000577766 0.00113452 -1.68002e-05
-2.84159e-05 -1.68002e-05 0.000835521
0.00140223 0.000773534 1.44054e-05
0.000773534 0.000241977 -4.85596e-06
1.44054e-05 -4.85596e-06 -0.000191467
0.00235913 0.00112578 0.000111149
0.00112578 4.18746e-05 3.2077e-05
0.000111149 3.2077e-05 -0.000144116
-0.00522103 -0.000151011 -0.000335796
-0.000151011 -0.00429749 9.68728e-06
-0.000335796 9.68728e-06 -0.0030112
-0.00457931 0.000256113 0.000178064
0.000256113 0.00346101 4.38236e-06
0.000178064 4.38236e-06 -0.000224785
0.00256922 -6.98949e-05 -8.50234e-05
-6.98949e-05 0.00169992 3.0813e-05
-8.50234e-05 3.0813e-05 0.00030902
0.00180408 -0.00040553 -5.1535e-05
-0.00040553 0.000677437 -4.20044e-05
-5.1535e-05 -4.20044e-05 0.000505255
0.00102042 -0.00115117 1.93888e-06
-0.00115117 -0.000197221 1.80557e-05
1.93888e-06 1.80557e-05 -0.000390692
0.00114682 0.000212657 -1.41282e-05
0.000212657 0.00416344 2.75141e-05
-1.41282e-05 2.75141e-05 0.0023694
0.00292951 -0.00139047 0.000233907
-0.00139047 -0.000239537 -0.00014115
0.000233907 -0.00014115 -0.00278626
0.0125516 0.00166331 0.000251435
0.00166331 0.0057166 -2.40387e-05
0.000251435 -2.40387e-05 0.00440571
0.00284057 -0.00103314 -2.68435e-05
-0.00103314 0.00080351 8.18633e-06
-2.68435e-05 8.18633e-06 0.000517195
0.000128069 0.000703564 0.000125396
0.000703564 -0.000300804 -3.13687e-05
0.000125396 -3.13687e-05 -0.00110542
0.00595242 -0.000765092 -8.17013e-05
-0.000765092 -0.000662272 7.1048e-05
-8.17013e-05 7.1048e-05 -0.00287801
0.00536763 -0.00167631 -3.53979e-05
-0.00167631 0.000828068 2.01134e-05
-3.53979e-05 2.01134e-05 0.00045136
0.00208556 -0.000752214 6.165e-05
-0.000752214 0.000315336 -1.17475e-05
6.165e-05 -1.17475e-05 5.99845e-05
0.0115842 -0.000522181 -7.31908e-06
-0.000522181 0.00271569 -2.00766e-05
-7.31908e-06 -2.00766e-05 0.00109419
0.00313223 -0.000909361 9.09406e-05
-0.000909361 -0.0012662 -5.51952e-05
9.09406e-05 -5.51952e-05 -0.000856246
-0.000712616 -0.000334702 -2.44498e-05
-0.000334702 -0.000917201 1.76786e-05
-2.44498e-05 1.76786e-05 -0.000892822
0.000221673 -0.000373034 -1.49458e-05
-0.000373034 -0.000594685 -3.19316e-07
-1.49458e-05 -3.19316e-07 -0.000663464
0.00381998 -0.000681553 3.8008e-05
-0.000681553 0.00104967 -1.83446e-05
3.8008e-05 -1.83446e-05 0.000968929
0.000272168 -0.000412968 -1.77263e-05
-0.000412968 -0.000425243 -7.26356e-06
-1.77263e-05 -7.26356e-06 -0.000713005
0.00177032 -0.000605503 2.8451e-07
-0.000605503 0.000142301 -1.03133e-06
2.8451e-07 -1.03133e-06 -0.000101724
0.00242118 -0.000568623 4.82227e-07
-0.000568623 0.000270732 -2.0573e-06
4.82227e-07 -2.0573e-06 0.000118709
0.00169832 -0.000567241 -4.04211e-06
-0.000567241 0.000236765 5.78544e-06
-4.04211e-06 5.78544e-06 -0.000108492
0.00185671 -0.000518379 -1.59546e-06
-0.000518379 0.000113815 1.1434e-06
-1.59546e-06 1.1434e-06 -0.000110392
0.00189151 -0.000399208 1.54525e-06
-0.000399208 4.69794e-05 -5.67433e-07
1.54525e-06 -5.67433e-07 -8.25055e-05
0.00122028 -0.00043691 2.77907e-06
-0.00043691 -7.10487e-05 5.23269e-06
2.77907e-06 5.23269e-06 -0.00033969
0.00176585 -0.000386897 -5.20691e-07
-0.000386897 9.29915e-05 1.24625e-06
-5.20691e-07 1.24625e-06 -8.07021e-05
0.00179726 -0.000331909 -2.729e-06
-0.000331909 6.14279e-05 -4.3981e-07
-2.729e-06 -4.3981e-07 -5.87584e-05
0.00202153 -0.000317721 -3.26258e-06
-0.000317721 0.000262725 -3.09958e-07
-3.26258e-06 -3.09958e-07 0.000140058
0.00175673 -0.000318257 -2.55158e-06
-0.000318257 9.59181e-05 3.33203e-06
-2.55158e-06 3.33203e-06 -4.95697e-05
0.0018022 -0.000335923 -1.77103e-06
-0.000335923 0.000161437 -5.49326e-06
-1.77103e-06 -5.49326e-06 -4.53697e-06
0.00172098 -0.000397081 -4.58444e-06
-0.000397081 0.000177495 -2.11148e-06
-4.58444e-06 -2.11148e-06 -4.98373e-05
0.00171693 -0.000404785 1.34777e-06
-0.000404785 0.000140191 4.82429e-07
1.34777e-06 4.82429e-07 -8.4729e-05
0.00164257 -0.000381256 4.65789e-06
-0.000381256 9.07206e-05 6.45789e-06
4.65789e-06 6.45789e-06 -0.000116834
0.00157371 -0.00039017 -6.42674e-06
-0.00039017 0.00025738 5.25847e-07
-6.42674e-06 5.25847e-07 1.69797e-06
0.00148319 -0.000431944 -7.47202e-07
-0.000431944 0.000127236 3.28354e-07
-7.47202e-07 3.28354e-07 -0.000143217
0.00186504 -0.000503715 2.90023e-06
-0.000503715 0.00032998 3.77771e-07
2.90023e-06 3.77771e-07 4.46468e-05
0.00119929 -0.000269142 -5.84863e-06
-0.000269142 0.000185915 2.61689e-06
-5.84863e-06 2.61689e-06 -2.98612e-05
0.00136916 -0.000350793 5.40281e-07
-0.000350793 0.000225298 4.76715e-07
5.40281e-07 4.76715e-07 -2.76083e-05
0.00129389 -0.000406506 1.62822e-06
-0.000406506 0.00013684 -9.29201e-07
1.62822e-06 -9.29201e-07 -0.000141353
0.000822183 -0.000180005 -6.00834e-06
-0.000180005 0.000115124 5.0105e-06
-6.00834e-06 5.0105e-06 -6.39233e-05
0.00109099 -0.000250489 9.46648e-07
-0.000250489 0.000195192 2.23246e-07
9.46648e-07 2.23246e-07 -1.81705e-05
0.00110643 -0.000290032 8.08824e-07
-0.000290032 0.000137574 -1.1585e-06
8.08824e-07 -1.1585e-06 -9.64871e-05
0.000277657 -4.11109e-05 -8.92914e-06
-4.11109e-05 -0.0001717 1.25399e-05
-8.92914e-06 1.25399e-05 -0.000234203
0.000736683 -0.000127617 8.00555e-07
-0.000127617 0.00012303 7.62351e-07
8.00555e-07 7.62351e-07 -5.10934e-05
0.00129586 -0.000250564 3.60206e-07
-0.000250564 0.00041464 -1.22926e-06
3.60206e-07 -1.22926e-06 0.000194742
0.00321067 0.000162404 -5.68125e-05
0.000162404 0.00163587 2.68681e-06
-5.68125e-05 2.68681e-06 0.00162432
0.000525193 6.81332e-06 -7.60409e-08
6.81332e-06 -1.02755e-05 -8.202e-07
-7.60409e-08 -8.202e-07 -5.99201e-05
0.00130851 -0.000114277 1.65235e-06
-0.000114277 0.00047333 -6.10721e-06
1.65235e-06 -6.10721e-06 0.000325201
0.00188446 0.000107672 2.84614e-05
0.000107672 0.000823391 7.19069e-07
2.84614e-05 7.19069e-07 0.000814151
0.00060917 3.02468e-05 3.30678e-06
3.02468e-05 3.67732e-05 -8.13736e-06
3.30678e-06 -8.13736e-06 -1.86733e-06
0.00274463 0.000123273 4.46217e-05
0.000123273 0.00133779 -3.00598e-06
4.46217e-05 -3.00598e-06 0.00133724
0.00092522 0.000161066 5.50392e-06
0.000161066 0.000197865 -1.20692e-07
5.50392e-06 -1.20692e-07 4.92514e-05
0.000512763 8.60105e-05 -1.18448e-07
8.60105e-05 -1.67752e-05 -3.39083e-07
-1.18448e-07 -3.39083e-07 -0.000149767
0.000665956 7.95984e-05 1.74969e-07
7.95984e-05 9.14461e-05 -1.27394e-06
1.74969e-07 -1.27394e-06 -4.90703e-05
0.000859731 0.000102405 -1.60994e-07
0.000102405 0.000215169 -2.6782e-07
-1.60994e-07 -2.6782e-07 7.25183e-05
0.000721564 5.39581e-05 4.13201e-08
5.39581e-05 0.000127604 2.50124e-07
4.13201e-08 2.50124e-07 -6.17906e-06
0.000702915 2.31107e-05 -6.59378e-07
2.31107e-05 9.73091e-05 -5.14513e-06
-6.59378e-07 -5.14513e-06 4.85617e-07
0.00055739 -1.25858e-05 -2.73285e-06
-1.25858e-05 -5.554e-06 -7.64516e-06
-2.73285e-06 -7.64516e-06 -3.97338e-05
0.000603294 1.28656e-05 2.9598e-07
1.28656e-05 3.65674e-05 -8.56409e-08
2.9598e-07 -8.56409e-08 -5.11839e-05
0.000614625 2.96407e-05 -1.22927e-06
2.96407e-05 4.36003e-05 2.11335e-06
-1.22927e-06 2.11335e-06 -6.90134e-05
0.00272789 -9.72064e-05 -4.75232e-05
-9.72064e-05 0.00131214 -3.94443e-06
-4.75232e-05 -3.94443e-06 0.00131768
0.000501946 -1.31519e-05 1.61903e-07
-1.31519e-05 -4.39586e-05 -1.23099e-07
1.61903e-07 -1.23099e-07 -7.28269e-05
0.000571291 2.20127e-05 5.28309e-08
2.20127e-05 1.68315e-05 3.25383e-06
5.28309e-08 3.25383e-06 -6.45961e-05
0.00259347 -8.35004e-05 -5.55062e-06
-8.35004e-05 0.00122385 3.91649e-07
-5.55062e-06 3.91649e-07 0.00123214
0.00049006 -2.35707e-05 -1.89114e-09
-2.35707e-05 -5.57769e-05 5.68277e-06
-1.89114e-09 5.68277e-06 -8.02276e-05
0.00245913 -6.70665e-05 2.65073e-05
-6.70665e-05 0.00113675 4.44824e-06
2.65073e-05 4.44824e-06 0.00114824
2.48134e-05 0.000306797 -0.00033651
0.000306797 0.00221933 8.14671e-06
-0.00033651 8.14671e-06 0.000837802
-0.00370496 6.71468e-05 2.73193e-05
6.71468e-05 0.0025422 1.19846e-05
2.73193e-05 1.19846e-05 -0.00116101
0.00493447 -6.14127e-06 -0.00010085
-6.14127e-06 0.00257274 -1.85597e-05
-0.00010085 -1.85597e-05 0.00136522
0.000384039 4.77656e-05 1.85541e-06
4.77656e-05 -9.57414e-05 -3.16778e-06
1.85541e-06 -3.16778e-06 -0.000213808
0.000726171 6.3351e-05 3.37495e-06
6.3351e-05 0.000114305 1.58961e-06
3.37495e-06 1.58961e-06 -4.4385e-05
0.00200669 0.00032714 -1.95693e-06
0.00032714 0.000895233 1.75245e-06
-1.95693e-06 1.75245e-06 0.000698276
0.00145158 0.000338537 5.10035e-06
0.000338537 0.000447387 -2.70103e-06
5.10035e-06 -2.70103e-06 0.000193951
0.000964474 0.000226654 -4.435e-06
0.000226654 0.000320453 1.85856e-07
-4.435e-06 1.85856e-07 0.000114032
0.000798123 0.000120276 -7.5142e-07
0.000120276 0.000228088 2.45944e-06
-7.5142e-07 2.45944e-06 5.01495e-05
0.000825777 0.000124224 5.90366e-06
0.000124224 0.000191924 3.86605e-06
5.90366e-06 3.86605e-06 2.14819e-05
0.000605695 0.000194203 -5.42884e-06
0.000194203 0.000114849 -3.4793e-06
-5.42884e-06 -3.4793e-06 -0.000108179
-0.000409088 0.000189217 3.15405e-06
0.000189217 -0.000590457 -9.10502e-07
3.15405e-06 -9.10502e-07 -0.000792919
0.00191134 0.000430893 5.3075e-06
0.000430893 0.00064547 -1.35241e-06
5.3075e-06 -1.35241e-06 0.000503158
0.00187903 0.000612406 1.134e-05
0.000612406 0.000340024 -4.64385e-06
1.134e-05 -4.64385e-06 0.000126357
0.00085628 0.000318183 -6.02577e-06
0.000318183 0.000141978 -8.89655e-07
-6.02577e-06 -8.89655e-07 5.07588e-06
0.000806163 0.000118663 -4.38123e-06
0.000118663 0.000226923 -1.52818e-06
-4.38123e-06 -1.52818e-06 6.69882e-05
0.0123151 0.00119934 -9.33855e-05
0.00119934 0.00264619 4.53308e-05
-9.33855e-05 4.53308e-05 0.00116282
-0.000119985 -0.000952054 -0.000270745
-0.000952054 0.00252725 -9.53906e-05
-0.000270745 -9.53906e-05 0.00063176
-0.00120995 -0.00143626 0.000199982
-0.00143626 0.00249931 3.44555e-05
0.000199982 3.44555e-05 -0.000750159
0.000325168 -0.00129664 7.51484e-05
-0.00129664 0.000513276 0.000214827
7.51484e-05 0.000214827 -0.000282666
0.0114569 0.00184622 -1.4245e-05
0.00184622 0.0048251 -1.93326e-06
-1.4245e-05 -1.93326e-06 0.00132401
-0.00109614 0.000251205 -1.81486e-05
0.000251205 -0.000489987 -3.23058e-05
-1.81486e-05 -3.23058e-05 -0.000690613
0.00167511 0.000933307 -2.6542e-05
0.000933307 0.000366284 -1.15745e-05
-2.6542e-05 -1.15745e-05 0.000518141
0.0123291 0.00164696 2.33158e-05
0.00164696 0.00370911 2.53106e-05
2.33158e-05 2.53106e-05 0.00161367
0.00621421 0.00193299 -4.01931e-05
0.00193299 0.000903953 -6.76182e-05
-4.01931e-05 -6.76182e-05 0.000565213
0.00152727 0.000739176 8.06387e-06
0.000739176 0.000106515 -4.83612e-06
8.06387e-06 -4.83612e-06 -7.65579e-05
0.00117893 0.000576908 5.79646e-06
0.000576908 0.000190454 -3.18227e-07
5.79646e-06 -3.18227e-07 -5.52313e-05
0.00102211 0.000328639 -1.92958e-05
0.000328639 0.000321466 1.22202e-05
-1.92958e-05 1.22202e-05 0.00017764
0.00262235 0.000936664 -5.30933e-05
0.000936664 0.000763336 -1.69386e-05
-5.30933e-05 -1.69386e-05 0.000341935
0.00191116 0.00107645 8.39031e-06
0.00107645 -0.000319822 1.84796e-05
8.39031e-06 1.84796e-05 -0.000503729
0.00129122 -0.000393373 -5.74275e-05
-0.000393373 -0.00345425 3.15763e-05
-5.74275e-05 3.15763e-05 -0.00371681
0.00179654 -0.000716671 4.83955e-07
-0.000716671 0.00132659 -2.42121e-05
4.83955e-07 -2.42121e-05 0.00132987
-0.00697947 -1.54623e-05 0.000196146
-1.54623e-05 0.00312528 -9.37216e-06
0.000196146 -9.37216e-06 -0.000664468
0.00142108 -0.0010269 -2.219e-05
-0.0010269 -2.72781e-05 3.31016e-06
-2.219e-05 3.31016e-06 -0.000441546
0.00320209 -0.00151998 4.71889e-05
-0.00151998 0.000321156 5.81107e-07
4.71889e-05 5.81107e-07 -0.000360005
0.00131512 -0.00030147 0.000386821
-0.00030147 0.00251122 -5.28931e-05
0.000386821 -5.28931e-05 0.00132713
0.0128479 -0.000936037 -0.000171461
-0.000936037 0.00290547 7.67153e-05
-0.000171461 7.67153e-05 0.00134769
0.00117613 -0.000714546 -3.24733e-05
-0.000714546 -0.000199166 -1.97043e-06
-3.24733e-05 -1.97043e-06 -0.000403093
0.00909744 4.15569e-05 -9.67483e-05
4.15569e-05 0.000542253 3.57197e-05
-9.67483e-05 3.57197e-05 -0.000561495
0.00523278 -0.00101195 8.75895e-05
-0.00101195 -0.000114764 8.49389e-06
8.75895e-05 8.49389e-06 -0.00014019
0.00399314 -0.000713606 6.51824e-05
-0.000713606 0.00113643 -1.63991e-05
6.51824e-05 -1.63991e-05 0.000779891
0.00287542 -0.000373062 -7.44168e-05
-0.000373062 -0.000575968 7.22341e-06
-7.44168e-05 7.22341e-06 -0.000366657
-0.00257755 -0.000168659 -1.6228e-05
-0.000168659 -0.0021483 5.83368e-06
-1.6228e-05 5.83368e-06 -0.00213124
0.00160978 -0.000534694 -2.11348e-06
-0.000534694 -0.000138215 -2.24279e-07
-2.11348e-06 -2.24279e-07 -0.000176241
0.00269319 -0.000485226 2.17012e-05
-0.000485226 0.000292565 -9.76522e-06
2.17012e-05 -9.76522e-06 0.000324295
0.000926608 -0.000526532 -3.59734e-06
-0.000526532 -0.000283827 5.43303e-06
-3.59734e-06 5.43303e-06 -0.000512301
0.00182909 -0.000514508 -2.06856e-06
-0.000514508 -2.19021e-05 8.82169e-07
-2.06856e-06 8.82169e-07 -0.000168616
0.00210763 -0.000413764 3.30937e-06
-0.000413764 1.91053e-05 5.16468e-07
3.30937e-06 5.16468e-07 -3.16391e-05
0.00205943 -0.00053084 -6.11999e-06
-0.00053084 0.000227724 7.74539e-06
-6.11999e-06 7.74539e-06 -3.59268e-08
0.00192462 -0.000400007 3.23733e-07
-0.000400007 6.61558e-05 1.67986e-06
3.23733e-07 1.67986e-06 -6.06536e-05
0.00196395 -0.00036794 -1.61625e-07
-0.00036794 9.70427e-05 1.90522e-06
-1.61625e-07 1.90522e-06 7.64878e-06
0.00171313 -0.000377467 3.19457e-06
-0.000377467 6.80499e-05 5.89161e-06
3.19457e-06 5.89161e-06 -0.000103747
0.00179999 -0.00033541 -1.64274e-07
-0.00033541 6.12203e-05 1.59477e-06
-1.64274e-07 1.59477e-06 -6.01575e-05
0.00194743 -0.000344352 -1.27729e-06
-0.000344352 0.000155017 8.48085e-07
-1.27729e-06 8.48085e-07 4.30913e-05
0.00188769 -0.000313261 -4.11503e-06
-0.000313261 0.000175846 3.47812e-06
-4.11503e-06 3.47812e-06 5.62843e-05
0.00193379 -0.000321139 8.35332e-07
-0.000321139 0.000233631 -3.01667e-06
8.35332e-07 -3.01667e-06 9.93867e-05
0.00184411 -0.000322406 3.32789e-06
-0.000322406 0.000141026 8.19848e-06
3.32789e-06 8.19848e-06 -2.24085e-07
0.00180902 -0.000336575 3.71419e-07
-0.000336575 0.000163859 -8.99799e-07
3.71419e-07 -8.99799e-07 -2.48915e-06
0.00172362 -0.0003405 -1.78337e-06
-0.0003405 0.000138383 -3.53617e-06
-1.78337e-06 -3.53617e-06 -4.66382e-05
0.00167538 -0.000364936 -4.76296e-06
-0.000364936 0.000224288 -1.7417e-06
-4.76296e-06 -1.7417e-06 -3.13782e-06
0.00177286 -0.000402248 1.11916e-07
-0.000402248 0.000209479 -1.67763e-07
1.11916e-07 -1.67763e-07 -1.95259e-05
0.00188305 -0.000417174 5.5441e-06
-0.000417174 0.000240163 3.0248e-06
5.5441e-06 3.0248e-06 1.41701e-05
0.00123287 -0.000278392 -7.58413e-06
-0.000278392 0.000138704 3.28507e-06
-7.58413e-06 3.28507e-06 -7.7409e-05
0.00146106 -0.000376657 -1.22872e-06
-0.000376657 0.000197096 2.49738e-07
-1.22872e-06 2.49738e-07 -5.68116e-05
0.00150603 -0.000435794 2.80477e-06
-0.000435794 0.000133782 1.2223e-06
2.80477e-06 1.2223e-06 -0.000137864
0.000787008 -0.000180809 -8.51452e-06
-0.000180809 1.89345e-05 6.219e-06
-8.51452e-06 6.219e-06 -0.000155996
0.00113758 -0.000266488 4.32366e-07
-0.000266488 0.000145794 -1.13382e-07
4.32366e-07 -1.13382e-07 -7.06383e-05
0.00120542 -0.00033505 3.63903e-06
-0.00033505 0.000127564 -9.28631e-07
3.63903e-06 -9.28631e-07 -0.000122668
0.000419926 -0.000117012 -1.91066e-05
-0.000117012 -0.000118674 1.40563e-05
-1.91066e-05 1.40563e-05 -0.000194817
0.000778454 -0.00018639 -2.92244e-07
-0.00018639 8.93867e-05 4.50664e-07
-2.92244e-07 4.50664e-07 -8.99117e-05
0.00104091 -0.000240558 3.59201e-06
-0.000240558 0.000166042 -1.35002e-06
3.59201e-06 -1.35002e-06 -4.50358e-05
0.00405609 0.000186046 -8.91062e-05
0.000186046 0.00215163 3.9753e-06
-8.91062e-05 3.9753e-06 0.00213402
0.000539216 -6.17156e-05 1.30304e-06
-6.17156e-05 -1.82661e-05 -4.07795e-07
1.30304e-06 -4.07795e-07 -8.38358e-05
0.00100342 -0.00017588 4.62699e-06
-0.00017588 0.000284264 -4.69694e-06
4.62699e-06 -4.69694e-06 0.000103001
0.00348322 0.000151142 1.10234e-05
0.000151142 0.0017967 2.66241e-07
1.10234e-05 2.66241e-07 0.00178883
0.000715941 -1.14646e-05 8.52061e-06
-1.14646e-05 9.87953e-05 -1.03885e-05
8.52061e-06 -1.03885e-05 4.82521e-05
0.00306032 0.000127799 7.16993e-05
0.000127799 0.00153294 -2.43642e-06
7.16993e-05 -2.43642e-06 0.00153189
0.000513615 0.000214141 4.85496e-06
0.000214141 -0.000129111 -4.63925e-06
4.85496e-06 -4.63925e-06 -0.000343397
0.000862178 0.000180297 1.65832e-06
0.000180297 0.000169514 -3.34067e-07
1.65832e-06 -3.34067e-07 1.26311e-05
0.000235791 7.51755e-05 2.15925e-06
7.51755e-05 -0.000180156 -1.1445e-06
2.15925e-06 -1.1445e-06 -0.00032587
2.35111e-05 3.58362e-05 -1.38317e-06
3.58362e-05 -0.00030604 -2.17245e-06
-1.38317e-06 -2.17245e-06 -0.000429132
0.000466577 3.91881e-05 -1.08692e-07
3.91881e-05 -3.37888e-05 9.60205e-07
-1.08692e-07 9.60205e-07 -0.000169649
0.000718889 3.94345e-05 -1.34771e-06
3.94345e-05 0.000102223 -5.11665e-06
-1.34771e-06 -5.11665e-06 -6.05513e-06
0.000528165 2.81733e-05 -6.80978e-07
2.81733e-05 4.6978e-07 2.54827e-06
-6.80978e-07 2.54827e-06 -0.000123322
0.000597037 1.49175e-05 2.94861e-07
1.49175e-05 3.64758e-05 -3.08829e-07
2.94861e-07 -3.08829e-07 -6.04043e-05
0.000585595 -1.40761e-05 -3.56175e-06
-1.40761e-05 1.65172e-05 -8.89731e-06
-3.56175e-06 -8.89731e-06 -2.36231e-05
0.00291948 -0.000112402 -5.93686e-05
-0.000112402 0.00143678 -3.6012e-06
-5.93686e-05 -3.6012e-06 0.00143882
0.000492205 -1.55117e-05 4.49406e-07
-1.55117e-05 -4.38569e-05 -1.0001e-07
4.49406e-07 -1.0001e-07 -7.79319e-05
0.000557598 1.43679e-05 5.0406e-07
1.43679e-05 1.03417e-05 4.30311e-06
5.0406e-07 4.30311e-06 -7.77518e-05
0.00274811 -9.94559e-05 -6.12019e-06
-9.94559e-05 0.00132431 4.81762e-07
-6.12019e-06 4.81762e-07 0.00132918
0.000448345 -2.93014e-05 -5.37555e-07
-2.93014e-05 -7.37174e-05 6.44212e-06
-5.37555e-07 6.44212e-06 -0.000103367
0.00257449 -8.30286e-05 3.27518e-05
-8.30286e-05 0.00121163 4.29926e-06
3.27518e-05 4.29926e-06 0.00122005
0.0122963 0.000549167 0.000266245
0.000549167 0.00251341 7.64232e-05
0.000266245 7.64232e-05 0.00165898
-0.00307635 -0.00129456 -0.000201275
-0.00129456 -0.00271584 -3.29822e-05
-0.000201275 -3.29822e-05 -0.00329548
-0.00662721 0.000648263 -8.83314e-05
0.000648263 0.00153642 -5.95302e-05
-8.83314e-05 -5.95302e-05 -0.00273669
0.000439337 2.96993e-05 1.23705e-05
2.96993e-05 -6.24447e-05 1.22423e-06
1.23705e-05 1.22423e-06 -0.000230475
0.00111693 0.000234337 -7.67606e-06
0.000234337 0.000363525 1.78885e-06
-7.67606e-06 1.78885e-06 0.000192158
0.00138806 0.000265264 -2.15886e-06
0.000265264 0.000548889 -1.7515e-06
-2.15886e-06 -1.7515e-06 0.000335887
0.00156408 0.000345593 -3.86816e-06
0.000345593 0.000529519 9.79988e-07
-3.86816e-06 9.79988e-07 0.000277495
0.00076142 0.000313847 1.32437e-05
0.000313847 -0.000102628 4.29383e-06
1.32437e-05 4.29383e-06 -0.000370055
-5.54395e-05 0.00020461 5.86157e-06
0.00020461 -0.000390569 -1.68494e-06
5.86157e-06 -1.68494e-06 -0.000602932
0.000130653 0.000164889 -5.43558e-06
0.000164889 -0.00014426 -2.69483e-06
-5.43558e-06 -2.69483e-06 -0.000364231
0.000260165 0.000265762 2.33893e-06
0.000265762 -0.000232629 1.56473e-06
2.33893e-06 1.56473e-06 -0.000459405
0.00140984 0.000399668 -7.12342e-07
0.000399668 0.000372849 1.31327e-06
-7.12342e-07 1.31327e-06 0.000219538
0.00049019 0.000369016 7.32515e-06
0.000369016 -0.000257268 2.64426e-06
7.32515e-06 2.64426e-06 -0.000463701
0.00276983 0.000653349 1.24896e-06
0.000653349 0.000794965 -1.15141e-06
1.24896e-06 -1.15141e-06 0.000606161
0.0019244 0.00064421 3.30583e-06
0.00064421 0.000291133 5.84127e-06
3.30583e-06 5.84127e-06 8.51166e-05
0.00122098 0.000549659 3.83298e-06
0.000549659 -9.93516e-06 -4.19094e-06
3.83298e-06 -4.19094e-06 -0.000197114
0.000498978 0.000299514 -4.11401e-06
0.000299514 -4.16466e-05 -1.74341e-06
-4.11401e-06 -1.74341e-06 -0.00018878
0.00591149 0.000891687 -4.00562e-06
0.000891687 0.000132646 9.83899e-06
-4.00562e-06 9.83899e-06 0.000617516
0.0106196 0.00112877 0.000140474
0.00112877 0.00174866 6.83452e-05
0.000140474 6.83452e-05 2.76568e-05
0.0071885 -0.00198678 0.000157422
-0.00198678 0.00376852 -5.06336e-05
0.000157422 -5.06336e-05 0.00256211
0.00385167 0.00204948 0.000382769
0.00204948 -0.000265563 0.000205244
0.000382769 0.000205244 -0.0040604
0.000535321 0.000681813 -6.15177e-05
0.000681813 1.63197e-05 -7.59353e-06
-6.15177e-05 -7.59353e-06 0.000285899
0.00339593 0.00144184 -9.69974e-05
0.00144184 -0.000178978 -3.03764e-05
-9.69974e-05 -3.03764e-05 -0.000236557
0.00465794 0.00122442 5.15395e-05
0.00122442 0.00092244 1.76209e-05
5.15395e-05 1.76209e-05 0.000812729
0.00336256 0.000930682 1.22316e-05
0.000930682 0.000932513 3.6344e-06
1.22316e-05 3.6344e-06 0.000731407
0.000685185 0.000499093 -1.47757e-05
0.000499093 -1.76933e-05 1.47072e-05
-1.47757e-05 1.47072e-05 -0.000244371
0.00489335 0.0013484 -0.000145229
0.0013484 0.00108559 -1.6758e-05
-0.000145229 -1.6758e-05 0.000841205
0.00304985 -0.000268898 -3.88735e-05
-0.000268898 0.000375435 7.16923e-06
-3.88735e-05 7.16923e-06 0.000335437
0.0102804 -0.000340561 -1.59652e-05
-0.000340561 0.00228124 5.4298e-06
-1.59652e-05 5.4298e-06 0.00174836
-0.0104153 -0.00104548 0.000396662
-0.00104548 -0.00562475 -3.42411e-06
0.000396662 -3.42411e-06 -0.00534867
0.000282072 -0.000655967 -5.0129e-05
-0.000655967 -0.000723422 1.08764e-05
-5.0129e-05 1.08764e-05 -0.000876778
0.00758833 -0.001337 8.68012e-05
-0.001337 0.00084688 4.71368e-05
8.68012e-05 4.71368e-05 0.00097946
0.00173905 -0.000320792 -6.20871e-05
-0.000320792 -0.00235207 6.01669e-05
-6.20871e-05 6.01669e-05 -0.00413313
0.00168571 -0.000514247 1.36094e-05
-0.000514247 -0.000179855 2.12151e-06
1.36094e-05 2.12151e-06 -0.000311453
0.00347945 -0.000252066 -1.28444e-05
-0.000252066 -0.000275065 3.87203e-06
-1.28444e-05 3.87203e-06 -0.000161888
0.00453369 -0.000503764 3.05686e-05
-0.000503764 0.00102164 -1.53193e-05
3.05686e-05 -1.53193e-05 0.00114892
0.0038077 -0.000143405 7.35784e-05
-0.000143405 0.00086036 2.6172e-06
7.35784e-05 2.6172e-06 0.000811066
-0.000858817 -0.000379705 -7.89128e-06
-0.000379705 -0.00147378 7.48604e-06
-7.89128e-06 7.48604e-06 -0.00145095
0.00182604 -0.000435973 -8.15883e-07
-0.000435973 -0.000177745 3.86737e-07
-8.15883e-07 3.86737e-07 -0.000121348
0.00191324 -0.000314216 1.65371e-05
-0.000314216 -0.000219635 -3.57723e-06
1.65371e-05 -3.57723e-06 -7.43964e-05
0.0015201 -0.00048444 -1.28611e-06
-0.00048444 -0.000176101 3.86877e-06
-1.28611e-06 3.86877e-06 -0.000320227
0.00205637 -0.00041349 1.67962e-06
-0.00041349 -6.09297e-06 6.94306e-07
1.67962e-06 6.94306e-07 -5.78493e-05
0.00199908 -0.000346373 1.22582e-06
-0.000346373 3.40572e-05 8.48542e-07
1.22582e-06 8.48542e-07 1.27019e-05
0.00190446 -0.000397429 1.47217e-06
-0.000397429 5.407e-05 3.82346e-06
1.47217e-06 3.82346e-06 -6.98498e-05
0.00192574 -0.000360678 5.31627e-07
-0.000360678 8.48482e-05 3.48331e-07
5.31627e-07 3.48331e-07 -3.08173e-06
0.00195851 -0.000325787 -2.87934e-06
-0.000325787 0.000104143 1.46523e-06
-2.87934e-06 1.46523e-06 2.26968e-05
0.0018124 -0.000338826 4.35478e-06
-0.000338826 6.68279e-05 3.25878e-06
4.35478e-06 3.25878e-06 -5.56429e-05
0.00186397 -0.000339615 9.52683e-08
-0.000339615 0.000117331 2.24632e-07
9.52683e-08 2.24632e-07 5.46118e-06
0.00175847 -0.00031269 2.20451e-06
-0.00031269 9.08673e-05 -1.2357e-06
2.20451e-06 -1.2357e-06 -2.58587e-05
0.00175541 -0.000308829 -1.45344e-06
-0.000308829 9.03228e-05 5.92498e-06
-1.45344e-06 5.92498e-06 -2.61831e-05
0.00193046 -0.000317248 -2.22755e-06
-0.000317248 0.00022685 3.02835e-07
-2.22755e-06 3.02835e-07 9.63675e-05
0.00188568 -0.000318192 4.87658e-07
-0.000318192 0.000221526 -2.06557e-06
4.87658e-07 -2.06557e-06 6.39254e-05
0.00181308 -0.000336356 3.20429e-06
-0.000336356 0.000164591 3.80716e-06
3.20429e-06 3.80716e-06 -1.89816e-06
0.00177615 -0.00034498 3.49902e-07
-0.00034498 0.000170919 -5.24209e-07
3.49902e-07 -5.24209e-07 -1.55093e-05
0.00177764 -0.000326467 -1.62457e-06
-0.000326467 0.000235981 -1.95641e-06
-1.62457e-06 -1.95641e-06 3.92769e-05
0.00128126 -0.000276174 -8.96228e-06
-0.000276174 9.99164e-05 1.68869e-06
-8.96228e-06 1.68869e-06 -0.0001081
0.00167715 -0.000366588 -9.81259e-07
-0.000366588 0.000228415 -4.51915e-07
-9.81259e-07 -4.51915e-07 -1.18327e-06
0.00182108 -0.000407241 4.03842e-06
-0.000407241 0.000239892 1.3959e-06
4.03842e-06 1.3959e-06 9.21953e-06
0.000844999 -0.000188041 -1.10952e-05
-0.000188041 -4.55628e-06 6.46359e-06
-1.10952e-05 6.46359e-06 -0.000175775
0.00120077 -0.000277979 3.46151e-07
-0.000277979 0.000114117 4.05049e-07
3.46151e-07 4.05049e-07 -0.000102283
0.00133278 -0.00036249 2.57534e-06
-0.00036249 0.000125573 2.07202e-07
2.57534e-06 2.07202e-07 -0.000126527
0.000435283 -0.000138846 -1.98715e-05
-0.000138846 -0.000131912 1.52826e-05
-1.98715e-05 1.52826e-05 -0.000219148
0.000831246 -0.000186165 3.94762e-07
-0.000186165 4.84864e-05 2.25492e-07
3.94762e-07 2.25492e-07 -0.000127823
0.00104908 -0.000261347 6.47871e-06
-0.000261347 8.96159e-05 -2.69592e-06
6.47871e-06 -2.69592e-06 -0.000127001
0.00494414 0.000190923 -0.000136454
0.000190923 0.0026862 7.78839e-06
-0.000136454 7.78839e-06 0.00266588
0.00052976 -0.000121371 -1.29917e-06
-0.000121371 -5.27996e-05 -3.09209e-07
-1.29917e-06 -3.09209e-07 -0.000133399
0.000738314 -0.000194403 7.25417e-06
-0.000194403 6.57445e-05 -5.12606e-06
7.25417e-06 -5.12606e-06 -0.000113568
0.00433119 0.000152204 1.24451e-05
0.000152204 0.00230976 7.74485e-07
1.24451e-05 7.74485e-07 0.00229988
0.00073879 -7.43632e-05 1.56202e-05
-7.43632e-05 9.82065e-05 -1.23698e-05
1.56202e-05 -1.23698e-05 3.12423e-05
0.00370034 0.000110891 0.000121496
0.000110891 0.00191948 -6.08701e-06
0.000121496 -6.08701e-06 0.0019211
0.000798233 0.000272441 -3.50468e-06
0.000272441 -5.51023e-05 -3.32683e-06
-3.50468e-06 -3.32683e-06 -0.000297857
0.00146864 0.000304445 1.23634e-06
0.000304445 0.000450157 7.52379e-07
1.23634e-06 7.52379e-07 0.000219929
0.000621637 0.000178348 7.83509e-07
0.000178348 -1.08901e-05 -6.31487e-06
7.83509e-07 -6.31487e-06 -0.000204495
0.000681416 0.000185774 -3.79713e-06
0.000185774 7.52947e-05 6.69941e-08
-3.79713e-06 6.69941e-08 -8.88449e-05
0.000246495 8.27017e-05 8.39917e-07
8.27017e-05 -0.00017729 -8.80271e-07
8.39917e-07 -8.80271e-07 -0.000327419
0.000850157 0.000127228 -2.51525e-06
0.000127228 0.000189525 -5.55509e-06
-2.51525e-06 -5.55509e-06 4.84931e-05
0.0002806 1.65496e-05 -3.81964e-07
1.65496e-05 -0.000152103 1.12615e-06
-3.81964e-07 1.12615e-06 -0.000281884
0.000638417 3.60714e-05 -1.60048e-07
3.60714e-05 5.67675e-05 -2.14412e-07
-1.60048e-07 -2.14412e-07 -5.21186e-05
0.000596619 -6.32104e-06 -5.04192e-06
-6.32104e-06 2.61636e-05 -1.00561e-05
-5.04192e-06 -1.00561e-05 -2.03863e-05
0.000519979 9.8882e-06 4.89798e-07
9.8882e-06 -8.46535e-06 5.2566e-06
4.89798e-07 5.2566e-06 -0.000104748
0.000498436 -1.10484e-05 3.15947e-07
-1.10484e-05 -3.46477e-05 -1.52593e-07
3.15947e-07 -1.52593e-07 -7.42139e-05
0.00311449 -0.000124702 -7.34153e-05
-0.000124702 0.00156369 -3.32984e-06
-7.34153e-05 -3.32984e-06 0.00156267
0.00287833 -0.000114564 -5.25622e-06
-0.000114564 0.00141159 5.03735e-07
-5.25622e-06 5.03735e-07 0.00141285
0.000452741 -3.75529e-06 3.49582e-06
-3.75529e-06 -6.8071e-05 7.58223e-06
3.49582e-06 7.58223e-06 -0.000101193
0.00269838 -9.89173e-05 4.02015e-05
-9.89173e-05 0.00129391 4.03162e-06
4.02015e-05 4.03162e-06 0.00129874
0.00383108 7.57922e-05 5.33682e-05
7.57922e-05 -0.000423993 1.68617e-05
5.33682e-05 1.68617e-05 7.30527e-05
0.00354679 -0.000654198 8.67976e-05
-0.000654198 -0.00266656 4.09363e-05
8.67976e-05 4.09363e-05 -0.00378217
0.00859118 -0.00136339 -0.000117687
-0.00136339 0.00316492 -6.58339e-05
-0.000117687 -6.58339e-05 0.00330886
0.00112852 0.000386299 7.53143e-06
0.000386299 -1.99121e-05 5.17392e-06
7.53143e-06 5.17392e-06 -0.00028594
0.00202704 0.000328108 -1.90627e-06
0.000328108 0.000910969 2.68282e-06
-1.90627e-06 2.68282e-06 0.000686485
0.00171934 0.00035804 -6.52467e-06
0.00035804 0.000637907 6.78822e-06
-6.52467e-06 6.78822e-06 0.000385695
0.000819444 0.000299519 2.16395e-06
0.000299519 0.000114475 2.45767e-06
2.16395e-06 2.45767e-06 -0.000118548
0.00121115 0.000357526 -1.72099e-06
0.000357526 0.000180945 -5.22878e-07
-1.72099e-06 -5.22878e-07 -9.84167e-05
0.00118473 0.000433837 1.19955e-05
0.000433837 0.000120374 8.25959e-06
1.19955e-05 8.25959e-06 -0.000133407
0.00113506 0.000361261 -1.29368e-05
0.000361261 0.000253176 -5.16072e-06
-1.29368e-05 -5.16072e-06 -2.63079e-06
0.000787628 0.000362681 4.2294e-06
0.000362681 3.5187e-05 1.82834e-06
4.2294e-06 1.82834e-06 -0.000125857
0.00122774 0.000446648 1.84374e-06
0.000446648 0.000148795 -1.31222e-06
1.84374e-06 -1.31222e-06 -7.08738e-05
0.00201178 0.00058444 2.86476e-06
0.00058444 0.000366749 5.57964e-06
2.86476e-06 5.57964e-06 0.000201015
0.00168788 0.000589207 7.78979e-06
0.000589207 0.00012146 2.69749e-07
7.78979e-06 2.69749e-07 -9.73737e-05
0.00173283 0.000552638 1.14053e-05
0.000552638 0.000163515 5.21856e-06
1.14053e-05 5.21856e-06 1.06908e-05
0.00118425 0.000579205 -3.53742e-06
0.000579205 -0.000103913 -2.71352e-06
-3.53742e-06 -2.71352e-06 -0.000296835
0.00058944 0.000483245 -5.7115e-06
0.000483245 -0.000337431 -2.33015e-06
-5.7115e-06 -2.33015e-06 -0.00049689
0.00162513 0.000488314 3.64364e-05
0.000488314 -0.000354145 3.54871e-05
3.64364e-05 3.54871e-05 -0.000260921
0.00548707 0.000970784 -6.43616e-05
0.000970784 -0.000393982 -1.76789e-05
-6.43616e-05 -1.76789e-05 0.00010957
0.00279845 0.000723507 0.000340664
0.000723507 -0.00252466 5.25676e-05
0.000340664 5.25676e-05 -0.00440826
0.000205326 0.00104735 -4.86669e-05
0.00104735 -0.00145802 -2.57786e-05
-4.86669e-05 -2.57786e-05 -0.00138777
0.00321733 0.000984486 -2.87836e-05
0.000984486 0.00049122 -4.73875e-06
-2.87836e-05 -4.73875e-06 0.000390363
0.00292826 0.000888246 -8.31514e-05
0.000888246 0.000691192 -2.53771e-05
-8.31514e-05 -2.53771e-05 0.000486765
0.00247997 -0.000219203 -2.7352e-05
-0.000219203 -5.74655e-05 -1.06405e-05
-2.7352e-05 -1.06405e-05 2.03585e-05
0.000619492 -0.000115353 2.76599e-05
-0.000115353 -0.000276881 7.72123e-06
2.76599e-05 7.72123e-06 -0.00027273
0.00137967 0.000803705 0.000116329
0.000803705 -0.00371951 -1.89041e-05
0.000116329 -1.89041e-05 -0.00402447
-0.000469377 -0.00033585 -2.50286e-05
-0.00033585 -0.00137547 3.59231e-05
-2.50286e-05 3.59231e-05 -0.00129328
0.00452231 -0.000232198 -6.58427e-05
-0.000232198 0.000292267 4.11527e-05
-6.58427e-05 4.11527e-05 7.202e-05
0.00233028 -0.000368955 -2.02775e-05
-0.000368955 -0.00012274 7.38595e-06
-2.02775e-05 7.38595e-06 4.68307e-05
0.0034324 -0.000191503 1.12342e-06
-0.000191503 0.000593959 -4.04935e-06
1.12342e-06 -4.04935e-06 0.00055311
0.00169774 -0.000209389 3.7258e-05
-0.000209389 -0.000407775 -3.32565e-06
3.7258e-05 -3.32565e-06 -0.000203276
0.00332321 -5.75289e-05 2.93046e-05
-5.75289e-05 0.000987401 5.7557e-07
2.93046e-05 5.7557e-07 0.000948387
0.00106228 -0.000388643 -2.02977e-05
-0.000388643 -0.000580401 8.92692e-06
-2.02977e-05 8.92692e-06 -0.000506366
0.00187125 -0.000324903 -2.559e-08
-0.000324903 -0.000261762 2.13153e-06
-2.559e-08 2.13153e-06 -0.000127858
0.00208091 -0.000306716 2.8211e-06
-0.000306716 -8.60494e-05 -1.0694e-06
2.8211e-06 -1.0694e-06 1.27183e-05
0.00197846 -0.00040862 -1.54826e-06
-0.00040862 -4.11687e-05 2.19565e-06
-1.54826e-06 2.19565e-06 -9.32811e-05
0.00199723 -0.000349122 3.55125e-07
-0.000349122 3.44355e-05 -5.19181e-08
3.55125e-07 -5.19181e-08 1.03447e-05
0.00200382 -0.000299993 -1.69856e-06
-0.000299993 6.05708e-05 4.20664e-07
-1.69856e-06 4.20664e-07 1.84273e-05
0.00189616 -0.000354021 -7.12271e-08
-0.000354021 7.79753e-05 1.01163e-07
-7.12271e-08 1.01163e-07 -8.59548e-06
0.00191067 -0.000329731 -6.3737e-07
-0.000329731 8.22687e-05 5.76414e-08
-6.3737e-07 5.76414e-08 -2.17697e-06
0.00187009 -0.00029075 -6.97048e-07
-0.00029075 0.000112041 7.30598e-07
-6.97048e-07 7.30598e-07 1.15265e-05
0.00176036 -0.000333775 -4.25491e-08
-0.000333775 6.79479e-05 4.92778e-07
-4.25491e-08 4.92778e-07 -4.38281e-05
0.00177494 -0.000314081 8.9941e-07
-0.000314081 9.67685e-05 -7.36592e-07
8.9941e-07 -7.36592e-07 -2.04234e-05
0.00180015 -0.000299994 1.71507e-06
-0.000299994 0.000131966 -2.05103e-06
1.71507e-06 -2.05103e-06 -3.76789e-06
0.00192794 -0.000313255 -4.06647e-06
-0.000313255 0.000221101 4.75295e-06
-4.06647e-06 4.75295e-06 9.44001e-05
0.00193815 -0.000318802 -1.59252e-06
-0.000318802 0.000249012 4.47641e-07
-1.59252e-06 4.47641e-07 9.5204e-05
0.00179827 -0.000299254 -1.09053e-06
-0.000299254 0.000216919 -1.54977e-06
-1.09053e-06 -1.54977e-06 4.04561e-05
0.00183085 -0.00034996 2.45865e-06
-0.00034996 0.000204597 2.22796e-06
2.45865e-06 2.22796e-06 1.66439e-05
0.00177127 -0.000328316 8.18621e-07
-0.000328316 0.000232899 -5.88488e-07
8.18621e-07 -5.88488e-07 3.53508e-05
0.00139702 -0.000255719 -6.99995e-06
-0.000255719 0.000122116 1.44367e-06
-6.99995e-06 1.44367e-06 -7.05543e-05
0.000886991 -0.000182022 -1.27307e-05
-0.000182022 -1.73909e-05 6.33733e-06
-1.27307e-05 6.33733e-06 -0.000181771
0.00126942 -0.000274432 -1.33057e-06
-0.000274432 9.59379e-05 1.44064e-07
-1.33057e-06 1.44064e-07 -0.000112482
0.00168289 -0.000368782 2.87581e-06
-0.000368782 0.000234823 2.82931e-07
2.87581e-06 2.82931e-07 2.92496e-06
0.000509437 -0.000189699 -2.22179e-05
-0.000189699 -9.09858e-05 1.59638e-05
-2.22179e-05 1.59638e-05 -0.000195344
0.000864767 -0.000190988 4.77512e-07
-0.000190988 7.46079e-06 1.85911e-07
4.77512e-07 1.85911e-07 -0.000164624
0.00120672 -0.000280616 7.12137e-06
-0.000280616 0.000112643 -1.90776e-06
7.12137e-06 -1.90776e-06 -0.000104505
0.00550287 0.000157938 -0.000172132
0.000157938 0.00300692 1.00323e-05
-0.000172132 1.00323e-05 0.00299271
0.000540347 -0.000180303 -1.32869e-06
-0.000180303 -6.48998e-05 2.13731e-07
-1.32869e-06 2.13731e-07 -0.000160395
0.000815902 -0.000190463 9.91624e-06
-0.000190463 4.25019e-05 -6.14118e-06
9.91624e-06 -6.14118e-06 -0.000135308
0.00514415 0.000150458 5.99488e-06
0.000150458 0.00279473 7.44986e-07
5.99488e-06 7.44986e-07 0.00278232
0.000690008 -0.000140068 2.00823e-05
-0.000140068 4.24844e-05 -1.49604e-05
2.00823e-05 -1.49604e-05 -4.34379e-05
0.00463063 0.000116081 0.000159158
0.000116081 0.0024805 -1.07316e-05
0.000159158 -1.07316e-05 0.00247691
0.00117878 0.00032989 -2.62056e-06
0.00032989 8.44621e-05 1.18402e-06
-2.62056e-06 1.18402e-06 -0.000167142
0.0012594 0.000317117 -2.43338e-06
0.000317117 0.000221389 -7.54379e-07
-2.43338e-06 -7.54379e-07 -2.95542e-05
0.00132625 0.000274302 -5.56262e-06
0.000274302 0.000306473 -2.04821e-06
-5.56262e-06 -2.04821e-06 8.34931e-05
0.00247131 0.000398687 -2.18922e-06
0.000398687 0.00105891 3.44039e-06
-2.18922e-06 3.44039e-06 0.000812074
0.00093096 0.000205067 -1.7946e-06
0.000205067 0.000175899 -2.38143e-06
-1.7946e-06 -2.38143e-06 -2.31866e-05
0.000944524 0.000186016 -4.53794e-06
0.000186016 0.000235693 -6.13611e-06
-4.53794e-06 -6.13611e-06 6.34901e-05
0.000401649 9.55412e-05 -1.46087e-06
9.55412e-05 -8.9461e-05 -5.42514e-08
-1.46087e-06 -5.42514e-08 -0.000244338
0.000636956 7.14374e-05 -5.11197e-07
7.14374e-05 5.15119e-05 -3.18632e-07
-5.11197e-07 -3.18632e-07 -7.6902e-05
0.000649655 1.63895e-05 -8.2185e-06
1.63895e-05 5.40343e-05 -1.13794e-05
-8.2185e-06 -1.13794e-05 -9.48102e-07
0.000493421 1.34121e-05 6.57978e-07
1.34121e-05 -2.84056e-05 5.8582e-06
6.57978e-07 5.8582e-06 -0.000135757
0.000501048 -1.01113e-05 3.43886e-07
-1.01113e-05 -2.91292e-05 -1.75738e-07
3.43886e-07 -1.75738e-07 -7.53955e-05
0.00341565 -0.000133909 -9.29424e-05
-0.000133909 0.001754 -3.38763e-06
-9.29424e-05 -3.38763e-06 0.00175048
0.0004153 -8.60527e-06 3.80405e-06
-8.60527e-06 -8.35454e-05 8.64069e-06
3.80405e-06 8.64069e-06 -0.000122571
0.0030793 -0.000130688 -4.55745e-06
-0.000130688 0.00154286 4.7669e-07
-4.55745e-06 4.7669e-07 0.00154004
0.00287536 -0.000115746 4.97025e-05
-0.000115746 0.0014094 3.74456e-06
4.97025e-05 3.74456e-06 0.00141024
0.000448041 7.06543e-05 1.42789e-05
7.06543e-05 -0.00113293 1.25366e-05
1.42789e-05 1.25366e-05 -0.000929709
0.00502566 3.91468e-05 5.65625e-05
3.91468e-05 0.000185328 1.71374e-06
5.65625e-05 1.71374e-06 0.000584974
0.0116841 0.00072471 -7.01183e-05
0.00072471 0.00298399 -1.85291e-05
-7.01183e-05 -1.85291e-05 0.00208916
0.00170433 0.000497093 4.2958e-06
0.000497093 0.000276637 2.91722e-06
4.2958e-06 2.91722e-06 1.44743e-05
0.00184565 0.000490094 2.77008e-06
0.000490094 0.000267558 2.13884e-06
2.77008e-06 2.13884e-06 2.17647e-05
0.00120056 0.000399001 9.36786e-07
0.000399001 3.3145e-05 -2.48543e-06
9.36786e-07 -2.48543e-06 -0.000233509
0.00144567 0.000369785 -4.07385e-06
0.000369785 0.000470393 3.52486e-06
-4.07385e-06 3.52486e-06 0.000222265
0.00170808 0.000404388 -2.80625e-06
0.000404388 0.000493401 -1.8512e-06
-2.80625e-06 -1.8512e-06 0.000201681
0.00153532 0.000468851 7.43226e-06
0.000468851 0.000302272 1.43703e-06
7.43226e-06 1.43703e-06 4.59883e-05
0.00167217 0.000548111 9.29376e-08
0.000548111 8.76405e-05 -1.83974e-06
9.29376e-08 -1.83974e-06 -0.000142867
0.00195742 0.000523213 -1.06632e-05
0.000523213 0.000543798 1.52607e-07
-1.06632e-05 1.52607e-07 0.00031159
0.00135967 0.000525725 5.71053e-06
0.000525725 -5.26726e-06 1.45803e-05
5.71053e-06 1.45803e-05 -0.000150432
0.00227185 0.000638345 -2.63931e-06
0.000638345 0.000444637 1.27912e-06
-2.63931e-06 1.27912e-06 0.000220622
0.00207559 0.00055849 -8.09198e-06
0.00055849 0.000211346 -7.70591e-07
-8.09198e-06 -7.70591e-07 2.93405e-05
0.000744541 0.000286297 1.81455e-05
0.000286297 -0.000495304 9.16049e-06
1.81455e-05 9.16049e-06 -0.000519511
0.000950776 0.000489178 1.09741e-05
0.000489178 -0.000234653 4.51232e-08
1.09741e-05 4.51232e-08 -0.000381217
0.00121579 0.000574464 -1.804e-05
0.000574464 -9.35907e-05 -9.16352e-06
-1.804e-05 -9.16352e-06 -0.000283388
0.00224539 0.000515281 4.305e-06
0.000515281 -3.23269e-05 8.08688e-06
4.305e-06 8.08688e-06 1.31258e-06
0.00533839 0.000643769 1.43291e-05
0.000643769 -0.000388232 -2.28558e-05
1.43291e-05 -2.28558e-05 -0.000280694
0.00321087 0.000851137 -1.54169e-06
0.000851137 0.000779281 -3.36101e-05
-1.54169e-06 -3.36101e-05 0.000703768
0.00151403 -4.97111e-05 2.61461e-05
-4.97111e-05 -7.00643e-05 -1.21413e-06
2.61461e-05 -1.21413e-06 -4.7577e-05
0.00222228 -0.000148926 -3.2155e-05
-0.000148926 -0.000133774 6.258e-07
-3.2155e-05 6.258e-07 -7.81962e-05
0.001702 0.000234041 2.04077e-05
0.000234041 -0.00056649 -1.06981e-05
2.04077e-05 -1.06981e-05 -0.000632333
0.000120497 -0.000252372 -3.57469e-05
-0.000252372 -0.00128117 2.92409e-05
-3.57469e-05 2.92409e-05 -0.00109191
0.00350064 -0.000268011 -0.000100232
-0.000268011 0.000539123 -1.72651e-06
-0.000100232 -1.72651e-06 0.000552231
0.00200824 -0.000238771 5.17238e-06
-0.000238771 -0.000165021 -3.12812e-06
5.17238e-06 -3.12812e-06 1.71558e-05
0.00240986 -6.47414e-05 -8.57163e-06
-6.47414e-05 0.00040595 4.39639e-07
-8.57163e-06 4.39639e-07 0.000374357
0.00214134 -0.000200681 5.94345e-06
-0.000200681 1.66483e-06 7.37573e-07
5.94345e-06 7.37573e-07 3.8717e-05
0.00206286 -2.06939e-05 7.26144e-06
-2.06939e-05 3.4361e-06 1.32605e-06
7.26144e-06 1.32605e-06 -4.00727e-06
0.00185976 -0.000341439 -1.00171e-05
-0.000341439 -0.000297977 3.27468e-06
-1.00171e-05 3.27468e-06 -0.000172517
0.00210573 -0.000307963 -1.99028e-06
-0.000307963 -5.87569e-05 1.90907e-07
-1.99028e-06 1.90907e-07 2.06997e-05
0.00206028 -0.000229248 -9.53458e-07
-0.000229248 -4.97529e-06 -5.42169e-07
-9.53458e-07 -5.42169e-07 -1.90645e-06
0.00200292 -0.000352812 -2.46963e-06
-0.000352812 3.80257e-05 -4.24729e-07
-2.46963e-06 -4.24729e-07 1.04622e-05
0.00199108 -0.000296091 1.55782e-09
-0.000296091 6.42831e-05 5.02432e-08
1.55782e-09 5.02432e-08 1.69349e-05
0.0019839 -0.000261168 -1.77831e-06
-0.000261168 9.7191e-05 6.88222e-07
-1.77831e-06 6.88222e-07 2.32369e-05
0.00188038 -0.000334518 -3.78158e-07
-0.000334518 7.0811e-05 -1.63432e-06
-3.78158e-07 -1.63432e-06 -1.666e-05
0.00181617 -0.000287646 5.88201e-07
-0.000287646 7.70348e-05 -2.26152e-07
5.88201e-07 -2.26152e-07 -2.38202e-05
0.00179915 -0.00026662 7.94831e-07
-0.00026662 9.0092e-05 -6.96098e-07
7.94831e-07 -6.96098e-07 -2.47075e-05
0.0017919 -0.000315554 -3.04009e-07
-0.000315554 0.000102921 -2.28945e-07
-3.04009e-07 -2.28945e-07 -1.4739e-05
0.00182327 -0.000300587 2.45963e-08
-0.000300587 0.0001467 -4.30411e-07
2.45963e-08 -4.30411e-07 1.08444e-05
0.00173452 -0.000273918 -1.45421e-07
-0.000273918 0.00014348 -1.32218e-06
-1.45421e-07 -1.32218e-06 -1.68572e-05
0.00198779 -0.000319337 -2.05603e-06
-0.000319337 0.000274382 3.79126e-06
-2.05603e-06 3.79126e-06 0.000124381
0.00180401 -0.000300014 -6.10503e-07
-0.000300014 0.000221234 -1.26723e-07
-6.10503e-07 -1.26723e-07 4.58178e-05
0.00140184 -0.000232199 -6.06066e-06
-0.000232199 9.60398e-05 1.27425e-06
-6.06066e-06 1.27425e-06 -8.50188e-05
0.00176718 -0.000330213 3.63335e-06
-0.000330213 0.000231124 8.97489e-07
3.63335e-06 8.97489e-07 3.27378e-05
0.00140701 -0.00025743 -2.8634e-07
-0.00025743 0.000128709 -2.5213e-08
-2.8634e-07 -2.5213e-08 -6.37118e-05
0.000941644 -0.000169763 -1.37751e-05
-0.000169763 -1.13429e-05 6.12811e-06
-1.37751e-05 6.12811e-06 -0.000168396
0.000433142 -0.000174286 -2.02771e-05
-0.000174286 -0.000146735 1.48848e-05
-2.02771e-05 1.48848e-05 -0.000250505
0.000920829 -0.00018477 1.59802e-07
-0.00018477 7.84169e-07 8.4888e-08
1.59802e-07 8.4888e-08 -0.000164188
0.00124856 -0.000271953 5.74266e-06
-0.000271953 8.6438e-05 -1.39125e-06
5.74266e-06 -1.39125e-06 -0.000122296
0.00581404 8.52368e-05 -0.000202482
8.52368e-05 0.00317052 1.14462e-05
-0.000202482 1.14462e-05 0.00316831
0.000519907 -0.000185875 -1.58726e-06
-0.000185875 -9.19615e-05 8.98471e-07
-1.58726e-06 8.98471e-07 -0.000192648
0.00087873 -0.000193369 1.1696e-05
-0.000193369 1.69467e-05 -6.07512e-06
1.1696e-05 -6.07512e-06 -0.000155921
0.00561788 0.000133319 -8.71468e-07
0.000133319 0.00307373 -2.25592e-07
-8.71468e-07 -2.25592e-07 0.00306111
0.000621881 -0.00018312 2.3113e-05
-0.00018312 -1.9092e-05 -1.59044e-05
2.3113e-05 -1.59044e-05 -0.000116303
0.00530977 0.000138787 0.000175795
0.000138787 0.00289524 -1.41019e-05
0.000175795 -1.41019e-05 0.00288184
0.00148248 0.000396325 -1.81837e-06
0.000396325 0.000171351 2.36546e-06
-1.81837e-06 2.36546e-06 -7.44799e-05
0.00128039 0.000343587 -1.36484e-07
0.000343587 0.000142399 5.68661e-07
-1.36484e-07 5.68661e-07 -0.000110768
0.00112311 0.000266582 -7.13404e-06
0.000266582 8.88483e-05 -1.74292e-06
-7.13404e-06 -1.74292e-06 -0.000128844
0.00168571 0.000358342 -4.79829e-07
0.000358342 0.000477199 2.0302e-06
-4.79829e-07 2.0302e-06 0.00021882
0.00106026 0.000247108 -2.08555e-06
0.000247108 0.000149807 9.86062e-07
-2.08555e-06 9.86062e-07 -6.76864e-05
0.00092264 0.000202979 -7.85924e-06
0.000202979 0.000159899 -4.86876e-06
-7.85924e-06 -4.86876e-06 -2.20425e-05
0.00101292 0.000212958 -1.57351e-06
0.000212958 0.000226305 1.12262e-06
-1.57351e-06 1.12262e-06 2.486e-05
0.000769119 0.000152541 -2.06275e-08
0.000152541 0.000136774 -2.51834e-08
-2.06275e-08 -2.51834e-08 -3.14239e-05
0.000710693 8.05677e-05 -1.51534e-05
8.05677e-05 7.99452e-05 -1.39556e-05
-1.51534e-05 -1.39556e-05 7.12558e-06
0.00057153 3.01608e-05 1.0027e-06
3.01608e-05 1.05715e-05 5.23711e-06
1.0027e-06 5.23711e-06 -0.000111217
0.000482947 7.46538e-06 -4.33522e-07
7.46538e-06 -4.21717e-05 -4.16999e-07
-4.33522e-07 -4.16999e-07 -9.64549e-05
0.00386793 -0.000135538 -0.000121266
-0.000135538 0.00203266 -5.09243e-06
-0.000121266 -5.09243e-06 0.00202735
0.00040587 -1.00705e-05 4.25357e-06
-1.00705e-05 -8.50119e-05 9.70223e-06
4.25357e-06 9.70223e-06 -0.000130632
0.00330275 -0.000144519 -4.58012e-06
-0.000144519 0.00168749 4.64054e-07
-4.58012e-06 4.64054e-07 0.00168086
0.00302113 -0.000132151 5.89279e-05
-0.000132151 0.00150755 3.42296e-06
5.89279e-05 3.42296e-06 0.00150405
0.000611143 8.20746e-05 2.16851e-05
8.20746e-05 -0.000608654 8.53261e-06
2.16851e-05 8.53261e-06 -0.000518711
0.00216048 6.13966e-05 -9.46943e-06
6.13966e-05 -0.000432 -2.09888e-06
-9.46943e-06 -2.09888e-06 -0.000205985
0.0041081 8.35972e-05 0.000155146
8.35972e-05 -0.000753511 4.12478e-05
0.000155146 4.12478e-05 7.39841e-05
0.00238198 0.000556713 -2.43986e-06
0.000556713 0.000499738 -1.79877e-07
-2.43986e-06 -1.79877e-07 0.000263454
0.00161833 0.00050846 -2.96177e-06
0.00050846 0.000211122 -3.72394e-06
-2.96177e-06 -3.72394e-06 -4.8613e-05
0.00198621 0.000422853 -6.19421e-07
0.000422853 0.000209581 3.23362e-06
-6.19421e-07 3.23362e-06 1.40924e-05
0.00182787 0.000482267 8.68406e-07
0.000482267 0.000254616 2.74639e-07
8.68406e-07 2.74639e-07 1.0927e-05
0.00127334 0.000412114 1.03984e-06
0.000412114 8.39701e-05 -7.65604e-06
1.03984e-06 -7.65604e-06 -0.000183372
0.0018183 0.000440626 -1.48753e-07
0.000440626 4.24948e-05 8.37333e-07
-1.48753e-07 8.37333e-07 -0.000131661
0.00196582 0.000512867 -5.60517e-06
0.000512867 0.000533301 -2.28499e-06
-5.60517e-06 -2.28499e-06 0.000272333
0.00196012 0.000562631 1.46809e-07
0.000562631 0.000268518 -1.16939e-07
1.46809e-07 -1.16939e-07 3.50967e-05
0.00183635 0.000327576 -6.07257e-06
0.000327576 -5.41299e-05 -5.981e-07
-6.07257e-06 -5.981e-07 -0.000139736
0.00275513 0.0006801 -6.3651e-07
0.0006801 0.000709396 2.51399e-06
-6.3651e-07 2.51399e-06 0.000481824
0.00199492 0.000556806 -1.79181e-06
0.000556806 0.000157537 1.22974e-08
-1.79181e-06 1.22974e-08 -2.75429e-05
0.000885681 0.00029786 5.43855e-06
0.00029786 -0.000380445 3.34199e-06
5.43855e-06 3.34199e-06 -0.000413231
-0.000523692 0.000376705 -9.61268e-06
0.000376705 -0.000992824 -2.03344e-06
-9.61268e-06 -2.03344e-06 -0.00112666
0.00238481 0.000537624 -6.69265e-05
0.000537624 2.51327e-05 -2.91293e-05
-6.69265e-05 -2.91293e-05 6.61211e-06
0.00192383 4.86499e-05 7.49048e-08
4.86499e-05 -9.96286e-05 -3.75109e-07
7.49048e-08 -3.75109e-07 -7.53934e-05
0.00224785 -4.51676e-05 1.81211e-06
-4.51676e-05 0.000395408 9.64147e-07
1.81211e-06 9.64147e-07 0.000415753
0.00175987 -0.000101287 -5.9205e-05
-0.000101287 -0.000267827 7.88339e-07
-5.9205e-05 7.88339e-07 -0.000326199
0.00231641 -0.000267676 -4.19708e-05
-0.000267676 7.42532e-05 3.82976e-06
-4.19708e-05 3.82976e-06 0.000227649
0.00150308 -8.30658e-05 -1.09857e-05
-8.30658e-05 -0.000168305 6.10071e-07
-1.09857e-05 6.10071e-07 -0.000191276
0.00206587 -0.00019531 -5.38455e-09
-0.00019531 -4.64753e-05 -9.06164e-07
-5.38455e-09 -9.06164e-07 4.18575e-06
0.00212007 -2.18659e-05 -1.32545e-06
-2.18659e-05 1.43058e-05 1.45994e-06
-1.32545e-06 1.45994e-06 1.33167e-05
0.00214059 -7.11678e-05 -1.18402e-06
-7.11678e-05 2.11271e-05 -2.45127e-07
-1.18402e-06 -2.45127e-07 3.4336e-05
0.00211735 -0.000306448 -4.66728e-06
-0.000306448 -3.5047e-05 7.02125e-07
-4.66728e-06 7.02125e-07 2.58479e-05
0.00203832 -0.000220697 4.21846e-07
-0.000220697 -5.70128e-06 -1.95233e-07
4.21846e-07 -1.95233e-07 -4.50267e-06
0.00200376 -0.000179128 -1.85638e-06
-0.000179128 2.95049e-05 -9.23405e-09
-1.85638e-06 -9.23405e-09 2.55485e-06
0.00197774 -0.000292427 1.04389e-06
-0.000292427 6.69073e-05 -8.98443e-07
1.04389e-06 -8.98443e-07 1.49993e-05
0.00190681 -0.000255632 2.59275e-07
-0.000255632 5.88588e-05 1.07095e-07
2.59275e-07 1.07095e-07 -1.7156e-05
0.00183767 -0.000211415 -2.60739e-07
-0.000211415 7.34233e-05 -3.48529e-07
-2.60739e-07 -3.48529e-07 -1.92688e-05
0.00176577 -0.000284818 1.33302e-06
-0.000284818 4.31736e-05 -1.00844e-06
1.33302e-06 -1.00844e-06 -5.80173e-05
0.00184354 -0.000267963 1.41048e-07
-0.000267963 0.000116121 -1.28097e-07
1.41048e-07 -1.28097e-07 1.12376e-06
0.00179083 -0.000242016 5.34454e-07
-0.000242016 0.000134641 -1.1205e-06
5.34454e-07 -1.1205e-06 -6.70439e-06
0.0018418 -0.000300975 -9.6223e-07
-0.000300975 0.000158754 1.0218e-06
-9.6223e-07 1.0218e-06 2.27855e-05
0.00176766 -0.000275083 -3.10697e-07
-0.000275083 0.000164201 -8.57396e-08
-3.10697e-07 -8.57396e-08 4.06158e-06
0.0014488 -0.000211481 -4.34305e-06
-0.000211481 9.47375e-05 9.21237e-07
-4.34305e-06 9.21237e-07 -7.59486e-05
0.00180937 -0.000300674 5.38698e-07
-0.000300674 0.00022517 1.4339e-06
5.38698e-07 1.4339e-06 5.08334e-05
0.00142566 -0.000233429 -2.75027e-07
-0.000233429 0.000109425 6.94669e-08
-2.75027e-07 6.94669e-08 -7.13099e-05
0.000954473 -0.000152127 -1.40604e-05
-0.000152127 -2.10536e-05 5.61016e-06
-1.40604e-05 5.61016e-06 -0.000172126
0.00141536 -0.000259083 6.108e-06
-0.000259083 0.000134294 -1.09824e-06
6.108e-06 -1.09824e-06 -5.78774e-05
0.000957774 -0.000169781 1.94025e-07
-0.000169781 -3.85773e-06 8.20305e-08
1.94025e-07 8.20305e-08 -0.000160671
0.00250047 -0.000131668 -3.49257e-05
-0.000131668 0.00108636 9.40857e-06
-3.49257e-05 9.40857e-06 0.00100276
0.00181104 -6.07819e-05 -0.000199144
-6.07819e-05 0.000740968 2.33242e-05
-0.000199144 2.33242e-05 0.000723267
0.00154824 -0.0001643 -7.4699e-06
-0.0001643 0.000520018 -4.04135e-07
-7.4699e-06 -4.04135e-07 0.000423623
0.000951919 -0.000187224 1.27407e-05
-0.000187224 1.75946e-05 -5.97474e-06
1.27407e-05 -5.97474e-06 -0.000147955
0.00589063 6.83506e-05 -6.64807e-06
6.83506e-05 0.00322317 -1.75431e-07
-6.64807e-06 -1.75431e-07 0.00321771
0.000564957 -0.00021125 2.43959e-05
-0.00021125 -6.67181e-05 -1.54718e-05
2.43959e-05 -1.54718e-05 -0.000169471
0.00573911 0.000113171 0.000196439
0.000113171 0.00315134 -1.74935e-05
0.000196439 -1.74935e-05 0.00313649
0.00197383 0.000329377 1.33693e-07
0.000329377 0.000172753 2.26946e-07
1.33693e-07 2.26946e-07 1.25609e-05
0.00178278 0.000399185 1.58822e-06
0.000399185 0.000222689 3.31445e-06
1.58822e-06 3.31445e-06 4.81776e-06
0.00172664 0.000420302 3.78356e-08
0.000420302 0.000306054 1.78763e-07
3.78356e-08 1.78763e-07 5.77921e-05
0.00117562 0.000283713 -7.05341e-06
0.000283713 6.37408e-05 -1.24903e-06
-7.05341e-06 -1.24903e-06 -0.000150482
0.00140948 0.000360591 4.54827e-06
0.000360591 0.000216664 1.06785e-06
4.54827e-06 1.06785e-06 -3.88798e-05
0.0011321 0.000262934 -9.52633e-08
0.000262934 9.78544e-05 4.69947e-08
-9.52633e-08 4.69947e-08 -0.000118351
0.000799094 0.00018618 -1.04444e-05
0.00018618 1.4712e-06 -5.52822e-06
-1.04444e-05 -5.52822e-06 -0.000170998
0.000855505 0.000226284 2.95717e-06
0.000226284 2.87254e-05 4.8217e-06
2.95717e-06 4.8217e-06 -0.000184343
0.000766527 0.000187908 3.84354e-08
0.000187908 6.65018e-05 9.29651e-07
3.84354e-08 9.29651e-07 -0.000114648
0.000711647 0.000169612 -2.26279e-05
0.000169612 6.04114e-05 -1.54822e-05
-2.26279e-05 -1.54822e-05 -3.25948e-05
0.000561325 0.000120918 1.40985e-06
0.000120918 1.01492e-05 4.63888e-06
1.40985e-06 4.63888e-06 -0.000150545
0.000584458 6.90579e-05 -2.00952e-06
6.90579e-05 6.6195e-06 -6.33726e-07
-2.00952e-06 -6.33726e-07 -6.16185e-05
0.00465564 -0.000131526 -0.000161165
-0.000131526 0.00251119 -9.95137e-06
-0.000161165 -9.95137e-06 0.00250151
0.000366044 -1.23019e-06 5.28658e-06
-1.23019e-06 -0.000107729 1.09819e-05
5.28658e-06 1.09819e-05 -0.000162008
0.00369474 -0.000159065 -6.13719e-06
-0.000159065 0.0019334 4.7553e-07
-6.13719e-06 4.7553e-07 0.0019223
0.00323992 -0.000149837 6.99272e-05
-0.000149837 0.00165015 3.00004e-06
6.99272e-05 3.00004e-06 0.00164187
0.00201597 0.000170175 -7.0617e-07
0.000170175 -4.81396e-05 -2.44018e-07
-7.0617e-07 -2.44018e-07 -3.96498e-05
0.0019368 5.91689e-05 1.97025e-05
5.91689e-05 8.42759e-05 -1.71442e-06
1.97025e-05 -1.71442e-06 0.000161748
0.0044709 8.31733e-05 -0.000104265
8.31733e-05 0.000549544 -1.5767e-05
-0.000104265 -1.5767e-05 0.000826637
0.00183852 0.000379339 -3.54116e-06
0.000379339 6.81389e-05 1.05805e-06
-3.54116e-06 1.05805e-06 -9.49016e-05
0.00197747 0.000518383 -2.82792e-06
0.000518383 0.000281751 -9.63158e-08
-2.82792e-06 -9.63158e-08 4.98747e-05
0.00154522 0.000520487 -9.92707e-06
0.000520487 0.000154862 -7.88677e-06
-9.92707e-06 -7.88677e-06 -0.000102115
0.00207567 0.000416314 2.89585e-06
0.000416314 0.000277078 1.13594e-06
2.89585e-06 1.13594e-06 8.39225e-05
0.00179225 0.00047361 -1.63566e-06
0.00047361 0.000232053 -2.92572e-06
-1.63566e-06 -2.92572e-06 -9.55372e-06
0.00222378 0.000320859 -2.87766e-07
0.000320859 0.000172292 5.09711e-08
-2.87766e-07 5.09711e-08 7.50515e-05
0.00172974 0.000436006 -1.2016e-07
0.000436006 1.37327e-05 8.01858e-07
-1.2016e-07 8.01858e-07 -0.000161137
0.00229143 0.000581329 -5.43809e-06
0.000581329 0.000473053 -5.67065e-07
-5.43809e-06 -5.67065e-07 0.000235787
0.00187559 0.000330513 -9.72294e-07
0.000330513 -2.66298e-05 -5.26685e-07
-9.72294e-07 -5.26685e-07 -0.000113046
0.0020712 0.000565797 1.59212e-05
0.000565797 0.000179915 3.50787e-06
1.59212e-05 3.50787e-06 -8.878e-06
0.00110897 0.000298582 -3.13904e-05
0.000298582 -0.00023289 -7.12545e-06
-3.13904e-05 -7.12545e-06 -0.000272312
0.00209187 5.66924e-05 -9.55916e-07
5.66924e-05 3.47749e-06 4.24755e-07
-9.55916e-07 4.24755e-07 1.69015e-05
0.0020343 5.86605e-05 -1.82955e-06
5.86605e-05 -2.23223e-05 1.92232e-07
-1.82955e-06 1.92232e-07 -2.03928e-06
0.00293722 -3.66121e-05 -3.96024e-05
-3.66121e-05 0.000840058 3.15353e-06
-3.96024e-05 3.15353e-06 0.000854487
0.0019863 -0.000188329 -1.08592e-05
-0.000188329 -0.000100845 -2.12721e-07
-1.08592e-05 -2.12721e-07 -3.73219e-05
0.00215227 -2.03814e-05 -4.44132e-06
-2.03814e-05 5.56526e-06 -2.73306e-06
-4.44132e-06 -2.73306e-06 1.04746e-05
0.00210109 -7.53815e-05 -3.3374e-07
-7.53815e-05 -1.91855e-05 7.01255e-08
-3.3374e-07 7.01255e-08 -6.15636e-07
0.00191375 -5.83296e-05 -2.31014e-06
-5.83296e-05 1.55187e-06 3.79048e-07
-2.31014e-06 3.79048e-07 -9.69643e-06
0.00201625 -0.00021105 1.17032e-06
-0.00021105 -4.65781e-06 1.32727e-07
1.17032e-06 1.32727e-07 -5.5775e-06
0.00195821 -0.000180816 2.10338e-08
-0.000180816 1.18426e-05 -1.12304e-08
2.10338e-08 -1.12304e-08 -1.85523e-05
0.0019048 -0.000145411 1.44433e-06
-0.000145411 8.32772e-05 -1.20367e-06
1.44433e-06 -1.20367e-06 1.28269e-05
0.00182659 -0.000249773 2.04186e-06
-0.000249773 1.95305e-05 -5.37861e-07
2.04186e-06 -5.37861e-07 -5.87338e-05
0.00186966 -0.000213427 -9.61446e-08
-0.000213427 8.5175e-05 -2.62544e-08
-9.61446e-08 -2.62544e-08 -7.83846e-06
0.00182921 -0.000198983 5.41343e-07
-0.000198983 0.000115136 -9.7559e-07
5.41343e-07 -9.7559e-07 -8.08122e-06
0.00189292 -0.000269398 2.57384e-07
-0.000269398 0.000145409 3.5769e-07
2.57384e-07 3.5769e-07 3.02384e-05
0.001814 -0.000242909 -2.58091e-07
-0.000242909 0.000148195 4.03343e-08
-2.58091e-07 4.03343e-08 6.91011e-06
0.00149994 -0.000185624 -3.19628e-06
-0.000185624 9.53076e-05 5.21268e-07
-3.19628e-06 5.21268e-07 -6.45199e-05
0.00180115 -0.000276296 -2.64901e-07
-0.000276296 0.000185187 1.07533e-06
-2.64901e-07 1.07533e-06 2.52358e-05
0.00147096 -0.000212568 -2.24476e-07
-0.000212568 0.000106081 8.95841e-08
-2.24476e-07 8.95841e-08 -6.42606e-05
0.000969739 -0.000135536 -1.36454e-05
-0.000135536 -2.50971e-05 4.82277e-06
-1.36454e-05 4.82277e-06 -0.000172404
0.00144832 -0.000234607 5.15913e-06
-0.000234607 0.000122158 -1.05863e-06
5.15913e-06 -1.05863e-06 -5.82486e-05
0.000979559 -0.000151965 8.57245e-08
-0.000151965 -8.68723e-06 1.19037e-07
8.57245e-08 1.19037e-07 -0.000159238
0.0025365 -0.00013561 -4.28109e-05
-0.00013561 0.00109584 8.67581e-06
-4.28109e-05 8.67581e-06 0.00101961
0.000969849 -0.000169901 1.37737e-05
-0.000169901 1.31694e-06 -5.90765e-06
1.37737e-05 -5.90765e-06 -0.000155308
0.0026523 -0.000174753 4.00683e-05
-0.000174753 0.00117467 -5.45045e-06
4.00683e-05 -5.45045e-06 0.00109741
0.00185519 -9.9936e-05 -0.000201816
-9.9936e-05 0.000774139 2.77237e-05
-0.000201816 2.77237e-05 0.000754452
0.00377475 -4.43348e-05 -0.00019786
-4.43348e-05 0.00194356 1.49292e-05
-0.00019786 1.49292e-05 0.00193289
0.00272646 -0.000229086 0.000126627
-0.000229086 0.00122771 -1.84369e-05
0.000126627 -1.84369e-05 0.00115174
0.00594865 5.43836e-05 0.000212002
5.43836e-05 0.00326757 -2.05303e-05
0.000212002 -2.05303e-05 0.00325766
0.00211958 0.000323893 -2.53018e-06
0.000323893 0.00024714 -1.01174e-06
-2.53018e-06 -1.01174e-06 0.0001057
0.00165171 0.000313354 2.64232e-06
0.000313354 8.8097e-05 1.06882e-06
2.64232e-06 1.06882e-06 -9.34768e-05
0.00197555 0.000325425 4.14317e-07
0.000325425 0.000174286 -1.42327e-06
4.14317e-07 -1.42327e-06 1.97499e-05
0.00138181 0.000291436 -5.93784e-06
0.000291436 0.000117382 -5.4329e-07
-5.93784e-06 -5.4329e-07 -8.68702e-05
0.00185142 0.000402445 5.41641e-07
0.000402445 0.000253233 4.20016e-07
5.41641e-07 4.20016e-07 3.46778e-05
0.00197262 0.000444777 1.76882e-06
0.000444777 0.000441397 -1.81793e-06
1.76882e-06 -1.81793e-06 0.000190596
0.00123861 0.00028711 -2.57977e-07
0.00028711 0.00010425 2.42091e-07
-2.57977e-07 2.42091e-07 -0.000110583
0.000906131 0.000192782 -1.23458e-05
0.000192782 8.28882e-06 -6.14666e-06
-1.23458e-05 -6.14666e-06 -0.000160071
0.00117882 0.000262342 8.10597e-06
0.000262342 0.000130097 2.07502e-06
8.10597e-06 2.07502e-06 -8.5178e-05
0.000826972 0.000185223 -2.92689e-07
0.000185223 1.20603e-05 1.08611e-08
-2.92689e-07 1.08611e-08 -0.000159193
0.000561631 0.00020819 -2.44699e-05
0.00020819 -5.16933e-05 -1.61429e-05
-2.44699e-05 -1.61429e-05 -0.000154582
0.000632046 0.000176767 4.71147e-06
0.000176767 -1.12414e-05 5.48228e-06
4.71147e-06 5.48228e-06 -0.000192906
0.000512705 0.000138585 4.90367e-07
0.000138585 -5.85284e-05 2.98845e-07
4.90367e-07 2.98845e-07 -0.000145806
0.00551501 -0.000138554 -0.000185703
-0.000138554 0.00304318 -1.73118e-05
-0.000185703 -1.73118e-05 0.00301964
0.000254357 3.79726e-05 9.09987e-06
3.79726e-05 -0.000183482 1.29874e-05
9.09987e-06 1.29874e-05 -0.00024938
0.0043876 -0.00017895 -1.13482e-05
-0.00017895 0.0023618 8.51675e-07
-1.13482e-05 8.51675e-07 0.00234291
0.00353739 -0.000168598 8.27065e-05
-0.000168598 0.00184032 2.93755e-06
8.27065e-05 2.93755e-06 0.00182658
0.00207658 0.00018879 -1.33301e-06
0.00018879 1.46356e-05 2.10863e-07
-1.33301e-06 2.10863e-07 -1.1828e-05
0.00195617 0.000171964 9.87236e-07
0.000171964 -7.86653e-05 -1.32742e-07
9.87236e-07 -1.32742e-07 -7.10458e-05
0.00305458 4.32423e-05 -7.54267e-05
4.32423e-05 0.000673301 -9.03606e-06
-7.54267e-05 -9.03606e-06 0.000744528
0.0020292 0.000280909 2.92669e-07
0.000280909 0.000118938 2.992e-07
2.92669e-07 2.992e-07 8.11975e-06
0.00187595 0.0003783 -1.32106e-07
0.0003783 0.00011107 3.64835e-07
-1.32106e-07 3.64835e-07 -5.21949e-05
0.00158334 0.000480229 9.48114e-08
0.000480229 6.86303e-05 -1.80757e-06
9.48114e-08 -1.80757e-06 -0.000158769
0.00216837 0.000409584 -1.90143e-07
0.000409584 0.000347051 -2.24282e-06
-1.90143e-07 -2.24282e-06 0.000156342
0.00210506 0.000309762 -7.05043e-07
0.000309762 0.000108821 -2.25384e-08
-7.05043e-07 -2.25384e-08 1.24956e-05
0.00165359 0.0004323 -4.03483e-06
0.0004323 -7.97723e-06 4.89556e-07
-4.03483e-06 4.89556e-07 -0.000183731
0.00184149 0.000329625 8.59277e-06
0.000329625 -2.39189e-05 8.24254e-07
8.59277e-06 8.24254e-07 -0.000111405
0.00196127 5.26964e-05 -5.25897e-07
5.26964e-05 1.03768e-05 5.1018e-07
-5.25897e-07 5.1018e-07 3.30195e-06
0.002057 5.59358e-05 1.42269e-08
5.59358e-05 -4.95579e-06 -1.22303e-07
1.42269e-08 -1.22303e-07 4.6691e-06
0.002123 7.01692e-05 -8.53812e-06
7.01692e-05 4.4305e-05 -5.92099e-07
-8.53812e-06 -5.92099e-07 6.09255e-05
0.00183759 -1.01225e-05 -4.79046e-06
-1.01225e-05 6.07825e-06 4.85209e-07
-4.79046e-06 4.85209e-07 -1.91778e-05
0.00206178 -8.4154e-05 1.32716e-06
-8.4154e-05 -5.8632e-05 -5.76915e-07
1.32716e-06 -5.76915e-07 -3.48734e-05
0.00194305 -6.14936e-05 -6.17206e-07
-6.14936e-05 1.64338e-05 2.28058e-07
-6.17206e-07 2.28058e-07 5.24996e-06
0.00184712 -8.51354e-05 -3.15946e-06
-8.51354e-05 3.93929e-05 2.35519e-07
-3.15946e-06 2.35519e-07 -1.4885e-05
0.00191443 -0.000182489 2.43995e-06
-0.000182489 -5.49953e-06 -2.89676e-07
2.43995e-06 -2.89676e-07 -3.92549e-05
0.00187109 -0.000144418 2.00509e-06
-0.000144418 5.66731e-05 -7.69881e-07
2.00509e-06 -7.69881e-07 -1.33969e-05
0.00183901 -0.000141007 2.96913e-06
-0.000141007 0.000101481 -1.04009e-06
2.96913e-06 -1.04009e-06 -7.03622e-06
0.00190746 -0.000215099 8.93532e-07
-0.000215099 0.00010023 2.33658e-07
8.93532e-07 2.33658e-07 6.98323e-06
0.00184279 -0.000197685 -1.58555e-07
-0.000197685 0.000126566 -2.77647e-07
-1.58555e-07 -2.77647e-07 3.69467e-06
0.00153675 -0.000150856 -2.34902e-06
-0.000150856 9.05349e-05 2.06878e-07
-2.34902e-06 2.06878e-07 -5.74832e-05
0.00183558 -0.000243595 -4.89121e-07
-0.000243595 0.000161154 1.06185e-06
-4.89121e-07 1.06185e-06 1.99636e-05
0.00150637 -0.00018529 -2.21475e-07
-0.00018529 9.76099e-05 8.53939e-08
-2.21475e-07 8.53939e-08 -6.17276e-05
0.000981747 -0.000116516 -1.30448e-05
-0.000116516 -3.02343e-05 3.844e-06
-1.30448e-05 3.844e-06 -0.00017369
0.00149191 -0.000213496 3.76133e-06
-0.000213496 0.00011683 -7.44505e-07
3.76133e-06 -7.44505e-07 -5.31373e-05
0.000994978 -0.000134526 -2.59621e-09
-0.000134526 -1.26482e-05 2.16502e-07
-2.59621e-09 2.16502e-07 -0.00015918
0.0025518 -0.00013997 -5.05737e-05
-0.00013997 0.00110004 8.46009e-06
-5.05737e-05 8.46009e-06 0.0010263
0.00100572 -0.000151919 1.39503e-05
-0.000151919 4.07417e-06 -5.41801e-06
1.39503e-05 -5.41801e-06 -0.000145923
0.0026335 -0.000163582 3.65863e-05
-0.000163582 0.00115323 -4.46009e-06
3.65863e-05 -4.46009e-06 0.00108186
0.00190474 -8.65808e-05 -0.000197721
-8.65808e-05 0.000798101 2.46266e-05
-0.000197721 2.46266e-05 0.000779897
0.00278545 -0.000188509 0.000124707
-0.000188509 0.00125073 -2.00707e-05
0.000124707 -2.00707e-05 0.00117975
0.00160377 -3.85991e-05 -8.74432e-05
-3.85991e-05 0.000627455 1.08748e-05
-8.74432e-05 1.08748e-05 0.000597701
0.00562551 0.000127497 4.64845e-05
0.000127497 0.00306012 -2.23225e-06
4.64845e-05 -2.23225e-06 0.00303629
0.00192602 0.000269483 3.8083e-07
0.000269483 0.000117597 9.81583e-08
3.8083e-07 9.81583e-08 -1.10908e-05
0.0019223 0.000298635 -2.33518e-07
0.000298635 0.00020606 -8.12574e-07
-2.33518e-07 -8.12574e-07 4.58179e-05
0.00201847 0.00032063 -3.66487e-06
0.00032063 0.000181719 3.19184e-08
-3.66487e-06 3.19184e-08 3.7901e-05
0.00168087 0.000273907 -3.06593e-06
0.000273907 0.000243235 -4.9865e-07
-3.06593e-06 -4.9865e-07 5.81496e-05
0.00167875 0.000319833 7.53301e-08
0.000319833 9.30878e-05 -1.65732e-06
7.53301e-08 -1.65732e-06 -8.61619e-05
0.00198368 0.000321969 -2.94775e-06
0.000321969 0.000179653 -3.7632e-06
-2.94775e-06 -3.7632e-06 3.07103e-05
0.000967876 0.00018977 -1.37423e-05
0.00018977 -1.30617e-07 -5.78792e-06
-1.37423e-05 -5.78792e-06 -0.000162979
0.00135475 0.000290123 2.93924e-07
0.000290123 9.99824e-05 2.70739e-07
2.93924e-07 2.70739e-07 -0.000104656
0.00191695 0.000405341 2.87517e-06
0.000405341 0.000281199 -2.11083e-06
2.87517e-06 -2.11083e-06 6.20146e-05
0.00130071 0.000290198 8.06891e-06
0.000290198 0.000145002 2.25412e-06
8.06891e-06 2.25412e-06 -7.03543e-05
0.000879636 0.000189608 -6.37694e-07
0.000189608 -5.55036e-06 -2.77675e-08
-6.37694e-07 -2.77675e-08 -0.000172854
0.000509509 0.000220533 -2.51666e-05
0.000220533 -8.85471e-05 -1.57724e-05
-2.51666e-05 -1.57724e-05 -0.000195347
0.000743769 0.000178455 1.00805e-05
0.000178455 -4.32734e-05 5.71294e-06
1.00805e-05 5.71294e-06 -0.000212545
0.000495614 0.000198164 2.17412e-06
0.000198164 -8.68362e-05 5.72818e-07
2.17412e-06 5.72818e-07 -0.000189017
0.00594495 -8.0902e-05 -0.000203337
-8.0902e-05 0.00329428 -2.23471e-05
-0.000203337 -2.23471e-05 0.0032714
0.00044582 0.000127188 1.9491e-05
0.000127188 -0.000102953 1.51296e-05
1.9491e-05 1.51296e-05 -0.000182767
0.00523749 -0.000161418 -6.57083e-06
-0.000161418 0.00286729 1.64796e-07
-6.57083e-06 1.64796e-07 0.00284839
0.00408171 -0.000196282 9.97529e-05
-0.000196282 0.00218177 4.14433e-06
9.97529e-05 4.14433e-06 0.00215913
0.00198411 0.000151797 -1.70974e-06
0.000151797 6.32899e-05 8.24343e-07
-1.70974e-06 8.24343e-07 8.04145e-06
0.00208215 0.000192106 4.37477e-07
0.000192106 1.02391e-05 4.02355e-07
4.37477e-07 4.02355e-07 -1.3077e-05
0.00195042 0.00017555 1.20619e-06
0.00017555 -8.82658e-05 3.46506e-07
1.20619e-06 3.46506e-07 -8.1164e-05
0.00201888 0.000275293 4.1342e-07
0.000275293 0.000118588 4.54201e-08
4.1342e-07 4.54201e-08 1.11035e-05
0.00189579 0.000375894 -8.62939e-07
0.000375894 0.000144781 -5.70715e-07
-8.62939e-07 -5.70715e-07 -1.8525e-05
0.00199162 0.000298401 4.46553e-07
0.000298401 4.72609e-05 -3.20209e-07
4.46553e-07 -3.20209e-07 -4.78941e-05
0.00192827 5.8974e-05 -2.80936e-06
5.8974e-05 4.69515e-05 1.47565e-07
-2.80936e-06 1.47565e-07 1.92261e-05
0.0019656 4.95948e-05 3.49232e-07
4.95948e-05 1.78914e-05 -1.10045e-07
3.49232e-07 -1.10045e-07 7.95683e-06
0.00203004 5.55144e-05 1.13812e-06
5.55144e-05 -9.98274e-06 -1.63365e-07
1.13812e-06 -1.63365e-07 -3.85578e-06
0.00186236 -1.32276e-05 -1.59279e-06
-1.32276e-05 1.79651e-05 2.41726e-08
-1.59279e-06 2.41726e-08 -7.15672e-06
0.00182881 -3.48827e-05 -4.01687e-06
-3.48827e-05 3.91287e-05 9.34424e-08
-4.01687e-06 9.34424e-08 -1.75734e-05
0.00197362 -6.46028e-05 1.95867e-06
-6.46028e-05 3.2019e-05 -1.61019e-07
1.95867e-06 -1.61019e-07 2.09306e-05
0.00184859 -8.32535e-05 -2.0961e-06
-8.32535e-05 4.47977e-05 6.45613e-07
-2.0961e-06 6.45613e-07 -1.29524e-05
0.00183258 -8.52378e-05 -4.20839e-07
-8.52378e-05 9.40976e-05 -4.30869e-07
-4.20839e-07 -4.30869e-07 1.39534e-06
0.00182736 -0.000143484 3.50616e-06
-0.000143484 2.51385e-05 -4.48876e-07
3.50616e-06 -4.48876e-07 -4.46326e-05
0.00183921 -0.00014222 2.7807e-06
-0.00014222 0.000103959 -6.94374e-07
2.7807e-06 -6.94374e-07 -4.60221e-06
0.00155477 -0.000107934 -8.2198e-07
-0.000107934 7.9093e-05 -3.6294e-07
-8.2198e-07 -3.6294e-07 -5.77001e-05
0.0018421 -0.000197671 -9.47169e-07
-0.000197671 0.000128612 4.13786e-07
-9.47169e-07 4.13786e-07 5.79456e-06
0.00153587 -0.000150889 -1.26068e-07
-0.000150889 8.69845e-05 3.95019e-08
-1.26068e-07 3.95019e-08 -6.07906e-05
0.000987144 -9.27221e-05 -1.25465e-05
-9.27221e-05 -3.87115e-05 2.93623e-06
-1.25465e-05 2.93623e-06 -0.000177088
0.00151671 -0.000185223 2.56121e-06
-0.000185223 0.000101387 -3.58206e-07
2.56121e-06 -3.58206e-07 -5.74853e-05
0.00100502 -0.000114947 -1.56568e-07
-0.000114947 -1.84459e-05 2.12428e-07
-1.56568e-07 2.12428e-07 -0.000161133
0.00252317 -0.000149675 -5.39615e-05
-0.000149675 0.00107978 7.55805e-06
-5.39615e-05 7.55805e-06 0.0010063
0.00102036 -0.000133599 1.35404e-05
-0.000133599 -3.2541e-07 -4.46758e-06
1.35404e-05 -4.46758e-06 -0.000146064
0.00261893 -0.000145158 3.51906e-05
-0.000145158 0.00113652 -3.37543e-06
3.51906e-05 -3.37543e-06 0.00106833
0.00193621 -7.3471e-05 -0.000197503
-7.3471e-05 0.000810325 2.10108e-05
-0.000197503 2.10108e-05 0.000792886
0.00272979 -0.000161015 0.000122786
-0.000161015 0.00120541 -1.7267e-05
0.000122786 -1.7267e-05 0.00114107
0.00160939 -4.84831e-05 -7.93748e-05
-4.84831e-05 0.000624602 9.14369e-06
-7.93748e-05 9.14369e-06 0.000597657
0.00139475 -3.37393e-05 4.09004e-05
-3.37393e-05 0.000507381 -6.24862e-06
4.09004e-05 -6.24862e-06 0.000468279
0.00195384 0.000164563 -1.57939e-06
0.000164563 0.000111481 1.39812e-06
-1.57939e-06 1.39812e-06 1.91238e-05
0.00189335 0.000250776 -1.24825e-06
0.000250776 0.000156223 1.93157e-07
-1.24825e-06 1.93157e-07 1.22418e-05
0.00192323 0.000270407 -6.37268e-07
0.000270407 0.000105639 -9.14916e-08
-6.37268e-07 -9.14916e-08 -2.0083e-05
0.00179954 0.000253995 -2.23779e-06
0.000253995 0.000265912 -3.11381e-07
-2.23779e-06 -3.11381e-07 9.74781e-05
0.00186046 0.000293806 1.85619e-08
0.000293806 0.000175981 -1.12771e-07
1.85619e-08 -1.12771e-07 1.44556e-05
0.00191289 0.000317392 9.08834e-07
0.000317392 0.000113894 3.68556e-07
9.08834e-07 3.68556e-07 -3.23694e-05
0.00101155 0.00017446 -1.43319e-05
0.00017446 -1.76222e-06 -5.30585e-06
-1.43319e-05 -5.30585e-06 -0.00015665
0.00156552 0.000272269 3.06243e-06
0.000272269 0.000167779 5.07495e-07
3.06243e-06 5.07495e-07 -1.70797e-05
0.00171272 0.000326772 8.37554e-08
0.000326772 0.00010269 -2.48997e-06
8.37554e-08 -2.48997e-06 -7.42656e-05
0.000457913 0.000180952 -2.26281e-05
0.000180952 -0.000131717 -1.36424e-05
-2.26281e-05 -1.36424e-05 -0.000233678
0.000940139 0.000186649 -5.79218e-07
0.000186649 -1.30006e-05 1.26023e-07
-5.79218e-07 1.26023e-07 -0.000175231
0.00133142 0.000289359 7.41504e-06
0.000289359 8.41917e-05 1.37278e-06
7.41504e-06 1.37278e-06 -0.000120969
0.00087337 0.000187915 1.24545e-05
0.000187915 -7.2621e-06 6.53021e-06
1.24545e-05 6.53021e-06 -0.000173771
0.000497757 0.000202296 1.3376e-06
0.000202296 -9.2081e-05 6.87058e-07
1.3376e-06 6.87058e-07 -0.000200295
0.00610695 1.57719e-05 -0.000218086
1.57719e-05 0.00337065 -2.52942e-05
-0.000218086 -2.52942e-05 0.0033563
0.00048005 0.000183169 2.21107e-05
0.000183169 -9.42398e-05 1.57165e-05
2.21107e-05 1.57165e-05 -0.000194861
0.00581678 -0.000104176 5.40092e-06
-0.000104176 0.00320477 -9.1807e-07
5.40092e-06 -9.1807e-07 0.00318922
0.00494976 -0.00021381 0.000129752
-0.00021381 0.002709 7.15019e-06
0.000129752 7.15019e-06 0.00267948
0.00190397 0.000105815 -4.66241e-06
0.000105815 5.80204e-05 3.18129e-07
-4.66241e-06 3.18129e-07 8.29059e-06
0.00193816 0.000152228 1.28826e-06
0.000152228 3.63875e-05 6.87333e-07
1.28826e-06 6.87333e-07 -1.67949e-05
0.00207595 0.000195539 9.85653e-08
0.000195539 1.1819e-07 -2.61985e-07
9.85653e-08 -2.61985e-07 -2.03356e-05
0.00202614 0.000270027 2.98341e-06
0.000270027 0.000128939 1.47628e-07
2.98341e-06 1.47628e-07 2.48281e-05
0.0017263 6.96672e-06 -1.72571e-06
6.96672e-06 -8.80844e-06 1.95972e-07
-1.72571e-06 1.95972e-07 -6.94815e-05
0.00190251 5.0511e-05 2.20889e-07
5.0511e-05 2.85115e-05 1.08816e-07
2.20889e-07 1.08816e-07 1.06097e-06
0.00197119 4.65624e-05 1.36385e-06
4.65624e-05 2.70004e-05 -2.32526e-07
1.36385e-06 -2.32526e-07 1.38543e-05
0.00188632 -1.43863e-05 2.15257e-06
-1.43863e-05 2.92168e-05 -7.87269e-07
2.15257e-06 -7.87269e-07 4.29579e-06
0.00185792 -2.87012e-05 -2.11338e-06
-2.87012e-05 5.85463e-05 2.11958e-07
-2.11338e-06 2.11958e-07 3.79358e-06
0.0018205 -3.35373e-05 1.91968e-06
-3.35373e-05 9.07982e-05 -9.60953e-07
1.91968e-06 -9.60953e-07 4.16409e-07
0.00184294 -8.14866e-05 -1.63662e-07
-8.14866e-05 4.4585e-05 9.72716e-07
-1.63662e-07 9.72716e-07 -1.65094e-05
0.00182867 -8.55806e-05 -4.10453e-07
-8.55806e-05 9.55441e-05 3.03623e-07
-4.10453e-07 3.03623e-07 -2.5493e-06
0.00160456 -6.39305e-05 -2.09505e-06
-6.39305e-05 9.46638e-05 -3.43666e-07
-2.09505e-06 -3.43666e-07 -2.87824e-05
0.00185856 -0.000142483 2.1892e-06
-0.000142483 0.000117565 -2.52337e-07
2.1892e-06 -2.52337e-07 9.22071e-06
0.00156183 -0.000106139 8.66547e-07
-0.000106139 8.07078e-05 -2.81829e-07
8.66547e-07 -2.81829e-07 -5.56368e-05
0.000987458 -6.53614e-05 -1.23175e-05
-6.53614e-05 -4.65117e-05 2.03515e-06
-1.23175e-05 2.03515e-06 -0.000179458
0.00154364 -0.000148899 2.10087e-06
-0.000148899 8.9689e-05 -1.73579e-07
2.10087e-06 -1.73579e-07 -5.7487e-05
0.000998851 -9.20791e-05 -7.25445e-08
-9.20791e-05 -3.23742e-05 2.13236e-07
-7.25445e-08 2.13236e-07 -0.000170365
0.000548549 -8.39743e-05 -1.98745e-05
-8.39743e-05 -0.000128804 5.146e-06
-1.98745e-05 5.146e-06 -0.000208843
0.0010272 -0.000113293 1.28887e-05
-0.000113293 -7.07521e-06 -3.47283e-06
1.28887e-05 -3.47283e-06 -0.000148959
0.00158203 -9.66675e-05 5.04452e-05
-9.66675e-05 0.000501278 -3.46649e-06
5.04452e-05 -3.46649e-06 0.000429901
0.00581289 -0.00012974 -0.000257349
-0.00012974 0.00315486 1.68917e-05
-0.000257349 1.68917e-05 0.00316405
0.00270415 -0.000131112 0.000121598
-0.000131112 0.00117909 -1.38852e-05
0.000121598 -1.38852e-05 0.00111883
0.00162301 -5.58643e-05 -7.16469e-05
-5.58643e-05 0.000629891 6.16727e-06
-7.16469e-05 6.16727e-06 0.000602812
0.00131408 -7.06365e-05 5.22579e-05
-7.06365e-05 0.000460766 -7.44632e-06
5.22579e-05 -7.44632e-06 0.000420728
0.00193684 0.000118352 -2.11746e-06
0.000118352 0.000117735 1.43352e-06
-2.11746e-06 1.43352e-06 4.16653e-05
0.0019061 0.000178718 7.09673e-08
0.000178718 0.000147963 1.39561e-06
7.09673e-08 1.39561e-06 2.81519e-05
0.00196535 0.00016158 5.26169e-07
0.00016158 0.000124879 1.83327e-07
5.26169e-07 1.83327e-07 3.19797e-05
0.00163355 0.000204347 -2.52622e-06
0.000204347 0.000129113 -5.73609e-08
-2.52622e-06 -5.73609e-08 -2.49361e-05
0.00184859 0.000246659 4.56902e-07
0.000246659 0.000130693 1.76748e-08
4.56902e-07 1.76748e-08 -1.27573e-05
0.00191723 0.000271669 7.40586e-07
0.000271669 9.10624e-05 2.44143e-07
7.40586e-07 2.44143e-07 -3.1792e-05
0.000828012 0.000144427 -1.57693e-05
0.000144427 -0.000135541 -4.53999e-06
-1.57693e-05 -4.53999e-06 -0.00028358
0.00180726 0.000254369 2.59359e-06
0.000254369 0.000270149 6.50798e-07
2.59359e-06 6.50798e-07 0.00010188
0.00179155 0.000288419 -2.86469e-09
0.000288419 0.000141802 -4.06522e-07
-2.86469e-09 -4.06522e-07 -2.09621e-05
0.000448665 0.000131544 -1.95623e-05
0.000131544 -0.000158223 -1.04532e-05
-1.95623e-05 -1.04532e-05 -0.000250734
0.000857356 0.000166771 3.83419e-07
0.000166771 -9.42439e-05 3.15065e-07
3.83419e-07 3.15065e-07 -0.000249356
0.00143807 0.000269819 8.72733e-06
0.000269819 8.48019e-05 1.18576e-06
8.72733e-06 1.18576e-06 -9.96851e-05
0.00609667 0.000100352 -0.000230382
0.000100352 0.00334181 -2.49384e-05
-0.000230382 -2.49384e-05 0.0033374
0.000463323 0.000169677 8.9452e-07
0.000169677 -0.000128551 6.93559e-07
8.9452e-07 6.93559e-07 -0.000231359
0.000905891 0.000183224 1.38751e-05
0.000183224 -2.9408e-05 6.29595e-06
1.38751e-05 6.29595e-06 -0.000191005
0.000432966 0.000185804 2.10294e-05
0.000185804 -0.000127153 1.55433e-05
2.10294e-05 1.55433e-05 -0.000236432
0.0059912 5.45549e-06 9.59586e-06
5.45549e-06 0.00329178 -2.16172e-07
9.59586e-06 -2.16172e-07 0.00328456
0.00565341 -0.000138695 0.000181652
-0.000138695 0.00310112 9.51378e-06
0.000181652 9.51378e-06 0.00308763
0.00182506 6.48596e-05 -4.66378e-06
6.48596e-05 5.06508e-05 -5.44032e-07
-4.66378e-06 -5.44032e-07 -1.22614e-05
0.00188568 0.000104478 4.50037e-07
0.000104478 4.25645e-05 5.72756e-07
4.50037e-07 5.72756e-07 -7.72877e-06
0.00188837 0.00015265 2.46611e-06
0.00015265 7.24773e-06 4.53039e-07
2.46611e-06 4.53039e-07 -4.37457e-05
0.00174479 4.94346e-06 2.18324e-06
4.94346e-06 5.31336e-05 -6.43506e-07
2.18324e-06 -6.43506e-07 -4.00737e-05
0.00178399 1.09928e-05 2.41935e-07
1.09928e-05 2.80346e-05 2.05672e-07
2.41935e-07 2.05672e-07 -2.93928e-05
0.00187831 4.07653e-05 2.57214e-06
4.07653e-05 1.12822e-05 -2.78672e-07
2.57214e-06 -2.78672e-07 -1.58647e-05
0.00186458 -2.34801e-05 -4.05606e-07
-2.34801e-05 6.40776e-05 6.29875e-07
-4.05606e-07 6.29875e-07 1.10311e-05
0.00180126 -3.11579e-05 8.71509e-07
-3.11579e-05 7.86382e-05 -7.55705e-08
8.71509e-07 -7.55705e-08 -1.12324e-05
0.0017798 -2.51469e-05 1.9796e-07
-2.51469e-05 0.00020963 -5.98766e-07
1.9796e-07 -5.98766e-07 9.20444e-05
0.00182767 -8.57101e-05 -2.28189e-06
-8.57101e-05 9.98444e-05 1.07492e-06
-2.28189e-06 1.07492e-06 -3.65666e-06
0.00166136 -6.47758e-05 1.06463e-07
-6.47758e-05 0.000131621 5.68548e-08
1.06463e-07 5.68548e-08 5.65669e-06
0.000836354 -3.37915e-05 -1.36106e-05
-3.37915e-05 -0.00014387 1.21976e-06
-1.36106e-05 1.21976e-06 -0.000271904
0.00155583 -0.000106283 2.63216e-06
-0.000106283 7.43034e-05 -2.8702e-07
2.63216e-06 -2.8702e-07 -6.19415e-05
0.00099743 -6.23115e-05 -6.9466e-08
-6.23115e-05 -4.15743e-05 1.33085e-07
-6.9466e-08 1.33085e-07 -0.000173983
0.000555774 -2.13357e-05 -1.85977e-05
-2.13357e-05 -0.000128043 3.18956e-06
-1.85977e-05 3.18956e-06 -0.000205597
0.00102725 -9.09347e-05 1.24747e-05
-9.09347e-05 -1.7066e-05 -2.51358e-06
1.24747e-05 -2.51358e-06 -0.000154506
0.000553196 -6.76248e-05 -1.9604e-07
-6.76248e-05 -0.00012408 3.99937e-07
-1.9604e-07 3.99937e-07 -0.000205433
0.00581012 -2.42965e-05 -0.000248531
-2.42965e-05 0.00314906 1.02446e-05
-0.000248531 1.02446e-05 0.00316109
0.000588196 -6.99719e-05 1.5732e-05
-6.99719e-05 -0.000101701 -7.03816e-06
1.5732e-05 -7.03816e-06 -0.000185873
0.00366235 -8.51386e-05 0.000113495
-8.51386e-05 0.00186094 -4.72516e-06
0.000113495 -4.72516e-06 0.00184508
0.00127642 -7.68523e-05 5.85144e-05
-7.68523e-05 0.000439196 -7.81843e-06
5.85144e-05 -7.81843e-06 0.000397567
0.001871 0.000100416 -3.06316e-06
0.000100416 9.78098e-05 9.9368e-10
-3.06316e-06 9.9368e-10 2.21151e-05
0.00182059 0.000115733 2.14379e-06
0.000115733 0.00010429 2.35168e-06
2.14379e-06 2.35168e-06 -2.21952e-06
0.00191954 0.000113321 1.82649e-07
0.000113321 0.000107005 -1.52711e-07
1.82649e-07 -1.52711e-07 3.23922e-05
0.00157218 0.000147629 -1.37109e-06
0.000147629 8.00509e-05 6.6862e-08
-1.37109e-06 6.6862e-08 -6.31764e-05
0.00189962 0.000178195 5.48771e-07
0.000178195 0.000139714 1.91727e-07
5.48771e-07 1.91727e-07 1.86643e-05
0.00198104 0.00015841 1.3148e-06
0.00015841 0.000140677 -1.2123e-06
1.3148e-06 -1.2123e-06 4.72828e-05
0.000860781 0.000119334 -1.47037e-05
0.000119334 -0.000130736 -3.40783e-06
-1.47037e-05 -3.40783e-06 -0.000271646
0.00169772 0.000204568 3.34607e-07
0.000204568 0.000172156 3.6081e-07
3.34607e-07 3.6081e-07 1.68613e-05
0.00180605 0.000242546 7.35379e-07
0.000242546 0.000106739 -3.80847e-07
7.35379e-07 -3.80847e-07 -3.61554e-05
0.000463859 9.33386e-05 -1.8049e-05
9.33386e-05 -0.000167871 -7.56796e-06
-1.8049e-05 -7.56796e-06 -0.000252902
0.000791306 0.000142582 -2.50938e-06
0.000142582 -0.000156507 -2.52402e-07
-2.50938e-06 -2.52402e-07 -0.000304512
0.00181969 0.000255196 7.53448e-06
0.000255196 0.000277172 1.76029e-06
7.53448e-06 1.76029e-06 0.00010899
0.00601749 0.000172917 -0.000248468
0.000172917 0.00328329 -2.40301e-05
-0.000248468 -2.40301e-05 0.00328438
0.000465507 0.000127231 2.43454e-07
0.000127231 -0.000149248 4.01985e-07
2.43454e-07 4.01985e-07 -0.000242188
0.000711549 0.000159932 1.40342e-05
0.000159932 -0.000181967 5.24766e-06
1.40342e-05 5.24766e-06 -0.000337411
0.00601447 0.000114708 1.30355e-05
0.000114708 0.00329555 1.85126e-06
1.30355e-05 1.85126e-06 0.00329117
0.000454995 0.000157666 1.96578e-05
0.000157666 -0.000133535 1.34926e-05
1.96578e-05 1.34926e-05 -0.000237026
0.00590544 -2.70012e-05 0.00021482
-2.70012e-05 0.00322916 1.45303e-05
0.00021482 1.45303e-05 0.00322893
0.00185605 4.58211e-05 3.23875e-07
4.58211e-05 0.000109351 -5.30887e-07
3.23875e-07 -5.30887e-07 1.77875e-05
0.00183547 6.36345e-05 -1.75067e-06
6.36345e-05 6.57165e-05 2.12008e-07
-1.75067e-06 2.12008e-07 1.10401e-06
0.00187018 0.000103036 4.17561e-06
0.000103036 2.84274e-05 3.95639e-07
4.17561e-06 3.95639e-07 -2.23009e-05
0.00177212 -2.09867e-06 1.1752e-06
-2.09867e-06 0.000211556 -4.33656e-07
1.1752e-06 -4.33656e-07 9.60421e-05
0.00171437 4.93225e-06 -1.78544e-07
4.93225e-06 3.14527e-05 -2.44074e-08
-1.78544e-07 -2.44074e-08 -5.95137e-05
0.00182182 1.65086e-05 3.78897e-06
1.65086e-05 5.20656e-05 4.15504e-07
3.78897e-06 4.15504e-07 -2.23186e-06
0.00180424 -2.93383e-05 -3.56085e-07
-2.93383e-05 8.05739e-05 7.93298e-07
-3.56085e-07 7.93298e-07 -8.72386e-06
0.00177126 -2.49473e-05 2.83208e-06
-2.49473e-05 0.000203657 -3.15332e-07
2.83208e-06 -3.15332e-07 8.60123e-05
0.0008455 -1.16578e-05 -1.31352e-05
-1.16578e-05 -0.000134985 5.50266e-07
-1.31352e-05 5.50266e-07 -0.000259798
0.00172268 -6.58712e-05 2.19551e-06
-6.58712e-05 0.000171124 1.36204e-07
2.19551e-06 1.36204e-07 4.26315e-05
0.000919448 -3.36595e-05 -1.92534e-06
-3.36595e-05 -9.29576e-05 1.40451e-07
-1.92534e-06 1.40451e-07 -0.000220999
0.000556043 -6.89503e-06 -1.88299e-05
-6.89503e-06 -0.00012995 2.03868e-06
-1.88299e-05 2.03868e-06 -0.000205585
0.00101105 -6.04337e-05 1.19458e-05
-6.04337e-05 -3.39775e-05 -1.75509e-06
1.19458e-05 -1.75509e-06 -0.000165965
0.000533777 -3.26875e-05 8.87321e-07
-3.26875e-05 -0.000142366 -9.69364e-08
8.87321e-07 -9.69364e-08 -0.000218736
0.00573088 -0.000121928 -0.000256135
-0.000121928 0.00311148 1.1017e-05
-0.000256135 1.1017e-05 0.00311973
0.000525765 -5.08219e-05 1.79414e-05
-5.08219e-05 -0.00014053 -3.94624e-06
1.79414e-05 -3.94624e-06 -0.000221635
0.00578294 -6.06851e-05 7.66813e-06
-6.06851e-05 0.00313394 -5.88267e-08
7.66813e-06 -5.88267e-08 0.00314611
0.00162337 -2.41996e-05 0.000203215
-2.41996e-05 0.000621317 -1.17539e-05
0.000203215 -1.17539e-05 0.000609217
0.0017294 8.06181e-05 1.98759e-06
8.06181e-05 4.45003e-05 4.8002e-07
1.98759e-06 4.8002e-07 -5.77416e-05
0.00181864 0.000102836 -3.44693e-06
0.000102836 6.33205e-05 -9.81306e-07
-3.44693e-06 -9.81306e-07 -9.69732e-06
0.00156688 9.52585e-05 -4.29732e-07
9.52585e-05 7.64858e-05 2.83739e-07
-4.29732e-07 2.83739e-07 -5.56311e-05
0.00183365 0.000115253 7.32143e-07
0.000115253 0.000109598 1.75791e-07
7.32143e-07 1.75791e-07 2.95849e-06
0.00189857 0.000108352 1.65949e-06
0.000108352 9.38107e-05 -2.63583e-06
1.65949e-06 -2.63583e-06 2.06026e-05
0.00105458 9.09843e-05 -1.2571e-05
9.09843e-05 -1.40653e-05 -2.39593e-06
-1.2571e-05 -2.39593e-06 -0.000147161
0.00157209 0.000147117 1.42487e-07
0.000147117 8.24339e-05 2.93804e-08
1.42487e-07 2.93804e-08 -6.09253e-05
0.00189016 0.000177549 6.999e-07
0.000177549 0.000129922 -8.79371e-07
6.999e-07 -8.79371e-07 7.63474e-06
0.00049517 6.67526e-05 -1.76448e-05
6.67526e-05 -0.000160948 -5.43418e-06
-1.76448e-05 -5.43418e-06 -0.00024181
0.000919227 0.000121683 -2.64161e-06
0.000121683 -9.33997e-05 -1.77935e-07
-2.64161e-06 -1.77935e-07 -0.000234383
0.00176642 0.000204748 3.70229e-06
0.000204748 0.000218247 9.84034e-07
3.70229e-06 9.84034e-07 6.17365e-05
0.00594121 0.000210109 -0.000266509
0.000210109 0.00324146 -2.29737e-05
-0.000266509 -2.29737e-05 0.00324149
0.000494782 9.37217e-05 -2.4911e-08
9.37217e-05 -0.000150552 1.78659e-07
-2.4911e-08 1.78659e-07 -0.000235832
0.000755703 0.000140824 1.00418e-05
0.000140824 -0.000177105 3.79852e-06
1.00418e-05 3.79852e-06 -0.000325013
0.00597689 0.000193789 1.09101e-05
0.000193789 0.00326933 3.41464e-06
1.09101e-05 3.41464e-06 0.00326565
0.000486139 0.000121316 1.8528e-05
0.000121316 -0.000138557 1.05189e-05
1.8528e-05 1.05189e-05 -0.000231488
0.00596686 0.000110837 0.000238705
0.000110837 0.00325634 2.12951e-05
0.000238705 2.12951e-05 0.00325929
0.00174796 3.29338e-05 2.24713e-06
3.29338e-05 0.000194328 1.44236e-09
2.24713e-06 1.44236e-09 7.77625e-05
0.00181569 4.17659e-05 -1.79602e-06
4.17659e-05 8.89029e-05 9.65268e-08
-1.79602e-06 9.65268e-08 -4.23666e-06
0.00185013 6.20303e-05 4.97683e-07
6.20303e-05 8.3759e-05 9.22006e-08
4.97683e-07 9.22006e-08 1.74431e-05
0.000841912 -7.23988e-06 -1.36777e-05
-7.23988e-06 -0.000129548 -1.60177e-07
-1.36777e-05 -1.60177e-07 -0.000253038
0.00177069 3.86472e-06 3.31357e-06
3.86472e-06 0.000210517 -1.98372e-07
3.31357e-06 -1.98372e-07 9.49365e-05
0.00170153 4.64197e-06 -1.19953e-06
4.64197e-06 2.05975e-05 6.4514e-07
-1.19953e-06 6.4514e-07 -6.79367e-05
0.00176661 -2.50986e-05 5.26156e-06
-2.50986e-05 0.00020003 1.24053e-07
5.26156e-06 1.24053e-07 8.23273e-05
0.000838355 -1.1975e-05 -1.36763e-06
-1.1975e-05 -0.00014017 9.3996e-08
-1.36763e-06 9.3996e-08 -0.000265158
0.000557592 -3.03976e-05 -1.92263e-05
-3.03976e-05 -0.000129716 9.00223e-07
-1.92263e-05 9.00223e-07 -0.000203052
0.000984043 -3.26612e-05 1.05294e-05
-3.26612e-05 -5.29916e-05 -1.20362e-06
1.05294e-05 -1.20362e-06 -0.000181064
0.000536255 4.16363e-06 3.27862e-07
4.16363e-06 -0.000142327 3.21114e-08
3.27862e-07 3.21114e-08 -0.000217182
0.0057187 -9.72709e-05 -0.00026076
-9.72709e-05 0.00310256 7.91763e-06
-0.00026076 7.91763e-06 0.00311321
0.000542721 -3.773e-05 1.87869e-05
-3.773e-05 -0.00013508 -2.65875e-06
1.87869e-05 -2.65875e-06 -0.000212552
0.00574795 -1.60239e-05 -3.04757e-06
-1.60239e-05 0.00311206 1.9204e-06
-3.04757e-06 1.9204e-06 0.00312616
0.00578051 -7.75562e-05 0.000255779
-7.75562e-05 0.00313168 -9.73625e-06
0.000255779 -9.73625e-06 0.00314477
0.00153302 5.66272e-05 -2.83486e-07
5.66272e-05 6.03988e-05 1.33048e-07
-2.83486e-07 1.33048e-07 -6.57865e-05
0.00177963 8.31054e-05 -2.03875e-06
8.31054e-05 7.13631e-05 -1.35437e-06
-2.03875e-06 -1.35437e-06 -2.60115e-05
0.00176598 0.000105549 -2.95507e-06
0.000105549 2.91211e-05 -1.57316e-06
-2.95507e-06 -1.57316e-06 -4.12588e-05
0.00105589 5.4729e-05 -1.23005e-05
5.4729e-05 -1.0582e-05 -1.83899e-06
-1.23005e-05 -1.83899e-06 -0.000137813
0.00155463 9.46288e-05 1.98011e-07
9.46288e-05 7.04358e-05 -4.30463e-09
1.98011e-07 -4.30463e-09 -6.20347e-05
0.00184375 0.000114655 -4.8904e-07
0.000114655 0.000113368 -1.77437e-06
-4.8904e-07 -1.77437e-06 6.59734e-06
0.000524181 4.27534e-05 -1.72926e-05
4.27534e-05 -0.000147712 -3.92813e-06
-1.72926e-05 -3.92813e-06 -0.000225926
0.00102238 9.22813e-05 2.81886e-07
9.22813e-05 -3.33912e-05 2.1733e-07
2.81886e-07 2.1733e-07 -0.000167159
0.0015718 0.000146628 2.0528e-06
0.000146628 8.42858e-05 4.73923e-08
2.0528e-06 4.73923e-08 -5.92241e-05
0.00584387 0.000192024 -0.000277539
0.000192024 0.003185 -1.96055e-05
-0.000277539 -1.96055e-05 0.00318736
0.000525026 7.07413e-05 3.41105e-07
7.07413e-05 -0.000143065 1.57435e-07
3.41105e-07 1.57435e-07 -0.000224625
0.000974844 0.00012395 1.00758e-05
0.00012395 -5.7988e-05 3.1531e-06
1.00758e-05 3.1531e-06 -0.000199
0.00593978 0.000223984 6.37869e-06
0.000223984 0.00324699 2.95713e-06
6.37869e-06 2.95713e-06 0.00324442
0.000528705 9.56573e-05 1.78775e-05
9.56573e-05 -0.000130605 8.05574e-06
1.78775e-05 8.05574e-06 -0.00021643
0.00596341 0.000218589 0.000256701
0.000218589 0.00326318 2.68536e-05
0.000256701 2.68536e-05 0.00325883
0.00100188 1.63344e-05 -1.28713e-05
1.63344e-05 -2.89744e-05 -7.41814e-07
-1.28713e-05 -7.41814e-07 -0.000152527
0.001665 2.87012e-05 3.79269e-06
2.87012e-05 0.000144446 9.19915e-08
3.79269e-06 9.19915e-08 2.8153e-05
0.00177496 3.72973e-05 -4.47379e-06
3.72973e-05 6.80198e-05 1.5318e-07
-4.47379e-06 1.5318e-07 -2.67405e-05
0.000590537 3.07139e-05 -1.9803e-05
3.07139e-05 -0.000117931 -5.56336e-07
-1.9803e-05 -5.56336e-07 -0.000184201
0.000820522 -1.55469e-06 -1.5959e-06
-1.55469e-06 -0.000143328 6.10159e-08
-1.5959e-06 6.10159e-08 -0.000266949
0.00176863 1.05907e-05 5.46998e-06
1.05907e-05 0.000209059 1.68183e-07
5.46998e-06 1.68183e-07 9.33903e-05
0.000828039 -1.18694e-05 1.0456e-05
-1.18694e-05 -0.000147381 -4.24591e-07
1.0456e-05 -4.24591e-07 -0.000272527
0.000553764 -4.92251e-06 2.98098e-07
-4.92251e-06 -0.000131802 3.60225e-07
2.98098e-07 3.60225e-07 -0.000205396
0.00567582 3.33607e-05 -0.000265233
3.33607e-05 0.00307185 -1.09842e-07
-0.000265233 -1.09842e-07 0.00308702
0.000514304 1.57035e-05 1.83281e-05
1.57035e-05 -0.00015667 -1.24329e-06
1.83281e-05 -1.24329e-06 -0.000230395
0.00569322 -9.58855e-05 -7.7843e-06
-9.58855e-05 0.00308827 1.6426e-06
-7.7843e-06 1.6426e-06 0.00309849
0.00569848 3.18091e-06 0.000245469
3.18091e-06 0.00308281 -4.51394e-06
0.000245469 -4.51394e-06 0.00309667
0.00102745 2.98026e-05 -1.26782e-05
2.98026e-05 -1.98649e-05 -1.40731e-06
-1.26782e-05 -1.40731e-06 -0.000144142
0.00154587 5.53796e-05 -1.92606e-07
5.53796e-05 6.85478e-05 -8.01285e-08
-1.92606e-07 -8.01285e-08 -5.47739e-05
0.00183266 8.53891e-05 -4.57228e-06
8.53891e-05 9.97138e-05 -2.16994e-06
-4.57228e-06 -2.16994e-06 7.23249e-06
0.00263803 5.41579e-05 -0.000126132
5.41579e-05 0.00112445 -4.20209e-06
-0.000126132 -4.20209e-06 0.00107529
0.00101621 5.65512e-05 2.91144e-07
5.65512e-05 -3.47965e-05 1.21207e-07
2.91144e-07 1.21207e-07 -0.00016253
0.00154296 9.39361e-05 1.77453e-06
9.39361e-05 6.47369e-05 -1.37227e-07
1.77453e-06 -1.37227e-07 -6.80987e-05
0.00575457 0.000146832 -0.000278802
0.000146832 0.00312785 -1.43822e-05
-0.000278802 -1.43822e-05 0.00313554
0.00055876 6.06781e-05 8.52221e-07
6.06781e-05 -0.000124893 3.58764e-07
8.52221e-07 3.58764e-07 -0.000204828
0.000993033 9.36592e-05 1.24798e-05
9.36592e-05 -5.09217e-05 2.77512e-06
1.24798e-05 2.77512e-06 -0.00018534
0.00589778 0.000204523 1.82215e-06
0.000204523 0.00321898 1.65341e-06
1.82215e-06 1.65341e-06 0.00322031
0.000565818 7.75881e-05 1.81657e-05
7.75881e-05 -0.000117501 6.30645e-06
1.81657e-05 6.30645e-06 -0.000200402
0.00593482 0.000253222 0.000268723
0.000253222 0.0032539 2.81627e-05
0.000268723 2.81627e-05 0.00324601
0.000641122 1.00642e-05 -1.6304e-05
1.00642e-05 -7.70391e-05 -1.84855e-06
-1.6304e-05 -1.84855e-06 -0.00015181
0.000904219 1.4967e-05 6.07225e-07
1.4967e-05 -8.96558e-05 2.45975e-07
6.07225e-07 2.45975e-07 -0.000213286
0.00158176 2.36955e-05 4.49913e-06
2.36955e-05 9.42062e-05 9.33897e-08
4.49913e-06 9.33897e-08 -2.17684e-05
0.0055531 -9.54226e-05 -0.000249584
-9.54226e-05 0.00301458 1.79078e-06
-0.000249584 1.79078e-06 0.00301975
0.000549322 8.23364e-06 -5.40784e-07
8.23364e-06 -0.00013807 8.19562e-08
-5.40784e-07 8.19562e-08 -0.000206942
0.000813596 3.31012e-06 1.03845e-05
3.31012e-06 -0.00014865 1.23539e-07
1.03845e-05 1.23539e-07 -0.000272356
0.000513801 2.07129e-05 1.85495e-05
2.07129e-05 -0.000156547 1.75703e-07
1.85495e-05 1.75703e-07 -0.000229415
0.00563094 -2.39246e-06 2.36419e-06
-2.39246e-06 0.0030496 -1.11294e-06
2.36419e-06 -1.11294e-06 0.00306117
0.00569856 -1.33203e-05 0.000254281
-1.33203e-05 0.00308135 -2.62914e-06
0.000254281 -2.62914e-06 0.00309668
0.00271492 1.01995e-05 -0.00012233
1.01995e-05 0.00116769 -2.55223e-06
-0.00012233 -2.55223e-06 0.00112027
0.0010166 3.28769e-05 5.88296e-08
3.28769e-05 -2.80894e-05 8.54557e-08
5.88296e-08 8.54557e-08 -0.000152733
0.00155178 5.42769e-05 1.58677e-06
5.42769e-05 7.27756e-05 -2.81612e-07
1.58677e-06 -2.81612e-07 -4.76717e-05
0.00532981 -4.99469e-05 -9.48598e-05
-4.99469e-05 0.00288327 5.21352e-07
-9.48598e-05 5.21352e-07 0.00287004
0.000574895 5.31543e-05 9.02323e-08
5.31543e-05 -0.000116423 2.18717e-07
9.02323e-08 2.18717e-07 -0.000192923
0.000993911 5.89497e-05 1.21633e-05
5.89497e-05 -4.92144e-05 2.10833e-06
1.21633e-05 2.10833e-06 -0.00017739
0.00581081 0.000119024 -1.06875e-05
0.000119024 0.00315693 -1.39728e-06
-1.06875e-05 -1.39728e-06 0.00316616
0.000589949 8.33517e-05 1.95744e-05
8.33517e-05 -0.000105557 5.28892e-06
1.95744e-05 5.28892e-06 -0.000186247
0.0059241 0.000228732 0.000279184
0.000228732 0.00324199 2.5312e-05
0.000279184 2.5312e-05 0.00323993
0.00169401 -5.14605e-05 -0.000206593
-5.14605e-05 0.000659676 8.69374e-07
-0.000206593 8.69374e-07 0.000653488
0.00164212 2.74733e-05 -5.14645e-05
2.74733e-05 0.000519134 1.96999e-07
-5.14645e-05 1.96999e-07 0.000462734
0.000803449 1.61212e-05 1.24772e-05
1.61212e-05 -0.000151825 9.58514e-07
1.24772e-05 9.58514e-07 -0.000275602
0.00562147 -4.21875e-05 7.51277e-06
-4.21875e-05 0.00304983 1.72675e-06
7.51277e-06 1.72675e-06 0.00305956
0.000565832 -1.25551e-05 1.91245e-05
-1.25551e-05 -0.000122444 8.18545e-07
1.91245e-05 8.18545e-07 -0.000194827
0.00567301 -6.88106e-05 0.000268581
-6.88106e-05 0.00307649 -2.80759e-06
0.000268581 -2.80759e-06 0.00308841
0.00127747 1.53788e-05 -4.58325e-05
1.53788e-05 0.000433384 -7.73218e-07
-4.58325e-05 -7.73218e-07 0.000398547
0.00163152 1.43307e-05 -5.19137e-05
1.43307e-05 0.000516271 -8.34646e-07
-5.19137e-05 -8.34646e-07 0.000456516
0.000995333 3.45726e-05 1.24128e-05
3.45726e-05 -4.23476e-05 1.62449e-06
1.24128e-05 1.62449e-06 -0.000167387
0.00352083 5.5933e-05 9.89176e-05
5.5933e-05 0.00177597 2.5054e-06
9.89176e-05 2.5054e-06 0.00176579
0.000582446 6.36447e-05 1.98343e-05
6.36447e-05 -0.000111826 4.09235e-06
1.98343e-05 4.09235e-06 -0.000188334
0.00587034 0.000107738 0.000266795
0.000107738 0.0031865 1.52377e-05
0.000266795 1.52377e-05 0.00319894
0.00557467 -2.08931e-05 -8.90488e-06
-2.08931e-05 0.00302439 -2.34724e-06
-8.90488e-06 -2.34724e-06 0.00303315
0.000566021 4.59604e-05 2.05904e-05
4.59604e-05 -0.000131716 2.14371e-06
2.05904e-05 2.14371e-06 -0.000197655
0.00553736 4.65191e-05 0.000255989
4.65191e-05 0.00299587 1.682e-07
0.000255989 1.682e-07 0.00300867
0.00345162 2.80195e-05 0.000112231
2.80195e-05 0.00173821 3.77607e-06
0.000112231 3.77607e-06 0.00172881
0.0005962 6.05077e-06 1.90432e-05
6.05077e-06 -0.000105052 2.71059e-06
1.90432e-05 2.71059e-06 -0.000178006
0.00573191 -1.73259e-05 0.000256996
-1.73259e-05 0.00310543 6.66227e-06
0.000256996 6.66227e-06 0.003118
0.00561395 -0.00012428 0.000252603
-0.00012428 0.00305311 -3.40004e-06
0.000252603 -3.40004e-06 0.00305717
0.00560232 -4.03561e-06 0.000252532
-4.03561e-06 0.00302599 3.62368e-06
0.000252532 3.62368e-06 0.00304175
