# vtk DataFile Version 2.0
Wound Healing Simulation
ASCII
DATASET UNSTRUCTURED_GRID
POINTS 3012 float
69.9759 18.75 4
67.2507 60.3285 4
69.976 18.75 2
73.0099 25.446 4
71.1327 20.9142 4
68.6801 16.6661 4
67.8236 19.9265 3.97797
67.2507 60.3286 2
71.1327 54.0858 4
68.6801 58.3339 4
65.6939 62.2254 4
65.3103 59.0004 3.97724
74.6784 42.3946 4
73.7221 47.2057 4
69.9759 18.75 0
73.0099 25.446 2
68.6801 16.6661 2
71.1327 20.9142 2
67.8242 19.9301 2
74.6792 32.6053 4
73.7222 27.7943 4
72.1454 23.1494 4
70.6127 26.2213 3.97772
68.8839 21.9582 3.97842
67.2507 14.6715 4
66.635 17.9728 3.97697
65.7916 21.0284 3.96696
67.2507 60.3285 0
71.1327 54.0858 2
68.6801 58.3339 2
65.694 62.2255 2
65.3116 58.9956 2
72.1454 51.8506 4
69.9759 56.25 4
68.8345 53.1131 3.97765
64.0165 64.0165 4
66.6089 57.1332 3.97772
63.8834 60.7643 3.97741
63.4955 57.7662 3.96806
60.3285 67.2507 4
74.6792 42.3947 2
73.7222 47.2057 2
74.9194 39.9526 4
74.2788 44.8158 4
72.1671 42.0857 3.9781
73.0099 49.554 4
71.2478 46.598 3.97732
73.0099 25.446 0
71.1327 20.9142 0
68.6801 16.6661 0
67.8236 19.9265 0.0220335
74.6792 32.6053 2
73.7222 27.7943 2
67.2508 14.6715 2
72.1455 23.1494 2
70.6125 26.222 2
66.636 17.9775 2
68.8842 21.9605 2
65.7908 21.0295 2
74.9197 35.0474 4
74.2794 30.1841 4
72.1838 32.944 3.97845
71.2769 28.4319 3.97763
69.8139 24.0598 3.97821
68.3423 26.9535 3.96666
66.7573 22.9356 3.96669
65.694 12.7746 4
65.3213 16.105 3.97631
64.7079 19.1997 3.96739
63.8423 22.0532 3.96494
71.1327 54.0858 0
65.6939 62.2254 0
68.6801 58.3339 0
65.3103 59.0004 0.02276
72.1455 51.8506 2
69.9759 56.25 2
68.8346 53.111 2
64.0165 64.0165 2
66.6097 57.1289 2
63.8853 60.76 2
63.4941 57.7658 2
62.2254 65.694 4
58.893 65.4132 3.98667
69.7671 50.989 3.97739
67.7818 55.1671 3.97781
66.644 52.2076 3.96643
62.3336 62.4252 3.97959
64.6554 56.0281 3.96768
62.1975 59.3947 3.9677
61.8067 56.6678 3.96358
58.3339 68.6801 4
60.3285 67.2508 2
73.7221 47.2057 0
74.6784 42.3946 0
74.9197 39.9526 2
74.2794 44.8159 2
72.1664 42.0855 2
73.0099 49.554 2
71.2476 46.5977 2
75 37.5 4
72.4044 39.8025 3.97898
71.7813 44.3529 3.97802
69.8002 41.7901 3.96773
70.5734 48.8135 3.9771
68.9076 46.0144 3.96704
74.6792 32.6053 0
73.7222 27.7943 0
67.2507 14.6715 0
72.1454 23.1494 0
70.6127 26.2213 0.0222779
68.8839 21.9582 0.0215782
66.635 17.9728 0.0230304
65.7916 21.0284 0.0330394
74.9197 35.0474 2
74.2794 30.1841 2
72.1832 32.9443 2
71.2766 28.4324 2
65.694 12.7745 2
65.3229 16.1103 2
69.8139 24.0611 2
68.342 26.9543 2
64.707 19.2007 2
66.7568 22.9366 2
63.8425 22.0537 2
72.4123 35.2247 3.97892
71.8028 30.6769 3.97828
69.8365 33.2702 3.96791
68.962 29.0402 3.96708
67.6064 24.9141 3.96658
66.1368 27.6493 3.96716
64.0165 10.9835 4
64.7048 23.8472 3.96579
63.8872 14.3298 3.97694
63.5073 17.4551 3.96789
62.8682 20.3396 3.96389
61.9841 22.9832 3.96744
60.682 11.1007 3.98126
57.6085 11.4588 3.97226
72.1454 51.8506 0
69.9759 56.25 0
68.8345 53.1131 0.0223457
64.0165 64.0165 0
63.8834 60.7643 0.0225925
66.6089 57.1332 0.0222796
63.4955 57.7662 0.0319389
62.2255 65.694 2
58.8952 65.4111 2
69.767 50.9879 2
67.7822 55.1638 2
66.6433 52.2068 2
62.3357 62.4213 2
64.6543 56.0275 2
62.1964 59.3952 2
61.8084 56.6683 2
60.6667 63.9749 3.98275
57.0239 66.7347 3.98875
57.5555 63.6847 3.97459
67.5021 50.1755 3.96627
65.6965 54.1711 3.96692
64.4779 51.3686 3.96546
60.7687 60.9241 3.97065
62.7902 55.0541 3.96435
60.6466 58.1426 3.96344
60.2831 55.7586 3.9644
56.25 69.9759 4
58.3339 68.6801 2
60.3285 67.2507 0
58.9194 9.65831 3.98333
62.2254 9.30607 4
73.0099 49.554 0
74.2788 44.8158 0
71.2478 46.598 0.0226816
72.1671 42.0857 0.0218966
74.9194 39.9526 0
75 37.5 2
72.4043 39.8025 2
71.7811 44.3525 2
69.7995 41.7898 2
70.5732 48.8131 2
68.9075 46.0138 2
72.4878 37.5125 3.97853
70.0378 39.6582 3.96806
69.4263 43.9076 3.96757
67.5423 41.4932 3.96955
68.2608 48.1063 3.96644
66.6419 45.4286 3.96855
74.9197 35.0474 0
74.2794 30.1841 0
72.1838 32.944 0.0215542
71.2769 28.4319 0.0223695
65.694 12.7746 0
65.3213 16.105 0.0236925
69.8139 24.0598 0.0217898
68.3423 26.9535 0.033338
66.7573 22.9356 0.0333095
64.7079 19.1997 0.0326063
63.8423 22.0532 0.0350611
72.4122 35.2248 2
71.8027 30.6775 2
69.8358 33.2707 2
68.9618 29.0408 2
64.0165 10.9835 2
63.8895 14.335 2
63.5061 17.4561 2
67.606 24.9151 2
66.1369 27.6498 2
62.8688 20.34 2
64.7046 23.8478 2
61.9831 22.9839 2
60.6848 11.1045 2
57.6104 11.4574 2
70.0545 35.3935 3.96795
69.4634 31.1514 3.96743
67.6068 33.5979 3.96921
66.7145 29.6355 3.96792
65.4678 25.7154 3.96653
64.0006 28.2886 3.97199
62.3391 12.6584 3.97896
62.7339 24.6757 3.96903
62.1933 15.7983 3.96919
61.7882 18.7052 3.96323
61.1197 21.3839 3.96524
60.2506 23.7887 3.97073
59.2415 12.803 3.97028
55.8716 10.2432 3.97498
56.3983 13.1544 3.96937
69.7671 50.989 0.0226104
62.2254 65.694 0
58.893 65.4132 0.0133348
67.7818 55.1671 0.0221919
66.644 52.2076 0.0335695
62.3336 62.4252 0.0204092
62.1975 59.3947 0.0322958
64.6554 56.0281 0.0323176
61.8067 56.6678 0.0364232
60.6689 63.9719 2
57.0258 66.7333 2
57.5562 63.6854 2
67.5017 50.1747 2
65.6955 54.1703 2
64.478 51.3683 2
60.7675 60.9252 2
62.7907 55.0541 2
60.6465 58.1428 2
60.2841 55.7588 2
55.0698 67.9316 3.99042
59.2149 62.3477 3.97151
55.8025 64.9042 3.97918
56.3201 62.0628 3.97187
65.2631 49.392 3.96644
63.6588 53.2766 3.96473
62.3014 50.6144 3.96805
59.3233 59.5363 3.96572
60.9986 54.2778 3.9662
59.2511 56.982 3.96269
59.1682 55.1456 3.96689
48.1005 68.5763 3.98615
50.9475 69.9314 3.99106
54.0858 71.1327 4
56.25 69.976 2
58.3339 68.6801 0
57.0569 8.33764 3.98549
60.3285 7.74928 4
58.9225 9.66135 2
62.2255 9.30602 2
70.5734 48.8135 0.0229037
71.7813 44.3529 0.0219802
68.9076 46.0144 0.0329586
69.8002 41.7901 0.032267
72.4044 39.8025 0.0210174
75 37.5 0
72.4872 37.5125 2
70.0377 39.6582 2
69.426 43.9072 2
67.5418 41.493 2
68.2605 48.1056 2
66.6409 45.4282 2
70.1258 37.5228 3.96802
67.7849 39.5111 3.9696
67.1615 43.4622 3.96927
65.4097 41.1974 3.97625
65.9971 47.4036 3.96757
64.483 44.8216 3.97314
72.4123 35.2247 0.0210827
71.8028 30.6769 0.0217174
69.8365 33.2702 0.0320922
68.962 29.0402 0.0329184
64.0165 10.9835 0
63.8872 14.3298 0.02306
63.5073 17.4551 0.0321139
67.6064 24.9141 0.0334237
66.1368 27.6493 0.0328428
64.7048 23.8472 0.0342125
62.8682 20.3396 0.0361095
61.9841 22.9832 0.0325574
60.682 11.1007 0.0187364
57.6085 11.4588 0.0277351
70.0544 35.3937 2
69.4632 31.1519 2
67.6065 33.5982 2
66.7141 29.636 2
62.3419 12.663 2
62.192 15.7989 2
61.7894 18.7053 2
65.4677 25.716 2
63.9985 28.2894 2
61.1184 21.3846 2
62.7328 24.6765 2
60.2502 23.7897 2
59.243 12.8027 2
56.3991 13.152 2
55.873 10.2428 2
67.8254 35.5518 3.9695
67.2144 31.6321 3.96882
65.5615 33.9418 3.97571
64.5146 30.2201 3.97318
63.4044 26.4503 3.97068
62.0296 28.8281 3.97622
60.77 14.2429 3.96934
60.8514 25.3966 3.9731
60.5982 17.1509 3.96335
60.1377 19.861 3.96286
59.4947 22.3235 3.9671
58.7487 24.3999 3.97368
54.0355 9.14418 3.97753
57.9005 14.3681 3.96809
54.7806 12.0399 3.97242
55.2995 14.6988 3.96613
67.5021 50.1755 0.0337302
57.0239 66.7347 0.0112456
60.6667 63.9749 0.0172507
57.5555 63.6847 0.02541
65.6965 54.1711 0.0330842
64.4779 51.3686 0.0345432
60.7687 60.9241 0.0293468
60.6466 58.1426 0.0365596
62.7902 55.0541 0.0356529
60.2831 55.7586 0.035598
55.0713 67.9309 2
59.2154 62.3503 2
55.803 64.9047 2
56.3193 62.0653 2
65.263 49.3916 2
63.6592 53.2765 2
62.3008 50.614 2
59.3219 59.5372 2
60.9987 54.2777 2
59.2548 56.9827 2
59.1706 55.1458 2
53.0418 68.9996 3.99087
53.965 66.0093 3.98211
57.8714 60.8434 3.96948
54.6793 63.1963 3.97418
55.1988 60.5798 3.96938
63.0385 48.625 3.96979
61.6285 52.5395 3.96707
60.0537 49.9617 3.97024
57.9968 58.2348 3.96449
59.2066 53.9014 3.96796
58.0297 55.7663 3.96251
50.1071 67.8546 3.98544
47.4617 66.5751 3.98183
46.0543 69.1554 3.98666
48.1007 68.577 2
48.8015 70.7226 3.9913
50.9486 69.931 2
51.8506 72.1454 4
54.0858 71.1327 2
56.25 69.9759 0
55.1018 7.14192 3.98813
58.3339 6.31992 4
57.0595 8.33929 2
60.3286 7.74926 2
58.9194 9.65831 0.0166731
62.2254 9.30607 0
68.2608 48.1063 0.0335569
69.4263 43.9076 0.0324277
66.6419 45.4286 0.0314496
67.5423 41.4932 0.0304498
70.0378 39.6582 0.0319427
72.4878 37.5125 0.0214702
70.1252 37.5228 2
67.7839 39.511 2
67.162 43.4619 2
65.4074 41.1969 2
65.9972 47.4033 2
64.4809 44.821 2
67.886 37.5236 3.96966
65.6477 39.365 3.97652
65.0201 43.0058 3.97513
63.5201 40.9083 3.97686
63.7964 46.6841 3.97133
62.5524 44.1749 3.97654
70.0545 35.3935 0.0320458
69.4634 31.1514 0.0325735
67.6068 33.5979 0.0307918
66.7145 29.6355 0.0320826
62.3391 12.6584 0.0210444
62.1933 15.7983 0.0308086
61.7882 18.7052 0.036771
65.4678 25.7154 0.0334721
64.0006 28.2886 0.0280051
62.7339 24.6757 0.0309722
61.1197 21.3839 0.0347577
60.2506 23.7887 0.0292696
59.2415 12.803 0.0297248
56.3983 13.1544 0.0306341
55.8716 10.2432 0.0250198
67.8242 35.552 2
67.2148 31.6325 2
65.5586 33.9423 2
64.5124 30.2208 2
60.7702 14.2438 2
60.5973 17.1513 2
60.1376 19.8613 2
63.403 26.4511 2
62.0271 28.8292 2
59.4965 22.3243 2
60.8505 25.3976 2
58.7478 24.4014 2
57.9005 14.3672 2
55.3001 14.698 2
54.037 9.14259 2
54.7814 12.0375 2
65.7441 35.6752 3.97625
65.0373 32.1761 3.97428
64.0784 34.2715 3.97673
62.3508 30.681 3.97682
61.4355 27.1281 3.97432
60.5691 29.2063 3.97706
59.2988 15.6978 3.9664
59.0704 25.8762 3.97616
59.0776 18.3973 3.96178
58.5991 20.9205 3.96367
58.0626 23.1771 3.9685
57.7135 24.7573 3.97479
52.1111 8.15941 3.98063
53.0535 11.0364 3.97377
56.6595 15.7886 3.96712
53.7987 13.7255 3.97005
54.3532 16.0584 3.96493
55.0698 67.9316 0.0095816
65.2631 49.392 0.0335591
55.8025 64.9042 0.0208188
59.2149 62.3477 0.0284881
56.3201 62.0628 0.0281294
63.6588 53.2766 0.0352735
62.3014 50.6144 0.0319494
59.3233 59.5363 0.0342833
59.2511 56.982 0.0373065
60.9986 54.2778 0.0337976
59.1682 55.1456 0.0331119
53.043 68.9991 2
53.9655 66.0098 2
57.8704 60.8452 2
54.6789 63.197 2
55.1984 60.5816 2
63.0374 48.6245 2
61.6287 52.5393 2
60.054 49.9612 2
57.9959 58.2361 2
59.2091 53.9014 2
58.0271 55.7652 2
52.0684 66.9972 3.98466
52.9507 64.2098 3.9791
56.6312 59.4577 3.96805
53.6715 61.5977 3.97443
54.2381 59.2822 3.97087
60.7349 47.8234 3.97171
59.5286 52.0505 3.96864
57.7424 49.542 3.97227
56.7305 56.9482 3.96554
56.9672 54.0621 3.96614
50.1074 67.8548 2
49.3356 65.9155 3.98188
47.4619 66.5757 2
46.8904 64.727 3.98056
45.5568 67.0921 3.982
43.9718 69.5874 3.9872
46.0545 69.156 2
46.6079 71.3671 3.99148
48.1005 68.5763 0.0138485
48.8025 70.7226 2
49.554 73.0099 4
50.9475 69.9314 0.00893785
51.8506 72.1455 2
54.0858 71.1327 0
53.0639 6.07276 3.99043
55.104 7.1424 2
56.25 5.02411 4
58.3339 6.3199 2
57.0569 8.33764 0.0145078
60.3285 7.74928 0
65.9971 47.4036 0.0324313
67.1615 43.4622 0.0307253
64.483 44.8216 0.0268576
65.4097 41.1974 0.0237542
67.7849 39.5111 0.0304039
70.1258 37.5228 0.03198
67.8856 37.5237 2
65.6448 39.3647 2
65.0174 43.0052 2
63.5176 40.9081 2
63.7945 46.6834 2
62.5503 44.174 2
65.7553 37.5036 3.97646
63.6694 39.2577 3.97697
63.0795 42.518 3.97649
62.1331 40.6719 3.97673
61.7036 45.8692 3.97397
61.1273 43.6307 3.97627
67.8254 35.5518 0.0305012
67.2144 31.6321 0.0311826
65.5615 33.9418 0.0242894
64.5146 30.2201 0.0268226
60.77 14.2429 0.0306562
60.5982 17.1509 0.0366507
60.1377 19.861 0.0371366
63.4044 26.4503 0.0293213
62.0296 28.8281 0.023784
60.8514 25.3966 0.0269005
59.4947 22.3235 0.0328983
58.7487 24.3999 0.0263193
57.9005 14.3681 0.0319122
55.2995 14.6988 0.0338678
54.0355 9.14418 0.0224676
54.7806 12.0399 0.0275809
65.7415 35.6755 2
65.0349 32.1767 2
64.0757 34.272 2
62.3488 30.6819 2
59.2977 15.6983 2
59.0784 18.3971 2
58.6035 20.9211 2
61.4339 27.1291 2
60.5681 29.2073 2
58.0593 23.1792 2
59.0701 25.8776 2
57.7145 24.7595 2
56.6591 15.7875 2
54.3541 16.0596 2
53.7982 13.7189 2
52.112 8.15816 2
53.0547 11.0343 2
63.8756 35.6459 3.97683
62.6759 33.0815 3.9767
60.2948 30.6769 3.97639
59.2766 27.9897 3.97658
57.9158 17.0248 3.9628
57.4445 25.8263 3.97636
57.6184 19.5392 3.96134
57.1698 21.9295 3.96397
56.9072 24.0514 3.96912
50.1118 7.28871 3.9848
51.23 10.1366 3.97586
52.1626 12.8276 3.97471
55.5079 17.0282 3.96446
52.96 15.3205 3.96754
53.7268 17.0495 3.96663
53.0418 68.9996 0.00913125
53.965 66.0093 0.0178861
63.0385 48.625 0.0302131
54.6793 63.1963 0.0258226
57.8714 60.8434 0.0305153
55.1988 60.5798 0.0306202
61.6285 52.5395 0.0329297
60.0537 49.9617 0.0297565
57.9968 58.2348 0.0355148
58.0297 55.7663 0.0374855
59.2066 53.9014 0.0320425
52.0688 66.9977 2
52.9507 64.2104 2
56.6305 59.4588 2
53.6705 61.5972 2
54.2378 59.2844 2
60.7345 47.8226 2
59.5296 52.0501 2
57.7395 49.5406 2
56.7291 56.9524 2
56.9644 54.0605 2
51.1664 65.1217 3.98112
52.0397 62.526 3.9761
55.4509 58.2145 3.96818
52.8166 60.0962 3.97599
53.6092 58.4317 3.97253
57.9437 46.7676 3.97524
57.3357 51.7169 3.96891
55.908 49.4655 3.97108
55.3911 55.7415 3.96524
55.1681 53.3148 3.9631
50.1071 67.8546 0.0145563
49.3357 65.9157 2
48.6158 64.1142 3.98072
47.4617 66.5751 0.0181691
45.557 67.0928 2
46.8908 64.7275 2
46.3786 63.0416 3.9825
45.1311 65.1874 3.97993
43.6301 67.4632 3.9829
41.8595 69.8744 3.9868
43.9718 69.5879 2
44.3751 71.8617 3.99154
46.0543 69.1554 0.0133384
46.6087 71.3671 2
47.2057 73.7222 4
48.8015 70.7226 0.0087025
49.554 73.0099 2
51.8506 72.1454 0
50.9545 5.13314 3.99155
53.0654 6.07293 2
54.0858 3.86728 4
55.1018 7.14192 0.0118663
56.25 5.02406 2
58.3339 6.31992 0
63.7964 46.6841 0.0286747
65.0201 43.0058 0.0248682
62.5524 44.1749 0.0234568
63.5201 40.9083 0.0231359
65.6477 39.365 0.0234824
67.886 37.5236 0.0303442
65.7523 37.5036 2
63.6671 39.2577 2
63.0773 42.5174 2
62.1321 40.6715 2
61.7019 45.8683 2
61.1258 43.6301 2
63.7325 37.4589 3.97682
61.8466 39.3403 3.97696
60.873 41.9165 3.97672
59.9065 44.7047 3.9767
65.7441 35.6752 0.0237459
65.0373 32.1761 0.0257198
64.0784 34.2715 0.0232718
62.3508 30.681 0.0231769
59.2988 15.6978 0.0335979
59.0776 18.3973 0.0382194
58.5991 20.9205 0.0363329
61.4355 27.1281 0.025678
60.5691 29.2063 0.0229408
59.0704 25.8762 0.0238407
58.0626 23.1771 0.0315011
57.7135 24.7573 0.0252087
56.6595 15.7886 0.0328751
54.3532 16.0584 0.035068
53.7987 13.7255 0.0299467
52.1111 8.15941 0.0193661
53.0535 11.0364 0.0262323
63.8732 35.6458 2
62.6744 33.082 2
60.2943 30.6773 2
57.9148 17.0244 2
57.6244 19.5381 2
57.1691 21.9313 2
59.2756 27.991 2
56.9135 24.0533 2
57.4446 25.829 2
50.1125 7.28689 2
55.5096 17.0279 2
53.7271 17.0471 2
52.9598 15.3172 2
52.1638 12.8304 2
51.2314 10.1349 2
61.887 35.3783 3.97666
59.9242 32.7978 3.97649
58.2417 30.16 3.97642
56.9381 27.4929 3.97695
56.5889 18.2128 3.96151
55.9779 25.2224 3.97515
56.2207 20.6052 3.96133
55.8556 22.9797 3.96268
48.0566 6.52954 3.98825
49.3236 9.3399 3.97925
50.4268 12.0168 3.9756
51.3619 14.5403 3.96862
54.3704 17.9897 3.96212
52.333 17.1194 3.95882
52.0684 66.9972 0.0153361
52.9507 64.2098 0.0208964
60.7349 47.8234 0.0282863
53.6715 61.5977 0.0255678
56.6312 59.4577 0.0319459
54.2381 59.2822 0.0291322
59.5286 52.0505 0.031362
57.7424 49.542 0.0277346
56.7305 56.9482 0.0344624
56.9672 54.0621 0.0338614
51.1665 65.1224 2
52.0391 62.5271 2
55.4505 58.2158 2
52.8157 60.0997 2
53.6088 58.4334 2
57.9429 46.7667 2
57.3349 51.7158 2
55.9034 49.464 2
55.3905 55.7415 2
55.1712 53.3154 2
50.3429 63.3716 3.98075
51.2318 60.9106 3.97611
54.1731 57.2278 3.97069
52.2828 58.5902 3.97232
56.2106 44.0783 3.97711
55.0874 47.7954 3.97408
54.7855 51.3055 3.9655
53.8782 54.4852 3.96535
49.3356 65.9155 0.0181168
48.6159 64.1142 2
47.9571 62.4636 3.98096
45.5568 67.0921 0.0179997
46.8904 64.727 0.0194435
43.6302 67.4638 2
46.379 63.0422 2
45.1314 65.1881 2
45.9825 61.5725 3.98713
44.7648 63.4398 3.97896
43.3559 65.4976 3.98012
41.6624 67.6814 3.98239
39.7017 70.0203 3.98659
41.8595 69.875 2
42.1096 72.2063 3.9919
43.9718 69.5874 0.0127963
44.3759 71.8618 2
44.8159 74.2794 4
46.6079 71.3671 0.00852314
47.2057 73.7222 2
49.554 73.0099 0
48.7855 4.32362 3.99238
50.9554 5.13267 2
51.8506 2.85458 4
53.0639 6.07276 0.0095692
54.0858 3.86728 2
56.25 5.02411 0
61.7036 45.8692 0.0260257
63.0795 42.518 0.0235075
61.1273 43.6307 0.0237254
62.1331 40.6719 0.0232691
63.6694 39.2577 0.023026
65.7553 37.5036 0.0235385
63.7301 37.4587 2
61.8463 39.3403 2
60.8729 41.9162 2
59.9062 44.7039 2
61.6786 37.4438 3.97695
59.8455 39.8189 3.97691
58.5492 42.8505 3.97653
63.8756 35.6459 0.0231728
62.6759 33.0815 0.0233019
60.2948 30.6769 0.0236093
57.9158 17.0248 0.0372004
57.6184 19.5392 0.0386648
57.1698 21.9295 0.0360285
59.2766 27.9897 0.023415
57.4445 25.8263 0.0236359
56.9072 24.0514 0.0308768
55.5079 17.0282 0.0355394
53.7268 17.0495 0.0333695
52.96 15.3205 0.0324594
50.1118 7.28871 0.0152019
52.1626 12.8276 0.0252921
51.23 10.1366 0.0241403
61.8868 35.3785 2
59.9238 32.7977 2
58.2423 30.1597 2
56.5907 18.2126 2
56.2264 20.6027 2
55.8601 22.9826 2
56.9377 27.4942 2
55.9757 25.2257 2
48.0569 6.52739 2
49.3246 9.3376 2
54.3722 17.9896 2
52.3313 17.1137 2
51.3605 14.5372 2
50.4285 12.0149 2
59.4861 35.1454 3.97675
57.5319 32.3404 3.97598
56.1254 29.4535 3.97685
55.0474 26.7456 3.97642
55.2653 19.2626 3.96125
54.6343 24.1934 3.96596
54.8208 21.6674 3.96046
45.963 5.88334 3.98905
43.3745 7.47554 3.9853
47.3555 8.62835 3.98342
48.5964 11.3076 3.97527
49.7 13.7701 3.97323
50.6064 16.1851 3.97179
53.0684 18.7484 3.95984
51.2621 18.1597 3.97357
51.1664 65.1217 0.0188845
52.0397 62.526 0.0238968
57.9437 46.7676 0.0247592
52.8166 60.0962 0.0240051
55.4509 58.2145 0.0318205
53.6092 58.4317 0.0274686
57.3357 51.7169 0.0310938
55.908 49.4655 0.0289243
55.3911 55.7415 0.034759
55.1681 53.3148 0.0369005
50.3427 63.3716 2
51.2306 60.9093 2
54.1739 57.2297 2
52.2817 58.5918 2
56.211 44.0776 2
55.0857 47.7941 2
54.7884 51.3055 2
53.8789 54.4871 2
49.5847 61.7344 3.97873
54.9972 41.6535 3.9746
50.5428 59.2966 3.97088
52.1234 56.4484 3.96779
53.6476 45.4403 3.97454
52.9493 49.2251 3.96926
52.46 52.7803 3.96161
48.6158 64.1142 0.0192759
47.9569 62.4628 2
47.3201 60.9958 3.98659
43.6301 67.4632 0.0171024
45.1311 65.1874 0.0200716
46.3786 63.0416 0.017504
41.6627 67.6813 2
43.3561 65.4984 2
45.9822 61.5736 2
44.7653 63.4405 2
45.756 60.6176 3.98485
44.4801 61.817 3.98035
43.145 63.7127 3.97871
41.5456 65.6345 3.97856
39.6319 67.7592 3.98216
37.5259 70.0447 3.98533
39.7017 70.0208 2
39.8166 72.4028 3.99165
41.8595 69.8744 0.0132039
42.1102 72.2066 2
42.3947 74.6792 4
44.3751 71.8617 0.00846487
44.8159 74.2794 2
47.2057 73.7222 0
43.852 5.3606 3.98857
46.5715 3.64776 3.99262
48.7859 4.32278 2
49.554 1.99015 4
50.9545 5.13314 0.00845347
51.8506 2.85453 2
54.0858 3.86728 0
59.9065 44.7047 0.0233014
60.873 41.9165 0.0232836
61.8466 39.3403 0.0230428
63.7325 37.4589 0.023178
61.6781 37.4438 2
59.846 39.8184 2
58.5496 42.8501 2
59.3412 37.5668 3.97728
57.4886 40.6117 3.97706
54.4051 39.6681 3.97523
61.887 35.3783 0.0233392
59.9242 32.7978 0.023509
58.2417 30.16 0.023584
56.5889 18.2128 0.0384916
56.2207 20.6052 0.0386708
55.8556 22.9797 0.0373206
56.9381 27.4929 0.0230532
55.9779 25.2224 0.0248503
54.3704 17.9897 0.0378822
52.333 17.1194 0.0411836
51.3619 14.5403 0.0313827
48.0566 6.52954 0.0117479
49.3236 9.3399 0.0207533
50.4268 12.0168 0.0243962
59.4869 35.1454 2
45.9627 5.88283 2
43.3743 7.47477 2
57.5328 32.341 2
56.1255 29.4533 2
55.2594 19.2644 2
54.8324 21.669 2
54.6312 24.1962 2
55.0451 26.748 2
47.356 8.62421 2
48.5982 11.3045 2
53.068 18.7404 2
51.2636 18.1577 2
50.6065 16.1851 2
49.6998 13.7707 2
56.8736 34.7957 3.97713
55.2154 31.6096 3.97614
54.0455 28.5526 3.97729
53.4243 25.6646 3.97662
53.8628 20.2301 3.96031
53.363 22.8507 3.95482
41.3997 7.08146 3.98504
45.361 7.99542 3.98722
42.8668 9.41933 3.98133
46.666 10.6615 3.98104
47.7344 13.1204 3.97623
48.9093 15.4369 3.97068
49.9644 17.7501 3.96626
51.5797 19.4389 3.96745
50.3429 63.3716 0.0192468
51.2318 60.9106 0.0238882
56.2106 44.0783 0.0228947
55.0874 47.7954 0.0259211
52.2828 58.5902 0.0276771
54.1731 57.2278 0.029306
54.7855 51.3055 0.0345002
53.8782 54.4852 0.0346493
49.5837 61.7339 2
54.9908 41.6496 2
50.5416 59.2966 2
52.1249 56.4512 2
53.6452 45.4388 2
52.9586 49.2249 2
52.4617 52.7809 2
48.8324 60.1885 3.97591
51.7978 42.5253 3.98301
49.744 57.5935 3.9675
50.4635 54.379 3.96365
51.3125 47.1474 3.97495
50.9229 50.8607 3.95486
47.4754 43.6329 3.97856
47.9571 62.4636 0.0190372
47.3194 60.9952 2
46.603 59.7841 3.99071
41.6624 67.6814 0.0176125
43.3559 65.4976 0.0198841
44.7648 63.4398 0.0210437
45.9825 61.5725 0.0128652
39.6324 67.7601 2
41.5456 65.6337 2
45.7559 60.6184 2
43.1455 63.7133 2
44.4795 61.8182 2
44.6126 60.2752 3.99147
42.9477 62.0649 3.97463
41.5996 63.805 3.97839
39.6471 65.6 3.97788
37.563 67.7396 3.98012
31.6977 65.1162 3.97811
33.3923 67.4774 3.98002
35.3338 69.9548 3.9854
37.5257 70.0458 2
37.509 72.4573 3.99208
39.7017 70.0203 0.0134059
39.8171 72.4031 2
39.9526 74.9197 4
42.1096 72.2063 0.00810265
42.3947 74.6792 2
44.8159 74.2794 0
41.7366 4.96955 3.98889
43.8521 5.35963 2
44.3268 3.11099 3.99293
46.5716 3.64749 2
47.2057 1.27793 4
48.7855 4.32362 0.00761912
49.554 1.99013 2
51.8506 2.85458 0
58.5492 42.8505 0.023467
59.8455 39.8189 0.023088
61.6786 37.4438 0.0230541
59.3416 37.5677 2
57.4885 40.6122 2
54.3984 39.6726 2
56.2432 37.8827 3.97697
48.8252 41.2332 3.97886
52.39 39.3065 3.98379
39.4434 6.80524 3.98558
59.4861 35.1454 0.0232467
57.5319 32.3404 0.0240233
56.1254 29.4535 0.0231458
55.2653 19.2626 0.0387504
54.8208 21.6674 0.0395427
54.6343 24.1934 0.0340446
55.0474 26.7456 0.0235754
53.0684 18.7484 0.0401578
51.2621 18.1597 0.0264318
50.6064 16.1851 0.0282138
45.963 5.88334 0.0109476
49.7 13.7701 0.0267674
47.3555 8.62835 0.0165761
48.5964 11.3076 0.0247322
43.3745 7.47554 0.0146979
56.8734 34.7966 2
41.3998 7.08044 2
45.3603 7.99533 2
42.8663 9.41918 2
55.2183 31.6083 2
54.0461 28.5523 2
53.8652 20.2364 2
53.36 22.8484 2
53.4212 25.6659 2
46.6668 10.654 2
47.7356 13.1149 2
51.5848 19.4388 2
49.9634 17.7469 2
48.9069 15.4407 2
54.2264 33.9921 3.9754
52.9424 30.647 3.97663
52.1418 27.3872 3.97499
51.8804 24.2775 3.97805
52.258 21.1808 3.9709
41.0139 9.05442 3.98026
44.727 9.99476 3.98568
42.4663 10.9044 3.993
45.9967 12.7396 3.97538
47.6617 14.6089 3.97057
48.0713 17.0164 3.96837
49.7702 19.8094 3.9713
49.5847 61.7344 0.0212672
50.5428 59.2966 0.029124
54.9972 41.6535 0.0253998
53.6476 45.4403 0.0254643
52.9493 49.2251 0.0307351
52.1234 56.4484 0.0322119
52.46 52.7803 0.0383917
48.8307 60.1866 2
51.8159 42.5346 2
49.742 57.594 2
50.4645 54.3822 2
51.3193 47.1476 2
50.926 50.8599 2
47.4896 43.661 2
47.9563 58.7178 3.97825
49.4467 45.1591 3.98025
48.5167 55.8839 3.96336
48.9381 52.5375 3.97607
49.3006 48.9459 3.97293
45.2236 39.8136 3.86657
45.7069 42.5166 3.90044
45.9302 45.6418 3.98268
43.0435 41.0425 3.71306
41.6731 41.8839 3.52527
47.3201 60.9958 0.013407
46.6015 59.783 2
45.4456 58.7851 3.99182
39.6319 67.7592 0.0178436
41.5456 65.6345 0.0214395
43.145 63.7127 0.0212901
44.4801 61.817 0.0196533
45.756 60.6176 0.0151484
41.5998 63.8046 2
37.5633 67.7405 2
39.6471 65.6011 2
44.613 60.2766 2
42.947 62.0655 2
41.7509 62.4743 3.97697
42.4738 59.9563 3.97886
39.8941 63.5368 3.97666
37.642 65.4956 3.9769
35.4633 67.649 3.98004
33.5755 65.3289 3.97669
31.9603 63.2823 3.9768
29.8846 64.7079 3.98075
31.6976 65.1172 2
31.3773 67.1873 3.98051
33.3925 67.4784 2
33.1572 69.7485 3.98551
35.3336 69.9558 2
35.1954 72.3716 3.992
37.5259 70.0447 0.0146657
37.5092 72.4578 2
37.5 75 4
39.8166 72.4028 0.00834952
39.9526 74.9197 2
42.3947 74.6792 0
39.6244 4.71738 3.98948
41.7367 4.96874 2
42.0632 2.71829 3.99326
43.852 5.3606 0.0114322
44.3268 3.11031 2
44.8158 0.721173 4
46.5715 3.64776 0.00738274
47.2057 1.27779 2
49.554 1.99015 0
57.4886 40.6117 0.0229413
59.3412 37.5668 0.0227232
54.4051 39.6681 0.0247663
48.8532 41.2507 2
56.2422 37.8805 2
52.3878 39.2747 2
53.2458 36.6264 3.97809
46.7511 40.3311 3.9029
49.7701 38.5134 3.98578
37.5174 6.67621 3.98564
39.4435 6.80362 2
39.2116 8.69633 3.98301
35.9437 8.49564 3.98425
56.8736 34.7957 0.0228667
55.2154 31.6096 0.0238551
54.0455 28.5526 0.0227126
53.8628 20.2301 0.0396896
53.363 22.8507 0.0451787
53.4243 25.6646 0.0233769
51.5797 19.4389 0.0325537
49.9644 17.7501 0.0337383
48.9093 15.4369 0.0293201
45.361 7.99542 0.0127845
47.7344 13.1204 0.0237671
46.666 10.6615 0.0189559
41.3997 7.08146 0.0149561
42.8668 9.41933 0.0186675
54.2233 33.9926 2
41.0141 9.05361 2
44.725 9.99543 2
42.4662 10.9058 2
52.9393 30.6461 2
52.1497 27.3879 2
52.2627 21.1831 2
51.8792 24.2832 2
45.9979 12.7283 2
47.66 14.6019 2
49.7769 19.8105 2
48.0677 17.0147 2
51.7465 32.9011 3.98235
50.7546 29.3452 3.97701
50.4295 25.8955 3.9712
49.814 22.4052 3.98542
40.5675 11.6157 3.98167
43.8532 11.9108 3.97975
45.7797 15.4451 3.9865
47.4683 19.415 3.97832
45.6685 37.4791 3.86118
48.8324 60.1885 0.0240949
49.744 57.5935 0.0325002
51.7978 42.5253 0.0169854
51.3125 47.1474 0.0250508
50.9229 50.8607 0.0451361
50.4635 54.379 0.0363505
47.4754 43.6329 0.0214423
47.9545 58.7203 2
49.462 45.1724 2
48.5125 55.8859 2
48.9391 52.543 2
49.3067 48.9449 2
45.2947 39.8297 2
45.7365 42.5602 2
45.9394 45.6516 2
43.075 41.077 2
41.7026 41.9072 2
46.7911 57.3221 3.9767
43.7802 39.3527 3.71548
42.0325 40.7854 3.55781
47.5861 47.1837 3.9808
47.0475 54.1969 3.96434
47.3353 50.6845 3.97862
44.4028 47.2684 3.97518
44.3558 41.8615 3.85302
44.418 44.3866 3.90724
42.014 42.4962 3.74547
40.6526 42.187 3.53573
46.603 59.7841 0.00928827
45.4449 58.7839 2
43.8524 57.6822 3.97989
37.563 67.7396 0.0198756
39.6471 65.6 0.022118
41.5996 63.805 0.0216112
42.9477 62.0649 0.0253657
44.6126 60.2752 0.00852982
35.4637 67.6499 2
41.7503 62.4768 2
39.8938 63.5376 2
37.6421 65.4964 2
42.4747 59.9556 2
40.6218 61.6193 3.9793
40.4365 58.1473 3.97925
37.8378 63.1933 3.9749
35.5729 65.4181 3.97734
33.5758 65.3297 2
31.9603 63.2837 2
33.6296 63.3206 3.97516
30.3795 62.8429 3.98005
32.1265 61.9853 3.98526
26.8764 61.475 3.97715
28.0647 64.1362 3.97826
29.8842 64.709 2
29.4072 66.7513 3.98143
31.6977 65.1162 0.0218858
31.3774 67.1882 2
31.0149 69.4135 3.98525
33.3923 67.4774 0.019976
33.157 69.7494 2
32.8932 72.1461 3.9917
35.3338 69.9548 0.0146001
35.1951 72.3723 2
35.0474 74.9194 4
37.509 72.4573 0.00792156
37.5 75 2
39.9526 74.9197 0
35.622 6.72714 3.98533
37.5241 4.6168 3.98961
39.6245 4.71601 2
39.7897 2.47496 3.99318
41.7366 4.96955 0.011108
42.063 2.71777 2
42.3946 0.32156 4
44.3268 3.11099 0.0070687
44.8159 0.72056 2
47.2057 1.27793 0
48.8252 41.2332 0.0211415
56.2432 37.8827 0.0230261
52.39 39.3065 0.0162098
46.7776 40.3252 2
49.772 38.5093 2
53.246 36.6437 2
50.5706 35.5721 3.9749
47.422 37.7696 3.91845
45.2396 35.1635 3.86487
43.0654 33.9246 3.71023
41.6951 33.088 3.52342
37.4591 8.5374 3.98459
37.5174 6.67496 2
39.4434 6.80524 0.0144241
39.212 8.69441 2
38.9768 10.1317 3.9835
35.8998 9.7778 3.98029
34.1532 8.82722 3.98225
35.9434 8.49372 2
54.2264 33.9921 0.0245971
52.9424 30.647 0.0233745
52.1418 27.3872 0.0250087
52.258 21.1808 0.0291033
51.8804 24.2775 0.0219471
49.7702 19.8094 0.0287048
48.0713 17.0164 0.031634
47.6617 14.6089 0.0294254
44.727 9.99476 0.0143216
45.9967 12.7396 0.0246166
41.0139 9.05442 0.0197432
42.4663 10.9044 0.00699608
51.7523 32.8982 2
40.569 11.6163 2
43.8514 11.9146 2
50.7767 29.3434 2
50.4298 25.8968 2
49.8161 22.405 2
45.7742 15.4161 2
47.4707 19.4355 2
49.3156 31.5279 3.98758
48.8242 27.6636 3.9781
49.1412 24.5567 3.97623
47.1122 22.1736 3.98678
38.3013 12.7443 3.97722
42.0929 14.3081 3.97993
44.7762 18.5632 3.97514
44.1844 37.4865 3.72388
45.7566 37.4828 2
47.9563 58.7178 0.0217459
48.5167 55.8839 0.0366405
49.4467 45.1591 0.0197495
49.3006 48.9459 0.0270651
48.9381 52.5375 0.0239314
45.2236 39.8136 0.133427
45.7069 42.5166 0.0995573
45.9302 45.6418 0.0173235
43.0435 41.0425 0.286943
41.6731 41.8839 0.474727
46.7883 57.3241 2
43.8321 39.3756 2
42.033 40.7996 2
47.5935 47.1867 2
47.043 54.2012 2
47.3385 50.693 2
44.427 47.25 2
44.3894 41.8889 2
44.4594 44.4098 2
42.0648 42.5394 2
40.678 42.1949 2
45.3314 55.9047 3.99258
42.3723 39.2341 3.56766
40.5381 40.6651 3.67296
45.7594 48.8345 4.00013
45.3584 52.4702 3.98101
43.1363 48.2596 3.9946
43.0491 45.9048 3.89689
43.1652 43.6298 3.84027
40.7624 43.5509 3.72246
39.2019 42.4511 3.56208
45.4456 58.7851 0.00818292
43.8508 57.6866 2
42.0798 56.2693 3.98454
35.4633 67.649 0.0199568
37.642 65.4956 0.0231031
39.8941 63.5368 0.0233401
41.7509 62.4743 0.0230277
42.4738 59.9563 0.0211397
35.5731 65.4188 2
40.622 61.6185 2
37.8378 63.1936 2
40.4372 58.1478 2
38.911 56.4393 3.99398
38.2498 60.3048 3.97977
35.6075 63.1874 3.97493
33.5755 65.3289 0.0233133
31.9603 63.2823 0.0231985
33.6298 63.3217 2
30.3794 62.844 2
32.1272 61.9868 2
28.6859 62.1812 3.97944
33.3474 61.4929 3.97715
31.0737 61.2065 3.98043
27.5839 59.5666 3.97984
23.8139 59.0546 3.98641
25.0437 60.8488 3.97723
26.8767 61.475 2
26.233 63.4654 3.97754
28.0646 64.1351 2
27.4642 66.1757 3.98087
29.8846 64.7079 0.0192515
29.4072 66.7516 2
28.9075 68.9392 3.98488
31.3773 67.1873 0.01949
31.0147 69.4142 2
30.616 71.7774 3.99114
33.1572 69.7485 0.0144891
32.8925 72.1465 2
32.6054 74.6784 4
35.1954 72.3716 0.00800491
35.0474 74.9197 2
37.5 75 0
33.7251 6.98298 3.98421
35.4362 4.68689 3.98946
35.6219 6.72597 2
37.5153 2.38742 3.99324
37.5241 4.61585 2
39.6244 4.71738 0.0105221
39.7894 2.47422 2
39.9526 0.0806499 4
42.0632 2.71829 0.00674488
42.3947 0.320817 2
44.8158 0.721173 0
43.7894 35.6212 3.717
42.0462 34.1818 3.5496
46.7511 40.3311 0.0971003
49.7701 38.5134 0.0142183
53.2458 36.6264 0.0219123
47.4184 37.7354 2
50.5785 35.5654 2
45.3047 35.1398 2
43.1037 33.8872 2
41.7214 33.0647 2
47.6083 34.3153 3.94988
44.384 33.0963 3.84132
42.0448 32.4786 3.74159
40.672 32.795 3.53407
37.3116 10.6346 3.98116
37.4593 8.53582 2
37.5174 6.67621 0.0143608
39.2116 8.69633 0.0169927
38.9784 10.1302 2
34.756 10.3868 3.98112
35.9005 9.77408 2
32.3802 9.37466 3.97893
34.1519 8.82421 2
35.9437 8.49564 0.0157541
51.7465 32.9011 0.017654
50.7546 29.3452 0.0229911
50.4295 25.8955 0.0287957
49.814 22.4052 0.0145833
47.4683 19.415 0.0216777
45.7797 15.4451 0.013498
43.8532 11.9108 0.0202535
40.5675 11.6157 0.0183308
49.3331 31.5247 2
38.3016 12.7421 2
42.0954 14.3154 2
48.8342 27.6645 2
49.1424 24.5535 2
47.1033 22.1645 2
44.7775 18.6082 2
47.1929 29.6559 3.98603
46.8289 25.2931 3.97365
44.2381 21.5409 3.97906
36.5848 12.9502 3.97477
38.6823 14.84 3.9752
41.7397 17.9069 3.97753
42.5169 37.4731 3.60068
44.2332 37.4852 2
45.6685 37.4791 0.138822
46.7911 57.3221 0.0233012
47.0475 54.1969 0.0356571
47.5861 47.1837 0.0191959
47.3353 50.6845 0.0213839
43.7802 39.3527 0.284521
44.3558 41.8615 0.14698
44.418 44.3866 0.0927585
44.4028 47.2684 0.0248178
42.014 42.4962 0.254531
42.0325 40.7854 0.442187
40.6526 42.187 0.464267
45.3275 55.906 2
42.3695 39.2384 2
40.5558 40.6488 2
45.7644 48.8476 2
45.3554 52.4737 2
43.1508 48.2783 2
43.1032 45.9455 2
43.2112 43.6606 2
40.7965 43.6065 2
39.1994 42.4616 2
43.6579 54.3794 3.99874
40.6437 39.0908 3.68807
39.0872 40.7354 3.64795
43.4597 50.3363 4.00502
41.7612 47.4328 3.93285
41.6712 45.0074 3.85371
39.3377 44.2085 3.70053
37.5034 42.5518 3.59593
43.8524 57.6822 0.0201091
42.08 56.2696 2
40.3889 54.8465 3.9902
35.5729 65.4181 0.0226633
37.8378 63.1933 0.0250972
40.6218 61.6193 0.0206957
40.4365 58.1473 0.0207493
35.6077 63.1875 2
38.2501 60.3056 2
38.9124 56.4306 2
37.9873 55.1326 3.99381
36.9335 57.6021 3.99062
35.3651 60.8924 3.97826
33.6296 63.3206 0.0248376
30.3795 62.8429 0.0199517
32.1265 61.9853 0.0147408
33.3482 61.4941 2
28.6859 62.1825 2
31.0745 61.2087 2
29.415 60.2635 3.97608
32.3647 59.7161 3.9886
28.0498 58.3493 4.00165
27.5858 59.5669 2
25.4023 58.5709 3.97899
22.792 58.2081 3.96867
23.4123 60.3215 3.97892
23.8156 59.055 2
25.0443 60.8484 2
24.4376 62.7556 3.97694
26.8764 61.475 0.0228502
26.2333 63.4663 2
25.549 65.4837 3.97927
28.0647 64.1362 0.0217411
27.4643 66.1758 2
26.8372 68.3279 3.98494
29.4072 66.7513 0.0185697
28.9072 68.9393 2
28.3712 71.2626 3.99063
31.0149 69.4135 0.0147547
30.6151 71.7775 2
30.1842 74.2788 4
32.8932 72.1461 0.00830051
32.6053 74.6792 2
35.0474 74.9194 0
31.7897 7.42291 3.98271
33.3488 4.92657 3.98863
33.7246 6.98095 2
35.2457 2.46336 3.99321
35.436 4.68625 2
35.622 6.72714 0.0146676
37.5 0 4
37.5148 2.38693 2
37.5241 4.6168 0.0103937
39.7897 2.47496 0.00681758
39.9526 0.0802889 2
42.3946 0.32156 0
42.3638 35.7123 3.56164
43.8544 35.5916 2
40.5609 34.3113 3.67264
42.0426 34.1662 2
47.422 37.7696 0.0815517
50.5706 35.5721 0.0251021
45.2396 35.1635 0.135131
43.0654 33.9246 0.289769
41.6951 33.088 0.476582
47.6236 34.3375 2
44.4181 33.075 2
42.0979 32.4325 2
40.6969 32.7864 2
45.6817 31.7106 3.91435
43.1949 31.3438 3.83625
40.7864 31.4294 3.72271
39.2171 32.5459 3.55907
35.6951 11.7835 3.97871
37.3139 10.6321 2
37.4591 8.5374 0.0154084
38.9768 10.1317 0.0165004
33.1013 11.2263 3.97488
34.7549 10.3815 2
35.8998 9.7778 0.0197104
30.4852 10.0244 3.97893
32.3789 9.37334 2
34.1532 8.82722 0.0177472
49.3156 31.5279 0.0124199
48.8242 27.6636 0.0218979
49.1412 24.5567 0.0237662
47.1122 22.1736 0.0132245
44.7762 18.5632 0.0248567
42.0929 14.3081 0.0200681
38.3013 12.7443 0.0227797
36.5818 12.9351 2
47.21 29.6117 2
38.6799 14.8228 2
41.7324 17.9016 2
46.8332 25.2896 2
44.2292 21.5203 2
45.1253 27.7912 4.0045
43.638 24.2253 4.02285
41.306 20.9097 3.98263
35.7736 14.7895 3.97704
38.6776 17.6407 3.97976
40.6982 37.4642 3.70171
42.5239 37.4768 2
44.1844 37.4865 0.276119
45.3314 55.9047 0.00741916
45.3584 52.4702 0.0189929
45.7594 48.8345 -0.000132964
42.3723 39.2341 0.432338
43.1652 43.6298 0.159734
43.0491 45.9048 0.103113
43.1363 48.2596 0.00540189
40.7624 43.5509 0.277539
40.5381 40.6651 0.327036
39.2019 42.4511 0.437918
43.6536 54.3776 2
40.6414 39.0889 2
39.0891 40.7247 2
43.4561 50.3557 2
41.755 47.4639 2
41.6961 45.0477 2
37.5002 42.5659 2
39.3519 44.2632 2
41.8144 52.8758 3.99667
39.0994 39.1146 3.66433
37.5061 40.7882 3.67106
35.8074 42.4595 3.56269
40.8396 49.5 3.99497
39.7559 45.7874 3.83002
37.5023 44.4564 3.7229
42.0798 56.2693 0.0154635
40.3845 54.8575 2
38.7219 53.6889 3.99585
35.6075 63.1874 0.0250704
38.2498 60.3048 0.0202283
38.911 56.4393 0.00602327
35.3655 60.8915 2
36.9346 57.6022 2
37.9871 55.1321 2
36.3212 55.1974 3.99485
34.4935 58.4983 3.99081
33.3474 61.4929 0.0228514
28.6859 62.1812 0.0205569
31.0737 61.2065 0.0195668
32.3657 59.7196 2
29.4162 60.2628 2
30.324 57.7879 3.98482
28.0522 58.349 2
27.0005 56.8033 3.96906
27.5839 59.5666 0.0201586
25.4047 58.5714 2
23.9016 56.7685 3.96075
21.3866 57.3578 3.96104
22.0108 59.5887 3.97389
22.7936 58.2096 2
22.7428 62.0069 3.97494
23.413 60.3213 2
23.8139 59.0546 0.0135888
25.0437 60.8488 0.0227671
24.438 62.7571 2
23.6839 64.7002 3.9779
26.233 63.4654 0.0224614
25.549 65.4851 2
24.8096 67.5887 3.98399
27.4642 66.1757 0.0191275
26.8369 68.3286 2
26.1663 70.6036 3.99068
28.9075 68.9392 0.0151219
28.3703 71.2625 2
27.7943 73.7221 4
30.616 71.7774 0.0088643
30.1841 74.2794 2
32.6054 74.6784 0
29.8123 7.99766 3.98141
31.2543 5.33346 3.98763
31.7889 7.42136 2
32.9816 2.70161 3.99286
33.3482 4.92528 2
33.7251 6.98298 0.0157877
35.0474 0.080333 4
35.2451 2.46312 2
35.4362 4.68689 0.0105372
37.5 0 2
37.5153 2.38742 0.00675862
39.9526 0.0806499 0
40.6678 35.8557 3.68735
42.3632 35.7145 2
43.7894 35.6212 0.283003
28.5454 10.6993 3.9782
39.0922 34.261 3.64709
40.5652 34.3247 2
42.0462 34.1818 0.450405
47.6083 34.3153 0.0501177
44.384 33.0963 0.158676
42.0448 32.4786 0.258414
40.672 32.795 0.465927
45.7139 31.6905 2
43.2367 31.3116 2
40.8239 31.3728 2
39.2206 32.5378 2
44.0059 29.9084 3.90989
41.6774 29.964 3.85548
39.3567 30.7814 3.69937
37.5244 32.4562 3.59533
34.0971 12.9499 3.97419
35.6938 11.7742 2
37.3116 10.6346 0.0188428
31.1898 11.995 3.97788
33.1008 11.2248 2
34.756 10.3868 0.0188772
30.4835 10.0218 2
32.3802 9.37466 0.0210683
47.1929 29.6559 0.013971
46.8289 25.2931 0.0263469
36.5848 12.9502 0.0252335
44.2381 21.5409 0.0209438
41.7397 17.9069 0.022475
38.6823 14.84 0.0247965
35.7754 14.7951 2
45.1288 27.7882 2
38.6733 17.648 2
41.296 20.9047 2
43.6349 24.2108 2
33.6122 15.8992 3.97933
42.7931 26.6378 3.9916
40.8143 23.4966 3.99754
38.406 20.4111 3.9923
35.8483 17.5442 3.97899
39.1126 37.487 3.68274
40.6902 37.4661 2
42.5169 37.4731 0.39932
43.6579 54.3794 0.00126481
43.4597 50.3363 -0.00501539
40.6437 39.0908 0.31193
41.6712 45.0074 0.146291
41.7612 47.4328 0.0671461
39.3377 44.2085 0.299472
39.0872 40.7354 0.352053
37.5034 42.5518 0.404067
41.8044 52.8784 2
39.0928 39.1007 2
37.5046 40.7729 2
40.8333 49.5207 2
35.8047 42.4677 2
39.7775 45.841 2
37.4926 44.5044 2
39.7518 51.7004 4.00205
37.5077 39.121 3.69641
35.9304 40.7487 3.64836
34.3539 42.2033 3.53654
35.6712 44.2228 3.69292
38.6661 48.4331 3.94682
37.5206 46.076 3.85557
40.3889 54.8465 0.00980047
38.7208 53.674 2
36.7487 52.9944 3.9969
35.3651 60.8924 0.0217366
36.9335 57.6021 0.00937769
37.9873 55.1326 0.00619058
34.4942 58.4972 2
36.3221 55.1964 2
33.2513 55.3876 3.99217
32.3647 59.7161 0.0113962
29.415 60.2635 0.0239229
30.3264 57.7861 2
28.777 55.286 3.98246
28.0498 58.3493 -0.00165473
27.0027 56.8034 2
25.4109 55.1014 3.96251
21.9077 55.2991 3.96071
25.4023 58.5709 0.0210144
23.9032 56.7709 2
20.263 56.9884 3.96405
20.6692 58.7412 3.97085
21.3882 57.3593 2
21.176 61.1439 3.97418
22.0116 59.5893 2
22.792 58.2081 0.0313264
21.8984 63.8269 3.97737
22.7434 62.0081 2
23.4123 60.3215 0.0210837
24.4376 62.7556 0.0230584
23.6839 64.7012 2
22.8382 66.7313 3.98219
25.549 65.4837 0.0207261
24.8094 67.5897 2
24.0105 69.8049 3.99052
26.8372 68.3279 0.0150595
26.1652 70.6037 2
25.446 73.0099 4
28.3712 71.2626 0.00936933
27.7943 73.7222 2
30.1842 74.2788 0
27.8221 8.6572 3.98142
29.1565 5.87975 3.98617
29.8112 7.99544 2
30.7271 3.09853 3.99259
31.2536 5.33212 2
31.7897 7.42291 0.0172864
32.6053 0.320823 4
32.9808 2.7011 2
33.3488 4.92657 0.0113733
35.0474 0.0802903 2
35.2457 2.46336 0.00678802
37.5 0 0
39.0955 35.8715 3.66905
40.6521 35.8575 2
42.3638 35.7123 0.438364
28.544 10.6978 2
26.6238 11.3956 3.97837
29.2294 12.6493 3.98033
37.5151 34.222 3.66947
39.1007 34.2773 2
40.5609 34.3113 0.327357
45.6817 31.7106 0.085652
43.1949 31.3438 0.16375
40.7864 31.4294 0.277294
39.2171 32.5459 0.440934
44.0335 29.8828 2
41.7045 29.9267 2
39.3631 30.7255 2
37.5249 32.4416 2
42.109 28.5987 3.88205
39.7498 29.1924 3.85081
37.5209 30.5519 3.72135
35.8244 32.5505 3.56279
31.9217 14.4939 3.97929
34.0971 12.9514 2
35.6951 11.7835 0.0212943
31.1887 11.9914 2
33.1013 11.2263 0.02512
30.4852 10.0244 0.021067
45.1253 27.7912 -0.00449819
43.638 24.2253 -0.0228513
35.7736 14.7895 0.0229643
41.306 20.9097 0.0173682
38.6776 17.6407 0.0202398
33.6095 15.8935 2
35.8446 17.5453 2
42.8021 26.6306 2
38.3923 20.4414 2
40.8022 23.4727 2
33.5527 17.4192 3.98044
40.2366 25.8747 3.95771
38.0485 23.2128 3.99976
35.5817 20.1332 3.99202
37.5103 37.4941 3.7132
39.1051 37.4827 2
40.6982 37.4642 0.298291
41.8144 52.8758 0.00333498
40.8396 49.5 0.00502878
39.0994 39.1146 0.335672
39.7559 45.7874 0.169979
37.5023 44.4564 0.277101
37.5061 40.7882 0.328941
35.8074 42.4595 0.437313
39.7439 51.7082 2
37.509 39.1138 2
35.9281 40.7369 2
38.6766 48.4848 2
34.3297 42.2118 2
35.6497 44.2789 2
37.5152 46.1253 2
37.6737 50.7312 3.9979
35.9253 39.1298 3.66821
34.4787 40.6893 3.67492
33.3283 41.9036 3.5272
34.24 43.5602 3.71981
35.2163 45.7974 3.84612
36.925 48.0413 3.91339
38.7219 53.6889 0.00414665
36.7559 52.9942 2
34.4285 52.323 3.9996
34.4935 58.4983 0.00919074
36.3212 55.1974 0.00514663
33.2542 55.3918 2
30.614 53.2871 3.99775
30.324 57.7879 0.0151807
28.7786 55.2857 2
27.0285 53.391 3.96319
27.0005 56.8033 0.0309398
25.4124 55.1047 2
23.7406 53.4204 3.95775
20.6723 53.1498 3.95969
20.0085 55.7845 3.96247
21.9049 55.3013 2
23.9016 56.7685 0.0392481
19.4665 57.8529 3.96788
20.2622 56.9899 2
19.7183 60.1644 3.9716
20.6689 58.7423 2
21.3866 57.3578 0.0389556
20.212 62.8479 3.97426
21.1767 61.1458 2
22.0108 59.5887 0.0261149
20.9397 65.7594 3.98041
21.8983 63.8281 2
22.7428 62.0069 0.0250644
23.6839 64.7002 0.0220969
22.8379 66.7319 2
21.9131 68.872 3.9899
24.8096 67.5887 0.0160073
24.0091 69.8047 2
23.1494 72.1454 4
26.1663 70.6036 0.00932036
25.446 73.0099 2
27.7943 73.7221 0
25.8611 9.38621 3.98044
27.0712 6.54386 3.98506
27.8207 8.65596 2
28.4895 3.64441 3.99186
29.1555 5.87832 2
29.8123 7.99766 0.0185939
30.1841 0.720592 4
30.7259 3.0981 2
31.2543 5.33346 0.0123658
32.6053 0.320817 2
32.9816 2.70161 0.00714375
35.0474 0.080333 0
37.51 35.8731 3.69418
39.0816 35.8752 2
40.6678 35.8557 0.312654
24.7797 12.0834 3.97715
23.7585 14.3772 3.97529
28.5454 10.6993 0.0218046
26.6224 11.3945 2
29.2283 12.6481 2
27.2963 13.3825 3.97882
29.7884 14.21 3.98068
35.9332 34.2641 3.64731
37.5211 34.2381 2
39.0922 34.261 0.352911
37.5244 32.4562 0.404672
44.0059 29.9084 0.0901133
41.6774 29.964 0.144517
39.3567 30.7814 0.300626
42.1372 28.5512 2
39.7655 29.1424 2
37.5234 30.4999 2
35.8238 32.5402 2
39.9173 27.8295 3.88792
37.4942 28.9244 3.85318
35.6887 30.7991 3.70347
34.3723 32.8067 3.53676
30.9358 16.8533 3.98356
31.92 14.4876 2
34.0971 12.9499 0.0258111
31.1898 11.995 0.0221206
42.7931 26.6378 0.00839543
40.8143 23.4966 0.00246047
33.6122 15.8992 0.0206721
35.8483 17.5442 0.0210119
38.406 20.4111 0.00769567
33.5484 17.4285 2
35.5842 20.1324 2
40.2988 25.8719 2
38.031 23.1782 2
32.8764 19.8217 3.99334
37.6699 25.5225 3.97053
35.2095 22.8811 3.99961
35.9078 37.496 3.68468
37.507 37.4945 2
39.1126 37.487 0.317261
39.7518 51.7004 -0.00204654
38.6661 48.4331 0.0531784
37.5077 39.121 0.303585
37.5206 46.076 0.144426
35.6712 44.2228 0.307083
35.9304 40.7487 0.351643
34.3539 42.2033 0.463465
37.6628 50.7591 2
35.9371 39.1166 2
34.4608 40.6757 2
36.9042 48.0956 2
33.2979 41.9265 2
34.2105 43.6139 2
35.1958 45.8443 2
35.5404 49.9114 3.98573
34.3727 39.1281 3.6878
32.9757 40.8092 3.55401
32.9855 42.5113 3.74676
33.3566 45.014 3.84855
34.4108 47.1736 3.88594
36.7487 52.9944 0.00310197
34.4245 52.33 2
32.1587 51.0995 4.01834
33.2513 55.3876 0.00782733
30.616 53.291 2
28.6116 51.5157 3.9902
28.777 55.286 0.0175376
27.0298 53.3938 2
25.3003 51.6676 3.95473
25.4109 55.1014 0.0374913
23.7392 53.4247 2
22.2247 51.7183 3.95211
19.4941 51.5471 3.96119
19.0723 54.2463 3.96214
20.6711 53.1492 2
18.4966 56.6821 3.96381
20.0062 55.7862 2
21.9077 55.2991 0.0392889
18.3853 59.0751 3.96954
19.466 57.854 2
20.263 56.9884 0.0359525
18.6262 61.7382 3.97186
19.7189 60.1663 2
20.6692 58.7412 0.0291516
19.1288 64.6684 3.97928
20.212 62.8488 2
21.176 61.1439 0.025819
19.8873 67.8085 3.98933
20.9392 65.76 2
21.8984 63.8269 0.0226307
22.8382 66.7313 0.0178056
21.9115 68.8712 2
20.9142 71.1327 4
24.0105 69.8049 0.00948061
23.1494 72.1455 2
25.446 73.0099 0
23.1005 12.8001 3.9769
23.9739 10.1755 3.9785
25.0247 7.31467 3.98385
25.8597 9.38527 2
26.2813 4.32851 3.9912
27.07 6.54304 2
27.8221 8.6572 0.0185838
27.7943 1.27781 4
28.4879 3.64425 2
29.1565 5.87975 0.0138252
30.1841 0.720551 2
30.7271 3.09853 0.00741065
32.6053 0.320823 0
35.9152 35.8678 3.66198
37.5173 35.8836 2
39.0955 35.8715 0.330954
24.7773 12.0801 2
23.7587 14.3799 2
22.4898 15.0574 3.98044
25.3635 13.9231 3.97359
24.0416 15.6393 3.98337
26.6238 11.3956 0.0216277
29.2294 12.6493 0.0196683
27.2965 13.3814 2
29.7853 14.2083 2
28.3698 15.9819 3.98184
34.4884 34.3272 3.67248
35.9297 34.2742 2
37.5151 34.222 0.330526
35.8244 32.5505 0.437213
37.5209 30.5519 0.27865
42.109 28.5987 0.117946
39.7498 29.1924 0.149195
39.9391 27.792 2
37.493 28.8705 2
35.6722 30.7372 2
34.345 32.8015 2
37.5935 27.5616 3.89437
35.2451 29.2118 3.85015
34.2519 31.4485 3.71974
33.3455 33.1039 3.52583
30.2228 19.3979 3.98242
30.9319 16.8448 2
31.9217 14.4939 0.0207086
40.2366 25.8747 0.0422875
38.0485 23.2128 0.000238984
33.5527 17.4192 0.0195572
35.5817 20.1332 0.00797611
32.8716 19.8329 2
35.2051 22.8699 2
37.7316 25.4975 2
32.3664 22.5454 3.99582
35.0682 25.4422 3.99751
34.322 37.5096 3.70329
35.9118 37.4997 2
37.5103 37.4941 0.286804
37.6737 50.7312 0.00210105
36.925 48.0413 0.0866149
35.9253 39.1298 0.331792
35.2163 45.7974 0.153884
34.24 43.5602 0.280189
34.4787 40.6893 0.325076
33.3283 41.9036 0.472799
35.5288 49.9212 2
34.379 39.1239 2
32.9749 40.822 2
34.4075 47.2181 2
32.944 42.5545 2
33.3329 45.0534 2
33.367 48.9656 3.97751
32.6485 39.271 3.56414
31.9542 41.063 3.71248
31.8284 43.6451 3.84014
32.5441 46.1435 3.88832
34.4285 52.323 0.000395158
32.1611 51.1107 2
30.123 49.6794 4.0025
30.614 53.2871 0.0022473
28.6111 51.5113 2
26.7909 49.8886 3.96863
27.0285 53.391 0.0368114
25.2982 51.6668 2
23.6576 50.0813 3.96209
23.7406 53.4204 0.0422494
22.2233 51.7169 2
20.8061 50.2121 3.96494
18.2975 50.2435 3.96876
18.0704 52.7173 3.96363
19.4921 51.5464 2
17.5494 55.2878 3.96258
19.0673 54.2467 2
20.6723 53.1498 0.0403073
17.1596 57.8406 3.96352
18.4953 56.6827 2
20.0085 55.7845 0.0375253
17.1453 60.5154 3.96775
18.3852 59.0761 2
19.4665 57.8529 0.0321165
17.4102 63.459 3.97357
18.6265 61.7388 2
19.7183 60.1644 0.0284045
17.9437 66.6168 3.9876
19.1282 64.6685 2
20.212 62.8479 0.0257352
18.75 69.9759 4
19.8855 67.8074 2
20.9397 65.7594 0.0195871
21.9131 68.872 0.0100994
20.9142 71.1327 2
23.1494 72.1454 0
21.5939 13.6268 3.97687
22.1923 11.0375 3.97587
23.0993 12.8029 2
23.0424 8.18137 3.98224
23.9719 10.1737 2
24.1189 5.1433 3.9906
25.0233 7.31401 2
25.8611 9.38621 0.0195557
25.446 1.99014 4
26.2793 4.32881 2
27.0712 6.54386 0.0149446
27.7943 1.27778 2
28.4895 3.64441 0.00813845
30.1841 0.720592 0
34.381 35.8884 3.6869
35.9242 35.8822 2
37.51 35.8731 0.305817
21.3224 15.8609 3.98359
24.7797 12.0834 0.0228504
23.7585 14.3772 0.0247057
25.3629 13.9166 2
22.4905 15.0572 2
24.0431 15.6434 2
23.2871 16.2681 3.97376
25.3977 16.1096 3.98242
27.2963 13.3825 0.0211806
29.7884 14.21 0.0193247
28.3659 15.9874 2
27.4599 18.8368 3.98053
32.9834 34.205 3.55836
34.4711 34.3428 2
35.9332 34.2641 0.352692
34.3723 32.8067 0.46324
35.6887 30.7991 0.296528
37.4942 28.9244 0.146817
39.9173 27.8295 0.112082
37.5718 27.5255 2
33.3195 33.0838 2
35.2432 29.1529 2
34.2134 31.3902 2
35.1406 27.6577 3.89839
33.3535 29.9898 3.84981
33.0075 32.4919 3.73375
29.6703 21.9996 3.99925
30.2218 19.4028 2
30.9358 16.8533 0.0164408
37.6699 25.5225 0.0294669
35.2095 22.8811 0.000385267
32.8764 19.8217 0.00666283
32.3698 22.538 2
35.0974 25.4342 2
31.9108 25.7961 4.00459
32.4906 37.509 3.60158
34.3372 37.5061 2
35.9078 37.496 0.315316
35.5404 49.9114 0.0142671
34.4108 47.1736 0.114065
34.3727 39.1281 0.312198
33.3566 45.014 0.151453
32.9855 42.5113 0.253243
32.9757 40.8092 0.445988
33.3565 48.9646 2
32.6597 39.2738 2
31.9173 41.0971 2
32.5044 46.1875 2
31.788 43.6756 2
31.4613 47.8112 3.98007
31.2293 39.3728 3.71725
30.6393 41.8971 3.84563
30.8728 44.7718 3.90536
32.1587 51.0995 -0.0183378
30.125 49.7006 2
28.2456 48.0656 3.96009
28.6116 51.5157 0.00980268
26.7895 49.889 2
25.0411 48.3411 3.96794
25.3003 51.6676 0.0452701
23.6564 50.0799 2
22.0748 48.6672 3.97127
22.2247 51.7183 0.0478949
20.8035 50.2109 2
19.3939 48.9935 3.97288
17.1811 49.2537 3.9742
17.0231 51.3343 3.96778
18.2998 50.242 2
16.5463 53.813 3.96487
18.0689 52.7169 2
19.4941 51.5471 0.0388057
16.0306 56.4396 3.9627
17.5453 55.2885 2
19.0723 54.2463 0.0378593
15.7607 59.1846 3.96792
17.1599 57.8413 2
18.4966 56.6821 0.0361905
15.7924 62.1147 3.97069
17.1455 60.5171 2
18.3853 59.0751 0.0304553
16.0904 65.2986 3.98613
17.4091 63.4606 2
18.6262 61.7382 0.0281406
16.6661 68.6801 4
17.9415 66.6153 2
19.1288 64.6684 0.0207161
18.75 69.9759 2
19.8873 67.8085 0.0106669
20.9142 71.1327 0
20.2288 14.6271 3.97291
21.5933 13.6288 2
20.5331 12.012 3.97552
21.1452 9.15256 3.98059
22.1908 11.0376 2
23.1005 12.8001 0.023098
22.018 6.08228 3.99015
23.0405 8.18028 2
23.9739 10.1755 0.0215031
23.1494 2.85457 4
24.1166 5.14393 2
25.0247 7.31467 0.0161515
25.446 1.99012 2
26.2813 4.32851 0.00880027
27.7943 1.27781 0
32.64 35.7504 3.56658
34.384 35.8902 2
35.9152 35.8678 0.338021
21.3237 15.8579 2
20.3301 16.9921 3.97603
22.1193 16.6616 3.96883
25.3635 13.9231 0.0264051
22.4898 15.0574 0.0195551
24.0416 15.6393 0.0166261
25.3984 16.1035 2
23.2888 16.2682 2
24.2306 18.5194 3.97002
27.106 21.5677 3.99345
28.3698 15.9819 0.018164
27.4577 18.8567 2
31.9823 33.9578 3.70914
32.9874 34.1881 2
34.4884 34.3272 0.327517
33.3455 33.1039 0.474166
34.2519 31.4485 0.280258
35.2451 29.2118 0.149846
37.5935 27.5616 0.105629
35.1485 27.6138 2
32.9354 32.4493 2
33.3306 29.9535 2
32.7886 28.3313 3.90923
31.8354 31.368 3.83479
29.0299 24.4939 3.992
29.6669 22.0101 2
30.2228 19.3979 0.017579
35.0682 25.4422 0.00248709
32.3664 22.5454 0.00417601
31.9044 25.7716 2
29.9798 27.4438 3.97759
30.8237 37.5071 3.72222
32.4989 37.5074 2
34.322 37.5096 0.296714
33.367 48.9656 0.0224916
32.5441 46.1435 0.111676
32.6485 39.271 0.435855
31.8284 43.6451 0.159856
31.9542 41.063 0.287523
31.4342 47.8278 2
31.1649 39.3971 2
30.6062 41.9163 2
30.8321 44.8089 2
29.6482 46.423 3.99625
29.7745 39.838 3.86756
29.3296 43.0149 3.90786
30.123 49.6794 -0.00249791
28.2396 48.0587 2
26.4306 46.5147 3.9817
26.7909 49.8886 0.0313729
25.0399 48.3402 2
23.3041 46.9353 3.97486
23.6576 50.0813 0.0379087
22.0721 48.6657 2
20.3832 47.5076 3.9767
20.8061 50.2121 0.0350622
19.395 48.992 2
17.9995 48.0915 3.97691
16.4163 48.6118 3.97639
17.1827 49.2524 2
16.0984 50.1023 3.97193
15.561 52.358 3.96748
17.0244 51.3333 2
18.2975 50.2435 0.0312362
14.9685 54.9357 3.96369
16.5477 53.8124 2
18.0704 52.7173 0.0363723
14.4759 57.7182 3.96331
16.0304 56.4397 2
17.5494 55.2878 0.0374169
14.2716 60.6747 3.96943
15.7619 59.1853 2
17.1596 57.8406 0.03648
14.3355 63.8565 3.98213
15.7921 62.1169 2
17.1453 60.5154 0.0322468
14.6715 67.2507 4
16.0877 65.2963 2
17.4102 63.459 0.0264293
16.6661 68.6801 2
17.9437 66.6168 0.0123962
18.75 69.9759 0
18.9471 15.8135 3.97373
20.2292 14.6252 2
18.9854 13.1312 3.97512
21.5939 13.6268 0.0231336
20.5323 12.0137 2
19.3452 10.2435 3.97816
19.9927 7.14709 3.98909
21.1433 9.15294 2
22.1923 11.0375 0.024127
20.9142 3.86727 4
22.0151 6.08323 2
23.0424 8.18137 0.0177597
23.1494 2.85451 2
24.1189 5.1433 0.00939828
25.446 1.99014 0
31.2491 35.6402 3.71373
32.6486 35.7447 2
34.381 35.8884 0.313099
21.3224 15.8609 0.01641
22.1205 16.6602 2
20.3311 16.9878 2
19.2971 18.4458 3.96006
21.8092 17.8992 3.98284
25.3977 16.1096 0.0175821
23.2871 16.2681 0.0262372
24.2262 18.5312 2
22.3652 19.9602 3.96274
24.6886 21.4561 3.98647
26.6403 23.7914 3.97785
27.11 21.5276 2
27.4599 18.8368 0.0194742
30.6883 33.1276 3.85711
31.9493 33.9109 2
32.9834 34.205 0.441642
33.0075 32.4919 0.266251
33.3535 29.9898 0.150189
35.1406 27.6577 0.101607
32.7546 28.3037 2
31.7814 31.3324 2
30.5653 29.7265 3.93522
28.2362 26.6441 3.99409
29.0182 24.5021 2
29.6703 21.9996 0.000752289
31.9108 25.7961 -0.004592
29.9703 27.4212 2
29.3323 37.5085 3.86192
30.775 37.5071 2
32.4906 37.509 0.398421
31.4613 47.8112 0.0199346
30.8728 44.7718 0.0946412
31.2293 39.3728 0.282748
30.6393 41.8971 0.154372
29.6492 46.4211 2
29.7102 39.8548 2
29.2997 43.0562 2
27.8875 44.7454 3.97366
27.5375 40.5751 3.9399
28.2456 48.0656 0.0399088
26.4261 46.5162 2
24.5936 45.0535 3.97765
25.0411 48.3411 0.0320564
23.3021 46.9352 2
21.3893 45.7785 3.9779
22.0748 48.6672 0.0287339
20.3823 47.5062 2
18.7119 46.6404 3.97699
19.3939 48.9935 0.0271181
18 48.0903 2
16.6426 47.6369 3.97676
16.418 48.6108 2
15.4423 48.9524 3.97559
17.1811 49.2537 0.0258029
16.1007 50.1012 2
14.6792 50.931 3.97035
13.9441 53.3941 3.96564
15.562 52.3574 2
17.0231 51.3343 0.0322202
13.2889 56.1466 3.96331
14.9687 54.9355 2
16.5463 53.813 0.0351281
12.856 59.1127 3.96824
14.4779 57.7182 2
16.0306 56.4396 0.0372977
12.6816 62.2978 3.97832
14.2722 60.6748 2
15.7607 59.1846 0.032081
12.7746 65.6939 4
14.3333 63.853 2
15.7924 62.1147 0.029313
14.6714 67.2507 2
16.0904 65.2986 0.0138721
16.6661 68.6801 0
17.6944 17.1898 3.96905
18.9472 15.8117 2
17.52 14.3981 3.97271
20.2288 14.6271 0.0270933
18.9849 13.1317 2
17.6412 11.4636 3.97597
20.5331 12.012 0.0244812
19.3433 10.2442 2
18.053 8.34049 3.98739
18.75 5.0241 4
19.9895 7.14902 2
21.1452 9.15256 0.0194124
20.9142 3.86727 2
22.018 6.08228 0.00984777
23.1494 2.85457 0
29.7974 35.1909 3.867
31.1889 35.6182 2
32.64 35.7504 0.433416
22.1193 16.6616 0.0311693
20.3301 16.9921 0.0239666
21.8089 17.8977 2
19.2971 18.4425 2
18.1009 19.9974 3.9598
20.9535 19.4324 3.96196
24.2306 18.5194 0.0299818
22.3611 19.9637 2
24.6913 21.445 2
22.5063 21.8006 3.98191
24.9104 23.2324 3.97465
25.8325 26.028 3.97931
26.6387 23.7897 2
27.106 21.5677 0.00654623
29.0746 32.4765 3.91112
30.6328 33.0929 2
31.9823 33.9578 0.29086
31.8354 31.368 0.165206
32.7886 28.3313 0.0907663
30.5438 29.7205 2
27.5455 29.2302 4.01158
28.2228 26.6531 2
29.0299 24.4939 0.00800465
29.9798 27.4438 0.02241
27.6586 37.3545 3.91539
29.2653 37.5 2
30.8237 37.5071 0.277784
29.6482 46.423 0.003746
29.3296 43.0149 0.0921401
29.7745 39.838 0.132441
27.8764 44.7838 2
27.5134 40.5624 2
25.9454 43.059 3.98949
24.7972 39.4489 3.97288
26.4306 46.5147 0.018302
24.5823 45.0549 2
22.4918 43.8185 3.97726
23.3041 46.9353 0.0251427
21.3857 45.7787 2
19.4532 44.877 3.97678
20.3832 47.5076 0.0232978
18.712 46.6405 2
16.9858 46.1319 3.97671
17.9995 48.0915 0.0230876
16.6439 47.6359 2
15.2005 47.607 3.97628
16.4163 48.6118 0.0236101
15.4443 48.9514 2
13.9859 49.4956 3.97282
16.0984 50.1023 0.0280734
14.6804 50.9303 2
13.0162 51.8368 3.9676
12.1923 54.5064 3.96418
13.9441 53.3938 2
15.561 52.358 0.0325202
11.542 57.4491 3.96737
13.2896 56.1465 2
14.9685 54.9357 0.0363087
11.1364 60.6241 3.9769
12.8572 59.112 2
14.4759 57.7182 0.036688
10.9835 64.0165 4
12.6798 62.2941 2
14.2716 60.6747 0.0305748
12.7745 65.694 2
14.3355 63.8565 0.0178707
14.6715 67.2507 0
16.4585 18.6891 3.96185
17.6942 17.1885 2
16.1157 15.8099 3.96722
18.9471 15.8135 0.0262678
17.5196 14.3962 2
16.0243 12.8208 3.97304
18.9854 13.1312 0.0248751
17.6401 11.466 2
16.2039 9.66401 3.98607
19.3452 10.2435 0.0218362
18.0496 8.34336 2
16.6661 6.31991 4
18.75 5.02404 2
19.9927 7.14709 0.0109077
20.9142 3.86727 0
28.191 34.8316 3.90615
29.7302 35.1642 2
31.2491 35.6402 0.286265
16.8231 21.4335 3.96593
21.8092 17.8992 0.0171585
19.2971 18.4458 0.0399391
20.9518 19.4303 2
18.0982 19.9956 2
19.8937 21.6452 3.96973
22.3652 19.9602 0.0372566
24.6886 21.4561 0.0135279
22.5026 21.805 2
24.9064 23.2353 2
23.1573 24.6912 3.97415
25.0913 28.619 3.98064
25.8232 26.0348 2
26.6403 23.7914 0.02215
26.9264 31.8234 3.9791
29.0445 32.4596 2
30.6883 33.1276 0.142885
30.5653 29.7265 0.0647834
27.5578 29.2099 2
28.2362 26.6441 0.00591242
25.4867 36.8563 3.97228
27.6446 37.364 2
29.3323 37.5085 0.138083
27.8875 44.7454 0.0263367
27.5375 40.5751 0.0600992
25.9262 43.0788 2
24.7787 39.4543 2
23.6868 41.8083 3.98244
22.5158 38.5198 3.97826
24.5936 45.0535 0.022355
22.4918 43.8178 2
20.3106 42.8207 3.9761
21.3893 45.7785 0.022095
19.4539 44.8772 2
17.3794 44.307 3.97609
18.7119 46.6404 0.0230149
16.9873 46.1316 2
15.1543 46.0268 3.97636
16.6426 47.6369 0.0232385
15.2023 47.6062 2
13.5133 47.9603 3.97461
15.4423 48.9524 0.024415
13.9873 49.4949 2
12.2446 50.2179 3.96924
14.6792 50.931 0.0296488
13.0169 51.8362 2
11.191 52.8182 3.96518
10.3329 55.705 3.96713
12.1924 54.5062 2
13.9441 53.3941 0.0343557
9.70304 58.847 3.97631
11.5426 57.4485 2
13.2889 56.1466 0.0366897
9.30605 62.2254 4
11.1348 60.6201 2
12.856 59.1127 0.0317648
10.9835 64.0165 2
12.6816 62.2978 0.0216783
12.7746 65.6939 0
15.2411 20.2285 3.96313
16.4605 18.6891 2
14.7649 17.3295 3.96462
17.6944 17.1898 0.0309473
16.1158 15.8085 2
14.4886 14.3136 3.97021
17.52 14.3981 0.0272888
16.0234 12.8211 2
14.4468 11.1162 3.98364
17.6412 11.4636 0.0240333
16.2008 9.66772 2
14.6715 7.74927 4
18.053 8.34049 0.0126128
16.6661 6.31988 2
18.75 5.0241 0
26.1518 34.332 3.98112
28.1708 34.8387 2
29.7974 35.1909 0.132996
18.0555 22.3916 3.9725
15.7137 22.9778 3.96936
16.8233 21.4333 2
20.9535 19.4324 0.0380377
18.1009 19.9974 0.0401955
19.8908 21.6432 2
19.9885 24.4758 3.97126
22.5063 21.8006 0.0180882
24.9104 23.2324 0.0253453
23.153 24.6894 2
22.4531 27.9406 3.97247
24.487 31.305 3.97784
25.0965 28.6143 2
25.8325 26.028 0.0206901
26.907 31.7893 2
29.0746 32.4765 0.0888807
27.5455 29.2302 -0.0115795
23.2399 36.2867 3.98279
25.4712 36.8565 2
27.6586 37.3545 0.0846083
25.9454 43.059 0.010508
24.7972 39.4489 0.0271159
23.6727 41.8097 2
22.5072 38.5179 2
21.3839 40.6232 3.97506
20.7529 37.8026 3.97707
22.4918 43.8185 0.0227414
20.3095 42.8219 2
17.8508 42.0451 3.97594
19.4532 44.877 0.0232192
17.3801 44.3075 2
15.1978 44.1398 3.97591
16.9858 46.1319 0.0232934
15.1555 46.0263 2
13.2094 46.2497 3.97559
15.2005 47.607 0.0237188
13.515 47.9596 2
11.6306 48.517 3.97087
13.9859 49.4956 0.0271812
12.2458 50.2173 2
10.3206 51.0639 3.96602
13.0162 51.8368 0.0324004
11.1915 52.8177 2
9.24171 53.8858 3.96697
8.38654 56.9806 3.97693
10.3336 55.7041 2
12.1923 54.5064 0.0358156
7.74927 60.3285 4
9.70177 58.8428 2
11.542 57.4491 0.0326348
9.306 62.2255 2
11.1364 60.6241 0.0231044
10.9835 64.0165 0
14.0691 21.7933 3.96574
15.2401 20.2281 2
13.4765 18.9248 3.96405
16.4585 18.6891 0.0381457
14.7668 17.3291 2
13.0346 15.9036 3.96963
16.1157 15.8099 0.0327753
14.4886 14.3106 2
12.7844 12.6908 3.98088
16.0243 12.8208 0.0269648
14.4439 11.121 2
12.7746 9.30605 4
16.2039 9.66401 0.0139264
14.6715 7.74924 2
16.6661 6.31991 0
23.8282 33.8681 3.98272
26.1296 34.322 2
28.191 34.8316 0.0938527
17.9171 24.1223 3.97105
18.0621 22.3923 2
14.5563 24.5115 3.97105
15.7158 22.9781 2
16.8231 21.4335 0.0340725
19.4756 27.308 3.97343
19.8937 21.6452 0.0302733
19.9848 24.4759 2
21.8096 30.7775 3.97518
23.1573 24.6912 0.0258477
22.4546 27.9417 2
24.4621 31.3019 2
25.0913 28.619 0.0193596
26.9264 31.8234 0.0209011
20.8763 35.9591 3.97654
23.241 36.2878 2
25.4867 36.8563 0.0277221
23.6868 41.8083 0.017561
22.5158 38.5198 0.0217379
21.3898 40.624 2
20.7532 37.8011 2
18.6025 38.9959 3.97705
20.3106 42.8207 0.0238989
17.8504 42.0454 2
15.1829 41.8784 3.97624
17.3794 44.307 0.0239115
15.1983 44.1398 2
12.9719 44.35 3.97617
15.1543 46.0268 0.0236355
13.211 46.2491 2
11.1459 46.7038 3.97242
13.5133 47.9603 0.0253858
11.6322 48.5163 2
9.58886 49.2253 3.96672
12.2446 50.2179 0.0307647
10.321 51.0634 2
8.27443 52.0002 3.96677
11.191 52.8182 0.0348244
9.24231 53.8848 2
7.19554 55.0319 3.97786
6.31991 58.3339 4
8.38562 56.9767 2
10.3329 55.705 0.0328668
7.74924 60.3285 2
9.70304 58.847 0.0236913
9.30605 62.2254 0
13.4302 25.4121 3.97465
12.9708 23.3226 3.96844
14.0686 21.793 2
12.2801 20.5724 3.9646
15.2411 20.2285 0.03687
13.4762 18.924 2
11.6652 17.5785 3.96924
14.7649 17.3295 0.0353755
13.0366 15.9029 2
11.2227 14.3775 3.97656
14.4886 14.3136 0.0297878
12.7821 12.6956 2
10.9835 10.9835 4
14.4468 11.1162 0.0163639
12.7745 9.306 2
14.6715 7.74927 0
21.2395 33.4712 3.97566
23.8305 33.8567 2
26.1518 34.332 0.0188769
16.2484 26.4797 3.97307
17.9203 24.1227 2
18.0555 22.3916 0.0275032
14.5564 24.5118 2
15.7137 22.9778 0.0306401
18.8708 30.2765 3.97514
19.4747 27.3085 2
19.9885 24.4758 0.0287413
21.8219 30.7783 2
22.4531 27.9406 0.0275296
24.487 31.305 0.0221563
18.212 35.9897 3.97765
20.8787 35.9597 2
23.2399 36.2867 0.0172075
21.3839 40.6232 0.0249387
20.7529 37.8026 0.0229289
18.6007 38.9949 2
14.6854 39.1654 3.97714
17.8508 42.0451 0.0240623
15.1828 41.8782 2
12.6682 42.2454 3.97634
15.1978 44.1398 0.0240946
12.9732 44.3494 2
10.7334 44.7774 3.97397
13.2094 46.2497 0.0244083
11.1479 46.7031 2
8.97523 47.306 3.96729
11.6306 48.517 0.0291333
9.58909 49.2247 2
7.44111 50.034 3.96652
10.3206 51.0639 0.0339842
8.27487 51.9992 2
6.13616 53.0074 3.97826
9.24171 53.8858 0.0330323
7.19499 55.0287 2
5.0241 56.25 4
6.31988 58.3339 2
8.38654 56.9806 0.0230659
7.74927 60.3285 0
13.702 26.8666 3.97507
12.0813 24.8249 3.97072
13.4295 25.4123 2
11.2043 22.2564 3.96548
12.9716 23.3229 2
14.0691 21.7933 0.0342608
12.2808 20.5722 2
10.3976 19.3286 3.96802
13.4765 18.9248 0.035955
11.6673 17.5784 2
9.76327 16.1604 3.97667
13.0346 15.9036 0.0303717
11.2209 14.3825 2
9.30607 12.7746 4
12.7844 12.6908 0.0191185
10.9835 10.9835 2
12.7746 9.30605 0
18.3787 33.1755 3.97657
21.24 33.4739 2
23.8282 33.8681 0.017281
15.8723 29.7124 3.97548
16.2493 26.4801 2
17.9171 24.1223 0.0289489
14.5563 24.5115 0.0289526
18.8697 30.277 2
19.4756 27.308 0.0265724
21.8096 30.7775 0.0248207
15.3104 36.0345 3.97729
18.2116 35.99 2
20.8763 35.9591 0.0234647
12.8994 37.8298 3.97725
18.6025 38.9959 0.0229534
14.685 39.1652 2
12.1722 40.1252 3.9768
15.1829 41.8784 0.0237613
12.6696 42.245 2
10.3326 42.7596 3.97502
12.9719 44.35 0.0238283
10.7352 44.7768 2
8.45322 45.3101 3.96806
11.1459 46.7038 0.0275827
8.97506 47.3055 2
6.73198 47.9995 3.9665
9.58886 49.2253 0.0332839
7.44143 50.0332 2
5.2129 50.9108 3.97798
8.27443 52.0002 0.033229
6.13591 53.0052 2
3.86727 54.0858 4
7.19554 55.0319 0.022143
5.02404 56.25 2
6.31991 58.3339 0
13.1857 29.0806 3.97495
11.5263 26.5224 3.97125
13.7015 26.8668 2
10.2633 23.9862 3.96676
12.0831 24.8253 2
13.4302 25.4121 0.0253464
9.25015 21.1434 3.96742
11.2042 22.2563 2
12.9708 23.3226 0.0315583
12.2801 20.5724 0.035403
10.3993 19.3289 2
8.41909 18.0312 3.97649
11.6652 17.5785 0.0307642
9.76202 16.1655 2
7.74928 14.6715 4
11.2227 14.3775 0.0234363
9.30602 12.7745 2
10.9835 10.9835 0
14.8611 32.9123 3.97683
18.3773 33.1747 2
21.2395 33.4712 0.0243364
15.8734 29.7128 2
16.2484 26.4797 0.0269294
18.8708 30.2765 0.0248582
13.1944 36.2213 3.97695
15.3097 36.0342 2
18.212 35.9897 0.0223499
12.9003 37.8295 2
11.508 38.3082 3.9771
14.6854 39.1654 0.0228568
12.1743 40.125 2
9.90805 40.7437 3.97581
12.6682 42.2454 0.023657
10.3353 42.759 2
7.99935 43.2618 3.96873
10.7334 44.7774 0.026032
8.45419 45.3096 2
6.13768 45.9047 3.96675
8.97523 47.306 0.0327129
6.73231 47.9987 2
4.42426 48.7515 3.97751
7.44111 50.034 0.033476
5.21285 50.9096 2
2.85457 51.8506 4
6.13616 53.0074 0.0217384
3.86727 54.0858 2
5.0241 56.25 0
12.3183 31.2936 3.97616
10.9447 28.4461 3.97172
13.1862 29.0811 2
9.48055 25.8142 3.96746
11.5277 26.5228 2
13.702 26.8666 0.0249332
8.23691 23.0259 3.96715
10.2637 23.9864 2
12.0813 24.8249 0.0292756
7.2013 19.9803 3.97747
9.25154 21.1439 2
11.2043 22.2564 0.0345184
10.3976 19.3286 0.0319775
8.41849 18.0356 2
6.31992 16.6661 4
9.76327 16.1604 0.0233274
7.74926 14.6714 2
9.30607 12.7746 0
12.3558 34.32 3.97676
14.8612 32.913 2
18.3787 33.1755 0.0234283
15.8723 29.7124 0.0245192
11.0487 36.6193 3.97684
13.195 36.2211 2
15.3104 36.0345 0.022708
12.8994 37.8298 0.0227455
11.5105 38.3077 2
9.4914 38.8203 3.97599
12.1722 40.1252 0.0232049
9.91033 40.7433 2
7.60787 41.2062 3.96893
10.3326 42.7596 0.0249798
7.99896 43.2615 2
5.64931 43.7676 3.96697
8.45322 45.3101 0.0319392
6.13793 45.904 2
3.76967 46.537 3.97741
6.73198 47.9995 0.033502
4.42446 48.7507 2
1.99014 49.554 4
5.2129 50.9108 0.0220174
2.85451 51.8506 2
3.86727 54.0858 0
11.1381 32.9444 3.977
10.2536 30.4072 3.9726
12.3196 31.2941 2
8.79082 27.7459 3.96776
10.9461 28.4464 2
13.1857 29.0806 0.0250508
7.36208 24.9839 3.96687
9.48055 25.8144 2
11.5263 26.5224 0.0287489
6.11828 22.0029 3.97832
8.23777 23.0264 2
10.2633 23.9862 0.0332371
5.02411 18.75 4
7.20111 19.9835 2
9.25015 21.1434 0.0325819
8.41909 18.0312 0.0235063
6.3199 16.6661 2
7.74928 14.6715 0
10.6421 35.0141 3.97656
12.3569 34.3203 2
14.8611 32.9123 0.0231684
9.15486 36.9878 3.97571
11.0514 36.6191 2
13.1944 36.2213 0.0230485
11.508 38.3082 0.0229036
9.49371 38.8201 2
7.28393 39.1798 3.96926
9.90805 40.7437 0.0241946
7.60844 41.2059 2
5.26417 41.6135 3.96719
7.99935 43.2618 0.031271
5.64953 43.7671 2
3.24727 44.2817 3.97765
6.13768 45.9047 0.0332531
3.76995 46.5364 2
1.27781 47.2057 4
4.42426 48.7515 0.0224868
1.99012 49.554 2
2.85457 51.8506 0
10.2803 33.8991 3.97634
9.53279 32.1726 3.97349
11.1403 32.9449 2
8.1346 29.7067 3.96819
10.2555 30.4076 2
12.3183 31.2936 0.0238354
6.60527 27.0095 3.96686
8.79071 27.7461 2
10.9447 28.4461 0.0282825
5.17364 24.0952 3.97826
7.36258 24.9844 2
9.48055 25.8142 0.0325444
3.86728 20.9142 4
6.11831 22.0047 2
8.23691 23.0259 0.0328521
5.02406 18.75 2
7.2013 19.9803 0.0225344
6.31992 16.6661 0
8.97522 35.2872 3.97563
10.6449 35.0141 2
12.3558 34.32 0.0232431
7.06074 37.2063 3.9695
9.15701 36.9878 2
11.0487 36.6193 0.0231649
9.4914 38.8203 0.0240072
7.28504 39.1796 2
4.99154 39.4672 3.96758
7.60787 41.2062 0.0310712
5.26478 41.6131 2
2.85759 42.002 3.97789
5.64931 43.7676 0.0330297
3.24743 44.2813 2
0.720592 44.8159 4
3.76967 46.537 0.0225901
1.27778 47.2057 2
1.99014 49.554 0
9.01966 33.7101 3.97492
10.2832 33.8995 2
7.56569 31.6172 3.96876
9.53522 32.173 2
11.1381 32.9444 0.0230015
5.94993 29.0703 3.96709
8.13446 29.7068 2
10.2536 30.4072 0.0273958
4.36117 26.2475 3.97789
6.60558 27.0099 2
8.79082 27.7459 0.0322385
2.85458 23.1494 4
5.17379 24.096 2
7.36208 24.9839 0.0331257
3.86728 20.9142 2
6.11828 22.0029 0.0216832
5.02411 18.75 0
7.00902 35.3089 3.96957
8.97725 35.2874 2
10.6421 35.0141 0.0234423
4.84163 37.3399 3.96795
7.06211 37.2062 2
9.15486 36.9878 0.0242866
7.28393 39.1798 0.0307373
4.99213 39.467 2
2.60553 39.7136 3.97808
5.26417 41.6135 0.0328089
2.85805 42.0018 2
0.320823 42.3947 4
3.24727 44.2817 0.0223523
0.720551 44.8159 2
1.27781 47.2057 0
7.17459 33.4663 3.96925
9.02188 33.7104 2
10.2803 33.8991 0.0236575
5.42031 31.1341 3.96757
7.56599 31.6174 2
9.53279 32.1726 0.0265139
3.68267 28.4435 3.97772
5.95024 29.0707 2
8.1346 29.7067 0.0318083
1.99015 25.446 4
4.3614 26.2478 2
6.60527 27.0095 0.0331405
2.85453 23.1494 2
5.17364 24.0952 0.0217374
3.86728 20.9142 0
4.85591 35.2518 3.96795
7.00949 35.3089 2
8.97522 35.2872 0.0243706
2.49696 37.4283 3.97887
4.84173 37.3399 2
7.06074 37.2063 0.0304957
4.99154 39.4672 0.0324188
2.6061 39.7139 2
0.080333 39.9526 4
2.85759 42.002 0.0221127
0.320817 42.3947 2
0.720592 44.8159 0
5.04934 33.1906 3.96793
7.1751 33.4664 2
9.01966 33.7101 0.025077
3.14678 30.6662 3.97799
5.4206 31.1345 2
7.56569 31.6172 0.0312447
1.27793 27.7943 4
3.68303 28.4437 2
5.94993 29.0703 0.0329092
1.99013 25.446 2
4.36117 26.2475 0.0221069
2.85458 23.1494 0
2.54905 35.1589 3.97862
4.85663 35.2521 2
7.00902 35.3089 0.0304323
0 37.5 4
2.49706 37.4286 2
4.84163 37.3399 0.0320526
2.60553 39.7136 0.0219167
0.0802903 39.9526 2
0.320823 42.3947 0
2.7667 32.9057 3.97875
5.0496 33.1909 2
7.17459 33.4663 0.0307512
0.721173 30.1842 4
3.14715 30.6666 2
5.42031 31.1341 0.0324255
1.27779 27.7943 2
3.68267 28.4435 0.0222837
1.99015 25.446 0
0.0806499 35.0474 4
2.54971 35.1593 2
4.85591 35.2518 0.0320489
0 37.5 2
2.49696 37.4283 0.0211324
0.080333 39.9526 0
0.32156 32.6054 4
2.76689 32.9063 2
5.04934 33.1906 0.0320729
0.72056 30.1841 2
3.14678 30.6662 0.0220115
1.27793 27.7943 0
0.0802889 35.0474 2
2.54905 35.1589 0.021383
0 37.5 0
0.320817 32.6053 2
2.7667 32.9057 0.0212538
0.721173 30.1842 0
0.0806499 35.0474 0
0.32156 32.6054 0
CELLS 1910 17190
8 18 6 25 56 2 0 5 16
8 57 23 6 18 17 4 0 2
8 78 36 9 29 31 11 1 7
8 31 11 1 7 79 37 10 30
8 110 57 18 50 48 17 2 14
8 50 18 56 111 14 2 16 49
8 116 62 22 55 52 20 3 15
8 56 25 67 118 16 5 24 53
8 119 63 23 57 54 21 4 17
8 55 22 63 119 15 3 21 54
8 58 26 68 121 18 6 25 56
8 122 65 26 58 57 23 6 18
8 73 31 7 27 142 79 30 71
8 143 78 29 72 73 31 7 27
8 83 147 76 34 32 74 28 8
8 84 148 78 36 33 75 29 9
8 76 34 8 28 148 84 33 75
8 37 79 150 86 10 30 77 35
8 151 87 36 78 80 38 11 31
8 80 38 11 31 152 88 37 79
8 175 100 42 94 96 44 12 40
8 44 96 176 101 12 40 95 43
8 101 176 98 46 43 95 41 13
8 46 98 178 103 13 41 97 45
8 178 103 45 97 147 83 32 74
8 189 116 55 109 106 52 15 47
8 111 56 118 191 49 16 53 107
8 192 119 57 110 108 54 17 48
8 109 55 119 192 47 15 54 108
8 194 122 58 112 110 57 18 50
8 112 58 121 195 50 18 56 111
8 115 61 19 51 197 124 59 113
8 115 61 125 198 51 19 60 114
8 198 125 62 116 114 60 20 52
8 200 127 64 120 116 62 22 55
8 118 67 132 202 53 24 66 117
8 121 68 133 203 56 25 67 118
8 120 64 128 204 55 22 63 119
8 204 128 65 122 119 63 23 57
8 206 134 68 121 123 69 26 58
8 123 69 26 58 207 131 65 122
8 226 147 74 138 140 76 28 70
8 229 148 75 139 143 78 29 72
8 140 76 28 70 229 148 75 139
8 142 79 30 71 231 150 77 141
8 144 80 31 73 232 152 79 142
8 233 151 78 143 144 80 31 73
8 150 86 35 77 235 154 81 145
8 235 154 81 145 146 82 39 91
8 146 82 39 91 236 155 90 165
8 238 157 83 147 149 85 34 76
8 239 158 84 148 151 87 36 78
8 149 85 34 76 239 158 84 148
8 152 88 37 79 241 160 86 150
8 242 161 87 151 153 89 38 80
8 153 89 38 80 243 162 88 152
8 171 98 41 92 265 178 97 169
8 265 178 97 169 226 147 74 138
8 172 96 40 93 266 176 95 170
8 266 176 95 170 171 98 41 92
8 269 175 94 173 172 96 40 93
8 271 180 99 174 175 100 42 94
8 197 124 59 113 271 180 99 174
8 272 181 100 175 177 102 44 96
8 273 182 101 176 179 104 46 98
8 177 102 44 96 273 182 101 176
8 179 104 46 98 275 184 103 178
8 275 184 103 178 238 157 83 147
8 188 115 51 105 283 197 113 186
8 188 115 198 284 105 51 114 187
8 284 198 116 189 187 114 52 106
8 286 200 120 193 189 116 55 109
8 191 118 202 288 107 53 117 190
8 195 121 203 289 111 56 118 191
8 193 120 204 290 109 55 119 192
8 290 204 122 194 192 119 57 110
8 196 123 58 112 292 207 122 194
8 293 206 121 195 196 123 58 112
8 199 126 61 115 297 211 124 197
8 298 212 127 200 198 125 62 116
8 199 126 212 298 115 61 125 198
8 205 129 64 120 300 214 127 200
8 301 217 130 201 202 132 66 117
8 209 136 168 264 301 217 130 201
8 302 219 132 202 203 133 67 118
8 303 220 133 203 206 134 68 121
8 205 129 215 304 120 64 128 204
8 304 215 131 207 204 128 65 122
8 306 221 134 206 208 135 69 123
8 208 135 69 123 307 218 131 207
8 210 137 167 263 309 223 136 209
8 328 238 147 226 230 149 76 140
8 228 146 91 166 329 236 165 260
8 231 150 77 141 330 235 145 227
8 330 235 145 227 228 146 91 166
8 332 239 148 229 233 151 78 143
8 230 149 76 140 332 239 148 229
8 232 152 79 142 334 241 150 231
8 234 153 80 144 335 243 152 232
8 336 242 151 233 234 153 80 144
8 236 155 90 165 338 245 164 259
8 241 160 86 150 339 246 154 235
8 339 246 154 235 237 156 82 146
8 237 156 82 146 340 247 155 236
8 342 249 157 238 240 159 85 149
8 343 250 158 239 242 161 87 151
8 240 159 85 149 343 250 158 239
8 243 162 88 152 345 252 160 241
8 244 163 253 346 153 89 161 242
8 244 163 89 153 347 254 162 243
8 311 224 261 371 210 137 167 263
8 263 167 262 372 209 136 168 264
8 267 179 98 171 375 275 178 265
8 375 275 178 265 328 238 147 226
8 376 273 176 266 267 179 98 171
8 268 177 96 172 376 273 176 266
8 379 272 175 269 268 177 96 172
8 380 271 174 270 269 175 94 173
8 283 197 113 186 380 271 174 270
8 381 277 180 271 272 181 100 175
8 297 211 124 197 381 277 180 271
8 382 278 181 272 274 183 102 177
8 274 183 102 177 383 279 182 273
8 383 279 182 273 276 185 104 179
8 385 281 184 275 342 249 157 238
8 276 185 104 179 385 281 184 275
8 285 199 115 188 393 297 197 283
8 394 298 200 286 284 198 116 189
8 285 199 298 394 188 115 198 284
8 291 205 120 193 396 300 200 286
8 397 301 201 287 288 202 117 190
8 295 209 264 374 397 301 201 287
8 398 302 202 288 289 203 118 191
8 399 303 203 289 293 206 121 195
8 291 205 304 400 193 120 204 290
8 400 304 207 292 290 204 122 194
8 294 208 123 196 402 307 207 292
8 403 306 206 293 294 208 123 196
8 296 210 263 373 405 309 209 295
8 408 312 213 299 297 211 126 199
8 299 213 313 409 199 126 212 298
8 409 313 214 300 298 212 127 200
8 305 216 129 205 411 315 214 300
8 412 318 217 301 302 219 132 202
8 309 223 136 209 412 318 217 301
8 413 320 219 302 303 220 133 203
8 306 221 321 414 206 134 220 303
8 307 218 131 207 415 316 215 304
8 305 216 316 415 205 129 215 304
8 417 322 221 306 308 222 135 208
8 308 222 135 208 418 319 218 307
8 310 225 137 210 420 325 223 309
8 423 326 224 311 310 225 137 210
8 329 236 165 260 441 338 259 368
8 442 342 238 328 333 240 149 230
8 331 237 146 228 443 340 236 329
8 334 241 150 231 444 339 235 330
8 444 339 235 330 331 237 146 228
8 446 343 239 332 336 242 151 233
8 333 240 149 230 446 343 239 332
8 335 243 152 232 448 345 241 334
8 337 244 153 234 449 347 243 335
8 337 244 346 450 234 153 242 336
8 338 245 164 259 452 349 258 367
8 340 247 155 236 453 350 245 338
8 345 252 160 241 454 351 246 339
8 454 351 246 339 341 248 156 237
8 341 248 156 237 455 352 247 340
8 240 159 251 344 342 249 354 457
8 242 161 253 346 343 250 355 458
8 343 250 355 458 240 159 251 344
8 347 254 162 243 460 357 252 345
8 348 255 358 461 244 163 253 346
8 348 255 163 244 462 359 254 347
8 473 360 257 365 363 256 364 482
8 452 349 258 367 365 257 366 485
8 422 324 369 488 311 224 261 371
8 371 261 370 490 263 167 262 372
8 407 311 371 491 296 210 263 373
8 373 263 372 492 295 209 264 374
8 493 385 275 375 442 342 238 328
8 377 276 179 267 493 385 275 375
8 378 274 177 268 494 383 273 376
8 494 383 273 376 377 276 179 267
8 497 382 272 379 378 274 177 268
8 498 381 271 380 379 272 175 269
8 393 297 197 283 498 381 271 380
8 499 387 277 381 382 278 181 272
8 408 312 211 297 499 387 277 381
8 500 388 278 382 384 280 183 274
8 501 389 279 383 386 282 185 276
8 384 280 183 274 501 389 279 383
8 386 282 185 276 503 391 281 385
8 503 391 281 385 457 354 249 342
8 511 408 299 395 393 297 199 285
8 395 299 409 512 285 199 298 394
8 512 409 300 396 394 298 200 286
8 401 305 205 291 514 411 300 396
8 515 412 301 397 398 302 202 288
8 405 309 209 295 515 412 301 397
8 516 413 302 398 399 303 203 289
8 403 306 414 517 293 206 303 399
8 402 307 207 292 518 415 304 400
8 401 305 415 518 291 205 304 400
8 404 308 208 294 520 418 307 402
8 521 417 306 403 404 308 208 294
8 406 310 210 296 523 420 309 405
8 526 423 311 407 406 310 210 296
8 410 314 213 299 527 424 312 408
8 528 425 315 411 409 313 214 300
8 410 314 425 528 299 213 313 409
8 416 317 216 305 530 427 315 411
8 531 430 318 412 413 320 219 302
8 420 325 223 309 531 430 318 412
8 532 432 320 413 414 321 220 303
8 417 322 433 533 306 221 321 414
8 418 319 218 307 534 428 316 415
8 416 317 428 534 305 216 316 415
8 419 323 434 536 308 222 322 417
8 419 323 222 308 537 431 319 418
8 421 327 225 310 539 438 325 420
8 421 327 439 541 310 225 326 423
8 543 437 324 422 423 326 224 311
8 441 338 259 368 559 452 367 486
8 443 340 236 329 560 453 338 441
8 333 240 344 447 442 342 457 561
8 445 341 237 331 562 455 340 443
8 448 345 241 334 563 454 339 444
8 563 454 339 444 445 341 237 331
8 336 242 346 450 446 343 458 565
8 446 343 458 565 333 240 344 447
8 449 347 243 335 567 460 345 448
8 451 348 244 337 568 462 347 449
8 451 348 461 569 337 244 346 450
8 570 463 349 452 473 360 257 365
8 453 350 245 338 570 463 349 452
8 455 352 247 340 571 464 350 453
8 460 357 252 345 572 465 351 454
8 572 465 351 454 456 353 248 341
8 456 353 248 341 573 466 352 455
8 344 251 356 459 457 354 468 575
8 458 355 469 576 344 251 356 459
8 346 253 358 461 458 355 469 576
8 462 359 254 347 578 471 357 460
8 348 255 359 462 461 358 472 579
8 591 474 360 473 475 361 256 363
8 475 361 256 363 594 477 362 479
8 363 256 364 482 479 362 480 603
8 590 473 365 484 481 363 482 605
8 482 364 257 365 606 483 366 485
8 559 452 367 486 484 365 485 607
8 542 436 487 609 422 324 369 488
8 525 422 488 611 407 311 371 491
8 488 369 489 612 371 261 370 490
8 491 371 490 613 373 263 372 492
8 495 386 276 377 614 503 385 493
8 614 503 385 493 561 457 342 442
8 615 501 383 494 495 386 276 377
8 496 384 274 378 615 501 383 494
8 618 500 382 497 496 384 274 378
8 619 499 381 498 497 382 272 379
8 511 408 297 393 619 499 381 498
8 620 505 387 499 500 388 278 382
8 527 424 312 408 620 505 387 499
8 502 390 506 621 384 280 388 500
8 622 507 389 501 504 392 282 386
8 502 390 280 384 622 507 389 501
8 504 392 282 386 624 509 391 503
8 624 509 391 503 575 468 354 457
8 513 410 299 395 630 527 408 511
8 631 528 411 514 512 409 300 396
8 513 410 528 631 395 299 409 512
8 519 416 305 401 633 530 411 514
8 634 531 412 515 516 413 302 398
8 523 420 309 405 634 531 412 515
8 635 532 413 516 517 414 303 399
8 521 417 533 636 403 306 414 517
8 520 418 307 402 637 534 415 518
8 519 416 534 637 401 305 415 518
8 522 419 308 404 639 537 418 520
8 522 419 536 640 404 308 417 521
8 524 421 310 406 642 539 420 523
8 524 421 541 644 406 310 423 526
8 646 543 422 525 526 423 311 407
8 529 426 314 410 647 544 424 527
8 528 425 545 648 411 315 427 530
8 529 426 545 648 410 314 425 528
8 535 429 317 416 649 546 427 530
8 650 548 430 531 532 432 320 413
8 539 438 325 420 650 548 430 531
8 533 433 550 651 414 321 432 532
8 536 434 551 652 417 322 433 533
8 537 431 319 418 653 547 428 534
8 535 429 547 653 416 317 428 534
8 538 435 552 654 419 323 434 536
8 538 435 323 419 655 549 431 537
8 540 440 327 421 657 556 438 539
8 540 440 557 659 421 327 439 541
8 541 439 555 660 423 326 437 543
8 661 554 436 542 543 437 324 422
8 676 570 452 559 590 473 365 484
8 560 453 338 441 676 570 452 559
8 562 455 340 443 677 571 453 560
8 447 344 459 566 561 457 575 678
8 564 456 341 445 679 573 455 562
8 567 460 345 448 680 572 454 563
8 680 572 454 563 564 456 341 445
8 565 458 576 682 447 344 459 566
8 450 346 461 569 565 458 576 682
8 568 462 347 449 684 578 460 567
8 451 348 462 568 569 461 579 685
8 686 580 463 570 591 474 360 473
8 571 464 350 453 686 580 463 570
8 573 466 352 455 687 581 464 571
8 572 465 582 688 460 357 471 578
8 574 467 582 688 456 353 465 572
8 574 467 353 456 689 583 466 573
8 459 356 470 577 575 468 585 691
8 576 469 586 692 459 356 470 577
8 461 358 472 579 576 469 586 692
8 462 359 471 578 579 472 588 694
8 704 591 473 590 593 475 363 481
8 595 476 592 705 475 361 474 591
8 593 475 363 481 707 594 479 602
8 594 477 362 479 709 598 478 600
8 595 476 361 475 711 597 477 594
8 479 362 480 603 600 478 601 720
8 481 363 482 605 602 479 603 722
8 603 480 364 482 723 604 483 606
8 605 482 365 484 724 606 485 607
8 656 553 608 726 542 436 487 609
8 645 542 609 728 525 422 488 611
8 609 487 610 729 488 369 489 612
8 611 488 612 730 491 371 490 613
8 616 504 386 495 731 624 503 614
8 731 624 503 614 678 575 457 561
8 732 622 501 615 616 504 386 495
8 617 502 384 496 732 622 501 615
8 617 502 621 735 496 384 500 618
8 736 620 499 619 618 500 382 497
8 630 527 408 511 736 620 499 619
8 621 506 626 737 500 388 505 620
8 647 544 424 527 737 626 505 620
8 623 508 627 738 502 390 506 621
8 623 508 390 502 739 628 507 622
8 625 510 628 739 504 392 507 622
8 740 629 509 624 691 585 468 575
8 625 510 392 504 740 629 509 624
8 632 529 410 513 744 647 527 630
8 631 528 648 745 514 411 530 633
8 632 529 648 745 513 410 528 631
8 638 535 416 519 746 649 530 633
8 747 650 531 634 635 532 413 516
8 642 539 420 523 747 650 531 634
8 636 533 651 748 517 414 532 635
8 640 536 652 749 521 417 533 636
8 639 537 418 520 750 653 534 637
8 638 535 653 750 519 416 534 637
8 641 538 419 522 751 655 537 639
8 641 538 654 752 522 419 536 640
8 643 540 421 524 753 657 539 642
8 643 540 659 755 524 421 541 644
8 644 541 660 757 526 423 543 646
8 758 661 542 645 646 543 422 525
8 529 426 544 647 648 545 662 759
8 530 427 545 648 649 546 663 760
8 535 429 546 649 653 547 664 761
8 762 666 548 650 651 550 432 532
8 657 556 438 539 762 666 548 650
8 652 551 668 763 533 433 550 651
8 654 552 669 764 536 434 551 652
8 655 549 431 537 765 665 547 653
8 538 435 549 655 654 552 667 766
8 661 554 671 768 542 436 553 656
8 658 558 440 540 769 674 556 657
8 658 558 675 770 540 440 557 659
8 659 557 673 771 541 439 555 660
8 660 555 672 772 543 437 554 661
8 788 686 570 676 704 591 473 590
8 677 571 453 560 788 686 570 676
8 679 573 455 562 789 687 571 677
8 566 459 577 683 678 575 691 790
8 681 574 456 564 791 689 573 679
8 680 572 688 792 567 460 578 684
8 681 574 688 792 564 456 572 680
8 682 576 692 794 566 459 577 683
8 569 461 579 685 682 576 692 794
8 568 462 578 684 685 579 694 796
8 687 581 464 571 798 696 580 686
8 798 696 580 686 705 592 474 591
8 689 583 466 573 799 697 581 687
8 688 582 698 800 578 471 588 694
8 690 584 698 800 574 467 582 688
8 690 584 467 574 801 699 583 689
8 693 587 701 803 577 470 585 691
8 693 587 470 577 804 702 586 692
8 695 589 702 804 579 472 586 692
8 695 589 472 579 805 703 588 694
8 708 595 705 813 593 475 591 704
8 710 596 706 814 595 476 592 705
8 707 594 479 602 816 709 600 719
8 708 595 475 593 817 711 594 707
8 709 598 478 600 819 715 599 717
8 711 597 477 594 820 714 598 709
8 710 596 476 595 822 713 597 711
8 600 478 601 720 717 599 718 832
8 602 479 603 722 719 600 720 834
8 720 601 480 603 835 721 604 723
8 722 603 482 605 836 723 606 724
8 767 670 725 839 656 553 608 726
8 756 656 726 841 645 542 609 728
8 726 608 727 842 609 487 610 729
8 728 609 729 843 611 488 612 730
8 844 740 624 731 790 691 575 678
8 733 625 504 616 844 740 624 731
8 734 623 502 617 845 739 622 732
8 733 625 739 845 616 504 622 732
8 734 623 738 846 617 502 621 735
8 735 621 737 847 618 500 620 736
8 744 647 527 630 847 737 620 736
8 621 506 627 738 737 626 741 848
8 647 544 626 737 759 662 741 848
8 623 508 628 739 738 627 742 849
8 740 629 585 691 850 743 700 802
8 625 510 629 740 739 628 743 850
8 632 529 647 744 745 648 759 854
8 633 530 648 745 746 649 760 855
8 638 535 649 746 750 653 761 856
8 857 762 650 747 748 651 532 635
8 753 657 539 642 857 762 650 747
8 749 652 763 858 636 533 651 748
8 752 654 764 859 640 536 652 749
8 751 655 537 639 860 765 653 750
8 641 538 655 751 752 654 766 861
8 754 658 540 643 862 769 657 753
8 754 658 770 863 643 540 659 755
8 755 659 771 864 644 541 660 757
8 758 661 768 866 645 542 656 756
8 757 660 772 867 646 543 661 758
8 759 662 773 868 648 545 663 760
8 649 546 663 760 761 664 774 871
8 765 665 547 653 872 775 664 761
8 873 777 666 762 763 668 550 651
8 769 674 556 657 873 777 666 762
8 764 669 779 874 652 551 668 763
8 654 552 667 766 764 669 778 875
8 655 549 665 765 766 667 776 876
8 768 671 782 877 656 553 670 767
8 772 672 783 878 661 554 671 768
8 658 558 674 769 770 675 786 879
8 659 557 675 770 771 673 785 881
8 882 784 672 772 771 673 555 660
8 789 687 571 677 897 798 686 788
8 897 798 686 788 813 705 591 704
8 791 689 573 679 898 799 687 789
8 795 693 803 900 683 577 691 790
8 793 690 574 681 901 801 689 791
8 792 688 800 902 684 578 694 796
8 793 690 800 902 681 574 688 792
8 795 693 577 683 903 804 692 794
8 797 695 804 903 685 579 692 794
8 797 695 579 685 904 805 694 796
8 905 806 697 799 798 696 581 687
8 814 706 806 905 705 592 696 798
8 689 583 697 799 801 699 808 907
8 800 698 809 908 694 588 703 805
8 690 584 699 801 800 698 809 908
8 803 701 810 909 691 585 700 802
8 693 587 702 804 803 701 811 910
8 695 589 703 805 804 702 812 911
8 818 710 814 919 708 595 705 813
8 821 712 815 920 710 596 706 814
8 816 709 600 719 922 819 717 831
8 817 711 594 707 923 820 709 816
8 818 710 595 708 924 822 711 817
8 819 715 599 717 926 827 716 829
8 820 714 598 709 927 826 715 819
8 929 825 713 822 820 714 597 711
8 821 712 596 710 930 824 713 822
8 717 599 718 832 829 716 830 942
8 719 600 720 834 831 717 832 944
8 832 718 601 720 945 833 721 835
8 834 720 603 722 946 835 723 836
8 869 780 838 950 767 670 725 839
8 865 767 839 952 756 656 726 841
8 839 725 840 953 726 608 727 842
8 841 726 842 954 728 609 729 843
8 844 740 691 790 955 850 802 899
8 733 625 740 844 845 739 850 955
8 734 623 739 845 846 738 849 956
8 735 621 738 846 847 737 848 957
8 744 647 737 847 854 759 848 957
8 738 627 742 849 848 741 851 958
8 848 741 851 958 759 662 773 868
8 850 743 700 802 959 852 807 906
8 849 742 628 739 959 852 743 850
8 854 759 868 965 745 648 760 855
8 746 649 760 855 856 761 871 966
8 860 765 653 750 967 872 761 856
8 968 873 762 857 858 763 651 748
8 862 769 657 753 968 873 762 857
8 859 764 874 969 749 652 763 858
8 752 654 766 861 859 764 875 970
8 751 655 765 860 861 766 876 971
8 754 658 769 862 863 770 879 972
8 755 659 770 863 864 771 881 974
8 976 882 772 867 864 771 660 757
8 866 768 877 977 756 656 767 865
8 867 772 878 978 758 661 768 866
8 760 663 773 868 871 774 883 980
8 870 781 837 948 982 890 780 869
8 982 890 780 869 877 782 670 767
8 761 664 774 871 872 775 884 984
8 876 776 665 765 985 885 775 872
8 873 777 668 763 986 887 779 874
8 769 674 777 873 879 786 887 986
8 764 669 778 875 874 779 888 987
8 766 667 776 876 875 778 886 988
8 878 783 892 989 768 671 782 877
8 878 783 672 772 990 893 784 882
8 880 787 675 770 991 896 786 879
8 880 787 895 992 770 675 785 881
8 881 785 894 993 771 673 784 882
8 1006 905 799 898 897 798 687 789
8 919 814 905 1006 813 705 798 897
8 791 689 799 898 901 801 907 1007
8 900 803 909 1009 790 691 802 899
8 795 693 804 903 900 803 910 1010
8 902 800 908 1011 796 694 805 904
8 793 690 801 901 902 800 908 1011
8 797 695 805 904 903 804 911 1012
8 799 697 806 905 907 808 912 1013
8 920 815 912 1013 814 706 806 905
8 802 700 810 909 906 807 913 1014
8 801 699 808 907 908 809 914 1015
8 805 703 809 908 911 812 915 1016
8 803 701 811 910 909 810 916 1017
8 911 812 917 1018 804 702 811 910
8 925 821 920 1030 818 710 814 919
8 928 823 921 1031 821 712 815 920
8 922 819 717 831 1033 926 829 941
8 923 820 709 816 1034 927 819 922
8 1035 929 822 924 923 820 711 817
8 925 821 710 818 1036 930 822 924
8 1038 933 825 929 927 826 714 820
8 926 827 716 829 1039 935 828 939
8 927 826 715 819 1040 934 827 926
8 928 823 712 821 1041 931 824 930
8 1042 932 824 930 929 825 713 822
8 829 716 830 942 939 828 940 1058
8 831 717 832 944 941 829 942 1060
8 942 830 718 832 1061 943 833 945
8 944 832 720 834 1062 945 835 946
8 981 889 947 1064 870 781 837 948
8 948 837 949 1067 869 780 838 950
8 975 869 950 1069 865 767 839 952
8 950 838 951 1070 839 725 840 953
8 952 839 953 1071 841 726 842 954
8 955 850 802 899 1072 959 906 1008
8 956 849 739 845 1072 959 850 955
8 846 738 849 956 957 848 958 1073
8 957 848 958 1073 854 759 868 965
8 849 742 852 959 958 851 961 1076
8 960 853 961 1076 906 807 852 959
8 958 851 961 1076 868 773 883 980
8 960 853 807 906 1077 963 913 1014
8 855 760 868 965 966 871 980 1085
8 856 761 871 966 967 872 984 1086
8 971 876 765 860 1087 985 872 967
8 968 873 763 858 1088 986 874 969
8 862 769 873 968 972 879 986 1088
8 859 764 875 970 969 874 987 1089
8 861 766 876 971 970 875 988 1090
8 973 880 770 863 1091 991 879 972
8 973 880 992 1092 863 770 881 974
8 974 881 993 1093 864 771 882 976
8 979 870 948 1066 1094 982 869 975
8 1094 982 869 975 977 877 767 865
8 978 878 772 867 1095 990 882 976
8 978 878 989 1096 866 768 877 977
8 871 774 883 980 984 884 994 1099
8 983 891 999 1100 870 781 889 981
8 1101 1000 890 982 989 892 782 877
8 983 891 781 870 1101 1000 890 982
8 872 775 884 984 985 885 995 1103
8 876 776 885 985 988 886 996 1104
8 986 887 779 874 1105 998 888 987
8 879 786 887 986 991 896 998 1105
8 875 778 886 988 987 888 997 1106
8 990 893 1002 1107 878 783 892 989
8 1108 1003 893 990 993 894 784 882
8 880 787 896 991 992 895 1005 1109
8 993 894 785 881 1110 1004 895 992
8 898 799 905 1006 1007 907 1013 1120
8 1030 920 1013 1120 919 814 905 1006
8 901 801 907 1007 1011 908 1015 1121
8 899 802 909 1009 1008 906 1014 1122
8 900 803 910 1010 1009 909 1017 1123
8 1012 911 1018 1124 903 804 910 1010
8 904 805 908 1011 1012 911 1016 1125
8 1013 912 1020 1127 907 808 914 1015
8 1031 921 1020 1127 920 815 912 1013
8 1019 918 962 1075 1128 1021 913 1014
8 1128 1021 913 1014 1017 916 810 909
8 1015 914 1022 1129 908 809 915 1016
8 1016 915 1023 1130 911 812 917 1018
8 1018 917 1024 1131 910 811 916 1017
8 1037 928 1031 1148 925 821 920 1030
8 928 823 931 1041 1031 921 1032 1149
8 1033 926 829 941 1151 1039 939 1057
8 1034 927 819 922 1152 1040 926 1033
8 1153 1038 929 1035 1034 927 820 923
8 1154 1042 930 1036 1035 929 822 924
8 1037 928 821 925 1155 1041 930 1036
8 1039 935 828 939 1156 1047 938 1055
8 1157 1043 932 1042 1038 933 825 929
8 1038 933 826 927 1158 1045 934 1040
8 1040 934 827 926 1159 1046 935 1039
8 930 824 932 1042 1041 931 1044 1160
8 1051 936 1048 1165 1175 1052 937 1053
8 1156 1047 938 1055 1053 937 1054 1178
8 939 828 940 1058 1055 938 1056 1181
8 941 829 942 1060 1057 939 1058 1183
8 942 830 943 1061 1058 940 1059 1184
8 1060 942 832 944 1185 1061 945 1062
8 1082 964 1063 1188 981 889 947 1064
8 1097 981 1064 1190 979 870 948 1066
8 1064 947 1065 1191 948 837 949 1067
8 1066 948 1067 1193 975 869 950 1069
8 1067 949 1068 1194 950 838 951 1070
8 1069 950 1070 1195 952 839 953 1071
8 956 849 959 1072 1073 958 1076 1197
8 1074 960 1076 1197 1008 906 959 1072
8 1073 958 1076 1197 965 868 980 1085
8 1074 960 906 1008 1198 1077 1014 1122
8 1133 1026 1079 1199 1019 918 962 1075
8 1077 963 913 1014 1200 1080 962 1075
8 960 853 963 1077 1076 961 1078 1201
8 980 883 961 1076 1099 994 1078 1201
8 1210 1083 964 1082 1100 999 889 981
8 966 871 980 1085 1086 984 1099 1215
8 967 872 984 1086 1087 985 1103 1216
8 971 876 985 1087 1090 988 1104 1217
8 1088 986 874 969 1218 1105 987 1089
8 972 879 986 1088 1091 991 1105 1218
8 970 875 988 1090 1089 987 1106 1219
8 973 880 991 1091 1092 992 1109 1220
8 1093 993 881 974 1221 1110 992 1092
8 1222 1108 990 1095 1093 993 882 976
8 1223 1101 982 1094 1096 989 877 977
8 1098 983 870 979 1223 1101 982 1094
8 1095 990 1107 1224 978 878 989 1096
8 1098 983 1100 1225 979 870 981 1097
8 984 884 994 1099 1103 995 1111 1227
8 1102 1001 1115 1228 983 891 999 1100
8 1101 1000 892 989 1229 1116 1002 1107
8 1102 1001 891 983 1229 1116 1000 1101
8 985 885 995 1103 1104 996 1112 1230
8 988 886 996 1104 1106 997 1113 1231
8 1105 998 888 987 1232 1114 997 1106
8 991 896 998 1105 1109 1005 1114 1232
8 1108 1003 1117 1233 990 893 1002 1107
8 1108 1003 894 993 1233 1117 1004 1110
8 992 895 1005 1109 1110 1004 1118 1234
8 1120 1013 1127 1244 1007 907 1015 1121
8 1148 1031 1127 1244 1030 920 1013 1120
8 1121 1015 1129 1245 1011 908 1016 1125
8 1126 1019 1075 1196 1246 1128 1014 1122
8 1246 1128 1014 1122 1123 1017 909 1009
8 1124 1018 1131 1247 1010 910 1017 1123
8 1125 1016 1130 1248 1012 911 1018 1124
8 1127 1020 1137 1254 1015 914 1022 1129
8 1031 921 1032 1149 1127 1020 1137 1254
8 1134 1027 918 1019 1257 1140 1021 1128
8 1257 1140 1021 1128 1131 1024 916 1017
8 1129 1022 1141 1258 1016 915 1023 1130
8 1130 1023 1142 1259 1018 917 1024 1131
8 1261 1144 1025 1132 1133 1026 1079 1199
8 1255 1138 1025 1132 1135 1028 1144 1261
8 1133 1026 918 1019 1262 1145 1027 1134
8 1136 1029 1139 1256 1263 1146 1028 1135
8 1037 928 1041 1155 1148 1031 1149 1275
8 1041 931 1044 1160 1149 1032 1150 1276
8 1151 1039 939 1057 1278 1156 1055 1180
8 1152 1040 926 1033 1279 1159 1039 1151
8 1153 1038 927 1034 1280 1158 1040 1152
8 1281 1157 1042 1154 1153 1038 929 1035
8 1036 930 1042 1154 1155 1041 1160 1282
8 1283 1164 1046 1159 1156 1047 935 1039
8 1165 1048 1164 1283 1053 937 1047 1156
8 1157 1043 933 1038 1284 1161 1045 1158
8 1157 1043 1161 1284 1042 932 1044 1160
8 1040 934 1046 1159 1158 1045 1163 1285
8 1166 1049 1167 1292 1051 936 1048 1165
8 1166 1049 936 1051 1293 1168 1050 1172
8 1051 936 1052 1175 1172 1050 1173 1306
8 1174 1051 1165 1290 1308 1175 1053 1177
8 1053 937 1054 1178 1175 1052 1176 1309
8 1278 1156 1055 1180 1177 1053 1178 1311
8 1055 938 1056 1181 1178 1054 1179 1312
8 1057 939 1058 1183 1180 1055 1181 1314
8 1058 940 1059 1184 1181 1056 1182 1315
8 1060 942 1061 1185 1183 1058 1184 1316
8 1208 1081 1187 1321 1082 964 1063 1188
8 1209 1082 1188 1322 1097 981 1064 1190
8 1188 1063 1189 1323 1064 947 1065 1191
8 1190 1064 1191 1325 1066 948 1067 1193
8 1191 1065 1192 1326 1067 949 1068 1194
8 1067 1193 1069 950 1194 1327 1195 1070
8 1250 1133 1199 1330 1126 1019 1075 1196
8 1198 1077 1014 1122 1331 1200 1075 1196
8 1074 960 1077 1198 1197 1076 1201 1332
8 1085 980 1076 1197 1215 1099 1201 1332
8 1199 1079 1203 1333 1075 962 1080 1200
8 1132 1025 1119 1243 1199 1079 1203 1333
8 1201 1078 963 1077 1334 1202 1080 1200
8 1099 994 1078 1201 1227 1111 1202 1334
8 1343 1207 1081 1208 1210 1083 964 1082
8 1214 1084 1186 1319 1343 1207 1081 1208
8 1345 1210 1082 1209 1225 1100 981 1097
8 1346 1211 1083 1210 1228 1115 999 1100
8 1086 984 1099 1215 1216 1103 1227 1352
8 1087 985 1103 1216 1217 1104 1230 1353
8 1090 988 1104 1217 1219 1106 1231 1354
8 1218 1105 987 1089 1355 1232 1106 1219
8 1091 991 1105 1218 1220 1109 1232 1355
8 1092 992 1109 1220 1221 1110 1234 1356
8 1222 1108 1233 1357 1095 990 1107 1224
8 1222 1108 993 1093 1357 1233 1110 1221
8 1223 1101 989 1096 1358 1229 1107 1224
8 1226 1102 983 1098 1358 1229 1101 1223
8 1226 1102 1228 1359 1098 983 1100 1225
8 1103 995 1111 1227 1230 1112 1235 1360
8 1107 1002 1117 1233 1229 1116 1240 1362
8 1102 1001 1116 1229 1228 1115 1240 1362
8 1104 996 1112 1230 1231 1113 1236 1363
8 1364 1237 1114 1232 1231 1113 997 1106
8 1109 1005 1114 1232 1234 1118 1238 1365
8 1110 1004 1118 1234 1233 1117 1241 1366
8 1242 1374 1255 1138 1119 1243 1132 1025
8 1244 1127 1254 1376 1121 1015 1129 1245
8 1148 1031 1149 1275 1244 1127 1254 1376
8 1245 1129 1258 1377 1125 1016 1130 1248
8 1251 1134 1019 1126 1378 1257 1128 1246
8 1378 1257 1128 1246 1247 1131 1017 1123
8 1248 1130 1259 1379 1124 1018 1131 1247
8 1261 1381 1250 1133 1132 1249 1330 1199
8 1255 1380 1252 1135 1132 1249 1381 1261
8 1250 1133 1019 1126 1382 1262 1134 1251
8 1253 1136 1256 1385 1384 1263 1135 1252
8 1254 1137 1265 1387 1129 1022 1141 1258
8 1149 1032 1150 1276 1254 1137 1265 1387
8 1028 1135 1255 1138 1139 1256 1388 1266
8 1136 1029 1147 1264 1256 1139 1267 1389
8 1390 1268 1140 1257 1259 1142 1024 1131
8 1260 1143 1027 1134 1390 1268 1140 1257
8 1258 1141 1269 1391 1130 1023 1142 1259
8 1262 1145 1027 1134 1393 1271 1143 1260
8 1261 1144 1026 1133 1394 1272 1145 1262
8 1135 1028 1144 1261 1263 1146 1272 1394
8 1136 1029 1146 1263 1264 1147 1273 1395
8 1155 1041 1160 1282 1275 1149 1276 1405
8 1276 1150 1044 1160 1406 1277 1162 1286
8 1408 1283 1159 1279 1278 1156 1039 1151
8 1290 1165 1283 1408 1177 1053 1156 1278
8 1152 1040 1159 1279 1280 1158 1285 1409
8 1281 1157 1038 1153 1410 1284 1158 1280
8 1281 1157 1284 1410 1154 1042 1160 1282
8 1159 1046 1164 1283 1285 1163 1289 1412
8 1292 1167 1289 1412 1165 1048 1164 1283
8 1158 1045 1163 1285 1284 1161 1288 1413
8 1284 1161 1288 1413 1160 1044 1162 1286
8 1291 1166 1292 1418 1174 1051 1165 1290
8 1291 1166 1051 1174 1419 1293 1172 1305
8 1294 1169 1296 1421 1166 1049 1167 1292
8 1293 1168 1050 1172 1422 1295 1171 1303
8 1294 1169 1049 1166 1423 1297 1168 1293
8 1422 1295 1171 1303 1301 1170 1302 1435
8 1172 1050 1173 1306 1303 1171 1304 1438
8 1174 1051 1175 1308 1305 1172 1306 1440
8 1175 1052 1176 1309 1306 1173 1307 1441
8 1177 1053 1178 1311 1308 1175 1309 1443
8 1178 1054 1179 1312 1309 1176 1310 1444
8 1180 1055 1181 1314 1311 1178 1312 1446
8 1056 1181 1312 1179 1182 1315 1447 1313
8 1183 1058 1184 1316 1314 1181 1315 1448
8 1319 1186 1084 1214 1451 1317 1213 1350
8 1319 1186 1318 1453 1208 1081 1187 1321
8 1321 1187 1320 1456 1188 1063 1189 1323
8 1344 1208 1321 1457 1209 1082 1188 1322
8 1322 1188 1323 1458 1190 1064 1191 1325
8 1323 1189 1324 1459 1191 1065 1192 1326
8 1191 1325 1193 1067 1326 1460 1327 1194
8 1242 1374 1243 1119 1328 1462 1335 1204
8 1330 1199 1333 1465 1196 1075 1200 1331
8 1132 1249 1330 1199 1243 1375 1465 1333
8 1332 1201 1077 1198 1466 1334 1200 1331
8 1215 1099 1201 1332 1352 1227 1334 1466
8 1119 1243 1333 1203 1204 1335 1470 1338
8 1333 1203 1338 1470 1200 1080 1202 1334
8 1227 1111 1202 1334 1360 1235 1338 1470
8 1328 1462 1335 1204 1205 1336 1471 1339
8 1337 1206 1340 1472 1464 1329 1205 1336
8 1346 1211 1342 1479 1210 1083 1207 1343
8 1346 1211 1115 1228 1479 1342 1239 1361
8 1348 1212 1084 1214 1479 1342 1207 1343
8 1480 1343 1208 1344 1345 1210 1082 1209
8 1351 1214 1319 1454 1480 1343 1208 1344
8 1481 1346 1210 1345 1359 1228 1100 1225
8 1348 1212 1347 1483 1214 1084 1213 1350
8 1216 1103 1227 1352 1353 1230 1360 1488
8 1217 1104 1230 1353 1354 1231 1363 1489
8 1490 1364 1232 1355 1354 1231 1106 1219
8 1220 1109 1232 1355 1356 1234 1365 1491
8 1221 1110 1234 1356 1357 1233 1366 1492
8 1224 1107 1233 1357 1358 1229 1362 1493
8 1226 1102 1229 1358 1359 1228 1362 1493
8 1230 1112 1235 1360 1363 1236 1367 1496
8 1361 1239 1115 1228 1497 1371 1240 1362
8 1366 1241 1372 1498 1233 1117 1240 1362
8 1364 1237 1113 1231 1499 1368 1236 1363
8 1364 1237 1368 1499 1232 1114 1238 1365
8 1234 1118 1238 1365 1366 1241 1369 1500
8 1507 1373 1242 1374 1388 1266 1138 1255
8 1508 1374 1243 1375 1380 1255 1132 1249
8 1376 1254 1387 1509 1245 1129 1258 1377
8 1275 1149 1276 1405 1376 1254 1387 1509
8 1377 1258 1391 1510 1248 1130 1259 1379
8 1511 1390 1257 1378 1379 1259 1131 1247
8 1383 1260 1134 1251 1511 1390 1257 1378
8 1252 1135 1256 1385 1380 1255 1388 1512
8 1261 1381 1513 1394 1133 1250 1382 1262
8 1135 1252 1384 1263 1261 1381 1513 1394
8 1382 1262 1134 1251 1514 1393 1260 1383
8 1253 1136 1263 1384 1386 1264 1395 1516
8 1253 1136 1264 1386 1385 1256 1389 1517
8 1387 1265 1397 1519 1258 1141 1269 1391
8 1276 1150 1277 1406 1387 1265 1397 1519
8 1256 1139 1267 1389 1388 1266 1398 1520
8 1264 1147 1274 1396 1389 1267 1399 1521
8 1392 1270 1143 1260 1522 1400 1268 1390
8 1390 1268 1142 1259 1522 1400 1269 1391
8 1392 1270 1401 1523 1260 1143 1271 1393
8 1272 1394 1524 1402 1145 1262 1393 1271
8 1395 1273 1146 1263 1524 1402 1272 1394
8 1273 1395 1264 1147 1403 1526 1396 1274
8 1405 1276 1160 1282 1534 1406 1286 1411
8 1414 1287 1407 1535 1286 1162 1277 1406
8 1279 1159 1283 1408 1409 1285 1412 1537
8 1418 1292 1412 1537 1290 1165 1283 1408
8 1280 1158 1285 1409 1410 1284 1413 1538
8 1410 1284 1413 1538 1282 1160 1286 1411
8 1285 1163 1289 1412 1413 1288 1417 1540
8 1421 1296 1417 1540 1292 1167 1289 1412
8 1414 1287 1162 1286 1541 1416 1288 1413
8 1420 1294 1421 1545 1291 1166 1292 1418
8 1419 1293 1172 1305 1546 1422 1303 1437
8 1420 1294 1166 1291 1547 1423 1293 1419
8 1294 1169 1297 1423 1421 1296 1425 1548
8 1423 1297 1168 1293 1549 1424 1295 1422
8 1301 1170 1298 1427 1422 1295 1424 1549
8 1432 1300 1428 1554 1301 1170 1298 1427
8 1431 1299 1428 1554 1560 1430 1300 1432
8 1563 1433 1300 1432 1435 1302 1170 1301
8 1546 1422 1303 1437 1434 1301 1435 1565
8 1303 1171 1304 1438 1435 1302 1436 1566
8 1305 1172 1306 1440 1437 1303 1438 1568
8 1306 1173 1307 1441 1438 1304 1439 1569
8 1308 1175 1309 1443 1440 1306 1441 1571
8 1309 1176 1310 1444 1441 1307 1442 1572
8 1311 1178 1312 1446 1443 1309 1444 1574
8 1179 1312 1444 1310 1313 1447 1575 1445
8 1314 1181 1315 1448 1446 1312 1447 1576
8 1350 1213 1349 1486 1451 1317 1449 1579
8 1451 1317 1450 1581 1319 1186 1318 1453
8 1454 1319 1214 1351 1582 1451 1350 1487
8 1453 1318 1452 1584 1321 1187 1320 1456
8 1454 1319 1453 1585 1344 1208 1321 1457
8 1456 1320 1455 1586 1323 1189 1324 1459
8 1457 1321 1456 1587 1322 1188 1323 1458
8 1458 1323 1459 1588 1325 1191 1326 1460
8 1205 1336 1464 1329 1328 1462 1590 1461
8 1507 1373 1461 1590 1374 1242 1328 1462
8 1508 1374 1462 1591 1375 1243 1335 1467
8 1337 1206 1329 1464 1473 1341 1463 1594
8 1375 1243 1335 1467 1465 1333 1470 1596
8 1465 1333 1470 1596 1331 1200 1334 1466
8 1352 1227 1334 1466 1488 1360 1470 1596
8 1591 1462 1336 1468 1467 1335 1471 1597
8 1469 1337 1472 1598 1595 1464 1336 1468
8 1471 1339 1474 1600 1335 1204 1338 1470
8 1600 1474 1367 1496 1470 1338 1235 1360
8 1336 1205 1340 1472 1471 1339 1475 1601
8 1337 1206 1341 1473 1472 1340 1476 1602
8 1495 1370 1478 1609 1361 1239 1342 1479
8 1348 1212 1342 1479 1483 1347 1478 1609
8 1481 1346 1479 1610 1345 1210 1343 1480
8 1481 1346 1228 1359 1610 1479 1361 1494
8 1484 1348 1214 1351 1610 1479 1343 1480
8 1483 1347 1482 1612 1350 1213 1349 1486
8 1484 1348 1483 1613 1351 1214 1350 1487
8 1353 1230 1360 1488 1489 1363 1496 1616
8 1490 1364 1231 1354 1617 1499 1363 1489
8 1490 1364 1499 1617 1355 1232 1365 1491
8 1356 1234 1365 1491 1492 1366 1500 1619
8 1492 1366 1498 1620 1357 1233 1362 1493
8 1494 1361 1228 1359 1621 1497 1362 1493
8 1495 1370 1239 1361 1622 1504 1371 1497
8 1363 1236 1367 1496 1499 1368 1501 1623
8 1497 1371 1240 1362 1624 1505 1372 1498
8 1625 1503 1372 1498 1500 1369 1241 1366
8 1365 1238 1368 1499 1500 1369 1502 1626
8 1520 1398 1506 1633 1388 1266 1373 1507
8 1634 1507 1374 1508 1512 1388 1255 1380
8 1509 1387 1519 1635 1377 1258 1391 1510
8 1405 1276 1406 1534 1509 1387 1519 1635
8 1515 1392 1260 1383 1636 1522 1390 1511
8 1511 1390 1259 1379 1636 1522 1391 1510
8 1385 1256 1389 1517 1512 1388 1520 1637
8 1513 1394 1262 1382 1638 1524 1393 1514
8 1395 1516 1638 1524 1263 1384 1513 1394
8 1515 1392 1523 1639 1383 1260 1393 1514
8 1516 1395 1526 1640 1386 1264 1396 1518
8 1386 1264 1396 1518 1517 1389 1521 1641
8 1519 1397 1527 1643 1391 1269 1400 1522
8 1535 1407 1527 1643 1406 1277 1397 1519
8 1389 1267 1399 1521 1520 1398 1528 1644
8 1645 1529 1399 1521 1525 1404 1274 1396
8 1392 1270 1400 1522 1523 1401 1531 1646
8 1524 1402 1271 1393 1648 1532 1401 1523
8 1403 1526 1648 1532 1273 1395 1524 1402
8 1525 1404 1274 1396 1649 1533 1403 1526
8 1539 1414 1535 1657 1411 1286 1406 1534
8 1542 1415 1536 1658 1414 1287 1407 1535
8 1409 1285 1412 1537 1538 1413 1540 1660
8 1545 1421 1540 1660 1418 1292 1412 1537
8 1539 1414 1286 1411 1661 1541 1413 1538
8 1540 1417 1544 1663 1413 1288 1416 1541
8 1421 1296 1425 1548 1540 1417 1544 1663
8 1542 1415 1287 1414 1664 1543 1416 1541
8 1420 1294 1423 1547 1545 1421 1548 1666
8 1547 1423 1293 1419 1667 1549 1422 1546
8 1434 1301 1427 1553 1546 1422 1549 1667
8 1423 1297 1424 1549 1548 1425 1550 1668
8 1551 1426 1550 1668 1427 1298 1424 1549
8 1551 1426 1298 1427 1671 1552 1428 1554
8 1562 1432 1554 1674 1434 1301 1427 1553
8 1431 1299 1429 1558 1554 1428 1555 1675
8 1431 1299 1430 1560 1558 1429 1557 1680
8 1560 1430 1300 1432 1683 1559 1433 1563
8 1561 1431 1554 1674 1684 1560 1432 1562
8 1685 1563 1432 1562 1565 1435 1301 1434
8 1435 1302 1436 1566 1563 1433 1564 1686
8 1437 1303 1438 1568 1565 1435 1566 1688
8 1438 1304 1439 1569 1566 1436 1567 1689
8 1440 1306 1441 1571 1568 1438 1569 1691
8 1441 1307 1442 1572 1569 1439 1570 1692
8 1443 1309 1444 1574 1571 1441 1572 1694
8 1310 1444 1572 1442 1445 1575 1695 1573
8 1446 1312 1447 1576 1574 1444 1575 1696
8 1486 1349 1485 1614 1579 1449 1577 1699
8 1451 1317 1449 1579 1581 1450 1578 1701
8 1487 1350 1486 1615 1582 1451 1579 1702
8 1581 1450 1580 1704 1453 1318 1452 1584
8 1582 1451 1581 1705 1454 1319 1453 1585
8 1584 1452 1583 1706 1456 1320 1455 1586
8 1585 1453 1584 1707 1457 1321 1456 1587
8 1587 1456 1586 1708 1458 1323 1459 1588
8 1633 1506 1589 1710 1507 1373 1461 1590
8 1464 1329 1461 1590 1594 1463 1589 1710
8 1468 1336 1462 1591 1595 1464 1590 1711
8 1634 1507 1590 1711 1508 1374 1462 1591
8 1473 1341 1463 1594 1603 1477 1593 1716
8 1469 1337 1464 1595 1599 1473 1594 1717
8 1471 1597 1467 1335 1600 1718 1596 1470
8 1718 1600 1496 1616 1596 1470 1360 1488
8 1336 1468 1597 1471 1472 1598 1719 1601
8 1469 1337 1473 1599 1598 1472 1602 1720
8 1722 1604 1501 1623 1600 1474 1367 1496
8 1475 1601 1471 1339 1604 1722 1600 1474
8 1602 1476 1605 1723 1472 1340 1475 1601
8 1476 1602 1724 1606 1341 1473 1603 1477
8 1483 1347 1478 1609 1612 1482 1608 1731
8 1495 1370 1504 1622 1609 1478 1608 1731
8 1618 1495 1609 1732 1494 1361 1479 1610
8 1484 1348 1479 1610 1613 1483 1609 1732
8 1486 1349 1482 1612 1614 1485 1611 1733
8 1613 1483 1612 1734 1487 1350 1486 1615
8 1489 1363 1496 1616 1617 1499 1623 1736
8 1491 1365 1499 1617 1619 1500 1626 1737
8 1618 1495 1361 1494 1738 1622 1497 1621
8 1739 1625 1498 1620 1619 1500 1366 1492
8 1621 1497 1362 1493 1740 1624 1498 1620
8 1742 1631 1504 1622 1624 1505 1371 1497
8 1743 1628 1502 1626 1623 1501 1368 1499
8 1744 1630 1505 1624 1625 1503 1372 1498
8 1745 1629 1503 1625 1626 1502 1369 1500
8 1520 1398 1528 1644 1633 1506 1632 1751
8 1637 1520 1633 1752 1512 1388 1507 1634
8 1635 1519 1643 1753 1510 1391 1522 1636
8 1657 1535 1643 1753 1534 1406 1519 1635
8 1515 1392 1522 1636 1639 1523 1646 1754
8 1517 1389 1521 1641 1637 1520 1644 1755
8 1524 1638 1756 1648 1393 1514 1639 1523
8 1640 1526 1395 1516 1756 1648 1524 1638
8 1642 1525 1396 1518 1757 1649 1526 1640
8 1758 1645 1521 1641 1642 1525 1396 1518
8 1646 1531 1400 1522 1760 1650 1527 1643
8 1535 1407 1536 1658 1643 1527 1650 1760
8 1521 1399 1529 1645 1644 1528 1651 1761
8 1647 1530 1652 1762 1525 1404 1529 1645
8 1401 1523 1648 1532 1531 1646 1763 1655
8 1525 1404 1533 1649 1647 1530 1654 1765
8 1533 1649 1766 1656 1403 1526 1648 1532
8 1662 1542 1658 1774 1539 1414 1535 1657
8 1542 1415 1543 1664 1658 1536 1659 1775
8 1660 1540 1663 1777 1538 1413 1541 1661
8 1545 1421 1548 1666 1660 1540 1663 1777
8 1662 1542 1414 1539 1778 1664 1541 1661
8 1664 1543 1416 1541 1779 1665 1544 1663
8 1548 1425 1550 1668 1663 1544 1665 1779
8 1547 1423 1549 1667 1666 1548 1668 1781
8 1670 1551 1668 1781 1553 1427 1549 1667
8 1551 1426 1552 1671 1668 1550 1669 1782
8 1670 1551 1427 1553 1784 1671 1554 1674
8 1675 1555 1672 1785 1554 1428 1552 1671
8 1678 1556 1673 1789 1558 1429 1555 1675
8 1561 1431 1558 1681 1674 1554 1675 1790
8 1794 1677 1556 1678 1680 1557 1429 1558
8 1560 1430 1559 1683 1680 1557 1679 1797
8 1561 1431 1560 1684 1681 1558 1680 1798
8 1563 1433 1564 1686 1683 1559 1682 1800
8 1684 1560 1432 1562 1801 1683 1563 1685
8 1565 1435 1566 1688 1685 1563 1686 1802
8 1566 1436 1567 1689 1686 1564 1687 1803
8 1568 1438 1569 1691 1688 1566 1689 1805
8 1569 1439 1570 1692 1689 1567 1690 1806
8 1571 1441 1572 1694 1691 1569 1692 1808
8 1442 1572 1692 1570 1573 1695 1809 1693
8 1574 1444 1575 1696 1694 1572 1695 1810
8 1614 1485 1592 1712 1699 1577 1697 1813
8 1579 1449 1577 1699 1701 1578 1698 1815
8 1615 1486 1614 1735 1702 1579 1699 1816
8 1701 1578 1700 1818 1581 1450 1580 1704
8 1582 1451 1579 1702 1705 1581 1701 1819
8 1704 1580 1703 1820 1584 1452 1583 1706
8 1705 1581 1704 1821 1585 1453 1584 1707
8 1707 1584 1706 1822 1587 1456 1586 1708
8 1710 1589 1506 1633 1824 1709 1632 1751
8 1594 1463 1589 1710 1716 1593 1709 1824
8 1752 1633 1710 1825 1634 1507 1590 1711
8 1595 1464 1590 1711 1717 1594 1710 1825
8 1830 1714 1592 1712 1733 1611 1485 1614
8 1603 1477 1593 1716 1725 1607 1715 1834
8 1599 1473 1594 1717 1721 1603 1716 1835
8 1837 1722 1623 1736 1718 1600 1496 1616
8 1719 1601 1722 1837 1597 1471 1600 1718
8 1602 1720 1598 1472 1723 1838 1719 1601
8 1720 1602 1473 1599 1839 1724 1603 1721
8 1723 1605 1726 1840 1601 1475 1604 1722
8 1840 1726 1628 1743 1722 1604 1501 1623
8 1724 1606 1727 1841 1602 1476 1605 1723
8 1725 1607 1728 1842 1603 1477 1606 1724
8 1612 1482 1608 1731 1733 1611 1730 1849
8 1741 1627 1730 1849 1622 1504 1608 1731
8 1613 1483 1609 1732 1734 1612 1731 1850
8 1618 1495 1622 1738 1732 1609 1731 1850
8 1615 1486 1612 1734 1735 1614 1733 1851
8 1852 1743 1626 1737 1736 1623 1499 1617
8 1853 1745 1625 1739 1737 1626 1500 1619
8 1855 1742 1622 1738 1740 1624 1497 1621
8 1856 1744 1624 1740 1739 1625 1498 1620
8 1741 1627 1504 1622 1857 1746 1631 1742
8 1742 1631 1505 1624 1858 1749 1630 1744
8 1859 1747 1629 1745 1743 1628 1502 1626
8 1860 1748 1630 1744 1745 1629 1503 1625
8 1644 1528 1651 1761 1751 1632 1750 1865
8 1637 1520 1644 1755 1752 1633 1751 1866
8 1754 1646 1522 1636 1867 1760 1643 1753
8 1657 1535 1658 1774 1753 1643 1760 1867
8 1639 1523 1646 1754 1756 1648 1763 1868
8 1641 1521 1645 1758 1755 1644 1761 1869
8 1757 1649 1526 1640 1870 1766 1648 1756
8 1642 1525 1649 1757 1759 1647 1765 1871
8 1759 1647 1762 1872 1642 1525 1645 1758
8 1760 1650 1767 1874 1646 1531 1655 1763
8 1658 1536 1659 1775 1760 1650 1767 1874
8 1762 1652 1768 1875 1645 1529 1651 1761
8 1764 1653 1769 1876 1647 1530 1652 1762
8 1656 1766 1877 1773 1532 1648 1763 1655
8 1771 1879 1765 1654 1653 1764 1647 1530
8 1533 1649 1765 1654 1656 1766 1880 1772
8 1662 1542 1664 1778 1774 1658 1775 1887
8 1664 1543 1665 1779 1775 1659 1776 1888
8 1778 1664 1541 1661 1890 1779 1663 1777
8 1666 1548 1668 1781 1777 1663 1779 1890
8 1782 1669 1780 1891 1668 1550 1665 1779
8 1670 1551 1671 1784 1781 1668 1782 1893
8 1671 1552 1672 1785 1782 1669 1783 1894
8 1790 1675 1785 1896 1674 1554 1671 1784
8 1675 1555 1673 1789 1785 1672 1786 1897
8 1792 1676 1788 1903 1678 1556 1673 1789
8 1795 1678 1789 1904 1681 1558 1675 1790
8 1792 1676 1556 1678 1906 1791 1677 1794
8 1680 1557 1679 1797 1794 1677 1793 1909
8 1910 1794 1678 1795 1798 1680 1558 1681
8 1683 1559 1682 1800 1797 1679 1796 1912
8 1684 1560 1683 1801 1798 1680 1797 1913
8 1686 1564 1687 1803 1800 1682 1799 1915
8 1685 1563 1686 1802 1801 1683 1800 1916
8 1688 1566 1689 1805 1802 1686 1803 1917
8 1689 1567 1690 1806 1803 1687 1804 1918
8 1691 1569 1692 1808 1805 1689 1806 1920
8 1692 1570 1693 1809 1806 1690 1807 1921
8 1694 1572 1695 1810 1808 1692 1809 1922
8 1829 1713 1811 1926 1712 1592 1697 1813
8 1813 1697 1812 1928 1699 1577 1698 1815
8 1735 1614 1712 1828 1816 1699 1813 1929
8 1815 1698 1814 1931 1701 1578 1700 1818
8 1702 1579 1699 1816 1819 1701 1815 1932
8 1818 1700 1817 1933 1704 1580 1703 1820
8 1819 1701 1818 1934 1705 1581 1704 1821
8 1821 1704 1820 1935 1707 1584 1706 1822
8 1824 1709 1632 1751 1937 1823 1750 1865
8 1716 1593 1709 1824 1834 1715 1823 1937
8 1825 1710 1633 1752 1938 1824 1751 1866
8 1717 1594 1710 1825 1835 1716 1824 1938
8 1945 1830 1712 1828 1851 1733 1614 1735
8 1830 1714 1831 1946 1712 1592 1713 1829
8 1947 1832 1714 1830 1849 1730 1611 1733
8 1843 1729 1607 1725 1950 1833 1715 1834
8 1721 1603 1716 1835 1836 1725 1834 1951
8 1836 1725 1842 1953 1721 1603 1724 1839
8 1723 1838 1719 1601 1840 1954 1837 1722
8 1954 1840 1743 1852 1837 1722 1623 1736
8 1724 1839 1720 1602 1841 1955 1838 1723
8 1841 1727 1844 1956 1723 1605 1726 1840
8 1956 1844 1747 1859 1840 1726 1628 1743
8 1728 1842 1724 1606 1845 1957 1841 1727
8 1725 1607 1729 1843 1842 1728 1846 1958
8 1741 1627 1746 1857 1849 1730 1848 1965
8 1734 1612 1731 1850 1851 1733 1849 1966
8 1854 1741 1849 1966 1738 1622 1731 1850
8 1967 1859 1745 1853 1852 1743 1626 1737
8 1968 1860 1744 1856 1853 1745 1625 1739
8 1854 1741 1622 1738 1969 1857 1742 1855
8 1855 1742 1624 1740 1970 1858 1744 1856
8 1857 1746 1631 1742 1971 1861 1749 1858
8 1858 1749 1630 1744 1972 1863 1748 1860
8 1859 1747 1862 1973 1745 1629 1748 1860
8 1875 1768 1864 1977 1761 1651 1750 1865
8 1755 1644 1761 1869 1866 1751 1865 1978
8 1867 1760 1874 1979 1754 1646 1763 1868
8 1774 1658 1775 1887 1867 1760 1874 1979
8 1870 1766 1648 1756 1980 1877 1763 1868
8 1872 1762 1875 1981 1758 1645 1761 1869
8 1757 1649 1766 1870 1871 1765 1880 1982
8 1983 1879 1764 1873 1871 1765 1647 1759
8 1873 1764 1876 1984 1759 1647 1762 1872
8 1877 1773 1655 1763 1986 1881 1767 1874
8 1775 1659 1776 1888 1874 1767 1881 1986
8 1876 1769 1882 1987 1762 1652 1768 1875
8 1878 1770 1883 1988 1764 1653 1769 1876
8 1880 1772 1656 1766 1989 1886 1773 1877
8 1878 1770 1653 1764 1990 1884 1771 1879
8 1765 1654 1772 1880 1879 1771 1885 1991
8 1778 1664 1779 1890 1887 1775 1888 1997
8 1998 1889 1776 1888 1891 1780 1665 1779
8 1893 1782 1891 2000 1781 1668 1779 1890
8 1894 1783 1892 2001 1782 1669 1780 1891
8 1784 1671 1785 1896 1893 1782 1894 2003
8 1897 1786 1895 2004 1785 1672 1783 1894
8 1790 1675 1789 1904 1896 1785 1897 2006
8 1901 1787 1898 2007 1789 1673 1786 1897
8 1903 1788 1900 2013 1789 1673 1787 1901
8 1792 1676 1791 1906 1903 1788 1902 2016
8 1907 1792 1903 2017 1795 1678 1789 1904
8 1906 1791 1677 1794 2019 1905 1793 1909
8 1907 1792 1678 1795 2020 1906 1794 1910
8 1797 1679 1796 1912 1909 1793 1908 2022
8 1798 1680 1797 1913 1910 1794 1909 2023
8 1800 1682 1799 1915 1912 1796 1911 2025
8 1801 1683 1800 1916 1913 1797 1912 2026
8 1803 1687 1804 1918 1915 1799 1914 2028
8 1802 1686 1803 1917 1916 1800 1915 2029
8 1805 1689 1806 1920 1917 1803 1918 2030
8 1806 1690 1807 1921 1918 1804 1919 2031
8 1808 1692 1809 1922 1920 1806 1921 2032
8 1939 1826 1924 2037 1829 1713 1811 1926
8 1926 1811 1925 2039 1813 1697 1812 1928
8 1944 1829 1926 2040 1828 1712 1813 1929
8 1928 1812 1927 2042 1815 1698 1814 1931
8 1929 1813 1928 2043 1816 1699 1815 1932
8 1931 1814 1930 2044 1818 1700 1817 1933
8 1932 1815 1931 2045 1819 1701 1818 1934
8 1934 1818 1933 2046 1821 1704 1820 1935
8 2048 1936 1823 1937 1977 1864 1750 1865
8 1950 1833 1715 1834 2048 1936 1823 1937
8 1938 1824 1751 1866 2049 1937 1865 1978
8 1835 1716 1824 1938 1951 1834 1937 2049
8 1939 1826 1713 1829 2053 1942 1831 1946
8 1940 1827 1923 2035 2053 1942 1826 1939
8 1945 1830 1946 2058 1828 1712 1829 1944
8 2059 1947 1830 1945 1966 1849 1733 1851
8 1947 1832 1730 1849 2060 1948 1848 1965
8 1947 1832 1948 2060 1830 1714 1831 1946
8 1959 1847 1729 1843 2063 1949 1833 1950
8 1952 1843 1725 1836 2064 1950 1834 1951
8 1836 1725 1843 1952 1953 1842 1958 2066
8 1953 1842 1957 2067 1839 1724 1841 1955
8 1841 1955 1838 1723 1956 2068 1954 1840
8 2068 1956 1859 1967 1954 1840 1743 1852
8 1956 1844 1960 2069 1859 1747 1862 1973
8 1845 1957 1841 1727 1960 2069 1956 1844
8 1728 1842 1957 1845 1846 1958 2071 1961
8 1962 2072 1959 1847 1846 1958 1843 1729
8 1971 1861 1964 2077 1857 1746 1848 1965
8 1854 1741 1857 1969 1966 1849 1965 2078
8 1967 1859 1973 2079 1853 1745 1860 1968
8 1970 1858 1744 1856 2080 1972 1860 1968
8 1969 1857 1742 1855 2081 1971 1858 1970
8 1971 1861 1749 1858 2082 1974 1863 1972
8 1973 1862 1975 2083 1860 1748 1863 1972
8 1987 1882 1976 2086 1875 1768 1864 1977
8 1981 1875 1977 2087 1869 1761 1865 1978
8 1980 1877 1763 1868 2088 1986 1874 1979
8 1887 1775 1888 1997 1979 1874 1986 2088
8 1880 1982 2089 1989 1766 1870 1980 1877
8 1984 1876 1987 2090 1872 1762 1875 1981
8 1765 1871 1983 1879 1880 1982 2091 1991
8 1985 1878 1764 1873 2092 1990 1879 1983
8 1985 1878 1988 2093 1873 1764 1876 1984
8 2094 1992 1881 1986 1998 1889 1776 1888
8 1986 1881 1992 2094 1877 1773 1886 1989
8 1988 1883 1993 2095 1876 1769 1882 1987
8 1878 1770 1884 1990 1988 1883 1994 2096
8 1991 1885 1772 1880 2097 1996 1886 1989
8 1879 1771 1885 1991 1990 1884 1995 2098
8 2103 1998 1888 1997 2000 1891 1779 1890
8 2104 1999 1889 1998 2001 1892 1780 1891
8 2003 1894 2001 2106 1893 1782 1891 2000
8 2004 1895 2002 2107 1894 1783 1892 2001
8 2006 1897 2004 2109 1896 1785 1894 2003
8 2007 1898 2005 2110 1897 1786 1895 2004
8 2014 1901 2007 2112 1904 1789 1897 2006
8 2011 1899 2008 2113 1901 1787 1898 2007
8 2119 2010 1899 2011 2013 1900 1787 1901
8 2016 1902 2012 2122 1903 1788 1900 2013
8 2017 1903 2013 2123 1904 1789 1901 2014
8 1906 1791 1905 2019 2016 1902 2015 2125
8 1907 1792 1906 2020 2017 1903 2016 2126
8 1909 1793 1908 2022 2019 1905 2018 2128
8 2020 1906 1794 1910 2129 2019 1909 2023
8 1912 1796 1911 2025 2022 1908 2021 2131
8 1913 1797 1912 2026 2023 1909 2022 2132
8 1915 1799 1914 2028 2025 1911 2024 2134
8 1916 1800 1915 2029 2026 1912 2025 2135
8 1918 1804 1919 2031 2028 1914 2027 2136
8 1917 1803 1918 2030 2029 1915 2028 2137
8 1920 1806 1921 2032 2030 1918 2031 2138
8 1940 1827 1941 2054 2035 1923 2033 2140
8 2035 1923 2034 2143 1939 1826 1924 2037
8 2037 1924 2036 2146 1926 1811 1925 2039
8 2051 1939 2037 2147 1944 1829 1926 2040
8 2039 1925 2038 2149 1928 1812 1927 2042
8 2040 1926 2039 2150 1929 1813 1928 2043
8 2042 1927 2041 2151 1931 1814 1930 2044
8 2043 1928 2042 2152 1932 1815 1931 2045
8 2045 1931 2044 2153 1934 1818 1933 2046
8 2155 2047 1936 2048 2086 1976 1864 1977
8 2063 1949 1833 1950 2155 2047 1936 2048
8 2156 2048 1937 2049 2087 1977 1865 1978
8 2064 1950 1834 1951 2156 2048 1937 2049
8 2051 1939 1829 1944 2160 2053 1946 2058
8 2052 1940 2035 2144 2160 2053 1939 2051
8 2053 1942 1831 1946 2163 2057 1948 2060
8 2055 1943 1827 1940 2163 2057 1942 2053
8 2055 1943 2056 2164 1940 1827 1941 2054
8 2059 1947 1849 1966 2167 2060 1965 2078
8 2059 1947 2060 2167 1945 1830 1946 2058
8 2077 1964 2061 2168 1965 1848 1948 2060
8 2070 1963 1847 1959 2170 2062 1949 2063
8 2065 1959 1843 1952 2171 2063 1950 2064
8 2173 2072 1958 2066 2065 1959 1843 1952
8 1953 1842 1958 2066 2067 1957 2071 2174
8 2068 1956 2069 2175 1967 1859 1973 2079
8 2067 1957 2069 2175 1955 1841 1956 2068
8 1845 1957 2069 1960 1961 2071 2176 2073
8 2069 1960 2073 2176 1973 1862 1975 2083
8 2070 1963 2075 2177 1959 1847 1962 2072
8 1846 1958 2071 1961 1962 2072 2178 2074
8 2077 1964 1861 1971 2182 2076 1974 2082
8 2081 1971 2077 2183 1969 1857 1965 2078
8 2079 1973 2083 2184 1968 1860 1972 2080
8 2081 1971 1858 1970 2185 2082 1972 2080
8 2083 1975 2084 2186 1972 1863 1974 2082
8 2086 1976 1882 1987 2189 2085 1993 2095
8 2090 1987 2086 2190 1981 1875 1977 2087
8 2191 2094 1986 2088 2103 1998 1888 1997
8 2088 1986 2094 2191 1980 1877 1989 2089
8 1991 2091 2192 2097 1880 1982 2089 1989
8 2093 1988 2095 2193 1984 1876 1987 2090
8 1879 1983 2092 1990 1991 2091 2194 2098
8 1985 1878 1990 2092 2093 1988 2096 2195
8 2097 1996 1886 1989 2196 2099 1992 2094
8 2196 2099 1992 2094 2104 1999 1889 1998
8 1994 2096 1988 1883 2100 2197 2095 1993
8 2096 1994 1884 1990 2198 2101 1995 2098
8 1995 2098 2199 2102 1885 1991 2097 1996
8 2203 2104 1998 2103 2106 2001 1891 2000
8 2107 2002 2105 2204 2001 1892 1999 2104
8 2109 2004 2107 2206 2003 1894 2001 2106
8 2110 2005 2108 2207 2004 1895 2002 2107
8 2112 2007 2110 2209 2006 1897 2004 2109
8 2113 2008 2111 2210 2007 1898 2005 2110
8 2120 2011 2113 2212 2014 1901 2007 2112
8 2117 2009 2114 2213 2011 1899 2008 2113
8 2219 2116 2009 2117 2119 2010 1899 2011
8 2222 2118 2010 2119 2122 2012 1900 2013
8 2223 2119 2011 2120 2123 2013 1901 2014
8 2016 1902 2015 2125 2122 2012 2121 2225
8 2126 2016 2122 2226 2017 1903 2013 2123
8 2019 1905 2018 2128 2125 2015 2124 2228
8 2020 1906 2019 2129 2126 2016 2125 2229
8 2022 1908 2021 2131 2128 2018 2127 2231
8 2023 1909 2022 2132 2129 2019 2128 2232
8 2025 1911 2024 2134 2131 2021 2130 2234
8 2026 1912 2025 2135 2132 2022 2131 2235
8 1914 2028 2134 2024 2027 2136 2236 2133
8 2029 1915 2028 2137 2135 2025 2134 2237
8 2030 1918 2031 2138 2137 2028 2136 2238
8 2157 2050 2139 2240 2054 1941 2033 2140
8 2052 1940 2054 2161 2144 2035 2140 2242
8 2140 2033 2141 2243 2035 1923 2034 2143
8 2143 2034 2142 2246 2037 1924 2036 2146
8 2144 2035 2143 2247 2051 1939 2037 2147
8 2146 2036 2145 2249 2039 1925 2038 2149
8 2147 2037 2146 2250 2040 1926 2039 2150
8 2149 2038 2148 2251 2042 1927 2041 2151
8 2150 2039 2149 2252 2043 1928 2042 2152
8 2152 2042 2151 2253 2045 1931 2044 2153
8 2255 2154 2047 2155 2189 2085 1976 2086
8 2170 2062 1949 2063 2255 2154 2047 2155
8 2256 2155 2048 2156 2190 2086 1977 2087
8 2171 2063 1950 2064 2256 2155 2048 2156
8 2258 2159 2050 2157 2164 2056 1941 2054
8 2160 2053 1946 2058 2262 2163 2060 2167
8 2162 2055 1940 2052 2262 2163 2053 2160
8 2162 2055 2164 2263 2052 1940 2054 2161
8 2163 2057 1948 2060 2264 2165 2061 2168
8 2055 1943 2057 2163 2164 2056 2165 2264
8 2182 2076 2166 2268 2077 1964 2061 2168
8 2183 2077 2168 2269 2078 1965 2060 2167
8 2070 1963 2062 2170 2177 2075 2169 2271
8 2172 2070 1959 2065 2272 2170 2063 2171
8 2172 2070 2177 2273 2065 1959 2072 2173
8 2066 1958 2072 2173 2174 2071 2178 2274
8 2067 1957 2071 2174 2175 2069 2176 2275
8 2175 2069 2176 2275 2079 1973 2083 2184
8 2071 1961 2074 2178 2176 2073 2179 2276
8 2176 2073 2179 2276 2083 1975 2084 2186
8 2072 1962 2075 2177 2178 2074 2180 2277
8 2182 2076 1974 2082 2280 2181 2084 2186
8 2183 2077 1971 2081 2281 2182 2082 2185
8 2184 2083 2186 2282 2080 1972 2082 2185
8 2189 2085 1993 2095 2285 2188 2100 2197
8 2190 2086 1987 2090 2286 2189 2095 2193
8 2192 2097 1989 2089 2287 2196 2094 2191
8 2287 2196 2094 2191 2203 2104 1998 2103
8 2194 2098 1991 2091 2288 2199 2097 2192
8 2195 2096 2197 2289 2093 1988 2095 2193
8 2096 2195 2290 2198 1990 2092 2194 2098
8 2097 1996 2099 2196 2199 2102 2200 2291
8 2196 2099 1999 2104 2291 2200 2105 2204
8 2100 2197 2292 2201 1994 2096 2198 2101
8 1995 2098 2198 2101 2102 2199 2293 2202
8 2206 2107 2204 2296 2106 2001 2104 2203
8 2207 2108 2205 2297 2107 2002 2105 2204
8 2209 2110 2207 2299 2109 2004 2107 2206
8 2210 2111 2208 2300 2110 2005 2108 2207
8 2212 2113 2210 2302 2112 2007 2110 2209
8 2213 2114 2211 2303 2113 2008 2111 2210
8 2220 2117 2213 2305 2120 2011 2113 2212
8 2216 2115 2214 2306 2117 2009 2114 2213
8 2216 2115 2009 2117 2311 2217 2116 2219
8 2219 2116 2010 2119 2314 2218 2118 2222
8 2315 2219 2117 2220 2223 2119 2011 2120
8 2122 2012 2121 2225 2222 2118 2221 2317
8 2318 2222 2119 2223 2226 2122 2013 2123
8 2125 2015 2124 2228 2225 2121 2224 2320
8 2126 2016 2125 2229 2226 2122 2225 2321
8 2128 2018 2127 2231 2228 2124 2227 2323
8 2129 2019 2128 2232 2229 2125 2228 2324
8 2131 2021 2130 2234 2231 2127 2230 2326
8 2132 2022 2131 2235 2232 2128 2231 2327
8 2134 2024 2133 2236 2234 2130 2233 2328
8 2135 2025 2134 2237 2235 2131 2234 2329
8 2137 2028 2136 2238 2237 2134 2236 2330
8 2157 2050 2158 2259 2240 2139 2239 2332
8 2257 2157 2240 2334 2161 2054 2140 2242
8 2240 2139 2241 2335 2140 2033 2141 2243
8 2242 2140 2243 2337 2144 2035 2143 2247
8 2243 2141 2244 2338 2143 2034 2142 2246
8 2246 2142 2245 2341 2146 2036 2145 2249
8 2247 2143 2246 2342 2147 2037 2146 2250
8 2249 2145 2248 2343 2149 2038 2148 2251
8 2250 2146 2249 2344 2150 2039 2149 2252
8 2252 2149 2251 2345 2152 2042 2151 2253
8 2169 2271 2347 2254 2062 2170 2255 2154
8 2189 2085 2188 2285 2255 2154 2254 2347
8 2348 2255 2155 2256 2286 2189 2086 2190
8 2272 2170 2063 2171 2348 2255 2155 2256
8 2349 2258 2157 2257 2263 2164 2054 2161
8 2258 2159 2261 2351 2157 2050 2158 2259
8 2258 2159 2056 2164 2351 2261 2165 2264
8 2262 2163 2060 2167 2355 2264 2168 2269
8 2162 2055 2163 2262 2263 2164 2264 2355
8 2357 2266 2165 2264 2268 2166 2061 2168
8 2268 2166 2076 2182 2361 2267 2181 2280
8 2281 2182 2268 2362 2183 2077 2168 2269
8 2271 2169 2270 2364 2177 2075 2180 2277
8 2172 2070 2170 2272 2273 2177 2271 2365
8 2072 2173 2274 2178 2177 2273 2366 2277
8 2071 2174 2275 2176 2178 2274 2367 2276
8 2275 2176 2276 2367 2184 2083 2186 2282
8 2283 2187 2084 2186 2368 2278 2179 2276
8 2178 2074 2180 2277 2276 2179 2278 2368
8 2283 2187 2279 2370 2186 2084 2181 2280
8 2281 2182 2082 2185 2371 2280 2186 2282
8 2188 2285 2374 2284 2100 2197 2292 2201
8 2286 2189 2095 2193 2375 2285 2197 2289
8 2192 2097 2196 2287 2288 2199 2291 2376
8 2287 2196 2104 2203 2376 2291 2204 2296
8 2194 2098 2199 2288 2290 2198 2293 2377
8 2289 2197 2096 2195 2378 2292 2198 2290
8 2291 2200 2105 2204 2379 2294 2205 2297
8 2199 2102 2200 2291 2293 2202 2294 2379
8 2198 2101 2202 2293 2292 2201 2295 2380
8 2299 2207 2297 2383 2206 2107 2204 2296
8 2300 2208 2298 2384 2207 2108 2205 2297
8 2302 2210 2300 2386 2209 2110 2207 2299
8 2303 2211 2301 2387 2210 2111 2208 2300
8 2305 2213 2303 2389 2212 2113 2210 2302
8 2306 2214 2304 2390 2213 2114 2211 2303
8 2310 2216 2306 2392 2220 2117 2213 2305
8 2308 2215 2307 2393 2216 2115 2214 2306
8 2308 2215 2115 2216 2396 2309 2217 2311
8 2310 2216 2117 2220 2398 2311 2219 2315
8 2311 2217 2116 2219 2399 2312 2218 2314
8 2314 2218 2118 2222 2402 2313 2221 2317
8 2315 2219 2119 2223 2403 2314 2222 2318
8 2225 2121 2224 2320 2317 2221 2316 2405
8 2226 2122 2225 2321 2318 2222 2317 2406
8 2228 2124 2227 2323 2320 2224 2319 2408
8 2229 2125 2228 2324 2321 2225 2320 2409
8 2231 2127 2230 2326 2323 2227 2322 2411
8 2232 2128 2231 2327 2324 2228 2323 2412
8 2234 2130 2233 2328 2326 2230 2325 2413
8 2235 2131 2234 2329 2327 2231 2326 2414
8 2237 2134 2236 2330 2329 2234 2328 2415
8 2259 2158 2260 2352 2332 2239 2331 2417
8 2257 2157 2259 2350 2334 2240 2332 2419
8 2240 2139 2239 2332 2335 2241 2333 2420
8 2334 2240 2335 2422 2242 2140 2243 2337
8 2335 2241 2336 2423 2243 2141 2244 2338
8 2337 2243 2338 2425 2247 2143 2246 2342
8 2338 2244 2339 2426 2246 2142 2245 2341
8 2341 2245 2340 2428 2249 2145 2248 2343
8 2342 2246 2341 2429 2250 2146 2249 2344
8 2344 2249 2343 2430 2252 2149 2251 2345
8 2188 2285 2347 2254 2284 2374 2432 2346
8 2347 2254 2346 2432 2271 2169 2270 2364
8 2365 2271 2170 2272 2433 2347 2255 2348
8 2286 2189 2285 2375 2348 2255 2347 2433
8 2349 2258 2351 2435 2257 2157 2259 2350
8 2349 2258 2164 2263 2435 2351 2264 2355
8 2259 2158 2261 2351 2352 2260 2354 2437
8 2356 2265 2354 2437 2264 2165 2261 2351
8 2441 2357 2264 2355 2362 2268 2168 2269
8 2356 2265 2165 2264 2442 2358 2266 2357
8 2443 2359 2266 2357 2361 2267 2166 2268
8 2370 2279 2360 2446 2280 2181 2267 2361
8 2362 2268 2182 2281 2447 2361 2280 2371
8 2180 2277 2368 2278 2270 2364 2449 2363
8 2271 2365 2273 2177 2364 2450 2366 2277
8 2372 2283 2186 2282 2451 2368 2276 2367
8 2178 2274 2367 2276 2277 2366 2451 2368
8 2283 2187 2278 2368 2370 2279 2369 2452
8 2372 2283 2370 2453 2282 2186 2280 2371
8 2284 2374 2455 2373 2201 2292 2380 2295
8 2375 2285 2197 2289 2456 2374 2292 2378
8 2376 2291 2204 2296 2457 2379 2297 2383
8 2288 2199 2291 2376 2377 2293 2379 2457
8 2198 2290 2378 2292 2293 2377 2458 2380
8 2293 2202 2294 2379 2380 2295 2381 2459
8 2384 2298 2381 2459 2297 2205 2294 2379
8 2386 2300 2384 2463 2299 2207 2297 2383
8 2387 2301 2385 2464 2300 2208 2298 2384
8 2389 2303 2387 2466 2302 2210 2300 2386
8 2390 2304 2388 2467 2303 2211 2301 2387
8 2392 2306 2390 2469 2305 2213 2303 2389
8 2393 2307 2391 2470 2306 2214 2304 2390
8 2395 2308 2393 2472 2310 2216 2306 2392
8 2308 2215 2309 2396 2393 2307 2394 2473
8 2395 2308 2216 2310 2475 2396 2311 2398
8 2396 2309 2217 2311 2476 2397 2312 2399
8 2398 2311 2219 2315 2478 2399 2314 2403
8 2399 2312 2218 2314 2479 2400 2313 2402
8 2317 2221 2316 2405 2402 2313 2401 2482
8 2403 2314 2222 2318 2483 2402 2317 2406
8 2320 2224 2319 2408 2405 2316 2404 2485
8 2321 2225 2320 2409 2406 2317 2405 2486
8 2323 2227 2322 2411 2408 2319 2407 2488
8 2324 2228 2323 2412 2409 2320 2408 2489
8 2326 2230 2325 2413 2411 2322 2410 2490
8 2327 2231 2326 2414 2412 2323 2411 2491
8 2329 2234 2328 2415 2414 2326 2413 2492
8 2417 2331 2260 2352 2494 2416 2353 2438
8 2350 2259 2352 2436 2419 2332 2417 2496
8 2332 2239 2331 2417 2420 2333 2418 2497
8 2334 2240 2332 2419 2422 2335 2420 2499
8 2420 2333 2421 2500 2335 2241 2336 2423
8 2422 2335 2423 2502 2337 2243 2338 2425
8 2423 2336 2424 2503 2338 2244 2339 2426
8 2425 2338 2426 2505 2342 2246 2341 2429
8 2426 2339 2427 2506 2341 2245 2340 2428
8 2429 2341 2428 2507 2344 2249 2343 2430
8 2432 2346 2284 2374 2509 2431 2373 2455
8 2432 2346 2431 2509 2364 2270 2363 2449
8 2375 2285 2374 2456 2433 2347 2432 2510
8 2347 2433 2365 2271 2432 2510 2450 2364
8 2350 2259 2351 2435 2436 2352 2437 2514
8 2440 2356 2437 2514 2355 2264 2351 2435
8 2352 2260 2354 2437 2438 2353 2439 2516
8 2356 2265 2358 2442 2437 2354 2439 2516
8 2440 2356 2264 2355 2518 2442 2357 2441
8 2519 2443 2357 2441 2447 2361 2268 2362
8 2443 2359 2444 2520 2357 2266 2358 2442
8 2443 2359 2267 2361 2520 2444 2360 2446
8 2446 2360 2279 2370 2523 2445 2369 2452
8 2453 2370 2446 2524 2371 2280 2361 2447
8 2449 2363 2448 2525 2368 2278 2369 2452
8 2366 2277 2364 2450 2451 2368 2449 2526
8 2372 2283 2368 2451 2453 2370 2452 2527
8 2455 2373 2295 2380 2529 2454 2382 2460
8 2456 2374 2292 2378 2530 2455 2380 2458
8 2377 2293 2379 2457 2458 2380 2459 2531
8 2463 2384 2459 2531 2383 2297 2379 2457
8 2533 2461 2382 2460 2459 2381 2295 2380
8 2464 2385 2461 2533 2384 2298 2381 2459
8 2466 2387 2464 2537 2386 2300 2384 2463
8 2467 2388 2465 2538 2387 2301 2385 2464
8 2469 2390 2467 2540 2389 2303 2387 2466
8 2470 2391 2468 2541 2390 2304 2388 2467
8 2472 2393 2470 2543 2392 2306 2390 2469
8 2393 2307 2394 2473 2470 2391 2471 2544
8 2395 2308 2396 2475 2472 2393 2473 2546
8 2396 2309 2397 2476 2473 2394 2474 2547
8 2475 2396 2311 2398 2549 2476 2399 2478
8 2476 2397 2312 2399 2550 2477 2400 2479
8 2478 2399 2314 2403 2552 2479 2402 2483
8 2479 2400 2313 2402 2553 2480 2401 2482
8 2405 2316 2404 2485 2482 2401 2481 2556
8 2406 2317 2405 2486 2483 2402 2482 2557
8 2408 2319 2407 2488 2485 2404 2484 2559
8 2409 2320 2408 2489 2486 2405 2485 2560
8 2411 2322 2410 2490 2488 2407 2487 2561
8 2412 2323 2411 2491 2489 2408 2488 2562
8 2414 2326 2413 2492 2491 2411 2490 2563
8 2513 2434 2493 2565 2438 2353 2416 2494
8 2496 2417 2352 2436 2567 2494 2438 2515
8 2494 2416 2495 2568 2417 2331 2418 2497
8 2419 2332 2417 2496 2499 2420 2497 2570
8 2497 2418 2498 2571 2420 2333 2421 2500
8 2499 2420 2500 2573 2422 2335 2423 2502
8 2500 2421 2501 2574 2423 2336 2424 2503
8 2502 2423 2503 2576 2425 2338 2426 2505
8 2503 2424 2504 2577 2426 2339 2427 2506
8 2505 2426 2506 2578 2429 2341 2428 2507
8 2509 2431 2373 2455 2580 2508 2454 2529
8 2509 2431 2508 2580 2449 2363 2448 2525
8 2432 2510 2581 2509 2374 2456 2530 2455
8 2432 2510 2450 2364 2509 2581 2526 2449
8 2583 2511 2434 2513 2516 2439 2353 2438
8 2436 2352 2437 2514 2515 2438 2516 2588
8 2440 2356 2442 2518 2514 2437 2516 2588
8 2442 2358 2444 2520 2516 2439 2517 2589
8 2519 2443 2520 2591 2441 2357 2442 2518
8 2519 2443 2361 2447 2591 2520 2446 2524
8 2446 2360 2445 2523 2520 2444 2521 2592
8 2525 2448 2522 2593 2452 2369 2445 2523
8 2524 2446 2370 2453 2594 2523 2452 2527
8 2526 2449 2525 2595 2451 2368 2452 2527
8 2534 2462 2528 2597 2460 2382 2454 2529
8 2530 2455 2380 2458 2598 2529 2460 2532
8 2599 2533 2460 2532 2531 2459 2380 2458
8 2537 2464 2533 2599 2463 2384 2459 2531
8 2534 2462 2382 2460 2601 2535 2461 2533
8 2538 2465 2535 2601 2464 2385 2461 2533
8 2540 2467 2538 2604 2466 2387 2464 2537
8 2541 2468 2539 2605 2467 2388 2465 2538
8 2543 2470 2541 2607 2469 2390 2467 2540
8 2470 2391 2471 2544 2541 2468 2542 2608
8 2472 2393 2473 2546 2543 2470 2544 2610
8 2473 2394 2474 2547 2544 2471 2545 2611
8 2475 2396 2476 2549 2546 2473 2547 2613
8 2476 2397 2477 2550 2547 2474 2548 2614
8 2549 2476 2399 2478 2616 2550 2479 2552
8 2479 2400 2480 2553 2550 2477 2551 2617
8 2552 2479 2402 2483 2619 2553 2482 2557
8 2482 2401 2481 2556 2553 2480 2554 2620
8 2485 2404 2484 2559 2556 2481 2555 2623
8 2486 2405 2485 2560 2557 2482 2556 2624
8 2488 2407 2487 2561 2559 2484 2558 2625
8 2489 2408 2488 2562 2560 2485 2559 2626
8 2491 2411 2490 2563 2562 2488 2561 2627
8 2513 2434 2512 2585 2565 2493 2564 2630
8 2586 2513 2565 2632 2515 2438 2494 2567
8 2565 2493 2566 2633 2494 2416 2495 2568
8 2567 2494 2568 2635 2496 2417 2497 2570
8 2568 2495 2569 2636 2497 2418 2498 2571
8 2570 2497 2571 2638 2499 2420 2500 2573
8 2571 2498 2572 2639 2500 2421 2501 2574
8 2573 2500 2574 2641 2502 2423 2503 2576
8 2574 2501 2575 2642 2503 2424 2504 2577
8 2576 2503 2577 2643 2505 2426 2506 2578
8 2597 2528 2579 2645 2529 2454 2508 2580
8 2580 2508 2579 2645 2525 2448 2522 2593
8 2581 2509 2455 2530 2646 2580 2529 2598
8 2581 2509 2580 2646 2526 2449 2525 2595
8 2583 2511 2582 2648 2513 2434 2512 2585
8 2583 2511 2439 2516 2648 2582 2517 2589
8 2649 2583 2513 2586 2588 2516 2438 2515
8 2589 2517 2444 2520 2653 2587 2521 2592
8 2518 2442 2520 2591 2588 2516 2589 2654
8 2593 2522 2590 2655 2523 2445 2521 2592
8 2524 2446 2523 2594 2591 2520 2592 2656
8 2595 2525 2593 2657 2527 2452 2523 2594
8 2602 2536 2596 2659 2534 2462 2528 2597
8 2600 2534 2597 2660 2532 2460 2529 2598
8 2600 2534 2460 2532 2661 2601 2533 2599
8 2604 2538 2601 2661 2537 2464 2533 2599
8 2602 2536 2462 2534 2663 2603 2535 2601
8 2601 2535 2465 2538 2663 2603 2539 2605
8 2607 2541 2605 2665 2540 2467 2538 2604
8 2608 2542 2606 2666 2541 2468 2539 2605
8 2543 2470 2544 2610 2607 2541 2608 2668
8 2544 2471 2545 2611 2608 2542 2609 2669
8 2546 2473 2547 2613 2610 2544 2611 2671
8 2547 2474 2548 2614 2611 2545 2612 2672
8 2549 2476 2550 2616 2613 2547 2614 2674
8 2550 2477 2551 2617 2614 2548 2615 2675
8 2552 2479 2553 2619 2616 2550 2617 2677
8 2553 2480 2554 2620 2617 2551 2618 2678
8 2557 2482 2556 2624 2619 2553 2620 2680
8 2556 2481 2555 2623 2620 2554 2621 2681
8 2559 2484 2558 2625 2623 2555 2622 2683
8 2560 2485 2559 2626 2624 2556 2623 2684
8 2562 2488 2561 2627 2626 2559 2625 2685
8 2690 2629 2564 2630 2650 2584 2512 2585
8 2586 2513 2585 2651 2632 2565 2630 2691
8 2630 2564 2631 2692 2565 2493 2566 2633
8 2632 2565 2633 2694 2567 2494 2568 2635
8 2633 2566 2634 2695 2568 2495 2569 2636
8 2635 2568 2636 2697 2570 2497 2571 2638
8 2636 2569 2637 2698 2571 2498 2572 2639
8 2638 2571 2639 2700 2573 2500 2574 2641
8 2639 2572 2640 2701 2574 2501 2575 2642
8 2641 2574 2642 2702 2576 2503 2577 2643
8 2597 2528 2596 2659 2645 2579 2644 2704
8 2645 2579 2644 2704 2593 2522 2590 2655
8 2660 2597 2645 2705 2598 2529 2580 2646
8 2646 2580 2645 2705 2595 2525 2593 2657
8 2650 2584 2512 2585 2707 2647 2582 2648
8 2648 2582 2517 2589 2707 2647 2587 2653
8 2649 2583 2648 2708 2586 2513 2585 2651
8 2649 2583 2516 2588 2708 2648 2589 2654
8 2655 2590 2652 2710 2592 2521 2587 2653
8 2654 2589 2520 2591 2711 2653 2592 2656
8 2657 2593 2655 2712 2594 2523 2592 2656
8 2602 2536 2603 2663 2659 2596 2658 2714
8 2662 2602 2659 2715 2600 2534 2597 2660
8 2662 2602 2534 2600 2717 2663 2601 2661
8 2661 2601 2538 2604 2717 2663 2605 2665
8 2666 2606 2664 2718 2605 2539 2603 2663
8 2668 2608 2666 2720 2607 2541 2605 2665
8 2608 2542 2609 2669 2666 2606 2667 2721
8 2610 2544 2611 2671 2668 2608 2669 2723
8 2611 2545 2612 2672 2669 2609 2670 2724
8 2613 2547 2614 2674 2671 2611 2672 2726
8 2614 2548 2615 2675 2672 2612 2673 2727
8 2616 2550 2617 2677 2674 2614 2675 2729
8 2617 2551 2618 2678 2675 2615 2676 2730
8 2619 2553 2620 2680 2677 2617 2678 2732
8 2620 2554 2621 2681 2678 2618 2679 2733
8 2624 2556 2623 2684 2680 2620 2681 2735
8 2681 2621 2555 2623 2736 2682 2622 2683
8 2626 2559 2625 2685 2684 2623 2683 2737
8 2688 2628 2584 2650 2740 2686 2647 2707
8 2688 2628 2687 2742 2650 2584 2629 2690
8 2690 2629 2689 2745 2630 2564 2631 2692
8 2746 2690 2630 2691 2709 2650 2585 2651
8 2691 2630 2692 2747 2632 2565 2633 2694
8 2692 2631 2693 2748 2633 2566 2634 2695
8 2694 2633 2695 2750 2635 2568 2636 2697
8 2695 2634 2696 2751 2636 2569 2637 2698
8 2697 2636 2698 2753 2638 2571 2639 2700
8 2698 2637 2699 2754 2639 2572 2640 2701
8 2700 2639 2701 2755 2641 2574 2642 2702
8 2659 2596 2658 2714 2704 2644 2703 2757
8 2704 2644 2703 2757 2655 2590 2652 2710
8 2660 2597 2659 2715 2705 2645 2704 2758
8 2705 2645 2704 2758 2657 2593 2655 2712
8 2759 2706 2647 2707 2710 2652 2587 2653
8 2709 2650 2585 2651 2760 2707 2648 2708
8 2708 2648 2589 2654 2760 2707 2653 2711
8 2712 2655 2710 2761 2656 2592 2653 2711
8 2763 2713 2658 2714 2718 2664 2603 2663
8 2662 2602 2663 2717 2715 2659 2714 2764
8 2720 2666 2718 2767 2665 2605 2663 2717
8 2768 2719 2664 2718 2721 2667 2606 2666
8 2668 2608 2669 2723 2720 2666 2721 2770
8 2669 2609 2670 2724 2721 2667 2722 2771
8 2671 2611 2672 2726 2723 2669 2724 2773
8 2672 2612 2673 2727 2724 2670 2725 2774
8 2674 2614 2675 2729 2726 2672 2727 2776
8 2675 2615 2676 2730 2727 2673 2728 2777
8 2677 2617 2678 2732 2729 2675 2730 2779
8 2678 2618 2679 2733 2730 2676 2731 2780
8 2680 2620 2681 2735 2732 2678 2733 2782
8 2733 2679 2621 2681 2783 2734 2682 2736
8 2735 2681 2623 2684 2784 2736 2683 2737
8 2740 2686 2647 2707 2787 2738 2706 2759
8 2688 2628 2686 2740 2742 2687 2739 2789
8 2743 2688 2650 2709 2790 2740 2707 2760
8 2742 2687 2741 2792 2690 2629 2689 2745
8 2743 2688 2742 2793 2709 2650 2690 2746
8 2745 2689 2744 2795 2692 2631 2693 2748
8 2746 2690 2745 2796 2691 2630 2692 2747
8 2747 2692 2748 2797 2694 2633 2695 2750
8 2748 2693 2749 2798 2695 2634 2696 2751
8 2750 2695 2751 2800 2697 2636 2698 2753
8 2751 2696 2752 2801 2698 2637 2699 2754
8 2753 2698 2754 2802 2700 2639 2701 2755
8 2763 2713 2756 2804 2714 2658 2703 2757
8 2759 2706 2652 2710 2804 2756 2703 2757
8 2715 2659 2714 2764 2758 2704 2757 2805
8 2758 2704 2757 2805 2712 2655 2710 2761
8 2806 2759 2707 2760 2761 2710 2653 2711
8 2765 2716 2762 2808 2718 2664 2713 2763
8 2809 2763 2714 2764 2767 2718 2663 2717
8 2765 2716 2664 2718 2811 2766 2719 2768
8 2813 2768 2718 2767 2770 2721 2666 2720
8 2814 2769 2719 2768 2771 2722 2667 2721
8 2723 2669 2724 2773 2770 2721 2771 2816
8 2724 2670 2725 2774 2771 2722 2772 2817
8 2726 2672 2727 2776 2773 2724 2774 2819
8 2727 2673 2728 2777 2774 2725 2775 2820
8 2729 2675 2730 2779 2776 2727 2777 2822
8 2730 2676 2731 2780 2777 2728 2778 2823
8 2732 2678 2733 2782 2779 2730 2780 2825
8 2780 2731 2679 2733 2826 2781 2734 2783
8 2782 2733 2681 2735 2827 2783 2736 2784
8 2830 2785 2738 2787 2804 2756 2706 2759
8 2789 2739 2686 2740 2832 2786 2738 2787
8 2790 2740 2707 2760 2833 2787 2759 2806
8 2742 2687 2739 2789 2792 2741 2788 2835
8 2743 2688 2740 2790 2793 2742 2789 2836
8 2792 2741 2791 2838 2745 2689 2744 2795
8 2793 2742 2792 2839 2746 2690 2745 2796
8 2795 2744 2794 2841 2748 2693 2749 2798
8 2796 2745 2795 2842 2747 2692 2748 2797
8 2797 2748 2798 2843 2750 2695 2751 2800
8 2798 2749 2799 2844 2751 2696 2752 2801
8 2800 2751 2801 2845 2753 2698 2754 2802
8 2808 2762 2803 2847 2763 2713 2756 2804
8 2809 2763 2804 2848 2764 2714 2757 2805
8 2806 2759 2710 2761 2848 2804 2757 2805
8 2765 2716 2766 2811 2808 2762 2807 2850
8 2810 2765 2808 2851 2767 2718 2763 2809
8 2810 2765 2718 2767 2852 2811 2768 2813
8 2811 2766 2719 2768 2853 2812 2769 2814
8 2855 2814 2768 2813 2816 2771 2721 2770
8 2856 2815 2769 2814 2817 2772 2722 2771
8 2773 2724 2774 2819 2816 2771 2817 2858
8 2774 2725 2775 2820 2817 2772 2818 2859
8 2776 2727 2777 2822 2819 2774 2820 2861
8 2777 2728 2778 2823 2820 2775 2821 2862
8 2779 2730 2780 2825 2822 2777 2823 2864
8 2823 2778 2731 2780 2865 2824 2781 2826
8 2825 2780 2733 2782 2866 2826 2783 2827
8 2869 2828 2785 2830 2847 2803 2756 2804
8 2871 2829 2786 2832 2830 2785 2738 2787
8 2872 2830 2787 2833 2848 2804 2759 2806
8 2789 2739 2786 2832 2835 2788 2831 2874
8 2836 2789 2740 2790 2875 2832 2787 2833
8 2792 2741 2788 2835 2838 2791 2834 2877
8 2793 2742 2789 2836 2839 2792 2835 2878
8 2838 2791 2837 2880 2795 2744 2794 2841
8 2839 2792 2838 2881 2796 2745 2795 2842
8 2841 2794 2840 2882 2798 2749 2799 2844
8 2842 2795 2841 2883 2797 2748 2798 2843
8 2843 2798 2844 2884 2800 2751 2801 2845
8 2886 2846 2803 2847 2850 2807 2762 2808
8 2851 2808 2847 2887 2809 2763 2804 2848
8 2850 2807 2766 2811 2889 2849 2812 2853
8 2810 2765 2811 2852 2851 2808 2850 2890
8 2852 2811 2768 2813 2891 2853 2814 2855
8 2853 2812 2769 2814 2892 2854 2815 2856
8 2894 2856 2814 2855 2858 2817 2771 2816
8 2817 2772 2818 2859 2856 2815 2857 2895
8 2819 2774 2820 2861 2858 2817 2859 2897
8 2820 2775 2821 2862 2859 2818 2860 2898
8 2822 2777 2823 2864 2861 2820 2862 2900
8 2823 2778 2824 2865 2862 2821 2863 2901
8 2864 2823 2780 2825 2902 2865 2826 2866
8 2904 2867 2828 2869 2886 2846 2803 2847
8 2869 2828 2868 2906 2830 2785 2829 2871
8 2907 2869 2830 2872 2887 2847 2804 2848
8 2871 2829 2870 2909 2832 2786 2831 2874
8 2910 2871 2832 2875 2872 2830 2787 2833
8 2835 2788 2831 2874 2877 2834 2873 2912
8 2836 2789 2832 2875 2878 2835 2874 2913
8 2877 2834 2876 2915 2838 2791 2837 2880
8 2839 2792 2835 2878 2881 2838 2877 2916
8 2880 2837 2879 2917 2841 2794 2840 2882
8 2881 2838 2880 2918 2842 2795 2841 2883
8 2883 2841 2882 2919 2843 2798 2844 2884
8 2921 2885 2846 2886 2889 2849 2807 2850
8 2922 2886 2847 2887 2890 2850 2808 2851
8 2889 2849 2812 2853 2924 2888 2854 2892
8 2890 2850 2811 2852 2925 2889 2853 2891
8 2891 2853 2814 2855 2926 2892 2856 2894
8 2892 2854 2815 2856 2927 2893 2857 2895
8 2858 2817 2859 2897 2894 2856 2895 2929
8 2859 2818 2860 2898 2895 2857 2896 2930
8 2861 2820 2862 2900 2897 2859 2898 2932
8 2862 2821 2863 2901 2898 2860 2899 2933
8 2864 2823 2865 2902 2900 2862 2901 2934
8 2904 2867 2846 2886 2936 2903 2885 2921
8 2904 2867 2903 2936 2869 2828 2868 2906
8 2937 2904 2869 2907 2922 2886 2847 2887
8 2906 2868 2905 2939 2871 2829 2870 2909
8 2907 2869 2906 2940 2872 2830 2871 2910
8 2909 2870 2908 2942 2874 2831 2873 2912
8 2910 2871 2909 2943 2875 2832 2874 2913
8 2912 2873 2911 2945 2877 2834 2876 2915
8 2878 2835 2874 2913 2916 2877 2912 2946
8 2915 2876 2914 2947 2880 2837 2879 2917
8 2916 2877 2915 2948 2881 2838 2880 2918
8 2918 2880 2917 2949 2883 2841 2882 2919
8 2921 2885 2849 2889 2951 2920 2888 2924
8 2952 2921 2886 2922 2925 2889 2850 2890
8 2924 2888 2854 2892 2954 2923 2893 2927
8 2925 2889 2853 2891 2955 2924 2892 2926
8 2926 2892 2856 2894 2956 2927 2895 2929
8 2895 2857 2896 2930 2927 2893 2928 2957
8 2897 2859 2898 2932 2929 2895 2930 2959
8 2898 2860 2899 2933 2930 2896 2931 2960
8 2900 2862 2901 2934 2932 2898 2933 2961
8 2936 2903 2885 2921 2963 2935 2920 2951
8 2936 2903 2935 2963 2906 2868 2905 2939
8 2937 2904 2886 2922 2964 2936 2921 2952
8 2937 2904 2936 2964 2907 2869 2906 2940
8 2939 2905 2938 2966 2909 2870 2908 2942
8 2940 2906 2939 2967 2910 2871 2909 2943
8 2942 2908 2941 2969 2912 2873 2911 2945
8 2943 2909 2942 2970 2913 2874 2912 2946
8 2945 2911 2944 2971 2915 2876 2914 2947
8 2946 2912 2945 2972 2916 2877 2915 2948
8 2948 2915 2947 2973 2918 2880 2917 2949
8 2951 2920 2888 2924 2975 2950 2923 2954
8 2952 2921 2889 2925 2976 2951 2924 2955
8 2927 2893 2928 2957 2954 2923 2953 2978
8 2955 2924 2892 2926 2979 2954 2927 2956
8 2929 2895 2930 2959 2956 2927 2957 2980
8 2930 2896 2931 2960 2957 2928 2958 2981
8 2932 2898 2933 2961 2959 2930 2960 2982
8 2951 2920 2950 2975 2963 2935 2962 2984
8 2963 2935 2962 2984 2939 2905 2938 2966
8 2964 2936 2921 2952 2985 2963 2951 2976
8 2964 2936 2963 2985 2940 2906 2939 2967
8 2966 2938 2965 2987 2942 2908 2941 2969
8 2967 2939 2966 2988 2943 2909 2942 2970
8 2969 2941 2968 2989 2945 2911 2944 2971
8 2970 2942 2969 2990 2946 2912 2945 2972
8 2972 2945 2971 2991 2948 2915 2947 2973
8 2954 2923 2953 2978 2975 2950 2974 2993
8 2976 2951 2924 2955 2994 2975 2954 2979
8 2957 2928 2958 2981 2978 2953 2977 2995
8 2956 2927 2957 2980 2979 2954 2978 2996
8 2959 2930 2960 2982 2980 2957 2981 2997
8 2984 2962 2983 2999 2966 2938 2965 2987
8 2975 2950 2974 2993 2984 2962 2983 2999
8 2976 2951 2975 2994 2985 2963 2984 3000
8 2985 2963 2984 3000 2967 2939 2966 2988
8 2987 2965 2986 3001 2969 2941 2968 2989
8 2988 2966 2987 3002 2970 2942 2969 2990
8 2990 2969 2989 3003 2972 2945 2971 2991
8 2978 2953 2977 2995 2993 2974 2992 3004
8 2979 2954 2978 2996 2994 2975 2993 3005
8 2980 2957 2981 2997 2996 2978 2995 3006
8 2974 2993 2999 2983 2992 3004 3007 2998
8 2983 2999 2987 2965 2998 3007 3001 2986
8 3000 2984 2999 3008 2988 2966 2987 3002
8 2994 2975 2993 3005 3000 2984 2999 3008
8 3002 2987 3001 3009 2990 2969 2989 3003
8 2996 2978 2995 3006 3005 2993 3004 3010
8 3005 2993 3004 3010 3008 2999 3007 3011
8 3008 2999 3007 3011 3002 2987 3001 3009

CELL_TYPES 1910
12
12
12
12
12
12
12
12
12
12
12
12
12
12
12
12
12
12
12
12
12
12
12
12
12
12
12
12
12
12
12
12
12
12
12
12
12
12
12
12
12
12
12
12
12
12
12
12
12
12
12
12
12
12
12
12
12
12
12
12
12
12
12
12
12
12
12
12
12
12
12
12
12
12
12
12
12
12
12
12
12
12
12
12
12
12
12
12
12
12
12
12
12
12
12
12
12
12
12
12
12
12
12
12
12
12
12
12
12
12
12
12
12
12
12
12
12
12
12
12
12
12
12
12
12
12
12
12
12
12
12
12
12
12
12
12
12
12
12
12
12
12
12
12
12
12
12
12
12
12
12
12
12
12
12
12
12
12
12
12
12
12
12
12
12
12
12
12
12
12
12
12
12
12
12
12
12
12
12
12
12
12
12
12
12
12
12
12
12
12
12
12
12
12
12
12
12
12
12
12
12
12
12
12
12
12
12
12
12
12
12
12
12
12
12
12
12
12
12
12
12
12
12
12
12
12
12
12
12
12
12
12
12
12
12
12
12
12
12
12
12
12
12
12
12
12
12
12
12
12
12
12
12
12
12
12
12
12
12
12
12
12
12
12
12
12
12
12
12
12
12
12
12
12
12
12
12
12
12
12
12
12
12
12
12
12
12
12
12
12
12
12
12
12
12
12
12
12
12
12
12
12
12
12
12
12
12
12
12
12
12
12
12
12
12
12
12
12
12
12
12
12
12
12
12
12
12
12
12
12
12
12
12
12
12
12
12
12
12
12
12
12
12
12
12
12
12
12
12
12
12
12
12
12
12
12
12
12
12
12
12
12
12
12
12
12
12
12
12
12
12
12
12
12
12
12
12
12
12
12
12
12
12
12
12
12
12
12
12
12
12
12
12
12
12
12
12
12
12
12
12
12
12
12
12
12
12
12
12
12
12
12
12
12
12
12
12
12
12
12
12
12
12
12
12
12
12
12
12
12
12
12
12
12
12
12
12
12
12
12
12
12
12
12
12
12
12
12
12
12
12
12
12
12
12
12
12
12
12
12
12
12
12
12
12
12
12
12
12
12
12
12
12
12
12
12
12
12
12
12
12
12
12
12
12
12
12
12
12
12
12
12
12
12
12
12
12
12
12
12
12
12
12
12
12
12
12
12
12
12
12
12
12
12
12
12
12
12
12
12
12
12
12
12
12
12
12
12
12
12
12
12
12
12
12
12
12
12
12
12
12
12
12
12
12
12
12
12
12
12
12
12
12
12
12
12
12
12
12
12
12
12
12
12
12
12
12
12
12
12
12
12
12
12
12
12
12
12
12
12
12
12
12
12
12
12
12
12
12
12
12
12
12
12
12
12
12
12
12
12
12
12
12
12
12
12
12
12
12
12
12
12
12
12
12
12
12
12
12
12
12
12
12
12
12
12
12
12
12
12
12
12
12
12
12
12
12
12
12
12
12
12
12
12
12
12
12
12
12
12
12
12
12
12
12
12
12
12
12
12
12
12
12
12
12
12
12
12
12
12
12
12
12
12
12
12
12
12
12
12
12
12
12
12
12
12
12
12
12
12
12
12
12
12
12
12
12
12
12
12
12
12
12
12
12
12
12
12
12
12
12
12
12
12
12
12
12
12
12
12
12
12
12
12
12
12
12
12
12
12
12
12
12
12
12
12
12
12
12
12
12
12
12
12
12
12
12
12
12
12
12
12
12
12
12
12
12
12
12
12
12
12
12
12
12
12
12
12
12
12
12
12
12
12
12
12
12
12
12
12
12
12
12
12
12
12
12
12
12
12
12
12
12
12
12
12
12
12
12
12
12
12
12
12
12
12
12
12
12
12
12
12
12
12
12
12
12
12
12
12
12
12
12
12
12
12
12
12
12
12
12
12
12
12
12
12
12
12
12
12
12
12
12
12
12
12
12
12
12
12
12
12
12
12
12
12
12
12
12
12
12
12
12
12
12
12
12
12
12
12
12
12
12
12
12
12
12
12
12
12
12
12
12
12
12
12
12
12
12
12
12
12
12
12
12
12
12
12
12
12
12
12
12
12
12
12
12
12
12
12
12
12
12
12
12
12
12
12
12
12
12
12
12
12
12
12
12
12
12
12
12
12
12
12
12
12
12
12
12
12
12
12
12
12
12
12
12
12
12
12
12
12
12
12
12
12
12
12
12
12
12
12
12
12
12
12
12
12
12
12
12
12
12
12
12
12
12
12
12
12
12
12
12
12
12
12
12
12
12
12
12
12
12
12
12
12
12
12
12
12
12
12
12
12
12
12
12
12
12
12
12
12
12
12
12
12
12
12
12
12
12
12
12
12
12
12
12
12
12
12
12
12
12
12
12
12
12
12
12
12
12
12
12
12
12
12
12
12
12
12
12
12
12
12
12
12
12
12
12
12
12
12
12
12
12
12
12
12
12
12
12
12
12
12
12
12
12
12
12
12
12
12
12
12
12
12
12
12
12
12
12
12
12
12
12
12
12
12
12
12
12
12
12
12
12
12
12
12
12
12
12
12
12
12
12
12
12
12
12
12
12
12
12
12
12
12
12
12
12
12
12
12
12
12
12
12
12
12
12
12
12
12
12
12
12
12
12
12
12
12
12
12
12
12
12
12
12
12
12
12
12
12
12
12
12
12
12
12
12
12
12
12
12
12
12
12
12
12
12
12
12
12
12
12
12
12
12
12
12
12
12
12
12
12
12
12
12
12
12
12
12
12
12
12
12
12
12
12
12
12
12
12
12
12
12
12
12
12
12
12
12
12
12
12
12
12
12
12
12
12
12
12
12
12
12
12
12
12
12
12
12
12
12
12
12
12
12
12
12
12
12
12
12
12
12
12
12
12
12
12
12
12
12
12
12
12
12
12
12
12
12
12
12
12
12
12
12
12
12
12
12
12
12
12
12
12
12
12
12
12
12
12
12
12
12
12
12
12
12
12
12
12
12
12
12
12
12
12
12
12
12
12
12
12
12
12
12
12
12
12
12
12
12
12
12
12
12
12
12
12
12
12
12
12
12
12
12
12
12
12
12
12
12
12
12
12
12
12
12
12
12
12
12
12
12
12
12
12
12
12
12
12
12
12
12
12
12
12
12
12
12
12
12
12
12
12
12
12
12
12
12
12
12
12
12
12
12
12
12
12
12
12
12
12
12
12
12
12
12
12
12
12
12
12
12
12
12
12
12
12
12
12
12
12
12
12
12
12
12
12
12
12
12
12
12
12
12
12
12
12
12
12
12
12
12
12
12
12
12
12
12
12
12
12
12
12
12
12
12
12
12
12
12
12
12
12
12
12
12
12
12
12
12
12
12
12
12
12
12
12
12
12
12
12
12
12
12
12
12
12
12
12
12
12
12
12
12
12
12
12
12
12
12
12
12
12
12
12
12
12
12
12
12
12
12
12
12
12
12
12
12
12
12
12
12
12
12
12
12
12
12
12
12
12
12
12
12
12
12
12
12
12
12
12
12
12
12
12
12
12
12
12
12
12
12
12
12
12
12
12
12
12
12
12
12
12
12
12
12
12
12
12
12
12
12
12
12
12
12
12
12
12
12
12
12
12
12
12
12
12
12
12
12
12
12
12
12
12
12
12
12
12
12
12
12
12
12
12
12
12
12
12
12
12
12
12
12
12
12
12
12
12
12
12
12
12
12
12
12
12
12
12
12
12
12
12
12
12
12
12
12
12
12
12
12
12
12
12
12
12
12
12
12
12
12
12
12
12
12
12
12
12
12
12
12
12
12
12
12
12
12
12
12
12
12
12
12
12
12
12
12
12
12
12
12
12
12
12
12
12
12
12
12
12
12
12
12
12
12
12
12
12
12
12
12
12
12
12
12
12
12
12
12
12
12
12
12
12
12
12
12
12
12
12
12
12
12
12
12
12
12
12
12
12
12
12
12
12
12
12
12
12
12
12
12
12
12
12
12
12
12
12
12
12
12
12
12
12
12
12
12
12
12
12
12
12
12
12
12
12
12
12
12
12
12
12
12
12
12
12
12
12
12
12
12
12
12
12
12
12
12
12
12
12
12
12
12
12
12
12
12
12
12
12
12
12
12
12
12
12
12
12
12
12
12
12
12
12
12
12
12
12
12
12
12
12
12
12
12
12
12
12
12
12
12
12
12
12
12
12
12
12
12
12
12
12
12
12
12
12
12
12
12
12
12
12
12
12
12
12
12
12
12
12
12
12
12
12
12
12
12
12
12
12
12
12
12
12
12
12
12
12
12
12
12
12
12
12
12
12
12
12
12
12
12
12
12
12
12
12
12
12
12
12
12
12
12
12
12
12
12
12
12
12
12
12
12
12
12
12

POINT_DATA 3012
SCALARS Jp_lamdaP float 4
LOOKUP_TABLE default
0.999758 1 1 0.999758
1 1 1 1
0.999766 1 1 0.999766
0.999707 1 1 0.999707
0.999759 1 1 0.999759
0.999746 1 1 0.999746
0.999059 1 1 0.999059
1 1 1 1
1 1 1 1
1 1 1 1
0.999832 1 1 0.999832
0.999193 1 1 0.999193
0.999686 1 1 0.999686
0.999705 1 1 0.999705
0.999767 1 1 0.999767
0.999729 1 1 0.999729
0.999751 1 1 0.999751
0.999772 1 1 0.999772
0.999061 1 1 0.999061
1 1 1 1
0.999687 1 1 0.999687
0.999738 1 1 0.999738
0.998929 1 1 0.998929
0.999033 1 1 0.999033
0.999758 1 1 0.999758
0.999082 1 1 0.999082
1.00551 1.00755 1 0.997974
1 1 1 1
0.999869 1 1 0.999869
0.999882 1 1 0.999882
1 1 1 1
0.999202 1 1 0.999202
0.999731 1 1 0.999731
0.999756 1 1 0.999756
0.999179 1 1 0.999179
1 1 1 1
0.999265 1 1 0.999265
0.999294 1 1 0.999294
1.00024 1.00226 1 0.997976
1 1 1 1
1 1 1 1
0.999852 1 1 0.999852
1 1 1 1
0.999703 1 1 0.999703
0.998856 1 1 0.998856
1 1 1 1
0.99908 1 1 0.99908
0.999748 1 1 0.999748
0.999781 1 1 0.999781
0.999753 1 1 0.999753
0.999067 1 1 0.999067
0.999835 1 1 0.999835
0.999707 1 1 0.999707
0.99977 1 1 0.99977
0.999757 1 1 0.999757
0.998928 1 1 0.998928
0.999086 1 1 0.999086
0.999035 1 1 0.999035
1.00593 1.00799 1 0.99796
1 1 1 1
0.999681 1 1 0.999681
0.999081 1 1 0.999081
0.998894 1 1 0.998894
0.998983 1 1 0.998983
1.00879 1.01113 1 0.997687
1.00696 1.00917 1 0.997811
0.99982 1 1 0.99982
0.999191 1 1 0.999191
1.00314 1.00508 1 0.998073
1.01975 1.02269 1 0.997125
1 1 1 1
1 1 1 1
1 1 1 1
0.999209 1 1 0.999209
1 1 1 1
1 1 1 1
0.999048 1 1 0.999048
0.999945 1 1 0.999945
0.999153 1 1 0.999153
0.999381 1 1 0.999381
0.999642 1.00167 1 0.997973
1 1 1 1
1.00051 1 1.00064 0.999864
0.998977 1 1 0.998977
0.999083 1 1 0.999083
1.00903 1.01151 1 0.99755
0.999657 1 1.00007 0.999588
1.0034 1.00554 1 0.997875
0.998668 1.00055 1 0.998119
1.00417 1.00687 1 0.997319
1 1 1 1
1 1 1 1
1 1 1 1
1 1 1 1
1 1 1 1
0.999849 1 1 0.999849
0.998962 1 1 0.998962
0.999855 1 1 0.999855
0.999009 1 1 0.999009
1 1 1 1
0.998857 1 1 0.998857
0.999062 1 1 0.999062
1.00801 1.01073 1 0.997306
0.999116 1 1 0.999116
1.01039 1.01306 1 0.997368
0.999706 1 1 0.999706
0.999725 1 1 0.999725
0.99978 1 1 0.99978
0.999773 1 1 0.999773
0.998928 1 1 0.998928
0.999039 1 1 0.999039
0.999092 1 1 0.999092
1.00634 1.00842 1 0.997945
1 1 1 1
0.999701 1 1 0.999701
0.998883 1 1 0.998883
0.998891 1 1 0.998891
0.99991 1 1 0.99991
0.999259 1 1 0.999259
0.998984 1 1 0.998984
1.00875 1.01113 1 0.997646
1.0038 1.00576 1 0.998055
1.00721 1.00939 1 0.997841
1.01965 1.02258 1 0.997131
0.99888 1 1 0.99888
0.998881 1 1 0.998881
1.00719 1.0097 1 0.997514
1.00877 1.01122 1 0.997577
1.00841 1.01074 1 0.9977
1.02825 1.03135 1 0.99699
1 1 1 1
1.02255 1.02555 1 0.997076
0.999588 1 1.00017 0.999414
1.00009 1.00202 1 0.998074
1.01634 1.01922 1 0.997173
1.02863 1.03179 1 0.996934
1.00066 1 1.00098 0.999684
1.004 1 1.00525 0.998763
1 1 1 1
1 1 1 1
0.999054 1 1 0.999054
1 1 1 1
0.999357 1 1 0.999357
0.999159 1 1 0.999159
0.998911 1.00094 1 0.99797
1 1 1 1
1.00012 1 1.00023 0.999886
0.999065 1 1 0.999065
0.999164 1 1 0.999164
1.00842 1.01089 1 0.997551
0.999766 1 1.0002 0.999569
1.00239 1.00452 1 0.997878
0.998394 1.00028 1 0.998117
1.00411 1.00683 1 0.997303
1.00033 1 1.0006 0.999727
0.999947 1 1 0.999947
1.00142 1 1.00241 0.999012
1.01046 1.01305 1 0.997442
1.00667 1.00898 1 0.997713
1.02436 1.0275 1 0.996937
0.998592 1 1.00022 0.998376
1.01118 1.01398 1 0.997231
1.00257 1.0046 1.00057 0.997409
1.01184 1.01475 1 0.997128
1 1 1 1
1 1 1 1
1 1 1 1
0.999958 1 1.00017 0.999792
1 1 1 1
1 1 1 1
1 1 1 1
0.998936 1 1 0.998936
0.998886 1 1 0.998886
1 1 1 1
1 1 1 1
0.998859 1 1 0.998859
0.99899 1 1 0.99899
1.00839 1.01112 1 0.997307
0.99896 1 1 0.99896
1.01059 1.01326 1 0.997367
0.998853 1 1 0.998853
1.00697 1.00973 1 0.997265
1.00923 1.01191 1 0.997348
1.03054 1.03379 1 0.996854
1.01085 1.0135 1 0.997389
1.03332 1.03655 1 0.996886
1 1 1 1
0.999721 1 1 0.999721
0.998667 1 1 0.998667
0.998888 1 1 0.998888
1 1 1 1
0.999328 1 1 0.999328
0.998987 1 1 0.998987
1.00868 1.0111 1 0.997605
1.00748 1.00963 1 0.997871
1.00447 1.00644 1 0.998036
1.01953 1.02246 1 0.997137
0.998877 1 1 0.998877
0.998877 1 1 0.998877
1.00704 1.00966 1 0.997402
1.00876 1.01118 1 0.997605
1 1 1 1
0.999506 1 1.00007 0.999436
1.00107 1.00294 1 0.998141
1.00836 1.01068 1 0.997697
1.02816 1.03129 1 0.996961
1.0157 1.01859 1 0.997164
1.02275 1.02572 1 0.997111
1.02822 1.03137 1 0.996942
1.00085 1 1.00118 0.999673
1.00341 1 1.00465 0.998765
1.00645 1.00919 1 0.997287
1.00762 1.01009 1 0.997552
1.02879 1.03195 1 0.996939
1.02878 1.03197 1 0.99691
1.02525 1.02825 1 0.997076
1.03801 1.04117 1 0.996967
1.00041 1 1.00085 0.999554
1.03081 1.03394 1 0.99697
0.9987 1.00034 1.00011 0.99825
1.00925 1.01201 1 0.997278
1.02623 1.0294 1 0.996925
1.03019 1.03325 1 0.997042
1.00289 1 1.00433 0.998566
1.00083 1 1.00182 0.999011
1.00323 1 1.00511 0.998133
0.999002 1 1 0.999002
1 1 1 1
0.999907 1 1 0.999907
0.999114 1 1 0.999114
1.00781 1.01028 1 0.997553
0.9999 1 1.00033 0.999574
0.998244 1.00009 1.00004 0.998116
1.00141 1.00354 1 0.997881
1.00442 1.00716 1 0.997287
1.00027 1 1.00052 0.999749
0.99996 1 1 0.99996
1.00172 1 1.00271 0.999014
1.01011 1.0127 1 0.997441
1.00577 1.00807 1 0.997717
1.02447 1.02762 1 0.996933
0.99865 1 1.00027 0.99838
1.01201 1.01482 1 0.997238
1.00196 1.0041 1.00047 0.997404
1.01266 1.01558 1 0.997116
0.999984 1 1 0.999984
1.00019 1 1.00152 0.998673
1.00056 1 1.00121 0.999344
1.002 1 1.00362 0.99838
1.02852 1.03174 1 0.996877
1.01883 1.02181 1 0.997084
1.03136 1.03466 1 0.996808
1.00016 1.00197 1.00049 0.997708
1.01958 1.02257 1 0.99708
1.01084 1.01221 1.00158 0.997076
1.02177 1.02485 1 0.997
0.999765 1 1 0.999765
1 1 1 1
1 1 1 1
1 1 1 1
1 1 1 1
0.999881 1 1 0.999881
1 1 1 1
1.00037 1 1.00059 0.999779
1 1 1 1
0.998961 1 1 0.998961
0.998915 1 1 0.998915
1.01088 1.01355 1 0.997367
1.00876 1.01148 1 0.997307
0.99886 1 1 0.99886
1 1 1 1
0.998852 1 1 0.998852
1.00724 1.01 1 0.997266
1.00963 1.01232 1 0.997348
1.03033 1.03359 1 0.996853
1.01087 1.01352 1 0.997387
1.03318 1.03641 1 0.996884
1.00634 1.00911 1 0.997261
1.02928 1.03256 1 0.996818
1.03231 1.03554 1 0.99688
1.044 1.04736 0.999771 0.997023
1.03227 1.0355 1 0.996876
1.04274 1.04591 1 0.99697
0.998875 1 1 0.998875
0.998873 1 1 0.998873
1.0069 1.00963 1 0.99729
1.00876 1.01115 1 0.997632
1 1 1 1
0.999457 1 1 0.999457
1.00195 1.00375 1 0.998208
1.0083 1.01063 1 0.997694
1.02809 1.03126 1 0.996933
1.02291 1.02583 1 0.997146
1.01507 1.01797 1 0.997154
1.02792 1.03107 1 0.996949
1.00103 1 1.00136 0.999662
1.00294 1 1.00418 0.998767
1.00638 1.00914 1 0.997264
1.00761 1.01008 1 0.997548
1.02874 1.03189 1 0.996949
1.02896 1.03212 1 0.996935
1.00021 1 1.00066 0.999543
0.999077 1.00077 1.00006 0.998248
1.00953 1.01225 1 0.997313
1.02555 1.02857 1 0.997066
1.03806 1.04118 1 0.996996
1.02567 1.02886 1 0.996897
1.03083 1.03396 1 0.996975
1.03046 1.03351 1 0.997041
1.00215 1 1.00358 0.998569
1.0034 1 1.00527 0.998136
1.00146 1 1.00245 0.999008
1.02803 1.03123 1 0.996896
1.02945 1.03258 1 0.996969
1.04286 1.04613 0.9999 0.996983
1.03956 1.04272 1 0.996964
1.03371 1.03681 1 0.997007
1.03641 1.0395 0.999781 0.997238
0.998979 1 1.00056 0.998424
1.0323 1.03526 1 0.997132
1.00192 1.00433 1 0.997598
1.0173 1.0205 1 0.996859
1.02703 1.0303 1 0.996819
1.02641 1.02923 1 0.997255
0.999764 1 1.00053 0.999238
0.998733 1 1.00067 0.998062
1.00568 1 1.00742 0.998267
1.00062 1.00005 1.00266 0.997921
1.00978 1.01237 1 0.99744
0.999972 1 1 0.999972
1.00002 1 1.00025 0.99977
1.00181 1 1.0028 0.999016
1.00486 1.00716 1 0.997722
1.02456 1.02772 1 0.99693
0.998631 1 1.00025 0.998384
1.00086 1.00314 1.00033 0.9974
1.0128 1.0156 1 0.997246
1.01294 1.01588 1 0.997104
0.999988 1 1 0.999988
1.00074 1 1.00207 0.998674
1.00012 1 1.00076 0.999353
1.00248 1 1.00411 0.998374
1.02843 1.03165 1 0.996873
1.0189 1.02188 1 0.997083
1.03111 1.03441 1 0.996805
0.999359 1.0012 1.00045 0.997714
1.01953 1.02251 1 0.997088
1.01055 1.01177 1.00173 0.997065
1.02181 1.02481 1 0.997073
0.999997 1 1 0.999997
0.999566 1 1 0.999566
0.999607 1.00024 1.00129 0.998076
1.00188 1 1.0032 0.998692
1.00054 1 1.00247 0.998077
1.03551 1.03881 1 0.996824
1.02556 1.02873 1 0.996919
1.0282 1.03142 1 0.996885
1.00484 1.00553 1.00199 0.997329
1.01982 1.02284 1 0.997044
1.01281 1.01519 1.00086 0.996804
0.999737 1 1 0.999737
0.99928 1 1 0.99928
0.999786 1 1 0.999786
0.999767 1 1 0.999767
1 1 1 1
1 1 1 1
1 1 1 1
1 1 1 1
1 1 1 1
0.999949 1 1 0.999949
1 1 1 1
0.999866 1 1 0.999866
1 1 1 1
1.00076 1 1.00099 0.999766
1 1 1 1
1.01084 1.01349 1 0.997385
1.00997 1.01265 1 0.997347
1.03281 1.03605 1 0.996882
1.0301 1.03335 1 0.996851
1.00759 1.01035 1 0.997266
0.998851 1 1 0.998851
1.00652 1.00929 1 0.99726
1.02903 1.03232 1 0.996818
1.03205 1.03528 1 0.996878
1.04358 1.04721 0.999489 0.997041
1.03165 1.03488 1 0.996873
1.04244 1.04561 1 0.996968
1.0283 1.03159 1 0.996809
1.04231 1.04642 0.999028 0.997041
1.04462 1.04779 0.999965 0.997008
1.04268 1.04838 0.997303 0.997252
1.03855 1.04178 1 0.996903
1.04161 1.04534 0.999145 0.997285
1.00635 1.00914 1 0.99724
1.00761 1.01009 1 0.997544
1.02872 1.03186 1 0.996959
1.02912 1.03226 1 0.996961
1.00001 1 1.00048 0.999533
0.999462 1.00122 1 0.998245
1.01003 1.01271 1 0.997348
1.02587 1.0289 1 0.997057
1.03812 1.04122 1 0.997024
1.03087 1.03399 1 0.996979
1.02495 1.02817 1 0.996869
1.03073 1.03379 1 0.99704
1.00143 1 1.00286 0.998571
1.00362 1 1.00549 0.998139
1.00192 1 1.00292 0.999006
1.02806 1.03129 1 0.996864
1.02966 1.03279 1 0.996966
1.04249 1.04583 0.999789 0.997016
1.0397 1.04288 1 0.996957
0.999114 1.00004 1.00065 0.998422
1.0034 1.00582 1 0.997592
1.01602 1.01914 1.00003 0.996908
1.03397 1.03709 1 0.996989
1.03647 1.03953 0.999776 0.997284
1.02734 1.03066 1 0.996784
1.03198 1.03494 1 0.997136
1.02688 1.02967 1 0.997287
0.999352 1.00014 1.00115 0.998063
1.00079 1.00013 1.00277 0.997898
1.0001 1 1.00087 0.999234
1.00522 1 1.00693 0.998302
1.04251 1.04594 0.999739 0.99699
1.04212 1.04535 0.999918 0.996996
1.04001 1.04571 0.997371 0.997165
1.03732 1.04204 0.998167 0.9973
1.03422 1.03708 1 0.997235
1.03347 1.03805 0.998123 0.997464
0.9986 1.00071 1 0.997887
1.02769 1.03045 0.99986 0.997461
1.00712 1.00998 1 0.99717
1.01736 1.02061 1.00018 0.996636
1.02841 1.03174 1 0.996778
1.02695 1.02971 1 0.997325
0.999413 1 1 0.999413
1.0028 1 1.0043 0.998508
0.998231 1.0004 1 0.997832
1.00368 1 1.00566 0.998024
1.00031 1.00029 1.00215 0.997863
0.999993 1 1 0.999993
1.02828 1.03151 1 0.996868
0.999689 1 1.00033 0.999361
1.00153 1 1.00286 0.998675
1.0031 1 1.00474 0.998369
1.01901 1.02199 1 0.997083
1.03089 1.0342 1 0.996803
0.998736 1.00051 1.00051 0.99772
1.01122 1.01225 1.00193 0.997054
1.01957 1.02254 1 0.997096
1.02214 1.02507 1 0.997146
0.999998 1 1 0.999998
0.999574 1 1 0.999574
0.999267 1.00009 1.0011 0.998078
1.00229 1 1.0036 0.998691
1.00085 1 1.0028 0.998056
1.03551 1.03881 1 0.996819
1.02566 1.02883 1 0.996918
1.02813 1.03135 1 0.996874
1.00391 1.00445 1.00213 0.997335
1.0224 1.02543 1 0.997045
1.01273 1.01498 1.00096 0.996823
0.999682 1 1 0.999682
0.999709 1 1.00073 0.998984
0.999605 1.00138 1.00048 0.997749
1.00328 1 1.00496 0.998329
0.999633 1 1.00166 0.99798
1.03305 1.03618 1 0.996974
1.02316 1.02631 1 0.996936
1.02689 1.0299 1 0.997079
1.00253 1.00161 1.00379 0.997138
1.01088 1.01421 1 0.996722
0.99974 1 1 0.99974
0.99921 1 1 0.99921
0.999257 1 1 0.999257
0.999019 1 1 0.999019
0.999293 1 1 0.999293
0.999795 1 1 0.999795
0.999788 1 1 0.999788
1 1 1 1
0.999769 1 1 0.999769
1 1 1 1
1 1 1 1
1 1 1 1
1 1 1 1
1 1 1 1
0.999988 1 1 0.999988
0.999933 1 1 0.999933
1 1 1 1
1 1 1 1
0.99985 1 1 0.99985
1 1 1 1
1.03113 1.03437 1 0.996869
1.03199 1.03523 1 0.996876
1.04227 1.04544 1 0.996966
1.04323 1.04715 0.999193 0.997059
1.02869 1.03197 1 0.996818
1.00661 1.00938 1 0.99726
1.02813 1.03142 1 0.99681
1.04234 1.04637 0.99911 0.997036
1.0442 1.04736 0.999974 0.997008
1.04209 1.04826 0.996827 0.997284
1.03925 1.04248 1 0.996896
1.0411 1.04521 0.998761 0.997307
1.04208 1.04597 0.999264 0.99701
1.04134 1.04771 0.996687 0.997223
1.04141 1.04707 0.997252 0.997335
1.03898 1.04736 0.994577 0.997413
1.03834 1.04137 0.999937 0.997153
1.03907 1.04508 0.996736 0.997513
1.02796 1.03123 1 0.996833
1.02984 1.03297 1 0.996964
1.04204 1.04548 0.999662 0.997048
1.0398 1.04298 1 0.99695
0.999296 1.00014 1.00074 0.99842
1.00466 1.00709 1 0.997586
1.01474 1.01765 1.00018 0.996956
1.03423 1.03738 1 0.996972
1.03648 1.03951 0.999756 0.997331
1.03162 1.03458 1 0.997139
1.02772 1.03107 1 0.996748
1.02699 1.02975 1 0.997318
1.00001 1.00034 1.00161 0.998065
1.00105 1.00028 1.0029 0.997875
1.00045 1 1.00122 0.999229
1.00439 1 1.00607 0.998336
1.04242 1.04584 0.999737 0.99699
1.04178 1.04499 0.999952 0.996974
1.03991 1.04558 0.997367 0.997198
1.03782 1.0421 0.998606 0.997282
0.999445 1.00157 1 0.997879
1.0062 1.00898 1.00003 0.997215
1.01792 1.02097 1.00039 0.996627
1.03359 1.0365 0.999997 0.997192
1.03286 1.03741 0.998086 0.997522
1.02642 1.02975 1 0.996764
1.02875 1.03146 0.999916 0.997463
1.02774 1.03044 1 0.997379
0.998787 1.00096 1 0.99783
0.999864 1.00054 1.00146 0.997869
1.00419 1 1.00618 0.998017
0.99951 1 1.00013 0.999377
1.00251 1 1.00398 0.998541
1.03989 1.04678 0.996198 0.997212
1.03837 1.04458 0.996805 0.99725
1.03369 1.0415 0.994983 0.99751
1.02989 1.03449 0.998016 0.997532
1.00047 1.00288 1 0.997599
1.03259 1.03527 0.999773 0.997639
1.00465 1.00748 1.00029 0.996912
1.01584 1.01898 1.00051 0.996415
1.02424 1.02757 1 0.996755
0.999518 1 1 0.999518
1.00063 1 1.00182 0.998811
1.00296 1 1.0047 0.998268
0.999304 1.00154 1 0.997767
1.00408 1 1.0063 0.997793
0.999429 1.00067 1.001 0.997756
0.999999 1 1 0.999999
0.999583 1 1 0.999583
1.03553 1.03884 1 0.996813
1.00282 1 1.00413 0.998691
0.998798 1 1.00072 0.99808
1.00133 1 1.0033 0.998035
1.02564 1.02881 1 0.996916
1.02788 1.03111 1 0.996863
1.00267 1.00305 1.00229 0.99734
1.01181 1.01423 1.00077 0.996842
1.0249 1.02794 1 0.997047
0.999687 1 1 0.999687
0.999543 1 1.00056 0.998988
0.999084 1.00093 1.00041 0.997746
1.00419 1 1.00587 0.998325
0.999629 1 1.00165 0.997981
1.03308 1.03622 1 0.996967
1.02345 1.02661 1 0.996925
1.02659 1.02957 1 0.997105
1.00291 1.00258 1.00324 0.997099
1.00976 1.01306 1.00006 0.996693
0.999168 1 1 0.999168
1.0025 1 1.00394 0.998565
1.0014 1.00179 1.002 0.997623
1.00269 1 1.00462 0.998078
0.999176 1.00031 1.001 0.997876
1.03318 1.0361 0.999743 0.997436
1.0218 1.02503 1 0.99684
1.02305 1.026 1 0.997119
1.00437 1.00311 1.00433 0.996943
1.00254 1.00605 1 0.996505
0.999743 1 1 0.999743
0.999228 1 1 0.999228
0.998939 1 1 0.998939
0.999233 1 1 0.999233
0.999292 1 1 0.999292
0.998988 1 1 0.998988
0.99886 1 1 0.99886
0.998941 1 1 0.998941
0.9993 1 1 0.9993
0.99979 1 1 0.99979
0.999795 1 1 0.999795
1 1 1 1
0.999789 1 1 0.999789
1 1 1 1
1 1 1 1
1 1 1 1
1 1 1 1
1 1 1 1
1 1 1 1
0.999979 1 1 0.999979
1 1 1 1
0.999918 1 1 0.999918
1 1 1 1
1 1 1 1
1.0399 1.04314 1 0.996889
1.04361 1.04674 0.999996 0.997008
1.04061 1.0451 0.998372 0.99733
1.04145 1.04809 0.99634 0.997316
1.04241 1.04635 0.999209 0.99703
1.02811 1.0314 1 0.996811
1.04232 1.04603 0.999461 0.99699
1.04167 1.04776 0.996958 0.997215
1.04161 1.04701 0.997514 0.997318
1.03834 1.04707 0.994221 0.997426
1.03774 1.04075 0.999961 0.997153
1.03759 1.04415 0.996147 0.997555
1.04132 1.0474 0.996982 0.997198
1.03964 1.04855 0.994084 0.997407
1.0389 1.04811 0.993676 0.99752
1.03588 1.04193 0.996598 0.997589
1.04243 1.04585 0.999736 0.99699
1.0415 1.04469 1 0.996952
1.03985 1.04545 0.997404 0.997231
1.0384 1.04224 0.999043 0.997265
1.00027 1.0024 1 0.997872
1.0053 1.00806 1 0.99726
1.01837 1.02123 1.00058 0.996617
1.03293 1.03588 1 0.997149
1.03225 1.03677 0.998054 0.997579
1.03001 1.03266 0.999962 0.997465
1.02481 1.02815 1 0.99675
1.02938 1.03203 1 0.997432
0.999243 1.00142 1 0.997827
0.999285 1.00072 1.00069 0.997874
1.00551 1 1.00751 0.99801
0.999635 1 1.00029 0.99934
1.00241 1 1.00384 0.998574
1.04037 1.04717 0.996283 0.997214
1.03851 1.04476 0.996762 0.997246
1.03355 1.04084 0.995477 0.9975
1.00113 1.00355 1 0.997592
1.00498 1.00779 1.00026 0.996957
1.01497 1.01785 1.00076 0.996404
1.03041 1.03497 0.998066 0.997519
1.02537 1.02861 1 0.99685
1.02958 1.03249 0.99957 0.99761
0.999542 1 1 0.999542
0.999988 1.00224 1 0.997755
0.998659 1.00027 1.00051 0.997881
1.00484 1 1.00708 0.997778
1.00314 1 1.00486 0.998287
1.00056 1 1.00178 0.998779
1.03774 1.04699 0.993849 0.997298
1.03626 1.04754 0.99178 0.997429
1.02788 1.03916 0.991531 0.997596
1.03126 1.03858 0.995204 0.997737
1.00209 1.00469 1 0.997412
1.02427 1.02711 1 0.99724
1.0034 1.00528 1.00165 0.996486
1.00818 1.01092 1.00104 0.996253
0.999707 1 1 0.999707
0.999212 1 1.00017 0.999042
1.00112 1 1.00263 0.998487
1.00434 1 1.00644 0.997914
1.00021 1.00235 1.00027 0.997599
1.0056 1.00003 1.00801 0.997575
0.999692 1 1 0.999692
0.999261 1 1.00027 0.998992
1.03332 1.03647 1 0.996961
1.00457 1 1.00626 0.99832
0.998418 1.00041 1.00027 0.997742
0.999504 1 1.00152 0.997982
1.02401 1.02718 1 0.996914
1.02664 1.02959 1 0.997131
1.00357 1.00378 1.00273 0.99706
1.00865 1.01175 1.00027 0.996664
0.999171 1 1 0.999171
1.00249 1 1.00393 0.998564
1.00119 1.00158 1.00198 0.997632
1.00255 1 1.00447 0.998086
0.998646 1.00021 1.00048 0.997964
1.03381 1.03693 0.999514 0.997479
1.0212 1.02442 1 0.996854
1.02455 1.02744 1 0.997191
1.00381 1.00233 1.00458 0.996905
1.00311 1.00666 1.00003 0.996445
0.998919 1 1.00008 0.998844
1.00356 1 1.00537 0.9982
1.00305 1.00178 1.00378 0.997485
0.99947 1.00011 1.00161 0.997757
1.03329 1.04814 0.988085 0.997726
1.02732 1.03 0.999872 0.997534
1.01258 1.01604 1 0.996598
1.00413 1.00336 1.00426 0.996526
0.999246 1 1 0.999246
0.998952 1 1 0.998952
0.998842 1 1 0.998842
0.999291 1 1 0.999291
0.998957 1 1 0.998957
0.999298 1 1 0.999298
0.998852 1 1 0.998852
0.998954 1 1 0.998954
0.998813 1 1 0.998813
0.998771 1 1 0.998771
0.998908 1 1 0.998908
0.999282 1 1 0.999282
0.999774 1 1 0.999774
0.999789 1 1 0.999789
1 1 1 1
0.999796 1 1 0.999796
1 1 1 1
1 1 1 1
1 1 1 1
1 1 1 1
1 1 1 1
1 1 1 1
0.999998 1 1 0.999998
1 1 1 1
0.99997 1 1 0.99997
1 1 1 1
1 1 1 1
1.03705 1.04001 1 0.997153
1.04183 1.047 0.997759 0.9973
1.03614 1.04326 0.995563 0.997598
1.03774 1.04683 0.993854 0.997438
1.04201 1.04783 0.997227 0.997207
1.04246 1.04601 0.99964 0.996969
1.04116 1.04734 0.996898 0.997197
1.03934 1.04811 0.994223 0.997398
1.03815 1.04742 0.993617 0.99752
1.03753 1.04331 0.99685 0.997598
1.03998 1.04844 0.994569 0.99735
1.04051 1.0534 0.990176 0.997567
1.0405 1.05185 0.991543 0.997649
1.04083 1.04755 0.996351 0.997216
1.0386 1.04492 0.996696 0.997241
1.03345 1.04017 0.99604 0.99749
1.00188 1.00431 1 0.997585
1.00512 1.00796 1.00018 0.997002
1.01389 1.01671 1.00085 0.996393
1.03093 1.03544 0.998133 0.997506
1.02626 1.02931 0.999457 0.997581
1.02573 1.02887 1 0.996945
1.00023 1.00249 1 0.997743
0.998006 1 1 0.998006
1.00535 1 1.00761 0.997764
0.999566 1 1 0.999566
1.00254 1 1.00424 0.998305
1.00045 1 1.00171 0.998747
1.03838 1.04741 0.994059 0.997305
1.03588 1.04744 0.991511 0.997437
1.02805 1.03873 0.992112 0.997588
1.00123 1.00384 1 0.997402
1.00321 1.00526 1.0014 0.996567
1.00816 1.01098 1.0009 0.996314
1.03143 1.03839 0.995542 0.997743
1.02373 1.02679 0.999799 0.997223
0.999758 1 1 0.999758
0.999155 1 1.00011 0.999041
0.998912 1.00127 1 0.997649
1.0078 1.00029 1.00984 0.997698
1.00432 1 1.00639 0.997949
1.00101 1 1.00256 0.99846
1.03817 1.05086 0.990409 0.997487
1.02848 1.04638 0.985299 0.997555
1.02594 1.0389 0.989715 0.997785
1.02164 1.02926 0.994817 0.997759
1.00141 1.00343 1.00091 0.997082
1.00685 1.00898 1.0014 0.996486
1.00282 1.00391 1.00264 0.996277
0.999877 1 1 0.999877
0.999443 1 1 0.999443
0.999206 1 1 0.999206
0.999085 1 1.00046 0.998627
1.00161 1 1.00346 0.998165
1.00793 1 1.01016 0.997795
0.998339 1.00065 1 0.997693
1.02902 1.00031 1.03087 0.997893
0.999174 1 1 0.999174
1.00277 1 1.00421 0.998564
1.03436 1.03767 0.999289 0.997521
1.00289 1 1.0048 0.998094
1.00125 1.00145 1.00215 0.997643
0.998165 1.00008 1.00004 0.998052
1.02019 1.0234 1 0.996867
1.0258 1.02862 1 0.997264
1.0034 1.00173 1.00482 0.996868
1.00381 1.00745 1 0.996385
0.999045 1 1.00023 0.998818
1.00341 1 1.00521 0.998215
1.00341 1.00176 1.00415 0.997515
0.999382 1.00018 1.00142 0.997792
1.03524 1.04959 0.988553 0.997744
1.02715 1.02979 0.999949 0.997487
1.01366 1.01707 1 0.996641
1.00509 1.00486 1.00377 0.996476
0.999714 1 1.0011 0.998612
1.03283 1.05279 0.983252 0.99775
1.00142 1 1.00353 0.997898
1.00218 1.00228 1.00268 0.997233
1.03201 1.04005 0.994421 0.997836
1.01271 1.01603 1 0.996738
1.00544 1.00592 1.00323 0.996304
0.998965 1 1 0.998965
0.998835 1 1 0.998835
0.99881 1 1 0.99881
0.999297 1 1 0.999297
0.998967 1 1 0.998967
0.998843 1 1 0.998843
0.99928 1 1 0.99928
0.998912 1 1 0.998912
0.998809 1 1 0.998809
0.998792 1 1 0.998792
0.998817 1 1 0.998817
0.998737 1 1 0.998737
0.998807 1 1.00011 0.998701
0.998873 1 1 0.998873
0.999236 1 1 0.999236
0.999751 1 1 0.999751
0.999772 1 1 0.999772
1 1 1 1
0.999788 1 1 0.999788
1 1 1 1
1 1 1 1
1 1 1 1
1 1 1 1
1 1 1 1
0.999904 1 1 0.999904
1 1 1 1
1 1 1 1
1 1 1 1
0.999996 1 1 0.999996
1 1 1 1
1 1 1 1
1.03918 1.04473 0.997077 0.997606
1.03738 1.04664 0.993614 0.997519
1.03901 1.04764 0.994361 0.997389
1.04103 1.04727 0.996836 0.997196
1.03961 1.04837 0.994259 0.997369
1.04057 1.053 0.990609 0.997556
1.03922 1.05089 0.991217 0.997658
1.04018 1.05323 0.990038 0.997544
1.04667 1.06107 0.988733 0.997669
1.03299 1.0529 0.98314 0.997914
1.03905 1.04784 0.994284 0.997312
1.03549 1.04737 0.991187 0.997445
1.02806 1.03828 0.992552 0.997581
1.00117 1.00373 1.00006 0.997393
1.00342 1.00552 1.00126 0.996649
1.00875 1.01163 1.00078 0.996376
1.03169 1.03833 0.995839 0.997749
1.02341 1.02676 0.999532 0.997206
0.998282 1.00058 1 0.9977
1.01022 1.00067 1.01174 0.99782
1.00512 1 1.00715 0.997985
0.999809 1 1 0.999809
0.999129 1 1.00009 0.999041
1.00121 1 1.00279 0.998432
1.03813 1.05116 0.990088 0.997499
0.999873 1 1 0.999873
0.999415 1 1 0.999415
1.02844 1.04557 0.986024 0.997555
1.02531 1.0388 0.989243 0.997754
1.00099 1.00274 1.00109 0.997172
1.00342 1.00388 1.0033 0.996261
1.00752 1.01023 1.00084 0.996482
1.02047 1.02834 0.994601 0.997737
0.999279 1 1 0.999279
0.999163 1 1.00054 0.998622
0.999265 1.00098 1.00069 0.9976
1.02366 1.00032 1.02534 0.998044
1.00628 1 1.00849 0.997805
1.00212 1 1.00394 0.998184
1.04522 1.05954 0.988829 0.997628
1.01253 1.04379 0.972286 0.997695
1.019 1.03407 0.987457 0.997946
1.00388 1.0122 0.994315 0.997454
1.00184 1.00111 1.00353 0.997206
1.00347 1.00184 1.00547 0.996184
0.999409 1 1 0.999409
0.999394 1 1 0.999394
0.999126 1 1 0.999126
0.998735 1 1 0.998735
0.999921 1 1.00153 0.998393
1.00094 1 1.00306 0.997883
1.03882 1 1.04111 0.9978
1.00232 1.00046 1.00381 0.99806
0.999235 1 1.00044 0.998791
1.00283 1 1.00461 0.99823
1.03656 1.05021 0.989214 0.997762
1.02694 1.02957 1 0.997441
0.999235 1.00026 1.00115 0.997828
1.00372 1.00177 1.00441 0.997544
1.0151 1.01844 1.00004 0.996684
1.00594 1.00617 1.00335 0.996426
0.999876 1 1.00128 0.9986
1.03465 1.05521 0.982681 0.997792
1.00151 1 1.0036 0.997917
1.00187 1.002 1.00269 0.997184
1.03068 1.03932 0.993871 0.997809
1.01283 1.01608 1 0.996807
1.00571 1.00593 1.00348 0.99632
1.00112 1 1.00284 0.998289
1.01739 1.03749 0.982392 0.998201
1.00197 1.00222 1.00211 0.997644
1.00334 1.00273 1.00379 0.99683
1.01549 1.02263 0.995577 0.997427
1.00202 1.00333 1.00221 0.99649
0.992169 1.00543 0.988821 0.997963
0.998827 1 1 0.998827
0.999054 1 1.00025 0.998807
0.998805 1 1.0001 0.998702
0.999277 1 1 0.999277
0.998917 1 1 0.998917
0.998814 1 1 0.998814
0.998805 1 1 0.998805
0.999235 1 1 0.999235
0.998863 1 1 0.998863
0.998786 1 1 0.998786
0.998732 1 1.00003 0.998702
0.998737 1 1 0.998737
0.99877 1 1 0.99877
0.99885 1 1.00031 0.998538
0.998939 1 1.00025 0.998686
0.998776 1 1 0.998776
0.999134 1 1 0.999134
0.998932 1 1 0.998932
0.999117 1 1 0.999117
0.999738 1 1 0.999738
0.99975 1 1 0.99975
1 1 1 1
0.99977 1 1 0.99977
1 1 1 1
1 1 1 1
1 1 1 1
1 1 1 1
1 1 1 1
0.999925 1 1 0.999925
0.999903 1 1 0.999903
1 1 1 1
1 1 1 1
1 1 1 1
1 1 1 1
1 1 1 1
1 1 1 1
1.0381 1.05018 0.990812 0.997668
1.04058 1.05266 0.990952 0.997546
1.03924 1.04831 0.993947 0.997388
1.04017 1.05317 0.990093 0.997543
1.04464 1.05903 0.988722 0.997666
1.03327 1.0521 0.98421 0.997858
1.0468 1.06375 0.986305 0.997733
0.983374 1.01605 0.971055 0.996688
1.009 1.03459 0.976691 0.998535
0.999511 1 1 0.999511
1.03808 1.05142 0.98978 0.997511
1.02866 1.04484 0.986922 0.997556
1.02482 1.03875 0.988842 0.997723
0.999631 1.00155 1.00082 0.997262
1.00376 1.00351 1.00402 0.996244
1.00806 1.01117 1.00045 0.996479
1.01913 1.02714 0.994472 0.997716
0.998756 1.00125 1 0.997508
1.01764 1 1.01948 0.998198
1.00441 1 1.00661 0.997816
0.999868 1 1 0.999868
1.00241 1 1.00422 0.998202
0.99935 1 1 0.99935
0.999063 1 1.00045 0.998616
0.999388 1 1 0.999388
1.04278 1.05982 0.986246 0.997635
0.999446 1 1 0.999446
0.999392 1 1 0.999392
0.999089 1 1 0.999089
1.01567 1.04362 0.975461 0.997695
1.01954 1.03468 0.987435 0.997901
1.00035 1.00106 1.00207 0.99723
1.00383 1.00201 1.00556 0.996273
1.00302 1.01035 0.995288 0.997442
0.998779 1 1 0.998779
0.999956 1 1.0016 0.998355
1.00716 1.00028 1.00893 0.997974
1.03141 1 1.03364 0.997836
1.00085 1 1.00294 0.997919
1.03014 1.051 0.982381 0.997728
1.00566 1.04059 0.968534 0.997827
1.01121 1.02112 0.992648 0.997631
0.995308 1.00406 0.994049 0.997215
1.00327 1 1.00567 0.997613
0.999016 1 1 0.999016
0.998928 1 1 0.998928
0.998911 1 1.0001 0.998812
0.999236 1 1.00072 0.998516
1.00087 1 1.00268 0.998198
1.02681 1 1.02899 0.997883
1.02554 1 1.02776 0.997834
0.999908 1 1.00132 0.998587
1.00158 1 1.00365 0.997937
1.03577 1.05833 0.980807 0.997834
1.02949 1.03892 0.993128 0.997783
1.01266 1.01583 1 0.996876
1.00158 1.00177 1.00268 0.997136
1.00569 1.00576 1.0036 0.996337
1.00109 1 1.00276 0.99833
1.01535 1.03749 0.980401 0.998225
1.00062 1.00149 1.00147 0.997662
1.0028 1.00189 1.00408 0.996838
1.01556 1.02276 0.995424 0.997528
1.00196 1.00277 1.00273 0.996478
0.99141 1.00504 0.989199 0.997204
1.00091 1.00031 1.00245 0.998144
1.00703 1.02079 0.988311 0.99818
1.00068 1.00111 1.00194 0.99763
1.00443 1.00105 1.00644 0.996963
0.995382 1.0058 0.992389 0.997232
0.938885 0.98225 0.974532 0.980832
0.945865 0.979024 0.975586 0.990308
0.982085 0.99178 0.992212 0.997997
0.795407 0.869603 0.944776 0.968142
0.730644 0.850683 0.894757 0.959916
0.99913 1 1.00033 0.998804
0.999205 1 1.00047 0.998738
0.998973 1 1.00024 0.998729
0.999235 1 1 0.999235
0.998853 1 1 0.998853
0.998702 1 1 0.998702
0.998736 1 1 0.998736
0.998756 1 1 0.998756
0.99958 1 1.00092 0.998662
0.999163 1 1 0.999163
0.998793 1 1 0.998793
0.998752 1 1 0.998752
0.999205 1 1.00065 0.99856
1.00077 1 1.0022 0.998571
1.00087 1 1.00228 0.998595
0.99973 1 1.00114 0.998592
0.998739 1 1 0.998735
0.999111 1 1 0.999111
0.998812 1 1 0.998812
0.998758 1 1 0.998758
0.998926 1 1 0.998926
0.998896 1 1 0.998896
0.99921 1 1 0.99921
0.999115 1 1 0.999115
0.999733 1 1 0.999733
0.999738 1 1 0.999738
1 1 1 1
0.999748 1 1 0.999748
1 1 1 1
1 1 1 1
1 1 1 1
1 1 1 1
1 1 1 1
0.99994 1 1 0.99994
0.999921 1 1 0.999921
1 1 1 1
0.999901 1 1 0.999901
1 1 1 1
1 1 1 1
1 1 1 1
1 1 1 1
1 1 1 1
1.04238 1.05678 0.988684 0.997663
1.04019 1.0531 0.990176 0.997541
1.03414 1.05156 0.985599 0.997803
0.987399 1.01587 0.975147 0.996749
1.044 1.06119 0.986034 0.997731
1.01841 1.03747 0.983181 0.998423
1.03561 1.04585 0.992362 0.997834
0.94399 0.982502 0.971038 0.989459
0.997666 1.01935 0.981307 0.997369
0.999519 1 1 0.999519
0.999509 1 1 0.999509
0.999121 1 1 0.999121
0.99917 1 1 0.99917
1.04073 1.06002 0.984123 0.997643
1.01814 1.04299 0.978429 0.997695
1.01974 1.03503 0.987348 0.997855
0.999257 1.00073 1.00128 0.997254
1.00407 1.00236 1.00536 0.996361
1.00227 1.00902 0.995866 0.99743
1.0129 1 1.01505 0.997886
1.02451 1 1.0267 0.997872
1.00051 1 1.00256 0.997956
0.999391 1 1 0.999391
0.999914 1 1.0016 0.998317
0.998823 1 1 0.998823
0.999483 1 1 0.999483
0.999051 1 1 0.999051
1.02758 1.05067 0.980235 0.997743
0.999062 1 1 0.999062
0.998975 1 1 0.998975
0.998907 1 1 0.998907
1.00894 1.04282 0.969618 0.997825
1.01006 1.02066 0.991962 0.997629
1.00293 1.00005 1.00529 0.997596
0.996666 1.00451 0.994913 0.997265
0.999278 1 1.00079 0.998492
1.00055 1 1.00242 0.998133
1.02906 1.00022 1.03108 0.997821
1.02764 1 1.02987 0.997838
1.00063 1.03734 0.966652 0.997884
0.999603 1.02812 0.974411 0.997793
1.00341 1.00834 0.997778 0.99732
0.989818 1.00039 0.991397 0.998023
0.998684 1 1 0.998684
0.999623 1 1.001 0.998622
1.00927 1 1.01091 0.998373
1.04471 1 1.04704 0.997774
0.914978 0.971036 0.962444 0.979039
1.00141 1 1.00305 0.998371
0.999458 1.00069 1.00109 0.99768
1.01451 1.03732 0.979728 0.99825
1.01588 1.02315 0.995258 0.997629
1.00225 1.0025 1.0033 0.996465
1.00251 1.00121 1.00447 0.996845
0.99217 1.00518 0.990589 0.996429
1.00055 1.00014 1.00222 0.998192
1.00737 1.02144 0.988039 0.998169
1.00015 1.00108 1.00144 0.997644
1.00433 1.00127 1.00611 0.996962
0.998009 1.0068 0.994004 0.997245
0.938032 0.987168 0.970506 0.979103
0.941319 0.976677 0.975525 0.987978
0.982159 0.99032 0.99373 0.998016
0.794827 0.867098 0.946377 0.968591
0.715533 0.839774 0.890673 0.956641
0.999838 1.00003 1.00142 0.998392
0.823253 0.890025 0.953524 0.970063
0.77261 0.855552 0.939305 0.961407
0.989785 1.00713 0.984668 0.998075
1.00601 1.00108 1.00702 0.997924
1.01221 1.00434 1.01039 0.997479
0.974044 0.986095 0.989551 0.998209
0.932882 0.970005 0.982027 0.97933
0.920628 0.95233 0.979615 0.986827
0.776931 0.868515 0.922438 0.969768
0.791993 0.899232 0.916647 0.960832
0.999761 1 1.00099 0.998774
0.999829 1 1.00112 0.99871
1.0005 1 1.00159 0.998903
0.999192 1 1 0.999192
0.99881 1 1 0.99881
0.999769 1 1.00113 0.998638
0.999735 1 1.00116 0.998582
0.998733 1 1 0.998733
0.999112 1 1 0.999112
1.00043 1 1.00187 0.998563
1.00011 1 1.00151 0.998608
0.998766 1 1 0.998766
1.00048 1 1.00187 0.998606
1.00242 1 1.00385 0.998573
1.00409 1 1.00543 0.99867
0.99869 1 1.00012 0.998565
0.998774 1 1 0.998774
0.998808 1 1 0.998808
0.998753 1 1 0.998753
0.998632 1 1 0.998632
0.999148 1 1.00039 0.998759
0.999148 1 1.00043 0.99872
1.00046 1 1.00189 0.998572
0.999318 1 1.00043 0.998893
0.999002 1 1.00008 0.998926
0.999236 1 1 0.999236
0.998861 1 1 0.998861
0.999185 1 1 0.999185
0.999727 1 1 0.999727
0.999112 1 1 0.999112
0.999734 1 1 0.999734
1 1 1 1
0.999738 1 1 0.999738
1 1 1 1
1 1 1 1
1 1 1 1
1 1 1 1
1 1 1 1
0.999484 1 1 0.999484
0.99994 1 1 0.99994
0.999937 1 1 0.999937
1 1 1 1
0.999918 1 1 0.999918
1 1 1 1
1 1 1 1
1 1 1 1
1 1 1 1
1 1 1 1
0.990386 1.01578 0.978111 0.996816
1.04189 1.0585 0.98655 0.99773
1.02414 1.04026 0.986173 0.998308
0.938038 0.97624 0.970094 0.99049
0.998151 1.01907 0.981924 0.997503
1.03664 1.04914 0.990266 0.99779
1.0131 1.02592 0.990091 0.997385
0.952924 0.97746 0.983209 0.991547
0.937715 0.979964 0.977448 0.978965
0.784681 0.865062 0.935817 0.969294
0.705701 0.817982 0.8994 0.959233
0.999119 1 1 0.999119
0.999518 1 1 0.999518
0.999506 1 1 0.999506
0.999109 1 1 0.999109
0.998875 1 1 0.998875
0.998907 1 1 0.998907
0.999084 1 1 0.999084
0.999138 1 1 0.999138
1.02438 1.05067 0.977171 0.997757
1.01329 1.04612 0.970734 0.997821
1.00925 1.02022 0.991595 0.997628
1.00277 1.00027 1.00493 0.99758
0.998104 1.00456 0.996243 0.997316
1.03155 1 1.03381 0.997808
1.02902 1 1.0313 0.997794
1.00042 1 1.00235 0.998069
0.999022 1 1 0.999022
0.999153 1 1.00069 0.998467
0.999109 1 1 0.999109
0.999002 1 1 0.999002
1.00137 1.03798 0.966775 0.997883
0.998743 1 1.00003 0.998713
0.999118 1 1.00046 0.998659
0.999454 1.02736 0.975008 0.997769
1.00044 1.00784 0.995209 0.997442
0.992219 1.00078 0.993508 0.997924
1.0134 1 1.01517 0.998258
1.04026 1 1.04256 0.997793
0.993432 1.02674 0.969626 0.997868
0.985526 1.00849 0.979364 0.997825
0.984684 1.00101 0.985811 0.997851
0.99647 1.00036 0.997972 0.998133
1.0005 1 1.0021 0.998407
1.00493 1 1.00654 0.998397
1.03968 1 1.04171 0.998058
0.81546 0.89789 0.935193 0.971131
0.931884 0.97667 0.971939 0.981692
0.99985 1 1.00161 0.998241
0.999636 1.00092 1.00107 0.997657
1.00776 1.02207 0.98781 0.998159
1.00036 1.00776 0.995385 0.997258
1.0043 1.00164 1.00571 0.996962
0.932444 0.976634 0.974969 0.979265
0.947898 0.983586 0.974829 0.988601
0.982275 0.988742 0.995423 0.998027
0.794101 0.86875 0.942047 0.970305
0.702973 0.829064 0.889463 0.953285
0.9999 1.00003 1.00148 0.99839
0.818731 0.894657 0.942848 0.970606
0.763702 0.847079 0.939364 0.959768
0.990673 1.00791 0.984799 0.998072
1.00597 1.00132 1.00671 0.99795
1.01046 1.00267 1.01017 0.997632
0.966333 0.979874 0.98782 0.998339
0.938031 0.979061 0.980238 0.977409
0.920884 0.956251 0.973681 0.989046
0.779904 0.864149 0.932208 0.968143
0.789615 0.902666 0.911219 0.959987
1.00153 1 1.00279 0.998749
0.803653 0.866612 0.962967 0.963013
0.876514 0.933358 0.968617 0.969524
0.990066 0.999052 0.992294 0.998701
1.01392 1.00262 1.01262 0.998666
0.97613 0.970326 1.00772 0.998276
0.911645 0.939675 0.979847 0.990124
0.910776 0.944659 0.98718 0.976653
0.788354 0.86761 0.937916 0.968797
0.826849 0.932365 0.920234 0.9637
1.00061 1 1.00192 0.998692
1.00044 1 1.00157 0.998871
1.00403 1 1.00493 0.999105
0.999113 1 1 0.999113
0.998797 1 1 0.998797
1.00069 1 1.00206 0.998624
1.00056 1 1.00201 0.998556
1.00029 1 1.00168 0.998617
0.998773 1 1 0.998773
1.00121 1 1.00264 0.998568
0.998693 1 1.00013 0.998567
1.00501 1 1.0063 0.998715
1.02008 0.999598 1.0214 0.999113
1.00144 1 1.00287 0.99857
0.99853 1 1 0.99853
0.998805 1 1 0.998805
0.998748 1 1 0.998748
0.998701 1 1.00007 0.998627
0.999193 1 1.00044 0.998751
0.999066 1 1.0003 0.998765
1.00036 1 1.00168 0.998687
0.999122 1 1.00048 0.998638
1.00026 1 1.0015 0.99876
0.99878 1 1.00025 0.998526
0.99894 1 1.00093 0.998013
1.00041 1 1.00195 0.998456
1.0004 1 1.00183 0.99857
1.00023 1 1.00142 0.998812
0.999623 1 1.00073 0.998891
0.999225 1 1 0.999225
0.999182 1 1.00026 0.998925
0.999237 1 1 0.999237
0.999723 1 1 0.999723
0.99916 1 1 0.99916
0.999728 1 1 0.999728
1 1 1 1
0.999734 1 1 0.999734
1 1 1 1
1 1 1 1
1 1 1 1
1 1 1 1
1 1 1 1
0.9995 1 1 0.9995
0.999925 1 1 0.999925
0.999485 1 1 0.999485
1 1 1 1
0.999941 1 1 0.999941
0.999934 1 1 0.999934
1 1 1 1
1 1 1 1
1 1 1 1
1 1 1 1
1 1 1 1
0.815077 0.885359 0.950159 0.968909
0.770925 0.854345 0.938424 0.961568
0.940275 0.980655 0.96755 0.990981
0.999417 1.01871 0.98338 0.99764
1.03967 1.05256 0.989985 0.997746
0.935996 0.963718 0.97816 0.992919
1.01181 1.02534 0.989283 0.997487
0.946475 0.989424 0.975897 0.980218
0.791127 0.869215 0.939887 0.968374
0.701361 0.822178 0.892397 0.955912
0.966896 0.996339 0.975602 0.994718
0.936243 0.973212 0.981791 0.979854
0.771828 0.865507 0.920178 0.969121
0.777429 0.889223 0.911247 0.959431
0.999169 1 1.00041 0.998756
0.999147 1 1 0.999147
0.999517 1 1 0.999517
0.999096 1 1 0.999096
0.998918 1 1 0.998918
0.999284 1 1.00053 0.998754
0.998896 1 1 0.998896
0.998856 1 1 0.998856
0.99905 1 1 0.99905
0.999106 1 1 0.999106
1.00281 1.03814 0.968012 0.997883
0.997171 1.02531 0.97475 0.997748
0.997554 1.00767 0.992375 0.997564
0.994066 1.001 0.995236 0.997825
1.0352 1.00044 1.03702 0.997813
1.01843 1 1.02032 0.998144
0.998696 1 1 0.998696
0.998754 1 1.00001 0.998742
0.993622 1.02703 0.969502 0.997907
1.00124 1 1.00286 0.998382
1.00505 1 1.0067 0.99836
0.984554 1.00683 0.98008 0.997747
0.982794 1.00048 0.984341 0.997948
0.998242 1.00113 0.999069 0.998043
1.03497 1 1.03702 0.998025
0.991037 1.00427 0.9886 0.998202
0.978756 1 0.980124 0.998604
1.01475 1.00056 1.01598 0.998235
1.00448 1 1.00614 0.998353
1.00397 1 1.00576 0.998217
1.02151 1 1.0234 0.998151
0.821593 0.879224 0.965144 0.9682
0.825426 0.896966 0.947653 0.971076
0.921082 0.973959 0.965887 0.979109
0.999872 1 1.00149 0.998387
1.00585 1.00138 1.0065 0.997976
0.992649 1.00862 0.986069 0.99807
1.00905 1.00119 1.0101 0.997783
0.81148 0.889415 0.939519 0.971108
0.935686 0.97585 0.979179 0.979231
0.912286 0.952552 0.970417 0.986925
0.962619 0.975097 0.988716 0.99847
0.77843 0.863594 0.932226 0.966916
0.765402 0.850737 0.937124 0.960058
0.777392 0.892455 0.906318 0.961111
1.00215 1 1.0034 0.998751
0.805101 0.869969 0.959304 0.964695
0.885162 0.940681 0.970722 0.969361
0.991847 0.998887 0.994155 0.998791
1.01364 1.0013 1.01371 0.998633
0.973208 0.969062 1.0058 0.998487
0.909784 0.94283 0.976639 0.988032
0.915483 0.949525 0.985215 0.978617
0.807895 0.888106 0.939875 0.967877
0.814008 0.920517 0.916598 0.964757
1.00597 0.999597 1.00694 0.999439
0.891671 0.942988 0.97069 0.974132
0.865925 0.931517 0.954773 0.973619
0.994747 0.98086 1.01445 0.999715
0.932806 0.939957 0.998932 0.993454
0.921057 0.941988 1.00014 0.977639
0.845049 0.908439 0.961953 0.967012
0.841598 0.951039 0.918104 0.963861
1.0002 1 1.00136 0.998839
1.0037 1 1.0046 0.999106
1.01998 0.999875 1.02076 0.999354
0.998772 1 1 0.998772
0.998638 1 1.00007 0.998569
0.999757 1 1.0012 0.998563
1.0058 1 1.00705 0.998761
0.998528 1 1 0.998528
1.00183 1 1.00327 0.998562
1.02394 0.999929 1.02485 0.999183
1.03607 0.997068 1.0397 0.999446
1.02496 1 1.02592 0.999068
0.998532 1 1 0.998532
0.998717 1 1.0001 0.998622
0.999031 1 1.00029 0.998744
0.998808 1 1 0.998808
0.998861 1 1.00021 0.998653
1.00004 1 1.00136 0.998688
1.0006 1 1.00183 0.998772
0.999923 1 1.00127 0.998658
1.00469 1 1.00569 0.999001
0.998605 1 1 0.998605
0.999066 1.00017 1.00034 0.998554
0.998886 1 1.00069 0.998193
0.999 1.00007 1.00153 0.997406
1.0011 1 1.00274 0.998366
0.998943 1 1.00079 0.998152
1.00023 1 1.00175 0.998483
1.00057 1 1.0019 0.99867
1.00023 1 1.00166 0.998568
0.999982 1 1.00117 0.998811
0.99916 1 1 0.99916
0.999648 1 1.00076 0.998888
0.999223 1 1 0.999223
0.999716 1 1 0.999716
0.999238 1 1 0.999238
0.999724 1 1 0.999724
0.999998 1 1 0.999998
0.99973 1 1 0.99973
0.999999 1 1 0.999999
1 1 1 1
1 1 1 1
1 1 1 1
1 1 1 1
0.999315 1 1 0.999315
0.999898 1 1 0.999898
0.999437 1 1 0.999437
1 1 1 1
0.999929 1 1 0.999929
0.999486 1 1 0.999486
1 1 1 1
1 1 1 1
0.999941 1 1 0.999941
1 1 1 1
1 1 1 1
1 1 1 1
0.802597 0.868076 0.9577 0.965407
0.820076 0.892765 0.947356 0.969625
0.882359 0.941013 0.967587 0.969081
0.764511 0.849338 0.937205 0.960437
0.935677 0.971156 0.972501 0.99071
1.00958 1.02475 0.987573 0.997595
0.953454 0.988634 0.982753 0.98134
0.797533 0.87298 0.942269 0.969548
0.701702 0.829974 0.887574 0.952541
0.965426 0.992503 0.978656 0.993933
0.932534 0.973688 0.980459 0.976822
0.784321 0.873862 0.927511 0.96768
0.779763 0.894046 0.91051 0.957895
0.946428 0.980273 0.973047 0.992218
0.923168 0.948901 0.996543 0.976256
0.808551 0.893288 0.936365 0.966654
0.820957 0.931672 0.916553 0.96139
1.00008 1 1.00154 0.998541
0.998833 1 1.00004 0.998795
0.999175 1 1 0.999175
0.998962 1 1 0.998962
0.998677 1 1.00019 0.998487
0.998882 1 1.0001 0.998787
0.998884 1 1 0.998884
0.998821 1 1 0.998821
0.998889 1 1 0.998889
0.999016 1 1 0.999016
0.995045 1.02827 0.969684 0.997947
0.986317 1.00614 0.982585 0.997673
0.981379 1.00034 0.982968 0.998045
1.00138 1.00215 1.00128 0.997955
1.02896 1 1.03103 0.997991
1.00421 1 1.00589 0.998323
1.00159 1 1.00323 0.998357
1.00375 1 1.00543 0.998328
0.987688 1.00477 0.984765 0.998208
1.00303 1 1.00482 0.998216
1.02155 1 1.02346 0.998142
0.978059 1.00041 0.979083 0.998547
1.01336 1.00139 1.01378 0.9982
0.960713 0.987619 0.97405 0.998672
0.996901 0.996675 1.00099 0.999235
1.03421 0.999914 1.03591 0.998449
1.00171 1 1.00348 0.998229
1.01056 1 1.01241 0.998173
0.89852 0.944878 0.973714 0.976609
0.825282 0.879227 0.969719 0.967955
0.814729 0.891175 0.94244 0.970055
1.00269 1 1.00394 0.998753
1.01336 0.999976 1.01481 0.9986
0.991185 0.998298 0.993991 0.998878
0.811513 0.87425 0.96136 0.965548
0.923352 0.948607 0.996887 0.976417
0.910459 0.941016 0.977862 0.989432
0.963101 0.964732 0.999633 0.998675
0.807664 0.887428 0.939254 0.968979
0.891365 0.945213 0.972973 0.969226
0.81763 0.923544 0.917553 0.964868
1.00449 0.999187 1.00591 0.999406
0.888248 0.941291 0.96754 0.975307
0.867005 0.93253 0.95491 0.973636
0.997426 0.984559 1.01351 0.999561
0.942347 0.947681 1.00125 0.993133
0.902319 0.936148 0.988113 0.975459
0.843827 0.951817 0.918965 0.96472
0.854219 0.914242 0.965657 0.967576
1.00528 0.987873 1.01792 0.999711
0.870268 0.926951 0.95663 0.981414
0.882048 0.94859 0.953953 0.974735
0.821791 0.931555 0.917463 0.961534
0.977006 0.964636 1.01458 0.998274
0.945363 0.955863 1.01061 0.978629
0.881922 0.931821 0.977326 0.968408
1.00373 1 1.00463 0.999105
1.02024 0.99994 1.02105 0.999274
1.02115 0.990979 1.03089 0.999566
0.998527 1 1 0.998527
1.00209 1 1.00354 0.998554
1.02869 1 1.02946 0.999251
0.99854 1 1 0.99854
1.02405 1 1.02499 0.999079
1.0377 0.997098 1.04132 0.999421
1.02535 0.995491 1.03052 0.999489
1.01769 1 1.01865 0.99906
0.998786 1 1.00012 0.998669
0.999997 1 1.00131 0.998688
1.00103 1 1.00225 0.998784
1.00376 1 1.00479 0.998977
0.999552 1 1.00089 0.998662
1.00219 1 1.00328 0.998913
0.998817 1 1 0.998817
1.00106 1 1.00316 0.997899
0.999329 1.00035 1.00039 0.998583
0.998928 1.00023 1.00057 0.998131
0.998213 1 1.00101 0.997203
1.00461 1.00609 1.00129 0.997243
1.0009 1.00006 1.00276 0.998084
0.999053 1.00023 1.00138 0.997441
1.00325 1 1.00475 0.998511
1.00158 1 1.00324 0.998341
0.998935 1 1.00065 0.998291
1.00009 1 1.00158 0.998511
1.00038 1 1.00168 0.998703
0.999065 1 1 0.999065
0.999901 1 1.00109 0.998809
0.99916 1 1 0.99916
0.999683 1 1 0.999683
0.999221 1 1 0.999221
0.999713 1 1 0.999713
0.999997 1 1 0.999997
0.999724 1 1 0.999724
0.999998 1 1 0.999998
1 1 1 1
0.999999 1 1 0.999999
1 1 1 1
1 1 1 1
0.999116 1 1 0.999116
0.999748 1 1 0.999748
0.999313 1 1 0.999313
1 1 1 1
0.999857 1 1 0.999857
0.999374 1 1 0.999374
1 1 1 1
1 1 1 1
0.999933 1 1 0.999933
1 1 1 1
1 1 1 1
1 1 1 1
0.885587 0.942135 0.964207 0.974873
0.795892 0.86689 0.950149 0.966269
0.818358 0.889178 0.949433 0.969371
0.998705 1 1 0.998705
0.87025 0.928855 0.960636 0.975298
0.881163 0.940661 0.966746 0.968971
0.76401 0.853541 0.9311 0.961343
0.971264 0.994693 0.983387 0.992943
0.932829 0.969801 0.982128 0.97938
0.79078 0.88579 0.923771 0.966408
0.774585 0.884824 0.913369 0.958442
0.945771 0.978742 0.97646 0.989608
0.913029 0.945506 0.986876 0.978493
0.81972 0.89808 0.944007 0.966887
0.817933 0.926077 0.918519 0.961574
0.915685 0.949533 0.97685 0.987206
0.916538 0.936449 1.00256 0.976243
0.865024 0.924205 0.967284 0.967621
0.841872 0.949961 0.919477 0.963827
1.00002 1 1.0017 0.998327
1.00083 1 1.00233 0.998504
0.998835 1 1 0.998835
0.998509 1 1 0.998509
0.998806 1 1.00027 0.99854
0.99882 1 1 0.99882
0.998829 1 1 0.998829
0.998922 1 1 0.998922
0.982785 1.00531 0.979344 0.998212
0.975827 1.00023 0.977072 0.998493
1.00329 1 1.005 0.998303
1.01262 1.00226 1.01219 0.998163
1.02337 1 1.02529 0.998132
1.0027 1 1.00449 0.998216
1.00202 1 1.00379 0.998236
0.967088 0.990104 0.977988 0.998738
1.01146 1 1.01327 0.998211
1.02654 1.00032 1.02778 0.998469
0.991989 0.996515 0.996174 0.999282
1.00128 1 1.00299 0.998302
0.95934 0.97776 0.982401 0.998738
1.00668 0.992644 1.01469 0.999454
1.04615 0.998711 1.04901 0.998559
1.00235 1 1.004 0.998359
0.882135 0.930306 0.964422 0.9832
0.897502 0.944284 0.973149 0.976683
0.830385 0.879327 0.975851 0.967709
1.00254 0.998648 1.00453 0.999376
1.00162 0.988241 1.01414 0.999411
0.886252 0.940846 0.964676 0.976465
0.928241 0.940698 1.00869 0.978258
0.933967 0.945287 0.997713 0.99029
0.856755 0.917345 0.966315 0.966508
0.867808 0.933455 0.954837 0.973646
0.847204 0.953544 0.920152 0.965578
1.00785 0.99212 1.01619 0.999669
0.871605 0.927803 0.957239 0.981395
0.880396 0.946616 0.952492 0.976433
0.986562 0.97133 1.01607 0.999622
0.818056 0.925679 0.918972 0.961657
0.927145 0.941866 1.00733 0.977206
0.890904 0.942152 0.976964 0.967902
1.00723 0.98604 1.02173 0.999768
0.888949 0.944122 0.95788 0.982963
0.869087 0.927865 0.960245 0.975431
0.775895 0.888585 0.90996 0.959581
0.864899 0.925384 0.96631 0.967223
0.961909 0.95988 1.00565 0.996486
0.947864 0.950122 1.02383 0.974407
1.01767 1 1.01849 0.999195
1.02192 0.991523 1.03114 0.999534
1.00702 0.980204 1.02779 0.999582
0.998549 1 1 0.998549
1.02396 1 1.02489 0.999091
1.03807 0.998282 1.04048 0.999396
1.01308 1 1.01405 0.999046
1.02478 0.99658 1.02883 0.999488
1.01186 0.994137 1.0186 0.99924
1.00261 1 1.00366 0.998952
0.999208 1 1.00054 0.998666
1.00363 1 1.00474 0.99889
1.00702 1 1.00874 0.998293
0.999028 1 1 0.999028
1.00035 1 1.0023 0.998049
1.00164 1.00049 1.00413 0.99704
1.00372 1.00524 1.00188 0.996622
0.998955 1.00048 1.0004 0.998068
0.998644 1.0005 1.00109 0.997057
1.00598 1.00814 1.00053 0.997336
1.00294 1.00261 1.00261 0.997725
1.00452 1.00596 1.00125 0.997314
1.0053 1 1.00698 0.998325
1.00171 1.00052 1.00313 0.99807
0.998918 1.00017 1.00128 0.997475
0.999226 1 1.00032 0.998909
1.00301 1 1.0045 0.998514
1.00211 1 1.0038 0.998317
1.00021 1 1.00147 0.998736
0.999063 1 1 0.999063
0.999619 1 1 0.999619
0.999159 1 1 0.999159
0.999679 1 1 0.999679
0.999995 1 1 0.999995
0.999711 1 1 0.999711
0.999997 1 1 0.999997
1 1 1 1
0.999998 1 1 0.999998
1 1 1 1
1 1 1 1
0.999035 1 1 0.999035
0.999638 1 1 0.999638
0.999153 1 1 0.999153
1 1 1 1
0.999737 1 1 0.999737
0.999311 1 1 0.999311
1 1 1 1
1 1 1 1
0.999815 1 1 0.999815
1 1 1 1
1 1 1 1
1 1 1 1
0.874606 0.928771 0.959168 0.981768
0.888426 0.941933 0.967524 0.974854
0.795909 0.867571 0.949283 0.966413
0.998731 1 1 0.998731
0.998666 1 1 0.998666
0.998573 1 1 0.998573
0.880192 0.949151 0.951516 0.9746
0.867419 0.928427 0.957928 0.975322
0.881462 0.94036 0.967489 0.968865
0.950107 0.981722 0.976131 0.991462
0.908663 0.944149 0.985902 0.976177
0.808598 0.881687 0.946596 0.968842
0.83071 0.934794 0.924928 0.960784
0.91999 0.952307 0.976249 0.989568
0.916429 0.937505 1.00067 0.976868
0.845553 0.90265 0.967023 0.96869
0.842846 0.951407 0.91836 0.964649
0.909496 0.941182 0.978298 0.98777
0.93129 0.944612 1.00841 0.977674
0.882071 0.929958 0.979238 0.968616
0.829452 0.933669 0.921932 0.963606
0.998474 1 1.00014 0.998337
1.00049 1 1.00219 0.998308
1.00071 1 1.00225 0.998467
0.998502 1 1 0.998502
0.998594 1 1 0.998594
0.998837 1 1 0.998837
0.973548 0.991668 0.982919 0.998788
0.987194 0.996612 0.991224 0.99932
1.00225 1 1.00401 0.998243
1.01929 1.00057 1.02025 0.998489
1.01272 1 1.0145 0.998249
1.00177 1 1.0035 0.998276
1.00165 1 1.00328 0.998382
0.967207 0.979121 0.989003 0.998816
1.04177 0.998847 1.04434 0.99869
1.00849 0.988612 1.02069 0.999432
1.00163 1 1.00312 0.998513
0.980901 0.967549 1.01506 0.998761
1.00769 0.983413 1.02523 0.999477
1.03237 0.997593 1.03609 0.998814
0.901982 0.948293 0.965732 0.984915
0.88242 0.930467 0.96411 0.983666
0.896879 0.943692 0.973014 0.976753
1.01194 0.996927 1.01543 0.999627
0.977257 0.969665 1.00909 0.99875
0.873267 0.928846 0.958005 0.981376
0.922614 0.931317 1.00977 0.981069
0.886434 0.93904 0.975698 0.967491
0.879949 0.944963 0.952018 0.978132
0.831952 0.934804 0.926157 0.960933
1.00304 0.98353 1.02006 0.999787
0.890169 0.944336 0.9584 0.983556
0.868345 0.928723 0.958514 0.975456
0.959771 0.956403 1.01039 0.993198
0.778483 0.893215 0.90965 0.958117
0.842325 0.903399 0.963017 0.968203
0.957015 0.954193 1.0259 0.977639
1.00071 0.967021 1.03561 0.999253
0.875395 0.928932 0.959755 0.981882
0.886341 0.94395 0.968686 0.969323
0.704011 0.815602 0.899494 0.959628
0.806078 0.891131 0.935765 0.966649
0.929331 0.942124 1.00953 0.977108
0.938917 0.951963 0.995249 0.991003
1.02538 0.992376 1.03377 0.999501
1.01058 0.985939 1.02542 0.999586
1.01391 0.991223 1.02337 0.999527
1.00857 1 1.00955 0.999032
1.02425 0.997419 1.02742 0.999487
1.01438 0.992896 1.02233 0.999321
1.00948 1 1.01067 0.998817
1.00517 1 1.00631 0.998867
1.00676 1 1.00862 0.998156
1.01516 1.00055 1.01757 0.997079
0.999644 1 1.00145 0.998201
1.00305 1.00096 1.00509 0.997012
1.00457 1.00241 1.00596 0.996212
1.00381 1.00573 1.00191 0.996193
1.00358 1.00556 1.00108 0.996953
1.00348 1.00503 1.00189 0.996574
0.999 1.00085 1.00124 0.996912
1.00177 1.00309 1.0011 0.997587
1.00593 1.00804 1.00048 0.997424
1.0026 1 1.00463 0.997978
1.00343 1.00292 1.00274 0.997777
1.00474 1.0062 1.00117 0.997385
1.00323 1 1.00459 0.998646
1.00439 1 1.00607 0.998325
1.0025 1.00104 1.00341 0.998056
0.999518 1 1 0.999518
0.999521 1 1.00061 0.998907
1.0026 1 1.00409 0.998518
0.999062 1 1 0.999062
0.999614 1 1 0.999614
0.99999 1 1 0.99999
0.999676 1 1 0.999676
0.999994 1 1 0.999994
1 1 1 1
0.999997 1 1 0.999997
1 1 1 1
1 1 1 1
0.999012 1 1 0.999012
0.999631 1 1 0.999631
0.999059 1 1 0.999059
1 1 1 1
0.999675 1 1 0.999675
0.99919 1 1 0.99919
1 1 1 1
1 1 1 1
0.999726 1 1 0.999726
1 1 1 1
1 1 1 1
1 1 1 1
0.888708 0.943938 0.957903 0.982865
0.875582 0.929398 0.959604 0.981755
0.889272 0.941436 0.968954 0.974856
0.998824 1 1.00022 0.998601
0.998633 1 1.00017 0.998462
0.998757 1 1 0.998757
0.998659 1 1 0.998659
0.998557 1 1 0.998557
0.998554 1 1 0.998554
0.998477 1 1 0.998477
0.864308 0.932447 0.952224 0.973432
0.880668 0.946816 0.952703 0.976314
0.864624 0.927501 0.95577 0.975349
0.844221 0.953016 0.917517 0.965477
0.9102 0.943893 0.976529 0.987482
0.916632 0.935463 1.00234 0.977585
0.8536 0.910844 0.967396 0.968738
0.9017 0.940232 0.971718 0.986931
0.926054 0.937211 1.0129 0.975511
0.891778 0.942714 0.976758 0.968478
0.814602 0.92128 0.91658 0.964679
0.917247 0.943528 0.982743 0.989218
0.937387 0.946326 1.01583 0.975121
0.849179 0.9122 0.962374 0.96731
0.79174 0.900286 0.91557 0.96053
1.00503 1 1.00654 0.998507
0.998896 1 1.00055 0.998343
1.00121 1 1.00293 0.998289
0.998495 1 1 0.998495
0.972839 0.978638 0.995157 0.998912
1.00921 0.985286 1.02489 0.999406
1.00097 1 1.00272 0.99825
1.00139 1 1.00299 0.998404
1.03469 0.998259 1.03771 0.998821
1.00108 1 1.00258 0.998506
1.03308 0.996883 1.03756 0.9988
0.978338 0.965987 1.01504 0.99778
1.00785 0.9775 1.03146 0.999604
1.0131 0.995417 1.01886 0.998925
0.966874 0.948299 1.02209 0.99755
1.02273 0.981656 1.04258 0.999296
0.882737 0.930177 0.965157 0.983258
0.899249 0.947337 0.963044 0.985664
0.882073 0.930307 0.963441 0.984131
0.997191 0.979348 1.01842 0.999805
0.965899 0.961121 1.00826 0.996738
0.889782 0.943703 0.958044 0.984154
0.954141 0.956895 1.02278 0.97491
0.846056 0.90725 0.963148 0.968231
0.866254 0.929369 0.955517 0.975482
0.774208 0.883931 0.913643 0.958657
1.00364 0.969987 1.03533 0.999389
0.875176 0.929917 0.958511 0.98187
0.882834 0.941755 0.967212 0.969213
0.941206 0.951482 0.995797 0.993375
0.700776 0.820811 0.892726 0.956352
0.814027 0.893584 0.942343 0.966705
0.92747 0.937472 1.0138 0.975862
0.999006 0.974566 1.02698 0.998152
0.886218 0.942752 0.964025 0.975112
0.77134 0.85404 0.938854 0.961988
0.773257 0.866408 0.920564 0.969498
0.910874 0.92997 1.00193 0.977581
0.912447 0.938735 0.983739 0.988063
1.01237 0.98948 1.02355 0.99959
1.01398 0.988832 1.02592 0.999521
0.994261 0.988724 1.00626 0.999346
1.01678 0.991622 1.02598 0.999402
1.00812 0.995465 1.01384 0.998897
1.00241 1.0008 1.00373 0.997888
1.00687 1 1.00886 0.998018
1.01414 1.0005 1.01667 0.99701
1.00882 1.00038 1.01222 0.996265
1.00468 1.00167 1.00604 0.996984
1.00498 1.00223 1.00664 0.996126
1.00246 1.00214 1.00445 0.995888
1.01142 1.01519 1 0.996286
1.00812 1.01096 1.00077 0.996431
1.00434 1.00604 1.00218 0.996139
1.00128 1.00394 1.00013 0.997228
1.00277 1.00503 1.00074 0.997016
1.00327 1.00487 1.0019 0.996526
0.999414 1.00069 1.00112 0.997613
1.002 1.00335 1.00108 0.997571
1.00561 1.00769 1.00043 0.997512
1.00444 1 1.00615 0.998299
1.0025 1 1.00448 0.998032
1.0038 1.0031 1.00288 0.99783
0.999601 1 1.00029 0.999314
1.00271 1 1.00407 0.998648
1.00364 1 1.00532 0.998326
0.99998 1 1 0.99998
0.999511 1 1 0.999511
0.999842 1 1.00094 0.998905
0.999609 1 1 0.999609
0.999988 1 1 0.999988
1 1 1 1
0.999993 1 1 0.999993
1 1 1 1
1 1 1 1
0.999388 1 1.0008 0.998586
0.998917 1 1 0.998917
0.999545 1 1 0.999545
0.99901 1 1 0.99901
0.999996 1 1 0.999996
0.999634 1 1 0.999634
0.999083 1 1 0.999083
1 1 1 1
1 1 1 1
0.999713 1 1 0.999713
1 1 1 1
1 1 1 1
1 1 1 1
0.869069 0.926874 0.955482 0.98132
0.88847 0.943466 0.957538 0.983469
0.876552 0.930638 0.959405 0.981737
0.998747 1 1.00013 0.998613
0.999048 1 1.00059 0.998455
0.998885 1 1.00043 0.99846
0.998544 1 1.00008 0.998463
1.00188 1 1.00349 0.998394
0.998652 1 1 0.998652
0.998541 1 1 0.998541
0.998555 1 1 0.998555
0.998481 1 1 0.998481
1.00321 1 1.00469 0.998527
0.876699 0.934105 0.968319 0.969251
0.866682 0.933374 0.953855 0.973469
0.882052 0.945722 0.953634 0.978023
0.815969 0.923641 0.915652 0.964806
0.887388 0.93784 0.977735 0.967751
0.894199 0.935792 0.969372 0.985745
0.933259 0.944572 1.01089 0.977384
0.91614 0.946488 0.981045 0.986638
0.948376 0.955322 1.01572 0.977363
0.85687 0.915091 0.967076 0.968255
0.790415 0.904249 0.91091 0.959602
0.930435 0.944129 0.996884 0.988577
0.934399 0.943745 1.01246 0.97791
0.78953 0.869469 0.93763 0.968463
0.731685 0.851351 0.896105 0.959084
1.00611 1 1.0071 0.99902
1.00613 1 1.00764 0.998507
0.999946 1 1.0016 0.998349
0.979742 0.968818 1.01455 0.996771
1.01124 0.973576 1.03896 0.999738
1.00095 1 1.00246 0.998499
1.03447 0.99618 1.0397 0.998787
1.01421 0.997537 1.0178 0.998933
1.02671 0.986473 1.04153 0.999285
0.970976 0.954567 1.01969 0.997544
1.01877 0.995802 1.02374 0.999345
0.979943 0.966733 1.01608 0.997625
0.897393 0.944702 0.972902 0.97638
0.883372 0.93056 0.965006 0.983716
0.896747 0.946405 0.96058 0.986414
1.00789 0.975098 1.03414 0.99951
0.940871 0.952882 0.997722 0.98965
0.877056 0.930957 0.959513 0.981853
0.931633 0.946361 1.00972 0.974959
0.802392 0.87636 0.945219 0.96866
0.880726 0.939574 0.967243 0.969113
0.701712 0.829255 0.887906 0.953024
0.998525 0.973472 1.02746 0.998318
0.888375 0.942081 0.96708 0.975092
0.764948 0.849605 0.937023 0.96087
0.91664 0.943718 0.98177 0.989343
0.785033 0.873987 0.927896 0.968018
0.899847 0.930235 0.991258 0.975863
0.966348 0.966594 1.00276 0.996998
0.802863 0.868924 0.956705 0.965788
0.785076 0.865018 0.935926 0.969717
0.921105 0.949367 0.993751 0.976332
0.895455 0.934815 0.967567 0.990004
1.01345 0.986973 1.02733 0.999515
0.99833 0.988018 1.01113 0.999319
0.998956 0.998076 1.00234 0.998541
1.00671 0.990574 1.01733 0.998975
1.00203 1.00093 1.00312 0.997976
0.998866 1.00199 0.999717 0.997169
1.0127 1.0004 1.01539 0.996941
1.00715 1.00053 1.01037 0.996276
0.999352 1.00157 1.00137 0.996416
1.00494 1.00195 1.00697 0.996039
1.00263 1.00303 1.0037 0.995917
1.01118 1.01476 1 0.996476
1.02787 1.03122 1 0.996754
1.01893 1.02265 1.00002 0.996348
1.01112 1.01487 1 0.99631
1.00771 1.01104 1 0.996708
1.00643 1.009 1.00107 0.996382
1.00496 1.00646 1.00244 0.996084
1.00081 1.00344 1 0.997386
1.0002 1.00288 1.00002 0.997301
1.00193 1.00454 1.00032 0.997079
1.00005 1.00002 1.00208 0.997961
1.00003 1.0011 1.0013 0.997646
1.00232 1.00368 1.0011 0.997555
1.00254 1 1.00359 0.998954
1.00403 1 1.00573 0.998301
1.00239 1 1.00431 0.998086
0.999956 1 1 0.999956
1.00001 1 1.0007 0.999306
1.00227 1 1.00362 0.998651
1 1 1 1
0.999975 1 1 0.999975
0.999504 1 1 0.999504
0.999985 1 1 0.999985
1 1 1 1
1 1 1 1
1.00006 1 1.00156 0.998506
0.998938 1 1.00013 0.998811
0.999397 1 1.00083 0.99857
0.999464 1 1 0.999464
0.998916 1 1 0.998916
0.999983 1 1 0.999983
0.999548 1 1 0.999548
0.999007 1 1 0.999007
1 1 1 1
0.999998 1 1 0.999998
0.999637 1 1 0.999637
1 1 1 1
1 1 1 1
1 1 1 1
0.887888 0.943351 0.963653 0.976707
0.871039 0.928081 0.956417 0.981305
0.888332 0.942351 0.957931 0.984075
0.998582 1 1.00011 0.998476
0.998862 1 1.00024 0.998625
0.999131 1 1.00068 0.998448
0.998653 1 1.00018 0.99847
0.998722 1 1.00024 0.998479
1.00073 1 1.00229 0.998436
1.00611 1 1.0079 0.998226
1.00692 1 1.00854 0.998396
0.998556 1 1 0.998556
0.998485 1 1 0.998485
1.00299 1 1.00448 0.998516
1.01101 1 1.01231 0.998723
0.773312 0.85581 0.94032 0.960952
0.885002 0.941554 0.969918 0.96909
0.868046 0.933376 0.955325 0.973497
0.780233 0.895665 0.90673 0.960728
0.862341 0.922278 0.966371 0.96755
0.938901 0.947072 1.0166 0.975181
0.919133 0.94256 0.987629 0.98736
0.928591 0.941718 0.99552 0.990498
0.717416 0.841506 0.891851 0.955919
0.928787 0.939568 1.01318 0.975664
0.806355 0.887562 0.939084 0.967438
0.925848 0.945986 0.9874 0.991201
0.920238 0.938294 1.002 0.978796
0.776047 0.8697 0.921537 0.96829
1.00049 1 1.00094 0.999551
1.00598 1 1.00696 0.999026
1.00663 1 1.00813 0.998506
0.967483 0.951591 1.01917 0.997575
1.03057 0.991224 1.04045 0.999273
1.01498 0.998912 1.01717 0.99894
1.01884 0.997164 1.0224 0.999344
0.977769 0.966341 1.01419 0.997673
0.995867 0.988686 1.0089 0.998378
0.823904 0.880022 0.969451 0.965733
0.895003 0.943877 0.9696 0.977949
0.882384 0.930444 0.963601 0.984171
0.998898 0.971894 1.02939 0.998444
0.9081 0.939824 0.975837 0.99017
0.887892 0.941354 0.967302 0.97509
0.905364 0.925094 1.00143 0.977279
0.793975 0.887937 0.924872 0.966813
0.764103 0.853508 0.930838 0.961768
0.967634 0.965428 1.00523 0.997067
0.795977 0.867372 0.949366 0.966633
0.792026 0.869535 0.940167 0.968829
0.898962 0.936122 0.972697 0.987259
0.913133 0.9486 0.983746 0.978515
0.957406 0.974832 0.983591 0.998509
0.812316 0.883442 0.948688 0.969222
0.93744 0.975583 0.980835 0.979678
0.911876 0.95021 0.972258 0.98704
1.0024 0.987205 1.01611 0.999296
0.990592 0.997175 0.994747 0.998644
0.993644 1.0023 0.99352 0.997828
1.00218 1.0011 1.00302 0.998063
1.0017 1.00242 1.00213 0.997154
1.00023 1.00358 0.999428 0.997235
1.00585 1.00075 1.00884 0.996287
0.999268 1.00118 1.00167 0.996428
1.01712 1.02016 0.99985 0.99717
1.00306 1.00395 1.00319 0.995946
1.01036 1.01392 1 0.996487
1.02799 1.0308 1 0.997273
1.03186 1.03466 1 0.997293
1.03051 1.03394 1 0.996676
1.02742 1.03073 1 0.996792
1.01922 1.02274 1 0.996561
1.01775 1.02143 1 0.996398
1.01054 1.01426 1 0.996334
1.00867 1.01162 1 0.997077
1.00768 1.01084 1.00014 0.996736
1.00478 1.00699 1.00148 0.996333
0.998636 1.00095 1 0.997683
1.00168 1.00431 1 0.997379
0.999058 1.00169 1 0.997373
1.00209 1 1.00352 0.998567
1.00039 1.00029 1.00214 0.997961
1.00059 1.00147 1.00145 0.99768
0.999881 1 1 0.999881
1.00218 1 1.00323 0.998951
1.00331 1 1.00502 0.998303
1 1 1 1
0.999944 1 1 0.999944
1.00035 1 1.00105 0.999298
1 1 1 1
0.999969 1 1 0.999969
1 1 1 1
0.999083 1 1.00064 0.998441
0.99996 1 1.00146 0.998499
1.00005 1 1.00136 0.99869
0.999408 1 1.00003 0.999381
0.998998 1 1.00019 0.99881
0.999113 1 1.00056 0.998555
0.999964 1 1 0.999964
0.999467 1 1 0.999467
0.998914 1 1 0.998914
1 1 1 1
0.999987 1 1 0.999987
0.999551 1 1 0.999551
1 1 1 1
0.999999 1 1 0.999999
1 1 1 1
0.803026 0.866361 0.962205 0.963304
0.886983 0.942339 0.963703 0.97671
0.873614 0.92984 0.957445 0.981291
0.999731 1 1.00128 0.998457
1.001 1.00042 1.00228 0.998293
1.00444 1 1.00611 0.99834
0.999073 1 1.0006 0.998476
0.998625 1 1.00013 0.998498
1.00071 1 1.00223 0.998477
1.00624 1 1.00787 0.998379
1.00565 1 1.00742 0.998246
1.00744 1 1.00932 0.998138
0.994443 1.00013 0.995321 0.998992
1.00213 1 1.00363 0.998504
1.00851 1 1.00983 0.998691
0.790361 0.865855 0.943565 0.967406
0.763032 0.846276 0.9399 0.959289
0.891246 0.946461 0.971823 0.968965
0.704566 0.830314 0.890694 0.952688
0.806699 0.886044 0.940022 0.968541
0.921847 0.937956 1.00509 0.977851
0.93579 0.947519 0.999471 0.988144
0.919893 0.942412 0.986742 0.989219
0.778018 0.862727 0.932305 0.967294
0.906535 0.930624 0.996866 0.977178
0.912784 0.946858 0.973608 0.990145
0.90738 0.948954 0.97893 0.97677
1.00596 1 1.00694 0.999021
0.999964 1 1.00047 0.99949
1.00574 1 1.00672 0.999031
0.977091 0.967425 1.0123 0.997717
1.01878 0.99849 1.02099 0.999344
0.996304 0.98948 1.00861 0.998297
0.986812 0.993899 0.995406 0.997452
0.816809 0.899914 0.934613 0.971153
0.826117 0.879486 0.971795 0.96658
0.894985 0.944262 0.967652 0.979499
0.96913 0.97047 1.00143 0.997195
0.900234 0.936776 0.972792 0.98787
0.796221 0.868351 0.948463 0.966759
0.90674 0.944022 0.98374 0.976383
0.799834 0.875694 0.941631 0.96999
0.961369 0.97626 0.986998 0.997719
0.819599 0.892545 0.946736 0.969934
0.935684 0.976758 0.98058 0.97692
0.918512 0.95267 0.974564 0.989309
0.966828 0.988826 0.979333 0.998387
0.940882 0.982041 0.97867 0.97897
0.945367 0.980643 0.972737 0.991047
0.981374 0.995593 0.986964 0.998738
0.990817 1.00279 0.990239 0.997803
0.982179 1.0073 0.977314 0.997692
1.00347 1.00278 1.00356 0.997139
0.999471 1.0036 0.998648 0.997231
1.01985 1.02775 0.994494 0.997801
0.999005 1.00071 1.00186 0.996441
1.01663 1.02015 0.9994 0.997154
1.02953 1.0345 0.997391 0.997799
1.00946 1.01301 1 0.996497
1.02743 1.03039 0.999861 0.99727
1.03283 1.03562 0.999564 0.997743
1.02953 1.03198 1 0.997619
1.03278 1.03552 1 0.997355
1.03209 1.03503 1 0.997154
1.03089 1.03425 1 0.996744
1.03084 1.03426 1 0.996686
1.02712 1.03038 1 0.99683
1.01854 1.02178 1 0.996823
1.02067 1.02416 1 0.996594
1.01667 1.02029 1 0.996448
1.00279 1.00538 1 0.997422
1.00819 1.01115 1 0.997072
1.00782 1.01092 1.00017 0.996764
0.99846 1 1.00017 0.998295
0.999708 1.00203 1 0.997681
1.00256 1.00521 1 0.997373
1.00025 1 1.00054 0.999711
1.00142 1 1.00286 0.998568
1.00096 1.00059 1.00241 0.997961
1 1 1 1
1.00026 1 1.00041 0.999858
1.00196 1 1.00301 0.998947
1 1 1 1
0.999932 1 1 0.999932
1 1 1 1
0.998366 1 1 0.998366
0.999552 1 1.00111 0.998448
1.00059 1 1.00202 0.998569
0.999813 1 1.00132 0.998492
1.00031 1 1.00163 0.998689
0.999876 1 1.00061 0.999267
0.999943 1 1 0.999943
0.999423 1 1.00004 0.999383
0.999303 1 1.00049 0.998809
1 1 1 1
0.99997 1 1 0.99997
0.99947 1 1 0.99947
1 1 1 1
0.999992 1 1 0.999992
1 1 1 1
0.821385 0.888874 0.952703 0.969949
0.805817 0.870047 0.961349 0.963413
0.885856 0.941421 0.963419 0.976706
1.00086 1 1.00243 0.998439
1.00565 1 1.00742 0.998235
0.999908 1.00024 1.00131 0.998358
0.998874 1.00089 1.00027 0.997716
1.00509 1.00012 1.00676 0.998224
1.0059 1 1.00755 0.998363
1.0044 1 1.00615 0.998267
1.00888 1.00003 1.01069 0.99819
0.99795 1 1 0.99795
0.987334 1.00065 0.987978 0.9987
0.989868 1.00035 0.991698 0.997804
0.995651 1.00008 0.99653 0.999041
1.00514 1 1.00649 0.99866
0.927001 0.970338 0.976747 0.978081
0.791345 0.863094 0.947072 0.96811
0.763664 0.849078 0.937305 0.959564
0.775926 0.86433 0.92942 0.965892
0.91753 0.939357 1.00047 0.976304
0.921774 0.937834 0.991488 0.991313
0.9147 0.946027 0.975086 0.99159
0.917076 0.950537 0.985123 0.979368
0.941267 0.976125 0.973369 0.990672
0.997499 1.00132 0.997964 0.998218
1.0054 1 1.00641 0.998999
0.999856 1 1.00043 0.999429
0.997531 0.991312 1.00804 0.998246
0.991788 0.997567 0.996689 0.997511
0.917091 0.969638 0.966036 0.97906
0.826547 0.89848 0.947229 0.97119
0.828338 0.878142 0.975023 0.967448
0.967704 0.979885 0.990649 0.99689
0.917876 0.95205 0.976615 0.98719
0.819774 0.889616 0.950326 0.969659
0.933744 0.970816 0.982191 0.979252
0.97352 0.988773 0.986104 0.998448
0.947758 0.989389 0.97742 0.980052
0.942295 0.978209 0.974169 0.988828
0.989375 1.00429 0.987287 0.997832
0.963764 0.994149 0.975488 0.993796
0.990901 1.00465 0.988501 0.997792
0.982973 1.00682 0.978621 0.997642
1.00273 1.03134 0.974276 0.997929
0.99895 1.00361 0.998123 0.997226
1.02017 1.02778 0.994803 0.997781
1.0294 1.04257 0.98929 0.998057
1.01616 1.02014 0.998958 0.997138
1.02902 1.03465 0.996776 0.997778
1.02667 1.03454 0.994406 0.997977
1.02687 1.03005 0.999641 0.997266
1.03295 1.03608 0.999254 0.997723
1.03103 1.03427 0.999056 0.997806
1.03018 1.03258 1 0.997671
1.02906 1.0317 1 0.997434
1.03366 1.03634 1 0.997416
1.03201 1.03497 1 0.997146
1.03343 1.03655 1 0.996987
1.02715 1.03043 1 0.99682
1.03072 1.0341 1 0.996733
1.03111 1.03453 1 0.996697
1.01135 1.01419 1 0.997206
1.0177 1.02093 1 0.996839
1.02209 1.02555 1 0.996626
0.998714 1.00063 1 0.99809
1.00409 1.00669 1 0.997418
1.00757 1.01054 1 0.997066
1 1 1.00051 0.999496
0.998676 1.00009 1.00029 0.998296
1.0008 1.00312 1 0.997679
1 1 1 1
1.00043 1 1.00074 0.999686
1.00075 1 1.00218 0.998569
1 1 1 1
1.00067 1 1.00083 0.999835
1 1 1 1
1.00113 1.00336 1 0.997779
0.998359 1 1 0.998359
0.999723 1 1.00132 0.998403
1.0001 1 1.00165 0.998454
1.00055 1 1.00201 0.998546
1.00016 1 1.00107 0.999088
1.00028 1 1.0016 0.998688
0.999612 1 1.00034 0.99927
0.999916 1 1 0.999916
1 1 1 1
0.999949 1 1 0.999949
0.999386 1 1 0.999386
1 1 1 1
0.999975 1 1 0.999975
1 1 1 1
0.941043 0.983242 0.975835 0.980782
0.817383 0.893518 0.942547 0.970554
0.814143 0.875192 0.966303 0.962685
1.00679 1 1.00867 0.998129
0.998603 1 1.00018 0.998423
1.00393 1.00003 1.0057 0.998208
0.999887 1.0018 1.00032 0.997764
1.00706 1.00966 1.00016 0.997271
0.997982 1.00006 1 0.997922
1.01056 1.00001 1.01233 0.998242
0.997793 1.00001 1 0.997783
0.991071 1.00052 0.991868 0.998675
0.996935 1.00064 0.998422 0.997867
0.987427 1.00303 0.986454 0.997964
0.995907 1.00129 0.9972 0.997419
0.990148 1.00082 0.99138 0.99794
0.998549 1 0.999459 0.99909
0.942595 0.979861 0.970915 0.990784
0.930131 0.972886 0.976996 0.978563
0.789897 0.864505 0.942184 0.969766
0.926455 0.95604 0.992513 0.976365
0.917025 0.944951 0.977765 0.992515
0.945809 0.975619 0.975785 0.993503
0.990657 1.00377 0.989125 0.99779
0.995568 1.00067 0.996671 0.998225
1.0046 1 1.00563 0.998978
0.993216 1.00018 0.995473 0.99755
0.950738 0.975835 0.983174 0.990954
0.931928 0.975591 0.97309 0.98166
0.815258 0.892413 0.941678 0.970123
0.97551 0.986743 0.9901 0.998501
0.944627 0.981021 0.972245 0.99039
0.95445 0.98905 0.983598 0.98111
0.982761 1.00291 0.982015 0.997859
0.962198 0.990828 0.977866 0.993086
0.984754 1.02425 0.963639 0.997722
1.00309 1.01625 0.99004 0.996977
0.983103 1.00634 0.979274 0.997586
1.00104 1.03019 0.973724 0.997923
1.00724 1.04584 0.965051 0.997967
1.02089 1.02831 0.995019 0.99776
1.02922 1.04244 0.989255 0.99804
1.02249 1.03732 0.987749 0.997926
1.02867 1.03487 0.996252 0.997757
1.02609 1.03387 0.9945 0.997959
1.03097 1.03839 0.995061 0.997777
1.03313 1.0365 0.999046 0.997704
1.02947 1.03278 0.999 0.997798
1.03039 1.03324 0.999715 0.997526
1.0308 1.03315 1 0.997721
1.02931 1.03191 1 0.997478
1.03239 1.03534 1 0.997145
1.03202 1.03498 1 0.997138
1.03338 1.03651 1 0.996976
1.03039 1.03353 1 0.996958
1.01834 1.02133 1 0.997074
1.02712 1.03039 1 0.996832
1.03052 1.03391 1 0.996722
1.00099 1.0031 1 0.997904
1.01128 1.01411 1 0.997207
1.01701 1.02022 1 0.996854
0.999305 1 1 0.999305
0.999305 1.00122 1 0.998088
1.00528 1.00788 1 0.997414
1 1 1 1
0.99979 1 1.00031 0.999479
0.998828 1.00018 1.00035 0.998296
1 1 1 1
1.00056 1 1.00089 0.999662
1 1 1 1
1.00667 1.00934 1 0.997362
1.00117 1.00338 1 0.997797
1.00097 1.00237 1.00058 0.998027
0.998352 1 1 0.998352
0.999594 1 1.00123 0.99837
1.00032 1 1.00148 0.998843
1.00068 1 1.00216 0.998522
0.999994 1 1.00091 0.999089
0.999874 1 1 0.999874
0.999487 1 1.00022 0.999272
0.999923 1 1 0.999923
1 1 1 1
1 1 1 1
0.999955 1 1 0.999955
1 1 1 1
0.942866 0.979889 0.970631 0.991332
0.934897 0.982849 0.971987 0.978626
0.810063 0.887063 0.940459 0.971012
1.01793 1.02093 1.00007 0.996999
1.00291 1.00003 1.00469 0.998193
1.0013 1.00301 1.00049 0.997814
0.997967 1.00008 1 0.997891
1.00681 1.00915 1.00042 0.997256
1.00166 1.00389 1 0.997771
0.997722 1.00011 1 0.997616
0.993449 1.00039 0.994404 0.99865
0.995822 1.00087 0.997056 0.997891
0.982796 1.0021 0.982802 0.997895
1.00108 1.0057 0.998171 0.997231
1.00127 1.0067 0.997194 0.997406
0.996739 1.00195 0.997414 0.997373
0.990132 1.00134 0.990716 0.998077
0.989895 1.00613 0.985549 0.998294
0.939 0.979336 0.968819 0.989672
0.933568 0.974702 0.977895 0.979448
0.938728 0.970931 0.975047 0.991575
0.993757 1.00569 0.989779 0.998335
0.995833 1.0002 0.997402 0.998227
0.990155 1.00668 0.986686 0.996854
0.938718 0.964053 0.981235 0.992342
0.919404 0.972707 0.965307 0.979171
0.977432 1.00123 0.978301 0.997885
0.968061 0.992523 0.983063 0.992157
0.987306 1.02526 0.965108 0.997795
1.00232 1.01555 0.989772 0.997178
0.997333 1.03623 0.96459 0.997792
1.03704 1.04479 0.994912 0.997663
0.998786 1.02841 0.973224 0.997917
1.01023 1.04724 0.966635 0.997958
1.0127 1.0461 0.970225 0.997785
1.02832 1.04172 0.98909 0.998023
1.02164 1.03676 0.987464 0.997923
1.02944 1.04261 0.989681 0.997664
1.02528 1.03313 0.994448 0.997941
1.03012 1.03758 0.995004 0.997789
1.03352 1.03779 0.998415 0.997471
1.02795 1.03133 0.998932 0.997791
1.03091 1.03372 0.999756 0.997524
1.03438 1.03727 1 0.997211
1.02953 1.03209 1 0.997521
1.03254 1.03546 1 0.99718
1.03239 1.03552 1 0.996978
1.03329 1.03644 1 0.996966
1.03014 1.03331 1 0.996938
1.02166 1.02465 1 0.997079
1.00445 1.00668 1 0.997783
1.01774 1.02071 1 0.997097
1.02708 1.03033 1 0.996844
0.999163 1 1 0.999163
1.00204 1.00415 1 0.997904
1.01127 1.0141 1 0.997209
1 1 1 1
0.999292 1 1 0.999292
0.999918 1.00183 1 0.998087
1 1 1 1
0.999602 1 1.00014 0.999463
1 1 1 1
1.01389 1.0169 1 0.997038
1.00732 1.00998 1 0.997364
1.00519 1.00754 1 0.997665
1.00096 1.00314 1.00001 0.997816
1.00002 1.00144 1.00056 0.998026
0.99985 1.00005 1.00124 0.998564
0.999496 1 1.00116 0.998336
1.0008 1 1.00196 0.998843
1.00045 1 1.00066 0.99979
0.999702 1 1.00061 0.999091
0.999883 1 1 0.999883
1 1 1 1
0.999931 1 1 0.999931
1 1 1 1
1 1 1 1
0.987487 1.01057 0.97895 0.998173
0.937259 0.976856 0.969934 0.989206
0.930444 0.972959 0.9747 0.981127
1.01327 1.01597 1.00001 0.997328
1.02529 1.02841 1 0.996966
1.01575 1.01862 1.00013 0.997055
0.997859 1 1 0.997859
1.0063 1.00835 1.00073 0.997239
1.00274 1.0053 0.99972 0.997729
1.01491 1.01805 0.999713 0.997208
0.995233 1.00109 0.99623 0.997915
0.979188 1.00113 0.980215 0.997824
1.00219 1.00729 0.997623 0.997303
1.01746 1.02298 0.997596 0.997008
1.01003 1.02274 0.989863 0.997681
1.00301 1.0081 0.997568 0.997376
0.998017 1.00262 0.998072 0.997328
0.993974 1.0082 0.987394 0.998478
0.942633 0.980748 0.972383 0.988435
0.994048 1.0065 0.988717 0.998898
1.0194 1.03409 0.9875 0.998278
0.989795 1.00539 0.987487 0.996962
0.942343 0.973094 0.977843 0.990342
0.990509 1.02666 0.966852 0.997865
1.00156 1.01519 0.98915 0.997389
0.99706 1.03678 0.963718 0.997894
1.03743 1.04628 0.993861 0.997674
1.03242 1.053 0.98275 0.997666
1.05651 1.06696 0.9924 0.99779
1.01377 1.04951 0.967929 0.997948
1.01674 1.04637 0.973835 0.997787
1.03271 1.05076 0.985216 0.997567
1.02119 1.03641 0.987362 0.997919
1.02937 1.04196 0.990231 0.997662
1.03489 1.04317 0.994614 0.997437
1.0293 1.03676 0.994989 0.997802
1.03397 1.03816 0.998493 0.997468
1.03735 1.0404 0.999872 0.997197
1.03136 1.03414 0.999794 0.997523
1.03439 1.03729 1 0.997211
1.03546 1.03861 1 0.99697
1.03271 1.0356 1 0.997215
1.03206 1.03518 1 0.996989
1.02386 1.02689 1 0.997042
1.02993 1.03312 1 0.996918
1.02153 1.02453 1 0.997072
1.00656 1.00887 1 0.997713
0.999094 1 1 0.999094
1.00508 1.00731 1 0.997782
1.01719 1.02013 1 0.997118
1 1 1 1
0.999151 1 1 0.999151
1.00309 1.0052 1 0.997903
1 1 1 1
0.999279 1 1 0.999279
1 1 1 1
1.02175 1.02493 1 0.996896
1.01443 1.01746 1 0.99702
1.00952 1.01219 1 0.997358
1.00795 1.01061 1 0.997367
1.00377 1.00611 1 0.997672
0.99957 1.00097 1.00032 0.998285
0.998988 1.0005 1.00046 0.998025
1.00035 1 1.00179 0.998566
1.00022 1 1.00059 0.999629
1.00116 1 1.00232 0.998844
1.00009 1 1.00029 0.999805
1 1 1 1
0.999893 1 1 0.999893
1 1 1 1
1 1 1 1
1.00841 1.032 0.978927 0.998171
0.985153 1.00952 0.978222 0.997588
0.936346 0.978528 0.966609 0.989947
1.02418 1.02715 1 0.997105
1.01414 1.01667 1 0.997509
1.03972 1.04288 1 0.996972
1.02598 1.02912 1 0.996951
1.01384 1.01659 1.00018 0.997112
1.03395 1.03743 0.999701 0.996939
1.00364 1.00677 0.999199 0.997689
1.01332 1.01647 0.99975 0.997146
1.03612 1.04777 0.99166 0.99719
1.00252 1.00885 0.996341 0.997376
1.01814 1.02376 0.997537 0.996965
1.01062 1.02353 0.989653 0.997708
1.00333 1.00838 0.997635 0.997343
0.998254 1.01012 0.989584 0.998654
1.04443 1.06023 0.987229 0.997848
1.01953 1.03396 0.987727 0.998291
0.989048 1.00409 0.987919 0.997064
0.99741 1.03669 0.964038 0.997996
1.03698 1.04688 0.992845 0.997686
1.02905 1.05252 0.979971 0.997685
1.05693 1.06844 0.991419 0.997787
1.04801 1.06247 0.988683 0.997683
1.02023 1.04628 0.977261 0.997789
1.03312 1.0502 0.986127 0.997576
1.03614 1.04878 0.990471 0.997456
1.02919 1.04129 0.9907 0.99766
1.0345 1.04271 0.994695 0.997418
1.03919 1.04348 0.998714 0.997172
1.03448 1.03859 0.998574 0.997465
1.03747 1.0405 0.999895 0.997195
1.0389 1.04209 1 0.996945
1.03441 1.0373 1 0.997211
1.03529 1.03843 1 0.996973
1.02677 1.02989 1 0.996975
1.03173 1.03483 1 0.997
1.02404 1.02708 1 0.997046
1.00748 1.00986 1 0.997638
1.02136 1.02437 1 0.997064
1.00677 1.00908 1 0.997711
0.99923 1 1 0.99923
0.999728 1 1 0.999728
0.999155 1 1 0.999155
1.00567 1.00791 1 0.997781
1 1 1 1
0.99914 1 1 0.99914
1 1 1 1
1.04683 1.04994 1 0.99704
1.03161 1.03477 1 0.996941
1.02255 1.02574 1 0.996892
1.01433 1.01719 1 0.99719
1.0152 1.01825 1 0.997001
1.00928 1.01195 1 0.997359
1.00144 1.0034 1 0.998052
1.00231 1.00464 1 0.997679
0.999357 1.00062 1.00045 0.998288
0.99952 1 1.00011 0.999409
1.00111 1 1.00255 0.998568
1.00025 1 1.0006 0.999649
1 1 1 1
0.99982 1 1 0.99982
1 1 1 1
1 1 1 1
1.0403 1.05875 0.984947 0.997599
1.01252 1.03636 0.978716 0.998241
0.983247 1.00962 0.976801 0.99701
1.03748 1.04063 1 0.996967
1.02296 1.02587 1 0.997163
1.0147 1.01705 1 0.997686
1.03858 1.04172 1 0.99699
1.02663 1.02978 1 0.996936
1.0436 1.05295 0.993933 0.997169
1.03042 1.03392 0.999711 0.996898
1.01201 1.01497 1 0.997084
1.03526 1.0469 0.991666 0.997184
1.02092 1.0262 0.997929 0.996921
1.01397 1.02756 0.989015 0.997741
1.04773 1.06173 0.989006 0.99778
1.04654 1.06161 0.987911 0.997874
1.01967 1.03398 0.987838 0.998305
1.02688 1.05301 0.977428 0.997704
1.05813 1.07062 0.990528 0.997784
1.04805 1.0635 0.98775 0.997693
1.04094 1.051 0.992872 0.997538
1.03346 1.04953 0.98707 0.997585
1.03617 1.0483 0.990959 0.997444
1.04109 1.0472 0.996956 0.997201
1.0341 1.04223 0.994782 0.997399
1.03973 1.04401 0.998732 0.997172
1.0418 1.04502 1 0.996921
1.03759 1.0406 0.99992 0.997192
1.03892 1.04211 1 0.996946
1.02942 1.03262 1 0.996902
1.03513 1.03827 1 0.996976
1.02705 1.03017 1 0.996978
1.00842 1.01091 1 0.997539
1.02424 1.02727 1 0.99705
1.00773 1.01011 1 0.997636
0.999236 1 1 0.999236
1.00699 1.00931 1 0.997709
0.999225 1 1 0.999225
0.999745 1 1 0.999745
0.999869 1 1 0.999869
0.999221 1 1 0.999221
1 1 1 1
1.04275 1.04589 1 0.996994
1.03752 1.04065 1 0.996991
1.04598 1.04896 1 0.997156
1.02282 1.0258 1 0.997091
1.03355 1.03673 1 0.99693
1.02341 1.0266 1 0.996887
1.01505 1.01791 1 0.997185
1.00525 1.0074 1 0.997869
1.00915 1.01182 1 0.99736
1.00064 1.0026 1 0.998053
0.99922 1 1 0.99922
0.99912 1.00031 1.00052 0.998292
0.999696 1 1.00027 0.999428
1 1 1 1
1.00019 1 1.00052 0.999669
1 1 1 1
1 1 1 1
1.04199 1.05684 0.988433 0.997488
1.03917 1.05744 0.98509 0.997594
1.01506 1.03862 0.978984 0.998303
1.04439 1.04934 0.9982 0.99708
1.03579 1.03894 1 0.996968
1.02183 1.02468 1 0.997221
1.03726 1.04037 1 0.997008
1.04244 1.05184 0.993901 0.997145
1.02669 1.03021 0.999721 0.996857
1.0314 1.0429 0.991777 0.997178
1.0429 1.05387 0.99197 0.9976
1.04678 1.06055 0.989249 0.997741
1.04851 1.06278 0.988659 0.997899
1.03999 1.04785 0.995061 0.997431
1.0478 1.06428 0.98678 0.997702
1.04069 1.05101 0.992634 0.997525
1.04271 1.04939 0.996327 0.997298
1.03628 1.04788 0.99148 0.997433
1.04117 1.04732 0.996921 0.997203
1.04301 1.04624 0.999991 0.996917
1.04025 1.0445 0.998754 0.997172
1.04175 1.04497 1 0.996922
1.0309 1.03416 1 0.996847
1.03886 1.04204 1 0.996947
1.02969 1.03289 1 0.996904
1.00918 1.01177 1 0.99744
1.02732 1.03043 1 0.996981
1.00864 1.01113 1 0.997538
0.999211 1 1 0.999211
1.00797 1.01036 1 0.997635
0.999227 1 1 0.999227
0.999749 1 1 0.999749
0.999223 1 1 0.999223
0.99975 1 1 0.99975
1 1 1 1
1.04319 1.0466 0.999841 0.996895
1.03881 1.04205 1 0.996899
1.04418 1.04732 1 0.996999
1.02816 1.03115 1 0.9971
1.03837 1.04148 1 0.997012
1.04529 1.04815 1 0.99727
1.00848 1.01079 1 0.997713
1.02285 1.02584 1 0.997084
1.0356 1.03881 1 0.996919
1.0156 1.01847 1 0.997181
1.004 1.00614 1 0.99787
0.999111 1 1 0.999111
0.999718 1.00167 1 0.998055
0.999233 1 1 0.999233
1 1 1 1
0.999882 1 1.00044 0.999447
1 1 1 1
1 1 1 1
1.04205 1.05079 0.994319 0.997349
1.04215 1.05734 0.988131 0.997472
1.03951 1.05779 0.985089 0.99759
1.04335 1.04849 0.998002 0.997095
1.03396 1.0371 1 0.996969
1.04189 1.05135 0.993861 0.997121
1.04069 1.04926 0.994384 0.997434
1.04333 1.05395 0.992313 0.997594
1.04587 1.05948 0.989427 0.997702
1.04055 1.04829 0.995152 0.997452
1.04399 1.04956 0.997449 0.997238
1.04041 1.05104 0.992362 0.997512
1.04283 1.04925 0.996618 0.997257
1.04296 1.04676 0.999369 0.996997
1.0412 1.04738 0.996885 0.997205
1.04344 1.04672 0.999948 0.99692
1.03108 1.03438 1 0.996809
1.04187 1.04509 1 0.996923
1.03137 1.03463 1 0.996848
1.00944 1.0121 1 0.997369
1.03011 1.0333 1 0.996906
1.00929 1.01188 1 0.99744
0.999158 1 1 0.999158
1.00888 1.01137 1 0.997537
0.999197 1 1 0.999197
0.999731 1 1 0.999731
0.99922 1 1 0.99922
0.999762 1 1 0.999762
0.999752 1 1 0.999752
1.04402 1.04817 0.998898 0.997136
1.04115 1.0445 1 0.996787
1.04396 1.04767 0.999538 0.996921
1.0303 1.03342 1 0.99699
1.03813 1.04136 1 0.996893
1.04552 1.04866 1 0.997005
1.00956 1.01199 1 0.997603
1.02815 1.03118 1 0.99706
1.03907 1.04217 1 0.997034
0.999071 1 1 0.999071
1.00776 1.01006 1 0.997716
1.02299 1.02599 1 0.997076
1.00281 1.00495 1 0.997872
0.999122 1 1 0.999122
1 1 1 1
0.999247 1 1 0.999247
1 1 1 1
1 1 1 1
1.03938 1.04658 0.995777 0.997329
1.04157 1.05044 0.994201 0.997342
1.04204 1.0575 0.987889 0.997456
1.0423 1.04763 0.997804 0.99711
1.04302 1.0476 0.998418 0.997198
1.04125 1.04956 0.994627 0.997444
1.0438 1.05399 0.992725 0.997587
1.04114 1.04874 0.995263 0.997473
1.04366 1.04932 0.997351 0.997249
1.0433 1.0471 0.999366 0.996999
1.04304 1.04917 0.996931 0.997215
1.04345 1.04704 0.999607 0.996958
1.03051 1.03379 1 0.996827
1.04384 1.04717 0.999904 0.996923
1.03121 1.03451 1 0.996812
1.00895 1.01167 1 0.997311
1.03161 1.03487 1 0.996849
1.00928 1.01194 1 0.997369
0.998961 1 1 0.998961
1.00935 1.01194 1 0.99744
0.999078 1 1 0.999078
1 1 1 1
0.999184 1 1 0.999184
0.999749 1 1 0.999749
0.99977 1 1 0.99977
1.04142 1.04564 0.998737 0.997223
1.04172 1.04497 1 0.996895
1.04395 1.04796 0.999047 0.997128
1.03152 1.03481 1 0.996827
1.04068 1.04401 1 0.996807
1.0448 1.04881 0.999227 0.996947
1.01001 1.01263 1 0.997418
1.03049 1.0336 1 0.99699
1.03749 1.04073 1 0.996886
0.999062 1 1 0.999062
1.00944 1.01191 1 0.997559
1.02812 1.0312 1 0.99702
1 1 1 1
0.999082 1 1 0.999082
1.00699 1.00929 1 0.997719
0.999134 1 1 0.999134
1 1 1 1
1 1 1 1
1.04142 1.0458 0.998593 0.997214
1.0399 1.04706 0.995812 0.997335
1.04101 1.05006 0.994033 0.997335
1.04322 1.04654 0.999883 0.996937
1.0423 1.04721 0.998096 0.997211
1.04177 1.04983 0.99486 0.997455
1.0433 1.04908 0.997223 0.99726
1.04308 1.04698 0.999276 0.997
1.02903 1.03224 1 0.996891
1.04384 1.04724 0.999828 0.996919
1.03028 1.03355 1 0.996841
1.0084 1.01124 1 0.997199
1.03145 1.03475 1 0.996814
1.00883 1.01155 1 0.997312
0.998914 1 1 0.998914
1.0092 1.01187 1 0.997369
0.998958 1 1 0.998958
1 1 1 1
0.998985 1 1 0.998985
0.999857 1 1 0.999857
0.999764 1 1 0.999764
1.04099 1.0447 0.99927 0.997174
1.04214 1.04533 1 0.996953
1.04181 1.04594 0.998823 0.99723
1.03184 1.03513 1 0.996826
1.04213 1.04539 1 0.99688
1.04393 1.04777 0.999211 0.99712
1.01009 1.01281 1 0.997318
1.03145 1.0347 1 0.996861
1.04019 1.0435 1 0.996827
0.999037 1 1 0.999037
1.00997 1.0126 1 0.997404
1.03067 1.03379 1 0.996989
1 1 1 1
0.999071 1 1 0.999071
1.00935 1.01186 1 0.997515
1 1 1 1
0.999093 1 1 0.999093
1 1 1 1
1.04369 1.04703 0.999827 0.996987
1.0407 1.04504 0.998648 0.997199
1.0404 1.04752 0.99585 0.997342
1.02892 1.03214 1 0.996884
1.04297 1.0465 0.999662 0.996959
1.04161 1.04684 0.997774 0.997225
1.04289 1.04686 0.999209 0.997001
1.0291 1.03231 1 0.996891
1.00775 1.01061 1 0.997175
1.03008 1.03333 1 0.996854
1.00835 1.01115 1 0.99723
0.998858 1 1 0.998858
1.00864 1.01136 1 0.997313
0.998911 1 1 0.998911
1 1 1 1
0.998955 1 1 0.998955
1 1 1 1
0.999741 1 1 0.999741
1.04377 1.04693 1 0.996975
1.04038 1.04432 0.99902 0.997197
1.03152 1.03477 1 0.996852
1.04237 1.04556 1 0.996951
1.04227 1.04631 0.998904 0.997236
1.00939 1.01208 1 0.997347
1.03146 1.03475 1 0.996823
1.04251 1.04579 1 0.996866
0.998986 1 1 0.998986
1.01025 1.01294 1 0.997347
1.03135 1.03456 1 0.996895
1 1 1 1
0.999043 1 1 0.999043
1.00993 1.01257 1 0.99739
1 1 1 1
0.99908 1 1 0.99908
1 1 1 1
1.02979 1.03297 1 0.996915
1.04357 1.04685 0.999897 0.996974
1.03997 1.04428 0.998681 0.997183
1.00674 1.00958 1 0.997184
1.02892 1.03213 1 0.996884
1.04271 1.04646 0.999436 0.996981
1.02917 1.03238 1 0.99689
1.00778 1.01063 1 0.997175
0.998821 1 1 0.998821
1.00832 1.01109 1 0.997261
0.998855 1 1 0.998855
1 1 1 1
0.998908 1 1 0.998908
1 1 1 1
1 1 1 1
1.03123 1.03447 1 0.996862
1.04339 1.04666 0.999874 0.997009
1.03971 1.04385 0.998814 0.997221
1.00853 1.01123 1 0.997334
1.03115 1.03441 1 0.996849
1.04254 1.04573 1 0.99695
0.998935 1 1 0.998935
1.0097 1.01239 1 0.997345
1.03111 1.0344 1 0.99682
1 1 1 1
0.998989 1 1 0.998989
1.01041 1.01307 1 0.997375
1 1 1 1
0.999049 1 1 0.999049
1 1 1 1
1.00667 1.00943 1 0.997269
1.02962 1.03284 1 0.996882
1.04348 1.04666 1 0.996961
0.99883 1 1 0.99883
1.00682 1.00967 1 0.997182
1.02892 1.03214 1 0.996884
1.0078 1.01065 1 0.997176
0.998821 1 1 0.998821
1 1 1 1
0.998852 1 1 0.998852
1 1 1 1
1 1 1 1
1.0075 1.01022 1 0.997308
1.03079 1.03402 1 0.996872
1.04304 1.04644 0.999712 0.997042
0.999074 1 1 0.999074
1.00882 1.01151 1 0.997333
1.03079 1.03405 1 0.996846
1 1 1 1
0.998936 1 1 0.998936
1.00998 1.01268 1 0.997343
1 1 1 1
0.998993 1 1 0.998993
1 1 1 1
0.998824 1 1 0.998824
1.00687 1.00966 1 0.99724
1.02947 1.03273 1 0.996849
1 1 1 1
0.998829 1 1 0.998829
1.0069 1.00974 1 0.997179
0.998819 1 1 0.998819
1 1 1 1
1 1 1 1
0.99903 1 1 0.99903
1.00782 1.01054 1 0.997308
1.03031 1.03353 1 0.996883
1 1 1 1
0.998902 1 1 0.998902
1.0091 1.01181 1 0.997331
1 1 1 1
0.998937 1 1 0.998937
1 1 1 1
0.999673 1 1 0.999673
0.998933 1 1 0.998933
1.00706 1.00987 1 0.997211
1 1 1 1
0.99883 1 1 0.99883
1 1 1 1
0.999689 1 1 0.999689
0.998956 1 1 0.998956
1.00818 1.0109 1 0.997308
0.999845 1 1 0.999845
0.998901 1 1 0.998901
1 1 1 1
1 1 1 1
0.998852 1 1 0.998852
1 1 1 1
0.999842 1 1 0.999842
0.998877 1 1 0.998877
1 1 1 1
1 1 1 1
1 1 1 1

VECTORS lamdaE float
1.00093 1.00015 0.994162
1.00057 1.00063 0.997185
1.00052 1.00036 0.994423
1.00111 1.00001 0.99404
1.00102 0.999972 0.994221
1.00087 1.00037 0.994001
1.00226 1.00047 0.991217
1.00059 1.00054 0.99719
1.00055 1.00017 0.997569
1.00005 1.00086 0.997613
1.00055 1.00057 0.994201
1.00197 1.00129 0.99013
1.00079 0.999981 0.994378
1.00053 0.999993 0.994576
1.00015 1.00057 0.994656
1.00081 0.999989 0.994339
1.00041 1.00073 0.994237
1.00068 1.00003 0.994494
1.00247 1.00029 0.991102
1.00079 1.00002 0.997201
1.00106 1.00006 0.994036
1.00109 0.999942 0.994151
1.00247 1.00009 0.991265
1.00241 1.00014 0.991309
1.00085 1.00046 0.993901
1.00203 1.00102 0.991037
1.00487 1.00049 0.98673
1.00059 1.0005 0.997213
1.00073 1.00006 0.995888
1.00034 1.00062 0.995914
1.00055 1.00047 0.997265
1.00186 1.00143 0.990138
1.00103 0.999822 0.994132
1.00075 1.00028 0.99424
1.00271 1.00008 0.991577
0.999866 1.00055 0.997858
1.00236 1.00079 0.991547
1.0017 1.0017 0.990148
1.00414 1.0015 0.986204
0.999963 0.99913 0.998264
1.00082 0.99999 0.997183
1.00073 1 0.995862
1.00075 0.999978 0.997226
1.00041 1.00003 0.99473
1.00248 0.999952 0.99062
1.00068 0.99996 0.99749
1.00277 1.00005 0.991542
1.00051 0.999926 0.994637
1.00036 1.00007 0.994754
0.999966 1.00112 0.994455
1.00266 1.0001 0.991001
1.00063 1.00004 0.995942
1.00075 1.00008 0.994339
1.00036 1.00091 0.994112
1.00079 0.999922 0.994438
1.0026 1.00005 0.991127
1.00229 1.00075 0.990926
1.00257 1.00004 0.99119
1.00484 1.00051 0.986737
1.00072 1.00001 0.997228
1.00095 1.00007 0.994176
1.00223 1.00002 0.992263
1.00239 1.00012 0.991343
1.00247 1.00005 0.991298
1.00483 1.00015 0.987044
1.00488 1.00016 0.986859
1.0007 1.00035 0.994149
1.00153 1.0019 0.990928
1.00477 1.00081 0.98661
1.00526 1.00032 0.985481
1.00097 1.00009 0.997164
1.00048 1.00037 0.997385
1.00064 1.00047 0.997186
1.00181 1.00149 0.990139
1.00108 0.999954 0.997107
1.00084 1.00028 0.997188
1.00258 1.00003 0.990241
1.00009 1.00037 0.996284
1.00213 1.00084 0.990228
1.00158 1.00193 0.990933
1.00424 1.00135 0.986202
1.00023 0.999793 0.997819
0.999996 1.00147 0.993316
1.00278 0.99994 0.990073
1.00253 1.00025 0.990223
1.00492 1.0002 0.9862
1.00107 1.00235 0.99219
1.00455 1.00078 0.986225
1.00338 1.00269 0.986363
1.00511 1.00125 0.984717
0.999827 0.998382 0.998645
0.999827 0.998976 0.998425
1.001 0.999984 0.997092
1.00086 0.999988 0.997172
1.00078 0.999983 0.997224
1.00065 0.999995 0.995956
1.00252 0.999942 0.991296
1.00085 0.999965 0.995806
1.0027 1.00006 0.990884
1.00076 0.999992 0.997232
1.00234 0.999875 0.990876
1.00267 1.00003 0.991733
1.00482 0.999498 0.987167
1.00279 0.999981 0.991511
1.00492 0.999769 0.986724
1.00076 1.00001 0.994424
1.00042 1.00008 0.994645
0.999874 1.00139 0.994322
1.00049 0.999876 0.994722
1.00272 1.00006 0.990989
1.00272 0.999954 0.991077
1.00254 1.00044 0.990825
1.00481 1.00053 0.986744
1.00077 0.999993 0.997229
1.00064 1.00006 0.994478
1.0024 0.999981 0.991133
1.00252 1.0001 0.991195
1.00045 1.00077 0.995679
1.00188 1.00167 0.991042
1.0026 0.999996 0.991172
1.00484 1.00007 0.987088
1.00472 1.00085 0.98662
1.00487 1.00027 0.986838
1.00526 1.0003 0.98551
1.00233 0.99993 0.990869
1.00229 1.00006 0.991536
1.00469 0.999456 0.987888
1.00477 0.999851 0.987336
1.00485 1.00003 0.987019
1.00529 0.999219 0.986808
1.00011 1.00052 0.997608
1.00527 0.999868 0.98592
1.00111 1.00269 0.990019
1.00431 1.00126 0.986147
1.00525 1.00081 0.985053
1.00521 0.99911 0.986678
1.00031 1.00282 0.991373
1.00098 1.0051 0.987884
1.00107 0.999981 0.997125
1.0008 1.00029 0.997186
1.00259 1.00002 0.990234
1.00023 1.00009 0.99772
1.00123 1.00232 0.990277
1.0021 1.00086 0.990241
1.00431 1.00121 0.9862
1.00005 0.999679 0.997989
0.999903 1.00162 0.993354
1.00279 0.999977 0.9908
1.00254 1.00029 0.990906
1.00492 1.00021 0.986182
1.00075 1.00251 0.990958
1.00458 1.00074 0.986217
1.00346 1.00251 0.986367
1.00517 1.00116 0.984779
1.00022 1.00236 0.992033
0.999964 1.00051 0.994396
1.00104 1.00453 0.988906
1.00497 1.00006 0.986287
1.0048 1.00041 0.986188
1.0053 0.999785 0.986003
1.00245 1.00369 0.986954
1.00523 1.00062 0.985266
1.00482 1.00177 0.984802
1.00521 1.00088 0.98493
0.999823 0.997871 0.998876
0.999783 0.998273 0.99874
0.999735 0.998783 0.998561
1.00009 1.00234 0.992224
0.999938 1.00009 0.997897
1.00108 0.999963 0.997087
1.0009 0.99999 0.997131
1.00258 1.00008 0.990266
1.00241 0.999942 0.990694
1.00076 0.999983 0.997217
1.00073 0.999986 0.997232
1.00233 0.999888 0.99087
1.00258 1.00002 0.991088
1.0048 0.999499 0.987172
1.00268 1.00002 0.990134
1.0049 0.999774 0.986718
1.0023 0.999894 0.990913
1.00477 0.999419 0.98731
1.00485 0.999617 0.986977
1.00529 0.997867 0.988116
1.00497 0.999927 0.986463
1.0053 0.998431 0.98751
1.00074 0.999992 0.997225
1.00031 1.00011 0.994781
1.00242 0.99998 0.990131
1.00266 1.00009 0.991046
0.999823 1.00128 0.997576
1.00233 1.00127 0.991158
1.00274 0.999969 0.991047
1.00486 0.999976 0.987131
1.00486 1.00038 0.986817
1.00466 1.00091 0.986631
1.00526 1.00029 0.985539
1.00231 0.999922 0.990871
1.00243 1.00007 0.991386
1.00472 0.999443 0.987588
1.0048 0.999953 0.98727
1.00026 1.00056 0.997501
1.00133 1.00245 0.990802
1.00417 1.00158 0.98639
1.00486 1.00007 0.986983
1.00529 0.998965 0.987026
1.00525 1.00075 0.985104
1.00527 0.999939 0.985959
1.00521 0.999117 0.986701
1.0004 1.00272 0.991354
1.00113 1.005 0.987882
1.00473 0.999499 0.987288
1.00472 0.999684 0.987654
1.00526 0.9983 0.987796
1.00528 0.998389 0.987572
1.00527 0.999325 0.986626
1.00525 0.997226 0.988692
1.00068 1.00298 0.990567
1.00522 0.998272 0.987525
1.00355 1.00223 0.986361
1.00522 1.00123 0.984582
1.0052 1.00019 0.985745
1.00519 0.997564 0.988359
1.00188 1.00451 0.987104
1.00065 1.00481 0.988855
1.00229 1.00466 0.98651
1.00269 0.999965 0.990159
0.999876 0.999556 0.998168
0.999838 1.00161 0.993391
1.00239 1.00033 0.990279
1.00492 1.00021 0.986163
1.00069 1.00263 0.990918
1.00351 1.00231 0.986369
1.00462 1.00071 0.986209
1.00519 1.00107 0.984842
1.00018 1.00242 0.992043
0.99995 1.00041 0.994442
1.00075 1.00464 0.988892
1.00496 1.00008 0.986267
1.00481 1.0004 0.986174
1.0053 0.999795 0.98598
1.00255 1.00351 0.986955
1.00525 1.00067 0.985206
1.00485 1.0017 0.984788
1.00521 1.00072 0.985033
1 0.999697 0.995126
1.00169 1.00437 0.987765
1.00061 1.00359 0.990321
1.00162 1.00462 0.987619
1.0053 0.999311 0.986511
1.00528 1.00025 0.985541
1.00524 0.998521 0.987243
1.00417 1.00227 0.985442
1.00522 0.999811 0.98613
1.00502 1.00146 0.984758
1.00517 1.00024 0.985601
1.00023 1.00111 0.993337
1.00023 0.998724 0.995685
0.999874 0.997538 0.998992
0.999808 0.997807 0.998924
0.999759 0.998151 0.99882
1.00002 1.00153 0.993161
0.999837 0.999553 0.998172
1.00018 1.00226 0.992202
1.00004 1.00019 0.99779
1.00267 1.00005 0.990137
1.0025 1.00001 0.990479
1.00488 0.999781 0.986713
1.00478 0.999504 0.987177
1.00234 0.999905 0.99087
1.00078 0.999977 0.997231
1.00232 0.999889 0.990917
1.00475 0.999429 0.987312
1.00484 0.999627 0.986976
1.00529 0.997876 0.988111
1.00495 0.999941 0.986448
1.0053 0.998431 0.987492
1.00473 0.999437 0.98734
1.00531 0.99773 0.988218
1.00527 0.998104 0.987897
1.00521 0.99543 0.990646
1.00531 0.998843 0.987022
1.00527 0.996435 0.989492
1.00232 0.999917 0.990876
1.00257 1.00004 0.991236
1.00474 0.999412 0.987291
1.00482 1.00004 0.987205
1.00036 1.00063 0.99739
1.00162 1.00225 0.99141
1.00415 1.00184 0.98663
1.00487 1.0001 0.986948
1.00529 0.998708 0.987244
1.00527 1.00001 0.985999
1.00525 1.00069 0.985155
1.00521 0.999121 0.986725
1.00045 1.00262 0.991338
1.00127 1.0049 0.987878
1.00474 0.999374 0.987364
1.00474 0.99966 0.987633
1.00526 0.998105 0.988025
1.00528 0.998665 0.987326
1.00076 1.00285 0.990566
1.00353 1.00239 0.986355
1.0052 1.00129 0.984552
1.00527 0.999475 0.986503
1.00525 0.996949 0.988981
1.0052 1.00006 0.985888
1.00523 0.998277 0.987536
1.00518 0.997492 0.988342
1.0019 1.00446 0.987111
1.00207 1.00453 0.986527
1.00073 1.00475 0.98886
1.00529 0.998091 0.987961
1.00525 0.998244 0.987918
1.00524 0.995913 0.990098
1.00525 0.996457 0.989425
1.00523 0.997314 0.98842
1.00518 0.995546 0.990363
1.00283 1.00328 0.986642
1.0052 0.996465 0.989196
1.00513 1.00163 0.984551
1.0052 1.00104 0.984727
1.00517 0.998963 0.986924
1.00515 0.996591 0.989307
1.00029 1.00444 0.98993
1.00349 1.00309 0.985927
1.00117 1.00509 0.987465
1.00371 1.00337 0.985706
1.00495 1.00009 0.986247
0.999946 1.00033 0.994487
1.00004 1.00261 0.99206
1.00046 1.00481 0.988878
1.00482 1.00038 0.98616
1.0053 0.999805 0.985958
1.0026 1.00336 0.986961
1.00496 1.00168 0.984773
1.00526 1.00072 0.985146
1.0052 1.00056 0.985136
1.00001 0.999587 0.995163
1.00155 1.00442 0.987764
1.00044 1.00373 0.990339
1.00146 1.00477 0.987615
1.0053 0.99932 0.98649
1.00528 1.00025 0.985517
1.00524 0.998515 0.987234
1.00427 1.00212 0.985448
1.00521 0.999913 0.985991
1.00505 1.00135 0.984743
1.00516 1.00016 0.985746
1.00014 0.999043 0.995517
1.00039 1.00259 0.991638
1.00293 1.00328 0.986529
1.00092 1.00488 0.988859
1.00263 1.00343 0.987289
1.00525 0.997832 0.987962
1.00522 0.999174 0.986571
1.0052 0.99742 0.98821
1.00463 1.0014 0.985191
1.00516 0.999114 0.986762
1.00474 1.00112 0.985341
1.0003 1.00127 0.993072
1.00032 1.00252 0.991814
1.00014 1.00106 0.993556
1.00022 1.00112 0.993333
1.00022 0.998518 0.99644
1.00021 0.998691 0.996024
1.00005 0.997267 0.997749
0.999878 0.997491 0.999004
0.999801 0.997736 0.998958
0.999852 1.00074 0.994201
0.999801 0.998963 0.998479
1.00005 1.00152 0.993137
0.999936 0.999647 0.998073
1.0003 1.00209 0.992179
1.00016 1.00027 0.997682
1.00493 0.999952 0.986433
1.00482 0.999633 0.986975
1.0053 0.99845 0.987474
1.00528 0.997885 0.988106
1.00474 0.99944 0.987315
1.00231 0.99988 0.990917
1.00473 0.999438 0.987341
1.00531 0.997735 0.988219
1.00527 0.998119 0.98788
1.00523 0.995393 0.990656
1.00531 0.998849 0.987006
1.00527 0.996432 0.989488
1.0053 0.997725 0.988229
1.00521 0.995286 0.990854
1.00525 0.995786 0.990199
1.00522 0.994959 0.99102
1.00525 0.997166 0.988717
1.00527 0.995122 0.99049
1.00474 0.999251 0.987441
1.00477 0.99965 0.987612
1.00526 0.997931 0.988255
1.00528 0.998943 0.98708
1.00085 1.00275 0.99057
1.00337 1.0027 0.986355
1.00517 1.00136 0.98452
1.00527 0.999625 0.98638
1.00525 0.996674 0.98927
1.00523 0.998281 0.987547
1.0052 0.999923 0.98603
1.00518 0.997418 0.988324
1.00197 1.00439 0.987117
1.00199 1.00444 0.986545
1.0008 1.00468 0.988866
1.00529 0.997972 0.988061
1.00525 0.998232 0.987909
1.00524 0.995711 0.990339
1.00525 0.996626 0.989269
1.0028 1.00341 0.986638
1.00504 1.00166 0.98457
1.0052 1.00113 0.984631
1.00523 0.997608 0.988149
1.00519 0.995343 0.990491
1.00517 0.998898 0.986877
1.0052 0.996503 0.98919
1.00516 0.996452 0.989399
1.00352 1.00307 0.985922
1.00353 1.00342 0.985572
1.0004 1.00421 0.989947
1.00102 1.00509 0.987628
1.00523 0.995351 0.990749
1.00524 0.996248 0.989665
1.00521 0.995028 0.990984
1.00521 0.99495 0.990804
1.0052 0.995696 0.989917
1.00517 0.995091 0.990721
1.00485 1.00159 0.985199
1.00517 0.995326 0.990223
1.00517 1.00197 0.983963
1.00513 1.00055 0.985186
1.00518 0.998229 0.987384
1.00517 0.99652 0.989338
1.00018 1.00348 0.990998
1.00059 1.0051 0.988522
1.00481 1.00183 0.98505
1.00177 1.00503 0.986942
1.00433 1.00331 0.984865
1.00002 0.999492 0.995199
1.0053 0.999327 0.986469
1.0003 1.00384 0.990357
1.00145 1.00447 0.987761
1.00131 1.00486 0.987611
1.00529 1.00026 0.985494
1.00523 0.99851 0.987226
1.00455 1.00172 0.985454
1.00515 1.00125 0.984729
1.0052 1.00001 0.985854
1.00516 1.00009 0.985892
1.00015 0.999001 0.995542
1.00031 1.00265 0.991667
1.00306 1.00321 0.986533
1.00061 1.00495 0.988852
1.00235 1.0034 0.987319
1.00525 0.997822 0.987954
1.00522 0.999163 0.986564
1.00521 0.997384 0.988193
1.00489 1.00133 0.985181
1.00516 0.999173 0.986619
1.00488 1.00108 0.98537
1.00036 1.00172 0.992578
1.00051 1.00405 0.990298
1.00412 1.00157 0.986126
1.00104 1.00504 0.988586
1.00302 1.00218 0.987827
1.00522 0.996687 0.988998
1.00518 0.998186 0.98741
1.00522 0.996624 0.988606
1.00437 1.00101 0.985756
1.00496 0.999785 0.986026
1.0003 1.00126 0.993071
1.00031 1.00254 0.991696
1.00018 1.00267 0.991778
1.00044 1.0029 0.991431
1.00023 1.00258 0.991933
1.00006 1.00103 0.993698
1.00013 1.00104 0.993561
1.0002 0.99844 0.996529
1.00021 1.00114 0.993329
1.00023 0.998526 0.996454
1.00012 0.997058 0.997813
1.0002 0.99868 0.996356
0.999986 0.997273 0.998394
0.999886 0.997426 0.999016
0.99981 0.999848 0.995166
0.999883 1.0008 0.994174
0.999724 0.998354 0.998798
0.999868 0.999072 0.998362
1.0001 1.0016 0.993112
1.00002 0.999766 0.997968
1.00531 0.998852 0.98699
1.00528 0.998117 0.987864
1.00526 0.996428 0.989484
1.00524 0.995368 0.990667
1.00531 0.997742 0.988219
1.00473 0.999439 0.987341
1.00531 0.997729 0.988229
1.00521 0.995265 0.990864
1.00525 0.995785 0.990205
1.00522 0.994957 0.991015
1.00526 0.99714 0.988703
1.00528 0.995137 0.990493
1.00523 0.995279 0.990865
1.00516 0.994968 0.991156
1.00525 0.994935 0.99084
1.00523 0.994948 0.990972
1.00525 0.995856 0.989802
1.00528 0.994911 0.990676
1.0053 0.997849 0.98816
1.00525 0.998232 0.987899
1.00523 0.995505 0.99058
1.00526 0.996789 0.989113
1.00277 1.00349 0.986634
1.00499 1.00168 0.984586
1.0052 1.00116 0.984536
1.00524 0.997901 0.987879
1.0052 0.995142 0.99062
1.00519 0.99654 0.989185
1.00518 0.998849 0.986831
1.00516 0.996308 0.989493
1.00331 1.00321 0.985916
1.00312 1.00347 0.985438
1.00053 1.00405 0.989963
1.00091 1.00508 0.987792
1.00523 0.995359 0.990746
1.00524 0.99632 0.989631
1.00522 0.994991 0.99101
1.00521 0.994944 0.990815
1.00452 1.00199 0.985172
1.00511 1.00203 0.983915
1.00514 1.0005 0.985167
1.0052 0.995914 0.989744
1.00516 0.995018 0.990756
1.00515 0.998281 0.98736
1.00518 0.995311 0.990211
1.00517 0.99629 0.989477
1.00464 1.00193 0.985048
1.00407 1.00344 0.984748
1.00172 1.00503 0.986943
1.00018 1.00339 0.990982
1.00045 1.00509 0.988646
1.00518 0.994958 0.991128
1.00522 0.994924 0.990969
1.0052 0.994905 0.990707
1.00519 0.994992 0.990626
1.00509 1.00221 0.984217
1.00518 0.995196 0.990329
1.00509 1.00177 0.98388
1.00514 1.00011 0.985462
1.00514 0.9981 0.987455
0.999957 1.00228 0.99227
1.00027 1.00484 0.98959
1.00102 1.00509 0.988249
1.00508 1.00252 0.984191
1.0023 1.005 0.985701
1.0046 1.00335 0.98374
1.00015 0.998969 0.995566
1.00023 1.00272 0.991695
1.00524 0.997813 0.987948
1.00026 1.00502 0.988843
1.00298 1.00339 0.986539
1.0021 1.00338 0.987347
1.00521 0.999154 0.986556
1.00521 0.997349 0.988176
1.00507 1.00125 0.985171
1.00504 1.00108 0.9854
1.00515 0.999223 0.986476
1.00031 1.00172 0.992589
1.00021 1.00424 0.9903
1.00433 1.00148 0.986051
1.00078 1.00506 0.988575
1.00288 1.00197 0.987896
1.00522 0.996655 0.988996
1.00518 0.998202 0.987387
1.00522 0.99668 0.988603
1.00458 1.00099 0.985728
1.00498 0.999907 0.986035
1.00037 1.00307 0.991333
0.999794 1.00488 0.989922
1.00463 1.00039 0.986464
1.00095 1.00418 0.988836
1.00378 1.00061 0.987794
1.00524 0.9956 0.989749
1.0052 0.99813 0.987295
1.00521 0.996861 0.988236
1.0046 1.00023 0.986255
1.00506 0.999759 0.986029
1.0003 1.00124 0.993071
1.00032 1.00257 0.991711
1.00009 1.00302 0.991517
1.00008 1.00277 0.991744
1.00015 1.00268 0.991923
1.00018 1.00309 0.991445
1.00008 1.00285 0.991939
1.00006 1.00341 0.991166
1.00011 1.00264 0.992061
1.00002 1.00114 0.993664
1.00006 1.00102 0.993698
1.00015 0.998461 0.996593
1.00012 1.001 0.993566
1.00021 0.99845 0.996539
1.00015 0.99694 0.997859
1.00023 0.998519 0.996472
1.0001 0.997051 0.997818
0.999915 0.997263 0.999056
0.999872 0.999057 0.995884
0.999806 0.999961 0.995121
0.99969 0.997907 0.998998
0.999915 1.00084 0.994147
0.999781 0.998505 0.998688
0.999943 0.999157 0.998253
1.00526 0.997115 0.988688
1.00524 0.995774 0.99021
1.00528 0.995159 0.990496
1.00522 0.994955 0.99101
1.00521 0.995244 0.990873
1.00531 0.997733 0.98823
1.00522 0.995268 0.990868
1.00517 0.994971 0.991169
1.00525 0.994933 0.990875
1.00523 0.994945 0.990948
1.00525 0.995869 0.989819
1.00529 0.994906 0.990622
1.00517 0.994975 0.99118
1.00521 0.994947 0.991041
1.00525 0.994931 0.990796
1.00525 0.995081 0.990413
1.00521 0.995369 0.990744
1.00525 0.996381 0.989597
1.00524 0.994941 0.991035
1.0052 0.994942 0.990827
1.00437 1.00219 0.985148
1.00506 1.00208 0.983868
1.00515 1.00048 0.98515
1.0052 0.996136 0.98957
1.00515 0.994937 0.990792
1.00518 0.995298 0.990198
1.00513 0.99832 0.987334
1.00518 0.99603 0.989615
1.00452 1.00203 0.985047
1.00394 1.0033 0.984628
1.00162 1.00503 0.986944
1.00021 1.00321 0.990972
1.00037 1.00509 0.988772
1.00518 0.994954 0.991117
1.00522 0.99498 0.990904
1.0052 0.994907 0.990746
1.00494 1.00223 0.984237
1.00506 1.00192 0.983847
1.00511 1.00008 0.985452
1.00518 0.995029 0.990584
1.00517 0.997833 0.987769
1.00516 0.99528 0.990235
1.00001 1.00208 0.992476
1.00488 1.00229 0.984189
1.00436 1.00338 0.984082
1.0025 1.00501 0.985783
1.00102 1.00509 0.988379
1.00022 1.00486 0.989489
1.0052 0.994952 0.991044
1.00523 0.994912 0.990802
1.00522 0.994893 0.990646
1.00517 0.994905 0.990627
1.00508 1.00268 0.98365
1.00514 0.996093 0.989358
1.005 1.00158 0.984149
1.00507 1.00049 0.985241
1.00007 1.00065 0.993797
0.999977 1.00402 0.990882
1.00054 1.00509 0.989209
1.00174 1.00507 0.986903
1.00487 1.00321 0.98332
1.00429 1.00434 0.983431
1.00027 1.00172 0.9926
0.999981 1.00435 0.990304
1.00522 0.996623 0.988994
1.00048 1.00509 0.988565
1.00459 1.00136 0.985974
1.00244 1.00199 0.987966
1.00518 0.998217 0.987365
1.00523 0.996751 0.988597
1.00475 1.00101 0.985698
1.00503 1.00003 0.986044
1.00025 1.00313 0.99134
1 1.0049 0.989752
1.00487 1.00036 0.98637
1.0007 1.00444 0.988921
1.00369 1.00047 0.987865
1.00524 0.99559 0.989863
1.0052 0.998053 0.987454
1.00522 0.997017 0.988202
1.00458 1.00031 0.986298
1.00501 0.99993 0.985807
0.999708 1.00368 0.991128
0.999946 1.00498 0.989376
1.00469 0.999488 0.987056
1.00252 1.00168 0.987957
1.00528 0.994894 0.990226
1.00522 0.996277 0.989402
1.00504 0.999159 0.986344
1.00506 0.999669 0.98592
1.00036 1.00255 0.991725
1.00018 1.00302 0.991512
0.999702 1.00334 0.992232
1.00007 1.00281 0.991912
0.99992 1.00329 0.99146
1.00008 1.00267 0.992051
0.999908 1.00285 0.992134
1.0001 1.00345 0.991151
0.999812 1.00186 0.993326
0.999926 1.00373 0.991293
1.00002 1.00368 0.990953
1.00013 1.00267 0.99199
0.999983 1.00136 0.993453
0.999998 1.00113 0.99366
1.00007 0.998524 0.996659
1.00005 1.001 0.993698
1.00016 0.998482 0.996602
1.00013 0.996943 0.997891
1.00022 0.998462 0.996552
1.00014 0.99693 0.997863
1.00007 0.997054 0.997816
0.999997 0.998447 0.996313
0.999872 0.999154 0.995828
0.999716 0.997512 0.999121
0.999796 1.00009 0.995075
0.999723 0.997985 0.998946
0.999859 0.998593 0.99856
1.00525 0.995875 0.989836
1.00525 0.99493 0.990909
1.00529 0.994902 0.990569
1.00522 0.994942 0.990924
1.00517 0.994975 0.991181
1.00521 0.995258 0.990871
1.00518 0.994976 0.991172
1.00522 0.994948 0.99104
1.00525 0.994927 0.990789
1.00524 0.995066 0.990461
1.00522 0.994958 0.991068
1.00526 0.99493 0.99089
1.00528 0.994898 0.990641
1.00519 0.99495 0.991105
1.00523 0.99504 0.990838
1.00519 0.994906 0.990784
1.00475 1.00228 0.984256
1.00502 1.00206 0.983811
1.00509 1.00003 0.985442
1.00518 0.995061 0.990543
1.00514 0.995327 0.99014
1.00518 0.99756 0.988082
1.00484 1.00223 0.984186
1.00393 1.00337 0.984422
1.00282 1.005 0.985866
1.00006 1.00189 0.992685
1.00086 1.00508 0.988508
1.00012 1.0049 0.989383
1.0052 0.99495 0.991049
1.00523 0.99491 0.990775
1.00522 0.99489 0.990634
1.00495 1.0027 0.983697
1.00502 1.00158 0.984064
1.00508 1.00021 0.985572
1.00517 0.994909 0.990585
1.00512 0.996116 0.989286
1.00008 1.00057 0.994005
0.999971 1.00406 0.990862
1.00477 1.00274 0.983394
1.00379 1.00438 0.984287
1.00174 1.00506 0.987142
1.00046 1.00508 0.98908
1.00524 0.994926 0.990921
1.00527 0.994872 0.990526
1.00521 0.994887 0.99061
1.00511 0.994924 0.990452
1.00461 1.00277 0.983448
1.00506 0.998873 0.9868
1.00498 1.00217 0.983966
1.00025 0.999889 0.994549
1.00031 1.00102 0.993373
0.999899 1.00216 0.992681
1.00011 1.00496 0.989775
1.00072 1.00508 0.988269
1.00177 1.00458 0.986113
1.00462 1.00317 0.9836
1.00388 1.00406 0.985224
1.00012 1.00329 0.991347
1.00016 1.00504 0.989581
1.00525 0.995585 0.989978
1.00082 1.00439 0.989003
1.00506 1.00038 0.986279
1.00353 1.00035 0.987934
1.0052 0.997949 0.987616
1.00522 0.99713 0.988172
1.00469 1.00036 0.986342
1.00498 1.00006 0.985587
0.999862 1.00373 0.990999
1.00012 1.00501 0.989352
1.00494 0.999448 0.987031
1.00279 1.00182 0.988044
1.0053 0.994881 0.990279
1.00522 0.99623 0.989267
1.00503 0.999098 0.986442
1.00506 0.999823 0.98585
0.999779 1.00407 0.99073
1.00531 0.994878 0.99032
1.00188 1.00403 0.98831
1.00472 0.999809 0.986847
1.00523 0.995257 0.990425
1.00501 0.998192 0.986403
1.0048 1.00097 0.985353
1.00021 1.00305 0.991506
0.999691 1.00322 0.992154
0.999179 1.00289 0.993793
1.00008 1.00265 0.992041
1.00014 1.00352 0.991135
0.99942 1.00318 0.992328
1.00011 1.00267 0.991981
0.999947 1.00378 0.990978
0.999337 1.00217 0.993549
1.00006 1.00357 0.991253
0.999602 1.0007 0.99536
0.999463 1.0028 0.992883
0.99991 1.00449 0.990372
1.00036 1.00367 0.990576
1.00012 1.00299 0.99165
0.999916 1.00176 0.993164
0.999932 1.00148 0.993437
0.999967 0.998734 0.996662
0.999969 1.0012 0.993654
1.00007 0.998575 0.996656
1.00006 0.99697 0.997957
1.00016 0.998505 0.996612
1.00013 0.996924 0.99789
1.00013 0.996922 0.997862
1.00019 1.00005 0.994517
1.0001 0.998105 0.996504
0.999999 0.998508 0.996281
0.999805 0.997142 0.999188
0.999868 0.999259 0.995772
0.999736 0.997593 0.999091
0.999763 0.998098 0.998881
1.00524 0.995052 0.990508
1.00525 0.994922 0.990782
1.00522 0.994948 0.991038
1.00518 0.994976 0.991164
1.00522 0.994961 0.99106
1.00525 0.99493 0.990905
1.00526 0.994898 0.990621
1.00525 0.994923 0.990953
1.00532 0.994922 0.990698
1.00533 0.994983 0.991115
1.00521 0.994947 0.991053
1.00522 0.99491 0.990748
1.00522 0.994889 0.990623
1.00471 1.0027 0.983745
1.00505 1.00176 0.98399
1.00499 0.999975 0.985904
1.00516 0.994915 0.990543
1.0051 0.996229 0.989214
1.00472 1.00279 0.983472
1.00347 1.00448 0.985142
1.00153 1.00504 0.98738
1.00007 1.00043 0.994212
1.00011 1.00394 0.990844
1.00047 1.00507 0.988946
1.00524 0.994925 0.990906
1.0002 0.99993 0.994543
1.00024 1.00108 0.993275
1.00527 0.994884 0.990539
1.0052 0.994879 0.990619
1.00494 1.00279 0.983397
1.0048 1.00206 0.984057
1.00504 0.998694 0.986717
1.00511 0.994993 0.990373
0.999964 1.00213 0.992862
1.00015 1.00485 0.989739
1.00471 1.00349 0.983336
1.00311 1.00383 0.985996
1.00198 1.0048 0.986416
1.0008 1.00509 0.988292
1.0053 0.994909 0.990675
1.00526 0.994801 0.990533
1.00515 0.994862 0.990362
1.00489 0.995056 0.990369
1.00427 1.00305 0.984002
1.00447 1.00222 0.984697
1.00006 1.00166 0.992865
1.00027 1.00091 0.993523
1.0008 1.00083 0.992943
1.00032 1.00297 0.991277
1.00029 1.00506 0.989352
1.00217 1.00435 0.987348
1.00098 1.00515 0.986766
1.00391 1.00052 0.986252
1.00008 1.00366 0.990873
1.00043 1.00502 0.98933
1.00531 0.994868 0.990333
1.00521 0.996233 0.989132
1.00309 1.00202 0.988131
1.00508 0.999369 0.987004
1.00501 0.999069 0.986536
1.00507 0.999996 0.985781
1.00006 1.00395 0.990656
1.00532 0.994885 0.990534
1.00162 1.00408 0.98838
1.00482 0.999853 0.986692
1.00522 0.995236 0.990421
1.00501 0.99837 0.986644
1.00477 1.00086 0.985382
1.00011 1.00475 0.99015
1.00472 0.994847 0.991263
1.00305 1.00252 0.987576
1.00461 1.0012 0.985357
1.00482 0.996482 0.989595
1.00366 1.0015 0.985831
0.99855 0.996852 0.98751
0.999582 1.00322 0.992077
0.998792 1.00308 0.993769
0.999392 1.00223 0.994371
1.00004 1.00274 0.991971
0.999912 1.00387 0.991003
1.00034 1.00326 0.991215
0.999026 1.00229 0.993775
1.00009 1.00303 0.991649
1.00023 1.00377 0.990608
0.999579 1.00083 0.994934
0.999972 1.00448 0.990388
0.999723 1.00272 0.992607
0.999051 1.00141 0.995559
1.0003 1.0047 0.98982
1.0001 1.00458 0.990298
1.00054 1.00386 0.99017
1.00013 1.00342 0.991023
1.00028 1.00404 0.990586
1.00011 1.0036 0.990828
0.999929 1.00187 0.993025
0.999944 1.00174 0.993146
0.999866 0.998891 0.996078
0.999943 1.00145 0.993419
0.999961 0.998796 0.996344
1.00001 0.997127 0.999123
1.00008 0.998623 0.996654
1.00008 0.996943 0.997958
1.00014 0.996906 0.997885
1.00009 1.00007 0.994579
1.00021 0.999947 0.99454
1.0001 0.998019 0.996619
1.00007 0.998129 0.996765
0.999885 0.996949 0.999226
0.999995 0.99856 0.996248
0.999801 0.997256 0.999173
0.999758 0.997657 0.999062
1.00523 0.994898 0.9906
1.00525 0.99493 0.990921
1.00522 0.994964 0.991052
1.00526 0.994922 0.990952
1.00531 0.994919 0.9907
1.00532 0.994965 0.990765
1.00534 0.994914 0.990741
1.00123 0.994906 0.983633
1.00449 0.994958 0.992702
1.00001 1.00148 0.993304
1.00524 0.994923 0.99089
1.00527 0.994892 0.990552
1.00518 0.99487 0.990628
1.00487 1.00254 0.983337
1.00497 1.00191 0.984143
1.00505 0.99863 0.986641
1.00512 0.995082 0.990293
1.00496 1.0034 0.983068
1.00239 1.00362 0.986762
1.00205 1.00499 0.986725
1.00014 1.00004 0.994538
1.00094 1.00509 0.988315
0.999936 1.00209 0.993034
1.00023 1.00487 0.989702
1.00025 1.00104 0.993177
1.0053 0.994898 0.990667
1.00007 1.00164 0.992973
1.00016 1.00107 0.993527
1.00066 1.00082 0.993064
1.00527 0.994822 0.990499
1.00515 0.994875 0.990366
1.00385 1.00352 0.984067
1.00465 1.00132 0.985272
1.00486 0.995536 0.990267
0.999959 1.00318 0.99144
1.00042 1.00506 0.989204
1.00376 1.00199 0.986075
1.0017 1.00492 0.986666
1.0019 1.00405 0.987548
1.00526 0.994849 0.990914
1.00515 0.994773 0.990819
1.00508 0.995129 0.989911
1.0047 0.997352 0.989659
1.00227 1.00304 0.987539
0.999786 1.00283 0.992119
1.00076 1.00093 0.992525
0.999938 1.00157 0.992732
0.999986 1.0045 0.991244
1.00021 1.00503 0.989646
1.00048 1.00458 0.988419
1.00218 1.00123 0.98871
1.00048 1.00377 0.990581
1.00115 1.00413 0.988449
1.00534 0.994886 0.990736
1.00522 0.995171 0.99041
1.00499 0.998541 0.986887
1.00483 0.999862 0.986536
1.00474 1.00071 0.985417
1.00043 1.0046 0.990156
1.00459 0.994853 0.991445
1.00307 1.00223 0.987483
1.00476 1.00106 0.985338
1.00493 0.995966 0.98984
1.00379 1.00164 0.985901
0.998634 0.997384 0.985587
1.00039 1.00433 0.990055
1.00275 0.997683 0.9911
1.00368 1.00174 0.986259
1.00295 1.0012 0.98714
1.00308 0.99773 0.990687
0.999979 0.994908 0.947923
0.99624 0.994795 0.967739
0.995622 1.00079 0.988231
0.999612 0.994808 0.873916
0.994697 0.994795 0.840412
0.998513 1.00326 0.993749
0.998674 1.00272 0.99467
0.998802 1.00274 0.995021
1.00007 1.00304 0.991648
1.00032 1.00357 0.99064
1.00004 1.00443 0.990404
0.999943 1.00263 0.992324
0.99957 1.00096 0.994505
1.00016 1.00434 0.990257
1.00012 1.00342 0.991112
1.00047 1.00383 0.990234
0.999292 1.00087 0.995125
1.00006 1.00466 0.990098
1.00026 1.00459 0.99015
0.999346 1.00476 0.990972
1.00007 1.00461 0.990202
1.00048 1.00428 0.989695
1.00021 1.00348 0.990835
1.00039 1.00442 0.989837
1.00042 1.00391 0.990475
0.99982 1.00425 0.990845
1.0002 1.00411 0.990496
1.00018 1.00334 0.991232
1.00015 1.0036 0.990816
0.999959 1.00185 0.993013
0.999944 1.00187 0.993028
0.99984 0.998992 0.996067
0.999928 1.0018 0.993129
0.99986 0.998927 0.996069
0.999971 0.997134 0.999144
0.999948 0.998868 0.996027
1.00001 0.997122 0.998533
1.00009 0.996917 0.997956
0.999995 1.00006 0.994744
1.00011 1.00007 0.994582
1.0001 0.99792 0.996725
1.00023 0.999854 0.994563
1.0001 0.997955 0.996882
0.999932 0.996757 0.999261
1.00007 0.998199 0.996481
0.999872 0.99702 0.999211
0.999804 0.99731 0.999158
1.0053 0.994916 0.990703
1.00526 0.994922 0.990951
1.00531 0.994956 0.990425
1.0008 0.994896 0.983759
1.00533 0.994912 0.990754
1.00437 0.995251 0.992366
1.00501 0.996387 0.991295
0.996387 0.994941 0.966869
1.00075 0.996477 0.985874
1.00007 1.00135 0.993396
1.00006 1.00148 0.993279
0.999786 1.00283 0.992299
0.999857 1.00227 0.992758
1.00531 0.994891 0.99066
1.00528 0.994844 0.990465
1.00516 0.994877 0.99037
1.00467 1.0035 0.984128
1.0045 0.999912 0.985843
1.00476 0.995941 0.990159
1.00337 1.00323 0.985914
1.00273 1.00475 0.986564
1.00168 1.00359 0.987743
1.00003 1.00133 0.993532
1.00038 1.00506 0.989057
1.00001 1.0033 0.991604
1.00007 1.00168 0.993081
1.00047 1.00084 0.993172
1.00526 0.994842 0.99092
0.999995 1.00275 0.992094
1.00082 1.00087 0.992732
0.99931 1.00156 0.993986
1.00515 0.994784 0.990718
1.00507 0.995165 0.989914
1.00325 1.00182 0.987506
1.00438 0.996784 0.990086
1.0002 1.00405 0.990874
1.00035 1.00492 0.989034
1.00201 1.00282 0.988558
1.00174 1.0041 0.988016
1.0044 0.994801 0.991871
1.00493 0.995104 0.991131
1.00497 0.995954 0.989542
1.00274 0.998231 0.992138
0.999175 1.00375 0.99229
1.00052 1.00176 0.991934
0.998509 1.00452 0.992562
0.999226 1.0051 0.990195
0.999971 0.994894 0.936709
1.00058 1.00451 0.990159
1.00306 1.00214 0.98739
1.00439 0.994871 0.991648
1.00502 0.995721 0.99008
1.00388 1.00172 0.985954
1.00474 1.00099 0.985313
0.99867 0.997347 0.983557
1.00041 1.00411 0.990445
1.00272 0.997389 0.991081
1.00353 1.00209 0.98629
1.00357 1.00093 0.98718
1.0035 0.997809 0.990399
1.00058 0.9949 0.936156
0.996452 0.994808 0.963689
0.99591 1.00165 0.988246
0.999218 0.994801 0.8783
0.9947 0.994801 0.829668
1.0003 1.00402 0.99057
0.999793 0.994855 0.885103
0.994696 0.994779 0.835385
1.00059 1.00007 0.991908
1.00201 1.00158 0.989308
1.00144 0.99956 0.992322
0.995202 1.00181 0.989635
0.999032 0.994918 0.945038
0.994885 0.994775 0.960673
0.997074 0.99539 0.891469
0.994725 0.994803 0.827631
0.998074 1.00308 0.994973
0.998481 1.00241 0.994883
0.998734 1.00436 0.993509
1.00016 1.00337 0.991199
1.00041 1.00389 0.990299
0.999813 1.00471 0.990218
0.999849 1.00462 0.990376
0.999552 1.00021 0.994692
1.0002 1.00351 0.990837
1.00005 1.00497 0.990083
1 1.0047 0.990148
1.0006 1.00407 0.98983
0.999269 1.00485 0.991176
0.999633 1.00505 0.99077
0.998644 1.00477 0.991839
1.00025 1.00469 0.989766
1.00045 1.00428 0.989897
1.00044 1.00436 0.98983
1.00031 1.00377 0.990632
1.00046 1.00461 0.98961
0.999919 1.0041 0.990941
0.99965 1.00336 0.991192
0.999743 1.00493 0.990295
0.999706 1.00462 0.990571
0.999936 1.00412 0.990863
1.00008 1.00326 0.991406
1.00014 1.00411 0.990407
1.00018 1.00332 0.991174
1.00001 1.00187 0.992932
1.00021 1.00357 0.990803
0.999951 1.00186 0.993023
0.999961 0.998957 0.996558
0.999929 1.00189 0.993031
0.999866 0.998958 0.996343
0.99994 0.99714 0.99799
0.999853 0.998947 0.996059
0.999969 0.997147 0.999149
1.00001 0.997134 0.997941
1.00014 1.00137 0.993217
0.999949 1.00007 0.994811
1 1.00006 0.994742
1.00008 0.997905 0.996768
1.00012 1.00005 0.994585
1.00011 0.997875 0.996727
0.999973 0.99666 0.99928
1.00009 0.997941 0.997118
0.999949 0.99687 0.998733
0.999915 0.997101 0.998153
1.00039 0.994882 0.983887
1.00532 0.994914 0.990765
1.00407 0.996057 0.992024
0.996559 0.994914 0.967726
1.00069 0.996112 0.986221
1.00502 0.995757 0.991247
1.0032 0.996607 0.987363
0.996737 0.995895 0.970623
0.999973 0.994884 0.945569
0.999327 0.995083 0.893756
0.994665 0.994773 0.839146
0.999788 1.00235 0.992657
1.00008 1.00134 0.993387
1.00014 1.00143 0.993254
0.999875 1.0027 0.992335
0.999507 1.00359 0.992115
1.00032 1.00218 0.991988
1.00007 1.00281 0.99216
0.999986 1.0022 0.992605
1.00526 0.994825 0.990922
1.00516 0.994798 0.990619
1.00511 0.995134 0.989916
1.00334 1.0016 0.98748
1.00421 0.996548 0.990521
1.00226 1.00387 0.988393
1.00285 1.00379 0.987618
1.00074 1.00507 0.988428
1.00057 1.00089 0.992943
1.00013 1.00409 0.990495
1.00022 1.00265 0.992076
0.998878 1.00149 0.995227
1.00432 0.994773 0.992096
0.999317 1.00363 0.992309
1.00038 1.00213 0.992287
1.00482 0.994964 0.991085
1.00487 0.995576 0.989801
1.00245 0.998156 0.991702
0.999451 1.00504 0.99131
1.00046 1.00422 0.990375
1.00309 0.994774 0.99208
1.00416 0.997492 0.990811
1.00473 0.995339 0.990816
1.00102 0.998974 0.993204
0.999669 1.00471 0.990561
0.999335 1.00404 0.991844
0.999416 1.00529 0.99127
0.999815 0.9949 0.887602
1.0003 0.994897 0.948894
1.00052 1.00375 0.990832
1.00358 1.00227 0.986325
1.00273 0.997384 0.991059
1.00398 0.99801 0.990119
1.00409 1.00079 0.98724
0.99998 0.994894 0.946495
0.996284 0.994852 0.963313
0.996142 1.00249 0.988261
0.998876 0.994827 0.893044
0.994704 0.994802 0.818382
1.00028 1.0039 0.99052
0.999808 0.994855 0.884883
0.994667 0.994781 0.828952
1.0008 1.00003 0.991964
1.00205 1.00156 0.989348
1.00149 0.999694 0.992648
0.995452 1.00211 0.990264
1.00047 0.995879 0.938395
0.994864 0.994773 0.96346
0.997207 0.997926 0.890447
0.994747 0.994792 0.826392
0.999536 1.00395 0.9928
0.994701 0.994827 0.829007
0.994747 0.994801 0.841318
0.998051 1.00165 0.99583
0.999851 1.00179 0.994152
0.994928 1.00204 0.988705
0.994946 0.996161 0.96408
0.996805 0.995629 0.934129
0.994726 0.999156 0.895304
0.994824 0.994819 0.8298
0.998339 1.00222 0.99475
0.999083 1.0037 0.993224
0.998076 1.00337 0.994256
1.00017 1.00355 0.990837
1.00068 1.00389 0.989965
0.999992 1.00475 0.990092
0.999861 1.005 0.990017
0.999027 1.00475 0.991382
1.00043 1.0043 0.989895
0.999652 1.0049 0.990595
1.00034 1.00461 0.989767
0.998294 1.00474 0.992278
0.996258 1.00481 0.995726
0.999361 1.00477 0.991248
1.00051 1.00456 0.989616
1.0005 1.0043 0.989824
1.0003 1.00358 0.990785
1.00042 1.00467 0.989567
0.999995 1.00402 0.990878
0.999519 1.0033 0.99187
0.999387 1.00497 0.990726
0.99952 1.00461 0.990726
0.999019 1.00404 0.99211
1.00061 1.00209 0.991896
1.00114 1.00173 0.990228
0.999467 1.00478 0.990553
0.999854 1.00477 0.990329
0.999769 1.00497 0.990058
0.999756 1.00473 0.990567
0.999999 1.00355 0.991206
0.999952 1.0042 0.99088
1.00011 1.00327 0.991409
1.00006 1.0018 0.992859
1.00019 1.00333 0.991116
1 1.00185 0.99295
1.00005 0.998957 0.996394
0.999945 1.00186 0.993032
0.999946 0.998941 0.996225
1.00001 0.997085 0.997905
0.999863 0.998945 0.996053
0.999969 0.997144 0.999153
0.999968 0.99715 0.999155
1.00019 1.0017 0.993114
0.999949 1.00021 0.994696
1.00009 1.00147 0.993228
1.00008 0.997904 0.996773
0.999947 1.00008 0.994812
1.00001 1.00008 0.99474
1.00009 0.997891 0.996763
1 0.996609 0.999283
1.00009 0.997851 0.997203
0.99999 0.996665 0.998785
0.999968 0.99688 0.998239
0.999818 0.994856 0.874377
0.994672 0.994769 0.829644
0.997377 0.994888 0.967795
1.00068 0.995404 0.986626
1.00507 0.99504 0.9912
0.996395 0.995621 0.971019
1.00343 0.995958 0.987826
1.00109 0.994891 0.943145
0.999571 0.994806 0.878271
0.994694 0.994788 0.828582
0.998466 0.994846 0.975718
0.99979 0.994929 0.944888
0.997128 0.996093 0.890718
0.994722 0.994774 0.831374
1.00008 1.00322 0.991619
0.99986 1.00218 0.992775
1.00009 1.00134 0.99338
0.999907 1.00262 0.99237
0.999488 1.00344 0.992285
1.00006 1.00362 0.991117
1.00024 1.00271 0.991796
1.00036 1.00335 0.990823
1.00008 1.00277 0.992041
1.00001 1.00229 0.992454
1.00424 0.994763 0.99231
1.0047 0.994831 0.991048
1.00458 0.99529 0.990058
1.00213 0.998539 0.991265
1.00098 1.00408 0.990557
0.999571 1.00519 0.990062
1.00046 1.00195 0.992663
0.999411 1.00368 0.992322
1.00263 0.994982 0.992458
0.999735 1.0048 0.990385
0.999049 1.00423 0.991725
1.00409 0.996504 0.991017
1.00465 0.995474 0.99053
1.00098 0.999068 0.993415
0.999449 1.00524 0.991069
1.00043 0.995203 0.992446
1.00237 0.996901 0.993752
0.999906 1.00153 0.993821
0.998875 1.00495 0.990151
0.999306 1.00501 0.990385
0.999021 1.00514 0.991379
0.994731 0.994854 0.850456
0.999811 0.994898 0.892234
0.999968 0.99491 0.936999
1.00004 1.00394 0.990462
1.00216 1.00147 0.989375
1.001 1.00002 0.992024
1.00148 0.999612 0.992976
0.999817 0.994863 0.895044
0.99937 0.994869 0.935694
0.994852 0.994803 0.960863
0.995512 1.00256 0.990871
0.997116 0.995629 0.877373
0.994647 0.994788 0.833265
0.994738 0.994799 0.837588
0.999249 1.00345 0.992579
0.994697 0.994825 0.838075
0.994775 0.994804 0.840857
0.997717 1.00125 0.996319
0.999457 1.00171 0.994086
0.995083 0.999524 0.991244
0.995057 0.99565 0.962559
0.997084 0.998892 0.944815
0.995267 0.999183 0.88065
0.994856 0.994811 0.839454
0.99726 1.00357 0.996072
0.994792 0.994847 0.849606
0.994811 0.994793 0.838957
0.99504 1.00225 1.00009
0.995012 0.998281 0.970547
0.994909 0.999939 0.944924
0.995304 0.997214 0.873552
0.994952 0.994856 0.842616
0.999341 1.00325 0.992919
0.998348 1.00344 0.994502
0.996584 1.00391 0.996747
1.00038 1.00436 0.989894
1.00047 1.00452 0.98977
0.999748 1.00477 0.990419
0.997935 1.00461 0.992721
1.00038 1.00464 0.989635
0.999354 1.00476 0.991201
0.996272 1.00464 0.996157
0.995187 1.00494 0.997719
0.996147 1.00497 0.996171
0.999886 1.00424 0.9909
1.00038 1.00478 0.989523
1.00003 1.00393 0.990813
0.999292 1.00345 0.992535
0.999526 1.00465 0.990786
0.999471 1.00497 0.990746
0.999039 1.00419 0.992203
0.999283 1.00455 0.991479
0.997398 1.00493 0.994172
1.00228 0.997982 0.992422
1.00046 1.00188 0.992221
1.00096 1.0019 0.990943
1.00418 1.00142 0.986827
1.00079 1.00382 0.990321
1.00043 1.00194 0.991488
0.999864 1.00459 0.990377
0.999788 1.00497 0.989797
0.999994 1.00458 0.990363
0.999931 1.00496 0.990065
1.00003 1.00413 0.990629
1.00001 1.00462 0.990564
1.00014 1.00345 0.991191
1.00012 1.00185 0.99274
1.00024 1.00311 0.991413
1.00012 1.00178 0.992865
1.00014 0.998979 0.996234
1.00003 1.0018 0.992967
1.00005 0.998962 0.996037
1.00007 0.997142 0.997769
0.999949 0.998926 0.995929
0.999996 0.997107 0.998529
0.999976 0.997127 0.999142
1.00021 1.00227 0.992226
1.00004 1.00034 0.994451
1.00012 1.00174 0.992934
1.00007 0.997962 0.996718
0.99996 1.00018 0.994699
1.00004 1.00153 0.993236
1.00002 0.996581 0.999284
1.00007 0.997906 0.996773
0.999951 1.00008 0.994813
1.00009 0.997875 0.996757
1 0.996628 0.999283
0.999973 0.996647 0.999281
0.994683 0.994804 0.833962
0.999812 0.994861 0.884614
0.994765 0.99479 0.83896
0.994695 0.994777 0.828001
0.996264 0.995167 0.968673
1.00355 0.994898 0.988309
0.999987 0.99491 0.94016
0.999621 0.99484 0.893859
0.994725 0.994803 0.817661
0.998468 0.994895 0.975015
1.00118 0.996046 0.931996
0.997294 0.998397 0.889272
0.994744 0.994773 0.824996
0.995452 0.994889 0.968235
0.997072 0.99739 0.933341
0.994786 0.998376 0.8743
0.994817 0.994831 0.826771
1.00025 1.00437 0.990749
0.999933 1.00319 0.991734
0.999903 1.00209 0.99289
0.999435 1.00327 0.992457
1.00053 1.00402 0.989823
0.999958 1.0036 0.991294
1.00003 1.0031 0.991606
1.00078 1.00285 0.990868
1.00045 1.00335 0.990893
1.00007 1.00267 0.991922
1.00237 0.994801 0.992835
1.00412 0.995402 0.99124
1.00455 0.99566 0.990247
1.00094 0.998346 0.993648
1.00016 1.00511 0.990865
0.99926 1.00456 0.991614
0.99974 1.00492 0.990207
0.999909 1.00507 0.989878
1.00005 0.995181 0.992796
0.999766 1.00497 0.990256
0.999509 1.00517 0.991283
1.00235 0.996417 0.994201
1.00054 1.00029 0.993653
0.997573 0.997128 0.993248
0.997899 0.997204 1.00041
0.998102 1.00331 0.99421
0.999909 1.00473 0.990226
0.998832 1.00513 0.991976
0.994827 0.994829 0.855002
0.994726 0.994846 0.847079
0.999808 0.994889 0.877739
0.999185 1.00292 0.992386
0.999273 1.00157 0.993997
0.997718 1.00055 0.996809
0.994678 0.99482 0.837364
0.997157 0.997361 0.934479
0.995035 0.995731 0.963079
0.995428 0.997305 0.993981
0.994798 0.997907 0.896858
0.994788 0.994808 0.840735
0.994863 0.994821 0.840058
0.997475 1.00341 0.99631
0.994797 0.994841 0.852462
0.9948 0.994791 0.839428
0.995324 1.00183 0.999044
0.995005 0.997742 0.972349
0.995197 0.99872 0.933768
0.994875 0.994852 0.840026
0.994868 0.999423 0.881299
0.995168 1.0049 0.999265
0.994789 0.994828 0.851117
0.994846 0.994811 0.844094
0.994807 0.994832 0.827569
0.994892 0.999438 0.991019
0.994896 0.998965 0.948566
0.995608 0.998113 0.887287
0.998748 1.0037 0.994758
0.996861 1.0043 0.9963
0.994982 1.00521 0.998733
1.0003 1.0047 0.989655
0.999267 1.00478 0.99115
0.996369 1.00468 0.99658
0.999676 1.00447 0.990821
0.996443 1.00498 0.996151
0.995406 1.0051 0.997688
0.99519 1.00528 0.997771
0.996705 1.00476 0.995522
0.999465 1.00467 0.990855
0.999528 1.00497 0.990765
0.999085 1.00439 0.992311
0.997685 1.00486 0.994031
0.999276 1.00466 0.991395
0.999059 1.00276 0.993511
1.0005 0.998698 0.99487
1.00219 1.001 0.988856
1.00029 1.00169 0.992536
1.00153 1.00196 0.990507
1.00407 1.00214 0.986117
1.00516 1.00141 0.984624
1.00219 1.00232 0.989049
1.00331 1.00145 0.987066
1.00053 1.005 0.98919
1.00051 1.0038 0.990558
0.999701 1.00219 0.992738
1.00025 1.00442 0.990201
0.999855 1.00502 0.989797
1.0002 1.00439 0.99011
1.00003 1.00498 0.990072
1.00014 1.00399 0.99064
1.00012 1.00225 0.992337
1.00021 1.00343 0.991175
1.00014 1.00184 0.992727
1.00015 0.998983 0.996173
1.00014 1.00174 0.992871
1.00013 0.998965 0.995889
1.00011 0.997199 0.997665
1.00006 0.998947 0.995726
1.00005 0.997142 0.998438
1.00001 0.997119 0.999101
1.00044 1.00237 0.991556
1.0001 1.00067 0.993762
1.00026 1.00223 0.992224
1.00011 0.998041 0.996575
1.00003 1.00035 0.994303
1.00011 1.00175 0.992758
1.00004 0.996621 0.999268
1.00007 0.997943 0.996725
0.999963 1.00014 0.994703
1.00002 0.996603 0.999284
1.00006 0.997912 0.996773
0.999999 0.996614 0.999284
0.994825 0.994834 0.846664
0.994695 0.994826 0.844484
0.999809 0.994849 0.884311
1.00091 1.0027 0.990673
0.994819 0.994803 0.845974
0.994762 0.994788 0.838896
0.994718 0.99479 0.837908
0.99888 0.995336 0.974038
0.999449 0.99511 0.943411
0.997004 0.995846 0.875307
0.994731 0.994793 0.831266
0.996637 0.994892 0.965305
0.997155 0.999452 0.94344
0.99511 0.999428 0.877652
0.994809 0.994819 0.831227
0.994896 0.994879 0.960664
0.994879 0.998842 0.942547
0.994963 0.999983 0.883905
0.994891 0.99485 0.842264
1 1.00473 0.99017
1.00012 1.00421 0.990543
1.00004 1.00297 0.991849
1.00064 1.00326 0.990491
1.00042 1.00413 0.990066
0.999962 1.00366 0.991467
1.00079 1.00294 0.990844
1.00048 1.00338 0.990957
0.99909 0.996089 0.993004
1.00249 0.996052 0.994581
1.00021 1.00508 0.989601
1.00104 0.999946 0.993486
0.999748 1.00518 0.991185
1.00003 1.00505 0.990133
0.999732 1.00477 0.99024
0.9966 0.99638 0.993975
0.999012 1.0048 0.992148
0.998514 1.00334 0.994399
0.997851 0.998015 1.00059
0.999591 1.0048 0.991181
0.995726 0.999647 0.990082
0.995999 1.00169 0.999333
0.996749 1.00466 0.995431
0.998951 1.00438 0.992637
0.994784 0.994805 0.856797
0.994831 0.994826 0.853507
0.994722 0.99484 0.84366
0.997575 1.00345 0.99656
0.995417 1.00103 0.998013
0.994807 0.994835 0.855177
0.994888 0.999913 0.945008
0.99506 0.997239 0.969773
0.994912 0.999515 0.880244
0.994798 0.994787 0.839778
0.994855 0.994849 0.83747
0.995382 1.00473 0.99901
0.994792 0.994828 0.851012
0.994845 0.994812 0.846409
0.994822 1.00008 0.994618
0.994798 0.994822 0.83176
0.994869 0.997289 0.941643
0.995259 0.998534 0.889912
0.994881 1.00378 0.99837
0.994815 0.994844 0.855568
0.994799 0.994802 0.846658
0.994709 0.994769 0.831931
0.994968 0.999986 0.883522
0.9949 1.00031 0.977732
0.995295 0.99854 0.934702
0.997416 1.00454 0.995871
0.995354 1.00521 0.998567
0.994932 1.00516 0.998448
0.999503 1.00457 0.990742
0.996613 1.00507 0.996135
0.995506 1.00513 0.997658
0.996876 1.00465 0.995476
0.995253 1.00515 0.997825
0.997737 1.00182 0.997591
0.997926 1.00469 0.993882
0.999244 1.00473 0.99132
0.999082 1.00296 0.993928
0.998994 1.00341 0.991925
0.998749 0.999392 0.997243
1.00211 1.00059 0.989783
1.00403 1.0031 0.984349
1.00496 1.00226 0.983765
1.00209 1.00198 0.990049
1.00408 1.00231 0.98543
1.00519 1.00144 0.984654
1.00414 1.00056 0.986928
1.00484 1.00126 0.984983
1.00062 1.00501 0.98861
1.00211 1.00253 0.988899
1.00251 1.00146 0.987307
1.00024 1.00471 0.989568
1.00022 1.00503 0.989349
1.00025 1.00373 0.990801
0.99992 1.00506 0.989798
1.00024 1.00435 0.99012
1.00021 1.00276 0.991675
1.00024 1.00392 0.990652
1.00013 1.00228 0.992323
1.00012 0.999169 0.995384
1.00018 1.00188 0.992714
1.00018 0.998983 0.995499
1.00002 0.997184 0.999013
1.00014 0.998975 0.995566
1.00008 0.9972 0.998349
1.00005 0.997157 0.999043
1.00045 1.00251 0.991394
1.00024 1.001 0.993202
1.0004 1.00242 0.991688
1.00016 0.998177 0.996354
1.00014 1.00067 0.993693
1.00027 1.00223 0.992219
1.00006 0.996647 0.999236
1.00011 0.998015 0.996588
1.00004 1.00034 0.994157
1.00004 0.996598 0.999274
1.00008 0.997923 0.996732
1.00002 0.996625 0.999284
0.994799 0.994834 0.855347
0.994823 0.994837 0.846782
0.994688 0.994834 0.844572
1.00081 1.00274 0.990821
1.00067 1.00299 0.990618
1.00088 1.00252 0.991065
0.994862 0.994812 0.843424
0.994818 0.994794 0.846342
0.994758 0.99478 0.838865
0.996858 0.99487 0.966696
0.997201 0.996131 0.93226
0.994779 0.999928 0.895444
0.994825 0.994824 0.826268
0.995003 0.994884 0.96398
0.995109 0.999783 0.939157
0.994893 0.999088 0.881105
0.994877 0.994845 0.839507
0.994888 0.995551 0.960542
0.994883 0.9982 0.944169
0.995596 0.998447 0.887013
0.994846 0.99482 0.830167
1.00008 1.00355 0.99099
1.00027 1.00447 0.989967
1.00033 1.00407 0.990337
1.00074 1.00317 0.99044
1.00023 1.00426 0.990313
1.00081 1.00303 0.990819
0.996161 0.995604 0.994722
0.997344 0.998712 1.00086
0.999804 1.00452 0.990251
0.998999 1.00256 0.994565
0.999084 1.00463 0.992314
0.999343 1.00467 0.99125
0.998593 1.00476 0.992672
0.995387 0.999742 0.99003
0.996468 1.00498 0.996021
0.996486 1.00203 0.998533
0.998514 1.00447 0.993252
0.995116 1.00217 0.986179
0.995689 1.00424 0.995905
0.996301 1.00497 0.996553
0.994815 0.99482 0.857639
0.994785 0.994811 0.856737
0.994833 0.994824 0.852018
0.995339 1.00439 0.998705
0.994778 1.00042 0.99093
0.994794 0.994829 0.850918
0.994824 0.998998 0.941744
0.995547 0.998111 0.876013
0.994842 0.994811 0.848705
0.994816 0.994834 0.827141
0.99488 1.00363 0.99885
0.994812 0.994845 0.856479
0.99481 0.994798 0.847035
0.994895 0.999678 0.974985
0.994732 0.994772 0.825851
0.995287 0.999873 0.87957
0.995007 0.997181 0.947118
0.994925 1.00514 0.992172
0.994788 0.99484 0.855498
0.994778 0.994796 0.839922
0.994658 0.994769 0.840546
0.994756 0.998029 0.874059
0.994975 0.999639 0.942932
0.994899 1.00079 0.96899
0.995698 1.00513 0.998386
0.995069 1.00497 0.998461
0.997274 1.00216 0.997971
0.997103 1.00456 0.995431
0.995338 1.00511 0.997836
0.996474 1.00351 0.997538
0.999048 0.997004 1.00004
0.999092 1.00324 0.994335
1.00114 1.00244 0.991296
1.00242 1.00415 0.986648
1.00193 1.00026 0.990809
1.00408 1.00295 0.984596
1.0044 1.00415 0.982846
1.00493 1.00182 0.983959
1.00514 1.00172 0.984145
1.0049 1.00234 0.98374
1.00431 1.0024 0.984753
1.00509 1.00082 0.985894
1.00513 1.00155 0.984554
1.0023 1.00281 0.98773
1.004 1.0007 0.98718
1.00444 1.00114 0.985348
1.00037 1.00495 0.988689
1.00092 1.0049 0.98859
1.002 1.0028 0.988743
1.00032 1.00333 0.991021
1.00047 1.00456 0.989571
0.999982 1.00507 0.989508
1.00033 1.0042 0.990129
1.00027 1.00272 0.991674
1.00007 0.999525 0.995119
1.00018 1.00224 0.99231
1.00014 0.999199 0.995365
1.00001 0.99732 0.998981
1.00018 0.99901 0.995491
1.00007 0.997218 0.998328
1.00006 0.997194 0.999008
1.00048 1.00294 0.991167
1.00034 1.00123 0.993009
1.00052 1.00243 0.991462
1.00021 0.998382 0.996052
1.00024 1.00101 0.993286
1.00039 1.00245 0.991821
1.00007 0.996719 0.999185
1.00016 0.998149 0.996372
1.00017 1.00065 0.993623
1.00006 0.996649 0.999245
1.00011 0.997993 0.996602
1.00004 0.996611 0.99928
0.994819 0.994842 0.855068
0.994798 0.994847 0.855239
0.994818 0.99485 0.846986
1.00037 1.00416 0.989834
1.00108 1.00393 0.989711
1.00067 1.00281 0.990973
1.0006 1.0032 0.990531
1.00055 1.00268 0.991163
1.00037 1.00313 0.99102
1.00037 1.00246 0.991733
0.99483 0.994792 0.838648
0.99486 0.994816 0.845834
0.994814 0.994802 0.846724
0.994864 0.99484 0.836845
0.994968 0.99485 0.960985
0.99487 0.999943 0.93502
0.994992 0.997414 0.893327
0.994886 0.996059 0.959519
0.99489 0.999305 0.932941
0.995049 0.998205 0.890179
0.994834 0.994811 0.839806
0.996103 0.996508 0.962481
0.994947 0.999262 0.934622
0.995243 0.997877 0.873871
0.994745 0.994798 0.828025
0.998661 1.00479 0.992522
0.999934 1.00385 0.991117
1.00029 1.00461 0.989763
1.00078 1.00329 0.990393
0.994939 0.999915 0.990273
0.996914 1.00259 0.99762
0.999211 1.00484 0.991321
0.998484 1.00473 0.99271
0.996492 1.00521 0.996592
0.998505 1.00413 0.993189
0.996319 1.00488 0.996537
0.996634 1.00189 0.982902
0.99499 1.00517 0.996409
0.99647 1.00437 0.996279
0.994756 1.00382 0.982993
0.9955 1.00363 0.998734
0.99478 0.994806 0.856969
0.99482 0.994821 0.860474
0.994784 0.994821 0.856667
0.994836 1.00352 0.999287
0.994913 0.998927 0.978498
0.994806 0.994845 0.857438
0.995555 0.997708 0.93557
0.99523 0.998184 0.892405
0.994818 0.994802 0.847393
0.994721 0.994795 0.832005
0.994901 1.00443 0.992962
0.994798 0.994838 0.855411
0.99476 0.994791 0.839887
0.9949 1.00033 0.969189
0.994689 0.99478 0.830079
0.995177 0.999345 0.87677
0.995187 0.999315 0.932269
0.995403 1.00446 0.986788
0.994827 0.994826 0.84701
0.994661 0.994763 0.830933
0.996859 0.995985 0.892256
0.994848 0.999652 0.942404
0.994878 0.999987 0.962229
0.995218 1.00498 0.998762
0.99622 1.00303 0.998115
0.996541 0.999243 1.00122
0.995358 1.00507 0.997472
0.997554 0.998516 1.00021
1.00192 0.998166 0.994344
1.0033 1.00133 0.990671
1.0032 1.00371 0.986105
1.0034 1.00442 0.983841
1.00394 1.0029 0.984841
1.00453 1.0041 0.982722
1.00433 1.00429 0.982779
1.00509 1.00056 0.985036
1.00507 1.00111 0.98476
1.0049 1.00202 0.983944
1.00507 1.00164 0.984793
1.00507 1.00163 0.984194
1.00474 1.0025 0.983715
1.00461 1.00083 0.986459
1.00488 1.00094 0.985708
1.00505 1.00166 0.984457
1.00133 1.00502 0.987532
1.00235 1.00294 0.987796
1.00388 1.00077 0.987432
1.00035 1.00397 0.990076
1.0007 1.00494 0.988713
1.00113 1.00479 0.988571
1.00006 0.999884 0.994794
1.00038 1.00319 0.991018
1.00064 1.00452 0.989573
1.0003 1.0027 0.991674
1.00008 0.999565 0.995094
0.999956 0.997544 0.998932
1.00015 0.999221 0.995346
1.00001 0.997353 0.998969
1.00005 0.997218 0.998994
1.00008 1.00491 0.989807
1.00065 1.00344 0.990407
1.00041 1.00166 0.992489
1.0005 1.00287 0.991156
1.00024 0.998659 0.995732
1.00034 1.00125 0.993003
1.00051 1.00245 0.991529
1.00008 0.996871 0.999112
1.00021 0.998375 0.99607
1.00023 1.00103 0.993368
1.00007 0.996718 0.999201
1.00016 0.998132 0.996391
1.00006 0.996626 0.999256
0.994792 0.994825 0.850757
0.994804 0.994838 0.85602
0.994806 0.994839 0.855122
1.00044 1.00434 0.989838
1.00073 1.00362 0.989868
1.00004 1.00249 0.990953
1.00005 1.00447 0.989929
1.00116 1.00359 0.990484
1.00067 1.00331 0.990441
1.00042 1.00281 0.99126
1.00044 1.0031 0.991039
1.00038 1.00264 0.991765
0.999408 1.00408 0.991858
0.99476 0.994789 0.841411
0.994817 0.994788 0.839172
0.99486 0.99481 0.848185
0.994847 0.99482 0.840366
0.995548 0.99845 0.87615
0.994871 0.996384 0.958007
0.994876 0.998929 0.944175
0.994964 0.996932 0.959272
0.994896 0.996411 0.945795
0.994851 0.999592 0.882385
0.994763 0.994783 0.826715
0.994787 0.99783 0.963601
0.994857 0.99998 0.945267
0.994727 0.999425 0.894543
0.994682 0.994768 0.839907
0.998198 1.0034 0.994509
0.998483 1.00466 0.992637
0.999938 1.00386 0.991247
0.997054 1.00163 0.979328
0.994816 1.00523 0.997003
0.998417 1.00422 0.993124
0.996098 1.00508 0.996525
0.996775 1.00421 0.996226
0.995253 1.00335 0.999006
0.995168 1.00171 0.982185
0.995779 1.00207 0.999086
0.995753 0.999856 0.988039
0.99482 0.994822 0.854007
0.994785 0.994813 0.856912
0.994823 0.99482 0.863321
0.994907 1.00344 0.993376
0.994868 0.999925 0.966364
0.994809 0.99484 0.855297
0.995002 0.999782 0.942742
0.994745 0.999842 0.89418
0.994742 0.994776 0.839922
0.994716 0.994789 0.819226
0.99561 1.00424 0.987483
0.994814 0.994834 0.847071
0.994686 0.994768 0.829419
0.994992 0.999677 0.963189
0.997177 0.99805 0.890304
0.99516 0.999663 0.937447
0.995036 1.00358 0.985343
0.994683 0.994799 0.834626
0.999366 0.994844 0.894857
0.996907 0.997346 0.933678
0.994868 0.99695 0.96511
0.995644 1.00383 0.998243
0.996271 0.999421 1.0012
0.99881 1.00246 0.996002
0.99605 0.99998 1.00035
1.00076 0.998707 0.994885
1.00329 0.999884 0.989189
1.004 1.00316 0.985551
1.00343 1.00436 0.983738
1.00419 1.00176 0.984888
1.00474 1.0041 0.982602
1.00434 1.00393 0.982872
1.00483 1.00055 0.985586
1.00522 0.99811 0.987089
1.00519 0.999928 0.985389
1.00506 1.00045 0.985128
1.00511 1.00118 0.984835
1.00509 1.00115 0.984695
1.00489 1.00218 0.983927
1.00508 1.00145 0.985076
1.00482 1.00154 0.984842
1.00501 1.00155 0.984246
1.00329 1.00288 0.986559
1.0042 1.0012 0.986427
1.00469 1.00111 0.985519
1.00046 1.00487 0.988623
1.00143 1.00487 0.987561
1.00249 1.00308 0.98786
1.00003 1.00065 0.994918
1.00052 1.00393 0.990064
1.00101 1.00493 0.988738
0.999944 0.997874 0.997253
1.00005 1.00003 0.995065
1.00045 1.00307 0.991015
1.00008 0.999614 0.995069
0.999957 0.997586 0.998909
1.00001 0.997366 0.998956
1.00012 1.00507 0.989861
1.0005 1.00465 0.989662
0.999963 1.00493 0.989767
1.00046 1.00226 0.991827
1.00046 1.00379 0.990396
1.0002 0.999001 0.995446
1.00041 1.00164 0.9925
1.00061 1.00276 0.991143
1.00007 0.997085 0.999038
1.00023 0.998641 0.995747
1.00033 1.00128 0.992997
1.00008 0.996858 0.999135
1.0002 0.998357 0.996089
1.00007 0.996705 0.999217
0.994791 0.994825 0.855894
0.994801 0.99483 0.850652
0.994792 0.994846 0.857004
1.00051 1.00248 0.990869
1.00019 1.00469 0.989841
1.0006 1.00344 0.990028
1.00046 1.00451 0.989736
1.00067 1.00245 0.990993
1.00066 1.00322 0.991231
1.00208 1.00239 0.989121
0.998934 1.00485 0.991089
1.00049 1.00306 0.991059
1.00007 1.00262 0.991794
0.999299 1.00397 0.991798
0.998452 1.00524 0.992494
0.994687 0.994802 0.835338
0.994785 0.994793 0.840962
0.994812 0.994784 0.839591
0.994751 0.994779 0.83767
0.994836 0.999543 0.881723
0.995328 0.998385 0.934631
0.994887 0.997566 0.958472
0.995089 0.997403 0.963709
0.994698 0.994775 0.829454
0.994876 0.997746 0.938368
0.995234 0.99993 0.879798
0.994886 0.996196 0.967449
0.994891 0.999926 0.945684
0.997349 0.996868 0.888784
0.999338 0.998839 0.997037
0.998245 1.00331 0.99447
0.998375 1.00449 0.992746
0.995338 1.00116 0.981999
0.994922 1.00298 0.999268
0.997117 1.00379 0.996184
0.996843 1.00194 0.999117
0.995229 0.99902 0.988154
0.996728 0.998627 0.992104
0.994723 0.994858 0.845042
0.99482 0.994812 0.856089
0.994787 0.994815 0.856821
0.995305 1.00416 0.987861
0.994861 0.999971 0.963087
0.994801 0.99484 0.847278
0.994835 0.999898 0.933826
0.996852 0.99549 0.876717
0.994715 0.994784 0.839113
0.994827 1.00401 0.985374
0.994695 0.994823 0.845042
0.999323 0.994799 0.879325
0.994852 0.996187 0.960881
0.99698 0.999211 0.94385
0.994792 1.00338 0.990398
0.999801 0.994854 0.87465
0.999689 0.994896 0.945625
0.994872 0.994844 0.960131
0.99596 0.999459 1.00124
0.998229 1.00156 0.995696
1.00166 1.00328 0.990461
0.999593 0.999405 0.99543
1.00274 1.00059 0.989043
1.0043 0.999498 0.987547
1.0034 1.00438 0.983636
1.00409 1.00197 0.984866
1.00497 0.99719 0.987883
1.00434 1.00349 0.982965
1.00472 1.00033 0.985617
1.00524 0.996404 0.988696
1.0052 0.996387 0.989124
1.00522 0.998352 0.986937
1.00524 0.998003 0.987221
1.00521 0.999861 0.985511
1.00519 0.999906 0.985544
1.00506 1.00035 0.98522
1.00517 1.00138 0.984497
1.00511 1.0011 0.984827
1.0051 1.00115 0.984628
1.00484 1.001 0.985722
1.00489 1.00141 0.985077
1.00459 1.00141 0.984887
1.00164 1.00449 0.987405
1.00324 1.00295 0.986528
1.00377 1.00156 0.986399
0.999887 1.00184 0.993106
1.00093 1.00467 0.988623
1.00157 1.00479 0.987588
0.999761 0.998402 0.998692
1.00004 1.00067 0.993988
1.0007 1.00378 0.990055
0.999925 0.997851 0.998831
1.00003 1.00011 0.994661
0.999961 0.99764 0.998886
1.00142 1.00375 0.989141
1.00014 1.00493 0.98975
1.00053 1.00504 0.989217
1.00032 1.00328 0.991051
1.00039 1.00459 0.989635
1.00009 1.00479 0.989727
1.00016 0.999403 0.995129
1.00041 1.00229 0.991848
1.00028 1.00391 0.990385
1.00004 0.997298 0.998972
1.00021 0.998943 0.995461
1.00042 1.00161 0.99251
1.00007 0.997051 0.99906
1.00023 0.998628 0.995762
1.00007 0.996833 0.999158
0.994708 0.994825 0.83089
0.994809 0.994826 0.856048
0.994809 0.994834 0.850557
1.00043 1.00277 0.990848
1.00356 1.00218 0.988307
1.00092 1.0033 0.990358
1.00048 1.0045 0.989541
1.00138 1.00228 0.991027
0.999822 1.0026 0.991969
0.999472 1.00471 0.990804
1.00141 1.00282 0.989476
1.00119 1.00429 0.988956
0.999828 0.999862 0.994781
0.999794 1.0039 0.991739
0.998651 1.0052 0.992292
0.999575 0.99549 0.872874
0.994664 0.994784 0.829063
0.994796 0.994796 0.840873
0.994712 0.994782 0.818526
0.99525 0.998824 0.895675
0.994816 0.999446 0.934279
0.995554 0.99542 0.961119
0.994848 0.996107 0.965901
0.997319 0.998402 0.888794
0.995123 0.999243 0.934429
0.994879 0.997354 0.967991
0.997006 0.996796 0.933461
1.00137 0.996324 0.997574
0.999269 0.999732 0.99699
0.998354 1.00332 0.994438
0.994791 0.998808 0.988367
0.997615 1.00164 0.999122
0.997187 0.99874 0.99185
0.997624 0.996289 0.990753
0.999814 0.994883 0.88696
0.994716 0.994848 0.843384
0.99483 0.994809 0.858059
0.994862 1.00403 0.985662
0.994854 0.995545 0.959257
0.994691 0.994831 0.845014
0.997088 0.995977 0.933373
0.99934 0.994835 0.895175
0.994916 1.00162 0.987394
0.999806 0.994864 0.884942
1.00071 0.995801 0.933124
0.994896 0.994824 0.962959
0.99734 0.998065 0.989258
0.999975 0.994895 0.946303
0.995523 0.994911 0.966424
0.997927 1.00072 0.995331
1.00103 1.00123 0.990559
1.00418 0.998737 0.990118
1.00226 1.00111 0.988909
1.00414 0.999425 0.987559
1.00508 0.99612 0.989327
1.00407 1.00214 0.984847
1.00493 0.997602 0.987815
1.0052 0.995244 0.989854
1.00462 1.00011 0.985647
1.00524 0.996474 0.988643
1.00522 0.995214 0.990148
1.0052 0.995637 0.990148
1.0052 0.996276 0.989312
1.0052 0.996902 0.988823
1.00524 0.998756 0.986801
1.00521 0.998422 0.987036
1.00525 0.997903 0.987354
1.00524 1.00051 0.985194
1.00522 0.999909 0.985469
1.00518 0.999867 0.985699
1.00515 1.00131 0.984885
1.00515 1.00142 0.984546
1.00505 1.00107 0.984824
1.00291 1.00312 0.98675
1.00467 1.00119 0.98569
1.0047 1.00141 0.985077
1.00016 1.00265 0.99177
1.00175 1.00437 0.987428
1.00327 1.0028 0.986497
0.999819 0.998827 0.998475
1 1.0017 0.993065
1.0013 1.00457 0.988621
0.999849 0.998412 0.99779
1.00007 1.00074 0.993997
0.999936 0.99797 0.998754
1.00272 1.00203 0.988459
1.00086 1.00386 0.989373
1.00048 1.00506 0.988898
1.0002 1.00485 0.989637
1.00034 1.00503 0.989215
1.00041 1.00403 0.990199
1.00007 1.00009 0.994627
1.00029 1.0033 0.99105
1.0002 1.00468 0.989607
1.00001 0.997533 0.998884
1.00014 0.999381 0.995149
1.00036 1.00234 0.991868
1.00004 0.997264 0.998992
1.00022 0.998902 0.995478
1.00007 0.997027 0.999082
0.99981 0.994853 0.884615
0.994698 0.994839 0.835783
0.994819 0.994826 0.85618
1.00032 1.00322 0.990824
1.0009 1.00409 0.989313
1.00278 1.00257 0.988625
1.00466 1.00347 0.983761
1.00093 1.0036 0.989328
0.99967 1.00476 0.990531
1.00098 1.00333 0.989833
1.00061 1.00428 0.989265
1.00278 1.00116 0.987658
1.00173 0.999762 0.992504
1.0038 0.995045 0.992633
1.00047 0.999462 0.994683
0.999383 1.00439 0.992093
0.998664 0.995193 0.944188
0.999774 0.994786 0.877858
0.994655 0.994784 0.833156
0.997428 0.99745 0.87551
0.994897 0.999903 0.942767
0.994833 0.995495 0.966666
0.994883 0.997014 0.969621
0.997251 0.999235 0.945186
0.995835 0.995463 0.969489
1.00078 0.995929 0.997608
1.00064 0.996813 0.997614
0.999115 1.00035 0.996939
0.997856 0.998186 0.991697
0.998224 0.99709 0.99095
0.999957 0.994894 0.936688
0.999807 0.99488 0.891826
0.9947 0.994836 0.841824
0.994896 1.00013 0.984198
0.994909 0.994839 0.960235
0.999802 0.994851 0.884751
0.999487 0.99489 0.944116
0.996807 0.997974 0.989607
1.00078 0.994901 0.943381
0.996493 0.994894 0.963962
1.00081 0.995608 0.989462
0.998727 0.994866 0.973753
1.00023 0.999263 0.990749
1.00379 0.9974 0.990098
1.00483 0.995371 0.991345
1.00386 0.999397 0.987567
1.00495 0.99615 0.989202
1.0052 0.994908 0.990347
1.00483 0.998047 0.987748
1.0052 0.995303 0.989798
1.00522 0.994913 0.990421
1.00524 0.996563 0.988591
1.00522 0.995278 0.990109
1.0052 0.995043 0.990513
1.00519 0.995493 0.990214
1.00519 0.995857 0.98998
1.00521 0.996159 0.989502
1.0052 0.996912 0.988813
1.00522 0.997653 0.988018
1.00527 0.999602 0.986127
1.00524 0.998817 0.986778
1.00521 0.998491 0.987134
1.00526 1.00108 0.984713
1.00525 1.00057 0.985085
1.00523 0.999952 0.985425
1.00376 1.00197 0.986313
1.005 1.00137 0.984906
1.00506 1.00144 0.984594
1.00084 1.00269 0.990588
1.00282 1.00321 0.986754
1.00439 1.00151 0.985661
0.999942 0.999608 0.998112
1.00029 1.00254 0.991754
1.00196 1.00427 0.987451
0.999907 0.999014 0.998358
1.00017 1.0015 0.993021
0.999928 0.998437 0.998554
1.00424 1.00211 0.985254
1.00282 1.00175 0.98835
1.00107 1.00451 0.988054
1.00034 1.0038 0.989612
1.00049 1.00501 0.988789
1.0006 1.00462 0.98927
1.00022 1.00506 0.989212
1.00028 1.00414 0.990179
1.00009 1.00074 0.993963
0.999962 0.997958 0.998728
1.00006 1.00001 0.994651
1.00025 1.0033 0.99105
1 0.997522 0.998915
1.00013 0.999338 0.995164
1.00005 0.997232 0.999011
0.999982 0.994899 0.947994
0.999826 0.99487 0.884205
0.994681 0.994829 0.830776
1.00085 1.00477 0.988267
1.00217 1.00281 0.988951
1.00179 1.00353 0.988818
1.00418 1.00358 0.98445
1.0047 1.00233 0.984013
1.00297 1.00258 0.985838
1.00017 1.00448 0.989563
1.00371 1.00104 0.986573
1.00166 0.99973 0.992701
1.00325 0.998025 0.989967
1.00439 0.995534 0.991815
1.00338 0.995886 0.992651
1.00341 0.995237 0.992842
1.00009 0.99987 0.994584
0.996057 0.994863 0.967861
0.999688 0.996 0.940383
0.998528 0.995167 0.892514
0.996984 0.997964 0.933246
0.994888 0.997139 0.970102
0.995483 0.99596 0.975102
0.999409 0.996189 0.992456
1.00127 0.9954 0.99726
0.999994 0.997432 0.997668
0.999138 0.998444 0.991174
0.996905 0.996414 0.9689
1.00007 0.9949 0.948798
0.999809 0.994869 0.877247
0.99625 0.997703 0.989891
0.996929 0.99486 0.965059
0.999992 0.99491 0.940248
1.00021 0.994938 0.989652
0.998491 0.995088 0.973173
1.00306 0.994744 0.991012
1.00297 0.997382 0.985725
1.00327 0.996018 0.990051
1.0046 0.99523 0.991351
1.00513 0.994756 0.990922
1.00491 0.996221 0.989078
1.00519 0.99491 0.990308
1.00524 0.994896 0.990479
1.00521 0.995365 0.989741
1.00522 0.994919 0.990395
1.00524 0.994918 0.990508
1.00522 0.995321 0.99007
1.00519 0.99505 0.990486
1.00521 0.995091 0.990472
1.00519 0.995357 0.990279
1.00519 0.995736 0.990057
1.00521 0.996833 0.989027
1.00519 0.996925 0.988803
1.00522 0.997713 0.987995
1.00525 0.99888 0.98696
1.0053 1.0004 0.985305
1.00527 0.999717 0.98598
1.00524 0.998881 0.986756
1.00447 1.00104 0.986075
1.00523 1.0011 0.984743
1.00525 1.00063 0.984977
1.00139 1.00233 0.989981
1.0037 1.00217 0.986291
1.00483 1.00145 0.984925
1.00029 1.00019 0.997632
1.00093 1.00256 0.990577
1.00274 1.00329 0.986757
1.0001 0.999747 0.997922
1.00033 1.00241 0.991745
1.00002 0.999146 0.998211
1.00465 1.00195 0.984576
1.00455 1.00202 0.985395
1.00335 1.00256 0.986148
1.00276 1.00179 0.988239
1.00129 1.00426 0.987848
1.0013 1.00481 0.988151
1.00042 1.00497 0.98868
1.00056 1.00466 0.989262
1.00011 1.00151 0.993205
1.00022 1.00427 0.99016
1.00004 1.00073 0.993992
0.999916 0.998461 0.998537
0.999948 0.997885 0.998787
1.00004 0.999973 0.994677
0.999991 0.99747 0.998942
0.99696 0.994882 0.969111
0.999981 0.99488 0.936014
0.999817 0.994859 0.894539
1.00517 1.00001 0.985408
1.00266 1.00353 0.988318
1.00368 1.00359 0.985139
1.00359 1.00233 0.98613
1.00477 1.00254 0.983907
1.0043 0.999787 0.987162
1.00456 1.00157 0.985485
1.00134 0.999239 0.992899
1.00371 0.998412 0.989602
1.00428 0.995635 0.991174
1.00478 0.99549 0.990192
1.00371 0.995412 0.992929
1.00338 0.995522 0.992696
1.00317 0.995417 0.993046
0.999355 0.996208 0.990896
0.995906 0.994866 0.966189
0.999218 0.994866 0.93659
0.995022 0.996475 0.973509
0.999176 0.996018 0.994847
1.0012 0.99494 0.996866
1.00137 0.996807 0.983476
0.996927 0.995584 0.969672
0.999959 0.994902 0.936684
0.99931 0.994838 0.98989
0.998752 0.995347 0.972309
1.00218 0.995168 0.991463
1.00294 0.996934 0.986469
1.00408 0.994834 0.991377
1.00462 0.997458 0.99067
1.00437 0.995026 0.991345
1.00512 0.994779 0.990811
1.00528 0.994786 0.99048
1.00519 0.99491 0.99027
1.00523 0.994889 0.990472
1.00529 0.994886 0.990448
1.00522 0.994924 0.990368
1.00523 0.994918 0.990514
1.00523 0.99494 0.990616
1.00518 0.995055 0.990459
1.00521 0.995093 0.990454
1.00521 0.995838 0.989887
1.00519 0.995614 0.990134
1.00521 0.996676 0.9892
1.00525 0.998179 0.987721
1.00522 0.997773 0.987973
1.00525 0.99884 0.986994
1.00529 1.00009 0.985725
1.00477 1.00051 0.986105
1.0053 1.0005 0.985213
1.00527 0.999827 0.985834
1.00198 1.00146 0.989865
1.00439 1.00115 0.986082
1.00521 1.0011 0.984773
1.00056 1.00047 0.997298
1.00159 1.00203 0.989974
1.00364 1.0023 0.986271
1.00043 1.00027 0.997486
1.00107 1.0024 0.990567
1.00027 0.999929 0.997735
1.00524 1.00099 0.984661
1.00496 1.00189 0.984506
1.00483 1.00149 0.985001
1.00496 1.00192 0.985538
1.00366 1.00263 0.985962
1.00224 1.00419 0.987155
1.00156 1.00397 0.987642
1.001 1.00497 0.988172
1.00027 1.00211 0.992259
1.00042 1.00471 0.989253
1.00005 1.00141 0.993235
0.999889 0.999052 0.998302
0.999991 1.00066 0.994021
0.999906 0.998364 0.998606
0.999941 0.997818 0.998839
1.00094 0.994856 0.987887
0.996755 0.994892 0.965903
0.999965 0.994884 0.947946
1.00509 0.998578 0.987213
1.00522 0.998108 0.987473
1.00517 0.999829 0.98565
1.0042 1.00191 0.986416
1.00482 1.00279 0.983799
1.00434 0.999607 0.987528
1.00513 0.996 0.988999
1.0043 0.998399 0.98925
1.00426 0.996138 0.990531
1.00472 0.996057 0.990376
1.00515 0.995053 0.990558
1.00393 0.995569 0.992012
1.00337 0.995693 0.992825
1.00365 0.995139 0.992751
0.999946 0.995981 0.991027
0.995694 0.994859 0.964632
0.999272 0.995891 0.997338
1.00444 0.995249 0.99102
1.0012 0.996814 0.983649
0.99696 0.994909 0.967616
1.00181 0.994814 0.991887
1.00289 0.996409 0.98724
1.00411 0.99481 0.991999
1.00466 0.996649 0.990745
1.00529 0.994878 0.990716
1.00538 0.994934 0.990908
1.00512 0.994796 0.990703
1.0053 0.994815 0.99045
1.0053 0.994873 0.990451
1.00522 0.994883 0.990464
1.00528 0.994886 0.990469
1.00525 0.994892 0.990612
1.00523 0.994917 0.99052
1.00524 0.994938 0.990602
1.00523 0.995309 0.990426
1.00521 0.995096 0.990436
1.00522 0.995865 0.989869
1.00525 0.997469 0.988375
1.00521 0.996517 0.989372
1.00525 0.998105 0.987789
1.0053 0.999711 0.986092
1.00525 0.998804 0.987029
1.00529 1.00003 0.9858
1.00486 1.00029 0.986182
1.0023 1.00075 0.989987
1.00475 1.00056 0.986109
1.00529 1.00061 0.985121
1.00069 1.00054 0.997155
1.00202 1.0014 0.98986
1.0043 1.00133 0.98609
1.00062 1.00051 0.99723
1.00172 1.00186 0.989967
1.00052 1.00037 0.997361
1.00527 0.999395 0.986149
1.00523 1.00089 0.984813
1.00517 1.00098 0.985008
1.00517 1.00181 0.984434
1.00494 1.00138 0.985034
1.00322 1.00278 0.986707
1.00394 1.00264 0.985775
1.00206 1.00414 0.987165
1.00056 1.00273 0.991112
1.00075 1.0051 0.988191
1.00014 1.00227 0.992289
0.999945 0.999776 0.997977
1.00001 1.00144 0.993265
0.999853 0.998944 0.998393
0.999885 0.998272 0.998673
1.0043 0.994855 0.992149
1.00098 0.994856 0.985837
0.996605 0.994896 0.964946
1.00515 0.997395 0.988467
1.00508 0.998138 0.987507
1.00526 0.996821 0.988705
1.00522 0.998114 0.987452
1.00516 0.999633 0.985889
1.00523 0.995404 0.989652
1.00442 0.999521 0.987885
1.00513 0.9964 0.988944
1.00527 0.994883 0.990377
1.00462 0.996389 0.990558
1.00509 0.995129 0.99033
1.0038 0.995595 0.992219
1.0028 0.995952 0.992721
1.00034 0.995702 0.991027
1.00534 0.994915 0.990674
1.0044 0.996208 0.991187
1.00109 0.996984 0.98385
1.00406 0.9948 0.992607
1.00466 0.99587 0.990825
1.00528 0.994852 0.990785
1.00539 0.99493 0.990851
1.00533 0.994915 0.990774
1.00531 0.994843 0.990421
1.0053 0.994885 0.990464
1.00525 0.994908 0.990702
1.00528 0.994888 0.99049
1.00526 0.994892 0.990608
1.00525 0.995003 0.990741
1.00524 0.994935 0.990587
1.00523 0.995312 0.990401
1.00525 0.996746 0.989124
1.00523 0.995892 0.98985
1.00525 0.997487 0.988384
1.00531 0.999315 0.986515
1.00525 0.99803 0.987857
1.0053 0.99971 0.986117
1.00488 1.00023 0.986232
1.0053 0.999956 0.985875
1.00487 1.0003 0.986189
1.00238 1.00035 0.991791
1.001 1.00017 0.993995
1.00234 1.00073 0.990763
1.00472 1.00061 0.986113
1.00072 1.00057 0.997127
1.00215 1.00122 0.989851
1.00066 1.00057 0.997167
1.00526 0.996585 0.989152
1.00526 0.998276 0.987439
1.00527 0.9994 0.986315
1.00524 1.00043 0.985403
1.00522 1.00079 0.984965
1.0052 1.00098 0.984964
1.00393 1.00149 0.986573
1.00507 1.00129 0.985066
1.00329 1.00246 0.986699
1.00119 1.00259 0.99016
1.00191 1.00412 0.987173
1.0005 1.00284 0.991114
1.00015 1.00049 0.997536
1.00003 1.00229 0.992318
0.999871 0.999582 0.998108
0.999839 0.99881 0.998474
1.00533 0.994881 0.990616
1.00454 0.994849 0.991906
1.00128 0.994859 0.983839
1.00524 0.995929 0.989462
1.00512 0.997334 0.988328
1.00511 0.997699 0.987805
1.00526 0.996965 0.988695
1.00522 0.998117 0.98743
1.0053 0.994954 0.990454
1.00523 0.995391 0.989659
1.00513 0.996811 0.98889
1.00526 0.994885 0.990393
1.00507 0.995199 0.9901
1.00379 0.995651 0.99243
1.0053 0.994934 0.990846
1.00535 0.99492 0.990853
1.00438 0.996853 0.991358
1.00527 0.994829 0.990842
1.0054 0.994925 0.990797
1.00533 0.994912 0.990732
1.00523 0.994954 0.990967
1.0053 0.994894 0.990478
1.00526 0.994908 0.990675
1.00526 0.994924 0.990907
1.00527 0.994892 0.990604
1.00525 0.994994 0.990721
1.00523 0.996119 0.989786
1.00523 0.995315 0.990377
1.00525 0.99677 0.989124
1.00531 0.998941 0.986934
1.00525 0.997504 0.988392
1.00531 0.999313 0.986539
1.00489 1.00019 0.986285
1.0053 0.999708 0.986141
1.0049 1.00021 0.986246
1.00248 1.00008 0.991909
1.00488 1.0003 0.986195
1.00257 1.00024 0.991683
1.00104 0.99998 0.994157
1.00075 1.00044 0.995607
1.00253 1.00067 0.991382
1.00072 1.00062 0.997109
1.00523 0.995633 0.990213
1.00525 0.997909 0.987805
1.00525 0.996394 0.989349
1.0053 0.99979 0.985949
1.00526 0.998347 0.987414
1.00526 0.999407 0.98648
1.00526 1.00043 0.985353
1.0045 1.00062 0.986446
1.00523 1.001 0.984919
1.00404 1.00126 0.986571
1.00172 1.0019 0.989866
1.00334 1.00213 0.986693
1.00102 1.00276 0.990159
1.00032 1.00101 0.997209
1.00031 1.00298 0.991124
0.999993 1.00033 0.997714
0.999797 0.999438 0.998226
1.00528 0.994866 0.990705
1.00532 0.99488 0.990604
1.00467 0.994849 0.991645
1.00526 0.995062 0.990458
1.00523 0.995988 0.989455
1.00506 0.997279 0.988194
1.00525 0.997112 0.988686
1.00528 0.994964 0.990421
1.00523 0.995384 0.989665
1.00522 0.994888 0.990409
1.00524 0.994955 0.990972
1.00529 0.994932 0.990834
1.00536 0.994928 0.99103
1.00519 0.994969 0.991086
1.00532 0.99491 0.99069
1.00523 0.994954 0.990952
1.00523 0.994956 0.991009
1.00526 0.994911 0.990648
1.00525 0.994924 0.9909
1.00523 0.995713 0.990274
1.00524 0.994985 0.9907
1.00525 0.996139 0.98978
1.00529 0.998615 0.987354
1.00525 0.996796 0.989125
1.00531 0.998936 0.986954
1.00488 1.00012 0.986397
1.00531 0.999311 0.986562
1.00491 1.00017 0.986301
1.00252 1.00005 0.991873
1.00492 1.00019 0.986258
1.00264 1.00001 0.991775
1.0011 0.99987 0.994196
1.00275 1.00013 0.991583
1.00066 1.00015 0.994409
1.00022 1.00077 0.997533
1.00523 0.995498 0.99022
1.00525 0.997128 0.988711
1.00524 0.995716 0.990026
1.00533 0.99946 0.986382
1.00526 0.997611 0.98805
1.00524 0.996207 0.989545
1.00487 1.00006 0.98641
1.0053 0.999798 0.985911
1.00527 0.998413 0.987389
1.00528 1.00043 0.985302
1.00455 1.00052 0.986439
1.00205 1.00122 0.989968
1.00414 1.00102 0.98657
1.0016 1.00208 0.989874
1.0004 1.00115 0.997115
1.00096 1.00292 0.990154
1.00025 1.00086 0.99732
0.999896 1.00012 0.997878
1.00522 0.994897 0.990934
1.00528 0.994867 0.990685
1.00531 0.994877 0.990592
1.00526 0.99507 0.990488
1.00521 0.996045 0.989448
1.00528 0.994969 0.990389
1.00522 0.994954 0.991037
1.00524 0.994952 0.990978
1.00528 0.994929 0.990821
1.00519 0.994968 0.99109
1.00519 0.994958 0.991129
1.00523 0.994953 0.990936
1.00523 0.994956 0.991005
1.00523 0.995518 0.990564
1.00524 0.994925 0.990892
1.00523 0.995717 0.990269
1.00525 0.998346 0.987696
1.00527 0.996151 0.989773
1.00528 0.998603 0.987369
1.00485 1.00001 0.986573
1.00531 0.99893 0.986974
1.00489 1.0001 0.986412
1.0025 1.00014 0.991797
1.00493 1.00014 0.986318
1.00266 1 0.991725
1.00114 0.999887 0.994114
1.00278 0.99996 0.991651
1.00076 0.999923 0.99447
1.0003 1.00033 0.994644
1.00522 0.995107 0.99079
1.00525 0.996819 0.989025
1.00524 0.995351 0.990319
1.00531 0.998811 0.987084
1.00525 0.997249 0.988566
1.00525 0.995796 0.98984
1.00497 0.999868 0.986477
1.00532 0.999227 0.986537
1.00527 0.997316 0.988295
1.00232 1.00047 0.990201
1.00487 1.00003 0.986404
1.0053 0.999809 0.985873
1.00461 1.00043 0.986432
1.002 1.00129 0.989981
1.00049 1.00107 0.997124
1.00147 1.00225 0.989884
1.00038 1.00107 0.997143
1.00011 1.00075 0.997459
1.00521 0.994924 0.991047
1.00522 0.994906 0.990897
1.00526 0.994868 0.990666
1.00526 0.995084 0.990518
1.00522 0.994957 0.991065
1.00521 0.994955 0.991044
1.00525 0.994949 0.990984
1.00519 0.994969 0.991095
1.0052 0.994959 0.991115
1.00524 0.995855 0.990241
1.00523 0.994956 0.990999
1.00522 0.995743 0.99032
1.00525 0.997788 0.988347
1.00524 0.99573 0.990264
1.00525 0.99834 0.987704
1.00481 0.999867 0.986767
1.00527 0.998601 0.987384
1.00485 0.999997 0.986583
1.00251 1.00021 0.990257
1.0049 1.00009 0.986426
1.00263 1.0001 0.990911
1.00098 0.999954 0.997138
1.0028 0.999969 0.991579
1.00084 0.999877 0.994397
1.00045 0.999962 0.994726
1.00522 0.995057 0.990929
1.00525 0.996335 0.989587
1.00522 0.995191 0.990696
1.00529 0.998382 0.987507
1.00525 0.996824 0.988998
1.00525 0.995204 0.990419
1.00496 0.999632 0.986645
1.00531 0.998805 0.987095
1.00524 0.997368 0.988421
1.00249 0.999955 0.990424
1.00495 0.999778 0.986504
1.00532 0.998986 0.986693
1.00065 1.0007 0.997199
1.00233 1.00046 0.990209
1.00488 1 0.986398
1.00193 1.00135 0.989996
1.00049 1.00099 0.997115
1.00036 1.00101 0.997176
1.00523 0.994953 0.99102
1.0052 0.994925 0.991049
1.00523 0.994914 0.990859
1.00524 0.995892 0.990173
1.00523 0.994956 0.991081
1.0052 0.994954 0.99105
1.00521 0.994958 0.991102
1.00523 0.995847 0.990243
1.00527 0.997865 0.988319
1.00522 0.995963 0.990076
1.00525 0.998085 0.988027
1.00478 0.999495 0.98714
1.00524 0.998322 0.987713
1.00482 0.999858 0.986769
1.00247 1.00015 0.990373
1.00486 0.999986 0.986593
1.00252 1.00019 0.990262
1.00094 1.00001 0.997124
1.00266 1.00009 0.990147
1.00085 0.999954 0.995779
1.00054 0.999846 0.994678
1.00526 0.995028 0.990823
1.00527 0.99626 0.989723
1.00522 0.995021 0.990942
1.00529 0.99848 0.98743
1.00525 0.996419 0.989501
1.00523 0.995276 0.990602
1.00493 0.999559 0.986784
1.00529 0.998617 0.987296
1.00524 0.996827 0.988972
1.00258 0.99979 0.990462
1.00494 0.99962 0.986657
1.00531 0.998802 0.987105
1.00083 1.00026 0.997231
1.00252 0.999931 0.990429
1.00493 0.999686 0.986528
1.00066 1.00068 0.997164
1.00234 1.00045 0.990216
1.00045 1.00097 0.99713
1.00523 0.995906 0.990144
1.00523 0.994989 0.990994
1.00519 0.994928 0.991051
1.00526 0.997793 0.9884
1.00524 0.995865 0.990191
1.00523 0.994955 0.991097
1.00523 0.995837 0.990245
1.00527 0.997836 0.988327
1.00474 0.999348 0.987358
1.00525 0.998387 0.987708
1.0048 0.999598 0.987033
1.00245 1.00004 0.990528
1.00483 0.999846 0.986771
1.00246 1.00016 0.990379
1.00089 1.00002 0.997119
1.00251 1.00018 0.990266
1.00092 1.00002 0.997117
1.00094 0.999916 0.99417
1.00528 0.996231 0.9897
1.00527 0.994995 0.990847
1.00528 0.99828 0.987684
1.00527 0.996259 0.98973
1.00522 0.994982 0.990954
1.00488 0.99973 0.986801
1.00529 0.998487 0.987425
1.00525 0.996505 0.989416
1.0026 0.999845 0.99041
1.00491 0.999673 0.986717
1.00529 0.998856 0.987085
1.00097 1.00001 0.99719
1.0026 0.999785 0.990462
1.00492 0.999602 0.986668
1.00082 1.0003 0.997221
1.00254 0.999922 0.990432
1.00067 1.00067 0.997132
1.00524 0.997834 0.988343
1.00523 0.99595 0.990118
1.00524 0.995039 0.990967
1.00471 0.999284 0.987481
1.00526 0.997781 0.988407
1.00523 0.995845 0.990208
1.00527 0.997813 0.988335
1.00476 0.999342 0.987328
1.00237 0.999992 0.990717
1.00481 0.999702 0.986925
1.00243 1.00005 0.990534
1.00087 1.00002 0.997137
1.00246 1.00016 0.990386
1.00087 1.00004 0.997129
1.00091 1.00003 0.997116
1.00526 0.998107 0.987908
1.00527 0.996028 0.989931
1.00527 0.994941 0.990872
1.00481 0.999662 0.987003
1.00528 0.998287 0.987677
1.00526 0.996259 0.989739
1.00254 0.999955 0.990424
1.00486 0.999747 0.986796
1.00528 0.998494 0.987421
1.00099 0.999939 0.997132
1.0026 0.99986 0.990407
1.00489 0.999782 0.98665
1.00094 1.00006 0.997208
1.00261 0.999798 0.990463
1.00083 1.0003 0.997202
1.00471 0.99953 0.987298
1.00524 0.997705 0.98845
1.00523 0.995978 0.990092
1.00232 0.999921 0.990882
1.00472 0.99927 0.987468
1.00526 0.99776 0.988414
1.00478 0.99933 0.9873
1.00237 0.999968 0.990725
1.00083 1.00002 0.997155
1.00241 1.00006 0.990541
1.00085 1.00003 0.997138
1.00084 1.00006 0.997136
1.00474 0.999583 0.987195
1.00526 0.997926 0.988107
1.00527 0.995841 0.990162
1.00256 0.999998 0.991872
1.00479 0.999669 0.987004
1.00528 0.998295 0.987669
1.00094 0.999958 0.997114
1.00255 0.999974 0.990422
1.00483 0.999765 0.986792
1.00099 0.999966 0.997155
1.00261 0.999882 0.990405
1.00093 1.00008 0.997221
1.0024 0.99992 0.990799
1.0047 0.999407 0.987383
1.00524 0.997576 0.988556
1.00075 0.999987 0.997208
1.00231 0.99992 0.990878
1.00473 0.999259 0.987455
1.00237 0.999946 0.990728
1.0008 1.00001 0.997172
1.00083 1.00004 0.997146
1.00255 0.999961 0.99198
1.00473 0.999586 0.987194
1.00527 0.997743 0.988307
1.00044 0.999996 0.997603
1.00246 1 0.990565
1.00477 0.999673 0.987006
1.00096 0.999968 0.997126
1.00255 0.999993 0.990419
1.00099 0.999986 0.997175
1.00074 0.999961 0.994495
1.00242 0.999921 0.991469
1.0047 0.999284 0.987468
1.00078 0.99999 0.997214
1.00231 0.999923 0.990881
1.00081 0.999999 0.997184
1.0003 0.999988 0.994919
1.00246 0.99995 0.991368
1.00472 0.999593 0.987192
1.00064 0.999987 0.995973
1.00245 1 0.990581
1.00097 0.999977 0.997139
1.00077 0.999977 0.99721
1.00231 0.999914 0.990896
1.00074 0.999991 0.997213
1.00055 0.999973 0.99607
1.00237 0.999944 0.990788
1.00089 0.999983 0.997142
1.00078 0.999976 0.997221
1.00079 0.999978 0.997189

TENSORS stress float
0.00200075 -0.00013077 0.000227682
-0.00013077 0.000897334 -3.61266e-05
0.000227682 -3.61266e-05 0.000873085
0.00621699 -3.89226e-06 0.000246239
-3.89226e-06 0.00350705 2.65143e-05
0.000246239 2.65143e-05 0.00350441
0.00170945 -6.27079e-05 9.85993e-05
-6.27079e-05 0.000718977 -1.4421e-05
9.85993e-05 -1.4421e-05 0.000684612
0.0020685 -7.54756e-05 0.000223469
-7.54756e-05 0.00091402 -2.13276e-05
0.000223469 -2.13276e-05 0.000897361
0.00205615 -0.000115948 0.000223122
-0.000115948 0.00092156 -3.19513e-05
0.000223122 -3.19513e-05 0.000900261
0.0019421 -0.0001307 0.000234035
-0.0001307 0.00086255 -3.70537e-05
0.000234035 -3.70537e-05 0.000839066
0.00169797 -0.000115309 4.20182e-05
-0.000115309 0.000627207 -1.20516e-05
4.20182e-05 -1.20516e-05 0.000526735
0.00613986 -1.21525e-05 -6.9803e-06
-1.21525e-05 0.0034498 -7.34324e-07
-6.9803e-06 -7.34324e-07 0.00345209
0.00607392 0.000163782 0.000123053
0.000163782 0.00339409 1.04492e-05
0.000123053 1.04492e-05 0.0033732
0.00593842 -9.30456e-05 5.73908e-05
-9.30456e-05 0.00331627 2.8195e-06
5.73908e-05 2.8195e-06 0.00329399
0.00176633 0.000167517 0.000236007
0.000167517 0.0007437 2.66777e-05
0.000236007 2.66777e-05 0.000740478
0.000556193 0.000235817 2.61538e-05
0.000235817 -4.85622e-05 1.79538e-05
2.61538e-05 1.79538e-05 -0.000165281
0.00172743 -3.45804e-05 0.000225188
-3.45804e-05 0.00070037 3.49054e-06
0.000225188 3.49054e-06 0.000698343
0.00138897 -2.17594e-06 5.33133e-05
-2.17594e-06 0.000515258 1.46295e-06
5.33133e-05 1.46295e-06 0.000472975
0.00146912 -6.10877e-05 -4.71227e-05
-6.10877e-05 0.0005776 8.28922e-06
-4.71227e-05 8.28922e-06 0.000531216
0.00172633 -7.68638e-05 7.45009e-05
-7.68638e-05 0.00071958 -4.41638e-06
7.45009e-05 -4.41638e-06 0.000688144
0.00170934 -4.84937e-05 0.000106616
-4.84937e-05 0.000726558 -1.49914e-05
0.000106616 -1.49914e-05 0.00068852
0.00172385 -7.3602e-05 8.78541e-05
-7.3602e-05 0.000719237 -1.14463e-05
8.78541e-05 -1.14463e-05 0.000688337
0.00175352 -0.000152388 -3.70499e-05
-0.000152388 0.000657177 4.84141e-06
-3.70499e-05 4.84141e-06 0.000565573
0.0058779 -0.000130077 0.000285453
-0.000130077 0.00328342 -1.08683e-05
0.000285453 -1.08683e-05 0.00329619
0.00201152 -5.43866e-05 0.000222631
-5.43866e-05 0.000878428 -1.58606e-05
0.000222631 -1.58606e-05 0.000863828
0.00208762 -9.71268e-05 0.000222917
-9.71268e-05 0.000931387 -2.68958e-05
0.000222917 -2.68958e-05 0.000912899
0.00168015 -0.000125525 6.32516e-05
-0.000125525 0.000599949 -9.59253e-06
6.32516e-05 -9.59253e-06 0.000510798
0.00169971 -0.00012465 5.15458e-05
-0.00012465 0.000615358 -1.1422e-05
5.15458e-05 -1.1422e-05 0.000522308
0.00188858 -0.000106288 0.000231676
-0.000106288 0.000821971 -3.35486e-05
0.000231676 -3.35486e-05 0.000802389
0.00167517 -0.000107607 3.41936e-05
-0.000107607 0.000632855 -1.28899e-05
3.41936e-05 -1.28899e-05 0.000522271
0.00205158 -0.000277633 1.59632e-05
-0.000277633 0.000663635 -7.0476e-06
1.59632e-05 -7.0476e-06 0.000482113
0.006131 -2.70894e-05 -0.000244386
-2.70894e-05 0.00343505 -1.74479e-05
-0.000244386 -1.74479e-05 0.00344198
0.00392468 0.000126409 -0.000130586
0.000126409 0.00207296 -1.35517e-05
-0.000130586 -1.35517e-05 0.00205244
0.00381198 2.93269e-05 -0.000125876
2.93269e-05 0.00201832 -1.01688e-05
-0.000125876 -1.01688e-05 0.00199707
0.00604081 -8.13422e-05 -3.66599e-06
-8.13422e-05 0.00340148 5.93714e-08
-3.66599e-06 5.93714e-08 0.00339798
0.000509094 0.000216293 -1.56251e-06
0.000216293 -7.45031e-05 -1.02256e-06
-1.56251e-06 -1.02256e-06 -0.000190884
0.00174943 6.28463e-05 0.000228669
6.28463e-05 0.000719358 1.9797e-05
0.000228669 1.9797e-05 0.000705674
0.0018777 0.000147225 0.000232714
0.000147225 0.000828932 3.04792e-05
0.000232714 3.04792e-05 0.000805525
0.00274052 0.000196587 0.000140691
0.000196587 0.0012477 1.93406e-05
0.000140691 1.93406e-05 0.00117222
0.00531818 -0.000347609 -1.03603e-05
-0.000347609 0.00303303 7.45035e-06
-1.03603e-05 7.45035e-06 0.0029647
0.00284055 0.000262612 0.000142829
0.000262612 0.00134628 2.36133e-05
0.000142829 2.36133e-05 0.00125903
0.00049931 0.000195842 2.72607e-05
0.000195842 -8.02427e-05 2.30254e-05
2.72607e-05 2.30254e-05 -0.000193617
0.000837119 0.000212156 1.19711e-05
0.000212156 1.40315e-05 5.9005e-06
1.19711e-05 5.9005e-06 -0.000177386
0.00406537 -0.000104533 0.000151169
-0.000104533 0.00221096 1.04273e-05
0.000151169 1.04273e-05 0.00221281
0.00588718 7.7635e-05 3.66009e-06
7.7635e-05 0.00327706 -1.67859e-06
3.66009e-06 -1.67859e-06 0.0032962
0.00377244 8.01475e-05 -0.000108864
8.01475e-05 0.00197567 -4.53835e-06
-0.000108864 -4.53835e-06 0.00196351
0.00574934 5.90507e-05 0.000278945
5.90507e-05 0.00319542 3.80328e-06
0.000278945 3.80328e-06 0.00321493
0.00136542 8.3517e-05 5.62293e-05
8.3517e-05 0.000501469 3.54136e-06
5.62293e-05 3.54136e-06 0.000463931
0.000578113 1.0606e-05 1.57466e-05
1.0606e-05 -0.000106969 1.81398e-06
1.57466e-05 1.81398e-06 -0.000187633
0.00593136 0.000217063 0.000155251
0.000217063 0.00333125 1.446e-05
0.000155251 1.446e-05 0.00330696
0.00276559 6.97885e-05 0.000133814
6.97885e-05 0.00123139 8.30344e-06
0.000133814 8.30344e-06 0.00117581
0.00133428 -8.00177e-05 -6.73215e-05
-8.00177e-05 0.00049551 8.38354e-06
-6.73215e-05 8.38354e-06 0.00044846
0.00137905 -9.44495e-05 -5.97293e-05
-9.44495e-05 0.000526123 9.9007e-06
-5.97293e-05 9.9007e-06 0.000477637
0.00153446 -1.58373e-05 -3.52777e-05
-1.58373e-05 0.000620127 7.54704e-06
-3.52777e-05 7.54704e-06 0.000572398
0.00178759 -0.000156747 -0.000122967
-0.000156747 0.000670819 2.16168e-05
-0.000122967 2.16168e-05 0.000588777
0.00368633 -8.26963e-06 -0.000112248
-8.26963e-06 0.00193149 -1.92937e-06
-0.000112248 -1.92937e-06 0.00191808
0.00169857 -5.92278e-05 7.99818e-05
-5.92278e-05 0.000698553 -3.60505e-06
7.99818e-05 -3.60505e-06 0.000670566
0.00166118 -2.53955e-05 0.000110046
-2.53955e-05 0.000700006 -1.31386e-05
0.000110046 -1.31386e-05 0.000661162
0.00173258 -7.65482e-05 7.98168e-05
-7.65482e-05 0.000721749 -7.6192e-06
7.98168e-05 -7.6192e-06 0.000691398
0.00174542 -0.000104252 -2.97736e-05
-0.000104252 0.00063058 1.7933e-06
-2.97736e-05 1.7933e-06 0.000551314
0.00173295 -0.000150696 -4.27536e-05
-0.000150696 0.000657819 5.33486e-06
-4.27536e-05 5.33486e-06 0.000559837
0.00175551 -0.000143709 -3.17966e-05
-0.000143709 0.000648576 3.4342e-06
-3.17966e-05 3.4342e-06 0.000562269
0.00203551 -0.00027691 -8.72096e-06
-0.00027691 0.000649757 2.34212e-06
-8.72096e-06 2.34212e-06 0.000468392
0.00573035 1.92359e-05 0.000273809
1.92359e-05 0.00318243 -1.18082e-06
0.000273809 -1.18082e-06 0.00320296
0.00195857 -3.20102e-05 0.000220049
-3.20102e-05 0.000848888 -1.08826e-05
0.000220049 -1.08826e-05 0.000837081
0.00243282 8.85277e-07 4.63578e-05
8.85277e-07 0.00105001 -9.05159e-07
4.63578e-05 -9.05159e-07 0.000984762
0.00165766 -0.000101768 5.6135e-05
-0.000101768 0.00057988 -6.39983e-06
5.6135e-05 -6.39983e-06 0.00049758
0.00169 -0.000127029 5.89825e-05
-0.000127029 0.000605651 -1.08665e-05
5.89825e-05 -1.08665e-05 0.000515166
0.00189556 -0.000177609 1.14644e-05
-0.000177609 0.000499313 -2.95405e-06
1.14644e-05 -2.95405e-06 0.000350177
0.00180134 -0.000237616 1.645e-05
-0.000237616 0.000473626 -5.61967e-06
1.645e-05 -5.61967e-06 0.000304671
0.00171095 -6.42898e-05 0.000210434
-6.42898e-05 0.000712123 -2.59625e-05
0.000210434 -2.59625e-05 0.000696727
0.00156636 -6.98431e-05 2.50099e-05
-6.98431e-05 0.000586036 -1.25693e-05
2.50099e-05 -1.25693e-05 0.000474734
0.00205142 -0.000298436 1.56955e-05
-0.000298436 0.000705005 -8.02426e-06
1.56955e-05 -8.02426e-06 0.000512058
0.00149212 -0.000336422 6.08382e-06
-0.000336422 0.000138367 -1.40081e-06
6.08382e-06 -1.40081e-06 -8.82729e-05
0.00638222 0.0002222 -0.000300552
0.0002222 0.00358476 -3.06223e-05
-0.000300552 -3.06223e-05 0.00358892
0.00588645 -0.000105683 -0.000214438
-0.000105683 0.00330799 -1.39398e-05
-0.000214438 -1.39398e-05 0.00330561
0.00617331 4.98293e-05 -0.000260674
4.98293e-05 0.00345157 -2.14027e-05
-0.000260674 -2.14027e-05 0.00346273
0.000473707 0.000210159 -2.4892e-05
0.000210159 -9.16855e-05 -1.85066e-05
-2.4892e-05 -1.85066e-05 -0.000210216
0.00635747 0.000213176 -2.58121e-06
0.000213176 0.00356644 -2.1897e-06
-2.58121e-06 -2.1897e-06 0.00357321
0.00638417 0.00016421 -8.89449e-06
0.00016421 0.00358159 -2.32927e-06
-8.89449e-06 -2.32927e-06 0.00358809
0.0004255 0.0001276 1.19184e-07
0.0001276 -0.000176518 -2.84162e-07
1.19184e-07 -2.84162e-07 -0.000279354
0.00332688 -0.000116106 -9.6024e-05
-0.000116106 0.00175736 -3.36804e-06
-9.6024e-05 -3.36804e-06 0.00172496
0.00043455 0.000199017 -5.42513e-08
0.000199017 -0.000127204 -4.21979e-07
-5.42513e-08 -4.21979e-07 -0.000243837
0.00167442 0.000197793 4.93313e-05
0.000197793 0.000645664 2.53599e-06
4.93313e-05 2.53599e-06 0.000551136
0.000860401 0.000211521 3.06395e-07
0.000211521 2.73931e-05 -6.99807e-09
3.06395e-07 -6.99807e-09 -0.000162814
0.00502925 -0.000124013 0.00018465
-0.000124013 0.00280808 1.571e-05
0.00018465 1.571e-05 0.00280174
0.000512907 2.20903e-05 9.97421e-06
2.20903e-05 -7.51057e-06 1.18663e-05
9.97421e-06 1.18663e-05 -6.74863e-05
0.000523924 9.75116e-05 1.59487e-05
9.75116e-05 -0.000136834 9.53515e-06
1.59487e-05 9.53515e-06 -0.000234139
0.000566768 0.000155313 2.08288e-05
0.000155313 -7.58243e-05 1.6792e-05
2.08288e-05 1.6792e-05 -0.000185334
0.00105914 0.000200853 1.46789e-05
0.000200853 -1.88466e-06 5.28078e-06
1.46789e-05 5.28078e-06 -0.000177204
0.00284452 0.000153007 0.000122855
0.000153007 0.00138482 1.64783e-05
0.000122855 1.64783e-05 0.00131543
0.000914966 0.00021851 1.36896e-05
0.00021851 4.81963e-06 6.53847e-06
1.36896e-05 6.53847e-06 -0.000182432
0.00087511 0.000216762 1.14574e-05
0.000216762 0.000101665 5.63775e-06
1.14574e-05 5.63775e-06 -9.57997e-05
0.0010458 0.000303363 2.27598e-06
0.000303363 5.9877e-05 1.11835e-07
2.27598e-06 1.11835e-07 -0.000184542
0.00319336 -0.000120476 9.16153e-05
-0.000120476 0.00166794 4.2959e-06
9.16153e-05 4.2959e-06 0.00166789
0.00373843 -0.000152472 1.67011e-05
-0.000152472 0.0020178 -2.40806e-07
1.67011e-05 -2.40806e-07 0.0020082
0.00620747 4.77893e-05 -0.000289651
4.77893e-05 0.00346213 -1.35385e-05
-0.000289651 -1.35385e-05 0.00347993
0.00596682 6.82289e-05 -0.000287236
6.82289e-05 0.00332251 -8.36277e-06
-0.000287236 -8.36277e-06 0.00334263
0.005839 8.42946e-05 5.07641e-09
8.42946e-05 0.0032558 -3.42111e-06
5.07641e-09 -3.42111e-06 0.0032717
0.00368356 2.57305e-05 -0.000121248
2.57305e-05 0.00192002 -5.86568e-06
-0.000121248 -5.86568e-06 0.00191237
0.00162799 3.68298e-05 5.78535e-05
3.68298e-05 0.00053909 1.39188e-06
5.78535e-05 1.39188e-06 0.000473752
0.00391291 0.000134855 -0.000111439
0.000134855 0.00206637 -6.21798e-06
-0.000111439 -6.21798e-06 0.00204745
0.00167278 8.75053e-05 5.81763e-05
8.75053e-05 0.000564224 2.69319e-06
5.81763e-05 2.69319e-06 0.000490749
0.00580549 0.000129263 0.0002823
0.000129263 0.00324465 6.99738e-06
0.0002823 6.99738e-06 0.00325513
0.000493413 1.06553e-05 1.88037e-05
1.06553e-05 -0.000153961 8.07243e-07
1.88037e-05 8.07243e-07 -0.000231979
0.00277274 3.48553e-05 0.000132883
3.48553e-05 0.00123663 5.67487e-06
0.000132883 5.67487e-06 0.00118563
0.00106862 5.11634e-05 1.23611e-05
5.11634e-05 -2.4134e-05 9.80467e-07
1.23611e-05 9.80467e-07 -0.00015403
0.00270082 0.000113246 0.000138233
0.000113246 0.00119711 1.08598e-05
0.000138233 1.08598e-05 0.00113587
0.00112146 0.000118108 1.22139e-05
0.000118108 -3.90804e-06 2.12976e-06
1.22139e-05 2.12976e-06 -0.000149227
0.00176659 4.2852e-05 -0.000224791
4.2852e-05 0.000724436 2.42265e-06
-0.000224791 2.42265e-06 0.000723643
0.00134933 -9.98898e-06 -5.40578e-05
-9.98898e-06 0.000496729 2.30383e-06
-5.40578e-05 2.30383e-06 0.000454599
0.00150628 2.066e-05 -2.69584e-05
2.066e-05 0.000608453 7.43976e-06
-2.69584e-05 7.43976e-06 0.000558864
0.00133766 -9.31668e-05 -6.82076e-05
-9.31668e-05 0.000500231 1.00655e-05
-6.82076e-05 1.00655e-05 0.000452323
0.00186375 -8.36992e-05 -0.000118886
-8.36992e-05 0.000693815 1.07888e-05
-0.000118886 1.07888e-05 0.000624547
0.00183798 -0.000132619 -0.000120356
-0.000132619 0.000689847 1.82637e-05
-0.000120356 1.82637e-05 0.00061388
0.00174242 -0.000168094 -0.000125424
-0.000168094 0.000655165 2.31168e-05
-0.000125424 2.31168e-05 0.000567461
0.0020115 -0.000275374 -3.08709e-05
-0.000275374 0.00063136 1.07376e-05
-3.08709e-05 1.07376e-05 0.000450464
0.0058371 -9.71937e-05 2.24493e-06
-9.71937e-05 0.00325756 -1.76054e-06
2.24493e-06 -1.76054e-06 0.00327164
0.00162038 3.59316e-05 8.76805e-05
3.59316e-05 0.000646113 -3.97601e-06
8.76805e-05 -3.97601e-06 0.000624472
0.00114309 -7.09702e-06 -6.07979e-05
-7.09702e-06 0.000248021 1.57801e-06
-6.07979e-05 1.57801e-06 0.000181139
0.00172261 -6.62094e-05 -3.31067e-05
-6.62094e-05 0.000613412 2.40977e-06
-3.31067e-05 2.40977e-06 0.000539077
0.00393491 1.66807e-07 0.000216874
1.66807e-07 0.00210384 -1.04263e-05
0.000216874 -1.04263e-05 0.00209339
0.00224354 -0.000148148 -3.82034e-05
-0.000148148 0.000985483 2.43691e-06
-3.82034e-05 2.43691e-06 0.000886708
0.00175677 -0.000126075 -2.92864e-05
-0.000126075 0.000642159 2.36489e-06
-2.92864e-05 2.36489e-06 0.000559774
0.00189593 -0.000175126 -9.72061e-06
-0.000175126 0.000495689 1.70435e-06
-9.72061e-06 1.70435e-06 0.000348019
0.00201738 -0.00029903 -7.44859e-06
-0.00029903 0.000679707 2.22588e-06
-7.44859e-06 2.22588e-06 0.00048599
0.00191787 -0.000242837 -6.62814e-06
-0.000242837 0.000546064 1.72882e-06
-6.62814e-06 1.72882e-06 0.000376711
0.00151926 -0.000337592 5.24283e-07
-0.000337592 0.000156167 -1.73553e-07
5.24283e-07 -1.73553e-07 -6.99234e-05
0.000529625 1.13493e-05 1.94409e-05
1.13493e-05 -0.000135003 -9.09422e-07
1.94409e-05 -9.09422e-07 -0.00020989
0.00157967 4.51239e-06 4.70144e-05
4.51239e-06 0.000524381 -2.63073e-06
4.70144e-05 -2.63073e-06 0.000451657
0.00173213 -5.18404e-05 1.1648e-05
-5.18404e-05 0.000389502 -8.11783e-07
1.1648e-05 -8.11783e-07 0.00027102
0.00174051 -0.000136428 1.17049e-05
-0.000136428 0.000393682 -1.90165e-06
1.17049e-05 -1.90165e-06 0.000255968
0.00178001 -0.000205451 1.42683e-05
-0.000205451 0.000435366 -4.03972e-06
1.42683e-05 -4.03972e-06 0.000277974
0.0018292 -0.0002416 5.1885e-07
-0.0002416 0.000229318 -3.21273e-07
5.1885e-07 -3.21273e-07 6.26153e-05
0.0055256 0.000154229 0.000175849
0.000154229 0.00311624 -1.2936e-05
0.000175849 -1.2936e-05 0.00310047
0.00151576 -0.000309706 4.93922e-06
-0.000309706 0.000108304 -1.08662e-06
4.93922e-06 -1.08662e-06 -9.87226e-05
0.000342006 -0.000155792 2.07664e-05
-0.000155792 -0.000176667 -1.83755e-05
2.07664e-05 -1.83755e-05 -0.000275221
0.000851143 -0.000221576 1.2164e-05
-0.000221576 1.75996e-05 -8.46139e-06
1.2164e-05 -8.46139e-06 -0.00017617
0.00152374 -0.000370736 6.97074e-06
-0.000370736 0.000216362 -2.15273e-06
6.97074e-06 -2.15273e-06 -3.42521e-05
0.0017656 -0.000411661 2.79118e-06
-0.000411661 0.00018879 1.41095e-06
2.79118e-06 1.41095e-06 -3.82356e-05
0.000472704 -0.000105819 1.89658e-05
-0.000105819 -5.29995e-05 -1.48319e-05
1.89658e-05 -1.48319e-05 -0.000135188
0.000444582 -8.5331e-05 -7.96708e-07
-8.5331e-05 -2.35996e-05 -4.96815e-06
-7.96708e-07 -4.96815e-06 -0.000220429
0.00639836 0.000234039 -0.000311903
0.000234039 0.00359709 -2.9998e-05
-0.000311903 -2.9998e-05 0.00360085
0.00629057 0.000147842 -0.000281649
0.000147842 0.00352253 -2.67925e-05
-0.000281649 -2.67925e-05 0.00353243
0.000426288 0.000123891 -1.8575e-05
0.000123891 -0.000177792 -1.16812e-05
-1.8575e-05 -1.16812e-05 -0.000280745
0.00532865 -0.000175546 -0.000166326
-0.000175546 0.00299791 -1.18077e-05
-0.000166326 -1.18077e-05 0.00298133
0.000455679 0.000174117 -2.33757e-05
0.000174117 -0.000104751 -1.72788e-05
-2.33757e-05 -1.72788e-05 -0.000204279
0.000413586 0.000184333 -2.09683e-05
0.000184333 -0.000137555 -1.70139e-05
-2.09683e-05 -1.70139e-05 -0.00025542
0.000828451 0.000206499 -1.30003e-05
0.000206499 8.65132e-06 -6.27576e-06
-1.30003e-05 -6.27576e-06 -0.000179699
0.00468829 -0.000143457 1.07194e-05
-0.000143457 0.00260338 -6.52156e-07
1.07194e-05 -6.52156e-07 0.00259446
0.000542845 8.43696e-06 1.40261e-06
8.43696e-06 1.49978e-05 5.67612e-07
1.40261e-06 5.67612e-07 -4.21064e-05
0.00166842 0.000134438 5.96393e-05
0.000134438 0.000570177 4.76914e-06
5.96393e-05 4.76914e-06 0.000485997
0.00163163 0.000191518 5.88818e-05
0.000191518 0.000583994 4.98595e-06
5.88818e-05 4.98595e-06 0.000486938
0.00102624 0.000199351 8.5613e-08
0.000199351 -1.60455e-05 -2.65878e-07
8.5613e-08 -2.65878e-07 -0.000191844
0.000507018 0.000140425 -3.06479e-07
0.000140425 -5.52373e-05 -2.18963e-07
-3.06479e-07 -2.18963e-07 -0.000141792
0.000905751 0.000215373 7.13897e-07
0.000215373 5.70735e-06 8.80911e-08
7.13897e-07 8.80911e-08 -0.000180651
0.000814203 0.000208901 2.69077e-07
0.000208901 6.16131e-05 -8.40151e-07
2.69077e-07 -8.40151e-07 -0.000133419
0.00118639 0.000321254 2.29293e-07
0.000321254 0.000141867 -3.22514e-07
2.29293e-07 -3.22514e-07 -0.000105454
0.000523634 9.07272e-05 1.70974e-05
9.07272e-05 -1.28826e-05 1.42871e-05
1.70974e-05 1.42871e-05 -9.04628e-05
0.000579304 -2.44251e-05 4.03808e-06
-2.44251e-05 3.64233e-05 9.86021e-06
4.03808e-06 9.86021e-06 -7.88286e-06
0.00120409 0.00012943 3.17557e-06
0.00012943 0.000441763 6.07777e-06
3.17557e-06 6.07777e-06 0.00026845
0.00110528 0.000177964 1.37877e-05
0.000177964 -4.43447e-07 4.1225e-06
1.37877e-05 4.1225e-06 -0.000166599
0.0009924 0.000216272 1.46893e-05
0.000216272 -1.07595e-06 6.17616e-06
1.46893e-05 6.17616e-06 -0.000184005
0.00164921 0.000331534 4.44915e-06
0.000331534 0.000173746 5.20298e-07
4.44915e-06 5.20298e-07 -3.86811e-05
0.000787564 0.000215555 8.96599e-06
0.000215555 0.000115937 5.89466e-06
8.96599e-06 5.89466e-06 -8.13546e-05
0.00144671 0.000361877 3.62589e-06
0.000361877 0.00021177 1.81249e-07
3.62589e-06 1.81249e-07 -3.31847e-05
0.00113433 0.00030192 3.81364e-06
0.00030192 0.000171035 1.03748e-06
3.81364e-06 1.03748e-06 -8.17207e-05
0.00140187 0.000404804 -6.0389e-06
0.000404804 0.000193045 -3.17685e-06
-6.0389e-06 -3.17685e-06 -8.03535e-05
0.00277673 -0.000126729 5.07711e-05
-0.000126729 0.00140552 3.3022e-06
5.07711e-05 3.3022e-06 0.00140377
0.00306553 -0.000147988 1.1857e-05
-0.000147988 0.00159373 -8.20919e-07
1.1857e-05 -8.20919e-07 0.00158594
0.00343082 -0.000175869 -6.7645e-05
-0.000175869 0.00183236 -3.81629e-06
-6.7645e-05 -3.81629e-06 0.00181592
0.000425819 -7.44323e-05 1.38325e-05
-7.44323e-05 -6.66299e-05 -1.32266e-05
1.38325e-05 -1.32266e-05 -0.000135222
0.00487524 0.000179533 0.000139069
0.000179533 0.00273835 -1.32739e-05
0.000139069 -1.32739e-05 0.00271471
0.00635692 0.000202681 -0.000312818
0.000202681 0.00356744 -2.53395e-05
-0.000312818 -2.53395e-05 0.00357592
0.00601822 8.45297e-05 -0.000286967
8.45297e-05 0.00335153 -1.1636e-05
-0.000286967 -1.1636e-05 0.00337036
0.000505347 9.54517e-05 -1.974e-05
9.54517e-05 -0.00015137 -5.30614e-06
-1.974e-05 -5.30614e-06 -0.000239132
0.000490785 4.27297e-05 -1.93023e-05
4.27297e-05 -0.000155513 -2.68846e-06
-1.93023e-05 -2.68846e-06 -0.00023689
0.00578387 -8.3445e-06 -0.000275935
-8.3445e-06 0.00321265 -2.16697e-06
-0.000275935 -2.16697e-06 0.0032338
0.00573993 1.11006e-05 -2.61533e-07
1.11006e-05 0.00318713 -8.19174e-07
-2.61533e-07 -8.19174e-07 0.00320819
0.000476087 7.66206e-07 -1.10025e-07
7.66206e-07 -0.000167281 9.98313e-08
-1.10025e-07 9.98313e-08 -0.000243468
0.00161333 3.70648e-05 5.80316e-05
3.70648e-05 0.000526359 2.42856e-06
5.80316e-05 2.42856e-06 0.000459635
0.00103097 5.45725e-05 -7.9567e-08
5.45725e-05 -4.87556e-05 -1.77415e-07
-7.9567e-08 -1.77415e-07 -0.000179314
0.000466488 8.10347e-05 -3.9741e-07
8.10347e-05 -0.000173272 -3.85841e-07
-3.9741e-07 -3.85841e-07 -0.000266539
0.00106203 0.000118971 -2.23658e-07
0.000118971 -4.0212e-05 -1.29449e-07
-2.23658e-07 -1.29449e-07 -0.000186493
0.000470263 -3.05943e-05 1.9367e-05
-3.05943e-05 -0.000172564 -7.4429e-07
1.9367e-05 -7.4429e-07 -0.000246353
0.00103115 2.15088e-05 1.20878e-05
2.15088e-05 -3.93583e-05 4.8934e-07
1.20878e-05 4.8934e-07 -0.000165838
0.00107176 8.41528e-05 1.19774e-05
8.41528e-05 -2.81365e-05 1.74342e-06
1.19774e-05 1.74342e-06 -0.000164455
0.00165451 8.60649e-05 -7.05932e-07
8.60649e-05 6.86954e-05 -1.46813e-07
-7.05932e-07 -1.46813e-07 -4.84876e-05
0.00113051 0.00014922 1.29272e-05
0.00014922 2.50809e-06 2.93071e-06
1.29272e-05 2.93071e-06 -0.000153217
0.00173652 0.000195802 9.05854e-07
0.000195802 0.000110332 -5.88616e-07
9.05854e-07 -5.88616e-07 -3.446e-05
0.00576061 -5.80652e-05 -0.000281217
-5.80652e-05 0.00320493 1.99123e-06
-0.000281217 1.99123e-06 0.00322299
0.00130489 -0.000148981 -5.57173e-05
-0.000148981 0.000480806 6.36437e-06
-5.57173e-05 6.36437e-06 0.000436102
-0.000262931 -4.51569e-06 -1.24983e-05
-4.51569e-06 -0.000611642 1.97671e-06
-1.24983e-05 1.97671e-06 -0.000701749
0.00182546 -5.87446e-05 -0.000117691
-5.87446e-05 0.000670246 7.61601e-06
-0.000117691 7.61601e-06 0.000604102
0.0059034 0.000315497 -8.29911e-06
0.000315497 0.00336758 5.24842e-06
-8.29911e-06 5.24842e-06 0.00330637
0.00289476 -0.00023404 -0.000127988
-0.00023404 0.00137832 2.37832e-05
-0.000127988 2.37832e-05 0.00128519
0.00186619 -0.00010818 -0.000119497
-0.00010818 0.000698937 1.44536e-05
-0.000119497 1.44536e-05 0.00062711
0.00186963 -0.000171254 -2.93776e-05
-0.000171254 0.000475503 5.49266e-06
-2.93776e-05 5.49266e-06 0.000329568
0.00201189 -0.000246449 -2.96544e-05
-0.000246449 0.000604194 9.07686e-06
-2.96544e-05 9.07686e-06 0.000434867
0.00200859 -0.000301087 -2.84919e-05
-0.000301087 0.000670817 1.15309e-05
-2.84919e-05 1.15309e-05 0.000476106
0.00154913 -0.000338942 -4.65627e-06
-0.000338942 0.000175803 1.0678e-06
-4.65627e-06 1.0678e-06 -4.97721e-05
0.000471034 5.7645e-06 -3.21048e-08
5.7645e-06 -0.00016895 1.86918e-07
-3.21048e-08 1.86918e-07 -0.00024482
0.00171075 -7.85473e-05 -3.20566e-05
-7.85473e-05 0.000608533 3.65487e-07
-3.20566e-05 3.65487e-07 0.000537866
0.00134903 -4.75244e-05 -9.25428e-06
-4.75244e-05 0.000155437 5.22708e-07
-9.25428e-06 5.22708e-07 3.25501e-05
0.00185464 -0.000137603 -7.45191e-06
-0.000137603 0.000463842 1.17608e-06
-7.45191e-06 1.17608e-06 0.000326078
0.00578062 0.000147354 3.04751e-06
0.000147354 0.00327231 5.66273e-07
3.04751e-06 5.66273e-07 0.00325646
0.00164486 -0.000149234 1.54473e-06
-0.000149234 0.000637692 4.52786e-07
1.54473e-06 4.52786e-07 0.000528384
0.00133926 -0.000255167 1.3181e-06
-0.000255167 0.000320633 -1.04277e-06
1.3181e-06 -1.04277e-06 0.000124301
0.00182247 -0.000207345 -7.62102e-06
-0.000207345 0.000461152 1.86091e-06
-7.62102e-06 1.86091e-06 0.000303361
0.00179706 -0.000243018 -1.42731e-06
-0.000243018 0.000205266 1.58748e-07
-1.42731e-06 1.58748e-07 4.17088e-05
0.00151284 -0.00036904 8.97886e-07
-0.00036904 0.000214053 -2.31198e-07
8.97886e-07 -2.31198e-07 -3.54413e-05
0.00166743 -0.000316244 5.30955e-07
-0.000316244 0.000203135 -1.85779e-07
5.30955e-07 -1.85779e-07 -3.41742e-06
0.0018037 -0.000412868 7.03905e-07
-0.000412868 0.000216546 8.66608e-08
7.03905e-07 8.66608e-08 -1.00952e-05
0.000523357 -0.000111128 4.75668e-07
-0.000111128 -2.31522e-05 6.31968e-07
4.75668e-07 6.31968e-07 -0.00010926
0.000670235 -0.000116025 1.81313e-07
-0.000116025 0.000105515 1.66498e-09
1.81313e-07 1.66498e-09 -8.83806e-05
0.00101599 -2.33618e-05 1.20926e-05
-2.33618e-05 -4.14701e-05 -7.85028e-07
1.20926e-05 -7.85028e-07 -0.000168367
0.00179528 -9.03193e-05 1.06283e-05
-9.03193e-05 0.000429441 -1.26876e-06
1.06283e-05 -1.26876e-06 0.000303942
0.00172051 -8.55138e-05 -6.28794e-07
-8.55138e-05 0.00013031 2.11119e-07
-6.28794e-07 2.11119e-07 8.52268e-06
0.00170108 -0.00019311 9.02106e-07
-0.00019311 0.000124783 7.1468e-07
9.02106e-07 7.1468e-07 -1.82962e-05
0.00174498 -0.000287296 1.73097e-06
-0.000287296 0.000211264 -8.88048e-08
1.73097e-06 -8.88048e-08 2.78017e-05
0.00193752 -0.000285655 4.86419e-07
-0.000285655 0.000166104 3.70348e-07
4.86419e-07 3.70348e-07 2.33315e-05
0.000459549 -0.000139723 1.95311e-05
-0.000139723 -7.99126e-05 -1.75393e-05
1.95311e-05 -1.75393e-05 -0.000174564
0.00182568 -0.000377991 9.47621e-07
-0.000377991 0.000181343 1.19916e-06
9.47621e-07 1.19916e-06 -1.41547e-05
0.000593437 -0.000202975 8.35848e-06
-0.000202975 -7.41891e-05 -7.49307e-06
8.35848e-06 -7.49307e-06 -0.000268293
0.00125541 -0.000363747 9.52296e-06
-0.000363747 0.000143387 -3.24675e-06
9.52296e-06 -3.24675e-06 -0.000123233
0.00193371 -0.000466701 2.42563e-06
-0.000466701 0.000352895 6.67626e-07
2.42563e-06 6.67626e-07 8.47976e-05
0.0021166 -0.000448693 -2.51187e-06
-0.000448693 0.000353009 3.61136e-06
-2.51187e-06 3.61136e-06 0.000150904
0.000711105 -0.00018768 1.1796e-06
-0.00018768 0.000127481 -5.8193e-06
1.1796e-06 -5.8193e-06 -9.9168e-05
0.000583698 -7.75378e-05 -3.20212e-07
-7.75378e-05 4.88119e-05 -4.92976e-06
-3.20212e-07 -4.92976e-06 -0.00010063
0.00112895 -0.000247255 -2.08382e-06
-0.000247255 0.000408747 -1.45699e-07
-2.08382e-06 -1.45699e-07 0.000134703
0.000454708 0.000103047 -1.79685e-05
0.000103047 -0.000174082 -8.93794e-06
-1.79685e-05 -8.93794e-06 -0.000272359
0.00432807 -0.000192892 -0.000109778
-0.000192892 0.00239713 -7.88949e-06
-0.000109778 -7.88949e-06 0.00237536
0.000418706 -7.38345e-06 -4.52681e-06
-7.38345e-06 -5.42855e-05 -1.13588e-05
-4.52681e-06 -1.13588e-05 -0.000110904
0.000410802 0.000154135 -1.98308e-05
0.000154135 -0.000163896 -1.47141e-05
-1.98308e-05 -1.47141e-05 -0.000274213
0.000994905 0.000198175 -1.52892e-05
0.000198175 -2.94005e-05 -5.81124e-06
-1.52892e-05 -5.81124e-06 -0.000205699
0.000473622 0.000131791 -2.21075e-05
0.000131791 -7.80591e-05 -1.59594e-05
-2.21075e-05 -1.59594e-05 -0.000161404
0.000627407 0.000193252 -9.55131e-06
0.000193252 -5.4532e-05 -7.13889e-06
-9.55131e-06 -7.13889e-06 -0.000246598
0.000922085 0.000214266 -1.37868e-05
0.000214266 2.18563e-05 -6.76953e-06
-1.37868e-05 -6.76953e-06 -0.000163912
0.00123451 0.00033213 -3.97909e-06
0.00033213 0.000165288 -1.21627e-06
-3.97909e-06 -1.21627e-06 -8.408e-05
0.000505943 7.9641e-05 1.44037e-06
7.9641e-05 -2.44542e-05 9.54431e-07
1.44037e-06 9.54431e-07 -9.84937e-05
0.000462088 -4.48912e-05 -1.05828e-08
-4.48912e-05 -2.69735e-05 4.44154e-07
-1.05828e-08 4.44154e-07 -7.45235e-05
0.000643882 7.86732e-05 1.59067e-06
7.86732e-05 8.42828e-05 -1.04523e-07
1.59067e-06 -1.04523e-07 -7.18317e-05
0.00106412 0.000177403 -1.06712e-07
0.000177403 -2.13946e-05 -2.78228e-07
-1.06712e-07 -2.78228e-07 -0.000188409
0.000975284 0.000213849 3.43444e-07
0.000213849 -4.41841e-06 -1.98794e-07
3.43444e-07 -1.98794e-07 -0.000187136
0.00163318 0.000330804 -4.03855e-08
0.000330804 0.000162569 -8.5621e-08
-4.03855e-08 -8.5621e-08 -5.02547e-05
0.000746695 0.000206904 -7.75276e-07
0.000206904 8.73914e-05 -4.58945e-08
-7.75276e-07 -4.58945e-08 -0.000108535
0.00146428 0.00036166 -5.7994e-08
0.00036166 0.000217803 -1.52134e-07
-5.7994e-08 -1.52134e-07 -2.77078e-05
0.00108019 0.000296005 3.25484e-07
0.000296005 0.00013977 -7.99062e-07
3.25484e-07 -7.99062e-07 -0.000110922
0.00137113 0.000415545 -6.74395e-07
0.000415545 0.000159769 8.41321e-07
-6.74395e-07 8.41321e-07 -0.000116056
0.000543457 -4.69507e-05 -3.28477e-07
-4.69507e-05 1.45403e-05 8.02752e-06
-3.28477e-07 8.02752e-06 -2.19199e-05
0.000980926 0.000153293 5.38112e-06
0.000153293 0.000279462 4.4228e-06
5.38112e-06 4.4228e-06 8.86649e-05
0.00079639 4.39247e-05 1.61747e-06
4.39247e-05 0.000163888 5.88116e-06
1.61747e-06 5.88116e-06 4.88831e-05
0.00094531 0.000140274 1.12544e-06
0.000140274 0.000311321 6.96607e-08
1.12544e-06 6.96607e-08 7.27926e-05
0.00170783 0.000295045 2.55092e-06
0.000295045 0.000153461 -6.87093e-07
2.55092e-06 -6.87093e-07 -3.55969e-05
0.00155041 0.000355296 4.80352e-06
0.000355296 0.000186062 8.4741e-07
4.80352e-06 8.4741e-07 -4.68032e-05
0.00192346 0.000405702 9.40623e-07
0.000405702 0.000233681 -6.30235e-07
9.40623e-07 -6.30235e-07 2.28444e-05
0.00100555 0.00025725 5.10668e-06
0.00025725 0.000148857 2.53818e-06
5.10668e-06 2.53818e-06 -8.34646e-05
0.00200943 0.000496202 -2.50018e-06
0.000496202 0.000435671 -1.33337e-06
-2.50018e-06 -1.33337e-06 0.000166258
0.00141072 0.000400476 -3.25248e-06
0.000400476 0.000273983 -3.30359e-06
-3.25248e-06 -3.30359e-06 -2.57844e-05
0.00161856 0.000464713 -1.06753e-06
0.000464713 0.00020894 -1.19583e-06
-1.06753e-06 -1.19583e-06 -6.86835e-05
0.000573037 2.86371e-05 2.35247e-06
2.86371e-05 3.04977e-05 2.99484e-06
2.35247e-06 2.99484e-06 -3.06442e-05
0.000493957 -3.44741e-05 7.7922e-07
-3.44741e-05 -3.66977e-05 5.85834e-06
7.7922e-07 5.85834e-06 -6.05391e-05
0.00258623 -0.000117329 3.33148e-05
-0.000117329 0.00128046 3.59912e-06
3.33148e-05 3.59912e-06 0.00128131
0.00271539 -0.000135274 5.71355e-06
-0.000135274 0.00136957 -6.23537e-07
5.71355e-06 -6.23537e-07 0.00136536
0.00294441 -0.000158686 -4.219e-05
-0.000158686 0.0015213 -3.32833e-06
-4.219e-05 -3.32833e-06 0.00151016
0.000423802 -5.1853e-05 9.94495e-06
-5.1853e-05 -6.12131e-05 -1.13213e-05
9.94495e-06 -1.13213e-05 -0.000118748
0.00423939 0.000153768 0.00011862
0.000153768 0.00233515 -9.92729e-06
0.00011862 -9.92729e-06 0.00232068
0.000518511 -7.63658e-05 -1.05963e-06
-7.63658e-05 -1.29764e-05 2.50445e-07
-1.05963e-06 2.50445e-07 -8.50613e-05
0.00510671 0.000148317 -5.54973e-06
0.000148317 0.00286659 -7.87509e-07
-5.54973e-06 -7.87509e-07 0.00285119
0.000499747 0.0001065 -1.93379e-05
0.0001065 -0.000150764 -7.12945e-06
-1.93379e-05 -7.12945e-06 -0.000245846
0.000506985 3.40353e-05 -1.83913e-05
3.40353e-05 -0.00015106 -3.47398e-06
-1.83913e-05 -3.47398e-06 -0.00023352
0.00102599 0.000119838 -1.21322e-05
0.000119838 -6.36837e-05 -2.3543e-06
-1.21322e-05 -2.3543e-06 -0.000210776
0.000995587 5.66248e-05 -1.20579e-05
5.66248e-05 -7.18793e-05 -1.26226e-06
-1.20579e-05 -1.26226e-06 -0.000202933
0.000530455 -7.67924e-06 -1.94911e-05
-7.67924e-06 -0.00013739 -7.96826e-07
-1.94911e-05 -7.96826e-07 -0.00021167
0.00582743 -9.76001e-05 -0.000287586
-9.76001e-05 0.00325112 4.73793e-06
-0.000287586 4.73793e-06 0.00326661
0.000516592 -1.65637e-06 6.98099e-08
-1.65637e-06 -0.000144941 -6.18661e-07
6.98099e-08 -6.18661e-07 -0.000218747
0.00101415 2.66198e-05 -8.66734e-08
2.66198e-05 -5.0758e-05 1.4419e-08
-8.66734e-08 1.4419e-08 -0.000177597
0.00105321 8.6116e-05 -1.67586e-07
8.6116e-05 -4.17395e-05 -1.92345e-08
-1.67586e-07 -1.92345e-08 -0.000178746
0.00164305 8.47394e-05 -4.46831e-08
8.47394e-05 6.32663e-05 1.42263e-07
-4.46831e-08 1.42263e-07 -5.40578e-05
0.00107893 0.000150139 -2.67839e-07
0.000150139 -2.74499e-05 -2.80498e-07
-2.67839e-07 -2.80498e-07 -0.000184369
0.0017146 0.000194827 -1.46294e-07
0.000194827 9.77827e-05 2.94752e-08
-1.46294e-07 2.94752e-08 -4.74084e-05
0.00100355 -2.66799e-06 1.2018e-05
-2.66799e-06 -4.95508e-05 -2.14329e-07
1.2018e-05 -2.14329e-07 -0.000175528
0.00163057 4.09213e-05 -9.4032e-08
4.09213e-05 5.94034e-05 -5.43466e-08
-9.4032e-08 -5.43466e-08 -5.2499e-05
0.00166806 0.000137138 -6.3594e-07
0.000137138 7.0415e-05 -3.71498e-07
-6.3594e-07 -3.71498e-07 -5.74721e-05
0.00188312 0.000112692 9.89574e-07
0.000112692 5.42807e-05 -2.54277e-09
9.89574e-07 -2.54277e-09 -1.92681e-05
0.00175316 0.000251297 1.93011e-06
0.000251297 0.000137363 -4.54363e-07
1.93011e-06 -4.54363e-07 -2.88396e-05
0.00198511 0.000238337 1.47163e-06
0.000238337 0.000142167 -1.42683e-06
1.47163e-06 -1.42683e-06 2.57687e-05
0.000500944 -1.52091e-06 -1.86163e-05
-1.52091e-06 -0.000147819 9.34e-07
-1.86163e-05 9.34e-07 -0.000225809
0.00180254 -3.50993e-05 -0.00011639
-3.50993e-05 0.000656962 5.07118e-06
-0.00011639 5.07118e-06 0.000594902
0.000930639 -4.21412e-05 -1.63554e-05
-4.21412e-05 -9.96752e-05 1.74479e-06
-1.63554e-05 1.74479e-06 -0.000227298
0.00194784 -0.000137697 -2.67801e-05
-0.000137697 0.000520665 4.05768e-06
-2.67801e-05 4.05768e-06 0.000383013
0.00597699 0.000135975 -0.000206886
0.000135975 0.00339182 1.96346e-05
-0.000206886 1.96346e-05 0.00337548
0.00295184 -0.000217004 -0.000134008
-0.000217004 0.00142945 1.91956e-05
-0.000134008 1.91956e-05 0.00134663
0.00202826 -0.000306864 -2.37803e-05
-0.000306864 0.000743036 1.05012e-05
-2.37803e-05 1.05012e-05 0.000540973
0.00184335 -0.000207658 -2.89668e-05
-0.000207658 0.000473318 7.29071e-06
-2.89668e-05 7.29071e-06 0.000315498
0.00176331 -0.000244474 -3.8966e-06
-0.000244474 0.000179687 1.84445e-07
-3.8966e-06 1.84445e-07 1.92656e-05
0.00181973 -0.000322815 -4.81967e-06
-0.000322815 0.000298982 1.27136e-06
-4.81967e-06 1.27136e-06 9.28934e-05
0.00149973 -0.000367406 -5.94362e-06
-0.000367406 0.000209717 1.32317e-06
-5.94362e-06 1.32317e-06 -3.86805e-05
0.00184085 -0.000414416 -9.40156e-07
-0.000414416 0.000242489 -1.38564e-06
-9.40156e-07 -1.38564e-06 1.61297e-05
0.000475741 -0.000122551 -1.76003e-05
-0.000122551 -4.91563e-05 1.59705e-05
-1.76003e-05 1.59705e-05 -0.000140139
0.000862975 -0.000150312 -7.50721e-07
-0.000150312 0.000220243 4.91144e-06
-7.50721e-07 4.91144e-06 2.55917e-05
0.00095853 -1.80005e-05 1.87063e-08
-1.80005e-05 -7.85383e-05 -6.38169e-08
1.87063e-08 -6.38169e-08 -0.00020412
0.00179209 -9.07857e-05 -7.82522e-06
-9.07857e-05 0.000425807 9.26796e-07
-7.82522e-06 9.26796e-07 0.000300487
0.00177383 -8.19891e-05 -6.17723e-07
-8.19891e-05 0.000161639 2.24369e-07
-6.17723e-07 2.24369e-07 4.43985e-05
0.00172565 -0.000193365 -1.60646e-06
-0.000193365 0.000143674 5.53368e-07
-1.60646e-06 5.53368e-07 -3.41536e-06
0.000470103 -0.000156486 4.39399e-07
-0.000156486 -7.52526e-05 1.66909e-07
4.39399e-07 1.66909e-07 -0.000171377
0.000792697 -0.000214098 -2.20334e-07
-0.000214098 4.39619e-05 8.72364e-09
-2.20334e-07 8.72364e-09 -0.000151731
0.00122718 -0.000360774 1.71615e-06
-0.000360774 0.000127092 -6.08429e-07
1.71615e-06 -6.08429e-07 -0.000139283
0.00177422 -0.000286882 -3.10649e-06
-0.000286882 0.000229514 8.48639e-07
-3.10649e-06 8.48639e-07 4.41484e-05
0.0019835 -0.000290055 1.74912e-06
-0.000290055 0.000188019 -5.20374e-07
1.74912e-06 -5.20374e-07 5.00373e-05
0.00198507 -0.00047551 -1.02373e-06
-0.00047551 0.000382925 -3.05794e-07
-1.02373e-06 -3.05794e-07 0.000114589
0.00185246 -0.000379625 5.0834e-07
-0.000379625 0.00019777 -3.36776e-08
5.0834e-07 -3.36776e-08 2.24046e-06
0.00199595 -0.000443179 8.31764e-07
-0.000443179 0.000272727 7.21039e-07
8.31764e-07 7.21039e-07 7.08414e-05
0.000686771 -0.000183903 1.23064e-07
-0.000183903 0.000107476 -2.76595e-07
1.23064e-07 -2.76595e-07 -0.000112705
0.000411905 -0.000151603 -9.44906e-07
-0.000151603 -5.10271e-05 -3.19581e-07
-9.44906e-07 -3.19581e-07 -0.000302598
0.000706162 -9.84112e-05 5.38034e-07
-9.84112e-05 0.000123919 1.01368e-07
5.38034e-07 1.01368e-07 -3.13753e-05
0.00170077 -3.68819e-05 -7.51726e-07
-3.68819e-05 0.000118544 6.95028e-08
-7.51726e-07 6.95028e-08 3.01144e-06
0.00183715 -0.000134377 -1.7236e-06
-0.000134377 0.000199975 1.0497e-06
-1.7236e-06 1.0497e-06 7.4545e-05
0.00183799 -0.000104269 2.26892e-06
-0.000104269 4.05766e-05 3.1264e-07
2.26892e-06 3.1264e-07 -4.23936e-05
0.00186888 -0.00023305 -1.42807e-06
-0.00023305 9.15569e-05 1.28261e-06
-1.42807e-06 1.28261e-06 -2.50001e-05
0.00175141 -0.000337971 -8.40142e-07
-0.000337971 8.76322e-05 2.12886e-06
-8.40142e-07 2.12886e-06 -7.66642e-05
0.00206331 -0.000312831 2.04573e-06
-0.000312831 0.000198038 -3.34897e-07
2.04573e-06 -3.34897e-07 8.51771e-05
0.000655233 -0.000216252 4.79635e-06
-0.000216252 2.55238e-05 -7.00332e-06
4.79635e-06 -7.00332e-06 -0.000178668
0.0018648 -0.000408666 -2.12895e-06
-0.000408666 0.000141835 1.68587e-06
-2.12895e-06 1.68587e-06 -2.88036e-05
0.00130444 -0.000339468 6.63137e-06
-0.000339468 0.00027357 -5.8989e-06
6.63137e-06 -5.8989e-06 1.26722e-05
0.00165391 -0.000509178 4.35545e-06
-0.000509178 0.000282746 6.19485e-07
4.35545e-06 6.19485e-07 -3.48209e-05
0.00207389 -0.00050829 1.56679e-06
-0.00050829 0.000380164 3.49749e-06
1.56679e-06 3.49749e-06 0.000121451
0.00217501 -0.00046751 -2.98779e-06
-0.00046751 0.000381206 2.57056e-06
-2.98779e-06 2.57056e-06 0.000193969
0.000659994 -6.99183e-05 -1.47735e-08
-6.99183e-05 0.00011028 -4.81272e-06
-1.47735e-08 -4.81272e-06 -1.73627e-05
0.00102878 -0.000254843 3.87646e-07
-0.000254843 0.000237334 -1.07318e-06
3.87646e-07 -1.07318e-06 6.0776e-06
0.000281109 -0.000131665 -1.54604e-06
-0.000131665 -6.42232e-05 1.18272e-06
-1.54604e-06 1.18272e-06 -0.000324712
0.00169844 -0.000325796 -4.26518e-06
-0.000325796 0.000673357 1.39619e-06
-4.26518e-06 1.39619e-06 0.000403604
0.00102008 0.000176981 -1.44358e-05
0.000176981 -4.42844e-05 -4.63694e-06
-1.44358e-05 -4.63694e-06 -0.000212172
0.000397149 -5.64936e-05 3.42449e-06
-5.64936e-05 -5.97595e-05 -1.015e-05
3.42449e-06 -1.015e-05 -0.000110081
0.000455396 6.01894e-05 -1.45621e-05
6.01894e-05 -5.40481e-05 -1.34286e-05
-1.45621e-05 -1.34286e-05 -0.000122574
0.000140645 4.72787e-05 -1.12872e-06
4.72787e-05 -0.000218886 -5.70871e-06
-1.12872e-06 -5.70871e-06 -0.000369443
0.000952249 0.000211361 -1.49419e-05
0.000211361 -1.13338e-05 -6.68648e-06
-1.49419e-05 -6.68648e-06 -0.000193874
0.00161972 0.000330141 -4.40085e-06
0.000330141 0.000153036 -5.11997e-07
-4.40085e-06 -5.11997e-07 -6.01669e-05
0.000657776 0.000196197 -6.34307e-06
0.000196197 2.89857e-05 -4.43101e-06
-6.34307e-06 -4.43101e-06 -0.000164074
0.001298 0.000313787 -5.77158e-06
0.000313787 0.000277801 -3.47795e-06
-5.77158e-06 -3.47795e-06 2.55453e-05
0.00147605 0.000360722 -3.71357e-06
0.000360722 0.00022109 -7.00276e-07
-3.71357e-06 -7.00276e-07 -2.48435e-05
0.00133152 0.000423054 2.23503e-06
0.000423054 0.000125544 3.32896e-06
2.23503e-06 3.32896e-06 -0.000151701
0.000458111 -5.44067e-05 -2.63067e-06
-5.44067e-05 -3.37894e-05 7.78323e-07
-2.63067e-06 7.78323e-07 -7.19886e-05
0.000693306 0.000167092 1.34487e-08
0.000167092 0.000116821 -8.28106e-07
1.34487e-08 -8.28106e-07 -8.00831e-05
0.000612404 2.30132e-05 5.83173e-07
2.30132e-05 5.46265e-05 4.41709e-07
5.83173e-07 4.41709e-07 -5.53907e-05
0.000776766 0.000130794 1.6479e-06
0.000130794 0.000207497 -5.33436e-07
1.6479e-06 -5.33436e-07 -2.85296e-05
0.00169191 0.000293854 -6.6756e-07
0.000293854 0.000143956 -7.3312e-07
-6.6756e-07 -7.3312e-07 -4.53624e-05
0.00153461 0.000355015 -3.93544e-08
0.000355015 0.000175869 -1.35599e-07
-3.93544e-08 -1.35599e-07 -5.762e-05
0.0018954 0.000402928 2.96303e-07
0.000402928 0.000218737 2.38843e-07
2.96303e-07 2.38843e-07 8.26267e-06
0.00102972 0.000262984 1.66284e-06
0.000262984 0.000169028 3.18427e-07
1.66284e-06 3.18427e-07 -6.35549e-05
0.00190432 0.000478951 -7.16614e-07
0.000478951 0.000377736 7.8668e-08
-7.16614e-07 7.8668e-08 0.000110546
0.00133999 0.000396456 -2.45609e-07
0.000396456 0.000228877 -1.62566e-06
-2.45609e-07 -1.62566e-06 -7.18357e-05
0.00169902 0.00046508 -3.61873e-06
0.00046508 0.00026031 1.43735e-06
-3.61873e-06 1.43735e-06 -1.26728e-05
0.000502737 -4.32995e-05 3.42097e-07
-4.32995e-05 -2.23059e-05 6.64027e-06
3.42097e-07 6.64027e-06 -5.08406e-05
0.00068128 1.70448e-05 6.27398e-07
1.70448e-05 9.83105e-05 5.2167e-06
6.27398e-07 5.2167e-06 1.06963e-05
0.000773675 0.000219711 2.02949e-06
0.000219711 9.939e-05 6.42601e-07
2.02949e-06 6.42601e-07 -0.000121615
0.00136576 0.000117233 -1.69709e-06
0.000117233 0.000583753 2.84338e-06
-1.69709e-06 2.84338e-06 0.000377714
0.00134774 0.000266973 -2.08125e-06
0.000266973 0.000505577 -1.47843e-06
-2.08125e-06 -1.47843e-06 0.000259562
0.00197693 0.000360627 3.22013e-07
0.000360627 0.000207478 -2.43452e-06
3.22013e-07 -2.43452e-06 2.90473e-05
0.00187725 0.000451681 2.92905e-07
0.000451681 0.000274571 -6.56916e-07
2.92905e-07 -6.56916e-07 3.11539e-05
0.00195694 0.000442395 -1.29603e-06
0.000442395 0.000227139 -7.93127e-07
-1.29603e-06 -7.93127e-07 2.44358e-05
0.00081927 0.000320191 1.98168e-06
0.000320191 -8.45199e-06 1.42733e-06
1.98168e-06 1.42733e-06 -0.000289043
0.00212994 0.000547748 -8.38357e-07
0.000547748 0.000453714 -8.13704e-07
-8.38357e-07 -8.13704e-07 0.000180551
0.00132093 0.000444193 4.36453e-06
0.000444193 0.000156494 -2.95673e-06
4.36453e-06 -2.95673e-06 -0.000149319
0.000593627 2.38039e-05 2.43912e-06
2.38039e-05 4.18346e-05 3.2833e-06
2.43912e-06 3.2833e-06 -2.30965e-05
0.000641137 6.81725e-05 -2.14596e-07
6.81725e-05 0.000105 1.31834e-06
-2.14596e-07 1.31834e-06 -6.51487e-07
0.000594514 3.86078e-05 2.35179e-06
3.86078e-05 4.88918e-05 3.00095e-06
2.35179e-06 3.00095e-06 -1.09869e-05
0.000552355 -1.46581e-06 -5.81406e-07
-1.46581e-06 1.89209e-05 6.76942e-09
-5.81406e-07 6.76942e-09 -4.26024e-05
0.00125493 -4.62275e-05 8.00499e-07
-4.62275e-05 0.000430637 3.2988e-06
8.00499e-07 3.2988e-06 0.000413069
0.000886698 -4.49926e-05 4.90801e-07
-4.49926e-05 0.000206669 -1.55219e-07
4.90801e-07 -1.55219e-07 0.000184647
0.00085221 -5.29799e-05 2.65237e-05
-5.29799e-05 0.000193282 8.3822e-06
2.65237e-05 8.3822e-06 0.000193105
0.00254553 -0.000115069 5.61475e-06
-0.000115069 0.00125431 -5.34469e-07
5.61475e-06 -5.34469e-07 0.00125566
0.00264406 -0.000132199 -3.72968e-05
-0.000132199 0.00132488 -3.38177e-06
-3.72968e-05 -3.38177e-06 0.0013215
0.000363456 -2.32856e-05 4.72553e-06
-2.32856e-05 -9.0391e-05 -8.71528e-06
4.72553e-06 -8.71528e-06 -0.000135482
0.00374129 0.000146857 8.61358e-05
0.000146857 0.00201555 -5.74483e-06
8.61358e-05 -5.74483e-06 0.002005
0.000462883 -5.24741e-05 -1.17259e-06
-5.24741e-05 -3.9387e-05 3.46397e-07
-1.17259e-06 3.46397e-07 -9.76339e-05
0.00447499 0.000137193 -1.05955e-05
0.000137193 0.0024751 -1.17961e-06
-1.05955e-05 -1.17961e-06 0.00246413
0.000540226 -7.79117e-05 -1.43988e-05
-7.79117e-05 -4.43925e-06 1.3415e-05
-1.43988e-05 1.3415e-05 -7.95329e-05
0.00537687 0.000138979 -0.00018366
0.000138979 0.0030311 1.72542e-05
-0.00018366 1.72542e-05 0.00301693
0.00102924 0.000150904 -1.30981e-05
0.000150904 -5.61752e-05 -3.4315e-06
-1.30981e-05 -3.4315e-06 -0.000214178
0.00101403 8.95613e-05 -1.19748e-05
8.95613e-05 -6.67284e-05 -1.73688e-06
-1.19748e-05 -1.73688e-06 -0.000204716
0.00171907 0.000190971 -2.04008e-06
0.000190971 0.000102505 5.45159e-07
-2.04008e-06 5.45159e-07 -4.24332e-05
0.00163245 8.36707e-05 5.42406e-08
8.36707e-05 5.87363e-05 4.02901e-07
5.42406e-08 4.02901e-07 -5.8745e-05
0.00100281 3.10463e-05 -1.20666e-05
3.10463e-05 -5.9409e-05 -4.91557e-07
-1.20666e-05 -4.91557e-07 -0.000186615
0.000478245 2.90598e-05 -1.93357e-05
2.90598e-05 -0.000169575 -5.21465e-07
-1.93357e-05 -5.21465e-07 -0.000242373
0.0010024 5.90225e-07 -2.65679e-08
5.90225e-07 -5.14045e-05 -1.04156e-07
-2.65679e-08 -1.04156e-07 -0.000177434
0.0016255 4.1625e-05 -8.18705e-08
4.1625e-05 5.88573e-05 9.9862e-08
-8.18705e-08 9.9862e-08 -5.31615e-05
0.00168498 0.000135104 -6.57699e-08
0.000135104 8.15509e-05 1.7067e-07
-6.57699e-08 1.7067e-07 -4.62892e-05
0.00190589 0.000111142 -1.43005e-07
0.000111142 6.41509e-05 2.70793e-07
-1.43005e-07 2.70793e-07 -6.06857e-06
0.00172535 0.000248743 -3.63478e-07
0.000248743 0.000124315 -8.59218e-08
-3.63478e-07 -8.59218e-08 -4.18763e-05
0.00194868 0.000235068 -5.38919e-07
0.000235068 0.000122421 5.6131e-09
-5.38919e-07 5.6131e-09 6.3359e-06
0.00159678 -1.82042e-07 1.31829e-07
-1.82042e-07 4.58533e-05 6.55234e-08
1.31829e-07 6.55234e-08 -6.49248e-05
0.00192098 5.66199e-05 5.32661e-07
5.66199e-05 7.97079e-05 6.96098e-08
5.32661e-07 6.96098e-08 2.15204e-05
0.00193556 0.000173109 1.5589e-06
0.000173109 8.85077e-05 -7.64218e-07
1.5589e-06 -7.64218e-07 -2.84315e-06
0.00192992 0.000111951 6.68786e-06
0.000111951 2.81311e-05 6.60216e-07
6.68786e-06 6.60216e-07 -1.33921e-05
0.00200571 0.00030563 6.46443e-07
0.00030563 0.000189581 -1.58117e-06
6.46443e-07 -1.58117e-06 4.29581e-05
0.00189138 0.000252671 2.0428e-06
0.000252671 1.90595e-05 4.89061e-07
2.0428e-06 4.89061e-07 -6.95731e-05
0.00090243 -1.40906e-05 -1.22403e-05
-1.40906e-05 -0.00011482 6.25002e-07
-1.22403e-05 6.25002e-07 -0.000239173
0.00181175 -9.21612e-05 -2.61169e-05
-9.21612e-05 0.000436244 2.95837e-06
-2.61169e-05 2.95837e-06 0.000311034
0.0018575 -7.68866e-05 -2.66887e-06
-7.68866e-05 0.000211178 -1.77259e-07
-2.66887e-06 -1.77259e-07 9.8786e-05
0.00175056 -0.000193302 -3.01448e-06
-0.000193302 0.00016305 6.98794e-07
-3.01448e-06 6.98794e-07 1.19949e-05
0.000560109 -0.000173319 -2.28943e-05
-0.000173319 -1.91921e-05 1.76689e-05
-2.28943e-05 1.76689e-05 -0.000119285
0.00083313 -0.000216521 -1.04003e-05
-0.000216521 7.24627e-05 8.01596e-06
-1.04003e-05 8.01596e-06 -0.000124367
0.00120716 -0.000359146 -4.51323e-06
-0.000359146 0.000114923 2.3785e-06
-4.51323e-06 2.3785e-06 -0.000151649
0.00180341 -0.000286275 -6.25251e-06
-0.000286275 0.000247686 1.60634e-06
-6.25251e-06 1.60634e-06 6.04636e-05
0.00202918 -0.000294281 7.04483e-07
-0.000294281 0.000209627 -1.41698e-06
7.04483e-07 -1.41698e-06 7.64688e-05
0.00188171 -0.00038145 -4.72599e-07
-0.00038145 0.000215526 -1.11635e-06
-4.72599e-07 -1.11635e-06 1.99456e-05
0.0020117 -0.000481744 -3.07471e-06
-0.000481744 0.000399521 -2.13822e-06
-3.07471e-06 -2.13822e-06 0.000131481
0.00187244 -0.000435824 3.71345e-06
-0.000435824 0.000191071 -2.56988e-06
3.71345e-06 -2.56988e-06 -9.99446e-06
0.000776758 -0.000174831 -3.18202e-06
-0.000174831 0.000148172 6.03454e-06
-3.18202e-06 6.03454e-06 -6.15363e-05
8.78268e-05 -0.000116781 9.42553e-07
-0.000116781 -0.000248492 -8.15583e-07
9.42553e-07 -8.15583e-07 -0.000498071
0.000784491 -0.000117924 -6.36556e-07
-0.000117924 0.000171266 4.57497e-06
-6.36556e-07 4.57497e-06 1.18263e-05
0.0016815 -3.39556e-05 -9.16952e-07
-3.39556e-05 0.000104847 1.20047e-07
-9.16952e-07 1.20047e-07 -9.08419e-06
0.00181444 -0.00014197 -2.9157e-06
-0.00014197 0.000184292 4.94944e-07
-2.9157e-06 4.94944e-07 5.74829e-05
0.0018899 -0.000102728 2.73657e-06
-0.000102728 7.06759e-05 -3.2224e-07
2.73657e-06 -3.2224e-07 -6.4026e-06
0.00188471 -0.000228975 -1.95295e-06
-0.000228975 0.00010201 5.89704e-07
-1.95295e-06 5.89704e-07 -1.6504e-05
0.00076895 -0.000221945 5.65607e-07
-0.000221945 9.68241e-05 -4.96449e-07
5.65607e-07 -4.96449e-07 -0.000109363
0.00116286 -0.000330651 -1.62492e-06
-0.000330651 0.000176175 -3.0778e-07
-1.62492e-06 -3.0778e-07 -8.3625e-05
0.00160989 -0.00049865 1.81688e-06
-0.00049865 0.000270731 1.61633e-07
1.81688e-06 1.61633e-07 -4.57425e-05
0.00177042 -0.000337402 -1.41796e-06
-0.000337402 0.000102994 9.28319e-07
-1.41796e-06 9.28319e-07 -6.62845e-05
0.00199086 -0.000310264 1.65208e-06
-0.000310264 0.000147214 -5.31377e-07
1.65208e-06 -5.31377e-07 3.78736e-05
0.00195651 -0.000506949 -5.81893e-07
-0.000506949 0.000300863 4.50772e-07
-5.81893e-07 4.50772e-07 3.9886e-05
0.00189593 -0.000409122 -7.26271e-09
-0.000409122 0.000163275 5.12161e-07
-7.26271e-09 5.12161e-07 -7.41051e-06
0.00212431 -0.000456352 1.89379e-06
-0.000456352 0.000342084 -5.48008e-07
1.89379e-06 -5.48008e-07 0.000160306
0.00108488 -0.000264375 -1.69105e-07
-0.000264375 0.000276226 3.12115e-07
-1.69105e-07 3.12115e-07 3.72253e-05
0.00115028 -0.000282792 -8.24601e-07
-0.000282792 0.000344169 4.18665e-08
-8.24601e-07 4.18665e-08 7.41317e-05
0.000637875 -8.35109e-05 -1.33395e-07
-8.35109e-05 9.3224e-05 5.83748e-08
-1.33395e-07 5.83748e-08 -3.66278e-05
0.000149275 -7.54852e-05 1.62902e-07
-7.54852e-05 -0.000165377 -1.38404e-06
1.62902e-07 -1.38404e-06 -0.000402878
0.00190314 -5.38432e-05 1.25133e-06
-5.38432e-05 7.84152e-05 2.91463e-07
1.25133e-06 2.91463e-07 1.1868e-05
0.00178296 -0.000167025 1.35576e-06
-0.000167025 1.21241e-05 2.51036e-07
1.35576e-06 2.51036e-07 -8.66299e-05
0.00191006 -0.000105897 6.30266e-06
-0.000105897 4.17159e-05 -5.71034e-07
6.30266e-06 -5.71034e-07 -1.10676e-06
0.00193668 -0.000254632 -7.54226e-07
-0.000254632 6.25445e-05 -3.69044e-07
-7.54226e-07 -3.69044e-07 -1.24871e-05
0.00176437 -0.000359958 -2.75576e-06
-0.000359958 4.31124e-05 1.17069e-06
-2.75576e-06 1.17069e-06 -9.60223e-05
0.00202782 -0.000323161 4.18022e-06
-0.000323161 0.000144951 -1.76677e-06
4.18022e-06 -1.76677e-06 5.50511e-05
0.00129673 -0.00031234 3.69683e-06
-0.00031234 0.000327684 -4.03026e-06
3.69683e-06 -4.03026e-06 8.51317e-05
0.0018309 -0.000422681 -4.11385e-06
-0.000422681 0.000113568 7.29251e-07
-4.11385e-06 7.29251e-07 -3.70019e-05
0.00151491 -0.000478476 2.68432e-06
-0.000478476 0.000340977 -1.43698e-06
2.68432e-06 -1.43698e-06 1.16175e-05
0.00182212 -0.00057177 -1.72266e-07
-0.00057177 0.000333523 1.73516e-06
-1.72266e-07 1.73516e-06 1.63119e-06
0.00190858 -0.000515637 1.22411e-06
-0.000515637 0.000224248 4.0756e-06
1.22411e-06 4.0756e-06 -2.88427e-05
0.00221736 -0.000469838 -2.72699e-06
-0.000469838 0.000379957 -1.18088e-06
-2.72699e-06 -1.18088e-06 0.000195824
0.000523017 -6.56223e-05 -4.846e-07
-6.56223e-05 2.693e-05 -4.61047e-06
-4.846e-07 -4.61047e-06 -8.11481e-05
0.000359365 -9.5315e-05 -3.50509e-06
-9.5315e-05 -2.00452e-05 -8.57518e-07
-3.50509e-06 -8.57518e-07 -0.00023198
0.00137387 -0.000340197 -7.88813e-07
-0.000340197 0.000392476 2.06909e-07
-7.88813e-07 2.06909e-07 0.000132954
0.000998094 -0.000209047 -2.91802e-06
-0.000209047 0.000347044 3.2124e-06
-2.91802e-06 3.2124e-06 8.12332e-05
0.00205789 -0.00040529 -8.71033e-06
-0.00040529 0.000875119 1.7654e-06
-8.71033e-06 1.7654e-06 0.000575541
0.000374713 -5.7942e-05 -3.50884e-07
-5.7942e-05 -8.25285e-05 -7.27616e-06
-3.50884e-07 -7.27616e-06 -0.000121166
0.00167308 0.000292306 -3.75799e-06
0.000292306 0.000133109 -6.5648e-07
-3.75799e-06 -6.5648e-07 -5.64167e-05
0.000455895 6.06778e-08 6.69941e-07
6.06778e-08 -3.51333e-05 -5.86839e-06
6.69941e-07 -5.86839e-06 -0.000142823
0.000522957 0.000169037 -4.27033e-06
0.000169037 2.68644e-06 -3.20526e-06
-4.27033e-06 -3.20526e-06 -0.000188296
0.000514994 0.000121834 2.02826e-06
0.000121834 4.71885e-05 5.47499e-07
2.02826e-06 5.47499e-07 -0.000186731
0.00151974 0.000354979 -4.71719e-06
0.000354979 0.000165884 -9.12212e-07
-4.71719e-06 -9.12212e-07 -6.83014e-05
0.00186599 0.000400142 2.42218e-07
0.000400142 0.000202781 1.24777e-06
2.42218e-07 1.24777e-06 -7.35419e-06
0.00113091 0.000281822 -4.67335e-06
0.000281822 0.000235282 -3.14482e-06
-4.67335e-06 -3.14482e-06 -2.38973e-06
0.00144875 0.000416204 6.68922e-07
0.000416204 0.0002856 -1.36476e-07
6.68922e-07 -1.36476e-07 -2.18227e-05
0.00179999 0.000462145 4.93553e-07
0.000462145 0.000319196 1.76259e-06
4.93553e-07 1.76259e-06 5.41154e-05
0.0017927 0.000470419 1.27158e-06
0.000470419 0.000318968 7.21183e-06
1.27158e-06 7.21183e-06 4.88848e-05
0.000490748 -3.77294e-05 8.31637e-08
-3.77294e-05 -3.12093e-05 7.53444e-08
8.31637e-08 7.53444e-08 -5.85165e-05
0.00060606 5.95443e-06 -6.02283e-07
5.95443e-06 5.64294e-05 4.87251e-07
-6.02283e-07 4.87251e-07 -3.10268e-05
0.00100303 0.00024619 6.41081e-07
0.00024619 0.000243625 6.28802e-07
6.41081e-07 6.28802e-07 1.75187e-05
0.000682552 6.36338e-05 -8.01041e-07
6.36338e-05 0.000157648 -2.96957e-07
-8.01041e-07 -2.96957e-07 -3.49072e-05
0.000662501 0.000185223 7.99085e-07
0.000185223 6.41448e-05 -1.23526e-07
7.99085e-07 -1.23526e-07 -0.000156953
0.00195124 0.000359941 -1.03847e-06
0.000359941 0.00019122 -1.41779e-06
-1.03847e-06 -1.41779e-06 1.26008e-05
0.00183843 0.000448727 5.64121e-07
0.000448727 0.000250936 1.64436e-07
5.64121e-07 1.64436e-07 7.85077e-06
0.00189362 0.000439383 1.62636e-06
0.000439383 0.000191087 2.743e-07
1.62636e-06 2.743e-07 -1.18225e-05
0.00133317 0.00037025 1.36106e-06
0.00037025 0.000315084 7.67604e-07
1.36106e-06 7.67604e-07 2.42665e-05
0.00198322 0.000532256 1.74214e-06
0.000532256 0.000349768 1.18032e-07
1.74214e-06 1.18032e-07 7.7804e-05
0.0016765 0.000477363 -2.36072e-06
0.000477363 0.000372842 -2.13954e-07
-2.36072e-06 -2.13954e-07 6.21131e-05
0.000675367 1.8522e-05 1.16657e-06
1.8522e-05 9.2586e-05 3.84264e-06
1.16657e-06 3.84264e-06 1.97502e-05
0.00118362 0.000129158 3.59458e-07
0.000129158 0.000451332 3.00573e-06
3.59458e-07 3.00573e-06 0.000302424
0.000879093 0.000280324 -2.02517e-06
0.000280324 9.12906e-05 -9.31669e-07
-2.02517e-06 -9.31669e-07 -0.00014596
0.0015492 0.000152618 -1.73233e-06
0.000152618 0.000699925 9.00138e-07
-1.73233e-06 9.00138e-07 0.000466576
0.00138096 0.000231873 -8.96328e-06
0.000231873 0.000441155 -5.33871e-06
-8.96328e-06 -5.33871e-06 0.000238414
0.00195044 0.000374915 -3.9159e-06
0.000374915 0.000166804 -2.80523e-06
-3.9159e-06 -2.80523e-06 5.53876e-06
0.0019504 0.000501175 -5.30217e-07
0.000501175 0.000275317 -1.2134e-07
-5.30217e-07 -1.2134e-07 3.25549e-05
0.00173035 0.000473527 4.73367e-06
0.000473527 5.61491e-05 -2.52727e-07
4.73367e-06 -2.52727e-07 -0.000148093
0.000645218 0.000353882 1.62724e-06
0.000353882 -7.84316e-05 -1.94132e-06
1.62724e-06 -1.94132e-06 -0.000391188
0.00144331 0.000493434 8.08342e-06
0.000493434 0.000134283 -7.03303e-07
8.08342e-06 -7.03303e-07 -0.000155151
0.000581919 1.68016e-05 -2.45077e-07
1.68016e-05 3.2943e-05 1.06946e-07
-2.45077e-07 1.06946e-07 -3.08986e-05
0.000470493 4.53323e-05 6.82779e-07
4.53323e-05 -1.22063e-05 1.92379e-06
6.82779e-07 1.92379e-06 -0.000111764
0.000465068 3.99714e-05 -6.23626e-07
3.99714e-05 -1.58017e-05 -2.17383e-07
-6.23626e-07 -2.17383e-07 -0.000110616
0.000938088 0.000126332 -8.33903e-07
0.000126332 0.000289574 -1.40758e-06
-8.33903e-07 -1.40758e-06 0.000168757
0.000665344 9.69487e-05 1.88164e-06
9.69487e-05 0.000121529 1.85465e-06
1.88164e-06 1.85465e-06 1.82005e-05
0.000554374 4.97852e-05 2.64971e-06
4.97852e-05 3.06204e-05 3.03862e-06
2.64971e-06 3.03862e-06 -2.96716e-05
0.000551524 5.30085e-06 -6.33365e-07
5.30085e-06 2.27715e-05 -1.3354e-08
-6.33365e-07 -1.3354e-08 -3.6926e-05
0.00123979 -3.17033e-05 7.72488e-07
-3.17033e-05 0.000419067 2.97285e-06
7.72488e-07 2.97285e-06 0.000404033
0.00056473 8.06084e-06 -1.52591e-06
8.06084e-06 2.2782e-05 -3.12071e-06
-1.52591e-06 -3.12071e-06 -3.62875e-05
0.00130061 -4.22189e-05 -6.69916e-06
-4.22189e-05 0.000458435 -1.47917e-06
-6.69916e-06 -1.47917e-06 0.000441779
0.00082774 -3.98799e-05 2.77254e-05
-3.98799e-05 0.000170254 8.26729e-06
2.77254e-05 8.26729e-06 0.000173983
0.00131986 -5.14135e-05 -1.10872e-05
-5.14135e-05 0.000475428 -4.63791e-06
-1.10872e-05 -4.63791e-06 0.000456051
0.00163738 -7.41574e-05 2.58409e-05
-7.41574e-05 0.00068156 1.6558e-06
2.58409e-05 1.6558e-06 0.000684295
0.00248849 -0.0001112 -3.30123e-05
-0.0001112 0.00121765 -3.83942e-06
-3.30123e-05 -3.83942e-06 0.00121988
0.000334546 7.86925e-05 -5.10102e-06
7.86925e-05 -8.65763e-05 -7.14714e-06
-5.10102e-06 -7.14714e-06 -0.000132829
0.000474303 -9.75819e-06 4.96423e-07
-9.75819e-06 -1.82493e-05 5.51467e-07
4.96423e-07 5.51467e-07 -6.80903e-05
0.00312829 0.000160474 1.74871e-05
0.000160474 0.00163458 -5.29616e-06
1.74871e-05 -5.29616e-06 0.00162077
0.00389244 0.000119511 -1.09853e-05
0.000119511 0.00210617 -8.46562e-07
-1.09853e-05 -8.46562e-07 0.00210188
0.000656596 -5.50944e-05 -1.05697e-05
-5.50944e-05 7.62417e-05 1.13996e-05
-1.05697e-05 1.13996e-05 1.68563e-05
0.0047102 0.000115605 -0.000159793
0.000115605 0.00261323 1.41435e-05
-0.000159793 1.41435e-05 0.00260684
0.00169897 0.000246662 -2.76394e-06
0.000246662 0.000111296 3.13548e-07
-2.76394e-06 3.13548e-07 -5.49846e-05
0.00167249 0.000135522 -5.82844e-07
0.000135522 7.3523e-05 6.28158e-07
-5.82844e-07 6.28158e-07 -5.48688e-05
0.00190654 0.000232928 -1.63507e-06
0.000232928 9.86206e-05 1.6626e-06
-1.63507e-06 1.6626e-06 -1.74138e-05
0.00193757 0.000109671 -1.35529e-06
0.000109671 7.91642e-05 8.37923e-07
-1.35529e-06 8.37923e-07 1.23671e-05
0.00162223 4.36804e-05 -5.93781e-09
4.36804e-05 6.03544e-05 2.57964e-07
-5.93781e-09 2.57964e-07 -5.17903e-05
0.00100984 5.3674e-06 -1.18639e-05
5.3674e-06 -4.7674e-05 -1.05085e-07
-1.18639e-05 -1.05085e-07 -0.000173658
0.00161349 3.39684e-06 5.49028e-08
3.39684e-06 5.83865e-05 1.4247e-07
5.49028e-08 1.4247e-07 -5.23747e-05
0.00190001 4.78727e-05 -1.00281e-06
4.78727e-05 6.7241e-05 -7.58968e-10
-1.00281e-06 -7.58968e-10 8.86441e-06
0.00192323 0.000170488 -5.74635e-07
0.000170488 8.42827e-05 2.2264e-07
-5.74635e-07 2.2264e-07 -6.64912e-06
0.00193473 0.000110398 1.16725e-06
0.000110398 2.55638e-05 2.42061e-07
1.16725e-06 2.42061e-07 -1.0996e-05
0.0019691 0.000305866 -3.80539e-07
0.000305866 0.000160782 -1.72318e-07
-3.80539e-07 -1.72318e-07 1.36716e-05
0.00191396 0.000248868 -8.9225e-08
0.000248868 3.19782e-05 5.59966e-07
-8.9225e-08 5.59966e-07 -5.18331e-05
0.00193746 -4.28587e-06 1.23781e-06
-4.28587e-06 9.71135e-05 2.01186e-07
1.23781e-06 2.01186e-07 3.84435e-05
0.00190023 4.96812e-05 6.45061e-06
4.96812e-05 1.90741e-05 1.52198e-07
6.45061e-06 1.52198e-07 -1.05711e-05
0.00191178 0.000174872 2.94942e-06
0.000174872 1.05076e-05 2.92766e-07
2.94942e-06 2.92766e-07 -4.08486e-05
0.00199929 0.000110099 5.10824e-06
0.000110099 3.98407e-05 6.14324e-07
5.10824e-06 6.14324e-07 2.4489e-05
0.00188735 0.000300875 9.4545e-07
0.000300875 7.18069e-05 -1.39996e-06
9.4545e-07 -1.39996e-06 -4.93646e-05
0.00207715 0.0002567 3.83662e-06
0.0002567 8.73567e-05 1.29028e-06
3.83662e-06 1.29028e-06 2.67689e-05
0.00165789 -3.1058e-05 -1.37471e-06
-3.1058e-05 8.95749e-05 -7.64319e-08
-1.37471e-06 -7.64319e-08 -2.27181e-05
0.00181206 -0.000147682 -4.06395e-06
-0.000147682 0.000180699 1.86288e-07
-4.06395e-06 1.86288e-07 5.28455e-05
0.00194431 -0.000102465 9.34609e-07
-0.000102465 0.000102863 -1.22378e-06
9.34609e-07 -1.22378e-06 3.16475e-05
0.00189294 -0.000225352 -1.47148e-06
-0.000225352 0.000108336 -3.69301e-08
-1.47148e-06 -3.69301e-08 -1.22448e-05
0.000820144 -0.000229289 -7.6297e-06
-0.000229289 0.000130004 7.59985e-06
-7.6297e-06 7.59985e-06 -7.85594e-05
0.00111216 -0.00033022 -7.08811e-06
-0.00033022 0.000135896 4.11797e-06
-7.08811e-06 4.11797e-06 -0.000124377
0.00148098 -0.000479158 1.04642e-06
-0.000479158 0.000207825 -1.93211e-07
1.04642e-06 -1.93211e-07 -0.000106385
0.00178614 -0.000336773 -9.79023e-07
-0.000336773 0.000116193 2.59295e-08
-9.79023e-07 2.59295e-08 -5.80819e-05
0.00192531 -0.000307591 8.25262e-07
-0.000307591 0.000101011 -5.22887e-07
8.25262e-07 -5.22887e-07 -4.61414e-06
0.00192148 -0.000409174 2.15659e-06
-0.000409174 0.000181796 -6.17861e-07
2.15659e-06 -6.17861e-07 1.10945e-05
0.00187472 -0.000510178 -4.30284e-07
-0.000510178 0.000242137 -2.35901e-06
-4.30284e-07 -2.35901e-06 -2.21737e-05
0.00206222 -0.000447036 6.79127e-06
-0.000447036 0.000299431 -5.07449e-06
6.79127e-06 -5.07449e-06 0.000122336
0.000759902 -0.000233508 -8.37635e-07
-0.000233508 8.11416e-05 1.50759e-06
-8.37635e-07 1.50759e-06 -0.000156225
-1.13402e-05 -0.000157297 5.62597e-07
-0.000157297 -0.000377542 1.30251e-06
5.62597e-07 1.30251e-06 -0.000628277
0.000754271 -9.58782e-05 -7.00771e-07
-9.58782e-05 0.000160397 4.08813e-06
-7.00771e-07 4.08813e-06 2.79801e-05
0.000106857 -4.65855e-05 3.04653e-06
-4.65855e-05 -0.000206795 -2.96953e-06
3.04653e-06 -2.96953e-06 -0.000424237
0.0018889 -5.33143e-05 5.40645e-08
-5.33143e-05 7.07378e-05 2.29627e-07
5.40645e-08 2.29627e-07 4.05823e-06
0.0018489 -0.000168516 1.96641e-06
-0.000168516 5.72626e-05 -7.11269e-07
1.96641e-06 -7.11269e-07 -4.2667e-05
0.00193587 -0.000106821 1.69132e-06
-0.000106821 5.65772e-05 -5.22432e-07
1.69132e-06 -5.22432e-07 1.48459e-05
0.00191414 -0.000251255 -1.85105e-06
-0.000251255 5.52539e-05 3.56354e-07
-1.85105e-06 3.56354e-07 -2.33814e-05
0.00104267 -0.000281544 -1.38242e-06
-0.000281544 0.000169154 6.93323e-07
-1.38242e-06 6.93323e-07 -6.73296e-05
0.00133508 -0.000451502 2.30263e-06
-0.000451502 0.00024275 -1.03032e-06
2.30263e-06 -1.03032e-06 -8.01083e-05
0.00175636 -0.00057292 -1.55811e-07
-0.00057292 0.000287917 3.87792e-07
-1.55811e-07 3.87792e-07 -4.78051e-05
0.00180222 -0.00035952 -1.48391e-06
-0.00035952 7.57997e-05 7.96403e-07
-1.48391e-06 7.96403e-07 -6.68422e-05
0.00196382 -0.000322256 1.2732e-06
-0.000322256 0.000108885 -6.72496e-07
1.2732e-06 -6.72496e-07 2.05134e-05
0.00189468 -0.000518473 -4.78597e-08
-0.000518473 0.000231614 4.7855e-07
-4.78597e-08 4.7855e-07 -2.36812e-05
0.00181516 -0.000423263 -8.89647e-07
-0.000423263 9.4294e-05 1.12053e-06
-8.89647e-07 1.12053e-06 -5.70848e-05
0.00207888 -0.00045625 4.07997e-06
-0.00045625 0.000290056 -5.54557e-06
4.07997e-06 -5.54557e-06 0.000112636
0.00110341 -0.000312314 4.2324e-07
-0.000312314 0.000223372 1.27364e-06
4.2324e-07 1.27364e-06 -3.0708e-05
0.00144467 -0.000337774 3.71556e-06
-0.000337774 0.00048834 1.12798e-06
3.71556e-06 1.12798e-06 0.000204801
0.000885032 -0.000185483 -1.48691e-07
-0.000185483 0.000275805 -4.41768e-08
-1.48691e-07 -4.41768e-08 9.56961e-06
0.000382275 -3.89944e-05 -2.15147e-06
-3.89944e-05 -6.11185e-05 5.61317e-07
-2.15147e-06 5.61317e-07 -0.000169385
0.000164344 -4.64402e-05 -4.30965e-07
-4.64402e-05 -0.000148717 -6.69177e-07
-4.30965e-07 -6.69177e-07 -0.000347142
0.00190128 -5.80972e-05 5.61811e-06
-5.80972e-05 1.95806e-05 -6.24199e-08
5.61811e-06 -6.24199e-08 -6.15525e-06
0.00193016 -0.000158039 4.75e-06
-0.000158039 4.13641e-05 -9.60732e-07
4.75e-06 -9.60732e-07 -1.29153e-06
0.00197545 -0.000297394 2.11149e-06
-0.000297394 3.39346e-05 -1.12771e-06
2.11149e-06 -1.12771e-06 -1.9023e-05
0.00190334 -0.000367063 6.90583e-07
-0.000367063 9.16011e-05 -1.93228e-06
6.90583e-07 -1.93228e-06 -1.2023e-05
0.00161956 -0.000405238 4.37428e-08
-0.000405238 0.000507066 -3.88626e-06
4.37428e-08 -3.88626e-06 0.000212689
0.00212113 -0.000508204 -1.01178e-06
-0.000508204 0.000201004 -2.86164e-06
-1.01178e-06 -2.86164e-06 3.60292e-05
0.00125251 -0.000527663 -1.74596e-06
-0.000527663 0.000163535 1.21324e-06
-1.74596e-06 1.21324e-06 -0.000197687
0.00191691 -0.000637345 1.36367e-06
-0.000637345 0.000339751 2.16816e-07
1.36367e-06 2.16816e-07 -1.13784e-05
0.00187319 -0.000503154 -3.76539e-06
-0.000503154 0.000203787 2.35279e-06
-3.76539e-06 2.35279e-06 -4.23299e-05
6.10712e-05 -4.4292e-06 -1.33575e-06
-4.4292e-06 -0.000255299 -4.46759e-06
-1.33575e-06 -4.46759e-06 -0.000342304
0.000696763 -9.89937e-05 -1.63632e-06
-9.89937e-05 0.000187146 5.04906e-07
-1.63632e-06 5.04906e-07 1.03243e-05
0.00104387 -0.000136859 -2.42735e-06
-0.000136859 0.00039253 -1.78153e-06
-2.42735e-06 -1.78153e-06 0.000161765
0.00197858 -0.000432467 -8.35908e-06
-0.000432467 0.000745307 -2.60889e-07
-8.35908e-06 -2.60889e-07 0.000446533
0.000571711 -0.000166924 1.29055e-06
-0.000166924 4.35099e-05 4.76567e-06
1.29055e-06 4.76567e-06 -0.000235749
0.00138852 -0.000365323 -3.06878e-06
-0.000365323 0.000414646 3.77507e-06
-3.06878e-06 3.77507e-06 0.000112532
0.000478007 -4.15663e-05 -7.69675e-07
-4.15663e-05 -3.84405e-05 -6.08328e-06
-7.69675e-07 -6.08328e-06 -6.60218e-05
0.000554982 9.77901e-07 -6.92131e-07
9.77901e-07 2.92814e-05 -4.73223e-06
-6.92131e-07 -4.73223e-06 -5.82066e-05
0.00192531 0.000359235 -2.16201e-06
0.000359235 0.000174848 -3.15824e-07
-2.16201e-06 -3.15824e-07 -3.9578e-06
-0.000114723 -3.18043e-05 1.79835e-06
-3.18043e-05 -0.000328341 -2.67413e-06
1.79835e-06 -2.67413e-06 -0.000512301
0.00106054 0.000251132 -2.04316e-06
0.000251132 0.000283485 -2.1612e-07
-2.04316e-06 -2.1612e-07 5.88922e-05
5.38834e-05 0.000111743 3.29022e-06
0.000111743 -0.000326948 4.74597e-07
3.29022e-06 4.74597e-07 -0.000526979
0.00179993 0.000445419 6.38672e-07
0.000445419 0.000228508 9.60011e-07
6.38672e-07 9.60011e-07 -1.41252e-05
0.00182841 0.000435798 1.79194e-06
0.000435798 0.000155293 7.94218e-07
1.79194e-06 7.94218e-07 -4.76767e-05
0.00164436 0.000397132 4.89104e-07
0.000397132 0.000518821 1.64605e-07
4.89104e-07 1.64605e-07 0.000221812
0.0021458 0.000519037 -1.97494e-06
0.000519037 0.000658327 1.19639e-06
-1.97494e-06 1.19639e-06 0.000344037
0.0018258 0.000515855 -3.55795e-07
0.000515855 0.000239303 1.4445e-06
-3.55795e-07 1.4445e-06 -3.13383e-05
0.000586051 1.8937e-05 -4.38003e-07
1.8937e-05 3.95464e-05 4.80715e-07
-4.38003e-07 4.80715e-07 -3.29055e-05
0.000728848 4.76717e-05 -9.37688e-07
4.76717e-05 0.000168373 3.89752e-07
-9.37688e-07 3.89752e-07 3.22321e-05
0.00116067 0.000309347 6.67887e-09
0.000309347 0.000264497 1.63855e-07
6.67887e-09 1.63855e-07 2.14279e-05
0.000904169 9.87476e-05 5.08676e-07
9.87476e-05 0.000295396 6.21172e-07
5.08676e-07 6.21172e-07 7.52405e-05
0.000817014 0.000220454 4.53265e-06
0.000220454 0.000116051 7.04239e-07
4.53265e-06 7.04239e-07 -9.03453e-05
0.00190392 0.000375235 -2.28945e-06
0.000375235 0.000140459 -1.68116e-06
-2.28945e-06 -1.68116e-06 -2.16827e-05
0.00193444 0.000498584 1.75747e-06
0.000498584 0.000265815 5.85181e-07
1.75747e-06 5.85181e-07 2.34015e-05
0.00181928 0.000473694 3.81339e-07
0.000473694 0.000110799 -1.73608e-07
3.81339e-07 -1.73608e-07 -9.21891e-05
0.00114741 0.000418203 2.53136e-06
0.000418203 0.000208923 2.492e-06
2.53136e-06 2.492e-06 -0.000112613
0.00169627 0.000520371 -2.70578e-06
0.000520371 0.000298663 -1.88191e-06
-2.70578e-06 -1.88191e-06 1.70374e-06
0.000861785 6.96072e-05 1.28249e-07
6.96072e-05 0.000242392 2.43856e-06
1.28249e-07 2.43856e-06 0.000125748
0.000107768 3.90194e-06 -2.2802e-06
3.90194e-06 -0.000180468 1.76238e-06
-2.2802e-06 1.76238e-06 -0.00035018
0.00113542 0.000335793 -4.63495e-06
0.000335793 0.00021602 -3.92774e-06
-4.63495e-06 -3.92774e-06 -4.22757e-05
0.00044338 0.000186771 -7.80226e-06
0.000186771 1.72453e-05 -2.73195e-06
-7.80226e-06 -2.73195e-06 -0.000211327
0.0010702 0.000287484 -3.75436e-06
0.000287484 0.00021655 -3.79708e-06
-3.75436e-06 -3.79708e-06 3.77812e-06
0.00185912 0.000406906 -1.35639e-07
0.000406906 4.27294e-05 -1.39704e-06
-1.35639e-07 -1.39704e-06 -0.00010218
0.00203618 0.000551941 4.36899e-06
0.000551941 0.000303765 -1.66992e-06
4.36899e-06 -1.66992e-06 4.19815e-05
0.00173282 0.000493709 3.59105e-06
0.000493709 4.63953e-05 6.56211e-07
3.59105e-06 6.56211e-07 -0.00016841
0.00102344 0.000422885 4.61211e-06
0.000422885 9.74965e-05 3.36351e-06
4.61211e-06 3.36351e-06 -0.000228379
0.00190559 0.000582106 -2.00297e-06
0.000582106 0.000427568 -8.27032e-07
-2.00297e-06 -8.27032e-07 0.000111157
0.000551229 7.90933e-06 -1.64858e-06
7.90933e-06 1.34281e-05 -3.36503e-06
-1.64858e-06 -3.36503e-06 -4.98097e-05
0.000559308 5.14027e-05 1.23703e-06
5.14027e-05 4.4297e-05 4.11723e-07
1.23703e-06 4.11723e-07 -5.639e-05
0.000411073 3.76552e-05 -6.9302e-07
3.76552e-05 -5.44601e-05 7.87161e-07
-6.9302e-07 7.87161e-07 -0.00015321
0.000310634 -2.1203e-05 -3.32305e-07
-2.1203e-05 -0.000106055 -1.86592e-06
-3.32305e-07 -1.86592e-06 -0.000201791
0.000616174 5.34276e-05 -3.22341e-07
5.34276e-05 9.08804e-05 2.11568e-08
-3.22341e-07 2.11568e-08 -1.04741e-05
0.000629411 7.64184e-05 -7.4398e-07
7.64184e-05 8.81755e-05 -1.6689e-07
-7.4398e-07 -1.6689e-07 -1.84632e-05
0.000753168 0.000111861 -3.08224e-06
0.000111861 0.000176655 -3.87543e-06
-3.08224e-06 -3.87543e-06 6.47811e-05
0.000367085 3.51844e-06 1.94724e-07
3.51844e-06 -5.35162e-05 -5.03294e-07
1.94724e-07 -5.03294e-07 -0.000172402
0.000673482 8.47381e-05 9.78171e-07
8.47381e-05 0.000120467 2.29803e-06
9.78171e-07 2.29803e-06 2.47493e-05
0.000583926 5.83605e-05 3.19104e-06
5.83605e-05 5.26101e-05 3.07301e-06
3.19104e-06 3.07301e-06 -9.91246e-06
0.000550604 1.45889e-05 -2.00749e-06
1.45889e-05 2.67317e-05 -5.40771e-09
-2.00749e-06 -5.40771e-09 -3.27017e-05
0.00122974 -1.77279e-05 1.09117e-06
-1.77279e-05 0.000414401 2.77743e-06
1.09117e-06 2.77743e-06 0.000400539
0.000484671 -5.65533e-05 1.14547e-06
-5.65533e-05 -1.27964e-05 -3.04107e-06
1.14547e-06 -3.04107e-06 -7.5563e-05
0.00128902 -2.76069e-05 -5.88348e-06
-2.76069e-05 0.000449028 -1.53047e-06
-5.88348e-06 -1.53047e-06 0.000434643
0.000799621 -3.03959e-05 2.39785e-05
-3.03959e-05 0.00014901 8.55048e-06
2.39785e-05 8.55048e-06 0.000154639
0.00133447 -3.93914e-05 -1.00322e-05
-3.93914e-05 0.000478913 -6.20773e-06
-1.00322e-05 -6.20773e-06 0.00046276
0.000776901 -4.22682e-05 9.04915e-06
-4.22682e-05 0.000138493 3.189e-06
9.04915e-06 3.189e-06 0.000140967
0.00238824 -0.000104405 -3.08323e-06
-0.000104405 0.00114783 -2.40185e-06
-3.08323e-06 -2.40185e-06 0.00115125
0.000387539 5.47621e-05 -2.43461e-06
5.47621e-05 -7.52992e-05 -4.41038e-06
-2.43461e-06 -4.41038e-06 -0.00010392
0.000437285 2.8236e-05 -2.9685e-06
2.8236e-05 -3.78838e-05 -2.87943e-09
-2.9685e-06 -2.87943e-09 -7.68212e-05
0.00268578 0.00012743 1.7332e-05
0.00012743 0.00135345 -4.39673e-06
1.7332e-05 -4.39673e-06 0.00134899
0.00059385 -3.6168e-05 -7.71426e-06
-3.6168e-05 4.69689e-05 9.21004e-06
-7.71426e-06 9.21004e-06 -2.25736e-07
0.00332858 0.000130855 -3.00093e-05
0.000130855 0.0017523 -6.90475e-07
-3.00093e-05 -6.90475e-07 0.00174617
0.00404184 9.65028e-05 -0.000136439
9.65028e-05 0.00219312 1.09612e-05
-0.000136439 1.09612e-05 0.00219373
0.00193167 0.000305901 -2.34707e-06
0.000305901 0.000131807 1.10575e-06
-2.34707e-06 1.10575e-06 -1.57426e-05
0.00190903 0.000166761 -7.04507e-07
0.000166761 7.95491e-05 1.57835e-06
-7.04507e-07 1.57835e-06 -1.07918e-05
0.00194916 0.000245162 -1.04415e-06
0.000245162 5.2532e-05 1.55214e-06
-1.04415e-06 1.55214e-06 -2.64112e-05
0.00194494 0.000109174 -3.51391e-06
0.000109174 2.65425e-05 -1.04887e-07
-3.51391e-06 -1.04887e-07 -4.99969e-06
0.00187603 4.10738e-05 -2.76322e-06
4.10738e-05 5.30132e-05 2.0386e-07
-2.76322e-06 2.0386e-07 -5.79525e-06
0.00162988 6.26233e-06 1.30644e-07
6.26233e-06 6.92714e-05 2.22834e-07
1.30644e-07 2.22834e-07 -4.14316e-05
0.00188917 -3.87556e-06 -7.59774e-07
-3.87556e-06 6.88821e-05 7.90964e-08
-7.59774e-07 7.90964e-08 8.15797e-06
0.00191278 4.89182e-05 1.46796e-06
4.89182e-05 3.07295e-05 -1.20329e-08
1.46796e-06 -1.20329e-08 -1.35804e-06
0.00196447 0.000175213 -9.97861e-08
0.000175213 4.55398e-05 3.55319e-09
-9.97861e-08 3.55319e-09 -7.69489e-06
0.00197116 0.000110928 9.29151e-07
0.000110928 1.86591e-05 3.1227e-07
9.29151e-07 3.1227e-07 6.51987e-06
0.00190101 0.000299075 -7.46748e-07
0.000299075 8.90418e-05 -2.80637e-07
-7.46748e-07 -2.80637e-07 -3.17297e-05
0.00203106 0.000259406 3.25559e-06
0.000259406 5.62353e-05 7.05573e-07
3.25559e-06 7.05573e-07 3.13604e-07
0.0019199 -8.8952e-06 6.08338e-06
-8.8952e-06 4.14942e-05 2.48823e-07
6.08338e-06 2.48823e-07 1.02525e-05
0.00195217 5.19895e-05 3.67692e-06
5.19895e-05 6.15741e-06 9.79181e-09
3.67692e-06 9.79181e-09 4.85174e-07
0.00202301 0.000176218 2.49459e-06
0.000176218 1.85904e-05 6.94143e-07
2.49459e-06 6.94143e-07 1.96925e-06
0.00204533 0.000337083 -3.43042e-07
0.000337083 7.77158e-05 5.55224e-07
-3.43042e-07 5.55224e-07 -3.14115e-06
0.0018668 -5.26603e-05 -1.87827e-06
-5.26603e-05 5.73509e-05 1.69982e-07
-1.87827e-06 1.69982e-07 -9.49637e-06
0.00189714 -0.000170779 1.70382e-06
-0.000170779 9.12622e-05 -1.28711e-06
1.70382e-06 -1.28711e-06 -1.01042e-05
0.00193833 -0.000107165 -3.03045e-06
-0.000107165 5.71714e-05 -2.00918e-07
-3.03045e-06 -2.00918e-07 1.61776e-05
0.00189957 -0.000247875 -4.30787e-06
-0.000247875 5.19176e-05 1.62604e-06
-4.30787e-06 1.62604e-06 -3.0273e-05
0.000930458 -0.000270887 -4.08125e-06
-0.000270887 9.80023e-05 4.62319e-06
-4.08125e-06 4.62319e-06 -0.000137906
0.00116865 -0.000425722 -5.07464e-07
-0.000425722 0.000150942 2.21714e-07
-5.07464e-07 2.21714e-07 -0.000164886
0.00172729 -0.000579064 1.11214e-06
-0.000579064 0.000265666 -1.11671e-06
1.11214e-06 -1.11671e-06 -7.53335e-05
0.00184881 -0.000359813 -1.16476e-06
-0.000359813 0.000114006 2.95121e-07
-1.16476e-06 2.95121e-07 -3.23094e-05
0.00188306 -0.000320885 -3.80462e-07
-0.000320885 6.27238e-05 1.33448e-06
-3.80462e-07 1.33448e-06 -2.41589e-05
0.00180291 -0.000424679 2.49831e-06
-0.000424679 7.52468e-05 1.37823e-06
2.49831e-06 1.37823e-06 -7.70329e-05
0.00186705 -0.000515822 -1.0817e-06
-0.000515822 0.000228282 -2.30471e-06
-1.0817e-06 -2.30471e-06 -2.74955e-05
0.00193319 -0.000442397 4.96381e-06
-0.000442397 0.000188134 -7.96638e-06
4.96381e-06 -7.96638e-06 1.76538e-05
0.000956018 -0.000297928 1.99387e-06
-0.000297928 0.000131518 1.90661e-06
1.99387e-06 1.90661e-06 -0.000120376
0.00075108 -0.000262415 4.47364e-06
-0.000262415 3.87334e-05 8.06957e-07
4.47364e-06 8.06957e-07 -0.000221508
0.000605349 -0.000156201 3.83732e-06
-0.000156201 0.000106666 -4.33445e-06
3.83732e-06 -4.33445e-06 -0.000161896
0.000182091 -1.91975e-05 -2.3177e-07
-1.91975e-05 -0.000184638 3.78275e-06
-2.3177e-07 3.78275e-06 -0.000294391
0.000172403 -3.44476e-06 3.39877e-06
-3.44476e-06 -0.000149033 -9.35774e-08
3.39877e-06 -9.35774e-08 -0.000339636
0.00190837 -6.58839e-05 -2.22359e-07
-6.58839e-05 2.08059e-05 -1.23216e-07
-2.22359e-07 -1.23216e-07 -6.36435e-06
0.00192381 -0.000157474 1.19145e-06
-0.000157474 3.6227e-05 -1.97195e-07
1.19145e-06 -1.97195e-07 -7.46523e-06
0.00197749 -0.000292138 -1.01981e-06
-0.000292138 4.98517e-05 2.88646e-08
-1.01981e-06 2.88646e-08 -6.55645e-06
0.00130227 -0.000374561 -1.74545e-06
-0.000374561 0.000305908 -3.58283e-07
-1.74545e-06 -3.58283e-07 1.78291e-05
0.00130926 -0.000520861 2.93272e-06
-0.000520861 0.00019908 -9.05115e-07
2.93272e-06 -9.05115e-07 -0.000158024
0.00181169 -0.00062954 4.07196e-08
-0.00062954 0.000286039 -3.52206e-07
4.07196e-08 -3.52206e-07 -6.7407e-05
0.00188035 -0.000364809 3.63596e-07
-0.000364809 7.53141e-05 1.24355e-07
3.63596e-07 1.24355e-07 -2.91413e-05
0.00199814 -0.000520832 9.52763e-07
-0.000520832 0.00026708 -3.18411e-06
9.52763e-07 -3.18411e-06 2.4438e-05
0.00201114 -0.000491861 -7.67181e-07
-0.000491861 0.000163947 -6.31411e-07
-7.67181e-07 -6.31411e-07 1.60631e-06
0.000197394 4.56274e-05 -1.33795e-06
4.56274e-05 -0.000179692 -7.94898e-07
-1.33795e-06 -7.94898e-07 -0.000260737
0.00114999 -0.000345217 9.95676e-08
-0.000345217 0.000223435 4.71932e-07
9.95676e-08 4.71932e-07 -5.47303e-05
0.00129938 -0.000355281 6.49583e-08
-0.000355281 0.000361367 2.00245e-06
6.49583e-08 2.00245e-06 7.01248e-05
0.00119039 -0.000248888 -2.63188e-07
-0.000248888 0.000437947 3.99708e-07
-2.63188e-07 3.99708e-07 0.000136711
0.00123244 -0.000143207 8.90838e-07
-0.000143207 0.000506536 -2.76758e-06
8.90838e-07 -2.76758e-06 0.000277462
0.000471922 -2.77699e-05 -6.84829e-07
-2.77699e-05 3.91428e-05 1.32346e-06
-6.84829e-07 1.32346e-06 -0.00013099
0.00194733 -8.06452e-05 3.91139e-06
-8.06452e-05 1.36989e-05 -1.88959e-07
3.91139e-06 -1.88959e-07 7.25337e-06
0.00206314 -0.000204385 1.63273e-06
-0.000204385 1.92368e-05 -6.20375e-07
1.63273e-06 -6.20375e-07 1.49952e-05
0.00206495 -0.000355309 1.45269e-06
-0.000355309 6.27114e-05 -1.28836e-06
1.45269e-06 -1.28836e-06 2.73873e-05
0.00211351 -0.000442365 1.70264e-06
-0.000442365 0.000121912 -2.38932e-06
1.70264e-06 -2.38932e-06 2.769e-05
0.00171664 -0.000481959 -5.14144e-06
-0.000481959 0.000532417 -2.67606e-06
-5.14144e-06 -2.67606e-06 0.0001971
0.00199147 -0.000558288 3.75046e-06
-0.000558288 0.00019284 -3.184e-07
3.75046e-06 -3.184e-07 -1.90233e-05
0.00153089 -0.000613274 -8.62179e-06
-0.000613274 0.000291769 1.59657e-06
-8.62179e-06 1.59657e-06 -0.000106451
0.00215731 -0.000688929 -7.73528e-06
-0.000688929 0.00049729 9.76354e-07
-7.73528e-06 9.76354e-07 0.00012178
0.000158855 5.85821e-05 -3.52498e-06
5.85821e-05 -0.000208072 -1.60616e-06
-3.52498e-06 -1.60616e-06 -0.000270599
0.000660666 6.19672e-06 -1.69948e-06
6.19672e-06 0.000145227 1.6134e-07
-1.69948e-06 1.6134e-07 1.31869e-05
0.0012073 -0.000165301 -4.57076e-06
-0.000165301 0.000506969 2.31965e-06
-4.57076e-06 2.31965e-06 0.000303138
0.000934456 -5.84075e-05 -2.88036e-06
-5.84075e-05 0.000287908 9.34192e-07
-2.88036e-06 9.34192e-07 3.21716e-05
0.00148718 -0.000430843 -1.59572e-06
-0.000430843 0.000411886 -4.0673e-07
-1.59572e-06 -4.0673e-07 8.60995e-05
0.00159005 -0.000376338 -1.23625e-05
-0.000376338 0.000595065 1.25055e-05
-1.23625e-05 1.25055e-05 0.000234046
0.000478401 1.07047e-05 -1.682e-06
1.07047e-05 -2.58192e-05 -3.60639e-06
-1.682e-06 -3.60639e-06 -9.71277e-05
0.000334606 -2.51684e-06 1.79275e-06
-2.51684e-06 -8.80188e-05 -2.16758e-06
1.79275e-06 -2.16758e-06 -0.000206221
0.00186298 0.000376563 -1.9091e-06
0.000376563 0.00011559 -6.97851e-07
-1.9091e-06 -6.97851e-07 -4.76331e-05
0.00018818 4.1799e-05 1.39449e-06
4.1799e-05 -0.000154799 -1.44624e-07
1.39449e-06 -1.44624e-07 -0.00035732
0.00151006 0.000345189 6.62749e-07
0.000345189 0.000478562 4.85085e-07
6.62749e-07 4.85085e-07 0.000229491
-0.000145759 0.000107416 5.66721e-06
0.000107416 -0.000488176 1.68986e-06
5.66721e-06 1.68986e-06 -0.000663401
0.00191992 0.000496563 1.54186e-06
0.000496563 0.000255171 7.60459e-07
1.54186e-06 7.60459e-07 1.29524e-05
0.00193684 0.000476292 -4.02208e-06
0.000476292 0.000179231 5.15474e-07
-4.02208e-06 5.15474e-07 -2.29767e-05
0.00157829 0.000473795 -3.49806e-07
0.000473795 0.000457564 2.74897e-06
-3.49806e-07 2.74897e-06 0.000127205
0.00201481 0.000553317 -2.96847e-06
0.000553317 0.000503524 2.00734e-07
-2.96847e-06 2.00734e-07 0.000196868
0.000681298 3.67756e-05 -9.59525e-07
3.67756e-05 0.00012653 1.59126e-07
-9.59525e-07 1.59126e-07 1.68178e-05
0.000404021 5.07973e-05 8.27085e-07
5.07973e-05 3.5097e-06 3.81099e-07
8.27085e-07 3.81099e-07 -0.000176238
0.00152656 0.000376136 -1.53529e-06
0.000376136 0.000459756 -1.50514e-06
-1.53529e-06 -1.50514e-06 0.000192092
0.000351525 8.38867e-05 -1.56184e-06
8.38867e-05 -8.25239e-05 -1.10772e-07
-1.56184e-06 -1.10772e-07 -0.000271554
0.000759224 0.000250966 8.95656e-07
0.000250966 1.48424e-05 -1.45053e-06
8.95656e-07 -1.45053e-06 -0.000181611
0.00204588 0.000419956 -2.90619e-06
0.000419956 0.000145899 -1.21407e-06
-2.90619e-06 -1.21407e-06 3.16804e-06
0.00214913 0.000552117 2.40537e-06
0.000552117 0.000374694 -2.72786e-07
2.40537e-06 -2.72786e-07 0.000117723
0.00195247 0.000517577 2.70388e-06
0.000517577 0.000164885 2.75996e-06
2.70388e-06 2.75996e-06 -5.51974e-05
0.00119959 0.000443072 4.15903e-06
0.000443072 0.000212319 2.75064e-06
4.15903e-06 2.75064e-06 -0.000119076
0.00173163 0.000579714 -4.32556e-06
0.000579714 0.000325707 -1.2039e-07
-4.32556e-06 -1.2039e-07 1.79653e-06
-0.000136134 4.22429e-06 -1.63078e-06
4.22429e-06 -0.000366201 3.19199e-06
-1.63078e-06 3.19199e-06 -0.000476056
-0.000150621 0.000123743 1.35446e-06
0.000123743 -0.000285065 1.91894e-06
1.35446e-06 1.91894e-06 -0.000512772
0.000920387 0.000325042 3.5023e-07
0.000325042 8.32057e-05 -3.57471e-07
3.5023e-07 -3.57471e-07 -0.000184848
-0.000305937 0.000138607 2.50246e-06
0.000138607 -0.000577856 1.68913e-07
2.50246e-06 1.68913e-07 -0.000771725
0.00206867 0.000422445 1.57868e-06
0.000422445 -8.60571e-05 1.64833e-06
1.57868e-06 1.64833e-06 -0.000108937
0.0026756 0.000531497 3.30921e-06
0.000531497 0.000524967 2.58735e-08
3.30921e-06 2.58735e-08 0.000343138
0.00196468 0.00060836 -5.11902e-06
0.00060836 0.000297141 -4.32514e-06
-5.11902e-06 -4.32514e-06 -7.37676e-06
0.0013976 0.000529875 4.07677e-07
0.000529875 0.000235521 4.31642e-07
4.07677e-07 4.31642e-07 -0.000121901
0.000639571 8.77689e-05 -6.48504e-07
8.77689e-05 9.9311e-05 -1.17845e-06
-6.48504e-07 -1.17845e-06 -5.49739e-06
0.00060112 6.93498e-05 -4.08381e-07
6.93498e-05 7.43704e-05 -7.67312e-08
-4.08381e-07 -7.67312e-08 -3.41907e-05
0.000988451 6.8455e-05 -5.2493e-06
6.8455e-05 0.000310449 -2.24465e-06
-5.2493e-06 -2.24465e-06 0.000214634
0.000599105 3.28198e-05 -1.2935e-06
3.28198e-05 6.24505e-05 -2.09944e-06
-1.2935e-06 -2.09944e-06 -2.6049e-05
0.000297528 2.56523e-05 -1.16982e-07
2.56523e-05 -0.000113972 8.68786e-09
-1.16982e-07 8.68786e-09 -0.000214679
0.000622164 4.35269e-05 -3.74956e-07
4.35269e-05 9.14785e-05 9.10944e-08
-3.74956e-07 9.10944e-08 -5.07017e-06
0.000607469 0.000108961 -1.12184e-06
0.000108961 0.000102027 3.70394e-07
-1.12184e-06 3.70394e-07 -1.22751e-05
0.000520594 4.0823e-05 1.05162e-06
4.0823e-05 4.51129e-05 1.34025e-07
1.05162e-06 1.34025e-07 -7.81288e-05
0.000683355 8.13794e-05 1.65051e-06
8.13794e-05 0.000117875 -2.12032e-06
1.65051e-06 -2.12032e-06 3.29921e-05
0.000728794 4.45713e-06 3.12897e-06
4.45713e-06 0.000167871 -4.10067e-06
3.12897e-06 -4.10067e-06 4.82558e-05
0.000373178 6.27852e-05 4.70567e-07
6.27852e-05 -4.39099e-05 1.82828e-06
4.70567e-07 1.82828e-06 -0.000168556
0.000663559 9.72199e-05 2.11698e-06
9.72199e-05 0.000119625 2.8747e-06
2.11698e-06 2.8747e-06 1.89891e-05
0.000499278 6.62416e-05 2.94505e-06
6.62416e-05 7.5142e-06 2.95345e-06
2.94505e-06 2.95345e-06 -6.06684e-05
0.000505592 7.77926e-06 -1.49005e-06
7.77926e-06 4.95593e-06 -1.93071e-07
-1.49005e-06 -1.93071e-07 -5.72433e-05
0.00120878 -8.01532e-07 1.31366e-06
-8.01532e-07 0.000405878 2.60005e-06
1.31366e-06 2.60005e-06 0.000392303
0.000502771 -4.6382e-05 6.2611e-08
-4.6382e-05 -1.46184e-06 -2.79633e-06
6.2611e-08 -2.79633e-06 -6.13993e-05
0.0012874 -1.2933e-05 -5.31886e-06
-1.2933e-05 0.000449938 -1.61463e-06
-5.31886e-06 -1.61463e-06 0.000436434
0.000792758 -2.09302e-05 2.13027e-05
-2.09302e-05 0.000144898 8.74766e-06
2.13027e-05 8.74766e-06 0.000151296
0.00132967 -2.4589e-05 -9.00806e-06
-2.4589e-05 0.000474264 -6.0451e-06
-9.00806e-06 -6.0451e-06 0.00046013
0.00076401 -3.23182e-05 7.74664e-06
-3.23182e-05 0.000126088 3.2704e-06
7.74664e-06 3.2704e-06 0.000130859
0.000720639 -4.17757e-05 -3.31018e-07
-4.17757e-05 0.000103378 -2.64476e-06
-3.31018e-07 -2.64476e-06 0.000105545
0.00044317 4.01434e-05 -2.70148e-07
4.01434e-05 -5.91324e-05 -3.1686e-06
-2.70148e-07 -3.1686e-06 -7.74187e-05
0.000445396 6.72323e-05 -1.46649e-07
6.72323e-05 -3.4603e-05 2.29059e-07
-1.46649e-07 2.29059e-07 -6.71364e-05
0.00235226 0.00010211 1.48166e-05
0.00010211 0.00113897 -4.03583e-06
1.48166e-05 -4.03583e-06 0.00114152
0.000531339 2.71706e-05 -4.16946e-06
2.71706e-05 2.25256e-05 7.54465e-06
-4.16946e-06 7.54465e-06 -1.89943e-05
0.00280344 0.000133795 -5.09949e-06
0.000133795 0.00142651 -5.63316e-07
-5.09949e-06 -5.63316e-07 0.00142034
0.00346035 8.55752e-05 -0.000109325
8.55752e-05 0.00182888 7.98487e-06
-0.000109325 7.98487e-06 0.0018336
0.00190346 0.000296635 -5.51848e-07
0.000296635 0.000100372 1.52243e-06
-5.51848e-07 1.52243e-06 -2.00352e-05
0.00200819 0.00017549 -4.90424e-06
0.00017549 7.44562e-05 -6.44619e-07
-4.90424e-06 -6.44619e-07 1.94713e-05
0.00198787 0.000262329 -5.28742e-07
0.000262329 2.67245e-05 -4.42112e-07
-5.28742e-07 -4.42112e-07 -2.46138e-05
0.00194424 0.000111995 -3.44969e-06
0.000111995 -2.26444e-06 -5.21213e-07
-3.44969e-06 -5.21213e-07 -1.1144e-05
0.00192735 4.8507e-05 -4.77186e-06
4.8507e-05 4.35223e-05 -1.70769e-07
-4.77186e-06 -1.70769e-07 9.00323e-06
0.00184545 -6.05473e-06 -2.95351e-06
-6.05473e-06 4.38023e-05 2.03607e-07
-2.95351e-06 2.03607e-07 -1.87588e-05
0.00191003 -7.00652e-06 -4.85832e-07
-7.00652e-06 3.54122e-05 -7.18926e-08
-4.85832e-07 -7.18926e-08 4.73828e-06
0.00195492 5.41445e-05 1.14837e-06
5.41445e-05 1.32664e-05 1.21486e-07
1.14837e-06 1.21486e-07 6.01666e-06
0.00202739 0.000181058 7.476e-07
0.000181058 2.3672e-05 2.0393e-07
7.476e-07 2.0393e-07 6.59043e-06
0.00207496 0.000332541 7.72256e-07
0.000332541 8.58275e-05 3.62348e-07
7.72256e-07 3.62348e-07 5.23495e-06
0.00193499 -1.29261e-05 2.66603e-06
-1.29261e-05 9.41783e-06 -4.71801e-08
2.66603e-06 -4.71801e-08 5.93712e-07
0.00207307 0.000103728 1.18373e-06
0.000103728 -1.49278e-05 2.28939e-08
1.18373e-06 2.28939e-08 1.03808e-05
0.00222869 0.000279311 2.13497e-06
0.000279311 5.86737e-05 1.15394e-06
2.13497e-06 1.15394e-06 4.12038e-05
0.00192 -7.38358e-05 -5.02667e-06
-7.38358e-05 2.47126e-05 2.91697e-07
-5.02667e-06 2.91697e-07 -3.73306e-06
0.00192394 -0.000156979 -2.31859e-06
-0.000156979 3.53358e-05 4.06826e-08
-2.31859e-06 4.06826e-08 -9.18176e-06
0.00197634 -0.000286798 -3.03732e-06
-0.000286798 6.45576e-05 1.33513e-06
-3.03732e-06 1.33513e-06 4.13348e-06
0.000935953 -0.000338275 -2.25578e-06
-0.000338275 7.45741e-05 2.28766e-06
-2.25578e-06 2.28766e-06 -0.000206004
0.00129602 -0.000504264 6.32542e-06
-0.000504264 0.000194672 -1.88174e-06
6.32542e-06 -1.88174e-06 -0.000155332
0.00167517 -0.0006193 2.20473e-07
-0.0006193 0.000214738 4.68111e-07
2.20473e-07 4.68111e-07 -0.00013943
0.00185189 -0.000361964 -8.8353e-07
-0.000361964 5.56861e-05 1.20211e-06
-8.8353e-07 1.20211e-06 -4.95934e-05
0.0018518 -0.000470816 6.19724e-07
-0.000470816 0.000100037 6.37145e-07
6.19724e-07 6.37145e-07 -5.95077e-05
0.0020775 -0.000534853 2.79028e-06
-0.000534853 0.000309666 -7.16841e-06
2.79028e-06 -7.16841e-06 7.07699e-05
0.000958032 -0.000325202 3.42719e-06
-0.000325202 0.000100974 3.55337e-06
3.42719e-06 3.55337e-06 -0.000172401
0.000662716 -0.000288565 -1.11876e-05
-0.000288565 -2.20308e-05 2.82774e-06
-1.11876e-05 2.82774e-06 -0.000290731
0.00210137 -0.00035761 1.73187e-06
-0.00035761 0.0010219 -8.85011e-07
1.73187e-06 -8.85011e-07 0.000688443
0.000366456 4.56316e-05 2.02417e-06
4.56316e-05 -7.86031e-05 7.42835e-07
2.02417e-06 7.42835e-07 -0.000157101
0.00102684 -0.000147849 3.60198e-06
-0.000147849 0.000366753 1.55432e-06
3.60198e-06 1.55432e-06 0.000155343
0.00015097 3.55926e-05 4.89277e-06
3.55926e-05 -0.000167013 8.28663e-07
4.89277e-06 8.28663e-07 -0.000329247
0.00195248 -8.05363e-05 -5.0157e-07
-8.05363e-05 1.60598e-05 8.13557e-08
-5.0157e-07 8.13557e-08 7.85416e-06
0.00202568 -0.000210256 1.94115e-07
-0.000210256 -6.70573e-06 -1.70794e-08
1.94115e-07 -1.70794e-08 -9.69967e-06
0.00203555 -0.000349766 -4.75843e-07
-0.000349766 5.21701e-05 3.34109e-07
-4.75843e-07 3.34109e-07 1.29596e-05
0.00148958 -0.000456025 -1.91959e-06
-0.000456025 0.000399252 -5.33604e-07
-1.91959e-06 -5.33604e-07 7.00825e-05
0.00144305 -0.00059917 1.80749e-06
-0.00059917 0.000240782 -1.00132e-06
1.80749e-06 -1.00132e-06 -0.000152454
0.00225251 -0.000690284 -5.1335e-06
-0.000690284 0.000547484 9.12507e-07
-5.1335e-06 9.12507e-07 0.000181609
0.00205548 -0.000446475 5.83541e-07
-0.000446475 8.98324e-05 -4.36678e-07
5.83541e-07 -4.36678e-07 -9.56357e-06
0.00186144 -0.000542748 1.44128e-06
-0.000542748 0.000118387 -3.11288e-06
1.44128e-06 -3.11288e-06 -8.98223e-05
0.000375503 5.87462e-05 -1.0375e-06
5.87462e-05 -7.86815e-05 -1.05262e-06
-1.0375e-06 -1.05262e-06 -0.000136697
0.000666666 -1.47881e-05 -7.75014e-07
-1.47881e-05 0.000144487 4.32882e-07
-7.75014e-07 4.32882e-07 1.54712e-05
0.00063704 -0.00034268 -4.82105e-06
-0.00034268 -0.000102779 2.87369e-06
-4.82105e-06 2.87369e-06 -0.000404637
0.00157442 -0.000344805 4.82737e-06
-0.000344805 0.000616655 -6.41003e-07
4.82737e-06 -6.41003e-07 0.000253838
0.00125323 -0.000118962 -2.56682e-07
-0.000118962 0.000494361 -2.06926e-06
-2.56682e-07 -2.06926e-06 0.000233526
0.000831625 -0.000121993 -5.96635e-07
-0.000121993 0.000271932 9.78463e-07
-5.96635e-07 9.78463e-07 7.22328e-05
0.0020232 -0.000110164 -3.28056e-07
-0.000110164 -1.95973e-05 -1.98129e-07
-3.28056e-07 -1.98129e-07 3.49702e-06
0.00213497 -0.000301471 -1.16064e-06
-0.000301471 -3.13937e-05 1.78318e-07
-1.16064e-06 1.78318e-07 3.75858e-06
0.00211384 -0.000404111 1.25478e-06
-0.000404111 6.14258e-05 -8.77306e-07
1.25478e-06 -8.77306e-07 3.28435e-05
0.00218553 -0.000591831 6.33206e-06
-0.000591831 0.000151058 -3.02171e-06
6.33206e-06 -3.02171e-06 1.14621e-05
0.000750711 -0.000437607 -2.50688e-07
-0.000437607 -5.68653e-05 -4.34536e-06
-2.50688e-07 -4.34536e-06 -0.000411991
0.00225335 -0.000717685 -9.49068e-07
-0.000717685 0.000481363 1.16117e-05
-9.49068e-07 1.16117e-05 0.000135279
0.00237129 -0.000751883 -9.03384e-06
-0.000751883 0.000732995 -3.05819e-06
-9.03384e-06 -3.05819e-06 0.000287784
0.000591417 5.00895e-05 7.7761e-07
5.00895e-05 3.8288e-05 -8.0766e-07
7.7761e-07 -8.0766e-07 -6.59232e-06
0.000659337 -0.000128362 4.40834e-06
-0.000128362 0.000128935 -2.46963e-06
4.40834e-06 -2.46963e-06 3.50588e-05
0.000342736 7.40345e-05 -5.00149e-06
7.40345e-05 -6.44788e-05 1.17779e-06
-5.00149e-06 1.17779e-06 -0.000161322
0.000783837 -4.99262e-05 -3.77697e-06
-4.99262e-05 0.000240827 5.19542e-06
-3.77697e-06 5.19542e-06 7.00744e-05
0.000365723 -7.08897e-05 1.67472e-06
-7.08897e-05 -5.51813e-05 -1.97362e-06
1.67472e-06 -1.97362e-06 -0.000253446
-0.00085906 5.47422e-07 1.16882e-06
5.47422e-07 -0.000759295 4.4385e-08
1.16882e-06 4.4385e-08 -0.00107429
0.00128674 -0.00043578 -1.31202e-05
-0.00043578 0.000286365 7.11417e-06
-1.31202e-05 7.11417e-06 -3.20867e-05
0.00286671 -0.000492171 -1.70586e-05
-0.000492171 0.00149785 8.99063e-06
-1.70586e-05 8.99063e-06 0.00097372
0.000605755 9.68614e-06 -3.53394e-07
9.68614e-06 7.36157e-05 -1.33035e-06
-3.53394e-07 -1.33035e-06 -2.83071e-05
0.000763863 0.000106277 6.5286e-07
0.000106277 0.000229109 -1.0867e-06
6.5286e-07 -1.0867e-06 3.72557e-05
0.00223329 0.000432774 -2.04874e-06
0.000432774 0.00025053 -1.2351e-06
-2.04874e-06 -1.2351e-06 0.000110042
0.000690943 0.000129661 -1.23832e-06
0.000129661 0.000137425 2.27213e-06
-1.23832e-06 2.27213e-06 -6.49265e-05
0.00187989 0.000413313 4.1583e-07
0.000413313 0.000680028 1.98575e-06
4.1583e-07 1.98575e-06 0.00040239
0.000285375 0.000196444 -2.00606e-06
0.000196444 -0.000283918 2.32855e-07
-2.00606e-06 2.32855e-07 -0.000461266
0.00221675 0.00054648 -2.95132e-06
0.00054648 0.000422749 -3.07116e-07
-2.95132e-06 -3.07116e-07 0.000172014
0.00210914 0.000536337 -6.02424e-06
0.000536337 0.00024825 5.1827e-06
-6.02424e-06 5.1827e-06 2.40372e-05
0.00167457 0.000501359 -3.95006e-07
0.000501359 0.000499754 7.96228e-07
-3.95006e-07 7.96228e-07 0.00015709
0.00154191 0.000577376 7.46044e-07
0.000577376 0.00021002 3.60225e-07
7.46044e-07 3.60225e-07 -0.000120684
0.000140101 3.47185e-05 -7.1766e-08
3.47185e-05 -0.000191112 1.21927e-06
-7.1766e-08 1.21927e-06 -0.000311327
0.000288857 0.000158197 -9.81729e-07
0.000158197 -2.11144e-05 -3.14817e-06
-9.81729e-07 -3.14817e-06 -0.000250102
0.0015098 0.000395509 3.11256e-06
0.000395509 0.000431637 -2.9744e-07
3.11256e-06 -2.9744e-07 0.000149258
0.000687843 0.000220663 -2.63225e-06
0.000220663 2.59021e-05 -1.37923e-06
-2.63225e-06 -1.37923e-06 -0.000178256
0.00216997 0.000412236 8.69681e-07
0.000412236 -3.27919e-05 -8.78011e-07
8.69681e-07 -8.78011e-07 -5.45428e-05
0.00241763 0.000524149 3.15726e-06
0.000524149 0.000379296 5.67884e-07
3.15726e-06 5.67884e-07 0.00019348
0.00197021 0.000598599 -3.51638e-07
0.000598599 0.000298917 6.24639e-07
-3.51638e-07 6.24639e-07 -1.34746e-07
0.00154577 0.000545288 7.1175e-07
0.000545288 0.000305935 5.44146e-07
7.1175e-07 5.44146e-07 -4.9929e-05
6.84539e-05 4.80256e-05 -1.67536e-06
4.80256e-05 -0.000239979 4.20347e-06
-1.67536e-06 4.20347e-06 -0.000366541
0.00210964 0.000329048 5.08113e-06
0.000329048 -0.000131662 4.15679e-06
5.08113e-06 4.15679e-06 -8.5155e-05
0.00187753 0.000369901 5.35742e-06
0.000369901 0.000895141 7.78328e-06
5.35742e-06 7.78328e-06 0.000618926
0.00143007 0.000408151 4.30186e-06
0.000408151 0.000349 3.16223e-07
4.30186e-06 3.16223e-07 6.68767e-05
0.00253069 0.000514647 -1.73838e-05
0.000514647 0.000304394 -7.10948e-06
-1.73838e-05 -7.10948e-06 0.000199427
0.00104508 0.000551421 -1.01115e-05
0.000551421 -0.000326491 -8.96528e-06
-1.01115e-05 -8.96528e-06 -0.000608571
0.00210414 0.000632958 -3.65707e-06
0.000632958 0.000573626 2.27529e-06
-3.65707e-06 2.27529e-06 0.000194214
0.000739504 8.677e-05 -9.83824e-07
8.677e-05 0.000158386 -8.48745e-07
-9.83824e-07 -8.48745e-07 4.97227e-05
0.00065667 8.14594e-05 -2.58548e-06
8.14594e-05 0.000117489 -7.00227e-07
-2.58548e-06 -7.00227e-07 1.65691e-05
0.00131436 8.12696e-05 -3.7097e-06
8.12696e-05 0.000523885 -1.35523e-06
-3.7097e-06 -1.35523e-06 0.00044192
0.000551397 3.06316e-06 1.82237e-07
3.06316e-06 5.11622e-05 -2.97615e-06
1.82237e-07 -2.97615e-06 -4.71273e-05
0.000679602 7.17399e-05 1.60251e-06
7.17399e-05 0.000145798 1.44669e-07
1.60251e-06 1.44669e-07 1.92131e-05
0.000162214 5.5103e-05 -9.8206e-07
5.5103e-05 -0.00015498 3.98597e-06
-9.8206e-07 3.98597e-06 -0.000263279
0.000584112 1.48397e-05 -9.98522e-07
1.48397e-05 7.8643e-05 1.63533e-08
-9.98522e-07 1.63533e-08 -2.62479e-05
0.000363511 -1.53423e-05 -8.3902e-07
-1.53423e-05 -3.84936e-05 1.8551e-07
-8.3902e-07 1.8551e-07 -0.00016794
0.000275702 3.33349e-05 6.33998e-07
3.33349e-05 -0.000117435 6.0179e-07
6.33998e-07 6.0179e-07 -0.000194529
0.000753146 7.34666e-05 8.70068e-07
7.34666e-05 0.000197391 -8.56367e-07
8.70068e-07 -8.56367e-07 6.5197e-05
0.00143543 9.43172e-05 -6.54144e-07
9.43172e-05 0.000564549 -3.06037e-06
-6.54144e-07 -3.06037e-06 0.000508431
0.000540932 1.08077e-05 6.48587e-06
1.08077e-05 4.27306e-05 -5.1076e-06
6.48587e-06 -5.1076e-06 -4.55323e-05
0.000463618 8.09264e-05 3.05272e-07
8.09264e-05 2.9146e-05 1.85352e-06
3.05272e-07 1.85352e-06 -0.000115326
0.000614545 4.42115e-05 2.54378e-06
4.42115e-05 0.000114834 2.33154e-06
2.54378e-06 2.33154e-06 -2.95135e-05
0.000607924 3.39756e-05 2.24494e-06
3.39756e-05 8.67516e-05 2.65411e-06
2.24494e-06 2.65411e-06 -1.86372e-05
0.00049747 -4.6367e-05 -1.15531e-07
-4.6367e-05 5.58795e-06 2.81163e-06
-1.15531e-07 2.81163e-06 -6.39974e-05
0.000521769 2.99462e-06 -2.01792e-07
2.99462e-06 1.62069e-05 -2.10132e-07
-2.01792e-07 -2.10132e-07 -4.80021e-05
0.00127561 1.48482e-05 2.13483e-06
1.48482e-05 0.000453643 2.61581e-06
2.13483e-06 2.61581e-06 0.000438249
0.000523192 -1.15835e-05 4.11144e-07
-1.15835e-05 1.03818e-05 -2.93e-06
4.11144e-07 -2.93e-06 -4.79961e-05
0.00129062 4.06635e-06 -4.10246e-06
4.06635e-06 0.00045668 -1.61715e-06
-4.10246e-06 -1.61715e-06 0.000442896
0.00075778 -1.24999e-05 1.64667e-05
-1.24999e-05 0.000126195 8.57648e-06
1.64667e-05 8.57648e-06 0.000133
0.00135056 -8.7205e-06 -7.48779e-06
-8.7205e-06 0.000489048 -6.16567e-06
-7.48779e-06 -6.16567e-06 0.000475496
0.000786279 -2.33154e-05 5.60879e-06
-2.33154e-05 0.000138633 3.35947e-06
5.60879e-06 3.35947e-06 0.000144354
0.000747676 -3.24634e-05 -2.07068e-07
-3.24634e-05 0.000114157 -2.53026e-06
-2.07068e-07 -2.53026e-06 0.000118789
0.000642851 4.71935e-07 1.92835e-06
4.71935e-07 6.77591e-05 -1.75935e-06
1.92835e-06 -1.75935e-06 2.51061e-05
0.000478666 2.87369e-05 5.65559e-07
2.87369e-05 -4.81771e-05 -3.3428e-06
5.65559e-07 -3.3428e-06 -6.1047e-05
0.000487701 4.27736e-05 3.52953e-07
4.27736e-05 -3.01268e-05 2.14802e-07
3.52953e-07 2.14802e-07 -4.93743e-05
0.00212667 7.96294e-05 1.53144e-05
7.96294e-05 0.000989453 -3.97342e-06
1.53144e-05 -3.97342e-06 0.000998075
0.000509519 6.70873e-05 5.28358e-06
6.70873e-05 4.50979e-06 6.16341e-06
5.28358e-06 6.16341e-06 -2.86972e-05
0.0024754 0.000107783 -5.49873e-06
0.000107783 0.00121567 -5.28159e-07
-5.49873e-06 -5.28159e-07 0.00121687
0.00297397 0.000121211 -3.21346e-05
0.000121211 0.00152734 4.77689e-06
-3.21346e-05 4.77689e-06 0.00152366
0.00210271 0.000328397 6.00367e-08
0.000328397 9.22434e-05 3.95991e-08
6.00367e-08 3.95991e-08 1.20417e-05
0.00203172 0.000185633 -2.73475e-06
0.000185633 2.98418e-05 -8.12912e-07
-2.73475e-06 -8.12912e-07 1.18425e-05
0.0019554 5.76211e-05 -3.51119e-06
5.76211e-05 1.94717e-05 -2.40154e-07
-3.51119e-06 -2.40154e-07 1.0669e-05
0.00189808 -4.9594e-06 -5.16336e-06
-4.9594e-06 2.82411e-05 -1.5371e-07
-5.16336e-06 -1.5371e-07 -2.0342e-06
0.00193545 -7.89846e-06 -8.77847e-07
-7.89846e-06 7.05908e-06 1.68493e-08
-8.77847e-07 1.68493e-08 1.13638e-06
0.0020553 9.68276e-05 -8.12115e-08
9.68276e-05 -1.68506e-05 1.34296e-07
-8.12115e-08 1.34296e-07 5.36938e-06
0.00215788 0.000283158 -1.03536e-06
0.000283158 1.96069e-05 -1.39734e-07
-1.03536e-06 -1.39734e-07 4.36104e-06
0.00202944 -1.01021e-05 1.14587e-07
-1.01021e-05 -3.31794e-05 -5.21553e-07
1.14587e-07 -5.21553e-07 -1.32022e-06
0.00222442 0.000149949 4.46762e-06
0.000149949 -2.1902e-05 9.39752e-08
4.46762e-06 9.39752e-08 1.12305e-05
0.00241109 0.000101355 4.07877e-06
0.000101355 0.000160251 1.20095e-05
4.07877e-06 1.20095e-05 0.000226865
0.00195661 -8.05427e-05 -3.93035e-06
-8.05427e-05 1.78472e-05 3.31216e-07
-3.93035e-06 3.31216e-07 7.75431e-06
0.00199701 -0.000217436 -2.10156e-06
-0.000217436 -2.83731e-05 3.79098e-07
-2.10156e-06 3.79098e-07 -2.99467e-05
0.00201447 -0.000344297 -1.52719e-06
-0.000344297 4.61765e-05 6.19201e-07
-1.52719e-06 6.19201e-07 4.16409e-06
0.000964484 -0.000400754 8.10428e-07
-0.000400754 7.74014e-05 1.36495e-06
8.10428e-07 1.36495e-06 -0.000240024
0.0016477 -0.00061644 5.16232e-06
-0.00061644 0.000359066 1.32002e-07
5.16232e-06 1.32002e-07 -3.65646e-05
0.00208131 -0.00065981 2.88648e-07
-0.00065981 0.000455868 1.10318e-07
2.88648e-07 1.10318e-07 0.000104634
0.0019852 -0.000449312 3.85365e-07
-0.000449312 5.05238e-05 2.35933e-06
3.85365e-07 2.35933e-06 -5.33109e-05
0.00185018 -0.000536744 -5.88581e-06
-0.000536744 0.000113836 -3.1611e-06
-5.88581e-06 -3.1611e-06 -9.18804e-05
0.000674894 -0.000341254 -7.22722e-06
-0.000341254 -7.4741e-05 3.28124e-07
-7.22722e-06 3.28124e-07 -0.000373934
0.00209719 -0.000376141 1.44265e-05
-0.000376141 0.000971397 -6.86243e-06
1.44265e-05 -6.86243e-06 0.000595604
0.00105446 -6.44774e-05 2.00442e-07
-6.44774e-05 0.0003576 1.51371e-06
2.00442e-07 1.51371e-06 0.000115523
0.000454254 1.73248e-05 1.1375e-06
1.73248e-05 -3.31598e-05 -3.82392e-07
1.1375e-06 -3.82392e-07 -8.65984e-05
0.000814371 3.70841e-05 4.86058e-06
3.70841e-05 0.000230196 2.58331e-07
4.86058e-06 2.58331e-07 0.000100248
0.000656063 -8.3784e-05 1.17172e-06
-8.3784e-05 0.000159087 2.6018e-06
1.17172e-06 2.6018e-06 -4.0202e-05
0.0020314 -0.000112823 5.53377e-07
-0.000112823 -2.27815e-05 -8.94148e-09
5.53377e-07 -8.94148e-09 2.47751e-06
0.000521316 1.52481e-05 1.34073e-06
1.52481e-05 -3.82699e-06 2.4207e-07
1.34073e-06 2.4207e-07 -4.83896e-05
0.000455651 -6.32316e-05 -1.86518e-06
-6.32316e-05 -2.19825e-05 -2.2183e-07
-1.86518e-06 -2.2183e-07 -9.9287e-05
0.0021221 -0.000291386 -2.47782e-07
-0.000291386 -2.02028e-05 1.86889e-07
-2.47782e-07 1.86889e-07 9.7107e-06
0.00206219 -0.000396322 -1.38745e-06
-0.000396322 3.17107e-05 1.21082e-07
-1.38745e-06 1.21082e-07 9.1351e-06
0.00158773 -0.00053314 -2.23223e-06
-0.00053314 0.000425787 8.38615e-07
-2.23223e-06 8.38615e-07 5.11416e-05
0.00183114 -0.000690847 1.53947e-06
-0.000690847 0.000441216 1.20101e-06
1.53947e-06 1.20101e-06 -4.29091e-08
0.00180633 -0.000672358 4.88334e-06
-0.000672358 0.000221428 -3.13577e-06
4.88334e-06 -3.13577e-06 -0.000112724
0.00217504 -0.000587118 2.76802e-06
-0.000587118 0.000155561 -7.72397e-07
2.76802e-06 -7.72397e-07 1.69014e-05
0.000705443 -1.23299e-06 9.10938e-08
-1.23299e-06 0.000165436 -1.40989e-06
9.10938e-08 -1.40989e-06 6.4848e-05
0.000672569 -3.65178e-05 2.38508e-07
-3.65178e-05 0.000170316 1.69774e-06
2.38508e-07 1.69774e-06 5.60897e-08
0.00157279 -0.000447252 3.31439e-06
-0.000447252 0.000454898 -1.29975e-07
3.31439e-06 -1.29975e-07 0.000127299
0.00163158 -0.000358021 1.67962e-05
-0.000358021 0.000748178 -4.3105e-06
1.67962e-05 -4.3105e-06 0.000302215
0.000448905 -5.8747e-05 -3.82165e-06
-5.8747e-05 -2.79508e-06 -1.21764e-06
-3.82165e-06 -1.21764e-06 -0.000286329
0.000582352 -4.79042e-05 9.78719e-07
-4.79042e-05 9.13358e-05 -1.46496e-06
9.78719e-07 -1.46496e-06 -0.000119518
0.00206689 -0.000131426 2.44825e-06
-0.000131426 -0.00010591 -1.28133e-06
2.44825e-06 -1.28133e-06 -7.12503e-05
0.00208463 -0.000368799 -1.36553e-06
-0.000368799 -0.000167007 1.39308e-06
-1.36553e-06 1.39308e-06 -1.958e-05
0.00217543 -0.00053381 -5.7707e-06
-0.00053381 3.44003e-05 -1.10405e-08
-5.7707e-06 -1.10405e-08 -1.43559e-05
0.00171184 -0.000691899 5.00086e-06
-0.000691899 1.17874e-07 -3.5692e-06
5.00086e-06 -3.5692e-06 -0.000190576
0.00110593 -0.000501283 -1.51504e-06
-0.000501283 0.00017295 -8.04712e-06
-1.51504e-06 -8.04712e-06 -0.00020908
0.00246286 -0.000828111 -1.22253e-05
-0.000828111 0.000723168 1.09791e-05
-1.22253e-05 1.09791e-05 0.000246092
0.000246285 4.83101e-05 -1.15639e-06
4.83101e-05 -0.000138387 -2.95449e-06
-1.15639e-06 -2.95449e-06 -0.000223386
0.000614915 -5.76871e-05 5.15419e-06
-5.76871e-05 7.29131e-05 -4.75901e-07
5.15419e-06 -4.75901e-07 -8.6368e-07
0.000989104 -0.000128114 1.64905e-06
-0.000128114 0.000306133 4.82956e-06
1.64905e-06 4.82956e-06 0.000203382
0.000535402 2.68429e-05 -3.9719e-06
2.68429e-05 7.03143e-05 8.96403e-06
-3.9719e-06 8.96403e-06 -7.22574e-05
0.000795416 -8.8758e-05 -5.19074e-06
-8.8758e-05 0.000222113 7.80672e-06
-5.19074e-06 7.80672e-06 4.86031e-05
0.00159392 -5.08217e-05 5.60271e-06
-5.08217e-05 0.000625687 -2.83768e-06
5.60271e-06 -2.83768e-06 0.000417873
-0.00103991 -0.000173008 7.49812e-06
-0.000173008 -0.000565144 3.62055e-07
7.49812e-06 3.62055e-07 -0.00119752
-0.000193493 -0.000403692 -3.30409e-05
-0.000403692 -0.000620485 5.70536e-06
-3.30409e-05 5.70536e-06 -0.00092819
0.00038142 5.75604e-05 -1.10603e-07
5.75604e-05 -3.42318e-05 -8.46235e-07
-1.10603e-07 -8.46235e-07 -0.000168595
0.00105142 0.000202381 -8.1504e-06
0.000202381 0.000431271 -5.75894e-06
-8.1504e-06 -5.75894e-06 0.000202757
0.00225118 0.000401282 -5.98148e-06
0.000401282 1.53828e-05 -3.19828e-06
-5.98148e-06 -3.19828e-06 -6.79352e-06
0.00222031 0.00052009 -3.46722e-06
0.00052009 0.000269939 5.85216e-07
-3.46722e-06 5.85216e-07 7.95316e-05
0.00186691 0.000298279 -6.99806e-06
0.000298279 0.000727079 -1.05938e-06
-6.99806e-06 -1.05938e-06 0.000519101
0.0017391 0.000423368 -4.37922e-06
0.000423368 0.000565013 -3.15883e-06
-4.37922e-06 -3.15883e-06 0.00027654
0.00200577 0.000592407 2.5124e-06
0.000592407 0.000315857 2.33635e-06
2.5124e-06 2.33635e-06 2.10275e-05
0.00173709 0.000562436 -1.12314e-07
0.000562436 0.000405197 -2.20519e-07
-1.12314e-07 -2.20519e-07 5.01935e-05
0.000473992 8.72937e-05 7.55712e-07
8.72937e-05 2.30673e-05 -9.94535e-07
7.55712e-07 -9.94535e-07 -0.000123581
0.00225798 0.000313205 -1.82911e-06
0.000313205 -4.04321e-05 -1.45437e-06
-1.82911e-06 -1.45437e-06 9.54685e-06
0.00141276 0.000280718 1.54154e-06
0.000280718 0.000592408 1.75625e-06
1.54154e-06 1.75625e-06 0.000342427
0.00149857 0.000414819 1.42047e-06
0.000414819 0.000403493 8.62645e-07
1.42047e-06 8.62645e-07 0.000115716
0.00245845 0.000510864 1.71104e-06
0.000510864 0.000269759 4.51288e-07
1.71104e-06 4.51288e-07 0.000166426
0.00163597 0.000596308 -1.87536e-06
0.000596308 1.01805e-05 -4.45092e-06
-1.87536e-06 -4.45092e-06 -0.00027501
0.00192506 0.000609481 4.45082e-07
0.000609481 0.000479989 3.33179e-07
4.45082e-07 3.33179e-07 0.000103974
0.00110413 0.000213983 -4.22464e-06
0.000213983 0.000443017 4.69813e-06
-4.22464e-06 4.69813e-06 0.000241085
0.00290999 0.000405221 -6.7077e-05
0.000405221 0.000392816 -1.87816e-05
-6.7077e-05 -1.87816e-05 0.00046282
0.00180247 0.000433675 -4.69882e-06
0.000433675 0.000730947 2.76679e-06
-4.69882e-06 2.76679e-06 0.000449557
0.00150559 0.000489156 -3.10721e-06
0.000489156 0.000324574 -5.58327e-06
-3.10721e-06 -5.58327e-06 -1.72324e-05
0.00221651 0.000656127 -3.51323e-05
0.000656127 0.000210378 -1.79661e-05
-3.51323e-05 -1.79661e-05 9.46041e-06
0.0010318 0.000546416 -2.61674e-05
0.000546416 -8.39265e-05 -3.47107e-06
-2.61674e-05 -3.47107e-06 -0.000437057
0.000415936 0.000574515 3.03851e-05
0.000574515 -0.00125024 -3.3539e-05
3.03851e-05 -3.3539e-05 -0.00124314
0.000263085 9.37687e-05 2.32536e-06
9.37687e-05 -0.000105826 -3.68366e-07
2.32536e-06 -3.68366e-07 -0.000212981
0.000560565 8.52263e-05 -5.63778e-07
8.52263e-05 9.56063e-05 1.01783e-06
-5.63778e-07 1.01783e-06 7.87321e-06
0.00173054 0.000130418 5.30609e-07
0.000130418 0.000767604 -2.15242e-06
5.30609e-07 -2.15242e-06 0.000684219
0.000491672 -6.42099e-05 6.10024e-07
-6.42099e-05 3.07568e-05 -3.47963e-06
6.10024e-07 -3.47963e-06 -7.80534e-05
0.000446554 -4.07016e-05 -1.14204e-06
-4.07016e-05 8.16904e-06 -4.55773e-07
-1.14204e-06 -4.55773e-07 -0.000117436
0.000929053 0.000160971 1.88982e-07
0.000160971 0.000307786 1.50726e-06
1.88982e-07 1.50726e-06 0.000166206
6.03815e-06 1.47241e-05 -2.86917e-06
1.47241e-05 -0.000264441 9.96459e-06
-2.86917e-06 9.96459e-06 -0.00034104
0.000565491 -1.69086e-05 -5.05307e-07
-1.69086e-05 7.5501e-05 -3.70187e-08
-5.05307e-07 -3.70187e-08 -3.82752e-05
0.000530898 5.72061e-05 1.68096e-07
5.72061e-05 4.62923e-05 -5.83436e-07
1.68096e-07 -5.83436e-07 -8.36076e-05
0.00095653 7.95549e-05 1.05445e-06
7.95549e-05 0.000274575 3.20541e-06
1.05445e-06 3.20541e-06 0.000214624
0.000624609 4.90561e-05 1.42981e-06
4.90561e-05 0.000111778 6.26839e-07
1.42981e-06 6.26839e-07 -2.4402e-05
0.00067058 3.51206e-05 -1.57518e-06
3.51206e-05 0.000115469 -1.41543e-06
-1.57518e-06 -1.41543e-06 2.15976e-05
0.00137954 9.62071e-05 -1.99221e-07
9.62071e-05 0.000551152 -9.71692e-06
-1.99221e-07 -9.71692e-06 0.000492745
0.000962379 9.93855e-05 -2.22274e-06
9.93855e-05 0.000296578 -2.35777e-06
-2.22274e-06 -2.35777e-06 0.000152827
0.00095399 0.000113069 1.17041e-06
0.000113069 0.000304779 9.24406e-07
1.17041e-06 9.24406e-07 0.000167861
0.000769485 6.5736e-05 3.68371e-07
6.5736e-05 0.000211207 1.43571e-06
3.68371e-07 1.43571e-06 5.59222e-05
0.000345715 -2.318e-05 8.06591e-08
-2.318e-05 -7.66847e-05 3.05471e-06
8.06591e-08 3.05471e-06 -0.000188332
0.000965969 -4.00721e-05 -1.12958e-07
-4.00721e-05 0.000361374 -1.33207e-06
-1.12958e-07 -1.33207e-06 0.000199852
0.00028084 -3.29271e-05 -1.79778e-06
-3.29271e-05 -0.000112515 2.70243e-06
-1.79778e-06 2.70243e-06 -0.000228767
0.000491634 3.43396e-06 -1.9436e-06
3.43396e-06 6.40753e-06 2.95718e-06
-1.9436e-06 2.95718e-06 -6.78871e-05
0.000511168 3.29474e-05 2.22377e-06
3.29474e-05 1.60234e-05 -1.38612e-07
2.22377e-06 -1.38612e-07 -5.57251e-05
0.000427224 2.15192e-05 1.05216e-06
2.15192e-05 -6.23899e-05 4.119e-06
1.05216e-06 4.119e-06 -8.28368e-05
0.000490617 6.29076e-06 -2.8981e-06
6.29076e-06 2.03599e-06 -3.01785e-06
-2.8981e-06 -3.01785e-06 -6.5727e-05
0.000899136 1.48657e-05 -2.98236e-06
1.48657e-05 0.000222655 -1.61432e-06
-2.98236e-06 -1.61432e-06 0.000205139
0.00253012 -9.61124e-06 1.35486e-05
-9.61124e-06 0.00121974 5.31204e-06
1.35486e-05 5.31204e-06 0.0012335
0.00137155 6.88492e-06 -6.40908e-06
6.88492e-06 0.000507009 -6.0512e-06
-6.40908e-06 -6.0512e-06 0.000492841
0.000774616 -1.37798e-05 4.20429e-06
-1.37798e-05 0.000133443 3.31466e-06
4.20429e-06 3.31466e-06 0.000140014
0.000777267 -2.29233e-05 3.16528e-07
-2.29233e-05 0.000130443 -2.46134e-06
3.16528e-07 -2.46134e-06 0.000136212
0.000528894 1.6377e-05 -1.21723e-06
1.6377e-05 3.33253e-06 -1.71091e-06
-1.21723e-06 -1.71091e-06 -3.95188e-05
0.000572307 -1.28033e-05 9.8217e-07
-1.28033e-05 2.57647e-05 -2.78772e-07
9.8217e-07 -2.78772e-07 -1.77668e-05
0.000530184 2.27228e-05 5.00829e-07
2.27228e-05 -1.91074e-05 -3.36861e-06
5.00829e-07 -3.36861e-06 -2.98861e-05
0.000811314 3.67695e-05 -1.93325e-07
3.67695e-05 0.000159457 9.06274e-08
-1.93325e-07 9.06274e-08 0.000147694
0.00209864 6.38618e-05 1.19657e-05
6.38618e-05 0.000964363 -4.20039e-06
1.19657e-05 -4.20039e-06 0.000976445
0.000503689 4.91699e-05 2.69114e-06
4.91699e-05 -1.71962e-05 4.12406e-06
2.69114e-06 4.12406e-06 -3.84117e-05
0.002263 8.57654e-05 -2.95614e-06
8.57654e-05 0.00107512 -2.38449e-07
-2.95614e-06 -2.38449e-07 0.00108216
0.00258035 0.000113243 -1.07979e-05
0.000113243 0.0012811 4.9215e-06
-1.07979e-05 4.9215e-06 0.00128094
0.00209172 0.000287311 -2.53627e-06
0.000287311 -1.89187e-05 -1.29137e-06
-2.53627e-06 -1.29137e-06 -3.12669e-05
0.00203896 9.14131e-05 1.2408e-07
9.14131e-05 -1.89111e-05 7.26463e-08
1.2408e-07 7.26463e-08 9.59314e-07
0.00193621 -4.03171e-06 -3.09381e-06
-4.03171e-06 4.74464e-06 -1.04895e-07
-3.09381e-06 -1.04895e-07 1.78261e-06
0.00202417 -6.93685e-06 1.39734e-07
-6.93685e-06 -3.48064e-05 -1.73677e-07
1.39734e-07 -1.73677e-07 -3.21841e-06
0.00220123 0.00015313 -2.25727e-07
0.00015313 -1.95936e-05 2.57281e-07
-2.25727e-07 2.57281e-07 1.22305e-05
0.00210502 8.04611e-05 7.56971e-06
8.04611e-05 -4.27934e-05 -4.39613e-06
7.56971e-06 -4.39613e-06 1.90126e-05
0.00221284 -5.76348e-06 1.81269e-06
-5.76348e-06 -6.30329e-05 -7.03682e-07
1.81269e-06 -7.03682e-07 1.69011e-06
0.00391692 0.000575147 4.28066e-05
0.000575147 -0.000413013 8.46852e-06
4.28066e-05 8.46852e-06 8.95992e-05
0.00240255 5.86633e-05 -2.81069e-05
5.86633e-05 0.000297704 2.78231e-05
-2.81069e-05 2.78231e-05 0.000459161
0.000511303 9.84895e-05 -1.10253e-06
9.84895e-05 3.31074e-05 -1.16886e-07
-1.10253e-06 -1.16886e-07 -5.07387e-05
0.00203966 -0.000114078 -4.86885e-07
-0.000114078 -2.52264e-05 1.30514e-07
-4.86885e-07 1.30514e-07 2.1863e-06
0.00209665 -0.000281017 1.41195e-06
-0.000281017 -1.64562e-05 3.63404e-08
1.41195e-06 3.63404e-08 7.07271e-06
0.00201089 -0.000390568 8.18871e-08
-0.000390568 1.1868e-06 8.18309e-07
8.18871e-08 8.18309e-07 -1.63785e-05
0.000906481 -0.000464057 -8.6349e-06
-0.000464057 2.63239e-05 5.34429e-06
-8.6349e-06 5.34429e-06 -0.000333008
0.00220519 -0.000729572 6.29937e-06
-0.000729572 0.000649379 6.95201e-06
6.29937e-06 6.95201e-06 0.00020088
0.001666 -0.000662219 -3.34519e-06
-0.000662219 0.000127759 -8.67861e-06
-3.34519e-06 -8.67861e-06 -0.000201891
0.00221339 -0.000585824 -3.67256e-06
-0.000585824 0.000189998 -3.12921e-07
-3.67256e-06 -3.12921e-07 5.05151e-05
0.00168879 -0.000445535 1.68036e-05
-0.000445535 0.000499136 -1.36658e-05
1.68036e-05 -1.36658e-05 0.000177791
0.000532599 -0.000228473 1.70642e-05
-0.000228473 8.55874e-05 -1.07831e-05
1.70642e-05 -1.07831e-05 -0.000295828
0.00136601 -8.57496e-05 2.32463e-06
-8.57496e-05 0.000525162 -3.14828e-07
2.32463e-06 -3.14828e-07 0.000269746
0.000529127 8.12767e-06 -4.52825e-08
8.12767e-06 3.02925e-06 1.19023e-06
-4.52825e-08 1.19023e-06 -4.15361e-05
0.000960208 -2.91157e-05 2.17879e-06
-2.91157e-05 0.000331215 2.06676e-06
2.17879e-06 2.06676e-06 0.000109414
0.000829864 -1.9181e-05 4.45878e-06
-1.9181e-05 0.000249878 -2.49424e-06
4.45878e-06 -2.49424e-06 0.000148583
0.000826279 -3.60833e-05 2.67441e-06
-3.60833e-05 0.000259989 -3.80044e-06
2.67441e-06 -3.80044e-06 8.93757e-05
0.000256776 -3.90605e-05 -4.0903e-06
-3.90605e-05 -0.000151552 1.18051e-06
-4.0903e-06 1.18051e-06 -0.00022538
0.00211752 -0.000147718 -5.49573e-07
-0.000147718 -0.000104125 -1.21624e-07
-5.49573e-07 -1.21624e-07 -4.81227e-05
0.00040291 3.12924e-05 -5.82922e-08
3.12924e-05 -3.2453e-05 -1.80775e-06
-5.82922e-08 -1.80775e-06 -0.000122523
0.000590878 -5.32915e-05 1.87433e-06
-5.32915e-05 7.61372e-05 8.30454e-07
1.87433e-06 8.30454e-07 -6.41935e-06
0.000822501 -0.000101037 1.72366e-06
-0.000101037 0.000200582 4.30397e-07
1.72366e-06 4.30397e-07 0.000103857
0.00211397 -0.000376827 1.62261e-06
-0.000376827 -0.000127861 -6.02993e-07
1.62261e-06 -6.02993e-07 -1.23385e-05
0.00219127 -0.000538101 6.62376e-07
-0.000538101 4.45234e-05 -9.84769e-07
6.62376e-07 -9.84769e-07 -5.85172e-06
0.000735372 -0.00042193 6.81131e-06
-0.00042193 -3.56782e-05 3.94395e-08
6.81131e-06 3.94395e-08 -0.000385824
0.00241674 -0.00082634 1.05799e-05
-0.00082634 0.000702214 -4.34764e-07
1.05799e-05 -4.34764e-07 0.000236562
0.00219897 -0.000731651 -2.41199e-06
-0.000731651 0.000290848 1.79464e-06
-2.41199e-06 1.79464e-06 8.06177e-05
0.000206909 -3.0586e-05 -6.38782e-07
-3.0586e-05 -0.00013106 -1.02647e-06
-6.38782e-07 -1.02647e-06 -0.000261529
0.000911629 -9.2164e-05 -1.26727e-06
-9.2164e-05 0.000306657 1.03719e-06
-1.26727e-06 1.03719e-06 0.000117997
0.00129415 -0.000567989 -6.0325e-06
-0.000567989 0.000244279 1.66103e-06
-6.0325e-06 1.66103e-06 -0.000124903
0.00041048 -0.000144314 3.62062e-07
-0.000144314 0.000122726 -2.78449e-06
3.62062e-07 -2.78449e-06 -0.000370813
0.000768076 -6.02051e-05 7.8552e-07
-6.02051e-05 0.00012728 1.98184e-06
7.8552e-07 1.98184e-06 -7.16361e-05
0.00253706 -0.000279716 -2.67737e-06
-0.000279716 0.000137246 -1.7893e-07
-2.67737e-06 -1.7893e-07 0.00019856
0.00191331 -0.000407068 -1.70959e-05
-0.000407068 -0.000234413 4.84868e-06
-1.70959e-05 4.84868e-06 -7.00732e-05
0.00208577 -0.000674133 -1.0647e-05
-0.000674133 7.08896e-05 5.27788e-07
-1.0647e-05 5.27788e-07 -8.58094e-05
0.00335163 -0.000894895 -2.09408e-05
-0.000894895 0.00105503 -1.13143e-06
-2.09408e-05 -1.13143e-06 0.000769481
0.0008473 -0.00053458 -2.4242e-05
-0.00053458 1.91501e-05 -2.60736e-06
-2.4242e-05 -2.60736e-06 -0.000360647
0.000232355 -1.8575e-05 1.92553e-06
-1.8575e-05 -0.000133442 8.58733e-07
1.92553e-06 8.58733e-07 -0.000235569
0.000439825 6.42375e-06 7.017e-07
6.42375e-06 -5.35103e-05 4.16717e-06
7.017e-07 4.16717e-06 -0.000147083
-0.000322621 -4.1248e-05 -1.09628e-06
-4.1248e-05 -0.000487662 -3.02395e-06
-1.09628e-06 -3.02395e-06 -0.000581004
0.00195028 -0.000248891 -1.20651e-05
-0.000248891 0.00096311 1.60046e-05
-1.20651e-05 1.60046e-05 0.000789676
0.00100435 -9.56305e-05 -5.86134e-06
-9.56305e-05 0.000330742 1.5173e-05
-5.86134e-06 1.5173e-05 0.000162316
-0.00110426 -8.99218e-05 2.6257e-06
-8.99218e-05 -0.000507145 3.89694e-06
2.6257e-06 3.89694e-06 -0.0010941
-0.000232482 -0.000685084 -6.91808e-06
-0.000685084 -0.000257994 -4.82609e-06
-6.91808e-06 -4.82609e-06 -0.00088245
0.0011237 0.000152287 -9.6095e-07
0.000152287 0.000431209 -5.71225e-06
-9.6095e-07 -5.71225e-06 0.000262126
0.000415037 0.00013111 -3.66781e-06
0.00013111 -3.88204e-05 -2.93286e-06
-3.66781e-06 -2.93286e-06 -0.000248121
0.00239564 0.000291077 6.39149e-06
0.000291077 3.54879e-05 -6.16725e-08
6.39149e-06 -6.16725e-08 9.76608e-05
0.00233463 0.000504621 1.60379e-05
0.000504621 0.000203056 5.34894e-06
1.60379e-05 5.34894e-06 0.000104494
0.00217015 0.000634802 1.83827e-05
0.000634802 0.000318627 4.74004e-06
1.83827e-05 4.74004e-06 3.16474e-05
0.00126667 0.00038999 -8.779e-07
0.00038999 0.000273045 9.09318e-07
-8.779e-07 9.09318e-07 -1.3489e-05
0.00165635 0.000576687 3.49872e-06
0.000576687 0.000335893 3.28755e-06
3.49872e-06 3.28755e-06 -3.41478e-05
0.00168166 0.000212667 1.07362e-07
0.000212667 0.000755927 -8.76364e-08
1.07362e-07 -8.76364e-08 0.000569717
0.00253231 0.000340756 -1.59793e-07
0.000340756 0.000210719 1.51293e-06
-1.59793e-07 1.51293e-06 0.000297338
0.00129407 0.000349127 -2.03758e-06
0.000349127 0.00040384 2.17858e-06
-2.03758e-06 2.17858e-06 0.000147993
0.001653 0.000510017 2.26702e-06
0.000510017 0.000439758 -7.3126e-07
2.26702e-06 -7.3126e-07 8.3693e-05
0.00208065 0.000637243 -3.205e-06
0.000637243 0.000137762 -3.2895e-06
-3.205e-06 -3.2895e-06 -4.35533e-05
0.00165378 0.000613923 -4.36621e-06
0.000613923 0.000278716 4.824e-06
-4.36621e-06 4.824e-06 -9.03877e-05
0.00304447 0.000819093 5.42205e-05
0.000819093 -0.000151992 4.68461e-06
5.42205e-05 4.68461e-06 -0.000270806
0.0010714 0.000264709 -5.39536e-06
0.000264709 0.000417945 2.13776e-06
-5.39536e-06 2.13776e-06 0.000204191
0.00320185 0.000614993 -8.20951e-05
0.000614993 0.00071482 -3.33464e-05
-8.20951e-05 -3.33464e-05 0.000659603
0.000936693 0.000366535 -4.28942e-06
0.000366535 5.13411e-05 3.27931e-07
-4.28942e-06 3.27931e-07 -0.000225277
7.82399e-05 0.000373521 -2.80674e-06
0.000373521 -0.000479558 -1.44068e-05
-2.80674e-06 -1.44068e-05 -0.000815546
0.00065796 0.000614969 -3.52667e-05
0.000614969 -0.00043882 -9.66217e-06
-3.52667e-05 -9.66217e-06 -0.000648896
0.0132374 0.000364682 -0.000368061
0.000364682 0.00232982 -4.60735e-05
-0.000368061 -4.60735e-05 0.00159226
0.00517765 0.00132344 3.41691e-05
0.00132344 -0.000416895 -8.1098e-05
3.41691e-05 -8.1098e-05 6.91928e-05
-0.00073471 0.000848116 -2.9259e-06
0.000848116 -0.00129944 2.70206e-06
-2.9259e-06 2.70206e-06 -0.00159241
-0.00188918 -0.00149972 0.000994159
-0.00149972 0.00052015 0.000217787
0.000994159 0.000217787 -0.00204362
0.0162029 -0.00584744 -1.27894e-05
-0.00584744 0.00520633 6.21833e-05
-1.27894e-05 6.21833e-05 0.00478303
7.76256e-05 8.58606e-05 7.02704e-06
8.58606e-05 -0.000174524 1.4541e-06
7.02704e-06 1.4541e-06 -0.00026691
0.00104935 9.43587e-05 5.14726e-07
9.43587e-05 0.000390717 -2.39886e-06
5.14726e-07 -2.39886e-06 0.000310017
0.00189401 0.000215338 -7.41247e-07
0.000215338 0.000923128 -1.03458e-06
-7.41247e-07 -1.03458e-06 0.000812954
0.000534895 -5.82046e-05 -8.73898e-07
-5.82046e-05 6.56914e-05 -2.52391e-06
-8.73898e-07 -2.52391e-06 -5.31798e-05
0.00048448 6.21445e-05 -1.08702e-06
6.21445e-05 1.96233e-05 -2.13212e-06
-1.08702e-06 -2.13212e-06 -0.00011314
0.000739499 -1.511e-05 -2.53119e-08
-1.511e-05 0.000181994 -7.55811e-07
-2.53119e-08 -7.55811e-07 4.41857e-05
0.000679771 5.69506e-05 -3.8724e-06
5.69506e-05 0.000115943 7.97393e-06
-3.8724e-06 7.97393e-06 1.72706e-05
0.000484181 6.02544e-05 2.79096e-06
6.02544e-05 -1.36723e-05 7.8074e-06
2.79096e-06 7.8074e-06 -7.63487e-05
0.00067519 0.000110652 -1.81712e-06
0.000110652 0.000154752 -5.0661e-07
-1.81712e-06 -5.0661e-07 1.34386e-06
0.000445861 -5.92154e-06 4.0867e-07
-5.92154e-06 -6.60355e-06 9.3677e-07
4.0867e-07 9.3677e-07 -0.000122281
0.000661544 3.4621e-05 -4.90591e-07
3.4621e-05 0.000139182 -3.98966e-08
-4.90591e-07 -3.98966e-08 -9.64197e-06
0.000551522 7.28592e-05 -3.15694e-07
7.28592e-05 3.87001e-05 -4.04684e-07
-3.15694e-07 -4.04684e-07 -1.99441e-05
0.000719216 9.51232e-05 -1.41131e-06
9.51232e-05 0.000156123 -3.72487e-07
-1.41131e-06 -3.72487e-07 1.60936e-05
0.00115987 0.000143124 -1.68566e-06
0.000143124 0.000443907 -1.05433e-06
-1.68566e-06 -1.05433e-06 0.000281267
0.000341221 8.86608e-05 8.42916e-07
8.86608e-05 -3.14949e-05 -2.76289e-06
8.42916e-07 -2.76289e-06 -0.000178507
0.000791134 9.61858e-05 2.47338e-06
9.61858e-05 0.000216382 5.39784e-07
2.47338e-06 5.39784e-07 6.91944e-05
0.000548947 -3.03715e-05 1.78463e-06
-3.03715e-05 5.576e-05 7.02436e-07
1.78463e-06 7.02436e-07 -9.03919e-05
0.00036704 -6.52089e-05 -1.38407e-06
-6.52089e-05 -5.76019e-05 2.6928e-06
-1.38407e-06 2.6928e-06 -0.000177478
0.000740251 -1.93146e-05 -8.64017e-07
-1.93146e-05 0.000185596 4.86174e-08
-8.64017e-07 4.86174e-08 3.54816e-05
0.00101547 2.1161e-05 -8.6371e-08
2.1161e-05 0.000348377 -7.33587e-06
-8.6371e-08 -7.33587e-06 0.000203966
0.000549581 -3.03622e-05 -1.02916e-06
-3.03622e-05 9.41981e-05 -1.31909e-07
-1.02916e-06 -1.31909e-07 -4.60081e-05
0.000774395 -4.09717e-05 1.68403e-06
-4.09717e-05 0.000218377 -6.00486e-07
1.68403e-06 -6.00486e-07 7.34508e-05
0.00065868 -0.000109776 -2.67384e-06
-0.000109776 0.000127784 1.70978e-06
-2.67384e-06 1.70978e-06 9.77578e-06
0.000348693 -2.0813e-05 1.48339e-07
-2.0813e-05 -6.73018e-05 1.1198e-06
1.48339e-07 1.1198e-06 -0.000186812
0.000524416 -4.35266e-05 -2.27249e-06
-4.35266e-05 1.79311e-05 3.16001e-06
-2.27249e-06 3.16001e-06 -5.19967e-05
0.000525697 -3.1423e-05 1.69293e-06
-3.1423e-05 2.48321e-05 5.98685e-08
1.69293e-06 5.98685e-08 -4.83341e-05
0.000491743 4.51313e-06 1.68425e-06
4.51313e-06 -2.07356e-05 6.0272e-06
1.68425e-06 6.0272e-06 -4.20747e-05
0.000545652 4.05127e-05 -1.58265e-06
4.05127e-05 3.22376e-05 -3.07081e-06
-1.58265e-06 -3.07081e-06 -3.64114e-05
0.000452657 2.30936e-05 4.31047e-07
2.30936e-05 -4.60619e-05 6.05862e-08
4.31047e-07 6.05862e-08 -6.69473e-05
0.00246885 9.79414e-07 1.09334e-06
9.79414e-07 0.0011838 5.28744e-06
1.09334e-06 5.28744e-06 0.00119739
0.000517258 2.48276e-05 -2.42545e-06
2.48276e-05 -1.12171e-05 -6.48216e-06
-2.42545e-06 -6.48216e-06 -3.20612e-05
0.00167552 -7.92908e-06 -1.08815e-06
-7.92908e-06 0.000692072 1.19353e-07
-1.08815e-06 1.19353e-07 0.000701467
0.000786585 -1.31879e-05 5.54134e-07
-1.31879e-05 0.000137398 -2.26009e-06
5.54134e-07 -2.26009e-06 0.000144161
0.000508673 -6.88534e-06 6.42469e-07
-6.88534e-06 -9.17727e-06 -1.25104e-06
6.42469e-07 -1.25104e-06 -4.80684e-05
0.000570888 -3.27516e-05 2.39693e-07
-3.27516e-05 3.08497e-05 -4.55561e-08
2.39693e-07 -4.55561e-08 -1.36409e-05
0.000544393 1.3373e-05 9.61879e-07
1.3373e-05 -1.24134e-05 -3.02661e-06
9.61879e-07 -3.02661e-06 -2.10629e-05
0.00052266 -2.80703e-05 -2.032e-06
-2.80703e-05 -5.44414e-06 1.16478e-06
-2.032e-06 1.16478e-06 -4.87855e-05
0.000800126 2.68678e-05 -5.35493e-08
2.68678e-05 0.000147881 -7.31439e-07
-5.35493e-08 -7.31439e-07 0.000139197
0.00198543 4.74545e-05 8.37938e-06
4.74545e-05 0.000889084 -4.31044e-06
8.37938e-06 -4.31044e-06 0.000904245
0.000506067 3.26974e-05 -3.06952e-07
3.26974e-05 -2.81377e-05 3.31077e-06
-3.06952e-07 3.31077e-06 -4.21977e-05
0.00214557 6.6963e-05 -6.41067e-06
6.6963e-05 0.000996059 1.1188e-06
-6.41067e-06 1.1188e-06 0.00100731
0.00232648 9.05078e-05 -9.34025e-06
9.05078e-05 0.00111566 4.47435e-06
-9.34025e-06 4.47435e-06 0.00112157
0.00217196 0.000157446 -3.00463e-06
0.000157446 -1.97486e-05 -1.36762e-06
-3.00463e-06 -1.36762e-06 1.1022e-05
0.00201529 -5.84616e-06 8.98885e-08
-5.84616e-06 -3.86329e-05 9.2959e-08
8.98885e-08 9.2959e-08 -7.50548e-06
0.00184761 5.82379e-05 8.21839e-07
5.82379e-05 -0.000223582 6.84063e-07
8.21839e-07 6.84063e-07 -0.000165311
0.00240573 0.000419233 6.73444e-05
0.000419233 -0.00102957 1.57335e-05
6.73444e-05 1.57335e-05 -0.000607171
0.00218751 -2.72375e-05 -1.59535e-06
-2.72375e-05 -5.98607e-05 -1.99405e-06
-1.59535e-06 -1.99405e-06 5.22366e-06
0.00210691 6.18256e-05 1.53123e-06
6.18256e-05 0.000136381 -7.82495e-06
1.53123e-06 -7.82495e-06 0.000251096
0.0032407 -3.09307e-05 -2.63438e-05
-3.09307e-05 0.00090653 3.99111e-06
-2.63438e-05 3.99111e-06 0.000904462
0.00265926 -1.65559e-05 -8.55808e-07
-1.65559e-05 -0.00172205 -2.53737e-05
-8.55808e-07 -2.53737e-05 -0.00100398
0.00265848 0.000158502 8.65183e-05
0.000158502 -0.000490618 5.22991e-05
8.65183e-05 5.22991e-05 -8.00201e-05
0.00058748 8.05958e-05 4.88111e-07
8.05958e-05 8.20358e-05 -2.16681e-07
4.88111e-07 -2.16681e-07 -3.50688e-06
0.000588366 -5.45644e-06 4.57542e-07
-5.45644e-06 8.83536e-05 -1.22648e-07
4.57542e-07 -1.22648e-07 -1.92099e-06
0.000496136 -0.000100689 -2.4934e-06
-0.000100689 3.61265e-05 1.40009e-06
-2.4934e-06 1.40009e-06 -6.87725e-05
0.000490759 -4.88835e-05 -1.59269e-06
-4.88835e-05 5.10749e-05 1.23767e-06
-1.59269e-06 1.23767e-06 -6.02001e-05
0.00218013 -0.000164396 -4.03899e-06
-0.000164396 -9.00738e-05 9.65046e-07
-4.03899e-06 9.65046e-07 -1.73817e-05
0.00213747 -0.000379922 1.88535e-06
-0.000379922 -8.70976e-05 -8.97587e-07
1.88535e-06 -8.97587e-07 -8.82303e-07
0.00217835 -0.000536421 -1.78803e-06
-0.000536421 4.03908e-05 1.21016e-06
-1.78803e-06 1.21016e-06 -9.2675e-06
0.00302885 -0.000673188 1.04819e-05
-0.000673188 0.00127097 3.43507e-06
1.04819e-05 3.43507e-06 0.000883986
0.000675034 -0.000645581 9.44436e-06
-0.000645581 -0.000255339 -3.04485e-06
9.44436e-06 -3.04485e-06 -0.000687028
0.00234622 -0.000737729 4.882e-06
-0.000737729 0.000394768 -2.81602e-06
4.882e-06 -2.81602e-06 0.000174482
0.00188993 -0.00064262 1.16075e-06
-0.00064262 0.000577153 -4.43555e-06
1.16075e-06 -4.43555e-06 0.00017173
0.00276155 -0.00018794 3.73361e-06
-0.00018794 0.00133371 -1.80319e-06
3.73361e-06 -1.80319e-06 0.000981826
-0.000160306 -2.53636e-05 -1.30483e-06
-2.53636e-05 -0.000453557 1.40267e-06
-1.30483e-06 1.40267e-06 -0.000629908
0.000669877 -5.34358e-05 5.13991e-07
-5.34358e-05 0.000129347 6.16458e-07
5.13991e-07 6.16458e-07 4.60921e-05
0.000577855 -0.000108911 1.02638e-06
-0.000108911 0.000115597 -7.1003e-06
1.02638e-06 -7.1003e-06 -8.09321e-05
0.000749458 5.20947e-07 2.91187e-06
5.20947e-07 0.000212241 -4.60507e-06
2.91187e-06 -4.60507e-06 7.43148e-05
0.000619411 1.8192e-06 -1.29394e-07
1.8192e-06 0.000113681 2.7341e-07
-1.29394e-07 2.7341e-07 1.67499e-05
0.000539341 -3.88613e-05 -7.69781e-06
-3.88613e-05 1.9705e-05 3.0377e-06
-7.69781e-06 3.0377e-06 -6.68663e-05
0.00249217 -0.000262615 1.66309e-06
-0.000262615 0.000118225 1.13363e-06
1.66309e-06 1.13363e-06 0.000196546
0.000582603 -2.60682e-05 3.35279e-07
-2.60682e-05 9.58355e-05 6.02596e-07
3.35279e-07 6.02596e-07 -2.07166e-05
0.000813522 -1.98235e-05 4.83971e-06
-1.98235e-05 0.000195805 -7.27086e-07
4.83971e-06 -7.27086e-07 8.88249e-05
-6.55361e-05 -8.28043e-06 1.50645e-06
-8.28043e-06 -0.000318118 8.78331e-07
1.50645e-06 8.78331e-07 -0.000391119
0.00186173 -0.000410984 2.08449e-07
-0.000410984 -0.000292951 -1.29575e-06
2.08449e-07 -1.29575e-06 -0.000133091
0.00209327 -0.000670439 2.01135e-06
-0.000670439 7.6359e-05 -1.29304e-06
2.01135e-06 -1.29304e-06 -7.21403e-05
0.00176696 -0.000671816 -1.27958e-06
-0.000671816 0.000521165 -2.6771e-07
-1.27958e-06 -2.6771e-07 0.000121216
0.00224717 -0.000801078 -5.86459e-06
-0.000801078 0.000451311 1.40314e-06
-5.86459e-06 1.40314e-06 0.000174776
0.00130063 -0.000106562 -6.41816e-07
-0.000106562 0.000532575 1.02648e-06
-6.41816e-07 1.02648e-06 0.00037696
0.00031296 -4.82125e-05 3.91107e-06
-4.82125e-05 -0.000103004 8.48419e-07
3.91107e-06 8.48419e-07 -0.000269767
0.00145479 -0.000813207 4.26448e-06
-0.000813207 0.000701664 -1.45905e-06
4.26448e-06 -1.45905e-06 5.99982e-05
0.00120488 -0.000298585 -3.1966e-06
-0.000298585 0.000553996 -6.97565e-08
-3.1966e-06 -6.97565e-08 0.000117626
0.00295843 -0.000365594 -3.06919e-05
-0.000365594 0.000267837 -9.9346e-07
-3.06919e-05 -9.9346e-07 0.000491185
0.00233001 -0.00054113 -4.18029e-05
-0.00054113 0.000132257 1.13434e-05
-4.18029e-05 1.13434e-05 0.000177738
0.00234568 -0.000798229 -7.25908e-06
-0.000798229 0.000357081 -3.3527e-06
-7.25908e-06 -3.3527e-06 9.28568e-05
0.00237243 -0.000762208 -1.39078e-05
-0.000762208 0.000701768 1.06626e-06
-1.39078e-05 1.06626e-06 0.000427345
0.00034025 -4.2756e-05 -7.77379e-07
-4.2756e-05 -2.23353e-05 -3.01669e-06
-7.77379e-07 -3.01669e-06 -0.000143791
0.000244589 -8.57481e-05 -4.52632e-06
-8.57481e-05 -0.000115219 -9.63345e-06
-4.52632e-06 -9.63345e-06 -0.000261423
5.59006e-05 -0.000150974 -4.54673e-06
-0.000150974 -9.16601e-06 2.64569e-05
-4.54673e-06 2.64569e-05 -0.000279697
-0.000848202 -0.000513792 -5.24934e-06
-0.000513792 -0.000115868 -2.27345e-05
-5.24934e-06 -2.27345e-05 -0.000968033
0.00174402 -0.000496111 3.55968e-05
-0.000496111 -0.00445962 1.43989e-06
3.55968e-05 1.43989e-06 -0.00452493
0.00193669 0.00020416 -6.41462e-07
0.00020416 0.000892798 -4.73922e-06
-6.41462e-07 -4.73922e-06 0.000713107
0.000966144 0.000295677 -2.61561e-07
0.000295677 0.000204225 -3.13252e-08
-2.61561e-07 -3.13252e-08 -4.00356e-05
0.00203299 0.000293751 6.52568e-05
0.000293751 -6.00749e-05 1.69682e-05
6.52568e-05 1.69682e-05 4.05166e-05
0.00227773 0.000641573 2.84432e-05
0.000641573 0.000247766 1.00874e-05
2.84432e-05 1.00874e-05 7.79712e-05
0.00209838 0.000663197 1.40726e-05
0.000663197 0.000544396 1.17033e-05
1.40726e-05 1.17033e-05 0.000160878
0.00143991 0.000491546 7.14231e-06
0.000491546 0.000333975 7.88142e-06
7.14231e-06 7.88142e-06 -2.72205e-05
0.00459914 0.00100464 0.000114019
0.00100464 0.000366998 4.3628e-05
0.000114019 4.3628e-05 7.51948e-05
0.00138907 0.000257391 4.39797e-06
0.000257391 0.000599341 4.57684e-08
4.39797e-06 4.57684e-08 0.000394856
0.00252881 0.000560862 -1.66216e-05
0.000560862 0.0003291 -5.2921e-08
-1.66216e-05 -5.2921e-08 0.00029854
0.0010203 0.000376795 -2.72351e-06
0.000376795 0.000133372 2.49928e-06
-2.72351e-06 2.49928e-06 -0.000149292
0.00141419 0.000538905 2.04329e-06
0.000538905 0.000282243 -4.67015e-06
2.04329e-06 -4.67015e-06 -8.33442e-05
0.00161032 0.000694388 -8.94169e-06
0.000694388 6.11455e-05 -1.94443e-07
-8.94169e-06 -1.94443e-07 -0.000169385
0.00388696 -0.000565571 -0.000158394
-0.000565571 -0.00384733 -5.59216e-05
-0.000158394 -5.59216e-05 -0.00486795
0.00706672 0.00124879 -8.05384e-05
0.00124879 0.000392362 -6.61444e-05
-8.05384e-05 -6.61444e-05 0.000603749
0.00120525 0.000909107 -1.02693e-05
0.000909107 -0.000222224 8.51387e-06
-1.02693e-05 8.51387e-06 -0.000588829
-0.000858281 -0.00126667 0.000370778
-0.00126667 0.0021271 0.000157483
0.000370778 0.000157483 -0.000304007
0.00779037 -0.00581668 -0.000336617
-0.00581668 0.00294839 -0.00032208
-0.000336617 -0.00032208 0.00250568
0.00137522 0.00027529 -1.27117e-05
0.00027529 0.000532212 8.79167e-07
-1.27117e-05 8.79167e-07 0.00033561
0.00054932 0.000522469 0.00051422
0.000522469 0.00322023 5.61344e-05
0.00051422 5.61344e-05 0.00151204
0.00189892 -0.00184859 -0.000160434
-0.00184859 0.00425361 -0.000217303
-0.000160434 -0.000217303 0.000458611
0.0023989 0.000849604 -4.42178e-05
0.000849604 0.000321339 -1.27365e-05
-4.42178e-05 -1.27365e-05 0.000226197
0.000928499 0.00028073 -2.24694e-05
0.00028073 8.80657e-05 -7.0962e-06
-2.24694e-05 -7.0962e-06 -0.000156058
0.000695204 0.000555828 -3.18465e-05
0.000555828 -6.18022e-05 -2.61369e-05
-3.18465e-05 -2.61369e-05 -0.000374486
0.000237914 0.000887413 3.6432e-05
0.000887413 -0.000634469 8.94777e-05
3.6432e-05 8.94777e-05 -0.000943756
0.0119991 0.0017445 2.54814e-05
0.0017445 0.0018868 -4.9017e-05
2.54814e-05 -4.9017e-05 0.000415599
0.0030609 0.00174009 -1.06825e-05
0.00174009 2.67016e-05 -3.53785e-05
-1.06825e-05 -3.53785e-05 -0.000376258
0.00912685 -0.00497431 0.000774873
-0.00497431 0.0022362 0.000453299
0.000774873 0.000453299 0.000505544
0.0102703 -0.00234995 -5.01555e-05
-0.00234995 0.00170171 0.000470296
-5.01555e-05 0.000470296 0.00113854
0.000509337 8.00574e-05 6.80294e-06
8.00574e-05 9.4151e-05 -1.8518e-06
6.80294e-06 -1.8518e-06 1.35083e-05
0.000380919 0.000118992 7.64339e-06
0.000118992 1.90038e-05 3.17078e-07
7.64339e-06 3.17078e-07 -8.25984e-05
0.00186238 0.00025533 2.1944e-06
0.00025533 0.000922171 -2.98827e-06
2.1944e-06 -2.98827e-06 0.000767097
0.0005922 1.1246e-05 8.03911e-07
1.1246e-05 0.000105765 -7.72458e-07
8.03911e-07 -7.72458e-07 -2.38138e-05
0.000676258 5.84461e-05 -1.35734e-06
5.84461e-05 0.00014556 -1.70408e-06
-1.35734e-06 -1.70408e-06 8.53605e-07
0.000323609 1.47093e-05 -1.46055e-06
1.47093e-05 -7.29545e-05 7.05959e-07
-1.46055e-06 7.05959e-07 -0.000210461
0.00053328 8.54682e-05 -6.55893e-06
8.54682e-05 5.57783e-05 1.48738e-06
-6.55893e-06 1.48738e-06 -8.50349e-05
-0.000396958 4.67226e-05 -3.38345e-06
4.67226e-05 -0.000546454 1.34901e-06
-3.38345e-06 1.34901e-06 -0.000604812
0.000379425 -1.05669e-05 2.16536e-07
-1.05669e-05 -4.35684e-05 9.51331e-07
2.16536e-07 9.51331e-07 -0.00016708
0.00111646 9.42126e-05 1.2983e-06
9.42126e-05 0.000415039 -3.88616e-07
1.2983e-06 -3.88616e-07 0.000259202
0.000668137 4.62787e-05 5.88075e-07
4.62787e-05 0.00014878 3.13958e-07
5.88075e-07 3.13958e-07 -3.03176e-06
0.000722759 2.59456e-05 1.16366e-06
2.59456e-05 0.000180812 -4.53758e-07
1.16366e-06 -4.53758e-07 2.1795e-05
0.00058015 9.97446e-05 -3.55369e-07
9.97446e-05 0.000114235 -1.84672e-06
-3.55369e-07 -1.84672e-06 -3.01779e-05
0.00119905 0.000103393 -2.09848e-06
0.000103393 0.000485632 -1.74797e-06
-2.09848e-06 -1.74797e-06 0.000327405
-0.000170949 4.02078e-05 -5.37824e-06
4.02078e-05 -0.000279921 -4.51194e-06
-5.37824e-06 -4.51194e-06 -0.000446924
0.000711083 -9.39633e-05 -1.53646e-07
-9.39633e-05 0.000168147 -1.92709e-07
-1.53646e-07 -1.92709e-07 1.59664e-05
0.000767064 -7.22943e-05 -6.23972e-07
-7.22943e-05 0.000217608 1.9072e-08
-6.23972e-07 1.9072e-08 5.68087e-05
0.000753283 -4.09527e-05 -1.40346e-07
-4.09527e-05 0.000206104 -3.41138e-07
-1.40346e-07 -3.41138e-07 4.69623e-05
0.00077565 -1.30989e-05 -2.51142e-06
-1.30989e-05 0.000188414 -8.59657e-08
-2.51142e-06 -8.59657e-08 5.68239e-05
0.000872738 1.85201e-05 -4.84439e-06
1.85201e-05 0.000292988 -3.78803e-06
-4.84439e-06 -3.78803e-06 0.000117962
0.000736711 -1.86437e-05 1.93789e-06
-1.86437e-05 0.000184344 -5.80926e-06
1.93789e-06 -5.80926e-06 5.15219e-05
-0.000640894 -2.01329e-05 -1.63118e-06
-2.01329e-05 -0.000673397 -4.96963e-06
-1.63118e-06 -4.96963e-06 -0.000783937
0.0006335 -3.62025e-05 1.50396e-06
-3.62025e-05 0.000105102 -9.11635e-07
1.50396e-06 -9.11635e-07 -3.34648e-05
0.000434781 -7.09231e-05 1.5964e-06
-7.09231e-05 -3.8814e-06 1.12259e-06
1.5964e-06 1.12259e-06 -0.000130314
0.000674355 -7.26713e-05 -9.86212e-07
-7.26713e-05 0.000162727 -2.86429e-07
-9.86212e-07 -2.86429e-07 2.36789e-05
0.000545744 -7.35983e-05 -2.20803e-06
-7.35983e-05 4.29187e-05 1.47095e-06
-2.20803e-06 1.47095e-06 -6.06261e-05
0.000496158 -5.80704e-05 2.69887e-06
-5.80704e-05 2.12807e-05 3.28003e-07
2.69887e-06 3.28003e-07 -0.000106485
0.000537298 -9.96683e-05 9.05986e-08
-9.96683e-05 5.00812e-05 2.61898e-07
9.05986e-08 2.61898e-07 -6.66831e-05
0.000561686 -4.25278e-05 -2.42892e-06
-4.25278e-05 3.88057e-05 3.509e-06
-2.42892e-06 3.509e-06 -3.19715e-05
0.000426111 -7.81567e-06 1.52533e-06
-7.81567e-06 -6.87311e-06 -8.1497e-07
1.52533e-06 -8.1497e-07 -0.000136198
0.000522325 1.42296e-06 1.81581e-06
1.42296e-06 2.35641e-05 5.76827e-08
1.81581e-06 5.76827e-08 -5.03338e-05
0.00142835 -1.27727e-05 -6.15988e-06
-1.27727e-05 0.000550377 6.1958e-06
-6.15988e-06 6.1958e-06 0.000533049
0.000524962 5.61237e-05 -1.13771e-06
5.61237e-05 2.47408e-05 -3.0366e-06
-1.13771e-06 -3.0366e-06 -4.82672e-05
0.000896476 -8.31878e-06 -2.95428e-06
-8.31878e-06 0.000227897 7.49855e-07
-2.95428e-06 7.49855e-07 0.000208737
0.000777647 3.0086e-06 -3.73244e-06
3.0086e-06 0.000144341 4.81987e-06
-3.73244e-06 4.81987e-06 0.000149994
0.00045261 -5.31495e-06 2.06902e-06
-5.31495e-06 -4.59628e-05 -4.45058e-06
2.06902e-06 -4.45058e-06 -6.67651e-05
0.00248942 1.65616e-06 5.58256e-06
1.65616e-06 0.00119661 -1.517e-08
5.58256e-06 -1.517e-08 0.00121016
0.00088157 -2.57959e-07 -5.70569e-06
-2.57959e-07 0.000203963 -5.1698e-06
-5.70569e-06 -5.1698e-06 0.000209354
0.000528342 6.38885e-05 2.67913e-06
6.38885e-05 5.02513e-05 6.34507e-07
2.67913e-06 6.34507e-07 -4.21072e-05
0.000500158 4.37554e-05 -1.82922e-06
4.37554e-05 -5.05708e-06 -1.78666e-06
-1.82922e-06 -1.78666e-06 -4.81528e-05
0.00051873 -6.12262e-06 1.35132e-06
-6.12262e-06 4.85917e-06 3.70089e-08
1.35132e-06 3.70089e-08 -3.91403e-05
0.000528729 8.46664e-06 9.0848e-07
8.46664e-06 -2.15228e-05 -2.94111e-06
9.0848e-07 -2.94111e-06 -2.94832e-05
0.000568213 -5.03697e-05 -1.90522e-06
-5.03697e-05 3.32515e-05 1.648e-06
-1.90522e-06 1.648e-06 -1.41085e-05
0.000506825 1.37e-05 6.99284e-08
1.37e-05 -3.62098e-05 -7.47854e-07
6.99284e-08 -7.47854e-07 -4.45239e-05
0.00197241 3.2499e-05 5.77468e-06
3.2499e-05 0.000877128 -4.45878e-06
5.77468e-06 -4.45878e-06 0.00089415
0.00108936 3.41645e-05 -6.79506e-07
3.41645e-05 0.000327575 1.72428e-06
-6.79506e-07 1.72428e-06 0.000320144
0.00144905 4.1236e-05 -1.2322e-07
4.1236e-05 0.000557496 1.37915e-06
-1.2322e-07 1.37915e-06 0.000568345
0.000882885 4.50848e-05 -1.03438e-05
4.50848e-05 0.0002129 7.3028e-06
-1.03438e-05 7.3028e-06 0.000217282
0.00101951 0.000285417 8.9038e-05
0.000285417 -0.00164086 1.40048e-05
8.9038e-05 1.40048e-05 -0.00124585
0.00214778 -4.33404e-05 -2.35311e-06
-4.33404e-05 -5.61859e-05 3.25294e-06
-2.35311e-06 3.25294e-06 2.16571e-06
0.00206661 7.29311e-05 3.50695e-05
7.29311e-05 0.000134471 -1.51123e-05
3.50695e-05 -1.51123e-05 0.000235845
0.00213066 0.000256057 -4.03462e-05
0.000256057 -0.00154732 -2.90584e-05
-4.03462e-05 -2.90584e-05 -0.000609613
0.00197063 9.34918e-05 3.10053e-05
9.34918e-05 -0.000663373 -2.19405e-06
3.10053e-05 -2.19405e-06 -0.000373018
0.00242535 -3.93902e-05 2.98205e-06
-3.93902e-05 0.000344352 -6.863e-06
2.98205e-06 -6.863e-06 0.000360591
0.00389125 -0.000218019 -4.57632e-05
-0.000218019 0.000860729 -1.26928e-05
-4.57632e-05 -1.26928e-05 0.00084588
0.0026441 -0.0001089 2.49724e-05
-0.0001089 -3.22789e-05 2.58637e-05
2.49724e-05 2.58637e-05 0.000111533
0.0132785 -0.00072216 1.07545e-05
-0.00072216 0.00256305 2.4531e-05
1.07545e-05 2.4531e-05 0.00116419
0.0136411 0.00381978 0.000967742
0.00381978 0.0054776 -0.000382962
0.000967742 -0.000382962 0.00383067
0.0126265 0.00440785 -6.71182e-06
0.00440785 0.0084927 5.68158e-06
-6.71182e-06 5.68158e-06 0.00718498
0.000308483 -9.67115e-05 1.43446e-06
-9.67115e-05 -7.4284e-05 -3.14628e-07
1.43446e-06 -3.14628e-07 -0.00017728
0.000578716 -1.00025e-05 1.29762e-06
-1.00025e-05 7.84951e-05 -1.3668e-07
1.29762e-06 -1.3668e-07 -8.4227e-06
0.000662606 -8.71208e-05 -1.31657e-06
-8.71208e-05 0.000142083 1.60914e-06
-1.31657e-06 1.60914e-06 4.45721e-05
0.0005743 -4.37823e-05 1.25546e-07
-4.37823e-05 8.24706e-05 4.69287e-07
1.25546e-07 4.69287e-07 -2.322e-05
0.000673942 7.32939e-05 -2.32543e-06
7.32939e-05 0.000171052 2.10327e-06
-2.32543e-06 2.10327e-06 4.85989e-05
0.000403991 0.000114218 2.06434e-06
0.000114218 -3.69139e-05 5.80238e-06
2.06434e-06 5.80238e-06 -0.00015005
0.000956511 -1.79802e-05 3.72887e-06
-1.79802e-05 0.000337368 1.92633e-06
3.72887e-06 1.92633e-06 0.000210908
0.0005002 -2.57827e-05 -1.50042e-06
-2.57827e-05 3.93919e-05 1.15401e-06
-1.50042e-06 1.15401e-06 -6.66143e-05
0.00242911 -0.000248179 6.46301e-06
-0.000248179 7.56415e-05 4.37629e-07
6.46301e-06 4.37629e-07 0.000179681
0.00187951 -0.000427654 1.50016e-05
-0.000427654 -0.00032042 -5.16586e-06
1.50016e-05 -5.16586e-06 -0.000170381
0.00214716 -0.000672799 5.48703e-06
-0.000672799 0.000105757 1.46121e-06
5.48703e-06 1.46121e-06 -3.8587e-05
0.00170862 -0.00065595 2.25127e-05
-0.00065595 0.000472322 8.88036e-07
2.25127e-05 8.88036e-07 8.39293e-05
0.00203828 -0.000799549 1.85427e-06
-0.000799549 0.000333713 5.43384e-06
1.85427e-06 5.43384e-06 5.16827e-05
0.00341082 -0.000971335 2.05869e-05
-0.000971335 0.00180281 -1.0543e-06
2.05869e-05 -1.0543e-06 0.00112866
0.00329635 -0.000494253 2.64132e-06
-0.000494253 0.00156938 -2.6469e-06
2.64132e-06 -2.6469e-06 0.00122506
0.000611949 -0.000146671 8.78258e-06
-0.000146671 0.000105799 -1.44381e-05
8.78258e-06 -1.44381e-05 -9.58148e-05
0.000538448 -5.26504e-05 -5.58921e-07
-5.26504e-05 2.57398e-05 3.9341e-06
-5.58921e-07 3.9341e-06 -7.13209e-05
0.000626473 -8.61114e-05 7.57072e-06
-8.61114e-05 9.41254e-05 -1.82831e-05
7.57072e-06 -1.82831e-05 -4.31998e-05
0.000954409 -3.49002e-05 1.91024e-06
-3.49002e-05 0.000322555 -1.65104e-07
1.91024e-06 -1.65104e-07 0.000200649
0.000565256 4.10583e-05 2.33893e-06
4.10583e-05 7.41257e-05 9.82304e-07
2.33893e-06 9.82304e-07 1.87027e-05
0.00222317 -0.000332017 -1.24108e-06
-0.000332017 -7.51482e-05 3.41511e-06
-1.24108e-06 3.41511e-06 0.000138592
0.000537781 -2.678e-05 -2.11137e-06
-2.678e-05 9.47614e-05 -1.00613e-06
-2.11137e-06 -1.00613e-06 -2.87274e-05
0.00095605 -0.00014578 -5.66414e-06
-0.00014578 0.000310583 5.72027e-06
-5.66414e-06 5.72027e-06 0.000176812
0.00174365 -0.000519708 5.09999e-06
-0.000519708 -0.000202826 -2.28546e-06
5.09999e-06 -2.28546e-06 -0.000142294
0.00171517 -0.000716101 6.98558e-07
-0.000716101 9.47923e-06 -6.82233e-07
6.98558e-07 -6.82233e-07 -0.000201817
0.000872744 -0.000607393 -4.56949e-07
-0.000607393 -0.000139571 -1.20362e-06
-4.56949e-07 -1.20362e-06 -0.000391793
0.00153225 -0.000266643 1.12742e-06
-0.000266643 0.000791398 -1.44547e-05
1.12742e-06 -1.44547e-05 0.000497569
0.00154141 -0.000556417 -1.78582e-06
-0.000556417 0.00110169 2.54271e-06
-1.78582e-06 2.54271e-06 0.000378739
0.00389251 -0.000574214 -4.22051e-05
-0.000574214 0.000732398 8.63691e-06
-4.22051e-05 8.63691e-06 0.000874429
0.00361338 -0.000787653 -5.05692e-05
-0.000787653 0.00103586 1.49856e-05
-5.05692e-05 1.49856e-05 0.000919283
0.00200531 -0.00080747 -7.84147e-06
-0.00080747 0.000264366 1.18898e-06
-7.84147e-06 1.18898e-06 4.65966e-05
-0.000232367 -0.000406815 -1.48038e-05
-0.000406815 -0.000505186 1.84966e-05
-1.48038e-05 1.84966e-05 -0.000684498
0.000460653 -0.000137079 1.84662e-06
-0.000137079 6.79304e-05 5.98637e-06
1.84662e-06 5.98637e-06 -0.000109324
0.000493461 -0.000151039 4.16689e-06
-0.000151039 0.000132142 5.70832e-08
4.16689e-06 5.70832e-08 -7.24011e-05
0.00161973 -0.000195033 -2.12953e-06
-0.000195033 0.00111437 -1.53918e-05
-2.12953e-06 -1.53918e-05 0.000547193
-0.00625402 -0.000247479 0.000405751
-0.000247479 -0.00457949 -3.96011e-06
0.000405751 -3.96011e-06 -0.00344079
0.0109927 -0.000249003 4.58657e-05
-0.000249003 0.0019897 5.9652e-06
4.58657e-05 5.9652e-06 0.00163165
0.00171965 0.000234667 7.42125e-06
0.000234667 0.000765538 -6.51833e-06
7.42125e-06 -6.51833e-06 0.000585149
0.00141346 0.000420969 -2.88615e-06
0.000420969 0.000397772 4.28578e-06
-2.88615e-06 4.28578e-06 0.000101972
0.00229291 0.000494566 8.11417e-05
0.000494566 0.000227429 3.52097e-05
8.11417e-05 3.52097e-05 0.000213473
0.00295086 0.000813016 2.67737e-05
0.000813016 0.000768461 9.81874e-06
2.67737e-05 9.81874e-06 0.000508625
0.00265084 0.000689353 1.71414e-05
0.000689353 0.00098434 5.91124e-06
1.71414e-05 5.91124e-06 0.000594457
0.0138019 0.0006854 7.23542e-05
0.0006854 0.00309385 -1.01313e-05
7.23542e-05 -1.01313e-05 0.00210975
0.00803936 0.00170309 -0.000195435
0.00170309 5.23774e-05 3.03863e-05
-0.000195435 3.03863e-05 0.000310627
0.00287411 0.000989015 3.40347e-06
0.000989015 0.000723865 -2.91207e-05
3.40347e-06 -2.91207e-05 0.000262947
0.0117564 -0.00293508 -0.000344346
-0.00293508 0.00502739 -2.52044e-05
-0.000344346 -2.52044e-05 0.00324377
-0.00208686 -0.00593317 -0.00170642
-0.00593317 0.000497796 -0.00116456
-0.00170642 -0.00116456 -0.000340159
0.000979484 0.000273826 8.97968e-07
0.000273826 0.000341049 3.6235e-07
8.97968e-07 3.6235e-07 0.000127119
-0.00226809 -0.00171338 0.000315445
-0.00171338 -0.00269516 5.54215e-05
0.000315445 5.54215e-05 -0.00378168
-0.00329868 -0.00135111 -0.00033714
-0.00135111 0.00365956 -0.000159198
-0.00033714 -0.000159198 -0.000470378
0.00309701 0.000823253 -1.7701e-05
0.000823253 0.000675148 -5.2514e-07
-1.7701e-05 -5.2514e-07 0.000597196
0.00102928 0.000356313 -6.18461e-06
0.000356313 0.00018704 5.29002e-06
-6.18461e-06 5.29002e-06 -9.35353e-05
0.00142894 0.000663111 4.11145e-06
0.000663111 0.00033581 2.52514e-06
4.11145e-06 2.52514e-06 -8.20793e-06
0.00151624 0.000865497 4.07625e-05
0.000865497 0.000211887 2.28545e-05
4.07625e-05 2.28545e-05 1.08982e-05
0.0132749 0.00165352 -0.000121712
0.00165352 0.00169092 -6.95033e-05
-0.000121712 -6.95033e-05 -0.000259818
0.00531205 0.00236763 -6.49144e-05
0.00236763 0.000359306 -4.76061e-05
-6.49144e-05 -4.76061e-05 0.000327033
0.0159189 -0.00362209 0.000354001
-0.00362209 0.00643212 -1.83727e-05
0.000354001 -1.83727e-05 0.00456701
0.0112587 -0.00311071 0.000199159
-0.00311071 0.000876722 0.000571211
0.000199159 0.000571211 0.000312465
0.00237602 0.000339929 -1.9797e-05
0.000339929 0.00115614 -1.234e-05
-1.9797e-05 -1.234e-05 0.000970286
-0.00974114 0.000889799 -0.000125626
0.000889799 0.00248818 -0.000113537
-0.000125626 -0.000113537 -0.00261815
0.00428366 0.000623845 -0.000291044
0.000623845 0.00309107 -0.000386809
-0.000291044 -0.000386809 -0.00112123
0.00257732 0.00066361 -2.65008e-05
0.00066361 0.000649364 7.63622e-06
-2.65008e-05 7.63622e-06 0.000638695
0.0019476 0.000615867 -6.45584e-05
0.000615867 0.000763359 -2.50691e-05
-6.45584e-05 -2.50691e-05 0.000459472
0.00166571 0.000668655 -7.11969e-05
0.000668655 0.00114989 -1.58388e-05
-7.11969e-05 -1.58388e-05 0.00052383
-5.7761e-05 0.00147227 -5.93767e-05
0.00147227 -0.000295947 -3.37682e-05
-5.93767e-05 -3.37682e-05 -0.00047551
-0.000575903 0.00194399 0.000293724
0.00194399 -0.00164726 0.000130932
0.000293724 0.000130932 -0.00462213
0.0158639 -0.00435282 0.000245766
-0.00435282 0.00714736 0.00054489
0.000245766 0.00054489 0.00468904
0.00764392 -0.00126524 -0.000116073
-0.00126524 -0.00203749 -0.000114879
-0.000116073 -0.000114879 -0.000882859
-0.000483496 0.000104003 2.76955e-06
0.000104003 -0.00046569 -6.38363e-06
2.76955e-06 -6.38363e-06 -0.000587137
0.00136482 0.00023003 1.02278e-05
0.00023003 0.000607498 3.55093e-06
1.02278e-05 3.55093e-06 0.000454896
-0.000267095 8.04764e-05 1.21602e-06
8.04764e-05 -0.000314344 -1.10514e-05
1.21602e-06 -1.10514e-05 -0.000455186
0.0003605 5.19803e-05 1.9033e-06
5.19803e-05 -5.45264e-05 -8.39375e-07
1.9033e-06 -8.39375e-07 -0.000177661
0.000853438 6.86369e-05 -9.41399e-07
6.86369e-05 0.000267544 -1.68166e-06
-9.41399e-07 -1.68166e-06 0.000103893
0.000638544 6.31677e-07 -1.39406e-06
6.31677e-07 0.000136332 1.69591e-06
-1.39406e-06 1.69591e-06 -2.1074e-05
0.000587845 5.03963e-05 4.53607e-06
5.03963e-05 9.96724e-05 2.03147e-06
4.53607e-06 2.03147e-06 -5.62076e-05
0.000115203 6.87214e-05 -3.45406e-06
6.87214e-05 -0.00016195 9.7682e-07
-3.45406e-06 9.7682e-07 -0.000299268
0.000750571 4.64105e-05 1.082e-07
4.64105e-05 0.000208184 -9.17715e-07
1.082e-07 -9.17715e-07 4.74634e-05
0.000765588 7.01123e-05 7.00491e-07
7.01123e-05 0.000212508 -2.6645e-07
7.00491e-07 -2.6645e-07 6.29584e-05
0.000805259 -5.31234e-05 -8.90344e-07
-5.31234e-05 0.000224921 1.47368e-06
-8.90344e-07 1.47368e-06 7.10228e-05
-0.000460109 2.91059e-05 2.14715e-06
2.91059e-05 -0.000428804 6.25437e-07
2.14715e-06 6.25437e-07 -0.000600925
-0.000633113 3.61208e-05 -1.66236e-06
3.61208e-05 -0.000288438 3.32289e-06
-1.66236e-06 3.32289e-06 -0.000576915
0.000772529 -1.66889e-05 -4.87528e-06
-1.66889e-05 0.000247349 -6.83733e-06
-4.87528e-06 -6.83733e-06 9.51546e-05
0.000920099 -1.25037e-05 2.19357e-07
-1.25037e-05 0.000319525 -8.48643e-07
2.19357e-07 -8.48643e-07 0.00014422
0.000793233 -6.9798e-05 -2.36117e-07
-6.9798e-05 0.000237476 -1.04944e-06
-2.36117e-07 -1.04944e-06 7.25113e-05
0.000701476 -6.16063e-05 2.21203e-06
-6.16063e-05 0.000133522 4.17656e-06
2.21203e-06 4.17656e-06 9.45482e-06
0.000791113 -6.44635e-05 9.75707e-07
-6.44635e-05 0.000229014 -1.25761e-06
9.75707e-07 -1.25761e-06 6.33272e-05
0.000732775 -2.09744e-05 -1.35795e-06
-2.09744e-05 0.000174719 1.40987e-07
-1.35795e-06 1.40987e-07 4.33602e-05
-7.37448e-05 -6.10276e-05 1.56598e-06
-6.10276e-05 -0.000314544 2.83423e-06
1.56598e-06 2.83423e-06 -0.00042375
0.000396865 -2.22734e-05 1.28823e-06
-2.22734e-05 -9.86381e-06 -3.08568e-07
1.28823e-06 -3.08568e-07 -0.000146813
0.000165483 -1.09847e-05 -5.74058e-06
-1.09847e-05 -0.000129286 -4.69257e-06
-5.74058e-06 -4.69257e-06 -0.000276824
9.82081e-05 -6.46099e-05 2.97673e-06
-6.46099e-05 -0.000175148 -3.51437e-06
2.97673e-06 -3.51437e-06 -0.000297063
0.00100694 -8.82363e-05 5.85746e-06
-8.82363e-05 0.000259724 -1.23284e-05
5.85746e-06 -1.23284e-05 0.000160291
-0.000485355 -1.71573e-05 5.70442e-07
-1.71573e-05 -0.000654518 2.40074e-06
5.70442e-07 2.40074e-06 -0.000784617
9.8891e-05 -3.51738e-05 -4.18615e-06
-3.51738e-05 -0.000205573 -2.07964e-06
-4.18615e-06 -2.07964e-06 -0.000344609
0.00073353 -5.4535e-05 6.00978e-07
-5.4535e-05 0.000162311 -6.06684e-07
6.00978e-07 -6.06684e-07 2.21037e-05
0.00038108 -3.84383e-05 4.40538e-07
-3.84383e-05 -4.30423e-05 -3.00376e-07
4.40538e-07 -3.00376e-07 -0.000178171
0.000708628 -7.94404e-05 3.87578e-07
-7.94404e-05 0.000183459 5.13609e-08
3.87578e-07 5.13609e-08 4.12117e-05
0.000492882 -1.5523e-05 2.40685e-07
-1.5523e-05 1.74781e-05 1.64729e-06
2.40685e-07 1.64729e-06 -9.14326e-05
0.000862571 -7.0241e-05 -1.35891e-06
-7.0241e-05 0.000274128 4.07051e-07
-1.35891e-06 4.07051e-07 0.00013595
0.000630066 -6.88427e-05 -9.12487e-07
-6.88427e-05 0.000106566 4.82886e-08
-9.12487e-07 4.82886e-08 -5.28693e-06
0.00046551 3.42764e-05 -8.83772e-07
3.42764e-05 -2.13242e-05 3.19812e-06
-8.83772e-07 3.19812e-06 -9.30789e-05
0.000484497 -9.09605e-05 2.13674e-06
-9.09605e-05 1.19522e-05 -8.43552e-07
2.13674e-06 -8.43552e-07 -0.000102207
0.00054141 -2.60846e-05 -3.39761e-07
-2.60846e-05 2.39139e-05 9.48329e-08
-3.39761e-07 9.48329e-08 -4.49262e-05
0.00141886 9.22943e-06 -6.33725e-06
9.22943e-06 0.000539637 6.534e-06
-6.33725e-06 6.534e-06 0.000521551
0.000525249 -4.81301e-05 1.53849e-06
-4.81301e-05 2.15549e-05 -2.8589e-06
1.53849e-06 -2.8589e-06 -4.97282e-05
0.000898202 -8.33628e-06 -4.5762e-06
-8.33628e-06 0.000224224 7.35412e-07
-4.5762e-06 7.35412e-07 0.000204927
0.000755902 1.35421e-05 6.75551e-07
1.35421e-05 0.000124124 2.08657e-06
6.75551e-07 2.08657e-06 0.000129248
0.000465881 -6.39872e-06 1.82661e-06
-6.39872e-06 -3.90054e-05 -4.27641e-06
1.82661e-06 -4.27641e-06 -5.95053e-05
0.00249135 1.38377e-05 6.09486e-06
1.38377e-05 0.00119796 4.81856e-08
6.09486e-06 4.81856e-08 0.00121149
0.00249962 2.25278e-06 -3.20115e-07
2.25278e-06 0.00120295 -5.08634e-06
-3.20115e-07 -5.08634e-06 0.00121646
0.000995892 7.48833e-05 -4.12567e-07
7.48833e-05 0.000333793 -6.5132e-09
-4.12567e-07 -6.5132e-09 0.000240367
0.000533507 5.26915e-05 -1.33721e-06
5.26915e-05 1.9384e-05 -2.14334e-06
-1.33721e-06 -2.14334e-06 -2.78086e-05
0.000574346 -1.32274e-05 2.7435e-07
-1.32274e-05 7.98541e-05 8.57355e-07
2.7435e-07 8.57355e-07 -1.23033e-05
0.000522596 5.23632e-06 9.20233e-07
5.23632e-06 -2.51278e-05 -3.20238e-06
9.20233e-07 -3.20238e-06 -3.29236e-05
0.000508476 -1.46358e-05 4.9863e-07
-1.46358e-05 -7.9346e-08 -9.60481e-08
4.9863e-07 -9.60481e-08 -4.30558e-05
0.0005608 -5.04875e-05 -1.61106e-06
-5.04875e-05 3.25692e-05 1.41491e-06
-1.61106e-06 1.41491e-06 -1.29962e-05
0.000514688 7.413e-06 -3.82091e-07
7.413e-06 -3.04284e-05 -2.69099e-08
-3.82091e-07 -2.69099e-08 -3.83005e-05
0.00196957 1.90359e-05 8.75835e-07
1.90359e-05 0.0008729 -4.60404e-06
8.75835e-07 -4.60404e-06 0.000890922
0.00109128 2.21544e-05 -8.20446e-07
2.21544e-05 0.000326115 1.79721e-06
-8.20446e-07 1.79721e-06 0.000320853
0.0013296 2.70574e-05 -4.3194e-07
2.70574e-05 0.000478228 -1.78328e-08
-4.3194e-07 -1.78328e-08 0.000491974
0.000816806 3.22169e-05 -1.05663e-05
3.22169e-05 0.000165928 6.99848e-06
-1.05663e-05 6.99848e-06 0.000173951
-0.00931552 0.000838557 0.000352085
0.000838557 -0.00358698 -8.09691e-06
0.000352085 -8.09691e-06 -0.0056187
-0.0021492 -8.84925e-05 0.000684678
-8.84925e-05 0.00453986 -0.000165533
0.000684678 -0.000165533 0.00162895
0.00345368 0.000270669 -0.000191881
0.000270669 -0.00114121 -2.69559e-05
-0.000191881 -2.69559e-05 3.19798e-05
0.00101083 4.75918e-05 2.14457e-05
4.75918e-05 -0.00114463 -3.64804e-05
2.14457e-05 -3.64804e-05 -0.000837575
0.0016021 -5.71499e-05 8.89736e-06
-5.71499e-05 -0.000222903 8.93707e-06
8.89736e-06 8.93707e-06 -0.000205617
-0.000853557 5.52581e-05 -6.38576e-05
5.52581e-05 -0.00114977 -1.89067e-05
-6.38576e-05 -1.89067e-05 -0.000515498
0.0036636 -0.000269828 8.40883e-07
-0.000269828 0.000554969 4.71997e-06
8.40883e-07 4.71997e-06 0.000605044
0.011058 2.182e-07 0.000133639
2.182e-07 0.000168272 -4.93224e-05
0.000133639 -4.93224e-05 -0.000767794
-0.000641206 0.00249103 -7.78805e-06
0.00249103 0.000257737 -4.55916e-05
-7.78805e-06 -4.55916e-05 -0.00231212
0.00608759 0.00492653 -0.000346234
0.00492653 0.0047696 0.000185932
-0.000346234 0.000185932 0.00388295
0.00227947 -0.000525895 6.56682e-05
-0.000525895 -0.00134829 -3.91165e-05
6.56682e-05 -3.91165e-05 -0.00064983
0.0144819 -0.00143116 0.000173999
-0.00143116 0.00238061 -6.39547e-05
0.000173999 -6.39547e-05 0.000762101
0.00999778 0.00472365 0.000316611
0.00472365 0.00252947 -0.000463709
0.000316611 -0.000463709 0.000979904
0.0140623 0.00310431 -0.000300042
0.00310431 0.00350257 0.000219024
-0.000300042 0.000219024 0.00237095
0.000813202 0.000129511 -1.96185e-06
0.000129511 0.000263118 2.97536e-06
-1.96185e-06 2.97536e-06 0.000112529
0.00040616 2.86195e-05 1.12993e-07
2.86195e-05 -2.38812e-05 -8.77027e-07
1.12993e-07 -8.77027e-07 -0.000121318
0.000591146 -9.3518e-05 -1.94743e-07
-9.3518e-05 9.35108e-05 6.97095e-07
-1.94743e-07 6.97095e-07 1.65985e-06
0.000586345 -5.03128e-07 2.9187e-06
-5.03128e-07 9.65826e-05 -1.10271e-06
2.9187e-06 -1.10271e-06 -1.35761e-05
0.000636369 6.12805e-05 1.65297e-06
6.12805e-05 0.000155083 1.22732e-06
1.65297e-06 1.22732e-06 3.12991e-05
0.000621637 2.3232e-05 8.67315e-07
2.3232e-05 0.000139409 5.77085e-06
8.67315e-07 5.77085e-06 -1.02876e-05
0.000722734 9.27428e-05 1.17664e-06
9.27428e-05 0.000177916 2.47627e-06
1.17664e-06 2.47627e-06 5.11022e-05
0.000525057 4.5301e-05 5.0606e-06
4.5301e-05 4.06935e-05 9.57853e-07
5.0606e-06 9.57853e-07 -8.91233e-05
0.000728764 -3.40959e-05 2.29796e-06
-3.40959e-05 0.000197188 -1.10232e-06
2.29796e-06 -1.10232e-06 7.02681e-05
0.0004847 -7.83867e-06 4.7719e-08
-7.83867e-06 1.60166e-05 -1.4485e-06
4.7719e-08 -1.4485e-06 -8.39351e-05
0.00155379 -0.000294365 2.44811e-05
-0.000294365 -0.000368317 -1.53419e-06
2.44811e-05 -1.53419e-06 -0.000177322
0.00108922 -0.000479019 3.67956e-05
-0.000479019 -0.000568381 -8.96148e-06
3.67956e-05 -8.96148e-06 -0.00047899
0.000645496 -0.000590661 1.32071e-05
-0.000590661 -0.000583285 -8.56455e-07
1.32071e-05 -8.56455e-07 -0.000722925
-6.5063e-05 -0.000518937 5.26592e-06
-0.000518937 -0.000646544 1.19223e-06
5.26592e-06 1.19223e-06 -0.000882497
0.00306712 -0.000530481 6.2051e-06
-0.000530481 0.00185764 2.63593e-05
6.2051e-06 2.63593e-05 0.00125374
0.000333079 -0.000367846 5.58081e-06
-0.000367846 5.90153e-05 -2.88035e-06
5.58081e-06 -2.88035e-06 -0.000293246
0.00146449 -0.00018433 1.91425e-06
-0.00018433 0.000602645 -1.13267e-06
1.91425e-06 -1.13267e-06 0.000484094
0.000860074 -3.8544e-05 -2.62795e-06
-3.8544e-05 0.000290151 2.50131e-06
-2.62795e-06 2.50131e-06 0.000163606
0.00222033 -0.000447028 1.35067e-05
-0.000447028 -0.000109819 -7.0884e-06
1.35067e-05 -7.0884e-06 6.39772e-05
0.000512514 -6.37606e-05 5.3951e-08
-6.37606e-05 0.000104623 4.30794e-07
5.3951e-08 4.30794e-07 -8.3519e-05
-0.000124442 -0.000136461 3.78801e-07
-0.000136461 -0.0002292 -3.37814e-06
3.78801e-07 -3.37814e-06 -0.000434153
0.00196079 -0.000657343 1.28368e-05
-0.000657343 0.000121062 -1.83443e-06
1.28368e-05 -1.83443e-06 7.04886e-05
0.0017808 -0.000807091 -1.64667e-07
-0.000807091 5.72036e-05 4.14323e-06
-1.64667e-07 4.14323e-06 -0.000100687
0.00020564 -0.00052424 1.53218e-05
-0.00052424 -0.000242256 -9.35529e-06
1.53218e-05 -9.35529e-06 -0.000486384
0.00136706 -0.000267642 5.70812e-07
-0.000267642 0.000955371 -1.19385e-05
5.70812e-07 -1.19385e-05 0.000397519
0.00265188 -0.000718583 -6.44893e-05
-0.000718583 0.000581515 2.25433e-05
-6.44893e-05 2.25433e-05 0.000271194
0.00135839 -0.0006192 -4.39467e-05
-0.0006192 6.25867e-06 1.38552e-05
-4.39467e-05 1.38552e-05 -4.92789e-05
0.00115115 -0.000530819 -7.15131e-05
-0.000530819 0.000586311 4.63639e-05
-7.15131e-05 4.63639e-05 0.000215364
-0.00177647 -0.000142856 -1.75677e-06
-0.000142856 -0.00126549 7.77994e-06
-1.75677e-06 7.77994e-06 -0.00145679
-0.000277836 -0.000105919 4.50199e-06
-0.000105919 -0.000314046 5.85223e-06
4.50199e-06 5.85223e-06 -0.000543208
0.000666898 -5.62139e-05 8.13408e-06
-5.62139e-05 0.000344043 -4.94783e-06
8.13408e-06 -4.94783e-06 1.30502e-05
-0.00162242 0.000859772 -0.000295285
0.000859772 0.00599487 1.50731e-05
-0.000295285 1.50731e-05 0.00235303
0.000942348 -0.00103583 -9.40033e-07
-0.00103583 0.00180984 2.27e-05
-9.40033e-07 2.27e-05 0.00148688
0.00166133 0.000997771 -8.61836e-05
0.000997771 -0.00441329 -3.5987e-05
-8.61836e-05 -3.5987e-05 -0.00472112
0.000245239 0.000208222 7.67457e-06
0.000208222 -7.64739e-05 -3.05688e-06
7.67457e-06 -3.05688e-06 -0.000283971
0.00119752 0.000446841 8.59937e-06
0.000446841 0.000319519 1.77225e-05
8.59937e-06 1.77225e-05 -2.12398e-06
0.0038215 0.000772778 5.76934e-05
0.000772778 0.00107131 1.74512e-05
5.76934e-05 1.74512e-05 0.00099575
0.00157969 0.000704782 1.97553e-05
0.000704782 0.000429932 2.20612e-05
1.97553e-05 2.20612e-05 6.40961e-05
0.0105445 -0.00196315 0.000140913
-0.00196315 0.00357781 4.23096e-05
0.000140913 4.23096e-05 0.00340469
0.00390322 0.000744546 -0.000306006
0.000744546 -0.00322438 -3.77223e-05
-0.000306006 -3.77223e-05 -0.00515122
0.0045006 0.00219369 -2.06642e-05
0.00219369 -5.44984e-05 1.27946e-05
-2.06642e-05 1.27946e-05 1.29172e-05
0.0024607 0.000751557 3.97802e-05
0.000751557 0.000958939 -2.6399e-05
3.97802e-05 -2.6399e-05 0.000802639
0.000756459 -0.00239617 -0.000314778
-0.00239617 0.00120526 -0.000290412
-0.000314778 -0.000290412 -0.000862717
-0.000780994 -0.00213133 -0.000404193
-0.00213133 0.00391267 -0.000139383
-0.000404193 -0.000139383 -0.000300518
0.0175853 -0.00389874 0.000471346
-0.00389874 0.00417965 0.000287826
0.000471346 0.000287826 0.00361396
0.000559516 0.000201482 1.33454e-05
0.000201482 0.000104328 -3.66535e-06
1.33454e-05 -3.66535e-06 -7.79017e-05
-0.00376714 0.000334236 -0.00014918
0.000334236 0.00419843 -3.30583e-05
-0.00014918 -3.30583e-05 -8.58229e-05
0.00476093 0.000784877 -6.65596e-05
0.000784877 0.0027377 -0.000138312
-6.65596e-05 -0.000138312 -0.00178468
0.00169548 0.000655659 3.35786e-06
0.000655659 0.00026709 5.28376e-06
3.35786e-06 5.28376e-06 0.000198484
0.000476903 0.000458382 9.23886e-06
0.000458382 4.86203e-05 3.88899e-06
9.23886e-06 3.88899e-06 -0.000268481
4.06147e-05 0.000655767 -2.36349e-05
0.000655767 0.000107792 -5.36548e-05
-2.36349e-05 -5.36548e-05 -0.000366064
0.00355654 0.00225127 7.73946e-06
0.00225127 0.00107258 1.34518e-05
7.73946e-06 1.34518e-05 0.000759035
0.0160867 0.00262329 7.7102e-05
0.00262329 0.00450735 2.36414e-05
7.7102e-05 2.36414e-05 0.00240469
0.0061462 -0.00275595 6.92609e-05
-0.00275595 0.00144608 -6.67545e-05
6.92609e-05 -6.67545e-05 -0.00149888
0.0131822 -0.00197668 -3.13218e-06
-0.00197668 0.00181435 -5.98118e-05
-3.13218e-06 -5.98118e-05 0.00312349
0.000264558 0.000293309 -6.68057e-06
0.000293309 -1.98022e-05 -1.24316e-05
-6.68057e-06 -1.24316e-05 -0.000225102
0.00233349 0.000172984 -0.000245765
0.000172984 0.00167037 -5.13395e-05
-0.000245765 -5.13395e-05 -0.00184502
0.000353224 0.000406972 -7.10205e-05
0.000406972 -0.000155763 -0.000148313
-7.10205e-05 -0.000148313 -0.00168775
-0.00100113 0.000196654 1.36909e-06
0.000196654 -0.000395201 -2.37118e-05
1.36909e-06 -2.37118e-05 -0.000606257
-0.000111649 0.000409499 -0.000108006
0.000409499 0.00110658 1.07513e-05
-0.000108006 1.07513e-05 0.000286832
0.0130736 0.00324243 7.41361e-05
0.00324243 0.00453047 -1.71399e-05
7.41361e-05 -1.71399e-05 0.00076147
-0.00433757 -0.00390105 -1.17926e-05
-0.00390105 -0.00141193 0.00021457
-1.17926e-05 0.00021457 -0.00515041
0.0105579 0.00055738 4.57251e-05
0.00055738 -0.00142551 -0.000276149
4.57251e-05 -0.000276149 0.001153
0.00093579 0.000174035 -1.71774e-06
0.000174035 0.000324095 1.33661e-05
-1.71774e-06 1.33661e-05 0.000186987
0.000891554 0.000194888 -9.56436e-06
0.000194888 0.000390398 -2.77875e-06
-9.56436e-06 -2.77875e-06 0.000226627
2.56023e-05 0.000112117 3.09975e-06
0.000112117 5.94361e-05 -4.70397e-06
3.09975e-06 -4.70397e-06 -0.000202574
0.000718849 8.37953e-05 -1.80092e-06
8.37953e-05 0.000174697 -2.04006e-06
-1.80092e-06 -2.04006e-06 2.3957e-05
0.000994674 -3.82323e-05 -8.00005e-07
-3.82323e-05 0.000346275 2.99752e-06
-8.00005e-07 2.99752e-06 0.000185616
0.000562527 6.72078e-05 2.73928e-06
6.72078e-05 7.91059e-05 1.86296e-06
2.73928e-06 1.86296e-06 -6.32291e-05
-0.000933806 1.2457e-05 2.57262e-06
1.2457e-05 -0.000688286 1.91016e-06
2.57262e-06 1.91016e-06 -0.000862966
0.000772069 -2.31948e-05 1.19457e-06
-2.31948e-05 0.000206404 1.65211e-07
1.19457e-06 1.65211e-07 4.86709e-05
0.000679473 1.43887e-05 -1.02805e-07
1.43887e-05 0.00019443 -2.1818e-06
-1.02805e-07 -2.1818e-06 3.85164e-05
-0.000231814 -3.58396e-06 7.68432e-07
-3.58396e-06 -4.13956e-05 2.63293e-06
7.68432e-07 2.63293e-06 -0.000336501
-0.000779533 3.4366e-05 -2.63688e-06
3.4366e-05 -0.000141629 7.33283e-06
-2.63688e-06 7.33283e-06 -0.000579847
8.96793e-06 6.69185e-06 -2.5176e-06
6.69185e-06 0.000128667 -3.30892e-06
-2.5176e-06 -3.30892e-06 -0.000187131
0.000784902 1.60935e-05 -1.35215e-06
1.60935e-05 0.000233968 -5.90501e-06
-1.35215e-06 -5.90501e-06 8.8822e-05
0.000816463 -0.00013312 1.27939e-06
-0.00013312 0.000229795 1.15949e-06
1.27939e-06 1.15949e-06 7.35235e-05
0.000589874 -8.40346e-06 -8.14194e-08
-8.40346e-06 7.8093e-05 1.16585e-06
-8.14194e-08 1.16585e-06 -4.8401e-05
0.000548924 -8.75617e-05 7.12268e-07
-8.75617e-05 7.41741e-05 8.85899e-06
7.12268e-07 8.85899e-06 -2.82913e-05
0.00033885 -3.46384e-05 2.08896e-06
-3.46384e-05 -3.95538e-05 2.96803e-06
2.08896e-06 2.96803e-06 -0.000175662
0.000640744 -3.06111e-05 4.78015e-07
-3.06111e-05 0.00013466 2.33473e-07
4.78015e-07 2.33473e-07 -1.50513e-06
0.000523175 -4.26049e-05 4.07579e-08
-4.26049e-05 7.78016e-05 -1.62297e-06
4.07579e-08 -1.62297e-06 -4.20752e-05
0.000622271 -4.66644e-05 -5.05979e-06
-4.66644e-05 0.000116934 -4.96085e-06
-5.05979e-06 -4.96085e-06 -3.891e-06
0.000314035 -5.28661e-05 5.90024e-06
-5.28661e-05 7.82554e-05 -6.61473e-06
5.90024e-06 -6.61473e-06 -7.10023e-05
0.00010989 -0.000128352 2.34078e-07
-0.000128352 -0.000360402 1.58486e-06
2.34078e-07 1.58486e-06 -0.000453886
0.000806393 -0.000122933 -7.37239e-06
-0.000122933 0.000155351 -6.92959e-07
-7.37239e-06 -6.92959e-07 4.7438e-05
0.000297008 -0.000136086 6.27916e-06
-0.000136086 -0.000151798 4.8244e-06
6.27916e-06 4.8244e-06 -0.000297319
0.00205328 -0.000433806 1.72566e-06
-0.000433806 0.000809885 1.49486e-05
1.72566e-06 1.49486e-05 0.000530062
0.00170427 -0.00019425 2.24031e-06
-0.00019425 0.000747899 -4.55262e-06
2.24031e-06 -4.55262e-06 0.000569442
-0.000186678 -5.75757e-05 -8.1803e-06
-5.75757e-05 -0.000431068 -4.38329e-06
-8.1803e-06 -4.38329e-06 -0.000558226
0.000562072 -5.54251e-05 -4.76183e-09
-5.54251e-05 5.35465e-05 5.43145e-08
-4.76183e-09 5.43145e-08 -8.48153e-05
5.47728e-05 -3.86561e-05 -5.42673e-07
-3.86561e-05 -0.000237105 -1.32581e-06
-5.42673e-07 -1.32581e-06 -0.000382582
0.000855308 -7.94966e-05 -1.18343e-06
-7.94966e-05 0.000231289 1.01475e-06
-1.18343e-06 1.01475e-06 9.01049e-05
0.000763985 -9.63544e-05 -7.82748e-07
-9.63544e-05 0.000203844 5.53564e-07
-7.82748e-07 5.53564e-07 5.55463e-05
0.000592413 -5.02801e-05 -3.02484e-07
-5.02801e-05 6.54978e-05 1.51429e-06
-3.02484e-07 1.51429e-06 -4.42502e-05
0.00116643 -0.000133551 -6.03704e-07
-0.000133551 0.000482138 -1.09e-06
-6.03704e-07 -1.09e-06 0.000320003
0.000657164 -8.46957e-05 -4.93898e-07
-8.46957e-05 0.000119109 -4.50706e-08
-4.93898e-07 -4.50706e-08 5.65072e-06
0.000520084 1.62983e-05 -2.24971e-06
1.62983e-05 9.47052e-06 2.7068e-06
-2.24971e-06 2.7068e-06 -6.32958e-05
0.000720657 -0.000115295 1.75588e-06
-0.000115295 0.000163721 -1.91972e-06
1.75588e-06 -1.91972e-06 4.76507e-05
0.000600935 -4.07436e-05 -2.28649e-07
-4.07436e-05 5.73362e-05 1.39949e-07
-2.28649e-07 1.39949e-07 -1.31626e-05
0.00143411 1.45481e-05 -1.08659e-05
1.45481e-05 0.000545457 6.75565e-06
-1.08659e-05 6.75565e-06 0.000525947
0.000558078 -5.63077e-05 2.44157e-06
-5.63077e-05 3.99943e-05 -3.03834e-06
2.44157e-06 -3.03834e-06 -3.28439e-05
0.000903744 -2.09631e-06 -5.62697e-06
-2.09631e-06 0.00022281 6.70237e-07
-5.62697e-06 6.70237e-07 0.000202254
0.000779896 2.27142e-05 6.85193e-07
2.27142e-05 0.000137543 2.52191e-06
6.85193e-07 2.52191e-06 0.00014073
0.000471708 -1.50917e-05 1.5118e-06
-1.50917e-05 -3.9822e-05 -4.50481e-06
1.5118e-06 -4.50481e-06 -6.11192e-05
0.0016247 2.30504e-05 8.16939e-06
2.30504e-05 0.000662417 -1.48084e-06
8.16939e-06 -1.48084e-06 0.000671601
0.00246906 1.49873e-05 7.31705e-06
1.49873e-05 0.00118383 -5.09183e-06
7.31705e-06 -5.09183e-06 0.00119738
0.000601605 3.53037e-05 2.06724e-06
3.53037e-05 7.57668e-05 -1.02876e-06
2.06724e-06 -1.02876e-06 -1.96717e-05
0.000605634 5.11738e-05 -7.14077e-07
5.11738e-05 5.93724e-05 -1.88089e-06
-7.14077e-07 -1.88089e-06 9.74742e-06
0.000630082 -1.0213e-06 1.1746e-06
-1.0213e-06 0.000104976 5.40593e-07
1.1746e-06 5.40593e-07 1.37245e-05
0.000508841 9.68401e-07 1.35448e-06
9.68401e-07 -3.25018e-05 -3.5226e-06
1.35448e-06 -3.5226e-06 -4.10526e-05
0.000525605 4.26722e-05 1.21829e-07
4.26722e-05 1.09542e-05 -8.46928e-08
1.21829e-07 -8.46928e-08 -3.40923e-05
0.00056599 -0.000104998 -3.58786e-06
-0.000104998 6.80956e-05 8.17622e-07
-3.58786e-06 8.17622e-07 -1.87846e-05
0.00198641 5.63571e-06 -4.13746e-06
5.63571e-06 0.000881605 -4.70241e-06
-4.13746e-06 -4.70241e-06 0.00090019
0.000504048 4.04423e-06 -2.31774e-07
4.04423e-06 -3.602e-05 1.43693e-08
-2.31774e-07 1.43693e-08 -4.38224e-05
0.000531199 -1.78884e-05 -2.05253e-06
-1.78884e-05 1.19449e-05 1.65473e-06
-2.05253e-06 1.65473e-06 -2.99127e-05
0.000495303 6.5234e-06 -1.27743e-06
6.5234e-06 -4.26967e-05 3.08361e-06
-1.27743e-06 3.08361e-06 -5.04938e-05
0.00199667 2.05174e-05 -4.79083e-06
2.05174e-05 0.00088982 -7.9128e-08
-4.79083e-06 -7.9128e-08 0.000907674
0.00195389 3.35063e-05 -7.20475e-06
3.35063e-05 0.000865701 4.34737e-06
-7.20475e-06 4.34737e-06 0.000882857
-0.00633776 -0.00117606 -0.000127785
-0.00117606 0.00396346 4.37785e-05
-0.000127785 4.37785e-05 0.000471592
0.000846755 0.00094227 -0.000184914
0.00094227 6.55897e-05 5.2493e-05
-0.000184914 5.2493e-05 -0.00129063
0.00295448 -0.000790864 -0.000494635
-0.000790864 0.00118198 0.000227513
-0.000494635 0.000227513 -0.00303961
-0.00227158 0.000187281 0.000803634
0.000187281 0.00452452 -0.000290222
0.000803634 -0.000290222 0.00137151
0.00106598 0.000415161 -1.57141e-05
0.000415161 -0.00133632 -2.69156e-05
-1.57141e-05 -2.69156e-05 -0.00076509
0.00239719 -0.000332859 8.86751e-05
-0.000332859 -0.000267315 4.20908e-06
8.86751e-05 4.20908e-06 -0.000216678
0.000633216 -0.000362518 0.000184273
-0.000362518 -0.00377648 -6.78022e-05
0.000184273 -6.78022e-05 -0.00571324
0.0163519 0.00229511 -0.000474695
0.00229511 0.00747306 3.89496e-05
-0.000474695 3.89496e-05 0.00551788
-0.00154739 0.00566774 -0.00162573
0.00566774 0.000395376 0.00115158
-0.00162573 0.00115158 -0.0003785
0.00379741 -0.000401911 1.1042e-05
-0.000401911 -0.000388147 8.54809e-06
1.1042e-05 8.54809e-06 1.0409e-05
0.00839377 -0.00139401 0.000113105
-0.00139401 -0.000546821 -0.000100594
0.000113105 -0.000100594 -0.00289792
0.0178872 0.00407481 -0.000221811
0.00407481 0.00529407 -9.78785e-05
-0.000221811 -9.78785e-05 0.00391182
0.0102256 0.00321392 -7.00896e-05
0.00321392 0.000904207 0.000309483
-7.00896e-05 0.000309483 -0.00044855
0.00168932 -0.00121806 -9.38194e-05
-0.00121806 -0.00238196 1.46434e-05
-9.38194e-05 1.46434e-05 -0.00170509
0.00411321 -0.00230871 0.000296012
-0.00230871 -0.000239009 -0.000194695
0.000296012 -0.000194695 -0.00411379
0.000759079 0.00261366 4.12979e-05
0.00261366 -0.00135294 -0.000609638
4.12979e-05 -0.000609638 -0.00360051
0.00732843 0.00116451 -0.000188379
0.00116451 -0.00274582 2.36485e-06
-0.000188379 2.36485e-06 -0.00152315
0.00166188 -6.70155e-05 2.35875e-06
-6.70155e-05 0.000829146 1.06601e-05
2.35875e-06 1.06601e-05 0.000620491
0.000570093 0.000110357 -1.7835e-06
0.000110357 9.99997e-05 -2.08175e-06
-1.7835e-06 -2.08175e-06 -3.36915e-05
0.000553638 8.91755e-05 2.55055e-07
8.91755e-05 5.91396e-05 -1.89278e-06
2.55055e-07 -1.89278e-06 -3.34833e-05
0.000508881 4.14519e-05 4.94685e-06
4.14519e-05 7.77501e-05 -8.71893e-08
4.94685e-06 -8.71893e-08 -4.18684e-05
0.000506146 7.68951e-05 3.52813e-06
7.68951e-05 5.16104e-05 2.63333e-06
3.52813e-06 2.63333e-06 -0.000116824
0.000591157 4.89184e-05 -5.62615e-08
4.89184e-05 0.000115881 2.00679e-06
-5.62615e-08 2.00679e-06 -2.45046e-05
0.000484194 4.29093e-05 2.33169e-07
4.29093e-05 3.37299e-05 -1.54496e-06
2.33169e-07 -1.54496e-06 -9.14455e-05
0.000884454 0.000156537 2.75516e-06
0.000156537 0.000287273 3.73797e-06
2.75516e-06 3.73797e-06 0.000129818
0.000843655 0.000111512 3.26802e-08
0.000111512 0.000267691 3.14717e-07
3.26802e-08 3.14717e-07 0.000115543
0.000405499 -1.38594e-05 -4.68983e-06
-1.38594e-05 -9.77631e-06 -3.86211e-06
-4.68983e-06 -3.86211e-06 -0.000132293
0.00054983 -0.000348892 6.41771e-05
-0.000348892 -0.000978481 -2.57055e-05
6.41771e-05 -2.57055e-05 -0.000781357
0.000490389 -0.000557446 3.38982e-05
-0.000557446 -0.000691843 -1.13083e-05
3.38982e-05 -1.13083e-05 -0.000706668
0.00152845 -0.000788458 7.10969e-06
-0.000788458 -0.000119298 6.30132e-06
7.10969e-06 6.30132e-06 -0.000232596
-0.00050615 -0.000521837 9.05249e-06
-0.000521837 -0.000621743 -1.52953e-05
9.05249e-06 -1.52953e-05 -0.000932066
0.00281091 -0.000334962 -1.1316e-05
-0.000334962 0.00165795 4.42947e-05
-1.1316e-05 4.42947e-05 0.0012159
0.000742726 -0.000135679 -2.84894e-06
-0.000135679 0.000301606 3.21034e-06
-2.84894e-06 3.21034e-06 8.50171e-05
0.00043784 0.000101135 -2.12338e-06
0.000101135 5.88617e-05 -1.06162e-05
-2.12338e-06 -1.06162e-05 -0.000131781
0.000610932 -9.36958e-05 -1.63194e-06
-9.36958e-05 0.000182804 7.24232e-06
-1.63194e-06 7.24232e-06 -4.02934e-05
0.00151408 -0.000591652 6.46416e-07
-0.000591652 -0.000155783 -4.58505e-06
6.46416e-07 -4.58505e-06 -0.000264092
0.00065184 -4.0808e-05 5.7579e-07
-4.0808e-05 0.000207007 3.75289e-06
5.7579e-07 3.75289e-06 -6.96374e-06
0.00183041 -0.00021918 4.75214e-07
-0.00021918 0.00103492 -1.23592e-06
4.75214e-07 -1.23592e-06 0.000688963
0.00139623 -0.000630709 1.3092e-06
-0.000630709 6.48108e-06 4.20531e-06
1.3092e-06 4.20531e-06 -3.80692e-05
0.000778448 -0.000550718 -1.85837e-05
-0.000550718 0.00030668 6.57429e-06
-1.85837e-05 6.57429e-06 -4.32189e-05
0.00301765 -0.00113923 2.37016e-05
-0.00113923 0.00059004 -1.98954e-05
2.37016e-05 -1.98954e-05 0.000546133
-0.000649746 -0.000400296 -1.23296e-05
-0.000400296 -0.000672269 2.11689e-05
-1.23296e-05 2.11689e-05 -0.000745658
-0.000685519 -6.43707e-05 6.86227e-06
-6.43707e-05 -0.000271058 7.3967e-06
6.86227e-06 7.3967e-06 -0.000724195
0.000628689 1.18078e-05 -1.78456e-06
1.18078e-05 0.00015351 -6.9556e-07
-1.78456e-06 -6.9556e-07 -3.34161e-05
0.0010593 2.63874e-05 8.24318e-06
2.63874e-05 0.000550975 -6.37318e-06
8.24318e-06 -6.37318e-06 0.000286522
0.00141036 4.5741e-05 -2.52693e-05
4.5741e-05 0.00167073 -1.20714e-05
-2.52693e-05 -1.20714e-05 -0.00156156
-0.0051861 0.000306091 -0.000252675
0.000306091 0.00527712 -1.2713e-05
-0.000252675 -1.2713e-05 0.00115899
-0.0121936 -0.00163048 -0.00051112
-0.00163048 -0.00575664 -1.81898e-05
-0.00051112 -1.81898e-05 -0.00580939
-0.000691211 0.000134221 7.78986e-06
0.000134221 -0.000602829 -1.43117e-06
7.78986e-06 -1.43117e-06 -0.000799568
-0.000466398 0.000370329 -1.78951e-06
0.000370329 -0.000402295 1.10903e-05
-1.78951e-06 1.10903e-05 -0.000733055
0.00140488 0.00073196 3.03909e-05
0.00073196 0.000111808 1.57315e-05
3.03909e-05 1.57315e-05 1.97206e-05
-0.00524227 0.00131562 2.52476e-05
0.00131562 0.00428667 4.29467e-05
2.52476e-05 4.29467e-05 0.000452019
0.00418624 0.00220685 -0.000185725
0.00220685 6.74111e-05 -0.000139458
-0.000185725 -0.000139458 -0.00370783
0.00213588 0.00161509 0.000300615
0.00161509 0.000472847 9.33728e-05
0.000300615 9.33728e-05 0.000292803
-0.00031269 0.000633079 1.34695e-05
0.000633079 -0.000270147 -3.803e-05
1.34695e-05 -3.803e-05 -0.000433274
0.0197212 -0.00286097 -0.000126333
-0.00286097 0.00616091 -0.000255503
-0.000126333 -0.000255503 0.00421727
0.00521055 0.000958074 0.000349717
0.000958074 0.00267986 0.000130478
0.000349717 0.000130478 -0.00216685
0.0128675 -0.001727 0.000116551
-0.001727 0.00197986 3.034e-05
0.000116551 3.034e-05 0.00336332
0.000905969 0.00035561 4.15209e-06
0.00035561 0.000416096 -2.07413e-06
4.15209e-06 -2.07413e-06 0.000198281
0.00376733 0.000329901 4.03132e-06
0.000329901 0.00246359 1.39318e-05
4.03132e-06 1.39318e-05 -0.000173938
0.00108745 0.000400746 4.36944e-05
0.000400746 1.29723e-05 8.07534e-06
4.36944e-05 8.07534e-06 -0.00156546
-0.000541876 0.00035839 -2.03452e-06
0.00035839 -0.000259955 -3.18091e-06
-2.03452e-06 -3.18091e-06 -0.000526673
0.000846832 0.000880973 -9.45852e-05
0.000880973 0.00103751 -4.29991e-05
-9.45852e-05 -4.29991e-05 -0.000120479
0.00160099 0.00311626 0.000138944
0.00311626 0.00065346 8.48201e-05
0.000138944 8.48201e-05 -0.0032681
0.00822563 0.000177875 -1.26169e-05
0.000177875 -0.00326619 -0.000184608
-1.26169e-05 -0.000184608 -0.0003892
0.00397539 -0.00218832 -5.57413e-05
-0.00218832 0.00217049 -0.00011934
-5.57413e-05 -0.00011934 -0.00139055
0.00108749 0.000289162 -3.62338e-06
0.000289162 0.000784354 -1.78901e-05
-3.62338e-06 -1.78901e-05 0.000524411
-0.00176035 5.94247e-05 6.02117e-06
5.94247e-05 -0.000150922 5.50915e-06
6.02117e-06 5.50915e-06 -0.000181855
0.00381433 -1.63064e-05 6.91093e-05
-1.63064e-05 -0.000211231 -0.000139926
6.91093e-05 -0.000139926 -0.00121526
0.00735873 0.00124016 0.000194184
0.00124016 -0.00251109 -1.48011e-05
0.000194184 -1.48011e-05 -0.0014231
-0.00184791 0.000103743 1.67209e-05
0.000103743 -9.53644e-05 -3.2212e-05
1.67209e-05 -3.2212e-05 -0.000799376
0.0122769 0.00251524 0.00021225
0.00251524 0.00556816 5.69321e-05
0.00021225 5.69321e-05 0.000937728
-0.00374394 -0.00044647 8.33348e-05
-0.00044647 0.00123959 0.000340384
8.33348e-05 0.000340384 -0.00166645
0.00265169 0.000361044 2.17169e-05
0.000361044 0.00146754 1.62359e-05
2.17169e-05 1.62359e-05 0.00126703
0.000600987 0.000187994 -5.18667e-06
0.000187994 0.000422967 -1.50587e-06
-5.18667e-06 -1.50587e-06 0.000126998
-0.000101915 8.983e-05 2.31774e-06
8.983e-05 0.000237557 2.83464e-06
2.31774e-06 2.83464e-06 -0.000127208
0.000676579 0.000151636 9.71825e-07
0.000151636 0.000163766 8.95977e-07
9.71825e-07 8.95977e-07 -1.27899e-06
0.000407376 5.01888e-05 2.11775e-06
5.01888e-05 2.14315e-05 1.99053e-06
2.11775e-06 1.99053e-06 -0.000129109
0.000717137 -1.13354e-05 9.34778e-06
-1.13354e-05 0.000534667 7.17817e-07
9.34778e-06 7.17817e-07 0.000227084
0.0004989 3.17027e-05 2.40778e-07
3.17027e-05 5.31241e-05 -6.56618e-07
2.40778e-07 -6.56618e-07 -8.31298e-05
0.000739999 -2.02282e-05 -2.74099e-06
-2.02282e-05 0.000544674 -2.48077e-06
-2.74099e-06 -2.48077e-06 0.000241614
0.00016149 4.27163e-05 1.10371e-06
4.27163e-05 0.000385195 -2.95037e-07
1.10371e-06 -2.95037e-07 -3.40181e-05
-0.000112205 1.65898e-05 -9.95044e-06
1.65898e-05 0.000145607 -2.10485e-06
-9.95044e-06 -2.10485e-06 -0.000176371
0.000223019 -2.39395e-05 -3.8399e-07
-2.39395e-05 0.000182128 -6.35643e-06
-3.8399e-07 -6.35643e-06 -8.11269e-05
0.000333717 -6.3156e-05 1.36423e-06
-6.3156e-05 -6.01602e-05 7.67817e-06
1.36423e-06 7.67817e-06 -0.000182783
0.000823694 -3.96561e-05 -1.24272e-06
-3.96561e-05 0.00024324 1.14129e-06
-1.24272e-06 1.14129e-06 0.00010676
0.00110104 -4.41409e-05 -1.02582e-05
-4.41409e-05 0.000427151 8.37817e-06
-1.02582e-05 8.37817e-06 0.000306115
0.000737093 -6.99642e-05 2.96768e-06
-6.99642e-05 0.00030893 -3.48228e-07
2.96768e-06 -3.48228e-07 0.000169619
0.000647454 -4.5669e-05 -1.03136e-06
-4.5669e-05 0.000131057 -5.93797e-07
-1.03136e-06 -5.93797e-07 1.1555e-05
0.000339184 -0.000127313 9.45467e-07
-0.000127313 -1.55236e-05 8.6644e-07
9.45467e-07 8.6644e-07 -0.000152171
0.000111801 -0.000118072 -8.10416e-06
-0.000118072 -0.000278437 -1.53652e-06
-8.10416e-06 -1.53652e-06 -0.000347346
-0.000868732 -0.000226494 8.95012e-06
-0.000226494 -0.00082214 1.05663e-05
8.95012e-06 1.05663e-05 -0.00106402
0.000581791 -0.000165505 3.64847e-06
-0.000165505 3.65662e-05 2.07148e-07
3.64847e-06 2.07148e-07 -7.8626e-05
0.00123344 -0.00024553 -1.79508e-06
-0.00024553 0.000403415 7.57857e-06
-1.79508e-06 7.57857e-06 0.000230403
0.00198825 -0.000463376 -8.59509e-06
-0.000463376 0.000786176 9.7908e-06
-8.59509e-06 9.7908e-06 0.000479668
0.00143325 -0.000396225 -5.85589e-06
-0.000396225 0.00033449 6.81806e-07
-5.85589e-06 6.81806e-07 3.54574e-05
0.00122209 -0.00028269 -2.70069e-06
-0.00028269 0.000437209 4.27608e-06
-2.70069e-06 4.27608e-06 0.000205884
0.00020308 -0.000221071 1.01502e-05
-0.000221071 -0.000304145 -3.34598e-06
1.01502e-05 -3.34598e-06 -0.000535552
0.00108575 -0.000131087 1.65654e-06
-0.000131087 0.000393766 -2.45697e-06
1.65654e-06 -2.45697e-06 0.000200926
0.0013028 -0.000190307 -5.53353e-06
-0.000190307 0.000533004 -4.49062e-07
-5.53353e-06 -4.49062e-07 0.000342978
0.000109351 -9.88943e-05 6.39021e-06
-9.88943e-05 -0.000212016 -1.30665e-05
6.39021e-06 -1.30665e-05 -0.000335465
0.00103864 -7.75609e-05 -9.99821e-08
-7.75609e-05 0.000321164 1.49521e-06
-9.99821e-08 1.49521e-06 0.000183186
0.000284816 -6.12311e-05 5.63498e-07
-6.12311e-05 -9.52708e-05 -5.70365e-07
5.63498e-07 -5.70365e-07 -0.000243371
0.000649356 -4.30156e-05 2.08257e-07
-4.30156e-05 8.98391e-05 5.90267e-07
2.08257e-07 5.90267e-07 -2.55172e-05
0.00104234 -0.000149563 -7.77102e-07
-0.000149563 0.00038884 2.48321e-07
-7.77102e-07 2.48321e-07 0.000227337
0.000656802 -7.11642e-05 -1.61198e-07
-7.11642e-05 0.000116224 -3.55973e-09
-1.61198e-07 -3.55973e-09 -3.48642e-06
0.000516736 1.97869e-05 9.17638e-07
1.97869e-05 1.56869e-05 3.20709e-06
9.17638e-07 3.20709e-06 -6.71306e-05
0.000763442 -0.000107633 3.67188e-07
-0.000107633 0.000195497 -2.18851e-06
3.67188e-07 -2.18851e-06 7.28896e-05
0.000533868 1.09787e-05 -1.73284e-06
1.09787e-05 2.24773e-05 -1.55053e-07
-1.73284e-06 -1.55053e-07 -5.37847e-05
0.00138279 2.62773e-05 -1.25638e-05
2.62773e-05 0.000514879 4.57323e-06
-1.25638e-05 4.57323e-06 0.000494333
0.000602595 -5.14478e-05 2.81765e-06
-5.14478e-05 6.10244e-05 -3.26663e-06
2.81765e-06 -3.26663e-06 -1.14474e-05
0.000907977 7.62616e-06 -6.53645e-06
7.62616e-06 0.000221544 6.28587e-07
-6.53645e-06 6.28587e-07 0.000199822
0.000823886 3.25198e-05 -7.51776e-08
3.25198e-05 0.000164011 2.74221e-06
-7.51776e-08 2.74221e-06 0.000165227
0.000479168 -6.53139e-06 1.56035e-06
-6.53139e-06 -4.08908e-05 -5.04467e-06
1.56035e-06 -5.04467e-06 -6.3564e-05
0.00167239 3.52841e-05 1.11319e-05
3.52841e-05 0.000690733 -1.30869e-06
1.11319e-05 -1.30869e-06 0.000698472
0.00248689 3.02604e-05 1.11983e-05
3.02604e-05 0.00119398 -5.2868e-06
1.11983e-05 -5.2868e-06 0.00120689
0.000342476 1.21639e-05 1.21339e-06
1.21639e-05 -7.17995e-05 -3.7703e-07
1.21339e-06 -3.7703e-07 -0.000189391
0.000232246 1.48238e-05 3.15721e-07
1.48238e-05 -0.000172731 -3.31881e-06
3.15721e-07 -3.31881e-06 -0.000230598
0.000660896 3.98869e-05 -8.72337e-09
3.98869e-05 0.000120782 1.17815e-07
-8.72337e-09 1.17815e-07 1.85235e-05
0.000507164 -9.83397e-07 1.20417e-06
-9.83397e-07 -3.4265e-05 -3.67312e-06
1.20417e-06 -3.67312e-06 -4.44293e-05
0.000369765 3.35506e-06 1.48379e-06
3.35506e-06 -8.96114e-05 -1.10833e-08
1.48379e-06 -1.10833e-08 -0.000137989
0.00034012 -9.25476e-05 -2.02658e-06
-9.25476e-05 -7.32115e-05 1.01912e-07
-2.02658e-06 1.01912e-07 -0.000166193
0.00205535 -8.14528e-06 -8.80427e-06
-8.14528e-06 0.00092377 -4.74748e-06
-8.80427e-06 -4.74748e-06 0.000942014
0.000503781 5.17119e-07 -4.39029e-08
5.17119e-07 -3.607e-05 -5.03917e-08
-4.39029e-08 -5.03917e-08 -4.44589e-05
0.000486218 -1.83245e-05 -2.46384e-06
-1.83245e-05 -1.65273e-05 1.96503e-06
-2.46384e-06 1.96503e-06 -5.93155e-05
0.00200913 7.0381e-06 -4.37607e-06
7.0381e-06 0.000895953 1.40389e-08
-4.37607e-06 1.40389e-08 0.000914349
0.000490008 3.3291e-06 -1.18855e-06
3.3291e-06 -4.41271e-05 3.15603e-06
-1.18855e-06 3.15603e-06 -5.19632e-05
0.00197551 2.1758e-05 -5.83031e-07
2.1758e-05 0.000876768 4.55562e-06
-5.83031e-07 4.55562e-06 0.000894637
0.000100845 -0.000490868 -0.000184739
-0.000490868 -0.000205731 5.62043e-05
-0.000184739 5.62043e-05 -0.00261856
0.00133339 0.000343121 -6.99624e-05
0.000343121 0.00579947 5.45158e-06
-6.99624e-05 5.45158e-06 0.00289289
0.00139712 -0.000254443 -0.000552789
-0.000254443 0.00310312 8.60549e-05
-0.000552789 8.60549e-05 0.0015608
0.0007075 0.000108671 3.36571e-06
0.000108671 0.000149376 2.65759e-06
3.36571e-06 2.65759e-06 4.75392e-06
0.00412757 -0.000593341 -3.53461e-05
-0.000593341 0.00286197 0.000173191
-3.53461e-05 0.000173191 0.00111099
0.00386979 -0.000948387 -0.000212221
-0.000948387 0.00153142 1.66395e-05
-0.000212221 1.66395e-05 -0.00261091
0.00665689 0.00183568 0.000317471
0.00183568 0.00584964 -0.000251254
0.000317471 -0.000251254 0.00311301
0.00621502 -0.000640657 7.75902e-05
-0.000640657 0.000876531 -2.13722e-05
7.75902e-05 -2.13722e-05 0.00088041
0.0123079 -0.00148426 0.000206117
-0.00148426 0.00148475 -8.6675e-05
0.000206117 -8.6675e-05 -5.68947e-05
0.00286926 0.00354582 -0.000403796
0.00354582 -0.00194202 0.000327668
-0.000403796 0.000327668 -0.00322337
0.0106521 0.00326753 3.83314e-05
0.00326753 0.00264329 0.00014917
3.83314e-05 0.00014917 0.000811233
0.00629971 -0.00151946 -0.000119405
-0.00151946 0.0002275 -6.66057e-06
-0.000119405 -6.66057e-06 0.000317199
0.016043 -0.0024345 4.58262e-05
-0.0024345 0.00462556 -2.49737e-05
4.58262e-05 -2.49737e-05 0.00232862
0.00804746 0.00214648 0.000139767
0.00214648 0.00156254 -0.000252545
0.000139767 -0.000252545 -0.00084151
0.0095001 0.00115063 1.43746e-05
0.00115063 -0.00108745 2.51231e-05
1.43746e-05 2.51231e-05 -0.000348774
0.00299871 -0.00192945 -2.35476e-05
-0.00192945 -0.000115711 3.29035e-05
-2.35476e-05 3.29035e-05 -0.000465381
0.0113263 -0.00300735 0.000138131
-0.00300735 0.0048602 -8.91249e-05
0.000138131 -8.91249e-05 0.000712516
0.00701456 -5.88232e-05 0.000121151
-5.88232e-05 0.00276292 -0.000349233
0.000121151 -0.000349233 0.000914411
0.0103211 0.000662742 -9.17084e-05
0.000662742 -0.00134085 0.000190494
-9.17084e-05 0.000190494 0.00100627
0.000743739 -7.44543e-06 3.47917e-06
-7.44543e-06 0.000244621 5.07533e-06
3.47917e-06 5.07533e-06 5.12089e-05
0.000814845 -0.000108357 -3.92576e-07
-0.000108357 0.000304528 3.69472e-07
-3.92576e-07 3.69472e-07 0.00010183
0.000688947 0.000128669 -2.84818e-07
0.000128669 0.000175335 -4.23825e-06
-2.84818e-07 -4.23825e-06 3.94821e-05
0.000651849 9.41475e-05 1.03486e-06
9.41475e-05 0.000102261 5.39344e-06
1.03486e-06 5.39344e-06 -3.60601e-05
0.000745229 0.000136086 3.42909e-08
0.000136086 0.000212456 6.02107e-07
3.42909e-08 6.02107e-07 4.00894e-05
0.000937639 7.6885e-05 -4.98645e-06
7.6885e-05 0.000331455 -2.53707e-06
-4.98645e-06 -2.53707e-06 0.000191119
0.00101503 0.000153185 -1.20645e-06
0.000153185 0.000368253 -8.36978e-09
-1.20645e-06 -8.36978e-09 0.000209467
0.00105418 0.00016792 5.39191e-07
0.00016792 0.000413205 2.02797e-06
5.39191e-07 2.02797e-06 0.000250391
-0.00023687 -0.000378346 8.03127e-05
-0.000378346 -0.00116173 -4.22627e-05
8.03127e-05 -4.22627e-05 -0.00107973
0.00196269 -0.000697883 8.00721e-06
-0.000697883 0.000270197 -1.54257e-05
8.00721e-06 -1.54257e-05 0.000237178
0.000954055 -0.000211711 -5.10331e-07
-0.000211711 0.000402255 -1.67107e-05
-5.10331e-07 -1.67107e-05 0.000162262
0.00141896 -0.000614844 2.24233e-05
-0.000614844 0.000640111 -2.52551e-05
2.24233e-05 -2.52551e-05 0.000300465
0.00238279 -0.000363858 -1.33733e-05
-0.000363858 0.00132019 9.96037e-06
-1.33733e-05 9.96037e-06 0.000983448
0.00125718 -0.000114692 -9.38595e-07
-0.000114692 0.000561093 -1.56642e-05
-9.38595e-07 -1.56642e-05 0.000343264
0.000253375 -4.46163e-05 1.49461e-06
-4.46163e-05 -7.06032e-05 4.60592e-06
1.49461e-06 4.60592e-06 -0.00025604
1.48257e-05 -0.0008287 6.18667e-08
-0.0008287 -0.000967123 -2.86731e-06
6.18667e-08 -2.86731e-06 -0.000925364
0.00124881 4.24456e-05 -7.23868e-07
4.24456e-05 0.000667995 8.13051e-07
-7.23868e-07 8.13051e-07 0.000392489
0.000858671 -0.000217764 5.64265e-06
-0.000217764 0.0005327 1.6715e-06
5.64265e-06 1.6715e-06 0.000141966
0.000591429 -0.000387511 1.2811e-05
-0.000387511 1.19386e-05 3.88095e-06
1.2811e-05 3.88095e-06 -2.20031e-05
0.00134031 0.000121759 -2.41492e-07
0.000121759 0.000564907 -6.93359e-07
-2.41492e-07 -6.93359e-07 0.000413386
0.00133264 -0.000812644 -1.2408e-05
-0.000812644 0.000156867 -3.68572e-05
-1.2408e-05 -3.68572e-05 9.03653e-05
-0.000739239 -0.000357464 -1.73031e-05
-0.000357464 -0.00046302 2.75496e-05
-1.73031e-05 2.75496e-05 -0.000669905
-0.000409111 7.14745e-05 1.68101e-05
7.14745e-05 8.07611e-05 -9.66573e-06
1.68101e-05 -9.66573e-06 -0.000463166
0.00120868 0.000217551 1.19852e-06
0.000217551 0.000580867 -3.43502e-06
1.19852e-06 -3.43502e-06 0.0003879
-0.000719048 4.85794e-05 4.84661e-05
4.85794e-05 0.00097716 2.519e-06
4.84661e-05 2.519e-06 0.000313762
0.000785884 -3.41543e-05 0.000119917
-3.41543e-05 0.0012418 -2.62083e-05
0.000119917 -2.62083e-05 -0.00195639
-0.00904458 -0.000223978 -0.000203602
-0.000223978 0.00469517 1.89635e-05
-0.000203602 1.89635e-05 -8.98112e-06
0.00149878 0.000399393 1.62644e-05
0.000399393 0.000849566 3.2834e-06
1.62644e-05 3.2834e-06 0.000619824
-0.00122967 0.000475997 4.92081e-06
0.000475997 -0.000676428 1.47098e-05
4.92081e-06 1.47098e-05 -0.00103962
0.00504437 0.000399298 0.000199796
0.000399298 0.00307318 3.03342e-05
0.000199796 3.03342e-05 0.00128046
0.00973447 0.00243989 0.00024375
0.00243989 0.00368079 0.000145491
0.00024375 0.000145491 -0.000358763
0.00298807 0.00148969 -7.73459e-05
0.00148969 0.00185966 -7.89752e-05
-7.73459e-05 -7.89752e-05 0.000578511
0.00530049 -0.00173913 -0.000117252
-0.00173913 0.00310762 -0.000369493
-0.000117252 -0.000369493 0.000285687
0.00189228 0.000373611 9.68097e-05
0.000373611 0.000174031 0.000172332
9.68097e-05 0.000172332 -0.00137245
0.00611775 -0.00012333 -3.45077e-05
-0.00012333 -0.00513508 -0.000205758
-3.45077e-05 -0.000205758 -0.00185038
0.000741118 0.000310875 4.78717e-06
0.000310875 0.000576063 3.43207e-07
4.78717e-06 3.43207e-07 0.000295737
-0.00155112 1.052e-05 -1.26631e-06
1.052e-05 -0.000117961 -4.53879e-07
-1.26631e-06 -4.53879e-07 -0.000243246
0.00363698 4.51173e-05 7.77961e-05
4.51173e-05 -0.000150545 2.30359e-05
7.77961e-05 2.30359e-05 -0.000569681
-0.00133201 0.000310484 -1.00971e-05
0.000310484 -0.00032861 -7.61233e-06
-1.00971e-05 -7.61233e-06 -0.000933141
0.00937708 0.001261 -8.68596e-06
0.001261 -0.000996523 -2.20776e-05
-8.68596e-06 -2.20776e-05 -0.000353731
0.00328822 0.00144117 0.000168394
0.00144117 0.00329923 0.00010638
0.000168394 0.00010638 -0.00173871
0.00537012 0.000631926 -0.00013569
0.000631926 0.00293009 2.22207e-06
-0.00013569 2.22207e-06 0.000288875
0.000496218 0.000327012 -8.69846e-06
0.000327012 0.000465326 -2.23429e-05
-8.69846e-06 -2.23429e-05 5.39089e-05
0.00128246 4.50756e-05 1.4885e-05
4.50756e-05 -0.000244288 -2.245e-05
1.4885e-05 -2.245e-05 -0.000114907
0.00366759 -0.000621076 2.68502e-05
-0.000621076 0.0028092 -0.000176717
2.68502e-05 -0.000176717 0.0012024
0.0139538 0.00333553 0.00028181
0.00333553 0.00334354 -0.000218975
0.00028181 -0.000218975 0.00230167
0.00681833 -3.19549e-05 -9.80159e-05
-3.19549e-05 0.00282061 0.00035657
-9.80159e-05 0.00035657 0.000835634
0.000654219 0.000327006 -5.68563e-06
0.000327006 0.000464693 -0.000108937
-5.68563e-06 -0.000108937 3.90258e-05
0.00221704 0.00146297 0.000216295
0.00146297 0.00460109 4.23511e-05
0.000216295 4.23511e-05 -0.00260881
0.00180147 0.000330451 2.33414e-06
0.000330451 0.0010796 1.56525e-05
2.33414e-06 1.56525e-05 0.000792862
0.000805229 0.000208889 1.60668e-06
0.000208889 0.000728293 -1.03991e-06
1.60668e-06 -1.03991e-06 0.000382625
4.68945e-05 -2.3484e-05 -1.12842e-05
-2.3484e-05 0.000372168 -1.05875e-05
-1.12842e-05 -1.05875e-05 9.7077e-05
0.000114384 -4.28415e-05 9.26112e-07
-4.28415e-05 -0.000196077 5.8834e-06
9.26112e-07 5.8834e-06 -0.000319066
0.00129551 -2.87225e-06 4.55282e-06
-2.87225e-06 0.000852598 -4.87711e-07
4.55282e-06 -4.87711e-07 0.000563354
0.000487793 3.83742e-05 1.92416e-06
3.83742e-05 0.000549139 -2.43228e-06
1.92416e-06 -2.43228e-06 0.000147074
0.000436703 -3.84991e-05 9.84238e-07
-3.84991e-05 0.000258467 -1.45738e-07
9.84238e-07 -1.45738e-07 4.02233e-05
-7.91671e-05 -1.11963e-05 4.39573e-06
-1.11963e-05 0.00016444 1.3342e-06
4.39573e-06 1.3342e-06 -0.000163283
0.00111286 -0.000225926 7.83295e-07
-0.000225926 0.000689461 -1.2445e-05
7.83295e-07 -1.2445e-05 0.000419615
0.000890609 -8.10818e-05 -4.45129e-06
-8.10818e-05 0.00037888 7.62913e-06
-4.45129e-06 7.62913e-06 0.000249969
0.000559978 -1.4352e-05 -1.17368e-06
-1.4352e-05 7.68397e-05 2.43642e-06
-1.17368e-06 2.43642e-06 -4.00877e-05
0.00134921 -0.000215606 2.65301e-06
-0.000215606 0.000575524 3.7712e-06
2.65301e-06 3.7712e-06 0.000420574
-0.00136033 -0.000212435 1.46817e-05
-0.000212435 -0.000920826 7.22168e-06
1.46817e-05 7.22168e-06 -0.00120726
8.68254e-05 -0.000107839 1.50624e-06
-0.000107839 -0.000219868 -8.33164e-07
1.50624e-06 -8.33164e-07 -0.000264764
-0.000228678 -0.000260405 1.30522e-06
-0.000260405 -0.000469125 -3.06685e-06
1.30522e-06 -3.06685e-06 -0.000690109
0.00115075 -0.000426214 4.92012e-06
-0.000426214 0.000231037 -3.91249e-06
4.92012e-06 -3.91249e-06 -0.000127711
0.00154211 -0.000498659 -2.9315e-06
-0.000498659 0.00034766 -4.31735e-07
-2.9315e-06 -4.31735e-07 -1.23475e-05
0.00206038 -0.000345589 2.05393e-06
-0.000345589 0.000892478 -8.33452e-07
2.05393e-06 -8.33452e-07 0.000693336
0.00129276 -0.000386712 2.06996e-06
-0.000386712 0.000344962 2.96093e-07
2.06996e-06 2.96093e-07 4.46475e-05
0.00158908 -0.000416498 2.31976e-06
-0.000416498 0.000416851 -1.79473e-06
2.31976e-06 -1.79473e-06 0.000122505
0.000689691 -0.000265781 -3.32759e-06
-0.000265781 -2.75943e-05 4.10219e-06
-3.32759e-06 4.10219e-06 -0.000271786
0.000886884 -0.000330129 1.38283e-06
-0.000330129 1.08954e-05 -4.7652e-06
1.38283e-06 -4.7652e-06 -0.000268195
0.000481291 -0.000119275 1.15211e-06
-0.000119275 5.16366e-05 -2.79513e-06
1.15211e-06 -2.79513e-06 -0.000178091
0.00112768 -0.000296912 -6.18089e-06
-0.000296912 0.000393309 4.53629e-06
-6.18089e-06 4.53629e-06 0.0001485
-0.00149416 -2.48868e-05 -3.6075e-06
-2.48868e-05 -0.00132466 -6.3851e-06
-3.6075e-06 -6.3851e-06 -0.00151164
0.000436317 -4.09411e-05 7.79786e-07
-4.09411e-05 -3.99968e-05 6.37184e-07
7.79786e-07 6.37184e-07 -0.000167489
0.000575752 -0.000107156 9.68545e-09
-0.000107156 9.80433e-05 6.06486e-09
9.68545e-09 6.06486e-09 -9.19388e-05
0.000899123 -0.000185785 5.63237e-06
-0.000185785 0.000314292 -1.7254e-06
5.63237e-06 -1.7254e-06 0.000113433
0.000513811 -8.48683e-05 4.86932e-07
-8.48683e-05 4.55152e-05 1.19099e-06
4.86932e-07 1.19099e-06 -0.000105001
0.000711526 -6.33748e-05 -4.26066e-07
-6.33748e-05 0.00014275 2.12631e-07
-4.26066e-07 2.12631e-07 1.63867e-05
0.000513323 1.05108e-05 5.57439e-07
1.05108e-05 5.15326e-06 3.95852e-06
5.57439e-07 3.95852e-06 -8.24961e-05
0.000813649 -9.18735e-05 -6.52511e-08
-9.18735e-05 0.000223172 -1.07851e-06
-6.52511e-08 -1.07851e-06 9.36724e-05
0.000565269 9.28686e-06 -1.18262e-06
9.28686e-06 4.03073e-05 -2.52634e-07
-1.18262e-06 -2.52634e-07 -3.97833e-05
0.000455292 3.41252e-05 -3.37264e-07
3.41252e-05 -5.20159e-05 5.71282e-06
-3.37264e-07 5.71282e-06 -8.1142e-05
0.000679486 -4.66161e-05 2.20963e-06
-4.66161e-05 0.000105607 -3.15201e-06
2.20963e-06 -3.15201e-06 3.18753e-05
0.000485787 1.42842e-05 -2.57463e-07
1.42842e-05 -4.06651e-05 -4.12992e-08
-2.57463e-07 -4.12992e-08 -6.57875e-05
0.00247974 8.66844e-05 -2.94475e-06
8.66844e-05 0.00119396 2.35117e-06
-2.94475e-06 2.35117e-06 0.00120052
0.000491189 3.05523e-06 1.84963e-06
3.05523e-06 -3.69891e-05 -5.26139e-06
1.84963e-06 -5.26139e-06 -6.10567e-05
0.00170709 4.85132e-05 1.34625e-05
4.85132e-05 0.000712695 -1.09051e-06
1.34625e-05 -1.09051e-06 0.000718452
0.00254719 4.62015e-05 1.75498e-05
4.62015e-05 0.00123116 -5.37228e-06
1.75498e-05 -5.37228e-06 0.0012428
0.000315691 1.22253e-05 1.04719e-06
1.22253e-05 -0.000104113 -1.1695e-06
1.04719e-06 -1.1695e-06 -0.000214332
0.000243023 8.37979e-06 8.60608e-07
8.37979e-06 -0.000169141 -3.06294e-06
8.60608e-07 -3.06294e-06 -0.000235314
0.000511754 2.66889e-05 -4.84805e-07
2.66889e-05 3.12584e-05 -1.11355e-06
-4.84805e-07 -1.11355e-06 -8.30585e-05
0.000520407 -4.84506e-06 1.74167e-06
-4.84506e-06 -2.66807e-05 -4.07247e-06
1.74167e-06 -4.07247e-06 -3.9466e-05
0.000219138 1.20723e-05 -6.31638e-07
1.20723e-05 -0.000181095 -1.58244e-06
-6.31638e-07 -1.58244e-06 -0.000240317
0.000673236 4.83035e-05 -6.66091e-07
4.83035e-05 0.000139078 1.33736e-06
-6.66091e-07 1.33736e-06 2.9847e-05
0.00209363 -2.15247e-05 -1.41151e-05
-2.15247e-05 0.000947079 -4.6473e-06
-1.41151e-05 -4.6473e-06 0.000964779
0.00050535 -2.42204e-06 -4.34456e-07
-2.42204e-06 -3.5849e-05 -6.21615e-08
-4.34456e-07 -6.21615e-08 -4.57344e-05
0.0001644 1.08573e-05 7.96055e-07
1.08573e-05 -0.000213259 1.67031e-06
7.96055e-07 1.67031e-06 -0.000265039
0.00203058 -6.74476e-06 -3.92094e-06
-6.74476e-06 0.000908313 5.18922e-08
-3.92094e-06 5.18922e-08 0.000926762
0.000495682 2.09506e-07 -1.3122e-06
2.09506e-07 -4.13358e-05 3.41164e-06
-1.3122e-06 3.41164e-06 -4.9511e-05
0.00203343 8.54505e-06 4.52135e-06
8.54505e-06 0.000911269 4.71007e-06
4.52135e-06 4.71007e-06 0.000929413
0.000388985 -2.65586e-05 7.30281e-05
-2.65586e-05 0.00120741 1.81241e-05
7.30281e-05 1.81241e-05 0.000972802
2.29661e-05 -0.000280479 -2.80137e-05
-0.000280479 0.000197773 -1.45553e-05
-2.80137e-05 -1.45553e-05 -0.00271947
0.000446646 0.000301544 2.65118e-05
0.000301544 0.00550968 -3.2094e-05
2.65118e-05 -3.2094e-05 0.0026628
0.000761614 0.000117035 1.11477e-07
0.000117035 0.000175146 2.39875e-07
1.11477e-07 2.39875e-07 3.91461e-05
0.00049094 7.96561e-05 3.7884e-06
7.96561e-05 -6.99601e-06 1.79913e-06
3.7884e-06 1.79913e-06 -0.000131858
0.000990353 0.000166269 4.83117e-06
0.000166269 0.000315888 4.21972e-06
4.83117e-06 4.21972e-06 0.00017514
0.00437585 -0.00011191 -2.61441e-05
-0.00011191 -0.000396615 0.000218951
-2.61441e-05 0.000218951 -0.00113001
0.00407026 -0.000585487 5.70424e-05
-0.000585487 0.00267053 -4.44926e-06
5.70424e-05 -4.44926e-06 0.00133098
0.00444835 -0.00112491 0.000120846
-0.00112491 0.00187354 -0.000193969
0.000120846 -0.000193969 -0.00239598
0.00791949 -0.00187659 -5.97632e-05
-0.00187659 0.000723789 -1.71204e-05
-5.97632e-05 -1.71204e-05 0.00100711
0.000467043 -0.00203542 -0.000267314
-0.00203542 -0.00156338 0.000101087
-0.000267314 0.000101087 -0.00457116
0.0200613 0.00303374 0.000134101
0.00303374 0.00785018 0.000109765
0.000134101 0.000109765 0.00507067
0.00570515 0.000128933 0.000187787
0.000128933 -0.00306822 -0.000177362
0.000187787 -0.000177362 -0.00281157
0.00493505 -0.00217919 -3.38332e-05
-0.00217919 0.000572831 1.33712e-05
-3.38332e-05 1.33712e-05 0.000413603
0.0072408 -0.00261401 -7.80198e-05
-0.00261401 0.00289886 2.2724e-05
-7.80198e-05 2.2724e-05 -0.00122161
-0.00344648 0.00277856 -7.44572e-05
0.00277856 0.00212904 -0.000241194
-7.44572e-05 -0.000241194 -0.00153434
0.00823018 0.000253628 -4.52519e-05
0.000253628 -0.00340394 0.000108543
-4.52519e-05 0.000108543 -0.000449857
0.000781784 -0.00124854 -0.000103511
-0.00124854 0.000154657 2.96706e-05
-0.000103511 2.96706e-05 -0.000148287
0.0107331 -0.0023519 -0.000193534
-0.0023519 0.00521186 0.000128589
-0.000193534 0.000128589 0.000715632
-0.00419292 -3.84752e-07 3.76323e-05
-3.84752e-07 0.00137225 -0.000301522
3.76323e-05 -0.000301522 -0.001726
0.00748222 -0.00126713 8.59226e-05
-0.00126713 -0.00199136 3.41985e-05
8.59226e-05 3.41985e-05 -0.00104125
0.000427293 8.34503e-05 2.57322e-06
8.34503e-05 -5.09869e-06 1.0418e-05
2.57322e-06 1.0418e-05 -0.000147143
0.000744008 -1.72574e-05 2.53821e-06
-1.72574e-05 0.000233386 -2.00457e-06
2.53821e-06 -2.00457e-06 3.46036e-05
0.000850564 -0.000112593 -6.36071e-07
-0.000112593 0.000291845 -7.37916e-06
-6.36071e-07 -7.37916e-06 9.87994e-05
0.000694442 0.000109212 -1.57217e-06
0.000109212 0.000131723 5.03294e-07
-1.57217e-06 5.03294e-07 -1.18505e-05
0.000813032 0.000144014 3.89584e-07
0.000144014 0.000258602 -2.755e-06
3.89584e-07 -2.755e-06 9.25158e-05
0.00114472 0.000169063 -3.57153e-06
0.000169063 0.000452073 -1.76749e-06
-3.57153e-06 -1.76749e-06 0.000289715
-0.00130734 -0.000699245 2.04294e-05
-0.000699245 -0.00169366 -1.79783e-06
2.04294e-05 -1.79783e-06 -0.00162836
0.000578673 -0.000297747 3.04069e-05
-0.000297747 -2.0584e-07 -2.49215e-05
3.04069e-05 -2.49215e-05 2.23839e-05
8.37026e-05 1.71897e-05 -2.28145e-06
1.71897e-05 -0.000166924 -8.46796e-06
-2.28145e-06 -8.46796e-06 -0.00035709
0.00134568 -0.000360849 4.65776e-05
-0.000360849 0.000746246 -2.66213e-05
4.65776e-05 -2.66213e-05 0.000386922
0.00141507 -4.61154e-05 -6.46161e-06
-4.61154e-05 0.000756461 -5.61785e-07
-6.46161e-06 -5.61785e-07 0.000486821
0.000607367 9.72831e-05 2.4197e-06
9.72831e-05 0.000150172 1.92206e-06
2.4197e-06 1.92206e-06 -1.30517e-05
0.000944138 0.000156868 -5.86864e-07
0.000156868 0.000411367 -2.18096e-06
-5.86864e-07 -2.18096e-06 0.000241505
0.000322014 -0.000864114 3.02727e-06
-0.000864114 -0.000413376 -3.86065e-06
3.02727e-06 -3.86065e-06 -0.000580008
7.16579e-05 1.03315e-05 -6.23103e-06
1.03315e-05 0.000319303 4.27307e-06
-6.23103e-06 4.27307e-06 -0.000155466
0.00146486 -0.00026147 9.66856e-06
-0.00026147 0.000715436 -7.95768e-06
9.66856e-06 -7.95768e-06 0.000486071
0.00118492 0.000157538 1.72671e-06
0.000157538 0.000547391 -6.44959e-06
1.72671e-06 -6.44959e-06 0.000395392
-0.00299792 -6.75101e-05 -0.000121516
-6.75101e-05 -0.000936629 -1.46697e-05
-0.000121516 -1.46697e-05 -0.00164938
-1.74171e-05 -0.000129398 -1.67671e-05
-0.000129398 0.000261613 1.25389e-05
-1.67671e-05 1.25389e-05 -4.00618e-05
0.000308 0.000130436 3.12788e-06
0.000130436 0.000411606 8.67419e-06
3.12788e-06 8.67419e-06 3.29344e-05
8.17418e-05 6.25034e-05 -2.90678e-06
6.25034e-05 -0.000566752 4.84475e-07
-2.90678e-06 4.84475e-07 -0.00113852
-0.00111851 6.22129e-05 1.45269e-05
6.22129e-05 0.000676415 -1.56037e-05
1.45269e-05 -1.56037e-05 0.000108052
4.36516e-05 -0.000116377 0.000261575
-0.000116377 0.000797116 9.79192e-06
0.000261575 9.79192e-06 -0.00241153
-0.000644801 0.000228264 -5.90398e-06
0.000228264 -0.00022432 1.92596e-05
-5.90398e-06 1.92596e-05 -0.000531406
0.000843486 0.000651226 -6.57715e-06
0.000651226 0.000363554 -4.1304e-06
-6.57715e-06 -4.1304e-06 -0.000130541
-0.00141967 -1.24005e-05 -3.93835e-06
-1.24005e-05 -0.000115662 -6.44618e-06
-3.93835e-06 -6.44618e-06 -0.000346078
-0.00383623 0.000649866 5.20197e-05
0.000649866 0.00164331 0.000139854
5.20197e-05 0.000139854 -0.00317672
-0.00560729 0.00114151 -0.000170612
0.00114151 -0.00280935 -0.000394403
-0.000170612 -0.000394403 -0.00620943
0.00315246 8.25699e-05 6.36554e-05
8.25699e-05 -0.000130161 9.74467e-05
6.36554e-05 9.74467e-05 -0.000107259
0.00555799 0.000207832 -0.000192399
0.000207832 -0.00286542 0.000178073
-0.000192399 0.000178073 -0.00277266
0.000406537 0.000266955 2.54972e-06
0.000266955 0.000458881 -1.30914e-06
2.54972e-06 -1.30914e-06 0.000106376
0.0010206 6.36353e-07 2.38635e-05
6.36353e-07 -0.000349539 -2.74037e-05
2.38635e-05 -2.74037e-05 -0.000192955
0.00363342 -0.000468021 -5.86904e-05
-0.000468021 0.00259852 6.71831e-06
-5.86904e-05 6.71831e-06 0.0012673
0.00051671 0.000470311 -8.55708e-05
0.000470311 0.000983672 -6.33593e-06
-8.55708e-05 -6.33593e-06 -8.18211e-05
0.00987427 0.00339604 6.91378e-05
0.00339604 0.000815838 -0.000303947
6.91378e-05 -0.000303947 -0.000430115
-0.00138352 0.0021625 6.24321e-05
0.0021625 0.00217951 0.000241724
6.24321e-05 0.000241724 -0.00124765
0.00606794 0.000327993 4.84051e-05
0.000327993 0.00601967 -2.36332e-05
4.84051e-05 -2.36332e-05 -0.000541268
0.000982174 -4.84989e-06 2.99094e-05
-4.84989e-06 0.00135104 -2.5614e-05
2.99094e-05 -2.5614e-05 0.000566426
0.000245441 -5.90638e-05 -6.06732e-05
-5.90638e-05 0.00116261 3.61356e-06
-6.06732e-05 3.61356e-06 0.000893286
0.00252261 -0.000732353 0.000531117
-0.000732353 0.000900004 -0.000219508
0.000531117 -0.000219508 -0.00337685
0.0123139 0.00469907 -2.17342e-05
0.00469907 0.00858381 8.82224e-06
-2.17342e-05 8.82224e-06 0.00723357
-4.19141e-05 0.00270582 -9.59235e-05
0.00270582 -0.00147077 0.00059297
-9.59235e-05 0.00059297 -0.00365188
0.0121272 -0.00249509 0.000202532
-0.00249509 0.00541893 -0.00017461
0.000202532 -0.00017461 0.000627378
0.00335808 -0.000661742 -6.12267e-05
-0.000661742 0.00232939 4.94958e-05
-6.12267e-05 4.94958e-05 0.00165947
0.00153779 0.000274224 7.17213e-06
0.000274224 0.0011458 5.21326e-06
7.17213e-06 5.21326e-06 0.0007993
-0.000127958 -2.16014e-05 -5.4126e-06
-2.16014e-05 0.000212183 -2.04777e-06
-5.4126e-06 -2.04777e-06 -7.1908e-05
0.00185748 -0.000397136 2.75564e-05
-0.000397136 0.00112989 -1.14361e-05
2.75564e-05 -1.14361e-05 0.000749569
0.000818071 -8.85563e-05 2.61845e-07
-8.85563e-05 0.000446976 4.27701e-06
2.61845e-07 4.27701e-06 0.000265563
0.000131825 -3.54033e-05 -4.70594e-06
-3.54033e-05 0.000276571 1.77498e-06
-4.70594e-06 1.77498e-06 -4.65568e-05
0.000240808 -0.000205666 -2.57077e-06
-0.000205666 0.000283033 -1.2294e-07
-2.57077e-06 -1.2294e-07 1.21863e-06
0.000716441 -0.000410691 2.55507e-05
-0.000410691 0.000237576 -2.18593e-05
2.55507e-05 -2.18593e-05 4.56142e-05
0.00243272 -0.000308619 -3.67273e-06
-0.000308619 0.00122089 3.41875e-06
-3.67273e-06 3.41875e-06 0.00103947
0.00223661 -0.000576064 1.11777e-05
-0.000576064 0.00102641 -2.85668e-06
1.11777e-05 -2.85668e-06 0.000699467
0.0018462 -0.000547352 1.26402e-05
-0.000547352 0.000772409 -1.89056e-06
1.26402e-05 -1.89056e-06 0.000275296
0.000374938 -0.000266952 -3.75339e-06
-0.000266952 -0.000143193 -2.00687e-06
-3.75339e-06 -2.00687e-06 -0.00033065
0.00151025 -0.000464916 -2.28837e-06
-0.000464916 0.000394964 7.48907e-07
-2.28837e-06 7.48907e-07 3.26658e-05
0.00213707 -0.000631884 4.75984e-07
-0.000631884 0.000694637 9.65299e-07
4.75984e-07 9.65299e-07 0.000232645
0.0017367 -0.000637606 -4.34989e-06
-0.000637606 0.000347301 1.67793e-06
-4.34989e-06 1.67793e-06 -5.54918e-05
0.00158463 -0.000509541 -1.34838e-06
-0.000509541 0.000380868 4.40067e-07
-1.34838e-06 4.40067e-07 3.39918e-05
0.00148626 -0.000496397 -4.28323e-06
-0.000496397 0.00030976 1.26292e-06
-4.28323e-06 1.26292e-06 -5.12053e-05
0.00107576 -0.000364538 -4.80321e-06
-0.000364538 0.00018219 -1.09726e-06
-4.80321e-06 -1.09726e-06 -0.000121962
0.00210311 -0.000442259 4.40989e-06
-0.000442259 0.000789394 1.71876e-06
4.40989e-06 1.71876e-06 0.00050894
0.00145994 -0.000405816 4.61e-06
-0.000405816 0.000343623 -3.20311e-06
4.61e-06 -3.20311e-06 4.99989e-05
0.000310473 -0.000154991 1.7414e-06
-0.000154991 -0.000149567 -8.80387e-08
1.7414e-06 -8.80387e-08 -0.000375176
0.000875798 -0.000297363 3.47864e-06
-0.000297363 0.000104386 -6.55128e-07
3.47864e-06 -6.55128e-07 -0.000146717
0.000186831 -0.000247741 -4.88529e-07
-0.000247741 -0.000405733 -7.7314e-06
-4.88529e-07 -7.7314e-06 -0.000662027
-0.000138672 -1.65328e-05 3.87208e-07
-1.65328e-05 -0.000351553 1.52112e-06
3.87208e-07 1.52112e-06 -0.000538311
0.00105883 -0.000174356 -3.08603e-07
-0.000174356 0.000405333 -6.88082e-08
-3.08603e-07 -6.88082e-08 0.000167249
0.00100716 -0.000310342 -2.56022e-07
-0.000310342 0.000337232 -1.49022e-06
-2.56022e-07 -1.49022e-06 7.79969e-05
0.000695211 -1.14947e-05 -1.03803e-06
-1.14947e-05 0.000113711 4.44352e-06
-1.03803e-06 4.44352e-06 1.59186e-05
0.000807183 -9.19053e-05 -2.28282e-07
-9.19053e-05 0.000187751 -2.43607e-07
-2.28282e-07 -2.43607e-07 5.11773e-05
0.00026675 -8.20739e-05 2.07235e-07
-8.20739e-05 -8.10729e-05 1.10359e-06
2.07235e-07 1.10359e-06 -0.000266039
0.000714925 -8.58276e-05 8.30115e-07
-8.58276e-05 0.000150288 -8.29889e-07
8.30115e-07 -8.29889e-07 1.80013e-05
0.000614513 -3.13504e-05 -3.3597e-08
-3.13504e-05 6.32796e-05 -2.43986e-07
-3.3597e-08 -2.43986e-07 -2.37736e-05
0.000465557 3.49537e-05 4.75617e-07
3.49537e-05 -3.94257e-05 6.91084e-06
4.75617e-07 6.91084e-06 -7.34375e-05
0.000625005 -3.75024e-05 1.41577e-06
-3.75024e-05 7.22302e-05 -3.23301e-06
1.41577e-06 -3.23301e-06 -6.53495e-06
0.000506093 2.70057e-05 -1.34887e-06
2.70057e-05 -2.23329e-05 -1.69927e-07
-1.34887e-06 -1.69927e-07 -5.11756e-05
0.00260004 9.48083e-05 -3.14958e-05
9.48083e-05 0.00127502 4.34965e-06
-3.14958e-05 4.34965e-06 0.00128047
0.000523821 1.27287e-05 1.78409e-06
1.27287e-05 -1.7888e-05 -5.35668e-06
1.78409e-06 -5.35668e-06 -4.30375e-05
0.00168127 6.27514e-05 1.56062e-05
6.27514e-05 0.000699876 -8.49611e-07
1.56062e-05 -8.49611e-07 0.000703815
0.00258275 6.36703e-05 2.2218e-05
6.36703e-05 0.00125491 -5.04222e-06
2.2218e-05 -5.04222e-06 0.00126486
0.000708369 8.08624e-05 2.52542e-06
8.08624e-05 0.000147285 -2.74306e-07
2.52542e-06 -2.74306e-07 2.5777e-05
0.000541935 3.872e-05 1.07294e-06
3.872e-05 1.38875e-05 -2.60618e-06
1.07294e-06 -2.60618e-06 -5.64299e-05
0.000482857 4.5265e-05 -1.11961e-06
4.5265e-05 1.16591e-05 -1.19343e-06
-1.11961e-06 -1.19343e-06 -0.000107959
0.000508013 -4.74681e-06 9.36987e-07
-4.74681e-06 -3.39118e-05 -4.8583e-06
9.36987e-07 -4.8583e-06 -5.0482e-05
0.000370484 3.09782e-05 -2.00096e-06
3.09782e-05 -8.95696e-05 -1.5792e-06
-2.00096e-06 -1.5792e-06 -0.000155135
0.000705426 6.30134e-05 -8.80483e-07
6.30134e-05 0.000152934 -1.02025e-06
-8.80483e-07 -1.02025e-06 3.88682e-05
0.00217108 -3.62461e-05 -1.8425e-05
-3.62461e-05 0.000995432 -4.694e-06
-1.8425e-05 -4.694e-06 0.00101177
0.000503092 -6.68313e-06 -1.25896e-07
-6.68313e-06 -3.75186e-05 -1.02156e-07
-1.25896e-07 -1.02156e-07 -5.00296e-05
0.000170255 1.02181e-05 -1.64375e-06
1.02181e-05 -0.000211429 4.78679e-07
-1.64375e-06 4.78679e-07 -0.000271753
0.00211027 -2.06383e-05 -4.88843e-06
-2.06383e-05 0.000957326 1.12782e-07
-4.88843e-06 1.12782e-07 0.000975048
0.000500043 -4.37698e-06 -1.85977e-06
-4.37698e-06 -3.94552e-05 3.49298e-06
-1.85977e-06 3.49298e-06 -4.91153e-05
0.00206271 -5.27296e-06 9.38296e-06
-5.27296e-06 0.000928137 4.74156e-06
9.38296e-06 4.74156e-06 0.00094646
0.0011929 -0.000131371 -2.98407e-05
-0.000131371 -0.000289259 2.7456e-05
-2.98407e-05 2.7456e-05 -0.000198161
1.35294e-05 -0.000162252 3.81009e-05
-0.000162252 0.0010294 -2.44867e-06
3.81009e-05 -2.44867e-06 0.000772541
-0.000189311 -0.000301475 0.000141374
-0.000301475 0.000363417 -8.74902e-05
0.000141374 -8.74902e-05 -0.00277316
0.00034509 4.37126e-05 2.68091e-06
4.37126e-05 -0.00010253 1.51075e-06
2.68091e-06 1.51075e-06 -0.000227541
0.00164113 9.53744e-05 3.61209e-07
9.53744e-05 0.000675002 2.82013e-06
3.61209e-07 2.82013e-06 0.000529919
0.000742171 0.00012588 -1.4796e-06
0.00012588 0.000162729 -1.53538e-06
-1.4796e-06 -1.53538e-06 3.23435e-05
0.000502318 6.74027e-05 5.39655e-07
6.74027e-05 -1.11057e-05 6.9842e-07
5.39655e-07 6.9842e-07 -0.000128293
0.000553859 8.62418e-05 2.38741e-07
8.62418e-05 4.07537e-05 -1.82538e-07
2.38741e-07 -1.82538e-07 -8.50684e-05
0.000555774 7.65385e-05 3.57224e-06
7.65385e-05 3.23767e-05 8.73985e-07
3.57224e-06 8.73985e-07 -8.47999e-05
0.000590799 0.00016293 7.14398e-06
0.00016293 0.000102013 3.98372e-06
7.14398e-06 3.98372e-06 -3.93471e-05
0.000700233 0.000412183 0.000120507
0.000412183 -0.000403583 0.000226932
0.000120507 0.000226932 -0.0016436
0.00370906 -8.65009e-05 -2.7646e-05
-8.65009e-05 -0.000152453 5.7237e-05
-2.7646e-05 5.7237e-05 -0.000673498
0.00361959 -0.000448471 0.00010609
-0.000448471 0.00244804 -9.27714e-05
0.00010609 -9.27714e-05 0.00144828
0.00619137 -0.000122651 -6.75265e-06
-0.000122651 -0.00546978 0.000131345
-6.75265e-06 0.000131345 -0.00182372
0.00276879 -0.00180822 -9.32691e-05
-0.00180822 0.000417608 6.22604e-05
-9.32691e-05 6.22604e-05 0.000109332
2.27103e-05 -0.00268437 -0.000129351
-0.00268437 0.000937392 8.29165e-05
-0.000129351 8.29165e-05 -0.00395869
0.0121756 0.00322888 8.48055e-05
0.00322888 0.00603472 -0.000112679
8.48055e-05 -0.000112679 0.0027128
0.00292972 -0.00165602 -3.60639e-05
-0.00165602 0.000583591 1.66431e-05
-3.60639e-05 1.66431e-05 0.000625001
-0.00121931 -0.000625129 -1.88786e-05
-0.000625129 0.0027846 4.38282e-05
-1.88786e-05 4.38282e-05 -0.00311026
0.00582055 0.000415585 0.000118613
0.000415585 0.0026688 -1.73829e-05
0.000118613 -1.73829e-05 8.01911e-05
0.0129533 -0.00194848 -5.51941e-05
-0.00194848 0.00170332 -2.85155e-05
-5.51941e-05 -2.85155e-05 0.00305135
-0.00095234 -0.000312551 -0.000109716
-0.000312551 -0.000289382 9.98941e-05
-0.000109716 9.98941e-05 -0.000112972
0.00269347 0.00194873 -0.00013257
0.00194873 0.00394783 -8.00782e-05
-0.00013257 -8.00782e-05 -0.00201937
-0.00409714 -0.00371234 4.31209e-05
-0.00371234 -0.00164447 -0.000211229
4.31209e-05 -0.000211229 -0.0053113
0.0102992 -0.00228732 8.13973e-05
-0.00228732 0.00155407 -0.000467438
8.13973e-05 -0.000467438 0.00116522
0.000935984 2.76622e-05 9.04467e-06
2.76622e-05 0.000376179 2.92218e-06
9.04467e-06 2.92218e-06 0.000218969
0.000671897 0.000131076 -1.01652e-06
0.000131076 0.000153489 -1.25416e-06
-1.01652e-06 -1.25416e-06 7.91606e-06
0.000708514 -1.45148e-05 -3.47871e-07
-1.45148e-05 0.000220192 -3.45783e-06
-3.47871e-07 -3.45783e-06 9.35295e-06
0.000874961 0.000108579 -2.77533e-06
0.000108579 0.000264898 -5.82029e-06
-2.77533e-06 -5.82029e-06 0.000104909
-0.000514107 -0.000625244 -1.68679e-06
-0.000625244 -0.000782602 4.25893e-05
-1.68679e-06 4.25893e-05 -0.000931501
0.00349951 -0.000288976 3.60239e-08
-0.000288976 0.00197448 -2.54972e-05
3.60239e-08 -2.54972e-05 0.0016739
0.000630241 7.02128e-05 -4.10173e-06
7.02128e-05 0.000145369 -7.64837e-06
-4.10173e-06 -7.64837e-06 6.86879e-07
0.00068886 0.000195323 -2.39965e-06
0.000195323 0.000267103 -2.53394e-06
-2.39965e-06 -2.53394e-06 9.30855e-05
0.00120033 9.75425e-05 -7.65409e-06
9.75425e-05 0.000913149 -1.17964e-06
-7.65409e-06 -1.17964e-06 0.000539095
0.000586605 6.59409e-05 3.82553e-06
6.59409e-05 0.000146874 2.99698e-06
3.82553e-06 2.99698e-06 2.23933e-05
0.00021252 0.00013919 -5.95209e-07
0.00013919 0.000367783 1.04507e-06
-5.95209e-07 1.04507e-06 -2.44126e-05
0.0017482 -0.000342441 -3.7062e-06
-0.000342441 0.00142125 4.57752e-06
-3.7062e-06 4.57752e-06 0.00051424
-6.10151e-05 -0.000110214 1.75053e-05
-0.000110214 0.000393229 1.5012e-07
1.75053e-05 1.5012e-07 4.98067e-05
-0.000165595 0.000110455 3.84617e-06
0.000110455 -2.80866e-05 -3.20487e-06
3.84617e-06 -3.20487e-06 -0.000257542
0.00176933 -9.47283e-05 -1.78348e-05
-9.47283e-05 0.00259818 -3.82568e-05
-1.78348e-05 -3.82568e-05 0.00115053
0.0014053 0.000279854 -5.19147e-06
0.000279854 0.00114533 1.76944e-05
-5.19147e-06 1.76944e-05 0.00069742
-0.000889764 5.09879e-05 -4.19915e-05
5.09879e-05 0.00101162 9.99164e-06
-4.19915e-05 9.99164e-06 0.000288862
0.000927051 4.73335e-06 4.22555e-06
4.73335e-06 -0.000217573 1.48376e-06
4.22555e-06 1.48376e-06 -0.000307427
-0.00148533 7.12362e-05 6.06432e-07
7.12362e-05 0.000371429 -3.71115e-05
6.06432e-07 -3.71115e-05 -5.57184e-05
0.00020438 0.000176831 -9.6033e-06
0.000176831 0.000433659 8.65267e-06
-9.6033e-06 8.65267e-06 0.00015542
-0.00123613 0.000576649 9.34629e-05
0.000576649 -0.000537269 8.58452e-05
9.34629e-05 8.58452e-05 -0.00107541
0.00081825 2.7508e-06 3.62897e-05
2.7508e-06 -0.000429359 -4.74664e-06
3.62897e-05 -4.74664e-06 -0.000138433
0.00398131 -0.00167956 0.000142339
-0.00167956 0.00456191 -0.000165649
0.000142339 -0.000165649 -0.00255708
0.0139281 0.00286276 -0.000133557
0.00286276 0.0062733 0.000104272
-0.000133557 0.000104272 0.00325999
0.00347026 -0.000351436 -0.00010403
-0.000351436 0.00225714 0.000100005
-0.00010403 0.000100005 0.00135782
0.0101093 0.00335228 -1.52822e-05
0.00335228 0.00264598 -0.000139534
-1.52822e-05 -0.000139534 0.000763581
0.000426928 0.000131571 -4.47795e-05
0.000131571 0.000940843 1.01084e-05
-4.47795e-05 1.01084e-05 0.000160614
0.000323262 -8.60953e-05 -4.45509e-05
-8.60953e-05 0.00098243 1.53787e-06
-4.45509e-05 1.53787e-06 0.000869262
0.0035271 -0.000952744 0.000209991
-0.000952744 0.00142502 -2.04653e-05
0.000209991 -2.04653e-05 -0.002697
-0.00140495 -0.000173233 2.81208e-05
-0.000173233 -0.000397249 2.9137e-05
2.81208e-05 2.9137e-05 -0.00071147
0.00564897 0.00517367 0.000372446
0.00517367 0.00480091 -0.000184414
0.000372446 -0.000184414 0.00389914
0.00730826 0.00216866 -0.000138132
0.00216866 0.00138916 0.000255729
-0.000138132 0.000255729 -0.000904071
-0.00279673 -0.00100789 0.000110317
-0.00100789 0.00201325 -0.000112218
0.000110317 -0.000112218 -0.00434697
-0.000141141 -0.000327084 1.86336e-05
-0.000327084 0.000491138 -2.0498e-05
1.86336e-05 -2.0498e-05 -0.000276813
0.000184676 -0.000456298 0.000190825
-0.000456298 -0.000298385 -4.31767e-05
0.000190825 -4.31767e-05 -0.00266703
-0.00216478 1.22668e-05 -0.000661262
1.22668e-05 0.00462136 0.000177493
-0.000661262 0.000177493 0.00171631
0.0100098 0.00490172 -0.000451931
0.00490172 0.00245222 0.000477525
-0.000451931 0.000477525 0.000912054
0.00870342 -0.00225606 -7.61426e-05
-0.00225606 0.00360253 2.9543e-05
-7.61426e-05 2.9543e-05 -3.64171e-05
0.00281819 -0.0010348 -3.36188e-05
-0.0010348 0.00178739 2.30955e-05
-3.36188e-05 2.30955e-05 0.00125193
0.000498037 -5.21375e-05 6.39673e-06
-5.21375e-05 0.000504842 1.22994e-05
6.39673e-06 1.22994e-05 0.000234554
0.000333846 -0.000272123 3.54988e-06
-0.000272123 0.000372331 -5.00916e-07
3.54988e-06 -5.00916e-07 -1.35848e-05
0.0011478 -0.000553749 9.94291e-06
-0.000553749 0.0005538 -5.36029e-07
9.94291e-06 -5.36029e-07 0.000396186
-0.000446082 -0.000187454 -5.84914e-09
-0.000187454 -2.37695e-05 7.40668e-06
-5.84914e-09 7.40668e-06 -0.000311363
-0.000797745 -0.000269705 1.49869e-06
-0.000269705 -0.000488309 -1.38879e-06
1.49869e-06 -1.38879e-06 -0.000689092
0.0027081 -0.000675434 4.24252e-05
-0.000675434 0.00108117 -3.51818e-06
4.24252e-05 -3.51818e-06 0.000799998
0.00566095 -0.00094634 -1.4347e-05
-0.00094634 0.0028782 5.34895e-06
-1.4347e-05 5.34895e-06 0.00250229
0.00267869 -0.000650044 6.84022e-06
-0.000650044 0.00114724 1.37694e-07
6.84022e-06 1.37694e-07 0.000659301
0.00160507 -0.000622323 1.0967e-05
-0.000622323 0.000401246 -8.93591e-06
1.0967e-05 -8.93591e-06 -0.000114167
0.00151189 -0.000462424 -8.8732e-06
-0.000462424 0.000362201 -1.46902e-06
-8.8732e-06 -1.46902e-06 2.21764e-06
0.0022807 -0.000658123 2.53952e-06
-0.000658123 0.000748327 -4.32877e-07
2.53952e-06 -4.32877e-07 0.000278397
0.00230594 -0.000703716 3.3233e-06
-0.000703716 0.000700906 -8.98468e-06
3.3233e-06 -8.98468e-06 0.000230583
0.00204303 -0.000613538 -1.86802e-06
-0.000613538 0.000394169 -4.62246e-06
-1.86802e-06 -4.62246e-06 5.59166e-05
0.00206203 -0.000672022 -1.57271e-06
-0.000672022 0.000510364 1.35743e-06
-1.57271e-06 1.35743e-06 0.000127872
0.00195544 -0.000662879 -2.05864e-06
-0.000662879 0.000467793 -2.40214e-09
-2.05864e-06 -2.40214e-09 5.65684e-05
0.00200616 -0.000520006 7.07313e-06
-0.000520006 0.000672562 2.17362e-06
7.07313e-06 2.17362e-06 0.000348565
0.00126921 -0.000468048 1.48989e-06
-0.000468048 0.000198413 -2.96457e-08
1.48989e-06 -2.96457e-08 -0.000133537
0.00127699 -0.000475203 -5.4428e-07
-0.000475203 0.000184994 1.22562e-08
-5.4428e-07 1.22562e-08 -0.000173291
0.00157697 -0.000356135 3.31909e-06
-0.000356135 0.000505529 3.14422e-07
3.31909e-06 3.14422e-07 0.000253461
0.00147969 -0.000377168 -9.71402e-07
-0.000377168 0.000406452 -1.4801e-06
-9.71402e-07 -1.4801e-06 0.000136741
0.00127915 -0.000389054 1.03437e-05
-0.000389054 0.000240753 -4.99054e-06
1.03437e-05 -4.99054e-06 -5.05964e-05
0.000680975 -0.000165422 3.29097e-06
-0.000165422 0.000172352 2.82675e-07
3.29097e-06 2.82675e-07 -8.76591e-05
0.000719755 -0.00019485 -1.98723e-06
-0.00019485 0.000114696 1.20122e-06
-1.98723e-06 1.20122e-06 -0.000120752
0.00102019 -0.000322928 7.57822e-06
-0.000322928 0.000208809 -6.37347e-06
7.57822e-06 -6.37347e-06 -4.71166e-05
0.000349905 -1.78849e-05 5.63453e-07
-1.78849e-05 -0.000102704 4.87143e-06
5.63453e-07 4.87143e-06 -0.000213937
0.000687992 -6.12916e-05 -9.96491e-07
-6.12916e-05 0.000156371 4.28483e-08
-9.96491e-07 4.28483e-08 -4.06718e-05
0.00139192 -0.000234116 8.66861e-07
-0.000234116 0.000614335 6.05155e-07
8.66861e-07 6.05155e-07 0.000367157
0.000462759 2.25706e-05 -3.35301e-06
2.25706e-05 -4.08977e-05 1.00334e-05
-3.35301e-06 1.00334e-05 -7.77765e-05
0.000638121 -2.02159e-05 -3.44043e-07
-2.02159e-05 7.3703e-05 -1.19071e-07
-3.44043e-07 -1.19071e-07 -2.27696e-05
0.00118118 -0.000132217 1.13831e-07
-0.000132217 0.000424592 -9.90269e-07
1.13831e-07 -9.90269e-07 0.000275401
0.00065821 -3.20903e-05 1.12577e-06
-3.20903e-05 8.90562e-05 -3.58788e-06
1.12577e-06 -3.58788e-06 1.75734e-06
0.000494676 2.96261e-05 1.35697e-07
2.96261e-05 -2.3294e-05 -9.42384e-08
1.35697e-07 -9.42384e-08 -5.66577e-05
0.00271231 0.000116439 -3.29221e-05
0.000116439 0.00135297 4.11656e-06
-3.29221e-05 4.11656e-06 0.00135347
0.000547726 2.63305e-05 6.42066e-07
2.63305e-05 1.63773e-06 -6.084e-06
6.42066e-07 -6.084e-06 -2.70365e-05
0.00261861 9.81746e-05 3.83126e-06
9.81746e-05 0.0012873 4.10424e-07
3.83126e-06 4.10424e-07 0.00129204
0.00255482 8.06106e-05 2.57505e-05
8.06106e-05 0.00124173 -4.59669e-06
2.57505e-05 -4.59669e-06 0.00124976
0.000683079 8.13019e-05 1.40808e-06
8.13019e-05 0.000170772 -1.93167e-06
1.40808e-06 -1.93167e-06 6.6619e-06
0.00076499 0.000102421 4.15321e-06
0.000102421 0.000194862 -8.0392e-07
4.15321e-06 -8.0392e-07 5.08118e-05
0.000588089 3.07263e-05 1.80072e-06
3.07263e-05 4.12222e-05 -3.24004e-06
1.80072e-06 -3.24004e-06 -3.67088e-05
0.000641499 9.36313e-05 1.71303e-07
9.36313e-05 0.000103246 -2.02946e-07
1.71303e-07 -2.02946e-07 -1.67035e-05
0.000494788 -8.69088e-06 4.09012e-07
-8.69088e-06 -3.94329e-05 -5.80768e-06
4.09012e-07 -5.80768e-06 -6.0519e-05
0.000561942 4.18341e-05 2.27525e-07
4.18341e-05 2.65182e-05 -1.37061e-07
2.27525e-07 -1.37061e-07 -4.38557e-05
0.000593131 4.94166e-05 -3.23983e-06
4.94166e-05 6.69673e-05 -3.35173e-07
-3.23983e-06 -3.35173e-07 -4.39558e-05
0.00230554 -5.18185e-05 -2.40739e-05
-5.18185e-05 0.00108045 -4.75033e-06
-2.40739e-05 -4.75033e-06 0.0010945
0.000503621 -9.75383e-06 -6.06958e-07
-9.75383e-06 -3.60744e-05 -9.3211e-08
-6.06958e-07 -9.3211e-08 -5.25207e-05
0.00050208 4.76935e-05 -2.67141e-06
4.76935e-05 -7.45218e-06 8.66202e-07
-2.67141e-06 8.66202e-07 -7.22649e-05
0.0021843 -3.54578e-05 -4.53452e-06
-3.54578e-05 0.00100355 2.06227e-07
-4.53452e-06 2.06227e-07 0.00101996
0.000502817 -6.86475e-06 -1.95441e-06
-6.86475e-06 -3.78299e-05 3.79798e-06
-1.95441e-06 3.79798e-06 -5.01122e-05
0.00209574 -1.96799e-05 1.35813e-05
-1.96799e-05 0.000948092 4.65489e-06
1.35813e-05 4.65489e-06 0.000965948
-0.00135747 2.18985e-05 -1.09613e-05
2.18985e-05 -0.000106977 -6.8394e-06
-1.09613e-05 -6.8394e-06 -3.32394e-05
0.00118969 -0.000144854 -1.70673e-05
-0.000144854 -0.000297092 2.50421e-05
-1.70673e-05 2.50421e-05 -8.61921e-05
0.000249446 -0.000163798 7.27234e-06
-0.000163798 0.000988006 -2.61808e-05
7.27234e-06 -2.61808e-05 0.000745129
0.000773328 8.58553e-05 -3.80716e-07
8.58553e-05 0.000192038 5.19612e-07
-3.80716e-07 5.19612e-07 4.45217e-05
0.000541998 7.79358e-05 3.31618e-06
7.79358e-05 6.69572e-06 -1.00614e-06
3.31618e-06 -1.00614e-06 -0.000129282
-0.00128281 1.77808e-06 -4.17201e-06
1.77808e-06 -0.00108591 -7.72849e-06
-4.17201e-06 -7.72849e-06 -0.00119694
0.000163206 3.14153e-05 2.15427e-06
3.14153e-05 -0.000196853 7.8005e-06
2.15427e-06 7.8005e-06 -0.000326556
0.0024975 0.000316844 -1.45497e-06
0.000316844 0.00125082 -2.33903e-07
-1.45497e-06 -2.33903e-07 0.00104438
0.000710358 4.17213e-05 -4.09769e-06
4.17213e-05 0.00010713 -1.80729e-06
-4.09769e-06 -1.80729e-06 -7.54822e-06
0.000565974 7.99231e-05 -4.25238e-06
7.99231e-05 4.03147e-05 -5.33035e-06
-4.25238e-06 -5.33035e-06 -7.67546e-05
0.000723438 6.9542e-05 1.28354e-07
6.9542e-05 0.000137394 -3.38238e-07
1.28354e-07 -3.38238e-07 1.72688e-05
0.00095523 0.000135336 -1.15804e-07
0.000135336 0.000300684 -9.79004e-07
-1.15804e-07 -9.79004e-07 0.000172793
0.000750503 9.88087e-05 5.40088e-06
9.88087e-05 0.000260153 -7.35791e-06
5.40088e-06 -7.35791e-06 8.64348e-05
0.00439967 0.00058584 0.000286606
0.00058584 0.00305582 0.000379324
0.000286606 0.000379324 -0.00117647
0.00133664 0.000374011 1.49284e-05
0.000374011 -8.21684e-05 8.27501e-05
1.49284e-05 8.27501e-05 -0.00155854
0.00325084 -7.26882e-05 3.6009e-06
-7.26882e-05 -4.71074e-06 -1.38908e-05
3.6009e-06 -1.38908e-05 -0.000254623
0.012862 -0.00166947 -0.000185254
-0.00166947 0.00175085 -0.000137259
-0.000185254 -0.000137259 0.003421
-0.00590371 0.0015358 3.78631e-05
0.0015358 -0.00252831 0.000371648
3.78631e-05 0.000371648 -0.00612603
0.00358504 -0.00175725 -9.09604e-05
-0.00175725 0.00115813 1.42576e-05
-9.09604e-05 1.42576e-05 0.0011986
0.0102853 -0.00164144 -0.000114073
-0.00164144 0.00526742 1.0101e-05
-0.000114073 1.0101e-05 0.000969171
0.000669274 -0.000412628 -1.88857e-05
-0.000412628 0.00024434 8.08207e-05
-1.88857e-05 8.08207e-05 9.53568e-05
0.0099718 -0.00027106 -8.58148e-05
-0.00027106 0.00595921 -7.28347e-06
-8.58148e-05 -7.28347e-06 0.000290389
0.00400664 -0.00214004 8.56097e-05
-0.00214004 0.00224128 0.000136192
8.56097e-05 0.000136192 -0.00121193
0.0111588 -0.00300811 -0.000181315
-0.00300811 0.00071979 -0.000553022
-0.000181315 -0.000553022 0.000233028
0.00361448 8.28426e-05 -9.63267e-05
8.28426e-05 0.00241299 8.05621e-05
-9.63267e-05 8.05621e-05 0.00171524
0.0120402 0.002008 -0.000118849
0.002008 0.00591951 2.79813e-05
-0.000118849 2.79813e-05 0.00157089
0.0154249 -0.00437326 -0.000187895
-0.00437326 0.00674648 -0.000512189
-0.000187895 -0.000512189 0.00445735
0.0156318 -0.00547759 7.48019e-05
-0.00547759 0.00512648 -4.05448e-05
7.48019e-05 -4.05448e-05 0.00462299
0.000449747 0.0001468 1.11878e-05
0.0001468 0.000158361 7.68883e-07
1.11878e-05 7.68883e-07 -3.54334e-05
0.000441971 4.03246e-05 1.71853e-06
4.03246e-05 0.000120403 2.30086e-06
1.71853e-06 2.30086e-06 -6.32187e-05
0.000887975 0.000154057 -5.83276e-06
0.000154057 0.000294997 -8.41731e-06
-5.83276e-06 -8.41731e-06 0.000140686
0.00332144 -0.000355442 -5.94226e-05
-0.000355442 0.0017672 3.91607e-05
-5.94226e-05 3.91607e-05 0.000745724
0.000226186 -7.74014e-05 -5.47744e-06
-7.74014e-05 0.000633815 -3.88246e-05
-5.47744e-06 -3.88246e-05 0.000271229
0.000419837 -2.4138e-06 -7.73938e-06
-2.4138e-06 3.67984e-05 -8.18221e-07
-7.73938e-06 -8.18221e-07 -7.97082e-05
5.01688e-06 4.86908e-05 -2.32062e-07
4.86908e-05 0.000251199 -4.98745e-06
-2.32062e-07 -4.98745e-06 -0.000137856
0.000313561 0.000101826 1.51764e-06
0.000101826 0.000228076 -1.0278e-06
1.51764e-06 -1.0278e-06 -8.81736e-06
0.000499211 0.000247974 8.77864e-06
0.000247974 0.000587155 9.41789e-07
8.77864e-06 9.41789e-07 0.000137755
-0.00153124 -9.57521e-05 0.000202339
-9.57521e-05 0.000647798 -1.57853e-05
0.000202339 -1.57853e-05 -0.000930254
-0.00182601 0.000159916 -1.42746e-05
0.000159916 -0.000931378 1.33418e-05
-1.42746e-05 1.33418e-05 -0.00125112
0.00269951 0.000619399 -0.000120481
0.000619399 0.00196579 -7.11517e-05
-0.000120481 -7.11517e-05 0.000848585
0.0015936 0.000169865 0.000132406
0.000169865 0.00156014 4.09184e-05
0.000132406 4.09184e-05 -0.00166825
-0.00121883 7.12673e-05 -1.42625e-05
7.12673e-05 0.000725825 1.77193e-05
-1.42625e-05 1.77193e-05 7.09421e-05
0.00178484 -0.000138303 -8.27749e-06
-0.000138303 0.000169729 7.60084e-07
-8.27749e-06 7.60084e-07 0.000507738
-0.00103544 0.000405055 0.000115007
0.000405055 5.20858e-05 1.2826e-05
0.000115007 1.2826e-05 -0.000819345
0.00167139 0.00026482 -6.28153e-05
0.00026482 0.00152886 5.91999e-05
-6.28153e-05 5.91999e-05 0.000407818
0.000221637 -0.000152438 -1.48058e-05
-0.000152438 0.000949334 7.4381e-06
-1.48058e-05 7.4381e-06 0.000715155
0.0161186 -0.00296227 0.000163647
-0.00296227 0.00750879 -7.38182e-05
0.000163647 -7.38182e-05 0.00238582
0.0181458 0.00326223 -5.58906e-05
0.00326223 0.00753126 -0.000100936
-5.58906e-05 -0.000100936 0.00479629
0.00451245 -0.00103941 -0.000149916
-0.00103941 0.00206235 0.000185808
-0.000149916 0.000185808 -0.00208106
-0.00174514 0.00590148 0.00169185
0.00590148 0.00042195 -0.0011842
0.00169185 -0.0011842 -0.000311202
0.00082066 -0.000352049 2.27095e-05
-0.000352049 0.00102893 -6.61419e-06
2.27095e-05 -6.61419e-06 0.000180148
7.00886e-05 -0.000329096 2.37946e-05
-0.000329096 0.00012863 1.52935e-05
2.37946e-05 1.52935e-05 -0.00268629
-0.0022076 0.000308993 -0.000816851
0.000308993 0.00450625 0.000293378
-0.000816851 0.000293378 0.00144742
0.000949202 -0.000604074 -7.35598e-06
-0.000604074 0.000812242 3.35885e-05
-7.35598e-06 3.35885e-05 0.000340154
0.0176175 0.00434076 0.00022797
0.00434076 0.00511521 8.22923e-05
0.00022797 8.22923e-05 0.00373578
0.00779847 -0.00313375 0.000143736
-0.00313375 0.00281792 -6.49465e-05
0.000143736 -6.49465e-05 -0.000680063
0.00218213 -0.000936922 -1.47959e-05
-0.000936922 0.00113261 2.91534e-05
-1.47959e-05 2.91534e-05 0.000660212
-0.00623836 -0.00115279 9.40546e-05
-0.00115279 0.00378545 -5.10323e-05
9.40546e-05 -5.10323e-05 0.000487625
0.0137369 0.00396668 -0.00101149
0.00396668 0.00550952 0.000431774
-0.00101149 0.000431774 0.00392603
0.00402609 -0.00218806 -0.000309822
-0.00218806 -0.000527462 0.000172873
-0.000309822 0.000172873 -0.00408723
0.00218972 -0.00155004 0.000168044
-0.00155004 0.000389955 -9.24153e-05
0.000168044 -9.24153e-05 0.00102523
-5.12719e-06 -0.000300499 -6.75489e-05
-0.000300499 0.000161346 2.28539e-05
-6.75489e-05 2.28539e-05 -0.000198711
0.000697677 -0.000484522 -8.36181e-06
-0.000484522 0.000361059 1.20786e-05
-8.36181e-06 1.20786e-05 0.00012739
0.00335087 -0.000737428 2.74872e-05
-0.000737428 0.00153298 1.99382e-07
2.74872e-05 1.99382e-07 0.00125195
-0.00244697 -0.000128747 2.02455e-06
-0.000128747 -0.00127652 1.1982e-05
2.02455e-06 1.1982e-05 -0.00148724
0.000853475 -0.000462707 5.76106e-06
-0.000462707 0.000116137 5.68712e-07
5.76106e-06 5.68712e-07 -0.000149025
0.00222269 -0.000718719 9.22988e-06
-0.000718719 0.000548735 -8.5747e-07
9.22988e-06 -8.5747e-07 0.000234821
0.00340648 -0.000738658 -2.47701e-05
-0.000738658 0.00146554 7.03443e-06
-2.47701e-05 7.03443e-06 0.000990525
0.00144732 -0.000588213 -1.09298e-06
-0.000588213 0.00029424 -1.83658e-06
-1.09298e-06 -1.83658e-06 -0.000197619
0.00178036 -0.000724197 5.65854e-06
-0.000724197 0.000251304 -9.38547e-06
5.65854e-06 -9.38547e-06 -0.000146423
0.00272629 -0.000717298 -4.24279e-06
-0.000717298 0.000969893 2.46217e-06
-4.24279e-06 2.46217e-06 0.000490706
0.00192269 -0.000667639 3.00147e-07
-0.000667639 0.000468225 -4.77464e-06
3.00147e-07 -4.77464e-06 1.63243e-05
0.00242978 -0.000655924 2.50287e-06
-0.000655924 0.000556104 -8.4621e-06
2.50287e-06 -8.4621e-06 0.000226516
0.0016777 -0.000452883 -4.19326e-06
-0.000452883 3.90954e-05 -3.26285e-06
-4.19326e-06 -3.26285e-06 -0.000193311
0.00175056 -0.000604295 8.59283e-07
-0.000604295 0.000186594 -1.06642e-06
8.59283e-07 -1.06642e-06 -0.000147329
0.00195515 -0.000604161 2.48969e-06
-0.000604161 0.000341726 -2.91806e-06
2.48969e-06 -2.91806e-06 7.46636e-06
0.00197153 -0.000587617 5.81969e-07
-0.000587617 0.000523711 -1.87321e-07
5.81969e-07 -1.87321e-07 0.000178711
0.0020672 -0.00067195 -2.22833e-06
-0.00067195 0.000526821 1.2397e-07
-2.22833e-06 1.2397e-07 0.000139444
0.00217209 -0.000689822 9.65775e-07
-0.000689822 0.000585567 -2.99834e-06
9.65775e-07 -2.99834e-06 0.000165783
0.0018614 -0.000433919 3.98863e-06
-0.000433919 0.000624061 3.06355e-06
3.98863e-06 3.06355e-06 0.000338095
0.00126012 -0.000437123 1.50494e-06
-0.000437123 0.000235786 9.89139e-07
1.50494e-06 9.89139e-07 -6.82145e-05
0.00103148 -0.000436455 3.49349e-06
-0.000436455 5.99408e-05 2.91981e-07
3.49349e-06 2.91981e-07 -0.000258695
0.00118401 -0.00030502 -1.07599e-06
-0.00030502 0.000358914 6.01411e-07
-1.07599e-06 6.01411e-07 0.000111266
0.00104774 -0.000297088 -4.6727e-07
-0.000297088 0.00018897 -9.75309e-07
-4.6727e-07 -9.75309e-07 -5.29869e-05
0.00101028 -0.000327794 -3.91244e-06
-0.000327794 0.000118648 -3.85549e-06
-3.91244e-06 -3.85549e-06 -0.00014392
-0.000136251 -4.37448e-05 -1.18132e-06
-4.37448e-05 -0.000384778 5.26681e-06
-1.18132e-06 5.26681e-06 -0.000544347
0.00076032 -0.00017212 2.38176e-06
-0.00017212 0.000215834 1.60699e-07
2.38176e-06 1.60699e-07 -4.19247e-05
0.00134309 -0.000245691 -1.83997e-06
-0.000245691 0.00051047 2.38026e-06
-1.83997e-06 2.38026e-06 0.000260818
0.00166949 6.07173e-05 -3.00344e-05
6.07173e-05 0.000713714 6.68428e-06
-3.00344e-05 6.68428e-06 0.000671714
0.000711108 -5.77518e-05 4.71118e-07
-5.77518e-05 0.000112335 -5.86449e-07
4.71118e-07 -5.86449e-07 -2.74989e-06
0.00149361 -0.000105507 -3.31782e-06
-0.000105507 0.000653741 -2.03968e-06
-3.31782e-06 -2.03968e-06 0.000445176
0.000771568 4.66262e-05 -3.96138e-05
4.66262e-05 0.000154565 4.7155e-06
-3.96138e-05 4.7155e-06 0.000148017
0.00104091 3.96529e-05 -1.26951e-05
3.96529e-05 0.00031886 -4.86529e-07
-1.26951e-05 -4.86529e-07 0.000282513
0.000628517 -2.86686e-05 1.30757e-06
-2.86686e-05 6.27831e-05 -4.51365e-06
1.30757e-06 -4.51365e-06 -3.25662e-05
0.000536493 2.84421e-05 1.49678e-06
2.84421e-05 1.82287e-06 -7.17629e-06
1.49678e-06 -7.17629e-06 -3.17061e-05
0.00274297 0.000117595 6.45724e-06
0.000117595 0.00137247 5.95772e-07
6.45724e-06 5.95772e-07 0.00137282
0.00260859 9.95832e-05 2.84688e-05
9.95832e-05 0.00128185 -4.43267e-06
2.84688e-05 -4.43267e-06 0.00128627
0.00110156 0.000122597 5.79441e-06
0.000122597 0.000408113 2.84503e-06
5.79441e-06 2.84503e-06 0.000247847
0.00109686 0.000130932 2.52044e-06
0.000130932 0.000416239 -2.3672e-06
2.52044e-06 -2.3672e-06 0.000251708
0.000365586 6.71901e-05 -5.76849e-07
6.71901e-05 -4.91832e-05 1.24658e-06
-5.76849e-07 1.24658e-06 -0.000194238
0.000633984 2.35917e-05 1.81259e-06
2.35917e-05 6.93287e-05 -4.3353e-06
1.81259e-06 -4.3353e-06 -1.80869e-05
0.000783601 9.20524e-05 6.19258e-07
9.20524e-05 0.000198335 -2.07629e-08
6.19258e-07 -2.07629e-08 6.35608e-05
0.000489324 -3.29872e-06 -1.01842e-06
-3.29872e-06 -3.77322e-05 -6.78678e-06
-1.01842e-06 -6.78678e-06 -6.34848e-05
0.000563522 3.28784e-05 -7.64956e-08
3.28784e-05 2.79497e-05 -2.98806e-07
-7.64956e-08 -2.98806e-07 -5.06463e-05
0.000706 6.62766e-05 -2.27699e-06
6.62766e-05 0.000162626 9.62772e-07
-2.27699e-06 9.62772e-07 2.77481e-05
0.00248573 -6.87748e-05 -3.14341e-05
-6.87748e-05 0.00119558 -4.63387e-06
-3.14341e-05 -4.63387e-06 0.00120669
0.000482223 -7.37308e-06 -7.83812e-07
-7.37308e-06 -4.67976e-05 -9.11577e-08
-7.83812e-07 -9.11577e-08 -6.76741e-05
0.000569143 4.63433e-05 -3.11203e-07
4.63433e-05 3.17883e-05 2.87525e-06
-3.11203e-07 2.87525e-06 -3.87667e-05
0.0023121 -5.15451e-05 -5.31891e-06
-5.15451e-05 0.00108441 3.13263e-07
-5.31891e-06 3.13263e-07 0.00109853
0.000483986 -1.33113e-05 -2.78999e-06
-1.33113e-05 -4.77429e-05 4.6629e-06
-2.78999e-06 4.6629e-06 -6.40773e-05
0.00218597 -3.40823e-05 1.8955e-05
-3.40823e-05 0.00100449 4.57281e-06
1.8955e-05 4.57281e-06 0.00102107
0.00604506 0.000364118 0.000218527
0.000364118 0.00298911 4.17e-05
0.000218527 4.17e-05 0.00128142
-0.00120293 -5.40244e-06 -9.42682e-07
-5.40244e-06 -0.000106883 -3.99496e-06
-9.42682e-07 -3.99496e-06 -0.000163037
0.000918048 -4.75711e-05 -2.30166e-05
-4.75711e-05 -0.000280985 3.52197e-07
-2.30166e-05 3.52197e-07 -1.77887e-05
-0.000226817 8.94047e-05 -6.8876e-06
8.94047e-05 -0.00044079 -1.85793e-06
-6.8876e-06 -1.85793e-06 -0.000570249
0.000681794 7.88886e-05 -4.17258e-06
7.88886e-05 0.000131922 -1.34137e-06
-4.17258e-06 -1.34137e-06 -6.58549e-06
0.000186495 6.02223e-05 4.22603e-07
6.02223e-05 -0.000212458 -2.57586e-06
4.22603e-07 -2.57586e-06 -0.00034181
0.000960955 6.00308e-05 5.21052e-07
6.00308e-05 0.000275598 -3.91355e-07
5.21052e-07 -3.91355e-07 0.000139761
0.00032074 8.77933e-05 -1.58557e-06
8.77933e-05 -0.000126724 -2.67765e-07
-1.58557e-06 -2.67765e-07 -0.000245741
0.00176868 0.000242164 2.21919e-07
0.000242164 0.00080296 -2.69381e-06
2.21919e-07 -2.69381e-06 0.000632355
0.00106683 0.00019553 -4.03936e-06
0.00019553 0.000345231 -1.35559e-05
-4.03936e-06 -1.35559e-05 0.000114647
-0.000423523 4.90017e-05 2.44314e-06
4.90017e-05 -0.000403068 3.2804e-06
2.44314e-06 3.2804e-06 -0.000624754
0.000785834 0.000134151 -3.47264e-06
0.000134151 0.000195459 -2.01544e-06
-3.47264e-06 -2.01544e-06 6.15838e-05
0.000204232 4.28417e-05 -4.95192e-06
4.28417e-05 -0.000189534 -4.42758e-06
-4.95192e-06 -4.42758e-06 -0.000287454
0.000236375 5.23172e-05 1.53629e-07
5.23172e-05 -6.48037e-05 9.80783e-07
1.53629e-07 9.80783e-07 -0.00022698
0.00100582 0.000210693 1.39112e-05
0.000210693 0.000516332 4.04313e-06
1.39112e-05 4.04313e-06 0.000254391
0.00161501 -0.00183861 0.000143834
-0.00183861 0.00420644 0.000245749
0.000143834 0.000245749 0.000185652
0.0050278 0.000780632 6.98188e-05
0.000780632 0.00269784 0.000139097
6.98188e-05 0.000139097 -0.00177439
0.00188524 0.000275734 -2.78204e-05
0.000275734 0.000299704 -7.23264e-05
-2.78204e-05 -7.23264e-05 -0.00139241
0.0174298 -0.00371912 -0.000487978
-0.00371912 0.00398659 -0.000294137
-0.000487978 -0.000294137 0.00341584
0.0063287 -0.00135216 0.00018148
-0.00135216 0.00273804 0.000388424
0.00018148 0.000388424 0.000178308
0.00273423 -0.00118136 -0.000166039
-0.00118136 0.00387129 8.496e-05
-0.000166039 8.496e-05 -0.00220704
0.00083888 -0.000568306 5.55297e-05
-0.000568306 0.00118186 2.68262e-05
5.55297e-05 2.68262e-05 0.000410503
0.00105943 -0.000122931 2.14933e-05
-0.000122931 0.000972479 5.45506e-05
2.14933e-05 5.45506e-05 0.000599333
0.0075347 -0.00564797 0.000308713
-0.00564797 0.00282016 0.000299065
0.000308713 0.000299065 0.00222002
0.00300017 0.00130712 -6.01405e-05
0.00130712 0.00386703 -5.98659e-05
-6.01405e-05 -5.98659e-05 -0.00178195
0.00565468 -0.00265872 -9.03703e-05
-0.00265872 0.00136739 7.99193e-05
-9.03703e-05 7.99193e-05 -0.00141974
0.000417132 0.000490378 -2.44595e-05
0.000490378 0.000666223 5.99185e-05
-2.44595e-05 5.99185e-05 0.000490197
0.0105693 0.00252981 -8.91807e-05
0.00252981 0.00409937 2.64137e-06
-8.91807e-05 2.64137e-06 0.000591654
0.00987112 -0.00466152 -0.000591755
-0.00466152 0.00224962 -0.000412201
-0.000591755 -0.000412201 0.000517763
2.85677e-05 0.000375745 2.91046e-06
0.000375745 -0.000334425 -5.31546e-06
2.91046e-06 -5.31546e-06 -0.00049013
0.000434756 0.000105935 6.461e-06
0.000105935 0.00013194 2.13454e-06
6.461e-06 2.13454e-06 -4.06785e-05
6.65587e-05 4.55e-05 -6.58745e-06
4.55e-05 -0.00010543 -4.09097e-06
-6.58745e-06 -4.09097e-06 -0.000289226
-0.00279704 -0.000286644 -9.85823e-05
-0.000286644 6.56926e-05 -5.546e-05
-9.85823e-05 -5.546e-05 -0.00148677
-0.000853172 0.000178502 8.90504e-06
0.000178502 -0.000232696 -1.64762e-05
8.90504e-06 -1.64762e-05 -0.000682377
0.000495537 0.000111625 -8.53187e-06
0.000111625 0.000306174 2.31474e-06
-8.53187e-06 2.31474e-06 6.38164e-05
0.000833481 0.00048552 1.48231e-05
0.00048552 0.000451883 3.52202e-06
1.48231e-05 3.52202e-06 0.000103351
-0.00031963 0.000331296 4.81623e-05
0.000331296 0.000491039 -2.73463e-05
4.81623e-05 -2.73463e-05 -0.000481605
0.000283971 0.00088155 4.29124e-05
0.00088155 -0.000226179 3.93449e-06
4.29124e-05 3.93449e-06 -0.000827841
-0.00435111 0.000799707 0.000254735
0.000799707 0.00460059 1.21243e-05
0.000254735 1.21243e-05 -0.000452369
0.00225406 -3.74667e-05 -5.69001e-06
-3.74667e-05 0.00175368 4.76829e-05
-5.69001e-06 4.76829e-05 -0.000572328
-0.00157325 -4.09572e-05 -6.99181e-06
-4.09572e-05 0.00034265 3.13356e-05
-6.99181e-06 3.13356e-05 -8.5799e-05
-0.000237645 -0.000192666 -5.75809e-05
-0.000192666 0.000592167 1.22536e-05
-5.75809e-05 1.22536e-05 -0.000281874
-0.00117097 -0.000261046 -5.66298e-05
-0.000261046 -0.00071247 3.68659e-05
-5.66298e-05 3.68659e-05 -0.000406942
0.000274455 -0.000256859 -0.00014014
-0.000256859 0.000338752 7.61874e-05
-0.00014014 7.61874e-05 -0.00258766
-0.00101168 -0.00258343 0.000172141
-0.00258343 0.00136201 -9.80609e-05
0.000172141 -9.80609e-05 -0.00359273
0.00318094 0.00374855 0.000453985
0.00374855 -0.00197885 -0.000352635
0.000453985 -0.000352635 -0.00330348
0.00619196 0.0019098 -0.00033395
0.0019098 0.00571367 0.000229957
-0.00033395 0.000229957 0.00304281
0.00132728 -0.000544918 -6.11208e-06
-0.000544918 0.000957023 -3.28245e-06
-6.11208e-06 -3.28245e-06 0.000518933
0.00137733 0.000328681 7.53096e-05
0.000328681 0.00561212 -5.90989e-06
7.53096e-05 -5.90989e-06 0.00284208
-0.00113735 0.00263629 1.56935e-05
0.00263629 8.0814e-05 4.59774e-05
1.56935e-05 4.59774e-05 -0.00249371
0.00257909 -0.00179109 7.78932e-05
-0.00179109 0.000777423 -2.84072e-05
7.78932e-05 -2.84072e-05 0.000711476
0.0161578 -0.002335 2.57041e-05
-0.002335 0.00414618 -1.1387e-05
2.57041e-05 -1.1387e-05 0.0022441
0.00308546 -0.00115308 -5.06047e-06
-0.00115308 0.00114121 2.3507e-05
-5.06047e-06 2.3507e-05 0.000988222
-0.00909191 0.000836478 -0.000374665
0.000836478 -0.00341754 3.88608e-05
-0.000374665 3.88608e-05 -0.00528178
0.0149043 -0.00149373 -0.000173803
-0.00149373 0.00261484 6.05498e-05
-0.000173803 6.05498e-05 0.00108955
0.0035608 -0.00205781 7.38193e-05
-0.00205781 -0.000191879 -5.84191e-05
7.38193e-05 -5.84191e-05 -0.000175716
1.87754e-05 -0.000367065 -1.3635e-05
-0.000367065 6.94058e-05 1.55071e-05
-1.3635e-05 1.55071e-05 -0.000236696
0.00100285 -0.000587832 -3.41068e-06
-0.000587832 0.000150487 5.27542e-07
-3.41068e-06 5.27542e-07 4.7005e-07
0.00487807 -0.000823386 2.22075e-05
-0.000823386 0.00202109 -4.55495e-06
2.22075e-05 -4.55495e-06 0.00172689
-0.000791225 -0.000279427 -1.0547e-05
-0.000279427 -0.000723919 5.87503e-06
-1.0547e-05 5.87503e-06 -0.000983061
0.00140045 -0.000630261 -6.28878e-06
-0.000630261 0.000149149 -3.2502e-06
-6.28878e-06 -3.2502e-06 -0.00018222
0.00256415 -0.000812583 6.46669e-06
-0.000812583 0.000541698 -7.42015e-06
6.46669e-06 -7.42015e-06 0.000218097
0.00123541 -0.000549951 -1.58721e-05
-0.000549951 0.000158576 2.79192e-06
-1.58721e-05 2.79192e-06 -0.000311716
0.0017465 -0.000705253 -1.06005e-06
-0.000705253 0.000245686 -3.49234e-07
-1.06005e-06 -3.49234e-07 -0.000155678
0.0015469 -0.000584997 3.66722e-06
-0.000584997 -8.55568e-05 -5.08207e-06
3.66722e-06 -5.08207e-06 -0.00033805
0.00140708 -0.00061891 -7.38736e-06
-0.00061891 0.000161585 1.36311e-06
-7.38736e-06 1.36311e-06 -0.000272189
0.00179815 -0.000584602 -5.56239e-07
-0.000584602 0.000213498 1.2494e-06
-5.56239e-07 1.2494e-06 -0.000101748
0.00184621 -0.000457099 -5.22112e-07
-0.000457099 7.20542e-05 -4.42647e-06
-5.22112e-07 -4.42647e-06 -0.000118562
0.00174942 -0.000369385 -5.25278e-06
-0.000369385 5.78712e-05 -1.49535e-06
-5.25278e-06 -1.49535e-06 -0.000100958
0.00159677 -0.000454662 -4.86998e-06
-0.000454662 9.47982e-06 -1.96084e-06
-4.86998e-06 -1.96084e-06 -0.000231135
0.00170451 -0.000447159 1.22792e-06
-0.000447159 6.13752e-05 2.44874e-06
1.22792e-06 2.44874e-06 -0.000166168
0.00155273 -0.000520891 -3.38078e-06
-0.000520891 0.000125165 -1.74052e-06
-3.38078e-06 -1.74052e-06 -0.000178571
0.00190532 -0.000609858 2.29165e-06
-0.000609858 0.000291494 -5.0161e-07
2.29165e-06 -5.0161e-07 -3.89048e-05
0.00194107 -0.000601091 1.80272e-06
-0.000601091 0.00033139 9.74212e-07
1.80272e-06 9.74212e-07 3.94334e-07
0.00147882 -0.000472301 -2.00238e-06
-0.000472301 0.000283701 1.0361e-06
-2.00238e-06 1.0361e-06 -2.98115e-05
0.00183695 -0.000577942 6.54124e-07
-0.000577942 0.000443236 -1.83106e-07
6.54124e-07 -1.83106e-07 9.82445e-05
0.00200907 -0.000664095 -3.45565e-06
-0.000664095 0.00050672 -9.04587e-07
-3.45565e-06 -9.04587e-07 0.000115571
0.00125885 -0.000303124 -3.72711e-06
-0.000303124 0.000278903 7.80786e-07
-3.72711e-06 7.80786e-07 4.9148e-05
0.00132841 -0.000381418 2.01815e-06
-0.000381418 0.000290096 5.25873e-07
2.01815e-06 5.25873e-07 1.50739e-05
0.000518006 -0.000353778 -3.88606e-07
-0.000353778 -0.00019953 -1.20718e-06
-3.88606e-07 -1.20718e-06 -0.000483533
0.000535332 -0.000162474 -3.13346e-06
-0.000162474 3.05032e-06 3.40644e-06
-3.13346e-06 3.40644e-06 -0.000199809
0.00112123 -0.000301332 -1.93196e-07
-0.000301332 0.000308369 5.15932e-07
-1.93196e-07 5.15932e-07 6.74229e-05
0.000430291 -0.00023323 -5.65529e-06
-0.00023323 -0.000180848 -1.18593e-06
-5.65529e-06 -1.18593e-06 -0.000411838
0.000472431 -4.75458e-06 -5.3884e-06
-4.75458e-06 -2.65575e-05 1.11962e-05
-5.3884e-06 1.11962e-05 -8.53188e-05
0.000746824 -0.000114248 1.25659e-07
-0.000114248 0.000156203 2.38183e-07
1.25659e-07 2.38183e-07 -1.79787e-05
0.00104984 -0.000182358 9.40546e-07
-0.000182358 0.000385564 -7.71194e-07
9.40546e-07 -7.71194e-07 0.000131027
0.00313971 0.000184732 -1.58785e-06
0.000184732 0.00164357 3.49118e-06
-1.58785e-06 3.49118e-06 0.00162301
0.000423112 1.18152e-05 -6.86839e-08
1.18152e-05 -6.27325e-05 -1.099e-07
-6.86839e-08 -1.099e-07 -0.000110034
0.000920983 -8.78871e-05 2.80003e-06
-8.78871e-05 0.000240959 -5.74394e-06
2.80003e-06 -5.74394e-06 0.000118468
0.00293636 0.000134579 6.23646e-06
0.000134579 0.00149933 4.92895e-07
6.23646e-06 4.92895e-07 0.00149579
0.000547636 2.02473e-05 2.32332e-06
2.02473e-05 1.21933e-05 -8.17273e-06
2.32332e-06 -8.17273e-06 -2.68147e-05
0.00279789 0.000117976 3.93033e-05
0.000117976 0.00140664 -3.85868e-06
3.93033e-05 -3.85868e-06 0.00140707
0.00138369 0.000209895 6.08507e-06
0.000209895 0.000543298 4.63576e-06
6.08507e-06 4.63576e-06 0.000363847
0.000772781 0.0001178 5.95992e-07
0.0001178 0.000215133 -4.55791e-07
5.95992e-07 -4.55791e-07 4.95573e-05
0.00111375 0.000107409 1.24987e-06
0.000107409 0.000439988 -4.05636e-06
1.24987e-06 -4.05636e-06 0.000252812
0.000664209 3.0404e-05 1.45202e-06
3.0404e-05 9.70583e-05 -5.79619e-06
1.45202e-06 -5.79619e-06 -3.7868e-06
0.0006992 7.25307e-05 -6.06397e-08
7.25307e-05 0.000157093 7.34949e-07
-6.06397e-08 7.34949e-07 5.56598e-06
0.000428881 8.92934e-05 -3.45911e-07
8.92934e-05 -4.90823e-06 2.31124e-06
-3.45911e-07 2.31124e-06 -0.000156044
0.00051285 -6.27883e-06 -1.71603e-06
-6.27883e-06 -1.8917e-05 -7.95393e-06
-1.71603e-06 -7.95393e-06 -4.98041e-05
0.000592372 2.98623e-05 -5.9647e-08
2.98623e-05 4.85772e-05 -2.39474e-07
-5.9647e-08 -2.39474e-07 -4.03738e-05
0.000513676 7.63232e-05 -2.51812e-06
7.63232e-05 2.43951e-05 1.04989e-06
-2.51812e-06 1.04989e-06 -0.000100246
0.00263105 -8.47893e-05 -3.99165e-05
-8.47893e-05 0.00129064 -4.32335e-06
-3.99165e-05 -4.32335e-06 0.0012989
0.000458812 -1.97951e-05 1.73774e-06
-1.97951e-05 -5.59465e-05 -1.26993e-07
1.73774e-06 -1.26993e-07 -8.19573e-05
0.000548368 3.71278e-05 -1.29329e-06
3.71278e-05 1.97009e-05 3.27617e-06
-1.29329e-06 3.27617e-06 -5.93172e-05
0.00246446 -6.84165e-05 -5.71517e-06
-6.84165e-05 0.00118212 3.97937e-07
-5.71517e-06 3.97937e-07 0.00119329
0.000477325 -1.35266e-05 -2.09101e-06
-1.35266e-05 -4.95279e-05 5.61397e-06
-2.09101e-06 5.61397e-06 -7.0327e-05
0.00229954 -5.06935e-05 2.23603e-05
-5.06935e-05 0.00107651 4.55049e-06
2.23603e-05 4.55049e-06 0.00109083
-0.00895822 0.000786622 -5.38308e-05
0.000786622 0.00273054 7.62227e-05
-5.38308e-05 7.62227e-05 -0.00214373
0.00571929 0.000214963 -6.04157e-06
0.000214963 0.00304888 -2.744e-06
-6.04157e-06 -2.744e-06 0.00141264
-0.000995179 -3.30514e-05 9.43767e-06
-3.30514e-05 -0.000122251 -1.34276e-06
9.43767e-06 -1.34276e-06 -0.000318963
-2.31568e-05 7.73964e-05 -2.5862e-06
7.73964e-05 -0.000312371 2.5255e-06
-2.5862e-06 2.5255e-06 -0.000449154
0.00344283 0.000554467 6.41399e-06
0.000554467 0.00175597 8.8764e-06
6.41399e-06 8.8764e-06 0.00147245
0.00125502 0.000125784 -5.86637e-06
0.000125784 0.000494592 -5.89316e-07
-5.86637e-06 -5.89316e-07 0.000299776
0.000722455 6.38822e-05 -4.87702e-06
6.38822e-05 0.000126837 -8.16734e-06
-4.87702e-06 -8.16734e-06 -9.90157e-06
0.0019063 0.000204255 2.66227e-06
0.000204255 0.000822322 -7.44138e-07
2.66227e-06 -7.44138e-07 0.00069001
-0.000171962 5.85483e-05 -6.81198e-06
5.85483e-05 -0.000385879 3.83599e-06
-6.81198e-06 3.83599e-06 -0.000508616
0.000329102 7.22348e-05 -1.33167e-06
7.22348e-05 1.87288e-05 3.88832e-06
-1.33167e-06 3.88832e-06 -0.000193337
0.000498293 0.000131337 -3.59401e-06
0.000131337 2.94076e-05 -4.60453e-06
-3.59401e-06 -4.60453e-06 -0.00019571
0.00153826 0.000312493 7.24814e-06
0.000312493 0.00070254 -1.74274e-05
7.24814e-06 -1.74274e-05 0.000382996
0.000443882 0.000381755 -8.69494e-06
0.000381755 -9.47945e-05 2.34734e-05
-8.69494e-06 2.34734e-05 -0.000246635
0.00129385 6.40764e-05 -6.75642e-06
6.40764e-05 0.000565475 6.77832e-06
-6.75642e-06 6.77832e-06 0.000398765
0.00108895 0.000187016 2.37244e-06
0.000187016 0.0005765 -3.09775e-06
2.37244e-06 -3.09775e-06 0.0003188
-0.00263131 -0.0016017 -0.000969832
-0.0016017 0.000455197 -0.000161467
-0.000969832 -0.000161467 -0.00219186
-0.00350256 -0.00135442 0.000347821
-0.00135442 0.00367843 0.000161074
0.000347821 0.000161074 -0.000618319
0.00563743 0.000943838 -0.000344496
0.000943838 0.00261159 -0.000125148
-0.000344496 -0.000125148 -0.00213151
-0.00245738 -0.00588408 0.0015891
-0.00588408 0.00037134 0.00110401
0.0015891 0.00110401 -0.000699271
0.0203347 -0.00279554 2.11904e-05
-0.00279554 0.00657499 0.000258865
2.11904e-05 0.000258865 0.00480425
-0.00216724 0.00145487 -1.04551e-06
0.00145487 0.00144229 -0.000152081
-1.04551e-06 -0.000152081 -0.00360402
-0.00116464 0.000185325 -0.000312369
0.000185325 0.000192613 -4.60868e-05
-0.000312369 -4.60868e-05 -0.00102416
0.0013518 0.000597269 5.46357e-05
0.000597269 0.00112431 4.31812e-05
5.46357e-05 4.31812e-05 0.000935098
0.0152125 -0.00341466 -0.000415208
-0.00341466 0.00641768 2.73125e-05
-0.000415208 2.73125e-05 0.00450156
-0.00170474 0.00203526 -6.55913e-05
0.00203526 0.000454807 -4.46856e-05
-6.55913e-05 -4.46856e-05 -0.00380737
0.00253238 0.00148576 -1.98717e-05
0.00148576 0.000706764 -6.31868e-05
-1.98717e-05 -6.31868e-05 0.00112669
0.00258982 0.00306921 -0.000271472
0.00306921 -0.00144775 -0.000117031
-0.000271472 -0.000117031 -0.00414632
0.00301972 0.000955543 1.86523e-05
0.000955543 0.00104075 -1.26985e-05
1.86523e-05 -1.26985e-05 0.000732424
0.00106451 0.000454954 -5.84544e-06
0.000454954 0.000316449 -6.41788e-07
-5.84544e-06 -6.41788e-07 0.000147613
0.000727903 0.00015807 -6.54194e-06
0.00015807 0.0003063 -7.39435e-07
-6.54194e-06 -7.39435e-07 0.000127108
-0.00185088 0.00020677 -6.43259e-05
0.00020677 -0.00036636 -6.01956e-05
-6.43259e-05 -6.01956e-05 -0.00121286
0.00233063 0.000676361 -3.05839e-05
0.000676361 0.00120468 -1.98039e-05
-3.05839e-05 -1.98039e-05 0.000839883
0.00148909 0.00102371 1.44757e-05
0.00102371 0.000305106 -6.08309e-06
1.44757e-05 -6.08309e-06 -0.000288595
0.000346141 0.00124695 0.000100749
0.00124695 -0.00105426 3.80547e-05
0.000100749 3.80547e-05 -0.00130607
-0.00562015 -0.000274384 -0.000424313
-0.000274384 -0.00461235 2.15529e-05
-0.000424313 2.15529e-05 -0.00351191
-0.00651126 0.000380226 0.000260498
0.000380226 0.00448594 1.01779e-05
0.000260498 1.01779e-05 -0.000431442
0.00285826 -0.000108878 -9.65241e-05
-0.000108878 0.00192599 3.32746e-05
-9.65241e-05 3.32746e-05 0.000344687
0.00199976 -0.000647464 -3.68948e-05
-0.000647464 0.00096942 -4.94303e-05
-3.68948e-05 -4.94303e-05 0.000545761
0.000324716 -0.00152112 -1.76149e-05
-0.00152112 -0.000486665 4.29785e-05
-1.76149e-05 4.29785e-05 -0.000423105
0.000745533 0.000356313 -1.69407e-06
0.000356313 0.00535141 3.00682e-05
-1.69407e-06 3.00682e-05 0.0026187
0.00136472 -0.00209706 0.000323256
-0.00209706 -0.0013388 -0.000133733
0.000323256 -0.000133733 -0.00401713
0.0163587 0.00238004 0.000478496
0.00238004 0.00728317 -6.87982e-05
0.000478496 -6.87982e-05 0.00539387
0.00209162 -0.00125166 -2.188e-05
-0.00125166 0.000522607 7.02234e-06
-2.188e-05 7.02234e-06 0.000113497
0.000848266 0.000964726 0.000176068
0.000964726 -2.83561e-05 -4.98692e-05
0.000176068 -4.98692e-05 -0.00129703
0.00768664 -0.00133423 -0.000111404
-0.00133423 -0.000988582 0.000103599
-0.000111404 0.000103599 -0.00328071
0.00498282 -0.00216421 -2.19471e-05
-0.00216421 0.00041083 2.37414e-05
-2.19471e-05 2.37414e-05 0.000422198
0.0027409 -0.00103174 7.66324e-05
-0.00103174 0.000498321 -1.05311e-05
7.66324e-05 -1.05311e-05 0.000342586
0.0137631 -0.000684176 -1.09772e-05
-0.000684176 0.0029537 5.01824e-06
-1.09772e-05 5.01824e-06 0.00148232
0.00221661 -0.00124233 9.94956e-05
-0.00124233 -0.00237557 -7.90644e-05
9.94956e-05 -7.90644e-05 -0.00168598
-0.000515644 -0.000467601 -3.25151e-05
-0.000467601 -0.000768087 1.85119e-05
-3.25151e-05 1.85119e-05 -0.000801754
0.000206956 -0.000442286 -2.56323e-05
-0.000442286 -0.000553497 1.40979e-06
-2.56323e-05 1.40979e-06 -0.000659952
0.0049113 -0.000873237 5.47197e-05
-0.000873237 0.00166672 -2.07144e-05
5.47197e-05 -2.07144e-05 0.00153029
0.000523567 -0.000531632 -2.09748e-05
-0.000531632 -0.000289671 -5.21713e-06
-2.09748e-05 -5.21713e-06 -0.000626747
0.00197603 -0.000743437 -7.23315e-07
-0.000743437 0.000238264 -2.10934e-06
-7.23315e-07 -2.10934e-06 -6.65356e-05
0.00257037 -0.000687367 2.66742e-06
-0.000687367 0.000299838 -3.80475e-06
2.66742e-06 -3.80475e-06 0.000122171
0.00191243 -0.000707846 -6.1993e-06
-0.000707846 0.000341572 5.5498e-06
-6.1993e-06 5.5498e-06 -6.50672e-05
0.00196404 -0.000621345 -5.97774e-07
-0.000621345 0.000138416 1.53273e-06
-5.97774e-07 1.53273e-06 -0.000118908
0.00201534 -0.000473148 1.9558e-06
-0.000473148 5.99129e-05 -2.09047e-07
1.9558e-06 -2.09047e-07 -7.55231e-05
0.00122827 -0.000519136 3.22352e-06
-0.000519136 -9.64593e-05 6.69118e-06
3.22352e-06 6.69118e-06 -0.000398235
0.00185034 -0.00045048 -5.04383e-07
-0.00045048 7.9461e-05 1.68117e-06
-5.04383e-07 1.68117e-06 -0.000108557
0.00188278 -0.000400854 -2.59908e-06
-0.000400854 5.96843e-05 6.25133e-07
-2.59908e-06 6.25133e-07 -7.35571e-05
0.00206974 -0.00038458 -4.56694e-06
-0.00038458 0.00025354 7.3948e-07
-4.56694e-06 7.3948e-07 0.000117358
0.00185042 -0.000374612 -2.82121e-06
-0.000374612 0.000111726 3.33658e-06
-2.82121e-06 3.33658e-06 -4.34009e-05
0.00190656 -0.000393228 -2.78002e-06
-0.000393228 0.000181702 -4.49221e-06
-2.78002e-06 -4.49221e-06 7.52658e-06
0.00184681 -0.000471407 -5.31194e-06
-0.000471407 0.000190488 -2.15529e-06
-5.31194e-06 -2.15529e-06 -5.61683e-05
0.00180032 -0.000470694 1.56965e-06
-0.000470694 0.000134978 6.80202e-07
1.56965e-06 6.80202e-07 -0.000106945
0.00173556 -0.00044194 5.46875e-06
-0.00044194 8.49478e-05 7.04878e-06
5.46875e-06 7.04878e-06 -0.000137883
0.00170019 -0.000497608 -6.50014e-06
-0.000497608 0.00028153 -7.88257e-07
-6.50014e-06 -7.88257e-07 -1.79686e-05
0.00158298 -0.000528599 -6.22631e-07
-0.000528599 0.000131889 1.79938e-07
-6.22631e-07 1.79938e-07 -0.000174554
0.00203632 -0.000614529 4.39741e-06
-0.000614529 0.000381126 2.79924e-07
4.39741e-06 2.79924e-07 5.41568e-05
0.00141873 -0.000350757 -7.04951e-06
-0.000350757 0.0003203 5.29329e-06
-7.04951e-06 5.29329e-06 6.3732e-05
0.00153427 -0.000474376 5.91201e-08
-0.000474376 0.000319717 1.04303e-06
5.91201e-08 1.04303e-06 7.05939e-06
0.00165551 -0.000564107 1.21246e-06
-0.000564107 0.000332345 1.23572e-07
1.21246e-06 1.23572e-07 -1.14128e-05
0.000813922 -0.00020896 -6.52339e-06
-0.00020896 0.000102131 5.16241e-06
-6.52339e-06 5.16241e-06 -9.30384e-05
0.00107553 -0.000290335 1.29641e-07
-0.000290335 0.000165308 -9.88164e-07
1.29641e-07 -9.88164e-07 -6.4846e-05
0.000871956 -0.000336508 9.00347e-07
-0.000336508 2.33837e-06 -1.60421e-06
9.00347e-07 -1.60421e-06 -0.000263339
0.000419236 -8.46601e-05 -1.57887e-05
-8.46601e-05 -8.42026e-05 1.37936e-05
-1.57887e-05 1.37936e-05 -0.000157635
0.000666277 -0.000160538 4.03641e-07
-0.000160538 9.20619e-05 9.7981e-07
4.03641e-07 9.7981e-07 -0.000116811
0.000947453 -0.000310343 1.97203e-06
-0.000310343 0.000191353 -2.44501e-07
1.97203e-06 -2.44501e-07 -4.73879e-05
0.00357723 0.000178232 -7.06336e-05
0.000178232 0.0019182 3.95258e-06
-7.06336e-05 3.95258e-06 0.00190128
0.000503135 -2.40806e-05 6.96845e-07
-2.40806e-05 -1.47878e-05 -5.0849e-07
6.96845e-07 -5.0849e-07 -7.55745e-05
0.00153185 -0.000163858 2.20735e-06
-0.000163858 0.00063675 -6.1007e-06
2.20735e-06 -6.1007e-06 0.000450707
0.00207955 0.000115902 3.79638e-05
0.000115902 0.000979165 1.08491e-06
3.79638e-05 1.08491e-06 0.00096468
0.000609749 6.48979e-06 5.36318e-06
6.48979e-06 4.82654e-05 -1.00667e-05
5.36318e-06 -1.00667e-05 1.08116e-06
0.00302293 0.000128673 5.8547e-05
0.000128673 0.00155212 -3.58391e-06
5.8547e-05 -3.58391e-06 0.00155007
0.00120285 0.000238426 6.40786e-06
0.000238426 0.000358633 1.28972e-06
6.40786e-06 1.28972e-06 0.000177912
0.000497148 0.000108623 -1.10591e-06
0.000108623 -8.33213e-06 -3.69161e-07
-1.10591e-06 -3.69161e-07 -0.000162701
0.000595847 0.000122622 1.24383e-06
0.000122622 8.65272e-05 -2.93634e-06
1.24383e-06 -2.93634e-06 -8.6632e-05
0.000646143 0.000115491 -1.57044e-06
0.000115491 0.000136354 1.13469e-06
-1.57044e-06 1.13469e-06 -3.01036e-05
0.000633133 7.79595e-05 4.19412e-07
7.79595e-05 0.00011639 3.91422e-07
4.19412e-07 3.91422e-07 -4.76456e-05
0.000764433 5.93781e-05 -8.67885e-08
5.93781e-05 0.000155501 -6.91978e-06
-8.67885e-08 -6.91978e-06 3.90873e-05
0.000571067 6.60339e-06 -3.43397e-06
6.60339e-06 2.34791e-05 -9.81544e-06
-3.43397e-06 -9.81544e-06 -1.52416e-05
0.000619086 2.81021e-05 4.71534e-07
2.81021e-05 7.35542e-05 -1.37527e-07
4.71534e-07 -1.37527e-07 -2.88807e-05
0.000345437 3.93147e-05 -3.09834e-06
3.93147e-05 -8.63931e-05 2.6897e-06
-3.09834e-06 2.6897e-06 -0.000217246
0.00275272 -9.84187e-05 -5.2154e-05
-9.84187e-05 0.00137233 -4.19027e-06
-5.2154e-05 -4.19027e-06 0.00137805
0.000464971 -2.6076e-06 6.67981e-07
-2.6076e-06 -4.57055e-05 -2.00311e-07
6.67981e-07 -2.00311e-07 -7.70168e-05
0.000550043 3.0114e-05 -1.76278e-06
3.0114e-05 2.89029e-05 4.18917e-06
-1.76278e-06 4.18917e-06 -6.2191e-05
0.00260391 -8.50264e-05 -6.20641e-06
-8.50264e-05 0.00127374 4.71294e-07
-6.20641e-06 4.71294e-07 0.00128178
0.000446867 -2.08867e-05 -1.07061e-07
-2.08867e-05 -6.18111e-05 6.53988e-06
-1.07061e-07 6.53988e-06 -8.83229e-05
0.00245998 -6.78345e-05 2.79602e-05
-6.78345e-05 0.00117901 4.6112e-06
2.79602e-05 4.6112e-06 0.00119024
0.000394109 0.000250347 -0.000536036
0.000250347 0.00295192 -2.58425e-05
-0.000536036 -2.58425e-05 0.00118744
-0.00496265 0.000150343 3.51958e-05
0.000150343 0.00355158 5.60398e-06
3.51958e-05 5.60398e-06 -0.00143185
0.00535996 8.51393e-05 -0.000151051
8.51393e-05 0.00304546 -3.8116e-05
-0.000151051 -3.8116e-05 0.00151312
0.000334413 5.11872e-05 5.63923e-07
5.11872e-05 -9.67711e-05 -4.99287e-06
5.63923e-07 -4.99287e-06 -0.00023424
0.000859373 7.42463e-05 5.06085e-06
7.42463e-05 0.000249096 3.67878e-06
5.06085e-06 3.67878e-06 4.15874e-05
0.00245589 0.000440452 -2.23199e-06
0.000440452 0.00117958 2.99043e-06
-2.23199e-06 2.99043e-06 0.000925414
0.00188796 0.000486182 6.04293e-06
0.000486182 0.000698275 -1.92154e-06
6.04293e-06 -1.92154e-06 0.000357805
0.000388751 0.000232311 -1.25188e-07
0.000232311 1.51854e-05 -2.95995e-06
-1.25188e-07 -2.95995e-06 -0.000246962
0.000488916 0.000106413 -3.87351e-06
0.000106413 0.000116373 5.66348e-06
-3.87351e-06 5.66348e-06 -0.000104304
0.000673663 0.000146462 9.18826e-06
0.000146462 0.000161921 8.27522e-06
9.18826e-06 8.27522e-06 -5.89536e-05
0.000440785 0.00026537 -6.79353e-06
0.00026537 8.53562e-05 -3.3118e-06
-6.79353e-06 -3.3118e-06 -0.000238779
-0.000597089 0.000305501 6.36532e-06
0.000305501 -0.000754531 -5.26643e-06
6.36532e-06 -5.26643e-06 -0.0010183
0.00202388 0.00060035 1.25144e-06
0.00060035 0.000682511 1.51687e-05
1.25144e-06 1.51687e-05 0.000520718
0.00137726 0.00070093 1.99164e-05
0.00070093 2.08652e-05 -3.64478e-06
1.99164e-05 -3.64478e-06 -0.000149722
0.00133515 0.000485314 -8.80846e-06
0.000485314 0.000437587 -1.51289e-06
-8.80846e-06 -1.51289e-06 0.00024671
0.00152581 0.000213001 -7.44225e-06
0.000213001 0.00074738 1.31921e-05
-7.44225e-06 1.31921e-05 0.000523636
0.0133757 0.00176252 -8.72948e-05
0.00176252 0.00228833 6.31713e-05
-8.72948e-05 6.31713e-05 0.000885415
0.000308773 -0.00132426 -0.00039175
-0.00132426 0.00297909 -0.000148807
-0.00039175 -0.000148807 0.000449095
-0.00101948 -0.0021906 0.000428031
-0.0021906 0.00395547 0.000114082
0.000428031 0.000114082 -0.000374571
0.00276839 -0.00203478 0.000175682
-0.00203478 0.00151977 0.000282124
0.000175682 0.000282124 -0.000343184
0.0123381 0.00296677 -5.89421e-05
0.00296677 0.00465726 -3.75283e-05
-5.89421e-05 -3.75283e-05 0.000827661
-0.00263276 0.000170759 -5.755e-05
0.000170759 -0.000557641 -4.50106e-05
-5.755e-05 -4.50106e-05 -0.000786031
0.00176797 0.00129633 -3.4652e-05
0.00129633 0.000439047 -1.23247e-05
-3.4652e-05 -1.23247e-05 0.000848655
0.0156367 0.00278595 2.16186e-05
0.00278595 0.0043115 3.27677e-05
2.16186e-05 3.27677e-05 0.0020875
0.00635608 0.00259185 -3.04077e-05
0.00259185 0.000544508 -8.38123e-05
-3.04077e-05 -8.38123e-05 0.000480875
0.00183446 0.000950084 1.09482e-05
0.000950084 0.000254303 -3.61123e-06
1.09482e-05 -3.61123e-06 3.92319e-05
0.00133661 0.000725449 7.00233e-06
0.000725449 0.000270083 -1.85949e-06
7.00233e-06 -1.85949e-06 -5.98533e-06
0.00147913 0.000458194 -2.19372e-05
0.000458194 0.00059975 5.38628e-06
-2.19372e-05 5.38628e-06 0.000433278
0.00258857 0.00119717 -5.52471e-05
0.00119717 0.000775339 -1.95782e-05
-5.52471e-05 -1.95782e-05 0.000195393
0.00185167 0.00140067 3.73461e-05
0.00140067 -0.000455164 2.44615e-05
3.73461e-05 2.44615e-05 -0.000738464
0.00142517 -0.000368419 -8.11514e-05
-0.000368419 -0.00411966 3.74647e-05
-8.11514e-05 3.74647e-05 -0.00442075
0.0013388 -0.00111811 6.47986e-06
-0.00111811 0.0015986 -1.61915e-05
6.47986e-06 -1.61915e-05 0.00128169
-0.00915826 -0.000131196 0.000238132
-0.000131196 0.00451974 -2.06342e-05
0.000238132 -2.06342e-05 -0.000244203
0.000360318 -0.00124979 -3.20829e-05
-0.00124979 -0.00055269 3.70333e-06
-3.20829e-05 3.70333e-06 -0.00114973
0.00370933 -0.00210638 3.01202e-05
-0.00210638 0.000200821 2.9654e-05
3.01202e-05 2.9654e-05 -0.000141281
0.00148668 -0.000223009 0.000575354
-0.000223009 0.00317573 -0.000118594
0.000575354 -0.000118594 0.00162639
0.0127123 -0.00158204 -0.000214571
-0.00158204 0.00177076 9.95931e-05
-0.000214571 9.95931e-05 0.000276609
0.00142968 -0.0010017 -3.22659e-05
-0.0010017 -0.000150684 -5.94135e-07
-3.22659e-05 -5.94135e-07 -0.000386368
0.0102521 -3.04547e-05 -0.00014593
-3.04547e-05 -8.41391e-05 4.10304e-05
-0.00014593 4.10304e-05 -0.00110838
0.00628106 -0.00143895 9.69646e-05
-0.00143895 -6.55833e-05 1.45422e-05
9.69646e-05 1.45422e-05 0.000211176
0.00488911 -0.000981668 7.59796e-05
-0.000981668 0.00140521 -2.28021e-05
7.59796e-05 -2.28021e-05 0.00109413
0.00300218 -0.000558703 -5.76532e-05
-0.000558703 -0.00103471 1.96307e-05
-5.76532e-05 1.96307e-05 -0.000380748
-0.00476985 -4.54466e-05 -4.18728e-06
-4.54466e-05 -0.00327478 3.8392e-06
-4.18728e-06 3.8392e-06 -0.00323211
0.00159167 -0.000615963 -8.82046e-06
-0.000615963 -0.000140277 4.049e-07
-8.82046e-06 4.049e-07 -0.000171529
0.00297005 -0.000597945 2.86507e-05
-0.000597945 0.000404351 -1.18935e-05
2.86507e-05 -1.18935e-05 0.000451707
0.00107017 -0.000649014 -7.6409e-06
-0.000649014 -0.000223621 7.97816e-06
-7.6409e-06 7.97816e-06 -0.000507554
0.00196759 -0.000631849 -2.5966e-06
-0.000631849 -6.27536e-06 2.64797e-06
-2.5966e-06 2.64797e-06 -0.000179457
0.0022362 -0.00051008 4.84562e-06
-0.00051008 1.86552e-05 -7.35844e-08
4.84562e-06 -7.35844e-08 -2.86307e-05
0.0022434 -0.000641924 -6.48336e-06
-0.000641924 0.00029186 8.58487e-06
-6.48336e-06 8.58487e-06 3.19468e-05
0.00200142 -0.000470432 1.61753e-07
-0.000470432 5.04577e-05 1.42619e-06
1.61753e-07 1.42619e-06 -8.03845e-05
0.00212016 -0.000451697 -6.10571e-07
-0.000451697 0.000111464 9.94191e-07
-6.10571e-07 9.94191e-07 2.48951e-05
0.0018703 -0.000445079 2.59032e-06
-0.000445079 9.62809e-05 6.05949e-06
2.59032e-06 6.05949e-06 -8.87543e-05
0.00191695 -0.000405432 -1.97128e-07
-0.000405432 7.71349e-05 1.38337e-06
-1.97128e-07 1.38337e-06 -5.55484e-05
0.00205081 -0.000428363 -2.26734e-06
-0.000428363 0.000162734 1.44599e-06
-2.26734e-06 1.44599e-06 3.64067e-05
0.00197057 -0.000384073 -4.11374e-06
-0.000384073 0.000185787 3.07732e-06
-4.11374e-06 3.07732e-06 5.10341e-05
0.00205878 -0.000389641 -8.48344e-07
-0.000389641 0.000270353 -1.88126e-06
-8.48344e-07 -1.88126e-06 0.000125889
0.00194867 -0.000380517 4.18495e-06
-0.000380517 0.000164257 6.94247e-06
4.18495e-06 6.94247e-06 1.26097e-05
0.00191561 -0.000393763 3.83799e-07
-0.000393763 0.000186126 -7.50622e-07
3.83799e-07 -7.50622e-07 1.17475e-05
0.00181274 -0.000404073 -2.54251e-06
-0.000404073 0.000135478 -3.35637e-06
-2.54251e-06 -3.35637e-06 -5.97107e-05
0.00185136 -0.000444112 -4.27172e-06
-0.000444112 0.000268264 -2.41885e-06
-4.27172e-06 -2.41885e-06 1.69827e-05
0.00190527 -0.000477929 -1.74442e-07
-0.000477929 0.00022755 -1.464e-07
-1.74442e-07 -1.464e-07 -2.13489e-05
0.00200687 -0.000486553 6.79094e-06
-0.000486553 0.000263303 3.47337e-06
6.79094e-06 3.47337e-06 2.01723e-05
0.00134987 -0.000371649 -8.76594e-06
-0.000371649 0.000174029 2.51943e-06
-8.76594e-06 2.51943e-06 -8.9643e-05
0.0016251 -0.000486348 -1.56332e-06
-0.000486348 0.000243412 -9.81372e-08
-1.56332e-06 -9.81372e-08 -5.50896e-05
0.0015977 -0.000533725 3.70459e-06
-0.000533725 0.000130358 1.08302e-06
3.70459e-06 1.08302e-06 -0.000178217
0.000687177 -0.000199262 -8.64142e-06
-0.000199262 -3.91608e-05 6.7257e-06
-8.64142e-06 6.7257e-06 -0.000229873
0.00119009 -0.00033463 1.86764e-06
-0.00033463 0.000173903 5.57786e-07
1.86764e-06 5.57786e-07 -8.098e-05
0.00142736 -0.000458885 3.88434e-06
-0.000458885 0.000259246 1.15527e-07
3.88434e-06 1.15527e-07 -4.89017e-05
0.000473869 -0.000152096 -2.1051e-05
-0.000152096 -7.74815e-05 1.66027e-05
-2.1051e-05 1.66027e-05 -0.000172134
0.000738652 -0.000212635 -5.8312e-07
-0.000212635 6.193e-05 4.0455e-07
-5.8312e-07 4.0455e-07 -0.000135608
0.000812296 -0.000262818 2.49749e-06
-0.000262818 1.41208e-06 -2.56623e-06
2.49749e-06 -2.56623e-06 -0.00022463
0.00448576 0.000206398 -0.000103055
0.000206398 0.00249219 7.48028e-06
-0.000103055 7.48028e-06 0.00246671
0.000561518 -0.000100297 -3.30105e-07
-0.000100297 4.78718e-06 -8.28448e-07
-3.30105e-07 -8.28448e-07 -7.59189e-05
0.00108473 -0.000189826 3.93189e-06
-0.000189826 0.000352009 -3.87153e-06
3.93189e-06 -3.87153e-06 0.000136704
0.00389584 0.000162195 1.4691e-05
0.000162195 0.00211102 3.7697e-07
1.4691e-05 3.7697e-07 0.00209903
0.000557778 -4.36888e-05 1.24883e-05
-4.36888e-05 1.17797e-05 -1.23638e-05
1.24883e-05 -1.23638e-05 -5.25053e-05
0.003394 0.000130001 9.11092e-05
0.000130001 0.00178717 -3.94587e-06
9.11092e-05 -3.94587e-06 0.00178501
0.000736975 0.000300315 3.68598e-06
0.000300315 -1.18943e-05 -5.96565e-06
3.68598e-06 -5.96565e-06 -0.000268497
0.000873193 0.000220123 2.4356e-06
0.000220123 0.000156502 -9.11082e-07
2.4356e-06 -9.11082e-07 -2.42091e-05
5.29186e-05 0.000106182 3.63899e-06
0.000106182 -0.000277153 -5.62074e-07
3.63899e-06 -5.62074e-07 -0.00045577
-0.000538988 2.7021e-05 -3.41127e-06
2.7021e-05 -0.000630192 -1.82412e-06
-3.41127e-06 -1.82412e-06 -0.000773756
0.000385082 6.38711e-05 7.28676e-09
6.38711e-05 -5.3943e-05 9.69749e-07
7.28676e-09 9.69749e-07 -0.000220187
0.000786536 7.77487e-05 -4.51156e-07
7.77487e-05 0.000160617 -7.71398e-06
-4.51156e-07 -7.71398e-06 2.71892e-05
0.000390417 4.27763e-05 -1.48685e-06
4.27763e-05 -4.96067e-05 3.04212e-06
-1.48685e-06 3.04212e-06 -0.000198747
0.000570083 4.4417e-05 -9.78593e-08
4.4417e-05 4.16967e-05 -8.79265e-08
-9.78593e-08 -8.79265e-08 -7.33949e-05
0.000608723 8.33116e-06 -5.00448e-06
8.33116e-06 4.69587e-05 -1.17335e-05
-5.00448e-06 -1.17335e-05 -5.09905e-07
0.00303283 -0.000111817 -7.08095e-05
-0.000111817 0.00155391 -4.53101e-06
-7.08095e-05 -4.53101e-06 0.00155642
0.000458606 -3.38296e-06 1.0116e-06
-3.38296e-06 -4.31778e-05 -3.02596e-07
1.0116e-06 -3.02596e-07 -8.20685e-05
0.000522574 2.79268e-05 -1.47921e-06
2.79268e-05 1.71533e-05 5.98767e-06
-1.47921e-06 5.98767e-06 -8.54612e-05
0.00276545 -0.000102411 -6.97166e-06
-0.000102411 0.00138068 5.82902e-07
-6.97166e-06 5.82902e-07 0.00138509
0.000390505 -4.06665e-05 -3.47328e-06
-4.06665e-05 -8.69244e-05 7.62192e-06
-3.47328e-06 7.62192e-06 -0.000120126
0.00259733 -8.52551e-05 3.4565e-05
-8.52551e-05 0.00126909 4.50041e-06
3.4565e-05 4.50041e-06 0.00127697
0.0135396 0.000517351 0.00036803
0.000517351 0.00235898 9.25102e-05
0.00036803 9.25102e-05 0.00165918
-0.00222568 -0.00192854 -0.000320659
-0.00192854 -0.00273061 -5.73345e-05
-0.000320659 -5.73345e-05 -0.00392297
-0.0082809 0.00103246 -0.000139365
0.00103246 0.00270956 -0.000101097
-0.000139365 -0.000101097 -0.00278364
0.000198347 2.48513e-05 1.78277e-05
2.48513e-05 -0.000148717 6.27331e-07
1.78277e-05 6.27331e-07 -0.00037649
0.0016933 0.000344736 -1.30467e-05
0.000344736 0.000727727 1.92507e-06
-1.30467e-05 1.92507e-06 0.000503061
0.00177307 0.000386476 -6.69292e-06
0.000386476 0.000819066 -2.71539e-06
-6.69292e-06 -2.71539e-06 0.000521554
0.0017802 0.000469765 7.13121e-08
0.000469765 0.000656598 6.73737e-07
7.13121e-08 6.73737e-07 0.000325274
0.00104406 0.000445061 9.3665e-06
0.000445061 5.93149e-05 1.10349e-05
9.3665e-06 1.10349e-05 -0.000270972
-0.000600625 0.000267544 1.44674e-05
0.000267544 -0.000777117 -2.80452e-07
1.44674e-05 -2.80452e-07 -0.00105305
-6.19135e-06 0.000233898 -8.02925e-06
0.000233898 -0.00012617 2.7795e-06
-8.02925e-06 2.7795e-06 -0.000475385
0.000172984 0.000399314 6.32216e-06
0.000399314 -0.000339478 -6.58896e-08
6.32216e-06 -6.58896e-08 -0.000636364
0.00210282 0.000605117 2.4244e-06
0.000605117 0.000777194 3.5477e-06
2.4244e-06 3.5477e-06 0.000566787
-1.52837e-05 0.000435764 7.84812e-06
0.000435764 -0.000568657 3.25726e-06
7.84812e-06 3.25726e-06 -0.000790486
0.00265977 0.000772067 2.93809e-06
0.000772067 0.000691653 5.85196e-06
2.93809e-06 5.85196e-06 0.000534945
0.00148492 0.000729459 1.3995e-05
0.000729459 6.39471e-05 2.24875e-06
1.3995e-05 2.24875e-06 -0.000162886
0.000857883 0.000637244 3.28155e-06
0.000637244 -0.000269931 -5.10582e-07
3.28155e-06 -5.10582e-07 -0.000404071
0.000733435 0.000414541 1.08203e-06
0.000414541 0.000110329 -2.56615e-05
1.08203e-06 -2.56615e-05 -7.86169e-05
0.00544626 0.00120715 7.58581e-06
0.00120715 -0.000544095 9.67236e-06
7.58581e-06 9.67236e-06 0.000329966
0.0123314 0.00181741 0.000204879
0.00181741 0.00158398 9.98555e-05
0.000204879 9.98555e-05 -0.000102313
0.00990612 -0.00282811 0.000297039
-0.00282811 0.00472423 -4.82766e-05
0.000297039 -4.82766e-05 0.00275544
0.0047007 0.00307296 0.000426271
0.00307296 -0.000581826 0.000246597
0.000426271 0.000246597 -0.00461853
0.000193294 0.000892339 -5.54563e-05
0.000892339 2.72404e-05 -5.87692e-06
-5.54563e-05 -5.87692e-06 0.000465714
0.00350147 0.00189634 -0.000108547
0.00189634 -0.000354289 -4.37492e-05
-0.000108547 -4.37492e-05 -0.000154461
0.0054777 0.00165437 6.90099e-05
0.00165437 0.00113375 2.26437e-05
6.90099e-05 2.26437e-05 0.000934336
0.00367185 0.00118273 1.55267e-05
0.00118273 0.00105361 5.48363e-06
1.55267e-05 5.48363e-06 0.000807189
0.000234423 0.000569718 -1.98887e-05
0.000569718 -0.00025618 1.14401e-05
-1.98887e-05 1.14401e-05 -0.000497959
0.00546369 0.0017852 -0.000157772
0.0017852 0.00119481 -1.8758e-05
-0.000157772 -1.8758e-05 0.000843597
0.00285757 -0.000354941 7.30373e-06
-0.000354941 0.000145234 2.79173e-06
7.30373e-06 2.79173e-06 0.00026435
0.010787 -0.000441139 -2.4994e-05
-0.000441139 0.00196486 3.12191e-06
-2.4994e-05 3.12191e-06 0.00151743
-0.0115319 -0.00170849 0.000534786
-0.00170849 -0.00570705 4.70652e-06
0.000534786 4.70652e-06 -0.00579531
-0.000263729 -0.000819259 -7.37849e-05
-0.000819259 -0.0010056 1.14015e-05
-7.37849e-05 1.14015e-05 -0.00121225
0.00857019 -0.00187287 5.73943e-05
-0.00187287 0.000664662 8.10266e-05
5.73943e-05 8.10266e-05 0.00121851
0.00104794 -0.000292132 -0.000192799
-0.000292132 -0.00349604 4.05422e-05
-0.000192799 4.05422e-05 -0.00551682
0.00191113 -0.000700032 1.57845e-05
-0.000700032 -0.00026537 2.33465e-06
1.57845e-05 2.33465e-06 -0.000308387
0.00428272 -0.000445083 -2.85481e-05
-0.000445083 -0.0002717 -5.01799e-06
-2.85481e-05 -5.01799e-06 0.000131824
0.00489743 -0.000650358 3.15332e-05
-0.000650358 0.00104874 -2.01302e-05
3.15332e-05 -2.01302e-05 0.0012727
0.00438498 -0.000265888 7.88385e-05
-0.000265888 0.00103152 5.69682e-06
7.88385e-05 5.69682e-06 0.000990532
-0.00213013 -0.000357648 -4.02245e-06
-0.000357648 -0.00221629 1.02547e-05
-4.02245e-06 1.02547e-05 -0.00209158
0.00197949 -0.000535075 -2.902e-06
-0.000535075 -0.000151306 1.53493e-07
-2.902e-06 1.53493e-07 -5.60941e-05
0.00203978 -0.000396004 1.89786e-05
-0.000396004 -0.000255887 -4.42103e-06
1.89786e-05 -4.42103e-06 -5.08293e-05
0.00175538 -0.000614132 -2.0267e-06
-0.000614132 -0.000118774 6.04226e-06
-2.0267e-06 6.04226e-06 -0.000293666
0.00218639 -0.000509383 1.52385e-06
-0.000509383 -5.6201e-06 9.58306e-07
1.52385e-06 9.58306e-07 -5.43881e-05
0.00216773 -0.00043689 1.23838e-06
-0.00043689 2.9714e-05 1.69532e-07
1.23838e-06 1.69532e-07 1.97135e-05
0.00200645 -0.000469551 3.27877e-07
-0.000469551 5.1148e-05 3.63691e-06
3.27877e-07 3.63691e-06 -7.59215e-05
0.00204677 -0.000441114 3.85513e-07
-0.000441114 8.01414e-05 3.63459e-07
3.85513e-07 3.63459e-07 -5.63944e-06
0.00203628 -0.000395073 -3.23835e-06
-0.000395073 6.89361e-05 6.32619e-07
-3.23835e-06 6.32619e-07 -8.00043e-06
0.00192436 -0.000408204 3.79338e-06
-0.000408204 7.86328e-05 2.254e-06
3.79338e-06 2.254e-06 -5.39599e-05
0.00196733 -0.000420932 -9.76251e-08
-0.000420932 0.000129511 1.80173e-07
-9.76251e-08 1.80173e-07 3.7964e-06
0.0018726 -0.000383856 3.46357e-07
-0.000383856 0.00010507 8.58336e-08
3.46357e-07 8.58336e-08 -2.27249e-05
0.00187736 -0.000383712 3.03966e-07
-0.000383712 0.000122101 3.56883e-06
3.03966e-07 3.56883e-06 -1.12434e-05
0.00199447 -0.000381491 -2.13814e-06
-0.000381491 0.000226145 3.96272e-07
-2.13814e-06 3.96272e-07 8.55628e-05
0.00199908 -0.000385812 -3.13641e-07
-0.000385812 0.000240324 -1.69295e-06
-3.13641e-07 -1.69295e-06 7.52401e-05
0.00192333 -0.000393219 4.36403e-06
-0.000393219 0.000189948 3.33707e-06
4.36403e-06 3.33707e-06 1.567e-05
0.00187291 -0.000409519 1.23734e-07
-0.000409519 0.000173137 -3.97755e-07
1.23734e-07 -3.97755e-07 -2.36935e-05
0.00189975 -0.000394921 -1.44503e-06
-0.000394921 0.000252211 -2.22994e-06
-1.44503e-06 -2.22994e-06 3.98697e-05
0.00145548 -0.000360128 -8.75089e-06
-0.000360128 0.000141494 9.45177e-07
-8.75089e-06 9.45177e-07 -0.000100152
0.00181152 -0.000444639 -8.73261e-07
-0.000444639 0.000244775 -7.32458e-07
-8.73261e-07 -7.32458e-07 -1.00609e-05
0.00196369 -0.000484665 4.29586e-06
-0.000484665 0.000265158 1.71516e-06
4.29586e-06 1.71516e-06 1.39352e-05
0.000831431 -0.000215859 -1.22312e-05
-0.000215859 -1.66689e-05 7.40295e-06
-1.22312e-05 7.40295e-06 -0.000208603
0.00134767 -0.000369982 -2.14341e-08
-0.000369982 0.000173432 4.44949e-07
-2.14341e-08 4.44949e-07 -8.9116e-05
0.00155368 -0.000475951 2.86322e-06
-0.000475951 0.000206308 5.81155e-07
2.86322e-06 5.81155e-07 -9.14246e-05
0.000435556 -0.000166758 -2.08472e-05
-0.000166758 -0.00012309 1.69799e-05
-2.08472e-05 1.69799e-05 -0.000227132
0.000802574 -0.000209659 3.96841e-07
-0.000209659 3.09626e-05 2.32806e-07
3.96841e-07 2.32806e-07 -0.000162771
0.000921598 -0.000314078 7.78012e-06
-0.000314078 4.48032e-06 -2.58962e-06
7.78012e-06 -2.58962e-06 -0.000247865
0.00550443 0.00015339 -0.000172382
0.00015339 0.00308884 9.5779e-06
-0.000172382 9.5779e-06 0.00307695
0.000491359 -0.000159952 -5.97947e-07
-0.000159952 -6.75251e-05 -2.78015e-08
-5.97947e-07 -2.78015e-08 -0.000164177
0.000640279 -0.000214861 7.89262e-06
-0.000214861 5.06067e-06 -5.72837e-06
7.89262e-06 -5.72837e-06 -0.000193024
0.00480016 0.00014103 7.92537e-06
0.00014103 0.00266395 -6.9786e-08
7.92537e-06 -6.9786e-08 0.00265457
0.00046386 -0.000111364 1.73142e-05
-0.000111364 -5.34356e-05 -1.48993e-05
1.73142e-05 -1.48993e-05 -0.000137522
0.00414915 0.000111543 0.000143576
0.000111543 0.00225741 -9.5488e-06
0.000143576 -9.5488e-06 0.00225667
0.000852211 0.000367665 -5.21362e-06
0.000367665 -2.98422e-05 -2.06852e-06
-5.21362e-06 -2.06852e-06 -0.000318826
0.00156738 0.000380924 -5.93092e-07
0.000380924 0.000502129 -1.08018e-06
-5.93092e-07 -1.08018e-06 0.000231872
0.0003075 0.000190491 -1.26519e-06
0.000190491 -0.000242626 -2.60944e-06
-1.26519e-06 -2.60944e-06 -0.000454892
0.000617898 0.000212533 -4.771e-06
0.000212533 1.54678e-05 -2.37697e-06
-4.771e-06 -2.37697e-06 -0.000171081
-6.8111e-05 0.000108452 6.8991e-07
0.000108452 -0.000357178 -8.50514e-07
6.8991e-07 -8.50514e-07 -0.000539385
0.00118149 0.000205665 -3.17823e-06
0.000205665 0.000422893 -6.88688e-06
-3.17823e-06 -6.88688e-06 0.000237439
-1.38066e-06 3.37734e-05 -1.29709e-06
3.37734e-05 -0.000297776 9.01441e-07
-1.29709e-06 9.01441e-07 -0.000458373
0.000729325 7.86319e-05 3.58696e-07
7.86319e-05 0.000130405 -3.59504e-07
3.58696e-07 -3.59504e-07 -4.01844e-06
0.000673935 2.3911e-05 -7.92555e-06
2.3911e-05 8.50514e-05 -1.36658e-05
-7.92555e-06 -1.36658e-05 2.85277e-05
0.000569735 2.8328e-05 -1.16532e-06
2.8328e-05 4.6565e-05 7.99774e-06
-1.16532e-06 7.99774e-06 -6.93271e-05
0.000507965 1.28992e-05 1.776e-07
1.28992e-05 -1.19143e-05 -1.68926e-07
1.776e-07 -1.68926e-07 -5.87124e-05
0.00337394 -0.000126166 -8.91975e-05
-0.000126166 0.00177416 -5.10848e-06
-8.91975e-05 -5.10848e-06 0.0017726
0.00298012 -0.000120177 -7.20176e-06
-0.000120177 0.00152244 6.64075e-07
-7.20176e-06 6.64075e-07 0.00152247
0.000390556 1.61054e-05 4.17363e-06
1.61054e-05 -8.48733e-05 9.54345e-06
4.17363e-06 9.54345e-06 -0.000122379
0.00270578 -0.000101784 4.22435e-05
-0.000101784 0.00134381 4.26817e-06
4.22435e-05 4.26817e-06 0.00134807
0.00398452 0.000120122 7.86099e-05
0.000120122 -0.0008476 1.99539e-05
7.86099e-05 1.99539e-05 0.000157062
0.0039714 -0.000816162 0.000120017
-0.000816162 -0.00348519 5.98746e-05
0.000120017 5.98746e-05 -0.00464627
0.0104041 -0.00206295 -0.000162133
-0.00206295 0.00386956 -7.50775e-05
-0.000162133 -7.50775e-05 0.00354924
0.00119692 0.00047789 8.48737e-06
0.00047789 -2.29435e-05 7.02381e-06
8.48737e-06 7.02381e-06 -0.000321579
0.00330951 0.000551685 -6.11314e-06
0.000551685 0.00171596 7.05189e-06
-6.11314e-06 7.05189e-06 0.00138374
0.00148715 0.000435185 -1.03336e-06
0.000435185 0.000497531 7.45559e-07
-1.03336e-06 7.45559e-07 0.000178921
0.00109614 0.000457384 3.22075e-06
0.000457384 0.000233812 1.79031e-06
3.22075e-06 1.79031e-06 -8.04977e-05
0.00137798 0.000479751 -2.38155e-06
0.000479751 0.000275808 1.88862e-06
-2.38155e-06 1.88862e-06 -6.76422e-05
0.00132004 0.000557825 1.63605e-05
0.000557825 0.000183117 1.37977e-05
1.63605e-05 1.37977e-05 -0.000120261
0.00165795 0.000560549 -2.56285e-05
0.000560549 0.000514156 -5.78575e-06
-2.56285e-05 -5.78575e-06 0.000167005
0.000831118 0.000498182 1.47486e-05
0.000498182 7.76834e-05 -1.60951e-05
1.47486e-05 -1.60951e-05 -0.000141123
0.00123056 0.000578022 2.51467e-06
0.000578022 0.000126309 -2.20682e-06
2.51467e-06 -2.20682e-06 -0.000120363
0.00155957 0.000666494 4.69566e-06
0.000666494 4.01758e-05 1.26844e-06
4.69566e-06 1.26844e-06 -4.16428e-05
0.00173208 0.000708581 1.24358e-05
0.000708581 0.0001148 7.12869e-07
1.24358e-05 7.12869e-07 -0.000128903
0.00160497 0.00064752 2.10857e-05
0.00064752 8.73237e-05 1.2505e-05
2.10857e-05 1.2505e-05 -8.2497e-05
0.00100125 0.000684144 -4.0929e-06
0.000684144 -0.000198353 -5.6288e-06
-4.0929e-06 -5.6288e-06 -0.000411109
0.000697919 0.000611022 -9.87877e-06
0.000611022 -0.000346206 -8.68394e-06
-9.87877e-06 -8.68394e-06 -0.000462407
0.00146537 0.000625994 4.23737e-05
0.000625994 -0.000684226 3.80344e-05
4.23737e-05 3.80344e-05 -0.000513597
0.00579082 0.00127762 -8.04601e-05
0.00127762 -0.00073889 -2.37291e-05
-8.04601e-05 -2.37291e-05 0.000202598
0.00358847 0.00117461 0.000426856
0.00117461 -0.00323808 6.33609e-05
0.000426856 6.33609e-05 -0.00513747
0.000485416 0.00140735 -9.83001e-05
0.00140735 -0.00140934 -3.58404e-05
-9.83001e-05 -3.58404e-05 -0.00108781
0.00399858 0.00133856 -3.24706e-05
0.00133856 0.000724514 -7.76444e-06
-3.24706e-05 -7.76444e-06 0.000574619
0.0037112 0.00119121 -0.000112578
0.00119121 0.00102125 -3.13723e-05
-0.000112578 -3.13723e-05 0.00076819
0.00282095 -0.000266003 -4.60468e-05
-0.000266003 -0.000147542 -2.11251e-05
-4.60468e-05 -2.11251e-05 7.3597e-05
0.000298023 -0.000187918 4.95304e-05
-0.000187918 -0.000397884 1.17362e-05
4.95304e-05 1.17362e-05 -5.87199e-05
0.00187153 0.000851346 0.000147389
0.000851346 -0.00436422 -4.66392e-06
0.000147389 -4.66392e-06 -0.00457323
-0.00108999 -0.000466972 -2.99564e-05
-0.000466972 -0.00184573 4.38732e-05
-2.99564e-05 4.38732e-05 -0.00168216
0.00589476 -0.000464433 -0.000112873
-0.000464433 0.000670259 3.53243e-05
-0.000112873 3.53243e-05 0.000673346
0.00249304 -0.000486198 -2.44725e-05
-0.000486198 -0.00021147 1.00632e-05
-2.44725e-05 1.00632e-05 6.82696e-05
0.0039666 -0.000300917 2.42943e-07
-0.000300917 0.000697235 -3.51143e-06
2.42943e-07 -3.51143e-06 0.000711515
0.00219927 -0.000286589 4.43542e-05
-0.000286589 -0.000267492 -6.41131e-06
4.43542e-05 -6.41131e-06 2.51318e-05
0.00349231 -8.51574e-05 3.24876e-05
-8.51574e-05 0.00104736 -1.7e-06
3.24876e-05 -1.7e-06 0.00101569
0.000874743 -0.00045572 -2.55188e-05
-0.00045572 -0.000755389 1.16542e-05
-2.55188e-05 1.16542e-05 -0.000609806
0.00196069 -0.00040859 -8.08922e-07
-0.00040859 -0.000326164 2.15889e-06
-8.08922e-07 2.15889e-06 -0.000128029
0.00222559 -0.000367601 2.99094e-06
-0.000367601 -0.000143975 -1.16392e-06
2.99094e-06 -1.16392e-06 1.78168e-05
0.00212872 -0.000503366 -2.72232e-06
-0.000503366 -2.77367e-05 2.32636e-06
-2.72232e-06 2.32636e-06 -7.62604e-05
0.0021601 -0.000433366 2.7473e-07
-0.000433366 3.32286e-05 -1.7087e-07
2.7473e-07 -1.7087e-07 2.38333e-05
0.00212464 -0.000354575 -1.57693e-06
-0.000354575 2.66412e-05 -3.16399e-07
-1.57693e-06 -3.16399e-07 9.49512e-06
0.0019663 -0.000429396 1.77676e-07
-0.000429396 4.487e-05 6.571e-07
1.77676e-07 6.571e-07 -3.88255e-05
0.00202435 -0.000401203 -7.26613e-07
-0.000401203 6.96154e-05 1.46213e-07
-7.26613e-07 1.46213e-07 -9.07532e-06
0.00194124 -0.000347855 -1.8556e-06
-0.000347855 8.48729e-05 9.23882e-07
-1.8556e-06 9.23882e-07 -1.57549e-05
0.00188066 -0.000413117 8.99064e-07
-0.000413117 9.42033e-05 -5.8482e-07
8.99064e-07 -5.8482e-07 -3.07418e-05
0.00185306 -0.000383163 1.10978e-06
-0.000383163 8.92701e-05 -5.52341e-07
1.10978e-06 -5.52341e-07 -3.91051e-05
0.00188283 -0.00036085 7.98508e-07
-0.00036085 0.000126297 -1.57029e-06
7.98508e-07 -1.57029e-06 -1.37653e-05
0.00192843 -0.000373276 -2.63618e-06
-0.000373276 0.0001813 3.21989e-06
-2.63618e-06 3.21989e-06 4.4595e-05
0.00203826 -0.000385445 -1.86934e-06
-0.000385445 0.000259296 5.50658e-07
-1.86934e-06 5.50658e-07 9.83151e-05
0.00196181 -0.000369847 -1.09951e-06
-0.000369847 0.000255522 -1.72103e-06
-1.09951e-06 -1.72103e-06 6.88168e-05
0.00193423 -0.000415513 2.82e-06
-0.000415513 0.000211253 2.34273e-06
2.82e-06 2.34273e-06 1.26332e-05
0.00190288 -0.000397391 6.93142e-07
-0.000397391 0.000254602 -5.40842e-07
6.93142e-07 -5.40842e-07 4.18395e-05
0.00158157 -0.000326313 -6.80362e-06
-0.000326313 0.000170851 1.06548e-06
-6.80362e-06 1.06548e-06 -4.57741e-05
0.000912611 -0.000218115 -1.35141e-05
-0.000218115 -2.18894e-05 6.97668e-06
-1.35141e-05 6.97668e-06 -0.000208795
0.00144112 -0.000356623 -1.16893e-06
-0.000356623 0.00014004 -1.17524e-07
-1.16893e-06 -1.17524e-07 -0.000102191
0.00176628 -0.000445038 2.72088e-06
-0.000445038 0.000217547 4.97261e-07
2.72088e-06 4.97261e-07 -4.08737e-05
0.000449896 -0.000208866 -2.24001e-05
-0.000208866 -0.000116506 1.76412e-05
-2.24001e-05 1.76412e-05 -0.000237164
0.000843421 -0.000219892 6.08252e-07
-0.000219892 -1.31637e-05 1.3798e-07
6.08252e-07 1.3798e-07 -0.000206681
0.00134893 -0.000368864 8.07865e-06
-0.000368864 0.000174401 -1.51472e-06
8.07865e-06 -1.51472e-06 -8.71156e-05
0.00611372 0.000110962 -0.00021598
0.000110962 0.00344187 1.29308e-05
-0.00021598 1.29308e-05 0.00343734
0.000483164 -0.000209176 -1.14874e-06
-0.000209176 -8.84626e-05 4.13702e-07
-1.14874e-06 4.13702e-07 -0.000201166
0.000839681 -0.000218984 1.10133e-05
-0.000218984 5.44543e-05 -6.98211e-06
1.10133e-05 -6.98211e-06 -0.000142686
0.00574749 0.000133314 -3.33286e-06
0.000133314 0.00323845 -5.32475e-07
-3.33286e-06 -5.32475e-07 0.00322714
0.000594418 -0.000181274 2.25296e-05
-0.000181274 -2.79533e-06 -1.69685e-05
2.25296e-05 -1.69685e-05 -0.000104746
0.00521009 0.000122543 0.000184269
0.000122543 0.00291647 -1.62636e-05
0.000184269 -1.62636e-05 0.00290748
0.00137084 0.000436701 -2.511e-06
0.000436701 0.000158932 2.92913e-06
-2.511e-06 2.92913e-06 -0.000135744
0.00143921 0.00043107 -3.75523e-06
0.00043107 0.000322326 -1.17045e-06
-3.75523e-06 -1.17045e-06 1.92256e-05
0.000964859 0.000300195 -6.43398e-06
0.000300195 4.99507e-05 -1.51792e-06
-6.43398e-06 -1.51792e-06 -0.000194501
0.00265917 0.000487723 4.93575e-07
0.000487723 0.00117752 4.15136e-06
4.93575e-07 4.15136e-06 0.000888462
0.00088819 0.000247737 -2.13563e-06
0.000247737 0.000122516 -1.39658e-06
-2.13563e-06 -1.39658e-06 -0.000103276
0.00120546 0.000226646 -6.1916e-06
0.000226646 0.000398183 -4.10461e-06
-6.1916e-06 -4.10461e-06 0.000194926
-0.000112489 0.000100452 -2.48103e-06
0.000100452 -0.000395965 -1.32571e-06
-2.48103e-06 -1.32571e-06 -0.000579942
0.000709135 0.000115673 -7.57922e-07
0.000115673 0.000121307 -3.09567e-07
-7.57922e-07 -3.09567e-07 -4.83067e-05
0.000601929 5.67351e-05 -1.33694e-05
5.67351e-05 3.11331e-05 -1.49677e-05
-1.33694e-05 -1.49677e-05 -3.9797e-05
0.00042538 4.66755e-05 3.81911e-07
4.66755e-05 -5.63034e-05 8.17679e-06
3.81911e-07 8.17679e-06 -0.000184385
0.000433285 1.95971e-05 5.32947e-08
1.95971e-05 -5.84677e-05 -3.78711e-07
5.32947e-08 -3.78711e-07 -0.000114387
0.00382866 -0.000137562 -0.000113974
-0.000137562 0.00206469 -6.48842e-06
-0.000113974 -6.48842e-06 0.00205906
0.000325977 1.66964e-05 4.94742e-06
1.66964e-05 -0.000120648 1.15902e-05
4.94742e-06 1.15902e-05 -0.000166679
0.0033088 -0.000136952 -6.88525e-06
-0.000136952 0.00173548 6.84501e-07
-6.88525e-06 6.84501e-07 0.00173098
0.00293984 -0.00012248 5.15244e-05
-0.00012248 0.00149759 4.15738e-06
5.15244e-05 4.15738e-06 0.0014968
0.000503883 9.90704e-05 7.8862e-06
9.90704e-05 -0.00143024 1.63021e-05
7.8862e-06 1.63021e-05 -0.00102258
0.00525714 1.85733e-05 6.17423e-05
1.85733e-05 -6.83219e-05 1.03196e-05
6.17423e-05 1.03196e-05 0.000769411
0.0125619 0.000769631 -5.83768e-05
0.000769631 0.00267919 -8.81281e-07
-5.83768e-05 -8.81281e-07 0.00203398
0.00186758 0.000609117 2.82918e-06
0.000609117 0.000335233 4.13879e-06
2.82918e-06 4.13879e-06 3.857e-05
0.0019895 0.000594029 4.05285e-07
0.000594029 0.000286807 2.70389e-06
4.05285e-07 2.70389e-06 1.25743e-05
0.00131897 0.000494015 2.95188e-07
0.000494015 6.38105e-05 -3.12069e-06
2.95188e-07 -3.12069e-06 -0.000234962
0.00249137 0.000615859 -4.63627e-06
0.000615859 0.00106116 6.49151e-06
-4.63627e-06 6.49151e-06 0.0007163
0.00172228 0.000512595 -3.93196e-06
0.000512595 0.000504181 -5.6477e-06
-3.93196e-06 -5.6477e-06 0.000147412
0.0017039 0.000602967 6.77288e-06
0.000602967 0.0003823 3.12724e-06
6.77288e-06 3.12724e-06 7.84356e-05
0.001621 0.000647486 -1.43711e-08
0.000647486 6.16349e-06 -2.17528e-06
-1.43711e-08 -2.17528e-06 -0.000250593
0.00230381 0.000699607 -1.60265e-05
0.000699607 0.000703907 -5.01855e-08
-1.60265e-05 -5.01855e-08 0.000430717
0.00129846 0.000632432 -2.37728e-08
0.000632432 -0.000138612 1.43254e-05
-2.37728e-08 1.43254e-05 -0.000170452
0.00256565 0.000790807 -1.68429e-06
0.000790807 0.00058095 3.65854e-07
-1.68429e-06 3.65854e-07 0.000321539
0.00253875 0.00069382 -5.51073e-06
0.00069382 0.000398631 1.94836e-06
-5.51073e-06 1.94836e-06 0.000192949
0.000976962 0.000345546 2.46336e-05
0.000345546 -0.000409326 1.70383e-05
2.46336e-05 1.70383e-05 -0.000414607
0.000873409 0.000580129 1.06631e-05
0.000580129 -0.000279752 -2.32044e-06
1.06631e-05 -2.32044e-06 -0.000443737
0.00128305 0.000708875 -2.9324e-05
0.000708875 -5.19756e-05 2.78477e-07
-2.9324e-05 2.78477e-07 -0.000271588
0.00273148 0.000703061 3.2911e-06
0.000703061 -1.91236e-05 8.81637e-06
3.2911e-06 8.81637e-06 7.21765e-05
0.00570797 0.000876835 -6.92195e-06
0.000876835 -0.000700443 -2.85663e-05
-6.92195e-06 -2.85663e-05 -0.000165622
0.00368661 0.00112118 -2.12672e-05
0.00112118 0.000901854 -4.17711e-05
-2.12672e-05 -4.17711e-05 0.000803674
0.00133234 -5.61541e-05 2.65004e-05
-5.61541e-05 -0.000297018 1.25568e-06
2.65004e-05 1.25568e-06 -0.000227998
0.00225803 -0.00019384 -4.32855e-05
-0.00019384 -0.000335468 2.49453e-06
-4.32855e-05 2.49453e-06 -0.000209389
0.00207461 0.000262774 1.57459e-05
0.000262774 -0.000632662 -2.37081e-06
1.57459e-05 -2.37081e-06 -0.000465542
0.000280503 -0.000354227 -4.42706e-05
-0.000354227 -0.0013599 3.62753e-05
-4.42706e-05 3.62753e-05 -0.00106987
0.00328121 -0.000370274 -9.72244e-05
-0.000370274 0.000242101 -6.03191e-06
-9.72244e-05 -6.03191e-06 0.000288032
0.00230532 -0.000304375 7.28681e-06
-0.000304375 -0.000118016 -3.95442e-06
7.28681e-06 -3.95442e-06 0.000148942
0.00247743 -8.42148e-05 -1.07571e-05
-8.42148e-05 0.0003945 4.52863e-07
-1.07571e-05 4.52863e-07 0.000374679
0.00226752 -0.000220554 7.49895e-06
-0.000220554 -1.00616e-05 -2.15175e-07
7.49895e-06 -2.15175e-07 5.94329e-05
0.00219082 -1.0041e-05 6.80534e-06
-1.0041e-05 -1.25694e-05 8.61447e-07
6.80534e-06 8.61447e-07 7.25042e-07
0.00191481 -0.000428406 -1.25811e-05
-0.000428406 -0.000387194 3.85981e-06
-1.25811e-05 3.85981e-06 -0.000196681
0.00225073 -0.000375032 -2.28678e-06
-0.000375032 -0.000114456 5.66324e-07
-2.28678e-06 5.66324e-07 1.55081e-05
0.00219468 -0.000267843 -1.75723e-07
-0.000267843 -3.9963e-05 -9.04916e-07
-1.75723e-07 -9.04916e-07 2.55915e-06
0.00214796 -0.00043114 -2.90339e-06
-0.00043114 3.19384e-05 3.84396e-07
-2.90339e-06 3.84396e-07 2.19218e-05
0.00211905 -0.000351524 -1.52207e-07
-0.000351524 3.4744e-05 5.20036e-08
-1.52207e-07 5.20036e-08 1.33354e-05
0.00203868 -0.000300252 -1.78323e-06
-0.000300252 4.40805e-05 5.4624e-07
-1.78323e-06 5.4624e-07 -7.63765e-06
0.00201397 -0.000407769 4.04662e-07
-0.000407769 7.11191e-05 -1.16351e-06
4.04662e-07 -1.16351e-06 -9.69068e-06
0.0019336 -0.000345707 6.13842e-07
-0.000345707 7.71594e-05 -3.04742e-07
6.13842e-07 -3.04742e-07 -2.37612e-05
0.0019406 -0.000319974 -6.22595e-07
-0.000319974 0.000116756 -1.39489e-07
-6.22595e-07 -1.39489e-07 1.27557e-06
0.00183397 -0.000382567 1.52344e-06
-0.000382567 7.40403e-05 -1.0356e-06
1.52344e-06 -1.0356e-06 -5.49015e-05
0.0019133 -0.000362597 2.50829e-07
-0.000362597 0.000143459 -4.72247e-07
2.50829e-07 -4.72247e-07 2.92808e-06
0.00187671 -0.000336897 -5.02937e-07
-0.000336897 0.000163612 -1.53337e-06
-5.02937e-07 -1.53337e-06 -7.78072e-07
0.00207239 -0.000384836 -1.67361e-06
-0.000384836 0.000274809 3.52816e-06
-1.67361e-06 3.52816e-06 0.000117957
0.00195343 -0.000369855 -5.69831e-07
-0.000369855 0.000251181 -1.19216e-07
-5.69831e-07 -1.19216e-07 6.56216e-05
0.00156114 -0.000297531 -5.51128e-06
-0.000297531 0.000123191 8.28435e-07
-5.51128e-06 8.28435e-07 -7.58695e-05
0.00191078 -0.000400089 3.36659e-06
-0.000400089 0.000259968 1.28013e-06
3.36659e-06 1.28013e-06 4.67535e-05
0.00160618 -0.000329462 -4.49731e-07
-0.000329462 0.000186008 1.71693e-08
-4.49731e-07 1.71693e-08 -3.01055e-05
0.000957325 -0.000203658 -1.43029e-05
-0.000203658 -2.86579e-05 6.6375e-06
-1.43029e-05 6.6375e-06 -0.00020667
0.00038009 -0.000186455 -1.99788e-05
-0.000186455 -0.00017333 1.64498e-05
-1.99788e-05 1.64498e-05 -0.000291323
0.000943336 -0.00022151 2.38434e-07
-0.00022151 -6.75607e-06 7.07829e-08
2.38434e-07 7.07829e-08 -0.000194504
0.00143665 -0.000353908 5.74891e-06
-0.000353908 0.000144444 -1.33033e-06
5.74891e-06 -1.33033e-06 -9.85008e-05
0.00635404 3.40318e-05 -0.000244356
3.40318e-05 0.00356616 1.54482e-05
-0.000244356 1.54482e-05 0.00357185
0.000458963 -0.00020421 -1.43731e-06
-0.00020421 -0.000118555 9.83251e-07
-1.43731e-06 9.83251e-07 -0.000234894
0.000890848 -0.000224989 1.23143e-05
-0.000224989 1.25259e-05 -6.61907e-06
1.23143e-05 -6.61907e-06 -0.000182675
0.00621774 8.59138e-05 -1.44543e-06
8.59138e-05 0.00350381 1.59569e-07
-1.44543e-06 1.59569e-07 0.00350022
0.000538681 -0.000213974 2.46471e-05
-0.000213974 -5.96693e-05 -1.76118e-05
2.46471e-05 -1.76118e-05 -0.000172699
0.00594791 0.000108797 0.000213764
0.000108797 0.00335527 -1.80379e-05
0.000213764 -1.80379e-05 0.00334654
0.00162741 0.000500596 -1.60048e-06
0.000500596 0.000181057 3.88596e-06
-1.60048e-06 3.88596e-06 -9.7855e-05
0.00142293 0.000449993 3.30724e-07
0.000449993 0.00018821 7.51543e-07
3.30724e-07 7.51543e-07 -0.000108544
0.00126337 0.000349376 -6.98163e-06
0.000349376 0.000157405 -6.82827e-07
-6.98163e-06 -6.82827e-07 -9.59117e-05
0.00173718 0.000464548 1.57358e-06
0.000464548 0.000497851 2.15812e-06
1.57358e-06 2.15812e-06 0.000186971
0.00111586 0.000307634 -1.60645e-06
0.000307634 0.000149007 1.90994e-07
-1.60645e-06 1.90994e-07 -9.42724e-05
0.00105415 0.000231416 -1.02522e-05
0.000231416 0.000228383 -3.83335e-06
-1.02522e-05 -3.83335e-06 3.08783e-05
0.00130698 0.000290959 -1.86946e-06
0.000290959 0.000385756 3.88624e-08
-1.86946e-06 3.88624e-08 0.000149881
0.000706739 0.000194086 5.63376e-07
0.000194086 0.000100049 7.65662e-07
5.63376e-07 7.65662e-07 -0.000102928
0.000587214 0.0001364 -2.26699e-05
0.0001364 6.9612e-06 -1.62078e-05
-2.26699e-05 -1.62078e-05 -8.07733e-05
0.000295786 6.37448e-05 4.50069e-07
6.37448e-05 -0.000132766 5.94862e-06
4.50069e-07 5.94862e-06 -0.000294882
0.000536176 4.79735e-05 -1.01149e-06
4.79735e-05 -3.89036e-06 -4.03589e-07
-1.01149e-06 -4.03589e-07 -7.1468e-05
0.0045501 -0.000149471 -0.000145763
-0.000149471 0.002519 -9.59942e-06
-0.000145763 -9.59942e-06 0.00250761
0.000417923 1.74981e-05 6.75023e-06
1.74981e-05 -6.48773e-05 1.33634e-05
6.75023e-06 1.33634e-05 -0.000120634
0.00371337 -0.000157085 -6.8938e-06
-0.000157085 0.0019977 6.82858e-07
-6.8938e-06 6.82858e-07 0.00198697
0.00322122 -0.000143765 6.4598e-05
-0.000143765 0.0016826 4.28201e-06
6.4598e-05 4.28201e-06 0.00167585
0.000845173 0.00010511 2.21305e-05
0.00010511 -0.000575604 1.72896e-05
2.21305e-05 1.72896e-05 -0.000427343
0.00241531 0.000109735 -9.66546e-06
0.000109735 -0.000661383 -4.04939e-06
-9.66546e-06 -4.04939e-06 -0.000215809
0.00385118 0.000167059 0.000178196
0.000167059 -0.00134815 5.27608e-05
0.000178196 5.27608e-05 -1.58759e-05
0.00254361 0.000661138 -6.86489e-06
0.000661138 0.000547347 -4.15873e-07
-6.86489e-06 -4.15873e-07 0.000283009
0.00169043 0.0006115 -5.80721e-06
0.0006115 0.000216045 -4.45262e-06
-5.80721e-06 -4.45262e-06 -7.60758e-05
0.00205512 0.000496488 -9.97612e-07
0.000496488 0.000181137 4.00633e-06
-9.97612e-07 4.00633e-06 -2.93652e-05
0.00196204 0.00058279 1.08499e-06
0.00058279 0.000269586 3.48645e-07
1.08499e-06 3.48645e-07 -1.66806e-06
0.00143222 0.000508955 3.93381e-07
0.000508955 0.000143102 -9.64051e-06
3.93381e-07 -9.64051e-06 -0.000155541
0.0018715 0.000514373 -2.25118e-06
0.000514373 6.19038e-06 7.48613e-07
-2.25118e-06 7.48613e-07 -0.000184262
0.00233378 0.0006747 -7.42625e-06
0.0006747 0.000724418 -3.40946e-06
-7.42625e-06 -3.40946e-06 0.000415768
0.00211508 0.000679878 -1.72234e-07
0.000679878 0.000306175 -5.56923e-07
-1.72234e-07 -5.56923e-07 4.20963e-05
0.00198651 0.000382799 -9.80358e-06
0.000382799 -7.52999e-05 1.6687e-07
-9.80358e-06 1.6687e-07 -0.000130958
0.00294628 0.000837614 -4.45216e-06
0.000837614 0.000782481 6.01462e-06
-4.45216e-06 6.01462e-06 0.000523554
0.0022844 0.000675232 -7.66586e-07
0.000675232 0.000252805 -3.65638e-07
-7.66586e-07 -3.65638e-07 4.72419e-05
0.000743051 0.00034242 4.11594e-06
0.00034242 -0.000502539 2.94332e-06
4.11594e-06 2.94332e-06 -0.000513428
-0.000550493 0.000462535 -1.96672e-05
0.000462535 -0.00101716 -4.94446e-06
-1.96672e-05 -4.94446e-06 -0.00116063
0.00322215 0.000760637 -8.99348e-05
0.000760637 0.000211099 -3.29133e-05
-8.99348e-05 -3.29133e-05 0.000235933
0.00201791 6.33298e-05 -1.69189e-06
6.33298e-05 -0.000145067 -1.08719e-06
-1.69189e-06 -1.08719e-06 -9.19623e-05
0.00245252 -6.12399e-05 5.92241e-06
-6.12399e-05 0.000422915 7.13085e-08
5.92241e-06 7.13085e-08 0.000477172
0.00218455 -0.000165917 -7.13441e-05
-0.000165917 -0.000292024 8.91461e-06
-7.13441e-05 8.91461e-06 -0.000216334
0.00226351 -0.00031837 -5.15169e-05
-0.00031837 -5.39306e-05 7.87953e-06
-5.15169e-05 7.87953e-06 0.000176816
0.00143322 -9.52211e-05 -9.18599e-06
-9.52211e-05 -0.000272846 2.72958e-06
-9.18599e-06 2.72958e-06 -0.000280851
0.00223919 -0.000218261 1.1221e-07
-0.000218261 -3.55192e-05 -1.56406e-06
1.1221e-07 -1.56406e-06 5.22087e-05
0.00224209 -1.10794e-05 -2.22319e-06
-1.10794e-05 -9.49294e-06 1.4682e-06
-2.22319e-06 1.4682e-06 1.11337e-05
0.0022523 -7.33765e-05 -5.13306e-07
-7.33765e-05 -9.5994e-06 -5.69896e-08
-5.13306e-07 -5.69896e-08 3.09082e-05
0.00227071 -0.000378959 -4.91143e-06
-0.000378959 -8.35355e-05 5.24217e-07
-4.91143e-06 5.24217e-07 1.64117e-05
0.00216261 -0.000258164 4.34537e-07
-0.000258164 -4.20785e-05 -2.31914e-07
4.34537e-07 -2.31914e-07 -6.12927e-06
0.00210895 -0.000203385 -6.43237e-07
-0.000203385 7.69252e-06 -1.76842e-07
-6.43237e-07 -1.76842e-07 1.43885e-05
0.00211826 -0.000348675 8.36609e-07
-0.000348675 4.56311e-05 -2.32616e-08
8.36609e-07 -2.32616e-08 2.04388e-05
0.00203433 -0.000297155 1.47703e-07
-0.000297155 4.66878e-05 1.6141e-07
1.47703e-07 1.6141e-07 -5.31141e-06
0.00201096 -0.000256541 -1.78456e-06
-0.000256541 0.00010674 3.84092e-07
-1.78456e-06 3.84092e-07 2.44075e-05
0.0019257 -0.000343438 2.39331e-06
-0.000343438 6.878e-05 -1.28666e-06
2.39331e-06 -1.28666e-06 -3.24301e-05
0.00192035 -0.000318585 3.80132e-07
-0.000318585 0.000101756 -2.76509e-07
3.80132e-07 -2.76509e-07 -1.40045e-05
0.00188342 -0.000291869 -1.61398e-07
-0.000291869 0.000123209 -1.23407e-06
-1.61398e-07 -1.23407e-06 -1.43607e-05
0.00194727 -0.00036461 2.97585e-07
-0.00036461 0.000162764 5.09316e-07
2.97585e-07 5.09316e-07 2.17301e-05
0.00190459 -0.000338014 -3.76165e-07
-0.000338014 0.000182245 -8.07517e-08
-3.76165e-07 -8.07517e-08 1.78562e-05
0.00160867 -0.000271137 -3.52644e-06
-0.000271137 0.000115524 4.68272e-07
-3.52644e-06 4.68272e-07 -6.69309e-05
0.0019456 -0.000369775 6.06129e-07
-0.000369775 0.000247021 1.61781e-06
6.06129e-07 1.61781e-06 6.26595e-05
0.00159379 -0.000299654 -4.08861e-07
-0.000299654 0.000142533 9.66544e-08
-4.08861e-07 9.66544e-08 -5.63208e-05
0.000980864 -0.00018382 -1.44376e-05
-0.00018382 -3.33296e-05 5.95956e-06
-1.44376e-05 5.95956e-06 -0.000203403
0.00162652 -0.000332303 5.75783e-06
-0.000332303 0.000198609 -7.51498e-07
5.75783e-06 -7.51498e-07 -1.69419e-05
0.000996873 -0.000205193 1.00358e-07
-0.000205193 -7.30888e-06 9.20845e-08
1.00358e-07 9.20845e-08 -0.000185075
0.00262902 -0.000156706 -4.19576e-05
-0.000156706 0.00119054 1.06081e-05
-4.19576e-05 1.06081e-05 0.0010976
0.00196131 -7.92382e-05 -0.000225366
-7.92382e-05 0.000856403 2.86001e-05
-0.000225366 2.86001e-05 0.000837946
0.00157646 -0.00018472 -1.03581e-05
-0.00018472 0.000555614 -2.89965e-07
-1.03581e-05 -2.89965e-07 0.000446763
0.000967457 -0.00022449 1.33568e-05
-0.00022449 4.84045e-06 -6.45853e-06
1.33568e-05 -6.45853e-06 -0.000183727
0.00640609 1.70631e-05 -6.89125e-06
1.70631e-05 0.0036049 4.69126e-07
-6.89125e-06 4.69126e-07 0.00360707
0.000490604 -0.000230164 2.47157e-05
-0.000230164 -9.9737e-05 -1.72557e-05
2.47157e-05 -1.72557e-05 -0.000218386
0.00629888 6.51887e-05 0.000236695
6.51887e-05 0.0035584 -2.13207e-05
0.000236695 -2.13207e-05 0.00355227
0.00207548 0.000380738 -3.5687e-08
0.000380738 0.000172008 8.08766e-07
-3.5687e-08 8.08766e-07 1.07137e-05
0.00193681 0.000486762 2.17406e-06
0.000486762 0.000251139 4.42821e-06
2.17406e-06 4.42821e-06 1.23153e-05
0.0019029 0.000524823 9.26451e-08
0.000524823 0.000341012 1.90948e-07
9.26451e-08 1.90948e-07 6.0577e-05
0.00144597 0.00038299 -6.05634e-06
0.00038299 0.000188024 2.51728e-07
-6.05634e-06 2.51728e-07 -6.31858e-05
0.00149203 0.000466522 4.66266e-06
0.000466522 0.000225663 -1.25107e-06
4.66266e-06 -1.25107e-06 -7.41726e-05
0.00126774 0.00034944 -3.54972e-07
0.00034944 0.000160357 3.29554e-07
-3.54972e-07 3.29554e-07 -9.34115e-05
0.000852592 0.000211052 -1.17879e-05
0.000211052 2.44456e-05 -5.34148e-06
-1.17879e-05 -5.34148e-06 -0.000162322
0.00132365 0.000320031 5.57026e-06
0.000320031 0.000284012 2.46231e-06
5.57026e-06 2.46231e-06 4.09836e-05
0.000716899 0.000200803 8.13736e-07
0.000200803 1.67898e-05 6.80355e-07
8.13736e-07 6.80355e-07 -0.000175186
0.000587877 0.000209315 -2.59034e-05
0.000209315 -9.45892e-06 -1.73018e-05
-2.59034e-05 -1.73018e-05 -0.000118003
0.000312449 0.000154395 2.59941e-06
0.000154395 -0.000143013 3.36709e-06
2.59941e-06 3.36709e-06 -0.000342587
0.0005906 0.000116228 -1.10353e-06
0.000116228 9.47097e-06 -7.29921e-07
-1.10353e-06 -7.29921e-07 -7.54595e-05
0.00545333 -0.000147377 -0.000189189
-0.000147377 0.00308098 -1.62592e-05
-0.000189189 -1.62592e-05 0.00306245
0.000339882 3.98505e-05 1.00734e-05
3.98505e-05 -0.000118967 1.49641e-05
1.00734e-05 1.49641e-05 -0.000183834
0.00427322 -0.000177134 -9.42097e-06
-0.000177134 0.00235465 8.46089e-07
-9.42097e-06 8.46089e-07 0.00233689
0.00360193 -0.000165354 8.24171e-05
-0.000165354 0.00193001 4.67971e-06
8.24171e-05 4.67971e-06 0.00191705
0.00214501 0.000195801 -4.17327e-06
0.000195801 -9.15358e-05 -5.11128e-07
-4.17327e-06 -5.11128e-07 -3.41002e-05
0.00206436 7.3278e-05 2.39481e-05
7.3278e-05 4.82601e-05 -2.7767e-06
2.39481e-05 -2.7767e-06 0.000190378
0.00507421 0.000167112 -0.000108792
0.000167112 0.000534523 -1.29642e-05
-0.000108792 -1.29642e-05 0.000995078
0.00198192 0.000446027 -5.10819e-06
0.000446027 9.51754e-05 1.45447e-06
-5.10819e-06 1.45447e-06 -7.97191e-05
0.00211187 0.000616084 -3.2496e-06
0.000616084 0.000318598 -2.09704e-07
-3.2496e-06 -2.09704e-07 6.05157e-05
0.0016388 0.000624969 -5.58923e-06
0.000624969 0.000168133 -8.74538e-06
-5.58923e-06 -8.74538e-06 -0.000120573
0.00218405 0.000491272 3.09546e-06
0.000491272 0.000276607 1.34299e-06
3.09546e-06 1.34299e-06 6.90131e-05
0.00192425 0.000571809 4.21625e-07
0.000571809 0.000247156 -3.63034e-06
4.21625e-07 -3.63034e-06 -2.14177e-05
0.00229442 0.000369375 -6.48332e-07
0.000369375 0.000107141 1.82081e-07
-6.48332e-07 1.82081e-07 3.96438e-05
0.00185805 0.000515184 -3.37471e-08
0.000515184 2.43782e-05 6.73974e-07
-3.37471e-08 6.73974e-07 -0.000166969
0.00260181 0.000712495 -4.76465e-06
0.000712495 0.000603175 -1.02953e-06
-4.76465e-06 -1.02953e-06 0.000329403
0.00201252 0.000379184 -4.49534e-07
0.000379184 -5.12846e-05 -5.16345e-07
-4.49534e-07 -5.16345e-07 -0.000105862
0.00212251 0.000661487 1.26595e-05
0.000661487 0.000150843 1.51486e-06
1.26595e-05 1.51486e-06 -5.70944e-05
0.000852628 0.000341813 -3.71061e-05
0.000341813 -0.000418308 -1.56446e-05
-3.71061e-05 -1.56446e-05 -0.000436115
0.00222262 7.07204e-05 -1.57154e-07
7.07204e-05 -8.07921e-06 4.31498e-07
-1.57154e-07 4.31498e-07 3.13596e-05
0.00216135 7.46332e-05 -1.96018e-06
7.46332e-05 -4.11753e-05 2.40446e-07
-1.96018e-06 2.40446e-07 6.81079e-06
0.00317611 -5.5638e-05 -4.02779e-05
-5.5638e-05 0.000911631 2.90614e-06
-4.02779e-05 2.90614e-06 0.000949452
0.0021865 -0.000213147 -1.3231e-05
-0.000213147 -7.79823e-05 2.13692e-06
-1.3231e-05 2.13692e-06 2.66809e-05
0.00229547 -8.54852e-06 -3.36431e-06
-8.54852e-06 -9.53743e-06 -2.41341e-06
-3.36431e-06 -2.41341e-06 1.82397e-05
0.00220853 -7.90893e-05 -6.11748e-07
-7.90893e-05 -5.53153e-05 -8.43805e-08
-6.11748e-07 -8.43805e-08 -7.01806e-06
0.00200186 -6.4412e-05 -6.99482e-07
-6.4412e-05 -5.4035e-06 2.86957e-07
-6.99482e-07 2.86957e-07 -9.77161e-07
0.00212597 -0.000247312 2.66072e-07
-0.000247312 -4.54685e-05 4.60243e-07
2.66072e-07 4.60243e-07 -1.61677e-05
0.00206411 -0.000206945 -1.68967e-07
-0.000206945 -1.05515e-05 -1.6792e-08
-1.68967e-07 -1.6792e-08 -9.22068e-06
0.00203345 -0.000175307 -1.31422e-06
-0.000175307 7.79321e-05 -5.11717e-08
-1.31422e-06 -5.11717e-08 2.99735e-05
0.00203067 -0.000294182 1.98528e-06
-0.000294182 4.99324e-05 -2.20212e-07
1.98528e-06 -2.20212e-07 -2.40305e-06
0.00195457 -0.000253484 2.52599e-07
-0.000253484 6.75106e-05 -1.60937e-07
2.52599e-07 -1.60937e-07 -1.49269e-05
0.00188436 -0.000232709 -5.00995e-07
-0.000232709 8.0086e-05 -9.51905e-07
-5.00995e-07 -9.51905e-07 -3.10588e-05
0.00190069 -0.00031716 1.65985e-06
-0.00031716 8.71051e-05 -3.46387e-07
1.65985e-06 -3.46387e-07 -2.89117e-05
0.00192795 -0.000294144 -3.04054e-07
-0.000294144 0.000150507 -2.56026e-08
-3.04054e-07 -2.56026e-08 1.26729e-05
0.00165536 -0.000235311 -2.28807e-06
-0.000235311 0.000109401 1.63172e-07
-2.28807e-06 1.63172e-07 -5.55382e-05
0.00193092 -0.000339091 3.37173e-07
-0.000339091 0.000199842 1.17758e-06
3.37173e-07 1.17758e-06 3.54488e-05
0.00164116 -0.000273116 -3.29416e-07
-0.000273116 0.00013412 4.27492e-08
-3.29416e-07 4.27492e-08 -4.808e-05
0.000998424 -0.000164106 -1.38447e-05
-0.000164106 -3.88462e-05 4.98558e-06
-1.38447e-05 4.98558e-06 -0.000202571
0.00162615 -0.000301802 4.49212e-06
-0.000301802 0.00016165 -6.58736e-07
4.49212e-06 -6.58736e-07 -3.7005e-05
0.00102496 -0.000184824 -1.21772e-08
-0.000184824 -1.03132e-05 1.51413e-07
-1.21772e-08 1.51413e-07 -0.000179723
0.00264514 -0.000156057 -5.00477e-05
-0.000156057 0.00118979 1.00725e-05
-5.00477e-05 1.00725e-05 0.00110484
0.00103432 -0.000206964 1.4333e-05
-0.000206964 1.27445e-05 -6.31272e-06
1.4333e-05 -6.31272e-06 -0.000164848
0.00276615 -0.00019715 4.43099e-05
-0.00019715 0.00127374 -6.50495e-06
4.43099e-05 -6.50495e-06 0.00118776
0.00202626 -0.00011766 -0.000227974
-0.00011766 0.000902455 3.33317e-05
-0.000227974 3.33317e-05 0.000881959
0.00409658 -7.81401e-05 -0.000223422
-7.81401e-05 0.00218599 2.00051e-05
-0.000223422 2.00051e-05 0.00217782
0.00285272 -0.000252739 0.000143096
-0.000252739 0.00134031 -2.20259e-05
0.000143096 -2.20259e-05 0.0012545
0.00645376 1.66461e-06 0.000252465
1.66461e-06 0.00364297 -2.53152e-05
0.000252465 -2.53152e-05 0.00364105
0.00228115 0.000380379 -2.28854e-06
0.000380379 0.000290219 -1.38293e-07
-2.28854e-06 -1.38293e-07 0.000151952
0.00176531 0.000373969 2.78437e-06
0.000373969 9.59058e-05 1.66609e-06
2.78437e-06 1.66609e-06 -9.42808e-05
0.0020543 0.000372407 5.41718e-07
0.000372407 0.000163436 -1.78795e-06
5.41718e-07 -1.78795e-06 9.00265e-06
0.00159668 0.000376006 -4.93517e-06
0.000376006 0.000176848 8.78105e-07
-4.93517e-06 8.78105e-07 -5.52247e-05
0.00201767 0.00049221 6.1706e-07
0.00049221 0.000287303 4.07324e-07
6.1706e-07 4.07324e-07 4.77381e-05
0.00217765 0.000549582 1.78908e-06
0.000549582 0.000500424 -3.13427e-06
1.78908e-06 -3.13427e-06 0.000218315
0.00142139 0.000383467 1.66092e-07
0.000383467 0.000166897 3.50471e-07
1.66092e-07 3.50471e-07 -8.56779e-05
0.000911678 0.000231371 -1.36197e-05
0.000231371 -9.76339e-06 -5.5753e-06
-1.36197e-05 -5.5753e-06 -0.000198438
0.00129858 0.000352234 8.10528e-06
0.000352234 0.000179168 2.09234e-06
8.10528e-06 2.09234e-06 -7.56777e-05
0.000773374 0.00020449 -2.91626e-07
0.00020449 -2.43782e-05 -1.87704e-07
-2.91626e-07 -1.87704e-07 -0.00020847
0.000474183 0.000233311 -2.57923e-05
0.000233311 -9.33555e-05 -1.78337e-05
-2.57923e-05 -1.78337e-05 -0.000210797
0.000339782 0.000177173 7.11475e-06
0.000177173 -0.000215532 3.56932e-06
7.11475e-06 3.56932e-06 -0.00040361
0.000413932 0.000178626 2.25836e-06
0.000178626 -0.00011903 4.56442e-07
2.25836e-06 4.56442e-07 -0.000220301
0.0061683 -0.000110429 -0.000218176
-0.000110429 0.00351092 -2.1696e-05
-0.000218176 -2.1696e-05 0.00349118
0.000334785 8.34837e-05 1.65177e-05
8.34837e-05 -0.000143961 1.53812e-05
1.65177e-05 1.53812e-05 -0.000222963
0.00509239 -0.000176541 -6.07853e-06
-0.000176541 0.00285839 -3.19241e-07
-6.07853e-06 -3.19241e-07 0.00283822
0.00405171 -0.000191964 9.72481e-05
-0.000191964 0.00222257 5.9513e-06
9.72481e-05 5.9513e-06 0.00220083
0.0022462 0.000222354 -7.81498e-07
0.000222354 5.27383e-06 3.71178e-07
-7.81498e-07 3.71178e-07 2.75379e-05
0.0020819 0.000200605 1.25432e-06
0.000200605 -0.000120106 7.81478e-08
1.25432e-06 7.81478e-08 -6.40541e-05
0.00295174 4.78525e-05 -7.98108e-05
4.78525e-05 0.000492614 -1.25004e-05
-7.98108e-05 -1.25004e-05 0.000636264
0.00202552 0.000321978 -5.67859e-07
0.000321978 4.15173e-05 2.44828e-07
-5.67859e-07 2.44828e-07 -5.78439e-05
0.00200817 0.000445813 -2.28649e-07
0.000445813 0.000132113 4.25957e-07
-2.28649e-07 4.25957e-07 -4.30049e-05
0.00162293 0.000563816 4.73631e-06
0.000563816 5.80379e-05 -1.96581e-06
4.73631e-06 -1.96581e-06 -0.000192317
0.00231724 0.000486094 5.1847e-07
0.000486094 0.000375062 -2.99176e-06
5.1847e-07 -2.99176e-06 0.000170447
0.00220678 0.000356392 -7.73418e-07
0.000356392 6.43331e-05 2.48986e-08
-7.73418e-07 2.48986e-08 -1.04116e-06
0.00185632 0.000516877 -2.48323e-06
0.000516877 4.97402e-05 3.22756e-07
-2.48323e-06 3.22756e-07 -0.00014259
0.00192823 0.000369156 1.10471e-05
0.000369156 -6.71407e-05 -1.62243e-07
1.10471e-05 -1.62243e-07 -0.000120249
0.00205817 5.85538e-05 8.45782e-07
5.85538e-05 2.09025e-07 5.25682e-07
8.45782e-07 5.25682e-07 1.37709e-05
0.00216413 6.76831e-05 9.68925e-08
6.76831e-05 -3.25718e-05 -1.41244e-09
9.68925e-08 -1.41244e-09 4.61234e-06
0.00228707 8.98095e-05 -7.58154e-06
8.98095e-05 5.4728e-05 -2.07879e-07
-7.58154e-06 -2.07879e-07 9.72616e-05
0.00193114 -1.21282e-05 -4.16183e-06
-1.21282e-05 1.40896e-05 5.67246e-07
-4.16183e-06 5.67246e-07 1.42735e-06
0.00216889 -9.02757e-05 1.32159e-06
-9.02757e-05 -9.75235e-05 -7.01067e-07
1.32159e-06 -7.01067e-07 -4.15108e-05
0.0020212 -6.72164e-05 -8.45879e-07
-6.72164e-05 1.47538e-06 3.28449e-07
-8.45879e-07 3.28449e-07 6.99716e-06
0.00196862 -0.000101233 -3.88758e-06
-0.000101233 3.0757e-05 2.78953e-07
-3.88758e-06 2.78953e-07 -6.30537e-08
0.00202116 -0.000210423 1.32609e-06
-0.000210423 -2.77706e-05 1.56272e-07
1.32609e-06 1.56272e-07 -3.21217e-05
0.00199258 -0.00017268 1.65226e-06
-0.00017268 5.2043e-05 -3.88326e-07
1.65226e-06 -3.88326e-07 4.54515e-06
0.00191835 -0.00016172 1.68605e-06
-0.00016172 8.12882e-05 -1.38604e-06
1.68605e-06 -1.38604e-06 -7.67882e-06
0.00189506 -0.000249648 2.1354e-06
-0.000249648 2.63258e-05 -6.52527e-07
2.1354e-06 -6.52527e-07 -5.60943e-05
0.00194688 -0.000233879 -2.11431e-07
-0.000233879 0.000118651 -1.50596e-07
-2.11431e-07 -1.50596e-07 7.57029e-06
0.00169155 -0.000186196 -1.40718e-06
-0.000186196 0.000107722 -1.90435e-07
-1.40718e-06 -1.90435e-07 -3.88074e-05
0.0019706 -0.000296143 4.66705e-07
-0.000296143 0.000177325 9.48762e-07
4.66705e-07 9.48762e-07 3.92732e-05
0.00167563 -0.000235703 -2.64118e-07
-0.000235703 0.0001205 9.43933e-08
-2.64118e-07 9.43933e-08 -4.39583e-05
0.00101923 -0.000141484 -1.31228e-05
-0.000141484 -4.04718e-05 3.86545e-06
-1.31228e-05 3.86545e-06 -0.000197151
0.00167287 -0.000274942 2.67725e-06
-0.000274942 0.000152382 -3.89694e-07
2.67725e-06 -3.89694e-07 -2.95287e-05
0.0010433 -0.000164113 -1.45043e-07
-0.000164113 -1.5388e-05 2.39412e-07
-1.45043e-07 2.39412e-07 -0.00017814
0.00263752 -0.000155028 -5.76675e-05
-0.000155028 0.00118206 9.86003e-06
-5.76675e-05 9.86003e-06 0.0011002
0.00106977 -0.000185894 1.43785e-05
-0.000185894 1.29316e-05 -5.67086e-06
1.43785e-05 -5.67086e-06 -0.000155766
0.00272925 -0.000180724 4.05283e-05
-0.000180724 0.00124119 -5.19611e-06
4.05283e-05 -5.19611e-06 0.00116223
0.00206307 -0.00010105 -0.000222868
-0.00010105 0.000917975 2.93672e-05
-0.000222868 2.93672e-05 0.000899633
0.00288448 -0.000207102 0.00013947
-0.000207102 0.00134204 -2.33241e-05
0.00013947 -2.33241e-05 0.00126414
0.00172886 -5.62523e-05 -9.54587e-05
-5.62523e-05 0.000722644 1.29715e-05
-9.54587e-05 1.29715e-05 0.000690886
0.00609832 7.02492e-05 6.8214e-05
7.02492e-05 0.00340771 -2.92583e-06
6.8214e-05 -2.92583e-06 0.00338737
0.00202352 0.000318353 1.00175e-06
0.000318353 0.000111968 5.55036e-07
1.00175e-06 5.55036e-07 -8.78542e-06
0.00206692 0.000352484 3.07732e-07
0.000352484 0.000230329 -1.76036e-07
3.07732e-07 -1.76036e-07 6.85427e-05
0.00215168 0.000375794 -3.92628e-06
0.000375794 0.000201731 -8.96079e-08
-3.92628e-06 -8.96079e-08 6.06603e-05
0.00178544 0.000338667 -2.14574e-06
0.000338667 0.000231084 4.23512e-07
-2.14574e-06 4.23512e-07 2.59164e-05
0.0017683 0.000379949 -4.95591e-07
0.000379949 8.21711e-05 -1.88791e-06
-4.95591e-07 -1.88791e-06 -0.000104771
0.0020369 0.000364407 -3.82294e-06
0.000364407 0.00015716 -5.51718e-06
-3.82294e-06 -5.51718e-06 9.54867e-06
0.0010354 0.000231614 -1.47656e-05
0.000231614 5.1025e-06 -5.24494e-06
-1.47656e-05 -5.24494e-06 -0.000177801
0.00155083 0.00037347 5.40682e-07
0.00037347 0.000147993 3.65259e-07
5.40682e-07 3.65259e-07 -8.45917e-05
0.00209811 0.000497318 2.82605e-06
0.000497318 0.000322363 -3.1864e-06
2.82605e-06 -3.1864e-06 8.21636e-05
0.00138567 0.000382554 7.06946e-06
0.000382554 0.000140118 7.08818e-07
7.06946e-06 7.08818e-07 -0.000113525
0.000875377 0.00022449 -8.86649e-07
0.00022449 -2.53873e-05 3.66785e-08
-8.86649e-07 3.66785e-08 -0.000211874
0.000439122 0.000230631 -2.50406e-05
0.000230631 -0.000119702 -1.69406e-05
-2.50406e-05 -1.69406e-05 -0.000241239
0.00064574 0.00019259 1.15309e-05
0.00019259 -0.000101711 5.27599e-06
1.15309e-05 5.27599e-06 -0.000282248
0.0004331 0.000219359 2.214e-06
0.000219359 -0.000112868 5.78178e-07
2.214e-06 5.78178e-07 -0.000230807
0.00644278 -2.59215e-05 -0.000240092
-2.59215e-05 0.00366323 -2.72978e-05
-0.000240092 -2.72978e-05 0.00364848
0.000478839 0.000162354 2.31065e-05
0.000162354 -8.30622e-05 1.72758e-05
2.31065e-05 1.72758e-05 -0.00018078
0.00594761 -0.000145946 3.57048e-06
-0.000145946 0.00337296 -1.23446e-06
3.57048e-06 -1.23446e-06 0.00335422
0.00478267 -0.000228667 0.000119202
-0.000228667 0.00268775 8.52835e-06
0.000119202 8.52835e-06 0.00265377
0.00204648 0.000175957 -1.29085e-06
0.000175957 2.28081e-05 -8.47465e-09
-1.29085e-06 -8.47465e-09 -1.34943e-07
0.00222239 0.000224474 1.63647e-07
0.000224474 -1.72951e-05 5.75955e-07
1.63647e-07 5.75955e-07 7.51049e-06
0.00208856 0.00020564 4.03403e-06
0.00020564 -0.000121821 2.21351e-07
4.03403e-06 2.21351e-07 -6.65591e-05
0.0020643 0.000319317 -1.45654e-07
0.000319317 7.16293e-05 9.85684e-08
-1.45654e-07 9.85684e-08 -2.38292e-05
0.00200983 0.000443175 1.22675e-06
0.000443175 0.000156763 -6.4484e-07
1.22675e-06 -6.4484e-07 -1.82554e-05
0.00214365 0.000345036 1.42083e-06
0.000345036 3.14287e-05 -4.03112e-07
1.42083e-06 -4.03112e-07 -3.19886e-05
0.00197393 5.89927e-05 -2.16265e-06
5.89927e-05 1.58881e-05 3.98136e-07
-2.16265e-06 3.98136e-07 7.41441e-06
0.00204409 5.40928e-05 3.50987e-07
5.40928e-05 -4.07476e-06 -8.74454e-08
3.50987e-07 -8.74454e-08 6.83507e-06
0.0021096 6.48133e-05 1.87557e-07
6.48133e-05 -5.60166e-05 -4.35527e-07
1.87557e-07 -4.35527e-07 -2.04344e-05
0.00193429 -1.29238e-05 -1.2556e-06
-1.29238e-05 1.28597e-05 6.84601e-08
-1.2556e-06 6.84601e-08 -2.49608e-07
0.00189751 -3.97478e-05 -5.83931e-06
-3.97478e-05 9.06866e-06 6.22749e-07
-5.83931e-06 6.22749e-07 -2.7102e-05
0.00204133 -6.97591e-05 9.1183e-07
-6.97591e-05 8.4071e-06 -5.94135e-08
9.1183e-07 -5.94135e-08 1.53167e-05
0.00194892 -0.000100196 -1.49185e-06
-0.000100196 2.37989e-05 2.86497e-07
-1.49185e-06 2.86497e-07 -1.01241e-05
0.0019579 -0.000102655 -3.12449e-06
-0.000102655 9.94481e-05 1.77393e-07
-3.12449e-06 1.77393e-07 2.96197e-05
0.00195645 -0.000170641 4.37413e-06
-0.000170641 2.99159e-05 -7.07421e-07
4.37413e-06 -7.07421e-07 -1.72334e-05
0.00192894 -0.000163679 2.6415e-06
-0.000163679 8.44398e-05 -9.12999e-07
2.6415e-06 -9.12999e-07 -4.56722e-06
0.00168514 -0.000133254 1.2758e-06
-0.000133254 9.06144e-05 -6.45922e-07
1.2758e-06 -6.45922e-07 -4.08981e-05
0.00200056 -0.000236432 8.15709e-07
-0.000236432 0.000150897 5.11544e-07
8.15709e-07 5.11544e-07 3.95701e-05
0.00168573 -0.000186651 -2.03209e-07
-0.000186651 0.000100366 -9.17292e-09
-2.03209e-07 -9.17292e-09 -4.59757e-05
0.00103403 -0.000113209 -1.25755e-05
-0.000113209 -4.15488e-05 2.84233e-06
-1.25755e-05 2.84233e-06 -0.000189919
0.00170045 -0.000236481 1.49846e-06
-0.000236481 0.000133286 2.92547e-08
1.49846e-06 2.92547e-08 -3.07379e-05
0.00105415 -0.000140266 -2.70942e-07
-0.000140266 -2.17197e-05 2.65996e-07
-2.70942e-07 2.65996e-07 -0.000177386
0.00258645 -0.00015999 -6.04756e-05
-0.00015999 0.00114994 8.6965e-06
-6.04756e-05 8.6965e-06 0.00106961
0.00108807 -0.000164147 1.38205e-05
-0.000164147 7.77649e-06 -4.60741e-06
1.38205e-05 -4.60741e-06 -0.000153977
0.00269878 -0.000157522 3.89204e-05
-0.000157522 0.00121523 -3.94756e-06
3.89204e-05 -3.94756e-06 0.0011406
0.00208677 -8.49876e-05 -0.000221809
-8.49876e-05 0.000925701 2.48662e-05
-0.000221809 2.48662e-05 0.000908592
0.00281342 -0.00017517 0.000136727
-0.00017517 0.00128615 -1.99604e-05
0.000136727 -1.99604e-05 0.00121614
0.00172669 -6.28362e-05 -8.65608e-05
-6.28362e-05 0.000715891 1.05702e-05
-8.65608e-05 1.05702e-05 0.000686822
0.00147196 -5.34759e-05 5.06654e-05
-5.34759e-05 0.000573335 -7.73823e-06
5.06654e-05 -7.73823e-06 0.000528712
0.00201963 0.000201951 -3.76673e-07
0.000201951 8.56883e-05 9.41529e-07
-3.76673e-07 9.41529e-07 1.24289e-05
0.00200924 0.000292742 -6.55484e-07
0.000292742 0.000163064 7.04319e-07
-6.55484e-07 7.04319e-07 2.36886e-05
0.00200959 0.000319274 -1.29197e-07
0.000319274 8.72782e-05 1.50108e-07
-1.29197e-07 1.50108e-07 -2.86706e-05
0.00189059 0.000309625 -1.05233e-06
0.000309625 0.000246887 4.26916e-07
-1.05233e-06 4.26916e-07 6.61496e-05
0.00199909 0.000346691 -5.55519e-07
0.000346691 0.000197313 -3.03354e-07
-5.55519e-07 -3.03354e-07 3.39343e-05
0.00201725 0.000371325 3.10703e-07
0.000371325 0.000110279 -2.76908e-07
3.10703e-07 -2.76908e-07 -3.36845e-05
0.00110221 0.00021222 -1.52733e-05
0.00021222 1.76654e-05 -4.86736e-06
-1.52733e-05 -4.86736e-06 -0.000155293
0.00169875 0.000337922 2.72422e-06
0.000337922 0.000170423 2.09486e-07
2.72422e-06 2.09486e-07 -3.28573e-05
0.00178287 0.000386801 -9.15268e-07
0.000386801 7.58802e-05 -3.57665e-06
-9.15268e-07 -3.57665e-06 -0.000107936
0.000359368 0.000184394 -2.24287e-05
0.000184394 -0.00018858 -1.41212e-05
-2.24287e-05 -1.41212e-05 -0.000301671
0.000983509 0.000225959 -5.43869e-07
0.000225959 -2.12969e-05 9.37723e-08
-5.43869e-07 9.37723e-08 -0.000203118
0.00151046 0.000371707 6.69427e-06
0.000371707 0.00012167 3.44089e-08
6.69427e-06 3.44089e-08 -0.000111613
0.000870452 0.000220474 1.37113e-05
0.000220474 -2.23808e-05 6.3093e-06
1.37113e-05 6.3093e-06 -0.00020721
0.000431023 0.000215051 9.50408e-07
0.000215051 -0.000121738 8.81612e-07
9.50408e-07 8.81612e-07 -0.000244392
0.00659557 7.4074e-05 -0.00025532
7.4074e-05 0.00373763 -3.12419e-05
-0.00025532 -3.12419e-05 0.00372829
0.000403529 0.000203236 2.28454e-05
0.000203236 -0.000129026 1.68373e-05
2.28454e-05 1.68373e-05 -0.00024544
0.00633822 -5.36871e-05 6.84141e-06
-5.36871e-05 0.00358704 -4.49277e-07
6.84141e-06 -4.49277e-07 0.00357932
0.00564763 -0.000175913 0.000170129
-0.000175913 0.00318762 9.27377e-06
0.000170129 9.27377e-06 0.00316774
0.00200049 0.000119321 -4.52778e-06
0.000119321 5.87569e-05 -9.95959e-07
-4.52778e-06 -9.95959e-07 3.19045e-05
0.00203901 0.000178431 9.46978e-07
0.000178431 1.80493e-05 4.03264e-07
9.46978e-07 4.03264e-07 -4.50914e-06
0.00218682 0.000226768 1.07941e-07
0.000226768 -4.41858e-05 -6.87911e-07
1.07941e-07 -6.87911e-07 -1.73362e-05
0.00211015 0.000316213 3.02078e-06
0.000316213 0.000106307 -1.2986e-07
3.02078e-06 -1.2986e-07 1.48731e-05
0.00184595 8.43085e-06 -4.58923e-06
8.43085e-06 1.23168e-06 5.72371e-07
-4.58923e-06 5.72371e-07 -4.42004e-05
0.00195077 4.94929e-05 1.40912e-07
4.94929e-05 2.49083e-06 8.48991e-08
1.40912e-07 8.48991e-08 -7.53052e-06
0.00203042 4.95914e-05 -1.2361e-07
4.95914e-05 -7.12506e-06 -3.64556e-07
-1.2361e-07 -3.64556e-07 4.49587e-07
0.00193777 -1.22402e-05 1.46547e-06
-1.22402e-05 1.21462e-05 -7.4393e-07
1.46547e-06 -7.4393e-07 -1.65489e-06
0.00190606 -3.46951e-05 -1.09452e-06
-3.46951e-05 1.45827e-05 -1.0365e-07
-1.09452e-06 -1.0365e-07 -2.06352e-05
0.00188716 -4.47419e-05 -1.47393e-06
-4.47419e-05 6.19901e-05 1.37971e-07
-1.47393e-06 1.37971e-07 -9.3689e-06
0.00192731 -9.9305e-05 2.68078e-06
-9.9305e-05 1.52632e-05 1.16796e-07
2.68078e-06 1.16796e-07 -2.19604e-05
0.00189498 -0.00010247 -1.66871e-06
-0.00010247 6.30504e-05 6.03708e-07
-1.66871e-06 6.03708e-07 -1.36936e-05
0.00178407 -8.36784e-05 -6.29773e-07
-8.36784e-05 0.000147233 -1.51568e-07
-6.29773e-07 -1.51568e-07 3.3736e-05
0.0019474 -0.000164509 4.34542e-06
-0.000164509 9.20919e-05 -5.35897e-07
4.34542e-06 -5.35897e-07 3.30201e-06
0.00167628 -0.000130816 1.74384e-06
-0.000130816 8.34479e-05 -5.24517e-07
1.74384e-06 -5.24517e-07 -4.74473e-05
0.00102427 -8.17551e-05 -1.22066e-05
-8.17551e-05 -5.14356e-05 2.10928e-06
-1.22066e-05 2.10928e-06 -0.000192012
0.00169009 -0.000185055 9.33603e-07
-0.000185055 0.000100715 1.40633e-07
9.33603e-07 1.40633e-07 -4.50108e-05
0.00104015 -0.000112096 -1.35999e-07
-0.000112096 -3.71439e-05 1.33739e-07
-1.35999e-07 1.33739e-07 -0.0001849
0.000481483 -8.71105e-05 -2.0001e-05
-8.71105e-05 -0.000161112 5.60365e-06
-2.0001e-05 5.60365e-06 -0.000248571
0.00108588 -0.00013881 1.30634e-05
-0.00013881 -4.51837e-06 -3.43354e-06
1.30634e-05 -3.43354e-06 -0.000159123
0.00158093 -0.000103954 5.66495e-05
-0.000103954 0.000519214 -4.08616e-06
5.66495e-05 -4.08616e-06 0.000441834
0.00616632 -0.000146124 -0.000292143
-0.000146124 0.00344476 2.04669e-05
-0.000292143 2.04669e-05 0.00345819
0.00277562 -0.00014181 0.000134752
-0.00014181 0.00125288 -1.59361e-05
0.000134752 -1.59361e-05 0.00118787
0.00173556 -6.57139e-05 -7.82428e-05
-6.57139e-05 0.000719406 6.96029e-06
-7.82428e-05 6.96029e-06 0.000690307
0.00138953 -8.44271e-05 6.22405e-05
-8.44271e-05 0.000526405 -9.24869e-06
6.22405e-05 -9.24869e-06 0.000480622
0.00200093 0.000151508 -2.50039e-06
0.000151508 0.000101443 3.8074e-08
-2.50039e-06 3.8074e-08 4.13123e-05
0.00198109 0.000215276 2.35205e-07
0.000215276 0.000131451 1.52205e-06
2.35205e-07 1.52205e-06 2.14518e-05
0.00200197 0.000197811 9.51485e-07
0.000197811 7.95197e-05 5.1059e-07
9.51485e-07 5.1059e-07 3.66806e-06
0.00179552 0.000250166 -9.78375e-07
0.000250166 0.000158704 7.01093e-07
-9.78375e-07 7.01093e-07 7.41979e-07
0.00195767 0.000287712 7.01429e-07
0.000287712 0.000134495 6.17046e-08
7.01429e-07 6.17046e-08 -4.25428e-06
0.00199655 0.000320794 6.99112e-07
0.000320794 6.25593e-05 1.54928e-07
6.99112e-07 1.54928e-07 -4.86603e-05
0.00101616 0.000182058 -1.59798e-05
0.000182058 -5.91866e-05 -3.85271e-06
-1.59798e-05 -3.85271e-06 -0.000221399
0.00189231 0.000308862 2.51802e-06
0.000308862 0.000247424 6.26842e-07
2.51802e-06 6.26842e-07 6.71201e-05
0.00191983 0.000339983 -1.22154e-06
0.000339983 0.000157824 -1.26349e-06
-1.22154e-06 -1.26349e-06 -7.04809e-06
0.000364828 0.000131813 -1.94862e-05
0.000131813 -0.000209249 -1.05506e-05
-1.94862e-05 -1.05506e-05 -0.000310229
0.000968588 0.00020547 3.73916e-07
0.00020547 -6.53811e-05 3.48203e-07
3.73916e-07 3.48203e-07 -0.000237768
0.00160089 0.0003363 7.47731e-06
0.0003363 0.000102689 -2.99443e-07
7.47731e-06 -2.99443e-07 -9.85201e-05
0.00655173 0.000155415 -0.000266256
0.000155415 0.00369168 -3.10036e-05
-0.000266256 -3.10036e-05 0.0036896
0.000388133 0.000175969 4.68802e-07
0.000175969 -0.000171778 7.79092e-07
4.68802e-07 7.79092e-07 -0.000285778
0.000923592 0.000219853 1.4877e-05
0.000219853 -5.21118e-05 5.78128e-06
1.4877e-05 5.78128e-06 -0.000232794
0.000370937 0.000198967 2.10473e-05
0.000198967 -0.000154891 1.67968e-05
2.10473e-05 1.67968e-05 -0.000278448
0.00647116 6.32074e-05 9.84354e-06
6.32074e-05 0.00365357 4.50408e-07
9.84354e-06 4.50408e-07 0.00365116
0.00624264 -8.56858e-05 0.000224492
-8.56858e-05 0.00352011 1.30723e-05
0.000224492 1.30723e-05 0.00351647
0.00191338 6.3992e-05 -7.28838e-06
6.3992e-05 4.6544e-05 -4.51431e-08
-7.28838e-06 -4.51431e-08 -2.85555e-06
0.00197809 0.000116314 2.33876e-07
0.000116314 4.21846e-05 4.38416e-08
2.33876e-07 4.38416e-08 1.52935e-05
0.00202928 0.00018098 1.67953e-06
0.00018098 1.16348e-05 3.55359e-07
1.67953e-06 3.55359e-07 -1.00902e-05
0.00181889 2.08673e-06 -1.05123e-06
2.08673e-06 3.0245e-05 -1.8491e-08
-1.05123e-06 -1.8491e-08 -4.65014e-05
0.0018915 1.35661e-05 6.79625e-08
1.35661e-05 2.90238e-05 5.93436e-08
6.79625e-08 5.93436e-08 -1.31577e-05
0.00192914 3.88373e-05 1.63589e-06
3.88373e-05 -1.01278e-05 -4.66546e-07
1.63589e-06 -4.66546e-07 -2.15614e-05
0.00191334 -3.05228e-05 2.77295e-06
-3.05228e-05 1.89787e-05 -4.79018e-07
2.77295e-06 -4.79018e-07 -1.49846e-05
0.00186307 -4.316e-05 -9.26132e-07
-4.316e-05 4.67224e-05 2.19484e-07
-9.26132e-07 2.19484e-07 -2.37103e-05
0.00186111 -3.66143e-05 1.84511e-06
-3.66143e-05 0.000209887 -5.48482e-07
1.84511e-06 -5.48482e-07 0.000100296
0.00182763 -0.000101998 -1.26688e-06
-0.000101998 2.43637e-05 8.39094e-07
-1.26688e-06 8.39094e-07 -5.90974e-05
0.00175291 -8.42021e-05 4.54613e-07
-8.42021e-05 0.000132275 3.53582e-08
4.54613e-07 3.53582e-08 1.35391e-05
0.000955863 -4.59551e-05 -1.31198e-05
-4.59551e-05 -9.88715e-05 1.17042e-06
-1.31198e-05 1.17042e-06 -0.000230317
0.00165535 -0.00013032 1.95371e-06
-0.00013032 6.85644e-05 -4.04327e-07
1.95371e-06 -4.04327e-07 -6.21064e-05
0.0010285 -7.80632e-05 -5.13664e-08
-7.80632e-05 -4.87026e-05 1.22194e-07
-5.13664e-08 1.22194e-07 -0.000188548
0.000485484 -2.23043e-05 -1.85617e-05
-2.23043e-05 -0.000162689 3.48142e-06
-1.85617e-05 3.48142e-06 -0.000246015
0.00106602 -0.000110513 1.23191e-05
-0.000110513 -2.19981e-05 -2.58781e-06
1.23191e-05 -2.58781e-06 -0.000168947
0.000486602 -7.12015e-05 -2.10029e-07
-7.12015e-05 -0.000156447 3.83505e-07
-2.10029e-07 3.83505e-07 -0.000244835
0.00611985 -3.93661e-05 -0.000282284
-3.93661e-05 0.00341162 1.25022e-05
-0.000282284 1.25022e-05 0.00342891
0.000521982 -7.31205e-05 1.52025e-05
-7.31205e-05 -0.000135767 -7.47267e-06
1.52025e-05 -7.47267e-06 -0.000227967
0.00387171 -9.54635e-05 0.000126692
-9.54635e-05 0.00203658 -5.97579e-06
0.000126692 -5.97579e-06 0.0020208
0.00135442 -8.3163e-05 6.83011e-05
-8.3163e-05 0.000505249 -9.35709e-06
6.83011e-05 -9.35709e-06 0.000459125
0.00185435 0.000115118 -5.58506e-06
0.000115118 2.07405e-05 -2.36716e-07
-5.58506e-06 -2.36716e-07 -4.21973e-05
0.00195509 0.000156343 4.75306e-07
0.000156343 0.000117858 2.04674e-06
4.75306e-07 2.04674e-06 2.18948e-05
0.00196168 0.000146144 -4.33673e-07
0.000146144 7.44509e-05 -2.65655e-08
-4.33673e-07 -2.65655e-08 1.46052e-05
0.00171755 0.000185889 -3.62971e-07
0.000185889 0.000100205 7.72461e-07
-3.62971e-07 7.72461e-07 -4.41658e-05
0.00197057 0.000214696 4.23132e-07
0.000214696 0.00012239 1.42436e-07
4.23132e-07 1.42436e-07 1.09201e-05
0.00198435 0.000193366 2.19203e-06
0.000193366 7.33673e-05 1.02155e-08
2.19203e-06 1.02155e-08 -5.13339e-06
0.00101353 0.000148907 -1.45939e-05
0.000148907 -7.22618e-05 -2.84962e-06
-1.45939e-05 -2.84962e-06 -0.000224104
0.00180413 0.000248454 9.22956e-07
0.000248454 0.00016948 4.85822e-07
9.22956e-07 4.85822e-07 8.49268e-06
0.00190586 0.000282606 -2.17407e-07
0.000282606 0.000105744 -9.44149e-07
-2.17407e-07 -9.44149e-07 -3.23285e-05
0.000390348 9.3791e-05 -1.81427e-05
9.3791e-05 -0.000211449 -7.54918e-06
-1.81427e-05 -7.54918e-06 -0.000303962
0.000949883 0.000178117 -1.77553e-06
0.000178117 -9.82068e-05 -2.65649e-08
-1.77553e-06 -2.65649e-08 -0.0002601
0.00189917 0.000308538 6.13414e-06
0.000308538 0.000251113 9.07873e-07
6.13414e-06 9.07873e-07 7.11606e-05
0.00641698 0.000220616 -0.000283372
0.000220616 0.00360433 -2.99503e-05
-0.000283372 -2.99503e-05 0.00360564
0.000396918 0.000129803 1.34076e-08
0.000129803 -0.000191215 4.20983e-07
1.34076e-08 4.20983e-07 -0.000292695
0.000842022 0.000199522 1.46529e-05
0.000199522 -0.000144471 4.8412e-06
1.46529e-05 4.8412e-06 -0.000316377
0.00648496 0.000171204 1.35741e-05
0.000171204 0.00365648 2.79075e-06
1.35741e-05 2.79075e-06 0.0036533
0.00040481 0.000166303 1.99419e-05
0.000166303 -0.000162381 1.39655e-05
1.99419e-05 1.39655e-05 -0.000277107
0.00635314 2.81746e-05 0.000249347
2.81746e-05 0.00356956 1.94722e-05
0.000249347 1.94722e-05 0.00357464
0.00183468 4.41129e-05 -2.14593e-06
4.41129e-05 2.82834e-05 7.17874e-08
-2.14593e-06 7.17874e-08 -4.90793e-05
0.0019165 6.62332e-05 -9.76583e-07
6.62332e-05 5.79556e-05 -1.86499e-07
-9.76583e-07 -1.86499e-07 7.16503e-06
0.00195271 0.000113312 3.96906e-06
0.000113312 2.41182e-05 5.35491e-07
3.96906e-06 5.35491e-07 -2.84894e-06
0.00183151 -3.81098e-06 2.2787e-06
-3.81098e-06 0.000191752 -5.09964e-07
2.2787e-06 -5.09964e-07 8.41746e-05
0.00180491 2.54171e-06 -1.45322e-06
2.54171e-06 1.84845e-05 2.40317e-07
-1.45322e-06 2.40317e-07 -5.57758e-05
0.00193309 2.00077e-05 6.49338e-06
2.00077e-05 5.42322e-05 -3.40145e-07
6.49338e-06 -3.40145e-07 1.52456e-05
0.00183751 -4.19187e-05 -6.21912e-07
-4.19187e-05 3.08249e-05 4.69239e-07
-6.21912e-07 4.69239e-07 -3.89054e-05
0.00183278 -3.55273e-05 3.21879e-06
-3.55273e-05 0.000190695 -2.48214e-07
3.21879e-06 -2.48214e-07 8.1352e-05
0.000944042 -1.74047e-05 -1.28494e-05
-1.74047e-05 -0.000101621 3.11804e-07
-1.28494e-05 3.11804e-07 -0.000228255
0.00172703 -8.50167e-05 2.45682e-07
-8.50167e-05 0.000120528 2.04706e-07
2.45682e-07 2.04706e-07 -3.48866e-06
0.000987713 -4.59255e-05 -1.14515e-06
-4.59255e-05 -7.79518e-05 7.50018e-08
-1.14515e-06 7.50018e-08 -0.000210599
0.000491806 -7.61349e-06 -1.88549e-05
-7.61349e-06 -0.000160596 2.17286e-06
-1.88549e-05 2.17286e-06 -0.000241441
0.00103445 -7.56243e-05 1.17432e-05
-7.56243e-05 -4.42342e-05 -1.86575e-06
1.17432e-05 -1.86575e-06 -0.000183491
0.000466205 -3.44356e-05 8.37935e-07
-3.44356e-05 -0.000175041 -1.62407e-07
8.37935e-07 -1.62407e-07 -0.000257486
0.00600119 -0.00013621 -0.000287195
-0.00013621 0.00335186 1.36422e-05
-0.000287195 1.36422e-05 0.00336417
0.000455736 -5.45008e-05 1.79885e-05
-5.45008e-05 -0.000175272 -4.3668e-06
1.79885e-05 -4.3668e-06 -0.00026326
0.00607775 -7.55553e-05 7.58451e-06
-7.55553e-05 0.00338798 -6.82085e-08
7.58451e-06 -6.82085e-08 0.00340498
0.00169194 -2.94702e-05 0.000224202
-2.94702e-05 0.000683856 -1.39782e-05
0.000224202 -1.39782e-05 0.000673018
0.00182205 0.000103931 -9.33232e-07
0.000103931 2.26799e-05 5.57774e-07
-9.33232e-07 5.57774e-07 -6.77619e-05
0.00189009 0.000119352 -3.2785e-06
0.000119352 3.92875e-05 -8.07173e-07
-3.2785e-06 -8.07173e-07 -2.08331e-05
0.00170049 0.00012747 5.45859e-07
0.00012747 8.56524e-05 9.86953e-07
5.45859e-07 9.86953e-07 -4.35866e-05
0.00195401 0.000155301 8.62835e-07
0.000155301 0.000115229 2.10086e-07
8.62835e-07 2.10086e-07 1.94691e-05
0.00192251 0.000140892 3.11236e-06
0.000140892 4.65934e-05 -4.64931e-07
3.11236e-06 -4.64931e-07 -1.29367e-05
0.00110142 0.000112008 -1.26973e-05
0.000112008 -1.29376e-05 -1.97153e-06
-1.26973e-05 -1.97153e-06 -0.00015641
0.001715 0.000184779 1.62365e-07
0.000184779 0.000101775 9.04581e-08
1.62365e-07 9.04581e-08 -4.26116e-05
0.00195958 0.000214036 6.93875e-07
0.000214036 0.000113322 -1.27725e-06
6.93875e-07 -1.27725e-06 3.7676e-07
0.000432783 6.83471e-05 -1.78211e-05
6.83471e-05 -0.000195051 -5.42633e-06
-1.78211e-05 -5.42633e-06 -0.000283088
0.00101655 0.000149191 -1.7561e-06
0.000149191 -6.68508e-05 3.84208e-08
-1.7561e-06 3.84208e-08 -0.000219977
0.0018168 0.000246736 2.75744e-06
0.000246736 0.000183169 4.40233e-07
2.75744e-06 4.40233e-07 1.91812e-05
0.00629321 0.000246154 -0.000300495
0.000246154 0.00353624 -2.8282e-05
-0.000300495 -2.8282e-05 0.00353643
0.000433143 9.59e-05 -9.26119e-08
9.59e-05 -0.000186838 1.75319e-07
-9.26119e-08 1.75319e-07 -0.000279775
0.000885965 0.000174263 1.08908e-05
0.000174263 -0.00013613 3.58568e-06
1.08908e-05 3.58568e-06 -0.000297623
0.00640215 0.000242804 1.10797e-05
0.000242804 0.00360697 4.19617e-06
1.10797e-05 4.19617e-06 0.0036028
0.000435762 0.000126281 1.87297e-05
0.000126281 -0.000169597 1.06831e-05
1.87297e-05 1.06831e-05 -0.000271196
0.00645265 0.000168999 0.000276716
0.000168999 0.00362673 2.80444e-05
0.000276716 2.80444e-05 0.00363031
0.00178491 3.71628e-05 3.42767e-06
3.71628e-05 0.000155746 1.36082e-07
3.42767e-06 1.36082e-07 4.64703e-05
0.00184734 4.24541e-05 -2.37283e-06
4.24541e-05 4.15319e-05 -1.72829e-09
-2.37283e-06 -1.72829e-09 -3.69688e-05
0.00194395 6.83018e-05 4.3757e-06
6.83018e-05 8.47014e-05 -1.95766e-07
4.3757e-06 -1.95766e-07 3.2769e-05
0.000939518 -8.42216e-06 -1.31645e-05
-8.42216e-06 -9.49039e-05 -1.69876e-07
-1.31645e-05 -1.69876e-07 -0.000219414
0.00182203 1.3004e-06 3.42403e-06
1.3004e-06 0.000185644 -9.23922e-08
3.42403e-06 -9.23922e-08 7.81534e-05
0.00180299 2.5348e-06 -8.86781e-07
2.5348e-06 1.44678e-05 3.08315e-07
-8.86781e-07 3.08315e-07 -5.7242e-05
0.00180991 -3.4754e-05 4.44879e-06
-3.4754e-05 0.000174995 1.66524e-07
4.44879e-06 1.66524e-07 6.59001e-05
0.000940886 -1.82785e-05 -8.1142e-07
-1.82785e-05 -0.000105009 2.70133e-08
-8.1142e-07 2.70133e-08 -0.000231928
0.000496677 -3.16565e-05 -1.93594e-05
-3.16565e-05 -0.00015693 9.84938e-07
-1.93594e-05 9.84938e-07 -0.000234881
0.00100036 -4.4961e-05 1.11382e-05
-4.4961e-05 -6.86159e-05 -1.26824e-06
1.11382e-05 -1.26824e-06 -0.000202493
0.000470896 3.69811e-06 3.58353e-07
3.69811e-06 -0.000174129 6.63479e-08
3.58353e-07 6.63479e-08 -0.00025398
0.0059741 -0.000109446 -0.000291174
-0.000109446 0.00333333 1.00328e-05
-0.000291174 1.00328e-05 0.00334853
0.00048116 -4.09919e-05 1.88289e-05
-4.09919e-05 -0.000163794 -3.00744e-06
1.88289e-05 -3.00744e-06 -0.000247397
0.00601492 -3.06509e-05 -3.01885e-06
-3.06509e-05 0.00334891 2.36047e-06
-3.01885e-06 2.36047e-06 0.00336815
0.00606187 -9.10108e-05 0.000286945
-9.10108e-05 0.00337831 -1.20713e-05
0.000286945 -1.20713e-05 0.00339598
0.00165182 7.62928e-05 7.54763e-07
7.62928e-05 6.01411e-05 5.21392e-07
7.54763e-07 5.21392e-07 -5.97684e-05
0.00188608 0.000104272 -2.82562e-06
0.000104272 5.89069e-05 -1.01013e-06
-2.82562e-06 -1.01013e-06 -2.58646e-05
0.00189536 0.00012332 9.16005e-07
0.00012332 3.93813e-05 -1.29766e-07
9.16005e-07 -1.29766e-07 -1.8292e-05
0.00109338 7.07359e-05 -1.22618e-05
7.07359e-05 -1.31625e-05 -1.36551e-06
-1.22618e-05 -1.36551e-06 -0.000147683
0.00169606 0.000126204 2.34474e-07
0.000126204 8.60593e-05 -1.0435e-08
2.34474e-07 -1.0435e-08 -4.33656e-05
0.00195317 0.000154148 1.03308e-07
0.000154148 0.000113386 -1.90943e-06
1.03308e-07 -1.90943e-06 1.78337e-05
0.000462996 4.51944e-05 -1.74293e-05
4.51944e-05 -0.000178548 -3.87449e-06
-1.74293e-05 -3.87449e-06 -0.000263408
0.00106541 0.000113311 3.44738e-07
0.000113311 -3.53954e-05 2.74954e-07
3.44738e-07 2.74954e-07 -0.000179795
0.00171246 0.000183682 1.02897e-06
0.000183682 0.000103049 -5.24163e-07
1.02897e-06 -5.24163e-07 -4.13706e-05
0.00615898 0.000214313 -0.000310333
0.000214313 0.00345487 -2.36611e-05
-0.000310333 -2.36611e-05 0.00345983
0.000464961 7.35567e-05 3.76011e-07
7.35567e-05 -0.000175376 1.59258e-07
3.76011e-07 1.59258e-07 -0.000264384
0.00101771 0.000149336 1.09313e-05
0.000149336 -6.28642e-05 2.98495e-06
1.09313e-05 2.98495e-06 -0.000217216
0.00631683 0.000260898 6.27814e-06
0.000260898 0.00355663 3.25632e-06
6.27814e-06 3.25632e-06 0.00355437
0.000479873 9.99209e-05 1.81343e-05
9.99209e-05 -0.00015875 8.15489e-06
1.81343e-05 8.15489e-06 -0.000252574
0.00641158 0.000271857 0.000294609
0.000271857 0.00361763 3.43601e-05
0.000294609 3.43601e-05 0.00361104
0.00101414 2.01017e-05 -1.26121e-05
2.01017e-05 -4.34934e-05 -6.0522e-07
-1.26121e-05 -6.0522e-07 -0.000170792
0.00175206 3.34354e-05 3.70197e-06
3.34354e-05 0.000134755 9.53135e-08
3.70197e-06 9.53135e-08 2.71034e-05
0.00183561 4.02494e-05 -3.48343e-06
4.02494e-05 3.91999e-05 -1.21846e-07
-3.48343e-06 -1.21846e-07 -4.07391e-05
0.000532083 3.13393e-05 -1.99312e-05
3.13393e-05 -0.000142874 -5.93811e-07
-1.99312e-05 -5.93811e-07 -0.000213082
0.000921352 -2.49937e-06 -9.5772e-07
-2.49937e-06 -0.000107484 -1.29141e-08
-9.5772e-07 -1.29141e-08 -0.000232183
0.00180143 7.58045e-06 4.61229e-06
7.58045e-06 0.00017224 2.36872e-07
4.61229e-06 2.36872e-07 6.48256e-05
0.000936144 -1.87553e-05 1.13242e-05
-1.87553e-05 -0.000109624 -5.16757e-07
1.13242e-05 -5.16757e-07 -0.0002368
0.000492207 -5.36041e-06 3.69733e-07
-5.36041e-06 -0.000159575 3.72415e-07
3.69733e-07 3.72415e-07 -0.000237665
0.00589852 2.403e-05 -0.000294561
2.403e-05 0.00328098 6.47419e-07
-0.000294561 6.47419e-07 0.00330203
0.000449949 1.53311e-05 1.83879e-05
1.53311e-05 -0.000188405 -1.23906e-06
1.83879e-05 -1.23906e-06 -0.00026696
0.00594053 -0.000107567 -7.74753e-06
-0.000107567 0.00331411 1.82036e-06
-7.74753e-06 1.82036e-06 0.00332887
0.0059638 -1.20642e-05 0.000276238
-1.20642e-05 0.00331772 -6.0092e-06
0.000276238 -6.0092e-06 0.00333694
0.00105463 3.9863e-05 -1.24418e-05
3.9863e-05 -2.67148e-05 -1.17326e-06
-1.24418e-05 -1.17326e-06 -0.000155849
0.00168956 7.38029e-05 -2.36034e-07
7.38029e-05 8.45787e-05 -1.9959e-07
-2.36034e-07 -1.9959e-07 -3.16343e-05
0.00197435 0.000104917 -3.68479e-06
0.000104917 0.000109932 -2.40479e-06
-3.68479e-06 -2.40479e-06 3.11145e-05
0.00266012 5.92177e-05 -0.000137257
5.92177e-05 0.00117194 -4.62779e-06
-0.000137257 -4.62779e-06 0.0011212
0.00104667 7.23781e-05 3.39334e-07
7.23781e-05 -4.22738e-05 1.41914e-07
3.39334e-07 1.41914e-07 -0.000177535
0.00169363 0.000124915 8.85489e-07
0.000124915 8.75848e-05 -8.69232e-07
8.85489e-07 -8.69232e-07 -4.20341e-05
0.00603455 0.000158834 -0.000309891
0.000158834 0.00337355 -1.70737e-05
-0.000309891 -1.70737e-05 0.00338586
0.000497067 6.4055e-05 8.69087e-07
6.4055e-05 -0.000155541 4.15223e-07
8.69087e-07 4.15223e-07 -0.000242346
0.00103207 0.000114598 1.25735e-05
0.000114598 -5.61365e-05 2.41902e-06
1.25735e-05 2.41902e-06 -0.000201435
0.00623275 0.00022839 1.59276e-06
0.00022839 0.00350149 1.62604e-06
1.59276e-06 1.62604e-06 0.00350526
0.000507907 8.16821e-05 1.83302e-05
8.16821e-05 -0.000147962 6.41264e-06
1.83302e-05 6.41264e-06 -0.000238607
0.00633198 0.000293204 0.000305409
0.000293204 0.00357796 3.50024e-05
0.000305409 3.50024e-05 0.00356923
0.000591815 1.10009e-05 -1.6091e-05
1.10009e-05 -9.53004e-05 -1.83079e-06
-1.6091e-05 -1.83079e-06 -0.000174389
0.000963163 1.91705e-05 4.16088e-07
1.91705e-05 -7.86153e-05 2.01377e-07
4.16088e-07 2.01377e-07 -0.000204815
0.00171701 2.87474e-05 3.646e-06
2.87474e-05 0.000112256 -2.9402e-08
3.646e-06 -2.9402e-08 6.27289e-06
0.00574693 -9.88071e-05 -0.000277579
-9.88071e-05 0.0032059 2.89658e-06
-0.000277579 2.89658e-06 0.00321629
0.000487213 8.86455e-06 -5.69622e-07
8.86455e-06 -0.000165773 -6.23287e-09
-5.69622e-07 -6.23287e-09 -0.000238577
0.000920322 2.32985e-06 1.12153e-05
2.32985e-06 -0.000109777 1.71707e-08
1.12153e-05 1.71707e-08 -0.000234609
0.000447151 2.09411e-05 1.86178e-05
2.09411e-05 -0.000188223 1.80094e-07
1.86178e-05 1.80094e-07 -0.000265338
0.00584283 -1.1823e-05 2.18528e-06
-1.1823e-05 0.00325247 -1.39545e-06
2.18528e-06 -1.39545e-06 0.00326933
0.00593488 -2.75554e-05 0.000283283
-2.75554e-05 0.0032995 -3.931e-06
0.000283283 -3.931e-06 0.0033199
0.002736 1.34807e-05 -0.00013225
1.34807e-05 0.00121704 -2.68549e-06
-0.00013225 -2.68549e-06 0.0011689
0.00103622 4.30834e-05 1.00485e-07
4.30834e-05 -3.98677e-05 -7.55237e-09
1.00485e-07 -7.55237e-09 -0.000169558
0.00172437 7.14051e-05 9.55747e-07
7.14051e-05 0.000107526 -8.80688e-07
9.55747e-07 -8.80688e-07 -4.97711e-06
0.00556472 -4.15973e-05 -0.000114927
-4.15973e-05 0.00309683 5.04503e-07
-0.000114927 5.04503e-07 0.00308464
0.000509573 5.62591e-05 7.76475e-08
5.62591e-05 -0.00014746 2.38204e-07
7.76475e-08 2.38204e-07 -0.000229696
0.00101672 7.46497e-05 1.21661e-05
7.46497e-05 -6.17513e-05 1.64022e-06
1.21661e-05 1.64022e-06 -0.000197698
0.00610427 0.00013321 -1.06362e-05
0.00013321 0.00341116 -1.63928e-06
-1.06362e-05 -1.63928e-06 0.00342487
0.000527099 8.71681e-05 1.96642e-05
8.71681e-05 -0.000136565 5.44087e-06
1.96642e-05 5.44087e-06 -0.000224308
0.00627738 0.00025245 0.000314523
0.00025245 0.00353574 3.05123e-05
0.000314523 3.05123e-05 0.00353642
0.00174522 -5.26617e-05 -0.00022418
-5.26617e-05 0.000715538 1.17158e-06
-0.00022418 1.17158e-06 0.000712323
0.00161911 2.94933e-05 -5.62766e-05
2.94933e-05 0.000528808 1.45507e-07
-5.62766e-05 1.45507e-07 0.000470167
0.000907033 2.08799e-05 1.24362e-05
2.08799e-05 -0.000116448 7.89487e-07
1.24362e-05 7.89487e-07 -0.000241624
0.00581907 -4.5472e-05 7.14562e-06
-4.5472e-05 0.00324384 2.22559e-06
7.14562e-06 2.22559e-06 0.00325932
0.000502622 -1.22836e-05 1.92126e-05
-1.22836e-05 -0.000150004 7.23742e-07
1.92126e-05 7.23742e-07 -0.000226612
0.00588032 -7.64075e-05 0.00029629
-7.64075e-05 0.00327828 -3.90808e-06
0.00029629 -3.90808e-06 0.0032951
0.00131386 1.93261e-05 -5.46455e-05
1.93261e-05 0.000476611 -8.50288e-07
-5.46455e-05 -8.50288e-07 0.000440054
0.00160901 1.67717e-05 -5.69053e-05
1.67717e-05 0.000525672 -1.15168e-06
-5.69053e-05 -1.15168e-06 0.000463223
0.00100727 4.48804e-05 1.22847e-05
4.48804e-05 -5.92806e-05 1.1863e-06
1.22847e-05 1.1863e-06 -0.000189556
0.00367419 6.26595e-05 0.000109569
6.26595e-05 0.00191686 3.06353e-06
0.000109569 3.06353e-06 0.00190816
0.000521622 6.67941e-05 1.99504e-05
6.67941e-05 -0.000140169 4.13655e-06
1.99504e-05 4.13655e-06 -0.000222381
0.00617987 0.000121194 0.000300478
0.000121194 0.00345026 1.82857e-05
0.000300478 1.82857e-05 0.00346753
0.00576545 -2.04937e-05 -8.90968e-06
-2.04937e-05 0.00321416 -2.825e-06
-8.90968e-06 -2.825e-06 0.00322844
0.000500076 4.8461e-05 2.07528e-05
4.8461e-05 -0.000161805 2.25104e-06
2.07528e-05 2.25104e-06 -0.00023144
0.0057282 4.13101e-05 0.000283721
4.13101e-05 0.00318429 2.19755e-07
0.000283721 2.19755e-07 0.00320316
0.00357014 3.01572e-05 0.000121995
3.01572e-05 0.00185786 4.51829e-06
0.000121995 4.51829e-06 0.00185058
0.000532971 7.67672e-06 1.91598e-05
7.67672e-06 -0.000132999 2.56127e-06
1.91598e-05 2.56127e-06 -0.000210525
0.00599442 -7.20563e-06 0.000288945
-7.20563e-06 0.00333836 7.99999e-06
0.000288945 7.99999e-06 0.00335669
0.00580995 -0.000121072 0.000280795
-0.000121072 0.00324607 -3.93789e-06
0.000280795 -3.93789e-06 0.00325579
0.00581757 3.23483e-06 0.000282426
3.23483e-06 0.00322992 4.49452e-06
0.000282426 4.49452e-06 0.00325131
