# vtk DataFile Version 2.0
Wound Healing Simulation
ASCII
DATASET UNSTRUCTURED_GRID
POINTS 3012 float
69.9759 18.75 4
67.2507 60.3285 4
69.976 18.75 2
73.0099 25.446 4
71.1327 20.9142 4
68.6801 16.6661 4
67.8267 19.9161 3.99203
67.2507 60.3286 2
71.1327 54.0858 4
68.6801 58.3339 4
65.6939 62.2254 4
65.3132 59.0095 3.99299
74.6784 42.3946 4
73.7221 47.2057 4
69.9759 18.75 0
73.0099 25.446 2
68.6801 16.6661 2
71.1327 20.9142 2
67.8266 19.9158 2
74.6792 32.6053 4
73.7222 27.7943 4
72.1454 23.1494 4
70.6164 26.214 3.99018
68.8873 21.9487 3.99143
67.2507 14.6715 4
66.638 17.9623 3.99261
65.8044 21.0095 3.98743
67.2507 60.3285 0
71.1327 54.0858 2
68.6801 58.3339 2
65.694 62.2255 2
65.3132 59.0098 2
72.1454 51.8506 4
69.9759 56.25 4
68.8382 53.1224 3.99141
64.0165 64.0165 4
66.6117 57.143 3.99267
63.8866 60.7729 3.99336
63.5048 57.7899 3.9884
60.3285 67.2507 4
74.6792 42.3947 2
73.7222 47.2057 2
74.9194 39.9526 4
74.2788 44.8158 4
72.1712 42.0887 3.98957
73.0099 49.554 4
71.2521 46.604 3.99017
73.0099 25.446 0
71.1327 20.9142 0
68.6801 16.6661 0
67.8267 19.9161 0.00796959
74.6792 32.6053 2
73.7222 27.7943 2
67.2508 14.6715 2
72.1455 23.1494 2
70.6164 26.2137 2
66.638 17.9619 2
68.8872 21.9483 2
65.8044 21.0092 2
74.9197 35.0474 4
74.2794 30.1841 4
72.1876 32.9394 3.98974
71.2807 28.4254 3.98974
69.8175 24.0513 3.99082
68.3561 26.9418 3.98623
66.7709 22.9197 3.98714
65.694 12.7746 4
65.3245 16.0949 3.99303
64.7198 19.1769 3.98794
63.9007 22.0131 3.98579
71.1327 54.0858 0
65.6939 62.2254 0
68.6801 58.3339 0
65.3132 59.0095 0.00701102
72.1455 51.8506 2
69.9759 56.25 2
68.8382 53.1228 2
64.0165 64.0165 2
66.6117 57.1433 2
63.8866 60.7732 2
63.5048 57.7902 2
62.2254 65.694 4
58.8937 65.4183 3.9936
69.7712 50.9973 3.99082
67.785 55.1771 3.99216
66.6584 52.2231 3.98714
62.3367 62.4331 3.99357
64.6668 56.049 3.98814
62.2055 59.4221 3.98895
61.8319 56.7057 3.98654
58.3339 68.6801 4
60.3285 67.2508 2
73.7221 47.2057 0
74.6784 42.3946 0
74.9197 39.9526 2
74.2794 44.8159 2
72.1713 42.0888 2
73.0099 49.554 2
71.2521 46.6043 2
75 37.5 4
72.4084 39.8035 3.98923
71.7855 44.3575 3.98995
69.8145 41.7936 3.98585
70.5777 48.8207 3.99044
68.9227 46.0229 3.98633
74.6792 32.6053 0
73.7222 27.7943 0
67.2507 14.6715 0
72.1454 23.1494 0
70.6164 26.214 0.00981652
68.8873 21.9487 0.0085709
66.638 17.9623 0.00738859
65.8044 21.0095 0.0125683
74.9197 35.0474 2
74.2794 30.1841 2
72.1877 32.9393 2
71.2807 28.4252 2
65.694 12.7745 2
65.3245 16.0946 2
69.8175 24.051 2
68.3561 26.9416 2
64.7198 19.1767 2
66.7709 22.9194 2
63.9007 22.013 2
72.4162 35.2217 3.98942
71.8065 30.6713 3.98972
69.8499 33.2637 3.98564
68.9755 29.0302 3.98574
67.6203 24.9004 3.98678
66.2112 27.6206 3.98451
64.0165 10.9835 4
64.7718 23.8104 3.98558
63.8907 14.3202 3.99325
63.5173 17.428 3.98855
62.9186 20.2961 3.98607
62.1128 22.9155 3.98499
60.6841 11.0927 3.9934
57.6123 11.4359 3.98918
72.1454 51.8506 0
69.9759 56.25 0
68.8382 53.1224 0.00859321
64.0165 64.0165 0
63.8866 60.7729 0.00663518
66.6117 57.143 0.00733312
63.5048 57.7899 0.0115992
62.2255 65.694 2
58.8937 65.4186 2
69.7712 50.9976 2
67.785 55.1774 2
66.6584 52.2232 2
62.3367 62.4334 2
64.6669 56.0492 2
62.2055 59.4224 2
61.832 56.7059 2
60.6687 63.9819 3.99358
57.0242 66.7384 3.99364
57.5575 63.7014 3.98944
67.5172 50.1886 3.9868
65.7097 54.1892 3.9877
64.554 51.4057 3.98536
60.7743 60.9534 3.98941
62.8316 55.0918 3.9866
60.6645 58.183 3.98664
60.3404 55.8152 3.98571
56.25 69.9759 4
58.3339 68.6801 2
60.3285 67.2507 0
58.9209 9.65148 3.99344
62.2254 9.30607 4
73.0099 49.554 0
74.2788 44.8158 0
71.2521 46.604 0.00982595
72.1712 42.0887 0.0104267
74.9194 39.9526 0
75 37.5 2
72.4084 39.8035 2
71.7855 44.3577 2
69.8146 41.7937 2
70.5777 48.821 2
68.9227 46.023 2
72.4918 37.5114 3.98922
70.0513 39.659 3.98549
69.4409 43.9136 3.98615
67.6162 41.5037 3.98422
68.2761 48.1171 3.98655
66.7285 45.452 3.98475
74.9197 35.0474 0
74.2794 30.1841 0
72.1876 32.9394 0.0102566
71.2807 28.4254 0.0102633
65.694 12.7746 0
65.3245 16.0949 0.00696566
69.8175 24.0513 0.00918408
68.3561 26.9418 0.0137667
66.7709 22.9197 0.0128615
64.7198 19.1769 0.0120595
63.9007 22.0131 0.0142149
72.4162 35.2217 2
71.8065 30.6712 2
69.8499 33.2637 2
68.9755 29.0301 2
64.0165 10.9835 2
63.8907 14.32 2
63.5173 17.4277 2
67.6203 24.9002 2
66.2112 27.6204 2
62.9186 20.2959 2
64.7718 23.8102 2
62.1127 22.9155 2
60.6841 11.0924 2
57.6123 11.4356 2
70.0679 35.3892 3.98563
69.4767 31.1431 3.98566
67.6732 33.5845 3.98386
66.7891 29.6114 3.98395
65.5403 25.6824 3.98514
64.1704 28.2373 3.98385
62.342 12.6493 3.99336
62.879 24.6122 3.98494
62.201 15.7669 3.98896
61.8222 18.66 3.98658
61.2345 21.3122 3.98493
60.4516 23.6956 3.9848
59.2466 12.7652 3.98918
55.8739 10.224 3.98925
56.4062 13.0975 3.98648
69.7712 50.9973 0.00918316
62.2254 65.694 0
58.8937 65.4183 0.00640176
67.785 55.1771 0.00784291
66.6584 52.2231 0.0128554
62.3367 62.4331 0.00642827
62.2055 59.4221 0.0110488
64.6668 56.049 0.0118569
61.8319 56.7057 0.0134612
60.6687 63.9822 2
57.0242 66.7386 2
57.5575 63.7018 2
67.5172 50.1887 2
65.7097 54.1894 2
64.554 51.4058 2
60.7743 60.9537 2
62.8317 55.092 2
60.6646 58.1832 2
60.3405 55.8153 2
55.0697 67.9347 3.99368
59.2196 62.3789 3.98946
55.8035 64.9171 3.98946
56.3278 62.1032 3.98679
65.3494 49.4261 3.98508
63.7203 53.315 3.98605
62.4656 50.6779 3.98443
59.3368 59.5774 3.98695
61.093 54.3382 3.98582
59.2981 57.0407 3.98533
59.257 55.2153 3.98581
48.102 68.5815 3.98977
50.9478 69.9334 3.99375
54.0858 71.1327 4
56.25 69.976 2
58.3339 68.6801 0
57.058 8.33193 3.99351
60.3285 7.74928 4
58.921 9.65124 2
62.2255 9.30602 2
70.5777 48.8207 0.00955967
71.7855 44.3575 0.0100492
68.9227 46.0229 0.0136727
69.8145 41.7936 0.0141486
72.4084 39.8035 0.0107701
75 37.5 0
72.4918 37.5114 2
70.0513 39.6591 2
69.4409 43.9137 2
67.6161 41.5038 2
68.2762 48.1172 2
66.7285 45.4521 2
70.1393 37.5209 3.98547
67.8529 39.5152 3.98408
67.2425 43.4791 3.98444
65.5832 41.218 3.98369
66.0871 47.433 3.98497
64.6793 44.8642 3.98422
72.4162 35.2217 0.0105846
71.8065 30.6713 0.010282
69.8499 33.2637 0.0143617
68.9755 29.0302 0.0142646
64.0165 10.9835 0
63.8907 14.3202 0.00674522
63.5173 17.428 0.0114475
67.6203 24.9004 0.0132184
66.2112 27.6206 0.0154869
64.7718 23.8104 0.0144247
62.9186 20.2961 0.0139279
62.1128 22.9155 0.0150099
60.6841 11.0927 0.00660051
57.6123 11.4359 0.0108198
70.0679 35.3892 2
69.4767 31.1431 2
67.6732 33.5844 2
66.7891 29.6112 2
62.342 12.649 2
62.2011 15.7666 2
61.8222 18.6598 2
65.5403 25.6822 2
64.1704 28.2371 2
61.2345 21.3121 2
62.879 24.6121 2
60.4515 23.6956 2
59.2466 12.7649 2
56.4063 13.0972 2
55.8739 10.2237 2
67.8887 35.544 3.98412
67.2827 31.6134 3.98389
65.7232 33.9197 3.98326
64.6875 30.1775 3.983
63.5616 26.3923 3.98452
62.2887 28.756 3.98408
60.7761 14.2078 3.98914
61.0739 25.3085 3.9848
60.6177 17.1049 3.98688
60.2349 19.7871 3.98545
59.683 22.2251 3.98418
59.0091 24.2854 3.98517
54.0369 9.12841 3.9894
57.9119 14.3138 3.9867
54.7871 11.9991 3.98637
55.3143 14.6277 3.98532
67.5172 50.1886 0.0132011
57.0242 66.7384 0.00636263
60.6687 63.9819 0.00641865
57.5575 63.7014 0.0105623
65.7097 54.1892 0.0123047
64.554 51.4057 0.0146444
60.7743 60.9534 0.010594
60.6645 58.183 0.0133646
62.8316 55.0918 0.0134027
60.3404 55.8152 0.0142879
55.0697 67.935 2
59.2196 62.3792 2
55.8035 64.9175 2
56.3278 62.1035 2
65.3494 49.4262 2
63.7204 53.3151 2
62.4656 50.6779 2
59.3369 59.5776 2
61.0931 54.3383 2
59.2982 57.0409 2
59.2571 55.2153 2
53.0417 69.0021 3.99372
53.9655 66.0181 3.98951
57.8827 60.8869 3.98692
54.6836 63.2167 3.98678
55.2133 60.6315 3.98544
63.2202 48.6841 3.98442
61.762 52.6031 3.98511
60.305 50.0497 3.98387
58.0235 58.285 3.98565
59.346 53.9801 3.98522
58.1386 55.8449 3.9842
50.1083 67.86 3.98968
47.4623 66.5849 3.98701
46.0561 69.1606 3.98983
48.1021 68.5819 2
48.8022 70.7244 3.99378
50.9478 69.9337 2
51.8506 72.1454 4
54.0858 71.1327 2
56.25 69.9759 0
55.1023 7.13695 3.99356
58.3339 6.31992 4
57.058 8.33167 2
60.3286 7.74926 2
58.9209 9.65148 0.0065595
62.2254 9.30607 0
68.2761 48.1171 0.0134461
69.4409 43.9136 0.0138466
66.7285 45.452 0.0152545
67.6162 41.5037 0.0157754
70.0513 39.659 0.0145053
72.4918 37.5114 0.0107781
70.1393 37.521 2
67.8529 39.5153 2
67.2425 43.4792 2
65.5831 41.2181 2
66.0871 47.4331 2
64.6792 44.8643 2
67.949 37.5216 3.98394
65.8147 39.3743 3.98383
65.2032 43.0374 3.98373
63.7909 40.9392 3.98369
63.9924 46.7362 3.98443
62.8424 44.235 3.98437
70.0679 35.3892 0.0143688
69.4767 31.1431 0.0143372
67.6732 33.5845 0.0161442
66.7891 29.6114 0.016052
62.342 12.6493 0.00664449
62.201 15.7669 0.0110358
61.8222 18.66 0.0134196
65.5403 25.6824 0.0148569
64.1704 28.2373 0.0161533
62.879 24.6122 0.0150583
61.2345 21.3122 0.0150692
60.4516 23.6956 0.0151991
59.2466 12.7652 0.010817
56.4062 13.0975 0.0135161
55.8739 10.224 0.0107471
67.8887 35.5439 2
67.2827 31.6133 2
65.7232 33.9195 2
64.6875 30.1774 2
60.7761 14.2074 2
60.6177 17.1047 2
60.2349 19.787 2
63.5616 26.3922 2
62.2886 28.7559 2
59.6829 22.2251 2
61.0738 25.3084 2
59.0089 24.2854 2
57.9119 14.3136 2
55.3143 14.6276 2
54.0369 9.12805 2
54.7872 11.9988 2
65.9027 35.6627 3.98341
65.2114 32.1432 3.9829
64.3156 34.2418 3.98229
62.6276 30.6181 3.98306
61.6821 27.0464 3.98443
60.8875 29.1164 3.98497
59.3131 15.6486 3.98685
59.3659 25.7638 3.98559
59.1308 18.3289 3.986
58.7563 20.8214 3.98446
58.3113 23.0563 3.98367
58.002 24.6284 3.98613
52.1116 8.14767 3.98952
53.0579 11.0069 3.9865
56.6788 15.7215 3.98576
53.8106 13.6657 3.98488
54.3784 15.9784 3.98492
55.0697 67.9347 0.00632229
65.3494 49.4261 0.0149217
55.8035 64.9171 0.0105386
59.2196 62.3789 0.0105438
56.3278 62.1032 0.0132063
63.7203 53.315 0.0139521
62.4656 50.6779 0.0155716
59.3368 59.5774 0.0130471
59.2981 57.0407 0.0146748
61.093 54.3382 0.0141822
59.257 55.2153 0.0141948
53.0417 69.0023 2
53.9656 66.0185 2
57.8827 60.8872 2
54.6836 63.217 2
55.2133 60.6317 2
63.2201 48.6842 2
61.7621 52.6032 2
60.3049 50.0496 2
58.0236 58.2852 2
59.3461 53.9801 2
58.1387 55.8449 2
52.0691 67.0037 3.98959
52.9525 64.2253 3.98677
56.6515 59.5084 3.98577
53.6817 61.6334 3.98534
54.2626 59.3385 3.98473
61.0286 47.9083 3.98413
59.7357 52.1375 3.98475
58.0638 49.652 3.98466
56.7843 57.0155 3.98426
57.1395 54.158 3.98382
50.1083 67.8604 2
49.336 65.9256 3.98684
47.4624 66.5853 2
46.8916 64.7407 3.98534
45.5576 67.1021 3.98714
43.9734 69.593 3.98984
46.0561 69.161 2
46.609 71.3688 3.9938
48.102 68.5815 0.01023
48.8022 70.7247 2
49.554 73.0099 4
50.9478 69.9334 0.00624882
51.8506 72.1455 2
54.0858 71.1327 0
53.0634 6.0688 3.99363
55.1023 7.13668 2
56.25 5.02411 4
58.3339 6.3199 2
57.058 8.33193 0.00649337
60.3285 7.74928 0
66.0871 47.433 0.0150283
67.2425 43.4791 0.0155579
64.6793 44.8642 0.015777
65.5832 41.218 0.0163094
67.8529 39.5152 0.0159166
70.1393 37.5209 0.0145267
67.949 37.5216 2
65.8146 39.3744 2
65.2031 43.0375 2
63.7908 40.9393 2
63.9923 46.7363 2
62.8423 44.2351 2
65.9173 37.5017 3.98363
63.9356 39.2718 3.98388
63.3643 42.5642 3.98354
62.4733 40.7083 3.98295
62.0033 45.9426 3.98463
61.4938 43.7039 3.98512
67.8887 35.544 0.015876
67.2827 31.6134 0.0161092
65.7232 33.9197 0.0167396
64.6875 30.1775 0.0170045
60.7761 14.2078 0.010857
60.6177 17.1049 0.0131219
60.2349 19.7871 0.0145456
63.5616 26.3923 0.0154846
62.2887 28.756 0.0159152
61.0739 25.3085 0.0152021
59.683 22.2251 0.0158195
59.0091 24.2854 0.0148337
57.9119 14.3138 0.0133029
55.3143 14.6277 0.0146752
54.0369 9.12841 0.0105961
54.7871 11.9991 0.013627
65.9027 35.6627 2
65.2114 32.1431 2
64.3156 34.2417 2
62.6275 30.6179 2
59.3132 15.6484 2
59.1309 18.3287 2
58.7563 20.8214 2
61.682 27.0463 2
60.8874 29.1163 2
58.3112 23.0564 2
59.3657 25.7638 2
58.0018 24.6286 2
56.6789 15.7214 2
54.3785 15.9783 2
53.8107 13.6655 2
52.1116 8.1473 2
53.058 11.0065 2
64.1246 35.6279 3.98276
62.9655 33.0341 3.98218
60.6554 30.5909 3.98355
59.6122 27.8812 3.98506
57.943 16.9598 3.98602
57.7785 25.6901 3.98676
57.7246 19.4467 3.98525
57.3911 21.8055 3.98324
57.2173 23.9099 3.98382
50.1118 7.28016 3.98973
51.2322 10.1164 3.98671
52.1726 12.7849 3.98461
55.5402 16.9496 3.98527
52.9791 15.2466 3.98415
53.7606 16.9597 3.98469
53.0417 69.0021 0.00627732
53.9655 66.0181 0.0104862
63.2202 48.6841 0.0155793
54.6836 63.2167 0.0132152
57.8827 60.8869 0.013082
55.2133 60.6315 0.0145637
61.762 52.6031 0.0148948
60.305 50.0497 0.016134
58.0235 58.285 0.0143464
58.1386 55.8449 0.0157963
59.346 53.9801 0.0147817
52.0692 67.0041 2
52.9525 64.2256 2
56.6516 59.5086 2
53.6817 61.6337 2
54.2627 59.3388 2
61.0285 47.9082 2
59.7357 52.1375 2
58.0636 49.6518 2
56.7845 57.0156 2
57.1395 54.1579 2
51.1668 65.1331 3.98674
52.0459 62.5463 3.98509
55.4846 58.2714 3.98507
52.8358 60.1479 3.98466
53.6432 58.4894 3.98455
58.3536 46.8808 3.98582
57.5902 51.8226 3.98394
56.2897 49.5909 3.98573
55.4823 55.8243 3.98319
55.3794 53.4183 3.98214
50.1083 67.86 0.0103209
49.336 65.9259 2
48.6173 64.1273 3.98516
47.4623 66.5849 0.0129934
45.5576 67.1025 2
46.8916 64.741 2
46.3811 63.058 3.98414
45.1319 65.2022 3.98543
43.6309 67.473 3.98729
41.8609 69.8807 3.98982
43.9734 69.5934 2
44.3766 71.8636 3.99382
46.0561 69.1606 0.0101706
46.609 71.369 2
47.2057 73.7222 4
48.8022 70.7244 0.00622451
49.554 73.0099 2
51.8506 72.1454 0
50.9533 5.12941 3.99376
53.0635 6.06852 2
54.0858 3.86728 4
55.1023 7.13695 0.00644448
56.25 5.02406 2
58.3339 6.31992 0
63.9924 46.7362 0.0155669
65.2032 43.0374 0.0162662
62.8424 44.235 0.0156339
63.7909 40.9392 0.0163061
65.8147 39.3743 0.0161736
67.949 37.5216 0.0160564
65.9173 37.5017 2
63.9355 39.2719 2
63.3642 42.5643 2
62.4732 40.7084 2
62.0031 45.9426 2
61.4936 43.7039 2
63.9958 37.4573 3.98416
62.2035 39.3612 3.98357
61.2648 41.9746 3.98354
60.2957 44.7956 3.98603
65.9027 35.6627 0.0165881
65.2114 32.1432 0.0170987
64.3156 34.2418 0.0177093
62.6276 30.6181 0.0169417
59.3131 15.6486 0.0131507
59.1308 18.3289 0.0140033
58.7563 20.8214 0.0155448
61.6821 27.0464 0.0155739
60.8875 29.1164 0.0150293
59.3659 25.7638 0.0144061
58.3113 23.0563 0.0163291
58.002 24.6284 0.0138672
56.6788 15.7215 0.014236
54.3784 15.9784 0.0150806
53.8106 13.6657 0.0151222
52.1116 8.14767 0.0104782
53.0579 11.0069 0.0135013
64.1246 35.6278 2
62.9654 33.034 2
60.6553 30.5908 2
57.9431 16.9597 2
57.7247 19.4466 2
57.3911 21.8056 2
59.612 27.8811 2
57.2171 23.9101 2
57.7783 25.6902 2
50.1118 7.27977 2
55.5403 16.9495 2
53.7607 16.9597 2
52.9792 15.2465 2
52.1727 12.7847 2
51.2323 10.116 2
62.2332 35.3531 3.98276
60.3377 32.73 3.98182
58.6715 30.0492 3.98448
57.3394 27.3468 3.98628
56.6409 18.1306 3.98551
56.3312 25.0645 3.98521
56.3701 20.4907 3.9842
56.1345 22.833 3.982
48.0557 6.52369 3.98996
49.3242 9.32497 3.98683
50.4333 11.9844 3.98482
51.3788 14.4852 3.98333
54.4184 17.8983 3.98466
52.3631 17.0175 3.9837
52.0691 67.0037 0.0104148
52.9525 64.2253 0.0132318
61.0286 47.9083 0.0158743
53.6817 61.6334 0.0146606
56.6515 59.5084 0.0142267
54.2626 59.3385 0.0152691
59.7357 52.1375 0.0152516
58.0638 49.652 0.0153353
56.7843 57.0155 0.0157395
57.1395 54.158 0.0161783
51.1669 65.1335 2
52.0459 62.5466 2
55.4847 58.2717 2
52.8359 60.1482 2
53.6433 58.4897 2
58.3534 46.8806 2
57.5902 51.8224 2
56.2895 49.5905 2
55.4824 55.8243 2
55.3794 53.4181 2
50.3456 63.3862 3.98502
51.2445 60.9436 3.98382
54.2243 57.2867 3.9841
52.3148 58.6489 3.98402
56.784 44.2126 3.98704
55.5466 47.9309 3.98565
55.1032 51.4266 3.98225
54.0194 54.5771 3.98153
49.336 65.9256 0.0131632
48.6174 64.1276 2
47.9614 62.4793 3.98405
45.5576 67.1021 0.012855
46.8916 64.7407 0.0146638
43.631 67.4734 2
46.3812 63.0583 2
45.132 65.2025 2
45.9867 61.5904 3.98325
44.7664 63.4591 3.98422
43.3559 65.5119 3.98549
41.6633 67.6922 3.9873
39.7027 70.0281 3.98977
41.8608 69.8811 2
42.1111 72.2084 3.99384
43.9734 69.593 0.0101574
44.3766 71.8639 2
44.8159 74.2794 4
46.609 71.3688 0.00619969
47.2057 73.7222 2
49.554 73.0099 0
48.7839 4.32065 3.99389
50.9533 5.12913 2
51.8506 2.85458 4
53.0634 6.0688 0.00637178
54.0858 3.86728 2
56.25 5.02411 0
62.0033 45.9426 0.0153652
63.3643 42.5642 0.0164561
61.4938 43.7039 0.0148792
62.4733 40.7083 0.0170508
63.9356 39.2718 0.0161158
65.9173 37.5017 0.0163675
63.9957 37.4573 2
62.2034 39.3613 2
61.2646 41.9748 2
60.2955 44.7956 2
62.0434 37.4447 3.98473
60.3062 39.8568 3.98288
59.0529 42.9419 3.98564
64.1246 35.6279 0.0172424
62.9655 33.0341 0.0178247
60.6554 30.5909 0.0164483
57.943 16.9598 0.0139818
57.7246 19.4467 0.0147535
57.3911 21.8055 0.0167594
59.6122 27.8812 0.0149363
57.7785 25.6901 0.0132382
57.2173 23.9099 0.0161803
55.5402 16.9496 0.0147269
53.7606 16.9597 0.0153114
52.9791 15.2466 0.0158518
50.1118 7.28016 0.0102744
52.1726 12.7849 0.015391
51.2322 10.1164 0.0132937
62.2333 35.3531 2
60.3375 32.7299 2
58.6713 30.0491 2
56.641 18.1305 2
56.3701 20.4907 2
56.1343 22.8332 2
57.3392 27.3468 2
56.3309 25.0648 2
48.0557 6.52328 2
49.3242 9.32456 2
54.4184 17.8982 2
52.3632 17.0175 2
51.3789 14.485 2
50.4334 11.984 2
59.9515 35.1116 3.98309
58.0534 32.2486 3.9824
56.6042 29.3074 3.98562
55.4981 26.562 3.98751
55.3485 19.1643 3.98487
54.9636 24.0191 3.98175
55.0188 21.5308 3.98289
45.9618 5.87906 3.99016
43.3736 7.46862 3.98788
47.3547 8.61907 3.98727
48.5999 11.2869 3.9846
49.7146 13.7335 3.9837
50.6345 16.1193 3.98241
53.1287 18.6388 3.98413
51.3055 18.032 3.98364
51.1668 65.1331 0.0132588
52.0459 62.5463 0.0149103
58.3536 46.8808 0.0141777
52.8358 60.1479 0.0153362
55.4846 58.2714 0.0149325
53.6432 58.4894 0.0154471
57.5902 51.8226 0.0160598
56.2897 49.5909 0.0142709
55.4823 55.8243 0.0168077
55.3794 53.4183 0.0178558
50.3456 63.3865 2
51.2445 60.9439 2
54.2245 57.2869 2
52.3149 58.6492 2
56.7836 44.2126 2
55.5463 47.9305 2
55.1032 51.4262 2
54.0195 54.5771 2
49.5915 61.7498 3.98381
55.7273 41.7293 3.98377
50.5679 59.3373 3.98263
52.1905 56.5087 3.98276
54.2612 45.595 3.98686
53.3937 49.365 3.98293
52.6926 52.886 3.97989
48.6173 64.1273 0.0148379
47.9614 62.4795 2
47.3288 61.0135 3.98328
43.6309 67.473 0.0127068
45.1319 65.2022 0.0145744
46.3811 63.058 0.0158589
41.6633 67.6926 2
43.3559 65.5123 2
45.9867 61.5906 2
44.7664 63.4594 2
45.7656 60.6343 3.9825
44.4825 61.8398 3.9832
43.1456 63.7318 3.98421
41.5455 65.6499 3.98537
39.6326 67.7724 3.98727
37.5263 70.0535 3.98972
39.7027 70.0285 2
39.818 72.4056 3.99382
41.8609 69.8807 0.0101842
42.1111 72.2087 2
42.3947 74.6792 4
44.3766 71.8636 0.0061829
44.8159 74.2794 2
47.2057 73.7222 0
43.8513 5.35611 3.99041
46.57 3.64537 3.99403
48.7839 4.32037 2
49.554 1.99015 4
50.9533 5.12941 0.00623589
51.8506 2.85453 2
54.0858 3.86728 0
60.2957 44.7956 0.013971
61.2648 41.9746 0.0164641
62.2035 39.3612 0.0164319
63.9958 37.4573 0.0158361
62.0434 37.4448 2
60.3061 39.8569 2
59.0526 42.942 2
59.8294 37.5669 3.98558
58.0757 40.6752 3.98396
55.2165 39.7341 3.98673
62.2332 35.3531 0.0172432
60.3377 32.73 0.0181815
58.6715 30.0492 0.015523
56.6409 18.1306 0.0144879
56.3701 20.4907 0.0157987
56.1345 22.833 0.0180014
57.3394 27.3468 0.0137152
56.3312 25.0645 0.0147936
54.4184 17.8983 0.0153428
52.3631 17.0175 0.0162993
51.3788 14.4852 0.0166663
48.0557 6.52369 0.0100411
49.3242 9.32497 0.0131667
50.4333 11.9844 0.0151833
59.9515 35.1116 2
45.9618 5.87864 2
43.3736 7.46821 2
58.0532 32.2484 2
56.6039 29.3074 2
55.3486 19.1643 2
55.0188 21.5309 2
54.9633 24.0194 2
55.4978 26.5621 2
47.3548 8.61863 2
48.6 11.2865 2
53.1288 18.6388 2
51.3055 18.032 2
50.6346 16.1192 2
49.7147 13.7332 2
57.473 34.7494 3.98183
55.7996 31.4901 3.9841
54.5793 28.3669 3.98935
53.8175 25.4589 3.98356
53.9768 20.1118 3.98421
53.6046 22.6752 3.98103
41.3987 7.07394 3.98817
45.3595 7.99066 3.98764
42.8654 9.4101 3.98586
46.6663 10.6477 3.98519
47.7455 13.0955 3.98337
48.9319 15.3915 3.98211
50.0075 17.6877 3.9818
51.6575 19.3093 3.984
50.3456 63.3862 0.0149825
51.2445 60.9436 0.016176
56.784 44.2126 0.0129572
55.5466 47.9309 0.0143504
52.3148 58.6489 0.0159803
54.2243 57.2867 0.0158964
55.1032 51.4266 0.0177507
54.0194 54.5771 0.0184722
49.5915 61.7501 2
55.7269 41.7296 2
50.5679 59.3375 2
52.1907 56.5091 2
54.2606 45.5948 2
53.3934 49.3643 2
52.6927 52.8857 2
48.849 60.207 3.983
52.6424 42.6666 3.98773
49.7914 57.6372 3.98219
50.6087 54.4429 3.98075
51.8989 47.3018 3.98337
51.2563 50.9797 3.97794
48.3512 43.7367 3.97505
47.9614 62.4793 0.0159478
47.3288 61.0138 2
46.6183 59.7996 3.98269
41.6633 67.6922 0.0126985
43.3559 65.5119 0.0145074
44.7664 63.4591 0.0157802
45.9867 61.5904 0.0167529
39.6326 67.7728 2
41.5455 65.6503 2
45.7655 60.6345 2
43.1456 63.7321 2
44.4824 61.84 2
44.6227 60.2962 3.98216
42.9496 62.0884 3.98296
41.599 63.8251 3.98406
39.6472 65.6185 3.98519
37.5635 67.7551 3.98723
31.6981 65.1375 3.98528
33.3929 67.4928 3.98723
35.3337 69.9636 3.98972
37.5263 70.0538 2
37.5097 72.4602 3.99379
39.7027 70.0281 0.0102256
39.818 72.4059 2
39.9526 74.9197 4
42.1111 72.2084 0.00616335
42.3947 74.6792 2
44.8159 74.2794 0
41.736 4.96541 3.99053
43.8513 5.35572 2
44.3254 3.10869 3.99421
46.57 3.64508 2
47.2057 1.27793 4
48.7839 4.32065 0.00611347
49.554 1.99013 2
51.8506 2.85458 0
59.0529 42.9419 0.0143575
60.3062 39.8568 0.017119
62.0434 37.4447 0.0152737
59.8294 37.567 2
58.0754 40.6753 2
55.2164 39.7344 2
56.9221 37.9018 3.98501
49.8132 41.3014 3.98545
53.2675 39.319 3.99159
39.4421 6.79736 3.98824
59.9515 35.1116 0.0169131
58.0534 32.2486 0.0176043
56.6042 29.3074 0.0143764
55.3485 19.1643 0.0151331
55.0188 21.5308 0.0171123
54.9636 24.0191 0.0182515
55.4981 26.562 0.0124942
53.1287 18.6388 0.0158692
51.3055 18.032 0.0163582
50.6345 16.1193 0.0175936
45.9618 5.87906 0.00984344
49.7146 13.7335 0.0163002
47.3547 8.61907 0.0127283
48.5999 11.2869 0.0154024
43.3736 7.46862 0.0121154
57.473 34.7494 2
41.3987 7.07355 2
45.3596 7.99021 2
42.8654 9.40967 2
55.7993 31.4899 2
54.579 28.3669 2
53.9769 20.1118 2
53.6045 22.6754 2
53.8171 25.4593 2
46.6663 10.6472 2
47.7456 13.095 2
51.6576 19.3094 2
50.0076 17.6877 2
48.932 15.3912 2
54.9832 33.9516 3.98125
53.5821 30.4496 3.98925
52.6549 27.1605 3.98683
52.1791 24.0484 3.98162
52.4038 21.0486 3.983
41.0134 9.04303 3.9864
44.7236 9.99033 3.9857
42.4681 10.8966 3.98483
46.0051 12.7232 3.983
47.6817 14.5771 3.98294
48.1137 16.98 3.97989
49.8204 19.5823 3.98228
49.5915 61.7498 0.0161868
50.5679 59.3373 0.0173665
55.7273 41.7293 0.0162259
54.2612 45.595 0.013139
53.3937 49.365 0.017073
52.1905 56.5087 0.0172419
52.6926 52.886 0.0201119
48.8489 60.2073 2
52.6417 42.667 2
49.7914 57.6375 2
50.609 54.4433 2
51.8982 47.301 2
51.2564 50.9791 2
48.3496 43.7358 2
47.9871 58.7486 3.98239
50.2291 45.2929 3.9824
48.604 55.9267 3.98177
49.1553 52.6185 3.9796
49.7367 49.0773 3.97871
46.2005 39.9133 3.92966
46.6077 42.7855 4.0012
46.6453 45.7322 3.97408
44.0593 41.2569 3.98772
42.0909 41.9932 3.99829
47.3288 61.0135 0.0167249
46.6182 59.7998 2
45.468 58.795 3.98164
39.6326 67.7724 0.0127341
41.5455 65.6499 0.0146283
43.1456 63.7318 0.0157926
44.4825 61.8398 0.0167955
45.7656 60.6343 0.017496
41.599 63.8255 2
37.5635 67.7555 2
39.6472 65.6188 2
44.6226 60.2964 2
42.9496 62.0887 2
41.7526 62.4993 3.98307
42.4801 59.9872 3.98197
39.8927 63.56 3.98366
37.6422 65.5178 3.98516
35.4639 67.6646 3.98723
33.5761 65.3511 3.98527
31.9604 63.3092 3.98381
29.8843 64.7282 3.98516
31.6981 65.1379 2
31.3777 67.2024 3.98714
33.3928 67.4932 2
33.1566 69.7569 3.98974
35.3337 69.964 2
35.1952 72.3747 3.99376
37.5263 70.0535 0.0102763
37.5097 72.4605 2
37.5 75 4
39.818 72.4056 0.00618245
39.9526 74.9197 2
42.3947 74.6792 0
39.6237 4.71255 3.99067
41.736 4.96505 2
42.0619 2.71641 3.9943
43.8513 5.35611 0.00959354
44.3254 3.10842 2
44.8158 0.721173 4
46.57 3.64537 0.0059728
47.2057 1.27779 2
49.554 1.99015 0
58.0757 40.6752 0.0160394
59.8294 37.5669 0.0144233
55.2165 39.7341 0.01327
49.8128 41.3013 2
56.922 37.9018 2
53.2676 39.3194 2
54.119 36.6241 3.98459
47.7367 40.4667 4.0071
50.7665 38.4849 3.99037
37.5159 6.66849 3.98848
39.4421 6.79696 2
39.211 8.68553 3.9865
35.9413 8.48498 3.98695
57.473 34.7494 0.018169
55.7996 31.4901 0.0158957
54.5793 28.3669 0.0106533
53.9768 20.1118 0.0157908
53.6046 22.6752 0.0189681
53.8175 25.4589 0.016436
51.6575 19.3093 0.0159973
50.0075 17.6877 0.0181969
48.9319 15.3915 0.017895
45.3595 7.99066 0.0123589
47.7455 13.0955 0.0166257
46.6663 10.6477 0.014812
41.3987 7.07394 0.0118345
42.8654 9.4101 0.01414
54.9832 33.9518 2
41.0134 9.04261 2
44.7236 9.98988 2
42.4682 10.8962 2
53.5816 30.4492 2
52.6544 27.161 2
52.4039 21.0487 2
52.1789 24.0489 2
46.0052 12.7228 2
47.6818 14.5768 2
49.8205 19.5824 2
48.1138 16.9798 2
52.5335 32.8413 3.98331
51.4341 29.1175 3.99161
50.8461 25.685 3.97904
49.9536 22.1541 3.98247
40.5691 11.5998 3.98417
43.8579 11.912 3.98368
45.8022 15.414 3.98158
47.5057 19.2158 3.97799
46.5239 37.5088 3.93381
48.849 60.207 0.0169974
49.7914 57.6372 0.0178133
52.6424 42.6666 0.0122727
51.8989 47.3018 0.0166274
51.2563 50.9797 0.0220632
50.6087 54.4429 0.0192475
48.3512 43.7367 0.024952
47.9871 58.7488 2
50.2278 45.2924 2
48.6041 55.927 2
49.1556 52.6192 2
49.7365 49.0764 2
46.1966 39.916 2
46.6101 42.7894 2
46.6438 45.7283 2
44.06 41.2541 2
42.0938 41.9954 2
46.8399 57.3501 3.98283
44.8144 39.5119 3.97941
42.4573 40.8693 3.99426
48.1902 47.2724 3.98202
47.1803 54.2583 3.9822
47.6307 50.7822 3.97673
44.9109 47.3496 3.97296
45.2784 42.0325 3.92997
45.0874 44.6721 3.99997
42.8552 42.7465 3.9864
40.9368 42.3435 3.99845
46.6183 59.7996 0.017308
45.4679 58.7951 2
43.8761 57.7176 3.9814
37.5635 67.7551 0.0127691
39.6472 65.6185 0.0148135
41.599 63.8251 0.0159373
42.9496 62.0884 0.0170426
44.6227 60.2962 0.0178404
35.4639 67.665 2
41.7526 62.4996 2
39.8927 63.5604 2
37.6422 65.5182 2
42.48 59.9873 2
40.6222 61.6569 3.9829
40.4439 58.216 3.98135
37.8364 63.2214 3.98339
35.5733 65.4402 3.98521
33.5761 65.3515 2
31.9604 63.3095 2
33.6297 63.349 3.98378
30.3794 62.8675 3.98376
32.1236 62.0145 3.9831
26.8686 61.5108 3.9831
28.0632 64.156 3.985
29.8843 64.7286 2
29.4074 66.7659 3.987
31.6981 65.1375 0.0147248
31.3777 67.2028 2
31.0141 69.4219 3.98975
33.3929 67.4928 0.0127717
33.1566 69.7573 2
32.8923 72.1489 3.99376
35.3337 69.9636 0.0102761
35.1952 72.375 2
35.0474 74.9194 4
37.5097 72.4602 0.0062144
37.5 75 2
39.9526 74.9197 0
35.6204 6.71935 3.98843
37.5229 4.61218 3.99068
39.6237 4.71219 2
39.7884 2.47289 3.99442
41.736 4.96541 0.00947471
42.0619 2.71614 2
42.3946 0.32156 4
44.3254 3.10869 0.00578603
44.8159 0.72056 2
47.2057 1.27793 0
49.8132 41.3014 0.014551
56.9221 37.9018 0.0149946
53.2675 39.319 0.00841418
47.7364 40.4643 2
50.7666 38.4851 2
54.1188 36.6244 2
51.545 35.5655 3.97574
48.4045 37.7675 4.00864
46.179 35.1083 3.93533
44.0493 33.7611 3.98385
42.0861 33.0238 3.99417
37.4576 8.52687 3.98691
37.5159 6.66809 2
39.4421 6.79736 0.0117606
39.2109 8.68512 2
38.976 10.1178 3.98586
35.8978 9.76422 3.986
34.1496 8.81423 3.98674
35.9413 8.48459 2
54.9832 33.9516 0.0187545
53.5821 30.4496 0.010753
52.6549 27.1605 0.0131666
52.4038 21.0486 0.0169998
52.1791 24.0484 0.0183754
49.8204 19.5823 0.017725
48.1137 16.98 0.0201113
47.6817 14.5771 0.0170584
44.7236 9.99033 0.0143034
46.0051 12.7232 0.0169973
41.0134 9.04303 0.0135955
42.4681 10.8966 0.0151693
52.5334 32.8409 2
40.5691 11.5993 2
43.8579 11.9116 2
51.4334 29.1178 2
50.8457 25.6856 2
49.9537 22.1543 2
45.8023 15.4136 2
47.5057 19.2156 2
50.1481 31.3698 3.98628
49.37 27.4392 3.98055
49.443 24.3658 3.9804
47.1941 21.9017 3.9775
38.3014 12.7244 3.98306
42.1004 14.297 3.98206
44.8007 18.4527 3.97918
45.0849 37.5127 3.9792
46.5222 37.5104 2
47.9871 58.7486 0.0176101
48.604 55.9267 0.0182281
50.2291 45.2929 0.0176033
49.7367 49.0773 0.0212916
49.1553 52.6185 0.0204023
46.2005 39.9133 0.0703364
46.6077 42.7855 -0.00120419
46.6453 45.7322 0.0259218
44.0593 41.2569 0.0122788
42.0909 41.9932 0.00171206
46.8399 57.3502 2
44.8129 39.5085 2
42.4571 40.8703 2
48.1892 47.2713 2
47.1804 54.2585 2
47.6308 50.7818 2
44.9111 47.3411 2
45.277 42.0352 2
45.0942 44.6767 2
42.8611 42.7413 2
40.939 42.3442 2
45.401 55.9346 3.98083
42.7875 39.2673 3.98552
40.8917 40.8132 3.95917
46.1622 48.9535 3.98102
45.5693 52.5539 3.98405
43.5386 48.4817 3.95179
43.4728 46.2201 4.01577
43.8197 43.8333 3.92977
41.3173 43.8953 3.98578
39.3055 42.6603 3.9722
45.468 58.795 0.0183626
43.8761 57.7177 2
42.107 56.3409 3.98155
35.4639 67.6646 0.0127654
37.6422 65.5178 0.0148423
39.8927 63.56 0.0163385
41.7526 62.4993 0.016928
42.4801 59.9872 0.0180294
35.5733 65.4406 2
40.6222 61.6571 2
37.8364 63.2218 2
40.4439 58.216 2
38.9252 56.5072 3.98062
38.2497 60.3388 3.98203
35.6071 63.2153 3.98361
33.5761 65.3511 0.0147276
31.9604 63.3092 0.0161869
33.6297 63.3493 2
30.3794 62.8678 2
32.1236 62.0148 2
28.6817 62.2126 3.98356
33.3461 61.5266 3.98228
31.0666 61.231 3.9825
27.5669 59.6073 3.98293
23.7881 59.1034 3.98524
25.0331 60.8861 3.98414
26.8686 61.5111 2
26.2296 63.4884 3.9847
28.0631 64.1564 2
27.4641 66.1896 3.98687
29.8843 64.7282 0.0148353
29.4074 66.7662 2
28.9066 68.9473 3.9897
31.3777 67.2024 0.0128552
31.0141 69.4222 2
30.6148 71.78 3.99374
33.1566 69.7569 0.0102554
32.8923 72.1492 2
32.6054 74.6784 4
35.1952 72.3747 0.00623657
35.0474 74.9197 2
37.5 75 0
33.723 6.97373 3.98827
35.4344 4.68244 3.99069
35.6204 6.71897 2
37.5141 2.38559 3.99441
37.5229 4.61182 2
39.6237 4.71255 0.0093332
39.7884 2.47262 2
39.9526 0.0806499 4
42.0619 2.71641 0.00570484
42.3947 0.320817 2
44.8158 0.721173 0
44.8019 35.5143 3.97948
42.4466 34.1519 3.99556
47.7367 40.4667 -0.00709741
50.7665 38.4849 0.00963053
54.119 36.6241 0.0154089
48.4052 37.7668 2
51.5447 35.5651 2
46.1759 35.1083 2
44.0508 33.7637 2
42.0868 33.0242 2
48.5674 34.238 4.00229
45.2704 32.9858 3.92952
42.8575 32.2663 3.98596
40.9338 32.6744 3.99384
37.3099 10.6204 3.98515
37.4576 8.52646 2
37.5159 6.66849 0.0115203
39.211 8.68553 0.0134969
38.976 10.1174 2
34.7529 10.3698 3.98521
35.8978 9.76382 2
32.3763 9.36071 3.98619
34.1496 8.81382 2
35.9413 8.48498 0.0130536
52.5335 32.8413 0.0166918
51.4341 29.1175 0.00838781
50.8461 25.685 0.0209557
49.9536 22.1541 0.0175315
47.5057 19.2158 0.0220067
45.8022 15.414 0.0184163
43.8579 11.912 0.0163229
40.5691 11.5998 0.0158271
50.1476 31.3712 2
38.3014 12.7241 2
42.1004 14.2967 2
49.3694 27.4401 2
49.4428 24.3662 2
47.1941 21.9017 2
44.8007 18.4523 2
47.9282 29.5639 3.97452
47.146 25.0858 3.97963
44.2931 21.3078 3.9769
36.581 12.9207 3.98326
38.6799 14.7956 3.98227
41.7493 17.8281 3.9807
42.9117 37.5037 3.98657
45.0855 37.5127 2
46.5239 37.5088 0.0661932
46.8399 57.3501 0.0171682
47.1803 54.2583 0.0177983
48.1902 47.2724 0.0179801
47.6307 50.7822 0.0232702
44.8144 39.5119 0.0205894
45.2784 42.0325 0.0700324
45.0874 44.6721 3.09403e-05
44.9109 47.3496 0.0270372
42.8552 42.7465 0.013605
42.4573 40.8693 0.00573572
40.9368 42.3435 0.00155083
45.4011 55.9346 2
42.7861 39.2676 2
40.8912 40.8154 2
46.1622 48.9513 2
45.5696 52.5535 2
43.5388 48.4793 2
43.4829 46.2274 2
43.8206 43.8361 2
41.3185 43.8884 2
39.3059 42.6642 2
43.7422 54.4426 3.98293
40.9715 39.1885 3.95169
39.2332 40.8858 3.95226
43.7543 50.5346 3.99245
42.0458 47.7438 4.02485
41.9742 45.219 3.91867
39.5253 44.6635 3.98876
37.5028 42.7868 3.95413
43.8761 57.7176 0.0185984
42.107 56.3408 2
40.4211 54.9445 3.9799
35.5733 65.4402 0.0147907
37.8364 63.2214 0.0166051
40.6222 61.6569 0.0171027
40.4439 58.216 0.0186519
35.6071 63.2157 2
38.2498 60.339 2
38.9251 56.507 2
38 55.2599 3.98071
36.9338 57.6376 3.98036
35.3635 60.9248 3.98227
33.6297 63.349 0.016222
30.3794 62.8675 0.016236
32.1236 62.0145 0.0169016
33.3461 61.5269 2
28.6817 62.2129 2
31.0666 61.2313 2
29.4023 60.3002 3.98209
32.3557 59.7564 3.98231
28.0188 58.386 3.98419
27.5668 59.6075 2
25.3754 58.6123 3.98363
22.75 58.2653 3.98364
23.3979 60.3688 3.98493
23.788 59.1036 2
25.0331 60.8864 2
24.4316 62.7821 3.98521
26.8686 61.5108 0.016902
26.2295 63.4887 2
25.5482 65.4998 3.98668
28.0632 64.156 0.0150041
27.464 66.19 2
26.8366 68.3358 3.98964
29.4074 66.7659 0.0129974
28.9066 68.9477 2
28.3701 71.2652 3.99372
31.0141 69.4219 0.0102509
30.6148 71.7803 2
30.1842 74.2788 4
32.8923 72.1489 0.00624183
32.6053 74.6792 2
35.0474 74.9194 0
31.7874 7.41317 3.988
33.3464 4.92141 3.99061
33.723 6.97333 2
35.2444 2.46169 3.9944
35.4344 4.68208 2
35.6204 6.71935 0.0115729
37.5 0 4
37.5141 2.38532 2
37.5229 4.61218 0.00931766
39.7884 2.47289 0.00557786
39.9526 0.0802889 2
42.3946 0.32156 0
42.777 35.7447 3.98873
44.8008 35.5161 2
40.8824 34.2077 3.95872
42.447 34.1509 2
48.4045 37.7675 -0.00863582
51.545 35.5655 0.0242629
46.179 35.1083 0.0646708
44.0493 33.7611 0.0161489
42.0861 33.0238 0.00583074
48.5667 34.2378 2
45.2672 32.984 2
42.8587 32.2706 2
40.9338 32.6712 2
46.5306 31.4743 4.00285
43.8296 31.1828 3.92789
41.3216 31.1184 3.98354
39.2998 32.3764 3.97097
35.6914 11.765 3.98391
37.3099 10.6201 2
37.4576 8.52687 0.013089
38.976 10.1178 0.0141381
33.0968 11.2063 3.98455
34.7529 10.3694 2
35.8978 9.76422 0.0140041
30.481 10.0085 3.98573
32.3762 9.3603 2
34.1496 8.81423 0.0132584
50.1481 31.3698 0.0137203
49.37 27.4392 0.0194498
49.443 24.3658 0.0195984
47.1941 21.9017 0.0225031
44.8007 18.4527 0.0208245
42.1004 14.297 0.0179403
38.3014 12.7244 0.0169383
36.581 12.9203 2
47.9272 29.5653 2
38.68 14.7954 2
41.7493 17.8279 2
47.1457 25.0856 2
44.293 21.3079 2
45.6662 27.7718 3.97532
43.8261 24.0189 3.97975
41.3438 20.7073 3.97935
35.7703 14.7462 3.98224
38.6804 17.5832 3.98103
41.0122 37.496 3.94733
42.912 37.5034 2
45.0849 37.5127 0.0208011
45.401 55.9346 0.0191699
45.5693 52.5539 0.0159459
46.1622 48.9535 0.0189776
42.7875 39.2673 0.0144774
43.8197 43.8333 0.0702306
43.4728 46.2201 -0.0157736
43.5386 48.4817 0.0482085
41.3173 43.8953 0.0142162
40.8917 40.8132 0.0408308
39.3055 42.6603 0.027801
43.7423 54.4426 2
40.9701 39.1894 2
39.2327 40.8895 2
43.7541 50.5362 2
42.0457 47.7435 2
41.9774 45.2202 2
37.5031 42.7922 2
39.5263 44.6673 2
41.8902 53.0093 3.98076
39.2295 39.1827 3.94588
37.5061 40.9296 3.95195
35.7008 42.6776 3.9765
40.999 49.7583 4.00453
39.8565 46.0958 3.9467
37.4956 44.9621 3.96483
42.107 56.3409 0.0184493
40.4209 54.9445 2
38.7308 53.8747 3.98265
35.6071 63.2153 0.0163909
38.2497 60.3388 0.0179705
38.9252 56.5072 0.0193826
35.3635 60.925 2
36.9338 57.6376 2
38.0001 55.2594 2
36.3193 55.3917 3.98005
34.4866 58.5326 3.98101
33.3461 61.5266 0.0177161
28.6817 62.2126 0.0164355
31.0666 61.231 0.0175035
32.3557 59.7566 2
29.4023 60.3004 2
30.2947 57.8276 3.98185
28.0187 58.3863 2
26.9364 56.84 3.98237
27.5669 59.6073 0.0170695
25.3753 58.6125 2
23.8281 56.8317 3.98252
21.3242 57.4288 3.98473
21.9892 59.6445 3.98546
22.7498 58.2655 2
22.7346 62.0355 3.98549
23.3979 60.369 2
23.7881 59.1034 0.0147577
25.0331 60.8861 0.0158584
24.4316 62.7824 2
23.6819 64.7189 3.98677
26.2296 63.4884 0.015297
25.5481 65.5002 2
24.8091 67.5973 3.98958
27.4641 66.1896 0.0131322
26.8365 68.3362 2
26.1654 70.6061 3.9937
28.9066 68.9473 0.0103
28.37 71.2655 2
27.7943 73.7221 4
30.6148 71.78 0.00625556
30.1841 74.2794 2
32.6054 74.6784 0
29.81 7.98611 3.98764
31.2517 5.32824 3.99044
31.7874 7.41276 2
32.9803 2.69971 3.99435
33.3464 4.92103 2
33.723 6.97373 0.0117256
35.0474 0.080333 4
35.2444 2.46143 2
35.4344 4.68244 0.00930717
37.5 0 2
37.5141 2.38559 0.00558896
39.9526 0.0806499 0
40.9648 35.8139 3.95154
42.7761 35.7442 2
44.8019 35.5143 0.0205204
28.5421 10.684 3.98514
39.2248 34.1548 3.95689
40.8818 34.2051 2
42.4466 34.1519 0.00444335
48.5674 34.238 -0.00228566
45.2704 32.9858 0.0704779
42.8575 32.2663 0.0140403
40.9338 32.6744 0.00615862
46.5325 31.4746 2
43.8261 31.1821 2
41.3259 31.1192 2
39.3001 32.3705 2
44.5547 29.6508 4.00171
41.9807 29.802 3.92743
39.5277 30.3638 3.98064
37.4961 32.2605 3.94863
34.091 12.9227 3.98322
35.6913 11.7646 2
37.3099 10.6204 0.0148479
31.1849 11.9745 3.98407
33.0967 11.2059 2
34.7529 10.3698 0.0147858
30.481 10.0081 2
32.3763 9.36071 0.0138146
47.9282 29.5639 0.0254817
47.146 25.0858 0.020366
36.581 12.9207 0.0167355
44.2931 21.3078 0.0230951
41.7493 17.8281 0.0193048
38.6799 14.7956 0.0177307
35.7704 14.7458 2
45.6653 27.7724 2
38.6805 17.5833 2
41.3438 20.7074 2
43.8259 24.0213 2
33.6061 15.8639 3.98173
43.1358 26.4559 3.98131
40.9288 23.2821 3.98143
38.4224 20.3149 3.97857
35.8467 17.4973 3.98096
39.2347 37.5026 3.94344
41.0119 37.4956 2
42.9117 37.5037 0.0134311
43.7422 54.4426 0.0170698
43.7543 50.5346 0.00754866
40.9715 39.1885 0.0483148
41.9742 45.219 0.081335
42.0458 47.7438 -0.024848
39.5253 44.6635 0.0112374
39.2332 40.8858 0.047738
37.5028 42.7868 0.0458656
41.8901 53.0095 2
39.2288 39.1845 2
37.5059 40.9333 2
40.9989 49.7561 2
35.7012 42.6826 2
39.8567 46.098 2
37.4953 44.968 2
39.8277 51.9243 3.97997
37.5048 39.1984 3.94684
35.7819 40.9084 3.95108
34.0673 42.3695 3.99488
35.4622 44.6692 3.98523
38.7698 48.8729 4.03405
37.4927 46.4029 3.94224
40.4211 54.9445 0.0201049
38.731 53.8737 2
36.7183 53.2149 3.9829
35.3635 60.9248 0.0177344
36.9338 57.6376 0.0196413
38 55.2599 0.019295
34.4867 58.5327 2
36.3194 55.3915 2
33.2227 55.5092 3.97929
32.3557 59.7564 0.0176893
29.4023 60.3002 0.0179108
30.2947 57.8277 2
28.6737 55.3206 3.9794
28.0188 58.386 0.0158066
26.9363 56.8402 2
25.2914 55.1698 3.9813
21.7897 55.3808 3.98291
25.3754 58.6123 0.0163737
23.8279 56.8318 2
20.207 57.0612 3.9854
20.6388 58.8058 3.98564
21.3241 57.4289 2
21.1637 61.1884 3.9862
21.9891 59.6447 2
22.75 58.2653 0.0163634
21.8948 63.8482 3.98697
22.7346 62.0357 2
23.3979 60.3688 0.0150705
24.4316 62.7821 0.0147907
23.6818 64.7192 2
22.8375 66.7415 3.98956
25.5482 65.4998 0.0133153
24.8091 67.5976 2
24.0099 69.8074 3.9937
26.8366 68.3358 0.0103611
26.1654 70.6064 2
25.446 73.0099 4
28.3701 71.2652 0.00628422
27.7943 73.7222 2
30.1842 74.2788 0
27.82 8.64555 3.98723
29.1537 5.87369 3.99019
29.8099 7.9857 2
30.7256 3.09671 3.99423
31.2517 5.32785 2
31.7874 7.41317 0.0119996
32.6053 0.320823 4
32.9803 2.69944 2
33.3464 4.92141 0.00938941
35.0474 0.0802903 2
35.2444 2.46169 0.00559563
37.5 0 0
39.2254 35.8342 3.94821
40.9637 35.8122 2
42.777 35.7447 0.0112698
28.542 10.6837 2
26.6212 11.379 3.98516
29.2239 12.6318 3.98395
37.4984 34.1245 3.95563
39.2243 34.1505 2
40.8824 34.2077 0.0412809
46.5306 31.4743 -0.00285176
43.8296 31.1828 0.0721101
41.3216 31.1184 0.016459
39.2998 32.3764 0.0290277
44.5622 29.6482 2
41.9807 29.8004 2
39.5302 30.358 2
37.4968 32.2533 2
42.4265 28.3486 4.01666
39.8596 28.9226 3.93995
37.4927 30.0736 3.95457
35.6953 32.374 3.9707
31.9128 14.469 3.98273
34.091 12.9223 2
35.6914 11.765 0.0160876
31.1848 11.9742 2
33.0968 11.2063 0.0154541
30.481 10.0085 0.0142724
45.6662 27.7718 0.0246778
43.8261 24.0189 0.0202504
35.7703 14.7462 0.0177607
41.3438 20.7073 0.0206466
38.6804 17.5832 0.0189684
33.6062 15.8636 2
35.8468 17.497 2
43.1353 26.4569 2
38.4225 20.3154 2
40.9289 23.2829 2
33.5481 17.3746 3.98082
40.4939 25.6081 3.97648
38.0842 22.8524 3.98015
35.5827 20.0675 3.98012
37.5019 37.5177 3.94609
39.2346 37.5023 2
41.0122 37.496 0.0526727
41.8902 53.0093 0.0192356
40.999 49.7583 -0.00452859
39.2295 39.1827 0.0541217
39.8565 46.0958 0.0533009
37.4956 44.9621 0.0351678
37.5061 40.9296 0.0480469
35.7008 42.6776 0.0234968
39.8283 51.9226 2
37.5049 39.2001 2
35.782 40.9123 2
38.7681 48.8743 2
34.0667 42.3704 2
35.4603 44.6744 2
37.4896 46.4075 2
37.6602 51.0499 3.97549
35.7848 39.2094 3.94396
34.1296 40.8429 3.95662
32.9137 42.0168 3.99725
33.6726 43.9194 3.9883
35.1457 46.1119 3.93564
36.8839 48.4993 4.03539
38.7308 53.8747 0.0173496
36.7184 53.2147 2
34.3473 52.4867 3.98103
34.4866 58.5326 0.0189874
36.3193 55.3917 0.0199516
33.2227 55.5092 2
30.4969 53.4223 3.97891
30.2947 57.8276 0.0181528
28.6735 55.3208 2
26.8522 53.4708 3.97929
26.9364 56.84 0.0176277
25.2912 55.1699 2
23.5406 53.5194 3.98062
20.4345 53.2686 3.9823
19.9157 55.867 3.98474
21.7895 55.3808 2
23.8281 56.8317 0.0174753
19.4293 57.9213 3.9855
20.2069 57.0613 2
19.7022 60.2251 3.98614
20.6386 58.806 2
21.3242 57.4288 0.0152723
20.2064 62.8717 3.98735
21.1637 61.1886 2
21.9892 59.6445 0.0145402
20.9389 65.7716 3.98965
21.8947 63.8485 2
22.7346 62.0355 0.0145075
23.6819 64.7189 0.0132341
22.8375 66.7419 2
21.9126 68.8749 3.99369
24.8091 67.5973 0.0104224
24.0098 69.8077 2
23.1494 72.1454 4
26.1654 70.6061 0.00630388
25.446 73.0099 2
27.7943 73.7221 0
25.8594 9.3735 3.98697
27.0687 6.53745 3.98992
27.82 8.64515 2
28.4879 3.64247 3.99407
29.1537 5.87329 2
29.81 7.98611 0.0123638
30.1841 0.720592 4
30.7256 3.09644 2
31.2517 5.32824 0.00956242
32.6053 0.320817 2
32.9803 2.69971 0.00565349
35.0474 0.080333 0
37.4991 35.8426 3.9479
39.2249 35.8319 2
40.9648 35.8139 0.0484563
24.776 12.0615 3.9853
23.7497 14.3451 3.98478
28.5421 10.684 0.014855
26.6211 11.3787 2
29.2239 12.6315 2
27.2901 13.3643 3.98399
29.7788 14.1911 3.98369
35.7766 34.1498 3.9548
37.4985 34.1197 2
39.2248 34.1548 0.0431103
37.4961 32.2605 0.0513655
44.5547 29.6508 -0.00171416
41.9807 29.802 0.0725673
39.5277 30.3638 0.0193637
42.4294 28.342 2
39.8587 28.9172 2
37.4939 30.0649 2
35.6961 32.3689 2
40.0824 27.5119 4.02475
37.4922 28.6257 3.93777
35.4585 30.3628 3.97989
34.0677 32.6778 3.99308
30.9243 16.8268 3.98282
31.9128 14.4687 2
34.091 12.9227 0.0167786
31.1849 11.9745 0.0159345
43.1358 26.4559 0.0186891
40.9288 23.2821 0.0185712
33.6061 15.8639 0.0182696
35.8467 17.4973 0.0190392
38.4224 20.3149 0.0214301
33.5482 17.3743 2
35.5829 20.0674 2
40.4933 25.6077 2
38.0845 22.8536 2
32.8598 19.7857 3.97826
37.7861 25.1691 3.97812
35.2049 22.6292 3.97932
35.7721 37.5259 3.941
37.5023 37.5172 2
39.2347 37.5026 0.0565558
39.8277 51.9243 0.020031
38.7698 48.8729 -0.0340479
37.5048 39.1984 0.0531554
37.4927 46.4029 0.057763
35.4622 44.6692 0.0147671
35.7819 40.9084 0.0489209
34.0673 42.3695 0.00511651
37.6603 51.0519 2
35.7858 39.2115 2
34.1298 40.8445 2
36.8827 48.5014 2
32.9121 42.0177 2
33.6712 43.9153 2
35.1448 46.116 2
35.4053 50.2291 3.98068
34.0514 39.2213 3.94992
32.5547 40.891 3.99417
32.1405 42.7711 3.98672
33.0258 45.2391 3.92301
34.2479 47.5328 4.02772
36.7183 53.2149 0.017103
34.3473 52.4867 2
31.9592 51.2544 3.98006
33.2227 55.5092 0.0207086
30.4968 53.4225 2
28.3835 51.6673 3.97869
28.6737 55.3206 0.0206045
26.8519 53.471 2
25.0318 51.8156 3.97843
25.2914 55.1698 0.0187047
23.5404 53.5193 2
21.9182 51.8583 3.98172
19.1585 51.6817 3.9827
18.8969 54.347 3.98353
20.4345 53.2684 2
18.4347 56.7555 3.98564
19.9156 55.867 2
21.7897 55.3808 0.0170923
18.3627 59.1357 3.98592
19.4292 57.9214 2
20.207 57.0612 0.0145964
18.6163 61.7816 3.98729
19.7021 60.2253 2
20.6388 58.8058 0.0143562
19.1274 64.6838 3.98982
20.2063 62.8719 2
21.1637 61.1884 0.0138016
19.8867 67.812 3.99373
20.9389 65.7719 2
21.8948 63.8482 0.013028
22.8375 66.7415 0.0104448
21.9125 68.8751 2
20.9142 71.1327 4
24.0099 69.8074 0.00630203
23.1494 72.1455 2
25.446 73.0099 0
23.0953 12.7756 3.98536
23.9722 10.1597 3.98684
25.0228 7.30734 3.98967
25.8594 9.37316 2
26.2797 4.32653 3.99388
27.0687 6.53705 2
27.82 8.64555 0.0127728
27.7943 1.27781 4
28.4879 3.6422 2
29.1537 5.87369 0.00981128
30.1841 0.720551 2
30.7256 3.09671 0.00577032
32.6053 0.320823 0
35.7744 35.8443 3.94434
37.4994 35.84 2
39.2254 35.8342 0.0517885
24.776 12.0613 2
23.7497 14.3449 2
22.478 15.0204 3.98497
25.3561 13.8954 3.98452
24.0224 15.6065 3.9845
26.6212 11.379 0.0148407
29.2239 12.6318 0.0160461
27.29 13.3641 2
29.7788 14.1908 2
28.3549 15.9652 3.98351
34.1281 34.2117 3.95622
35.7771 34.146 2
37.4984 34.1245 0.0443702
35.6953 32.374 0.0293043
37.4927 30.0736 0.0454268
42.4265 28.3486 -0.0166598
39.8596 28.9226 0.0600547
40.0824 27.5109 2
37.4941 28.6156 2
35.4583 30.3587 2
34.0683 32.6748 2
37.6006 27.1733 4.02623
35.1188 28.9208 3.94014
33.6673 31.123 3.98352
32.9176 33.0372 3.99295
30.2043 19.3299 3.98415
30.9243 16.8266 2
31.9128 14.469 0.0172683
40.4939 25.6081 0.0235205
38.0842 22.8524 0.0198463
33.5481 17.3746 0.0191782
35.5827 20.0675 0.0198786
32.86 19.7856 2
35.2055 22.6292 2
37.786 25.1736 2
32.3059 22.4056 3.97861
34.9315 25.1528 3.97409
34.0008 37.5283 3.94622
35.773 37.5259 2
37.5019 37.5177 0.0539121
37.6602 51.0499 0.0245094
36.8839 48.4993 -0.0353868
35.7848 39.2094 0.0560383
35.1457 46.1119 0.0643626
33.6726 43.9194 0.0116983
34.1296 40.8429 0.0433768
32.9137 42.0168 0.00275129
35.4051 50.227 2
34.053 39.222 2
32.5541 40.8925 2
34.246 47.5387 2
32.1375 42.7656 2
33.0235 45.2416 2
33.1559 49.2081 3.98008
32.2269 39.294 3.98701
30.9445 41.2763 3.98354
31.1762 43.8555 3.92807
32.1573 46.4759 4.01022
34.3473 52.4867 0.0189663
31.9591 51.2542 2
29.7799 49.7695 3.97983
30.4969 53.4223 0.0210855
28.3834 51.6674 2
26.4345 50.0562 3.97667
26.8522 53.4708 0.0207118
25.0316 51.8153 2
23.2755 50.2562 3.9824
23.5406 53.5194 0.0193845
21.9182 51.8579 2
20.4098 50.3676 3.98332
17.9425 50.3743 3.98432
17.8018 52.8325 3.98344
19.1587 51.6813 2
17.4193 55.3744 3.98474
18.8968 54.347 2
20.4345 53.2686 0.0176975
17.1266 57.9003 3.98621
18.4346 56.7556 2
19.9157 55.867 0.0152593
17.1328 60.5675 3.98701
18.3626 59.1358 2
19.4293 57.9213 0.0145003
17.4073 63.478 3.98985
18.6163 61.7819 2
19.7022 60.2251 0.0138558
17.9428 66.621 3.99379
19.1274 64.6841 2
20.2064 62.8717 0.012651
18.75 69.9759 4
19.8867 67.8122 2
20.9389 65.7716 0.0103454
21.9126 68.8749 0.0063096
20.9142 71.1327 2
23.1494 72.1454 0
21.5858 13.5946 3.98549
22.1903 11.0184 3.98674
23.0953 12.7753 2
23.041 8.17234 3.98956
23.9721 10.1594 2
24.1174 5.1411 3.9937
25.0227 7.30697 2
25.8594 9.3735 0.0130268
25.446 1.99014 4
26.2797 4.32626 2
27.0687 6.53745 0.0100815
27.7943 1.27778 2
28.4879 3.64247 0.0059282
30.1841 0.720592 0
34.0392 35.8346 3.94709
35.7756 35.8423 2
37.4991 35.8426 0.052096
21.3025 15.8143 3.98498
24.776 12.0615 0.0147035
23.7497 14.3451 0.0152216
25.3561 13.8952 2
22.478 15.0202 2
24.0224 15.6063 2
23.2612 16.2369 3.98438
25.3779 16.0751 3.98416
27.2901 13.3643 0.0160076
29.7788 14.1911 0.0163137
28.3549 15.9651 2
27.4356 18.7859 3.9839
32.561 34.1694 3.99735
34.1286 34.209 2
35.7766 34.1498 0.0451955
34.0677 32.6778 0.00691787
35.4585 30.3628 0.0201125
37.4922 28.6257 0.0622289
40.0824 27.5119 -0.0247533
37.5993 27.1637 2
32.9172 33.0379 2
35.124 28.9173 2
33.6642 31.1247 2
35.0096 27.3143 4.02105
33.0014 29.81 3.92658
32.1429 32.2808 3.98954
29.5655 21.9252 3.98586
30.2045 19.3297 2
30.9243 16.8268 0.017178
37.7861 25.1691 0.0218752
35.2049 22.6292 0.0206767
32.8598 19.7857 0.0217444
32.3065 22.4058 2
34.9317 25.1521 2
31.6143 25.5874 3.97759
32.0947 37.5303 3.98584
34.002 37.5277 2
35.7721 37.5259 0.0589979
35.4053 50.2291 0.019316
34.2479 47.5328 -0.0277157
34.0514 39.2213 0.0500832
33.0258 45.2391 0.0769913
32.1405 42.7711 0.0132784
32.5547 40.891 0.00582656
33.1559 49.2023 2
32.2285 39.2945 2
30.9427 41.2738 2
32.1508 46.4832 2
31.176 43.856 2
31.0215 47.9247 3.97631
30.1921 39.5233 3.97974
29.7256 42.0496 3.92809
30.2508 45.0729 4.00221
31.9592 51.2544 0.0199427
29.78 49.7708 2
27.7637 48.2462 3.98019
28.3835 51.6673 0.0213126
26.4345 50.0549 2
24.5562 48.5364 3.98449
25.0318 51.8156 0.0215732
23.2756 50.2553 2
21.5762 48.8486 3.98557
21.9182 51.8583 0.0182783
20.4101 50.3668 2
18.9753 49.1402 3.986
16.8488 49.3716 3.98594
16.7384 51.4466 3.98413
17.9428 50.3741 2
16.3667 53.9057 3.98432
17.8019 52.8323 2
19.1585 51.6817 0.0173012
15.9653 56.5041 3.98584
17.4192 55.3744 2
18.8969 54.347 0.0164708
15.745 59.2308 3.98704
17.1264 57.9005 2
18.4347 56.7555 0.0143558
15.7872 62.1505 3.98963
17.1327 60.5678 2
18.3627 59.1357 0.0140778
16.0892 65.3041 3.99382
17.4073 63.4784 2
18.6163 61.7816 0.0127067
16.6661 68.6801 4
17.9428 66.6212 2
19.1274 64.6838 0.0101783
18.75 69.9759 2
19.8867 67.812 0.00626974
20.9142 71.1327 0
20.2173 14.5817 3.98547
21.5858 13.5944 2
20.5295 11.9873 3.98673
21.1442 9.14161 3.98948
22.1903 11.0181 2
23.0953 12.7756 0.0146353
22.0165 6.07992 3.99361
23.041 8.17199 2
23.9722 10.1597 0.0131645
23.1494 2.85457 4
24.1174 5.14084 2
25.0228 7.30734 0.0103262
25.446 1.99012 2
26.2797 4.32653 0.00611589
27.7943 1.27781 0
32.2217 35.7661 3.98794
34.041 35.8327 2
35.7744 35.8443 0.0556564
21.3025 15.8141 2
20.2986 16.9457 3.98538
22.0939 16.6195 3.98473
25.3561 13.8954 0.0154772
22.478 15.0204 0.0150258
24.0224 15.6065 0.0154965
25.3779 16.0749 2
23.2612 16.2368 2
24.1998 18.435 3.98384
27.0023 21.4444 3.98304
28.3549 15.9652 0.0164871
27.4357 18.7858 2
30.9565 33.7848 3.98383
32.5602 34.1682 2
34.1281 34.2117 0.0437848
32.9176 33.0372 0.00705226
33.6673 31.123 0.0164771
35.1188 28.9208 0.059862
37.6006 27.1733 -0.0262289
35.0099 27.3099 2
32.1426 32.2856 2
33.0042 29.8101 2
32.4136 28.0489 4.01478
31.1655 31.2066 3.93353
28.7363 24.393 3.9862
29.5661 21.925 2
30.2043 19.3299 0.0158484
34.9315 25.1528 0.0259088
32.3059 22.4056 0.0213869
31.6139 25.5864 2
29.5226 27.2105 3.99241
29.914 37.5278 3.97929
32.0953 37.5304 2
34.0008 37.5283 0.0537827
33.1559 49.2081 0.0199208
32.1573 46.4759 -0.010219
32.2269 39.294 0.0129926
31.1762 43.8555 0.0719324
30.9445 41.2763 0.0164634
31.0223 47.9175 2
30.1938 39.5222 2
29.7279 42.0527 2
30.2427 45.0784 2
29.0224 46.4848 3.9744
28.8111 39.9243 3.934
28.4466 43.2916 4.00396
29.7799 49.7695 0.0201699
27.7642 48.2442 2
25.8111 46.7242 3.98885
26.4345 50.0562 0.0233345
24.5566 48.5353 2
22.6999 47.1454 3.99089
23.2755 50.2562 0.0176016
21.5768 48.8475 2
19.9114 47.6694 3.98877
20.4098 50.3676 0.0166769
18.9757 49.1399 2
17.6178 48.2201 3.987
16.0999 48.7198 3.98657
16.8491 49.3714 2
15.814 50.2069 3.98525
15.3528 52.4499 3.98447
16.7386 51.4465 2
17.9425 50.3743 0.0156817
14.8539 55.0064 3.98526
16.3667 53.9056 2
17.8018 52.8325 0.0165603
14.4529 57.7613 3.98691
15.9652 56.5042 2
17.4193 55.3744 0.0152636
14.2648 60.7068 3.98938
15.745 59.231 2
17.1266 57.9003 0.0137911
14.3332 63.8638 3.99373
15.7872 62.1508 2
17.1328 60.5675 0.0129868
14.6715 67.2507 4
16.0892 65.3044 2
17.4073 63.478 0.010152
16.6661 68.6801 2
17.9428 66.621 0.00620795
18.75 69.9759 0
18.9301 15.7661 3.98565
20.2172 14.5814 2
18.9789 13.0966 3.98669
21.5858 13.5946 0.0145132
20.5295 11.987 2
19.3437 10.2287 3.98943
19.9913 7.14434 3.99359
21.1442 9.14124 2
22.1903 11.0184 0.0132584
20.9142 3.86727 4
22.0165 6.07965 2
23.041 8.17234 0.0104425
23.1494 2.85451 2
24.1174 5.1411 0.00630197
25.446 1.99014 0
30.1922 35.5323 3.98179
32.2233 35.7656 2
34.0392 35.8346 0.0529122
21.3025 15.8143 0.0150222
22.0939 16.6193 2
20.2986 16.9455 2
19.2359 18.3896 3.98534
21.7773 17.8331 3.98479
25.3779 16.0751 0.0158357
23.2612 16.2369 0.0156234
24.1999 18.4348 2
22.2679 19.8717 3.98462
24.5775 21.3021 3.98381
26.3691 23.7033 3.98704
27.0028 21.4442 2
27.4356 18.7859 0.0161004
29.7363 33.0108 3.93285
30.9547 33.7882 2
32.561 34.1694 0.00264625
32.1429 32.2808 0.0104647
33.0014 29.81 0.0734235
35.0096 27.3143 -0.0210497
32.4126 28.0456 2
31.1682 31.209 2
29.922 29.4882 4.0059
27.7732 26.5209 3.9762
28.736 24.3925 2
29.5655 21.9252 0.0141426
31.6143 25.5874 0.0224149
29.5218 27.2099 2
28.473 37.5257 3.93564
29.9144 37.5286 2
32.0947 37.5303 0.014164
31.0215 47.9247 0.0236915
30.2508 45.0729 -0.00221025
30.1921 39.5233 0.0202589
29.7256 42.0496 0.0719053
29.0238 46.4814 2
28.8148 39.9245 2
28.4434 43.2937 2
27.0846 44.8511 3.9746
26.5539 40.6757 4.00485
27.7637 48.2462 0.0198103
25.8122 46.7226 2
23.8367 45.2757 3.99118
24.5562 48.5364 0.0155133
22.7007 47.1438 2
20.8294 45.9509 3.99116
21.5762 48.8486 0.0144274
19.9119 47.6691 2
18.2555 46.7794 3.98804
18.9753 49.1402 0.0139963
17.6181 48.2199 2
16.2865 47.749 3.98638
16.1002 48.7198 2
15.1589 49.0491 3.98581
16.8488 49.3716 0.0140642
15.8143 50.2068 2
14.4643 51.0167 3.98498
13.8132 53.4626 3.98507
15.3528 52.4498 2
16.7384 51.4466 0.0158705
13.2462 56.1902 3.98647
14.8538 55.0065 2
16.3667 53.9057 0.0156837
12.8466 59.1416 3.98902
14.4529 57.7615 2
15.9653 56.5041 0.0141568
12.6784 62.3069 3.99356
14.2648 60.7071 2
15.745 59.2308 0.012958
12.7746 65.6939 4
14.3332 63.8641 2
15.7872 62.1505 0.0103674
14.6714 67.2507 2
16.0892 65.3041 0.00617609
16.6661 68.6801 0
17.6633 17.139 3.98565
18.9301 15.7658 2
17.5096 14.3585 3.98666
20.2173 14.5817 0.0145299
18.9789 13.0962 2
17.6392 11.4464 3.98936
20.5295 11.9873 0.0132668
19.3437 10.2283 2
18.0515 8.33683 3.99358
18.75 5.0241 4
19.9913 7.14407 2
21.1442 9.14161 0.0105203
20.9142 3.86727 2
22.0165 6.07992 0.0063873
23.1494 2.85457 0
28.802 35.1285 3.93248
30.1938 35.5362 2
32.2217 35.7661 0.0120561
22.0939 16.6195 0.0152711
20.2986 16.9457 0.0146175
21.7773 17.8329 2
19.2359 18.3894 2
17.9684 19.9183 3.98541
20.8673 19.3571 3.98498
24.1998 18.435 0.0161647
22.268 19.8715 2
24.5777 21.3018 2
22.3388 21.6932 3.98484
24.6567 23.146 3.98579
25.3707 25.9286 3.98086
26.369 23.7028 2
27.0023 21.4444 0.0169649
28.1067 32.2633 4.00525
29.739 33.0098 2
30.9565 33.7848 0.0161652
31.1655 31.2066 0.0664656
32.4136 28.0489 -0.0147804
29.9204 29.4864 2
26.8744 29.1293 3.96409
27.7724 26.5201 2
28.7363 24.393 0.0138012
29.5226 27.2105 0.00758684
26.6683 37.3655 4.006
28.4754 37.5243 2
29.914 37.5278 0.020712
29.0224 46.4848 0.0256017
28.4466 43.2916 -0.0039596
28.8111 39.9243 0.0660039
27.0862 44.8494 2
26.5544 40.6753 2
25.0512 43.2316 3.98764
23.8067 39.4486 3.97466
25.8111 46.7242 0.011145
23.8377 45.2764 2
21.7934 44.0014 3.99035
22.6999 47.1454 0.00911106
20.8302 45.9511 2
18.9068 45.0102 3.98678
19.9114 47.6694 0.0112294
18.256 46.7793 2
16.5709 46.2458 3.98566
17.6178 48.2201 0.0130026
16.2868 47.7489 2
14.8855 47.7012 3.98552
16.0999 48.7198 0.0134266
15.1592 49.049 2
13.7604 49.5753 3.98525
15.814 50.2069 0.0147549
14.4644 51.0167 2
12.8782 51.9002 3.98515
12.132 54.5487 3.98613
13.8132 53.4626 2
15.3528 52.4499 0.0155279
11.5303 57.4745 3.98843
13.2461 56.1903 2
14.8539 55.0064 0.0147353
11.1329 60.6337 3.99336
12.8466 59.142 2
14.4529 57.7613 0.0130948
10.9835 64.0165 4
12.6784 62.3072 2
14.2648 60.7068 0.0106184
12.7745 65.694 2
14.3332 63.8638 0.00626805
14.6715 67.2507 0
16.3938 18.6299 3.98582
17.6633 17.1387 2
16.0999 15.7655 3.98662
18.9301 15.7661 0.0143515
17.5096 14.3582 2
16.0205 12.7982 3.98921
18.9789 13.0966 0.0133109
17.6392 11.446 2
16.2027 9.65941 3.99354
19.3437 10.2287 0.0105691
18.0515 8.33656 2
16.6661 6.31991 4
18.75 5.02404 2
19.9913 7.14434 0.00641084
20.9142 3.86727 0
27.1804 34.7339 4.00558
28.8042 35.1272 2
30.1922 35.5323 0.0182081
16.6643 21.35 3.98466
21.7773 17.8331 0.0152105
19.2359 18.3896 0.0146625
20.8674 19.3569 2
17.9684 19.9181 2
19.7062 21.5462 3.98583
22.2679 19.8717 0.0153756
24.5775 21.3021 0.0161855
22.339 21.6928 2
24.6566 23.1456 2
22.7898 24.5752 3.98292
24.4258 28.5115 3.97589
25.3701 25.9282 2
26.3691 23.7033 0.0129583
25.9523 31.7126 3.97531
28.1061 32.2617 2
29.7363 33.0108 0.0671475
29.922 29.4882 -0.0059047
26.8736 29.1304 2
27.7732 26.5209 0.0238022
24.487 36.8792 3.98252
26.6678 37.3661 2
28.473 37.5257 0.0643634
27.0846 44.8511 0.0253999
26.5539 40.6757 -0.00485064
25.0517 43.2318 2
23.807 39.4502 2
22.8344 41.8401 3.98303
21.5678 38.5108 3.9838
23.8367 45.2757 0.00882108
21.7941 44.0028 2
19.6488 42.9226 3.98501
20.8294 45.9509 0.00884045
18.9073 45.0104 2
16.8935 44.4094 3.98456
18.2555 46.7794 0.0119591
16.5713 46.2459 2
14.8021 46.1184 3.98457
16.2865 47.749 0.0136182
14.8858 47.7012 2
13.265 48.0351 3.98491
15.1589 49.0491 0.0141867
13.7605 49.5753 2
12.0956 50.2766 3.9852
14.4643 51.0167 0.0150248
12.8782 51.9002 2
11.1263 52.8565 3.98593
10.3199 55.7262 3.98785
12.132 54.5488 2
13.8132 53.4626 0.0149259
9.69957 58.8572 3.99303
11.5303 57.4747 2
13.2462 56.1902 0.0135311
9.30605 62.2254 4
11.1329 60.634 2
12.8466 59.1416 0.0109777
10.9835 64.0165 2
12.6784 62.3069 0.0064375
12.7746 65.6939 0
15.1358 20.1616 3.98543
16.3938 18.6296 2
14.7445 17.286 3.98648
17.6633 17.139 0.0143474
16.0999 15.7651 2
14.4826 14.2781 3.989
17.5096 14.3585 0.013337
16.0205 12.7978 2
14.4453 11.1101 3.99344
17.6392 11.4464 0.0106368
16.2027 9.65914 2
14.6715 7.74927 4
18.0515 8.33683 0.00642406
16.6661 6.31988 2
18.75 5.0241 0
25.128 34.2868 3.98501
27.1798 34.7332 2
28.802 35.1285 0.0675208
17.8323 22.2946 3.98629
15.5045 22.8917 3.98385
16.6642 21.3498 2
20.8673 19.3571 0.0150218
17.9684 19.9183 0.0145907
19.7062 21.5459 2
19.6192 24.3518 3.98481
22.3388 21.6932 0.015162
24.6567 23.146 0.014209
22.7895 24.5748 2
21.8164 27.7997 3.97657
23.5835 31.171 3.98241
24.4254 28.5117 2
25.3707 25.9286 0.0191409
25.9521 31.7144 2
28.1067 32.2633 -0.00525232
26.8744 29.1293 0.0359063
22.2735 36.2689 3.99006
24.4869 36.8805 2
26.6683 37.3655 -0.00599774
25.0512 43.2316 0.0123587
23.8067 39.4486 0.0253439
22.8346 41.8414 2
21.568 38.5111 2
20.5606 40.6534 3.98152
19.9356 37.7872 3.98597
21.7934 44.0014 0.00964726
19.6494 42.9229 2
17.282 42.1235 3.9831
18.9068 45.0102 0.0132245
16.8939 44.4095 2
14.7993 44.2241 3.98314
16.5709 46.2458 0.0143391
14.8024 46.1185 2
12.9344 46.319 3.98407
14.8855 47.7012 0.0144778
13.2652 48.0352 2
11.4653 48.5713 3.98487
13.7604 49.5753 0.014745
12.0957 50.2767 2
10.2509 51.0984 3.98577
12.8782 51.9002 0.0148458
11.1263 52.8566 2
9.22786 53.9033 3.98749
8.38319 56.991 3.99257
10.3199 55.7265 2
12.132 54.5487 0.0138745
7.74927 60.3285 4
9.69957 58.8575 2
11.5303 57.4745 0.0115668
9.306 62.2255 2
11.1329 60.6337 0.00663629
10.9835 64.0165 0
13.9449 21.7266 3.985
15.1358 20.1613 2
13.4437 18.8811 3.98631
16.3938 18.6299 0.0141777
14.7445 17.2857 2
13.0276 15.869 3.98867
16.0999 15.7655 0.0133761
14.4827 14.2777 2
12.7824 12.6828 3.99329
16.0205 12.7982 0.0107853
14.4453 11.1098 2
12.7746 9.30605 4
16.2027 9.65941 0.00646032
14.6715 7.74924 2
16.6661 6.31991 0
22.8706 33.787 3.98916
25.128 34.2882 2
27.1804 34.7339 -0.00558164
17.5915 24.013 3.98493
17.8323 22.2943 2
14.2837 24.4241 3.9827
15.5043 22.8913 2
16.6643 21.35 0.0153365
18.9631 27.175 3.9788
19.7062 21.5462 0.0141741
19.6189 24.3514 2
21.0419 30.6433 3.98008
22.7898 24.5752 0.0170752
21.8161 27.7998 2
23.5832 31.1716 2
24.4258 28.5115 0.0241102
25.9523 31.7126 0.0246861
20.0477 35.917 3.98809
22.2733 36.2691 2
24.487 36.8792 0.0174839
22.8344 41.8401 0.0169713
21.5678 38.5108 0.0161978
20.5609 40.6536 2
19.9356 37.7875 2
17.942 39.0111 3.98423
19.6488 42.9226 0.0149946
17.2824 42.1238 2
14.7421 41.9355 3.98254
16.8935 44.4094 0.0154441
14.7996 44.2243 2
12.6717 44.4115 3.98302
14.8021 46.1184 0.0154289
12.9346 46.3191 2
10.9653 46.7525 3.98416
13.265 48.0351 0.0150889
11.4654 48.5714 2
9.513 49.2563 3.98544
12.0956 50.2766 0.0147981
10.2509 51.0985 2
8.26009 52.0148 3.98729
11.1263 52.8565 0.0140698
9.22786 53.9035 2
7.19214 55.0418 3.99208
6.31991 58.3339 4
8.38319 56.9913 2
10.3199 55.7262 0.0121453
7.74924 60.3285 2
9.69957 58.8572 0.00696902
9.30605 62.2254 0
13.204 25.3397 3.98513
12.8095 23.2562 3.98435
13.9448 21.7263 2
12.2272 20.5291 3.98615
15.1358 20.1616 0.0145679
13.4437 18.8808 2
11.6566 17.5488 3.98834
14.7445 17.286 0.013515
13.0276 15.8686 2
11.2197 14.3669 3.99307
14.4826 14.2781 0.0110033
12.7824 12.6825 2
10.9835 10.9835 4
14.4453 11.1101 0.00656155
12.7745 9.306 2
14.6715 7.74927 0
20.4415 33.3794 3.98603
22.8705 33.7877 2
25.128 34.2868 0.0149949
15.8583 26.3749 3.98114
17.5913 24.0126 2
17.8323 22.2946 0.0137145
14.2836 24.4239 2
15.5045 22.8917 0.0161522
18.2946 30.1509 3.97933
18.9628 27.1749 2
19.6192 24.3518 0.0151898
21.0418 30.6437 2
21.8164 27.7997 0.0234291
23.5835 31.171 0.0175862
17.5611 35.96 3.98852
20.0474 35.9175 2
22.2735 36.2689 0.0099388
20.5606 40.6534 0.0184804
19.9356 37.7872 0.0140338
17.9421 39.0113 2
14.2421 39.1847 3.98493
17.282 42.1235 0.0168964
14.7424 41.9357 2
12.3563 42.2916 3.9833
14.7993 44.2241 0.0168611
12.6719 44.4116 2
10.5406 44.8183 3.98351
12.9344 46.319 0.0159296
10.9654 46.7526 2
8.89448 47.3334 3.98481
11.4653 48.5713 0.0151252
9.51305 49.2565 2
7.42641 50.0467 3.98706
10.2509 51.0984 0.0142291
8.2601 52.015 2
6.13254 53.0166 3.99157
9.22786 53.9033 0.01251
7.19216 55.0421 2
5.0241 56.25 4
6.31988 58.3339 2
8.38319 56.991 0.00742852
7.74927 60.3285 0
13.4367 26.7928 3.98217
11.9216 24.7669 3.98361
13.2039 25.3394 2
11.1285 22.2143 3.98566
12.8094 23.2558 2
13.9449 21.7266 0.015004
12.2271 20.5287 2
10.3858 19.3033 3.98806
13.4437 18.8811 0.0136891
11.6567 17.5484 2
9.76057 16.1493 3.99286
13.0276 15.869 0.0113338
11.2197 14.3666 2
9.30607 12.7746 4
12.7824 12.6828 0.00671007
10.9835 10.9835 2
12.7746 9.30605 0
17.7503 33.0969 3.98435
20.4414 33.38 2
22.8706 33.787 0.0108418
15.4388 29.617 3.98051
15.8581 26.3747 2
17.5915 24.013 0.0150705
14.2837 24.4241 0.017295
18.2944 30.1512 2
18.9631 27.175 0.0211965
21.0419 30.6433 0.0199232
14.8292 36.0158 3.98702
17.5608 35.9603 2
20.0477 35.917 0.011908
12.5444 37.833 3.98441
17.942 39.0111 0.0157676
14.2421 39.1849 2
11.8668 40.1515 3.98513
14.7421 41.9355 0.0174554
12.3565 42.2918 2
10.1384 42.7903 3.98313
12.6717 44.4115 0.0169785
10.5408 44.8185 2
8.3714 45.3331 3.98439
10.9653 46.7525 0.0158449
8.89454 47.3335 2
6.71726 48.0105 3.98661
9.513 49.2563 0.0145646
7.42642 50.0469 2
5.20898 50.9192 3.99101
8.26009 52.0148 0.0127093
6.13256 53.0169 2
3.86727 54.0858 4
7.19214 55.0418 0.00791553
5.02404 56.25 2
6.31991 58.3339 0
12.889 29.0157 3.98059
11.3498 26.4693 3.98296
13.4366 26.7927 2
10.1866 23.95 3.9846
11.9214 24.7667 2
13.204 25.3397 0.0148711
9.23692 21.1229 3.98754
11.1284 22.2139 2
12.8095 23.2562 0.015651
12.2272 20.5291 0.0138517
10.3858 19.3028 2
8.41641 18.0192 3.99261
11.6566 17.5488 0.0116599
9.76061 16.1488 2
7.74928 14.6715 4
11.2197 14.3669 0.00692549
9.30602 12.7745 2
10.9835 10.9835 0
14.4243 32.8495 3.98359
17.7501 33.0973 2
20.4415 33.3794 0.0139693
15.4387 29.6171 2
15.8583 26.3749 0.0188605
18.2946 30.1509 0.0206712
12.8305 36.2077 3.98525
14.8289 36.0161 2
17.5611 35.96 0.0114761
12.5443 37.8333 2
11.2245 38.3157 3.98394
14.2421 39.1847 0.0150689
11.8668 40.1518 2
9.72231 40.7634 3.98456
12.3563 42.2916 0.0166974
10.1385 42.7905 2
7.91981 43.2796 3.98397
10.5406 44.8183 0.0164898
8.3715 45.3333 2
6.12302 45.9142 3.98625
8.89448 47.3334 0.0151859
6.71727 48.0106 2
4.42022 48.7591 3.99049
7.42641 50.0467 0.0129419
5.209 50.9196 2
2.85457 51.8506 4
6.13254 53.0166 0.00843161
3.86727 54.0858 2
5.0241 56.25 0
12.0273 31.2425 3.98385
10.7609 28.4001 3.98171
12.8889 29.0157 2
9.40064 25.783 3.98391
11.3496 26.4691 2
13.4367 26.7928 0.0178322
8.22341 23.0099 3.9866
10.1865 23.9497 2
11.9216 24.7669 0.0163895
7.1984 19.9686 3.99207
9.23688 21.1225 2
11.1285 22.2143 0.0143353
10.3858 19.3033 0.0119421
8.41644 18.0187 2
6.31992 16.6661 4
9.76057 16.1493 0.00714029
7.74926 14.6714 2
9.30607 12.7746 0
12.0396 34.2875 3.98279
14.4242 32.8497 2
17.7503 33.0969 0.015654
15.4388 29.617 0.0194859
10.7895 36.6117 3.98428
12.8303 36.2079 2
14.8292 36.0158 0.0129801
12.5444 37.833 0.0155923
11.2244 38.316 2
9.31656 38.8292 3.98464
11.8668 40.1515 0.0148686
9.72234 40.7636 2
7.53041 41.2184 3.98461
10.1384 42.7903 0.0168652
7.91986 43.2798 2
5.63453 43.7756 3.98597
8.3714 45.3331 0.015608
6.12306 45.9144 2
3.76561 46.5439 3.99013
6.71726 48.0105 0.0133941
4.42023 48.7594 2
1.99014 49.554 4
5.20898 50.9192 0.0089892
2.85451 51.8506 2
3.86727 54.0858 0
10.8904 32.909 3.98356
10.0724 30.3702 3.98308
12.0272 31.2426 2
8.70809 27.7196 3.98302
10.7608 28.4001 2
12.889 29.0157 0.0194051
7.34846 24.971 3.98598
9.40051 25.7828 2
11.3498 26.4693 0.0170373
6.11513 21.9927 3.99111
8.22334 23.0095 2
10.1866 23.95 0.0153986
5.02411 18.75 4
7.19842 19.9681 2
9.23692 21.1229 0.0124592
8.41641 18.0192 0.00739376
6.3199 16.6661 2
7.74928 14.6715 0
10.4037 34.9962 3.98347
12.0394 34.2876 2
14.4243 32.8495 0.0164054
8.99062 36.9864 3.98403
10.7894 36.612 2
12.8305 36.2077 0.0147474
11.2245 38.3157 0.0160642
9.31648 38.8294 2
7.21035 39.1865 3.98505
9.72231 40.7634 0.0154432
7.53042 41.2186 2
5.24967 41.6194 3.98589
7.91981 43.2796 0.016031
5.63454 43.7758 2
3.24304 44.2878 3.99004
6.12302 45.9142 0.0137532
3.76563 46.5442 2
1.27781 47.2057 4
4.42022 48.7591 0.00951227
1.99012 49.554 2
2.85457 51.8506 0
10.059 33.8748 3.98297
9.3647 32.1452 3.98393
10.8903 32.909 2
8.05661 29.6857 3.98338
10.0723 30.3702 2
12.0273 31.2425 0.0161499
6.59185 26.999 3.98525
8.70797 27.7194 2
10.7609 28.4001 0.0182921
5.17011 24.0867 3.9903
7.34837 24.9707 2
9.40064 25.783 0.0160859
3.86728 20.9142 4
6.11514 21.9922 2
8.22341 23.0099 0.0133957
5.02406 18.75 2
7.1984 19.9686 0.00793038
6.31992 16.6661 0
8.81825 35.2769 3.98394
10.4035 34.9964 2
12.0396 34.2875 0.0172081
6.99563 37.207 3.98442
8.99049 36.9865 2
10.7895 36.6117 0.0157245
9.31656 38.8292 0.0153641
7.21027 39.1867 2
4.97701 39.4708 3.98625
7.53041 41.2184 0.0153875
5.24965 41.6197 2
2.85344 42.0068 3.98966
5.63453 43.7756 0.014033
3.24304 44.2881 2
0.720592 44.8159 4
3.76561 46.5439 0.00986534
1.27778 47.2057 2
1.99014 49.554 0
8.86116 33.6917 3.98375
10.0589 33.8749 2
7.49318 31.6016 3.98425
9.36457 32.1452 2
10.8904 32.909 0.0164375
5.93669 29.062 3.98507
8.0565 29.6856 2
10.0724 30.3702 0.0169153
4.35747 26.2406 3.98973
6.59175 26.9988 2
8.70809 27.7196 0.0169776
2.85458 23.1494 4
5.17009 24.0863 2
7.34846 24.971 0.014021
3.86728 20.9142 2
6.11513 21.9927 0.0088876
5.02411 18.75 0
6.94661 35.3041 3.98432
8.81814 35.277 2
10.4037 34.9962 0.0165339
4.82794 37.3407 3.98581
6.99553 37.2072 2
8.99062 36.9864 0.015969
7.21035 39.1865 0.0149542
4.97693 39.471 2
2.60127 39.7169 3.98972
5.24967 41.6194 0.0141089
2.85342 42.0071 2
0.320823 42.3947 4
3.24304 44.2878 0.00996233
0.720551 44.8159 2
1.27781 47.2057 0
7.10681 33.456 3.98428
8.86103 33.6917 2
10.059 33.8748 0.0170313
5.40692 31.1277 3.98559
7.49304 31.6016 2
9.3647 32.1452 0.016068
3.67899 28.4377 3.98955
5.9366 29.0618 2
8.05661 29.6857 0.0166204
1.99015 25.446 4
4.35744 26.2403 2
6.59185 26.999 0.0147507
2.85453 23.1494 2
5.17011 24.0867 0.00969706
3.86728 20.9142 0
4.84265 35.2501 3.98567
6.94652 35.3042 2
8.81825 35.2769 0.0160603
2.49289 37.4293 3.98931
4.82788 37.3409 2
6.99563 37.207 0.015576
4.97701 39.4708 0.0137532
2.60122 39.7171 2
0.080333 39.9526 4
2.85344 42.0068 0.010336
0.320817 42.3947 2
0.720592 44.8159 0
5.0361 33.1865 3.98573
7.10669 33.456 2
8.86116 33.6917 0.0162536
3.14301 30.6615 3.98975
5.4068 31.1277 2
7.49318 31.6016 0.01575
1.27793 27.7943 4
3.67895 28.4376 2
5.93669 29.062 0.0149326
1.99013 25.446 2
4.35747 26.2406 0.010272
2.85458 23.1494 0
2.54518 35.1576 3.98924
4.84258 35.2503 2
6.94661 35.3041 0.0156779
0 37.5 4
2.49286 37.4294 2
4.82794 37.3407 0.0141876
2.60127 39.7169 0.0102786
0.0802903 39.9526 2
0.320823 42.3947 0
2.76285 32.9024 3.98962
5.036 33.1865 2
7.10681 33.456 0.0157237
0.721173 30.1842 4
3.14295 30.6614 2
5.40692 31.1277 0.014407
1.27779 27.7943 2
3.67899 28.4377 0.0104546
1.99015 25.446 0
0.0806499 35.0474 4
2.54515 35.1577 2
4.84265 35.2501 0.0143333
0 37.5 2
2.49289 37.4293 0.0106923
0.080333 39.9526 0
0.32156 32.6054 4
2.76279 32.9025 2
5.0361 33.1865 0.0142692
0.72056 30.1841 2
3.14301 30.6615 0.010247
1.27793 27.7943 0
0.0802889 35.0474 2
2.54518 35.1576 0.0107604
0 37.5 0
0.320817 32.6053 2
2.76285 32.9024 0.0103789
0.721173 30.1842 0
0.0806499 35.0474 0
0.32156 32.6054 0
CELLS 1910 17190
8 18 6 25 56 2 0 5 16
8 57 23 6 18 17 4 0 2
8 78 36 9 29 31 11 1 7
8 31 11 1 7 79 37 10 30
8 110 57 18 50 48 17 2 14
8 50 18 56 111 14 2 16 49
8 116 62 22 55 52 20 3 15
8 56 25 67 118 16 5 24 53
8 119 63 23 57 54 21 4 17
8 55 22 63 119 15 3 21 54
8 58 26 68 121 18 6 25 56
8 122 65 26 58 57 23 6 18
8 73 31 7 27 142 79 30 71
8 143 78 29 72 73 31 7 27
8 83 147 76 34 32 74 28 8
8 84 148 78 36 33 75 29 9
8 76 34 8 28 148 84 33 75
8 37 79 150 86 10 30 77 35
8 151 87 36 78 80 38 11 31
8 80 38 11 31 152 88 37 79
8 175 100 42 94 96 44 12 40
8 44 96 176 101 12 40 95 43
8 101 176 98 46 43 95 41 13
8 46 98 178 103 13 41 97 45
8 178 103 45 97 147 83 32 74
8 189 116 55 109 106 52 15 47
8 111 56 118 191 49 16 53 107
8 192 119 57 110 108 54 17 48
8 109 55 119 192 47 15 54 108
8 194 122 58 112 110 57 18 50
8 112 58 121 195 50 18 56 111
8 115 61 19 51 197 124 59 113
8 115 61 125 198 51 19 60 114
8 198 125 62 116 114 60 20 52
8 200 127 64 120 116 62 22 55
8 118 67 132 202 53 24 66 117
8 121 68 133 203 56 25 67 118
8 120 64 128 204 55 22 63 119
8 204 128 65 122 119 63 23 57
8 206 134 68 121 123 69 26 58
8 123 69 26 58 207 131 65 122
8 226 147 74 138 140 76 28 70
8 229 148 75 139 143 78 29 72
8 140 76 28 70 229 148 75 139
8 142 79 30 71 231 150 77 141
8 144 80 31 73 232 152 79 142
8 233 151 78 143 144 80 31 73
8 150 86 35 77 235 154 81 145
8 235 154 81 145 146 82 39 91
8 146 82 39 91 236 155 90 165
8 238 157 83 147 149 85 34 76
8 239 158 84 148 151 87 36 78
8 149 85 34 76 239 158 84 148
8 152 88 37 79 241 160 86 150
8 242 161 87 151 153 89 38 80
8 153 89 38 80 243 162 88 152
8 171 98 41 92 265 178 97 169
8 265 178 97 169 226 147 74 138
8 172 96 40 93 266 176 95 170
8 266 176 95 170 171 98 41 92
8 269 175 94 173 172 96 40 93
8 271 180 99 174 175 100 42 94
8 197 124 59 113 271 180 99 174
8 272 181 100 175 177 102 44 96
8 273 182 101 176 179 104 46 98
8 177 102 44 96 273 182 101 176
8 179 104 46 98 275 184 103 178
8 275 184 103 178 238 157 83 147
8 188 115 51 105 283 197 113 186
8 188 115 198 284 105 51 114 187
8 284 198 116 189 187 114 52 106
8 286 200 120 193 189 116 55 109
8 191 118 202 288 107 53 117 190
8 195 121 203 289 111 56 118 191
8 193 120 204 290 109 55 119 192
8 290 204 122 194 192 119 57 110
8 196 123 58 112 292 207 122 194
8 293 206 121 195 196 123 58 112
8 199 126 61 115 297 211 124 197
8 298 212 127 200 198 125 62 116
8 199 126 212 298 115 61 125 198
8 205 129 64 120 300 214 127 200
8 301 217 130 201 202 132 66 117
8 209 136 168 264 301 217 130 201
8 302 219 132 202 203 133 67 118
8 303 220 133 203 206 134 68 121
8 205 129 215 304 120 64 128 204
8 304 215 131 207 204 128 65 122
8 306 221 134 206 208 135 69 123
8 208 135 69 123 307 218 131 207
8 210 137 167 263 309 223 136 209
8 328 238 147 226 230 149 76 140
8 228 146 91 166 329 236 165 260
8 231 150 77 141 330 235 145 227
8 330 235 145 227 228 146 91 166
8 332 239 148 229 233 151 78 143
8 230 149 76 140 332 239 148 229
8 232 152 79 142 334 241 150 231
8 234 153 80 144 335 243 152 232
8 336 242 151 233 234 153 80 144
8 236 155 90 165 338 245 164 259
8 241 160 86 150 339 246 154 235
8 339 246 154 235 237 156 82 146
8 237 156 82 146 340 247 155 236
8 342 249 157 238 240 159 85 149
8 343 250 158 239 242 161 87 151
8 240 159 85 149 343 250 158 239
8 243 162 88 152 345 252 160 241
8 244 163 253 346 153 89 161 242
8 244 163 89 153 347 254 162 243
8 311 224 261 371 210 137 167 263
8 263 167 262 372 209 136 168 264
8 267 179 98 171 375 275 178 265
8 375 275 178 265 328 238 147 226
8 376 273 176 266 267 179 98 171
8 268 177 96 172 376 273 176 266
8 379 272 175 269 268 177 96 172
8 380 271 174 270 269 175 94 173
8 283 197 113 186 380 271 174 270
8 381 277 180 271 272 181 100 175
8 297 211 124 197 381 277 180 271
8 382 278 181 272 274 183 102 177
8 274 183 102 177 383 279 182 273
8 383 279 182 273 276 185 104 179
8 385 281 184 275 342 249 157 238
8 276 185 104 179 385 281 184 275
8 285 199 115 188 393 297 197 283
8 394 298 200 286 284 198 116 189
8 285 199 298 394 188 115 198 284
8 291 205 120 193 396 300 200 286
8 397 301 201 287 288 202 117 190
8 295 209 264 374 397 301 201 287
8 398 302 202 288 289 203 118 191
8 399 303 203 289 293 206 121 195
8 291 205 304 400 193 120 204 290
8 400 304 207 292 290 204 122 194
8 294 208 123 196 402 307 207 292
8 403 306 206 293 294 208 123 196
8 296 210 263 373 405 309 209 295
8 408 312 213 299 297 211 126 199
8 299 213 313 409 199 126 212 298
8 409 313 214 300 298 212 127 200
8 305 216 129 205 411 315 214 300
8 412 318 217 301 302 219 132 202
8 309 223 136 209 412 318 217 301
8 413 320 219 302 303 220 133 203
8 306 221 321 414 206 134 220 303
8 307 218 131 207 415 316 215 304
8 305 216 316 415 205 129 215 304
8 417 322 221 306 308 222 135 208
8 308 222 135 208 418 319 218 307
8 310 225 137 210 420 325 223 309
8 423 326 224 311 310 225 137 210
8 329 236 165 260 441 338 259 368
8 442 342 238 328 333 240 149 230
8 331 237 146 228 443 340 236 329
8 334 241 150 231 444 339 235 330
8 444 339 235 330 331 237 146 228
8 446 343 239 332 336 242 151 233
8 333 240 149 230 446 343 239 332
8 335 243 152 232 448 345 241 334
8 337 244 153 234 449 347 243 335
8 337 244 346 450 234 153 242 336
8 338 245 164 259 452 349 258 367
8 340 247 155 236 453 350 245 338
8 345 252 160 241 454 351 246 339
8 454 351 246 339 341 248 156 237
8 341 248 156 237 455 352 247 340
8 240 159 251 344 342 249 354 457
8 242 161 253 346 343 250 355 458
8 343 250 355 458 240 159 251 344
8 347 254 162 243 460 357 252 345
8 348 255 358 461 244 163 253 346
8 348 255 163 244 462 359 254 347
8 473 360 257 365 363 256 364 482
8 452 349 258 367 365 257 366 485
8 422 324 369 488 311 224 261 371
8 371 261 370 490 263 167 262 372
8 407 311 371 491 296 210 263 373
8 373 263 372 492 295 209 264 374
8 493 385 275 375 442 342 238 328
8 377 276 179 267 493 385 275 375
8 378 274 177 268 494 383 273 376
8 494 383 273 376 377 276 179 267
8 497 382 272 379 378 274 177 268
8 498 381 271 380 379 272 175 269
8 393 297 197 283 498 381 271 380
8 499 387 277 381 382 278 181 272
8 408 312 211 297 499 387 277 381
8 500 388 278 382 384 280 183 274
8 501 389 279 383 386 282 185 276
8 384 280 183 274 501 389 279 383
8 386 282 185 276 503 391 281 385
8 503 391 281 385 457 354 249 342
8 511 408 299 395 393 297 199 285
8 395 299 409 512 285 199 298 394
8 512 409 300 396 394 298 200 286
8 401 305 205 291 514 411 300 396
8 515 412 301 397 398 302 202 288
8 405 309 209 295 515 412 301 397
8 516 413 302 398 399 303 203 289
8 403 306 414 517 293 206 303 399
8 402 307 207 292 518 415 304 400
8 401 305 415 518 291 205 304 400
8 404 308 208 294 520 418 307 402
8 521 417 306 403 404 308 208 294
8 406 310 210 296 523 420 309 405
8 526 423 311 407 406 310 210 296
8 410 314 213 299 527 424 312 408
8 528 425 315 411 409 313 214 300
8 410 314 425 528 299 213 313 409
8 416 317 216 305 530 427 315 411
8 531 430 318 412 413 320 219 302
8 420 325 223 309 531 430 318 412
8 532 432 320 413 414 321 220 303
8 417 322 433 533 306 221 321 414
8 418 319 218 307 534 428 316 415
8 416 317 428 534 305 216 316 415
8 419 323 434 536 308 222 322 417
8 419 323 222 308 537 431 319 418
8 421 327 225 310 539 438 325 420
8 421 327 439 541 310 225 326 423
8 543 437 324 422 423 326 224 311
8 441 338 259 368 559 452 367 486
8 443 340 236 329 560 453 338 441
8 333 240 344 447 442 342 457 561
8 445 341 237 331 562 455 340 443
8 448 345 241 334 563 454 339 444
8 563 454 339 444 445 341 237 331
8 336 242 346 450 446 343 458 565
8 446 343 458 565 333 240 344 447
8 449 347 243 335 567 460 345 448
8 451 348 244 337 568 462 347 449
8 451 348 461 569 337 244 346 450
8 570 463 349 452 473 360 257 365
8 453 350 245 338 570 463 349 452
8 455 352 247 340 571 464 350 453
8 460 357 252 345 572 465 351 454
8 572 465 351 454 456 353 248 341
8 456 353 248 341 573 466 352 455
8 344 251 356 459 457 354 468 575
8 458 355 469 576 344 251 356 459
8 346 253 358 461 458 355 469 576
8 462 359 254 347 578 471 357 460
8 348 255 359 462 461 358 472 579
8 591 474 360 473 475 361 256 363
8 475 361 256 363 594 477 362 479
8 363 256 364 482 479 362 480 603
8 590 473 365 484 481 363 482 605
8 482 364 257 365 606 483 366 485
8 559 452 367 486 484 365 485 607
8 542 436 487 609 422 324 369 488
8 525 422 488 611 407 311 371 491
8 488 369 489 612 371 261 370 490
8 491 371 490 613 373 263 372 492
8 495 386 276 377 614 503 385 493
8 614 503 385 493 561 457 342 442
8 615 501 383 494 495 386 276 377
8 496 384 274 378 615 501 383 494
8 618 500 382 497 496 384 274 378
8 619 499 381 498 497 382 272 379
8 511 408 297 393 619 499 381 498
8 620 505 387 499 500 388 278 382
8 527 424 312 408 620 505 387 499
8 502 390 506 621 384 280 388 500
8 622 507 389 501 504 392 282 386
8 502 390 280 384 622 507 389 501
8 504 392 282 386 624 509 391 503
8 624 509 391 503 575 468 354 457
8 513 410 299 395 630 527 408 511
8 631 528 411 514 512 409 300 396
8 513 410 528 631 395 299 409 512
8 519 416 305 401 633 530 411 514
8 634 531 412 515 516 413 302 398
8 523 420 309 405 634 531 412 515
8 635 532 413 516 517 414 303 399
8 521 417 533 636 403 306 414 517
8 520 418 307 402 637 534 415 518
8 519 416 534 637 401 305 415 518
8 522 419 308 404 639 537 418 520
8 522 419 536 640 404 308 417 521
8 524 421 310 406 642 539 420 523
8 524 421 541 644 406 310 423 526
8 646 543 422 525 526 423 311 407
8 529 426 314 410 647 544 424 527
8 528 425 545 648 411 315 427 530
8 529 426 545 648 410 314 425 528
8 535 429 317 416 649 546 427 530
8 650 548 430 531 532 432 320 413
8 539 438 325 420 650 548 430 531
8 533 433 550 651 414 321 432 532
8 536 434 551 652 417 322 433 533
8 537 431 319 418 653 547 428 534
8 535 429 547 653 416 317 428 534
8 538 435 552 654 419 323 434 536
8 538 435 323 419 655 549 431 537
8 540 440 327 421 657 556 438 539
8 540 440 557 659 421 327 439 541
8 541 439 555 660 423 326 437 543
8 661 554 436 542 543 437 324 422
8 676 570 452 559 590 473 365 484
8 560 453 338 441 676 570 452 559
8 562 455 340 443 677 571 453 560
8 447 344 459 566 561 457 575 678
8 564 456 341 445 679 573 455 562
8 567 460 345 448 680 572 454 563
8 680 572 454 563 564 456 341 445
8 565 458 576 682 447 344 459 566
8 450 346 461 569 565 458 576 682
8 568 462 347 449 684 578 460 567
8 451 348 462 568 569 461 579 685
8 686 580 463 570 591 474 360 473
8 571 464 350 453 686 580 463 570
8 573 466 352 455 687 581 464 571
8 572 465 582 688 460 357 471 578
8 574 467 582 688 456 353 465 572
8 574 467 353 456 689 583 466 573
8 459 356 470 577 575 468 585 691
8 576 469 586 692 459 356 470 577
8 461 358 472 579 576 469 586 692
8 462 359 471 578 579 472 588 694
8 704 591 473 590 593 475 363 481
8 595 476 592 705 475 361 474 591
8 593 475 363 481 707 594 479 602
8 594 477 362 479 709 598 478 600
8 595 476 361 475 711 597 477 594
8 479 362 480 603 600 478 601 720
8 481 363 482 605 602 479 603 722
8 603 480 364 482 723 604 483 606
8 605 482 365 484 724 606 485 607
8 656 553 608 726 542 436 487 609
8 645 542 609 728 525 422 488 611
8 609 487 610 729 488 369 489 612
8 611 488 612 730 491 371 490 613
8 616 504 386 495 731 624 503 614
8 731 624 503 614 678 575 457 561
8 732 622 501 615 616 504 386 495
8 617 502 384 496 732 622 501 615
8 617 502 621 735 496 384 500 618
8 736 620 499 619 618 500 382 497
8 630 527 408 511 736 620 499 619
8 621 506 626 737 500 388 505 620
8 647 544 424 527 737 626 505 620
8 623 508 627 738 502 390 506 621
8 623 508 390 502 739 628 507 622
8 625 510 628 739 504 392 507 622
8 740 629 509 624 691 585 468 575
8 625 510 392 504 740 629 509 624
8 632 529 410 513 744 647 527 630
8 631 528 648 745 514 411 530 633
8 632 529 648 745 513 410 528 631
8 638 535 416 519 746 649 530 633
8 747 650 531 634 635 532 413 516
8 642 539 420 523 747 650 531 634
8 636 533 651 748 517 414 532 635
8 640 536 652 749 521 417 533 636
8 639 537 418 520 750 653 534 637
8 638 535 653 750 519 416 534 637
8 641 538 419 522 751 655 537 639
8 641 538 654 752 522 419 536 640
8 643 540 421 524 753 657 539 642
8 643 540 659 755 524 421 541 644
8 644 541 660 757 526 423 543 646
8 758 661 542 645 646 543 422 525
8 529 426 544 647 648 545 662 759
8 530 427 545 648 649 546 663 760
8 535 429 546 649 653 547 664 761
8 762 666 548 650 651 550 432 532
8 657 556 438 539 762 666 548 650
8 652 551 668 763 533 433 550 651
8 654 552 669 764 536 434 551 652
8 655 549 431 537 765 665 547 653
8 538 435 549 655 654 552 667 766
8 661 554 671 768 542 436 553 656
8 658 558 440 540 769 674 556 657
8 658 558 675 770 540 440 557 659
8 659 557 673 771 541 439 555 660
8 660 555 672 772 543 437 554 661
8 788 686 570 676 704 591 473 590
8 677 571 453 560 788 686 570 676
8 679 573 455 562 789 687 571 677
8 566 459 577 683 678 575 691 790
8 681 574 456 564 791 689 573 679
8 680 572 688 792 567 460 578 684
8 681 574 688 792 564 456 572 680
8 682 576 692 794 566 459 577 683
8 569 461 579 685 682 576 692 794
8 568 462 578 684 685 579 694 796
8 687 581 464 571 798 696 580 686
8 798 696 580 686 705 592 474 591
8 689 583 466 573 799 697 581 687
8 688 582 698 800 578 471 588 694
8 690 584 698 800 574 467 582 688
8 690 584 467 574 801 699 583 689
8 693 587 701 803 577 470 585 691
8 693 587 470 577 804 702 586 692
8 695 589 702 804 579 472 586 692
8 695 589 472 579 805 703 588 694
8 708 595 705 813 593 475 591 704
8 710 596 706 814 595 476 592 705
8 707 594 479 602 816 709 600 719
8 708 595 475 593 817 711 594 707
8 709 598 478 600 819 715 599 717
8 711 597 477 594 820 714 598 709
8 710 596 476 595 822 713 597 711
8 600 478 601 720 717 599 718 832
8 602 479 603 722 719 600 720 834
8 720 601 480 603 835 721 604 723
8 722 603 482 605 836 723 606 724
8 767 670 725 839 656 553 608 726
8 756 656 726 841 645 542 609 728
8 726 608 727 842 609 487 610 729
8 728 609 729 843 611 488 612 730
8 844 740 624 731 790 691 575 678
8 733 625 504 616 844 740 624 731
8 734 623 502 617 845 739 622 732
8 733 625 739 845 616 504 622 732
8 734 623 738 846 617 502 621 735
8 735 621 737 847 618 500 620 736
8 744 647 527 630 847 737 620 736
8 621 506 627 738 737 626 741 848
8 647 544 626 737 759 662 741 848
8 623 508 628 739 738 627 742 849
8 740 629 585 691 850 743 700 802
8 625 510 629 740 739 628 743 850
8 632 529 647 744 745 648 759 854
8 633 530 648 745 746 649 760 855
8 638 535 649 746 750 653 761 856
8 857 762 650 747 748 651 532 635
8 753 657 539 642 857 762 650 747
8 749 652 763 858 636 533 651 748
8 752 654 764 859 640 536 652 749
8 751 655 537 639 860 765 653 750
8 641 538 655 751 752 654 766 861
8 754 658 540 643 862 769 657 753
8 754 658 770 863 643 540 659 755
8 755 659 771 864 644 541 660 757
8 758 661 768 866 645 542 656 756
8 757 660 772 867 646 543 661 758
8 759 662 773 868 648 545 663 760
8 649 546 663 760 761 664 774 871
8 765 665 547 653 872 775 664 761
8 873 777 666 762 763 668 550 651
8 769 674 556 657 873 777 666 762
8 764 669 779 874 652 551 668 763
8 654 552 667 766 764 669 778 875
8 655 549 665 765 766 667 776 876
8 768 671 782 877 656 553 670 767
8 772 672 783 878 661 554 671 768
8 658 558 674 769 770 675 786 879
8 659 557 675 770 771 673 785 881
8 882 784 672 772 771 673 555 660
8 789 687 571 677 897 798 686 788
8 897 798 686 788 813 705 591 704
8 791 689 573 679 898 799 687 789
8 795 693 803 900 683 577 691 790
8 793 690 574 681 901 801 689 791
8 792 688 800 902 684 578 694 796
8 793 690 800 902 681 574 688 792
8 795 693 577 683 903 804 692 794
8 797 695 804 903 685 579 692 794
8 797 695 579 685 904 805 694 796
8 905 806 697 799 798 696 581 687
8 814 706 806 905 705 592 696 798
8 689 583 697 799 801 699 808 907
8 800 698 809 908 694 588 703 805
8 690 584 699 801 800 698 809 908
8 803 701 810 909 691 585 700 802
8 693 587 702 804 803 701 811 910
8 695 589 703 805 804 702 812 911
8 818 710 814 919 708 595 705 813
8 821 712 815 920 710 596 706 814
8 816 709 600 719 922 819 717 831
8 817 711 594 707 923 820 709 816
8 818 710 595 708 924 822 711 817
8 819 715 599 717 926 827 716 829
8 820 714 598 709 927 826 715 819
8 929 825 713 822 820 714 597 711
8 821 712 596 710 930 824 713 822
8 717 599 718 832 829 716 830 942
8 719 600 720 834 831 717 832 944
8 832 718 601 720 945 833 721 835
8 834 720 603 722 946 835 723 836
8 869 780 838 950 767 670 725 839
8 865 767 839 952 756 656 726 841
8 839 725 840 953 726 608 727 842
8 841 726 842 954 728 609 729 843
8 844 740 691 790 955 850 802 899
8 733 625 740 844 845 739 850 955
8 734 623 739 845 846 738 849 956
8 735 621 738 846 847 737 848 957
8 744 647 737 847 854 759 848 957
8 738 627 742 849 848 741 851 958
8 848 741 851 958 759 662 773 868
8 850 743 700 802 959 852 807 906
8 849 742 628 739 959 852 743 850
8 854 759 868 965 745 648 760 855
8 746 649 760 855 856 761 871 966
8 860 765 653 750 967 872 761 856
8 968 873 762 857 858 763 651 748
8 862 769 657 753 968 873 762 857
8 859 764 874 969 749 652 763 858
8 752 654 766 861 859 764 875 970
8 751 655 765 860 861 766 876 971
8 754 658 769 862 863 770 879 972
8 755 659 770 863 864 771 881 974
8 976 882 772 867 864 771 660 757
8 866 768 877 977 756 656 767 865
8 867 772 878 978 758 661 768 866
8 760 663 773 868 871 774 883 980
8 870 781 837 948 982 890 780 869
8 982 890 780 869 877 782 670 767
8 761 664 774 871 872 775 884 984
8 876 776 665 765 985 885 775 872
8 873 777 668 763 986 887 779 874
8 769 674 777 873 879 786 887 986
8 764 669 778 875 874 779 888 987
8 766 667 776 876 875 778 886 988
8 878 783 892 989 768 671 782 877
8 878 783 672 772 990 893 784 882
8 880 787 675 770 991 896 786 879
8 880 787 895 992 770 675 785 881
8 881 785 894 993 771 673 784 882
8 1006 905 799 898 897 798 687 789
8 919 814 905 1006 813 705 798 897
8 791 689 799 898 901 801 907 1007
8 900 803 909 1009 790 691 802 899
8 795 693 804 903 900 803 910 1010
8 902 800 908 1011 796 694 805 904
8 793 690 801 901 902 800 908 1011
8 797 695 805 904 903 804 911 1012
8 799 697 806 905 907 808 912 1013
8 920 815 912 1013 814 706 806 905
8 802 700 810 909 906 807 913 1014
8 801 699 808 907 908 809 914 1015
8 805 703 809 908 911 812 915 1016
8 803 701 811 910 909 810 916 1017
8 911 812 917 1018 804 702 811 910
8 925 821 920 1030 818 710 814 919
8 928 823 921 1031 821 712 815 920
8 922 819 717 831 1033 926 829 941
8 923 820 709 816 1034 927 819 922
8 1035 929 822 924 923 820 711 817
8 925 821 710 818 1036 930 822 924
8 1038 933 825 929 927 826 714 820
8 926 827 716 829 1039 935 828 939
8 927 826 715 819 1040 934 827 926
8 928 823 712 821 1041 931 824 930
8 1042 932 824 930 929 825 713 822
8 829 716 830 942 939 828 940 1058
8 831 717 832 944 941 829 942 1060
8 942 830 718 832 1061 943 833 945
8 944 832 720 834 1062 945 835 946
8 981 889 947 1064 870 781 837 948
8 948 837 949 1067 869 780 838 950
8 975 869 950 1069 865 767 839 952
8 950 838 951 1070 839 725 840 953
8 952 839 953 1071 841 726 842 954
8 955 850 802 899 1072 959 906 1008
8 956 849 739 845 1072 959 850 955
8 846 738 849 956 957 848 958 1073
8 957 848 958 1073 854 759 868 965
8 849 742 852 959 958 851 961 1076
8 960 853 961 1076 906 807 852 959
8 958 851 961 1076 868 773 883 980
8 960 853 807 906 1077 963 913 1014
8 855 760 868 965 966 871 980 1085
8 856 761 871 966 967 872 984 1086
8 971 876 765 860 1087 985 872 967
8 968 873 763 858 1088 986 874 969
8 862 769 873 968 972 879 986 1088
8 859 764 875 970 969 874 987 1089
8 861 766 876 971 970 875 988 1090
8 973 880 770 863 1091 991 879 972
8 973 880 992 1092 863 770 881 974
8 974 881 993 1093 864 771 882 976
8 979 870 948 1066 1094 982 869 975
8 1094 982 869 975 977 877 767 865
8 978 878 772 867 1095 990 882 976
8 978 878 989 1096 866 768 877 977
8 871 774 883 980 984 884 994 1099
8 983 891 999 1100 870 781 889 981
8 1101 1000 890 982 989 892 782 877
8 983 891 781 870 1101 1000 890 982
8 872 775 884 984 985 885 995 1103
8 876 776 885 985 988 886 996 1104
8 986 887 779 874 1105 998 888 987
8 879 786 887 986 991 896 998 1105
8 875 778 886 988 987 888 997 1106
8 990 893 1002 1107 878 783 892 989
8 1108 1003 893 990 993 894 784 882
8 880 787 896 991 992 895 1005 1109
8 993 894 785 881 1110 1004 895 992
8 898 799 905 1006 1007 907 1013 1120
8 1030 920 1013 1120 919 814 905 1006
8 901 801 907 1007 1011 908 1015 1121
8 899 802 909 1009 1008 906 1014 1122
8 900 803 910 1010 1009 909 1017 1123
8 1012 911 1018 1124 903 804 910 1010
8 904 805 908 1011 1012 911 1016 1125
8 1013 912 1020 1127 907 808 914 1015
8 1031 921 1020 1127 920 815 912 1013
8 1019 918 962 1075 1128 1021 913 1014
8 1128 1021 913 1014 1017 916 810 909
8 1015 914 1022 1129 908 809 915 1016
8 1016 915 1023 1130 911 812 917 1018
8 1018 917 1024 1131 910 811 916 1017
8 1037 928 1031 1148 925 821 920 1030
8 928 823 931 1041 1031 921 1032 1149
8 1033 926 829 941 1151 1039 939 1057
8 1034 927 819 922 1152 1040 926 1033
8 1153 1038 929 1035 1034 927 820 923
8 1154 1042 930 1036 1035 929 822 924
8 1037 928 821 925 1155 1041 930 1036
8 1039 935 828 939 1156 1047 938 1055
8 1157 1043 932 1042 1038 933 825 929
8 1038 933 826 927 1158 1045 934 1040
8 1040 934 827 926 1159 1046 935 1039
8 930 824 932 1042 1041 931 1044 1160
8 1051 936 1048 1165 1175 1052 937 1053
8 1156 1047 938 1055 1053 937 1054 1178
8 939 828 940 1058 1055 938 1056 1181
8 941 829 942 1060 1057 939 1058 1183
8 942 830 943 1061 1058 940 1059 1184
8 1060 942 832 944 1185 1061 945 1062
8 1082 964 1063 1188 981 889 947 1064
8 1097 981 1064 1190 979 870 948 1066
8 1064 947 1065 1191 948 837 949 1067
8 1066 948 1067 1193 975 869 950 1069
8 1067 949 1068 1194 950 838 951 1070
8 1069 950 1070 1195 952 839 953 1071
8 956 849 959 1072 1073 958 1076 1197
8 1074 960 1076 1197 1008 906 959 1072
8 1073 958 1076 1197 965 868 980 1085
8 1074 960 906 1008 1198 1077 1014 1122
8 1133 1026 1079 1199 1019 918 962 1075
8 1077 963 913 1014 1200 1080 962 1075
8 960 853 963 1077 1076 961 1078 1201
8 980 883 961 1076 1099 994 1078 1201
8 1210 1083 964 1082 1100 999 889 981
8 966 871 980 1085 1086 984 1099 1215
8 967 872 984 1086 1087 985 1103 1216
8 971 876 985 1087 1090 988 1104 1217
8 1088 986 874 969 1218 1105 987 1089
8 972 879 986 1088 1091 991 1105 1218
8 970 875 988 1090 1089 987 1106 1219
8 973 880 991 1091 1092 992 1109 1220
8 1093 993 881 974 1221 1110 992 1092
8 1222 1108 990 1095 1093 993 882 976
8 1223 1101 982 1094 1096 989 877 977
8 1098 983 870 979 1223 1101 982 1094
8 1095 990 1107 1224 978 878 989 1096
8 1098 983 1100 1225 979 870 981 1097
8 984 884 994 1099 1103 995 1111 1227
8 1102 1001 1115 1228 983 891 999 1100
8 1101 1000 892 989 1229 1116 1002 1107
8 1102 1001 891 983 1229 1116 1000 1101
8 985 885 995 1103 1104 996 1112 1230
8 988 886 996 1104 1106 997 1113 1231
8 1105 998 888 987 1232 1114 997 1106
8 991 896 998 1105 1109 1005 1114 1232
8 1108 1003 1117 1233 990 893 1002 1107
8 1108 1003 894 993 1233 1117 1004 1110
8 992 895 1005 1109 1110 1004 1118 1234
8 1120 1013 1127 1244 1007 907 1015 1121
8 1148 1031 1127 1244 1030 920 1013 1120
8 1121 1015 1129 1245 1011 908 1016 1125
8 1126 1019 1075 1196 1246 1128 1014 1122
8 1246 1128 1014 1122 1123 1017 909 1009
8 1124 1018 1131 1247 1010 910 1017 1123
8 1125 1016 1130 1248 1012 911 1018 1124
8 1127 1020 1137 1254 1015 914 1022 1129
8 1031 921 1032 1149 1127 1020 1137 1254
8 1134 1027 918 1019 1257 1140 1021 1128
8 1257 1140 1021 1128 1131 1024 916 1017
8 1129 1022 1141 1258 1016 915 1023 1130
8 1130 1023 1142 1259 1018 917 1024 1131
8 1261 1144 1025 1132 1133 1026 1079 1199
8 1255 1138 1025 1132 1135 1028 1144 1261
8 1133 1026 918 1019 1262 1145 1027 1134
8 1136 1029 1139 1256 1263 1146 1028 1135
8 1037 928 1041 1155 1148 1031 1149 1275
8 1041 931 1044 1160 1149 1032 1150 1276
8 1151 1039 939 1057 1278 1156 1055 1180
8 1152 1040 926 1033 1279 1159 1039 1151
8 1153 1038 927 1034 1280 1158 1040 1152
8 1281 1157 1042 1154 1153 1038 929 1035
8 1036 930 1042 1154 1155 1041 1160 1282
8 1283 1164 1046 1159 1156 1047 935 1039
8 1165 1048 1164 1283 1053 937 1047 1156
8 1157 1043 933 1038 1284 1161 1045 1158
8 1157 1043 1161 1284 1042 932 1044 1160
8 1040 934 1046 1159 1158 1045 1163 1285
8 1166 1049 1167 1292 1051 936 1048 1165
8 1166 1049 936 1051 1293 1168 1050 1172
8 1051 936 1052 1175 1172 1050 1173 1306
8 1174 1051 1165 1290 1308 1175 1053 1177
8 1053 937 1054 1178 1175 1052 1176 1309
8 1278 1156 1055 1180 1177 1053 1178 1311
8 1055 938 1056 1181 1178 1054 1179 1312
8 1057 939 1058 1183 1180 1055 1181 1314
8 1058 940 1059 1184 1181 1056 1182 1315
8 1060 942 1061 1185 1183 1058 1184 1316
8 1208 1081 1187 1321 1082 964 1063 1188
8 1209 1082 1188 1322 1097 981 1064 1190
8 1188 1063 1189 1323 1064 947 1065 1191
8 1190 1064 1191 1325 1066 948 1067 1193
8 1191 1065 1192 1326 1067 949 1068 1194
8 1067 1193 1069 950 1194 1327 1195 1070
8 1250 1133 1199 1330 1126 1019 1075 1196
8 1198 1077 1014 1122 1331 1200 1075 1196
8 1074 960 1077 1198 1197 1076 1201 1332
8 1085 980 1076 1197 1215 1099 1201 1332
8 1199 1079 1203 1333 1075 962 1080 1200
8 1132 1025 1119 1243 1199 1079 1203 1333
8 1201 1078 963 1077 1334 1202 1080 1200
8 1099 994 1078 1201 1227 1111 1202 1334
8 1343 1207 1081 1208 1210 1083 964 1082
8 1214 1084 1186 1319 1343 1207 1081 1208
8 1345 1210 1082 1209 1225 1100 981 1097
8 1346 1211 1083 1210 1228 1115 999 1100
8 1086 984 1099 1215 1216 1103 1227 1352
8 1087 985 1103 1216 1217 1104 1230 1353
8 1090 988 1104 1217 1219 1106 1231 1354
8 1218 1105 987 1089 1355 1232 1106 1219
8 1091 991 1105 1218 1220 1109 1232 1355
8 1092 992 1109 1220 1221 1110 1234 1356
8 1222 1108 1233 1357 1095 990 1107 1224
8 1222 1108 993 1093 1357 1233 1110 1221
8 1223 1101 989 1096 1358 1229 1107 1224
8 1226 1102 983 1098 1358 1229 1101 1223
8 1226 1102 1228 1359 1098 983 1100 1225
8 1103 995 1111 1227 1230 1112 1235 1360
8 1107 1002 1117 1233 1229 1116 1240 1362
8 1102 1001 1116 1229 1228 1115 1240 1362
8 1104 996 1112 1230 1231 1113 1236 1363
8 1364 1237 1114 1232 1231 1113 997 1106
8 1109 1005 1114 1232 1234 1118 1238 1365
8 1110 1004 1118 1234 1233 1117 1241 1366
8 1242 1374 1255 1138 1119 1243 1132 1025
8 1244 1127 1254 1376 1121 1015 1129 1245
8 1148 1031 1149 1275 1244 1127 1254 1376
8 1245 1129 1258 1377 1125 1016 1130 1248
8 1251 1134 1019 1126 1378 1257 1128 1246
8 1378 1257 1128 1246 1247 1131 1017 1123
8 1248 1130 1259 1379 1124 1018 1131 1247
8 1261 1381 1250 1133 1132 1249 1330 1199
8 1255 1380 1252 1135 1132 1249 1381 1261
8 1250 1133 1019 1126 1382 1262 1134 1251
8 1253 1136 1256 1385 1384 1263 1135 1252
8 1254 1137 1265 1387 1129 1022 1141 1258
8 1149 1032 1150 1276 1254 1137 1265 1387
8 1028 1135 1255 1138 1139 1256 1388 1266
8 1136 1029 1147 1264 1256 1139 1267 1389
8 1390 1268 1140 1257 1259 1142 1024 1131
8 1260 1143 1027 1134 1390 1268 1140 1257
8 1258 1141 1269 1391 1130 1023 1142 1259
8 1262 1145 1027 1134 1393 1271 1143 1260
8 1261 1144 1026 1133 1394 1272 1145 1262
8 1135 1028 1144 1261 1263 1146 1272 1394
8 1136 1029 1146 1263 1264 1147 1273 1395
8 1155 1041 1160 1282 1275 1149 1276 1405
8 1276 1150 1044 1160 1406 1277 1162 1286
8 1408 1283 1159 1279 1278 1156 1039 1151
8 1290 1165 1283 1408 1177 1053 1156 1278
8 1152 1040 1159 1279 1280 1158 1285 1409
8 1281 1157 1038 1153 1410 1284 1158 1280
8 1281 1157 1284 1410 1154 1042 1160 1282
8 1159 1046 1164 1283 1285 1163 1289 1412
8 1292 1167 1289 1412 1165 1048 1164 1283
8 1158 1045 1163 1285 1284 1161 1288 1413
8 1284 1161 1288 1413 1160 1044 1162 1286
8 1291 1166 1292 1418 1174 1051 1165 1290
8 1291 1166 1051 1174 1419 1293 1172 1305
8 1294 1169 1296 1421 1166 1049 1167 1292
8 1293 1168 1050 1172 1422 1295 1171 1303
8 1294 1169 1049 1166 1423 1297 1168 1293
8 1422 1295 1171 1303 1301 1170 1302 1435
8 1172 1050 1173 1306 1303 1171 1304 1438
8 1174 1051 1175 1308 1305 1172 1306 1440
8 1175 1052 1176 1309 1306 1173 1307 1441
8 1177 1053 1178 1311 1308 1175 1309 1443
8 1178 1054 1179 1312 1309 1176 1310 1444
8 1180 1055 1181 1314 1311 1178 1312 1446
8 1056 1181 1312 1179 1182 1315 1447 1313
8 1183 1058 1184 1316 1314 1181 1315 1448
8 1319 1186 1084 1214 1451 1317 1213 1350
8 1319 1186 1318 1453 1208 1081 1187 1321
8 1321 1187 1320 1456 1188 1063 1189 1323
8 1344 1208 1321 1457 1209 1082 1188 1322
8 1322 1188 1323 1458 1190 1064 1191 1325
8 1323 1189 1324 1459 1191 1065 1192 1326
8 1191 1325 1193 1067 1326 1460 1327 1194
8 1242 1374 1243 1119 1328 1462 1335 1204
8 1330 1199 1333 1465 1196 1075 1200 1331
8 1132 1249 1330 1199 1243 1375 1465 1333
8 1332 1201 1077 1198 1466 1334 1200 1331
8 1215 1099 1201 1332 1352 1227 1334 1466
8 1119 1243 1333 1203 1204 1335 1470 1338
8 1333 1203 1338 1470 1200 1080 1202 1334
8 1227 1111 1202 1334 1360 1235 1338 1470
8 1328 1462 1335 1204 1205 1336 1471 1339
8 1337 1206 1340 1472 1464 1329 1205 1336
8 1346 1211 1342 1479 1210 1083 1207 1343
8 1346 1211 1115 1228 1479 1342 1239 1361
8 1348 1212 1084 1214 1479 1342 1207 1343
8 1480 1343 1208 1344 1345 1210 1082 1209
8 1351 1214 1319 1454 1480 1343 1208 1344
8 1481 1346 1210 1345 1359 1228 1100 1225
8 1348 1212 1347 1483 1214 1084 1213 1350
8 1216 1103 1227 1352 1353 1230 1360 1488
8 1217 1104 1230 1353 1354 1231 1363 1489
8 1490 1364 1232 1355 1354 1231 1106 1219
8 1220 1109 1232 1355 1356 1234 1365 1491
8 1221 1110 1234 1356 1357 1233 1366 1492
8 1224 1107 1233 1357 1358 1229 1362 1493
8 1226 1102 1229 1358 1359 1228 1362 1493
8 1230 1112 1235 1360 1363 1236 1367 1496
8 1361 1239 1115 1228 1497 1371 1240 1362
8 1366 1241 1372 1498 1233 1117 1240 1362
8 1364 1237 1113 1231 1499 1368 1236 1363
8 1364 1237 1368 1499 1232 1114 1238 1365
8 1234 1118 1238 1365 1366 1241 1369 1500
8 1507 1373 1242 1374 1388 1266 1138 1255
8 1508 1374 1243 1375 1380 1255 1132 1249
8 1376 1254 1387 1509 1245 1129 1258 1377
8 1275 1149 1276 1405 1376 1254 1387 1509
8 1377 1258 1391 1510 1248 1130 1259 1379
8 1511 1390 1257 1378 1379 1259 1131 1247
8 1383 1260 1134 1251 1511 1390 1257 1378
8 1252 1135 1256 1385 1380 1255 1388 1512
8 1261 1381 1513 1394 1133 1250 1382 1262
8 1135 1252 1384 1263 1261 1381 1513 1394
8 1382 1262 1134 1251 1514 1393 1260 1383
8 1253 1136 1263 1384 1386 1264 1395 1516
8 1253 1136 1264 1386 1385 1256 1389 1517
8 1387 1265 1397 1519 1258 1141 1269 1391
8 1276 1150 1277 1406 1387 1265 1397 1519
8 1256 1139 1267 1389 1388 1266 1398 1520
8 1264 1147 1274 1396 1389 1267 1399 1521
8 1392 1270 1143 1260 1522 1400 1268 1390
8 1390 1268 1142 1259 1522 1400 1269 1391
8 1392 1270 1401 1523 1260 1143 1271 1393
8 1272 1394 1524 1402 1145 1262 1393 1271
8 1395 1273 1146 1263 1524 1402 1272 1394
8 1273 1395 1264 1147 1403 1526 1396 1274
8 1405 1276 1160 1282 1534 1406 1286 1411
8 1414 1287 1407 1535 1286 1162 1277 1406
8 1279 1159 1283 1408 1409 1285 1412 1537
8 1418 1292 1412 1537 1290 1165 1283 1408
8 1280 1158 1285 1409 1410 1284 1413 1538
8 1410 1284 1413 1538 1282 1160 1286 1411
8 1285 1163 1289 1412 1413 1288 1417 1540
8 1421 1296 1417 1540 1292 1167 1289 1412
8 1414 1287 1162 1286 1541 1416 1288 1413
8 1420 1294 1421 1545 1291 1166 1292 1418
8 1419 1293 1172 1305 1546 1422 1303 1437
8 1420 1294 1166 1291 1547 1423 1293 1419
8 1294 1169 1297 1423 1421 1296 1425 1548
8 1423 1297 1168 1293 1549 1424 1295 1422
8 1301 1170 1298 1427 1422 1295 1424 1549
8 1432 1300 1428 1554 1301 1170 1298 1427
8 1431 1299 1428 1554 1560 1430 1300 1432
8 1563 1433 1300 1432 1435 1302 1170 1301
8 1546 1422 1303 1437 1434 1301 1435 1565
8 1303 1171 1304 1438 1435 1302 1436 1566
8 1305 1172 1306 1440 1437 1303 1438 1568
8 1306 1173 1307 1441 1438 1304 1439 1569
8 1308 1175 1309 1443 1440 1306 1441 1571
8 1309 1176 1310 1444 1441 1307 1442 1572
8 1311 1178 1312 1446 1443 1309 1444 1574
8 1179 1312 1444 1310 1313 1447 1575 1445
8 1314 1181 1315 1448 1446 1312 1447 1576
8 1350 1213 1349 1486 1451 1317 1449 1579
8 1451 1317 1450 1581 1319 1186 1318 1453
8 1454 1319 1214 1351 1582 1451 1350 1487
8 1453 1318 1452 1584 1321 1187 1320 1456
8 1454 1319 1453 1585 1344 1208 1321 1457
8 1456 1320 1455 1586 1323 1189 1324 1459
8 1457 1321 1456 1587 1322 1188 1323 1458
8 1458 1323 1459 1588 1325 1191 1326 1460
8 1205 1336 1464 1329 1328 1462 1590 1461
8 1507 1373 1461 1590 1374 1242 1328 1462
8 1508 1374 1462 1591 1375 1243 1335 1467
8 1337 1206 1329 1464 1473 1341 1463 1594
8 1375 1243 1335 1467 1465 1333 1470 1596
8 1465 1333 1470 1596 1331 1200 1334 1466
8 1352 1227 1334 1466 1488 1360 1470 1596
8 1591 1462 1336 1468 1467 1335 1471 1597
8 1469 1337 1472 1598 1595 1464 1336 1468
8 1471 1339 1474 1600 1335 1204 1338 1470
8 1600 1474 1367 1496 1470 1338 1235 1360
8 1336 1205 1340 1472 1471 1339 1475 1601
8 1337 1206 1341 1473 1472 1340 1476 1602
8 1495 1370 1478 1609 1361 1239 1342 1479
8 1348 1212 1342 1479 1483 1347 1478 1609
8 1481 1346 1479 1610 1345 1210 1343 1480
8 1481 1346 1228 1359 1610 1479 1361 1494
8 1484 1348 1214 1351 1610 1479 1343 1480
8 1483 1347 1482 1612 1350 1213 1349 1486
8 1484 1348 1483 1613 1351 1214 1350 1487
8 1353 1230 1360 1488 1489 1363 1496 1616
8 1490 1364 1231 1354 1617 1499 1363 1489
8 1490 1364 1499 1617 1355 1232 1365 1491
8 1356 1234 1365 1491 1492 1366 1500 1619
8 1492 1366 1498 1620 1357 1233 1362 1493
8 1494 1361 1228 1359 1621 1497 1362 1493
8 1495 1370 1239 1361 1622 1504 1371 1497
8 1363 1236 1367 1496 1499 1368 1501 1623
8 1497 1371 1240 1362 1624 1505 1372 1498
8 1625 1503 1372 1498 1500 1369 1241 1366
8 1365 1238 1368 1499 1500 1369 1502 1626
8 1520 1398 1506 1633 1388 1266 1373 1507
8 1634 1507 1374 1508 1512 1388 1255 1380
8 1509 1387 1519 1635 1377 1258 1391 1510
8 1405 1276 1406 1534 1509 1387 1519 1635
8 1515 1392 1260 1383 1636 1522 1390 1511
8 1511 1390 1259 1379 1636 1522 1391 1510
8 1385 1256 1389 1517 1512 1388 1520 1637
8 1513 1394 1262 1382 1638 1524 1393 1514
8 1395 1516 1638 1524 1263 1384 1513 1394
8 1515 1392 1523 1639 1383 1260 1393 1514
8 1516 1395 1526 1640 1386 1264 1396 1518
8 1386 1264 1396 1518 1517 1389 1521 1641
8 1519 1397 1527 1643 1391 1269 1400 1522
8 1535 1407 1527 1643 1406 1277 1397 1519
8 1389 1267 1399 1521 1520 1398 1528 1644
8 1645 1529 1399 1521 1525 1404 1274 1396
8 1392 1270 1400 1522 1523 1401 1531 1646
8 1524 1402 1271 1393 1648 1532 1401 1523
8 1403 1526 1648 1532 1273 1395 1524 1402
8 1525 1404 1274 1396 1649 1533 1403 1526
8 1539 1414 1535 1657 1411 1286 1406 1534
8 1542 1415 1536 1658 1414 1287 1407 1535
8 1409 1285 1412 1537 1538 1413 1540 1660
8 1545 1421 1540 1660 1418 1292 1412 1537
8 1539 1414 1286 1411 1661 1541 1413 1538
8 1540 1417 1544 1663 1413 1288 1416 1541
8 1421 1296 1425 1548 1540 1417 1544 1663
8 1542 1415 1287 1414 1664 1543 1416 1541
8 1420 1294 1423 1547 1545 1421 1548 1666
8 1547 1423 1293 1419 1667 1549 1422 1546
8 1434 1301 1427 1553 1546 1422 1549 1667
8 1423 1297 1424 1549 1548 1425 1550 1668
8 1551 1426 1550 1668 1427 1298 1424 1549
8 1551 1426 1298 1427 1671 1552 1428 1554
8 1562 1432 1554 1674 1434 1301 1427 1553
8 1431 1299 1429 1558 1554 1428 1555 1675
8 1431 1299 1430 1560 1558 1429 1557 1680
8 1560 1430 1300 1432 1683 1559 1433 1563
8 1561 1431 1554 1674 1684 1560 1432 1562
8 1685 1563 1432 1562 1565 1435 1301 1434
8 1435 1302 1436 1566 1563 1433 1564 1686
8 1437 1303 1438 1568 1565 1435 1566 1688
8 1438 1304 1439 1569 1566 1436 1567 1689
8 1440 1306 1441 1571 1568 1438 1569 1691
8 1441 1307 1442 1572 1569 1439 1570 1692
8 1443 1309 1444 1574 1571 1441 1572 1694
8 1310 1444 1572 1442 1445 1575 1695 1573
8 1446 1312 1447 1576 1574 1444 1575 1696
8 1486 1349 1485 1614 1579 1449 1577 1699
8 1451 1317 1449 1579 1581 1450 1578 1701
8 1487 1350 1486 1615 1582 1451 1579 1702
8 1581 1450 1580 1704 1453 1318 1452 1584
8 1582 1451 1581 1705 1454 1319 1453 1585
8 1584 1452 1583 1706 1456 1320 1455 1586
8 1585 1453 1584 1707 1457 1321 1456 1587
8 1587 1456 1586 1708 1458 1323 1459 1588
8 1633 1506 1589 1710 1507 1373 1461 1590
8 1464 1329 1461 1590 1594 1463 1589 1710
8 1468 1336 1462 1591 1595 1464 1590 1711
8 1634 1507 1590 1711 1508 1374 1462 1591
8 1473 1341 1463 1594 1603 1477 1593 1716
8 1469 1337 1464 1595 1599 1473 1594 1717
8 1471 1597 1467 1335 1600 1718 1596 1470
8 1718 1600 1496 1616 1596 1470 1360 1488
8 1336 1468 1597 1471 1472 1598 1719 1601
8 1469 1337 1473 1599 1598 1472 1602 1720
8 1722 1604 1501 1623 1600 1474 1367 1496
8 1475 1601 1471 1339 1604 1722 1600 1474
8 1602 1476 1605 1723 1472 1340 1475 1601
8 1476 1602 1724 1606 1341 1473 1603 1477
8 1483 1347 1478 1609 1612 1482 1608 1731
8 1495 1370 1504 1622 1609 1478 1608 1731
8 1618 1495 1609 1732 1494 1361 1479 1610
8 1484 1348 1479 1610 1613 1483 1609 1732
8 1486 1349 1482 1612 1614 1485 1611 1733
8 1613 1483 1612 1734 1487 1350 1486 1615
8 1489 1363 1496 1616 1617 1499 1623 1736
8 1491 1365 1499 1617 1619 1500 1626 1737
8 1618 1495 1361 1494 1738 1622 1497 1621
8 1739 1625 1498 1620 1619 1500 1366 1492
8 1621 1497 1362 1493 1740 1624 1498 1620
8 1742 1631 1504 1622 1624 1505 1371 1497
8 1743 1628 1502 1626 1623 1501 1368 1499
8 1744 1630 1505 1624 1625 1503 1372 1498
8 1745 1629 1503 1625 1626 1502 1369 1500
8 1520 1398 1528 1644 1633 1506 1632 1751
8 1637 1520 1633 1752 1512 1388 1507 1634
8 1635 1519 1643 1753 1510 1391 1522 1636
8 1657 1535 1643 1753 1534 1406 1519 1635
8 1515 1392 1522 1636 1639 1523 1646 1754
8 1517 1389 1521 1641 1637 1520 1644 1755
8 1524 1638 1756 1648 1393 1514 1639 1523
8 1640 1526 1395 1516 1756 1648 1524 1638
8 1642 1525 1396 1518 1757 1649 1526 1640
8 1758 1645 1521 1641 1642 1525 1396 1518
8 1646 1531 1400 1522 1760 1650 1527 1643
8 1535 1407 1536 1658 1643 1527 1650 1760
8 1521 1399 1529 1645 1644 1528 1651 1761
8 1647 1530 1652 1762 1525 1404 1529 1645
8 1401 1523 1648 1532 1531 1646 1763 1655
8 1525 1404 1533 1649 1647 1530 1654 1765
8 1533 1649 1766 1656 1403 1526 1648 1532
8 1662 1542 1658 1774 1539 1414 1535 1657
8 1542 1415 1543 1664 1658 1536 1659 1775
8 1660 1540 1663 1777 1538 1413 1541 1661
8 1545 1421 1548 1666 1660 1540 1663 1777
8 1662 1542 1414 1539 1778 1664 1541 1661
8 1664 1543 1416 1541 1779 1665 1544 1663
8 1548 1425 1550 1668 1663 1544 1665 1779
8 1547 1423 1549 1667 1666 1548 1668 1781
8 1670 1551 1668 1781 1553 1427 1549 1667
8 1551 1426 1552 1671 1668 1550 1669 1782
8 1670 1551 1427 1553 1784 1671 1554 1674
8 1675 1555 1672 1785 1554 1428 1552 1671
8 1678 1556 1673 1789 1558 1429 1555 1675
8 1561 1431 1558 1681 1674 1554 1675 1790
8 1794 1677 1556 1678 1680 1557 1429 1558
8 1560 1430 1559 1683 1680 1557 1679 1797
8 1561 1431 1560 1684 1681 1558 1680 1798
8 1563 1433 1564 1686 1683 1559 1682 1800
8 1684 1560 1432 1562 1801 1683 1563 1685
8 1565 1435 1566 1688 1685 1563 1686 1802
8 1566 1436 1567 1689 1686 1564 1687 1803
8 1568 1438 1569 1691 1688 1566 1689 1805
8 1569 1439 1570 1692 1689 1567 1690 1806
8 1571 1441 1572 1694 1691 1569 1692 1808
8 1442 1572 1692 1570 1573 1695 1809 1693
8 1574 1444 1575 1696 1694 1572 1695 1810
8 1614 1485 1592 1712 1699 1577 1697 1813
8 1579 1449 1577 1699 1701 1578 1698 1815
8 1615 1486 1614 1735 1702 1579 1699 1816
8 1701 1578 1700 1818 1581 1450 1580 1704
8 1582 1451 1579 1702 1705 1581 1701 1819
8 1704 1580 1703 1820 1584 1452 1583 1706
8 1705 1581 1704 1821 1585 1453 1584 1707
8 1707 1584 1706 1822 1587 1456 1586 1708
8 1710 1589 1506 1633 1824 1709 1632 1751
8 1594 1463 1589 1710 1716 1593 1709 1824
8 1752 1633 1710 1825 1634 1507 1590 1711
8 1595 1464 1590 1711 1717 1594 1710 1825
8 1830 1714 1592 1712 1733 1611 1485 1614
8 1603 1477 1593 1716 1725 1607 1715 1834
8 1599 1473 1594 1717 1721 1603 1716 1835
8 1837 1722 1623 1736 1718 1600 1496 1616
8 1719 1601 1722 1837 1597 1471 1600 1718
8 1602 1720 1598 1472 1723 1838 1719 1601
8 1720 1602 1473 1599 1839 1724 1603 1721
8 1723 1605 1726 1840 1601 1475 1604 1722
8 1840 1726 1628 1743 1722 1604 1501 1623
8 1724 1606 1727 1841 1602 1476 1605 1723
8 1725 1607 1728 1842 1603 1477 1606 1724
8 1612 1482 1608 1731 1733 1611 1730 1849
8 1741 1627 1730 1849 1622 1504 1608 1731
8 1613 1483 1609 1732 1734 1612 1731 1850
8 1618 1495 1622 1738 1732 1609 1731 1850
8 1615 1486 1612 1734 1735 1614 1733 1851
8 1852 1743 1626 1737 1736 1623 1499 1617
8 1853 1745 1625 1739 1737 1626 1500 1619
8 1855 1742 1622 1738 1740 1624 1497 1621
8 1856 1744 1624 1740 1739 1625 1498 1620
8 1741 1627 1504 1622 1857 1746 1631 1742
8 1742 1631 1505 1624 1858 1749 1630 1744
8 1859 1747 1629 1745 1743 1628 1502 1626
8 1860 1748 1630 1744 1745 1629 1503 1625
8 1644 1528 1651 1761 1751 1632 1750 1865
8 1637 1520 1644 1755 1752 1633 1751 1866
8 1754 1646 1522 1636 1867 1760 1643 1753
8 1657 1535 1658 1774 1753 1643 1760 1867
8 1639 1523 1646 1754 1756 1648 1763 1868
8 1641 1521 1645 1758 1755 1644 1761 1869
8 1757 1649 1526 1640 1870 1766 1648 1756
8 1642 1525 1649 1757 1759 1647 1765 1871
8 1759 1647 1762 1872 1642 1525 1645 1758
8 1760 1650 1767 1874 1646 1531 1655 1763
8 1658 1536 1659 1775 1760 1650 1767 1874
8 1762 1652 1768 1875 1645 1529 1651 1761
8 1764 1653 1769 1876 1647 1530 1652 1762
8 1656 1766 1877 1773 1532 1648 1763 1655
8 1771 1879 1765 1654 1653 1764 1647 1530
8 1533 1649 1765 1654 1656 1766 1880 1772
8 1662 1542 1664 1778 1774 1658 1775 1887
8 1664 1543 1665 1779 1775 1659 1776 1888
8 1778 1664 1541 1661 1890 1779 1663 1777
8 1666 1548 1668 1781 1777 1663 1779 1890
8 1782 1669 1780 1891 1668 1550 1665 1779
8 1670 1551 1671 1784 1781 1668 1782 1893
8 1671 1552 1672 1785 1782 1669 1783 1894
8 1790 1675 1785 1896 1674 1554 1671 1784
8 1675 1555 1673 1789 1785 1672 1786 1897
8 1792 1676 1788 1903 1678 1556 1673 1789
8 1795 1678 1789 1904 1681 1558 1675 1790
8 1792 1676 1556 1678 1906 1791 1677 1794
8 1680 1557 1679 1797 1794 1677 1793 1909
8 1910 1794 1678 1795 1798 1680 1558 1681
8 1683 1559 1682 1800 1797 1679 1796 1912
8 1684 1560 1683 1801 1798 1680 1797 1913
8 1686 1564 1687 1803 1800 1682 1799 1915
8 1685 1563 1686 1802 1801 1683 1800 1916
8 1688 1566 1689 1805 1802 1686 1803 1917
8 1689 1567 1690 1806 1803 1687 1804 1918
8 1691 1569 1692 1808 1805 1689 1806 1920
8 1692 1570 1693 1809 1806 1690 1807 1921
8 1694 1572 1695 1810 1808 1692 1809 1922
8 1829 1713 1811 1926 1712 1592 1697 1813
8 1813 1697 1812 1928 1699 1577 1698 1815
8 1735 1614 1712 1828 1816 1699 1813 1929
8 1815 1698 1814 1931 1701 1578 1700 1818
8 1702 1579 1699 1816 1819 1701 1815 1932
8 1818 1700 1817 1933 1704 1580 1703 1820
8 1819 1701 1818 1934 1705 1581 1704 1821
8 1821 1704 1820 1935 1707 1584 1706 1822
8 1824 1709 1632 1751 1937 1823 1750 1865
8 1716 1593 1709 1824 1834 1715 1823 1937
8 1825 1710 1633 1752 1938 1824 1751 1866
8 1717 1594 1710 1825 1835 1716 1824 1938
8 1945 1830 1712 1828 1851 1733 1614 1735
8 1830 1714 1831 1946 1712 1592 1713 1829
8 1947 1832 1714 1830 1849 1730 1611 1733
8 1843 1729 1607 1725 1950 1833 1715 1834
8 1721 1603 1716 1835 1836 1725 1834 1951
8 1836 1725 1842 1953 1721 1603 1724 1839
8 1723 1838 1719 1601 1840 1954 1837 1722
8 1954 1840 1743 1852 1837 1722 1623 1736
8 1724 1839 1720 1602 1841 1955 1838 1723
8 1841 1727 1844 1956 1723 1605 1726 1840
8 1956 1844 1747 1859 1840 1726 1628 1743
8 1728 1842 1724 1606 1845 1957 1841 1727
8 1725 1607 1729 1843 1842 1728 1846 1958
8 1741 1627 1746 1857 1849 1730 1848 1965
8 1734 1612 1731 1850 1851 1733 1849 1966
8 1854 1741 1849 1966 1738 1622 1731 1850
8 1967 1859 1745 1853 1852 1743 1626 1737
8 1968 1860 1744 1856 1853 1745 1625 1739
8 1854 1741 1622 1738 1969 1857 1742 1855
8 1855 1742 1624 1740 1970 1858 1744 1856
8 1857 1746 1631 1742 1971 1861 1749 1858
8 1858 1749 1630 1744 1972 1863 1748 1860
8 1859 1747 1862 1973 1745 1629 1748 1860
8 1875 1768 1864 1977 1761 1651 1750 1865
8 1755 1644 1761 1869 1866 1751 1865 1978
8 1867 1760 1874 1979 1754 1646 1763 1868
8 1774 1658 1775 1887 1867 1760 1874 1979
8 1870 1766 1648 1756 1980 1877 1763 1868
8 1872 1762 1875 1981 1758 1645 1761 1869
8 1757 1649 1766 1870 1871 1765 1880 1982
8 1983 1879 1764 1873 1871 1765 1647 1759
8 1873 1764 1876 1984 1759 1647 1762 1872
8 1877 1773 1655 1763 1986 1881 1767 1874
8 1775 1659 1776 1888 1874 1767 1881 1986
8 1876 1769 1882 1987 1762 1652 1768 1875
8 1878 1770 1883 1988 1764 1653 1769 1876
8 1880 1772 1656 1766 1989 1886 1773 1877
8 1878 1770 1653 1764 1990 1884 1771 1879
8 1765 1654 1772 1880 1879 1771 1885 1991
8 1778 1664 1779 1890 1887 1775 1888 1997
8 1998 1889 1776 1888 1891 1780 1665 1779
8 1893 1782 1891 2000 1781 1668 1779 1890
8 1894 1783 1892 2001 1782 1669 1780 1891
8 1784 1671 1785 1896 1893 1782 1894 2003
8 1897 1786 1895 2004 1785 1672 1783 1894
8 1790 1675 1789 1904 1896 1785 1897 2006
8 1901 1787 1898 2007 1789 1673 1786 1897
8 1903 1788 1900 2013 1789 1673 1787 1901
8 1792 1676 1791 1906 1903 1788 1902 2016
8 1907 1792 1903 2017 1795 1678 1789 1904
8 1906 1791 1677 1794 2019 1905 1793 1909
8 1907 1792 1678 1795 2020 1906 1794 1910
8 1797 1679 1796 1912 1909 1793 1908 2022
8 1798 1680 1797 1913 1910 1794 1909 2023
8 1800 1682 1799 1915 1912 1796 1911 2025
8 1801 1683 1800 1916 1913 1797 1912 2026
8 1803 1687 1804 1918 1915 1799 1914 2028
8 1802 1686 1803 1917 1916 1800 1915 2029
8 1805 1689 1806 1920 1917 1803 1918 2030
8 1806 1690 1807 1921 1918 1804 1919 2031
8 1808 1692 1809 1922 1920 1806 1921 2032
8 1939 1826 1924 2037 1829 1713 1811 1926
8 1926 1811 1925 2039 1813 1697 1812 1928
8 1944 1829 1926 2040 1828 1712 1813 1929
8 1928 1812 1927 2042 1815 1698 1814 1931
8 1929 1813 1928 2043 1816 1699 1815 1932
8 1931 1814 1930 2044 1818 1700 1817 1933
8 1932 1815 1931 2045 1819 1701 1818 1934
8 1934 1818 1933 2046 1821 1704 1820 1935
8 2048 1936 1823 1937 1977 1864 1750 1865
8 1950 1833 1715 1834 2048 1936 1823 1937
8 1938 1824 1751 1866 2049 1937 1865 1978
8 1835 1716 1824 1938 1951 1834 1937 2049
8 1939 1826 1713 1829 2053 1942 1831 1946
8 1940 1827 1923 2035 2053 1942 1826 1939
8 1945 1830 1946 2058 1828 1712 1829 1944
8 2059 1947 1830 1945 1966 1849 1733 1851
8 1947 1832 1730 1849 2060 1948 1848 1965
8 1947 1832 1948 2060 1830 1714 1831 1946
8 1959 1847 1729 1843 2063 1949 1833 1950
8 1952 1843 1725 1836 2064 1950 1834 1951
8 1836 1725 1843 1952 1953 1842 1958 2066
8 1953 1842 1957 2067 1839 1724 1841 1955
8 1841 1955 1838 1723 1956 2068 1954 1840
8 2068 1956 1859 1967 1954 1840 1743 1852
8 1956 1844 1960 2069 1859 1747 1862 1973
8 1845 1957 1841 1727 1960 2069 1956 1844
8 1728 1842 1957 1845 1846 1958 2071 1961
8 1962 2072 1959 1847 1846 1958 1843 1729
8 1971 1861 1964 2077 1857 1746 1848 1965
8 1854 1741 1857 1969 1966 1849 1965 2078
8 1967 1859 1973 2079 1853 1745 1860 1968
8 1970 1858 1744 1856 2080 1972 1860 1968
8 1969 1857 1742 1855 2081 1971 1858 1970
8 1971 1861 1749 1858 2082 1974 1863 1972
8 1973 1862 1975 2083 1860 1748 1863 1972
8 1987 1882 1976 2086 1875 1768 1864 1977
8 1981 1875 1977 2087 1869 1761 1865 1978
8 1980 1877 1763 1868 2088 1986 1874 1979
8 1887 1775 1888 1997 1979 1874 1986 2088
8 1880 1982 2089 1989 1766 1870 1980 1877
8 1984 1876 1987 2090 1872 1762 1875 1981
8 1765 1871 1983 1879 1880 1982 2091 1991
8 1985 1878 1764 1873 2092 1990 1879 1983
8 1985 1878 1988 2093 1873 1764 1876 1984
8 2094 1992 1881 1986 1998 1889 1776 1888
8 1986 1881 1992 2094 1877 1773 1886 1989
8 1988 1883 1993 2095 1876 1769 1882 1987
8 1878 1770 1884 1990 1988 1883 1994 2096
8 1991 1885 1772 1880 2097 1996 1886 1989
8 1879 1771 1885 1991 1990 1884 1995 2098
8 2103 1998 1888 1997 2000 1891 1779 1890
8 2104 1999 1889 1998 2001 1892 1780 1891
8 2003 1894 2001 2106 1893 1782 1891 2000
8 2004 1895 2002 2107 1894 1783 1892 2001
8 2006 1897 2004 2109 1896 1785 1894 2003
8 2007 1898 2005 2110 1897 1786 1895 2004
8 2014 1901 2007 2112 1904 1789 1897 2006
8 2011 1899 2008 2113 1901 1787 1898 2007
8 2119 2010 1899 2011 2013 1900 1787 1901
8 2016 1902 2012 2122 1903 1788 1900 2013
8 2017 1903 2013 2123 1904 1789 1901 2014
8 1906 1791 1905 2019 2016 1902 2015 2125
8 1907 1792 1906 2020 2017 1903 2016 2126
8 1909 1793 1908 2022 2019 1905 2018 2128
8 2020 1906 1794 1910 2129 2019 1909 2023
8 1912 1796 1911 2025 2022 1908 2021 2131
8 1913 1797 1912 2026 2023 1909 2022 2132
8 1915 1799 1914 2028 2025 1911 2024 2134
8 1916 1800 1915 2029 2026 1912 2025 2135
8 1918 1804 1919 2031 2028 1914 2027 2136
8 1917 1803 1918 2030 2029 1915 2028 2137
8 1920 1806 1921 2032 2030 1918 2031 2138
8 1940 1827 1941 2054 2035 1923 2033 2140
8 2035 1923 2034 2143 1939 1826 1924 2037
8 2037 1924 2036 2146 1926 1811 1925 2039
8 2051 1939 2037 2147 1944 1829 1926 2040
8 2039 1925 2038 2149 1928 1812 1927 2042
8 2040 1926 2039 2150 1929 1813 1928 2043
8 2042 1927 2041 2151 1931 1814 1930 2044
8 2043 1928 2042 2152 1932 1815 1931 2045
8 2045 1931 2044 2153 1934 1818 1933 2046
8 2155 2047 1936 2048 2086 1976 1864 1977
8 2063 1949 1833 1950 2155 2047 1936 2048
8 2156 2048 1937 2049 2087 1977 1865 1978
8 2064 1950 1834 1951 2156 2048 1937 2049
8 2051 1939 1829 1944 2160 2053 1946 2058
8 2052 1940 2035 2144 2160 2053 1939 2051
8 2053 1942 1831 1946 2163 2057 1948 2060
8 2055 1943 1827 1940 2163 2057 1942 2053
8 2055 1943 2056 2164 1940 1827 1941 2054
8 2059 1947 1849 1966 2167 2060 1965 2078
8 2059 1947 2060 2167 1945 1830 1946 2058
8 2077 1964 2061 2168 1965 1848 1948 2060
8 2070 1963 1847 1959 2170 2062 1949 2063
8 2065 1959 1843 1952 2171 2063 1950 2064
8 2173 2072 1958 2066 2065 1959 1843 1952
8 1953 1842 1958 2066 2067 1957 2071 2174
8 2068 1956 2069 2175 1967 1859 1973 2079
8 2067 1957 2069 2175 1955 1841 1956 2068
8 1845 1957 2069 1960 1961 2071 2176 2073
8 2069 1960 2073 2176 1973 1862 1975 2083
8 2070 1963 2075 2177 1959 1847 1962 2072
8 1846 1958 2071 1961 1962 2072 2178 2074
8 2077 1964 1861 1971 2182 2076 1974 2082
8 2081 1971 2077 2183 1969 1857 1965 2078
8 2079 1973 2083 2184 1968 1860 1972 2080
8 2081 1971 1858 1970 2185 2082 1972 2080
8 2083 1975 2084 2186 1972 1863 1974 2082
8 2086 1976 1882 1987 2189 2085 1993 2095
8 2090 1987 2086 2190 1981 1875 1977 2087
8 2191 2094 1986 2088 2103 1998 1888 1997
8 2088 1986 2094 2191 1980 1877 1989 2089
8 1991 2091 2192 2097 1880 1982 2089 1989
8 2093 1988 2095 2193 1984 1876 1987 2090
8 1879 1983 2092 1990 1991 2091 2194 2098
8 1985 1878 1990 2092 2093 1988 2096 2195
8 2097 1996 1886 1989 2196 2099 1992 2094
8 2196 2099 1992 2094 2104 1999 1889 1998
8 1994 2096 1988 1883 2100 2197 2095 1993
8 2096 1994 1884 1990 2198 2101 1995 2098
8 1995 2098 2199 2102 1885 1991 2097 1996
8 2203 2104 1998 2103 2106 2001 1891 2000
8 2107 2002 2105 2204 2001 1892 1999 2104
8 2109 2004 2107 2206 2003 1894 2001 2106
8 2110 2005 2108 2207 2004 1895 2002 2107
8 2112 2007 2110 2209 2006 1897 2004 2109
8 2113 2008 2111 2210 2007 1898 2005 2110
8 2120 2011 2113 2212 2014 1901 2007 2112
8 2117 2009 2114 2213 2011 1899 2008 2113
8 2219 2116 2009 2117 2119 2010 1899 2011
8 2222 2118 2010 2119 2122 2012 1900 2013
8 2223 2119 2011 2120 2123 2013 1901 2014
8 2016 1902 2015 2125 2122 2012 2121 2225
8 2126 2016 2122 2226 2017 1903 2013 2123
8 2019 1905 2018 2128 2125 2015 2124 2228
8 2020 1906 2019 2129 2126 2016 2125 2229
8 2022 1908 2021 2131 2128 2018 2127 2231
8 2023 1909 2022 2132 2129 2019 2128 2232
8 2025 1911 2024 2134 2131 2021 2130 2234
8 2026 1912 2025 2135 2132 2022 2131 2235
8 1914 2028 2134 2024 2027 2136 2236 2133
8 2029 1915 2028 2137 2135 2025 2134 2237
8 2030 1918 2031 2138 2137 2028 2136 2238
8 2157 2050 2139 2240 2054 1941 2033 2140
8 2052 1940 2054 2161 2144 2035 2140 2242
8 2140 2033 2141 2243 2035 1923 2034 2143
8 2143 2034 2142 2246 2037 1924 2036 2146
8 2144 2035 2143 2247 2051 1939 2037 2147
8 2146 2036 2145 2249 2039 1925 2038 2149
8 2147 2037 2146 2250 2040 1926 2039 2150
8 2149 2038 2148 2251 2042 1927 2041 2151
8 2150 2039 2149 2252 2043 1928 2042 2152
8 2152 2042 2151 2253 2045 1931 2044 2153
8 2255 2154 2047 2155 2189 2085 1976 2086
8 2170 2062 1949 2063 2255 2154 2047 2155
8 2256 2155 2048 2156 2190 2086 1977 2087
8 2171 2063 1950 2064 2256 2155 2048 2156
8 2258 2159 2050 2157 2164 2056 1941 2054
8 2160 2053 1946 2058 2262 2163 2060 2167
8 2162 2055 1940 2052 2262 2163 2053 2160
8 2162 2055 2164 2263 2052 1940 2054 2161
8 2163 2057 1948 2060 2264 2165 2061 2168
8 2055 1943 2057 2163 2164 2056 2165 2264
8 2182 2076 2166 2268 2077 1964 2061 2168
8 2183 2077 2168 2269 2078 1965 2060 2167
8 2070 1963 2062 2170 2177 2075 2169 2271
8 2172 2070 1959 2065 2272 2170 2063 2171
8 2172 2070 2177 2273 2065 1959 2072 2173
8 2066 1958 2072 2173 2174 2071 2178 2274
8 2067 1957 2071 2174 2175 2069 2176 2275
8 2175 2069 2176 2275 2079 1973 2083 2184
8 2071 1961 2074 2178 2176 2073 2179 2276
8 2176 2073 2179 2276 2083 1975 2084 2186
8 2072 1962 2075 2177 2178 2074 2180 2277
8 2182 2076 1974 2082 2280 2181 2084 2186
8 2183 2077 1971 2081 2281 2182 2082 2185
8 2184 2083 2186 2282 2080 1972 2082 2185
8 2189 2085 1993 2095 2285 2188 2100 2197
8 2190 2086 1987 2090 2286 2189 2095 2193
8 2192 2097 1989 2089 2287 2196 2094 2191
8 2287 2196 2094 2191 2203 2104 1998 2103
8 2194 2098 1991 2091 2288 2199 2097 2192
8 2195 2096 2197 2289 2093 1988 2095 2193
8 2096 2195 2290 2198 1990 2092 2194 2098
8 2097 1996 2099 2196 2199 2102 2200 2291
8 2196 2099 1999 2104 2291 2200 2105 2204
8 2100 2197 2292 2201 1994 2096 2198 2101
8 1995 2098 2198 2101 2102 2199 2293 2202
8 2206 2107 2204 2296 2106 2001 2104 2203
8 2207 2108 2205 2297 2107 2002 2105 2204
8 2209 2110 2207 2299 2109 2004 2107 2206
8 2210 2111 2208 2300 2110 2005 2108 2207
8 2212 2113 2210 2302 2112 2007 2110 2209
8 2213 2114 2211 2303 2113 2008 2111 2210
8 2220 2117 2213 2305 2120 2011 2113 2212
8 2216 2115 2214 2306 2117 2009 2114 2213
8 2216 2115 2009 2117 2311 2217 2116 2219
8 2219 2116 2010 2119 2314 2218 2118 2222
8 2315 2219 2117 2220 2223 2119 2011 2120
8 2122 2012 2121 2225 2222 2118 2221 2317
8 2318 2222 2119 2223 2226 2122 2013 2123
8 2125 2015 2124 2228 2225 2121 2224 2320
8 2126 2016 2125 2229 2226 2122 2225 2321
8 2128 2018 2127 2231 2228 2124 2227 2323
8 2129 2019 2128 2232 2229 2125 2228 2324
8 2131 2021 2130 2234 2231 2127 2230 2326
8 2132 2022 2131 2235 2232 2128 2231 2327
8 2134 2024 2133 2236 2234 2130 2233 2328
8 2135 2025 2134 2237 2235 2131 2234 2329
8 2137 2028 2136 2238 2237 2134 2236 2330
8 2157 2050 2158 2259 2240 2139 2239 2332
8 2257 2157 2240 2334 2161 2054 2140 2242
8 2240 2139 2241 2335 2140 2033 2141 2243
8 2242 2140 2243 2337 2144 2035 2143 2247
8 2243 2141 2244 2338 2143 2034 2142 2246
8 2246 2142 2245 2341 2146 2036 2145 2249
8 2247 2143 2246 2342 2147 2037 2146 2250
8 2249 2145 2248 2343 2149 2038 2148 2251
8 2250 2146 2249 2344 2150 2039 2149 2252
8 2252 2149 2251 2345 2152 2042 2151 2253
8 2169 2271 2347 2254 2062 2170 2255 2154
8 2189 2085 2188 2285 2255 2154 2254 2347
8 2348 2255 2155 2256 2286 2189 2086 2190
8 2272 2170 2063 2171 2348 2255 2155 2256
8 2349 2258 2157 2257 2263 2164 2054 2161
8 2258 2159 2261 2351 2157 2050 2158 2259
8 2258 2159 2056 2164 2351 2261 2165 2264
8 2262 2163 2060 2167 2355 2264 2168 2269
8 2162 2055 2163 2262 2263 2164 2264 2355
8 2357 2266 2165 2264 2268 2166 2061 2168
8 2268 2166 2076 2182 2361 2267 2181 2280
8 2281 2182 2268 2362 2183 2077 2168 2269
8 2271 2169 2270 2364 2177 2075 2180 2277
8 2172 2070 2170 2272 2273 2177 2271 2365
8 2072 2173 2274 2178 2177 2273 2366 2277
8 2071 2174 2275 2176 2178 2274 2367 2276
8 2275 2176 2276 2367 2184 2083 2186 2282
8 2283 2187 2084 2186 2368 2278 2179 2276
8 2178 2074 2180 2277 2276 2179 2278 2368
8 2283 2187 2279 2370 2186 2084 2181 2280
8 2281 2182 2082 2185 2371 2280 2186 2282
8 2188 2285 2374 2284 2100 2197 2292 2201
8 2286 2189 2095 2193 2375 2285 2197 2289
8 2192 2097 2196 2287 2288 2199 2291 2376
8 2287 2196 2104 2203 2376 2291 2204 2296
8 2194 2098 2199 2288 2290 2198 2293 2377
8 2289 2197 2096 2195 2378 2292 2198 2290
8 2291 2200 2105 2204 2379 2294 2205 2297
8 2199 2102 2200 2291 2293 2202 2294 2379
8 2198 2101 2202 2293 2292 2201 2295 2380
8 2299 2207 2297 2383 2206 2107 2204 2296
8 2300 2208 2298 2384 2207 2108 2205 2297
8 2302 2210 2300 2386 2209 2110 2207 2299
8 2303 2211 2301 2387 2210 2111 2208 2300
8 2305 2213 2303 2389 2212 2113 2210 2302
8 2306 2214 2304 2390 2213 2114 2211 2303
8 2310 2216 2306 2392 2220 2117 2213 2305
8 2308 2215 2307 2393 2216 2115 2214 2306
8 2308 2215 2115 2216 2396 2309 2217 2311
8 2310 2216 2117 2220 2398 2311 2219 2315
8 2311 2217 2116 2219 2399 2312 2218 2314
8 2314 2218 2118 2222 2402 2313 2221 2317
8 2315 2219 2119 2223 2403 2314 2222 2318
8 2225 2121 2224 2320 2317 2221 2316 2405
8 2226 2122 2225 2321 2318 2222 2317 2406
8 2228 2124 2227 2323 2320 2224 2319 2408
8 2229 2125 2228 2324 2321 2225 2320 2409
8 2231 2127 2230 2326 2323 2227 2322 2411
8 2232 2128 2231 2327 2324 2228 2323 2412
8 2234 2130 2233 2328 2326 2230 2325 2413
8 2235 2131 2234 2329 2327 2231 2326 2414
8 2237 2134 2236 2330 2329 2234 2328 2415
8 2259 2158 2260 2352 2332 2239 2331 2417
8 2257 2157 2259 2350 2334 2240 2332 2419
8 2240 2139 2239 2332 2335 2241 2333 2420
8 2334 2240 2335 2422 2242 2140 2243 2337
8 2335 2241 2336 2423 2243 2141 2244 2338
8 2337 2243 2338 2425 2247 2143 2246 2342
8 2338 2244 2339 2426 2246 2142 2245 2341
8 2341 2245 2340 2428 2249 2145 2248 2343
8 2342 2246 2341 2429 2250 2146 2249 2344
8 2344 2249 2343 2430 2252 2149 2251 2345
8 2188 2285 2347 2254 2284 2374 2432 2346
8 2347 2254 2346 2432 2271 2169 2270 2364
8 2365 2271 2170 2272 2433 2347 2255 2348
8 2286 2189 2285 2375 2348 2255 2347 2433
8 2349 2258 2351 2435 2257 2157 2259 2350
8 2349 2258 2164 2263 2435 2351 2264 2355
8 2259 2158 2261 2351 2352 2260 2354 2437
8 2356 2265 2354 2437 2264 2165 2261 2351
8 2441 2357 2264 2355 2362 2268 2168 2269
8 2356 2265 2165 2264 2442 2358 2266 2357
8 2443 2359 2266 2357 2361 2267 2166 2268
8 2370 2279 2360 2446 2280 2181 2267 2361
8 2362 2268 2182 2281 2447 2361 2280 2371
8 2180 2277 2368 2278 2270 2364 2449 2363
8 2271 2365 2273 2177 2364 2450 2366 2277
8 2372 2283 2186 2282 2451 2368 2276 2367
8 2178 2274 2367 2276 2277 2366 2451 2368
8 2283 2187 2278 2368 2370 2279 2369 2452
8 2372 2283 2370 2453 2282 2186 2280 2371
8 2284 2374 2455 2373 2201 2292 2380 2295
8 2375 2285 2197 2289 2456 2374 2292 2378
8 2376 2291 2204 2296 2457 2379 2297 2383
8 2288 2199 2291 2376 2377 2293 2379 2457
8 2198 2290 2378 2292 2293 2377 2458 2380
8 2293 2202 2294 2379 2380 2295 2381 2459
8 2384 2298 2381 2459 2297 2205 2294 2379
8 2386 2300 2384 2463 2299 2207 2297 2383
8 2387 2301 2385 2464 2300 2208 2298 2384
8 2389 2303 2387 2466 2302 2210 2300 2386
8 2390 2304 2388 2467 2303 2211 2301 2387
8 2392 2306 2390 2469 2305 2213 2303 2389
8 2393 2307 2391 2470 2306 2214 2304 2390
8 2395 2308 2393 2472 2310 2216 2306 2392
8 2308 2215 2309 2396 2393 2307 2394 2473
8 2395 2308 2216 2310 2475 2396 2311 2398
8 2396 2309 2217 2311 2476 2397 2312 2399
8 2398 2311 2219 2315 2478 2399 2314 2403
8 2399 2312 2218 2314 2479 2400 2313 2402
8 2317 2221 2316 2405 2402 2313 2401 2482
8 2403 2314 2222 2318 2483 2402 2317 2406
8 2320 2224 2319 2408 2405 2316 2404 2485
8 2321 2225 2320 2409 2406 2317 2405 2486
8 2323 2227 2322 2411 2408 2319 2407 2488
8 2324 2228 2323 2412 2409 2320 2408 2489
8 2326 2230 2325 2413 2411 2322 2410 2490
8 2327 2231 2326 2414 2412 2323 2411 2491
8 2329 2234 2328 2415 2414 2326 2413 2492
8 2417 2331 2260 2352 2494 2416 2353 2438
8 2350 2259 2352 2436 2419 2332 2417 2496
8 2332 2239 2331 2417 2420 2333 2418 2497
8 2334 2240 2332 2419 2422 2335 2420 2499
8 2420 2333 2421 2500 2335 2241 2336 2423
8 2422 2335 2423 2502 2337 2243 2338 2425
8 2423 2336 2424 2503 2338 2244 2339 2426
8 2425 2338 2426 2505 2342 2246 2341 2429
8 2426 2339 2427 2506 2341 2245 2340 2428
8 2429 2341 2428 2507 2344 2249 2343 2430
8 2432 2346 2284 2374 2509 2431 2373 2455
8 2432 2346 2431 2509 2364 2270 2363 2449
8 2375 2285 2374 2456 2433 2347 2432 2510
8 2347 2433 2365 2271 2432 2510 2450 2364
8 2350 2259 2351 2435 2436 2352 2437 2514
8 2440 2356 2437 2514 2355 2264 2351 2435
8 2352 2260 2354 2437 2438 2353 2439 2516
8 2356 2265 2358 2442 2437 2354 2439 2516
8 2440 2356 2264 2355 2518 2442 2357 2441
8 2519 2443 2357 2441 2447 2361 2268 2362
8 2443 2359 2444 2520 2357 2266 2358 2442
8 2443 2359 2267 2361 2520 2444 2360 2446
8 2446 2360 2279 2370 2523 2445 2369 2452
8 2453 2370 2446 2524 2371 2280 2361 2447
8 2449 2363 2448 2525 2368 2278 2369 2452
8 2366 2277 2364 2450 2451 2368 2449 2526
8 2372 2283 2368 2451 2453 2370 2452 2527
8 2455 2373 2295 2380 2529 2454 2382 2460
8 2456 2374 2292 2378 2530 2455 2380 2458
8 2377 2293 2379 2457 2458 2380 2459 2531
8 2463 2384 2459 2531 2383 2297 2379 2457
8 2533 2461 2382 2460 2459 2381 2295 2380
8 2464 2385 2461 2533 2384 2298 2381 2459
8 2466 2387 2464 2537 2386 2300 2384 2463
8 2467 2388 2465 2538 2387 2301 2385 2464
8 2469 2390 2467 2540 2389 2303 2387 2466
8 2470 2391 2468 2541 2390 2304 2388 2467
8 2472 2393 2470 2543 2392 2306 2390 2469
8 2393 2307 2394 2473 2470 2391 2471 2544
8 2395 2308 2396 2475 2472 2393 2473 2546
8 2396 2309 2397 2476 2473 2394 2474 2547
8 2475 2396 2311 2398 2549 2476 2399 2478
8 2476 2397 2312 2399 2550 2477 2400 2479
8 2478 2399 2314 2403 2552 2479 2402 2483
8 2479 2400 2313 2402 2553 2480 2401 2482
8 2405 2316 2404 2485 2482 2401 2481 2556
8 2406 2317 2405 2486 2483 2402 2482 2557
8 2408 2319 2407 2488 2485 2404 2484 2559
8 2409 2320 2408 2489 2486 2405 2485 2560
8 2411 2322 2410 2490 2488 2407 2487 2561
8 2412 2323 2411 2491 2489 2408 2488 2562
8 2414 2326 2413 2492 2491 2411 2490 2563
8 2513 2434 2493 2565 2438 2353 2416 2494
8 2496 2417 2352 2436 2567 2494 2438 2515
8 2494 2416 2495 2568 2417 2331 2418 2497
8 2419 2332 2417 2496 2499 2420 2497 2570
8 2497 2418 2498 2571 2420 2333 2421 2500
8 2499 2420 2500 2573 2422 2335 2423 2502
8 2500 2421 2501 2574 2423 2336 2424 2503
8 2502 2423 2503 2576 2425 2338 2426 2505
8 2503 2424 2504 2577 2426 2339 2427 2506
8 2505 2426 2506 2578 2429 2341 2428 2507
8 2509 2431 2373 2455 2580 2508 2454 2529
8 2509 2431 2508 2580 2449 2363 2448 2525
8 2432 2510 2581 2509 2374 2456 2530 2455
8 2432 2510 2450 2364 2509 2581 2526 2449
8 2583 2511 2434 2513 2516 2439 2353 2438
8 2436 2352 2437 2514 2515 2438 2516 2588
8 2440 2356 2442 2518 2514 2437 2516 2588
8 2442 2358 2444 2520 2516 2439 2517 2589
8 2519 2443 2520 2591 2441 2357 2442 2518
8 2519 2443 2361 2447 2591 2520 2446 2524
8 2446 2360 2445 2523 2520 2444 2521 2592
8 2525 2448 2522 2593 2452 2369 2445 2523
8 2524 2446 2370 2453 2594 2523 2452 2527
8 2526 2449 2525 2595 2451 2368 2452 2527
8 2534 2462 2528 2597 2460 2382 2454 2529
8 2530 2455 2380 2458 2598 2529 2460 2532
8 2599 2533 2460 2532 2531 2459 2380 2458
8 2537 2464 2533 2599 2463 2384 2459 2531
8 2534 2462 2382 2460 2601 2535 2461 2533
8 2538 2465 2535 2601 2464 2385 2461 2533
8 2540 2467 2538 2604 2466 2387 2464 2537
8 2541 2468 2539 2605 2467 2388 2465 2538
8 2543 2470 2541 2607 2469 2390 2467 2540
8 2470 2391 2471 2544 2541 2468 2542 2608
8 2472 2393 2473 2546 2543 2470 2544 2610
8 2473 2394 2474 2547 2544 2471 2545 2611
8 2475 2396 2476 2549 2546 2473 2547 2613
8 2476 2397 2477 2550 2547 2474 2548 2614
8 2549 2476 2399 2478 2616 2550 2479 2552
8 2479 2400 2480 2553 2550 2477 2551 2617
8 2552 2479 2402 2483 2619 2553 2482 2557
8 2482 2401 2481 2556 2553 2480 2554 2620
8 2485 2404 2484 2559 2556 2481 2555 2623
8 2486 2405 2485 2560 2557 2482 2556 2624
8 2488 2407 2487 2561 2559 2484 2558 2625
8 2489 2408 2488 2562 2560 2485 2559 2626
8 2491 2411 2490 2563 2562 2488 2561 2627
8 2513 2434 2512 2585 2565 2493 2564 2630
8 2586 2513 2565 2632 2515 2438 2494 2567
8 2565 2493 2566 2633 2494 2416 2495 2568
8 2567 2494 2568 2635 2496 2417 2497 2570
8 2568 2495 2569 2636 2497 2418 2498 2571
8 2570 2497 2571 2638 2499 2420 2500 2573
8 2571 2498 2572 2639 2500 2421 2501 2574
8 2573 2500 2574 2641 2502 2423 2503 2576
8 2574 2501 2575 2642 2503 2424 2504 2577
8 2576 2503 2577 2643 2505 2426 2506 2578
8 2597 2528 2579 2645 2529 2454 2508 2580
8 2580 2508 2579 2645 2525 2448 2522 2593
8 2581 2509 2455 2530 2646 2580 2529 2598
8 2581 2509 2580 2646 2526 2449 2525 2595
8 2583 2511 2582 2648 2513 2434 2512 2585
8 2583 2511 2439 2516 2648 2582 2517 2589
8 2649 2583 2513 2586 2588 2516 2438 2515
8 2589 2517 2444 2520 2653 2587 2521 2592
8 2518 2442 2520 2591 2588 2516 2589 2654
8 2593 2522 2590 2655 2523 2445 2521 2592
8 2524 2446 2523 2594 2591 2520 2592 2656
8 2595 2525 2593 2657 2527 2452 2523 2594
8 2602 2536 2596 2659 2534 2462 2528 2597
8 2600 2534 2597 2660 2532 2460 2529 2598
8 2600 2534 2460 2532 2661 2601 2533 2599
8 2604 2538 2601 2661 2537 2464 2533 2599
8 2602 2536 2462 2534 2663 2603 2535 2601
8 2601 2535 2465 2538 2663 2603 2539 2605
8 2607 2541 2605 2665 2540 2467 2538 2604
8 2608 2542 2606 2666 2541 2468 2539 2605
8 2543 2470 2544 2610 2607 2541 2608 2668
8 2544 2471 2545 2611 2608 2542 2609 2669
8 2546 2473 2547 2613 2610 2544 2611 2671
8 2547 2474 2548 2614 2611 2545 2612 2672
8 2549 2476 2550 2616 2613 2547 2614 2674
8 2550 2477 2551 2617 2614 2548 2615 2675
8 2552 2479 2553 2619 2616 2550 2617 2677
8 2553 2480 2554 2620 2617 2551 2618 2678
8 2557 2482 2556 2624 2619 2553 2620 2680
8 2556 2481 2555 2623 2620 2554 2621 2681
8 2559 2484 2558 2625 2623 2555 2622 2683
8 2560 2485 2559 2626 2624 2556 2623 2684
8 2562 2488 2561 2627 2626 2559 2625 2685
8 2690 2629 2564 2630 2650 2584 2512 2585
8 2586 2513 2585 2651 2632 2565 2630 2691
8 2630 2564 2631 2692 2565 2493 2566 2633
8 2632 2565 2633 2694 2567 2494 2568 2635
8 2633 2566 2634 2695 2568 2495 2569 2636
8 2635 2568 2636 2697 2570 2497 2571 2638
8 2636 2569 2637 2698 2571 2498 2572 2639
8 2638 2571 2639 2700 2573 2500 2574 2641
8 2639 2572 2640 2701 2574 2501 2575 2642
8 2641 2574 2642 2702 2576 2503 2577 2643
8 2597 2528 2596 2659 2645 2579 2644 2704
8 2645 2579 2644 2704 2593 2522 2590 2655
8 2660 2597 2645 2705 2598 2529 2580 2646
8 2646 2580 2645 2705 2595 2525 2593 2657
8 2650 2584 2512 2585 2707 2647 2582 2648
8 2648 2582 2517 2589 2707 2647 2587 2653
8 2649 2583 2648 2708 2586 2513 2585 2651
8 2649 2583 2516 2588 2708 2648 2589 2654
8 2655 2590 2652 2710 2592 2521 2587 2653
8 2654 2589 2520 2591 2711 2653 2592 2656
8 2657 2593 2655 2712 2594 2523 2592 2656
8 2602 2536 2603 2663 2659 2596 2658 2714
8 2662 2602 2659 2715 2600 2534 2597 2660
8 2662 2602 2534 2600 2717 2663 2601 2661
8 2661 2601 2538 2604 2717 2663 2605 2665
8 2666 2606 2664 2718 2605 2539 2603 2663
8 2668 2608 2666 2720 2607 2541 2605 2665
8 2608 2542 2609 2669 2666 2606 2667 2721
8 2610 2544 2611 2671 2668 2608 2669 2723
8 2611 2545 2612 2672 2669 2609 2670 2724
8 2613 2547 2614 2674 2671 2611 2672 2726
8 2614 2548 2615 2675 2672 2612 2673 2727
8 2616 2550 2617 2677 2674 2614 2675 2729
8 2617 2551 2618 2678 2675 2615 2676 2730
8 2619 2553 2620 2680 2677 2617 2678 2732
8 2620 2554 2621 2681 2678 2618 2679 2733
8 2624 2556 2623 2684 2680 2620 2681 2735
8 2681 2621 2555 2623 2736 2682 2622 2683
8 2626 2559 2625 2685 2684 2623 2683 2737
8 2688 2628 2584 2650 2740 2686 2647 2707
8 2688 2628 2687 2742 2650 2584 2629 2690
8 2690 2629 2689 2745 2630 2564 2631 2692
8 2746 2690 2630 2691 2709 2650 2585 2651
8 2691 2630 2692 2747 2632 2565 2633 2694
8 2692 2631 2693 2748 2633 2566 2634 2695
8 2694 2633 2695 2750 2635 2568 2636 2697
8 2695 2634 2696 2751 2636 2569 2637 2698
8 2697 2636 2698 2753 2638 2571 2639 2700
8 2698 2637 2699 2754 2639 2572 2640 2701
8 2700 2639 2701 2755 2641 2574 2642 2702
8 2659 2596 2658 2714 2704 2644 2703 2757
8 2704 2644 2703 2757 2655 2590 2652 2710
8 2660 2597 2659 2715 2705 2645 2704 2758
8 2705 2645 2704 2758 2657 2593 2655 2712
8 2759 2706 2647 2707 2710 2652 2587 2653
8 2709 2650 2585 2651 2760 2707 2648 2708
8 2708 2648 2589 2654 2760 2707 2653 2711
8 2712 2655 2710 2761 2656 2592 2653 2711
8 2763 2713 2658 2714 2718 2664 2603 2663
8 2662 2602 2663 2717 2715 2659 2714 2764
8 2720 2666 2718 2767 2665 2605 2663 2717
8 2768 2719 2664 2718 2721 2667 2606 2666
8 2668 2608 2669 2723 2720 2666 2721 2770
8 2669 2609 2670 2724 2721 2667 2722 2771
8 2671 2611 2672 2726 2723 2669 2724 2773
8 2672 2612 2673 2727 2724 2670 2725 2774
8 2674 2614 2675 2729 2726 2672 2727 2776
8 2675 2615 2676 2730 2727 2673 2728 2777
8 2677 2617 2678 2732 2729 2675 2730 2779
8 2678 2618 2679 2733 2730 2676 2731 2780
8 2680 2620 2681 2735 2732 2678 2733 2782
8 2733 2679 2621 2681 2783 2734 2682 2736
8 2735 2681 2623 2684 2784 2736 2683 2737
8 2740 2686 2647 2707 2787 2738 2706 2759
8 2688 2628 2686 2740 2742 2687 2739 2789
8 2743 2688 2650 2709 2790 2740 2707 2760
8 2742 2687 2741 2792 2690 2629 2689 2745
8 2743 2688 2742 2793 2709 2650 2690 2746
8 2745 2689 2744 2795 2692 2631 2693 2748
8 2746 2690 2745 2796 2691 2630 2692 2747
8 2747 2692 2748 2797 2694 2633 2695 2750
8 2748 2693 2749 2798 2695 2634 2696 2751
8 2750 2695 2751 2800 2697 2636 2698 2753
8 2751 2696 2752 2801 2698 2637 2699 2754
8 2753 2698 2754 2802 2700 2639 2701 2755
8 2763 2713 2756 2804 2714 2658 2703 2757
8 2759 2706 2652 2710 2804 2756 2703 2757
8 2715 2659 2714 2764 2758 2704 2757 2805
8 2758 2704 2757 2805 2712 2655 2710 2761
8 2806 2759 2707 2760 2761 2710 2653 2711
8 2765 2716 2762 2808 2718 2664 2713 2763
8 2809 2763 2714 2764 2767 2718 2663 2717
8 2765 2716 2664 2718 2811 2766 2719 2768
8 2813 2768 2718 2767 2770 2721 2666 2720
8 2814 2769 2719 2768 2771 2722 2667 2721
8 2723 2669 2724 2773 2770 2721 2771 2816
8 2724 2670 2725 2774 2771 2722 2772 2817
8 2726 2672 2727 2776 2773 2724 2774 2819
8 2727 2673 2728 2777 2774 2725 2775 2820
8 2729 2675 2730 2779 2776 2727 2777 2822
8 2730 2676 2731 2780 2777 2728 2778 2823
8 2732 2678 2733 2782 2779 2730 2780 2825
8 2780 2731 2679 2733 2826 2781 2734 2783
8 2782 2733 2681 2735 2827 2783 2736 2784
8 2830 2785 2738 2787 2804 2756 2706 2759
8 2789 2739 2686 2740 2832 2786 2738 2787
8 2790 2740 2707 2760 2833 2787 2759 2806
8 2742 2687 2739 2789 2792 2741 2788 2835
8 2743 2688 2740 2790 2793 2742 2789 2836
8 2792 2741 2791 2838 2745 2689 2744 2795
8 2793 2742 2792 2839 2746 2690 2745 2796
8 2795 2744 2794 2841 2748 2693 2749 2798
8 2796 2745 2795 2842 2747 2692 2748 2797
8 2797 2748 2798 2843 2750 2695 2751 2800
8 2798 2749 2799 2844 2751 2696 2752 2801
8 2800 2751 2801 2845 2753 2698 2754 2802
8 2808 2762 2803 2847 2763 2713 2756 2804
8 2809 2763 2804 2848 2764 2714 2757 2805
8 2806 2759 2710 2761 2848 2804 2757 2805
8 2765 2716 2766 2811 2808 2762 2807 2850
8 2810 2765 2808 2851 2767 2718 2763 2809
8 2810 2765 2718 2767 2852 2811 2768 2813
8 2811 2766 2719 2768 2853 2812 2769 2814
8 2855 2814 2768 2813 2816 2771 2721 2770
8 2856 2815 2769 2814 2817 2772 2722 2771
8 2773 2724 2774 2819 2816 2771 2817 2858
8 2774 2725 2775 2820 2817 2772 2818 2859
8 2776 2727 2777 2822 2819 2774 2820 2861
8 2777 2728 2778 2823 2820 2775 2821 2862
8 2779 2730 2780 2825 2822 2777 2823 2864
8 2823 2778 2731 2780 2865 2824 2781 2826
8 2825 2780 2733 2782 2866 2826 2783 2827
8 2869 2828 2785 2830 2847 2803 2756 2804
8 2871 2829 2786 2832 2830 2785 2738 2787
8 2872 2830 2787 2833 2848 2804 2759 2806
8 2789 2739 2786 2832 2835 2788 2831 2874
8 2836 2789 2740 2790 2875 2832 2787 2833
8 2792 2741 2788 2835 2838 2791 2834 2877
8 2793 2742 2789 2836 2839 2792 2835 2878
8 2838 2791 2837 2880 2795 2744 2794 2841
8 2839 2792 2838 2881 2796 2745 2795 2842
8 2841 2794 2840 2882 2798 2749 2799 2844
8 2842 2795 2841 2883 2797 2748 2798 2843
8 2843 2798 2844 2884 2800 2751 2801 2845
8 2886 2846 2803 2847 2850 2807 2762 2808
8 2851 2808 2847 2887 2809 2763 2804 2848
8 2850 2807 2766 2811 2889 2849 2812 2853
8 2810 2765 2811 2852 2851 2808 2850 2890
8 2852 2811 2768 2813 2891 2853 2814 2855
8 2853 2812 2769 2814 2892 2854 2815 2856
8 2894 2856 2814 2855 2858 2817 2771 2816
8 2817 2772 2818 2859 2856 2815 2857 2895
8 2819 2774 2820 2861 2858 2817 2859 2897
8 2820 2775 2821 2862 2859 2818 2860 2898
8 2822 2777 2823 2864 2861 2820 2862 2900
8 2823 2778 2824 2865 2862 2821 2863 2901
8 2864 2823 2780 2825 2902 2865 2826 2866
8 2904 2867 2828 2869 2886 2846 2803 2847
8 2869 2828 2868 2906 2830 2785 2829 2871
8 2907 2869 2830 2872 2887 2847 2804 2848
8 2871 2829 2870 2909 2832 2786 2831 2874
8 2910 2871 2832 2875 2872 2830 2787 2833
8 2835 2788 2831 2874 2877 2834 2873 2912
8 2836 2789 2832 2875 2878 2835 2874 2913
8 2877 2834 2876 2915 2838 2791 2837 2880
8 2839 2792 2835 2878 2881 2838 2877 2916
8 2880 2837 2879 2917 2841 2794 2840 2882
8 2881 2838 2880 2918 2842 2795 2841 2883
8 2883 2841 2882 2919 2843 2798 2844 2884
8 2921 2885 2846 2886 2889 2849 2807 2850
8 2922 2886 2847 2887 2890 2850 2808 2851
8 2889 2849 2812 2853 2924 2888 2854 2892
8 2890 2850 2811 2852 2925 2889 2853 2891
8 2891 2853 2814 2855 2926 2892 2856 2894
8 2892 2854 2815 2856 2927 2893 2857 2895
8 2858 2817 2859 2897 2894 2856 2895 2929
8 2859 2818 2860 2898 2895 2857 2896 2930
8 2861 2820 2862 2900 2897 2859 2898 2932
8 2862 2821 2863 2901 2898 2860 2899 2933
8 2864 2823 2865 2902 2900 2862 2901 2934
8 2904 2867 2846 2886 2936 2903 2885 2921
8 2904 2867 2903 2936 2869 2828 2868 2906
8 2937 2904 2869 2907 2922 2886 2847 2887
8 2906 2868 2905 2939 2871 2829 2870 2909
8 2907 2869 2906 2940 2872 2830 2871 2910
8 2909 2870 2908 2942 2874 2831 2873 2912
8 2910 2871 2909 2943 2875 2832 2874 2913
8 2912 2873 2911 2945 2877 2834 2876 2915
8 2878 2835 2874 2913 2916 2877 2912 2946
8 2915 2876 2914 2947 2880 2837 2879 2917
8 2916 2877 2915 2948 2881 2838 2880 2918
8 2918 2880 2917 2949 2883 2841 2882 2919
8 2921 2885 2849 2889 2951 2920 2888 2924
8 2952 2921 2886 2922 2925 2889 2850 2890
8 2924 2888 2854 2892 2954 2923 2893 2927
8 2925 2889 2853 2891 2955 2924 2892 2926
8 2926 2892 2856 2894 2956 2927 2895 2929
8 2895 2857 2896 2930 2927 2893 2928 2957
8 2897 2859 2898 2932 2929 2895 2930 2959
8 2898 2860 2899 2933 2930 2896 2931 2960
8 2900 2862 2901 2934 2932 2898 2933 2961
8 2936 2903 2885 2921 2963 2935 2920 2951
8 2936 2903 2935 2963 2906 2868 2905 2939
8 2937 2904 2886 2922 2964 2936 2921 2952
8 2937 2904 2936 2964 2907 2869 2906 2940
8 2939 2905 2938 2966 2909 2870 2908 2942
8 2940 2906 2939 2967 2910 2871 2909 2943
8 2942 2908 2941 2969 2912 2873 2911 2945
8 2943 2909 2942 2970 2913 2874 2912 2946
8 2945 2911 2944 2971 2915 2876 2914 2947
8 2946 2912 2945 2972 2916 2877 2915 2948
8 2948 2915 2947 2973 2918 2880 2917 2949
8 2951 2920 2888 2924 2975 2950 2923 2954
8 2952 2921 2889 2925 2976 2951 2924 2955
8 2927 2893 2928 2957 2954 2923 2953 2978
8 2955 2924 2892 2926 2979 2954 2927 2956
8 2929 2895 2930 2959 2956 2927 2957 2980
8 2930 2896 2931 2960 2957 2928 2958 2981
8 2932 2898 2933 2961 2959 2930 2960 2982
8 2951 2920 2950 2975 2963 2935 2962 2984
8 2963 2935 2962 2984 2939 2905 2938 2966
8 2964 2936 2921 2952 2985 2963 2951 2976
8 2964 2936 2963 2985 2940 2906 2939 2967
8 2966 2938 2965 2987 2942 2908 2941 2969
8 2967 2939 2966 2988 2943 2909 2942 2970
8 2969 2941 2968 2989 2945 2911 2944 2971
8 2970 2942 2969 2990 2946 2912 2945 2972
8 2972 2945 2971 2991 2948 2915 2947 2973
8 2954 2923 2953 2978 2975 2950 2974 2993
8 2976 2951 2924 2955 2994 2975 2954 2979
8 2957 2928 2958 2981 2978 2953 2977 2995
8 2956 2927 2957 2980 2979 2954 2978 2996
8 2959 2930 2960 2982 2980 2957 2981 2997
8 2984 2962 2983 2999 2966 2938 2965 2987
8 2975 2950 2974 2993 2984 2962 2983 2999
8 2976 2951 2975 2994 2985 2963 2984 3000
8 2985 2963 2984 3000 2967 2939 2966 2988
8 2987 2965 2986 3001 2969 2941 2968 2989
8 2988 2966 2987 3002 2970 2942 2969 2990
8 2990 2969 2989 3003 2972 2945 2971 2991
8 2978 2953 2977 2995 2993 2974 2992 3004
8 2979 2954 2978 2996 2994 2975 2993 3005
8 2980 2957 2981 2997 2996 2978 2995 3006
8 2974 2993 2999 2983 2992 3004 3007 2998
8 2983 2999 2987 2965 2998 3007 3001 2986
8 3000 2984 2999 3008 2988 2966 2987 3002
8 2994 2975 2993 3005 3000 2984 2999 3008
8 3002 2987 3001 3009 2990 2969 2989 3003
8 2996 2978 2995 3006 3005 2993 3004 3010
8 3005 2993 3004 3010 3008 2999 3007 3011
8 3008 2999 3007 3011 3002 2987 3001 3009

CELL_TYPES 1910
12
12
12
12
12
12
12
12
12
12
12
12
12
12
12
12
12
12
12
12
12
12
12
12
12
12
12
12
12
12
12
12
12
12
12
12
12
12
12
12
12
12
12
12
12
12
12
12
12
12
12
12
12
12
12
12
12
12
12
12
12
12
12
12
12
12
12
12
12
12
12
12
12
12
12
12
12
12
12
12
12
12
12
12
12
12
12
12
12
12
12
12
12
12
12
12
12
12
12
12
12
12
12
12
12
12
12
12
12
12
12
12
12
12
12
12
12
12
12
12
12
12
12
12
12
12
12
12
12
12
12
12
12
12
12
12
12
12
12
12
12
12
12
12
12
12
12
12
12
12
12
12
12
12
12
12
12
12
12
12
12
12
12
12
12
12
12
12
12
12
12
12
12
12
12
12
12
12
12
12
12
12
12
12
12
12
12
12
12
12
12
12
12
12
12
12
12
12
12
12
12
12
12
12
12
12
12
12
12
12
12
12
12
12
12
12
12
12
12
12
12
12
12
12
12
12
12
12
12
12
12
12
12
12
12
12
12
12
12
12
12
12
12
12
12
12
12
12
12
12
12
12
12
12
12
12
12
12
12
12
12
12
12
12
12
12
12
12
12
12
12
12
12
12
12
12
12
12
12
12
12
12
12
12
12
12
12
12
12
12
12
12
12
12
12
12
12
12
12
12
12
12
12
12
12
12
12
12
12
12
12
12
12
12
12
12
12
12
12
12
12
12
12
12
12
12
12
12
12
12
12
12
12
12
12
12
12
12
12
12
12
12
12
12
12
12
12
12
12
12
12
12
12
12
12
12
12
12
12
12
12
12
12
12
12
12
12
12
12
12
12
12
12
12
12
12
12
12
12
12
12
12
12
12
12
12
12
12
12
12
12
12
12
12
12
12
12
12
12
12
12
12
12
12
12
12
12
12
12
12
12
12
12
12
12
12
12
12
12
12
12
12
12
12
12
12
12
12
12
12
12
12
12
12
12
12
12
12
12
12
12
12
12
12
12
12
12
12
12
12
12
12
12
12
12
12
12
12
12
12
12
12
12
12
12
12
12
12
12
12
12
12
12
12
12
12
12
12
12
12
12
12
12
12
12
12
12
12
12
12
12
12
12
12
12
12
12
12
12
12
12
12
12
12
12
12
12
12
12
12
12
12
12
12
12
12
12
12
12
12
12
12
12
12
12
12
12
12
12
12
12
12
12
12
12
12
12
12
12
12
12
12
12
12
12
12
12
12
12
12
12
12
12
12
12
12
12
12
12
12
12
12
12
12
12
12
12
12
12
12
12
12
12
12
12
12
12
12
12
12
12
12
12
12
12
12
12
12
12
12
12
12
12
12
12
12
12
12
12
12
12
12
12
12
12
12
12
12
12
12
12
12
12
12
12
12
12
12
12
12
12
12
12
12
12
12
12
12
12
12
12
12
12
12
12
12
12
12
12
12
12
12
12
12
12
12
12
12
12
12
12
12
12
12
12
12
12
12
12
12
12
12
12
12
12
12
12
12
12
12
12
12
12
12
12
12
12
12
12
12
12
12
12
12
12
12
12
12
12
12
12
12
12
12
12
12
12
12
12
12
12
12
12
12
12
12
12
12
12
12
12
12
12
12
12
12
12
12
12
12
12
12
12
12
12
12
12
12
12
12
12
12
12
12
12
12
12
12
12
12
12
12
12
12
12
12
12
12
12
12
12
12
12
12
12
12
12
12
12
12
12
12
12
12
12
12
12
12
12
12
12
12
12
12
12
12
12
12
12
12
12
12
12
12
12
12
12
12
12
12
12
12
12
12
12
12
12
12
12
12
12
12
12
12
12
12
12
12
12
12
12
12
12
12
12
12
12
12
12
12
12
12
12
12
12
12
12
12
12
12
12
12
12
12
12
12
12
12
12
12
12
12
12
12
12
12
12
12
12
12
12
12
12
12
12
12
12
12
12
12
12
12
12
12
12
12
12
12
12
12
12
12
12
12
12
12
12
12
12
12
12
12
12
12
12
12
12
12
12
12
12
12
12
12
12
12
12
12
12
12
12
12
12
12
12
12
12
12
12
12
12
12
12
12
12
12
12
12
12
12
12
12
12
12
12
12
12
12
12
12
12
12
12
12
12
12
12
12
12
12
12
12
12
12
12
12
12
12
12
12
12
12
12
12
12
12
12
12
12
12
12
12
12
12
12
12
12
12
12
12
12
12
12
12
12
12
12
12
12
12
12
12
12
12
12
12
12
12
12
12
12
12
12
12
12
12
12
12
12
12
12
12
12
12
12
12
12
12
12
12
12
12
12
12
12
12
12
12
12
12
12
12
12
12
12
12
12
12
12
12
12
12
12
12
12
12
12
12
12
12
12
12
12
12
12
12
12
12
12
12
12
12
12
12
12
12
12
12
12
12
12
12
12
12
12
12
12
12
12
12
12
12
12
12
12
12
12
12
12
12
12
12
12
12
12
12
12
12
12
12
12
12
12
12
12
12
12
12
12
12
12
12
12
12
12
12
12
12
12
12
12
12
12
12
12
12
12
12
12
12
12
12
12
12
12
12
12
12
12
12
12
12
12
12
12
12
12
12
12
12
12
12
12
12
12
12
12
12
12
12
12
12
12
12
12
12
12
12
12
12
12
12
12
12
12
12
12
12
12
12
12
12
12
12
12
12
12
12
12
12
12
12
12
12
12
12
12
12
12
12
12
12
12
12
12
12
12
12
12
12
12
12
12
12
12
12
12
12
12
12
12
12
12
12
12
12
12
12
12
12
12
12
12
12
12
12
12
12
12
12
12
12
12
12
12
12
12
12
12
12
12
12
12
12
12
12
12
12
12
12
12
12
12
12
12
12
12
12
12
12
12
12
12
12
12
12
12
12
12
12
12
12
12
12
12
12
12
12
12
12
12
12
12
12
12
12
12
12
12
12
12
12
12
12
12
12
12
12
12
12
12
12
12
12
12
12
12
12
12
12
12
12
12
12
12
12
12
12
12
12
12
12
12
12
12
12
12
12
12
12
12
12
12
12
12
12
12
12
12
12
12
12
12
12
12
12
12
12
12
12
12
12
12
12
12
12
12
12
12
12
12
12
12
12
12
12
12
12
12
12
12
12
12
12
12
12
12
12
12
12
12
12
12
12
12
12
12
12
12
12
12
12
12
12
12
12
12
12
12
12
12
12
12
12
12
12
12
12
12
12
12
12
12
12
12
12
12
12
12
12
12
12
12
12
12
12
12
12
12
12
12
12
12
12
12
12
12
12
12
12
12
12
12
12
12
12
12
12
12
12
12
12
12
12
12
12
12
12
12
12
12
12
12
12
12
12
12
12
12
12
12
12
12
12
12
12
12
12
12
12
12
12
12
12
12
12
12
12
12
12
12
12
12
12
12
12
12
12
12
12
12
12
12
12
12
12
12
12
12
12
12
12
12
12
12
12
12
12
12
12
12
12
12
12
12
12
12
12
12
12
12
12
12
12
12
12
12
12
12
12
12
12
12
12
12
12
12
12
12
12
12
12
12
12
12
12
12
12
12
12
12
12
12
12
12
12
12
12
12
12
12
12
12
12
12
12
12
12
12
12
12
12
12
12
12
12
12
12
12
12
12
12
12
12
12
12
12
12
12
12
12
12
12
12
12
12
12
12
12
12
12
12
12
12
12
12
12
12
12
12
12
12
12
12
12
12
12
12
12
12
12
12
12
12
12
12
12
12
12
12
12
12
12
12
12
12
12
12
12
12
12
12
12
12
12
12
12
12
12
12
12
12
12
12
12
12
12
12
12
12
12
12
12
12
12
12
12
12
12
12
12
12
12
12
12
12
12
12
12
12
12
12
12
12
12
12
12
12
12
12
12
12
12
12
12
12
12
12
12
12
12
12
12
12
12
12
12
12
12
12
12
12
12
12
12
12
12
12
12
12
12
12
12
12
12
12
12
12
12
12
12
12
12
12
12
12
12
12
12
12
12
12
12
12
12
12
12
12
12
12
12
12
12
12
12
12
12
12
12
12
12
12
12
12
12
12
12
12
12
12
12
12
12
12
12
12
12
12
12
12
12
12
12
12
12
12
12
12
12
12
12
12
12
12
12
12
12
12
12
12
12
12
12
12
12
12
12
12
12
12
12
12
12
12
12
12
12
12
12
12
12
12
12
12
12
12
12
12
12
12
12
12
12
12
12
12
12
12
12
12
12
12
12
12
12
12
12
12
12
12
12
12
12
12
12
12
12
12
12
12
12
12
12
12
12
12
12
12
12
12
12
12
12
12
12
12
12
12
12
12
12
12
12
12
12
12
12
12
12
12
12
12
12
12
12
12
12
12
12
12

POINT_DATA 3012
SCALARS Jp_lamdaP float 4
LOOKUP_TABLE default
1 1 1 1
1 1 1 1
1 1 1 1
1 1 1 1
1 1 1 1
1 1 1 1
0.999997 1 1 0.999997
1 1 1 1
1 1 1 1
1 1 1 1
1 1 1 1
1 1 1 1
1 1 1 1
1 1 1 1
1 1 1 1
1 1 1 1
1 1 1 1
1 1 1 1
0.999998 1 1 0.999998
1 1 1 1
1 1 1 1
1 1 1 1
0.999991 1 1 0.999991
0.999996 1 1 0.999996
1 1 1 1
0.999999 1 1 0.999999
0.999984 1 1 0.999984
1 1 1 1
1 1 1 1
1 1 1 1
1 1 1 1
1 1 1 1
1 1 1 1
1 1 1 1
1 1 1 1
1 1 1 1
1 1 1 1
1 1 1 1
0.999992 1 1 0.999992
1 1 1 1
1 1 1 1
1 1 1 1
1 1 1 1
1 1 1 1
0.999995 1 1 0.999995
1 1 1 1
0.999998 1 1 0.999998
1 1 1 1
1 1 1 1
1 1 1 1
0.999998 1 1 0.999998
1 1 1 1
1 1 1 1
1 1 1 1
1 1 1 1
0.999992 1 1 0.999992
0.999999 1 1 0.999999
0.999996 1 1 0.999996
0.999983 1 1 0.999983
1 1 1 1
1 1 1 1
0.999995 1 1 0.999995
0.999989 1 1 0.999989
0.999994 1 1 0.999994
0.999965 1 1 0.999965
0.999974 1 1 0.999974
1 1 1 1
1 1 1 1
0.999989 1 1 0.999989
0.999946 1 1 0.999946
1 1 1 1
1 1 1 1
1 1 1 1
1 1 1 1
1 1 1 1
1 1 1 1
1 1 1 1
1 1 1 1
1 1 1 1
1 1 1 1
0.999992 1 1 0.999992
1 1 1 1
1 1 1 1
1 1 1 1
1 1 1 1
0.99997 1 1 0.99997
1 1 1 1
0.999987 1 1 0.999987
0.999995 1 1 0.999995
0.999961 1 1 0.999961
1 1 1 1
1 1 1 1
1 1 1 1
1 1 1 1
1 1 1 1
1 1 1 1
0.999996 1 1 0.999996
1 1 1 1
0.999999 1 1 0.999999
1 1 1 1
0.999994 1 1 0.999994
0.999997 1 1 0.999997
0.999951 1 1 0.999951
0.999999 1 1 0.999999
0.999956 1 1 0.999956
1 1 1 1
1 1 1 1
1 1 1 1
1 1 1 1
0.999992 1 1 0.999992
0.999997 1 1 0.999997
0.999999 1 1 0.999999
0.999982 1 1 0.999982
1 1 1 1
1 1 1 1
0.999991 1 1 0.999991
0.999989 1 1 0.999989
1 1 1 1
1 1 1 1
0.999994 1 1 0.999994
0.999963 1 1 0.999963
0.999988 1 1 0.999988
0.999976 1 1 0.999976
0.999947 1 1 0.999947
0.999994 1 1 0.999994
0.999988 1 1 0.999988
0.999952 1 1 0.999952
0.999956 1 1 0.999956
0.999968 1 1 0.999968
0.99993 1 1 0.99993
1 1 1 1
0.999942 1 1 0.999942
1 1 1 1
0.999993 1 1 0.999993
0.999951 1 1 0.999951
0.99993 1 1 0.99993
1 1 1 1
0.999997 1 1 0.999997
1 1 1 1
1 1 1 1
1 1 1 1
1 1 1 1
1 1 1 1
1 1 1 1
0.999993 1 1 0.999993
1 1 1 1
1 1 1 1
1 1 1 1
1 1 1 1
0.999971 1 1 0.999971
1 1 1 1
0.999988 1 1 0.999988
0.999995 1 1 0.999995
0.99996 1 1 0.99996
1 1 1 1
1 1 1 1
0.999998 1 1 0.999998
0.999964 1 1 0.999964
0.999979 1 1 0.999979
0.999935 1 1 0.999935
0.999997 1 1 0.999997
0.999953 1 1 0.999953
0.999965 1 1 0.999965
0.999944 1 1 0.999944
1 1 1 1
1 1 1 1
1 1 1 1
1 1 1 1
1 1 1 1
1 1 1 1
1 1 1 1
0.999999 1 1 0.999999
0.999996 1 1 0.999996
1 1 1 1
1 1 1 1
0.999994 1 1 0.999994
0.999997 1 1 0.999997
0.999951 1 1 0.999951
1 1 1 1
0.999956 1 1 0.999956
0.999994 1 1 0.999994
0.999952 1 1 0.999952
0.999952 1 1 0.999952
0.999927 1 1 0.999927
0.99996 1 1 0.99996
0.999927 1 1 0.999927
1 1 1 1
1 1 1 1
0.999986 1 1 0.999986
0.999989 1 1 0.999989
1 1 1 1
1 1 1 1
0.999995 1 1 0.999995
0.999961 1 1 0.999961
0.999978 1 1 0.999978
0.999987 1 1 0.999987
0.999947 1 1 0.999947
0.999994 1 1 0.999994
0.999988 1 1 0.999988
0.999947 1 1 0.999947
0.999958 1 1 0.999958
1 1 1 1
1 1 1 1
0.999993 1 1 0.999993
0.999968 1 1 0.999968
0.999927 1 1 0.999927
0.99995 1 1 0.99995
0.999944 1 1 0.999944
0.99993 1 1 0.99993
1 1 1 1
0.999997 1 1 0.999997
0.99995 1 1 0.99995
0.999952 1 1 0.999952
0.999923 1 1 0.999923
0.999918 1 1 0.999918
0.999938 1 1 0.999938
0.999914 1 1 0.999914
1 1 1 1
0.999927 1 1 0.999927
0.999996 1 1 0.999996
0.999956 1 1 0.999956
0.999934 1 1 0.999934
0.999925 1 1 0.999925
0.999997 1 1 0.999997
0.999997 1 1 0.999997
0.999969 1 1 0.999969
1 1 1 1
1 1 1 1
1 1 1 1
1 1 1 1
0.999971 1 1 0.999971
1 1 1 1
0.999996 1 1 0.999996
0.999988 1 1 0.999988
0.999958 1 1 0.999958
1 1 1 1
1 1 1 1
0.999998 1 1 0.999998
0.999963 1 1 0.999963
0.99998 1 1 0.99998
0.999935 1 1 0.999935
0.999997 1 1 0.999997
0.999954 1 1 0.999954
0.999965 1 1 0.999965
0.999943 1 1 0.999943
1 1 1 1
0.999998 1 1 0.999998
0.999998 1 1 0.999998
0.999972 1 1 0.999972
0.999931 1 1 0.999931
0.999945 1 1 0.999945
0.999919 1 1 0.999919
0.999969 1 1 0.999969
0.999936 1 1 0.999936
0.999941 1 1 0.999941
0.999931 1 1 0.999931
0.999999 1 1 0.999999
1 1 1 1
1 1 1 1
1 1 1 1
1 1 1 1
1 1 1 1
1 1 1 1
1 1 1 1
1 1 1 1
1 1 1 1
0.999998 1 1 0.999998
0.999956 1 1 0.999956
0.999951 1 1 0.999951
0.999995 1 1 0.999995
1 1 1 1
0.999994 1 1 0.999994
0.999952 1 1 0.999952
0.999952 1 1 0.999952
0.999927 1 1 0.999927
0.999959 1 1 0.999959
0.999927 1 1 0.999927
0.999952 1 1 0.999952
0.999931 1 1 0.999931
0.999925 1 1 0.999925
0.999917 1 1 0.999917
0.999929 1 1 0.999929
0.999918 1 1 0.999918
0.999994 1 1 0.999994
0.999987 1 1 0.999987
0.999943 1 1 0.999943
0.999959 1 1 0.999959
1 1 1 1
1 1 1 1
0.999992 1 1 0.999992
0.999969 1 1 0.999969
0.999924 1 1 0.999924
0.999946 1 1 0.999946
0.99995 1 1 0.99995
0.99993 1 1 0.99993
1 1 1 1
0.999997 1 1 0.999997
0.999948 1 1 0.999948
0.999952 1 1 0.999952
0.999923 1 1 0.999923
0.999921 1 1 0.999921
1 1 1 1
0.999995 1 1 0.999995
0.999958 1 1 0.999958
0.999939 1 1 0.999939
0.999914 1 1 0.999914
0.999932 1 1 0.999932
0.999927 1 1 0.999927
0.999925 1 1 0.999925
0.999997 1 1 0.999997
0.999967 1 1 0.999967
0.999997 1 1 0.999997
0.999928 1 1 0.999928
0.99992 1 1 0.99992
0.99991 1 1 0.99991
0.999906 1 1 0.999906
0.999923 1 1 0.999923
0.999912 1 1 0.999912
0.999997 1 1 0.999997
0.999923 1 1 0.999923
0.999965 1 1 0.999965
0.999935 1 1 0.999935
0.999923 1 1 0.999923
0.999928 1 1 0.999928
0.999998 1 1 0.999998
0.999969 1 1 0.999969
0.999965 1 1 0.999965
0.999949 1 1 0.999949
0.999963 1 1 0.999963
1 1 1 1
1 1 1 1
0.999998 1 1 0.999998
0.999981 1 1 0.999981
0.999935 1 1 0.999935
0.999998 1 1 0.999998
0.999965 1 1 0.999965
0.999955 1 1 0.999955
0.999941 1 1 0.999941
1 1 1 1
0.999998 1 1 0.999998
0.999998 1 1 0.999998
0.999972 1 1 0.999972
0.999931 1 1 0.999931
0.999945 1 1 0.999945
0.999919 1 1 0.999919
0.999969 1 1 0.999969
0.999937 1 1 0.999937
0.999941 1 1 0.999941
0.999934 1 1 0.999934
1 1 1 1
0.999998 1 1 0.999998
0.999972 1 1 0.999972
0.999973 1 1 0.999973
0.999947 1 1 0.999947
0.999919 1 1 0.999919
0.999927 1 1 0.999927
0.999914 1 1 0.999914
0.999943 1 1 0.999943
0.999928 1 1 0.999928
0.99992 1 1 0.99992
0.999998 1 1 0.999998
0.999977 1 1 0.999977
0.999999 1 1 0.999999
0.999999 1 1 0.999999
1 1 1 1
1 1 1 1
1 1 1 1
1 1 1 1
1 1 1 1
1 1 1 1
1 1 1 1
1 1 1 1
1 1 1 1
1 1 1 1
1 1 1 1
0.999959 1 1 0.999959
0.999952 1 1 0.999952
0.999927 1 1 0.999927
0.999926 1 1 0.999926
0.999952 1 1 0.999952
0.999994 1 1 0.999994
0.999952 1 1 0.999952
0.999931 1 1 0.999931
0.999925 1 1 0.999925
0.999918 1 1 0.999918
0.999929 1 1 0.999929
0.999918 1 1 0.999918
0.999931 1 1 0.999931
0.999924 1 1 0.999924
0.999915 1 1 0.999915
0.999913 1 1 0.999913
0.99992 1 1 0.99992
0.999919 1 1 0.999919
0.999947 1 1 0.999947
0.999952 1 1 0.999952
0.999922 1 1 0.999922
0.999925 1 1 0.999925
1 1 1 1
0.999995 1 1 0.999995
0.99996 1 1 0.99996
0.999939 1 1 0.999939
0.999913 1 1 0.999913
0.999927 1 1 0.999927
0.99993 1 1 0.99993
0.999925 1 1 0.999925
0.999997 1 1 0.999997
0.999966 1 1 0.999966
0.999997 1 1 0.999997
0.999927 1 1 0.999927
0.999919 1 1 0.999919
0.999909 1 1 0.999909
0.999907 1 1 0.999907
0.999997 1 1 0.999997
0.999965 1 1 0.999965
0.999937 1 1 0.999937
0.999924 1 1 0.999924
0.999913 1 1 0.999913
0.999922 1 1 0.999922
0.999923 1 1 0.999923
0.999929 1 1 0.999929
0.999969 1 1 0.999969
0.999947 1 1 0.999947
0.999998 1 1 0.999998
0.999965 1 1 0.999965
0.999915 1 1 0.999915
0.999904 1 1 0.999904
0.999902 1 1 0.999902
0.999905 1 1 0.999905
0.999921 1 1 0.999921
0.999915 1 1 0.999915
0.999968 1 1 0.999968
0.999929 1 1 0.999929
0.999942 1 1 0.999942
0.999923 1 1 0.999923
0.999919 1 1 0.999919
0.999932 1 1 0.999932
0.999998 1 1 0.999998
0.999965 1 1 0.999965
0.999947 1 1 0.999947
0.999944 1 1 0.999944
0.999936 1 1 0.999936
1 1 1 1
0.99993 1 1 0.99993
0.999998 1 1 0.999998
0.999998 1 1 0.999998
0.999972 1 1 0.999972
0.999945 1 1 0.999945
0.999919 1 1 0.999919
0.999969 1 1 0.999969
0.99994 1 1 0.99994
0.999939 1 1 0.999939
0.999936 1 1 0.999936
1 1 1 1
0.999998 1 1 0.999998
0.999972 1 1 0.999972
0.999973 1 1 0.999973
0.999946 1 1 0.999946
0.999918 1 1 0.999918
0.999927 1 1 0.999927
0.999914 1 1 0.999914
0.999943 1 1 0.999943
0.999929 1 1 0.999929
0.999922 1 1 0.999922
0.999998 1 1 0.999998
0.999974 1 1 0.999974
0.999945 1 1 0.999945
0.999946 1 1 0.999946
0.999934 1 1 0.999934
0.999919 1 1 0.999919
0.999919 1 1 0.999919
0.999925 1 1 0.999925
0.999923 1 1 0.999923
0.999911 1 1 0.999911
0.999999 1 1 0.999999
0.999971 1 1 0.999971
0.999975 1 1 0.999975
0.999953 1 1 0.999953
0.999977 1 1 0.999977
0.999999 1 1 0.999999
0.999999 1 1 0.999999
1 1 1 1
0.999999 1 1 0.999999
1 1 1 1
1 1 1 1
1 1 1 1
1 1 1 1
1 1 1 1
1 1 1 1
1 1 1 1
1 1 1 1
1 1 1 1
1 1 1 1
1 1 1 1
0.999929 1 1 0.999929
0.999925 1 1 0.999925
0.999918 1 1 0.999918
0.999918 1 1 0.999918
0.999931 1 1 0.999931
0.999952 1 1 0.999952
0.999931 1 1 0.999931
0.999925 1 1 0.999925
0.999915 1 1 0.999915
0.999912 1 1 0.999912
0.99992 1 1 0.99992
0.999918 1 1 0.999918
0.999924 1 1 0.999924
0.999923 1 1 0.999923
0.999911 1 1 0.999911
0.999907 1 1 0.999907
0.999922 1 1 0.999922
0.99992 1 1 0.99992
0.999926 1 1 0.999926
0.999919 1 1 0.999919
0.999907 1 1 0.999907
0.999908 1 1 0.999908
0.999996 1 1 0.999996
0.999965 1 1 0.999965
0.999939 1 1 0.999939
0.999925 1 1 0.999925
0.999913 1 1 0.999913
0.999923 1 1 0.999923
0.99992 1 1 0.99992
0.99993 1 1 0.99993
0.999969 1 1 0.999969
0.999944 1 1 0.999944
0.999997 1 1 0.999997
0.999965 1 1 0.999965
0.999915 1 1 0.999915
0.999905 1 1 0.999905
0.9999 1 1 0.9999
0.999905 1 1 0.999905
0.999968 1 1 0.999968
0.999943 1 1 0.999943
0.999923 1 1 0.999923
0.999921 1 1 0.999921
0.999916 1 1 0.999916
0.999918 1 1 0.999918
0.999929 1 1 0.999929
0.999935 1 1 0.999935
0.999947 1 1 0.999947
0.999934 1 1 0.999934
0.999944 1 1 0.999944
0.999996 1 1 0.999996
0.999965 1 1 0.999965
0.99991 1 1 0.99991
0.999897 1 1 0.999897
0.999908 1 1 0.999908
0.999925 1 1 0.999925
0.999947 1 1 0.999947
0.99994 1 1 0.99994
0.999929 1 1 0.999929
0.999911 1 1 0.999911
0.999917 1 1 0.999917
0.999994 1 1 0.999994
0.999971 1 1 0.999971
0.999942 1 1 0.999942
0.999936 1 1 0.999936
0.999927 1 1 0.999927
0.999926 1 1 0.999926
1 1 1 1
0.999998 1 1 0.999998
0.999918 1 1 0.999918
0.999973 1 1 0.999973
0.999972 1 1 0.999972
0.999945 1 1 0.999945
0.999927 1 1 0.999927
0.999913 1 1 0.999913
0.999943 1 1 0.999943
0.999923 1 1 0.999923
0.999929 1 1 0.999929
0.999998 1 1 0.999998
0.999974 1 1 0.999974
0.999946 1 1 0.999946
0.999946 1 1 0.999946
0.999933 1 1 0.999933
0.999918 1 1 0.999918
0.999919 1 1 0.999919
0.999926 1 1 0.999926
0.999922 1 1 0.999922
0.99991 1 1 0.99991
0.999974 1 1 0.999974
0.999943 1 1 0.999943
0.999928 1 1 0.999928
0.999929 1 1 0.999929
0.999924 1 1 0.999924
0.999939 1 1 0.999939
0.999913 1 1 0.999913
0.999926 1 1 0.999926
0.999911 1 1 0.999911
0.999896 1 1 0.999896
0.999999 1 1 0.999999
0.999973 1 1 0.999973
0.999944 1 1 0.999944
0.999972 1 1 0.999972
0.999977 1 1 0.999977
0.99995 1 1 0.99995
0.999933 1 1 0.999933
0.999947 1 1 0.999947
0.999978 1 1 0.999978
0.999999 1 1 0.999999
0.999999 1 1 0.999999
1 1 1 1
0.999999 1 1 0.999999
1 1 1 1
1 1 1 1
1 1 1 1
1 1 1 1
1 1 1 1
1 1 1 1
1 1 1 1
1 1 1 1
1 1 1 1
1 1 1 1
1 1 1 1
0.99992 1 1 0.99992
0.999915 1 1 0.999915
0.999918 1 1 0.999918
0.999911 1 1 0.999911
0.999926 1 1 0.999926
0.999931 1 1 0.999931
0.999925 1 1 0.999925
0.999923 1 1 0.999923
0.999911 1 1 0.999911
0.999904 1 1 0.999904
0.999923 1 1 0.999923
0.999919 1 1 0.999919
0.999929 1 1 0.999929
0.999917 1 1 0.999917
0.999905 1 1 0.999905
0.999936 1 1 0.999936
0.999916 1 1 0.999916
0.999905 1 1 0.999905
0.999898 1 1 0.999898
0.999905 1 1 0.999905
0.999968 1 1 0.999968
0.999945 1 1 0.999945
0.999923 1 1 0.999923
0.99992 1 1 0.99992
0.999917 1 1 0.999917
0.999929 1 1 0.999929
0.999917 1 1 0.999917
0.999937 1 1 0.999937
0.999947 1 1 0.999947
0.999933 1 1 0.999933
0.999944 1 1 0.999944
0.999994 1 1 0.999994
0.999966 1 1 0.999966
0.999907 1 1 0.999907
0.999898 1 1 0.999898
0.999909 1 1 0.999909
0.999947 1 1 0.999947
0.999931 1 1 0.999931
0.99991 1 1 0.99991
0.999924 1 1 0.999924
0.99992 1 1 0.99992
0.99994 1 1 0.99994
0.999994 1 1 0.999994
0.999935 1 1 0.999935
0.999926 1 1 0.999926
0.999928 1 1 0.999928
0.999943 1 1 0.999943
0.999969 1 1 0.999969
0.999905 1 1 0.999905
0.999897 1 1 0.999897
0.999918 1 1 0.999918
0.999937 1 1 0.999937
0.999934 1 1 0.999934
0.999931 1 1 0.999931
0.999914 1 1 0.999914
0.999903 1 1 0.999903
0.999995 1 1 0.999995
0.999971 1 1 0.999971
0.999946 1 1 0.999946
0.999921 1 1 0.999921
0.999924 1 1 0.999924
0.999917 1 1 0.999917
0.999998 1 1 0.999998
0.999974 1 1 0.999974
0.999918 1 1 0.999918
0.999946 1 1 0.999946
0.999947 1 1 0.999947
0.999931 1 1 0.999931
0.999918 1 1 0.999918
0.999927 1 1 0.999927
0.999921 1 1 0.999921
0.999908 1 1 0.999908
0.999974 1 1 0.999974
0.999944 1 1 0.999944
0.99993 1 1 0.99993
0.99993 1 1 0.99993
0.999924 1 1 0.999924
0.99994 1 1 0.99994
0.999914 1 1 0.999914
0.999931 1 1 0.999931
0.99991 1 1 0.99991
0.999893 1 1 0.999893
0.999943 1 1 0.999943
0.999923 1 1 0.999923
0.999916 1 1 0.999916
0.999917 1 1 0.999917
0.999941 1 1 0.999941
0.999944 1 1 0.999944
0.999899 1 1 0.999899
0.999889 1 1 0.999889
0.999975 1 1 0.999975
0.999946 1 1 0.999946
0.999929 1 1 0.999929
0.999977 1 1 0.999977
0.999946 1 1 0.999946
0.999977 1 1 0.999977
0.99993 1 1 0.99993
0.999949 1 1 0.999949
0.999918 1 1 0.999918
0.999928 1 1 0.999928
0.999947 1 1 0.999947
0.999977 1 1 0.999977
0.999999 1 1 0.999999
0.999999 1 1 0.999999
1 1 1 1
0.999999 1 1 0.999999
1 1 1 1
1 1 1 1
1 1 1 1
1 1 1 1
1 1 1 1
1 1 1 1
1 1 1 1
1 1 1 1
1 1 1 1
1 1 1 1
1 1 1 1
0.999923 1 1 0.999923
0.999911 1 1 0.999911
0.999918 1 1 0.999918
0.9999 1 1 0.9999
0.999923 1 1 0.999923
0.999925 1 1 0.999925
0.999926 1 1 0.999926
0.999917 1 1 0.999917
0.999907 1 1 0.999907
0.999934 1 1 0.999934
0.999923 1 1 0.999923
0.999913 1 1 0.999913
0.999923 1 1 0.999923
0.999905 1 1 0.999905
0.999899 1 1 0.999899
0.99991 1 1 0.99991
0.999947 1 1 0.999947
0.999933 1 1 0.999933
0.99991 1 1 0.99991
0.999923 1 1 0.999923
0.999939 1 1 0.999939
0.999923 1 1 0.999923
0.999935 1 1 0.999935
0.999927 1 1 0.999927
0.999929 1 1 0.999929
0.999994 1 1 0.999994
0.999944 1 1 0.999944
0.999967 1 1 0.999967
0.999908 1 1 0.999908
0.999896 1 1 0.999896
0.999916 1 1 0.999916
0.999934 1 1 0.999934
0.999916 1 1 0.999916
0.999904 1 1 0.999904
0.999939 1 1 0.999939
0.99993 1 1 0.99993
0.999997 1 1 0.999997
0.999971 1 1 0.999971
0.999924 1 1 0.999924
0.999918 1 1 0.999918
0.999922 1 1 0.999922
0.999944 1 1 0.999944
0.999913 1 1 0.999913
0.999897 1 1 0.999897
0.999939 1 1 0.999939
0.999947 1 1 0.999947
0.999921 1 1 0.999921
0.999907 1 1 0.999907
0.999905 1 1 0.999905
1 1 1 1
0.99998 1 1 0.99998
0.999971 1 1 0.999971
0.999941 1 1 0.999941
0.999921 1 1 0.999921
0.99991 1 1 0.99991
0.999918 1 1 0.999918
0.99991 1 1 0.99991
0.999974 1 1 0.999974
0.999945 1 1 0.999945
0.999941 1 1 0.999941
0.999931 1 1 0.999931
0.999933 1 1 0.999933
0.999925 1 1 0.999925
0.999914 1 1 0.999914
0.999936 1 1 0.999936
0.999908 1 1 0.999908
0.99989 1 1 0.99989
0.999943 1 1 0.999943
0.999925 1 1 0.999925
0.999918 1 1 0.999918
0.999918 1 1 0.999918
0.99994 1 1 0.99994
0.999942 1 1 0.999942
0.999901 1 1 0.999901
0.999888 1 1 0.999888
0.999926 1 1 0.999926
0.999933 1 1 0.999933
0.999911 1 1 0.999911
0.999903 1 1 0.999903
0.999959 1 1 0.999959
0.999899 1 1 0.999899
0.99988 1 1 0.99988
0.999948 1 1 0.999948
0.999929 1 1 0.999929
0.999916 1 1 0.999916
0.999977 1 1 0.999977
0.99995 1 1 0.99995
0.999928 1 1 0.999928
0.999977 1 1 0.999977
0.999948 1 1 0.999948
0.999917 1 1 0.999917
0.999931 1 1 0.999931
0.999909 1 1 0.999909
0.999914 1 1 0.999914
0.999932 1 1 0.999932
0.999949 1 1 0.999949
0.999976 1 1 0.999976
0.999999 1 1 0.999999
0.999999 1 1 0.999999
1 1 1 1
0.999999 1 1 0.999999
1 1 1 1
1 1 1 1
1 1 1 1
1 1 1 1
1 1 1 1
1 1 1 1
1 1 1 1
1 1 1 1
1 1 1 1
1 1 1 1
1 1 1 1
1 1 1 1
0.999932 1 1 0.999932
0.99991 1 1 0.99991
0.999916 1 1 0.999916
0.999923 1 1 0.999923
0.999926 1 1 0.999926
0.999912 1 1 0.999912
0.999927 1 1 0.999927
0.999922 1 1 0.999922
0.999917 1 1 0.999917
0.999952 1 1 0.999952
0.999911 1 1 0.999911
0.999895 1 1 0.999895
0.999914 1 1 0.999914
0.999934 1 1 0.999934
0.999917 1 1 0.999917
0.999906 1 1 0.999906
0.999941 1 1 0.999941
0.99993 1 1 0.99993
0.999925 1 1 0.999925
0.999918 1 1 0.999918
0.999924 1 1 0.999924
0.999999 1 1 0.999999
0.999971 1 1 0.999971
0.999943 1 1 0.999943
0.99991 1 1 0.99991
1 1 1 1
0.999978 1 1 0.999978
0.999898 1 1 0.999898
0.999935 1 1 0.999935
0.999922 1 1 0.999922
0.999903 1 1 0.999903
0.999908 1 1 0.999908
0.999946 1 1 0.999946
0.999975 1 1 0.999975
0.999941 1 1 0.999941
0.999918 1 1 0.999918
0.99991 1 1 0.99991
0.999908 1 1 0.999908
0.999922 1 1 0.999922
0.999892 1 1 0.999892
0.999917 1 1 0.999917
0.999966 1 1 0.999966
0.999925 1 1 0.999925
0.999913 1 1 0.999913
0.999895 1 1 0.999895
0.999978 1 1 0.999978
0.999978 1 1 0.999978
0.999954 1 1 0.999954
0.999938 1 1 0.999938
0.999922 1 1 0.999922
0.9999 1 1 0.9999
0.999897 1 1 0.999897
0.99991 1 1 0.99991
0.999942 1 1 0.999942
0.999927 1 1 0.999927
0.999939 1 1 0.999939
0.999941 1 1 0.999941
0.999919 1 1 0.999919
0.999919 1 1 0.999919
0.999903 1 1 0.999903
0.999888 1 1 0.999888
0.999926 1 1 0.999926
0.999943 1 1 0.999943
0.999911 1 1 0.999911
0.999901 1 1 0.999901
0.999956 1 1 0.999956
0.9999 1 1 0.9999
0.999879 1 1 0.999879
0.999912 1 1 0.999912
0.999963 1 1 0.999963
0.999902 1 1 0.999902
0.999882 1 1 0.999882
0.999903 1 1 0.999903
1.00017 1 1.0003 0.999867
0.984307 1.00118 0.983276 0.999867
0.999929 1 1 0.999929
0.999916 1 1 0.999916
0.999908 1 1 0.999908
0.999977 1 1 0.999977
0.999948 1 1 0.999948
0.999933 1 1 0.999933
0.999915 1 1 0.999915
0.999976 1 1 0.999976
0.999947 1 1 0.999947
0.999909 1 1 0.999909
0.999931 1 1 0.999931
0.999916 1 1 0.999916
0.999904 1 1 0.999904
0.999918 1 1 0.999918
0.999932 1 1 0.999932
0.999944 1 1 0.999944
0.999971 1 1 0.999971
0.99995 1 1 0.99995
0.999971 1 1 0.999971
0.999999 1 1 0.999999
0.999999 1 1 0.999999
1 1 1 1
0.999999 1 1 0.999999
1 1 1 1
1 1 1 1
1 1 1 1
1 1 1 1
1 1 1 1
1 1 1 1
1 1 1 1
1 1 1 1
1 1 1 1
1 1 1 1
1 1 1 1
1 1 1 1
1 1 1 1
0.99993 1 1 0.99993
0.999911 1 1 0.999911
0.999928 1 1 0.999928
0.999922 1 1 0.999922
0.999917 1 1 0.999917
0.999966 1 1 0.999966
0.99992 1 1 0.99992
0.996929 1 0.996943 0.999986
1 1 1 1
0.999986 1 1 0.999986
0.999907 1 1 0.999907
0.999899 1 1 0.999899
0.999931 1 1 0.999931
0.999922 1 1 0.999922
0.999902 1 1 0.999902
0.999908 1 1 0.999908
0.999946 1 1 0.999946
0.999918 1 1 0.999918
0.999911 1 1 0.999911
0.999906 1 1 0.999906
0.999999 1 1 0.999999
0.999923 1 1 0.999923
0.999979 1 1 0.999979
0.999941 1 1 0.999941
0.999976 1 1 0.999976
0.999887 1 1 0.999887
0.999981 1 1 0.999981
0.999978 1 1 0.999978
0.999951 1 1 0.999951
0.999918 1 1 0.999918
0.999961 1 1 0.999961
0.999913 1 1 0.999913
0.999895 1 1 0.999895
0.999925 1 1 0.999925
0.99994 1 1 0.99994
0.999922 1 1 0.999922
0.99991 1 1 0.99991
0.999899 1 1 0.999899
0.999902 1 1 0.999902
0.999921 1 1.00004 0.999877
0.99895 1 0.998988 0.999961
0.999945 1 1 0.999945
0.9999 1 1 0.9999
0.999905 1 1 0.999905
0.999951 1 1 0.999951
0.999942 1 1 0.999942
0.999931 1 1 0.999931
0.999916 1 1 0.999916
0.999905 1 1 0.999905
0.999887 1 1 0.999887
0.999893 1 1 0.999893
0.999926 1 1 0.999926
0.999911 1 1 0.999911
0.999953 1 1 0.999953
0.999954 1 1 0.999954
0.999902 1 1 0.999902
0.999899 1 1 0.999899
0.999877 1 1 0.999877
0.999913 1 1 0.999913
0.999968 1 1 0.999968
0.999901 1 1 0.999901
0.999882 1 1 0.999882
0.99991 1 1 0.99991
1.00049 1 1.00063 0.999865
0.987689 1.00272 0.985127 0.999876
0.999903 1 1 0.999903
0.999886 1 1 0.999886
0.999892 1 1 0.999892
1.00133 1 1.00147 0.99986
1.0003 1 1.00045 0.999848
0.972311 0.97269 1.00001 0.999605
0.989199 1.00141 0.987892 0.999918
0.982904 1.00396 0.9792 0.999824
0.97591 0.981035 0.994791 0.999984
0.985345 1.00142 0.983949 1
0.999916 1 1 0.999916
0.999909 1 1 0.999909
0.999903 1 1 0.999903
0.999976 1 1 0.999976
0.999946 1 1 0.999946
0.999931 1 1 0.999931
0.999918 1 1 0.999918
0.999909 1 1 0.999909
0.999929 1 1 0.999929
0.999973 1 1 0.999973
0.999945 1 1 0.999945
0.999906 1 1 0.999906
0.999917 1 1 0.999917
0.999918 1 1 0.999918
0.999906 1 1 0.999906
0.999924 1 1 0.999924
0.999942 1 1 0.999942
0.99997 1 1 0.99997
0.999947 1 1 0.999947
0.99993 1 1 0.99993
0.999946 1 1 0.999946
0.999947 1 1 0.999947
0.999975 1 1 0.999975
0.999971 1 1 0.999971
0.999999 1 1 0.999999
0.999999 1 1 0.999999
1 1 1 1
0.999999 1 1 0.999999
1 1 1 1
1 1 1 1
1 1 1 1
1 1 1 1
1 1 1 1
1 1 1 1
1 1 1 1
1 1 1 1
1 1 1 1
1 1 1 1
1 1 1 1
1 1 1 1
1 1 1 1
1 1 1 1
0.999917 1 1 0.999917
0.999923 1 1 0.999923
0.999979 1 1 0.999979
0.996469 1 0.996483 0.999987
0.999921 1 1 0.999921
0.999986 1 1 0.999986
0.999944 1 1.00004 0.999906
0.989817 0.992264 0.997686 0.999848
0.999999 1 1 0.999999
0.999988 1 1 0.999988
0.999985 1 1 0.999985
0.999958 1 1 0.999958
0.999964 1 1 0.999964
0.999883 1 1 0.999883
0.999918 1 1 0.999918
0.999955 1 1 0.999955
0.999914 1 1 0.999914
0.999895 1 1 0.999895
0.999926 1 1 0.999926
0.999909 1 1 0.999909
0.999902 1 1 0.999902
0.999904 1 1 0.999904
0.999978 1 1 0.999978
0.999921 1 1 0.999921
0.999943 1 1 0.999943
0.999983 1 1 0.999983
0.999947 1 1 0.999947
0.999915 1 1.00003 0.99988
0.999954 1 1 0.999954
0.999945 1 1 0.999945
0.999933 1 1 0.999933
0.999431 1 0.999471 0.99996
0.999945 1 1 0.999945
0.999905 1 1 0.999905
0.999902 1 1 0.999902
0.999916 1 1 0.999916
0.999906 1 1 0.999906
0.999893 1 1 0.999893
0.999888 1 1 0.999888
0.999948 1 1.00003 0.999918
0.998945 1 0.99897 0.999975
0.999899 1 1 0.999899
0.999896 1 1 0.999896
0.999925 1 1 0.999925
0.999919 1 1 0.999919
0.99989 1 1 0.99989
0.999947 1 1.00008 0.999872
0.972478 0.974724 0.998058 0.999637
0.999914 1 1 0.999914
0.9999 1 1 0.9999
0.999973 1 1 0.999973
0.999917 1 1 0.999917
1.00084 1 1.00097 0.999863
0.999881 1 1 0.999881
0.991484 1.00437 0.987287 0.999886
0.999904 1 1 0.999904
0.999888 1 1 0.999888
0.999893 1 1 0.999893
1.00107 1 1.00121 0.99986
1.00011 1 1.00026 0.999855
0.973184 0.972513 1.00105 0.999645
0.987578 1.0002 0.987589 0.999785
0.984838 1.0051 0.980019 0.999822
0.976653 0.982046 0.994589 0.999919
0.986309 1.00147 0.98486 1
0.999902 1 1 0.999902
0.977231 0.97955 0.997758 0.999874
0.994173 1.00026 0.993918 1
0.999831 1 1 0.999831
1.00102 1 1.00114 0.999883
1.00455 1 1.00471 0.999834
0.996497 1.00462 0.992113 0.999796
0.983174 0.978979 1.00478 0.999507
0.986949 1.00496 0.982313 0.999757
0.973801 0.985544 0.988106 0.999978
0.995125 1.0014 0.993731 0.999999
0.999909 1 1 0.999909
0.999903 1 1 0.999903
0.9999 1 1 0.9999
0.999975 1 1 0.999975
0.999947 1 1 0.999947
0.999927 1 1 0.999927
0.999916 1 1 0.999916
0.999907 1 1 0.999907
0.99997 1 1 0.99997
0.999918 1 1 0.999918
0.999927 1 1 0.999927
0.999944 1 1 0.999944
0.999905 1 1 0.999905
0.99991 1 1 0.99991
0.9999 1 1 0.9999
0.999923 1 1 0.999923
0.999946 1 1 0.999946
0.999947 1 1 0.999947
0.999927 1 1 0.999927
0.999926 1 1 0.999926
0.999925 1 1 0.999925
0.999915 1 1 0.999915
0.999922 1 1 0.999922
0.999943 1 1 0.999943
0.999946 1 1 0.999946
0.999974 1 1 0.999974
0.999943 1 1 0.999943
0.999973 1 1 0.999973
0.999999 1 1 0.999999
0.999971 1 1 0.999971
0.999999 1 1 0.999999
1 1 1 1
0.999999 1 1 0.999999
1 1 1 1
1 1 1 1
1 1 1 1
1 1 1 1
1 1 1 1
0.999987 1 1 0.999987
1 1 1 1
1 1 1 1
1 1 1 1
1 1 1 1
1 1 1 1
1 1 1 1
1 1 1 1
1 1 1 1
1 1 1 1
0.995821 1 0.995834 0.999987
0.999921 1 1 0.999921
0.999973 1 1 0.999973
0.991489 0.992712 0.998847 0.999921
1.00017 1 1.00017 0.999996
0.99993 1 1.00003 0.999896
1.00148 1 1.00159 0.999891
0.997585 0.996108 1.00163 0.999856
0.975466 0.975862 1.0001 0.99949
0.974751 0.980799 0.993986 0.999847
0.989213 1.0005 0.988715 1
0.999959 1 1 0.999959
0.999988 1 1 0.999988
0.999985 1 1 0.999985
0.999957 1 1 0.999957
0.99994 1 1 0.99994
0.999946 1 1 0.999946
0.999961 1 1 0.999961
0.999963 1 1 0.999963
0.999909 1 1.00003 0.999883
0.999938 1 0.999979 0.999958
0.999945 1 1 0.999945
0.999905 1 1 0.999905
0.999903 1 1 0.999903
0.999893 1 1 0.999893
0.999889 1 1 0.999889
0.999908 1 1 0.999908
0.999947 1 1 0.999947
0.999917 1 1 0.999917
0.999958 1 1 0.999958
0.999934 1 1 0.999934
0.999709 1 0.999792 0.999917
0.999925 1 1 0.999925
0.99992 1 1 0.99992
0.998787 1 0.998814 0.999973
0.999902 1 1 0.999902
0.999892 1 1 0.999892
0.999891 1 1 0.999891
0.999983 1 1.00011 0.999873
0.989627 1.00025 0.989425 0.999957
1.0009 1 1.00099 0.999916
0.99988 1 1 0.99988
1.00051 1 1.00065 0.999862
0.999906 1 1 0.999906
0.999898 1 1 0.999898
0.999927 1 1.00006 0.999869
0.974831 0.980813 0.993909 0.999993
0.975067 0.975548 0.999862 0.999644
0.999905 1 1 0.999905
0.999894 1 1 0.999894
0.999889 1 1 0.999889
0.999862 1 1 0.999862
1.00076 1 1.0009 0.99986
0.973481 0.97412 0.999863 0.99948
0.990065 0.999399 0.99072 0.99994
0.986792 1.00613 0.980957 0.99982
0.974061 0.98158 0.992496 0.999842
0.987125 1.00146 0.985689 1
0.999902 1 1 0.999902
0.975586 0.980324 0.995176 0.999991
0.994404 1.00055 0.993856 1
0.999831 1 1 0.999831
1.00044 1 1.00056 0.999885
1.00414 1 1.0043 0.999841
0.995885 1.00343 0.992688 0.999792
0.980712 0.978329 1.00302 0.99942
0.982519 1.0026 0.98004 0.99993
0.974552 0.985819 0.988752 0.999818
0.992414 1.00147 0.990952 1
0.999899 1 1 0.999899
0.998482 0.999453 0.999029 1
0.999488 0.999674 0.999814 1
1.00688 1 1.00706 0.999824
1.00374 1 1.00386 0.999879
1.00222 1.00153 1.0008 0.999884
0.992127 1.00124 0.990953 0.999945
0.9866 0.983305 1.00391 0.999443
0.983067 0.995378 0.987839 0.999791
0.999542 1.0008 0.998748 0.999999
0.999903 1 1 0.999903
0.999899 1 1 0.999899
0.999897 1 1 0.999897
0.99997 1 1 0.99997
0.999946 1 1 0.999946
0.999929 1 1 0.999929
0.999918 1 1 0.999918
0.999903 1 1 0.999903
0.999946 1 1 0.999946
0.999912 1 1 0.999912
0.999923 1 1 0.999923
0.999899 1 1 0.999899
0.999895 1 1 0.999895
0.999905 1 1 0.999905
0.999923 1 1 0.999923
0.999947 1 1 0.999947
0.999925 1 1 0.999925
0.999926 1 1 0.999926
0.999925 1 1 0.999925
0.999916 1 1 0.999916
0.999922 1 1 0.999922
0.999911 1 1 0.999911
0.999909 1 1 0.999909
0.999914 1 1 0.999914
0.999925 1 1 0.999925
0.999925 1 1 0.999925
0.999922 1 1 0.999922
0.999942 1 1 0.999942
0.999943 1 1 0.999943
0.999973 1 1 0.999973
0.999946 1 1 0.999946
0.999974 1 1 0.999974
0.999999 1 1 0.999999
0.999971 1 1 0.999971
0.999999 1 1 0.999999
1 1 1 1
0.999999 1 1 0.999999
1 1 1 1
1 1 1 1
1 1 1 1
1 1 1 1
1 1 1 1
0.999988 1 1 0.999988
1 1 1 1
0.999988 1 1 0.999988
1 1 1 1
1 1 1 1
1 1 1 1
1 1 1 1
1 1 1 1
1 1 1 1
1 1 1 1
1 1 1 1
0.97589 0.979813 0.996002 0.999994
0.997593 1.00026 0.997333 1
0.992702 0.992825 0.999904 0.999973
1.00029 1 1.0003 0.999994
0.999915 1 1.00003 0.999887
0.997264 0.995329 1.00195 0.999992
1.00069 1 1.0008 0.999895
0.978135 0.97729 1.00126 0.999606
0.975497 0.980495 0.994915 0.999989
0.989959 1.00089 0.989074 1
1.00378 0.99847 1.00539 0.999931
0.982008 0.979932 1.00258 0.999543
0.974808 0.985206 0.989468 0.999978
0.99231 1.00217 0.990165 0.999999
0.999933 1 1 0.999933
0.999961 1 1 0.999961
0.999987 1 1 0.999987
0.999956 1 1 0.999956
0.999942 1 1 0.999942
0.999939 1 1 0.999939
0.999947 1 1 0.999947
0.999953 1 1 0.999953
0.999959 1 1 0.999959
0.999961 1 1 0.999961
0.999461 1 0.999544 0.999916
0.998564 1 0.998592 0.999972
0.999906 1 1 0.999906
0.999888 1 1 0.999888
1.00002 1 1.00015 0.999874
0.999892 1 1 0.999892
0.999922 1 1 0.999922
0.999926 1 1 0.999926
0.9925 1.00008 0.992468 0.999952
0.999905 1 1 0.999905
0.999896 1 1 0.999896
0.999858 1 0.999936 0.999922
0.999877 1 1 0.999877
1.00021 1 1.00035 0.99986
0.99998 1 1.00011 0.999867
0.982688 1.00252 0.980299 0.999921
1.00309 1 1.00323 0.999861
1.00042 1 1.00058 0.999845
0.999904 1 1 0.999904
0.999889 1 1 0.999889
0.999875 1 1 0.999875
0.997327 0.99935 0.997976 1
0.975848 0.980085 0.995792 0.999885
0.973104 0.975306 0.998115 0.999626
0.999902 1 1 0.999902
0.999886 1 1 0.999886
0.99983 1 1 0.99983
1.00384 1 1.00399 0.999848
0.974876 0.980683 0.994207 0.999871
0.978244 0.977676 1.00092 0.999666
0.982638 1.00358 0.979355 0.999774
0.996004 1.00238 0.99385 0.999789
0.975087 0.985224 0.989733 0.999977
0.993786 1.0009 0.992891 1
0.990345 1.00195 0.988416 1
0.999899 1 1 0.999899
0.997993 0.99971 0.998282 1
0.999517 0.999564 0.999952 1
1.00731 1 1.00749 0.999823
1.00383 1 1.00395 0.999879
1.00523 1.00122 1.0042 0.999805
0.989273 1.00108 0.98844 0.999767
0.984661 0.982832 1.00243 0.999437
0.987796 0.994404 0.99339 0.999965
0.99784 1.00103 0.996816 0.999997
0.999899 1 1 0.999899
0.999235 0.999232 1 1
0.999457 0.999033 1.00042 1
1.00562 1 1.0057 0.99992
1.00087 0.998012 1.0029 0.999959
0.99316 0.988757 1.00497 0.999482
0.986533 1.00248 0.984143 0.999946
0.999118 0.999163 0.999962 0.999993
0.999899 1 1 0.999899
0.999897 1 1 0.999897
0.999893 1 1 0.999893
0.999946 1 1 0.999946
0.999923 1 1 0.999923
0.999913 1 1 0.999913
0.999898 1 1 0.999898
0.999923 1 1 0.999923
0.999905 1 1 0.999905
0.999895 1 1 0.999895
0.999899 1 1 0.999899
0.999892 1 1 0.999892
0.999908 1 1 0.999908
0.999925 1 1 0.999925
0.999925 1 1 0.999925
0.999917 1 1 0.999917
0.999912 1 1 0.999912
0.999922 1 1 0.999922
0.99991 1 1 0.99991
0.999907 1 1 0.999907
0.999903 1 1 0.999903
0.999907 1 1 0.999907
0.999913 1 1 0.999913
0.999916 1 1 0.999916
0.99992 1 1 0.99992
0.999938 1 1 0.999938
0.999927 1 1 0.999927
0.999927 1 1 0.999927
0.999942 1 1 0.999942
0.999922 1 1 0.999922
0.999942 1 1 0.999942
0.999972 1 1 0.999972
0.999943 1 1 0.999943
0.999973 1 1 0.999973
0.999999 1 1 0.999999
0.999974 1 1 0.999974
0.999999 1 1 0.999999
1 1 1 1
0.999999 1 1 0.999999
1 1 1 1
1 1 1 1
1 1 1 1
1 1 1 1
1 1 1 1
0.999981 1 1 0.999981
1 1 1 1
0.999985 1 1 0.999985
1 1 1 1
1 1 1 1
0.999988 1 1 0.999988
1 1 1 1
1 1 1 1
1 1 1 1
1 1 1 1
1 1 1 1
1 1 1 1
0.998786 0.999623 0.999162 1
0.974828 0.978793 0.996014 0.999936
0.999785 0.999961 0.999824 1
0.997074 1.00016 0.996914 1
0.994405 0.993892 1.00064 0.999872
0.999941 1 1.00004 0.999898
0.97832 0.976869 1.00175 0.999733
0.975033 0.98065 0.994418 0.999853
0.990806 1.00124 0.989583 1
1.00043 0.999261 1.00127 0.999895
0.98201 0.978501 1.00407 0.999514
0.976139 0.985461 0.990717 0.999822
0.992101 1.0016 0.990521 1
0.996858 1.00149 0.995444 0.999931
0.986646 0.982682 1.00461 0.999428
0.986233 0.994665 0.991554 0.999968
0.99911 0.999948 0.999163 1
0.999919 1 1 0.999919
0.999936 1 1 0.999936
0.999963 1 1 0.999963
0.999944 1 1 0.999944
0.999927 1 1 0.999927
0.999941 1 1 0.999941
0.999948 1 1 0.999948
0.999951 1 1 0.999951
0.999955 1 1 0.999955
0.999956 1 1 0.999956
0.995468 1 0.995521 0.999946
0.998849 1 0.998921 0.999928
0.999874 1 1 0.999874
0.999974 1 1.00012 0.999858
1.00003 1 1.00017 0.999865
0.999894 1 1 0.999894
0.999903 1 1 0.999903
0.999904 1 1 0.999904
0.984912 1.00137 0.983643 0.999917
0.99989 1 1 0.99989
0.999878 1 1 0.999874
1.00283 1 1.00297 0.999863
1.00048 1 1.00064 0.999845
0.99127 1.00242 0.988999 0.999878
1.0062 1 1.00636 0.999848
0.999894 1 1.00004 0.99985
0.999892 1 1 0.999892
0.999874 1 1 0.999874
0.999054 0.999052 1 1
0.998186 0.999359 0.998826 1
0.9761 0.980813 0.995202 0.999993
0.999899 1 1 0.999899
1.00381 1 1.00393 0.999878
1.00764 1 1.00782 0.999822
0.998968 0.999955 0.999013 1
0.986237 0.983031 1.00385 0.999409
0.986828 1.00156 0.985346 0.999945
1.00666 1.00065 1.00628 0.999725
0.980184 0.991349 0.988929 0.999807
0.999545 0.999451 1.00009 1
0.998679 1.00033 0.998354 0.999996
0.9999 1 1 0.9999
0.999259 0.999256 1 1
0.999296 0.998863 1.00043 1
1.00577 0.999985 1.00589 0.999896
1.00063 0.998234 1.00249 0.999915
0.995719 0.991245 1.00508 0.999435
0.999908 0.999682 1.00023 0.999996
0.993003 1.00018 0.992926 0.999897
0.999904 1 1 0.999904
1.00005 1.00004 1.00001 1
0.998977 0.998549 1.00043 1
0.998366 0.999895 0.998471 1
1.00302 0.99868 1.00439 0.999952
1.00148 0.992009 1.00996 0.999591
0.984431 1.00183 0.982716 0.999913
0.999898 1 1 0.999898
0.999893 1 1 0.999893
1.00033 1 1.00043 0.9999
0.999923 1 1 0.999923
0.999905 1 1 0.999905
0.999895 1 1 0.999895
0.999908 1 1 0.999908
0.999892 1 1 0.999892
0.999899 1 1 0.999899
0.999896 1 1 0.999896
0.999895 1 1 0.999895
0.999913 1 1 0.999913
0.999922 1 1 0.999922
0.999911 1 1 0.999911
0.999903 1 1 0.999903
0.999907 1 1 0.999907
0.999899 1 1 0.999899
0.999911 1 1 0.999911
0.999896 1 1 0.999896
0.999913 1 1 0.999913
0.999916 1 1 0.999916
0.999905 1 1 0.999905
0.999922 1 1 0.999922
0.999938 1 1 0.999938
0.99992 1 1 0.99992
0.999949 1 1 0.999949
0.999937 1 1 0.999937
0.99993 1 1 0.99993
0.999928 1 1 0.999928
0.999943 1 1 0.999943
0.999972 1 1 0.999972
0.999942 1 1 0.999942
0.999972 1 1 0.999972
0.999998 1 1 0.999998
0.999973 1 1 0.999973
0.999999 1 1 0.999999
1 1 1 1
0.999999 1 1 0.999999
1 1 1 1
1 1 1 1
1 1 1 1
1 1 1 1
1 1 1 1
0.999973 1 1 0.999973
0.999997 1 1 0.999997
0.999981 1 1 0.999981
1 1 1 1
0.999999 1 1 0.999999
0.999982 1 1 0.999982
1 1 1 1
1 1 1 1
1 1 1 1
1 1 1 1
1 1 1 1
1 1 1 1
0.999513 0.99945 1.00006 1
0.997328 0.999558 0.997769 1
0.976505 0.979092 0.997472 0.999886
0.999943 1 1 0.999943
0.999738 0.99949 1.00025 1
0.999761 0.999798 0.999963 1
0.995372 1.00007 0.995305 1
0.997476 0.999653 0.997978 0.999844
0.983921 0.978519 1.00603 0.999496
0.977681 0.985349 0.99224 0.999978
0.993307 1.00177 0.991557 0.999999
0.994475 1.00268 0.992022 0.999791
0.98725 0.983204 1.00467 0.999451
0.985107 0.99383 0.991339 0.999883
0.998462 1.00088 0.997589 0.999998
0.985567 1.00009 0.9857 0.999775
0.993489 0.989639 1.00459 0.999299
0.995142 0.999081 0.996232 0.999825
0.999679 0.99962 1.00007 0.999991
0.999906 1 1 0.999906
0.999918 1 1 0.999918
0.999939 1 1 0.999939
0.999924 1 1 0.999924
0.99993 1 1 0.99993
0.999942 1 1 0.999942
0.999952 1 1 0.999952
0.999957 1 1 0.999957
0.987206 1.00029 0.987002 0.999914
1.00258 1 1.00271 0.999866
0.999904 1 1 0.999904
1.00055 1 1.0007 0.999845
0.999874 1 1 0.999874
0.999891 1 1 0.999891
0.999892 1 1 0.999892
0.989137 1.00184 0.987443 0.999874
0.999873 1 1 0.999873
1.00014 1 1.00029 0.99985
1.00643 1 1.00658 0.999848
0.999889 1 1 0.999889
1.00257 1.00029 1.00241 0.999874
1.00504 1 1.00519 0.999852
0.99986 1 1 0.99986
0.999873 1 1 0.999873
0.999915 0.999916 1 1
0.999114 0.999113 1 1
0.998879 0.999368 0.999511 1
0.999902 1 1 0.999902
1.0062 0.999979 1.00635 0.999871
0.999291 0.999289 1 1
0.994371 0.987758 1.00729 0.999414
1.0008 0.999449 1.00155 0.999799
0.99103 0.999398 0.991766 0.99986
0.999159 0.998659 1.0005 1
1.00075 1.0002 1.00055 0.999998
0.999906 1 1 0.999906
1.00006 1.00005 1.00001 1
0.999312 0.998978 1.00033 1
1.00078 0.997899 1.00293 0.999965
0.997615 1.00075 0.996868 0.999999
0.998986 0.994809 1.00457 0.999633
0.985575 0.999449 0.986278 0.999839
1.00042 1 1.0005 0.999921
1.00016 1.00018 0.999984 1
0.999755 0.999425 1.00033 1
0.991279 1.00202 0.98928 1
0.991325 0.995984 0.995481 0.999839
1.00406 0.997165 1.0069 1.00001
0.999945 0.993018 1.00731 0.999664
0.999893 1 1 0.999893
1.00015 1 1.00025 0.999898
1.0019 1 1.00201 0.999899
0.999909 1 1 0.999909
0.999892 1 1 0.999892
0.999899 1 1 0.999899
0.999895 1 1 0.999895
0.999897 1 1 0.999897
1.00026 1 1.00038 0.999883
0.999903 1 1 0.999903
0.999907 1 1 0.999907
0.999905 1 1.00001 0.999898
0.999994 1 1.00011 0.999885
0.999916 1 1 0.999916
0.999898 1 1 0.999898
0.999887 1 1 0.999887
0.999903 1 1 0.999903
0.999917 1 1 0.999917
0.999904 1 1 0.999904
0.999927 1 1 0.999927
0.999937 1 1 0.999937
0.999924 1 1 0.999924
0.999952 1 1 0.999952
0.999938 1 1 0.999938
0.99992 1 1 0.99992
0.999974 1 1 0.999974
0.999948 1 1 0.999948
0.999935 1 1 0.999935
0.999944 1 1 0.999944
0.999972 1 1 0.999972
0.999998 1 1 0.999998
0.999972 1 1 0.999972
0.999998 1 1 0.999998
1 1 1 1
0.999998 1 1 0.999998
1 1 1 1
1 1 1 1
1 1 1 1
1 1 1 1
1 1 1 1
0.99997 1 1 0.99997
0.999996 1 1 0.999996
0.999975 1 1 0.999975
1 1 1 1
0.999997 1 1 0.999997
0.99998 1 1 0.99998
1 1 1 1
1 1 1 1
0.999998 1 1 0.999998
1 1 1 1
1 1 1 1
1 1 1 1
0.999917 0.999923 0.999994 1
0.999446 0.999407 1.00004 1
0.997368 0.999514 0.997853 1
0.999944 1 1 0.999944
0.999941 1 1 0.999941
0.999926 1 1 0.999926
0.998873 0.998618 1.00025 1
0.999604 0.99939 1.00021 1
0.999777 0.99963 1.00015 1
0.996209 1.00415 0.992163 0.999927
0.987365 0.983082 1.00491 0.999454
0.983513 0.994661 0.988989 0.999801
0.999801 1.00044 0.999363 0.999998
0.986874 0.999447 0.987489 0.999931
0.995454 0.989615 1.00644 0.999464
0.997127 1.00316 0.994059 0.999927
1.00011 0.999905 1.00021 0.999994
0.993702 0.998513 0.995223 0.999959
0.995721 0.993742 1.00247 0.99952
0.987204 1.00271 0.98465 0.999887
1 1.00086 0.999141 0.999998
0.999904 1 1 0.999904
0.999906 1 1 0.999906
0.999916 1 1 0.999916
0.999924 1 1 0.999924
0.999932 1 1 0.999932
0.999952 1 1 0.999952
0.986879 1.00104 0.985978 0.999871
1.0066 1 1.00676 0.999848
0.999892 1 1 0.999892
1.00031 1 1.00046 0.99985
0.999873 1 1 0.999873
0.999888 1 1 0.999888
0.999872 1 1 0.999872
0.999935 1.00048 0.999585 0.999869
0.99986 1 1 0.99986
1.0052 1 1.00535 0.999849
0.999872 1 1 0.999872
1.00815 1 1.00827 0.999884
1.00029 1 1.00044 0.999853
0.999857 1 1 0.999857
1.00012 1.00013 0.999988 1
0.999976 0.999976 0.999999 1
0.999176 0.999175 1 1
0.999907 1 1 0.999907
1.00192 0.997385 1.00458 0.999975
1.00007 1.00006 1.00002 1
1.00054 0.996965 1.0038 0.999787
0.983066 1.00169 0.98148 0.999924
0.999618 0.99943 1.00019 1
0.999491 1.00043 0.99906 0.999999
1.00015 1 1.00022 0.999923
1.00015 1.00017 0.999984 1
0.999609 0.999313 1.0003 1
1.00683 0.997425 1.0095 0.999929
0.991396 1.00159 0.989817 1
0.992823 1.00198 0.990914 0.999947
0.991827 0.992446 0.999731 0.999646
0.999734 1 0.99978 0.999953
0.999903 0.999912 0.999991 1
0.999727 0.999997 0.999729 1
0.987713 1.00053 0.987193 1
0.984542 0.992936 0.991576 0.999971
0.999875 0.992221 1.00815 0.999567
1.0052 0.996216 1.0091 0.999921
0.999912 1 1.00002 0.999896
1.00215 1 1.00226 0.999898
1.00306 1 1.00318 0.999884
0.999895 1 1 0.999895
0.999898 1 1 0.999898
1.00015 1 1.00026 0.999884
1.00192 1 1.00207 0.999858
0.99991 1 1.00001 0.999897
1.00006 1 1.00018 0.999883
1.00003 1 1.00016 0.999867
0.9999 1 1 0.9999
0.999887 1 1 0.999887
0.999883 1 1 0.999883
0.999896 1 1 0.999896
0.999918 1 1 0.999918
0.999902 1 1 0.999902
0.999903 1 1 0.999903
0.999938 1 1 0.999938
0.999928 1 1 0.999928
0.99995 1 1 0.99995
0.999939 1 1 0.999939
0.999926 1 1 0.999926
0.999976 1 1 0.999976
0.999952 1 1 0.999952
0.999938 1 1 0.999938
0.999998 1 1 0.999998
0.999974 1 1 0.999974
0.999947 1 1 0.999947
0.999973 1 1 0.999973
0.999998 1 1 0.999998
1 1 1 1
0.999998 1 1 0.999998
1 1 1 1
1 1 1 1
1 1 1 1
1 1 1 1
1 1 1 1
0.999973 1 1 0.999973
0.999999 1 1 0.999999
0.999972 1 1 0.999972
1 1 1 1
0.999998 1 1 0.999998
0.999976 1 1 0.999976
1 1 1 1
1 1 1 1
0.999997 1 1 0.999997
1 1 1 1
1 1 1 1
1 1 1 1
1.00017 1.00018 0.999989 1
0.999929 0.999935 0.999994 1
0.999348 0.999346 1 1
0.999944 1 1 0.999944
0.999937 1 1 0.999937
0.999946 1 1 0.999946
0.999941 1 1 0.999941
0.999924 1 1 0.999924
0.999926 1 1 0.999926
0.999914 1 1 0.999914
0.999437 0.999064 1.00037 1
0.99923 0.999072 1.00016 1
0.999469 0.99929 1.00018 1
1.00057 1.00024 1.00033 0.999998
0.991921 1.00287 0.989322 0.99976
0.997745 0.991274 1.00693 0.999605
0.985973 1.00107 0.985119 0.999796
0.995448 0.998004 0.997571 0.999867
0.996796 0.995569 1.00168 0.999553
0.989844 1.00109 0.988964 0.999802
0.998976 1.00152 0.997469 0.999995
1.00402 0.997871 1.0062 0.999964
0.995592 0.995734 1.00027 0.999588
0.989418 1.00319 0.986347 0.999927
0.996148 1.00125 0.994908 0.999999
0.999898 1 1 0.999898
0.999904 1 1 0.999904
0.999907 1 1 0.999907
0.999924 1 1 0.999924
0.996882 1.00075 0.99627 0.999865
1.00539 1 1.00555 0.999846
0.999886 1 1 0.999886
0.999871 1 1 0.999871
0.99986 1 1 0.99986
0.999875 1 1 0.999875
0.999856 1 1 0.999856
1.00576 0.999586 1.00628 0.999889
1.00029 1 1.00044 0.999856
0.99986 1 1 0.99986
1.0085 0.998771 1.00982 0.999927
1.00195 1 1.00212 0.999829
0.999919 0.999919 1 1
1.00007 1.00007 0.999994 1
1.00004 1.00004 0.999999 1
0.999926 1 1 0.999925
1.00516 0.997165 1.00802 1
1.00014 1.00016 0.999982 1
0.999316 0.991701 1.00803 0.999646
0.981074 0.999563 0.981687 0.999812
0.999467 0.999203 1.00026 1
0.992332 1.00181 0.990536 1
1.00041 1 1.00046 0.99995
0.999919 0.999928 0.999991 1
0.999761 0.99981 0.99995 1
1.01086 0.998146 1.01272 1.00002
0.988497 1.00094 0.987573 1
0.98327 0.992325 0.990987 0.999886
0.999112 0.992628 1.00692 0.999611
0.995829 1 0.995873 0.999956
0.999536 0.999429 1.00011 1
0.996903 1.00032 0.996579 1
0.972949 0.983964 0.988827 0.999979
0.993575 0.987533 1.00667 0.999456
1.00212 0.999355 1.00293 0.999838
1.00249 1 1.00259 0.999898
1.00288 1 1.003 0.999884
1.00762 1 1.00776 0.999858
1.00003 1 1.00014 0.999885
1.0016 1 1.00174 0.999861
1.00269 1 1.00285 0.999837
1.00013 1 1.00025 0.99988
1.00013 1 1.00027 0.999864
0.999944 1 1.00008 0.999862
0.999886 1 1 0.999886
0.999881 1 1 0.999881
0.999886 1 1 0.999886
0.9999 1 1 0.9999
0.999909 1 1 0.999909
0.999895 1 1 0.999895
0.999931 1 1 0.999931
0.999919 1 1 0.999919
0.9999 1 1 0.9999
0.999949 1 1 0.999949
0.999937 1 1 0.999937
0.999929 1 1 0.999929
0.999976 1 1 0.999976
0.999952 1 1 0.999952
0.999941 1 1 0.999941
0.999999 1 1 0.999999
0.999976 1 1 0.999976
0.999952 1 1 0.999952
1 1 1 1
0.999999 1 1 0.999999
0.999975 1 1 0.999975
0.999998 1 1 0.999998
1 1 1 1
1 1 1 1
1 1 1 1
1 1 1 1
1 1 1 1
0.999948 1 1 0.999948
0.999973 1 1 0.999973
0.999998 1 1 0.999998
0.999973 1 1 0.999973
1 1 1 1
0.999999 1 1 0.999999
0.999974 1 1 0.999974
1 1 1 1
1 1 1 1
1 1 1 1
1 1 1 1
1 1 1 1
1 1 1 1
1.00006 1.00006 0.999999 1
1.00015 1.00016 0.99999 1
0.999942 0.999948 0.999994 1
0.999945 1 1 0.999945
0.999935 1 1 0.999935
0.999936 1 1 0.999936
0.999931 1 1 0.999931
0.999929 1 1 0.999929
0.999941 1 1 0.999941
0.999922 1 1 0.999922
0.999926 1 1 0.999926
0.999915 1 1 0.999915
0.999916 1 1 0.999916
0.999644 0.999615 1.00003 1
0.999259 0.998908 1.00035 1
0.999585 0.999496 1.00009 1
0.999751 1.00073 0.999024 0.999993
0.986569 1.00226 0.984439 0.999901
0.999003 0.998217 1.00099 0.999796
0.996603 0.993629 1.00341 0.999587
1.00642 0.997446 1.00914 0.999857
0.988604 0.994798 0.994191 0.999581
0.995886 1.00113 0.994891 0.999873
0.993872 1.00138 0.992499 1
1.01307 0.995955 1.0173 0.999889
0.997269 0.992628 1.00511 0.999566
0.98371 0.99509 0.988761 0.9998
0.989412 1.00105 0.988373 1
0.999909 1 1 0.999909
0.9999 1 1 0.9999
0.999903 1 1 0.999903
1.00392 0.999207 1.00482 0.999894
1.00026 1 1.00041 0.999858
0.999878 1 1 0.999878
0.999856 1 1 0.999856
0.99989 1 1.00003 0.999861
1.00204 1 1.00221 0.999829
1.0082 0.999252 1.00903 0.999927
1.0005 1 1.00066 0.999849
1.00414 0.999782 1.00448 0.999879
0.999057 0.999056 1 1
0.999978 0.999978 1 1
1.00001 1.00001 0.999998 1
1.0011 1 1.00115 0.999946
1.01023 0.998194 1.01214 0.999916
0.999934 0.999943 0.999991 1
0.997892 0.989382 1.00912 0.999482
0.982081 0.992905 0.989296 0.9998
0.999822 0.99962 1.0002 1
0.989334 1.00129 0.988058 1
0.995433 1 0.995478 0.999955
0.999446 0.999384 1.00006 1
0.996443 1.00022 0.996226 1
1.00192 0.997373 1.00464 0.999922
0.97469 0.984566 0.990149 0.999818
0.995369 0.988012 1.0081 0.999347
0.994853 1 0.994935 0.999918
0.998623 0.999614 0.999008 1
0.974389 0.981126 0.993288 0.999844
0.985778 0.981958 1.00448 0.999416
0.984581 1.00035 0.984301 0.99993
1.00261 1 1.00273 0.999883
1.00762 1 1.00776 0.999859
1.00911 1 1.00928 0.999835
1.00131 1 1.00145 0.999864
1.00275 1 1.00291 0.999839
1.00111 1 1.00126 0.999851
1.00027 1 1.00041 0.999861
0.999978 1 1.00011 0.999864
0.999891 1 1 0.999891
0.99988 1 1 0.99988
0.999888 1 1 0.999888
0.999909 1 1 0.999909
0.999915 1 1 0.999915
0.999905 1 1 0.999905
0.999901 1 1 0.999901
0.999922 1 1 0.999922
0.999907 1 1 0.999907
0.999893 1 1 0.999893
0.999947 1 1 0.999947
0.999933 1 1 0.999933
0.999921 1 1 0.999921
0.999972 1 1 0.999972
0.999948 1 1 0.999948
0.999935 1 1 0.999935
0.999999 1 1 0.999999
0.999976 1 1 0.999976
0.999953 1 1 0.999953
1 1 1 1
0.999999 1 1 0.999999
0.999976 1 1 0.999976
1 1 1 1
1 1 1 1
0.999999 1 1 0.999999
1 1 1 1
1 1 1 1
1 1 1 1
0.999948 1 1 0.999948
0.999973 1 1 0.999973
0.999947 1 1 0.999947
0.999998 1 1 0.999998
0.999973 1 1 0.999973
1 1 1 1
0.999999 1 1 0.999999
0.999973 1 1 0.999973
1 1 1 1
1 1 1 1
0.999999 1 1 0.999999
1 1 1 1
1 1 1 1
1 1 1 1
0.999444 0.999443 1 1
1.00007 1.00006 1 1
1.00014 1.00015 0.99999 1
0.999939 1 1 0.999939
0.999947 1 1 0.999947
0.999934 1 1 0.999934
0.999932 1 1 0.999932
0.999938 1 1 0.999938
0.999929 1 1 0.999929
0.999927 1 1 0.999927
0.999923 1 1 0.999923
0.999926 1 1 0.999926
0.999915 1 1 0.999915
0.999916 1 1 0.999916
0.999916 1 1 0.999916
0.995551 1.00006 0.995492 1
0.999644 0.999526 1.00012 1
0.999076 0.99876 1.00031 1
0.992946 1.00219 0.990779 0.999999
0.99492 1.00072 0.994384 0.999821
0.995152 0.995312 1.00025 0.999589
1.00708 0.996925 1.01019 0.999994
1.01606 0.996256 1.01988 1
0.990431 1.00101 0.989432 1
0.995815 0.995405 1.00092 0.999497
0.985812 0.993538 0.992258 0.999966
1.00749 0.998021 1.00952 0.999963
0.994984 0.988864 1.00673 0.999463
0.975488 0.984699 0.99066 0.999985
0.99992 1 1 0.99992
0.999909 1 1 0.999909
0.999902 1 1 0.999902
1.00773 0.999608 1.0082 0.999927
1.0021 1 1.00228 0.999829
0.999905 1 1.00004 0.999862
1.00052 1 1.00067 0.999851
1.00404 0.999855 1.00431 0.999878
1.00052 1 1.00063 0.999896
0.996678 0.999018 0.997657 1
0.999262 0.999261 1 1
1.00004 1.00004 0.999999 1
0.994883 1 0.994929 0.999954
1.00138 0.998452 1.00297 0.999967
0.999323 0.99932 1 1
0.999488 0.989596 1.01036 0.99964
0.976124 0.984413 0.991601 0.999978
0.994746 1.00011 0.994632 1
0.994856 1.00005 0.994881 0.99992
0.996991 0.999546 0.997443 1
0.974572 0.98029 0.994179 0.999989
0.98449 1.00037 0.984352 0.999766
0.986578 0.982522 1.00469 0.99944
0.984662 1.00237 0.982479 0.999853
0.976055 0.980427 0.995546 0.999995
0.981562 0.979494 1.00258 0.999533
0.981261 1.00312 0.978437 0.999771
1.00756 1 1.00771 0.99986
1.0092 1 1.00937 0.999833
1.00291 1 1.00304 0.999866
1.00281 1 1.00297 0.999841
1.0009 1 1.00105 0.999852
0.999913 1 1 0.999913
0.999984 1 1.00012 0.999865
0.999893 1 1 0.999893
0.999935 1 1 0.999935
0.999889 1 1 0.999889
0.99991 1 1 0.99991
0.999934 1 1 0.999934
0.999931 1 1 0.999931
0.999914 1 1 0.999914
0.999916 1 1 0.999916
0.999916 1 1 0.999916
0.999907 1 1 0.999907
0.999902 1 1 0.999902
0.999941 1 1 0.999941
0.999922 1 1 0.999922
0.999904 1 1 0.999904
0.999969 1 1 0.999969
0.999947 1 1 0.999947
0.999934 1 1 0.999934
0.999998 1 1 0.999998
0.999972 1 1 0.999972
0.999948 1 1 0.999948
1 1 1 1
0.999999 1 1 0.999999
0.999975 1 1 0.999975
1 1 1 1
1 1 1 1
0.999999 1 1 0.999999
1 1 1 1
1 1 1 1
1 1 1 1
0.999952 1 1 0.999952
0.999949 1 1 0.999949
0.999973 1 1 0.999973
0.999998 1 1 0.999998
0.999973 1 1 0.999973
0.999947 1 1 0.999947
1 1 1 1
0.999998 1 1 0.999998
0.999973 1 1 0.999973
1 1 1 1
1 1 1 1
0.999999 1 1 0.999999
1 1 1 1
1 1 1 1
1 1 1 1
0.998172 0.999284 0.998887 1
0.999387 0.999385 1 1
1.00007 1.00007 1 1
0.999937 1 1 0.999937
0.999938 1 1 0.999938
0.999931 1 1 0.999931
0.999934 1 1 0.999934
0.999939 1 1 0.999939
0.999929 1 1 0.999929
0.999924 1 1 0.999924
0.999928 1 1 0.999928
0.99992 1 1 0.99992
0.999923 1 1 0.999923
0.999916 1 1 0.999916
0.999915 1 1 0.999915
0.977978 0.981866 0.996052 0.999988
0.996171 1.00031 0.995864 1
0.999643 0.999434 1.00021 1
0.991445 1.00097 0.990479 1
0.980095 0.991496 0.988681 0.999818
1.00033 0.997164 1.00353 0.999647
1.01573 0.996236 1.01969 0.999887
1.00838 0.998066 1.0105 0.999837
0.975533 0.984787 0.990766 0.999836
0.996777 0.990865 1.0064 0.999566
1.0052 0.999049 1.00637 0.999788
0.988109 0.984542 1.00413 0.999498
1.00039 1 1.00048 0.999908
0.999921 1 1 0.999921
0.99991 1 1 0.99991
1.00409 1 1.00421 0.999878
1.00056 1 1.00071 0.999853
1.00049 1 1.00059 0.9999
0.999752 1 0.999856 0.999896
0.974616 0.981479 0.993015 0.999994
0.997849 0.999239 0.998608 1
0.99948 0.999479 1 1
0.994996 1.00004 0.995037 0.999923
0.98399 0.999945 0.984097 0.999947
0.996917 0.999495 0.99742 1
0.98654 0.982453 1.00472 0.999441
0.97398 0.980346 0.993658 0.999849
0.984404 1.0022 0.982379 0.999857
0.974757 0.979233 0.995494 0.999935
0.982289 0.978523 1.00435 0.999502
0.980356 1.00248 0.977995 0.999933
0.978742 1.00483 0.974182 0.999853
0.975224 0.975479 1.00026 0.999481
0.99407 1.0017 0.992445 0.999936
1.00955 1 1.00972 0.99983
1.00249 1 1.00263 0.999866
0.999518 1 0.999577 0.99994
1.00067 1 1.00081 0.999854
0.999886 1 0.999972 0.999914
0.99981 1 0.999836 0.999974
0.999896 1 1 0.999896
0.999936 1 1 0.999936
0.99996 1 1 0.99996
0.999911 1 1 0.999911
0.999934 1 1 0.999934
0.999943 1 1 0.999943
0.999934 1 1 0.999934
0.999932 1 1 0.999932
0.999927 1 1 0.999927
0.99992 1 1 0.99992
0.999915 1 1 0.999915
0.999918 1 1 0.999918
0.999932 1 1 0.999932
0.999918 1 1 0.999918
0.999909 1 1 0.999909
0.999964 1 1 0.999964
0.999941 1 1 0.999941
0.999922 1 1 0.999922
0.999998 1 1 0.999998
0.999969 1 1 0.999969
0.999947 1 1 0.999947
1 1 1 1
0.999998 1 1 0.999998
0.999972 1 1 0.999972
1 1 1 1
1 1 1 1
0.999999 1 1 0.999999
1 1 1 1
1 1 1 1
1 1 1 1
0.999949 1 1 0.999949
0.99995 1 1 0.99995
0.999972 1 1 0.999972
0.99995 1 1 0.99995
0.999973 1 1 0.999973
0.999998 1 1 0.999998
1 1 1 1
0.999998 1 1 0.999998
0.999973 1 1 0.999973
1 1 1 1
1 1 1 1
0.999998 1 1 0.999998
1 1 1 1
1 1 1 1
1 1 1 1
0.978125 0.980848 0.997344 0.999879
0.997636 0.999477 0.998158 1
0.999329 0.999327 1 1
0.999936 1 1 0.999936
0.999931 1 1 0.999931
0.999938 1 1 0.999938
0.999937 1 1 0.999937
0.99993 1 1 0.99993
0.999924 1 1 0.999924
0.999929 1 1 0.999929
0.99992 1 1 0.99992
0.999924 1 1 0.999924
0.999917 1 1 0.999917
0.99992 1 1 0.99992
0.999921 1 1 0.999921
0.999915 1 1 0.999915
0.982411 0.982138 1.00086 0.999415
0.978213 0.982255 0.995959 0.999926
0.99578 1.00058 0.995201 1
0.976395 0.985024 0.991257 0.999983
0.994353 0.988398 1.00673 0.999299
1.00839 0.998472 1.00997 0.999961
1.00524 0.998893 1.00649 0.999862
0.987362 0.984109 1.00381 0.999498
1.0012 0.999468 1.0019 0.999834
1.00033 1 1.00048 0.999854
1.00075 1 1.00085 0.999906
0.999922 1 1 0.999922
1.00045 1 1.00055 0.999904
0.999847 1 0.99992 0.999927
0.972922 0.975328 0.997893 0.999639
0.976091 0.980944 0.995165 0.999888
0.998848 0.999446 0.999401 1
0.983863 1.00228 0.981765 0.99986
0.983166 1.00542 0.978103 0.999757
0.97668 0.979727 0.997005 0.999885
0.984129 0.978359 1.00641 0.999487
0.978443 1.00407 0.974626 0.999848
0.977871 0.976819 1.00148 0.999602
0.990792 1.00308 0.987959 0.99979
0.97637 1.00347 0.973079 0.99991
1.00403 0.997554 1.00656 0.999938
1.00193 1 1.00206 0.999866
0.998548 1 0.998607 0.999941
0.99801 1 0.998022 0.999988
0.999769 1 0.999853 0.999916
0.999676 1 0.999702 0.999974
0.999654 1 0.999673 0.999981
0.999936 1 1 0.999936
0.999959 1 1 0.999959
0.999952 1 1 0.999952
0.999934 1 1 0.999934
0.999942 1 1 0.999942
0.999935 1 1 0.999935
0.999935 1 1 0.999935
0.999928 1 1 0.999928
0.999933 1 1 0.999933
0.999927 1 1 0.999927
0.999925 1 1 0.999925
0.999928 1 1 0.999928
0.99992 1 1 0.99992
0.999915 1 1 0.999915
0.999957 1 1 0.999957
0.999933 1 1 0.999933
0.99992 1 1 0.99992
0.999996 1 1 0.999996
0.999964 1 1 0.999964
0.999941 1 1 0.999941
1 1 1 1
0.999997 1 1 0.999997
0.999969 1 1 0.999969
1 1 1 1
1 1 1 1
0.999998 1 1 0.999998
1 1 1 1
1 1 1 1
1 1 1 1
0.999945 1 1 0.999945
0.999949 1 1 0.999949
0.999967 1 1 0.999967
0.999947 1 1 0.999947
0.99997 1 1 0.99997
0.999997 1 1 0.999997
0.999973 1 1 0.999973
0.999998 1 1 0.999998
1 1 1 1
1 1 1 1
1 1 1 1
0.999998 1 1 0.999998
1 1 1 1
1 1 1 1
1 1 1 1
0.978419 0.978496 1.00031 0.999614
0.977145 0.982381 0.994678 0.999992
0.99854 0.999672 0.998868 1
0.999931 1 1 0.999931
0.999939 1 1 0.999939
0.99993 1 1 0.99993
0.999937 1 1 0.999937
0.999934 1 1 0.999934
0.99993 1 1 0.99993
0.999919 1 1 0.999919
0.999924 1 1 0.999924
0.999918 1 1 0.999918
0.999922 1 1 0.999922
0.999919 1 1 0.999919
0.999868 1 1 0.999868
0.999919 1 1 0.999919
0.999919 1 1 0.999919
0.994701 0.997165 0.997549 0.999979
0.979981 0.980321 1.0001 0.999555
0.975304 0.981028 0.99431 0.999856
0.98789 0.984763 1.00371 0.999467
1.00553 0.999097 1.00649 0.999951
1.00125 0.999241 1.00207 0.999939
0.99938 1 0.999546 0.999834
1.00069 1 1.00084 0.999857
1.0011 1 1.00119 0.999903
0.999939 1 0.999981 0.999958
0.997781 0.995493 1.00245 0.999852
0.976135 0.976133 1.00035 0.99965
0.976073 0.981479 0.994498 0.999994
0.978118 1.0031 0.975243 0.999844
0.991745 1.00461 0.987268 0.99993
0.978636 0.976271 1.00269 0.999732
0.979088 1.0022 0.977032 0.999906
0.999684 0.998308 1.00148 0.999898
0.986027 1.00025 0.985827 0.999954
1.00237 1 1.00249 0.999884
0.997688 1 0.997746 0.999942
0.997795 1 0.997808 0.999988
0.998455 1 0.998488 0.999967
0.99967 1 0.999697 0.999973
0.999774 1 0.999795 0.99998
0.99995 1 1 0.99995
0.999957 1 1 0.999957
0.999951 1 1 0.999951
0.99993 1 1 0.99993
0.999941 1 1 0.999941
0.999936 1 1 0.999936
0.999923 1 1 0.999923
0.999936 1 1 0.999936
0.999929 1 1 0.999929
0.999924 1 1 0.999924
0.999927 1 1 0.999927
0.999925 1 1 0.999925
0.999931 1 1 0.999931
0.999947 1 1 0.999947
0.99993 1 1 0.99993
0.999919 1 1 0.999919
0.999992 1 1 0.999992
0.999957 1 1 0.999957
0.999934 1 1 0.999934
1 1 1 1
0.999995 1 1 0.999995
0.999964 1 1 0.999964
1 1 1 1
1 1 1 1
0.999997 1 1 0.999997
1 1 1 1
1 1 1 1
1 1 1 1
0.999944 1 1 0.999944
0.999947 1 1 0.999947
0.999964 1 1 0.999964
0.999949 1 1 0.999949
0.999967 1 1 0.999967
0.999997 1 1 0.999997
0.999969 1 1 0.999969
0.999998 1 1 0.999998
1 1 1 1
0.999998 1 1 0.999998
1 1 1 1
1 1 1 1
1 1 1 1
1 1 1 1
1 1 1 1
0.992827 0.994243 0.998582 0.999994
0.97482 0.976276 0.998896 0.999613
0.976129 0.982428 0.99371 0.999877
0.999931 1 1 0.999931
0.999931 1 1 0.999931
0.999938 1 1 0.999938
0.99993 1 1 0.99993
0.999934 1 1 0.999934
0.999931 1 1 0.999931
0.999924 1 1 0.999924
0.999919 1 1 0.999919
0.999923 1 1 0.999923
0.999924 1 1 0.999924
0.999895 1 1 0.999895
0.999821 1 1 0.999821
0.999873 1 1 0.999873
0.999918 1 1 0.999918
0.997624 1 0.99777 0.999854
0.995664 0.998844 0.996917 0.999899
0.980996 0.980595 1.00072 0.999692
1.00083 0.999702 1.00133 0.999798
0.999624 1.00008 0.999746 0.999799
1.00107 1 1.00121 0.99986
0.999994 1 1.00002 0.999974
0.998978 0.995042 1.00397 0.999982
0.973712 0.976096 0.997922 0.999635
0.981854 1.00093 0.981041 0.999903
0.99628 0.998596 0.997837 0.999844
0.989511 1.00005 0.989508 0.999949
1.00131 1 1.00141 0.999898
0.999906 1 1 0.999906
0.999892 1 1 0.999892
0.997419 1 0.997433 0.999987
0.999086 1 0.99912 0.999966
0.999924 1 1 0.999924
0.999857 1 0.999878 0.999978
0.999949 1 1 0.999949
0.999921 1 1 0.999921
0.99995 1 1 0.99995
0.999931 1 1 0.999931
0.999913 1 1 0.999913
0.999936 1 1 0.999936
0.999923 1 1 0.999923
0.999918 1 1 0.999918
0.99993 1 1 0.99993
0.999925 1 1 0.999925
0.999927 1 1 0.999927
0.999925 1 1 0.999925
0.99993 1 1 0.99993
0.999945 1 1 0.999945
0.999986 1 1 0.999986
0.999949 1 1 0.999949
0.999931 1 1 0.999931
1 1 1 1
0.999991 1 1 0.999991
0.999957 1 1 0.999957
1 1 1 1
1 1 1 1
0.999995 1 1 0.999995
1 1 1 1
1 1 1 1
1 1 1 1
0.999939 1 1 0.999939
0.999944 1 1 0.999944
0.999963 1 1 0.999963
0.999949 1 1 0.999949
0.999965 1 1 0.999965
0.999996 1 1 0.999996
0.999966 1 1 0.999966
0.999997 1 1 0.999997
1 1 1 1
0.999998 1 1 0.999998
1 1 1 1
1 1 1 1
1 1 1 1
1 1 1 1
1 1 1 1
0.998173 1 0.998211 0.999962
0.993228 0.995349 0.998008 0.99986
0.976746 0.977431 0.999659 0.99964
0.999929 1 1 0.999929
0.999919 1 1 0.999919
0.99993 1 1 0.99993
0.99993 1 1 0.99993
0.999934 1 1 0.999934
0.99993 1 1 0.99993
0.999899 1 1 0.999899
0.999924 1 1 0.999924
0.99993 1 1 0.99993
0.999894 1 1 0.999894
0.999844 1 1 0.999844
0.99989 1 1 0.99989
0.999826 1 1 0.999826
0.999879 1 1 0.999879
0.998016 1.00005 0.998105 0.999858
0.995038 0.998764 0.996435 0.999834
0.99987 1.00011 1 0.999764
0.999982 1 1 0.999982
1.00114 1 1.00116 0.999976
0.997276 0.99444 1.00298 0.999872
0.99327 1 0.993326 0.999944
1.00026 1 1.00034 0.999912
0.999585 1 0.999675 0.99991
0.9999 1 1 0.9999
0.999894 1 1 0.999894
0.999948 1 1 0.999948
0.999769 1 0.999805 0.999964
0.999926 1 1 0.999926
0.999903 1 1 0.999903
0.999949 1 1 0.999949
0.999921 1 1 0.999921
0.999905 1 1 0.999905
0.999932 1 1 0.999932
0.999913 1 1 0.999913
0.999909 1 1 0.999909
0.999923 1 1 0.999923
0.999918 1 1 0.999918
0.999921 1 1 0.999921
0.999925 1 1 0.999925
0.999927 1 1 0.999927
0.999941 1 1 0.999941
0.999929 1 1 0.999929
0.999944 1 1 0.999944
0.99998 1 1 0.99998
1 1 1 1
0.999986 1 1 0.999986
0.999951 1 1 0.999951
1 1 1 1
1 1 1 1
0.999991 1 1 0.999991
1 1 1 1
1 1 1 1
1 1 1 1
0.999929 1 1 0.999929
0.999938 1 1 0.999938
0.999958 1 1 0.999958
0.999944 1 1 0.999944
0.999963 1 1 0.999963
0.999994 1 1 0.999994
0.999966 1 1 0.999966
0.999996 1 1 0.999996
1 1 1 1
0.999997 1 1 0.999997
1 1 1 1
1 1 1 1
1 1 1 1
1 1 1 1
1 1 1 1
0.999972 1 1 0.999972
0.998292 1 0.998327 0.999964
0.992578 0.994254 0.998319 0.999995
0.99991 1 1 0.99991
0.999932 1 1 0.999932
0.999899 1 1 0.999899
0.999919 1 1 0.999919
0.99993 1 1 0.99993
0.999865 1 1 0.999865
0.999929 1 1 0.999929
0.999899 1 1 0.999899
0.999873 1 1 0.999873
0.999892 1 1 0.999892
0.999837 1 1 0.999837
0.999887 1 1 0.999887
0.999831 1 1 0.999831
0.998397 1.00016 0.998376 0.999863
0.999984 1 1 0.999984
0.99998 1 1 0.99998
1.00222 1 1.00224 0.999977
0.999262 1 0.999349 0.999913
0.999909 1 1 0.999909
0.999892 1 1 0.999892
0.999949 1 1 0.999949
0.999937 1 1 0.999937
0.999928 1 1 0.999928
0.999905 1 1 0.999905
0.999906 1 1 0.999906
0.99992 1 1 0.99992
0.999903 1 1 0.999903
0.999903 1 1 0.999903
0.999913 1 1 0.999913
0.999909 1 1 0.999909
0.999913 1 1 0.999913
0.999918 1 1 0.999918
0.999921 1 1 0.999921
0.999934 1 1 0.999934
0.999927 1 1 0.999927
0.999941 1 1 0.999941
0.999974 1 1 0.999974
0.999943 1 1 0.999943
0.99998 1 1 0.99998
1 1 1 1
1 1 1 1
1 1 1 1
0.999985 1 1 0.999985
1 1 1 1
1 1 1 1
1 1 1 1
0.999901 1 1 0.999901
0.999918 1 1 0.999918
0.999928 1 1 0.999928
0.999952 1 1 0.999952
0.999936 1 1 0.999936
0.999958 1 1 0.999958
0.999991 1 1 0.999991
0.999962 1 1 0.999962
0.999994 1 1 0.999994
1 1 1 1
0.999996 1 1 0.999996
1 1 1 1
1 1 1 1
1 1 1 1
1 1 1 1
1 1 1 1
0.999945 1 1 0.999945
0.99997 1 1 0.99997
0.99842 1 0.998452 0.999967
0.99988 1 1 0.99988
0.999914 1 1 0.999914
0.999935 1 1 0.999935
0.999901 1 1 0.999901
0.999918 1 1 0.999918
0.999865 1 1 0.999865
0.999863 1 1 0.999863
0.9999 1 1 0.9999
0.99987 1 1 0.99987
0.999831 1 1 0.999831
0.999885 1 1 0.999885
0.999976 1 1 0.999976
0.999983 1 1 0.999983
0.999978 1 1 0.999978
0.999889 1 1 0.999889
0.999951 1 1 0.999951
0.999936 1 1 0.999936
0.999936 1 1 0.999936
0.999907 1 1 0.999907
0.999903 1 1 0.999903
0.999912 1 1 0.999912
0.999902 1 1 0.999902
0.999903 1 1 0.999903
0.999907 1 1 0.999907
0.999909 1 1 0.999909
0.999913 1 1 0.999913
0.999926 1 1 0.999926
0.999921 1 1 0.999921
0.999934 1 1 0.999934
0.999966 1 1 0.999966
0.999941 1 1 0.999941
0.999974 1 1 0.999974
1 1 1 1
0.99998 1 1 0.99998
1 1 1 1
1 1 1 1
1 1 1 1
1 1 1 1
1 1 1 1
0.999883 1 1 0.999883
0.999916 1 1 0.999916
0.999907 1 1 0.999907
0.999943 1 1 0.999943
0.999919 1 1 0.999919
0.999926 1 1 0.999926
0.999952 1 1 0.999952
0.999987 1 1 0.999987
0.999958 1 1 0.999958
0.999991 1 1 0.999991
1 1 1 1
0.999994 1 1 0.999994
1 1 1 1
1 1 1 1
1 1 1 1
1 1 1 1
1 1 1 1
0.999925 1 1 0.999925
0.999946 1 1 0.999946
0.999967 1 1 0.999967
0.999874 1 1 0.999874
0.99988 1 1 0.99988
0.999919 1 1 0.999919
0.999903 1 1 0.999903
0.999865 1 1 0.999865
0.999861 1 1 0.999861
0.999868 1 1 0.999868
0.999962 1 1 0.999962
0.99997 1 1 0.99997
0.999981 1 1 0.999981
0.99994 1 1 0.99994
0.999935 1 1 0.999935
0.999935 1 1 0.999935
0.99993 1 1 0.99993
0.999901 1 1 0.999901
0.999913 1 1 0.999913
0.999911 1 1 0.999911
0.999902 1 1 0.999902
0.999907 1 1 0.999907
0.99992 1 1 0.99992
0.999913 1 1 0.999913
0.999926 1 1 0.999926
0.999958 1 1 0.999958
0.999934 1 1 0.999934
0.999966 1 1 0.999966
1 1 1 1
0.999974 1 1 0.999974
1 1 1 1
1 1 1 1
1 1 1 1
1 1 1 1
1 1 1 1
0.999877 1 1 0.999877
0.999896 1 1 0.999896
0.999886 1 1 0.999886
0.999936 1 1 0.999936
0.999914 1 1 0.999914
0.999912 1 1 0.999912
0.999979 1 1 0.999979
0.999943 1 1 0.999943
0.999919 1 1 0.999919
0.999952 1 1 0.999952
0.999987 1 1 0.999987
1 1 1 1
0.999992 1 1 0.999992
1 1 1 1
1 1 1 1
1 1 1 1
1 1 1 1
1 1 1 1
0.999916 1 1 0.999916
0.999921 1 1 0.999921
0.999946 1 1 0.999946
0.99987 1 1 0.99987
0.99988 1 1 0.99988
0.999866 1 1 0.999866
0.999943 1 1 0.999943
0.999964 1 1 0.999964
0.999964 1 1 0.999964
0.999937 1 1 0.999937
0.999933 1 1 0.999933
0.999935 1 1 0.999935
0.99993 1 1 0.99993
0.999926 1 1 0.999926
0.999913 1 1 0.999913
0.999912 1 1 0.999912
0.99992 1 1 0.99992
0.999907 1 1 0.999907
0.99992 1 1 0.99992
0.999951 1 1 0.999951
0.999926 1 1 0.999926
0.999958 1 1 0.999958
1 1 1 1
0.999966 1 1 0.999966
1 1 1 1
1 1 1 1
1 1 1 1
1 1 1 1
1 1 1 1
0.999913 1 1 0.999913
0.999883 1 1 0.999883
0.999876 1 1 0.999876
0.999918 1 1 0.999918
0.999897 1 1 0.999897
0.999889 1 1 0.999889
0.999969 1 1 0.999969
0.999933 1 1 0.999933
0.999913 1 1 0.999913
1 1 1 1
0.999979 1 1 0.999979
0.999943 1 1 0.999943
0.999988 1 1 0.999988
1 1 1 1
1 1 1 1
1 1 1 1
1 1 1 1
1 1 1 1
0.99991 1 1 0.99991
0.999914 1 1 0.999914
0.999916 1 1 0.999916
0.999865 1 1 0.999865
0.999931 1 1 0.999931
0.999945 1 1 0.999945
0.999966 1 1 0.999966
0.999934 1 1 0.999934
0.999934 1 1 0.999934
0.999936 1 1 0.999936
0.99993 1 1 0.99993
0.999926 1 1 0.999926
0.999928 1 1 0.999928
0.999912 1 1 0.999912
0.99992 1 1 0.99992
0.999948 1 1 0.999948
0.99992 1 1 0.99992
0.999951 1 1 0.999951
0.999999 1 1 0.999999
0.999958 1 1 0.999958
1 1 1 1
1 1 1 1
1 1 1 1
1 1 1 1
1 1 1 1
0.999912 1 1 0.999912
0.999905 1 1 0.999905
0.999912 1 1 0.999912
0.999901 1 1 0.999901
0.999887 1 1 0.999887
0.999875 1 1 0.999875
0.999951 1 1 0.999951
0.999918 1 1 0.999918
0.999899 1 1 0.999899
1 1 1 1
0.999966 1 1 0.999966
0.999929 1 1 0.999929
1 1 1 1
1 1 1 1
0.99998 1 1 0.99998
1 1 1 1
1 1 1 1
1 1 1 1
0.999915 1 1 0.999915
0.999915 1 1 0.999915
0.999912 1 1 0.999912
0.999939 1 1 0.999939
0.999931 1 1 0.999931
0.999947 1 1 0.999947
0.999935 1 1 0.999935
0.999936 1 1 0.999936
0.999944 1 1 0.999944
0.999925 1 1 0.999925
0.999929 1 1 0.999929
0.999949 1 1 0.999949
0.999921 1 1 0.999921
0.999948 1 1 0.999948
0.999997 1 1 0.999997
0.999951 1 1 0.999951
0.999998 1 1 0.999998
1 1 1 1
0.999999 1 1 0.999999
1 1 1 1
1 1 1 1
0.999911 1 1 0.999911
0.999916 1 1 0.999916
0.999912 1 1 0.999912
0.999911 1 1 0.999911
0.999906 1 1 0.999906
0.999911 1 1 0.999911
0.999938 1 1 0.999938
0.999905 1 1 0.999905
0.999891 1 1 0.999891
0.999999 1 1 0.999999
0.999949 1 1 0.999949
0.999918 1 1 0.999918
1 1 1 1
1 1 1 1
0.999962 1 1 0.999962
1 1 1 1
1 1 1 1
1 1 1 1
0.999926 1 1 0.999926
0.999916 1 1 0.999916
0.999921 1 1 0.999921
0.999946 1 1 0.999946
0.999938 1 1 0.999938
0.999932 1 1 0.999932
0.999937 1 1 0.999937
0.999944 1 1 0.999944
0.999959 1 1 0.999959
0.999931 1 1 0.999931
0.99995 1 1 0.99995
0.999996 1 1 0.999996
0.999948 1 1 0.999948
0.999996 1 1 0.999996
1 1 1 1
0.999998 1 1 0.999998
1 1 1 1
1 1 1 1
0.99992 1 1 0.99992
0.999908 1 1 0.999908
0.999923 1 1 0.999923
0.999916 1 1 0.999916
0.999911 1 1 0.999911
0.999942 1 1 0.999942
0.999911 1 1 0.999911
0.999907 1 1 0.999907
0.999997 1 1 0.999997
0.99994 1 1 0.99994
0.999909 1 1 0.999909
1 1 1 1
0.999999 1 1 0.999999
0.999947 1 1 0.999947
1 1 1 1
1 1 1 1
1 1 1 1
0.999937 1 1 0.999937
0.999926 1 1 0.999926
0.999917 1 1 0.999917
0.99996 1 1 0.99996
0.999946 1 1 0.999946
0.999936 1 1 0.999936
0.999944 1 1 0.999944
0.999958 1 1 0.999958
0.999996 1 1 0.999996
0.999951 1 1 0.999951
0.999996 1 1 0.999996
1 1 1 1
0.999996 1 1 0.999996
1 1 1 1
1 1 1 1
0.999929 1 1 0.999929
0.999918 1 1 0.999918
0.999904 1 1 0.999904
0.999948 1 1 0.999948
0.999923 1 1 0.999923
0.999917 1 1 0.999917
0.999996 1 1 0.999996
0.999942 1 1 0.999942
0.99991 1 1 0.99991
1 1 1 1
0.999997 1 1 0.999997
0.999941 1 1 0.999941
1 1 1 1
1 1 1 1
1 1 1 1
0.999959 1 1 0.999959
0.999937 1 1 0.999937
0.999926 1 1 0.999926
0.999997 1 1 0.999997
0.99996 1 1 0.99996
0.999946 1 1 0.999946
0.999957 1 1 0.999957
0.999996 1 1 0.999996
1 1 1 1
0.999996 1 1 0.999996
1 1 1 1
1 1 1 1
0.999955 1 1 0.999955
0.999929 1 1 0.999929
0.999916 1 1 0.999916
0.999996 1 1 0.999996
0.999948 1 1 0.999948
0.999923 1 1 0.999923
1 1 1 1
0.999996 1 1 0.999996
0.999941 1 1 0.999941
1 1 1 1
0.999998 1 1 0.999998
1 1 1 1
0.999996 1 1 0.999996
0.999958 1 1 0.999958
0.999936 1 1 0.999936
1 1 1 1
0.999996 1 1 0.999996
0.99996 1 1 0.99996
0.999997 1 1 0.999997
1 1 1 1
1 1 1 1
0.999996 1 1 0.999996
0.999955 1 1 0.999955
0.999929 1 1 0.999929
1 1 1 1
0.999996 1 1 0.999996
0.999948 1 1 0.999948
1 1 1 1
0.999996 1 1 0.999996
1 1 1 1
1 1 1 1
0.999996 1 1 0.999996
0.999956 1 1 0.999956
1 1 1 1
0.999996 1 1 0.999996
1 1 1 1
1 1 1 1
0.999996 1 1 0.999996
0.999955 1 1 0.999955
1 1 1 1
0.999996 1 1 0.999996
1 1 1 1
1 1 1 1
0.999996 1 1 0.999996
1 1 1 1
1 1 1 1
0.999996 1 1 0.999996
1 1 1 1
1 1 1 1
1 1 1 1

VECTORS lamdaE float
0.999305 0.998107 0.997978
0.999439 0.99747 0.999243
0.999302 0.998076 0.998001
0.999032 0.999203 0.99752
0.999226 0.99845 0.997826
0.999368 0.997805 0.998124
0.999511 0.999173 0.996434
0.999452 0.997466 0.999254
0.999209 0.998325 0.999093
0.999378 0.997688 0.999222
0.999518 0.997239 0.998328
0.999601 0.998606 0.996623
0.998628 1.00022 0.997377
0.998838 0.999547 0.997551
0.999299 0.998045 0.998024
0.999027 0.999183 0.997543
0.999367 0.997777 0.998143
0.999224 0.998414 0.99785
0.99951 0.999192 0.996438
0.998681 0.99988 0.998897
0.998936 0.999528 0.997422
0.999128 0.99883 0.997671
0.999503 0.999852 0.99583
0.999501 0.999404 0.996247
0.999442 0.997532 0.998235
0.999523 0.998927 0.996634
0.999973 1.0005 0.994263
0.999465 0.997462 0.999265
0.999213 0.998384 0.998462
0.999383 0.997716 0.998679
0.999512 0.997238 0.999285
0.999598 0.998578 0.99663
0.999085 0.998835 0.997703
0.99929 0.998053 0.998021
0.999519 0.999384 0.996568
0.999584 0.997006 0.999318
0.999555 0.998846 0.996988
0.999646 0.998371 0.996759
0.999909 1.00024 0.994389
0.999702 0.996754 0.999318
0.998623 0.999984 0.998878
0.998818 0.999517 0.99824
0.998602 1.00013 0.998846
0.998703 0.999894 0.997492
0.999308 1.00063 0.995118
0.998968 0.999055 0.99899
0.999385 1.00011 0.996096
0.999021 0.99916 0.997566
0.999221 0.998376 0.997874
0.999366 0.997749 0.998163
0.999508 0.999212 0.996442
0.998676 0.999966 0.998156
0.998928 0.999519 0.997436
0.999442 0.997502 0.998249
0.999126 0.998797 0.997696
0.999503 0.999862 0.995835
0.999524 0.998939 0.996641
0.9995 0.999419 0.996249
0.999994 1.0005 0.994234
0.998639 1.00003 0.998877
0.998813 0.999809 0.997413
0.999362 1.00036 0.995908
0.99951 1.00002 0.995674
0.999492 0.999639 0.996047
1.00032 1.00052 0.993559
1.00007 1.00048 0.993955
0.999549 0.99729 0.998301
0.999571 0.998623 0.99683
0.999873 1.00046 0.99451
1.00039 1.00068 0.992994
0.99923 0.99832 0.999108
0.99953 0.997237 0.999297
0.999395 0.997709 0.999226
0.999594 0.99855 0.996636
0.999088 0.99873 0.999016
0.999288 0.998018 0.999149
0.999508 0.999422 0.995965
0.999592 0.997026 0.998845
0.999556 0.99883 0.996473
0.999646 0.998341 0.997017
0.999894 1.00027 0.994383
0.999643 0.996873 0.999316
0.999817 0.997863 0.996919
0.999498 0.999708 0.995661
0.999522 0.99916 0.996192
1.00008 1.00049 0.993763
0.999709 0.998124 0.997341
0.999945 1.00033 0.994215
0.999886 1.00009 0.994584
1.00012 1.00083 0.993383
0.999749 0.996656 0.999322
0.99971 0.996769 0.999319
0.998869 0.99937 0.998959
0.998641 0.999935 0.998896
0.998602 1.00011 0.998853
0.998691 0.999847 0.998193
0.9993 1.00058 0.995516
0.998976 0.999136 0.998293
0.999392 1.00015 0.995763
0.998607 1.00014 0.998851
0.999314 1.00071 0.995026
0.999329 1.00033 0.995998
1.00027 1.00078 0.993084
0.999462 0.999858 0.996216
1.00024 1.0006 0.993331
0.99868 1.00006 0.997404
0.998919 0.999512 0.997451
0.999442 0.997473 0.998262
0.999123 0.99876 0.997721
0.999503 0.999873 0.995839
0.9995 0.999437 0.996251
0.999525 0.99895 0.996647
1.00001 1.0005 0.994205
0.998633 1.00005 0.998867
0.998805 0.9998 0.997421
0.999372 1.00039 0.995391
0.999509 1.00003 0.995674
0.999531 0.99726 0.998791
0.999571 0.998622 0.996987
0.999492 0.99965 0.99605
1.00032 1.00051 0.993481
0.999899 1.00046 0.994474
1.00008 1.00049 0.993996
1.00039 1.00068 0.993
0.999336 1.0006 0.995083
0.999451 1.00017 0.99565
1.0004 1.00061 0.993155
1.00042 1.00048 0.993247
1.00018 1.00049 0.993715
1.00082 1.00047 0.992467
0.999613 0.997073 0.999293
1.00052 1.00052 0.992895
0.999657 0.998341 0.996757
0.999836 1.00033 0.994432
1.00025 1.00087 0.993112
1.00061 1.00068 0.99257
0.999786 0.997997 0.996824
1 0.999743 0.994681
0.99913 0.998674 0.999041
0.999314 0.997993 0.999177
0.999478 0.999439 0.995955
0.999601 0.997047 0.999313
0.999645 0.998308 0.996788
0.999543 0.99881 0.996464
0.999879 1.0003 0.994378
0.999655 0.996887 0.999317
0.999818 0.997851 0.996919
0.999485 0.999683 0.996026
0.999512 0.999132 0.996507
1.00008 1.0005 0.99376
0.999716 0.998106 0.996885
0.999928 1.00037 0.994212
0.999874 1.00011 0.994582
1.00012 1.00082 0.993348
0.999773 0.997961 0.99691
0.999851 0.997779 0.996933
0.999989 0.999651 0.994808
1.00017 1.00048 0.993576
0.999991 1.00045 0.994002
1.00051 1.00058 0.992842
0.999917 0.999866 0.994749
1.00022 1.00069 0.993257
1.00005 1.00093 0.993444
1.00023 1.00109 0.992975
0.999788 0.996569 0.999327
0.999754 0.99667 0.999323
0.999719 0.996785 0.99932
0.999825 0.997899 0.996845
0.999676 0.996933 0.999299
0.999006 0.99903 0.998992
0.998737 0.999681 0.998931
0.999364 1.00022 0.995409
0.999282 1.00065 0.99515
0.998601 1.0001 0.99886
0.998606 1.00014 0.998847
0.999306 1.00072 0.995029
0.99933 1.00038 0.995658
1.00028 1.00078 0.993081
0.999454 0.999941 0.995536
1.00024 1.0006 0.993332
0.999322 1.0007 0.995011
1.00031 1.00083 0.992956
1.00025 1.00069 0.993221
1.00071 1.00075 0.992258
1.00022 1.00052 0.993443
1.00071 1.00052 0.992488
0.998626 1.00007 0.998858
0.998796 0.999791 0.997429
0.99938 1.00042 0.994877
0.999508 1.00003 0.995675
0.999513 0.997228 0.999285
0.999571 0.99862 0.997144
0.999493 0.999663 0.996054
1.00033 1.0005 0.993403
1.0001 1.0005 0.994036
0.999925 1.00045 0.994437
1.00038 1.00068 0.993006
0.99934 1.0006 0.995083
0.999454 1.00017 0.995647
1.00041 1.0006 0.993013
1.00043 1.00049 0.993292
0.999597 0.997067 0.999291
0.999653 0.998359 0.996992
0.999858 1.00029 0.994574
1.00019 1.00049 0.993714
1.00081 1.00046 0.992382
1.00022 1.00088 0.993095
1.00053 1.00052 0.992937
1.0006 1.00067 0.992579
0.999784 0.998011 0.996823
1 0.999745 0.994684
1.00035 1.00072 0.992966
1.00045 1.00051 0.993165
1.00089 1.00058 0.992207
1.00093 1.00041 0.992103
1.00063 1.00047 0.992778
1.00103 1.00041 0.992035
0.999725 0.998141 0.996799
1.00074 1.00045 0.992522
0.999866 1.00012 0.994573
1.00007 1.00092 0.993274
1.00046 1.00103 0.992663
1.00072 1.00058 0.992471
0.999972 0.999805 0.994677
1.00002 0.999687 0.994711
1.00013 1.00083 0.993371
0.999464 0.99972 0.995706
0.999667 0.996901 0.999317
0.999819 0.997839 0.996919
0.999496 0.99912 0.996237
1.00007 1.00051 0.993757
0.999711 0.998088 0.996883
0.999862 1.00013 0.99458
0.99991 1.00041 0.994208
1.00013 1.00082 0.993312
0.999774 0.99795 0.99691
0.999852 0.997768 0.996934
0.99999 0.999648 0.994807
1.00018 1.00049 0.993572
0.999976 1.00048 0.994001
1.00051 1.00058 0.99284
0.99991 0.99987 0.994749
1.00023 1.00069 0.993286
1.00005 1.00094 0.993436
1.00023 1.00108 0.992933
0.99988 0.997701 0.996952
0.999962 0.99971 0.994807
1.00001 0.999602 0.994815
1.00011 1.00072 0.993511
1.00063 1.00047 0.992687
1.00034 1.00067 0.993098
1.0007 1.00064 0.992403
1.00007 1.00081 0.993526
1.00037 1.00084 0.992865
1.00013 1.00139 0.992841
1.0003 1.00116 0.992649
1.00006 0.999369 0.994946
0.999935 0.99755 0.996987
0.999823 0.996485 0.999332
0.999791 0.996579 0.999328
0.99976 0.996684 0.999325
0.999852 0.997819 0.996872
0.999722 0.996822 0.999305
0.999822 0.997912 0.996844
0.999665 0.996919 0.999297
0.999423 0.999975 0.995532
0.999306 1.00046 0.995292
1.00025 1.0006 0.993332
1.00028 1.00078 0.993079
0.999298 1.00073 0.995031
0.998604 1.00014 0.998845
0.999323 1.0007 0.995009
1.00032 1.00083 0.992955
1.00025 1.00069 0.993221
1.00072 1.00076 0.992252
1.00022 1.00053 0.993441
1.00071 1.00053 0.99249
1.00034 1.0008 0.992925
1.00071 1.00084 0.992174
1.00072 1.00063 0.992361
1.00091 1.00067 0.991969
1.00069 1.00046 0.992599
1.00091 1.00043 0.992188
0.999345 1.00059 0.995082
0.999458 1.00017 0.995643
1.00041 1.00059 0.99287
1.00044 1.00049 0.993337
0.999582 0.99706 0.999288
0.999649 0.998378 0.997224
0.99988 1.00026 0.994716
1.00019 1.00049 0.993712
1.0008 1.00044 0.992297
1.00054 1.00052 0.992978
1.00019 1.00088 0.993078
1.0006 1.00067 0.992587
0.999782 0.998025 0.996823
0.999999 0.999748 0.994688
1.00036 1.00072 0.992914
1.00045 1.0005 0.993166
1.00088 1.00056 0.99219
1.00093 1.00043 0.992196
0.999726 0.998156 0.996797
0.999879 1.00011 0.994574
1.00007 1.00092 0.993331
1.00064 1.00047 0.992786
1.00103 1.00037 0.992015
1.00044 1.00103 0.992602
1.00074 1.00044 0.992524
1.00071 1.00056 0.992463
0.999973 0.999806 0.99468
1.00014 1.00081 0.993329
1.00001 0.999693 0.994712
1.00079 1.00075 0.992239
1.00097 1.00043 0.992133
1.00109 1.00054 0.991756
1.00118 1.00036 0.991744
1.00083 1.00036 0.99238
1.00114 1.00014 0.992043
0.999921 0.999927 0.994657
1.00083 1.0003 0.992468
1.00006 1.00083 0.993495
1.00021 1.0012 0.992732
1.00055 1.00113 0.992297
1.00078 1.00038 0.99264
1.00002 0.999617 0.99477
1.00012 1.00077 0.993447
1.00012 1.0009 0.993208
1.0002 1.00131 0.992868
1.00018 1.00049 0.993568
0.999853 0.997756 0.996934
0.999774 0.997938 0.99691
0.99999 0.999645 0.994805
0.999961 1.0005 0.994
1.00051 1.00058 0.992839
0.999903 0.999874 0.994749
1.00004 1.00095 0.993428
1.00023 1.00069 0.993315
1.00022 1.00107 0.99289
0.99988 0.997691 0.996953
0.99996 0.999709 0.994806
1.00001 0.999599 0.994814
1.00011 1.00073 0.993507
1.00064 1.00047 0.992683
1.00034 1.00067 0.993101
1.0007 1.00064 0.992401
1.00006 1.00082 0.993525
1.00037 1.00085 0.992908
1.00013 1.0014 0.992827
1.00028 1.00112 0.992735
0.999908 0.997624 0.996971
1.00003 0.999548 0.994836
1.00011 1.00069 0.993547
1.00011 1.00075 0.993485
1.00016 1.00132 0.992812
1.00083 1.00044 0.992326
1.0005 1.0008 0.992652
1.00078 1.00067 0.992237
1.00013 1.00138 0.992858
1.00043 1.00098 0.992617
1.0002 1.00167 0.992268
1.00005 0.999433 0.994905
1.00011 1.00064 0.993591
1.00007 0.999311 0.994977
1.00006 0.999366 0.994948
0.999959 0.997462 0.997451
0.999932 0.997545 0.997214
0.999867 0.996434 0.998435
0.999826 0.996491 0.999333
0.999795 0.99659 0.99933
0.999876 0.997741 0.996902
0.999758 0.996721 0.999311
0.999851 0.997831 0.99687
0.999715 0.996807 0.999303
0.99982 0.997925 0.996843
0.999654 0.996906 0.999296
1.00023 1.00053 0.993438
1.00026 1.00069 0.99322
1.00071 1.00053 0.992493
1.00072 1.00076 0.992246
1.00032 1.00083 0.992955
0.999321 1.0007 0.995009
1.00034 1.0008 0.992926
1.00071 1.00084 0.992172
1.00072 1.00063 0.992361
1.00091 1.00067 0.99197
1.00069 1.00046 0.992597
1.00091 1.00044 0.992192
1.00073 1.00084 0.992135
1.00083 1.00079 0.99199
1.00093 1.00054 0.992035
1.00103 1.00054 0.991894
1.00088 1.00038 0.992305
1.00103 1.00014 0.992286
1.00035 1.00072 0.992862
1.00045 1.00049 0.993167
1.00087 1.00054 0.992172
1.00093 1.00044 0.992289
0.999726 0.998171 0.996795
0.999893 1.00009 0.994575
1.00008 1.00092 0.993388
1.00066 1.00047 0.992794
1.00102 1.00033 0.991995
1.00074 1.00044 0.992526
1.00041 1.00102 0.992541
1.0007 1.00054 0.992455
0.999973 0.999807 0.994684
1.00015 1.00079 0.993287
1.00001 0.999699 0.994713
1.00078 1.00074 0.992195
1.00097 1.00043 0.99213
1.0011 1.00053 0.991701
1.00118 1.00036 0.991764
0.999927 0.999921 0.99466
1.00007 1.00082 0.993495
1.00021 1.00121 0.992789
1.00084 1.00038 0.992403
1.00114 1.00008 0.992074
1.00053 1.00117 0.992239
1.00084 1.00029 0.992471
1.00076 1.00031 0.992679
1.00013 1.00075 0.993452
1.0002 1.00128 0.99281
1.00002 0.999622 0.994768
1.00013 1.0009 0.993205
1.00096 1.00076 0.991793
1.00128 1.00036 0.991617
1.00117 1.00057 0.991451
1.00129 1.00011 0.991706
1.00094 1.00014 0.992411
1.00125 0.999734 0.992242
1.00009 1.00076 0.993512
1.00088 0.999901 0.992769
1.00016 1.00111 0.992949
1.00028 1.00159 0.992313
1.00059 1.00123 0.992074
1.00085 1.00014 0.99273
1.00002 0.999562 0.994827
1.00011 1.00091 0.993203
1.00022 1.0011 0.992935
1.00016 1.00158 0.992609
1.00027 1.00144 0.992571
0.999881 0.997681 0.996954
1.00065 1.00048 0.992678
1.00001 0.999596 0.994814
0.999959 0.999708 0.994804
1.00011 1.00074 0.993504
1.00033 1.00067 0.993104
1.0007 1.00064 0.992398
1.00005 1.00083 0.993525
1.00014 1.0014 0.992812
1.00038 1.00086 0.99295
1.00027 1.00108 0.992821
0.999908 0.997617 0.996972
1.00003 0.999545 0.994835
1.0001 1.00071 0.993545
1.00011 1.00076 0.993482
1.00016 1.00132 0.992798
1.00084 1.00044 0.992318
1.0005 1.0008 0.992652
1.00077 1.00068 0.992218
1.00012 1.00138 0.992863
1.00043 1.00098 0.992646
1.00023 1.00164 0.992314
1.00004 0.999492 0.994866
1.00012 1.00075 0.993472
1.00018 1.00124 0.992848
1.00015 1.00143 0.992745
1.00019 1.00164 0.992511
1.00093 1.00029 0.992271
1.00056 1.00091 0.992415
1.00072 1.00053 0.992398
1.00016 1.00186 0.99231
1.0004 1.00167 0.992007
1.00005 0.999427 0.994906
1.00012 1.00071 0.993395
1.00011 1.00065 0.993527
1.00009 1.00155 0.992864
1.0001 1.00061 0.993645
1.00009 0.999268 0.994991
1.00007 0.999312 0.994979
0.999988 0.997388 0.997463
1.00006 0.999362 0.99495
0.999959 0.997473 0.997453
0.999908 0.996351 0.998442
0.99993 0.99754 0.997441
0.999863 0.996404 0.998886
0.999828 0.996498 0.999335
0.999902 0.997649 0.996943
0.999877 0.997749 0.9969
0.999792 0.996614 0.999318
0.999754 0.996709 0.999309
0.99985 0.997842 0.996868
0.999709 0.996792 0.999301
1.00069 1.00047 0.992595
1.00072 1.00063 0.992362
1.0009 1.00045 0.992196
1.00091 1.00066 0.99197
1.00072 1.00085 0.992169
1.00034 1.0008 0.992927
1.00073 1.00084 0.992139
1.00083 1.0008 0.991989
1.00093 1.00054 0.992036
1.00103 1.00054 0.991876
1.00088 1.00039 0.992301
1.00103 1.00013 0.992286
1.00085 1.00084 0.991937
1.00082 1.00079 0.991997
1.00106 1.00028 0.991984
1.00108 1.00058 0.991824
1.00099 1.00006 0.992359
1.00113 0.999847 0.992438
1.00076 1.00073 0.992151
1.00097 1.00043 0.992128
1.00111 1.00052 0.991647
1.00118 1.00035 0.991785
0.999933 0.999916 0.994662
1.00008 1.00081 0.993496
1.0002 1.00123 0.992845
1.00085 1.00041 0.992426
1.00113 1.00002 0.992106
1.00084 1.00028 0.992474
1.0005 1.00121 0.992181
1.00075 1.00023 0.992718
1.00014 1.00073 0.993458
1.0002 1.00126 0.992752
1.00002 0.999629 0.994767
1.00013 1.00089 0.993201
1.00095 1.00075 0.991806
1.00126 1.00036 0.991633
1.00121 1.00059 0.991393
1.0013 1.00012 0.991716
1.0001 1.00075 0.993516
1.00016 1.00111 0.992992
1.00028 1.00162 0.992309
1.00095 1.00018 0.992387
1.0012 0.999701 0.992332
1.00058 1.00128 0.992045
1.00088 0.999908 0.992773
1.00083 0.999985 0.992841
1.00022 1.0011 0.992937
1.00027 1.00141 0.992541
1.00016 1.00159 0.992597
1.00002 0.999559 0.994732
1.00012 1.0009 0.993212
1.00102 1.00078 0.991642
1.0014 1.00035 0.991276
1.00138 0.999735 0.991931
1.00109 0.999582 0.992649
1.0002 1.00103 0.993045
1.00103 0.999301 0.993145
1.00013 1.00148 0.992599
1.00034 1.00202 0.9918
1.00071 1.00115 0.991928
1.00003 0.999473 0.994711
1.0001 1.00085 0.99348
1.00012 1.00176 0.992491
1.00028 1.00123 0.992687
1.00024 1.00191 0.992125
1.00032 1.00149 0.992316
0.999908 0.99761 0.996974
1.00003 0.999541 0.994834
1.00085 1.00044 0.99231
1.00011 1.00076 0.993479
1.00009 1.00072 0.993543
1.00016 1.00131 0.992783
1.0005 1.00081 0.992653
1.00077 1.00069 0.992198
1.00012 1.00137 0.992867
1.00025 1.00161 0.992361
1.00043 1.00099 0.992674
1.00004 0.999488 0.994866
1.00012 1.00076 0.993468
1.00017 1.00123 0.992889
1.00014 1.00144 0.992738
1.00018 1.00164 0.992472
1.00092 1.00032 0.992261
1.00057 1.00091 0.992399
1.00074 1.0005 0.992427
1.00015 1.00185 0.992279
1.00041 1.00173 0.991945
1.00012 1.00074 0.993471
1.00014 1.00152 0.992567
1.0002 1.00165 0.992421
1.00019 1.00176 0.992272
1.00025 1.00177 0.99223
1.00107 0.999418 0.992857
1.00059 1.00131 0.992024
1.00079 1.00025 0.992299
1.00026 1.00219 0.991908
1.00041 1.0021 0.991321
1.00005 0.999421 0.994908
1.00012 1.00072 0.993448
1.0001 1.00161 0.992586
1.00011 1.00066 0.993464
1.0001 1.00061 0.993646
1.00009 1.00155 0.992764
1.00009 1.00214 0.992243
1.00008 1.00152 0.992703
1.00009 1.00059 0.993692
1.0001 0.99925 0.994986
1.00009 0.999274 0.994992
1.00002 0.99732 0.99747
1.00007 0.999313 0.994981
0.999987 0.997399 0.997464
0.999945 0.996265 0.998449
0.999959 0.997483 0.997455
0.999906 0.996318 0.998443
0.999858 0.996374 0.999339
0.999935 0.997528 0.997
0.999905 0.997656 0.996941
0.99983 0.99649 0.999329
0.999878 0.997758 0.996898
0.99979 0.99661 0.999316
0.999751 0.996698 0.999307
1.00088 1.00039 0.992297
1.00094 1.00055 0.992037
1.00103 1.00011 0.992286
1.00104 1.00054 0.991859
1.00083 1.0008 0.991989
1.00073 1.00085 0.992143
1.00084 1.00085 0.991927
1.00083 1.00078 0.991999
1.00108 1.00028 0.991955
1.00106 1.00061 0.991758
1.00098 1.00009 0.992363
1.00111 0.999764 0.992494
1.00078 1.00082 0.992067
1.0008 1.00083 0.991995
1.00111 1.00025 0.991962
1.00112 0.99934 0.992907
1.00094 1.00075 0.991819
1.00125 1.00035 0.991649
1.00124 1.00061 0.991336
1.0013 1.00014 0.991726
1.00011 1.00073 0.993519
1.00016 1.00111 0.993035
1.00027 1.00165 0.992306
1.00096 1.00022 0.992362
1.00115 0.999666 0.992423
1.00088 0.999915 0.992777
1.00058 1.00133 0.992017
1.0008 0.999835 0.992952
1.00022 1.0011 0.992939
1.00028 1.00139 0.992512
1.00016 1.0016 0.992585
1.00002 0.999557 0.994638
1.00012 1.0009 0.99322
1.00105 1.00076 0.991583
1.00138 1.00036 0.991337
1.00136 0.999771 0.991963
1.0002 1.00103 0.993043
1.00016 1.00146 0.99266
1.00031 1.00207 0.991785
1.0011 0.999624 0.992604
1.00069 1.00104 0.992064
1.001 0.999329 0.993115
1.00003 0.999459 0.994726
1.00028 1.00124 0.992683
1.00033 1.00146 0.992342
1.00024 1.00189 0.992164
1.00012 1.00178 0.99252
1.0001 1.00084 0.993384
1.00116 1.0007 0.99151
1.00145 1.00023 0.99131
1.00139 0.99925 0.992344
1.00131 0.998692 0.993148
1.00024 1.00124 0.992754
1.00098 1.00004 0.992482
1.00015 1.00201 0.992065
1.00039 1.00237 0.991414
1.00004 0.999305 0.994853
1.00009 1.00079 0.993547
1.0001 1.00178 0.992622
1.00017 1.00232 0.991821
1.00032 1.00141 0.992391
1.00032 1.00187 0.99195
1.00004 0.999484 0.994866
1.00011 1.00076 0.993465
1.00092 1.00036 0.992251
1.00014 1.00146 0.992732
1.00016 1.00122 0.99293
1.00018 1.00164 0.992432
1.00058 1.0009 0.992382
1.00076 1.00047 0.992457
1.00013 1.00185 0.992249
1.00041 1.0018 0.991883
1.00012 1.00075 0.993471
1.00015 1.00154 0.992607
1.00019 1.00164 0.992479
1.00018 1.00177 0.992321
1.00023 1.00176 0.992264
1.00109 0.999434 0.99291
1.00061 1.00126 0.992051
1.00075 1.00031 0.992468
1.00024 1.0022 0.991856
1.00043 1.00221 0.991286
1.00013 1.00161 0.992528
1.00017 1.00211 0.991958
1.00024 1.00201 0.992019
1.00024 1.00196 0.991946
1.0015 0.998535 0.99305
1.0012 0.999031 0.992887
1.00067 1.00177 0.991348
1.00025 1.00289 0.990939
1.00011 1.00073 0.993501
1.0001 1.00161 0.992639
1.00009 1.00219 0.99213
1.0001 1.00061 0.993647
1.00009 1.00155 0.992664
1.00009 1.00059 0.993692
1.00009 1.00214 0.992171
1.00008 1.00153 0.992742
1.00012 1.00252 0.991773
1.00009 1.00213 0.992105
1.00009 1.0015 0.992717
1.00007 1.00061 0.993701
1.00011 0.999255 0.994968
1.0001 0.999258 0.994986
1.00004 0.997262 0.997474
1.00009 0.99928 0.994993
1.00002 0.997331 0.997471
0.999981 0.996185 0.998454
0.999987 0.997409 0.997465
0.999944 0.996232 0.998449
0.999904 0.996285 0.998443
0.999971 0.997392 0.997063
0.999938 0.997536 0.996997
0.999871 0.996356 0.999343
0.999907 0.997663 0.996938
0.999826 0.996497 0.999325
0.999787 0.996606 0.999314
1.00097 1.00012 0.992366
1.0011 1.00029 0.991927
1.00109 0.999687 0.99255
1.00105 1.00063 0.991693
1.00084 1.00076 0.992001
1.00083 1.00086 0.991917
1.00081 1.00082 0.992011
1.00083 1.00081 0.991979
1.00109 1.00021 0.992024
1.00112 0.999318 0.992869
1.00078 1.00082 0.992034
1.0008 1.00079 0.992069
1.00122 0.999443 0.992551
1.00108 1.00074 0.991524
1.00136 1.00037 0.991397
1.00134 0.999806 0.991996
1.00021 1.00103 0.993042
1.00019 1.00145 0.992721
1.00029 1.00212 0.99177
1.00112 0.999667 0.992559
1.00096 0.999354 0.993085
1.00067 1.00093 0.9922
1.00028 1.00125 0.99268
1.00033 1.00142 0.992369
1.00023 1.00186 0.992204
1.00003 0.999444 0.994742
1.00012 1.0018 0.992549
1.00011 1.00083 0.993288
1.00109 1.00069 0.991602
1.00149 1.00018 0.991281
1.0014 0.99933 0.992274
1.00025 1.00125 0.992749
1.00015 1.00198 0.992128
1.00038 1.00233 0.99146
1.00128 0.998721 0.993205
1.00097 0.999998 0.992472
1.00005 0.999292 0.994955
1.00009 1.0008 0.993547
1.00032 1.00142 0.992379
1.00032 1.00187 0.99196
1.00016 1.0023 0.991868
1.00011 1.00177 0.992571
1.00108 1.00051 0.991797
1.00155 0.9999 0.991474
1.00151 0.998131 0.993253
1.00139 0.998513 0.993307
1.00023 1.00159 0.992365
1.00056 1.00206 0.991371
1.00023 1.00253 0.991626
1.00007 0.999148 0.995156
1.0001 1.0003 0.993974
1.00007 1.00061 0.993569
1.00008 1.00184 0.992518
1.00012 1.00239 0.991825
1.00022 1.00259 0.991485
1.00031 1.00166 0.992136
1.00029 1.00235 0.991694
1.00012 1.00075 0.99347
1.00015 1.00155 0.992647
1.0011 0.999451 0.992962
1.00017 1.00178 0.992369
1.00019 1.00163 0.992537
1.0002 1.00175 0.992298
1.00063 1.0012 0.992079
1.00072 1.00037 0.992637
1.00022 1.00222 0.991805
1.00044 1.00231 0.99125
1.00013 1.00161 0.992525
1.00018 1.00207 0.992028
1.00023 1.00198 0.992072
1.00025 1.00198 0.991987
1.00148 0.998467 0.99307
1.00113 0.99927 0.992838
1.00069 1.00176 0.991416
1.00029 1.00283 0.990936
1.00012 1.00224 0.992041
1.00131 0.999107 0.992675
1.00021 1.00254 0.991603
1.00024 1.00253 0.99149
1.00182 0.997567 0.993284
1.00107 1.00115 0.991099
1.0004 1.00336 0.99053
1.0001 1.00162 0.992693
1.00009 1.00219 0.992131
1.00009 1.00259 0.991727
1.00009 1.00059 0.993691
1.00008 1.00153 0.992781
1.00009 1.00214 0.992098
1.00007 1.00061 0.993699
1.00008 1.0015 0.992718
1.00012 1.00253 0.991714
1.00009 1.00213 0.992184
1.00018 1.00274 0.991424
1.00015 1.00254 0.991611
1.0001 1.00212 0.992174
1.00008 1.00155 0.992754
1.00007 1.00065 0.993683
1.00011 0.999268 0.994951
1.00011 0.999259 0.994968
1.00006 0.997226 0.997467
1.0001 0.999265 0.994986
1.00004 0.997275 0.997474
1.00001 0.996116 0.998458
1.00001 0.997341 0.997471
0.999979 0.996152 0.998454
0.999942 0.996198 0.998449
1.00009 0.999 0.995259
1 0.997256 0.997133
0.999974 0.997401 0.99706
0.999912 0.996226 0.999357
0.999941 0.997544 0.996993
0.999866 0.996368 0.999339
0.999823 0.996503 0.999322
1.00112 0.999295 0.992831
1.00107 1.00017 0.992087
1.00086 1.0008 0.991963
1.00083 1.00083 0.991956
1.00076 1.00083 0.992104
1.00081 1.00085 0.99201
1.00118 0.999389 0.992667
1.00073 1.00084 0.992172
1.00095 1.00025 0.992267
1.00099 0.999261 0.993323
1.00103 1.00069 0.991695
1.00152 1.00013 0.991251
1.0014 0.999409 0.992205
1.00025 1.00126 0.992744
1.00015 1.00194 0.992191
1.00037 1.00228 0.991506
1.00125 0.99875 0.993262
1.00097 0.999964 0.992461
1.00031 1.00144 0.992367
1.00033 1.00187 0.99197
1.00015 1.00227 0.991915
1.00005 0.99928 0.995057
1.00008 1.00081 0.993547
1.00011 1.00177 0.99252
1.00109 1.00051 0.991737
1.00007 0.999149 0.995154
1.00009 1.0003 0.993914
1.00156 0.999848 0.991502
1.00148 0.998304 0.993085
1.00023 1.00156 0.992383
1.00022 1.00255 0.99155
1.00056 1.00191 0.991408
1.00137 0.9985 0.993276
1.00007 1.0006 0.993738
1.00008 1.00186 0.992509
1.00032 1.00167 0.992161
1.00029 1.0022 0.991755
1.00023 1.00262 0.991389
1.00012 1.00238 0.991851
1.00115 1.00067 0.991497
1.00157 0.998902 0.992445
1.00177 0.99678 0.994193
1.00096 1.00056 0.992051
1.0002 1.00198 0.992041
1.0003 1.00307 0.99103
1.0001 1.00015 0.993982
1.00008 1.00044 0.993858
1.00007 1.00131 0.993163
1.00004 1.00177 0.992509
1.00011 1.00244 0.991899
1.00017 1.00298 0.991047
1.00019 1.00325 0.990942
1.0002 1.00219 0.99184
1.00013 1.00162 0.992521
1.00018 1.00204 0.992098
1.00147 0.9984 0.99309
1.00106 0.999509 0.99279
1.00026 1.00199 0.992029
1.00022 1.00196 0.992125
1.00071 1.00175 0.991485
1.00033 1.00279 0.990933
1.00012 1.00223 0.992037
1.00125 0.998945 0.992888
1.00021 1.00249 0.991595
1.00025 1.00251 0.991396
1.00176 0.997666 0.993237
1.00112 1.00114 0.991121
1.00038 1.0034 0.99048
1.00011 1.00274 0.991593
1.00182 0.997361 0.99311
1.00025 1.0028 0.991314
1.00029 1.00351 0.990653
1.00182 0.999333 0.991282
1.00049 1.00336 0.990017
1.00392 0.99645 0.990325
1.00008 1.0022 0.992131
1.00008 1.0026 0.991728
1.00013 1.00286 0.991443
1.00007 1.00062 0.993698
1.00008 1.00151 0.992719
1.00009 1.00214 0.992264
1.00013 1.00253 0.991655
1.00007 1.00065 0.993682
1.00008 1.00156 0.992709
1.00019 1.00271 0.991402
1.0001 1.00212 0.992175
1.00014 1.00254 0.991681
1.00025 1.00278 0.991174
1.00015 1.00258 0.991681
1.00011 1.00218 0.992172
1.00008 1.00161 0.992586
1.00007 1.00066 0.993523
1.00006 1.00165 0.992831
1.00007 1.00065 0.993525
1.00011 0.999276 0.994947
1.00011 0.999268 0.994952
1.00008 0.997235 0.997009
1.00011 0.999263 0.994968
1.00006 0.997243 0.997243
1.00001 0.996041 0.999347
1.00004 0.997288 0.997473
1.00001 0.996084 0.998458
0.999978 0.996119 0.998454
1.00011 0.998887 0.995338
1.00009 0.999002 0.995257
1.00003 0.997132 0.997202
1 0.997265 0.997344
0.999949 0.996102 0.999374
0.999977 0.997409 0.997056
0.999907 0.996238 0.999353
0.999862 0.99638 0.999334
1.00115 0.999337 0.992783
1.00081 1.0009 0.991951
1.00074 1.00083 0.992174
1.00073 1.00083 0.992182
1.00091 1.00029 0.992291
1.00081 0.999515 0.993344
1.0008 1.00051 0.992412
1.00279 0.995816 0.995516
1.00058 0.998147 0.994781
1.00011 1.00004 0.994192
1.00109 1.00051 0.991677
1.00157 0.999801 0.991531
1.00146 0.998469 0.992916
1.00023 1.00154 0.992402
1.00022 1.00256 0.991473
1.00056 1.00176 0.991445
1.00134 0.99849 0.993245
1.00033 1.00168 0.992186
1.00029 1.00204 0.991815
1.00023 1.00266 0.991293
1.00007 0.99915 0.995152
1.00013 1.00237 0.991877
1.00007 1.0006 0.993906
1.00007 1.00187 0.992499
1.00009 1.00029 0.993855
1.00122 1.00062 0.991377
1.0001 1.00013 0.994054
1.00008 1.00045 0.993856
1.00007 1.00132 0.993043
1.00156 0.998921 0.99247
1.00174 0.996948 0.993958
1.00023 1.00194 0.99206
1.00024 1.00301 0.991002
1.00093 1.00045 0.992097
1.00004 1.00174 0.992594
1.00012 1.00245 0.991872
1.00021 1.00221 0.991829
1.00019 1.00307 0.991076
1.00016 1.00299 0.991113
1.00137 1.00049 0.991145
1.00198 0.996493 0.994038
1.0017 0.998299 0.992859
1.00046 1.00274 0.99109
1.00008 1.00259 0.991625
1.00007 1.00107 0.993109
1.00006 1.00151 0.992733
1.00004 1.00208 0.992388
1.00007 1.0026 0.991792
1.00015 1.00283 0.991307
1.00012 1.00379 0.990521
1.0001 1.00341 0.990904
1.00011 1.00222 0.992033
1.00021 1.00244 0.991586
1.00118 0.998784 0.9931
1.00168 0.997765 0.993191
1.00117 1.00114 0.991143
1.00026 1.00249 0.991302
1.00037 1.00343 0.99043
1.0001 1.00271 0.991623
1.00177 0.997252 0.993248
1.00024 1.00275 0.991289
1.00022 1.00347 0.990646
1.00191 0.999068 0.99145
1.00049 1.00351 0.98998
1.00403 0.99644 0.991228
1.0001 1.00303 0.99131
1.0024 0.99818 0.990728
1.00013 1.00334 0.990987
0.999937 1.00461 0.990039
1.00091 1.00226 0.989951
0.995369 1.00355 0.977668
1.00006 0.999278 0.993775
1.00376 0.997618 0.989721
0.996546 0.997154 0.991169
1.00455 0.987004 0.995666
1.00007 1.00261 0.99173
1.00012 1.00285 0.991442
1.00021 1.00296 0.991113
1.00007 1.00065 0.993681
1.00008 1.00156 0.992664
1.0001 1.00213 0.992176
1.00013 1.00254 0.991752
1.00019 1.00269 0.99138
1.00011 1.00218 0.992089
1.00007 1.00066 0.993595
1.00008 1.00162 0.99264
1.00024 1.00279 0.991226
1.00015 1.00256 0.991656
1.00015 1.00257 0.991712
1.0002 1.00291 0.991218
1.00011 1.00228 0.99191
1.00008 1.00166 0.992535
1.00007 1.00065 0.993526
1.00007 1.00163 0.992744
1.00008 1.00232 0.992105
1.00007 1.00169 0.992652
1.00006 1.00165 0.992714
1.00008 1.00067 0.993624
1.00007 1.00065 0.993526
1.0001 0.999283 0.99495
1.00011 0.999273 0.994947
1.00008 0.99726 0.997
1.00011 0.999268 0.994952
1.00008 0.997237 0.997008
1.00002 0.996028 0.999344
1.00007 0.99726 0.997019
1.00002 0.99604 0.9989
1.00001 0.996052 0.998458
1.00012 0.998812 0.995393
1.00011 0.998888 0.995337
1.00005 0.99704 0.997257
1.00009 0.999005 0.995255
1.00003 0.997129 0.997413
0.999978 0.996001 0.99939
1.00001 0.997284 0.997116
0.999942 0.996142 0.999366
0.999902 0.996251 0.999349
1.00087 1.00034 0.992315
1.00073 1.00083 0.992192
1.00065 0.999761 0.993365
1.00262 0.995843 0.995504
1.00076 1.00053 0.992391
1.00058 0.998536 0.994363
1.00083 1.00013 0.992144
0.99881 0.999657 0.991079
1.00081 0.998293 0.996858
1.00011 0.999976 0.994255
1.00011 1.00005 0.99419
1.00009 1.00094 0.993345
1.00008 1.00079 0.993516
1.00129 1.00057 0.991256
1.00153 0.998932 0.992495
1.0017 0.997125 0.993723
1.00025 1.00191 0.992079
1.00018 1.00294 0.990975
1.00091 1.00034 0.992143
1.00022 1.00222 0.991818
1.0002 1.00289 0.99121
1.00016 1.00301 0.99118
1.00008 1.00045 0.993855
1.00012 1.00246 0.991844
1.00004 1.00172 0.99268
1.00011 1.00012 0.994126
1.00007 1.00133 0.992922
1.00143 1.00035 0.991265
1.00007 1.00109 0.993229
1.00006 1.00149 0.992815
1.00004 1.002 0.992411
1.00193 0.996622 0.994011
1.00163 0.998166 0.99288
1.00011 1.00264 0.991621
1.00042 1.00263 0.991121
1.00007 1.00262 0.991806
1.00015 1.00276 0.991378
1.00011 1.00334 0.990917
1.00011 1.0038 0.990545
1.00171 0.998619 0.992247
1.00244 0.996032 0.993721
1.00108 1.00164 0.990764
1.00012 1.0032 0.991084
1.00004 1.00214 0.992218
1.00006 1.00236 0.991968
1.00007 1.00345 0.990872
1.00009 1.0046 0.989801
0.995298 1.00198 0.97678
1.0001 1.00267 0.991653
1.00022 1.00271 0.991264
1.00171 0.997155 0.993386
1.00202 0.998802 0.991617
1.00048 1.00367 0.989942
1.00013 1.00347 0.990638
1.00413 0.996385 0.992129
1.00009 1.00301 0.991336
1.00252 0.998149 0.990751
1.0001 1.00329 0.990998
0.999942 1.00456 0.990065
1.00096 1.00209 0.990118
0.995116 1.00265 0.978552
0.999961 0.999395 0.989832
1.0038 0.997437 0.989773
0.997249 0.997416 0.988726
1.00353 0.987989 0.996736
0.999993 1.00332 0.991199
0.997773 0.998433 0.985277
1.00505 0.99134 0.993781
1.00167 1.00095 0.98982
0.999939 1.00376 0.990757
0.999855 1.00528 0.989826
1.00333 0.999076 0.988946
0.995451 1.00317 0.977221
1.00016 0.998995 0.991165
0.996808 0.997976 0.990791
1.01106 0.98471 0.99157
1.00011 1.00283 0.991441
1.00021 1.00298 0.991121
1.00033 1.00297 0.990864
1.00007 1.00066 0.993668
1.00008 1.00163 0.992694
1.00011 1.00217 0.992007
1.00015 1.00255 0.991631
1.00022 1.00279 0.991278
1.00007 1.00066 0.993525
1.00015 1.00252 0.991687
1.00011 1.00228 0.991997
1.00008 1.00166 0.992609
1.0002 1.0029 0.991164
1.00013 1.00277 0.99144
1.00012 1.00335 0.990887
1.0001 1.00244 0.991847
1.00007 1.00164 0.992714
1.00007 1.00163 0.992742
1.00008 1.00232 0.992019
1.00009 1.00234 0.991975
1.00008 1.00237 0.991956
1.00009 1.00277 0.991571
1.00011 1.0024 0.99185
1.00007 1.00177 0.992564
1.00007 1.00169 0.992652
1.00009 1.0007 0.993574
1.00007 1.00165 0.992597
1.00008 1.00067 0.99356
1.0001 0.999305 0.994944
1.00008 1.00065 0.993527
1.0001 0.999279 0.99495
1.00006 0.997283 0.997447
1.00011 0.99927 0.994947
1.00007 0.997253 0.997225
1.00004 0.996033 0.998442
1.00008 0.997238 0.997008
1.00002 0.996026 0.999344
1.00003 0.996038 0.998454
1.00011 0.999987 0.994253
1.00012 0.998773 0.995419
1.00012 0.998814 0.995392
1.00006 0.996985 0.997293
1.00011 0.998888 0.995336
1.00005 0.997037 0.997257
0.999998 0.99593 0.999402
1.00002 0.997135 0.997612
0.999983 0.996033 0.998964
0.999959 0.996169 0.998507
1.0025 0.9958 0.995492
1.00071 1.00054 0.992371
1.00056 0.998904 0.993946
0.998808 0.999535 0.993778
1.00063 0.998507 0.996853
1.00094 1.0002 0.991951
1.00098 1.00127 0.992998
0.997604 1.00148 0.991765
0.994977 1.00379 0.973446
0.99636 0.999071 0.985662
1.00248 0.991477 0.994724
1.00008 1.00083 0.993356
1.00011 0.999983 0.994252
1.00011 1.00006 0.994187
1.00008 1.00095 0.993315
1.00007 1.00163 0.992762
1.0001 1.00135 0.992965
1.00008 1.00092 0.993423
1.00008 1.00081 0.993465
1.00148 1.00021 0.991384
1.00189 0.996741 0.993983
1.00157 0.998037 0.992902
1.00014 1.00268 0.991617
1.00038 1.00253 0.991152
1.00012 1.00328 0.99093
1.00009 1.00382 0.990568
1.00016 1.00268 0.991448
1.00006 1.00147 0.992898
1.00006 1.00264 0.99182
1.00007 1.0011 0.99335
1.00004 1.00192 0.992435
1.00176 0.998707 0.992169
1.00005 1.0021 0.992256
1.00005 1.00239 0.992
1.0024 0.995943 0.99371
1.00094 1.00138 0.990913
1.00016 1.00335 0.990873
1.00007 1.00348 0.990857
1.0001 1.00446 0.989841
1.00302 0.995748 0.992607
1.00152 1.00078 0.991137
1.00027 1.00314 0.990271
1.00017 1.00459 0.989648
1.00004 1.0026 0.99174
1.00004 1.00315 0.991271
1.00005 1.00457 0.989937
0.998289 0.997216 0.987535
0.995416 1.00309 0.978527
1.00008 1.00299 0.991361
1.00008 1.00323 0.99101
1.00266 0.998165 0.990775
1.00103 1.00198 0.990285
0.999937 1.00449 0.990091
0.995515 1.00316 0.972381
0.999966 0.999493 0.995664
1.00385 0.99724 0.98982
0.996907 0.998094 0.98672
1.00224 0.988943 0.997806
1.00002 1.00327 0.991189
0.998177 0.997551 0.987801
1.00453 0.991916 0.99469
1.00168 1.00098 0.989787
0.999927 1.00389 0.990788
0.999748 1.0051 0.990078
1.00317 0.999475 0.988747
0.994872 1.0033 0.974293
1.00002 0.999452 0.99597
0.996703 0.997836 0.987096
1.01045 0.983638 0.993139
1.00021 1.00307 0.990909
1.00612 0.994737 0.991122
1.01566 0.989873 0.984222
0.999977 1.00432 0.989878
0.999708 1.00403 0.991313
1.00185 0.999426 0.995036
0.999969 0.997196 1.00045
0.9949 1.00339 0.975935
0.997557 0.997601 0.986388
1.01585 0.986392 0.984984
1.00021 1.003 0.991129
1.00031 1.003 0.990844
1.00015 1.0034 0.990735
1.00007 1.00066 0.993524
1.00008 1.00166 0.992682
1.0001 1.00228 0.992083
1.00015 1.00248 0.991662
1.00021 1.00289 0.99111
1.00007 1.00164 0.992711
1.00013 1.00273 0.991483
1.0001 1.00244 0.991852
1.00013 1.00339 0.990829
1.00008 1.00378 0.99049
1.0001 1.00316 0.991159
1.0001 1.00239 0.99191
1.00007 1.00163 0.99274
1.00009 1.00232 0.991933
1.00009 1.00234 0.991969
1.00008 1.00238 0.99195
1.00009 1.00272 0.991584
1.00006 1.00251 0.991839
1.00011 1.00288 0.991421
1.00007 1.0029 0.991359
1.00015 1.00252 0.991661
1.00011 1.00194 0.992203
1.00015 1.00205 0.992073
1.00011 1.00239 0.99186
1.0001 1.00176 0.992526
1.00007 1.00178 0.992561
1.0001 1.00075 0.993504
1.00007 1.00169 0.992652
1.00009 1.00071 0.993572
1.00009 0.999347 0.994922
1.00008 1.00067 0.993496
1.0001 0.999303 0.994943
1.00004 0.997325 0.997443
1.00011 0.999275 0.994949
1.00006 0.997278 0.997221
1.00003 0.996029 0.998439
1.00008 0.997246 0.997
1.00002 0.996032 0.999342
1.00002 0.996025 0.999343
1.00011 1.00005 0.994364
1.00012 0.998788 0.995411
1.00011 0.999983 0.994253
1.00007 0.996968 0.997304
1.00012 0.998777 0.995418
1.00012 0.998816 0.99539
1.00006 0.996989 0.997292
1.00001 0.995889 0.999409
1.00004 0.997037 0.997666
1.00001 0.995937 0.998986
0.999996 0.996041 0.998554
0.996962 0.998305 0.988969
1.00457 0.993451 0.991896
0.998786 0.999633 0.996082
1.00044 0.998797 0.996849
1.00105 1.00028 0.991756
0.997508 1.00187 0.997396
1.00106 1.00084 0.992903
0.995068 1.00347 0.977478
0.99643 0.99906 0.989819
1.00236 0.99108 0.995496
0.999165 1.00184 0.99556
0.995095 1.0042 0.97766
0.99682 0.99858 0.990197
1.0089 0.988121 0.992008
1.00006 1.00171 0.992589
1.00009 1.00083 0.993415
1.00011 0.99999 0.994249
1.00007 1.00096 0.993286
1.00007 1.00155 0.992821
1.00008 1.00162 0.992749
1.0001 1.00131 0.992987
1.00007 1.00121 0.993136
1.00008 1.00094 0.993355
1.00008 1.00082 0.993414
1.0018 0.998741 0.992093
1.00237 0.995878 0.993697
1.0008 1.0011 0.991061
1.00021 1.00349 0.990662
1.0001 1.00431 0.989881
1.00007 1.00352 0.990841
1.00005 1.00241 0.992033
1.00005 1.00207 0.992293
1.00283 0.995877 0.99234
1.00004 1.00264 0.991709
1.00004 1.00317 0.991201
1.00145 1.00048 0.991218
1.0003 1.00333 0.990291
1.00017 1.00471 0.989439
1.00007 1.00461 0.989816
1.00354 0.996447 0.990583
0.999927 1.0048 0.989861
1.00006 1.00515 0.989194
1.00005 1.00263 0.991686
1.00004 1.00323 0.991183
1.00008 1.00391 0.990507
1.0058 0.99676 0.987553
0.998311 0.997942 0.984594
0.995231 1.00218 0.976319
1.00006 1.00321 0.991179
0.99993 1.00399 0.990818
1.00169 1.00102 0.989754
0.999627 1.00492 0.990329
0.997818 0.998107 0.984879
0.994996 1.00261 0.981253
1.00008 0.998831 0.991352
1.00302 0.999652 0.988582
0.996529 0.997541 0.991557
1.00498 0.992796 0.994509
1.00892 0.986642 0.992793
1.00019 1.00326 0.990891
1.00567 0.995306 0.990282
1.01583 0.989526 0.984325
0.999975 1.00434 0.989897
0.999607 1.00397 0.991302
1.00266 1.00116 0.989846
1.0004 0.997978 0.993575
0.994934 1.00388 0.976791
0.998746 0.99724 0.990413
1.01396 0.986731 0.986355
1.00001 1.00298 0.991425
1.01577 0.996199 0.980329
1.02097 0.988131 0.978499
0.99847 1.00364 0.993642
0.998752 0.998308 1.00282
0.99532 1.00253 0.978408
1.00171 0.996027 0.987782
1.01571 0.988824 0.981902
1.00029 1.00302 0.990823
1.00019 1.00335 0.990759
1.00027 1.00366 0.990627
1.00008 1.00164 0.992708
1.00011 1.00244 0.991857
1.00013 1.00268 0.991526
1.00013 1.00343 0.99077
1.0001 1.00239 0.991909
1.00011 1.00316 0.991165
1.00005 1.00386 0.990469
0.999823 1.00411 0.990614
1.00011 1.0038 0.990458
1.00014 1.00302 0.991297
1.0001 1.00235 0.991963
1.00008 1.00239 0.991945
1.00009 1.00268 0.991597
1.00012 1.00284 0.99145
1.00006 1.00252 0.991845
1.00008 1.00289 0.991385
1.0001 1.00297 0.991314
1.00004 1.00332 0.991081
1.00014 1.00288 0.991379
1.00015 1.00254 0.991653
1.00015 1.00225 0.991852
1.00022 1.00193 0.992118
1.00016 1.00159 0.992635
1.0001 1.00188 0.992335
1.00016 1.00204 0.99212
1.00013 1.00156 0.992583
1.00012 1.00238 0.99187
1.0001 1.00175 0.992531
1.00011 1.00079 0.993453
1.00007 1.00178 0.992558
1.0001 1.00076 0.993502
1.00008 0.999394 0.994891
1.00009 1.00071 0.993571
1.00009 0.999346 0.99492
1.00001 0.997386 0.997433
1.0001 0.9993 0.994942
1.00004 0.997323 0.997215
1.00001 0.99608 0.998435
1.00007 0.99727 0.996996
1.00002 0.996043 0.99889
1.00001 0.996033 0.999341
1.0001 1.00021 0.994099
1.00011 0.998835 0.99538
1.00011 1.00005 0.994226
1.00006 0.996985 0.997295
1.00012 0.998787 0.995412
1.00011 0.999979 0.994254
1.00001 0.99588 0.999409
1.00007 0.996968 0.997304
1.00012 0.99878 0.995416
1.00006 0.996993 0.997291
1.00001 0.995892 0.999407
0.999996 0.995938 0.999398
1.00496 0.996295 0.98943
0.997372 0.998719 0.986787
1.01432 0.991933 0.984305
1.00397 0.993075 0.992609
0.997469 1.00185 0.992139
1.00117 1.00043 0.992804
0.995014 1.00339 0.981797
0.996378 0.999643 0.985976
1.00215 0.990822 0.996268
0.999244 1.00144 0.993651
0.994779 1.004 0.976068
0.997307 0.997872 0.986341
1.00911 0.9869 0.993045
1.00015 0.999738 0.996276
0.994685 1.00364 0.975554
0.99896 0.99697 0.990174
1.0155 0.988592 0.983863
1.00008 1.00219 0.99217
1.00007 1.00168 0.992667
1.00009 1.00083 0.993475
1.00006 1.00146 0.99288
1.00009 1.00194 0.992336
1.00009 1.00158 0.992798
1.00009 1.00127 0.993009
1.00008 1.00139 0.993028
1.00008 1.00119 0.993206
1.00008 1.00095 0.993288
1.00264 0.996071 0.992073
1.00138 1.00018 0.991301
1.00033 1.00354 0.990311
1.00018 1.00484 0.989231
1.00008 1.00465 0.989695
1.00004 1.00319 0.991132
1.00003 1.00267 0.991678
1.00005 1.00266 0.991694
1.00325 0.996717 0.990504
1.00003 1.00322 0.991237
1.00007 1.004 0.990451
0.999972 1.00495 0.989806
1.0001 1.00512 0.989201
1.00253 0.998859 0.99024
0.999426 1.00564 0.990004
1.00014 1.00463 0.989621
1.00006 1.00311 0.991236
1.00012 1.0037 0.990571
1.01487 0.999416 0.978735
1.00577 0.99667 0.987835
0.998307 0.996984 0.988091
1.00016 1.00347 0.990873
0.999499 1.00396 0.991291
0.999992 1.00423 0.989914
1.00584 0.99581 0.989265
0.994608 1.00352 0.975209
1.00003 0.99749 0.999414
1.00352 1.00321 0.98463
0.998251 0.998221 0.986183
1.01597 0.989175 0.984429
1.01405 0.987028 0.985526
1.00002 1.00293 0.991454
1.01579 0.996696 0.979191
1.02112 0.987948 0.978197
0.998785 1.00335 0.992963
0.999111 0.998337 0.999681
0.995437 1.0031 0.975864
1.01646 0.989841 0.981092
1.00047 0.996794 0.987574
0.999987 1.00215 0.992192
1.02028 0.993682 0.973831
1.02281 0.98726 0.976723
1.01601 0.985522 0.985885
0.997158 1.00078 0.998388
0.994935 0.999924 0.983016
1.00161 0.999405 0.982804
1.00023 1.0033 0.990783
1.00024 1.00367 0.990533
0.999801 1.00419 0.990785
1.0001 1.00239 0.991908
1.00012 1.00315 0.991171
1.00002 1.00397 0.990449
1.00013 1.00299 0.99132
1.00009 1.0039 0.990441
0.99988 1.00408 0.990571
0.999886 1.00433 0.990439
1.00007 1.00368 0.990678
1.00012 1.00281 0.99148
1.00006 1.00253 0.991852
1.00009 1.00288 0.99141
1.00006 1.00326 0.991096
1.00009 1.00296 0.991296
0.999997 1.00356 0.990965
1.00009 1.0027 0.991601
1.00012 1.0032 0.990955
1.00015 1.00256 0.991645
1.00018 1.00229 0.991856
1.00029 1.00228 0.99153
1.00016 1.00185 0.992314
1.00013 1.0015 0.992734
1.00019 1.00193 0.992118
1.00015 1.00127 0.992908
1.00016 1.0016 0.9926
1.00009 1.00181 0.992467
1.00017 1.00204 0.992166
1.00013 1.00156 0.992614
1.00013 1.00073 0.993481
1.00009 1.00175 0.992536
1.00011 1.00078 0.993455
1.00007 0.999441 0.994863
1.0001 1.00076 0.993499
1.00008 0.999396 0.994888
0.999985 0.997441 0.997424
1.00009 0.999345 0.994918
1.00002 0.997386 0.997204
0.999976 0.996151 0.998428
1.00005 0.997317 0.996989
0.999999 0.996092 0.998888
1 0.996063 0.99934
1.00009 1.0004 0.99374
1.0001 0.99895 0.995126
1.0001 1.00022 0.994095
1.00005 0.997036 0.997266
1.00011 0.998841 0.995291
1.0001 1.00005 0.994087
1.00001 0.995892 0.999406
1.00006 0.996982 0.997295
1.00012 0.998785 0.995413
1.00001 0.995879 0.99941
1.00007 0.996969 0.997304
1.00001 0.995895 0.999405
1.01411 0.997596 0.980161
1.00482 0.996579 0.989005
0.997484 0.99863 0.985567
1.00012 1.00152 0.992703
1.0193 0.989711 0.979152
1.01457 0.99175 0.984437
1.00403 0.993218 0.992059
0.999306 1.00086 0.991467
0.994932 1.00441 0.977222
0.997606 0.997508 0.990707
1.0086 0.989684 0.9923
1.00021 0.999573 0.991031
0.995143 1.00299 0.977079
0.999537 0.996213 0.98782
1.01446 0.989414 0.985209
1.00007 0.997494 0.991975
0.994697 1.00201 0.973012
1.00069 0.998679 0.981974
1.01513 0.992517 0.979302
1.00012 1.00251 0.991682
1.00008 1.00222 0.992113
1.00008 1.00165 0.992744
1.00011 1.00205 0.99219
1.0001 1.0019 0.992417
1.00009 1.00154 0.992847
1.00008 1.00137 0.993059
1.00008 1.00117 0.993276
1.00298 0.997025 0.990423
1.00001 1.00508 0.989752
1.00005 1.00269 0.991702
1.00013 1.00506 0.989208
1.00007 1.00409 0.990396
1.00002 1.00322 0.991291
1.00007 1.0031 0.991243
1.00243 0.999147 0.990137
1.00012 1.0037 0.990535
1.00017 1.00453 0.989632
0.999457 1.00568 0.990009
1.00012 1.00311 0.991092
1.00131 1.00086 0.99158
0.999614 1.00517 0.990252
1.00022 1.00427 0.989927
1.00014 1.00362 0.99061
1.01964 0.996568 0.972906
1.01484 0.998961 0.978716
1.00574 0.996666 0.988118
1.00004 1.00283 0.991483
0.99909 1.00304 0.992282
1.01585 0.997161 0.978053
0.99471 1.00279 0.977298
0.999894 0.999828 0.993517
1.00042 0.995416 0.986681
1.0212 0.987701 0.977896
1.01726 0.99076 0.980283
1.00006 1.00238 0.99208
1.0202 0.993654 0.973786
1.02262 0.987684 0.976122
0.997347 1.00076 0.999097
1.01477 0.987039 0.987034
0.995021 0.99818 0.983272
1.00074 0.999115 0.982458
0.999376 1.0014 0.993861
1.02178 0.991444 0.973657
1.02101 0.988558 0.977492
1.00877 0.9871 0.993187
1.00058 0.997659 0.983837
0.998372 0.996379 1.00488
0.995725 0.997899 0.980325
1.0002 1.00367 0.990439
0.999892 1.00404 0.990694
0.999202 1.00514 0.990354
1.00013 1.00295 0.991342
1.00008 1.00398 0.990424
0.999942 1.00399 0.990528
1.00007 1.00365 0.99069
0.999868 1.0043 0.990477
0.999805 1.00474 0.990192
1.00008 1.00321 0.99111
1.00008 1.00295 0.991278
1.00001 1.0036 0.990904
0.999864 1.00428 0.990396
1.00005 1.00252 0.991823
1.00007 1.0032 0.991035
1.00023 1.00331 0.990739
1.00035 1.00214 0.991658
1.00022 1.00232 0.99186
1.0003 1.00235 0.99148
1.00016 1.00166 0.99258
1.00003 1.0016 0.992765
1.00016 1.00178 0.992374
1.00011 1.00117 0.99308
1.00013 1.00151 0.992725
1.00016 1.00194 0.992117
1.00014 1.0006 0.993593
1.00015 1.00127 0.992876
1.00016 1.00161 0.992565
1.00013 1.00156 0.992646
1.00013 1.00071 0.993486
1.00006 0.999459 0.994863
1.00011 1.00078 0.993458
1.00006 0.999442 0.994862
0.999963 0.997509 0.996964
1.00008 0.999399 0.994886
0.999994 0.997446 0.996968
0.999925 0.99623 0.999334
1.00003 0.99738 0.996977
0.999971 0.996162 0.998883
0.999982 0.996116 0.999337
1.00011 1.00055 0.993551
1.00008 0.999122 0.99498
1.0001 1.00041 0.993814
1.00004 0.997124 0.997211
1.00009 0.998963 0.995111
1.0001 1.00022 0.994091
0.999997 0.995931 0.999398
1.00005 0.997028 0.997268
1.00011 0.998848 0.995202
1.00001 0.995892 0.999407
1.00006 0.996979 0.997296
1.00001 0.995879 0.99941
1.01905 0.99486 0.974719
1.0142 0.997245 0.980195
1.00509 0.996149 0.988829
1.00012 1.0015 0.992748
1.00018 1.00145 0.9926
1.00013 1.00206 0.992203
1.02101 0.989039 0.977543
1.01946 0.990313 0.978835
1.01481 0.991631 0.984569
1.00034 0.999427 0.996033
0.994947 1.00391 0.975718
0.998288 0.998694 0.985393
1.01504 0.990378 0.984815
0.999971 0.998568 0.996738
0.995446 1.00135 0.978082
1.00089 0.99835 0.985777
1.01577 0.993205 0.978947
0.99893 0.994809 1.00114
0.994608 0.999103 0.981605
1.00262 1.00163 0.978614
1.0148 0.989068 0.984105
1.00015 1.00262 0.991558
1.00012 1.00252 0.99169
1.00008 1.00226 0.992057
1.00011 1.00208 0.992179
1.0001 1.00187 0.992497
1.00009 1.00135 0.99309
1.00233 0.999392 0.990033
0.999485 1.00572 0.990014
1.00007 1.0031 0.991249
1.00019 1.00445 0.989644
1.00012 1.0037 0.990498
1.00012 1.00318 0.991058
1.00015 1.0036 0.990565
1.00137 1.00011 0.991423
1.00023 1.00417 0.989902
0.99958 1.00526 0.990112
1.00013 1.00366 0.990432
0.99989 1.00389 0.991936
0.999929 1.00443 0.989847
1.00016 1.00404 0.990128
1.02126 0.993515 0.972574
1.01955 0.995936 0.972816
1.01479 0.998448 0.978698
1.00012 1.00259 0.99197
0.99748 0.999616 1.0001
1.0201 0.993627 0.97374
0.995152 0.998925 0.991662
1.0035 0.998241 0.983434
1.02245 0.98819 0.975522
1.01555 0.987471 0.986693
0.999652 1.00146 0.993566
1.02165 0.99174 0.973391
1.0212 0.989063 0.977204
0.997938 0.99634 0.998969
1.00924 0.985888 0.994079
0.999383 0.998987 0.98806
0.994507 0.998314 0.984218
1.00041 1.00096 0.996136
1.01994 0.994784 0.973328
1.01569 0.990798 0.983164
1.00256 0.990685 0.995092
0.9983 0.996822 0.991427
0.994879 1.00002 0.981978
0.998343 0.993959 0.99878
0.999998 1.0039 0.990603
0.999305 1.00516 0.990338
0.999014 1.00569 0.990366
1.00007 1.00362 0.990702
0.999847 1.00429 0.990514
0.999795 1.00477 0.990172
0.999656 1.00536 0.989775
1.00003 1.00364 0.990844
0.999915 1.00441 0.990319
1.00002 1.00462 0.98992
1.00003 1.0032 0.991116
1.00024 1.00334 0.990725
1.00041 1.00306 0.99078
1.00043 1.00225 0.991476
1.00022 1.00168 0.992258
1.00034 1.00218 0.991581
1.00031 1.00242 0.991431
1.00014 1.0014 0.99288
1.00014 1.00158 0.992634
1.00002 1.00127 0.993094
1.00004 1.00158 0.992816
1.00016 1.00172 0.992434
1.0001 1.00055 0.99371
1.00012 1.00116 0.993083
1.00014 1.00152 0.992717
1.00005 0.999437 0.994908
1.00014 1.00058 0.993598
1.00016 1.00126 0.992845
1.00013 1.0007 0.993492
1.00006 0.999456 0.994865
0.999933 0.997567 0.996965
1.00006 0.999443 0.994862
0.999964 0.997512 0.996963
0.999896 0.996342 0.999332
0.999997 0.997448 0.996968
0.999935 0.996244 0.998879
0.999955 0.996185 0.999334
1.00013 1.00061 0.993579
1.00007 0.999269 0.99503
1.00011 1.00057 0.993607
1.00002 0.997247 0.997137
1.00008 0.999125 0.995063
1.00011 1.00042 0.993888
0.999977 0.996001 0.999384
1.00004 0.997114 0.997214
1.00009 0.998976 0.995095
0.999999 0.995928 0.999401
1.00005 0.997021 0.997269
1.00001 0.995892 0.999408
1.02067 0.992029 0.974725
1.01906 0.994998 0.974705
1.01431 0.996982 0.980229
1.00019 1.00135 0.99268
1.00022 1.00159 0.992489
1.00012 1.00149 0.992794
1.00017 1.00145 0.992604
1.00014 1.00208 0.992139
1.00019 1.00195 0.992178
1.00016 1.00235 0.991828
1.01931 0.990753 0.978574
1.0208 0.989574 0.977153
1.01962 0.990908 0.978518
1.01645 0.993842 0.978593
1.00011 0.998796 0.991854
0.994625 1.00128 0.982312
1.00092 0.997988 0.982644
0.998988 0.996636 0.9977
0.99564 0.998716 0.978531
1.00152 1.00036 0.979296
1.01339 0.989029 0.984935
0.997277 0.996958 1.00117
0.996246 0.998091 0.977353
1.00303 0.997492 0.984905
1.01 0.988443 0.989716
1.00014 1.00281 0.991394
1.00015 1.00267 0.991545
1.00012 1.00253 0.991698
1.00011 1.0021 0.992168
1.0014 0.999484 0.991266
0.999532 1.00536 0.989971
1.00011 1.00326 0.991025
1.00015 1.0036 0.99052
1.00024 1.00407 0.989877
1.00011 1.00366 0.990546
1.00019 1.00401 0.990118
0.9994 1.00326 0.993463
0.999921 1.00448 0.989839
1.00014 1.00435 0.989935
0.997982 1.00584 0.995167
1.00007 1.00482 0.989336
1.01944 0.997712 0.971939
1.02115 0.993159 0.972696
1.01946 0.995335 0.972725
0.999972 1.00155 0.993267
0.997483 0.996 1.00443
1.02147 0.992038 0.973124
0.995571 0.998266 0.979539
1.00017 0.998218 0.984519
1.02139 0.989591 0.976917
1.00851 0.988364 0.993639
1.00004 1.0009 0.995884
1.01994 0.99497 0.973293
1.01593 0.990683 0.983334
0.998483 0.99399 1.00546
1.00213 0.990461 0.996179
0.9988 0.996409 0.988914
0.994603 1.0002 0.981248
1.00026 0.999942 0.996954
1.01492 0.997423 0.97905
1.00534 0.992604 0.991374
0.996205 0.998856 0.99072
0.994535 1.00345 0.978066
0.998975 0.994057 0.995955
0.999406 1.00519 0.990322
0.999049 1.0057 0.990323
0.999156 1.00577 0.989981
0.999784 1.00481 0.990152
0.999635 1.00535 0.989813
0.99993 1.00529 0.989393
0.999968 1.00454 0.990242
1.00005 1.00467 0.989828
1.00039 1.00379 0.989961
1.00024 1.00338 0.990712
1.00043 1.00303 0.990716
1.00049 1.00253 0.991035
1.00061 1.00163 0.991637
1.00041 1.00179 0.99198
1.00042 1.00226 0.991432
1.00017 1.00133 0.992697
1.00022 1.00168 0.992313
1.00034 1.00223 0.991504
1.0001 1.00121 0.993089
1.00013 1.00141 0.992849
1.00012 1.0015 0.992688
1.00003 1.00066 0.993718
1.00003 1.00126 0.993121
1.00005 1.00156 0.992867
1.00001 0.999439 0.994969
1.00011 1.00053 0.993713
1.00013 1.00114 0.993086
0.999909 0.997629 0.996977
1.00004 0.999434 0.994911
1.00014 1.00057 0.993603
1.00005 0.999454 0.994866
0.999934 0.99757 0.996966
0.999861 0.996429 0.999332
0.999965 0.997515 0.996963
0.999892 0.996341 0.999332
0.999922 0.996261 0.999332
1.00019 1.00131 0.992776
1.00015 1.00063 0.993514
1.00006 0.999389 0.994923
1.00013 1.00062 0.993575
0.999988 0.997388 0.997052
1.00007 0.999271 0.995032
1.00011 1.00058 0.993664
0.99995 0.996103 0.999366
1.00002 0.997236 0.997141
1.00008 0.999129 0.995146
0.999981 0.995995 0.999389
1.00004 0.997104 0.997217
1 0.995925 0.999404
1.01921 0.995829 0.973398
1.0207 0.992351 0.974319
1.01907 0.995143 0.974691
1.00019 1.00136 0.99271
1.00022 1.00159 0.992456
1.00021 1.00152 0.992507
1.00022 1.00167 0.992331
1.00024 1.00174 0.992296
1.00017 1.00146 0.992608
1.00014 1.0021 0.992075
1.00019 1.00194 0.992181
1.00016 1.0023 0.991853
1.00019 1.00222 0.99194
1.01411 0.993974 0.982668
1.01938 0.990735 0.978229
1.02064 0.9901 0.976764
1.01342 0.989215 0.984055
1.00431 0.999916 0.979946
0.998549 0.996264 0.995562
0.994667 0.997994 0.982315
0.996746 0.997627 0.996703
0.994589 0.999004 0.981638
1.00153 0.997624 0.984627
1.00949 0.987369 0.991242
0.995428 1.00068 0.995671
0.99468 0.999675 0.981259
0.998115 0.9982 0.985786
1.00365 0.989901 0.995063
1.00003 1.00252 0.991887
1.00014 1.00276 0.99148
1.00015 1.00271 0.991533
0.998962 1.00245 0.994995
0.999917 1.0046 0.989831
1.0001 1.00365 0.990659
1.00022 1.00398 0.990109
1.00009 1.0044 0.989969
0.999989 1.00485 0.989334
0.997921 1.00571 0.995159
0.999756 1.00502 0.989601
0.998651 1.00547 0.993939
1.01481 1.00037 0.978072
1.01934 0.997031 0.971919
1.02108 0.992813 0.972818
0.999625 1.00084 0.99565
0.998615 0.994081 0.998472
1.01995 0.995165 0.973258
0.994664 1.00002 0.975882
0.997659 0.998932 0.98645
1.01618 0.990465 0.983504
1.00174 0.99043 0.997266
1.0004 0.999959 0.996978
1.01501 0.997111 0.979064
1.00461 0.992264 0.992217
0.998911 0.993469 0.999548
0.997001 0.998226 0.986765
0.995095 1.00352 0.973388
1.00067 0.999161 0.995641
1.00552 0.996123 0.98873
0.996601 0.998955 0.985586
0.994553 1.00412 0.975269
1.00006 0.99659 0.99609
0.999083 1.0057 0.99028
0.99915 1.00584 0.990009
0.999957 1.00527 0.989764
0.999615 1.00534 0.989851
0.999882 1.00529 0.989449
1.0006 1.00347 0.989859
1.00008 1.0047 0.989736
1.0004 1.00367 0.990001
1.00074 1.00194 0.991203
1.00044 1.003 0.990652
1.00049 1.0024 0.99109
1.00076 1.00105 0.991927
1.00086 1.00056 0.992182
1.00055 1.0015 0.991863
1.00062 1.00154 0.991665
1.00031 1.00145 0.992433
1.00038 1.00183 0.991898
1.00041 1.00227 0.991389
1.00015 1.00106 0.993096
1.00017 1.00132 0.992752
1.00023 1.00168 0.992368
1.00002 1.00077 0.993647
1.00008 1.00121 0.993083
1.00012 1.00142 0.992817
0.999957 0.999538 0.994974
1.00005 1.00065 0.993718
1.00004 1.00124 0.993147
0.999861 0.997661 0.997455
1.00001 0.999442 0.994971
1.00011 1.00052 0.993717
0.999836 0.996503 0.99843
0.999901 0.997621 0.997208
1.00004 0.999432 0.994915
0.999934 0.997573 0.996966
0.999856 0.996422 0.999332
0.999888 0.996339 0.999331
1.00018 1.00128 0.992781
1.00015 1.00067 0.993481
1.00019 1.00132 0.992756
1.00005 0.999468 0.994855
1.00015 1.00064 0.993511
0.999958 0.997518 0.996978
1.00006 0.99939 0.994924
1.00013 1.00063 0.993571
0.999918 0.996227 0.999346
0.999986 0.997379 0.997056
1.00007 0.999273 0.995034
0.999955 0.996092 0.999372
1.00001 0.997225 0.997145
0.999984 0.995988 0.999393
1.01469 0.99993 0.976544
1.01913 0.995799 0.973395
1.02068 0.992678 0.973912
1.0002 1.00147 0.992611
1.00018 1.00137 0.99274
1.00022 1.00159 0.992422
1.00021 1.00169 0.992372
1.00021 1.00153 0.992541
1.00024 1.0017 0.992303
1.00023 1.00171 0.99229
1.00022 1.00188 0.992136
1.00019 1.00193 0.992183
1.00016 1.00225 0.991878
1.00019 1.0022 0.991933
1.00025 1.00217 0.991963
1.00416 0.993233 0.99385
1.0142 0.993852 0.982831
1.01946 0.990728 0.977883
1.00829 0.990429 0.991036
1.00102 0.996317 0.983651
0.996185 0.998072 0.97734
0.995891 0.997855 1.00493
0.995305 1.00069 1.00212
1.0026 0.990969 0.995594
0.99529 0.99918 0.977136
0.998472 0.997783 0.989482
0.996068 1.00085 1.00043
0.99479 1.0024 0.978461
0.995895 0.998476 0.991484
0.999935 1.0023 0.992358
1.0001 1.00242 0.9919
1.00013 1.00271 0.991566
0.997879 1.00552 0.995153
0.99993 1.00488 0.989332
1.00005 1.00447 0.990003
0.999809 1.00508 0.98966
0.998695 1.00538 0.993866
0.999327 1.00303 0.993494
1.00592 0.996115 0.990333
1.01453 1.00053 0.976477
1.01924 0.996388 0.971899
1.00052 0.99998 0.997004
0.999156 0.994597 1.00155
1.01512 0.996852 0.979077
0.994658 1.00199 0.982186
0.997516 0.997441 0.991177
1.0046 0.99246 0.991877
1.00098 0.999092 0.995833
1.00537 0.996286 0.988434
0.996657 0.998859 0.989681
1.00029 0.996556 0.991995
0.994956 1.00371 0.976713
1.00283 0.998492 0.990493
0.997352 0.997618 0.988787
0.995168 1.00429 0.977399
1.0002 0.998205 0.991338
0.999154 1.00594 0.990037
0.99972 1.00526 0.989709
1.0007 1.00228 0.99077
0.999838 1.00529 0.989505
1.00064 1.00324 0.989902
1.00141 0.999689 0.992187
1.0004 1.00354 0.990041
1.00073 1.00168 0.991289
1.00107 0.999445 0.99293
1.00049 1.00228 0.991145
1.00078 1.00092 0.99196
1.00104 0.999438 0.992912
1.00091 0.999771 0.992854
1.00076 1.00078 0.992188
1.00085 1.0005 0.992239
1.00044 1.00126 0.992246
1.00054 1.00148 0.991927
1.00063 1.00145 0.991692
1.0002 1.00109 0.992965
1.00028 1.00146 0.992424
1.00035 1.00187 0.991817
1.00004 1.00077 0.993601
1.00016 1.00107 0.993091
1.00017 1.00131 0.992806
0.999913 0.999706 0.994895
1.00003 1.00075 0.993651
1.00007 1.00121 0.993076
0.999819 0.997744 0.997013
0.999959 0.999548 0.994972
1.00006 1.00064 0.993717
0.999771 0.996553 0.999343
0.999864 0.997658 0.99701
1.00001 0.999446 0.994973
0.999822 0.996506 0.999334
0.999902 0.997616 0.996985
0.999852 0.996416 0.999332
1.00017 1.00129 0.992918
1.00018 1.00129 0.992802
1.00014 1.00071 0.993466
1.00004 0.999532 0.994818
1.00015 1.00067 0.993479
1.00019 1.00133 0.992737
0.99993 0.997615 0.996934
1.00005 0.999463 0.994856
1.00015 1.00065 0.993508
0.999883 0.99635 0.99933
0.999956 0.99751 0.996981
1.00006 0.99939 0.994925
0.999922 0.996214 0.999352
0.999983 0.997368 0.99706
0.999959 0.996081 0.999377
1.00561 0.994907 0.991703
1.0147 0.999982 0.976561
1.01903 0.995771 0.973391
1.00021 1.00148 0.992582
1.00018 1.00146 0.9927
1.00024 1.00155 0.992429
1.00021 1.0017 0.992413
1.00021 1.00154 0.992575
1.00024 1.00167 0.99231
1.00022 1.00187 0.992157
1.00024 1.00169 0.992309
1.00017 1.00203 0.992114
1.00022 1.00185 0.99225
1.00019 1.00217 0.991926
1.00021 1.00215 0.991958
0.996113 0.997904 0.991142
1.00359 0.993142 0.994796
1.01428 0.993733 0.982994
1.00162 0.992038 0.996125
0.99825 0.998582 0.986137
0.994977 0.999633 0.984202
0.995198 1.00086 0.995887
0.996148 1.00116 0.994383
0.996331 0.998295 0.987272
0.995207 1.00191 0.980353
0.997528 1.00012 0.992381
0.99497 1.00254 0.977578
0.999744 1.00369 0.991955
0.999966 1.00212 0.992387
1.00016 1.00232 0.991913
0.998716 1.00522 0.993798
0.999858 1.00513 0.98972
0.99987 1.00274 0.993601
1.00055 1.00062 0.994019
0.998543 0.996608 0.987734
1.00583 0.996448 0.989151
1.01425 1.0006 0.974882
1.00122 0.999007 0.996012
0.999899 0.996377 0.999193
1.00566 0.995839 0.988248
0.994898 1.00398 0.975602
0.996636 0.999732 0.9858
1.00259 0.998651 0.991642
0.997819 0.99822 0.986587
0.994831 1.00394 0.97578
1.0002 0.998542 0.996382
1.00327 0.997647 0.989669
0.995121 1.00339 0.97324
1.00009 0.999544 0.996786
0.999459 1.00525 0.989653
1.00056 1.00256 0.990712
1.00194 0.997447 0.993032
1.00067 1.00302 0.989945
1.00139 0.999384 0.992215
1.00169 0.996584 0.994596
1.00073 1.00146 0.991374
1.0011 0.999264 0.992948
1.00135 0.997721 0.993993
1.00079 1.00078 0.991992
1.00104 0.999419 0.992906
1.00107 0.998851 0.993402
1.00093 0.999498 0.993121
1.00091 0.999706 0.992916
1.00082 1.0001 0.992728
1.00066 1.00078 0.992381
1.00075 1.0008 0.9922
1.00084 1.00044 0.992296
1.00033 1.00101 0.992694
1.00044 1.00128 0.992306
1.00053 1.00146 0.99199
1.00007 1.00081 0.993509
1.00021 1.0011 0.992959
1.00025 1.00146 0.992415
0.999889 0.999878 0.994775
1.00005 1.00076 0.993605
1.00017 1.00107 0.993086
0.999766 0.997889 0.996975
0.999916 0.999711 0.994896
1.00004 1.00073 0.993656
0.999731 0.996694 0.999341
0.99982 0.997755 0.997012
0.999961 0.999559 0.99497
0.999778 0.996561 0.998892
0.999865 0.997668 0.99701
0.999812 0.996486 0.999336
1.00014 1.00128 0.992954
1.00017 1.00128 0.992862
1.00011 1.00078 0.993454
1.00017 1.0013 0.992824
1.00013 1.00072 0.993464
1.00002 0.999605 0.994791
0.9999 0.997691 0.996916
1.00004 0.999523 0.994818
1.00015 1.00068 0.993476
0.999847 0.996452 0.999322
0.999929 0.997607 0.996936
1.00006 0.999458 0.994857
0.999887 0.996341 0.999335
0.999954 0.997501 0.996983
0.999927 0.996201 0.999358
0.997804 0.997792 0.985738
1.00535 0.995039 0.992033
1.01469 1.00003 0.976579
1.00022 1.00148 0.992552
1.00024 1.00156 0.99243
1.00017 1.00145 0.992719
1.00014 1.00148 0.992756
1.0002 1.00162 0.992478
1.00023 1.00186 0.992178
1.00024 1.00168 0.992329
1.00016 1.00201 0.992116
1.00011 1.00175 0.992378
1.00013 1.00213 0.992056
1.00004 1.00216 0.992476
1.0002 1.00197 0.992156
1.00017 1.00213 0.991954
0.995578 1.00239 0.973436
0.996576 0.99872 0.98889
1.00365 0.993395 0.994312
0.996446 0.997837 0.991567
0.994772 1.00288 0.972725
0.996266 1.00098 1.00028
0.998101 1.00017 0.995061
0.99501 1.00177 0.978801
1.00014 0.998317 0.993534
1.00038 1.00406 0.989916
0.999645 1.00355 0.991837
0.999995 1.00194 0.992415
1.00041 1.00244 0.993697
1.00051 0.999131 0.994592
0.995595 1.00104 0.977037
0.998502 0.997104 0.98498
1.00573 0.996874 0.98797
1.00231 0.998788 0.992807
1.00036 0.998808 0.991294
0.997918 0.997942 0.985305
0.995021 1.00437 0.977081
1.00327 0.997965 0.989562
0.995244 1.0031 0.977428
1.00013 0.999359 0.991328
1.00377 0.995587 0.990917
0.999104 1.00192 0.995968
1.00045 1.00288 0.990653
1.00188 0.997657 0.993025
1.00235 0.995058 0.994761
1.00134 0.999064 0.992242
1.0016 0.996559 0.994559
1.00165 0.996136 0.994925
1.00113 0.999057 0.992966
1.00134 0.997783 0.993936
1.00126 0.998017 0.993844
1.00105 0.999403 0.992901
1.00108 0.998915 0.993362
1.00102 0.999149 0.993232
1.00091 0.999439 0.993184
1.00088 0.99985 0.992887
1.00092 0.999639 0.992978
1.00083 1.0001 0.992717
1.00077 1.00032 0.992616
1.00052 1.00073 0.992609
1.00066 1.0008 0.992366
1.00073 1.00083 0.992212
1.00016 1.00081 0.993329
1.00032 1.00103 0.992732
1.00044 1.0013 0.992367
0.999871 1.00009 0.994604
1.00008 1.0008 0.993509
1.00022 1.0011 0.992954
0.999711 0.998071 0.996899
0.999897 0.999869 0.994777
1.00006 1.00074 0.993609
0.99967 0.996831 0.999335
0.999768 0.997903 0.996971
0.999919 0.999717 0.994896
0.99972 0.996683 0.99934
0.999821 0.997766 0.99701
0.999765 0.996564 0.999341
1.00011 1.00134 0.992912
1.00013 1.00128 0.992957
1.00007 1.00088 0.993371
1.00017 1.00128 0.992805
1.0001 1.0008 0.993411
0.999984 0.999715 0.994755
1.00013 1.00073 0.993463
1.00002 0.999595 0.994791
0.999868 0.997768 0.996904
0.99981 0.996539 0.999319
0.9999 0.997681 0.996917
1.00005 0.999514 0.994819
0.999852 0.996454 0.999324
0.999928 0.997599 0.996937
0.999892 0.996334 0.999339
0.995461 1.00277 0.978453
0.99784 0.997605 0.988552
1.0056 0.994748 0.992353
1.00023 1.00157 0.992431
1.00016 1.00144 0.992738
1.0002 1.00162 0.992493
1.00014 1.00147 0.992761
1.00009 1.00162 0.992732
1.00012 1.00162 0.992573
1.00016 1.00199 0.992117
1.00013 1.00179 0.992379
1.00007 1.00218 0.992106
1.00007 1.00175 0.992413
1.00036 1.00197 0.992337
1.00059 1.00284 0.990499
1.00005 1.00202 0.992385
1.00017 1.00207 0.992062
0.999709 0.999531 0.997023
0.994774 1.00275 0.97785
0.99638 0.998424 0.986395
0.994864 1.00265 0.977125
0.998268 0.999514 0.998567
1.00009 0.998561 0.996348
1.00312 0.999177 0.989991
1.00027 1.00338 0.99015
0.99953 1.00343 0.991719
1.00046 0.997759 0.995165
0.997659 1.00276 0.990947
0.995688 1.00216 0.978807
0.998393 0.996387 0.988392
1.00326 0.998299 0.989456
1.00024 0.999352 0.996382
0.995156 1.0029 0.981755
1.00352 0.995826 0.990864
0.999142 1.00152 0.993905
1.00292 0.995504 0.993002
1.00097 1.00164 0.9922
1.00181 0.997811 0.993019
1.00231 0.995025 0.994774
1.00181 0.996458 0.994414
1.00151 0.996564 0.994523
1.0016 0.996352 0.99486
1.00146 0.997812 0.99368
1.00132 0.997867 0.993878
1.00124 0.998153 0.993792
1.00121 0.999013 0.993021
1.00108 0.998982 0.993322
1.00099 0.999207 0.993244
1.00094 0.999799 0.99277
1.00089 0.999387 0.993247
1.00087 0.999781 0.992932
1.00083 1.00016 0.992671
1.00084 1.00009 0.992706
1.00078 1.00032 0.992604
1.00067 1.00043 0.992726
1.00031 1.00065 0.993094
1.00051 1.00076 0.992646
1.00065 1.00082 0.992352
0.999885 1.0003 0.994364
1.00016 1.00081 0.993332
1.00032 1.00106 0.99277
0.999652 0.998289 0.996792
0.999887 1.00006 0.994605
1.00009 1.00079 0.993509
0.999603 0.997008 0.99932
0.999715 0.998087 0.996895
0.999904 0.999862 0.99478
0.999658 0.996828 0.999331
0.999771 0.997917 0.996967
0.999709 0.996672 0.999339
1.00009 1.00141 0.992911
1.00011 1.00134 0.992954
1.00002 1.00101 0.993348
1.00013 1.00129 0.99296
1.00006 1.0009 0.993369
0.999941 0.999867 0.994692
1.0001 1.00081 0.993368
0.999985 0.999705 0.994755
0.999828 0.997876 0.99688
1.00002 0.999585 0.994791
0.999869 0.997757 0.996905
0.999766 0.996629 0.999316
0.999815 0.99655 0.999319
0.999901 0.997671 0.996918
0.999856 0.996456 0.999326
0.998779 1.00006 0.995994
0.995149 1.00211 0.976817
0.997606 0.998022 0.985347
1.00015 1.0016 0.992623
1.0002 1.00162 0.992507
1.00014 1.00146 0.992766
1.00013 1.00164 0.992574
1.00008 1.00163 0.992721
1.00003 1.00156 0.992769
1.00015 1.00184 0.992379
1.00002 1.00224 0.992157
1.00012 1.0018 0.992434
1.00015 1.0019 0.992519
1.00055 1.00192 0.991494
1.00202 1.00174 0.98874
1.00048 1.00273 0.990717
1.00006 1.00189 0.992294
1.00338 0.997364 0.989515
0.999532 0.999521 0.99466
0.994844 1.00233 0.982028
1.00017 0.99888 0.991116
1.00312 0.999963 0.988401
1.00017 1.00259 0.990389
1.00073 1.00111 0.994853
0.99769 1.00289 0.996084
0.995539 1.00092 0.976878
1.00332 0.996094 0.990807
0.999151 1.00101 0.991618
1.00272 0.995744 0.992773
1.00099 1.00126 0.992583
1.0017 0.998482 0.991989
1.00083 1.00064 0.99126
1.00229 0.995009 0.994787
1.00178 0.996506 0.9944
1.00138 0.998939 0.992852
1.00157 0.996571 0.994796
1.00145 0.997942 0.993648
1.00137 0.99919 0.992541
1.00123 0.998291 0.99374
1.00116 0.999064 0.993078
1.00111 0.999868 0.992347
1.00096 0.999263 0.993256
1.00093 0.999804 0.992772
1.00088 1.00018 0.992505
1.00086 0.999711 0.992977
1.00083 1.0001 0.99269
1.00073 1.00031 0.992663
1.00078 1.00032 0.992593
1.00066 1.00043 0.992692
1.00046 1.00048 0.993051
0.99995 1.00042 0.994118
1.0003 1.00067 0.993139
1.0005 1.00078 0.992682
0.999598 0.998543 0.996635
0.999904 1.00027 0.994365
1.00016 1.00081 0.993335
0.999531 0.997216 0.999298
0.999657 0.99831 0.996785
0.999903 1.00004 0.994605
0.99959 0.99701 0.999314
0.999718 0.998102 0.99689
0.999646 0.996825 0.999327
1.00011 1.00142 0.992805
1.00008 1.0014 0.992914
1.00001 1.0011 0.993352
1.00012 1.00133 0.992997
1.00002 1.00102 0.993375
0.999897 1.00006 0.994592
1.00005 1.00093 0.993366
0.999939 0.999863 0.994691
0.999777 0.998031 0.996833
0.999986 0.999696 0.994754
0.999829 0.997862 0.996882
0.999711 0.996744 0.999309
0.99987 0.997745 0.996906
0.999774 0.996643 0.999317
0.99982 0.99656 0.99932
1.00215 0.996811 0.992995
0.998713 1.00066 0.991777
0.995527 1.00199 0.978582
1.00012 1.00145 0.992698
1.00042 1.00144 0.99227
1.00008 1.00162 0.992641
1.00015 1.00166 0.992575
1.00006 1.00165 0.992709
1.00007 1.00158 0.992755
1.00064 1.00151 0.991683
1.00016 1.00183 0.992455
0.999945 1.00184 0.992701
1.00052 1.00194 0.991446
1.00164 1.00131 0.989715
1.00233 0.998946 0.990937
1.00201 1.0016 0.988946
1.00036 1.00264 0.990936
1.00339 0.997406 0.98961
0.999322 0.999853 0.992253
1.00317 1.0008 0.986805
1.00044 0.999771 0.993539
1.00066 1.00063 0.994892
0.997716 1.0023 0.991119
1.00249 0.99598 0.992542
1.00104 1.00088 0.992961
1.00178 0.998496 0.992065
1.00094 1.00073 0.991538
1.00125 1.00041 0.991607
1.00072 1.00035 0.992899
1.00175 0.996514 0.994387
1.00135 0.998865 0.99291
1.00137 0.999912 0.991847
1.00143 0.998035 0.993617
1.00134 0.999228 0.992543
1.00127 0.9999 0.991931
1.00111 0.999109 0.993134
1.00111 0.999872 0.992348
1.00103 1.00024 0.992138
1.00093 0.999809 0.992774
1.00089 1.00017 0.992504
1.00079 1.00037 0.9925
1.00083 1.00004 0.992708
1.00073 1.0003 0.992663
1.00055 1.00039 0.992971
1.00066 1.00042 0.992658
1.00045 1.00047 0.993032
1.00003 1.00043 0.993936
0.99957 0.998795 0.996462
0.999965 1.00038 0.994122
1.00029 1.00069 0.993184
0.999462 0.997448 0.999266
0.999605 0.998569 0.996627
0.999923 1.00024 0.994365
0.999519 0.997222 0.99929
0.999662 0.99833 0.996778
0.999577 0.997012 0.999308
1.0002 1.00142 0.992506
1.00011 1.00141 0.992767
1.00006 1.0011 0.993258
1.00008 1.00138 0.992917
1 1.0011 0.993349
0.999865 1.00026 0.994458
1.00001 1.00104 0.993403
0.999891 1.00006 0.99459
0.999712 0.998239 0.996759
0.999938 0.999859 0.994689
0.999776 0.998016 0.996836
0.999643 0.996902 0.999297
0.999829 0.997848 0.996884
0.999723 0.996755 0.999311
0.999781 0.996657 0.999318
1.00153 0.998129 0.993414
1.00221 0.997266 0.993631
0.998573 1.00136 0.997664
1.00071 1.00122 0.992015
1.00007 1.00144 0.99284
1.00069 1.00124 0.991559
1.00042 1.00145 0.99224
1.00001 1.00164 0.992658
1.00152 1.00092 0.99052
1.00011 1.0016 0.992741
1.00065 1.00144 0.991724
1.00217 0.999307 0.990611
1.0005 1.00195 0.991398
1.00181 1.0013 0.989485
1.00237 0.998861 0.990853
1.00198 1.00144 0.989152
1.00335 0.99747 0.989707
1.00064 0.999559 0.993746
1.00037 0.999616 0.993583
1.00057 1.00013 0.994935
1.00183 0.998516 0.992143
1.00106 1.00082 0.991816
1.00135 1.00029 0.991553
1.00072 1.00026 0.992924
1.00084 1.00028 0.992545
1.00132 0.998828 0.992967
1.00138 0.999814 0.991899
1.00129 1.00015 0.991767
1.00131 0.999272 0.992545
1.00128 0.999953 0.991902
1.00119 1.00026 0.991793
1.00111 0.999875 0.992348
1.00104 1.00024 0.992131
1.00091 1.00041 0.992208
1.00089 1.00017 0.992503
1.0008 1.00036 0.992498
1.00061 1.00042 0.992806
1.00073 1.00028 0.992663
1.00054 1.00039 0.992972
1.0001 1.00041 0.993806
1.00043 1.00047 0.993013
1.00004 1.0004 0.993941
0.999546 0.999024 0.996814
0.999413 0.997732 0.998133
0.999573 0.998819 0.996713
0.999981 1.00034 0.994125
0.999453 0.997456 0.999254
0.999611 0.998596 0.996618
0.999507 0.997227 0.999281
1.00092 1.0008 0.991703
1.00036 1.0014 0.992179
1.00024 1.00141 0.992465
1.00013 1.00109 0.993122
1.0001 1.00139 0.992728
1.00005 1.0011 0.993259
0.999856 1.00043 0.994315
0.999995 1.00111 0.993346
0.999854 1.00028 0.994456
0.999639 0.998487 0.996664
0.999884 1.00007 0.994589
0.99971 0.998223 0.996763
0.999561 0.997106 0.999278
0.999775 0.998001 0.996839
0.999658 0.996905 0.999301
0.999734 0.996766 0.999314
1.00153 0.99875 0.992662
1.00148 0.998165 0.993253
1.00226 0.997781 0.994267
1.00138 1.00075 0.990946
1.00059 1.00122 0.992186
1.00001 1.00142 0.99298
1.0008 1.00119 0.991645
1.00041 1.00146 0.99221
1.00196 0.999928 0.990499
1.00153 1.00097 0.990424
1.00065 1.00138 0.991765
1.00224 0.999304 0.990554
1.00198 1.00128 0.989254
1.00242 0.99878 0.990767
1.00039 0.99999 0.9935
1.00059 0.999633 0.993719
1.0003 0.999461 0.993626
1.00146 1.00018 0.9915
1.00072 1.00018 0.99295
1.00086 1.00025 0.992537
1.00078 1.00041 0.992483
1.00138 0.99971 0.991951
1.00133 1.00008 0.991719
1.0012 1.00014 0.991899
1.00129 1 0.991873
1.00119 1.00026 0.991785
1.00105 1.00044 0.991912
1.00105 1.00023 0.992123
1.00092 1.00041 0.992201
1.0007 1.00047 0.992566
1.0008 1.00036 0.992496
1.00061 1.00041 0.992803
1.00017 1.00043 0.993659
1.00054 1.00039 0.992973
1.0001 1.0004 0.993811
0.99952 0.999284 0.996634
1.00005 1.00037 0.993947
0.999549 0.999054 0.996786
0.999344 0.998016 0.997995
0.999403 0.997708 0.998671
0.999576 0.998844 0.996962
0.999443 0.997464 0.999241
1.00138 1.0005 0.991148
1.00067 1.00108 0.992126
1.00086 1.00071 0.99196
1.00023 1.00115 0.992855
1.00041 1.00142 0.992186
1.00027 1.0014 0.992424
1.00012 1.0011 0.993125
0.999859 1.00059 0.994151
1.00004 1.0011 0.993261
0.999839 1.00045 0.994314
0.999563 0.998749 0.996559
0.999842 1.00029 0.994455
0.999635 0.998469 0.996669
0.999469 0.997346 0.999256
0.999707 0.998207 0.996767
0.999579 0.997099 0.999284
0.999673 0.996908 0.999305
1.00135 0.999641 0.992113
1.0015 0.998752 0.992673
1.00143 0.998192 0.993093
1.00176 0.999973 0.990746
1.00138 1.00074 0.99096
1.00047 1.00123 0.992357
1.00091 1.00113 0.991731
1.00201 0.999939 0.990486
1.00155 1.00101 0.990329
1.00232 0.999302 0.990498
1.0005 1.00037 0.993043
1.0005 1.00005 0.993323
1.00054 0.999704 0.993692
1.00066 1.00072 0.992452
1.00088 1.00023 0.992529
1.00078 1.00043 0.992458
1.00092 1.00031 0.9923
1.00138 1.00002 0.99167
1.00119 1.00014 0.991905
1.00106 1.00042 0.991906
1.0012 1.00027 0.991778
1.00104 1.00044 0.991912
1.0008 1.00051 0.992335
1.00092 1.00041 0.992195
1.00071 1.00046 0.992562
1.00024 1.00047 0.99347
1.00062 1.00041 0.9928
1.00016 1.00042 0.99366
0.999487 0.999554 0.996446
1.00011 1.00038 0.993815
0.999525 0.999297 0.996606
0.99926 0.998348 0.997863
0.999552 0.999084 0.996759
0.999341 0.997988 0.998015
0.999392 0.997682 0.999214
1.00169 1.00022 0.990871
1.00115 1.00063 0.991531
1.00133 1.00054 0.991247
1.00047 1.001 0.992655
1.00066 1.00105 0.992103
1.00079 1.00061 0.992216
0.999912 1.00075 0.993877
1.00023 1.00115 0.992855
1.00045 1.00144 0.992192
1.00011 1.00111 0.993127
0.999839 1.00062 0.99415
0.999499 0.99903 0.996415
0.999822 1.00048 0.994312
0.999556 0.998732 0.996563
0.999371 0.99761 0.999231
0.99963 0.998452 0.996674
0.999488 0.997333 0.999263
0.999597 0.997093 0.99929
1.00134 0.99992 0.991859
1.00144 0.999606 0.991994
1.00146 0.998753 0.992685
1.00188 0.999925 0.990642
1.00138 1.00073 0.990974
1.00205 0.999948 0.990473
1.00057 1.00078 0.992511
1.00045 1.00044 0.993082
1.00061 1.00012 0.993146
1.00066 1.00076 0.992397
1.00071 1.00087 0.992195
1.00079 1.00045 0.992433
1.00091 1.00032 0.992299
1.00092 1.00045 0.992224
1.00119 1.00015 0.99191
1.00105 1.00041 0.991919
1.00081 1.00057 0.992246
1.00104 1.00044 0.991913
1.0008 1.00051 0.992332
1.00031 1.0005 0.993294
1.00071 1.00046 0.992558
1.00024 1.00047 0.993469
0.999446 0.999819 0.996244
1.00016 1.00042 0.993661
0.999498 0.999555 0.996416
0.999152 0.99873 0.997725
0.999531 0.99931 0.996577
0.999258 0.99831 0.997885
0.999337 0.99796 0.998035
1.00154 0.999651 0.99177
1.00147 1.00037 0.991124
1.00172 1.00019 0.990837
1.00082 1.0007 0.992167
1.00113 1.00065 0.991586
1.00128 1.00059 0.991347
1.00006 1.00074 0.993549
1.00046 1.00099 0.99255
1.00065 1.00103 0.992079
0.99948 0.999332 0.996155
0.999893 1.00078 0.993876
1.00023 1.00116 0.992855
0.999818 1.00066 0.994148
0.999485 0.999016 0.996421
0.999279 0.997897 0.999192
0.99955 0.998715 0.996568
0.999391 0.997592 0.999238
0.999509 0.997319 0.999269
1.00103 1.00064 0.991757
1.00137 0.999897 0.991811
1.00153 0.999569 0.991874
1.002 0.999882 0.990539
1.00066 1.001 0.992099
1.00055 1.00079 0.992556
1.00041 1.00051 0.993121
1.00067 1.00079 0.992343
1.00069 1.00087 0.992225
1.00067 1.00079 0.992328
1.00091 1.00032 0.992297
1.00091 1.00045 0.992227
1.00074 1.0006 0.992361
1.00104 1.0004 0.991933
1.00081 1.00056 0.992257
1.00032 1.0006 0.99317
1.0008 1.0005 0.992329
1.00031 1.00051 0.99329
0.999421 1.00009 0.995413
1.00023 1.00047 0.993467
0.999468 0.999842 0.99588
0.99902 0.998972 0.998986
0.999509 0.999557 0.996385
0.99915 0.998693 0.997747
0.999255 0.998272 0.997906
1.00125 1.00023 0.991792
1.00143 0.999917 0.99164
1.00148 0.99971 0.99175
1.00106 1.00047 0.991679
1.00145 1.00034 0.991228
1.00175 1.00015 0.990803
1.00029 1.00059 0.993053
1.00082 1.0007 0.992163
1.00112 1.00068 0.99164
0.999531 0.999579 0.995792
1.00006 1.00076 0.993456
1.00045 1.00098 0.992444
0.999212 0.998218 0.999119
0.999455 0.999324 0.996166
0.999874 1.00081 0.993876
0.999471 0.999001 0.996427
0.999295 0.997875 0.999204
0.999412 0.997574 0.999246
1.0008 1.0009 0.991921
1.00098 1.00059 0.99187
1.00141 0.999874 0.991763
1.00067 1.00097 0.992156
1.00067 1.00102 0.992098
1.00054 1.0008 0.992602
1.00067 1.00087 0.992254
1.00068 1.00077 0.992333
1.00053 1.00082 0.992627
1.00089 1.00044 0.99223
1.00072 1.00062 0.992421
1.00027 1.00071 0.993071
1.0008 1.00056 0.992267
1.00031 1.0006 0.993175
0.999364 1.00032 0.995309
1.0003 1.00052 0.993287
0.999442 1.00007 0.995409
0.998927 0.999271 0.99896
0.999489 0.999863 0.99552
0.99901 0.999041 0.998305
0.999147 0.998654 0.997769
1.00103 1.00068 0.991829
1.0012 1.00012 0.991916
1.00123 1.00021 0.991779
1.0011 1.00027 0.991919
1.00139 0.999935 0.991676
1.00143 0.999767 0.991731
1.0005 1.00048 0.992724
1.00108 1.00048 0.991787
1.00142 1.00031 0.991333
0.999607 0.999744 0.995445
1.00032 1.0006 0.993004
1.00082 1.00071 0.992158
0.999167 0.998554 0.999027
0.999499 0.999587 0.995804
1.00006 1.00077 0.993364
0.999219 0.998188 0.999143
0.99943 0.999316 0.996177
0.999312 0.997852 0.999217
1.00075 1.00088 0.992043
1.00083 1.00088 0.991913
1.00093 1.00055 0.991983
1.00057 1.00095 0.992414
1.00067 1.00099 0.99215
1.00068 1.00104 0.992097
1.00068 1.00076 0.992338
1.00053 1.0008 0.99263
1.00017 1.00086 0.993122
1.00071 1.00063 0.992481
1.00028 1.00071 0.993113
0.999296 1.00055 0.995227
1.00031 1.0006 0.99318
0.99938 1.00029 0.995307
0.998796 0.999579 0.998935
0.999463 1.00005 0.995404
0.998894 0.999306 0.998952
0.999003 0.999114 0.997618
1.00097 1.00059 0.992008
1.00103 1.00069 0.991763
1.00096 1.00035 0.992154
1.00119 1.00011 0.991929
1.0012 1.00019 0.991766
1.00057 1.00041 0.992829
1.00112 1.00027 0.991905
1.00135 0.999954 0.991713
0.999646 0.999871 0.995209
1.00053 1.00048 0.992772
1.00111 1.0005 0.991895
0.999118 0.998872 0.998948
0.999576 0.999764 0.995455
1.00034 1.00061 0.992955
0.999169 0.99852 0.999055
0.999466 0.999596 0.995816
0.999226 0.998157 0.999167
1.00065 1.00086 0.992343
1.00076 1.00087 0.992054
1.00086 1.00086 0.991905
1.00021 1.00094 0.992965
1.00056 1.00096 0.992414
1.00068 1.001 0.992144
1.00054 1.00078 0.992634
1.00017 1.00085 0.993129
0.999228 1.00075 0.995166
1.00027 1.00072 0.993155
0.999304 1.00053 0.995229
0.99868 0.999849 0.99891
0.999397 1.00027 0.995305
0.998768 0.99961 0.998927
0.998863 0.999342 0.998945
1.00078 1.00066 0.992255
1.00097 1.00059 0.991971
1.00102 1.00069 0.991696
1.00046 1.00051 0.992949
1.00096 1.00035 0.992154
1.00118 1.00011 0.991942
0.999601 1 0.99514
1.00058 1.00042 0.99282
1.00113 1.00027 0.991891
0.999045 0.999158 0.998899
0.999623 0.999891 0.995216
1.00055 1.00049 0.992821
0.999125 0.998841 0.99897
0.999544 0.999785 0.995465
0.999172 0.998485 0.999083
1.00026 1.00089 0.993012
1.00064 1.00087 0.992297
1.00078 1.00086 0.992066
0.999219 1.00085 0.995079
1.0002 1.00095 0.992986
1.00056 1.00096 0.992415
1.00018 1.00084 0.993136
0.999234 1.00074 0.995165
0.99858 1.00006 0.998892
0.999311 1.00051 0.995231
0.998654 0.999875 0.998904
0.998741 0.999641 0.998918
1.00032 1.00074 0.99302
1.00077 1.00066 0.992241
1.00097 1.00058 0.991933
0.999474 1.00015 0.995903
1.00047 1.00052 0.992943
1.00096 1.00035 0.992154
0.998922 0.999417 0.998891
0.999593 1.00002 0.995137
1.00059 1.00042 0.992812
0.999062 0.999131 0.998912
0.999601 0.999911 0.995222
0.999131 0.998808 0.998993
0.99927 1.00078 0.995027
1.00026 1.00089 0.992966
1.00064 1.00088 0.99225
0.998536 1.00017 0.998871
0.999226 1.00085 0.995075
1.00018 1.00095 0.993008
0.999241 1.00072 0.995165
0.998569 1.00008 0.998885
0.99863 0.999902 0.998898
0.99934 1.00043 0.995868
1.00033 1.00074 0.993016
1.00077 1.00065 0.992226
0.998785 0.99965 0.998912
0.999483 1.00024 0.995164
1.00048 1.00052 0.992937
0.998955 0.999393 0.998891
0.999586 1.00004 0.995135
0.999077 0.999104 0.998925
0.998571 1.00038 0.997312
0.999276 1.00072 0.99543
1.00026 1.0009 0.99292
0.998545 1.00017 0.998863
0.99923 1.00084 0.995071
0.998554 1.00009 0.998881
0.998647 1.00009 0.997405
0.999353 1.0005 0.995508
1.00034 1.00074 0.993012
0.998802 0.999743 0.998159
0.999469 1.00026 0.995156
0.99899 0.99937 0.998892
0.998577 1.00012 0.998851
0.999269 1.00079 0.995048
0.998555 1.00017 0.998854
0.998642 1.00006 0.998131
0.999339 1.00057 0.995127
0.998847 0.999631 0.998893
0.9986 1.00009 0.998864
0.998697 0.999888 0.99889

TENSORS stress float
0.00118433 2.47492e-05 1.41864e-05
2.47492e-05 0.000155122 -4.41792e-06
1.41864e-05 -4.41792e-06 0.000153541
0.00253386 -3.07931e-05 1.18631e-05
-3.07931e-05 0.000800376 2.91152e-06
1.18631e-05 2.91152e-06 0.000812086
0.00116533 2.57332e-05 5.20471e-06
2.57332e-05 0.00014585 -1.72925e-06
5.20471e-06 -1.72925e-06 0.000144588
0.00125392 2.49553e-05 1.73867e-05
2.49553e-05 0.000222015 -3.3174e-06
1.73867e-05 -3.3174e-06 0.000209487
0.00121588 2.53677e-05 1.51875e-05
2.53677e-05 0.000180201 -4.12266e-06
1.51875e-05 -4.12266e-06 0.000175087
0.00115683 2.39315e-05 1.3225e-05
2.39315e-05 0.000133718 -4.62309e-06
1.3225e-05 -4.62309e-06 0.000135356
0.00115087 2.17412e-05 4.74423e-06
2.17412e-05 0.000126929 -1.83912e-06
4.74423e-06 -1.83912e-06 0.000106704
0.00258435 -3.10457e-05 1.77123e-07
-3.10457e-05 0.000823934 -9.08527e-08
1.77123e-07 -9.08527e-08 0.000835732
0.00283778 -3.80691e-05 5.87275e-06
-3.80691e-05 0.000976201 9.44171e-07
5.87275e-06 9.44171e-07 0.000980679
0.00262707 -3.43661e-05 5.31956e-06
-3.43661e-05 0.000853253 1.0882e-06
5.31956e-06 1.0882e-06 0.000863102
0.00110233 -2.22398e-05 9.95161e-06
-2.22398e-05 8.91545e-05 3.02733e-06
9.95161e-06 3.02733e-06 9.64326e-05
0.000881664 -1.90158e-05 4.761e-06
-1.90158e-05 -1.7779e-05 2.34724e-06
4.761e-06 2.34724e-06 -3.19487e-05
0.00125146 -1.97157e-05 1.7324e-05
-1.97157e-05 0.000265943 5.95971e-07
1.7324e-05 5.95971e-07 0.000245947
0.00118602 -2.68846e-05 4.77864e-06
-2.68846e-05 0.000209374 5.09672e-07
4.77864e-06 5.09672e-07 0.000194588
0.0011456 2.67761e-05 -3.97269e-06
2.67761e-05 0.000136312 9.69659e-07
-3.97269e-06 9.69659e-07 0.00013536
0.00124036 2.63498e-05 6.46563e-06
2.63498e-05 0.000215839 -1.33906e-06
6.46563e-06 -1.33906e-06 0.000203525
0.00114123 2.48801e-05 4.86648e-06
2.48801e-05 0.000125997 -1.77399e-06
4.86648e-06 -1.77399e-06 0.000127919
0.0011921 2.64192e-05 5.56616e-06
2.64192e-05 0.000168556 -1.63025e-06
5.56616e-06 -1.63025e-06 0.000163792
0.0011788 2.18678e-05 -1.64351e-06
2.18678e-05 0.000140873 2.53186e-07
-1.64351e-06 2.53186e-07 0.000120597
0.00315347 4.01054e-05 1.79364e-05
4.01054e-05 0.00119074 -7.87804e-07
1.79364e-05 -7.87804e-07 0.00118381
0.0012818 2.415e-05 1.86154e-05
2.415e-05 0.000246833 -2.60346e-06
1.86154e-05 -2.60346e-06 0.000231449
0.00123337 2.54363e-05 1.61915e-05
2.54363e-05 0.000200474 -3.78491e-06
1.61915e-05 -3.78491e-06 0.000191592
0.00123545 1.55922e-05 4.86353e-06
1.55922e-05 0.000173656 -1.21529e-06
4.86353e-06 -1.21529e-06 0.000144176
0.00118105 2.04299e-05 4.7625e-06
2.04299e-05 0.000144226 -1.56081e-06
4.7625e-06 -1.56081e-06 0.000121006
0.00115607 2.30527e-05 1.258e-05
2.30527e-05 0.000124541 -4.77323e-06
1.258e-05 -4.77323e-06 0.00012897
0.00111979 2.07748e-05 4.6892e-06
2.07748e-05 0.000108878 -2.07658e-06
4.6892e-06 -2.07658e-06 9.19068e-05
0.00139646 2.27792e-06 1.65733e-06
2.27792e-06 0.000213556 -5.01225e-07
1.65733e-06 -5.01225e-07 0.000168238
0.00263596 -3.13345e-05 -1.16514e-05
-3.13345e-05 0.000848012 -2.94224e-06
-1.16514e-05 -2.94224e-06 0.000859897
0.00201054 -3.16988e-05 -4.61239e-06
-3.16988e-05 0.000570667 -8.27633e-07
-4.61239e-06 -8.27633e-07 0.00057038
0.00188955 -2.92404e-05 -4.13053e-06
-2.92404e-05 0.000491135 -9.10778e-07
-4.13053e-06 -9.10778e-07 0.000497136
0.00248585 -2.89768e-05 1.2744e-07
-2.89768e-05 0.00076862 -6.86769e-08
1.2744e-07 -6.86769e-08 0.000782306
0.000838679 -1.88071e-05 1.00433e-07
-1.88071e-05 -3.87168e-05 -5.25422e-08
1.00433e-07 -5.25422e-08 -5.26576e-05
0.00114886 -2.51735e-05 1.28844e-05
-2.51735e-05 0.000163171 2.01399e-06
1.28844e-05 2.01399e-06 0.000154534
0.00112059 -2.49793e-05 1.14353e-05
-2.49793e-05 0.000124846 2.52936e-06
1.14353e-05 2.52936e-06 0.000124005
0.0016835 -2.07342e-05 7.9298e-06
-2.07342e-05 0.000388519 1.69341e-06
7.9298e-06 1.69341e-06 0.000368356
0.00242528 -2.82262e-05 4.75857e-06
-2.82262e-05 0.000730748 1.30415e-06
4.75857e-06 1.30415e-06 0.000746257
0.00162395 -2.36994e-05 7.49554e-06
-2.36994e-05 0.000352369 2.07236e-06
7.49554e-06 2.07236e-06 0.000338957
0.000879209 -1.81939e-05 5.69486e-06
-1.81939e-05 -2.48794e-05 3.64311e-06
5.69486e-06 3.64311e-06 -3.63902e-05
0.00098103 -1.50657e-06 2.52257e-06
-1.50657e-06 1.41599e-05 1.18295e-06
2.52257e-06 1.18295e-06 -2.83811e-05
0.0024323 -2.27213e-05 1.05423e-05
-2.27213e-05 0.000721548 3.57726e-06
1.05423e-05 3.57726e-06 0.000739088
0.0030931 -3.8781e-05 5.24579e-07
-3.8781e-05 0.00116733 -1.37235e-07
5.24579e-07 -1.37235e-07 0.00115966
0.00209072 -3.22429e-05 -5.38744e-06
-3.22429e-05 0.000654289 -5.27754e-07
-5.38744e-06 -5.27754e-07 0.00064479
0.00319833 -3.16251e-05 1.95769e-05
-3.16251e-05 0.00122234 1.75945e-07
1.95769e-05 1.75945e-07 0.00121378
0.00117911 -2.58456e-05 4.91102e-06
-2.58456e-05 0.000220978 3.76084e-07
4.91102e-06 3.76084e-07 0.000203484
0.000712334 -1.72634e-05 7.21286e-06
-1.72634e-05 -5.96023e-05 1.06234e-06
7.21286e-06 1.06234e-06 -9.91024e-05
0.00298993 -4.05365e-05 6.45677e-06
-4.05365e-05 0.00107794 6.97036e-07
6.45677e-06 6.97036e-07 0.00107677
0.00163046 -1.76796e-05 1.03995e-05
-1.76796e-05 0.000379645 1.51601e-06
1.03995e-05 1.51601e-06 0.000351057
0.00122445 2.78871e-05 -4.76943e-06
2.78871e-05 0.000208515 7.01473e-07
-4.76943e-06 7.01473e-07 0.000196416
0.00116347 2.75009e-05 -4.22623e-06
2.75009e-05 0.000154607 8.74661e-07
-4.22623e-06 8.74661e-07 0.000150204
0.00112642 2.58913e-05 -3.71268e-06
2.58913e-05 0.000118687 1.02354e-06
-3.71268e-06 1.02354e-06 0.000120884
0.00120689 2.19624e-05 -8.06775e-06
2.19624e-05 0.000154866 2.39607e-06
-8.06775e-06 2.39607e-06 0.000134543
0.00217561 3.29232e-05 -4.74164e-06
3.29232e-05 0.00071256 -2.12176e-07
-4.74164e-06 -2.12176e-07 0.000699562
0.00126439 2.57277e-05 6.95101e-06
2.57277e-05 0.000239144 -1.09766e-06
6.95101e-06 -1.09766e-06 0.000223804
0.00113254 2.39332e-05 4.60893e-06
2.39332e-05 0.00011284 -1.82027e-06
4.60893e-06 -1.82027e-06 0.000117524
0.00121437 2.66432e-05 5.97275e-06
2.66432e-05 0.000191226 -1.49654e-06
5.97275e-06 -1.49654e-06 0.000182672
0.00125631 1.56086e-05 -2.2722e-06
1.56086e-05 0.000183884 2.69914e-07
-2.2722e-06 2.69914e-07 0.000154444
0.00114915 2.093e-05 -1.43259e-06
2.093e-05 0.000123215 2.14941e-07
-1.43259e-06 2.14941e-07 0.000106257
0.00120487 2.09436e-05 -1.84224e-06
2.09436e-05 0.000156042 3.10841e-07
-1.84224e-06 3.10841e-07 0.000132779
0.00141945 1.56966e-06 -9.46301e-07
1.56966e-06 0.000222987 5.49571e-07
-9.46301e-07 5.49571e-07 0.000177417
0.00321687 4.14269e-05 1.79182e-05
4.14269e-05 0.00122712 -4.06389e-07
1.79182e-05 -4.06389e-07 0.00121905
0.0012879 2.29934e-05 1.94085e-05
2.29934e-05 0.000263272 -1.89359e-06
1.94085e-05 -1.89359e-06 0.000246034
0.00165371 2.52747e-05 4.11071e-06
2.52747e-05 0.000395338 -3.57911e-07
4.11071e-06 -3.57911e-07 0.000363312
0.00127151 1.40198e-05 5.07079e-06
1.40198e-05 0.000191805 -9.0098e-07
5.07079e-06 -9.0098e-07 0.000159968
0.00120401 1.79851e-05 4.75336e-06
1.79851e-05 0.000157886 -1.37895e-06
4.75336e-06 -1.37895e-06 0.000131542
0.00148524 -6.31416e-06 1.39797e-06
-6.31416e-06 0.000224898 -3.79057e-07
1.39797e-06 -3.79057e-07 0.000173652
0.00120257 2.03212e-06 1.9363e-06
2.03212e-06 0.000109788 -5.94008e-07
1.9363e-06 -5.94008e-07 6.18675e-05
0.00123748 2.21025e-05 1.24686e-05
2.21025e-05 0.000152861 -4.97213e-06
1.24686e-05 -4.97213e-06 0.000159543
0.00111463 2.00679e-05 4.52978e-06
2.00679e-05 9.96644e-05 -2.14085e-06
4.52978e-06 -2.14085e-06 8.62977e-05
0.00137263 4.178e-06 1.63199e-06
4.178e-06 0.000210784 -6.48427e-07
1.63199e-06 -6.48427e-07 0.000167841
0.00113153 -1.86964e-05 1.13601e-06
-1.86964e-05 4.60382e-05 -5.0423e-07
1.13601e-06 -5.0423e-07 -1.14923e-05
0.00291971 -3.70282e-05 -1.31689e-05
-3.70282e-05 0.00101429 -2.40682e-06
-1.31689e-05 -2.40682e-06 0.00101903
0.00256041 -2.92628e-05 -1.12526e-05
-2.92628e-05 0.000803525 -3.09313e-06
-1.12526e-05 -3.09313e-06 0.000817277
0.00272169 -3.3323e-05 -1.2182e-05
-3.3323e-05 0.000898033 -2.76434e-06
-1.2182e-05 -2.76434e-06 0.000907865
0.000795776 -1.86113e-05 -4.56207e-06
-1.86113e-05 -5.96116e-05 -2.53031e-06
-4.56207e-06 -2.53031e-06 -7.33237e-05
0.00293545 -3.741e-05 1.75009e-07
-3.741e-05 0.00103778 -1.14884e-07
1.75009e-07 -1.14884e-07 0.00103915
0.0027193 -3.46151e-05 1.45673e-07
-3.46151e-05 0.000908793 -8.26629e-08
1.45673e-07 -8.26629e-08 0.000915946
0.000818884 -1.67601e-05 1.23153e-07
-1.67601e-05 -3.3999e-05 -7.51477e-08
1.23153e-07 -7.51477e-08 -5.87229e-05
0.00178583 -2.44013e-05 -3.75338e-06
-2.44013e-05 0.000416296 -1.03641e-06
-3.75338e-06 -1.03641e-06 0.00042856
0.000847513 -1.97315e-05 2.02751e-08
-1.97315e-05 -2.86598e-05 -3.05434e-08
2.02751e-08 -3.05434e-08 -4.55332e-05
0.00121225 -1.95686e-05 1.95893e-06
-1.95686e-05 0.000138308 4.9005e-07
1.95893e-06 4.9005e-07 0.000128756
0.000976209 -2.59071e-06 9.773e-08
-2.59071e-06 1.33663e-05 -1.06253e-07
9.773e-08 -1.06253e-07 -2.94236e-05
0.00241385 -2.48111e-05 1.07536e-05
-2.48111e-05 0.000718756 3.37924e-06
1.07536e-05 3.37924e-06 0.000735382
0.000913121 -1.46084e-05 3.77446e-06
-1.46084e-05 -2.79366e-05 2.87896e-06
3.77446e-06 2.87896e-06 -3.46169e-05
0.000759697 -1.13802e-05 6.7324e-06
-1.13802e-05 -6.01619e-05 2.38039e-06
6.7324e-06 2.38039e-06 -8.90953e-05
0.000811419 -1.84947e-05 6.15557e-06
-1.84947e-05 -4.07966e-05 3.03914e-06
6.15557e-06 3.03914e-06 -6.20208e-05
0.000989167 5.3726e-06 2.33329e-06
5.3726e-06 4.02168e-06 9.58172e-07
2.33329e-06 9.58172e-07 -4.561e-05
0.0015719 -1.98967e-05 6.91706e-06
-1.98967e-05 0.000307265 2.55741e-06
6.91706e-06 2.55741e-06 0.000301504
0.000985353 2.22628e-06 2.45887e-06
2.22628e-06 1.37107e-05 1.12363e-06
2.45887e-06 1.12363e-06 -3.10068e-05
0.000986771 -6.00408e-06 2.37445e-06
-6.00408e-06 1.79844e-05 1.51348e-06
2.37445e-06 1.51348e-06 -2.19797e-05
0.00104061 1.39828e-05 1.20429e-06
1.39828e-05 2.82259e-05 3.43735e-07
1.20429e-06 3.43735e-07 -2.68068e-05
0.00244244 -2.06213e-05 1.01768e-05
-2.06213e-05 0.000721555 3.73909e-06
1.01768e-05 3.73909e-06 0.000739874
0.00248195 -2.2784e-05 1.77323e-07
-2.2784e-05 0.000745264 -6.2703e-08
1.77323e-07 -6.2703e-08 0.000762689
0.00309258 -3.97025e-05 -1.53673e-05
-3.97025e-05 0.00113938 -1.53524e-06
-1.53673e-05 -1.53524e-06 0.00113611
0.00310442 -3.97465e-05 -1.68137e-05
-3.97465e-05 0.00117064 -8.05134e-07
-1.68137e-05 -8.05134e-07 0.00116335
0.0031822 -3.64987e-05 1.23802e-06
-3.64987e-05 0.00121411 -1.73556e-07
1.23802e-06 -1.73556e-07 0.00120559
0.00210327 -3.17891e-05 -5.69878e-06
-3.17891e-05 0.000674603 -3.99404e-07
-5.69878e-06 -3.99404e-07 0.000662631
0.00119412 -1.76214e-05 3.30562e-06
-1.76214e-05 0.000176805 4.5759e-08
3.30562e-06 4.5759e-08 0.00014072
0.00211211 -3.27389e-05 -5.13269e-06
-3.27389e-05 0.000647475 -6.48738e-07
-5.13269e-06 -6.48738e-07 0.000640857
0.00122247 -1.66877e-05 2.70123e-06
-1.66877e-05 0.000179463 1.72611e-07
2.70123e-06 1.72611e-07 0.00014811
0.00323624 -9.14155e-07 1.77619e-05
-9.14155e-07 0.00124043 1.76351e-08
1.77619e-05 1.76351e-08 0.00123176
0.000722649 -1.50137e-05 5.19797e-06
-1.50137e-05 -5.47369e-05 2.15996e-07
5.19797e-06 2.15996e-07 -9.5446e-05
0.00162447 -2.82455e-05 1.07554e-05
-2.82455e-05 0.000383837 1.20965e-06
1.07554e-05 1.20965e-06 0.000352767
0.00103033 -1.18965e-05 2.16571e-06
-1.18965e-05 7.64761e-06 3.66381e-07
2.16571e-06 3.66381e-07 -4.96289e-05
0.00168381 -1.68786e-05 8.33464e-06
-1.68786e-05 0.00039694 1.12566e-06
8.33464e-06 1.12566e-06 0.000370961
0.00102879 2.14466e-06 2.15952e-06
2.14466e-06 8.62408e-06 5.067e-07
2.15952e-06 5.067e-07 -4.52321e-05
0.00121757 2.09169e-05 -1.71047e-05
2.09169e-05 0.000243505 5.7864e-07
-1.71047e-05 5.7864e-07 0.000224683
0.00124784 2.7509e-05 -5.05257e-06
2.7509e-05 0.00023192 5.82739e-07
-5.05257e-06 5.82739e-07 0.000216603
0.00110945 2.48482e-05 -3.51908e-06
2.48482e-05 0.000101348 1.06766e-06
-3.51908e-06 1.06766e-06 0.000106284
0.00118973 2.79073e-05 -4.47692e-06
2.79073e-05 0.000179261 7.80353e-07
-4.47692e-06 7.80353e-07 0.000171049
0.00127908 1.54704e-05 -9.50452e-06
1.54704e-05 0.000195022 1.76289e-06
-9.50452e-06 1.76289e-06 0.000165622
0.00123275 2.13803e-05 -8.49953e-06
2.13803e-05 0.000169817 2.17474e-06
-8.49953e-06 2.17474e-06 0.000146501
0.00117783 2.10431e-05 -7.59835e-06
2.10431e-05 0.000137215 2.52516e-06
-7.59835e-06 2.52516e-06 0.000120273
0.00144478 8.11354e-07 -3.43372e-06
8.11354e-07 0.00023349 1.63023e-06
-3.43372e-06 1.63023e-06 0.000187671
0.00320638 4.03941e-05 -1.06311e-06
4.03941e-05 0.00122284 -1.6113e-07
-1.06311e-06 -1.6113e-07 0.00121468
0.00126054 2.47879e-05 7.29244e-06
2.47879e-05 0.000250704 -7.53697e-07
7.29244e-06 -7.53697e-07 0.000233435
0.000971707 1.87469e-05 -4.29272e-06
1.87469e-05 6.02445e-05 2.45446e-07
-4.29272e-06 2.45446e-07 2.4041e-05
0.00128219 1.37583e-05 -2.48248e-06
1.37583e-05 0.000197086 2.17441e-07
-2.48248e-06 2.17441e-07 0.000165267
0.00185781 2.55509e-05 6.9997e-06
2.55509e-05 0.000458713 -1.85765e-06
6.9997e-06 -1.85765e-06 0.000468904
0.00134286 2.12206e-05 -1.11475e-06
2.12206e-05 0.000211452 2.66674e-07
-1.11475e-06 2.66674e-07 0.00019942
0.00122684 1.82783e-05 -2.05502e-06
1.82783e-05 0.000169034 3.15003e-07
-2.05502e-06 3.15003e-07 0.000142711
0.0013801 -6.09443e-06 -9.25897e-07
-6.09443e-06 0.000172816 3.60046e-07
-9.25897e-07 3.60046e-07 0.000120848
0.00139925 3.00997e-06 -9.90403e-07
3.00997e-06 0.000221427 6.28017e-07
-9.90403e-07 6.28017e-07 0.000178193
0.00132781 4.68775e-07 -4.87546e-07
4.68775e-07 0.00016981 2.81432e-07
-4.87546e-07 2.81432e-07 0.000122277
0.00111825 -1.81804e-05 1.95297e-08
-1.81804e-05 4.01744e-05 -5.052e-08
1.95297e-08 -5.052e-08 -1.73032e-05
0.000713334 1.20477e-05 5.27389e-06
1.20477e-05 -6.20718e-05 -5.99162e-07
5.27389e-06 -5.99162e-07 -0.000101528
0.00127615 1.46016e-05 5.11015e-06
1.46016e-05 0.000200592 -6.06377e-07
5.11015e-06 -6.06377e-07 0.000167536
0.00130961 1.46634e-05 1.97303e-06
1.46634e-05 0.000131242 -9.3624e-08
1.97303e-06 -9.3624e-08 7.55524e-05
0.00132455 -5.23329e-06 1.9491e-06
-5.23329e-06 0.000135846 -4.12167e-07
1.9491e-06 -4.12167e-07 8.19913e-05
0.00123959 -2.12269e-06 1.83336e-06
-2.12269e-06 0.000117225 -6.11471e-07
1.83336e-06 -6.11471e-07 6.72423e-05
0.00141012 -1.92756e-05 5.04675e-07
-1.92756e-05 0.000141734 -2.59097e-07
5.04675e-07 -2.59097e-07 8.09627e-05
0.0025795 2.70636e-05 1.11882e-05
2.70636e-05 0.00080406 -3.30326e-06
1.11882e-05 -3.30326e-06 0.000819009
0.00115028 -1.79329e-05 9.86915e-07
-1.79329e-05 4.26781e-05 -3.28837e-07
9.86915e-07 -3.28837e-07 -1.47132e-05
0.0008696 1.80918e-05 4.334e-06
1.80918e-05 -3.09579e-05 -2.4736e-06
4.334e-06 -2.4736e-06 -4.22846e-05
0.000948467 5.38192e-06 2.26865e-06
5.38192e-06 5.45197e-06 -1.38459e-06
2.26865e-06 -1.38459e-06 -3.72772e-05
0.00113552 -1.84837e-05 1.1121e-06
-1.84837e-05 6.27558e-05 -8.14133e-07
1.1121e-06 -8.14133e-07 5.03844e-06
0.00119466 -2.5757e-05 7.52957e-07
-2.5757e-05 5.70378e-05 -1.22179e-07
7.52957e-07 -1.22179e-07 -4.47696e-06
0.000871144 1.52712e-05 3.90615e-06
1.52712e-05 -4.46486e-05 -2.86068e-06
3.90615e-06 -2.86068e-06 -5.29817e-05
0.000985338 5.22584e-06 2.31217e-06
5.22584e-06 4.03007e-06 -1.87481e-06
2.31217e-06 -1.87481e-06 -3.27826e-05
0.00302393 -3.83953e-05 -1.40698e-05
-3.83953e-05 0.00107681 -2.18143e-06
-1.40698e-05 -2.18143e-06 0.00107869
0.0028076 -3.52575e-05 -1.25452e-05
-3.52575e-05 0.000949441 -2.57652e-06
-1.25452e-05 -2.57652e-06 0.000956926
0.000733589 -1.89701e-05 -4.66245e-06
-1.89701e-05 -7.27372e-05 -2.08138e-06
-4.66245e-06 -2.08138e-06 -9.77216e-05
0.00253168 -2.71347e-05 -1.11318e-05
-2.71347e-05 0.000781623 -3.27416e-06
-1.11318e-05 -3.27416e-06 0.000796895
0.000824323 -1.80813e-05 -4.28997e-06
-1.80813e-05 -5.21344e-05 -2.60267e-06
-4.28997e-06 -2.60267e-06 -6.3015e-05
0.00076229 -1.91196e-05 -4.84609e-06
-1.91196e-05 -6.92895e-05 -2.30455e-06
-4.84609e-06 -2.30455e-06 -8.6106e-05
0.000971393 -3.62496e-06 -2.43789e-06
-3.62496e-06 1.25998e-05 -1.51049e-06
-2.43789e-06 -1.51049e-06 -3.04395e-05
0.0024736 -2.49015e-05 1.69512e-07
-2.49015e-05 0.000747074 -6.83257e-08
1.69512e-07 -6.83257e-08 0.000763586
0.000899057 -1.45404e-05 8.66783e-08
-1.45404e-05 -3.49997e-05 -3.80035e-08
8.66783e-08 -3.80035e-08 -4.15899e-05
0.00121983 -1.53254e-05 2.47859e-06
-1.53254e-05 0.000166389 2.85317e-07
2.47859e-06 2.85317e-07 0.000140248
0.00119987 -2.22685e-05 2.15365e-06
-2.22685e-05 0.000150521 4.39707e-07
2.15365e-06 4.39707e-07 0.000131655
0.000989619 5.57373e-06 -2.33186e-08
5.57373e-06 4.71076e-06 -1.08348e-07
-2.33186e-08 -1.08348e-07 -4.50096e-05
0.000899285 -1.72782e-05 1.13596e-08
-1.72782e-05 -2.35801e-05 -2.58108e-08
1.13596e-08 -2.58108e-08 -3.22978e-05
0.00097795 1.376e-06 -6.00209e-08
1.376e-06 1.19552e-05 -1.87143e-08
-6.00209e-08 -1.87143e-08 -3.30007e-05
0.000973068 -7.69677e-06 7.76617e-08
-7.69677e-06 1.25286e-05 -3.89027e-09
7.76617e-08 -3.89027e-09 -2.75842e-05
0.000994734 1.40447e-05 -3.65061e-08
1.40447e-05 5.25458e-06 -1.27054e-07
-3.65061e-08 -1.27054e-07 -5.00771e-05
0.000906707 -1.59464e-05 4.10485e-06
-1.59464e-05 -2.63406e-05 2.70132e-06
4.10485e-06 2.70132e-06 -3.38235e-05
0.000919466 -1.33094e-05 3.40897e-06
-1.33094e-05 -2.85962e-05 3.03518e-06
3.40897e-06 3.03518e-06 -3.45463e-05
0.000993471 -8.33371e-06 2.33403e-06
-8.33371e-06 8.63284e-06 1.6797e-06
2.33403e-06 1.6797e-06 -2.65694e-05
0.000996091 4.68944e-06 2.26137e-06
4.68944e-06 -1.11014e-06 7.40196e-07
2.26137e-06 7.40196e-07 -5.22453e-05
0.00098952 4.60873e-06 2.34576e-06
4.60873e-06 1.23684e-05 1.15054e-06
2.34576e-06 1.15054e-06 -3.49747e-05
0.00113628 1.94828e-05 1.11295e-06
1.94828e-05 3.69187e-05 6.08232e-07
1.11295e-06 6.08232e-07 -2.14288e-05
0.000991159 -9.36716e-06 2.32511e-06
-9.36716e-06 1.57225e-05 1.58583e-06
2.32511e-06 1.58583e-06 -2.14059e-05
0.000985998 1.70052e-05 1.01075e-06
1.70052e-05 -9.35992e-06 4.19321e-07
1.01075e-06 4.19321e-07 -6.4741e-05
0.00106682 9.2176e-06 1.22449e-06
9.2176e-06 4.78695e-05 6.85372e-07
1.22449e-06 6.85372e-07 -7.26321e-06
0.00119604 2.61646e-05 9.43275e-08
2.61646e-05 9.53602e-05 -1.42159e-07
9.43275e-08 -1.42159e-07 3.48931e-05
0.00244493 -1.85404e-05 9.66058e-06
-1.85404e-05 0.000718643 3.8671e-06
9.66058e-06 3.8671e-06 0.000737661
0.00248233 -2.06733e-05 1.85978e-07
-2.06733e-05 0.000740741 -5.63985e-08
1.85978e-07 -5.63985e-08 0.000758954
0.00253279 -2.28648e-05 -1.05867e-05
-2.28648e-05 0.000769561 -3.63919e-06
-1.05867e-05 -3.63919e-06 0.000786865
0.000882376 1.39826e-05 3.53628e-06
1.39826e-05 -4.3466e-05 -3.03221e-06
3.53628e-06 -3.03221e-06 -5.09203e-05
0.00258475 2.49e-05 1.10175e-05
2.49e-05 0.000799865 -3.50332e-06
1.10175e-05 -3.50332e-06 0.000815906
0.00307898 -3.9274e-05 -1.47939e-05
-3.9274e-05 0.00111766 -1.88044e-06
-1.47939e-05 -1.88044e-06 0.00111684
0.00308878 -3.97536e-05 -1.60026e-05
-3.97536e-05 0.001152 -1.16918e-06
-1.60026e-05 -1.16918e-06 0.00114653
0.000714111 -9.80927e-06 -4.99143e-06
-9.80927e-06 -6.66258e-05 -1.16076e-06
-4.99143e-06 -1.16076e-06 -0.000100935
0.000707655 -8.22325e-06 -5.12109e-06
-8.22325e-06 -5.96589e-05 -8.22966e-07
-5.12109e-06 -8.22966e-07 -9.87646e-05
0.00316423 -3.98924e-05 -1.74744e-05
-3.98924e-05 0.00120516 -4.05642e-07
-1.74744e-05 -4.05642e-07 0.00119664
0.00322406 3.71189e-06 -2.41096e-07
3.71189e-06 0.00123478 -3.64664e-08
-2.41096e-07 -3.64664e-08 0.00122607
0.000713409 -9.31802e-06 4.00689e-08
-9.31802e-06 -5.86345e-05 -1.65081e-07
4.00689e-08 -1.65081e-07 -9.92322e-05
0.00121063 -1.67667e-05 2.90889e-06
-1.67667e-05 0.000180839 1.39672e-07
2.90889e-06 1.39672e-07 0.000147163
0.00104616 -1.00827e-05 3.46773e-08
-1.00827e-05 1.48326e-05 -2.6771e-08
3.46773e-08 -2.6771e-08 -4.24212e-05
0.000780642 -1.13212e-05 2.73447e-08
-1.13212e-05 -4.428e-05 -9.07066e-08
2.73447e-08 -9.07066e-08 -7.57643e-05
0.00103548 2.05406e-06 -4.02355e-08
2.05406e-06 1.17846e-05 -4.18942e-08
-4.02355e-08 -4.18942e-08 -4.20876e-05
0.000706607 -4.0307e-06 5.29091e-06
-4.0307e-06 -6.35893e-05 -2.26742e-07
5.29091e-06 -2.26742e-07 -0.000104202
0.00104396 -9.97822e-06 2.11676e-06
-9.97822e-06 1.03711e-05 7.56687e-08
2.11676e-06 7.56687e-08 -4.82298e-05
0.00103386 -3.78376e-06 2.13894e-06
-3.78376e-06 1.06732e-05 4.56872e-07
2.13894e-06 4.56872e-07 -4.47496e-05
0.00117353 -1.26381e-05 1.00111e-06
-1.26381e-05 3.70905e-05 5.33992e-08
1.00111e-06 5.33992e-08 -2.73169e-05
0.00101118 3.44919e-06 2.18036e-06
3.44919e-06 1.88495e-06 6.12268e-07
2.18036e-06 6.12268e-07 -5.05807e-05
0.00119422 3.63685e-06 9.47659e-07
3.63685e-06 4.54706e-05 2.75756e-07
9.47659e-07 2.75756e-07 -1.53566e-05
0.00319281 3.87096e-05 -1.96343e-05
3.87096e-05 0.00121721 1.39227e-07
-1.96343e-05 1.39227e-07 0.00120896
0.00123253 2.6802e-05 -5.1553e-06
2.6802e-05 0.000237875 4.04487e-07
-5.1553e-06 4.04487e-07 0.000220556
0.000278752 1.39931e-05 -7.19903e-06
1.39931e-05 -0.000279929 1.00082e-06
-7.19903e-06 1.00082e-06 -0.000320402
0.00129248 1.33123e-05 -1.01264e-05
1.33123e-05 0.000202151 1.4373e-06
-1.01264e-05 1.4373e-06 0.000170361
0.00247596 3.01577e-05 -4.84476e-06
3.01577e-05 0.000763627 1.22249e-06
-4.84476e-06 1.22249e-06 0.000777273
0.00156918 2.24842e-05 -7.41126e-06
2.24842e-05 0.000322304 2.58155e-06
-7.41126e-06 2.58155e-06 0.000311608
0.00125425 1.83986e-05 -8.93208e-06
1.83986e-05 0.00018238 1.9647e-06
-8.93208e-06 1.9647e-06 0.000156071
0.00127201 -5.78901e-06 -3.2104e-06
-5.78901e-06 0.00011934 1.14068e-06
-3.2104e-06 1.14068e-06 6.66532e-05
0.00145205 -1.0269e-06 -2.88024e-06
-1.0269e-06 0.000229334 1.09471e-06
-2.88024e-06 1.09471e-06 0.000182192
0.00142782 1.89381e-06 -3.54227e-06
1.89381e-06 0.000232997 1.94779e-06
-3.54227e-06 1.94779e-06 0.000189472
0.001105 -1.77156e-05 -1.00327e-06
-1.77156e-05 3.43231e-05 3.61405e-07
-1.00327e-06 3.61405e-07 -2.31027e-05
0.000713441 1.43815e-05 -8.49575e-08
1.43815e-05 -6.2276e-05 -1.17842e-07
-8.49575e-08 -1.17842e-07 -0.00010179
0.00127992 1.37807e-05 -2.64023e-06
1.37807e-05 0.000202015 1.87454e-07
-2.64023e-06 1.87454e-07 0.000169021
0.00109353 1.51839e-05 -4.21162e-07
1.51839e-05 2.51641e-05 4.94537e-08
-4.21162e-07 4.94537e-08 -3.18149e-05
0.00141867 -6.31907e-06 -4.45347e-07
-6.31907e-06 0.000181413 8.95243e-08
-4.45347e-07 8.95243e-08 0.000128001
0.00251549 2.69323e-05 -1.51804e-07
2.69323e-05 0.000774086 -7.01393e-08
-1.51804e-07 -7.01393e-08 0.000789081
0.00122573 1.99045e-05 3.38248e-07
1.99045e-05 0.000144335 -5.54552e-08
3.38248e-07 -5.54552e-08 0.000134456
0.00117874 5.24851e-06 8.30626e-08
5.24851e-06 0.000115961 1.38468e-08
8.30626e-08 1.38468e-08 7.46226e-05
0.00125198 -2.56583e-06 -4.76283e-07
-2.56583e-06 0.000122863 1.95649e-07
-4.76283e-07 1.95649e-07 7.28945e-05
0.00124055 -1.80663e-05 -4.58893e-07
-1.80663e-05 5.91377e-05 2.46576e-07
-4.58893e-07 2.46576e-07 -2.41254e-06
0.00102835 -1.70151e-05 -4.20333e-08
-1.70151e-05 1.26928e-05 -1.10416e-07
-4.20333e-08 -1.10416e-07 -4.52471e-05
0.00124648 -1.82194e-05 2.10856e-08
-1.82194e-05 8.88897e-05 4.60627e-08
2.10856e-08 4.60627e-08 3.19206e-05
0.0011846 -2.55734e-05 8.40626e-08
-2.55734e-05 5.25652e-05 -2.59595e-09
8.40626e-08 -2.59595e-09 -8.8535e-06
0.000884747 1.536e-05 -6.1463e-08
1.536e-05 -3.7686e-05 -4.56556e-08
-6.1463e-08 -4.56556e-08 -4.61289e-05
0.000986935 5.66132e-06 -9.79905e-08
5.66132e-06 5.01268e-06 -4.82735e-08
-9.79905e-08 -4.82735e-08 -3.17873e-05
0.00103483 1.22867e-05 2.22831e-06
1.22867e-05 1.62851e-06 -2.29686e-07
2.22831e-06 -2.29686e-07 -5.63613e-05
0.00131855 3.11389e-06 1.98696e-06
3.11389e-06 0.00013072 -2.38437e-07
1.98696e-06 -2.38437e-07 7.59541e-05
0.00143047 1.4626e-05 7.22595e-07
1.4626e-05 0.000145035 1.01291e-07
7.22595e-07 1.01291e-07 8.1277e-05
0.00115136 -1.22379e-05 1.42406e-06
-1.22379e-05 3.75065e-06 -5.30827e-07
1.42406e-06 -5.30827e-07 -6.00236e-05
0.00127215 -1.83188e-05 6.30613e-07
-1.83188e-05 9.14588e-05 -3.93015e-07
6.30613e-07 -3.93015e-07 3.33788e-05
0.00137473 -1.9607e-05 -5.2079e-08
-1.9607e-05 0.000103469 -1.69612e-07
-5.2079e-08 -1.69612e-07 3.9154e-05
0.000853983 1.66667e-05 4.15885e-06
1.66667e-05 -4.63971e-05 -2.65399e-06
4.15885e-06 -2.65399e-06 -5.59736e-05
0.00120954 -2.37398e-05 3.94383e-07
-2.37398e-05 5.04884e-05 -6.74587e-08
3.94383e-07 -6.74587e-08 -9.95927e-06
0.000949135 8.2088e-06 2.36412e-06
8.2088e-06 1.68684e-06 -1.37651e-06
2.36412e-06 -1.37651e-06 -3.85625e-05
0.000875242 -1.32957e-05 1.25272e-06
-1.32957e-05 -4.83283e-05 -1.06312e-06
1.25272e-06 -1.06312e-06 -0.000104992
0.00139549 -2.96317e-05 4.61807e-07
-2.96317e-05 0.000171207 -3.69602e-07
4.61807e-07 -3.69602e-07 0.000108375
0.00125656 -2.82808e-05 2.5245e-07
-2.82808e-05 7.62359e-05 5.56848e-07
2.5245e-07 5.56848e-07 1.43914e-05
0.00097204 6.49696e-06 2.50704e-06
6.49696e-06 7.98983e-07 -1.66522e-06
2.50704e-06 -1.66522e-06 -3.64775e-05
0.00099111 4.85248e-06 2.00036e-06
4.85248e-06 5.18147e-06 -1.98913e-06
2.00036e-06 -1.98913e-06 -3.10051e-05
0.00106307 -9.27036e-06 1.35195e-06
-9.27036e-06 3.81644e-05 -9.30963e-07
1.35195e-06 -9.30963e-07 -1.68452e-05
0.000734781 -1.35538e-05 -4.90931e-06
-1.35538e-05 -6.899e-05 -1.76215e-06
-4.90931e-06 -1.76215e-06 -9.7693e-05
0.00253335 -2.50019e-05 -1.09466e-05
-2.50019e-05 0.000775379 -3.46995e-06
-1.09466e-05 -3.46995e-06 0.000791779
0.000885262 -1.4474e-05 -3.55921e-06
-1.4474e-05 -4.19434e-05 -2.98654e-06
-3.55921e-06 -2.98654e-06 -4.84421e-05
0.000734382 -2.00483e-05 -4.76624e-06
-2.00483e-05 -7.62334e-05 -2.19092e-06
-4.76624e-06 -2.19092e-06 -9.69193e-05
0.000989009 6.1869e-06 -2.24303e-06
6.1869e-06 4.82193e-06 -1.11746e-06
-2.24303e-06 -1.11746e-06 -4.49645e-05
0.000853752 -1.70848e-05 -4.15887e-06
-1.70848e-05 -4.55248e-05 -2.64375e-06
-4.15887e-06 -2.64375e-06 -5.41324e-05
0.000959748 -9.23196e-06 -2.26393e-06
-9.23196e-06 7.28785e-06 -1.66587e-06
-2.26393e-06 -1.66587e-06 -3.29705e-05
0.00097032 4.45196e-07 -2.47887e-06
4.45196e-07 1.01067e-05 -1.15809e-06
-2.47887e-06 -1.15809e-06 -3.50875e-05
0.000947677 1.40841e-05 -1.23524e-06
1.40841e-05 -1.8321e-05 -5.85966e-07
-1.23524e-06 -5.85966e-07 -7.39464e-05
0.000890553 -1.58699e-05 6.56479e-08
-1.58699e-05 -3.43483e-05 -4.62812e-08
6.56479e-08 -4.62812e-08 -4.17408e-05
0.000906828 -1.32563e-05 8.99716e-08
-1.32563e-05 -3.49569e-05 -2.7688e-08
8.99716e-08 -2.7688e-08 -4.08174e-05
0.000988126 -8.00995e-06 7.76203e-08
-8.00995e-06 5.9622e-06 -4.06677e-08
7.76203e-08 -4.06677e-08 -2.92337e-05
0.00100696 5.53652e-06 -3.27486e-08
5.53652e-06 3.92409e-06 -7.12342e-08
-3.27486e-08 -7.12342e-08 -4.72532e-05
0.000979078 4.16717e-06 -7.86367e-08
4.16717e-06 8.83891e-06 -3.86664e-08
-7.86367e-08 -3.86664e-08 -3.86561e-05
0.0011405 1.97826e-05 6.95098e-08
1.97826e-05 3.89234e-05 2.86422e-08
6.95098e-08 2.86422e-08 -1.94572e-05
0.000975119 -1.02857e-05 -6.07432e-08
-1.02857e-05 8.55384e-06 4.88735e-08
-6.07432e-08 4.88735e-08 -2.86159e-05
0.00104438 1.80509e-05 -4.79853e-08
1.80509e-05 1.89046e-05 -5.7996e-08
-4.79853e-08 -5.7996e-08 -3.6205e-05
0.00106023 9.97786e-06 5.81116e-08
9.97786e-06 4.48895e-05 -1.30679e-07
5.81116e-08 -1.30679e-07 -1.03231e-05
0.00110873 2.5465e-05 -4.49546e-07
2.5465e-05 5.28347e-05 9.1052e-08
-4.49546e-07 9.1052e-08 -8.01119e-06
0.000925132 -1.20524e-05 3.03986e-06
-1.20524e-05 -2.91057e-05 3.14683e-06
3.03986e-06 3.14683e-06 -3.43333e-05
0.000990625 -9.48752e-06 2.43897e-06
-9.48752e-06 1.02431e-05 1.54186e-06
2.43897e-06 1.54186e-06 -2.53786e-05
0.000998625 -7.32753e-06 2.12143e-06
-7.32753e-06 8.82506e-06 1.83243e-06
2.12143e-06 1.83243e-06 -2.59738e-05
0.00105814 2.49577e-06 1.37474e-06
2.49577e-06 3.60652e-05 8.13486e-07
1.37474e-06 8.13486e-07 -1.68665e-05
0.0011441 1.44407e-05 1.23087e-06
1.44407e-05 2.83666e-05 3.65687e-07
1.23087e-06 3.65687e-07 -3.05147e-05
0.00111871 2.05947e-05 1.05412e-06
2.05947e-05 4.44819e-05 7.25148e-07
1.05412e-06 7.25148e-07 -1.22334e-05
0.00119206 2.35204e-05 6.10259e-07
2.35204e-05 4.64121e-05 5.99897e-07
6.10259e-07 5.99897e-07 -1.6326e-05
0.00107565 5.96166e-06 1.19355e-06
5.96166e-06 4.9566e-05 9.43377e-07
1.19355e-06 9.43377e-07 -4.06228e-06
0.00110389 2.57699e-05 2.30383e-07
2.57699e-05 3.56086e-05 3.50759e-07
2.30383e-07 3.50759e-07 -2.43985e-05
0.00111281 2.46495e-05 7.54494e-07
2.46495e-05 6.56899e-05 2.02637e-08
7.54494e-07 2.02637e-08 2.24118e-06
0.00106875 2.77714e-05 2.81911e-07
2.77714e-05 2.59393e-05 -5.13671e-08
2.81911e-07 -5.13671e-08 -3.80953e-05
0.00100663 -4.70108e-06 1.16954e-06
-4.70108e-06 6.47175e-06 2.03919e-06
1.16954e-06 2.03919e-06 -2.56949e-05
0.000931861 -9.5833e-06 2.31042e-06
-9.5833e-06 -3.20939e-05 3.28048e-06
2.31042e-06 3.28048e-06 -3.59338e-05
0.00244065 -1.64709e-05 8.99911e-06
-1.64709e-05 0.000712761 3.97191e-06
8.99911e-06 3.97191e-06 0.000732453
0.00247401 -1.85803e-05 2.02789e-07
-1.85803e-05 0.000732666 -5.03088e-08
2.02789e-07 -5.03088e-08 0.000751606
0.00252166 -2.07365e-05 -1.00764e-05
-2.07365e-05 0.000759672 -3.77825e-06
-1.00764e-05 -3.77825e-06 0.000777777
0.000890523 1.28587e-05 3.13826e-06
1.28587e-05 -4.25749e-05 -3.11127e-06
3.13826e-06 -3.11127e-06 -4.92345e-05
0.00257455 2.27377e-05 1.06305e-05
2.27377e-05 0.000789973 -3.66165e-06
1.06305e-05 -3.66165e-06 0.000806899
0.000893829 1.40462e-05 -9.65474e-08
1.40462e-05 -3.75518e-05 -3.93688e-08
-9.65474e-08 -3.93688e-08 -4.51105e-05
0.00252528 2.48065e-05 -1.61295e-07
2.48065e-05 0.00077166 -6.65849e-08
-1.61295e-07 -6.65849e-08 0.000787805
0.000724165 -1.06206e-05 -5.00887e-06
-1.06206e-05 -6.87105e-05 -1.43198e-06
-5.00887e-06 -1.43198e-06 -0.000100448
0.00071052 -8.85415e-06 -4.99608e-06
-8.85415e-06 -6.15701e-05 -9.45803e-07
-4.99608e-06 -9.45803e-07 -9.83429e-05
0.00104033 2.07492e-06 -2.14462e-06
2.07492e-06 1.40734e-05 -5.85926e-07
-2.14462e-06 -5.85926e-07 -3.981e-05
0.00106639 -9.90237e-06 -2.1342e-06
-9.90237e-06 2.41114e-05 -4.44641e-07
-2.1342e-06 -4.44641e-07 -3.31474e-05
0.000704083 -4.16997e-06 -5.27379e-06
-4.16997e-06 -6.25672e-05 -5.44888e-07
-5.27379e-06 -5.44888e-07 -0.000103089
0.00321456 7.08134e-06 -1.84657e-05
7.08134e-06 0.00123032 3.79039e-08
-1.84657e-05 3.79039e-08 0.00122149
0.000707843 1.79514e-06 -3.00112e-09
1.79514e-06 -6.31646e-05 -1.46136e-07
-3.00112e-09 -1.46136e-07 -0.000103737
0.00105733 -6.67948e-06 -1.90952e-08
-6.67948e-06 1.6459e-05 -1.11615e-07
-1.90952e-08 -1.11615e-07 -4.20896e-05
0.00104124 -4.95831e-06 -2.30218e-08
-4.95831e-06 1.40398e-05 -1.23723e-08
-2.30218e-08 -1.23723e-08 -4.14089e-05
0.00119791 -1.39061e-05 4.29736e-09
-1.39061e-05 4.82867e-05 -4.28298e-08
4.29736e-09 -4.28298e-08 -1.61962e-05
0.001023 4.22976e-06 -3.77584e-08
4.22976e-06 7.37701e-06 -3.54065e-08
-3.77584e-08 -3.54065e-08 -4.51141e-05
0.00119441 5.59929e-06 -1.26283e-08
5.59929e-06 4.58668e-05 1.70993e-08
-1.26283e-08 1.70993e-08 -1.49799e-05
0.00106023 1.06365e-06 2.19006e-06
1.06365e-06 1.51611e-05 -1.97697e-07
2.19006e-06 -1.97697e-07 -4.34746e-05
0.00118592 -5.31059e-06 8.23975e-07
-5.31059e-06 4.3032e-05 1.89164e-08
8.23975e-07 1.89164e-08 -2.25557e-05
0.00119365 -3.49829e-06 1.03998e-06
-3.49829e-06 4.47692e-05 1.85389e-07
1.03998e-06 1.85389e-07 -1.78773e-05
0.00128133 -1.82999e-05 5.39139e-07
-1.82999e-05 7.07195e-05 -2.88717e-07
5.39139e-07 -2.88717e-07 4.11979e-06
0.00117511 1.01958e-05 9.40888e-07
1.01958e-05 3.8405e-05 2.29029e-07
9.40888e-07 2.29029e-07 -2.10906e-05
0.00125124 4.89112e-06 3.19898e-07
4.89112e-06 5.43374e-05 2.67209e-07
3.19898e-07 2.67209e-07 -8.58611e-06
0.0007175 1.62587e-05 -5.20306e-06
1.62587e-05 -6.07409e-05 3.56514e-07
-5.20306e-06 3.56514e-07 -0.000100283
0.00128398 1.38138e-05 -1.05352e-05
1.38138e-05 0.000203578 9.97559e-07
-1.05352e-05 9.97559e-07 0.000170647
0.000878563 1.50951e-05 -2.82684e-06
1.50951e-05 -8.05045e-05 3.26317e-07
-2.82684e-06 3.26317e-07 -0.000138738
0.00151448 -7.29642e-06 -2.81505e-06
-7.29642e-06 0.000227771 6.5709e-07
-2.81505e-06 6.5709e-07 0.0001748
0.002452 2.67879e-05 -1.09311e-05
2.67879e-05 0.000744345 3.20315e-06
-1.09311e-05 3.20315e-06 0.000759387
0.0015819 2.11144e-05 -7.02895e-06
2.11144e-05 0.000319592 2.34824e-06
-7.02895e-06 2.34824e-06 0.000311193
0.00140967 4.9702e-06 -2.69686e-06
4.9702e-06 0.00022684 1.3047e-06
-2.69686e-06 1.3047e-06 0.000186891
0.00126258 -2.89843e-06 -2.73291e-06
-2.89843e-06 0.000127629 9.64884e-07
-2.73291e-06 9.64884e-07 7.76763e-05
0.00107103 -1.68811e-05 -1.47842e-06
-1.68811e-05 -2.34305e-05 8.19517e-07
-1.47842e-06 8.19517e-07 -8.57616e-05
0.00134127 -1.85427e-05 -9.22825e-07
-1.85427e-05 0.000134428 3.50312e-07
-9.22825e-07 3.50312e-07 7.78828e-05
0.000916516 -1.54099e-05 -1.09048e-06
-1.54099e-05 -3.95249e-05 6.27633e-07
-1.09048e-06 6.27633e-07 -9.76868e-05
0.00117324 -2.53746e-05 -5.21216e-07
-2.53746e-05 4.74913e-05 8.77399e-08
-5.21216e-07 8.77399e-08 -1.38317e-05
0.000898861 1.54475e-05 -4.07034e-06
1.54475e-05 -3.04957e-05 2.7374e-06
-4.07034e-06 2.7374e-06 -3.90465e-05
0.000988423 6.11899e-06 -2.3538e-06
6.11899e-06 5.93509e-06 1.70929e-06
-2.3538e-06 1.70929e-06 -3.08509e-05
0.000958612 1.45548e-05 5.3173e-08
1.45548e-05 -3.57237e-05 3.27487e-08
5.3173e-08 3.27487e-08 -9.42584e-05
0.00131287 1.49017e-06 -4.41432e-07
1.49017e-06 0.000127605 8.1246e-08
-4.41432e-07 8.1246e-08 7.29222e-05
0.00133821 1.60814e-05 -4.79341e-07
1.60814e-05 0.000100872 2.45899e-08
-4.79341e-07 2.45899e-08 3.69918e-05
0.00131024 -1.34707e-05 2.52611e-07
-1.34707e-05 8.15952e-05 -2.2082e-07
2.52611e-07 -2.2082e-07 1.87045e-05
0.000874474 1.67755e-05 -2.73923e-08
1.67755e-05 -3.62626e-05 -4.22107e-08
-2.73923e-08 -4.22107e-08 -4.5962e-05
0.000969935 7.12761e-06 6.38516e-09
7.12761e-06 1.04774e-05 1.68667e-08
6.38516e-09 1.68667e-08 -2.96478e-05
0.000959009 -1.36566e-05 3.40469e-07
-1.36566e-05 -7.21017e-06 -2.62468e-07
3.40469e-07 -2.62468e-07 -6.33369e-05
0.00132874 -1.86934e-05 -2.54918e-07
-1.86934e-05 0.000117901 7.65207e-08
-2.54918e-07 7.65207e-08 5.99394e-05
0.00127332 -1.80999e-05 -1.8115e-07
-1.80999e-05 5.39937e-05 3.03456e-07
-1.8115e-07 3.03456e-07 -1.03292e-05
0.00121771 -2.77214e-05 -3.18488e-07
-2.77214e-05 8.63964e-05 1.00118e-07
-3.18488e-07 1.00118e-07 2.2943e-05
0.00120928 -2.36382e-05 5.95175e-08
-2.36382e-05 5.02622e-05 8.12476e-08
5.95175e-08 8.12476e-08 -1.01398e-05
0.00119662 -2.75176e-05 2.61913e-07
-2.75176e-05 4.72082e-05 2.49482e-07
2.61913e-07 2.49482e-07 -1.46049e-05
0.000980347 6.75099e-06 -2.33941e-08
6.75099e-06 4.80815e-06 -3.88596e-08
-2.33941e-08 -3.88596e-08 -3.24402e-05
0.000998837 -8.64292e-06 -1.31534e-08
-8.64292e-06 5.70834e-06 -7.32116e-08
-1.31534e-08 -7.32116e-08 -4.95703e-05
0.000991243 5.26071e-06 -1.17405e-07
5.26071e-06 5.55842e-06 -2.38193e-08
-1.17405e-07 -2.38193e-08 -3.06581e-05
0.00140019 1.99472e-05 7.18422e-07
1.99472e-05 0.000140561 7.99723e-08
7.18422e-07 7.99723e-08 7.60275e-05
0.00134062 3.35901e-06 1.20021e-06
3.35901e-06 9.29505e-05 3.04242e-08
1.20021e-06 3.04242e-08 2.94626e-05
0.00133383 1.8414e-05 8.32643e-07
1.8414e-05 7.89375e-05 1.69751e-07
8.32643e-07 1.69751e-07 1.12264e-05
0.00133631 -8.43195e-06 3.60738e-07
-8.43195e-06 7.06635e-05 -5.30871e-07
3.60738e-07 -5.30871e-07 4.09841e-06
0.00115344 -2.16083e-05 2.35358e-07
-2.16083e-05 1.39582e-05 -3.88428e-07
2.35358e-07 -3.88428e-07 -4.71753e-05
0.00135224 -1.69532e-05 -5.90862e-07
-1.69532e-05 7.99102e-05 3.14224e-08
-5.90862e-07 3.14224e-08 1.73952e-05
0.000957556 8.27314e-06 2.48019e-06
8.27314e-06 -6.41326e-07 -1.47804e-06
2.48019e-06 -1.47804e-06 -3.89091e-05
0.00122126 -2.49958e-05 -2.10431e-07
-2.49958e-05 4.59427e-05 1.27584e-07
-2.10431e-07 1.27584e-07 -1.40961e-05
0.00104299 -1.13087e-05 1.0336e-06
-1.13087e-05 3.43631e-05 -5.45653e-07
1.0336e-06 -5.45653e-07 -1.97057e-05
0.000954415 -2.51006e-05 9.18621e-07
-2.51006e-05 -2.07858e-05 -1.12358e-06
9.18621e-07 -1.12358e-06 -8.43117e-05
0.00128504 -3.1173e-05 8.62794e-07
-3.1173e-05 0.0001091 1.97186e-07
8.62794e-07 1.97186e-07 4.22328e-05
0.00141106 -3.05878e-05 -5.0965e-07
-3.05878e-05 0.000144501 1.31166e-06
-5.0965e-07 1.31166e-06 8.54914e-05
0.000996861 4.70729e-06 1.72326e-06
4.70729e-06 6.82819e-06 -1.96697e-06
1.72326e-06 -1.96697e-06 -2.84174e-05
0.0010596 -8.68359e-06 1.41712e-06
-8.68359e-06 3.6863e-05 -7.16275e-07
1.41712e-06 -7.16275e-07 -1.71469e-05
0.000909759 -7.29279e-06 1.61346e-06
-7.29279e-06 -3.6066e-05 -1.50543e-06
1.61346e-06 -1.50543e-06 -9.30034e-05
0.00125555 -2.51973e-05 4.29879e-07
-2.51973e-05 0.000129144 1.10782e-07
4.29879e-07 1.10782e-07 6.65688e-05
0.00101858 6.54366e-06 -2.32259e-06
6.54366e-06 9.29183e-06 -8.74656e-07
-2.32259e-06 -8.74656e-07 -4.19291e-05
0.000894248 -1.32032e-05 -3.19117e-06
-1.32032e-05 -4.13002e-05 -3.11569e-06
-3.19117e-06 -3.11569e-06 -4.70697e-05
0.000874301 -1.57904e-05 -3.90472e-06
-1.57904e-05 -4.24092e-05 -2.8094e-06
-3.90472e-06 -2.8094e-06 -4.97102e-05
0.000982825 -7.60261e-06 -2.26804e-06
-7.60261e-06 3.31035e-06 -1.781e-06
-2.26804e-06 -1.781e-06 -3.18773e-05
0.000969915 3.35893e-06 -2.24791e-06
3.35893e-06 5.91485e-06 -1.15582e-06
-2.24791e-06 -1.15582e-06 -4.17443e-05
0.00114298 2.00071e-05 -1.08809e-06
2.00071e-05 4.01353e-05 -5.96056e-07
-1.08809e-06 -5.96056e-07 -1.82797e-05
0.000958884 -1.14014e-05 -2.44381e-06
-1.14014e-05 1.34155e-06 -1.56588e-06
-2.44381e-06 -1.56588e-06 -3.58852e-05
0.00105505 1.0618e-05 -1.14897e-06
1.0618e-05 4.25911e-05 -9.19966e-07
-1.14897e-06 -9.19966e-07 -1.27139e-05
0.00110854 1.91247e-05 -9.99948e-07
1.91247e-05 4.98409e-05 -4.79203e-07
-9.99948e-07 -4.79203e-07 -4.99384e-06
0.00102123 2.47582e-05 -1.24351e-06
2.47582e-05 1.02484e-05 -2.1507e-07
-1.24351e-06 -2.1507e-07 -5.09802e-05
0.000914251 -1.20042e-05 8.95237e-08
-1.20042e-05 -3.45819e-05 -2.1847e-08
8.95237e-08 -2.1847e-08 -3.97276e-05
0.000981878 -9.30108e-06 3.25583e-08
-9.30108e-06 6.10028e-06 -2.41231e-08
3.25583e-08 -2.41231e-08 -2.9529e-05
0.00099407 -7.01531e-06 7.85702e-08
-7.01531e-06 6.57625e-06 -2.67464e-08
7.85702e-08 -2.67464e-08 -2.82154e-05
0.00105529 2.01751e-06 5.8078e-08
2.01751e-06 3.51221e-05 -5.35799e-08
5.8078e-08 -5.35799e-08 -1.79053e-05
0.00116726 1.49267e-05 2.02029e-07
1.49267e-05 3.90595e-05 7.45792e-08
2.02029e-07 7.45792e-08 -1.9879e-05
0.00110864 2.08325e-05 3.68304e-08
2.08325e-05 3.99407e-05 8.65135e-09
3.68304e-08 8.65135e-09 -1.67573e-05
0.00119667 2.35495e-05 6.78799e-10
2.35495e-05 4.85386e-05 1.7726e-07
6.78799e-10 1.7726e-07 -1.42342e-05
0.00105991 5.62329e-06 -6.94604e-08
5.62329e-06 4.28381e-05 2.1595e-08
-6.94604e-08 2.1595e-08 -1.08324e-05
0.00119608 2.66883e-05 -2.54742e-07
2.66883e-05 8.04337e-05 -2.85789e-07
-2.54742e-07 -2.85789e-07 2.0793e-05
0.00111936 2.51633e-05 1.18834e-07
2.51633e-05 6.85097e-05 -2.26437e-07
1.18834e-07 -2.26437e-07 4.86621e-06
0.00107063 2.75709e-05 -8.13486e-07
2.75709e-05 2.85341e-05 -6.39269e-08
-8.13486e-07 -6.39269e-08 -3.44738e-05
0.000931637 -1.08083e-05 2.67791e-06
-1.08083e-05 -2.91398e-05 3.22373e-06
2.67791e-06 3.22373e-06 -3.3651e-05
0.001002 -6.19645e-06 1.90006e-06
-6.19645e-06 8.58832e-06 1.92697e-06
1.90006e-06 1.92697e-06 -2.56689e-05
0.00106704 4.77434e-06 1.38687e-06
4.77434e-06 4.06718e-05 7.84598e-07
1.38687e-06 7.84598e-07 -1.19127e-05
0.00105664 1.28273e-06 1.24968e-06
1.28273e-06 3.5641e-05 9.96529e-07
1.24968e-06 9.96529e-07 -1.76383e-05
0.00108729 1.58024e-05 8.87895e-07
1.58024e-05 4.95958e-05 1.90999e-07
8.87895e-07 1.90999e-07 -1.34396e-05
0.00119491 1.46325e-05 7.49641e-07
1.46325e-05 3.47097e-05 7.20378e-08
7.49641e-07 7.20378e-08 -2.72272e-05
0.00116603 2.65451e-05 5.21264e-07
2.65451e-05 5.32007e-05 7.19864e-07
5.21264e-07 7.19864e-07 -8.46971e-06
0.00123845 2.43952e-05 -1.23578e-07
2.43952e-05 6.17675e-05 4.94847e-07
-1.23578e-07 4.94847e-07 -2.65007e-06
0.00112629 2.23238e-05 1.17028e-06
2.23238e-05 7.21116e-05 1.10485e-06
1.17028e-06 1.10485e-06 8.97967e-06
0.00116256 2.92417e-05 7.51991e-07
2.92417e-05 5.84178e-05 4.4182e-07
7.51991e-07 4.4182e-07 -4.74673e-06
0.000926771 2.70566e-05 9.53621e-07
2.70566e-05 -3.10181e-05 -1.77528e-07
9.53621e-07 -1.77528e-07 -0.000101656
0.00100636 -4.78546e-06 1.46226e-06
-4.78546e-06 7.76918e-06 2.0429e-06
1.46226e-06 2.0429e-06 -2.51549e-05
0.00106452 5.02272e-06 6.72702e-07
5.02272e-06 3.88608e-05 1.24097e-06
6.72702e-07 1.24097e-06 -1.28703e-05
0.00100768 -4.12938e-06 9.16421e-07
-4.12938e-06 5.34149e-06 2.01137e-06
9.16421e-07 2.01137e-06 -2.61812e-05
0.00100776 -4.76406e-06 7.11992e-08
-4.76406e-06 6.9017e-06 4.35792e-09
7.11992e-08 4.35792e-09 -2.523e-05
0.00156113 -9.81315e-06 1.85135e-06
-9.81315e-06 0.000273992 2.04707e-06
1.85135e-06 2.04707e-06 0.000273895
0.00124888 -1.03052e-05 3.58662e-07
-1.03052e-05 0.000123785 -1.54012e-09
3.58662e-07 -1.54012e-09 0.000121487
0.00119162 -1.14415e-05 8.32784e-06
-1.14415e-05 9.49688e-05 6.60534e-06
8.32784e-06 6.60534e-06 0.000109118
0.00246158 -1.65007e-05 2.3567e-07
-1.65007e-05 0.000722813 -4.40044e-08
2.3567e-07 -4.40044e-08 0.000742455
0.00250374 -1.86287e-05 -9.43313e-06
-1.86287e-05 0.000747014 -3.89316e-06
-9.43313e-06 -3.89316e-06 0.00076587
0.000899576 1.1843e-05 2.75637e-06
1.1843e-05 -4.10101e-05 -3.15743e-06
2.75637e-06 -3.15743e-06 -4.6873e-05
0.00254987 2.0609e-05 1.00833e-05
2.0609e-05 0.000773919 -3.78293e-06
1.00833e-05 -3.78293e-06 0.000791662
0.0009028 1.29021e-05 -9.52333e-08
1.29021e-05 -3.63991e-05 -2.41954e-08
-9.52333e-08 -2.41954e-08 -4.31585e-05
0.00252908 2.26636e-05 -1.73149e-07
2.26636e-05 0.000768145 -6.2327e-08
-1.73149e-07 -6.2327e-08 0.000785183
0.000905624 1.41137e-05 -3.75852e-06
1.41137e-05 -3.14939e-05 2.92193e-06
-3.75852e-06 2.92193e-06 -3.91547e-05
0.00246729 2.47233e-05 -1.0807e-05
2.47233e-05 0.000744172 3.41289e-06
-1.0807e-05 3.41289e-06 0.000760415
0.00103681 4.92224e-06 -2.24884e-06
4.92224e-06 1.37871e-05 -6.92938e-07
-2.24884e-06 -6.92938e-07 -3.87273e-05
0.0010469 -4.72861e-06 -2.09191e-06
-4.72861e-06 1.65569e-05 -4.84044e-07
-2.09191e-06 -4.84044e-07 -3.88946e-05
0.00119413 3.63012e-06 -9.3906e-07
3.63012e-06 4.61078e-05 -2.48395e-07
-9.3906e-07 -2.48395e-07 -1.47848e-05
0.00122069 -1.48586e-05 -1.05124e-06
-1.48586e-05 5.87303e-05 -1.43504e-07
-1.05124e-06 -1.43504e-07 -5.82181e-06
0.00106859 -4.44179e-06 -2.1933e-06
-4.44179e-06 2.16163e-05 -3.10183e-07
-2.1933e-06 -3.10183e-07 -3.69064e-05
0.000702905 5.99079e-06 -5.23719e-06
5.99079e-06 -6.54557e-05 -5.76588e-08
-5.23719e-06 -5.76588e-08 -0.000106044
0.00106049 2.01418e-06 3.41331e-08
2.01418e-06 1.52804e-05 -9.56486e-08
3.41331e-08 -9.56486e-08 -4.33411e-05
0.00120098 -4.65374e-06 -4.37678e-08
-4.65374e-06 5.00933e-05 -1.64205e-08
-4.37678e-08 -1.64205e-08 -1.55355e-05
0.00119813 -7.10269e-06 3.23271e-08
-7.10269e-06 4.70331e-05 -4.21409e-08
3.23271e-08 -4.21409e-08 -1.56609e-05
0.00128082 -1.8935e-05 -3.62463e-08
-1.8935e-05 7.02184e-05 -6.16885e-08
-3.62463e-08 -6.16885e-08 3.63686e-06
0.00118218 1.03052e-05 -4.6443e-08
1.03052e-05 4.1812e-05 1.79888e-08
-4.6443e-08 1.79888e-08 -1.77278e-05
0.00125477 4.02232e-06 9.78216e-10
4.02232e-06 5.64804e-05 8.98648e-08
9.78216e-10 8.98648e-08 -6.44766e-06
0.00121339 7.55384e-06 1.08754e-06
7.55384e-06 5.41919e-05 -1.39628e-07
1.08754e-06 -1.39628e-07 -1.17398e-05
0.00123509 -8.71034e-06 2.30594e-07
-8.71034e-06 5.55645e-05 -1.65029e-07
2.30594e-07 -1.65029e-07 -1.14667e-05
0.00125004 -5.53658e-06 5.1451e-07
-5.53658e-06 5.22822e-05 -5.05309e-08
5.1451e-07 -5.05309e-08 -1.27667e-05
0.00134636 -2.1169e-05 8.70994e-07
-2.1169e-05 9.06322e-05 -3.29574e-07
8.70994e-07 -3.29574e-07 2.41357e-05
0.00123599 7.4577e-06 2.48685e-07
7.4577e-06 4.97419e-05 2.99554e-08
2.48685e-07 2.99554e-08 -1.18179e-05
0.00133711 -3.30197e-06 -6.04342e-07
-3.30197e-06 8.34866e-05 5.03023e-07
-6.04342e-07 5.03023e-07 2.331e-05
0.000881486 1.48616e-05 -2.24959e-06
1.48616e-05 -7.34781e-05 1.8012e-07
-2.24959e-06 1.8012e-07 -0.000132554
0.0013073 -2.45946e-06 -2.88749e-06
-2.45946e-06 0.000124499 4.0262e-07
-2.88749e-06 4.0262e-07 6.99341e-05
0.00125222 2.08337e-05 -1.67347e-06
2.08337e-05 5.97697e-05 -5.07459e-08
-1.67347e-06 -5.07459e-08 -4.31416e-06
0.0014689 -1.46632e-05 -9.72798e-07
-1.46632e-05 0.000159343 1.03512e-07
-9.72798e-07 1.03512e-07 9.73354e-05
0.00089473 1.6878e-05 -4.2874e-06
1.6878e-05 -2.62451e-05 2.54962e-06
-4.2874e-06 2.54962e-06 -3.60662e-05
0.000990178 6.09101e-06 -2.32081e-06
6.09101e-06 1.90399e-05 1.33042e-06
-2.32081e-06 1.33042e-06 -2.09663e-05
0.00105042 -1.41451e-05 -6.86921e-07
-1.41451e-05 3.74304e-05 5.27299e-07
-6.86921e-07 5.27299e-07 -1.8159e-05
0.00138576 -1.90484e-05 -1.10587e-06
-1.90484e-05 0.000144575 5.00957e-07
-1.10587e-06 5.00957e-07 8.67284e-05
0.00117239 -1.65939e-05 -3.41406e-07
-1.65939e-05 4.74841e-06 7.35967e-07
-3.41406e-07 7.35967e-07 -5.95835e-05
0.00120819 -2.35306e-05 -2.86308e-07
-2.35306e-05 4.9654e-05 2.31496e-07
-2.86308e-07 2.31496e-07 -1.07027e-05
0.00104237 -2.58491e-05 -1.02689e-06
-2.58491e-05 2.71812e-06 5.92107e-07
-1.02689e-06 5.92107e-07 -6.13573e-05
0.0011363 -2.67377e-05 4.11607e-08
-2.67377e-05 1.79716e-05 -2.94745e-07
4.11607e-08 -2.94745e-07 -4.38058e-05
0.000988461 6.98e-06 -2.43511e-06
6.98e-06 8.73492e-06 1.52168e-06
-2.43511e-06 1.52168e-06 -2.84873e-05
0.000935052 -8.01719e-06 -1.44657e-06
-8.01719e-06 -2.65339e-05 7.86316e-07
-1.44657e-06 7.86316e-07 -8.20825e-05
0.000991783 5.63943e-06 -2.09593e-06
5.63943e-06 6.12247e-06 1.87998e-06
-2.09593e-06 1.87998e-06 -3.01232e-05
0.00128506 1.95831e-05 -4.28635e-07
1.95831e-05 8.53106e-05 8.79817e-08
-4.28635e-07 8.79817e-08 2.03287e-05
0.00134185 -2.30682e-06 -1.82886e-07
-2.30682e-06 9.3384e-05 2.90785e-08
-1.82886e-07 2.90785e-08 2.99718e-05
0.00127993 2.0618e-05 -3.17174e-07
2.0618e-05 5.14444e-05 -1.2987e-07
-3.17174e-07 -1.2987e-07 -1.68167e-05
0.00137547 -7.23107e-06 -1.16615e-08
-7.23107e-06 8.95542e-05 -2.54278e-07
-1.16615e-08 -2.54278e-07 2.32157e-05
0.000973362 7.91012e-06 8.67865e-09
7.91012e-06 6.46229e-06 -1.76316e-08
8.67865e-09 -1.76316e-08 -3.17346e-05
0.00106191 -1.11225e-05 6.75843e-08
-1.11225e-05 4.26489e-05 1.85529e-08
6.75843e-08 1.85529e-08 -1.13672e-05
0.0010427 -2.58274e-05 1.72085e-07
-2.58274e-05 2.28997e-05 -2.83892e-07
1.72085e-07 -2.83892e-07 -4.01323e-05
0.00126297 -2.2403e-05 -1.1743e-08
-2.2403e-05 6.68332e-05 -1.10653e-07
-1.1743e-08 -1.10653e-07 5.80953e-06
0.00128405 -1.67111e-05 1.57963e-07
-1.67111e-05 4.67507e-05 4.59087e-07
1.57963e-07 4.59087e-07 -1.51379e-05
0.00118385 -3.03233e-05 6.00701e-08
-3.03233e-05 6.18474e-05 1.08559e-07
6.00701e-08 1.08559e-07 -5.84948e-06
0.00122858 -2.45963e-05 4.71004e-08
-2.45963e-05 4.90118e-05 1.24319e-07
4.71004e-08 1.24319e-07 -1.09277e-05
0.00131997 -2.94721e-05 4.36115e-07
-2.94721e-05 0.000100375 3.77898e-07
4.36115e-07 3.77898e-07 4.21466e-05
0.00106358 -8.99703e-06 5.41558e-08
-8.99703e-06 3.79667e-05 -5.47048e-08
5.41558e-08 -5.47048e-08 -1.58728e-05
0.00114734 -2.40673e-05 -3.36087e-07
-2.40673e-05 7.56351e-05 1.97334e-07
-3.36087e-07 1.97334e-07 1.2614e-05
0.000993741 4.62823e-06 -7.27945e-08
4.62823e-06 5.60147e-06 8.93133e-10
-7.27945e-08 8.93133e-10 -2.96916e-05
0.000915196 -7.14948e-06 3.70168e-07
-7.14948e-06 -3.38846e-05 -3.58977e-07
3.70168e-07 -3.58977e-07 -9.0812e-05
0.00130164 2.15803e-05 1.02246e-06
2.15803e-05 7.64531e-05 2.64491e-07
1.02246e-06 2.64491e-07 7.66189e-06
0.00147265 5.34277e-06 5.90683e-07
5.34277e-06 0.000127958 5.66066e-08
5.90683e-07 5.66066e-08 6.03688e-05
0.00121277 2.14791e-05 3.45351e-07
2.14791e-05 1.14472e-05 2.92251e-07
3.45351e-07 2.92251e-07 -5.9465e-05
0.00129109 -3.43326e-06 -3.62324e-07
-3.43326e-06 3.57943e-05 -9.52227e-07
-3.62324e-07 -9.52227e-07 -2.95809e-05
0.00122615 -2.19272e-05 -6.22405e-07
-2.19272e-05 3.7532e-05 2.4137e-08
-6.22405e-07 2.4137e-08 -2.18693e-05
0.00137433 -1.50612e-05 -1.08411e-07
-1.50612e-05 7.8253e-05 -9.9698e-08
-1.08411e-07 -9.9698e-08 2.01837e-05
0.00105065 -8.61099e-06 1.22571e-06
-8.61099e-06 3.53682e-05 -5.57718e-07
1.22571e-06 -5.57718e-07 -1.80881e-05
0.00120832 -2.44217e-05 -1.18966e-06
-2.44217e-05 3.26548e-05 5.14115e-07
-1.18966e-06 5.14115e-07 -2.21228e-05
0.000952269 -2.40823e-05 6.39246e-07
-2.40823e-05 -1.67806e-05 -7.30388e-07
6.39246e-07 -7.30388e-07 -7.7802e-05
0.00113809 -2.99929e-05 9.12054e-07
-2.99929e-05 6.46349e-05 -9.52249e-07
9.12054e-07 -9.52249e-07 -5.00163e-06
0.00123254 -3.30546e-05 1.10481e-06
-3.30546e-05 7.92471e-05 1.3993e-06
1.10481e-06 1.3993e-06 9.76775e-06
0.0014376 -3.10788e-05 3.84259e-08
-3.10788e-05 0.000147918 7.71002e-07
3.84259e-08 7.71002e-07 9.12921e-05
0.000999172 6.24565e-06 1.26425e-06
6.24565e-06 7.61025e-06 -1.9757e-06
1.26425e-06 -1.9757e-06 -2.68194e-05
0.000879476 -7.00176e-06 1.4381e-06
-7.00176e-06 -4.98253e-05 -1.7927e-06
1.4381e-06 -1.7927e-06 -0.000106863
0.00111017 -2.39929e-05 7.59878e-07
-2.39929e-05 5.48735e-05 -2.06935e-08
7.59878e-07 -2.06935e-08 -5.97057e-06
0.0011563 -2.3436e-05 8.9392e-07
-2.3436e-05 8.56843e-05 -1.9286e-07
8.9392e-07 -1.9286e-07 1.91488e-05
0.00123038 -2.84767e-05 4.34148e-07
-2.84767e-05 0.000111158 2.07262e-07
4.34148e-07 2.07262e-07 4.4951e-05
0.00090377 -1.19548e-05 -2.83144e-06
-1.19548e-05 -3.98689e-05 -3.20871e-06
-2.83144e-06 -3.20871e-06 -4.49328e-05
0.00118723 1.53922e-05 -8.73361e-07
1.53922e-05 4.82977e-05 -2.43521e-07
-8.73361e-07 -2.43521e-07 -1.07029e-05
0.000989009 -6.73115e-06 -2.0518e-06
-6.73115e-06 4.07283e-06 -1.90918e-06
-2.0518e-06 -1.90918e-06 -3.07097e-05
0.000972293 -9.23559e-06 -2.45385e-06
-9.23559e-06 1.57021e-06 -1.62795e-06
-2.45385e-06 -1.62795e-06 -3.40702e-05
0.00105282 1.54714e-06 -1.27308e-06
1.54714e-06 3.4361e-05 -9.60371e-07
-1.27308e-06 -9.60371e-07 -1.87628e-05
0.00109904 2.11121e-05 -1.01713e-06
2.11121e-05 3.56177e-05 -7.29924e-07
-1.01713e-06 -7.29924e-07 -2.10647e-05
0.00120117 2.35603e-05 -5.41216e-07
2.35603e-05 5.06231e-05 -2.29765e-07
-5.41216e-07 -2.29765e-07 -1.21856e-05
0.00104389 5.4541e-06 -1.21548e-06
5.4541e-06 3.59744e-05 -8.07292e-07
-1.21548e-06 -8.07292e-07 -1.77262e-05
0.00112815 2.56619e-05 -9.26936e-07
2.56619e-05 7.23851e-05 -7.53997e-07
-9.26936e-07 -7.53997e-07 8.54721e-06
0.0012867 2.76173e-05 -9.22089e-07
2.76173e-05 0.000124506 -6.85708e-07
-9.22089e-07 -6.85708e-07 6.52339e-05
0.00107521 2.73942e-05 -1.82991e-06
2.73942e-05 3.23657e-05 2.52965e-07
-1.82991e-06 2.52965e-07 -2.96136e-05
0.00092252 -1.0773e-05 9.36244e-08
-1.0773e-05 -3.36321e-05 -1.75856e-08
9.36244e-08 -1.75856e-08 -3.8083e-05
0.00099893 -5.79833e-06 5.74654e-08
-5.79833e-06 6.9692e-06 -1.6456e-08
5.74654e-08 -1.6456e-08 -2.72768e-05
0.00105999 3.79508e-06 -2.57365e-08
3.79508e-06 3.80446e-05 -1.8624e-08
-2.57365e-08 -1.8624e-08 -1.46341e-05
0.001055 9.67366e-07 1.89219e-08
9.67366e-07 3.52047e-05 -2.2716e-08
1.89219e-08 -2.2716e-08 -1.81642e-05
0.00105072 1.49923e-05 6.48419e-08
1.49923e-05 3.16775e-05 -9.73333e-08
6.48419e-08 -9.73333e-08 -3.14473e-05
0.00122104 1.51923e-05 3.02708e-07
1.51923e-05 4.64225e-05 8.05755e-08
3.02708e-07 8.05755e-08 -1.55832e-05
0.00116183 2.66778e-05 6.57803e-08
2.66778e-05 5.14774e-05 2.16226e-08
6.57803e-08 2.16226e-08 -1.02191e-05
0.00121647 2.51238e-05 2.84231e-07
2.51238e-05 5.14114e-05 3.07014e-07
2.84231e-07 3.07014e-07 -1.32982e-05
0.00111215 2.294e-05 3.38823e-07
2.294e-05 6.58159e-05 3.28356e-07
3.38823e-07 3.28356e-07 2.69259e-06
0.00121205 2.94432e-05 1.31144e-07
2.94432e-05 8.26566e-05 -2.36011e-07
1.31144e-07 -2.36011e-07 1.97684e-05
0.00103493 2.81917e-05 -5.4281e-07
2.81917e-05 1.92899e-05 -3.48371e-07
-5.4281e-07 -3.48371e-07 -5.06639e-05
0.00100431 -5.04937e-06 1.72993e-06
-5.04937e-06 8.10411e-06 1.99692e-06
1.72993e-06 1.99692e-06 -2.55269e-05
0.00105956 2.32117e-06 1.19284e-06
2.32117e-06 3.65836e-05 1.09796e-06
1.19284e-06 1.09796e-06 -1.68123e-05
0.00105816 1.93781e-05 7.23492e-07
1.93781e-05 3.37153e-05 2.78231e-07
7.23492e-07 2.78231e-07 -2.86706e-05
0.001091 1.23679e-05 7.35876e-07
1.23679e-05 5.35174e-05 3.6148e-07
7.35876e-07 3.6148e-07 -1.06207e-05
0.00118826 2.43807e-05 2.05832e-07
2.43807e-05 9.87255e-05 -2.41987e-07
2.05832e-07 -2.41987e-07 3.0904e-05
0.0012106 1.27906e-05 -4.33152e-07
1.27906e-05 3.16644e-05 -6.60766e-07
-4.33152e-07 -6.60766e-07 -2.97432e-05
0.00118904 3.00557e-05 5.52047e-07
3.00557e-05 5.84762e-05 6.31318e-07
5.52047e-07 6.31318e-07 -6.09684e-06
0.00107887 2.8438e-05 -3.74271e-07
2.8438e-05 -1.29139e-05 -2.15351e-07
-3.74271e-07 -2.15351e-07 -7.51236e-05
0.0011169 2.87966e-05 6.82895e-07
2.87966e-05 6.7608e-05 1.2559e-06
6.82895e-07 1.2559e-06 -3.5845e-06
0.00119729 3.20675e-05 1.54903e-06
3.20675e-05 8.20203e-05 1.55722e-07
1.54903e-06 1.55722e-07 9.13747e-06
0.0010048 -4.95373e-06 9.11331e-08
-4.95373e-06 6.83872e-06 5.6372e-10
9.11331e-08 5.6372e-10 -2.60401e-05
0.000896261 2.98232e-06 1.09358e-06
2.98232e-06 -4.37294e-05 1.7223e-06
1.09358e-06 1.7223e-06 -9.77083e-05
0.000975014 3.7744e-06 -1.71864e-08
3.7744e-06 -4.68625e-06 2.75885e-08
-1.71864e-08 2.75885e-08 -5.70888e-05
0.00125591 1.48922e-05 2.8431e-07
1.48922e-05 0.000140657 2.89204e-07
2.8431e-07 2.89204e-07 7.69329e-05
0.00106534 4.73808e-06 5.31069e-07
4.73808e-06 3.99098e-05 1.21206e-06
5.31069e-07 1.21206e-06 -1.11337e-05
0.00101044 -3.2751e-06 6.91835e-07
-3.2751e-06 5.06226e-06 1.98093e-06
6.91835e-07 1.98093e-06 -2.60584e-05
0.0010125 -4.17711e-06 6.22238e-08
-4.17711e-06 7.69414e-06 2.03606e-09
6.22238e-08 2.03606e-09 -2.38223e-05
0.0015612 -8.216e-06 1.49764e-06
-8.216e-06 0.000270795 2.05131e-06
1.49764e-06 2.05131e-06 0.000271331
0.00100926 -4.83278e-06 -1.01494e-06
-4.83278e-06 7.52253e-06 -2.01874e-06
-1.01494e-06 -2.01874e-06 -2.45765e-05
0.00157816 -9.43485e-06 -1.3587e-06
-9.43485e-06 0.000282458 -1.27901e-06
-1.3587e-06 -1.27901e-06 0.000282298
0.00121219 -9.84044e-06 7.30592e-06
-9.84044e-06 0.000100687 6.68416e-06
7.30592e-06 6.68416e-06 0.000115514
0.00156705 -1.05609e-05 -4.24856e-06
-1.05609e-05 0.000280216 -3.23755e-06
-4.24856e-06 -3.23755e-06 0.000279476
0.00179839 -1.29614e-05 5.28179e-06
-1.29614e-05 0.000393108 2.43803e-06
5.28179e-06 2.43803e-06 0.000410461
0.00248181 -1.65334e-05 -8.65149e-06
-1.65334e-05 0.000732537 -3.99095e-06
-8.65149e-06 -3.99095e-06 0.000752131
0.000909185 1.09968e-05 2.2871e-06
1.09968e-05 -3.94203e-05 -3.19318e-06
2.2871e-06 -3.19318e-06 -4.43153e-05
0.000912213 1.18709e-05 -9.75567e-08
1.18709e-05 -3.48634e-05 -1.68732e-08
-9.75567e-08 -1.68732e-08 -4.07993e-05
0.00251434 1.8512e-05 9.37706e-06
1.8512e-05 0.000752574 -3.87382e-06
9.37706e-06 -3.87382e-06 0.000771176
0.00251861 2.05547e-05 -1.79952e-07
2.05547e-05 0.000758804 -5.52258e-08
-1.79952e-07 -5.52258e-08 0.000776631
0.000915238 1.29487e-05 -3.37532e-06
1.29487e-05 -3.01604e-05 3.05901e-06
-3.37532e-06 3.05901e-06 -3.70179e-05
0.00248379 2.2612e-05 -1.06106e-05
2.2612e-05 0.000746432 3.6064e-06
-1.06106e-05 3.6064e-06 0.000763575
0.00119009 1.05457e-05 -1.0164e-06
1.05457e-05 4.56112e-05 -2.06308e-07
-1.0164e-06 -2.06308e-07 -1.39744e-05
0.00120297 -7.1965e-06 -9.70567e-07
-7.1965e-06 4.94015e-05 -2.6951e-07
-9.70567e-07 -2.6951e-07 -1.33192e-05
0.00125677 4.11728e-06 -2.18825e-07
4.11728e-06 5.78707e-05 -8.07793e-08
-2.18825e-07 -8.07793e-08 -5.04735e-06
0.00127478 -1.95744e-05 -5.41346e-07
-1.95744e-05 6.71405e-05 1.6776e-07
-5.41346e-07 1.6776e-07 5.75472e-07
0.00121933 -2.52633e-06 -9.59273e-07
-2.52633e-06 5.86957e-05 -5.31793e-08
-9.59273e-07 -5.31793e-08 -6.98278e-06
0.00105986 5.99339e-06 -2.13095e-06
5.99339e-06 1.49606e-05 1.56728e-08
-2.13095e-06 1.56728e-08 -4.36252e-05
0.00121163 1.09611e-05 6.07778e-08
1.09611e-05 5.36583e-05 -9.17778e-08
6.07778e-08 -9.17778e-08 -1.22738e-05
0.00123694 -1.50315e-05 -1.90326e-08
-1.50315e-05 5.68231e-05 -2.25327e-08
-1.90326e-08 -2.25327e-08 -1.03041e-05
0.00126095 -6.84287e-06 6.45158e-08
-6.84287e-06 5.75517e-05 -1.32443e-07
6.45158e-08 -1.32443e-07 -7.49621e-06
0.00134944 -2.15333e-05 1.34082e-08
-2.15333e-05 9.13223e-05 -1.70599e-07
1.34082e-08 -1.70599e-07 2.46367e-05
0.00123871 8.00594e-06 -5.07021e-08
8.00594e-06 5.11471e-05 6.51441e-08
-5.07021e-08 6.51441e-08 -1.04958e-05
0.00131664 -3.49485e-06 5.06372e-09
-3.49485e-06 7.32202e-05 3.84265e-07
5.06372e-09 3.84265e-07 1.3127e-05
0.00130537 3.22821e-06 5.75885e-07
3.22821e-06 8.83516e-05 1.20141e-07
5.75885e-07 1.20141e-07 2.05062e-05
0.00120047 -7.64833e-06 4.02062e-07
-7.64833e-06 4.00027e-05 -5.45609e-07
4.02062e-07 -5.45609e-07 -2.71146e-05
0.00120204 -1.14247e-05 3.98461e-07
-1.14247e-05 1.48772e-05 5.77851e-07
3.98461e-07 5.77851e-07 -4.91154e-05
0.00147812 -2.50676e-05 4.95603e-07
-2.50676e-05 0.000150341 -2.70002e-07
4.95603e-07 -2.70002e-07 8.28779e-05
0.0012153 3.90366e-06 -5.93593e-07
3.90366e-06 2.62759e-05 -1.5949e-07
-5.93593e-07 -1.5949e-07 -3.27735e-05
0.00146003 -9.58324e-06 -3.69251e-07
-9.58324e-06 0.000131597 2.11273e-07
-3.69251e-07 2.11273e-07 7.46952e-05
0.00116314 1.91731e-05 -1.49156e-06
1.91731e-05 2.69223e-05 2.80611e-08
-1.49156e-06 2.80611e-08 -3.8513e-05
0.00134191 -4.62337e-06 -1.56817e-06
-4.62337e-06 9.33673e-05 1.34627e-07
-1.56817e-06 1.34627e-07 2.99586e-05
0.00122899 2.09579e-05 -1.13444e-06
2.09579e-05 2.53011e-05 -2.95165e-07
-1.13444e-06 -2.95165e-07 -4.34806e-05
0.00141259 -6.48442e-06 -5.22956e-07
-6.48442e-06 0.000107461 5.53901e-08
-5.22956e-07 5.53901e-08 4.13645e-05
0.000988175 7.4962e-06 -2.38798e-06
7.4962e-06 1.3117e-05 1.36585e-06
-2.38798e-06 1.36585e-06 -2.50125e-05
0.00108022 -1.11521e-05 -1.06545e-06
-1.11521e-05 5.06442e-05 6.94813e-07
-1.06545e-06 6.94813e-07 -3.32463e-06
0.00112423 -2.64575e-05 -4.15708e-07
-2.64575e-05 6.34902e-05 5.4216e-07
-4.15708e-07 5.4216e-07 9.46978e-07
0.0013728 -2.31445e-05 -1.82273e-07
-2.31445e-05 0.000119846 1.77554e-07
-1.82273e-07 1.77554e-07 5.89345e-05
0.00121775 -1.64499e-05 5.31204e-07
-1.64499e-05 1.44793e-05 6.45471e-07
5.31204e-07 6.45471e-07 -4.67821e-05
0.00123665 -2.42116e-05 3.2586e-07
-2.42116e-05 5.24374e-05 1.03032e-07
3.2586e-07 1.03032e-07 -7.40301e-06
0.00108322 -2.94891e-05 -8.85324e-07
-2.94891e-05 1.48854e-05 2.56138e-07
-8.85324e-07 2.56138e-07 -5.36463e-05
0.00122704 -2.83577e-05 6.86505e-07
-2.83577e-05 5.53819e-05 -1.54538e-06
6.86505e-07 -1.54538e-06 -2.06237e-06
0.00106654 -9.29582e-06 -1.33142e-06
-9.29582e-06 3.8581e-05 6.15067e-07
-1.33142e-06 6.15067e-07 -1.50852e-05
0.0010389 -2.29388e-05 -1.28518e-06
-2.29388e-05 2.20321e-05 3.12939e-07
-1.28518e-06 3.12939e-07 -4.14365e-05
0.000991746 5.13738e-06 -1.81121e-06
5.13738e-06 4.91801e-06 1.9576e-06
-1.81121e-06 1.9576e-06 -3.04262e-05
0.000920904 -7.08296e-06 -9.31423e-07
-7.08296e-06 -3.15422e-05 7.78655e-07
-9.31423e-07 7.78655e-07 -8.84702e-05
0.00129206 2.18253e-05 -3.59346e-08
2.18253e-05 7.25826e-05 -4.39377e-08
-3.59346e-08 -4.39377e-08 3.90205e-06
0.00145134 7.10081e-06 -1.48718e-07
7.10081e-06 0.000118748 7.47242e-08
-1.48718e-07 7.47242e-08 5.12796e-05
0.00127835 2.2232e-05 -4.23567e-07
2.2232e-05 4.03752e-05 -1.95392e-07
-4.23567e-07 -1.95392e-07 -3.11792e-05
0.00134013 -4.07358e-06 -1.19287e-07
-4.07358e-06 5.94225e-05 -1.44938e-07
-1.19287e-07 -1.44938e-07 -5.89143e-06
0.00106112 -9.02839e-06 6.53337e-08
-9.02839e-06 3.95132e-05 -3.66501e-08
6.53337e-08 -3.66501e-08 -1.38233e-05
0.00101621 -2.41184e-05 2.17848e-07
-2.41184e-05 1.43842e-05 -1.27142e-07
2.17848e-07 -1.27142e-07 -4.61731e-05
0.00114793 -3.00774e-05 -6.73613e-09
-3.00774e-05 7.03169e-05 -1.05573e-07
-6.73613e-09 -1.05573e-07 4.97081e-07
0.0012924 -2.21603e-05 -2.17953e-07
-2.21603e-05 6.91504e-05 -5.10975e-08
-2.17953e-07 -5.10975e-08 9.31e-06
0.00131032 -1.54508e-05 3.00738e-07
-1.54508e-05 5.10061e-05 4.12102e-07
3.00738e-07 4.12102e-07 -6.09637e-06
0.00124346 -3.30824e-05 -2.79352e-08
-3.30824e-05 8.57242e-05 3.64375e-07
-2.79352e-08 3.64375e-07 1.56527e-05
0.0012265 -2.42298e-05 1.45463e-08
-2.42298e-05 4.15547e-05 3.08031e-07
1.45463e-08 3.08031e-07 -1.32155e-05
0.00128769 -2.98095e-05 3.43557e-07
-2.98095e-05 7.58588e-05 -1.31496e-06
3.43557e-07 -1.31496e-06 2.11359e-05
0.00111646 -2.38838e-05 6.82225e-08
-2.38838e-05 5.78293e-05 -2.16719e-08
6.82225e-08 -2.16719e-08 -2.98843e-06
0.00116956 -2.78605e-05 -1.61046e-07
-2.78605e-05 8.05554e-05 8.21135e-08
-1.61046e-07 8.21135e-08 1.41994e-05
0.0011534 -2.37187e-05 -4.69224e-08
-2.37187e-05 8.42293e-05 2.15276e-07
-4.69224e-08 2.15276e-07 1.75239e-05
0.000857082 6.68195e-06 -2.00762e-07
6.68195e-06 -6.20432e-05 -1.63436e-08
-2.00762e-07 -1.63436e-08 -9.73379e-05
0.000895904 -6.62874e-06 3.29584e-07
-6.62874e-06 -4.22324e-05 -4.41987e-07
3.29584e-07 -4.41987e-07 -9.91273e-05
0.00131873 2.55048e-05 4.08862e-07
2.55048e-05 7.90831e-05 6.16815e-07
4.08862e-07 6.16815e-07 8.58474e-06
0.00137122 1.77165e-05 3.18498e-07
1.77165e-05 6.63155e-05 3.60181e-07
3.18498e-07 3.60181e-07 -4.64954e-06
0.00135238 -4.82679e-06 -1.72364e-07
-4.82679e-06 5.46466e-05 -1.33461e-06
-1.72364e-07 -1.33461e-06 -6.15935e-06
0.00123848 -1.80528e-05 -6.9004e-07
-1.80528e-05 2.53752e-05 -3.61357e-07
-6.9004e-07 -3.61357e-07 -2.8196e-05
0.00110525 -2.45889e-05 6.0513e-07
-2.45889e-05 5.36746e-05 -8.8115e-08
6.0513e-07 -8.8115e-08 -5.80994e-06
0.00138078 -2.70641e-05 -4.93919e-07
-2.70641e-05 9.73952e-05 5.0976e-07
-4.93919e-07 5.0976e-07 4.99815e-05
0.000890301 -2.58036e-05 5.5248e-07
-2.58036e-05 -4.27838e-05 -1.17924e-06
5.5248e-07 -1.17924e-06 -0.000109276
0.00118701 -3.31864e-05 1.34575e-06
-3.31864e-05 8.56026e-05 -7.49458e-07
1.34575e-06 -7.49458e-07 8.74815e-06
0.00127865 -3.46349e-05 1.25472e-06
-3.46349e-05 8.97925e-05 1.57735e-06
1.25472e-06 1.57735e-06 1.95201e-05
0.000733906 7.88078e-06 1.11646e-06
7.88078e-06 -0.000124033 -2.62766e-06
1.11646e-06 -2.62766e-06 -0.000159048
0.00114698 -3.97353e-06 9.2724e-07
-3.97353e-06 8.23737e-05 -1.13185e-06
9.2724e-07 -1.13185e-06 2.82104e-05
0.00111352 -2.2534e-05 7.55386e-07
-2.2534e-05 6.95363e-05 -5.6042e-07
7.55386e-07 -5.6042e-07 8.81956e-07
0.00113937 -2.73011e-05 5.44526e-07
-2.73011e-05 6.38304e-05 3.09718e-08
5.44526e-07 3.09718e-08 -1.41819e-07
0.0012066 -2.88566e-05 6.37222e-07
-2.88566e-05 0.000104264 1.12766e-07
6.37222e-07 1.12766e-07 3.12172e-05
0.00112157 -2.84264e-05 1.77961e-07
-2.84264e-05 5.26694e-05 5.99233e-08
1.77961e-07 5.99233e-08 -1.6301e-05
0.000913437 -1.07381e-05 -2.46527e-06
-1.07381e-05 -3.81091e-05 -3.26279e-06
-2.46527e-06 -3.26279e-06 -4.24997e-05
0.0009964 -5.74319e-06 -1.87387e-06
-5.74319e-06 5.60083e-06 -2.00531e-06
-1.87387e-06 -2.00531e-06 -2.86344e-05
0.00124797 1.58376e-05 -2.53781e-07
1.58376e-05 5.84816e-05 4.88254e-08
-2.53781e-07 4.88254e-08 -3.59131e-06
0.00105241 6.06392e-07 -1.22929e-06
6.06392e-07 3.4317e-05 -1.09624e-06
-1.22929e-06 -1.09624e-06 -1.91406e-05
0.00105074 2.80851e-06 -1.35738e-06
2.80851e-06 3.43766e-05 -7.95974e-07
-1.35738e-06 -7.95974e-07 -1.83922e-05
0.00101402 1.40636e-05 -6.3911e-07
1.40636e-05 1.36934e-05 -2.8806e-07
-6.3911e-07 -2.8806e-07 -4.95136e-05
0.00115725 2.67521e-05 -4.77791e-07
2.67521e-05 4.95761e-05 -7.05603e-07
-4.77791e-07 -7.05603e-07 -1.21442e-05
0.00119328 2.57649e-05 1.50798e-07
2.57649e-05 4.04665e-05 3.67755e-10
1.50798e-07 3.67755e-10 -2.45296e-05
0.00109067 2.34757e-05 -4.16913e-07
2.34757e-05 5.59667e-05 -3.85289e-07
-4.16913e-07 -3.85289e-07 -7.13428e-06
0.00113727 2.92439e-05 -1.11112e-06
2.92439e-05 6.68628e-05 -2.96441e-07
-1.11112e-06 -2.96441e-07 -2.40494e-06
0.0012589 2.96234e-05 -1.12753e-06
2.96234e-05 0.000105713 -5.80084e-07
-1.12753e-06 -5.80084e-07 4.3097e-05
0.00100248 -5.08002e-06 8.89426e-08
-5.08002e-06 7.07568e-06 -1.22405e-08
8.89426e-08 -1.22405e-08 -2.65346e-05
0.00105935 2.24369e-06 -2.10807e-08
2.24369e-06 3.66614e-05 -3.09445e-08
-2.10807e-08 -3.09445e-08 -1.68129e-05
0.00107895 2.00011e-05 -8.39196e-08
2.00011e-05 4.44974e-05 -1.07583e-07
-8.39196e-08 -1.07583e-07 -1.74474e-05
0.00109693 1.34265e-05 -6.68919e-08
1.34265e-05 5.66751e-05 -1.81824e-08
-6.68919e-08 -1.81824e-08 -7.64173e-06
0.00112286 2.40351e-05 -2.70236e-07
2.40351e-05 6.69778e-05 -8.03787e-08
-2.70236e-07 -8.03787e-08 -1.26401e-06
0.00123684 1.40068e-05 -2.86449e-07
1.40068e-05 4.50038e-05 -2.76055e-07
-2.86449e-07 -2.76055e-07 -1.67153e-05
0.00118414 2.98873e-05 3.97681e-07
2.98873e-05 5.52267e-05 8.64425e-09
3.97681e-07 8.64425e-09 -9.45881e-06
0.00114684 2.82397e-05 9.37104e-08
2.82397e-05 1.83665e-05 3.0847e-07
9.37104e-08 3.0847e-07 -4.3351e-05
0.00103439 2.79366e-05 3.19363e-07
2.79366e-05 2.82253e-05 4.90376e-07
3.19363e-07 4.90376e-07 -4.3304e-05
0.00121499 3.23724e-05 1.01721e-08
3.23724e-05 9.057e-05 -1.05996e-07
1.01721e-08 -1.05996e-07 1.67473e-05
0.00106599 4.08223e-06 1.17203e-06
4.08223e-06 3.91368e-05 1.21351e-06
1.17203e-06 1.21351e-06 -1.42076e-05
0.000961268 1.42173e-05 1.16552e-06
1.42173e-05 -9.17979e-06 7.97461e-07
1.16552e-06 7.97461e-07 -7.56408e-05
0.0011182 2.84054e-05 1.4138e-07
2.84054e-05 6.34047e-05 2.42536e-07
1.4138e-07 2.42536e-07 -5.57553e-06
0.00101358 2.29025e-05 5.27913e-07
2.29025e-05 1.40806e-05 -4.63682e-08
5.27913e-07 -4.63682e-08 -5.6759e-05
0.00117496 2.76407e-05 -3.3171e-08
2.76407e-05 8.73105e-05 -2.55103e-07
-3.3171e-08 -2.55103e-07 1.59953e-05
0.00124078 1.6322e-05 -5.59572e-07
1.6322e-05 2.62498e-05 -5.44853e-07
-5.59572e-07 -5.44853e-07 -2.42108e-05
0.00127868 3.45292e-05 7.09796e-07
3.45292e-05 0.000101706 -1.46315e-07
7.09796e-07 -1.46315e-07 3.11765e-05
0.000770518 2.90455e-05 5.3708e-07
2.90455e-05 -0.000173048 6.26089e-08
5.3708e-07 6.26089e-08 -0.000234684
0.00135417 3.32109e-05 1.42418e-06
3.32109e-05 0.000175693 1.64531e-06
1.42418e-06 1.64531e-06 9.89891e-05
0.000835821 3.13279e-05 5.31576e-07
3.13279e-05 -9.32636e-05 4.08659e-07
5.31576e-07 4.08659e-07 -0.000175386
0.00100347 -5.00207e-06 -1.28142e-06
-5.00207e-06 6.0164e-06 -2.05721e-06
-1.28142e-06 -2.05721e-06 -2.68162e-05
0.00097827 3.21423e-06 3.05422e-07
3.21423e-06 -3.26981e-06 4.33456e-07
3.05422e-07 4.33456e-07 -5.67723e-05
0.000972469 1.35751e-05 7.31246e-07
1.35751e-05 8.34631e-07 1.05931e-06
7.31246e-07 1.05931e-06 -6.59024e-05
0.000885382 1.1304e-06 -6.08808e-07
1.1304e-06 -4.82876e-05 -1.27857e-06
-6.08808e-07 -1.27857e-06 -0.000101361
0.00106042 5.73364e-06 5.44611e-08
5.73364e-06 3.76447e-05 2.60936e-08
5.44611e-08 2.60936e-08 -1.34107e-05
0.00111105 1.29201e-05 -1.9398e-07
1.29201e-05 6.96096e-05 -4.42615e-07
-1.9398e-07 -4.42615e-07 4.93248e-06
0.00121498 2.03741e-05 2.17458e-07
2.03741e-05 0.000124125 2.10547e-07
2.17458e-07 2.10547e-07 5.11626e-05
0.000956737 7.28705e-06 4.11108e-07
7.28705e-06 -5.81381e-06 1.12028e-06
4.11108e-07 1.12028e-06 -7.08715e-05
0.00105582 2.79321e-06 3.89814e-07
2.79321e-06 3.65136e-05 1.17673e-06
3.89814e-07 1.17673e-06 -1.39949e-05
0.00101626 -2.21892e-06 4.79686e-07
-2.21892e-06 6.65309e-06 1.94224e-06
4.79686e-07 1.94224e-06 -2.43729e-05
0.00101862 -3.34056e-06 5.27239e-08
-3.34056e-06 9.17636e-06 -1.25858e-09
5.27239e-08 -1.25858e-09 -2.1977e-05
0.00156085 -6.50621e-06 1.14199e-06
-6.50621e-06 0.000267508 2.05626e-06
1.14199e-06 2.05626e-06 0.00026861
0.00101734 -4.19988e-06 -7.79825e-07
-4.19988e-06 1.00671e-05 -1.96571e-06
-7.79825e-07 -1.96571e-06 -2.14445e-05
0.0015764 -7.87443e-06 -1.1455e-06
-7.87443e-06 0.000278398 -1.28673e-06
-1.1455e-06 -1.28673e-06 0.000278861
0.00121565 -8.19895e-06 6.09044e-06
-8.19895e-06 9.82258e-05 6.74397e-06
6.09044e-06 6.74397e-06 0.000113757
0.00159471 -9.13859e-06 -4.14732e-06
-9.13859e-06 0.000290701 -4.56686e-06
-4.14732e-06 -4.56686e-06 0.000290475
0.00115793 -1.01225e-05 2.40429e-06
-1.01225e-05 7.40196e-05 2.5389e-06
2.40429e-06 2.5389e-06 8.9075e-05
0.00240226 -1.54219e-05 -3.17153e-06
-1.54219e-05 0.000689848 -1.66205e-06
-3.17153e-06 -1.66205e-06 0.000710375
0.000917282 1.00247e-05 1.90426e-06
1.00247e-05 -3.93744e-05 -3.18316e-06
1.90426e-06 -3.18316e-06 -4.29656e-05
0.000923725 1.10009e-05 -1.38724e-07
1.10009e-05 -3.24992e-05 -6.23075e-09
-1.38724e-07 -6.23075e-09 -3.74536e-05
0.00246755 1.6472e-05 8.37477e-06
1.6472e-05 0.000725308 -3.92339e-06
8.37477e-06 -3.92339e-06 0.000744922
0.000924887 1.18973e-05 -2.99602e-06
1.18973e-05 -2.86947e-05 3.12549e-06
-2.99602e-06 3.12549e-06 -3.47045e-05
0.00249648 1.84752e-05 -2.01939e-07
1.84752e-05 0.000744032 -4.89634e-08
-2.01939e-07 -4.89634e-08 0.00076266
0.00248689 2.05129e-05 -1.02395e-05
2.05129e-05 0.000743495 3.75905e-06
-1.02395e-05 3.75905e-06 0.000761404
0.00124159 8.51112e-06 -4.31482e-07
8.51112e-06 5.26309e-05 5.63481e-08
-4.31482e-07 5.63481e-08 -9.09576e-06
0.00127546 -9.00119e-06 -3.28838e-07
-9.00119e-06 6.45431e-05 -2.1049e-07
-3.28838e-07 -2.1049e-07 -5.15471e-07
0.00129357 -3.67001e-06 7.81385e-07
-3.67001e-06 6.15995e-05 -8.44349e-08
7.81385e-07 -8.44349e-08 1.60904e-06
0.00135145 -2.19895e-05 -6.63646e-07
-2.19895e-05 9.15884e-05 4.0318e-07
-6.63646e-07 4.0318e-07 2.47026e-05
0.00123922 -1.87328e-05 -3.00487e-07
-1.87328e-05 5.82668e-05 2.05716e-07
-3.00487e-07 2.05716e-07 -8.94987e-06
0.00120823 1.29879e-05 -8.54102e-07
1.29879e-05 5.23549e-05 -3.6004e-08
-8.54102e-07 -3.6004e-08 -1.3571e-05
0.00126859 6.41779e-06 2.32188e-08
6.41779e-06 7.14276e-05 9.32629e-08
2.32188e-08 9.32629e-08 3.44436e-06
0.00122173 -1.06792e-05 2.17834e-07
-1.06792e-05 4.92853e-05 4.96141e-08
2.17834e-07 4.96141e-08 -1.77176e-05
0.00122949 -1.22536e-05 1.81192e-08
-1.22536e-05 2.66231e-05 -3.53411e-09
1.81192e-08 -3.53411e-09 -3.76542e-05
0.00137209 -2.45916e-05 -3.93835e-07
-2.45916e-05 9.98166e-05 4.48988e-08
-3.93835e-07 4.48988e-08 3.14997e-05
0.00123515 3.82594e-06 -2.25109e-07
3.82594e-06 3.71309e-05 1.58176e-07
-2.25109e-07 1.58176e-07 -2.20667e-05
0.00135167 -8.54585e-06 9.68841e-07
-8.54585e-06 7.99145e-05 -4.27155e-07
9.68841e-07 -4.27155e-07 2.39863e-05
0.00122485 1.13304e-05 -8.19913e-08
1.13304e-05 5.57464e-05 3.28026e-07
-8.19913e-08 3.28026e-07 -1.09622e-05
0.0012073 -1.71814e-05 4.66557e-07
-1.71814e-05 4.48642e-05 -7.48544e-07
4.66557e-07 -7.48544e-07 -2.25918e-05
0.00129151 -1.9172e-05 -3.26954e-07
-1.9172e-05 5.35748e-05 7.43025e-07
-3.26954e-07 7.43025e-07 -1.05828e-05
0.00136742 1.35032e-06 -8.01292e-07
1.35032e-06 8.32298e-05 3.89977e-08
-8.01292e-07 3.89977e-08 3.38785e-05
0.00128258 2.20291e-05 -5.8335e-07
2.20291e-05 6.87519e-05 -3.57841e-07
-5.8335e-07 -3.57841e-07 1.83925e-07
0.00143025 7.21938e-06 -1.15068e-06
7.21938e-06 0.000109582 7.18438e-08
-1.15068e-06 7.18438e-08 4.22652e-05
0.00132755 2.28185e-05 -1.29638e-06
2.28185e-05 6.17162e-05 -4.86027e-07
-1.29638e-06 -4.86027e-07 -1.0489e-05
0.0013893 -4.32629e-06 9.41251e-08
-4.32629e-06 8.31399e-05 3.7273e-07
9.41251e-08 3.7273e-07 1.78753e-05
0.00107041 -9.17719e-06 -1.1801e-06
-9.17719e-06 4.30936e-05 5.49629e-07
-1.1801e-06 5.49629e-07 -1.01122e-05
0.00108806 -2.4233e-05 -2.02356e-07
-2.4233e-05 4.91847e-05 3.42287e-07
-2.02356e-07 3.42287e-07 -1.09026e-05
0.00115668 -3.01533e-05 -6.6484e-07
-3.01533e-05 7.55075e-05 1.09575e-06
-6.6484e-07 1.09575e-06 5.50221e-06
0.00135772 -2.23771e-05 1.97489e-07
-2.23771e-05 0.000100297 9.00766e-08
1.97489e-07 9.00766e-08 4.00214e-05
0.00124193 -1.58906e-05 7.15212e-07
-1.58906e-05 2.16495e-05 1.09749e-06
7.15212e-07 1.09749e-06 -3.44784e-05
0.00124611 -2.40165e-05 9.91145e-07
-2.40165e-05 5.11206e-05 1.35347e-07
9.91145e-07 1.35347e-07 -3.64086e-06
0.00125497 -3.31069e-05 -9.67859e-07
-3.31069e-05 9.24283e-05 -3.52556e-07
-9.67859e-07 -3.52556e-07 2.1771e-05
0.00114921 -2.86224e-05 -6.02623e-07
-2.86224e-05 9.30487e-06 -3.72174e-06
-6.02623e-07 -3.72174e-06 -4.35436e-05
0.00112289 -2.38985e-05 -7.14272e-07
-2.38985e-05 6.08379e-05 5.83697e-08
-7.14272e-07 5.83697e-08 4.3781e-08
0.00110945 -2.72542e-05 -1.02761e-06
-2.72542e-05 5.02511e-05 -4.38352e-08
-1.02761e-06 -4.38352e-08 -1.62503e-05
0.00115016 -2.38681e-05 -1.02576e-06
-2.38681e-05 8.26071e-05 6.09226e-07
-1.02576e-06 6.09226e-07 1.57376e-05
0.000713983 5.59873e-06 -1.54954e-06
5.59873e-06 -0.000132196 1.95611e-06
-1.54954e-06 1.95611e-06 -0.000168337
0.000913453 -6.00712e-06 -6.83617e-07
-6.00712e-06 -3.41105e-05 8.78809e-07
-6.83617e-07 8.78809e-07 -9.08578e-05
0.00128946 2.48772e-05 2.27163e-07
2.48772e-05 6.20802e-05 -3.94854e-07
2.27163e-07 -3.94854e-07 -8.85047e-06
0.00141108 1.73663e-05 -2.16552e-07
1.73663e-05 8.77754e-05 3.24353e-07
-2.16552e-07 3.24353e-07 1.7348e-05
0.00138842 -4.57891e-06 -2.31056e-07
-4.57891e-06 7.44922e-05 1.81682e-07
-2.31056e-07 1.81682e-07 1.37612e-05
0.00112081 -2.41903e-05 5.52337e-08
-2.41903e-05 6.08223e-05 4.04314e-08
5.52337e-08 4.04314e-08 1.34679e-06
0.00106394 -2.76346e-05 2.74747e-07
-2.76346e-05 3.9281e-05 -2.31342e-07
2.74747e-07 -2.31342e-07 -2.64782e-05
0.00116798 -3.2945e-05 -5.45363e-08
-3.2945e-05 7.86356e-05 -2.89549e-08
-5.45363e-08 -2.89549e-08 1.34349e-06
0.00128044 -1.81406e-05 5.55907e-08
-1.81406e-05 4.49033e-05 -1.97522e-07
5.55907e-08 -1.97522e-07 -9.3117e-06
0.00125496 -3.35113e-05 -1.00446e-07
-3.35113e-05 7.9578e-05 -5.16353e-07
-1.00446e-07 -5.16353e-07 1.11892e-05
0.00126958 -2.76066e-05 -3.1205e-07
-2.76066e-05 4.62177e-05 -4.4607e-07
-3.1205e-07 -4.4607e-07 -1.72864e-06
0.000722272 7.75091e-06 1.24605e-07
7.75091e-06 -0.000129454 -6.43799e-07
1.24605e-07 -6.43799e-07 -0.000164249
0.00114735 -2.74197e-05 6.98762e-09
-2.74197e-05 6.79708e-05 9.53977e-09
6.98762e-09 9.53977e-09 3.89011e-06
0.00112 -2.83794e-05 -6.81108e-07
-2.83794e-05 5.12585e-05 7.752e-08
-6.81108e-07 7.752e-08 -1.72476e-05
0.00120867 -2.87209e-05 -3.82813e-07
-2.87209e-05 0.000105592 1.77299e-07
-3.82813e-07 1.77299e-07 3.30703e-05
0.00119687 -2.34466e-05 -1.1995e-07
-2.34466e-05 0.000110215 1.2666e-07
-1.1995e-07 1.2666e-07 4.17663e-05
0.00101921 -5.35184e-06 7.22113e-08
-5.35184e-06 1.89519e-05 2.01284e-07
7.22113e-08 2.01284e-07 -3.60088e-05
0.00144132 2.65239e-05 8.16197e-08
2.65239e-05 0.000125547 1.67999e-06
8.16197e-08 1.67999e-06 5.44204e-05
0.00141696 1.78209e-05 2.44148e-07
1.78209e-05 8.26208e-05 -4.96037e-08
2.44148e-07 -4.96037e-08 1.27336e-05
0.00127697 -7.79311e-06 -4.17265e-07
-7.79311e-06 1.29808e-05 -1.64346e-06
-4.17265e-07 -1.64346e-06 -4.09472e-05
0.00139407 -2.24055e-05 -6.07637e-07
-2.24055e-05 7.27975e-05 -4.61357e-07
-6.07637e-07 -4.61357e-07 2.96596e-05
0.00113048 -2.75636e-05 5.31988e-07
-2.75636e-05 6.31435e-05 -1.67815e-07
5.31988e-07 -1.67815e-07 -3.53339e-07
0.00132002 -3.37314e-05 1.21809e-06
-3.37314e-05 7.68929e-05 1.95626e-06
1.21809e-06 1.95626e-06 1.86833e-05
0.000958245 -2.90433e-05 5.25963e-07
-2.90433e-05 -8.81488e-06 -1.45321e-06
5.25963e-07 -1.45321e-06 -8.33157e-05
0.00133539 -3.6727e-05 1.12036e-06
-3.6727e-05 0.00015426 1.8719e-07
1.12036e-06 1.8719e-07 7.1922e-05
0.000724519 6.28353e-06 8.80701e-07
6.28353e-06 -0.000130774 -2.47702e-06
8.80701e-07 -2.47702e-06 -0.000163509
0.00115895 -3.07969e-06 8.27828e-07
-3.07969e-06 8.79329e-05 -1.18391e-06
8.27828e-07 -1.18391e-06 3.47365e-05
0.00126874 -2.22859e-05 -1.34248e-10
-2.22859e-05 0.000147533 5.11226e-08
-1.34248e-10 5.11226e-08 8.01377e-05
0.00111476 -2.69694e-05 8.20736e-07
-2.69694e-05 6.87355e-05 -8.20551e-07
8.20736e-07 -8.20551e-07 -9.44672e-06
0.00109331 -2.84602e-05 3.11864e-07
-2.84602e-05 3.84484e-05 -1.38891e-07
3.11864e-07 -1.38891e-07 -2.93683e-05
0.001151 -2.97651e-05 8.61463e-07
-2.97651e-05 6.88929e-05 2.83326e-07
8.61463e-07 2.83326e-07 -5.62946e-06
0.00100102 -4.91334e-06 -1.59917e-06
-4.91334e-06 6.21357e-06 -2.06408e-06
-1.59917e-06 -2.06408e-06 -2.7374e-05
0.00105976 2.20141e-06 -1.23111e-06
2.20141e-06 3.70536e-05 -1.19027e-06
-1.23111e-06 -1.19027e-06 -1.65007e-05
0.0012642 1.5286e-05 3.27837e-08
1.5286e-05 5.89175e-05 1.25413e-07
3.27837e-08 1.25413e-07 -3.12125e-06
0.00110298 1.37988e-05 -9.30031e-07
1.37988e-05 5.98881e-05 -4.61079e-07
-9.30031e-07 -4.61079e-07 -4.58882e-06
0.00110481 2.07265e-05 -6.7398e-07
2.07265e-05 5.77495e-05 -3.35996e-07
-6.7398e-07 -3.35996e-07 -3.76702e-06
0.00106172 2.38191e-05 -6.56486e-07
2.38191e-05 3.73332e-05 -1.91238e-07
-6.56486e-07 -1.91238e-07 -3.13449e-05
0.00118135 2.97475e-05 -4.24734e-07
2.97475e-05 5.29481e-05 -7.31945e-07
-4.24734e-07 -7.31945e-07 -1.1849e-05
0.00121748 2.81286e-05 1.52673e-07
2.81286e-05 5.08112e-05 2.96446e-07
1.52673e-07 2.96446e-07 -1.0406e-05
0.000953638 2.71075e-05 -3.49465e-07
2.71075e-05 -1.02866e-05 -3.55152e-07
-3.49465e-07 -3.55152e-07 -8.2159e-05
0.0012429 3.27978e-05 -9.3154e-07
3.27978e-05 0.000104082 -4.20864e-07
-9.3154e-07 -4.20864e-07 2.92974e-05
0.00106245 3.93353e-06 5.01971e-08
3.93353e-06 3.77234e-05 -3.68783e-08
5.01971e-08 -3.68783e-08 -1.56709e-05
0.00104311 1.55311e-05 3.49919e-07
1.55311e-05 3.09385e-05 2.58001e-07
3.49919e-07 2.58001e-07 -3.52138e-05
0.00116636 2.88614e-05 -1.36288e-07
2.88614e-05 8.7545e-05 -3.36567e-07
-1.36288e-07 -3.36567e-07 1.91873e-05
0.00107175 2.28321e-05 -3.05943e-07
2.28321e-05 4.33642e-05 1.62534e-08
-3.05943e-07 1.62534e-08 -2.70114e-05
0.00113151 2.72612e-05 -5.79839e-07
2.72612e-05 6.8171e-05 -3.42299e-07
-5.79839e-07 -3.42299e-07 -2.80797e-06
0.00140075 1.62187e-05 -3.6277e-07
1.62187e-05 0.000103007 -3.87621e-07
-3.6277e-07 -3.87621e-07 5.29837e-05
0.00131694 3.48439e-05 4.57526e-07
3.48439e-05 0.000117917 -5.04541e-08
4.57526e-07 -5.04541e-08 4.79781e-05
0.000993211 3.02337e-05 -4.70882e-07
3.02337e-05 -6.01409e-05 7.55758e-07
-4.70882e-07 7.55758e-07 -0.000120471
0.00124318 3.21179e-05 6.55491e-07
3.21179e-05 0.000123118 5.76775e-07
6.55491e-07 5.76775e-07 4.57679e-05
0.00100656 3.29096e-05 -1.02045e-06
3.29096e-05 -1.07295e-05 -1.43683e-07
-1.02045e-06 -1.43683e-07 -9.36908e-05
0.000975449 1.70258e-05 1.0284e-06
1.70258e-05 -2.10465e-08 1.0561e-06
1.0284e-06 1.0561e-06 -6.73975e-05
0.00102035 2.64236e-05 7.34045e-07
2.64236e-05 2.06564e-05 1.15568e-07
7.34045e-07 1.15568e-07 -5.51458e-05
0.00116586 3.03016e-05 2.4365e-07
3.03016e-05 8.51226e-05 4.80765e-07
2.4365e-07 4.80765e-07 1.04067e-05
0.000998069 2.74483e-05 9.39929e-07
2.74483e-05 2.79911e-06 -6.35002e-08
9.39929e-07 -6.35002e-08 -7.24202e-05
0.00162701 8.37104e-06 -2.75739e-08
8.37104e-06 0.000167197 -1.69488e-08
-2.75739e-08 -1.69488e-08 0.000124613
0.0011703 2.84628e-05 1.53995e-06
2.84628e-05 -2.60171e-05 -1.30115e-07
1.53995e-06 -1.30115e-07 -7.38357e-05
0.00122624 3.78345e-05 1.52871e-06
3.78345e-05 7.09261e-05 -6.59504e-07
1.52871e-06 -6.59504e-07 -8.69949e-06
0.000957313 3.21e-05 8.63598e-07
3.21e-05 -1.45951e-05 1.1465e-06
8.63598e-07 1.1465e-06 -0.000104704
0.00106089 3.59041e-06 -5.06532e-07
3.59041e-06 3.74787e-05 -8.51965e-07
-5.06532e-07 -8.51965e-07 -1.55474e-05
0.00106382 1.44614e-05 1.98546e-07
1.44614e-05 4.56577e-05 3.32198e-07
1.98546e-07 3.32198e-07 -2.05908e-05
0.00114235 2.31401e-05 3.77673e-07
2.31401e-05 8.82877e-05 4.17631e-07
3.77673e-07 4.17631e-07 1.38425e-05
0.001057 6.13549e-06 -4.49343e-07
6.13549e-06 3.61046e-05 -1.24644e-06
-4.49343e-07 -1.24644e-06 -1.49585e-05
0.000966215 1.12452e-05 -5.63027e-07
1.12452e-05 -1.39846e-06 -1.21395e-06
-5.63027e-07 -1.21395e-06 -6.70386e-05
0.00105635 3.07548e-06 7.77427e-08
3.07548e-06 3.67866e-05 3.27314e-08
7.77427e-08 3.27314e-08 -1.3727e-05
0.00111892 1.8161e-05 -1.04225e-07
1.8161e-05 7.67759e-05 -3.50111e-07
-1.04225e-07 -3.50111e-07 3.08752e-06
0.00102536 9.25207e-06 1.57459e-07
9.25207e-06 2.79706e-05 3.36929e-07
1.57459e-07 3.36929e-07 -3.67807e-05
0.00119513 2.21492e-05 3.82156e-07
2.21492e-05 0.000113303 3.3964e-07
3.82156e-07 3.3964e-07 3.37868e-05
0.000997011 3.43106e-06 4.11816e-07
3.43106e-06 1.67327e-05 9.35034e-07
4.11816e-07 9.35034e-07 -5.73268e-05
0.000956038 1.69232e-05 5.20234e-07
1.69232e-05 -6.24371e-06 1.15723e-06
5.20234e-07 1.15723e-06 -7.12613e-05
0.00104726 -1.26137e-06 2.44444e-07
-1.26137e-06 3.37688e-05 1.15309e-06
2.44444e-07 1.15309e-06 -1.67428e-05
0.0010214 -9.28386e-07 2.57952e-07
-9.28386e-07 8.51124e-06 1.90981e-06
2.57952e-07 1.90981e-06 -2.26765e-05
0.00102386 -2.34473e-06 5.88565e-08
-2.34473e-06 1.05208e-05 7.7242e-10
5.88565e-08 7.7242e-10 -2.05544e-05
0.00155947 -4.64097e-06 7.78178e-07
-4.64097e-06 0.000264105 2.05923e-06
7.78178e-07 2.05923e-06 0.000265669
0.00102631 -3.39521e-06 -5.72529e-07
-3.39521e-06 1.30593e-05 -1.93154e-06
-5.72529e-07 -1.93154e-06 -1.81254e-05
0.00157582 -6.20136e-06 -8.96218e-07
-6.20136e-06 0.000274999 -1.28814e-06
-8.96218e-07 -1.28814e-06 0.000276018
0.00121778 -6.462e-06 4.72935e-06
-6.462e-06 9.54106e-05 6.76556e-06
4.72935e-06 6.76556e-06 0.000111585
0.00159096 -7.62613e-06 -3.28199e-06
-7.62613e-06 0.000285705 -4.60252e-06
-3.28199e-06 -4.60252e-06 0.000286092
0.00116158 -8.41792e-06 1.88067e-06
-8.41792e-06 7.16274e-05 2.56173e-06
1.88067e-06 2.56173e-06 8.7394e-05
0.00110398 -1.02392e-05 -1.67693e-06
-1.02392e-05 4.74778e-05 -1.61028e-06
-1.67693e-06 -1.61028e-06 6.27703e-05
0.000926085 8.69654e-06 1.60317e-06
8.69654e-06 -3.94598e-05 -3.17371e-06
1.60317e-06 -3.17371e-06 -4.15996e-05
0.000935411 1.00285e-05 -9.51911e-08
1.00285e-05 -3.0758e-05 7.25306e-09
-9.51911e-08 7.25306e-09 -3.44224e-05
0.00242167 1.43303e-05 7.37343e-06
1.43303e-05 0.000698054 -3.95053e-06
7.37343e-06 -3.95053e-06 0.000718779
0.000938298 1.1007e-05 -2.58622e-06
1.1007e-05 -2.55377e-05 3.15892e-06
-2.58622e-06 3.15892e-06 -3.05548e-05
0.00246072 1.64208e-05 -2.76677e-07
1.64208e-05 0.00072232 -4.24662e-08
-2.76677e-07 -4.24662e-08 0.000741873
0.00247716 1.84471e-05 -9.69045e-06
1.84471e-05 0.000734786 3.86673e-06
-9.69045e-06 3.86673e-06 0.000753443
0.00125338 3.81909e-06 4.63874e-07
3.81909e-06 4.72449e-05 5.41233e-07
4.63874e-07 5.41233e-07 -1.2102e-05
0.00126174 -1.31723e-05 -1.66145e-07
-1.31723e-05 4.06611e-05 -2.18864e-07
-1.66145e-07 -2.18864e-07 -2.39097e-05
0.00125604 -7.62674e-06 1.88334e-06
-7.62674e-06 3.44147e-05 -1.55906e-06
1.88334e-06 -1.55906e-06 -2.05724e-05
0.00127123 -2.41279e-05 -1.09693e-06
-2.41279e-05 5.16363e-05 2.88688e-07
-1.09693e-06 2.88688e-07 -1.75259e-05
0.0012374 -1.26961e-05 -2.25288e-07
-1.26961e-05 5.60189e-05 5.41962e-07
-2.25288e-07 5.41962e-07 -1.09086e-05
0.00123446 5.55195e-06 -2.06183e-07
5.55195e-06 5.57722e-05 -9.36134e-08
-2.06183e-07 -9.36134e-08 -1.23732e-05
0.00123713 1.3309e-05 2.24189e-07
1.3309e-05 5.91311e-05 -5.50021e-08
2.24189e-07 -5.50021e-08 -8.07885e-06
0.00124965 -2.07586e-05 -2.70989e-07
-2.07586e-05 6.31176e-05 4.44099e-07
-2.70989e-07 4.44099e-07 -4.43779e-06
0.00126295 -1.83372e-05 3.01903e-07
-1.83372e-05 4.10693e-05 -6.76722e-08
3.01903e-07 -6.76722e-08 -2.22775e-05
0.00128073 1.44812e-07 2.78349e-07
1.44812e-07 4.05593e-05 -1.00763e-07
2.78349e-07 -1.00763e-07 -9.05933e-06
0.00120085 6.64291e-06 9.93104e-08
6.64291e-06 4.32905e-05 -2.67412e-07
9.93104e-08 -2.67412e-07 -2.38424e-05
0.00126084 -2.63493e-05 2.55582e-07
-2.63493e-05 7.07127e-05 -3.17517e-07
2.55582e-07 -3.17517e-07 3.92353e-06
0.00130729 -9.25194e-06 -9.32007e-07
-9.25194e-06 4.53134e-05 1.07471e-06
-9.32007e-07 1.07471e-06 -8.06663e-06
0.00126813 2.43526e-05 -6.28779e-07
2.43526e-05 4.87152e-05 -1.39956e-06
-6.28779e-07 -1.39956e-06 -2.26408e-05
0.00144964 1.71e-05 -4.72356e-07
1.71e-05 0.000108647 3.4023e-07
-4.72356e-07 3.4023e-07 3.87564e-05
0.00142405 -4.42046e-06 3.3692e-07
-4.42046e-06 9.40809e-05 1.06029e-06
3.3692e-07 1.06029e-06 3.34375e-05
0.00113405 -2.36641e-05 -5.6135e-07
-2.36641e-05 6.68695e-05 2.29786e-07
-5.6135e-07 2.29786e-07 7.40899e-06
0.00123937 -2.94848e-05 -1.73309e-07
-2.94848e-05 0.000122167 5.48056e-07
-1.73309e-07 5.48056e-07 5.71419e-05
0.00114764 -3.26948e-05 -9.74563e-07
-3.26948e-05 7.10836e-05 1.27445e-06
-9.74563e-07 1.27445e-06 -6.65047e-06
0.00132554 -1.82262e-05 5.36719e-07
-1.82262e-05 6.59214e-05 2.97495e-07
5.36719e-07 2.97495e-07 1.1058e-05
0.00115317 -2.80862e-05 -1.77959e-07
-2.80862e-05 -7.48994e-06 -8.60093e-07
-1.77959e-07 -8.60093e-07 -5.59538e-05
0.00123425 -3.24763e-05 -1.51597e-06
-3.24763e-05 7.07673e-05 -2.3411e-06
-1.51597e-06 -2.3411e-06 4.26455e-06
0.00115557 -2.75402e-05 -5.79852e-07
-2.75402e-05 7.22263e-05 3.72706e-08
-5.79852e-07 3.72706e-08 8.03651e-06
0.0011164 -2.8304e-05 -1.56516e-06
-2.8304e-05 4.89267e-05 2.09439e-07
-1.56516e-06 2.09439e-07 -1.91182e-05
0.00121084 -2.85864e-05 -1.2947e-06
-2.85864e-05 0.000106973 1.42402e-07
-1.2947e-06 1.42402e-07 3.49766e-05
0.000710883 8.33644e-06 -8.2609e-07
8.33644e-06 -0.000134786 1.2895e-06
-8.2609e-07 1.2895e-06 -0.000169367
0.0012836 -2.46185e-05 -8.04794e-07
-2.46185e-05 0.00015255 9.70879e-07
-8.04794e-07 9.70879e-07 8.42927e-05
0.000892851 -7.0429e-06 -7.89646e-07
-7.0429e-06 -4.37765e-05 1.47316e-06
-7.89646e-07 1.47316e-06 -9.9584e-05
0.00135591 2.58379e-05 -4.57252e-08
2.58379e-05 8.98889e-05 4.05147e-07
-4.57252e-08 4.05147e-07 1.95969e-05
0.00139657 1.67641e-05 2.10058e-07
1.67641e-05 6.90949e-05 2.30655e-07
2.10058e-07 2.30655e-07 -7.07067e-07
0.00131014 -7.45322e-06 -1.63899e-07
-7.45322e-06 2.93334e-05 -2.18169e-07
-1.63899e-07 -2.18169e-07 -2.57228e-05
0.00114823 -2.77922e-05 6.49412e-08
-2.77922e-05 7.14701e-05 1.37938e-07
6.49412e-08 1.37938e-07 7.89228e-06
0.00101437 -2.95676e-05 -5.51065e-08
-2.95676e-05 1.8256e-05 6.10932e-08
-5.51065e-08 6.10932e-08 -5.54509e-05
0.00130588 -3.59985e-05 -5.43913e-07
-3.59985e-05 0.000140628 7.47214e-07
-5.43913e-07 7.47214e-07 5.89504e-05
0.00142034 -2.31452e-05 1.77968e-07
-2.31452e-05 8.88102e-05 1.67471e-07
1.77968e-07 1.67471e-07 4.5958e-05
0.00124065 -3.3064e-05 -1.17993e-07
-3.3064e-05 3.79548e-05 -6.28331e-07
-1.17993e-07 -6.28331e-07 -2.01444e-05
0.000863501 6.63769e-06 1.5797e-07
6.63769e-06 -6.2932e-05 -6.04276e-07
1.5797e-07 -6.04276e-07 -9.4654e-05
0.001149 -5.31197e-07 -6.95768e-09
-5.31197e-07 8.38231e-05 1.07838e-07
-6.95768e-09 1.07838e-07 3.05435e-05
0.00109036 -2.84363e-05 -3.07748e-07
-2.84363e-05 3.7306e-05 1.08329e-07
-3.07748e-07 1.08329e-07 -3.07093e-05
0.00116787 -2.99933e-05 -1.15904e-09
-2.99933e-05 7.71123e-05 5.86941e-08
-1.15904e-09 5.86941e-08 2.67191e-06
0.00112221 -2.68651e-05 1.71477e-07
-2.68651e-05 7.31318e-05 -1.90347e-07
1.71477e-07 -1.90347e-07 -4.48931e-06
0.00121367 -2.32451e-05 -5.57163e-07
-2.32451e-05 0.000119809 7.53044e-07
-5.57163e-07 7.53044e-07 5.18899e-05
0.00133948 2.66025e-05 6.10023e-07
2.66025e-05 8.17375e-05 1.61258e-06
6.10023e-07 1.61258e-06 1.42925e-05
0.00147452 1.29245e-05 4.57364e-08
1.29245e-05 9.9164e-05 -8.84919e-07
4.57364e-08 -8.84919e-07 3.30401e-05
0.00134815 -1.45785e-05 -1.47848e-06
-1.45785e-05 2.76499e-05 -1.36888e-06
-1.47848e-06 -1.36888e-06 -1.05656e-05
0.00161166 -3.25435e-05 -1.51646e-07
-3.25435e-05 0.000169655 4.57401e-07
-1.51646e-07 4.57401e-07 0.000128994
0.00103955 -2.85966e-05 2.64718e-07
-2.85966e-05 2.14181e-05 -3.1926e-07
2.64718e-07 -3.1926e-07 -4.78263e-05
0.00133417 -3.75292e-05 1.55828e-06
-3.75292e-05 0.000135692 2.3537e-06
1.55828e-06 2.3537e-06 5.49283e-05
0.00134687 -3.5875e-05 7.91325e-07
-3.5875e-05 0.000176706 -1.69383e-06
7.91325e-07 -1.69383e-06 9.53702e-05
0.00101183 5.63007e-06 6.79208e-07
5.63007e-06 6.82731e-06 -1.82255e-06
6.79208e-07 -1.82255e-06 -2.22116e-05
0.00106712 -6.36309e-06 2.71615e-07
-6.36309e-06 3.96965e-05 -1.20079e-06
2.71615e-07 -1.20079e-06 -6.71127e-06
0.000840222 4.47973e-06 2.41401e-07
4.47973e-06 -6.71081e-05 -1.72707e-06
2.41401e-07 -1.72707e-06 -0.000119105
0.00116451 -1.82107e-05 1.08972e-07
-1.82107e-05 9.79803e-05 -2.72246e-07
1.08972e-07 -2.72246e-07 2.92686e-05
0.00108317 -2.5586e-05 7.14759e-07
-2.5586e-05 5.79151e-05 -7.55058e-07
7.14759e-07 -7.55058e-07 -2.06551e-05
0.00119664 -2.94012e-05 1.3727e-06
-2.94012e-05 0.000104748 1.33181e-07
1.3727e-06 1.33181e-07 2.1959e-05
0.00106345 -2.96808e-05 6.37211e-07
-2.96808e-05 2.60571e-05 -1.59561e-07
6.37211e-07 -1.59561e-07 -4.56732e-05
0.00136604 -3.36602e-05 2.79109e-07
-3.36602e-05 0.0001803 2.47592e-07
2.79109e-07 2.47592e-07 0.000100732
0.00105848 3.85483e-06 -1.01274e-06
3.85483e-06 3.60997e-05 -1.2637e-06
-1.01274e-06 -1.2637e-06 -1.73433e-05
0.00112545 1.75726e-05 -5.80959e-07
1.75726e-05 7.12985e-05 -3.66868e-07
-5.80959e-07 -3.66868e-07 5.43407e-06
0.00156199 1.61146e-05 2.93807e-07
1.61146e-05 0.000180335 4.8026e-08
2.93807e-07 4.8026e-08 0.00013075
0.00113687 2.38357e-05 -9.92458e-07
2.38357e-05 7.58226e-05 5.11129e-08
-9.92458e-07 5.11129e-08 5.88257e-06
0.00121585 2.93333e-05 -7.52017e-07
2.93333e-05 0.000112211 -9.35363e-07
-7.52017e-07 -9.35363e-07 4.44878e-05
0.00106972 2.64438e-05 -8.47453e-07
2.64438e-05 4.03051e-05 -4.3283e-07
-8.47453e-07 -4.3283e-07 -3.03069e-05
0.00134575 3.50621e-05 -6.88479e-08
3.50621e-05 0.000129557 -1.02751e-07
-6.88479e-08 -1.02751e-07 6.02251e-05
0.00120931 3.13947e-05 -5.98461e-07
3.13947e-05 4.95463e-05 1.6892e-06
-5.98461e-07 1.6892e-06 -9.46041e-06
0.00112631 3.09411e-05 -5.16302e-08
3.09411e-05 6.76622e-05 -2.88627e-07
-5.16302e-08 -2.88627e-07 -1.03182e-05
0.00115167 3.4199e-05 -2.26976e-06
3.4199e-05 5.94657e-05 -5.86258e-07
-2.26976e-06 -5.86258e-07 -2.42944e-05
0.000979066 1.66154e-05 2.95933e-07
1.66154e-05 1.78969e-06 3.23271e-07
2.95933e-07 3.23271e-07 -6.56443e-05
0.00109244 2.70763e-05 -3.00986e-07
2.70763e-05 5.53939e-05 -4.08479e-07
-3.00986e-07 -4.08479e-07 -1.95351e-05
0.00118087 3.03709e-05 -1.90069e-07
3.03709e-05 9.30299e-05 -4.40028e-07
-1.90069e-07 -4.40028e-07 1.89557e-05
0.00110765 2.80387e-05 -2.25456e-08
2.80387e-05 5.56839e-05 -1.92994e-07
-2.25456e-08 -1.92994e-07 -1.91196e-05
0.00150313 7.85412e-06 1.29195e-07
7.85412e-06 0.000107667 -8.4868e-07
1.29195e-07 -8.4868e-07 6.5647e-05
0.00122013 2.80341e-05 2.11124e-07
2.80341e-05 7.24124e-06 1.38537e-07
2.11124e-07 1.38537e-07 -4.25929e-05
0.00138214 3.92371e-05 -2.55375e-07
3.92371e-05 0.000144796 -1.19978e-07
-2.55375e-07 -1.19978e-07 6.60236e-05
0.000987221 3.28026e-05 1.40872e-07
3.28026e-05 -3.86853e-06 1.47178e-07
1.40872e-07 1.47178e-07 -9.36786e-05
0.00116796 2.64983e-05 2.10384e-07
2.64983e-05 9.89585e-05 1.71393e-07
2.10384e-07 1.71393e-07 2.33045e-05
0.0013274 -9.3809e-06 -6.32591e-07
-9.3809e-06 4.19959e-05 4.02331e-07
-6.32591e-07 4.02331e-07 -7.95656e-06
0.00126154 3.06606e-05 9.23625e-07
3.06606e-05 0.000137727 4.91833e-07
9.23625e-07 4.91833e-07 5.62574e-05
0.00118231 3.24045e-05 6.95326e-07
3.24045e-05 9.52578e-05 6.07022e-07
6.95326e-07 6.07022e-07 1.26327e-05
0.0015323 2.71612e-05 2.65716e-06
2.71612e-05 8.39094e-05 -1.25089e-06
2.65716e-06 -1.25089e-06 5.01811e-05
0.0012314 4.10169e-05 3.45786e-06
4.10169e-05 3.03368e-05 -1.14592e-06
3.45786e-06 -1.14592e-06 -4.79329e-05
0.00151806 4.15893e-05 9.93015e-07
4.15893e-05 0.000248028 1.56334e-06
9.93015e-07 1.56334e-06 0.000151935
0.00115469 1.50439e-05 -3.60534e-07
1.50439e-05 9.02315e-05 -4.11364e-07
-3.60534e-07 -4.11364e-07 2.44813e-05
0.00113565 2.30154e-05 -5.21788e-08
2.30154e-05 8.54475e-05 -6.44906e-08
-5.21788e-08 -6.44906e-08 1.09844e-05
0.00114563 2.60284e-05 4.88557e-07
2.60284e-05 9.18354e-05 3.02499e-07
4.88557e-07 3.02499e-07 1.13165e-05
0.00105615 5.18495e-06 -3.33375e-07
5.18495e-06 3.67285e-05 -1.20459e-06
-3.33375e-07 -1.20459e-06 -1.38116e-05
0.00109233 1.2009e-05 -8.63914e-08
1.2009e-05 6.08871e-05 -4.11046e-07
-8.63914e-08 -4.11046e-07 -3.53043e-06
0.00102304 1.5461e-05 -4.52366e-07
1.5461e-05 2.94914e-05 -9.68251e-07
-4.52366e-07 -9.68251e-07 -4.49125e-05
0.00105132 -2.42378e-06 1.00039e-07
-2.42378e-06 3.57938e-05 1.83752e-08
1.00039e-07 1.83752e-08 -1.47988e-05
0.000957988 1.0267e-05 3.8017e-08
1.0267e-05 -5.2276e-06 3.58562e-07
3.8017e-08 3.58562e-07 -7.01475e-05
0.00112757 1.87076e-05 1.25708e-08
1.87076e-05 7.99004e-05 -3.54928e-07
1.25708e-08 -3.54928e-07 -2.39482e-07
0.00111876 1.06887e-05 1.33388e-07
1.06887e-05 7.66505e-05 3.12735e-07
1.33388e-07 3.12735e-07 3.2757e-06
0.00119216 2.66983e-05 2.45742e-07
2.66983e-05 0.000107559 8.79786e-08
2.45742e-07 8.79786e-08 2.34364e-05
0.00106408 5.11777e-06 3.91825e-07
5.11777e-06 4.61877e-05 7.65605e-07
3.91825e-07 7.65605e-07 -3.46896e-05
0.0011328 1.85684e-05 3.2047e-07
1.85684e-05 8.2188e-05 7.0332e-07
3.2047e-07 7.0332e-07 8.7041e-06
0.00107615 8.97182e-06 4.17093e-07
8.97182e-06 5.32925e-05 8.05232e-07
4.17093e-07 8.05232e-07 -1.15524e-05
0.00105076 -4.03572e-06 8.64089e-08
-4.03572e-06 3.64194e-05 1.15228e-06
8.64089e-08 1.15228e-06 -1.44974e-05
0.00102338 2.02761e-07 7.00516e-08
2.02761e-07 9.34075e-06 1.87676e-06
7.00516e-08 1.87676e-06 -2.20635e-05
0.0010251 -1.1198e-06 4.16138e-08
-1.1198e-06 1.04049e-05 5.38943e-09
4.16138e-08 5.38943e-09 -2.08082e-05
0.00155506 -2.56732e-06 4.2646e-07
-2.56732e-06 0.000259968 2.05822e-06
4.2646e-07 2.05822e-06 0.00026175
0.00103081 -2.47348e-06 -3.46925e-07
-2.47348e-06 1.4067e-05 -1.91335e-06
-3.46925e-07 -1.91335e-06 -1.70546e-05
0.00157621 -4.3831e-06 -6.26696e-07
-4.3831e-06 0.000272482 -1.28197e-06
-6.26696e-07 -1.28197e-06 0.000273936
0.00121645 -4.60443e-06 3.25985e-06
-4.60443e-06 9.14903e-05 6.74422e-06
3.25985e-06 6.74422e-06 0.000108215
0.00159061 -6.00099e-06 -2.34588e-06
-6.00099e-06 0.000282413 -4.62525e-06
-2.34588e-06 -4.62525e-06 0.000283344
0.00116498 -6.60743e-06 1.29876e-06
-6.60743e-06 6.93964e-05 2.56901e-06
1.29876e-06 2.56901e-06 8.58108e-05
0.00110816 -8.44804e-06 -1.33094e-06
-8.44804e-06 4.53194e-05 -1.62513e-06
-1.33094e-06 -1.62513e-06 6.13301e-05
0.00101679 4.48751e-06 5.09244e-07
4.48751e-06 6.12498e-06 -1.82683e-06
5.09244e-07 -1.82683e-06 -2.10984e-05
0.000934869 7.26246e-06 1.23413e-06
7.26246e-06 -3.92476e-05 -3.17653e-06
1.23413e-06 -3.17653e-06 -3.98837e-05
0.000944254 8.70526e-06 -7.40356e-08
8.70526e-06 -3.07979e-05 6.66299e-09
-7.40356e-08 6.66299e-09 -3.30141e-05
0.00238279 1.2031e-05 6.42534e-06
1.2031e-05 0.000674237 -3.96554e-06
6.42534e-06 -3.96554e-06 0.000696054
0.000953126 1.00332e-05 -2.11731e-06
1.00332e-05 -2.23354e-05 3.18075e-06
-2.11731e-06 3.18075e-06 -2.60725e-05
0.00241789 1.43262e-05 -2.80858e-07
1.43262e-05 0.000696708 -3.48748e-08
-2.80858e-07 -3.48748e-08 0.000717327
0.00245365 1.63922e-05 -8.94815e-06
1.63922e-05 0.000719201 3.95156e-06
-8.94815e-06 3.95156e-06 0.000738695
0.0011943 -1.03077e-06 9.8963e-07
-1.03077e-06 -2.02837e-06 -1.21982e-07
9.8963e-07 -1.21982e-07 -5.19088e-05
0.00122755 -1.7451e-05 1.6763e-07
-1.7451e-05 2.53776e-05 -8.89541e-07
1.6763e-07 -8.89541e-07 -3.7159e-05
0.00129074 -2.14679e-05 -6.2527e-07
-2.14679e-05 8.0667e-05 1.29192e-06
-6.2527e-07 1.29192e-06 1.31074e-05
0.00125419 1.57529e-05 5.47302e-09
1.57529e-05 6.46599e-05 -6.73065e-07
5.47302e-09 -6.73065e-07 -2.99349e-06
0.00124655 6.4879e-06 1.45259e-07
6.4879e-06 6.75424e-05 -3.65628e-07
1.45259e-07 -3.65628e-07 1.09073e-06
0.00127043 -2.65964e-05 -2.45765e-08
-2.65964e-05 7.53639e-05 3.38042e-07
-2.45765e-08 3.38042e-07 7.68195e-06
0.00128761 -8.93306e-06 -5.62889e-07
-8.93306e-06 3.85469e-05 2.73348e-07
-5.62889e-07 2.73348e-07 -1.34501e-05
0.00126818 7.61835e-07 7.09261e-07
7.61835e-07 8.10414e-05 -1.26225e-06
7.09261e-07 -1.26225e-06 1.48706e-05
0.00124871 -2.16876e-05 -7.06672e-07
-2.16876e-05 4.57996e-05 7.10375e-07
-7.06672e-07 7.10375e-07 -1.56533e-05
0.00126872 -2.03564e-05 -7.40406e-07
-2.03564e-05 5.58359e-05 -8.37149e-07
-7.40406e-07 -8.37149e-07 1.0322e-05
0.00127546 2.52024e-05 7.01597e-08
2.52024e-05 5.65321e-05 -5.78124e-07
7.01597e-08 -5.78124e-07 -1.29251e-05
0.00138752 1.55111e-05 -2.18635e-07
1.55111e-05 6.10009e-05 3.22381e-07
-2.18635e-07 3.22381e-07 -8.72968e-06
0.00133929 -7.16206e-06 1.74152e-07
-7.16206e-06 4.37649e-05 8.76023e-07
1.74152e-07 8.76023e-07 -1.24123e-05
0.00116385 -2.79969e-05 -4.44736e-07
-2.79969e-05 7.88054e-05 4.70417e-07
-4.44736e-07 4.70417e-07 1.51456e-05
0.00106766 -3.00556e-05 -4.31435e-07
-3.00556e-05 4.39365e-05 1.51594e-06
-4.31435e-07 1.51594e-06 -2.89686e-05
0.00126719 -3.51436e-05 -1.12845e-06
-3.51436e-05 0.000122538 1.02864e-06
-1.12845e-06 1.02864e-06 4.15417e-05
0.00144505 -2.39613e-05 2.32296e-06
-2.39613e-05 0.000104031 3.94052e-07
2.32296e-06 3.94052e-07 6.14693e-05
0.00117219 -3.24628e-05 -2.10133e-06
-3.24628e-05 4.29038e-06 -2.46024e-06
-2.10133e-06 -2.46024e-06 -5.37279e-05
0.00108669 -2.84039e-05 -9.35589e-07
-2.84039e-05 3.58172e-05 1.22466e-07
-9.35589e-07 1.22466e-07 -3.2395e-05
0.00118464 -3.02219e-05 -1.04896e-06
-3.02219e-05 8.52523e-05 -1.60015e-07
-1.04896e-06 -1.60015e-07 1.08973e-05
0.00112277 -2.66605e-05 -4.16189e-07
-2.66605e-05 7.42625e-05 2.21082e-07
-4.16189e-07 2.21082e-07 -2.79174e-06
0.0010028 7.06299e-06 -7.28953e-07
7.06299e-06 5.08877e-06 1.22736e-06
-7.28953e-07 1.22736e-06 -2.56259e-05
0.00113778 2.82023e-06 -5.42593e-07
2.82023e-06 7.92041e-05 1.46184e-06
-5.42593e-07 1.46184e-06 2.5791e-05
0.00115274 -2.2937e-05 -1.26117e-06
-2.2937e-05 8.9227e-05 1.51438e-06
-1.26117e-06 1.51438e-06 2.08301e-05
0.00127103 2.57869e-05 9.33131e-08
2.57869e-05 4.75197e-05 2.99049e-07
9.33131e-08 2.99049e-07 -2.05172e-05
0.00101581 5.5837e-06 -5.35109e-08
5.5837e-06 8.61715e-06 -1.78454e-09
-5.35109e-08 -1.78454e-09 -2.04327e-05
0.00096096 1.57441e-09 -2.83427e-07
1.57441e-09 -1.20585e-05 -2.61139e-09
-2.83427e-07 -2.61139e-09 -5.90038e-05
0.00147595 1.26596e-05 1.75001e-07
1.26596e-05 9.84672e-05 4.97874e-07
1.75001e-07 4.97874e-07 3.29441e-05
0.0012723 -1.51697e-05 -1.86245e-07
-1.51697e-05 -5.70179e-06 -3.71696e-07
-1.86245e-07 -3.71696e-07 -4.66607e-05
0.00102794 -2.83911e-05 -1.36898e-07
-2.83911e-05 1.555e-05 4.10848e-07
-1.36898e-07 4.10848e-07 -5.33676e-05
0.0012444 -3.49452e-05 -1.79188e-07
-3.49452e-05 0.000126933 1.57423e-07
-1.79188e-07 1.57423e-07 4.47239e-05
0.00117378 -3.54233e-05 5.92274e-07
-3.54233e-05 5.62489e-05 7.40063e-07
5.92274e-07 7.40063e-07 -2.34195e-05
0.0014651 -3.2512e-05 2.9688e-08
-3.2512e-05 0.000100106 -9.1608e-07
2.9688e-08 -9.1608e-07 5.92705e-05
0.00108924 8.88687e-07 2.19679e-07
8.88687e-07 5.4631e-05 -4.9614e-07
2.19679e-07 -4.9614e-07 4.28841e-06
0.00115443 -1.53848e-05 -3.25285e-07
-1.53848e-05 9.36881e-05 4.98853e-07
-3.25285e-07 4.98853e-07 2.47502e-05
0.00114768 -3.05413e-05 3.23345e-07
-3.05413e-05 6.62982e-05 1.92879e-07
3.23345e-07 1.92879e-07 -5.19019e-06
0.00122757 -3.21939e-05 -7.20697e-07
-3.21939e-05 0.000111436 -3.27295e-07
-7.20697e-07 -3.27295e-07 3.32069e-05
0.00112801 -2.86543e-05 2.61351e-07
-2.86543e-05 7.07777e-05 2.28265e-07
2.61351e-07 2.28265e-07 -1.31724e-05
0.0011105 -2.58763e-05 3.19186e-07
-2.58763e-05 7.101e-05 -3.71997e-07
3.19186e-07 -3.71997e-07 -7.21586e-06
0.0013783 2.79816e-05 1.00935e-06
2.79816e-05 9.35333e-05 1.16427e-06
1.00935e-06 1.16427e-06 2.21813e-05
0.00150532 5.11882e-06 -8.36346e-07
5.11882e-06 0.000104681 -1.88241e-06
-8.36346e-07 -1.88241e-06 5.40228e-05
0.00158899 -2.77651e-05 -2.79812e-06
-2.77651e-05 0.000108946 -2.66563e-07
-2.79812e-06 -2.66563e-07 8.84681e-05
0.00142073 -3.9885e-05 1.85862e-06
-3.9885e-05 0.00012928 2.76862e-06
1.85862e-06 2.76862e-06 6.40684e-05
0.00105437 -3.07661e-05 3.03248e-07
-3.07661e-05 3.3155e-05 -9.88192e-07
3.03248e-07 -9.88192e-07 -4.13865e-05
0.00149374 -4.11655e-05 4.88656e-07
-4.11655e-05 0.000244436 -9.55345e-07
4.88656e-07 -9.55345e-07 0.000154621
0.000865769 1.84838e-06 1.62045e-07
1.84838e-06 -6.045e-05 -1.61512e-06
1.62045e-07 -1.61512e-06 -0.000105961
0.00105464 -5.65442e-06 5.27089e-07
-5.65442e-06 3.58843e-05 -1.15141e-06
5.27089e-07 -1.15141e-06 -1.2395e-05
0.00129439 -1.40757e-06 -1.4091e-07
-1.40757e-06 0.000159544 -2.84417e-07
-1.4091e-07 -2.84417e-07 9.97944e-05
0.000911383 -1.59523e-06 1.45641e-07
-1.59523e-06 -2.26657e-05 -9.28768e-07
1.45641e-07 -9.28768e-07 -9.12935e-05
0.00121639 -2.43689e-05 4.18957e-07
-2.43689e-05 0.000124527 -1.17095e-07
4.18957e-07 -1.17095e-07 4.65966e-05
0.000976796 -2.57364e-05 2.23033e-07
-2.57364e-05 3.69145e-06 -5.87658e-07
2.23033e-07 -5.87658e-07 -8.55339e-05
0.00127993 -3.20265e-05 1.61137e-06
-3.20265e-05 0.000152083 9.01181e-08
1.61137e-06 9.01181e-08 6.05621e-05
0.00108443 -3.27167e-05 3.05237e-07
-3.27167e-05 4.86037e-05 -2.64609e-07
3.05237e-07 -2.64609e-07 -2.90138e-05
0.000984804 1.66179e-05 -4.31739e-07
1.66179e-05 4.63187e-06 -4.41851e-07
-4.31739e-07 -4.41851e-07 -6.28804e-05
0.00116025 2.67197e-05 -1.43335e-06
2.67197e-05 8.81086e-05 -6.42869e-07
-1.43335e-06 -6.42869e-07 1.40894e-05
0.00137916 7.31839e-06 -9.09345e-07
7.31839e-06 4.8138e-05 -1.23556e-06
-9.09345e-07 -1.23556e-06 6.67378e-06
0.00127663 2.76376e-05 -9.11668e-07
2.76376e-05 4.35684e-05 8.06406e-07
-9.11668e-07 8.06406e-07 -8.26643e-06
0.00122505 2.89627e-05 -1.06191e-06
2.89627e-05 0.000112264 -2.20348e-07
-1.06191e-06 -2.20348e-07 3.78588e-05
0.00120578 3.0477e-05 -7.80504e-07
3.0477e-05 0.000105716 -1.15436e-06
-7.80504e-07 -1.15436e-06 3.22676e-05
0.00154468 4.06622e-05 -1.119e-06
4.06622e-05 0.000222046 1.51716e-07
-1.119e-06 1.51716e-07 0.000144103
0.00103392 3.36902e-05 -9.95484e-07
3.36902e-05 1.51878e-05 -1.05193e-06
-9.95484e-07 -1.05193e-06 -7.43726e-05
0.00114234 2.6651e-05 -3.00747e-07
2.6651e-05 8.64652e-05 -3.25921e-07
-3.00747e-07 -3.25921e-07 1.07949e-05
0.00116368 -8.39479e-06 2.94397e-07
-8.39479e-06 -3.16541e-05 5.97772e-07
2.94397e-07 5.97772e-07 -7.86752e-05
0.00117944 2.98859e-05 2.20672e-07
2.98859e-05 9.70749e-05 3.21695e-07
2.20672e-07 3.21695e-07 1.57399e-05
0.00106015 3.1046e-05 2.76346e-07
3.1046e-05 3.43267e-05 -7.31652e-08
2.76346e-07 -7.31652e-08 -4.92165e-05
0.0013994 2.45237e-05 5.29895e-07
2.45237e-05 2.62584e-05 -3.40013e-07
5.29895e-07 -3.40013e-07 -8.67473e-06
0.0014322 4.37918e-05 6.71435e-07
4.37918e-05 0.000122568 -6.71251e-07
6.71435e-07 -6.71251e-07 4.48264e-05
0.00144942 4.11608e-05 2.54028e-07
4.11608e-05 0.000216325 5.29005e-07
2.54028e-07 5.29005e-07 0.000119437
0.00121727 2.80866e-05 2.9345e-07
2.80866e-05 0.000126667 3.32483e-07
2.9345e-07 3.32483e-07 4.40387e-05
0.00139024 1.56036e-05 2.16363e-06
1.56036e-05 -9.24154e-06 -2.56557e-06
2.16363e-06 -2.56557e-06 -4.29296e-05
0.0013665 3.27987e-05 4.3326e-07
3.27987e-05 0.000185675 8.60887e-08
4.3326e-07 8.60887e-08 0.000100139
0.00157586 3.97064e-05 -1.84758e-07
3.97064e-05 0.000287219 1.12616e-06
-1.84758e-07 1.12616e-06 0.000191679
0.00116725 4.80999e-05 4.20186e-06
4.80999e-05 -8.3534e-05 -8.89943e-07
4.20186e-06 -8.89943e-07 -0.00014818
0.00105215 4.29241e-05 3.78861e-07
4.29241e-05 1.17019e-05 9.91109e-07
3.78861e-07 9.91109e-07 -9.19179e-05
0.00216987 -6.16315e-05 -6.48048e-06
-6.16315e-05 5.9829e-05 -8.61186e-06
-6.48048e-06 -8.61186e-06 0.000106325
0.00112982 2.30975e-05 -3.93564e-07
2.30975e-05 8.30235e-05 -5.76057e-07
-3.93564e-07 -5.76057e-07 8.53447e-06
0.00113103 2.57922e-05 -2.81853e-08
2.57922e-05 8.58215e-05 -3.14234e-08
-2.81853e-08 -3.14234e-08 5.2336e-06
0.0012344 2.73106e-05 4.49643e-07
2.73106e-05 0.000133779 7.69685e-08
4.49643e-07 7.69685e-08 4.91648e-05
0.00105466 -3.85958e-06 -9.02126e-09
-3.85958e-06 3.74377e-05 -1.19039e-06
-9.02126e-09 -1.19039e-06 -1.32084e-05
0.000961508 3.25002e-06 -2.2637e-07
3.25002e-06 -3.44436e-06 -4.19108e-07
-2.2637e-07 -4.19108e-07 -6.82679e-05
0.00124165 1.75057e-05 -1.95323e-07
1.75057e-05 0.00013713 -2.82041e-07
-1.95323e-07 -2.82041e-07 6.44272e-05
0.00106096 1.65227e-05 -5.95172e-07
1.65227e-05 4.6944e-05 -9.8749e-07
-5.95172e-07 -9.8749e-07 -3.38434e-05
0.00105053 -7.23272e-06 1.21789e-08
-7.23272e-06 3.63843e-05 1.63969e-08
1.21789e-08 1.63969e-08 -1.46142e-05
0.00101874 1.01372e-05 1.23996e-07
1.01372e-05 2.50066e-05 -8.23833e-09
1.23996e-07 -8.23833e-09 -4.02793e-05
0.00114578 2.60295e-05 -4.54778e-07
2.60295e-05 8.4012e-05 -6.12422e-07
-4.54778e-07 -6.12422e-07 -2.05242e-07
0.00113001 1.27645e-05 1.25443e-08
1.27645e-05 8.1015e-05 8.39581e-09
1.25443e-08 8.39581e-09 7.59572e-06
0.00114351 7.27942e-06 4.2817e-08
7.27942e-06 8.61598e-05 -1.21507e-08
4.2817e-08 -1.21507e-08 5.88357e-06
0.0011347 1.58997e-05 2.50463e-07
1.58997e-05 7.24332e-05 8.0467e-07
2.50463e-07 8.0467e-07 -1.41081e-05
0.00123433 1.99166e-05 1.22444e-07
1.99166e-05 0.000130267 1.71833e-07
1.22444e-07 1.71833e-07 4.96916e-05
0.00123745 2.2291e-05 1.86236e-07
2.2291e-05 0.000133401 3.10592e-07
1.86236e-07 3.10592e-07 5.95605e-05
0.000924026 5.7615e-06 1.15693e-07
5.7615e-06 -2.11508e-05 8.49875e-07
1.15693e-07 8.49875e-07 -8.79128e-05
0.000845015 3.0454e-07 -2.24766e-08
3.0454e-07 -6.43859e-05 1.62273e-06
-2.24766e-08 1.62273e-06 -0.000117026
0.00128051 -6.34586e-07 4.5142e-08
-6.34586e-07 0.000155655 3.84102e-07
4.5142e-08 3.84102e-07 9.09734e-05
0.000848496 -1.72466e-06 -2.89298e-07
-1.72466e-06 -6.33799e-05 1.59857e-06
-2.89298e-07 1.59857e-06 -0.000115857
0.00102524 1.18921e-06 -1.46932e-07
1.18921e-06 1.04063e-05 1.8462e-06
-1.46932e-07 1.8462e-06 -2.10867e-05
0.00102406 -3.76593e-08 5.64887e-08
-3.76593e-08 9.66744e-06 7.10545e-09
5.64887e-08 7.10545e-09 -2.17354e-05
0.000961591 -3.31081e-07 1.00694e-07
-3.31081e-07 -3.3378e-05 3.3241e-06
1.00694e-07 3.3241e-06 -3.46947e-05
0.00102905 -1.26812e-06 -1.55566e-07
-1.26812e-06 1.24193e-05 -1.88319e-06
-1.55566e-07 -1.88319e-06 -1.88195e-05
0.00126905 -2.29058e-06 -3.56631e-07
-2.29058e-06 0.000119092 -1.29925e-06
-3.56631e-07 -1.29925e-06 0.000119264
0.00239849 -2.99166e-06 1.71284e-06
-2.99166e-06 0.000671848 4.17663e-06
1.71284e-06 4.17663e-06 0.000695005
0.00159304 -4.23379e-06 -1.38098e-06
-4.23379e-06 0.000280908 -4.6163e-06
-1.38098e-06 -4.6163e-06 0.000282249
0.00116599 -4.67345e-06 6.88577e-07
-4.67345e-06 6.65886e-05 2.56185e-06
6.88577e-07 2.56185e-06 8.35593e-05
0.00111284 -6.54229e-06 -9.63854e-07
-6.54229e-06 4.36754e-05 -1.63147e-06
-9.63854e-07 -1.63147e-06 6.03381e-05
0.00102054 3.16587e-06 3.45031e-07
3.16587e-06 5.5163e-06 -1.88774e-06
3.45031e-07 -1.88774e-06 -2.03057e-05
0.00102112 4.45209e-06 -4.40332e-08
4.45209e-06 8.13649e-06 1.55342e-09
-4.40332e-08 1.55342e-09 -1.91057e-05
0.000944872 5.61836e-06 9.32977e-07
5.61836e-06 -3.79343e-05 -3.17454e-06
9.32977e-07 -3.17454e-06 -3.71558e-05
0.00124724 7.66498e-06 -2.76219e-07
7.66498e-06 0.000114493 3.54158e-08
-2.76219e-07 3.54158e-08 0.000115183
0.0023426 9.68862e-06 5.25557e-06
9.68862e-06 0.000650252 -3.95561e-06
5.25557e-06 -3.95561e-06 0.00067313
0.000962103 8.71142e-06 -1.77526e-06
8.71142e-06 -2.23041e-05 3.16646e-06
-1.77526e-06 3.16646e-06 -2.4594e-05
0.00237914 1.20801e-05 -3.00762e-07
1.20801e-05 0.000673006 -3.01644e-08
-3.00762e-07 -3.01644e-08 0.000694705
0.00241485 1.4308e-05 -7.94975e-06
1.4308e-05 0.000695718 3.99992e-06
-7.94975e-06 3.99992e-06 0.000716228
0.00127501 -8.72765e-06 -1.07724e-07
-8.72765e-06 3.50838e-05 -8.39622e-07
-1.07724e-07 -8.39622e-07 -1.55329e-05
0.00127779 -2.68073e-05 2.43407e-07
-2.68073e-05 7.8882e-05 1.16024e-06
2.43407e-07 1.16024e-06 1.03206e-05
0.00129249 3.43065e-06 -8.30975e-08
3.43065e-06 9.19999e-05 -4.48381e-07
-8.30975e-08 -4.48381e-07 2.61376e-05
0.00126176 -1.84102e-07 -3.30663e-07
-1.84102e-07 7.80921e-05 -1.03102e-06
-3.30663e-07 -1.03102e-06 1.20706e-05
0.00122022 -2.12282e-05 -4.88659e-08
-2.12282e-05 3.58564e-05 3.41279e-07
-4.88659e-08 3.41279e-07 -2.5674e-05
0.00120668 -2.18187e-05 1.24763e-06
-2.18187e-05 3.81128e-05 4.92737e-07
1.24763e-06 4.92737e-07 -8.90215e-06
0.00136553 -2.18856e-06 -1.06703e-06
-2.18856e-06 0.000118985 4.92574e-07
-1.06703e-06 4.92574e-07 5.71113e-05
0.00160213 -4.79466e-05 -9.60031e-06
-4.79466e-05 0.000189852 -8.30892e-06
-9.60031e-06 -8.30892e-06 0.00018585
0.000991986 7.8435e-07 -1.6389e-06
7.8435e-07 -7.86458e-05 -9.86411e-07
-1.6389e-06 -9.86411e-07 -0.00010369
0.00105605 -3.11013e-06 -8.41058e-08
-3.11013e-06 3.10184e-05 -1.11239e-06
-8.41058e-08 -1.11239e-06 -1.18305e-05
0.00119458 2.49147e-05 -6.43317e-07
2.49147e-05 9.55147e-06 -7.57229e-07
-6.43317e-07 -7.57229e-07 -5.90751e-05
0.00148301 1.23344e-05 4.60724e-07
1.23344e-05 0.000100624 9.40019e-07
4.60724e-07 9.40019e-07 3.56739e-05
0.00118583 -1.57295e-05 1.48634e-06
-1.57295e-05 -4.42915e-05 1.1542e-06
1.48634e-06 1.1542e-06 -8.79386e-05
0.00102106 -2.82441e-05 -5.22972e-07
-2.82441e-05 1.19941e-05 9.13687e-07
-5.22972e-07 9.13687e-07 -5.66096e-05
0.00114099 -3.40065e-05 -5.89081e-07
-3.40065e-05 7.67359e-05 2.0867e-06
-5.89081e-07 2.0867e-06 -6.34878e-06
0.00101424 -3.33846e-05 -9.803e-07
-3.33846e-05 -2.28071e-05 -5.01123e-07
-9.803e-07 -5.01123e-07 -0.000101372
0.00131867 -3.23798e-05 -5.01141e-07
-3.23798e-05 3.07575e-05 -2.7711e-06
-5.01141e-07 -2.7711e-06 -1.02777e-05
0.00123396 -3.14232e-05 -9.82013e-08
-3.14232e-05 0.00010757 7.37921e-08
-9.82013e-08 7.37921e-08 3.63154e-05
0.00109585 -3.08074e-05 -2.30249e-06
-3.08074e-05 4.59048e-05 -9.35312e-07
-2.30249e-06 -9.35312e-07 -3.10047e-05
0.00105839 -2.79133e-05 -1.10753e-06
-2.79133e-05 3.62768e-05 3.5481e-07
-1.10753e-06 3.5481e-07 -4.88286e-05
0.00101946 5.51639e-06 -7.90365e-07
5.51639e-06 1.02532e-05 1.82568e-06
-7.90365e-07 1.82568e-06 -1.88078e-05
0.00114495 -2.62698e-05 -5.54848e-08
-2.62698e-05 8.74792e-05 2.72577e-07
-5.54848e-08 2.72577e-07 9.59239e-06
0.00133653 -2.51515e-06 -2.76444e-07
-2.51515e-06 0.000175532 6.69603e-07
-2.76444e-07 6.69603e-07 0.000126855
0.00114748 -1.31083e-05 -6.65307e-07
-1.31083e-05 9.07492e-05 1.22954e-06
-6.65307e-07 1.22954e-06 2.16691e-05
0.000854124 3.95268e-06 -3.72264e-07
3.95268e-06 -6.41682e-05 1.15305e-06
-3.72264e-07 1.15305e-06 -0.000111656
0.00135801 2.74874e-05 2.87875e-07
2.74874e-05 7.65078e-05 2.90244e-09
2.87875e-07 2.90244e-09 4.35024e-06
0.000962541 9.79982e-07 8.00016e-08
9.79982e-07 -1.34679e-05 -4.68622e-07
8.00016e-08 -4.68622e-07 -5.81912e-05
0.00105429 -4.53427e-06 4.23233e-09
-4.53427e-06 3.57352e-05 1.89719e-08
4.23233e-09 1.89719e-08 -1.254e-05
0.00112954 1.10934e-06 -2.07088e-07
1.10934e-06 7.8961e-05 4.91707e-07
-2.07088e-07 4.91707e-07 1.79514e-05
0.00151991 5.20264e-06 5.42552e-07
5.20264e-06 0.000113042 7.82274e-07
5.42552e-07 7.82274e-07 6.24686e-05
0.00139221 -2.84834e-05 -5.00898e-07
-2.84834e-05 1.63151e-05 -1.23667e-06
-5.00898e-07 -1.23667e-06 -7.42448e-06
0.00110924 -3.13391e-05 -8.6024e-09
-3.13391e-05 5.74962e-05 2.01503e-07
-8.6024e-09 2.01503e-07 -1.662e-05
0.00116856 -3.78113e-05 4.1298e-07
-3.78113e-05 9.05102e-05 -1.21144e-07
4.1298e-07 -1.21144e-07 4.94849e-07
0.00122295 -3.78844e-05 1.05287e-08
-3.78844e-05 3.47621e-05 7.05715e-07
1.05287e-08 7.05715e-07 -2.93796e-05
0.00100233 -2.40469e-06 -3.53034e-08
-2.40469e-06 2.16711e-05 3.41759e-08
-3.53034e-08 3.41759e-08 -4.58838e-05
0.00122097 -2.42475e-05 2.1395e-07
-2.42475e-05 0.000125932 4.5198e-08
2.1395e-07 4.5198e-08 4.76915e-05
0.00111688 -3.29705e-05 -3.53555e-07
-3.29705e-05 6.38858e-05 1.95575e-08
-3.53555e-07 1.95575e-08 -1.38897e-05
0.00123125 -3.1265e-05 -7.2049e-08
-3.1265e-05 0.000126641 -3.16868e-08
-7.2049e-08 -3.16868e-08 3.73029e-05
0.0010741 -2.6734e-05 -6.97827e-07
-2.6734e-05 5.22117e-05 5.98751e-07
-6.97827e-07 5.98751e-07 -3.64076e-05
0.00131301 2.814e-05 1.58571e-07
2.814e-05 3.90787e-05 -4.0831e-08
1.58571e-07 -4.0831e-08 -3.48685e-05
0.00161921 -9.14538e-06 -2.20888e-06
-9.14538e-06 9.34307e-05 -3.04435e-06
-2.20888e-06 -3.04435e-06 8.22265e-05
0.00167531 -4.39182e-05 1.06367e-06
-4.39182e-05 0.000165085 2.75855e-06
1.06367e-06 2.75855e-06 0.000122295
0.0016131 -4.59085e-05 1.38483e-06
-4.59085e-05 0.000284395 -5.41631e-07
1.38483e-06 -5.41631e-07 0.000197121
0.000952552 -3.40486e-05 3.33872e-07
-3.40486e-05 -2.06092e-06 -1.45148e-06
3.33872e-07 -1.45148e-06 -8.41335e-05
0.000855161 1.36055e-05 -4.07651e-08
1.36055e-05 -5.68206e-05 -1.08352e-06
-4.07651e-08 -1.08352e-06 -0.000115955
0.000919225 1.71637e-06 2.59347e-07
1.71637e-06 -2.18785e-05 -7.93414e-07
2.59347e-07 -7.93414e-07 -8.68878e-05
0.00118162 1.24146e-05 1.82018e-08
1.24146e-05 0.000111919 1.15444e-07
1.82018e-08 1.15444e-07 4.04024e-05
0.00117446 -2.29692e-05 5.39404e-07
-2.29692e-05 0.000108071 -5.74785e-07
5.39404e-07 -5.74785e-07 2.82173e-05
0.00105173 -2.52799e-05 -1.11441e-07
-2.52799e-05 4.21988e-05 4.48084e-08
-1.11441e-07 4.48084e-08 -4.3658e-05
0.0012521 -2.96477e-05 1.8911e-06
-2.96477e-05 0.00014702 -1.27885e-06
1.8911e-06 -1.27885e-06 4.86549e-05
0.00118947 -3.53419e-05 1.78888e-06
-3.53419e-05 0.000115624 1.65397e-08
1.78888e-06 1.65397e-08 2.26365e-05
0.00111303 2.63594e-05 -7.21202e-07
2.63594e-05 7.22941e-05 -8.57115e-07
-7.21202e-07 -8.57115e-07 -3.38171e-06
0.00109862 2.91399e-05 -4.64947e-07
2.91399e-05 5.70783e-05 8.28923e-08
-4.64947e-07 8.28923e-08 -2.41294e-05
0.000976226 -7.28679e-06 1.02145e-06
-7.28679e-06 -0.00011611 1.24039e-06
1.02145e-06 1.24039e-06 -0.00016021
0.00121512 2.18679e-05 2.06731e-07
2.18679e-05 -5.48469e-05 8.90577e-08
2.06731e-07 8.90577e-08 -9.10041e-05
0.00163926 4.67178e-05 -1.7079e-06
4.67178e-05 0.000218019 6.02724e-08
-1.7079e-06 6.02724e-08 0.00014077
0.000928187 2.95976e-05 -2.68344e-07
2.95976e-05 -3.14488e-05 -7.52173e-07
-2.68344e-07 -7.52173e-07 -0.00011588
0.00136177 4.05194e-05 -8.0156e-07
4.05194e-05 0.000174906 -3.10238e-07
-8.0156e-07 -3.10238e-07 7.72895e-05
0.00120979 2.80194e-05 2.69941e-08
2.80194e-05 0.000122864 3.98333e-08
2.69941e-08 3.98333e-08 4.06958e-05
0.00122293 1.54504e-05 -1.39808e-06
1.54504e-05 -8.47692e-05 7.80266e-08
-1.39808e-06 7.80266e-08 -0.000116547
0.00121115 3.10926e-05 -7.34149e-08
3.10926e-05 0.000110842 -4.11457e-08
-7.34149e-08 -4.11457e-08 2.52019e-05
0.00126775 3.58477e-05 -8.17139e-08
3.58477e-05 0.000143701 1.68957e-07
-8.17139e-08 1.68957e-07 4.79384e-05
0.00133782 4.80089e-05 1.73179e-06
4.80089e-05 -1.15842e-05 -1.11226e-06
1.73179e-06 -1.11226e-06 -7.27997e-05
0.00121788 4.56934e-05 -6.53177e-07
4.56934e-05 9.59011e-05 1.00332e-06
-6.53177e-07 1.00332e-06 -1.13302e-05
0.00207509 -4.95537e-05 -1.46031e-06
-4.95537e-05 0.000124105 4.35636e-07
-1.46031e-06 4.35636e-07 0.000145468
0.00122352 2.83025e-05 -1.31324e-07
2.83025e-05 0.000131284 -2.39509e-07
-1.31324e-07 -2.39509e-07 4.44154e-05
0.00106048 5.71338e-05 8.40456e-06
5.71338e-05 -0.000229651 2.98712e-06
8.40456e-06 2.98712e-06 -0.000293018
0.00128469 3.23657e-05 -7.76474e-07
3.23657e-05 0.000159768 -7.2194e-08
-7.76474e-07 -7.2194e-08 6.81623e-05
0.00116423 4.04552e-05 -1.03633e-06
4.04552e-05 0.000132888 1.38577e-06
-1.03633e-06 1.38577e-06 1.47882e-05
0.000649651 6.0089e-05 1.48525e-06
6.0089e-05 -0.000231364 -6.8459e-07
1.48525e-06 -6.8459e-07 -0.000332602
0.00507969 3.274e-06 1.04595e-06
3.274e-06 0.0016537 -2.10796e-06
1.04595e-06 -2.10796e-06 0.00130308
0.00106602 -6.37866e-05 3.72469e-05
-6.37866e-05 0.000135033 1.16626e-05
3.72469e-05 1.16626e-05 -4.24168e-05
0.00248394 -5.24664e-08 -9.75089e-06
-5.24664e-08 0.000216216 -5.13244e-06
-9.75089e-06 -5.13244e-06 0.00027563
-0.00279646 -5.4501e-05 -4.79156e-05
-5.4501e-05 -0.00143771 -1.3226e-05
-4.79156e-05 -1.3226e-05 -0.00144394
0.000880924 -6.30143e-05 -1.66933e-06
-6.30143e-05 -3.87069e-05 4.70045e-07
-1.66933e-06 4.70045e-07 0.000175989
0.001118 2.55764e-05 -3.74893e-07
2.55764e-05 8.05068e-05 -4.45949e-07
-3.74893e-07 -4.45949e-07 -1.46354e-07
0.00118991 2.66894e-05 -5.48109e-08
2.66894e-05 0.000112482 -8.0359e-08
-5.48109e-08 -8.0359e-08 2.79115e-05
0.00116683 2.39344e-05 4.83692e-07
2.39344e-05 9.32669e-05 3.5867e-07
4.83692e-07 3.5867e-07 5.07657e-06
0.00105066 -1.05187e-05 1.09708e-07
-1.05187e-05 3.65259e-05 -1.14844e-06
1.09708e-07 -1.14844e-06 -1.45566e-05
0.000961885 1.25117e-05 -2.34193e-07
1.25117e-05 -2.97234e-06 -8.35052e-07
-2.34193e-07 -8.35052e-07 -6.87175e-05
0.00112645 6.88799e-06 -2.35657e-07
6.88799e-06 7.93837e-05 -6.74351e-07
-2.35657e-07 -6.74351e-07 6.09859e-06
0.00122452 1.17783e-05 -4.16514e-07
1.17783e-05 0.000126783 -6.79703e-07
-4.16514e-07 -6.79703e-07 4.71534e-05
0.00109983 2.37453e-05 -1.20113e-06
2.37453e-05 6.06837e-05 -1.10533e-06
-1.20113e-06 -1.10533e-06 -2.35706e-05
0.00112322 1.92306e-05 -1.65714e-07
1.92306e-05 7.70265e-05 -3.65452e-07
-1.65714e-07 -3.65452e-07 2.42075e-06
0.000948914 -7.35554e-07 -2.02828e-08
-7.35554e-07 -1.33642e-05 4.87779e-07
-2.02828e-08 4.87779e-07 -6.52967e-05
0.00100379 3.27601e-06 3.31873e-08
3.27601e-06 1.8249e-05 -4.21693e-09
3.31873e-08 -4.21693e-09 -4.8034e-05
0.00116029 1.78977e-05 5.60965e-08
1.78977e-05 8.65219e-05 1.63667e-07
5.60965e-08 1.63667e-07 5.09567e-07
0.00118356 1.89573e-05 -1.94825e-07
1.89573e-05 0.000104932 -4.15478e-07
-1.94825e-07 -4.15478e-07 2.41961e-05
0.00126149 2.7137e-05 -7.086e-08
2.7137e-05 0.000143803 -1.24847e-07
-7.086e-08 -1.24847e-07 6.33787e-05
0.00120452 2.13242e-05 9.89504e-08
2.13242e-05 0.000112759 5.22334e-07
9.89504e-08 5.22334e-07 2.59301e-05
0.00102722 2.00897e-05 3.36854e-07
2.00897e-05 3.03241e-05 1.04869e-06
3.36854e-07 1.04869e-06 -4.6647e-05
0.000921202 -1.96871e-06 3.49919e-08
-1.96871e-06 -2.21359e-05 4.56812e-07
3.49919e-08 4.56812e-07 -8.97174e-05
0.000843761 -7.90657e-06 -3.73019e-07
-7.90657e-06 -6.51621e-05 1.57293e-06
-3.73019e-07 1.57293e-06 -0.000117752
0.0011382 1.39267e-06 -5.07511e-08
1.39267e-06 8.51484e-05 7.3426e-07
-5.07511e-08 7.3426e-07 1.97517e-05
0.00126456 4.37624e-06 -8.31925e-08
4.37624e-06 0.000149821 2.4881e-07
-8.31925e-08 2.4881e-07 7.47072e-05
0.00107924 -9.97956e-06 -2.61993e-07
-9.97956e-06 5.70058e-05 8.37327e-07
-2.61993e-07 8.37327e-07 -9.64504e-06
0.00111004 -3.37405e-06 1.93007e-07
-3.37405e-06 7.1975e-05 -4.5349e-07
1.93007e-07 -4.5349e-07 6.17963e-06
0.00105209 -6.79652e-06 -3.19173e-07
-6.79652e-06 3.58967e-05 1.17447e-06
-3.19173e-07 1.17447e-06 -1.57451e-05
0.000855596 2.26362e-07 -2.45839e-08
2.26362e-07 -5.99151e-05 4.51936e-07
-2.45839e-08 4.51936e-07 -0.000112427
0.00102577 2.0129e-06 -3.48215e-07
2.0129e-06 1.11622e-05 1.84322e-06
-3.48215e-07 1.84322e-06 -2.0359e-05
0.00102354 7.19085e-07 4.15011e-08
7.19085e-07 9.4795e-06 8.49748e-09
4.15011e-08 8.49748e-09 -2.19925e-05
0.00098571 1.45916e-06 -4.05576e-07
1.45916e-06 -2.13826e-05 4.62352e-06
-4.05576e-07 4.62352e-06 -2.29538e-05
0.00102478 -5.28043e-07 8.30805e-08
-5.28043e-07 1.00109e-05 -1.86001e-06
8.30805e-08 -1.86001e-06 -2.13906e-05
0.00096383 -3.33271e-07 8.83802e-08
-3.33271e-07 -3.22733e-05 2.10413e-09
8.83802e-08 2.10413e-09 -3.36063e-05
0.00240599 -6.78586e-07 5.5268e-08
-6.78586e-07 0.000674575 4.18036e-06
5.5268e-08 4.18036e-06 0.000697813
0.000982755 -2.12853e-06 -4.02521e-07
-2.12853e-06 -2.19403e-05 -4.64399e-06
-4.02521e-07 -4.64399e-06 -2.33806e-05
0.00178014 -2.72498e-06 -5.14908e-08
-2.72498e-06 0.00036701 3.95528e-08
-5.14908e-08 3.95528e-08 0.000387233
0.00111583 -4.52513e-06 -5.86996e-07
-4.52513e-06 4.18199e-05 -1.62674e-06
-5.86996e-07 -1.62674e-06 5.90424e-05
0.00102324 1.66923e-06 1.42325e-07
1.66923e-06 5.33626e-06 -1.88026e-06
1.42325e-07 -1.88026e-06 -1.95454e-05
0.00102407 3.1158e-06 -4.00614e-08
3.1158e-06 7.13655e-06 -9.21731e-09
-4.00614e-08 -9.21731e-09 -1.8693e-05
0.000952673 3.85557e-06 5.62861e-07
3.85557e-06 -3.66313e-05 -3.20495e-06
5.62861e-07 -3.20495e-06 -3.4779e-05
0.00102611 4.43062e-06 -6.01953e-07
4.43062e-06 1.04849e-05 1.84198e-06
-6.01953e-07 1.84198e-06 -1.67803e-05
0.00123872 5.8995e-06 -2.37149e-08
5.8995e-06 0.000106659 -6.03247e-07
-2.37149e-08 -6.03247e-07 0.000108852
0.0023114 7.27287e-06 4.02966e-06
7.27287e-06 0.00063151 -3.96747e-06
4.02966e-06 -3.96747e-06 0.00065526
0.000956482 7.27175e-06 -1.45785e-06
7.27175e-06 -2.86662e-05 3.15769e-06
-1.45785e-06 3.15769e-06 -2.96109e-05
0.00236631 9.52373e-06 -1.89077e-06
9.52373e-06 0.000662849 1.1688e-06
-1.89077e-06 1.1688e-06 0.000685382
0.00237567 1.21095e-05 -6.92272e-06
1.21095e-05 0.000671869 4.01125e-06
-6.92272e-06 4.01125e-06 0.00069345
0.00120437 -2.08143e-05 -3.27231e-07
-2.08143e-05 3.16407e-05 3.80211e-07
-3.27231e-07 3.80211e-07 -2.99457e-05
0.00125573 -1.15415e-06 -5.24463e-07
-1.15415e-06 7.53237e-05 -9.73251e-07
-5.24463e-07 -9.73251e-07 9.44926e-06
0.00121138 -2.3306e-05 5.62064e-06
-2.3306e-05 5.0546e-05 2.23667e-06
5.62064e-06 2.23667e-06 2.12127e-06
0.00114268 -4.3794e-05 -3.81644e-06
-4.3794e-05 -3.26484e-05 -2.79166e-06
-3.81644e-06 -2.79166e-06 -2.43188e-05
0.00118997 -2.83729e-06 -4.68545e-07
-2.83729e-06 3.89949e-05 -6.38036e-07
-4.68545e-07 -6.38036e-07 -2.3248e-05
0.00106187 1.12243e-06 -7.16074e-08
1.12243e-06 -4.73692e-05 -8.36705e-07
-7.16074e-08 -8.36705e-07 -7.90343e-05
0.00102651 2.05651e-05 -1.78554e-06
2.05651e-05 -8.02922e-05 2.93968e-06
-1.78554e-06 2.93968e-06 -0.000143802
0.00152768 -5.41071e-05 0.000102142
-5.41071e-05 0.000103733 2.83957e-05
0.000102142 2.83957e-05 -3.04177e-05
0.000902605 -4.49594e-06 -8.25916e-06
-4.49594e-06 6.76214e-05 1.39102e-06
-8.25916e-06 1.39102e-06 5.4913e-05
0.0010571 -1.28337e-07 2.087e-09
-1.28337e-07 3.07375e-05 -1.05105e-06
2.087e-09 -1.05105e-06 -1.11109e-05
0.00106255 -4.41446e-06 -1.54982e-07
-4.41446e-06 3.42563e-05 3.56563e-09
-1.54982e-07 3.56563e-09 -8.66461e-06
0.00106476 1.48861e-05 -3.08183e-07
1.48861e-05 4.3611e-05 -6.00321e-07
-3.08183e-07 -6.00321e-07 -1.24942e-05
0.00107037 -4.9781e-06 -1.20583e-07
-4.9781e-06 4.57444e-05 -3.20414e-07
-1.20583e-07 -3.20414e-07 -7.82115e-06
0.00134017 2.70538e-05 -5.80034e-07
2.70538e-05 6.04287e-05 -2.70581e-07
-5.80034e-07 -2.70581e-07 -1.25144e-05
0.00151947 5.21363e-06 2.62879e-06
5.21363e-06 0.00011412 2.04666e-06
2.62879e-06 2.04666e-06 6.36508e-05
0.00121036 -2.92564e-05 -2.00759e-08
-2.92564e-05 -6.89643e-05 -1.53235e-06
-2.00759e-08 -1.53235e-06 -9.60453e-05
0.00116292 -3.19011e-05 -3.77605e-07
-3.19011e-05 8.12466e-05 1.37184e-06
-3.77605e-07 1.37184e-06 7.55977e-06
0.000837024 -3.43847e-05 -3.14476e-09
-3.43847e-05 -6.64098e-05 7.88789e-07
-3.14476e-09 7.88789e-07 -0.000156619
0.00103909 -3.6073e-05 -1.27018e-06
-3.6073e-05 -5.32256e-05 -1.89835e-06
-1.27018e-06 -1.89835e-06 -0.000116291
0.00114404 -3.3168e-05 -1.17415e-06
-3.3168e-05 7.65452e-05 2.55716e-07
-1.17415e-06 2.55716e-07 -1.37295e-06
0.00118018 -3.04693e-05 -1.7184e-06
-3.04693e-05 9.99608e-05 -2.16867e-07
-1.7184e-06 -2.16867e-07 1.28241e-05
0.00117344 -2.77331e-05 -8.62031e-07
-2.77331e-05 0.000101756 1.64663e-06
-8.62031e-07 1.64663e-06 1.37345e-05
0.00105688 -1.05292e-06 -4.11144e-07
-1.05292e-06 3.7009e-05 1.13998e-06
-4.11144e-07 1.13998e-06 -1.12604e-05
0.00122363 -2.50909e-05 -4.90604e-07
-2.50909e-05 0.000126484 4.45644e-07
-4.90604e-07 4.45644e-07 4.79066e-05
0.00109319 -4.5742e-06 -2.05198e-07
-4.5742e-06 6.60485e-05 1.01639e-06
-2.05198e-07 1.01639e-06 -4.72091e-07
0.00105789 1.58769e-06 -1.1516e-07
1.58769e-06 3.28773e-05 6.50838e-07
-1.1516e-07 6.50838e-07 -1.10817e-05
0.000962712 3.76033e-06 -2.62708e-07
3.76033e-06 -2.5683e-06 1.46498e-06
-2.62708e-07 1.46498e-06 -6.48333e-05
0.00139625 2.77618e-05 1.85782e-07
2.77618e-05 7.64419e-05 1.01305e-06
1.85782e-07 1.01305e-06 4.76769e-06
0.00106003 1.56856e-05 -6.42739e-08
1.56856e-05 4.35241e-05 -4.53319e-07
-6.42739e-08 -4.53319e-07 -1.44803e-05
0.00100147 -4.26506e-06 2.38203e-07
-4.26506e-06 1.84263e-05 1.8071e-08
2.38203e-07 1.8071e-08 -4.56657e-05
0.00109733 7.7525e-06 1.02022e-07
7.7525e-06 7.00552e-05 9.19115e-07
1.02022e-07 9.19115e-07 -6.6752e-07
0.00155785 -1.04238e-05 -7.57271e-07
-1.04238e-05 7.54741e-05 3.31139e-08
-7.57271e-07 3.31139e-08 5.91626e-05
0.00131087 -4.09314e-05 -7.5044e-07
-4.09314e-05 -8.45274e-06 -8.70303e-07
-7.5044e-07 -8.70303e-07 -5.02995e-05
0.0011077 -3.55046e-05 1.49853e-07
-3.55046e-05 7.11446e-05 -2.12154e-07
1.49853e-07 -2.12154e-07 -1.1039e-05
0.00138166 -4.36573e-05 2.41379e-07
-4.36573e-05 0.000174187 3.81218e-07
2.41379e-07 3.81218e-07 8.7614e-05
0.00121475 -2.21414e-05 -4.07066e-08
-2.21414e-05 0.00012821 1.44032e-08
-4.07066e-08 1.44032e-08 4.84524e-05
0.00106978 -2.56667e-05 -4.07574e-07
-2.56667e-05 5.00169e-05 9.25122e-07
-4.07574e-07 9.25122e-07 -3.47753e-05
0.0011244 -3.46294e-05 -4.53917e-07
-3.46294e-05 8.29752e-05 -2.06506e-07
-4.53917e-07 -2.06506e-07 -9.64197e-06
0.00125454 -2.94641e-05 6.23771e-07
-2.94641e-05 0.000149919 -3.32679e-07
6.23771e-07 -3.32679e-07 5.17101e-05
0.00125011 2.63927e-05 -1.11559e-06
2.63927e-05 -3.77765e-05 -2.77147e-06
-1.11559e-06 -2.77147e-06 -8.88953e-05
0.00184005 -4.30927e-05 1.34377e-06
-4.30927e-05 0.000154221 -1.49604e-06
1.34377e-06 -1.49604e-06 0.00014351
0.00157265 -5.21205e-05 3.57269e-06
-5.21205e-05 0.000193787 2.03207e-06
3.57269e-06 2.03207e-06 0.000109681
0.0012008 -4.39683e-05 1.28443e-06
-4.39683e-05 0.000117007 -1.086e-06
1.28443e-06 -1.086e-06 2.65071e-05
0.00103191 1.18352e-05 -2.93242e-07
1.18352e-05 3.80314e-05 -6.11603e-07
-2.93242e-07 -6.11603e-07 -3.5204e-05
0.0010391 -1.7678e-05 9.18504e-08
-1.7678e-05 4.16424e-05 -1.31395e-06
9.18504e-08 -1.31395e-06 -3.52668e-05
0.00110481 -2.53105e-05 7.41225e-08
-2.53105e-05 7.78394e-05 -1.06048e-06
7.41225e-08 -1.06048e-06 -1.54487e-05
0.00130913 -3.15475e-05 2.35489e-06
-3.15475e-05 0.00018182 1.4897e-07
2.35489e-06 1.4897e-07 7.17566e-05
0.00138211 2.55543e-05 9.27564e-06
2.55543e-05 -0.000324894 -1.20523e-06
9.27564e-06 -1.20523e-06 -0.00060488
0.00119581 2.78714e-05 -2.02109e-07
2.78714e-05 0.000115983 -3.37109e-07
-2.02109e-07 -3.37109e-07 3.42796e-05
0.00105846 2.94102e-05 -1.5516e-08
2.94102e-05 3.73051e-05 1.61182e-07
-1.5516e-08 1.61182e-07 -4.84459e-05
0.00111897 1.5372e-05 -2.50589e-06
1.5372e-05 -0.000131471 1.8066e-06
-2.50589e-06 1.8066e-06 -0.000161434
0.00153723 4.79011e-05 -2.46419e-06
4.79011e-05 7.36525e-05 -5.96111e-07
-2.46419e-06 -5.96111e-07 1.58672e-05
0.00138685 4.8556e-05 -1.78781e-06
4.8556e-05 0.000182094 8.03555e-07
-1.78781e-06 8.03555e-07 7.10567e-05
0.000993934 3.23904e-05 4.31854e-07
3.23904e-05 1.74066e-05 -2.81609e-07
4.31854e-07 -2.81609e-07 -7.86944e-05
0.0020216 -3.70064e-05 4.05307e-06
-3.70064e-05 0.000198491 8.21433e-06
4.05307e-06 8.21433e-06 0.000195216
0.00119511 2.79352e-05 4.41039e-08
2.79352e-05 0.000118276 -1.37606e-07
4.41039e-08 -1.37606e-07 3.17406e-05
0.00144316 5.78683e-05 2.15737e-06
5.78683e-05 -5.47807e-05 1.47804e-07
2.15737e-06 1.47804e-07 -0.000117124
0.00115309 3.06703e-05 8.31554e-08
3.06703e-05 9.74962e-05 7.10617e-08
8.31554e-08 7.10617e-08 6.11907e-06
0.00114598 3.96279e-05 -2.944e-07
3.96279e-05 0.0001217 1.54323e-07
-2.944e-07 1.54323e-07 5.70836e-06
0.000789104 5.96892e-05 -4.59271e-07
5.96892e-05 -0.00017087 -4.1836e-07
-4.59271e-07 -4.1836e-07 -0.000267256
0.00084662 6.3539e-06 -1.34497e-05
6.3539e-06 -0.000237417 -5.6739e-06
-1.34497e-05 -5.6739e-06 -0.000590704
0.0018242 -4.99335e-05 6.98416e-06
-4.99335e-05 0.000240519 -1.99592e-06
6.98416e-06 -1.99592e-06 -4.43793e-05
0.00239512 7.56706e-06 -2.4568e-06
7.56706e-06 0.0001775 -7.30421e-07
-2.4568e-06 -7.30421e-07 0.000228937
-0.000545628 -5.97587e-05 -1.03908e-05
-5.97587e-05 -0.000494359 -2.24779e-06
-1.03908e-05 -2.24779e-06 -0.000546335
0.000569436 -6.36606e-05 -1.98308e-06
-6.36606e-05 -0.00016512 -5.14362e-07
-1.98308e-06 -5.14362e-07 2.41824e-05
0.00113125 2.67405e-05 8.56307e-07
2.67405e-05 9.77506e-05 -3.39867e-08
8.56307e-07 -3.39867e-08 8.26312e-06
0.000522092 1.80122e-05 -6.65548e-05
1.80122e-05 2.36304e-05 -9.05082e-06
-6.65548e-05 -9.05082e-06 -0.000105748
0.00169107 -3.35896e-05 6.78841e-06
-3.35896e-05 0.000651456 5.80186e-06
6.78841e-06 5.80186e-06 0.000725691
0.00153756 8.08318e-05 7.48371e-06
8.08318e-05 8.32553e-05 7.03188e-06
7.48371e-06 7.03188e-06 -7.82455e-06
0.000974879 2.60849e-05 -1.0406e-07
2.60849e-05 3.40799e-05 -4.23494e-07
-1.0406e-07 -4.23494e-07 -6.97782e-05
0.00159242 4.35296e-05 -2.85285e-06
4.35296e-05 0.000371767 6.86548e-07
-2.85285e-06 6.86548e-07 0.00022353
0.00212553 3.08225e-06 -2.39178e-05
3.08225e-06 0.000183446 -2.46952e-05
-2.39178e-05 -2.46952e-05 0.000126582
0.00542963 -3.42968e-05 -4.83422e-05
-3.42968e-05 0.0015929 -1.93165e-05
-4.83422e-05 -1.93165e-05 0.00110994
0.00123297 1.23651e-05 3.05531e-05
1.23651e-05 0.00022649 2.06585e-05
3.05531e-05 2.06585e-05 -0.000209531
3.84334e-05 -0.000110546 -4.77421e-05
-0.000110546 -0.000101225 -2.90593e-05
-4.77421e-05 -2.90593e-05 -5.8188e-05
-0.000889818 -3.47853e-05 4.37151e-06
-3.47853e-05 -0.000983508 1.02147e-06
4.37151e-06 1.02147e-06 -0.00089635
0.00113713 2.59548e-05 -6.7146e-07
2.59548e-05 8.72791e-05 -5.57575e-07
-6.7146e-07 -5.57575e-07 2.75703e-06
0.00120197 2.47431e-05 -3.3164e-07
2.47431e-05 0.000110644 9.48969e-08
-3.3164e-07 9.48969e-08 2.2445e-05
0.00121327 2.41393e-05 -1.01612e-07
2.41393e-05 0.000104624 1.19377e-07
-1.01612e-07 1.19377e-07 1.40842e-05
0.00105223 -1.75913e-06 3.18835e-08
-1.75913e-06 3.74185e-05 -6.285e-07
3.18835e-08 -6.285e-07 -1.38321e-05
0.00108166 -6.28798e-07 4.9047e-08
-6.28798e-07 5.67166e-05 -8.52397e-07
4.9047e-08 -8.52397e-07 -9.0576e-06
0.00100699 1.54315e-05 -4.99361e-07
1.54315e-05 1.96964e-05 -9.27487e-07
-4.99361e-07 -9.27487e-07 -5.56533e-05
0.00113059 1.90668e-05 -4.52169e-07
1.90668e-05 7.86724e-05 -9.68903e-07
-4.52169e-07 -9.68903e-07 -2.30715e-06
0.00118131 1.74028e-05 -4.46406e-07
1.74028e-05 9.85573e-05 -5.57985e-07
-4.46406e-07 -5.57985e-07 1.30253e-05
0.000849401 -1.80067e-06 4.0167e-08
-1.80067e-06 -6.24633e-05 4.73417e-07
4.0167e-08 4.73417e-07 -0.000115078
0.00116693 2.28373e-05 -2.19136e-07
2.28373e-05 9.69394e-05 -5.66127e-07
-2.19136e-07 -5.66127e-07 1.65481e-05
0.00113304 1.13661e-05 2.24336e-08
1.13661e-05 8.24957e-05 3.61279e-07
2.24336e-08 3.61279e-07 6.4996e-06
0.0010201 1.50398e-06 1.10995e-07
1.50398e-06 2.6437e-05 -3.87208e-07
1.10995e-07 -3.87208e-07 -4.03983e-05
0.00113041 2.08139e-05 4.25989e-08
2.08139e-05 7.58179e-05 2.47792e-07
4.25989e-08 2.47792e-07 -1.15044e-05
0.00112223 2.01346e-05 1.0638e-07
2.01346e-05 7.75321e-05 3.66207e-07
1.0638e-07 3.66207e-07 -6.51015e-06
0.00113911 1.93572e-05 3.99491e-07
1.93572e-05 8.96519e-05 6.54481e-07
3.99491e-07 6.54481e-07 -2.61424e-06
0.00111416 -8.51005e-06 -2.26505e-07
-8.51005e-06 7.45897e-05 7.0141e-07
-2.26505e-07 7.0141e-07 -3.49838e-06
0.0011285 -7.63268e-06 -1.18742e-07
-7.63268e-06 8.00202e-05 3.08929e-07
-1.18742e-07 3.08929e-07 1.43061e-05
0.00113714 -3.57651e-06 -1.40047e-08
-3.57651e-06 8.4602e-05 -8.19922e-08
-1.40047e-08 -8.19922e-08 1.92244e-05
0.00114534 -4.89662e-06 -8.52617e-08
-4.89662e-06 9.1086e-05 -3.64751e-07
-8.52617e-08 -3.64751e-07 1.50936e-05
0.00112937 3.66412e-06 -1.93927e-07
3.66412e-06 8.29546e-05 8.09843e-07
-1.93927e-07 8.09843e-07 6.26119e-06
0.00111051 -1.30468e-05 -2.18969e-07
-1.30468e-05 7.48029e-05 6.39341e-07
-2.18969e-07 6.39341e-07 -2.11153e-06
0.00116559 -1.25915e-05 -8.32181e-08
-1.25915e-05 0.000102883 -9.32755e-08
-8.32181e-08 -9.32755e-08 2.01901e-05
0.00108927 -2.42952e-05 -9.76197e-07
-2.42952e-05 6.19098e-05 4.55026e-07
-9.76197e-07 4.55026e-07 -1.63549e-05
0.00107692 -1.42053e-05 -3.21417e-07
-1.42053e-05 5.60176e-05 8.225e-07
-3.21417e-07 8.225e-07 -1.18537e-05
0.00108258 -1.22639e-05 1.64863e-08
-1.22639e-05 5.87105e-05 6.36099e-09
1.64863e-08 6.36099e-09 -7.94157e-06
0.00105582 -8.54735e-06 -4.94701e-07
-8.54735e-06 3.71689e-05 1.19896e-06
-4.94701e-07 1.19896e-06 -1.5169e-05
0.000940926 -6.68884e-06 4.32752e-07
-6.68884e-06 -1.10732e-05 -1.31302e-06
4.32752e-07 -1.31302e-06 -7.79718e-05
0.000960378 -5.43396e-06 7.30301e-08
-5.43396e-06 -9.06314e-06 -2.04704e-08
7.30301e-08 -2.04704e-08 -6.13283e-05
0.00102339 2.99184e-06 -5.48095e-07
2.99184e-06 1.09421e-05 1.86713e-06
-5.48095e-07 1.86713e-06 -2.07887e-05
0.000864214 -6.80782e-09 1.5268e-07
-6.80782e-09 -5.57703e-05 -6.40392e-07
1.5268e-07 -6.40392e-07 -0.000108287
0.00102322 1.84167e-06 4.88481e-08
1.84167e-06 9.76e-06 6.74931e-09
4.88481e-08 6.74931e-09 -2.17382e-05
0.00160216 3.47487e-06 -1.60416e-06
3.47487e-06 0.000283702 4.55053e-06
-1.60416e-06 4.55053e-06 0.000284903
0.00102172 4.70607e-07 2.71238e-07
4.70607e-07 8.49401e-06 -1.85146e-06
2.71238e-07 -1.85146e-06 -2.29566e-05
0.00128423 1.59441e-06 -4.12276e-07
1.59441e-06 0.000125852 6.38227e-07
-4.12276e-07 6.38227e-07 0.000125816
0.00117409 1.21827e-06 -1.07288e-06
1.21827e-06 6.70798e-05 4.08035e-06
-1.07288e-06 4.08035e-06 8.43302e-05
0.000966076 -3.35896e-07 8.26789e-08
-3.35896e-07 -3.11651e-05 -3.31051e-06
8.26789e-08 -3.31051e-06 -3.25146e-05
0.00240245 -5.77255e-07 5.53023e-07
-5.77255e-07 0.00067282 4.05058e-10
5.53023e-07 4.05058e-10 0.000696067
0.00116249 -2.19411e-06 -5.29456e-07
-2.19411e-06 6.25596e-05 -4.08687e-06
-5.29456e-07 -4.08687e-06 7.98538e-05
0.0010696 3.02811e-06 -9.63252e-10
3.02811e-06 3.695e-05 -6.20428e-07
-9.63252e-10 -6.20428e-07 -4.99696e-06
0.00102296 1.34134e-07 -2.3614e-08
1.34134e-07 4.31217e-06 -1.88404e-06
-2.3614e-08 -1.88404e-06 -2.00949e-05
0.001026 1.61882e-06 -4.8837e-08
1.61882e-06 6.63104e-06 -6.41464e-09
-4.8837e-08 -6.41464e-09 -1.82695e-05
0.000957642 1.96567e-06 2.87854e-07
1.96567e-06 -3.55586e-05 -3.21063e-06
2.87854e-07 -3.21063e-06 -3.30311e-05
0.00102663 3.06226e-06 -4.32116e-07
3.06226e-06 8.27949e-06 1.88062e-06
-4.32116e-07 1.88062e-06 -1.75536e-05
0.000953634 3.8451e-06 2.4568e-08
3.8451e-06 -3.63158e-05 -6.25409e-07
2.4568e-08 -6.25409e-07 -3.44318e-05
0.0022882 4.86297e-06 2.59789e-06
4.86297e-06 0.000617739 -3.96872e-06
2.59789e-06 -3.96872e-06 0.00064212
0.00151891 6.44463e-06 -1.08667e-06
6.44463e-06 0.000244983 1.95177e-06
-1.08667e-06 1.95177e-06 0.000248437
0.00174847 6.73122e-06 -1.85219e-09
6.73122e-06 0.000354798 1.20232e-06
-1.85219e-09 1.20232e-06 0.000375516
0.0012053 8.17681e-06 -5.88015e-06
8.17681e-06 9.10897e-05 6.47438e-06
-5.88015e-06 6.47438e-06 0.000107774
0.000749263 -4.04365e-05 9.72512e-08
-4.04365e-05 -0.000226469 2.5681e-06
9.72512e-08 2.5681e-06 -0.000206396
0.000971441 -3.66732e-06 7.91752e-08
-3.66732e-06 -6.05337e-05 -7.23918e-07
7.91752e-08 -7.23918e-07 -0.000123194
0.00106514 1.50238e-06 -7.00018e-07
1.50238e-06 -4.76592e-05 -3.33487e-06
-7.00018e-07 -3.33487e-06 -8.58084e-05
0.000777857 -5.62451e-05 3.60011e-05
-5.62451e-05 -5.52711e-05 4.94366e-06
3.60011e-05 4.94366e-06 -0.000162721
0.000794029 -9.4611e-06 -2.68659e-06
-9.4611e-06 1.64915e-05 -9.73898e-09
-2.68659e-06 -9.73898e-09 1.12233e-05
0.00107151 2.30768e-05 -8.83377e-07
2.30768e-05 -6.15741e-05 -1.29029e-06
-8.83377e-07 -1.29029e-06 -0.000127182
0.00119494 3.81657e-05 -2.6824e-06
3.81657e-05 0.000152608 5.14573e-06
-2.6824e-06 5.14573e-06 9.81303e-05
0.000424941 -5.52668e-06 8.2421e-05
-5.52668e-06 -0.000310455 7.42796e-06
8.2421e-05 7.42796e-06 -0.000467012
0.00545779 -1.56277e-05 -1.33454e-05
-1.56277e-05 0.00150065 5.86442e-06
-1.33454e-05 5.86442e-06 0.00106785
0.00196231 7.78229e-05 -1.95544e-05
7.78229e-05 0.000770001 1.13522e-05
-1.95544e-05 1.13522e-05 0.000678997
0.000874127 4.46966e-05 -8.65621e-07
4.46966e-05 7.74948e-05 -1.03762e-06
-8.65621e-07 -1.03762e-06 0.000216652
0.000893985 -3.10315e-07 2.14672e-07
-3.10315e-07 -4.03937e-05 -1.1718e-06
2.14672e-07 -1.1718e-06 -9.57745e-05
0.00106102 -9.41172e-07 7.09079e-08
-9.41172e-07 3.2727e-05 1.63392e-08
7.09079e-08 1.63392e-08 -9.18615e-06
0.00106868 -5.73279e-06 -3.27286e-07
-5.73279e-06 3.73284e-05 1.12125e-06
-3.27286e-07 1.12125e-06 -5.67084e-06
0.00100813 1.47829e-05 -4.62759e-08
1.47829e-05 1.65153e-05 4.43474e-10
-4.62759e-08 4.43474e-10 -3.98812e-05
0.00118285 2.46603e-05 5.07272e-08
2.46603e-05 0.000106756 1.00551e-07
5.07272e-08 1.00551e-07 4.12062e-05
0.0011456 1.79495e-05 1.02347e-07
1.79495e-05 8.43715e-05 3.76196e-08
1.02347e-07 3.76196e-08 2.24971e-05
0.00111084 4.55736e-07 1.5198e-07
4.55736e-07 6.72213e-05 -1.41674e-06
1.5198e-07 -1.41674e-06 1.19511e-05
0.00101623 -8.74185e-06 -3.02986e-08
-8.74185e-06 1.94961e-05 4.27071e-07
-3.02986e-08 4.27071e-07 -3.46382e-05
0.00149811 2.74345e-05 3.55533e-07
2.74345e-05 0.000122925 1.36899e-06
3.55533e-07 1.36899e-06 5.34727e-05
0.00149701 -1.18053e-05 2.4176e-06
-1.18053e-05 5.74543e-05 1.32921e-06
2.4176e-06 1.32921e-06 3.59044e-05
0.000946649 -3.79697e-05 -4.23388e-06
-3.79697e-05 -0.000181737 -3.34571e-06
-4.23388e-06 -3.34571e-06 -0.000222673
0.00126497 -3.69782e-05 6.42292e-08
-3.69782e-05 0.000145335 1.06049e-06
6.42292e-08 1.06049e-06 6.30374e-05
0.00114551 -4.13471e-05 -5.34118e-07
-4.13471e-05 6.1929e-05 5.13039e-07
-5.34118e-07 5.13039e-07 -2.39638e-05
0.00107198 -3.40704e-05 -2.79714e-06
-3.40704e-05 5.65187e-05 2.3563e-07
-2.79714e-06 2.3563e-07 -3.57523e-05
0.00125117 -2.92211e-05 -1.16654e-07
-2.92211e-05 0.000149988 5.95027e-07
-1.16654e-07 5.95027e-07 5.19388e-05
0.00108694 -2.60506e-05 -6.58817e-07
-2.60506e-05 5.74324e-05 1.33376e-06
-6.58817e-07 1.33376e-06 -2.62958e-05
0.00108541 -8.22872e-06 -1.91493e-07
-8.22872e-06 5.95182e-05 9.73868e-07
-1.91493e-07 9.73868e-07 -3.68144e-06
0.00125718 -2.02972e-05 -1.22913e-07
-2.02972e-05 0.000149312 5.74223e-07
-1.22913e-07 5.74223e-07 6.96769e-05
0.00126531 1.66965e-05 2.66996e-08
1.66965e-05 0.000144003 3.87937e-07
2.66996e-08 3.87937e-07 8.71638e-05
0.00101786 2.74849e-06 1.09906e-07
2.74849e-06 3.05785e-05 1.60825e-06
1.09906e-07 1.60825e-06 -3.93733e-05
0.001641 2.9634e-05 1.41493e-06
2.9634e-05 0.000136196 -6.04994e-07
1.41493e-06 -6.04994e-07 8.61397e-05
0.00105586 9.8414e-06 -1.32086e-07
9.8414e-06 4.92776e-05 2.26207e-07
-1.32086e-07 2.26207e-07 -2.35218e-05
0.00111622 -1.83255e-05 7.97744e-08
-1.83255e-05 7.99436e-05 -3.80427e-07
7.97744e-08 -3.80427e-07 3.20947e-06
0.00149824 -4.12038e-05 -3.25873e-06
-4.12038e-05 -7.61279e-06 -1.48392e-06
-3.25873e-06 -1.48392e-06 -1.50261e-05
0.000878825 -4.62536e-05 1.73394e-06
-4.62536e-05 -0.000129821 1.07309e-06
1.73394e-06 1.07309e-06 -0.000211339
0.00126075 -4.50862e-05 -3.59566e-07
-4.50862e-05 0.000142408 -9.70815e-08
-3.59566e-07 -9.70815e-08 4.91562e-05
0.00112035 -2.50311e-05 -1.14268e-07
-2.50311e-05 8.58956e-05 -4.40168e-07
-1.14268e-07 -4.40168e-07 -7.67787e-06
0.0011645 -2.98992e-05 9.87552e-07
-2.98992e-05 0.000110199 3.51601e-07
9.87552e-07 3.51601e-07 8.16456e-07
0.00232519 -5.39692e-07 -5.88923e-06
-5.39692e-07 0.00023939 5.83018e-06
-5.88923e-06 5.83018e-06 0.00028478
0.00210921 -7.71473e-05 6.83447e-06
-7.71473e-05 0.000413174 2.08262e-06
6.83447e-06 2.08262e-06 0.000332775
0.000310142 -4.67589e-05 9.4197e-07
-4.67589e-05 -0.00033004 -8.7476e-07
9.4197e-07 -8.7476e-07 -0.000429006
0.00125147 -3.96334e-05 1.9151e-06
-3.96334e-05 0.000151528 2.52147e-07
1.9151e-06 2.52147e-07 3.52742e-05
0.00102779 -1.67557e-05 -1.82435e-07
-1.67557e-05 3.82668e-05 -9.82636e-07
-1.82435e-07 -9.82636e-07 -4.2141e-05
0.00115252 -1.67559e-05 -1.3859e-07
-1.67559e-05 0.000102143 -9.37001e-07
-1.3859e-07 -9.37001e-07 1.4512e-05
0.00132842 -2.17939e-05 -5.17833e-07
-2.17939e-05 0.0001944 -1.21528e-06
-5.17833e-07 -1.21528e-06 8.62522e-05
-0.00159078 5.04207e-06 -5.85784e-05
5.04207e-06 -0.000717137 -7.35628e-07
-5.85784e-05 -7.35628e-07 -0.000674908
0.00505651 5.58846e-06 -2.27508e-05
5.58846e-06 0.00154422 1.27938e-07
-2.27508e-05 1.27938e-07 0.00123861
0.00117305 2.76528e-05 8.39078e-09
2.76528e-05 0.000108128 -1.79807e-07
8.39078e-09 -1.79807e-07 2.19382e-05
0.00100281 2.8736e-05 4.19748e-07
2.8736e-05 2.60178e-05 -4.70594e-07
4.19748e-07 -4.70594e-07 -6.50812e-05
0.00191981 5.87767e-05 -6.53529e-06
5.87767e-05 0.000165612 -2.59839e-07
-6.53529e-06 -2.59839e-07 0.000104047
0.00110729 6.06978e-05 -1.78086e-06
6.06978e-05 -2.53645e-05 -1.67896e-07
-1.78086e-06 -1.67896e-07 -0.000116455
0.00107438 3.80201e-05 3.33832e-07
3.80201e-05 8.52183e-05 -1.35082e-06
3.33832e-07 -1.35082e-06 -2.84683e-05
0.00545817 4.69851e-05 -8.32899e-06
4.69851e-05 0.00144962 -1.40881e-06
-8.32899e-06 -1.40881e-06 0.00101028
0.000114972 -6.17611e-05 -2.66048e-05
-6.17611e-05 -0.000112833 -8.90151e-06
-2.66048e-05 -8.90151e-06 -0.000318251
0.00229847 1.46144e-05 1.31048e-05
1.46144e-05 0.000137294 5.66429e-06
1.31048e-05 5.66429e-06 0.00017615
0.00261813 -9.5533e-05 2.11909e-05
-9.5533e-05 0.00110014 1.00512e-05
2.11909e-05 1.00512e-05 0.00102756
-3.73655e-05 -6.46767e-05 6.75121e-06
-6.46767e-05 -0.000479431 2.67672e-06
6.75121e-06 2.67672e-06 -0.000307772
0.00113621 2.68478e-05 2.98798e-07
2.68478e-05 9.7082e-05 -2.0221e-07
2.98798e-07 -2.0221e-07 7.77324e-06
-0.00125126 1.48108e-06 -1.36984e-05
1.48108e-06 -0.000470282 -1.11513e-06
-1.36984e-05 -1.11513e-06 -0.00047794
0.00121375 -3.1446e-05 -3.22174e-07
-3.1446e-05 0.00040855 -2.72667e-07
-3.22174e-07 -2.72667e-07 0.000473688
0.00154194 8.18135e-05 1.98667e-06
8.18135e-05 8.5256e-05 1.99367e-06
1.98667e-06 1.99367e-06 -6.0036e-06
0.00116126 2.60042e-05 7.14944e-08
2.60042e-05 0.000123783 -9.82433e-07
7.14944e-08 -9.82433e-07 2.36116e-05
0.00131501 4.15533e-05 2.36654e-07
4.15533e-05 0.000245679 1.19795e-07
2.36654e-07 1.19795e-07 0.00010176
0.0019606 6.68872e-06 -2.15152e-05
6.68872e-06 0.00011975 -2.00664e-05
-2.15152e-05 -2.00664e-05 6.06562e-05
0.00374298 1.71583e-05 9.41682e-06
1.71583e-05 0.000718355 6.72459e-06
9.41682e-06 6.72459e-06 0.000150733
7.78601e-06 -1.13423e-05 -7.08526e-06
-1.13423e-05 -9.22872e-05 -1.12935e-05
-7.08526e-06 -1.12935e-05 -0.000303118
0.00178211 -0.000146321 -2.30976e-08
-0.000146321 0.000354081 3.21194e-06
-2.30976e-08 3.21194e-06 0.00030046
-0.00073664 -4.172e-05 -8.44889e-07
-4.172e-05 -0.000929448 -8.54561e-06
-8.44889e-07 -8.54561e-06 -0.000804588
0.00102108 1.71301e-05 -4.23343e-07
1.71301e-05 2.18331e-05 -3.16992e-07
-4.23343e-07 -3.16992e-07 -6.87679e-05
0.000254307 -6.44508e-06 9.79584e-06
-6.44508e-06 -8.34238e-05 3.09957e-06
9.79584e-06 3.09957e-06 -8.45949e-05
0.000603049 -9.06071e-06 9.29518e-06
-9.06071e-06 3.0499e-05 1.5938e-05
9.29518e-06 1.5938e-05 8.65247e-06
0.00127592 3.57262e-05 1.07432e-05
3.57262e-05 0.000192512 8.38269e-06
1.07432e-05 8.38269e-06 1.49975e-05
0.00143828 1.60567e-05 -4.41715e-06
1.60567e-05 0.000301883 -1.62739e-06
-4.41715e-06 -1.62739e-06 0.000182065
0.00195452 -2.65045e-05 -6.85175e-06
-2.65045e-05 0.000524132 -4.14526e-06
-6.85175e-06 -4.14526e-06 0.000503958
1.97256e-05 5.36828e-05 -2.5315e-05
5.36828e-05 1.99419e-05 -8.87606e-06
-2.5315e-05 -8.87606e-06 -0.00017028
0.00334188 -5.85752e-05 3.80748e-05
-5.85752e-05 0.00035214 2.03432e-05
3.80748e-05 2.03432e-05 -0.00022084
0.0021609 -0.000168087 -2.08276e-05
-0.000168087 0.000376426 -2.6018e-05
-2.08276e-05 -2.6018e-05 0.00030952
-0.000134298 -1.60804e-05 4.69036e-06
-1.60804e-05 -0.000496949 2.57889e-06
4.69036e-06 2.57889e-06 -0.000493157
0.00124246 2.59614e-05 -5.72818e-07
2.59614e-05 0.000130738 3.93982e-07
-5.72818e-07 3.93982e-07 4.24961e-05
0.00115992 2.2697e-05 2.00341e-07
2.2697e-05 8.02894e-05 1.85213e-07
2.00341e-07 1.85213e-07 -1.05831e-05
0.00107863 2.29596e-05 1.00473e-06
2.29596e-05 5.75686e-05 5.60765e-07
1.00473e-06 5.60765e-07 -3.65908e-05
0.000855769 3.61257e-06 1.16449e-07
3.61257e-06 -5.9411e-05 -6.14621e-07
1.16449e-07 -6.14621e-07 -0.00011206
0.00111888 4.51171e-06 4.0768e-08
4.51171e-06 7.49782e-05 -1.24168e-06
4.0768e-08 -1.24168e-06 8.87287e-06
0.00123828 2.43999e-06 -7.49456e-08
2.43999e-06 0.00013443 -6.74798e-08
-7.49456e-08 -6.74798e-08 5.93965e-05
0.00107951 1.91633e-05 -1.36768e-07
1.91633e-05 5.34189e-05 -1.11091e-06
-1.36768e-07 -1.11091e-06 -2.69456e-05
0.00105639 2.09998e-05 -1.10907e-07
2.09998e-05 3.88645e-05 -1.92482e-07
-1.10907e-07 -1.92482e-07 -4.89667e-05
0.00112415 3.58141e-06 1.53869e-07
3.58141e-06 7.79938e-05 -4.78647e-07
1.53869e-07 -4.78647e-07 1.21724e-05
0.00111933 1.8947e-05 4.16001e-08
1.8947e-05 7.58384e-05 6.38223e-08
4.16001e-08 6.38223e-08 -7.51283e-06
0.00113144 2.36543e-07 -6.86841e-08
2.36543e-07 8.30128e-05 1.43924e-07
-6.86841e-08 1.43924e-07 4.8556e-06
0.00112423 2.00531e-05 6.2643e-08
2.00531e-05 8.21955e-05 1.79581e-07
6.2643e-08 1.79581e-07 -1.08798e-05
0.00104857 1.6858e-05 -7.94229e-08
1.6858e-05 5.17542e-05 1.60181e-07
-7.94229e-08 1.60181e-07 -4.66035e-05
0.00118261 1.25892e-05 1.27722e-07
1.25892e-05 0.000112083 8.67637e-07
1.27722e-07 8.67637e-07 2.35209e-05
0.00114987 5.80585e-06 5.60142e-08
5.80585e-06 9.17106e-05 5.92454e-07
5.60142e-08 5.92454e-07 1.43674e-05
0.0011344 -5.90605e-06 9.42776e-08
-5.90605e-06 8.33058e-05 -8.9749e-07
9.42776e-08 -8.9749e-07 1.79269e-05
0.00102765 -1.47882e-05 4.10531e-07
-1.47882e-05 3.3062e-05 -1.15081e-06
4.10531e-07 -1.15081e-06 -4.38263e-05
0.00113653 2.15131e-06 1.2488e-07
2.15131e-06 8.59442e-05 6.12127e-09
1.2488e-07 6.12127e-09 9.32359e-06
0.0011151 -1.38614e-05 -1.83612e-08
-1.38614e-05 7.70612e-05 2.77123e-08
-1.83612e-08 2.77123e-08 3.54814e-08
0.00111534 -1.68074e-05 2.62522e-07
-1.68074e-05 7.80876e-05 -5.52068e-07
2.62522e-07 -5.52068e-07 -4.30261e-06
0.00107922 -1.96287e-05 -4.76213e-07
-1.96287e-05 6.19777e-05 1.03611e-06
-4.76213e-07 1.03611e-06 -1.68552e-05
0.00119769 -4.81541e-06 -3.5406e-07
-4.81541e-06 0.000116668 1.07061e-07
-3.5406e-07 1.07061e-07 3.20076e-05
0.000991291 -2.33689e-05 -1.16916e-08
-2.33689e-05 2.02923e-05 3.02497e-07
-1.16916e-08 3.02497e-07 -6.54636e-05
0.00113171 -2.65823e-05 -3.41694e-07
-2.65823e-05 7.91509e-05 -9.45295e-07
-3.41694e-07 -9.45295e-07 -1.60615e-06
0.000932828 -2.71763e-05 3.5698e-08
-2.71763e-05 -1.72195e-05 1.28914e-07
3.5698e-08 1.28914e-07 -9.00144e-05
0.00102708 -2.58838e-05 -8.37544e-07
-2.58838e-05 2.58596e-05 -3.05955e-07
-8.37544e-07 -3.05955e-07 -4.85224e-05
0.00110876 -2.40838e-05 -3.70058e-07
-2.40838e-05 7.07511e-05 1.98416e-07
-3.70058e-07 1.98416e-07 -7.33157e-06
0.00108957 -1.95065e-05 -9.58826e-07
-1.95065e-05 5.967e-05 1.14021e-06
-9.58826e-07 1.14021e-06 -8.53122e-06
0.00108646 -1.59611e-05 -2.10992e-08
-1.59611e-05 6.07139e-05 -1.91977e-08
-2.10992e-08 -1.91977e-08 -7.24334e-06
0.0010522 -8.19763e-06 -6.37826e-07
-8.19763e-06 3.49849e-05 1.21732e-06
-6.37826e-07 1.21732e-06 -1.82688e-05
0.00108519 -1.46155e-05 4.3263e-07
-1.46155e-05 6.01074e-05 -7.87708e-07
4.3263e-07 -7.87708e-07 -6.58552e-06
0.00105813 -7.62778e-06 8.28929e-08
-7.62778e-06 3.82442e-05 -1.37024e-08
8.28929e-08 -1.37024e-08 -1.40898e-05
0.00101801 3.59435e-06 -7.55837e-07
3.59435e-06 9.55478e-06 1.89692e-06
-7.55837e-07 1.89692e-06 -2.26423e-05
0.000866634 -4.33544e-06 3.83257e-07
-4.33544e-06 -5.49901e-05 -1.15574e-06
3.83257e-07 -1.15574e-06 -0.000107879
0.0010207 2.85518e-06 4.87364e-08
2.85518e-06 9.51813e-06 2.82103e-09
4.87364e-08 2.82103e-09 -2.22057e-05
0.0015998 5.34537e-06 -2.48106e-06
5.34537e-06 0.000284545 4.52411e-06
-2.48106e-06 4.52411e-06 0.000285403
0.00102032 1.65901e-06 4.69287e-07
1.65901e-06 8.18164e-06 -1.87418e-06
4.69287e-07 -1.87418e-06 -2.32921e-05
0.00128158 3.50749e-06 -6.60231e-07
3.50749e-06 0.000125697 6.35068e-07
-6.60231e-07 6.35068e-07 0.00012545
0.00112321 3.7524e-06 -6.23215e-07
3.7524e-06 4.32462e-05 1.60808e-06
-6.23215e-07 1.60808e-06 6.05093e-05
0.000965807 1.51368e-06 4.18261e-07
1.51368e-06 -3.12449e-05 -3.29146e-06
4.18261e-07 -3.29146e-06 -3.27065e-05
0.0024105 1.89108e-06 5.13644e-07
1.89108e-06 0.00067673 5.05272e-09
5.13644e-07 5.05272e-09 0.00069992
0.002399 -4.74895e-07 6.87021e-07
-4.74895e-07 0.00067111 -4.17229e-06
6.87021e-07 -4.17229e-06 0.000694366
0.00130859 4.80832e-06 -2.90291e-07
4.80832e-06 0.000154947 -9.05274e-07
-2.90291e-07 -9.05274e-07 0.000113583
0.00102771 -1.08139e-06 -2.4465e-07
-1.08139e-06 6.89428e-06 -1.88495e-06
-2.4465e-07 -1.88495e-06 -1.76785e-05
0.00106261 1.5618e-06 3.92924e-08
1.5618e-06 3.3563e-05 4.1932e-07
3.92924e-08 4.1932e-07 -8.35009e-06
0.000961656 7.64569e-08 -7.35556e-08
7.64569e-08 -3.40647e-05 -3.21756e-06
-7.35556e-08 -3.21756e-06 -3.13342e-05
0.00102628 7.7783e-08 -3.14459e-08
7.7783e-08 5.97049e-06 1.77046e-09
-3.14459e-08 1.77046e-09 -1.84728e-05
0.00102884 1.56847e-06 -2.43275e-07
1.56847e-06 7.95791e-06 1.89625e-06
-2.43275e-07 1.89625e-06 -1.69608e-05
0.000962674 1.99601e-06 -5.55251e-08
1.99601e-06 -3.30798e-05 1.87722e-09
-5.55251e-08 1.87722e-09 -3.05895e-05
0.0022744 2.42601e-06 1.1684e-06
2.42601e-06 0.000609654 -3.99452e-06
1.1684e-06 -3.99452e-06 0.000634397
0.00151586 4.42386e-06 -7.70232e-07
4.42386e-06 0.000240935 1.96771e-06
-7.70232e-07 1.96771e-06 0.000245491
0.00171608 4.59789e-06 6.48066e-07
4.59789e-06 0.000335944 2.07188e-08
6.48066e-07 2.07188e-08 0.000357552
0.00120403 6.12375e-06 -4.75161e-06
6.12375e-06 8.61025e-05 6.38564e-06
-4.75161e-06 6.38564e-06 0.000104092
-0.00374576 1.59042e-05 -3.22809e-05
1.59042e-05 -0.00186541 1.03697e-05
-3.22809e-05 1.03697e-05 -0.00187098
-0.00111469 2.32091e-05 -7.04856e-07
2.32091e-05 -0.000953133 -3.12291e-07
-7.04856e-07 -3.12291e-07 -0.000933706
0.000185923 -4.4035e-05 -3.50317e-05
-4.4035e-05 -0.000172183 -7.08819e-06
-3.50317e-05 -7.08819e-06 -0.000264283
0.00073804 -1.39504e-05 2.15009e-06
-1.39504e-05 -5.72048e-06 -9.79558e-08
2.15009e-06 -9.79558e-08 -4.44873e-06
0.00115716 2.6145e-05 -4.74911e-06
2.6145e-05 -2.33722e-05 -2.40071e-06
-4.74911e-06 -2.40071e-06 -9.1127e-05
0.000379351 -1.576e-05 1.40733e-05
-1.576e-05 2.24236e-05 1.49904e-07
1.40733e-05 1.49904e-07 -3.40885e-05
0.00124211 4.08379e-05 1.34114e-06
4.08379e-05 0.000141881 2.21326e-06
1.34114e-06 2.21326e-06 8.459e-05
0.00312761 -4.92112e-06 -1.46711e-05
-4.92112e-06 0.000631246 4.22358e-07
-1.46711e-05 4.22358e-07 0.000247512
-0.00141121 3.99464e-05 1.10295e-05
3.99464e-05 -0.000659253 -3.86486e-06
1.10295e-05 -3.86486e-06 -0.000685508
0.000460921 4.80105e-05 2.88019e-08
4.80105e-05 -0.000148529 1.84387e-06
2.88019e-08 1.84387e-06 -1.95992e-05
0.000852893 2.57121e-05 1.58228e-05
2.57121e-05 0.000229112 -1.08085e-05
1.58228e-05 -1.08085e-05 0.000100196
0.00465193 3.21452e-05 -1.92056e-05
3.21452e-05 0.00135411 1.53299e-05
-1.92056e-05 1.53299e-05 0.000930261
0.000333549 9.3053e-05 -3.51836e-05
9.3053e-05 1.95727e-05 3.42604e-05
-3.51836e-05 3.42604e-05 6.0722e-05
0.00127681 3.04658e-05 3.72054e-06
3.04658e-05 0.000311766 -3.71683e-06
3.72054e-06 -3.71683e-06 0.000416843
0.00100186 1.02168e-05 -1.7206e-07
1.02168e-05 1.96641e-05 -1.11845e-06
-1.7206e-07 -1.11845e-06 -4.79023e-05
0.000990252 1.75153e-06 6.8894e-08
1.75153e-06 6.40019e-06 -4.02445e-07
6.8894e-08 -4.02445e-07 -4.83466e-05
0.00106676 -1.90798e-06 4.73174e-08
-1.90798e-06 3.5622e-05 1.09704e-06
4.73174e-08 1.09704e-06 -6.36361e-06
0.000951104 1.4473e-05 -3.29667e-08
1.4473e-05 -1.07254e-05 7.45756e-07
-3.29667e-08 7.45756e-07 -6.74212e-05
0.00112663 2.39021e-05 4.07028e-07
2.39021e-05 7.92362e-05 8.94073e-07
4.07028e-07 8.94073e-07 1.47004e-05
0.00116968 1.27659e-05 -1.34523e-08
1.27659e-05 9.93238e-05 -5.31092e-07
-1.34523e-08 -5.31092e-07 3.38184e-05
0.00110064 6.64131e-06 2.67128e-07
6.64131e-06 6.25801e-05 9.38341e-07
2.67128e-07 9.38341e-07 1.12744e-06
0.00110225 7.68487e-07 1.62587e-07
7.68487e-07 6.48783e-05 -4.24439e-07
1.62587e-07 -4.24439e-07 5.35605e-06
0.00103578 -1.40494e-06 2.79193e-08
-1.40494e-06 3.04037e-05 -4.85563e-07
2.79193e-08 -4.85563e-07 -2.55932e-05
0.000959718 -1.23329e-05 -2.6494e-07
-1.23329e-05 -7.94443e-06 1.22205e-06
-2.6494e-07 1.22205e-06 -6.26309e-05
0.00192661 3.24588e-05 3.06542e-06
3.24588e-05 0.000258482 3.85256e-06
3.06542e-06 3.85256e-06 0.000210007
0.00121983 -3.94155e-05 -6.62446e-06
-3.94155e-05 -0.000139832 -2.03673e-06
-6.62446e-06 -2.03673e-06 -0.000143572
0.000149388 -4.01785e-05 -1.54036e-06
-4.01785e-05 -0.000470553 -6.98092e-08
-1.54036e-06 -6.98092e-08 -0.000549368
0.00130021 -4.59188e-05 -1.57669e-06
-4.59188e-05 0.000158102 1.12943e-06
-1.57669e-06 1.12943e-06 6.21034e-05
0.00101554 -2.81969e-05 -3.16256e-07
-2.81969e-05 3.65648e-05 6.24101e-07
-3.16256e-07 6.24101e-07 -7.21802e-05
0.00113338 -2.51194e-05 -1.19445e-07
-2.51194e-05 9.28379e-05 4.04246e-07
-1.19445e-07 4.04246e-07 -1.03941e-06
0.00118832 -2.08323e-05 1.21064e-07
-2.08323e-05 0.000115813 2.39787e-07
1.21064e-07 2.39787e-07 3.92906e-05
0.0010762 8.77125e-06 3.28702e-07
8.77125e-06 5.87265e-05 9.96318e-07
3.28702e-07 9.96318e-07 -1.36119e-05
0.0018888 -1.10861e-05 -2.91707e-06
-1.10861e-05 3.73876e-05 -2.82507e-07
-2.91707e-06 -2.82507e-07 6.53118e-05
0.00100804 -8.36594e-06 -1.43311e-08
-8.36594e-06 2.93606e-05 -1.93564e-07
-1.43311e-08 -1.93564e-07 -5.14897e-05
0.00107109 -1.855e-05 1.10752e-07
-1.855e-05 6.26052e-05 -4.62673e-07
1.10752e-07 -4.62673e-07 -2.59205e-05
0.00150721 -6.92768e-05 1.98933e-06
-6.92768e-05 0.000119628 1.27659e-06
1.98933e-06 1.27659e-06 5.11736e-05
0.000759314 -5.07196e-05 -1.07713e-06
-5.07196e-05 -0.000115167 4.14109e-07
-1.07713e-06 4.14109e-07 -0.000214518
0.00118049 -3.84939e-05 9.84338e-07
-3.84939e-05 0.000112898 1.55016e-08
9.84338e-07 1.55016e-08 -3.94071e-06
0.00125933 -2.08491e-05 -2.00937e-07
-2.08491e-05 0.000159907 -3.04293e-07
-2.00937e-07 -3.04293e-07 4.98976e-05
0.00246276 -4.3547e-05 -3.33106e-06
-4.3547e-05 0.000171316 8.61993e-06
-3.33106e-06 8.61993e-06 0.00025155
0.000991384 -6.02374e-05 1.29756e-06
-6.02374e-05 6.63034e-05 -1.16034e-06
1.29756e-06 -1.16034e-06 -6.89741e-05
0.00115036 -1.68424e-05 -1.10864e-06
-1.68424e-05 0.000111369 3.32319e-08
-1.10864e-06 3.32319e-08 -1.1343e-05
0.00101809 8.43683e-06 -1.75858e-08
8.43683e-06 3.28887e-05 1.50875e-07
-1.75858e-08 1.50875e-07 -4.81865e-05
0.00112293 -1.82183e-05 -1.83338e-07
-1.82183e-05 8.82426e-05 -6.25576e-07
-1.83338e-07 -6.25576e-07 -7.37866e-07
0.00126172 -1.31642e-05 -2.70845e-07
-1.31642e-05 0.000155543 -8.25194e-07
-2.70845e-07 -8.25194e-07 5.6909e-05
0.000812086 1.95506e-06 1.28761e-05
1.95506e-06 0.00019629 3.41482e-07
1.28761e-05 3.41482e-07 0.000183616
0.00151436 8.09281e-06 9.13183e-07
8.09281e-06 0.000500614 -2.81188e-06
9.13183e-07 -2.81188e-06 0.000430606
0.000856888 6.44861e-05 -5.44721e-05
6.44861e-05 -0.000593075 7.58882e-06
-5.44721e-05 7.58882e-06 -0.000891398
0.00114695 2.70246e-05 -9.96619e-08
2.70246e-05 9.90144e-05 -3.79227e-07
-9.96619e-08 -3.79227e-07 9.89644e-06
0.00137183 2.62794e-05 1.41072e-06
2.62794e-05 0.000223834 -4.8207e-07
1.41072e-06 -4.8207e-07 0.000127444
0.00155327 8.28256e-05 -2.74699e-06
8.28256e-05 9.07245e-05 -2.44083e-06
-2.74699e-06 -2.44083e-06 -7.53965e-07
0.000995335 3.97875e-05 3.03698e-06
3.97875e-05 0.000100844 -9.40322e-07
3.03698e-06 -9.40322e-07 -3.98169e-05
0.00271219 -4.54256e-05 1.6848e-05
-4.54256e-05 0.00111367 5.64112e-06
1.6848e-05 5.64112e-06 0.00105647
0.000766114 -5.85648e-05 5.49718e-05
-5.85648e-05 -0.00032056 3.69407e-05
5.49718e-05 3.69407e-05 -0.000625817
0.00130537 7.63724e-06 -7.16874e-05
7.63724e-06 3.68202e-05 -5.67842e-05
-7.16874e-05 -5.67842e-05 -0.000250793
0.00153564 7.39601e-06 6.11323e-06
7.39601e-06 -6.0709e-05 -2.69832e-06
6.11323e-06 -2.69832e-06 -0.000125248
-0.00181995 -0.000104658 4.13044e-05
-0.000104658 -0.00120368 3.48782e-05
4.13044e-05 3.48782e-05 -0.00116639
0.00316399 -2.85375e-05 -2.68222e-06
-2.85375e-05 0.00158668 -3.80293e-06
-2.68222e-06 -3.80293e-06 0.0016456
0.00122149 -5.12186e-05 -1.15568e-05
-5.12186e-05 0.000236166 -1.4937e-05
-1.15568e-05 -1.4937e-05 0.000366535
0.00121327 1.9863e-05 -7.62721e-08
1.9863e-05 0.000118843 3.15785e-07
-7.62721e-08 3.15785e-07 2.72038e-05
0.000755207 -8.58586e-06 4.33522e-06
-8.58586e-06 0.000189809 1.37214e-06
4.33522e-06 1.37214e-06 0.000191277
0.000555133 -8.89997e-06 2.50918e-06
-8.89997e-06 -9.35929e-07 4.58862e-06
2.50918e-06 4.58862e-06 -2.07707e-05
0.00126715 4.22419e-05 2.59119e-06
4.22419e-05 0.000194005 4.10732e-06
2.59119e-06 4.10732e-06 1.47598e-05
0.00102117 1.16684e-05 -1.40999e-07
1.16684e-05 0.000109552 -7.82318e-07
-1.40999e-07 -7.82318e-07 -1.32231e-05
0.00199139 -1.91454e-05 5.80245e-06
-1.91454e-05 0.000384022 1.25431e-05
5.80245e-06 1.25431e-05 0.000260328
0.00211629 8.08631e-05 -1.33454e-05
8.08631e-05 0.000582424 -3.81267e-05
-1.33454e-05 -3.81267e-05 0.000222736
0.00513735 -9.79045e-05 6.72635e-06
-9.79045e-05 0.00129157 3.83241e-06
6.72635e-06 3.83241e-06 0.000795676
-0.000214073 -0.000131094 6.79333e-06
-0.000131094 -0.000442299 1.4422e-05
6.79333e-06 1.4422e-05 -0.000516603
0.00076448 -2.36118e-05 -2.19619e-06
-2.36118e-05 4.75876e-06 -1.9436e-06
-2.19619e-06 -1.9436e-06 3.199e-05
0.00104085 1.76432e-05 3.19617e-07
1.76432e-05 4.81938e-05 -8.64697e-07
3.19617e-07 -8.64697e-07 -3.72935e-05
0.00185559 4.16872e-07 1.11762e-05
4.16872e-07 0.000852639 3.69478e-06
1.11762e-05 3.69478e-06 0.00079616
0.000987758 2.08353e-06 6.55761e-06
2.08353e-06 0.000181033 3.60538e-06
6.55761e-06 3.60538e-06 0.000141494
0.000360108 -4.73023e-06 2.52612e-06
-4.73023e-06 -0.000102122 6.98958e-06
2.52612e-06 6.98958e-06 -0.000215274
0.000383706 5.11107e-05 6.10587e-06
5.11107e-05 0.000252019 2.40169e-05
6.10587e-06 2.40169e-05 0.000165831
0.00549747 -8.55937e-05 -1.78471e-05
-8.55937e-05 0.00132024 -2.275e-05
-1.78471e-05 -2.275e-05 0.000745955
-0.000722669 -0.000112503 -1.37251e-05
-0.000112503 -0.00132339 -3.74638e-05
-1.37251e-05 -3.74638e-05 -0.001089
0.000653145 -1.06268e-05 -7.03584e-07
-1.06268e-05 -4.70062e-05 -1.60054e-06
-7.03584e-07 -1.60054e-06 -7.09603e-05
0.00109723 2.20668e-05 -1.65422e-07
2.20668e-05 5.14305e-05 -4.36601e-07
-1.65422e-07 -4.36601e-07 -3.98003e-05
0.00116541 2.14351e-05 2.98997e-07
2.14351e-05 9.5884e-05 2.42644e-07
2.98997e-07 2.42644e-07 2.39882e-06
0.00170147 2.14594e-05 -1.85827e-07
2.14594e-05 0.000351934 -3.02019e-07
-1.85827e-07 -3.02019e-07 0.000256201
0.00112234 1.56832e-05 -2.48405e-08
1.56832e-05 7.71391e-05 -1.26803e-06
-2.48405e-08 -1.26803e-06 1.12144e-05
0.0011506 8.34189e-06 -7.99812e-08
8.34189e-06 9.22441e-05 -4.12991e-07
-7.99812e-08 -4.12991e-07 1.40554e-05
0.00111704 1.72649e-05 1.39554e-09
1.72649e-05 7.44394e-05 -4.4075e-07
1.39554e-09 -4.4075e-07 -8.21097e-06
0.00110718 1.96288e-05 -2.79065e-07
1.96288e-05 7.35854e-05 -4.89967e-07
-2.79065e-07 -4.89967e-07 -2.02412e-05
0.00113797 1.38638e-05 5.85699e-08
1.38638e-05 8.63322e-05 2.12431e-08
5.85699e-08 2.12431e-08 8.85965e-06
0.00121049 1.70719e-05 8.27857e-08
1.70719e-05 0.000124873 3.12441e-07
8.27857e-08 3.12441e-07 3.63586e-05
0.00104061 1.67291e-05 -1.18009e-07
1.67291e-05 5.08303e-05 -3.34648e-07
-1.18009e-07 -3.34648e-07 -4.81273e-05
0.000927734 1.39855e-05 -7.50339e-08
1.39855e-05 1.63907e-05 3.34912e-07
-7.50339e-08 3.34912e-07 -8.25925e-05
0.00111934 6.45095e-06 2.67842e-07
6.45095e-06 8.3941e-05 6.98013e-07
2.67842e-07 6.98013e-07 -1.4702e-05
0.00128775 1.23421e-05 2.98076e-08
1.23421e-05 0.000159166 4.7732e-07
2.98076e-08 4.7732e-07 7.28058e-05
0.00114391 -4.66854e-07 2.26124e-07
-4.66854e-07 8.90348e-05 -7.63835e-07
2.26124e-07 -7.63835e-07 1.24826e-05
0.00111917 -1.37573e-05 2.77104e-07
-1.37573e-05 7.90408e-05 -7.25472e-07
2.77104e-07 -7.25472e-07 1.9275e-06
0.00106349 -2.09876e-05 6.72928e-07
-2.09876e-05 5.2563e-05 -1.29616e-06
6.72928e-07 -1.29616e-06 -2.9512e-05
0.00119569 -4.25854e-06 -1.13027e-08
-4.25854e-06 0.000115174 -3.50905e-07
-1.13027e-08 -3.50905e-07 3.10134e-05
0.00110334 -1.67588e-05 -5.81134e-08
-1.67588e-05 7.38124e-05 1.96015e-07
-5.81134e-08 1.96015e-07 -4.97825e-06
0.0010518 -2.21514e-05 6.01332e-08
-2.21514e-05 4.84582e-05 -2.03978e-07
6.01332e-08 -2.03978e-07 -3.68525e-05
0.00111961 -2.47228e-05 -9.91773e-07
-2.47228e-05 8.08807e-05 -6.34484e-08
-9.91773e-07 -6.34484e-08 -5.57238e-06
0.00111189 -2.47039e-05 3.13686e-08
-2.47039e-05 8.3872e-05 1.98846e-07
3.13686e-08 1.98846e-07 -6.63974e-06
0.00119498 -2.97443e-05 2.68741e-08
-2.97443e-05 0.000113638 -5.51658e-08
2.68741e-08 -5.51658e-08 2.82167e-05
0.00114812 -2.68429e-05 -4.37397e-07
-2.68429e-05 8.72815e-05 -1.09168e-07
-4.37397e-07 -1.09168e-07 6.33677e-06
0.000989337 -2.86687e-05 -2.80169e-07
-2.86687e-05 8.35016e-06 4.32497e-07
-2.80169e-07 4.32497e-07 -6.93884e-05
0.00114148 -3.08217e-05 -1.05053e-06
-3.08217e-05 7.42583e-05 1.18564e-06
-1.05053e-06 1.18564e-06 8.97397e-07
0.00121553 -2.72905e-05 -3.22768e-07
-2.72905e-05 0.000114381 -5.0475e-07
-3.22768e-07 -5.0475e-07 4.79076e-05
0.00099686 -2.79433e-05 5.06755e-07
-2.79433e-05 1.46478e-05 -7.83294e-07
5.06755e-07 -7.83294e-07 -5.65211e-05
0.00111267 -2.66596e-05 3.86905e-07
-2.66596e-05 6.70439e-05 -1.4929e-07
3.86905e-07 -1.4929e-07 -6.82178e-06
0.000983257 -1.93665e-05 -1.01258e-06
-1.93665e-05 3.7827e-06 4.43295e-07
-1.01258e-06 4.43295e-07 -6.28894e-05
0.00112761 -2.39625e-05 1.51794e-07
-2.39625e-05 7.93017e-05 5.90737e-08
1.51794e-07 5.90737e-08 1.39725e-06
0.00109021 -1.92462e-05 -1.83204e-07
-1.92462e-05 5.99944e-05 3.76696e-07
-1.83204e-07 3.76696e-07 -8.13491e-06
0.00106031 -7.31581e-06 -7.91951e-07
-7.31581e-06 3.81589e-05 1.26124e-06
-7.91951e-07 1.26124e-06 -1.57286e-05
0.00109527 -1.70992e-05 3.81045e-07
-1.70992e-05 6.50182e-05 -8.57981e-07
3.81045e-07 -8.57981e-07 -2.98924e-06
0.00105929 -8.39236e-06 2.11555e-08
-8.39236e-06 3.83742e-05 -1.93655e-08
2.11555e-08 -1.93655e-08 -1.49187e-05
0.00101181 4.03091e-06 -1.00807e-06
4.03091e-06 7.72729e-06 1.91784e-06
-1.00807e-06 1.91784e-06 -2.50403e-05
0.00106117 -6.65831e-06 5.92235e-07
-6.65831e-06 3.96718e-05 -1.18009e-06
5.92235e-07 -1.18009e-06 -1.26623e-05
0.00101589 3.48562e-06 6.88393e-08
3.48562e-06 8.46421e-06 9.85757e-10
6.88393e-08 9.85757e-10 -2.37394e-05
0.00159914 7.08218e-06 -3.32385e-06
7.08218e-06 0.000286916 4.48777e-06
-3.32385e-06 4.48777e-06 0.000287252
0.00101772 2.69506e-06 6.68838e-07
2.69506e-06 7.94687e-06 -1.90575e-06
6.68838e-07 -1.90575e-06 -2.37685e-05
0.00127933 5.28951e-06 -8.9288e-07
5.28951e-06 0.000126674 6.31267e-07
-8.9288e-07 6.31267e-07 0.000126045
0.00112041 5.87508e-06 -9.77204e-07
5.87508e-06 4.43747e-05 1.60327e-06
-9.77204e-07 1.60327e-06 6.1205e-05
0.000964815 3.30862e-06 7.68391e-07
3.30862e-06 -3.06503e-05 -3.27287e-06
7.68391e-07 -3.27287e-06 -3.23224e-05
0.00177359 4.2279e-06 1.41083e-06
4.2279e-06 0.000363695 -1.26133e-06
1.41083e-06 -1.26133e-06 0.000383827
0.0024038 2.07405e-06 2.11125e-06
2.07405e-06 0.00067368 -4.15819e-06
2.11125e-06 -4.15819e-06 0.000696861
0.00112821 -2.98232e-06 -7.22512e-08
-2.98232e-06 6.87867e-05 -1.00243e-06
-7.22512e-08 -1.00243e-06 2.39664e-05
0.00102633 -2.41665e-06 -4.13572e-07
-2.41665e-06 7.34671e-06 -1.85698e-06
-4.13572e-07 -1.85698e-06 -1.77914e-05
0.0010953 7.67667e-08 1.03018e-07
7.67667e-08 5.08326e-05 1.40047e-07
1.03018e-07 1.40047e-07 8.18684e-06
0.000964937 -1.68753e-06 -4.48829e-07
-1.68753e-06 -3.20888e-05 -3.20283e-06
-4.48829e-07 -3.20283e-06 -2.95548e-05
0.00102552 -1.12019e-06 -5.77191e-08
-1.12019e-06 5.87499e-06 6.08406e-09
-5.77191e-08 6.08406e-09 -1.86846e-05
0.00105458 9.92161e-07 9.45901e-09
9.92161e-07 2.96759e-05 1.49531e-06
9.45901e-09 1.49531e-06 -1.2202e-05
0.00227168 3.57194e-08 -4.51575e-07
3.57194e-08 0.000607956 -4.00804e-06
-4.51575e-07 -4.00804e-06 0.000632776
0.000961977 1.02968e-07 -9.9324e-08
1.02968e-07 -3.39022e-05 -4.66931e-09
-9.9324e-08 -4.66931e-09 -3.11762e-05
0.00102913 1.98891e-08 -4.79153e-08
1.98891e-08 7.38849e-06 1.91096e-06
-4.79153e-08 1.91096e-06 -1.70882e-05
0.000967773 2.02557e-06 -4.04314e-07
2.02557e-06 -3.05708e-05 3.19667e-06
-4.04314e-07 3.19667e-06 -2.81178e-05
0.00227199 2.49798e-06 -5.08711e-07
2.49798e-06 0.000608608 -5.09111e-09
-5.08711e-07 -5.09111e-09 0.00063332
0.00228847 4.82319e-06 -3.48217e-06
4.82319e-06 0.000618103 3.97866e-06
-3.48217e-06 3.97866e-06 0.000642402
-0.00125282 9.89079e-06 8.45617e-06
9.89079e-06 -0.000989688 -1.55936e-06
8.45617e-06 -1.55936e-06 -0.00100499
-0.00061621 1.31498e-05 1.98301e-05
1.31498e-05 -0.000286998 -4.65689e-06
1.98301e-05 -4.65689e-06 -0.000339698
0.000662095 -1.71539e-06 1.50475e-05
-1.71539e-06 9.79233e-05 -5.5695e-06
1.50475e-05 -5.5695e-06 6.84225e-05
-0.0012663 2.69955e-05 -7.20967e-06
2.69955e-05 -0.00105946 1.5797e-06
-7.20967e-06 1.5797e-06 -0.00102605
0.00120976 5.64874e-06 -4.23679e-05
5.64874e-06 4.87777e-05 -3.24402e-06
-4.23679e-05 -3.24402e-06 -5.90187e-05
0.00118577 4.213e-05 4.0544e-06
4.213e-05 8.72116e-05 -1.14838e-06
4.0544e-06 -1.14838e-06 2.7396e-05
0.00090414 -4.75659e-05 -1.46897e-05
-4.75659e-05 -0.000118657 -1.10645e-06
-1.46897e-05 -1.10645e-06 -0.000423969
0.00252645 3.89301e-05 6.50367e-05
3.89301e-05 0.00115097 -2.41748e-05
6.50367e-05 -2.41748e-05 0.0010519
4.28047e-05 5.07677e-05 2.54962e-06
5.07677e-05 -0.000377125 -2.8057e-06
2.54962e-06 -2.8057e-06 -0.000256051
0.00110093 2.63406e-05 -3.85158e-06
2.63406e-05 0.000148716 2.17931e-06
-3.85158e-06 2.17931e-06 1.45829e-05
0.00235381 -3.94836e-05 5.43241e-06
-3.94836e-05 0.000220106 -4.80651e-06
5.43241e-06 -4.80651e-06 -0.000356835
0.00213912 0.000130387 1.29508e-06
0.000130387 0.000578732 4.29452e-06
1.29508e-06 4.29452e-06 0.00051798
0.000838786 2.18987e-05 -2.38107e-06
2.18987e-05 5.51989e-05 -1.85097e-06
-2.38107e-06 -1.85097e-06 0.000171815
0.000986932 2.28705e-06 5.44998e-06
2.28705e-06 0.000341724 -2.30046e-06
5.44998e-06 -2.30046e-06 0.000135147
0.00279023 2.951e-05 4.50229e-05
2.951e-05 0.000156553 -2.12628e-05
4.50229e-05 -2.12628e-05 -0.000478704
-0.00114296 0.000130459 -2.63259e-05
0.000130459 -0.00102801 4.48491e-05
-2.63259e-05 4.48491e-05 -0.00105095
0.000120691 -2.30637e-06 1.10296e-05
-2.30637e-06 -0.000318589 8.52585e-07
1.10296e-05 8.52585e-07 -0.000329457
0.00114738 -2.3898e-06 2.27858e-07
-2.3898e-06 9.17044e-05 -7.53902e-07
2.27858e-07 -7.53902e-07 1.76448e-05
0.00110007 1.24363e-05 -3.21712e-07
1.24363e-05 6.6841e-05 -2.23412e-07
-3.21712e-07 -2.23412e-07 1.81635e-07
0.00108918 3.62533e-06 1.94851e-07
3.62533e-06 5.44964e-05 3.68551e-07
1.94851e-07 3.68551e-07 3.70493e-07
0.00107646 2.32432e-05 5.73408e-07
2.32432e-05 5.46226e-05 1.4829e-06
5.73408e-07 1.4829e-06 -8.91014e-06
0.00107043 6.9626e-06 -6.33789e-08
6.9626e-06 5.13364e-05 -3.16979e-07
-6.33789e-08 -3.16979e-07 -1.97349e-05
0.00119823 9.76346e-06 9.67089e-08
9.76346e-06 0.000112774 4.30152e-07
9.67089e-08 4.30152e-07 4.79695e-05
0.00105811 -1.96186e-06 -2.94274e-07
-1.96186e-06 4.18704e-05 1.83669e-06
-2.94274e-07 1.83669e-06 -1.91004e-05
0.00123047 1.4016e-05 -2.27567e-07
1.4016e-05 0.000128441 -7.18003e-07
-2.27567e-07 -7.18003e-07 6.6845e-05
0.00118326 7.12931e-06 2.71673e-08
7.12931e-06 0.000104316 4.62128e-07
2.71673e-08 4.62128e-07 4.55142e-05
0.000960459 -4.221e-06 -1.81027e-07
-4.221e-06 -6.52417e-06 3.99491e-07
-1.81027e-07 3.99491e-07 -6.32493e-05
0.0014762 -2.1501e-05 -4.55037e-06
-2.1501e-05 -0.000149234 5.52854e-07
-4.55037e-06 5.52854e-07 -0.00014008
0.000887349 -6.13257e-05 -4.19385e-06
-6.13257e-05 -0.000181943 1.40113e-06
-4.19385e-06 1.40113e-06 -0.000238583
0.00127093 -5.52553e-05 -1.00441e-06
-5.52553e-05 0.000129226 2.37827e-06
-1.00441e-06 2.37827e-06 2.94259e-05
0.00112991 -3.75894e-05 -8.24811e-07
-3.75894e-05 8.455e-05 -1.4343e-07
-8.24811e-07 -1.4343e-07 -3.32812e-05
0.00118538 -1.99977e-05 4.26223e-07
-1.99977e-05 0.000122856 3.94168e-07
4.26223e-07 3.94168e-07 1.10083e-05
0.000996088 -2.07261e-05 2.0898e-07
-2.07261e-05 2.61487e-05 3.21851e-08
2.0898e-07 3.21851e-08 -6.32818e-05
0.000992376 -2.22781e-06 3.9205e-09
-2.22781e-06 2.24187e-05 4.10709e-07
3.9205e-09 4.10709e-07 -5.8907e-05
0.00106912 -8.53847e-06 -5.10513e-08
-8.53847e-06 5.80541e-05 7.27144e-07
-5.10513e-08 7.27144e-07 -2.3155e-05
0.00185421 -4.99827e-05 8.66827e-07
-4.99827e-05 -8.41019e-05 4.15214e-07
8.66827e-07 4.15214e-07 -2.03146e-05
0.0011619 -1.10606e-05 1.23203e-07
-1.10606e-05 0.000108183 -2.51464e-07
1.23203e-07 -2.51464e-07 1.98375e-05
0.00130444 -1.52376e-05 2.15124e-07
-1.52376e-05 0.000177282 9.98806e-08
2.15124e-07 9.98806e-08 7.76253e-05
0.00135104 -6.18719e-05 3.64184e-07
-6.18719e-05 0.000233003 -1.17275e-06
3.64184e-07 -1.17275e-06 9.92428e-05
0.00122278 -1.88062e-05 -3.14172e-07
-1.88062e-05 0.000143774 7.80912e-08
-3.14172e-07 7.80912e-08 2.09983e-05
0.00185883 -6.43149e-05 -1.45761e-05
-6.43149e-05 8.62978e-05 9.86824e-06
-1.45761e-05 9.86824e-06 6.23134e-05
0.000895841 -1.77412e-05 -5.49874e-07
-1.77412e-05 9.67838e-05 -1.90196e-06
-5.49874e-07 -1.90196e-06 -6.66753e-05
0.0012664 -1.16967e-05 -2.88178e-07
-1.16967e-05 0.000154617 -3.85503e-07
-2.88178e-07 -3.85503e-07 4.32337e-05
0.00110449 9.71309e-06 -1.42341e-07
9.71309e-06 7.60316e-05 -1.84602e-07
-1.42341e-07 -1.84602e-07 -1.16407e-05
0.00117841 2.97969e-06 -1.76029e-07
2.97969e-06 0.000110199 -9.46069e-07
-1.76029e-07 -9.46069e-07 1.29916e-05
0.00178203 8.42308e-07 4.71597e-06
8.42308e-07 0.000840805 9.18173e-07
4.71597e-06 9.18173e-07 0.000768672
-0.000266039 2.84985e-06 5.44242e-06
2.84985e-06 -0.000424182 -3.01492e-07
5.44242e-06 -3.01492e-07 -0.000443778
-0.00368113 3.28308e-06 5.8348e-05
3.28308e-06 -0.00192404 5.01473e-07
5.8348e-05 5.01473e-07 -0.00189294
0.00142493 2.24457e-05 7.7392e-08
2.24457e-05 0.000225761 8.84396e-07
7.7392e-08 8.84396e-07 0.00013301
0.000642525 9.30715e-06 1.81215e-06
9.30715e-06 -6.38038e-05 -1.33048e-06
1.81215e-06 -1.33048e-06 -0.000188966
0.00111297 4.8186e-05 2.14064e-06
4.8186e-05 0.000119963 -6.93978e-06
2.14064e-06 -6.93978e-06 -5.75596e-05
-0.000603342 -5.9774e-06 -3.10803e-06
-5.9774e-06 -0.000604498 -1.13017e-06
-3.10803e-06 -1.13017e-06 -0.000618261
0.00202701 -5.39397e-05 -2.51391e-07
-5.39397e-05 -0.000221081 1.87359e-05
-2.51391e-07 1.87359e-05 -0.000838784
8.43312e-05 4.25034e-05 -8.78381e-06
4.25034e-05 1.1735e-05 -2.88627e-05
-8.78381e-06 -2.88627e-05 -0.000188791
0.00275616 -2.00584e-05 5.58311e-05
-2.00584e-05 0.000560013 1.36538e-05
5.58311e-05 1.36538e-05 0.000344732
0.00350717 -0.00017413 4.75313e-05
-0.00017413 0.00116113 5.49314e-05
4.75313e-05 5.49314e-05 0.00103672
0.000490403 -9.0979e-06 -1.25748e-05
-9.0979e-06 -4.19756e-05 -6.99424e-06
-1.25748e-05 -6.99424e-06 -5.95283e-05
0.000345315 -2.00593e-05 -1.00465e-05
-2.00593e-05 -0.000235757 -6.13696e-06
-1.00465e-05 -6.13696e-06 -0.000226255
0.00104013 2.12325e-05 6.06839e-07
2.12325e-05 4.65405e-05 8.6922e-07
6.06839e-07 8.6922e-07 -3.84356e-05
0.00136058 1.13523e-06 1.43524e-06
1.13523e-06 0.00054912 1.01305e-06
1.43524e-06 1.01305e-06 0.000486724
0.000805636 1.85398e-06 3.13988e-07
1.85398e-06 6.35609e-05 -2.78798e-07
3.13988e-07 -2.78798e-07 2.33651e-05
4.96472e-05 -2.50976e-06 8.53464e-06
-2.50976e-06 -0.000280427 1.7218e-06
8.53464e-06 1.7218e-06 -0.000413065
0.000994562 5.09263e-05 -1.80142e-05
5.09263e-05 0.000401036 -3.99132e-06
-1.80142e-05 -3.99132e-06 0.000210755
0.00505249 -1.72625e-05 1.33226e-05
-1.72625e-05 0.000804583 9.32776e-06
1.33226e-05 9.32776e-06 0.000206573
0.000735392 -8.60238e-06 -1.49143e-06
-8.60238e-06 3.2892e-05 1.28463e-06
-1.49143e-06 1.28463e-06 8.14671e-07
0.00168859 -0.00014337 3.59345e-06
-0.00014337 -3.91133e-05 1.29687e-05
3.59345e-06 1.29687e-05 1.12857e-05
0.000922068 9.39698e-06 1.21436e-07
9.39698e-06 -1.65916e-05 -5.8751e-06
1.21436e-07 -5.8751e-06 -9.0606e-05
0.000860165 5.50989e-06 2.02961e-06
5.50989e-06 0.000135705 1.62411e-06
2.02961e-06 1.62411e-06 5.5351e-05
0.00113734 -8.38466e-06 4.84622e-08
-8.38466e-06 0.000236844 2.69188e-06
4.84622e-08 2.69188e-06 0.000193395
1.43241e-05 -3.81762e-06 -1.1004e-05
-3.81762e-06 -0.000417835 2.98044e-06
-1.1004e-05 2.98044e-06 -0.00040084
-0.00121691 1.89631e-05 -7.91662e-06
1.89631e-05 -0.000758992 -6.121e-07
-7.91662e-06 -6.121e-07 -0.000820676
0.00695486 -4.25652e-05 -1.16838e-05
-4.25652e-05 0.00195509 1.02349e-05
-1.16838e-05 1.02349e-05 0.00133966
0.000351453 -9.16703e-06 7.27311e-06
-9.16703e-06 -0.00105572 -4.78281e-05
7.27311e-06 -4.78281e-05 -0.000722565
0.00125894 2.16634e-05 3.46918e-08
2.16634e-05 0.000137554 3.97418e-07
3.46918e-08 3.97418e-07 4.46863e-05
0.00146801 1.8349e-05 -7.08762e-07
1.8349e-05 0.00024054 -4.96156e-07
-7.08762e-07 -4.96156e-07 0.000143712
0.00124527 2.02167e-05 -3.56085e-07
2.02167e-05 0.000175171 8.26453e-07
-3.56085e-07 8.26453e-07 7.45608e-05
0.00112337 2.22425e-05 -6.84958e-08
2.22425e-05 7.97003e-05 -5.69834e-07
-6.84958e-08 -5.69834e-07 2.09905e-06
0.00123021 2.24461e-05 1.56038e-08
2.24461e-05 0.000133847 -1.84592e-07
1.56038e-08 -1.84592e-07 4.53633e-05
0.00108857 1.66644e-05 -4.81154e-07
1.66644e-05 7.73149e-05 -7.62414e-07
-4.81154e-07 -7.62414e-07 -2.23536e-05
0.00125873 1.2155e-05 -6.46987e-08
1.2155e-05 0.000145421 -1.6324e-07
-6.46987e-08 -1.6324e-07 5.93436e-05
0.00119017 4.82002e-06 1.16357e-07
4.82002e-06 0.000120252 2.0352e-07
1.16357e-07 2.0352e-07 2.10316e-05
0.000987419 1.5599e-05 5.40324e-08
1.5599e-05 4.09028e-05 4.99138e-07
5.40324e-08 4.99138e-07 -5.8271e-05
0.00105225 1.28272e-05 1.70969e-07
1.28272e-05 7.96386e-05 -4.50423e-08
1.70969e-07 -4.50423e-08 -2.17741e-05
0.001133 -1.56348e-05 -5.70084e-07
-1.56348e-05 9.33806e-05 7.64782e-07
-5.70084e-07 7.64782e-07 -2.53929e-06
0.00119693 -3.51667e-06 -8.06148e-08
-3.51667e-06 0.000115265 -8.37422e-07
-8.06148e-08 -8.37422e-07 3.15942e-05
0.00112759 -1.41864e-05 7.14311e-08
-1.41864e-05 8.57388e-05 -3.1133e-07
7.14311e-08 -3.1133e-07 6.98338e-06
0.00111099 -2.11984e-05 1.10143e-07
-2.11984e-05 7.60071e-05 -3.97296e-07
1.10143e-07 -3.97296e-07 -8.86639e-06
0.00111711 -2.36907e-05 1.735e-07
-2.36907e-05 8.43242e-05 -1.71097e-07
1.735e-07 -1.71097e-07 -5.72102e-06
0.00105671 -2.27905e-05 -3.72796e-07
-2.27905e-05 5.05857e-05 2.43096e-07
-3.72796e-07 2.43096e-07 -3.59834e-05
0.0011586 -2.81633e-05 -6.16482e-07
-2.81633e-05 0.000112479 1.12542e-06
-6.16482e-07 1.12542e-06 1.94745e-05
0.00112167 -2.89531e-05 3.88993e-07
-2.89531e-05 8.06014e-05 -5.57772e-07
3.88993e-07 -5.57772e-07 -1.8388e-06
0.00099578 -3.12546e-05 9.65627e-08
-3.12546e-05 1.9241e-05 1.0349e-06
9.65627e-08 1.0349e-06 -7.23242e-05
0.00117277 -2.71337e-05 6.45577e-07
-2.71337e-05 9.91891e-05 9.31583e-08
6.45577e-07 9.31583e-08 1.80683e-05
0.00116972 -3.06893e-05 6.14127e-08
-3.06893e-05 9.35404e-05 6.16141e-07
6.14127e-08 6.16141e-07 1.57417e-05
0.00103424 -3.23077e-05 -3.54898e-07
-3.23077e-05 1.65353e-05 1.30716e-06
-3.54898e-07 1.30716e-06 -6.45078e-05
0.0011253 -2.96415e-05 -8.62843e-07
-2.96415e-05 7.12785e-05 4.18393e-07
-8.62843e-07 4.18393e-07 1.48549e-07
0.00112595 -2.62653e-05 -1.08556e-06
-2.62653e-05 7.28111e-05 3.95133e-07
-1.08556e-06 3.95133e-07 7.68275e-06
0.00105235 -2.97457e-05 -4.53841e-07
-2.97457e-05 3.34152e-05 6.27385e-08
-4.53841e-07 6.27385e-08 -4.0054e-05
0.00110879 -2.05428e-05 -8.15355e-07
-2.05428e-05 6.12312e-05 2.71722e-07
-8.15355e-07 2.71722e-07 -7.16619e-07
0.00117921 -2.72654e-05 -2.41096e-08
-2.72654e-05 9.65774e-05 -1.78018e-07
-2.41096e-08 -1.78018e-07 2.96859e-05
0.00106441 -2.86905e-05 5.70767e-07
-2.86905e-05 4.82121e-05 -1.25941e-06
5.70767e-07 -1.25941e-06 -2.13358e-05
0.00120191 -2.74555e-05 1.36305e-06
-2.74555e-05 0.000109909 -2.82988e-07
1.36305e-06 -2.82988e-07 3.65632e-05
0.0010308 -2.00397e-05 5.50071e-08
-2.00397e-05 2.69418e-05 -1.60261e-08
5.50071e-08 -1.60261e-08 -3.94072e-05
0.00106647 -7.27839e-06 -1.12181e-06
-7.27839e-06 3.92529e-05 1.16561e-06
-1.12181e-06 1.16561e-06 -1.40202e-05
0.00108893 -1.81858e-05 5.67124e-07
-1.81858e-05 5.94157e-05 -3.75585e-07
5.67124e-07 -3.75585e-07 -8.63848e-06
0.00106017 -7.34727e-06 9.2936e-08
-7.34727e-06 3.78532e-05 2.74536e-08
9.2936e-08 2.74536e-08 -1.59636e-05
0.00100894 4.67545e-06 -1.25362e-06
4.67545e-06 7.60078e-06 1.94602e-06
-1.25362e-06 1.94602e-06 -2.57101e-05
0.00106636 -8.68298e-06 6.98564e-07
-8.68298e-06 4.17494e-05 -1.23727e-06
6.98564e-07 -1.23727e-06 -1.15887e-05
0.00101144 3.95562e-06 6.18636e-08
3.95562e-06 7.57348e-06 -1.42349e-09
6.18636e-08 -1.42349e-09 -2.5224e-05
0.00157146 8.72195e-06 -3.54025e-06
8.72195e-06 0.000276542 3.17183e-06
-3.54025e-06 3.17183e-06 0.000276409
0.00101379 3.41267e-06 9.11336e-07
3.41267e-06 7.39433e-06 -1.91561e-06
9.11336e-07 -1.91561e-06 -2.4817e-05
0.00127704 6.9309e-06 -1.0941e-06
6.9309e-06 0.000128326 6.29052e-07
-1.0941e-06 6.29052e-07 0.000127154
0.00111507 7.89251e-06 -1.32153e-06
7.89251e-06 4.51696e-05 1.58989e-06
-1.32153e-06 1.58989e-06 6.13999e-05
0.000963112 5.00698e-06 1.12431e-06
5.00698e-06 -2.93885e-05 -3.25791e-06
1.12431e-06 -3.25791e-06 -3.14575e-05
0.00177813 6.55047e-06 1.88116e-06
6.55047e-06 0.000368153 -1.24788e-06
1.88116e-06 -1.24788e-06 0.000387885
0.00240822 4.59137e-06 3.51055e-06
4.59137e-06 0.000677137 -4.13941e-06
3.51055e-06 -4.13941e-06 0.000700084
0.000864338 -1.35618e-06 -2.8591e-07
-1.35618e-06 -5.88855e-05 -1.64895e-06
-2.8591e-07 -1.64895e-06 -0.000108113
0.00076729 -3.80363e-06 -5.7226e-07
-3.80363e-06 -0.000117153 -2.42719e-06
-5.7226e-07 -2.42719e-06 -0.000145233
0.00113364 -2.74825e-06 3.39377e-08
-2.74825e-06 7.12834e-05 1.16878e-07
3.39377e-08 1.16878e-07 2.63889e-05
0.000969193 -3.48741e-06 -7.71987e-07
-3.48741e-06 -2.88576e-05 -3.17197e-06
-7.71987e-07 -3.17197e-06 -2.69046e-05
0.000895814 -2.43046e-06 -8.74377e-09
-2.43046e-06 -5.63256e-05 8.28402e-10
-8.74377e-09 8.28402e-10 -8.22888e-05
0.000881624 -4.22154e-06 1.07831e-07
-4.22154e-06 -5.34331e-05 1.22268e-06
1.07831e-07 1.22268e-06 -9.73771e-05
0.0022719 -2.33746e-06 -2.0467e-06
-2.33746e-06 0.000608529 -4.00012e-06
-2.0467e-06 -4.00012e-06 0.000633239
0.000960997 -1.65906e-06 -9.37701e-08
-1.65906e-06 -3.40378e-05 1.84018e-09
-9.37701e-08 1.84018e-09 -3.14774e-05
0.0010234 -1.15884e-06 1.23109e-07
-1.15884e-06 4.8833e-06 1.8627e-06
1.23109e-07 1.8627e-06 -1.96623e-05
0.00227147 8.5553e-08 -5.92216e-07
8.5553e-08 0.000607853 1.02213e-09
-5.92216e-07 1.02213e-09 0.000632677
0.000962258 1.2926e-07 -1.31298e-07
1.2926e-07 -3.37581e-05 3.22043e-06
-1.31298e-07 3.22043e-06 -3.1037e-05
0.00226987 2.56716e-06 -1.90648e-06
2.56716e-06 0.000607708 3.99832e-06
-1.90648e-06 3.99832e-06 0.000632388
0.000949497 -4.41266e-06 8.63405e-06
-4.41266e-06 0.000319927 -1.94485e-06
8.63405e-06 -1.94485e-06 0.000255991
0.000778931 1.19106e-05 3.95727e-07
1.19106e-05 0.000183553 7.25098e-07
3.95727e-07 7.25098e-07 0.000180183
0.000705983 -2.92884e-06 8.43858e-05
-2.92884e-06 0.000115639 -1.32493e-05
8.43858e-05 -1.32493e-05 -2.35251e-06
0.00108112 1.33936e-05 -5.1745e-07
1.33936e-05 5.17709e-05 -6.7486e-07
-5.1745e-07 -6.7486e-07 -1.35564e-05
0.000548751 -1.84719e-05 3.1898e-06
-1.84719e-05 -5.06451e-05 -6.48753e-06
3.1898e-06 -6.48753e-06 -9.23496e-05
0.000822428 -1.71129e-06 4.16243e-06
-1.71129e-06 0.00019475 -4.07392e-07
4.16243e-06 -4.07392e-07 0.00016786
0.000700083 3.17336e-05 -1.22543e-05
3.17336e-05 6.34072e-05 9.72789e-06
-1.22543e-05 9.72789e-06 0.000117028
0.000895578 1.61868e-05 -3.10587e-05
1.61868e-05 -0.000133435 8.43418e-06
-3.10587e-05 8.43418e-06 -0.000307736
0.00475183 3.18421e-05 -3.38866e-06
3.18421e-05 0.00150636 -2.2038e-06
-3.38866e-06 -2.2038e-06 0.000964533
-0.000838424 9.3499e-05 4.23375e-05
9.3499e-05 -0.00060171 -2.91642e-05
4.23375e-05 -2.91642e-05 -0.00060222
0.00247335 1.86577e-05 -7.26653e-06
1.86577e-05 0.00108311 2.31527e-06
-7.26653e-06 2.31527e-06 0.00117
0.00193993 -2.84702e-05 -2.12778e-05
-2.84702e-05 0.000433835 8.09979e-06
-2.12778e-05 8.09979e-06 9.56158e-05
0.0046778 7.04804e-05 1.76929e-05
7.04804e-05 0.00109795 -2.38052e-05
1.76929e-05 -2.38052e-05 0.00055766
7.25608e-05 0.000140386 -4.16007e-06
0.000140386 -0.000679203 1.1332e-05
-4.16007e-06 1.1332e-05 -0.000704899
0.00148219 2.63259e-06 1.36961e-06
2.63259e-06 0.000493472 -3.88185e-06
1.36961e-06 -3.88185e-06 0.000501068
0.000646997 -7.53087e-05 2.57614e-05
-7.53087e-05 -0.000215825 -3.92536e-05
2.57614e-05 -3.92536e-05 -0.000577352
0.00608886 9.38295e-05 2.15176e-05
9.38295e-05 0.00108625 -3.76569e-05
2.15176e-05 -3.76569e-05 0.000400192
0.00114781 0.000137024 1.02049e-05
0.000137024 -0.000639675 5.16598e-05
1.02049e-05 5.16598e-05 -0.000643357
0.000751777 2.03865e-06 2.00793e-06
2.03865e-06 4.33963e-05 6.9718e-06
2.00793e-06 6.9718e-06 -1.01497e-05
0.00106385 -3.98618e-07 -1.50521e-07
-3.98618e-07 4.81169e-05 -8.27326e-07
-1.50521e-07 -8.27326e-07 -3.22229e-05
0.00112279 -6.60677e-06 8.44309e-08
-6.60677e-06 7.97948e-05 -5.24439e-09
8.44309e-08 -5.24439e-09 4.94719e-06
0.00119376 1.50004e-05 -2.88719e-08
1.50004e-05 0.000111844 7.58016e-07
-2.88719e-08 7.58016e-07 4.60944e-05
0.00107052 1.49337e-05 -3.24933e-07
1.49337e-05 5.07473e-05 -1.08367e-06
-3.24933e-07 -1.08367e-06 -2.22164e-05
0.00115034 1.45464e-05 -6.83424e-08
1.45464e-05 9.00367e-05 3.76425e-07
-6.83424e-08 3.76425e-07 1.99357e-05
0.00122709 4.07427e-06 2.18846e-07
4.07427e-06 0.000126464 1.43653e-06
2.18846e-07 1.43653e-06 6.23226e-05
0.00125992 1.35935e-05 -1.32035e-07
1.35935e-05 0.000142263 4.50167e-08
-1.32035e-07 4.50167e-08 8.11e-05
0.00126517 1.37878e-05 2.32166e-07
1.37878e-05 0.000144111 1.34945e-06
2.32166e-07 1.34945e-06 8.60738e-05
0.00135681 -5.78837e-05 -2.36493e-08
-5.78837e-05 -0.000287724 -4.38523e-06
-2.36493e-08 -4.38523e-06 -0.000239853
0.00166404 -6.31634e-05 -1.49106e-06
-6.31634e-05 0.000377354 7.21588e-07
-1.49106e-06 7.21588e-07 0.000245071
0.00112561 -2.43288e-05 4.9949e-08
-2.43288e-05 8.59018e-05 1.00921e-06
4.9949e-08 1.00921e-06 4.56061e-06
0.00126925 -2.04331e-05 3.3487e-07
-2.04331e-05 0.000163241 2.24448e-07
3.3487e-07 2.24448e-07 4.04123e-05
0.00134256 -1.67169e-05 3.87723e-07
-1.67169e-05 0.000196797 7.29763e-07
3.87723e-07 7.29763e-07 9.61826e-05
0.00120174 -3.28824e-06 1.24805e-07
-3.28824e-06 0.000128614 1.55553e-07
1.24805e-07 1.55553e-07 4.09098e-05
0.00112111 8.91582e-06 -4.20945e-08
8.91582e-06 8.3877e-05 2.99004e-08
-4.20945e-08 2.99004e-08 -3.75896e-06
0.00173484 -5.61101e-05 8.85025e-08
-5.61101e-05 2.85503e-05 -5.79251e-07
8.85025e-08 -5.79251e-07 2.02001e-05
0.00113615 -4.90084e-07 -5.57905e-08
-4.90084e-07 8.89535e-05 2.44539e-07
-5.57905e-08 2.44539e-07 -8.64636e-06
0.0012076 -1.31465e-05 5.42247e-07
-1.31465e-05 0.000125087 5.60684e-09
5.42247e-07 5.60684e-09 1.23875e-05
0.00107731 -2.13589e-05 -1.8799e-07
-2.13589e-05 0.00018115 4.53471e-07
-1.8799e-07 4.53471e-07 1.83925e-05
0.00106646 1.59234e-05 -1.30466e-07
1.59234e-05 5.27635e-05 2.42667e-07
-1.30466e-07 2.42667e-07 -3.63933e-05
0.00252093 -5.17891e-05 -1.33259e-05
-5.17891e-05 0.000652785 1.8676e-05
-1.33259e-05 1.8676e-05 0.000535814
0.00120918 7.09775e-06 1.37682e-07
7.09775e-06 0.000219014 -2.56016e-06
1.37682e-07 -2.56016e-06 7.1694e-05
0.00139294 -4.40421e-06 -4.24534e-07
-4.40421e-06 0.000208765 -1.0227e-06
-4.24534e-07 -1.0227e-06 0.000102698
0.00119963 1.5062e-05 -1.63601e-07
1.5062e-05 0.000117197 -2.83154e-07
-1.63601e-07 -2.83154e-07 2.08513e-05
0.0013913 -3.83671e-07 1.5393e-06
-3.83671e-07 0.000492024 1.55578e-08
1.5393e-06 1.55578e-08 0.00040048
0.00149376 1.43006e-06 -4.5684e-06
1.43006e-06 0.000657367 3.24438e-07
-4.5684e-06 3.24438e-07 0.000585162
-0.00130302 3.57563e-06 -8.65381e-07
3.57563e-06 -0.00101945 4.14381e-07
-8.65381e-07 4.14381e-07 -0.00104485
0.000992447 2.21242e-05 -2.11487e-07
2.21242e-05 2.09834e-05 1.4079e-06
-2.11487e-07 1.4079e-06 -6.3173e-05
-0.000338002 -1.08252e-05 -2.05417e-06
-1.08252e-05 -0.000487573 2.48444e-06
-2.05417e-06 2.48444e-06 -0.00064477
0.000875401 1.92973e-06 -1.09801e-05
1.92973e-06 0.000250989 -1.82876e-06
-1.09801e-05 -1.82876e-06 0.000182717
0.0033396 -0.000114546 1.0232e-05
-0.000114546 0.000447279 9.67312e-06
1.0232e-05 9.67312e-06 -0.000240411
0.00395713 8.54749e-05 -1.19491e-05
8.54749e-05 0.00138507 -4.90361e-05
-1.19491e-05 -4.90361e-05 0.00110187
0.00203476 -0.000156831 -8.41358e-07
-0.000156831 -0.000307861 6.73599e-05
-8.41358e-07 6.73599e-05 -0.000131712
0.000507284 1.85489e-06 -5.77909e-06
1.85489e-06 -0.000125885 -4.60353e-06
-5.77909e-06 -4.60353e-06 -0.000166493
0.000794151 -6.74128e-06 1.3411e-06
-6.74128e-06 9.74055e-05 -2.94537e-07
1.3411e-06 -2.94537e-07 5.73246e-05
0.00126061 1.12599e-05 -5.23509e-07
1.12599e-05 0.000147679 -8.94827e-07
-5.23509e-07 -8.94827e-07 7.15809e-05
0.000719894 5.33287e-06 3.23362e-07
5.33287e-06 4.98799e-05 6.68204e-07
3.23362e-07 6.68204e-07 -3.1055e-05
0.00086945 -9.18195e-06 -1.76124e-06
-9.18195e-06 7.39858e-05 5.89894e-08
-1.76124e-06 5.89894e-08 2.55977e-05
0.000345137 6.85171e-06 2.77425e-06
6.85171e-06 -2.36936e-05 -3.93464e-06
2.77425e-06 -3.93464e-06 -6.058e-05
0.00147131 7.26834e-07 -1.29091e-06
7.26834e-07 0.000462411 3.53103e-06
-1.29091e-06 3.53103e-06 0.000494176
0.00331329 -8.99386e-07 5.74614e-06
-8.99386e-07 1.89759e-05 1.26041e-05
5.74614e-06 1.26041e-05 -0.000373615
0.00322937 -2.44554e-07 4.41678e-06
-2.44554e-07 7.89252e-05 1.6619e-06
4.41678e-06 1.6619e-06 0.000484165
8.21216e-05 9.33866e-06 5.23907e-08
9.33866e-06 -0.000361555 -5.24224e-06
5.23907e-08 -5.24224e-06 -0.00042263
0.00100287 -4.15827e-06 1.06257e-06
-4.15827e-06 0.000183378 1.05846e-06
1.06257e-06 1.05846e-06 0.000108965
0.000620453 -1.65953e-05 -4.27987e-06
-1.65953e-05 -4.70197e-05 8.90951e-06
-4.27987e-06 8.90951e-06 -9.23856e-05
0.00126267 3.25214e-05 -4.82125e-06
3.25214e-05 0.000285862 7.13286e-06
-4.82125e-06 7.13286e-06 0.000412943
0.00164838 0.000146809 -3.62915e-06
0.000146809 -0.000266744 -5.31769e-05
-3.62915e-06 -5.31769e-05 -0.000240009
0.00171579 3.12613e-06 7.16693e-06
3.12613e-06 0.000843321 -1.06756e-05
7.16693e-06 -1.06756e-05 0.000754514
0.00451524 -3.57911e-05 2.57017e-05
-3.57911e-05 0.000876775 2.2228e-05
2.57017e-05 2.2228e-05 4.27863e-05
0.00120606 1.42023e-05 -4.08213e-07
1.42023e-05 0.00011605 -1.06218e-07
-4.08213e-07 -1.06218e-07 1.8088e-05
0.00109864 1.87302e-05 3.08881e-07
1.87302e-05 9.73373e-05 -6.84129e-07
3.08881e-07 -6.84129e-07 -2.1415e-06
0.000681188 1.17066e-05 -2.11736e-07
1.17066e-05 -5.22405e-05 -8.94622e-07
-2.11736e-07 -8.94622e-07 -0.000180863
0.00122736 1.1771e-05 -8.49371e-08
1.1771e-05 0.000130521 -4.92553e-07
-8.49371e-08 -4.92553e-07 4.47332e-05
0.00125211 4.86226e-06 -4.93941e-08
4.86226e-06 0.000151939 -5.20742e-07
-4.93941e-08 -5.20742e-07 5.21831e-05
0.000976689 1.64923e-05 -3.99751e-07
1.64923e-05 3.01786e-05 1.23121e-06
-3.99751e-07 1.23121e-06 -6.8961e-05
0.00111056 -1.58743e-05 -1.76123e-07
-1.58743e-05 8.2233e-05 3.12882e-07
-1.76123e-07 3.12882e-07 -1.34668e-05
0.00101519 7.76749e-06 -1.90614e-07
7.76749e-06 6.2667e-05 4.25136e-07
-1.90614e-07 4.25136e-07 -3.82704e-05
0.00107018 -1.88355e-05 2.15547e-07
-1.88355e-05 9.95271e-05 5.06718e-07
2.15547e-07 5.06718e-07 -9.7208e-06
0.0011228 -2.36663e-05 3.61947e-07
-2.36663e-05 8.50743e-05 -4.92371e-07
3.61947e-07 -4.92371e-07 -4.54609e-06
0.000994528 -2.08399e-05 5.4585e-08
-2.08399e-05 2.06799e-05 1.33259e-07
5.4585e-08 1.33259e-07 -6.60111e-05
0.00118352 -2.87256e-05 1.97437e-07
-2.87256e-05 0.000122983 4.51792e-07
1.97437e-07 4.51792e-07 2.91761e-05
0.000960562 -3.13137e-05 -1.06776e-06
-3.13137e-05 3.14108e-05 1.62413e-06
-1.06776e-06 1.62413e-06 -7.20503e-05
0.00103455 -2.7992e-05 4.68905e-07
-2.7992e-05 4.11377e-05 -7.2938e-08
4.68905e-07 -7.2938e-08 -3.8327e-05
0.000972969 -3.06699e-05 7.58385e-07
-3.06699e-05 1.19818e-05 -5.2186e-07
7.58385e-07 -5.2186e-07 -7.87798e-05
0.00120695 -3.71912e-05 -3.10733e-07
-3.71912e-05 0.000111802 1.13139e-06
-3.10733e-07 1.13139e-06 1.77435e-05
0.00120919 -3.43546e-05 -1.35706e-06
-3.43546e-05 9.54244e-05 1.35677e-06
-1.35706e-06 1.35677e-06 1.65244e-05
0.00134333 -3.2659e-05 4.56654e-07
-3.2659e-05 0.000175543 -5.19985e-08
4.56654e-07 -5.19985e-08 9.76866e-05
0.0010991 -3.3208e-05 -1.25711e-07
-3.3208e-05 4.75917e-05 -5.88615e-08
-1.25711e-07 -5.88615e-08 -3.42352e-05
0.00125632 -3.01258e-05 1.17268e-08
-3.01258e-05 0.000134227 1.64549e-07
1.17268e-08 1.64549e-07 6.66489e-05
0.00101259 -2.31648e-05 -6.22896e-07
-2.31648e-05 2.68066e-05 2.40995e-07
-6.22896e-07 2.40995e-07 -3.86785e-05
0.00112269 -2.94717e-05 4.22554e-07
-2.94717e-05 6.95916e-05 8.96729e-09
4.22554e-07 8.96729e-09 -6.37113e-07
0.00110152 -1.70503e-05 -9.70834e-07
-1.70503e-05 6.04243e-05 1.09938e-07
-9.70834e-07 1.09938e-07 6.3623e-07
0.00113844 -2.63716e-05 -5.59605e-07
-2.63716e-05 7.85753e-05 3.63579e-07
-5.59605e-07 3.63579e-07 1.33294e-05
0.000960659 -2.86483e-05 1.36579e-07
-2.86483e-05 -8.66344e-06 -5.93381e-07
1.36579e-07 -5.93381e-07 -8.2236e-05
0.00106739 -6.89314e-06 -1.31234e-06
-6.89314e-06 3.80399e-05 9.83317e-07
-1.31234e-06 9.83317e-07 -1.34905e-05
0.00106708 -2.02689e-05 4.61621e-08
-2.02689e-05 4.04894e-05 8.7724e-08
4.61621e-08 8.7724e-08 -2.17547e-05
0.0011392 -2.72221e-05 1.30922e-06
-2.72221e-05 7.70581e-05 -3.23623e-07
1.30922e-06 -3.23623e-07 9.74608e-06
0.00107729 -2.06368e-05 9.93793e-07
-2.06368e-05 4.96557e-05 -4.76038e-07
9.93793e-07 -4.76038e-07 -1.63741e-05
0.00106112 -6.78826e-06 5.99047e-08
-6.78826e-06 3.63158e-05 3.66771e-08
5.99047e-08 3.66771e-08 -1.68173e-05
0.00100858 5.19618e-06 -1.56153e-06
5.19618e-06 8.30195e-06 1.93746e-06
-1.56153e-06 1.93746e-06 -2.51409e-05
0.00106104 -7.3063e-06 9.55291e-07
-7.3063e-06 3.80353e-05 -1.12855e-06
9.55291e-07 -1.12855e-06 -1.57133e-05
0.00100722 4.85968e-06 7.92139e-08
4.85968e-06 6.83088e-06 7.21641e-09
7.92139e-08 7.21641e-09 -2.64931e-05
0.000926543 9.3388e-06 -2.02011e-06
9.3388e-06 -3.76273e-05 3.1908e-06
-2.02011e-06 3.1908e-06 -4.13247e-05
0.00101132 3.85418e-06 1.14908e-06
3.85418e-06 7.54425e-06 -1.9376e-06
1.14908e-06 -1.9376e-06 -2.52842e-05
0.000939919 7.98575e-06 9.63954e-08
7.98575e-06 -3.44543e-05 1.92943e-08
9.63954e-08 1.92943e-08 -3.76493e-05
0.00239664 1.25861e-05 -2.68049e-06
1.25861e-05 0.000679823 1.64681e-06
-2.68049e-06 1.64681e-06 0.000701417
0.000958587 6.55074e-06 1.50658e-06
6.55074e-06 -2.87864e-05 -3.23574e-06
1.50658e-06 -3.23574e-06 -3.14118e-05
0.00178341 8.79289e-06 2.30938e-06
8.79289e-06 0.000373882 -1.23395e-06
2.30938e-06 -1.23395e-06 0.000393041
0.00241586 7.05997e-06 4.82197e-06
7.05997e-06 0.000683177 -4.11606e-06
4.82197e-06 -4.11606e-06 0.000705708
0.000850897 -9.79063e-08 -5.62738e-07
-9.79063e-08 -6.57685e-05 -1.69163e-06
-5.62738e-07 -1.69163e-06 -0.000117561
0.000751433 -4.90352e-06 -7.49618e-07
-4.90352e-06 -0.000122072 -2.46121e-06
-7.49618e-07 -2.46121e-06 -0.000152499
0.001006 -2.29375e-06 -6.8791e-08
-2.29375e-06 1.0069e-05 -5.07196e-07
-6.8791e-08 -5.07196e-07 -3.85316e-05
0.000971184 -5.27355e-06 -1.06952e-06
-5.27355e-06 -2.58038e-05 -3.15055e-06
-1.06952e-06 -3.15055e-06 -2.48955e-05
0.000758839 -3.82377e-06 -9.6727e-08
-3.82377e-06 -0.000121051 -5.93265e-07
-9.6727e-08 -5.93265e-07 -0.000149354
0.0011396 -1.87223e-06 2.11412e-07
-1.87223e-06 7.40384e-05 1.23096e-06
2.11412e-07 1.23096e-06 2.90604e-05
0.0022797 -4.74822e-06 -3.44116e-06
-4.74822e-06 0.000613702 -3.98694e-06
-3.44116e-06 -3.98694e-06 0.000638063
0.000960283 -3.46988e-06 -7.65627e-08
-3.46988e-06 -3.32471e-05 -1.10712e-09
-7.65627e-08 -1.10712e-09 -3.12285e-05
0.000765878 -2.43652e-06 3.10612e-07
-2.43652e-06 -0.000119721 1.85006e-06
3.10612e-07 1.85006e-06 -0.00014651
0.00227695 -2.28413e-06 -5.68361e-07
-2.28413e-06 0.000610896 7.40096e-09
-5.68361e-07 7.40096e-09 0.000635611
0.000957402 -1.62972e-06 2.548e-07
-1.62972e-06 -3.58164e-05 3.2201e-06
2.548e-07 3.2201e-06 -3.32307e-05
0.0022706 1.36533e-07 -4.50794e-07
1.36533e-07 0.000607424 3.99012e-06
-4.50794e-07 3.99012e-06 0.000632258
0.000838006 -1.54785e-05 1.68973e-06
-1.54785e-05 0.000150797 -1.23968e-06
1.68973e-06 -1.23968e-06 7.16577e-05
0.000817538 -4.64434e-06 -2.08497e-07
-4.64434e-06 0.000235118 5.86129e-07
-2.08497e-07 5.86129e-07 0.000172474
0.000625953 1.04419e-05 -8.02375e-06
1.04419e-05 8.41527e-05 2.53383e-06
-8.02375e-06 2.53383e-06 8.02985e-05
0.00112609 1.82535e-05 -2.40374e-07
1.82535e-05 7.37318e-05 6.09072e-08
-2.40374e-07 6.09072e-08 8.94307e-06
0.00100173 2.07465e-05 -6.50963e-07
2.07465e-05 7.50057e-06 -6.30676e-07
-6.50963e-07 -6.30676e-07 -5.83891e-05
0.00119736 2.07104e-05 6.36255e-09
2.07104e-05 0.00011044 2.0345e-07
6.36255e-09 2.0345e-07 3.75033e-05
0.000840826 -1.33122e-06 -2.21076e-06
-1.33122e-06 9.76373e-05 1.12673e-06
-2.21076e-06 1.12673e-06 5.11948e-05
0.000856697 -1.8649e-05 2.13846e-07
-1.8649e-05 0.000143034 1.04501e-07
2.13846e-07 1.04501e-07 9.91558e-05
0.00102345 -1.78441e-06 -6.27668e-06
-1.78441e-06 0.00031867 6.11706e-06
-6.27668e-06 6.11706e-06 0.000293961
0.000363897 6.11075e-06 -1.95992e-05
6.11075e-06 7.35998e-05 1.29189e-05
-1.95992e-05 1.29189e-05 -0.000158673
0.00361929 1.14805e-05 -5.18685e-06
1.14805e-05 0.000589695 -1.23695e-05
-5.18685e-06 -1.23695e-05 -4.81498e-05
0.00301867 0.000174534 1.58623e-05
0.000174534 0.00086665 -2.38841e-05
1.58623e-05 -2.38841e-05 0.000774376
0.0015081 -2.78345e-06 -6.75548e-06
-2.78345e-06 0.000562794 -1.35692e-06
-6.75548e-06 -1.35692e-06 0.000549899
0.000252024 -4.19444e-05 -1.31436e-05
-4.19444e-05 1.7369e-05 9.66047e-06
-1.31436e-05 9.66047e-06 -0.000204292
0.00614518 6.90459e-05 2.60853e-05
6.90459e-05 0.00142 -4.36854e-05
2.60853e-05 -4.36854e-05 0.000811199
0.0005956 0.000112967 5.04749e-06
0.000112967 -0.000485566 8.91169e-06
5.04749e-06 8.91169e-06 -0.000471086
0.000785862 4.0392e-06 3.49341e-06
4.0392e-06 9.31744e-05 -6.85341e-07
3.49341e-06 -6.85341e-07 3.73552e-05
-0.000988836 -7.01041e-05 2.11226e-05
-7.01041e-05 -0.000687707 -3.82565e-05
2.11226e-05 -3.82565e-05 -0.000822482
0.00619617 0.000105189 1.87077e-05
0.000105189 0.00104081 -3.48902e-05
1.87077e-05 -3.48902e-05 0.000760002
0.00108981 6.60779e-06 -6.20019e-06
6.60779e-06 -0.000749048 4.74311e-05
-6.20019e-06 4.74311e-05 -0.000538651
-0.00013041 6.9868e-06 -4.44957e-06
6.9868e-06 -0.000457795 2.46129e-06
-4.44957e-06 2.46129e-06 -0.000470393
0.00111948 1.81567e-05 -6.16723e-07
1.81567e-05 7.39577e-05 -2.6015e-07
-6.16723e-07 -2.6015e-07 -8.23324e-06
0.00107432 -8.66703e-07 1.27282e-08
-8.66703e-07 5.36362e-05 -2.96395e-07
1.27282e-08 -2.96395e-07 -2.6703e-05
0.0010936 -1.10353e-05 1.2826e-07
-1.10353e-05 6.56018e-05 8.31021e-07
1.2826e-07 8.31021e-07 -1.00175e-05
0.00109557 1.5581e-05 -2.50782e-07
1.5581e-05 6.29587e-05 -6.88422e-07
-2.50782e-07 -6.88422e-07 -1.02408e-05
0.00123068 2.11097e-05 3.29041e-07
2.11097e-05 0.000129014 1.18917e-06
3.29041e-07 1.18917e-06 5.98396e-05
0.00128773 1.33469e-05 -8.91061e-09
1.33469e-05 0.000155288 9.28652e-07
-8.91061e-09 9.28652e-07 9.45599e-05
0.00155811 -4.57868e-05 9.77573e-06
-4.57868e-05 -5.78975e-05 -9.05228e-06
9.77573e-06 -9.05228e-06 -4.85465e-05
0.0012508 -1.65217e-05 -8.84356e-08
-1.65217e-05 0.000261554 2.55394e-06
-8.84356e-08 2.55394e-06 9.98023e-05
0.0011342 8.08054e-06 1.09399e-07
8.08054e-06 8.99679e-05 4.68204e-07
1.09399e-07 4.68204e-07 2.37017e-06
0.00116831 -1.48033e-05 1.29197e-06
-1.48033e-05 0.000104927 4.40525e-07
1.29197e-06 4.40525e-07 -8.69236e-06
0.00110011 -1.90832e-06 4.1645e-07
-1.90832e-06 7.06214e-05 1.0877e-06
4.1645e-07 1.0877e-06 -2.74187e-05
0.00111472 1.59188e-05 2.31482e-07
1.59188e-05 7.71049e-05 4.25114e-07
2.31482e-07 4.25114e-07 -1.27225e-05
0.00113554 1.38316e-05 1.43037e-07
1.38316e-05 8.51192e-05 2.77941e-07
1.43037e-07 2.77941e-07 -1.16392e-05
0.00135423 -4.36284e-05 4.15875e-06
-4.36284e-05 5.63819e-05 1.22601e-06
4.15875e-06 1.22601e-06 -3.63329e-05
0.00121888 -7.74031e-06 -7.19853e-08
-7.74031e-06 0.000123596 -4.94948e-07
-7.19853e-08 -4.94948e-07 1.75762e-05
0.00121445 1.03644e-05 8.70585e-08
1.03644e-05 0.000217208 -1.25163e-07
8.70585e-08 -1.25163e-07 6.55867e-05
0.000985206 1.50805e-05 -8.52673e-07
1.50805e-05 1.31593e-05 -8.79976e-07
-8.52673e-07 -8.79976e-07 -8.54739e-05
0.00247261 -2.18114e-05 -8.6581e-06
-2.18114e-05 0.000821658 1.8907e-05
-8.6581e-06 1.8907e-05 0.000679386
0.00102924 2.43591e-06 -5.16546e-07
2.43591e-06 3.90621e-05 -3.78203e-06
-5.16546e-07 -3.78203e-06 -7.42653e-05
0.00109623 2.31765e-07 -5.17396e-07
2.31765e-07 7.10873e-05 -6.52474e-07
-5.17396e-07 -6.52474e-07 -3.19841e-05
0.00112201 5.36632e-07 8.12587e-07
5.36632e-07 0.000274522 -3.38528e-07
8.12587e-07 -3.38528e-07 0.000188328
0.000881731 -1.06036e-06 6.69482e-07
-1.06036e-06 0.000171011 4.17645e-07
6.69482e-07 4.17645e-07 7.91403e-05
0.00114517 1.92041e-06 -1.44001e-05
1.92041e-06 0.000436312 1.47148e-06
-1.44001e-05 1.47148e-06 0.000364151
0.00153056 2.07111e-05 -2.56699e-07
2.07111e-05 0.000279413 3.76833e-06
-2.56699e-07 3.76833e-06 0.000201148
0.00124991 -4.58362e-06 5.67734e-06
-4.58362e-06 0.000377221 -1.51192e-06
5.67734e-06 -1.51192e-06 0.000344379
0.000572436 5.1097e-06 -1.54373e-06
5.1097e-06 -4.02768e-05 -2.69138e-07
-1.54373e-06 -2.69138e-07 -0.000121824
0.0029956 -4.00759e-05 -4.56778e-07
-4.00759e-05 0.000231262 -1.14633e-05
-4.56778e-07 -1.14633e-05 0.000171675
0.000403442 -1.68643e-06 -2.79319e-07
-1.68643e-06 -0.00100402 4.8315e-05
-2.79319e-07 4.8315e-05 -0.000651473
0.000674297 -1.01092e-05 -6.77669e-07
-1.01092e-05 -4.36906e-05 1.65859e-07
-6.77669e-07 1.65859e-07 -9.71276e-05
0.00140853 -3.83439e-06 6.90433e-06
-3.83439e-06 0.00047262 -2.59892e-06
6.90433e-06 -2.59892e-06 0.000482746
0.000911987 1.08896e-06 3.1848e-06
1.08896e-06 2.50915e-06 2.07266e-06
3.1848e-06 2.07266e-06 -5.83797e-05
0.000902559 -5.17754e-06 4.4214e-07
-5.17754e-06 0.000123165 1.3961e-06
4.4214e-07 1.3961e-06 4.64614e-05
0.000918324 -1.74863e-05 -1.08494e-06
-1.74863e-05 0.000139517 1.15361e-07
-1.08494e-06 1.15361e-07 9.24362e-05
0.000730745 4.82911e-05 -5.24336e-06
4.82911e-05 0.000150562 -7.26929e-07
-5.24336e-06 -7.26929e-07 -0.000186486
0.000991012 2.52188e-05 1.91285e-06
2.52188e-05 0.00014093 8.81698e-07
1.91285e-06 8.81698e-07 0.000268286
-0.000344992 0.000116428 -2.56905e-06
0.000116428 -0.000791979 -1.06536e-05
-2.56905e-06 -1.06536e-05 -0.000706491
0.00601835 -6.74005e-06 8.88597e-06
-6.74005e-06 0.000869505 -2.39719e-05
8.88597e-06 -2.39719e-05 0.00101018
0.00184903 -7.49188e-06 3.5319e-06
-7.49188e-06 0.000668432 -1.12505e-05
3.5319e-06 -1.12505e-05 0.000562873
0.000870533 -1.22694e-05 -2.95883e-06
-1.22694e-05 0.000152418 1.17115e-06
-2.95883e-06 1.17115e-06 6.62372e-05
0.00068742 2.41549e-06 -1.58766e-05
2.41549e-06 8.17601e-05 7.59978e-06
-1.58766e-05 7.59978e-06 5.13631e-05
0.000716246 4.73881e-05 1.52356e-06
4.73881e-05 -4.7134e-05 2.41249e-06
1.52356e-06 2.41249e-06 0.000116733
-0.00152144 0.000134185 2.89692e-05
0.000134185 -0.00109932 -4.57623e-05
2.89692e-05 -4.57623e-05 -0.00113212
0.00800872 0.000101647 -9.14194e-06
0.000101647 0.002157 -4.55137e-06
-9.14194e-06 -4.55137e-06 0.00176218
-0.000617436 -2.90552e-05 -1.9687e-05
-2.90552e-05 -0.000231658 6.5748e-05
-1.9687e-05 6.5748e-05 -0.000855608
0.00102047 1.71986e-05 1.21895e-06
1.71986e-05 5.13925e-05 -2.2979e-06
1.21895e-06 -2.2979e-06 -4.63976e-05
0.000942826 1.23992e-05 1.09236e-06
1.23992e-05 6.98366e-05 -1.66904e-06
1.09236e-06 -1.66904e-06 -5.89714e-05
0.00100992 1.49327e-06 7.33817e-07
1.49327e-06 0.000132647 1.05718e-06
7.33817e-07 1.05718e-06 -8.68448e-06
0.00108899 -1.68403e-05 1.24827e-07
-1.68403e-05 7.12899e-05 -5.16755e-07
1.24827e-07 -5.16755e-07 -2.41305e-05
0.00100268 6.87623e-06 -3.95533e-07
6.87623e-06 5.81436e-05 1.07168e-06
-3.95533e-07 1.07168e-06 -4.24615e-05
0.00106616 -1.53202e-05 -1.95603e-07
-1.53202e-05 9.73595e-05 4.20263e-07
-1.95603e-07 4.20263e-07 -1.12627e-05
0.000907493 -2.87976e-05 6.26903e-07
-2.87976e-05 4.90247e-05 -4.6332e-07
6.26903e-07 -4.6332e-07 -8.20523e-05
0.0012097 -2.92942e-05 4.6114e-07
-2.92942e-05 0.000134025 -2.99557e-07
4.6114e-07 -2.99557e-07 3.9428e-05
0.00120808 -3.48477e-05 -3.89404e-07
-3.48477e-05 0.000148689 4.64253e-07
-3.89404e-07 4.64253e-07 4.35673e-05
0.00128742 -4.18657e-05 -4.41713e-07
-4.18657e-05 0.000177371 1.67142e-06
-4.41713e-07 1.67142e-06 6.7168e-05
0.000957334 -3.01664e-05 5.81542e-07
-3.01664e-05 8.00993e-06 -1.49463e-06
5.81542e-07 -1.49463e-06 -8.19394e-05
0.00125521 -3.75093e-05 -1.69637e-07
-3.75093e-05 0.000134885 -7.57847e-08
-1.69637e-07 -7.57847e-08 4.05747e-05
0.00147901 -4.21597e-05 -1.55548e-06
-4.21597e-05 0.000226103 8.83983e-07
-1.55548e-06 8.83983e-07 0.000133881
0.00135615 -3.68058e-05 -1.0812e-06
-3.68058e-05 0.000160588 1.13277e-06
-1.0812e-06 1.13277e-06 7.94069e-05
0.000981943 -2.87243e-05 -4.56804e-07
-2.87243e-05 -5.37704e-06 1.20937e-06
-4.56804e-07 1.20937e-06 -7.62153e-05
0.00113981 -3.37638e-05 -1.15624e-07
-3.37638e-05 6.25454e-05 1.90471e-07
-1.15624e-07 1.90471e-07 -1.7429e-05
0.00116312 -3.40833e-05 2.96162e-07
-3.40833e-05 7.83388e-05 -7.92339e-07
2.96162e-07 -7.92339e-07 -4.2823e-06
0.00123383 -2.76388e-05 4.38927e-08
-2.76388e-05 0.000124017 -1.12728e-08
4.38927e-08 -1.12728e-08 6.07742e-05
0.00114175 -2.8709e-05 6.29364e-07
-2.8709e-05 7.97478e-05 -5.24325e-07
6.29364e-07 -5.24325e-07 1.30689e-05
0.000976997 -1.23657e-05 -4.69675e-07
-1.23657e-05 8.24675e-06 5.47793e-07
-4.69675e-07 5.47793e-07 -5.20037e-05
0.00109209 -2.38353e-05 1.40137e-07
-2.38353e-05 6.46523e-05 -1.04607e-07
1.40137e-07 -1.04607e-07 -2.01469e-07
0.0011197 -2.92937e-05 1.91159e-06
-2.92937e-05 6.77077e-05 -1.04742e-06
1.91159e-06 -1.04742e-06 -1.61875e-06
0.00105215 -2.69374e-06 -1.44725e-06
-2.69374e-06 3.34955e-05 8.28607e-07
-1.44725e-06 8.28607e-07 -1.67126e-05
0.00111029 -1.74549e-05 -2.48249e-07
-1.74549e-05 6.38452e-05 -4.41851e-08
-2.48249e-07 -4.41851e-08 4.16844e-06
0.00115529 -2.65274e-05 3.25709e-07
-2.65274e-05 8.64682e-05 -8.88061e-08
3.25709e-07 -8.88061e-08 2.10925e-05
0.00100293 6.57791e-06 -1.90668e-06
6.57791e-06 6.54033e-06 1.82416e-06
-1.90668e-06 1.82416e-06 -2.64208e-05
0.00106427 -6.46955e-06 7.76992e-08
-6.46955e-06 3.60751e-05 6.80922e-08
7.76992e-08 6.80922e-08 -1.52978e-05
0.0010296 -2.02255e-05 1.14457e-06
-2.02255e-05 2.17279e-05 -1.6471e-07
1.14457e-06 -1.6471e-07 -4.0818e-05
0.00105577 -6.47437e-06 1.20165e-06
-6.47437e-06 3.33617e-05 -1.0266e-06
1.20165e-06 -1.0266e-06 -1.96243e-05
0.00100265 5.56875e-06 1.10828e-07
5.56875e-06 5.51756e-06 2.89101e-08
1.10828e-07 2.89101e-08 -2.78978e-05
0.000919555 1.06313e-05 -2.37095e-06
1.06313e-05 -3.78764e-05 3.15183e-06
-2.37095e-06 3.15183e-06 -4.20049e-05
0.00100537 4.70716e-06 1.38881e-06
4.70716e-06 5.98147e-06 -1.9203e-06
1.38881e-06 -1.9203e-06 -2.7351e-05
0.000934953 9.35918e-06 8.31681e-08
9.35918e-06 -3.36212e-05 1.77082e-08
8.31681e-08 1.77082e-08 -3.73453e-05
0.00246608 1.39948e-05 -7.55131e-06
1.39948e-05 0.00071737 3.96224e-06
-7.55131e-06 3.96224e-06 0.000738124
0.000951637 7.98137e-06 1.87881e-06
7.98137e-06 -2.89917e-05 -3.20655e-06
1.87881e-06 -3.20655e-06 -3.2198e-05
0.00178125 1.09832e-05 2.67297e-06
1.09832e-05 0.000376794 -1.21126e-06
2.67297e-06 -1.21126e-06 0.000395296
0.00242436 9.45524e-06 6.02559e-06
9.45524e-06 0.000690398 -4.07507e-06
6.02559e-06 -4.07507e-06 0.000712385
0.00104248 8.17692e-06 -8.03886e-07
8.17692e-06 2.64888e-05 -1.10306e-06
-8.03886e-07 -1.10306e-06 -2.52734e-05
0.00100428 -6.07448e-06 -9.50111e-07
-6.07448e-06 4.05398e-06 -1.86222e-06
-9.50111e-07 -1.86222e-06 -2.6794e-05
0.000952691 3.6475e-06 -3.52078e-07
3.6475e-06 -1.56316e-05 -5.02112e-07
-3.52078e-07 -5.02112e-07 -6.69966e-05
0.000969052 -6.93627e-06 -1.38026e-06
-6.93627e-06 -2.37966e-05 -3.14607e-06
-1.38026e-06 -3.14607e-06 -2.43228e-05
0.00088264 -5.06345e-06 -1.6904e-07
-5.06345e-06 -5.78373e-05 -5.97463e-07
-1.6904e-07 -5.97463e-07 -8.75475e-05
0.00114782 -3.38318e-06 1.78749e-07
-3.38318e-06 7.91072e-05 6.6437e-07
1.78749e-07 6.6437e-07 3.11342e-05
0.00230107 -7.16664e-06 -4.67347e-06
-7.16664e-06 0.000626498 -3.97915e-06
-4.67347e-06 -3.97915e-06 0.000650225
0.000957819 -5.26792e-06 -7.3158e-08
-5.26792e-06 -3.23235e-05 -5.74911e-09
-7.3158e-08 -5.74911e-09 -3.13242e-05
0.000749836 -3.83415e-06 3.59459e-07
-3.83415e-06 -0.000125186 1.24474e-06
3.59459e-07 1.24474e-06 -0.000153717
0.0022876 -4.6872e-06 -4.86814e-07
-4.6872e-06 0.000617336 1.35587e-08
-4.86814e-07 1.35587e-08 0.000641729
0.000951368 -3.45088e-06 6.10322e-07
-3.45088e-06 -3.76406e-05 3.19601e-06
6.10322e-07 3.19601e-06 -3.55564e-05
0.00228297 -2.23182e-06 1.19414e-06
-2.23182e-06 0.000613747 4.00353e-06
1.19414e-06 4.00353e-06 0.000638461
0.000853709 -3.27306e-06 3.78282e-07
-3.27306e-06 0.000115497 -1.76317e-06
3.78282e-07 -1.76317e-06 4.44448e-05
0.000921543 -1.54187e-05 4.68156e-07
-1.54187e-05 0.000203118 -1.37874e-07
4.68156e-07 -1.37874e-07 0.000124364
0.000761121 -4.84932e-06 -9.40182e-06
-4.84932e-06 0.00019733 2.83583e-06
-9.40182e-06 2.83583e-06 0.00013602
0.00101539 1.99949e-05 -6.23693e-07
1.99949e-05 1.22542e-05 -4.41573e-07
-6.23693e-07 -4.41573e-07 -5.22538e-05
0.00117723 2.53275e-05 -2.24556e-07
2.53275e-05 9.05346e-05 1.09962e-07
-2.24556e-07 1.09962e-07 2.28146e-05
0.00117268 2.19835e-05 4.19381e-07
2.19835e-05 9.65797e-05 8.69596e-07
4.19381e-07 8.69596e-07 3.22729e-05
0.000997707 2.05254e-05 2.44091e-08
2.05254e-05 5.98276e-06 3.30192e-08
2.44091e-08 3.30192e-08 -5.9883e-05
0.00113631 2.09004e-05 1.87588e-07
2.09004e-05 8.04425e-05 3.41668e-07
1.87588e-07 3.41668e-07 6.75732e-06
0.00115964 2.55322e-05 -3.62342e-07
2.55322e-05 8.66393e-05 -1.06307e-07
-3.62342e-07 -1.06307e-07 1.39331e-05
0.00115157 2.55381e-05 -6.54924e-09
2.55381e-05 8.73578e-05 2.99025e-07
-6.54924e-09 2.99025e-07 9.10066e-06
0.000904002 1.27225e-05 -6.09002e-06
1.27225e-05 0.000173418 -4.06625e-06
-6.09002e-06 -4.06625e-06 0.000125495
0.000756169 -1.9562e-06 5.51465e-07
-1.9562e-06 5.00814e-05 4.90445e-07
5.51465e-07 4.90445e-07 -3.60734e-07
0.00116058 -1.89147e-05 -2.42295e-06
-1.89147e-05 0.0003336 -1.19125e-06
-2.42295e-06 -1.19125e-06 0.000287495
0.000820062 5.51961e-06 3.72999e-07
5.51961e-06 0.000142507 -4.06038e-06
3.72999e-07 -4.06038e-06 8.43448e-05
0.0025485 -7.37112e-05 -5.92808e-05
-7.37112e-05 0.000759316 6.05125e-05
-5.92808e-05 6.05125e-05 0.000361834
0.000673985 8.43086e-05 3.67421e-05
8.43086e-05 -0.000735717 -5.11912e-05
3.67421e-05 -5.11912e-05 -0.00127107
0.00510973 0.000135953 2.83027e-06
0.000135953 0.00119781 -2.60113e-05
2.83027e-06 -2.60113e-05 0.00132054
0.00130259 -8.88548e-05 -3.19279e-05
-8.88548e-05 0.000224219 2.9947e-05
-3.19279e-05 2.9947e-05 -1.18215e-06
0.00414992 3.33005e-05 1.16689e-05
3.33005e-05 7.57081e-05 -4.15249e-05
1.16689e-05 -4.15249e-05 -0.000356237
0.00352666 1.49221e-05 -6.51074e-06
1.49221e-05 0.00012172 -8.34237e-07
-6.51074e-06 -8.34237e-07 0.00041419
0.000730931 -4.68601e-08 3.42655e-06
-4.68601e-08 8.99189e-06 3.13968e-06
3.42655e-06 3.13968e-06 1.56508e-05
0.000730089 -6.40291e-05 1.54295e-05
-6.40291e-05 0.000126123 -1.26779e-05
1.54295e-05 -1.26779e-05 5.91209e-06
0.00390717 -5.48476e-05 -1.20626e-05
-5.48476e-05 -2.97233e-05 -0.000107165
-1.20626e-05 -0.000107165 -0.000571007
0.000467215 -7.96178e-05 5.55107e-06
-7.96178e-05 -0.000687817 4.08587e-05
5.55107e-06 4.08587e-05 -0.000561011
-0.000867383 -2.00432e-05 -5.56895e-06
-2.00432e-05 -0.000919279 7.54388e-07
-5.56895e-06 7.54388e-07 -0.000864637
0.00112478 2.62809e-05 -2.44977e-06
2.62809e-05 7.83363e-05 -3.71682e-08
-2.44977e-06 -3.71682e-08 -6.62503e-06
0.00116655 1.61982e-05 -1.76198e-08
1.61982e-05 9.71923e-05 -9.37677e-08
-1.76198e-08 -9.37677e-08 1.46804e-05
0.00108591 -6.62261e-07 2.9629e-08
-6.62261e-07 5.96787e-05 7.97568e-08
2.9629e-08 7.97568e-08 -2.06477e-05
0.00111995 1.54148e-05 -6.57142e-08
1.54148e-05 7.47826e-05 -1.56749e-07
-6.57142e-08 -1.56749e-07 1.39725e-06
0.000272162 -3.76455e-05 1.18908e-05
-3.76455e-05 -0.000499968 -1.22891e-05
1.18908e-05 -1.22891e-05 -0.000565333
0.00117966 5.36519e-06 4.94199e-07
5.36519e-06 0.000198531 1.61871e-06
4.94199e-07 1.61871e-06 4.22239e-05
0.00115919 1.81174e-05 6.44752e-07
1.81174e-05 9.97436e-05 9.47013e-07
6.44752e-07 9.47013e-07 9.2119e-06
0.00107011 1.08938e-05 -2.07595e-07
1.08938e-05 5.25342e-05 6.45659e-07
-2.07595e-07 6.45659e-07 -4.45979e-05
0.00105005 -7.13345e-06 1.14337e-07
-7.13345e-06 4.06878e-05 6.34168e-07
1.14337e-07 6.34168e-07 -6.51593e-05
0.0010917 1.80632e-05 -6.44612e-07
1.80632e-05 6.67939e-05 -1.42876e-07
-6.44612e-07 -1.42876e-07 -3.0648e-05
0.00111692 1.05522e-06 -9.27224e-08
1.05522e-06 7.88805e-05 -1.53059e-07
-9.27224e-08 -1.53059e-07 -2.40844e-05
0.000867086 -1.13285e-05 9.00996e-06
-1.13285e-05 0.000136442 -2.9437e-06
9.00996e-06 -2.9437e-06 1.86102e-05
0.00102483 -8.69707e-07 4.60706e-07
-8.69707e-07 4.00956e-05 -7.96033e-07
4.60706e-07 -7.96033e-07 -7.31687e-05
0.00115916 1.35867e-05 -5.94373e-07
1.35867e-05 0.000107431 -5.62967e-07
-5.94373e-07 -5.62967e-07 6.3852e-07
0.000686623 1.55334e-05 9.67528e-06
1.55334e-05 0.000256787 2.01226e-05
9.67528e-06 2.01226e-05 0.000172501
0.00130027 -6.17981e-06 7.29896e-07
-6.17981e-06 0.000173959 -2.81059e-06
7.29896e-07 -2.81059e-06 4.01083e-05
0.00130222 1.72004e-06 -1.39961e-06
1.72004e-06 0.000443546 2.5131e-08
-1.39961e-06 2.5131e-08 0.000343488
0.000861254 -8.65605e-07 4.04931e-07
-8.65605e-07 0.000111801 -1.36441e-07
4.04931e-07 -1.36441e-07 2.68056e-05
0.000396708 -1.64023e-06 -6.79737e-08
-1.64023e-06 -0.000134556 5.34437e-07
-6.79737e-08 5.34437e-07 -0.000226794
0.00190504 -6.45582e-06 -3.9509e-06
-6.45582e-06 0.000443901 8.52894e-06
-3.9509e-06 8.52894e-06 0.000382469
-0.000847278 6.33546e-06 4.41364e-06
6.33546e-06 -0.000453489 1.57252e-05
4.41364e-06 1.57252e-05 -0.000492789
0.000755118 -6.10901e-06 5.36168e-07
-6.10901e-06 3.42993e-05 4.33306e-07
5.36168e-07 4.33306e-07 -4.47637e-05
0.00362466 6.99932e-05 -1.48788e-06
6.99932e-05 0.00051974 -6.24192e-05
-1.48788e-06 -6.24192e-05 -0.000353745
0.00563246 0.000141871 -4.88681e-06
0.000141871 0.00150695 2.44919e-05
-4.88681e-06 2.44919e-05 0.00171754
0.00122481 -1.83465e-05 1.91408e-06
-1.83465e-05 0.000331309 -1.94687e-06
1.91408e-06 -1.94687e-06 0.000282334
0.00240675 2.06481e-05 6.5713e-06
2.06481e-05 0.0010295 -5.86372e-06
6.5713e-06 -5.86372e-06 0.00113416
0.000973489 -2.32775e-06 -5.35235e-06
-2.32775e-06 0.000214566 -9.8775e-07
-5.35235e-06 -9.8775e-07 0.000133615
0.000965787 -1.19119e-05 -1.39347e-06
-1.19119e-05 0.000212167 1.89238e-07
-1.39347e-06 1.89238e-07 0.000126337
0.000907133 1.29092e-06 -3.84583e-06
1.29092e-06 0.000216423 6.28528e-07
-3.84583e-06 6.28528e-07 0.000188499
0.000380669 -1.31948e-05 2.62863e-06
-1.31948e-05 0.000273808 1.09913e-05
2.62863e-06 1.09913e-05 3.38769e-05
0.000282959 5.07688e-05 -4.64596e-08
5.07688e-05 -0.000280282 -3.48482e-06
-4.64596e-08 -3.48482e-06 -0.000125438
-0.000286439 0.000141682 4.24124e-06
0.000141682 -0.000730729 -1.09094e-05
4.24124e-06 -1.09094e-05 -0.000769204
0.00174992 3.93532e-05 1.07401e-05
3.93532e-05 -0.000398338 -2.43556e-05
1.07401e-05 -2.43556e-05 -0.00099563
0.000402698 -6.47493e-06 4.07006e-06
-6.47493e-06 5.55785e-06 -2.05607e-05
4.07006e-06 -2.05607e-05 -8.23615e-05
0.00100238 -2.6547e-06 -9.49798e-06
-2.6547e-06 0.000336633 2.33916e-06
-9.49798e-06 2.33916e-06 0.00026812
-0.00116274 2.47551e-05 5.8304e-07
2.47551e-05 -0.00100866 1.80671e-06
5.8304e-07 1.80671e-06 -0.000980535
3.2377e-05 0.00010167 4.09677e-05
0.00010167 -9.27757e-05 -3.29832e-05
4.09677e-05 -3.29832e-05 -4.12134e-05
0.00598014 0.000133393 1.66019e-05
0.000133393 0.00155988 -3.91314e-05
1.66019e-05 -3.91314e-05 0.00100132
0.0015851 -7.59055e-05 -3.58136e-05
-7.59055e-05 0.000206236 8.96886e-05
-3.58136e-05 8.96886e-05 -0.00028098
0.00120569 1.35283e-05 -2.6653e-07
1.35283e-05 0.000193589 -3.29961e-06
-2.6653e-07 -3.29961e-06 6.36111e-05
0.00107196 1.5254e-06 -9.23035e-08
1.5254e-06 0.000157563 -4.39151e-07
-9.23035e-08 -4.39151e-07 1.81665e-05
0.000793536 -2.35871e-05 1.01939e-06
-2.35871e-05 6.58436e-05 3.2798e-06
1.01939e-06 3.2798e-06 -0.000122934
0.00106135 -1.56897e-05 -3.6672e-07
-1.56897e-05 9.49982e-05 4.07615e-08
-3.6672e-07 4.07615e-08 -1.29765e-05
0.000885186 -2.86356e-05 1.66013e-07
-2.86356e-05 3.71602e-05 -1.20321e-07
1.66013e-07 -1.20321e-07 -9.0538e-05
0.00121525 -4.97411e-05 1.23708e-06
-4.97411e-05 0.000170868 5.41842e-07
1.23708e-06 5.41842e-07 3.15825e-05
0.00146263 -3.84876e-05 -1.22827e-07
-3.84876e-05 0.000269223 -5.96534e-07
-1.22827e-07 -5.96534e-07 0.000162468
0.00131558 -4.24732e-05 -3.80459e-07
-4.24732e-05 0.000189164 6.40649e-07
-3.80459e-07 6.40649e-07 7.71614e-05
0.00131492 -4.7109e-05 -2.00495e-06
-4.7109e-05 0.000149932 -4.16516e-07
-2.00495e-06 -4.16516e-07 4.50316e-05
0.00131699 -3.80118e-05 3.7839e-07
-3.80118e-05 0.000164547 -1.09427e-06
3.7839e-07 -1.09427e-06 6.99613e-05
0.00139228 -4.12882e-05 -3.4876e-07
-4.12882e-05 0.000182218 -2.21708e-08
-3.4876e-07 -2.21708e-08 8.94585e-05
0.00133206 -3.96184e-05 -7.1513e-07
-3.96184e-05 0.000143486 -2.54824e-07
-7.1513e-07 -2.54824e-07 5.65752e-05
0.00126614 -3.41491e-05 -9.58193e-07
-3.41491e-05 9.56405e-05 -5.37283e-07
-9.58193e-07 -5.37283e-07 1.96189e-05
0.00136329 -3.42115e-05 -1.09909e-06
-3.42115e-05 0.000163269 1.4656e-06
-1.09909e-06 1.4656e-06 8.94926e-05
0.00127712 -3.59975e-05 -1.29695e-07
-3.59975e-05 0.000122813 1.22726e-08
-1.29695e-07 1.22726e-08 4.11073e-05
0.000955643 -2.66216e-05 -2.47862e-07
-2.66216e-05 -1.55221e-05 3.41967e-07
-2.47862e-07 3.41967e-07 -8.02492e-05
0.00107683 -2.96403e-05 4.2016e-07
-2.96403e-05 4.05931e-05 -1.11002e-07
4.2016e-07 -1.11002e-07 -2.96627e-05
0.00108121 -3.33146e-05 6.96471e-07
-3.33146e-05 3.465e-05 -1.02941e-06
6.96471e-07 -1.02941e-06 -4.63932e-05
0.0011248 -1.91728e-05 -2.62467e-07
-1.91728e-05 7.32802e-05 3.36679e-07
-2.62467e-07 3.36679e-07 1.32618e-05
0.00115746 -2.67974e-05 7.63083e-08
-2.67974e-05 8.77972e-05 -1.59184e-07
7.63083e-08 -1.59184e-07 2.41855e-05
0.00102997 -2.73348e-05 1.14764e-06
-2.73348e-05 2.66399e-05 -8.52217e-07
1.14764e-06 -8.52217e-07 -3.91468e-05
0.00102839 2.2492e-06 -9.94103e-07
2.2492e-06 2.86752e-05 9.05758e-07
-9.94103e-07 9.05758e-07 -2.22037e-05
0.0010191 -1.1804e-05 -1.42166e-07
-1.1804e-05 2.80458e-05 1.29286e-07
-1.42166e-07 1.29286e-07 -3.18489e-05
0.00116895 -2.44578e-05 5.55175e-07
-2.44578e-05 0.000101191 -3.7004e-07
5.55175e-07 -3.7004e-07 3.69789e-05
0.000986355 9.41313e-06 -2.10719e-06
9.41313e-06 1.65639e-06 1.6807e-06
-2.10719e-06 1.6807e-06 -3.08806e-05
0.00106052 -3.00862e-06 -1.56617e-07
-3.00862e-06 3.68504e-05 -2.8363e-08
-1.56617e-07 -2.8363e-08 -1.32352e-05
0.00111711 -1.77525e-05 5.15056e-07
-1.77525e-05 6.63133e-05 -2.54237e-07
5.15056e-07 -2.54237e-07 6.75633e-06
0.000951849 1.1942e-05 -3.68832e-06
1.1942e-05 -1.93597e-05 4.21775e-06
-3.68832e-06 4.21775e-06 -2.38815e-05
0.000998248 7.15788e-06 8.07472e-08
7.15788e-06 4.42454e-06 4.46932e-08
8.07472e-08 4.46932e-08 -2.8503e-05
0.00106071 -6.25636e-06 1.43052e-06
-6.25636e-06 3.38916e-05 -8.21517e-07
1.43052e-06 -8.21517e-07 -1.73257e-05
0.000997835 6.12718e-06 1.71506e-06
6.12718e-06 3.26553e-06 -1.84808e-06
1.71506e-06 -1.84808e-06 -3.01252e-05
0.000925815 1.06662e-05 1.0923e-07
1.06662e-05 -3.48224e-05 3.01312e-08
1.0923e-07 3.01312e-08 -3.89707e-05
0.00247971 1.62309e-05 -8.3666e-06
1.62309e-05 0.000727953 3.87115e-06
-8.3666e-06 3.87115e-06 0.000748036
0.000943196 9.38015e-06 2.21383e-06
9.38015e-06 -2.96929e-05 -3.16673e-06
2.21383e-06 -3.16673e-06 -3.3444e-05
0.00245024 1.40159e-05 2.59255e-07
1.40159e-05 0.000709983 3.38313e-08
2.59255e-07 3.38313e-08 0.000730752
0.00243031 1.17785e-05 7.05023e-06
1.17785e-05 0.000696835 -4.00828e-06
7.05023e-06 -4.00828e-06 0.00071823
0.00109524 1.94869e-05 -6.46958e-07
1.94869e-05 5.11936e-05 -3.22447e-07
-6.46958e-07 -3.22447e-07 -1.21242e-05
0.00105733 6.22263e-06 -9.06577e-07
6.22263e-06 3.18883e-05 -1.06473e-06
-9.06577e-07 -1.06473e-06 -2.05488e-05
0.000991727 -6.52982e-06 -1.26993e-06
-6.52982e-06 -3.1538e-07 -1.86267e-06
-1.26993e-06 -1.86267e-06 -3.28355e-05
0.00105691 8.39983e-06 -4.37052e-08
8.39983e-06 3.34836e-05 8.29963e-09
-4.37052e-08 8.29963e-09 -1.8378e-05
0.000961227 -8.37815e-06 -1.73588e-06
-8.37815e-06 -2.39175e-05 -3.15414e-06
-1.73588e-06 -3.15414e-06 -2.60902e-05
0.00100754 -6.04932e-06 -8.19318e-08
-6.04932e-06 5.74892e-06 3.13797e-09
-8.19318e-08 3.13797e-09 -2.51011e-05
0.00105544 8.54636e-06 2.07954e-07
8.54636e-06 3.48859e-05 7.42534e-07
2.07954e-07 7.42534e-07 -1.60035e-05
0.00233765 -9.54243e-06 -5.82968e-06
-9.54243e-06 0.000647675 -3.98343e-06
-5.82968e-06 -3.98343e-06 0.000670503
0.000952523 -6.93759e-06 -8.21402e-08
-6.93759e-06 -3.1796e-05 -1.15682e-08
-8.21402e-08 -1.15682e-08 -3.2221e-05
0.00101366 -5.24761e-06 5.00857e-07
-5.24761e-06 6.30347e-06 1.24523e-06
5.00857e-07 1.24523e-06 -2.26891e-05
0.00230893 -7.11244e-06 -4.21095e-07
-7.11244e-06 0.000629978 1.97604e-08
-4.21095e-07 1.97604e-08 0.000653777
0.000944237 -5.26062e-06 9.11141e-07
-5.26062e-06 -3.89514e-05 3.17183e-06
9.11141e-07 3.17183e-06 -3.78602e-05
0.00229529 -4.62293e-06 2.75977e-06
-4.62293e-06 0.000620863 3.98101e-06
2.75977e-06 3.98101e-06 0.00064529
0.000803657 7.07083e-06 -5.9975e-07
7.07083e-06 0.000129559 -2.94531e-06
-5.9975e-07 -2.94531e-06 4.05213e-05
0.000845418 -4.40984e-06 -1.08481e-08
-4.40984e-06 0.000110064 -1.92126e-06
-1.08481e-08 -1.92126e-06 3.60065e-05
0.00100991 -1.53374e-05 -7.2902e-07
-1.53374e-05 0.000258519 1.36571e-06
-7.2902e-07 1.36571e-06 0.000180102
0.0010583 1.99425e-05 7.44183e-08
1.99425e-05 3.39223e-05 3.75864e-08
7.44183e-08 3.75864e-08 -3.03514e-05
0.00113086 2.47343e-05 2.4135e-07
2.47343e-05 6.7712e-05 1.33178e-07
2.4135e-07 1.33178e-07 -3.38989e-07
0.00107339 2.08451e-05 -5.08681e-07
2.08451e-05 4.00212e-05 -2.33447e-07
-5.08681e-07 -2.33447e-07 -2.71027e-05
0.00106685 2.43975e-05 -7.27685e-07
2.43975e-05 3.7038e-05 -2.60286e-07
-7.27685e-07 -2.60286e-07 -3.27226e-05
0.00118286 2.60262e-05 2.99299e-10
2.60262e-05 9.2226e-05 1.92557e-07
2.99299e-10 1.92557e-07 2.18181e-05
0.000993363 2.02982e-05 7.18857e-07
2.02982e-05 4.31727e-06 6.23397e-07
7.18857e-07 6.23397e-07 -6.15253e-05
0.00107532 2.17471e-05 4.26325e-07
2.17471e-05 5.04979e-05 6.02009e-07
4.26325e-07 6.02009e-07 -2.39632e-05
0.00115331 2.54909e-05 7.07582e-09
2.54909e-05 8.33218e-05 7.37932e-09
7.07582e-09 7.37932e-09 1.06929e-05
0.00111838 2.47138e-05 3.15304e-07
2.47138e-05 7.07205e-05 2.85545e-07
3.15304e-07 2.85545e-07 -7.02633e-06
0.00120522 2.66587e-05 -3.04373e-07
2.66587e-05 0.000110374 2.86063e-07
-3.04373e-07 2.86063e-07 3.39259e-05
0.000547156 -9.452e-06 -8.66712e-06
-9.452e-06 4.10701e-05 -1.34249e-05
-8.66712e-06 -1.34249e-05 -3.96666e-07
0.000709331 1.19721e-05 -2.10423e-06
1.19721e-05 5.07256e-05 -8.76939e-07
-2.10423e-06 -8.76939e-07 1.0849e-06
0.000706807 -2.54095e-06 -7.18506e-07
-2.54095e-06 2.37223e-05 -2.20769e-06
-7.18506e-07 -2.20769e-06 -3.05912e-05
0.000166083 3.26399e-06 1.23067e-05
3.26399e-06 -0.00032344 3.59198e-06
1.23067e-05 3.59198e-06 -0.000335387
0.000988388 1.29599e-05 -1.95457e-06
1.29599e-05 -0.000781627 -4.64912e-05
-1.95457e-06 -4.64912e-05 -0.000552314
0.000808928 -9.90006e-05 -4.10516e-05
-9.90006e-05 -0.000141569 0.000105268
-4.10516e-05 0.000105268 -0.000482912
0.00618751 9.22551e-05 1.98661e-06
9.22551e-05 0.00116517 -3.0545e-05
1.98661e-06 -3.0545e-05 0.000830909
0.000664469 -8.1887e-05 -1.09425e-05
-8.1887e-05 -7.58613e-05 1.9679e-05
-1.09425e-05 1.9679e-05 -0.000410226
0.00656865 -1.30868e-06 -1.1063e-05
-1.30868e-06 0.000737318 3.85221e-06
-1.1063e-05 3.85221e-06 0.000943719
0.00216699 -0.000120754 2.33954e-06
-0.000120754 0.000130804 -1.26859e-05
2.33954e-06 -1.26859e-05 0.000104994
-0.000654391 -2.3639e-05 -2.75074e-07
-2.3639e-05 -0.000821775 6.41992e-06
-2.75074e-07 6.41992e-06 -0.000736482
0.000598347 -3.07076e-05 6.5024e-06
-3.07076e-05 9.94898e-05 -4.72837e-05
6.5024e-06 -4.72837e-05 -0.000338931
0.00643516 -0.000119726 -2.411e-06
-0.000119726 0.00144605 3.54475e-05
-2.411e-06 3.54475e-05 0.000997257
0.00317603 -0.000163956 8.83636e-06
-0.000163956 0.000871294 2.31107e-05
8.83636e-06 2.31107e-05 0.000826912
0.00125915 -5.38392e-05 -1.19524e-06
-5.38392e-05 0.000289486 -4.26795e-07
-1.19524e-06 -4.26795e-07 0.000435007
0.00109142 3.03296e-05 -1.00857e-06
3.03296e-05 6.94665e-05 6.65472e-07
-1.00857e-06 6.65472e-07 -9.43177e-06
0.00116587 2.65816e-05 -4.77204e-07
2.65816e-05 9.85483e-05 1.25552e-08
-4.77204e-07 1.25552e-08 1.47105e-05
0.00121521 1.34995e-05 3.35117e-07
1.34995e-05 0.0001212 -2.57647e-08
3.35117e-07 -2.57647e-08 3.8368e-05
-0.000605372 -2.35842e-07 -3.0062e-06
-2.35842e-07 -0.000495306 -1.54677e-05
-3.0062e-06 -1.54677e-05 -0.000595185
0.00113618 -7.31508e-06 -2.06044e-08
-7.31508e-06 9.71534e-05 2.637e-06
-2.06044e-08 2.637e-06 -1.59723e-05
0.00119936 1.96805e-05 8.09977e-07
1.96805e-05 0.000121028 6.92236e-07
8.09977e-07 6.92236e-07 2.47949e-05
0.00113638 2.05273e-06 3.48467e-07
2.05273e-06 8.62118e-05 3.00463e-07
3.48467e-07 3.00463e-07 -1.66574e-05
0.00117371 1.32064e-05 7.54484e-07
1.32064e-05 0.000118342 5.14094e-08
7.54484e-07 5.14094e-08 1.13604e-05
0.00108625 -2.42303e-06 -3.05692e-07
-2.42303e-06 7.90686e-05 -9.18004e-07
-3.05692e-07 -9.18004e-07 -5.72136e-05
0.000396992 3.8408e-06 -6.17631e-06
3.8408e-06 0.000124274 8.82523e-06
-6.17631e-06 8.82523e-06 3.64193e-05
0.000969184 2.62968e-05 -3.26109e-06
2.62968e-05 3.19873e-05 -4.66254e-07
-3.26109e-06 -4.66254e-07 -8.94273e-05
0.000620878 1.72025e-05 -3.65799e-06
1.72025e-05 0.000164857 2.21115e-05
-3.65799e-06 2.21115e-05 6.38866e-05
0.0019178 -1.66247e-06 -1.15623e-05
-1.66247e-06 0.000927812 5.46027e-09
-1.15623e-05 5.46027e-09 0.00085061
0.000798208 1.70673e-06 -9.4675e-07
1.70673e-06 0.000125981 -4.77954e-07
-9.4675e-07 -4.77954e-07 2.60641e-05
0.000641325 -2.29051e-06 9.08938e-08
-2.29051e-06 -2.5747e-05 -2.55173e-07
9.08938e-08 -2.55173e-07 -0.00010969
-0.000190577 9.70929e-06 6.94132e-06
9.70929e-06 -0.000370038 1.70209e-05
6.94132e-06 1.70209e-05 -0.000424944
0.00130135 2.57469e-05 3.47077e-06
2.57469e-05 0.000590649 -3.44973e-05
3.47077e-06 -3.44973e-05 -0.000143559
0.00106644 -1.1563e-05 1.37358e-07
-1.1563e-05 0.000275361 -8.77601e-07
1.37358e-07 -8.77601e-07 0.000189827
0.00750923 9.50657e-05 1.48117e-05
9.50657e-05 0.00197247 -2.61356e-05
1.48117e-05 -2.61356e-05 0.00113596
0.00295716 0.000177318 -1.73042e-05
0.000177318 0.000995964 2.33744e-05
-1.73042e-05 2.33744e-05 0.000856392
0.00106965 1.81237e-07 7.70449e-06
1.81237e-07 0.000315757 -9.50828e-06
7.70449e-06 -9.50828e-06 0.000290727
8.79299e-06 5.36582e-05 -3.84584e-06
5.36582e-05 -0.000407382 1.19608e-06
-3.84584e-06 1.19608e-06 -0.000267889
0.000701021 6.52185e-07 2.30366e-06
6.52185e-07 0.000155204 7.86481e-08
2.30366e-06 7.86481e-08 6.04293e-05
0.000879671 -2.81154e-06 5.55004e-07
-2.81154e-06 0.00025761 -4.07286e-07
5.55004e-07 -4.07286e-07 0.000190192
-0.0013455 2.86202e-05 7.98358e-06
2.86202e-05 -0.00113332 -1.76128e-06
7.98358e-06 -1.76128e-06 -0.00108972
0.000493096 -4.31798e-05 -2.30276e-06
-4.31798e-05 1.96286e-05 3.47753e-05
-2.30276e-06 3.47753e-05 -0.00038454
0.00215794 0.000143631 -1.2424e-06
0.000143631 0.000670879 -4.5278e-06
-1.2424e-06 -4.5278e-06 0.000600659
0.00554769 6.79094e-05 1.3232e-05
6.79094e-05 0.00117983 -1.29566e-05
1.3232e-05 -1.29566e-05 0.000330764
0.000107234 -1.00235e-05 8.31417e-06
-1.00235e-05 -0.000256095 -1.10541e-05
8.31417e-06 -1.10541e-05 -0.000345422
-0.001232 9.09499e-06 -9.10688e-06
9.09499e-06 -0.000989356 1.59042e-06
-9.10688e-06 1.59042e-06 -0.00100445
0.00222679 9.25535e-05 2.19547e-05
9.25535e-05 0.000875089 -1.25098e-05
2.19547e-05 -1.25098e-05 0.000790351
0.00280489 6.17839e-05 -4.36617e-05
6.17839e-05 0.000189924 1.94033e-05
-4.36617e-05 1.94033e-05 -0.000454455
0.000316367 -2.35731e-05 -1.02994e-05
-2.35731e-05 -0.000247191 4.29524e-05
-1.02994e-05 4.29524e-05 -0.000434635
0.00113782 2.06495e-06 5.01254e-07
2.06495e-06 0.000181463 -5.14407e-07
5.01254e-07 -5.14407e-07 4.55979e-05
0.000939846 -2.16723e-05 -1.48648e-07
-2.16723e-05 0.00013442 9.01577e-08
-1.48648e-07 9.01577e-08 -5.13823e-05
0.00181224 -7.46102e-05 -1.93084e-07
-7.46102e-05 0.000494916 1.44205e-06
-1.93084e-07 1.44205e-06 0.000314119
0.000857716 -2.82184e-05 -1.42203e-07
-2.82184e-05 2.3067e-05 -2.31065e-07
-1.42203e-07 -2.31065e-07 -0.000101529
0.00110101 -4.61578e-05 5.95865e-07
-4.61578e-05 0.000122145 -2.39636e-07
5.95865e-07 -2.39636e-07 -1.71623e-05
0.00134829 -5.98627e-05 -2.33577e-06
-5.98627e-05 0.000149376 -2.33886e-06
-2.33577e-06 -2.33886e-06 3.58172e-05
0.00132647 -4.29573e-05 -1.86771e-08
-4.29573e-05 0.00019265 -6.01992e-07
-1.86771e-08 -6.01992e-07 7.86727e-05
0.00121814 -4.60114e-05 -5.77034e-07
-4.60114e-05 0.00010168 -9.42996e-07
-5.77034e-07 -9.42996e-07 -2.51574e-06
0.00148797 -4.56954e-05 -1.31683e-06
-4.56954e-05 0.00019188 -1.51017e-06
-1.31683e-06 -1.51017e-06 0.000110074
0.00129967 -4.03187e-05 5.1598e-07
-4.03187e-05 0.000135283 -1.07301e-06
5.1598e-07 -1.07301e-06 4.20103e-05
0.0012263 -3.8067e-05 4.17585e-07
-3.8067e-05 9.13069e-05 -4.89063e-07
4.17585e-07 -4.89063e-07 5.50651e-06
0.00130747 -3.44686e-05 -8.50519e-07
-3.44686e-05 9.78123e-05 -1.67472e-06
-8.50519e-07 -1.67472e-06 2.81009e-05
0.00127363 -3.04261e-05 -5.63749e-07
-3.04261e-05 6.92836e-05 -9.38086e-07
-5.63749e-07 -9.38086e-07 4.98036e-06
0.00119112 -3.21975e-05 -8.17911e-07
-3.21975e-05 6.48773e-05 3.50139e-07
-8.17911e-07 3.50139e-07 -8.37279e-06
0.0012092 -3.32151e-05 7.29589e-08
-3.32151e-05 6.6268e-05 -5.00169e-07
7.29589e-08 -5.00169e-07 -9.00708e-06
0.00120445 -3.02567e-05 -6.00095e-07
-3.02567e-05 9.33602e-05 1.13284e-06
-6.00095e-07 1.13284e-06 2.56731e-05
0.00120338 -3.269e-05 -2.49511e-07
-3.269e-05 8.81296e-05 2.1131e-07
-2.49511e-07 2.1131e-07 1.3238e-05
0.00118972 -3.50781e-05 4.79051e-07
-3.50781e-05 8.11375e-05 -8.12136e-07
4.79051e-07 -8.12136e-07 -1.09562e-06
0.00108685 -2.37074e-05 -4.87875e-07
-2.37074e-05 4.90052e-05 1.35797e-07
-4.87875e-07 1.35797e-07 -1.0251e-05
0.00101868 -2.72072e-05 -7.06831e-08
-2.72072e-05 1.52761e-05 -3.26021e-07
-7.06831e-08 -3.26021e-07 -4.88448e-05
0.00117326 -3.05718e-05 1.05798e-06
-3.05718e-05 8.72606e-05 -1.39627e-06
1.05798e-06 -1.39627e-06 1.75895e-05
0.00103386 7.96312e-07 -8.71102e-07
7.96312e-07 3.34702e-05 9.20861e-07
-8.71102e-07 9.20861e-07 -1.87674e-05
0.00106274 -1.75383e-05 1.32005e-07
-1.75383e-05 4.42451e-05 1.39791e-07
1.32005e-07 1.39791e-07 -1.58342e-05
0.0010793 -2.59661e-05 5.11685e-07
-2.59661e-05 5.07038e-05 -2.56791e-07
5.11685e-07 -2.56791e-07 -1.32733e-05
0.000964612 1.27664e-05 -2.013e-06
1.27664e-05 -3.15625e-06 1.63522e-06
-2.013e-06 1.63522e-06 -3.63861e-05
0.00104741 9.90383e-07 -6.19792e-08
9.90383e-07 3.68952e-05 -2.92922e-08
-6.19792e-08 -2.92922e-08 -1.39171e-05
0.0010613 -1.16241e-05 1.28489e-07
-1.16241e-05 4.78902e-05 -2.05083e-07
1.28489e-07 -2.05083e-07 -1.16495e-05
0.00154523 1.50135e-05 -5.60138e-06
1.50135e-05 0.000276724 2.8513e-06
-5.60138e-06 2.8513e-06 0.000275157
0.000991617 1.01666e-05 -1.31685e-08
1.01666e-05 4.3456e-06 1.44124e-08
-1.31685e-08 1.44124e-08 -2.82092e-05
0.00106703 -3.01161e-06 1.10401e-06
-3.01161e-06 3.93124e-05 -8.38838e-07
1.10401e-06 -8.38838e-07 -1.06417e-05
0.00119059 1.4055e-05 -7.77811e-06
1.4055e-05 9.77701e-05 3.69815e-06
-7.77811e-06 3.69815e-06 0.000111319
0.00125191 1.27911e-05 -1.62342e-06
1.27911e-05 0.000128715 5.93406e-07
-1.62342e-06 5.93406e-07 0.000125797
0.000993385 8.01966e-06 1.94951e-06
8.01966e-06 2.21916e-06 -1.7038e-06
1.94951e-06 -1.7038e-06 -3.06751e-05
0.000932227 1.07036e-05 2.60977e-06
1.07036e-05 -3.16982e-05 -3.08723e-06
2.60977e-06 -3.08723e-06 -3.58663e-05
0.00245581 1.62221e-05 2.38123e-07
1.62221e-05 0.000716587 4.10704e-08
2.38123e-07 4.10704e-08 0.000736732
0.00243369 1.40308e-05 7.91174e-06
1.40308e-05 0.000702249 -3.93078e-06
7.91174e-06 -3.93078e-06 0.000723037
0.00104878 1.50228e-05 -7.54192e-07
1.50228e-05 2.87397e-05 -3.81192e-07
-7.54192e-07 -3.81192e-07 -3.43465e-05
0.0010645 3.13724e-06 -1.08029e-06
3.13724e-06 3.5284e-05 -9.64932e-07
-1.08029e-06 -9.64932e-07 -1.75785e-05
0.00107568 1.79279e-05 -1.41639e-08
1.79279e-05 4.18528e-05 4.58068e-08
-1.41639e-08 4.58068e-08 -2.16869e-05
0.00098989 -7.25879e-06 -1.54128e-06
-7.25879e-06 -1.49914e-07 -1.84754e-06
-1.54128e-06 -1.84754e-06 -3.37491e-05
0.00106126 6.36335e-06 -1.96451e-08
6.36335e-06 3.39803e-05 -9.21445e-10
-1.96451e-08 -9.21445e-10 -1.85446e-05
0.000947331 -9.55693e-06 -2.1772e-06
-9.55693e-06 -2.69653e-05 -3.13786e-06
-2.1772e-06 -3.13786e-06 -3.06309e-05
0.000999522 -6.40798e-06 -1.12839e-07
-6.40798e-06 3.34941e-06 1.3241e-08
-1.12839e-07 1.3241e-08 -2.91696e-05
0.00107072 8.655e-06 7.73753e-07
8.655e-06 4.01746e-05 1.23962e-06
7.73753e-07 1.23962e-06 -1.17836e-05
0.00238616 -1.18396e-05 -6.94644e-06
-1.18396e-05 0.000675351 -3.9925e-06
-6.94644e-06 -3.9925e-06 0.000697103
0.000943663 -8.3798e-06 -9.86504e-08
-8.3798e-06 -3.23338e-05 -1.32368e-08
-9.86504e-08 -1.32368e-08 -3.4415e-05
0.00101059 -6.05843e-06 7.96847e-07
-6.05843e-06 7.33904e-06 1.85796e-06
7.96847e-07 1.85796e-06 -2.3513e-05
0.00234344 -9.50869e-06 -3.74326e-07
-9.50869e-06 0.000650042 2.54594e-08
-3.74326e-07 2.54594e-08 0.000672981
0.00093573 -6.93797e-06 1.20154e-06
-6.93797e-06 -3.9924e-05 3.16143e-06
1.20154e-06 3.16143e-06 -4.02469e-05
0.00231665 -7.04954e-06 4.09736e-06
-7.04954e-06 0.000633385 3.954e-06
4.09736e-06 3.954e-06 0.000657258
0.000509385 -7.09007e-06 -1.28504e-05
-7.09007e-06 4.91891e-05 -3.76719e-06
-1.28504e-05 -3.76719e-06 -3.45417e-05
0.000694607 6.82786e-06 -3.97488e-07
6.82786e-06 6.32352e-05 -1.174e-06
-3.97488e-07 -1.174e-06 -2.61868e-05
0.000802411 -5.45716e-06 -1.05121e-06
-5.45716e-06 8.35938e-05 -4.40469e-07
-1.05121e-06 -4.40469e-07 6.47458e-06
0.00114374 2.12657e-05 -2.78707e-07
2.12657e-05 7.45617e-05 2.96526e-07
-2.78707e-07 2.96526e-07 8.69966e-06
0.00110155 1.9517e-05 6.54105e-07
1.9517e-05 5.57345e-05 4.89249e-07
6.54105e-07 4.89249e-07 -8.29568e-06
0.00108285 2.41224e-05 6.0299e-07
2.41224e-05 4.4114e-05 1.72788e-07
6.0299e-07 1.72788e-07 -2.42666e-05
0.00113536 2.51607e-05 -1.98758e-07
2.51607e-05 7.11409e-05 -1.71303e-07
-1.98758e-07 -1.71303e-07 1.70754e-06
0.00113816 2.20034e-05 -1.98165e-07
2.20034e-05 7.17462e-05 -1.5995e-07
-1.98165e-07 -1.5995e-07 4.91102e-06
0.00114363 2.5468e-05 2.94053e-07
2.5468e-05 7.27566e-05 2.04412e-07
2.94053e-07 2.04412e-07 2.59578e-06
0.00111649 2.56636e-05 -4.27483e-07
2.56636e-05 5.98384e-05 -8.35839e-08
-4.27483e-07 -8.35839e-08 -1.05156e-05
0.00108725 2.5362e-05 -3.33128e-07
2.5362e-05 4.81383e-05 2.98606e-08
-3.33128e-07 2.98606e-08 -2.46476e-05
0.00114664 2.54429e-05 4.16325e-07
2.54429e-05 7.9866e-05 1.08175e-07
4.16325e-07 1.08175e-07 7.31294e-06
0.00108523 2.44852e-05 7.39514e-07
2.44852e-05 5.41002e-05 1.06952e-07
7.39514e-07 1.06952e-07 -2.31571e-05
0.00116588 2.61863e-05 -1.52073e-07
2.61863e-05 9.08986e-05 -2.96417e-08
-1.52073e-07 -2.96417e-08 1.44803e-05
0.00138496 2.88957e-05 4.39721e-07
2.88957e-05 0.000191997 3.68868e-07
4.39721e-07 3.68868e-07 0.000116113
0.00191736 -3.64703e-05 -6.81309e-06
-3.64703e-05 0.000834192 -3.19961e-06
-6.81309e-06 -3.19961e-06 0.000885887
0.000602659 -9.58392e-06 -2.32796e-06
-9.58392e-06 7.64784e-05 -3.30986e-06
-2.32796e-06 -3.30986e-06 3.63043e-05
0.000543618 1.11387e-05 2.46673e-06
1.11387e-05 -5.41189e-05 2.74495e-06
2.46673e-06 2.74495e-06 -0.000105543
0.00176472 -3.32785e-05 1.30847e-05
-3.32785e-05 0.000647451 1.21402e-05
1.30847e-05 1.21402e-05 0.000720556
0.0012074 -0.000111757 4.7667e-06
-0.000111757 -0.000728333 -7.04153e-05
4.7667e-06 -7.04153e-05 -0.000663315
0.00366764 2.54666e-05 -2.9011e-06
2.54666e-05 -0.000128681 0.000105314
-2.9011e-06 0.000105314 -0.000664591
-0.000147781 -5.1694e-05 -3.07829e-05
-5.1694e-05 -3.37736e-05 3.43119e-05
-3.07829e-05 3.43119e-05 -0.00013186
0.000783332 -5.39626e-06 -9.06844e-06
-5.39626e-06 0.000441693 -7.32872e-06
-9.06844e-06 -7.32872e-06 0.00023861
0.000643474 -5.43956e-05 2.58066e-06
-5.43956e-05 -3.40213e-05 1.52976e-07
2.58066e-06 1.52976e-07 9.0496e-05
0.00589975 -5.38375e-05 1.21021e-05
-5.38375e-05 0.000721581 4.2263e-05
1.21021e-05 4.2263e-05 0.000303894
-0.00112069 -0.000121291 -4.9168e-06
-0.000121291 -0.000929037 -1.26351e-05
-4.9168e-06 -1.26351e-05 -0.000945906
0.000647208 4.73639e-05 -2.66402e-05
4.73639e-05 0.000228047 -3.53166e-05
-2.66402e-05 -3.53166e-05 8.86616e-05
0.00502553 -0.000144351 1.51065e-05
-0.000144351 0.00110011 3.33009e-05
1.51065e-05 3.33009e-05 0.000498137
1.11265e-05 -9.96216e-05 3.89481e-05
-9.96216e-05 -0.000135696 2.33145e-05
3.89481e-05 2.33145e-05 -8.94491e-05
0.00114671 3.87577e-05 -2.57263e-06
3.87577e-05 0.000100757 5.55315e-07
-2.57263e-06 5.55315e-07 2.75733e-05
0.00116404 2.9948e-05 1.84085e-06
2.9948e-05 9.86185e-05 2.27092e-07
1.84085e-06 2.27092e-07 2.04433e-05
0.001212 2.69391e-05 3.63161e-07
2.69391e-05 0.000121063 -3.7417e-07
3.63161e-07 -3.7417e-07 3.83505e-05
6.45872e-05 -3.01855e-06 3.21096e-06
-3.01855e-06 -3.44562e-05 -3.13577e-06
3.21096e-06 -3.13577e-06 -0.000123646
0.00093165 6.79778e-07 7.1457e-07
6.79778e-07 1.07519e-05 6.86659e-07
7.1457e-07 6.86659e-07 -0.000127256
0.00119426 1.27794e-05 3.30568e-06
1.27794e-05 0.000132333 9.08335e-07
3.30568e-06 9.08335e-07 2.52268e-05
0.00125287 2.8092e-05 1.86987e-07
2.8092e-05 0.000167961 2.08099e-08
1.86987e-07 2.08099e-08 4.78436e-05
0.000598684 1.71426e-05 4.29902e-06
1.71426e-05 0.000154648 8.82325e-06
4.29902e-06 8.82325e-06 4.42876e-05
-0.000626204 5.01283e-05 -5.50422e-06
5.01283e-05 -0.000573099 1.05462e-05
-5.50422e-06 1.05462e-05 -0.000653712
0.00242249 -2.33636e-06 -1.15887e-05
-2.33636e-06 0.00118948 -3.15399e-07
-1.15887e-05 -3.15399e-07 0.00119559
0.000690093 -1.14761e-07 -9.72805e-07
-1.14761e-07 0.000167557 -7.44537e-07
-9.72805e-07 -7.44537e-07 8.05898e-05
0.000317026 1.79133e-06 1.74623e-07
1.79133e-06 -0.000177102 -6.00534e-07
1.74623e-07 -6.00534e-07 -0.000276891
0.0011684 -2.75736e-06 -1.22564e-05
-2.75736e-06 0.000387243 1.87125e-05
-1.22564e-05 1.87125e-05 0.000273805
0.00174717 -3.4823e-05 1.8563e-06
-3.4823e-05 0.000623185 -3.18614e-05
1.8563e-06 -3.18614e-05 0.00040129
0.000807727 -3.06225e-06 1.10132e-05
-3.06225e-06 0.000210104 -2.73061e-06
1.10132e-05 -2.73061e-06 0.000143857
0.0011752 7.91045e-05 -2.57711e-05
7.91045e-05 -0.000297128 3.64535e-05
-2.57711e-05 3.64535e-05 -0.000977741
-0.000872853 0.000103206 -4.59925e-05
0.000103206 -0.000546168 2.7514e-05
-4.59925e-05 2.7514e-05 -0.000547738
0.000721924 3.3452e-05 1.22009e-05
3.3452e-05 5.23636e-05 -1.11309e-05
1.22009e-05 -1.11309e-05 0.000118356
0.00129652 -9.09647e-06 3.3259e-06
-9.09647e-06 0.00030805 9.70932e-07
3.3259e-06 9.70932e-07 0.000203893
0.000805653 1.1214e-05 -1.7391e-07
1.1214e-05 0.00018584 -7.72536e-07
-1.7391e-07 -7.72536e-07 0.00018477
-0.00155499 4.8024e-05 -1.164e-05
4.8024e-05 -0.000706138 4.26829e-06
-1.164e-05 4.26829e-06 -0.00072681
0.00217043 -6.68465e-05 -1.48054e-05
-6.68465e-05 0.000468856 3.6821e-05
-1.48054e-05 3.6821e-05 -6.13602e-06
0.00464974 0.000100113 -6.91128e-06
0.000100113 0.00114189 8.1279e-06
-6.91128e-06 8.1279e-06 0.000575716
0.00191631 -3.3754e-05 1.62863e-05
-3.3754e-05 7.01279e-05 -9.93372e-06
1.62863e-05 -9.93372e-06 0.000111652
-0.00383973 2.28271e-05 3.19848e-05
2.28271e-05 -0.0019722 -1.24057e-05
3.19848e-05 -1.24057e-05 -0.00196365
0.00487527 6.0841e-05 1.83199e-05
6.0841e-05 0.00146167 -1.59931e-05
1.83199e-05 -1.59931e-05 0.00102035
0.000840543 -3.39497e-05 -2.65299e-05
-3.39497e-05 -5.83722e-05 3.25788e-05
-2.65299e-05 3.25788e-05 -0.000488837
0.00115936 -1.94111e-05 -7.9032e-07
-1.94111e-05 0.000235472 -1.96815e-06
-7.9032e-07 -1.96815e-06 5.45491e-05
0.00114236 -6.22964e-05 3.19137e-07
-6.22964e-05 0.000194509 1.03371e-06
3.19137e-07 1.03371e-06 -5.40177e-07
0.00116274 -8.67902e-05 -4.27402e-06
-8.67902e-05 4.74645e-05 9.84488e-07
-4.27402e-06 9.84488e-07 -6.32886e-05
0.00100555 -4.30412e-05 -5.22246e-07
-4.30412e-05 8.17208e-05 -1.69037e-07
-5.22246e-07 -1.69037e-07 -5.74049e-05
0.00120352 -5.80701e-05 -1.35881e-06
-5.80701e-05 7.19017e-05 -1.53379e-06
-1.35881e-06 -1.53379e-06 -3.80737e-05
0.00182519 -5.77026e-05 -2.50638e-06
-5.77026e-05 0.000271799 -3.01351e-06
-2.50638e-06 -3.01351e-06 0.000213193
0.00109078 -4.44675e-05 8.41568e-07
-4.44675e-05 3.86213e-05 -1.51884e-06
8.41568e-07 -1.51884e-06 -6.46707e-05
0.00122484 -4.23149e-05 7.53082e-07
-4.23149e-05 6.2174e-05 -6.30438e-07
7.53082e-07 -6.30438e-07 -1.75776e-05
0.0014027 -3.4963e-05 -6.5138e-07
-3.4963e-05 0.000103422 -2.60074e-06
-6.5138e-07 -2.60074e-06 5.31865e-05
0.00111031 -3.63814e-05 1.17753e-06
-3.63814e-05 3.43552e-05 -4.0523e-07
1.17753e-06 -4.0523e-07 -5.03333e-05
0.00121053 -3.31504e-05 -6.99881e-08
-3.31504e-05 4.79652e-05 -4.88952e-07
-6.99881e-08 -4.88952e-07 -2.06805e-05
0.0012772 -2.79117e-05 -6.55216e-08
-2.79117e-05 4.58862e-05 -1.72062e-06
-6.55216e-08 -1.72062e-06 -4.55273e-06
0.0012577 -2.54764e-05 -1.92045e-07
-2.54764e-05 5.20518e-05 -7.74847e-07
-1.92045e-07 -7.74847e-07 -1.11325e-06
0.0012962 -3.0734e-05 -8.36681e-07
-3.0734e-05 9.13913e-05 -4.4033e-07
-8.36681e-07 -4.4033e-07 2.57215e-05
0.00123182 -2.92954e-05 2.96514e-07
-2.92954e-05 4.96641e-05 3.51244e-07
2.96514e-07 3.51244e-07 -1.37732e-05
0.00103084 -2.84928e-05 -9.14717e-07
-2.84928e-05 -4.36645e-06 6.66112e-07
-9.14717e-07 6.66112e-07 -7.26762e-05
0.00122746 -3.23275e-05 4.49678e-07
-3.23275e-05 8.335e-05 -3.29354e-07
4.49678e-07 -3.29354e-07 1.08409e-05
0.0011405 -3.21378e-05 8.62637e-07
-3.21378e-05 3.12162e-05 -2.41551e-07
8.62637e-07 -2.41551e-07 -4.32846e-05
0.00110292 -2.62747e-05 -4.47888e-07
-2.62747e-05 5.23173e-05 6.96797e-07
-4.47888e-07 6.96797e-07 -8.38856e-06
0.00108571 -2.89976e-05 9.39724e-08
-2.89976e-05 3.8595e-05 -8.36831e-08
9.39724e-08 -8.36831e-08 -2.92902e-05
0.00104208 -3.11568e-05 5.72319e-07
-3.11568e-05 1.23398e-05 -1.00959e-06
5.72319e-07 -1.00959e-06 -6.3667e-05
0.00103949 -4.79393e-06 -1.02334e-06
-4.79393e-06 3.4419e-05 6.52899e-07
-1.02334e-06 6.52899e-07 -1.83284e-05
0.00110724 -2.3349e-05 -8.9419e-08
-2.3349e-05 5.8353e-05 -1.17986e-07
-8.9419e-08 -1.17986e-07 -9.36231e-07
0.00108657 -2.78566e-05 1.99008e-07
-2.78566e-05 4.8446e-05 -8.95222e-07
1.99008e-07 -8.95222e-07 -1.50819e-05
0.000956775 1.48475e-05 -1.98071e-06
1.48475e-05 -1.67981e-06 1.66272e-06
-1.98071e-06 1.66272e-06 -3.66955e-05
0.00104371 -4.15136e-07 8.78852e-08
-4.15136e-07 3.72917e-05 9.74417e-08
8.78852e-08 9.74417e-08 -1.48031e-05
0.00100137 -1.56841e-05 5.88266e-07
-1.56841e-05 1.55451e-05 -1.39801e-07
5.88266e-07 -1.39801e-07 -4.45999e-05
0.000884586 1.49207e-05 -3.37898e-06
1.49207e-05 -4.30552e-05 2.76391e-06
-3.37898e-06 2.76391e-06 -4.82058e-05
0.000983811 1.31186e-05 -2.74089e-08
1.31186e-05 6.13649e-06 -1.26027e-08
-2.74089e-08 -1.26027e-08 -2.71733e-05
0.00106761 -1.42949e-07 9.06641e-07
-1.42949e-07 4.57087e-05 -9.3076e-07
9.06641e-07 -9.3076e-07 -5.04346e-06
0.00239484 2.1712e-05 -4.05125e-06
2.1712e-05 0.000695399 1.45293e-06
-4.05125e-06 1.45293e-06 0.000714525
0.000899428 1.34353e-05 6.96795e-08
1.34353e-05 -4.06432e-05 3.86371e-08
6.96795e-08 3.86371e-08 -4.5168e-05
0.000996811 1.08293e-05 1.9858e-06
1.08293e-05 7.00547e-06 -1.64559e-06
1.9858e-06 -1.64559e-06 -2.55681e-05
0.00247176 1.84204e-05 1.7854e-07
1.84204e-05 0.000728173 4.6128e-08
1.7854e-07 4.6128e-08 0.000747683
0.00092157 1.20349e-05 2.97886e-06
1.20349e-05 -3.36174e-05 -2.95681e-06
2.97886e-06 -2.95681e-06 -3.79945e-05
0.00243128 1.62263e-05 8.65079e-06
1.62263e-05 0.000704931 -3.82135e-06
8.65079e-06 -3.82135e-06 0.000725139
0.00119155 1.35455e-05 -3.7485e-07
1.35455e-05 0.000100422 1.66214e-07
-3.7485e-07 1.66214e-07 3.8681e-05
0.00107988 1.37771e-05 -1.15031e-07
1.37771e-05 4.44706e-05 -1.07584e-07
-1.15031e-07 -1.07584e-07 -1.84238e-05
0.00106564 4.1201e-07 -1.13808e-06
4.1201e-07 3.7457e-05 -8.70838e-07
-1.13808e-06 -8.70838e-07 -1.58215e-05
0.000993423 -8.78223e-06 -1.80324e-06
-8.78223e-06 3.07881e-06 -1.77769e-06
-1.80324e-06 -1.77769e-06 -3.12665e-05
0.00106081 3.90062e-06 -4.52454e-08
3.90062e-06 3.38843e-05 2.08738e-08
-4.52454e-08 2.08738e-08 -1.90792e-05
0.00105615 1.67014e-05 6.15539e-07
1.67014e-05 3.25367e-05 4.05451e-07
6.15539e-07 4.05451e-07 -3.12334e-05
0.00093291 -1.0616e-05 -2.60953e-06
-1.0616e-05 -3.06215e-05 -3.08297e-06
-2.60953e-06 -3.08297e-06 -3.53258e-05
0.000994745 -6.7517e-06 -1.00378e-07
-6.7517e-06 1.88032e-06 7.40848e-09
-1.00378e-07 7.40848e-09 -3.16771e-05
0.00106494 6.81086e-06 9.1521e-07
6.81086e-06 3.59571e-05 1.16355e-06
9.1521e-07 1.16355e-06 -1.6661e-05
0.00243214 -1.40499e-05 -7.97552e-06
-1.40499e-05 0.000701991 -3.95782e-06
-7.97552e-06 -3.95782e-06 0.000722698
0.00093157 -9.53888e-06 -1.21396e-07
-9.53888e-06 -3.45398e-05 3.53156e-09
-1.21396e-07 3.53156e-09 -3.81291e-05
0.00100732 -6.06759e-06 1.10406e-06
-6.06759e-06 7.00505e-06 1.8894e-06
1.10406e-06 1.8894e-06 -2.5508e-05
0.0023912 -1.18308e-05 -3.32865e-07
-1.18308e-05 0.000677321 3.1795e-08
-3.32865e-07 3.1795e-08 0.000699196
0.000925451 -8.38157e-06 1.52461e-06
-8.38157e-06 -4.10662e-05 3.17391e-06
1.52461e-06 3.17391e-06 -4.30542e-05
0.00234936 -9.46399e-06 5.27091e-06
-9.46399e-06 0.000652462 3.93392e-06
5.27091e-06 3.93392e-06 0.000675512
0.000122173 -1.46665e-05 -7.35167e-06
-1.46665e-05 -0.000156722 -3.84669e-06
-7.35167e-06 -3.84669e-06 -0.000153969
0.000533561 -3.98423e-06 -4.46908e-08
-3.98423e-06 6.61789e-05 -1.44895e-06
-4.46908e-08 -1.44895e-06 -1.7415e-05
0.000571909 6.5919e-06 1.2247e-06
6.5919e-06 -1.13331e-05 5.47702e-07
1.2247e-06 5.47702e-07 -0.00010119
0.00112351 2.11294e-05 1.06103e-07
2.11294e-05 6.41894e-05 1.29673e-07
1.06103e-07 1.29673e-07 -1.9731e-06
0.00117492 2.34074e-05 -2.61567e-07
2.34074e-05 9.192e-05 3.29212e-07
-2.61567e-07 3.29212e-07 2.68916e-05
0.00112298 2.63054e-05 -1.42586e-07
2.63054e-05 6.13517e-05 2.86148e-07
-1.42586e-07 2.86148e-07 -6.86393e-06
0.00120427 2.59295e-05 2.19968e-07
2.59295e-05 0.000105441 -1.50402e-07
2.19968e-07 -1.50402e-07 3.63334e-05
0.00120533 2.31657e-05 2.6372e-07
2.31657e-05 0.000104633 -6.30241e-08
2.6372e-07 -6.30241e-08 3.80829e-05
0.00110641 2.49366e-05 5.45652e-07
2.49366e-05 5.42344e-05 3.14624e-07
5.45652e-07 3.14624e-07 -1.56797e-05
0.0011221 2.56861e-05 -9.41057e-08
2.56861e-05 6.46644e-05 3.31966e-09
-9.41057e-08 3.31966e-09 -7.85144e-06
0.00113559 2.588e-05 3.73802e-08
2.588e-05 6.88502e-05 2.55767e-08
3.73802e-08 2.55767e-08 -1.23807e-06
0.00113305 2.69268e-05 -5.42939e-07
2.69268e-05 7.53797e-05 1.16211e-07
-5.42939e-07 1.16211e-07 1.50951e-06
0.00123607 2.82723e-05 -1.62197e-07
2.82723e-05 0.000120013 1.50781e-06
-1.62197e-07 1.50781e-06 4.83974e-05
0.00112156 2.56531e-05 1.13151e-07
2.56531e-05 6.91177e-05 -3.02119e-07
1.13151e-07 -3.02119e-07 -7.27292e-06
0.00122085 2.71787e-05 3.43139e-08
2.71787e-05 0.000115056 -1.50879e-07
3.43139e-08 -1.50879e-07 3.91373e-05
-0.00286149 -6.0181e-05 4.23731e-05
-6.0181e-05 -0.00146314 1.56737e-05
4.23731e-05 1.56737e-05 -0.00148648
0.00100617 -3.55402e-05 3.08033e-07
-3.55402e-05 0.000313898 -1.55816e-07
3.08033e-07 -1.55816e-07 0.000362284
0.000642042 -9.34908e-06 1.33054e-05
-9.34908e-06 0.000103146 6.40386e-06
1.33054e-05 6.40386e-06 6.4496e-05
9.52413e-05 -5.39202e-05 6.71805e-07
-5.39202e-05 -0.000314925 -1.32981e-06
6.71805e-07 -1.32981e-06 -0.00021185
0.00411674 -0.000167096 -2.46878e-05
-0.000167096 0.00137001 -5.17828e-05
-2.46878e-05 -5.17828e-05 0.00131066
0.00216546 -7.44291e-05 1.76081e-05
-7.44291e-05 -0.000495727 3.25176e-05
1.76081e-05 3.25176e-05 -0.000782462
0.000350393 5.68346e-06 2.09436e-06
5.68346e-06 2.07925e-05 3.62319e-05
2.09436e-06 3.62319e-05 -0.000442604
0.00123319 6.4045e-05 -1.26215e-05
6.4045e-05 0.000238875 -3.22674e-05
-1.26215e-05 -3.22674e-05 -0.000127076
0.0017531 -0.00013189 4.68919e-07
-0.00013189 0.000363679 -4.75917e-06
4.68919e-07 -4.75917e-06 0.000325529
0.00423452 -6.31938e-05 2.20952e-05
-6.31938e-05 0.000697642 3.99703e-05
2.20952e-05 3.99703e-05 0.000160234
0.000214682 7.93577e-05 -4.36816e-05
7.93577e-05 -0.000436907 -8.08825e-05
-4.36816e-05 -8.08825e-05 -0.00078039
0.00347059 -1.72943e-06 2.25346e-06
-1.72943e-06 0.000448069 1.61446e-05
2.25346e-06 1.61446e-05 -0.000101748
0.00194072 5.53221e-05 2.6486e-06
5.53221e-05 0.000516905 -1.27307e-06
2.6486e-06 -1.27307e-06 0.000429754
0.000984711 3.5044e-05 -9.76512e-08
3.5044e-05 2.06827e-05 -1.40714e-07
-9.76512e-08 -1.40714e-07 -5.13215e-05
0.0012496 2.97317e-05 2.62315e-06
2.97317e-05 0.000133882 -6.85379e-07
2.62315e-06 -6.85379e-07 5.64287e-05
0.000392959 1.73437e-05 -1.61593e-07
1.73437e-05 6.00187e-05 -4.63184e-06
-1.61593e-07 -4.63184e-06 -5.81793e-05
0.00153313 2.99104e-05 3.06366e-06
2.99104e-05 0.000301319 3.85079e-07
3.06366e-06 3.85079e-07 0.000182163
0.000971045 6.40178e-05 2.27666e-06
6.40178e-05 0.000144351 2.71992e-06
2.27666e-06 2.71992e-06 6.78584e-05
-0.000776282 5.72372e-05 4.48267e-06
5.72372e-05 -0.000709316 3.96948e-06
4.48267e-06 3.96948e-06 -0.000769249
-0.00143589 4.0716e-06 5.60061e-05
4.0716e-06 -0.000705361 -2.07241e-06
5.60061e-05 -2.07241e-06 -0.000638858
0.000566713 -1.61985e-06 -5.98135e-06
-1.61985e-06 8.88421e-05 4.32446e-07
-5.98135e-06 4.32446e-07 7.8427e-05
-0.000599894 1.43024e-06 1.22004e-05
1.43024e-06 -0.000631933 -2.02522e-06
1.22004e-05 -2.02522e-06 -0.000728661
0.00186526 1.4444e-06 -1.18327e-05
1.4444e-06 0.000572975 1.08415e-05
-1.18327e-05 1.08415e-05 0.000474937
0.000194655 -4.35346e-05 -1.49041e-05
-4.35346e-05 9.02764e-05 3.69392e-06
-1.49041e-05 3.69392e-06 -0.000246773
0.000656389 9.8018e-06 9.14857e-06
9.8018e-06 8.7448e-05 -2.55537e-06
9.14857e-06 -2.55537e-06 8.66624e-05
0.00365555 4.74294e-05 3.89557e-05
4.74294e-05 0.00057697 -2.88871e-05
3.89557e-05 -2.88871e-05 -5.44907e-05
0.00282594 4.5849e-05 -6.9057e-05
4.5849e-05 0.00130731 2.5201e-05
-6.9057e-05 2.5201e-05 0.00121048
0.00146625 -3.6091e-05 -1.12252e-06
-3.6091e-05 3.7861e-05 3.60549e-07
-1.12252e-06 3.60549e-07 2.03203e-06
-0.000435405 1.98221e-05 -2.11231e-05
1.98221e-05 -0.000251678 4.92903e-06
-2.11231e-05 4.92903e-06 -0.000293704
0.00230656 -1.34679e-05 -8.15825e-06
-1.34679e-05 0.000189528 5.84069e-06
-8.15825e-06 5.84069e-06 -0.000409764
0.000123892 -8.19895e-07 4.51544e-06
-8.19895e-07 3.15458e-05 2.26267e-06
4.51544e-06 2.26267e-06 -0.0002705
0.00156324 -3.86879e-05 1.22916e-05
-3.86879e-05 -0.000244142 -6.41038e-06
1.22916e-05 -6.41038e-06 -0.000157734
0.00527325 7.36793e-06 9.84799e-06
7.36793e-06 0.00140477 -6.69915e-06
9.84799e-06 -6.69915e-06 0.00096256
0.00108732 2.25963e-05 -5.09889e-06
2.25963e-05 0.000446047 -6.82904e-07
-5.09889e-06 -6.82904e-07 0.000206673
0.000356815 -4.8537e-05 1.43002e-06
-4.8537e-05 -0.000153537 -4.21447e-06
1.43002e-06 -4.21447e-06 -0.000367948
0.00107827 -8.39077e-05 -7.54786e-08
-8.39077e-05 1.85704e-05 -3.89718e-07
-7.54786e-08 -3.89718e-07 -9.22227e-05
0.00126357 -7.56662e-05 -1.16888e-05
-7.56662e-05 -7.11503e-05 4.0246e-06
-1.16888e-05 4.0246e-06 -0.000103285
0.00106327 -5.61654e-05 -3.16743e-07
-5.61654e-05 -2.75935e-06 -7.58307e-07
-3.16743e-07 -7.58307e-07 -0.000109169
0.00131696 -5.31022e-05 -1.3764e-07
-5.31022e-05 2.44945e-05 4.41319e-07
-1.3764e-07 4.41319e-07 -3.17453e-05
0.00166713 -3.69899e-05 -6.28495e-07
-3.69899e-05 0.000148297 -5.07179e-07
-6.28495e-07 -5.07179e-07 0.000133812
0.00100365 -3.93781e-05 2.44208e-06
-3.93781e-05 -4.67423e-05 8.23805e-07
2.44208e-06 8.23805e-07 -0.000124568
0.00125204 -3.36092e-05 -1.25319e-08
-3.36092e-05 2.57736e-05 -6.944e-08
-1.25319e-08 -6.944e-08 -2.31203e-05
0.00131684 -2.57609e-05 1.03379e-06
-2.57609e-05 2.32656e-05 -8.92721e-07
1.03379e-06 -8.92721e-07 -5.9028e-06
0.00110444 -3.18264e-05 8.73788e-07
-3.18264e-05 -6.14086e-06 7.51232e-07
8.73788e-07 7.51232e-07 -7.37082e-05
0.00124054 -2.75663e-05 2.17499e-07
-2.75663e-05 2.78032e-05 3.46648e-07
2.17499e-07 3.46648e-07 -2.25625e-05
0.00120991 -2.22532e-05 6.9044e-07
-2.22532e-05 7.01937e-06 -2.45609e-07
6.9044e-07 -2.45609e-07 -3.51491e-05
0.0013077 -2.20053e-05 4.16208e-08
-2.20053e-05 7.32472e-05 -1.58108e-07
4.16208e-08 -1.58108e-07 2.43196e-05
0.00126216 -2.50762e-05 -2.3833e-07
-2.50762e-05 5.35168e-05 8.46604e-07
-2.3833e-07 8.46604e-07 1.32951e-06
0.0012676 -2.61899e-05 -1.65233e-07
-2.61899e-05 6.80807e-05 -1.22851e-06
-1.65233e-07 -1.22851e-06 1.16324e-05
0.00125799 -2.87077e-05 -8.38913e-07
-2.87077e-05 8.25631e-05 -1.18779e-07
-8.38913e-07 -1.18779e-07 1.86437e-05
0.00129271 -3.04997e-05 3.68708e-07
-3.04997e-05 9.15796e-05 -5.01258e-08
3.68708e-07 -5.01258e-08 2.58616e-05
0.00119313 -2.82301e-05 1.13222e-06
-2.82301e-05 3.161e-05 1.50758e-06
1.13222e-06 1.50758e-06 -3.0977e-05
0.000988697 -2.58125e-05 -1.09862e-06
-2.58125e-05 -1.62398e-05 1.04641e-06
-1.09862e-06 1.04641e-06 -7.89492e-05
0.00116179 -2.97143e-05 7.13871e-08
-2.97143e-05 5.96002e-05 -3.60291e-08
7.13871e-08 -3.60291e-08 -8.19278e-06
0.00125307 -3.23365e-05 1.28087e-06
-3.23365e-05 9.6628e-05 -8.39422e-07
1.28087e-06 -8.39422e-07 2.48839e-05
0.00104355 -1.13772e-05 -8.85085e-07
-1.13772e-05 3.41204e-05 6.83435e-07
-8.85085e-07 6.83435e-07 -1.97145e-05
0.00111975 -2.6025e-05 4.15446e-08
-2.6025e-05 5.99321e-05 -4.88428e-08
4.15446e-08 -4.88428e-08 -8.1125e-07
0.000980244 -2.78917e-05 4.97697e-07
-2.78917e-05 -1.00601e-05 -1.24295e-06
4.97697e-07 -1.24295e-06 -7.81345e-05
0.000956494 1.32444e-05 -2.11456e-06
1.32444e-05 1.59407e-06 1.5518e-06
-2.11456e-06 1.5518e-06 -3.5484e-05
0.00105116 -5.73083e-06 -3.74079e-08
-5.73083e-06 3.90924e-05 3.20983e-08
-3.74079e-08 3.20983e-08 -1.35388e-05
0.00112545 -2.29136e-05 5.01829e-07
-2.29136e-05 6.66774e-05 -5.08534e-07
5.01829e-07 -5.08534e-07 7.35684e-06
0.000871008 1.63383e-05 -3.58031e-06
1.63383e-05 -4.36402e-05 2.67292e-06
-3.58031e-06 2.67292e-06 -5.01462e-05
0.00097594 1.43719e-05 7.32739e-08
1.43719e-05 7.4154e-06 1.99068e-08
7.32739e-08 1.99068e-08 -2.76068e-05
0.00105379 -1.68924e-06 1.07316e-06
-1.68924e-06 4.12417e-05 -7.09113e-07
1.07316e-06 -7.09113e-07 -1.07129e-05
0.00246827 2.28757e-05 -9.92154e-06
2.28757e-05 0.000736078 3.42995e-06
-9.92154e-06 3.42995e-06 0.000754187
0.000902805 1.50052e-05 2.12092e-08
1.50052e-05 -3.41406e-05 2.20549e-08
2.12092e-08 2.20549e-08 -3.93891e-05
0.00100266 1.34501e-05 1.90625e-06
1.34501e-05 1.52626e-05 -1.67089e-06
1.90625e-06 -1.67089e-06 -1.81268e-05
0.00176616 1.89561e-05 3.52526e-06
1.89561e-05 0.00038616 -1.05544e-06
3.52526e-06 -1.05544e-06 0.000402287
0.000917706 1.35122e-05 3.28665e-06
1.35122e-05 -3.17194e-05 -2.82051e-06
3.28665e-06 -2.82051e-06 -3.63299e-05
0.00241505 1.84078e-05 9.18586e-06
1.84078e-05 0.000701082 -3.67398e-06
9.18586e-06 -3.67398e-06 0.000720771
0.00114859 1.17841e-05 -4.19625e-07
1.17841e-05 8.17456e-05 2.84362e-07
-4.19625e-07 2.84362e-07 2.03672e-05
0.00111026 1.09742e-05 1.90808e-07
1.09742e-05 6.03989e-05 3.14715e-07
1.90808e-07 3.14715e-07 -1.83165e-06
0.00105295 -2.18954e-06 -1.20682e-06
-2.18954e-06 3.45036e-05 -7.33584e-07
-1.20682e-06 -7.33584e-07 -1.93384e-05
0.00111024 1.25047e-05 4.25586e-07
1.25047e-05 5.984e-05 1.28649e-07
4.25586e-07 1.28649e-07 -2.85992e-06
0.0010561 5.9738e-07 2.35734e-08
5.9738e-07 3.33424e-05 2.28452e-08
2.35734e-08 2.28452e-08 -2.00149e-05
0.000995849 -1.02276e-05 -2.0037e-06
-1.02276e-05 6.68947e-06 -1.67559e-06
-2.0037e-06 -1.67559e-06 -2.83716e-05
0.000923022 -1.17913e-05 -2.99924e-06
-1.17913e-05 -3.2167e-05 -2.98768e-06
-2.99924e-06 -2.98768e-06 -3.75752e-05
0.000992122 -7.58474e-06 -1.03537e-07
-7.58474e-06 2.05243e-06 1.44415e-08
-1.03537e-07 1.44415e-08 -3.22212e-05
0.00105719 4.31454e-06 1.02732e-06
4.31454e-06 3.25183e-05 1.06805e-06
1.02732e-06 1.06805e-06 -2.05379e-05
0.00245679 -1.62097e-05 -8.78965e-06
-1.62097e-05 0.000718092 -3.86856e-06
-8.78965e-06 -3.86856e-06 0.00073796
0.000920109 -1.05816e-05 -1.03787e-07
-1.05816e-05 -3.68646e-05 1.8696e-08
-1.03787e-07 1.8696e-08 -4.14999e-05
0.000999809 -5.86472e-06 1.4539e-06
-5.86472e-06 3.99885e-06 1.86458e-06
1.4539e-06 1.86458e-06 -2.95097e-05
0.00244075 -1.40502e-05 -2.95372e-07
-1.40502e-05 0.000705754 3.91071e-08
-2.95372e-07 3.91071e-08 0.000726541
0.000916088 -9.52162e-06 1.91276e-06
-9.52162e-06 -4.19718e-05 3.18029e-06
1.91276e-06 3.18029e-06 -4.54858e-05
0.00239502 -1.18143e-05 6.37131e-06
-1.18143e-05 0.000678698 3.9247e-06
6.37131e-06 3.9247e-06 0.000700701
0.000428382 1.50197e-05 6.70102e-05
1.50197e-05 -8.75503e-05 6.81994e-06
6.70102e-05 6.81994e-06 -0.00020196
0.00139052 -1.68709e-05 -3.43129e-07
-1.68709e-05 0.000587678 -1.14184e-06
-3.43129e-07 -1.14184e-06 0.000598117
0.000538477 -9.99101e-07 1.18587e-05
-9.99101e-07 7.1337e-05 6.19894e-07
1.18587e-05 6.19894e-07 -1.2092e-05
0.00110087 2.08476e-05 6.63326e-07
2.08476e-05 5.26156e-05 3.96461e-08
6.63326e-07 3.96461e-08 -1.38333e-05
0.0011139 2.61095e-05 5.07405e-07
2.61095e-05 5.74959e-05 1.11785e-07
5.07405e-07 1.11785e-07 -1.0746e-05
0.00115657 2.3645e-05 7.77167e-08
2.3645e-05 8.38471e-05 3.4808e-08
7.77167e-08 3.4808e-08 1.90214e-05
0.00115114 2.59786e-05 -5.08808e-08
2.59786e-05 8.45254e-05 2.81446e-07
-5.08808e-08 2.81446e-07 1.97143e-05
0.00113855 2.68409e-05 -5.66216e-07
2.68409e-05 7.36461e-05 2.98884e-07
-5.66216e-07 2.98884e-07 5.4844e-06
0.0011573 2.6013e-05 2.82139e-07
2.6013e-05 8.13288e-05 -1.24705e-08
2.82139e-07 -1.24705e-08 9.08651e-06
0.00115214 2.60585e-05 5.74912e-07
2.60585e-05 7.66575e-05 1.98598e-09
5.74912e-07 1.98598e-09 6.83704e-06
0.00108524 2.64617e-05 -1.76791e-07
2.64617e-05 5.24502e-05 -5.39831e-08
-1.76791e-07 -5.39831e-08 -2.13312e-05
0.000897222 2.57385e-05 -2.82261e-07
2.57385e-05 -3.57912e-05 5.20519e-07
-2.82261e-07 5.20519e-07 -0.000105874
0.00105634 3.01158e-05 -3.90126e-07
3.01158e-05 4.19108e-05 1.09896e-06
-3.90126e-07 1.09896e-06 -3.3307e-05
0.00147892 4.0166e-05 1.48837e-07
4.0166e-05 0.000253397 5.56144e-08
1.48837e-07 5.56144e-08 0.000181833
0.00118936 2.83161e-05 -3.73473e-07
2.83161e-05 9.98539e-05 7.77402e-08
-3.73473e-07 7.77402e-08 2.67004e-05
0.00105912 2.55081e-05 1.54192e-07
2.55081e-05 3.93762e-05 -3.81108e-07
1.54192e-07 -3.81108e-07 -3.65974e-05
0.00691213 -6.36057e-06 -1.31538e-05
-6.36057e-06 0.0017683 -2.69614e-06
-1.31538e-05 -2.69614e-06 0.00130541
6.43851e-05 -6.96638e-05 1.00385e-05
-6.96638e-05 -0.000227988 2.99677e-06
1.00385e-05 2.99677e-06 -0.000294305
0.0019802 -3.5503e-05 2.83561e-06
-3.5503e-05 0.000876861 4.17734e-06
2.83561e-06 4.17734e-06 0.000927567
-0.00167415 -9.71308e-05 -3.05623e-05
-9.71308e-05 -0.00111715 -3.30793e-05
-3.05623e-05 -3.30793e-05 -0.0010806
0.00599831 -0.000128442 3.13613e-05
-0.000128442 0.00123441 5.24498e-05
3.13613e-05 5.24498e-05 0.000438494
0.00103511 4.50699e-05 8.54086e-06
4.50699e-05 0.000434159 -6.91059e-06
8.54086e-06 -6.91059e-06 0.00028082
0.00132785 8.22817e-05 -1.97585e-05
8.22817e-05 0.000211617 -2.25637e-05
-1.97585e-05 -2.25637e-05 -1.45489e-05
0.00432545 -7.96573e-05 1.07795e-05
-7.96573e-05 0.000928941 1.42245e-05
1.07795e-05 1.42245e-05 0.000472997
0.000984489 5.27558e-05 -4.19467e-05
5.27558e-05 -5.84859e-05 -3.6032e-05
-4.19467e-05 -3.6032e-05 -0.000272822
0.00160264 6.12881e-05 1.14438e-05
6.12881e-05 0.000290053 -5.67727e-07
1.14438e-05 -5.67727e-07 0.000180032
0.00116493 4.79198e-05 -1.97315e-06
4.79198e-05 0.000155326 -2.25993e-06
-1.97315e-06 -2.25993e-06 6.33268e-05
0.000800598 3.10261e-05 2.14699e-06
3.10261e-05 -6.98437e-05 -7.22486e-07
2.14699e-06 -7.22486e-07 -0.000140653
0.00225952 7.52255e-05 -7.18265e-06
7.52255e-05 0.000727644 -8.98415e-06
-7.18265e-06 -8.98415e-06 0.000655576
1.9993e-05 6.95745e-05 -3.33538e-06
6.95745e-05 -0.000451628 -1.7129e-06
-3.33538e-06 -1.7129e-06 -0.000490679
0.00150785 6.27639e-05 -1.07263e-05
6.27639e-05 -0.000344776 -1.47021e-06
-1.07263e-05 -1.47021e-06 -0.000607843
0.00152754 1.24574e-05 2.97497e-07
1.24574e-05 0.000428567 3.58983e-06
2.97497e-07 3.58983e-06 0.000382417
-0.00124012 -1.18604e-06 2.0756e-06
-1.18604e-06 -0.000981544 1.68586e-07
2.0756e-06 1.68586e-07 -0.00100732
0.00111904 -4.16168e-05 -1.44395e-05
-4.16168e-05 4.83641e-05 5.76258e-06
-1.44395e-05 5.76258e-06 -6.41294e-05
0.0021129 -3.03676e-05 2.50837e-05
-3.03676e-05 0.000669955 -2.08632e-05
2.50837e-05 -2.08632e-05 0.000159701
0.000531479 4.74519e-06 -8.5294e-05
4.74519e-06 -2.08213e-05 1.64614e-05
-8.5294e-05 1.64614e-05 -0.000130272
0.00495943 5.68162e-05 1.46327e-07
5.68162e-05 0.00158055 4.1395e-06
1.46327e-07 4.1395e-06 0.00103215
0.00185766 -3.89011e-05 1.355e-06
-3.89011e-05 -0.000101399 -9.06408e-07
1.355e-06 -9.06408e-07 -1.34192e-05
0.00332731 2.98094e-05 1.4454e-05
2.98094e-05 0.00070399 -3.62855e-07
1.4454e-05 -3.62855e-07 0.000315342
0.00167121 3.1609e-06 2.36708e-05
3.1609e-06 0.000364848 -8.74799e-06
2.36708e-05 -8.74799e-06 -1.63503e-05
0.00239852 -1.62368e-05 -4.46157e-07
-1.62368e-05 6.62809e-05 -7.39524e-06
-4.46157e-07 -7.39524e-06 0.000200218
0.00103446 3.66291e-05 -1.72579e-05
3.66291e-05 0.000368653 1.16253e-05
-1.72579e-05 1.16253e-05 0.000225939
0.00111369 -8.16901e-05 6.90643e-06
-8.16901e-05 4.53661e-05 -3.58013e-06
6.90643e-06 -3.58013e-06 -6.46789e-05
0.0014026 -7.42675e-05 -2.32607e-06
-7.42675e-05 -5.91358e-06 1.19431e-06
-2.32607e-06 1.19431e-06 -2.96104e-05
0.00169672 -3.313e-05 -2.37761e-06
-3.313e-05 7.56061e-05 1.9519e-06
-2.37761e-06 1.9519e-06 8.87707e-05
0.000737632 -4.78217e-05 4.43344e-06
-4.78217e-05 -0.000256902 2.27938e-06
4.43344e-06 2.27938e-06 -0.000309801
0.00128608 -3.52184e-05 6.68118e-07
-3.52184e-05 -3.10391e-05 1.12588e-06
6.68118e-07 1.12588e-06 -4.42777e-05
0.00133329 -1.83249e-05 2.16138e-06
-1.83249e-05 -1.25804e-05 1.68901e-06
2.16138e-06 1.68901e-06 -1.95801e-05
0.00108805 -3.23031e-05 1.21415e-06
-3.23031e-05 -5.93559e-05 2.16429e-06
1.21415e-06 2.16429e-06 -0.0001067
0.00128587 -2.57966e-05 3.84254e-07
-2.57966e-05 9.68135e-06 1.21472e-06
3.84254e-07 1.21472e-06 -2.03612e-05
0.00125666 -1.70509e-05 1.76032e-06
-1.70509e-05 5.11491e-06 1.08046e-06
1.76032e-06 1.08046e-06 -2.72917e-05
0.00121917 -2.73286e-05 9.45951e-07
-2.73286e-05 1.69323e-05 2.09336e-06
9.45951e-07 2.09336e-06 -3.33813e-05
0.00127334 -2.30706e-05 1.63452e-07
-2.30706e-05 3.7725e-05 6.91399e-07
1.63452e-07 6.91399e-07 -5.19498e-06
0.00124521 -1.8612e-05 4.98209e-07
-1.8612e-05 3.15275e-05 3.68326e-07
4.98209e-07 3.68326e-07 -1.40589e-05
0.00124545 -2.21051e-05 -6.36718e-07
-2.21051e-05 4.42813e-05 4.80021e-07
-6.36718e-07 4.80021e-07 -3.76155e-06
0.00131726 -2.29926e-05 5.20183e-07
-2.29926e-05 8.55399e-05 -5.90438e-07
5.20183e-07 -5.90438e-07 3.22121e-05
0.00126682 -2.46984e-05 4.62591e-07
-2.46984e-05 5.49906e-05 1.93782e-06
4.62591e-07 1.93782e-06 3.79298e-06
0.00127492 -2.61182e-05 3.08805e-08
-2.61182e-05 7.07382e-05 -2.70996e-07
3.08805e-08 -2.70996e-07 1.42282e-05
0.00126903 -2.55731e-05 -2.39365e-07
-2.55731e-05 7.50289e-05 -5.13366e-07
-2.39365e-07 -5.13366e-07 1.62261e-05
0.00106047 -2.5076e-05 -1.11985e-06
-2.5076e-05 -7.42545e-07 4.89504e-07
-1.11985e-06 4.89504e-07 -6.23578e-05
0.00125167 -2.86795e-05 3.34465e-08
-2.86795e-05 8.02399e-05 -1.36701e-07
3.34465e-08 -1.36701e-07 1.60295e-05
0.00129791 -3.03612e-05 1.04064e-06
-3.03612e-05 9.60134e-05 3.76012e-07
1.04064e-06 3.76012e-07 3.02238e-05
0.00107362 -1.69516e-05 -9.73688e-07
-1.69516e-05 4.02394e-05 8.53553e-07
-9.73688e-07 8.53553e-07 -1.52157e-05
0.00105626 -2.64674e-05 -2.26787e-07
-2.64674e-05 1.76775e-05 2.60641e-07
-2.26787e-07 2.60641e-07 -4.4781e-05
0.00127584 -3.07343e-05 8.09674e-07
-3.07343e-05 0.000115725 -7.86166e-07
8.09674e-07 -7.86166e-07 4.8445e-05
0.000955229 9.96279e-06 -2.17217e-06
9.96279e-06 4.01299e-06 1.46833e-06
-2.17217e-06 1.46833e-06 -3.57575e-05
0.00106057 -1.14222e-05 -4.49059e-08
-1.14222e-05 4.14702e-05 -3.86835e-09
-4.49059e-08 -3.86835e-09 -1.23212e-05
0.00113764 -2.57648e-05 5.43918e-07
-2.57648e-05 6.80481e-05 -8.08241e-07
5.43918e-07 -8.08241e-07 7.26708e-06
0.000854635 1.74069e-05 -3.85656e-06
1.74069e-05 -4.52754e-05 2.5655e-06
-3.85656e-06 2.5655e-06 -5.36555e-05
0.000972364 1.23098e-05 5.69954e-08
1.23098e-05 8.55013e-06 7.37119e-09
5.69954e-08 7.37119e-09 -2.84283e-05
0.00106041 -6.73875e-06 1.08005e-06
-6.73875e-06 4.26096e-05 -6.75317e-07
1.08005e-06 -6.75317e-07 -9.89349e-06
0.00246712 2.51014e-05 -1.01212e-05
2.51014e-05 0.000742039 3.26456e-06
-1.01212e-05 3.26456e-06 0.000759067
0.000894685 1.64184e-05 4.78096e-08
1.64184e-05 -3.21846e-05 1.92233e-08
4.78096e-08 1.92233e-08 -3.88165e-05
0.000994409 1.37731e-05 2.06546e-06
1.37731e-05 1.61705e-05 -1.55574e-06
2.06546e-06 -1.55574e-06 -1.8856e-05
0.00241633 2.28274e-05 1.42464e-07
2.28274e-05 0.000711513 5.25627e-08
1.42464e-07 5.25627e-08 0.000729707
0.000920591 1.50831e-05 3.50973e-06
1.50831e-05 -2.54568e-05 -2.72622e-06
3.50973e-06 -2.72622e-06 -3.07987e-05
0.00238677 2.05938e-05 9.53095e-06
2.05938e-05 0.000692034 -3.5073e-06
9.53095e-06 -3.5073e-06 0.000711155
0.00107084 1.57228e-05 -4.03407e-07
1.57228e-05 4.70691e-05 1.08262e-07
-4.03407e-07 1.08262e-07 -1.52474e-05
0.00113812 1.2268e-05 1.17091e-07
1.2268e-05 7.72273e-05 1.36583e-07
1.17091e-07 1.36583e-07 1.58358e-05
0.00094089 -4.40188e-06 -1.38604e-06
-4.40188e-06 -1.59337e-05 -7.36886e-07
-1.38604e-06 -7.36886e-07 -7.12299e-05
0.00102904 8.63489e-06 8.17421e-07
8.63489e-06 2.04087e-05 4.0628e-07
8.17421e-07 4.0628e-07 -4.23155e-05
0.00099504 -3.06924e-06 7.39207e-09
-3.06924e-06 6.74194e-06 6.32258e-08
7.39207e-09 6.32258e-08 -4.76215e-05
0.000993703 -1.18644e-05 -2.09733e-06
-1.18644e-05 9.63266e-06 -1.54446e-06
-2.09733e-06 -1.54446e-06 -2.64702e-05
0.0010464 7.51841e-07 1.18476e-06
7.51841e-07 2.91643e-05 9.38498e-07
1.18476e-06 9.38498e-07 -2.42746e-05
0.000988637 -9.53696e-06 -5.14867e-08
-9.53696e-06 2.8528e-06 2.20027e-08
-5.14867e-08 2.20027e-08 -3.2137e-05
0.000916625 -1.31524e-05 -3.33202e-06
-1.31524e-05 -3.17475e-05 -2.86099e-06
-3.33202e-06 -2.86099e-06 -3.78265e-05
0.0024592 -1.83708e-05 -9.36533e-06
-1.83708e-05 0.000723354 -3.74151e-06
-9.36533e-06 -3.74151e-06 0.000742532
0.000911196 -1.17362e-05 -8.84776e-08
-1.17362e-05 -3.80555e-05 2.8892e-08
-8.84776e-08 2.8892e-08 -4.33837e-05
0.000991164 -6.9623e-06 1.74986e-06
-6.9623e-06 1.19562e-06 1.82648e-06
1.74986e-06 1.82648e-06 -3.30121e-05
0.00247697 -1.62121e-05 -2.37538e-07
-1.62121e-05 0.000727598 4.40046e-08
-2.37538e-07 4.40046e-08 0.000747454
0.000907641 -1.05478e-05 2.36172e-06
-1.05478e-05 -4.2939e-05 3.12896e-06
2.36172e-06 3.12896e-06 -4.75069e-05
0.0024503 -1.40612e-05 7.44759e-06
-1.40612e-05 0.000709991 3.91991e-06
7.44759e-06 3.91991e-06 0.000730852
0.00536282 3.90258e-05 4.28566e-06
3.90258e-05 0.00152382 1.58496e-06
4.28566e-06 1.58496e-06 0.00119462
-0.00104531 -2.57634e-06 1.36281e-05
-2.57634e-06 -0.000430672 1.00148e-06
1.36281e-05 1.00148e-06 -0.000424443
0.000574998 -1.49253e-05 7.43269e-06
-1.49253e-05 0.000122769 1.74999e-06
7.43269e-06 1.74999e-06 0.000126974
0.00111007 2.59797e-05 9.43523e-07
2.59797e-05 5.61886e-05 -1.7814e-07
9.43523e-07 -1.7814e-07 -1.20923e-05
0.00114126 2.391e-05 4.37451e-07
2.391e-05 7.72166e-05 -1.56685e-07
4.37451e-07 -1.56685e-07 1.25905e-05
0.00116569 2.71792e-05 -4.90303e-09
2.71792e-05 8.68989e-05 1.6948e-09
-4.90303e-09 1.6948e-09 1.88656e-05
0.00115015 2.63068e-05 -1.24773e-08
2.63068e-05 8.40078e-05 -5.23164e-08
-1.24773e-08 -5.23164e-08 1.92666e-05
0.00116129 2.69559e-05 5.90317e-07
2.69559e-05 9.46962e-05 4.52047e-07
5.90317e-07 4.52047e-07 2.88258e-05
0.00104409 2.6555e-05 -4.98446e-07
2.6555e-05 3.4172e-05 5.09982e-07
-4.98446e-07 5.09982e-07 -3.32571e-05
0.00102825 2.58822e-05 3.66135e-07
2.58822e-05 2.51242e-05 -2.04903e-07
3.66135e-07 -2.04903e-07 -4.85558e-05
0.00101894 2.68493e-05 4.75521e-07
2.68493e-05 2.23144e-05 -1.18819e-07
4.75521e-07 -1.18819e-07 -4.79107e-05
0.00103311 2.9917e-05 5.41161e-07
2.9917e-05 3.56564e-05 -3.59244e-08
5.41161e-07 -3.59244e-08 -3.93898e-05
0.000850952 2.95526e-05 2.10058e-07
2.95526e-05 -5.59178e-05 2.81508e-07
2.10058e-07 2.81508e-07 -0.000125926
0.00200363 4.51163e-05 7.06517e-07
4.51163e-05 0.000479843 8.20027e-07
7.06517e-07 8.20027e-07 0.00040856
0.0013979 5.31375e-05 6.07006e-07
5.31375e-05 0.000160294 -2.76427e-06
6.07006e-07 -2.76427e-06 6.57707e-05
0.00115404 3.64361e-05 -1.7394e-08
3.64361e-05 9.34742e-05 3.97775e-07
-1.7394e-08 3.97775e-07 2.16922e-05
0.00111625 2.81016e-05 -4.36709e-07
2.81016e-05 6.69585e-05 -1.83363e-06
-4.36709e-07 -1.83363e-06 -7.68028e-06
0.000646206 -6.59115e-06 -2.60454e-05
-6.59115e-06 7.87045e-05 -9.75477e-06
-2.60454e-05 -9.75477e-06 1.40666e-05
0.0032001 -1.33111e-05 -1.86909e-05
-1.33111e-05 0.000445743 -2.67763e-06
-1.86909e-05 -2.67763e-06 9.02348e-05
0.00178225 -7.93613e-05 -2.01916e-05
-7.93613e-05 0.000715835 -8.10447e-06
-2.01916e-05 -8.10447e-06 0.000634093
0.0033048 -2.68452e-05 3.54957e-05
-2.68452e-05 0.000282288 6.30737e-06
3.54957e-05 6.30737e-06 -0.00026452
0.00192991 8.04704e-05 1.56984e-05
8.04704e-05 0.000654177 2.71504e-05
1.56984e-05 2.71504e-05 0.00053075
0.000575683 4.10535e-05 -7.98456e-06
4.10535e-05 -7.17443e-05 -2.23646e-06
-7.98456e-06 -2.23646e-06 -0.000166531
0.0013407 1.54112e-05 1.74455e-05
1.54112e-05 -3.29637e-05 6.98695e-06
1.74455e-05 6.98695e-06 -0.000108795
0.00076295 5.91321e-05 7.91219e-07
5.91321e-05 -0.00012037 2.62671e-06
7.91219e-07 2.62671e-06 -0.000229285
0.000358098 4.00535e-05 3.20034e-07
4.00535e-05 -0.000220266 4.56408e-07
3.20034e-07 4.56408e-07 -0.000317105
0.00114752 8.44705e-05 -1.87739e-05
8.44705e-05 -4.05354e-05 -2.003e-05
-1.87739e-05 -2.003e-05 -6.03817e-05
0.00111746 1.99887e-05 -8.18118e-05
1.99887e-05 5.45156e-05 -5.49919e-06
-8.18118e-05 -5.49919e-06 -0.000125699
0.00499521 5.00362e-05 1.7945e-05
5.00362e-05 0.00144875 -1.50884e-06
1.7945e-05 -1.50884e-06 0.00115246
-0.00364251 1.95532e-06 -5.62808e-05
1.95532e-06 -0.0019805 2.53633e-06
-5.62808e-05 2.53633e-06 -0.00192603
0.00212139 -3.7604e-05 -7.05474e-06
-3.7604e-05 2.84078e-05 4.88328e-06
-7.05474e-06 4.88328e-06 0.000117052
0.000385713 3.23044e-05 2.20513e-05
3.23044e-05 0.000146385 -1.04107e-05
2.20513e-05 -1.04107e-05 -0.000130144
0.000703974 -3.16441e-05 1.78261e-05
-3.16441e-05 -0.000201329 9.25421e-07
1.78261e-05 9.25421e-07 -0.00052632
0.00186957 -2.64113e-05 -2.78962e-06
-2.64113e-05 -0.000151641 1.90918e-06
-2.78962e-06 1.90918e-06 -3.56653e-05
0.000972293 5.22906e-05 4.48029e-06
5.22906e-05 0.000141309 -2.64892e-06
4.48029e-06 -2.64892e-06 -5.41462e-06
0.00220136 1.96033e-05 6.56178e-06
1.96033e-05 0.000162598 -8.72922e-06
6.56178e-06 -8.72922e-06 0.000237652
0.000848651 4.64878e-05 3.41662e-06
4.64878e-05 -3.92187e-05 -3.80078e-06
3.41662e-06 -3.80078e-06 -9.79243e-05
0.0014028 -7.20769e-05 5.40486e-06
-7.20769e-05 -6.25707e-06 1.8492e-07
5.40486e-06 1.8492e-07 -2.20053e-05
0.00148699 -3.1844e-05 2.7243e-06
-3.1844e-05 -2.28908e-05 -1.12128e-07
2.7243e-06 -1.12128e-07 -5.59918e-06
0.00158963 6.74874e-06 1.40037e-06
6.74874e-06 8.99026e-05 2.34549e-06
1.40037e-06 2.34549e-06 8.64345e-05
0.00097726 -3.41649e-05 3.32124e-06
-3.41649e-05 -0.000174768 1.91584e-06
3.32124e-06 1.91584e-06 -0.000188046
0.00141028 -1.89402e-05 1.09883e-06
-1.89402e-05 3.17321e-05 7.34798e-07
1.09883e-06 7.34798e-07 2.17873e-05
0.00134238 -3.86981e-06 1.5401e-06
-3.86981e-06 2.71228e-05 1.46189e-06
1.5401e-06 1.46189e-06 -5.07977e-06
0.00125818 -2.57721e-05 7.06031e-07
-2.57721e-05 -1.20223e-06 2.22354e-06
7.06031e-07 2.22354e-06 -3.23067e-05
0.00131257 -1.75114e-05 1.54645e-07
-1.75114e-05 3.5566e-05 5.27212e-07
1.54645e-07 5.27212e-07 1.7592e-06
0.0013345 -1.11802e-05 5.66192e-07
-1.11802e-05 5.65908e-05 7.77283e-07
5.66192e-07 7.77283e-07 1.02477e-05
0.00133539 -2.38509e-05 -2.21074e-07
-2.38509e-05 6.79477e-05 1.27228e-06
-2.21074e-07 1.27228e-06 2.42532e-05
0.00125754 -1.96047e-05 -2.82136e-07
-1.96047e-05 4.06528e-05 -1.38031e-08
-2.82136e-07 -1.38031e-08 -5.24058e-06
0.00125601 -1.97834e-05 8.54517e-07
-1.97834e-05 4.97246e-05 3.28296e-07
8.54517e-07 3.28296e-07 -4.28865e-06
0.0011948 -2.22468e-05 -7.1734e-07
-2.22468e-05 2.09733e-05 8.13824e-07
-7.1734e-07 8.13824e-07 -2.62206e-05
0.00125064 -2.22234e-05 -3.65429e-07
-2.22234e-05 5.3318e-05 -2.87862e-07
-3.65429e-07 -2.87862e-07 8.0419e-07
0.00130581 -2.32657e-05 1.65483e-07
-2.32657e-05 8.68673e-05 -2.86873e-07
1.65483e-07 -2.86873e-07 2.96187e-05
0.00128316 -2.60423e-05 3.25516e-07
-2.60423e-05 7.38212e-05 7.58594e-07
3.25516e-07 7.58594e-07 1.72497e-05
0.0012646 -2.5486e-05 8.31554e-08
-2.5486e-05 7.27145e-05 -2.20785e-07
8.31554e-08 -2.20785e-07 1.37749e-05
0.00125372 -2.40472e-05 -4.85174e-07
-2.40472e-05 7.89305e-05 -5.99399e-08
-4.85174e-07 -5.99399e-08 2.04052e-05
0.000957755 -1.76187e-05 -1.51116e-06
-1.76187e-05 -3.11573e-05 8.7234e-07
-1.51116e-06 8.7234e-07 -8.77742e-05
0.00112802 -2.5799e-05 -2.0784e-07
-2.5799e-05 3.34237e-05 1.10068e-07
-2.0784e-07 1.10068e-07 -2.80141e-05
0.00124483 -2.86489e-05 8.23472e-07
-2.86489e-05 7.76328e-05 -2.55503e-07
8.23472e-07 -2.55503e-07 1.31361e-05
0.000969574 4.93895e-06 -2.13372e-06
4.93895e-06 1.11867e-05 1.49976e-06
-2.13372e-06 1.49976e-06 -3.19726e-05
0.00107565 -1.60656e-05 1.95533e-08
-1.60656e-05 4.13047e-05 6.87042e-08
1.95533e-08 6.87042e-08 -1.41222e-05
0.00113071 -2.72118e-05 4.9201e-07
-2.72118e-05 5.47964e-05 -5.08771e-07
4.9201e-07 -5.08771e-07 -7.41155e-06
0.000828896 1.82038e-05 -4.11734e-06
1.82038e-05 -5.07695e-05 2.446e-06
-4.11734e-06 2.446e-06 -6.14957e-05
0.000975013 8.36251e-06 1.41322e-08
8.36251e-06 1.20147e-05 -2.87546e-08
1.41322e-08 -2.87546e-08 -2.75962e-05
0.00107738 -1.13866e-05 9.97718e-07
-1.13866e-05 4.87298e-05 -8.26829e-07
9.97718e-07 -8.26829e-07 -5.02424e-06
0.00249091 2.72373e-05 -1.04189e-05
2.72373e-05 0.000761093 3.11581e-06
-1.04189e-05 3.11581e-06 0.000776686
0.000881763 1.74954e-05 6.22461e-08
1.74954e-05 -3.22021e-05 2.6448e-08
6.22461e-08 2.6448e-08 -4.07228e-05
0.000987975 1.15792e-05 2.1687e-06
1.15792e-05 1.54204e-05 -1.41962e-06
2.1687e-06 -1.41962e-06 -2.14655e-05
0.00241697 2.49932e-05 1.5022e-07
2.49932e-05 0.000718561 5.88655e-08
1.5022e-07 5.88655e-08 0.000735597
0.000918648 1.65005e-05 3.76226e-06
1.65005e-05 -2.05914e-05 -2.61903e-06
3.76226e-06 -2.61903e-06 -2.73495e-05
0.00236458 2.27608e-05 9.79463e-06
2.27608e-05 0.000687056 -3.36251e-06
9.79463e-06 -3.36251e-06 0.000705334
0.00111352 2.01251e-05 -4.86703e-07
2.01251e-05 7.02718e-05 -1.63366e-07
-4.86703e-07 -1.63366e-07 7.42632e-06
0.00114502 1.68195e-05 4.83187e-08
1.68195e-05 8.29594e-05 5.06455e-08
4.83187e-08 5.06455e-08 2.10861e-05
0.000953562 -2.09397e-06 -1.18155e-06
-2.09397e-06 -4.72098e-06 -5.65194e-07
-1.18155e-06 -5.65194e-07 -6.10729e-05
0.00112719 1.2751e-05 5.70773e-07
1.2751e-05 7.24781e-05 9.81916e-08
5.70773e-07 9.81916e-08 1.10753e-05
0.000943271 -4.47165e-06 -1.77897e-07
-4.47165e-06 -1.37549e-05 -1.48926e-07
-1.77897e-07 -1.48926e-07 -6.92254e-05
0.000987376 -1.27399e-05 -2.17146e-06
-1.27399e-05 1.1609e-05 -1.3811e-06
-2.17146e-06 -1.3811e-06 -2.60205e-05
0.000937154 -3.92677e-06 1.18241e-06
-3.92677e-06 -2.09957e-05 8.25574e-07
1.18241e-06 8.25574e-07 -7.58834e-05
0.000982213 -1.17615e-05 -9.74787e-09
-1.17615e-05 3.86989e-06 2.23178e-08
-9.74787e-09 2.23178e-08 -3.2186e-05
0.000911975 -1.46906e-05 -3.58601e-06
-1.46906e-05 -2.95272e-05 -2.72148e-06
-3.58601e-06 -2.72148e-06 -3.6579e-05
0.000981856 -8.88163e-06 2.00777e-06
-8.88163e-06 -7.73071e-07 1.74592e-06
2.00777e-06 1.74592e-06 -3.56963e-05
0.000903935 -1.30742e-05 -6.7633e-08
-1.30742e-05 -3.81337e-05 3.45076e-08
-6.7633e-08 3.45076e-08 -4.41172e-05
0.00244743 -2.05617e-05 -9.7382e-06
-2.05617e-05 0.00072221 -3.58954e-06
-9.7382e-06 -3.58954e-06 0.000740679
0.00249304 -1.83791e-05 -1.97647e-07
-1.83791e-05 0.000739538 4.93778e-08
-1.97647e-07 4.93778e-08 0.000758633
0.000899401 -1.16824e-05 2.77097e-06
-1.16824e-05 -4.39301e-05 3.04178e-06
2.77097e-06 3.04178e-06 -4.91781e-05
0.00249739 -1.6228e-05 8.45572e-06
-1.6228e-05 0.00073722 3.8853e-06
8.45572e-06 3.8853e-06 0.000757062
0.000273781 -1.85047e-05 -3.62238e-05
-1.85047e-05 -0.000159847 -6.01575e-06
-3.62238e-05 -6.01575e-06 -0.000223074
0.00164135 3.65274e-05 -1.37013e-05
3.65274e-05 -0.000239947 -4.57522e-06
-1.37013e-05 -4.57522e-06 -0.000549579
0.00273329 -5.52225e-05 -1.89423e-05
-5.52225e-05 0.0010351 -3.79756e-06
-1.89423e-05 -3.79756e-06 0.000995289
0.00119787 2.91671e-05 1.20398e-06
2.91671e-05 0.000106192 4.44338e-07
1.20398e-06 4.44338e-07 3.93563e-05
0.00118695 2.7448e-05 5.1002e-07
2.7448e-05 9.74766e-05 -3.08088e-07
5.1002e-07 -3.08088e-07 2.95638e-05
0.00114471 2.65014e-05 3.03134e-07
2.65014e-05 8.13497e-05 -2.35512e-07
3.03134e-07 -2.35512e-07 1.66895e-05
0.00111588 2.73845e-05 1.29466e-08
2.73845e-05 6.84636e-05 -1.13318e-08
1.29466e-08 -1.13318e-08 9.406e-07
0.00112804 2.70456e-05 -1.77083e-07
2.70456e-05 7.97278e-05 -1.95741e-07
-1.77083e-07 -1.95741e-07 1.36146e-05
0.00095965 2.81423e-05 -5.56669e-07
2.81423e-05 2.3278e-07 6.24482e-07
-5.56669e-07 6.24482e-07 -6.52683e-05
0.00116577 2.82517e-05 9.91012e-07
2.82517e-05 9.23854e-05 -7.28775e-07
9.91012e-07 -7.28775e-07 2.19887e-05
0.00103463 3.00332e-05 1.22625e-07
3.00332e-05 4.1426e-05 -1.74139e-06
1.22625e-07 -1.74139e-06 -3.35039e-05
0.00109791 3.20658e-05 -6.87413e-08
3.20658e-05 6.06823e-05 -2.56558e-08
-6.87413e-08 -2.56558e-08 -9.20662e-06
0.00149985 3.98462e-05 4.10515e-08
3.98462e-05 0.000253151 -1.04512e-07
4.10515e-08 -1.04512e-07 0.000183554
0.00129261 4.41857e-05 6.52482e-07
4.41857e-05 0.000113796 -1.98805e-06
6.52482e-07 -1.98805e-06 3.43672e-05
0.0015689 5.01546e-05 -5.97533e-06
5.01546e-05 0.000112427 -9.18288e-07
-5.97533e-06 -9.18288e-07 8.14988e-06
0.00117225 4.95937e-05 1.99679e-06
4.95937e-05 6.15868e-05 2.00762e-06
1.99679e-06 2.00762e-06 -3.03287e-05
0.000882442 3.32223e-05 -8.69144e-07
3.32223e-05 -4.1521e-05 1.0128e-06
-8.69144e-07 1.0128e-06 -0.000113543
0.00161503 -3.94255e-05 7.11359e-06
-3.94255e-05 -9.56832e-05 6.99188e-06
7.11359e-06 6.99188e-06 -0.000152558
0.000719403 1.14793e-05 2.48907e-06
1.14793e-05 -0.000106691 9.38791e-07
2.48907e-06 9.38791e-07 -0.000215215
0.000549457 -1.92352e-05 -2.83282e-05
-1.92352e-05 -0.00050408 -1.92879e-05
-2.83282e-05 -1.92879e-05 -0.000787041
0.00275132 8.16061e-05 1.33815e-05
8.16061e-05 0.000506828 2.65014e-05
1.33815e-05 2.65014e-05 0.00032479
0.00168222 2.51643e-05 7.29196e-06
2.51643e-05 6.2827e-05 1.4873e-06
7.29196e-06 1.4873e-06 -3.43779e-05
-0.000149588 5.63561e-05 2.84865e-07
5.63561e-05 -0.000569505 7.86107e-06
2.84865e-07 7.86107e-06 -0.000676813
0.0017212 -2.58426e-06 8.04416e-06
-2.58426e-06 0.000501581 -4.05312e-06
8.04416e-06 -4.05312e-06 0.000455633
0.000226658 7.19934e-06 -1.48375e-05
7.19934e-06 -2.35469e-05 -3.82903e-07
-1.48375e-05 -3.82903e-07 -0.000114872
0.000994735 0.000100363 5.39885e-05
0.000100363 -0.000625155 -6.03088e-06
5.39885e-05 -6.03088e-06 -0.000895593
0.00157321 -3.87667e-05 9.74873e-07
-3.87667e-05 -0.000262015 4.8999e-06
9.74873e-07 4.8999e-06 -0.000163615
0.00069771 3.58987e-05 3.36963e-05
3.58987e-05 -0.000158894 -1.02479e-05
3.36963e-05 -1.02479e-05 -0.000361977
0.00193992 6.86123e-06 3.38793e-06
6.86123e-06 4.96996e-05 4.84564e-07
3.38793e-06 4.84564e-07 0.000105337
0.00099863 4.98244e-05 9.23768e-07
4.98244e-05 3.53504e-05 -2.54822e-06
9.23768e-07 -2.54822e-06 -2.57541e-05
0.00120354 4.37186e-05 -1.99104e-06
4.37186e-05 -9.15686e-05 1.12363e-06
-1.99104e-06 1.12363e-06 -0.000145271
0.000379335 3.09822e-05 -1.54297e-06
3.09822e-05 -0.000388684 -4.00246e-06
-1.54297e-06 -4.00246e-06 -0.000464045
0.00132848 -3.02961e-05 4.34093e-06
-3.02961e-05 -9.74988e-05 5.21771e-07
4.34093e-06 5.21771e-07 -7.52956e-05
0.0014906 5.0584e-06 7.66826e-07
5.0584e-06 5.25983e-05 3.75301e-07
7.66826e-07 3.75301e-07 4.31373e-05
0.00154479 1.97652e-05 3.16352e-07
1.97652e-05 0.000141714 7.17044e-07
3.16352e-07 7.17044e-07 9.41938e-05
0.00153212 -1.93318e-05 -9.6159e-07
-1.93318e-05 9.6744e-05 7.47782e-07
-9.6159e-07 7.47782e-07 8.39929e-05
0.00145293 -4.09333e-06 -4.43839e-07
-4.09333e-06 8.33689e-05 -1.43424e-07
-4.43839e-07 -1.43424e-07 4.9921e-05
0.00141339 2.47997e-06 8.20387e-07
2.47997e-06 8.12149e-05 1.04265e-06
8.20387e-07 1.04265e-06 2.95315e-05
0.00138885 -1.804e-05 -1.55013e-06
-1.804e-05 7.54532e-05 9.01668e-08
-1.55013e-06 9.01668e-08 4.02501e-05
0.00133606 -1.23158e-05 -7.24765e-07
-1.23158e-05 6.23699e-05 -4.88746e-07
-7.24765e-07 -4.88746e-07 1.61492e-05
0.00127693 -1.37215e-05 4.34034e-07
-1.37215e-05 4.45703e-05 9.36249e-07
4.34034e-07 9.36249e-07 -1.35256e-05
0.00126698 -2.05476e-05 -1.32923e-06
-2.05476e-05 4.83116e-05 -5.72554e-07
-1.32923e-06 -5.72554e-07 2.13043e-06
0.0012524 -1.95054e-05 5.81785e-08
-1.95054e-05 4.84139e-05 -2.40989e-07
5.81785e-08 -2.40989e-07 -5.60886e-06
0.00125351 -2.12394e-05 2.40688e-07
-2.12394e-05 5.64795e-05 2.31927e-07
2.40688e-07 2.31927e-07 -2.36005e-06
0.00118114 -2.14975e-05 -8.63413e-07
-2.14975e-05 1.96944e-05 3.39429e-07
-8.63413e-07 3.39429e-07 -3.19988e-05
0.00123621 -2.22356e-05 -8.63057e-08
-2.22356e-05 5.26713e-05 -2.04352e-07
-8.63057e-08 -2.04352e-07 -4.07353e-06
0.00119968 -2.14233e-05 -4.22555e-07
-2.14233e-05 4.55012e-05 -1.40229e-08
-4.22555e-07 -1.40229e-08 -1.28222e-05
0.00126101 -2.54041e-05 4.89427e-07
-2.54041e-05 7.07933e-05 1.8524e-07
4.89427e-07 1.8524e-07 1.1716e-05
0.0011842 -2.34391e-05 1.14171e-07
-2.34391e-05 4.51386e-05 -1.39569e-07
1.14171e-07 -1.39569e-07 -1.36998e-05
0.00114314 -1.85737e-05 -1.11098e-06
-1.85737e-05 4.40925e-05 4.60551e-07
-1.11098e-06 4.60551e-07 -1.16907e-05
0.00099071 -4.40617e-07 -2.30894e-06
-4.40617e-07 1.64931e-05 1.38709e-06
-2.30894e-06 1.38709e-06 -2.95478e-05
0.00102749 -1.77722e-05 -3.38788e-07
-1.77722e-05 3.99531e-06 2.4246e-07
-3.38788e-07 2.4246e-07 -5.23025e-05
0.00118943 -2.64483e-05 6.34517e-07
-2.64483e-05 6.47225e-05 -3.30396e-07
6.34517e-07 -3.30396e-07 3.46307e-06
0.000798432 1.8784e-05 -4.30345e-06
1.8784e-05 -5.87645e-05 2.41142e-06
-4.30345e-06 2.41142e-06 -7.24397e-05
0.000980027 2.96011e-06 6.62202e-08
2.96011e-06 1.43459e-05 1.61612e-08
6.62202e-08 1.61612e-08 -2.86049e-05
0.00107989 -1.52902e-05 1.07783e-06
-1.52902e-05 4.33798e-05 -7.74176e-07
1.07783e-06 -7.74176e-07 -1.20185e-05
0.00253687 2.93039e-05 -1.07691e-05
2.93039e-05 0.000791635 2.96142e-06
-1.07691e-05 2.96142e-06 0.000805533
0.000865187 1.83385e-05 2.14658e-08
1.83385e-05 -3.33146e-05 6.32015e-09
2.14658e-08 6.32015e-09 -4.42313e-05
0.000993486 6.57625e-06 2.18413e-06
6.57625e-06 1.94323e-05 -1.42206e-06
2.18413e-06 -1.42206e-06 -2.00247e-05
0.00244313 2.70817e-05 1.60839e-07
2.70817e-05 0.000738896 6.69667e-08
1.60839e-07 6.69667e-08 0.000754449
0.000908608 1.75785e-05 4.06351e-06
1.75785e-05 -1.92593e-05 -2.48654e-06
4.06351e-06 -2.48654e-06 -2.79207e-05
0.00236825 2.48757e-05 1.01148e-05
2.48757e-05 0.000695758 -3.2298e-06
1.01148e-05 -3.2298e-06 0.000712801
0.00105004 2.39479e-05 -3.90163e-07
2.39479e-05 3.67229e-05 -2.54852e-07
-3.90163e-07 -2.54852e-07 -2.72862e-05
0.00109272 2.021e-05 -7.38517e-08
2.021e-05 6.00794e-05 -1.3135e-07
-7.38517e-08 -1.3135e-07 -2.66988e-06
0.00106633 4.10002e-06 -9.40824e-07
4.10002e-06 5.18535e-05 -3.16806e-07
-9.40824e-07 -3.16806e-07 -4.98123e-06
0.00122093 1.80605e-05 4.08331e-07
1.80605e-05 0.000119674 -1.34072e-07
4.08331e-07 -1.34072e-07 5.82359e-05
0.000997612 -1.78824e-06 -1.775e-07
-1.78824e-06 1.74091e-05 -1.28445e-07
-1.775e-07 -1.28445e-07 -3.87353e-05
0.000983107 -1.20748e-05 -2.18307e-06
-1.20748e-05 1.49125e-05 -1.24046e-06
-2.18307e-06 -1.24046e-06 -2.47818e-05
0.000945503 -4.5408e-06 9.09771e-07
-4.5408e-06 -1.16406e-05 4.01293e-07
9.09771e-07 4.01293e-07 -6.72859e-05
0.000973626 -1.31815e-05 -1.69085e-08
-1.31815e-05 5.03644e-06 2.32396e-08
-1.69085e-08 2.32396e-08 -3.26008e-05
0.000905801 -1.6258e-05 -3.82359e-06
-1.6258e-05 -2.66153e-05 -2.56271e-06
-3.82359e-06 -2.56271e-06 -3.51479e-05
0.000970635 -1.18079e-05 2.1226e-06
-1.18079e-05 -1.92398e-06 1.63218e-06
2.1226e-06 1.63218e-06 -3.79391e-05
0.00089635 -1.45953e-05 -4.03068e-08
-1.45953e-05 -3.73341e-05 3.01201e-08
-4.03068e-08 3.01201e-08 -4.42714e-05
0.0024334 -2.27647e-05 -9.99625e-06
-2.27647e-05 0.000721131 -3.43111e-06
-9.99625e-06 -3.43111e-06 0.000738674
0.000891319 -1.29954e-05 3.14174e-06
-1.29954e-05 -4.45004e-05 2.93453e-06
3.14174e-06 2.93453e-06 -5.03864e-05
0.00249396 -2.05846e-05 -1.72055e-07
-2.05846e-05 0.000744422 5.50599e-08
-1.72055e-07 5.50599e-08 0.000762783
0.00252637 -1.84006e-05 9.23828e-06
-1.84006e-05 0.000755482 3.79175e-06
9.23828e-06 3.79175e-06 0.000774493
0.00117708 -5.57536e-05 8.73453e-06
-5.57536e-05 -0.000154624 7.20904e-07
8.73453e-06 7.20904e-07 -0.000177224
0.0011653 5.15174e-06 -6.79634e-06
5.15174e-06 2.02414e-05 5.71236e-06
-6.79634e-06 5.71236e-06 -0.00012236
0.00441966 4.22484e-05 -4.75339e-05
4.22484e-05 0.00112901 -1.6732e-05
-4.75339e-05 -1.6732e-05 0.00081874
0.00097524 2.80466e-05 6.37575e-07
2.80466e-05 -7.43502e-07 4.95894e-07
6.37575e-07 4.95894e-07 -6.62242e-05
0.0013029 3.2937e-05 8.44065e-07
3.2937e-05 0.000131154 -4.79567e-07
8.44065e-07 -4.79567e-07 6.20631e-05
0.00101546 2.77427e-05 2.48119e-07
2.77427e-05 2.35197e-05 -6.12178e-08
2.48119e-07 -6.12178e-08 -4.33818e-05
0.00118541 2.81964e-05 3.54587e-07
2.81964e-05 0.000101473 -5.94919e-07
3.54587e-07 -5.94919e-07 3.38835e-05
0.00110216 2.72324e-05 -1.55859e-07
2.72324e-05 6.81906e-05 -3.08338e-07
-1.55859e-07 -3.08338e-07 1.83284e-06
0.00109385 2.98734e-05 1.21233e-07
2.98734e-05 6.23731e-05 3.05032e-07
1.21233e-07 3.05032e-07 -3.30223e-06
0.00124297 3.95094e-05 -4.26386e-07
3.95094e-05 8.00127e-05 -1.01581e-06
-4.26386e-07 -1.01581e-06 4.71155e-06
0.00132865 3.44111e-05 7.02239e-07
3.44111e-05 0.000169691 -2.45023e-07
7.02239e-07 -2.45023e-07 9.99244e-05
0.000997763 3.45955e-05 -2.90484e-06
3.45955e-05 2.7153e-05 -1.0183e-06
-2.90484e-06 -1.0183e-06 -4.07445e-05
0.00117275 4.31128e-05 1.75211e-07
4.31128e-05 5.73653e-05 -3.56465e-08
1.75211e-07 -3.56465e-08 -2.28514e-05
0.0012064 4.18175e-05 1.03188e-07
4.18175e-05 -3.14033e-05 -1.22043e-06
1.03188e-07 -1.22043e-06 -0.000124045
0.0016505 6.88343e-06 -3.39782e-06
6.88343e-06 0.000107534 3.20962e-06
-3.39782e-06 3.20962e-06 4.23283e-05
0.00165244 4.8657e-05 -2.09236e-06
4.8657e-05 0.000152594 8.9127e-07
-2.09236e-06 8.9127e-07 5.13e-05
0.000937967 4.61137e-05 6.67417e-07
4.61137e-05 -4.0545e-05 5.65555e-06
6.67417e-07 5.65555e-06 -0.000129881
0.00189702 -3.46702e-05 1.13872e-06
-3.46702e-05 4.07721e-05 -2.89441e-07
1.13872e-06 -2.89441e-07 -1.68779e-05
0.00120074 6.29716e-06 6.0456e-05
6.29716e-06 -4.27838e-05 1.71434e-05
6.0456e-05 1.71434e-05 -0.000200044
0.00216928 3.53451e-05 -6.71863e-06
3.53451e-05 0.000230983 -1.07073e-07
-6.71863e-06 -1.07073e-07 0.000111585
0.00140812 7.2319e-06 -5.0027e-07
7.2319e-06 0.000133528 -3.08655e-06
-5.0027e-07 -3.08655e-06 8.63722e-05
0.000972199 -9.12501e-06 3.15984e-06
-9.12501e-06 0.000122567 -6.90531e-07
3.15984e-06 -6.90531e-07 8.81865e-05
0.000863298 3.51089e-05 3.59979e-05
3.51089e-05 -0.000128279 1.99499e-06
3.59979e-05 1.99499e-06 -0.00025223
0.00155644 -6.6371e-06 6.4781e-06
-6.6371e-06 -0.0001178 -9.034e-07
6.4781e-06 -9.034e-07 -8.32239e-05
0.00100194 5.16926e-05 -4.64519e-06
5.16926e-05 4.52316e-05 2.81821e-07
-4.64519e-06 2.81821e-07 -1.71339e-05
0.00152437 4.55395e-05 -2.11049e-06
4.55395e-05 5.78929e-05 1.42425e-06
-2.11049e-06 1.42425e-06 8.28192e-06
0.00110608 3.72042e-05 3.67882e-07
3.72042e-05 -3.41452e-05 1.3759e-06
3.67882e-07 1.3759e-06 -0.00010652
0.00131374 3.42311e-05 -1.35342e-06
3.42311e-05 5.7264e-05 -1.45849e-06
-1.35342e-06 -1.45849e-06 -1.15111e-05
0.00136056 3.10684e-05 -6.2601e-07
3.10684e-05 0.000133566 -1.9455e-06
-6.2601e-07 -1.9455e-06 7.71022e-05
0.00133335 3.12536e-06 -3.72297e-07
3.12536e-06 -1.3415e-05 -1.41438e-06
-3.72297e-07 -1.41438e-06 -2.87426e-05
0.00143787 1.83265e-05 -6.49986e-07
1.83265e-05 9.07856e-05 -1.43065e-06
-6.49986e-07 -1.43065e-06 4.42307e-05
0.00148142 2.3819e-05 -1.54684e-07
2.3819e-05 0.000118162 3.61372e-07
-1.54684e-07 3.61372e-07 5.51431e-05
0.00148814 -4.28482e-06 -3.28609e-06
-4.28482e-06 0.000103017 -1.16147e-06
-3.28609e-06 -1.16147e-06 6.85953e-05
0.00138176 2.51067e-06 -2.09442e-07
2.51067e-06 6.8617e-05 -2.22565e-07
-2.09442e-07 -2.22565e-07 1.66568e-05
0.00124717 1.93281e-06 1.0401e-07
1.93281e-06 1.44626e-05 9.42125e-07
1.0401e-07 9.42125e-07 -4.75828e-05
0.00132426 -1.33329e-05 -2.28283e-06
-1.33329e-05 6.1629e-05 -1.26358e-06
-2.28283e-06 -1.26358e-06 1.55759e-05
0.001285 -1.32366e-05 1.20079e-07
-1.32366e-05 4.85009e-05 -1.01366e-07
1.20079e-07 -1.01366e-07 -9.59802e-06
0.00127266 -1.63887e-05 2.12669e-08
-1.63887e-05 5.25451e-05 6.34139e-07
2.12669e-08 6.34139e-07 -9.86874e-06
0.00124995 -1.92029e-05 -7.1668e-07
-1.92029e-05 4.76375e-05 -8.08486e-07
-7.1668e-07 -8.08486e-07 -6.39302e-06
0.00125203 -2.0863e-05 1.03578e-08
-2.0863e-05 5.55093e-05 -1.67645e-07
1.03578e-08 -1.67645e-07 -3.30205e-06
0.00122951 -2.10522e-05 -3.26295e-07
-2.10522e-05 5.48775e-05 2.4743e-07
-3.26295e-07 2.4743e-07 -5.21128e-06
0.00116602 -2.12686e-05 -1.57068e-07
-2.12686e-05 1.81958e-05 2.42014e-08
-1.57068e-07 2.42014e-08 -3.80468e-05
0.00116694 -2.10335e-05 -1.00045e-07
-2.10335e-05 2.94403e-05 -9.79582e-08
-1.00045e-07 -9.79582e-08 -2.87763e-05
0.00116381 -1.75858e-05 -1.06892e-06
-1.75858e-05 4.59711e-05 3.30461e-07
-1.06892e-06 3.30461e-07 -9.95889e-06
0.00111624 -2.28615e-05 8.49305e-07
-2.28615e-05 1.2111e-05 -2.10653e-07
8.49305e-07 -2.10653e-07 -4.70463e-05
0.00105864 -1.73819e-05 -2.49532e-08
-1.73819e-05 4.08047e-06 2.66557e-08
-2.49532e-08 2.66557e-08 -5.18871e-05
0.00100456 -2.2455e-06 -2.38756e-06
-2.2455e-06 1.57164e-05 1.11152e-06
-2.38756e-06 1.11152e-06 -3.19905e-05
0.000823052 1.95621e-05 -4.56149e-06
1.95621e-05 -4.2165e-05 2.35032e-06
-4.56149e-06 2.35032e-06 -5.8892e-05
0.000986781 -1.50654e-06 3.78871e-08
-1.50654e-06 1.28882e-05 7.89698e-08
3.78871e-08 7.89698e-08 -3.29002e-05
0.00110187 -1.79992e-05 7.98574e-07
-1.79992e-05 4.1287e-05 -4.15712e-07
7.98574e-07 -4.15712e-07 -1.46903e-05
0.00261168 3.13725e-05 -1.11168e-05
3.13725e-05 0.000836212 2.81505e-06
-1.11168e-05 2.81505e-06 0.000848195
0.000844883 1.89972e-05 4.27299e-08
1.89972e-05 -3.64067e-05 -3.6986e-10
4.27299e-08 -3.6986e-10 -5.032e-05
0.000992053 1.1723e-06 2.27166e-06
1.1723e-06 1.82734e-05 -1.38034e-06
2.27166e-06 -1.38034e-06 -2.44694e-05
0.0024931 2.91312e-05 1.40031e-07
2.91312e-05 0.000771345 6.96354e-08
1.40031e-07 6.96354e-08 0.000785163
0.000900328 1.84576e-05 4.27204e-06
1.84576e-05 -1.63982e-05 -2.41681e-06
4.27204e-06 -2.41681e-06 -2.75048e-05
0.00239569 2.69311e-05 1.04709e-05
2.69311e-05 0.000716837 -3.07688e-06
1.04709e-05 -3.07688e-06 0.000732353
0.000910893 2.59208e-05 -3.99216e-07
2.59208e-05 -4.03488e-05 -4.93913e-07
-3.99216e-07 -4.93913e-07 -0.000107252
0.000965899 2.34834e-05 -3.84002e-08
2.34834e-05 -4.20411e-06 -8.36117e-08
-3.84002e-08 -8.36117e-08 -6.85687e-05
0.00109389 1.13382e-05 -9.9907e-07
1.13382e-05 6.06755e-05 -2.6086e-07
-9.9907e-07 -2.6086e-07 2.93034e-06
0.00107152 2.0233e-05 1.89907e-07
2.0233e-05 4.96985e-05 -1.95681e-07
1.89907e-07 -1.95681e-07 -1.29532e-05
0.00104095 3.37706e-06 3.78942e-09
3.37706e-06 4.02563e-05 2.16596e-08
3.78942e-09 2.16596e-08 -1.66146e-05
0.000984675 -1.00177e-05 -2.22854e-06
-1.00177e-05 1.99129e-05 -1.08333e-06
-2.22854e-06 -1.08333e-06 -2.21718e-05
0.0010416 -1.48104e-06 8.34796e-07
-1.48104e-06 3.951e-05 2.56934e-07
8.34796e-07 2.56934e-07 -1.6425e-05
0.000966375 -1.28823e-05 -7.81405e-09
-1.28823e-05 7.37225e-06 8.19359e-09
-7.81405e-09 8.19359e-09 -3.23914e-05
0.000897579 -1.7701e-05 -4.03196e-06
-1.7701e-05 -2.31172e-05 -2.40609e-06
-4.03196e-06 -2.40609e-06 -3.36971e-05
0.000959624 -1.35733e-05 2.1724e-06
-1.35733e-05 -1.64491e-06 1.50011e-06
2.1724e-06 1.50011e-06 -3.92903e-05
0.000886285 -1.61496e-05 -3.92862e-08
-1.61496e-05 -3.62229e-05 2.93546e-08
-3.92862e-08 2.93546e-08 -4.4628e-05
0.00242782 -2.49255e-05 -1.02439e-05
-2.49255e-05 0.000725793 -3.265e-06
-1.02439e-05 -3.265e-06 0.000742068
0.000880794 -1.44991e-05 3.44726e-06
-1.44991e-05 -4.51307e-05 2.8012e-06
3.44726e-06 2.8012e-06 -5.19505e-05
0.00248845 -2.2828e-05 -1.52859e-07
-2.2828e-05 0.000747169 5.8843e-08
-1.52859e-07 5.8843e-08 0.000764637
0.00254005 -2.06147e-05 9.78997e-06
-2.06147e-05 0.000766443 3.65745e-06
9.78997e-06 3.65745e-06 0.000784695
0.0015505 -1.97377e-05 6.17627e-07
-1.97377e-05 0.000127375 1.06181e-07
6.17627e-07 1.06181e-07 9.05877e-05
0.00127255 -5.23398e-05 -5.56555e-07
-5.23398e-05 -2.02197e-05 -2.33577e-06
-5.56555e-07 -2.33577e-06 -4.21873e-05
-0.000375408 -2.88272e-06 2.93653e-05
-2.88272e-06 -0.00021899 8.20698e-06
2.93653e-05 8.20698e-06 -0.000280201
0.00152632 3.62637e-05 9.14635e-07
3.62637e-05 0.000211603 -7.78031e-07
9.14635e-07 -7.78031e-07 0.000141596
0.000989353 2.8655e-05 -3.22524e-07
2.8655e-05 1.10687e-05 9.61244e-08
-3.22524e-07 9.61244e-08 -5.30858e-05
0.000833637 3.04194e-05 -1.00887e-06
3.04194e-05 -0.000125824 3.82348e-08
-1.00887e-06 3.82348e-08 -0.000200642
0.00125519 3.25217e-05 6.56858e-08
3.25217e-05 0.000108389 4.10329e-08
6.56858e-08 4.10329e-08 3.89287e-05
0.000834832 2.63137e-05 -4.26062e-07
2.63137e-05 -5.81324e-05 3.22097e-07
-4.26062e-07 3.22097e-07 -0.000125121
0.00149641 3.99547e-05 -7.96535e-07
3.99547e-05 0.000117171 -2.84693e-06
-7.96535e-07 -2.84693e-06 3.48228e-05
0.00123158 3.1617e-05 -8.10394e-08
3.1617e-05 0.000126217 -4.31742e-07
-8.10394e-08 -4.31742e-07 6.03624e-05
0.00122516 3.90196e-05 5.22486e-08
3.90196e-05 7.03488e-05 9.15565e-07
5.22486e-08 9.15565e-07 -4.17224e-06
0.00136187 5.4016e-06 6.85265e-07
5.4016e-06 -2.30936e-05 3.23118e-06
6.85265e-07 3.23118e-06 -9.41219e-05
0.00104401 4.18835e-05 2.22714e-07
4.18835e-05 -3.39649e-06 1.70719e-06
2.22714e-07 1.70719e-06 -8.43791e-05
0.00144546 4.43876e-05 -3.07349e-07
4.43876e-05 6.65101e-05 -4.8827e-07
-3.07349e-07 -4.8827e-07 -2.81818e-05
0.00154237 6.19625e-06 7.41567e-08
6.19625e-06 4.99785e-05 2.08873e-07
7.41567e-08 2.08873e-07 -1.5661e-05
0.00168767 4.66211e-05 5.5319e-07
4.66211e-05 0.000169966 1.65565e-06
5.5319e-07 1.65565e-06 7.16558e-05
0.00206017 -3.01146e-05 -1.16692e-05
-3.01146e-05 0.000122305 -9.45828e-06
-1.16692e-05 -9.45828e-06 6.4243e-05
0.00143122 -4.10611e-06 9.50723e-08
-4.10611e-06 0.000157094 -1.66733e-06
9.50723e-08 -1.66733e-06 0.000113276
0.000959471 6.33316e-06 1.3646e-06
6.33316e-06 -7.689e-05 5.35705e-07
1.3646e-06 5.35705e-07 -0.000123242
0.000169159 -1.44284e-05 -2.64963e-06
-1.44284e-05 -0.000279322 2.0495e-06
-2.64963e-06 2.0495e-06 -0.000303164
0.00181586 4.72003e-05 -3.69363e-06
4.72003e-05 0.000193454 -2.9274e-06
-3.69363e-06 -2.9274e-06 0.000147882
0.00180072 4.29454e-05 6.60587e-06
4.29454e-05 0.0003061 5.52883e-06
6.60587e-06 5.52883e-06 0.00023669
0.00141899 3.54652e-05 -1.37223e-06
3.54652e-05 9.68075e-05 -1.22929e-06
-1.37223e-06 -1.22929e-06 2.83243e-05
0.00138909 3.06353e-05 7.28291e-07
3.06353e-05 0.000141373 1.92615e-06
7.28291e-07 1.92615e-06 8.56997e-05
0.0013313 2.98444e-05 -1.5784e-06
2.98444e-05 9.70631e-05 -2.9171e-06
-1.5784e-06 -2.9171e-06 3.77509e-05
0.00137425 1.69129e-05 -2.29267e-06
1.69129e-05 6.16753e-05 -2.00119e-06
-2.29267e-06 -2.00119e-06 1.5809e-05
0.00142295 2.2583e-05 -1.85397e-08
2.2583e-05 8.86373e-05 -3.52094e-07
-1.85397e-08 -3.52094e-07 2.67042e-05
0.00142584 2.34842e-05 -1.19873e-06
2.34842e-05 0.000101499 -8.89587e-07
-1.19873e-06 -8.89587e-07 3.62281e-05
0.00136005 2.44114e-06 -1.26591e-06
2.44114e-06 6.08945e-05 -1.29199e-06
-1.26591e-06 -1.29199e-06 8.61735e-06
0.00130895 2.58881e-06 2.11495e-07
2.58881e-06 4.43193e-05 1.53404e-07
2.11495e-07 1.53404e-07 -1.82835e-05
0.00132552 1.33964e-06 -3.7295e-07
1.33964e-06 6.31115e-05 4.66242e-07
-3.7295e-07 4.66242e-07 -2.46655e-06
0.00129201 -1.26823e-05 -4.99913e-07
-1.26823e-05 5.194e-05 -1.11207e-06
-4.99913e-07 -1.11207e-06 -6.16276e-06
0.00128245 -1.5842e-05 8.44055e-08
-1.5842e-05 5.65693e-05 -5.47021e-08
8.44055e-08 -5.47021e-08 -5.87498e-06
0.00124587 -1.79239e-05 -4.60649e-07
-1.79239e-05 5.20001e-05 4.66107e-07
-4.60649e-07 4.66107e-07 -1.09069e-05
0.00125108 -2.05282e-05 -1.8083e-07
-2.05282e-05 5.47781e-05 -5.63245e-07
-1.8083e-07 -5.63245e-07 -4.0055e-06
0.00122805 -2.08394e-05 -1.26634e-08
-2.08394e-05 5.38824e-05 -1.05621e-07
-1.26634e-08 -1.05621e-07 -6.18448e-06
0.00116997 -1.73502e-05 -9.97096e-07
-1.73502e-05 4.30003e-05 3.76064e-07
-9.97096e-07 3.76064e-07 -1.45611e-05
0.00113325 -2.05947e-05 3.84297e-07
-2.05947e-05 1.28993e-05 -1.95258e-07
3.84297e-07 -1.95258e-07 -4.52047e-05
0.0011493 -1.70189e-05 -1.17825e-08
-1.70189e-05 3.92263e-05 -3.18679e-08
-1.17825e-08 -3.18679e-08 -1.66811e-05
0.00100727 -2.73385e-06 -2.28879e-06
-2.73385e-06 1.04718e-05 8.49548e-07
-2.28879e-06 8.49548e-07 -3.82382e-05
0.000970675 -1.61234e-05 1.0573e-06
-1.61234e-05 -3.7547e-05 -3.72107e-07
1.0573e-06 -3.72107e-07 -9.36974e-05
0.000991284 -2.82943e-06 -4.85504e-08
-2.82943e-06 8.27963e-06 9.45504e-08
-4.85504e-08 9.45504e-08 -3.92078e-05
0.00160212 2.51259e-05 -4.13587e-06
2.51259e-05 0.000343802 1.25762e-06
-4.13587e-06 1.25762e-06 0.000327753
0.00120487 2.43758e-05 -1.30509e-05
2.43758e-05 0.000152591 4.46898e-06
-1.30509e-05 4.46898e-06 0.000154792
0.00123587 2.20193e-05 -2.99866e-07
2.20193e-05 0.000160188 5.4151e-08
-2.99866e-07 5.4151e-08 0.000145011
0.000983638 -2.56817e-06 2.39232e-06
-2.56817e-06 9.65699e-06 -1.19003e-06
2.39232e-06 -1.19003e-06 -3.58786e-05
0.00257351 3.11501e-05 1.39051e-07
3.11501e-05 0.000818451 7.64823e-08
1.39051e-07 7.64823e-08 0.00083031
0.000891126 1.92133e-05 4.44654e-06
1.92133e-05 -1.41418e-05 -2.36097e-06
4.44654e-06 -2.36097e-06 -2.82933e-05
0.00244783 2.89277e-05 1.08856e-05
2.89277e-05 0.000750322 -2.94505e-06
1.08856e-05 -2.94505e-06 0.000764065
0.00112431 3.13983e-05 6.17418e-08
3.13983e-05 -7.27211e-06 6.70111e-08
6.17418e-08 6.70111e-08 -7.77983e-05
0.00092006 2.78838e-05 2.70083e-07
2.78838e-05 -5.09419e-05 -4.10505e-08
2.70083e-07 -4.10505e-08 -0.000120825
0.000952067 2.66441e-05 -4.10006e-08
2.66441e-05 -2.34239e-05 -2.80556e-08
-4.10006e-08 -2.80556e-08 -9.06542e-05
0.0011113 1.67034e-05 -9.62404e-07
1.67034e-05 6.26112e-05 -3.98681e-07
-9.62404e-07 -3.98681e-07 3.63881e-06
0.000879963 2.29868e-05 2.25176e-07
2.29868e-05 -4.60211e-05 1.78706e-07
2.25176e-07 1.78706e-07 -0.000110733
0.00106018 1.035e-05 -2.65984e-08
1.035e-05 4.52314e-05 2.95273e-08
-2.65984e-08 2.95273e-08 -1.24888e-05
0.000991273 -6.90183e-06 -2.28343e-06
-6.90183e-06 2.51031e-05 -9.04915e-07
-2.28343e-06 -9.04915e-07 -1.92188e-05
0.00101617 2.64064e-06 9.21224e-07
2.64064e-06 2.89384e-05 3.24222e-07
9.21224e-07 3.24222e-07 -2.79684e-05
0.000963756 -1.10275e-05 -4.01824e-08
-1.10275e-05 1.0896e-05 1.84943e-08
-4.01824e-08 1.84943e-08 -3.13103e-05
0.000887714 -1.89222e-05 -4.2627e-06
-1.89222e-05 -1.93101e-05 -2.22311e-06
-4.2627e-06 -2.22311e-06 -3.2353e-05
0.000949434 -1.36029e-05 2.20931e-06
-1.36029e-05 -2.60363e-07 1.3414e-06
2.20931e-06 1.3414e-06 -4.0092e-05
0.000872369 -1.75643e-05 -2.68504e-08
-1.75643e-05 -3.53538e-05 2.14044e-08
-2.68504e-08 2.14044e-08 -4.57924e-05
0.0024381 -2.69873e-05 -1.05459e-05
-2.69873e-05 0.000739814 -3.10062e-06
-1.05459e-05 -3.10062e-06 0.000754451
0.000866643 -1.60406e-05 3.68581e-06
-1.60406e-05 -4.59096e-05 2.65349e-06
3.68581e-06 2.65349e-06 -5.4184e-05
0.00248631 -2.50434e-05 -1.52384e-07
-2.50434e-05 0.000753097 6.33998e-08
-1.52384e-07 6.33998e-08 0.000769364
0.0025438 -2.28826e-05 1.01368e-05
-2.28826e-05 0.000773368 3.49771e-06
1.01368e-05 3.49771e-06 0.000790755
0.00150035 -2.72759e-05 1.56035e-06
-2.72759e-05 9.99949e-05 1.32445e-06
1.56035e-06 1.32445e-06 5.18684e-05
0.00147747 -1.97828e-05 2.11977e-06
-1.97828e-05 8.25686e-05 -1.25364e-06
2.11977e-06 -1.25364e-06 4.3902e-05
0.00159682 -4.98637e-05 -9.0832e-06
-4.98637e-05 0.000218432 -5.99249e-06
-9.0832e-06 -5.99249e-06 0.000196705
0.00140241 3.50087e-05 -8.64639e-07
3.50087e-05 8.47111e-05 -1.47598e-06
-8.64639e-07 -1.47598e-06 7.63241e-06
0.0013906 3.4837e-05 -4.34794e-08
3.4837e-05 0.000156665 2.54313e-07
-4.34794e-08 2.54313e-07 8.81193e-05
0.000986719 2.91303e-05 -1.6016e-06
2.91303e-05 1.49697e-05 -3.56964e-07
-1.6016e-06 -3.56964e-07 -4.78487e-05
0.00121831 3.3679e-05 3.5943e-07
3.3679e-05 5.21793e-05 5.50213e-07
3.5943e-07 5.50213e-07 -2.11978e-05
0.00120415 3.20792e-05 -7.76482e-07
3.20792e-05 8.39248e-05 6.07046e-07
-7.76482e-07 6.07046e-07 1.41124e-05
0.00142386 7.43625e-06 -2.4322e-07
7.43625e-06 3.38201e-05 1.27557e-06
-2.4322e-07 1.27557e-06 -4.21892e-05
0.00146711 4.00236e-05 -8.80009e-07
4.00236e-05 0.000101822 -1.06605e-06
-8.80009e-07 -1.06605e-06 1.82453e-05
0.00119934 3.84934e-05 4.51551e-07
3.84934e-05 5.70805e-05 2.83171e-06
4.51551e-07 2.83171e-06 -1.66773e-05
0.00152333 5.93298e-06 9.83554e-08
5.93298e-06 4.8373e-05 5.94802e-07
9.83554e-08 5.94802e-07 -2.30397e-05
0.00167779 4.69262e-05 -5.98443e-07
4.69262e-05 0.000161257 5.14818e-07
-5.98443e-07 5.14818e-07 6.45288e-05
0.00147463 5.89837e-06 4.34558e-06
5.89837e-06 1.09986e-05 -2.52534e-06
4.34558e-06 -2.52534e-06 -5.50589e-05
0.000867949 -2.92807e-07 8.55123e-08
-2.92807e-07 -8.95479e-05 -6.18837e-07
8.55123e-08 -6.18837e-07 -0.000138612
0.00125786 -2.64467e-06 -5.50539e-07
-2.64467e-06 8.15273e-05 -4.99392e-07
-5.50539e-07 -4.99392e-07 3.69231e-05
0.000510207 5.44952e-06 3.50582e-06
5.44952e-06 -0.000287719 4.46023e-06
3.50582e-06 4.46023e-06 -0.000333265
0.00155149 3.69113e-05 2.27693e-06
3.69113e-05 0.000149051 -1.20164e-06
2.27693e-06 -1.20164e-06 8.09043e-05
0.00140394 3.02481e-05 2.74526e-06
3.02481e-05 0.000143104 5.08364e-06
2.74526e-06 5.08364e-06 8.81567e-05
0.00134682 2.99169e-05 -8.18492e-07
2.99169e-05 0.0001025 -2.44311e-07
-8.18492e-07 -2.44311e-07 4.32657e-05
0.00123357 2.60182e-05 -1.51484e-07
2.60182e-05 5.69957e-05 -1.44142e-06
-1.51484e-07 -1.44142e-06 -3.57655e-06
0.001356 2.12125e-05 -5.24595e-08
2.12125e-05 5.48895e-05 -2.09574e-07
-5.24595e-08 -2.09574e-07 -5.91908e-06
0.00140617 2.23045e-05 -3.4793e-07
2.23045e-05 8.71377e-05 -1.39182e-07
-3.4793e-07 -1.39182e-07 2.18507e-05
0.00131243 1.85815e-05 -1.20573e-06
1.85815e-05 5.5116e-05 -1.68418e-06
-1.20573e-06 -1.68418e-06 -8.79419e-06
0.00136822 3.1158e-06 -1.60579e-07
3.1158e-06 7.29199e-05 -3.9864e-07
-1.60579e-07 -3.9864e-07 9.77063e-06
0.00131925 9.67558e-07 2.40347e-08
9.67558e-07 5.99444e-05 3.29305e-07
2.40347e-08 3.29305e-07 -5.70254e-06
0.00128181 -4.57454e-06 -7.32632e-07
-4.57454e-06 5.68496e-05 3.05858e-07
-7.32632e-07 3.05858e-07 -8.70551e-06
0.00129172 -1.52106e-05 1.94227e-07
-1.52106e-05 6.03584e-05 -7.34329e-07
1.94227e-07 -7.34329e-07 -2.11534e-06
0.00125434 -1.77441e-05 4.66398e-08
-1.77441e-05 5.54726e-05 1.70814e-08
4.66398e-08 1.70814e-08 -7.46107e-06
0.00118593 -1.63164e-05 -1.09463e-06
-1.63164e-05 4.25891e-05 4.65361e-07
-1.09463e-06 4.65361e-07 -1.74075e-05
0.00122703 -2.06655e-05 3.46842e-07
-2.06655e-05 5.30976e-05 -4.60034e-07
3.46842e-07 -4.60034e-07 -6.94863e-06
0.00116645 -1.70015e-05 1.09954e-08
-1.70015e-05 4.10444e-05 -6.73736e-08
1.09954e-08 -6.73736e-08 -1.65103e-05
0.00101106 -4.89594e-06 -2.17029e-06
-4.89594e-06 6.4932e-06 7.23065e-07
-2.17029e-06 7.23065e-07 -4.3536e-05
0.00113433 -1.64733e-05 9.62524e-07
-1.64733e-05 3.22838e-05 -3.50472e-07
9.62524e-07 -3.50472e-07 -2.36028e-05
0.000995146 -2.91303e-06 -8.6578e-08
-2.91303e-06 4.2817e-06 6.46054e-08
-8.6578e-08 6.46054e-08 -4.4311e-05
0.00163479 2.68359e-05 -4.09097e-06
2.68359e-05 0.00036415 1.06521e-06
-4.09097e-06 1.06521e-06 0.000344934
0.000979134 -3.47317e-06 2.40751e-06
-3.47317e-06 1.36194e-06 -9.52457e-07
2.40751e-06 -9.52457e-07 -4.59063e-05
0.00161441 2.50686e-05 2.55674e-06
2.50686e-05 0.000349764 -8.09927e-07
2.55674e-06 -8.09927e-07 0.000333343
0.0012025 2.51683e-05 -1.40384e-05
2.51683e-05 0.000159661 4.30822e-06
-1.40384e-05 4.30822e-06 0.00015883
0.00192878 2.8735e-05 -7.52215e-06
2.8735e-05 0.000508441 1.65855e-06
-7.52215e-06 1.65855e-06 0.000514492
0.00164846 2.38449e-05 7.3819e-06
2.38449e-05 0.000362377 -2.09986e-06
7.3819e-06 -2.09986e-06 0.000348783
0.00253506 3.08971e-05 1.1475e-05
3.08971e-05 0.000800561 -2.83789e-06
1.1475e-05 -2.83789e-06 0.000812296
0.0013339 3.10944e-05 -7.41583e-07
3.10944e-05 5.03747e-05 -1.44743e-06
-7.41583e-07 -1.44743e-06 -2.32455e-05
0.0013333 3.15482e-05 1.0165e-06
3.15482e-05 0.000121353 -3.06985e-08
1.0165e-06 -3.06985e-08 5.32434e-05
0.00115676 3.17241e-05 6.74864e-07
3.17241e-05 1.39375e-05 4.88972e-07
6.74864e-07 4.88972e-07 -5.36291e-05
0.00111318 2.12184e-05 -8.20521e-07
2.12184e-05 5.46498e-05 -7.35077e-07
-8.20521e-07 -7.35077e-07 -7.12027e-06
0.00110003 3.00026e-05 -1.74787e-07
3.00026e-05 3.31477e-05 8.55805e-08
-1.74787e-07 8.55805e-08 -3.66674e-05
0.000993333 2.73725e-05 3.78647e-07
2.73725e-05 -6.42265e-06 5.48982e-07
3.78647e-07 5.48982e-07 -7.39845e-05
0.00108898 1.63484e-05 1.00679e-08
1.63484e-05 5.2687e-05 -4.58247e-08
1.00679e-08 -4.58247e-08 -6.29893e-06
0.000996096 -2.48914e-06 -2.20388e-06
-2.48914e-06 2.83269e-05 -8.98121e-07
-2.20388e-06 -8.98121e-07 -1.8427e-05
0.0010269 9.3495e-06 7.78161e-07
9.3495e-06 2.998e-05 2.13293e-07
7.78161e-07 2.13293e-07 -2.77137e-05
0.000969329 -7.93147e-06 -4.97381e-08
-7.93147e-06 1.61388e-05 2.94113e-08
-4.97381e-08 2.94113e-08 -2.83652e-05
0.000876863 -1.99329e-05 -4.44188e-06
-1.99329e-05 -1.56177e-05 -2.02411e-06
-4.44188e-06 -2.02411e-06 -3.12871e-05
0.000943292 -1.19512e-05 2.1994e-06
-1.19512e-05 2.10193e-06 1.19908e-06
2.1994e-06 1.19908e-06 -4.02261e-05
0.000855553 -1.87349e-05 -4.02333e-08
-1.87349e-05 -3.47785e-05 2.86412e-08
-4.02333e-08 2.86412e-08 -4.76716e-05
0.00246439 -2.89036e-05 -1.09232e-05
-2.89036e-05 0.000762884 -2.92202e-06
-1.09232e-05 -2.92202e-06 0.0007756
0.000846934 -1.74244e-05 3.91241e-06
-1.74244e-05 -4.77059e-05 2.486e-06
3.91241e-06 2.486e-06 -5.80015e-05
0.00249528 -2.71674e-05 -1.45148e-07
-2.71674e-05 0.000766126 6.64114e-08
-1.45148e-07 6.64114e-08 0.000780832
0.0025454 -2.51521e-05 1.03552e-05
-2.51521e-05 0.000780705 3.32554e-06
1.03552e-05 3.32554e-06 0.00079696
0.00140623 -2.27359e-05 -6.21724e-07
-2.27359e-05 8.06559e-05 2.67679e-06
-6.21724e-07 2.67679e-06 2.17158e-05
0.00141492 -2.63918e-05 2.61461e-07
-2.63918e-05 6.12937e-05 -7.94739e-07
2.61461e-07 -7.94739e-07 1.32514e-05
0.00141927 -2.01404e-05 3.52864e-06
-2.01404e-05 4.38012e-05 -1.28989e-06
3.52864e-06 -1.28989e-06 3.29267e-06
0.0011831 1.12805e-05 -6.92156e-07
1.12805e-05 -6.31994e-05 7.17651e-07
-6.92156e-07 7.17651e-07 -0.000137143
0.00141644 3.47421e-05 1.09195e-07
3.47421e-05 9.15954e-05 -5.32471e-07
1.09195e-07 -5.32471e-07 1.46728e-05
0.00127338 3.35713e-05 -9.10544e-07
3.35713e-05 0.000110452 1.0667e-06
-9.10544e-07 1.0667e-06 4.33586e-05
0.00160323 3.69407e-05 2.47867e-07
3.69407e-05 0.000230338 3.46491e-07
2.47867e-07 3.46491e-07 0.000158398
0.00156294 8.75551e-06 8.4108e-09
8.75551e-06 9.77788e-05 -6.33181e-09
8.4108e-09 -6.33181e-09 2.17119e-05
0.00143854 4.00754e-05 -1.31068e-07
4.00754e-05 8.6891e-05 5.69979e-07
-1.31068e-07 5.69979e-07 2.07751e-06
0.00168073 6.47936e-06 -4.43328e-07
6.47936e-06 0.000118038 -1.99857e-06
-4.43328e-07 -1.99857e-06 4.62314e-05
0.00108173 4.45273e-07 1.337e-06
4.45273e-07 8.68566e-06 -2.06328e-08
1.337e-06 -2.06328e-08 -4.66257e-05
0.00106333 7.61436e-07 -8.36195e-08
7.61436e-07 -4.01188e-06 -1.02684e-07
-8.36195e-08 -1.02684e-07 -5.49323e-05
0.00109311 -7.90748e-07 -1.02805e-06
-7.90748e-07 9.83582e-06 1.24805e-06
-1.02805e-06 1.24805e-06 -3.55321e-05
0.00124971 2.63283e-05 4.57868e-07
2.63283e-05 7.90271e-05 -6.17997e-07
4.57868e-07 -6.17997e-07 1.62676e-05
0.00138225 3.0208e-05 1.21814e-06
3.0208e-05 0.000117289 1.75187e-06
1.21814e-06 1.75187e-06 5.81224e-05
0.00123859 2.62454e-05 3.59516e-07
2.62454e-05 5.91421e-05 3.54685e-08
3.59516e-07 3.54685e-08 -1.79056e-06
0.00127335 2.42569e-05 -8.29171e-08
2.42569e-05 6.29405e-05 -4.5476e-07
-8.29171e-08 -4.5476e-07 1.41266e-06
0.00140247 2.12973e-05 4.28814e-07
2.12973e-05 8.0372e-05 6.56855e-07
4.28814e-07 6.56855e-07 1.50477e-05
0.0013119 1.83514e-05 -5.29875e-07
1.83514e-05 5.544e-05 -4.44409e-07
-5.29875e-07 -4.44409e-07 -8.45107e-06
0.00130054 1.60887e-05 -1.18794e-06
1.60887e-05 6.4403e-05 -1.06201e-06
-1.18794e-06 -1.06201e-06 -1.22379e-06
0.00131394 1.15165e-06 8.9168e-07
1.15165e-06 5.72333e-05 1.51482e-07
8.9168e-07 1.51482e-07 -8.49148e-06
0.00127749 -3.37066e-06 2.18143e-08
-3.37066e-06 5.48954e-05 9.72213e-08
2.18143e-08 9.72213e-08 -1.06905e-05
0.00120948 -1.05614e-05 -1.28644e-06
-1.05614e-05 4.51986e-05 2.73203e-07
-1.28644e-06 2.73203e-07 -1.69917e-05
0.00126286 -1.75006e-05 6.40035e-07
-1.75006e-05 5.89678e-05 -4.38906e-07
6.40035e-07 -4.38906e-07 -3.9909e-06
0.00118803 -1.60241e-05 3.36581e-08
-1.60241e-05 4.31563e-05 5.34811e-08
3.36581e-08 5.34811e-08 -1.68431e-05
0.00102996 -6.57899e-06 -2.1988e-06
-6.57899e-06 8.88183e-06 6.94597e-07
-2.1988e-06 6.94597e-07 -4.30067e-05
0.00116266 -1.65858e-05 9.8892e-07
-1.65858e-05 3.89678e-05 -4.88878e-07
9.8892e-07 -4.88878e-07 -1.85801e-05
0.00100458 -4.29147e-06 -5.05859e-08
-4.29147e-06 3.40529e-06 1.01973e-08
-5.05859e-08 1.01973e-08 -4.66227e-05
0.00165286 2.41101e-05 -3.94603e-06
2.41101e-05 0.000377731 8.65903e-07
-3.94603e-06 8.65903e-07 0.000355345
0.00098242 -3.0615e-06 2.31583e-06
-3.0615e-06 -2.22945e-06 -7.88018e-07
2.31583e-06 -7.88018e-07 -5.06969e-05
0.00162968 2.48611e-05 2.71265e-06
2.48611e-05 0.000361125 -7.61878e-07
2.71265e-06 -7.61878e-07 0.0003417
0.00122815 2.60091e-05 -1.48766e-05
2.60091e-05 0.000182281 3.99106e-06
-1.48766e-05 3.99106e-06 0.000178135
0.00162713 2.45662e-05 9.02219e-06
2.45662e-05 0.000355879 -2.83244e-06
9.02219e-06 -2.83244e-06 0.000339105
0.0011791 2.60988e-05 -5.13296e-06
2.60988e-05 0.000148368 1.68093e-06
-5.13296e-06 1.68093e-06 0.000147818
0.00265219 3.44696e-05 5.20132e-06
3.44696e-05 0.000864182 -1.07562e-06
5.20132e-06 -1.07562e-06 0.000874012
0.00153211 1.49755e-05 -8.31562e-07
1.49755e-05 0.00011577 -1.95312e-07
-8.31562e-07 -1.95312e-07 4.18218e-05
0.00134632 2.98246e-05 4.15788e-08
2.98246e-05 7.95121e-05 -1.30932e-06
4.15788e-08 -1.30932e-06 8.72995e-06
0.00138523 3.17545e-05 -7.20937e-07
3.17545e-05 8.0438e-05 7.0795e-07
-7.20937e-07 7.0795e-07 7.49857e-06
0.00136766 2.58397e-05 -4.64605e-07
2.58397e-05 0.000156222 -2.11006e-07
-4.64605e-07 -2.11006e-07 9.3638e-05
0.00122999 3.09821e-05 4.00504e-07
3.09821e-05 7.13614e-05 -4.01466e-07
4.00504e-07 -4.01466e-07 3.11759e-06
0.00118518 3.19949e-05 1.00722e-06
3.19949e-05 3.3148e-05 7.75351e-07
1.00722e-06 7.75351e-07 -3.14511e-05
0.00100222 3.47405e-06 -2.1077e-06
3.47405e-06 2.75457e-05 -1.12479e-06
-2.1077e-06 -1.12479e-06 -2.2666e-05
0.00111351 2.15132e-05 -1.56997e-08
2.15132e-05 5.50848e-05 -1.1039e-07
-1.56997e-08 -1.1039e-07 -6.73046e-06
0.00128185 3.21457e-05 6.79933e-07
3.21457e-05 0.000118119 6.79974e-07
6.79933e-07 6.79974e-07 4.83699e-05
0.00106472 1.60768e-05 8.18137e-07
1.60768e-05 4.18224e-05 2.19396e-07
8.18137e-07 2.19396e-07 -1.71747e-05
0.000976546 -3.80654e-06 9.28223e-09
-3.80654e-06 2.08548e-05 -1.66691e-08
9.28223e-09 -1.66691e-08 -2.61194e-05
0.000872666 -2.09205e-05 -4.40582e-06
-2.09205e-05 -9.57205e-06 -1.94615e-06
-4.40582e-06 -1.94615e-06 -2.82773e-05
0.000947627 -8.98321e-06 2.22566e-06
-8.98321e-06 7.29754e-06 1.01687e-06
2.22566e-06 1.01687e-06 -3.73905e-05
0.000836864 -1.96465e-05 -3.86286e-08
-1.96465e-05 -3.47043e-05 2.55498e-08
-3.86286e-08 2.55498e-08 -5.02334e-05
0.00250363 -3.06534e-05 -1.13768e-05
-3.06534e-05 0.000792931 -2.73773e-06
-1.13768e-05 -2.73773e-06 0.00080357
0.000823631 -1.85482e-05 4.11235e-06
-1.85482e-05 -5.01347e-05 2.31903e-06
4.11235e-06 2.31903e-06 -6.28778e-05
0.0025178 -2.91398e-05 -1.47e-07
-2.91398e-05 0.000787126 7.20594e-08
-1.47e-07 7.20594e-08 0.00079997
0.00255301 -2.73298e-05 1.05764e-05
-2.73298e-05 0.000792699 3.14994e-06
1.05764e-05 3.14994e-06 0.000807472
0.00139755 -1.78378e-05 1.54924e-07
-1.78378e-05 8.09912e-05 1.42534e-06
1.54924e-07 1.42534e-06 1.82377e-05
0.0014593 -2.25882e-05 -8.57253e-08
-2.25882e-05 9.81949e-05 6.56372e-07
-8.57253e-08 6.56372e-07 3.84602e-05
0.00132937 -2.55124e-05 -9.71642e-07
-2.55124e-05 2.25333e-05 -2.85297e-06
-9.71642e-07 -2.85297e-06 -2.54242e-05
0.00135342 1.09774e-05 -2.62589e-08
1.09774e-05 8.14616e-06 -1.87478e-07
-2.62589e-08 -1.87478e-07 -6.63217e-05
0.00142293 3.44262e-05 2.22081e-07
3.44262e-05 9.48015e-05 3.80218e-07
2.22081e-07 3.80218e-07 1.80503e-05
0.0016978 1.01363e-05 5.54189e-07
1.01363e-05 0.000159662 -1.32776e-06
5.54189e-07 -1.32776e-06 8.35577e-05
0.00113878 -1.30916e-06 6.41704e-07
-1.30916e-06 3.26566e-05 1.77967e-07
6.41704e-07 1.77967e-07 -2.99724e-05
0.00110679 7.29038e-07 5.10838e-07
7.29038e-07 2.56957e-05 -5.48259e-08
5.10838e-07 -5.48259e-08 -2.97344e-05
0.0012499 1.58865e-06 1.87413e-07
1.58865e-06 7.75594e-05 5.75583e-07
1.87413e-07 5.75583e-07 2.47654e-05
0.00125031 2.26789e-05 -4.58365e-07
2.26789e-05 7.86645e-05 1.58493e-07
-4.58365e-07 1.58493e-07 1.52935e-05
0.00125047 2.14993e-05 4.33325e-07
2.14993e-05 7.53531e-05 -2.44825e-07
4.33325e-07 -2.44825e-07 9.51841e-06
0.00123687 2.64409e-05 4.47133e-07
2.64409e-05 5.82595e-05 1.12612e-06
4.47133e-07 1.12612e-06 -3.04757e-06
0.00125221 2.39937e-05 2.39981e-07
2.39937e-05 5.33468e-05 4.50351e-07
2.39981e-07 4.50351e-07 -8.22552e-06
0.00137134 2.44523e-05 2.53059e-08
2.44523e-05 0.000111871 -4.07116e-07
2.53059e-08 -4.07116e-07 4.88664e-05
0.0013085 1.75255e-05 6.32624e-07
1.75255e-05 5.44633e-05 7.35667e-07
6.32624e-07 7.35667e-07 -9.40366e-06
0.00128152 1.44581e-05 -3.45763e-07
1.44581e-05 5.56518e-05 -2.52512e-07
-3.45763e-07 -2.52512e-07 -9.77405e-06
0.00121924 8.81175e-06 -1.69696e-06
8.81175e-06 4.87836e-05 -1.94246e-07
-1.69696e-06 -1.94246e-07 -1.46661e-05
0.00127199 -3.63761e-06 6.78729e-07
-3.63761e-06 5.23272e-05 -8.74583e-08
6.78729e-07 -8.74583e-08 -1.32559e-05
0.00121001 -9.76918e-06 1.30886e-08
-9.76918e-06 4.51888e-05 1.84086e-08
1.30886e-08 1.84086e-08 -1.7007e-05
0.00104032 -5.25646e-06 -2.31885e-06
-5.25646e-06 7.92377e-06 4.82027e-07
-2.31885e-06 4.82027e-07 -4.57283e-05
0.00119103 -1.56912e-05 1.20642e-06
-1.56912e-05 4.41349e-05 -3.60016e-07
1.20642e-06 -3.60016e-07 -1.58659e-05
0.00102187 -5.99334e-06 -5.54438e-09
-5.99334e-06 5.20996e-06 6.40617e-08
-5.54438e-09 6.40617e-08 -4.67206e-05
0.00161259 1.8587e-05 -3.91535e-06
1.8587e-05 0.000363561 6.82745e-07
-3.91535e-06 6.82745e-07 0.000337925
0.00099733 -3.77649e-06 2.25238e-06
-3.77649e-06 -8.08833e-08 -7.55561e-07
2.25238e-06 -7.55561e-07 -5.01035e-05
0.00164489 2.17461e-05 2.85893e-06
2.17461e-05 0.000372728 -6.86733e-07
2.85893e-06 -6.86733e-07 0.000350173
0.00123976 2.62814e-05 -1.57131e-05
2.62814e-05 0.000200647 3.58663e-06
-1.57131e-05 3.58663e-06 0.000192827
0.00162659 2.33279e-05 9.31324e-06
2.33279e-05 0.000359082 -2.52854e-06
9.31324e-06 -2.52854e-06 0.00033942
0.00119695 2.6958e-05 -5.42172e-06
2.6958e-05 0.000167026 1.57509e-06
-5.42172e-06 1.57509e-06 0.000163229
0.00115616 2.70816e-05 3.92749e-06
2.70816e-05 0.00013737 -9.54552e-07
3.92749e-06 -9.54552e-07 0.000137088
0.00149683 -1.02592e-05 3.36494e-09
-1.02592e-05 0.000109503 9.52619e-07
3.36494e-09 9.52619e-07 4.78894e-05
0.00139299 1.72559e-05 -9.53163e-07
1.72559e-05 7.03641e-05 -1.53157e-07
-9.53163e-07 -1.53157e-07 -2.23497e-06
0.00152275 1.45313e-05 -4.01201e-07
1.45313e-05 0.000108081 -4.41007e-07
-4.01201e-07 -4.41007e-07 3.40082e-05
0.00132588 2.61786e-05 -8.18932e-07
2.61786e-05 0.000101248 -6.47775e-07
-8.18932e-07 -6.47775e-07 3.59943e-05
0.00140794 3.02177e-05 3.91549e-07
3.02177e-05 0.000111437 4.27293e-07
3.91549e-07 4.27293e-07 4.10712e-05
0.00143844 3.24518e-05 1.04557e-06
3.24518e-05 0.000111455 1.54133e-06
1.04557e-06 1.54133e-06 3.91912e-05
0.000979043 8.65432e-06 -2.2846e-06
8.65432e-06 2.52427e-06 -9.53763e-07
-2.2846e-06 -9.53763e-07 -5.05153e-05
0.00116194 2.44856e-05 4.86998e-07
2.44856e-05 5.62482e-05 4.39132e-07
4.86998e-07 4.39132e-07 -7.36316e-06
0.00112694 3.04469e-05 5.28069e-07
3.04469e-05 2.15462e-05 9.76939e-07
5.28069e-07 9.76939e-07 -4.68385e-05
0.000875255 -1.89469e-05 -4.45509e-06
-1.89469e-05 -4.41839e-06 -2.03021e-06
-4.45509e-06 -2.03021e-06 -2.70887e-05
0.000981402 2.22064e-06 1.21556e-08
2.22064e-06 1.92542e-05 -5.36763e-08
1.21556e-08 -5.36763e-08 -3.11005e-05
0.00111379 2.17329e-05 8.25675e-07
2.17329e-05 5.55081e-05 5.28533e-07
8.25675e-07 5.28533e-07 -6.35049e-06
0.000956125 -5.16406e-06 2.19517e-06
-5.16406e-06 1.29979e-05 8.79365e-07
2.19517e-06 8.79365e-07 -3.41994e-05
0.000816649 -2.04282e-05 -1.0275e-08
-2.04282e-05 -3.58659e-05 -2.81468e-08
-1.0275e-08 -2.81468e-08 -5.44398e-05
0.00257538 -3.22684e-05 -1.20638e-05
-3.22684e-05 0.000838504 -2.62361e-06
-1.20638e-05 -2.62361e-06 0.000846837
0.000797243 -1.93672e-05 4.33255e-06
-1.93672e-05 -5.36045e-05 2.12692e-06
4.33255e-06 2.12692e-06 -6.89942e-05
0.00255243 -3.09401e-05 -1.44948e-07
-3.09401e-05 0.000814872 7.56877e-08
-1.44948e-07 7.56877e-08 0.00082567
0.00257237 -2.93672e-05 1.0836e-05
-2.93672e-05 0.000811905 2.97142e-06
1.0836e-05 2.97142e-06 0.000824877
0.00132213 -2.27412e-05 8.5053e-07
-2.27412e-05 7.77947e-05 -4.50751e-07
8.5053e-07 -4.50751e-07 9.32934e-06
0.00139952 -1.7397e-05 -1.80125e-07
-1.7397e-05 7.85611e-05 3.54334e-07
-1.80125e-07 3.54334e-07 1.54826e-05
0.00151191 -2.24507e-05 -2.40095e-07
-2.24507e-05 0.000115389 -1.56056e-06
-2.40095e-07 -1.56056e-06 5.48698e-05
0.0015322 1.06703e-05 8.5266e-07
1.06703e-05 8.35886e-05 -5.72665e-07
8.5266e-07 -5.72665e-07 8.5741e-06
0.00117062 -2.75018e-06 1.20227e-07
-2.75018e-06 4.06946e-05 1.51786e-07
1.20227e-07 1.51786e-07 -2.68224e-05
0.00118202 -1.92314e-06 -2.80662e-07
-1.92314e-06 5.49039e-05 -4.33782e-08
-2.80662e-07 -4.33782e-08 -7.3225e-06
0.00113214 9.85581e-07 -7.54444e-07
9.85581e-07 4.26566e-05 1.56269e-07
-7.54444e-07 1.56269e-07 -1.28671e-05
0.0012327 2.0517e-05 -1.17966e-06
2.0517e-05 6.9699e-05 1.16426e-06
-1.17966e-06 1.16426e-06 5.66743e-06
0.0012319 2.34547e-05 2.2737e-07
2.34547e-05 6.8095e-05 1.51874e-07
2.2737e-07 1.51874e-07 2.45491e-06
0.00123259 2.36955e-05 -4.66086e-07
2.36955e-05 6.92039e-05 -3.33537e-07
-4.66086e-07 -3.33537e-07 4.96906e-06
0.00122948 2.36976e-05 7.27505e-07
2.36976e-05 4.28479e-05 1.50737e-06
7.27505e-07 1.50737e-06 -1.87477e-05
0.00131626 2.41688e-05 2.49523e-07
2.41688e-05 8.63863e-05 3.52476e-07
2.49523e-07 3.52476e-07 2.33952e-05
0.00121714 2.37013e-05 -1.0354e-06
2.37013e-05 5.45353e-05 -6.50572e-07
-1.0354e-06 -6.50572e-07 -8.31742e-06
0.00126021 1.42718e-05 4.43051e-07
1.42718e-05 4.5896e-05 5.72919e-07
4.43051e-07 5.72919e-07 -1.9363e-05
0.00120563 1.01924e-05 -2.03627e-07
1.01924e-05 4.27494e-05 1.01808e-07
-2.03627e-07 1.01808e-07 -2.05944e-05
0.00105426 8.26031e-06 -2.40238e-06
8.26031e-06 1.40781e-05 2.42115e-07
-2.40238e-06 2.42115e-07 -4.14249e-05
0.00120816 -6.73844e-06 1.26812e-06
-6.73844e-06 4.4118e-05 -2.34797e-07
1.26812e-06 -2.34797e-07 -1.80916e-05
0.00104079 -5.06588e-06 8.96876e-09
-5.06588e-06 8.25931e-06 4.736e-08
8.96876e-09 4.736e-08 -4.54584e-05
0.000716053 8.99741e-06 -4.94643e-06
8.99741e-06 -7.17244e-05 1.04593e-06
-4.94643e-06 1.04593e-06 -0.000105199
0.00101567 -5.43731e-06 2.30617e-06
-5.43731e-06 2.40737e-06 -5.81672e-07
2.30617e-06 -5.81672e-07 -4.95658e-05
0.00118521 1.42021e-05 3.45835e-06
1.42021e-05 0.000152079 -5.9468e-07
3.45835e-06 -5.9468e-07 0.000123724
0.00302875 3.95482e-05 -1.45864e-05
3.95482e-05 0.00109141 1.89392e-06
-1.45864e-05 1.89392e-06 0.00109092
0.00163837 1.95872e-05 9.65589e-06
1.95872e-05 0.000368448 -2.22773e-06
9.65589e-06 -2.22773e-06 0.000345718
0.0012123 2.73479e-05 -5.75168e-06
2.73479e-05 0.000187197 1.44002e-06
-5.75168e-06 1.44002e-06 0.000179712
0.00116354 2.79362e-05 4.13913e-06
2.79362e-05 0.000150757 -8.56362e-07
4.13913e-06 -8.56362e-07 0.000147308
0.00146011 -1.85572e-05 6.80857e-07
-1.85572e-05 0.000122542 -6.44671e-07
6.80857e-07 -6.44671e-07 5.72454e-05
0.00136043 -4.1975e-06 -5.29532e-07
-4.1975e-06 5.47754e-05 8.22122e-07
-5.29532e-07 8.22122e-07 -9.8644e-06
0.0013751 -9.89193e-06 1.6677e-07
-9.89193e-06 5.55996e-05 1.46158e-08
1.6677e-07 1.46158e-08 -6.66318e-06
0.00103563 1.81148e-05 -1.47573e-06
1.81148e-05 -6.50488e-05 -4.52945e-07
-1.47573e-06 -4.52945e-07 -0.000133379
0.00142966 1.7181e-05 1.09972e-07
1.7181e-05 9.02103e-05 -2.37995e-09
1.09972e-07 -2.37995e-09 1.88229e-05
0.00151309 1.41128e-05 5.12899e-07
1.41128e-05 0.000100226 -6.6528e-07
5.12899e-07 -6.6528e-07 2.60331e-05
0.000776471 1.06384e-05 -2.9751e-06
1.06384e-05 -0.000119514 -1.33116e-06
-2.9751e-06 -1.33116e-06 -0.000176142
0.00133065 2.63226e-05 2.91072e-07
2.63226e-05 0.000103382 1.83162e-08
2.91072e-07 1.83162e-08 3.80695e-05
0.00147188 3.06694e-05 7.61921e-07
3.06694e-05 0.000144367 1.25013e-06
7.61921e-07 1.25013e-06 7.44252e-05
0.000867252 -1.33905e-05 -4.94693e-06
-1.33905e-05 -1.12874e-05 -1.89524e-06
-4.94693e-06 -1.89524e-06 -3.83362e-05
0.000856894 7.3376e-06 -5.23748e-08
7.3376e-06 -5.71558e-05 8.91408e-08
-5.23748e-08 8.91408e-08 -0.000111154
0.000957162 2.30919e-05 1.40318e-06
2.30919e-05 -4.3254e-05 1.21734e-06
1.40318e-06 1.21734e-06 -0.000107896
0.00272814 -3.3879e-05 -1.33037e-05
-3.3879e-05 0.000921665 -2.60189e-06
-1.33037e-05 -2.60189e-06 0.000927271
0.000800471 -2.03082e-05 -3.4565e-08
-2.03082e-05 -3.87283e-05 -8.07646e-08
-3.4565e-08 -8.07646e-08 -6.13318e-05
0.000960936 5.82905e-07 2.01097e-06
5.82905e-07 1.11608e-05 9.88218e-07
2.01097e-06 9.88218e-07 -3.9346e-05
0.000760296 -1.99361e-05 4.47726e-06
-1.99361e-05 -6.23055e-05 1.9851e-06
4.47726e-06 1.9851e-06 -8.07491e-05
0.00261352 -3.26282e-05 -1.29133e-07
-3.26282e-05 0.000855554 7.4095e-08
-1.29133e-07 7.4095e-08 0.000864103
0.00260291 -3.12186e-05 1.11896e-05
-3.12186e-05 0.000837577 2.78701e-06
1.11896e-05 2.78701e-06 0.000848537
0.00119588 -2.30857e-05 6.3807e-08
-2.30857e-05 3.97345e-05 2.04938e-07
6.3807e-08 2.04938e-07 -2.89891e-05
0.00126485 -2.19795e-05 -2.78871e-07
-2.19795e-05 5.40267e-05 -6.72678e-07
-2.78871e-07 -6.72678e-07 -1.31524e-05
0.00140027 -1.68961e-05 -1.74951e-07
-1.68961e-05 7.56151e-05 -8.70912e-07
-1.74951e-07 -8.70912e-07 1.22082e-05
0.00122127 1.11012e-05 7.41881e-08
1.11012e-05 6.47355e-05 9.98438e-09
7.41881e-08 9.98438e-09 -1.81518e-06
0.00123501 -3.38678e-07 -1.05926e-07
-3.38678e-07 7.12778e-05 1.10015e-07
-1.05926e-07 1.10015e-07 3.67014e-06
0.00122902 -3.67121e-06 -1.3735e-06
-3.67121e-06 7.88764e-05 2.71527e-08
-1.3735e-06 2.71527e-08 1.71039e-05
0.00122199 2.38302e-05 -1.89221e-07
2.38302e-05 6.48608e-05 1.20043e-07
-1.89221e-07 1.20043e-07 -5.20774e-07
0.00122659 2.39049e-05 1.1157e-07
2.39049e-05 6.57066e-05 2.34349e-07
1.1157e-07 2.34349e-07 1.6219e-06
0.00124703 2.04808e-05 -5.57703e-07
2.04808e-05 9.00259e-05 -2.41995e-07
-5.57703e-07 -2.41995e-07 2.83907e-05
0.00126635 2.39212e-05 8.43671e-07
2.39212e-05 6.33638e-05 1.49379e-06
8.43671e-07 1.49379e-06 3.7952e-07
0.00126919 2.46808e-05 2.3111e-08
2.46808e-05 8.18638e-05 4.23564e-08
2.3111e-08 4.23564e-08 1.94661e-05
0.000914752 2.02171e-05 -2.67631e-06
2.02171e-05 -4.94242e-05 -2.01049e-07
-2.67631e-06 -2.01049e-07 -0.000106717
0.00118733 9.19885e-06 1.15963e-06
9.19885e-06 3.45199e-05 4.12522e-07
1.15963e-06 4.12522e-07 -2.87161e-05
0.00104127 8.78182e-06 -2.59797e-08
8.78182e-06 8.28758e-06 8.84957e-08
-2.59797e-08 8.84957e-08 -4.72017e-05
0.000710535 1.03516e-05 -4.98956e-06
1.03516e-05 -6.77584e-05 7.03103e-07
-4.98956e-06 7.03103e-07 -0.000103539
0.00103956 -4.71138e-06 2.39029e-06
-4.71138e-06 7.79434e-06 -3.82503e-07
2.39029e-06 -3.82503e-07 -4.59861e-05
0.000748099 1.03045e-05 3.11458e-09
1.03045e-05 -5.81406e-05 1.15117e-07
3.11458e-09 1.15117e-07 -9.15409e-05
0.00313447 4.096e-05 -1.52313e-05
4.096e-05 0.00115382 1.50025e-06
-1.52313e-05 1.50025e-06 0.00115116
0.000753424 1.05647e-05 6.76947e-06
1.05647e-05 -6.13914e-05 -1.94176e-06
6.76947e-06 -1.94176e-06 -9.25016e-05
0.00209835 3.36547e-05 3.33885e-06
3.36547e-05 0.000636871 2.37265e-07
3.33885e-06 2.37265e-07 0.000630983
0.00118127 2.84599e-05 4.3542e-06
2.84599e-05 0.000172047 -7.41953e-07
4.3542e-06 -7.41953e-07 0.000164906
0.00147691 -2.55675e-05 1.53963e-07
-2.55675e-05 0.000154789 -1.13986e-07
1.53963e-07 -1.13986e-07 8.6755e-05
0.00132713 -1.48588e-05 -2.70537e-07
-1.48588e-05 6.14629e-05 -2.30347e-07
-2.70537e-07 -2.30347e-07 -2.01685e-06
0.00133104 -1.77569e-05 -3.81392e-07
-1.77569e-05 6.14445e-05 3.50954e-09
-3.81392e-07 3.50954e-09 -3.93507e-06
0.00121565 1.96437e-06 -1.20589e-06
1.96437e-06 1.82283e-05 5.81758e-07
-1.20589e-06 5.81758e-07 -4.62586e-05
0.00130899 -4.61703e-06 3.72201e-07
-4.61703e-06 3.36063e-05 -2.39606e-07
3.72201e-07 -2.39606e-07 -3.08451e-05
0.00125225 -9.5616e-06 3.8516e-07
-9.5616e-06 1.12638e-06 -5.73108e-07
3.8516e-07 -5.73108e-07 -6.17805e-05
0.000800758 1.04192e-05 -3.15492e-06
1.04192e-05 -0.00012823 -1.04295e-06
-3.15492e-06 -1.04295e-06 -0.000187035
0.00128967 2.02527e-05 -3.91851e-07
2.02527e-05 5.73656e-05 3.76264e-08
-3.91851e-07 3.76264e-08 -9.86821e-06
0.00146349 1.70524e-05 1.07466e-06
1.70524e-05 0.000108755 -4.38848e-07
1.07466e-06 -4.38848e-07 3.85756e-05
0.000845408 -6.5786e-06 -5.41671e-06
-6.5786e-06 -2.79231e-05 -1.70827e-06
-5.41671e-06 -1.70827e-06 -5.87569e-05
0.0008009 1.15052e-05 -6.45038e-07
1.15052e-05 -0.000109882 -3.71249e-07
-6.45038e-07 -3.71249e-07 -0.000166992
0.00133562 2.65089e-05 1.37092e-06
2.65089e-05 0.000105611 8.08601e-07
1.37092e-06 8.08601e-07 4.02388e-05
0.00294232 -3.55392e-05 -1.48753e-05
-3.55392e-05 0.00103296 -2.47757e-06
-1.48753e-05 -2.47757e-06 0.00103566
0.000793917 -1.46189e-05 -2.48184e-07
-1.46189e-05 -4.41499e-05 2.87784e-08
-2.48184e-07 2.87784e-08 -7.11896e-05
0.000734054 6.39952e-06 1.98886e-06
6.39952e-06 -0.000117224 1.18603e-06
1.98886e-06 1.18603e-06 -0.000172164
0.00274031 -3.43284e-05 -1.23372e-07
-3.43284e-05 0.000926825 7.99708e-08
-1.23372e-07 7.99708e-08 0.000932767
0.000723575 -2.03948e-05 4.45063e-06
-2.03948e-05 -7.40596e-05 2.02655e-06
4.45063e-06 2.02655e-06 -9.65661e-05
0.00265131 -3.29324e-05 1.1595e-05
-3.29324e-05 0.000872374 2.60469e-06
1.1595e-05 2.60469e-06 0.000881149
0.00119331 -9.53893e-06 -2.37624e-07
-9.53893e-06 4.27267e-05 1.84405e-07
-2.37624e-07 1.84405e-07 -2.44678e-05
0.00125143 -2.23288e-05 4.62854e-07
-2.23288e-05 6.39602e-05 -3.9692e-07
4.62854e-07 -3.9692e-07 -4.6236e-06
0.00121113 -2.12635e-05 -1.01372e-06
-2.12635e-05 3.19511e-05 -1.03325e-06
-1.01372e-06 -1.03325e-06 -3.39464e-05
0.00124926 3.32688e-06 -4.85429e-07
3.32688e-06 8.78002e-05 4.48453e-08
-4.85429e-07 4.48453e-08 2.36993e-05
0.00126197 1.1268e-05 -3.93241e-08
1.1268e-05 8.41469e-05 -1.09351e-07
-3.93241e-08 -1.09351e-07 1.74459e-05
0.00129629 3.62997e-06 -1.0126e-07
3.62997e-06 0.000100552 3.29849e-07
-1.0126e-07 3.29849e-07 3.27693e-05
0.00122034 2.38415e-05 3.01045e-07
2.38415e-05 6.20888e-05 9.78635e-08
3.01045e-07 9.78635e-08 -1.83537e-06
0.00123963 2.05076e-05 2.37885e-07
2.05076e-05 8.559e-05 1.18837e-08
2.37885e-07 1.18837e-08 2.41262e-05
0.00086294 1.54614e-05 -2.35663e-06
1.54614e-05 -6.42418e-05 -1.55782e-07
-2.35663e-06 -1.55782e-07 -0.000121851
0.00132593 2.57085e-05 1.13859e-06
2.57085e-05 0.000111323 8.22439e-07
1.13859e-06 8.22439e-07 4.93884e-05
0.000985859 2.17366e-05 -4.14382e-07
2.17366e-05 -1.44947e-05 6.71927e-08
-4.14382e-07 6.71927e-08 -7.14498e-05
0.000713955 1.50582e-05 -5.12095e-06
1.50582e-05 -5.82169e-05 5.33828e-07
-5.12095e-06 5.33828e-07 -9.6276e-05
0.00102824 9.24164e-06 2.25001e-06
9.24164e-06 2.48366e-06 -3.42285e-08
2.25001e-06 -3.42285e-08 -5.29954e-05
0.000728306 1.31855e-05 3.05402e-08
1.31855e-05 -6.06311e-05 2.8552e-08
3.05402e-08 2.8552e-08 -9.63814e-05
0.00313205 4.10986e-05 -1.60063e-05
4.10986e-05 0.00116701 1.10882e-06
-1.60063e-05 1.10882e-06 0.00116219
0.000780279 1.12765e-05 4.99494e-06
1.12765e-05 -4.45061e-05 -7.93767e-07
4.99494e-06 -7.93767e-07 -7.78255e-05
0.00306948 3.9993e-05 1.62707e-07
3.9993e-05 0.00112537 1.29068e-07
1.62707e-07 1.29068e-07 0.00112246
0.00117484 2.568e-05 1.34038e-05
2.568e-05 0.000185409 -1.62616e-06
1.34038e-05 -1.62616e-06 0.00017423
0.00140371 -2.11939e-05 -4.98152e-07
-2.11939e-05 0.000124556 3.40093e-08
-4.98152e-07 3.40093e-08 5.88365e-05
0.00138223 -2.503e-05 3.05268e-07
-2.503e-05 0.000108648 1.38423e-08
3.05268e-07 1.38423e-08 3.98741e-05
0.00122564 -1.45353e-05 -8.20893e-07
-1.45353e-05 3.68146e-05 6.84595e-08
-8.20893e-07 6.84595e-08 -2.60245e-05
0.00130331 -1.51082e-05 1.68555e-07
-1.51082e-05 5.08048e-05 -2.71708e-07
1.68555e-07 -2.71708e-07 -1.25504e-05
0.00120426 -1.6976e-05 -4.81344e-08
-1.6976e-05 1.47833e-06 6.43277e-07
-4.81344e-08 6.43277e-07 -6.39921e-05
0.00105685 1.82666e-06 -2.57473e-06
1.82666e-06 -8.8103e-06 -7.06784e-08
-2.57473e-06 -7.06784e-08 -6.59777e-05
0.00125336 2.09052e-06 2.51432e-08
2.09052e-06 3.50087e-05 1.53717e-07
2.51432e-08 1.53717e-07 -2.95794e-05
0.00125638 -4.98418e-06 3.5352e-07
-4.98418e-06 1.19033e-05 -1.15018e-06
3.5352e-07 -1.15018e-06 -5.23627e-05
0.000810119 -3.60584e-06 -5.6655e-06
-3.60584e-06 -4.78714e-05 -1.39662e-06
-5.6655e-06 -1.39662e-06 -8.1462e-05
0.000949372 1.20399e-05 -7.72076e-07
1.20399e-05 -5.72665e-05 -2.01305e-07
-7.72076e-07 -2.01305e-07 -0.00011557
0.00154318 2.22965e-05 1.05826e-06
2.22965e-05 0.000179509 3.62249e-07
1.05826e-06 3.62249e-07 0.000113377
0.0031403 -3.70435e-05 -1.63844e-05
-3.70435e-05 0.00113648 -2.23322e-06
-1.63844e-05 -2.23322e-06 0.00113652
0.000789831 -7.4852e-06 -1.50874e-07
-7.4852e-06 -5.20737e-05 6.49561e-08
-1.50874e-07 6.49561e-08 -8.29717e-05
0.000826539 1.24324e-05 1.74521e-06
1.24324e-05 -9.97089e-05 7.0514e-07
1.74521e-06 7.0514e-07 -0.000157299
0.00294114 -3.60479e-05 -1.68372e-07
-3.60479e-05 0.00103197 1.17572e-07
-1.68372e-07 1.17572e-07 0.00103505
0.000721359 -1.71464e-05 4.42931e-06
-1.71464e-05 -7.65052e-05 2.12918e-06
4.42931e-06 2.12918e-06 -0.00010359
0.00275396 -3.46676e-05 1.21608e-05
-3.46676e-05 0.000932615 2.47609e-06
1.21608e-05 2.47609e-06 0.000938902
0.00128358 -5.04191e-06 -5.16461e-07
-5.04191e-06 9.65041e-05 -2.4974e-08
-5.16461e-07 -2.4974e-08 3.2275e-05
0.0012351 -1.19148e-05 -1.56272e-08
-1.19148e-05 6.20527e-05 -2.92527e-08
-1.56272e-08 -2.92527e-08 -4.91665e-06
0.00130888 -2.18756e-05 3.12165e-07
-2.18756e-05 8.91838e-05 -6.96988e-07
3.12165e-07 -6.96988e-07 2.07178e-05
0.000894272 -4.01398e-06 -2.28596e-06
-4.01398e-06 -5.25352e-05 1.52195e-07
-2.28596e-06 1.52195e-07 -0.000111947
0.00125257 7.90391e-06 2.56676e-07
7.90391e-06 8.95783e-05 2.57699e-08
2.56676e-07 2.57699e-08 2.55021e-05
0.0013028 1.18147e-05 2.13897e-07
1.18147e-05 0.000103575 -4.60901e-10
2.13897e-07 -4.60901e-10 3.67317e-05
0.00123311 2.04981e-05 9.57606e-07
2.04981e-05 8.16093e-05 2.74141e-07
9.57606e-07 2.74141e-07 2.03085e-05
0.000880785 1.51903e-05 -3.99973e-07
1.51903e-05 -5.60881e-05 -4.43188e-08
-3.99973e-07 -4.43188e-08 -0.000113582
0.000704688 1.67571e-05 -5.15414e-06
1.67571e-05 -5.53143e-05 1.39865e-07
-5.15414e-06 1.39865e-07 -9.51609e-05
0.00105397 2.31884e-05 1.88055e-06
2.31884e-05 1.90887e-05 3.52178e-07
1.88055e-06 3.52178e-07 -3.75341e-05
0.00071568 1.91154e-05 1.12642e-07
1.91154e-05 -5.8095e-05 1.63183e-07
1.12642e-07 1.63183e-07 -9.6145e-05
0.00312225 4.11401e-05 -1.6766e-05
4.11401e-05 0.00117512 7.35958e-07
-1.6766e-05 7.35958e-07 0.00116842
0.000748468 1.77103e-05 4.93303e-06
1.77103e-05 -5.23433e-05 -6.15939e-07
4.93303e-06 -6.15939e-07 -8.80943e-05
0.00307895 4.0163e-05 2.20246e-07
4.0163e-05 0.00114389 1.10239e-07
2.20246e-07 1.10239e-07 0.00113885
0.00301153 3.89928e-05 1.59836e-05
3.89928e-05 0.0011002 -1.27688e-06
1.59836e-05 -1.27688e-06 0.00109704
0.00126368 -1.86081e-05 -8.63819e-07
-1.86081e-05 7.39668e-05 -5.02776e-08
-8.63819e-07 -5.02776e-08 1.00782e-05
0.00134946 -2.1641e-05 5.92306e-08
-2.1641e-05 9.75965e-05 3.02381e-07
5.92306e-08 3.02381e-07 3.15032e-05
0.00128277 -2.4415e-05 1.20163e-07
-2.4415e-05 6.01202e-05 2.99938e-07
1.20163e-07 2.99938e-07 -9.37478e-06
0.00105428 -1.2178e-05 -2.27674e-06
-1.2178e-05 8.70755e-08 -2.09134e-07
-2.27674e-06 -2.09134e-07 -5.6721e-05
0.0012318 -1.48399e-05 1.87728e-07
-1.48399e-05 3.97795e-05 -1.95706e-07
1.87728e-07 -1.95706e-07 -2.30839e-05
0.00128019 -1.53493e-05 1.97807e-08
-1.53493e-05 4.04306e-05 -5.07558e-07
1.97807e-08 -5.07558e-07 -2.27938e-05
0.000759743 -7.16886e-06 -5.59827e-06
-7.16886e-06 -6.75537e-05 -9.56616e-07
-5.59827e-06 -9.56616e-07 -0.000102623
0.00108576 1.78795e-06 3.62525e-09
1.78795e-06 4.33758e-06 2.01771e-07
3.62525e-09 2.01771e-07 -5.29336e-05
0.00129077 2.16884e-06 1.28043e-06
2.16884e-06 5.16506e-05 -2.43784e-07
1.28043e-06 -2.43784e-07 -1.30404e-05
0.00325673 -3.8204e-05 -1.7512e-05
-3.8204e-05 0.00120215 -1.86746e-06
-1.7512e-05 -1.86746e-06 0.00119998
0.000775914 -3.81905e-06 -6.682e-08
-3.81905e-06 -6.23371e-05 1.42136e-07
-6.682e-08 1.42136e-07 -9.60007e-05
0.00109799 1.37341e-05 1.97743e-06
1.37341e-05 1.37044e-05 6.76166e-07
1.97743e-06 6.76166e-07 -4.41018e-05
0.00314823 -3.76583e-05 -1.53787e-07
-3.76583e-05 0.00113954 1.34715e-07
-1.53787e-07 1.34715e-07 0.0011399
0.000734157 -8.65e-06 5.0273e-06
-8.65e-06 -7.62369e-05 1.94407e-06
5.0273e-06 1.94407e-06 -0.000107195
0.00293959 -3.65198e-05 1.32378e-05
-3.65198e-05 0.00103074 2.40584e-06
1.32378e-05 2.40584e-06 0.00103421
0.00105066 -9.12019e-06 -1.98075e-06
-9.12019e-06 1.91805e-05 -1.78027e-07
-1.98075e-06 -1.78027e-07 -3.93822e-05
0.0012051 -9.2366e-06 1.8798e-07
-9.2366e-06 5.87541e-05 1.33553e-08
1.8798e-07 1.33553e-08 -5.99317e-06
0.0012717 -1.5323e-05 6.55602e-07
-1.5323e-05 7.88567e-05 -9.2872e-08
6.55602e-07 -9.2872e-08 1.21056e-05
0.000697508 5.77994e-06 -5.09213e-06
5.77994e-06 -5.78767e-05 1.31294e-07
-5.09213e-06 1.31294e-07 -9.87926e-05
0.000891483 8.18552e-07 -3.36798e-07
8.18552e-07 -5.28245e-05 1.66459e-07
-3.36798e-07 1.66459e-07 -0.000112005
0.00125791 1.21341e-05 9.09145e-07
1.21341e-05 9.23573e-05 -6.16657e-08
9.09145e-07 -6.16657e-08 2.82899e-05
0.000899755 1.52774e-05 1.5931e-06
1.52774e-05 -4.74471e-05 1.87637e-07
1.5931e-06 1.87637e-07 -0.000104828
0.000704943 1.68313e-05 1.30933e-08
1.68313e-05 -5.58372e-05 -1.42759e-08
1.30933e-08 -1.42759e-08 -9.56246e-05
0.00308652 4.07454e-05 -1.71253e-05
4.07454e-05 0.00116866 3.20211e-07
-1.71253e-05 3.20211e-07 0.00116053
0.000716286 2.17023e-05 5.14289e-06
2.17023e-05 -5.85512e-05 -1.7342e-07
5.14289e-06 -1.7342e-07 -9.65656e-05
0.00307007 4.00622e-05 4.25604e-07
4.00622e-05 0.00115231 1.50024e-07
4.25604e-07 1.50024e-07 0.00114543
0.00302299 3.899e-05 1.70901e-05
3.899e-05 0.00111941 -9.18101e-07
1.70901e-05 -9.18101e-07 0.00111416
0.00104649 -1.64109e-05 -2.17838e-06
-1.64109e-05 1.04991e-05 -3.61214e-07
-2.17838e-06 -3.61214e-07 -4.71414e-05
0.00121758 -1.96126e-05 -1.74755e-08
-1.96126e-05 5.19495e-05 5.4478e-08
-1.74755e-08 5.4478e-08 -1.21259e-05
0.0012993 -2.2191e-05 4.44212e-07
-2.2191e-05 7.27064e-05 1.83309e-07
4.44212e-07 1.83309e-07 6.21789e-06
0.00168623 -2.16489e-05 -9.55278e-06
-2.16489e-05 0.000399185 -7.30848e-07
-9.55278e-06 -7.30848e-07 0.000368732
0.00107502 -1.20464e-05 1.4897e-07
-1.20464e-05 9.68889e-06 -4.93038e-08
1.4897e-07 -4.93038e-08 -4.72048e-05
0.00123894 -1.53345e-05 9.94972e-07
-1.53345e-05 4.32228e-05 -4.75698e-07
9.94972e-07 -4.75698e-07 -1.96721e-05
0.00323272 -3.8837e-05 -1.78883e-05
-3.8837e-05 0.00120363 -1.40896e-06
-1.78883e-05 -1.40896e-06 0.00119971
0.000755114 -6.09944e-06 2.73438e-08
-6.09944e-06 -6.8913e-05 1.82387e-07
2.73438e-08 1.82387e-07 -0.000104096
0.00111524 1.7327e-06 2.76742e-06
1.7327e-06 1.7768e-05 5.34054e-07
2.76742e-06 5.34054e-07 -3.96108e-05
0.00328785 -3.88958e-05 -1.54772e-07
-3.88958e-05 0.00121565 1.50741e-07
-1.54772e-07 1.50741e-07 0.00121371
0.00074291 -3.8533e-06 5.44996e-06
-3.8533e-06 -7.62633e-05 1.7098e-06
5.44996e-06 1.7098e-06 -0.000109996
0.00315337 -3.82122e-05 1.48659e-05
-3.82122e-05 0.00114126 2.27488e-06
1.48659e-05 2.27488e-06 0.00114196
0.000685535 -7.30628e-06 -7.44555e-06
-7.30628e-06 -6.87379e-05 -6.81136e-07
-7.44555e-06 -6.81136e-07 -0.000109788
0.000989833 -9.70393e-06 9.33992e-08
-9.70393e-06 -1.07996e-05 1.06803e-07
9.33992e-08 1.06803e-07 -6.97886e-05
0.00112585 -1.22589e-05 9.99188e-07
-1.22589e-05 2.05543e-05 1.11592e-07
9.99188e-07 1.11592e-07 -4.46732e-05
0.00307991 -3.58712e-06 -1.61612e-05
-3.58712e-06 0.00117074 -2.79282e-08
-1.61612e-05 -2.79282e-08 0.0011618
0.00070845 6.28281e-06 9.19823e-08
6.28281e-06 -5.30931e-05 1.72897e-07
9.19823e-08 1.72897e-07 -9.40662e-05
0.000887399 5.67663e-06 1.54164e-06
5.67663e-06 -5.37958e-05 1.78718e-07
1.54164e-06 1.78718e-07 -0.000112723
0.00070903 1.73017e-05 5.01983e-06
1.73017e-05 -5.46215e-05 -1.66485e-07
5.01983e-06 -1.66485e-07 -9.43546e-05
0.00306797 4.02232e-05 9.0311e-07
4.02232e-05 0.00116097 1.29216e-07
9.0311e-07 1.29216e-07 0.00115271
0.00302328 3.92036e-05 1.78494e-05
3.92036e-05 0.00113201 -4.72157e-07
1.78494e-05 -4.72157e-07 0.00112497
0.00161771 -2.49497e-05 -1.18415e-05
-2.49497e-05 0.000379947 -1.04617e-06
-1.18415e-05 -1.04617e-06 0.000347322
0.00106189 -1.56032e-05 4.36581e-08
-1.56032e-05 1.74646e-05 1.38197e-08
4.36581e-08 1.38197e-08 -4.01887e-05
0.0011703 -2.05018e-05 7.10427e-07
-2.05018e-05 2.93626e-05 1.32067e-07
7.10427e-07 1.32067e-07 -3.48944e-05
0.00316802 -4.2996e-05 -7.42984e-06
-4.2996e-05 0.00118641 -4.45716e-07
-7.42984e-06 -4.45716e-07 0.00118079
0.000763763 -1.35142e-05 3.04981e-08
-1.35142e-05 -5.30101e-05 5.48804e-08
3.04981e-08 5.48804e-08 -8.95254e-05
0.00109576 -1.16095e-05 2.51012e-06
-1.16095e-05 1.9271e-05 1.12912e-07
2.51012e-06 1.12912e-07 -3.76958e-05
0.00330485 -3.95731e-05 -1.8317e-07
-3.95731e-05 0.00123559 1.55505e-07
-1.8317e-07 1.55505e-07 0.0012318
0.000750862 -4.65753e-06 5.72258e-06
-4.65753e-06 -7.01243e-05 1.32666e-06
5.72258e-06 1.32666e-06 -0.000105414
0.00331635 -3.95947e-05 1.63664e-05
-3.95947e-05 0.00122796 2.02914e-06
1.63664e-05 2.02914e-06 0.00122625
0.00121159 -1.56269e-05 -1.65362e-05
-1.56269e-05 0.000252856 -3.21108e-07
-1.65362e-05 -3.21108e-07 0.000231415
0.00120318 -1.15011e-05 -3.45139e-06
-1.15011e-05 0.000184052 1.53943e-07
-3.45139e-06 1.53943e-07 0.000146551
0.000929526 -9.50626e-06 2.07648e-06
-9.50626e-06 -4.04767e-05 3.94807e-07
2.07648e-06 3.94807e-07 -9.98767e-05
0.00309435 1.87555e-06 6.04468e-07
1.87555e-06 0.00117705 3.9329e-08
6.04468e-07 3.9329e-08 0.00116813
0.000712679 5.71734e-06 5.13092e-06
5.71734e-06 -5.13828e-05 2.01763e-07
5.13092e-06 2.01763e-07 -9.23977e-05
0.00303716 3.93901e-05 1.70302e-05
3.93901e-05 0.00114774 -1.20035e-07
1.70302e-05 -1.20035e-07 0.00113933
0.00116664 -2.52634e-05 -5.04852e-06
-2.52634e-05 0.000221642 -3.95485e-07
-5.04852e-06 -3.95485e-07 0.000202198
0.00123916 -1.97525e-05 -3.30501e-06
-1.97525e-05 0.000193498 -4.8573e-08
-3.30501e-06 -4.8573e-08 0.000157831
0.00107881 -1.56034e-05 2.12333e-06
-1.56034e-05 2.51593e-05 3.77078e-07
2.12333e-06 3.77078e-07 -3.25339e-05
0.00225314 -3.29608e-05 6.16853e-06
-3.29608e-05 0.000737023 3.81472e-07
6.16853e-06 3.81472e-07 0.000725491
0.000743669 -1.02438e-05 5.60858e-06
-1.02438e-05 -6.1439e-05 9.51042e-07
5.60858e-06 9.51042e-07 -9.80973e-05
0.00338028 -4.04776e-05 1.75902e-05
-4.04776e-05 0.00126914 1.66633e-06
1.75902e-05 1.66633e-06 0.00126547
0.00311115 -3.91592e-05 -8.82461e-07
-3.91592e-05 0.00118185 1.76836e-07
-8.82461e-07 1.76836e-07 0.00117314
0.000723236 -7.96002e-06 5.37232e-06
-7.96002e-06 -5.01154e-05 7.65532e-07
5.37232e-06 7.65532e-07 -9.09027e-05
0.00311416 4.74542e-06 1.75865e-05
4.74542e-06 0.00118575 -8.63882e-09
1.75865e-05 -8.63882e-09 0.00117675
0.0021616 -3.21194e-05 6.24735e-06
-3.21194e-05 0.000709432 2.32798e-07
6.24735e-06 2.32798e-07 0.000695696
0.000731132 -1.28981e-05 5.36979e-06
-1.28981e-05 -5.37696e-05 9.43299e-07
5.36979e-06 9.43299e-07 -9.26184e-05
0.00331139 -4.0691e-05 1.80602e-05
-4.0691e-05 0.00125046 1.23829e-06
1.80602e-05 1.23829e-06 0.00124511
0.00315428 -4.0487e-05 1.76384e-05
-4.0487e-05 0.00120032 4.61809e-07
1.76384e-05 4.61809e-07 0.00119184
0.00320469 -4.0709e-05 1.78416e-05
-4.0709e-05 0.00121423 8.57029e-07
1.78416e-05 8.57029e-07 0.0012072
