# vtk DataFile Version 2.0
Wound Healing Simulation
ASCII
DATASET UNSTRUCTURED_GRID
POINTS 3012 float
69.9759 18.75 4
67.2507 60.3285 4
69.976 18.75 2
73.0099 25.446 4
71.1327 20.9142 4
68.6801 16.6661 4
67.8204 19.9255 3.97142
67.2507 60.3286 2
71.1327 54.0858 4
68.6801 58.3339 4
65.6939 62.2254 4
65.3073 58.9988 3.9704
74.6784 42.3946 4
73.7221 47.2057 4
69.9759 18.75 0
73.0099 25.446 2
68.6801 16.6661 2
71.1327 20.9142 2
67.8209 19.9297 2
74.6792 32.6053 4
73.7222 27.7943 4
72.1454 23.1494 4
70.6107 26.2218 3.97178
68.8811 21.9574 3.97184
67.2507 14.6715 4
66.6314 17.9725 3.9703
65.7236 21.0513 3.96124
67.2507 60.3285 0
71.1327 54.0858 2
68.6801 58.3339 2
65.694 62.2255 2
65.3086 58.9938 2
72.1454 51.8506 4
69.9759 56.25 4
68.8315 53.1145 3.97171
64.0165 64.0165 4
66.6052 57.1332 3.97138
63.8799 60.7611 3.96748
63.451 57.7479 3.95899
60.3285 67.2507 4
74.6792 42.3947 2
73.7222 47.2057 2
74.9194 39.9526 4
74.2788 44.8158 4
72.1656 42.086 3.97392
73.0099 49.554 4
71.2461 46.5984 3.97235
73.0099 25.446 0
71.1327 20.9142 0
68.6801 16.6661 0
67.8204 19.9255 0.0285834
74.6792 32.6053 2
73.7222 27.7943 2
67.2508 14.6715 2
72.1455 23.1494 2
70.61 26.2231 2
66.6327 17.9774 2
68.8812 21.9604 2
65.7234 21.0525 2
74.9197 35.0474 4
74.2794 30.1841 4
72.1823 32.9451 3.97402
71.2753 28.4329 3.97231
69.8116 24.0595 3.97193
68.3042 26.9661 3.96418
66.6956 22.9557 3.96243
65.694 12.7746 4
65.3182 16.1058 3.96937
64.6384 19.2238 3.95954
63.6839 22.116 3.96516
71.1327 54.0858 0
65.6939 62.2254 0
68.6801 58.3339 0
65.3073 58.9988 0.0295952
72.1455 51.8506 2
69.9759 56.25 2
68.8316 53.1112 2
64.0165 64.0165 2
66.6064 57.1282 2
63.8809 60.7555 2
63.4415 57.7468 2
62.2254 65.694 4
58.8897 65.4097 3.9758
69.7646 50.9901 3.97171
67.7784 55.1683 3.97165
66.5706 52.1867 3.96265
62.331 62.4223 3.96988
64.5886 56.0065 3.96049
62.1861 59.382 3.95649
61.6546 56.6013 3.96061
58.3339 68.6801 4
60.3285 67.2508 2
73.7221 47.2057 0
74.6784 42.3946 0
74.9197 39.9526 2
74.2794 44.8159 2
72.1645 42.0851 2
73.0099 49.554 2
71.2452 46.597 2
75 37.5 4
72.4029 39.8029 3.97481
71.7795 44.3532 3.97332
69.7827 41.7869 3.96653
70.5713 48.8142 3.97179
68.8686 46.0048 3.9655
74.6792 32.6053 0
73.7222 27.7943 0
67.2507 14.6715 0
72.1454 23.1494 0
70.6107 26.2218 0.028221
68.8811 21.9574 0.0281596
66.6314 17.9725 0.0296974
65.7236 21.0513 0.0387571
74.9197 35.0474 2
74.2794 30.1841 2
72.1811 32.9452 2
71.2743 28.4338 2
65.694 12.7745 2
65.3191 16.1114 2
69.8112 24.0616 2
68.3077 26.9668 2
64.6318 19.2258 2
66.6973 22.9568 2
63.6843 22.1166 2
72.4107 35.2256 3.97481
71.8013 30.6781 3.97351
69.8222 33.2753 3.96595
68.9325 29.05 3.96451
67.5557 24.9305 3.96355
65.9901 27.6923 3.9736
64.0165 10.9835 4
64.5436 23.9055 3.96779
63.883 14.3321 3.96602
63.4535 17.4761 3.95676
62.7093 20.4073 3.9623
61.7522 23.0807 3.97154
60.6791 11.1034 3.97246
57.6033 11.4899 3.96298
72.1454 51.8506 0
69.9759 56.25 0
68.8315 53.1145 0.0282899
64.0165 64.0165 0
63.8799 60.7611 0.0325168
66.6052 57.1332 0.0286236
63.451 57.7479 0.0410136
62.2255 65.694 2
58.8929 65.4037 2
69.7644 50.9877 2
67.779 55.1639 2
66.5721 52.1858 2
62.3327 62.4143 2
64.5831 56.0052 2
62.1789 59.3821 2
61.6535 56.6021 2
60.664 63.9722 3.97466
57.0207 66.7322 3.98032
57.545 63.648 3.96858
67.4367 50.1578 3.96401
65.6245 54.1492 3.96157
64.2973 51.3086 3.96853
60.764 60.906 3.96455
62.6252 54.9885 3.96392
60.519 58.0784 3.95555
60.0617 55.6589 3.96657
56.25 69.9759 4
58.3339 68.6801 2
60.3285 67.2507 0
58.9164 9.66087 3.97525
62.2254 9.30607 4
73.0099 49.554 0
74.2788 44.8158 0
71.2461 46.5984 0.0276463
72.1656 42.086 0.0260817
74.9194 39.9526 0
75 37.5 2
72.4022 39.8023 2
71.7789 44.3519 2
69.7855 41.7866 2
70.5708 48.8125 2
68.8733 46.0044 2
72.4864 37.5131 3.97464
70.026 39.6573 3.96665
69.4026 43.9017 3.96629
67.4051 41.4789 3.97686
68.2078 48.0927 3.96492
66.4919 45.3957 3.9757
74.9197 35.0474 0
74.2794 30.1841 0
72.1823 32.9451 0.0259769
71.2753 28.4329 0.0276887
65.694 12.7746 0
65.3182 16.1058 0.0306303
69.8116 24.0595 0.0280691
68.3042 26.9661 0.0358191
66.6956 22.9557 0.0375682
64.6384 19.2238 0.0404575
63.6839 22.116 0.0348374
72.4101 35.2253 2
71.8005 30.6788 2
69.8253 33.2756 2
68.9375 29.0504 2
64.0165 10.9835 2
63.8847 14.3393 2
63.453 17.4753 2
67.5584 24.9315 2
65.9879 27.6936 2
62.7137 20.4066 2
64.5424 23.9065 2
61.7508 23.0819 2
60.6821 11.1089 2
57.6029 11.4826 2
70.0438 35.3966 3.96631
69.4429 31.1587 3.9651
67.4779 33.6144 3.97618
66.5795 29.6692 3.97498
65.3086 25.7672 3.97048
63.7624 28.3604 3.97524
62.3352 12.6613 3.96853
62.4971 24.7672 3.97414
62.1773 15.8108 3.95612
61.622 18.7785 3.95934
60.8944 21.487 3.96774
59.9641 23.9188 3.974
59.2357 12.824 3.962
55.8645 10.2819 3.97216
56.387 13.1969 3.9636
69.7646 50.9901 0.0282929
62.2254 65.694 0
58.8897 65.4097 0.0242038
67.7784 55.1683 0.0283462
66.5706 52.1867 0.037352
62.331 62.4223 0.0301224
62.1861 59.382 0.0435131
64.5886 56.0065 0.0395118
61.6546 56.6013 0.0393904
60.6673 63.9665 2
57.0245 66.7273 2
57.5474 63.6556 2
67.4386 50.1569 2
65.6232 54.1481 2
64.2952 51.3079 2
60.7586 60.9076 2
62.6257 54.9892 2
60.5094 58.0777 2
60.0616 55.6596 2
55.0662 67.9295 3.98325
59.2122 62.3214 3.96761
55.7921 64.8705 3.97036
56.3121 62.0179 3.98023
65.0851 49.3392 3.97106
63.4812 53.2121 3.96619
62.0323 50.5187 3.97331
59.2566 59.4865 3.95493
60.7576 54.1777 3.9701
59.0144 56.872 3.96067
58.8887 55.0219 3.97084
48.0979 68.5686 3.97978
50.9443 69.9305 3.98673
54.0858 71.1327 4
56.25 69.976 2
58.3339 68.6801 0
57.0536 8.34131 3.9747
60.3285 7.74928 4
58.9196 9.66661 2
62.2255 9.30602 2
70.5713 48.8142 0.0282067
71.7795 44.3532 0.0266795
68.8686 46.0048 0.0345021
69.7827 41.7869 0.0334659
72.4029 39.8029 0.0251861
75 37.5 0
72.4852 37.5126 2
70.029 39.6571 2
69.405 43.9012 2
67.4019 41.4782 2
68.2094 48.0918 2
66.4881 45.3946 2
70.1146 37.5239 3.96658
67.653 39.505 3.97666
67.0178 43.4388 3.97646
65.1881 41.179 3.97683
65.8352 47.3607 3.97421
64.2451 44.7733 3.97619
72.4107 35.2256 0.0251872
71.8013 30.6781 0.0264928
69.8222 33.2753 0.0340545
68.9325 29.05 0.0354903
64.0165 10.9835 0
63.883 14.3321 0.0339845
63.4535 17.4761 0.0432437
67.5557 24.9305 0.0364528
65.9901 27.6923 0.0264044
64.5436 23.9055 0.0322132
62.7093 20.4073 0.0377047
61.7522 23.0807 0.028456
60.6791 11.1034 0.0275385
57.6033 11.4899 0.0370211
70.0464 35.3967 2
69.4463 31.1591 2
67.4752 33.6151 2
66.5769 29.6704 2
62.3381 12.6684 2
62.1749 15.8111 2
61.6307 18.7767 2
65.3067 25.7684 2
63.7605 28.361 2
60.8929 21.4882 2
62.4958 24.7684 2
59.9629 23.92 2
59.2352 12.8229 2
56.3878 13.1928 2
55.866 10.2848 2
67.6982 35.5607 3.97641
67.0823 31.6571 3.97579
65.3484 33.9649 3.97691
64.2779 30.2768 3.97583
63.1669 26.5348 3.97508
61.7268 28.9193 3.97528
60.7626 14.2576 3.96163
60.5526 25.5242 3.97493
60.4757 17.2163 3.95565
59.8986 19.9739 3.96285
59.2119 22.4595 3.9706
58.4172 24.5602 3.9742
54.0287 9.17611 3.96784
57.8758 14.4065 3.95392
54.773 12.0931 3.96528
55.2677 14.7616 3.95437
67.4367 50.1578 0.0359875
57.0207 66.7322 0.0196831
60.664 63.9722 0.0253386
57.545 63.648 0.0314181
65.6245 54.1492 0.0384344
64.2973 51.3086 0.0314666
60.764 60.906 0.0354492
60.519 58.0784 0.0444543
62.6252 54.9885 0.0360755
60.0617 55.6589 0.0334332
55.0706 67.9253 2
59.2097 62.3264 2
55.795 64.8668 2
56.3102 62.0195 2
65.0826 49.3382 2
63.4798 53.2119 2
62.0311 50.5186 2
59.2747 59.4954 2
60.7572 54.1782 2
59.0241 56.8752 2
58.8981 55.0244 2
53.0381 68.9972 3.98363
53.9585 65.9971 3.97112
57.8495 60.8061 3.95837
54.6612 63.1246 3.96377
55.1786 60.5316 3.97759
62.7739 48.5379 3.97444
61.3719 52.4403 3.97181
59.7051 49.8264 3.97333
57.8293 58.1411 3.95729
58.9146 53.774 3.97277
57.7133 55.6234 3.96352
50.1035 67.8465 3.97647
47.4551 66.563 3.97507
46.0525 69.15 3.98213
48.1012 68.5691 2
48.7984 70.7214 3.98819
50.9481 69.9278 2
51.8506 72.1454 4
54.0858 71.1327 2
56.25 69.9759 0
55.0985 7.14409 3.9809
58.3339 6.31992 4
57.0574 8.34708 2
60.3286 7.74926 2
58.9164 9.66087 0.024748
62.2254 9.30607 0
68.2078 48.0927 0.0350835
69.4026 43.9017 0.0337078
66.4919 45.3957 0.0243014
67.4051 41.4789 0.0231402
70.026 39.6573 0.0333538
72.4864 37.5131 0.0253604
70.1179 37.5239 2
67.65 39.5047 2
67.0153 43.4379 2
65.1867 41.1787 2
65.8326 47.3596 2
64.2435 44.7728 2
67.7573 37.5251 3.9765
65.4304 39.3561 3.97693
64.7924 42.9719 3.97659
63.2521 40.885 3.97662
63.5422 46.6136 3.97487
62.2458 44.1179 3.97587
70.0438 35.3966 0.0336853
69.4429 31.1587 0.0348979
67.4779 33.6144 0.0238165
66.5795 29.6692 0.0250228
62.3352 12.6613 0.0314696
62.1773 15.8108 0.043879
61.622 18.7785 0.0406605
65.3086 25.7672 0.0295174
63.7624 28.3604 0.0247559
62.4971 24.7672 0.0258622
60.8944 21.487 0.0322581
59.9641 23.9188 0.0259979
59.2357 12.824 0.0380001
56.387 13.1969 0.0364029
55.8645 10.2819 0.027843
67.6956 35.561 2
67.0803 31.658 2
65.3465 33.9655 2
64.2764 30.2773 2
60.7603 14.2581 2
60.4717 17.2176 2
59.8949 19.9755 2
63.1655 26.536 2
61.7264 28.9193 2
59.2136 22.4601 2
60.5518 25.5248 2
58.4146 24.5627 2
57.8795 14.4042 2
55.2639 14.7523 2
54.0322 9.16908 2
54.7683 12.0951 2
65.5303 35.6881 3.97695
64.8109 32.212 3.97626
63.8311 34.2951 3.97644
62.0468 30.7471 3.97568
61.134 27.2358 3.97495
60.2085 29.3093 3.97586
59.228 15.7501 3.95475
58.7175 26.0304 3.97521
58.8553 18.5095 3.95915
58.3038 21.0656 3.96492
57.7435 23.3392 3.97128
57.3528 24.9343 3.97587
52.1063 8.1674 3.96819
53.0387 11.0968 3.96546
56.5935 15.862 3.95538
53.7858 13.7872 3.96928
54.2747 16.1464 3.95612
55.0662 67.9295 0.0167459
65.0851 49.3392 0.0289399
55.7921 64.8705 0.0296422
59.2122 62.3214 0.0323949
56.3121 62.0179 0.0197706
63.4812 53.2121 0.0338085
62.0323 50.5187 0.0266901
59.2566 59.4865 0.0450721
59.0144 56.872 0.0393339
60.7576 54.1777 0.0299004
58.8887 55.0219 0.0291615
53.0423 68.9946 2
53.9614 65.9956 2
57.8517 60.8099 2
54.6595 63.1253 2
55.1771 60.531 2
62.7728 48.5376 2
61.3714 52.4405 2
59.7057 49.8263 2
57.8377 58.1455 2
58.9198 53.7752 2
57.711 55.6224 2
52.0631 66.9845 3.9734
52.9355 64.1642 3.9695
56.5563 59.3911 3.95386
53.632 61.5012 3.9661
54.19 59.2081 3.96467
60.3874 47.7069 3.97414
59.2092 51.9181 3.97302
57.3301 49.3704 3.9742
56.5106 56.8267 3.96132
56.5808 53.8914 3.9679
50.1067 67.8433 2
49.3259 65.8888 3.97456
47.4583 66.555 2
46.8806 64.6872 3.97686
45.554 67.0809 3.97834
43.9706 69.5827 3.98337
46.0558 69.1498 2
46.6056 71.3661 3.98963
48.0979 68.5686 0.020215
48.8021 70.7207 2
49.554 73.0099 4
50.9443 69.9305 0.013273
51.8506 72.1455 2
54.0858 71.1327 0
53.0612 6.07485 3.98607
55.1026 7.14603 2
56.25 5.02411 4
58.3339 6.3199 2
57.0536 8.34131 0.0253037
60.3285 7.74928 0
65.8352 47.3607 0.0257937
67.0178 43.4388 0.0235442
64.2451 44.7733 0.0238053
65.1881 41.179 0.0231697
67.653 39.505 0.0233405
70.1146 37.5239 0.0334177
67.7547 37.5252 2
65.4291 39.3561 2
64.7907 42.9712 2
63.2521 40.8848 2
63.541 46.613 2
62.2457 44.1179 2
65.5407 37.5057 3.97692
63.4022 39.2485 3.97647
62.7973 42.4838 3.97629
61.8164 40.6458 3.97659
61.3759 45.7822 3.9752
60.7667 43.571 3.97601
67.6982 35.5607 0.0235926
67.0823 31.6571 0.0242057
65.3484 33.9649 0.0230859
64.2779 30.2768 0.0241672
60.7626 14.2576 0.0383685
60.4757 17.2163 0.0443535
59.8986 19.9739 0.0371499
63.1669 26.5348 0.0249228
61.7268 28.9193 0.0247228
60.5526 25.5242 0.0250725
59.2119 22.4595 0.0294014
58.4172 24.5602 0.0258041
57.8758 14.4065 0.046077
55.2677 14.7616 0.0456268
54.0287 9.17611 0.0321606
54.773 12.0931 0.0347208
65.5288 35.6882 2
64.8094 32.2127 2
63.8316 34.2952 2
62.0467 30.7472 2
59.2468 15.7456 2
58.8535 18.5103 2
58.3004 21.0676 2
61.1332 27.236 2
60.2094 29.3093 2
57.741 23.3422 2
58.715 26.0317 2
57.3516 24.9383 2
56.5693 15.8665 2
54.2783 16.1363 2
53.7741 13.7805 2
52.1083 8.17202 2
53.0423 11.0876 2
63.614 35.6613 3.97635
62.379 33.1229 3.97609
59.9136 30.7661 3.97552
58.8821 28.1227 3.97527
57.7619 17.1209 3.95611
57.0379 26.0119 3.9754
57.3295 19.6861 3.95969
56.8246 22.1036 3.96527
56.551 24.2346 3.97326
50.1074 7.29675 3.97918
51.2171 10.1818 3.96743
52.1363 12.9107 3.9677
55.3726 17.1352 3.95637
52.9115 15.3942 3.95745
53.6124 17.155 3.9551
53.0381 68.9972 0.0163737
53.9585 65.9971 0.0288838
62.7739 48.5379 0.0255561
54.6612 63.1246 0.0362271
57.8495 60.8061 0.04163
55.1786 60.5316 0.0224146
61.3719 52.4403 0.0281907
59.7051 49.8264 0.0266704
57.8293 58.1411 0.0427111
57.7133 55.6234 0.0364772
58.9146 53.774 0.0272252
52.0662 66.9823 2
52.9356 64.164 2
56.5536 59.392 2
53.6307 61.5013 2
54.1846 59.2099 2
60.3874 47.7067 2
59.2118 51.9185 2
57.3311 49.3709 2
56.5078 56.8304 2
56.579 53.8907 2
51.154 65.0941 3.97062
52.0092 62.4494 3.96395
55.324 58.1164 3.96138
52.7373 59.9876 3.96416
53.5292 58.337 3.96298
57.4686 46.6093 3.97499
56.9412 51.5442 3.9724
55.4602 49.2655 3.97425
55.132 55.5976 3.96288
54.7507 53.1269 3.96273
50.1035 67.8465 0.0235279
49.3274 65.8911 2
48.6007 64.0757 3.97882
47.4551 66.563 0.0249291
45.5556 67.0841 2
46.8815 64.6882 2
46.3626 62.9908 3.98199
45.1233 65.1686 3.97952
43.629 67.4548 3.98
41.8585 69.8697 3.98351
43.9727 69.5828 2
44.3734 71.8608 3.99019
46.0525 69.15 0.0178654
46.6082 71.3655 2
47.2057 73.7222 4
48.7984 70.7214 0.0118101
49.554 73.0099 2
51.8506 72.1454 0
50.9527 5.13498 3.98846
53.0639 6.07575 2
54.0858 3.86728 4
55.0985 7.14409 0.0190984
56.25 5.02406 2
58.3339 6.31992 0
63.5422 46.6136 0.0251338
64.7924 42.9719 0.0234125
62.2458 44.1179 0.0241295
63.2521 40.885 0.0233841
65.4304 39.3561 0.0230667
67.7573 37.5251 0.0234958
65.5395 37.5058 2
63.4026 39.2488 2
62.798 42.4834 2
61.8165 40.6455 2
61.3758 45.7819 2
60.767 43.5711 2
63.4668 37.4617 3.97646
61.5159 39.3258 3.97678
60.511 41.8686 3.97679
59.4863 44.6081 3.97561
65.5303 35.6881 0.0230486
64.8109 32.212 0.0237441
63.8311 34.2951 0.0235566
62.0468 30.7471 0.0243187
59.228 15.7501 0.045252
58.8553 18.5095 0.0408476
58.3038 21.0656 0.035081
61.134 27.2358 0.0250544
60.2085 29.3093 0.02414
58.7175 26.0304 0.0247866
57.7435 23.3392 0.0287155
57.3528 24.9343 0.02413
56.5935 15.862 0.0446162
54.2747 16.1464 0.0438755
53.7858 13.7872 0.0307236
52.1063 8.1674 0.0318114
53.0387 11.0968 0.034539
63.6145 35.6611 2
62.3803 33.1234 2
59.9147 30.7666 2
57.7692 17.1184 2
57.3361 19.6842 2
56.8231 22.107 2
58.8827 28.1218 2
56.5617 24.2372 2
57.0372 26.0108 2
50.1107 7.29284 2
55.3691 17.1381 2
53.616 17.1464 2
52.9079 15.3977 2
52.1485 12.8998 2
51.2184 10.1781 2
61.5586 35.4022 3.97649
59.5241 32.861 3.97593
57.7784 30.2833 3.97519
56.4864 27.6612 3.97554
56.379 18.3407 3.95772
55.5495 25.43 3.97477
55.8889 20.7767 3.95772
55.476 23.1747 3.96624
48.0545 6.53605 3.98237
49.3142 9.36733 3.9722
50.4051 12.0886 3.96525
51.3142 14.6331 3.96611
54.2026 18.1219 3.96149
52.2395 17.2265 3.95488
52.0631 66.9845 0.0266011
52.9355 64.1642 0.0305016
60.3874 47.7069 0.0258572
53.632 61.5012 0.0339037
56.5563 59.3911 0.0461358
54.19 59.2081 0.035334
59.2092 51.9181 0.026975
57.3301 49.3704 0.0258016
56.5106 56.8267 0.0386842
56.5808 53.8914 0.0320973
51.1549 65.0913 2
52.009 62.4547 2
55.3181 58.1167 2
52.7388 59.9908 2
53.5244 58.3399 2
57.4687 46.6083 2
56.9402 51.5436 2
55.4592 49.2649 2
55.1313 55.5987 2
54.7495 53.127 2
50.3211 63.3327 3.97187
51.1716 60.8183 3.97264
54.0184 57.1101 3.96767
52.136 58.4682 3.96944
55.648 43.957 3.97562
54.5549 47.5787 3.97552
54.275 51.0884 3.96602
53.5682 54.32 3.96482
49.3259 65.8888 0.0254374
48.5987 64.0843 2
47.9315 62.4243 3.98911
45.554 67.0809 0.021656
46.8806 64.6872 0.0231383
43.6298 67.4552 2
46.3621 62.9936 2
45.1258 65.1635 2
45.9565 61.518 3.9939
44.7535 63.3985 3.97466
43.3531 65.4836 3.97821
41.6624 67.6729 3.97891
39.7011 70.0168 3.98322
41.86 69.871 2
42.1085 72.2048 3.99069
43.9706 69.5827 0.01663
44.3754 71.8602 2
44.8159 74.2794 4
46.6056 71.3661 0.0103707
47.2057 73.7222 2
49.554 73.0099 0
48.7844 4.32485 3.9892
50.9544 5.13463 2
51.8506 2.85458 4
53.0612 6.07485 0.0139336
54.0858 3.86728 2
56.25 5.02411 0
61.3759 45.7822 0.0247994
62.7973 42.4838 0.0237074
60.7667 43.571 0.0239876
61.8164 40.6458 0.0234086
63.4022 39.2485 0.023528
65.5407 37.5057 0.0230798
63.4679 37.4618 2
61.5155 39.3261 2
60.5116 41.8683 2
59.4873 44.608 2
61.3358 37.45 3.97663
59.4361 39.7957 3.9768
58.084 42.7791 3.97586
63.614 35.6613 0.0236521
62.379 33.1229 0.0239121
59.9136 30.7661 0.024482
57.7619 17.1209 0.0438935
57.3295 19.6861 0.0403099
56.8246 22.1036 0.034731
58.8821 28.1227 0.0247297
57.0379 26.0119 0.0245963
56.551 24.2346 0.0267357
55.3726 17.1352 0.0436346
53.6124 17.155 0.0449014
52.9115 15.3942 0.042548
50.1074 7.29675 0.020824
52.1363 12.9107 0.0322957
51.2171 10.1818 0.0325655
61.5587 35.4023 2
59.5231 32.8611 2
57.7803 30.2836 2
56.3791 18.3401 2
55.9143 20.771 2
55.4852 23.1788 2
56.4882 27.661 2
55.5535 25.4329 2
48.0544 6.53685 2
49.3143 9.36367 2
54.2042 18.1247 2
52.2298 17.2275 2
51.3189 14.6173 2
50.4077 12.0861 2
59.0587 35.1805 3.97654
57.0277 32.4323 3.97522
55.5899 29.6092 3.97533
54.5672 26.9601 3.97467
55.0354 19.4077 3.96306
54.24 24.3976 3.97167
54.4622 21.8599 3.96227
45.9616 5.89025 3.98461
43.3729 7.48277 3.98179
47.3498 8.64298 3.9738
48.5783 11.3626 3.96772
49.6627 13.8466 3.96794
50.5259 16.2914 3.95228
52.8941 18.9033 3.96273
51.1514 18.3113 3.95744
51.154 65.0941 0.0293799
52.0092 62.4494 0.0360541
57.4686 46.6093 0.0250056
52.7373 59.9876 0.0358389
55.324 58.1164 0.0386186
53.5292 58.337 0.0370236
56.9412 51.5442 0.0276
55.4602 49.2655 0.0257457
55.132 55.5976 0.037117
54.7507 53.1269 0.0372683
50.318 63.3306 2
51.1718 60.8192 2
54.0116 57.1112 2
52.1277 58.4707 2
55.6503 43.958 2
54.5549 47.5794 2
54.2702 51.087 2
53.5633 54.3212 2
49.5426 61.6892 3.97391
54.3301 41.579 3.97405
50.4385 59.1938 3.96492
51.8777 56.2994 3.96661
52.9928 45.2174 3.97284
52.3624 48.981 3.96974
52.0389 52.581 3.95927
48.6007 64.0757 0.02118
47.9304 62.4251 2
47.2832 60.9477 3.99006
43.629 67.4548 0.0199996
45.1233 65.1686 0.0204791
46.3626 62.9908 0.0180088
41.6636 67.6738 2
43.3576 65.4849 2
45.9586 61.5206 2
44.7541 63.3941 2
45.7214 60.5621 4.0003
44.4612 61.7639 3.97937
43.1377 63.6818 3.97811
41.545 65.623 3.97365
39.6323 67.7524 3.97833
37.5256 70.0412 3.98326
39.702 70.017 2
39.8162 72.402 3.99108
41.8585 69.8697 0.0164892
42.1099 72.2053 2
42.3947 74.6792 4
44.3734 71.8608 0.00981083
44.8159 74.2794 2
47.2057 73.7222 0
43.8512 5.36412 3.98518
46.5705 3.64972 3.98993
48.7847 4.32556 2
49.554 1.99015 4
50.9527 5.13498 0.0115374
51.8506 2.85453 2
54.0858 3.86728 0
59.4863 44.6081 0.0243944
60.511 41.8686 0.0232129
61.5159 39.3258 0.02322
63.4668 37.4617 0.0235365
61.336 37.4501 2
59.4343 39.7944 2
58.0841 42.7787 2
58.9088 37.5689 3.97693
56.9909 40.5594 3.97752
53.7285 39.6157 3.97618
61.5586 35.4022 0.0235127
59.5241 32.861 0.0240724
57.7784 30.2833 0.0248103
56.379 18.3407 0.0422842
55.8889 20.7767 0.0422791
55.476 23.1747 0.0337564
56.4864 27.6612 0.0244554
55.5495 25.43 0.0252269
54.2026 18.1219 0.0385132
52.2395 17.2265 0.0451154
51.3142 14.6331 0.0338929
48.0545 6.53605 0.0176327
49.3142 9.36733 0.0278012
50.4051 12.0886 0.0347465
59.0575 35.1809 2
45.9611 5.88937 2
43.3717 7.48342 2
57.0261 32.4332 2
55.5919 29.6069 2
55.023 19.4122 2
54.4997 21.8578 2
54.2356 24.4042 2
54.5697 26.9606 2
47.3488 8.64048 2
48.5804 11.3527 2
52.8863 18.8692 2
51.1456 18.3124 2
50.539 16.2891 2
49.657 13.8589 2
56.3362 34.851 3.97712
54.6072 31.753 3.97452
53.474 28.7438 3.97609
52.9468 25.8834 3.97389
53.6171 20.3953 3.96434
52.9817 23.0541 3.96489
41.3988 7.08367 3.98324
45.3572 8.0061 3.9853
42.8646 9.43043 3.97297
46.6537 10.7005 3.97451
47.7005 13.1798 3.96774
48.8407 15.5117 3.97035
49.8622 17.9018 3.97069
51.409 19.6089 3.98674
50.3211 63.3327 0.0281333
51.1716 60.8183 0.0273585
55.648 43.957 0.0243814
54.5549 47.5787 0.0244788
52.136 58.4682 0.0305607
54.0184 57.1101 0.0323322
54.275 51.0884 0.033979
53.5682 54.32 0.0351761
49.5429 61.6827 2
54.3288 41.5761 2
50.4359 59.2013 2
51.8826 56.3038 2
52.9863 45.2145 2
52.3583 48.9789 2
52.0424 52.5816 2
48.7625 60.1374 3.99726
50.9754 42.4277 3.98352
49.5847 57.4783 3.96493
50.1473 54.2078 3.95969
50.6537 46.8804 3.97666
50.4256 50.638 3.95278
46.7181 43.3854 3.96129
47.9315 62.4243 0.0108891
47.2866 60.9482 2
46.5545 59.7299 3.99356
41.6624 67.6729 0.021093
43.3531 65.4836 0.0217891
44.7535 63.3985 0.0253365
45.9565 61.518 0.00609841
39.6335 67.7531 2
41.5482 65.6202 2
45.7211 60.5655 2
43.1365 63.679 2
44.4614 61.7644 2
44.5817 60.2149 3.99296
42.9326 62.0209 3.97722
41.5925 63.7901 3.97835
39.6462 65.5917 3.97552
37.5632 67.7342 3.97692
31.6987 65.1073 3.97343
33.3928 67.4717 3.97736
35.334 69.9523 3.98339
37.5256 70.0433 2
37.5092 72.4561 3.99163
39.7011 70.0168 0.0167821
39.8171 72.402 2
39.9526 74.9197 4
42.1085 72.2048 0.00931284
42.3947 74.6792 2
44.8159 74.2794 0
41.736 4.97142 3.9878
43.8506 5.36387 2
44.3264 3.1119 3.99162
46.5709 3.64959 2
47.2057 1.27793 4
48.7844 4.32485 0.0108038
49.554 1.99013 2
51.8506 2.85458 0
58.084 42.7791 0.0241392
59.4361 39.7957 0.0232004
61.3358 37.45 0.0233719
58.9066 37.5702 2
56.9941 40.5586 2
53.7316 39.6162 2
55.6885 37.8808 3.9774
47.9943 41.1438 3.96693
51.5326 39.2306 3.97927
39.4417 6.80921 3.98111
59.0587 35.1805 0.0234587
57.0277 32.4323 0.0247796
55.5899 29.6092 0.0246677
55.0354 19.4077 0.0369433
54.4622 21.8599 0.0377301
54.24 24.3976 0.0283314
54.5672 26.9601 0.0253277
52.8941 18.9033 0.0372682
51.1514 18.3113 0.0425627
50.5259 16.2914 0.047719
45.9616 5.89025 0.0153916
49.6627 13.8466 0.0320577
47.3498 8.64298 0.0261951
48.5783 11.3626 0.0322759
43.3729 7.48277 0.0182128
56.3375 34.8544 2
41.3986 7.08561 2
45.3553 8.0054 2
42.8611 9.43338 2
54.6085 31.7556 2
53.4713 28.7429 2
53.6196 20.4028 2
52.9628 23.0577 2
52.952 25.8831 2
46.6529 10.6905 2
47.703 13.1763 2
51.4121 19.6101 2
49.8614 17.906 2
48.8471 15.5459 2
53.5295 34.0807 3.97527
52.2531 30.8259 3.97478
51.6042 27.6082 3.97505
51.4472 24.5006 3.97236
51.9952 21.3623 3.98419
41.012 9.05482 3.9784
44.7239 10.0125 3.97773
42.4541 10.9156 4.00467
45.9639 12.7776 3.96631
47.6148 14.7049 3.96709
47.9874 17.1139 3.97432
49.6452 20.0141 3.98747
49.5426 61.6892 0.0260947
50.4385 59.1938 0.035081
54.3301 41.579 0.0259522
52.9928 45.2174 0.027161
52.3624 48.981 0.0302555
51.8777 56.2994 0.0333856
52.0389 52.581 0.0407259
48.761 60.1334 2
50.9945 42.4453 2
49.5831 57.4773 2
50.1479 54.2101 2
50.6546 46.8797 2
50.4291 50.6378 2
46.7267 43.4307 2
47.8658 58.6222 3.99021
48.72 44.9369 3.98136
48.3021 55.7489 3.95412
48.5667 52.3482 3.98105
48.7422 48.7015 3.9704
44.3999 39.6922 3.82038
44.9471 42.3171 3.86752
45.2827 45.3308 3.97925
42.2894 40.9458 3.59192
41.2719 41.5343 3.39068
47.2832 60.9477 0.00994342
46.5501 59.7357 2
45.3937 58.7174 3.99496
39.6323 67.7524 0.0216743
41.545 65.623 0.0263466
43.1377 63.6818 0.0218875
44.4612 61.7639 0.0206338
45.7214 60.5621 -0.000302612
41.5948 63.7831 2
37.5639 67.7369 2
39.6493 65.5929 2
44.5829 60.216 2
42.9318 62.0197 2
41.7405 62.4351 3.98169
42.4493 59.9128 3.98872
39.8882 63.5266 3.97772
37.6409 65.4887 3.97421
35.4634 67.644 3.97622
33.5758 65.3196 3.97389
31.9641 63.2629 3.98141
29.8888 64.694 3.97918
31.6964 65.1079 2
31.3787 67.182 3.97806
33.3923 67.4733 2
33.1578 69.7453 3.98317
35.3333 69.9535 2
35.1963 72.3711 3.9918
37.5256 70.0412 0.0167362
37.5096 72.4567 2
37.5 75 4
39.8162 72.402 0.00892489
39.9526 74.9197 2
42.3947 74.6792 0
39.6241 4.71909 3.98798
41.7355 4.97177 2
42.0629 2.71891 3.99228
43.8512 5.36412 0.0148244
44.3263 3.11169 2
44.8158 0.721173 4
46.5705 3.64972 0.0100655
47.2057 1.27779 2
49.554 1.99015 0
56.9909 40.5594 0.0224754
58.9088 37.5689 0.0230702
53.7285 39.6157 0.0238186
48.0283 41.1619 2
55.6822 37.8765 2
51.5432 39.2231 2
52.4396 36.625 3.97684
45.9228 40.2308 3.88347
48.8946 38.4854 3.97074
37.5156 6.67825 3.98448
39.4421 6.8097 2
39.2093 8.70388 3.98006
35.9424 8.50104 3.98112
56.3362 34.851 0.0228764
54.6072 31.753 0.0254754
53.474 28.7438 0.0239056
53.6171 20.3953 0.0356607
52.9817 23.0541 0.0351097
52.9468 25.8834 0.0261121
51.409 19.6089 0.013262
49.8622 17.9018 0.0293136
48.8407 15.5117 0.029649
45.3572 8.0061 0.0146988
47.7005 13.1798 0.0322629
46.6537 10.7005 0.0254899
41.3988 7.08367 0.0167566
42.8646 9.43043 0.0270319
53.5268 34.0807 2
41.0102 9.05945 2
44.7199 10.012 2
42.4534 10.9262 2
52.2537 30.8215 2
51.6115 27.6072 2
51.9988 21.3665 2
51.4348 24.505 2
45.9677 12.7701 2
47.6083 14.6862 2
49.6573 20.0338 2
47.9877 17.1185 2
50.9514 33.0604 3.97648
50.0766 29.5884 3.97658
49.9101 26.1092 3.97079
49.5494 22.589 3.97922
40.5574 11.6121 3.9845
43.8228 11.935 3.9619
45.738 15.5892 3.98896
47.3591 19.614 3.97929
44.7743 37.491 3.82804
48.7625 60.1374 0.00274493
49.5847 57.4783 0.0350704
50.9754 42.4277 0.0164764
50.6537 46.8804 0.0233437
50.4256 50.638 0.0472187
50.1473 54.2078 0.04031
46.7181 43.3854 0.0387132
47.8592 58.627 2
48.7335 44.9527 2
48.298 55.7523 2
48.5667 52.3527 2
48.7467 48.7029 2
44.5274 39.7152 2
44.9811 42.3463 2
45.2906 45.3533 2
42.3557 41.0087 2
41.3138 41.5604 2
46.6662 57.221 3.99141
42.9326 39.3601 3.58337
41.6545 40.5204 3.37216
46.9688 46.9389 3.98926
46.7864 54.0358 3.96039
46.9002 50.4826 3.97471
43.9295 46.9578 3.98599
43.6111 41.6904 3.82431
43.8172 44.0941 3.8543
41.5352 42.2032 3.63724
40.3949 41.8114 3.32171
46.5545 59.7299 0.00644345
45.3884 58.7148 2
43.8009 57.5852 3.99043
37.5632 67.7342 0.0230819
39.6462 65.5917 0.0244849
41.5925 63.7901 0.021647
42.9326 62.0209 0.0227759
44.5817 60.2149 0.00704262
35.4633 67.6457 2
41.7386 62.4346 2
39.8886 63.5296 2
37.6428 65.4925 2
42.4504 59.9126 2
40.6116 61.5813 3.98417
40.4215 58.0945 3.99113
37.8344 63.1823 3.97392
35.5723 65.4108 3.9747
33.575 65.3174 2
31.9673 63.2611 2
33.6308 63.3119 3.98155
30.3889 62.8165 3.98009
32.1377 61.9663 3.99037
26.9019 61.4031 3.98838
28.0746 64.1155 3.98386
29.888 64.6906 2
29.4094 66.7435 3.97789
31.6987 65.1073 0.0265695
31.3781 67.183 2
31.0159 69.4105 3.98281
33.3928 67.4717 0.0226432
33.1567 69.7467 2
32.8946 72.1452 3.99102
35.334 69.9523 0.0166077
35.1957 72.3717 2
35.0474 74.9194 4
37.5092 72.4561 0.00837082
37.5 75 2
39.9526 74.9197 0
35.6201 6.73048 3.98226
37.524 4.61851 3.98871
39.6238 4.71897 2
39.7894 2.47532 3.99251
41.736 4.97142 0.0122
42.0626 2.71887 2
42.3946 0.32156 4
44.3264 3.1119 0.00838242
44.8159 0.72056 2
47.2057 1.27793 0
47.9943 41.1438 0.0330704
55.6885 37.8808 0.0225977
51.5326 39.2306 0.0207316
45.9624 40.2305 2
48.9149 38.453 2
52.4529 36.6244 2
49.7208 35.5637 3.97787
46.5344 37.7102 3.86027
44.4262 35.2506 3.82362
42.3415 33.9838 3.59341
41.3131 33.3945 3.39216
37.4576 8.53893 3.98369
37.5163 6.67863 2
39.4417 6.80921 0.0188875
39.2096 8.70551 2
38.9706 10.1391 3.99139
35.898 9.78443 3.98177
34.1526 8.8334 3.97846
35.943 8.50145 2
53.5295 34.0807 0.0247306
52.2531 30.8259 0.0252178
51.6042 27.6082 0.0249466
51.9952 21.3623 0.0158144
51.4472 24.5006 0.0276351
49.6452 20.0141 0.0125335
47.9874 17.1139 0.0256788
47.6148 14.7049 0.0329104
44.7239 10.0125 0.0222667
45.9639 12.7776 0.0336864
41.012 9.05482 0.0215951
42.4541 10.9156 -0.00466608
50.9687 33.0438 2
40.5632 11.6255 2
43.8246 11.9267 2
50.0905 29.5884 2
49.9139 26.1238 2
49.5372 22.558 2
45.7217 15.5253 2
47.3666 19.6502 2
48.547 31.6232 3.98123
48.2351 27.8853 3.97487
48.7383 24.7254 3.97332
46.9246 22.4122 3.99288
38.298 12.7633 3.97836
42.0641 14.4042 3.98512
44.6935 18.7037 3.99168
43.2676 37.4746 3.59385
44.8838 37.4779 2
47.8658 58.6222 0.00979058
48.3021 55.7489 0.0458771
48.72 44.9369 0.0186438
48.7422 48.7015 0.0296039
48.5667 52.3482 0.0189464
44.3999 39.6922 0.179616
44.9471 42.3171 0.132484
45.2827 45.3308 0.0207467
42.2894 40.9458 0.408082
41.2719 41.5343 0.609321
46.6622 57.2256 2
43.0241 39.3802 2
41.6752 40.5316 2
46.9749 46.9415 2
46.7808 54.0396 2
46.9004 50.4945 2
43.9724 46.9693 2
43.6825 41.7455 2
43.8746 44.1293 2
41.5928 42.295 2
40.4541 41.8314 2
45.1797 55.7787 4.00196
41.9825 39.0858 3.38123
40.2636 40.4403 3.44382
45.2831 48.5796 4.00335
45.0249 52.2708 3.99352
42.7444 47.935 3.98967
42.5993 45.5859 3.86149
42.6598 43.4115 3.80784
40.6388 43.1171 3.60018
39.1244 42.0911 3.40526
45.3937 58.7174 0.00504398
43.7935 57.5996 2
42.0268 56.1271 3.99637
35.4634 67.644 0.0237847
37.6409 65.4887 0.0257868
39.8882 63.5266 0.0222802
41.7405 62.4351 0.0183059
42.4493 59.9128 0.0112798
35.5734 65.414 2
40.61 61.5763 2
37.8355 63.1821 2
40.4188 58.1023 2
38.9134 56.2761 3.99626
38.2425 60.2691 3.98549
35.6062 63.1777 3.97309
33.5758 65.3196 0.0261112
31.9641 63.2629 0.0185934
33.6332 63.3136 2
30.3913 62.8146 2
32.1424 61.9647 2
28.6995 62.1485 3.97749
33.3561 61.4752 3.98505
31.0943 61.1822 3.99336
27.6369 59.5008 3.97893
23.8838 58.9562 3.98318
25.082 60.7618 3.98
26.9026 61.4045 2
26.2493 63.4383 3.97405
28.0746 64.1108 2
27.4689 66.1587 3.97708
29.8888 64.694 0.0208162
29.4082 66.7454 2
28.9092 68.9348 3.98187
31.3787 67.182 0.0219405
31.0142 69.4109 2
30.6179 71.7769 3.99041
33.1578 69.7453 0.016831
32.8932 72.1458 2
32.6054 74.6784 4
35.1963 72.3711 0.00820439
35.0474 74.9197 2
37.5 75 0
33.723 6.98712 3.98046
35.4362 4.68855 3.98803
35.621 6.73089 2
37.5153 2.38799 3.99267
37.5236 4.61808 2
39.6241 4.71909 0.0120207
39.789 2.47515 2
39.9526 0.0806499 4
42.0629 2.71891 0.00772059
42.3947 0.320817 2
44.8158 0.721173 0
42.9642 35.5814 3.5912
41.6916 34.3988 3.35624
45.9228 40.2308 0.116529
48.8946 38.4854 0.0292581
52.4396 36.625 0.0231551
46.5462 37.7085 2
49.7501 35.6053 2
44.5383 35.2369 2
42.3986 33.9192 2
41.3367 33.3679 2
46.8105 34.4593 3.92843
43.669 33.2459 3.81686
41.5803 32.7291 3.64051
40.4178 33.1252 3.32051
37.3079 10.6378 3.98112
37.4586 8.54023 2
37.5156 6.67825 0.0155173
39.2093 8.70388 0.0199398
38.9761 10.1434 2
34.7564 10.3963 3.97636
35.9029 9.78333 2
32.3808 9.38379 3.9732
34.1523 8.8335 2
35.9424 8.50104 0.0188807
50.9514 33.0604 0.0235169
50.0766 29.5884 0.0234245
49.9101 26.1092 0.0292087
49.5494 22.589 0.0207796
47.3591 19.614 0.0207062
45.738 15.5892 0.0110435
43.8228 11.935 0.0380957
40.5574 11.6121 0.0154983
48.5672 31.6066 2
38.2999 12.765 2
42.0742 14.4033 2
48.2342 27.8847 2
48.7402 24.7322 2
46.9152 22.4013 2
44.7 18.7638 2
46.5206 29.9055 3.97883
46.4291 25.4317 3.9787
44.1244 21.705 3.98468
36.5892 12.9795 3.97844
38.6629 14.9058 3.97872
41.6803 18.0299 3.98882
42.1488 37.4457 3.40525
43.3499 37.4755 2
44.7743 37.491 0.17196
46.6662 57.221 0.00859104
46.7864 54.0358 0.0396109
46.9688 46.9389 0.0107361
46.9002 50.4826 0.0252946
42.9326 39.3601 0.416629
43.6111 41.6904 0.175692
43.8172 44.0941 0.145701
43.9295 46.9578 0.0140053
41.5352 42.2032 0.362759
41.6545 40.5204 0.62784
40.3949 41.8114 0.678289
45.1756 55.7812 2
42.0036 39.0936 2
40.3423 40.4321 2
45.2822 48.6042 2
45.0188 52.2743 2
42.7947 47.9591 2
42.6709 45.6538 2
42.7052 43.4448 2
40.7067 43.2058 2
39.0965 42.127 2
43.4985 54.2079 4.00657
40.3325 38.9446 3.47517
39.0242 40.5358 3.42864
43.079 50.0418 4.00323
41.4318 47.0665 3.91367
41.348 44.6649 3.8057
39.3681 43.7725 3.58515
37.5103 42.2406 3.46972
43.8009 57.5852 0.00957411
42.0283 56.1174 2
40.3276 54.6904 3.99662
35.5723 65.4108 0.0253001
37.8344 63.1823 0.0260777
40.6116 61.5813 0.0158334
40.4215 58.0945 0.00886646
35.6089 63.1736 2
38.239 60.2642 2
38.9146 56.2626 2
37.9862 54.9538 3.99532
36.9337 57.505 3.99234
35.3666 60.871 3.98667
33.6308 63.3119 0.0184487
30.3889 62.8165 0.0199084
32.1377 61.9663 0.00963356
33.3613 61.4725 2
28.699 62.1567 2
31.0989 61.1829 2
29.4524 60.237 3.9853
32.3767 59.6393 3.9961
28.1251 58.2918 4.01593
27.639 59.4998 2
25.4754 58.4854 3.97727
22.8904 58.1059 3.97224
23.4588 60.2265 3.97338
23.8858 58.9571 2
25.0837 60.7621 2
24.4608 62.7045 3.9743
26.9019 61.4031 0.0116187
26.2494 63.4391 2
25.5569 65.4647 3.97422
28.0746 64.1155 0.0161352
27.4672 66.1581 2
26.8403 68.3226 3.9805
29.4094 66.7435 0.0221116
28.9068 68.9348 2
28.3736 71.2621 3.98901
31.0159 69.4105 0.0171859
30.6159 71.7764 2
30.1842 74.2788 4
32.8946 72.1452 0.00898453
32.6053 74.6792 2
35.0474 74.9194 0
31.7877 7.42903 3.97774
33.3486 4.92839 3.98649
33.724 6.98704 2
35.2458 2.46387 3.99256
35.4354 4.68883 2
35.6201 6.73048 0.0177408
37.5 0 4
37.5145 2.38781 2
37.524 4.61851 0.0112871
39.7894 2.47532 0.00749001
39.9526 0.0802889 2
42.3946 0.32156 0
41.9805 35.8032 3.33915
43.0671 35.5606 2
40.3211 34.4678 3.45511
41.7038 34.3824 2
46.5344 37.7102 0.139728
49.7208 35.5637 0.0221261
44.4262 35.2506 0.176384
42.3415 33.9838 0.406594
41.3131 33.3945 0.607841
46.8503 34.4618 2
43.7287 33.1872 2
41.6302 32.6414 2
40.4637 33.1054 2
44.9772 31.9258 3.88183
42.7058 31.5183 3.79806
40.6837 31.8167 3.60425
39.1281 32.8558 3.40322
35.6976 11.7982 3.97513
37.3163 10.6392 2
37.4576 8.53893 0.016311
38.9706 10.1391 0.00860847
33.1047 11.24 3.97315
34.7594 10.3925 2
35.898 9.78443 0.0182269
30.4882 10.0375 3.97452
32.3802 9.38384 2
34.1526 8.8334 0.0215398
48.547 31.6232 0.0187684
48.2351 27.8853 0.0251306
48.7383 24.7254 0.0266821
46.9246 22.4122 0.00711722
44.6935 18.7037 0.00832302
42.0641 14.4042 0.0148806
38.298 12.7633 0.021636
36.5861 12.9688 2
46.509 29.8472 2
38.6688 14.8815 2
41.6721 18.0231 2
46.4354 25.4186 2
44.1116 21.692 2
44.6055 28.0607 3.99457
43.3684 24.3542 4.01428
41.2259 21.0529 3.99538
35.775 14.8143 3.99075
38.6291 17.7723 3.98959
40.3883 37.4068 3.5035
42.1755 37.4519 2
43.2676 37.4746 0.406149
45.1797 55.7787 -0.00196015
45.0249 52.2708 0.00647753
45.2831 48.5796 -0.00334644
41.9825 39.0858 0.618775
42.6598 43.4115 0.192163
42.5993 45.5859 0.138506
42.7444 47.935 0.0103349
40.6388 43.1171 0.39982
40.2636 40.4403 0.556185
39.1244 42.0911 0.594741
43.493 54.2058 2
40.3761 38.9483 2
39.0058 40.5402 2
43.068 50.0636 2
41.4241 47.093 2
41.3709 44.7065 2
37.5038 42.2668 2
39.387 43.8582 2
41.6512 52.6565 4.00227
39.0367 39.0073 3.41787
37.5068 40.5768 3.49363
35.8953 42.1104 3.40138
40.6521 49.1874 3.99015
39.6029 45.3459 3.77182
37.5084 44.0723 3.63421
42.0268 56.1271 0.00362887
40.3249 54.6969 2
38.697 53.4258 3.99745
35.6062 63.1777 0.026908
38.2425 60.2691 0.0145103
38.9134 56.2761 0.00373644
35.3677 60.8524 2
36.9337 57.5079 2
37.9788 54.9469 2
36.3405 55.0612 3.99716
34.5038 58.4211 3.99635
33.3561 61.4752 0.0149511
28.6995 62.1485 0.0225123
31.0943 61.1822 0.00664292
32.3757 59.6421 2
29.4553 60.2436 2
30.3833 57.7216 3.98718
28.127 58.2896 2
27.1286 56.7212 3.96554
27.6369 59.5008 0.0210651
25.4783 58.4857 2
24.0603 56.6564 3.95967
21.5616 57.2354 3.95875
22.069 59.5041 3.97224
22.8915 58.1075 2
22.773 61.9242 3.97218
23.4608 60.2267 2
23.8838 58.9562 0.0168189
25.082 60.7618 0.0199953
24.4613 62.7058 2
23.6946 64.675 3.96952
26.2493 63.4383 0.0259486
25.5558 65.4676 2
24.813 67.5834 3.97623
27.4689 66.1587 0.0229183
26.8375 68.3242 2
26.1691 70.603 3.98848
28.9092 68.9348 0.0181322
28.371 71.2616 2
27.7943 73.7221 4
30.6179 71.7769 0.00959361
30.1841 74.2794 2
32.6054 74.6784 0
29.8109 8.00753 3.97526
31.2538 5.33659 3.98489
31.7883 7.4282 2
32.9818 2.70202 3.99197
33.3476 4.92856 2
33.723 6.98712 0.0195379
35.0474 0.080333 4
35.2447 2.4641 2
35.4362 4.68855 0.0119746
37.5 0 2
37.5153 2.38799 0.00732977
39.9526 0.0806499 0
40.4456 35.9201 3.50301
42.0149 35.8025 2
42.9642 35.5814 0.408796
28.5506 10.7146 3.97444
39.0271 34.4239 3.41551
40.333 34.4642 2
41.6916 34.3988 0.643764
46.8105 34.4593 0.071567
43.669 33.2459 0.183135
41.5803 32.7291 0.359493
40.4178 33.1252 0.679492
45.0081 31.9041 2
42.7556 31.476 2
40.7461 31.7297 2
39.1128 32.8169 2
43.4662 30.204 3.86492
41.3752 30.2585 3.80696
39.3801 31.1679 3.58963
37.5223 32.7256 3.46775
34.1039 12.963 3.9795
35.7015 11.788 2
37.3079 10.6378 0.0188832
31.196 12.0119 3.97562
33.1068 11.2371 2
34.7564 10.3963 0.023635
30.4848 10.0332 2
32.3808 9.38379 0.0268044
46.5206 29.9055 0.0211742
46.4291 25.4317 0.0212965
36.5892 12.9795 0.0215629
44.1244 21.705 0.0153152
41.6803 18.0299 0.011181
38.6629 14.9058 0.0212803
35.7699 14.8273 2
44.6047 28.0599 2
38.6373 17.754 2
41.2164 21.0308 2
43.3651 24.3312 2
33.6331 15.9216 3.98887
42.5113 26.8469 3.97023
40.7469 23.7199 3.99715
38.3651 20.5807 3.99251
35.8313 17.6585 3.98358
39.0538 37.4793 3.41084
40.4153 37.4153 2
42.1488 37.4457 0.594755
43.4985 54.2079 -0.00657298
43.079 50.0418 -0.00322717
40.3325 38.9446 0.524829
41.348 44.6649 0.194299
41.4318 47.0665 0.0863347
39.3681 43.7725 0.414854
39.0242 40.5358 0.571361
37.5103 42.2406 0.530277
41.6403 52.6515 2
39.0148 39.0008 2
37.4977 40.5799 2
40.6326 49.193 2
35.9177 42.1421 2
39.6374 45.4184 2
37.5 44.1533 2
39.6833 51.4052 3.99875
37.5106 39.0042 3.47543
36.0154 40.5576 3.42612
34.6252 41.8399 3.3213
35.648 43.7896 3.58449
38.5996 48.0135 3.92162
37.5037 45.6382 3.80524
40.3276 54.6904 0.00338303
38.6907 53.4404 2
36.7674 52.7919 3.99777
35.3666 60.871 0.0133284
36.9337 57.505 0.00765705
37.9862 54.9538 0.00467939
34.5026 58.4367 2
36.3441 55.0539 2
33.3336 55.2599 4.0006
32.3767 59.6393 0.0038995
29.4524 60.237 0.0146957
30.3847 57.7114 2
28.948 55.2296 3.99434
28.1251 58.2918 -0.0159332
27.1318 56.7183 2
25.6348 54.9825 3.95499
22.1855 55.1442 3.95877
25.4754 58.4854 0.0227308
24.0623 56.658 2
20.4526 56.865 3.96153
20.7571 58.652 3.95884
21.5644 57.2369 2
21.2112 61.0602 3.96851
22.0692 59.5036 2
22.8904 58.1059 0.0277582
21.9149 63.7739 3.97181
22.7739 61.9252 2
23.4588 60.2265 0.0266203
24.4608 62.7045 0.0257041
23.6937 64.6762 2
22.8413 66.7231 3.97329
25.5569 65.4647 0.0257756
24.8103 67.5806 2
24.0134 69.8045 3.98736
26.8403 68.3226 0.0194998
26.1654 70.6024 2
25.446 73.0099 4
28.3736 71.2621 0.0109874
27.7943 73.7222 2
30.1842 74.2788 0
27.8215 8.66962 3.97517
29.1561 5.88459 3.98188
29.8103 8.00402 2
30.7274 3.09945 3.9913
31.2529 5.33559 2
31.7877 7.42903 0.0222617
32.6053 0.320823 4
32.9805 2.70227 2
33.3486 4.92839 0.0135092
35.0474 0.0802903 2
35.2458 2.46387 0.00743704
37.5 0 0
38.963 35.9563 3.42641
40.4244 35.9158 2
41.9805 35.8032 0.66085
28.5465 10.7115 2
26.6337 11.4144 3.97361
29.2382 12.6661 3.97766
37.53 34.3937 3.49399
39.05 34.4346 2
40.3211 34.4678 0.544888
44.9772 31.9258 0.118174
42.7058 31.5183 0.20194
40.6837 31.8167 0.395749
39.1281 32.8558 0.59678
43.4975 30.1755 2
41.414 30.2116 2
39.3964 31.0825 2
37.5312 32.6971 2
41.7907 28.9265 3.85288
39.6173 29.5838 3.79462
37.518 30.8807 3.63515
35.908 32.8668 3.40849
31.9416 14.5099 3.9842
34.107 12.9659 2
35.6976 11.7982 0.0248681
31.1961 12.0021 2
33.1047 11.24 0.0268528
30.4882 10.0375 0.0254781
44.6055 28.0607 0.00542853
43.3684 24.3542 -0.0142803
35.775 14.8143 0.0092463
41.2259 21.0529 0.00462185
38.6291 17.7723 0.0104143
33.6166 15.9148 2
35.8409 17.5871 2
42.5793 26.8165 2
38.3419 20.6168 2
40.7342 23.7272 2
33.5718 17.4625 3.99102
40.198 26.2197 3.96468
38.0137 23.4881 3.99711
35.5224 20.3876 3.99587
37.531 37.4721 3.49389
39.0204 37.4706 2
40.3883 37.4068 0.4965
41.6512 52.6565 -0.00227434
40.6521 49.1874 0.00984732
39.0367 39.0073 0.582129
39.6029 45.3459 0.228182
37.5084 44.0723 0.365794
37.5068 40.5768 0.506367
35.8953 42.1104 0.59862
39.6665 51.3988 2
37.5026 39.0061 2
36.0031 40.5378 2
38.6214 48.0801 2
34.5739 41.86 2
35.6249 43.8746 2
37.5012 45.7011 2
37.6747 50.3628 3.98991
36.0594 39.0261 3.43079
34.7347 40.4775 3.45654
33.7328 41.5696 3.39381
34.3831 43.1461 3.59591
35.3609 45.4089 3.80007
36.9285 47.6366 3.87776
38.697 53.4258 0.00255205
36.7803 52.7365 2
34.5164 52.12 4.00067
34.5038 58.4211 0.00364607
36.3405 55.0612 0.00284081
33.34 55.2692 2
30.812 53.2093 3.99749
30.3833 57.7216 0.0128212
28.9519 55.2312 2
27.3029 53.2414 3.95466
27.1286 56.7212 0.034465
25.6387 54.9839 2
24.0764 53.2368 3.95324
21.0808 52.9589 3.95849
20.2916 55.6354 3.96057
22.1858 55.1443 2
24.0603 56.6564 0.0403254
19.6076 57.7482 3.96129
20.4471 56.8688 2
19.75 60.1053 3.97009
20.7465 58.6571 2
21.5616 57.2354 0.0412543
20.2352 62.7699 3.97088
21.2158 61.0611 2
22.069 59.5041 0.0277613
20.9449 65.7425 3.9705
21.9143 63.7767 2
22.773 61.9242 0.0278183
23.6946 64.675 0.0304826
22.8394 66.7209 2
21.9162 68.8704 3.98493
24.813 67.5834 0.0237689
24.0095 69.8019 2
23.1494 72.1454 4
26.1691 70.603 0.011525
25.446 73.0099 2
27.7943 73.7221 0
25.8619 9.40085 3.97349
27.0711 6.55035 3.9798
27.8194 8.66622 2
28.49 3.64542 3.99001
29.1544 5.8831 2
29.8109 8.00753 0.0247401
30.1841 0.720592 4
30.7253 3.09932 2
31.2538 5.33659 0.0151132
32.6053 0.320817 2
32.9818 2.70202 0.00803211
35.0474 0.080333 0
37.5218 35.9462 3.46466
38.9414 35.9257 2
40.4456 35.9201 0.496987
24.7951 12.0901 3.96989
23.7883 14.4811 3.98038
28.5506 10.7146 0.0255617
26.6281 11.4126 2
29.2378 12.6633 2
27.3041 13.4271 3.97257
29.8128 14.2213 3.9933
36.0039 34.4226 3.43546
37.5462 34.3868 2
39.0271 34.4239 0.584493
37.5223 32.7256 0.532247
43.4662 30.204 0.135082
41.3752 30.2585 0.193039
39.3801 31.1679 0.410372
41.8208 28.8512 2
39.6422 29.5148 2
37.521 30.8048 2
35.9316 32.834 2
39.8015 28.208 3.85202
37.4853 29.3032 3.79282
35.6651 31.1905 3.5873
34.6245 33.1448 3.32634
30.9779 16.8695 3.99645
31.9369 14.4947 2
34.1039 12.963 0.0205025
31.196 12.0119 0.0243789
42.5113 26.8469 0.0297677
40.7469 23.7199 0.00285464
33.6331 15.9216 0.0111306
35.8313 17.6585 0.0164221
38.3651 20.5807 0.0074928
33.5452 17.4965 2
35.5052 20.4401 2
40.212 26.1949 2
38.035 23.4804 2
32.9777 19.9644 3.99802
37.7462 25.8819 3.95881
35.3689 23.1412 4.01049
36.0255 37.4692 3.41683
37.5097 37.4718 2
39.0538 37.4793 0.589161
39.6833 51.4052 0.00124996
38.5996 48.0135 0.0783787
37.5106 39.0042 0.524575
37.5037 45.6382 0.194757
35.648 43.7896 0.415513
36.0154 40.5576 0.573879
34.6252 41.8399 0.6787
37.6476 50.3993 2
36.103 39.0118 2
34.6782 40.4902 2
36.9301 47.7021 2
33.692 41.5981 2
34.3173 43.2279 2
35.3278 45.4685 2
35.5791 49.5671 3.98103
34.6308 39.0085 3.49765
33.3526 40.5648 3.35909
33.4735 42.2358 3.63942
33.7011 44.6867 3.79684
34.6507 46.8075 3.85426
36.7674 52.7919 0.00223237
34.4982 52.1524 2
32.3705 50.931 4.00182
33.3336 55.2599 -0.000598985
30.8153 53.2048 2
28.9288 51.295 3.98858
28.948 55.2296 0.00566463
27.3081 53.2436 2
25.6917 51.4604 3.95314
25.6348 54.9825 0.0450132
24.0809 53.2409 2
22.6695 51.511 3.95602
19.9918 51.3363 3.96404
19.4488 54.0734 3.96123
21.0854 52.9571 2
18.7384 56.5534 3.9622
20.2896 55.6379 2
22.1855 55.1442 0.0412255
18.4596 59.0024 3.95774
19.6053 57.7514 2
20.4526 56.865 0.0384728
18.6394 61.6893 3.97722
19.7521 60.1094 2
20.7571 58.652 0.0411554
19.1391 64.6296 3.97019
20.2361 62.7717 2
21.2112 61.0602 0.0314854
19.8901 67.8072 3.98311
20.9427 65.741 2
21.9149 63.7739 0.0281927
22.8413 66.7231 0.0267102
21.912 68.8676 2
20.9142 71.1327 4
24.0134 69.8045 0.0126371
23.1494 72.1455 2
25.446 73.0099 0
23.1157 12.8883 3.97753
23.9762 10.1845 3.97427
25.0248 7.32217 3.97661
25.8595 9.40053 2
26.2822 4.33018 3.98872
27.0681 6.54936 2
27.8215 8.66962 0.0248298
27.7943 1.27781 4
28.4868 3.64617 2
29.1561 5.88459 0.0181174
30.1841 0.720551 2
30.7274 3.09945 0.0087043
32.6053 0.320823 0
36.0028 35.9411 3.42249
37.5602 35.9584 2
38.963 35.9563 0.573588
24.7833 12.1264 2
23.786 14.4921 2
22.5326 15.1628 3.98431
25.381 14.0251 3.9735
24.0991 15.7361 4.00728
26.6337 11.4144 0.0263901
29.2382 12.6661 0.0223434
27.3138 13.4029 2
29.8063 14.221 2
28.4198 15.9878 3.99221
34.7582 34.5083 3.44599
36.0256 34.4207 2
37.53 34.3937 0.506013
35.908 32.8668 0.591505
37.518 30.8807 0.364847
41.7907 28.9265 0.147118
39.6173 29.5838 0.20538
39.8536 28.1501 2
37.494 29.2538 2
35.6464 31.1041 2
34.5719 33.1256 2
37.6329 27.9283 3.85123
35.421 29.6032 3.79203
34.373 31.8375 3.60201
33.7393 33.419 3.39345
30.3201 19.6037 3.98171
30.9479 16.8707 2
31.9416 14.5099 0.0157981
40.198 26.2197 0.0353193
38.0137 23.4881 0.00288804
33.5718 17.4625 0.00898385
35.5224 20.3876 0.00413268
32.9884 19.9894 2
35.3215 23.1255 2
37.7294 25.8608 2
32.6067 22.7184 4.00257
35.2351 25.7524 3.98407
34.6178 37.5062 3.51913
36.0201 37.49 2
37.531 37.4721 0.506111
37.6747 50.3628 0.0100878
36.9285 47.6366 0.122241
36.0594 39.0261 0.569208
35.3609 45.4089 0.199929
34.3831 43.1461 0.404093
34.7347 40.4775 0.543459
33.7328 41.5696 0.606193
35.5572 49.5803 2
34.608 39.0166 2
33.3352 40.5736 2
34.5831 46.884 2
33.4168 42.327 2
33.6595 44.7328 2
33.5701 48.702 3.97196
33.0419 39.1452 3.34431
32.6956 40.9792 3.59198
32.344 43.4456 3.80385
32.93 45.8119 3.85051
34.5164 52.12 -0.000673795
32.3863 50.9282 2
30.5283 49.44 4.00405
30.812 53.2093 0.00251052
28.9366 51.3015 2
27.2533 49.6637 3.97662
27.3029 53.2414 0.0453382
25.6956 51.4582 2
24.1541 49.8579 3.96831
24.0764 53.2368 0.0467577
22.6752 51.5083 2
21.3582 49.9844 3.96716
18.7247 50.056 3.97279
18.4975 52.5328 3.9663
19.9858 51.3365 2
17.8844 55.1371 3.96222
19.4461 54.0741 2
21.0808 52.9589 0.0415064
17.333 57.7419 3.95803
18.7394 56.5542 2
20.2916 55.6354 0.0394341
17.1681 60.4754 3.95517
18.4576 59.0065 2
19.6076 57.7482 0.0387056
17.4171 63.4168 3.97097
18.6393 61.6924 2
19.75 60.1053 0.0299128
17.9463 66.6128 3.97821
19.1362 64.6275 2
20.2352 62.7699 0.029122
18.75 69.9759 4
19.8863 67.8029 2
20.9449 65.7425 0.0294954
21.9162 68.8704 0.0150654
20.9142 71.1327 2
23.1494 72.1454 0
21.6184 13.7166 3.96601
22.2005 11.0729 3.96773
23.1159 12.8802 2
23.0417 8.18969 3.97377
23.9747 10.2 2
24.1202 5.14465 3.98829
25.0208 7.322 2
25.8619 9.40085 0.0265123
25.446 1.99014 4
26.2778 4.33119 2
27.0711 6.55035 0.0202035
27.7943 1.27778 2
28.49 3.64542 0.00998875
30.1841 0.720592 0
34.6975 35.9857 3.47928
36.0299 35.9513 2
37.5218 35.9462 0.535342
21.3847 15.9643 3.96051
24.7951 12.0901 0.0301063
23.7883 14.4811 0.0196231
25.38 14.0015 2
22.5332 15.1519 2
24.1009 15.7461 2
23.371 16.3723 3.96436
25.4544 16.2197 3.98593
27.3041 13.4271 0.0274264
29.8128 14.2213 0.00670442
28.4123 16.0081 2
27.5602 19.0167 3.98182
33.3584 34.4295 3.37699
34.6808 34.5168 2
36.0039 34.4226 0.564541
34.6245 33.1448 0.673657
35.6651 31.1905 0.412698
37.4853 29.3032 0.207177
39.8015 28.208 0.14798
37.5887 27.8945 2
33.7031 33.3957 2
35.4083 29.5365 2
34.3178 31.7539 2
35.3019 28.0208 3.86693
33.6848 30.2856 3.80036
33.468 32.7438 3.64408
29.9295 22.2144 4.00827
30.3189 19.597 2
30.9779 16.8695 0.00354694
37.7462 25.8819 0.041188
35.3689 23.1412 -0.0104913
32.9777 19.9644 0.00198206
32.5907 22.6805 2
35.2505 25.7445 2
32.2361 26.0255 4.01125
32.8693 37.4974 3.39749
34.6129 37.4973 2
36.0255 37.4692 0.583174
35.5791 49.5671 0.0189666
34.6507 46.8075 0.145737
34.6308 39.0085 0.502349
33.7011 44.6867 0.203157
33.4735 42.2358 0.360577
33.3526 40.5648 0.640912
33.5574 48.6893 2
33.0389 39.1532 2
32.6384 41.0426 2
32.9203 45.8725 2
32.3 43.4767 2
31.9017 47.5131 3.98644
32.0743 39.3849 3.59282
31.3727 41.7251 3.81935
31.459 44.4663 3.8559
32.3705 50.931 -0.00181885
30.5357 49.4656 2
28.7841 47.8574 3.97415
28.9288 51.295 0.0114207
27.2543 49.6654 2
25.6237 48.1031 3.97464
25.6917 51.4604 0.0468551
24.1575 49.8553 2
22.6798 48.4165 3.97162
22.6695 51.511 0.0439824
21.3586 49.9823 2
19.8795 48.7852 3.97523
17.5912 49.0832 3.97624
17.4053 51.1682 3.97204
18.726 50.0547 2
16.9054 53.6596 3.96713
18.495 52.5328 2
19.9918 51.3363 0.0359637
16.301 56.3184 3.96134
17.8814 55.1381 2
19.4488 54.0734 0.0387714
15.8283 59.1298 3.95566
17.3319 57.7438 2
18.7384 56.5534 0.0378046
15.7939 62.0844 3.97011
17.1678 60.4779 2
18.4596 59.0024 0.042261
16.0933 65.2948 3.97759
17.4143 63.4266 2
18.6394 61.6893 0.0227835
16.6661 68.6801 4
17.943 66.608 2
19.1391 64.6296 0.0298116
18.75 69.9759 2
19.8901 67.8072 0.0168893
20.9142 71.1327 0
20.2597 14.7099 3.97004
21.6214 13.716 2
20.5478 12.0845 3.97214
21.1458 9.16538 3.97363
22.1947 11.0856 2
23.1157 12.8883 0.0224725
22.0199 6.08378 3.98668
23.0386 8.19361 2
23.9762 10.1845 0.0257259
23.1494 2.85457 4
24.1147 5.14721 2
25.0248 7.32217 0.0233881
25.446 1.99012 2
26.2822 4.33018 0.0112815
27.7943 1.27781 0
33.0241 35.8608 3.3819
34.6462 35.9861 2
36.0028 35.9411 0.577511
21.3913 15.9534 2
20.4498 17.1031 3.95856
22.2097 16.7683 3.95491
25.381 14.0251 0.0265006
22.5326 15.1628 0.0156856
24.0991 15.7361 -0.00728402
25.4536 16.2229 2
23.3747 16.3687 2
24.3448 18.6836 3.98332
27.374 21.8116 3.99409
28.4198 15.9878 0.00779238
27.5498 19.037 2
32.7159 33.9974 3.58955
33.339 34.4221 2
34.7582 34.5083 0.554006
33.7393 33.419 0.606553
34.373 31.8375 0.39799
35.421 29.6032 0.20797
37.6329 27.9283 0.148765
35.2863 27.9719 2
33.4221 32.6607 2
33.6407 30.2326 2
33.155 28.6518 3.87657
32.3447 31.5241 3.80046
29.3945 24.6791 4.0159
29.9054 22.2056 2
30.3201 19.6037 0.0182929
35.2351 25.7524 0.0159297
32.6067 22.7184 -0.00256977
32.226 25.9908 2
30.4891 27.7052 3.98424
31.7556 37.4816 3.58788
32.8601 37.4976 2
34.6178 37.5062 0.480873
33.5701 48.702 0.02804
32.93 45.8119 0.149491
33.0419 39.1452 0.655691
32.344 43.4456 0.196147
32.6956 40.9792 0.408021
31.8505 47.5428 2
31.9781 39.3962 2
31.3082 41.7836 2
31.3968 44.5189 2
30.2399 46.1308 3.98224
30.607 39.7253 3.82671
30.0622 42.8004 3.87544
30.5283 49.44 -0.00404825
28.7851 47.8622 2
27.0852 46.2711 3.97998
27.2533 49.6637 0.0233835
25.6269 48.1004 2
23.9732 46.6774 3.97601
24.1541 49.8579 0.0316887
22.6787 48.4153 2
20.9444 47.2883 3.97589
21.3582 49.9844 0.0328441
19.8779 48.784 2
18.4748 47.9089 3.97636
16.8328 48.4514 3.97605
17.5905 49.0832 2
16.4522 49.9506 3.97506
15.8865 52.2196 3.97208
17.4068 51.1672 2
18.7247 50.056 0.0272071
15.2447 54.8166 3.96506
16.9059 53.6592 2
18.4975 52.5328 0.0336989
14.6207 57.6456 3.9584
16.3006 56.3193 2
17.8844 55.1371 0.0377825
14.2769 60.655 3.96449
15.8261 59.1325 2
17.333 57.7419 0.0419668
14.338 63.853 3.97251
15.7973 62.0851 2
17.1681 60.4754 0.0448311
14.6715 67.2507 4
16.0895 65.2908 2
17.4171 63.4168 0.0290274
16.6661 68.6801 2
17.9463 66.6128 0.0217934
18.75 69.9759 0
19.0044 15.8984 3.95847
20.2645 14.6995 2
19.0043 13.2051 3.97013
21.6184 13.7166 0.0339913
20.5431 12.0865 2
19.3499 10.2633 3.97116
19.9949 7.14825 3.98479
21.1418 9.16359 2
22.2005 11.0729 0.0322673
20.9142 3.86727 4
22.0137 6.0873 2
23.0417 8.18969 0.0262314
23.1494 2.85451 2
24.1202 5.14465 0.0117077
25.446 1.99014 0
32.0951 35.5915 3.58145
33.0169 35.8538 2
34.6975 35.9857 0.520724
21.3847 15.9643 0.0394904
22.2155 16.763 2
20.4549 17.1017 2
19.5125 18.5939 3.95732
21.9272 18.0677 3.98807
25.4544 16.2197 0.0140707
23.371 16.3723 0.035639
24.3391 18.6983 2
22.6144 20.1357 3.972
24.9663 21.6621 3.99229
27.0317 23.9661 3.9843
27.3719 21.7239 2
27.5602 19.0167 0.0181846
31.4041 33.2568 3.81852
32.6562 33.9466 2
33.3584 34.4295 0.623007
33.468 32.7438 0.355918
33.6848 30.2856 0.199641
35.3019 28.0208 0.133071
33.1134 28.6107 2
32.2811 31.4667 2
31.1511 30.0166 3.89485
28.7774 26.8714 4.01014
29.3827 24.6908 2
29.9295 22.2144 -0.00826858
32.2361 26.0255 -0.0112513
30.4776 27.6821 2
30.2442 37.4691 3.82731
31.6619 37.4802 2
32.8693 37.4974 0.602509
31.9017 47.5131 0.0135599
31.459 44.4663 0.144096
32.0743 39.3849 0.407184
31.3727 41.7251 0.180651
30.2481 46.1392 2
30.5052 39.733 2
30.0312 42.8311 2
28.5928 44.471 3.96483
28.3519 40.4055 3.92041
28.7841 47.8574 0.0258507
27.0867 46.2703 2
25.3166 44.7944 3.98033
25.6237 48.1031 0.0253639
23.9732 46.6757 2
22.0221 45.6012 3.97725
22.6798 48.4165 0.028376
20.9448 47.287 2
19.2493 46.471 3.97577
19.8795 48.7852 0.0247675
18.4751 47.9088 2
17.0963 47.4822 3.97556
16.8341 48.4516 2
15.8171 48.8061 3.97526
17.5912 49.0832 0.0237587
16.4537 49.9498 2
14.9896 50.804 3.97438
14.1995 53.2878 3.96971
15.8873 52.2191 2
17.4053 51.1682 0.0279628
13.4776 56.0683 3.96105
15.2449 54.8168 2
16.9054 53.6596 0.0328707
12.8758 59.0966 3.95546
14.6198 57.6476 2
16.301 56.3184 0.038662
12.6842 62.293 3.96774
14.2802 60.6564 2
15.8283 59.1298 0.0443439
12.7746 65.6939 4
14.3347 63.8462 2
15.7939 62.0844 0.0298862
14.6714 67.2507 2
16.0933 65.2948 0.0224126
16.6661 68.6801 0
17.8576 17.3008 3.95866
19.0104 15.8903 2
17.545 14.4562 3.96529
20.2597 14.7099 0.0299599
19.0018 13.1981 2
17.6532 11.5118 3.97121
20.5478 12.0845 0.027855
19.3456 10.2787 2
18.0545 8.34162 3.98187
18.75 5.0241 4
19.9882 7.15431 2
21.1458 9.16538 0.0263659
20.9142 3.86727 2
22.0199 6.08378 0.0133211
23.1494 2.85457 0
30.6143 35.2703 3.82121
31.9974 35.5716 2
33.0241 35.8608 0.618103
22.2097 16.7683 0.0450864
20.4498 17.1031 0.0414448
21.9313 18.0625 2
19.507 18.5912 2
18.4169 20.1642 3.96372
21.1789 19.6108 3.97547
24.3448 18.6836 0.0166794
22.6128 20.1315 2
24.9783 21.6269 2
22.8658 22.0015 3.979
25.3479 23.3115 3.98252
26.4033 26.2512 3.98191
27.0331 23.9667 2
27.374 21.8116 0.00591251
29.8228 32.6282 3.87525
31.3224 33.2084 2
32.7159 33.9974 0.410445
32.3447 31.5241 0.199536
33.155 28.6518 0.123428
31.1306 29.9935 2
28.2174 29.4868 4.0086
28.7572 26.8861 2
29.3945 24.6791 -0.015902
30.4891 27.7052 0.0157622
28.5745 37.3975 3.8596
30.1503 37.482 2
31.7556 37.4816 0.41212
30.2399 46.1308 0.0177625
30.0622 42.8004 0.124556
30.607 39.7253 0.173286
28.5959 44.5295 2
28.3091 40.417 2
26.7387 42.9469 3.97925
25.6677 39.4014 3.97775
27.0852 46.2711 0.0200208
25.3081 44.8012 2
23.2609 43.6377 3.97536
23.9732 46.6774 0.0239923
22.0202 45.6023 2
20.0745 44.7152 3.97504
20.9444 47.2883 0.024108
19.2491 46.4718 2
17.4773 45.9885 3.97542
18.4748 47.9089 0.0236433
17.0967 47.4824 2
15.5984 47.4758 3.97521
16.8328 48.4514 0.0239538
15.8189 48.8059 2
14.3073 49.3738 3.97496
16.4522 49.9506 0.0249385
14.9906 50.8034 2
13.2663 51.7404 3.97284
12.3696 54.436 3.9639
14.2001 53.2875 2
15.8865 52.2196 0.0279152
11.6115 57.4237 3.95864
13.4771 56.0689 2
15.2447 54.8166 0.0349428
11.1403 60.6204 3.9673
12.8788 59.0954 2
14.6207 57.6456 0.0415994
10.9835 64.0165 4
12.6826 62.2863 2
14.2769 60.655 0.0355095
12.7745 65.694 2
14.338 63.853 0.0274932
14.6715 67.2507 0
16.7005 18.8164 3.96058
17.8556 17.2944 2
16.1784 15.8679 3.95597
19.0044 15.8984 0.0415307
17.5482 14.4527 2
16.0316 12.8628 3.96556
19.0043 13.2051 0.0298705
17.6468 11.5153 2
16.2065 9.66874 3.97547
19.3499 10.2633 0.0288399
18.0491 8.34892 2
16.6661 6.31991 4
18.75 5.02404 2
19.9949 7.14825 0.015214
20.9142 3.86727 0
29.0129 34.8998 3.8849
30.4978 35.2317 2
32.0951 35.5915 0.418548
17.1561 21.5943 3.97002
21.9272 18.0677 0.0119287
19.5125 18.5939 0.0426809
21.1722 19.6058 2
18.4076 20.1603 2
20.2923 21.8527 3.97393
22.6144 20.1357 0.0280031
24.9663 21.6621 0.00770732
22.8654 21.9974 2
25.3275 23.3715 2
23.7114 24.9106 3.97146
25.7874 28.8526 3.98425
26.3903 26.2606 2
27.0317 23.9661 0.0157048
27.6917 31.9846 3.97769
29.7756 32.6077 2
31.4041 33.2568 0.181481
31.1511 30.0166 0.105149
28.2332 29.4441 2
28.7774 26.8714 -0.0101439
26.381 36.8801 3.9584
28.5369 37.388 2
30.2442 37.4691 0.172691
28.5928 44.471 0.0351692
28.3519 40.4055 0.0795854
26.7145 42.9763 2
25.6261 39.3962 2
24.5091 41.6398 3.97741
23.3581 38.5132 3.97572
25.3166 44.7944 0.0196671
23.2597 43.6419 2
20.9768 42.6818 3.97471
22.0221 45.6012 0.0227505
20.0761 44.716 2
17.9024 44.1818 3.97507
19.2493 46.471 0.0242289
17.4775 45.9893 2
15.5711 45.9122 3.97532
17.0963 47.4822 0.0244442
15.5989 47.4759 2
13.8434 47.8514 3.97506
15.8171 48.8061 0.0247377
14.3085 49.3733 2
12.504 50.1275 3.97481
14.9896 50.804 0.0256218
13.2671 51.7399 2
11.3608 52.7556 3.96647
10.4146 55.6788 3.9605
12.3696 54.4361 2
14.1995 53.2878 0.0302864
9.70639 58.8458 3.96986
11.6157 57.4227 2
13.4776 56.0683 0.0389507
9.30605 62.2254 4
11.1387 60.6141 2
12.8758 59.0966 0.0445356
10.9835 64.0165 2
12.6842 62.293 0.0322631
12.7746 65.6939 0
15.505 20.3533 3.96519
16.7138 18.8153 2
14.908 17.4052 3.95768
17.8576 17.3008 0.0413395
16.1765 15.8627 2
14.4941 14.3356 3.96596
17.545 14.4562 0.03471
16.0337 12.858 2
14.4504 11.1206 3.9739
17.6532 11.5118 0.0287916
16.2017 9.67698 2
14.6715 7.74927 4
18.0545 8.34162 0.0181319
16.6661 6.31988 2
18.75 5.0241 0
26.9684 34.4155 3.97269
28.9857 34.9075 2
30.6143 35.2703 0.178788
18.4502 22.5832 3.9748
16.0573 23.1323 3.97257
17.1542 21.5923 2
21.1789 19.6108 0.0245345
18.4169 20.1642 0.036276
20.2921 21.8504 2
20.4563 24.704 3.97228
22.8658 22.0015 0.0210008
25.3479 23.3115 0.0174775
23.704 24.905 2
23.1556 28.2017 3.97121
25.2607 31.5076 3.9832
25.7977 28.8088 2
26.4033 26.2512 0.0180932
27.6585 31.9533 2
29.8228 32.6282 0.124748
28.2174 29.4868 -0.00859815
24.1087 36.3342 3.97818
26.3467 36.8735 2
28.5745 37.3975 0.140404
26.7387 42.9469 0.0207488
25.6677 39.4014 0.0222496
24.4806 41.6443 2
23.3576 38.5098 2
22.1376 40.5234 3.9755
21.4364 37.7848 3.97789
23.2609 43.6377 0.0246363
20.978 42.681 2
18.389 41.9582 3.97569
20.0745 44.7152 0.024963
17.9027 44.1821 2
15.6194 44.0482 3.97525
17.4773 45.9885 0.0245762
15.5706 45.9126 2
13.5446 46.1579 3.97517
15.5984 47.4758 0.024795
13.8439 47.8512 2
11.8934 48.4328 3.97515
14.3073 49.3738 0.0250406
12.5053 50.1268 2
10.4959 51.0063 3.9688
13.2663 51.7404 0.0271585
11.3616 52.755 2
9.31924 53.8623 3.96185
8.3905 56.9812 3.97071
10.4163 55.6776 2
12.3696 54.436 0.0361025
7.74927 60.3285 4
9.70536 58.8406 2
11.6115 57.4237 0.0413602
9.306 62.2255 2
11.1403 60.6204 0.0327033
10.9835 64.0165 0
14.3335 21.9073 3.97034
15.5066 20.3503 2
13.6506 19.0022 3.96133
16.7005 18.8164 0.0394249
14.9073 17.4019 2
13.0472 15.9188 3.95991
16.1784 15.8679 0.0440285
14.5012 14.3325 2
12.7877 12.6949 3.96978
16.0316 12.8628 0.0344449
14.4464 11.1298 2
12.7746 9.30605 4
16.2065 9.66874 0.0245311
14.6715 7.74924 2
16.6661 6.31991 0
24.6405 33.9208 3.98217
26.9425 34.4026 2
29.0129 34.8998 0.115103
18.335 24.3234 3.9731
18.4581 22.5836 2
14.8708 24.643 3.9741
16.0564 23.1303 2
17.1561 21.5943 0.0299761
20.0235 27.5107 3.97318
20.2923 21.8527 0.026069
20.4594 24.7033 2
22.5412 30.9403 3.97392
23.7114 24.9106 0.028537
23.1519 28.2085 2
25.2138 31.5385 2
25.7874 28.8526 0.0157465
27.6917 31.9846 0.0223126
21.532 35.9804 3.97783
24.1001 36.333 2
26.381 36.8801 0.0416007
24.5091 41.6398 0.0225852
23.3581 38.5132 0.0242753
22.1417 40.523 2
21.4401 37.7858 2
19.1698 38.9605 3.97709
20.9768 42.6818 0.025294
18.3887 41.9582 2
15.6021 41.8213 3.97586
17.9024 44.1818 0.0249264
15.6185 44.0484 2
13.304 44.2805 3.97543
15.5711 45.9122 0.02468
13.5444 46.1579 2
11.4077 46.6312 3.97526
13.8434 47.8514 0.0249428
11.8951 48.4319 2
9.76477 49.1739 3.97142
12.504 50.1275 0.0251909
10.4971 51.0054 2
8.34476 51.98 3.96297
11.3608 52.7556 0.0335315
9.31767 53.8613 2
7.19918 55.0335 3.97155
6.31991 58.3339 4
8.38928 56.9765 2
10.4146 55.6788 0.0394976
7.74924 60.3285 2
9.70639 58.8458 0.0301433
9.30605 62.2254 0
13.7158 25.5259 3.976
13.223 23.4242 3.97372
14.3352 21.9048 2
12.4657 20.6459 3.9643
15.505 20.3533 0.034807
13.645 18.9981 2
11.7085 17.5968 3.95833
14.908 17.4052 0.0423153
13.0567 15.9162 2
11.2265 14.3814 3.96566
14.4941 14.3356 0.0340361
12.7866 12.704 2
10.9835 10.9835 4
14.4504 11.1206 0.0260978
12.7745 9.306 2
14.6715 7.74927 0
21.9039 33.5695 3.97653
24.6417 33.8994 2
26.9684 34.4155 0.0273127
16.6492 26.6304 3.97424
18.3391 24.3229 2
18.4502 22.5832 0.0252028
14.8674 24.6421 2
16.0573 23.1323 0.0274297
19.4226 30.407 3.9747
20.0258 27.5092 2
20.4563 24.704 0.0277165
22.5575 30.9371 2
23.1556 28.2017 0.0287893
25.2607 31.5076 0.0168016
18.7447 36.0185 3.97773
21.5326 35.9813 2
24.1087 36.3342 0.0218222
22.1376 40.5234 0.0244998
21.4364 37.7848 0.0221057
19.1702 38.9595 2
15.0835 39.1431 3.97686
18.389 41.9582 0.0243137
15.6013 41.821 2
12.9903 42.2028 3.97594
15.6194 44.0482 0.0247529
13.3033 44.2804 2
10.991 44.722 3.97595
13.5446 46.1579 0.0248264
11.4094 46.6307 2
9.13992 47.2629 3.97412
11.8934 48.4328 0.0248466
9.7666 49.1729 2
7.50057 50.0178 3.96403
10.4959 51.0063 0.0311996
8.34258 51.979 2
6.1394 53.0091 3.97177
9.31924 53.8623 0.0381525
7.19859 55.0294 2
5.0241 56.25 4
6.31988 58.3339 2
8.3905 56.9812 0.0292869
7.74927 60.3285 0
14.0185 26.9745 3.97497
12.3293 24.9157 3.97517
13.7133 25.5247 2
11.3881 22.3228 3.96753
13.2241 23.4226 2
14.3335 21.9073 0.0296586
12.4623 20.6431 2
10.4837 19.3546 3.96026
13.6506 19.0022 0.0386732
11.7256 17.5975 2
9.76696 16.1623 3.96924
13.0472 15.9188 0.0400947
11.2263 14.3874 2
9.30607 12.7746 4
12.7877 12.6949 0.0302183
10.9835 10.9835 2
12.7746 9.30605 0
18.9144 33.2332 3.97558
21.9011 33.5726 2
24.6405 33.9208 0.0178285
16.2792 29.8175 3.9751
16.6477 26.6302 2
18.335 24.3234 0.0268993
14.8708 24.643 0.0259032
19.416 30.4066 2
20.0235 27.5107 0.0268235
22.5412 30.9403 0.0260837
15.7314 36.0514 3.97717
18.7446 36.019 2
21.532 35.9804 0.0221706
13.2231 37.8267 3.977
19.1698 38.9605 0.0229119
15.0831 39.1429 2
12.4774 40.1019 3.97645
15.6021 41.8213 0.024143
12.9893 42.2025 2
10.5832 42.7229 3.97611
13.304 44.2805 0.0245684
10.9923 44.7215 2
8.60993 45.2761 3.97538
11.4077 46.6312 0.0247417
9.14214 47.2619 2
6.77949 47.9871 3.96451
9.76477 49.1739 0.02858
7.49806 50.0169 2
5.21557 50.9121 3.97176
8.34476 51.98 0.0370347
6.13928 53.0059 2
3.86727 54.0858 4
7.19918 55.0335 0.0284531
5.02404 56.25 2
6.31991 58.3339 0
13.4937 29.1599 3.97442
11.7763 26.5999 3.97461
14.017 26.9748 2
10.4309 24.0414 3.97092
12.3313 24.9148 2
13.7158 25.5259 0.0240038
9.33883 21.1686 3.96229
11.3868 22.3214 2
13.223 23.4242 0.0262767
12.4657 20.6459 0.0357013
10.4931 19.3553 2
8.42298 18.0306 3.97067
11.7085 17.5968 0.0416664
9.76607 16.167 2
7.74928 14.6715 4
11.2265 14.3814 0.0343416
9.30602 12.7745 2
10.9835 10.9835 0
15.2521 32.9521 3.97619
18.9152 33.2345 2
21.9039 33.5695 0.0234685
16.2787 29.8173 2
16.6492 26.6304 0.0257557
19.4226 30.407 0.0252993
13.5345 36.2286 3.97661
15.7319 36.0513 2
18.7447 36.0185 0.0222656
13.2221 37.8265 2
11.7872 38.3005 3.97658
15.0835 39.1431 0.0231428
12.4763 40.1021 2
10.1505 40.7222 3.97657
12.9903 42.2028 0.0240571
10.5845 42.7223 2
8.1533 43.2371 3.97605
10.991 44.722 0.0240508
8.6133 45.275 2
6.17626 45.8954 3.96481
9.13992 47.2629 0.0258841
6.7771 47.9862 2
4.42652 48.7521 3.97163
7.50057 50.0178 0.0359656
5.21579 50.9098 2
2.85457 51.8506 4
6.1394 53.0091 0.0282332
3.86727 54.0858 2
5.0241 56.25 0
12.6133 31.339 3.9757
11.184 28.508 3.97515
13.4937 29.1597 2
9.6353 25.8602 3.97369
11.7768 26.6 2
14.0185 26.9745 0.0250327
8.30617 23.0453 3.96406
10.433 24.0414 2
12.3293 24.9157 0.0248339
7.20502 19.9781 3.9718
9.34434 21.1697 2
11.3881 22.3228 0.0324663
10.4837 19.3546 0.0397385
8.42225 18.0351 2
6.31992 16.6661 4
9.76696 16.1623 0.0307602
7.74926 14.6714 2
9.30607 12.7746 0
12.6524 34.3422 3.97662
15.2515 32.9529 2
18.9144 33.2332 0.0244161
16.2792 29.8175 0.0249013
11.3112 36.6241 3.97653
13.5342 36.2285 2
15.7314 36.0514 0.022833
13.2231 37.8267 0.0230034
11.7864 38.3002 2
9.72128 38.8115 3.97687
12.4774 40.1019 0.0235535
10.1513 40.7218 2
7.75374 41.191 3.97621
10.5832 42.7229 0.023887
8.15575 43.2362 2
5.67749 43.7614 3.96542
8.60993 45.2761 0.0246155
6.17238 45.8949 2
3.77159 46.5372 3.97208
6.77949 47.9871 0.0354894
4.42711 48.7504 2
1.99014 49.554 4
5.21557 50.9121 0.0282445
2.85451 51.8506 2
3.86727 54.0858 0
11.393 32.9764 3.97645
10.4806 30.4489 3.97567
12.612 31.3392 2
8.93298 27.7825 3.97431
11.1853 28.5085 2
13.4937 29.1599 0.0255814
7.41606 24.9984 3.96459
9.63815 25.8606 2
11.7763 26.5999 0.0253949
6.12153 22.0004 3.97233
8.30715 23.0462 2
10.4309 24.0414 0.0290779
5.02411 18.75 4
7.20461 19.9819 2
9.33883 21.1686 0.0377083
8.42298 18.0306 0.0293338
6.3199 16.6661 2
7.74928 14.6715 0
10.886 35.0271 3.97638
12.6511 34.3422 2
15.2521 32.9521 0.0238122
9.36919 36.9897 3.9769
11.3104 36.6242 2
13.5345 36.2286 0.023388
11.7872 38.3005 0.0234177
9.72236 38.8112 2
7.41775 39.1735 3.97621
10.1505 40.7222 0.0234306
7.7572 41.1903 2
5.28557 41.6099 3.96584
8.1533 43.2371 0.0239498
5.67473 43.761 2
3.24898 44.2817 3.97296
6.17626 45.8954 0.035192
3.77244 46.5359 2
1.27781 47.2057 4
4.42652 48.7521 0.0283713
1.99012 49.554 2
2.85457 51.8506 0
10.5061 33.9181 3.97617
9.74049 32.2007 3.97632
11.3926 32.9767 2
8.26456 29.7338 3.97477
10.4817 30.4494 2
12.6133 31.339 0.0242994
6.64592 27.0203 3.96453
8.93608 27.7832 2
11.184 28.508 0.0248476
5.17625 24.0934 3.97212
7.41421 24.9991 2
9.6353 25.8602 0.0263071
3.86728 20.9142 4
6.12153 22.0031 2
8.30617 23.0453 0.0359355
5.02406 18.75 2
7.20502 19.9781 0.0281962
6.31992 16.6661 0
9.17607 35.2982 3.97692
10.8854 35.0271 2
12.6524 34.3422 0.0233834
7.18508 37.2071 3.97584
9.3706 36.9896 2
11.3112 36.6241 0.0234698
9.72128 38.8115 0.0231336
7.42097 39.173 2
5.00707 39.4659 3.96617
7.75374 41.191 0.0237852
5.28337 41.6095 2
2.85919 42.002 3.97351
5.67749 43.7614 0.0345811
3.24966 44.2808 2
0.720592 44.8159 4
3.77159 46.5372 0.0279198
1.27778 47.2057 2
1.99014 49.554 0
9.21132 33.7282 3.97688
10.5063 33.9183 2
7.68878 31.6365 3.97513
9.74268 32.2013 2
11.393 32.9764 0.0235521
5.98005 29.0784 3.96474
8.26736 29.7346 2
10.4806 30.4489 0.0243327
4.36313 26.2467 3.97216
6.6427 27.0208 2
8.93298 27.7825 0.0256907
2.85458 23.1494 4
5.17661 24.0952 2
7.41606 24.9984 0.0354094
3.86728 20.9142 2
6.12153 22.0004 0.0276676
5.02411 18.75 0
7.12691 35.3157 3.97553
9.17807 35.2983 2
10.886 35.0271 0.023622
4.85182 37.3406 3.96623
7.18806 37.2069 2
9.36919 36.9897 0.0231003
7.41775 39.1735 0.023793
5.00476 39.4656 2
2.60705 39.7137 3.97391
5.28557 41.6099 0.0341572
2.86015 42.0015 2
0.320823 42.3947 4
3.24898 44.2817 0.0270444
0.720551 44.8159 2
1.27781 47.2057 0
7.29004 33.4788 3.97537
9.21356 33.7286 2
10.5061 33.9181 0.0238281
5.4393 31.1399 3.96525
7.69134 31.6371 2
9.74049 32.2007 0.0236766
3.68425 28.4435 3.97252
5.97581 29.0788 2
8.26456 29.7338 0.0252344
1.99015 25.446 4
4.36375 26.248 2
6.64592 27.0203 0.0354662
2.85453 23.1494 2
5.17625 24.0934 0.0278847
3.86728 20.9142 0
4.86414 35.2542 3.96599
7.12885 35.3158 2
9.17607 35.2982 0.0230827
2.49849 37.4285 3.97472
4.84918 37.3406 2
7.18508 37.2071 0.0241605
5.00707 39.4659 0.0338273
2.60817 39.7138 2
0.080333 39.9526 4
2.85919 42.002 0.0264923
0.320817 42.3947 2
0.720592 44.8159 0
5.06007 33.1945 3.96569
7.29192 33.4792 2
9.21132 33.7282 0.023117
3.14823 30.6667 3.97319
5.43487 31.1402 2
7.68878 31.6365 0.0248746
1.27793 27.7943 4
3.68516 28.4446 2
5.98005 29.0784 0.0352564
1.99013 25.446 2
4.36313 26.2467 0.0278385
2.85458 23.1494 0
2.55048 35.1594 3.97455
4.86256 35.2545 2
7.12691 35.3157 0.0244718
0 37.5 4
2.49914 37.4289 2
4.85182 37.3406 0.0337686
2.60705 39.7137 0.0260906
0.0802903 39.9526 2
0.320823 42.3947 0
2.76821 32.9064 3.97426
5.05763 33.1949 2
7.29004 33.4788 0.0246258
0.721173 30.1842 4
3.14931 30.6677 2
5.4393 31.1399 0.0347516
1.27779 27.7943 2
3.68425 28.4435 0.0274846
1.99015 25.446 0
0.0806499 35.0474 4
2.55172 35.1599 2
4.86414 35.2542 0.0340067
0 37.5 2
2.49849 37.4285 0.0252756
0.080333 39.9526 0
0.32156 32.6054 4
2.76895 32.9072 2
5.06007 33.1945 0.0343073
0.72056 30.1841 2
3.14823 30.6667 0.0268063
1.27793 27.7943 0
0.0802889 35.0474 2
2.55048 35.1594 0.0254527
0 37.5 0
0.320817 32.6053 2
2.76821 32.9064 0.0257442
0.721173 30.1842 0
0.0806499 35.0474 0
0.32156 32.6054 0
CELLS 1910 17190
8 18 6 25 56 2 0 5 16
8 57 23 6 18 17 4 0 2
8 78 36 9 29 31 11 1 7
8 31 11 1 7 79 37 10 30
8 110 57 18 50 48 17 2 14
8 50 18 56 111 14 2 16 49
8 116 62 22 55 52 20 3 15
8 56 25 67 118 16 5 24 53
8 119 63 23 57 54 21 4 17
8 55 22 63 119 15 3 21 54
8 58 26 68 121 18 6 25 56
8 122 65 26 58 57 23 6 18
8 73 31 7 27 142 79 30 71
8 143 78 29 72 73 31 7 27
8 83 147 76 34 32 74 28 8
8 84 148 78 36 33 75 29 9
8 76 34 8 28 148 84 33 75
8 37 79 150 86 10 30 77 35
8 151 87 36 78 80 38 11 31
8 80 38 11 31 152 88 37 79
8 175 100 42 94 96 44 12 40
8 44 96 176 101 12 40 95 43
8 101 176 98 46 43 95 41 13
8 46 98 178 103 13 41 97 45
8 178 103 45 97 147 83 32 74
8 189 116 55 109 106 52 15 47
8 111 56 118 191 49 16 53 107
8 192 119 57 110 108 54 17 48
8 109 55 119 192 47 15 54 108
8 194 122 58 112 110 57 18 50
8 112 58 121 195 50 18 56 111
8 115 61 19 51 197 124 59 113
8 115 61 125 198 51 19 60 114
8 198 125 62 116 114 60 20 52
8 200 127 64 120 116 62 22 55
8 118 67 132 202 53 24 66 117
8 121 68 133 203 56 25 67 118
8 120 64 128 204 55 22 63 119
8 204 128 65 122 119 63 23 57
8 206 134 68 121 123 69 26 58
8 123 69 26 58 207 131 65 122
8 226 147 74 138 140 76 28 70
8 229 148 75 139 143 78 29 72
8 140 76 28 70 229 148 75 139
8 142 79 30 71 231 150 77 141
8 144 80 31 73 232 152 79 142
8 233 151 78 143 144 80 31 73
8 150 86 35 77 235 154 81 145
8 235 154 81 145 146 82 39 91
8 146 82 39 91 236 155 90 165
8 238 157 83 147 149 85 34 76
8 239 158 84 148 151 87 36 78
8 149 85 34 76 239 158 84 148
8 152 88 37 79 241 160 86 150
8 242 161 87 151 153 89 38 80
8 153 89 38 80 243 162 88 152
8 171 98 41 92 265 178 97 169
8 265 178 97 169 226 147 74 138
8 172 96 40 93 266 176 95 170
8 266 176 95 170 171 98 41 92
8 269 175 94 173 172 96 40 93
8 271 180 99 174 175 100 42 94
8 197 124 59 113 271 180 99 174
8 272 181 100 175 177 102 44 96
8 273 182 101 176 179 104 46 98
8 177 102 44 96 273 182 101 176
8 179 104 46 98 275 184 103 178
8 275 184 103 178 238 157 83 147
8 188 115 51 105 283 197 113 186
8 188 115 198 284 105 51 114 187
8 284 198 116 189 187 114 52 106
8 286 200 120 193 189 116 55 109
8 191 118 202 288 107 53 117 190
8 195 121 203 289 111 56 118 191
8 193 120 204 290 109 55 119 192
8 290 204 122 194 192 119 57 110
8 196 123 58 112 292 207 122 194
8 293 206 121 195 196 123 58 112
8 199 126 61 115 297 211 124 197
8 298 212 127 200 198 125 62 116
8 199 126 212 298 115 61 125 198
8 205 129 64 120 300 214 127 200
8 301 217 130 201 202 132 66 117
8 209 136 168 264 301 217 130 201
8 302 219 132 202 203 133 67 118
8 303 220 133 203 206 134 68 121
8 205 129 215 304 120 64 128 204
8 304 215 131 207 204 128 65 122
8 306 221 134 206 208 135 69 123
8 208 135 69 123 307 218 131 207
8 210 137 167 263 309 223 136 209
8 328 238 147 226 230 149 76 140
8 228 146 91 166 329 236 165 260
8 231 150 77 141 330 235 145 227
8 330 235 145 227 228 146 91 166
8 332 239 148 229 233 151 78 143
8 230 149 76 140 332 239 148 229
8 232 152 79 142 334 241 150 231
8 234 153 80 144 335 243 152 232
8 336 242 151 233 234 153 80 144
8 236 155 90 165 338 245 164 259
8 241 160 86 150 339 246 154 235
8 339 246 154 235 237 156 82 146
8 237 156 82 146 340 247 155 236
8 342 249 157 238 240 159 85 149
8 343 250 158 239 242 161 87 151
8 240 159 85 149 343 250 158 239
8 243 162 88 152 345 252 160 241
8 244 163 253 346 153 89 161 242
8 244 163 89 153 347 254 162 243
8 311 224 261 371 210 137 167 263
8 263 167 262 372 209 136 168 264
8 267 179 98 171 375 275 178 265
8 375 275 178 265 328 238 147 226
8 376 273 176 266 267 179 98 171
8 268 177 96 172 376 273 176 266
8 379 272 175 269 268 177 96 172
8 380 271 174 270 269 175 94 173
8 283 197 113 186 380 271 174 270
8 381 277 180 271 272 181 100 175
8 297 211 124 197 381 277 180 271
8 382 278 181 272 274 183 102 177
8 274 183 102 177 383 279 182 273
8 383 279 182 273 276 185 104 179
8 385 281 184 275 342 249 157 238
8 276 185 104 179 385 281 184 275
8 285 199 115 188 393 297 197 283
8 394 298 200 286 284 198 116 189
8 285 199 298 394 188 115 198 284
8 291 205 120 193 396 300 200 286
8 397 301 201 287 288 202 117 190
8 295 209 264 374 397 301 201 287
8 398 302 202 288 289 203 118 191
8 399 303 203 289 293 206 121 195
8 291 205 304 400 193 120 204 290
8 400 304 207 292 290 204 122 194
8 294 208 123 196 402 307 207 292
8 403 306 206 293 294 208 123 196
8 296 210 263 373 405 309 209 295
8 408 312 213 299 297 211 126 199
8 299 213 313 409 199 126 212 298
8 409 313 214 300 298 212 127 200
8 305 216 129 205 411 315 214 300
8 412 318 217 301 302 219 132 202
8 309 223 136 209 412 318 217 301
8 413 320 219 302 303 220 133 203
8 306 221 321 414 206 134 220 303
8 307 218 131 207 415 316 215 304
8 305 216 316 415 205 129 215 304
8 417 322 221 306 308 222 135 208
8 308 222 135 208 418 319 218 307
8 310 225 137 210 420 325 223 309
8 423 326 224 311 310 225 137 210
8 329 236 165 260 441 338 259 368
8 442 342 238 328 333 240 149 230
8 331 237 146 228 443 340 236 329
8 334 241 150 231 444 339 235 330
8 444 339 235 330 331 237 146 228
8 446 343 239 332 336 242 151 233
8 333 240 149 230 446 343 239 332
8 335 243 152 232 448 345 241 334
8 337 244 153 234 449 347 243 335
8 337 244 346 450 234 153 242 336
8 338 245 164 259 452 349 258 367
8 340 247 155 236 453 350 245 338
8 345 252 160 241 454 351 246 339
8 454 351 246 339 341 248 156 237
8 341 248 156 237 455 352 247 340
8 240 159 251 344 342 249 354 457
8 242 161 253 346 343 250 355 458
8 343 250 355 458 240 159 251 344
8 347 254 162 243 460 357 252 345
8 348 255 358 461 244 163 253 346
8 348 255 163 244 462 359 254 347
8 473 360 257 365 363 256 364 482
8 452 349 258 367 365 257 366 485
8 422 324 369 488 311 224 261 371
8 371 261 370 490 263 167 262 372
8 407 311 371 491 296 210 263 373
8 373 263 372 492 295 209 264 374
8 493 385 275 375 442 342 238 328
8 377 276 179 267 493 385 275 375
8 378 274 177 268 494 383 273 376
8 494 383 273 376 377 276 179 267
8 497 382 272 379 378 274 177 268
8 498 381 271 380 379 272 175 269
8 393 297 197 283 498 381 271 380
8 499 387 277 381 382 278 181 272
8 408 312 211 297 499 387 277 381
8 500 388 278 382 384 280 183 274
8 501 389 279 383 386 282 185 276
8 384 280 183 274 501 389 279 383
8 386 282 185 276 503 391 281 385
8 503 391 281 385 457 354 249 342
8 511 408 299 395 393 297 199 285
8 395 299 409 512 285 199 298 394
8 512 409 300 396 394 298 200 286
8 401 305 205 291 514 411 300 396
8 515 412 301 397 398 302 202 288
8 405 309 209 295 515 412 301 397
8 516 413 302 398 399 303 203 289
8 403 306 414 517 293 206 303 399
8 402 307 207 292 518 415 304 400
8 401 305 415 518 291 205 304 400
8 404 308 208 294 520 418 307 402
8 521 417 306 403 404 308 208 294
8 406 310 210 296 523 420 309 405
8 526 423 311 407 406 310 210 296
8 410 314 213 299 527 424 312 408
8 528 425 315 411 409 313 214 300
8 410 314 425 528 299 213 313 409
8 416 317 216 305 530 427 315 411
8 531 430 318 412 413 320 219 302
8 420 325 223 309 531 430 318 412
8 532 432 320 413 414 321 220 303
8 417 322 433 533 306 221 321 414
8 418 319 218 307 534 428 316 415
8 416 317 428 534 305 216 316 415
8 419 323 434 536 308 222 322 417
8 419 323 222 308 537 431 319 418
8 421 327 225 310 539 438 325 420
8 421 327 439 541 310 225 326 423
8 543 437 324 422 423 326 224 311
8 441 338 259 368 559 452 367 486
8 443 340 236 329 560 453 338 441
8 333 240 344 447 442 342 457 561
8 445 341 237 331 562 455 340 443
8 448 345 241 334 563 454 339 444
8 563 454 339 444 445 341 237 331
8 336 242 346 450 446 343 458 565
8 446 343 458 565 333 240 344 447
8 449 347 243 335 567 460 345 448
8 451 348 244 337 568 462 347 449
8 451 348 461 569 337 244 346 450
8 570 463 349 452 473 360 257 365
8 453 350 245 338 570 463 349 452
8 455 352 247 340 571 464 350 453
8 460 357 252 345 572 465 351 454
8 572 465 351 454 456 353 248 341
8 456 353 248 341 573 466 352 455
8 344 251 356 459 457 354 468 575
8 458 355 469 576 344 251 356 459
8 346 253 358 461 458 355 469 576
8 462 359 254 347 578 471 357 460
8 348 255 359 462 461 358 472 579
8 591 474 360 473 475 361 256 363
8 475 361 256 363 594 477 362 479
8 363 256 364 482 479 362 480 603
8 590 473 365 484 481 363 482 605
8 482 364 257 365 606 483 366 485
8 559 452 367 486 484 365 485 607
8 542 436 487 609 422 324 369 488
8 525 422 488 611 407 311 371 491
8 488 369 489 612 371 261 370 490
8 491 371 490 613 373 263 372 492
8 495 386 276 377 614 503 385 493
8 614 503 385 493 561 457 342 442
8 615 501 383 494 495 386 276 377
8 496 384 274 378 615 501 383 494
8 618 500 382 497 496 384 274 378
8 619 499 381 498 497 382 272 379
8 511 408 297 393 619 499 381 498
8 620 505 387 499 500 388 278 382
8 527 424 312 408 620 505 387 499
8 502 390 506 621 384 280 388 500
8 622 507 389 501 504 392 282 386
8 502 390 280 384 622 507 389 501
8 504 392 282 386 624 509 391 503
8 624 509 391 503 575 468 354 457
8 513 410 299 395 630 527 408 511
8 631 528 411 514 512 409 300 396
8 513 410 528 631 395 299 409 512
8 519 416 305 401 633 530 411 514
8 634 531 412 515 516 413 302 398
8 523 420 309 405 634 531 412 515
8 635 532 413 516 517 414 303 399
8 521 417 533 636 403 306 414 517
8 520 418 307 402 637 534 415 518
8 519 416 534 637 401 305 415 518
8 522 419 308 404 639 537 418 520
8 522 419 536 640 404 308 417 521
8 524 421 310 406 642 539 420 523
8 524 421 541 644 406 310 423 526
8 646 543 422 525 526 423 311 407
8 529 426 314 410 647 544 424 527
8 528 425 545 648 411 315 427 530
8 529 426 545 648 410 314 425 528
8 535 429 317 416 649 546 427 530
8 650 548 430 531 532 432 320 413
8 539 438 325 420 650 548 430 531
8 533 433 550 651 414 321 432 532
8 536 434 551 652 417 322 433 533
8 537 431 319 418 653 547 428 534
8 535 429 547 653 416 317 428 534
8 538 435 552 654 419 323 434 536
8 538 435 323 419 655 549 431 537
8 540 440 327 421 657 556 438 539
8 540 440 557 659 421 327 439 541
8 541 439 555 660 423 326 437 543
8 661 554 436 542 543 437 324 422
8 676 570 452 559 590 473 365 484
8 560 453 338 441 676 570 452 559
8 562 455 340 443 677 571 453 560
8 447 344 459 566 561 457 575 678
8 564 456 341 445 679 573 455 562
8 567 460 345 448 680 572 454 563
8 680 572 454 563 564 456 341 445
8 565 458 576 682 447 344 459 566
8 450 346 461 569 565 458 576 682
8 568 462 347 449 684 578 460 567
8 451 348 462 568 569 461 579 685
8 686 580 463 570 591 474 360 473
8 571 464 350 453 686 580 463 570
8 573 466 352 455 687 581 464 571
8 572 465 582 688 460 357 471 578
8 574 467 582 688 456 353 465 572
8 574 467 353 456 689 583 466 573
8 459 356 470 577 575 468 585 691
8 576 469 586 692 459 356 470 577
8 461 358 472 579 576 469 586 692
8 462 359 471 578 579 472 588 694
8 704 591 473 590 593 475 363 481
8 595 476 592 705 475 361 474 591
8 593 475 363 481 707 594 479 602
8 594 477 362 479 709 598 478 600
8 595 476 361 475 711 597 477 594
8 479 362 480 603 600 478 601 720
8 481 363 482 605 602 479 603 722
8 603 480 364 482 723 604 483 606
8 605 482 365 484 724 606 485 607
8 656 553 608 726 542 436 487 609
8 645 542 609 728 525 422 488 611
8 609 487 610 729 488 369 489 612
8 611 488 612 730 491 371 490 613
8 616 504 386 495 731 624 503 614
8 731 624 503 614 678 575 457 561
8 732 622 501 615 616 504 386 495
8 617 502 384 496 732 622 501 615
8 617 502 621 735 496 384 500 618
8 736 620 499 619 618 500 382 497
8 630 527 408 511 736 620 499 619
8 621 506 626 737 500 388 505 620
8 647 544 424 527 737 626 505 620
8 623 508 627 738 502 390 506 621
8 623 508 390 502 739 628 507 622
8 625 510 628 739 504 392 507 622
8 740 629 509 624 691 585 468 575
8 625 510 392 504 740 629 509 624
8 632 529 410 513 744 647 527 630
8 631 528 648 745 514 411 530 633
8 632 529 648 745 513 410 528 631
8 638 535 416 519 746 649 530 633
8 747 650 531 634 635 532 413 516
8 642 539 420 523 747 650 531 634
8 636 533 651 748 517 414 532 635
8 640 536 652 749 521 417 533 636
8 639 537 418 520 750 653 534 637
8 638 535 653 750 519 416 534 637
8 641 538 419 522 751 655 537 639
8 641 538 654 752 522 419 536 640
8 643 540 421 524 753 657 539 642
8 643 540 659 755 524 421 541 644
8 644 541 660 757 526 423 543 646
8 758 661 542 645 646 543 422 525
8 529 426 544 647 648 545 662 759
8 530 427 545 648 649 546 663 760
8 535 429 546 649 653 547 664 761
8 762 666 548 650 651 550 432 532
8 657 556 438 539 762 666 548 650
8 652 551 668 763 533 433 550 651
8 654 552 669 764 536 434 551 652
8 655 549 431 537 765 665 547 653
8 538 435 549 655 654 552 667 766
8 661 554 671 768 542 436 553 656
8 658 558 440 540 769 674 556 657
8 658 558 675 770 540 440 557 659
8 659 557 673 771 541 439 555 660
8 660 555 672 772 543 437 554 661
8 788 686 570 676 704 591 473 590
8 677 571 453 560 788 686 570 676
8 679 573 455 562 789 687 571 677
8 566 459 577 683 678 575 691 790
8 681 574 456 564 791 689 573 679
8 680 572 688 792 567 460 578 684
8 681 574 688 792 564 456 572 680
8 682 576 692 794 566 459 577 683
8 569 461 579 685 682 576 692 794
8 568 462 578 684 685 579 694 796
8 687 581 464 571 798 696 580 686
8 798 696 580 686 705 592 474 591
8 689 583 466 573 799 697 581 687
8 688 582 698 800 578 471 588 694
8 690 584 698 800 574 467 582 688
8 690 584 467 574 801 699 583 689
8 693 587 701 803 577 470 585 691
8 693 587 470 577 804 702 586 692
8 695 589 702 804 579 472 586 692
8 695 589 472 579 805 703 588 694
8 708 595 705 813 593 475 591 704
8 710 596 706 814 595 476 592 705
8 707 594 479 602 816 709 600 719
8 708 595 475 593 817 711 594 707
8 709 598 478 600 819 715 599 717
8 711 597 477 594 820 714 598 709
8 710 596 476 595 822 713 597 711
8 600 478 601 720 717 599 718 832
8 602 479 603 722 719 600 720 834
8 720 601 480 603 835 721 604 723
8 722 603 482 605 836 723 606 724
8 767 670 725 839 656 553 608 726
8 756 656 726 841 645 542 609 728
8 726 608 727 842 609 487 610 729
8 728 609 729 843 611 488 612 730
8 844 740 624 731 790 691 575 678
8 733 625 504 616 844 740 624 731
8 734 623 502 617 845 739 622 732
8 733 625 739 845 616 504 622 732
8 734 623 738 846 617 502 621 735
8 735 621 737 847 618 500 620 736
8 744 647 527 630 847 737 620 736
8 621 506 627 738 737 626 741 848
8 647 544 626 737 759 662 741 848
8 623 508 628 739 738 627 742 849
8 740 629 585 691 850 743 700 802
8 625 510 629 740 739 628 743 850
8 632 529 647 744 745 648 759 854
8 633 530 648 745 746 649 760 855
8 638 535 649 746 750 653 761 856
8 857 762 650 747 748 651 532 635
8 753 657 539 642 857 762 650 747
8 749 652 763 858 636 533 651 748
8 752 654 764 859 640 536 652 749
8 751 655 537 639 860 765 653 750
8 641 538 655 751 752 654 766 861
8 754 658 540 643 862 769 657 753
8 754 658 770 863 643 540 659 755
8 755 659 771 864 644 541 660 757
8 758 661 768 866 645 542 656 756
8 757 660 772 867 646 543 661 758
8 759 662 773 868 648 545 663 760
8 649 546 663 760 761 664 774 871
8 765 665 547 653 872 775 664 761
8 873 777 666 762 763 668 550 651
8 769 674 556 657 873 777 666 762
8 764 669 779 874 652 551 668 763
8 654 552 667 766 764 669 778 875
8 655 549 665 765 766 667 776 876
8 768 671 782 877 656 553 670 767
8 772 672 783 878 661 554 671 768
8 658 558 674 769 770 675 786 879
8 659 557 675 770 771 673 785 881
8 882 784 672 772 771 673 555 660
8 789 687 571 677 897 798 686 788
8 897 798 686 788 813 705 591 704
8 791 689 573 679 898 799 687 789
8 795 693 803 900 683 577 691 790
8 793 690 574 681 901 801 689 791
8 792 688 800 902 684 578 694 796
8 793 690 800 902 681 574 688 792
8 795 693 577 683 903 804 692 794
8 797 695 804 903 685 579 692 794
8 797 695 579 685 904 805 694 796
8 905 806 697 799 798 696 581 687
8 814 706 806 905 705 592 696 798
8 689 583 697 799 801 699 808 907
8 800 698 809 908 694 588 703 805
8 690 584 699 801 800 698 809 908
8 803 701 810 909 691 585 700 802
8 693 587 702 804 803 701 811 910
8 695 589 703 805 804 702 812 911
8 818 710 814 919 708 595 705 813
8 821 712 815 920 710 596 706 814
8 816 709 600 719 922 819 717 831
8 817 711 594 707 923 820 709 816
8 818 710 595 708 924 822 711 817
8 819 715 599 717 926 827 716 829
8 820 714 598 709 927 826 715 819
8 929 825 713 822 820 714 597 711
8 821 712 596 710 930 824 713 822
8 717 599 718 832 829 716 830 942
8 719 600 720 834 831 717 832 944
8 832 718 601 720 945 833 721 835
8 834 720 603 722 946 835 723 836
8 869 780 838 950 767 670 725 839
8 865 767 839 952 756 656 726 841
8 839 725 840 953 726 608 727 842
8 841 726 842 954 728 609 729 843
8 844 740 691 790 955 850 802 899
8 733 625 740 844 845 739 850 955
8 734 623 739 845 846 738 849 956
8 735 621 738 846 847 737 848 957
8 744 647 737 847 854 759 848 957
8 738 627 742 849 848 741 851 958
8 848 741 851 958 759 662 773 868
8 850 743 700 802 959 852 807 906
8 849 742 628 739 959 852 743 850
8 854 759 868 965 745 648 760 855
8 746 649 760 855 856 761 871 966
8 860 765 653 750 967 872 761 856
8 968 873 762 857 858 763 651 748
8 862 769 657 753 968 873 762 857
8 859 764 874 969 749 652 763 858
8 752 654 766 861 859 764 875 970
8 751 655 765 860 861 766 876 971
8 754 658 769 862 863 770 879 972
8 755 659 770 863 864 771 881 974
8 976 882 772 867 864 771 660 757
8 866 768 877 977 756 656 767 865
8 867 772 878 978 758 661 768 866
8 760 663 773 868 871 774 883 980
8 870 781 837 948 982 890 780 869
8 982 890 780 869 877 782 670 767
8 761 664 774 871 872 775 884 984
8 876 776 665 765 985 885 775 872
8 873 777 668 763 986 887 779 874
8 769 674 777 873 879 786 887 986
8 764 669 778 875 874 779 888 987
8 766 667 776 876 875 778 886 988
8 878 783 892 989 768 671 782 877
8 878 783 672 772 990 893 784 882
8 880 787 675 770 991 896 786 879
8 880 787 895 992 770 675 785 881
8 881 785 894 993 771 673 784 882
8 1006 905 799 898 897 798 687 789
8 919 814 905 1006 813 705 798 897
8 791 689 799 898 901 801 907 1007
8 900 803 909 1009 790 691 802 899
8 795 693 804 903 900 803 910 1010
8 902 800 908 1011 796 694 805 904
8 793 690 801 901 902 800 908 1011
8 797 695 805 904 903 804 911 1012
8 799 697 806 905 907 808 912 1013
8 920 815 912 1013 814 706 806 905
8 802 700 810 909 906 807 913 1014
8 801 699 808 907 908 809 914 1015
8 805 703 809 908 911 812 915 1016
8 803 701 811 910 909 810 916 1017
8 911 812 917 1018 804 702 811 910
8 925 821 920 1030 818 710 814 919
8 928 823 921 1031 821 712 815 920
8 922 819 717 831 1033 926 829 941
8 923 820 709 816 1034 927 819 922
8 1035 929 822 924 923 820 711 817
8 925 821 710 818 1036 930 822 924
8 1038 933 825 929 927 826 714 820
8 926 827 716 829 1039 935 828 939
8 927 826 715 819 1040 934 827 926
8 928 823 712 821 1041 931 824 930
8 1042 932 824 930 929 825 713 822
8 829 716 830 942 939 828 940 1058
8 831 717 832 944 941 829 942 1060
8 942 830 718 832 1061 943 833 945
8 944 832 720 834 1062 945 835 946
8 981 889 947 1064 870 781 837 948
8 948 837 949 1067 869 780 838 950
8 975 869 950 1069 865 767 839 952
8 950 838 951 1070 839 725 840 953
8 952 839 953 1071 841 726 842 954
8 955 850 802 899 1072 959 906 1008
8 956 849 739 845 1072 959 850 955
8 846 738 849 956 957 848 958 1073
8 957 848 958 1073 854 759 868 965
8 849 742 852 959 958 851 961 1076
8 960 853 961 1076 906 807 852 959
8 958 851 961 1076 868 773 883 980
8 960 853 807 906 1077 963 913 1014
8 855 760 868 965 966 871 980 1085
8 856 761 871 966 967 872 984 1086
8 971 876 765 860 1087 985 872 967
8 968 873 763 858 1088 986 874 969
8 862 769 873 968 972 879 986 1088
8 859 764 875 970 969 874 987 1089
8 861 766 876 971 970 875 988 1090
8 973 880 770 863 1091 991 879 972
8 973 880 992 1092 863 770 881 974
8 974 881 993 1093 864 771 882 976
8 979 870 948 1066 1094 982 869 975
8 1094 982 869 975 977 877 767 865
8 978 878 772 867 1095 990 882 976
8 978 878 989 1096 866 768 877 977
8 871 774 883 980 984 884 994 1099
8 983 891 999 1100 870 781 889 981
8 1101 1000 890 982 989 892 782 877
8 983 891 781 870 1101 1000 890 982
8 872 775 884 984 985 885 995 1103
8 876 776 885 985 988 886 996 1104
8 986 887 779 874 1105 998 888 987
8 879 786 887 986 991 896 998 1105
8 875 778 886 988 987 888 997 1106
8 990 893 1002 1107 878 783 892 989
8 1108 1003 893 990 993 894 784 882
8 880 787 896 991 992 895 1005 1109
8 993 894 785 881 1110 1004 895 992
8 898 799 905 1006 1007 907 1013 1120
8 1030 920 1013 1120 919 814 905 1006
8 901 801 907 1007 1011 908 1015 1121
8 899 802 909 1009 1008 906 1014 1122
8 900 803 910 1010 1009 909 1017 1123
8 1012 911 1018 1124 903 804 910 1010
8 904 805 908 1011 1012 911 1016 1125
8 1013 912 1020 1127 907 808 914 1015
8 1031 921 1020 1127 920 815 912 1013
8 1019 918 962 1075 1128 1021 913 1014
8 1128 1021 913 1014 1017 916 810 909
8 1015 914 1022 1129 908 809 915 1016
8 1016 915 1023 1130 911 812 917 1018
8 1018 917 1024 1131 910 811 916 1017
8 1037 928 1031 1148 925 821 920 1030
8 928 823 931 1041 1031 921 1032 1149
8 1033 926 829 941 1151 1039 939 1057
8 1034 927 819 922 1152 1040 926 1033
8 1153 1038 929 1035 1034 927 820 923
8 1154 1042 930 1036 1035 929 822 924
8 1037 928 821 925 1155 1041 930 1036
8 1039 935 828 939 1156 1047 938 1055
8 1157 1043 932 1042 1038 933 825 929
8 1038 933 826 927 1158 1045 934 1040
8 1040 934 827 926 1159 1046 935 1039
8 930 824 932 1042 1041 931 1044 1160
8 1051 936 1048 1165 1175 1052 937 1053
8 1156 1047 938 1055 1053 937 1054 1178
8 939 828 940 1058 1055 938 1056 1181
8 941 829 942 1060 1057 939 1058 1183
8 942 830 943 1061 1058 940 1059 1184
8 1060 942 832 944 1185 1061 945 1062
8 1082 964 1063 1188 981 889 947 1064
8 1097 981 1064 1190 979 870 948 1066
8 1064 947 1065 1191 948 837 949 1067
8 1066 948 1067 1193 975 869 950 1069
8 1067 949 1068 1194 950 838 951 1070
8 1069 950 1070 1195 952 839 953 1071
8 956 849 959 1072 1073 958 1076 1197
8 1074 960 1076 1197 1008 906 959 1072
8 1073 958 1076 1197 965 868 980 1085
8 1074 960 906 1008 1198 1077 1014 1122
8 1133 1026 1079 1199 1019 918 962 1075
8 1077 963 913 1014 1200 1080 962 1075
8 960 853 963 1077 1076 961 1078 1201
8 980 883 961 1076 1099 994 1078 1201
8 1210 1083 964 1082 1100 999 889 981
8 966 871 980 1085 1086 984 1099 1215
8 967 872 984 1086 1087 985 1103 1216
8 971 876 985 1087 1090 988 1104 1217
8 1088 986 874 969 1218 1105 987 1089
8 972 879 986 1088 1091 991 1105 1218
8 970 875 988 1090 1089 987 1106 1219
8 973 880 991 1091 1092 992 1109 1220
8 1093 993 881 974 1221 1110 992 1092
8 1222 1108 990 1095 1093 993 882 976
8 1223 1101 982 1094 1096 989 877 977
8 1098 983 870 979 1223 1101 982 1094
8 1095 990 1107 1224 978 878 989 1096
8 1098 983 1100 1225 979 870 981 1097
8 984 884 994 1099 1103 995 1111 1227
8 1102 1001 1115 1228 983 891 999 1100
8 1101 1000 892 989 1229 1116 1002 1107
8 1102 1001 891 983 1229 1116 1000 1101
8 985 885 995 1103 1104 996 1112 1230
8 988 886 996 1104 1106 997 1113 1231
8 1105 998 888 987 1232 1114 997 1106
8 991 896 998 1105 1109 1005 1114 1232
8 1108 1003 1117 1233 990 893 1002 1107
8 1108 1003 894 993 1233 1117 1004 1110
8 992 895 1005 1109 1110 1004 1118 1234
8 1120 1013 1127 1244 1007 907 1015 1121
8 1148 1031 1127 1244 1030 920 1013 1120
8 1121 1015 1129 1245 1011 908 1016 1125
8 1126 1019 1075 1196 1246 1128 1014 1122
8 1246 1128 1014 1122 1123 1017 909 1009
8 1124 1018 1131 1247 1010 910 1017 1123
8 1125 1016 1130 1248 1012 911 1018 1124
8 1127 1020 1137 1254 1015 914 1022 1129
8 1031 921 1032 1149 1127 1020 1137 1254
8 1134 1027 918 1019 1257 1140 1021 1128
8 1257 1140 1021 1128 1131 1024 916 1017
8 1129 1022 1141 1258 1016 915 1023 1130
8 1130 1023 1142 1259 1018 917 1024 1131
8 1261 1144 1025 1132 1133 1026 1079 1199
8 1255 1138 1025 1132 1135 1028 1144 1261
8 1133 1026 918 1019 1262 1145 1027 1134
8 1136 1029 1139 1256 1263 1146 1028 1135
8 1037 928 1041 1155 1148 1031 1149 1275
8 1041 931 1044 1160 1149 1032 1150 1276
8 1151 1039 939 1057 1278 1156 1055 1180
8 1152 1040 926 1033 1279 1159 1039 1151
8 1153 1038 927 1034 1280 1158 1040 1152
8 1281 1157 1042 1154 1153 1038 929 1035
8 1036 930 1042 1154 1155 1041 1160 1282
8 1283 1164 1046 1159 1156 1047 935 1039
8 1165 1048 1164 1283 1053 937 1047 1156
8 1157 1043 933 1038 1284 1161 1045 1158
8 1157 1043 1161 1284 1042 932 1044 1160
8 1040 934 1046 1159 1158 1045 1163 1285
8 1166 1049 1167 1292 1051 936 1048 1165
8 1166 1049 936 1051 1293 1168 1050 1172
8 1051 936 1052 1175 1172 1050 1173 1306
8 1174 1051 1165 1290 1308 1175 1053 1177
8 1053 937 1054 1178 1175 1052 1176 1309
8 1278 1156 1055 1180 1177 1053 1178 1311
8 1055 938 1056 1181 1178 1054 1179 1312
8 1057 939 1058 1183 1180 1055 1181 1314
8 1058 940 1059 1184 1181 1056 1182 1315
8 1060 942 1061 1185 1183 1058 1184 1316
8 1208 1081 1187 1321 1082 964 1063 1188
8 1209 1082 1188 1322 1097 981 1064 1190
8 1188 1063 1189 1323 1064 947 1065 1191
8 1190 1064 1191 1325 1066 948 1067 1193
8 1191 1065 1192 1326 1067 949 1068 1194
8 1067 1193 1069 950 1194 1327 1195 1070
8 1250 1133 1199 1330 1126 1019 1075 1196
8 1198 1077 1014 1122 1331 1200 1075 1196
8 1074 960 1077 1198 1197 1076 1201 1332
8 1085 980 1076 1197 1215 1099 1201 1332
8 1199 1079 1203 1333 1075 962 1080 1200
8 1132 1025 1119 1243 1199 1079 1203 1333
8 1201 1078 963 1077 1334 1202 1080 1200
8 1099 994 1078 1201 1227 1111 1202 1334
8 1343 1207 1081 1208 1210 1083 964 1082
8 1214 1084 1186 1319 1343 1207 1081 1208
8 1345 1210 1082 1209 1225 1100 981 1097
8 1346 1211 1083 1210 1228 1115 999 1100
8 1086 984 1099 1215 1216 1103 1227 1352
8 1087 985 1103 1216 1217 1104 1230 1353
8 1090 988 1104 1217 1219 1106 1231 1354
8 1218 1105 987 1089 1355 1232 1106 1219
8 1091 991 1105 1218 1220 1109 1232 1355
8 1092 992 1109 1220 1221 1110 1234 1356
8 1222 1108 1233 1357 1095 990 1107 1224
8 1222 1108 993 1093 1357 1233 1110 1221
8 1223 1101 989 1096 1358 1229 1107 1224
8 1226 1102 983 1098 1358 1229 1101 1223
8 1226 1102 1228 1359 1098 983 1100 1225
8 1103 995 1111 1227 1230 1112 1235 1360
8 1107 1002 1117 1233 1229 1116 1240 1362
8 1102 1001 1116 1229 1228 1115 1240 1362
8 1104 996 1112 1230 1231 1113 1236 1363
8 1364 1237 1114 1232 1231 1113 997 1106
8 1109 1005 1114 1232 1234 1118 1238 1365
8 1110 1004 1118 1234 1233 1117 1241 1366
8 1242 1374 1255 1138 1119 1243 1132 1025
8 1244 1127 1254 1376 1121 1015 1129 1245
8 1148 1031 1149 1275 1244 1127 1254 1376
8 1245 1129 1258 1377 1125 1016 1130 1248
8 1251 1134 1019 1126 1378 1257 1128 1246
8 1378 1257 1128 1246 1247 1131 1017 1123
8 1248 1130 1259 1379 1124 1018 1131 1247
8 1261 1381 1250 1133 1132 1249 1330 1199
8 1255 1380 1252 1135 1132 1249 1381 1261
8 1250 1133 1019 1126 1382 1262 1134 1251
8 1253 1136 1256 1385 1384 1263 1135 1252
8 1254 1137 1265 1387 1129 1022 1141 1258
8 1149 1032 1150 1276 1254 1137 1265 1387
8 1028 1135 1255 1138 1139 1256 1388 1266
8 1136 1029 1147 1264 1256 1139 1267 1389
8 1390 1268 1140 1257 1259 1142 1024 1131
8 1260 1143 1027 1134 1390 1268 1140 1257
8 1258 1141 1269 1391 1130 1023 1142 1259
8 1262 1145 1027 1134 1393 1271 1143 1260
8 1261 1144 1026 1133 1394 1272 1145 1262
8 1135 1028 1144 1261 1263 1146 1272 1394
8 1136 1029 1146 1263 1264 1147 1273 1395
8 1155 1041 1160 1282 1275 1149 1276 1405
8 1276 1150 1044 1160 1406 1277 1162 1286
8 1408 1283 1159 1279 1278 1156 1039 1151
8 1290 1165 1283 1408 1177 1053 1156 1278
8 1152 1040 1159 1279 1280 1158 1285 1409
8 1281 1157 1038 1153 1410 1284 1158 1280
8 1281 1157 1284 1410 1154 1042 1160 1282
8 1159 1046 1164 1283 1285 1163 1289 1412
8 1292 1167 1289 1412 1165 1048 1164 1283
8 1158 1045 1163 1285 1284 1161 1288 1413
8 1284 1161 1288 1413 1160 1044 1162 1286
8 1291 1166 1292 1418 1174 1051 1165 1290
8 1291 1166 1051 1174 1419 1293 1172 1305
8 1294 1169 1296 1421 1166 1049 1167 1292
8 1293 1168 1050 1172 1422 1295 1171 1303
8 1294 1169 1049 1166 1423 1297 1168 1293
8 1422 1295 1171 1303 1301 1170 1302 1435
8 1172 1050 1173 1306 1303 1171 1304 1438
8 1174 1051 1175 1308 1305 1172 1306 1440
8 1175 1052 1176 1309 1306 1173 1307 1441
8 1177 1053 1178 1311 1308 1175 1309 1443
8 1178 1054 1179 1312 1309 1176 1310 1444
8 1180 1055 1181 1314 1311 1178 1312 1446
8 1056 1181 1312 1179 1182 1315 1447 1313
8 1183 1058 1184 1316 1314 1181 1315 1448
8 1319 1186 1084 1214 1451 1317 1213 1350
8 1319 1186 1318 1453 1208 1081 1187 1321
8 1321 1187 1320 1456 1188 1063 1189 1323
8 1344 1208 1321 1457 1209 1082 1188 1322
8 1322 1188 1323 1458 1190 1064 1191 1325
8 1323 1189 1324 1459 1191 1065 1192 1326
8 1191 1325 1193 1067 1326 1460 1327 1194
8 1242 1374 1243 1119 1328 1462 1335 1204
8 1330 1199 1333 1465 1196 1075 1200 1331
8 1132 1249 1330 1199 1243 1375 1465 1333
8 1332 1201 1077 1198 1466 1334 1200 1331
8 1215 1099 1201 1332 1352 1227 1334 1466
8 1119 1243 1333 1203 1204 1335 1470 1338
8 1333 1203 1338 1470 1200 1080 1202 1334
8 1227 1111 1202 1334 1360 1235 1338 1470
8 1328 1462 1335 1204 1205 1336 1471 1339
8 1337 1206 1340 1472 1464 1329 1205 1336
8 1346 1211 1342 1479 1210 1083 1207 1343
8 1346 1211 1115 1228 1479 1342 1239 1361
8 1348 1212 1084 1214 1479 1342 1207 1343
8 1480 1343 1208 1344 1345 1210 1082 1209
8 1351 1214 1319 1454 1480 1343 1208 1344
8 1481 1346 1210 1345 1359 1228 1100 1225
8 1348 1212 1347 1483 1214 1084 1213 1350
8 1216 1103 1227 1352 1353 1230 1360 1488
8 1217 1104 1230 1353 1354 1231 1363 1489
8 1490 1364 1232 1355 1354 1231 1106 1219
8 1220 1109 1232 1355 1356 1234 1365 1491
8 1221 1110 1234 1356 1357 1233 1366 1492
8 1224 1107 1233 1357 1358 1229 1362 1493
8 1226 1102 1229 1358 1359 1228 1362 1493
8 1230 1112 1235 1360 1363 1236 1367 1496
8 1361 1239 1115 1228 1497 1371 1240 1362
8 1366 1241 1372 1498 1233 1117 1240 1362
8 1364 1237 1113 1231 1499 1368 1236 1363
8 1364 1237 1368 1499 1232 1114 1238 1365
8 1234 1118 1238 1365 1366 1241 1369 1500
8 1507 1373 1242 1374 1388 1266 1138 1255
8 1508 1374 1243 1375 1380 1255 1132 1249
8 1376 1254 1387 1509 1245 1129 1258 1377
8 1275 1149 1276 1405 1376 1254 1387 1509
8 1377 1258 1391 1510 1248 1130 1259 1379
8 1511 1390 1257 1378 1379 1259 1131 1247
8 1383 1260 1134 1251 1511 1390 1257 1378
8 1252 1135 1256 1385 1380 1255 1388 1512
8 1261 1381 1513 1394 1133 1250 1382 1262
8 1135 1252 1384 1263 1261 1381 1513 1394
8 1382 1262 1134 1251 1514 1393 1260 1383
8 1253 1136 1263 1384 1386 1264 1395 1516
8 1253 1136 1264 1386 1385 1256 1389 1517
8 1387 1265 1397 1519 1258 1141 1269 1391
8 1276 1150 1277 1406 1387 1265 1397 1519
8 1256 1139 1267 1389 1388 1266 1398 1520
8 1264 1147 1274 1396 1389 1267 1399 1521
8 1392 1270 1143 1260 1522 1400 1268 1390
8 1390 1268 1142 1259 1522 1400 1269 1391
8 1392 1270 1401 1523 1260 1143 1271 1393
8 1272 1394 1524 1402 1145 1262 1393 1271
8 1395 1273 1146 1263 1524 1402 1272 1394
8 1273 1395 1264 1147 1403 1526 1396 1274
8 1405 1276 1160 1282 1534 1406 1286 1411
8 1414 1287 1407 1535 1286 1162 1277 1406
8 1279 1159 1283 1408 1409 1285 1412 1537
8 1418 1292 1412 1537 1290 1165 1283 1408
8 1280 1158 1285 1409 1410 1284 1413 1538
8 1410 1284 1413 1538 1282 1160 1286 1411
8 1285 1163 1289 1412 1413 1288 1417 1540
8 1421 1296 1417 1540 1292 1167 1289 1412
8 1414 1287 1162 1286 1541 1416 1288 1413
8 1420 1294 1421 1545 1291 1166 1292 1418
8 1419 1293 1172 1305 1546 1422 1303 1437
8 1420 1294 1166 1291 1547 1423 1293 1419
8 1294 1169 1297 1423 1421 1296 1425 1548
8 1423 1297 1168 1293 1549 1424 1295 1422
8 1301 1170 1298 1427 1422 1295 1424 1549
8 1432 1300 1428 1554 1301 1170 1298 1427
8 1431 1299 1428 1554 1560 1430 1300 1432
8 1563 1433 1300 1432 1435 1302 1170 1301
8 1546 1422 1303 1437 1434 1301 1435 1565
8 1303 1171 1304 1438 1435 1302 1436 1566
8 1305 1172 1306 1440 1437 1303 1438 1568
8 1306 1173 1307 1441 1438 1304 1439 1569
8 1308 1175 1309 1443 1440 1306 1441 1571
8 1309 1176 1310 1444 1441 1307 1442 1572
8 1311 1178 1312 1446 1443 1309 1444 1574
8 1179 1312 1444 1310 1313 1447 1575 1445
8 1314 1181 1315 1448 1446 1312 1447 1576
8 1350 1213 1349 1486 1451 1317 1449 1579
8 1451 1317 1450 1581 1319 1186 1318 1453
8 1454 1319 1214 1351 1582 1451 1350 1487
8 1453 1318 1452 1584 1321 1187 1320 1456
8 1454 1319 1453 1585 1344 1208 1321 1457
8 1456 1320 1455 1586 1323 1189 1324 1459
8 1457 1321 1456 1587 1322 1188 1323 1458
8 1458 1323 1459 1588 1325 1191 1326 1460
8 1205 1336 1464 1329 1328 1462 1590 1461
8 1507 1373 1461 1590 1374 1242 1328 1462
8 1508 1374 1462 1591 1375 1243 1335 1467
8 1337 1206 1329 1464 1473 1341 1463 1594
8 1375 1243 1335 1467 1465 1333 1470 1596
8 1465 1333 1470 1596 1331 1200 1334 1466
8 1352 1227 1334 1466 1488 1360 1470 1596
8 1591 1462 1336 1468 1467 1335 1471 1597
8 1469 1337 1472 1598 1595 1464 1336 1468
8 1471 1339 1474 1600 1335 1204 1338 1470
8 1600 1474 1367 1496 1470 1338 1235 1360
8 1336 1205 1340 1472 1471 1339 1475 1601
8 1337 1206 1341 1473 1472 1340 1476 1602
8 1495 1370 1478 1609 1361 1239 1342 1479
8 1348 1212 1342 1479 1483 1347 1478 1609
8 1481 1346 1479 1610 1345 1210 1343 1480
8 1481 1346 1228 1359 1610 1479 1361 1494
8 1484 1348 1214 1351 1610 1479 1343 1480
8 1483 1347 1482 1612 1350 1213 1349 1486
8 1484 1348 1483 1613 1351 1214 1350 1487
8 1353 1230 1360 1488 1489 1363 1496 1616
8 1490 1364 1231 1354 1617 1499 1363 1489
8 1490 1364 1499 1617 1355 1232 1365 1491
8 1356 1234 1365 1491 1492 1366 1500 1619
8 1492 1366 1498 1620 1357 1233 1362 1493
8 1494 1361 1228 1359 1621 1497 1362 1493
8 1495 1370 1239 1361 1622 1504 1371 1497
8 1363 1236 1367 1496 1499 1368 1501 1623
8 1497 1371 1240 1362 1624 1505 1372 1498
8 1625 1503 1372 1498 1500 1369 1241 1366
8 1365 1238 1368 1499 1500 1369 1502 1626
8 1520 1398 1506 1633 1388 1266 1373 1507
8 1634 1507 1374 1508 1512 1388 1255 1380
8 1509 1387 1519 1635 1377 1258 1391 1510
8 1405 1276 1406 1534 1509 1387 1519 1635
8 1515 1392 1260 1383 1636 1522 1390 1511
8 1511 1390 1259 1379 1636 1522 1391 1510
8 1385 1256 1389 1517 1512 1388 1520 1637
8 1513 1394 1262 1382 1638 1524 1393 1514
8 1395 1516 1638 1524 1263 1384 1513 1394
8 1515 1392 1523 1639 1383 1260 1393 1514
8 1516 1395 1526 1640 1386 1264 1396 1518
8 1386 1264 1396 1518 1517 1389 1521 1641
8 1519 1397 1527 1643 1391 1269 1400 1522
8 1535 1407 1527 1643 1406 1277 1397 1519
8 1389 1267 1399 1521 1520 1398 1528 1644
8 1645 1529 1399 1521 1525 1404 1274 1396
8 1392 1270 1400 1522 1523 1401 1531 1646
8 1524 1402 1271 1393 1648 1532 1401 1523
8 1403 1526 1648 1532 1273 1395 1524 1402
8 1525 1404 1274 1396 1649 1533 1403 1526
8 1539 1414 1535 1657 1411 1286 1406 1534
8 1542 1415 1536 1658 1414 1287 1407 1535
8 1409 1285 1412 1537 1538 1413 1540 1660
8 1545 1421 1540 1660 1418 1292 1412 1537
8 1539 1414 1286 1411 1661 1541 1413 1538
8 1540 1417 1544 1663 1413 1288 1416 1541
8 1421 1296 1425 1548 1540 1417 1544 1663
8 1542 1415 1287 1414 1664 1543 1416 1541
8 1420 1294 1423 1547 1545 1421 1548 1666
8 1547 1423 1293 1419 1667 1549 1422 1546
8 1434 1301 1427 1553 1546 1422 1549 1667
8 1423 1297 1424 1549 1548 1425 1550 1668
8 1551 1426 1550 1668 1427 1298 1424 1549
8 1551 1426 1298 1427 1671 1552 1428 1554
8 1562 1432 1554 1674 1434 1301 1427 1553
8 1431 1299 1429 1558 1554 1428 1555 1675
8 1431 1299 1430 1560 1558 1429 1557 1680
8 1560 1430 1300 1432 1683 1559 1433 1563
8 1561 1431 1554 1674 1684 1560 1432 1562
8 1685 1563 1432 1562 1565 1435 1301 1434
8 1435 1302 1436 1566 1563 1433 1564 1686
8 1437 1303 1438 1568 1565 1435 1566 1688
8 1438 1304 1439 1569 1566 1436 1567 1689
8 1440 1306 1441 1571 1568 1438 1569 1691
8 1441 1307 1442 1572 1569 1439 1570 1692
8 1443 1309 1444 1574 1571 1441 1572 1694
8 1310 1444 1572 1442 1445 1575 1695 1573
8 1446 1312 1447 1576 1574 1444 1575 1696
8 1486 1349 1485 1614 1579 1449 1577 1699
8 1451 1317 1449 1579 1581 1450 1578 1701
8 1487 1350 1486 1615 1582 1451 1579 1702
8 1581 1450 1580 1704 1453 1318 1452 1584
8 1582 1451 1581 1705 1454 1319 1453 1585
8 1584 1452 1583 1706 1456 1320 1455 1586
8 1585 1453 1584 1707 1457 1321 1456 1587
8 1587 1456 1586 1708 1458 1323 1459 1588
8 1633 1506 1589 1710 1507 1373 1461 1590
8 1464 1329 1461 1590 1594 1463 1589 1710
8 1468 1336 1462 1591 1595 1464 1590 1711
8 1634 1507 1590 1711 1508 1374 1462 1591
8 1473 1341 1463 1594 1603 1477 1593 1716
8 1469 1337 1464 1595 1599 1473 1594 1717
8 1471 1597 1467 1335 1600 1718 1596 1470
8 1718 1600 1496 1616 1596 1470 1360 1488
8 1336 1468 1597 1471 1472 1598 1719 1601
8 1469 1337 1473 1599 1598 1472 1602 1720
8 1722 1604 1501 1623 1600 1474 1367 1496
8 1475 1601 1471 1339 1604 1722 1600 1474
8 1602 1476 1605 1723 1472 1340 1475 1601
8 1476 1602 1724 1606 1341 1473 1603 1477
8 1483 1347 1478 1609 1612 1482 1608 1731
8 1495 1370 1504 1622 1609 1478 1608 1731
8 1618 1495 1609 1732 1494 1361 1479 1610
8 1484 1348 1479 1610 1613 1483 1609 1732
8 1486 1349 1482 1612 1614 1485 1611 1733
8 1613 1483 1612 1734 1487 1350 1486 1615
8 1489 1363 1496 1616 1617 1499 1623 1736
8 1491 1365 1499 1617 1619 1500 1626 1737
8 1618 1495 1361 1494 1738 1622 1497 1621
8 1739 1625 1498 1620 1619 1500 1366 1492
8 1621 1497 1362 1493 1740 1624 1498 1620
8 1742 1631 1504 1622 1624 1505 1371 1497
8 1743 1628 1502 1626 1623 1501 1368 1499
8 1744 1630 1505 1624 1625 1503 1372 1498
8 1745 1629 1503 1625 1626 1502 1369 1500
8 1520 1398 1528 1644 1633 1506 1632 1751
8 1637 1520 1633 1752 1512 1388 1507 1634
8 1635 1519 1643 1753 1510 1391 1522 1636
8 1657 1535 1643 1753 1534 1406 1519 1635
8 1515 1392 1522 1636 1639 1523 1646 1754
8 1517 1389 1521 1641 1637 1520 1644 1755
8 1524 1638 1756 1648 1393 1514 1639 1523
8 1640 1526 1395 1516 1756 1648 1524 1638
8 1642 1525 1396 1518 1757 1649 1526 1640
8 1758 1645 1521 1641 1642 1525 1396 1518
8 1646 1531 1400 1522 1760 1650 1527 1643
8 1535 1407 1536 1658 1643 1527 1650 1760
8 1521 1399 1529 1645 1644 1528 1651 1761
8 1647 1530 1652 1762 1525 1404 1529 1645
8 1401 1523 1648 1532 1531 1646 1763 1655
8 1525 1404 1533 1649 1647 1530 1654 1765
8 1533 1649 1766 1656 1403 1526 1648 1532
8 1662 1542 1658 1774 1539 1414 1535 1657
8 1542 1415 1543 1664 1658 1536 1659 1775
8 1660 1540 1663 1777 1538 1413 1541 1661
8 1545 1421 1548 1666 1660 1540 1663 1777
8 1662 1542 1414 1539 1778 1664 1541 1661
8 1664 1543 1416 1541 1779 1665 1544 1663
8 1548 1425 1550 1668 1663 1544 1665 1779
8 1547 1423 1549 1667 1666 1548 1668 1781
8 1670 1551 1668 1781 1553 1427 1549 1667
8 1551 1426 1552 1671 1668 1550 1669 1782
8 1670 1551 1427 1553 1784 1671 1554 1674
8 1675 1555 1672 1785 1554 1428 1552 1671
8 1678 1556 1673 1789 1558 1429 1555 1675
8 1561 1431 1558 1681 1674 1554 1675 1790
8 1794 1677 1556 1678 1680 1557 1429 1558
8 1560 1430 1559 1683 1680 1557 1679 1797
8 1561 1431 1560 1684 1681 1558 1680 1798
8 1563 1433 1564 1686 1683 1559 1682 1800
8 1684 1560 1432 1562 1801 1683 1563 1685
8 1565 1435 1566 1688 1685 1563 1686 1802
8 1566 1436 1567 1689 1686 1564 1687 1803
8 1568 1438 1569 1691 1688 1566 1689 1805
8 1569 1439 1570 1692 1689 1567 1690 1806
8 1571 1441 1572 1694 1691 1569 1692 1808
8 1442 1572 1692 1570 1573 1695 1809 1693
8 1574 1444 1575 1696 1694 1572 1695 1810
8 1614 1485 1592 1712 1699 1577 1697 1813
8 1579 1449 1577 1699 1701 1578 1698 1815
8 1615 1486 1614 1735 1702 1579 1699 1816
8 1701 1578 1700 1818 1581 1450 1580 1704
8 1582 1451 1579 1702 1705 1581 1701 1819
8 1704 1580 1703 1820 1584 1452 1583 1706
8 1705 1581 1704 1821 1585 1453 1584 1707
8 1707 1584 1706 1822 1587 1456 1586 1708
8 1710 1589 1506 1633 1824 1709 1632 1751
8 1594 1463 1589 1710 1716 1593 1709 1824
8 1752 1633 1710 1825 1634 1507 1590 1711
8 1595 1464 1590 1711 1717 1594 1710 1825
8 1830 1714 1592 1712 1733 1611 1485 1614
8 1603 1477 1593 1716 1725 1607 1715 1834
8 1599 1473 1594 1717 1721 1603 1716 1835
8 1837 1722 1623 1736 1718 1600 1496 1616
8 1719 1601 1722 1837 1597 1471 1600 1718
8 1602 1720 1598 1472 1723 1838 1719 1601
8 1720 1602 1473 1599 1839 1724 1603 1721
8 1723 1605 1726 1840 1601 1475 1604 1722
8 1840 1726 1628 1743 1722 1604 1501 1623
8 1724 1606 1727 1841 1602 1476 1605 1723
8 1725 1607 1728 1842 1603 1477 1606 1724
8 1612 1482 1608 1731 1733 1611 1730 1849
8 1741 1627 1730 1849 1622 1504 1608 1731
8 1613 1483 1609 1732 1734 1612 1731 1850
8 1618 1495 1622 1738 1732 1609 1731 1850
8 1615 1486 1612 1734 1735 1614 1733 1851
8 1852 1743 1626 1737 1736 1623 1499 1617
8 1853 1745 1625 1739 1737 1626 1500 1619
8 1855 1742 1622 1738 1740 1624 1497 1621
8 1856 1744 1624 1740 1739 1625 1498 1620
8 1741 1627 1504 1622 1857 1746 1631 1742
8 1742 1631 1505 1624 1858 1749 1630 1744
8 1859 1747 1629 1745 1743 1628 1502 1626
8 1860 1748 1630 1744 1745 1629 1503 1625
8 1644 1528 1651 1761 1751 1632 1750 1865
8 1637 1520 1644 1755 1752 1633 1751 1866
8 1754 1646 1522 1636 1867 1760 1643 1753
8 1657 1535 1658 1774 1753 1643 1760 1867
8 1639 1523 1646 1754 1756 1648 1763 1868
8 1641 1521 1645 1758 1755 1644 1761 1869
8 1757 1649 1526 1640 1870 1766 1648 1756
8 1642 1525 1649 1757 1759 1647 1765 1871
8 1759 1647 1762 1872 1642 1525 1645 1758
8 1760 1650 1767 1874 1646 1531 1655 1763
8 1658 1536 1659 1775 1760 1650 1767 1874
8 1762 1652 1768 1875 1645 1529 1651 1761
8 1764 1653 1769 1876 1647 1530 1652 1762
8 1656 1766 1877 1773 1532 1648 1763 1655
8 1771 1879 1765 1654 1653 1764 1647 1530
8 1533 1649 1765 1654 1656 1766 1880 1772
8 1662 1542 1664 1778 1774 1658 1775 1887
8 1664 1543 1665 1779 1775 1659 1776 1888
8 1778 1664 1541 1661 1890 1779 1663 1777
8 1666 1548 1668 1781 1777 1663 1779 1890
8 1782 1669 1780 1891 1668 1550 1665 1779
8 1670 1551 1671 1784 1781 1668 1782 1893
8 1671 1552 1672 1785 1782 1669 1783 1894
8 1790 1675 1785 1896 1674 1554 1671 1784
8 1675 1555 1673 1789 1785 1672 1786 1897
8 1792 1676 1788 1903 1678 1556 1673 1789
8 1795 1678 1789 1904 1681 1558 1675 1790
8 1792 1676 1556 1678 1906 1791 1677 1794
8 1680 1557 1679 1797 1794 1677 1793 1909
8 1910 1794 1678 1795 1798 1680 1558 1681
8 1683 1559 1682 1800 1797 1679 1796 1912
8 1684 1560 1683 1801 1798 1680 1797 1913
8 1686 1564 1687 1803 1800 1682 1799 1915
8 1685 1563 1686 1802 1801 1683 1800 1916
8 1688 1566 1689 1805 1802 1686 1803 1917
8 1689 1567 1690 1806 1803 1687 1804 1918
8 1691 1569 1692 1808 1805 1689 1806 1920
8 1692 1570 1693 1809 1806 1690 1807 1921
8 1694 1572 1695 1810 1808 1692 1809 1922
8 1829 1713 1811 1926 1712 1592 1697 1813
8 1813 1697 1812 1928 1699 1577 1698 1815
8 1735 1614 1712 1828 1816 1699 1813 1929
8 1815 1698 1814 1931 1701 1578 1700 1818
8 1702 1579 1699 1816 1819 1701 1815 1932
8 1818 1700 1817 1933 1704 1580 1703 1820
8 1819 1701 1818 1934 1705 1581 1704 1821
8 1821 1704 1820 1935 1707 1584 1706 1822
8 1824 1709 1632 1751 1937 1823 1750 1865
8 1716 1593 1709 1824 1834 1715 1823 1937
8 1825 1710 1633 1752 1938 1824 1751 1866
8 1717 1594 1710 1825 1835 1716 1824 1938
8 1945 1830 1712 1828 1851 1733 1614 1735
8 1830 1714 1831 1946 1712 1592 1713 1829
8 1947 1832 1714 1830 1849 1730 1611 1733
8 1843 1729 1607 1725 1950 1833 1715 1834
8 1721 1603 1716 1835 1836 1725 1834 1951
8 1836 1725 1842 1953 1721 1603 1724 1839
8 1723 1838 1719 1601 1840 1954 1837 1722
8 1954 1840 1743 1852 1837 1722 1623 1736
8 1724 1839 1720 1602 1841 1955 1838 1723
8 1841 1727 1844 1956 1723 1605 1726 1840
8 1956 1844 1747 1859 1840 1726 1628 1743
8 1728 1842 1724 1606 1845 1957 1841 1727
8 1725 1607 1729 1843 1842 1728 1846 1958
8 1741 1627 1746 1857 1849 1730 1848 1965
8 1734 1612 1731 1850 1851 1733 1849 1966
8 1854 1741 1849 1966 1738 1622 1731 1850
8 1967 1859 1745 1853 1852 1743 1626 1737
8 1968 1860 1744 1856 1853 1745 1625 1739
8 1854 1741 1622 1738 1969 1857 1742 1855
8 1855 1742 1624 1740 1970 1858 1744 1856
8 1857 1746 1631 1742 1971 1861 1749 1858
8 1858 1749 1630 1744 1972 1863 1748 1860
8 1859 1747 1862 1973 1745 1629 1748 1860
8 1875 1768 1864 1977 1761 1651 1750 1865
8 1755 1644 1761 1869 1866 1751 1865 1978
8 1867 1760 1874 1979 1754 1646 1763 1868
8 1774 1658 1775 1887 1867 1760 1874 1979
8 1870 1766 1648 1756 1980 1877 1763 1868
8 1872 1762 1875 1981 1758 1645 1761 1869
8 1757 1649 1766 1870 1871 1765 1880 1982
8 1983 1879 1764 1873 1871 1765 1647 1759
8 1873 1764 1876 1984 1759 1647 1762 1872
8 1877 1773 1655 1763 1986 1881 1767 1874
8 1775 1659 1776 1888 1874 1767 1881 1986
8 1876 1769 1882 1987 1762 1652 1768 1875
8 1878 1770 1883 1988 1764 1653 1769 1876
8 1880 1772 1656 1766 1989 1886 1773 1877
8 1878 1770 1653 1764 1990 1884 1771 1879
8 1765 1654 1772 1880 1879 1771 1885 1991
8 1778 1664 1779 1890 1887 1775 1888 1997
8 1998 1889 1776 1888 1891 1780 1665 1779
8 1893 1782 1891 2000 1781 1668 1779 1890
8 1894 1783 1892 2001 1782 1669 1780 1891
8 1784 1671 1785 1896 1893 1782 1894 2003
8 1897 1786 1895 2004 1785 1672 1783 1894
8 1790 1675 1789 1904 1896 1785 1897 2006
8 1901 1787 1898 2007 1789 1673 1786 1897
8 1903 1788 1900 2013 1789 1673 1787 1901
8 1792 1676 1791 1906 1903 1788 1902 2016
8 1907 1792 1903 2017 1795 1678 1789 1904
8 1906 1791 1677 1794 2019 1905 1793 1909
8 1907 1792 1678 1795 2020 1906 1794 1910
8 1797 1679 1796 1912 1909 1793 1908 2022
8 1798 1680 1797 1913 1910 1794 1909 2023
8 1800 1682 1799 1915 1912 1796 1911 2025
8 1801 1683 1800 1916 1913 1797 1912 2026
8 1803 1687 1804 1918 1915 1799 1914 2028
8 1802 1686 1803 1917 1916 1800 1915 2029
8 1805 1689 1806 1920 1917 1803 1918 2030
8 1806 1690 1807 1921 1918 1804 1919 2031
8 1808 1692 1809 1922 1920 1806 1921 2032
8 1939 1826 1924 2037 1829 1713 1811 1926
8 1926 1811 1925 2039 1813 1697 1812 1928
8 1944 1829 1926 2040 1828 1712 1813 1929
8 1928 1812 1927 2042 1815 1698 1814 1931
8 1929 1813 1928 2043 1816 1699 1815 1932
8 1931 1814 1930 2044 1818 1700 1817 1933
8 1932 1815 1931 2045 1819 1701 1818 1934
8 1934 1818 1933 2046 1821 1704 1820 1935
8 2048 1936 1823 1937 1977 1864 1750 1865
8 1950 1833 1715 1834 2048 1936 1823 1937
8 1938 1824 1751 1866 2049 1937 1865 1978
8 1835 1716 1824 1938 1951 1834 1937 2049
8 1939 1826 1713 1829 2053 1942 1831 1946
8 1940 1827 1923 2035 2053 1942 1826 1939
8 1945 1830 1946 2058 1828 1712 1829 1944
8 2059 1947 1830 1945 1966 1849 1733 1851
8 1947 1832 1730 1849 2060 1948 1848 1965
8 1947 1832 1948 2060 1830 1714 1831 1946
8 1959 1847 1729 1843 2063 1949 1833 1950
8 1952 1843 1725 1836 2064 1950 1834 1951
8 1836 1725 1843 1952 1953 1842 1958 2066
8 1953 1842 1957 2067 1839 1724 1841 1955
8 1841 1955 1838 1723 1956 2068 1954 1840
8 2068 1956 1859 1967 1954 1840 1743 1852
8 1956 1844 1960 2069 1859 1747 1862 1973
8 1845 1957 1841 1727 1960 2069 1956 1844
8 1728 1842 1957 1845 1846 1958 2071 1961
8 1962 2072 1959 1847 1846 1958 1843 1729
8 1971 1861 1964 2077 1857 1746 1848 1965
8 1854 1741 1857 1969 1966 1849 1965 2078
8 1967 1859 1973 2079 1853 1745 1860 1968
8 1970 1858 1744 1856 2080 1972 1860 1968
8 1969 1857 1742 1855 2081 1971 1858 1970
8 1971 1861 1749 1858 2082 1974 1863 1972
8 1973 1862 1975 2083 1860 1748 1863 1972
8 1987 1882 1976 2086 1875 1768 1864 1977
8 1981 1875 1977 2087 1869 1761 1865 1978
8 1980 1877 1763 1868 2088 1986 1874 1979
8 1887 1775 1888 1997 1979 1874 1986 2088
8 1880 1982 2089 1989 1766 1870 1980 1877
8 1984 1876 1987 2090 1872 1762 1875 1981
8 1765 1871 1983 1879 1880 1982 2091 1991
8 1985 1878 1764 1873 2092 1990 1879 1983
8 1985 1878 1988 2093 1873 1764 1876 1984
8 2094 1992 1881 1986 1998 1889 1776 1888
8 1986 1881 1992 2094 1877 1773 1886 1989
8 1988 1883 1993 2095 1876 1769 1882 1987
8 1878 1770 1884 1990 1988 1883 1994 2096
8 1991 1885 1772 1880 2097 1996 1886 1989
8 1879 1771 1885 1991 1990 1884 1995 2098
8 2103 1998 1888 1997 2000 1891 1779 1890
8 2104 1999 1889 1998 2001 1892 1780 1891
8 2003 1894 2001 2106 1893 1782 1891 2000
8 2004 1895 2002 2107 1894 1783 1892 2001
8 2006 1897 2004 2109 1896 1785 1894 2003
8 2007 1898 2005 2110 1897 1786 1895 2004
8 2014 1901 2007 2112 1904 1789 1897 2006
8 2011 1899 2008 2113 1901 1787 1898 2007
8 2119 2010 1899 2011 2013 1900 1787 1901
8 2016 1902 2012 2122 1903 1788 1900 2013
8 2017 1903 2013 2123 1904 1789 1901 2014
8 1906 1791 1905 2019 2016 1902 2015 2125
8 1907 1792 1906 2020 2017 1903 2016 2126
8 1909 1793 1908 2022 2019 1905 2018 2128
8 2020 1906 1794 1910 2129 2019 1909 2023
8 1912 1796 1911 2025 2022 1908 2021 2131
8 1913 1797 1912 2026 2023 1909 2022 2132
8 1915 1799 1914 2028 2025 1911 2024 2134
8 1916 1800 1915 2029 2026 1912 2025 2135
8 1918 1804 1919 2031 2028 1914 2027 2136
8 1917 1803 1918 2030 2029 1915 2028 2137
8 1920 1806 1921 2032 2030 1918 2031 2138
8 1940 1827 1941 2054 2035 1923 2033 2140
8 2035 1923 2034 2143 1939 1826 1924 2037
8 2037 1924 2036 2146 1926 1811 1925 2039
8 2051 1939 2037 2147 1944 1829 1926 2040
8 2039 1925 2038 2149 1928 1812 1927 2042
8 2040 1926 2039 2150 1929 1813 1928 2043
8 2042 1927 2041 2151 1931 1814 1930 2044
8 2043 1928 2042 2152 1932 1815 1931 2045
8 2045 1931 2044 2153 1934 1818 1933 2046
8 2155 2047 1936 2048 2086 1976 1864 1977
8 2063 1949 1833 1950 2155 2047 1936 2048
8 2156 2048 1937 2049 2087 1977 1865 1978
8 2064 1950 1834 1951 2156 2048 1937 2049
8 2051 1939 1829 1944 2160 2053 1946 2058
8 2052 1940 2035 2144 2160 2053 1939 2051
8 2053 1942 1831 1946 2163 2057 1948 2060
8 2055 1943 1827 1940 2163 2057 1942 2053
8 2055 1943 2056 2164 1940 1827 1941 2054
8 2059 1947 1849 1966 2167 2060 1965 2078
8 2059 1947 2060 2167 1945 1830 1946 2058
8 2077 1964 2061 2168 1965 1848 1948 2060
8 2070 1963 1847 1959 2170 2062 1949 2063
8 2065 1959 1843 1952 2171 2063 1950 2064
8 2173 2072 1958 2066 2065 1959 1843 1952
8 1953 1842 1958 2066 2067 1957 2071 2174
8 2068 1956 2069 2175 1967 1859 1973 2079
8 2067 1957 2069 2175 1955 1841 1956 2068
8 1845 1957 2069 1960 1961 2071 2176 2073
8 2069 1960 2073 2176 1973 1862 1975 2083
8 2070 1963 2075 2177 1959 1847 1962 2072
8 1846 1958 2071 1961 1962 2072 2178 2074
8 2077 1964 1861 1971 2182 2076 1974 2082
8 2081 1971 2077 2183 1969 1857 1965 2078
8 2079 1973 2083 2184 1968 1860 1972 2080
8 2081 1971 1858 1970 2185 2082 1972 2080
8 2083 1975 2084 2186 1972 1863 1974 2082
8 2086 1976 1882 1987 2189 2085 1993 2095
8 2090 1987 2086 2190 1981 1875 1977 2087
8 2191 2094 1986 2088 2103 1998 1888 1997
8 2088 1986 2094 2191 1980 1877 1989 2089
8 1991 2091 2192 2097 1880 1982 2089 1989
8 2093 1988 2095 2193 1984 1876 1987 2090
8 1879 1983 2092 1990 1991 2091 2194 2098
8 1985 1878 1990 2092 2093 1988 2096 2195
8 2097 1996 1886 1989 2196 2099 1992 2094
8 2196 2099 1992 2094 2104 1999 1889 1998
8 1994 2096 1988 1883 2100 2197 2095 1993
8 2096 1994 1884 1990 2198 2101 1995 2098
8 1995 2098 2199 2102 1885 1991 2097 1996
8 2203 2104 1998 2103 2106 2001 1891 2000
8 2107 2002 2105 2204 2001 1892 1999 2104
8 2109 2004 2107 2206 2003 1894 2001 2106
8 2110 2005 2108 2207 2004 1895 2002 2107
8 2112 2007 2110 2209 2006 1897 2004 2109
8 2113 2008 2111 2210 2007 1898 2005 2110
8 2120 2011 2113 2212 2014 1901 2007 2112
8 2117 2009 2114 2213 2011 1899 2008 2113
8 2219 2116 2009 2117 2119 2010 1899 2011
8 2222 2118 2010 2119 2122 2012 1900 2013
8 2223 2119 2011 2120 2123 2013 1901 2014
8 2016 1902 2015 2125 2122 2012 2121 2225
8 2126 2016 2122 2226 2017 1903 2013 2123
8 2019 1905 2018 2128 2125 2015 2124 2228
8 2020 1906 2019 2129 2126 2016 2125 2229
8 2022 1908 2021 2131 2128 2018 2127 2231
8 2023 1909 2022 2132 2129 2019 2128 2232
8 2025 1911 2024 2134 2131 2021 2130 2234
8 2026 1912 2025 2135 2132 2022 2131 2235
8 1914 2028 2134 2024 2027 2136 2236 2133
8 2029 1915 2028 2137 2135 2025 2134 2237
8 2030 1918 2031 2138 2137 2028 2136 2238
8 2157 2050 2139 2240 2054 1941 2033 2140
8 2052 1940 2054 2161 2144 2035 2140 2242
8 2140 2033 2141 2243 2035 1923 2034 2143
8 2143 2034 2142 2246 2037 1924 2036 2146
8 2144 2035 2143 2247 2051 1939 2037 2147
8 2146 2036 2145 2249 2039 1925 2038 2149
8 2147 2037 2146 2250 2040 1926 2039 2150
8 2149 2038 2148 2251 2042 1927 2041 2151
8 2150 2039 2149 2252 2043 1928 2042 2152
8 2152 2042 2151 2253 2045 1931 2044 2153
8 2255 2154 2047 2155 2189 2085 1976 2086
8 2170 2062 1949 2063 2255 2154 2047 2155
8 2256 2155 2048 2156 2190 2086 1977 2087
8 2171 2063 1950 2064 2256 2155 2048 2156
8 2258 2159 2050 2157 2164 2056 1941 2054
8 2160 2053 1946 2058 2262 2163 2060 2167
8 2162 2055 1940 2052 2262 2163 2053 2160
8 2162 2055 2164 2263 2052 1940 2054 2161
8 2163 2057 1948 2060 2264 2165 2061 2168
8 2055 1943 2057 2163 2164 2056 2165 2264
8 2182 2076 2166 2268 2077 1964 2061 2168
8 2183 2077 2168 2269 2078 1965 2060 2167
8 2070 1963 2062 2170 2177 2075 2169 2271
8 2172 2070 1959 2065 2272 2170 2063 2171
8 2172 2070 2177 2273 2065 1959 2072 2173
8 2066 1958 2072 2173 2174 2071 2178 2274
8 2067 1957 2071 2174 2175 2069 2176 2275
8 2175 2069 2176 2275 2079 1973 2083 2184
8 2071 1961 2074 2178 2176 2073 2179 2276
8 2176 2073 2179 2276 2083 1975 2084 2186
8 2072 1962 2075 2177 2178 2074 2180 2277
8 2182 2076 1974 2082 2280 2181 2084 2186
8 2183 2077 1971 2081 2281 2182 2082 2185
8 2184 2083 2186 2282 2080 1972 2082 2185
8 2189 2085 1993 2095 2285 2188 2100 2197
8 2190 2086 1987 2090 2286 2189 2095 2193
8 2192 2097 1989 2089 2287 2196 2094 2191
8 2287 2196 2094 2191 2203 2104 1998 2103
8 2194 2098 1991 2091 2288 2199 2097 2192
8 2195 2096 2197 2289 2093 1988 2095 2193
8 2096 2195 2290 2198 1990 2092 2194 2098
8 2097 1996 2099 2196 2199 2102 2200 2291
8 2196 2099 1999 2104 2291 2200 2105 2204
8 2100 2197 2292 2201 1994 2096 2198 2101
8 1995 2098 2198 2101 2102 2199 2293 2202
8 2206 2107 2204 2296 2106 2001 2104 2203
8 2207 2108 2205 2297 2107 2002 2105 2204
8 2209 2110 2207 2299 2109 2004 2107 2206
8 2210 2111 2208 2300 2110 2005 2108 2207
8 2212 2113 2210 2302 2112 2007 2110 2209
8 2213 2114 2211 2303 2113 2008 2111 2210
8 2220 2117 2213 2305 2120 2011 2113 2212
8 2216 2115 2214 2306 2117 2009 2114 2213
8 2216 2115 2009 2117 2311 2217 2116 2219
8 2219 2116 2010 2119 2314 2218 2118 2222
8 2315 2219 2117 2220 2223 2119 2011 2120
8 2122 2012 2121 2225 2222 2118 2221 2317
8 2318 2222 2119 2223 2226 2122 2013 2123
8 2125 2015 2124 2228 2225 2121 2224 2320
8 2126 2016 2125 2229 2226 2122 2225 2321
8 2128 2018 2127 2231 2228 2124 2227 2323
8 2129 2019 2128 2232 2229 2125 2228 2324
8 2131 2021 2130 2234 2231 2127 2230 2326
8 2132 2022 2131 2235 2232 2128 2231 2327
8 2134 2024 2133 2236 2234 2130 2233 2328
8 2135 2025 2134 2237 2235 2131 2234 2329
8 2137 2028 2136 2238 2237 2134 2236 2330
8 2157 2050 2158 2259 2240 2139 2239 2332
8 2257 2157 2240 2334 2161 2054 2140 2242
8 2240 2139 2241 2335 2140 2033 2141 2243
8 2242 2140 2243 2337 2144 2035 2143 2247
8 2243 2141 2244 2338 2143 2034 2142 2246
8 2246 2142 2245 2341 2146 2036 2145 2249
8 2247 2143 2246 2342 2147 2037 2146 2250
8 2249 2145 2248 2343 2149 2038 2148 2251
8 2250 2146 2249 2344 2150 2039 2149 2252
8 2252 2149 2251 2345 2152 2042 2151 2253
8 2169 2271 2347 2254 2062 2170 2255 2154
8 2189 2085 2188 2285 2255 2154 2254 2347
8 2348 2255 2155 2256 2286 2189 2086 2190
8 2272 2170 2063 2171 2348 2255 2155 2256
8 2349 2258 2157 2257 2263 2164 2054 2161
8 2258 2159 2261 2351 2157 2050 2158 2259
8 2258 2159 2056 2164 2351 2261 2165 2264
8 2262 2163 2060 2167 2355 2264 2168 2269
8 2162 2055 2163 2262 2263 2164 2264 2355
8 2357 2266 2165 2264 2268 2166 2061 2168
8 2268 2166 2076 2182 2361 2267 2181 2280
8 2281 2182 2268 2362 2183 2077 2168 2269
8 2271 2169 2270 2364 2177 2075 2180 2277
8 2172 2070 2170 2272 2273 2177 2271 2365
8 2072 2173 2274 2178 2177 2273 2366 2277
8 2071 2174 2275 2176 2178 2274 2367 2276
8 2275 2176 2276 2367 2184 2083 2186 2282
8 2283 2187 2084 2186 2368 2278 2179 2276
8 2178 2074 2180 2277 2276 2179 2278 2368
8 2283 2187 2279 2370 2186 2084 2181 2280
8 2281 2182 2082 2185 2371 2280 2186 2282
8 2188 2285 2374 2284 2100 2197 2292 2201
8 2286 2189 2095 2193 2375 2285 2197 2289
8 2192 2097 2196 2287 2288 2199 2291 2376
8 2287 2196 2104 2203 2376 2291 2204 2296
8 2194 2098 2199 2288 2290 2198 2293 2377
8 2289 2197 2096 2195 2378 2292 2198 2290
8 2291 2200 2105 2204 2379 2294 2205 2297
8 2199 2102 2200 2291 2293 2202 2294 2379
8 2198 2101 2202 2293 2292 2201 2295 2380
8 2299 2207 2297 2383 2206 2107 2204 2296
8 2300 2208 2298 2384 2207 2108 2205 2297
8 2302 2210 2300 2386 2209 2110 2207 2299
8 2303 2211 2301 2387 2210 2111 2208 2300
8 2305 2213 2303 2389 2212 2113 2210 2302
8 2306 2214 2304 2390 2213 2114 2211 2303
8 2310 2216 2306 2392 2220 2117 2213 2305
8 2308 2215 2307 2393 2216 2115 2214 2306
8 2308 2215 2115 2216 2396 2309 2217 2311
8 2310 2216 2117 2220 2398 2311 2219 2315
8 2311 2217 2116 2219 2399 2312 2218 2314
8 2314 2218 2118 2222 2402 2313 2221 2317
8 2315 2219 2119 2223 2403 2314 2222 2318
8 2225 2121 2224 2320 2317 2221 2316 2405
8 2226 2122 2225 2321 2318 2222 2317 2406
8 2228 2124 2227 2323 2320 2224 2319 2408
8 2229 2125 2228 2324 2321 2225 2320 2409
8 2231 2127 2230 2326 2323 2227 2322 2411
8 2232 2128 2231 2327 2324 2228 2323 2412
8 2234 2130 2233 2328 2326 2230 2325 2413
8 2235 2131 2234 2329 2327 2231 2326 2414
8 2237 2134 2236 2330 2329 2234 2328 2415
8 2259 2158 2260 2352 2332 2239 2331 2417
8 2257 2157 2259 2350 2334 2240 2332 2419
8 2240 2139 2239 2332 2335 2241 2333 2420
8 2334 2240 2335 2422 2242 2140 2243 2337
8 2335 2241 2336 2423 2243 2141 2244 2338
8 2337 2243 2338 2425 2247 2143 2246 2342
8 2338 2244 2339 2426 2246 2142 2245 2341
8 2341 2245 2340 2428 2249 2145 2248 2343
8 2342 2246 2341 2429 2250 2146 2249 2344
8 2344 2249 2343 2430 2252 2149 2251 2345
8 2188 2285 2347 2254 2284 2374 2432 2346
8 2347 2254 2346 2432 2271 2169 2270 2364
8 2365 2271 2170 2272 2433 2347 2255 2348
8 2286 2189 2285 2375 2348 2255 2347 2433
8 2349 2258 2351 2435 2257 2157 2259 2350
8 2349 2258 2164 2263 2435 2351 2264 2355
8 2259 2158 2261 2351 2352 2260 2354 2437
8 2356 2265 2354 2437 2264 2165 2261 2351
8 2441 2357 2264 2355 2362 2268 2168 2269
8 2356 2265 2165 2264 2442 2358 2266 2357
8 2443 2359 2266 2357 2361 2267 2166 2268
8 2370 2279 2360 2446 2280 2181 2267 2361
8 2362 2268 2182 2281 2447 2361 2280 2371
8 2180 2277 2368 2278 2270 2364 2449 2363
8 2271 2365 2273 2177 2364 2450 2366 2277
8 2372 2283 2186 2282 2451 2368 2276 2367
8 2178 2274 2367 2276 2277 2366 2451 2368
8 2283 2187 2278 2368 2370 2279 2369 2452
8 2372 2283 2370 2453 2282 2186 2280 2371
8 2284 2374 2455 2373 2201 2292 2380 2295
8 2375 2285 2197 2289 2456 2374 2292 2378
8 2376 2291 2204 2296 2457 2379 2297 2383
8 2288 2199 2291 2376 2377 2293 2379 2457
8 2198 2290 2378 2292 2293 2377 2458 2380
8 2293 2202 2294 2379 2380 2295 2381 2459
8 2384 2298 2381 2459 2297 2205 2294 2379
8 2386 2300 2384 2463 2299 2207 2297 2383
8 2387 2301 2385 2464 2300 2208 2298 2384
8 2389 2303 2387 2466 2302 2210 2300 2386
8 2390 2304 2388 2467 2303 2211 2301 2387
8 2392 2306 2390 2469 2305 2213 2303 2389
8 2393 2307 2391 2470 2306 2214 2304 2390
8 2395 2308 2393 2472 2310 2216 2306 2392
8 2308 2215 2309 2396 2393 2307 2394 2473
8 2395 2308 2216 2310 2475 2396 2311 2398
8 2396 2309 2217 2311 2476 2397 2312 2399
8 2398 2311 2219 2315 2478 2399 2314 2403
8 2399 2312 2218 2314 2479 2400 2313 2402
8 2317 2221 2316 2405 2402 2313 2401 2482
8 2403 2314 2222 2318 2483 2402 2317 2406
8 2320 2224 2319 2408 2405 2316 2404 2485
8 2321 2225 2320 2409 2406 2317 2405 2486
8 2323 2227 2322 2411 2408 2319 2407 2488
8 2324 2228 2323 2412 2409 2320 2408 2489
8 2326 2230 2325 2413 2411 2322 2410 2490
8 2327 2231 2326 2414 2412 2323 2411 2491
8 2329 2234 2328 2415 2414 2326 2413 2492
8 2417 2331 2260 2352 2494 2416 2353 2438
8 2350 2259 2352 2436 2419 2332 2417 2496
8 2332 2239 2331 2417 2420 2333 2418 2497
8 2334 2240 2332 2419 2422 2335 2420 2499
8 2420 2333 2421 2500 2335 2241 2336 2423
8 2422 2335 2423 2502 2337 2243 2338 2425
8 2423 2336 2424 2503 2338 2244 2339 2426
8 2425 2338 2426 2505 2342 2246 2341 2429
8 2426 2339 2427 2506 2341 2245 2340 2428
8 2429 2341 2428 2507 2344 2249 2343 2430
8 2432 2346 2284 2374 2509 2431 2373 2455
8 2432 2346 2431 2509 2364 2270 2363 2449
8 2375 2285 2374 2456 2433 2347 2432 2510
8 2347 2433 2365 2271 2432 2510 2450 2364
8 2350 2259 2351 2435 2436 2352 2437 2514
8 2440 2356 2437 2514 2355 2264 2351 2435
8 2352 2260 2354 2437 2438 2353 2439 2516
8 2356 2265 2358 2442 2437 2354 2439 2516
8 2440 2356 2264 2355 2518 2442 2357 2441
8 2519 2443 2357 2441 2447 2361 2268 2362
8 2443 2359 2444 2520 2357 2266 2358 2442
8 2443 2359 2267 2361 2520 2444 2360 2446
8 2446 2360 2279 2370 2523 2445 2369 2452
8 2453 2370 2446 2524 2371 2280 2361 2447
8 2449 2363 2448 2525 2368 2278 2369 2452
8 2366 2277 2364 2450 2451 2368 2449 2526
8 2372 2283 2368 2451 2453 2370 2452 2527
8 2455 2373 2295 2380 2529 2454 2382 2460
8 2456 2374 2292 2378 2530 2455 2380 2458
8 2377 2293 2379 2457 2458 2380 2459 2531
8 2463 2384 2459 2531 2383 2297 2379 2457
8 2533 2461 2382 2460 2459 2381 2295 2380
8 2464 2385 2461 2533 2384 2298 2381 2459
8 2466 2387 2464 2537 2386 2300 2384 2463
8 2467 2388 2465 2538 2387 2301 2385 2464
8 2469 2390 2467 2540 2389 2303 2387 2466
8 2470 2391 2468 2541 2390 2304 2388 2467
8 2472 2393 2470 2543 2392 2306 2390 2469
8 2393 2307 2394 2473 2470 2391 2471 2544
8 2395 2308 2396 2475 2472 2393 2473 2546
8 2396 2309 2397 2476 2473 2394 2474 2547
8 2475 2396 2311 2398 2549 2476 2399 2478
8 2476 2397 2312 2399 2550 2477 2400 2479
8 2478 2399 2314 2403 2552 2479 2402 2483
8 2479 2400 2313 2402 2553 2480 2401 2482
8 2405 2316 2404 2485 2482 2401 2481 2556
8 2406 2317 2405 2486 2483 2402 2482 2557
8 2408 2319 2407 2488 2485 2404 2484 2559
8 2409 2320 2408 2489 2486 2405 2485 2560
8 2411 2322 2410 2490 2488 2407 2487 2561
8 2412 2323 2411 2491 2489 2408 2488 2562
8 2414 2326 2413 2492 2491 2411 2490 2563
8 2513 2434 2493 2565 2438 2353 2416 2494
8 2496 2417 2352 2436 2567 2494 2438 2515
8 2494 2416 2495 2568 2417 2331 2418 2497
8 2419 2332 2417 2496 2499 2420 2497 2570
8 2497 2418 2498 2571 2420 2333 2421 2500
8 2499 2420 2500 2573 2422 2335 2423 2502
8 2500 2421 2501 2574 2423 2336 2424 2503
8 2502 2423 2503 2576 2425 2338 2426 2505
8 2503 2424 2504 2577 2426 2339 2427 2506
8 2505 2426 2506 2578 2429 2341 2428 2507
8 2509 2431 2373 2455 2580 2508 2454 2529
8 2509 2431 2508 2580 2449 2363 2448 2525
8 2432 2510 2581 2509 2374 2456 2530 2455
8 2432 2510 2450 2364 2509 2581 2526 2449
8 2583 2511 2434 2513 2516 2439 2353 2438
8 2436 2352 2437 2514 2515 2438 2516 2588
8 2440 2356 2442 2518 2514 2437 2516 2588
8 2442 2358 2444 2520 2516 2439 2517 2589
8 2519 2443 2520 2591 2441 2357 2442 2518
8 2519 2443 2361 2447 2591 2520 2446 2524
8 2446 2360 2445 2523 2520 2444 2521 2592
8 2525 2448 2522 2593 2452 2369 2445 2523
8 2524 2446 2370 2453 2594 2523 2452 2527
8 2526 2449 2525 2595 2451 2368 2452 2527
8 2534 2462 2528 2597 2460 2382 2454 2529
8 2530 2455 2380 2458 2598 2529 2460 2532
8 2599 2533 2460 2532 2531 2459 2380 2458
8 2537 2464 2533 2599 2463 2384 2459 2531
8 2534 2462 2382 2460 2601 2535 2461 2533
8 2538 2465 2535 2601 2464 2385 2461 2533
8 2540 2467 2538 2604 2466 2387 2464 2537
8 2541 2468 2539 2605 2467 2388 2465 2538
8 2543 2470 2541 2607 2469 2390 2467 2540
8 2470 2391 2471 2544 2541 2468 2542 2608
8 2472 2393 2473 2546 2543 2470 2544 2610
8 2473 2394 2474 2547 2544 2471 2545 2611
8 2475 2396 2476 2549 2546 2473 2547 2613
8 2476 2397 2477 2550 2547 2474 2548 2614
8 2549 2476 2399 2478 2616 2550 2479 2552
8 2479 2400 2480 2553 2550 2477 2551 2617
8 2552 2479 2402 2483 2619 2553 2482 2557
8 2482 2401 2481 2556 2553 2480 2554 2620
8 2485 2404 2484 2559 2556 2481 2555 2623
8 2486 2405 2485 2560 2557 2482 2556 2624
8 2488 2407 2487 2561 2559 2484 2558 2625
8 2489 2408 2488 2562 2560 2485 2559 2626
8 2491 2411 2490 2563 2562 2488 2561 2627
8 2513 2434 2512 2585 2565 2493 2564 2630
8 2586 2513 2565 2632 2515 2438 2494 2567
8 2565 2493 2566 2633 2494 2416 2495 2568
8 2567 2494 2568 2635 2496 2417 2497 2570
8 2568 2495 2569 2636 2497 2418 2498 2571
8 2570 2497 2571 2638 2499 2420 2500 2573
8 2571 2498 2572 2639 2500 2421 2501 2574
8 2573 2500 2574 2641 2502 2423 2503 2576
8 2574 2501 2575 2642 2503 2424 2504 2577
8 2576 2503 2577 2643 2505 2426 2506 2578
8 2597 2528 2579 2645 2529 2454 2508 2580
8 2580 2508 2579 2645 2525 2448 2522 2593
8 2581 2509 2455 2530 2646 2580 2529 2598
8 2581 2509 2580 2646 2526 2449 2525 2595
8 2583 2511 2582 2648 2513 2434 2512 2585
8 2583 2511 2439 2516 2648 2582 2517 2589
8 2649 2583 2513 2586 2588 2516 2438 2515
8 2589 2517 2444 2520 2653 2587 2521 2592
8 2518 2442 2520 2591 2588 2516 2589 2654
8 2593 2522 2590 2655 2523 2445 2521 2592
8 2524 2446 2523 2594 2591 2520 2592 2656
8 2595 2525 2593 2657 2527 2452 2523 2594
8 2602 2536 2596 2659 2534 2462 2528 2597
8 2600 2534 2597 2660 2532 2460 2529 2598
8 2600 2534 2460 2532 2661 2601 2533 2599
8 2604 2538 2601 2661 2537 2464 2533 2599
8 2602 2536 2462 2534 2663 2603 2535 2601
8 2601 2535 2465 2538 2663 2603 2539 2605
8 2607 2541 2605 2665 2540 2467 2538 2604
8 2608 2542 2606 2666 2541 2468 2539 2605
8 2543 2470 2544 2610 2607 2541 2608 2668
8 2544 2471 2545 2611 2608 2542 2609 2669
8 2546 2473 2547 2613 2610 2544 2611 2671
8 2547 2474 2548 2614 2611 2545 2612 2672
8 2549 2476 2550 2616 2613 2547 2614 2674
8 2550 2477 2551 2617 2614 2548 2615 2675
8 2552 2479 2553 2619 2616 2550 2617 2677
8 2553 2480 2554 2620 2617 2551 2618 2678
8 2557 2482 2556 2624 2619 2553 2620 2680
8 2556 2481 2555 2623 2620 2554 2621 2681
8 2559 2484 2558 2625 2623 2555 2622 2683
8 2560 2485 2559 2626 2624 2556 2623 2684
8 2562 2488 2561 2627 2626 2559 2625 2685
8 2690 2629 2564 2630 2650 2584 2512 2585
8 2586 2513 2585 2651 2632 2565 2630 2691
8 2630 2564 2631 2692 2565 2493 2566 2633
8 2632 2565 2633 2694 2567 2494 2568 2635
8 2633 2566 2634 2695 2568 2495 2569 2636
8 2635 2568 2636 2697 2570 2497 2571 2638
8 2636 2569 2637 2698 2571 2498 2572 2639
8 2638 2571 2639 2700 2573 2500 2574 2641
8 2639 2572 2640 2701 2574 2501 2575 2642
8 2641 2574 2642 2702 2576 2503 2577 2643
8 2597 2528 2596 2659 2645 2579 2644 2704
8 2645 2579 2644 2704 2593 2522 2590 2655
8 2660 2597 2645 2705 2598 2529 2580 2646
8 2646 2580 2645 2705 2595 2525 2593 2657
8 2650 2584 2512 2585 2707 2647 2582 2648
8 2648 2582 2517 2589 2707 2647 2587 2653
8 2649 2583 2648 2708 2586 2513 2585 2651
8 2649 2583 2516 2588 2708 2648 2589 2654
8 2655 2590 2652 2710 2592 2521 2587 2653
8 2654 2589 2520 2591 2711 2653 2592 2656
8 2657 2593 2655 2712 2594 2523 2592 2656
8 2602 2536 2603 2663 2659 2596 2658 2714
8 2662 2602 2659 2715 2600 2534 2597 2660
8 2662 2602 2534 2600 2717 2663 2601 2661
8 2661 2601 2538 2604 2717 2663 2605 2665
8 2666 2606 2664 2718 2605 2539 2603 2663
8 2668 2608 2666 2720 2607 2541 2605 2665
8 2608 2542 2609 2669 2666 2606 2667 2721
8 2610 2544 2611 2671 2668 2608 2669 2723
8 2611 2545 2612 2672 2669 2609 2670 2724
8 2613 2547 2614 2674 2671 2611 2672 2726
8 2614 2548 2615 2675 2672 2612 2673 2727
8 2616 2550 2617 2677 2674 2614 2675 2729
8 2617 2551 2618 2678 2675 2615 2676 2730
8 2619 2553 2620 2680 2677 2617 2678 2732
8 2620 2554 2621 2681 2678 2618 2679 2733
8 2624 2556 2623 2684 2680 2620 2681 2735
8 2681 2621 2555 2623 2736 2682 2622 2683
8 2626 2559 2625 2685 2684 2623 2683 2737
8 2688 2628 2584 2650 2740 2686 2647 2707
8 2688 2628 2687 2742 2650 2584 2629 2690
8 2690 2629 2689 2745 2630 2564 2631 2692
8 2746 2690 2630 2691 2709 2650 2585 2651
8 2691 2630 2692 2747 2632 2565 2633 2694
8 2692 2631 2693 2748 2633 2566 2634 2695
8 2694 2633 2695 2750 2635 2568 2636 2697
8 2695 2634 2696 2751 2636 2569 2637 2698
8 2697 2636 2698 2753 2638 2571 2639 2700
8 2698 2637 2699 2754 2639 2572 2640 2701
8 2700 2639 2701 2755 2641 2574 2642 2702
8 2659 2596 2658 2714 2704 2644 2703 2757
8 2704 2644 2703 2757 2655 2590 2652 2710
8 2660 2597 2659 2715 2705 2645 2704 2758
8 2705 2645 2704 2758 2657 2593 2655 2712
8 2759 2706 2647 2707 2710 2652 2587 2653
8 2709 2650 2585 2651 2760 2707 2648 2708
8 2708 2648 2589 2654 2760 2707 2653 2711
8 2712 2655 2710 2761 2656 2592 2653 2711
8 2763 2713 2658 2714 2718 2664 2603 2663
8 2662 2602 2663 2717 2715 2659 2714 2764
8 2720 2666 2718 2767 2665 2605 2663 2717
8 2768 2719 2664 2718 2721 2667 2606 2666
8 2668 2608 2669 2723 2720 2666 2721 2770
8 2669 2609 2670 2724 2721 2667 2722 2771
8 2671 2611 2672 2726 2723 2669 2724 2773
8 2672 2612 2673 2727 2724 2670 2725 2774
8 2674 2614 2675 2729 2726 2672 2727 2776
8 2675 2615 2676 2730 2727 2673 2728 2777
8 2677 2617 2678 2732 2729 2675 2730 2779
8 2678 2618 2679 2733 2730 2676 2731 2780
8 2680 2620 2681 2735 2732 2678 2733 2782
8 2733 2679 2621 2681 2783 2734 2682 2736
8 2735 2681 2623 2684 2784 2736 2683 2737
8 2740 2686 2647 2707 2787 2738 2706 2759
8 2688 2628 2686 2740 2742 2687 2739 2789
8 2743 2688 2650 2709 2790 2740 2707 2760
8 2742 2687 2741 2792 2690 2629 2689 2745
8 2743 2688 2742 2793 2709 2650 2690 2746
8 2745 2689 2744 2795 2692 2631 2693 2748
8 2746 2690 2745 2796 2691 2630 2692 2747
8 2747 2692 2748 2797 2694 2633 2695 2750
8 2748 2693 2749 2798 2695 2634 2696 2751
8 2750 2695 2751 2800 2697 2636 2698 2753
8 2751 2696 2752 2801 2698 2637 2699 2754
8 2753 2698 2754 2802 2700 2639 2701 2755
8 2763 2713 2756 2804 2714 2658 2703 2757
8 2759 2706 2652 2710 2804 2756 2703 2757
8 2715 2659 2714 2764 2758 2704 2757 2805
8 2758 2704 2757 2805 2712 2655 2710 2761
8 2806 2759 2707 2760 2761 2710 2653 2711
8 2765 2716 2762 2808 2718 2664 2713 2763
8 2809 2763 2714 2764 2767 2718 2663 2717
8 2765 2716 2664 2718 2811 2766 2719 2768
8 2813 2768 2718 2767 2770 2721 2666 2720
8 2814 2769 2719 2768 2771 2722 2667 2721
8 2723 2669 2724 2773 2770 2721 2771 2816
8 2724 2670 2725 2774 2771 2722 2772 2817
8 2726 2672 2727 2776 2773 2724 2774 2819
8 2727 2673 2728 2777 2774 2725 2775 2820
8 2729 2675 2730 2779 2776 2727 2777 2822
8 2730 2676 2731 2780 2777 2728 2778 2823
8 2732 2678 2733 2782 2779 2730 2780 2825
8 2780 2731 2679 2733 2826 2781 2734 2783
8 2782 2733 2681 2735 2827 2783 2736 2784
8 2830 2785 2738 2787 2804 2756 2706 2759
8 2789 2739 2686 2740 2832 2786 2738 2787
8 2790 2740 2707 2760 2833 2787 2759 2806
8 2742 2687 2739 2789 2792 2741 2788 2835
8 2743 2688 2740 2790 2793 2742 2789 2836
8 2792 2741 2791 2838 2745 2689 2744 2795
8 2793 2742 2792 2839 2746 2690 2745 2796
8 2795 2744 2794 2841 2748 2693 2749 2798
8 2796 2745 2795 2842 2747 2692 2748 2797
8 2797 2748 2798 2843 2750 2695 2751 2800
8 2798 2749 2799 2844 2751 2696 2752 2801
8 2800 2751 2801 2845 2753 2698 2754 2802
8 2808 2762 2803 2847 2763 2713 2756 2804
8 2809 2763 2804 2848 2764 2714 2757 2805
8 2806 2759 2710 2761 2848 2804 2757 2805
8 2765 2716 2766 2811 2808 2762 2807 2850
8 2810 2765 2808 2851 2767 2718 2763 2809
8 2810 2765 2718 2767 2852 2811 2768 2813
8 2811 2766 2719 2768 2853 2812 2769 2814
8 2855 2814 2768 2813 2816 2771 2721 2770
8 2856 2815 2769 2814 2817 2772 2722 2771
8 2773 2724 2774 2819 2816 2771 2817 2858
8 2774 2725 2775 2820 2817 2772 2818 2859
8 2776 2727 2777 2822 2819 2774 2820 2861
8 2777 2728 2778 2823 2820 2775 2821 2862
8 2779 2730 2780 2825 2822 2777 2823 2864
8 2823 2778 2731 2780 2865 2824 2781 2826
8 2825 2780 2733 2782 2866 2826 2783 2827
8 2869 2828 2785 2830 2847 2803 2756 2804
8 2871 2829 2786 2832 2830 2785 2738 2787
8 2872 2830 2787 2833 2848 2804 2759 2806
8 2789 2739 2786 2832 2835 2788 2831 2874
8 2836 2789 2740 2790 2875 2832 2787 2833
8 2792 2741 2788 2835 2838 2791 2834 2877
8 2793 2742 2789 2836 2839 2792 2835 2878
8 2838 2791 2837 2880 2795 2744 2794 2841
8 2839 2792 2838 2881 2796 2745 2795 2842
8 2841 2794 2840 2882 2798 2749 2799 2844
8 2842 2795 2841 2883 2797 2748 2798 2843
8 2843 2798 2844 2884 2800 2751 2801 2845
8 2886 2846 2803 2847 2850 2807 2762 2808
8 2851 2808 2847 2887 2809 2763 2804 2848
8 2850 2807 2766 2811 2889 2849 2812 2853
8 2810 2765 2811 2852 2851 2808 2850 2890
8 2852 2811 2768 2813 2891 2853 2814 2855
8 2853 2812 2769 2814 2892 2854 2815 2856
8 2894 2856 2814 2855 2858 2817 2771 2816
8 2817 2772 2818 2859 2856 2815 2857 2895
8 2819 2774 2820 2861 2858 2817 2859 2897
8 2820 2775 2821 2862 2859 2818 2860 2898
8 2822 2777 2823 2864 2861 2820 2862 2900
8 2823 2778 2824 2865 2862 2821 2863 2901
8 2864 2823 2780 2825 2902 2865 2826 2866
8 2904 2867 2828 2869 2886 2846 2803 2847
8 2869 2828 2868 2906 2830 2785 2829 2871
8 2907 2869 2830 2872 2887 2847 2804 2848
8 2871 2829 2870 2909 2832 2786 2831 2874
8 2910 2871 2832 2875 2872 2830 2787 2833
8 2835 2788 2831 2874 2877 2834 2873 2912
8 2836 2789 2832 2875 2878 2835 2874 2913
8 2877 2834 2876 2915 2838 2791 2837 2880
8 2839 2792 2835 2878 2881 2838 2877 2916
8 2880 2837 2879 2917 2841 2794 2840 2882
8 2881 2838 2880 2918 2842 2795 2841 2883
8 2883 2841 2882 2919 2843 2798 2844 2884
8 2921 2885 2846 2886 2889 2849 2807 2850
8 2922 2886 2847 2887 2890 2850 2808 2851
8 2889 2849 2812 2853 2924 2888 2854 2892
8 2890 2850 2811 2852 2925 2889 2853 2891
8 2891 2853 2814 2855 2926 2892 2856 2894
8 2892 2854 2815 2856 2927 2893 2857 2895
8 2858 2817 2859 2897 2894 2856 2895 2929
8 2859 2818 2860 2898 2895 2857 2896 2930
8 2861 2820 2862 2900 2897 2859 2898 2932
8 2862 2821 2863 2901 2898 2860 2899 2933
8 2864 2823 2865 2902 2900 2862 2901 2934
8 2904 2867 2846 2886 2936 2903 2885 2921
8 2904 2867 2903 2936 2869 2828 2868 2906
8 2937 2904 2869 2907 2922 2886 2847 2887
8 2906 2868 2905 2939 2871 2829 2870 2909
8 2907 2869 2906 2940 2872 2830 2871 2910
8 2909 2870 2908 2942 2874 2831 2873 2912
8 2910 2871 2909 2943 2875 2832 2874 2913
8 2912 2873 2911 2945 2877 2834 2876 2915
8 2878 2835 2874 2913 2916 2877 2912 2946
8 2915 2876 2914 2947 2880 2837 2879 2917
8 2916 2877 2915 2948 2881 2838 2880 2918
8 2918 2880 2917 2949 2883 2841 2882 2919
8 2921 2885 2849 2889 2951 2920 2888 2924
8 2952 2921 2886 2922 2925 2889 2850 2890
8 2924 2888 2854 2892 2954 2923 2893 2927
8 2925 2889 2853 2891 2955 2924 2892 2926
8 2926 2892 2856 2894 2956 2927 2895 2929
8 2895 2857 2896 2930 2927 2893 2928 2957
8 2897 2859 2898 2932 2929 2895 2930 2959
8 2898 2860 2899 2933 2930 2896 2931 2960
8 2900 2862 2901 2934 2932 2898 2933 2961
8 2936 2903 2885 2921 2963 2935 2920 2951
8 2936 2903 2935 2963 2906 2868 2905 2939
8 2937 2904 2886 2922 2964 2936 2921 2952
8 2937 2904 2936 2964 2907 2869 2906 2940
8 2939 2905 2938 2966 2909 2870 2908 2942
8 2940 2906 2939 2967 2910 2871 2909 2943
8 2942 2908 2941 2969 2912 2873 2911 2945
8 2943 2909 2942 2970 2913 2874 2912 2946
8 2945 2911 2944 2971 2915 2876 2914 2947
8 2946 2912 2945 2972 2916 2877 2915 2948
8 2948 2915 2947 2973 2918 2880 2917 2949
8 2951 2920 2888 2924 2975 2950 2923 2954
8 2952 2921 2889 2925 2976 2951 2924 2955
8 2927 2893 2928 2957 2954 2923 2953 2978
8 2955 2924 2892 2926 2979 2954 2927 2956
8 2929 2895 2930 2959 2956 2927 2957 2980
8 2930 2896 2931 2960 2957 2928 2958 2981
8 2932 2898 2933 2961 2959 2930 2960 2982
8 2951 2920 2950 2975 2963 2935 2962 2984
8 2963 2935 2962 2984 2939 2905 2938 2966
8 2964 2936 2921 2952 2985 2963 2951 2976
8 2964 2936 2963 2985 2940 2906 2939 2967
8 2966 2938 2965 2987 2942 2908 2941 2969
8 2967 2939 2966 2988 2943 2909 2942 2970
8 2969 2941 2968 2989 2945 2911 2944 2971
8 2970 2942 2969 2990 2946 2912 2945 2972
8 2972 2945 2971 2991 2948 2915 2947 2973
8 2954 2923 2953 2978 2975 2950 2974 2993
8 2976 2951 2924 2955 2994 2975 2954 2979
8 2957 2928 2958 2981 2978 2953 2977 2995
8 2956 2927 2957 2980 2979 2954 2978 2996
8 2959 2930 2960 2982 2980 2957 2981 2997
8 2984 2962 2983 2999 2966 2938 2965 2987
8 2975 2950 2974 2993 2984 2962 2983 2999
8 2976 2951 2975 2994 2985 2963 2984 3000
8 2985 2963 2984 3000 2967 2939 2966 2988
8 2987 2965 2986 3001 2969 2941 2968 2989
8 2988 2966 2987 3002 2970 2942 2969 2990
8 2990 2969 2989 3003 2972 2945 2971 2991
8 2978 2953 2977 2995 2993 2974 2992 3004
8 2979 2954 2978 2996 2994 2975 2993 3005
8 2980 2957 2981 2997 2996 2978 2995 3006
8 2974 2993 2999 2983 2992 3004 3007 2998
8 2983 2999 2987 2965 2998 3007 3001 2986
8 3000 2984 2999 3008 2988 2966 2987 3002
8 2994 2975 2993 3005 3000 2984 2999 3008
8 3002 2987 3001 3009 2990 2969 2989 3003
8 2996 2978 2995 3006 3005 2993 3004 3010
8 3005 2993 3004 3010 3008 2999 3007 3011
8 3008 2999 3007 3011 3002 2987 3001 3009

CELL_TYPES 1910
12
12
12
12
12
12
12
12
12
12
12
12
12
12
12
12
12
12
12
12
12
12
12
12
12
12
12
12
12
12
12
12
12
12
12
12
12
12
12
12
12
12
12
12
12
12
12
12
12
12
12
12
12
12
12
12
12
12
12
12
12
12
12
12
12
12
12
12
12
12
12
12
12
12
12
12
12
12
12
12
12
12
12
12
12
12
12
12
12
12
12
12
12
12
12
12
12
12
12
12
12
12
12
12
12
12
12
12
12
12
12
12
12
12
12
12
12
12
12
12
12
12
12
12
12
12
12
12
12
12
12
12
12
12
12
12
12
12
12
12
12
12
12
12
12
12
12
12
12
12
12
12
12
12
12
12
12
12
12
12
12
12
12
12
12
12
12
12
12
12
12
12
12
12
12
12
12
12
12
12
12
12
12
12
12
12
12
12
12
12
12
12
12
12
12
12
12
12
12
12
12
12
12
12
12
12
12
12
12
12
12
12
12
12
12
12
12
12
12
12
12
12
12
12
12
12
12
12
12
12
12
12
12
12
12
12
12
12
12
12
12
12
12
12
12
12
12
12
12
12
12
12
12
12
12
12
12
12
12
12
12
12
12
12
12
12
12
12
12
12
12
12
12
12
12
12
12
12
12
12
12
12
12
12
12
12
12
12
12
12
12
12
12
12
12
12
12
12
12
12
12
12
12
12
12
12
12
12
12
12
12
12
12
12
12
12
12
12
12
12
12
12
12
12
12
12
12
12
12
12
12
12
12
12
12
12
12
12
12
12
12
12
12
12
12
12
12
12
12
12
12
12
12
12
12
12
12
12
12
12
12
12
12
12
12
12
12
12
12
12
12
12
12
12
12
12
12
12
12
12
12
12
12
12
12
12
12
12
12
12
12
12
12
12
12
12
12
12
12
12
12
12
12
12
12
12
12
12
12
12
12
12
12
12
12
12
12
12
12
12
12
12
12
12
12
12
12
12
12
12
12
12
12
12
12
12
12
12
12
12
12
12
12
12
12
12
12
12
12
12
12
12
12
12
12
12
12
12
12
12
12
12
12
12
12
12
12
12
12
12
12
12
12
12
12
12
12
12
12
12
12
12
12
12
12
12
12
12
12
12
12
12
12
12
12
12
12
12
12
12
12
12
12
12
12
12
12
12
12
12
12
12
12
12
12
12
12
12
12
12
12
12
12
12
12
12
12
12
12
12
12
12
12
12
12
12
12
12
12
12
12
12
12
12
12
12
12
12
12
12
12
12
12
12
12
12
12
12
12
12
12
12
12
12
12
12
12
12
12
12
12
12
12
12
12
12
12
12
12
12
12
12
12
12
12
12
12
12
12
12
12
12
12
12
12
12
12
12
12
12
12
12
12
12
12
12
12
12
12
12
12
12
12
12
12
12
12
12
12
12
12
12
12
12
12
12
12
12
12
12
12
12
12
12
12
12
12
12
12
12
12
12
12
12
12
12
12
12
12
12
12
12
12
12
12
12
12
12
12
12
12
12
12
12
12
12
12
12
12
12
12
12
12
12
12
12
12
12
12
12
12
12
12
12
12
12
12
12
12
12
12
12
12
12
12
12
12
12
12
12
12
12
12
12
12
12
12
12
12
12
12
12
12
12
12
12
12
12
12
12
12
12
12
12
12
12
12
12
12
12
12
12
12
12
12
12
12
12
12
12
12
12
12
12
12
12
12
12
12
12
12
12
12
12
12
12
12
12
12
12
12
12
12
12
12
12
12
12
12
12
12
12
12
12
12
12
12
12
12
12
12
12
12
12
12
12
12
12
12
12
12
12
12
12
12
12
12
12
12
12
12
12
12
12
12
12
12
12
12
12
12
12
12
12
12
12
12
12
12
12
12
12
12
12
12
12
12
12
12
12
12
12
12
12
12
12
12
12
12
12
12
12
12
12
12
12
12
12
12
12
12
12
12
12
12
12
12
12
12
12
12
12
12
12
12
12
12
12
12
12
12
12
12
12
12
12
12
12
12
12
12
12
12
12
12
12
12
12
12
12
12
12
12
12
12
12
12
12
12
12
12
12
12
12
12
12
12
12
12
12
12
12
12
12
12
12
12
12
12
12
12
12
12
12
12
12
12
12
12
12
12
12
12
12
12
12
12
12
12
12
12
12
12
12
12
12
12
12
12
12
12
12
12
12
12
12
12
12
12
12
12
12
12
12
12
12
12
12
12
12
12
12
12
12
12
12
12
12
12
12
12
12
12
12
12
12
12
12
12
12
12
12
12
12
12
12
12
12
12
12
12
12
12
12
12
12
12
12
12
12
12
12
12
12
12
12
12
12
12
12
12
12
12
12
12
12
12
12
12
12
12
12
12
12
12
12
12
12
12
12
12
12
12
12
12
12
12
12
12
12
12
12
12
12
12
12
12
12
12
12
12
12
12
12
12
12
12
12
12
12
12
12
12
12
12
12
12
12
12
12
12
12
12
12
12
12
12
12
12
12
12
12
12
12
12
12
12
12
12
12
12
12
12
12
12
12
12
12
12
12
12
12
12
12
12
12
12
12
12
12
12
12
12
12
12
12
12
12
12
12
12
12
12
12
12
12
12
12
12
12
12
12
12
12
12
12
12
12
12
12
12
12
12
12
12
12
12
12
12
12
12
12
12
12
12
12
12
12
12
12
12
12
12
12
12
12
12
12
12
12
12
12
12
12
12
12
12
12
12
12
12
12
12
12
12
12
12
12
12
12
12
12
12
12
12
12
12
12
12
12
12
12
12
12
12
12
12
12
12
12
12
12
12
12
12
12
12
12
12
12
12
12
12
12
12
12
12
12
12
12
12
12
12
12
12
12
12
12
12
12
12
12
12
12
12
12
12
12
12
12
12
12
12
12
12
12
12
12
12
12
12
12
12
12
12
12
12
12
12
12
12
12
12
12
12
12
12
12
12
12
12
12
12
12
12
12
12
12
12
12
12
12
12
12
12
12
12
12
12
12
12
12
12
12
12
12
12
12
12
12
12
12
12
12
12
12
12
12
12
12
12
12
12
12
12
12
12
12
12
12
12
12
12
12
12
12
12
12
12
12
12
12
12
12
12
12
12
12
12
12
12
12
12
12
12
12
12
12
12
12
12
12
12
12
12
12
12
12
12
12
12
12
12
12
12
12
12
12
12
12
12
12
12
12
12
12
12
12
12
12
12
12
12
12
12
12
12
12
12
12
12
12
12
12
12
12
12
12
12
12
12
12
12
12
12
12
12
12
12
12
12
12
12
12
12
12
12
12
12
12
12
12
12
12
12
12
12
12
12
12
12
12
12
12
12
12
12
12
12
12
12
12
12
12
12
12
12
12
12
12
12
12
12
12
12
12
12
12
12
12
12
12
12
12
12
12
12
12
12
12
12
12
12
12
12
12
12
12
12
12
12
12
12
12
12
12
12
12
12
12
12
12
12
12
12
12
12
12
12
12
12
12
12
12
12
12
12
12
12
12
12
12
12
12
12
12
12
12
12
12
12
12
12
12
12
12
12
12
12
12
12
12
12
12
12
12
12
12
12
12
12
12
12
12
12
12
12
12
12
12
12
12
12
12
12
12
12
12
12
12
12
12
12
12
12
12
12
12
12
12
12
12
12
12
12
12
12
12
12
12
12
12
12
12
12
12
12
12
12
12
12
12
12
12
12
12
12
12
12
12
12
12
12
12
12
12
12
12
12
12
12
12
12
12
12
12
12
12
12
12
12
12
12
12
12
12
12
12
12
12
12
12
12
12
12
12
12
12
12
12
12
12
12
12
12
12
12
12
12
12
12
12
12
12
12
12
12
12
12
12
12
12
12
12
12
12
12
12
12
12
12
12
12
12
12
12
12
12
12
12
12
12
12
12
12
12
12
12
12
12
12
12
12
12
12
12
12
12
12
12
12
12
12
12
12
12
12
12
12
12
12
12
12
12
12
12
12
12
12
12
12
12
12
12
12
12
12
12
12
12
12
12
12
12
12
12
12
12
12
12
12
12
12
12
12
12
12
12
12
12
12
12
12
12
12
12
12
12
12
12
12
12
12
12
12
12
12
12
12
12
12
12
12
12
12
12
12
12
12
12
12
12
12
12
12
12
12
12
12
12
12
12
12
12
12
12
12
12
12
12
12
12
12
12
12
12
12
12
12
12
12
12
12
12
12
12
12
12
12
12
12
12
12
12
12
12
12
12
12
12
12
12
12
12
12
12
12
12
12
12
12
12
12
12
12
12
12
12
12
12
12
12
12
12
12
12
12
12
12
12
12
12
12
12
12
12
12
12
12
12
12
12
12
12
12
12
12
12
12
12
12
12
12
12
12
12
12
12
12
12

POINT_DATA 3012
SCALARS Jp_lamdaP float 4
LOOKUP_TABLE default
0.999433 1 1 0.999433
1 1 1 1
0.999451 1 1 0.999451
0.999375 1 1 0.999375
0.999435 1 1 0.999435
0.999402 1 1 0.999402
1.01209 1.01379 1 0.998313
1 1 1 1
1 1 1 1
1 1 1 1
0.999478 1 1 0.999478
1.00816 1.00987 1 0.998304
0.999424 1 1 0.999424
0.999405 1 1 0.999405
0.999458 1 1 0.999458
0.999413 1 1 0.999413
0.999413 1 1 0.999413
0.999463 1 1 0.999463
1.01203 1.01375 1 0.99831
1 1 1 1
0.999365 1 1 0.999365
0.999409 1 1 0.999409
1.0056 1.00739 1 0.998223
1.01074 1.01245 1 0.998307
0.999387 1 1 0.999387
1.01192 1.01365 1 0.998295
1.04042 1.0439 1 0.996661
1 1 1 1
0.999718 1 1 0.999718
0.999729 1 1 0.999729
1 1 1 1
1.0063 1.008 1 0.998314
0.999426 1 1 0.999426
0.999456 1 1 0.999456
1.01226 1.01375 1 0.99853
1 1 1 1
1.0121 1.01353 1 0.998589
1.00223 1.00387 1 0.998368
1.02729 1.03084 1 0.996556
1 1 1 1
1 1 1 1
0.999705 1 1 0.999705
1 1 1 1
0.999427 1 1 0.999427
1.00031 1.00217 1 0.998145
1 1 1 1
1.00444 1.006 1 0.998445
0.999447 1 1 0.999447
0.999483 1 1 0.999483
0.999416 1 1 0.999416
1.01204 1.01375 1 0.998313
0.99969 1 1 0.99969
0.999399 1 1 0.999399
0.999401 1 1 0.999401
0.999444 1 1 0.999444
1.00535 1.00715 1 0.998214
1.01195 1.01368 1 0.998294
1.01054 1.01226 1 0.998303
1.04086 1.04436 1 0.996653
1 1 1 1
0.999384 1 1 0.999384
1.00039 1.00186 1 0.998536
1.00356 1.00536 1 0.998209
1.00838 1.01013 1 0.998268
1.04018 1.04382 1 0.996509
1.04145 1.04502 1 0.996581
0.999417 1 1 0.999417
1.00466 1.00633 1 0.998343
1.03913 1.04258 1 0.996694
1.06067 1.06512 1 0.995824
1 1 1 1
1 1 1 1
1 1 1 1
1.00476 1.00645 1 0.998322
1 1 1 1
1 1 1 1
1.01226 1.01406 1 0.998233
0.999793 1 1 0.999793
1.01101 1.01272 1 0.998312
1.00134 1.00267 1.00009 0.998576
1.02959 1.03316 1 0.996551
1 1 1 1
1.00345 1 1.00406 0.999396
1.00998 1.01186 1 0.998146
1.01267 1.01444 1 0.998257
1.04769 1.05165 1 0.996234
1.00015 1.00037 1.00082 0.998957
1.03771 1.04137 1 0.996486
1.02119 1.02448 1.00007 0.996721
1.04988 1.05431 1 0.995798
1 1 1 1
1 1 1 1
1 1 1 1
1 1 1 1
1 1 1 1
0.999714 1 1 0.999714
1.0009 1.00257 1 0.998328
0.999702 1 1 0.999702
1.00531 1.00703 1 0.998294
1 1 1 1
0.99955 1.00136 1 0.998191
1.00211 1.00366 1 0.998462
1.03743 1.04136 1 0.996221
1.00767 1.00921 1 0.998474
1.04391 1.04789 1 0.996202
0.999449 1 1 0.999449
0.99943 1 1 0.99943
0.999409 1 1 0.999409
0.999475 1 1 0.999475
1.0051 1.0069 1 0.998207
1.01036 1.01208 1 0.998303
1.01179 1.01352 1 0.998298
1.04151 1.04502 1 0.996645
1 1 1 1
0.999415 1 1 0.999415
1.00001 1.00178 1 0.998235
1.0032 1.00501 1 0.998197
0.999714 1 1 0.999714
1.00604 1.0076 1 0.998447
1.00815 1.00991 1 0.998262
1.04028 1.04394 1 0.996495
1.03844 1.0419 1 0.996685
1.0422 1.04576 1 0.996594
1.06032 1.06476 1 0.995834
0.999604 1.00139 1 0.998215
1.00173 1.0035 1 0.998232
1.03372 1.03729 1 0.996551
1.03699 1.04064 1 0.996499
1.04256 1.04619 1 0.996529
1.07502 1.0795 0.999858 0.995993
1 1 1 1
1.06518 1.06958 1 0.995884
1.00002 1.0011 1.00048 0.998446
1.02923 1.03277 1 0.996572
1.05695 1.06145 1 0.995762
1.06415 1.0685 1 0.995927
1.00241 1 1.00346 0.998951
1.00725 1.00019 1.00951 0.997571
1 1 1 1
1 1 1 1
1.01249 1.01428 1 0.998237
1 1 1 1
1.00036 1.00143 1.00047 0.998467
1.01021 1.01192 1 0.998319
1.03109 1.03467 1 0.996546
1 1 1 1
1.00369 1 1.00427 0.999421
1.01083 1.01253 1 0.998323
1.01273 1.01433 1 0.99842
1.04666 1.05062 1 0.996231
1.00048 1.00025 1.00143 0.998798
1.0377 1.04136 1 0.996487
1.01975 1.02299 1.00012 0.996717
1.04989 1.05431 1 0.995807
1.00193 1 1.00283 0.999102
1.00413 1 1.00451 0.999619
1.00889 1.00155 1.00936 0.997982
1.04818 1.05221 1 0.996173
1.04467 1.04849 1 0.996357
1.06941 1.07393 1 0.995789
1.01408 1.01568 1.00135 0.997077
1.05572 1.06007 1 0.995897
1.03758 1.04134 1.00057 0.995824
1.05698 1.06147 1 0.995768
1 1 1 1
1 1 1 1
1 1 1 1
1.00295 1 1.00378 0.999167
1 1 1 1
1 1 1 1
1 1 1 1
1.00597 1.00784 1 0.99815
1.00111 1.00293 1 0.998186
1 1 1 1
1 1 1 1
0.999729 1.00154 1 0.998192
1.00259 1.00428 1 0.998315
1.03735 1.04129 1 0.996222
1.00809 1.00996 1 0.998147
1.04264 1.04662 1 0.996199
0.999291 1.0011 1 0.998197
1.03498 1.03892 1 0.996205
1.04043 1.04437 1 0.996227
1.07622 1.08168 0.99882 0.99613
1.04618 1.0502 1 0.996171
1.0775 1.08289 0.998962 0.996057
1 1 1 1
0.999448 1 1 0.999448
0.999564 1.00167 1 0.997899
1.00286 1.00468 1 0.998187
1 1 1 1
1.0077 1.00916 1 0.998555
1.00793 1.00969 1 0.998258
1.04032 1.044 1 0.996482
1.04308 1.04663 1 0.996607
1.03752 1.04098 1 0.996677
1.05961 1.06403 1 0.995844
0.999464 1.00125 1 0.998213
1.00145 1.00323 1 0.99822
1.03426 1.03799 1 0.996401
1.0376 1.04124 1 0.996496
1 1 1 1
1.00167 1.00286 1.00024 0.998569
1.02881 1.03223 1 0.996683
1.04297 1.04661 1 0.99652
1.0745 1.07939 0.999448 0.996017
1.057 1.0615 1 0.995762
1.06516 1.06953 1 0.995912
1.06369 1.06803 1 0.995936
1.00207 1 1.00313 0.998938
1.00715 1.0009 1.0087 0.997569
1.03334 1.03725 1 0.996225
1.03468 1.03828 1 0.996535
1.07491 1.08012 0.999052 0.996116
1.07398 1.08009 0.998267 0.996071
1.06979 1.07481 0.999318 0.996009
1.07196 1.08067 0.995646 0.996284
1.00063 1 1.00193 0.998696
1.06622 1.07096 0.999449 0.996122
1.01825 1.02143 1.00011 0.99678
1.05233 1.05684 1 0.995729
1.06319 1.06776 1 0.99572
1.06196 1.06669 0.999284 0.996274
1.0055 1.00266 1.00562 0.99723
1.00803 1.0001 1.00998 0.997963
1.00716 1.0044 1.00598 0.996793
1.01134 1.01318 1 0.998183
1 1 1 1
1.00348 1 1.00404 0.999445
1.01243 1.01416 1 0.998294
1.04581 1.04977 1 0.996229
1.00052 1 1.00173 0.998792
1.01979 1.02311 1.00004 0.996713
1.03754 1.0412 1 0.996487
1.05119 1.05561 1 0.995815
1.00227 1 1.00315 0.999126
1.00321 1 1.00357 0.999637
1.00819 1.00057 1.00965 0.997981
1.04721 1.05124 1 0.996168
1.04362 1.04744 1 0.996358
1.06967 1.0742 1 0.995783
1.01098 1.0129 1.00103 0.99708
1.0565 1.06086 1 0.995892
1.04255 1.04644 1.00047 0.995812
1.05826 1.06274 1 0.995787
1.002 1 1.00224 0.999759
1.00877 1.00607 1.0052 0.997496
1.00984 1 1.01141 0.998443
1.01074 1.00654 1.00687 0.997323
1.07437 1.07887 0.999983 0.995843
1.06315 1.06761 1 0.995825
1.06984 1.07475 0.999509 0.995922
1.02502 1.02804 1.0009 0.996168
1.05748 1.06174 1 0.995993
1.0525 1.05548 1.00158 0.995607
1.07043 1.07493 1 0.995816
1.00064 1 1.00129 0.999347
0.9999 1 1 0.9999
1 1 1 1
1 1 1 1
1 1 1 1
1.00358 1 1.0042 0.999379
1 1 1 1
1.00305 1 1.00391 0.999147
1 1 1 1
1.00899 1.01086 1 0.998147
1.00318 1.00502 1 0.998171
1.04185 1.04583 1 0.996198
1.03737 1.0413 1 0.996223
0.999949 1.00176 1 0.998194
1 1 1 1
0.999358 1.00116 1 0.998197
1.03514 1.03909 1 0.996206
1.04008 1.04402 1 0.996226
1.07602 1.08143 0.998864 0.996129
1.04555 1.04957 1 0.996166
1.0781 1.08338 0.999072 0.996054
1.03351 1.03745 1 0.996207
1.07544 1.08075 0.998969 0.996111
1.07705 1.08254 0.998808 0.996116
1.07005 1.08048 0.993822 0.996502
1.0777 1.08263 0.999489 0.995953
1.07249 1.08397 0.99301 0.996375
0.999405 1.00119 1 0.998212
1.00116 1.00296 1 0.998208
1.03483 1.03872 1 0.996253
1.03823 1.04188 1 0.996493
1 1 1 1
1.00307 1.00434 1.00004 0.998696
1.02842 1.03173 1 0.996793
1.04337 1.04703 1 0.996511
1.07404 1.07939 0.998998 0.996041
1.06496 1.0693 1 0.995939
1.05774 1.06224 1 0.995763
1.06348 1.06781 1 0.995945
1.00189 1 1.00297 0.998925
1.00766 1.00173 1.00837 0.997567
1.03349 1.0374 1 0.996232
1.03534 1.03894 1 0.996528
1.07418 1.07975 0.99869 0.996146
1.0749 1.08047 0.998801 0.996043
1.00041 1.00022 1.0015 0.998685
1.01891 1.02201 1.00019 0.99678
1.05315 1.05765 1 0.995746
1.06999 1.0747 0.999641 0.995979
1.07104 1.08049 0.994899 0.996339
1.0625 1.06706 1 0.995725
1.06633 1.07114 0.999376 0.996125
1.06221 1.06695 0.999289 0.996261
1.00701 1.00432 1.00547 0.997228
1.00837 1.00495 1.00663 0.996789
1.00917 1.00019 1.01104 0.997965
1.07466 1.07984 0.999098 0.996103
1.07499 1.08095 0.998341 0.996137
1.07046 1.0798 0.994903 0.996426
1.07146 1.0828 0.993134 0.996369
1.06693 1.0744 0.996755 0.996277
1.06191 1.07713 0.989183 0.996646
1.00682 1.00895 1.00088 0.997013
1.06046 1.0703 0.994328 0.996461
1.04112 1.04538 1 0.995924
1.05606 1.06088 1 0.995452
1.05843 1.06286 1 0.995828
1.05391 1.06181 0.995993 0.99655
1.01168 1 1.01344 0.998268
1.01012 1.01148 1.00213 0.996532
1.00939 1.00111 1.0112 0.997103
1.01166 1.01083 1.00444 0.996405
1.04631 1.05034 1 0.996163
1.00262 1 1.00296 0.999655
1.00276 1 1.00361 0.999151
1.00934 1.00011 1.01127 0.99798
1.04274 1.04655 1 0.996358
1.06981 1.07435 1 0.995776
1.00619 1.00835 1.00078 0.997084
1.04401 1.04807 1.00033 0.9958
1.05737 1.06173 1 0.995886
1.05762 1.06207 1 0.995805
1.00127 1 1.0015 0.999773
1.00709 1.00389 1.0057 0.997505
1.01079 1.00009 1.01227 0.998446
1.00955 1.005 1.00722 0.997321
1.074 1.0785 0.999993 0.995836
1.06359 1.06805 1 0.995821
1.06931 1.07416 0.999563 0.99592
1.02275 1.02583 1.00083 0.996171
1.05691 1.06119 1 0.99597
1.049 1.05183 1.00173 0.995593
1.06979 1.07417 1 0.995916
0.999845 1 1 0.999844
1.00724 1 1.00846 0.998791
1.01255 1.01342 1.00237 0.996778
1.01509 1.0032 1.01419 0.997691
1.00868 1.00865 1.00295 0.997094
1.07171 1.0789 0.997274 0.996053
1.06364 1.068 1 0.995915
1.06218 1.06992 0.996638 0.996116
1.02438 1.02667 1.00199 0.995787
1.06004 1.06422 1 0.99607
1.04167 1.04548 1.00086 0.995499
1.001 1 1.00178 0.999225
1.00332 1 1.0047 0.998634
0.99945 1 1 0.99945
0.999901 1 1.00055 0.999349
0.999938 1 1 0.999938
0.999908 1 1 0.999908
1 1 1 1
1 1 1 1
1 1 1 1
1.0023 1 1.00269 0.999617
1 1 1 1
1.00357 1 1.00421 0.999362
1 1 1 1
1.00266 1 1.00354 0.999127
1 1 1 1
1.04463 1.04865 1 0.996161
1.03944 1.04337 1 0.996225
1.07831 1.08347 0.999185 0.996051
1.07569 1.08107 0.998892 0.996128
1.03527 1.03921 1 0.996207
0.999352 1.00116 1 0.998196
1.03367 1.0376 1 0.996207
1.07504 1.08033 0.998986 0.996112
1.07712 1.08254 0.998872 0.996115
1.0696 1.08066 0.993216 0.996518
1.07699 1.08185 0.999561 0.995948
1.07255 1.08398 0.993061 0.996374
1.07463 1.0799 0.999017 0.9961
1.0691 1.08001 0.993342 0.996526
1.07148 1.08237 0.993455 0.996463
1.06648 1.08043 0.990332 0.996725
1.07091 1.08154 0.993916 0.996231
1.06645 1.08443 0.986674 0.996706
1.03354 1.03744 1 0.996238
1.03601 1.03963 1 0.996522
1.07348 1.07939 0.998338 0.996176
1.07573 1.08076 0.99932 0.996016
1.00029 1.00054 1.00108 0.998674
1.02028 1.02339 1.00018 0.996782
1.05484 1.05933 1 0.995762
1.0702 1.07455 1 0.99595
1.07015 1.08028 0.994208 0.996394
1.06646 1.07135 0.999305 0.996128
1.06146 1.06601 1 0.995729
1.06232 1.06708 0.999295 0.996247
1.00885 1.0064 1.00523 0.997226
1.00804 1.00479 1.00646 0.996786
1.00957 1.00034 1.01128 0.997967
1.07423 1.07942 0.999082 0.996106
1.07431 1.08057 0.998063 0.996136
1.07001 1.08008 0.994182 0.996473
1.07155 1.0823 0.993699 0.996342
1.01101 1.01284 1.00118 0.997013
1.0403 1.04456 1 0.995926
1.05572 1.06049 1.00003 0.995471
1.06767 1.07456 0.997351 0.996226
1.06146 1.07744 0.988439 0.996692
1.05919 1.06367 1 0.995788
1.06084 1.07064 0.994366 0.996461
1.05483 1.0625 0.996178 0.996588
1.01074 1.01211 1.00213 0.996532
1.00966 1.0091 1.00422 0.996352
1.00977 1 1.01152 0.998269
1.00856 1.0007 1.01074 0.997148
1.06979 1.07963 0.994388 0.996477
1.07266 1.08319 0.993859 0.996398
1.06131 1.07583 0.989829 0.996642
1.05971 1.07885 0.98549 0.996724
1.05997 1.07443 0.989891 0.996615
1.06196 1.08102 0.985459 0.99686
1.02221 1.0259 1.00018 0.996218
1.05211 1.068 0.988264 0.996826
1.04063 1.04527 1 0.995561
1.05154 1.05629 1.00018 0.995328
1.05683 1.06122 1 0.995858
1.05844 1.06673 0.995599 0.996616
1.00666 1 1.00812 0.998557
1.01305 1.00141 1.01431 0.997353
1.01537 1.01883 1.00047 0.996136
1.00872 1.00508 1.00686 0.99679
1.01201 1.00883 1.007 0.996179
1.00053 1 1.00075 0.999787
1.07361 1.07811 1 0.995829
1.01045 1.00021 1.01181 0.998449
1.00559 1.00189 1.0062 0.997514
1.0079 1.00335 1.00723 0.997319
1.06398 1.06845 1 0.995818
1.06879 1.07358 0.999618 0.995918
1.02419 1.0276 1.00051 0.996173
1.04875 1.05138 1.00193 0.99558
1.05652 1.06083 1 0.995946
1.06997 1.07425 1 0.996017
0.999854 1 1 0.999854
1.00741 1 1.00862 0.998802
1.0103 1.01189 1.00165 0.996789
1.01541 1.00283 1.0149 0.997683
1.00884 1.0086 1.00323 0.997016
1.07185 1.07896 0.997352 0.996049
1.06319 1.06755 1 0.995914
1.06164 1.06949 0.996536 0.996105
1.0254 1.02752 1.00216 0.995784
1.06382 1.06805 0.999995 0.996046
1.04184 1.0455 1.00096 0.995542
1.00255 1 1.0035 0.999053
1.01308 1.00083 1.0142 0.99806
1.00564 1.0087 1.00059 0.996376
1.01816 1.00879 1.01199 0.997328
1.01446 1.01555 1.00208 0.996855
1.06577 1.079 0.991414 0.996293
1.059 1.06335 0.999846 0.996061
1.0549 1.06525 0.993922 0.996336
1.00623 1.00676 1.00379 0.995701
1.03835 1.04298 1 0.995562
1.00109 1 1.00187 0.999228
1.00175 1 1.00323 0.998521
1.00365 1 1.00505 0.998611
1.00314 1 1.00477 0.998382
1.00154 1 1.00282 0.998725
0.999513 1 1 0.999513
0.999636 1 1.00018 0.999454
0.999966 1 1 0.999966
0.999976 1 1.00063 0.999352
0.999946 1 1 0.999946
1 1 1 1
0.999916 1 1 0.999916
1 1 1 1
1 1 1 1
1.00053 1 1.0007 0.999833
1.00339 1 1.00379 0.999599
1 1 1 1
1 1 1 1
1.00405 1 1.00471 0.999344
1 1 1 1
1.07649 1.08127 0.999637 0.995943
1.07749 1.08285 0.998931 0.996113
1.07271 1.08409 0.993107 0.996374
1.06922 1.08093 0.992601 0.996535
1.07465 1.07991 0.999008 0.996112
1.03391 1.03785 1 0.996207
1.07432 1.07958 0.999024 0.9961
1.06926 1.07993 0.993581 0.996521
1.07167 1.08261 0.993411 0.996464
1.06562 1.08028 0.989639 0.996753
1.07174 1.08242 0.99388 0.996226
1.06656 1.08451 0.986677 0.996728
1.06944 1.07996 0.993745 0.996496
1.06447 1.07977 0.989081 0.996707
1.06723 1.08242 0.989148 0.996784
1.06763 1.08704 0.985224 0.996871
1.06584 1.08314 0.987455 0.996535
1.06994 1.09079 0.983911 0.996925
1.07382 1.07902 0.999065 0.996109
1.07361 1.08015 0.997804 0.996134
1.06948 1.08032 0.993429 0.99652
1.07164 1.0818 0.994277 0.996316
1.01381 1.01526 1.00157 0.997014
1.03708 1.04132 1 0.995927
1.0548 1.05939 1.00018 0.99549
1.06837 1.07474 0.997893 0.996175
1.06104 1.07773 0.987738 0.996739
1.06137 1.07113 0.994405 0.996461
1.05995 1.06447 1 0.995749
1.0556 1.06306 0.996344 0.996627
1.01276 1.01318 1.00306 0.996533
1.00881 1.00824 1.00427 0.9963
1.00897 1 1.01072 0.99827
1.00808 1.00062 1.0103 0.997193
1.06998 1.07984 0.994374 0.996477
1.07228 1.08279 0.993884 0.996381
1.0611 1.07581 0.989619 0.996672
1.06084 1.07904 0.986385 0.996707
1.02248 1.02534 1.001 0.996213
1.03933 1.0439 1.00003 0.99559
1.05094 1.05548 1.00039 0.995315
1.0609 1.07464 0.990619 0.996565
1.0601 1.07989 0.98471 0.996915
1.0548 1.0592 1 0.995843
1.05321 1.06915 0.988228 0.996825
1.05765 1.06602 0.995443 0.996687
1.01396 1.01694 1.00093 0.996141
1.00968 1.00855 1.00498 0.996162
1.00856 1.00388 1.00789 0.996788
1.00735 1 1.00883 0.998535
1.01265 1.00056 1.01474 0.997391
1.06317 1.07859 0.988977 0.996688
1.06347 1.08105 0.986998 0.996699
1.05969 1.08517 0.979556 0.996899
1.0549 1.0762 0.983241 0.996916
1.02314 1.02737 1 0.995876
1.05591 1.07332 0.986745 0.996996
1.02514 1.02964 1.00029 0.995343
1.04296 1.04748 1.00051 0.995179
1.05343 1.05837 0.999471 0.995864
1.00263 1 1.00371 0.998923
1.01239 1 1.01463 0.997791
1.00828 1.00026 1.01098 0.997066
1.01064 1.0131 1.00157 0.996014
1.01055 1.00525 1.00898 0.996321
1.01034 1.0082 1.00613 0.996014
0.999864 1 1 0.999864
1.00766 1 1.00885 0.998812
1.07195 1.07898 0.997432 0.996045
1.01644 1.00225 1.01652 0.997675
1.00687 1.00882 1.00126 0.9968
1.00944 1.00896 1.00355 0.996939
1.06259 1.06695 1 0.995913
1.06129 1.06926 0.99644 0.996094
1.0246 1.02658 1.00231 0.995781
1.04087 1.04468 1.00077 0.995585
1.06791 1.07219 0.999987 0.996023
1.00194 1 1.00288 0.999059
1.01365 1.00035 1.01525 0.998063
1.00887 1.01199 1.0006 0.996326
1.01838 1.00776 1.01325 0.997328
1.01498 1.01627 1.00191 0.996835
1.06442 1.07762 0.991433 0.996289
1.0614 1.06579 0.99983 0.996047
1.05761 1.0677 0.994171 0.996358
1.00874 1.00985 1.00324 0.995676
1.03628 1.04087 1.00006 0.995527
1.00566 1 1.00729 0.998385
1.01622 1.00102 1.01759 0.997637
1.00533 1.00703 1.00212 0.996201
1.02321 1.01665 1.00949 0.996993
1.03024 1.03261 1.00107 0.996647
1.05539 1.07738 0.982749 0.996781
1.06258 1.06795 0.999075 0.9959
1.06351 1.07253 0.995275 0.996291
1.01121 1.01124 1.00433 0.995657
1.01741 1.02221 1 0.99531
1.00044 1 1.00121 0.99923
1.00136 1 1.00284 0.998531
0.999247 1 1.00087 0.998376
1.0019 1 1.00332 0.998587
1.00081 1 1.00209 0.998722
1.0043 1 1.00594 0.998369
1.00065 1 1.00225 0.998406
1.0045 1 1.0062 0.998311
0.999448 1 1.00066 0.998793
0.999511 1 1 0.999511
0.999513 1 1 0.999513
0.999985 1 1 0.999985
0.999457 1 1 0.999457
0.999972 1 1 0.999972
1 1 1 1
0.999955 1 1 0.999955
1 1 1 1
1 1 1 1
0.999946 1 1 0.999946
1.00084 1 1.00104 0.999806
1 1 1 1
1.00381 1 1.00423 0.999581
1 1 1 1
1 1 1 1
1.07255 1.08329 0.99384 0.996222
1.0717 1.08268 0.99337 0.996464
1.06667 1.0846 0.986675 0.996751
1.06471 1.08009 0.988944 0.996781
1.06946 1.07985 0.993844 0.996516
1.07401 1.07925 0.999045 0.996101
1.06972 1.07998 0.993999 0.996479
1.065 1.07976 0.989601 0.9967
1.06661 1.08172 0.989223 0.99677
1.06583 1.08614 0.984366 0.99688
1.06587 1.08298 0.987623 0.996538
1.06703 1.08891 0.982898 0.99696
1.06569 1.08005 0.989991 0.99668
1.06762 1.08854 0.983858 0.996873
1.06833 1.0902 0.982927 0.996956
1.06148 1.08843 0.978202 0.996968
1.07022 1.0801 0.994361 0.996476
1.07194 1.08245 0.993906 0.996364
1.061 1.07587 0.989437 0.996702
1.06198 1.07929 0.987231 0.99669
1.02401 1.02685 1.00103 0.996208
1.03854 1.04311 1 0.99562
1.05033 1.05467 1.00058 0.995303
1.06166 1.0747 0.991318 0.996516
1.05818 1.07877 0.983903 0.99697
1.05412 1.07007 0.988233 0.996825
1.05324 1.05765 1 0.995829
1.05826 1.0663 0.995687 0.996759
1.00897 1.01154 1.00132 0.996146
1.0083 1.00856 1.0036 0.996144
1.01025 1.0033 1.01017 0.996786
1.00691 1 1.00841 0.998515
1.01231 1.00011 1.0148 0.997431
1.06303 1.07842 0.988999 0.996689
1.06417 1.08171 0.987045 0.996696
1.06038 1.08454 0.980766 0.996892
1.02286 1.02709 1.00001 0.995875
1.02511 1.0296 1.00026 0.995376
1.04171 1.04597 1.00076 0.995168
1.05514 1.07601 0.983649 0.996903
1.05625 1.0616 0.998968 0.995992
1.05255 1.07013 0.986564 0.996962
1.00281 1 1.00383 0.998982
1.0093 1.01043 1.00288 0.996011
1.01014 1.00609 1.00794 0.996114
1.0144 1.00759 1.01048 0.996312
1.01146 1.00313 1.01125 0.997089
1.01297 1 1.01525 0.997759
1.06634 1.08654 0.984603 0.996758
1.06439 1.09186 0.977931 0.996847
1.05349 1.08356 0.975207 0.996971
1.04735 1.07713 0.975176 0.997107
1.01284 1.01691 1.00027 0.995726
1.04914 1.06013 0.993062 0.99655
1.01266 1.01607 1.00165 0.995001
1.03011 1.03416 1.00104 0.995046
0.999893 1 1.00052 0.999374
1.00816 1 1.0099 0.998275
1.01166 1.00144 1.01281 0.997428
1.0131 1.00373 1.01283 0.996545
1.00723 1.00556 1.00571 0.995974
1.0165 1.00645 1.01422 0.995823
1.00162 1 1.00256 0.999064
1.01364 1 1.01561 0.998067
1.06312 1.07629 0.991449 0.996284
1.0178 1.00639 1.01404 0.997328
1.0121 1.01546 1.00042 0.996274
1.01428 1.01588 1.00162 0.996815
1.06389 1.06832 0.999817 0.996033
1.05998 1.0699 0.994331 0.996378
1.01176 1.01341 1.00273 0.99565
1.03403 1.03844 1.00027 0.995491
1.00565 1 1.00727 0.99839
1.01626 1.00051 1.01819 0.997603
1.00572 1.00745 1.00209 0.996202
1.02238 1.01674 1.00858 0.996996
1.0336 1.03654 1.00048 0.99669
1.05792 1.07974 0.982906 0.996828
1.06242 1.06773 0.999079 0.995945
1.06456 1.07295 0.995788 0.996375
1.0128 1.01261 1.00458 0.995621
1.01684 1.0217 1.00003 0.995216
1.00504 1 1.00693 0.998118
1.01465 1.00193 1.01546 0.997281
1.01891 1.01894 1.00378 0.996199
1.02829 1.0292 1.00258 0.996548
1.05713 1.10112 0.962871 0.997067
1.05719 1.07454 0.986992 0.996826
1.04553 1.0505 0.999801 0.995465
1.02166 1.02218 1.00426 0.995248
1.00142 1 1.00289 0.998541
0.999915 1 1.00155 0.99837
0.999715 1 1.00119 0.998524
1.0015 1 1.00279 0.99872
1.00632 1 1.00798 0.998357
0.99952 1 1.00073 0.998789
1.00034 1 1.00191 0.998436
1.00582 1 1.00751 0.99832
0.999123 1 1.00049 0.998638
1.00508 1 1.00688 0.998208
1.00268 1 1.00442 0.998273
0.998942 1 1.00018 0.998763
0.999467 1 1 0.999467
0.999508 1 1 0.999508
0.999992 1 1 0.999992
0.999513 1 1 0.999513
0.999987 1 1 0.999987
1 1 1 1
0.999978 1 1 0.999978
1 1 1 1
1 1 1 1
0.999983 1 1 0.999983
0.999969 1 1.00004 0.999926
1 1 1 1
1.00172 1 1.00194 0.999779
1 1 1 1
1 1 1 1
1.06581 1.08273 0.987788 0.99654
1.06607 1.0811 0.989301 0.996756
1.06419 1.08707 0.981908 0.996996
1.06408 1.08531 0.983492 0.99689
1.06552 1.07974 0.990107 0.996693
1.06997 1.08 0.994238 0.996461
1.06529 1.07983 0.989827 0.996681
1.06724 1.08804 0.983963 0.996863
1.06699 1.08933 0.982489 0.996952
1.06165 1.08846 0.978328 0.99698
1.06878 1.08863 0.984906 0.996819
1.06682 1.0947 0.977451 0.997019
1.0693 1.10001 0.974961 0.99705
1.06282 1.0782 0.989006 0.99669
1.06478 1.08227 0.987105 0.996692
1.06112 1.08391 0.982039 0.996886
1.02468 1.02888 1.00005 0.995874
1.02439 1.02893 1.00018 0.995409
1.04041 1.04459 1.00085 0.995156
1.05549 1.07599 0.984004 0.99689
1.04844 1.0668 0.985824 0.996928
1.05823 1.06408 0.998371 0.99612
1.00841 1.00843 1.00399 0.996007
1.0055 1.00282 1.00648 0.996215
1.01594 1.00942 1.01019 0.996303
1.00289 1 1.00385 0.999043
1.01194 1.00456 1.01026 0.997111
1.01406 1 1.01637 0.997726
1.0672 1.08703 0.984938 0.996767
1.06344 1.09178 0.977129 0.99685
1.05394 1.0835 0.975678 0.996963
1.0115 1.01575 1.00009 0.995717
1.01205 1.01564 1.0014 0.995078
1.03116 1.03525 1.0009 0.995156
1.04816 1.07722 0.975843 0.997108
1.0445 1.05632 0.992264 0.996525
0.99988 1 1.00042 0.999455
1.00783 1 1.00958 0.998271
1.00385 1.00407 1.00379 0.996005
1.01877 1.00577 1.01698 0.996012
1.01379 1.00524 1.01195 0.996588
1.01076 1.00094 1.01246 0.997381
1.06556 1.0942 0.976815 0.996936
1.0545 1.0966 0.964576 0.996928
1.04918 1.08379 0.970834 0.997151
1.03462 1.06098 0.977991 0.997096
1.0022 1.00534 1.00133 0.995553
1.03042 1.03465 1.00032 0.995593
1.0117 1.01425 1.00264 0.994858
0.999693 1 1 0.999693
0.999092 1 1 0.999092
1.00216 1 1.00345 0.998719
1.00696 1 1.00927 0.997708
1.01026 1 1.01329 0.997013
1.02582 1.0063 1.02325 0.996238
1.00376 1.00194 1.00556 0.996272
1.04347 1.00353 1.04344 0.996516
1.0057 1 1.00732 0.998396
1.01718 1.00022 1.01943 0.997569
1.06077 1.0823 0.983176 0.996875
1.02309 1.01865 1.00739 0.996999
1.0061 1.00754 1.00238 0.996205
1.03635 1.03971 1.00004 0.996733
1.06229 1.06755 0.999081 0.99599
1.06576 1.07347 0.996353 0.996459
1.01382 1.01343 1.00482 0.995587
1.016 1.02098 1 0.995122
1.00608 1 1.00803 0.998061
1.01356 1.00114 1.01519 0.997257
1.02388 1.02353 1.00415 0.996207
1.0268 1.02831 1.00195 0.996586
1.05856 1.10352 0.962065 0.997086
1.06148 1.07779 0.988058 0.99677
1.0423 1.04736 0.999643 0.995526
1.02327 1.02435 1.00377 0.995199
1.00552 0.999927 1.00762 0.997989
1.06923 1.1119 0.964419 0.997099
1.00859 1.00204 1.0097 0.996878
1.0241 1.02549 1.00268 0.995985
1.03841 1.08475 0.95995 0.997221
1.03634 1.04312 0.997889 0.995607
1.01536 1.01721 1.00323 0.994963
1.00123 1 1.00287 0.998364
0.998671 0.99914 1.00102 0.998516
0.999517 0.99842 1.00238 0.998723
0.999206 1 1.00042 0.998784
1.00618 1 1.00786 0.998329
1.00036 0.999742 1.00216 0.998465
0.998805 1 1.00005 0.998759
1.00284 1 1.00457 0.998283
0.99915 0.999871 1.0006 0.99868
1.00427 1 1.00606 0.998214
0.998815 1 1 0.998815
1.00069 1 1.00222 0.99847
1.00637 1 1.00834 0.998052
0.999039 1 1.0009 0.998144
0.99866 1 1 0.99866
0.999418 1 1 0.999418
0.999462 1 1 0.999462
0.999995 1 1 0.999995
0.999505 1 1 0.999505
0.999993 1 1 0.999993
1 1 1 1
0.999989 1 1 0.999989
1 1 1 1
1 1 1 1
0.999744 1 1 0.999744
0.999996 1 1 0.999996
0.999975 1 1 0.999975
1 1 1 1
0.999905 1 1 0.999905
1 1 1 1
1 1 1 1
1.06181 1.08844 0.978481 0.996992
1.06568 1.08846 0.982068 0.996948
1.06687 1.08754 0.984093 0.996853
1.06493 1.07961 0.989693 0.996681
1.06867 1.08888 0.984553 0.996838
1.06671 1.09437 0.977649 0.99701
1.06591 1.09668 0.97481 0.997054
1.06672 1.09531 0.976822 0.997002
1.07938 1.11272 0.972854 0.9971
1.0903 1.12694 0.970044 0.99736
1.06816 1.08761 0.985295 0.996776
1.06251 1.0917 0.976337 0.996853
1.05455 1.08338 0.976357 0.996955
1.01068 1.01498 1.00006 0.99571
1.01289 1.01653 1.00126 0.995159
1.03376 1.03799 1.00067 0.995264
1.049 1.07699 0.976836 0.99711
1.03981 1.05208 0.991805 0.996501
1.00486 1.00379 1.00505 0.996037
1.02339 1.00627 1.0209 0.996196
1.01593 1.00602 1.01326 0.996631
0.999841 1 1.0003 0.999537
1.00778 1 1.00953 0.998266
1.0103 1.00066 1.01233 0.997334
1.06502 1.09432 0.976209 0.996945
0.999687 1 1 0.999687
0.999044 1 1 0.999044
1.05616 1.09578 0.96681 0.99693
1.04742 1.0821 0.970739 0.997121
1.00345 1.00592 1.00192 0.995634
1.01158 1.01342 1.00332 0.994879
1.02867 1.03424 0.999029 0.995578
1.03376 1.06068 0.977484 0.997066
1.00244 1 1.00363 0.998814
1.00728 1 1.00961 0.997695
1.00418 1.00211 1.00595 0.99615
1.03721 1.00436 1.03625 0.996583
1.02304 1.00388 1.02292 0.996249
1.01058 1.00037 1.01321 0.997033
1.07569 1.11481 0.967774 0.997042
1.03804 1.09496 0.950829 0.997048
1.0333 1.07214 0.966387 0.997296
1.01901 1.0388 0.98412 0.996773
1.00521 1.00282 1.00649 0.995914
1.01244 1.01203 1.0054 0.995037
0.998987 1 1 0.998987
0.999602 1 1.00054 0.999065
0.998908 1.00021 1 0.998702
1.00243 1 1.00443 0.998007
1.01158 1 1.01422 0.997397
1.00974 1.0004 1.01267 0.996708
1.06666 1.00107 1.06937 0.996405
0.992449 1.00049 0.994641 0.997304
1.00651 1 1.00852 0.998006
1.01169 1 1.01449 0.997233
1.0592 1.1048 0.961511 0.997105
1.06526 1.08058 0.989066 0.996715
1.0262 1.0278 1.00183 0.996622
1.03007 1.02944 1.00441 0.996215
1.03943 1.0445 0.999558 0.995587
1.02575 1.02731 1.00335 0.99515
1.00524 0.999719 1.00756 0.997969
1.07137 1.11563 0.963044 0.997174
1.00944 1.00114 1.01138 0.996948
1.02068 1.02211 1.00269 0.995916
1.03938 1.08483 0.960797 0.997198
1.03356 1.04076 0.997371 0.995706
1.0168 1.01838 1.00348 0.994976
1.0113 0.998471 1.01513 0.997755
1.00666 1.06496 0.947551 0.99757
1.00532 1.00105 1.00763 0.996653
1.00694 1.00779 1.00379 0.995387
1.01557 1.03994 0.979781 0.996719
1.00338 1.00593 1.00221 0.995258
0.94683 1.00212 0.948425 0.996203
0.99723 0.997729 1.00099 0.998507
0.999131 0.996662 1.00375 0.998728
1.00213 0.99884 1.00463 0.998668
0.998888 1 1.00013 0.998754
1.00437 1 1.00609 0.998292
1.00286 1 1.00465 0.99822
0.999212 1 1.00049 0.998723
0.998729 1 1.00007 0.998659
0.999418 1 1.00127 0.998153
0.998781 1 1 0.998781
1.00656 1 1.00852 0.998052
1.00035 1 1.00192 0.998433
1.00021 0.999999 1.00144 0.99877
1.00193 1 1.00405 0.997895
1.00634 1 1.00834 0.998012
0.99836 1 1.00034 0.998017
0.998479 1 1 0.998479
1.00102 1 1.0028 0.998222
0.998874 1 1.00043 0.998446
0.999398 1 1 0.999398
0.999414 1 1 0.999414
0.999998 1 1 0.999998
0.999457 1 1 0.999457
0.999996 1 1 0.999996
1 1 1 1
0.999994 1 1 0.999994
1 1 1 1
1 1 1 1
0.9998 1 1 0.9998
0.999746 1 1 0.999746
1 1 1 1
0.999993 1 1 0.999993
1 1 1 1
0.999968 1 1 0.999968
1 1 1 1
1 1 1 1
1.06265 1.09358 0.974584 0.997058
1.06667 1.09423 0.977744 0.997001
1.06845 1.08905 0.984176 0.996856
1.06651 1.09523 0.976706 0.997001
1.07597 1.10942 0.972676 0.997093
1.09037 1.1265 0.97058 0.997272
1.08512 1.12524 0.967083 0.997167
0.947743 1.01605 0.938458 0.993937
1.03703 1.07863 0.96331 0.998053
0.999189 1 1 0.999189
1.06456 1.09456 0.975559 0.996954
1.05759 1.09514 0.968686 0.996932
1.04524 1.08051 0.970182 0.997091
1.00054 1.00402 1.00082 0.995712
1.01052 1.01163 1.00402 0.994899
1.02644 1.03305 0.998027 0.995562
1.0333 1.06089 0.976886 0.997035
0.998748 1.00213 1.0006 0.996035
1.03036 1.0047 1.02897 0.99666
1.02077 1.00231 1.02223 0.996259
0.999681 1 1 0.999681
1.01123 1.00077 1.01345 0.997051
1.00248 1 1.00358 0.998907
1.00756 1 1.00991 0.997682
0.999135 1 1.00014 0.998998
1.07371 1.11534 0.96552 0.997049
0.999048 1 1 0.999048
0.999977 1 1.00091 0.999069
0.998775 1.00057 0.999539 0.998663
1.042 1.09555 0.953938 0.997046
1.0314 1.07043 0.9662 0.997246
1.00158 1.0022 1.00344 0.995951
1.0169 1.01654 1.00519 0.995187
1.0181 1.03723 0.984748 0.996754
1.00203 1 1.00396 0.998073
1.01062 1 1.01331 0.997348
1.00376 1.00031 1.00637 0.997101
1.05642 1.00177 1.05836 0.996406
1.00934 1.00099 1.01161 0.996761
1.04908 1.10637 0.950932 0.99715
1.01187 1.07964 0.939847 0.997213
1.0236 1.05002 0.977852 0.99692
0.999438 1.01858 0.984623 0.99653
1.00039 1 1.00354 0.996859
0.99857 1 1 0.99857
1.00024 1.00038 1.00147 0.998396
1.00262 1 1.00417 0.998458
1.01366 1 1.01591 0.997791
1.0125 1 1.01517 0.997373
1.04607 0.999932 1.04933 0.996963
1.02706 1.00181 1.02793 0.997347
1.0054 1 1.00747 0.997947
1.00964 1.00016 1.01249 0.997019
1.0729 1.11962 0.960919 0.997247
1.04091 1.0858 0.961375 0.997174
1.031 1.03874 0.996736 0.995804
1.01584 1.01735 1.00268 0.995848
1.01759 1.01904 1.0036 0.99499
1.01211 0.999432 1.01487 0.997847
1.00913 1.06652 0.94844 0.997626
1.00231 1.00101 1.00465 0.996659
1.00521 1.00573 1.00411 0.995383
1.01288 1.03822 0.978671 0.99686
1.00425 1.00629 1.00273 0.995257
0.946703 1.00099 0.950582 0.99493
1.01187 0.997338 1.01689 0.997723
0.985146 1.02711 0.961488 0.997563
1.00085 1.00137 1.00312 0.996369
1.00425 1.00227 1.00614 0.995866
0.991181 1.00737 0.987256 0.996631
0.885494 0.97193 0.942132 0.967028
0.865474 0.955766 0.921455 0.982716
0.949112 0.976981 0.974778 0.996612
0.648251 0.794838 0.880231 0.926549
0.559304 0.730977 0.84814 0.902146
0.999041 0.995378 1.00495 0.998733
1.00304 0.996671 1.00768 0.998721
1.00432 0.999518 1.0061 0.998703
0.998659 1 1 0.998659
0.999242 1 1.00108 0.998161
1.00571 1 1.00767 0.998051
1.00018 1 1.00179 0.998395
0.998747 1 1 0.998747
1.00673 1 1.00875 0.997999
0.998519 1 1 0.998519
0.998394 1 1.00036 0.998035
0.999705 1 1.00101 0.9987
1.0025 1 1.00454 0.99797
1.00836 1 1.01038 0.998
1.00595 0.999148 1.00854 0.998284
1.00609 1 1.00814 0.997971
0.999035 1 1.00113 0.997904
0.998492 1 1.00005 0.998446
0.999336 1 1.00129 0.998049
1.00102 1 1.00286 0.998172
1.00131 1 1.00299 0.998321
1.00078 1 1.0026 0.998188
0.998925 1 1.00034 0.998581
0.999097 1 1.00066 0.998443
0.999391 1 1 0.999391
0.999398 1 1 0.999398
1 1 1 1
0.99941 1 1 0.99941
0.999999 1 1 0.999999
1 1 1 1
0.999997 1 1 0.999997
1 1 1 1
1 1 1 1
0.999861 1 1 0.999861
0.999797 1 1 0.999797
1 1 1 1
0.999749 1 1 0.999749
0.999999 1 1 0.999999
1 1 1 1
0.99999 1 1 0.99999
1 1 1 1
1 1 1 1
1.07264 1.10615 0.972535 0.997086
1.06601 1.09481 0.976629 0.996999
1.09135 1.12649 0.971534 0.997185
0.950419 1.01578 0.941273 0.994028
1.08346 1.12379 0.966854 0.997164
1.04314 1.08102 0.966964 0.997922
1.05997 1.09907 0.96704 0.997295
0.902093 0.972659 0.944491 0.981957
0.978316 1.0221 0.962077 0.99489
0.999238 1 1 0.999238
0.999182 1 1 0.999182
0.998674 1 1 0.998674
0.998808 1 1 0.998808
1.07168 1.11537 0.963666 0.997056
1.04587 1.09575 0.957303 0.997043
1.02992 1.06876 0.966372 0.997195
1.00051 1.00147 1.00306 0.995988
1.02095 1.02117 1.00446 0.995339
1.01647 1.03493 0.98538 0.996735
1.0162 1 1.01937 0.996891
1.04748 1.00239 1.04875 0.996407
1.00907 1.00056 1.01174 0.996814
1.0006 1 1.00153 0.999072
1.00949 1.00061 1.01161 0.997301
1.00175 1 1.00362 0.99814
0.999109 1 1 0.999109
0.999039 1.00099 0.999428 0.998623
1.0476 1.10706 0.948977 0.997164
0.998585 1 1 0.998585
0.999833 1.0006 1.00075 0.998489
1.00281 0.999536 1.00455 0.998729
1.01964 1.08338 0.943809 0.9972
1.02401 1.04978 0.978465 0.99692
0.998505 1.00089 1.00077 0.996846
1.00138 1.01737 0.987634 0.996604
1.01257 1 1.01492 0.997679
1.01243 1.00003 1.01525 0.997198
1.03328 1.00253 1.03343 0.997326
1.04592 1.00185 1.0473 0.996842
0.999933 1.06446 0.941889 0.997332
0.9979 1.05166 0.951526 0.997215
1.01042 1.02122 0.992828 0.996565
0.973082 1.00148 0.973844 0.997739
1.00723 1 1.00878 0.998462
1.00745 1 1.00952 0.997957
1.02083 0.999516 1.02323 0.998131
1.06457 1.00102 1.06633 0.997333
0.871207 0.968508 0.935333 0.961727
1.01313 0.999542 1.01568 0.997941
1.00054 1.00091 1.00298 0.996664
1.01066 1.06786 0.948626 0.997689
1.01025 1.03613 0.977962 0.997
1.00519 1.00667 1.0033 0.995252
1.00412 1.00419 1.00457 0.995378
0.946924 1.00135 0.951731 0.993609
1.00967 0.997161 1.0148 0.997781
0.984259 1.02758 0.960205 0.997537
1.0008 1.00148 1.00296 0.99638
1.00532 1.0036 1.00585 0.995882
0.994345 1.00848 0.989334 0.99661
0.876022 0.974613 0.934541 0.961799
0.862115 0.951605 0.92506 0.979351
0.951892 0.977233 0.977319 0.996674
0.642707 0.789652 0.876617 0.928469
0.549824 0.72823 0.842323 0.896348
1.00369 0.997456 1.00841 0.997861
0.679096 0.81058 0.898818 0.932102
0.594937 0.748326 0.881327 0.902077
0.984847 1.00558 0.981616 0.997724
1.00925 1.00163 1.01047 0.997166
1.01469 1.00597 1.01156 0.997149
0.93888 0.963906 0.976821 0.99715
0.840106 0.943508 0.922744 0.964956
0.827321 0.919784 0.920632 0.977017
0.626733 0.776228 0.86384 0.934673
0.609282 0.79743 0.852443 0.896314
1.00338 0.994415 1.01025 0.998773
1.00292 0.997594 1.00667 0.998676
1.01451 0.998519 1.0172 0.998837
0.998559 1 1 0.998559
0.998479 1 1.00043 0.998052
1.007 1 1.00903 0.997986
1.00343 1 1.0054 0.998046
0.998923 1 1.00029 0.99863
0.998518 1 1.00007 0.998446
1.00897 1 1.01102 0.997971
1.00625 1 1.00831 0.997957
0.998585 1 1.00063 0.997954
1.00711 0.998982 1.00982 0.998335
1.0083 1 1.0101 0.998211
1.02536 0.998541 1.02841 0.998495
1.00314 1 1.00533 0.997827
0.998905 1 1.00091 0.997995
0.998809 1 1.00077 0.998043
1.00108 1 1.00287 0.998214
1.00037 1 1.00241 0.997965
1.00064 1 1.00235 0.998287
1.00739 1 1.00901 0.998396
1.01154 1 1.01349 0.998083
1.00281 1 1.00451 0.998305
1.00126 1 1.00295 0.998324
1.00065 1 1.00204 0.998612
1.00067 1 1.00252 0.998153
0.999012 1 1.00047 0.998546
0.999365 1 1 0.999365
0.999302 1 1.00086 0.99844
0.999393 1 1 0.999393
0.999995 1 1 0.999995
0.999399 1 1 0.999399
0.999999 1 1 0.999999
1 1 1 1
1 1 1 1
1 1 1 1
1 1 1 1
0.999173 1 1 0.999173
0.99988 1 1 0.99988
0.999857 1 1 0.999857
1 1 1 1
0.999794 1 1 0.999794
1 1 1 1
1 1 1 1
0.999998 1 1 0.999998
1 1 1 1
1 1 1 1
0.953198 1.01528 0.944406 0.99412
1.0823 1.12274 0.966724 0.997161
1.05168 1.08368 0.972617 0.997789
0.889543 0.969732 0.932972 0.983211
0.976564 1.02192 0.960292 0.995126
1.06192 1.10212 0.966181 0.997251
0.987534 1.03806 0.95531 0.995834
0.906716 0.975356 0.943898 0.984879
0.88306 0.976162 0.937801 0.964624
0.654009 0.796814 0.877746 0.935099
0.517735 0.686376 0.837125 0.901063
0.998768 1 1 0.998768
0.999235 1 1 0.999235
0.999175 1 1 0.999175
0.998692 1 1 0.998692
0.999029 1 1.0005 0.998527
0.998443 1 1 0.998443
0.99872 1 1.00012 0.998601
0.998759 1 1 0.998759
1.04827 1.10868 0.948184 0.997177
1.02773 1.08768 0.947546 0.997188
1.02401 1.04999 0.978272 0.996919
0.99783 1.00189 0.999113 0.996835
1.00374 1.01678 0.990466 0.996676
1.04164 1.00304 1.04129 0.997304
1.04588 1.00372 1.04543 0.996723
1.01149 1.00036 1.01415 0.997025
0.99884 1.00077 0.999486 0.998581
1.0132 1 1.01568 0.997561
0.998601 1 1 0.998601
1.00194 0.999323 1.00362 0.999002
0.997956 1.06492 0.939578 0.997379
1.00641 0.999797 1.00819 0.998439
1.00934 1 1.01125 0.998115
0.995776 1.04951 0.951476 0.997187
1.00863 1.02266 0.989515 0.996729
0.97663 1.00155 0.977476 0.997591
1.03177 1.00108 1.03295 0.99778
1.05775 1.0022 1.05819 0.99738
0.965739 1.03239 0.938089 0.997174
0.995214 1.01758 0.980763 0.997206
0.974213 1.00244 0.974464 0.997313
0.973614 0.998226 0.97733 0.997968
1.00903 1 1.01117 0.99788
1.02246 1 1.02447 0.998039
1.05443 0.999559 1.05732 0.997707
0.69765 0.819241 0.910754 0.935029
0.884916 0.975634 0.936801 0.968206
1.00726 0.997824 1.01164 0.997841
1.00051 1.00132 1.0028 0.996395
0.984551 1.02816 0.959973 0.99751
0.997336 1.0099 0.990942 0.996591
1.00667 1.00507 1.00571 0.995904
0.878398 0.973261 0.935384 0.964877
0.867076 0.962643 0.919137 0.979968
0.952306 0.975943 0.978968 0.996745
0.656403 0.79115 0.886812 0.935578
0.540682 0.726504 0.835888 0.890339
1.00364 0.998592 1.0072 0.997867
0.690275 0.821187 0.900863 0.933085
0.570272 0.725491 0.875134 0.898206
0.984129 1.00669 0.979843 0.997705
1.0092 1.00228 1.00976 0.997169
1.01244 1.00392 1.01122 0.997293
0.934174 0.958483 0.977162 0.997417
0.849356 0.955878 0.924469 0.961159
0.824734 0.915575 0.919461 0.979685
0.639064 0.779591 0.879113 0.932467
0.613652 0.808765 0.847725 0.895044
1.00581 0.998483 1.00884 0.998511
0.612462 0.760237 0.894028 0.901113
0.674342 0.837208 0.88673 0.908354
0.983567 0.989719 0.995154 0.998623
1.01612 1.00243 1.01514 0.998542
0.945992 0.950661 0.998484 0.9966
0.843915 0.908228 0.94676 0.981441
0.788467 0.896033 0.917826 0.958737
0.657117 0.776763 0.90604 0.933698
0.680737 0.872379 0.866105 0.900956
1.00279 0.997513 1.00665 0.99865
1.01234 0.999461 1.01412 0.998787
1.01194 0.997851 1.01506 0.999074
0.998446 1 1 0.998446
0.998219 1 1.00022 0.998004
1.0071 1 1.00918 0.997943
1.01001 1 1.01209 0.997942
1.00788 0.998752 1.01077 0.998387
0.99863 1 1.00064 0.997991
1.00764 1 1.00951 0.998154
1.00282 1 1.005 0.99783
1.02263 0.996905 1.02729 0.998559
1.04272 0.994956 1.04896 0.999094
1.0152 1 1.01702 0.998213
1.00124 1 1.00345 0.997792
0.998442 1 1.00041 0.998036
1.00096 1 1.00271 0.998255
1.00092 1 1.00298 0.997954
1.00144 1 1.00318 0.998267
1.00516 1 1.00665 0.998521
1.00765 1 1.00943 0.998231
1.01132 1 1.0131 0.998243
1.00677 0.998129 1.0101 0.998568
1.00041 1 1.00223 0.998193
1.00082 1.0025 1.00093 0.997398
1.00891 1 1.011 0.997931
1.01006 1 1.012 0.998085
1.01112 1 1.01303 0.998112
1.00435 1 1.00606 0.998306
1.00053 1 1.00196 0.998569
1.00134 1 1.00302 0.998326
1 1 1.00138 0.99862
0.999324 1 1 0.999324
0.998954 1 1.00044 0.998511
0.999368 1 1 0.999368
0.99998 1 1 0.99998
0.999396 1 1 0.999396
0.999992 1 1 0.999992
1 1 1 1
0.999998 1 1 0.999998
1 1 1 1
1 1 1 1
0.999159 1 1 0.999159
0.99984 1 1 0.99984
0.999176 1 1 0.999176
1 1 1 1
0.99988 1 1 0.99988
0.999852 1 1 0.999852
1 1 1 1
1 1 1 1
1 1 1 1
1 1 1 1
1 1 1 1
0.679106 0.81189 0.902136 0.92719
0.5781 0.740498 0.868678 0.89871
0.888835 0.968875 0.932443 0.983855
0.976104 1.02193 0.959591 0.995381
1.05984 1.10451 0.962248 0.997209
0.897005 0.958317 0.949171 0.986147
0.985892 1.03664 0.954797 0.996074
0.893314 0.985039 0.939685 0.965091
0.640677 0.794605 0.868279 0.9286
0.528472 0.706827 0.835124 0.895278
0.917198 0.993686 0.932494 0.989847
0.864634 0.959173 0.933527 0.965625
0.633597 0.782541 0.866845 0.934038
0.610087 0.798846 0.851265 0.897149
1.00083 1 1.00254 0.998294
0.998812 1 1 0.998812
0.999233 1 1 0.999233
0.998741 1 1.00003 0.998709
0.998992 1 1.00035 0.998643
0.99942 1 1.0013 0.998126
0.998564 1 1.00014 0.998424
0.998544 1 1.00038 0.998164
0.998611 1 1.00006 0.99855
0.99871 1 1 0.99871
0.992645 1.06463 0.934796 0.997424
0.993118 1.04686 0.951364 0.997163
1.0082 1.02423 0.987414 0.996894
0.979281 1.00177 0.980052 0.997443
1.04814 1.00362 1.04705 0.997427
1.04352 1.00235 1.04375 0.997434
1.01019 1 1.01194 0.998274
1.00566 0.999446 1.00781 0.998416
0.965317 1.03318 0.936841 0.997304
1.01156 1 1.01377 0.997823
1.02192 0.999844 1.02413 0.998003
0.98667 1.01412 0.975717 0.997143
0.972092 1.00203 0.972638 0.997414
0.974937 0.999457 0.977495 0.997925
1.04743 0.999597 1.05032 0.997647
0.954016 1.00254 0.954121 0.997354
0.964778 0.997121 0.969296 0.998213
1.01153 0.994933 1.01855 0.998168
1.01036 1 1.01264 0.997745
1.02053 0.999799 1.02304 0.997748
1.02976 1 1.03199 0.997838
0.640294 0.773398 0.905896 0.9139
0.697143 0.817407 0.91141 0.935772
0.875146 0.974712 0.9334 0.961914
1.00254 0.997868 1.00682 0.997871
1.00886 1.00245 1.00925 0.997167
0.985342 1.00791 0.979875 0.997685
1.01035 1.00236 1.01056 0.997431
0.695138 0.816124 0.909155 0.936866
0.849448 0.954169 0.925643 0.961764
0.821735 0.912666 0.92144 0.977131
0.935005 0.955884 0.980448 0.997663
0.636745 0.786155 0.873981 0.926735
0.562835 0.719024 0.869412 0.900351
0.618621 0.81038 0.847314 0.900932
1.00524 0.998118 1.00868 0.998469
0.615095 0.759695 0.89386 0.905801
0.690269 0.853542 0.890707 0.907942
0.98151 0.987128 0.995569 0.998734
1.01553 1.00131 1.01574 0.998489
0.943443 0.949028 0.996742 0.997365
0.83233 0.913217 0.931301 0.978659
0.820674 0.911034 0.934626 0.963825
0.663797 0.787574 0.908698 0.927521
0.674518 0.864735 0.861629 0.905295
1.00702 0.996316 1.01132 0.999431
0.715222 0.859966 0.907162 0.9168
0.695046 0.861781 0.884375 0.91197
0.974773 0.956331 1.01957 0.999715
0.880241 0.910442 0.979548 0.987014
0.819132 0.882149 0.965544 0.961701
0.748259 0.865534 0.935566 0.924046
0.726102 0.915441 0.874154 0.90736
1.01016 0.999782 1.01166 0.998736
1.01393 0.997512 1.01742 0.999059
1.02719 0.98817 1.04016 0.999354
0.998822 1 1.00084 0.997987
1.00266 1 1.00484 0.997833
1.00631 1 1.00823 0.998096
1.02063 0.995637 1.02652 0.998624
1.00182 1 1.00404 0.997793
1.01449 0.999886 1.01643 0.998203
1.04738 0.994881 1.05364 0.999173
1.04354 0.985585 1.05939 0.999446
1.0464 0.998389 1.04907 0.999068
1.00951 1 1.01143 0.998107
1.00094 1 1.003 0.997942
1.00181 1 1.00357 0.998247
1.00289 1 1.00425 0.998643
1.01094 1 1.0127 0.998266
1.00552 1 1.00731 0.998229
1.00897 0.998838 1.01157 0.9986
1.00591 0.999229 1.00836 0.998339
1.01725 0.99674 1.02164 0.998962
0.996783 1.00143 0.996991 0.998365
1.00096 1.0007 1.00207 0.998194
0.998687 1.00032 1.00069 0.997672
1.00632 1.00849 1.00153 0.996321
1.00518 1.00162 1.00586 0.997711
0.999903 1.00141 1.00075 0.997744
1.009 1 1.0111 0.997926
1.01726 1 1.0194 0.997903
1.00773 1 1.00966 0.998088
1.01007 1 1.01198 0.998113
1.00221 1 1.00381 0.998403
1.00472 1 1.00643 0.998307
1.00085 1 1.00228 0.998566
1.00015 1 1.00089 0.999261
0.999776 1 1.00115 0.998627
0.999557 1 1.00023 0.999325
0.999956 1 1 0.999956
0.999371 1 1 0.999371
0.999973 1 1 0.999973
1 1 1 1
0.999989 1 1 0.999989
1 1 1 1
1 1 1 1
0.998826 1 1 0.998826
0.999768 1 1 0.999768
0.999069 1 1 0.999069
1 1 1 1
0.999846 1 1 0.999846
0.999178 1 1 0.999178
1 1 1 1
1 1 1 1
0.99988 1 1 0.99988
1 1 1 1
1 1 1 1
1 1 1 1
0.598726 0.751843 0.880885 0.904027
0.687226 0.818611 0.901217 0.931522
0.685394 0.852976 0.88559 0.907341
0.575213 0.740656 0.865534 0.897279
0.895581 0.964412 0.944315 0.983389
0.986915 1.03547 0.956619 0.996327
0.892843 0.985126 0.939037 0.965163
0.656973 0.795177 0.883596 0.935039
0.540732 0.730799 0.831924 0.889408
0.92176 0.988419 0.94315 0.988771
0.846416 0.952454 0.927024 0.958625
0.646594 0.789063 0.879404 0.931819
0.599449 0.791186 0.848092 0.893368
0.879289 0.961945 0.928005 0.984988
0.791263 0.887791 0.930603 0.957736
0.692582 0.825615 0.907829 0.924037
0.674157 0.865692 0.86684 0.898377
1.00333 1 1.00546 0.997885
1.00012 1 1.00177 0.998352
0.998854 1 1 0.998854
0.99876 1 1 0.99876
0.998514 1 1.00081 0.997703
0.998668 1 1.00048 0.998189
0.998587 1 1.00018 0.998407
0.998142 1 1 0.998142
0.998393 1 1.00019 0.998205
0.998498 1 1 0.998498
0.966402 1.03445 0.936628 0.99743
0.980027 1.01109 0.972115 0.997085
0.967991 1.00129 0.969154 0.997514
0.97678 1.00095 0.977924 0.997884
1.03896 1 1.04148 0.997585
1.02121 1 1.02329 0.997969
1.01329 1 1.01555 0.997767
1.00983 1 1.01218 0.997684
0.95483 1.00282 0.954588 0.997438
1.01747 1 1.0198 0.997709
1.02987 1 1.03212 0.997816
0.964331 0.998495 0.96751 0.998216
1.00551 0.997279 1.01015 0.998124
0.943214 0.972595 0.972062 0.997664
0.961286 0.966648 0.995214 0.999235
1.04373 0.99437 1.05135 0.998377
1.00731 1 1.00951 0.997827
1.03109 0.999872 1.03328 0.998004
0.729583 0.872807 0.906613 0.922008
0.63552 0.771902 0.90245 0.912313
0.689 0.813869 0.910381 0.929911
1.00525 0.998493 1.00835 0.998432
1.01535 0.999881 1.01706 0.998436
0.976883 0.984656 0.993249 0.998849
0.609916 0.755796 0.890621 0.906093
0.796111 0.893512 0.929834 0.958226
0.837442 0.91038 0.938394 0.980273
0.932757 0.942938 0.991022 0.998165
0.675492 0.801178 0.902616 0.934089
0.700582 0.862709 0.894544 0.907806
0.674412 0.862853 0.862904 0.905788
1.00521 0.996493 1.00938 0.999376
0.716024 0.861591 0.904547 0.918745
0.692739 0.858521 0.884518 0.912246
0.976516 0.960663 1.017 0.999509
0.89312 0.922799 0.980664 0.986921
0.79044 0.878578 0.940976 0.956114
0.721024 0.91129 0.872324 0.907016
0.765388 0.869767 0.949259 0.92703
0.995443 0.963923 1.033 0.999711
0.705431 0.851663 0.897491 0.922905
0.734565 0.89851 0.892284 0.916229
0.671941 0.864025 0.865445 0.898598
0.935364 0.926329 1.01324 0.996565
0.876373 0.912741 0.996666 0.963367
0.823431 0.928744 0.952168 0.931147
1.01659 0.99728 1.02034 0.999043
1.0291 0.991404 1.03878 0.99927
1.03683 0.980606 1.05779 0.999566
1.00233 1 1.00455 0.997794
1.01233 0.9997 1.01447 0.998192
1.05181 0.99365 1.05933 0.999251
1.01019 1 1.0121 0.998114
1.04621 0.998135 1.04914 0.999079
1.0496 0.985841 1.06529 0.999421
1.0387 0.981437 1.05889 0.999489
1.02979 0.997039 1.03383 0.999058
1.01009 1 1.01182 0.998293
1.00478 1 1.00657 0.998226
1.01156 0.999395 1.01356 0.998633
1.01662 0.997592 1.02016 0.998933
1.0063 0.999468 1.0085 0.998351
1.00363 0.999399 1.00541 0.998827
0.997072 0.999976 0.998397 0.998697
1.00479 1.00044 1.00723 0.997136
1.00104 1.0015 1.00133 0.998205
1.00014 1.00208 1.00051 0.997552
1.00186 1.00367 1.00227 0.995936
1.01973 1.02277 1.00129 0.995743
1.00722 1.00721 1.00276 0.997253
1.00373 1.00597 1.00138 0.996386
1.01329 1.00026 1.01544 0.997621
1.00661 1.00247 1.00641 0.997733
0.999126 1.00046 1.00059 0.998085
1.0093 1 1.0114 0.997921
1.01581 1 1.01792 0.997931
1.00895 1 1.01076 0.9982
1.00972 1 1.01163 0.998114
1.00242 1 1.00403 0.998403
1.00059 1 1.00146 0.999133
1.00054 1 1.00198 0.998562
1.00015 1 1.00089 0.999257
0.999935 1 1 0.999935
0.999759 1 1.00043 0.999325
0.99995 1 1 0.99995
1 1 1 1
0.999967 1 1 0.999967
1 1 1 1
1 1 1 1
0.998505 1 1 0.998505
0.999502 1 1 0.999502
0.998825 1 1 0.998825
1 1 1 1
0.999703 1 1 0.999703
0.998979 1 1 0.998979
1 1 1 1
1 1 1 1
0.999852 1 1 0.999852
1 1 1 1
1 1 1 1
1 1 1 1
0.723222 0.87678 0.899652 0.916868
0.60746 0.753462 0.886831 0.909108
0.676273 0.811683 0.895347 0.930559
0.998199 1 1.00016 0.998036
0.696402 0.856462 0.888074 0.915594
0.685204 0.852561 0.885955 0.907157
0.589147 0.757061 0.862477 0.902288
0.931244 0.99273 0.949919 0.98752
0.842568 0.941465 0.92757 0.964837
0.646232 0.801905 0.870471 0.925787
0.588648 0.771457 0.850681 0.896968
0.876364 0.957682 0.932306 0.981533
0.814958 0.903127 0.936754 0.963299
0.680657 0.805431 0.91362 0.924983
0.674239 0.864444 0.866862 0.89976
0.818931 0.90326 0.927634 0.977368
0.795663 0.870877 0.952052 0.959648
0.777136 0.877023 0.954804 0.928051
0.72564 0.912156 0.876761 0.907341
1.00153 1 1.00379 0.997754
1.00435 1 1.00651 0.997849
0.99981 1 1.0014 0.99841
0.998276 1 1.0004 0.997875
0.998812 1 1.00103 0.997783
0.998543 1 1.00029 0.998251
0.998174 1 1.00003 0.998142
0.998334 1 1.00009 0.998244
0.95566 1.00352 0.954691 0.997501
0.964938 1.00113 0.965563 0.998228
1.00927 1 1.01168 0.997622
0.999059 0.999399 1.00158 0.998079
1.03028 0.999611 1.03296 0.997793
1.01707 1 1.01945 0.99767
1.00984 1 1.01205 0.997815
0.943275 0.970352 0.974217 0.997822
1.02756 0.999845 1.02977 0.998006
1.0332 0.996654 1.03831 0.998422
0.963673 0.971098 0.993067 0.999283
1.01099 1 1.01295 0.998065
0.928196 0.942202 0.987926 0.997175
0.993714 0.96874 1.02632 0.999476
1.06522 0.996177 1.07088 0.998536
1.04537 0.998123 1.04921 0.998211
0.708572 0.849811 0.899419 0.927043
0.729048 0.87268 0.906787 0.92129
0.631861 0.76947 0.901706 0.910678
1.00234 0.9967 1.00634 0.999322
0.979203 0.963989 1.01649 0.999305
0.720093 0.866368 0.90284 0.920609
0.810633 0.868293 0.969587 0.962878
0.881439 0.920927 0.973777 0.982895
0.75646 0.861655 0.949059 0.925037
0.692989 0.858615 0.884534 0.912458
0.719506 0.910044 0.872017 0.906666
1.00291 0.97449 1.02951 0.999669
0.706853 0.853485 0.897372 0.922913
0.737807 0.897544 0.895022 0.918446
0.950451 0.936789 1.01565 0.998954
0.672203 0.862893 0.865674 0.899889
0.843572 0.890792 0.986756 0.959702
0.821796 0.92329 0.956361 0.930688
0.994337 0.962367 1.03356 0.999667
0.742914 0.886797 0.903427 0.927301
0.69633 0.853747 0.890219 0.916198
0.607581 0.796822 0.84979 0.897286
0.771807 0.873664 0.95258 0.927391
0.930269 0.931742 1.00668 0.991793
0.886536 0.915264 1.01479 0.954499
1.02978 0.995424 1.03535 0.999188
1.03435 0.977052 1.05914 0.999534
1.02081 0.959477 1.06437 0.999582
1.01226 1 1.01417 0.998121
1.04885 0.997392 1.05255 0.999091
1.05787 0.986928 1.07253 0.999396
1.02526 0.997464 1.02885 0.999045
1.03692 0.983824 1.05451 0.999488
1.00486 0.982982 1.02304 0.999235
1.01664 0.998513 1.01928 0.998903
1.00659 0.999424 1.00882 0.998364
1.0068 0.999461 1.00855 0.998803
1.01286 0.99781 1.01707 0.998047
0.997777 0.998748 1 0.999028
1.0002 1.00033 1.0025 0.997371
1.00689 1.00216 1.00945 0.995308
1.00612 1.00826 1.00283 0.995061
1.00158 1.0039 1.00026 0.997422
1.00208 1.00435 1.00205 0.995707
1.02083 1.0246 1.00053 0.99579
1.01668 1.01763 1.00261 0.996469
1.01747 1.02042 1.00125 0.995857
1.01087 1.00385 1.00962 0.997405
1.01003 1.00947 1.00335 0.997212
1.00013 1.0024 1.00128 0.996455
1.01512 1 1.01717 0.997975
1.01293 1.00039 1.01491 0.997652
1.00805 1.0033 1.00699 0.997755
1.01437 1 1.01645 0.997959
1.00864 1 1.01046 0.998202
1.00272 1 1.0038 0.998927
1.00306 1 1.00467 0.998402
1.00096 1 1.00184 0.999128
0.99991 1 1 0.99991
1.00039 1 1.00114 0.999254
0.99993 1 1 0.99993
1 1 1 1
0.999944 1 1 0.999944
1 1 1 1
1 1 1 1
0.998418 1 1.00001 0.998411
0.999284 1 1 0.999284
0.998566 1 1 0.998566
0.999995 1 1 0.999995
0.999478 1 1 0.999478
0.998822 1 1 0.998822
1 1 1 1
1 1 1 1
0.999639 1 1 0.999639
1 1 1 1
1 1 1 1
1 1 1 1
0.712007 0.855327 0.899176 0.925779
0.724116 0.875002 0.902559 0.916903
0.608723 0.752039 0.890271 0.909195
0.99855 1 1.00047 0.998077
1.00265 1 1.00469 0.997965
0.998042 1 1 0.998042
0.737613 0.901486 0.893501 0.915745
0.694506 0.857302 0.884535 0.915856
0.683121 0.852925 0.883026 0.907013
0.883188 0.965742 0.929683 0.983687
0.781942 0.889471 0.917943 0.957694
0.686206 0.79486 0.924783 0.933521
0.678553 0.871354 0.868005 0.897153
0.824532 0.90964 0.924475 0.980489
0.813229 0.881441 0.961682 0.959374
0.765141 0.866905 0.950234 0.928838
0.721748 0.910556 0.874029 0.906887
0.840952 0.903779 0.951655 0.977753
0.848299 0.895919 0.985282 0.960992
0.823403 0.925083 0.955489 0.93155
0.684803 0.874935 0.868482 0.901216
0.999348 1 1.00137 0.997979
1.00164 1 1.00395 0.997707
1.00366 1 1.00586 0.997813
0.998084 1 1.00023 0.997859
0.998583 1 1.00072 0.997863
0.998142 1 1 0.998142
0.940224 0.96386 0.97744 0.997993
0.964598 0.971343 0.993745 0.999306
1.01002 1 1.01224 0.997803
1.02623 0.999144 1.02868 0.998466
1.02454 1 1.02659 0.998008
1.01087 0.999543 1.01328 0.998083
1.03287 0.993612 1.04134 0.998248
0.934016 0.940798 0.995499 0.997281
1.05993 0.993165 1.06863 0.998678
0.996266 0.960485 1.03801 0.999276
1.01968 0.991113 1.03046 0.998418
0.95876 0.942357 1.02067 0.996802
1.01156 0.965042 1.0491 0.999152
1.03114 0.967386 1.06719 0.998792
0.759845 0.897673 0.911091 0.929063
0.713385 0.852474 0.902337 0.927415
0.727789 0.87263 0.905971 0.920578
1.01072 0.984581 1.02693 0.999627
0.939409 0.935277 1.00732 0.997119
0.707229 0.853763 0.897548 0.922923
0.840629 0.877265 0.99401 0.964013
0.815885 0.926206 0.951275 0.92601
0.739565 0.897837 0.894712 0.920652
0.678562 0.87047 0.868622 0.897438
0.988731 0.957583 1.03279 0.999742
0.741366 0.883288 0.904301 0.928149
0.699245 0.860319 0.886839 0.916485
0.925612 0.927703 1.01068 0.987201
0.597019 0.787807 0.847962 0.893702
0.763658 0.865837 0.950627 0.927796
0.883204 0.914636 1.00386 0.961919
1.00773 0.950174 1.06263 0.998059
0.713167 0.853528 0.902174 0.926153
0.697148 0.860575 0.892182 0.907994
0.520293 0.685697 0.841354 0.901855
0.68005 0.814869 0.903479 0.923709
0.855231 0.894112 0.996061 0.960297
0.896977 0.915974 0.995664 0.983525
1.0295 0.975078 1.05634 0.999501
1.03014 0.972406 1.05982 0.999579
1.00976 0.972571 1.03881 0.999458
1.01828 0.998052 1.02125 0.999032
1.03441 0.986724 1.04886 0.999487
1.009 0.978553 1.03181 0.999319
1.00926 0.994126 1.01648 0.998761
1.01067 0.99975 1.01216 0.998777
1.01032 0.99899 1.01362 0.997752
1.02576 1.00068 1.02938 0.995813
0.995758 0.999834 0.99831 0.99761
1.00805 1.00184 1.01086 0.995384
1.00751 1.00325 1.00985 0.994455
1.01074 1.01418 1.00191 0.994703
1.01246 1.016 1.00108 0.995446
1.00616 1.00807 1.00312 0.995002
1.00202 1.00487 1.00169 0.995479
1.01623 1.01907 1.0011 0.996123
1.02252 1.02625 1.00048 0.995886
1.01004 1.00857 1.00464 0.996844
1.0188 1.01953 1.00274 0.996556
1.01699 1.01991 1.00117 0.995972
1.01484 1.00169 1.0155 0.997671
1.01181 1.00486 1.00955 0.997394
1.01314 1.01214 1.00383 0.997169
1.00905 1 1.01037 0.998698
1.01364 1 1.01569 0.997974
1.01294 1.00069 1.01459 0.997684
1.00815 1 1.00997 0.998204
1.00291 1 1.00399 0.998924
0.999862 1 1.00001 0.99985
1.00083 1 1.00171 0.999122
0.999901 1 1 0.999901
1 1 1 1
0.999925 1 1 0.999925
1 1 1 1
1 1 1 1
0.998338 1 1 0.998338
0.999253 1 1.00002 0.999231
0.998496 1 1.00006 0.99844
0.999977 1 1 0.999977
0.999334 1 1 0.999334
0.998627 1 1 0.998627
1 1 1 1
0.999997 1 1 0.999997
0.999455 1 1 0.999455
1 1 1 1
1 1 1 1
1 1 1 1
0.740307 0.884842 0.902761 0.926773
0.71748 0.856646 0.904671 0.925801
0.7264 0.87393 0.906439 0.916981
1.01844 1 1.02065 0.997832
1.00702 1.00049 1.00873 0.997822
0.998238 1 1.00012 0.998118
1.0029 1 1.00496 0.997943
0.998205 1 1.00014 0.998064
1.00406 1 1.00607 0.998007
0.997636 0.999456 1 0.998179
0.700724 0.868921 0.884247 0.911997
0.740974 0.900104 0.896747 0.917996
0.698278 0.855493 0.890962 0.916121
0.720212 0.910234 0.872907 0.90644
0.827282 0.914096 0.925635 0.977737
0.81755 0.878803 0.97029 0.958784
0.772068 0.881001 0.939776 0.932513
0.825472 0.904657 0.934272 0.976664
0.85053 0.889644 1.00102 0.95506
0.820169 0.921376 0.955736 0.931383
0.677216 0.867862 0.861747 0.905518
0.876255 0.915179 0.977032 0.979976
0.867831 0.900795 1.0089 0.954904
0.752088 0.8688 0.936255 0.924603
0.612879 0.802555 0.852006 0.896307
1.03681 0.998782 1.03976 0.998375
1.00075 0.999784 1.00296 0.998011
1.00251 1 1.00486 0.99766
0.997843 1 1 0.997843
0.94352 0.943835 1.00226 0.99741
0.996611 0.955465 1.04404 0.999069
1.00962 0.998983 1.01257 0.998101
1.0242 0.992988 1.0332 0.998285
1.04706 0.98435 1.06497 0.998821
1.02144 0.996069 1.0271 0.99842
1.03857 0.967539 1.07473 0.998779
0.957281 0.940717 1.02273 0.994992
1.01134 0.956884 1.05764 0.999315
1.01165 0.974144 1.03964 0.998906
0.944315 0.919823 1.03282 0.994003
0.992555 0.941155 1.05539 0.99926
0.712711 0.849931 0.904138 0.927461
0.756081 0.893684 0.908562 0.931171
0.719699 0.855326 0.906932 0.927779
0.982516 0.950009 1.03442 0.999805
0.932051 0.931583 1.00828 0.992285
0.738264 0.879141 0.903927 0.92901
0.892342 0.922281 1.01263 0.955468
0.766073 0.875531 0.939226 0.931598
0.70518 0.862175 0.892197 0.916735
0.587411 0.767836 0.852667 0.89721
1.00774 0.951602 1.06077 0.998323
0.717917 0.859279 0.902073 0.926187
0.69 0.853042 0.890996 0.907826
0.898891 0.916064 0.994844 0.986339
0.531698 0.708017 0.837997 0.896146
0.670984 0.796257 0.911681 0.924306
0.851536 0.892686 0.998151 0.95567
0.991234 0.95247 1.04502 0.995864
0.727846 0.881996 0.899718 0.917206
0.576232 0.735323 0.871105 0.899597
0.633758 0.7823 0.866646 0.934779
0.794711 0.857782 0.963979 0.961091
0.849367 0.889687 0.975433 0.978725
1.03868 0.977887 1.0626 0.99959
1.0129 0.969402 1.04543 0.999468
0.980692 0.970207 1.01159 0.999224
1.01323 0.974195 1.0407 0.999402
1.00789 0.983824 1.02561 0.998873
1.01018 1.0008 1.0118 0.997602
1.00685 1.00008 1.00934 0.997458
1.02544 1.00087 1.02904 0.99564
1.01352 1.00228 1.01661 0.994703
1.00967 1.00186 1.0124 0.99546
1.00849 1.0032 1.01098 0.99436
1.00306 1.00435 1.00448 0.994267
1.04237 1.04759 1 0.995017
1.0235 1.0278 1.00077 0.995058
1.01093 1.01416 1.00218 0.994645
1.0141 1.01829 1.00013 0.995754
1.01042 1.01422 1.00074 0.995509
1.00623 1.00775 1.00357 0.994943
1.01582 1.01859 1.00112 0.996176
1.01578 1.01866 1.00108 0.996095
1.02333 1.02702 1.00043 0.995983
1.00885 1.00346 1.00817 0.997228
1.0107 1.00873 1.00502 0.996948
1.01955 1.02004 1.00288 0.996643
1.01299 1.00058 1.01406 0.998368
1.01443 1.00216 1.01461 0.997678
1.01271 1.00623 1.00909 0.997383
1.00105 1 1.0013 0.999754
1.0086 1 1.00992 0.998694
1.01235 1 1.01441 0.997972
1.00332 1 1.0044 0.998921
1.00009 1 1.00025 0.999837
1 1 1 1
0.999892 1 1 0.999892
1 1 1 1
1 1 1 1
1.01409 1 1.01627 0.997848
1.00624 1 1.00814 0.998123
0.999065 1 1.00003 0.999037
0.999234 1 1.0009 0.998333
0.999946 1 1 0.999946
0.999247 1 1.00001 0.999233
0.998575 1 1.00011 0.99847
1 1 1 1
0.999984 1 1 0.999984
0.999383 1 1 0.999383
1 1 1 1
0.999999 1 1 0.999999
1 1 1 1
0.709181 0.853994 0.899684 0.923022
0.735903 0.880629 0.900834 0.927648
0.717746 0.860261 0.901192 0.925814
1.02047 1 1.02269 0.997836
1.00863 1.00058 1.01022 0.997848
1.00103 1.00107 1.00231 0.997663
1.02063 1 1.02283 0.997844
1.00695 1.00155 1.00756 0.997847
1.00468 1 1.00677 0.997921
0.999031 1 1.00095 0.998085
1.00426 0.999814 1.00645 0.998012
0.99832 1 1.0001 0.998224
1.02221 1 1.02399 0.998262
0.677496 0.842315 0.885611 0.908216
0.698338 0.863479 0.886463 0.912332
0.740574 0.899702 0.894482 0.920234
0.676127 0.867125 0.86063 0.906005
0.816657 0.92346 0.95454 0.926462
0.821068 0.898695 0.937039 0.97501
0.855131 0.891148 0.999191 0.960361
0.866281 0.917358 0.9675 0.976043
0.871577 0.9132 0.993531 0.960635
0.768934 0.869751 0.952478 0.928195
0.61694 0.81299 0.847923 0.894955
0.886549 0.909916 0.995406 0.978816
0.856645 0.885204 1.00658 0.961412
0.666243 0.78235 0.912267 0.933491
0.561584 0.733086 0.849599 0.901665
1.03101 0.999365 1.03278 0.998929
1.0376 0.998541 1.0408 0.998382
1.00415 1 1.00612 0.998046
0.956328 0.939442 1.02507 0.99308
1.01309 0.95191 1.06484 0.999464
1.0227 0.998686 1.02567 0.998422
1.04904 0.966457 1.08679 0.998767
1.01594 0.978978 1.03889 0.998912
0.998934 0.950372 1.05187 0.999265
0.944497 0.922884 1.02961 0.993985
1.01003 0.984876 1.02621 0.999345
0.960134 0.945736 1.02018 0.995142
0.734181 0.876191 0.909282 0.921522
0.72153 0.85681 0.907629 0.927815
0.751136 0.88946 0.904827 0.933312
1.01042 0.961564 1.05236 0.99853
0.894085 0.915131 0.995535 0.981385
0.725794 0.8661 0.904765 0.926211
0.855937 0.895187 0.998416 0.957671
0.673058 0.783585 0.921016 0.932608
0.679881 0.847862 0.883378 0.90774
0.542229 0.730842 0.833308 0.890335
0.988615 0.951586 1.04289 0.996186
0.726072 0.875819 0.903861 0.917199
0.575673 0.738136 0.868306 0.898187
0.863212 0.904054 0.973835 0.980478
0.646039 0.789021 0.878174 0.932373
0.793279 0.870353 0.951766 0.957636
0.939413 0.937531 1.00802 0.994033
0.600931 0.752632 0.88257 0.904675
0.656027 0.798096 0.878371 0.935811
0.791224 0.889947 0.928219 0.957822
0.823896 0.893512 0.939561 0.981402
1.0144 0.967965 1.04852 0.999481
0.984211 0.964104 1.02168 0.999195
0.992964 0.987238 1.00741 0.998401
1.00632 0.971898 1.03648 0.998979
1.00609 0.999143 1.00927 0.997698
0.995254 1.00353 0.995249 0.996489
1.02499 1.00083 1.0288 0.995463
1.01204 1.00294 1.01445 0.994698
1.00139 1.00489 1.00137 0.995156
1.00877 1.00297 1.01158 0.994266
1.00292 1.00494 1.0037 0.994307
1.03762 1.04289 0.999664 0.995283
1.06928 1.07571 0.998207 0.99581
1.05487 1.06002 1.00002 0.995119
1.04276 1.04794 1 0.995051
1.03112 1.03593 1 0.995353
1.02237 1.0264 1.00107 0.994998
1.01188 1.01491 1.00244 0.994588
1.02441 1.02867 1 0.995858
1.01249 1.01671 1.00002 0.995824
1.00822 1.01238 1.00032 0.995573
1.0083 1.00956 1.00211 0.996647
1.01268 1.01492 1.00156 0.996238
1.01618 1.01908 1.0011 0.996066
1.01259 1.0007 1.01403 0.99788
1.01157 1.00524 1.00909 0.997226
1.01116 1.00877 1.00533 0.997052
1.00331 1 1.00368 0.999627
1.01262 1.00071 1.01356 0.998365
1.01431 1.00257 1.01406 0.997686
0.999946 1 1 0.999946
1.00195 1 1.00221 0.999741
1.00826 1 1.00958 0.99869
1.00041 1 1.00058 0.999824
1 1 1 1
1 1 1 1
1.0095 1.00238 1.00946 0.997664
1.01279 1 1.01491 0.997911
1.01646 1 1.01868 0.99782
1.0014 1 1.00258 0.998826
1.00506 1 1.00696 0.998118
0.999902 1 1 0.999902
0.99934 1 1.0003 0.999042
0.999599 1 1.00127 0.998327
1 1 1 1
0.999956 1 1 0.999956
0.999236 1 1 0.999236
1 1 1 1
0.99999 1 1 0.99999
1 1 1 1
0.716951 0.864069 0.900493 0.921426
0.71316 0.857761 0.900733 0.923048
0.736865 0.875087 0.906879 0.928512
1.00233 1.00403 1.00078 0.99752
1.01816 1 1.02037 0.997839
1.0047 1 1.00683 0.997878
1.01399 1 1.01622 0.997798
1.00165 1.0022 1.00176 0.997693
1.00359 1.00032 1.00522 0.99805
1.01517 1.00167 1.01636 0.997172
1.01859 0.997453 1.02316 0.998077
1.00472 0.999695 1.00703 0.998017
0.998267 1 1 0.998267
1.02376 0.999343 1.02623 0.998246
1.04074 1.00171 1.04055 0.998476
0.59484 0.748949 0.880821 0.901696
0.692311 0.857491 0.889349 0.907819
0.69865 0.861729 0.888408 0.912592
0.621075 0.814562 0.84648 0.900748
0.761345 0.864812 0.949969 0.926723
0.871799 0.90506 1.00863 0.955005
0.869164 0.914788 0.97271 0.976782
0.884576 0.909502 0.991377 0.981053
0.552309 0.730601 0.843783 0.895924
0.846703 0.888836 0.995772 0.956642
0.67191 0.792159 0.914843 0.927154
0.883396 0.916472 0.980484 0.983095
0.819864 0.879203 0.968081 0.963254
0.634581 0.780483 0.871036 0.933443
0.990163 1.00132 0.989326 0.999529
1.0329 1.00029 1.0337 0.998935
1.03712 0.999137 1.03969 0.998387
0.947236 0.926726 1.02828 0.994022
1.00657 0.961416 1.04773 0.999273
1.02185 0.986932 1.03651 0.998919
1.00705 0.982706 1.02545 0.999344
0.955847 0.944712 1.01667 0.995196
0.982337 0.978516 1.00703 0.996898
0.637778 0.771049 0.909268 0.909695
0.730012 0.873967 0.904411 0.923568
0.725031 0.861623 0.906634 0.928126
0.989424 0.951577 1.04355 0.996382
0.857354 0.902426 0.968097 0.981364
0.722715 0.869192 0.906446 0.917296
0.809166 0.868568 0.972635 0.957819
0.64739 0.803557 0.869543 0.926529
0.592686 0.756869 0.867131 0.903067
0.937069 0.930055 1.01354 0.994079
0.609849 0.754222 0.888885 0.909657
0.643129 0.794959 0.87054 0.929318
0.82064 0.897792 0.935328 0.977266
0.816636 0.908159 0.933407 0.963375
0.930432 0.94849 0.983657 0.99726
0.678501 0.809332 0.903823 0.927556
0.867173 0.962162 0.933392 0.965592
0.820211 0.910125 0.922496 0.976922
0.987808 0.95933 1.03054 0.999171
0.981581 0.986663 0.996358 0.998486
0.992712 1.00047 0.99488 0.997354
1.0022 0.997879 1.00655 0.997794
0.997251 1.00352 0.997292 0.99645
1.00044 1.00753 0.996602 0.996345
1.0113 1.00412 1.01253 0.994693
1.00129 1.00449 1.00167 0.995156
1.03449 1.04518 0.993484 0.996265
1.00294 1.00544 1.00319 0.994348
1.03602 1.04163 0.99932 0.995291
1.06697 1.07757 0.993669 0.996478
1.06427 1.0741 0.994236 0.996596
1.0714 1.07666 0.999385 0.995723
1.07079 1.07722 0.998159 0.995861
1.05964 1.06459 1 0.995351
1.05278 1.05786 1 0.995195
1.04193 1.04707 1 0.995084
1.04469 1.04929 1 0.995615
1.03189 1.03654 1.00014 0.995374
1.02099 1.02467 1.00148 0.994938
1.02364 1.02758 1 0.99616
1.02215 1.02641 1 0.995856
1.01073 1.0149 1 0.995895
1.00665 1.00278 1.00648 0.99739
1.01086 1.01174 1.0025 0.996638
1.00951 1.01101 1.00223 0.996301
1.00428 1 1.00493 0.999356
1.01127 1.0016 1.01181 0.997876
1.01365 1.0073 1.0091 0.997223
1 1 1 1
1.00387 1 1.00431 0.999561
1.01159 1.00073 1.01252 0.998362
1 1 1 1
1.00273 1 1.00302 0.999715
1 1 1 1
1.00483 1.00557 1.00185 0.99742
1.00757 1.00147 1.00848 0.997626
1.01307 1.00026 1.0151 0.997743
1.00698 1 1.00838 0.998618
1.01481 1 1.01694 0.997908
1.02174 1 1.024 0.997792
0.999956 1 1.00012 0.999835
1.00074 1 1.00191 0.998831
1.00532 1 1.00722 0.998112
1 1 1 1
0.999914 1 1 0.999914
0.999373 1 1.00033 0.999047
1 1 1 1
0.999965 1 1 0.999965
1 1 1 1
0.611506 0.75932 0.892731 0.902101
0.721473 0.869145 0.900806 0.921503
0.717372 0.862286 0.901261 0.923088
1.00759 1.00254 1.00757 0.997489
1.01539 1.00777 1.01052 0.997073
1.02044 1.00228 1.02083 0.997343
1.01338 1 1.01566 0.997751
1.00251 1.00399 1.00081 0.997723
1.00476 0.999865 1.00666 0.998246
1.01894 0.999091 1.02192 0.997991
1.01676 1.00242 1.01702 0.997336
1.01855 1.00146 1.01965 0.997467
0.975941 1.00177 0.975223 0.998965
1.02325 0.999703 1.02537 0.998229
1.03544 1.00052 1.03652 0.99844
0.652362 0.796378 0.884952 0.925656
0.571442 0.726974 0.875454 0.897883
0.702294 0.866317 0.893107 0.907693
0.544522 0.729499 0.838706 0.889981
0.684057 0.803675 0.911622 0.933678
0.834785 0.882463 0.987319 0.958121
0.883972 0.908151 0.995247 0.978023
0.869565 0.907524 0.977459 0.980269
0.645867 0.782825 0.885736 0.931481
0.80049 0.873156 0.956838 0.958132
0.847494 0.911841 0.946192 0.982286
0.788616 0.90424 0.909792 0.958605
0.996124 1 0.99708 0.999041
0.989749 1.00069 0.98958 0.999476
1.03391 0.999585 1.03544 0.998941
0.945788 0.938078 1.01301 0.995268
1.00192 0.978537 1.02456 0.999344
0.983961 0.981007 1.00617 0.996856
0.965471 0.986484 0.982957 0.995668
0.700311 0.821104 0.912459 0.934715
0.632856 0.768416 0.905377 0.90966
0.732669 0.876243 0.903436 0.925521
0.938798 0.93636 1.00835 0.994302
0.824108 0.895516 0.941322 0.977625
0.611055 0.753728 0.891211 0.909673
0.783366 0.893647 0.914842 0.958192
0.65833 0.794905 0.885015 0.935789
0.93091 0.952481 0.981544 0.99573
0.689541 0.819111 0.903304 0.93193
0.848909 0.954575 0.927352 0.958973
0.821378 0.910414 0.920811 0.979792
0.940416 0.97531 0.967152 0.99697
0.886161 0.976473 0.940644 0.964777
0.877207 0.961241 0.92804 0.983338
0.969672 0.984831 0.986037 0.99855
0.986677 1.00037 0.988967 0.99732
0.982557 1.00912 0.976498 0.997111
0.998543 1.00322 0.998924 0.996413
1.00004 1.00724 0.996508 0.996335
1.02324 1.05022 0.97721 0.997034
1.00083 1.00383 1.00186 0.995157
1.03168 1.04371 0.992205 0.996239
1.04876 1.07702 0.976598 0.997097
1.03512 1.04107 0.998978 0.995298
1.06533 1.07696 0.992715 0.996467
1.05405 1.07473 0.983602 0.997103
1.05862 1.0734 0.989218 0.996987
1.06472 1.0752 0.993554 0.996673
1.06443 1.07107 0.997348 0.996445
1.07287 1.07743 0.999986 0.995784
1.0717 1.07676 0.999542 0.995753
1.07302 1.07951 0.998069 0.995912
1.06337 1.06813 1 0.995547
1.06113 1.06606 1 0.995376
1.05106 1.05605 1 0.995271
1.04546 1.0498 1 0.995865
1.04529 1.0499 1 0.995613
1.03282 1.03742 1.00017 0.995394
1.00696 1.00949 1.00052 0.996978
1.02376 1.02771 1 0.996162
1.02011 1.02436 1 0.995854
1.00332 1 1.00429 0.999027
1.00864 1.00472 1.00654 0.997385
1.01384 1.01386 1.00336 0.996629
1 1 1 1
1.00446 1 1.00513 0.999332
1.01126 1.00268 1.01071 0.997872
0.999958 1 1 0.999958
1.00479 1 1.00524 0.99955
1 1 1 1
1.00604 1.00835 1.00054 0.997163
1.00325 1.00271 1.00312 0.997431
1.00656 1.00102 1.00798 0.997576
1.00417 1.0002 1.0064 0.997587
1.01292 1.00037 1.01484 0.997747
1.01175 1 1.01337 0.998401
1.00095 1 1.00122 0.999736
1.0058 1 1.00719 0.998618
1.01454 1 1.01667 0.997906
1 1 1 1
0.999852 1 1 0.999852
0.999946 1 1.00111 0.998837
1 1 1 1
0.999929 1 1 0.999929
1 1 1 1
0.678626 0.810895 0.898203 0.931733
0.613624 0.758969 0.89443 0.903924
0.722819 0.87142 0.900042 0.921593
1.01086 1.00123 1.01219 0.997457
1.02523 1.00177 1.0264 0.997097
1.01241 1.00747 1.0078 0.997126
1.00957 1.01108 1.00242 0.996109
1.02296 1.00364 1.02192 0.99739
1.01713 1 1.01926 0.997911
1.01688 1.00268 1.01671 0.9975
1.01957 1.0017 1.02031 0.997585
0.997845 1.00667 0.994022 0.997192
0.965854 1.00153 0.965865 0.998456
0.969391 1.00035 0.971315 0.997669
0.981168 1.00179 0.980409 0.998985
1.03087 1.0008 1.03168 0.998407
0.845194 0.946217 0.92757 0.962983
0.644374 0.79032 0.878779 0.927802
0.563434 0.7195 0.870155 0.899945
0.644866 0.792108 0.879363 0.925799
0.805557 0.879106 0.954579 0.959938
0.877176 0.906586 0.984169 0.983123
0.845965 0.909742 0.944665 0.984366
0.825231 0.913696 0.936273 0.964654
0.865053 0.954044 0.922014 0.983415
0.991295 1.00132 0.991755 0.998219
0.996793 0.999931 0.997844 0.999016
0.989858 1.00037 0.990058 0.999424
0.987601 0.985505 1.00527 0.996875
0.974322 0.98921 0.988655 0.996252
0.872815 0.966163 0.93936 0.9617
0.700538 0.819651 0.913462 0.935647
0.626501 0.763451 0.902087 0.909687
0.933952 0.959771 0.978877 0.994096
0.828554 0.921926 0.919697 0.977192
0.680679 0.813718 0.898499 0.931003
0.84687 0.945565 0.928241 0.964861
0.948785 0.97675 0.974219 0.997075
0.895404 0.985323 0.941741 0.964959
0.874404 0.957974 0.931061 0.980348
0.947897 1.00157 0.949852 0.996374
0.914788 0.989897 0.934886 0.988489
0.984579 1.00215 0.985115 0.997315
0.977132 1.00901 0.971254 0.997066
0.985142 1.04265 0.947291 0.997419
0.999344 1.00686 0.996195 0.996323
1.0261 1.05188 0.978422 0.997
1.04131 1.08246 0.964483 0.997407
1.02858 1.04201 0.990866 0.996214
1.04894 1.07703 0.976779 0.997069
1.04199 1.07555 0.971385 0.997332
1.06293 1.07559 0.991748 0.996456
1.05374 1.07415 0.98387 0.99708
1.05406 1.07745 0.981063 0.997179
1.05693 1.07268 0.988244 0.997044
1.05921 1.0723 0.990971 0.996796
1.06481 1.0759 0.992922 0.996751
1.06448 1.07102 0.997455 0.996437
1.06553 1.07056 0.9991 0.996204
1.07027 1.07484 1 0.995743
1.07281 1.07738 0.999989 0.995772
1.07191 1.07674 0.999723 0.995783
1.05976 1.06431 1 0.995724
1.06473 1.0695 1 0.99554
1.06273 1.06764 1 0.995401
1.01954 1.02296 1 0.996657
1.04409 1.04842 1 0.995868
1.04553 1.05014 1 0.995612
1.0007 1.00003 1.00201 0.998652
1.01083 1.01304 1.00084 0.996981
1.02379 1.02773 1 0.996165
1 1 1 1
1.00275 1 1.00376 0.999
1.01005 1.00667 1.00599 0.99738
1 1 1 1
1.00413 1 1.00482 0.999307
1 1 1 1
1.02045 1.02357 1.00073 0.996223
1.00771 1.01009 1.00049 0.997151
1.00386 1.00312 1.0035 0.99725
1.00318 1.0002 1.00555 0.997443
1.00596 1.00047 1.00797 0.997534
1.01113 1.00106 1.01198 0.998101
1.01554 1.00021 1.01762 0.99775
1.01281 1 1.01443 0.998398
1.00449 1 1.0049 0.99959
1 1 1 1
1.00088 1 1.00113 0.99975
1.00632 1 1.00771 0.998618
1 1 1 1
0.999866 1 1 0.999866
1 1 1 1
0.886355 0.974426 0.940776 0.96688
0.689838 0.820764 0.901008 0.932824
0.610538 0.75776 0.893948 0.901298
1.03092 1.00122 1.03292 0.99685
1.01042 1.0081 1.00514 0.997181
1.01881 1.00316 1.01839 0.997255
1.00916 1.01073 1.00224 0.996213
1.03055 1.03466 1.00016 0.995867
1.00177 1.00716 0.997759 0.996882
1.02249 1.00244 1.02235 0.997699
0.999163 1.00821 0.994017 0.996991
0.974293 1.00272 0.97317 0.998439
0.995973 1.00388 0.994868 0.997237
0.971392 1.00345 0.970369 0.997613
0.993153 1.00156 0.994434 0.997158
0.969183 1.00082 0.970557 0.997768
0.986341 1.00048 0.986845 0.999006
0.879075 0.966568 0.924936 0.98329
0.853554 0.956898 0.926957 0.96229
0.658839 0.791056 0.891116 0.934626
0.799385 0.902189 0.924948 0.957946
0.858753 0.912263 0.955236 0.985456
0.868581 0.943725 0.931724 0.98782
0.962235 1.00377 0.961908 0.996586
0.988377 1.00032 0.989927 0.998119
0.996714 0.999291 0.998428 0.998992
0.977168 0.990123 0.990066 0.996819
0.905338 0.973025 0.94562 0.983942
0.88499 0.972573 0.939942 0.968088
0.690461 0.815181 0.911036 0.929714
0.946414 0.972096 0.976321 0.997193
0.876975 0.962108 0.928101 0.982128
0.89397 0.984744 0.940813 0.96493
0.943541 0.999377 0.947453 0.996492
0.918075 0.986921 0.941996 0.987522
0.949816 1.02546 0.929265 0.996742
0.964352 1.02315 0.947119 0.995161
0.970426 1.00887 0.96478 0.997013
0.982391 1.03976 0.947267 0.997419
1.00761 1.07994 0.935479 0.997376
1.02996 1.05425 0.97994 0.996966
1.04062 1.08182 0.964441 0.997383
1.04941 1.08406 0.970669 0.997282
1.04971 1.07749 0.977105 0.997041
1.04329 1.07529 0.972854 0.997313
1.05916 1.08528 0.978737 0.997137
1.05377 1.0739 0.984152 0.997057
1.05259 1.07524 0.981713 0.997173
1.05904 1.07832 0.985176 0.996903
1.05547 1.07221 0.987257 0.997101
1.05864 1.07209 0.990588 0.996842
1.06401 1.07252 0.995583 0.996464
1.0646 1.07106 0.997523 0.996429
1.06627 1.07106 0.999327 0.996193
1.06889 1.07335 0.999832 0.996014
1.06364 1.06817 1 0.995757
1.07063 1.07523 1 0.995719
1.07268 1.07725 1 0.995759
1.03537 1.03905 1 0.996456
1.05873 1.06327 1 0.995731
1.0662 1.07098 1 0.995533
1.00045 1.00182 1.00027 0.998359
1.02053 1.02394 1.00001 0.996656
1.04268 1.047 1 0.995872
1 1 1 1
1.00052 1.00044 1.00146 0.998631
1.01468 1.01658 1.00116 0.996983
1 1 1 1
1.00249 1 1.00352 0.998975
1 1 1 1
1.03812 1.04242 1 0.995881
1.02181 1.02515 1.00049 0.996254
1.01845 1.02067 1.00126 0.996582
1.00892 1.01122 1.00059 0.997139
1.00428 1.00402 1.00308 0.997181
1.00975 1.00602 1.00602 0.997703
1.00437 1 1.0069 0.997493
1.01089 1.00074 1.01207 0.998103
1.00507 1 1.00568 0.999395
1.01183 1 1.01345 0.998395
1.00308 1 1.00348 0.999601
1 1 1 1
1 1 1 1
1.00024 1 1.00047 0.999766
1 1 1 1
0.89931 0.966962 0.944704 0.984473
0.875663 0.971082 0.938403 0.96093
0.692539 0.813765 0.908704 0.936533
1.05391 1.05824 1.00007 0.995846
1.01394 1.0022 1.01464 0.997123
1.00983 1.01145 1.00208 0.996317
1.0023 1.0074 0.99804 0.996896
1.02909 1.03294 1.00042 0.995849
1.01483 1.01868 0.99936 0.996863
1.0014 1.00913 0.995539 0.99679
0.98013 1.0028 0.978935 0.998421
0.994637 1.00511 0.992313 0.99725
0.964212 1.00246 0.964289 0.997466
1.01858 1.02052 1.0016 0.996513
0.985799 1.0076 0.981072 0.997243
0.991708 1.00218 0.992392 0.99714
0.970995 1.00134 0.971772 0.997866
0.951966 1.00574 0.949225 0.997167
0.869093 0.959549 0.922637 0.981676
0.851206 0.959157 0.92262 0.961882
0.868092 0.937182 0.940021 0.985381
0.965156 1.00412 0.963434 0.997677
0.988418 1.00006 0.990331 0.998007
0.968253 1.00952 0.964867 0.994048
0.896476 0.957183 0.950548 0.985302
0.873522 0.971784 0.934534 0.961853
0.944578 0.997559 0.950114 0.996606
0.925619 0.989207 0.948658 0.986359
0.953117 1.02735 0.930598 0.996927
0.970576 1.02382 0.95225 0.99553
0.990746 1.05431 0.942391 0.997153
1.05731 1.09964 0.964339 0.997058
0.978508 1.03618 0.946783 0.997418
1.01412 1.08158 0.940116 0.997358
1.04213 1.09951 0.950542 0.997132
1.03936 1.08068 0.96431 0.997359
1.04547 1.08175 0.969098 0.997278
1.06075 1.09433 0.972213 0.997018
1.04427 1.0748 0.974236 0.997293
1.05667 1.08332 0.978192 0.997151
1.06291 1.08354 0.984055 0.996853
1.05105 1.07295 0.982377 0.997167
1.05941 1.07866 0.985213 0.996901
1.06359 1.07718 0.990757 0.996592
1.058 1.07178 0.990218 0.996889
1.0641 1.07282 0.995353 0.99651
1.07097 1.07564 0.999478 0.996177
1.06702 1.07157 0.999561 0.996183
1.06881 1.07319 0.99991 0.996008
1.06536 1.06979 1 0.995855
1.04291 1.0467 1 0.996378
1.06344 1.06798 1 0.995753
1.07101 1.07564 1 0.995695
1.00732 1.0091 1 0.998232
1.03352 1.03719 1 0.996457
1.05783 1.06236 1 0.995738
1 1 1 1
1.00249 1.00405 1.0001 0.998343
1.02152 1.02494 1 0.996656
1 1 1 1
1.00024 1.00087 1.00076 0.998609
1 1 1 1
1.05403 1.05858 1 0.995702
1.03835 1.04265 1 0.995873
1.03993 1.04394 1 0.996151
1.023 1.02657 1.00024 0.996285
1.02185 1.02416 1.00119 0.996555
1.01576 1.01569 1.00276 0.997316
1.00422 1.00451 1.00261 0.997112
1.00796 1.0036 1.00665 0.997707
1.00271 1 1.00355 0.99916
1.01145 1.00014 1.01323 0.998103
1.0046 1 1.00519 0.999409
1 1 1 1
1.00245 1 1.00284 0.999612
1 1 1 1
1 1 1 1
0.959406 1.01057 0.95256 0.996656
0.891889 0.96621 0.940778 0.981189
0.87509 0.96805 0.934598 0.967231
1.04882 1.05257 1.00001 0.996424
1.06406 1.07 0.998338 0.996099
1.05251 1.05673 1.00007 0.995939
1.00256 1.00765 0.998028 0.996908
1.02698 1.03053 1.00073 0.995829
1.01781 1.02244 0.99861 0.996853
1.04255 1.05592 0.990876 0.996437
0.994144 1.00673 0.99021 0.997265
0.959389 1.00189 0.960154 0.997319
1.02086 1.02379 1.00049 0.996651
1.0257 1.05269 0.977872 0.996417
0.986897 1.02978 0.960868 0.997386
0.994281 1.01061 0.986633 0.997175
0.992883 1.00271 0.993061 0.99712
0.953124 1.00716 0.948707 0.997515
0.876062 0.963847 0.927451 0.980022
0.965436 1.00351 0.963203 0.998809
1.03778 1.07444 0.968205 0.997598
0.965328 1.00822 0.96304 0.994208
0.899632 0.96533 0.948206 0.982849
0.956214 1.02968 0.931355 0.997099
0.975458 1.02408 0.95642 0.99592
0.984789 1.05452 0.936356 0.997346
1.05406 1.09852 0.962337 0.997086
1.05385 1.1114 0.950997 0.99708
1.09919 1.13748 0.969014 0.99724
1.02084 1.08426 0.944027 0.997339
1.04843 1.10243 0.953749 0.997132
1.06249 1.10389 0.965459 0.99694
1.04153 1.07954 0.967423 0.997275
1.0607 1.09369 0.972735 0.99702
1.06208 1.0886 0.978747 0.996823
1.0542 1.08138 0.977636 0.997165
1.06386 1.08443 0.984124 0.99685
1.06529 1.08111 0.988721 0.996604
1.05981 1.07903 0.985246 0.996898
1.06423 1.07779 0.990796 0.996589
1.07314 1.08007 0.997313 0.996256
1.06417 1.0731 0.995105 0.996556
1.07046 1.07524 0.999361 0.996189
1.06979 1.07419 1 0.995907
1.06873 1.07302 1 0.996003
1.0651 1.06952 1 0.995865
1.04332 1.04714 1 0.996355
1.01317 1.01497 1 0.998223
1.04252 1.04631 1 0.996379
1.06327 1.06781 1 0.995748
1 1 1 1
1.00895 1.01075 1 0.998221
1.03139 1.03505 1 0.996456
1 1 1 1
1.00427 1.00595 1 0.998327
1 1 1 1
1.06433 1.0688 0.999989 0.995826
1.05328 1.05781 1 0.995715
1.05445 1.05877 1 0.995918
1.03782 1.04213 1 0.995864
1.0408 1.04482 1 0.996152
1.0221 1.02474 1.00045 0.996974
1.02492 1.02727 1.00119 0.996528
1.01223 1.01203 1.00288 0.997318
1.00069 1.00027 1.00158 0.998841
1.00682 1.00177 1.00735 0.997713
1.00326 1 1.00408 0.999179
1 1 1 1
1.004 1 1.00458 0.999423
1 1 1 1
1 1 1 1
0.994019 1.05348 0.945697 0.997741
0.95659 1.00922 0.952135 0.995501
0.894416 0.968803 0.940117 0.982024
1.05749 1.06716 0.994572 0.996343
1.04855 1.05232 0.999775 0.996644
1.07413 1.08432 0.994318 0.996264
1.06377 1.07069 0.997447 0.996079
1.05076 1.05495 0.999999 0.996033
1.065 1.08912 0.981531 0.996248
1.021 1.02647 0.997827 0.996844
1.04129 1.05374 0.99178 0.996374
1.04896 1.09414 0.962021 0.996563
1.01867 1.02673 0.995351 0.99679
1.02677 1.05365 0.978086 0.996327
0.985852 1.03455 0.955379 0.99743
0.999384 1.01185 0.990548 0.997105
0.954265 1.00798 0.948787 0.997815
1.08587 1.12835 0.964977 0.997276
1.04393 1.07713 0.971492 0.997624
0.96443 1.0069 0.96324 0.994372
0.979501 1.05429 0.931353 0.997537
1.05134 1.09773 0.960511 0.997115
1.04773 1.10837 0.948035 0.997102
1.10524 1.14261 0.969974 0.997236
1.08035 1.11889 0.968344 0.997122
1.05445 1.10483 0.957146 0.997133
1.06341 1.10291 0.967131 0.99695
1.06254 1.09283 0.975331 0.996871
1.06069 1.09301 0.973321 0.997021
1.0627 1.08878 0.979173 0.996804
1.06449 1.08257 0.98665 0.996599
1.06482 1.08534 0.984202 0.996846
1.06563 1.08145 0.988735 0.9966
1.07393 1.084 0.994374 0.99631
1.06486 1.07839 0.990837 0.996587
1.07288 1.07983 0.997298 0.996256
1.07507 1.07945 1 0.995947
1.06997 1.07488 0.999233 0.996201
1.06942 1.0738 1 0.995914
1.04397 1.04783 1 0.996319
1.06474 1.06915 1 0.995875
1.04414 1.04796 1 0.996355
1.01398 1.01543 1 0.998569
0.999391 1 1 0.999391
1.01349 1.01515 1 0.998367
1.04206 1.04584 1 0.99638
1 1 1 1
1.01095 1.01276 1 0.99821
1 1 1 1
1.07683 1.08627 0.994908 0.996383
1.06921 1.07451 0.998982 0.996082
1.06436 1.0692 0.999617 0.995851
1.0569 1.06129 1 0.995869
1.05341 1.05793 1 0.995728
1.05363 1.05795 1 0.995909
1.02567 1.02908 1 0.996683
1.04201 1.04604 1 0.996153
1.02012 1.02259 1.00061 0.996973
1.00205 1.00345 1.00012 0.998484
1.00821 1.00807 1.00283 0.99732
1.00119 1.00025 1.00209 0.99886
1 1 1 1
1.00353 1 1.00433 0.999198
1 1 1 1
1 1 1 1
1.07228 1.12081 0.959568 0.997015
1.0035 1.06396 0.945306 0.997746
0.953413 1.00947 0.949818 0.99437
1.06691 1.08496 0.987012 0.996305
1.05302 1.06319 0.994023 0.996387
1.04836 1.05207 0.999616 0.996862
1.07286 1.08218 0.995098 0.996278
1.06346 1.0713 0.996617 0.996058
1.07076 1.10756 0.970132 0.996542
1.05988 1.08464 0.980891 0.996206
1.04044 1.05198 0.992692 0.996311
1.0443 1.08905 0.962218 0.996564
1.03254 1.05743 0.980153 0.996238
0.987928 1.04385 0.948814 0.997484
1.07632 1.10932 0.972949 0.99723
1.08721 1.12943 0.965208 0.997314
1.04944 1.08016 0.973851 0.997651
1.04205 1.10582 0.945047 0.997121
1.11139 1.14776 0.971 0.997233
1.08175 1.12089 0.967865 0.997126
1.06965 1.0939 0.980777 0.996994
1.06424 1.1019 0.968773 0.99696
1.06318 1.09269 0.976065 0.996854
1.06546 1.08369 0.986487 0.996648
1.06335 1.089 0.979593 0.996784
1.06514 1.0832 0.986681 0.996598
1.07328 1.08521 0.992642 0.99634
1.06601 1.08183 0.98875 0.996596
1.07367 1.08374 0.99438 0.996308
1.07803 1.0827 0.999709 0.995975
1.07259 1.07956 0.997281 0.996256
1.07532 1.07969 1 0.995952
1.04486 1.04879 1 0.996258
1.06904 1.07342 1 0.995921
1.04544 1.0493 1 0.996321
1.01267 1.0141 1 0.99859
1.04517 1.049 1 0.996356
1.01363 1.01509 1 0.998562
0.999423 1 1 0.999423
0.999711 1 1 0.999711
1.01389 1.01539 1 0.998526
1 1 1 1
1.06775 1.08328 0.989219 0.996399
1.07196 1.07784 0.998346 0.996189
1.0747 1.08478 0.994175 0.996514
1.06552 1.06989 1 0.995912
1.07164 1.07668 0.999239 0.996074
1.06431 1.06956 0.99921 0.995876
1.05753 1.06193 1 0.995857
1.03764 1.04129 1 0.9965
1.0534 1.05773 1 0.995901
1.02887 1.03229 1 0.996685
1.00884 1.01057 1 0.998282
1.01866 1.02122 1.00052 0.996974
1.00141 1.00236 1.00054 0.998507
1 1 1 1
1.00156 1 1.00269 0.998881
1 1 1 1
1 1 1 1
1.07016 1.10519 0.971324 0.996899
1.06415 1.11164 0.960141 0.997016
1.01134 1.07132 0.946151 0.997743
1.06762 1.09286 0.980365 0.996475
1.06422 1.08248 0.986779 0.996301
1.04835 1.05905 0.993437 0.996432
1.07139 1.07996 0.995756 0.996292
1.07017 1.10608 0.970911 0.996517
1.05407 1.07934 0.980345 0.996164
1.03503 1.07853 0.96298 0.996564
1.07298 1.09615 0.981754 0.997059
1.07515 1.10767 0.973374 0.997187
1.08837 1.13014 0.9656 0.997352
1.06854 1.08711 0.985975 0.9969
1.08297 1.12285 0.967263 0.997129
1.06929 1.09365 0.980693 0.996979
1.06749 1.08415 0.987831 0.996763
1.06383 1.09252 0.976831 0.996838
1.06571 1.08396 0.986466 0.996651
1.07284 1.08438 0.992959 0.996371
1.06574 1.08378 0.986714 0.996596
1.07321 1.08511 0.992669 0.99634
1.07888 1.08406 0.999217 0.996006
1.07333 1.08339 0.994389 0.996306
1.07856 1.08326 0.999681 0.995978
1.04371 1.04769 1 0.9962
1.07555 1.07992 1 0.995957
1.046 1.04993 1 0.996262
1.01062 1.01208 1 0.998565
1.04692 1.05078 1 0.996323
1.01206 1.0135 1 0.998575
0.999425 1 1 0.999425
1.01319 1.01465 1 0.998559
0.999439 1 1 0.999439
1 1 1 1
1.06606 1.08292 0.988082 0.99631
1.0728 1.08236 0.994943 0.996204
1.06968 1.0846 0.989811 0.996397
1.07366 1.07798 1 0.995991
1.07265 1.07955 0.99735 0.996242
1.07278 1.08342 0.993515 0.996644
1.04802 1.05182 1 0.996395
1.06565 1.07003 1 0.9959
1.07418 1.07892 0.999537 0.996066
1.05804 1.06246 1 0.995846
1.0384 1.04205 1 0.9965
1.01456 1.01635 1 0.99824
1.03069 1.03412 1 0.996686
1.00646 1.00817 1 0.998299
1 1 1 1
1.00071 1.00125 1.00094 0.998527
1 1 1 1
1 1 1 1
1.06878 1.09227 0.981651 0.996786
1.07092 1.10659 0.970803 0.996876
1.05874 1.10585 0.960264 0.997018
1.06729 1.09242 0.980439 0.996493
1.06143 1.07989 0.986555 0.996297
1.07073 1.10592 0.971587 0.996492
1.07061 1.08851 0.986622 0.996898
1.07294 1.09598 0.981878 0.997054
1.07394 1.10599 0.973799 0.997144
1.06883 1.08712 0.986211 0.996921
1.06622 1.08051 0.990014 0.996725
1.0689 1.09339 0.980581 0.996964
1.06797 1.08409 0.98837 0.996725
1.07189 1.08301 0.99324 0.996464
1.06599 1.08427 0.986447 0.996654
1.07274 1.0843 0.992941 0.996373
1.07847 1.08387 0.99899 0.996028
1.07325 1.08513 0.992691 0.996339
1.07895 1.08421 0.999142 0.996007
1.04142 1.04542 1 0.99617
1.07921 1.08394 0.999653 0.995982
1.04437 1.04835 1 0.996204
1.0081 1.0096 1 0.998512
1.04718 1.0511 1 0.996265
1.00985 1.01133 1 0.998544
0.999399 1 1 0.999399
1.01143 1.01289 1 0.998565
0.999453 1 1 0.999453
0.999448 1 1 0.999448
1.06765 1.08417 0.988142 0.996578
1.07365 1.08422 0.994068 0.996163
1.06565 1.08379 0.986879 0.996335
1.07714 1.08255 0.99897 0.996028
1.07309 1.08204 0.995523 0.996189
1.07153 1.08586 0.990371 0.996396
1.04887 1.05273 1 0.996332
1.07309 1.07787 0.999568 0.995997
1.07326 1.08127 0.99628 0.996295
1.0147 1.01647 1 0.998257
1.04674 1.05052 1 0.996395
1.06587 1.07028 1 0.995888
1.03942 1.04307 1 0.996499
1.01321 1.01499 1 0.99825
1 1 1 1
1.00456 1.00625 1 0.998316
1 1 1 1
1 1 1 1
1.06756 1.08504 0.98706 0.996788
1.06906 1.09243 0.981779 0.996775
1.07106 1.10733 0.9703 0.996853
1.06721 1.09215 0.980594 0.99651
1.06729 1.07925 0.992207 0.996683
1.07066 1.08871 0.986475 0.996909
1.07296 1.09583 0.982026 0.997049
1.06916 1.08715 0.986476 0.996942
1.06633 1.08097 0.989685 0.996735
1.0727 1.08251 0.994468 0.996447
1.06848 1.08402 0.988936 0.996687
1.07282 1.08324 0.993955 0.996411
1.07665 1.08264 0.998354 0.996107
1.07266 1.08423 0.992927 0.996375
1.07795 1.08342 0.998919 0.99603
1.03942 1.04343 1 0.996153
1.07875 1.08408 0.99907 0.996009
1.04186 1.04586 1 0.996172
1.00542 1.00727 1 0.998162
1.04489 1.04886 1 0.996207
1.00722 1.00889 1 0.998348
1 1 1 1
1.00908 1.01057 1 0.998525
0.999433 1 1 0.999433
0.999473 1 1 0.999473
1.06713 1.08048 0.990933 0.996681
1.07307 1.0841 0.993495 0.996305
1.06805 1.08365 0.989 0.996571
1.0769 1.08267 0.998683 0.995985
1.07314 1.0838 0.993977 0.996164
1.0653 1.08472 0.985686 0.996361
1.04536 1.04931 1 0.996237
1.07697 1.08223 0.999112 0.996029
1.07347 1.08175 0.996156 0.996174
1.01145 1.0132 1 0.998277
1.0473 1.05118 1 0.996311
1.07224 1.0774 0.99921 0.996003
1 1 1 1
1.01518 1.01694 1 0.998266
1.04533 1.04912 1 0.996395
1.01175 1.01351 1 0.998262
1 1 1 1
1 1 1 1
1.06599 1.07752 0.992591 0.996687
1.06826 1.08532 0.987441 0.996794
1.06918 1.09245 0.981875 0.996764
1.07373 1.08233 0.995645 0.996387
1.06651 1.07896 0.991736 0.996694
1.0707 1.08892 0.986309 0.996921
1.06638 1.08142 0.989313 0.996745
1.07258 1.0825 0.994367 0.996447
1.07603 1.08184 0.998506 0.996116
1.07367 1.08338 0.994661 0.996358
1.07679 1.08247 0.998671 0.996069
1.03744 1.04145 1 0.99615
1.07752 1.08306 0.998846 0.996032
1.03991 1.04392 1 0.996153
1.00349 1.00535 1 0.998149
1.04256 1.04656 1 0.996174
1.00486 1.00671 1 0.99816
1 1 1 1
1.00638 1.00824 1 0.998157
0.999689 1 1 0.999689
0.999463 1 1 0.999463
1.06382 1.0754 0.99256 0.996647
1.07403 1.08276 0.995529 0.99639
1.06667 1.07987 0.991064 0.996689
1.07664 1.08179 0.99925 0.995981
1.07372 1.08449 0.993757 0.996292
1.06837 1.08304 0.989856 0.996564
1.04155 1.04555 1 0.996175
1.07696 1.08226 0.999137 0.995969
1.07259 1.08336 0.993872 0.996164
1.00803 1.00979 1 0.998254
1.04456 1.04852 1 0.996227
1.0767 1.08188 0.999185 0.99603
1 1 1 1
1.01255 1.01429 1 0.998286
1.04603 1.04993 1 0.996289
1 1 1 1
1.01569 1.01744 1 0.998276
1 1 1 1
1.07434 1.08255 0.995978 0.996423
1.06535 1.07694 0.992538 0.996674
1.06891 1.08553 0.98785 0.9968
1.07579 1.08143 0.998666 0.99611
1.07326 1.08223 0.995295 0.996406
1.06573 1.07867 0.991265 0.996704
1.07247 1.08249 0.994279 0.996448
1.0755 1.08136 0.998457 0.996117
1.03489 1.03888 1 0.996159
1.07695 1.08235 0.998982 0.996031
1.03805 1.04207 1 0.996142
1.00185 1.00373 1 0.998129
1.04028 1.04429 1 0.996154
1.00295 1.00481 1 0.998147
1 1 1 1
1.00421 1.00606 1 0.998158
1 1 1 1
0.999435 1 1 0.999435
1.07446 1.08244 0.996213 0.996396
1.06297 1.07534 0.991806 0.996663
1.07637 1.08131 0.999383 0.996039
1.07442 1.08319 0.995498 0.996389
1.06624 1.07929 0.991177 0.996697
1.03884 1.04284 1 0.99617
1.07676 1.0818 0.99936 0.995977
1.07449 1.08497 0.994041 0.996279
1.0052 1.00702 1 0.9982
1.04134 1.04534 1 0.996174
1.07704 1.08186 0.999592 0.995953
1 1 1 1
1.00895 1.01071 1 0.99826
1.04382 1.04779 1 0.996218
1 1 1 1
1.0136 1.01533 1 0.998294
1 1 1 1
1.07592 1.08128 0.998905 0.996125
1.0744 1.08244 0.996139 0.996412
1.06471 1.07636 0.992493 0.99666
1.03286 1.03682 1 0.996179
1.07531 1.08098 0.998637 0.99611
1.07277 1.08209 0.994947 0.996425
1.07497 1.08088 0.998415 0.996117
1.03558 1.03957 1 0.996156
1.00058 1.00246 1 0.998129
1.03864 1.04267 1 0.996134
1.00146 1.00334 1 0.998127
1 1 1 1
1.00244 1.00431 1 0.998145
1 1 1 1
1 1 1 1
1.0768 1.08157 0.999515 0.996072
1.074 1.08245 0.995736 0.996446
1.06218 1.07535 0.991047 0.99668
1.0364 1.04037 1 0.996192
1.07655 1.08143 0.999454 0.996036
1.07477 1.08357 0.995466 0.996388
1.00272 1.00456 1 0.998163
1.03825 1.04225 1 0.996168
1.07681 1.08174 0.999468 0.995974
1 1 1 1
1.00595 1.00776 1 0.998203
1.04111 1.04511 1 0.996172
1 1 1 1
1.00984 1.01159 1 0.998265
1 1 1 1
1.03257 1.03652 1 0.996191
1.07545 1.0809 0.99883 0.996124
1.07447 1.08237 0.99629 0.996401
0.999554 1.00139 1 0.998166
1.03342 1.03739 1 0.996176
1.07484 1.08054 0.998603 0.996111
1.03628 1.04029 1 0.996152
1.00025 1.00212 1 0.99813
1 1 1 1
1.00108 1.00296 1 0.998125
1 1 1 1
1 1 1 1
1.03386 1.0378 1 0.996204
1.07618 1.08121 0.999246 0.996103
1.0735 1.0824 0.995265 0.996496
1.00087 1.00239 1 0.998492
1.03575 1.03971 1 0.996191
1.07665 1.08146 0.999525 0.996033
1 1 1 1
1.00341 1.00525 1 0.998164
1.03772 1.04171 1 0.996165
1 1 1 1
1.00669 1.0085 1 0.998207
1 1 1 1
0.998993 1.00085 1 0.998147
1.03268 1.03663 1 0.996193
1.07502 1.08055 0.998758 0.996122
1 1 1 1
0.999346 1.00118 1 0.998165
1.03399 1.03796 1 0.996172
0.999903 1.00178 1 0.998129
1 1 1 1
1 1 1 1
0.999591 1.00112 1 0.998472
1.03382 1.03776 1 0.996204
1.07566 1.08094 0.998976 0.996135
1 1 1 1
1.00121 1.00306 1 0.998163
1.03529 1.03925 1 0.99619
1 1 1 1
1.00406 1.00591 1 0.998165
1 1 1 1
0.999434 1 1 0.999434
0.999189 1.00086 1 0.99833
1.03273 1.03668 1 0.996194
1 1 1 1
0.999127 1.00096 1 0.998166
1 1 1 1
0.999441 1 1 0.999441
0.999773 1.00145 1 0.998328
1.03364 1.03758 1 0.996205
0.999712 1 1 0.999712
1.00179 1.00363 1 0.998167
1 1 1 1
1 1 1 1
0.999091 1.0009 1 0.998188
1 1 1 1
0.999721 1 1 0.999721
1.00002 1.00183 1 0.998187
1 1 1 1
1 1 1 1
1 1 1 1

VECTORS lamdaE float
1.00255 0.999925 0.992484
1.00208 1.00075 0.996202
1.00199 1.00012 0.992897
1.00232 1.00015 0.992521
1.00251 0.999924 0.992536
1.00259 1.00008 0.992327
1.0034 1.00077 0.98961
1.00215 1.00081 0.99613
1.00173 1.00005 0.996892
1.00136 1.00081 0.996896
1.00177 1.00128 0.991949
1.00344 1.00151 0.987533
1.00172 0.999955 0.993352
1.00141 1.00007 0.993582
1.00147 1.00034 0.993283
1.0019 1.00015 0.99296
1.00192 1.00046 0.992713
1.00203 0.999981 0.992959
1.00367 1.00067 0.989383
1.00178 1.00002 0.996491
1.00216 1.00017 0.992665
1.00241 1.00004 0.992537
1.00338 1.0003 0.990182
1.00343 1.00048 0.989883
1.0025 1.00036 0.992122
1.00335 1.00129 0.98915
1.00531 1.00143 0.98523
1.0022 1.00084 0.99605
1.00201 0.999943 0.994845
1.00176 1.00049 0.994793
1.00212 1.00121 0.995991
1.0034 1.0016 0.987498
1.00221 0.99982 0.992788
1.0022 0.999931 0.992768
1.00378 1.00038 0.990029
1.00056 1.00248 0.996818
1.00368 1.00101 0.989674
1.00347 1.00217 0.986808
1.00527 1.00276 0.983405
1.00073 1.00088 0.997064
1.00176 0.999979 0.996502
1.00169 1.00003 0.994989
1.00168 0.999958 0.996568
1.00124 1.00007 0.993786
1.00341 0.999857 0.989469
1.00163 0.99999 0.996878
1.00375 1.00018 0.99034
1.0015 1.00011 0.993399
1.00157 1.00003 0.993368
1.00132 1.00082 0.993081
1.00391 1.00055 0.989173
1.00156 1.00004 0.9951
1.00174 1.00021 0.993104
1.0019 1.00083 0.992449
1.00198 1.00003 0.992968
1.00359 1.00025 0.989947
1.00366 1.00111 0.98893
1.00366 1.00041 0.989652
1.00532 1.00139 0.985341
1.00168 0.999994 0.996545
1.002 1.0001 0.992931
1.00314 0.999938 0.991283
1.00329 1.00021 0.990382
1.0034 1.00035 0.990075
1.00526 0.999851 0.986984
1.00532 1.00024 0.986366
1.00257 1.00077 0.991619
1.00327 1.00225 0.988298
1.00532 1.00226 0.98429
1.0053 0.999194 0.986764
1.0024 0.999921 0.996281
1.002 1.00123 0.996088
1.00219 1.00043 0.996238
1.00336 1.00165 0.987463
1.00228 0.999897 0.996267
1.00233 1.00004 0.996294
1.00362 1.00037 0.988448
1.00089 1.00183 0.994613
1.00347 1.00095 0.988075
1.00342 1.00246 0.98786
1.00531 1.00267 0.983374
1.00111 1.00125 0.996634
1.00131 1.00297 0.989738
1.00373 1.00027 0.98846
1.00375 1.00041 0.98826
1.00534 1.00026 0.985892
1.00273 1.00331 0.989267
1.00536 1.00163 0.984392
1.00459 1.00379 0.98316
1.00542 1.00144 0.984251
1.00043 1.00016 0.997516
1.00054 1.0007 0.997236
1.00208 0.99999 0.99631
1.00183 0.999978 0.996469
1.00172 0.999963 0.99656
1.00157 0.999994 0.995132
1.00344 0.999857 0.990203
1.00188 0.999987 0.994876
1.00362 1.0002 0.989613
1.00169 0.999969 0.996579
1.00325 0.999717 0.989782
1.00365 1.00005 0.990616
1.0054 0.998348 0.987907
1.00373 1.00023 0.990242
1.00536 0.998864 0.987428
1.00174 0.999952 0.99335
1.00131 1.00024 0.993546
1.00126 1.00127 0.992764
1.00156 0.999995 0.993396
1.00379 1.00023 0.989713
1.00388 1.00036 0.989429
1.00393 1.00099 0.988719
1.00533 1.00136 0.985448
1.00173 0.999971 0.996561
1.0016 1.0001 0.993366
1.00337 0.999825 0.990116
1.00349 1.00017 0.990145
1.00218 1.0014 0.993751
1.00359 1.00201 0.988527
1.00362 1.0003 0.989842
1.00527 0.999564 0.987328
1.00532 1.00227 0.984428
1.00532 1.00051 0.986175
1.0053 0.999217 0.986781
1.00325 0.999754 0.989745
1.0032 0.999975 0.990697
1.00537 0.998126 0.988693
1.00529 0.998899 0.987978
1.00528 0.999671 0.987159
1.00532 0.996539 0.989725
1.00139 1.00162 0.996342
1.00533 0.998062 0.98782
1.00324 1.00316 0.986265
1.00534 1.00331 0.982505
1.0053 1.00039 0.985652
1.00528 0.996333 0.989449
1.00184 1.0036 0.988065
1.00352 1.00431 0.985295
1.00234 0.999896 0.996269
1.00237 1.00009 0.996281
1.00362 1.00037 0.988423
1.00126 1.00145 0.996546
1.00293 1.00271 0.987037
1.00352 1.00086 0.988056
1.00536 1.0026 0.983336
1.00093 1.00126 0.996815
1.00136 1.00311 0.989726
1.00375 1.00032 0.989277
1.00379 1.00049 0.989044
1.00533 1.00028 0.985856
1.00215 1.00339 0.987646
1.00535 1.00166 0.984355
1.00492 1.00345 0.983134
1.00539 1.0012 0.984536
1.00174 1.00321 0.988748
1.00101 1.00257 0.990868
1.00244 1.00366 0.986905
1.00528 0.999716 0.986569
1.00537 1.0009 0.985165
1.00536 0.997602 0.988392
1.00363 1.00394 0.984536
1.00531 0.999529 0.986486
1.00542 1.00313 0.982914
1.00545 0.998955 0.986379
1.00027 0.999432 0.99798
1.00027 1.00004 0.997719
1.00034 1.00061 0.997432
1.00164 1.00324 0.988972
1.00088 1.00132 0.996794
1.00224 0.999936 0.996266
1.00192 0.999988 0.996384
1.00342 1.00024 0.988944
1.00327 0.999864 0.989563
1.0017 0.999959 0.996546
1.00166 0.999958 0.996579
1.00323 0.999728 0.989779
1.00352 1.00003 0.989904
1.00538 0.998356 0.987917
1.00355 1.0003 0.988689
1.00534 0.99888 0.987422
1.00321 0.999689 0.989837
1.00539 0.998272 0.987991
1.00539 0.99853 0.987715
1.00527 0.995026 0.991658
1.0053 0.999269 0.987076
1.00521 0.995415 0.991167
1.00168 0.999969 0.996568
1.00115 1.00018 0.993799
1.00339 0.999779 0.989121
1.0037 1.00015 0.989906
1.00123 1.00222 0.996434
1.00393 1.00146 0.988762
1.00383 1.00028 0.989611
1.00528 0.99927 0.987671
1.00533 1.00077 0.985982
1.00532 1.00221 0.984572
1.00528 0.999239 0.986797
1.00324 0.999748 0.989748
1.00339 1 0.990463
1.00538 0.998046 0.988522
1.00531 0.999197 0.987618
1.00165 1.00162 0.996168
1.00324 1.00293 0.987382
1.00519 1.00361 0.982948
1.00528 0.999716 0.987112
1.00529 0.996248 0.99011
1.00529 1.00028 0.985744
1.00534 0.998326 0.987682
1.00528 0.996383 0.989432
1.00197 1.00345 0.988059
1.00325 1.00423 0.985221
1.00539 0.998407 0.987867
1.00536 0.998484 0.988356
1.0053 0.995829 0.99068
1.00532 0.995607 0.990822
1.00533 0.997345 0.988718
1.00529 0.994982 0.991119
1.00257 1.00355 0.986935
1.00529 0.995378 0.990476
1.00516 1.00423 0.982405
1.00535 1.00151 0.984148
1.0053 0.998074 0.9878
1.00527 0.995319 0.990546
1.0038 1.00454 0.984047
1.003 1.00401 0.986573
1.00467 1.00393 0.98367
1.00358 1.00035 0.98854
1.0007 1.00115 0.996965
1.00122 1.0032 0.98972
1.00361 1.00048 0.98829
1.00533 1.00029 0.985822
1.00224 1.00341 0.987672
1.00518 1.0032 0.983107
1.00534 1.00169 0.984316
1.00537 1.00094 0.984825
1.00161 1.00335 0.988773
1.00078 1.0027 0.990866
1.00249 1.00416 0.986905
1.00529 0.999734 0.986531
1.00535 1.00093 0.985129
1.00535 0.99757 0.988396
1.004 1.00359 0.984497
1.00532 0.999641 0.98637
1.00542 1.00311 0.982825
1.00543 0.998556 0.986703
1.00064 1.00206 0.991856
1.00311 1.00381 0.985991
1.00191 1.00466 0.987202
1.00281 1.00137 0.987702
1.00535 0.996576 0.989493
1.00533 0.998659 0.987287
1.00532 0.995345 0.990387
1.00495 1.00428 0.982345
1.00534 0.996759 0.989053
1.00531 1.00117 0.984942
1.0055 0.997143 0.988096
1.00038 1.00381 0.99068
1.00029 1.00118 0.993338
1.00023 0.998921 0.998208
1.00021 0.999343 0.998071
1.00019 0.999849 0.99789
1.00128 1.00319 0.989707
1.00072 1.00106 0.997006
1.00167 1.00322 0.988904
1.00108 1.00144 0.996629
1.00351 1.00033 0.988698
1.00336 1.00002 0.989257
1.00531 0.998897 0.987422
1.00537 0.998369 0.987927
1.00324 0.999745 0.989783
1.00172 0.999943 0.996576
1.00323 0.999684 0.989843
1.00539 0.998281 0.987999
1.00538 0.998549 0.98772
1.00527 0.994989 0.991659
1.00529 0.999284 0.987053
1.00526 0.995345 0.991167
1.00539 0.998299 0.987969
1.00529 0.994995 0.991674
1.00525 0.995149 0.991502
1.00507 0.994971 0.991843
1.00525 0.995828 0.990504
1.00519 0.994931 0.991534
1.00325 0.999748 0.989757
1.0036 0.999967 0.990228
1.00539 0.997939 0.98836
1.00533 0.999486 0.987257
1.00184 1.00172 0.995996
1.00354 1.00285 0.988237
1.00498 1.00364 0.983381
1.00528 0.999747 0.987064
1.00527 0.995962 0.990494
1.00534 0.998591 0.987545
1.00529 1.00018 0.985834
1.00528 0.996439 0.989414
1.00207 1.00334 0.988054
1.00308 1.0041 0.985151
1.00539 0.99808 0.988213
1.00537 0.998454 0.988354
1.00529 0.995825 0.990687
1.00528 0.995968 0.990442
1.00257 1.00354 0.986895
1.00479 1.00416 0.982428
1.00539 1.00175 0.983906
1.00534 0.997432 0.98866
1.0053 0.994953 0.991139
1.0053 0.997828 0.988081
1.00528 0.995415 0.99044
1.00528 0.995305 0.990431
1.00376 1.00464 0.98403
1.00427 1.00402 0.983576
1.00253 1.00405 0.986599
1.00531 0.995717 0.990821
1.0053 0.995996 0.990438
1.00507 0.994968 0.991864
1.00521 0.994932 0.991413
1.00531 0.994975 0.99089
1.00528 0.99491 0.991024
1.00453 1.00406 0.983194
1.00528 0.99487 0.99084
1.00543 1.00343 0.982329
1.00537 0.999442 0.986042
1.00527 0.996576 0.989294
1.00532 0.995131 0.990537
1.00201 1.00508 0.986596
1.00514 1.00476 0.981894
1.00326 1.00297 0.985693
1.00515 1.00404 0.982315
1.0053 0.99975 0.986495
1.00063 1.00286 0.990862
1.0015 1.00357 0.988799
1.0023 1.00436 0.986895
1.00534 1.00095 0.985094
1.00535 0.99754 0.988402
1.0044 1.00307 0.984464
1.00541 1.00309 0.982728
1.00533 0.999767 0.986255
1.00541 0.998182 0.987029
1.00048 1.00222 0.991863
1.00319 1.00347 0.986137
1.00173 1.00484 0.987061
1.00333 1.00155 0.987779
1.00534 0.99657 0.989505
1.00534 0.998625 0.987282
1.00532 0.99532 0.990418
1.00517 1.00437 0.982207
1.00534 0.997037 0.988761
1.0053 1.00099 0.984934
1.0055 0.996969 0.988404
1.00043 1.00179 0.992533
1.00182 1.0051 0.987336
1.00362 1.00376 0.984646
1.00338 1.0026 0.987064
1.00307 1.0016 0.988522
1.00532 0.994952 0.99085
1.00533 0.995979 0.989666
1.00534 0.994865 0.990588
1.00516 1.00337 0.983009
1.00542 0.995563 0.989881
1.00522 0.999229 0.986605
1.00076 1.00436 0.989406
1.00029 1.00511 0.989587
1.00017 1.00304 0.991653
1.0002 1.00386 0.990686
1.00021 1.00028 0.995076
1.00026 1.00099 0.993889
1.00039 0.998159 0.996567
1.00021 0.998852 0.99828
1.00017 0.999289 0.998134
1.00045 1.00291 0.991072
1.00033 1.00073 0.99743
1.00131 1.0031 0.98968
1.00077 1.00111 0.996949
1.0017 1.00319 0.988841
1.00129 1.00147 0.996456
1.00527 0.999301 0.987028
1.00536 0.998564 0.987723
1.00531 0.995295 0.991167
1.00528 0.994966 0.991661
1.00538 0.998291 0.988006
1.00323 0.999671 0.989845
1.00539 0.998304 0.98797
1.00529 0.994982 0.991673
1.00527 0.995106 0.991508
1.00507 0.994967 0.991819
1.00529 0.995801 0.990507
1.00517 0.99493 0.991543
1.0053 0.995021 0.991625
1.00507 0.99496 0.991837
1.0051 0.994969 0.991754
1.00523 0.994949 0.991544
1.00529 0.994866 0.991192
1.00526 0.994936 0.991153
1.0054 0.997747 0.988557
1.00537 0.998445 0.988354
1.00529 0.995831 0.990695
1.00525 0.996331 0.990063
1.00258 1.00348 0.986853
1.00451 1.00453 0.982456
1.00542 1.00197 0.983669
1.00535 0.997515 0.988602
1.00531 0.994914 0.991159
1.00527 0.995447 0.990403
1.0053 0.997563 0.988361
1.00528 0.99528 0.990317
1.00363 1.00474 0.984015
1.00402 1.00439 0.983482
1.00224 1.00437 0.986621
1.0053 0.995399 0.99119
1.00529 0.996007 0.990443
1.00508 0.994963 0.991826
1.00522 0.994932 0.991419
1.00431 1.00435 0.983258
1.00542 1.00344 0.982416
1.0054 0.999625 0.985731
1.00531 0.995063 0.990779
1.00528 0.994915 0.99099
1.00526 0.996435 0.989305
1.00529 0.994868 0.990821
1.00531 0.995104 0.990562
1.00483 1.00485 0.98192
1.00513 1.00442 0.982166
1.00219 1.00494 0.986667
1.00352 1.00341 0.985834
1.00507 0.994964 0.991905
1.00512 0.994951 0.991587
1.00521 0.994959 0.991564
1.00526 0.994916 0.991091
1.00529 0.994875 0.990889
1.00531 0.994921 0.990825
1.00533 1.00469 0.981436
1.00534 0.994821 0.990661
1.00532 1.00168 0.983976
1.00535 0.998446 0.9869
1.00526 0.995908 0.989735
1.00533 0.994962 0.990584
1.00203 1.00509 0.98676
1.00334 1.00386 0.98593
1.00517 1.00482 0.981517
1.00419 1.00258 0.985407
1.00511 1.00439 0.98197
1.00032 1.00228 0.991873
1.00532 0.996564 0.989517
1.00193 1.0051 0.98692
1.00314 1.00337 0.986294
1.00362 1.00161 0.987857
1.00535 0.99859 0.987277
1.00533 0.995293 0.990449
1.00529 1.00416 0.982072
1.0053 1.00086 0.984922
1.00533 0.997298 0.98847
1.0055 0.996803 0.98871
1.00038 1.00171 0.992567
1.00155 1.00511 0.987353
1.00401 1.00344 0.984754
1.00313 1.00282 0.986944
1.00349 1.00116 0.987558
1.00533 0.994944 0.990883
1.00533 0.995944 0.989698
1.00534 0.994886 0.9906
1.00516 1.00346 0.982961
1.00544 0.995711 0.989687
1.00522 0.999287 0.986906
1.0013 1.00489 0.988173
1.00311 1.00512 0.98613
1.00359 1.00388 0.984492
1.00393 1.00225 0.986644
1.00457 1.00224 0.98616
1.00533 0.994829 0.990816
1.00535 0.994984 0.990307
1.0053 0.994838 0.9905
1.00503 1.00126 0.984865
1.00522 0.997708 0.987919
1.00064 1.00454 0.989407
1.00055 1.0051 0.988897
0.999694 1.00508 0.989669
1.00047 1.00455 0.990451
1.00027 1.00461 0.9905
1.00004 1.00268 0.992217
1.00001 1.00327 0.991671
1.00009 0.99987 0.995616
1.00007 1.00408 0.99069
1.00019 1.00024 0.995166
1.0003 0.99766 0.997066
1.00024 1.0009 0.994425
1.00023 0.998302 0.997561
1.00017 0.998671 0.998355
0.999918 1.00186 0.992935
1.00068 1.00261 0.99113
1.00005 0.999686 0.998085
1.00058 1.00067 0.99723
1.00139 1.00288 0.989655
1.00087 1.00116 0.996867
1.00532 0.99577 0.99051
1.00528 0.995049 0.991512
1.00515 0.994929 0.991553
1.00507 0.994964 0.991795
1.00529 0.994963 0.991672
1.00539 0.998307 0.987972
1.0053 0.995021 0.991622
1.00508 0.994963 0.99184
1.00509 0.994971 0.991757
1.00523 0.994945 0.991512
1.00528 0.99486 0.991219
1.00526 0.994934 0.991161
1.00508 0.994959 0.991861
1.00525 0.994948 0.991593
1.00522 0.99495 0.991382
1.00528 0.994925 0.991438
1.0053 0.994895 0.991003
1.00531 0.994929 0.99106
1.0053 0.995085 0.991559
1.00528 0.996017 0.990447
1.00509 0.99496 0.991787
1.00523 0.994932 0.991426
1.00401 1.00456 0.983324
1.00541 1.00346 0.982496
1.00543 0.999767 0.985424
1.0053 0.995157 0.990669
1.00529 0.994919 0.990955
1.0053 0.994867 0.990801
1.00525 0.996294 0.989315
1.0053 0.995071 0.99059
1.0045 1.00504 0.981946
1.00479 1.005 0.982018
1.00215 1.00456 0.986734
1.00307 1.00304 0.985968
1.00508 0.994965 0.991903
1.00513 0.994952 0.991629
1.00521 0.994956 0.99153
1.00526 0.994917 0.991092
1.00527 1.00465 0.981515
1.00533 1.00183 0.98379
1.00534 0.998465 0.986875
1.00529 0.994872 0.990921
1.0053 0.994916 0.99083
1.00526 0.995873 0.989747
1.00533 0.994823 0.99065
1.00531 0.994906 0.990712
1.00509 1.00478 0.981594
1.00497 1.00479 0.981936
1.00371 1.00338 0.985478
1.00161 1.00496 0.987058
1.0027 1.00382 0.985872
1.00524 0.994952 0.991522
1.00526 0.994933 0.991332
1.00532 0.99489 0.990825
1.00532 0.994893 0.990701
1.00524 1.00379 0.982349
1.00531 0.994771 0.990608
1.00525 1.00074 0.984379
1.00531 0.997846 0.987484
1.00531 0.995275 0.989911
1.00043 1.00465 0.989345
1.00237 1.00504 0.98597
1.00381 1.00378 0.986005
1.005 1.0045 0.982312
1.00423 1.00439 0.984034
1.00507 1.0043 0.982582
1.00033 1.00172 0.992598
1.00132 1.00514 0.98737
1.00533 0.994937 0.990916
1.00261 1.00318 0.986822
1.0048 1.00346 0.984864
1.00403 1.00059 0.986605
1.00532 0.995912 0.989729
1.00533 0.994907 0.990611
1.00515 1.0035 0.98293
1.00521 0.999368 0.98721
1.00546 0.995844 0.989491
1.0012 1.00498 0.988178
1.00236 1.00514 0.986148
1.00417 1.00421 0.983569
1.00392 1.00164 0.986794
1.00434 1.0017 0.986008
1.00533 0.99483 0.990822
1.00537 0.995043 0.990297
1.00533 0.994831 0.990453
1.00502 1.00123 0.98512
1.00521 0.99782 0.987803
1.00207 1.00511 0.987318
1.00165 1.00515 0.986402
1.00452 1.00269 0.984862
1.00247 1.00165 0.986361
1.00523 1.00106 0.986322
1.00534 0.994811 0.990653
1.00541 0.995599 0.989393
1.00538 0.994944 0.989862
1.00505 0.999798 0.986535
1.00512 0.998623 0.987346
1.00054 1.00462 0.989411
1.00084 1.00508 0.988742
0.999442 1.00378 0.991488
0.999509 1.00508 0.989734
0.999828 1.00472 0.99048
0.999564 1.00471 0.990694
0.999822 1.00315 0.992024
0.999418 1.00509 0.990634
0.999783 1.00439 0.991012
1.00005 1.0025 0.992365
1.00004 1.0026 0.99221
1.00004 0.999589 0.995929
0.999903 1.00323 0.991682
1.00013 0.999747 0.995673
1.00021 0.99743 0.997401
1.0002 1.00009 0.995259
1.00026 0.997729 0.997037
1.00003 0.998419 0.998579
0.999822 1.00077 0.994241
1.00007 1.00182 0.99288
0.999889 0.998863 0.998572
1.00095 1.0024 0.991186
1.00024 0.999943 0.997835
1.00069 1.00091 0.99709
1.00526 0.994855 0.991245
1.00508 0.994974 0.99176
1.00525 0.994932 0.991169
1.00523 0.99494 0.991479
1.00508 0.994967 0.991843
1.0053 0.995009 0.991619
1.00508 0.99496 0.991893
1.00525 0.994951 0.991591
1.00522 0.994952 0.991399
1.00528 0.99492 0.991419
1.0053 0.994898 0.991006
1.00531 0.994922 0.991026
1.00525 0.994952 0.991554
1.00531 0.994927 0.991456
1.00529 0.994912 0.991325
1.00535 0.994871 0.990765
1.00508 0.994967 0.991902
1.00513 0.994952 0.99167
1.0052 0.994951 0.991496
1.00527 0.994918 0.991092
1.0052 1.00458 0.981595
1.00535 1.00198 0.983602
1.00533 0.998518 0.986849
1.00529 0.99487 0.990953
1.00529 0.994912 0.990835
1.00533 0.994825 0.990639
1.00525 0.995867 0.989759
1.0053 0.994862 0.990838
1.0052 1.00483 0.981667
1.00476 1.00476 0.981904
1.00435 1.00332 0.985544
1.00147 1.00473 0.987377
1.00258 1.00422 0.985824
1.00523 0.994952 0.991516
1.00526 0.994935 0.991345
1.00532 0.994899 0.990846
1.00524 1.00393 0.982361
1.00525 1.00096 0.984297
1.0053 0.997745 0.987495
1.00532 0.994895 0.990716
1.00531 0.995289 0.990081
1.00533 0.994772 0.990627
1.00022 1.00425 0.989651
1.00493 1.00431 0.982364
1.00495 1.00448 0.98216
1.00453 1.00362 0.983865
1.00381 1.00327 0.986144
1.00247 1.00492 0.985935
1.0053 0.994931 0.991409
1.00533 0.994901 0.991101
1.00534 0.994885 0.99066
1.00531 0.994847 0.990558
1.0051 1.00322 0.983316
1.00531 0.994782 0.99048
1.00513 1.00072 0.985013
1.0053 0.996927 0.987897
0.999997 1.00302 0.991243
1.00135 1.00514 0.988029
1.00357 1.00443 0.985821
1.00288 1.00406 0.985652
1.00457 1.00317 0.984486
1.00501 1.00453 0.982212
1.00103 1.00508 0.988184
1.00174 1.00513 0.986166
1.00533 0.994832 0.990827
1.00393 1.0011 0.986934
1.00486 1.00457 0.98263
1.00372 1.00213 0.985851
1.00539 0.9951 0.990287
1.00537 0.994822 0.990406
1.00502 1.00127 0.985375
1.00521 0.997936 0.987688
1.00158 1.0051 0.987386
1.00239 1.00517 0.985955
1.00445 1.00289 0.984639
1.00339 1.00265 0.986172
1.00512 1.00134 0.985887
1.00535 0.994814 0.990648
1.00541 0.995466 0.989639
1.00537 0.99507 0.990032
1.00507 0.999696 0.986536
1.00505 0.998964 0.987077
0.999775 1.00501 0.988628
0.999609 1.00505 0.988015
1.00492 1.00035 0.986528
1.00409 1.00064 0.987129
1.00543 0.994754 0.990456
1.00535 0.994782 0.990389
1.00526 0.997446 0.987794
1.0052 0.999222 0.986543
1.00119 1.00509 0.988591
0.999585 1.00438 0.991107
0.997893 1.0042 0.9942
0.999493 1.00491 0.990467
0.998488 1.00506 0.990933
0.999844 1.00436 0.990959
0.999319 1.00374 0.992425
0.999497 1.00511 0.990708
0.999099 1.00077 0.995538
0.999333 1.0051 0.991007
0.99931 1.00503 0.990527
0.99999 1.00429 0.990795
0.999978 1.00258 0.992345
0.999998 1.00253 0.992346
0.999959 0.999467 0.996108
0.99998 1.0027 0.992206
1.00005 0.999531 0.995953
1.00012 0.997376 0.997552
1.00012 0.999666 0.99573
1.00018 0.997484 0.997378
1.00016 0.997835 0.996996
1.00004 0.999919 0.994854
0.999867 1.00096 0.994154
0.999838 0.998242 0.99879
1.00013 1.00197 0.992827
0.99997 0.998984 0.998427
1.00049 0.999961 0.997551
1.00531 0.994901 0.99101
1.00522 0.994954 0.991416
1.00531 0.994916 0.990991
1.00527 0.994917 0.9914
1.00525 0.994955 0.991588
1.00508 0.99496 0.991926
1.00525 0.99495 0.991573
1.00531 0.994926 0.99145
1.0053 0.994917 0.99128
1.00533 0.99487 0.990797
1.00532 0.99493 0.991456
1.0053 0.994898 0.991415
1.00534 0.994875 0.991019
1.00523 0.994952 0.991509
1.00526 0.994937 0.991359
1.00532 0.994903 0.990866
1.00519 1.004 0.98238
1.00524 1.00121 0.984216
1.0053 0.997602 0.987505
1.00532 0.994897 0.990731
1.00534 0.994787 0.990647
1.00531 0.995213 0.990252
1.00486 1.00417 0.982415
1.00508 1.00479 0.981757
1.0044 1.00452 0.983703
1.00033 1.00409 0.989954
1.00336 1.00319 0.986255
1.00231 1.00467 0.985886
1.00531 0.994935 0.991418
1.00533 0.994892 0.991064
1.00534 0.994885 0.990666
1.00509 1.0031 0.983269
1.00509 1.00061 0.985125
1.00534 0.99673 0.988206
1.00532 0.99484 0.990534
1.00531 0.994816 0.990444
0.999927 1.0033 0.991471
1.0012 1.00513 0.987993
1.00461 1.00252 0.984206
1.00471 1.0045 0.982608
1.00346 1.00414 0.985174
1.00313 1.00424 0.985955
1.00532 0.994899 0.991341
1.00538 0.994874 0.99072
1.00535 0.99485 0.99052
1.00529 0.994774 0.990353
1.00436 1.0017 0.98526
1.00531 0.99523 0.989776
1.0049 0.999718 0.986333
1.00008 1.00218 0.992619
1.00007 1.00303 0.99197
0.999759 1.00499 0.989713
1.00178 1.00512 0.986805
1.00282 1.00467 0.986343
1.00426 1.0041 0.984161
1.00364 1.00205 0.986508
1.00447 1.00201 0.98744
1.00123 1.0051 0.987459
1.00321 1.00521 0.985507
1.00535 0.994816 0.990643
1.00427 1.00279 0.985989
1.0044 1.003 0.984417
1.00524 1.00155 0.985463
1.00542 0.995316 0.989886
1.00535 0.995183 0.990202
1.00508 0.999569 0.986535
1.00496 0.99927 0.986808
1.00075 1.00471 0.988199
1.00103 1.00519 0.987424
1.00493 1.00041 0.986258
1.00442 1.00124 0.986859
1.00542 0.994766 0.990463
1.00539 0.994799 0.990381
1.0052 0.997358 0.987901
1.00519 0.999384 0.986556
0.998373 1.00485 0.991524
1.00548 0.994756 0.990708
1.00233 1.005 0.987991
1.00478 0.999611 0.986997
1.00537 0.994748 0.990705
1.00506 0.996965 0.98757
1.00507 1.00045 0.986012
0.999604 1.00447 0.990729
0.998166 1.00358 0.994301
0.996433 1.00368 0.996673
0.999716 1.00421 0.990906
0.999373 1.00513 0.99078
0.997901 1.00499 0.992853
1 1.00411 0.990781
0.999436 1.00503 0.990606
0.997649 1.00226 0.996057
0.999488 1.00496 0.990879
0.99777 1.00117 0.998046
0.997608 1.004 0.994165
0.999342 1.0051 0.990911
1.00032 1.00488 0.989551
1.00029 1.00396 0.990479
1.00001 1.00253 0.99235
0.999962 1.00262 0.992325
0.999837 0.99953 0.996274
0.999931 1.00265 0.992328
0.999965 0.999502 0.996123
0.999991 0.997534 0.997678
1.00006 0.999466 0.995983
1.00012 0.997444 0.997543
1.0002 0.99754 0.99735
1.0001 1.00156 0.993226
1.00001 0.999441 0.995314
0.999992 1.00002 0.994821
0.999916 0.99796 0.998881
0.99991 1.0009 0.994068
0.999879 0.998452 0.998743
1.00012 0.999094 0.99826
1.00531 0.994869 0.990829
1.0053 0.994923 0.991235
1.0053 0.994924 0.991445
1.00525 0.994948 0.991592
1.00532 0.994929 0.991449
1.0053 0.994892 0.991412
1.00533 0.994878 0.99096
1.00532 0.9949 0.991393
1.00533 0.994857 0.991387
1.00559 0.994739 0.991229
1.00531 0.994938 0.991428
1.00533 0.99489 0.991028
1.00534 0.994891 0.990672
1.00517 1.00294 0.983226
1.00498 1.00064 0.985251
1.00535 0.996594 0.988506
1.00533 0.994825 0.990509
1.00531 0.994829 0.990407
1.0046 1.00282 0.983919
1.00436 1.00421 0.982974
1.00392 1.00389 0.984701
1.00004 1.00315 0.991704
1.00077 1.00513 0.987958
1.00298 1.0045 0.986093
1.00531 0.994901 0.991324
1.00014 1.00208 0.992581
0.999933 1.00316 0.991827
1.00538 0.994871 0.990726
1.00535 0.994855 0.990538
1.0046 1.00187 0.985248
1.00499 0.999348 0.986707
1.00528 0.995181 0.989731
1.00528 0.994784 0.990297
1.0002 1.00468 0.989932
1.00195 1.00512 0.986755
1.00343 1.00279 0.986164
1.00441 1.00198 0.985933
1.00386 1.0047 0.983798
1.00258 1.00399 0.98653
1.00539 0.994826 0.991187
1.00538 0.995049 0.9904
1.00534 0.994844 0.990481
1.00525 0.995004 0.989952
1.00351 1.00087 0.987988
1.00501 0.997466 0.988849
1.0003 1.00259 0.991792
0.999638 1.00371 0.991483
1.00119 1.00275 0.990901
1.00097 1.00513 0.988183
1.00226 1.00503 0.986634
1.00176 1.0022 0.988196
1.00237 1.00285 0.98747
1.0017 0.999208 0.993146
1.00095 1.00509 0.98778
1.00295 1.00518 0.98682
1.00539 0.994779 0.99047
1.00542 0.994817 0.990373
1.00477 1.00169 0.986578
1.00492 1.00052 0.98598
1.00514 0.997284 0.988009
1.00518 0.999548 0.986573
0.999122 1.00464 0.991474
1.00547 0.994732 0.990907
1.00142 1.00455 0.988849
1.00473 0.999932 0.986756
1.00538 0.994739 0.990789
1.00512 0.997142 0.987767
1.00509 1.00013 0.985976
0.998299 1.00484 0.993785
1.00507 0.994664 0.990418
1.0018 1.00366 0.988917
1.00436 1.00173 0.985015
1.00508 0.995455 0.990583
1.00352 1.00076 0.986965
0.999031 0.994764 0.982707
0.99836 1.00324 0.994372
0.997179 1.00273 0.996642
0.996333 1.00264 0.997838
1.00002 1.00402 0.990763
0.999171 1.00505 0.99069
1.00003 1.00499 0.990752
0.996774 1.00244 0.996583
1.00027 1.00397 0.990482
1.00007 1.00486 0.989819
0.996934 1.00061 0.999047
0.999199 1.00511 0.990849
0.998181 1.00415 0.993615
0.995869 1.00395 0.997445
0.999077 1.00494 0.99158
0.999632 1.00505 0.990793
1.00063 1.00419 0.989764
1.00032 1.00406 0.990082
1.00024 1.00502 0.99003
1.00006 1.00442 0.990089
0.999936 1.00261 0.992328
0.999972 1.00257 0.992334
0.999714 0.999497 0.995777
0.999977 1.00253 0.992309
0.999819 0.999527 0.995954
0.999982 0.997519 0.999057
0.999968 0.999508 0.996141
1.00002 0.99749 0.997668
1.00012 0.997498 0.997527
0.99998 1.0011 0.99379
1.00014 1.00148 0.993256
1.00008 0.998867 0.995862
1.00002 0.999496 0.995646
0.999923 0.99762 0.998998
0.99993 1.00023 0.994787
0.999901 0.997983 0.998864
0.999937 0.998514 0.998677
1.00533 0.99488 0.9909
1.0053 0.994886 0.991409
1.00532 0.994928 0.991442
1.00532 0.994898 0.991395
1.00534 0.994849 0.991331
1.00563 0.994756 0.991139
1.00541 0.994837 0.991413
1.00086 0.994661 0.980059
1.00542 0.994781 0.990258
1.00011 1.00246 0.992269
1.00531 0.9949 0.991306
1.00538 0.994868 0.990732
1.00535 0.994861 0.990557
1.00472 1.00151 0.985221
1.00504 0.999021 0.987067
1.00526 0.995222 0.989671
1.00529 0.994802 0.990242
1.00385 1.00257 0.985888
1.00458 1.0028 0.984488
1.00368 1.00471 0.983404
1.00011 1.00223 0.992544
1.00285 1.00353 0.986696
1.00046 1.0045 0.990141
1.00191 1.00513 0.986709
0.999736 1.00326 0.991687
1.00539 0.994855 0.991179
1.00027 1.00242 0.991991
0.99989 1.00366 0.991521
1.00042 1.00323 0.991222
1.00539 0.99491 0.990413
1.00531 0.994837 0.990449
1.00283 1.00163 0.988075
1.00493 0.997156 0.989033
1.00527 0.994938 0.989939
1.00088 1.00514 0.98819
1.00249 1.00481 0.986784
1.00264 0.999265 0.991877
1.00284 1.00383 0.987023
1.00328 1.00182 0.988104
1.00545 0.994835 0.990831
1.00535 0.994878 0.990504
1.00527 0.994839 0.990241
1.00462 0.998062 0.989959
1.00194 0.999575 0.991522
1.00032 1.00194 0.992202
1.00129 1.00357 0.988826
0.999841 1.00364 0.991327
1.00151 1.00511 0.988362
1.00175 1.0029 0.989317
1.0009 1.00119 0.991186
1.00152 0.998591 0.994247
1.0006 1.00394 0.991358
0.999942 1.00438 0.98973
1.00547 0.994703 0.991097
1.0054 0.994728 0.99086
1.00517 0.997319 0.987963
1.00465 1.00023 0.986519
1.00512 0.999799 0.98595
0.99792 1.00487 0.994886
1.00465 0.994663 0.990595
1.00165 1.0036 0.988849
1.00464 1.00178 0.984868
1.00489 0.995385 0.990878
1.00393 1.00069 0.987035
0.998866 0.994752 0.981039
0.997443 1.00481 0.994476
1.00367 0.994738 0.990527
1.00237 1.00278 0.98697
1.00318 1.00015 0.988219
1.00337 0.997362 0.991462
0.999972 0.994862 0.9369
0.994896 0.994718 0.959319
0.996418 0.996189 0.9864
0.996062 0.994762 0.845209
0.994698 0.995878 0.804688
0.998093 1.00211 0.996638
0.996425 1.00297 0.997981
0.995261 1.00431 0.99827
1.00033 1.00391 0.99049
0.999936 1.00494 0.990085
0.999386 1.00509 0.990784
0.998617 1.00445 0.993028
0.996352 1.00074 1.00003
0.999389 1.00503 0.99103
1.00044 1.00397 0.990141
1.00049 1.00453 0.989734
0.996449 1.00343 0.99726
0.998656 1.005 0.992047
0.999168 1.00478 0.992225
0.996793 1.0049 0.994945
0.999343 1.00474 0.991483
1.00041 1.00458 0.989365
1.00026 1.00437 0.989935
0.999883 1.0047 0.990206
0.999473 1.00402 0.992
0.999355 1.00507 0.991128
0.99994 1.005 0.990184
1.00007 1.00434 0.990413
1.00008 1.00443 0.990069
0.99988 1.0028 0.992258
0.999921 1.00267 0.992336
0.999677 0.999518 0.995835
0.99993 1.00268 0.992314
0.999702 0.999532 0.99578
0.999938 0.997506 0.999095
0.999797 0.999545 0.99564
0.999937 0.997524 0.998418
1.00005 0.997458 0.997654
0.999911 1.00086 0.994137
1.00004 1.00104 0.993802
1.0001 0.998506 0.996257
1.00015 1.00141 0.993286
1.00006 0.998873 0.996184
0.999957 0.997204 0.999123
1.00005 0.999616 0.995182
0.999929 0.997801 0.998938
0.999904 0.998144 0.998847
1.00535 0.994842 0.991274
1.00531 0.994896 0.991398
1.00571 0.994781 0.991065
0.999938 0.994706 0.980029
1.00545 0.994822 0.991355
1.00543 0.994827 0.990308
1.00551 0.99476 0.991222
0.995534 0.994828 0.961188
1.00372 0.994804 0.978001
1.00028 1.00196 0.992534
1.00031 1.00225 0.992249
0.999799 1.00315 0.991951
0.999961 1.00293 0.991984
1.0054 0.994866 0.991171
1.00541 0.994868 0.990428
1.00528 0.994826 0.990419
1.00383 1.00171 0.988155
1.0051 0.995984 0.989253
1.00528 0.99483 0.989943
1.00271 0.998643 0.990529
1.00311 1.00424 0.986605
1.00337 1.0015 0.988058
1.00003 1.00359 0.991558
1.00221 1.00388 0.986958
1.00107 1.00515 0.988194
1.00034 1.00222 0.992187
0.999816 1.00368 0.991606
1.00548 0.994809 0.990813
1.00016 1.00265 0.991908
1.00131 1.0037 0.989107
0.997523 1.00373 0.994417
1.00536 0.994927 0.990474
1.00527 0.994828 0.990223
1.00336 0.997741 0.991644
1.00447 0.997557 0.989832
1.00179 1.00514 0.987887
1.00143 1.00273 0.98861
1.00128 0.998438 0.99433
1.0019 1.00165 0.99077
1.00404 0.996587 0.990111
1.00522 0.994792 0.990748
1.00425 0.997852 0.989729
1.00352 0.997014 0.992516
0.997508 1.00473 0.994091
1.00218 1.00457 0.98696
0.999297 1.00219 0.994134
0.998065 1.00319 0.99452
0.999959 0.995665 0.921358
0.997487 1.0047 0.996042
1.00117 1.00367 0.988767
1.00413 0.994681 0.990811
1.00464 0.995325 0.991165
1.00422 1.00054 0.987074
1.00479 1.00196 0.984706
0.998694 0.994755 0.979111
0.997572 1.00455 0.994748
1.00326 0.994748 0.990419
1.00253 1.00329 0.986924
1.00368 1.00001 0.988395
1.00351 0.997872 0.991277
0.999398 0.994866 0.922438
0.995347 0.994764 0.956096
0.996415 0.996324 0.986882
0.996806 0.994758 0.850465
0.994761 0.995421 0.799973
0.997801 1.00394 0.993987
0.998316 0.994833 0.855146
0.994788 0.994902 0.796389
1.00101 0.996046 0.993597
1.00146 1.00118 0.991005
1.0012 1.00067 0.992954
0.994946 0.996209 0.990368
0.997426 0.994715 0.936104
0.994908 0.994788 0.951881
0.99472 0.995382 0.8686
0.994768 0.994893 0.781491
0.99632 1.00299 0.998117
0.995413 1.00441 0.99811
0.995236 1.00502 0.998403
1.00062 1.00379 0.990198
1.00036 1.0046 0.989703
0.998827 1.00505 0.991271
0.998462 1.0051 0.992512
0.996918 1.00259 0.997096
1.00039 1.0042 0.98993
0.998698 1.00499 0.992404
0.999223 1.00485 0.991167
1.00067 1.00454 0.989479
0.996885 1.00462 0.995318
0.997838 1.00459 0.993991
0.995571 1.00513 0.996542
0.999258 1.00501 0.990723
1.00059 1.0046 0.989483
1.00018 1.0046 0.990163
0.999081 1.00379 0.992504
0.999074 1.00435 0.99218
0.999681 1.00323 0.992225
0.997753 1.00329 0.99517
0.997673 1.0048 0.993121
0.99855 1.0051 0.991549
0.999335 1.0051 0.991104
0.999598 1.00488 0.99042
0.999701 1.00507 0.990341
1.00015 1.00443 0.990324
0.999965 1.00292 0.992091
1.00016 1.00443 0.990048
0.999936 1.00271 0.992279
0.999862 0.999542 0.996266
0.999923 1.00267 0.992343
0.999738 0.999498 0.996093
0.999901 0.997466 0.997908
0.999685 0.99953 0.995779
0.999929 0.997525 0.999105
0.999936 0.997567 0.997775
1.00031 1.0023 0.992201
0.99988 1.0008 0.994254
0.99995 1.00085 0.994136
1.00004 0.998404 0.996419
1.00006 1.00106 0.993819
1.0001 0.998482 0.996255
0.999991 0.996981 0.999187
1.00006 0.998999 0.996408
0.999947 0.997382 0.998449
0.999923 0.997803 0.997528
0.99935 0.994716 0.97997
1.00546 0.994818 0.991299
1.00536 0.994764 0.990353
0.99633 0.994782 0.961312
1.00391 0.994736 0.978316
1.00548 0.994816 0.991263
1.00371 0.994683 0.985349
0.998895 0.99476 0.961079
0.99907 0.994868 0.936462
0.996649 0.994762 0.873
0.994802 0.99532 0.804344
0.999455 1.00309 0.992376
1.00024 1.00205 0.992524
1.00042 1.00213 0.99222
0.99983 1.00291 0.992291
0.998253 1.00494 0.993058
1.00012 1.00337 0.991473
1.00016 1.00409 0.990764
1.00004 1.00291 0.991921
1.00548 0.994831 0.99079
1.00534 0.994881 0.990445
1.00527 0.994824 0.990205
1.00344 0.997601 0.991777
1.00422 0.997813 0.989687
1.00114 0.998101 0.994416
1.00356 1.00146 0.990345
1.00296 1.00274 0.987899
1.00113 1.00381 0.989353
1.00168 1.00515 0.987368
0.999969 1.00347 0.991613
0.996263 1.0038 0.997227
1.00421 0.99565 0.990463
0.99753 1.00468 0.99411
1.00117 1.00434 0.989063
1.005 0.994812 0.990716
1.00394 0.998254 0.989846
1.00305 0.997163 0.99247
1.00016 1.002 0.992918
0.999253 1.00198 0.994574
1.00294 0.996331 0.988919
1.00299 0.999052 0.990853
1.00343 0.999258 0.99088
1.00117 0.997788 0.994923
0.998884 1.00472 0.992358
0.99767 1.00464 0.993468
0.997658 1.00295 0.995802
0.99983 0.99666 0.853795
1.00067 0.994885 0.93717
0.998098 1.00415 0.995026
1.00289 1.00359 0.986899
1.00288 0.994753 0.990298
1.00373 0.9983 0.991112
1.00408 0.999839 0.988616
0.999989 0.994826 0.93467
0.995818 0.994775 0.955592
0.996398 0.996753 0.987545
0.995775 0.99479 0.870158
0.994827 0.994886 0.794887
0.998239 1.00398 0.993999
0.999847 0.994884 0.85245
0.994734 0.994875 0.790115
1.00091 0.996707 0.993406
1.00147 1.00121 0.991043
1.00118 1.00038 0.993608
0.99507 0.997373 0.991319
0.996665 0.994693 0.929141
0.99492 0.994796 0.95226
0.994786 0.995036 0.869854
0.994801 0.995204 0.779077
0.996754 1.00465 0.996477
0.994769 0.994802 0.783105
0.994739 0.99475 0.779358
0.996721 1.00141 0.997303
0.999016 1.00172 0.997308
0.994841 0.998713 0.987819
0.994915 0.994815 0.956517
0.994883 0.994662 0.923
0.994812 0.994867 0.873076
0.994885 0.994893 0.793816
0.995772 1.00461 0.997961
0.995545 1.00485 0.998236
0.994895 1.00427 0.999207
1.00052 1.00408 0.989921
1.00077 1.00458 0.989594
0.999321 1.00505 0.990851
0.998096 1.00512 0.992583
0.996743 1.00435 0.995693
1.00065 1.00463 0.98944
0.9979 1.00468 0.993631
0.99973 1.00488 0.990692
0.995518 1.0051 0.996745
0.995198 1.00513 0.997983
0.997489 1.00487 0.994271
1.00019 1.00473 0.990829
1.00064 1.00413 0.990122
0.998968 1.00348 0.992998
0.999213 1.00408 0.992161
0.999901 1.00304 0.992127
0.997371 1.00343 0.995509
0.997946 1.00459 0.992479
0.99676 1.005 0.994608
0.997495 1.00232 0.996661
0.999763 1.00252 0.993098
1.00426 0.999775 0.990157
0.998068 1.0047 0.992209
0.998152 1.00465 0.993129
0.998799 1.00517 0.990295
0.998906 1.00512 0.99164
0.999968 1.00506 0.990063
0.999321 1.00508 0.991077
0.999802 1.00475 0.99051
0.9998 1.00331 0.991729
1.00023 1.00444 0.990234
0.999933 1.00288 0.992106
0.999988 0.999576 0.996012
0.999903 1.00273 0.992302
0.999847 0.999534 0.995898
1.00001 0.997394 0.997736
0.999727 0.999514 0.995794
0.999955 0.997425 0.999119
0.999926 0.997496 0.999116
1.00046 1.00277 0.991803
0.99992 1.00106 0.993998
1.00032 1.00223 0.99222
1.00004 0.99835 0.996469
0.999936 1.00074 0.994243
0.999998 1.00078 0.99413
1.00006 0.998385 0.996411
1 0.996907 0.999214
1.00008 0.998517 0.996782
1 0.997024 0.998607
0.999972 0.997319 0.997913
0.999241 0.995617 0.838965
0.994784 0.994868 0.781607
0.995943 0.994781 0.962068
1.00357 0.994691 0.978816
1.00552 0.994931 0.9913
1.00033 0.994803 0.958503
1.00335 0.994739 0.986032
0.999826 0.994867 0.931861
0.995764 0.994738 0.851307
0.994814 0.995145 0.799967
0.998038 0.994794 0.969775
0.996228 0.994736 0.937577
0.994737 0.994704 0.870547
0.994811 0.995657 0.792821
0.99961 1.00399 0.992107
0.999742 1.00279 0.992429
1.00022 1.00211 0.992523
0.999857 1.00258 0.992649
0.997956 1.00411 0.99407
1.00038 1.00413 0.990221
0.999553 1.00393 0.991755
1.0008 1.00423 0.989304
1.00018 1.00403 0.990627
0.999615 1.00351 0.99186
1.00419 0.994861 0.990793
1.00488 0.994823 0.990682
1.00334 0.998576 0.98996
1.00236 0.996953 0.992424
0.999853 1.00196 0.994625
0.999947 1.00207 0.99174
0.999978 1.00412 0.991393
0.997431 1.0046 0.994083
1.00218 0.995662 0.989533
0.998699 1.00498 0.992212
0.997502 1.00463 0.993818
1.00281 0.998884 0.990799
1.00305 0.999618 0.990317
1.00073 0.997704 0.995548
0.997896 1.00292 0.996164
0.999525 0.995491 0.988182
1.00063 1.00045 0.994221
0.996902 1.00253 0.997166
0.998507 1.00404 0.992563
0.996825 1.00518 0.99397
0.996427 1.00455 0.996404
0.994738 0.994796 0.801979
0.999831 0.99489 0.8615
1.00001 0.995687 0.921628
0.99855 1.00418 0.993993
1.00173 1.0013 0.991031
1.00077 0.997129 0.993202
1.00107 0.999979 0.994266
0.999819 0.995671 0.867699
0.996219 0.994736 0.922441
0.994932 0.994755 0.951948
0.995169 0.998338 0.992049
0.994788 0.994749 0.853441
0.994682 0.994855 0.796643
0.994828 0.995563 0.795198
0.996805 1.00468 0.996191
0.994762 0.994814 0.791762
0.994767 0.994759 0.778787
0.996887 0.99983 0.997992
0.998667 1.00164 0.997228
0.994837 0.997402 0.989667
0.994997 0.994797 0.954054
0.994883 0.994678 0.935183
0.994781 0.995202 0.852674
0.995184 0.994892 0.803229
0.995785 1.00413 1.00042
0.994745 0.994794 0.787088
0.994818 0.994831 0.780812
0.994775 1.00231 1.00019
0.994881 0.996587 0.964642
0.994807 0.994799 0.932301
0.994904 0.994908 0.850833
0.99581 0.994905 0.821312
0.995968 1.00468 0.998059
0.995208 1.00462 0.999344
0.994835 1.00441 0.999681
1.00045 1.00471 0.989391
1.00005 1.00472 0.990662
0.997944 1.00481 0.993269
0.995534 1.00486 0.996946
0.9996 1.00485 0.990825
0.997255 1.00491 0.994293
0.995032 1.00515 0.99809
0.994793 1.00525 0.99878
0.995307 1.00509 0.997818
0.997897 1.00511 0.993855
0.999324 1.00423 0.992133
0.999933 1.00283 0.992032
0.996797 1.00367 0.995841
0.996966 1.00492 0.99469
0.999043 1.00407 0.992415
0.996597 1.00329 0.996749
0.997491 1.00399 0.994857
0.995174 1.00502 0.998177
1.0014 0.999387 0.994152
0.99932 1.00182 0.994011
1.00237 1.00001 0.990966
1.005 0.999295 0.988069
1.00324 1.0016 0.989252
1.00327 0.999374 0.990933
0.998965 1.00441 0.992026
0.999158 1.00522 0.989593
0.99883 1.0045 0.993143
0.999661 1.00517 0.990368
1.00053 1.00511 0.988778
0.999426 1.00514 0.991721
0.999843 1.00509 0.990072
0.999861 1.00402 0.990927
0.999939 1.00472 0.990601
0.999938 1.00335 0.991739
1.00014 0.99976 0.995648
0.999984 1.0028 0.992124
0.999964 0.99965 0.995589
1.0001 0.997505 0.997548
0.999842 0.999521 0.995594
1.00001 0.997397 0.998426
0.999971 0.997409 0.999099
1.0004 1.00382 0.990422
1.00002 1.0014 0.993535
1.0003 1.00291 0.991582
1.00006 0.99844 0.996357
0.999923 1.001 0.994017
1.00029 1.00217 0.992238
1.00002 0.996876 0.99922
1.00003 0.998367 0.996468
0.999927 1.0008 0.994236
1.00007 0.998368 0.996404
1 0.996917 0.999208
0.999988 0.996999 0.99918
0.994736 0.994796 0.779803
0.999157 0.994874 0.852894
0.994786 0.994772 0.779879
0.994809 0.994847 0.783111
0.999055 0.994847 0.958728
1.00274 0.994802 0.986725
0.999413 0.994793 0.92646
0.996314 0.99477 0.872489
0.994839 0.994873 0.795683
0.998197 0.994822 0.968542
0.996459 0.994705 0.922455
0.994747 0.994902 0.870513
0.994802 0.995165 0.785251
0.994922 0.994813 0.960911
0.994759 0.994695 0.921338
0.994807 0.994977 0.846436
0.994853 0.994891 0.798191
1.00038 1.00449 0.990835
0.998972 1.00407 0.99228
0.999831 1.00274 0.992476
0.997353 1.00347 0.99507
1.00093 1.00361 0.989671
1.00004 1.00443 0.990418
0.998918 1.00412 0.992035
1.00136 1.00383 0.989221
1.00096 1.00445 0.989237
1.00026 1.00389 0.990488
1.0021 0.994819 0.990095
1.00248 0.998723 0.990775
1.00306 1 0.989759
1.00015 0.997572 0.996179
0.99872 1.00306 0.996507
0.997761 1.00456 0.99417
0.998624 1.00509 0.992083
0.999404 1.0036 0.992334
0.999356 0.99641 0.988869
0.997778 1.00514 0.993476
0.997623 1.00365 0.996499
1.00039 1.00023 0.994343
0.99798 1.00133 0.997126
0.99617 1.00075 0.987805
0.996708 1.00201 0.99904
0.994802 1.00505 0.997914
0.996612 1.00435 0.9959
0.995725 1.00523 0.996255
0.994763 0.994783 0.793669
0.994744 0.994759 0.797048
0.999824 0.996634 0.841142
0.996807 1.00472 0.995952
0.998655 1.0013 0.997163
0.997174 0.999059 0.998671
0.994737 0.9948 0.788355
0.994787 0.994671 0.921839
0.994924 0.994791 0.954193
0.994827 0.995814 0.992022
0.994772 0.99545 0.872141
0.994798 0.99477 0.779234
0.995561 0.994881 0.805299
0.995985 1.00369 1.00062
0.99476 0.994805 0.788706
0.9948 0.994831 0.782068
0.994796 1.00253 0.999062
0.994871 0.99572 0.966475
0.994968 0.994796 0.919119
0.99548 0.9949 0.815937
0.995219 0.997049 0.860041
0.994719 1.00503 1.00108
0.994779 0.994834 0.77516
0.994864 0.994847 0.797694
0.994855 0.994893 0.79769
0.994757 0.999709 0.988031
0.994833 0.995318 0.936567
0.997207 0.994889 0.873204
0.995636 1.00496 0.999487
0.995127 1.00468 0.999495
0.995289 1.00521 0.999075
0.999228 1.00484 0.990828
0.997183 1.00512 0.994316
0.994846 1.00521 0.998202
0.997295 1.00508 0.993931
0.995464 1.00493 0.997883
0.99479 1.00528 0.998646
0.994763 1.00507 0.999314
0.995392 1.00483 0.998233
0.996844 1.00479 0.994805
0.999924 1.00357 0.992345
0.996011 1.00401 0.996839
0.995166 1.00488 0.998069
0.997023 1.00427 0.99489
0.998928 1.00076 0.996453
0.998445 0.999701 0.997909
1.00226 1.00013 0.989826
0.998966 1.00141 0.994831
1.00255 0.999999 0.990679
1.00463 1.00115 0.986349
1.0051 1.00146 0.985134
1.00495 0.999464 0.98765
1.00421 0.999474 0.987982
1.00205 1.00384 0.988211
1.00209 1.00204 0.989518
1.00204 0.998982 0.991681
0.999825 1.00412 0.99184
0.99984 1.00521 0.989407
1.00093 1.00515 0.987622
1.00037 1.00517 0.990448
1.00081 1.00509 0.988756
1.00044 1.00447 0.989565
1.00002 1.00508 0.990074
1.0001 1.00379 0.990905
1.00016 1.00014 0.995257
1.00001 1.00323 0.991746
1.00011 0.999814 0.9952
1.00026 0.997576 0.997243
0.999951 0.999698 0.995254
1.0001 0.997468 0.998299
1.00005 0.997392 0.999031
1.00078 1.00399 0.989407
1.00012 1.00193 0.992438
1.00048 1.00371 0.990435
1.00009 0.998653 0.996086
1.00007 1.00134 0.99333
1.00027 1.00291 0.991361
1.00003 0.99692 0.99919
1.00005 0.998419 0.996374
0.999998 1.00084 0.994034
1.00001 0.996903 0.999219
1.00003 0.998374 0.996467
1.00001 0.996918 0.999202
0.994809 0.994813 0.784822
0.994746 0.994832 0.795003
0.999238 0.994838 0.851728
1.001 1.0042 0.989282
0.994784 0.994803 0.785317
0.994783 0.994792 0.779782
0.994853 0.994851 0.79771
0.998237 0.994775 0.968245
0.9962 0.994739 0.937171
0.994672 0.995095 0.853285
0.994776 0.994869 0.796919
0.995558 0.994797 0.958387
0.994815 0.994694 0.934493
0.994773 0.99521 0.850596
0.994869 0.994895 0.799884
0.994922 0.994779 0.952759
0.994794 0.994813 0.930624
0.996267 0.995198 0.86352
0.99547 0.994905 0.821584
0.998865 1.00369 0.992904
0.999556 1.00439 0.991103
0.999116 1.00355 0.992461
1.00134 1.00234 0.990392
1.00103 1.00385 0.989643
0.999923 1.00473 0.990613
1.00148 1.0038 0.989182
1.00108 1.00445 0.98917
0.998513 0.997313 0.989378
0.99975 0.999985 0.994381
0.999075 1.00385 0.992079
0.999127 1.00016 0.997078
0.998353 1.00304 0.996583
0.99859 1.00513 0.992934
0.997154 1.00425 0.994934
0.99577 1.00037 0.988038
0.996765 1.00504 0.996041
0.995985 1.00347 0.998016
0.995956 1.00176 0.999131
0.995906 1.00527 0.9961
0.994897 1.00302 0.985055
0.995106 1.00361 0.998791
0.995661 1.00456 0.997996
0.996225 1.00558 0.996432
0.994747 0.994812 0.77834
0.994756 0.994787 0.790151
0.994747 0.994723 0.79189
0.995825 1.00366 1.00081
0.994817 1.0019 0.997876
0.994776 0.994818 0.790141
0.994759 0.994846 0.933866
0.994865 0.995624 0.963253
0.995471 0.995423 0.858646
0.994786 0.994831 0.78307
0.994893 0.994901 0.810443
0.99477 1.00496 1.00105
0.994778 0.994831 0.775565
0.994874 0.994858 0.796327
0.994797 1.00025 0.991768
0.994871 0.994924 0.799491
0.994836 0.996811 0.929352
0.99663 0.997374 0.874755
0.995155 1.00407 0.997153
0.994837 0.994846 0.788629
0.994796 0.994814 0.787334
0.994805 0.995666 0.792003
0.99643 0.996271 0.863341
0.994891 1.00122 0.970609
0.994921 0.995796 0.922138
0.995418 1.00496 0.999335
0.995101 1.0052 0.999134
0.994775 1.00525 0.998113
0.996778 1.00515 0.994001
0.994993 1.00457 0.997944
0.994801 1.00523 0.998557
0.995101 1.00445 0.998171
0.994747 1.00505 0.999212
0.997001 1.00248 0.999579
0.995031 1.00484 0.99795
0.996237 1.00477 0.994964
0.998077 1.00128 0.997234
0.998721 1.00017 0.99442
0.995558 0.999902 1.00131
1.0019 1 0.991002
1.00432 1.00407 0.983015
1.00448 1.00293 0.984313
1.00287 0.999948 0.990308
1.00447 1.00134 0.98589
1.00506 1.00203 0.984332
1.00521 1.00155 0.98514
1.00472 1.00154 0.985225
1.00426 1.00043 0.987748
1.00429 1.00009 0.987525
1.00379 0.999598 0.98792
1.00099 1.00517 0.98757
1.00141 1.00413 0.988297
1.00083 1.00258 0.989781
1.00059 1.00519 0.989223
1.00138 1.00515 0.987645
1.00077 1.00503 0.988218
1.00099 1.00508 0.988734
1.00063 1.00438 0.98955
1.0002 1.00072 0.993788
1.00042 1.00378 0.990899
1.00023 1.00013 0.994388
1.00011 0.997685 0.998776
1.00011 0.999914 0.994834
1.00019 0.997547 0.998088
1.00013 0.997465 0.998928
1.00076 1.00437 0.989164
1.00033 1.00276 0.991365
1.00071 1.00412 0.989598
1.00017 0.998991 0.995658
1.00023 1.00195 0.992311
1.00055 1.00368 0.990442
1.00005 0.997034 0.999127
1.00012 0.998589 0.996108
1.00008 1.00132 0.993127
1.00003 0.99691 0.999201
1.00005 0.998403 0.996391
1.00001 0.996901 0.999219
0.994768 0.99482 0.784634
0.994802 0.994806 0.78521
0.994741 0.994845 0.793941
1.00106 1.00401 0.989298
1.00029 1.00504 0.988753
1.00187 1.00204 0.990752
0.994874 0.994861 0.796489
0.994794 0.994803 0.786492
0.994798 0.994777 0.779857
0.996302 0.994784 0.958703
0.994857 0.994668 0.921827
0.994771 0.995442 0.871907
0.994875 0.994871 0.794093
0.994908 0.994824 0.954109
0.994808 0.994796 0.926284
0.996057 0.996306 0.862224
0.995352 0.994905 0.816081
0.994896 0.994874 0.953083
0.994828 0.994867 0.931842
0.997131 0.994896 0.872816
0.994878 0.994903 0.795638
0.998157 1.00308 0.994266
0.999231 1.0035 0.992757
0.999437 1.00461 0.991376
1.00131 1.00247 0.990314
1.00068 1.00433 0.98962
1.00154 1.00381 0.98914
0.995541 1.00001 0.988617
0.995708 1.00192 0.999303
0.998395 1.00334 0.994006
0.997694 1.00247 0.997981
0.997874 1.00453 0.995847
0.995966 1.00481 0.9961
0.99583 1.00543 0.996189
0.99483 1.00307 0.985063
0.995305 1.00523 0.998215
0.994638 1.00417 0.997777
0.995455 1.00519 0.997818
0.99472 1.00089 0.983573
0.99494 1.00518 0.994607
0.994736 1.00263 0.999238
0.994867 0.994854 0.778963
0.994758 0.994821 0.777501
0.994752 0.994787 0.78665
0.994821 1.00472 1.00098
0.99482 1.00058 0.98726
0.994777 0.99483 0.775983
0.994806 0.996413 0.929371
0.996066 0.994887 0.860293
0.994887 0.994857 0.794933
0.994872 0.994873 0.793859
0.995026 1.00391 0.997663
0.994821 0.994846 0.78772
0.994813 0.994804 0.788666
0.994901 1.00154 0.967557
0.994789 0.995343 0.784642
0.996001 0.997297 0.861366
0.994863 0.996768 0.936073
0.994899 1.00512 0.988299
0.994772 0.994823 0.786534
0.994781 0.99479 0.780775
0.994791 0.995504 0.80395
0.994794 0.995057 0.844559
0.994817 0.995254 0.93319
0.994828 1.00137 0.96124
0.995037 1.00521 0.999126
0.994822 1.00524 0.998138
0.994902 1.00515 0.998007
0.995482 1.00415 0.99811
0.994738 1.00526 0.999037
0.995972 1.00313 0.999693
0.997872 1.00165 0.998933
0.997068 1.0018 0.997989
1.00117 0.99981 0.993473
1.0018 1.00512 0.986725
1.00141 0.99967 0.992644
1.00438 1.00396 0.9837
1.00423 1.00342 0.983305
1.0051 1.00056 0.985341
1.00508 1.00166 0.984679
1.00454 1.00273 0.984329
1.00447 1.00157 0.985441
1.0048 1.00278 0.984296
1.00514 1.00191 0.984395
1.00512 1.00103 0.985784
1.00486 1.0018 0.985242
1.00406 1.00165 0.985322
1.00235 1.00233 0.9884
1.00374 1.00111 0.987606
1.00362 1.00078 0.987374
1.00114 1.00523 0.987368
1.00146 1.00516 0.987551
1.00059 1.00427 0.988386
1.00177 1.00515 0.987676
1.0012 1.0049 0.988237
1.00021 1.0016 0.992892
1.00104 1.00415 0.989524
1.00025 1.00072 0.993745
1.0002 0.997983 0.998662
1.00033 1.00004 0.99437
1.00024 0.99772 0.99793
1.0002 0.99754 0.998818
1.0015 1.00402 0.98879
1.00058 1.00325 0.990767
1.00097 1.00417 0.989124
1.00022 0.999453 0.995101
1.00034 1.00276 0.991454
1.00061 1.0042 0.989797
1.00007 0.997179 0.99903
1.00018 0.998898 0.995687
1.00033 1.00195 0.992185
1.00005 0.996983 0.999147
1.00014 0.998534 0.99613
1.00003 0.996929 0.999213
0.994831 0.994847 0.786419
0.994771 0.994835 0.785077
0.994806 0.9948 0.785475
0.999988 1.00527 0.988926
1.00234 1.00161 0.992063
1.00085 1.00413 0.989326
1.00054 1.00483 0.988654
1.00078 1.00207 0.991343
1.00091 1.0026 0.990922
0.999068 1.00125 0.994608
0.994831 0.994835 0.782963
0.994874 0.994862 0.795067
0.994796 0.99483 0.787631
0.994889 0.994914 0.810458
0.995281 0.994824 0.952705
0.994834 0.994917 0.920789
0.995936 0.994925 0.874559
0.994958 0.995096 0.952086
0.994837 0.997864 0.917999
0.996434 0.997024 0.873924
0.995087 0.994923 0.804872
0.994815 0.995802 0.95627
0.994906 0.997808 0.919433
0.994903 0.994998 0.851362
0.994783 0.995195 0.783496
0.995837 1.00515 0.996522
0.998016 1.00344 0.994788
0.998905 1.00406 0.992607
1.00122 1.00296 0.99024
0.994827 1.00255 0.984925
0.994558 1.00436 0.996811
0.996124 1.00504 0.996107
0.996669 1.00534 0.995941
0.994779 1.00533 0.998631
0.995135 1.0053 0.997698
0.995931 1.00353 0.999398
0.995058 1.0017 0.980618
0.995227 1.00517 0.994705
0.996048 1.00267 0.999662
0.995767 1.00126 0.976291
0.994665 1.0029 0.999785
0.99475 0.994833 0.781023
0.994847 0.994853 0.784072
0.994769 0.994838 0.776646
0.99477 1.00397 0.998169
0.994873 1.00123 0.971511
0.994803 0.994847 0.786823
0.994906 0.996636 0.923386
0.995834 0.994964 0.874281
0.994803 0.994832 0.789765
0.994763 0.995009 0.795932
0.994896 1.0051 0.989348
0.994779 0.994834 0.787049
0.99477 0.994802 0.780735
0.994811 1.00112 0.96132
0.994811 0.995102 0.7997
0.994755 0.995292 0.848748
0.994851 0.996016 0.919798
0.994953 1.00401 0.983036
0.994827 0.994818 0.785304
0.994755 0.994871 0.781952
0.994733 0.994703 0.869421
0.994814 0.99488 0.931394
0.994793 0.99971 0.956659
0.994843 1.00521 0.998687
0.994805 1.00516 0.998041
0.995235 1.00439 0.997866
0.995236 1.00346 0.999804
0.996427 1.00303 0.999292
1.00034 1.00086 0.994869
1.00354 0.999549 0.992544
1.00271 1.00513 0.985842
1.00431 1.00218 0.984988
1.00419 1.0038 0.984382
1.00449 1.00339 0.983266
1.00474 1.00148 0.985086
1.00525 0.997945 0.987444
1.00516 1.00008 0.986085
1.00506 1.00074 0.985364
1.00507 1.00173 0.984869
1.00506 1.00149 0.984688
1.0046 1.00258 0.984342
1.00475 1.00384 0.983359
1.0048 1.0027 0.984336
1.00516 1.00184 0.984468
1.00389 1.00166 0.987721
1.00415 1.00169 0.986345
1.00472 1.00187 0.985346
1.00249 1.00328 0.987342
1.00257 1.00223 0.988375
1.00314 1.00202 0.987464
1.00042 1.00206 0.992065
1.00148 1.00523 0.987434
1.00187 1.00516 0.987531
1.00138 1.00481 0.988255
1.00025 1.00159 0.992873
1.00018 0.99844 0.998456
1.00024 1.00081 0.993707
1.00021 0.998011 0.998602
1.00024 0.997625 0.99872
1.00141 1.00477 0.989455
1.00173 1.00515 0.988257
1.0009 1.00378 0.989765
1.00122 1.00436 0.988783
1.00021 1 0.994559
1.00052 1.00338 0.990763
1.00098 1.0044 0.989081
1.00008 0.997529 0.998895
1.00022 0.999428 0.995126
1.0004 1.00278 0.991539
1.00007 0.997178 0.99906
1.00019 0.998865 0.99572
1.00006 0.996961 0.999168
0.994787 0.994848 0.77738
0.994823 0.994838 0.785553
0.994774 0.994828 0.785511
1.00065 1.00528 0.988632
1.00021 1.00152 0.992696
1.0021 0.999873 0.989364
0.99851 1.00365 0.991538
1.00178 0.999225 0.993426
1.00087 1.005 0.988543
1.00001 1.00262 0.991948
1.00062 1.00353 0.990903
0.999181 1.00089 0.995619
0.99908 1.00315 0.994892
0.994764 0.994753 0.781456
0.99481 0.994841 0.784368
0.994871 0.99485 0.793677
0.995355 0.994883 0.806844
0.996007 0.994887 0.860104
0.994902 0.994884 0.950957
0.994816 0.995569 0.93084
0.994868 0.996432 0.951753
0.994904 0.997511 0.931953
0.995106 0.997098 0.86087
0.994809 0.995201 0.781229
0.99497 0.998118 0.953499
0.994775 0.996124 0.931689
0.994801 0.994984 0.874491
0.994719 0.995777 0.807293
0.998407 1.00018 0.997197
0.995539 1.00513 0.996817
0.998172 1.00283 0.995324
0.994668 1.0029 0.977211
0.994834 1.00515 0.994192
0.99504 1.00532 0.997515
0.99473 1.00443 0.999596
0.995389 1.0034 0.999478
0.994713 1.00149 1.0003
0.994785 1.00188 0.976972
0.995883 1.00152 1.00187
0.99491 1.00012 0.984412
0.994787 0.994807 0.794621
0.994776 0.994843 0.780035
0.994831 0.994843 0.789387
0.994937 1.00508 0.989695
0.99484 0.999942 0.95919
0.994796 0.994842 0.787568
0.994849 0.995266 0.93211
0.994762 0.995549 0.869309
0.994781 0.994778 0.781052
0.994842 0.99488 0.795564
0.995211 1.00461 0.983851
0.994815 0.994813 0.785434
0.994785 0.994859 0.78328
0.994833 0.998514 0.957788
0.99474 0.994961 0.86969
0.994849 0.994831 0.923666
0.994804 1.00256 0.981555
0.99473 0.994804 0.780131
0.99647 0.994764 0.872818
0.994793 0.994707 0.920795
0.994888 0.994855 0.957442
0.995324 1.00518 0.998122
0.995051 1.00463 0.997732
0.997647 1.00037 0.997599
0.995027 1.00428 0.999653
0.999237 1.00148 0.995608
1.00431 0.995572 0.992388
1.00374 1.00517 0.984933
1.00427 1.00201 0.984867
1.00488 0.998362 0.987723
1.00483 1.00343 0.983225
1.00471 1.00133 0.985141
1.00491 0.997951 0.988118
1.0053 0.995481 0.989735
1.00529 0.997473 0.987568
1.00527 0.997848 0.987474
1.00524 1.00004 0.986161
1.00516 1.00011 0.986016
1.00494 1.00084 0.985388
1.00528 1.00281 0.983516
1.00501 1.00172 0.984819
1.00508 1.00125 0.984698
1.00484 1.00389 0.984179
1.00429 1.00388 0.983828
1.00493 1.00264 0.984375
1.00225 1.00347 0.987747
1.00328 1.00174 0.98764
1.00349 1.00232 0.9869
1.00085 1.00273 0.992067
1.00227 1.00364 0.987433
1.00278 1.00224 0.988351
1.00027 0.999257 0.995628
1.00052 1.00222 0.992395
1.00171 1.00521 0.987503
1.00035 1.00156 0.992843
1.00023 0.998581 0.998373
1.00023 0.998163 0.998538
1.0018 1.00246 0.988602
1.00217 1.00514 0.987551
0.999824 1.00504 0.989307
1.00099 1.00459 0.988903
1.00117 1.00482 0.988223
1.00009 1.00062 0.994086
1.00075 1.00399 0.989752
1.00104 1.00465 0.98877
1.00007 0.997832 0.998785
1.00021 0.999928 0.994595
1.00043 1.0034 0.990761
1.00007 0.997438 0.998936
1.00022 0.99932 0.995149
1.00007 0.997094 0.99909
0.994769 0.99482 0.793829
0.994791 0.994845 0.777869
0.994805 0.994857 0.784585
1.00317 1.00329 0.985806
1.00051 1.00493 0.988355
0.99939 1.00223 0.993511
1.00002 1.00481 0.990903
1.00347 1.00014 0.989237
1.00065 0.998459 0.99661
1.0037 1.00087 0.988363
0.995805 1.00512 0.994874
0.999535 1.00387 0.990878
0.999031 0.9992 0.996623
0.99748 1.00326 0.994891
0.99819 1.00221 0.995569
0.994798 0.994927 0.797877
0.994784 0.994764 0.780878
0.994796 0.994846 0.785467
0.994835 0.996556 0.797185
0.995261 0.995516 0.859333
0.994941 0.997491 0.919678
0.995625 0.995065 0.951625
0.995364 0.998405 0.954117
0.994775 0.996224 0.802458
0.994815 0.996616 0.923222
0.994783 0.995451 0.854262
0.994882 0.99645 0.959884
0.994797 0.994831 0.933497
0.994729 0.995593 0.87162
0.999841 0.995168 1.00156
0.99877 1.00028 0.99705
0.995096 1.00549 0.997095
0.9948 1.00229 0.977094
0.996036 1.00005 1.00073
0.995962 1.0027 0.999384
0.996601 0.999811 1.00224
0.994894 0.999226 0.98452
0.995727 0.998533 0.99296
0.994726 0.994783 0.797052
0.994778 0.99481 0.794697
0.994799 0.99484 0.77883
0.994834 1.00461 0.98399
0.994846 0.999795 0.956853
0.994796 0.994814 0.785852
0.994832 0.994849 0.918752
0.994662 0.995019 0.852519
0.994838 0.994868 0.797524
0.99482 1.00484 0.981196
0.994744 0.99484 0.795106
0.995887 0.994744 0.850829
0.994946 0.995149 0.952593
0.994829 0.9947 0.934143
0.995237 0.999979 0.989244
0.999307 0.99561 0.838389
0.996195 0.994752 0.937727
0.994933 0.994759 0.950851
0.994771 1.00535 0.997601
0.997273 1.00168 0.997275
1.00064 0.998322 0.993765
0.998317 1.002 0.99635
1.00374 0.996378 0.992119
1.00498 0.99521 0.991084
1.00411 1.00192 0.984751
1.00483 0.998343 0.98761
1.00502 0.996145 0.989684
1.00467 1.00109 0.985202
1.00487 0.997876 0.988058
1.00533 0.994887 0.990258
1.00527 0.994865 0.990967
1.00531 0.995469 0.989752
1.00532 0.99544 0.989779
1.00537 0.997382 0.987609
1.00528 0.99744 0.987752
1.00528 0.997746 0.987504
1.00537 1.00075 0.984988
1.00523 0.999921 0.986083
1.00515 1.00019 0.985944
1.00551 1.00355 0.982268
1.00525 1.00292 0.983501
1.0049 1.0017 0.984767
1.00304 1.0028 0.986898
1.00411 1.00409 0.984135
1.00365 1.00394 0.984305
1.00108 1.00326 0.989822
1.00275 1.00278 0.987674
1.00261 1.00182 0.987544
0.999913 1.00072 0.997751
1.00094 1.00277 0.990576
1.00251 1.00365 0.98752
1.00025 0.999073 0.998118
1.00063 1.00221 0.991774
1.00026 0.998629 0.998282
1.00497 1.0013 0.986448
1.00289 1.00172 0.987968
1.00222 1.00433 0.987483
1.00131 1.00498 0.988377
1.00157 1.00517 0.987568
0.999857 1.0052 0.989154
0.999974 1.00152 0.993504
1.00086 1.00465 0.988913
1.00114 1.00419 0.98818
1.00005 0.998192 0.998668
1.00008 1.00065 0.994099
1.00058 1.00429 0.989737
1.00005 0.997823 0.998815
1.0002 0.999944 0.994621
1.00006 0.997392 0.998978
0.994756 0.9948 0.784575
0.994782 0.994815 0.794125
0.994798 0.99484 0.778437
1.00341 1.00316 0.98574
1.00473 1.00472 0.984888
1.00175 1.00483 0.987147
0.999862 1.00529 0.990248
1.00503 0.999714 0.989137
0.997392 0.997965 0.99953
0.99775 1.00322 0.994854
1.00188 1.00141 0.99013
1.00087 1.00011 0.993221
0.998741 0.999034 0.997156
0.997884 1.00356 0.994855
0.999287 1.00235 0.995103
0.996389 0.994749 0.846112
0.994754 0.994871 0.791941
0.994808 0.994777 0.781246
0.994829 0.994905 0.797175
0.994777 0.995389 0.873786
0.994826 0.99536 0.91951
0.994787 0.997933 0.953416
0.99488 0.997248 0.957023
0.994799 0.995065 0.871211
0.994838 0.994813 0.920567
0.994917 0.99712 0.961276
0.995003 0.994649 0.923339
0.999006 0.995206 1.00529
0.999813 0.995021 1.00153
0.998444 1.0002 0.997047
0.994831 0.999129 0.98481
0.996288 0.999443 1.0026
0.995901 0.998659 0.992622
0.995231 0.995989 0.990718
0.999746 0.997704 0.851792
0.994734 0.994759 0.793557
0.994776 0.99482 0.79446
0.994842 1.00445 0.981731
0.994962 0.994852 0.951067
0.994739 0.99485 0.79383
0.994887 0.994675 0.922058
0.996349 0.994778 0.872063
0.995243 0.998338 0.98562
0.999215 0.994877 0.852898
0.996422 0.994708 0.922656
0.994927 0.994801 0.952005
0.996109 0.997575 0.985682
0.999104 0.994853 0.936728
0.994921 0.994806 0.959247
0.996698 1.00212 0.996969
0.999989 0.998937 0.99374
1.00322 0.997777 0.991725
1.00304 0.997215 0.991866
1.00487 0.995131 0.991001
1.00516 0.994745 0.990963
1.0048 0.998278 0.9875
1.00493 0.996308 0.989582
1.00533 0.994731 0.990366
1.00485 0.997841 0.987994
1.00533 0.99491 0.990209
1.00528 0.994793 0.9908
1.00532 0.994845 0.990847
1.00527 0.994854 0.990987
1.00529 0.994915 0.990973
1.00533 0.995813 0.989793
1.00531 0.995521 0.989911
1.00534 0.99539 0.989825
1.00544 0.998279 0.987039
1.00536 0.99743 0.987541
1.00528 0.997393 0.987935
1.00548 1.00232 0.98333
1.00542 1.00077 0.984986
1.00521 0.999821 0.986008
1.00462 1.00272 0.984601
1.00549 1.00331 0.982407
1.00519 1.00298 0.983486
1.00142 1.00378 0.988585
1.00294 1.00326 0.986801
1.00354 1.00377 0.984103
1.00035 1.00062 0.997394
1.00129 1.003 0.989846
1.00282 1.00255 0.987593
1.00018 1.00039 0.996247
1.00106 1.0025 0.990731
1.00031 0.999501 0.99789
1.00532 1.00372 0.983076
1.00386 1.00237 0.986282
1.00306 1.00202 0.987393
1.00374 1.00223 0.987341
1.00218 1.00428 0.987531
1.00136 1.00516 0.987979
1.00032 1.00182 0.992724
1.00099 1.00504 0.988357
1.0003 1.00521 0.987596
1.00006 0.998541 0.998468
0.999974 1.00127 0.993514
1.00088 1.00468 0.988923
1.00001 0.998142 0.998707
1.00006 1.0005 0.99414
1.00003 0.997734 0.998845
0.99851 0.994832 0.854248
0.994756 0.9948 0.790618
0.994788 0.99481 0.794579
1.00341 1.00375 0.985688
1.00263 1.00521 0.985428
1.00443 1.00442 0.984247
1.00495 1.00291 0.984243
1.00129 1.00144 0.991871
0.999079 1.00316 0.994872
1.00172 1.00104 0.991884
1.00104 1.00044 0.993397
1.00459 0.994752 0.992271
1.00207 0.996966 0.99565
1.00135 0.99794 0.996019
1.00039 0.997998 0.99682
0.999808 1.00137 0.99464
0.997416 0.994711 0.934203
0.996924 0.99477 0.850743
0.994709 0.994854 0.798087
0.994784 0.995022 0.855809
0.994792 0.994837 0.931637
0.994916 0.99675 0.959164
0.994928 0.996346 0.963114
0.994817 0.994689 0.936539
0.995795 0.994795 0.960572
0.997316 0.996078 1.00423
0.997721 0.99586 1.00537
1.00009 0.994927 1.00139
0.995788 0.99805 0.992435
0.99638 0.995742 0.991808
0.999985 0.99611 0.920845
0.999806 0.9949 0.859897
0.994741 0.994735 0.790122
0.995336 0.997786 0.981551
0.994918 0.994782 0.951394
0.999294 0.994838 0.851878
0.99619 0.994737 0.937249
0.996131 0.997164 0.985919
0.999746 0.994863 0.931879
0.995382 0.994802 0.956888
0.999648 0.994729 0.984739
0.997611 0.994828 0.968728
0.999554 0.999317 0.993703
1.00234 0.99703 0.991748
1.00503 0.994596 0.991597
1.00474 0.99517 0.99091
1.00511 0.994729 0.990904
1.00529 0.994628 0.990755
1.0048 0.996439 0.989478
1.00532 0.994731 0.990316
1.00534 0.994769 0.990521
1.00534 0.994932 0.990159
1.00527 0.994804 0.990794
1.00533 0.994841 0.990654
1.00531 0.994846 0.990836
1.00535 0.994859 0.990787
1.00526 0.994843 0.991005
1.00529 0.994904 0.990979
1.00527 0.995164 0.990732
1.00535 0.996793 0.988963
1.00533 0.995822 0.989798
1.00531 0.995579 0.99007
1.00541 1.00074 0.984814
1.00546 0.998405 0.98683
1.00535 0.997467 0.987472
1.00531 1.00322 0.982999
1.00551 1.00226 0.983423
1.00548 1.00077 0.984984
1.00238 1.00362 0.987208
1.00416 1.00306 0.984665
1.00542 1.00344 0.982544
1.0006 1.00134 0.996967
1.00156 1.00364 0.988538
1.00286 1.00355 0.986716
1.00048 1.00081 0.997261
1.0014 1.00282 0.989874
1.00044 1.00033 0.997497
1.00532 1.00381 0.983144
1.00535 1.00309 0.98317
1.00331 1.00411 0.984899
1.00294 1.00256 0.9861
1.00265 1.00298 0.987162
1.00183 1.00415 0.9871
1.00196 1.00348 0.98757
1.00118 1.00516 0.98789
1.00074 1.00252 0.991417
1.00009 0.999101 0.998168
1.00009 1.00206 0.992722
1.00057 1.00517 0.98834
1.00001 0.998566 0.998542
0.999968 1.00139 0.993487
0.999973 0.998125 0.99874
0.999971 0.994842 0.936768
0.999839 0.994891 0.851556
0.994741 0.994776 0.78438
1.00306 1.00585 0.983671
1.00413 1.00402 0.983599
1.00268 1.00108 0.990155
1.00454 1.00307 0.984337
1.00519 0.999534 0.986298
1.00399 0.996344 0.991024
1.00118 1.00012 0.993545
1.00484 0.995084 0.991453
1.0019 0.996747 0.9957
1.0042 0.997289 0.991091
1.00206 0.998204 0.993901
1.00158 0.998772 0.994656
1.00116 0.998177 0.996087
1.00136 0.997482 0.996496
0.994993 0.994793 0.959494
0.997011 0.994684 0.92915
0.996002 0.994788 0.869748
0.994796 0.994658 0.922655
0.994918 0.996277 0.963666
0.995766 0.995389 0.96647
0.998822 0.994832 0.990555
0.998843 0.995637 1.00287
0.997215 0.996552 1.00546
0.998174 0.997096 0.993004
0.998918 0.994767 0.960158
1.00056 0.994884 0.936727
0.999747 0.997684 0.839337
0.995956 0.997227 0.986373
0.995981 0.994792 0.956897
0.999114 0.994809 0.926614
0.999151 0.996177 0.985328
0.997573 0.994833 0.967588
1.00234 0.996927 0.987411
1.00334 0.994755 0.984758
1.00138 0.997036 0.991765
1.00444 0.994624 0.991672
1.00522 0.994796 0.990862
1.00504 0.994685 0.990845
1.00529 0.994649 0.990704
1.00539 0.994817 0.990467
1.00532 0.994733 0.990266
1.00534 0.994778 0.990522
1.00536 0.994843 0.990548
1.00526 0.994814 0.990788
1.00533 0.994841 0.990676
1.00535 0.994873 0.990711
1.0053 0.994847 0.990826
1.00535 0.994853 0.990782
1.0053 0.99492 0.990941
1.00529 0.994894 0.990984
1.00527 0.995116 0.990756
1.00528 0.996181 0.989838
1.00534 0.999208 0.986606
1.00536 0.99703 0.988621
1.00534 0.995837 0.989803
1.00537 1.00254 0.983328
1.00543 1.00087 0.984832
1.00548 0.998546 0.986622
1.00317 1.00281 0.986803
1.00485 1.0036 0.983024
1.00551 1.00228 0.983521
1.0013 1.00178 0.996335
1.00242 1.00356 0.987098
1.00365 1.00354 0.984738
1.0009 1.00143 0.996707
1.00178 1.00344 0.988498
1.00069 1.00074 0.99708
1.00537 1.0012 0.984702
1.00529 1.00336 0.983086
1.00462 1.00396 0.983149
1.00532 1.00248 0.983264
1.00417 1.00358 0.984542
1.00315 1.00315 0.985909
1.00261 1.00474 0.986942
1.00237 1.00418 0.987119
1.0012 1.0031 0.98978
1.0011 1.00511 0.987819
1.00046 1.0027 0.991424
1.00019 1.00018 0.997634
1.00005 0.999005 0.998289
0.999884 1.00207 0.992732
0.999963 0.998492 0.998608
0.995528 0.994885 0.96317
0.999421 0.99489 0.920659
0.99984 0.996128 0.866876
1.00528 0.997123 0.988207
1.0042 1.00068 0.988481
1.00427 1.00313 0.984425
1.00444 0.996419 0.991019
1.0052 0.999615 0.986372
1.00516 0.996039 0.989965
1.00514 0.995351 0.990636
1.00137 0.996861 0.995769
1.00463 0.995813 0.991121
1.00171 0.998162 0.994044
1.00361 0.998146 0.990402
1.00318 0.994812 0.994547
1.00122 0.998415 0.994922
1.00098 0.998385 0.996157
0.998365 0.994671 0.98895
0.995546 0.994773 0.957965
0.996638 0.994715 0.922681
0.995391 0.995233 0.968008
0.998781 0.994849 0.993
0.999328 0.995286 1.00146
1.00377 0.995416 0.976677
0.999608 0.994851 0.958116
1.00019 0.99566 0.920962
0.998304 0.997016 0.985884
0.997234 0.994832 0.967179
1.0016 0.995846 0.988081
1.00267 0.994756 0.98524
1.00339 0.997033 0.990094
1.00543 0.9947 0.990687
1.0039 0.994642 0.991753
1.00521 0.994779 0.990865
1.0054 0.994879 0.990474
1.00529 0.994667 0.990655
1.00539 0.994813 0.990476
1.0054 0.994848 0.990527
1.00533 0.994788 0.990523
1.00536 0.994843 0.990554
1.00533 0.99489 0.990763
1.00533 0.994842 0.990698
1.00535 0.994874 0.990706
1.00531 0.994884 0.990923
1.00535 0.994847 0.990778
1.0053 0.994897 0.990922
1.00529 0.995176 0.990874
1.00527 0.995072 0.99078
1.00528 0.995951 0.990013
1.00532 0.998523 0.987556
1.00533 1.00155 0.984433
1.00533 0.999492 0.986332
1.00536 0.997248 0.988279
1.00348 1.0015 0.987341
1.00532 1.0026 0.983347
1.00544 1.00097 0.98485
1.002 1.00155 0.995987
1.00318 1.00255 0.986754
1.00459 1.00374 0.983036
1.00151 1.00184 0.996149
1.00246 1.00344 0.986976
1.00111 1.00172 0.996448
1.00536 0.998826 0.986569
1.00532 1.00126 0.98466
1.00544 1.00261 0.983293
1.00513 1.00321 0.983036
1.00496 1.00403 0.98283
1.00363 1.0037 0.984802
1.00522 1.00276 0.984188
1.00318 1.00348 0.98596
1.00163 1.00352 0.988517
1.00234 1.00425 0.987091
1.00113 1.00332 0.989813
1.00045 1.00129 0.997098
1.00027 1.0029 0.991433
1.00004 0.999946 0.997852
0.999972 0.998983 0.998387
0.999275 0.994719 0.985471
0.996513 0.994813 0.958249
1 0.99483 0.93648
1.00539 0.995459 0.989682
1.00532 0.995241 0.989993
1.0053 0.996805 0.98844
1.0049 0.996528 0.991015
1.00521 0.999573 0.986453
1.00522 0.995858 0.990024
1.00539 0.994812 0.99003
1.00495 0.994933 0.99116
1.00179 0.998137 0.994212
1.00357 0.997951 0.991094
1.0052 0.994774 0.991115
1.00366 0.994666 0.993285
1.00259 0.994838 0.994398
1.00134 0.998066 0.99519
0.99896 0.994625 0.988844
0.996352 0.994786 0.957005
0.99908 0.994841 0.995586
1.00478 0.995901 0.989476
1.00368 0.995336 0.976786
0.998926 0.994855 0.958315
1.00151 0.994791 0.988645
1.00213 0.994761 0.985746
1.00364 0.995967 0.990449
1.00542 0.994705 0.990842
1.00546 0.994738 0.990924
1.00549 0.99484 0.991289
1.00522 0.994766 0.990863
1.00541 0.994863 0.990488
1.0054 0.994846 0.990806
1.00538 0.994807 0.990484
1.0054 0.994844 0.990552
1.00534 0.994868 0.990847
1.00535 0.994843 0.99056
1.00534 0.994891 0.99076
1.00529 0.994915 0.990989
1.00536 0.994876 0.990702
1.0053 0.994885 0.990922
1.00531 0.994918 0.991102
1.00529 0.994873 0.990903
1.00528 0.99518 0.990785
1.00533 0.997575 0.988464
1.00528 0.995729 0.990188
1.00531 0.998396 0.987696
1.00532 1.0009 0.985206
1.0036 1.00087 0.98792
1.00535 1.00152 0.984463
1.00533 0.99979 0.986059
1.00236 1.00087 0.996063
1.00346 1.00161 0.987391
1.00518 1.00283 0.983364
1.00209 1.00144 0.995993
1.0032 1.00256 0.986716
1.00172 1.00195 0.99602
1.00535 0.996431 0.988881
1.00536 0.99863 0.986858
1.00546 1.00106 0.984795
1.00529 1.00136 0.98461
1.00547 1.00267 0.983182
1.00436 1.00364 0.983697
1.00542 1.00396 0.982506
1.0039 1.00345 0.984794
1.00222 1.00376 0.987287
1.00362 1.00355 0.986034
1.00154 1.00363 0.988543
1.0008 1.00187 0.996657
1.00084 1.00354 0.989843
1.00025 1.00106 0.997284
1.00001 0.999659 0.998045
1.00369 0.995083 0.992292
0.998907 0.995017 0.982913
0.996347 0.994817 0.95918
1.00536 0.994906 0.99027
1.00534 0.995375 0.989827
1.00532 0.994853 0.990756
1.00533 0.995436 0.989943
1.00531 0.996586 0.988662
1.00543 0.99476 0.990424
1.00524 0.995736 0.990069
1.00536 0.994938 0.990025
1.00534 0.994713 0.990835
1.00357 0.997268 0.991779
1.0052 0.994757 0.990762
1.003 0.994599 0.993524
1.00165 0.994852 0.994278
0.999441 0.994579 0.988475
1.00545 0.994794 0.991464
1.00514 0.995285 0.989467
1.00345 0.995137 0.97699
1.00373 0.994881 0.990785
1.0054 0.994674 0.990991
1.00543 0.994738 0.990886
1.00553 0.994832 0.991399
1.0054 0.994832 0.991344
1.00542 0.994849 0.990504
1.0054 0.994844 0.990805
1.00534 0.994876 0.991105
1.00541 0.994842 0.990578
1.00534 0.994871 0.990846
1.00528 0.994914 0.991134
1.00534 0.994891 0.990757
1.00529 0.994915 0.990988
1.00526 0.994902 0.991291
1.0053 0.994886 0.990922
1.00531 0.994919 0.991063
1.00533 0.996627 0.989536
1.00528 0.995186 0.990696
1.00534 0.997618 0.988458
1.00532 1.00033 0.98585
1.0053 0.998258 0.987835
1.00533 1.00087 0.985235
1.00352 1.0007 0.990107
1.00271 0.999888 0.992434
1.00359 1.00091 0.988867
1.00535 1.00148 0.984494
1.00227 1.0008 0.996124
1.00343 1.00147 0.98744
1.00209 1.00141 0.996024
1.0053 0.994879 0.991015
1.0053 0.99547 0.990282
1.00533 0.996473 0.989113
1.00529 0.999552 0.986374
1.00534 0.998373 0.987149
1.00541 1.00105 0.98473
1.00507 1.00287 0.983423
1.00548 1.00271 0.983073
1.00473 1.00325 0.983653
1.003 1.00305 0.98651
1.00429 1.00325 0.984793
1.00216 1.00377 0.987319
1.00146 1.00221 0.996105
1.00159 1.00372 0.988582
1.00066 1.00173 0.996833
0.99999 1.00085 0.997502
1.00537 0.994828 0.991252
1.00351 0.99499 0.991708
0.99891 0.995273 0.980418
1.00532 0.994812 0.990757
1.00536 0.994997 0.990212
1.00529 0.995207 0.98999
1.00532 0.994864 0.990769
1.00533 0.995603 0.989893
1.00537 0.994841 0.99082
1.0054 0.994754 0.990379
1.00533 0.995063 0.990024
1.0053 0.994726 0.990873
1.0052 0.994759 0.99041
1.0027 0.994528 0.993728
1.00533 0.994862 0.991422
1.00542 0.994818 0.991462
1.00539 0.994866 0.989456
1.0054 0.994732 0.990841
1.00557 0.994837 0.991507
1.00541 0.994848 0.99132
1.00534 0.9949 0.991377
1.00539 0.994845 0.990803
1.00534 0.994879 0.991064
1.00528 0.994922 0.991299
1.00534 0.994876 0.990846
1.00528 0.994915 0.991133
1.00518 0.994932 0.991498
1.0053 0.994916 0.990986
1.00528 0.994903 0.991265
1.00533 0.995883 0.990464
1.00531 0.994919 0.991023
1.00534 0.996646 0.989522
1.0053 0.999872 0.986412
1.00535 0.997659 0.988452
1.00532 1.00031 0.985884
1.00353 1.00054 0.990256
1.00535 1.00083 0.985266
1.00377 1.00055 0.989946
1.00273 0.999621 0.992558
1.00236 1.00023 0.994424
1.00379 1.00093 0.989603
1.00225 1.00069 0.996173
1.0053 0.994866 0.991008
1.00529 0.995215 0.990686
1.0053 0.994881 0.991045
1.00529 0.998156 0.987853
1.0053 0.995403 0.990394
1.00532 0.996557 0.989346
1.0053 0.999505 0.986351
1.00535 1.0016 0.984327
1.00538 1.00105 0.984666
1.00518 1.00277 0.983417
1.00339 1.00192 0.987097
1.00495 1.00315 0.983617
1.00296 1.00317 0.986584
1.00194 1.0018 0.995933
1.00213 1.00372 0.987356
1.00123 1.00196 0.996329
1.00043 1.00166 0.996969
1.00534 0.994885 0.991093
1.00534 0.994828 0.991314
1.00292 0.994866 0.991148
1.0053 0.994887 0.990951
1.00533 0.994811 0.990709
1.00535 0.99508 0.990155
1.00532 0.994878 0.99078
1.00539 0.994851 0.990789
1.00537 0.99475 0.990334
1.00527 0.994742 0.990908
1.00535 0.994897 0.991399
1.00533 0.994863 0.991379
1.00539 0.994833 0.991458
1.00532 0.994919 0.991445
1.00542 0.994862 0.991296
1.00534 0.994899 0.991369
1.00528 0.994932 0.991426
1.00534 0.994879 0.991024
1.00528 0.994922 0.991305
1.00513 0.99496 0.991663
1.00528 0.994915 0.991132
1.0052 0.994932 0.99149
1.00532 0.995418 0.991062
1.0053 0.994905 0.991239
1.0053 0.995906 0.990461
1.00529 0.999504 0.986838
1.00535 0.996668 0.98951
1.00529 0.999858 0.98645
1.00348 1.00048 0.990339
1.00532 1.00029 0.985918
1.00375 1.00042 0.990073
1.00267 0.999686 0.992553
1.004 1.0004 0.989792
1.0022 0.999774 0.992954
1.00162 1.00059 0.996831
1.00527 0.994917 0.991083
1.00531 0.994885 0.991063
1.00529 0.994875 0.991019
1.00532 0.997553 0.988493
1.0053 0.995077 0.990799
1.0053 0.994879 0.991078
1.00536 1.00055 0.985452
1.00529 0.998082 0.987856
1.0053 0.995331 0.990506
1.0053 0.999456 0.986328
1.00535 1.00164 0.984295
1.0034 1.00114 0.987956
1.00537 1.00262 0.983398
1.00333 1.002 0.98708
1.00204 1.00112 0.996129
1.00287 1.00323 0.986635
1.00187 1.0018 0.995956
1.00107 1.00188 0.996558
1.00532 0.99491 0.991238
1.00536 0.99488 0.991021
1.00529 0.994826 0.991379
1.00529 0.99489 0.990959
1.00533 0.994809 0.990662
1.0054 0.994858 0.990758
1.00532 0.994923 0.991438
1.00534 0.9949 0.991408
1.00534 0.994866 0.991336
1.00532 0.99492 0.991458
1.00526 0.994946 0.991582
1.00533 0.994898 0.991361
1.00528 0.994935 0.991459
1.00512 0.994959 0.991711
1.00528 0.994923 0.99131
1.00514 0.994959 0.991663
1.0053 0.995161 0.991362
1.00522 0.994932 0.991481
1.00528 0.99546 0.99106
1.00533 0.999162 0.987158
1.00527 0.995925 0.990458
1.0053 0.999489 0.986862
1.0034 1.00045 0.990448
1.00528 0.999842 0.986488
1.00369 1.00039 0.990145
1.00254 0.999857 0.992536
1.00396 1.00032 0.989898
1.0022 0.999742 0.99297
1.00169 0.999958 0.993335
1.00525 0.994927 0.991279
1.00523 0.994929 0.991304
1.00526 0.994914 0.991058
1.00528 0.996525 0.989708
1.00532 0.994909 0.991024
1.00528 0.994885 0.991029
1.00529 0.99995 0.986269
1.00531 0.997153 0.988886
1.00531 0.994961 0.990912
1.0035 1.00054 0.988433
1.00534 1.00061 0.985414
1.00529 0.998016 0.987861
1.00535 1.00166 0.984262
1.00343 1.0011 0.987916
1.00209 1.00063 0.996275
1.00329 1.00219 0.987076
1.0021 1.00123 0.996049
1.00177 1.00174 0.996055
1.00528 0.994928 0.991441
1.00532 0.994907 0.991199
1.00539 0.994874 0.990948
1.00529 0.994894 0.990967
1.00524 0.994952 0.991602
1.00532 0.99492 0.991441
1.00534 0.9949 0.991417
1.00531 0.994921 0.991472
1.00526 0.994944 0.991584
1.00511 0.994956 0.991828
1.00527 0.994938 0.991491
1.00512 0.99496 0.991757
1.00529 0.995133 0.991444
1.00515 0.994958 0.991662
1.00528 0.995224 0.991357
1.00537 0.998844 0.987445
1.00524 0.995516 0.991058
1.00535 0.999141 0.987158
1.00343 1.00038 0.988794
1.00531 0.999476 0.986885
1.00362 1.00041 0.989364
1.00218 0.999951 0.996261
1.00391 1.00032 0.989949
1.00211 0.999866 0.992955
1.00174 0.999788 0.993371
1.00524 0.994945 0.991435
1.0052 0.994937 0.991457
1.00525 0.994929 0.991314
1.00526 0.995709 0.990753
1.00523 0.99493 0.991259
1.00526 0.994911 0.991032
1.00523 0.999013 0.987454
1.00528 0.996504 0.989707
1.00533 0.994913 0.990986
1.00355 1.00027 0.988648
1.00529 0.999672 0.986545
1.0053 0.996736 0.989278
1.00218 1.0002 0.99635
1.00353 1.0005 0.988398
1.00532 1.00065 0.985373
1.00346 1.00105 0.987877
1.00214 1.00066 0.996233
1.00213 1.00129 0.995955
1.00523 0.99495 0.991521
1.00529 0.994932 0.991425
1.00531 0.994908 0.99116
1.00512 0.994955 0.991886
1.00524 0.994949 0.991575
1.00533 0.994919 0.991445
1.00526 0.994941 0.991587
1.00512 0.994955 0.991825
1.0053 0.995812 0.990764
1.00513 0.994962 0.991803
1.00529 0.995485 0.991095
1.00538 0.997972 0.988414
1.00527 0.995275 0.99135
1.00538 0.998824 0.987439
1.00338 1.00016 0.989101
1.00538 0.999122 0.987161
1.00346 1.00035 0.988801
1.00207 1.00002 0.996287
1.00368 1.00038 0.98846
1.00199 1 0.994695
1.00168 0.999859 0.993373
1.0052 0.994948 0.991581
1.00515 0.994952 0.991659
1.00523 0.994942 0.991447
1.00526 0.995663 0.990886
1.00519 0.99494 0.99149
1.00525 0.99493 0.991348
1.0053 0.998678 0.987699
1.00527 0.995972 0.990387
1.00523 0.99493 0.991213
1.00356 1.00023 0.988685
1.00522 0.998936 0.987494
1.00528 0.996495 0.989705
1.00222 0.999957 0.996342
1.00356 1.00027 0.98863
1.00529 0.999384 0.986824
1.00222 1.00022 0.996326
1.00356 1.00046 0.988364
1.00215 1.00072 0.996199
1.00514 0.994955 0.991767
1.00522 0.994949 0.991548
1.0053 0.994934 0.99141
1.00533 0.995837 0.990706
1.00512 0.994954 0.991849
1.00524 0.994946 0.991547
1.00512 0.994954 0.991822
1.0053 0.995794 0.990764
1.00537 0.99786 0.98854
1.00529 0.995833 0.990744
1.00539 0.998282 0.988032
1.00333 0.999963 0.989376
1.00539 0.998801 0.987433
1.00337 1.00017 0.989108
1.00194 1.00002 0.996351
1.00348 1.00032 0.988804
1.00202 1.00003 0.996305
1.00209 1.00001 0.992771
1.00513 0.994954 0.991734
1.0052 0.994945 0.991518
1.00527 0.995564 0.99102
1.00515 0.994953 0.991661
1.00523 0.994939 0.99146
1.00532 0.999124 0.987128
1.00528 0.995582 0.990885
1.00518 0.994942 0.991522
1.00352 1.00027 0.988752
1.00529 0.998984 0.987348
1.00528 0.996243 0.990021
1.00218 0.999926 0.996298
1.00355 1.00027 0.988684
1.00522 0.998864 0.987536
1.00225 0.999981 0.99635
1.00356 1.00028 0.988607
1.00229 1.00023 0.996297
1.00533 0.995921 0.990579
1.00514 0.994954 0.991795
1.00522 0.994949 0.991574
1.00536 0.997911 0.988502
1.00532 0.995835 0.990704
1.00513 0.994953 0.991812
1.00529 0.995779 0.990763
1.00538 0.99783 0.988528
1.00327 0.999847 0.989603
1.00539 0.998597 0.98765
1.00333 0.999965 0.989381
1.00185 1.00001 0.996426
1.00338 1.00018 0.989118
1.00189 1.00005 0.996386
1.00197 1.00005 0.996332
1.00529 0.995478 0.991122
1.00514 0.994954 0.991719
1.00519 0.994942 0.991454
1.00534 0.998948 0.987317
1.00528 0.995498 0.991022
1.00515 0.994954 0.991663
1.00344 1.00025 0.988933
1.00532 0.999154 0.987132
1.00529 0.995501 0.990885
1.00207 0.999985 0.996282
1.0035 1.00031 0.988753
1.00528 0.999284 0.986996
1.00222 0.999931 0.996315
1.00353 1.00031 0.988678
1.00231 0.999975 0.996348
1.00536 0.998607 0.987681
1.00532 0.995632 0.99093
1.00514 0.994954 0.991823
1.00323 0.999776 0.98976
1.00537 0.997869 0.988508
1.00531 0.99583 0.990702
1.00539 0.997795 0.988516
1.00329 0.999819 0.989605
1.00178 0.999995 0.996471
1.00333 0.999967 0.989386
1.00182 1.00001 0.996438
1.00183 1.00007 0.996412
1.00535 0.998774 0.987521
1.0053 0.995443 0.99115
1.00514 0.994954 0.991705
1.00352 1.00012 0.990652
1.00533 0.998966 0.987325
1.00529 0.995432 0.991023
1.00195 1.00004 0.996317
1.00342 1.00028 0.988935
1.00531 0.999185 0.987138
1.00212 0.999975 0.996288
1.00348 1.00034 0.988754
1.00226 0.999923 0.996331
1.00336 0.999778 0.989615
1.00535 0.998309 0.988037
1.00532 0.995349 0.991281
1.0017 0.999977 0.996535
1.00323 0.999759 0.989751
1.00538 0.997832 0.988514
1.0033 0.999791 0.989603
1.00175 0.999987 0.996492
1.00179 1.00003 0.996455
1.00356 0.999946 0.990823
1.00534 0.99878 0.987529
1.00531 0.995407 0.991178
1.00129 1.00008 0.997038
1.00334 1.00014 0.989195
1.00532 0.998982 0.987337
1.00199 1.00003 0.996311
1.00339 1.00032 0.988934
1.00217 0.999961 0.996293
1.00169 0.999897 0.993471
1.00338 0.999801 0.99034
1.00534 0.998002 0.988388
1.00172 0.999975 0.996542
1.00325 0.999747 0.989749
1.00176 0.999978 0.996509
1.0011 1.00003 0.993993
1.00343 0.999911 0.990145
1.00533 0.99879 0.987534
1.00154 1.00006 0.995103
1.00331 1.00015 0.989219
1.00203 1.00002 0.996307
1.00171 0.999969 0.996534
1.00322 0.9998 0.989724
1.00169 0.999969 0.99654
1.00146 0.99996 0.99526
1.00329 0.999905 0.989526
1.00188 1.00004 0.99636
1.00173 0.999985 0.996526
1.00177 1 0.99645

TENSORS stress float
0.00267116 -0.000190199 0.00031096
-0.000190199 0.00140334 -5.82775e-05
0.00031096 -5.82775e-05 0.00137473
0.0081469 0.000171939 0.000382421
0.000171939 0.00495882 4.94162e-05
0.000382421 4.94162e-05 0.0049757
0.00226467 -0.000119849 0.000123073
-0.000119849 0.00113386 -2.20911e-05
0.000123073 -2.20911e-05 0.00109009
0.00247991 -0.000105923 0.00029133
-0.000105923 0.00126211 -3.28645e-05
0.00029133 -3.28645e-05 0.00124582
0.00264282 -0.0001654 0.000301573
-0.0001654 0.00137749 -5.06252e-05
0.000301573 -5.06252e-05 0.00135299
0.00275953 -0.000199641 0.000325364
-0.000199641 0.00145941 -6.15033e-05
0.000325364 -6.15033e-05 0.00143109
0.00216659 -0.00022697 6.2161e-05
-0.00022697 0.000910167 -1.62271e-05
6.2161e-05 -1.62271e-05 0.000757963
0.00830031 0.000164822 -9.96279e-06
0.000164822 0.00504851 -3.40388e-06
-9.96279e-06 -3.40388e-06 0.00506952
0.00728567 0.00028095 0.00018754
0.00028095 0.00442097 2.17446e-05
0.00018754 2.17446e-05 0.00438635
0.00761838 9.16163e-05 0.000128969
9.16163e-05 0.004591 9.22704e-06
0.000128969 9.22704e-06 0.00457001
0.00205038 0.000264159 0.000346195
0.000264159 0.00102527 5.44916e-05
0.000346195 5.44916e-05 0.00100282
0.000261371 0.000298299 2.58511e-05
0.000298299 -0.000253898 2.34343e-05
2.58511e-05 2.34343e-05 -0.000446071
0.00200413 -2.90809e-05 0.000280947
-2.90809e-05 0.000950784 5.66344e-06
0.000280947 5.66344e-06 0.000957009
0.00176215 8.46341e-06 8.00226e-05
8.46341e-06 0.000820556 3.4353e-06
8.00226e-05 3.4353e-06 0.000767824
0.00193378 -0.000117673 -7.69117e-05
-0.000117673 0.000934516 1.48203e-05
-7.69117e-05 1.48203e-05 0.000865998
0.00213107 -0.000103473 9.34508e-05
-0.000103473 0.00105626 -6.39569e-06
9.34508e-05 -6.39569e-06 0.00101659
0.00233404 -0.000112748 0.000135695
-0.000112748 0.0011809 -2.51398e-05
0.000135695 -2.51398e-05 0.00113454
0.00223045 -0.000121158 0.000110051
-0.000121158 0.00111236 -1.63919e-05
0.000110051 -1.63919e-05 0.00107065
0.00229142 -0.000263458 -4.81246e-05
-0.000263458 0.000992072 8.35928e-06
-4.81246e-05 8.35928e-06 0.000849974
0.00675155 -0.000173523 0.000374198
-0.000173523 0.00407963 -1.96363e-05
0.000374198 -1.96363e-05 0.0041072
0.00234734 -8.00523e-05 0.00028467
-8.00523e-05 0.00117742 -2.4684e-05
0.00028467 -2.4684e-05 0.00116516
0.00256835 -0.000134929 0.000295078
-0.000134929 0.00132328 -4.17321e-05
0.000295078 -4.17321e-05 0.00130325
0.00208072 -0.000176135 7.7264e-05
-0.000176135 0.000890159 -1.29328e-05
7.7264e-05 -1.29328e-05 0.000774517
0.00215167 -0.000217733 6.94392e-05
-0.000217733 0.000903996 -1.57873e-05
6.94392e-05 -1.57873e-05 0.000766935
0.0026693 -0.000181964 0.000332099
-0.000181964 0.00139544 -5.91265e-05
0.000332099 -5.91265e-05 0.00137087
0.0021982 -0.000235943 5.8869e-05
-0.000235943 0.000940264 -1.71293e-05
5.8869e-05 -1.71293e-05 0.000768349
0.00216639 -0.00046528 1.72717e-05
-0.00046528 0.000586309 -6.51291e-06
1.72717e-05 -6.51291e-06 0.000296743
0.00835329 0.000163468 -0.000411307
0.000163468 0.00507093 -4.22608e-05
-0.000411307 -4.22608e-05 0.0050996
0.00484353 0.000205583 -0.000168193
0.000205583 0.00281869 -2.1146e-05
-0.000168193 -2.1146e-05 0.00279308
0.00499486 0.000146807 -0.000177447
0.000146807 0.00291284 -2.2044e-05
-0.000177447 -2.2044e-05 0.0028905
0.00860005 0.000104676 -3.10573e-06
0.000104676 0.0052442 -2.05558e-06
-3.10573e-06 -2.05558e-06 0.00526624
0.000245982 0.000284223 -1.40985e-06
0.000284223 -0.000256258 -1.21912e-06
-1.40985e-06 -1.21912e-06 -0.000446178
0.00215632 8.2396e-05 0.000293893
8.2396e-05 0.00104773 3.04608e-05
0.000293893 3.04608e-05 0.00103795
0.00227605 0.000174897 0.000306755
0.000174897 0.001154 4.79042e-05
0.000306755 4.79042e-05 0.00113027
0.00302275 0.000270312 0.000178532
0.000270312 0.00146723 2.81776e-05
0.000178532 2.81776e-05 0.00135884
0.00805127 -0.000207005 6.2074e-05
-0.000207005 0.00494233 4.00302e-06
6.2074e-05 4.00302e-06 0.00489723
0.00318619 0.000372604 0.000194698
0.000372604 0.00162404 3.73419e-05
0.000194698 3.73419e-05 0.00148478
0.000214909 0.000273917 2.59787e-05
0.000273917 -0.000265713 3.26424e-05
2.59787e-05 3.26424e-05 -0.000459358
0.00134898 0.000482296 2.99325e-05
0.000482296 0.000188694 5.71525e-06
2.99325e-05 5.71525e-06 -0.000164415
0.00638222 -9.74178e-05 0.000244537
-9.74178e-05 0.00392328 3.20915e-05
0.000244537 3.20915e-05 0.00391516
0.00667813 9.21686e-05 2.98908e-06
9.21686e-05 0.00401532 -2.20574e-06
2.98908e-06 -2.20574e-06 0.00405262
0.00440257 0.000106532 -0.000141306
0.000106532 0.00253315 -6.99952e-06
-0.000141306 -6.99952e-06 0.00252338
0.00654426 5.72881e-05 0.000362622
5.72881e-05 0.00393074 5.28095e-06
0.000362622 5.28095e-06 0.00396932
0.00165674 9.32257e-05 8.20519e-05
9.32257e-05 0.000756775 6.55535e-06
8.20519e-05 6.55535e-06 0.000708021
0.000427392 1.6388e-05 1.24311e-05
1.6388e-05 -0.000188531 2.81193e-06
1.24311e-05 2.81193e-06 -0.000286225
0.00690682 0.000254067 0.000210656
0.000254067 0.00419864 2.1753e-05
0.000210656 2.1753e-05 0.00417196
0.00298169 0.000101533 0.000163452
0.000101533 0.00144604 1.23605e-05
0.000163452 1.23605e-05 0.00138025
0.00176674 -0.000104387 -9.57233e-05
-0.000104387 0.000841059 1.34106e-05
-9.57233e-05 1.34106e-05 0.000777441
0.00181596 -0.000136506 -8.91679e-05
-0.000136506 0.00087167 1.70398e-05
-8.91679e-05 1.70398e-05 0.00080102
0.00202001 -8.21477e-05 -6.50258e-05
-8.21477e-05 0.0009798 1.24648e-05
-6.50258e-05 1.24648e-05 0.000913011
0.00237525 -0.000264912 -0.000165557
-0.000264912 0.00103506 3.2861e-05
-0.000165557 3.2861e-05 0.000908092
0.00426855 -4.35494e-05 -0.000144169
-4.35494e-05 0.00245484 -8.40956e-07
-0.000144169 -8.40956e-07 0.00244568
0.00206014 -8.23491e-05 9.64347e-05
-8.23491e-05 0.00100786 -4.96857e-06
9.64347e-05 -4.96857e-06 0.000973426
0.00247134 -8.80453e-05 0.000140136
-8.80453e-05 0.00126587 -2.38326e-05
0.000140136 -2.38326e-05 0.00121813
0.00217834 -0.000111955 9.99727e-05
-0.000111955 0.00108247 -1.06088e-05
9.99727e-05 -1.06088e-05 0.00104209
0.0021643 -0.000153425 -3.92851e-05
-0.000153425 0.000929806 3.49409e-06
-3.92851e-05 3.49409e-06 0.000829492
0.00231691 -0.00028345 -5.55574e-05
-0.00028345 0.00101641 9.77459e-06
-5.55574e-05 9.77459e-06 0.000856404
0.00224075 -0.000231942 -4.2759e-05
-0.000231942 0.000959313 6.20046e-06
-4.2759e-05 6.20046e-06 0.000833292
0.00230449 -0.000476252 -1.03366e-05
-0.000476252 0.000675485 2.77581e-06
-1.03366e-05 2.77581e-06 0.000386275
0.00655887 -1.93183e-05 0.00036047
-1.93183e-05 0.00393695 -5.20608e-06
0.00036047 -5.20608e-06 0.0039768
0.00226196 -5.33934e-05 0.000278522
-5.33934e-05 0.00112491 -1.74059e-05
0.000278522 -1.74059e-05 0.00111791
0.00253185 -3.01982e-05 6.05231e-05
-3.01982e-05 0.00119725 -1.26734e-06
6.05231e-05 -1.26734e-06 0.00112085
0.00200466 -0.000139434 6.95773e-05
-0.000139434 0.000845185 -8.63614e-06
6.95773e-05 -8.63614e-06 0.000742266
0.00210646 -0.000196545 7.45003e-05
-0.000196545 0.000889308 -1.48154e-05
7.45003e-05 -1.48154e-05 0.000764291
0.00201747 -0.000286535 2.08205e-06
-0.000286535 0.000416265 -1.77006e-06
2.08205e-06 -1.77006e-06 0.000226459
0.00208088 -0.000411671 1.24565e-05
-0.000411671 0.000479306 -3.76231e-06
1.24565e-05 -3.76231e-06 0.000233821
0.00270583 -0.000150018 0.000333525
-0.000150018 0.00141137 -5.36603e-05
0.000333525 -5.36603e-05 0.00138656
0.00219369 -0.000194201 5.07599e-05
-0.000194201 0.000974842 -1.55645e-05
5.07599e-05 -1.55645e-05 0.000796504
0.00211666 -0.00052095 2.08731e-05
-0.00052095 0.000589111 -6.52991e-06
2.08731e-05 -6.52991e-06 0.000253053
0.00211296 -0.000624261 1.66671e-06
-0.000624261 0.000295453 2.46027e-06
1.66671e-06 2.46027e-06 -3.30059e-05
0.00777087 0.000335916 -0.000420336
0.000335916 0.00472895 -5.39944e-05
-0.000420336 -5.39944e-05 0.00473915
0.00848827 6.58596e-05 -0.000371513
6.58596e-05 0.0051749 -3.52562e-05
-0.000371513 -3.52562e-05 0.00519695
0.00799325 0.000224022 -0.000399321
0.000224022 0.00484408 -4.58977e-05
-0.000399321 -4.58977e-05 0.00486807
0.000191865 0.000267029 -2.54857e-05
0.000267029 -0.000283556 -2.31478e-05
-2.54857e-05 -2.31478e-05 -0.000472791
0.00743672 0.000278753 -2.07758e-06
0.000278753 0.00450742 -2.78284e-06
-2.07758e-06 -2.78284e-06 0.00452532
0.00781959 0.000304714 -8.0483e-06
0.000304714 0.00474859 -3.95966e-06
-8.0483e-06 -3.95966e-06 0.00476138
0.00036195 0.00018026 2.01345e-07
0.00018026 -0.000266965 -3.05594e-07
2.01345e-07 -3.05594e-07 -0.000416875
0.00466023 -1.09323e-05 -0.000163576
-1.09323e-05 0.00274285 -1.16329e-05
-0.000163576 -1.16329e-05 0.00271044
0.000311678 0.000263599 1.82277e-06
0.000263599 -0.000245582 -3.99232e-07
1.82277e-06 -3.99232e-07 -0.000426498
0.00203303 0.000312882 8.25714e-05
0.000312882 0.000914212 5.47238e-06
8.25714e-05 5.47238e-06 0.00075183
0.00127569 0.000488027 9.67428e-07
0.000488027 0.000123783 3.31229e-07
9.67428e-07 3.31229e-07 -0.000233763
0.00718485 -5.62306e-05 0.000299877
-5.62306e-05 0.00441883 3.84416e-05
0.000299877 3.84416e-05 0.00441755
0.000467189 0.000182904 3.15736e-05
0.000182904 -5.84628e-05 1.71246e-05
3.15736e-05 1.71246e-05 -0.000170205
0.000453673 0.000141682 1.37845e-05
0.000141682 -0.000214504 1.22144e-05
1.37845e-05 1.22144e-05 -0.000350727
0.000453254 0.0002145 1.82253e-05
0.0002145 -0.000198274 2.06905e-05
1.82253e-05 2.06905e-05 -0.000361055
0.00155178 0.000394462 1.28471e-05
0.000394462 7.35585e-05 4.21735e-06
1.28471e-05 4.21735e-06 -0.00018158
0.00369367 0.000331673 0.000194627
0.000331673 0.00201769 3.47021e-05
0.000194627 3.47021e-05 0.00189371
0.00146819 0.000477981 2.57697e-05
0.000477981 0.000153782 6.52601e-06
2.57697e-05 6.52601e-06 -0.00017137
0.000717805 0.000423199 2.63265e-05
0.000423199 -0.0001145 5.02762e-06
2.63265e-05 5.02762e-06 -0.000470885
0.00188304 0.000719204 8.94977e-06
0.000719204 0.000322643 -6.08275e-06
8.94977e-06 -6.08275e-06 -0.000122082
0.00529318 -0.000147071 0.000171785
-0.000147071 0.00321302 1.95904e-05
0.000171785 1.95904e-05 0.00319896
0.0059188 -0.000153521 1.14795e-05
-0.000153521 0.00362268 3.4217e-06
1.14795e-05 3.4217e-06 0.00360605
0.00716457 8.58533e-05 -0.000383901
8.58533e-05 0.00431279 -2.18901e-05
-0.000383901 -2.18901e-05 0.00434826
0.00678116 8.43136e-05 -0.000374783
8.43136e-05 0.00407715 -1.34615e-05
-0.000374783 -1.34615e-05 0.00411587
0.00663383 8.38116e-05 -2.59657e-07
8.38116e-05 0.00399283 -4.55837e-06
-2.59657e-07 -4.55837e-06 0.00402906
0.00426405 4.8122e-05 -0.000152303
4.8122e-05 0.0024422 -8.94512e-06
-0.000152303 -8.94512e-06 0.00243857
0.0015535 4.57569e-05 7.23039e-05
4.57569e-05 0.000542661 2.34183e-06
7.23039e-05 2.34183e-06 0.000466619
0.00460565 0.000170435 -0.00014571
0.000170435 0.00267046 -9.50605e-06
-0.00014571 -9.50605e-06 0.00265144
0.00164874 0.000114574 7.35432e-05
0.000114574 0.000581991 4.21079e-06
7.35432e-05 4.21079e-06 0.000489522
0.00659866 0.000107681 0.000366932
0.000107681 0.00397746 7.34651e-06
0.000366932 7.34651e-06 0.00400963
0.000294068 1.04066e-05 1.59955e-05
1.04066e-05 -0.000266645 1.65506e-06
1.59955e-05 1.65506e-06 -0.000359944
0.00293476 5.67073e-05 0.000161937
5.67073e-05 0.00142741 8.59635e-06
0.000161937 8.59635e-06 0.00137069
0.00133088 9.42244e-05 3.33839e-06
9.42244e-05 -6.09542e-05 9.41025e-07
3.33839e-06 9.41025e-07 -0.000193454
0.00290221 0.000157432 0.000169604
0.000157432 0.00138588 1.61255e-05
0.000169604 1.61255e-05 0.00130779
0.00144646 0.000198424 1.91323e-06
0.000198424 -1.99193e-05 1.09903e-06
1.91323e-06 1.09903e-06 -0.000181861
0.00203601 3.51836e-05 -0.000281734
3.51836e-05 0.000966374 4.96272e-06
-0.000281734 4.96272e-06 0.000975816
0.00173264 -3.352e-05 -8.1777e-05
-3.352e-05 0.000808259 4.89642e-06
-8.1777e-05 4.89642e-06 0.000753434
0.00210388 -5.02009e-05 -5.90581e-05
-5.02009e-05 0.00102786 1.12663e-05
-5.90581e-05 1.12663e-05 0.000960724
0.00176146 -0.000122055 -9.67812e-05
-0.000122055 0.000838829 1.62103e-05
-9.67812e-05 1.62103e-05 0.00077226
0.00227345 -0.00013027 -0.000150868
-0.00013027 0.000986754 1.59042e-05
-0.000150868 1.59042e-05 0.000901787
0.00235457 -0.0002177 -0.000158651
-0.0002177 0.00101841 2.72094e-05
-0.000158651 2.72094e-05 0.00090899
0.00245411 -0.000309881 -0.000175354
-0.000309881 0.00110582 3.61829e-05
-0.000175354 3.61829e-05 0.000957164
0.00244994 -0.000489361 -3.4849e-05
-0.000489361 0.000769573 1.1031e-05
-3.4849e-05 1.1031e-05 0.000480097
0.00665864 -0.000125812 2.66903e-06
-0.000125812 0.00401721 -2.16958e-06
2.66903e-06 -2.16958e-06 0.004048
0.00195109 1.18908e-05 0.00010311
1.18908e-05 0.000925785 -5.94858e-06
0.00010311 -5.94858e-06 0.000903562
0.00121458 -2.21858e-05 -7.59287e-05
-2.21858e-05 0.000327684 3.11692e-06
-7.59287e-05 3.11692e-06 0.000251905
0.00208922 -0.000103912 -4.13411e-05
-0.000103912 0.0008894 3.96608e-06
-4.13411e-05 3.96608e-06 0.000800149
0.00579211 -0.000134031 0.000333849
-0.000134031 0.00342209 -3.31691e-05
0.000333849 -3.31691e-05 0.00341907
0.00286132 -0.000285886 -5.25621e-05
-0.000285886 0.00140834 6.27865e-06
-5.25621e-05 6.27865e-06 0.00124635
0.00219889 -0.00019187 -3.94609e-05
-0.00019187 0.000940066 4.56471e-06
-3.94609e-05 4.56471e-06 0.000828613
0.00213428 -0.00028994 -8.8178e-06
-0.00028994 0.000491484 2.0571e-06
-8.8178e-06 2.0571e-06 0.000308416
0.0023584 -0.00054585 -8.70873e-06
-0.00054585 0.000759873 2.67595e-06
-8.70873e-06 2.67595e-06 0.000420296
0.00219415 -0.000418571 -1.04393e-05
-0.000418571 0.000556938 3.03203e-06
-1.04393e-05 3.03203e-06 0.000307486
0.00214213 -0.000626514 1.01189e-06
-0.000626514 0.000318467 -9.65901e-08
1.01189e-06 -9.65901e-08 -1.02961e-05
0.000306992 3.30517e-06 1.68834e-05
3.30517e-06 -0.000262942 -3.31074e-08
1.68834e-05 -3.31074e-08 -0.000353329
0.00191173 -2.80719e-05 6.12499e-05
-2.80719e-05 0.000779547 -3.20604e-06
6.12499e-05 -3.20604e-06 0.000695135
0.00206233 -0.000105635 1.44316e-06
-0.000105635 0.000447343 3.04127e-07
1.44316e-06 3.04127e-07 0.000330817
0.00206492 -0.00023223 2.23674e-07
-0.00023223 0.000455571 -4.73785e-07
2.23674e-07 -4.73785e-07 0.000299875
0.00219191 -0.000354701 7.49144e-06
-0.000354701 0.000527845 -1.87058e-06
7.49144e-06 -1.87058e-06 0.000320151
0.0021385 -0.000405886 4.45784e-07
-0.000405886 0.00013304 -1.39698e-07
4.45784e-07 -1.39698e-07 -4.01572e-05
0.00799939 -1.12105e-05 0.000318398
-1.12105e-05 0.00488526 -3.15566e-05
0.000318398 -3.15566e-05 0.00489552
0.00201536 -0.00056473 2.34499e-06
-0.00056473 0.000159245 1.64691e-06
2.34499e-06 1.64691e-06 -0.000118269
0.000434341 -0.000257511 2.26949e-05
-0.000257511 -0.000157165 -2.8646e-05
2.26949e-05 -2.8646e-05 -0.000336318
0.00113776 -0.000502003 1.92584e-05
-0.000502003 3.56704e-05 -5.75367e-06
1.92584e-05 -5.75367e-06 -0.000348784
0.00228826 -0.000694737 -9.6963e-10
-0.000694737 0.000482052 3.43795e-06
-9.6963e-10 3.43795e-06 9.40308e-05
0.00219013 -0.000691876 1.50415e-06
-0.000691876 0.000251785 3.19866e-06
1.50415e-06 3.19866e-06 -4.90889e-05
0.000292068 -0.000200337 2.14164e-05
-0.000200337 -0.000180818 -2.45083e-05
2.14164e-05 -2.45083e-05 -0.000336515
0.00151489 -0.000234472 -1.28945e-06
-0.000234472 0.000624009 -4.43217e-06
-1.28945e-06 -4.43217e-06 0.000328991
0.00757859 0.000306692 -0.000419132
0.000306692 0.00460452 -4.83718e-05
-0.000419132 -4.83718e-05 0.00461926
0.00795439 0.000303111 -0.000416752
0.000303111 0.0048338 -5.2919e-05
-0.000416752 -5.2919e-05 0.00485062
0.000331132 0.000180527 -1.73866e-05
0.000180527 -0.000287855 -1.49801e-05
-1.73866e-05 -1.49801e-05 -0.000439277
0.00772807 -2.40127e-05 -0.000307031
-2.40127e-05 0.00472676 -2.80602e-05
-0.000307031 -2.80602e-05 0.00473819
9.61229e-05 0.000241694 -2.34334e-05
0.000241694 -0.000339067 -2.61315e-05
-2.34334e-05 -2.61315e-05 -0.000514059
0.000282999 0.00025331 -2.13851e-05
0.00025331 -0.000262989 -2.19949e-05
-2.13851e-05 -2.19949e-05 -0.000444327
0.0012333 0.000491594 -3.31058e-05
0.000491594 8.33875e-05 -6.38029e-06
-3.31058e-05 -6.38029e-06 -0.000277332
0.00706966 -5.90243e-05 -1.12248e-05
-5.90243e-05 0.00433799 1.55724e-06
-1.12248e-05 1.55724e-06 0.00433939
0.000733929 0.000157935 2.20059e-06
0.000157935 0.000112256 3.4859e-07
2.20059e-06 3.4859e-07 3.84255e-06
0.00174609 0.000191386 7.74564e-05
0.000191386 0.000627643 7.62439e-06
7.74564e-05 7.62439e-06 0.0005098
0.00178455 0.000271636 8.21201e-05
0.000271636 0.000676168 9.66528e-06
8.21201e-05 9.66528e-06 0.000530502
0.00151479 0.000391777 -1.44526e-07
0.000391777 5.68826e-05 -4.04452e-07
-1.44526e-07 -4.04452e-07 -0.000199249
0.000114783 0.000235223 -4.88006e-07
0.000235223 -0.000301113 -2.35054e-07
-4.88006e-07 -2.35054e-07 -0.000463457
0.00141817 0.000473731 6.06442e-07
0.000473731 0.00012132 -5.39777e-10
6.06442e-07 -5.39777e-10 -0.000204241
0.000948423 0.000425718 3.96827e-06
0.000425718 2.71694e-05 -1.7848e-06
3.96827e-06 -1.7848e-06 -0.000323759
0.00192062 0.000729805 -2.06849e-06
0.000729805 0.000342955 1.13984e-07
-2.06849e-06 1.13984e-07 -0.000100649
0.000448807 0.00021829 2.27622e-05
0.00021829 -8.48989e-05 2.28061e-05
2.27622e-05 2.28061e-05 -0.000220535
0.000753094 9.89809e-05 1.60324e-05
9.89809e-05 0.000164624 1.78969e-05
1.60324e-05 1.78969e-05 6.22424e-05
0.000186327 0.000331554 2.64262e-06
0.000331554 -0.000174219 -5.62712e-07
2.64262e-06 -5.62712e-07 -0.000449271
0.00150247 0.000329336 8.54343e-06
0.000329336 1.36921e-05 2.92703e-06
8.54343e-06 2.92703e-06 -0.000204765
0.00154067 0.000445316 1.89006e-05
0.000445316 0.000118786 5.77235e-06
1.89006e-05 5.77235e-06 -0.00017302
0.0022828 0.000597178 4.22982e-06
0.000597178 0.000308732 -1.72594e-06
4.22982e-06 -1.72594e-06 3.10741e-05
0.000404573 0.000332185 1.07008e-05
0.000332185 -0.000182519 6.34869e-06
1.07008e-05 6.34869e-06 -0.000503758
0.00226849 0.000736371 3.12639e-06
0.000736371 0.000469195 -5.04852e-06
3.12639e-06 -5.04852e-06 7.86263e-05
0.00206622 0.000807831 5.44397e-06
0.000807831 0.000617311 -9.05923e-06
5.44397e-06 -9.05923e-06 8.3174e-05
0.00190188 0.000763645 -1.07961e-05
0.000763645 0.000224079 -9.97144e-06
-1.07961e-05 -9.97144e-06 -0.000197157
0.0045407 -0.000149862 0.000111457
-0.000149862 0.00270312 1.09568e-05
0.000111457 1.09568e-05 0.00269066
0.00504637 -0.000182165 1.6297e-05
-0.000182165 0.00304889 -5.35216e-08
1.6297e-05 -5.35216e-08 0.00302693
0.00560999 -0.000199482 -0.000142786
-0.000199482 0.00342038 -1.30424e-05
-0.000142786 -1.30424e-05 0.00339406
0.000515548 -0.000215991 2.53603e-05
-0.000215991 -2.44746e-05 -2.03346e-05
2.53603e-05 -2.03346e-05 -0.000157982
0.00702045 4.46035e-05 0.000267504
4.46035e-05 0.00429203 -2.89273e-05
0.000267504 -2.89273e-05 0.00429405
0.00739438 0.000248307 -0.000411486
0.000248307 0.00447837 -3.89832e-05
-0.000411486 -3.89832e-05 0.00450184
0.00689081 0.000114808 -0.000376591
0.000114808 0.0041448 -1.8915e-05
-0.000376591 -1.8915e-05 0.00418069
0.000291984 0.000116446 -1.58596e-05
0.000116446 -0.000299588 -7.35011e-06
-1.58596e-05 -7.35011e-06 -0.000414604
0.00025748 4.84413e-05 -1.59015e-05
4.84413e-05 -0.000296222 -3.7157e-06
-1.59015e-05 -3.7157e-06 -0.000395124
0.00657979 -1.49275e-06 -0.000360688
-1.49275e-06 0.00394938 -3.9035e-06
-0.000360688 -3.9035e-06 0.00398918
0.00652708 -4.83119e-06 1.77748e-07
-4.83119e-06 0.00391647 -1.35248e-06
1.77748e-07 -1.35248e-06 0.00395664
0.000265981 2.15084e-06 -2.0865e-07
2.15084e-06 -0.000288229 1.90739e-07
-2.0865e-07 1.90739e-07 -0.000379906
0.00157716 5.50748e-05 7.31486e-05
5.50748e-05 0.000545516 3.64072e-06
7.31486e-05 3.64072e-06 0.000464937
0.00132366 9.75293e-05 4.65346e-08
9.75293e-05 -6.20745e-05 -2.04671e-08
4.65346e-08 -2.04671e-08 -0.000195437
0.000352585 0.000115223 -8.85356e-07
0.000115223 -0.000269631 -4.22174e-07
-8.85356e-07 -4.22174e-07 -0.000395319
0.00139371 0.000198172 -2.20856e-07
0.000198172 -4.24287e-05 -1.48692e-07
-2.20856e-07 -1.48692e-07 -0.000205707
0.00025454 -3.39531e-05 1.6752e-05
-3.39531e-05 -0.000295637 -1.73197e-07
1.6752e-05 -1.73197e-07 -0.00038453
0.00128048 4.18036e-05 3.11321e-06
4.18036e-05 -7.69194e-05 6.81158e-07
3.11321e-06 6.81158e-07 -0.000202899
0.00136552 0.000148092 2.38651e-06
0.000148092 -5.55496e-05 1.10964e-06
2.38651e-06 1.10964e-06 -0.000200401
0.00219356 0.00015116 1.56096e-06
0.00015116 0.000103665 7.10093e-07
1.56096e-06 7.10093e-07 3.75985e-05
0.00147971 0.000261838 4.84754e-06
0.000261838 -2.51516e-06 2.01386e-06
4.84754e-06 2.01386e-06 -0.000189194
0.00218173 0.000329336 2.46891e-06
0.000329336 0.000110144 2.00607e-07
2.46891e-06 2.00607e-07 -4.89112e-06
0.00656634 -8.80777e-05 -0.000365
-8.80777e-05 0.00395175 5.90602e-06
-0.000365 5.90602e-06 0.00398627
0.00162218 -0.000169642 -8.15881e-05
-0.000169642 0.000760863 1.104e-05
-8.15881e-05 1.104e-05 0.000697686
-0.000217485 -1.19058e-05 -8.13814e-06
-1.19058e-05 -0.000597899 1.22372e-06
-8.13814e-06 1.22372e-06 -0.000703612
0.00220299 -9.39486e-05 -0.000146592
-9.39486e-05 0.000954834 1.11889e-05
-0.000146592 1.11889e-05 0.000878329
0.00870781 0.000153086 -8.33822e-05
0.000153086 0.00530371 3.98971e-06
-8.33822e-05 3.98971e-06 0.00526555
0.00313023 -0.000344354 -0.000177993
-0.000344354 0.00159028 3.70513e-05
-0.000177993 3.70513e-05 0.00143965
0.00232197 -0.000171946 -0.000153997
-0.000171946 0.00100433 2.12176e-05
-0.000153997 2.12176e-05 0.000909023
0.00223688 -0.000292331 -2.22315e-05
-0.000292331 0.000557566 4.53458e-06
-2.22315e-05 4.53458e-06 0.000381436
0.00227898 -0.000423733 -3.00408e-05
-0.000423733 0.000614218 9.63962e-06
-3.00408e-05 9.63962e-06 0.000361191
0.00249444 -0.00055953 -3.96712e-05
-0.00055953 0.000859594 1.21291e-05
-3.96712e-05 1.21291e-05 0.000519381
0.0021476 -0.000625368 -2.48751e-07
-0.000625368 0.000328718 -2.508e-06
-2.48751e-07 -2.508e-06 5.01542e-07
0.000259108 -3.16455e-07 4.13962e-08
-3.16455e-07 -0.000291694 3.84428e-07
4.13962e-08 3.84428e-07 -0.000382892
0.00203606 -0.000106736 -3.97607e-05
-0.000106736 0.000870319 8.45922e-07
-3.97607e-05 8.45922e-07 0.000787781
0.00174372 -0.000101828 -1.43135e-05
-0.000101828 0.000233303 9.56951e-07
-1.43135e-05 9.56951e-07 0.000113535
0.00202415 -0.000228548 -1.29744e-05
-0.000228548 0.000421687 2.123e-06
-1.29744e-05 2.123e-06 0.000260992
0.00836164 -2.21615e-05 5.64145e-06
-2.21615e-05 0.00511635 -4.77594e-07
5.64145e-06 -4.77594e-07 0.00512808
0.00168863 -0.000249048 9.85032e-06
-0.000249048 0.000677439 3.18836e-07
9.85032e-06 3.18836e-07 0.000493923
0.00181704 -0.000528937 9.27589e-07
-0.000528937 0.000486795 -1.7654e-06
9.27589e-07 -1.7654e-06 0.000112238
0.00220456 -0.000359705 -1.0609e-05
-0.000359705 0.00053231 3.01162e-06
-1.0609e-05 3.01162e-06 0.000322709
0.00222675 -0.000415694 2.4199e-06
-0.000415694 0.000187302 -1.01339e-06
2.4199e-06 -1.01339e-06 2.24803e-05
0.00222667 -0.000690258 1.703e-06
-0.000690258 0.000440867 -7.10967e-08
1.703e-06 -7.10967e-08 5.49201e-05
0.00216315 -0.000569673 2.31411e-07
-0.000569673 0.000265804 -1.50815e-07
2.31411e-07 -1.50815e-07 -1.40787e-05
0.00222807 -0.000694524 6.24311e-07
-0.000694524 0.000281184 4.26125e-07
6.24311e-07 4.26125e-07 -2.07551e-05
0.000374772 -0.000225024 1.9609e-06
-0.000225024 -0.00014036 5.12983e-07
1.9609e-06 5.12983e-07 -0.000293065
0.000662744 -0.000253349 -1.04559e-06
-0.000253349 0.000107344 2.91113e-07
-1.04559e-06 2.91113e-07 -0.000202625
0.00127378 -5.05934e-05 3.76627e-06
-5.05934e-05 -6.47532e-05 2.79529e-08
3.76627e-06 2.79529e-08 -0.000192914
0.00212876 -0.000167349 -3.02274e-07
-0.000167349 0.000493586 1.40329e-07
-3.02274e-07 1.40329e-07 0.000361617
0.00205209 -0.000166485 1.33886e-06
-0.000166485 2.03145e-05 -5.36331e-07
1.33886e-06 -5.36331e-07 -6.67779e-05
0.00224922 -0.000344497 -5.5215e-07
-0.000344497 0.000168147 5.58595e-07
-5.5215e-07 5.58595e-07 5.18246e-05
0.00210944 -0.000497654 -1.30141e-06
-0.000497654 0.000160233 8.3128e-07
-1.30141e-06 8.3128e-07 -6.10093e-05
0.00224709 -0.000453376 5.15277e-06
-0.000453376 0.000100657 -1.15531e-06
5.15277e-06 -1.15531e-06 -1.68689e-05
0.000383456 -0.00023642 1.95671e-05
-0.00023642 -0.000162199 -2.85105e-05
1.95671e-05 -2.85105e-05 -0.00033465
0.00223663 -0.000627336 8.98805e-07
-0.000627336 0.000225923 1.335e-06
8.98805e-07 1.335e-06 -1.34358e-05
0.00169274 -0.000463286 1.55429e-05
-0.000463286 0.000489885 -1.03057e-05
1.55429e-05 -1.03057e-05 0.000127863
0.00190599 -0.000770621 7.02763e-06
-0.000770621 0.000309152 4.10886e-06
7.02763e-06 4.10886e-06 -0.000166515
0.00247363 -0.000770527 4.64521e-07
-0.000770527 0.000499812 2.91167e-06
4.64521e-07 2.91167e-06 0.000124876
0.00240796 -0.000725532 -3.26324e-07
-0.000725532 0.000365065 2.50793e-06
-3.26324e-07 2.50793e-06 8.7971e-05
0.00082672 -0.00026936 2.89439e-06
-0.00026936 0.000178995 -2.74114e-06
2.89439e-06 -2.74114e-06 -0.000143585
0.00160198 -0.000302298 7.20303e-06
-0.000302298 0.000698385 -3.65479e-07
7.20303e-06 -3.65479e-07 0.000432639
0.0016074 -0.000388888 -1.814e-06
-0.000388888 0.000681235 1.03672e-06
-1.814e-06 1.03672e-06 0.000298684
0.000335038 0.000150847 -1.60107e-05
0.000150847 -0.000289641 -1.16665e-05
-1.60107e-05 -1.16665e-05 -0.000429493
0.00656751 -9.88974e-05 -0.000237906
-9.88974e-05 0.00401403 -2.02115e-05
-0.000237906 -2.02115e-05 0.00401304
0.000515145 0.000133714 -1.99637e-05
0.000133714 -2.01263e-05 -1.85212e-05
-1.99637e-05 -1.85212e-05 -0.000125484
0.000281437 0.000214395 -1.88874e-05
0.000214395 -0.0003009 -1.87897e-05
-1.88874e-05 -1.87897e-05 -0.000465986
0.00147323 0.000389378 -1.44971e-05
0.000389378 3.58655e-05 -4.80577e-06
-1.44971e-05 -4.80577e-06 -0.000221368
0.000391934 0.000233568 -2.17303e-05
0.000233568 -0.000140323 -2.70121e-05
-2.17303e-05 -2.70121e-05 -0.000297868
0.00115616 0.000439862 -2.50157e-05
0.000439862 0.000149601 -1.12018e-05
-2.50157e-05 -1.12018e-05 -0.000199968
0.0013571 0.000468129 -2.712e-05
0.000468129 8.24063e-05 -6.75306e-06
-2.712e-05 -6.75306e-06 -0.00024325
0.001951 0.000746311 -1.10617e-05
0.000746311 0.00034748 6.57762e-06
-1.10617e-05 6.57762e-06 -9.76056e-05
0.000375976 0.000214391 -7.13434e-06
0.000214391 -0.000133751 1.87251e-06
-7.13434e-06 1.87251e-06 -0.00026407
0.000377178 7.25939e-05 -2.8121e-07
7.25939e-05 -6.83208e-05 1.27493e-06
-2.8121e-07 1.27493e-06 -0.000166698
0.00104218 0.000288305 -1.71586e-07
0.000288305 0.000338611 1.2904e-07
-1.71586e-07 1.2904e-07 9.17429e-05
0.00149366 0.000329109 -3.0955e-07
0.000329109 1.59942e-05 -2.17859e-07
-3.0955e-07 -2.17859e-07 -0.000203774
0.00148648 0.000439031 7.45954e-08
0.000439031 9.08334e-05 -3.11456e-07
7.45954e-08 -3.11456e-07 -0.000200839
0.00223729 0.000593612 -6.92978e-07
0.000593612 0.000275763 -3.04648e-07
-6.92978e-07 -3.04648e-07 -1.03537e-06
0.000668401 0.000328904 8.45602e-07
0.000328904 -1.76171e-05 1.05502e-06
8.45602e-07 1.05502e-06 -0.000326258
0.00228763 0.000732756 -1.13469e-06
0.000732756 0.000481285 -4.48013e-07
-1.13469e-06 -4.48013e-07 9.0631e-05
0.00197774 0.000809173 -1.40987e-06
0.000809173 0.000523988 -2.93396e-06
-1.40987e-06 -2.93396e-06 -1.36863e-05
0.001833 0.000768689 -1.27175e-06
0.000768689 0.000154421 3.8017e-06
-1.27175e-06 3.8017e-06 -0.000263159
0.00052105 4.97226e-05 9.51239e-06
4.97226e-05 3.63056e-05 1.57568e-05
9.51239e-06 1.57568e-05 -4.56425e-05
0.000776266 0.000335793 5.4765e-06
0.000335793 0.000162114 6.68478e-07
5.4765e-06 6.68478e-07 -0.000128701
0.000731221 0.000172928 2.73049e-06
0.000172928 0.000210972 2.11353e-06
2.73049e-06 2.11353e-06 -4.95774e-05
-0.000986328 0.000167296 -7.68327e-06
0.000167296 -0.000931686 5.10206e-06
-7.68327e-06 5.10206e-06 -0.00122601
0.00226523 0.000512832 2.98788e-06
0.000512832 0.00022373 -2.48976e-06
2.98788e-06 -2.48976e-06 5.95607e-06
0.0022173 0.000666764 3.84918e-06
0.000666764 0.000349912 -2.6996e-06
3.84918e-06 -2.6996e-06 1.23311e-05
0.00225784 0.000650515 9.75486e-07
0.000650515 0.000211754 -1.88851e-06
9.75486e-07 -1.88851e-06 -4.25244e-05
0.0014034 0.000654364 -7.28094e-06
0.000654364 0.000331408 -7.35936e-06
-7.28094e-06 -7.35936e-06 -0.000165897
0.00259481 0.000838998 -6.65224e-06
0.000838998 0.000584764 -5.12683e-06
-6.65224e-06 -5.12683e-06 0.000207667
0.00236481 0.000952085 -1.80843e-05
0.000952085 0.000664698 -1.78878e-05
-1.80843e-05 -1.78878e-05 9.13537e-05
0.00217048 0.000805959 -6.42294e-06
0.000805959 0.000243812 -5.6831e-06
-6.42294e-06 -5.6831e-06 -0.000146531
0.000771678 0.000110023 -1.51232e-06
0.000110023 0.000256496 7.52581e-06
-1.51232e-06 7.52581e-06 0.000128076
0.000560794 3.11877e-05 4.14074e-06
3.11877e-05 7.19736e-05 1.33296e-05
4.14074e-06 1.33296e-05 1.76405e-05
0.00405402 -0.000132054 8.51672e-05
-0.000132054 0.00237244 7.78588e-06
8.51672e-05 7.78588e-06 0.00236454
0.00440378 -0.000176105 1.51967e-05
-0.000176105 0.00262151 -1.64033e-06
1.51967e-05 -1.64033e-06 0.0026014
0.0048099 -0.000230254 -8.7932e-05
-0.000230254 0.00291463 -1.15718e-05
-8.7932e-05 -1.15718e-05 0.00287723
0.000647662 -0.000233619 3.35683e-05
-0.000233619 7.78704e-05 -1.89221e-05
3.35683e-05 -1.89221e-05 -4.26338e-05
0.0065436 8.33723e-05 0.000232058
8.33723e-05 0.00400109 -2.63791e-05
0.000232058 -2.63791e-05 0.00399663
0.000482325 -0.000221097 3.52029e-06
-0.000221097 -5.27696e-05 7.35446e-07
3.52029e-06 7.35446e-07 -0.000188838
0.00742061 2.39432e-05 5.02781e-06
2.39432e-05 0.00454352 -6.95396e-08
5.02781e-06 -6.95396e-08 0.00454671
0.000322589 0.000139055 -1.63327e-05
0.000139055 -0.000289211 -9.52671e-06
-1.63327e-05 -9.52671e-06 -0.000418251
0.000274229 4.57794e-05 -1.45504e-05
4.57794e-05 -0.000300606 -4.60254e-06
-1.45504e-05 -4.60254e-06 -0.000404438
0.00136155 0.000198199 -2.63625e-06
0.000198199 -5.58883e-05 -1.30305e-06
-2.63625e-06 -1.30305e-06 -0.000220426
0.00132638 0.000100405 -3.43941e-06
0.000100405 -5.74733e-05 -8.56328e-07
-3.43941e-06 -8.56328e-07 -0.000191536
0.000308807 -5.08477e-06 -1.64336e-05
-5.08477e-06 -0.000264012 -1.59777e-06
-1.64336e-05 -1.59777e-06 -0.000354264
0.00662667 -0.000106479 -0.000372286
-0.000106479 0.00399464 6.93242e-06
-0.000372286 6.93242e-06 0.00402823
0.000302531 -4.13645e-06 -1.1037e-08
-4.13645e-06 -0.000265868 -6.80859e-07
-1.1037e-08 -6.80859e-07 -0.000354492
0.0012886 4.71303e-05 1.68568e-08
4.71303e-05 -7.01105e-05 6.44952e-08
1.68568e-08 6.44952e-08 -0.000196488
0.00136628 0.000148545 -7.74139e-09
0.000148545 -4.99186e-05 9.41806e-08
-7.74139e-09 9.41806e-08 -0.00019553
0.00216463 0.000149059 -1.06641e-07
0.000149059 8.39306e-05 2.55634e-07
-1.06641e-07 2.55634e-07 1.78275e-05
0.00144492 0.000260986 -3.39391e-07
0.000260986 -1.92641e-05 -9.50256e-08
-3.39391e-07 -9.50256e-08 -0.000207306
0.00219227 0.000330924 -4.36953e-07
0.000330924 0.000113352 1.80995e-07
-4.36953e-07 1.80995e-07 -2.49219e-06
0.00125726 -6.98908e-06 3.15566e-06
-6.98908e-06 -7.95278e-05 2.80404e-07
3.15566e-06 2.80404e-07 -0.000204837
0.00217782 6.9403e-05 1.75863e-06
6.9403e-05 9.39637e-05 4.78597e-07
1.75863e-06 4.78597e-07 3.52544e-05
0.00218971 0.000238681 1.46847e-06
0.000238681 0.000106724 4.59794e-07
1.46847e-06 4.59794e-07 2.22126e-05
0.00217287 0.000163179 5.80209e-06
0.000163179 2.66193e-05 9.85766e-07
5.80209e-06 9.85766e-07 1.10219e-05
0.00217476 0.000417212 3.30454e-06
0.000417212 0.000116892 -4.82879e-07
3.30454e-06 -4.82879e-07 -4.26774e-05
0.00229959 0.000346745 5.35022e-06
0.000346745 8.58268e-05 8.33118e-07
5.35022e-06 8.33118e-07 3.26722e-05
0.000301492 -6.8802e-06 -1.59298e-05
-6.8802e-06 -0.00026064 2.04422e-07
-1.59298e-05 2.04422e-07 -0.000354025
0.00214008 -6.22752e-05 -0.000144479
-6.22752e-05 0.000924999 7.60848e-06
-0.000144479 7.60848e-06 0.000857031
0.00139441 -9.76201e-05 -1.43016e-05
-9.76201e-05 -2.20826e-06 1.26191e-06
-1.43016e-05 1.26191e-06 -0.000125625
0.00197848 -0.000225621 -1.9732e-05
-0.000225621 0.000383578 3.65628e-06
-1.9732e-05 3.65628e-06 0.000217767
0.00870065 -4.76692e-05 -0.000373421
-4.76692e-05 0.00532724 4.26846e-05
-0.000373421 4.26846e-05 0.00533998
0.00348968 -0.000361898 -0.000205736
-0.000361898 0.00184972 3.64724e-05
-0.000205736 3.64724e-05 0.0017018
0.00195948 -0.000547632 -3.01949e-05
-0.000547632 0.000620328 9.61738e-06
-3.01949e-05 9.61738e-06 0.000246767
0.00219647 -0.000363464 -2.78205e-05
-0.000363464 0.000522083 7.45713e-06
-2.78205e-05 7.45713e-06 0.000310852
0.00233091 -0.000426471 -6.00258e-07
-0.000426471 0.000251475 -1.38796e-06
-6.00258e-07 -1.38796e-06 9.52586e-05
0.00230984 -0.000574505 -8.77845e-07
-0.000574505 0.000373224 -9.5515e-07
-8.77845e-07 -9.5515e-07 9.09583e-05
0.00223756 -0.000693268 1.27197e-06
-0.000693268 0.000442881 -3.80427e-06
1.27197e-06 -3.80427e-06 5.74932e-05
0.00228753 -0.000700049 -2.20529e-07
-0.000700049 0.000322567 -2.27997e-06
-2.20529e-07 -2.27997e-06 1.88177e-05
0.000474244 -0.000236686 -2.06887e-05
-0.000236686 -7.83236e-05 2.47851e-05
-2.06887e-05 2.47851e-05 -0.000234318
-2.78893e-05 -0.000221941 -9.14287e-07
-0.000221941 -0.000306987 3.14845e-06
-9.14287e-07 3.14845e-06 -0.000629955
0.00132178 -4.6939e-05 8.48287e-07
-4.6939e-05 -3.58741e-05 -5.13951e-08
8.48287e-07 -5.13951e-08 -0.000157457
0.00208965 -0.000167678 -1.21822e-05
-0.000167678 0.00046239 1.53363e-06
-1.21822e-05 1.53363e-06 0.00033061
0.00205905 -0.000162359 2.46989e-06
-0.000162359 2.20471e-05 -3.64618e-07
2.46989e-06 -3.64618e-07 -6.03992e-05
0.00211954 -0.000339185 -1.90102e-06
-0.000339185 8.6859e-05 5.53122e-07
-1.90102e-06 5.53122e-07 -4.14355e-05
0.000293513 -0.000256617 -1.68467e-06
-0.000256617 -0.000209435 1.91935e-07
-1.68467e-06 1.91935e-07 -0.000386187
0.000748479 -0.000424058 -5.20383e-06
-0.000424058 -8.76093e-05 -4.00781e-07
-5.20383e-06 -4.00781e-07 -0.0004557
0.0019984 -0.000780714 -1.09489e-07
-0.000780714 0.000366026 1.30891e-06
-1.09489e-07 1.30891e-06 -0.000115892
0.00214779 -0.000497478 -1.36623e-06
-0.000497478 0.000191195 3.62764e-07
-1.36623e-06 3.62764e-07 -3.39909e-05
0.00229905 -0.000460931 9.52476e-07
-0.000460931 0.000126462 -7.28129e-07
9.52476e-07 -7.28129e-07 1.52298e-05
0.002548 -0.000778018 1.1131e-06
-0.000778018 0.000547813 -1.50534e-06
1.1131e-06 -1.50534e-06 0.000176153
0.00221733 -0.000625215 1.97267e-07
-0.000625215 0.000210926 6.10876e-07
1.97267e-07 6.10876e-07 -2.81107e-05
0.00227757 -0.000721068 1.61594e-07
-0.000721068 0.000271651 8.86413e-07
1.61594e-07 8.86413e-07 -7.48833e-06
0.000829862 -0.000285341 4.49957e-07
-0.000285341 0.000186831 -1.0285e-06
4.49957e-07 -1.0285e-06 -0.000144154
0.000638748 -0.000290152 9.82704e-07
-0.000290152 4.73771e-05 -8.79008e-08
9.82704e-07 -8.79008e-08 -0.000319437
0.000567152 -0.000249738 5.1548e-06
-0.000249738 8.03821e-05 1.90912e-06
5.1548e-06 1.90912e-06 -0.000204817
0.0020402 -8.15451e-05 1.70972e-06
-8.15451e-05 1.13103e-05 -3.04866e-07
1.70972e-06 -3.04866e-07 -6.41604e-05
0.00208477 -0.000247053 -9.60667e-07
-0.000247053 3.31615e-05 -2.86893e-07
-9.60667e-07 -2.86893e-07 -6.53208e-05
0.002199 -0.000162042 7.254e-06
-0.000162042 5.96731e-05 -8.84115e-07
7.254e-06 -8.84115e-07 3.36518e-05
0.00228583 -0.000372694 3.81735e-06
-0.000372694 7.71262e-05 -3.98711e-07
3.81735e-06 -3.98711e-07 1.54257e-05
0.00222197 -0.000559834 5.54912e-07
-0.000559834 0.000144642 7.05413e-08
5.54912e-07 7.05413e-08 -2.79522e-05
0.00232153 -0.000480589 2.03945e-06
-0.000480589 7.70749e-05 -1.52857e-07
2.03945e-06 -1.52857e-07 1.63569e-05
0.000832352 -0.000316882 8.71007e-06
-0.000316882 8.06004e-05 -7.96852e-06
8.71007e-06 -7.96852e-06 -0.000236353
0.00227007 -0.000668664 9.95117e-07
-0.000668664 0.000169694 -1.25367e-07
9.95117e-07 -1.25367e-07 -2.44592e-05
0.001895 -0.000818597 -7.80054e-07
-0.000818597 0.000469736 7.40233e-07
-7.80054e-07 7.40233e-07 -8.05686e-05
0.00235311 -0.000901708 1.13928e-05
-0.000901708 0.000486183 3.91214e-06
1.13928e-05 3.91214e-06 -5.47697e-06
0.0025943 -0.000793351 3.65773e-06
-0.000793351 0.000558685 2.76251e-06
3.65773e-06 2.76251e-06 0.000207761
0.00248841 -0.000772343 5.55674e-07
-0.000772343 0.000382445 -5.0873e-07
5.55674e-07 -5.0873e-07 0.000123724
0.000638822 -0.000179269 -1.81244e-06
-0.000179269 0.000210629 -2.26726e-06
-1.81244e-06 -2.26726e-06 -0.000101814
0.00168555 -0.000495754 -8.26668e-06
-0.000495754 0.000615377 -2.54117e-06
-8.26668e-06 -2.54117e-06 0.00019441
-0.000574934 -0.000115651 4.15509e-06
-0.000115651 -0.000616137 2.12675e-06
4.15509e-06 2.12675e-06 -0.000958289
0.0012413 -0.000527274 7.69188e-06
-0.000527274 0.000418055 6.36354e-06
7.69188e-06 6.36354e-06 -6.80186e-05
0.001483 0.000329106 -1.07357e-05
0.000329106 1.6578e-05 -3.37237e-06
-1.07357e-05 -3.37237e-06 -0.000204521
0.000246717 5.83272e-05 -9.44632e-06
5.83272e-05 -0.000147329 -1.79399e-05
-9.44632e-06 -1.79399e-05 -0.000242677
0.0004357 0.000173922 -2.7249e-05
0.000173922 -8.63797e-05 -1.99376e-05
-2.7249e-05 -1.99376e-05 -0.00021566
0.000862237 0.000230032 -7.34944e-06
0.000230032 0.000225675 4.30545e-06
-7.34944e-06 4.30545e-06 -1.95913e-05
0.00142321 0.000433144 -2.01892e-05
0.000433144 5.53914e-05 -6.1475e-06
-2.01892e-05 -6.1475e-06 -0.000236402
0.00219348 0.000589902 -4.17678e-06
0.000589902 0.000244597 1.68838e-06
-4.17678e-06 1.68838e-06 -3.12686e-05
0.000784534 0.000298099 -1.25921e-05
0.000298099 5.6006e-05 -5.60657e-06
-1.25921e-05 -5.60657e-06 -0.000230708
0.00182177 0.00078586 -8.7219e-06
0.00078586 0.00040872 4.13664e-06
-8.7219e-06 4.13664e-06 -0.000122033
0.00232209 0.000730128 -2.79387e-06
0.000730128 0.000503558 4.57536e-06
-2.79387e-06 4.57536e-06 0.000112707
0.00175595 0.000765961 1.13753e-05
0.000765961 9.3797e-05 1.57888e-05
1.13753e-05 1.57888e-05 -0.000317082
0.000400702 3.56508e-05 -3.2672e-06
3.56508e-05 -3.48456e-05 4.22014e-07
-3.2672e-06 4.22014e-07 -0.000114423
0.000671867 0.000255172 -1.14692e-06
0.000255172 0.000104833 1.40524e-07
-1.14692e-06 1.40524e-07 -0.000178665
0.00034197 0.000169092 5.03732e-06
0.000169092 -3.71875e-05 -1.86507e-06
5.03732e-06 -1.86507e-06 -0.000301161
0.000631088 0.000259578 -5.4209e-06
0.000259578 8.75854e-05 6.22607e-06
-5.4209e-06 6.22607e-06 -0.000215686
0.00223493 0.000508812 -1.87547e-06
0.000508812 0.000207166 -1.44333e-06
-1.87547e-06 -1.44333e-06 -9.77361e-06
0.00219624 0.000666141 -7.72261e-07
0.000666141 0.000333204 -3.18105e-07
-7.72261e-07 -3.18105e-07 -4.48343e-06
0.00227535 0.00065088 1.19726e-07
0.00065088 0.000229021 -5.25233e-08
1.19726e-07 -5.25233e-08 -2.5074e-05
0.00180912 0.00069185 2.41706e-06
0.00069185 0.000604551 -5.20899e-07
2.41706e-06 -5.20899e-07 9.89689e-05
0.00251647 0.000824275 1.55597e-06
0.000824275 0.000546131 9.98905e-07
1.55597e-06 9.98905e-07 0.000167996
0.00211923 0.000909437 -9.42848e-07
0.000909437 0.000524035 -2.03696e-06
-9.42848e-07 -2.03696e-06 -3.65797e-05
0.00229967 0.000794031 -7.57507e-06
0.000794031 0.000343239 3.22177e-06
-7.57507e-06 3.22177e-06 -3.2037e-05
0.000623344 3.41365e-05 6.90293e-06
3.41365e-05 0.000106197 1.44412e-05
6.90293e-06 1.44412e-05 4.31007e-05
0.00124404 0.000121021 -1.98313e-06
0.000121021 0.000557557 1.16881e-05
-1.98313e-06 1.16881e-05 0.000324421
0.00030948 0.000403288 -9.6331e-06
0.000403288 -0.000196946 -2.15485e-06
-9.6331e-06 -2.15485e-06 -0.000573032
0.00112018 0.000245482 1.01537e-05
0.000245482 0.000462175 -5.48402e-06
1.01537e-05 -5.48402e-06 0.000121268
0.00126476 0.000174956 -3.97826e-06
0.000174956 0.000384888 1.42473e-05
-3.97826e-06 1.42473e-05 0.000116181
0.0022699 0.000559215 4.42163e-07
0.000559215 0.000137634 -1.73916e-06
4.42163e-07 -1.73916e-06 -4.18393e-05
0.00230343 0.000749592 -1.48004e-06
0.000749592 0.000320022 -3.39569e-06
-1.48004e-06 -3.39569e-06 -2.81367e-06
0.00227713 0.000711407 -3.17732e-06
0.000711407 0.000188599 -9.80795e-07
-3.17732e-06 -9.80795e-07 -5.51397e-05
0.00199347 0.000950681 -7.16007e-06
0.000950681 0.000698306 -1.29761e-05
-7.16007e-06 -1.29761e-05 5.11293e-05
0.00265002 0.000881052 -7.38905e-06
0.000881052 0.000540778 -4.68552e-06
-7.38905e-06 -4.68552e-06 0.000169133
0.00195747 0.000960511 2.95134e-06
0.000960511 0.00031891 -9.58866e-06
2.95134e-06 -9.58866e-06 -0.000223806
0.000617891 0.000106783 -1.94573e-06
0.000106783 0.000148036 9.88349e-06
-1.94573e-06 9.88349e-06 1.34246e-07
0.000865688 0.000145719 -6.19192e-06
0.000145719 0.000422068 6.8362e-06
-6.19192e-06 6.8362e-06 0.000193367
0.000571065 8.12884e-05 -1.67592e-06
8.12884e-05 0.000119344 6.1529e-06
-1.67592e-06 6.1529e-06 1.62393e-05
0.000443394 3.53746e-05 -1.70829e-06
3.53746e-05 4.09087e-05 1.97084e-07
-1.70829e-06 1.97084e-07 -7.95898e-05
0.00156972 -3.11407e-06 2.01369e-06
-3.11407e-06 0.000732643 7.12213e-06
2.01369e-06 7.12213e-06 0.000693007
0.000991525 1.43896e-05 -3.83297e-07
1.43896e-05 0.000355382 -1.71249e-07
-3.83297e-07 -1.71249e-07 0.000304634
0.000965233 -2.37418e-05 6.79317e-05
-2.37418e-05 0.000333832 1.4781e-05
6.79317e-05 1.4781e-05 0.000326766
0.00398846 -0.00014555 1.38976e-05
-0.00014555 0.00233391 -1.34614e-06
1.38976e-05 -1.34614e-06 0.00232213
0.00432139 -0.000188285 -7.61232e-05
-0.000188285 0.0025719 -8.86197e-06
-7.61232e-05 -8.86197e-06 0.00254816
0.000215591 -0.000143292 2.1066e-05
-0.000143292 -0.00015068 -1.58426e-05
2.1066e-05 -1.58426e-05 -0.000251356
0.0057676 0.000149863 0.000158053
0.000149863 0.00352187 -1.98062e-05
0.000158053 -1.98062e-05 0.00350083
0.000536384 -0.000203276 2.44731e-06
-0.000203276 1.75489e-05 1.07388e-06
2.44731e-06 1.07388e-06 -0.000111225
0.00664423 7.39939e-05 1.37879e-07
7.39939e-05 0.00407182 9.41645e-07
1.37879e-07 9.41645e-07 0.0040655
0.000436974 -0.000226504 -2.57598e-05
-0.000226504 -8.48372e-05 2.20455e-05
-2.57598e-05 2.20455e-05 -0.000222176
0.00769269 1.22075e-05 -0.000321392
1.22075e-05 0.00471884 3.92555e-05
-0.000321392 3.92555e-05 0.0047236
0.00140155 0.000259156 -6.3554e-06
0.000259156 -3.92805e-05 -2.27479e-06
-6.3554e-06 -2.27479e-06 -0.000228473
0.00134664 0.000149708 -2.67692e-06
0.000149708 -5.47398e-05 -7.43938e-07
-2.67692e-06 -7.43938e-07 -0.000201379
0.00223044 0.000329993 -2.75005e-06
0.000329993 0.000136528 3.93974e-07
-2.75005e-06 3.93974e-07 2.0745e-05
0.00215212 0.000147065 -1.76652e-06
0.000147065 7.69152e-05 -1.80337e-07
-1.76652e-06 -1.80337e-07 1.09089e-05
0.00129711 5.2398e-05 -3.08715e-06
5.2398e-05 -6.28238e-05 -5.48357e-07
-3.08715e-06 -5.48357e-07 -0.00018959
0.000269157 2.79414e-05 -1.66775e-05
2.79414e-05 -0.000290417 -1.39656e-06
-1.66775e-05 -1.39656e-06 -0.000377053
0.00126379 -2.20041e-06 -4.98164e-08
-2.20041e-06 -7.44887e-05 1.59193e-08
-4.98164e-08 1.59193e-08 -0.000199773
0.00215875 6.85624e-05 -4.65884e-09
6.85624e-05 8.37049e-05 1.10114e-07
-4.65884e-09 1.10114e-07 2.48862e-05
0.00219031 0.000237394 -1.2769e-07
0.000237394 0.000103326 1.78236e-07
-1.2769e-07 1.78236e-07 1.90057e-05
0.00214692 0.000158256 -4.1517e-07
0.000158256 -6.87977e-07 5.75555e-08
-4.1517e-07 5.75555e-08 -9.68877e-06
0.00221261 0.000417848 -1.09121e-06
0.000417848 0.000149019 1.5143e-07
-1.09121e-06 1.5143e-07 -1.07634e-05
0.00227254 0.000345645 -6.9323e-08
0.000345645 6.73612e-05 2.93186e-07
-6.9323e-08 2.93186e-07 1.42845e-05
0.00216256 -8.16379e-06 1.39314e-06
-8.16379e-06 8.80351e-05 1.2579e-07
1.39314e-06 1.2579e-07 3.05151e-05
0.00207581 7.25489e-05 4.41211e-06
7.25489e-05 -4.53458e-05 3.24641e-07
4.41211e-06 3.24641e-07 -4.55889e-05
0.00222412 0.000240954 5.96907e-06
0.000240954 5.08052e-05 1.13976e-06
5.96907e-06 1.13976e-06 2.32959e-05
0.00221317 0.000146509 3.53924e-06
0.000146509 -1.39051e-06 7.28135e-07
3.53924e-06 7.28135e-07 1.88086e-05
0.00235279 0.000470067 3.52721e-06
0.000470067 0.000134528 -1.07943e-07
3.52721e-06 -1.07943e-07 2.97407e-05
0.00230336 0.000354827 1.55273e-06
0.000354827 -2.31526e-05 -1.28663e-07
1.55273e-06 -1.28663e-07 -1.78059e-05
0.00135833 -4.36186e-05 -5.47668e-06
-4.36186e-05 -1.37823e-05 1.9107e-07
-5.47668e-06 1.9107e-07 -0.000128828
0.00207431 -0.000167952 -2.32568e-05
-0.000167952 0.000447446 2.74815e-06
-2.32568e-05 2.74815e-06 0.000315893
0.0020875 -0.000156888 3.08808e-06
-0.000156888 3.70049e-05 -4.19957e-07
3.08808e-06 -4.19957e-07 -4.04626e-05
0.00198047 -0.000332609 7.73644e-07
-0.000332609 -8.11868e-08 5.92255e-07
7.73644e-07 5.92255e-07 -0.000140037
0.000159016 -0.000275964 -2.39498e-05
-0.000275964 -0.000288162 2.87342e-05
-2.39498e-05 2.87342e-05 -0.000467113
0.00067891 -0.000426919 -1.37962e-05
-0.000426919 -0.00013447 6.0174e-06
-1.37962e-05 6.0174e-06 -0.000506106
0.00203534 -0.000790536 2.72308e-06
-0.000790536 0.000380696 -2.84511e-06
2.72308e-06 -2.84511e-06 -0.000108661
0.00218145 -0.000496577 -1.63112e-06
-0.000496577 0.000219442 -6.07437e-07
-1.63112e-06 -6.07437e-07 -9.7882e-06
0.00233248 -0.000467103 -2.25581e-06
-0.000467103 0.000139855 -1.46255e-07
-2.25581e-06 -1.46255e-07 3.46592e-05
0.00219273 -0.00062273 -9.44871e-07
-0.00062273 0.00019213 -9.62845e-08
-9.44871e-07 -9.62845e-08 -4.65263e-05
0.00257872 -0.000780436 -3.77393e-07
-0.000780436 0.000569971 -6.23071e-06
-3.77393e-07 -6.23071e-06 0.000202843
0.00212251 -0.00071271 8.56101e-07
-0.00071271 0.000164035 -2.93706e-07
8.56101e-07 -2.93706e-07 -0.000115909
0.000626996 -0.000309151 -7.07574e-06
-0.000309151 6.40718e-05 4.31613e-06
-7.07574e-06 4.31613e-06 -0.000278673
0.000405206 -0.000263222 1.50087e-06
-0.000263222 -9.31128e-05 1.712e-07
1.50087e-06 1.712e-07 -0.000452691
0.000375864 -0.000293712 2.24712e-06
-0.000293712 -2.14616e-05 2.75842e-06
2.24712e-06 2.75842e-06 -0.000318334
0.00210078 -7.80131e-05 3.62104e-06
-7.80131e-05 5.30778e-05 -2.02186e-07
3.62104e-06 -2.02186e-07 -1.52937e-05
0.00207733 -0.000253188 1.28844e-06
-0.000253188 3.35521e-05 -4.31205e-07
1.28844e-06 -4.31205e-07 -6.38812e-05
0.0021882 -0.000157268 6.42791e-07
-0.000157268 3.76088e-05 -8.11239e-08
6.42791e-07 -8.11239e-08 1.96362e-05
0.00227727 -0.000364882 -8.8471e-07
-0.000364882 8.15832e-05 2.37248e-07
-8.8471e-07 2.37248e-07 1.60741e-05
0.000837651 -0.000348117 -3.54794e-07
-0.000348117 7.88947e-05 6.78971e-07
-3.54794e-07 6.78971e-07 -0.000255577
0.0019919 -0.000839709 2.36797e-07
-0.000839709 0.000536694 -1.68218e-06
2.36797e-07 -1.68218e-06 -1.96186e-05
0.0022155 -0.000886112 4.08446e-07
-0.000886112 0.000402848 1.82502e-06
4.08446e-07 1.82502e-06 -9.15979e-05
0.00214581 -0.00054764 -7.76382e-07
-0.00054764 0.000100965 4.79888e-07
-7.76382e-07 4.79888e-07 -7.71219e-05
0.00232861 -0.00048511 1.37672e-07
-0.00048511 6.87781e-05 8.77795e-08
1.37672e-07 8.77795e-08 1.39506e-05
0.00243993 -0.000783313 -6.32963e-07
-0.000783313 0.000446277 2.82558e-07
-6.32963e-07 2.82558e-07 9.67737e-05
0.00226724 -0.000667993 -6.88357e-07
-0.000667993 0.000164566 7.24501e-07
-6.88357e-07 7.24501e-07 -2.9595e-05
0.00241322 -0.000761657 1.15846e-06
-0.000761657 0.000331871 -5.10312e-07
1.15846e-06 -5.10312e-07 7.66205e-05
0.00110175 -0.00047348 -4.31864e-06
-0.00047348 0.000277296 -5.76051e-07
-4.31864e-06 -5.76051e-07 -0.000157184
0.00152336 -0.000542631 -2.01898e-06
-0.000542631 0.000611225 8.58673e-07
-2.01898e-06 8.58673e-07 0.000126538
0.00100708 -0.000248175 -3.4352e-06
-0.000248175 0.000411355 -2.63619e-06
-3.4352e-06 -2.63619e-06 0.000122943
0.000895404 -0.000221434 3.55662e-07
-0.000221434 0.00029145 7.60231e-07
3.55662e-07 7.60231e-07 -3.53401e-05
0.00217199 -8.77701e-05 6.21709e-06
-8.77701e-05 3.66192e-05 -4.17065e-07
6.21709e-06 -4.17065e-07 2.49318e-05
0.0021147 -0.000254751 4.38049e-06
-0.000254751 -4.2384e-05 -1.23426e-06
4.38049e-06 -1.23426e-06 -7.87351e-05
0.00219327 -0.000151725 3.92055e-06
-0.000151725 1.90485e-05 -6.99275e-07
3.92055e-06 -6.99275e-07 4.25818e-05
0.00228079 -0.000383511 -5.71106e-07
-0.000383511 -1.3392e-05 2.50244e-08
-5.71106e-07 2.50244e-08 -5.95515e-06
0.00230276 -0.000590503 -4.56874e-07
-0.000590503 0.000103637 4.20682e-07
-4.56874e-07 4.20682e-07 -9.19181e-06
0.00237537 -0.000518479 1.14634e-06
-0.000518479 2.16656e-05 -1.18276e-07
1.14634e-06 -1.18276e-07 -1.33299e-05
0.00167928 -0.000724336 -8.07514e-06
-0.000724336 0.000538772 1.67784e-06
-8.07514e-06 1.67784e-06 -9.33012e-07
0.00239271 -0.000733993 -8.10958e-07
-0.000733993 0.000167519 -2.27988e-07
-8.10958e-07 -2.27988e-07 1.09975e-05
0.00212164 -0.00100003 8.90125e-07
-0.00100003 0.000548627 6.23883e-06
8.90125e-07 6.23883e-06 -6.46989e-05
0.00248667 -0.000936854 1.00039e-05
-0.000936854 0.000531968 2.2915e-06
1.00039e-05 2.2915e-06 4.53089e-05
0.00243564 -0.000792225 -2.53871e-06
-0.000792225 0.000425274 2.37523e-06
-2.53871e-06 2.37523e-06 8.39597e-05
0.00239289 -0.000827294 -4.82115e-06
-0.000827294 0.000247952 -2.90063e-06
-4.82115e-06 -2.90063e-06 -2.08245e-05
0.000907433 -0.000251053 1.60191e-06
-0.000251053 0.000347579 -1.04219e-05
1.60191e-06 -1.04219e-05 9.3841e-05
0.00118336 -0.000278485 -5.68224e-06
-0.000278485 0.000564693 1.17267e-05
-5.68224e-06 1.17267e-05 0.000174941
0.00162519 -0.000726871 1.76151e-05
-0.000726871 0.000585233 3.44549e-06
1.76151e-05 3.44549e-06 2.50141e-05
0.000914817 -0.000346704 1.00709e-05
-0.000346704 0.000268201 -7.22311e-07
1.00709e-05 -7.22311e-07 -0.000101421
0.00139491 -0.0006455 -5.81342e-06
-0.0006455 0.000546443 1.31756e-05
-5.81342e-06 1.31756e-05 -3.50834e-05
0.00013142 2.46405e-05 -7.71355e-06
2.46405e-05 -0.000204933 -1.54323e-05
-7.71355e-06 -1.54323e-05 -0.000279773
0.0022068 0.000504656 -4.78282e-06
0.000504656 0.000192572 4.22296e-07
-4.78282e-06 4.22296e-07 -2.34513e-05
0.000957577 6.87437e-05 3.16789e-06
6.87437e-05 0.000362523 -6.91292e-06
3.16789e-06 -6.91292e-06 9.42805e-05
0.000666086 0.000301246 -6.67089e-06
0.000301246 6.76386e-05 6.23451e-06
-6.67089e-06 6.23451e-06 -0.000187634
0.00147513 0.000324348 -3.56202e-06
0.000324348 0.000636103 1.06569e-05
-3.56202e-06 1.06569e-05 0.000322006
0.00217438 0.000665417 -3.72327e-06
0.000665417 0.000316368 2.62037e-06
-3.72327e-06 2.62037e-06 -2.14353e-05
0.00228776 0.000650797 -1.8187e-07
0.000650797 0.000242941 1.76765e-06
-1.8187e-07 1.76765e-06 -1.0886e-05
0.00155406 0.000715802 6.79283e-06
0.000715802 0.000458077 3.77157e-06
6.79283e-06 3.77157e-06 -7.27376e-05
0.00200621 0.000898764 1.00668e-05
0.000898764 0.000450594 1.26157e-05
1.00668e-05 1.26157e-05 -0.000109274
0.0024273 0.000807238 5.26527e-06
0.000807238 0.000498709 7.34193e-06
5.26527e-06 7.34193e-06 0.000120425
0.00246727 0.000793166 1.54594e-05
0.000793166 0.000463557 1.90648e-05
1.54594e-05 1.90648e-05 9.89294e-05
0.000425227 3.86742e-05 -2.77111e-07
3.86742e-05 -1.88194e-05 6.00185e-08
-2.77111e-07 6.00185e-08 -8.1232e-05
0.00064084 0.0001012 -2.45963e-06
0.0001012 0.000181954 7.29474e-09
-2.45963e-06 7.29474e-09 -5.46687e-05
0.000902687 0.000462937 7.52892e-06
0.000462937 0.000205691 -5.12376e-07
7.52892e-06 -5.12376e-07 -0.000180298
0.000646942 0.000163566 2.04639e-06
0.000163566 0.000155178 -5.41273e-06
2.04639e-06 -5.41273e-06 -0.000177637
0.000266534 0.0001592 -1.64556e-06
0.0001592 -0.000255314 4.60318e-06
-1.64556e-06 4.60318e-06 -0.000539887
0.00232234 0.000564436 -1.39022e-06
0.000564436 0.000173569 -9.77356e-07
-1.39022e-06 -9.77356e-07 -7.30747e-06
0.00229128 0.000746214 1.8692e-07
0.000746214 0.000317058 -5.84546e-08
1.8692e-07 -5.84546e-08 -4.12072e-06
0.00230849 0.000715257 1.44011e-06
0.000715257 0.000213401 3.77597e-07
1.44011e-06 3.77597e-07 -3.09206e-05
0.00202756 0.000956258 1.06805e-06
0.000956258 0.000737171 -2.80562e-06
1.06805e-06 -2.80562e-06 8.32327e-05
0.00261863 0.000877798 3.59528e-06
0.000877798 0.000498072 2.13778e-07
3.59528e-06 2.13778e-07 0.000124629
0.00243764 0.00100994 -4.87822e-06
0.00100994 0.000649063 4.26037e-07
-4.87822e-06 4.26037e-07 0.000100431
0.000901244 0.000153757 1.2113e-06
0.000153757 0.000310271 1.03257e-05
1.2113e-06 1.03257e-05 0.000140011
0.00269892 0.000431762 -1.10753e-06
0.000431762 0.0015597 5.07086e-06
-1.10753e-06 5.07086e-06 0.00118754
0.00046192 0.000564134 -2.8512e-06
0.000564134 -6.69044e-05 -3.86508e-07
-2.8512e-06 -3.86508e-07 -0.000542072
0.00159606 0.000257521 8.15882e-06
0.000257521 0.000555038 -2.91937e-06
8.15882e-06 -2.91937e-06 0.000268221
0.00287317 0.000683018 -1.77001e-06
0.000683018 0.00128406 -2.99997e-06
-1.77001e-06 -2.99997e-06 0.00086713
0.00234328 0.000602507 -3.28006e-06
0.000602507 9.8508e-05 -1.57927e-06
-3.28006e-06 -1.57927e-06 -3.60587e-05
0.00225759 0.000806239 -4.96637e-06
0.000806239 0.000256444 -1.78391e-06
-4.96637e-06 -1.78391e-06 -7.31161e-05
0.00235041 0.000788276 1.08792e-07
0.000788276 0.000204144 -1.16457e-06
1.08792e-07 -1.16457e-06 -4.20274e-05
0.00153622 0.00099345 6.80381e-06
0.00099345 0.000479347 -1.0189e-05
6.80381e-06 -1.0189e-05 -0.000188614
0.00215871 0.000980764 1.26589e-05
0.000980764 0.000343634 -4.68377e-06
1.26589e-05 -4.68377e-06 -0.000145186
0.000594423 9.3433e-05 -4.22849e-07
9.3433e-05 0.000133897 3.0704e-07
-4.22849e-07 3.0704e-07 -1.25102e-05
0.000516076 0.000220071 -1.49626e-06
0.000220071 0.000133607 4.18591e-07
-1.49626e-06 4.18591e-07 -7.24322e-05
-0.000437085 9.97053e-05 6.24001e-07
9.97053e-05 -0.000432812 -2.99318e-06
6.24001e-07 -2.99318e-06 -0.00064391
0.00174566 0.000294964 -6.01513e-06
0.000294964 0.00101796 -2.28317e-06
-6.01513e-06 -2.28317e-06 0.000758937
0.0014275 0.000236425 -2.98902e-06
0.000236425 0.000771688 3.27724e-06
-2.98902e-06 3.27724e-06 0.000569183
0.00054207 9.29946e-05 2.33021e-07
9.29946e-05 0.00010931 4.45032e-06
2.33021e-07 4.45032e-06 1.05417e-05
0.000554764 3.87117e-05 -1.27455e-06
3.87117e-05 0.000116087 -2.44663e-07
-1.27455e-06 -2.44663e-07 1.11111e-05
0.00147383 1.02715e-05 2.13277e-06
1.02715e-05 0.000672511 5.53e-06
2.13277e-06 5.53e-06 0.000639895
0.000461785 5.91733e-05 3.44187e-06
5.91733e-05 4.78871e-05 -7.42567e-06
3.44187e-06 -7.42567e-06 -6.73196e-05
0.00157277 -3.79223e-06 -1.44682e-05
-3.79223e-06 0.000735404 -2.12178e-06
-1.44682e-05 -2.12178e-06 0.000699252
0.000757662 -1.88048e-05 5.26585e-05
-1.88048e-05 0.000196323 1.17863e-05
5.26585e-05 1.17863e-05 0.000194804
0.0015843 1.4813e-05 -2.87521e-05
1.4813e-05 0.000745517 -9.85723e-06
-2.87521e-05 -9.85723e-06 0.000701706
0.00222834 -7.43555e-05 6.06053e-05
-7.43555e-05 0.00116944 1.3368e-06
6.06053e-05 1.3368e-06 0.00116194
0.00375276 -0.000145691 -6.09817e-05
-0.000145691 0.0021804 -7.70293e-06
-6.09817e-05 -7.70293e-06 0.00216806
0.000105173 1.79738e-05 1.74412e-06
1.79738e-05 -0.00020077 -1.06915e-05
1.74412e-06 -1.06915e-05 -0.000269252
0.000406048 -0.000131417 -3.28624e-06
-0.000131417 -3.09411e-05 5.92541e-07
-3.28624e-06 5.92541e-07 -0.000139058
0.00455804 0.00022005 3.63624e-05
0.00022005 0.00274286 -1.16382e-05
3.63624e-05 -1.16382e-05 0.00270307
0.00596725 0.000112294 -6.32785e-06
0.000112294 0.0036543 4.50718e-07
-6.32785e-06 4.50718e-07 0.00363901
0.00037272 -0.000199904 -2.46837e-05
-0.000199904 -8.91325e-05 1.96506e-05
-2.46837e-05 1.96506e-05 -0.000223319
0.00683391 7.58647e-05 -0.000256319
7.58647e-05 0.00420306 3.6804e-05
-0.000256319 3.6804e-05 0.00419256
0.00225081 0.000419171 -3.22288e-06
0.000419171 0.000179827 1.50843e-06
-3.22288e-06 1.50843e-06 1.96294e-05
0.00216601 0.000238095 -1.88699e-06
0.000238095 8.24427e-05 -1.71126e-08
-1.88699e-06 -1.71126e-08 -2.38763e-06
0.0022463 0.000345449 -5.07712e-06
0.000345449 4.93781e-05 -1.23507e-07
-5.07712e-06 -1.23507e-07 -3.81498e-06
0.00212092 0.000153316 -5.04122e-06
0.000153316 -2.88236e-05 -6.39557e-07
-5.04122e-06 -6.39557e-07 -3.11536e-05
0.00213663 6.84734e-05 -1.95591e-06
6.84734e-05 7.12139e-05 -2.52207e-07
-1.95591e-06 -2.52207e-07 1.22351e-05
0.00127604 2.84906e-06 -2.89064e-06
2.84906e-06 -6.67145e-05 -3.07714e-07
-2.89064e-06 -3.07714e-07 -0.000191914
0.00215721 -6.33443e-06 7.82259e-08
-6.33443e-06 8.71384e-05 1.03443e-07
7.82259e-08 1.03443e-07 2.94546e-05
0.00208734 6.49498e-05 -5.3987e-07
6.49498e-05 -3.44558e-05 -6.15277e-08
-5.3987e-07 -6.15277e-08 -3.6613e-05
0.00221348 0.000239398 -5.44743e-08
0.000239398 4.04522e-05 6.50479e-08
-5.44743e-08 6.50479e-08 1.38396e-05
0.00217495 0.000147438 -2.94981e-08
0.000147438 -3.55596e-05 5.33409e-08
-2.94981e-08 5.33409e-08 -8.72511e-06
0.00235637 0.000472988 2.42147e-07
0.000472988 0.000130238 -2.54693e-08
2.42147e-07 -2.54693e-08 2.54288e-05
0.00227874 0.00034464 1.59076e-07
0.00034464 -4.18806e-05 2.01391e-07
1.59076e-07 2.01391e-07 -3.33813e-05
0.00208382 -1.09825e-05 4.60685e-06
-1.09825e-05 -3.50215e-05 -4.93697e-08
4.60685e-06 -4.93697e-08 -3.68282e-05
0.00222993 6.19398e-05 3.05575e-06
6.19398e-05 7.74641e-06 -1.81037e-07
3.05575e-06 -1.81037e-07 4.77478e-05
0.00218931 0.000217203 5.84659e-07
0.000217203 -5.65632e-05 5.95878e-08
5.84659e-07 5.95878e-08 -3.82366e-05
0.00230881 0.000155718 1.11893e-06
0.000155718 -4.80049e-05 4.03147e-07
1.11893e-06 4.03147e-07 1.9396e-05
0.00236374 0.000476123 2.56395e-07
0.000476123 4.05467e-05 -4.51583e-07
2.56395e-07 -4.51583e-07 -2.03085e-06
0.00242114 0.000340456 3.92418e-07
0.000340456 -4.21527e-05 1.71117e-07
3.92418e-07 1.71117e-07 -5.26955e-06
0.00216788 -7.47413e-05 1.20213e-06
-7.47413e-05 9.94546e-05 -7.74271e-08
1.20213e-06 -7.74271e-08 3.81778e-05
0.00208419 -0.000258585 3.52118e-06
-0.000258585 4.15598e-05 -5.17709e-07
3.52118e-06 -5.17709e-07 -5.46965e-05
0.00217709 -0.000153048 -3.75519e-06
-0.000153048 1.64166e-05 4.59585e-07
-3.75519e-06 4.59585e-07 6.55117e-06
0.00227293 -0.000357893 -5.45214e-06
-0.000357893 8.95545e-05 1.1799e-06
-5.45214e-06 1.1799e-06 1.99582e-05
0.000539126 -0.000358851 -5.53497e-06
-0.000358851 -9.49077e-05 8.61017e-06
-5.53497e-06 8.61017e-06 -0.000445525
0.00209637 -0.000851062 -1.0766e-06
-0.000851062 0.000625861 -2.37295e-06
-1.0766e-06 -2.37295e-06 6.80268e-05
0.00203336 -0.000863911 -8.44119e-07
-0.000863911 0.000294795 -2.68173e-06
-8.44119e-07 -2.68173e-06 -0.000201049
0.0020725 -0.000535875 -2.99738e-06
-0.000535875 5.88952e-05 5.61064e-07
-2.99738e-06 5.61064e-07 -0.000124309
0.0023324 -0.000489229 -1.41043e-07
-0.000489229 5.88171e-05 -4.89017e-07
-1.41043e-07 -4.89017e-07 9.60785e-06
0.00226575 -0.000667742 -9.8114e-07
-0.000667742 0.000159393 7.78563e-07
-9.8114e-07 7.78563e-07 -3.48309e-05
0.00230064 -0.000779104 -9.04481e-07
-0.000779104 0.000341618 -3.65351e-06
-9.04481e-07 -3.65351e-06 -8.76332e-06
0.00234846 -0.000759445 2.78851e-06
-0.000759445 0.000285995 -1.50559e-07
2.78851e-06 -1.50559e-07 3.13544e-05
0.000631578 -0.000450329 6.44857e-06
-0.000450329 -1.09847e-05 -3.19014e-06
6.44857e-06 -3.19014e-06 -0.000456815
0.00135164 -0.000487533 -1.22881e-05
-0.000487533 0.000473555 -2.9402e-06
-1.22881e-05 -2.9402e-06 1.91522e-05
0.000481755 -0.000255482 -8.42048e-06
-0.000255482 5.50595e-05 1.52653e-06
-8.42048e-06 1.52653e-06 -0.000219347
-0.000528652 -0.000189862 -2.51799e-06
-0.000189862 -0.000637439 -4.29169e-06
-2.51799e-06 -4.29169e-06 -0.000939086
0.00218064 -8.78062e-05 -1.38071e-07
-8.78062e-05 4.07845e-05 3.97418e-08
-1.38071e-07 3.97418e-08 2.91575e-05
0.00218526 -0.00025898 1.83281e-06
-0.00025898 1.0549e-05 -4.37301e-07
1.83281e-06 -4.37301e-07 -2.66627e-05
0.00214319 -0.000149852 4.08922e-08
-0.000149852 -1.9626e-05 -1.70749e-07
4.08922e-08 -1.70749e-07 6.46568e-06
0.00227429 -0.000381966 -4.00862e-07
-0.000381966 -8.92629e-06 2.95471e-07
-4.00862e-07 2.95471e-07 -9.74429e-06
0.0016183 -0.000681763 -1.94199e-06
-0.000681763 0.000478372 2.57189e-08
-1.94199e-06 2.57189e-08 -3.9828e-05
0.00204448 -0.000992954 3.27509e-06
-0.000992954 0.000504751 -2.81693e-09
3.27509e-06 -2.81693e-09 -0.000110506
0.00246489 -0.000952265 -2.3803e-07
-0.000952265 0.000516092 7.69615e-07
-2.3803e-07 7.69615e-07 1.8861e-05
0.00231874 -0.000589893 -1.0607e-06
-0.000589893 0.000123261 1.21519e-07
-1.0607e-06 1.21519e-07 3.62757e-06
0.0023639 -0.000516913 8.23416e-07
-0.000516913 1.53365e-05 -3.60205e-07
8.23416e-07 -3.60205e-07 -1.18396e-05
0.00242479 -0.000796515 -1.43027e-06
-0.000796515 0.000426727 9.06296e-07
-1.43027e-06 9.06296e-07 8.2918e-05
0.00236319 -0.00073694 -1.06897e-06
-0.00073694 0.000140119 7.52704e-07
-1.06897e-06 7.52704e-07 -1.71089e-05
0.00241828 -0.000824755 6.62587e-06
-0.000824755 0.000264262 -4.47691e-06
6.62587e-06 -4.47691e-06 1.46893e-06
0.00146292 -0.000719292 6.7132e-07
-0.000719292 0.000492922 -1.60269e-06
6.7132e-07 -1.60269e-06 -7.20838e-05
0.00163018 -0.000676256 -9.15036e-07
-0.000676256 0.000681438 1.00673e-06
-9.15036e-07 1.00673e-06 0.00011254
0.000984109 -0.000331621 2.57204e-07
-0.000331621 0.000350363 -3.79877e-06
2.57204e-07 -3.79877e-06 -2.45422e-05
0.000153909 -0.00013064 -3.03905e-06
-0.00013064 -0.000118637 2.04537e-06
-3.03905e-06 2.04537e-06 -0.000377767
-0.000487607 -0.000199673 -8.51401e-07
-0.000199673 -0.000528214 1.36973e-06
-8.51401e-07 1.36973e-06 -0.000885958
0.00213184 -9.36557e-05 1.89691e-06
-9.36557e-05 -5.44909e-05 -2.03249e-08
1.89691e-06 -2.03249e-08 -1.59547e-05
0.00221514 -0.000226531 3.93799e-07
-0.000226531 -5.11806e-05 -7.47777e-07
3.93799e-07 -7.47777e-07 -1.51118e-05
0.00240872 -0.000463963 -1.23749e-06
-0.000463963 -5.76526e-05 -7.74244e-07
-1.23749e-06 -7.74244e-07 -1.63433e-05
0.00239126 -0.000627252 2.61809e-07
-0.000627252 4.89685e-05 8.28248e-07
2.61809e-07 8.28248e-07 -8.25168e-06
0.00185678 -0.000945807 4.20844e-06
-0.000945807 0.000612886 2.28133e-06
4.20844e-06 2.28133e-06 -3.11796e-05
0.00258713 -0.000877756 -3.4083e-06
-0.000877756 0.000172075 -1.11477e-06
-3.4083e-06 -1.11477e-06 -1.75258e-05
0.00154609 -0.00101684 -1.01212e-05
-0.00101684 0.000200335 8.50514e-06
-1.01212e-05 8.50514e-06 -0.000432274
0.00270218 -0.00101624 -1.04573e-06
-0.00101624 0.000639292 2.60961e-06
-1.04573e-06 2.60961e-06 0.000131299
0.00204782 -0.000770784 -1.35979e-05
-0.000770784 0.000152961 -2.59304e-06
-1.35979e-05 -2.59304e-06 -0.00017089
0.000188095 -9.64279e-05 1.06071e-06
-9.64279e-05 -8.79917e-05 -8.07862e-06
1.06071e-06 -8.07862e-06 -0.000271609
0.000552995 -0.000374526 -2.33908e-06
-0.000374526 0.000222936 4.158e-06
-2.33908e-06 4.158e-06 -0.000159925
0.00237578 -0.000342881 -1.05194e-05
-0.000342881 0.00130369 1.35364e-05
-1.05194e-05 1.35364e-05 0.000932967
0.00212451 -0.000881238 -2.52352e-06
-0.000881238 0.000903445 6.62771e-06
-2.52352e-06 6.62771e-06 0.000279892
0.00199828 -0.000524737 2.99337e-06
-0.000524737 0.000962513 4.9836e-06
2.99337e-06 4.9836e-06 0.000496204
0.00234734 -0.000856316 -4.62297e-06
-0.000856316 0.00109445 1.52779e-05
-4.62297e-06 1.52779e-05 0.000465268
0.000387453 3.83174e-05 -5.91633e-06
3.83174e-05 -4.09979e-05 -1.47311e-05
-5.91633e-06 -1.47311e-05 -0.000103503
0.000132129 8.91134e-05 -1.00536e-06
8.91134e-05 -0.000135215 -1.06934e-05
-1.00536e-06 -1.06934e-05 -0.000373659
0.00237566 0.000569815 -3.97287e-06
0.000569815 0.000210385 -6.06452e-07
-3.97287e-06 -6.06452e-07 2.80206e-05
-0.000313953 1.87772e-05 -1.97949e-06
1.87772e-05 -0.000428346 -6.52984e-07
-1.97949e-06 -6.52984e-07 -0.000774074
0.00297106 0.000584612 1.54774e-05
0.000584612 0.00151025 -5.54418e-06
1.54774e-05 -5.54418e-06 0.00112637
-0.000567962 0.000179823 -1.14432e-05
0.000179823 -0.000807663 1.27892e-06
-1.14432e-05 1.27892e-06 -0.0011173
0.00227554 0.000741864 2.05866e-06
0.000741864 0.000313214 3.18906e-06
2.05866e-06 3.18906e-06 -6.00007e-06
0.00234241 0.000719852 3.11848e-06
0.000719852 0.000238535 1.0841e-06
3.11848e-06 1.0841e-06 -6.58992e-06
0.00199243 0.000945643 1.02081e-05
0.000945643 0.000735315 1.04649e-05
1.02081e-05 1.04649e-05 8.11435e-05
0.00289767 0.00104914 -2.11456e-06
0.00104914 0.000967064 9.8333e-06
-2.11456e-06 9.8333e-06 0.000418071
0.00257401 0.000875944 5.86588e-06
0.000875944 0.000443152 5.42144e-06
5.86588e-06 5.42144e-06 6.71768e-05
0.000797354 0.000148207 1.37026e-06
0.000148207 0.00024481 -1.00029e-07
1.37026e-06 -1.00029e-07 7.84959e-05
0.000924326 0.000230504 -2.80772e-06
0.000230504 0.000418384 6.90092e-07
-2.80772e-06 6.90092e-07 6.49488e-05
0.0010493 0.000653169 4.0442e-07
0.000653169 0.000288426 4.12907e-07
4.0442e-07 4.12907e-07 -0.000227386
0.000898272 0.000205419 -1.47007e-07
0.000205419 0.000106498 -1.86174e-06
-1.47007e-07 -1.86174e-06 -0.000176565
0.0013692 0.000449119 3.62622e-06
0.000449119 0.00025415 -5.09118e-06
3.62622e-06 -5.09118e-06 -0.000100869
0.00235246 0.000603097 -2.18862e-06
0.000603097 0.000117704 -1.01054e-06
-2.18862e-06 -1.01054e-06 -1.82878e-05
0.0023813 0.000821027 2.57371e-06
0.000821027 0.000319463 5.0493e-07
2.57371e-06 5.0493e-07 -1.33611e-05
0.00237737 0.000794805 1.15629e-06
0.000794805 0.000199188 6.1872e-07
1.15629e-06 6.1872e-07 -4.97933e-05
0.00185627 0.00105356 2.37008e-06
0.00105356 0.000644935 1.1347e-06
2.37008e-06 1.1347e-06 -3.20577e-05
0.0021444 0.000990615 -2.31854e-06
0.000990615 0.000366762 -2.99673e-06
-2.31854e-06 -2.99673e-06 -0.000132948
0.00182036 0.00037466 2.63332e-06
0.00037466 0.000971243 5.52542e-06
2.63332e-06 5.52542e-06 0.000697896
-0.000278957 0.000181932 8.98066e-07
0.000181932 -0.000339793 -3.70051e-06
8.98066e-07 -3.70051e-06 -0.000720808
0.00181448 0.000844476 3.46832e-06
0.000844476 0.000764972 -7.84509e-06
3.46832e-06 -7.84509e-06 0.000185388
-0.00284601 0.000283587 5.80831e-06
0.000283587 -0.00234351 -4.16406e-06
5.80831e-06 -4.16406e-06 -0.00266917
0.00341306 0.000880812 5.16061e-06
0.000880812 0.00147995 -7.41829e-06
5.16061e-06 -7.41829e-06 0.00100735
0.00253693 0.000709417 -2.85767e-06
0.000709417 9.7566e-05 -6.76081e-07
-2.85767e-06 -6.76081e-07 1.3659e-05
0.00240439 0.000873894 8.98988e-06
0.000873894 0.000274722 -3.32996e-06
8.98988e-06 -3.32996e-06 -9.19056e-05
0.00225498 0.000789427 7.42242e-06
0.000789427 4.22339e-05 -2.67224e-08
7.42242e-06 -2.67224e-08 -0.000222536
0.00207472 0.00110707 1.69067e-05
0.00110707 0.000694221 -1.44698e-07
1.69067e-05 -1.44698e-07 3.18584e-05
0.0025578 0.00117981 7.81863e-06
0.00117981 0.000672477 -9.21654e-07
7.81863e-06 -9.21654e-07 8.39509e-05
0.000502049 7.99878e-05 3.87612e-06
7.99878e-05 6.96893e-05 -1.03968e-05
3.87612e-06 -1.03968e-05 -6.96724e-05
0.000929521 0.000180571 4.82857e-08
0.000180571 0.000395748 -9.56942e-07
4.82857e-08 -9.56942e-07 0.000190338
-0.000235893 0.00011017 -3.63029e-06
0.00011017 -0.000363704 -1.5265e-05
-3.63029e-06 -1.5265e-05 -0.000505296
-0.000752189 -1.40422e-05 6.15291e-06
-1.40422e-05 -0.000671852 -3.60843e-06
6.15291e-06 -3.60843e-06 -0.000848377
0.000530029 0.000111287 -1.69067e-06
0.000111287 0.000165506 2.78861e-07
-1.69067e-06 2.78861e-07 -8.28995e-06
0.000227696 0.000116927 3.25028e-06
0.000116927 3.11567e-06 -4.26058e-07
3.25028e-06 -4.26058e-07 -0.000208577
0.000493271 0.000204931 -5.51922e-07
0.000204931 0.000171528 -9.05007e-06
-5.51922e-07 -9.05007e-06 -2.42672e-05
0.000352303 1.1602e-05 -7.00696e-06
1.1602e-05 9.5894e-05 3.43326e-06
-7.00696e-06 3.43326e-06 -0.000121524
0.000734678 0.000131114 -1.31625e-06
0.000131114 0.000272329 5.2316e-07
-1.31625e-06 5.2316e-07 0.000126805
0.000529338 9.51113e-05 1.78426e-06
9.51113e-05 0.000100688 3.95268e-06
1.78426e-06 3.95268e-06 3.29149e-06
0.000439041 3.69077e-05 -2.93105e-06
3.69077e-05 3.53886e-05 1.10501e-07
-2.93105e-06 1.10501e-07 -5.89444e-05
0.00140372 7.04754e-06 2.3015e-06
7.04754e-06 0.000625819 4.99537e-06
2.3015e-06 4.99537e-06 0.000598399
0.000260157 -8.513e-05 7.79089e-06
-8.513e-05 -6.4867e-05 -5.08321e-06
7.79089e-06 -5.08321e-06 -0.000172653
0.00145038 3.92981e-06 -1.26573e-05
3.92981e-06 0.000654264 -1.96431e-06
-1.26573e-05 -1.96431e-06 0.000625187
0.000721858 -1.41472e-05 4.24056e-05
-1.41472e-05 0.000172047 1.10255e-05
4.24056e-05 1.10255e-05 0.000173737
0.00151389 2.16628e-08 -1.97974e-05
2.16628e-08 0.000694563 -1.00835e-05
-1.97974e-05 -1.00835e-05 0.000661716
0.000748513 -3.2225e-05 2.09286e-05
-3.2225e-05 0.000189827 4.35838e-06
2.09286e-05 4.35838e-06 0.000183056
0.00340608 -0.000147555 5.64852e-06
-0.000147555 0.00194628 -5.061e-06
5.64852e-06 -5.061e-06 0.00193252
0.00016497 7.66487e-05 -4.09345e-06
7.66487e-05 -0.000137062 -8.28349e-06
-4.09345e-06 -8.28349e-06 -0.000200195
0.000322621 -4.22505e-05 -4.58668e-06
-4.22505e-05 -6.20173e-05 7.51621e-07
-4.58668e-06 7.51621e-07 -0.000136818
0.0036986 0.000206127 -2.09873e-05
0.000206127 0.00217243 -1.10638e-05
-2.09873e-05 -1.10638e-05 0.00214321
0.000822746 -0.000165942 -2.04266e-05
-0.000165942 0.000231693 1.43559e-05
-2.04266e-05 1.43559e-05 0.000118708
0.00500971 0.000165897 -4.84229e-05
0.000165897 0.00303327 -7.03829e-08
-4.84229e-05 -7.03829e-08 0.00300678
0.00635795 0.000142847 -0.000207143
0.000142847 0.00393316 3.68241e-05
-0.000207143 3.68241e-05 0.00390384
0.00235772 0.000475627 -4.29905e-06
0.000475627 0.000124566 -3.27158e-07
-4.29905e-06 -3.27158e-07 1.98535e-05
0.00220567 0.000237034 -5.59669e-06
0.000237034 3.28477e-05 -9.06603e-07
-5.59669e-06 -9.06603e-07 7.29179e-06
0.00225637 0.000334624 2.02023e-07
0.000334624 -5.91524e-05 4.79857e-07
2.02023e-07 4.79857e-07 -4.75608e-05
0.00213673 0.00014878 -8.38066e-07
0.00014878 -6.95325e-05 -2.87464e-07
-8.38066e-07 -2.87464e-07 -3.60692e-05
0.00209591 5.82246e-05 -5.21014e-06
5.82246e-05 -2.53001e-05 -6.95308e-08
-5.21014e-06 -6.95308e-08 -2.96249e-05
0.00213395 -5.08594e-06 -1.37943e-06
-5.08594e-06 7.34474e-05 1.37455e-07
-1.37943e-06 1.37455e-07 1.55205e-05
0.00212437 -1.25858e-05 2.11184e-07
-1.25858e-05 -3.09437e-06 -4.94402e-09
2.11184e-07 -4.94402e-09 -7.30734e-06
0.00221678 6.48205e-05 6.35646e-07
6.48205e-05 4.46583e-06 -1.73983e-08
6.35646e-07 -1.73983e-08 3.94329e-05
0.00221653 0.000218519 -4.92107e-07
0.000218519 -3.14006e-05 -7.83435e-08
-4.92107e-07 -7.83435e-08 -1.41653e-05
0.00227537 0.000155909 6.27755e-07
0.000155909 -7.45771e-05 1.10919e-07
6.27755e-07 1.10919e-07 1.49995e-06
0.00236968 0.000476595 -3.56618e-07
0.000476595 4.85016e-05 3.58452e-08
-3.56618e-07 3.58452e-08 4.28903e-06
0.0023999 0.00034337 2.08223e-06
0.00034337 -5.5341e-05 6.59027e-07
2.08223e-06 6.59027e-07 -9.95084e-06
0.00214384 -1.66258e-05 9.51992e-07
-1.66258e-05 -4.46087e-05 -3.49576e-08
9.51992e-07 -3.49576e-08 -1.18041e-05
0.00230533 7.87223e-05 1.20409e-06
7.87223e-05 -7.10139e-05 -3.53605e-07
1.20409e-06 -3.53605e-07 1.75125e-05
0.00238244 0.000226842 -1.19551e-06
0.000226842 -5.80502e-05 3.0775e-07
-1.19551e-06 3.0775e-07 1.97068e-05
0.00251202 0.00049828 -1.95711e-06
0.00049828 -2.81727e-05 4.15037e-09
-1.95711e-06 4.15037e-09 1.25699e-05
0.00218836 -8.78761e-05 -6.38416e-06
-8.78761e-05 4.39233e-05 5.38558e-07
-6.38416e-06 5.38558e-07 3.23432e-05
0.00224634 -0.000263666 -3.78202e-06
-0.000263666 5.76306e-05 8.37153e-07
-3.78202e-06 8.37153e-07 1.94749e-05
0.00209096 -0.000148696 -2.07419e-06
-0.000148696 -5.9982e-05 4.55054e-07
-2.07419e-06 4.55054e-07 -3.1671e-05
0.00227349 -0.000381171 -2.78342e-06
-0.000381171 -2.17373e-06 4.73549e-07
-2.78342e-06 4.73549e-07 -1.10312e-05
0.00150313 -0.000662936 9.79955e-06
-0.000662936 0.000395796 -2.26426e-06
9.79955e-06 -2.26426e-06 -0.000115248
0.00199116 -0.000987754 4.30207e-06
-0.000987754 0.000471847 -4.69506e-06
4.30207e-06 -4.69506e-06 -0.000144624
0.00246634 -0.000972712 -6.34198e-06
-0.000972712 0.000514625 -2.83655e-06
-6.34198e-06 -2.83655e-06 4.82286e-06
0.0023416 -0.000589411 -3.16728e-06
-0.000589411 0.000148083 9.75179e-07
-3.16728e-06 9.75179e-07 2.18723e-05
0.00235449 -0.000515978 2.36271e-06
-0.000515978 1.01762e-05 -5.93909e-07
2.36271e-06 -5.93909e-07 -8.84476e-06
0.00234085 -0.000738209 -2.12209e-06
-0.000738209 0.000119457 1.43458e-06
-2.12209e-06 1.43458e-06 -3.83201e-05
0.00242347 -0.000793205 1.11368e-06
-0.000793205 0.000435146 -1.00828e-06
1.11368e-06 -1.00828e-06 9.21101e-05
0.00246934 -0.000821411 9.16165e-06
-0.000821411 0.000295632 4.60502e-07
9.16165e-06 4.60502e-07 3.62516e-05
0.00189664 -0.00076997 -2.05265e-05
-0.00076997 0.000807051 -2.74145e-06
-2.05265e-05 -2.74145e-06 0.000226674
0.00102896 -0.000612685 8.68407e-06
-0.000612685 0.000291117 -1.47194e-05
8.68407e-06 -1.47194e-05 -0.000256116
0.00252313 -0.000407534 -4.24824e-06
-0.000407534 0.00129506 -6.84082e-06
-4.24824e-06 -6.84082e-06 0.000924728
-4.82729e-05 -4.51557e-05 3.18813e-06
-4.51557e-05 -0.000242674 4.84691e-06
3.18813e-06 4.84691e-06 -0.000498579
-0.000269542 -0.000125099 8.85424e-06
-0.000125099 -0.000387135 -1.27848e-05
8.85424e-06 -1.27848e-05 -0.000737159
0.00212082 -0.00010106 1.0549e-07
-0.00010106 -6.05625e-05 -7.08587e-08
1.0549e-07 -7.08587e-08 -2.29831e-05
0.00223854 -0.000228338 1.81128e-06
-0.000228338 -3.86652e-05 -6.08824e-09
1.81128e-06 -6.08824e-09 -3.86045e-06
0.00240671 -0.000457623 -9.47869e-07
-0.000457623 -3.97638e-05 3.04087e-07
-9.47869e-07 3.04087e-07 -8.68172e-06
0.00210911 -0.000955115 -2.063e-06
-0.000955115 0.000770066 -1.05551e-07
-2.063e-06 -1.05551e-07 0.000130047
0.00169953 -0.00102023 6.72566e-06
-0.00102023 0.000295734 -1.34735e-06
6.72566e-06 -1.34735e-06 -0.000334648
0.00254454 -0.00101914 -1.62893e-06
-0.00101914 0.000542169 2.0026e-07
-1.62893e-06 2.0026e-07 2.65452e-05
0.00239705 -0.00061998 4.07048e-07
-0.00061998 5.89197e-05 -4.74766e-07
4.07048e-07 -4.74766e-07 2.09886e-07
0.00233462 -0.000823677 3.58045e-06
-0.000823677 0.000297177 -4.21957e-06
3.58045e-06 -4.21957e-06 -3.29074e-05
0.0025876 -0.000865297 -1.25708e-06
-0.000865297 0.000204291 -7.05147e-07
-1.25708e-06 -7.05147e-07 1.90986e-05
-0.000415912 9.05581e-06 -1.85725e-06
9.05581e-06 -0.000500141 -4.15544e-07
-1.85725e-06 -4.15544e-07 -0.000661032
0.00172085 -0.000816014 1.11208e-06
-0.000816014 0.000671979 -1.91933e-07
1.11208e-06 -1.91933e-07 5.83455e-05
0.00172997 -0.000784788 -4.96645e-06
-0.000784788 0.000738222 -6.11264e-07
-4.96645e-06 -6.11264e-07 9.15024e-05
0.00134112 -0.000452852 -1.76669e-06
-0.000452852 0.000524876 2.69297e-06
-1.76669e-06 2.69297e-06 5.21371e-05
0.00183976 -0.000445973 1.36666e-06
-0.000445973 0.000966067 -5.5323e-07
1.36666e-06 -5.5323e-07 0.000575284
0.000590015 -0.000208726 -5.85441e-07
-0.000208726 0.000226935 8.62061e-07
-5.85441e-07 8.62061e-07 -0.000148964
0.00225711 -0.00012921 6.75263e-09
-0.00012921 -8.28074e-05 -1.5665e-07
6.75263e-09 -1.5665e-07 -7.12704e-06
0.00243312 -0.000304359 1.21317e-06
-0.000304359 -9.9035e-05 -6.37779e-07
1.21317e-06 -6.37779e-07 6.33057e-06
0.00250341 -0.000573196 -1.63219e-06
-0.000573196 -3.6552e-05 2.04913e-07
-1.63219e-06 2.04913e-07 7.92467e-06
0.00252423 -0.000751745 -2.16503e-06
-0.000751745 1.90926e-05 1.1547e-06
-2.16503e-06 1.1547e-06 -6.03227e-06
0.00238898 -0.00107554 -6.39571e-06
-0.00107554 0.000939865 4.62616e-06
-6.39571e-06 4.62616e-06 0.000262809
0.00255228 -0.000984737 -2.69046e-06
-0.000984737 0.000270533 -4.96143e-06
-2.69046e-06 -4.96143e-06 -3.78639e-05
0.00240936 -0.00121675 -5.97681e-05
-0.00121675 0.000719053 1.00192e-05
-5.97681e-05 1.00192e-05 1.50614e-05
0.00220306 -0.00102574 -3.0525e-05
-0.00102574 0.000357753 2.48733e-06
-3.0525e-05 2.48733e-06 -0.000162519
-0.000463134 3.14165e-05 -3.00719e-06
3.14165e-05 -0.000545181 -4.63341e-06
-3.00719e-06 -4.63341e-06 -0.000654771
0.00121246 -5.63775e-05 -6.01928e-07
-5.63775e-05 0.000649981 3.21256e-06
-6.01928e-07 3.21256e-06 0.000345349
0.00236289 -0.00043757 -8.67442e-06
-0.00043757 0.00137087 6.65616e-06
-8.67442e-06 6.65616e-06 0.000961192
0.000140065 -0.000320462 -9.54725e-06
-0.000320462 -0.000140593 7.44484e-06
-9.54725e-06 7.44484e-06 -0.000528336
0.00254223 -0.000949109 -2.16936e-06
-0.000949109 0.00115791 2.06948e-05
-2.16936e-06 2.06948e-05 0.000524354
0.00197514 -0.000791952 3.59113e-06
-0.000791952 0.000920223 1.54658e-05
3.59113e-06 1.54658e-05 0.000225392
0.000560202 0.000121246 1.76155e-06
0.000121246 9.5374e-05 -1.04718e-05
1.76155e-06 -1.04718e-05 -6.83688e-05
-0.000584088 9.84998e-05 2.95318e-07
9.84998e-05 -0.000563954 -3.41473e-06
2.95318e-07 -3.41473e-06 -0.000893105
0.00236001 0.000603706 -1.09691e-06
0.000603706 0.000135248 -3.43765e-07
-1.09691e-06 -3.43765e-07 -2.17639e-06
0.000321965 0.000164869 -4.62138e-06
0.000164869 -0.000251183 6.71014e-06
-4.62138e-06 6.71014e-06 -0.000534413
0.00189741 0.000774354 9.66169e-06
0.000774354 0.000817931 -2.13096e-06
9.66169e-06 -2.13096e-06 0.000253775
0.000211623 0.000232793 -8.56967e-06
0.000232793 -0.000467723 -1.7933e-06
-8.56967e-06 -1.7933e-06 -0.00075326
0.00250875 0.000836172 5.08043e-06
0.000836172 0.000384158 1.58041e-06
5.08043e-06 1.58041e-06 4.80049e-05
0.00239699 0.000799499 -3.28275e-06
0.000799499 0.00019092 5.2886e-07
-3.28275e-06 5.2886e-07 -5.95809e-05
0.00226046 0.00112347 -4.23707e-06
0.00112347 0.000864788 7.47178e-06
-4.23707e-06 7.47178e-06 0.000175975
0.00214734 0.00100097 -7.63427e-06
0.00100097 0.000407792 3.27122e-06
-7.63427e-06 3.27122e-06 -0.000104003
0.000749179 0.000267138 -3.53904e-07
0.000267138 0.000279693 -4.34839e-07
-3.53904e-07 -4.34839e-07 1.74984e-05
0.000895469 0.000319637 1.86384e-06
0.000319637 0.000389227 -3.21743e-06
1.86384e-06 -3.21743e-06 -3.12756e-06
0.00156901 0.000798961 -2.85697e-06
0.000798961 0.000616863 -1.44897e-07
-2.85697e-06 -1.44897e-07 4.87454e-05
0.000579769 0.000364541 -4.03391e-06
0.000364541 -0.000198033 2.22026e-06
-4.03391e-06 2.22026e-06 -0.000506853
0.00292442 0.0007934 1.02257e-06
0.0007934 0.00116211 4.81859e-07
1.02257e-06 4.81859e-07 0.000712426
0.0025728 0.000717085 -2.47484e-06
0.000717085 0.000102075 -4.81533e-07
-2.47484e-06 -4.81533e-07 1.49049e-05
0.00254939 0.000861346 2.83123e-06
0.000861346 0.000373281 -7.43754e-07
2.83123e-06 -7.43754e-07 2.04479e-05
0.00261526 0.000823794 5.68796e-07
0.000823794 0.000275961 2.75034e-06
5.68796e-07 2.75034e-06 1.5744e-06
0.00203147 0.00111436 4.81863e-06
0.00111436 0.000658743 1.37342e-06
4.81863e-06 1.37342e-06 -1.03964e-05
0.00245305 0.00121991 -5.28617e-06
0.00121991 0.000614727 8.20124e-07
-5.28617e-06 8.20124e-07 -1.84779e-06
-0.00180341 1.70194e-06 -1.12058e-05
1.70194e-06 -0.00132513 2.21148e-06
-1.12058e-05 2.21148e-06 -0.00155964
-0.0030604 0.000330362 -1.97391e-06
0.000330362 -0.00187313 -5.07509e-06
-1.97391e-06 -5.07509e-06 -0.00235993
0.00206641 0.000915998 1.18353e-05
0.000915998 0.000795799 -4.96474e-06
1.18353e-05 -4.96474e-06 0.000219725
0.00111209 0.000466494 6.1796e-06
0.000466494 2.88398e-05 -8.29375e-06
6.1796e-06 -8.29375e-06 -0.000298357
0.0027126 0.000668599 4.5602e-07
0.000668599 -0.000154112 7.7686e-07
4.5602e-07 7.7686e-07 -2.88927e-05
0.00265259 0.000862347 7.27538e-06
0.000862347 0.000161132 1.78306e-07
7.27538e-06 1.78306e-07 -2.0059e-05
0.00269872 0.00107023 1.13066e-05
0.00107023 0.000469984 -4.13374e-06
1.13066e-05 -4.13374e-06 -2.25835e-05
0.00221181 0.00124978 6.32865e-06
0.00124978 0.000574497 -6.68123e-07
6.32865e-06 -6.68123e-07 -0.000130867
0.00150662 0.000239751 4.06836e-06
0.000239751 0.000806208 4.17977e-08
4.06836e-06 4.17977e-08 0.000568421
0.000395278 0.000211372 -4.93924e-06
0.000211372 8.58527e-05 1.20604e-06
-4.93924e-06 1.20604e-06 -9.22663e-05
0.00059786 0.000133038 -8.37008e-06
0.000133038 0.000234354 -6.50297e-06
-8.37008e-06 -6.50297e-06 0.000110047
3.68084e-05 4.5284e-05 2.93802e-06
4.5284e-05 -0.000177276 -3.38269e-06
2.93802e-06 -3.38269e-06 -0.000332357
-0.00146445 5.64103e-05 3.0096e-07
5.64103e-05 -0.00104032 3.03817e-07
3.0096e-07 3.03817e-07 -0.00126158
0.000750709 8.43428e-05 -1.02974e-06
8.43428e-05 0.00028547 -6.95078e-08
-1.02974e-06 -6.95078e-08 0.000136647
0.000722113 0.000242481 4.1152e-06
0.000242481 0.000361978 2.55673e-06
4.1152e-06 2.55673e-06 0.000155845
0.000673662 0.000101991 1.21276e-06
0.000101991 0.000333989 2.40663e-06
1.21276e-06 2.40663e-06 8.97868e-05
0.000450043 0.000136174 -3.32495e-06
0.000136174 5.81501e-05 -9.90711e-06
-3.32495e-06 -9.90711e-06 -3.27895e-05
0.000703641 7.47769e-05 -4.28562e-06
7.47769e-05 0.000359919 -4.59988e-06
-4.28562e-06 -4.59988e-06 0.000109757
-0.000130081 7.73211e-05 -2.29127e-06
7.73211e-05 -0.000240601 3.12966e-06
-2.29127e-06 3.12966e-06 -0.000433315
0.000745212 0.000143659 2.0266e-06
0.000143659 0.000278321 2.7891e-06
2.0266e-06 2.7891e-06 0.000128915
0.000444535 9.69395e-05 2.42481e-06
9.69395e-05 5.24061e-05 4.05289e-06
2.42481e-06 4.05289e-06 -4.86051e-05
0.000424935 2.15366e-05 -1.92978e-06
2.15366e-05 2.90078e-05 -4.18089e-07
-1.92978e-06 -4.18089e-07 -6.50011e-05
0.001288 1.93884e-05 5.73965e-07
1.93884e-05 0.000555579 3.74587e-06
5.73965e-07 3.74587e-06 0.00052894
0.000424479 -4.94216e-05 3.28105e-06
-4.94216e-05 2.28924e-05 -4.05639e-06
3.28105e-06 -4.05639e-06 -6.82669e-05
0.0013605 4.74051e-06 -1.11849e-05
4.74051e-06 0.000599605 -1.9234e-06
-1.11849e-05 -1.9234e-06 0.000572902
0.000640002 -4.91437e-06 3.84412e-05
-4.91437e-06 0.000121032 1.0891e-05
3.84412e-05 1.0891e-05 0.000124152
0.00139403 -3.4285e-05 -1.24587e-05
-3.4285e-05 0.000620069 -9.08629e-06
-1.24587e-05 -9.08629e-06 0.000591615
0.000709663 -2.23062e-05 1.72561e-05
-2.23062e-05 0.000163108 4.03399e-06
1.72561e-05 4.03399e-06 0.00016145
0.000637461 -3.66914e-05 3.30452e-06
-3.66914e-05 0.000119822 -4.5373e-06
3.30452e-06 -4.5373e-06 0.000110389
0.000337189 3.79899e-05 -5.34157e-07
3.79899e-05 -6.14401e-05 -6.57237e-06
-5.34157e-07 -6.57237e-06 -0.000100779
0.000449347 4.65987e-05 -1.66302e-06
4.65987e-05 2.51793e-05 4.70499e-08
-1.66302e-06 4.70499e-08 -2.81544e-05
0.00299547 0.000158051 -1.66089e-05
0.000158051 0.00169833 -9.30532e-06
-1.66089e-05 -9.30532e-06 0.00168321
0.000636557 -4.95819e-05 -1.51016e-05
-4.95819e-05 0.000140334 1.26295e-05
-1.51016e-05 1.26295e-05 5.95562e-05
0.00385572 0.000166216 -2.7412e-05
0.000166216 0.00226161 -2.05353e-06
-2.7412e-05 -2.05353e-06 0.0022403
0.00517788 6.9442e-05 -0.000192373
6.9442e-05 0.00313189 2.84998e-05
-0.000192373 2.84998e-05 0.00312783
0.00237423 0.000476705 1.48186e-07
0.000476705 5.6308e-05 6.24227e-07
1.48186e-07 6.24227e-07 1.05984e-05
0.00224199 0.000219878 -1.65447e-06
0.000219878 -8.10471e-06 -6.33128e-07
-1.65447e-06 -6.33128e-07 8.07056e-06
0.00237728 0.000345541 1.97789e-06
0.000345541 -6.96623e-05 1.44361e-06
1.97789e-06 1.44361e-06 -1.56939e-05
0.00224789 0.000156273 3.84167e-07
0.000156273 -9.74131e-05 -2.69561e-07
3.84167e-07 -2.69561e-07 -1.26006e-05
0.00220221 6.77041e-05 -2.32967e-06
6.77041e-05 1.43921e-07 1.62239e-07
-2.32967e-06 1.62239e-07 3.02346e-05
0.00216574 -1.53621e-05 -6.30654e-06
-1.53621e-05 2.90307e-05 1.47064e-07
-6.30654e-06 1.47064e-07 2.25934e-05
0.00216055 -1.59581e-05 7.33603e-07
-1.59581e-05 -3.18624e-05 1.13489e-08
7.33603e-07 1.13489e-08 2.41549e-06
0.00227842 8.32393e-05 4.51413e-07
8.32393e-05 -8.43451e-05 1.26847e-07
4.51413e-07 1.26847e-07 2.95049e-06
0.00237582 0.000232574 9.09222e-07
0.000232574 -6.3788e-05 1.70645e-07
9.09222e-07 1.70645e-07 1.60014e-05
0.00248808 0.000482221 5.24757e-07
0.000482221 -4.63129e-05 2.24016e-07
5.24757e-07 2.24016e-07 -6.87161e-07
0.00227307 -1.64409e-05 -3.08801e-07
-1.64409e-05 -8.0421e-05 -1.78489e-07
-3.08801e-07 -1.78489e-07 2.39361e-07
0.00241791 0.000134312 -2.52198e-07
0.000134312 -0.000116797 9.47289e-07
-2.52198e-07 9.47289e-07 2.75441e-05
0.00263886 0.000342726 -1.54514e-06
0.000342726 -6.62049e-05 2.00019e-07
-1.54514e-06 2.00019e-07 5.17783e-05
0.00210902 -0.000108315 -1.47409e-06
-0.000108315 -6.6923e-05 -9.10639e-08
-1.47409e-06 -9.10639e-08 -3.01373e-05
0.0022621 -0.00022932 -1.94243e-06
-0.00022932 -2.50782e-05 2.45236e-07
-1.94243e-06 2.45236e-07 8.4937e-06
0.00239576 -0.000450374 2.28252e-07
-0.000450374 -2.75551e-05 4.4019e-07
2.28252e-07 4.4019e-07 -6.78747e-06
0.00214392 -0.000947933 -5.37845e-06
-0.000947933 0.000773101 -3.36111e-06
-5.37845e-06 -3.36111e-06 0.000139284
0.00184744 -0.00101412 1.3521e-05
-0.00101412 0.000393298 -6.9031e-06
1.3521e-05 -6.9031e-06 -0.000230213
0.00237245 -0.00101691 2.47065e-06
-0.00101691 0.000438944 -1.36651e-06
2.47065e-06 -1.36651e-06 -8.08667e-05
0.00240745 -0.000614094 -2.27616e-07
-0.000614094 7.00101e-05 -8.83057e-08
-2.27616e-07 -8.83057e-08 9.84893e-06
0.00259786 -0.000853722 3.08646e-06
-0.000853722 0.000239522 1.04033e-06
3.08646e-06 1.04033e-06 6.29653e-05
0.00250689 -0.000866584 1.29977e-05
-0.000866584 0.000372983 -4.71278e-06
1.29977e-05 -4.71278e-06 3.95883e-05
0.00139174 -0.000762685 -2.40569e-06
-0.000762685 0.000484021 -6.40546e-06
-2.40569e-06 -6.40546e-06 -0.00012063
0.00202718 -0.000837705 2.24894e-06
-0.000837705 0.00092028 -2.49535e-05
2.24894e-06 -2.49535e-05 0.00026596
0.00204811 -0.00055499 -4.50514e-06
-0.00055499 0.0010313 1.03112e-05
-4.50514e-06 1.03112e-05 0.000512029
2.87846e-05 2.05289e-05 5.72854e-06
2.05289e-05 -0.000211072 3.17039e-06
5.72854e-06 3.17039e-06 -0.000370154
0.000839526 -0.00038641 1.3093e-05
-0.00038641 0.000272167 -1.97501e-05
1.3093e-05 -1.97501e-05 -8.12247e-05
-0.000231987 -0.00013284 6.99773e-06
-0.00013284 -0.000316651 -5.19182e-06
6.99773e-06 -5.19182e-06 -0.000688314
0.00227924 -0.000122483 -3.14806e-07
-0.000122483 -6.71644e-05 5.8648e-08
-3.14806e-07 5.8648e-08 5.90061e-06
0.00241075 -0.000316872 4.14942e-07
-0.000316872 -0.000122282 -2.50195e-08
4.14942e-07 -2.50195e-08 -1.21904e-05
0.00249846 -0.000561497 -5.16097e-07
-0.000561497 -3.55338e-05 -4.43635e-08
-5.16097e-07 -4.43635e-08 8.16578e-06
0.0021339 -0.00104364 -2.38741e-06
-0.00104364 0.000773262 9.80037e-07
-2.38741e-06 9.80037e-07 0.000106318
0.00222842 -0.00117956 1.06582e-05
-0.00117956 0.000623916 -1.95037e-06
1.06582e-05 -1.95037e-06 -6.42445e-05
0.00240628 -0.00103456 -1.46587e-06
-0.00103456 0.000470017 -2.59836e-06
-1.46587e-06 -2.59836e-06 -3.88145e-05
0.00254637 -0.000765731 6.41853e-07
-0.000765731 3.39385e-05 -3.17985e-07
6.41853e-07 -3.17985e-07 -3.45761e-06
0.00253651 -0.000961719 2.2498e-06
-0.000961719 0.000284747 -1.67989e-06
2.2498e-06 -1.67989e-06 -9.9558e-06
0.000125384 6.29915e-05 -2.50459e-06
6.29915e-05 -0.000155994 -2.88648e-06
-2.50459e-06 -2.88648e-06 -0.000265463
0.000812606 -0.000104959 -2.07992e-06
-0.000104959 0.000373027 1.0833e-06
-2.07992e-06 1.0833e-06 8.44101e-05
0.00127886 -0.000793569 -3.36484e-06
-0.000793569 0.000384553 3.51025e-07
-3.36484e-06 3.51025e-07 -0.000198622
0.00161363 -0.000701719 -7.61654e-06
-0.000701719 0.000722311 3.43058e-06
-7.61654e-06 3.43058e-06 4.58695e-05
0.00105991 -0.000256316 1.03337e-06
-0.000256316 0.000388652 -1.06795e-05
1.03337e-06 -1.06795e-05 1.46215e-06
0.00125281 -0.000418757 -4.16669e-06
-0.000418757 0.000652316 1.0204e-06
-4.16669e-06 1.0204e-06 0.000257483
0.00238305 -0.000158862 8.33502e-07
-0.000158862 -0.000141038 -1.22919e-06
8.33502e-07 -1.22919e-06 5.53958e-06
0.00261878 -0.000469298 5.2942e-07
-0.000469298 -0.000159755 -1.36701e-06
5.2942e-07 -1.36701e-06 2.2087e-05
0.00256746 -0.0007118 -3.21128e-07
-0.0007118 -6.9363e-05 1.95865e-06
-3.21128e-07 1.95865e-06 -2.67654e-05
0.00270592 -0.000971612 9.89671e-08
-0.000971612 0.000166135 -5.03718e-07
9.89671e-08 -5.03718e-07 1.67064e-05
0.00123985 -0.000950874 -8.6881e-06
-0.000950874 0.000272908 -2.8789e-06
-8.6881e-06 -2.8789e-06 -0.000353114
0.00266292 -0.00115436 4.01625e-06
-0.00115436 0.000532427 -2.44579e-06
4.01625e-06 -2.44579e-06 3.49367e-05
0.00244848 -0.00131534 -7.08995e-05
-0.00131534 0.00068388 5.5885e-06
-7.08995e-05 5.5885e-06 -4.51907e-05
0.000490197 5.03156e-05 7.09177e-07
5.03156e-05 6.05594e-05 -2.76956e-06
7.09177e-07 -2.76956e-06 -2.0434e-05
0.000745899 -0.000162625 6.26135e-06
-0.000162625 0.000303601 -7.09647e-06
6.26135e-06 -7.09647e-06 0.00015871
-0.000314356 7.31815e-05 -5.93942e-06
7.31815e-05 -0.000377083 -1.35384e-06
-5.93942e-06 -1.35384e-06 -0.000567232
0.000490049 -0.000170058 -6.00329e-06
-0.000170058 0.00018016 9.22475e-06
-6.00329e-06 9.22475e-06 -0.000155946
0.00178074 -0.000240711 -7.81911e-06
-0.000240711 0.000907023 -8.19525e-06
-7.81911e-06 -8.19525e-06 0.000568696
0.00145091 -0.000361573 -1.29907e-05
-0.000361573 0.000756934 1.73875e-06
-1.29907e-05 1.73875e-06 0.000211263
0.00127346 -0.000872545 -1.15835e-05
-0.000872545 0.000355772 3.90304e-05
-1.15835e-05 3.90304e-05 -0.000233574
0.00473128 -0.00117758 -3.01986e-05
-0.00117758 0.00259092 1.61645e-05
-3.01986e-05 1.61645e-05 0.0017451
1.86092e-05 0.000139648 4.17115e-06
0.000139648 -0.000218329 -2.56622e-06
4.17115e-06 -2.56622e-06 -0.000452634
0.00233275 0.000487553 2.83062e-06
0.000487553 0.0012669 3.56876e-06
2.83062e-06 3.56876e-06 0.000867867
0.00261108 0.000726488 -4.48334e-07
0.000726488 0.00010687 -6.035e-07
-4.48334e-07 -6.035e-07 1.51547e-05
0.00268419 0.000325615 5.29693e-07
0.000325615 0.00107325 3.42528e-06
5.29693e-07 3.42528e-06 0.00077619
0.00125663 0.000745505 1.24271e-06
0.000745505 0.000426441 7.62703e-07
1.24271e-06 7.62703e-07 -0.000130833
0.00294757 0.000776963 -3.22184e-06
0.000776963 0.00116395 9.42521e-06
-3.22184e-06 9.42521e-06 0.000717589
0.00266822 0.000844522 -4.94636e-06
0.000844522 0.000455504 2.48134e-07
-4.94636e-06 2.48134e-07 0.000118037
0.00296963 0.000858298 -4.8728e-06
0.000858298 0.000505636 6.90999e-06
-4.8728e-06 6.90999e-06 0.000221031
0.00196193 0.00111908 -5.6841e-06
0.00111908 0.000604988 3.35804e-06
-5.6841e-06 3.35804e-06 -6.90796e-05
0.00226961 0.00125363 -1.5428e-05
0.00125363 0.000508171 -2.30373e-07
-1.5428e-05 -2.30373e-07 -0.000134366
-0.000574922 0.000105249 1.88783e-06
0.000105249 -0.000501712 1.92171e-06
1.88783e-06 1.92171e-06 -0.000791984
-0.000288577 0.00043976 5.32739e-06
0.00043976 -0.00013759 -2.72369e-06
5.32739e-06 -2.72369e-06 -0.000623877
0.00186174 0.000916032 2.35581e-08
0.000916032 0.000625027 -6.14654e-07
2.35581e-08 -6.14654e-07 3.81317e-05
0.0023546 0.000609711 -6.03036e-06
0.000609711 0.000870706 -8.25316e-08
-6.03036e-06 -8.25316e-08 0.000501037
0.00266598 0.000639781 9.49059e-08
0.000639781 -0.000219385 -7.47633e-07
9.49059e-08 -7.47633e-07 -6.97276e-05
0.00280979 0.000875751 3.23075e-06
0.000875751 0.000250936 -7.07672e-07
3.23075e-06 -7.07672e-07 5.37154e-05
0.00248802 0.00102354 -3.99604e-06
0.00102354 0.000392056 -3.72542e-07
-3.99604e-06 -3.72542e-07 -8.32519e-05
0.00247461 0.00126211 1.76211e-06
0.00126211 0.000716439 7.54897e-07
1.76211e-06 7.54897e-07 1.97644e-05
-0.00123427 -4.64438e-06 -5.09118e-06
-4.64438e-06 -0.000890883 -2.02151e-06
-5.09118e-06 -2.02151e-06 -0.00110469
0.00263423 0.000442783 -2.17655e-06
0.000442783 -0.000258247 1.71706e-07
-2.17655e-06 1.71706e-07 -7.76433e-05
0.00364833 0.000842443 -7.73684e-06
0.000842443 0.00230432 8.64758e-06
-7.73684e-06 8.64758e-06 0.00173579
0.00173605 0.000836728 2.29877e-06
0.000836728 0.000441278 -3.29581e-06
2.29877e-06 -3.29581e-06 -7.54225e-05
0.00277738 0.000853776 -1.72164e-05
0.000853776 -1.24094e-06 -1.04675e-05
-1.72164e-05 -1.04675e-05 4.76945e-05
0.00151867 0.000945432 8.24698e-06
0.000945432 -0.00028325 -1.08987e-05
8.24698e-06 -1.08987e-05 -0.000714979
0.00329454 0.00138878 4.94037e-06
0.00138878 0.00113941 3.98048e-06
4.94037e-06 3.98048e-06 0.000409425
-2.05557e-06 0.000143501 1.22851e-06
0.000143501 -0.00014731 5.73318e-06
1.22851e-06 5.73318e-06 -0.000342682
0.0004753 0.000154923 -1.63836e-06
0.000154923 0.000168055 -5.16791e-07
-1.63836e-06 -5.16791e-07 3.64662e-05
-0.000131508 7.68852e-05 -5.81236e-06
7.68852e-05 -0.000161621 -4.22323e-06
-5.81236e-06 -4.22323e-06 -0.000265591
0.000154113 -8.49755e-07 2.76945e-06
-8.49755e-07 -0.000111904 -2.29724e-06
2.76945e-06 -2.29724e-06 -0.000248894
0.000520542 0.0001301 3.91184e-06
0.0001301 0.000230517 -5.25249e-06
3.91184e-06 -5.25249e-06 -8.41192e-06
-0.00019413 0.000188074 -6.03822e-06
0.000188074 -0.000188609 1.10176e-05
-6.03822e-06 1.10176e-05 -0.000376845
0.000488363 2.86663e-05 -1.72203e-06
2.86663e-05 0.000110341 -1.8469e-07
-1.72203e-06 -1.8469e-07 -3.68795e-05
0.000261226 8.20626e-06 -9.7715e-08
8.20626e-06 3.52297e-05 -4.25455e-07
-9.7715e-08 -4.25455e-07 -0.000175483
-8.22336e-05 9.49117e-05 -8.8482e-06
9.49117e-05 -0.00022857 4.09596e-06
-8.8482e-06 4.09596e-06 -0.000310343
0.000677963 0.000167113 2.56246e-06
0.000167113 0.000354537 -2.72477e-06
2.56246e-06 -2.72477e-06 9.76721e-05
0.00145809 0.000195239 -1.61121e-06
0.000195239 0.000737822 -6.80256e-06
-1.61121e-06 -6.80256e-06 0.000669799
-0.000397559 3.96106e-05 1.18968e-05
3.96106e-05 -0.000404116 -1.21503e-05
1.18968e-05 -1.21503e-05 -0.000524869
0.000574708 0.000133532 -3.02094e-06
0.000133532 0.000300749 3.80301e-06
-3.02094e-06 3.80301e-06 3.42793e-05
0.000579402 4.85288e-05 -2.09612e-06
4.85288e-05 0.000212046 3.32501e-06
-2.09612e-06 3.32501e-06 3.4716e-06
0.000525285 3.21959e-05 1.68306e-06
3.21959e-05 0.000113119 2.61548e-06
1.68306e-06 2.61548e-06 -3.11114e-05
0.000448649 -7.55757e-05 -1.79761e-06
-7.55757e-05 4.46318e-05 3.31552e-06
-1.79761e-06 3.31552e-06 -5.17545e-05
0.000446577 1.74006e-05 5.03169e-07
1.74006e-05 3.66572e-05 -4.39949e-07
5.03169e-07 -4.39949e-07 -5.43716e-05
0.00134192 2.79069e-05 3.91599e-06
2.79069e-05 0.00059494 4.03587e-06
3.91599e-06 4.03587e-06 0.00056902
0.000434462 1.61317e-05 2.20016e-06
1.61317e-05 1.84188e-05 -3.6333e-06
2.20016e-06 -3.6333e-06 -6.47758e-05
0.00137085 2.06193e-05 -1.12934e-05
2.06193e-05 0.000612101 -2.09445e-06
-1.12934e-05 -2.09445e-06 0.000584846
0.000763565 8.92452e-07 3.43724e-05
8.92452e-07 0.000206502 9.95767e-06
3.43724e-05 9.95767e-06 0.000208923
0.00132745 -1.58997e-05 -1.11245e-05
-1.58997e-05 0.000576886 -8.47078e-06
-1.11245e-05 -8.47078e-06 0.000552113
0.000749113 -1.33623e-05 1.43968e-05
-1.33623e-05 0.000188943 4.05131e-06
1.43968e-05 4.05131e-06 0.00018925
0.000813592 -2.97266e-05 2.46255e-06
-2.97266e-05 0.000226488 -3.72811e-06
2.46255e-06 -3.72811e-06 0.000222988
0.000511066 -1.47144e-05 7.87943e-07
-1.47144e-05 5.78215e-05 -4.07445e-06
7.87943e-07 -4.07445e-06 -7.03608e-06
0.000239427 3.10152e-05 -4.4117e-07
3.10152e-05 -0.000129194 -6.15194e-06
-4.4117e-07 -6.15194e-06 -0.00016099
0.000325093 3.72845e-05 1.63832e-06
3.72845e-05 -6.52327e-05 5.80268e-07
1.63832e-06 5.80268e-07 -0.00010675
0.00290217 0.000127655 -5.11379e-06
0.000127655 0.00162314 -7.46016e-06
-5.11379e-06 -7.46016e-06 0.00161662
0.000331564 1.8456e-05 -1.19074e-06
1.8456e-05 -6.41052e-05 9.83374e-06
-1.19074e-06 9.83374e-06 -0.000112675
0.00332843 0.000170291 -1.14996e-05
0.000170291 0.00191821 -1.48919e-06
-1.14996e-05 -1.48919e-06 0.00190029
0.00411551 0.00011081 -8.27934e-05
0.00011081 0.00241777 1.13053e-05
-8.27934e-05 1.13053e-05 0.00240841
0.00246095 0.000466702 1.99881e-06
0.000466702 -6.61437e-05 5.57033e-07
1.99881e-06 5.57033e-07 -1.60108e-05
0.00236745 0.000239254 4.02166e-07
0.000239254 -7.04271e-05 -1.97524e-07
4.02166e-07 -1.97524e-07 1.10419e-05
0.00224308 8.77524e-05 -1.98395e-07
8.77524e-05 -0.000103161 -1.15433e-07
-1.98395e-07 -1.15433e-07 -1.71564e-05
0.00218005 -1.5146e-05 -2.34679e-06
-1.5146e-05 -1.68685e-05 2.03972e-08
-2.34679e-06 2.03972e-08 1.85823e-05
0.00226467 -1.24459e-05 -4.53714e-07
-1.24459e-05 -9.17399e-05 9.5574e-08
-4.53714e-07 9.5574e-08 -7.36528e-06
0.00238213 0.000130397 9.82856e-07
0.000130397 -0.000135793 2.90961e-07
9.82856e-07 2.90961e-07 7.67181e-06
0.00253694 0.000356117 -6.54027e-07
0.000356117 -0.00011336 -3.05281e-07
-6.54027e-07 -3.05281e-07 4.56002e-06
0.00235181 -1.48206e-05 2.45115e-06
-1.48206e-05 -0.00017155 -4.77667e-07
2.45115e-06 -4.77667e-07 -1.28485e-05
0.00268798 0.000169272 -1.05091e-07
0.000169272 -0.000133278 1.93023e-06
-1.05091e-07 1.93023e-06 5.31955e-05
0.00238707 0.000159165 -2.23547e-06
0.000159165 -0.000376509 5.59648e-06
-2.23547e-06 5.59648e-06 -0.000180861
0.00229729 -0.00011596 -3.78073e-07
-0.00011596 -5.50302e-05 6.15056e-08
-3.78073e-07 6.15056e-08 1.53328e-05
0.00240006 -0.000330041 -2.3435e-06
-0.000330041 -0.00013726 2.82687e-07
-2.3435e-06 2.82687e-07 -2.31771e-05
0.00249351 -0.000548632 2.00013e-06
-0.000548632 -3.10982e-05 2.79484e-07
2.00013e-06 2.79484e-07 9.95141e-06
0.00210574 -0.00104586 -1.23127e-06
-0.00104586 0.000741236 -1.47061e-06
-1.23127e-06 -1.47061e-06 7.39689e-05
0.00211334 -0.00116284 3.85856e-05
-0.00116284 0.000552777 -5.48602e-06
3.85856e-05 -5.48602e-06 -0.000128049
0.00262479 -0.00104809 1.82546e-05
-0.00104809 0.000583735 -2.96785e-06
1.82546e-05 -2.96785e-06 8.44853e-05
0.00252733 -0.000774406 3.48242e-06
-0.000774406 2.67526e-05 -1.33371e-06
3.48242e-06 -1.33371e-06 -2.31091e-05
0.00245721 -0.00092848 5.29254e-06
-0.00092848 0.000267534 1.01022e-06
5.29254e-06 1.01022e-06 -1.28434e-05
0.0012281 -0.00078823 -4.87464e-06
-0.00078823 0.000370298 -2.37455e-05
-4.87464e-06 -2.37455e-05 -0.000236853
0.000657227 -0.000536368 1.10019e-05
-0.000536368 0.00018115 -2.02063e-05
1.10019e-05 -2.02063e-05 -0.000477735
0.00111842 -0.000232827 7.89904e-06
-0.000232827 0.000380629 1.34718e-06
7.89904e-06 1.34718e-06 -6.11841e-06
0.000492512 2.85293e-07 -8.44446e-07
2.85293e-07 8.06898e-05 3.38122e-06
-8.44446e-07 3.38122e-06 -2.5456e-05
-0.000258201 -1.32024e-05 5.39494e-06
-1.32024e-05 -0.000332443 -2.85948e-06
5.39494e-06 -2.85948e-06 -0.000602461
0.00146112 -0.00036896 -7.7003e-07
-0.00036896 0.000794688 -2.1278e-06
-7.7003e-07 -2.1278e-06 0.000399464
0.00237736 -0.000162009 2.17802e-07
-0.000162009 -0.00015474 -2.15541e-07
2.17802e-07 -2.15541e-07 -3.49289e-06
0.000420713 -1.17988e-05 1.65266e-06
-1.17988e-05 1.36612e-05 4.70673e-07
1.65266e-06 4.70673e-07 -6.77025e-05
0.00043443 -8.54429e-05 -3.76994e-06
-8.54429e-05 6.39647e-05 -1.0342e-06
-3.76994e-06 -1.0342e-06 -5.70833e-05
0.00257629 -0.000456675 -2.314e-07
-0.000456675 -0.00016171 4.64921e-08
-2.314e-07 4.64921e-08 3.93392e-06
0.00256095 -0.000696572 -1.72581e-06
-0.000696572 -5.47096e-05 1.20539e-07
-1.72581e-06 1.20539e-07 -7.60109e-06
0.00212565 -0.00110543 1.67283e-06
-0.00110543 0.0007819 3.02566e-06
1.67283e-06 3.02566e-06 0.000105505
0.00267944 -0.00135382 1.27846e-05
-0.00135382 0.000817073 -1.85048e-06
1.27846e-05 -1.85048e-06 7.94486e-05
0.00244146 -0.00111636 1.50646e-06
-0.00111636 0.000398325 -2.26265e-06
1.50646e-06 -2.26265e-06 -7.72533e-05
0.00262496 -0.000969323 2.298e-06
-0.000969323 0.000116794 -1.63385e-06
2.298e-06 -1.63385e-06 -2.81194e-05
0.000557155 -1.22953e-05 -2.48571e-06
-1.22953e-05 0.000198371 -1.47677e-06
-2.48571e-06 -1.47677e-06 -5.91175e-06
0.000806892 -0.000157216 -4.23774e-07
-0.000157216 0.000392473 2.21245e-06
-4.23774e-07 2.21245e-06 4.67677e-05
0.00126038 -0.000826576 9.13625e-06
-0.000826576 0.000390898 1.18625e-05
9.13625e-06 1.18625e-05 -0.00019029
0.00213959 -0.000787958 3.29945e-05
-0.000787958 0.00112717 -1.7565e-05
3.29945e-05 -1.7565e-05 0.000334166
0.000729793 -0.000322598 -3.29844e-06
-0.000322598 0.000374936 1.41214e-06
-3.29844e-06 1.41214e-06 -0.000200209
0.000439041 -0.00028509 6.46029e-06
-0.00028509 6.94216e-05 -6.92458e-06
6.46029e-06 -6.92458e-06 -0.000272562
0.00242871 -0.000184946 1.56487e-06
-0.000184946 -0.000366304 -2.01479e-07
1.56487e-06 -2.01479e-07 -0.000128692
0.00272148 -0.000607487 -2.33734e-06
-0.000607487 -0.000202588 1.65578e-06
-2.33734e-06 1.65578e-06 5.60282e-05
0.00301502 -0.00101873 -4.6172e-06
-0.00101873 0.000146748 2.92891e-06
-4.6172e-06 2.92891e-06 0.000104682
0.00277331 -0.00120342 3.50075e-06
-0.00120342 0.000332686 -3.98841e-06
3.50075e-06 -3.98841e-06 6.53465e-06
0.00151831 -0.00110024 -7.04629e-07
-0.00110024 0.000486956 -9.72815e-06
-7.04629e-07 -9.72815e-06 -0.000200706
0.00355787 -0.00158934 -7.40301e-06
-0.00158934 0.00115803 4.81463e-07
-7.40301e-06 4.81463e-07 0.000389053
0.000380892 5.87458e-05 -1.14335e-06
5.87458e-05 1.33904e-05 -9.41095e-06
-1.14335e-06 -9.41095e-06 -0.000105189
5.19165e-05 -4.97943e-05 7.76984e-06
-4.97943e-05 -0.000182369 -3.46797e-06
7.76984e-06 -3.46797e-06 -0.000304006
0.00149431 -0.000224345 -5.5421e-06
-0.000224345 0.00073481 9.45777e-06
-5.5421e-06 9.45777e-06 0.000566733
0.000530873 1.73402e-05 -2.87098e-06
1.73402e-05 0.000191057 1.13612e-05
-2.87098e-06 1.13612e-05 -7.41003e-05
0.00128279 -0.000284889 -1.0315e-05
-0.000284889 0.00068593 1.38544e-05
-1.0315e-05 1.38544e-05 0.000311071
-0.00171228 -0.000166711 -3.77685e-06
-0.000166711 -0.00131733 -3.14762e-05
-3.77685e-06 -3.14762e-05 -0.00161655
-6.24207e-05 -0.00032933 -2.33863e-05
-0.00032933 0.000279045 8.43986e-07
-2.33863e-05 8.43986e-07 -0.000712684
0.00120827 -0.0010997 -6.14029e-05
-0.0010997 0.000193533 2.8538e-05
-6.14029e-05 2.8538e-05 -0.000269025
-0.000206457 0.000300759 4.81835e-07
0.000300759 -0.000182642 -2.18619e-06
4.81835e-07 -2.18619e-06 -0.000543804
0.00352186 0.000640185 -1.37133e-05
0.000640185 0.00220277 -3.60018e-06
-1.37133e-05 -3.60018e-06 0.00174986
0.00259498 0.000608038 -2.78788e-06
0.000608038 -0.000293365 -5.50475e-07
-2.78788e-06 -5.50475e-07 -0.00012
0.0029564 0.000886784 -6.01174e-06
0.000886784 0.000337867 -5.2961e-07
-6.01174e-06 -5.2961e-07 0.000125494
0.00344326 0.000692307 -9.21017e-06
0.000692307 0.00156892 3.31664e-06
-9.21017e-06 3.31664e-06 0.00118838
0.001639 0.00091566 -1.31232e-05
0.00091566 0.000440811 1.39892e-07
-1.31232e-05 1.39892e-07 -0.000156989
0.00229594 0.000977677 -6.81123e-06
0.000977677 0.000326449 2.90143e-06
-6.81123e-06 2.90143e-06 -0.000132446
0.00275027 0.00127112 -1.05126e-05
0.00127112 0.000864939 -1.10304e-06
-1.05126e-05 -1.10304e-06 0.000177722
0.000156144 0.000234134 3.54556e-06
0.000234134 6.13153e-05 2.05067e-07
3.54556e-06 2.05067e-07 -0.000227849
0.00260672 0.000430428 -2.08005e-06
0.000430428 -0.000281056 -2.52786e-06
-2.08005e-06 -2.52786e-06 -8.26226e-05
0.00193932 0.000596363 3.72402e-06
0.000596363 0.00125112 8.09864e-06
3.72402e-06 8.09864e-06 0.000761363
0.00165111 0.000805779 4.28452e-06
0.000805779 0.000445934 1.68576e-06
4.28452e-06 1.68576e-06 -6.81131e-05
0.00291736 0.000826424 2.06727e-07
0.000826424 0.000130034 6.71084e-08
2.06727e-07 6.71084e-08 0.000171236
0.00215287 0.00103425 -2.60081e-06
0.00103425 9.0388e-05 -6.02108e-06
-2.60081e-06 -6.02108e-06 -0.000357246
0.00289122 0.00130397 -2.43677e-06
0.00130397 0.000923642 -5.9892e-07
-2.43677e-06 -5.9892e-07 0.000219815
0.00183154 0.000468284 -7.01607e-06
0.000468284 0.00122434 -3.84366e-06
-7.01607e-06 -3.84366e-06 0.000840594
0.00435962 0.000832685 -0.000117279
0.000832685 0.000644527 -4.17248e-05
-0.000117279 -4.17248e-05 0.000998644
0.00198716 0.000734333 -6.16637e-06
0.000734333 0.00114233 9.53444e-06
-6.16637e-06 9.53444e-06 0.000606806
0.00130339 0.000866701 -4.37615e-06
0.000866701 0.000232504 -1.03355e-05
-4.37615e-06 -1.03355e-05 -0.000362053
0.00349742 0.0011761 -4.48872e-05
0.0011761 0.000696956 -2.53148e-05
-4.48872e-05 -2.53148e-05 0.00041712
0.00113561 0.00104963 -3.04467e-05
0.00104963 -6.93813e-05 -3.37488e-06
-3.04467e-05 -3.37488e-06 -0.000680107
0.00144125 0.00168711 8.18107e-06
0.00168711 -0.00264196 -7.33913e-05
8.18107e-06 -7.33913e-05 -0.00127574
0.000502412 0.000211344 8.85572e-06
0.000211344 0.000229588 1.01228e-05
8.85572e-06 1.01228e-05 7.88617e-05
0.000185527 0.000144504 1.30163e-06
0.000144504 6.71013e-05 -6.11433e-07
1.30163e-06 -6.11433e-07 -6.34613e-05
-0.000301265 8.07022e-05 1.76398e-06
8.07022e-05 -0.000244996 -3.85084e-06
1.76398e-06 -3.85084e-06 -0.000365301
0.000364922 -6.78979e-05 2.58391e-06
-6.78979e-05 3.34793e-05 -3.29737e-06
2.58391e-06 -3.29737e-06 -0.000116332
-0.000199715 5.18872e-06 1.70333e-06
5.18872e-06 -0.000262508 -3.0956e-06
1.70333e-06 -3.0956e-06 -0.000470882
0.00179321 0.000324686 -8.87238e-08
0.000324686 0.00108514 -3.34728e-06
-8.87238e-08 -3.34728e-06 0.000809761
-0.00115712 4.86948e-05 -8.20083e-06
4.86948e-05 -0.00087519 1.93155e-05
-8.20083e-06 1.93155e-05 -0.000946371
0.000472442 -1.05355e-05 -2.69432e-07
-1.05355e-05 9.5399e-05 -3.51822e-07
-2.69432e-07 -3.51822e-07 -5.86632e-05
0.000380053 9.35995e-05 5.84502e-07
9.35995e-05 4.53835e-05 -4.30349e-07
5.84502e-07 -4.30349e-07 -0.000131623
8.43224e-05 0.00012116 4.06348e-06
0.00012116 -0.000106853 3.21276e-06
4.06348e-06 3.21276e-06 -0.000155281
0.000183335 9.85619e-05 1.06981e-06
9.85619e-05 1.08496e-05 2.54262e-08
1.06981e-06 2.54262e-08 -0.000228375
0.000407936 0.000100827 7.33624e-07
0.000100827 9.06147e-05 -1.78569e-06
7.33624e-07 -1.78569e-06 -3.91613e-05
9.85342e-07 0.000101619 5.01947e-06
0.000101619 -8.74717e-05 -1.25047e-05
5.01947e-06 -1.25047e-05 -0.000179753
0.000741014 0.000173179 -5.76655e-06
0.000173179 0.000326193 -1.66621e-06
-5.76655e-06 -1.66621e-06 0.000132408
0.00105267 0.000151973 -9.66369e-07
0.000151973 0.000541334 2.99411e-06
-9.66369e-07 2.99411e-06 0.000309767
0.000611971 0.000123609 -4.3795e-06
0.000123609 0.000202644 -1.55138e-06
-4.3795e-06 -1.55138e-06 1.12593e-05
0.000174319 -1.41121e-05 -1.55218e-06
-1.41121e-05 -0.000127636 7.21746e-07
-1.55218e-06 7.21746e-07 -0.000269658
0.00126399 -0.000139065 2.60718e-06
-0.000139065 0.000717931 -3.37938e-06
2.60718e-06 -3.37938e-06 0.00046632
9.54383e-05 -5.60656e-05 -8.40276e-07
-5.60656e-05 -0.000164849 3.81508e-06
-8.40276e-07 3.81508e-06 -0.000313321
0.000373443 6.57186e-06 -1.88295e-06
6.57186e-06 4.54106e-06 3.52693e-06
-1.88295e-06 3.52693e-06 -9.66175e-05
0.000408178 4.82086e-05 2.3121e-06
4.82086e-05 2.39154e-05 -8.90473e-08
2.3121e-06 -8.90473e-08 -7.5455e-05
0.000310306 2.04863e-05 -2.28967e-06
2.04863e-05 -6.86562e-05 5.29862e-06
-2.28967e-06 5.29862e-06 -9.99903e-05
0.000321526 -2.14869e-06 -8.28443e-07
-2.14869e-06 -3.21057e-05 -4.17169e-06
-8.28443e-07 -4.17169e-06 -0.00013109
0.000841116 1.79758e-05 -4.67633e-06
1.79758e-05 0.000272442 -1.52885e-06
-4.67633e-06 -1.52885e-06 0.000243909
0.00267349 6.22934e-06 3.11444e-05
6.22934e-06 0.00145006 6.31098e-06
3.11444e-05 6.31098e-06 0.00146198
0.00140426 5.74784e-05 -1.89889e-05
5.74784e-05 0.000637854 -8.40972e-06
-1.89889e-05 -8.40972e-06 0.000609184
0.000763924 -4.22136e-06 1.3759e-05
-4.22136e-06 0.000202477 3.96659e-06
1.3759e-05 3.96659e-06 0.000203619
0.000833977 -1.86491e-05 1.96957e-06
-1.86491e-05 0.000240832 -3.52142e-06
1.96957e-06 -3.52142e-06 0.000239897
0.000375557 1.02945e-05 -1.3035e-06
1.02945e-05 -1.69198e-05 -5.31412e-06
-1.3035e-06 -5.31412e-06 -8.11443e-05
0.000510325 -4.02742e-05 5.75016e-07
-4.02742e-05 6.89473e-05 -1.90077e-07
5.75016e-07 -1.90077e-07 -2.82342e-06
0.000362939 2.6565e-05 -2.60231e-08
2.6565e-05 -5.79205e-05 -5.05121e-06
-2.60231e-08 -5.05121e-06 -8.09343e-05
0.000814667 4.76145e-05 -2.98525e-08
4.76145e-05 0.000247096 1.92336e-07
-2.98525e-08 1.92336e-07 0.00021599
0.00259221 9.47646e-05 -1.35236e-06
9.47646e-05 0.0014104 -6.22822e-06
-1.35236e-06 -6.22822e-06 0.00141204
0.000446267 5.10124e-05 3.49237e-06
5.10124e-05 2.02585e-05 7.76377e-06
3.49237e-06 7.76377e-06 -2.49826e-05
0.00287272 0.000132115 -3.6167e-06
0.000132115 0.00160664 -3.43292e-07
-3.6167e-06 -3.43292e-07 0.001599
0.00346125 0.000140488 -9.9766e-06
0.000140488 0.00199209 7.70255e-06
-9.9766e-06 7.70255e-06 0.0019799
0.00244568 0.000368527 9.28971e-07
0.000368527 -0.000155776 -1.72599e-07
9.28971e-07 -1.72599e-07 -3.72981e-05
0.0023599 0.000127517 -2.52965e-07
0.000127517 -0.000147109 -1.17036e-06
-2.52965e-07 -1.17036e-06 -3.74649e-06
0.00226197 -8.46058e-06 -5.08821e-07
-8.46058e-06 -9.87519e-05 1.03518e-07
-5.08821e-07 1.03518e-07 -1.05652e-05
0.00234881 -5.51588e-06 -2.73679e-08
-5.51588e-06 -0.000173544 6.23356e-08
-2.73679e-08 6.23356e-08 -1.34317e-05
0.00264863 0.000181447 1.80073e-06
0.000181447 -0.000136374 -4.248e-07
1.80073e-06 -4.248e-07 4.67232e-05
0.0025408 0.00013815 2.99519e-06
0.00013815 -0.00028911 -1.28209e-06
2.99519e-06 -1.28209e-06 -9.94659e-05
0.00278392 3.37141e-05 1.11784e-06
3.37141e-05 -0.000183439 5.16023e-06
1.11784e-06 5.16023e-06 6.40175e-05
0.00588833 0.00177963 6.40449e-05
0.00177963 -0.00125737 2.06983e-05
6.40449e-05 2.06983e-05 0.000461069
0.00278132 0.000150092 -5.27623e-05
0.000150092 -8.33769e-05 1.90579e-05
-5.27623e-05 1.90579e-05 0.000281765
0.000438939 0.000122006 -3.41755e-06
0.000122006 6.85757e-05 -4.9793e-06
-3.41755e-06 -4.9793e-06 -4.96523e-05
0.00237894 -0.000163857 -9.17925e-07
-0.000163857 -0.000164209 9.64747e-07
-9.17925e-07 9.64747e-07 -7.95714e-06
0.00252346 -0.000444975 -5.75521e-07
-0.000444975 -0.000175613 1.49484e-06
-5.75521e-07 1.49484e-06 -2.29034e-05
0.00255921 -0.000681451 2.64011e-06
-0.000681451 -4.1307e-05 -1.46398e-06
2.64011e-06 -1.46398e-06 1.41661e-05
0.00184768 -0.00109605 -8.33639e-06
-0.00109605 0.000617194 8.72618e-06
-8.33639e-06 8.72618e-06 -5.86716e-05
0.0028658 -0.00135368 4.0288e-05
-0.00135368 0.000937898 3.34164e-06
4.0288e-05 3.34164e-06 0.000210672
0.00236179 -0.00109564 -4.81113e-06
-0.00109564 0.000353976 1.05147e-06
-4.81113e-06 1.05147e-06 -0.000106883
0.00260909 -0.000976689 4.18246e-06
-0.000976689 0.000103008 -9.85533e-07
4.18246e-06 -9.85533e-07 -4.11131e-05
0.00172967 -0.000851224 3.11845e-05
-0.000851224 0.000580513 -5.41479e-05
3.11845e-05 -5.41479e-05 5.57191e-05
0.00158791 -0.000738513 2.71232e-05
-0.000738513 0.000764889 -4.89969e-05
2.71232e-05 -4.89969e-05 2.88445e-05
-0.000202834 -0.000217499 2.3442e-05
-0.000217499 -0.000258432 2.09781e-06
2.3442e-05 2.09781e-06 -0.000806968
0.000512469 8.70292e-06 2.1833e-06
8.70292e-06 7.93639e-05 4.27945e-06
2.1833e-06 4.27945e-06 -5.92195e-06
0.00073307 -0.000386059 -5.95425e-06
-0.000386059 0.000279986 1.6138e-05
-5.95425e-06 1.6138e-05 -9.81083e-05
0.00115934 -8.61719e-05 5.25978e-06
-8.61719e-05 0.000621011 -1.47695e-06
5.25978e-06 -1.47695e-06 0.000396299
0.000670084 -0.000163901 3.52449e-06
-0.000163901 0.00028918 -8.95785e-06
3.52449e-06 -8.95785e-06 -4.83717e-05
-7.55107e-05 -3.50382e-05 -7.26106e-06
-3.50382e-05 -0.00027546 6.33331e-06
-7.26106e-06 6.33331e-06 -0.000388876
0.00255223 -0.000210919 -1.4722e-06
-0.000210919 -0.000298229 -1.56403e-06
-1.4722e-06 -1.56403e-06 -5.01559e-05
0.000372309 5.32456e-05 9.715e-07
5.32456e-05 2.32587e-05 -2.44442e-06
9.715e-07 -2.44442e-06 -0.00010194
0.000598529 -9.87111e-05 3.11104e-06
-9.87111e-05 0.000218882 2.22684e-06
3.11104e-06 2.22684e-06 6.19479e-05
0.000897301 -0.000116947 9.15894e-06
-0.000116947 0.000340574 6.67966e-07
9.15894e-06 6.67966e-07 0.000196605
0.00261755 -0.000617345 2.27191e-06
-0.000617345 -0.000274166 -6.96959e-07
2.27191e-06 -6.96959e-07 -3.59918e-05
0.00286996 -0.000991105 -5.63377e-07
-0.000991105 7.87188e-05 -6.98522e-07
-5.63377e-07 -6.98522e-07 4.84134e-05
0.000834222 -0.00090411 7.86349e-06
-0.00090411 6.34013e-05 -1.05487e-06
7.86349e-06 -1.05487e-06 -0.000510788
0.00304528 -0.00150735 1.58407e-05
-0.00150735 0.000876685 7.31041e-07
1.58407e-05 7.31041e-07 0.000135375
0.00272226 -0.00120803 -2.72151e-08
-0.00120803 0.000313116 8.90666e-07
-2.72151e-08 8.90666e-07 -2.62039e-05
0.000326377 -4.39693e-05 -1.13226e-06
-4.39693e-05 4.75513e-05 -1.99592e-06
-1.13226e-06 -1.99592e-06 -0.000204309
0.0017632 -0.000342096 4.6478e-06
-0.000342096 0.00100829 1.33501e-06
4.6478e-06 1.33501e-06 0.000613473
0.00210905 -0.00123486 -1.88798e-06
-0.00123486 0.000743028 5.46037e-06
-1.88798e-06 5.46037e-06 0.000106704
0.00208792 -0.000498296 -3.68705e-07
-0.000498296 0.00124324 1.00622e-05
-3.68705e-07 1.00622e-05 0.000495624
0.00125525 -0.000304397 9.1869e-06
-0.000304397 0.000589798 1.01554e-05
9.1869e-06 1.01554e-05 0.00024279
0.00291011 -0.00042533 -1.6632e-05
-0.00042533 -0.000171496 4.66171e-06
-1.6632e-05 4.66171e-06 0.000130978
0.0024515 -0.000716832 -2.18801e-05
-0.000716832 -0.000365402 8.95829e-06
-2.18801e-05 8.95829e-06 -3.71143e-05
0.00288374 -0.00119841 -1.33216e-05
-0.00119841 0.000246087 -3.06296e-06
-1.33216e-05 -3.06296e-06 4.5523e-07
0.00478396 -0.0016646 -1.09108e-06
-0.0016646 0.00172147 1.6777e-06
-1.09108e-06 1.6777e-06 0.00112007
0.000474561 -0.00105581 -1.85265e-05
-0.00105581 -0.000257396 1.27095e-05
-1.85265e-05 1.27095e-05 -0.000843802
0.00012445 -3.51998e-05 1.45817e-06
-3.51998e-05 -0.000149873 -3.18749e-06
1.45817e-06 -3.18749e-06 -0.000275276
-4.32176e-05 -1.74502e-05 -3.07328e-06
-1.74502e-05 -0.000309781 1.09933e-05
-3.07328e-06 1.09933e-05 -0.00047485
0.000282763 -0.00016821 -9.82996e-06
-0.00016821 2.08612e-05 -5.25387e-06
-9.82996e-06 -5.25387e-06 -0.000173797
0.00220577 -0.000396929 -4.83405e-05
-0.000396929 0.001249 4.20484e-05
-4.83405e-05 4.20484e-05 0.000899237
0.000832507 -0.000209633 -1.25983e-06
-0.000209633 0.000370427 2.08755e-05
-1.25983e-06 2.08755e-05 4.62953e-05
-0.00118263 -6.21035e-05 5.86744e-07
-6.21035e-05 -0.000473122 1.82525e-06
5.86744e-07 1.82525e-06 -0.00118443
0.00173877 -0.00132649 -4.7485e-06
-0.00132649 0.000840907 -1.4359e-05
-4.7485e-06 -1.4359e-05 2.17373e-05
0.00253004 0.000559066 6.18234e-06
0.000559066 0.00156753 -2.19193e-06
6.18234e-06 -2.19193e-06 0.00122101
-0.000769619 0.000233444 -3.24218e-06
0.000233444 -0.000403808 5.9521e-07
-3.24218e-06 5.9521e-07 -0.00079927
0.00256333 0.000412478 1.52464e-05
0.000412478 -0.000317174 3.93721e-06
1.52464e-05 3.93721e-06 -9.5064e-05
0.00306098 0.000801253 1.74559e-05
0.000801253 0.000253983 1.0342e-05
1.74559e-05 1.0342e-05 0.000292793
0.00275619 0.00111836 4.42141e-06
0.00111836 0.00044548 4.13277e-06
4.42141e-06 4.13277e-06 -1.57352e-05
0.0014726 0.000761659 -4.8961e-06
0.000761659 0.000402523 2.2209e-06
-4.8961e-06 2.2209e-06 -0.000105068
0.0024966 0.00122459 2.46634e-06
0.00122459 0.000714339 5.18899e-06
2.46634e-06 5.18899e-06 3.54742e-05
0.00250322 0.000496709 -5.43329e-07
0.000496709 0.00161264 1.33522e-06
-5.43329e-07 1.33522e-06 0.00126946
0.00314575 0.000655693 1.37344e-05
0.000655693 -3.43938e-05 6.77929e-06
1.37344e-05 6.77929e-06 0.00040067
0.0014006 0.000597294 -7.09837e-06
0.000597294 0.000726143 4.13023e-06
-7.09837e-06 4.13023e-06 0.000268048
0.00194121 0.00097372 2.80177e-06
0.00097372 0.000639048 -1.99878e-06
2.80177e-06 -1.99878e-06 1.07586e-06
0.00301862 0.00110456 -2.18627e-06
0.00110456 0.000469295 -3.84582e-06
-2.18627e-06 -3.84582e-06 0.000234336
0.00233751 0.00122866 -6.23657e-06
0.00122866 0.000590833 8.04287e-06
-6.23657e-06 8.04287e-06 -6.69678e-05
0.00314076 0.00207126 6.01978e-05
0.00207126 -0.00205031 1.1781e-05
6.01978e-05 1.1781e-05 -0.000859737
0.000585843 0.000374832 2.50872e-06
0.000374832 0.000531102 -2.60058e-07
2.50872e-06 -2.60058e-07 9.91677e-05
0.00460875 0.00137134 -0.000128694
0.00137134 0.000844063 -5.78327e-05
-0.000128694 -5.78327e-05 0.000903727
-1.55019e-05 0.00054582 -2.06122e-05
0.00054582 -0.000386312 6.07852e-06
-2.06122e-05 6.07852e-06 -0.000845698
0.000551208 0.000883798 -5.09575e-06
0.000883798 -0.000207977 -2.13417e-05
-5.09575e-06 -2.13417e-05 -0.000801994
0.00226422 0.00135786 -5.05343e-05
0.00135786 0.000271936 -2.5299e-05
-5.05343e-05 -2.5299e-05 -0.000187041
0.0157803 0.00102531 -0.00085687
0.00102531 0.000450768 -9.8413e-05
-0.00085687 -9.8413e-05 0.00131761
0.00260341 0.0031044 -0.000141642
0.0031044 -0.00470578 -0.000135687
-0.000141642 -0.000135687 -0.000957712
0.00073049 0.0024077 2.95663e-05
0.0024077 -0.00138026 -8.6992e-06
2.95663e-05 -8.6992e-06 -0.001386
0.00483375 -0.00552874 0.00324706
-0.00552874 0.00337765 0.000112548
0.00324706 0.000112548 -0.00340285
0.0331398 -0.0160866 -0.000129227
-0.0160866 0.020051 1.9413e-05
-0.000129227 1.9413e-05 0.00864654
0.00147851 0.000247387 7.32409e-06
0.000247387 0.000887799 9.46918e-06
7.32409e-06 9.46918e-06 0.000732858
0.000610432 0.000133067 -9.04215e-07
0.000133067 0.000373898 1.93167e-06
-9.04215e-07 1.93167e-06 0.000223831
-0.000149694 0.000156351 1.33919e-05
0.000156351 -7.33175e-05 -6.11797e-07
1.33919e-05 -6.11797e-07 -0.000251432
0.000529212 -6.14758e-05 8.63559e-07
-6.14758e-05 0.000143547 -1.69141e-06
8.63559e-07 -1.69141e-06 -1.83675e-05
0.000553025 7.16681e-05 3.4124e-06
7.16681e-05 0.000176628 -3.86594e-06
3.4124e-06 -3.86594e-06 -5.41815e-06
0.000505908 -1.42394e-05 1.22554e-06
-1.42394e-05 0.000207077 -3.66275e-06
1.22554e-06 -3.66275e-06 -2.60093e-05
0.00104626 0.000132191 6.03717e-06
0.000132191 0.000480622 1.05812e-05
6.03717e-06 1.05812e-05 0.000342697
0.000320914 0.00012018 4.44935e-06
0.00012018 5.71818e-05 1.09436e-05
4.44935e-06 1.09436e-05 1.77855e-05
0.000762885 0.000170703 -2.42272e-06
0.000170703 0.000404489 6.67722e-07
-2.42272e-06 6.67722e-07 0.000147594
0.000383932 -1.49323e-05 3.90199e-07
-1.49323e-05 1.94391e-05 8.5825e-07
3.90199e-07 8.5825e-07 -0.000131342
0.000726422 6.5583e-05 -1.1308e-06
6.5583e-05 0.000287915 3.2505e-07
-1.1308e-06 3.2505e-07 9.28674e-05
0.000396469 0.000121984 -3.39547e-06
0.000121984 0.000130896 -5.32358e-06
-3.39547e-06 -5.32358e-06 4.46913e-05
0.000489828 0.000127819 3.84728e-07
0.000127819 0.000172082 1.11058e-06
3.84728e-07 1.11058e-06 -1.21935e-05
0.00163787 0.000226269 -1.32337e-06
0.000226269 0.000958601 2.99366e-06
-1.32337e-06 2.99366e-06 0.000706558
-0.000118688 6.65855e-05 6.66925e-07
6.65855e-05 -8.57723e-05 -6.93548e-06
6.66925e-07 -6.93548e-06 -0.000283772
0.000897442 0.000107079 1.93239e-06
0.000107079 0.000460604 -1.50802e-06
1.93239e-06 -1.50802e-06 0.000233101
0.000121066 2.88017e-05 -1.17967e-06
2.88017e-05 -0.000144691 -2.73873e-06
-1.17967e-06 -2.73873e-06 -0.000320414
0.000247738 -6.88907e-05 -1.49444e-08
-6.88907e-05 -6.63078e-05 8.66994e-07
-1.49444e-08 8.66994e-07 -0.00021824
0.000264356 -2.84635e-05 1.25053e-07
-2.84635e-05 -2.55961e-05 -4.09072e-06
1.25053e-07 -4.09072e-06 -0.000197886
0.000929499 -7.38871e-05 3.37658e-06
-7.38871e-05 0.000424941 -5.33887e-06
3.37658e-06 -5.33887e-06 0.000250851
0.000887011 -7.6395e-05 -9.89251e-07
-7.6395e-05 0.000458119 1.44246e-07
-9.89251e-07 1.44246e-07 0.000245497
0.000790026 -0.00011844 1.9681e-06
-0.00011844 0.0003608 -2.20853e-07
1.9681e-06 -2.20853e-07 0.000151118
0.000445572 -0.0001294 -1.80335e-06
-0.0001294 8.69802e-05 2.51924e-06
-1.80335e-06 2.51924e-06 -7.26854e-05
0.000123185 -3.30012e-05 -1.95601e-07
-3.30012e-05 -0.000137403 1.35787e-06
-1.95601e-07 1.35787e-06 -0.000293171
0.000424634 -7.3439e-05 -1.12891e-06
-7.3439e-05 2.74617e-05 4.21264e-06
-1.12891e-06 4.21264e-06 -6.74278e-05
0.000436645 -4.68305e-05 2.24139e-06
-4.68305e-05 4.36391e-05 1.20856e-07
2.24139e-06 1.20856e-07 -5.61492e-05
0.000331616 5.91098e-06 5.06154e-06
5.91098e-06 -5.09827e-05 7.35769e-06
5.06154e-06 7.35769e-06 -8.35108e-05
0.000457294 6.96512e-05 -1.72963e-06
6.96512e-05 4.63851e-05 -3.85208e-06
-1.72963e-06 -3.85208e-06 -4.69439e-05
0.000339197 2.95157e-05 5.81002e-07
2.95157e-05 -4.98175e-05 1.51069e-07
5.81002e-07 1.51069e-07 -8.10706e-05
0.00260998 1.37084e-05 1.73352e-05
1.37084e-05 0.00141017 5.91613e-06
1.73352e-05 5.91613e-06 0.00142123
0.000361427 6.89647e-05 -5.72491e-06
6.89647e-05 -3.24978e-05 -8.6006e-06
-5.72491e-06 -8.6006e-06 -6.85741e-05
0.00167872 3.39736e-07 -1.05729e-05
3.39736e-07 0.000801092 8.22222e-08
-1.05729e-05 8.22222e-08 0.00080703
0.00079503 -8.25626e-06 1.34427e-06
-8.25626e-06 0.000217153 -2.52623e-06
1.34427e-06 -2.52623e-06 0.000217919
0.000376062 2.20196e-05 -5.06332e-07
2.20196e-05 -2.97007e-05 -3.97228e-06
-5.06332e-07 -3.97228e-06 -8.04587e-05
0.000449192 -4.04824e-05 1.44778e-06
-4.04824e-05 3.02147e-05 4.14784e-08
1.44778e-06 4.14784e-08 -3.47453e-05
0.000450456 4.05871e-06 2.25909e-06
4.05871e-06 -7.99562e-06 -4.6074e-06
2.25909e-06 -4.6074e-06 -2.39308e-05
0.00048018 -5.90969e-05 -1.51882e-06
-5.90969e-05 5.40732e-05 2.45958e-06
-1.51882e-06 2.45958e-06 -2.02114e-05
0.000790415 3.07073e-05 5.53808e-07
3.07073e-05 0.000221318 -8.17844e-07
5.53808e-07 -8.17844e-07 0.000200394
0.00224882 6.66222e-05 -6.21213e-07
6.66222e-05 0.00117742 -5.57087e-06
-6.21213e-07 -5.57087e-06 0.00118624
0.000408135 2.98863e-05 -6.51865e-07
2.98863e-05 -2.13365e-05 6.19577e-06
-6.51865e-07 6.19577e-06 -5.47584e-05
0.00277855 0.000107955 -1.89225e-08
0.000107955 0.00153865 1.89536e-06
-1.89225e-08 1.89536e-06 0.00153711
0.00308905 0.000143891 2.43876e-05
0.000143891 0.00175266 1.02261e-05
2.43876e-05 1.02261e-05 0.00174247
0.00260221 0.000195318 -1.13562e-06
0.000195318 -0.000143867 -3.03868e-06
-1.13562e-06 -3.03868e-06 3.55975e-05
0.00232148 2.05462e-07 -2.15386e-06
2.05462e-07 -0.000190419 -1.84502e-08
-2.15386e-06 -1.84502e-08 -2.86919e-05
0.00282245 0.000111117 1.14851e-05
0.000111117 -9.69926e-05 -2.97654e-07
1.14851e-05 -2.97654e-07 7.47709e-05
0.00287956 0.00136023 0.000145698
0.00136023 -0.0027795 4.73546e-05
0.000145698 4.73546e-05 -0.00100879
0.0027263 -2.9277e-06 -4.34785e-06
-2.9277e-06 -0.000207008 -1.53301e-06
-4.34785e-06 -1.53301e-06 3.78995e-05
0.00288997 0.000122198 -1.41168e-06
0.000122198 1.34719e-05 -2.31515e-06
-1.41168e-06 -2.31515e-06 0.000325887
0.00290898 -6.78745e-05 -4.55717e-05
-6.78745e-05 9.71634e-05 -1.0769e-05
-4.55717e-05 -1.0769e-05 0.000328898
0.00331366 0.00106306 -0.000169157
0.00106306 -0.00296863 -1.70825e-05
-0.000169157 -1.70825e-05 -0.000704956
0.00311564 0.000401242 0.000146393
0.000401242 -0.00151635 8.42609e-05
0.000146393 8.42609e-05 -0.000498023
0.000491384 9.22069e-05 8.0252e-07
9.22069e-05 0.000103139 -4.10813e-06
8.0252e-07 -4.10813e-06 -1.43307e-05
0.000569834 -1.82167e-05 -8.18372e-07
-1.82167e-05 0.000162 -3.4866e-07
-8.18372e-07 -3.4866e-07 3.42252e-05
0.000320763 -0.000114611 -4.82014e-06
-0.000114611 -5.34208e-06 -3.35064e-07
-4.82014e-06 -3.35064e-07 -0.000135403
0.000384255 -7.55529e-05 -2.41803e-06
-7.55529e-05 6.54994e-05 -6.70338e-07
-2.41803e-06 -6.70338e-07 -7.96378e-05
0.00266839 -0.000233043 -1.84475e-06
-0.000233043 -0.00022985 2.61453e-06
-1.84475e-06 2.61453e-06 2.55162e-05
0.00265496 -0.000627375 1.59931e-06
-0.000627375 -0.000228989 1.83334e-07
1.59931e-06 1.83334e-07 -2.81533e-05
0.00271591 -0.000964989 1.04486e-06
-0.000964989 4.26378e-06 -2.21154e-06
1.04486e-06 -2.21154e-06 -1.65371e-05
0.00392707 -0.00132011 2.81389e-05
-0.00132011 0.00181888 2.80807e-06
2.81389e-05 2.80807e-06 0.00114793
0.00216135 -0.00143856 -7.15037e-06
-0.00143856 0.000334492 4.84344e-06
-7.15037e-06 4.84344e-06 -0.000383606
0.00260154 -0.001204 2.42389e-06
-0.001204 0.000254871 -2.32877e-06
2.42389e-06 -2.32877e-06 -9.08211e-05
-0.000482027 -0.000881115 3.10122e-06
-0.000881115 -0.000652615 -1.40298e-05
3.10122e-06 -1.40298e-05 -0.00136415
0.00284804 -0.000569899 2.32507e-05
-0.000569899 0.00150013 -1.18149e-05
2.32507e-05 -1.18149e-05 0.000908899
0.000936166 -0.000310606 4.36575e-06
-0.000310606 0.000399162 1.42111e-05
4.36575e-06 1.42111e-05 4.87432e-05
0.00088239 -0.000102311 2.81654e-06
-0.000102311 0.000398458 2.42312e-06
2.81654e-06 2.42312e-06 0.000236921
-2.91179e-05 -0.000120797 -1.04487e-05
-0.000120797 -0.000103524 -1.07341e-05
-1.04487e-05 -1.07341e-05 -0.000503587
0.00079426 -4.68507e-05 6.54243e-08
-4.68507e-05 0.00034753 -6.7617e-06
6.54243e-08 -6.7617e-06 9.51395e-05
0.000510696 -1.40804e-05 -3.81413e-07
-1.40804e-05 0.000130773 6.11824e-06
-3.81413e-07 6.11824e-06 -4.88864e-06
0.000698086 -8.48294e-05 -9.55421e-06
-8.48294e-05 0.000211414 1.25883e-05
-9.55421e-06 1.25883e-05 7.78407e-05
0.00279717 -0.000404864 3.37589e-06
-0.000404864 -0.000247032 1.58526e-06
3.37589e-06 1.58526e-06 8.51851e-05
0.000344706 -5.18488e-05 1.14723e-07
-5.18488e-05 1.63843e-05 3.60292e-06
1.14723e-07 3.60292e-06 -0.000123845
0.000604874 -9.45598e-05 5.49499e-06
-9.45598e-05 0.000136998 -4.14107e-06
5.49499e-06 -4.14107e-06 -4.83416e-05
-0.000642505 -7.22514e-05 1.29235e-05
-7.22514e-05 -0.000514738 -2.94334e-06
1.29235e-05 -2.94334e-06 -0.000656313
0.00250039 -0.000752011 9.09226e-07
-0.000752011 -0.000339866 -8.27514e-07
9.09226e-07 -8.27514e-07 -5.83652e-05
0.00281484 -0.0011914 2.12186e-06
-0.0011914 0.000202016 -1.55552e-06
2.12186e-06 -1.55552e-06 -4.12678e-05
0.00207156 -0.0013824 -1.64835e-05
-0.0013824 0.000606013 2.24583e-06
-1.64835e-05 2.24583e-06 -5.94307e-05
0.00353001 -0.00154801 -5.20169e-06
-0.00154801 0.00099556 -3.05734e-07
-5.20169e-06 -3.05734e-07 0.000425386
0.00215438 -0.000277218 1.73015e-05
-0.000277218 0.0012567 -8.1654e-06
1.73015e-05 -8.1654e-06 0.000887437
-0.00115833 -9.42869e-05 9.21167e-06
-9.42869e-05 -0.0008536 4.43551e-06
9.21167e-06 4.43551e-06 -0.00122394
0.000812 -0.00128955 3.15128e-07
-0.00128955 0.000462963 -8.41215e-07
3.15128e-07 -8.41215e-07 -0.000447299
0.00185247 -0.000530139 -1.10114e-05
-0.000530139 0.00103555 -2.49561e-06
-1.10114e-05 -2.49561e-06 0.000448757
0.00404594 -0.000618327 -6.93215e-05
-0.000618327 0.000541958 2.10449e-05
-6.93215e-05 2.10449e-05 0.000890749
0.00278853 -0.00100406 -4.5016e-05
-0.00100406 2.49282e-05 1.74295e-05
-4.5016e-05 1.74295e-05 0.000127538
0.00305823 -0.00134619 -6.03123e-06
-0.00134619 0.000696626 -1.7975e-05
-6.03123e-06 -1.7975e-05 0.00019256
0.00289505 -0.00156863 8.51176e-06
-0.00156863 0.000849742 2.93161e-05
8.51176e-06 2.93161e-05 0.000327054
0.000262235 -0.000219169 -4.17839e-06
-0.000219169 0.000163763 -1.8767e-05
-4.17839e-06 -1.8767e-05 -7.10521e-05
0.00097153 -0.000344296 -1.81774e-05
-0.000344296 0.000453637 3.55986e-06
-1.81774e-05 3.55986e-06 9.98375e-05
0.000780758 -0.000348565 -1.95189e-05
-0.000348565 0.000588921 7.98573e-05
-1.95189e-05 7.98573e-05 0.000164976
-0.000581723 -0.000950945 1.41215e-05
-0.000950945 0.000322209 -4.1803e-05
1.41215e-05 -4.1803e-05 -0.000782483
0.00618076 -0.000541508 5.12242e-05
-0.000541508 -0.00665846 2.19932e-05
5.12242e-05 2.19932e-05 -0.00713516
0.00283859 0.000425944 1.4677e-05
0.000425944 0.00182854 -5.63043e-06
1.4677e-05 -5.63043e-06 0.00149149
0.000125844 0.000414392 -1.60187e-06
0.000414392 -6.13464e-05 -1.84938e-06
-1.60187e-06 -1.84938e-06 -0.000471387
0.0017769 0.000507419 7.03992e-05
0.000507419 -0.000855671 2.65474e-05
7.03992e-05 2.65474e-05 -0.000321208
0.00240435 0.00101851 2.68209e-05
0.00101851 0.000168526 1.38784e-05
2.68209e-05 1.38784e-05 -1.60397e-05
0.00304528 0.00133165 1.24335e-05
0.00133165 0.000983585 1.50838e-05
1.24335e-05 1.50838e-05 0.000296746
0.00238756 0.00105311 1.57888e-05
0.00105311 0.000923387 1.3412e-05
1.57888e-05 1.3412e-05 0.000249234
0.00464557 0.00248377 0.000108044
0.00248377 -0.00164179 5.22721e-05
0.000108044 5.22721e-05 -0.000662329
0.000891732 0.000359193 2.88988e-06
0.000359193 0.000675492 -5.99817e-06
2.88988e-06 -5.99817e-06 0.000291896
0.00308415 0.00117831 -5.46145e-06
0.00117831 -2.08201e-05 4.34085e-06
-5.46145e-06 4.34085e-06 0.000168056
0.00103396 0.00069694 -9.02027e-06
0.00069694 0.000283394 8.18785e-06
-9.02027e-06 8.18785e-06 -0.000227413
0.00196831 0.00111251 1.67768e-06
0.00111251 0.000595786 -9.91071e-06
1.67768e-06 -9.91071e-06 -5.40823e-05
0.00314542 0.00141221 -1.50887e-05
0.00141221 0.000785575 -9.63879e-07
-1.50887e-05 -9.63879e-07 0.00029043
0.00504718 -3.02407e-05 -0.000239715
-3.02407e-05 -0.00755575 -0.000172536
-0.000239715 -0.000172536 -0.00733295
0.00671271 0.00343419 -0.000206632
0.00343419 -0.00204986 -9.52015e-05
-0.000206632 -9.52015e-05 0.000860242
0.00136831 0.00236224 -1.6139e-05
0.00236224 -0.000983234 -3.08554e-06
-1.6139e-05 -3.08554e-06 -0.00108014
0.00946956 -0.00427662 0.00093334
-0.00427662 0.0061576 0.00026174
0.00093334 0.00026174 0.00115277
0.0292512 -0.0181758 -0.000563349
-0.0181758 0.0189019 -0.000563654
-0.000563349 -0.000563654 0.00696831
-0.000337997 0.000284004 -1.30004e-06
0.000284004 -0.000290905 -2.55742e-06
-1.30004e-06 -2.55742e-06 -0.000605486
0.00217544 -0.000674306 0.00179856
-0.000674306 0.00454869 4.31238e-05
0.00179856 4.31238e-05 0.00185925
0.00997361 -0.00852367 7.20914e-05
-0.00852367 0.0120146 -0.000213749
7.20914e-05 -0.000213749 0.000764529
0.00344128 0.00196044 -8.34288e-05
0.00196044 0.000463947 -3.05323e-05
-8.34288e-05 -3.05323e-05 6.48562e-05
0.00104071 0.000718408 -3.53291e-05
0.000718408 0.00020215 -6.69698e-06
-3.53291e-05 -6.69698e-06 -0.000273703
0.00186626 0.00117028 -5.62639e-05
0.00117028 0.000532214 -4.42672e-05
-5.62639e-05 -4.42672e-05 -6.04111e-05
-6.13198e-05 0.00222867 0.00016033
0.00222867 -0.0011422 0.000133396
0.00016033 0.000133396 -0.00137469
0.0158178 0.00505189 0.000233031
0.00505189 -0.0008748 -3.06654e-06
0.000233031 -3.06654e-06 0.001133
0.00693626 0.00523755 -0.000133954
0.00523755 -0.00086588 -0.000136962
-0.000133954 -0.000136962 0.00113736
0.0247784 -0.0095054 0.00134255
-0.0095054 0.0111376 0.000274452
0.00134255 0.000274452 0.00219825
0.0197695 -0.00313575 -0.000513324
-0.00313575 0.0097104 0.000784057
-0.000513324 0.000784057 0.00468293
0.000599366 0.000127533 2.90016e-06
0.000127533 0.000409046 5.05269e-06
2.90016e-06 5.05269e-06 0.000243304
0.000176797 0.00019348 1.35972e-06
0.00019348 0.000163845 2.91266e-07
1.35972e-06 2.91266e-07 -2.86237e-05
0.000488093 0.000265473 7.1077e-06
0.000265473 0.000437484 -7.4305e-06
7.1077e-06 -7.4305e-06 0.000112413
0.000597889 4.82227e-06 1.99518e-06
4.82227e-06 0.000187798 1.33894e-06
1.99518e-06 1.33894e-06 1.6113e-05
0.000508168 0.000109643 2.33816e-06
0.000109643 0.000127396 -6.60146e-08
2.33816e-06 -6.60146e-08 -5.32365e-05
-0.000162109 3.03165e-05 1.58767e-06
3.03165e-05 -0.000227714 2.27052e-07
1.58767e-06 2.27052e-07 -0.000445599
0.000849558 0.00014213 -3.12794e-06
0.00014213 0.00041716 1.69292e-06
-3.12794e-06 1.69292e-06 0.000228495
9.20097e-05 0.000101914 -5.25649e-06
0.000101914 -8.51845e-05 4.51037e-06
-5.25649e-06 4.51037e-06 -0.000158958
0.000303337 -2.07461e-06 -2.84984e-07
-2.07461e-06 -2.31326e-05 7.18041e-07
-2.84984e-07 7.18041e-07 -0.000182259
0.00108559 0.000139231 2.25451e-06
0.000139231 0.000591621 2.16907e-06
2.25451e-06 2.16907e-06 0.000355645
0.000321487 6.1591e-05 -6.349e-07
6.1591e-05 8.6582e-05 -1.37272e-06
-6.349e-07 -1.37272e-06 -0.000140643
0.00079457 7.29129e-05 1.39672e-06
7.29129e-05 0.000344653 1.92937e-07
1.39672e-06 1.92937e-07 0.000132115
0.000265419 9.13218e-05 -8.73623e-07
9.13218e-05 0.000151541 -3.66189e-06
-8.73623e-07 -3.66189e-06 -5.24073e-05
0.000724127 8.62885e-05 1.63215e-06
8.62885e-05 0.000370602 -1.27303e-06
1.63215e-06 -1.27303e-06 0.00016899
-0.000657118 3.46174e-06 4.05381e-06
3.46174e-06 -0.000183656 -5.32145e-06
4.05381e-06 -5.32145e-06 -0.000559018
-9.7985e-06 -6.09383e-05 -3.62081e-07
-6.09383e-05 -0.000146912 6.19622e-07
-3.62081e-07 6.19622e-07 -0.000355759
0.000699048 -6.60475e-05 -4.69361e-06
-6.60475e-05 0.00027959 -2.08172e-06
-4.69361e-06 -2.08172e-06 7.09374e-05
0.000726077 -6.46692e-05 -3.59111e-07
-6.46692e-05 0.000303579 -2.68913e-06
-3.59111e-07 -2.68913e-06 0.000106639
0.000409242 -7.28921e-05 -4.59502e-06
-7.28921e-05 8.66652e-05 1.86913e-06
-4.59502e-06 1.86913e-06 -6.85636e-05
0.000681387 -1.31109e-05 -8.86669e-06
-1.31109e-05 0.000323561 -4.14139e-06
-8.86669e-06 -4.14139e-06 0.000127774
0.000620505 -0.000167188 7.23446e-06
-0.000167188 0.000174635 -7.65754e-06
7.23446e-06 -7.65754e-06 3.37901e-05
0.000341055 -6.0244e-05 -4.6823e-06
-6.0244e-05 0.000127181 -2.39843e-06
-4.6823e-06 -2.39843e-06 -4.88858e-05
-0.0006428 -1.20235e-05 -9.61657e-07
-1.20235e-05 -0.000412743 -7.35251e-06
-9.61657e-07 -7.35251e-06 -0.000700771
-0.000328228 -4.70146e-05 -1.30041e-07
-4.70146e-05 -0.000350711 1.56073e-06
-1.30041e-07 1.56073e-06 -0.000528757
0.000865158 -0.000175103 -7.90546e-07
-0.000175103 0.000432346 1.06784e-06
-7.90546e-07 1.06784e-06 0.000225858
0.000165985 -6.94948e-05 5.30023e-08
-6.94948e-05 -9.47194e-05 1.49019e-06
5.30023e-08 1.49019e-06 -0.000250291
0.000593985 -0.000138731 2.32979e-06
-0.000138731 0.000195546 -1.56342e-06
2.32979e-06 -1.56342e-06 1.75818e-05
0.00063926 -0.000147375 2.78761e-07
-0.000147375 0.000215972 4.18403e-07
2.78761e-07 4.18403e-07 5.03149e-05
0.00055869 -7.26368e-05 -1.01912e-06
-7.26368e-05 0.000113791 4.74558e-06
-1.01912e-06 4.74558e-06 1.571e-05
0.000254941 -1.51459e-06 1.38033e-07
-1.51459e-06 -2.81827e-05 -1.21915e-06
1.38033e-07 -1.21915e-06 -0.000201626
0.000449911 3.22293e-06 2.88428e-06
3.22293e-06 5.47023e-05 1.16991e-07
2.88428e-06 1.16991e-07 -4.75263e-05
0.00139477 -4.12863e-05 -1.60682e-05
-4.12863e-05 0.000632309 7.84891e-06
-1.60682e-05 7.84891e-06 0.000605776
0.00045808 9.28611e-05 -3.06206e-06
9.28611e-05 5.78852e-05 -3.56115e-06
-3.06206e-06 -3.56115e-06 -4.21079e-05
0.000806461 -2.80287e-05 -6.18161e-06
-2.80287e-05 0.000258435 7.43674e-07
-6.18161e-06 7.43674e-07 0.000227374
0.00081064 -1.50715e-06 -1.11117e-05
-1.50715e-06 0.000238949 5.05425e-06
-1.11117e-05 5.05425e-06 0.00024189
0.000293057 -4.56879e-05 5.80182e-06
-4.56879e-05 -7.90728e-05 -5.84242e-06
5.80182e-06 -5.84242e-06 -0.000110121
0.0026325 3.86621e-06 1.50929e-05
3.86621e-06 0.0014251 5.18241e-08
1.50929e-05 5.18241e-08 0.00143595
0.000844019 7.88443e-06 -1.60641e-05
7.88443e-06 0.0002604 -5.81193e-06
-1.60641e-05 -5.81193e-06 0.000261748
0.000560313 8.23537e-05 2.64065e-06
8.23537e-05 0.000162265 -2.82138e-06
2.64065e-06 -2.82138e-06 3.10516e-05
0.000376573 6.63882e-05 -2.32828e-06
6.63882e-05 -9.65203e-06 -4.51623e-06
-2.32828e-06 -4.51623e-06 -7.03696e-05
0.000438169 6.39119e-07 1.72995e-06
6.39119e-07 2.69529e-05 1.5601e-07
1.72995e-06 1.5601e-07 -3.45981e-05
0.000419541 7.82458e-06 1.71364e-06
7.82458e-06 -2.71128e-05 -4.2582e-06
1.71364e-06 -4.2582e-06 -4.10216e-05
0.000532008 -8.18362e-05 -2.54443e-06
-8.18362e-05 9.75956e-05 4.74148e-06
-2.54443e-06 4.74148e-06 2.4026e-05
0.000429874 7.50999e-06 6.51443e-07
7.50999e-06 -2.17918e-05 -8.14509e-07
6.51443e-07 -8.14509e-07 -3.7657e-05
0.00209497 4.48435e-05 -6.01914e-07
4.48435e-05 0.00107142 -5.33074e-06
-6.01914e-07 -5.33074e-06 0.00108442
0.00127709 4.62542e-05 1.79387e-06
4.62542e-05 0.000541609 3.38489e-06
1.79387e-06 3.38489e-06 0.000519738
0.0015328 5.50985e-05 -1.47604e-06
5.50985e-05 0.000711887 1.7925e-06
-1.47604e-06 1.7925e-06 0.000715292
0.000777259 5.9633e-05 1.11779e-05
5.9633e-05 0.000228993 1.26058e-05
1.11779e-05 1.26058e-05 0.000220557
0.000702812 0.00101705 0.000126095
0.00101705 -0.00385774 2.8777e-05
0.000126095 2.8777e-05 -0.00201647
0.00260953 -3.51769e-05 4.02798e-06
-3.51769e-05 -0.000276868 -2.53515e-06
4.02798e-06 -2.53515e-06 -3.14902e-05
0.0026201 9.31061e-05 5.52604e-05
9.31061e-05 -0.000104828 -1.59585e-05
5.52604e-05 -1.59585e-05 0.000123046
0.00498675 0.00103177 -0.000111308
0.00103177 -0.00286286 -4.89445e-05
-0.000111308 -4.89445e-05 0.000365355
0.00360901 0.000146844 0.000109028
0.000146844 -0.00124743 -8.06448e-06
0.000109028 -8.06448e-06 -0.000110277
0.00288442 -9.02771e-05 -5.82044e-06
-9.02771e-05 5.84149e-05 3.70777e-07
-5.82044e-06 3.70777e-07 0.000277166
0.00517435 -0.000776403 -8.04189e-05
-0.000776403 0.000118596 -5.03005e-05
-8.04189e-05 -5.03005e-05 0.00104678
0.0051101 -0.000938856 -2.91268e-05
-0.000938856 -0.00207195 -1.30814e-05
-2.91268e-05 -1.30814e-05 0.000497971
0.0203659 -0.00129536 0.000103039
-0.00129536 0.00141192 -0.000109864
0.000103039 -0.000109864 0.00182197
0.022517 0.0104497 0.00247792
0.0104497 0.00993769 -0.000284208
0.00247792 -0.000284208 0.00230199
0.037043 0.013177 0.0002017
0.013177 0.023947 0.00014871
0.0002017 0.00014871 0.0136757
1.7271e-05 -0.00011358 2.80548e-06
-0.00011358 -0.000170519 -2.85312e-06
2.80548e-06 -2.85312e-06 -0.000303385
0.000509002 -1.62457e-05 2.49633e-06
-1.62457e-05 0.000119179 3.55558e-08
2.49633e-06 3.55558e-08 -4.25377e-07
0.000608314 -0.000106688 -2.75952e-06
-0.000106688 0.000196457 6.75714e-06
-2.75952e-06 6.75714e-06 6.05984e-05
0.00053737 -6.91584e-05 2.59733e-06
-6.91584e-05 0.000127588 -3.54436e-07
2.59733e-06 -3.54436e-07 4.03705e-06
0.000917173 0.000151722 -7.06526e-06
0.000151722 0.000470809 -7.10781e-06
-7.06526e-06 -7.10781e-06 0.000312635
0.000655718 0.000162799 -1.55466e-06
0.000162799 0.000236399 2.29948e-06
-1.55466e-06 2.29948e-06 8.03584e-05
0.000794323 3.08391e-05 3.34958e-06
3.08391e-05 0.000335305 -2.19212e-06
3.34958e-06 -2.19212e-06 0.000163726
0.000468256 -1.99252e-05 -1.45743e-06
-1.99252e-05 0.000103515 9.14736e-07
-1.45743e-06 9.14736e-07 -3.60305e-05
0.00269929 -0.000398387 1.57601e-05
-0.000398387 -0.00031165 -7.63439e-06
1.57601e-05 -7.63439e-06 3.79611e-05
0.00242002 -0.000788868 2.05288e-05
-0.000788868 -0.000421271 -7.62847e-06
2.05288e-05 -7.62847e-06 -0.000172986
0.00279244 -0.00118625 6.06463e-06
-0.00118625 0.000180402 3.40553e-06
6.06463e-06 3.40553e-06 -5.45184e-05
0.00239778 -0.00143609 1.20184e-05
-0.00143609 0.000713007 2.78724e-06
1.20184e-05 2.78724e-06 7.50481e-05
0.00296186 -0.0014753 -2.37769e-05
-0.0014753 0.000702058 3.0124e-06
-2.37769e-05 3.0124e-06 0.000121809
-4.70604e-05 -0.00126114 1.45143e-05
-0.00126114 5.69084e-05 1.96741e-05
1.45143e-05 1.96741e-05 -0.000947623
0.00535087 -0.0010021 1.08607e-05
-0.0010021 0.00297662 1.10299e-05
1.08607e-05 1.10299e-05 0.00241634
0.00161797 -0.000457066 2.33101e-05
-0.000457066 0.000943124 -4.85483e-05
2.33101e-05 -4.85483e-05 0.00046864
0.000720276 -5.79154e-05 -5.62775e-06
-5.79154e-05 0.000206183 7.22637e-06
-5.62775e-06 7.22637e-06 3.5142e-05
0.00110481 -0.000138106 1.56106e-05
-0.000138106 0.000564195 -3.02826e-05
1.56106e-05 -3.02826e-05 0.000213
0.000691939 -9.58522e-05 2.13936e-06
-9.58522e-05 0.00025281 8.28387e-06
2.13936e-06 8.28387e-06 0.000102454
0.00055613 2.72861e-05 2.80794e-06
2.72861e-05 0.000257928 6.47905e-06
2.80794e-06 6.47905e-06 0.000170593
0.00273689 -0.000539865 2.00245e-06
-0.000539865 -0.000261396 4.72478e-06
2.00245e-06 4.72478e-06 0.00019148
0.000281599 -9.5112e-05 -7.60574e-06
-9.5112e-05 0.000139817 2.64779e-06
-7.60574e-06 2.64779e-06 -6.97107e-05
0.00123609 -0.00028086 -4.13919e-06
-0.00028086 0.000633911 4.63215e-06
-4.13919e-06 4.63215e-06 0.000326788
0.00203595 -0.000942861 9.18768e-06
-0.000942861 -0.000413181 -5.41439e-06
9.18768e-06 -5.41439e-06 -0.000255205
0.00267788 -0.00127157 2.011e-06
-0.00127157 0.000486331 5.46768e-06
2.011e-06 5.46768e-06 4.11685e-05
0.00174976 -0.00139482 -1.46031e-06
-0.00139482 0.000170427 -1.68614e-05
-1.46031e-06 -1.68614e-05 -0.000303072
0.00110142 -0.000442301 8.61248e-07
-0.000442301 0.000704722 -3.02652e-05
8.61248e-07 -3.02652e-05 0.000173209
0.000883969 -0.000908392 1.71106e-05
-0.000908392 0.00104959 9.66765e-07
1.71106e-05 9.66765e-07 7.29969e-05
0.00646025 -0.0013341 -6.15415e-05
-0.0013341 0.0015372 3.9088e-05
-6.15415e-05 3.9088e-05 0.00193858
0.00306187 -0.001343 -4.86761e-05
-0.001343 0.000627687 1.79796e-05
-4.86761e-05 1.79796e-05 0.000275816
0.00319521 -0.00161432 -1.84591e-06
-0.00161432 0.000889764 1.59987e-05
-1.84591e-06 1.59987e-05 0.000360039
0.000632433 -0.000948636 -2.36498e-05
-0.000948636 -9.1258e-05 2.5084e-05
-2.36498e-05 2.5084e-05 -0.000299028
0.000980722 -0.00025051 1.94333e-06
-0.00025051 0.000658934 -6.86181e-07
1.94333e-06 -6.86181e-07 0.000323853
-0.000594498 -0.000163484 3.46345e-06
-0.000163484 -0.000240247 1.37832e-05
3.46345e-06 1.37832e-05 -0.000646865
-0.000118392 -0.00035887 -1.03948e-05
-0.00035887 0.000440748 -1.41511e-05
-1.03948e-05 -1.41511e-05 -0.000353654
-0.007975 -0.000746962 0.00118552
-0.000746962 -0.0019082 -4.27083e-05
0.00118552 -4.27083e-05 -0.00552171
0.0133131 -0.000575563 5.8981e-05
-0.000575563 -0.00129659 5.60096e-05
5.8981e-05 5.60096e-05 0.000320752
0.00201882 0.000417668 5.77558e-06
0.000417668 0.00126772 -9.16833e-06
5.77558e-06 -9.16833e-06 0.00094524
0.00228661 0.000876713 -3.19716e-07
0.000876713 0.00107875 7.33243e-06
-3.19716e-07 7.33243e-06 0.000508019
0.00159257 0.000948596 0.000118838
0.000948596 -0.000834671 6.43608e-05
0.000118838 6.43608e-05 -0.00054442
0.00417357 0.00149574 3.62192e-05
0.00149574 0.00137326 1.97604e-05
3.62192e-05 1.97604e-05 0.000831968
0.00314227 0.00130485 2.53681e-05
0.00130485 0.00124765 6.049e-06
2.53681e-05 6.049e-06 0.000551813
0.019501 0.000965354 0.000104247
0.000965354 0.00117318 -0.000191086
0.000104247 -0.000191086 0.00204219
0.00877619 0.00417603 -0.000324221
0.00417603 -0.00283975 -1.55685e-05
-0.000324221 -1.55685e-05 0.000758763
0.00252427 0.00243599 -1.33829e-05
0.00243599 -0.000254228 -3.98267e-05
-1.33829e-05 -3.98267e-05 -0.000500288
0.0180446 -0.00811207 -0.00119268
-0.00811207 0.00893392 0.000208807
-0.00119268 0.000208807 0.00195861
0.0233948 -0.0205879 -0.00318631
-0.0205879 0.0180075 -0.00180014
-0.00318631 -0.00180014 0.00559395
0.000639555 0.000431198 7.66229e-06
0.000431198 0.000372602 -5.51071e-06
7.66229e-06 -5.51071e-06 6.68848e-06
0.00209277 -0.00546678 0.00108247
-0.00546678 -0.00036525 7.27294e-05
0.00108247 7.27294e-05 -0.00597898
0.00326796 -0.00663477 -0.00107078
-0.00663477 0.0127908 -8.79511e-05
-0.00107078 -8.79511e-05 0.00266219
0.00399756 0.00188489 -2.23212e-05
0.00188489 0.000697126 4.74483e-06
-2.23212e-05 4.74483e-06 0.000366059
0.00103806 0.000772664 -1.32254e-05
0.000772664 0.000267202 8.72998e-06
-1.32254e-05 8.72998e-06 -0.000255001
0.00244148 0.00134289 -1.20151e-07
0.00134289 0.000827107 -1.02301e-07
-1.20151e-07 -1.02301e-07 0.000174606
0.00220713 0.00231297 8.98066e-05
0.00231297 0.000375147 6.11669e-05
8.98066e-05 6.11669e-05 9.76863e-05
0.0144888 0.0054826 -0.000239983
0.0054826 -0.00260547 -0.000135179
-0.000239983 -0.000135179 -0.00173027
0.00292996 0.00481196 -3.05711e-05
0.00481196 -0.00167282 -6.45513e-05
-3.05711e-05 -6.45513e-05 0.000353826
0.0278967 -0.00833236 0.000942193
-0.00833236 0.0130866 -0.000148342
0.000942193 -0.000148342 0.00420583
0.0276638 -0.00647797 -0.0002143
-0.00647797 0.0101014 0.000983073
-0.0002143 0.000983073 0.00266713
0.000786587 0.000483373 -9.46827e-06
0.000483373 0.000381062 -1.56548e-05
-9.46827e-06 -1.56548e-05 4.51364e-05
-0.00511907 0.000647767 9.10875e-05
0.000647767 0.00681953 -0.000179679
9.10875e-05 -0.000179679 -0.00274533
0.00852702 0.00267304 -0.000824713
0.00267304 0.00665858 -0.000639161
-0.000824713 -0.000639161 0.000990874
0.00292454 0.00148176 -5.61561e-05
0.00148176 0.0006174 -3.15626e-05
-5.61561e-05 -3.15626e-05 0.000420211
0.00266684 0.00135697 -9.26563e-05
0.00135697 0.00117831 -3.89481e-05
-9.26563e-05 -3.89481e-05 0.000538867
0.00221451 0.00181289 -0.000119759
0.00181289 0.0013761 -4.71937e-05
-0.000119759 -4.71937e-05 0.000451796
-0.00247911 0.00362399 7.45635e-05
0.00362399 -0.000762878 -3.06565e-05
7.45635e-05 -3.06565e-05 -0.000837944
0.00586231 0.00813285 0.00102491
0.00813285 -0.00280633 0.000117977
0.00102491 0.000117977 -0.0029663
0.0294344 -0.0104354 -0.000605209
-0.0104354 0.0170678 0.00109749
-0.000605209 0.00109749 0.00689874
0.00975242 0.000900072 -0.00018097
0.000900072 -0.0015573 -0.000256883
-0.00018097 -0.000256883 -0.00227333
0.00111924 0.000293573 -5.69784e-06
0.000293573 0.000779039 1.45675e-06
-5.69784e-06 1.45675e-06 0.000553562
0.000781295 0.000313674 3.78656e-06
0.000313674 0.00057768 1.64488e-07
3.78656e-06 1.64488e-07 0.000270981
-0.000616187 0.000200663 3.9281e-06
0.000200663 -0.000203806 1.48069e-07
3.9281e-06 1.48069e-07 -0.00051315
0.000407367 7.79214e-05 2.77187e-06
7.79214e-05 4.75115e-05 1.52125e-06
2.77187e-06 1.52125e-06 -0.000116178
0.001232 0.000124865 2.87909e-07
0.000124865 0.00065084 1.72198e-06
2.87909e-07 1.72198e-06 0.000424776
0.00038494 2.03741e-05 -8.36002e-07
2.03741e-05 0.000128326 2.50143e-06
-8.36002e-07 2.50143e-06 -0.000107149
8.62632e-05 8.36117e-05 7.14296e-06
8.36117e-05 -6.23286e-06 3.12624e-06
7.14296e-06 3.12624e-06 -0.000256394
5.64132e-05 6.91573e-05 -4.61724e-06
6.91573e-05 2.48086e-05 4.90792e-06
-4.61724e-06 4.90792e-06 -0.000176113
0.000827534 4.33284e-05 -2.87708e-07
4.33284e-05 0.000369709 -9.52294e-07
-2.87708e-07 -9.52294e-07 0.000154828
0.000482874 5.09032e-05 2.29829e-07
5.09032e-05 0.000217385 -1.15059e-06
2.29829e-07 -1.15059e-06 1.58593e-05
0.000855953 -3.38213e-05 -5.6557e-07
-3.38213e-05 0.00042836 2.30484e-06
-5.6557e-07 2.30484e-06 0.000197317
-0.000551717 5.95355e-05 -9.87417e-07
5.95355e-05 -0.000101417 1.87738e-07
-9.87417e-07 1.87738e-07 -0.000474359
0.000221788 1.61011e-05 3.36635e-06
1.61011e-05 0.000522396 5.97043e-06
3.36635e-06 5.97043e-06 1.32799e-05
0.00065808 -4.54694e-05 2.41137e-06
-4.54694e-05 0.000460879 -3.78429e-06
2.41137e-06 -3.78429e-06 0.000169642
0.00187582 -5.92127e-05 -4.90516e-06
-5.92127e-05 0.00114831 4.02421e-06
-4.90516e-06 4.02421e-06 0.00087222
0.00105425 -0.000131053 -6.28698e-07
-0.000131053 0.000522724 -1.66155e-06
-6.28698e-07 -1.66155e-06 0.000311737
0.000401052 -0.000105418 -2.48797e-07
-0.000105418 7.66273e-05 9.50332e-06
-2.48797e-07 9.50332e-06 -6.94523e-05
0.000604059 -0.000148708 6.3329e-07
-0.000148708 0.000255759 6.53033e-07
6.3329e-07 6.53033e-07 6.56255e-05
0.000733705 -0.000162214 -7.47021e-07
-0.000162214 0.000243878 -2.38137e-06
-7.47021e-07 -2.38137e-06 9.29788e-05
0.000104376 -7.4478e-05 -3.03742e-06
-7.4478e-05 -1.10835e-05 6.09298e-06
-3.03742e-06 6.09298e-06 -0.000173045
-0.00122197 -3.42935e-05 7.95001e-07
-3.42935e-05 -0.000835312 -1.11946e-05
7.95001e-07 -1.11946e-05 -0.00107123
-0.000382728 -9.78051e-05 -9.66177e-06
-9.78051e-05 -0.00020812 2.09405e-06
-9.66177e-06 2.09405e-06 -0.000466519
0.000299427 -0.000125758 2.94841e-06
-0.000125758 0.000119311 -9.22894e-06
2.94841e-06 -9.22894e-06 -5.11064e-05
0.00118184 -0.000175632 2.99452e-05
-0.000175632 0.000490649 -1.62023e-05
2.99452e-05 -1.62023e-05 0.0003527
0.00430185 -0.000728196 -3.78653e-06
-0.000728196 0.0023638 2.83565e-06
-3.78653e-06 2.83565e-06 0.00201397
-0.00114779 -0.000169101 -1.98231e-06
-0.000169101 -0.000808388 -1.04167e-06
-1.98231e-06 -1.04167e-06 -0.00105612
0.000313514 -3.54676e-05 2.42205e-06
-3.54676e-05 0.00016979 9.57339e-07
2.42205e-06 9.57339e-07 -0.000106977
-0.00150868 3.22261e-05 7.0776e-06
3.22261e-05 -0.00102865 -2.81174e-06
7.0776e-06 -2.81174e-06 -0.00131327
0.000677944 -0.000226736 -2.68512e-06
-0.000226736 0.000312869 -1.14598e-06
-2.68512e-06 -1.14598e-06 0.000100474
0.000778298 -6.21807e-05 3.92784e-06
-6.21807e-05 0.000308769 -1.86138e-07
3.92784e-06 -1.86138e-07 0.000131881
0.000769142 -0.000196097 2.37893e-06
-0.000196097 0.000342854 -3.05252e-06
2.37893e-06 -3.05252e-06 0.000152227
0.000581961 -9.34444e-05 -7.69495e-07
-9.34444e-05 0.000190426 3.18282e-07
-7.69495e-07 3.18282e-07 2.28114e-05
0.00021747 4.07891e-05 2.75281e-06
4.07891e-05 -0.000100181 3.93207e-06
2.75281e-06 3.93207e-06 -0.000203439
0.000726948 -0.000151063 -2.56491e-08
-0.000151063 0.000264892 -9.25302e-07
-2.56491e-08 -9.25302e-07 0.000100576
0.000447776 -5.60511e-05 -6.9968e-07
-5.60511e-05 3.57977e-05 1.92634e-07
-6.9968e-07 1.92634e-07 -5.75014e-05
0.00136894 3.46338e-05 -9.28362e-06
3.46338e-05 0.000608556 8.35711e-06
-9.28362e-06 8.35711e-06 0.000581698
0.000442682 -8.29485e-05 9.02454e-07
-8.29485e-05 4.36629e-05 -3.46353e-06
9.02454e-07 -3.46353e-06 -5.37688e-05
0.000831485 -2.8342e-05 -1.21782e-05
-2.8342e-05 0.000266983 9.82007e-07
-1.21782e-05 9.82007e-07 0.00023693
0.000723877 9.66012e-06 2.14601e-06
9.66012e-06 0.000172323 2.29229e-06
2.14601e-06 2.29229e-06 0.000174098
0.000392716 -4.46429e-05 4.40662e-06
-4.46429e-05 -1.77223e-05 -5.48727e-06
4.40662e-06 -5.48727e-06 -4.79031e-05
0.00256702 4.89635e-06 6.70749e-06
4.89635e-06 0.00138062 -1.05498e-08
6.70749e-06 -1.05498e-08 0.00139246
0.00259905 -5.16722e-06 1.22719e-05
-5.16722e-06 0.00140273 -5.29766e-06
1.22719e-05 -5.29766e-06 0.00141378
0.00102323 7.87362e-05 -8.84519e-07
7.87362e-05 0.000458198 -3.61369e-06
-8.84519e-07 -3.61369e-06 0.000320612
0.000483213 7.79286e-05 -1.42481e-06
7.79286e-05 6.66332e-05 -5.41262e-06
-1.42481e-06 -5.41262e-06 -2.75115e-06
0.000505638 -2.35239e-05 -9.12379e-07
-2.35239e-05 0.000122898 9.27945e-07
-9.12379e-07 9.27945e-07 -6.07523e-06
0.000390948 1.3049e-05 1.4375e-06
1.3049e-05 -4.53882e-05 -4.41795e-06
1.4375e-06 -4.41795e-06 -5.88004e-05
0.000408084 -1.1606e-05 2.17056e-06
-1.1606e-05 7.00641e-06 -2.71826e-07
2.17056e-06 -2.71826e-07 -5.24694e-05
0.000445108 -7.45384e-05 -3.78338e-06
-7.45384e-05 3.52593e-05 4.66173e-06
-3.78338e-06 4.66173e-06 -2.95502e-05
0.00041625 2.18165e-06 -6.32802e-07
2.18165e-06 -3.00394e-05 6.76254e-09
-6.32802e-07 6.76254e-09 -4.38418e-05
0.00205426 2.92128e-05 -5.91256e-06
2.92128e-05 0.00104233 -5.33229e-06
-5.91256e-06 -5.33229e-06 0.00105729
0.00117465 1.94172e-05 -1.36858e-06
1.94172e-05 0.000466017 3.23087e-06
-1.36858e-06 3.23087e-06 0.000453075
0.00137018 3.4751e-05 -4.48476e-06
3.4751e-05 0.000596122 3.52162e-09
-4.48476e-06 3.52162e-09 0.000605265
0.000750623 4.15236e-05 -1.23294e-07
4.15236e-05 0.000199021 9.51659e-06
-1.23294e-07 9.51659e-06 0.000199825
-0.00456713 0.00365811 0.00125424
0.00365811 -0.000525569 -0.000116096
0.00125424 -0.000116096 -0.0067687
0.00429892 0.0037043 0.00264055
0.0037043 0.0118137 -0.000289528
0.00264055 -0.000289528 0.00357379
0.00198172 0.00121194 -0.000121812
0.00121194 -0.00411227 -6.32193e-05
-0.000121812 -6.32193e-05 -0.0005252
0.00298579 -5.00195e-05 5.44408e-05
-5.00195e-05 -0.00170135 -3.39209e-05
5.44408e-05 -3.39209e-05 -0.000408964
0.00311622 -0.000101564 4.96112e-05
-0.000101564 0.000176196 1.12165e-05
4.96112e-05 1.12165e-05 0.000403284
0.000538645 -0.000185663 -0.000126969
-0.000185663 -0.00266041 -3.96414e-05
-0.000126969 -3.96414e-05 -0.000192934
0.00462878 -0.000771936 9.2095e-06
-0.000771936 -0.000103659 1.80022e-06
9.2095e-06 1.80022e-06 0.000679951
0.0129567 -0.000816886 0.000361539
-0.000816886 -0.00341327 -0.000143805
0.000361539 -0.000143805 -0.00298016
0.00823588 0.00694823 -2.30255e-05
0.00694823 0.00314316 -0.000103296
-2.30255e-05 -0.000103296 -0.00276252
0.0321754 0.0165507 -0.000873797
0.0165507 0.0214317 0.000316465
-0.000873797 0.000316465 0.0102877
0.00295536 -0.00178212 -3.33663e-05
-0.00178212 -0.00375194 -3.87935e-05
-3.33663e-05 -3.87935e-05 -0.00072751
0.0156597 -0.00500167 0.000406409
-0.00500167 -0.00131888 -8.06867e-05
0.000406409 -8.06867e-05 -0.00111329
0.0265378 0.00921699 0.000533745
0.00921699 0.0113079 -0.000476666
0.000533745 -0.000476666 0.00205968
0.0321133 0.00644344 -0.000432505
0.00644344 0.0134665 0.000421362
-0.000432505 0.000421362 0.00692772
0.00132136 0.000204346 -8.01102e-06
0.000204346 0.000759107 -1.75752e-06
-8.01102e-06 -1.75752e-06 0.000529959
0.000339222 3.15556e-05 1.2599e-06
3.15556e-05 1.0217e-05 -6.07695e-07
1.2599e-06 -6.07695e-07 -0.000111991
0.000532378 -0.000115008 2.66675e-06
-0.000115008 0.000146472 4.3163e-06
2.66675e-06 4.3163e-06 1.97997e-05
0.000635959 -2.74736e-05 4.2966e-06
-2.74736e-05 0.000198487 3.12574e-06
4.2966e-06 3.12574e-06 7.31813e-05
0.000480579 6.94998e-05 4.33091e-06
6.94998e-05 0.000167109 1.99823e-07
4.33091e-06 1.99823e-07 4.41003e-05
0.000627102 9.74438e-05 -2.24449e-07
9.74438e-05 0.000233135 3.40163e-06
-2.24449e-07 3.40163e-06 3.3005e-05
0.000586232 8.23044e-05 -1.31252e-06
8.23044e-05 0.000212555 2.2544e-06
-1.31252e-06 2.2544e-06 5.50181e-05
0.000402437 0.000125817 4.71378e-06
0.000125817 3.02529e-05 3.41861e-06
4.71378e-06 3.41861e-06 -0.000142929
0.000554678 1.92937e-05 1.44776e-06
1.92937e-05 0.000177335 -1.18977e-06
1.44776e-06 -1.18977e-06 6.4561e-06
0.000281986 -3.16079e-05 1.49874e-06
-3.16079e-05 -3.03453e-05 1.84496e-06
1.49874e-06 1.84496e-06 -0.000154016
0.00114348 -0.000442003 5.17123e-05
-0.000442003 -0.0013135 -2.03546e-05
5.17123e-05 -2.03546e-05 -0.000676593
0.00148403 -0.000882038 3.13726e-05
-0.000882038 -0.000700795 -1.24795e-05
3.13726e-05 -1.24795e-05 -0.000507328
0.00138189 -0.0010834 1.31026e-05
-0.0010834 -0.000240778 6.79066e-06
1.31026e-05 6.79066e-06 -0.000587476
-0.000577509 -0.00103918 -9.08009e-06
-0.00103918 -0.00111674 -1.00874e-05
-9.08009e-06 -1.00874e-05 -0.00150446
0.00262776 -0.000938968 -8.20728e-06
-0.000938968 0.001925 5.03154e-05
-8.20728e-06 5.03154e-05 0.00107455
-0.000980306 -0.000726245 -5.99715e-06
-0.000726245 -0.000452553 -2.05276e-05
-5.99715e-06 -2.05276e-05 -0.00120654
0.00140158 -0.000319675 1.55116e-05
-0.000319675 0.000771631 -9.41767e-06
1.55116e-05 -9.41767e-06 0.000507639
-0.000112014 -2.89813e-05 4.12477e-06
-2.89813e-05 -0.000136515 7.38715e-06
4.12477e-06 7.38715e-06 -0.000320641
0.00305773 -0.00100881 1.31107e-05
-0.00100881 -0.000487651 -1.16335e-05
1.31107e-05 -1.16335e-05 0.000162441
0.000703409 -0.000151285 -1.29691e-07
-0.000151285 0.000471797 2.16329e-06
-1.29691e-07 2.16329e-06 0.000138358
-0.000473903 -0.000270667 -1.30673e-05
-0.000270667 -0.000149316 4.6664e-07
-1.30673e-05 4.6664e-07 -0.000562702
0.00203887 -0.0011742 2.08991e-05
-0.0011742 4.49479e-05 -2.13828e-06
2.08991e-05 -2.13828e-06 -0.000165324
0.00205859 -0.0014242 -9.99604e-07
-0.0014242 0.000236753 -5.59113e-06
-9.99604e-07 -5.59113e-06 -0.000187706
9.65534e-05 -0.000942844 1.8106e-05
-0.000942844 -0.000349054 -1.55889e-05
1.8106e-05 -1.55889e-05 -0.000633104
0.00113796 -0.000597839 2.91001e-05
-0.000597839 0.00114916 -2.85444e-05
2.91001e-05 -2.85444e-05 0.00041215
0.00196464 -0.0016524 -4.29609e-05
-0.0016524 -0.00069895 4.70937e-05
-4.29609e-05 4.70937e-05 -0.000585983
0.00237992 -0.00131538 -5.48479e-05
-0.00131538 0.000550715 2.91494e-05
-5.48479e-05 2.91494e-05 0.000304253
-0.000695693 -0.000595262 -4.96627e-05
-0.000595262 -0.000220133 3.0485e-05
-4.96627e-05 3.0485e-05 -0.000658186
-0.000592129 -2.88711e-05 -7.5555e-06
-2.88711e-05 -0.000404655 4.96658e-06
-7.5555e-06 4.96658e-06 -0.00068617
-0.00103967 9.05957e-07 -4.80316e-06
9.05957e-07 -0.000484891 1.9929e-05
-4.80316e-06 1.9929e-05 -0.000888032
0.000495082 -8.31771e-05 4.9923e-06
-8.31771e-05 0.000484444 5.44441e-06
4.9923e-06 5.44441e-06 9.02957e-05
-0.00268443 0.00154684 -0.000731988
0.00154684 0.00858901 1.44466e-05
-0.000731988 1.44466e-05 0.00124654
-3.95235e-05 -0.00249078 -1.94987e-05
-0.00249078 0.00470458 -6.18782e-05
-1.94987e-05 -6.18782e-05 0.00181388
0.00638143 0.000566412 -0.000146373
0.000566412 -0.00734527 -4.31833e-05
-0.000146373 -4.31833e-05 -0.00738472
0.0015435 0.000548636 1.85988e-05
0.000548636 0.000987972 -9.56445e-06
1.85988e-05 -9.56445e-06 0.000585688
0.0017733 0.000940207 2.16315e-05
0.000940207 0.000749963 3.04291e-05
2.16315e-05 3.04291e-05 0.000151822
0.00412382 0.00170385 9.99651e-05
0.00170385 0.000717533 4.7983e-05
9.99651e-05 4.7983e-05 0.000481982
0.00246889 0.00141792 3.45419e-05
0.00141792 0.000862783 3.3256e-05
3.45419e-05 3.3256e-05 0.000173046
0.0167596 -0.00645845 0.000372215
-0.00645845 0.00932306 0.0001176
0.000372215 0.0001176 0.00306665
0.00314782 0.00397088 -0.000712268
0.00397088 -0.00882284 -0.000152134
-0.000712268 -0.000152134 -0.0082424
0.00649981 0.00515164 1.18279e-05
0.00515164 0.000216261 1.88026e-05
1.18279e-05 1.88026e-05 0.00165962
0.00389903 0.00226174 0.000109233
0.00226174 0.00155915 1.95877e-05
0.000109233 1.95877e-05 0.00124188
0.0186261 -0.00510659 -0.000781337
-0.00510659 0.00819272 -0.000208567
-0.000781337 -0.000208567 0.000390612
0.00440433 -0.00807594 -0.00164512
-0.00807594 0.0139741 -0.000215395
-0.00164512 -0.000215395 0.00409919
0.0394032 -0.009992 0.00152116
-0.009992 0.0141924 0.000514402
0.00152116 0.000514402 0.00542861
0.000514579 0.000476199 1.24954e-05
0.000476199 0.000285228 -5.61987e-06
1.24954e-05 -5.61987e-06 -8.01801e-05
-0.000898163 -0.000587073 -0.000146067
-0.000587073 0.00934226 -1.13831e-05
-0.000146067 -1.13831e-05 0.000579779
0.00881577 0.00323822 -0.000302249
0.00323822 0.00482796 -0.000211866
-0.000302249 -0.000211866 -0.00175537
0.0023794 0.00154366 1.35716e-05
0.00154366 0.000477052 4.62219e-06
1.35716e-05 4.62219e-06 0.000166694
0.00118255 0.00110149 1.1805e-05
0.00110149 0.000478087 8.43383e-06
1.1805e-05 8.43383e-06 -0.000132934
0.0010775 0.001814 -0.000142685
0.001814 0.000705621 -9.97877e-05
-0.000142685 -9.97877e-05 -2.29252e-05
0.00342593 0.00554706 9.16503e-05
0.00554706 0.000601805 5.62298e-05
9.16503e-05 5.62298e-05 0.000778775
0.0124139 0.00873516 -3.33373e-05
0.00873516 -0.000167862 -1.02435e-05
-3.33373e-05 -1.02435e-05 -0.00165936
0.0130986 -0.00592168 0.00012538
-0.00592168 0.010662 -0.000169452
0.00012538 -0.000169452 0.000662945
0.0194599 -0.00220608 -8.43142e-05
-0.00220608 0.00343812 -5.31225e-05
-8.43142e-05 -5.31225e-05 0.00281453
0.0017217 0.000996071 -2.17275e-05
0.000996071 0.000984394 -1.45112e-05
-2.17275e-05 -1.45112e-05 0.000452049
0.00153237 0.000703504 -0.000634336
0.000703504 0.0038609 -0.000176429
-0.000634336 -0.000176429 -0.00328363
0.00299235 0.00170946 -0.000173355
0.00170946 0.000836001 -0.000220426
-0.000173355 -0.000220426 -0.0021003
-0.000983038 0.000634773 -8.3993e-06
0.000634773 -0.000129627 -3.16998e-05
-8.3993e-06 -3.16998e-05 -0.00059855
-0.00237599 0.0014704 -0.000153074
0.0014704 0.000685558 2.12433e-05
-0.000153074 2.12433e-05 -0.00018355
0.00875209 0.00813273 0.000345366
0.00813273 0.00395787 2.87578e-05
0.000345366 2.87578e-05 -0.00142243
0.00907932 -0.00683227 -1.39822e-05
-0.00683227 0.00319728 0.000233328
-1.39822e-05 0.000233328 -0.00496691
0.0171624 -0.000751862 9.48716e-05
-0.000751862 -0.000408062 -0.000353091
9.48716e-05 -0.000353091 0.00056046
0.00138523 0.00036976 3.35467e-06
0.00036976 0.000908587 2.36259e-05
3.35467e-06 2.36259e-05 0.0006243
0.000963439 0.000363534 -5.01148e-06
0.000363534 0.000760264 -4.89209e-06
-5.01148e-06 -4.89209e-06 0.000418748
-0.000391392 0.000235399 7.53172e-06
0.000235399 0.000125258 -2.46214e-06
7.53172e-06 -2.46214e-06 -0.000358171
0.000425106 9.01108e-05 1.58737e-07
9.01108e-05 7.78577e-05 -3.08415e-07
1.58737e-07 -3.08415e-07 -0.000113175
0.00131815 -1.21064e-05 -3.05868e-06
-1.21064e-05 0.000747865 5.12743e-06
-3.05868e-06 5.12743e-06 0.000497441
0.000266546 7.83722e-05 2.6941e-06
7.83722e-05 7.59842e-05 3.34842e-06
2.6941e-06 3.34842e-06 -0.000127624
-0.000612467 0.000104483 -6.38208e-07
0.000104483 -0.000131306 2.33219e-06
-6.38208e-07 2.33219e-06 -0.000506676
0.000702456 -6.10256e-05 2.67667e-06
-6.10256e-05 0.000327027 6.37855e-07
2.67667e-06 6.37855e-07 0.0001041
0.000192806 4.05869e-05 2.80804e-07
4.05869e-05 0.000158472 -2.03649e-06
2.80804e-07 -2.03649e-06 -0.000122717
-2.2404e-05 2.71943e-05 -1.20104e-06
2.71943e-05 0.000442506 1.48387e-06
-1.20104e-06 1.48387e-06 -0.000119302
-0.000392962 6.91508e-05 2.21756e-06
6.91508e-05 0.000352668 7.93386e-06
2.21756e-06 7.93386e-06 -0.00026475
0.000579577 -4.32248e-05 3.29018e-06
-4.32248e-05 0.000728548 -4.55666e-06
3.29018e-06 -4.55666e-06 0.000225261
0.0013934 -3.20812e-05 -7.01097e-06
-3.20812e-05 0.000928753 6.24578e-06
-7.01097e-06 6.24578e-06 0.000643196
0.0010238 -0.000200791 5.25148e-06
-0.000200791 0.000539498 3.56511e-06
5.25148e-06 3.56511e-06 0.000338079
0.000370394 -0.000130177 -2.5188e-06
-0.000130177 7.04237e-06 5.40849e-06
-2.5188e-06 5.40849e-06 -0.000144134
-0.000425678 -4.84439e-05 1.38121e-05
-4.84439e-05 -0.000354585 1.00561e-05
1.38121e-05 1.00561e-05 -0.000482712
0.000101025 -4.05529e-05 1.50939e-06
-4.05529e-05 8.9403e-05 1.31842e-06
1.50939e-06 1.31842e-06 -0.000160318
0.000572989 -5.92033e-05 1.16599e-06
-5.92033e-05 0.000239078 1.50565e-06
1.16599e-06 1.50565e-06 2.9365e-05
-0.000266455 -8.70237e-05 -5.3207e-06
-8.70237e-05 -0.000195653 4.25773e-07
-5.3207e-06 4.25773e-07 -0.000375269
0.000260577 -0.000122963 -5.22933e-06
-0.000122963 7.66742e-05 -6.9423e-06
-5.22933e-06 -6.9423e-06 -0.000100951
0.000804991 -0.000103017 5.14772e-06
-0.000103017 0.000647708 -8.73673e-06
5.14772e-06 -8.73673e-06 0.000385949
0.00232149 -0.000478087 3.33179e-06
-0.000478087 0.00113039 7.29691e-06
3.33179e-06 7.29691e-06 0.000961139
0.000495063 -0.00016441 -2.49598e-05
-0.00016441 7.05942e-05 7.76867e-07
-2.49598e-05 7.76867e-07 -6.60748e-05
0.00115717 -0.000431917 7.60258e-06
-0.000431917 0.000391351 6.85462e-06
7.60258e-06 6.85462e-06 0.000133739
0.00277573 -0.000907052 -8.01626e-06
-0.000907052 0.00134395 1.78877e-05
-8.01626e-06 1.78877e-05 0.000826511
0.00281948 -0.000369649 1.45239e-05
-0.000369649 0.00142929 -6.76169e-06
1.45239e-05 -6.76169e-06 0.00118827
0.00230109 -0.000520009 1.47868e-06
-0.000520009 0.00113342 -7.64796e-06
1.47868e-06 -7.64796e-06 0.000850798
0.000343371 -0.000186994 -3.58759e-07
-0.000186994 0.000108072 -4.54639e-07
-3.58759e-07 -4.54639e-07 -0.000146019
-0.0016039 -0.000114614 2.49569e-06
-0.000114614 -0.00105701 -5.21108e-06
2.49569e-06 -5.21108e-06 -0.00140803
0.00174351 -6.42332e-05 3.68587e-06
-6.42332e-05 0.00104741 3.82423e-06
3.68587e-06 3.82423e-06 0.000784708
0.00070336 -0.000224176 3.33346e-06
-0.000224176 0.000338984 -1.71366e-06
3.33346e-06 -1.71366e-06 6.15917e-05
0.000338603 -8.76094e-05 5.45401e-06
-8.76094e-05 -5.88563e-06 -1.29262e-06
5.45401e-06 -1.29262e-06 -0.000198555
0.00206374 -0.000393395 -7.05493e-06
-0.000393395 0.00122111 3.4656e-07
-7.05493e-06 3.4656e-07 0.000977623
0.000539237 -0.000165338 -3.90397e-07
-0.000165338 0.000171301 -3.1329e-07
-3.90397e-07 -3.1329e-07 -1.56812e-05
0.000246553 -2.42059e-05 2.49914e-06
-2.42059e-05 -8.57666e-05 5.32611e-06
2.49914e-06 5.32611e-06 -0.000200533
0.000977939 -0.000182865 -2.01102e-06
-0.000182865 0.000463706 9.02742e-07
-2.01102e-06 9.02742e-07 0.000284275
0.000611867 -8.6387e-05 -1.86187e-07
-8.6387e-05 0.00015575 7.52837e-08
-1.86187e-07 7.52837e-08 4.8414e-05
0.00146293 4.75708e-07 -1.53737e-05
4.75708e-07 0.000666677 9.11276e-06
-1.53737e-05 9.11276e-06 0.000635216
0.000473306 -8.43236e-05 4.96787e-07
-8.43236e-05 6.60349e-05 -4.25128e-06
4.96787e-07 -4.25128e-06 -3.62261e-05
0.000823286 -1.89395e-05 -1.43884e-05
-1.89395e-05 0.000255314 8.83868e-07
-1.43884e-05 8.83868e-07 0.000224035
0.000814351 1.85187e-05 2.6234e-06
1.85187e-05 0.000229082 3.24361e-06
2.6234e-06 3.24361e-06 0.000228242
0.000379174 -5.00771e-05 3.81337e-06
-5.00771e-05 -2.99328e-05 -5.98621e-06
3.81337e-06 -5.98621e-06 -6.21594e-05
0.00168462 1.45435e-05 1.68876e-05
1.45435e-05 0.00080184 -1.68855e-06
1.68876e-05 -1.68855e-06 0.000809069
0.00254962 1.41674e-06 2.24423e-05
1.41674e-06 0.00136862 -5.53768e-06
2.24423e-05 -5.53768e-06 0.0013808
0.000469021 8.67653e-05 1.082e-06
8.67653e-05 6.80341e-05 -3.41923e-06
1.082e-06 -3.41923e-06 -6.8835e-05
0.000532249 7.98515e-05 -7.12732e-07
7.98515e-05 9.63032e-05 -5.63574e-06
-7.12732e-07 -5.63574e-06 2.07495e-05
0.000541814 2.01507e-05 6.47677e-07
2.01507e-05 0.000136179 6.57366e-07
6.47677e-07 6.57366e-07 4.84402e-06
0.00040686 8.04845e-06 3.12595e-06
8.04845e-06 -3.51456e-05 -5.09575e-06
3.12595e-06 -5.09575e-06 -4.97613e-05
0.000425511 6.53946e-05 1.97019e-07
6.53946e-05 2.12684e-05 -1.60752e-07
1.97019e-07 -1.60752e-07 -4.28049e-05
0.000382777 -0.000120347 -3.66341e-06
-0.000120347 2.492e-05 4.8306e-06
-3.66341e-06 4.8306e-06 -9.21468e-05
0.00205214 1.44226e-05 -1.09341e-05
1.44226e-05 0.00103928 -5.38886e-06
-1.09341e-05 -5.38886e-06 0.00105536
0.000402469 8.26404e-06 -4.13221e-07
8.26404e-06 -3.79082e-05 -2.04023e-09
-4.13221e-07 -2.04023e-09 -5.12122e-05
0.000475468 1.82246e-06 -1.58602e-06
1.82246e-06 3.96583e-05 4.22927e-06
-1.58602e-06 4.22927e-06 -1.31549e-05
0.000414635 -4.95586e-07 -2.87762e-06
-4.95586e-07 -3.20217e-05 4.42624e-06
-2.87762e-06 4.42624e-06 -4.57574e-05
0.00206308 3.01796e-05 -6.03168e-06
3.01796e-05 0.00104827 -1.67553e-07
-6.03168e-06 -1.67553e-07 0.00106304
0.0021037 4.65353e-05 7.03896e-07
4.65353e-05 0.00107767 5.46615e-06
7.03896e-07 5.46615e-06 0.00109033
-0.000913981 -0.00193257 -0.000406599
-0.00193257 0.00988913 7.4932e-05
-0.000406599 7.4932e-05 0.00408098
0.00616993 0.00400049 -0.000493614
0.00400049 0.0036657 0.000160626
-0.000493614 0.000160626 -0.00195159
0.00369285 -0.00152639 -0.00061678
-0.00152639 0.00165909 0.000327142
-0.00061678 0.000327142 -0.00368118
0.00793263 0.00449079 0.00166862
0.00449079 0.0116578 -0.000219096
0.00166862 -0.000219096 0.00290828
0.00528942 0.00108842 -1.537e-06
0.00108842 -0.000929905 -1.39385e-05
-1.537e-06 -1.39385e-05 0.000997679
0.00343385 -0.000824359 0.000116178
-0.000824359 -0.000745818 2.85382e-05
0.000116178 2.85382e-05 -5.08213e-05
0.00273625 -0.000688137 0.000529338
-0.000688137 -0.00881351 -3.22493e-05
0.000529338 -3.22493e-05 -0.00808846
0.0251271 0.00673714 -0.00206429
0.00673714 0.0130698 -8.29764e-05
-0.00206429 -8.29764e-05 0.00606027
0.0246863 0.0200337 -0.00320055
0.0200337 0.0173059 0.00186767
-0.00320055 0.00186767 0.00537286
0.00544357 -0.00138896 7.43208e-05
-0.00138896 -0.00195062 8.48417e-07
7.43208e-05 8.48417e-07 0.00023975
0.00795607 -0.00496804 0.000286335
-0.00496804 -0.00598597 -0.000225481
0.000286335 -0.000225481 -0.00595962
0.0284229 0.00903177 -0.000519784
0.00903177 0.0123657 -0.000231665
-0.000519784 -0.000231665 0.00305393
0.0234476 0.00593904 0.000324892
0.00593904 0.00997322 0.000545841
0.000324892 0.000545841 0.00359067
0.00242329 -0.00321228 -0.000111361
-0.00321228 -0.00450825 8.2191e-05
-0.000111361 8.2191e-05 -0.0014259
0.00420105 -0.0077665 0.000898769
-0.0077665 -0.00252675 -0.000295052
0.000898769 -0.000295052 -0.00418056
0.0162862 0.00435116 -0.000392145
0.00435116 0.00730599 -0.00120938
-0.000392145 -0.00120938 -0.00186446
0.0110314 -0.000834536 -0.000433729
-0.000834536 0.000443773 5.73937e-05
-0.000433729 5.73937e-05 -0.000820309
0.00207955 -5.5111e-05 -2.58219e-06
-5.5111e-05 0.0012759 1.56705e-05
-2.58219e-06 1.56705e-05 0.000969172
0.000198242 5.03511e-05 -1.16347e-06
5.03511e-05 -1.73435e-05 -2.16579e-06
-1.16347e-06 -2.16579e-06 -0.000183707
0.00053631 0.000120527 3.58907e-06
0.000120527 0.000132145 2.6776e-06
3.58907e-06 2.6776e-06 1.23886e-05
-0.000375939 -7.5611e-05 1.0345e-06
-7.5611e-05 -0.000448554 2.63825e-06
1.0345e-06 2.63825e-06 -0.000499598
0.000403985 0.000169348 2.89911e-06
0.000169348 5.71232e-05 1.13718e-05
2.89911e-06 1.13718e-05 -0.000146901
0.000535769 8.9819e-05 -7.31879e-07
8.9819e-05 0.000181751 2.85451e-08
-7.31879e-07 2.85451e-08 -9.49935e-06
-0.000183523 -3.01668e-06 2.49454e-06
-3.01668e-06 -0.000298713 2.11591e-06
2.49454e-06 2.11591e-06 -0.000432364
0.000965753 0.000201404 8.08162e-06
0.000201404 0.000451845 1.01427e-05
8.08162e-06 1.01427e-05 0.000230727
0.000982861 0.000191616 -1.4235e-07
0.000191616 0.000470141 -4.31654e-07
-1.4235e-07 -4.31654e-07 0.000250154
0.000333886 1.84771e-05 -2.66343e-06
1.84771e-05 2.49669e-05 -4.3668e-07
-2.66343e-06 -4.3668e-07 -0.00014294
0.00110768 -0.000860124 0.00012534
-0.000860124 -0.00160937 -7.02268e-05
0.00012534 -7.02268e-05 -0.000877816
0.000614955 -0.000993872 1.17125e-05
-0.000993872 -0.000786894 -1.07972e-05
1.17125e-05 -1.07972e-05 -0.000851884
0.0019639 -0.0013879 1.24114e-05
-0.0013879 0.000184071 1.09371e-05
1.24114e-05 1.09371e-05 -0.000197777
-0.00084625 -0.000922625 7.06002e-06
-0.000922625 -0.000891713 -1.32758e-05
7.06002e-06 -1.32758e-05 -0.00121325
0.00411694 -0.00076487 -7.19228e-05
-0.00076487 0.00273153 6.84366e-05
-7.19228e-05 6.84366e-05 0.00219711
0.000592974 -0.00031133 -1.45863e-07
-0.00031133 0.000513016 -1.12285e-05
-1.45863e-07 -1.12285e-05 8.97576e-05
0.000517561 4.4077e-05 4.62729e-06
4.4077e-05 0.00033041 -1.10253e-05
4.62729e-06 -1.10253e-05 6.78677e-06
0.00063473 1.80239e-05 -5.68785e-06
1.80239e-05 0.000357698 3.84313e-06
-5.68785e-06 3.84313e-06 5.43176e-05
0.00306682 -0.00166826 -2.95696e-05
-0.00166826 -0.000122777 2.44066e-06
-2.95696e-05 2.44066e-06 0.000129638
0.000536701 -3.74329e-05 1.01027e-06
-3.74329e-05 0.000423742 3.91621e-06
1.01027e-06 3.91621e-06 5.74368e-05
0.00227333 -0.000499246 1.04211e-05
-0.000499246 0.00152913 -6.32773e-06
1.04211e-05 -6.32773e-06 0.00112066
0.00167052 -0.00124334 2.23174e-05
-0.00124334 0.000146097 -3.98629e-06
2.23174e-05 -3.98629e-06 -9.70761e-05
0.0002905 -0.000715327 -2.66974e-05
-0.000715327 0.000247385 8.51774e-06
-2.66974e-05 8.51774e-06 -0.000140849
0.00283473 -0.00274246 6.07346e-05
-0.00274246 0.000459665 -2.39215e-05
6.07346e-05 -2.39215e-05 -0.000174376
0.00162046 -0.000900702 -2.47202e-05
-0.000900702 0.000919558 2.73668e-05
-2.47202e-05 2.73668e-05 0.000589278
-0.00158684 -0.000176854 6.58336e-06
-0.000176854 -0.000492168 2.41039e-06
6.58336e-06 2.41039e-06 -0.00107659
0.000123937 0.000131626 4.94552e-06
0.000131626 7.48737e-05 3.2546e-06
4.94552e-06 3.2546e-06 -0.0001323
-0.000439566 -0.000248748 -4.85484e-06
-0.000248748 -7.21993e-05 3.0029e-05
-4.85484e-06 3.0029e-05 -0.000488899
0.00237476 0.000378394 -0.000155753
0.000378394 0.00259336 -5.35217e-05
-0.000155753 -5.35217e-05 -0.00278498
-0.00770912 0.000344294 -0.000794076
0.000344294 0.00771904 -5.42626e-06
-0.000794076 -5.42626e-06 0.00139457
-0.0124568 -0.00433935 -0.0014699
-0.00433935 -0.00262928 1.64778e-05
-0.0014699 1.64778e-05 -0.00691387
0.000155209 0.000469604 1.77136e-05
0.000469604 0.000147281 -2.79107e-06
1.77136e-05 -2.79107e-06 -0.00025887
0.000418086 0.000981237 4.63725e-06
0.000981237 0.000137518 1.17868e-05
4.63725e-06 1.17868e-05 -0.000469602
0.00342267 0.00184663 6.52547e-05
0.00184663 0.00105636 6.1286e-05
6.52547e-05 6.1286e-05 0.000611431
-0.00206394 0.00186724 0.000197189
0.00186724 0.0104501 8.0974e-05
0.000197189 8.0974e-05 0.00387113
0.0042195 0.00784206 -0.000817122
0.00784206 -0.00301813 -0.000232826
-0.000817122 -0.000232826 -0.00431702
0.000317556 0.00383778 0.000546226
0.00383778 -0.000653486 0.000241437
0.000546226 0.000241437 -0.000283251
0.000180527 0.00167711 -5.72868e-06
0.00167711 0.000208228 -4.65451e-05
-5.72868e-06 -4.65451e-05 -0.000128683
0.0330664 -0.00563333 0.000137593
-0.00563333 0.0139588 -0.000616539
0.000137593 -0.000616539 0.00567804
0.0094845 0.00402873 0.00118525
0.00402873 0.00432767 0.000374069
0.00118525 0.000374069 -0.00303242
0.0140637 -0.00104333 0.000133826
-0.00104333 0.00305259 8.2062e-05
0.000133826 8.2062e-05 0.00372257
0.00188908 0.00099967 1.2237e-05
0.00099967 0.00111097 -4.07635e-07
1.2237e-05 -4.07635e-07 0.000588895
0.00406239 0.00172048 -0.000101531
0.00172048 0.004911 -1.48466e-05
-0.000101531 -1.48466e-05 -0.00095606
0.00301312 0.00130443 0.000155845
0.00130443 0.00132501 -2.05263e-05
0.000155845 -2.05263e-05 -0.00137754
5.92301e-06 0.00103567 -1.47789e-05
0.00103567 0.000290668 -7.7933e-06
-1.47789e-05 -7.7933e-06 -0.00032506
-0.00104485 0.0025283 -0.000157465
0.0025283 0.000375312 -0.000103022
-0.000157465 -0.000103022 -0.00108286
0.00271908 0.00851613 0.000477909
0.00851613 0.0017722 0.000159647
0.000477909 0.000159647 -0.00310796
0.0135184 -0.00063554 1.80661e-05
-0.00063554 -0.00253538 -0.000227856
1.80661e-05 -0.000227856 -0.00120154
0.0101312 -0.0033366 -0.000153801
-0.0033366 0.00602681 -0.000252326
-0.000153801 -0.000252326 -0.00184103
0.0013794 0.000856877 -5.83082e-06
0.000856877 0.0012081 -1.44195e-05
-5.83082e-06 -1.44195e-05 0.000563928
-0.00414675 0.00102611 7.41085e-05
0.00102611 0.00174911 8.26605e-05
7.41085e-05 8.26605e-05 -0.00106268
0.00832 -0.00129795 0.000352383
-0.00129795 0.000545116 -9.54199e-05
0.000352383 -9.54199e-05 -0.00170956
0.0108705 -0.000715542 0.000396074
-0.000715542 0.000349982 -2.18855e-05
0.000396074 -2.18855e-05 -0.000674871
-0.0029543 0.000555588 7.08297e-05
0.000555588 0.000510298 -1.30156e-05
7.08297e-05 -1.30156e-05 -0.000730111
0.00771148 0.00452252 0.000463476
0.00452252 0.00591628 0.000236447
0.000463476 0.000236447 -0.00146567
0.00855463 -0.000503547 -1.56551e-05
-0.000503547 0.00337999 0.00042292
-1.56551e-05 0.00042292 -0.00138791
0.00281908 0.0005641 2.10684e-05
0.0005641 0.00189423 1.36885e-05
2.10684e-05 1.36885e-05 0.00151106
0.000307048 0.000363527 -9.37881e-06
0.000363527 0.000526674 -2.67065e-06
-9.37881e-06 -2.67065e-06 -2.95582e-06
0.000680961 0.00042174 2.20559e-06
0.00042174 0.000878917 -1.45457e-05
2.20559e-06 -1.45457e-05 0.000146259
-0.000173354 6.80529e-05 4.23952e-06
6.80529e-05 -0.000245535 -4.28924e-06
4.23952e-06 -4.28924e-06 -0.000453449
0.000358843 9.94748e-05 -3.613e-07
9.94748e-05 0.000249225 -1.54205e-06
-3.613e-07 -1.54205e-06 -1.26619e-05
-0.000126095 2.86022e-05 -4.29127e-07
2.86022e-05 0.000457954 -3.93814e-06
-4.29127e-07 -3.93814e-06 -0.00014669
5.79252e-05 -1.64504e-06 -1.02329e-06
-1.64504e-06 5.23003e-05 -7.00528e-07
-1.02329e-06 -7.00528e-07 -0.000204415
0.000760026 -0.00011002 3.8581e-07
-0.00011002 0.000878494 -2.72004e-06
3.8581e-07 -2.72004e-06 0.000353117
-0.000137193 3.91058e-05 3.05537e-06
3.91058e-05 0.000542631 9.66386e-07
3.05537e-06 9.66386e-07 -8.69492e-05
0.000313027 -0.000112893 -5.65811e-06
-0.000112893 0.000720452 1.54798e-05
-5.65811e-06 1.54798e-05 0.00020048
0.00114871 -9.91278e-05 1.78913e-06
-9.91278e-05 0.000991374 -1.47689e-05
1.78913e-06 -1.47689e-05 0.000610719
-0.000191122 -2.77034e-05 8.61765e-06
-2.77034e-05 -0.000131169 3.12099e-06
8.61765e-06 3.12099e-06 -0.0003513
0.00188505 -9.90567e-05 9.39502e-07
-9.90567e-05 0.00101506 6.29954e-06
9.39502e-07 6.29954e-06 0.000823405
-0.000437403 -6.88581e-05 -3.47295e-06
-6.88581e-05 -0.000266772 7.79759e-06
-3.47295e-06 7.79759e-06 -0.000460849
0.000472558 -7.54251e-05 6.83511e-07
-7.54251e-05 0.000425256 1.28286e-06
6.83511e-07 1.28286e-06 0.000176277
-0.000465178 -4.43776e-05 -3.51615e-06
-4.43776e-05 -0.000343942 -1.90553e-06
-3.51615e-06 -1.90553e-06 -0.000529695
0.00137027 -0.000417904 9.04835e-07
-0.000417904 0.00069092 6.52219e-06
9.04835e-07 6.52219e-06 0.00048526
0.000794842 -0.00029122 -2.48245e-05
-0.00029122 0.000295476 -4.52809e-07
-2.48245e-05 -4.52809e-07 0.000195297
-0.000654308 -0.000364134 1.21783e-05
-0.000364134 -0.000545063 2.09133e-05
1.21783e-05 2.09133e-05 -0.000938515
0.000245704 -0.000142227 1.47787e-06
-0.000142227 -6.23e-05 1.67773e-06
1.47787e-06 1.67773e-06 -0.000196459
0.0011923 -0.000430161 -5.04493e-06
-0.000430161 0.000406705 8.42651e-06
-5.04493e-06 8.42651e-06 0.000145954
0.00242167 -0.000880182 -9.74699e-06
-0.000880182 0.00108298 1.24976e-05
-9.74699e-06 1.24976e-05 0.000535199
0.00213182 -0.000943313 -2.97223e-06
-0.000943313 0.000816523 -1.70844e-06
-2.97223e-06 -1.70844e-06 0.000214937
0.00177972 -0.000534706 8.2743e-06
-0.000534706 0.000722374 6.13751e-07
8.2743e-06 6.13751e-07 0.000375417
0.00085302 -0.000624212 1.01585e-05
-0.000624212 0.00015141 -3.35835e-06
1.01585e-05 -3.35835e-06 -0.000283426
0.00146186 -0.000276423 3.40814e-06
-0.000276423 0.000758487 -3.14305e-06
3.40814e-06 -3.14305e-06 0.000405004
0.00104184 -0.00026553 -8.22155e-06
-0.00026553 0.000372628 1.49628e-06
-8.22155e-06 1.49628e-06 0.000114688
-0.000281407 -0.00025336 1.8992e-05
-0.00025336 -0.000476665 -1.11948e-05
1.8992e-05 -1.11948e-05 -0.000677911
0.00172916 -0.000205106 -5.76055e-06
-0.000205106 0.000956861 4.05012e-06
-5.76055e-06 4.05012e-06 0.000696301
-0.000236657 -0.000190604 9.52164e-07
-0.000190604 -0.000223765 6.42077e-07
9.52164e-07 6.42077e-07 -0.000563976
-0.000368416 -3.92298e-05 4.1459e-06
-3.92298e-05 -0.000411742 -1.51531e-06
4.1459e-06 -1.51531e-06 -0.000689315
0.00258076 -0.000537218 -5.33666e-06
-0.000537218 0.00150455 2.51532e-06
-5.33666e-06 2.51532e-06 0.00122253
0.000936384 -0.000230308 -4.8722e-07
-0.000230308 0.000399154 -4.06072e-07
-4.8722e-07 -4.06072e-07 0.000182154
0.00027207 -4.0714e-05 6.17217e-06
-4.0714e-05 -6.58442e-05 8.95379e-06
6.17217e-06 8.95379e-06 -0.000213126
0.000935321 -0.000244457 -2.98377e-06
-0.000244457 0.000440965 -3.63064e-07
-2.98377e-06 -3.63064e-07 0.000241521
0.000427667 -1.92931e-05 -2.74492e-06
-1.92931e-05 4.74253e-05 -6.09378e-07
-2.74492e-06 -6.09378e-07 -8.19658e-05
0.00150209 -2.54297e-05 -2.43921e-05
-2.54297e-05 0.000691511 7.44021e-06
-2.43921e-05 7.44021e-06 0.000656756
0.00062222 -9.67112e-05 -2.00758e-08
-9.67112e-05 0.000168745 -4.40478e-06
-2.00758e-08 -4.40478e-06 5.56846e-05
0.00084192 -2.55237e-05 -1.31478e-05
-2.55237e-05 0.00026171 7.04613e-07
-1.31478e-05 7.04613e-07 0.000227649
0.000843463 2.90655e-05 2.25557e-06
2.90655e-05 0.000243325 3.66521e-06
2.25557e-06 3.66521e-06 0.000238887
0.000400585 -4.85134e-05 3.75008e-06
-4.85134e-05 -2.0345e-05 -7.06657e-06
3.75008e-06 -7.06657e-06 -5.56775e-05
0.0018033 2.66743e-05 2.02542e-05
2.66743e-05 0.00087674 -1.38407e-06
2.02542e-05 -1.38407e-06 0.000882368
0.00260812 1.385e-05 2.7758e-05
1.385e-05 0.00140369 -5.87334e-06
2.7758e-05 -5.87334e-06 0.00141586
0.000116565 4.15554e-05 1.61434e-06
4.15554e-05 -0.000148816 2.4137e-06
1.61434e-06 2.4137e-06 -0.000315504
-4.07593e-05 2.74658e-05 3.95427e-07
2.74658e-05 -0.000287735 -7.18919e-06
3.95427e-07 -7.18919e-06 -0.00037295
0.000511361 9.08946e-05 -4.94241e-07
9.08946e-05 0.000107383 7.81434e-07
-4.94241e-07 7.81434e-07 -3.83978e-05
0.000413146 1.44528e-05 2.27426e-06
1.44528e-05 -3.02666e-05 -5.57356e-06
2.27426e-06 -5.57356e-06 -4.86024e-05
0.00028203 6.65128e-06 1.72601e-06
6.65128e-06 -8.0816e-05 6.95168e-08
1.72601e-06 6.95168e-08 -0.000151084
0.000170851 -0.000105977 -2.02058e-07
-0.000105977 -0.000109731 4.78398e-06
-2.02058e-07 4.78398e-06 -0.000240357
0.00211038 -1.61365e-07 -1.49941e-05
-1.61365e-07 0.0010767 -5.56798e-06
-1.49941e-05 -5.56798e-06 0.00109267
0.000397841 8.3138e-06 5.34421e-07
8.3138e-06 -4.10701e-05 -8.04051e-08
5.34421e-07 -8.04051e-08 -5.55288e-05
0.000387065 -1.37995e-05 -4.52149e-06
-1.37995e-05 -1.19197e-05 4.83636e-06
-4.52149e-06 4.83636e-06 -7.16084e-05
0.00208102 1.55336e-05 -5.22295e-06
1.55336e-05 0.00105864 -2.48139e-08
-5.22295e-06 -2.48139e-08 0.0010744
0.000399244 3.83835e-06 -2.71265e-06
3.83835e-06 -3.98285e-05 4.38054e-06
-2.71265e-06 4.38054e-06 -5.31446e-05
0.00206053 3.13553e-05 6.17438e-06
3.13553e-05 0.00104678 5.5797e-06
6.17438e-06 5.5797e-06 0.00106131
-0.00106151 -0.0019415 -0.000383628
-0.0019415 -0.000174354 0.000161637
-0.000383628 0.000161637 -0.00492987
0.00539406 0.00273297 -0.000317897
0.00273297 0.0123294 7.77903e-05
-0.000317897 7.77903e-05 0.00462719
0.00674356 0.00146568 -0.00178778
0.00146568 0.00594565 0.000360955
-0.00178778 0.000360955 0.00287398
0.000764191 0.000148576 1.19728e-05
0.000148576 0.00031602 8.73229e-06
1.19728e-05 8.73229e-06 0.000106416
0.00711902 -0.00164752 -0.000236448
-0.00164752 0.00482883 0.00036076
-0.000236448 0.00036076 0.00149003
0.00469598 -0.00177717 -0.000334335
-0.00177717 0.00255724 3.98132e-05
-0.000334335 3.98132e-05 -0.00291131
0.0227261 0.00984883 0.000181948
0.00984883 0.0139461 -0.000609323
0.000181948 -0.000609323 0.00370885
0.00751231 -0.00211133 0.000180632
-0.00211133 -0.001111 -2.25517e-05
0.000180632 -2.25517e-05 0.000611215
0.0145933 -0.0045547 0.000406483
-0.0045547 -0.00132421 -0.00029304
0.000406483 -0.00029304 -2.85607e-05
0.0198408 0.0070061 -0.00111745
0.0070061 0.00692239 0.000339587
-0.00111745 0.000339587 -0.00179216
0.0175203 0.00518586 0.000369322
0.00518586 0.0113037 0.000319123
0.000369322 0.000319123 0.00637419
0.00764685 -0.00398808 -9.47217e-05
-0.00398808 -0.00130534 -4.16358e-06
-9.47217e-05 -4.16358e-06 0.000664047
0.0118521 -0.00812824 6.38623e-06
-0.00812824 0.00018068 -6.00856e-05
6.38623e-06 -6.00856e-05 -0.00157966
0.0134396 0.00252848 0.00011987
0.00252848 0.00910163 -0.000507968
0.00011987 -0.000507968 0.000843326
0.0167987 0.00139102 -2.34164e-05
0.00139102 0.00282584 8.15739e-05
-2.34164e-05 8.15739e-05 0.000130601
0.00433164 -0.0046939 -1.01833e-05
-0.0046939 0.000636469 4.98301e-05
-1.01833e-05 4.98301e-05 0.00158704
0.0105236 -0.00782763 0.000361563
-0.00782763 0.00480456 -0.000216246
0.000361563 -0.000216246 0.000837062
0.00717755 0.000411309 -5.16669e-05
0.000411309 0.00649545 -0.00052561
-5.16669e-05 -0.00052561 0.000790298
0.0164449 -0.000625813 -0.000262335
-0.000625813 0.000268435 0.000331734
-0.000262335 0.000331734 0.000658954
0.000298389 0.000185304 1.23198e-05
0.000185304 8.96825e-05 1.69479e-05
1.23198e-05 1.69479e-05 -0.000123794
0.000350216 -8.1644e-05 3.53361e-07
-8.1644e-05 0.000134977 -9.5025e-07
3.53361e-07 -9.5025e-07 -0.00012058
4.19248e-05 4.06359e-05 6.59092e-06
4.06359e-05 -0.000141149 1.49392e-06
6.59092e-06 1.49392e-06 -0.000287447
0.000563606 0.000208762 9.26387e-06
0.000208762 0.000100765 2.3672e-05
9.26387e-06 2.3672e-05 -6.49376e-05
0.000921613 0.000274399 -1.35402e-06
0.000274399 0.000424696 -2.11253e-06
-1.35402e-06 -2.11253e-06 0.000193709
0.000975285 0.0001648 2.20871e-07
0.0001648 0.00048631 -1.15377e-06
2.20871e-07 -1.15377e-06 0.000286586
0.00114659 0.000226205 -2.15498e-06
0.000226205 0.000569438 -2.16253e-07
-2.15498e-06 -2.16253e-07 0.000344219
0.00114963 0.000271882 2.59775e-06
0.000271882 0.000596651 2.35122e-06
2.59775e-06 2.35122e-06 0.000360848
0.0019675 -0.00142251 0.000167161
-0.00142251 -0.000782166 -0.000101828
0.000167161 -0.000101828 -0.000257177
-0.000375822 -0.00100075 -1.69895e-05
-0.00100075 -0.00103106 -1.60462e-05
-1.69895e-05 -1.60462e-05 -0.0011596
-0.00017996 -7.39156e-05 2.81147e-06
-7.39156e-05 -0.000184142 -2.34851e-05
2.81147e-06 -2.34851e-05 -0.000455654
0.00144534 -0.000838628 3.15205e-05
-0.000838628 0.000849996 -2.34629e-05
3.15205e-05 -2.34629e-05 0.000478854
0.00344719 -0.000747485 -3.41384e-05
-0.000747485 0.00215415 1.06742e-05
-3.41384e-05 1.06742e-05 0.00175468
0.00170987 -0.000193418 1.69029e-05
-0.000193418 0.00115115 -2.92947e-05
1.69029e-05 -2.92947e-05 0.000754518
-0.000116304 0.000113642 2.07681e-06
0.000113642 -8.04528e-05 1.25089e-05
2.07681e-06 1.25089e-05 -0.000320687
0.00133799 -0.00237002 -1.81715e-05
-0.00237002 -0.00019294 -4.23521e-06
-1.81715e-05 -4.23521e-06 -0.000671744
0.00145829 -0.000179273 -4.00902e-06
-0.000179273 0.00110547 -1.69009e-06
-4.00902e-06 -1.69009e-06 0.000675092
-0.000654916 -0.000250385 -8.69017e-06
-0.000250385 -7.14365e-05 9.86431e-06
-8.69017e-06 9.86431e-06 -0.000598574
-0.000807529 -0.000682463 2.49239e-05
-0.000682463 -0.000557619 -2.92314e-06
2.49239e-05 -2.92314e-06 -0.000691201
8.14542e-05 6.59946e-05 1.10491e-05
6.59946e-05 8.84977e-05 -3.035e-06
1.10491e-05 -3.035e-06 -0.000131873
0.00133954 -0.00241431 -9.68939e-05
-0.00241431 0.00114806 -2.31781e-05
-9.68939e-05 -2.31781e-05 0.000135136
-0.000180384 -0.000693109 -3.08232e-05
-0.000693109 0.000232338 1.09811e-05
-3.08232e-05 1.09811e-05 -0.000294001
0.000227984 0.0001768 1.84302e-06
0.0001768 0.000558696 -7.5436e-06
1.84302e-06 -7.5436e-06 -2.22291e-05
0.00126284 0.000199605 2.54486e-06
0.000199605 0.00124016 1.52427e-05
2.54486e-06 1.52427e-05 0.000621386
-7.86087e-05 5.24556e-06 0.000309653
5.24556e-06 0.00452803 7.94074e-05
0.000309653 7.94074e-05 0.0014834
-0.000165181 8.36302e-05 0.000226679
8.36302e-05 0.00138467 -3.0866e-05
0.000226679 -3.0866e-05 -0.00429598
-0.0145657 -0.000632275 -0.000719724
-0.000632275 0.00661713 2.56226e-05
-0.000719724 2.56226e-05 0.000950666
0.00160693 0.000911913 2.07118e-05
0.000911913 0.00100649 3.78337e-06
2.07118e-05 3.78337e-06 0.000527915
-0.000443949 0.00129707 2.40803e-05
0.00129707 6.07991e-05 1.54401e-05
2.40803e-05 1.54401e-05 -0.00072475
0.00597019 0.00228354 0.000696098
0.00228354 0.00514719 0.00017847
0.000696098 0.00017847 0.000346047
0.00562486 0.00586809 0.000243932
0.00586809 0.00348946 0.00023114
0.000243932 0.00023114 -0.000505536
0.00185582 0.00396454 -0.000192726
0.00396454 0.00159015 -0.000190187
-0.000192726 -0.000190187 -0.000328516
0.00575686 -0.00209027 -0.000144031
-0.00209027 0.0061537 -0.000542007
-0.000144031 -0.000542007 0.000236101
0.00394578 0.00065393 0.00012406
0.00065393 0.00175807 0.000147268
0.00012406 0.000147268 -0.000891791
0.0105191 -0.000186592 -4.3377e-05
-0.000186592 -0.00452338 -0.00027824
-4.3377e-05 -0.00027824 -0.0031878
0.00071572 0.000907878 5.39913e-06
0.000907878 0.000752889 -1.05971e-06
5.39913e-06 -1.05971e-06 6.12025e-05
-0.00294349 0.000595146 5.49833e-06
0.000595146 0.00207011 8.48487e-06
5.49833e-06 8.48487e-06 -0.00095816
0.0069162 -0.000564682 0.000239395
-0.000564682 0.000443342 1.05932e-05
0.000239395 1.05932e-05 -0.00174752
-0.00196053 0.00104396 -2.75119e-05
0.00104396 0.000167262 -1.53313e-05
-2.75119e-05 -1.53313e-05 -0.00102794
0.0173886 0.0017488 2.84911e-05
0.0017488 0.00273992 -8.80788e-05
2.84911e-05 -8.80788e-05 4.14831e-05
0.00436696 0.00312302 0.000380446
0.00312302 0.00593881 0.000241296
0.000380446 0.000241296 -0.00104192
0.0144541 0.000641748 -0.000217236
0.000641748 0.00546189 -8.62553e-06
-0.000217236 -8.62553e-06 0.000216236
0.0010067 0.000947511 -5.37483e-06
0.000947511 0.00108923 -2.41626e-05
-5.37483e-06 -2.41626e-05 0.000201967
0.00370452 -3.41067e-05 4.62633e-05
-3.41067e-05 0.00235498 3.97135e-05
4.62633e-05 3.97135e-05 4.02772e-05
0.00395459 -0.00305807 0.000314092
-0.00305807 0.00436072 -0.000287198
0.000314092 -0.000287198 0.00150438
0.0334117 0.00758048 0.000511543
0.00758048 0.0137498 -0.000398938
0.000511543 -0.000398938 0.00654312
0.0100286 -0.000359018 -0.000103459
-0.000359018 0.00784651 0.00063368
-0.000103459 0.00063368 0.00213959
-0.00180442 0.000975773 -0.00018018
0.000975773 0.000991641 -0.000130936
-0.00018018 -0.000130936 -0.000294813
0.00149959 0.000613071 0.000206394
0.000613071 0.00593518 1.07702e-05
0.000206394 1.07702e-05 -0.00416077
0.00104031 0.000517134 5.56105e-06
0.000517134 0.000931029 1.21371e-05
5.56105e-06 1.21371e-05 0.000359485
0.00043878 0.00035766 8.84824e-06
0.00035766 0.000821203 8.02434e-06
8.84824e-06 8.02434e-06 0.000128778
0.000517883 -0.000115046 -1.20567e-05
-0.000115046 0.00124563 2.00403e-05
-1.20567e-05 2.00403e-05 0.000580064
-0.000977004 -2.95076e-05 7.16313e-06
-2.95076e-05 -0.000600877 -6.76244e-06
7.16313e-06 -6.76244e-06 -0.000860015
-0.000891009 5.4322e-06 4.00969e-06
5.4322e-06 -7.43124e-05 3.49277e-06
4.00969e-06 3.49277e-06 -0.000651678
-8.44826e-05 3.27124e-05 -7.34328e-06
3.27124e-05 0.000626257 -7.43779e-06
-7.34328e-06 -7.43779e-06 -4.25713e-05
-0.000212843 -4.15403e-06 -1.21064e-06
-4.15403e-06 0.000109741 5.23696e-07
-1.21064e-06 5.23696e-07 -0.000236047
1.17159e-05 -9.46839e-05 3.3162e-06
-9.46839e-05 0.000542914 2.83153e-06
3.3162e-06 2.83153e-06 8.35812e-06
0.00261217 -0.000592247 1.09287e-05
-0.000592247 0.0017168 -1.39545e-05
1.09287e-05 -1.39545e-05 0.001344
-5.46807e-05 -4.93738e-05 -2.26546e-06
-4.93738e-05 9.69136e-05 7.46718e-06
-2.26546e-06 7.46718e-06 -0.000150104
-0.0015168 7.00069e-06 4.5068e-06
7.00069e-06 -0.000965452 2.41959e-06
4.5068e-06 2.41959e-06 -0.00115379
0.00113935 -0.000425079 -3.6456e-06
-0.000425079 0.000583098 4.43249e-06
-3.6456e-06 4.43249e-06 0.000329441
-0.00393387 9.40491e-06 2.41817e-05
9.40491e-06 -0.00223465 2.11416e-05
2.41817e-05 2.11416e-05 -0.00265588
-0.00125064 -0.000110381 4.14728e-05
-0.000110381 -0.000879389 -1.03747e-05
4.14728e-05 -1.03747e-05 -0.000923986
7.04851e-05 -0.000460332 -1.38164e-05
-0.000460332 -0.000157561 -3.54509e-06
-1.38164e-05 -3.54509e-06 -0.000525896
0.00162973 -0.000863782 -2.65957e-06
-0.000863782 0.00060323 -3.94162e-07
-2.65957e-06 -3.94162e-07 -9.3278e-05
0.00215651 -0.00107639 -1.34313e-05
-0.00107639 0.000764558 2.67601e-06
-1.34313e-05 2.67601e-06 8.02195e-05
0.00138997 -0.000442353 4.09899e-06
-0.000442353 0.000510937 -6.74925e-06
4.09899e-06 -6.74925e-06 0.000246794
0.001647 -0.000778343 5.73532e-07
-0.000778343 0.000603249 1.38855e-06
5.73532e-07 1.38855e-06 7.47038e-05
0.00168471 -0.000939402 6.38874e-06
-0.000939402 0.000470598 -7.61575e-06
6.38874e-06 -7.61575e-06 -0.000136274
0.0020837 -0.000752367 5.56521e-06
-0.000752367 0.000894307 1.75933e-06
5.56521e-06 1.75933e-06 0.000383879
0.00134335 -0.000830283 3.08412e-06
-0.000830283 0.000338847 -5.50224e-06
3.08412e-06 -5.50224e-06 -0.000229674
0.00123921 -0.000278814 -7.34855e-07
-0.000278814 0.000415222 -2.36049e-06
-7.34855e-07 -2.36049e-06 0.000124682
0.000912116 -0.000454219 6.99952e-08
-0.000454219 0.000175539 1.3326e-07
6.99952e-08 1.3326e-07 -0.000170854
-0.000165984 -0.000461012 1.01586e-06
-0.000461012 -0.000459969 -8.19803e-06
1.01586e-06 -8.19803e-06 -0.000845133
-0.000246329 -0.000112395 1.95194e-06
-0.000112395 -0.000290419 -4.85469e-06
1.95194e-06 -4.85469e-06 -0.000631856
0.000426845 -0.000237567 -5.47447e-07
-0.000237567 0.000148472 -8.09992e-07
-5.47447e-07 -8.09992e-07 -0.000215588
-0.000888184 -0.000153429 3.15478e-06
-0.000153429 -0.000767554 6.43144e-07
3.15478e-06 6.43144e-07 -0.00104529
0.00130988 -0.000267052 -3.25118e-06
-0.000267052 0.00071513 5.82233e-06
-3.25118e-06 5.82233e-06 0.000391841
0.000762877 -0.000196944 1.0471e-06
-0.000196944 0.000307494 7.74e-07
1.0471e-06 7.74e-07 2.29746e-05
-5.7496e-05 -6.15961e-05 3.04147e-06
-6.15961e-05 -0.00029201 9.61255e-06
3.04147e-06 9.61255e-06 -0.000466258
0.00132707 -0.000369645 -5.46617e-06
-0.000369645 0.000676598 1.64952e-06
-5.46617e-06 1.64952e-06 0.000430641
0.00057127 -6.47413e-05 -1.41351e-06
-6.47413e-05 0.000110362 -1.66955e-07
-1.41351e-06 -1.66955e-07 -3.22112e-05
0.000332458 4.01784e-05 3.38986e-06
4.01784e-05 -6.38634e-05 1.13562e-05
3.38986e-06 1.13562e-05 -0.000118581
0.00113978 -0.00013222 -2.37322e-06
-0.00013222 0.0005 -5.36266e-06
-2.37322e-06 -5.36266e-06 0.000367754
0.000436847 -3.33634e-05 -1.96156e-06
-3.33634e-05 -7.44828e-06 7.32022e-08
-1.96156e-06 7.32022e-08 -5.00044e-05
0.0028147 9.67028e-05 1.7847e-06
9.67028e-05 0.0015414 3.46843e-06
1.7847e-06 3.46843e-06 0.00154132
0.00047835 -4.86163e-05 3.48679e-06
-4.86163e-05 2.41959e-05 -7.78566e-06
3.48679e-06 -7.78566e-06 -1.52278e-05
0.00182086 3.95723e-05 2.42652e-05
3.95723e-05 0.00088787 -1.20402e-06
2.42652e-05 -1.20402e-06 0.000890915
0.00275032 2.95745e-05 3.53008e-05
2.95745e-05 0.00149466 -6.37869e-06
3.53008e-05 -6.37869e-06 0.00150581
0.000276077 6.14631e-05 4.36176e-06
6.14631e-05 -5.77657e-05 1.91489e-06
4.36176e-06 1.91489e-06 -0.000220488
9.84394e-05 1.87252e-05 2.41726e-06
1.87252e-05 -0.000194129 -5.19491e-06
2.41726e-06 -5.19491e-06 -0.000299484
0.000428201 5.87777e-05 -2.83227e-08
5.87777e-05 5.91478e-05 -8.72126e-07
-2.83227e-08 -8.72126e-07 -0.000106797
0.000450661 1.29653e-05 2.98872e-06
1.29653e-05 -5.96582e-06 -6.26415e-06
2.98872e-06 -6.26415e-06 -2.96065e-05
5.65371e-05 2.94609e-05 -1.04586e-06
2.94609e-05 -0.000223357 -2.35286e-06
-1.04586e-06 -2.35286e-06 -0.000312573
0.000623039 8.73909e-05 9.733e-07
8.73909e-05 0.000203181 4.40293e-06
9.733e-07 4.40293e-06 4.15468e-05
0.0022324 -1.47778e-05 -2.09191e-05
-1.47778e-05 0.00115647 -5.63375e-06
-2.09191e-05 -5.63375e-06 0.0011714
0.000412714 9.07689e-06 -1.26241e-06
9.07689e-06 -3.23147e-05 -1.76073e-07
-1.26241e-06 -1.76073e-07 -4.98081e-05
-4.9258e-05 1.51945e-05 1.09807e-06
1.51945e-05 -0.000295387 5.23191e-06
1.09807e-06 5.23191e-06 -0.000368701
0.00210496 4.51033e-07 -4.13296e-06
4.51033e-07 0.00107325 8.98761e-08
-4.13296e-06 8.98761e-08 0.00108926
0.000391382 8.73416e-06 -2.65393e-06
8.73416e-06 -4.5366e-05 4.7266e-06
-2.65393e-06 4.7266e-06 -5.94646e-05
0.00206953 1.64487e-05 1.11737e-05
1.64487e-05 0.00105144 5.55766e-06
1.11737e-05 5.55766e-06 0.00106705
0.00101539 -0.000165349 0.000295341
-0.000165349 0.00507654 0.000174647
0.000295341 0.000174647 0.00276515
-0.000843047 -0.000705807 -7.67834e-05
-0.000705807 0.000507838 6.76388e-06
-7.67834e-05 6.76388e-06 -0.00496208
0.00180335 0.00272668 -0.000441015
0.00272668 0.0115375 -0.000128318
-0.000441015 -0.000128318 0.00343764
0.000671867 0.000157044 1.791e-07
0.000157044 0.000218716 5.24058e-07
1.791e-07 5.24058e-07 3.04928e-05
-0.00042295 0.000108153 8.74986e-06
0.000108153 -0.000444543 5.38321e-06
8.74986e-06 5.38321e-06 -0.00066693
0.00180714 0.000296783 2.00692e-05
0.000296783 0.000947171 1.9957e-05
2.00692e-05 1.9957e-05 0.000752789
0.00932694 -0.00118368 -0.000354761
-0.00118368 0.00048968 0.000132925
-0.000354761 0.000132925 -0.00228006
0.00777818 -0.0027898 0.000185643
-0.0027898 0.00437629 4.36303e-05
0.000185643 4.36303e-05 0.00199322
0.00477928 -0.0040709 0.000360563
-0.0040709 0.0020872 -0.000360505
0.000360563 -0.000360505 -0.00309306
0.0089705 -0.00466208 -9.59371e-06
-0.00466208 -0.00145318 -6.37934e-05
-9.59371e-06 -6.37934e-05 0.000730281
0.00429077 -0.007725 -0.00100443
-0.007725 -0.00284872 4.27763e-05
-0.00100443 4.27763e-05 -0.00319291
0.0308713 0.00714479 0.000750486
0.00714479 0.0163787 0.000331109
0.000750486 0.000331109 0.00605463
0.00904343 -0.00131614 0.000480975
-0.00131614 -0.0011617 -0.000335888
0.000480975 -0.000335888 -0.00339878
0.00266773 -0.00456609 5.53643e-06
-0.00456609 -0.000910348 1.33489e-05
5.53643e-06 1.33489e-05 0.000666669
0.00502618 -0.00791878 -0.000302123
-0.00791878 0.00259277 5.75992e-06
-0.000302123 5.75992e-06 -0.00272447
0.00796482 0.0046553 -0.000142833
0.0046553 0.00773366 -0.000418593
-0.000142833 -0.000418593 0.000561525
0.013648 -0.000426509 -0.000165274
-0.000426509 -0.00195492 0.000185005
-0.000165274 0.000185005 -0.0011
-0.000471127 -0.00358127 -0.000181635
-0.00358127 0.000965881 9.63856e-05
-0.000181635 9.63856e-05 6.93152e-05
0.00811678 -0.00417318 -0.000473947
-0.00417318 0.00605061 0.000288453
-0.000473947 0.000288453 -0.000272089
0.00782418 -0.000212951 5.17947e-05
-0.000212951 0.0038811 -0.000400385
5.17947e-05 -0.000400385 -0.00116563
0.0100617 0.000776857 4.22842e-05
0.000776857 -0.00112503 0.000193254
4.22842e-05 0.000193254 -0.00227706
-0.000320318 9.20077e-05 8.62441e-06
9.20077e-05 -0.000322667 2.40253e-05
8.62441e-06 2.40253e-05 -0.000471062
0.0006792 1.46395e-05 -5.7216e-07
1.46395e-05 0.000329148 -6.88458e-08
-5.7216e-07 -6.88458e-08 0.000107825
0.00079933 -0.000256937 1.26296e-05
-0.000256937 0.000394957 -1.08072e-05
1.26296e-05 -1.08072e-05 0.000151226
0.000550729 0.000194006 -1.08489e-06
0.000194006 0.000103666 2.5559e-06
-1.08489e-06 2.5559e-06 -6.71421e-05
0.000772823 0.000237474 2.36638e-07
0.000237474 0.000337223 -9.61001e-06
2.36638e-07 -9.61001e-06 0.000112129
0.00124568 0.000257787 -7.39635e-06
0.000257787 0.000632871 -6.72594e-06
-7.39635e-06 -6.72594e-06 0.000405672
0.000886413 -0.00202345 8.11627e-05
-0.00202345 -0.000169187 -3.11836e-05
8.11627e-05 -3.11836e-05 -0.000527243
-0.000849694 -0.000593524 1.10798e-05
-0.000593524 -0.000660581 -2.68105e-05
1.10798e-05 -2.68105e-05 -0.000715345
0.000206097 0.000248151 -7.59851e-06
0.000248151 0.000123513 -2.6727e-05
-7.59851e-06 -2.6727e-05 -0.000159504
0.00237688 -0.000582937 6.62567e-05
-0.000582937 0.00155423 -3.58562e-05
6.62567e-05 -3.58562e-05 0.00109799
0.00314727 -0.000152472 9.0004e-06
-0.000152472 0.0020846 -2.59723e-05
9.0004e-06 -2.59723e-05 0.00168875
-0.000501901 8.02599e-05 9.61277e-06
8.02599e-05 -0.0002454 1.72068e-06
9.61277e-06 1.72068e-06 -0.000486678
-0.000280822 2.67399e-05 3.48192e-06
2.67399e-05 0.000249454 1.00686e-05
3.48192e-06 1.00686e-05 -0.000300436
0.00172255 -0.00226994 -6.87735e-05
-0.00226994 0.00133093 1.04329e-06
-6.87735e-05 1.04329e-06 0.000271623
0.000437837 -7.87476e-05 -6.69502e-06
-7.87476e-05 0.000799605 -1.27624e-06
-6.69502e-06 -1.27624e-06 0.000135867
-6.56431e-05 -0.000497136 -5.24845e-06
-0.000497136 0.000573601 2.37826e-06
-5.24845e-06 2.37826e-06 -0.000132656
0.000672977 0.000250653 1.96079e-05
0.000250653 0.000737319 -3.37825e-05
1.96079e-05 -3.37825e-05 0.000303506
-0.00411637 -0.000231219 -0.000155872
-0.000231219 -0.000573587 1.09614e-05
-0.000155872 1.09614e-05 -0.00172752
-0.000286843 -0.000223811 -1.68689e-05
-0.000223811 0.000989449 -1.7994e-05
-1.68689e-05 -1.7994e-05 0.000170991
-0.00387337 -0.000128822 -2.95114e-05
-0.000128822 -0.00130906 -1.0419e-05
-2.95114e-05 -1.0419e-05 -0.00208512
0.00125356 0.000667646 -2.07943e-06
0.000667646 -5.93901e-05 -4.83244e-06
-2.07943e-06 -4.83244e-06 -0.00428137
-0.00170397 0.00093766 0.000192245
0.00093766 0.00420794 9.30847e-06
0.000192245 9.30847e-06 0.00120322
-0.00192255 8.80944e-05 0.000490699
8.80944e-05 0.000492045 5.00138e-05
0.000490699 5.00138e-05 -0.00504388
-0.000237209 0.000908128 1.02938e-05
0.000908128 0.000137113 2.38665e-05
1.02938e-05 2.38665e-05 -0.000595904
0.000677901 0.00156739 -1.52909e-05
0.00156739 0.00105927 -3.61907e-05
-1.52909e-05 -3.61907e-05 -0.00010595
-0.00231959 0.000611342 -0.000223488
0.000611342 0.00246139 -6.78562e-05
-0.000223488 -6.78562e-05 -0.000701231
-0.00421643 0.00116827 0.00023138
0.00116827 0.00425381 0.000258591
0.00023138 0.000258591 -0.00226178
0.00477547 0.000688894 -0.000222005
0.000688894 -0.00115327 -0.000522087
-0.000222005 -0.000522087 -0.00732135
0.00653651 0.000126789 0.000121865
0.000126789 5.43585e-05 2.487e-05
0.000121865 2.487e-05 -0.00147145
0.00816056 -0.00109704 -0.000471195
-0.00109704 -0.00145704 0.000315329
-0.000471195 0.000315329 -0.00356529
0.000682624 0.000770511 -8.72054e-06
0.000770511 0.000979048 -4.57792e-07
-8.72054e-06 -4.57792e-07 0.000199488
0.00206066 0.000466402 7.18828e-05
0.000466402 0.00230388 4.25759e-05
7.18828e-05 4.25759e-05 4.74815e-05
0.00678435 -0.00198403 -0.000174959
-0.00198403 0.00409518 -2.92658e-05
-0.000174959 -2.92658e-05 0.00187405
-4.68637e-05 0.00109304 -0.000162428
0.00109304 0.00271934 -2.34621e-05
-0.000162428 -2.34621e-05 0.000360268
0.0234673 0.00722988 -0.000336791
0.00722988 0.0104891 -0.000541907
-0.000336791 -0.000541907 0.00363463
0.0109804 0.00389677 0.00010739
0.00389677 0.00859993 0.000457851
0.00010739 0.000457851 0.000604674
0.00702831 0.00206806 9.4978e-05
0.00206806 0.0077436 -1.05205e-06
9.4978e-05 -1.05205e-06 -2.80515e-05
-0.00010223 6.72936e-05 2.70604e-05
6.72936e-05 0.00162894 -1.3336e-05
2.70604e-05 -1.3336e-05 -1.46825e-05
0.000994556 6.94717e-05 -0.000292497
6.94717e-05 0.00610758 -6.92796e-06
-0.000292497 -6.92796e-06 0.00349939
0.000591795 -0.000978683 0.000866861
-0.000978683 0.000606723 -0.000284153
0.000866861 -0.000284153 -0.00544055
0.0352487 0.014094 -9.70683e-05
0.014094 0.0243032 -0.000133458
-9.70683e-05 -0.000133458 0.0133573
0.0162267 0.00572633 0.000524044
0.00572633 0.00771233 0.00122418
0.000524044 0.00122418 -0.00157454
0.0117815 -0.00586798 0.000616093
-0.00586798 0.00768996 -0.000380764
0.000616093 -0.000380764 -0.00046842
0.00063426 -0.000802795 -9.0247e-05
-0.000802795 0.00351889 5.57688e-05
-9.0247e-05 5.57688e-05 0.00192805
0.00057437 0.000312154 -9.62702e-06
0.000312154 0.000921091 1.90393e-06
-9.62702e-06 1.90393e-06 0.000299213
-0.000184701 -0.000106424 -6.16085e-07
-0.000106424 0.000667215 -7.11831e-06
-6.16085e-07 -7.11831e-06 -8.07121e-05
0.000555137 -0.000686151 6.11701e-05
-0.000686151 0.000775863 -2.20615e-05
6.11701e-05 -2.20615e-05 -4.56793e-05
0.000156711 -7.41219e-05 -2.74557e-06
-7.41219e-05 0.000278478 1.27211e-05
-2.74557e-06 1.27211e-05 -9.5025e-06
2.01436e-05 -9.68724e-05 4.35527e-06
-9.68724e-05 0.000493455 -1.96294e-05
4.35527e-06 -1.96294e-05 -1.50077e-05
0.00105298 -0.00040377 -3.98768e-06
-0.00040377 0.00092824 -3.37451e-07
-3.98768e-06 -3.37451e-07 0.000548551
0.00143767 -0.000924146 2.96044e-05
-0.000924146 0.000829649 -1.73844e-05
2.96044e-05 -1.73844e-05 0.000261691
0.000480206 -0.000403912 6.84862e-06
-0.000403912 0.0002392 -5.73649e-07
6.84862e-06 -5.73649e-07 -9.17997e-05
0.00115259 -0.000744994 1.9836e-05
-0.000744994 0.000532666 -6.55051e-06
1.9836e-05 -6.55051e-06 -4.47624e-06
0.00120999 -0.000882015 9.78529e-06
-0.000882015 0.000551016 -5.1362e-06
9.78529e-06 -5.1362e-06 -0.000347781
0.000856616 -0.000515985 -6.97866e-06
-0.000515985 0.00027246 -3.26941e-06
-6.97866e-06 -3.26941e-06 -4.49005e-05
0.00266313 -0.00101709 -2.9329e-06
-0.00101709 0.00116527 -8.766e-07
-2.9329e-06 -8.766e-07 0.000458131
0.00158582 -0.00110333 -1.9647e-05
-0.00110333 0.000372806 -9.50171e-07
-1.9647e-05 -9.50171e-07 -0.000432914
0.00274887 -0.00134733 -1.56246e-05
-0.00134733 0.000827852 -2.93433e-07
-1.56246e-05 -2.93433e-07 9.52787e-05
0.00228089 -0.0012022 -5.13018e-06
-0.0012022 0.000758096 -1.22826e-06
-5.13018e-06 -1.22826e-06 5.11895e-05
0.00208885 -0.0010631 -5.615e-06
-0.0010631 0.000718423 3.09965e-07
-5.615e-06 3.09965e-07 3.7857e-05
0.00141129 -0.000757048 1.84603e-06
-0.000757048 0.000435906 -7.45576e-06
1.84603e-06 -7.45576e-06 -9.22513e-05
0.001864 -0.000927095 1.02105e-05
-0.000927095 0.000662554 -9.59314e-06
1.02105e-05 -9.59314e-06 5.60726e-05
0.00181344 -0.000970655 9.99415e-06
-0.000970655 0.000549158 -2.1962e-06
9.99415e-06 -2.1962e-06 -6.67739e-05
0.00163107 -0.000455529 -2.55904e-07
-0.000455529 0.000601935 -6.85152e-07
-2.55904e-07 -6.85152e-07 0.00023578
0.00172343 -0.000712149 5.51012e-06
-0.000712149 0.000649953 -4.05256e-06
5.51012e-06 -4.05256e-06 0.000150533
-8.88761e-05 -0.000631272 -1.33064e-05
-0.000631272 -0.000548241 -8.98047e-08
-1.33064e-05 -8.98047e-08 -0.00106144
0.00014904 -4.78104e-05 -1.49339e-06
-4.78104e-05 -0.000131253 -5.40875e-06
-1.49339e-06 -5.40875e-06 -0.000444344
0.000783963 -0.000281438 3.39809e-07
-0.000281438 0.000146314 -7.34233e-07
3.39809e-07 -7.34233e-07 -0.00015589
0.000122065 -0.000388584 -9.71695e-06
-0.000388584 -0.000328254 -8.62464e-07
-9.71695e-06 -8.62464e-07 -0.000676759
-0.000115346 -0.000131297 -4.56591e-07
-0.000131297 -0.000291365 8.48465e-06
-4.56591e-07 8.48465e-06 -0.000539827
0.000877533 -0.000232829 2.13008e-07
-0.000232829 0.000409175 3.76645e-07
2.13008e-07 3.76645e-07 7.21826e-05
-0.00126141 -0.000282776 -1.4325e-06
-0.000282776 -0.000903191 2.7679e-06
-1.4325e-06 2.7679e-06 -0.00126127
0.00176052 -0.00031485 -2.23366e-06
-0.00031485 0.00094417 2.48511e-06
-2.23366e-06 2.48511e-06 0.000655091
0.000797482 -0.000139039 6.27722e-08
-0.000139039 0.000251647 2.74993e-07
6.27722e-08 2.74993e-07 7.3571e-05
0.000349703 9.09263e-07 2.33276e-06
9.09263e-07 -4.76813e-05 1.52206e-05
2.33276e-06 1.52206e-05 -0.000116651
0.00116482 -0.000127712 -7.86644e-07
-0.000127712 0.000489529 -8.9451e-06
-7.86644e-07 -8.9451e-06 0.000341656
0.000399748 -1.11439e-05 -5.60136e-06
-1.11439e-05 -2.45408e-05 -6.26971e-07
-5.60136e-06 -6.26971e-07 -7.90685e-05
0.00328186 0.000102769 -4.99651e-05
0.000102769 0.00185445 6.57318e-06
-4.99651e-05 6.57318e-06 0.00185405
0.000495475 -4.22618e-05 2.76621e-06
-4.22618e-05 2.57288e-05 -9.72555e-06
2.76621e-06 -9.72555e-06 -1.68068e-05
0.00197489 6.19566e-05 2.95804e-05
6.19566e-05 0.000990394 -5.87979e-07
2.95804e-05 -5.87979e-07 0.000989004
0.00286038 4.90675e-05 4.25453e-05
4.90675e-05 0.00156626 -6.20454e-06
4.25453e-05 -6.20454e-06 0.00157564
0.000956539 0.000161349 3.57134e-06
0.000161349 0.000394208 -9.07861e-06
3.57134e-06 -9.07861e-06 0.000201188
0.000523712 8.0239e-05 4.4282e-06
8.0239e-05 8.59332e-05 -4.54573e-06
4.4282e-06 -4.54573e-06 -3.36494e-05
0.000408279 8.0321e-05 -4.47705e-07
8.0321e-05 5.14173e-05 -5.37932e-07
-4.47705e-07 -5.37932e-07 -0.000129864
0.000428002 2.83011e-05 3.64298e-07
2.83011e-05 -1.49365e-05 -7.97843e-06
3.64298e-07 -7.97843e-06 -4.77781e-05
0.000235857 5.21765e-05 -2.54722e-06
5.21765e-05 -0.000101977 -2.66028e-06
-2.54722e-06 -2.66028e-06 -0.000207584
0.000589363 0.000101389 -2.23856e-06
0.000101389 0.000171631 -2.72093e-06
-2.23856e-06 -2.72093e-06 5.46767e-06
0.00234999 -3.16286e-05 -2.41969e-05
-3.16286e-05 0.00123441 -5.96371e-06
-2.41969e-05 -5.96371e-06 0.00124726
0.000392777 2.16046e-06 1.14489e-06
2.16046e-06 -4.33691e-05 -3.2955e-07
1.14489e-06 -3.2955e-07 -6.65292e-05
8.40571e-05 2.39018e-05 -2.0515e-06
2.39018e-05 -0.00020429 2.27039e-06
-2.0515e-06 2.27039e-06 -0.000297293
0.00218401 -1.44708e-05 -6.19143e-06
-1.44708e-05 0.00112468 1.26302e-07
-6.19143e-06 1.26302e-07 0.00113993
0.000408432 2.42182e-06 -4.75648e-06
2.42182e-06 -3.60916e-05 5.2489e-06
-4.75648e-06 5.2489e-06 -5.29168e-05
0.00214253 1.86888e-06 1.6052e-05
1.86888e-06 0.00109815 5.53985e-06
1.6052e-05 5.53985e-06 0.00111397
0.00284568 -0.000304481 -0.000189791
-0.000304481 0.00196741 1.12439e-05
-0.000189791 1.12439e-05 -0.000408633
-0.00187475 1.94412e-05 0.000172194
1.94412e-05 0.00458 -4.81147e-06
0.000172194 -4.81147e-06 0.00152837
-0.0004875 -0.000429547 0.000144956
-0.000429547 0.00149768 -0.000288609
0.000144956 -0.000288609 -0.00480409
-0.000555547 -4.10669e-05 4.24815e-06
-4.10669e-05 -0.000417257 -6.76574e-06
4.24815e-06 -6.76574e-06 -0.000776461
0.0043509 0.000466829 1.40961e-05
0.000466829 0.00258203 1.1636e-05
1.40961e-05 1.1636e-05 0.00230869
0.000391419 0.000159124 -6.48338e-06
0.000159124 4.51698e-05 -8.63862e-06
-6.48338e-06 -8.63862e-06 -0.000141292
-0.000270397 7.13586e-05 8.23422e-07
7.13586e-05 -0.000363488 -3.6827e-06
8.23422e-07 -3.6827e-06 -0.000588034
0.000215761 0.000114432 7.21527e-09
0.000114432 -0.000112774 -2.4617e-06
7.21527e-09 -2.4617e-06 -0.000254464
0.000678083 0.000146353 6.638e-06
0.000146353 0.000232767 1.53167e-05
6.638e-06 1.53167e-05 2.9105e-05
-0.000306306 7.21592e-05 1.72191e-05
7.21592e-05 -0.000388013 9.52232e-06
1.72191e-05 9.52232e-06 -0.000491561
0.00478978 0.00201773 0.000281637
0.00201773 0.000359579 0.000246734
0.000281637 0.000246734 -0.00225174
0.00777169 -0.000451734 -0.00013267
-0.000451734 0.000579922 4.11717e-05
-0.00013267 4.11717e-05 -0.00227846
0.0057191 -0.00102967 0.000496101
-0.00102967 0.00498955 -0.000133259
0.000496101 -0.000133259 0.00189344
0.0109459 7.7673e-05 -3.42969e-05
7.7673e-05 -0.00419602 0.000211687
-3.42969e-05 0.000211687 -0.0031072
0.00689021 -0.00582972 -0.000173083
-0.00582972 0.000732461 3.89023e-05
-0.000173083 3.89023e-05 0.00153978
-5.05715e-05 -0.00662443 -0.00047746
-0.00662443 0.00219049 0.00018513
-0.00047746 0.00018513 -0.00483509
0.0250162 0.00470581 0.000308783
0.00470581 0.00988977 -0.000288543
0.000308783 -0.000288543 0.00291992
0.00283359 -0.0048689 -9.3711e-05
-0.0048689 0.000839515 5.63585e-05
-9.3711e-05 5.63585e-05 0.000918157
0.000172974 -0.00184978 -0.000112107
-0.00184978 0.00604501 7.04859e-05
-0.000112107 7.04859e-05 -0.00274707
0.014948 0.000207588 0.000372013
0.000207588 0.00572597 -4.3576e-05
0.000372013 -4.3576e-05 0.000196403
0.0196032 -0.00199991 -7.97701e-05
-0.00199991 0.003172 -6.69062e-07
-7.97701e-05 -6.69062e-07 0.00277488
-0.00571932 -0.000668437 -0.000238808
-0.000668437 -0.000673234 0.000240108
-0.000238808 0.000240108 -0.00147647
0.00118052 0.00100098 -0.00025845
0.00100098 0.00605286 -0.000209725
-0.00025845 -0.000209725 -0.00274809
0.00936382 -0.00648624 -4.98649e-05
-0.00648624 0.00316399 -0.000274813
-4.98649e-05 -0.000274813 -0.00493431
0.0206393 -0.00283831 0.000487864
-0.00283831 0.00942597 -0.00079287
0.000487864 -0.00079287 0.00467168
0.000202853 5.35582e-05 3.44855e-05
5.35582e-05 0.00040714 -6.8233e-06
3.44855e-05 -6.8233e-06 -4.77773e-05
0.000627112 0.000205826 -1.043e-06
0.000205826 0.000307646 -3.14136e-06
-1.043e-06 -3.14136e-06 0.000136341
0.000492696 -2.67059e-05 1.04686e-06
-2.67059e-05 0.000229373 -8.96427e-06
1.04686e-06 -8.96427e-06 -5.45158e-06
0.000940182 0.000197615 -5.4271e-06
0.000197615 0.000383233 -1.50347e-05
-5.4271e-06 -1.50347e-05 0.000193473
0.00108523 -0.00201371 8.35046e-05
-0.00201371 0.000921259 2.70875e-05
8.35046e-05 2.70875e-05 -0.000135488
0.000636266 -0.000511121 -3.8425e-06
-0.000511121 0.00113943 -1.12486e-05
-3.8425e-06 -1.12486e-05 0.000304676
0.000241895 8.95587e-05 -3.71886e-05
8.95587e-05 0.000201834 -8.9695e-06
-3.71886e-05 -8.9695e-06 -2.46618e-05
0.00128424 -0.000230962 1.06406e-05
-0.000230962 0.00100804 -4.40662e-05
1.06406e-05 -4.40662e-05 0.000611225
-8.54011e-05 -8.13194e-05 -1.65188e-05
-8.13194e-05 0.00053958 8.47298e-06
-1.65188e-05 8.47298e-06 -4.53281e-05
0.000128231 0.000139593 5.00324e-07
0.000139593 0.000312572 8.47495e-06
5.00324e-07 8.47495e-06 -6.35484e-05
0.00103562 -0.000140351 1.03031e-06
-0.000140351 0.00124976 5.33871e-07
1.03031e-06 5.33871e-07 0.000637327
0.000718413 -0.00127105 3.17319e-05
-0.00127105 0.0017995 -1.42177e-05
3.17319e-05 -1.42177e-05 3.32588e-05
0.000750026 -0.000181603 -3.07016e-06
-0.000181603 0.00160063 -1.84276e-05
-3.07016e-06 -1.84276e-05 0.0008476
0.000616169 0.000145389 8.16089e-06
0.000145389 0.000633443 -1.71411e-05
8.16089e-06 -1.71411e-05 0.000260486
-0.00142616 0.000165614 -0.000239991
0.000165614 0.0024209 -1.78365e-06
-0.000239991 -1.78365e-06 -4.04653e-05
0.00091441 0.000511453 1.68704e-05
0.000511453 0.00141545 -5.20491e-06
1.68704e-05 -5.20491e-06 0.000727402
-0.00376542 -0.00015919 -7.93524e-05
-0.00015919 0.00424227 -0.000109594
-7.93524e-05 -0.000109594 0.0014802
0.00245846 0.000209054 3.97438e-05
0.000209054 0.00127882 2.10987e-05
3.97438e-05 2.10987e-05 -0.00147644
-0.00443042 0.00153786 -0.000116895
0.00153786 0.00357024 -0.000106144
-0.000116895 -0.000106144 7.97954e-05
0.000234901 0.000550368 -1.59837e-05
0.000550368 0.000893541 2.12646e-06
-1.59837e-05 2.12646e-06 0.000226949
-0.00128511 0.00136249 0.00028857
0.00136249 0.0012458 0.000120111
0.00028857 0.000120111 -0.00013018
0.00110872 7.46886e-05 0.000105608
7.46886e-05 0.00256793 -1.14707e-05
0.000105608 -1.14707e-05 0.000533769
0.00663693 -0.00214868 0.000401796
-0.00214868 0.00679434 -0.000239976
0.000401796 -0.000239976 -0.00310953
0.0264173 0.00440461 -0.000388355
0.00440461 0.0102105 0.000277611
-0.000388355 0.000277611 0.00259401
0.00325716 -0.000990388 -0.000474728
-0.000990388 0.00339273 7.18379e-05
-0.000474728 7.18379e-05 0.000556315
0.016784 0.00599045 -0.000387689
0.00599045 0.012049 -0.000326733
-0.000387689 -0.000326733 0.00637358
0.000685578 0.00024481 -5.42352e-05
0.00024481 0.00184077 6.05947e-06
-5.42352e-05 6.05947e-06 0.000263321
-0.000664288 -0.000661017 -0.000160779
-0.000661017 0.00449373 3.49531e-06
-0.000160779 3.49531e-06 0.00215608
0.0021036 -0.00229493 0.000306959
-0.00229493 0.00233688 -6.67217e-05
0.000306959 -6.67217e-05 -0.00358174
-0.00405661 5.85898e-05 9.09576e-05
5.85898e-05 0.000651671 4.49072e-05
9.09576e-05 4.49072e-05 -0.000351618
0.0309263 0.0171112 0.000931857
0.0171112 0.021646 -0.000292327
0.000931857 -0.000292327 0.00983072
0.0137017 0.00361807 -0.000131186
0.00361807 0.00959246 0.000500137
-0.000131186 0.000500137 0.00096263
-0.00118329 -0.00199707 0.000324968
-0.00199707 0.00449826 -0.000219572
0.000324968 -0.000219572 -0.00470969
-0.00263137 -0.000790132 -4.91727e-05
-0.000790132 0.000427486 -4.636e-05
-4.91727e-05 -4.636e-05 -0.00127716
0.00170611 -0.00142255 0.000454539
-0.00142255 0.000187847 -0.000116677
0.000454539 -0.000116677 -0.00478318
0.00389102 0.00408065 -0.0025326
0.00408065 0.0128843 0.000293887
-0.0025326 0.000293887 0.00436212
0.0258873 0.0098483 -0.000590255
0.0098483 0.0113169 0.000452219
-0.000590255 0.000452219 0.00201396
0.00662278 -0.00590922 -0.000326646
-0.00590922 0.0040958 0.000163791
-0.000326646 0.000163791 0.000221671
0.00374294 -0.00308592 9.75443e-05
-0.00308592 0.00469959 3.82456e-05
9.75443e-05 3.82456e-05 0.00277654
-2.81371e-05 -0.000116517 7.81389e-06
-0.000116517 0.00068932 -2.19053e-05
7.81389e-06 -2.19053e-05 -0.000124087
0.000201577 -0.000529432 5.01437e-07
-0.000529432 0.000715478 -1.47468e-06
5.01437e-07 -1.47468e-06 -0.000169334
0.000221482 -0.0012945 -4.89018e-06
-0.0012945 0.000383106 1.23292e-05
-4.89018e-06 1.23292e-05 -0.000414794
-0.000213021 -0.000239638 -1.07472e-06
-0.000239638 0.000326032 1.11089e-05
-1.07472e-06 1.11089e-05 -6.64032e-05
0.000191259 -0.000645246 -4.83459e-06
-0.000645246 0.000310645 3.77874e-06
-4.83459e-06 3.77874e-06 -0.000200774
0.00207317 -0.0011036 3.55998e-05
-0.0011036 0.00084161 -2.49512e-05
3.55998e-05 -2.49512e-05 0.000228262
0.00621958 -0.00150342 -9.71897e-06
-0.00150342 0.00330139 5.09436e-06
-9.71897e-06 5.09436e-06 0.00264597
0.00274859 -0.00113071 1.23871e-05
-0.00113071 0.00131257 -4.73855e-06
1.23871e-05 -4.73855e-06 0.000411832
0.00275102 -0.00143231 3.3467e-06
-0.00143231 0.000902086 -2.08689e-05
3.3467e-06 -2.08689e-05 -8.53829e-06
0.00291647 -0.00105356 -7.53645e-06
-0.00105356 0.00127768 -8.18746e-06
-7.53645e-06 -8.18746e-06 0.000583583
0.0022614 -0.00121287 6.24749e-07
-0.00121287 0.00073087 -2.49853e-06
6.24749e-07 -2.49853e-06 -0.000102466
0.00302077 -0.00144667 -8.89341e-06
-0.00144667 0.000976312 -1.02319e-05
-8.89341e-06 -1.02319e-05 0.000172163
0.0026033 -0.0010309 -2.52318e-06
-0.0010309 0.000497896 -6.60854e-06
-2.52318e-06 -6.60854e-06 -5.47191e-06
0.00314843 -0.00136225 -1.04313e-05
-0.00136225 0.00102246 -1.59604e-06
-1.04313e-05 -1.59604e-06 0.000320636
0.00298569 -0.00137901 -4.59212e-06
-0.00137901 0.000955568 -4.5717e-07
-4.59212e-06 -4.5717e-07 0.000212788
0.00239327 -0.00120137 8.76095e-06
-0.00120137 0.000843488 -7.91208e-06
8.76095e-06 -7.91208e-06 0.000152351
0.00194629 -0.00112994 3.62889e-06
-0.00112994 0.000573061 -1.20382e-06
3.62889e-06 -1.20382e-06 -0.000104011
0.00211301 -0.00106039 9.67393e-06
-0.00106039 0.000715792 -3.49316e-06
9.67393e-06 -3.49316e-06 3.72176e-05
0.00174314 -0.000796594 1.40154e-05
-0.000796594 0.000655407 -1.39943e-06
1.40154e-05 -1.39943e-06 8.82077e-05
0.00180616 -0.000921219 -1.43457e-06
-0.000921219 0.000635272 -1.61422e-06
-1.43457e-06 -1.61422e-06 3.02981e-05
0.00187722 -0.00099381 8.27242e-07
-0.00099381 0.000593086 6.93038e-06
8.27242e-07 6.93038e-06 -3.00548e-05
0.00201935 -0.000291527 1.97726e-06
-0.000291527 0.000993498 -4.74965e-06
1.97726e-06 -4.74965e-06 0.000668492
0.000972096 -0.000356588 -6.36887e-06
-0.000356588 0.000235061 3.61417e-06
-6.36887e-06 3.61417e-06 -0.000120407
0.0016472 -0.000691809 -9.56285e-06
-0.000691809 0.000582411 -5.32813e-06
-9.56285e-06 -5.32813e-06 9.32097e-05
0.000241995 -0.000117371 9.04877e-07
-0.000117371 -0.000108416 1.00867e-06
9.04877e-07 1.00867e-06 -0.000387026
0.000521778 -0.00016142 -9.69936e-07
-0.00016142 9.31893e-05 1.17167e-06
-9.69936e-07 1.17167e-06 -0.000221397
0.000446333 -0.000226963 4.1544e-06
-0.000226963 -6.96905e-06 -3.39284e-07
4.1544e-06 -3.39284e-07 -0.000343204
0.000301607 -6.96988e-05 -1.43506e-05
-6.96988e-05 -0.000100795 2.01179e-05
-1.43506e-05 2.01179e-05 -0.000177408
0.000800659 -0.000138821 2.04964e-07
-0.000138821 0.000272541 7.40205e-07
2.04964e-07 7.40205e-07 3.7094e-05
0.00185036 -0.000361566 -1.06578e-06
-0.000361566 0.00101638 3.04168e-06
-1.06578e-06 3.04168e-06 0.000680591
0.00112651 -0.000151302 -5.07882e-08
-0.000151302 0.000456344 -8.8994e-06
-5.07882e-08 -8.8994e-06 0.000277679
0.000401284 -2.81123e-05 -2.68504e-07
-2.81123e-05 -2.626e-05 -4.58453e-07
-2.68504e-07 -4.58453e-07 -9.06594e-05
0.00359044 0.00013846 -5.29265e-05
0.00013846 0.00206911 7.26364e-06
-5.29265e-05 7.26364e-06 0.00205932
0.000446212 -3.90557e-05 3.94619e-06
-3.90557e-05 -1.86174e-06 -1.24222e-05
3.94619e-06 -1.24222e-05 -5.25147e-05
0.00324468 0.000102581 8.11888e-06
0.000102581 0.00183003 9.23825e-07
8.11888e-06 9.23825e-07 0.00182959
0.00292479 7.09605e-05 4.75622e-05
7.09605e-05 0.00161089 -6.28364e-06
4.75622e-05 -6.28364e-06 0.00161762
0.00286939 8.75937e-05 1.24843e-05
8.75937e-05 0.00182868 -8.37731e-06
1.24843e-05 -8.37731e-06 0.00141895
0.00237086 0.00024095 1.07878e-05
0.00024095 0.00146365 -2.08369e-05
1.07878e-05 -2.08369e-05 0.00112813
0.000593575 7.87426e-05 5.83199e-06
7.87426e-05 0.000123477 -8.2741e-06
5.83199e-06 -8.2741e-06 -1.10972e-05
0.000779814 0.000172086 -1.86752e-07
0.000172086 0.000308307 1.55007e-06
-1.86752e-07 1.55007e-06 0.000100713
0.000438592 -1.83145e-05 6.03605e-06
-1.83145e-05 -5.61762e-06 -9.64872e-06
6.03605e-06 -9.64872e-06 -4.50222e-05
0.000569134 8.75069e-05 1.3186e-08
8.75069e-05 0.000118987 -3.92977e-07
1.3186e-08 -3.92977e-07 -1.5575e-06
0.000688159 7.94976e-05 -6.83879e-06
7.94976e-05 0.000225017 -3.18862e-06
-6.83879e-06 -3.18862e-06 4.84823e-05
0.00267609 -5.0552e-05 -3.31885e-05
-5.0552e-05 0.00145144 -6.41656e-06
-3.31885e-05 -6.41656e-06 0.00146067
0.000426952 4.72223e-06 -2.19788e-06
4.72223e-06 -1.64999e-05 -2.91698e-07
-2.19788e-06 -2.91698e-07 -4.80474e-05
0.000530894 8.18388e-05 -5.73531e-06
8.18388e-05 9.41761e-05 1.92872e-06
-5.73531e-06 1.92872e-06 -1.3476e-05
0.00237661 -3.26629e-05 -5.77008e-06
-3.26629e-05 0.00125192 3.3522e-07
-5.77008e-06 3.3522e-07 0.00126467
0.000418735 3.95309e-06 -4.1368e-06
3.95309e-06 -2.78748e-05 5.83706e-06
-4.1368e-06 5.83706e-06 -5.01684e-05
0.00219026 -1.44845e-05 1.89507e-05
-1.44845e-05 0.00112844 5.54725e-06
1.89507e-05 5.54725e-06 0.0011437
-0.00234551 0.00109589 -4.24146e-05
0.00109589 0.00284093 -0.00014595
-4.24146e-05 -0.00014595 -0.000231258
0.00436575 -0.000389357 -3.53727e-05
-0.000389357 0.00301921 -6.93565e-05
-3.53727e-05 -6.93565e-05 0.000867663
0.00030112 -0.000493234 6.72589e-05
-0.000493234 0.00452409 -7.58499e-05
6.72589e-05 -7.58499e-05 0.00193079
0.000565561 9.26392e-06 2.78812e-06
9.26392e-06 0.000392971 -8.04347e-06
2.78812e-06 -8.04347e-06 -5.30254e-05
2.69439e-05 0.00027984 1.23704e-05
0.00027984 -0.000120361 -7.63309e-06
1.23704e-05 -7.63309e-06 -0.000382521
-0.00262146 4.70936e-05 3.12744e-05
4.70936e-05 -0.00199816 -1.95679e-05
3.12744e-05 -1.95679e-05 -0.00217848
-0.00272793 -2.71931e-05 -4.32641e-06
-2.71931e-05 -0.00165608 2.2667e-05
-4.32641e-06 2.2667e-05 -0.00209632
0.00174815 0.000417344 9.64363e-06
0.000417344 0.000889533 -4.62278e-06
9.64363e-06 -4.62278e-06 0.000590303
0.000601467 6.5554e-05 -8.58736e-06
6.5554e-05 0.000195743 3.71795e-07
-8.58736e-06 3.71795e-07 -4.72173e-05
8.10235e-05 0.000114442 -1.14774e-05
0.000114442 -0.000169724 -1.61599e-05
-1.14774e-05 -1.61599e-05 -0.000311835
0.00131345 -1.81236e-06 8.26816e-06
-1.81236e-06 0.000631359 2.39095e-06
8.26816e-06 2.39095e-06 0.000432614
0.000895589 0.000194699 -3.89927e-06
0.000194699 0.000399369 -7.33458e-06
-3.89927e-06 -7.33458e-06 0.000283531
0.00277061 0.000218994 -3.97916e-06
0.000218994 0.00180694 -1.27846e-05
-3.97916e-06 -1.27846e-05 0.00144719
0.00971707 0.00296175 0.000846122
0.00296175 0.00633253 0.00062646
0.000846122 0.00062646 0.000958795
0.00428476 0.00162689 2.65236e-05
0.00162689 0.00154977 7.92721e-05
2.65236e-05 7.92721e-05 -0.00137605
0.00779837 -0.000353639 0.00017693
-0.000353639 0.000275375 -1.06369e-06
0.00017693 -1.06369e-06 -0.00166811
0.0150915 -0.00072502 -0.00029359
-0.00072502 0.00240088 -0.000133117
-0.00029359 -0.000133117 0.0037546
0.00392613 0.000780456 0.000155424
0.000780456 -0.000884529 0.000480488
0.000155424 0.000480488 -0.0071546
0.00312458 -0.00491896 -0.000104708
-0.00491896 0.00162453 1.9425e-05
-0.000104708 1.9425e-05 0.00131069
0.00402457 -0.00232085 -0.000399804
-0.00232085 0.00585061 0.000128595
-0.000399804 0.000128595 -0.000831184
-0.000813269 -0.0018304 -0.00010956
-0.0018304 0.00111702 0.000143381
-0.00010956 0.000143381 3.50021e-05
0.0121521 -0.000357038 -0.000364851
-0.000357038 0.0089719 -1.84709e-06
-0.000364851 -1.84709e-06 0.00100586
0.00973885 -0.00331745 0.00017255
-0.00331745 0.00613888 0.00027909
0.00017255 0.00027909 -0.00141058
0.0280734 -0.00613867 0.000203033
-0.00613867 0.00988205 -0.000989467
0.000203033 -0.000989467 0.00270067
-0.000801609 0.000463301 -0.000218305
0.000463301 0.00277379 0.000129164
-0.000218305 0.000129164 0.000613226
0.00508877 0.00224715 -0.000323205
0.00224715 0.00685746 -0.000116429
-0.000323205 -0.000116429 -0.000132177
0.0294559 -0.0105116 0.000636301
-0.0105116 0.0168702 -0.00111436
0.000636301 -0.00111436 0.00648232
0.0336839 -0.0158622 8.49071e-05
-0.0158622 0.020131 -7.81764e-05
8.49071e-05 -7.81764e-05 0.00887127
5.48978e-05 0.000404338 3.69242e-05
0.000404338 0.000198169 2.07335e-05
3.69242e-05 2.07335e-05 -0.000316047
-0.000225264 7.55189e-05 1.30573e-05
7.55189e-05 0.000218838 2.45419e-06
1.30573e-05 2.45419e-06 -0.000295268
0.000888614 0.000187914 -2.84432e-05
0.000187914 0.00047439 -1.49821e-05
-2.84432e-05 -1.49821e-05 0.000296908
0.00310283 -0.00168269 9.78864e-05
-0.00168269 0.00277244 -9.85965e-07
9.78864e-05 -9.85965e-07 0.000605575
-0.00147834 -0.000188817 0.000118977
-0.000188817 0.000609398 1.50045e-05
0.000118977 1.50045e-05 -0.000278019
-0.000195389 0.000121 -1.8043e-05
0.000121 8.72941e-05 1.23607e-05
-1.8043e-05 1.23607e-05 -0.000275293
-0.000263961 -0.000278348 1.19231e-05
-0.000278348 0.000627336 -4.11087e-06
1.19231e-05 -4.11087e-06 -0.000155803
-0.000328347 0.000166361 -9.48353e-06
0.000166361 0.000105794 2.13312e-06
-9.48353e-06 2.13312e-06 -0.000278078
-0.000478402 0.000356444 2.92824e-05
0.000356444 0.000450696 8.15665e-06
2.92824e-05 8.15665e-06 -0.000278801
-0.00269242 0.000121059 0.00018249
0.000121059 0.00154171 -8.81161e-05
0.00018249 -8.81161e-05 -0.000748741
0.00191808 0.000979455 5.87255e-05
0.000979455 0.00104683 5.59914e-05
5.87255e-05 5.59914e-05 0.000502474
0.0015426 0.0012326 -0.00012049
0.0012326 0.00202984 -0.00013494
-0.00012049 -0.00013494 4.42253e-05
5.97009e-05 -0.000479515 0.000325113
-0.000479515 0.00172057 0.000124578
0.000325113 0.000124578 -0.00397667
-0.00333445 0.000664869 -0.000204583
0.000664869 0.00405145 -6.07867e-06
-0.000204583 -6.07867e-06 0.000567728
0.00507444 -0.000525505 -0.00013625
-0.000525505 0.00316726 5.21331e-06
-0.00013625 5.21331e-06 0.00189359
0.000512914 0.000699893 7.48856e-05
0.000699893 0.001398 2.18427e-05
7.48856e-05 2.18427e-05 -0.000262823
0.000297429 0.000362182 -0.000101334
0.000362182 0.00324769 0.000114808
-0.000101334 0.000114808 0.00107466
-0.00133295 -0.000223917 -4.04409e-05
-0.000223917 0.00347671 -7.31609e-05
-4.04409e-05 -7.31609e-05 0.000693056
0.0144269 -0.00631314 0.000426244
-0.00631314 0.00958444 -0.000270443
0.000426244 -0.000270443 0.000708159
0.0297327 0.00857768 -0.000746367
0.00857768 0.0165844 -0.000357222
-0.000746367 -0.000357222 0.00606771
0.00688046 -0.00298491 -0.00055964
-0.00298491 0.00388953 0.000359436
-0.00055964 0.000359436 -0.00102586
0.0238494 0.0205662 0.00307206
0.0205662 0.0174625 -0.00185698
0.00307206 -0.00185698 0.00514321
4.9758e-05 -0.000859017 4.34842e-05
-0.000859017 0.00164835 -1.07028e-05
4.34842e-05 -1.07028e-05 -9.84422e-05
0.000147683 -0.000947293 9.73506e-05
-0.000947293 0.0011953 6.17089e-06
9.73506e-05 6.17089e-06 -0.00444918
0.00731801 0.00474597 -0.0016806
0.00474597 0.0121791 0.000197404
-0.0016806 0.000197404 0.00318013
0.000231106 -0.00177666 5.51399e-05
-0.00177666 0.00222605 3.05266e-05
5.51399e-05 3.05266e-05 0.000784613
0.0285604 0.00974142 0.000533506
0.00974142 0.012431 0.000231311
0.000533506 0.000231311 0.00313476
0.00554768 -0.00860324 0.000431206
-0.00860324 0.00297944 -0.000119269
0.000431206 -0.000119269 -0.00196205
-0.000534681 -0.00223972 1.86802e-05
-0.00223972 0.000535839 5.13452e-05
1.86802e-05 5.13452e-05 -0.00105719
-0.00102279 -0.00160196 0.000212862
-0.00160196 0.0100378 -0.000131704
0.000212862 -0.000131704 0.00412076
0.0222211 0.0105759 -0.00241529
0.0105759 0.00992787 0.000334162
-0.00241529 0.000334162 0.00220863
0.0044775 -0.00744754 -0.000862099
-0.00744754 -0.00284295 0.000271619
-0.000862099 0.000271619 -0.00405878
-0.000822946 -0.00309223 0.000211418
-0.00309223 -0.000170339 -0.000174669
0.000211418 -0.000174669 0.000676448
0.00169392 -0.000724978 -0.00013055
-0.000724978 0.00137834 4.96202e-05
-0.00013055 4.96202e-05 0.000525151
0.000139673 -0.00105558 -1.42476e-05
-0.00105558 0.000420696 1.22494e-05
-1.42476e-05 1.22494e-05 -0.000366861
0.000206891 -0.0011056 8.62939e-06
-0.0011056 -7.61293e-05 -2.52468e-05
8.62939e-06 -2.52468e-05 -0.000698336
-0.00110975 -0.000357534 1.20552e-05
-0.000357534 -0.000223977 4.47171e-06
1.20552e-05 4.47171e-06 -0.000687111
0.000720159 -0.000926685 6.26467e-06
-0.000926685 0.00014608 -1.94631e-06
6.26467e-06 -1.94631e-06 -0.000418274
0.00329295 -0.00154684 5.93268e-06
-0.00154684 0.000943322 -1.25901e-05
5.93268e-06 -1.25901e-05 0.000352987
0.00465075 -0.00143747 -3.29358e-05
-0.00143747 0.00227273 8.74563e-06
-3.29358e-05 8.74563e-06 0.00136131
0.00221671 -0.00131904 -4.69762e-06
-0.00131904 0.000597112 -1.15514e-06
-4.69762e-06 -1.15514e-06 -0.000271666
0.00312502 -0.00156871 4.04662e-06
-0.00156871 0.00078669 -8.68711e-06
4.04662e-06 -8.68711e-06 6.71892e-05
0.00326997 -0.00136737 9.5912e-06
-0.00136737 0.00127626 4.17189e-06
9.5912e-06 4.17189e-06 0.000412478
0.00278323 -0.00139965 3.84226e-06
-0.00139965 0.000841278 -3.61996e-06
3.84226e-06 -3.61996e-06 6.15793e-05
0.00283747 -0.00110673 -2.6079e-06
-0.00110673 0.000587473 -6.69439e-06
-2.6079e-06 -6.69439e-06 8.15545e-05
0.00210736 -0.000665303 -1.00135e-06
-0.000665303 3.92386e-05 -2.4357e-06
-1.00135e-06 -2.4357e-06 -0.000221339
0.00217031 -0.000989034 6.69019e-07
-0.000989034 0.000175946 -3.78479e-06
6.69019e-07 -3.78479e-06 -0.00031562
0.00256401 -0.00103775 4.02317e-06
-0.00103775 0.000457624 -2.06432e-06
4.02317e-06 -2.06432e-06 -4.73086e-05
0.00302644 -0.00122381 -2.69397e-06
-0.00122381 0.00100515 -3.51624e-06
-2.69397e-06 -3.51624e-06 0.000368578
0.00312618 -0.00136008 -4.47947e-06
-0.00136008 0.00101413 -4.28446e-07
-4.47947e-06 -4.28446e-07 0.000306838
0.00283103 -0.00135787 1.13273e-05
-0.00135787 0.000862238 -3.47375e-06
1.13273e-05 -3.47375e-06 0.000120604
0.00223945 -0.00107422 6.82248e-06
-0.00107422 0.000795634 -9.53346e-06
6.82248e-06 -9.53346e-06 0.000132443
0.00210875 -0.00115936 1.63367e-06
-0.00115936 0.000687084 -8.91631e-07
1.63367e-06 -8.91631e-07 7.56798e-06
0.00161713 -0.00106366 4.51124e-06
-0.00106366 0.000390064 2.30924e-06
4.51124e-06 2.30924e-06 -0.000259248
0.00281887 -0.000569061 7.51388e-06
-0.000569061 0.00140976 8.81176e-06
7.51388e-06 8.81176e-06 0.00100096
0.00133886 -0.000735544 5.27539e-07
-0.000735544 0.000436968 2.74529e-06
5.27539e-07 2.74529e-06 -0.000108107
0.00212624 -0.00095457 -8.29033e-06
-0.00095457 0.000843105 9.42411e-06
-8.29033e-06 9.42411e-06 0.000232074
0.000679497 -0.000248991 -2.76341e-06
-0.000248991 0.000100127 -6.96523e-06
-2.76341e-06 -6.96523e-06 -0.000144566
0.000580212 -0.000254631 -2.33639e-06
-0.000254631 7.2783e-05 -5.79407e-06
-2.33639e-06 -5.79407e-06 -0.000247801
0.0010079 -0.000243147 -1.86502e-06
-0.000243147 0.000286487 -4.89572e-07
-1.86502e-06 -4.89572e-07 -5.1334e-05
0.00230814 -6.6519e-05 -7.89617e-05
-6.6519e-05 0.00119476 1.32965e-05
-7.89617e-05 1.32965e-05 0.00111364
0.000455936 -0.000190563 2.08887e-06
-0.000190563 1.69487e-05 1.63682e-06
2.08887e-06 1.63682e-06 -0.000250948
0.00103853 -0.000285829 1.02354e-06
-0.000285829 0.000418419 4.60703e-06
1.02354e-06 4.60703e-06 9.50109e-05
0.000953401 6.43358e-06 -8.60088e-05
6.43358e-06 0.000336266 9.42982e-06
-8.60088e-05 9.42982e-06 0.00031917
0.00125475 -5.56468e-05 -2.58527e-05
-5.56468e-05 0.000524667 -7.47997e-07
-2.58527e-05 -7.47997e-07 0.000445824
0.00142978 -0.000165745 9.70884e-07
-0.000165745 0.000657374 -7.35447e-06
9.70884e-07 -7.35447e-06 0.000432142
0.000563015 -4.82841e-05 8.75503e-06
-4.82841e-05 7.05322e-05 -1.45349e-05
8.75503e-06 -1.45349e-05 6.15914e-06
0.00377737 0.0001346 1.34707e-05
0.0001346 0.00219077 1.1009e-06
1.34707e-05 1.1009e-06 0.00218251
0.00341493 0.00010034 5.97886e-05
0.00010034 0.00194097 -6.85722e-06
5.97886e-05 -6.85722e-06 0.00194109
-0.000667243 0.000125066 1.45699e-06
0.000125066 -0.000649296 1.34325e-05
1.45699e-06 1.34325e-05 -0.000939614
0.0024316 0.000267357 6.86646e-06
0.000267357 0.00151722 -1.93384e-05
6.86646e-06 -1.93384e-05 0.00111783
-0.000734108 6.88412e-05 5.22532e-06
6.88412e-05 -0.000477867 -1.26015e-06
5.22532e-06 -1.26015e-06 -0.000869229
0.000775108 0.000111625 5.65704e-07
0.000111625 0.000248551 -1.20913e-05
5.65704e-07 -1.20913e-05 8.27027e-05
0.000551143 0.000160957 4.32314e-06
0.000160957 0.00022306 -8.43613e-07
4.32314e-06 -8.43613e-07 -6.24456e-05
0.000356382 1.60718e-05 -1.903e-06
1.60718e-05 -4.60031e-05 -1.32934e-05
-1.903e-06 -1.32934e-05 -9.62967e-05
0.00053114 8.61254e-05 -2.34896e-07
8.61254e-05 9.28856e-05 -1.354e-08
-2.34896e-07 -1.354e-08 -4.62693e-05
0.000765924 0.000100015 -5.71202e-06
0.000100015 0.000322999 6.81258e-06
-5.71202e-06 6.81258e-06 0.000103869
0.0029284 -7.00581e-05 -4.39067e-05
-7.00581e-05 0.00162197 -6.58103e-06
-4.39067e-05 -6.58103e-06 0.00162801
0.00037125 1.15376e-05 -7.09197e-07
1.15376e-05 -4.5767e-05 1.07197e-08
-7.09197e-07 1.07197e-08 -8.60142e-05
0.000393473 8.39997e-05 -3.353e-06
8.39997e-05 5.65823e-06 5.06973e-06
-3.353e-06 5.06973e-06 -0.000113579
0.00257123 -5.23798e-05 -8.09304e-06
-5.23798e-05 0.00138284 5.30364e-07
-8.09304e-06 5.30364e-07 0.00139199
0.000320603 -1.85496e-05 -8.20397e-06
-1.85496e-05 -8.57816e-05 7.30991e-06
-8.20397e-06 7.30991e-06 -0.000116202
0.00229345 -3.08835e-05 2.38155e-05
-3.08835e-05 0.00119727 5.72325e-06
2.38155e-05 5.72325e-06 0.00121076
0.00688004 0.00159858 0.000644873
0.00159858 0.00555645 0.00015919
0.000644873 0.00015919 0.00164275
-0.00218697 0.000990578 -2.3563e-05
0.000990578 0.00243519 -1.42528e-05
-2.3563e-05 -1.42528e-05 -0.000937491
0.000547883 0.00121896 -5.83383e-06
0.00121896 0.00312301 -2.34535e-05
-5.83383e-06 -2.34535e-05 0.000268527
-6.35229e-05 0.000367884 -1.44145e-05
0.000367884 -0.000320995 1.39961e-05
-1.44145e-05 1.39961e-05 -0.00065755
-0.00065987 4.25045e-05 -1.49977e-05
4.25045e-05 -0.000479442 2.9927e-05
-1.49977e-05 2.9927e-05 -0.000863543
0.000296009 0.000150811 -2.14577e-05
0.000150811 2.79569e-05 -1.08474e-05
-2.14577e-05 -1.08474e-05 -0.000170961
0.00177505 0.000160517 1.06926e-05
0.000160517 0.00103171 1.66913e-07
1.06926e-05 1.66913e-07 0.000728262
0.000955028 0.000304435 -4.54182e-07
0.000304435 0.000236975 -1.21343e-05
-4.54182e-07 -1.21343e-05 3.13277e-05
0.00233768 0.000497965 -2.09524e-05
0.000497965 0.00127014 -8.95612e-06
-2.09524e-05 -8.95612e-06 0.00105234
0.00144921 0.000428612 1.67085e-05
0.000428612 0.00061287 -2.51352e-05
1.67085e-05 -2.51352e-05 0.000235498
-0.00238148 0.000158963 -1.5903e-05
0.000158963 -0.00121598 1.54179e-06
-1.5903e-05 1.54179e-06 -0.00164346
-0.000817942 -2.87033e-06 -4.24287e-06
-2.87033e-06 -0.000668354 -1.94878e-05
-4.24287e-06 -1.94878e-05 -0.000885954
-0.000433013 6.17025e-05 -1.23859e-05
6.17025e-05 -0.000529676 -1.56991e-05
-1.23859e-05 -1.56991e-05 -0.000580374
-0.000953138 5.39263e-05 -8.02588e-06
5.39263e-05 -0.000482627 2.3159e-06
-8.02588e-06 2.3159e-06 -0.000852134
0.000131028 0.000379929 -1.78826e-06
0.000379929 0.00031639 1.56555e-05
-1.78826e-06 1.56555e-05 -0.000312146
0.0107852 -0.00862065 -0.000160758
-0.00862065 0.012054 0.000198355
-0.000160758 0.000198355 0.000863655
0.00990768 0.00351786 0.000295668
0.00351786 0.00458549 0.00020815
0.000295668 0.00020815 -0.00163024
0.00470725 0.000939321 7.80655e-05
0.000939321 0.00243721 -6.95669e-05
7.80655e-05 -6.95669e-05 -0.000849958
0.0401988 -0.00981117 -0.00144516
-0.00981117 0.0141089 -0.00049859
-0.00144516 -0.00049859 0.00560997
0.00630725 -0.00133788 0.000350695
-0.00133788 0.00549762 0.000639607
0.000350695 0.000639607 -1.29584e-05
0.00135112 -0.000943549 -0.000228783
-0.000943549 0.0059436 0.000186399
-0.000228783 0.000186399 -0.00292669
9.99645e-05 -0.00237709 2.51001e-05
-0.00237709 0.00221665 8.85653e-05
2.51001e-05 8.85653e-05 0.000282207
-0.00117198 -0.000167797 0.000205913
-0.000167797 0.00215612 4.14277e-05
0.000205913 4.14277e-05 0.000629102
0.0308125 -0.0181466 0.000511952
-0.0181466 0.0192604 0.000561074
0.000511952 0.000561074 0.00724404
0.0040393 0.00268019 -0.000230547
0.00268019 0.00616399 -0.000142335
-0.000230547 -0.000142335 -0.00179648
0.013163 -0.00571688 -0.000164004
-0.00571688 0.0107284 0.000191264
-0.000164004 0.000191264 0.000379165
-0.000493204 0.00120363 8.1447e-06
0.00120363 0.00174035 5.98905e-06
8.1447e-06 5.98905e-06 0.000525227
0.00612399 0.00649722 -0.000247677
0.00649722 0.00304241 3.8576e-06
-0.000247677 3.8576e-06 -0.00128445
0.0268582 -0.00925108 -0.00122141
-0.00925108 0.0117409 -0.000338052
-0.00122141 -0.000338052 0.00198888
0.00149967 0.0009279 2.08826e-05
0.0009279 0.00057147 2.66155e-05
2.08826e-05 2.66155e-05 0.000305393
0.000827269 0.000429467 7.09138e-06
0.000429467 0.000687817 3.82462e-06
7.09138e-06 3.82462e-06 0.000131108
-0.000451681 5.13329e-05 -4.35718e-05
5.13329e-05 8.79641e-05 2.79876e-06
-4.35718e-05 2.79876e-06 -0.000436063
-0.00211039 -0.000280243 -0.000139888
-0.000280243 0.00172351 -2.85589e-05
-0.000139888 -2.85589e-05 -0.000411366
0.00163688 0.000462355 -4.68656e-05
0.000462355 0.00110569 -6.07339e-06
-4.68656e-05 -6.07339e-06 0.000555958
-0.000115915 0.000246622 -8.12705e-06
0.000246622 0.000230886 7.45974e-06
-8.12705e-06 7.45974e-06 -0.000206685
0.0015178 0.000921756 6.599e-06
0.000921756 0.000807844 -2.73761e-07
6.599e-06 -2.73761e-07 0.00027522
-4.84099e-05 0.00104062 -9.70065e-06
0.00104062 0.00128589 -5.43379e-05
-9.70065e-06 -5.43379e-05 -0.000441115
0.00267979 0.00266756 0.000122186
0.00266756 0.00117566 3.3633e-05
0.000122186 3.3633e-05 -0.000326543
-0.00688259 0.0011864 0.00061639
0.0011864 0.00658689 -4.66374e-05
0.00061639 -4.66374e-05 -0.00292385
0.00184949 -0.000825914 -3.71314e-05
-0.000825914 0.00266018 0.000101783
-3.71314e-05 0.000101783 -0.00126928
-0.00303541 0.000132509 -4.86974e-05
0.000132509 0.00319095 0.000116354
-4.86974e-05 0.000116354 -0.000105806
-0.00149087 -0.000507551 -5.93596e-05
-0.000507551 0.000849019 1.03738e-05
-5.93596e-05 1.03738e-05 -0.000923102
-0.00172766 -0.00118714 -5.37199e-05
-0.00118714 0.000619633 3.56723e-05
-5.37199e-05 3.56723e-05 0.000276891
-0.00193409 -0.00133712 -0.000297648
-0.00133712 0.00152723 0.000204343
-0.000297648 0.000204343 -0.0045212
-0.00177867 -0.00653309 0.000351908
-0.00653309 0.00280014 -0.00020741
0.000351908 -0.00020741 -0.00483766
0.0202483 0.00783093 0.0010001
0.00783093 0.00688814 -0.000383232
0.0010001 -0.000383232 -0.00187738
0.021801 0.00964719 -0.000411103
0.00964719 0.0143082 0.000590981
-0.000411103 0.000590981 0.00336878
0.000630986 -0.00168017 -4.76569e-05
-0.00168017 0.00175713 1.27094e-05
-4.76569e-05 1.27094e-05 0.000241599
0.00579737 0.0024737 0.000381296
0.0024737 0.0124345 -7.42895e-05
0.000381296 -7.42895e-05 0.00444468
0.00801734 0.00722891 3.90111e-05
0.00722891 0.00351308 0.000114497
3.90111e-05 0.000114497 -0.00272011
0.00238527 -0.00502933 7.70669e-05
-0.00502933 0.000994059 -6.16369e-05
7.70669e-05 -6.16369e-05 0.00089362
0.0124762 -0.00803714 -2.99297e-07
-0.00803714 -0.000412794 1.83446e-05
-2.99297e-07 1.83446e-05 -0.00154199
0.00328432 -0.00286851 2.58088e-05
-0.00286851 0.00154223 1.95088e-05
2.58088e-05 1.95088e-05 0.000744923
-0.0043085 0.00334774 -0.00136812
0.00334774 0.000374174 0.000174268
-0.00136812 0.000174268 -0.00605375
0.0158429 -0.00517883 -0.000376085
-0.00517883 -0.00117976 7.8928e-05
-0.000376085 7.8928e-05 -0.000964659
0.00467377 -0.00486658 0.000125577
-0.00486658 -0.000341131 -0.000100104
0.000125577 -0.000100104 0.00118287
0.000505788 -0.000865492 1.26639e-07
-0.000865492 0.000741881 -4.51476e-06
1.26639e-07 -4.51476e-06 -6.47483e-05
0.00221601 -0.00159045 3.49238e-05
-0.00159045 0.000808377 -1.36747e-05
3.49238e-05 -1.36747e-05 0.000193861
0.00176634 -0.0013017 4.84046e-06
-0.0013017 0.000144107 -1.28459e-05
4.84046e-06 -1.28459e-05 -0.000336661
-0.000221014 -0.000817922 -4.64929e-06
-0.000817922 -0.000341723 1.52141e-05
-4.64929e-06 1.52141e-05 -0.000872603
0.00225951 -0.00143722 -7.81272e-06
-0.00143722 0.000407008 -7.88962e-08
-7.81272e-06 -7.88962e-08 -0.000180722
0.00358551 -0.00157447 2.58777e-06
-0.00157447 0.000866482 -3.60323e-06
2.58777e-06 -3.60323e-06 0.000309609
0.00147814 -0.00117716 -8.3519e-06
-0.00117716 0.000176113 1.02898e-05
-8.3519e-06 1.02898e-05 -0.000651763
0.00280005 -0.00151688 -4.36956e-07
-0.00151688 0.000617347 3.97331e-06
-4.36956e-07 3.97331e-06 -9.61456e-05
0.00285081 -0.00117024 -1.74066e-07
-0.00117024 0.000387478 -2.53671e-06
-1.74066e-07 -2.53671e-06 -1.42948e-05
0.00235498 -0.00132939 1.06789e-05
-0.00132939 0.000597453 4.26494e-06
1.06789e-05 4.26494e-06 -0.000154326
0.00248285 -0.00105083 -2.32175e-06
-0.00105083 0.000387152 2.37235e-06
-2.32175e-06 2.37235e-06 -0.000100041
0.00237178 -0.000741273 1.02946e-06
-0.000741273 8.61446e-05 -9.6884e-07
1.02946e-06 -9.6884e-07 -0.000129826
0.00238437 -0.00068882 -2.34629e-06
-0.00068882 0.000206022 3.62508e-07
-2.34629e-06 3.62508e-07 1.58131e-05
0.00196811 -0.000666049 -3.80836e-06
-0.000666049 -1.62096e-05 -1.73754e-06
-3.80836e-06 -1.73754e-06 -0.000296862
0.0021174 -0.000661382 1.21201e-06
-0.000661382 3.5182e-05 2.95366e-06
1.21201e-06 2.95366e-06 -0.000221493
0.00201897 -0.000856625 -3.84151e-06
-0.000856625 0.000149313 -5.32624e-06
-3.84151e-06 -5.32624e-06 -0.000284416
0.00231906 -0.000993808 3.59964e-06
-0.000993808 0.000295182 6.04049e-07
3.59964e-06 6.04049e-07 -0.000192095
0.00250124 -0.0010346 3.42808e-06
-0.0010346 0.000413437 4.5047e-06
3.42808e-06 4.5047e-06 -8.94357e-05
0.00232254 -0.00106335 -1.70289e-06
-0.00106335 0.000602953 -7.08518e-06
-1.70289e-06 -7.08518e-06 -9.30207e-07
0.00272937 -0.00119559 1.73518e-06
-0.00119559 0.000816255 -1.07011e-06
1.73518e-06 -1.07011e-06 0.000182197
0.00311739 -0.00135642 3.32219e-06
-0.00135642 0.00101732 -5.26845e-07
3.32219e-06 -5.26845e-07 0.000305161
0.00174507 -0.000750189 -5.04396e-06
-0.000750189 0.00052119 -2.18005e-06
-5.04396e-06 -2.18005e-06 -3.12165e-07
0.00226969 -0.00106496 1.79309e-06
-0.00106496 0.000819486 4.728e-07
1.79309e-06 4.728e-07 0.000162489
0.00166575 -0.0010964 3.00629e-07
-0.0010964 0.000437506 4.8374e-06
3.00629e-07 4.8374e-06 -0.000225463
0.000542971 -0.000287497 -7.13729e-06
-0.000287497 -3.18515e-05 -2.03017e-06
-7.13729e-06 -2.03017e-06 -0.000278092
0.00133405 -0.000571423 4.56158e-06
-0.000571423 0.000459764 1.02868e-06
4.56158e-06 1.02868e-06 5.24409e-05
0.000477941 -0.000636068 -8.17909e-06
-0.000636068 -6.26258e-05 9.03428e-06
-8.17909e-06 9.03428e-06 -0.000582757
0.000437091 -0.000142491 -2.32169e-05
-0.000142491 -5.95554e-05 1.48558e-05
-2.32169e-05 1.48558e-05 -0.000173874
0.000737339 -0.000304931 -7.13608e-07
-0.000304931 0.000179406 4.46891e-09
-7.13608e-07 4.46891e-09 -0.000101737
-0.00102099 -0.000234654 -5.46798e-06
-0.000234654 -0.000965609 -1.90554e-06
-5.46798e-06 -1.90554e-06 -0.00127084
0.00525911 0.000360514 3.54625e-05
0.000360514 0.00324859 1.28396e-05
3.54625e-05 1.28396e-05 0.00316806
0.000431047 -0.000118964 2.08913e-06
-0.000118964 -4.12493e-05 4.0958e-07
2.08913e-06 4.0958e-07 -0.000146095
0.00120629 -0.000223178 1.56242e-06
-0.000223178 0.000482963 9.45183e-07
1.56242e-06 9.45183e-07 0.000224243
0.00417859 0.000152668 1.35423e-05
0.000152668 0.0024637 7.99779e-07
1.35423e-05 7.99779e-07 0.0024504
0.00063126 -7.78034e-05 1.15211e-05
-7.78034e-05 0.000114403 -1.62434e-05
1.15211e-05 -1.62434e-05 2.28416e-05
0.00379266 0.000116028 8.14527e-05
0.000116028 0.00219574 -8.42944e-06
8.14527e-05 -8.42944e-06 0.00219212
0.0023335 0.00046631 1.69112e-07
0.00046631 0.00109927 8.80365e-06
1.69112e-07 8.80365e-06 0.000790698
-7.53251e-05 0.00020199 2.71535e-06
0.00020199 -0.000287155 2.34602e-06
2.71535e-06 2.34602e-06 -0.000592164
0.00135971 0.000676694 -7.42818e-06
0.000676694 0.000742079 -3.43767e-06
-7.42818e-06 -3.43767e-06 0.000354542
0.0014173 0.000239622 -2.08866e-06
0.000239622 0.000651671 -1.33402e-05
-2.08866e-06 -1.33402e-05 0.000450563
0.00105442 0.000177786 -5.19674e-08
0.000177786 0.000654422 4.66568e-07
-5.19674e-08 4.66568e-07 0.000235874
-0.000669128 8.98644e-05 -2.54271e-06
8.98644e-05 -0.000400831 6.75686e-06
-2.54271e-06 6.75686e-06 -0.000820096
0.00057554 1.23604e-05 -4.36423e-06
1.23604e-05 0.000105066 -1.55964e-05
-4.36423e-06 -1.55964e-05 4.22145e-05
0.00058536 8.98688e-05 7.50623e-07
8.98688e-05 0.000126571 5.8442e-07
7.50623e-07 5.8442e-07 -3.40305e-05
-0.000525137 6.52761e-05 -6.2866e-06
6.52761e-05 -0.000505618 2.17804e-05
-6.2866e-06 2.17804e-05 -0.000771169
0.00323534 -8.93273e-05 -5.80085e-05
-8.93273e-05 0.00183041 -7.43589e-06
-5.80085e-05 -7.43589e-06 0.00183318
0.000400211 -3.05266e-05 1.77253e-06
-3.05266e-05 -1.4708e-05 -4.45275e-07
1.77253e-06 -4.45275e-07 -6.57473e-05
0.000551603 6.61503e-05 -4.8688e-06
6.61503e-05 0.00011695 8.64477e-06
-4.8688e-06 8.64477e-06 -2.57421e-05
0.00291106 -7.40599e-05 -9.70994e-06
-7.40599e-05 0.00161159 7.6218e-07
-9.70994e-06 7.6218e-07 0.0016163
0.000398422 2.43299e-05 -9.74946e-07
2.43299e-05 -2.91095e-05 9.19455e-06
-9.74946e-07 9.19455e-06 -6.81814e-05
0.00254075 -5.30435e-05 2.48266e-05
-5.30435e-05 0.00136284 6.05029e-06
2.48266e-05 6.05029e-06 0.00137203
-0.00508547 0.000203068 -0.000474589
0.000203068 0.00627102 7.71785e-05
-0.000474589 7.71785e-05 -0.00273859
0.0066835 0.00137773 7.86262e-05
0.00137773 0.00466641 2.95914e-06
7.86262e-05 2.95914e-06 0.000958898
-0.00116138 0.00104 0.000222039
0.00104 0.00243754 0.00010355
0.000222039 0.00010355 -0.00108801
0.000207823 0.000325121 -1.283e-05
0.000325121 -0.000112941 1.25253e-05
-1.283e-05 1.25253e-05 -0.000509652
0.00500709 0.00125249 2.81651e-05
0.00125249 0.00281404 3.36528e-05
2.81651e-05 3.36528e-05 0.00217676
0.000340403 0.000302703 -1.52146e-05
0.000302703 0.000332039 1.0878e-05
-1.52146e-05 1.0878e-05 -0.000278211
0.00110774 0.000233578 -1.55876e-05
0.000233578 0.000645292 -1.17409e-05
-1.55876e-05 -1.17409e-05 0.000325493
0.00403365 0.000588987 -6.03699e-06
0.000588987 0.00214452 -9.9111e-06
-6.03699e-06 -9.9111e-06 0.00189402
-0.00219401 4.49807e-05 -1.18248e-05
4.49807e-05 -0.00154867 1.93879e-05
-1.18248e-05 1.93879e-05 -0.00163768
-0.000376187 0.000340086 4.68116e-07
0.000340086 -0.000140278 9.46181e-06
4.68116e-07 9.46181e-06 -0.000513459
0.000154621 0.000222185 -1.28726e-05
0.000222185 -5.02178e-05 -6.58523e-06
-1.28726e-05 -6.58523e-06 -0.000440628
0.000797819 0.000941006 -1.5122e-05
0.000941006 0.000428202 -1.4865e-05
-1.5122e-05 -1.4865e-05 -0.000212042
-0.00133758 0.000695409 -3.96507e-05
0.000695409 -0.00110039 7.11544e-05
-3.96507e-05 7.11544e-05 -0.00135069
0.000415472 3.90762e-05 -1.6845e-05
3.90762e-05 0.00027758 7.62429e-06
-1.6845e-05 7.62429e-06 -3.50431e-05
0.00233738 0.000643604 2.16457e-05
0.000643604 0.00153499 -4.68187e-06
2.16457e-05 -4.68187e-06 0.000972985
0.00645203 -0.00534793 -0.00321436
-0.00534793 0.00421466 -9.83796e-05
-0.00321436 -9.83796e-05 -0.00342297
0.00453429 -0.00678843 0.00103629
-0.00678843 0.012781 8.30466e-05
0.00103629 8.30466e-05 0.00258638
0.0103879 0.00419463 -0.00118129
0.00419463 0.00398863 -0.000357936
-0.00118129 -0.000357936 -0.00293935
0.0247982 -0.0203135 0.00313564
-0.0203135 0.0182183 0.00180269
0.00313564 0.00180269 0.00558798
0.0321886 -0.00539616 -0.000180571
-0.00539616 0.0140569 0.000569129
-0.000180571 0.000569129 0.00559345
-0.00214009 0.00175054 -0.000158602
0.00175054 0.00410722 -0.000232942
-0.000158602 -0.000232942 -0.00290985
-0.000916116 8.66381e-05 -0.000185896
8.66381e-05 0.00321735 9.85411e-06
-0.000185896 9.85411e-06 0.000919619
0.000461576 0.00133955 8.0131e-05
0.00133955 0.00249454 6.06921e-05
8.0131e-05 6.06921e-05 0.00134999
0.0283106 -0.00814241 -0.00097026
-0.00814241 0.0132262 0.00015139
-0.00097026 0.00015139 0.0037968
-0.00127963 0.00625257 -0.000327876
0.00625257 0.00109488 -4.34262e-05
-0.000327876 -4.34262e-05 -0.00390752
0.00326852 0.0040036 7.1178e-05
0.0040036 0.00141375 -9.92383e-05
7.1178e-05 -9.92383e-05 0.00185081
0.00794681 0.0106424 -0.00103037
0.0106424 -0.00216292 -9.69903e-05
-0.00103037 -9.69903e-05 -0.00351622
0.00462086 0.00192585 4.18049e-05
0.00192585 0.00200031 -6.12679e-06
4.18049e-05 -6.12679e-06 0.00138892
0.00134479 0.000878755 -6.51039e-06
0.000878755 0.00042788 -4.89723e-06
-6.51039e-06 -4.89723e-06 0.000203614
-0.000132098 0.000322089 -4.09141e-05
0.000322089 0.000127972 -1.61894e-05
-4.09141e-05 -1.61894e-05 -0.000432442
-0.000575486 0.000996884 -0.000161629
0.000996884 0.00117037 -8.02055e-05
-0.000161629 -8.02055e-05 -0.000333322
0.000428949 0.000860943 -7.23915e-05
0.000860943 0.000176644 -5.86728e-05
-7.23915e-05 -5.86728e-05 -0.000299408
0.00297509 0.00271613 3.47999e-06
0.00271613 0.00117245 -1.44059e-05
3.47999e-06 -1.44059e-05 -0.000252117
-0.00154585 0.00264443 0.000141512
0.00264443 -0.00222301 8.38173e-05
0.000141512 8.38173e-05 -0.0027761
-0.00699756 -0.000811385 -0.00118861
-0.000811385 -0.0013245 7.54683e-05
-0.00118861 7.54683e-05 -0.00542574
-0.0105909 0.000521301 0.000836304
0.000521301 0.00706155 -1.57443e-06
0.000836304 -1.57443e-06 -0.000716442
0.00215752 0.000300431 -0.000247778
0.000300431 0.00252252 3.89437e-05
-0.000247778 3.89437e-05 -0.000106793
0.00121907 -0.00185471 -9.20363e-05
-0.00185471 0.00148762 -6.67593e-05
-9.20363e-05 -6.67593e-05 4.03986e-06
-0.000400089 -0.00384085 0.000231609
-0.00384085 0.000251738 1.97062e-05
0.000231609 1.97062e-05 2.91779e-05
0.00284642 0.0026542 0.000527575
0.0026542 0.0117731 0.000137594
0.000527575 0.000137594 0.00356268
0.00594763 -0.0079252 0.00103555
-0.0079252 -0.00293451 -0.000103576
0.00103555 -0.000103576 -0.00290149
0.0246725 0.0068934 0.00198054
0.0068934 0.0132467 4.54415e-05
0.00198054 4.54415e-05 0.00615861
0.00265022 -0.00334583 -2.36578e-05
-0.00334583 0.000905337 -1.58249e-06
-2.36578e-05 -1.58249e-06 -0.000201493
0.00639078 0.00411728 0.000510046
0.00411728 0.00387804 -0.000153655
0.000510046 -0.000153655 -0.00207945
0.00805933 -0.00491779 -0.000289957
-0.00491779 -0.00593695 0.000221285
-0.000289957 0.000221285 -0.00586924
0.00261008 -0.00437612 -2.95592e-05
-0.00437612 -0.00150608 4.41984e-05
-2.95592e-05 4.41984e-05 0.000650677
0.00241656 -0.00252249 4.91746e-05
-0.00252249 -0.000212052 -1.34742e-05
4.91746e-05 -1.34742e-05 -0.000330652
0.0197293 -0.00139677 -0.000140678
-0.00139677 0.00160807 0.00012576
-0.000140678 0.00012576 0.00184056
0.00303767 -0.00320446 0.000138229
-0.00320446 -0.00456116 -0.000142693
0.000138229 -0.000142693 -0.00133611
0.00236591 -0.00176624 -7.19256e-05
-0.00176624 0.000781894 4.875e-05
-7.19256e-05 4.875e-05 0.000267733
0.000624953 -0.00111931 -1.54551e-05
-0.00111931 -0.000465639 1.26972e-06
-1.54551e-05 1.26972e-06 -0.000786453
0.0053937 -0.00157101 4.82962e-05
-0.00157101 0.00172812 -2.48445e-05
4.82962e-05 -2.48445e-05 0.00139139
0.00085756 -0.0012645 -1.50267e-05
-0.0012645 -0.000312863 1.02051e-05
-1.50267e-05 1.02051e-05 -0.000878392
0.00293292 -0.00148664 4.65367e-07
-0.00148664 0.000538255 -1.01113e-06
4.65367e-07 -1.01113e-06 4.94081e-06
0.00320646 -0.0011896 1.19317e-06
-0.0011896 0.000396978 -1.36583e-06
1.19317e-06 -1.36583e-06 0.000186423
0.00250219 -0.00146535 8.30404e-06
-0.00146535 0.000462376 9.83346e-06
8.30404e-06 9.83346e-06 -0.000242771
0.00271524 -0.00114093 -4.2499e-06
-0.00114093 0.000314201 1.49694e-06
-4.2499e-06 1.49694e-06 -7.14463e-05
0.00254662 -0.000795504 7.94799e-07
-0.000795504 7.07517e-06 2.4617e-07
7.94799e-07 2.4617e-07 -5.42757e-05
0.00224248 -0.00101405 7.64137e-06
-0.00101405 0.000246166 6.22363e-06
7.64137e-06 6.22363e-06 -0.000227749
0.00232027 -0.000729146 1.41157e-08
-0.000729146 5.27358e-05 2.44063e-06
1.41157e-08 2.44063e-06 -0.000152193
0.00247858 -0.000765549 -9.9202e-07
-0.000765549 9.29443e-05 1.52183e-06
-9.9202e-07 1.52183e-06 -1.44518e-05
0.00240754 -0.000735425 -3.54129e-06
-0.000735425 0.000138885 4.65046e-07
-3.54129e-06 4.65046e-07 -1.11675e-05
0.00237724 -0.000690386 -3.51859e-06
-0.000690386 0.000187692 2.31888e-06
-3.51859e-06 2.31888e-06 5.19304e-06
0.00239275 -0.000670211 -6.88464e-07
-0.000670211 0.000290005 -1.87793e-06
-6.88464e-07 -1.87793e-06 7.08609e-05
0.00239703 -0.000721104 -6.26342e-06
-0.000721104 0.000302481 -2.97801e-06
-6.26342e-06 -2.97801e-06 -2.35713e-06
0.00222733 -0.00068386 1.28331e-06
-0.00068386 0.000161606 1.46335e-06
1.28331e-06 1.46335e-06 -0.000121029
0.00212103 -0.000660275 2.3996e-06
-0.000660275 1.96554e-05 7.89372e-06
2.3996e-06 7.89372e-06 -0.000233866
0.0023145 -0.000859724 -6.15595e-06
-0.000859724 0.000389344 -6.78091e-06
-6.15595e-06 -6.78091e-06 -5.31245e-05
0.00197231 -0.000865214 -5.95271e-07
-0.000865214 0.000102363 1.23624e-07
-5.95271e-07 1.23624e-07 -0.000336974
0.00249344 -0.00100594 7.98774e-06
-0.00100594 0.000423193 4.95786e-06
7.98774e-06 4.95786e-06 -6.21495e-05
0.00192817 -0.000884022 -6.90574e-06
-0.000884022 0.000409103 -4.21331e-06
-6.90574e-06 -4.21331e-06 -0.000141764
0.00246999 -0.00108544 -7.8511e-07
-0.00108544 0.000679002 5.63635e-07
-7.8511e-07 5.63635e-07 6.9465e-05
0.00246409 -0.0011722 4.60044e-06
-0.0011722 0.000643835 3.1345e-06
4.60044e-06 3.1345e-06 1.12246e-05
0.00114084 -0.000357096 -1.21886e-05
-0.000357096 0.000259128 1.03242e-05
-1.21886e-05 1.03242e-05 -3.7362e-05
0.00154627 -0.000731551 2.46977e-07
-0.000731551 0.00038766 1.83516e-06
2.46977e-07 1.83516e-06 -0.000127277
0.00219725 -0.00104491 -1.40025e-06
-0.00104491 0.00077553 9.12628e-06
-1.40025e-06 9.12628e-06 0.000127211
0.000305851 -0.000210254 -2.62912e-05
-0.000210254 -0.000172817 2.05025e-05
-2.62912e-05 2.05025e-05 -0.000314463
0.000846658 -0.000299424 -3.42436e-06
-0.000299424 0.000190342 -7.96274e-08
-3.42436e-06 -7.96274e-08 -8.46899e-05
-0.000499092 -0.00052241 3.56524e-07
-0.00052241 -0.000712097 1.98667e-07
3.56524e-07 1.98667e-07 -0.00111578
0.00560002 0.000187612 -0.000146714
0.000187612 0.00340752 1.2605e-05
-0.000146714 1.2605e-05 0.00338325
0.000621688 -0.00017912 -6.15984e-07
-0.00017912 4.15557e-05 -8.75095e-07
-6.15984e-07 -8.75095e-07 -7.32267e-05
0.000499174 -0.000293511 5.62275e-06
-0.000293511 4.83125e-05 2.6546e-07
5.62275e-06 2.6546e-07 -0.000250584
0.00324494 0.000150769 8.07821e-05
0.000150769 0.00187579 2.87805e-07
8.07821e-05 2.87805e-07 0.00183284
0.00056892 -0.000130107 2.24096e-05
-0.000130107 4.29419e-05 -1.50588e-05
2.24096e-05 -1.50588e-05 -6.62898e-05
0.00461108 0.000134616 0.000124616
0.000134616 0.00274463 -1.16721e-05
0.000124616 -1.16721e-05 0.00273568
0.00217442 0.000571746 -3.24038e-06
0.000571746 0.000896285 9.10089e-06
-3.24038e-06 9.10089e-06 0.000498716
0.000925717 0.000310935 -4.4044e-06
0.000310935 0.000236495 1.17824e-06
-4.4044e-06 1.17824e-06 -4.07249e-05
1.64374e-05 0.000214516 5.25465e-06
0.000214516 -0.000279396 3.20772e-06
5.25465e-06 3.20772e-06 -0.000558047
0.00177235 0.000370425 4.90265e-07
0.000370425 0.000903192 -6.37517e-06
4.90265e-07 -6.37517e-06 0.00057384
0.00126535 0.000158232 -9.55784e-07
0.000158232 0.000661882 4.50609e-07
-9.55784e-07 4.50609e-07 0.000307516
0.00126501 0.000159948 3.42787e-07
0.000159948 0.000606297 -1.69997e-05
3.42787e-07 -1.69997e-05 0.000333304
0.000700172 9.31895e-05 -1.43621e-05
9.31895e-05 0.000169531 -1.9513e-05
-1.43621e-05 -1.9513e-05 9.31659e-05
0.000672992 0.000143158 -1.41417e-06
0.000143158 0.000211172 3.86137e-07
-1.41417e-06 3.86137e-07 -3.91764e-06
-0.00183719 -2.94106e-05 -1.31758e-05
-2.94106e-05 -0.00124681 2.21508e-05
-1.31758e-05 2.21508e-05 -0.00161879
0.00347758 -9.90204e-05 -8.05521e-05
-9.90204e-05 0.0019975 -9.77689e-06
-8.05521e-05 -9.77689e-06 0.00199881
0.0002184 4.59165e-05 1.22623e-06
4.59165e-05 -0.000126481 -3.13399e-07
1.22623e-06 -3.13399e-07 -0.000187439
0.000660321 0.000130373 -2.6998e-06
0.000130373 0.000180631 1.15459e-05
-2.6998e-06 1.15459e-05 1.98537e-05
0.00312889 -9.46187e-05 -1.05136e-05
-9.46187e-05 0.00176263 9.6008e-07
-1.05136e-05 9.6008e-07 0.00176328
0.000196446 -4.60265e-06 -9.29326e-10
-4.60265e-06 -0.000143357 1.17991e-05
-9.29326e-10 1.17991e-05 -0.000194358
0.00277955 -7.45308e-05 3.11919e-05
-7.45308e-05 0.00152552 6.66074e-06
3.11919e-05 6.66074e-06 0.00152989
0.00294953 -0.00127928 -0.00193109
-0.00127928 0.00456854 -5.15378e-05
-0.00193109 -5.15378e-05 0.0016352
-0.00296601 -0.00107055 -6.33913e-05
-0.00107055 0.00791152 -5.74998e-05
-6.33913e-05 -5.74998e-05 -0.00159651
0.00698713 0.000867168 -0.000604885
0.000867168 0.00436644 -0.000158795
-0.000604885 -0.000158795 0.000839417
0.000949517 0.000245758 3.63362e-06
0.000245758 0.000344313 4.40121e-06
3.63362e-06 4.40121e-06 -3.47066e-05
0.000704104 0.000270657 1.39842e-05
0.000270657 0.000396634 3.55306e-06
1.39842e-05 3.55306e-06 -0.000169688
0.00283888 0.000939112 -6.40661e-06
0.000939112 0.00143916 5.32494e-07
-6.40661e-06 5.32494e-07 0.000848699
0.0026697 0.00116873 2.77934e-05
0.00116873 0.00118172 1.50612e-05
2.77934e-05 1.50612e-05 0.000457133
0.0015891 0.000911438 -5.68336e-07
0.000911438 0.000996901 2.05233e-05
-5.68336e-07 2.05233e-05 0.000350103
0.00278812 0.000438055 -7.16991e-09
0.000438055 0.00173763 3.71213e-06
-7.16991e-09 3.71213e-06 0.00142724
0.00165654 0.000401943 1.54361e-05
0.000401943 0.000968391 1.02603e-05
1.54361e-05 1.02603e-05 0.000556688
0.00191037 0.00089166 -5.65214e-06
0.00089166 0.00109545 1.56775e-06
-5.65214e-06 1.56775e-06 0.000483648
0.00151153 0.00121906 4.49325e-06
0.00121906 0.000351472 2.50427e-06
4.49325e-06 2.50427e-06 -0.000189322
0.00292241 0.00132594 4.44673e-06
0.00132594 0.00112702 4.63608e-05
4.44673e-06 4.63608e-05 0.00078699
0.00198396 0.00153666 4.55997e-05
0.00153666 0.000252991 -5.24644e-06
4.55997e-05 -5.24644e-06 -8.43345e-05
0.00128902 0.000984891 1.4937e-05
0.000984891 0.000421288 5.20159e-06
1.4937e-05 5.20159e-06 4.64612e-05
0.00181953 0.000852766 2.30647e-06
0.000852766 0.00120828 1.02761e-05
2.30647e-06 1.02761e-05 0.000529336
0.0176045 0.00554589 -0.000156616
0.00554589 0.000783501 7.20831e-05
-0.000156616 7.20831e-05 0.00102148
0.0104249 -0.00447617 -0.000918465
-0.00447617 0.00646136 -0.000258058
-0.000918465 -0.000258058 0.000940251
0.00539506 -0.00824268 0.0017182
-0.00824268 0.0141019 0.000236219
0.0017182 0.000236219 0.00402358
0.0204749 -0.00451178 0.000791905
-0.00451178 0.00856818 0.000191605
0.000791905 0.000191605 0.000186415
0.0111469 0.00847373 -0.000230816
0.00847373 0.0045723 -8.75908e-05
-0.000230816 -8.75908e-05 0.000122636
-0.00186768 0.00103658 -1.54613e-05
0.00103658 0.0016458 9.70752e-06
-1.54613e-05 9.70752e-06 0.000386549
0.00176548 0.00350663 -0.000125944
0.00350663 0.000630508 -6.1346e-05
-0.000125944 -6.1346e-05 0.00149566
0.0115452 0.00888428 3.00709e-05
0.00888428 -0.000325275 5.87377e-05
3.00709e-05 5.87377e-05 -0.00228746
0.00789036 0.0063765 -0.000204219
0.0063765 -0.000779371 -0.000151926
-0.000204219 -0.000151926 0.000509822
0.00134611 0.00175525 2.01544e-05
0.00175525 -1.57399e-05 -2.29056e-05
2.01544e-05 -2.29056e-05 -0.000449152
0.00154298 0.0013845 1.68132e-05
0.0013845 0.000439214 7.99456e-07
1.68132e-05 7.99456e-07 -6.08175e-06
0.00168689 0.000856591 -3.53333e-05
0.000856591 0.000716535 -3.02483e-05
-3.53333e-05 -3.02483e-05 0.000519134
0.00176648 0.00260745 -9.83418e-05
0.00260745 0.000367043 -4.91911e-05
-9.83418e-05 -4.91911e-05 -0.000966286
0.00182452 0.00306103 0.000124416
0.00306103 -0.000662981 6.64489e-05
0.000124416 6.64489e-05 -0.00150363
0.00639573 -0.000422968 -0.000111587
-0.000422968 -0.00591135 2.33188e-05
-0.000111587 2.33188e-05 -0.00659612
-0.000244279 -0.00272463 -2.11624e-06
-0.00272463 0.004401 9.22152e-05
-2.11624e-06 9.22152e-05 0.00103903
-0.0144546 -0.000372667 0.000855399
-0.000372667 0.00820656 2.57625e-06
0.000855399 2.57625e-06 0.00227415
0.00267788 -0.00402424 -0.000129667
-0.00402424 0.00046415 6.64706e-05
-0.000129667 6.64706e-05 -0.000936882
0.00677049 -0.00588488 1.78008e-05
-0.00588488 -0.000482707 9.5875e-05
1.78008e-05 9.5875e-05 0.00107212
0.00701926 0.0015571 0.00197653
0.0015571 0.00621015 -0.000396756
0.00197653 -0.000396756 0.00277461
0.0147491 -0.00478084 -0.000443927
-0.00478084 -0.00150092 0.000298938
-0.000443927 0.000298938 -0.000205253
0.0022272 -0.00253098 -2.44665e-05
-0.00253098 -0.000317087 1.10481e-05
-2.44665e-05 1.10481e-05 -0.000591452
0.0130453 -0.000747525 -0.000369316
-0.000747525 -0.00317555 0.000119984
-0.000369316 0.000119984 -0.00295074
0.00745029 -0.00374131 0.00010749
-0.00374131 -0.00183172 5.86875e-06
0.00010749 5.86875e-06 0.000506059
0.00293155 -0.00195502 4.5541e-05
-0.00195502 -0.000881727 -5.80862e-05
4.5541e-05 -5.80862e-05 -0.00051853
0.00312701 -0.00148454 8.42313e-05
-0.00148454 -0.00378343 -1.89286e-05
8.42313e-05 -1.89286e-05 -0.000686684
-0.000213644 -0.00102569 -1.33263e-05
-0.00102569 -0.000956701 2.16947e-05
-1.33263e-05 2.16947e-05 -0.0011632
0.00156954 -0.00113572 -2.24261e-05
-0.00113572 -0.000446672 5.36469e-06
-2.24261e-05 5.36469e-06 -0.000467691
0.00407414 -0.00113179 4.41021e-05
-0.00113179 0.000684 -2.09865e-05
4.41021e-05 -2.09865e-05 0.000792875
0.00239324 -0.00140983 -1.02627e-05
-0.00140983 0.000270327 8.53988e-06
-1.02627e-05 8.53988e-06 -0.000239962
0.00288666 -0.00117019 -4.25617e-06
-0.00117019 0.000213438 1.7552e-06
-4.25617e-06 1.7552e-06 2.01166e-06
0.00289683 -0.000896148 5.03983e-06
-0.000896148 1.496e-05 -1.08458e-06
5.03983e-06 -1.08458e-06 5.5706e-05
0.0024086 -0.00108628 -9.55019e-06
-0.00108628 0.00015145 7.67825e-06
-9.55019e-06 7.67825e-06 -0.000210737
0.00243748 -0.000786669 8.48309e-08
-0.000786669 -6.39516e-05 1.71486e-06
8.48309e-08 1.71486e-06 -0.000123483
0.00264215 -0.00078548 -4.86379e-07
-0.00078548 3.05631e-05 -4.39285e-08
-4.86379e-07 -4.39285e-08 3.24615e-05
0.00225099 -0.000711345 1.52246e-06
-0.000711345 1.4027e-05 4.99296e-06
1.52246e-06 4.99296e-06 -0.000177813
0.0024473 -0.000756689 -1.07337e-07
-0.000756689 8.53983e-05 7.28089e-07
-1.07337e-07 7.28089e-07 -2.26257e-05
0.00258582 -0.000767191 -1.61531e-06
-0.000767191 0.000103482 2.94944e-07
-1.61531e-06 2.94944e-07 2.0691e-05
0.00238618 -0.000739939 -5.12453e-06
-0.000739939 0.000118622 6.70391e-07
-5.12453e-06 6.70391e-07 -2.38948e-05
0.00237509 -0.000695931 -1.03492e-06
-0.000695931 0.000168227 -3.83204e-07
-1.03492e-06 -3.83204e-07 7.21001e-06
0.00236794 -0.000691506 1.49017e-07
-0.000691506 0.000171723 3.75802e-06
1.49017e-07 3.75802e-06 -3.56185e-06
0.0023935 -0.000666254 8.26679e-07
-0.000666254 0.000290501 -5.50608e-07
8.26679e-07 -5.50608e-07 7.16114e-05
0.00233608 -0.000674755 -2.5455e-06
-0.000674755 0.000288758 -9.16864e-07
-2.5455e-06 -9.16864e-07 3.98697e-05
0.00241545 -0.000724603 -2.3824e-06
-0.000724603 0.000382631 -6.60619e-06
-2.3824e-06 -6.60619e-06 5.62296e-05
0.00244943 -0.000728882 -5.33083e-07
-0.000728882 0.00033745 2.06589e-07
-5.33083e-07 2.06589e-07 3.01216e-05
0.00248888 -0.00070014 7.68449e-06
-0.00070014 0.000344603 4.45849e-06
7.68449e-06 4.45849e-06 6.03583e-05
0.00198531 -0.000799212 -7.49592e-06
-0.000799212 0.000272254 -3.76705e-06
-7.49592e-06 -3.76705e-06 -0.000193281
0.00222484 -0.000860452 -2.25486e-06
-0.000860452 0.00031744 -1.10104e-06
-2.25486e-06 -1.10104e-06 -0.000131208
0.00189297 -0.000869223 4.78394e-06
-0.000869223 3.42907e-05 5.03103e-06
4.78394e-06 5.03103e-06 -0.000409379
0.00147632 -0.000497063 -1.88721e-05
-0.000497063 0.000326196 1.21091e-05
-1.88721e-05 1.21091e-05 -3.94973e-05
0.00203848 -0.000892236 -6.08559e-07
-0.000892236 0.000489636 1.27933e-06
-6.08559e-07 1.27933e-06 -6.05468e-05
0.00266029 -0.00111112 1.93681e-06
-0.00111112 0.000783307 7.19939e-06
1.93681e-06 7.19939e-06 0.000167791
0.000389845 -0.000244282 -1.79717e-05
-0.000244282 -0.00013167 2.61352e-05
-1.79717e-05 2.61352e-05 -0.000311008
0.000650109 -0.00033712 2.95743e-06
-0.00033712 -6.42126e-05 -1.53456e-06
2.95743e-06 -1.53456e-06 -0.00036779
0.00177862 -0.000746876 5.49845e-06
-0.000746876 0.000526306 3.33243e-06
5.49845e-06 3.33243e-06 1.52848e-05
0.00664345 8.27268e-05 -0.000228523
8.27268e-05 0.00405068 1.75654e-05
-0.000228523 1.75654e-05 0.00404907
0.000364251 -0.000220988 -7.79486e-06
-0.000220988 -0.000125929 -9.02637e-07
-7.79486e-06 -9.02637e-07 -0.000276834
0.000923478 -0.000393498 6.3996e-06
-0.000393498 0.000291387 -3.86232e-06
6.3996e-06 -3.86232e-06 -2.61431e-05
0.00599025 0.000153944 7.73937e-06
0.000153944 0.00366102 -3.14659e-06
7.73937e-06 -3.14659e-06 0.00364293
0.000663521 -0.000204627 2.84576e-05
-0.000204627 6.85735e-05 -1.68415e-05
2.84576e-05 -1.68415e-05 -5.2443e-05
0.00554277 0.000162607 0.000161866
0.000162607 0.00337366 -1.74515e-05
0.000161866 -1.74515e-05 0.00335518
0.00305037 0.00108807 -2.98384e-06
0.00108807 0.00140931 1.10365e-05
-2.98384e-06 1.10365e-05 0.000738926
0.00147115 0.000599535 -2.59877e-06
0.000599535 0.000489829 5.81318e-07
-2.59877e-06 5.81318e-07 4.61079e-05
0.000217878 0.000317787 4.27959e-06
0.000317787 -0.000196281 9.57737e-08
4.27959e-06 9.57737e-08 -0.000513797
-0.00133387 0.000114087 2.58429e-06
0.000114087 -0.00115504 -1.60735e-05
2.58429e-06 -1.60735e-05 -0.00142272
0.000116198 0.000342721 5.78812e-06
0.000342721 -0.00024068 -2.60141e-06
5.78812e-06 -2.60141e-06 -0.000502339
-0.000262624 0.00039067 -9.69775e-06
0.00039067 -0.000477175 -8.60001e-06
-9.69775e-06 -8.60001e-06 -0.000733731
-0.000394039 9.34669e-05 -6.82025e-06
9.34669e-05 -0.000390357 2.58501e-06
-6.82025e-06 2.58501e-06 -0.000763858
0.000711738 0.000235471 2.71404e-06
0.000235471 0.000242836 5.32239e-07
2.71404e-06 5.32239e-07 -3.0253e-05
0.000831096 0.000136588 -2.03208e-05
0.000136588 0.000240877 -2.2193e-05
-2.03208e-05 -2.2193e-05 0.000133412
0.0039201 -0.000116514 -0.000103183
-0.000116514 0.00230008 -1.44703e-05
-0.000103183 -1.44703e-05 0.0022962
0.000492115 5.82218e-05 4.34174e-06
5.82218e-05 5.05105e-05 -2.65465e-07
4.34174e-06 -2.65465e-07 -2.85446e-05
-0.000159895 3.67927e-05 -4.98369e-06
3.67927e-05 -0.000288863 1.50657e-05
-4.98369e-06 1.50657e-05 -0.000521755
0.00350029 -0.000120645 -1.26846e-05
-0.000120645 0.00201664 1.35044e-06
-1.26846e-05 1.35044e-06 0.00201157
0.00033219 -7.66749e-05 -1.21021e-05
-7.66749e-05 -3.62246e-05 1.61701e-05
-1.21021e-05 1.61701e-05 -0.000106526
0.00307201 -9.71008e-05 4.16221e-05
-9.71008e-05 0.00172657 7.23497e-06
4.16221e-05 7.23497e-06 0.00172593
0.0162326 0.000993182 0.000767481
0.000993182 0.000158769 0.000171789
0.000767481 0.000171789 0.00123471
0.00261077 -0.00578581 -0.00112132
-0.00578581 -5.06669e-05 -7.02303e-05
-0.00112132 -7.02303e-05 -0.00602011
-0.00655631 0.00124834 -0.000294168
0.00124834 0.00748337 -0.000100242
-0.000294168 -0.000100242 -0.00137783
0.000186589 0.000141377 7.21579e-06
0.000141377 1.24014e-06 -3.50207e-05
7.21579e-06 -3.50207e-05 -0.000578281
0.000477763 0.000656389 -8.7927e-06
0.000656389 -1.46838e-05 -1.23795e-05
-8.7927e-06 -1.23795e-05 -0.000593258
0.00219183 0.000908972 -1.55574e-05
0.000908972 0.00121653 -8.68758e-06
-1.55574e-05 -8.68758e-06 0.000586257
0.00187979 0.00105872 1.79447e-06
0.00105872 0.000723522 5.19781e-07
1.79447e-06 5.19781e-07 2.39988e-05
0.00194626 0.00105005 2.6451e-05
0.00105005 0.00046522 2.62067e-05
2.6451e-05 2.62067e-05 -0.000137317
0.000365127 0.00100709 3.40346e-05
0.00100709 -0.000300999 1.35687e-05
3.40346e-05 1.35687e-05 -0.000833289
0.00182104 0.000799176 -1.44233e-05
0.000799176 0.00102829 -5.87517e-06
-1.44233e-05 -5.87517e-06 0.000446463
0.00153287 0.0012205 3.50879e-06
0.0012205 0.000332954 5.58815e-06
3.50879e-06 5.58815e-06 -0.000209383
0.00216769 0.00119878 2.98955e-05
0.00119878 0.000785744 4.30911e-06
2.98955e-05 4.30911e-06 0.000368774
0.00300925 0.0012841 1.73999e-05
0.0012841 0.00112045 8.58488e-06
1.73999e-05 8.58488e-06 0.000575485
0.00198303 0.00131637 1.36535e-05
0.00131637 0.000321999 5.60395e-06
1.36535e-05 5.60395e-06 2.06913e-05
0.00236612 0.00154925 2.87841e-05
0.00154925 0.000504292 1.08117e-05
2.87841e-05 1.08117e-05 -5.55367e-05
0.00178124 0.00148866 1.33901e-05
0.00148866 0.000172924 6.51224e-07
1.33901e-05 6.51224e-07 -0.000137699
0.0027569 0.00110352 -4.04404e-05
0.00110352 0.00123775 -9.45984e-05
-4.04404e-05 -9.45984e-05 0.000826603
0.00385775 0.00305361 3.31888e-05
0.00305361 -0.00439104 5.98452e-05
3.31888e-05 5.98452e-05 -0.000752157
0.0134528 0.00638401 0.00045842
0.00638401 -0.00245747 0.000266954
0.00045842 0.000266954 -0.00240968
0.018049 -0.0081115 0.00120855
-0.0081115 0.00927293 -0.000206002
0.00120855 -0.000206002 0.00166991
0.00663546 0.0102789 0.00115912
0.0102789 -0.00201978 0.00047617
0.00115912 0.00047617 -0.00481752
-0.000940828 0.00247642 -3.26165e-05
0.00247642 0.000117507 3.37275e-05
-3.26165e-05 3.37275e-05 0.000607252
0.0035905 0.00381395 -9.84241e-05
0.00381395 -0.00143714 -7.38365e-05
-9.84241e-05 -7.38365e-05 0.000501934
0.00733579 0.00342701 5.1933e-05
0.00342701 0.00102175 3.06432e-05
5.1933e-05 3.06432e-05 0.000847953
0.0062389 0.00265194 2.57744e-05
0.00265194 0.00219633 1.33461e-05
2.57744e-05 1.33461e-05 0.00152255
0.00109062 0.00126706 -4.60122e-05
0.00126706 0.000173262 3.99121e-06
-4.60122e-05 3.99121e-06 -0.000217029
0.0100385 0.00430898 -0.000222021
0.00430898 0.00318393 -5.9834e-08
-0.000222021 -5.9834e-08 0.00188472
0.00620312 -0.00119608 4.11046e-05
-0.00119608 -0.0018052 4.81529e-05
4.11046e-05 4.81529e-05 0.00066904
0.0129244 -0.000562165 -5.68392e-05
-0.000562165 -0.00106331 -5.12645e-05
-5.68392e-05 -5.12645e-05 0.000237763
-0.0115103 -0.00462722 0.00151837
-0.00462722 -0.00197772 -4.08079e-05
0.00151837 -4.08079e-05 -0.00679152
0.00231521 -0.0023734 -0.000145955
-0.0023734 -0.000162256 5.75324e-05
-0.000145955 5.75324e-05 -0.000336571
0.00810035 -0.00428818 -9.47179e-05
-0.00428818 -0.00215674 0.000150469
-9.47179e-05 0.000150469 0.000451575
0.00269038 -0.000556901 -0.000498731
-0.000556901 -0.00848512 1.59394e-05
-0.000498731 1.59394e-05 -0.00801261
0.00370857 -0.00187202 5.29e-05
-0.00187202 -0.000449805 -1.38827e-06
5.29e-05 -1.38827e-06 0.000173318
0.00507731 -0.00155995 -9.76194e-05
-0.00155995 -0.00238077 5.0326e-07
-9.76194e-05 5.0326e-07 2.20628e-05
0.00735493 -0.00147814 7.2438e-05
-0.00147814 0.001575 -5.26697e-05
7.2438e-05 -5.26697e-05 0.00224989
0.00729007 -0.00097086 0.000162214
-0.00097086 0.000966452 9.8289e-06
0.000162214 9.8289e-06 0.00211547
-0.00130152 -0.000844153 1.95204e-05
-0.000844153 -0.00220797 1.2324e-05
1.95204e-05 1.2324e-05 -0.00188924
0.00233036 -0.000967393 -1.15929e-05
-0.000967393 -0.000358621 3.99637e-06
-1.15929e-05 3.99637e-06 -7.1617e-05
0.00269655 -0.000711565 2.84312e-05
-0.000711565 -0.000321298 -1.20599e-05
2.84312e-05 -1.20599e-05 6.63508e-05
0.00252195 -0.0011524 -3.21207e-06
-0.0011524 3.43268e-06 3.59971e-06
-3.21207e-06 3.59971e-06 -0.00021332
0.00286918 -0.000891726 7.97017e-07
-0.000891726 1.03027e-05 1.26403e-06
7.97017e-07 1.26403e-06 5.01849e-05
0.00279729 -0.000747745 -2.19781e-07
-0.000747745 -2.5569e-05 -1.34585e-06
-2.19781e-07 -1.34585e-06 1.87994e-05
0.00235917 -0.000784396 1.18348e-06
-0.000784396 -0.000119721 3.07388e-06
1.18348e-06 3.07388e-06 -0.000180587
0.00260805 -0.000781956 9.16154e-08
-0.000781956 2.36232e-05 3.67614e-07
9.16154e-08 3.67614e-07 1.48084e-05
0.00255584 -0.000663465 -1.67855e-06
-0.000663465 -6.25931e-06 -8.79178e-07
-1.67855e-06 -8.79178e-07 -2.4453e-05
0.00242607 -0.00075092 9.15332e-07
-0.00075092 8.03234e-05 7.32745e-07
9.15332e-07 7.32745e-07 -2.91201e-05
0.00258112 -0.000764942 -1.30264e-07
-0.000764942 0.000128087 -1.45512e-07
-1.30264e-07 -1.45512e-07 3.90399e-05
0.00247398 -0.000664086 1.10284e-06
-0.000664086 0.0001138 -6.00344e-07
1.10284e-06 -6.00344e-07 2.32007e-05
0.00236555 -0.000744832 -2.94023e-06
-0.000744832 9.69925e-05 5.39682e-07
-2.94023e-06 5.39682e-07 -3.7895e-05
0.00233631 -0.000696461 -1.53207e-06
-0.000696461 0.000137912 1.92767e-07
-1.53207e-06 1.92767e-07 -1.82055e-05
0.00237439 -0.000654192 -2.30914e-06
-0.000654192 0.000241025 3.64342e-07
-2.30914e-06 3.64342e-07 4.7063e-05
0.00238758 -0.000660415 3.02333e-06
-0.000660415 0.00028652 1.30983e-06
3.02333e-06 1.30983e-06 6.883e-05
0.00232285 -0.000667548 1.00789e-07
-0.000667548 0.000276727 2.89503e-08
1.00789e-07 2.89503e-08 2.85692e-05
0.00240139 -0.000673577 -1.13696e-06
-0.000673577 0.000355675 -2.2034e-06
-1.13696e-06 -2.2034e-06 7.99303e-05
0.00211363 -0.000669329 -4.79434e-06
-0.000669329 0.000289344 -4.83472e-06
-4.79434e-06 -4.83472e-06 -6.70921e-05
0.00231484 -0.000722285 -6.35463e-07
-0.000722285 0.000312322 -1.74642e-06
-6.35463e-07 -1.74642e-06 -2.1741e-05
0.00250965 -0.00073819 4.55917e-06
-0.00073819 0.000378262 3.73569e-06
4.55917e-06 3.73569e-06 6.78292e-05
0.00134216 -0.000535758 -2.34639e-05
-0.000535758 9.63056e-05 5.81129e-06
-2.34639e-05 5.81129e-06 -0.00027985
0.00221058 -0.000815899 -1.22487e-06
-0.000815899 0.000431238 4.24988e-07
-1.22487e-06 4.24988e-07 -3.64443e-05
0.00216531 -0.000864667 1.26736e-06
-0.000864667 0.00026508 5.05237e-06
1.26736e-06 5.05237e-06 -0.000190723
0.00052829 -0.000276581 -2.21544e-05
-0.000276581 -8.05001e-05 2.58825e-05
-2.21544e-05 2.58825e-05 -0.000264902
0.000964652 -0.000467126 6.54618e-06
-0.000467126 1.54245e-05 1.00529e-06
6.54618e-06 1.00529e-06 -0.000352062
0.00220949 -0.000906029 6.58388e-06
-0.000906029 0.000612185 5.16368e-06
6.58388e-06 5.16368e-06 6.11376e-05
0.00801104 -1.46357e-05 -0.000316625
-1.46357e-05 0.00489599 2.75687e-05
-0.000316625 2.75687e-05 0.00490636
0.000233943 -0.000261375 1.94098e-06
-0.000261375 -0.000229881 2.23484e-07
1.94098e-06 2.23484e-07 -0.000411215
0.000270157 -0.000319814 4.65463e-06
-0.000319814 -0.000314308 -7.57933e-06
4.65463e-06 -7.57933e-06 -0.000626157
0.0071035 4.38233e-05 -1.08896e-05
4.38233e-05 0.00434909 -1.98279e-06
-1.08896e-05 -1.98279e-06 0.00434806
0.000545083 -0.000220991 1.81643e-05
-0.000220991 -1.37871e-05 -2.30198e-05
1.81643e-05 -2.30198e-05 -0.000167796
0.00609877 0.000114259 0.000224522
0.000114259 0.0037422 -3.14967e-05
0.000224522 -3.14967e-05 0.00372479
0.00226279 0.000998278 -1.44358e-05
0.000998278 0.00067384 1.39689e-05
-1.44358e-05 1.39689e-05 8.07448e-05
0.00220608 0.000972297 -1.93727e-06
0.000972297 0.000856391 -4.15214e-07
-1.93727e-06 -4.15214e-07 0.00022437
0.00110056 0.000644226 -7.66104e-06
0.000644226 0.000208538 7.01742e-06
-7.66104e-06 7.01742e-06 -0.000279079
0.000642615 0.000564254 6.96039e-06
0.000564254 -2.71484e-05 -6.46155e-06
6.96039e-06 -6.46155e-06 -0.000484307
0.00107898 0.000351026 -3.54829e-06
0.000351026 0.000286416 -3.02008e-06
-3.54829e-06 -3.02008e-06 -3.44181e-05
-0.000217712 0.000230715 -5.37652e-06
0.000230715 -0.000473451 -2.98938e-06
-5.37652e-06 -2.98938e-06 -0.000766922
0.00227858 0.000237746 1.46168e-06
0.000237746 0.00113427 -4.08399e-06
1.46168e-06 -4.08399e-06 0.000886586
0.00106531 0.000205626 2.8829e-06
0.000205626 0.000407319 -1.19858e-06
2.8829e-06 -1.19858e-06 0.000127922
0.000461454 0.00019173 -3.06577e-05
0.00019173 -4.66087e-05 -2.19482e-05
-3.06577e-05 -2.19482e-05 -0.000169668
0.000307425 0.000185153 -6.4451e-07
0.000185153 4.8384e-07 1.91194e-05
-6.4451e-07 1.91194e-05 -0.000278032
0.000446659 0.00012631 -6.84545e-07
0.00012631 1.40617e-06 -4.78013e-07
-6.84545e-07 -4.78013e-07 -0.000100848
0.00493955 -0.000132382 -0.000157376
-0.000132382 0.00298486 -2.12442e-05
-0.000157376 -2.12442e-05 0.00297226
0.00384982 -0.000140701 -1.41019e-05
-0.000140701 0.0022593 1.49451e-06
-1.41019e-05 1.49451e-06 0.00224869
3.87263e-05 0.000102228 1.51208e-05
0.000102228 -0.000242026 1.87983e-05
1.51208e-05 1.87983e-05 -0.000313784
0.00338718 -0.000125214 5.0362e-05
-0.000125214 0.00194367 8.2444e-06
5.0362e-05 8.2444e-06 0.00193666
0.00145434 0.000659933 0.000141672
0.000659933 -0.0033379 3.25544e-05
0.000141672 3.25544e-05 -0.000623236
0.00543076 -0.000302018 0.000290196
-0.000302018 -0.00687072 0.000171395
0.000290196 0.000171395 -0.00724465
0.0177341 -0.00657819 -0.000365913
-0.00657819 0.0102366 -0.000141794
-0.000365913 -0.000141794 0.00375055
0.00187433 0.000897016 1.42295e-05
0.000897016 0.000180416 1.30681e-05
1.42295e-05 1.30681e-05 -0.000276088
0.0032174 0.000994617 -2.15368e-05
0.000994617 0.00166499 -1.879e-05
-2.15368e-05 -1.879e-05 0.00105327
0.00129985 0.000983206 -1.39097e-05
0.000983206 0.000385537 -1.91959e-05
-1.39097e-05 -1.91959e-05 -0.000298741
0.00169878 0.00117323 1.63531e-06
0.00117323 0.000508545 2.01748e-06
1.63531e-06 2.01748e-06 -7.60133e-05
0.00219776 0.00108418 5.90132e-07
0.00108418 0.000643687 5.88963e-06
5.90132e-07 5.88963e-06 2.72052e-05
0.00253162 0.00122283 2.80968e-05
0.00122283 0.000748654 1.95399e-05
2.80968e-05 1.95399e-05 0.000188328
0.0016455 0.00121661 -2.90241e-05
0.00121661 0.000385822 -7.22568e-06
-2.90241e-05 -7.22568e-06 -0.000174615
0.0010061 0.000980583 1.14522e-06
0.000980583 0.000175631 -4.49113e-05
1.14522e-06 -4.49113e-05 -0.000206676
0.00210423 0.00129305 2.45137e-06
0.00129305 0.000496086 -8.98972e-07
2.45137e-06 -8.98972e-07 -1.32921e-05
0.00101342 0.00122121 1.58129e-05
0.00122121 -0.000282726 -3.65251e-05
1.58129e-05 -3.65251e-05 -0.000453683
0.00247181 0.00124814 2.89167e-05
0.00124814 0.000534562 -8.87579e-07
2.89167e-05 -8.87579e-07 -3.26451e-05
0.00249921 0.00110605 3.96602e-05
0.00110605 0.000449239 4.79501e-05
3.96602e-05 4.79501e-05 0.000236146
0.00114752 0.00131227 -1.13105e-05
0.00131227 -0.000126927 -1.14752e-05
-1.13105e-05 -1.14752e-05 -0.000562163
0.00170242 0.00142321 -4.67198e-05
0.00142321 0.000158884 -6.20061e-06
-4.67198e-05 -6.20061e-06 -0.000106184
0.00291208 0.0014695 2.77265e-05
0.0014695 -0.00145926 4.5758e-05
2.77265e-05 4.5758e-05 -0.000201226
0.00636632 0.00336483 -0.000134876
0.00336483 -0.00299091 -5.57895e-05
-0.000134876 -5.57895e-05 0.000469768
0.00414022 0.00459214 0.000905666
0.00459214 -0.00851334 0.000271369
0.000905666 0.000271369 -0.00818819
0.00329709 0.00344308 -0.000299831
0.00344308 -0.000414739 -0.000142855
-0.000299831 -0.000142855 0.000914765
0.00607287 0.00285834 -3.55994e-05
0.00285834 0.000890539 -9.75223e-06
-3.55994e-05 -9.75223e-06 0.000858282
0.00777476 0.00296661 -0.000232039
0.00296661 0.00280269 -6.29537e-05
-0.000232039 -6.29537e-05 0.0020534
0.00445254 -0.000239806 -3.90633e-05
-0.000239806 -0.000513178 -2.42543e-05
-3.90633e-05 -2.42543e-05 0.000304735
0.00054604 -0.000759809 0.000139565
-0.000759809 -0.002566 3.55377e-05
0.000139565 3.55377e-05 -0.000278039
0.00783674 5.54278e-05 0.000301105
5.54278e-05 -0.00635264 -2.1681e-05
0.000301105 -2.1681e-05 -0.00660709
0.00260316 -0.00162012 -8.5618e-05
-0.00162012 -0.00094513 0.000108271
-8.5618e-05 0.000108271 -0.000155505
0.00612862 -0.00156662 -0.000235182
-0.00156662 -0.00212265 6.86535e-05
-0.000235182 6.86535e-05 -0.00010563
0.00351235 -0.00116382 -2.74722e-05
-0.00116382 -0.00069377 1.23245e-05
-2.74722e-05 1.23245e-05 0.000215603
0.00471693 -0.000843044 -3.99598e-05
-0.000843044 -0.000306339 1.27222e-06
-3.99598e-05 1.27222e-06 0.00065256
0.00484245 -0.000605307 0.000112288
-0.000605307 0.000915663 -2.11138e-05
0.000112288 -2.11138e-05 0.00130773
0.00288055 -0.000122742 5.02518e-05
-0.000122742 -2.98602e-05 4.31982e-06
5.02518e-05 4.31982e-06 0.000223185
0.000652517 -0.000777738 -1.62506e-05
-0.000777738 -0.00129706 1.54156e-05
-1.62506e-05 1.54156e-05 -0.000852073
0.0026642 -0.000741153 -4.04651e-06
-0.000741153 -0.000324675 5.67224e-07
-4.04651e-06 5.67224e-07 1.94181e-05
0.00272779 -0.000549475 3.55861e-06
-0.000549475 -0.000271761 -2.33353e-06
3.55861e-06 -2.33353e-06 1.97049e-05
0.00281538 -0.000880287 -3.38662e-06
-0.000880287 -3.99027e-06 2.87811e-06
-3.38662e-06 2.87811e-06 3.77667e-05
0.00279483 -0.000722099 -2.32088e-07
-0.000722099 7.26766e-06 -4.4418e-07
-2.32088e-07 -4.4418e-07 6.47776e-05
0.00257793 -0.000537296 -1.54979e-06
-0.000537296 -0.000118488 -8.57118e-07
-1.54979e-06 -8.57118e-07 -2.99935e-05
0.00256909 -0.000775798 -6.27491e-07
-0.000775798 1.69858e-05 4.88828e-07
-6.27491e-07 4.88828e-07 -1.49044e-06
0.00254747 -0.000665384 -6.18949e-07
-0.000665384 4.5617e-06 -4.79614e-08
-6.18949e-07 -4.79614e-08 -1.14719e-05
0.00243147 -0.00054812 3.90783e-07
-0.00054812 2.79992e-05 -5.95924e-07
3.90783e-07 -5.95924e-07 -6.65038e-06
0.00257416 -0.000761311 -1.69048e-07
-0.000761311 0.000152613 -2.65107e-07
-1.69048e-07 -2.65107e-07 5.74598e-05
0.00247895 -0.000665311 1.01156e-06
-0.000665311 0.000115013 -1.50907e-07
1.01156e-06 -1.50907e-07 2.37394e-05
0.00235232 -0.000590177 -7.00336e-07
-0.000590177 0.000133675 1.5933e-07
-7.00336e-07 1.5933e-07 1.33987e-05
0.0022976 -0.00069744 -1.68478e-06
-0.00069744 0.000108082 9.47597e-07
-1.68478e-06 9.47597e-07 -4.34083e-05
0.00230273 -0.000652059 -1.04509e-06
-0.000652059 0.00018554 4.85947e-07
-1.04509e-06 4.85947e-07 -4.88056e-06
0.0024259 -0.000636165 -1.41907e-06
-0.000636165 0.000317853 -1.43113e-06
-1.41907e-06 -1.43113e-06 8.84958e-05
0.00231745 -0.00066109 3.0532e-06
-0.00066109 0.00026961 1.52784e-06
3.0532e-06 1.52784e-06 2.19511e-05
0.00234295 -0.000669712 -4.7217e-07
-0.000669712 0.000315142 4.22569e-07
-4.7217e-07 4.22569e-07 4.24416e-05
0.00224174 -0.000612561 -3.4997e-06
-0.000612561 0.000338379 -2.42212e-06
-3.4997e-06 -2.42212e-06 3.59784e-05
0.00144408 -0.000473898 -1.97948e-05
-0.000473898 7.50806e-05 6.30833e-06
-1.97948e-05 6.30833e-06 -0.000246822
0.00208544 -0.000666838 -2.87939e-07
-0.000666838 0.000276558 -1.50211e-06
-2.87939e-07 -1.50211e-06 -8.49842e-05
0.00218555 -0.00071763 1.09594e-06
-0.00071763 0.000221764 3.42232e-06
1.09594e-06 3.42232e-06 -0.00011947
0.000117316 -0.000274016 -2.13843e-05
-0.000274016 -0.000359695 2.28425e-05
-2.13843e-05 2.28425e-05 -0.000552842
0.00134386 -0.000526212 2.27188e-07
-0.000526212 0.000108921 -9.43595e-08
2.27188e-07 -9.43595e-08 -0.000261961
0.00238192 -0.000827923 4.91225e-06
-0.000827923 0.000552572 4.6401e-06
4.91225e-06 4.6401e-06 8.38173e-05
0.0088065 -7.5242e-05 -0.000377562
-7.5242e-05 0.00537359 3.52141e-05
-0.000377562 3.52141e-05 0.00539219
8.45207e-05 -0.000291506 1.38749e-06
-0.000291506 -0.000351151 2.10754e-06
1.38749e-06 2.10754e-06 -0.000547645
0.000605814 -0.000451169 1.85518e-05
-0.000451169 -0.00020851 -5.62368e-06
1.85518e-05 -5.62368e-06 -0.00057835
0.00833585 -4.303e-05 -1.02886e-05
-4.303e-05 0.00510645 1.16563e-06
-1.02886e-05 1.16563e-06 0.00511801
-7.40941e-06 -0.000297002 2.15162e-05
-0.000297002 -0.000379011 -2.80377e-05
2.15162e-05 -2.80377e-05 -0.000564064
0.00761551 2.84941e-05 0.000314434
2.84941e-05 0.00469018 -4.02184e-05
0.000314434 -4.02184e-05 0.00468753
0.00188128 0.000834693 -7.08906e-06
0.000834693 0.000234564 1.3279e-05
-7.08906e-06 1.3279e-05 -0.000228067
0.00215435 0.00097702 -1.95835e-06
0.00097702 0.000611356 1.41278e-06
-1.95835e-06 1.41278e-06 2.42977e-05
0.00190427 0.000813747 -6.45979e-06
0.000813747 0.000493629 9.92197e-06
-6.45979e-06 9.92197e-06 -3.20413e-05
0.00147646 0.000862212 1.73861e-06
0.000862212 0.000385155 -1.01337e-05
1.73861e-06 -1.01337e-05 -0.000210001
0.00158489 0.000674376 -2.69836e-06
0.000674376 0.000478341 -1.19715e-06
-2.69836e-06 -1.19715e-06 -1.06789e-05
0.000311499 0.000331645 -1.29585e-05
0.000331645 -0.000223438 -2.07324e-06
-1.29585e-05 -2.07324e-06 -0.000545594
0.00196877 0.000396042 1.30133e-06
0.000396042 0.000786769 -7.42357e-06
1.30133e-06 -7.42357e-06 0.000461277
0.000418723 0.000282535 3.2557e-06
0.000282535 -0.000102985 -1.11195e-06
3.2557e-06 -1.11195e-06 -0.000366261
0.000332753 0.000232043 -3.33084e-05
0.000232043 -0.00017386 -2.30373e-05
-3.33084e-05 -2.30373e-05 -0.000300846
0.00108149 0.000235507 2.42061e-06
0.000235507 0.000401425 9.25853e-06
2.42061e-06 9.25853e-06 0.000127021
0.000653562 0.000186576 -1.18187e-06
0.000186576 7.97708e-05 -1.05557e-06
-1.18187e-06 -1.05557e-06 -3.69493e-05
0.00637914 -0.000190764 -0.000196909
-0.000190764 0.00394956 -2.84753e-05
-0.000196909 -2.84753e-05 0.00391551
0.000287422 0.000127113 1.97718e-05
0.000127113 -9.34859e-05 2.23498e-05
1.97718e-05 2.23498e-05 -0.000192574
0.00456507 -0.000181897 -1.82192e-05
-0.000181897 0.00275413 2.03163e-06
-1.82192e-05 2.03163e-06 0.00272792
0.00379299 -0.000157899 6.54928e-05
-0.000157899 0.00222527 1.02229e-05
6.54928e-05 1.02229e-05 0.0022093
0.000526502 0.000530001 2.51811e-05
0.000530001 -0.00295148 1.64765e-05
2.51811e-05 1.64765e-05 -0.00139133
0.00543281 0.000503326 7.37058e-05
0.000503326 -0.00201544 3.44223e-05
7.37058e-05 3.44223e-05 0.00074568
0.0173954 0.000942301 3.56073e-05
0.000942301 0.000365209 0.000127305
3.56073e-05 0.000127305 0.00182446
0.0023295 0.00103861 2.85674e-06
0.00103861 0.000380495 7.01611e-06
2.85674e-06 7.01611e-06 -8.26653e-05
0.00234057 0.000939835 1.13658e-06
0.000939835 0.000239517 6.82561e-06
1.13658e-06 6.82561e-06 -0.000140029
0.00186715 0.000901166 -7.5947e-07
0.000901166 0.000178251 -5.01375e-06
-7.5947e-07 -5.01375e-06 -0.000275026
0.00314603 0.00134919 -1.36275e-05
0.00134919 0.00138043 -3.80811e-06
-1.36275e-05 -3.80811e-06 0.000745184
0.00227016 0.00108873 -1.82e-05
0.00108873 0.000713302 -1.36989e-05
-1.82e-05 -1.36989e-05 9.25537e-05
0.00252561 0.0012663 6.82349e-06
0.0012663 0.000691665 2.14616e-06
6.82349e-06 2.14616e-06 0.000126416
0.00270532 0.00119535 -7.88595e-06
0.00119535 0.000326752 -1.00185e-07
-7.88595e-06 -1.00185e-07 -7.09318e-05
0.00175466 0.00134555 -1.15354e-05
0.00134555 0.000213376 -8.79436e-06
-1.15354e-05 -8.79436e-06 -0.00029002
0.00110323 0.00127373 -3.66507e-05
0.00127373 -0.000234817 0.000103129
-3.66507e-05 0.000103129 -0.000427925
0.00285592 0.00134571 3.12718e-06
0.00134571 0.000716862 -5.65218e-06
3.12718e-06 -5.65218e-06 0.000136564
0.00328756 0.00116536 1.53085e-06
0.00116536 0.000529212 1.5318e-05
1.53085e-06 1.5318e-05 0.000293185
0.00232845 0.000561908 7.01843e-05
0.000561908 0.000131183 8.6e-06
7.01843e-05 8.6e-06 0.000336821
0.000354545 0.000866582 5.3951e-06
0.000866582 -0.000670367 -1.53625e-05
5.3951e-06 -1.53625e-05 -0.000843549
0.00130187 0.00128252 -5.33568e-05
0.00128252 -5.61299e-06 -1.6843e-06
-5.33568e-05 -1.6843e-06 -0.000434689
0.00421218 0.00161269 3.42948e-05
0.00161269 -0.000725282 1.55187e-05
3.42948e-05 1.55187e-05 0.000407006
0.0105466 0.00347201 -9.39389e-05
0.00347201 -0.000595719 -6.03177e-05
-9.39389e-05 -6.03177e-05 0.00202926
0.00593029 0.00241506 -8.62918e-05
0.00241506 0.00134983 -0.000106605
-8.62918e-05 -0.000106605 0.00142046
0.00357702 -4.39161e-05 8.04657e-05
-4.39161e-05 0.000420105 6.77475e-06
8.04657e-05 6.77475e-06 0.000742344
0.00387535 -0.000272912 -0.000117024
-0.000272912 -0.00106788 1.04782e-05
-0.000117024 1.04782e-05 5.86943e-05
0.00524857 0.000575195 -4.43454e-05
0.000575195 -0.000735299 -2.27763e-05
-4.43454e-05 -2.27763e-05 0.000994706
0.0012429 -0.00103142 -0.000108473
-0.00103142 -0.00204519 8.1646e-05
-0.000108473 8.1646e-05 -0.00103514
0.00248874 -0.000814168 -0.000110127
-0.000814168 -0.00141571 8.7547e-06
-0.000110127 8.7547e-06 -0.000608419
0.00340823 -0.000545366 4.08706e-07
-0.000545366 -2.1463e-05 -6.09134e-06
4.08706e-07 -6.09134e-06 0.000535542
0.0025651 -0.000120402 -1.63038e-05
-0.000120402 -0.000222356 -2.62443e-06
-1.63038e-05 -2.62443e-06 5.60079e-05
0.00267251 -0.0003268 8.54635e-06
-0.0003268 -0.000332978 4.1134e-07
8.54635e-06 4.1134e-07 -5.52221e-06
0.00249632 9.64543e-05 3.11965e-06
9.64543e-05 -0.000409659 1.25133e-06
3.11965e-06 1.25133e-06 -0.000184147
0.0027117 -0.00078087 -2.03708e-05
-0.00078087 -0.00029102 9.16255e-06
-2.03708e-05 9.16255e-06 8.67161e-06
0.00278499 -0.000579211 -3.13093e-06
-0.000579211 -0.000251728 6.49756e-07
-3.13093e-06 6.49756e-07 1.32439e-06
0.00265452 -0.000393831 -7.08618e-07
-0.000393831 -0.000186387 -4.80487e-07
-7.08618e-07 -4.80487e-07 1.33022e-05
0.00278996 -0.000696939 -2.80178e-06
-0.000696939 3.34078e-05 1.19557e-06
-2.80178e-06 1.19557e-06 0.000105991
0.00259416 -0.000540761 2.97817e-07
-0.000540761 -9.81395e-05 -1.99198e-07
2.97817e-07 -1.99198e-07 -1.61703e-05
0.00246198 -0.000438119 8.30701e-07
-0.000438119 -6.02887e-05 -3.49479e-07
8.30701e-07 -3.49479e-07 -4.31158e-06
0.00253907 -0.00066782 -7.61528e-07
-0.00066782 1.39956e-05 6.65782e-07
-7.61528e-07 6.65782e-07 2.66196e-07
0.00244441 -0.00054718 3.95338e-07
-0.00054718 2.99169e-05 -1.4587e-07
3.95338e-07 -1.4587e-07 -4.7385e-06
0.00233243 -0.000487435 -5.85942e-07
-0.000487435 5.81387e-05 1.17674e-09
-5.85942e-07 1.17674e-09 -2.23103e-06
0.0024853 -0.000666908 1.6361e-06
-0.000666908 0.000116747 2.18549e-07
1.6361e-06 2.18549e-07 2.47525e-05
0.00233989 -0.000590554 5.73003e-07
-0.000590554 0.000121065 -1.27682e-07
5.73003e-07 -1.27682e-07 5.29543e-07
0.00235999 -0.000558177 -2.49991e-06
-0.000558177 0.000210932 4.07541e-07
-2.49991e-06 4.07541e-07 3.87833e-05
0.00222811 -0.000649844 6.53517e-07
-0.000649844 0.000127777 2.45192e-07
6.53517e-07 2.45192e-07 -5.89182e-05
0.00230503 -0.000628369 1.07538e-07
-0.000628369 0.000236444 -5.27146e-07
1.07538e-07 -5.27146e-07 8.05035e-06
0.00217034 -0.000565936 -2.64366e-06
-0.000565936 0.000224964 -1.86541e-06
-2.64366e-06 -1.86541e-06 -3.60655e-05
0.00229447 -0.000666598 2.67244e-07
-0.000666598 0.000281929 3.61576e-06
2.67244e-07 3.61576e-06 1.20044e-05
0.00224851 -0.000615865 -6.64867e-07
-0.000615865 0.000343974 -1.27489e-07
-6.64867e-07 -1.27489e-07 4.27004e-05
0.0014476 -0.000411249 -1.46129e-05
-0.000411249 5.34223e-05 5.57853e-06
-1.46129e-05 5.57853e-06 -0.000224347
0.000341056 -0.000265049 -1.8845e-05
-0.000265049 -0.000253942 2.12466e-05
-1.8845e-05 2.12466e-05 -0.000438477
0.00148228 -0.000475716 -1.6606e-08
-0.000475716 0.000102448 1.88192e-07
-1.6606e-08 1.88192e-07 -0.000218372
0.00210152 -0.000668239 3.66488e-06
-0.000668239 0.000293875 2.09899e-06
3.66488e-06 2.09899e-06 -7.35182e-05
0.00877996 -0.000163164 -0.000413019
-0.000163164 0.00533465 4.01625e-05
-0.000413019 4.01625e-05 0.00536146
0.000324976 -0.000289417 -1.28489e-06
-0.000289417 -0.000238319 9.81927e-07
-1.28489e-06 9.81927e-07 -0.000429983
0.0013766 -0.000514207 2.1737e-05
-0.000514207 0.000146918 -6.08032e-06
2.1737e-05 -6.08032e-06 -0.000217749
0.00888932 -0.000110657 -8.35753e-07
-0.000110657 0.00542527 1.92233e-06
-8.35753e-07 1.92233e-06 0.0054454
9.31964e-05 -0.000303288 2.54699e-05
-0.000303288 -0.000348064 -2.58933e-05
2.54699e-05 -2.58933e-05 -0.000547724
0.00880208 -8.37506e-05 0.000383701
-8.37506e-05 0.00539685 -4.21322e-05
0.000383701 -4.21322e-05 0.00541087
0.00206324 0.000853293 1.2479e-06
0.000853293 0.000184622 1.19723e-05
1.2479e-06 1.19723e-05 -0.000215524
0.0020033 0.000854523 2.17469e-06
0.000854523 0.000325477 -1.02896e-07
2.17469e-06 -1.02896e-07 -0.000138927
0.00228226 0.000818845 -1.07934e-06
0.000818845 0.000560131 1.0988e-05
-1.07934e-06 1.0988e-05 8.62877e-05
0.0021227 0.000961462 1.15603e-05
0.000961462 0.000609919 -1.00791e-05
1.15603e-05 -1.00791e-05 2.71802e-05
0.00189314 0.000811495 -2.02902e-07
0.000811495 0.00048293 1.54815e-06
-2.02902e-07 1.54815e-06 -4.36928e-05
0.000709379 0.000403414 -2.50422e-05
0.000403414 -0.000122053 -1.24836e-06
-2.50422e-05 -1.24836e-06 -0.000464008
0.00216235 0.000690014 2.54177e-07
0.000690014 0.000790278 -5.8701e-06
2.54177e-07 -5.8701e-06 0.000309245
0.00059082 0.000305246 4.7111e-07
0.000305246 -5.81006e-05 -5.61937e-07
4.7111e-07 -5.61937e-07 -0.00035981
0.0003661 0.000288243 -3.39841e-05
0.000288243 -0.000159587 -2.75497e-05
-3.39841e-05 -2.75497e-05 -0.00031856
0.00167329 0.000214617 2.77692e-06
0.000214617 0.000681165 2.61314e-06
2.77692e-06 2.61314e-06 0.000430689
0.000311401 0.000218695 4.04703e-06
0.000218695 -0.000182596 -1.31185e-06
4.04703e-06 -1.31185e-06 -0.000309915
0.00740657 -0.000155796 -0.000254976
-0.000155796 0.00459149 -3.31445e-05
-0.000254976 -3.31445e-05 0.00456506
0.000312373 0.000175628 2.68815e-05
0.000175628 -0.000124689 2.38553e-05
2.68815e-05 2.38553e-05 -0.000240886
0.00585366 -0.000189526 -8.72546e-06
-0.000189526 0.00359631 -1.45072e-07
-8.72546e-06 -1.45072e-07 0.0035666
0.00435267 -0.000197529 8.70522e-05
-0.000197529 0.00261638 1.475e-05
8.70522e-05 1.475e-05 0.002587
0.00159972 0.000362474 5.17572e-05
0.000362474 -0.00062511 1.64638e-05
5.17572e-05 1.64638e-05 -0.00014463
0.00175878 0.000618504 5.50155e-06
0.000618504 -0.00262986 -7.16325e-06
5.50155e-06 -7.16325e-06 -0.00103215
0.00560408 0.00114999 0.000291348
0.00114999 -0.00213345 0.000114289
0.000291348 0.000114289 0.000984904
0.00271813 0.00100133 -8.95034e-06
0.00100133 0.000384061 7.81052e-07
-8.95034e-06 7.81052e-07 3.73131e-05
0.00235687 0.0010603 -9.75727e-06
0.0010603 0.00038765 -5.36611e-06
-9.75727e-06 -5.36611e-06 -7.70924e-05
0.00248505 0.00075805 5.44286e-06
0.00075805 0.000206192 4.67019e-06
5.44286e-06 4.67019e-06 -3.08864e-05
0.00253272 0.000947943 1.54436e-06
0.000947943 0.000364166 4.14123e-07
1.54436e-06 4.14123e-07 -8.53991e-06
0.00195353 0.000909709 -6.85309e-06
0.000909709 0.000243296 -1.61596e-05
-6.85309e-06 -1.61596e-05 -0.000207285
0.00288443 0.000908239 -5.90188e-06
0.000908239 0.000203984 1.69468e-06
-5.90188e-06 1.69468e-06 3.67493e-05
0.00249421 0.00130696 -7.37091e-06
0.00130696 0.000620324 -8.61198e-06
-7.37091e-06 -8.61198e-06 5.01627e-05
0.00279424 0.00116067 -1.59332e-06
0.00116067 0.000410176 -1.28893e-06
-1.59332e-06 -1.28893e-06 1.79474e-05
0.00236083 0.000556824 -1.10288e-05
0.000556824 -0.000320343 -1.04179e-06
-1.10288e-05 -1.04179e-06 -0.000165805
0.00272583 0.0013971 -1.69878e-05
0.0013971 0.000560903 1.98507e-05
-1.69878e-05 1.98507e-05 3.18398e-05
0.002884 0.00111811 1.73411e-06
0.00111811 0.000303021 -4.35713e-06
1.73411e-06 -4.35713e-06 7.27496e-05
0.000552792 0.000527039 -2.10903e-05
0.000527039 -0.00104293 5.68597e-07
-2.10903e-05 5.68597e-07 -0.000689287
-0.0027924 0.000543854 -2.70838e-05
0.000543854 -0.00234591 -1.61719e-05
-2.70838e-05 -1.61719e-05 -0.00244161
0.00494065 0.00174894 -0.000186594
0.00174894 -0.00032527 -7.27058e-05
-0.000186594 -7.27058e-05 0.000690736
0.00275001 0.000199159 1.06345e-06
0.000199159 -0.000192164 -1.82145e-06
1.06345e-06 -1.82145e-06 4.90565e-05
0.00321675 -1.34284e-05 -6.86656e-06
-1.34284e-05 0.000216241 1.98535e-06
-6.86656e-06 1.98535e-06 0.000479802
0.0028622 -0.000344493 -0.000141464
-0.000344493 -0.00173421 -1.22155e-05
-0.000141464 -1.22155e-05 -0.000429629
0.00159037 -0.000459653 -9.86451e-05
-0.000459653 -0.00119263 2.28466e-05
-9.86451e-05 2.28466e-05 -0.000459471
0.00219587 -0.000129357 -1.64267e-05
-0.000129357 -0.000451448 -3.56157e-06
-1.64267e-05 -3.56157e-06 -0.000152062
0.00257215 -0.000339902 5.30101e-06
-0.000339902 -0.000420303 -7.04265e-07
5.30101e-06 -7.04265e-07 -4.90179e-05
0.00276573 0.000112528 -3.06922e-06
0.000112528 -0.000237029 -2.44613e-07
-3.06922e-06 -2.44613e-07 -2.67601e-05
0.0026521 -6.67027e-05 -2.35334e-06
-6.67027e-05 -0.000228578 -4.22748e-07
-2.35334e-06 -4.22748e-07 7.16087e-06
0.00282584 -0.000603829 -3.13064e-06
-0.000603829 -0.000233376 1.80415e-06
-3.13064e-06 1.80415e-06 -1.91376e-05
0.00258546 -0.000377498 3.06218e-07
-0.000377498 -0.000212217 -3.44276e-07
3.06218e-07 -3.44276e-07 -2.28474e-05
0.00249241 -0.000282689 1.33944e-06
-0.000282689 -9.95836e-05 -2.40415e-07
1.33944e-06 -2.40415e-07 3.39805e-05
0.00261251 -0.000544601 2.79179e-07
-0.000544601 -7.48742e-05 9.73657e-07
2.79179e-07 9.73657e-07 -3.82763e-07
0.00246064 -0.000436716 2.86404e-07
-0.000436716 -5.79197e-05 1.26011e-07
2.86404e-07 1.26011e-07 -5.50687e-06
0.00230611 -0.000368285 -1.21612e-07
-0.000368285 -7.11824e-06 9.42846e-09
-1.21612e-07 9.42846e-09 -6.66832e-06
0.00245841 -0.000546026 4.31747e-07
-0.000546026 3.25196e-05 3.54759e-07
4.31747e-07 3.54759e-07 -2.15833e-06
0.00234194 -0.00048846 3.90657e-07
-0.00048846 6.1157e-05 -2.33452e-08
3.90657e-07 -2.33452e-08 4.57426e-07
0.00233087 -0.000461635 -4.04545e-06
-0.000461635 0.000127425 7.39428e-07
-4.04545e-06 7.39428e-07 2.24624e-05
0.00233018 -0.000591211 1.70806e-06
-0.000591211 0.000110387 -4.24103e-07
1.70806e-06 -4.24103e-07 -1.05046e-05
0.00230858 -0.000553115 6.27251e-07
-0.000553115 0.000176581 -3.39634e-07
6.27251e-07 -3.39634e-07 5.17824e-06
0.00220099 -0.000492915 -1.78531e-06
-0.000492915 0.000189536 -1.65676e-06
-1.78531e-06 -1.65676e-06 -2.03508e-05
0.00218865 -0.000620919 7.69133e-07
-0.000620919 0.00015749 3.86805e-07
7.69133e-07 3.86805e-07 -6.9867e-05
0.00223583 -0.00057 -7.47736e-07
-0.00057 0.000273332 1.30913e-07
-7.47736e-07 1.30913e-07 1.15903e-05
0.00144348 -0.000359412 -1.10464e-05
-0.000359412 2.75217e-05 4.49313e-06
-1.10464e-05 4.49313e-06 -0.000216335
0.00223469 -0.000617103 2.4568e-06
-0.000617103 0.000336002 2.43863e-06
2.4568e-06 2.43863e-06 3.63435e-05
0.0014775 -0.000414121 -6.38318e-09
-0.000414121 6.59991e-05 2.14368e-07
-6.38318e-09 2.14368e-07 -0.000211135
0.00303091 -0.000270901 -6.08269e-05
-0.000270901 0.00147432 1.56253e-05
-6.08269e-05 1.56253e-05 0.00132885
0.00293142 -0.000151958 -0.000324645
-0.000151958 0.00154415 5.10238e-05
-0.000324645 5.10238e-05 0.00152714
0.00174031 -0.000288086 -1.86833e-05
-0.000288086 0.000649901 4.30247e-07
-1.86833e-05 4.30247e-07 0.000477815
0.00148847 -0.000474609 1.8033e-05
-0.000474609 0.000108949 -5.92167e-06
1.8033e-05 -5.92167e-06 -0.000210253
0.00856742 -0.000165041 -9.94717e-06
-0.000165041 0.00520869 2.97686e-06
-9.94717e-06 2.97686e-06 0.00522911
0.000116944 -0.000307664 2.30476e-05
-0.000307664 -0.000372821 -2.31839e-05
2.30476e-05 -2.31839e-05 -0.000569857
0.00887621 -0.000119686 0.000386845
-0.000119686 0.00542212 -4.40833e-05
0.000386845 -4.40833e-05 0.00543708
0.00233187 0.000590677 2.97646e-06
0.000590677 0.000125985 1.68873e-06
2.97646e-06 1.68873e-06 -3.74315e-05
0.00240634 0.000767086 5.43732e-06
0.000767086 0.000330373 8.33053e-06
5.43732e-06 8.33053e-06 2.32612e-05
0.00240442 0.000878133 7.7957e-07
0.000878133 0.000406877 8.3522e-08
7.7957e-07 8.3522e-08 1.01714e-05
0.00220994 0.000759267 1.11668e-06
0.000759267 0.00042194 1.00755e-05
1.11668e-06 1.00755e-05 1.51961e-05
0.00203485 0.00087096 7.66874e-06
0.00087096 0.000345673 -1.19312e-05
7.66874e-06 -1.19312e-05 -0.000120569
0.00207042 0.000795939 6.00065e-07
0.000795939 0.000421019 4.69234e-07
6.00065e-07 4.69234e-07 -4.8516e-05
0.00113045 0.000487016 -3.62586e-05
0.000487016 5.35396e-05 -2.87983e-06
-3.62586e-05 -2.87983e-06 -0.000305921
0.00181775 0.000805302 7.57055e-06
0.000805302 0.000422731 -8.18063e-06
7.57055e-06 -8.18063e-06 -0.000104192
0.000913984 0.00041593 -3.69783e-06
0.00041593 1.55782e-05 3.83484e-07
-3.69783e-06 3.83484e-07 -0.000325128
4.28249e-05 0.000320745 -3.17002e-05
0.000320745 -0.000374439 -2.50335e-05
-3.17002e-05 -2.50335e-05 -0.000563302
0.00119558 0.000293241 1.38954e-05
0.000293241 0.000321917 -7.63017e-07
1.38954e-05 -7.63017e-07 3.93487e-05
0.000255348 0.000247131 3.18835e-06
0.000247131 -0.000230973 -1.11726e-06
3.18835e-06 -1.11726e-06 -0.000386292
0.00868892 -2.57687e-05 -0.000344504
-2.57687e-05 0.00535138 -3.93485e-05
-0.000344504 -3.93485e-05 0.0053495
0.000588416 0.000204666 3.26418e-05
0.000204666 -5.29193e-06 2.31728e-05
3.26418e-05 2.31728e-05 -0.000128592
0.00712879 -0.000156966 8.42249e-06
-0.000156966 0.00439824 -3.71786e-06
8.42249e-06 -3.71786e-06 0.00437673
0.00524586 -0.000235376 0.000115751
-0.000235376 0.00322347 1.97956e-05
0.000115751 1.97956e-05 0.00317821
0.00252163 0.000252878 -4.79994e-06
0.000252878 -0.000367435 9.61097e-07
-4.79994e-06 9.61097e-07 -8.30487e-05
0.00175262 0.000296932 1.07826e-05
0.000296932 -0.000824228 -3.72155e-06
1.07826e-05 -3.72155e-06 -0.000213799
0.00385546 0.000741293 -0.000174654
0.000741293 -0.00181448 -1.83501e-05
-0.000174654 -1.83501e-05 -0.000140626
0.00255453 0.000706202 -5.64614e-07
0.000706202 0.000137717 1.56111e-06
-5.64614e-07 1.56111e-06 4.82756e-07
0.00265792 0.000985471 -4.43204e-06
0.000985471 0.000386015 -7.94897e-07
-4.43204e-06 -7.94897e-07 4.71085e-05
0.00229646 0.00107329 -3.1341e-06
0.00107329 0.000337749 -9.23079e-06
-3.1341e-06 -9.23079e-06 -0.000125711
0.00247081 0.0007393 1.3716e-06
0.0007393 0.00021714 1.2909e-06
1.3716e-06 1.2909e-06 -1.87758e-05
0.00265929 0.000951953 -1.36453e-06
0.000951953 0.00044633 -8.4678e-06
-1.36453e-06 -8.4678e-06 8.05728e-05
0.00276845 0.000554696 5.19275e-06
0.000554696 -4.49058e-05 1.13324e-06
5.19275e-06 1.13324e-06 5.14441e-05
0.00278648 0.000900262 -2.0283e-06
0.000900262 0.000162427 6.03884e-07
-2.0283e-06 6.03884e-07 2.2097e-06
0.00290994 0.00113446 4.15332e-06
0.00113446 0.000505287 -3.47183e-06
4.15332e-06 -3.47183e-06 0.000116027
0.0022744 0.000520116 1.8185e-08
0.000520116 -0.000308097 6.10364e-07
1.8185e-08 6.10364e-07 -0.000145382
0.00250134 0.00105422 8.84852e-06
0.00105422 7.64874e-05 -5.75191e-07
8.84852e-06 -5.75191e-07 -0.000144866
-0.000400135 0.00048381 -4.33965e-05
0.00048381 -0.00171014 -1.0318e-05
-4.33965e-05 -1.0318e-05 -0.00121401
0.00258377 0.000112138 -4.44326e-07
0.000112138 -0.000162627 -2.2366e-08
-4.44326e-07 -2.2366e-08 2.93795e-05
0.0026374 0.000189553 -3.1223e-07
0.000189553 -0.000273075 9.19338e-07
-3.1223e-07 9.19338e-07 -2.79567e-05
0.00289815 1.12313e-05 -5.80356e-05
1.12313e-05 3.15178e-05 -5.72929e-06
-5.80356e-05 -5.72929e-06 0.000247991
0.00245253 -0.000354965 -2.37076e-05
-0.000354965 -0.000526964 2.13649e-06
-2.37076e-05 2.13649e-06 -0.000109811
0.00306493 0.000134191 4.53427e-06
0.000134191 -3.93287e-05 2.26403e-06
4.53427e-06 2.26403e-06 0.000154193
0.00266958 -7.34284e-05 -9.99228e-07
-7.34284e-05 -0.000225854 -6.36137e-07
-9.99228e-07 -6.36137e-07 9.67187e-06
0.00235054 -8.15106e-05 8.10381e-07
-8.15106e-05 -0.000122868 2.54864e-07
8.10381e-07 2.54864e-07 -5.38667e-06
0.00251259 -0.000360332 9.98852e-07
-0.000360332 -0.000240363 -3.26997e-07
9.98852e-07 -3.26997e-07 -6.061e-05
0.00244976 -0.000291174 -2.5245e-08
-0.000291174 -0.000121695 -2.25836e-08
-2.5245e-08 -2.25836e-08 2.87912e-06
0.00225006 -0.000241728 1.16328e-06
-0.000241728 -5.54497e-05 -4.22078e-07
1.16328e-06 -4.22078e-07 -1.8841e-05
0.00245666 -0.000435159 -1.08531e-06
-0.000435159 -5.74796e-05 8.14921e-07
-1.08531e-06 8.14921e-07 -8.47228e-06
0.00231335 -0.000367901 9.49687e-08
-0.000367901 -6.61584e-06 4.19984e-08
9.49687e-08 4.19984e-08 -6.27897e-06
0.00228861 -0.000354512 -4.74789e-06
-0.000354512 5.96658e-05 6.27386e-07
-4.74789e-06 6.27386e-07 8.03112e-06
0.00235152 -0.00048948 1.30039e-06
-0.00048948 6.3872e-05 -8.91199e-08
1.30039e-06 -8.91199e-08 2.85743e-06
0.00233555 -0.000461647 4.91079e-07
-0.000461647 0.000132067 -4.11597e-08
4.91079e-07 -4.11597e-08 2.67074e-05
0.00224809 -0.000411454 -1.93092e-06
-0.000411454 0.000183843 -1.13676e-06
-1.93092e-06 -1.13676e-06 2.43477e-05
0.0022506 -0.000547504 2.60115e-06
-0.000547504 0.000138081 -6.79722e-07
2.60115e-06 -6.79722e-07 -3.24517e-05
0.00223741 -0.000496499 -7.88987e-07
-0.000496499 0.000211757 1.10465e-07
-7.88987e-07 1.10465e-07 1.10291e-06
0.00143749 -0.000307232 -8.61996e-06
-0.000307232 3.9047e-06 3.36017e-06
-8.61996e-06 3.36017e-06 -0.00021079
0.00230118 -0.000574087 2.30075e-06
-0.000574087 0.000321681 1.55482e-06
2.30075e-06 1.55482e-06 5.92177e-05
0.00148051 -0.000363982 -9.68934e-08
-0.000363982 4.01864e-05 2.68974e-07
-9.68934e-08 2.68974e-07 -0.000203451
0.00296441 -0.0002479 -6.72988e-05
-0.0002479 0.0014328 1.48188e-05
-6.72988e-05 1.48188e-05 0.00130191
0.00151372 -0.000418551 1.33303e-05
-0.000418551 8.13774e-05 -5.24597e-06
1.33303e-05 -5.24597e-06 -0.000195566
0.00313307 -0.000302909 5.80406e-05
-0.000302909 0.00154414 -1.01462e-05
5.80406e-05 -1.01462e-05 0.00140987
0.00274167 -0.000173284 -0.000312353
-0.000173284 0.00143247 5.40836e-05
-0.000312353 5.40836e-05 0.00141142
0.00546683 -0.000192113 -0.000304892
-0.000192113 0.00320821 3.89055e-05
-0.000304892 3.89055e-05 0.00320821
0.00326821 -0.000367446 0.000193295
-0.000367446 0.00164915 -3.51126e-05
0.000193295 -3.51126e-05 0.00151052
0.00843067 -0.000176158 0.00038531
-0.000176158 0.00512889 -4.7887e-05
0.00038531 -4.7887e-05 0.00514572
0.00242061 0.000565428 5.49535e-07
0.000565428 0.000124994 -8.20987e-07
5.49535e-07 -8.20987e-07 2.87116e-05
0.00218515 0.000605187 7.78729e-07
0.000605187 0.00015252 3.27433e-06
7.78729e-07 3.27433e-06 -6.60217e-05
0.00233258 0.000580894 6.39587e-07
0.000580894 0.000132888 5.00194e-09
6.39587e-07 5.00194e-09 -1.88476e-05
0.00223632 0.000666551 -1.18622e-07
0.000666551 0.000341709 7.57279e-06
-1.18622e-07 7.57279e-06 1.47167e-05
0.00245849 0.000772587 -8.60593e-09
0.000772587 0.000351053 -2.82836e-07
-8.60593e-09 -2.82836e-07 4.37008e-05
0.00282338 0.000910741 -9.31116e-07
0.000910741 0.000680918 -1.11072e-05
-9.31116e-07 -1.11072e-05 0.000285964
0.00213758 0.00075502 1.07231e-06
0.00075502 0.000367942 3.40288e-07
1.07231e-06 3.40288e-07 -3.8824e-05
0.00148071 0.000517585 -3.3399e-05
0.000517585 0.000146069 -4.26329e-06
-3.3399e-05 -4.26329e-06 -0.000196491
0.00192421 0.000781543 4.42108e-06
0.000781543 0.000323763 -9.80166e-06
4.42108e-06 -9.80166e-06 -0.000143821
0.00123111 0.00050706 -3.37684e-06
0.00050706 9.3715e-05 -1.22498e-07
-3.37684e-06 -1.22498e-07 -0.00027123
0.000187844 0.000311533 -2.79928e-05
0.000311533 -0.000312242 -2.2458e-05
-2.79928e-05 -2.2458e-05 -0.000510986
0.00118798 0.000427031 2.61312e-05
0.000427031 0.000196991 5.13263e-06
2.61312e-05 5.13263e-06 -0.000140716
0.000253496 0.000286423 2.29991e-06
0.000286423 -0.000251384 2.31204e-06
2.29991e-06 2.31204e-06 -0.000431845
0.00898598 7.46624e-05 -0.000372007
7.46624e-05 0.00550297 -4.45897e-05
-0.000372007 -4.45897e-05 0.00550864
0.0001549 0.000209428 2.67405e-05
0.000209428 -0.000306854 2.58142e-05
2.67405e-05 2.58142e-05 -0.000453544
0.00810816 -7.00072e-05 1.08659e-05
-7.00072e-05 0.00497875 -2.13268e-06
1.08659e-05 -2.13268e-06 0.00497519
0.0067043 -0.000179832 0.000197008
-0.000179832 0.00412166 1.86257e-05
0.000197008 1.86257e-05 0.00409857
0.00261368 0.000318864 2.56798e-06
0.000318864 -0.000143281 -3.54251e-08
2.56798e-06 -3.54251e-08 1.92559e-05
0.00243551 0.000255256 2.39029e-06
0.000255256 -0.00034397 -1.3359e-06
2.39029e-06 -1.3359e-06 -6.42221e-05
0.000893898 0.000237681 -6.23601e-05
0.000237681 -0.00166738 -2.12172e-06
-6.23601e-05 -2.12172e-06 -0.000880567
0.00248066 0.00048873 4.03314e-06
0.00048873 -2.5628e-05 9.9471e-07
4.03314e-06 9.9471e-07 -6.02708e-06
0.00250983 0.000699606 -1.35823e-06
0.000699606 0.000122955 2.41752e-07
-1.35823e-06 2.41752e-07 -1.03186e-05
0.00258531 0.000965894 7.36765e-06
0.000965894 0.000380786 -3.0659e-06
7.36765e-06 -3.0659e-06 5.14854e-05
0.0024728 0.000722123 -3.71492e-06
0.000722123 0.000236884 -4.03765e-06
-3.71492e-06 -4.03765e-06 2.87941e-06
0.00272106 0.000539504 -2.49306e-06
0.000539504 -6.03473e-05 -2.90627e-07
-2.49306e-06 -2.90627e-07 3.34555e-05
0.00267138 0.000886079 2.30266e-06
0.000886079 0.000120028 -2.53985e-06
2.30266e-06 -2.53985e-06 -3.25577e-05
0.00217591 0.000504644 9.07807e-06
0.000504644 -0.000259033 -1.1764e-06
9.07807e-06 -1.1764e-06 -9.99239e-05
0.00241233 8.67485e-05 1.48888e-06
8.67485e-05 -8.9236e-05 4.05834e-07
1.48888e-06 4.05834e-07 1.86876e-05
0.00251436 0.000112879 1.83909e-07
0.000112879 -0.000195747 -2.2307e-07
1.83909e-07 -2.2307e-07 -8.20268e-06
0.00251763 0.00018519 -8.80727e-06
0.00018519 -0.000354215 -8.18824e-07
-8.80727e-06 -8.18824e-07 -0.000108074
0.00223928 -1.52572e-05 -2.58721e-08
-1.52572e-05 -8.6971e-05 3.52519e-07
-2.58721e-08 3.52519e-07 -1.44269e-05
0.00268085 -8.48347e-05 3.50644e-06
-8.48347e-05 -0.000230059 -3.34275e-07
3.50644e-06 -3.34275e-07 6.82734e-06
0.00235914 -8.58309e-05 -4.06202e-07
-8.58309e-05 -0.000117669 2.94229e-07
-4.06202e-07 2.94229e-07 -1.07718e-06
0.00219759 -0.000126964 2.05942e-07
-0.000126964 -7.41354e-05 6.16871e-08
2.05942e-07 6.16871e-08 -2.89411e-05
0.00240633 -0.000299676 -1.16382e-06
-0.000299676 -0.000144073 4.10663e-07
-1.16382e-06 4.10663e-07 -2.8749e-05
0.0022553 -0.000238203 6.80436e-07
-0.000238203 -5.32973e-05 -3.5526e-07
6.80436e-07 -3.5526e-07 -1.58728e-05
0.00225242 -0.000243011 -3.74806e-06
-0.000243011 3.55331e-05 6.47497e-07
-3.74806e-06 6.47497e-07 1.09178e-05
0.0023233 -0.000367223 4.74926e-07
-0.000367223 -4.38638e-06 -2.88215e-08
4.74926e-07 -2.88215e-08 -4.1208e-06
0.00231856 -0.000355096 1.88686e-07
-0.000355096 8.10522e-05 -1.9875e-07
1.88686e-07 -1.9875e-07 2.8861e-05
0.00222757 -0.0003281 -1.83853e-06
-0.0003281 0.000140387 -3.53318e-08
-1.83853e-06 -3.53318e-08 2.26357e-05
0.00234215 -0.000461673 4.35688e-06
-0.000461673 0.000138636 -6.69276e-07
4.35688e-06 -6.69276e-07 3.28704e-05
0.00220201 -0.000409191 -8.70161e-07
-0.000409191 0.000147719 -2.30185e-07
-8.70161e-07 -2.30185e-07 -1.15239e-05
0.00137558 -0.000251644 -5.57312e-06
-0.000251644 -4.17941e-05 2.53469e-06
-5.57312e-06 2.53469e-06 -0.000231547
0.00228128 -0.000500381 2.40641e-06
-0.000500381 0.000239369 1.09246e-06
2.40641e-06 1.09246e-06 2.7946e-05
0.00145565 -0.000308319 -3.06465e-07
-0.000308319 5.90707e-06 1.06392e-07
-3.06465e-07 1.06392e-07 -0.000207694
0.00283632 -0.00022105 -7.22593e-05
-0.00022105 0.00135905 1.3814e-05
-7.22593e-05 1.3814e-05 0.00123945
0.00151022 -0.000368205 9.82323e-06
-0.000368205 4.77973e-05 -4.09577e-06
9.82323e-06 -4.09577e-06 -0.000195543
0.00303782 -0.000263676 5.28561e-05
-0.000263676 0.00148081 -7.86859e-06
5.28561e-05 -7.86859e-06 0.00136186
0.00268783 -0.000145313 -0.000302368
-0.000145313 0.00139206 4.64087e-05
-0.000302368 4.64087e-05 0.0013739
0.00321662 -0.000304977 0.000181129
-0.000304977 0.00159311 -3.45024e-05
0.000181129 -3.45024e-05 0.00147402
0.00232105 -0.000108598 -0.000119695
-0.000108598 0.00115894 1.96172e-05
-0.000119695 1.96172e-05 0.00112079
0.00778639 -0.000111798 0.000139138
-0.000111798 0.00469547 -1.02083e-05
0.000139138 -1.02083e-05 0.00467485
0.00239849 0.000472746 1.81419e-07
0.000472746 8.38808e-05 -6.95035e-08
1.81419e-07 -6.95035e-08 3.28469e-05
0.0023195 0.000542057 -2.80364e-06
0.000542057 0.0001397 -1.04244e-06
-2.80364e-06 -1.04244e-06 -6.57451e-06
0.00241229 0.000561516 -2.93904e-06
0.000561516 0.000119046 1.60795e-07
-2.93904e-06 1.60795e-07 1.87089e-05
0.00212777 0.000561667 -2.15476e-06
0.000561667 0.000189877 2.9462e-06
-2.15476e-06 2.9462e-06 -7.28025e-05
0.00223672 0.000622386 -1.08819e-06
0.000622386 0.000162328 -2.19193e-06
-1.08819e-06 -2.19193e-06 -4.92983e-05
0.00232369 0.000568898 -6.2276e-06
0.000568898 0.000134235 -3.59814e-06
-6.2276e-06 -3.59814e-06 -5.51804e-06
0.00154985 0.000454619 -2.43798e-05
0.000454619 8.23733e-05 -4.01739e-06
-2.43798e-05 -4.01739e-06 -0.000206987
0.00216166 0.000661538 1.45328e-06
0.000661538 0.000288622 3.51482e-07
1.45328e-06 3.51482e-07 -3.74235e-05
0.00252186 0.00077888 8.61165e-07
0.00077888 0.000379571 -8.19687e-06
8.61165e-07 -8.19687e-06 7.14965e-05
0.00205453 0.000748995 4.12795e-07
0.000748995 0.000308168 -9.35155e-06
4.12795e-07 -9.35155e-06 -9.81279e-05
0.00146935 0.000519657 -7.66917e-07
0.000519657 0.0001356 1.34316e-07
-7.66917e-07 1.34316e-07 -0.000209241
0.000342947 0.000304443 -2.55402e-05
0.000304443 -0.00023995 -2.02801e-05
-2.55402e-05 -2.02801e-05 -0.000432602
0.00144541 0.000529798 3.85153e-05
0.000529798 0.000213071 5.25501e-06
3.85153e-05 5.25501e-06 -0.000155937
0.000139562 0.000296323 9.99455e-07
0.000296323 -0.00033253 1.26703e-06
9.99455e-07 1.26703e-06 -0.000528665
0.00852332 0.000164105 -0.000370945
0.000164105 0.00519869 -5.09111e-05
-0.000370945 -5.09111e-05 0.00520342
0.000188279 0.000246658 2.5442e-05
0.000246658 -0.000293316 2.5239e-05
2.5442e-05 2.5239e-05 -0.000468272
0.00885114 3.55167e-05 6.85109e-06
3.55167e-05 0.00541226 9.12825e-07
6.85109e-06 9.12825e-07 0.00542254
0.00793451 -0.000103838 0.000273365
-0.000103838 0.00486477 2.04824e-05
0.000273365 2.04824e-05 0.004862
0.00240123 0.000260034 1.4536e-06
0.000260034 -7.14934e-05 -1.67723e-07
1.4536e-06 -1.67723e-07 5.90827e-06
0.00258429 0.000325704 -9.57895e-07
0.000325704 -0.000182936 3.08254e-07
-9.57895e-07 3.08254e-07 -1.46017e-05
0.00235826 0.000247218 -8.10333e-07
0.000247218 -0.000352041 1.47596e-07
-8.10333e-07 1.47596e-07 -7.01213e-05
0.00247043 0.000483546 -4.32678e-08
0.000483546 -3.00099e-05 1.17486e-07
-4.32678e-08 1.17486e-07 -8.4062e-06
0.00247013 0.000694654 -7.69232e-07
0.000694654 0.000111944 -2.08578e-06
-7.69232e-07 -2.08578e-06 -1.81619e-05
0.00264985 0.000523291 -1.80863e-07
0.000523291 -0.000103907 -6.81502e-07
-1.80863e-07 -6.81502e-07 -9.97086e-06
0.00229464 8.24667e-05 1.12628e-06
8.24667e-05 -5.50109e-05 2.71914e-07
1.12628e-06 2.71914e-07 6.59875e-06
0.00239731 8.66014e-05 1.85458e-07
8.66014e-05 -9.40654e-05 -2.06086e-07
1.85458e-07 -2.06086e-07 1.33365e-05
0.00245985 0.000113837 3.37615e-08
0.000113837 -0.000217296 2.15564e-07
3.37615e-08 2.15564e-07 -3.46562e-05
0.00225372 -1.18533e-05 -5.75943e-07
-1.18533e-05 -7.50286e-05 6.19868e-08
-5.75943e-07 6.19868e-08 -4.53553e-06
0.00222475 -3.3752e-05 -1.70854e-06
-3.3752e-05 4.75835e-06 4.30089e-07
-1.70854e-06 4.30089e-07 3.73557e-05
0.00237039 -8.98588e-05 -1.03664e-06
-8.98588e-05 -0.000110778 1.14219e-07
-1.03664e-06 1.14219e-07 5.05819e-06
0.00222451 -0.000128574 -1.08924e-06
-0.000128574 -4.72061e-05 2.03385e-07
-1.08924e-06 2.03385e-07 -7.33923e-06
0.0021261 -0.000149498 -4.46309e-06
-0.000149498 -4.11236e-05 8.1273e-07
-4.46309e-06 8.1273e-07 -5.00952e-05
0.00225681 -0.000234982 4.90613e-07
-0.000234982 -5.33581e-05 -3.62579e-07
4.90613e-07 -3.62579e-07 -1.51686e-05
0.0022579 -0.000243412 1.39491e-06
-0.000243412 4.12916e-05 -3.53442e-07
1.39491e-06 -3.53442e-07 1.6456e-05
0.00217185 -0.000241925 -9.31392e-07
-0.000241925 7.81845e-05 2.24407e-07
-9.31392e-07 2.24407e-07 -1.08293e-05
0.00234518 -0.000356603 4.85444e-06
-0.000356603 0.00010045 -1.03871e-06
4.85444e-06 -1.03871e-06 4.75001e-05
0.00219211 -0.000326289 -3.91028e-07
-0.000326289 0.000114745 -1.35567e-07
-3.91028e-07 -1.35567e-07 -2.5828e-06
0.00135952 -0.000200238 -3.36903e-06
-0.000200238 -5.00343e-05 1.71522e-06
-3.36903e-06 1.71522e-06 -0.000219076
0.00215399 -0.000407031 2.04355e-06
-0.000407031 0.000109015 1.33038e-07
2.04355e-06 1.33038e-07 -4.99942e-05
0.0014152 -0.000252132 -3.1432e-07
-0.000252132 -2.19369e-05 9.33854e-08
-3.1432e-07 9.33854e-08 -0.000210367
0.00272454 -0.000203632 -7.32441e-05
-0.000203632 0.00129794 1.18385e-05
-7.32441e-05 1.18385e-05 0.00118823
0.00147306 -0.000309516 6.94412e-06
-0.000309516 6.9892e-06 -3.1429e-06
6.94412e-06 -3.1429e-06 -0.000205493
0.00293341 -0.000218488 4.97997e-05
-0.000218488 0.00141676 -6.06166e-06
4.97997e-05 -6.06166e-06 0.00131084
0.00260828 -0.000117883 -0.000295042
-0.000117883 0.001338 3.82788e-05
-0.000295042 3.82788e-05 0.00132188
0.00311963 -0.00025237 0.000175206
-0.00025237 0.0015246 -2.87165e-05
0.000175206 -2.87165e-05 0.00142172
0.0022707 -0.00010271 -0.000108938
-0.00010271 0.00112716 1.51402e-05
-0.000108938 1.51402e-05 0.00109077
0.0019483 -0.00010196 8.13833e-05
-0.00010196 0.000933775 -1.41211e-05
8.13833e-05 -1.41211e-05 0.00087134
0.00227245 0.000293853 8.64037e-07
0.000293853 -2.73535e-05 4.24901e-08
8.64037e-07 4.24901e-08 -2.09301e-05
0.0023472 0.000438278 -4.37631e-06
0.000438278 0.000123054 -6.45482e-07
-4.37631e-06 -6.45482e-07 2.79609e-05
0.00237619 0.000473402 -4.27715e-07
0.000473402 4.91015e-05 -1.82052e-07
-4.27715e-07 -1.82052e-07 9.48292e-06
0.00226775 0.000509909 -1.33777e-06
0.000509909 0.000203689 5.51932e-07
-1.33777e-06 5.51932e-07 1.02193e-06
0.00230459 0.000538104 -7.48795e-07
0.000538104 0.000137282 -2.69706e-07
-7.48795e-07 -2.69706e-07 -1.36998e-05
0.00241254 0.000559867 -4.4957e-07
0.000559867 0.000119091 4.05833e-07
-4.4957e-07 4.05833e-07 1.41106e-05
0.00150181 0.000377613 -1.70306e-05
0.000377613 3.0396e-05 -3.8907e-06
-1.70306e-05 -3.8907e-06 -0.000212548
0.00214661 0.000568835 5.10275e-07
0.000568835 0.000192761 -1.29845e-06
5.10275e-07 -1.29845e-06 -6.10231e-05
0.00231923 0.000643439 -3.34713e-06
0.000643439 0.000192184 -5.56094e-06
-3.34713e-06 -5.56094e-06 -1.31607e-05
0.000375307 0.000240826 -2.21256e-05
0.000240826 -0.000244678 -1.67707e-05
-2.21256e-05 -1.67707e-05 -0.000413297
0.00151687 0.000447097 -1.03311e-07
0.000447097 7.25799e-05 2.67841e-07
-1.03311e-07 2.67841e-07 -0.000215932
0.00208081 0.000655931 1.73627e-06
0.000655931 0.000231209 -7.47987e-06
1.73627e-06 -7.47987e-06 -9.37765e-05
0.00143806 0.000522072 3.53998e-05
0.000522072 0.000109116 4.81394e-06
3.53998e-05 4.81394e-06 -0.000238538
0.000297561 0.000289954 -4.30976e-08
0.000289954 -0.000265864 9.60808e-07
-4.30976e-08 9.60808e-07 -0.000457882
0.00814208 0.000254639 -0.000370167
0.000254639 0.00495113 -5.49716e-05
-0.000370167 -5.49716e-05 0.00495316
0.000304436 0.000285605 2.62492e-05
0.000285605 -0.000223541 2.07406e-05
2.62492e-05 2.07406e-05 -0.00041641
0.00869814 0.000141667 1.00988e-05
0.000141667 0.0052971 2.02004e-06
1.00988e-05 2.02004e-06 0.00531055
0.00865974 -3.17763e-06 0.000335149
-3.17763e-06 0.00528364 2.74936e-05
0.000335149 2.74936e-05 0.00529422
0.0022991 0.000158724 8.03726e-07
0.000158724 -2.28408e-05 -2.62513e-07
8.03726e-07 -2.62513e-07 2.62986e-05
0.00236657 0.00026414 5.80189e-07
0.00026414 -0.000100502 3.52845e-07
5.80189e-07 3.52845e-07 -2.45596e-05
0.00255691 0.000333612 -7.83561e-07
0.000333612 -0.000216045 8.6583e-07
-7.83561e-07 8.6583e-07 -4.28263e-05
0.00246521 0.000477307 -1.52741e-06
0.000477307 -3.14594e-05 -9.17805e-07
-1.52741e-06 -9.17805e-07 -8.17315e-06
0.00219116 3.62933e-05 -2.01326e-06
3.62933e-05 1.33193e-05 3.17225e-07
-2.01326e-06 3.17225e-07 2.48994e-05
0.00229223 7.28738e-05 -4.86188e-09
7.28738e-05 -5.91614e-05 -3.77352e-08
-4.86188e-09 -3.77352e-08 4.92785e-06
0.00237461 8.60527e-05 -7.26386e-07
8.60527e-05 -0.000104659 -2.63647e-07
-7.26386e-07 -2.63647e-07 2.21451e-06
0.0022708 -7.93705e-06 -2.78029e-06
-7.93705e-06 -6.08296e-05 -4.8232e-07
-2.78029e-06 -4.8232e-07 7.30814e-06
0.0022306 -2.75727e-05 -6.36743e-07
-2.75727e-05 1.80642e-06 -1.48961e-07
-6.36743e-07 -1.48961e-07 3.78136e-05
0.0021406 -6.01064e-05 -4.7884e-06
-6.01064e-05 -9.00312e-06 7.71733e-07
-4.7884e-06 7.71733e-07 -2.01314e-05
0.00225335 -0.000130182 2.10066e-07
-0.000130182 -1.86678e-05 1.87941e-07
2.10066e-07 1.87941e-07 1.55809e-05
0.00218057 -0.00015102 -1.74096e-06
-0.00015102 5.07875e-06 3.32824e-07
-1.74096e-06 3.32824e-07 -1.12652e-05
0.00218925 -0.000158827 -1.53307e-06
-0.000158827 7.69654e-05 4.53652e-07
-1.53307e-06 4.53652e-07 1.16334e-05
0.00226885 -0.000243081 6.38576e-06
-0.000243081 4.93812e-05 -1.32217e-06
6.38576e-06 -1.32217e-06 2.45032e-05
0.00220641 -0.000239835 7.44947e-07
-0.000239835 0.000106164 -2.85979e-07
7.44947e-07 -2.85979e-07 1.82011e-05
0.0013735 -0.00015063 -3.48705e-06
-0.00015063 -3.84197e-05 1.02656e-06
-3.48705e-06 1.02656e-06 -0.000190042
0.00217437 -0.000323085 1.97151e-06
-0.000323085 0.000102268 -4.96608e-07
1.97151e-06 -4.96608e-07 -1.4139e-05
0.00138154 -0.00020001 -1.53462e-07
-0.00020001 -3.93794e-05 1.46716e-07
-1.53462e-07 1.46716e-07 -0.000207419
0.000287837 -0.000107471 -1.68318e-05
-0.000107471 -0.000297193 6.92676e-06
-1.68318e-05 6.92676e-06 -0.000413558
0.00145039 -0.00025227 4.48319e-06
-0.00025227 -3.79608e-06 -2.34664e-06
4.48319e-06 -2.34664e-06 -0.000190828
0.00160295 -0.000143903 7.43149e-05
-0.000143903 0.000553326 -6.24316e-06
7.43149e-05 -6.24316e-06 0.000449348
0.0072626 -0.000192537 -0.00039209
-0.000192537 0.00438528 3.25828e-05
-0.00039209 3.25828e-05 0.00441372
0.00303889 -0.000199892 0.000170011
-0.000199892 0.00147434 -2.2503e-05
0.000170011 -2.2503e-05 0.0013844
0.00221661 -9.32908e-05 -9.91399e-05
-9.32908e-05 0.00109665 9.81674e-06
-9.91399e-05 9.81674e-06 0.00106056
0.00184981 -0.000114903 9.21322e-05
-0.000114903 0.000879496 -1.55147e-05
9.21322e-05 -1.55147e-05 0.000816342
0.00221528 0.000193903 -2.35154e-07
0.000193903 -6.63165e-06 -6.88353e-07
-2.35154e-07 -6.88353e-07 -1.28298e-06
0.00231235 0.000333772 -2.9226e-06
0.000333772 7.62387e-05 -2.85438e-07
-2.9226e-06 -2.85438e-07 2.18764e-05
0.00229016 0.000286142 -4.7314e-07
0.000286142 -1.68324e-06 -1.08444e-07
-4.7314e-07 -1.08444e-07 -1.54581e-06
0.0023183 0.000411081 -9.27505e-07
0.000411081 0.000212584 7.23986e-07
-9.27505e-07 7.23986e-07 6.86015e-05
0.00228136 0.000434742 6.62253e-07
0.000434742 7.87617e-05 1.44853e-07
6.62253e-07 1.44853e-07 -1.5292e-05
0.00235245 0.000473566 -9.28715e-07
0.000473566 1.2959e-05 -2.96242e-07
-9.28715e-07 -2.96242e-07 -1.52102e-05
0.00162315 0.000329715 -1.00599e-05
0.000329715 0.000115722 -1.49886e-06
-1.00599e-05 -1.49886e-06 -8.66662e-05
0.00221904 0.000501252 -3.38866e-07
0.000501252 0.000173578 -3.40238e-07
-3.38866e-07 -3.40238e-07 -2.7802e-05
0.00225834 0.000530504 2.01006e-06
0.000530504 0.000113706 -1.14639e-06
2.01006e-06 -1.14639e-06 -4.14258e-05
0.00035687 0.000174686 -1.86772e-05
0.000174686 -0.000264497 -1.28548e-05
-1.86772e-05 -1.28548e-05 -0.000409636
0.00149993 0.000374391 5.01945e-07
0.000374391 3.78522e-05 4.82787e-07
5.01945e-07 4.82787e-07 -0.00019966
0.00213449 0.000571547 2.46885e-06
0.000571547 0.000176817 -6.59345e-06
2.46885e-06 -6.59345e-06 -6.73985e-05
0.00779133 0.000308512 -0.000372393
0.000308512 0.00472519 -5.34142e-05
-0.000372393 -5.34142e-05 0.00472803
0.000331656 0.000237874 3.46021e-07
0.000237874 -0.000277203 7.33182e-07
3.46021e-07 7.33182e-07 -0.000447536
0.0014604 0.000437855 2.62115e-05
0.000437855 4.77174e-05 4.43205e-06
2.62115e-05 4.43205e-06 -0.000239667
0.000241286 0.000276539 2.31342e-05
0.000276539 -0.000298488 2.04896e-05
2.31342e-05 2.04896e-05 -0.000489943
0.0082115 0.000252001 9.86501e-06
0.000252001 0.00499201 2.85011e-06
9.86501e-06 2.85011e-06 0.00500009
0.00871362 0.00011701 0.00039041
0.00011701 0.00529202 3.61564e-05
0.00039041 3.61564e-05 0.00531404
0.00214612 9.94271e-05 -2.97794e-06
9.94271e-05 -9.77923e-06 -1.03826e-07
-2.97794e-06 -1.03826e-07 -6.42459e-06
0.00229168 0.000153139 -1.50372e-07
0.000153139 -2.7423e-05 6.38279e-08
-1.50372e-07 6.38279e-08 1.89184e-05
0.00233327 0.000267814 -1.05504e-06
0.000267814 -0.000127762 3.57244e-07
-1.05504e-06 3.57244e-07 -5.30505e-05
0.00218193 1.76537e-05 -6.4036e-06
1.76537e-05 3.5216e-05 3.0626e-07
-6.4036e-06 3.0626e-07 1.43615e-05
0.00215939 4.26615e-05 7.46746e-07
4.26615e-05 -1.2476e-05 1.05977e-08
7.46746e-07 1.05977e-08 3.21412e-06
0.00229291 6.23994e-05 -1.51785e-06
6.23994e-05 -6.1425e-05 -2.38661e-07
-1.51785e-06 -2.38661e-07 5.3008e-06
0.00223447 -2.16172e-05 6.14411e-07
-2.16172e-05 -3.01984e-06 -3.95138e-07
6.14411e-07 -3.95138e-07 3.68256e-05
0.00214011 -5.87482e-05 -5.68696e-07
-5.87482e-05 -1.02327e-05 2.59373e-08
-5.68696e-07 2.59373e-08 -2.03029e-05
0.00210619 -7.41141e-05 -1.21198e-06
-7.41141e-05 3.38019e-05 5.50858e-07
-1.21198e-06 5.50858e-07 -3.62031e-05
0.00223459 -0.000152694 4.29234e-06
-0.000152694 5.16282e-05 -6.5764e-07
4.29234e-06 -6.5764e-07 2.80349e-05
0.00216326 -0.000160584 8.28169e-07
-0.000160584 6.92358e-05 -3.50912e-08
8.28169e-07 -3.50912e-08 -6.14556e-06
0.00150631 -9.50532e-05 -4.0873e-06
-9.50532e-05 5.46127e-05 3.58997e-07
-4.0873e-06 3.58997e-07 -6.99432e-05
0.00221836 -0.000238863 2.45273e-06
-0.000238863 0.000119037 -8.80996e-07
2.45273e-06 -8.80996e-07 3.16562e-05
0.00136537 -0.000146854 5.1542e-08
-0.000146854 -4.956e-05 3.43642e-08
5.1542e-08 3.43642e-08 -0.000200127
0.000277256 -3.70914e-05 -1.54927e-05
-3.70914e-05 -0.000301838 3.87592e-06
-1.54927e-05 3.87592e-06 -0.00040681
0.00142045 -0.000199083 2.66896e-06
-0.000199083 -2.04652e-05 -1.48129e-06
2.66896e-06 -1.48129e-06 -0.000187245
0.000317334 -9.23682e-05 -4.93304e-07
-9.23682e-05 -0.000275436 5.18623e-07
-4.93304e-07 5.18623e-07 -0.0003912
0.00715482 -8.32986e-05 -0.000380542
-8.32986e-05 0.00430799 2.09127e-05
-0.000380542 2.09127e-05 0.00434325
0.000417654 -0.000103037 1.25891e-05
-0.000103037 -0.000219472 -9.24162e-06
1.25891e-05 -9.24162e-06 -0.000344816
0.00463626 -0.000126725 0.000162348
-0.000126725 0.00268112 -9.71927e-06
0.000162348 -9.71927e-06 0.0026656
0.00180374 -0.000100965 9.66987e-05
-0.000100965 0.000853081 -1.44011e-05
9.66987e-05 -1.44011e-05 0.000792109
0.00222545 0.000161941 -5.10018e-06
0.000161941 6.31704e-05 -7.90547e-07
-5.10018e-06 -7.90547e-07 5.90384e-05
0.00228606 0.000238742 -5.08453e-06
0.000238742 8.7272e-05 -6.47591e-07
-5.08453e-06 -6.47591e-07 4.0204e-05
0.00220747 0.000186703 -6.76973e-07
0.000186703 -6.20691e-06 -2.77938e-07
-6.76973e-07 -2.77938e-07 -4.36654e-07
0.00229145 0.000326275 -7.38064e-07
0.000326275 0.000186204 2.80618e-07
-7.38064e-07 2.80618e-07 6.60663e-05
0.00232792 0.000330846 -7.88632e-08
0.000330846 8.69319e-05 -8.47021e-08
-7.88632e-08 -8.47021e-08 3.13919e-05
0.00230903 0.000278853 6.5892e-07
0.000278853 2.54035e-05 1.80722e-07
6.5892e-07 1.80722e-07 1.91996e-05
0.00152891 0.000260447 -4.61835e-06
0.000260447 6.1161e-05 -1.10212e-06
-4.61835e-06 -1.10212e-06 -0.000113608
0.00217381 0.000402252 1.85129e-06
0.000402252 0.000122441 3.52476e-07
1.85129e-06 3.52476e-07 -3.1123e-05
0.00220757 0.000431196 3.64001e-06
0.000431196 2.89451e-05 1.08345e-07
3.64001e-06 1.08345e-07 -6.39145e-05
0.000332242 0.000126651 -1.65764e-05
0.000126651 -0.000277978 -9.5378e-06
-1.65764e-05 -9.5378e-06 -0.000408107
0.00154029 0.00031958 1.61088e-06
0.00031958 6.69675e-05 1.04453e-06
1.61088e-06 1.04453e-06 -0.000132614
0.00218762 0.000494747 1.27967e-06
0.000494747 0.000155658 -1.62502e-06
1.27967e-06 -1.62502e-06 -4.44692e-05
0.00750868 0.000335865 -0.000384833
0.000335865 0.00455575 -5.03654e-05
-0.000384833 -5.03654e-05 0.00455899
0.000346972 0.00017868 5.58283e-07
0.00017868 -0.000276027 4.02682e-07
5.58283e-07 4.02682e-07 -0.0004237
0.00149566 0.00037313 1.77191e-05
0.00037313 4.12337e-05 3.07891e-06
1.77191e-05 3.07891e-06 -0.000191486
0.00789802 0.000330922 1.15033e-05
0.000330922 0.00480419 5.23914e-06
1.15033e-05 5.23914e-06 0.00480392
0.000305615 0.000235216 1.97592e-05
0.000235216 -0.000298821 1.72243e-05
1.97592e-05 1.72243e-05 -0.000470947
0.00828391 0.000226322 0.000390773
0.000226322 0.00502188 4.49587e-05
0.000390773 4.49587e-05 0.00503995
0.0021302 8.08325e-05 -6.10354e-06
8.08325e-05 -7.30769e-06 -3.57389e-08
-6.10354e-06 -3.57389e-08 -3.46585e-05
0.00215377 0.000106906 -8.97855e-07
0.000106906 2.40215e-06 -2.33735e-07
-8.97855e-07 -2.33735e-07 5.58129e-06
0.00228215 0.000148 -4.81736e-07
0.000148 -3.26491e-05 2.59166e-07
-4.81736e-07 2.59166e-07 1.06151e-05
0.00208656 -2.68915e-06 -2.91405e-07
-2.68915e-06 2.41063e-05 2.78349e-07
-2.91405e-07 2.78349e-07 -4.54505e-05
0.00214829 1.92145e-05 -6.66405e-07
1.92145e-05 7.53621e-06 -2.19266e-08
-6.66405e-07 -2.19266e-08 -1.01446e-05
0.00212745 4.97611e-05 1.98883e-06
4.97611e-05 -3.83967e-05 -8.54772e-08
1.98883e-06 -8.54772e-08 -1.8617e-05
0.00213999 -5.7518e-05 3.36357e-06
-5.7518e-05 -1.09809e-05 -6.72161e-07
3.36357e-06 -6.72161e-07 -2.01475e-05
0.00206356 -7.28102e-05 -1.2417e-06
-7.28102e-05 6.83679e-06 2.51312e-07
-1.2417e-06 2.51312e-07 -6.25112e-05
0.0014458 -3.86357e-05 -3.7199e-06
-3.86357e-05 3.4568e-05 2.99392e-08
-3.7199e-06 2.99392e-08 -8.205e-05
0.0021298 -0.000162177 2.03356e-07
-0.000162177 5.58381e-05 -5.77492e-07
2.03356e-07 -5.77492e-07 -2.95354e-05
0.00141592 -9.58037e-05 3.45321e-06
-9.58037e-05 -1.11961e-05 -3.80351e-07
3.45321e-06 -3.80351e-07 -0.00014248
0.000265601 -1.57706e-05 -1.59064e-05
-1.57706e-05 -0.000301963 2.32932e-06
-1.59064e-05 2.32932e-06 -0.000401007
0.00134804 -0.000144511 2.8707e-06
-0.000144511 -6.51867e-05 -1.05429e-06
2.8707e-06 -1.05429e-06 -0.000214968
0.000287878 -4.82063e-05 3.91449e-07
-4.82063e-05 -0.00029197 -3.46967e-07
3.91449e-07 -3.46967e-07 -0.00039618
0.00691601 -0.000175107 -0.000378579
-0.000175107 0.00417477 2.25935e-05
-0.000378579 2.25935e-05 0.00420223
0.000324378 -7.6833e-05 1.54375e-05
-7.6833e-05 -0.000268816 -5.45689e-06
1.54375e-05 -5.45689e-06 -0.000383086
0.00706688 -0.000118958 6.88948e-06
-0.000118958 0.00425667 2.12034e-07
6.88948e-06 2.12034e-07 0.0042903
0.00209762 -5.12096e-05 0.000289021
-5.12096e-05 0.00101102 -2.23122e-05
0.000289021 -2.23122e-05 0.00100329
0.00215737 0.000163251 -7.35833e-06
0.000163251 1.35752e-05 -9.16231e-07
-7.35833e-06 -9.16231e-07 -2.64739e-05
0.00215197 0.000163066 -1.04609e-06
0.000163066 1.4833e-06 -1.11687e-07
-1.04609e-06 -1.11687e-07 4.2387e-06
0.00228399 0.000240882 9.74205e-07
0.000240882 0.00016621 2.22394e-07
9.74205e-07 2.22394e-07 6.89717e-05
0.0022938 0.000238311 7.74624e-07
0.000238311 8.85995e-05 3.20614e-08
7.74624e-07 3.20614e-08 4.21811e-05
0.00219708 0.000179314 9.78764e-07
0.000179314 -8.16603e-06 1.77206e-07
9.78764e-07 1.77206e-07 -1.78456e-06
0.00131981 0.000189661 -1.51888e-06
0.000189661 -6.93566e-05 -1.04425e-06
-1.51888e-06 -1.04425e-06 -0.000235539
0.00222246 0.000323563 3.35444e-07
0.000323563 0.000136194 1.33658e-08
3.35444e-07 1.33658e-08 1.54603e-05
0.00234592 0.000328023 4.3055e-06
0.000328023 9.8923e-05 5.79123e-07
4.3055e-06 5.79123e-07 4.19816e-05
0.000329196 9.33285e-05 -1.56241e-05
9.33285e-05 -0.000271419 -7.15196e-06
-1.56241e-05 -7.15196e-06 -0.000391691
0.00144126 0.000254835 3.0304e-06
0.000254835 8.86648e-06 1.01773e-06
3.0304e-06 1.01773e-06 -0.000171691
0.00204985 0.000394475 9.53928e-07
0.000394475 4.67677e-05 -1.3377e-08
9.53928e-07 -1.3377e-08 -0.000116493
0.00728864 0.000322283 -0.00039622
0.000322283 0.00442688 -4.51751e-05
-0.00039622 -4.51751e-05 0.00443253
0.000344834 0.000133482 6.92701e-07
0.000133482 -0.000272825 3.02674e-07
6.92701e-07 3.02674e-07 -0.000405369
0.00147125 0.000309943 9.93439e-06
0.000309943 2.71516e-05 3.37293e-06
9.93439e-06 3.37293e-06 -0.000169484
0.00761664 0.000363495 8.26715e-06
0.000363495 0.00463717 5.59371e-06
8.26715e-06 5.59371e-06 0.00463466
0.000347097 0.000182063 1.73177e-05
0.000182063 -0.000281029 1.34988e-05
1.73177e-05 1.34988e-05 -0.000431146
0.00802757 0.000345276 0.000404053
0.000345276 0.00488325 5.59887e-05
0.000404053 5.59887e-05 0.00488719
0.00204033 7.70425e-05 1.19133e-06
7.70425e-05 -3.39421e-06 -1.31004e-07
1.19133e-06 -1.31004e-07 -8.01381e-05
0.00215513 8.13465e-05 -2.56347e-06
8.13465e-05 1.49871e-05 -1.74663e-07
-2.56347e-06 -1.74663e-07 -1.38324e-05
0.00216253 0.000114101 3.66733e-06
0.000114101 1.54854e-05 1.95903e-07
3.66733e-06 1.95903e-07 1.84371e-05
0.00140781 -6.54171e-06 -4.214e-06
-6.54171e-06 2.86912e-05 -5.15175e-08
-4.214e-06 -5.15175e-08 -8.69766e-05
0.00205226 1.74628e-07 -8.86398e-07
1.74628e-07 4.16904e-06 1.06934e-07
-8.86398e-07 1.06934e-07 -6.52262e-05
0.00211301 2.02251e-05 3.4623e-06
2.02251e-05 -2.10166e-05 -1.94074e-07
3.4623e-06 -1.94074e-07 -3.55344e-05
0.00202351 -7.18315e-05 -1.67469e-06
-7.18315e-05 -1.79421e-05 -6.96977e-08
-1.67469e-06 -6.96977e-08 -8.67246e-05
0.00141668 -4.12687e-05 2.69078e-06
-4.12687e-05 5.25355e-06 -1.55312e-07
2.69078e-06 -1.55312e-07 -0.000111508
0.000276032 -3.42175e-05 -1.66605e-05
-3.42175e-05 -0.000288454 1.29559e-06
-1.66605e-05 1.29559e-06 -0.000383003
0.00133359 -9.5944e-05 6.68665e-06
-9.5944e-05 -7.14279e-05 -1.1767e-06
6.68665e-06 -1.1767e-06 -0.000209363
0.00028141 -4.62721e-06 -2.75585e-08
-4.62721e-06 -0.000291798 5.63628e-08
-2.75585e-08 5.63628e-08 -0.000389175
0.00680577 -0.000141796 -0.000377905
-0.000141796 0.00410221 1.72491e-05
-0.000377905 1.72491e-05 0.00413374
0.000334865 -5.55563e-05 1.65092e-05
-5.55563e-05 -0.000256901 -3.79881e-06
1.65092e-05 -3.79881e-06 -0.000361657
0.00690509 -7.21368e-05 -2.79652e-06
-7.21368e-05 0.00415315 3.64115e-06
-2.79652e-06 3.64115e-06 0.00418972
0.00702777 -0.000132625 0.00037767
-0.000132625 0.00423428 -2.05341e-05
0.00037767 -2.05341e-05 0.00426752
0.00219368 0.000154987 1.46018e-06
0.000154987 0.000102759 -1.38146e-07
1.46018e-06 -1.38146e-07 2.1008e-05
0.00218222 0.000163518 -1.5789e-06
0.000163518 2.27065e-05 -1.80915e-07
-1.5789e-06 -1.80915e-07 -1.20454e-05
0.00207917 0.000164404 3.25376e-06
0.000164404 -6.01995e-05 6.60957e-07
3.25376e-06 6.60957e-07 -5.05356e-05
0.00128939 0.000128304 -1.63877e-06
0.000128304 -7.86372e-05 -6.28221e-07
-1.63877e-06 -6.28221e-07 -0.000227977
0.0022214 0.000237905 2.09285e-07
0.000237905 0.000120056 -1.13541e-07
2.09285e-07 -1.13541e-07 2.25293e-05
0.00230408 0.000237787 4.84306e-06
0.000237787 9.19942e-05 3.87374e-07
4.84306e-06 3.87374e-07 4.62643e-05
0.000321846 6.38051e-05 -1.49313e-05
6.38051e-05 -0.000265151 -5.24758e-06
-1.49313e-05 -5.24758e-06 -0.000376833
0.00134922 0.000191751 1.2389e-07
0.000191751 -4.02805e-05 2.4877e-07
1.2389e-07 2.4877e-07 -0.000207542
0.00215391 0.000320561 9.8472e-07
0.000320561 8.6777e-05 -3.73718e-07
9.8472e-07 -3.73718e-07 -3.44631e-05
0.00707996 0.000261549 -0.000401174
0.000261549 0.00429016 -3.63047e-05
-0.000401174 -3.63047e-05 0.00430709
0.000333689 0.000101581 8.438e-07
0.000101581 -0.000270064 2.19633e-07
8.438e-07 2.19633e-07 -0.000392788
0.00133742 0.000247885 4.73061e-06
0.000247885 -5.48771e-05 2.77537e-06
4.73061e-06 2.77537e-06 -0.000240975
0.0074017 0.000342298 4.52519e-06
0.000342298 0.00450413 3.60675e-06
4.52519e-06 3.60675e-06 0.00450765
0.000354649 0.000141632 1.58221e-05
0.000141632 -0.000268189 1.05328e-05
1.58221e-05 1.05328e-05 -0.000403755
0.00773947 0.000404361 0.000409934
0.000404361 0.00472959 6.09111e-05
0.000409934 6.09111e-05 0.00472074
0.00121356 4.13793e-05 -5.72732e-06
4.13793e-05 -9.57901e-05 -3.73899e-07
-5.72732e-06 -3.73899e-07 -0.000227453
0.00212264 7.43009e-05 -1.37082e-06
7.43009e-05 5.31036e-05 -4.02762e-08
-1.37082e-06 -4.02762e-08 -1.63798e-05
0.00218152 8.22485e-05 3.6129e-06
8.22485e-05 3.77683e-05 1.85251e-07
3.6129e-06 1.85251e-07 7.54597e-06
0.000316813 3.27395e-05 -1.73655e-05
3.27395e-05 -0.000264557 -8.8127e-07
-1.73655e-05 -8.8127e-07 -0.000350446
0.00139259 -2.66007e-06 2.59196e-06
-2.66007e-06 1.02697e-05 3.64218e-08
2.59196e-06 3.64218e-08 -0.000105202
0.00201604 4.54886e-06 -1.66007e-06
4.54886e-06 -1.72989e-05 -1.35694e-07
-1.66007e-06 -1.35694e-07 -8.65267e-05
0.00138022 -4.33816e-05 9.09878e-06
-4.33816e-05 -2.92972e-05 -7.39611e-07
9.09878e-06 -7.39611e-07 -0.0001462
0.000285434 -7.6429e-06 2.26956e-07
-7.6429e-06 -0.000281258 4.26097e-07
2.26956e-07 4.26097e-07 -0.00037552
0.00670757 -1.3001e-06 -0.000379694
-1.3001e-06 0.00402879 3.93776e-06
-0.000379694 3.93776e-06 0.00406948
0.000288397 6.73446e-06 1.60797e-05
6.73446e-06 -0.000287726 -1.3527e-06
1.60797e-05 -1.3527e-06 -0.000383356
0.00676691 -0.000139206 -7.54027e-06
-0.000139206 0.0040793 2.35786e-06
-7.54027e-06 2.35786e-06 0.00411025
0.00683619 -5.51505e-05 0.000363646
-5.51505e-05 0.00410878 -1.1987e-05
0.000363646 -1.1987e-05 0.00414565
0.00127071 8.11411e-05 -4.19163e-06
8.11411e-05 -6.86699e-05 -7.23828e-07
-4.19163e-06 -7.23828e-07 -0.000206562
0.00222017 0.00015097 -3.0592e-07
0.00015097 0.000118902 -2.56958e-07
-3.0592e-07 -2.56958e-07 4.10849e-05
0.00220649 0.000163558 2.03537e-06
0.000163558 3.18589e-05 6.75487e-08
2.03537e-06 6.75487e-08 2.34831e-06
0.00277492 7.86757e-05 -0.000167395
7.86757e-05 0.0013368 -7.29186e-06
-0.000167395 -7.29186e-06 0.00127863
0.00130365 0.000129699 5.99412e-08
0.000129699 -6.03752e-05 9.73955e-08
5.99412e-08 9.73955e-08 -0.000210457
0.0021556 0.000234621 2.11682e-07
0.000234621 7.23631e-05 -4.05539e-07
2.11682e-07 -4.05539e-07 -2.54451e-05
0.0069272 0.000191946 -0.00039913
0.000191946 0.00418449 -2.62848e-05
-0.00039913 -2.62848e-05 0.00421267
0.000328132 8.3673e-05 1.1247e-06
8.3673e-05 -0.000260983 5.06479e-07
1.1247e-06 5.06479e-07 -0.000375503
0.00137491 0.000193348 1.98228e-06
0.000193348 -1.4206e-05 1.33956e-06
1.98228e-06 1.33956e-06 -0.000182545
0.00720033 0.000279292 1.52741e-06
0.000279292 0.00436857 1.80412e-06
1.52741e-06 1.80412e-06 0.00438379
0.000346448 0.000112034 1.55509e-05
0.000112034 -0.00026233 8.26877e-06
1.55509e-05 8.26877e-06 -0.000388081
0.00750441 0.000378099 0.000412631
0.000378099 0.00458375 5.67429e-05
0.000412631 5.67429e-05 0.00458065
0.000403311 1.62645e-05 -1.29464e-05
1.62645e-05 -0.000194453 -2.02491e-06
-1.29464e-05 -2.02491e-06 -0.000290017
0.00128894 4.12306e-05 -4.69663e-07
4.12306e-05 -4.85636e-05 9.69773e-08
-4.69663e-07 9.69773e-08 -0.000174184
0.00220993 7.02255e-05 -9.524e-07
7.02255e-05 0.000112989 -1.19579e-07
-9.524e-07 -1.19579e-07 5.07713e-05
0.00656395 -0.000106849 -0.000363345
-0.000106849 0.00395476 6.34128e-06
-0.000363345 6.34128e-06 0.00398447
0.000272173 1.18549e-05 -7.15969e-07
1.18549e-05 -0.000288176 -2.27988e-07
-7.15969e-07 -2.27988e-07 -0.000376713
0.00138504 -5.24126e-09 9.29847e-06
-5.24126e-09 -3.14656e-06 -2.23519e-07
9.29847e-06 -2.23519e-07 -0.000118402
0.000265262 1.86164e-05 1.63211e-05
1.86164e-05 -0.000294899 1.63337e-07
1.63211e-05 1.63337e-07 -0.000387671
0.00665212 -3.54268e-05 1.61807e-06
-3.54268e-05 0.00400024 -2.01745e-06
1.61807e-06 -2.01745e-06 0.0040356
0.00674509 -6.5263e-05 0.000368288
-6.5263e-05 0.00405164 -8.99672e-06
0.000368288 -8.99672e-06 0.00408941
0.0028645 2.73545e-05 -0.000162007
2.73545e-05 0.00139775 -3.88998e-06
-0.000162007 -3.88998e-06 0.00134543
0.00125849 8.36872e-05 -8.78367e-08
8.36872e-05 -7.55618e-05 -7.81505e-08
-8.78367e-08 -7.81505e-08 -0.000214224
0.00224321 0.000147107 5.67791e-08
0.000147107 0.000132164 -3.47583e-07
5.67791e-08 -3.47583e-07 5.82488e-05
0.00648709 -9.71376e-06 -0.000173444
-9.71376e-06 0.00391236 -9.78686e-07
-0.000173444 -9.78686e-07 0.00390333
0.000302009 6.82939e-05 7.31305e-07
6.82939e-05 -0.00026885 2.39736e-07
7.31305e-07 2.39736e-07 -0.000373935
0.00132125 0.000132145 2.1039e-06
0.000132145 -4.18479e-05 6.64629e-07
2.1039e-06 6.64629e-07 -0.000192774
0.0069987 0.000169383 -8.82892e-06
0.000169383 0.00422375 -1.80971e-06
-8.82892e-06 -1.80971e-06 0.00425315
0.000328288 0.000105697 1.66829e-05
0.000105697 -0.000261863 7.02461e-06
1.66829e-05 7.02461e-06 -0.000378404
0.00729671 0.000301889 0.000413669
0.000301889 0.004435 4.6388e-05
0.000413669 4.6388e-05 0.00444872
0.00200866 -5.21453e-05 -0.000280399
-5.21453e-05 0.000956731 1.81142e-06
-0.000280399 1.81142e-06 0.000962434
0.00153508 3.77266e-05 -7.15391e-05
3.77266e-05 0.000533666 -2.22644e-07
-7.15391e-05 -2.22644e-07 0.000465367
0.00135499 4.36745e-05 7.13387e-06
4.36745e-05 -7.19481e-06 3.42958e-07
7.13387e-06 3.42958e-07 -0.000126811
0.0066286 -5.23492e-05 6.55878e-06
-5.23492e-05 0.00398972 3.54566e-06
6.55878e-06 3.54566e-06 0.0040256
0.000285887 -7.55991e-06 1.69224e-05
-7.55991e-06 -0.00027162 7.65262e-07
1.69224e-05 7.65262e-07 -0.000364046
0.00668461 -9.61578e-05 0.000380882
-9.61578e-05 0.00402676 -7.61486e-06
0.000380882 -7.61486e-06 0.00406147
0.00158673 2.94159e-05 -8.12256e-05
2.94159e-05 0.000716346 -1.94978e-06
-8.12256e-05 -1.94978e-06 0.000670968
0.00152818 2.86353e-05 -7.23261e-05
2.86353e-05 0.00052972 -2.06568e-06
-7.23261e-05 -2.06568e-06 0.00045543
0.0012524 8.46e-05 4.35412e-06
8.46e-05 -7.72592e-05 4.71513e-07
4.35412e-06 4.71513e-07 -0.000216561
0.00425375 8.41142e-05 0.000142018
8.41142e-05 0.00243957 5.08711e-06
0.000142018 5.08711e-06 0.00243439
0.000281982 7.93549e-05 1.69439e-05
7.93549e-05 -0.00028383 5.29592e-06
1.69439e-05 5.29592e-06 -0.000389326
0.00708338 0.000157288 0.000393448
0.000157288 0.00426939 2.84309e-05
0.000393448 2.84309e-05 0.00430262
0.00658462 -1.46648e-05 -8.37399e-06
-1.46648e-05 0.00396607 -4.01963e-06
-8.37399e-06 -4.01963e-06 0.00400004
0.00026948 5.55323e-05 1.86363e-05
5.55323e-05 -0.000291524 2.73057e-06
1.86363e-05 2.73057e-06 -0.000377608
0.00654455 3.19603e-05 0.000369186
3.19603e-05 0.00393077 3.44329e-07
0.000369186 3.44329e-07 0.00397027
0.00414635 4.38546e-05 0.00015326
4.38546e-05 0.00237307 6.9072e-06
0.00015326 6.9072e-06 0.00237161
0.000293001 1.74353e-05 1.65374e-05
1.74353e-05 -0.000271272 2.89976e-06
1.65374e-05 2.89976e-06 -0.000367758
0.00685915 2.54436e-05 0.000379094
2.54436e-05 0.00412382 1.36426e-05
0.000379094 1.36426e-05 0.00416098
0.0066287 -0.000107631 0.000368816
-0.000107631 0.00399697 -4.41766e-06
0.000368816 -4.41766e-06 0.00402739
0.00665869 2.80527e-05 0.000371479
2.80527e-05 0.00399563 8.52214e-06
0.000371479 8.52214e-06 0.00403596
