# vtk DataFile Version 2.0
Wound Healing Simulation
ASCII
DATASET UNSTRUCTURED_GRID
POINTS 3012 float
69.9759 18.75 4
67.2507 60.3285 4
69.976 18.75 2
73.0099 25.446 4
71.1327 20.9142 4
68.6801 16.6661 4
67.8249 19.9262 3.98123
67.2507 60.3286 2
71.1327 54.0858 4
68.6801 58.3339 4
65.6939 62.2254 4
65.3114 59.0007 3.98008
74.6784 42.3946 4
73.7221 47.2057 4
69.9759 18.75 0
73.0099 25.446 2
68.6801 16.6661 2
71.1327 20.9142 2
67.8255 19.9294 2
74.6792 32.6053 4
73.7222 27.7943 4
72.1454 23.1494 4
70.6136 26.2208 3.98074
68.8851 21.958 3.98157
67.2507 14.6715 4
66.6364 17.9723 3.98042
65.7948 21.0266 3.97086
67.2507 60.3285 0
71.1327 54.0858 2
68.6801 58.3339 2
65.694 62.2255 2
65.3126 58.997 2
72.1454 51.8506 4
69.9759 56.25 4
68.8358 53.1129 3.98066
64.0165 64.0165 4
66.6101 57.1335 3.98093
63.8847 60.7652 3.98082
63.4978 57.7685 3.97164
60.3285 67.2507 4
74.6792 42.3947 2
73.7222 47.2057 2
74.9194 39.9526 4
74.2788 44.8158 4
72.1679 42.0854 3.98021
73.0099 49.554 4
71.2488 46.5979 3.97992
73.0099 25.446 0
71.1327 20.9142 0
68.6801 16.6661 0
67.8249 19.9262 0.0187676
74.6792 32.6053 2
73.7222 27.7943 2
67.2508 14.6715 2
72.1455 23.1494 2
70.6136 26.2213 2
66.6373 17.9762 2
68.8854 21.9601 2
65.7942 21.0275 2
74.9197 35.0474 4
74.2794 30.1841 4
72.1845 32.9433 3.98054
71.2777 28.4313 3.98025
69.815 24.0595 3.9814
68.3448 26.9519 3.96978
66.7603 22.9341 3.97034
65.694 12.7746 4
65.3227 16.1043 3.97988
64.7112 19.1972 3.97165
63.8816 22.0393 3.96729
71.1327 54.0858 0
65.6939 62.2254 0
68.6801 58.3339 0
65.3114 59.0007 0.0199199
72.1455 51.8506 2
69.9759 56.25 2
68.836 53.111 2
64.0165 64.0165 2
66.611 57.1299 2
63.8863 60.7619 2
63.4972 57.7683 2
62.2254 65.694 4
58.8942 65.4139 3.98992
69.7684 50.9888 3.98055
67.7831 55.1671 3.98071
66.6472 52.2079 3.9694
62.3354 62.4271 3.98495
64.6586 56.0298 3.97144
62.1996 59.3989 3.97035
61.8171 56.6742 3.96689
58.3339 68.6801 4
60.3285 67.2508 2
73.7221 47.2057 0
74.6784 42.3946 0
74.9197 39.9526 2
74.2794 44.8159 2
72.1674 42.0854 2
73.0099 49.554 2
71.2487 46.5977 2
75 37.5 4
72.4051 39.8021 3.98076
71.7822 44.3527 3.98024
69.8024 41.7892 3.96975
70.5746 48.8134 3.98009
68.9103 46.0139 3.96935
74.6792 32.6053 0
73.7222 27.7943 0
67.2507 14.6715 0
72.1454 23.1494 0
70.6136 26.2208 0.019265
68.8851 21.958 0.0184286
66.6364 17.9723 0.0195829
65.7948 21.0266 0.0291368
74.9197 35.0474 2
74.2794 30.1841 2
72.184 32.9436 2
71.2776 28.4317 2
65.694 12.7745 2
65.324 16.1084 2
69.8151 24.0606 2
68.3447 26.9525 2
64.7107 19.198 2
66.7599 22.9349 2
63.881 22.0397 2
72.413 35.2241 3.98085
71.8035 30.6762 3.98058
69.8384 33.2685 3.97004
68.9642 29.0385 3.96974
67.6092 24.9126 3.96994
66.1864 27.637 3.9672
64.0165 10.9835 4
64.7511 23.8329 3.96715
63.8891 14.3282 3.98209
63.51 17.4514 3.97144
62.901 20.3261 3.96706
62.0657 22.955 3.96696
60.6833 11.0985 3.98616
57.6114 11.4525 3.97775
72.1454 51.8506 0
69.9759 56.25 0
68.8358 53.1129 0.0193357
64.0165 64.0165 0
63.8847 60.7652 0.0191775
66.6101 57.1335 0.0190706
63.4978 57.7685 0.0283559
62.2255 65.694 2
58.8955 65.4132 2
69.7684 50.9879 2
67.7836 55.1641 2
66.6467 52.2071 2
62.3373 62.4247 2
64.6581 56.0293 2
62.199 59.3992 2
61.8165 56.6742 2
60.6681 63.9766 3.98727
57.0253 66.7347 3.99126
57.557 63.6889 3.98011
67.5054 50.1755 3.96911
65.6996 54.1718 3.97002
64.5305 51.3809 3.96628
60.7713 60.9336 3.97502
62.8149 55.0625 3.96698
60.6504 58.1486 3.96454
60.3189 55.774 3.9668
56.25 69.9759 4
58.3339 68.6801 2
60.3285 67.2507 0
58.9207 9.65667 3.98761
62.2254 9.30607 4
73.0099 49.554 0
74.2788 44.8158 0
71.2488 46.5979 0.020077
72.1679 42.0854 0.0197898
74.9194 39.9526 0
75 37.5 2
72.4051 39.8023 2
71.7821 44.3525 2
69.8019 41.7889 2
70.5745 48.8131 2
68.9103 46.0134 2
72.4885 37.512 3.98041
70.0397 39.6571 3.96982
69.4286 43.9068 3.96963
67.5883 41.4958 3.96817
68.2638 48.106 3.96909
66.6966 45.4364 3.96738
74.9197 35.0474 0
74.2794 30.1841 0
72.1845 32.9433 0.0194618
71.2777 28.4313 0.0197476
65.694 12.7746 0
65.3227 16.1043 0.0201239
69.815 24.0595 0.0186031
68.3448 26.9519 0.0302217
66.7603 22.9341 0.0296566
64.7112 19.1972 0.0283534
63.8816 22.0393 0.0327083
72.4129 35.2242 2
71.8035 30.6767 2
69.8379 33.2689 2
68.9642 29.039 2
64.0165 10.9835 2
63.8912 14.3316 2
63.5095 17.4523 2
67.6089 24.9133 2
66.1865 27.6373 2
62.9004 20.3264 2
64.7507 23.8333 2
62.065 22.9554 2
60.6856 11.1009 2
57.6123 11.451 2
70.0565 35.3919 3.97004
69.4654 31.1497 3.96982
67.6491 33.5918 3.96804
66.7633 29.6248 3.96741
65.5169 25.7018 3.96712
64.0959 28.266 3.96971
62.3411 12.6556 3.98487
62.8224 24.6487 3.96793
62.1961 15.7908 3.97247
61.8059 18.6937 3.96682
61.1945 21.3547 3.96559
60.3624 23.7492 3.96883
59.2449 12.7843 3.97592
55.8739 10.2374 3.98023
56.4035 13.1262 3.97433
69.7684 50.9888 0.0194462
62.2254 65.694 0
58.8942 65.4139 0.01008
67.7831 55.1671 0.0192856
66.6472 52.2079 0.0306027
62.3354 62.4271 0.0150517
62.1996 59.3989 0.0296457
64.6586 56.0298 0.0285589
61.8171 56.6742 0.0331144
60.6698 63.975 2
57.0262 66.7343 2
57.5571 63.6904 2
67.5051 50.1748 2
65.699 54.171 2
64.5303 51.3806 2
60.7711 60.9346 2
62.8143 55.0623 2
60.65 58.1487 2
60.3184 55.7738 2
55.0712 67.9315 3.99185
59.2177 62.3619 3.97637
55.8043 64.9083 3.98431
56.3249 62.0819 3.97524
65.3209 49.4039 3.96648
63.7007 53.2877 3.96634
62.3985 50.6373 3.96705
59.3285 59.5481 3.96968
61.0645 54.2977 3.96581
59.2725 56.995 3.96339
59.2291 55.1673 3.9653
48.102 68.5775 3.98735
50.9489 69.9312 3.99201
54.0858 71.1327 4
56.25 69.976 2
58.3339 68.6801 0
57.0582 8.33643 3.98902
60.3285 7.74928 4
58.9228 9.65808 2
62.2255 9.30602 2
70.5746 48.8134 0.0199062
71.7822 44.3527 0.0197576
68.9103 46.0139 0.0306466
69.8024 41.7892 0.0302535
72.4051 39.8021 0.0192407
75 37.5 0
72.488 37.5122 2
70.0397 39.6569 2
69.4285 43.9064 2
67.5883 41.4956 2
68.2638 48.1054 2
66.6962 45.4361 2
70.1277 37.5214 3.96991
67.8281 39.5113 3.96825
67.2114 43.4673 3.96779
65.4953 41.2035 3.97176
66.0558 47.4139 3.96696
64.5872 44.8369 3.97008
72.413 35.2241 0.0191534
71.8035 30.6762 0.0194188
69.8384 33.2685 0.0299596
68.9642 29.0385 0.0302558
64.0165 10.9835 0
63.8891 14.3282 0.0179148
63.51 17.4514 0.0285557
67.6092 24.9126 0.030064
66.1864 27.637 0.0327997
64.7511 23.8329 0.0328461
62.901 20.3261 0.0329412
62.0657 22.955 0.0330374
60.6833 11.0985 0.0138418
57.6114 11.4525 0.0222537
70.0564 35.3921 2
69.4653 31.1501 2
67.6492 33.592 2
66.7635 29.6251 2
62.3431 12.6589 2
62.1959 15.7908 2
61.805 18.694 2
65.5167 25.7022 2
64.095 28.2664 2
61.1936 21.3552 2
62.8218 24.6492 2
60.3623 23.7498 2
59.2456 12.784 2
56.404 13.1247 2
55.8745 10.236 2
67.8656 35.5478 3.96828
67.2574 31.6239 3.96775
65.6483 33.9311 3.97177
64.609 30.2009 3.97038
63.4966 26.4253 3.969
62.1602 28.7961 3.97351
60.7739 14.2285 3.97559
60.971 25.3589 3.97074
60.6046 17.1402 3.96692
60.2022 19.8317 3.96408
59.5995 22.2822 3.96596
58.8846 24.3502 3.97135
54.0372 9.13867 3.98222
57.9074 14.3434 3.97501
54.7854 12.0207 3.97539
55.3085 14.6651 3.97289
67.5054 50.1755 0.0308884
57.0253 66.7347 0.00874107
60.6681 63.9766 0.0127301
57.557 63.6889 0.0198948
65.6996 54.1718 0.0299789
64.5305 51.3809 0.0337179
60.7713 60.9336 0.0249799
60.6504 58.1486 0.0354587
62.8149 55.0625 0.033019
60.3189 55.774 0.033195
55.0718 67.9314 2
59.2177 62.3631 2
55.8042 64.9094 2
56.3244 62.0841 2
65.3207 49.4036 2
63.7001 53.2874 2
62.3986 50.6371 2
59.328 59.5496 2
61.0645 54.2976 2
59.2725 56.9947 2
59.2289 55.1668 2
53.0431 68.9993 3.99192
53.9667 66.0117 3.98581
57.8774 60.8609 3.97483
54.6831 63.2033 3.97952
55.2077 60.601 3.97455
63.1403 48.6464 3.9682
61.7136 52.5618 3.9663
60.1837 49.9935 3.96889
58.0067 58.248 3.96783
59.2997 53.9286 3.96705
58.0958 55.7911 3.96273
50.1088 67.8557 3.98709
47.4629 66.578 3.98393
46.0557 69.1566 3.98754
48.102 68.5781 2
48.803 70.7224 3.99212
50.9494 69.9312 2
51.8506 72.1454 4
54.0858 71.1327 2
56.25 69.9759 0
55.103 7.1408 3.9905
58.3339 6.31992 4
57.0598 8.33713 2
60.3286 7.74926 2
58.9207 9.65667 0.0123865
62.2254 9.30607 0
68.2638 48.106 0.0309134
69.4286 43.9068 0.0303706
66.6966 45.4364 0.0326168
67.5883 41.4958 0.0318323
70.0397 39.6571 0.0301803
72.4885 37.512 0.0195918
70.1273 37.5214 2
67.8279 39.5112 2
67.2121 43.467 2
65.4943 41.2033 2
66.0559 47.4136 2
64.586 44.8366 2
67.9264 37.5217 3.96831
65.7327 39.3667 3.97218
65.1143 43.0165 3.97114
63.6416 40.9192 3.97614
63.9021 46.7031 3.96913
62.6899 44.1975 3.97396
70.0565 35.3919 0.0299562
69.4654 31.1497 0.0301791
67.6491 33.5918 0.0319554
66.7633 29.6248 0.032588
62.3411 12.6556 0.0151273
62.1961 15.7908 0.0275299
61.8059 18.6937 0.0331826
65.5169 25.7018 0.0328751
64.0959 28.266 0.0302851
62.8224 24.6487 0.0320676
61.1945 21.3547 0.0344051
60.3624 23.7492 0.0311744
59.2449 12.7843 0.0240754
56.4035 13.1262 0.0256674
55.8739 10.2374 0.0197704
67.8654 35.5479 2
67.2578 31.6241 2
65.6478 33.9312 2
64.6081 30.2012 2
60.7738 14.2289 2
60.6045 17.1397 2
60.2024 19.8317 2
63.496 26.4257 2
62.1587 28.7965 2
59.6013 22.2825 2
60.9707 25.3594 2
58.8839 24.3512 2
57.9074 14.3425 2
55.3087 14.6649 2
54.0376 9.13724 2
54.786 12.0185 2
65.8234 35.6683 3.97197
65.1294 32.1609 3.97093
64.1938 34.2553 3.97619
62.4747 30.6523 3.97427
61.5633 27.0925 3.97191
60.717 29.1642 3.97706
59.3063 15.6792 3.97163
59.2143 25.827 3.97432
59.1069 18.374 3.96442
58.6972 20.878 3.96321
58.1919 23.1249 3.96662
57.8542 24.7009 3.97333
52.112 8.1556 3.98442
53.0573 11.0243 3.97762
56.6706 15.7593 3.9741
53.8066 13.6969 3.97491
54.3681 16.0209 3.97445
55.0712 67.9315 0.00815313
65.3209 49.4039 0.0335166
55.8043 64.9083 0.0156912
59.2177 62.3619 0.0236308
56.3249 62.0819 0.0247644
63.7007 53.2877 0.0336648
62.3985 50.6373 0.0329542
59.3285 59.5481 0.0303193
59.2725 56.995 0.0366102
61.0645 54.2977 0.0341932
59.2291 55.1673 0.0346987
53.0436 68.9994 2
53.9666 66.0125 2
57.8767 60.8625 2
54.6826 63.2042 2
55.2075 60.6027 2
63.1398 48.646 2
61.7144 52.5618 2
60.1834 49.993 2
58.0061 58.2495 2
59.3012 53.9284 2
58.0947 55.7904 2
52.07 66.9986 3.98679
52.9531 64.2153 3.98233
56.6417 59.4762 3.97434
53.6787 61.6149 3.97639
54.2519 59.3031 3.97419
60.877 47.8544 3.96959
59.6414 52.081 3.96771
57.8961 49.5812 3.97045
56.7562 56.9652 3.96728
57.0715 54.0962 3.96502
50.1087 67.8561 2
49.3368 65.9186 3.98382
47.4629 66.5786 2
46.8922 64.7314 3.98224
45.5579 67.095 3.98404
43.9728 69.5887 3.98771
46.0557 69.1571 2
46.6095 71.3669 3.99216
48.102 68.5775 0.0126455
48.8034 70.7226 2
49.554 73.0099 4
50.9489 69.9312 0.00799405
51.8506 72.1455 2
54.0858 71.1327 0
53.0645 6.07209 3.99138
55.1042 7.14089 2
56.25 5.02411 4
58.3339 6.3199 2
57.0582 8.33643 0.0109827
60.3285 7.74928 0
66.0558 47.4139 0.0330407
67.2114 43.4673 0.0322135
64.5872 44.8369 0.0299178
65.4953 41.2035 0.0282391
67.8281 39.5113 0.0317539
70.1277 37.5214 0.0300886
67.9262 37.5217 2
65.7315 39.3665 2
65.1134 43.0162 2
63.6396 40.9189 2
63.901 46.7027 2
62.6876 44.1969 2
65.838 37.5008 3.97211
63.7906 39.2607 3.97633
63.2045 42.5349 3.97498
62.2737 40.6825 3.97697
61.8505 45.8965 3.97177
61.2907 43.6594 3.9773
67.8656 35.5478 0.031718
67.2574 31.6239 0.0322526
65.6483 33.9311 0.0282333
64.609 30.2009 0.0296182
60.7739 14.2285 0.0244124
60.6046 17.1402 0.0330792
60.2022 19.8317 0.0359161
63.4966 26.4253 0.0309967
62.1602 28.7961 0.0264901
60.971 25.3589 0.0292553
59.5995 22.2822 0.0340399
58.8846 24.3502 0.0286527
57.9074 14.3434 0.0249904
55.3085 14.6651 0.027114
54.0372 9.13867 0.0177849
54.7854 12.0207 0.0246122
65.8223 35.6684 2
65.1287 32.1612 2
64.193 34.2555 2
62.4733 30.6527 2
59.3055 15.6795 2
59.1076 18.3733 2
58.701 20.8779 2
61.5624 27.0931 2
60.7163 29.1647 2
58.1909 23.126 2
59.2139 25.8279 2
57.854 24.7021 2
56.6704 15.7583 2
54.3679 16.0214 2
53.8067 13.6933 2
52.1122 8.15452 2
53.0576 11.0227 2
63.9905 35.6347 3.97576
62.8069 33.0578 3.97537
60.454 30.6357 3.97686
59.4309 27.9401 3.97531
57.9293 17.0002 3.96927
57.608 25.7644 3.97608
57.6856 19.5002 3.96246
57.2901 21.8753 3.96358
57.059 23.9886 3.96797
50.1124 7.28629 3.9867
51.2323 10.1298 3.98002
52.1698 12.8079 3.97636
55.5259 16.9932 3.9729
52.9723 15.2871 3.97231
53.7461 17.0061 3.9783
53.0431 68.9993 0.00808266
53.9667 66.0117 0.0141872
63.1403 48.6464 0.0318004
54.6831 63.2033 0.0204836
57.8774 60.8609 0.0251714
55.2077 60.601 0.0254532
61.7136 52.5618 0.0336995
60.1837 49.9935 0.0311086
58.0067 58.248 0.032165
58.0958 55.7911 0.0372667
59.2997 53.9286 0.032946
52.07 66.9993 2
52.9528 64.2161 2
56.6412 59.4773 2
53.6782 61.6155 2
54.2517 59.3048 2
60.8759 47.8538 2
59.6413 52.0805 2
57.8932 49.5801 2
56.755 56.9695 2
57.0698 54.0954 2
51.168 65.1254 3.98383
52.045 62.5332 3.97937
55.468 58.2341 3.97471
52.8283 60.1193 3.97733
53.6268 58.4531 3.97921
58.1318 46.8102 3.9741
57.4703 51.7547 3.96705
56.0865 49.5121 3.97069
55.4376 55.7647 3.9624
55.2839 53.3498 3.9632
50.1088 67.8557 0.0129116
49.3368 65.9189 2
48.618 64.1185 3.98273
47.4629 66.578 0.0160699
45.558 67.0956 2
46.8923 64.7319 2
46.3818 63.0468 3.98208
45.1325 65.1921 3.98217
43.6311 67.4655 3.98416
41.8602 69.8759 3.98755
43.9727 69.5892 2
44.3768 71.8617 3.99212
46.0557 69.1566 0.0124588
46.6099 71.3672 2
47.2057 73.7222 4
48.803 70.7224 0.00788024
49.554 73.0099 2
51.8506 72.1454 0
50.9546 5.13243 3.99203
53.0654 6.07208 2
54.0858 3.86728 4
55.103 7.1408 0.00950277
56.25 5.02406 2
58.3339 6.31992 0
63.9021 46.7031 0.0308693
65.1143 43.0165 0.0288596
62.6899 44.1975 0.0260443
63.6416 40.9192 0.0238573
65.7327 39.3667 0.027824
67.9264 37.5217 0.0316889
65.837 37.5008 2
63.789 39.2606 2
63.2025 42.5344 2
62.2714 40.6819 2
61.8486 45.8958 2
61.2885 43.6586 2
63.8511 37.4553 3.97568
61.9935 39.3452 3.97682
61.0366 41.9359 3.97686
60.0835 44.7407 3.97632
65.8234 35.6683 0.02803
65.1294 32.1609 0.029067
64.1938 34.2553 0.0238077
62.4747 30.6523 0.0257304
59.3063 15.6792 0.0283736
59.1069 18.374 0.0355843
58.6972 20.878 0.0367886
61.5633 27.0925 0.0280853
60.717 29.1642 0.0229406
59.2143 25.827 0.0256751
58.1919 23.1249 0.0333843
57.8542 24.7009 0.0266723
56.6706 15.7593 0.0258962
54.3681 16.0209 0.0255508
53.8066 13.6969 0.0250875
52.112 8.1556 0.0155845
53.0573 11.0243 0.0223779
63.9892 35.6347 2
62.8055 33.0582 2
60.4525 30.6363 2
57.9283 17.0003 2
57.6879 19.4989 2
57.2927 21.8759 2
59.4301 27.9409 2
57.0581 23.9901 2
57.6082 25.7655 2
50.1126 7.28484 2
55.5259 16.9927 2
53.7457 17.0057 2
52.9724 15.2862 2
52.1703 12.8066 2
51.2326 10.1285 2
62.0317 35.3681 3.97674
60.0936 32.7672 3.97705
58.4283 30.1118 3.97704
57.1173 27.4249 3.97655
56.6173 18.179 3.96729
56.1447 25.1504 3.97355
56.3097 20.5535 3.96068
55.9933 22.9144 3.96317
48.0566 6.52807 3.98849
49.3247 9.33498 3.98197
50.432 12.0028 3.97754
51.3727 14.5135 3.97333
54.3965 17.9457 3.97405
52.3495 17.0678 3.97
52.07 66.9986 0.0132132
52.9531 64.2153 0.0176683
60.877 47.8544 0.0304127
53.6787 61.6149 0.0236098
56.6417 59.4762 0.0256618
54.2519 59.3031 0.0258124
59.6414 52.081 0.0322895
57.8961 49.5812 0.0295522
56.7562 56.9652 0.0327165
57.0715 54.0962 0.0349818
51.1678 65.126 2
52.0446 62.5337 2
55.4675 58.2352 2
52.8282 60.1227 2
53.6264 58.4541 2
58.1305 46.8092 2
57.4686 51.7538 2
56.0831 49.511 2
55.4374 55.7652 2
55.2862 53.3502 2
50.346 63.377 3.98228
51.2406 60.9266 3.97643
54.1977 57.2501 3.97461
52.3008 58.6119 3.97494
56.4548 44.133 3.97734
55.2857 47.8465 3.97353
54.9505 51.3502 3.96614
53.9505 54.5113 3.96512
49.3368 65.9186 0.0161833
48.618 64.1187 2
47.9616 62.4688 3.98177
45.5579 67.095 0.0159625
46.8922 64.7314 0.0177636
43.6312 67.4661 2
46.382 63.0472 2
45.1326 65.1927 2
45.987 61.5778 3.98318
44.7671 63.4464 3.98082
43.3567 65.5012 3.98187
41.6634 67.6841 3.98402
39.7021 70.0227 3.98773
41.8601 69.8764 2
42.1111 72.2066 3.99214
43.9728 69.5887 0.012292
44.3771 71.862 2
44.8159 74.2794 4
46.6095 71.3669 0.00784465
47.2057 73.7222 2
49.554 73.0099 0
48.7853 4.32298 3.99261
50.9552 5.13193 2
51.8506 2.85458 4
53.0645 6.07209 0.0086199
54.0858 3.86728 2
56.25 5.02411 0
61.8505 45.8965 0.0282309
63.2045 42.5349 0.0250153
61.2907 43.6594 0.0227015
62.2737 40.6825 0.023025
63.7906 39.2607 0.023671
65.838 37.5008 0.0278932
63.8496 37.4552 2
61.9913 39.3451 2
61.0347 41.9352 2
60.0822 44.7399 2
61.8306 37.4443 3.97734
60.0268 39.8272 3.97724
58.7551 42.8807 3.97722
63.9905 35.6347 0.0242409
62.8069 33.0578 0.0246293
60.454 30.6357 0.0231352
57.9293 17.0002 0.0307276
57.6856 19.5002 0.0375359
57.2901 21.8753 0.0364154
59.4309 27.9401 0.0246937
57.608 25.7644 0.023922
57.059 23.9886 0.0320311
55.5259 16.9932 0.0271044
53.7461 17.0061 0.0216988
52.9723 15.2871 0.027688
50.1124 7.28629 0.013295
52.1698 12.8079 0.0236365
51.2323 10.1298 0.0199816
62.0299 35.3685 2
60.0914 32.7677 2
58.4278 30.1127 2
56.6166 18.1794 2
56.3131 20.5508 2
55.9954 22.9157 2
57.118 27.426 2
56.1462 25.152 2
48.0566 6.52691 2
49.325 9.33336 2
54.3966 17.9454 2
52.3492 17.0679 2
51.3725 14.5102 2
50.4324 12.0013 2
59.6718 35.1337 3.97713
57.7358 32.3065 3.97682
56.3304 29.3894 3.97738
55.238 26.6595 3.97731
55.311 19.2166 3.96434
54.7837 24.1142 3.96389
54.9262 21.6048 3.96003
45.9627 5.8829 3.98896
43.3742 7.47418 3.98598
47.3555 8.62587 3.98431
48.5996 11.3004 3.97897
49.7097 13.7549 3.97691
50.6248 16.1574 3.97619
53.1006 18.6926 3.96905
51.2837 18.0876 3.97865
51.168 65.1254 0.0161703
52.045 62.5332 0.0206311
58.1318 46.8102 0.0259023
52.8283 60.1193 0.02267
55.468 58.2341 0.0252921
53.6268 58.4531 0.0207899
57.4703 51.7547 0.0329499
56.0865 49.5121 0.0293132
55.4376 55.7647 0.0376021
55.2839 53.3498 0.0367956
50.3458 63.3772 2
51.2401 60.9265 2
54.1975 57.2513 2
52.3004 58.6128 2
56.4537 44.1322 2
55.2849 47.8456 2
54.9518 51.35 2
53.9512 54.5125 2
49.5908 61.7392 3.98098
55.2805 41.672 3.97601
50.5581 59.3137 3.97424
52.1561 56.4665 3.96827
53.8971 45.5023 3.97484
53.1486 49.278 3.96967
52.5771 52.8146 3.96246
48.618 64.1185 0.0172701
47.9616 62.4687 2
47.3273 61.0016 3.98455
43.6311 67.4655 0.0158419
45.1325 65.1921 0.0178287
46.3818 63.0468 0.0179244
41.6635 67.6843 2
43.3567 65.502 2
45.9872 61.5784 2
44.7673 63.4472 2
45.7638 60.6215 3.98259
44.4833 61.8253 3.98098
43.1464 63.7181 3.98017
41.5463 65.6388 3.98116
39.6327 67.7634 3.98371
37.5261 70.0474 3.98727
39.7021 70.0232 2
39.8178 72.4035 3.99195
41.8602 69.8759 0.0124538
42.1114 72.2069 2
42.3947 74.6792 4
44.3768 71.8617 0.00788434
44.8159 74.2794 2
47.2057 73.7222 0
43.852 5.35981 3.98897
46.5712 3.64743 3.99275
48.7856 4.32252 2
49.554 1.99015 4
50.9546 5.13243 0.0079669
51.8506 2.85453 2
54.0858 3.86728 0
60.0835 44.7407 0.0236823
61.0366 41.9359 0.0231448
61.9935 39.3452 0.0231771
63.8511 37.4553 0.0243243
61.8291 37.4444 2
60.0258 39.8274 2
58.7538 42.8798 2
59.5286 37.5646 3.97739
57.7102 40.6284 3.97743
54.71 39.6867 3.97558
62.0317 35.3681 0.0232611
60.0936 32.7672 0.0229458
58.4283 30.1118 0.0229578
56.6173 18.179 0.0327076
56.3097 20.5535 0.0393245
55.9933 22.9144 0.0368326
57.1173 27.4249 0.0234463
56.1447 25.1504 0.0264503
54.3965 17.9457 0.0259475
52.3495 17.0678 0.0299954
51.3727 14.5135 0.0266673
48.0566 6.52807 0.0115137
49.3247 9.33498 0.0180294
50.432 12.0028 0.0224554
59.6711 35.1334 2
45.9625 5.88223 2
43.3741 7.47347 2
57.7354 32.3072 2
56.3298 29.3905 2
55.3105 19.2173 2
54.9319 21.6042 2
54.7829 24.1164 2
55.2346 26.6619 2
47.3557 8.62393 2
48.6 11.2986 2
53.1013 18.6922 2
51.2838 18.0891 2
50.625 16.1573 2
49.7097 13.7537 2
57.0987 34.776 3.97739
55.4562 31.5638 3.97718
54.2512 28.4758 3.97772
53.5959 25.5696 3.97602
53.9251 20.1735 3.96459
53.4756 22.7683 3.95586
41.3993 7.07995 3.98621
45.3604 7.99563 3.9865
42.8663 9.41749 3.98294
46.667 10.6573 3.9814
47.7426 13.1114 3.97893
48.9245 15.4175 3.97414
49.9903 17.7227 3.97566
51.6191 19.3655 3.97788
50.346 63.377 0.0177185
51.2406 60.9266 0.0235669
56.4548 44.133 0.0226632
55.2857 47.8465 0.0264681
52.3008 58.6119 0.0250578
54.1977 57.2501 0.0253866
54.9505 51.3502 0.0338578
53.9505 54.5113 0.0348784
49.5904 61.739 2
55.2788 41.671 2
50.5578 59.3151 2
52.1559 56.4676 2
53.901 45.5021 2
53.154 49.278 2
52.5777 52.8139 2
48.8439 60.1955 3.97876
52.1334 42.5723 3.98123
49.7707 57.6063 3.97204
50.5321 54.4009 3.96502
51.5601 47.2099 3.97636
51.0749 50.9031 3.95775
47.791 43.7102 3.98878
47.9616 62.4688 0.0182311
47.3275 61.0016 2
46.6143 59.7882 3.98461
41.6634 67.6841 0.0159757
43.3567 65.5012 0.0181268
44.7671 63.4464 0.019178
45.987 61.5778 0.0168181
39.633 67.7641 2
41.5462 65.6386 2
45.7639 60.6224 2
43.1466 63.719 2
44.4835 61.8261 2
44.6207 60.282 3.98319
42.9503 62.0723 3.97864
41.6 63.8114 3.98039
39.6477 65.6059 3.98018
37.5635 67.7448 3.98291
31.6973 65.1251 3.98117
33.3925 67.4828 3.98265
35.3339 69.9576 3.98743
37.526 70.0483 2
37.5095 72.458 3.99192
39.7021 70.0227 0.0122714
39.818 72.4039 2
39.9526 74.9197 4
42.1111 72.2066 0.00786254
42.3947 74.6792 2
44.8159 74.2794 0
41.7365 4.96901 3.98916
43.8519 5.35905 2
44.3265 3.11057 3.99307
46.5714 3.64709 2
47.2057 1.27793 4
48.7853 4.32298 0.00739102
49.554 1.99013 2
51.8506 2.85458 0
58.7551 42.8807 0.0227776
60.0268 39.8272 0.0227607
61.8306 37.4443 0.0226552
59.5285 37.565 2
57.7103 40.6289 2
54.7097 39.6862 2
56.4911 37.8852 3.97719
49.166 41.2798 3.98764
52.7299 39.3051 3.98328
39.4428 6.8038 3.98607
59.6718 35.1337 0.0228682
57.7358 32.3065 0.0231802
56.3304 29.3894 0.0226224
55.311 19.2166 0.0356595
54.9262 21.6048 0.039972
54.7837 24.1142 0.0361123
55.238 26.6595 0.022689
53.1006 18.6926 0.0309519
51.2837 18.0876 0.0213491
50.6248 16.1574 0.0238117
45.9627 5.8829 0.011035
49.7097 13.7549 0.0230939
47.3555 8.62587 0.0156851
48.5996 11.3004 0.0210328
43.3742 7.47418 0.0140151
57.0979 34.7757 2
41.3993 7.07889 2
45.3601 7.99499 2
42.8661 9.41689 2
55.4594 31.5629 2
54.2509 28.4764 2
53.9256 20.1755 2
53.4747 22.7665 2
53.5938 25.5712 2
46.6671 10.6542 2
47.7429 13.1088 2
51.62 19.3661 2
49.9896 17.7208 2
48.9241 15.4172 2
54.5097 33.9751 3.97609
53.1986 30.5644 3.97754
52.3458 27.2865 3.97585
52.0087 24.1773 3.97707
52.3291 21.1033 3.97464
41.0139 9.05126 3.98276
44.7254 9.99589 3.98456
42.4683 10.9042 3.9856
46.0036 12.736 3.97741
47.6752 14.5961 3.97379
48.0975 17.0026 3.97368
49.7985 19.7033 3.97364
49.5908 61.7392 0.0190202
50.5581 59.3137 0.0257616
55.2805 41.672 0.0239927
53.8971 45.5023 0.0251583
53.1486 49.278 0.0303339
52.1561 56.4665 0.031725
52.5771 52.8146 0.0375406
48.8436 60.194 2
52.1456 42.5755 2
49.7703 57.6071 2
50.532 54.4023 2
51.5634 47.2106 2
51.0756 50.9015 2
47.8012 43.7335 2
47.9755 58.7288 3.97894
49.7446 45.2137 3.97904
48.5606 55.8987 3.97582
49.0382 52.5624 3.97641
49.4866 48.9948 3.97259
45.5665 39.8435 3.88177
46.0254 42.5842 3.91442
46.1905 45.7492 3.98546
43.3776 41.0985 3.78018
41.8272 41.9811 3.62589
47.3273 61.0016 0.0154494
46.6141 59.7885 2
45.461 58.7827 3.98166
39.6327 67.7634 0.0162897
41.5463 65.6388 0.0188393
43.1464 63.7181 0.0198301
44.4833 61.8253 0.0190211
45.7638 60.6215 0.017415
41.6001 63.8115 2
37.5637 67.7457 2
39.6476 65.6066 2
44.6208 60.2827 2
42.9505 62.073 2
41.7534 62.4836 3.97952
42.4788 59.9691 3.98199
39.8939 63.5442 3.97855
37.6423 65.5039 3.9806
35.4637 67.6542 3.98283
33.5757 65.3372 3.98015
31.9593 63.2942 3.98102
29.8834 64.7171 3.9824
31.6973 65.1259 2
31.3771 67.1932 3.9833
33.3926 67.4836 2
33.1571 69.7514 3.98727
35.3338 69.9585 2
35.195 72.3724 3.99184
37.5261 70.0474 0.01273
37.5096 72.4585 2
37.5 75 4
39.8178 72.4035 0.00805273
39.9526 74.9197 2
42.3947 74.6792 0
39.6242 4.71648 3.98949
41.7365 4.96813 2
42.0628 2.71807 3.99328
43.852 5.35981 0.0110271
44.3266 3.11009 2
44.8158 0.721173 4
46.5712 3.64743 0.00725242
47.2057 1.27779 2
49.554 1.99015 0
57.7102 40.6284 0.0225677
59.5286 37.5646 0.022608
54.71 39.6867 0.0244191
49.1865 41.2908 2
56.4912 37.8857 2
52.7291 39.2962 2
53.5737 36.6313 3.97727
47.0908 40.3658 3.92159
50.1063 38.5199 3.99143
37.5168 6.67515 3.98602
39.4429 6.80259 2
39.2113 8.69451 3.98345
35.9427 8.49493 3.98383
57.0987 34.776 0.0226144
55.4562 31.5638 0.0228155
54.2512 28.4758 0.0222775
53.9251 20.1735 0.0354132
53.4756 22.7683 0.0441434
53.5959 25.5696 0.0239798
51.6191 19.3655 0.0221244
49.9903 17.7227 0.0243445
48.9245 15.4175 0.0258564
45.3604 7.99563 0.0135036
47.7426 13.1114 0.0210671
46.667 10.6573 0.0185958
41.3993 7.07995 0.013793
42.8663 9.41749 0.0170572
54.5057 33.9774 2
41.0139 9.05035 2
44.7247 9.99542 2
42.4681 10.9041 2
53.1966 30.5638 2
52.3528 27.2892 2
52.3309 21.1038 2
52.0093 24.1785 2
46.0035 12.7313 2
47.6749 14.5933 2
49.7992 19.7034 2
48.096 17.0001 2
52.0577 32.8898 3.97983
51.0001 29.248 3.97505
50.5901 25.8127 3.97294
49.8816 22.2925 3.98277
40.569 11.6109 3.98077
43.8579 11.9165 3.98019
45.7947 15.4339 3.9813
47.4891 19.3157 3.97746
45.946 37.4827 3.88155
48.8439 60.1955 0.0212368
49.7707 57.6063 0.0279552
52.1334 42.5723 0.018767
51.5601 47.2099 0.0236447
51.0749 50.9031 0.0422483
50.5321 54.4009 0.0349772
47.791 43.7102 0.0112237
47.9749 58.73 2
49.759 45.2231 2
48.5593 55.9006 2
49.0376 52.5662 2
49.4896 48.9923 2
45.6075 39.8529 2
46.0495 42.6081 2
46.1966 45.7519 2
43.403 41.1257 2
41.8459 41.9986 2
46.8201 57.3307 3.98213
44.129 39.3849 3.77939
42.1804 40.8535 3.67905
47.8197 47.1959 3.97933
47.1126 54.2137 3.97167
47.4633 50.7151 3.96865
44.5831 47.3456 3.97656
44.6777 41.9154 3.86347
44.6633 44.4813 3.9311
42.2753 42.5991 3.79098
40.7605 42.3082 3.66337
46.6143 59.7882 0.0153866
45.4615 58.7833 2
43.8658 57.7018 3.98355
37.5635 67.7448 0.017088
39.6477 65.6059 0.0198245
41.6 63.8114 0.0196054
42.9503 62.0723 0.0213592
44.6207 60.282 0.0168107
35.4639 67.6554 2
41.7536 62.484 2
39.8937 63.5447 2
37.6425 65.5047 2
42.4791 59.9696 2
40.6234 61.6387 3.98045
40.441 58.1943 3.98071
37.8371 63.2047 3.9788
35.5731 65.4257 3.98008
33.5757 65.3376 2
31.959 63.2949 2
33.6287 63.3322 3.97937
30.3785 62.8542 3.98177
32.1238 61.999 3.98339
26.8704 61.4956 3.9796
28.0623 64.1456 3.98206
29.8834 64.7177 2
29.4066 66.7575 3.98397
31.6973 65.1251 0.0188253
31.3772 67.1939 2
31.0146 69.4165 3.98722
33.3925 67.4828 0.0173477
33.157 69.7521 2
32.8921 72.1468 3.99195
35.3339 69.9576 0.012571
35.1949 72.3729 2
35.0474 74.9194 4
37.5095 72.458 0.00807865
37.5 75 2
39.9526 74.9197 0
35.6215 6.72634 3.98554
37.5237 4.61604 3.98958
39.6242 4.71543 2
39.7893 2.47458 3.99327
41.7365 4.96901 0.0108409
42.0628 2.71756 2
42.3946 0.32156 4
44.3265 3.11057 0.00692826
44.8159 0.72056 2
47.2057 1.27793 0
49.166 41.2798 0.0123573
56.4911 37.8852 0.0228097
52.7299 39.3051 0.0167196
47.1102 40.3652 2
50.1142 38.5103 2
53.5805 36.6344 2
50.8938 35.5774 3.9765
47.7562 37.7501 3.93563
45.566 35.1429 3.87939
43.3835 33.8872 3.77331
41.8291 33.0146 3.6221
37.4585 8.53638 3.98419
37.5167 6.67398 2
39.4428 6.8038 0.013926
39.2115 8.69301 2
38.9764 10.1292 3.98372
35.8992 9.77663 3.98178
34.1516 8.82537 3.98285
35.9422 8.49343 2
54.5097 33.9751 0.0239051
53.1986 30.5644 0.0224606
52.3458 27.2865 0.0241495
52.3291 21.1033 0.0253627
52.0087 24.1773 0.0229268
49.7985 19.7033 0.0263618
48.0975 17.0026 0.0263191
47.6752 14.5961 0.0262053
44.7254 9.99589 0.0154376
46.0036 12.736 0.0225875
41.0139 9.05126 0.01724
42.4683 10.9042 0.0143963
52.0642 32.8894 2
40.5696 11.6109 2
43.8569 11.917 2
51.016 29.2499 2
50.5953 25.8162 2
49.8805 22.2887 2
45.7932 15.4247 2
47.4893 19.322 2
49.6012 31.4797 3.98638
49.0255 27.5849 3.97464
49.2653 24.4945 3.97874
47.1551 22.0593 3.98185
38.3024 12.7416 3.97807
42.1003 14.3069 3.97869
44.7901 18.5101 3.97768
44.469 37.4907 3.78849
46.0084 37.4889 2
47.9755 58.7288 0.021065
48.5606 55.8987 0.0241777
49.7446 45.2137 0.0209614
49.4866 48.9948 0.0274128
49.0382 52.5624 0.0235896
45.5665 39.8435 0.118226
46.0254 42.5842 0.0855757
46.1905 45.7492 0.0145385
43.3776 41.0985 0.219823
41.8272 41.9811 0.37411
46.8189 57.3316 2
44.1636 39.4061 2
42.1747 40.863 2
47.8225 47.1984 2
47.1107 54.2178 2
47.4654 50.7187 2
44.5931 47.3239 2
44.7017 41.9372 2
44.6852 44.5006 2
42.3231 42.6291 2
40.7694 42.3063 2
45.3688 55.9203 3.98937
42.5016 39.2658 3.68992
40.6455 40.7485 3.7786
45.9181 48.8737 3.98919
45.4536 52.5021 3.98187
43.2813 48.3562 3.99821
43.2234 46.021 3.9123
43.3996 43.6966 3.86207
40.9141 43.7165 3.77672
39.2526 42.609 3.68033
45.461 58.7827 0.0183379
43.8661 57.703 2
42.0932 56.3168 3.98367
35.4637 67.6542 0.0171685
37.6423 65.5039 0.0193999
39.8939 63.5442 0.0214496
41.7534 62.4836 0.020478
42.4788 59.9691 0.0180127
35.5733 65.4273 2
40.6236 61.6394 2
37.8368 63.2053 2
40.4413 58.1953 2
38.92 56.4856 3.99001
38.2507 60.32 3.97929
35.6069 63.1969 3.97692
33.5757 65.3372 0.0198475
31.9593 63.2942 0.0189783
33.6285 63.3328 2
30.3784 62.8546 2
32.124 61.9996 2
28.6817 62.1996 3.98141
33.346 61.5086 3.98108
31.0684 61.2167 3.98104
27.5739 59.5898 3.98087
23.7993 59.0764 3.97895
25.0368 60.8686 3.97976
26.8707 61.4963 2
26.2294 63.4764 3.98122
28.0624 64.1459 2
27.4632 66.1818 3.98422
29.8834 64.7171 0.0175956
29.4067 66.7579 2
28.9069 68.9426 3.98708
31.3771 67.1932 0.0167028
31.0145 69.4172 2
30.6144 71.7778 3.99183
33.1571 69.7514 0.0127294
32.8918 72.1472 2
32.6054 74.6784 4
35.195 72.3724 0.00815935
35.0474 74.9197 2
37.5 75 0
33.7243 6.9816 3.98495
35.4355 4.68632 3.98941
35.6213 6.7253 2
37.5148 2.38712 3.99325
37.5236 4.61523 2
39.6242 4.71648 0.010511
39.7891 2.47399 2
39.9526 0.0806499 4
42.0628 2.71807 0.00671844
42.3947 0.320817 2
44.8158 0.721173 0
44.1405 35.5943 3.77612
42.186 34.1335 3.67546
47.0908 40.3658 0.0784144
50.1063 38.5199 0.00856996
53.5737 36.6313 0.0227296
47.7587 37.7545 2
50.9067 35.5752 2
45.5991 35.1224 2
43.4131 33.8585 2
41.8488 32.9966 2
47.9239 34.3038 3.96266
44.6769 33.0578 3.85712
42.2777 32.3969 3.78528
40.7629 32.6919 3.66031
37.311 10.634 3.98115
37.4583 8.53461 2
37.5168 6.67515 0.0139767
39.2113 8.69451 0.0165503
38.9772 10.1277 2
34.7548 10.3841 3.9813
35.8992 9.77426 2
32.3785 9.37283 3.98084
34.1507 8.8235 2
35.9427 8.49493 0.0161703
52.0577 32.8898 0.0201744
51.0001 29.248 0.02495
50.5901 25.8127 0.0270561
49.8816 22.2925 0.0172274
47.4891 19.3157 0.0225404
45.7947 15.4339 0.0187033
43.8579 11.9165 0.0198094
40.569 11.6109 0.0192279
49.6146 31.4741 2
38.3025 12.7395 2
42.1006 14.3095 2
49.0307 27.5854 2
49.2687 24.4911 2
47.1498 22.0567 2
44.79 18.5255 2
47.4377 29.5815 3.98323
46.9543 25.2424 3.98044
44.2656 21.4436 3.97637
36.5831 12.9403 3.97644
38.6827 14.8193 3.97607
41.746 17.8743 3.97858
42.6207 37.4842 3.70472
44.4983 37.4906 2
45.946 37.4827 0.118452
46.8201 57.3307 0.0178652
47.1126 54.2137 0.0283318
47.8197 47.1959 0.0206729
47.4633 50.7151 0.03135
44.129 39.3849 0.220609
44.6777 41.9154 0.136528
44.6633 44.4813 0.0689013
44.5831 47.3456 0.0234375
42.2753 42.5991 0.20902
42.1804 40.8535 0.320949
40.7605 42.3082 0.336632
45.3675 55.9198 2
42.493 39.2641 2
40.6381 40.7343 2
45.9186 48.8815 2
45.4525 52.508 2
43.2856 48.375 2
43.2565 46.0495 2
43.432 43.7243 2
40.9463 43.7594 2
39.2502 42.6068 2
43.7001 54.419 3.99584
40.742 39.145 3.80034
39.1175 40.8154 3.78428
43.5773 50.4176 4.00432
41.8736 47.5648 3.94869
41.7858 45.1127 3.87614
39.3362 44.4005 3.78096
37.5043 42.7041 3.70281
43.8658 57.7018 0.0164475
42.0937 56.3174 2
40.4045 54.9103 3.98177
35.5731 65.4257 0.0199197
37.8371 63.2047 0.0212001
40.6234 61.6387 0.0195516
40.441 58.1943 0.0192882
35.6067 63.1983 2
38.251 60.3207 2
38.9203 56.4856 2
37.9958 55.2273 3.99071
36.9338 57.6164 3.98319
35.3635 60.9027 3.97714
33.6287 63.3322 0.0206266
30.3785 62.8542 0.0182254
32.1238 61.999 0.0166079
33.3462 61.5094 2
28.6819 62.1998 2
31.0688 61.2171 2
29.4064 60.286 3.97967
32.3607 59.7403 3.98747
28.0342 58.371 3.98972
27.5745 59.5906 2
25.3877 58.5904 3.97749
22.7682 58.2305 3.96993
23.4043 60.346 3.97881
23.7997 59.0773 2
25.0371 60.8694 2
24.4326 62.7681 3.98135
26.8704 61.4956 0.020398
26.2296 63.4772 2
25.5474 65.4912 3.98332
28.0623 64.1456 0.0179444
27.4632 66.1823 2
26.8364 68.331 3.98712
29.4066 66.7575 0.0160279
28.9069 68.9428 2
28.3694 71.263 3.99187
31.0146 69.4165 0.0127813
30.6141 71.7781 2
30.1842 74.2788 4
32.8921 72.1468 0.00804642
32.6053 74.6792 2
35.0474 74.9194 0
31.7888 7.42169 3.98377
33.3479 4.92585 3.98888
33.7239 6.98015 2
35.245 2.46317 3.99317
35.4353 4.68567 2
35.6215 6.72634 0.0144627
37.5 0 4
37.5145 2.38669 2
37.5237 4.61604 0.0104219
39.7893 2.47458 0.00672797
39.9526 0.0802889 2
42.3946 0.32156 0
42.4954 35.7092 3.691
44.1729 35.5736 2
40.6505 34.2476 3.77733
42.1763 34.1254 2
47.7562 37.7501 0.0643696
50.8938 35.5774 0.0235003
45.566 35.1429 0.120614
43.3835 33.8872 0.226688
41.8291 33.0146 0.377903
47.9413 34.2965 2
44.7037 33.0397 2
42.3281 32.3632 2
40.7738 32.6934 2
45.9506 31.626 3.93554
43.3909 31.3013 3.86408
40.9128 31.2818 3.77836
39.2534 32.4013 3.67939
35.6934 11.7815 3.97939
37.312 10.6314 2
37.4585 8.53638 0.0158054
38.9764 10.1292 0.0162816
33.0993 11.2227 3.97766
34.7543 10.3812 2
35.8992 9.77663 0.0182176
30.4836 10.0227 3.98044
32.3778 9.37236 2
34.1516 8.82537 0.0171545
49.6012 31.4797 0.013621
49.0255 27.5849 0.0253649
49.2653 24.4945 0.0212638
47.1551 22.0593 0.018152
44.7901 18.5101 0.0223245
42.1003 14.3069 0.0213077
38.3024 12.7416 0.0219347
36.5826 12.9356 2
47.4481 29.5587 2
38.6819 14.8144 2
41.7441 17.8776 2
46.9615 25.241 2
44.2633 21.4279 2
45.3055 27.7083 4.00215
43.7115 24.1623 4.00756
41.3252 20.8294 3.97993
35.7735 14.7723 3.97722
38.6822 17.6201 3.97838
40.7933 37.4781 3.80951
42.6173 37.4858 2
44.469 37.4907 0.211512
45.3688 55.9203 0.0106255
45.4536 52.5021 0.0181295
45.9181 48.8737 0.010808
42.5016 39.2658 0.310081
43.3996 43.6966 0.137934
43.2234 46.021 0.0877048
43.2813 48.3562 0.00179319
40.9141 43.7165 0.223282
40.6455 40.7485 0.221401
39.2526 42.609 0.319666
43.6977 54.4184 2
40.7242 39.1376 2
39.1183 40.7972 2
43.5758 50.4346 2
41.866 47.5858 2
41.8069 45.1429 2
37.5029 42.7043 2
39.3533 44.4352 2
41.8492 52.9633 3.99477
39.1372 39.1572 3.80562
37.5042 40.864 3.79777
35.7587 42.6167 3.68201
40.861 49.6181 3.99729
39.8016 45.9589 3.8534
37.5032 44.63 3.77475
42.0932 56.3168 0.0163311
40.4025 54.9152 2
38.723 53.7926 3.99611
35.6069 63.1969 0.023081
38.2507 60.32 0.0207052
38.92 56.4856 0.00999035
35.3637 60.9036 2
36.9348 57.617 2
37.9954 55.2232 2
36.3239 55.3097 3.9977
34.4892 58.5084 3.98526
33.346 61.5086 0.0189212
28.6817 62.1996 0.0185916
31.0684 61.2167 0.0189622
32.3613 59.741 2
29.407 60.2862 2
30.3116 57.8156 3.98433
28.0346 58.3717 2
26.9677 56.8235 3.97541
27.5739 59.5898 0.0191259
25.3883 58.5914 2
23.8616 56.7898 3.96263
21.3501 57.3827 3.96892
21.9998 59.6152 3.97715
22.7684 58.2322 2
22.7375 62.0179 3.979
23.4046 60.3468 2
23.7993 59.0764 0.0210477
25.0368 60.8686 0.0202356
24.4329 62.769 2
23.6817 64.7085 3.98289
26.2294 63.4764 0.0187831
25.5475 65.4921 2
24.8086 67.5922 3.98685
27.4632 66.1818 0.0157795
26.8364 68.3317 2
26.1645 70.6038 3.99193
28.9069 68.9426 0.0129249
28.369 71.2632 2
27.7943 73.7221 4
30.6144 71.7778 0.00816799
30.1841 74.2794 2
32.6054 74.6784 0
29.8115 7.99631 3.98279
31.2533 5.33286 3.98798
31.7884 7.42085 2
32.9808 2.70147 3.99285
33.3475 4.92483 2
33.7243 6.9816 0.0150506
35.0474 0.080333 4
35.2447 2.46285 2
35.4355 4.68632 0.0105871
37.5 0 2
37.5148 2.38712 0.00675353
39.9526 0.0806499 0
40.746 35.8266 3.79826
42.4868 35.712 2
44.1405 35.5943 0.223878
28.5443 10.6982 3.97925
39.1156 34.1936 3.78353
40.6401 34.2619 2
42.186 34.1335 0.324541
47.9239 34.3038 0.0373434
44.6769 33.0578 0.142879
42.2777 32.3969 0.214716
40.7629 32.6919 0.339692
45.9786 31.6107 2
43.4219 31.2698 2
40.9474 31.2402 2
39.2557 32.4047 2
44.2093 29.821 3.9283
41.7809 29.8847 3.8746
39.3407 30.6046 3.77975
37.5082 32.3147 3.70225
34.0942 12.9437 3.9761
35.6933 11.7767 2
37.311 10.634 0.0188502
31.1878 11.9931 3.97826
33.0996 11.2221 2
34.7548 10.3841 0.0187048
30.4824 10.0203 2
32.3785 9.37283 0.0191553
47.4377 29.5815 0.0167726
46.9543 25.2424 0.0195568
36.5831 12.9403 0.0235628
44.2656 21.4436 0.0236284
41.746 17.8743 0.0214178
38.6827 14.8193 0.0239291
35.7741 14.7777 2
45.3094 27.7075 2
38.6799 17.6232 2
41.3213 20.8188 2
43.7147 24.1518 2
33.6106 15.8919 3.97714
42.9057 26.5592 3.99675
40.865 23.3935 4.01354
38.413 20.3988 3.98371
35.8522 17.5265 3.97948
39.1425 37.4885 3.82929
40.7776 37.4779 2
42.6207 37.4842 0.295276
43.7001 54.419 0.00416231
43.5773 50.4176 -0.0043177
40.742 39.145 0.199659
41.7858 45.1127 0.123856
41.8736 47.5648 0.0513107
39.3362 44.4005 0.219041
39.1175 40.8154 0.215722
37.5043 42.7041 0.297193
41.8461 52.9609 2
39.1263 39.1456 2
37.5035 40.8412 2
40.8664 49.6335 2
35.7558 42.6136 2
39.8211 45.9962 2
37.4972 44.6611 2
39.7901 51.8321 4.00157
37.5011 39.168 3.83217
35.8917 40.8291 3.78443
34.2484 42.3178 3.66056
35.6687 44.4139 3.77697
38.6705 48.6051 3.96345
37.5179 46.2561 3.86954
40.4045 54.9103 0.0182266
38.7222 53.7864 2
36.7428 53.1284 3.99918
35.3635 60.9027 0.0228619
36.9338 57.6164 0.0168067
37.9958 55.2273 0.00928536
34.4905 58.5093 2
36.3252 55.3124 2
33.2462 55.4876 3.99492
32.3607 59.7403 0.0125331
29.4064 60.286 0.020335
30.3122 57.8159 2
28.7281 55.3116 3.97892
28.0342 58.371 0.0102818
26.9679 56.8242 2
25.3516 55.129 3.97018
21.84 55.33 3.96476
25.3877 58.5904 0.0225149
23.8615 56.7922 2
20.2363 57.0111 3.97135
20.6539 58.7664 3.97268
21.35 57.3843 2
21.1695 61.1657 3.97691
22.0002 59.6162 2
22.7682 58.2305 0.030072
21.8955 63.8357 3.98151
22.7378 62.0189 2
23.4043 60.346 0.0211875
24.4326 62.7681 0.0186514
23.6817 64.7093 2
22.837 66.7353 3.98604
25.5474 65.4912 0.0166796
24.8086 67.5932 2
24.0087 69.805 3.99202
26.8364 68.331 0.0128814
26.1641 70.6041 2
25.446 73.0099 4
28.3694 71.263 0.00812922
27.7943 73.7222 2
30.1842 74.2788 0
27.8214 8.65599 3.98237
29.1555 5.87918 3.9869
29.8107 7.99436 2
30.726 3.09851 3.99256
31.2529 5.33208 2
31.7888 7.42169 0.0162255
32.6053 0.320823 4
32.9804 2.70097 2
33.3479 4.92585 0.0111184
35.0474 0.0802903 2
35.245 2.46317 0.00683072
37.5 0 0
39.1378 35.8312 3.80607
40.7271 35.8325 2
42.4954 35.7092 0.309003
28.5433 10.6973 2
26.6228 11.3944 3.97907
29.2268 12.6496 3.97887
37.5013 34.1569 3.79666
39.1169 34.2128 2
40.6505 34.2476 0.222671
45.9506 31.626 0.0644584
43.3909 31.3013 0.13592
40.9128 31.2818 0.221638
39.2534 32.4013 0.320611
44.21 29.8098 2
41.7968 29.8591 2
39.3531 30.5684 2
37.5098 32.3133 2
42.2355 28.482 3.90184
39.8079 29.0366 3.8743
37.5109 30.385 3.77492
35.765 32.4015 3.68008
31.917 14.4932 3.97732
34.0951 12.9436 2
35.6934 11.7815 0.0206096
31.187 11.9894 2
33.0993 11.2227 0.0223359
30.4836 10.0227 0.0195573
45.3055 27.7083 -0.00214879
43.7115 24.1623 -0.00755764
35.7735 14.7723 0.0227767
41.3252 20.8294 0.0200715
38.6822 17.6201 0.0216243
33.6093 15.888 2
35.849 17.5294 2
42.9147 26.5597 2
38.4119 20.3998 2
40.8616 23.3776 2
33.5553 17.4016 3.9782
40.3243 25.7522 3.98703
38.0676 23.0441 3.99785
35.5834 20.1128 3.98197
37.4994 37.4994 3.85116
39.1327 37.4878 2
40.7933 37.4781 0.190486
41.8492 52.9633 0.00523419
40.861 49.6181 0.00271014
39.1372 39.1572 0.194379
39.8016 45.9589 0.1466
37.5032 44.63 0.225253
37.5042 40.864 0.202228
35.7587 42.6167 0.31799
39.7906 51.8351 2
37.5013 39.1539 2
35.8905 40.8111 2
38.6856 48.6459 2
34.2392 42.3167 2
35.652 44.451 2
37.5203 46.2949 2
37.6578 50.8981 4.00138
35.8688 39.1752 3.80629
34.3644 40.7687 3.77797
33.1762 41.9928 3.62548
34.0828 43.718 3.7778
35.1871 45.955 3.86625
36.9096 48.2313 3.93233
38.723 53.7926 0.00389219
36.7379 53.1326 2
34.3966 52.4327 3.99665
34.4892 58.5084 0.0147422
36.3239 55.3097 0.00230021
33.2469 55.4906 2
30.561 53.3412 3.97915
30.3116 57.8156 0.0156667
28.7285 55.3134 2
26.9455 53.4252 3.97179
26.9677 56.8235 0.0245942
25.3515 55.1328 2
23.6432 53.4605 3.95845
20.5479 53.1957 3.96224
19.9581 55.812 3.96644
21.8387 55.3315 2
23.8616 56.7898 0.0373665
19.45 57.8727 3.97158
20.2358 57.0125 2
19.711 60.192 3.9762
20.6538 58.767 2
21.3501 57.3827 0.0310802
20.2086 62.8555 3.97906
21.1698 61.1671 2
21.9998 59.6152 0.0228504
20.9383 65.7639 3.98509
21.8956 63.8366 2
22.7375 62.0179 0.0209971
23.6817 64.7085 0.0171149
22.837 66.7359 2
21.9113 68.8719 3.99167
24.8086 67.5922 0.0131529
24.0081 69.8051 2
23.1494 72.1454 4
26.1645 70.6038 0.00806915
25.446 73.0099 2
27.7943 73.7221 0
25.8605 9.38487 3.9814
27.0702 6.54323 3.98587
27.8205 8.6551 2
28.4883 3.64459 3.99204
29.1549 5.87789 2
29.8115 7.99631 0.0172082
30.1841 0.720592 4
30.7255 3.09817 2
31.2533 5.33286 0.0120232
32.6053 0.320817 2
32.9808 2.70147 0.00715267
35.0474 0.080333 0
37.5008 35.837 3.83113
39.1254 35.8416 2
40.746 35.8266 0.201738
24.7778 12.0795 3.97905
23.7535 14.3691 3.97767
28.5443 10.6982 0.0207543
26.6221 11.3942 2
29.2261 12.6484 2
27.2932 13.3831 3.97834
29.7833 14.212 3.97854
35.8899 34.192 3.78337
37.5029 34.1791 2
39.1156 34.1936 0.216471
37.5082 32.3147 0.29775
44.2093 29.821 0.0716951
41.7809 29.8847 0.125405
39.3407 30.6046 0.220247
42.2564 28.452 2
39.8202 29.0017 2
37.5144 30.3518 2
35.764 32.4043 2
39.993 27.673 3.90487
37.504 28.7519 3.86984
35.6779 30.6153 3.78248
34.2596 32.6985 3.6605
30.9305 16.8555 3.97778
31.9165 14.4869 2
34.0942 12.9437 0.0238991
31.1878 11.9931 0.0217428
42.9057 26.5592 0.00325224
40.865 23.3935 -0.0135448
33.6106 15.8919 0.0228598
35.8522 17.5265 0.020517
38.413 20.3988 0.0162853
33.5511 17.4142 2
35.5855 20.1168 2
40.3257 25.7348 2
38.0585 23.0325 2
32.869 19.8081 3.98657
37.7802 25.3501 3.99959
35.1948 22.7661 3.99399
35.8574 37.5033 3.82994
37.4994 37.4993 2
39.1425 37.4885 0.170708
39.7901 51.8321 -0.00156556
38.6705 48.6051 0.0365505
37.5011 39.168 0.167831
37.5179 46.2561 0.130459
35.6687 44.4139 0.223026
35.8917 40.8291 0.215573
34.2484 42.3178 0.339438
37.6452 50.9191 2
35.8813 39.1638 2
34.371 40.7552 2
36.8892 48.2728 2
33.1572 42.0091 2
34.0551 43.7571 2
35.1722 45.9858 2
35.5122 50.0613 3.99244
34.2691 39.1721 3.80024
32.8171 40.8715 3.67752
32.7271 42.6115 3.78728
33.2244 45.1155 3.87194
34.3435 47.3276 3.90703
36.7428 53.1284 0.000817309
34.3905 52.4391 2
32.079 51.1515 4.00648
33.2462 55.4876 0.00507787
30.5611 53.346 2
28.5051 51.5589 3.981
28.7281 55.3116 0.0210769
26.945 53.4288 2
25.1752 51.7128 3.9566
25.3516 55.129 0.029815
23.6424 53.4628 2
22.0777 51.7701 3.95484
19.3241 51.6027 3.96295
18.9672 54.2857 3.96326
20.5473 53.195 2
18.4653 56.7047 3.96874
19.957 55.8133 2
21.84 55.33 0.0352365
18.3759 59.0952 3.97033
19.4496 57.8736 2
20.2363 57.0111 0.0286463
18.6212 61.7585 3.97446
19.7114 60.1935 2
20.6539 58.7664 0.0273245
19.1274 64.6736 3.9837
20.2086 62.8568 2
21.1695 61.1657 0.0230881
19.8855 67.8086 3.99159
20.9383 65.7647 2
21.8955 63.8357 0.0184942
22.837 66.7353 0.0139567
21.9107 68.8718 2
20.9142 71.1327 4
24.0087 69.805 0.00797601
23.1494 72.1455 2
25.446 73.0099 0
23.0973 12.7954 3.97857
23.9731 10.173 3.98058
25.0239 7.3139 3.98487
25.8598 9.38437 2
26.2801 4.32872 3.99155
27.0696 6.54255 2
27.8214 8.65599 0.0176276
27.7943 1.27781 4
28.4875 3.64418 2
29.1555 5.87918 0.0131028
30.1841 0.720551 2
30.726 3.09851 0.00744193
32.6053 0.320823 0
35.8626 35.836 3.80454
37.5012 35.8513 2
39.1378 35.8312 0.19393
24.7772 12.0787 2
23.7539 14.3691 2
22.4829 15.0463 3.97886
25.3594 13.9174 3.97728
24.0302 15.633 3.97935
26.6228 11.3944 0.0209282
29.2268 12.6496 0.0211332
27.2931 13.3832 2
29.7817 14.21 2
28.3616 15.9882 3.97782
34.366 34.2556 3.77607
35.8894 34.211 2
37.5013 34.1569 0.203336
35.765 32.4015 0.319923
37.5109 30.385 0.225076
42.2355 28.482 0.0981606
39.8079 29.0366 0.125696
40.0131 27.6462 2
37.5057 28.7167 2
35.6614 30.5741 2
34.2464 32.7014 2
37.5814 27.3865 3.9172
35.196 29.0516 3.87299
34.0952 31.2966 3.77783
33.1936 33.0251 3.62428
30.2162 19.3695 3.98094
30.9288 16.8484 2
31.917 14.4932 0.0226792
40.3243 25.7522 0.0129719
38.0676 23.0441 0.00215299
33.5553 17.4016 0.0218023
35.5834 20.1128 0.0180263
32.8686 19.8216 2
35.1909 22.7549 2
37.7762 25.3367 2
32.3184 22.4949 3.99637
35.0197 25.3142 4.00068
34.2108 37.5111 3.81084
35.8677 37.5045 2
37.4994 37.4994 0.148845
37.6578 50.8981 -0.00138448
36.9096 48.2313 0.0676714
35.8688 39.1752 0.193714
35.1871 45.955 0.133745
34.0828 43.718 0.222196
34.3644 40.7687 0.222031
33.1762 41.9928 0.374525
35.5014 50.0658 2
34.2888 39.1659 2
32.8225 40.8783 2
34.3308 47.368 2
32.6885 42.6411 2
33.2073 45.1431 2
33.3338 49.0593 3.98569
32.5005 39.2904 3.69336
31.6149 41.1135 3.77789
31.605 43.7051 3.86399
32.3952 46.2661 3.90603
34.3966 52.4327 0.00334686
32.0803 51.1616 2
29.9796 49.6686 3.98447
30.561 53.3412 0.0208479
28.5036 51.5572 2
26.6359 49.9398 3.96913
26.9455 53.4252 0.028206
25.1739 51.7105 2
23.4833 50.1441 3.96435
23.6432 53.4605 0.0415457
22.0769 51.7687 2
20.6131 50.2743 3.96535
18.1283 50.2973 3.96802
17.9282 52.7644 3.96444
19.3227 51.602 2
17.4651 55.3222 3.96322
18.9639 54.2858 2
20.5479 53.1957 0.0377606
17.1462 57.8563 3.96675
18.4645 56.705 2
19.9581 55.812 0.0335597
17.1398 60.5354 3.97349
18.3758 59.0963 2
19.45 57.8727 0.0284174
17.4086 63.4643 3.9797
18.6213 61.7597 2
19.711 60.192 0.0238015
17.942 66.6171 3.99095
19.1272 64.6748 2
20.2086 62.8555 0.0209382
18.75 69.9759 4
19.8847 67.8084 2
20.9383 65.7639 0.0149055
21.9113 68.8719 0.00833422
20.9142 71.1327 2
23.1494 72.1454 0
21.5886 13.6166 3.97825
22.1912 11.0334 3.97969
23.0973 12.7955 2
23.0417 8.18029 3.98398
23.9724 10.1722 2
24.1177 5.14351 3.99105
25.0232 7.31326 2
25.8605 9.38487 0.0186009
25.446 1.99014 4
26.279 4.32869 2
27.0702 6.54323 0.0141294
27.7943 1.27778 2
28.4883 3.64459 0.00796006
30.1841 0.720592 0
34.2633 35.845 3.79896
35.8737 35.8473 2
37.5008 35.837 0.168871
21.3102 15.8431 3.98061
24.7778 12.0795 0.0209503
23.7535 14.3691 0.0223286
25.3595 13.9166 2
22.4836 15.0466 2
24.0304 15.6336 2
23.2712 16.2635 3.97608
25.3862 16.1027 3.97891
27.2932 13.3831 0.0216604
29.7833 14.212 0.0214631
28.3594 15.9907 2
27.4472 18.821 3.97904
32.8285 34.1485 3.6765
34.378 34.2699 2
35.8899 34.192 0.216626
34.2596 32.6985 0.339504
35.6779 30.6153 0.21752
37.504 28.7519 0.130156
39.993 27.673 0.0951332
37.5837 27.3497 2
33.1734 33.0088 2
35.1897 29.01 2
34.0583 31.2512 2
35.0914 27.5074 3.91626
33.2254 29.9003 3.86912
32.743 32.3996 3.77484
29.6058 21.966 3.99552
30.216 19.3808 2
30.9305 16.8555 0.0222189
37.7802 25.3501 0.000412579
35.1948 22.7661 0.00600552
32.869 19.8081 0.013432
32.3183 22.4858 2
35.0368 25.302 2
31.7953 25.7183 4.008
32.3697 37.5119 3.7072
34.2313 37.5111 2
35.8574 37.5033 0.170065
35.5122 50.0613 0.00756461
34.3435 47.3276 0.0929675
34.2691 39.1721 0.199764
33.2244 45.1155 0.128057
32.7271 42.6115 0.212716
32.8171 40.8715 0.322481
33.3288 49.058 2
32.5152 39.2891 2
31.5858 41.1387 2
32.3619 46.2976 2
31.5738 43.7326 2
31.3024 47.8966 3.98669
30.8641 39.4058 3.7779
30.3205 41.9417 3.85806
30.6342 44.8657 3.92703
32.079 51.1515 -0.00648049
29.9781 49.6719 2
28.056 48.1236 3.96447
28.5051 51.5589 0.0189953
26.6348 49.9375 2
24.8341 48.4125 3.97251
25.1752 51.7128 0.0434023
23.4828 50.142 2
21.855 48.7368 3.96984
22.0777 51.7701 0.0451624
20.6114 50.2732 2
19.202 49.0533 3.97224
17.0261 49.3019 3.97297
16.8759 51.3806 3.96699
18.13 50.2962 2
16.4378 53.8509 3.96455
17.9259 52.7642 2
19.3241 51.6027 0.0370519
15.9916 56.4605 3.9662
17.4628 55.3227 2
18.9672 54.2857 0.0367436
15.7561 59.1976 3.96956
17.1461 57.8572 2
18.4653 56.7047 0.0312576
15.7904 62.1311 3.97458
17.1402 60.5371 2
18.3759 59.0952 0.0296683
16.0892 65.2996 3.98967
17.4082 63.466 2
18.6212 61.7585 0.0255429
16.6661 68.6801 4
17.941 66.6167 2
19.1274 64.6736 0.0163024
18.75 69.9759 2
19.8855 67.8086 0.00840945
20.9142 71.1327 0
20.2218 14.6073 3.97686
21.5889 13.6168 2
20.5306 12.0042 3.97902
21.1444 9.15069 3.98328
22.1909 11.0332 2
23.0973 12.7954 0.0214327
22.0168 6.08274 3.99046
23.0409 8.17944 2
23.9731 10.173 0.0194209
23.1494 2.85457 4
24.1165 5.14362 2
25.0239 7.3139 0.0151347
25.446 1.99012 2
26.2801 4.32872 0.00844716
27.7943 1.27781 0
32.4955 35.7298 3.68711
34.2821 35.8551 2
35.8626 35.836 0.195462
21.3109 15.8427 2
20.3105 16.9752 3.98069
22.1037 16.6494 3.97371
25.3594 13.9174 0.022723
22.4829 15.0463 0.0211448
24.0302 15.633 0.0206501
25.3857 16.1032 2
23.2717 16.2644 2
24.2126 18.4764 3.97372
27.0456 21.4885 3.99141
28.3616 15.9882 0.0221772
27.4487 18.82 2
31.6323 33.9117 3.77525
32.8348 34.1387 2
34.366 34.2556 0.22393
33.1936 33.0251 0.375719
34.0952 31.2966 0.222169
35.196 29.0516 0.127013
37.5814 27.3865 0.0827971
35.0845 27.4662 2
32.6753 32.3689 2
33.2117 29.8809 2
32.662 28.216 3.92739
31.6073 31.3199 3.86498
28.9037 24.4476 3.98178
29.6005 21.9775 2
30.2162 19.3695 0.0190631
35.0197 25.3142 -0.000682391
32.3184 22.4949 0.00362605
31.7974 25.6963 2
29.799 27.3766 3.97245
30.5166 37.5056 3.78697
32.3818 37.5107 2
34.2108 37.5111 0.189164
33.3338 49.0593 0.0143063
32.3952 46.2661 0.0939734
32.5005 39.2904 0.306637
31.605 43.7051 0.136007
31.6149 41.1135 0.222109
31.2991 47.9008 2
30.8236 39.4265 2
30.2951 41.9584 2
30.6131 44.8877 2
29.4164 46.5006 4.00257
29.424 39.8523 3.88108
29.0268 43.096 3.92705
29.9796 49.6686 0.015526
28.0541 48.1198 2
26.1854 46.5914 3.97639
26.6359 49.9398 0.0308692
24.8335 48.4099 2
23.053 47.0143 3.97447
23.4833 50.1441 0.0356498
21.8539 48.7356 2
20.179 47.5725 3.97705
20.6131 50.2743 0.0346543
19.204 49.0519 2
17.8256 48.1451 3.97634
16.2646 48.6568 3.97607
17.0273 49.301 2
15.9553 50.1451 3.97049
15.4438 52.3956 3.96651
16.8763 51.38 2
18.1283 50.2973 0.0319768
14.89 54.9641 3.96507
16.4377 53.8508 2
17.9282 52.7644 0.0355608
14.4685 57.7272 3.96676
15.9918 56.4604 2
17.4651 55.3222 0.0367785
14.2694 60.6849 3.97355
15.7564 59.1988 2
17.1462 57.8563 0.0332546
14.3343 63.8581 3.98629
15.7901 62.1323 2
17.1398 60.5354 0.0265092
14.6715 67.2507 4
16.0877 65.2988 2
17.4086 63.4643 0.0203008
16.6661 68.6801 2
17.942 66.6171 0.00904791
18.75 69.9759 0
18.937 15.7938 3.97836
20.2223 14.6072 2
18.9809 13.1163 3.9777
21.5886 13.6166 0.021746
20.5307 12.0043 2
19.3436 10.2392 3.98253
19.9913 7.14743 3.99001
21.1439 9.15038 2
22.1912 11.0334 0.0203099
20.9142 3.86727 4
22.0153 6.08299 2
23.0417 8.18029 0.0160224
23.1494 2.85451 2
24.1177 5.14351 0.00894532
25.446 1.99014 0
30.8819 35.6233 3.78018
32.507 35.7326 2
34.2633 35.845 0.201041
21.3102 15.8431 0.0193913
22.1045 16.6497 2
20.3111 16.9742 2
19.2601 18.4248 3.97331
21.7904 17.8685 3.97982
25.3862 16.1027 0.0210947
23.2712 16.2635 0.0239243
24.2131 18.4774 2
22.3058 19.9193 3.96869
24.6273 21.3617 3.98884
26.5125 23.7551 3.97135
27.0449 21.4852 2
27.4472 18.821 0.0209616
30.3516 33.0866 3.87177
31.6084 33.876 2
32.8285 34.1485 0.323498
32.743 32.3996 0.225157
33.2254 29.9003 0.130876
35.0914 27.5074 0.0837432
32.6234 28.1893 2
31.5712 31.2843 2
30.3214 29.6341 3.94651
28.0466 26.5885 3.98758
28.8985 24.4638 2
29.6058 21.966 0.00447928
31.7953 25.7183 -0.00799578
29.7949 27.3458 2
29.0381 37.518 3.88215
30.4946 37.5063 2
32.3697 37.5119 0.292799
31.3024 47.8966 0.0133113
30.6342 44.8657 0.0729698
30.8641 39.4058 0.222104
30.3205 41.9417 0.141939
29.4157 46.5123 2
29.3906 39.8723 2
28.9984 43.123 2
27.5999 44.8067 3.97451
27.1939 40.5932 3.95228
28.056 48.1236 0.035528
26.1813 46.5932 2
24.306 45.1361 3.97619
24.8341 48.4125 0.0274924
23.052 47.0135 2
21.158 45.84 3.9783
21.855 48.7368 0.0301631
20.1781 47.5713 2
18.509 46.6982 3.97823
19.202 49.0533 0.0277575
17.8271 48.144 2
16.4721 47.6858 3.97706
16.2657 48.656 2
15.3004 48.9923 3.9737
17.0261 49.3019 0.0270299
15.9567 50.1444 2
14.5616 50.9658 3.96854
13.8608 53.4219 3.96588
15.445 52.3952 2
16.8759 51.3806 0.0330052
13.2641 56.1584 3.96685
14.8892 54.9642 2
16.4378 53.8509 0.0354475
12.8533 59.1184 3.97166
14.4691 57.7273 2
15.9916 56.4605 0.0337961
12.6802 62.3003 3.98341
14.2694 60.6853 2
15.7561 59.1976 0.0304355
12.7746 65.6939 4
14.3325 63.8564 2
15.7904 62.1311 0.0254243
14.6714 67.2507 2
16.0892 65.2996 0.0103327
16.6661 68.6801 0
17.6769 17.1708 3.97293
18.9375 15.7934 2
17.5132 14.3814 3.97682
20.2218 14.6073 0.0231357
18.9812 13.1161 2
17.6392 11.4589 3.98122
20.5306 12.0042 0.0209754
19.3434 10.239 2
18.0514 8.34037 3.98968
18.75 5.0241 4
19.9897 7.14829 2
21.1444 9.15069 0.0167207
20.9142 3.86727 2
22.0168 6.08274 0.00953653
23.1494 2.85457 0
29.4405 35.1586 3.88347
30.8337 35.5976 2
32.4955 35.7298 0.312885
22.1037 16.6494 0.0262892
20.3105 16.9752 0.019309
21.7912 17.8678 2
19.2606 18.4235 2
18.0144 19.9627 3.96205
20.9004 19.3993 3.9741
24.2126 18.4764 0.0262798
22.3058 19.919 2
24.627 21.3628 2
22.4099 21.7511 3.97748
24.7813 23.1984 3.97745
25.6341 25.9862 3.9764
26.5144 23.7532 2
27.0456 21.4885 0.00859306
28.7312 32.4071 3.93038
30.3196 33.0652 2
31.6323 33.9117 0.22475
31.6073 31.3199 0.13502
32.662 28.216 0.0726054
30.3155 29.6341 2
27.271 29.1774 4.00608
28.0388 26.6013 2
28.9037 24.4476 0.0182189
29.799 27.3766 0.0275527
27.3057 37.3677 3.93274
28.9845 37.5062 2
30.5166 37.5056 0.213033
29.4164 46.5006 -0.00256745
29.0268 43.096 0.0729482
29.424 39.8523 0.118921
27.5902 44.8317 2
27.176 40.5977 2
25.6262 43.1151 3.98846
24.4501 39.4521 3.97601
26.1854 46.5914 0.0236122
24.298 45.137 2
22.1928 43.8903 3.97811
23.053 47.0143 0.0255322
21.1556 45.839 2
19.2123 44.9301 3.97783
20.179 47.5725 0.0229527
18.5096 46.6971 2
16.7929 46.1832 3.97715
17.8256 48.1451 0.0236569
16.4734 47.685 2
15.0477 47.6472 3.97508
16.2646 48.6568 0.0239254
15.3019 48.9917 2
13.8639 49.5283 3.97063
15.9553 50.1451 0.029512
14.5626 50.9654 2
12.9313 51.8627 3.9669
12.1511 54.5206 3.96704
13.8606 53.4218 2
15.4438 52.3956 0.0334932
11.5388 57.4525 3.97105
13.2647 56.1584 2
14.89 54.9641 0.0349283
11.1351 60.6258 3.98101
12.8538 59.1181 2
14.4685 57.7272 0.0332364
10.9835 64.0165 4
12.6784 62.2976 2
14.2694 60.6849 0.0264465
12.7745 65.694 2
14.3343 63.8581 0.0137118
14.6715 67.2507 0
16.4192 18.6688 3.96438
17.6771 17.17 2
16.106 15.7918 3.97412
18.937 15.7938 0.0216427
17.5135 14.3807 2
16.0212 12.8134 3.97917
18.9809 13.1163 0.0222999
17.6392 11.4586 2
16.2025 9.6635 3.98924
19.3436 10.2392 0.0174708
18.0498 8.34163 2
16.6661 6.31991 4
18.75 5.02404 2
19.9913 7.14743 0.00998837
20.9142 3.86727 0
27.8366 34.8017 3.92413
29.4069 35.1432 2
30.8819 35.6233 0.219824
16.7267 21.3976 3.96535
21.7904 17.8685 0.0201754
19.2601 18.4248 0.0266931
20.9006 19.3982 2
18.0148 19.9618 2
19.7802 21.6 3.97047
22.3058 19.9193 0.0313116
24.6273 21.3617 0.0111626
22.4098 21.751 2
24.7817 23.1978 2
22.979 24.6353 3.97257
24.8123 28.5684 3.97848
25.6317 25.9838 2
26.5125 23.7551 0.0286548
26.5792 31.761 3.98266
28.7032 32.3836 2
30.3516 33.0866 0.12823
30.3214 29.6341 0.0534921
27.2927 29.1598 2
28.0466 26.5885 0.0124242
25.1355 36.8592 3.98226
27.2908 37.3593 2
29.0381 37.518 0.11785
27.5999 44.8067 0.0254925
27.1939 40.5932 0.0477156
25.6096 43.1269 2
24.4339 39.4526 2
23.3441 41.8133 3.98009
22.1675 38.5209 3.9778
24.306 45.1361 0.0238094
22.1914 43.8904 2
20.0362 42.8627 3.97688
21.158 45.84 0.0217045
19.2124 44.93 2
17.1642 44.3495 3.97717
18.509 46.6982 0.021774
16.7945 46.1824 2
14.9901 46.0679 3.97555
16.4721 47.6858 0.0229374
15.049 47.6467 2
13.3825 47.9917 3.97221
15.3004 48.9923 0.0263021
13.8651 49.5278 2
12.1541 50.2423 3.9679
14.5616 50.9658 0.0314607
12.9316 51.8625 2
11.1464 52.8321 3.96705
10.3294 55.7072 3.97098
12.1517 54.5205 2
13.8608 53.4219 0.0341196
9.70178 58.8481 3.97974
11.5392 57.452 2
13.2641 56.1584 0.0331478
9.30605 62.2254 4
11.1335 60.6226 2
12.8533 59.1184 0.0283403
10.9835 64.0165 2
12.6802 62.3003 0.0165891
12.7746 65.6939 0
15.1659 20.2004 3.96518
16.4196 18.6684 2
14.7571 17.3186 3.9678
17.6769 17.1708 0.0270726
16.1064 15.7907 2
14.4844 14.2966 3.97708
17.5132 14.3814 0.0231817
16.0212 12.8127 2
14.4453 11.1148 3.98832
17.6392 11.4589 0.0187784
16.2009 9.66511 2
14.6715 7.74927 4
18.0514 8.34037 0.0103171
16.6661 6.31988 2
18.75 5.0241 0
25.7962 34.2915 3.98989
27.8145 34.8109 2
29.4405 35.1586 0.116526
17.9274 22.3479 3.97
15.5837 22.9388 3.96788
16.7274 21.3975 2
20.9004 19.3993 0.0258957
18.0144 19.9627 0.0379546
19.7805 21.5995 2
19.8064 24.4166 3.97041
22.4099 21.7511 0.0225232
24.7813 23.1984 0.0225459
22.9783 24.6351 2
22.1801 27.8688 3.97273
24.136 31.2405 3.97658
24.8266 28.5682 2
25.6341 25.9862 0.0236002
26.5621 31.7323 2
28.7312 32.4071 0.0696168
27.271 29.1774 -0.00608091
22.8885 36.2878 3.98233
25.1192 36.8609 2
27.3057 37.3677 0.0672569
25.6262 43.1151 0.0115389
24.4501 39.4521 0.0239864
23.3341 41.8122 2
22.16 38.5194 2
21.0693 40.6369 3.97568
20.4619 37.803 3.97697
22.1928 43.8903 0.0218869
20.0351 42.8635 2
17.6234 42.0718 3.9765
19.2123 44.9301 0.0221716
17.1658 44.3494 2
15.0212 44.1786 3.97595
16.7929 46.1832 0.022855
14.9912 46.0675 2
13.0706 46.2798 3.97339
15.0477 47.6472 0.0249231
13.3835 47.9913 2
11.5321 48.54 3.96875
13.8639 49.5283 0.029374
12.1547 50.242 2
10.2725 51.0772 3.96696
12.9313 51.8627 0.0330984
11.147 52.8319 2
9.23823 53.8873 3.97063
8.38519 56.9814 3.98025
10.3298 55.7066 2
12.1511 54.5206 0.032955
7.74927 60.3285 4
9.70057 58.8446 2
11.5388 57.4525 0.0289478
9.306 62.2255 2
11.1351 60.6258 0.0189948
10.9835 64.0165 0
13.9877 21.7658 3.96531
15.1668 20.2005 2
13.4611 18.9141 3.96708
16.4192 18.6688 0.0356224
14.7577 17.3177 2
13.032 15.8919 3.97297
16.106 15.7918 0.0258764
14.4844 14.2956 2
12.783 12.6886 3.98649
16.0212 12.8134 0.0208254
14.4437 11.1168 2
12.7746 9.30605 4
16.2025 9.6635 0.0107584
14.6715 7.74924 2
16.6661 6.31991 0
23.4736 33.8328 3.98388
25.7719 34.2832 2
27.8366 34.8017 0.075872
17.7444 24.0712 3.97011
17.9282 22.3479 2
14.4083 24.472 3.96947
15.5849 22.939 2
16.7267 21.3976 0.03465
19.2598 27.2438 3.97197
19.7802 21.6 0.0295335
19.8043 24.4164 2
21.5091 30.7108 3.97531
22.979 24.6353 0.0274308
22.1891 27.8701 2
24.117 31.2385 2
24.8123 28.5684 0.0215239
26.5792 31.761 0.0173415
20.5835 35.9526 3.97704
22.8878 36.2852 2
25.1355 36.8592 0.0177444
23.3441 41.8133 0.0199087
22.1675 38.5209 0.0221979
21.0754 40.6362 2
20.4642 37.8021 2
18.3667 39.0062 3.97729
20.0362 42.8627 0.0231198
17.6246 42.0719 2
15.0047 41.8991 3.97681
17.1642 44.3495 0.0228307
15.0227 44.1781 2
12.831 44.3781 3.974
14.9901 46.0679 0.0244527
13.0718 46.2794 2
11.0411 46.7246 3.96944
13.3825 47.9917 0.0277854
11.5326 48.5397 2
9.53712 49.2376 3.96683
12.1541 50.2423 0.0321023
10.273 51.0769 2
8.27106 52.0012 3.97031
11.1464 52.8321 0.032949
9.2387 53.8865 2
7.19416 55.0322 3.98101
6.31991 58.3339 4
8.38429 56.9779 2
10.3294 55.7072 0.029018
7.74924 60.3285 2
9.70178 58.8481 0.0202605
9.30605 62.2254 0
13.3033 25.3796 3.97227
12.8713 23.2945 3.967
13.987 21.7657 2
12.2459 20.5589 3.96749
15.1659 20.2004 0.0348243
13.4621 18.9139 2
11.6638 17.5732 3.97108
14.7571 17.3186 0.0321973
13.0324 15.8912 2
11.221 14.3745 3.98284
14.4844 14.2966 0.0229154
12.7811 12.6909 2
10.9835 10.9835 4
14.4453 11.1148 0.0116757
12.7745 9.306 2
14.6715 7.74927 0
20.943 33.439 3.97594
23.4747 33.8389 2
25.7962 34.2915 0.0101099
16.0656 26.4306 3.97194
17.7448 24.0713 2
17.9274 22.3479 0.0300026
14.4084 24.4723 2
15.5837 22.9388 0.0321165
18.6393 30.2125 3.9749
19.2586 27.2439 2
19.8064 24.4166 0.029594
21.5109 30.711 2
22.1801 27.8688 0.0272683
24.136 31.2405 0.0234223
17.9781 35.9842 3.97813
20.5838 35.9546 2
22.8885 36.2878 0.0176659
21.0693 40.6369 0.0243208
20.4619 37.803 0.0230311
18.3656 39.0059 2
14.5117 39.1709 3.97754
17.6234 42.0718 0.0235027
15.0061 41.8987 2
12.5293 42.267 3.97463
15.0212 44.1786 0.0240511
12.8322 44.3778 2
10.6281 44.7944 3.97002
13.0706 46.2798 0.0266079
11.0416 46.7243 2
8.921 47.3169 3.96674
11.5321 48.54 0.0312505
9.53728 49.2373 2
7.43792 50.0349 3.96983
10.2725 51.0772 0.0330368
8.27141 52.0004 2
6.13481 53.0074 3.98142
9.23823 53.8873 0.029365
7.19362 55.0293 2
5.0241 56.25 4
6.31988 58.3339 2
8.38519 56.9814 0.0197501
7.74927 60.3285 0
13.5691 26.8336 3.97176
11.979 24.7994 3.96876
13.3026 25.3797 2
11.1497 22.2404 3.96676
12.8717 23.2947 2
13.9877 21.7658 0.0346937
12.2469 20.5589 2
10.3944 19.3249 3.97164
13.4611 18.9141 0.0329174
11.6646 17.5733 2
9.7624 16.1588 3.97982
13.032 15.8919 0.0270264
11.2192 14.3776 2
9.30607 12.7746 4
12.783 12.6886 0.0135059
10.9835 10.9835 2
12.7746 9.30605 0
18.1513 33.1469 3.97722
20.9449 33.4396 2
23.4736 33.8328 0.0161192
15.6908 29.6653 3.97436
16.065 26.431 2
17.7444 24.0712 0.0298884
14.4083 24.472 0.0305305
18.6372 30.2126 2
19.2598 27.2438 0.0280327
21.5091 30.7108 0.0246921
15.1294 36.034 3.97789
17.98 35.9843 2
20.5835 35.9526 0.0229592
12.7531 37.8311 3.97754
18.3667 39.0062 0.0227095
14.5125 39.1707 2
12.0342 40.1358 3.97556
15.0047 41.8991 0.0231854
12.5303 42.2668 2
10.2346 42.7715 3.97046
12.831 44.3781 0.0259982
10.6286 44.7942 2
8.40014 45.319 3.96698
11.0411 46.7246 0.030563
8.92081 47.3167 2
6.72913 48.0002 3.96946
9.53712 49.2376 0.0331738
7.43812 50.0342 2
5.21162 50.9109 3.98116
8.27106 52.0012 0.0296902
6.13453 53.0055 2
3.86727 54.0858 4
7.19416 55.0322 0.0189918
5.02404 56.25 2
6.31991 58.3339 0
13.0446 29.0514 3.97131
11.4228 26.4991 3.96904
13.5684 26.8338 2
10.2086 23.9719 3.96696
11.98 24.7996 2
13.3033 25.3796 0.0277284
9.24709 21.1416 3.97009
11.1506 22.2406 2
12.8713 23.2945 0.0329957
12.2459 20.5589 0.0325075
10.3953 19.3253 2
8.41804 18.0297 3.97995
11.6638 17.5732 0.0289179
9.76109 16.1627 2
7.74928 14.6715 4
11.221 14.3745 0.0171647
9.30602 12.7745 2
10.9835 10.9835 0
14.6863 32.8836 3.97658
18.1493 33.1472 2
20.943 33.439 0.0240562
15.6922 29.6659 2
16.0656 26.4306 0.0280648
18.6393 30.2125 0.0251003
13.0455 36.2162 3.97704
15.1301 36.0342 2
17.9781 35.9842 0.0218698
12.7547 37.8311 2
11.3782 38.3093 3.97554
14.5117 39.1709 0.0224578
12.0358 40.1356 2
9.81982 40.7504 3.97116
12.5293 42.267 0.025371
10.2357 42.7712 2
7.94971 43.2682 3.96732
10.6281 44.7944 0.0299759
8.40022 45.3187 2
6.13516 45.9053 3.96929
8.921 47.3169 0.0332602
6.72928 47.9996 2
4.42314 48.7516 3.98051
7.43792 50.0349 0.030166
5.21151 50.9098 2
2.85457 51.8506 4
6.13481 53.0074 0.0185766
3.86727 54.0858 2
5.0241 56.25 0
12.1899 31.2716 3.97252
10.8453 28.4263 3.96928
13.0461 29.0518 2
9.42561 25.8016 3.96719
11.4232 26.4993 2
13.5691 26.8336 0.0282405
8.23353 23.025 3.9702
10.2092 23.9721 2
11.979 24.7994 0.0312385
7.20018 19.9795 3.98037
9.24799 21.1422 2
11.1497 22.2404 0.0332395
10.3944 19.3249 0.0283577
8.41727 18.0336 2
6.31992 16.6661 4
9.7624 16.1588 0.0201806
7.74926 14.6714 2
9.30607 12.7746 0
12.2145 34.305 3.97678
14.6875 32.884 2
18.1513 33.1469 0.0227781
15.6908 29.6653 0.0256386
10.935 36.6139 3.97469
13.0467 36.2163 2
15.1294 36.034 0.0221132
12.7531 37.8311 0.0224614
11.3798 38.3092 2
9.40993 38.8221 3.97142
12.0342 40.1358 0.0244367
9.82075 40.7502 2
7.56086 41.2103 3.96772
10.2346 42.7715 0.029537
7.94912 43.268 2
5.64704 43.7682 3.96924
8.40014 45.319 0.0330161
6.13529 45.9048 2
3.76869 46.5372 3.98009
6.72913 48.0002 0.0305439
4.42321 48.751 2
1.99014 49.554 4
5.21162 50.9109 0.0188389
2.85451 51.8506 2
3.86727 54.0858 0
11.0186 32.9293 3.97444
10.1634 30.3919 3.96977
12.1912 31.272 2
8.7367 27.7352 3.96722
10.846 28.4265 2
13.0446 29.0514 0.0286906
7.35894 24.9836 3.96989
9.42582 25.8018 2
11.4228 26.4991 0.0309584
6.11707 22.0025 3.98133
8.23413 23.0256 2
10.2086 23.9719 0.033039
5.02411 18.75 4
7.19983 19.9826 2
9.24709 21.1416 0.0299122
8.41804 18.0297 0.020051
6.3199 16.6661 2
7.74928 14.6715 0
10.535 35.0054 3.97452
12.2165 34.3053 2
14.6863 32.8836 0.0234237
9.0743 36.9859 3.97189
10.9364 36.6139 2
13.0455 36.2162 0.022961
11.3782 38.3093 0.0244562
9.41126 38.8219 2
7.23987 39.1819 3.96819
9.81982 40.7504 0.0288423
7.56097 41.2101 2
5.26217 41.614 3.96912
7.94971 43.2682 0.032675
5.64711 43.7679 2
3.24641 44.2819 3.98006
6.13516 45.9053 0.0307095
3.76886 46.5368 2
1.27781 47.2057 4
4.42314 48.7516 0.0194913
1.99012 49.554 2
2.85457 51.8506 0
10.1702 33.8883 3.97502
9.44675 32.1617 3.9705
11.0201 32.9295 2
8.08524 29.6984 3.9675
10.1643 30.3922 2
12.1899 31.2716 0.0274792
6.6025 27.0093 3.96969
8.73643 27.7354 2
10.8453 28.4263 0.0307228
5.17244 24.0951 3.98123
7.35924 24.9841 2
9.42561 25.8016 0.0328128
3.86728 20.9142 4
6.11694 22.0044 2
8.23353 23.025 0.0298044
5.02406 18.75 2
7.20018 19.9795 0.0196276
6.31992 16.6661 0
8.89469 35.2825 3.97197
10.536 35.0055 2
12.2145 34.305 0.0232232
7.02076 37.2064 3.96813
9.07507 36.9859 2
10.935 36.6139 0.0253052
9.40993 38.8221 0.0285757
7.24034 39.1818 2
4.98965 39.4674 3.96942
7.56086 41.2103 0.0322769
5.26256 41.6137 2
2.85684 42.0022 3.98003
5.64704 43.7682 0.0307611
3.24647 44.2817 2
0.720592 44.8159 4
3.76869 46.5372 0.0199062
1.27778 47.2057 2
1.99014 49.554 0
8.93404 33.7026 3.97164
10.1714 33.8884 2
7.52123 31.6114 3.96775
9.44782 32.1619 2
11.0186 32.9293 0.0255609
5.94749 29.0702 3.96974
8.08472 29.6986 2
10.1634 30.3919 0.0302328
4.36011 26.2475 3.98073
6.6026 27.0097 2
8.7367 27.7352 0.0327751
2.85458 23.1494 4
5.17243 24.0959 2
7.35894 24.9836 0.0301088
3.86728 20.9142 2
6.11707 22.0025 0.018672
5.02411 18.75 0
6.96928 35.3071 3.96807
8.89546 35.2825 2
10.535 35.0054 0.0254836
4.83975 37.3399 3.96983
7.02107 37.2064 2
9.0743 36.9859 0.028114
7.23987 39.1819 0.0318083
4.99004 39.4673 2
2.60485 39.7138 3.98007
5.26217 41.614 0.0308756
2.85717 42.0022 2
0.320823 42.3947 4
3.24641 44.2819 0.0199436
0.720551 44.8159 2
1.27781 47.2057 0
7.13143 33.4625 3.96795
8.93458 33.7027 2
10.1702 33.8883 0.024981
5.41818 31.1339 3.96993
7.52104 31.6115 2
9.44675 32.1617 0.0295037
3.68175 28.4434 3.98033
5.94757 29.0705 2
8.08524 29.6984 0.0324995
1.99015 25.446 4
4.36017 26.2478 2
6.6025 27.0093 0.0303089
2.85453 23.1494 2
5.17244 24.0951 0.0187696
3.86728 20.9142 0
4.85408 35.2517 3.96995
6.96935 35.3072 2
8.89469 35.2825 0.0280311
2.49627 37.4284 3.98073
4.83977 37.34 2
7.02076 37.2064 0.031867
4.98965 39.4674 0.0305839
2.60525 39.7142 2
0.080333 39.9526 4
2.85684 42.0022 0.0199702
0.320817 42.3947 2
0.720592 44.8159 0
5.04751 33.1905 3.96995
7.13128 33.4626 2
8.93404 33.7026 0.0283588
3.14599 30.6662 3.98027
5.41828 31.1343 2
7.52123 31.6114 0.0322508
1.27793 27.7943 4
3.68192 28.4436 2
5.94749 29.0702 0.0302567
1.99013 25.446 2
4.36011 26.2475 0.0192668
2.85458 23.1494 0
2.54838 35.159 3.98054
4.85456 35.252 2
6.96928 35.3071 0.0319254
0 37.5 4
2.4963 37.4289 2
4.83975 37.3399 0.0301651
2.60485 39.7138 0.0199287
0.0802903 39.9526 2
0.320823 42.3947 0
2.76601 32.9057 3.98065
5.04765 33.1908 2
7.13143 33.4625 0.032049
0.721173 30.1842 4
3.14619 30.6666 2
5.41818 31.1339 0.0300684
1.27779 27.7943 2
3.68175 28.4434 0.0196682
1.99015 25.446 0
0.0806499 35.0474 4
2.54886 35.1594 2
4.85408 35.2517 0.0300528
0 37.5 2
2.49627 37.4284 0.0192734
0.080333 39.9526 0
0.32156 32.6054 4
2.76611 32.9063 2
5.04751 33.1905 0.0300524
0.72056 30.1841 2
3.14599 30.6662 0.0197258
1.27793 27.7943 0
0.0802889 35.0474 2
2.54838 35.159 0.0194559
0 37.5 0
0.320817 32.6053 2
2.76601 32.9057 0.0193533
0.721173 30.1842 0
0.0806499 35.0474 0
0.32156 32.6054 0
CELLS 1910 17190
8 18 6 25 56 2 0 5 16
8 57 23 6 18 17 4 0 2
8 78 36 9 29 31 11 1 7
8 31 11 1 7 79 37 10 30
8 110 57 18 50 48 17 2 14
8 50 18 56 111 14 2 16 49
8 116 62 22 55 52 20 3 15
8 56 25 67 118 16 5 24 53
8 119 63 23 57 54 21 4 17
8 55 22 63 119 15 3 21 54
8 58 26 68 121 18 6 25 56
8 122 65 26 58 57 23 6 18
8 73 31 7 27 142 79 30 71
8 143 78 29 72 73 31 7 27
8 83 147 76 34 32 74 28 8
8 84 148 78 36 33 75 29 9
8 76 34 8 28 148 84 33 75
8 37 79 150 86 10 30 77 35
8 151 87 36 78 80 38 11 31
8 80 38 11 31 152 88 37 79
8 175 100 42 94 96 44 12 40
8 44 96 176 101 12 40 95 43
8 101 176 98 46 43 95 41 13
8 46 98 178 103 13 41 97 45
8 178 103 45 97 147 83 32 74
8 189 116 55 109 106 52 15 47
8 111 56 118 191 49 16 53 107
8 192 119 57 110 108 54 17 48
8 109 55 119 192 47 15 54 108
8 194 122 58 112 110 57 18 50
8 112 58 121 195 50 18 56 111
8 115 61 19 51 197 124 59 113
8 115 61 125 198 51 19 60 114
8 198 125 62 116 114 60 20 52
8 200 127 64 120 116 62 22 55
8 118 67 132 202 53 24 66 117
8 121 68 133 203 56 25 67 118
8 120 64 128 204 55 22 63 119
8 204 128 65 122 119 63 23 57
8 206 134 68 121 123 69 26 58
8 123 69 26 58 207 131 65 122
8 226 147 74 138 140 76 28 70
8 229 148 75 139 143 78 29 72
8 140 76 28 70 229 148 75 139
8 142 79 30 71 231 150 77 141
8 144 80 31 73 232 152 79 142
8 233 151 78 143 144 80 31 73
8 150 86 35 77 235 154 81 145
8 235 154 81 145 146 82 39 91
8 146 82 39 91 236 155 90 165
8 238 157 83 147 149 85 34 76
8 239 158 84 148 151 87 36 78
8 149 85 34 76 239 158 84 148
8 152 88 37 79 241 160 86 150
8 242 161 87 151 153 89 38 80
8 153 89 38 80 243 162 88 152
8 171 98 41 92 265 178 97 169
8 265 178 97 169 226 147 74 138
8 172 96 40 93 266 176 95 170
8 266 176 95 170 171 98 41 92
8 269 175 94 173 172 96 40 93
8 271 180 99 174 175 100 42 94
8 197 124 59 113 271 180 99 174
8 272 181 100 175 177 102 44 96
8 273 182 101 176 179 104 46 98
8 177 102 44 96 273 182 101 176
8 179 104 46 98 275 184 103 178
8 275 184 103 178 238 157 83 147
8 188 115 51 105 283 197 113 186
8 188 115 198 284 105 51 114 187
8 284 198 116 189 187 114 52 106
8 286 200 120 193 189 116 55 109
8 191 118 202 288 107 53 117 190
8 195 121 203 289 111 56 118 191
8 193 120 204 290 109 55 119 192
8 290 204 122 194 192 119 57 110
8 196 123 58 112 292 207 122 194
8 293 206 121 195 196 123 58 112
8 199 126 61 115 297 211 124 197
8 298 212 127 200 198 125 62 116
8 199 126 212 298 115 61 125 198
8 205 129 64 120 300 214 127 200
8 301 217 130 201 202 132 66 117
8 209 136 168 264 301 217 130 201
8 302 219 132 202 203 133 67 118
8 303 220 133 203 206 134 68 121
8 205 129 215 304 120 64 128 204
8 304 215 131 207 204 128 65 122
8 306 221 134 206 208 135 69 123
8 208 135 69 123 307 218 131 207
8 210 137 167 263 309 223 136 209
8 328 238 147 226 230 149 76 140
8 228 146 91 166 329 236 165 260
8 231 150 77 141 330 235 145 227
8 330 235 145 227 228 146 91 166
8 332 239 148 229 233 151 78 143
8 230 149 76 140 332 239 148 229
8 232 152 79 142 334 241 150 231
8 234 153 80 144 335 243 152 232
8 336 242 151 233 234 153 80 144
8 236 155 90 165 338 245 164 259
8 241 160 86 150 339 246 154 235
8 339 246 154 235 237 156 82 146
8 237 156 82 146 340 247 155 236
8 342 249 157 238 240 159 85 149
8 343 250 158 239 242 161 87 151
8 240 159 85 149 343 250 158 239
8 243 162 88 152 345 252 160 241
8 244 163 253 346 153 89 161 242
8 244 163 89 153 347 254 162 243
8 311 224 261 371 210 137 167 263
8 263 167 262 372 209 136 168 264
8 267 179 98 171 375 275 178 265
8 375 275 178 265 328 238 147 226
8 376 273 176 266 267 179 98 171
8 268 177 96 172 376 273 176 266
8 379 272 175 269 268 177 96 172
8 380 271 174 270 269 175 94 173
8 283 197 113 186 380 271 174 270
8 381 277 180 271 272 181 100 175
8 297 211 124 197 381 277 180 271
8 382 278 181 272 274 183 102 177
8 274 183 102 177 383 279 182 273
8 383 279 182 273 276 185 104 179
8 385 281 184 275 342 249 157 238
8 276 185 104 179 385 281 184 275
8 285 199 115 188 393 297 197 283
8 394 298 200 286 284 198 116 189
8 285 199 298 394 188 115 198 284
8 291 205 120 193 396 300 200 286
8 397 301 201 287 288 202 117 190
8 295 209 264 374 397 301 201 287
8 398 302 202 288 289 203 118 191
8 399 303 203 289 293 206 121 195
8 291 205 304 400 193 120 204 290
8 400 304 207 292 290 204 122 194
8 294 208 123 196 402 307 207 292
8 403 306 206 293 294 208 123 196
8 296 210 263 373 405 309 209 295
8 408 312 213 299 297 211 126 199
8 299 213 313 409 199 126 212 298
8 409 313 214 300 298 212 127 200
8 305 216 129 205 411 315 214 300
8 412 318 217 301 302 219 132 202
8 309 223 136 209 412 318 217 301
8 413 320 219 302 303 220 133 203
8 306 221 321 414 206 134 220 303
8 307 218 131 207 415 316 215 304
8 305 216 316 415 205 129 215 304
8 417 322 221 306 308 222 135 208
8 308 222 135 208 418 319 218 307
8 310 225 137 210 420 325 223 309
8 423 326 224 311 310 225 137 210
8 329 236 165 260 441 338 259 368
8 442 342 238 328 333 240 149 230
8 331 237 146 228 443 340 236 329
8 334 241 150 231 444 339 235 330
8 444 339 235 330 331 237 146 228
8 446 343 239 332 336 242 151 233
8 333 240 149 230 446 343 239 332
8 335 243 152 232 448 345 241 334
8 337 244 153 234 449 347 243 335
8 337 244 346 450 234 153 242 336
8 338 245 164 259 452 349 258 367
8 340 247 155 236 453 350 245 338
8 345 252 160 241 454 351 246 339
8 454 351 246 339 341 248 156 237
8 341 248 156 237 455 352 247 340
8 240 159 251 344 342 249 354 457
8 242 161 253 346 343 250 355 458
8 343 250 355 458 240 159 251 344
8 347 254 162 243 460 357 252 345
8 348 255 358 461 244 163 253 346
8 348 255 163 244 462 359 254 347
8 473 360 257 365 363 256 364 482
8 452 349 258 367 365 257 366 485
8 422 324 369 488 311 224 261 371
8 371 261 370 490 263 167 262 372
8 407 311 371 491 296 210 263 373
8 373 263 372 492 295 209 264 374
8 493 385 275 375 442 342 238 328
8 377 276 179 267 493 385 275 375
8 378 274 177 268 494 383 273 376
8 494 383 273 376 377 276 179 267
8 497 382 272 379 378 274 177 268
8 498 381 271 380 379 272 175 269
8 393 297 197 283 498 381 271 380
8 499 387 277 381 382 278 181 272
8 408 312 211 297 499 387 277 381
8 500 388 278 382 384 280 183 274
8 501 389 279 383 386 282 185 276
8 384 280 183 274 501 389 279 383
8 386 282 185 276 503 391 281 385
8 503 391 281 385 457 354 249 342
8 511 408 299 395 393 297 199 285
8 395 299 409 512 285 199 298 394
8 512 409 300 396 394 298 200 286
8 401 305 205 291 514 411 300 396
8 515 412 301 397 398 302 202 288
8 405 309 209 295 515 412 301 397
8 516 413 302 398 399 303 203 289
8 403 306 414 517 293 206 303 399
8 402 307 207 292 518 415 304 400
8 401 305 415 518 291 205 304 400
8 404 308 208 294 520 418 307 402
8 521 417 306 403 404 308 208 294
8 406 310 210 296 523 420 309 405
8 526 423 311 407 406 310 210 296
8 410 314 213 299 527 424 312 408
8 528 425 315 411 409 313 214 300
8 410 314 425 528 299 213 313 409
8 416 317 216 305 530 427 315 411
8 531 430 318 412 413 320 219 302
8 420 325 223 309 531 430 318 412
8 532 432 320 413 414 321 220 303
8 417 322 433 533 306 221 321 414
8 418 319 218 307 534 428 316 415
8 416 317 428 534 305 216 316 415
8 419 323 434 536 308 222 322 417
8 419 323 222 308 537 431 319 418
8 421 327 225 310 539 438 325 420
8 421 327 439 541 310 225 326 423
8 543 437 324 422 423 326 224 311
8 441 338 259 368 559 452 367 486
8 443 340 236 329 560 453 338 441
8 333 240 344 447 442 342 457 561
8 445 341 237 331 562 455 340 443
8 448 345 241 334 563 454 339 444
8 563 454 339 444 445 341 237 331
8 336 242 346 450 446 343 458 565
8 446 343 458 565 333 240 344 447
8 449 347 243 335 567 460 345 448
8 451 348 244 337 568 462 347 449
8 451 348 461 569 337 244 346 450
8 570 463 349 452 473 360 257 365
8 453 350 245 338 570 463 349 452
8 455 352 247 340 571 464 350 453
8 460 357 252 345 572 465 351 454
8 572 465 351 454 456 353 248 341
8 456 353 248 341 573 466 352 455
8 344 251 356 459 457 354 468 575
8 458 355 469 576 344 251 356 459
8 346 253 358 461 458 355 469 576
8 462 359 254 347 578 471 357 460
8 348 255 359 462 461 358 472 579
8 591 474 360 473 475 361 256 363
8 475 361 256 363 594 477 362 479
8 363 256 364 482 479 362 480 603
8 590 473 365 484 481 363 482 605
8 482 364 257 365 606 483 366 485
8 559 452 367 486 484 365 485 607
8 542 436 487 609 422 324 369 488
8 525 422 488 611 407 311 371 491
8 488 369 489 612 371 261 370 490
8 491 371 490 613 373 263 372 492
8 495 386 276 377 614 503 385 493
8 614 503 385 493 561 457 342 442
8 615 501 383 494 495 386 276 377
8 496 384 274 378 615 501 383 494
8 618 500 382 497 496 384 274 378
8 619 499 381 498 497 382 272 379
8 511 408 297 393 619 499 381 498
8 620 505 387 499 500 388 278 382
8 527 424 312 408 620 505 387 499
8 502 390 506 621 384 280 388 500
8 622 507 389 501 504 392 282 386
8 502 390 280 384 622 507 389 501
8 504 392 282 386 624 509 391 503
8 624 509 391 503 575 468 354 457
8 513 410 299 395 630 527 408 511
8 631 528 411 514 512 409 300 396
8 513 410 528 631 395 299 409 512
8 519 416 305 401 633 530 411 514
8 634 531 412 515 516 413 302 398
8 523 420 309 405 634 531 412 515
8 635 532 413 516 517 414 303 399
8 521 417 533 636 403 306 414 517
8 520 418 307 402 637 534 415 518
8 519 416 534 637 401 305 415 518
8 522 419 308 404 639 537 418 520
8 522 419 536 640 404 308 417 521
8 524 421 310 406 642 539 420 523
8 524 421 541 644 406 310 423 526
8 646 543 422 525 526 423 311 407
8 529 426 314 410 647 544 424 527
8 528 425 545 648 411 315 427 530
8 529 426 545 648 410 314 425 528
8 535 429 317 416 649 546 427 530
8 650 548 430 531 532 432 320 413
8 539 438 325 420 650 548 430 531
8 533 433 550 651 414 321 432 532
8 536 434 551 652 417 322 433 533
8 537 431 319 418 653 547 428 534
8 535 429 547 653 416 317 428 534
8 538 435 552 654 419 323 434 536
8 538 435 323 419 655 549 431 537
8 540 440 327 421 657 556 438 539
8 540 440 557 659 421 327 439 541
8 541 439 555 660 423 326 437 543
8 661 554 436 542 543 437 324 422
8 676 570 452 559 590 473 365 484
8 560 453 338 441 676 570 452 559
8 562 455 340 443 677 571 453 560
8 447 344 459 566 561 457 575 678
8 564 456 341 445 679 573 455 562
8 567 460 345 448 680 572 454 563
8 680 572 454 563 564 456 341 445
8 565 458 576 682 447 344 459 566
8 450 346 461 569 565 458 576 682
8 568 462 347 449 684 578 460 567
8 451 348 462 568 569 461 579 685
8 686 580 463 570 591 474 360 473
8 571 464 350 453 686 580 463 570
8 573 466 352 455 687 581 464 571
8 572 465 582 688 460 357 471 578
8 574 467 582 688 456 353 465 572
8 574 467 353 456 689 583 466 573
8 459 356 470 577 575 468 585 691
8 576 469 586 692 459 356 470 577
8 461 358 472 579 576 469 586 692
8 462 359 471 578 579 472 588 694
8 704 591 473 590 593 475 363 481
8 595 476 592 705 475 361 474 591
8 593 475 363 481 707 594 479 602
8 594 477 362 479 709 598 478 600
8 595 476 361 475 711 597 477 594
8 479 362 480 603 600 478 601 720
8 481 363 482 605 602 479 603 722
8 603 480 364 482 723 604 483 606
8 605 482 365 484 724 606 485 607
8 656 553 608 726 542 436 487 609
8 645 542 609 728 525 422 488 611
8 609 487 610 729 488 369 489 612
8 611 488 612 730 491 371 490 613
8 616 504 386 495 731 624 503 614
8 731 624 503 614 678 575 457 561
8 732 622 501 615 616 504 386 495
8 617 502 384 496 732 622 501 615
8 617 502 621 735 496 384 500 618
8 736 620 499 619 618 500 382 497
8 630 527 408 511 736 620 499 619
8 621 506 626 737 500 388 505 620
8 647 544 424 527 737 626 505 620
8 623 508 627 738 502 390 506 621
8 623 508 390 502 739 628 507 622
8 625 510 628 739 504 392 507 622
8 740 629 509 624 691 585 468 575
8 625 510 392 504 740 629 509 624
8 632 529 410 513 744 647 527 630
8 631 528 648 745 514 411 530 633
8 632 529 648 745 513 410 528 631
8 638 535 416 519 746 649 530 633
8 747 650 531 634 635 532 413 516
8 642 539 420 523 747 650 531 634
8 636 533 651 748 517 414 532 635
8 640 536 652 749 521 417 533 636
8 639 537 418 520 750 653 534 637
8 638 535 653 750 519 416 534 637
8 641 538 419 522 751 655 537 639
8 641 538 654 752 522 419 536 640
8 643 540 421 524 753 657 539 642
8 643 540 659 755 524 421 541 644
8 644 541 660 757 526 423 543 646
8 758 661 542 645 646 543 422 525
8 529 426 544 647 648 545 662 759
8 530 427 545 648 649 546 663 760
8 535 429 546 649 653 547 664 761
8 762 666 548 650 651 550 432 532
8 657 556 438 539 762 666 548 650
8 652 551 668 763 533 433 550 651
8 654 552 669 764 536 434 551 652
8 655 549 431 537 765 665 547 653
8 538 435 549 655 654 552 667 766
8 661 554 671 768 542 436 553 656
8 658 558 440 540 769 674 556 657
8 658 558 675 770 540 440 557 659
8 659 557 673 771 541 439 555 660
8 660 555 672 772 543 437 554 661
8 788 686 570 676 704 591 473 590
8 677 571 453 560 788 686 570 676
8 679 573 455 562 789 687 571 677
8 566 459 577 683 678 575 691 790
8 681 574 456 564 791 689 573 679
8 680 572 688 792 567 460 578 684
8 681 574 688 792 564 456 572 680
8 682 576 692 794 566 459 577 683
8 569 461 579 685 682 576 692 794
8 568 462 578 684 685 579 694 796
8 687 581 464 571 798 696 580 686
8 798 696 580 686 705 592 474 591
8 689 583 466 573 799 697 581 687
8 688 582 698 800 578 471 588 694
8 690 584 698 800 574 467 582 688
8 690 584 467 574 801 699 583 689
8 693 587 701 803 577 470 585 691
8 693 587 470 577 804 702 586 692
8 695 589 702 804 579 472 586 692
8 695 589 472 579 805 703 588 694
8 708 595 705 813 593 475 591 704
8 710 596 706 814 595 476 592 705
8 707 594 479 602 816 709 600 719
8 708 595 475 593 817 711 594 707
8 709 598 478 600 819 715 599 717
8 711 597 477 594 820 714 598 709
8 710 596 476 595 822 713 597 711
8 600 478 601 720 717 599 718 832
8 602 479 603 722 719 600 720 834
8 720 601 480 603 835 721 604 723
8 722 603 482 605 836 723 606 724
8 767 670 725 839 656 553 608 726
8 756 656 726 841 645 542 609 728
8 726 608 727 842 609 487 610 729
8 728 609 729 843 611 488 612 730
8 844 740 624 731 790 691 575 678
8 733 625 504 616 844 740 624 731
8 734 623 502 617 845 739 622 732
8 733 625 739 845 616 504 622 732
8 734 623 738 846 617 502 621 735
8 735 621 737 847 618 500 620 736
8 744 647 527 630 847 737 620 736
8 621 506 627 738 737 626 741 848
8 647 544 626 737 759 662 741 848
8 623 508 628 739 738 627 742 849
8 740 629 585 691 850 743 700 802
8 625 510 629 740 739 628 743 850
8 632 529 647 744 745 648 759 854
8 633 530 648 745 746 649 760 855
8 638 535 649 746 750 653 761 856
8 857 762 650 747 748 651 532 635
8 753 657 539 642 857 762 650 747
8 749 652 763 858 636 533 651 748
8 752 654 764 859 640 536 652 749
8 751 655 537 639 860 765 653 750
8 641 538 655 751 752 654 766 861
8 754 658 540 643 862 769 657 753
8 754 658 770 863 643 540 659 755
8 755 659 771 864 644 541 660 757
8 758 661 768 866 645 542 656 756
8 757 660 772 867 646 543 661 758
8 759 662 773 868 648 545 663 760
8 649 546 663 760 761 664 774 871
8 765 665 547 653 872 775 664 761
8 873 777 666 762 763 668 550 651
8 769 674 556 657 873 777 666 762
8 764 669 779 874 652 551 668 763
8 654 552 667 766 764 669 778 875
8 655 549 665 765 766 667 776 876
8 768 671 782 877 656 553 670 767
8 772 672 783 878 661 554 671 768
8 658 558 674 769 770 675 786 879
8 659 557 675 770 771 673 785 881
8 882 784 672 772 771 673 555 660
8 789 687 571 677 897 798 686 788
8 897 798 686 788 813 705 591 704
8 791 689 573 679 898 799 687 789
8 795 693 803 900 683 577 691 790
8 793 690 574 681 901 801 689 791
8 792 688 800 902 684 578 694 796
8 793 690 800 902 681 574 688 792
8 795 693 577 683 903 804 692 794
8 797 695 804 903 685 579 692 794
8 797 695 579 685 904 805 694 796
8 905 806 697 799 798 696 581 687
8 814 706 806 905 705 592 696 798
8 689 583 697 799 801 699 808 907
8 800 698 809 908 694 588 703 805
8 690 584 699 801 800 698 809 908
8 803 701 810 909 691 585 700 802
8 693 587 702 804 803 701 811 910
8 695 589 703 805 804 702 812 911
8 818 710 814 919 708 595 705 813
8 821 712 815 920 710 596 706 814
8 816 709 600 719 922 819 717 831
8 817 711 594 707 923 820 709 816
8 818 710 595 708 924 822 711 817
8 819 715 599 717 926 827 716 829
8 820 714 598 709 927 826 715 819
8 929 825 713 822 820 714 597 711
8 821 712 596 710 930 824 713 822
8 717 599 718 832 829 716 830 942
8 719 600 720 834 831 717 832 944
8 832 718 601 720 945 833 721 835
8 834 720 603 722 946 835 723 836
8 869 780 838 950 767 670 725 839
8 865 767 839 952 756 656 726 841
8 839 725 840 953 726 608 727 842
8 841 726 842 954 728 609 729 843
8 844 740 691 790 955 850 802 899
8 733 625 740 844 845 739 850 955
8 734 623 739 845 846 738 849 956
8 735 621 738 846 847 737 848 957
8 744 647 737 847 854 759 848 957
8 738 627 742 849 848 741 851 958
8 848 741 851 958 759 662 773 868
8 850 743 700 802 959 852 807 906
8 849 742 628 739 959 852 743 850
8 854 759 868 965 745 648 760 855
8 746 649 760 855 856 761 871 966
8 860 765 653 750 967 872 761 856
8 968 873 762 857 858 763 651 748
8 862 769 657 753 968 873 762 857
8 859 764 874 969 749 652 763 858
8 752 654 766 861 859 764 875 970
8 751 655 765 860 861 766 876 971
8 754 658 769 862 863 770 879 972
8 755 659 770 863 864 771 881 974
8 976 882 772 867 864 771 660 757
8 866 768 877 977 756 656 767 865
8 867 772 878 978 758 661 768 866
8 760 663 773 868 871 774 883 980
8 870 781 837 948 982 890 780 869
8 982 890 780 869 877 782 670 767
8 761 664 774 871 872 775 884 984
8 876 776 665 765 985 885 775 872
8 873 777 668 763 986 887 779 874
8 769 674 777 873 879 786 887 986
8 764 669 778 875 874 779 888 987
8 766 667 776 876 875 778 886 988
8 878 783 892 989 768 671 782 877
8 878 783 672 772 990 893 784 882
8 880 787 675 770 991 896 786 879
8 880 787 895 992 770 675 785 881
8 881 785 894 993 771 673 784 882
8 1006 905 799 898 897 798 687 789
8 919 814 905 1006 813 705 798 897
8 791 689 799 898 901 801 907 1007
8 900 803 909 1009 790 691 802 899
8 795 693 804 903 900 803 910 1010
8 902 800 908 1011 796 694 805 904
8 793 690 801 901 902 800 908 1011
8 797 695 805 904 903 804 911 1012
8 799 697 806 905 907 808 912 1013
8 920 815 912 1013 814 706 806 905
8 802 700 810 909 906 807 913 1014
8 801 699 808 907 908 809 914 1015
8 805 703 809 908 911 812 915 1016
8 803 701 811 910 909 810 916 1017
8 911 812 917 1018 804 702 811 910
8 925 821 920 1030 818 710 814 919
8 928 823 921 1031 821 712 815 920
8 922 819 717 831 1033 926 829 941
8 923 820 709 816 1034 927 819 922
8 1035 929 822 924 923 820 711 817
8 925 821 710 818 1036 930 822 924
8 1038 933 825 929 927 826 714 820
8 926 827 716 829 1039 935 828 939
8 927 826 715 819 1040 934 827 926
8 928 823 712 821 1041 931 824 930
8 1042 932 824 930 929 825 713 822
8 829 716 830 942 939 828 940 1058
8 831 717 832 944 941 829 942 1060
8 942 830 718 832 1061 943 833 945
8 944 832 720 834 1062 945 835 946
8 981 889 947 1064 870 781 837 948
8 948 837 949 1067 869 780 838 950
8 975 869 950 1069 865 767 839 952
8 950 838 951 1070 839 725 840 953
8 952 839 953 1071 841 726 842 954
8 955 850 802 899 1072 959 906 1008
8 956 849 739 845 1072 959 850 955
8 846 738 849 956 957 848 958 1073
8 957 848 958 1073 854 759 868 965
8 849 742 852 959 958 851 961 1076
8 960 853 961 1076 906 807 852 959
8 958 851 961 1076 868 773 883 980
8 960 853 807 906 1077 963 913 1014
8 855 760 868 965 966 871 980 1085
8 856 761 871 966 967 872 984 1086
8 971 876 765 860 1087 985 872 967
8 968 873 763 858 1088 986 874 969
8 862 769 873 968 972 879 986 1088
8 859 764 875 970 969 874 987 1089
8 861 766 876 971 970 875 988 1090
8 973 880 770 863 1091 991 879 972
8 973 880 992 1092 863 770 881 974
8 974 881 993 1093 864 771 882 976
8 979 870 948 1066 1094 982 869 975
8 1094 982 869 975 977 877 767 865
8 978 878 772 867 1095 990 882 976
8 978 878 989 1096 866 768 877 977
8 871 774 883 980 984 884 994 1099
8 983 891 999 1100 870 781 889 981
8 1101 1000 890 982 989 892 782 877
8 983 891 781 870 1101 1000 890 982
8 872 775 884 984 985 885 995 1103
8 876 776 885 985 988 886 996 1104
8 986 887 779 874 1105 998 888 987
8 879 786 887 986 991 896 998 1105
8 875 778 886 988 987 888 997 1106
8 990 893 1002 1107 878 783 892 989
8 1108 1003 893 990 993 894 784 882
8 880 787 896 991 992 895 1005 1109
8 993 894 785 881 1110 1004 895 992
8 898 799 905 1006 1007 907 1013 1120
8 1030 920 1013 1120 919 814 905 1006
8 901 801 907 1007 1011 908 1015 1121
8 899 802 909 1009 1008 906 1014 1122
8 900 803 910 1010 1009 909 1017 1123
8 1012 911 1018 1124 903 804 910 1010
8 904 805 908 1011 1012 911 1016 1125
8 1013 912 1020 1127 907 808 914 1015
8 1031 921 1020 1127 920 815 912 1013
8 1019 918 962 1075 1128 1021 913 1014
8 1128 1021 913 1014 1017 916 810 909
8 1015 914 1022 1129 908 809 915 1016
8 1016 915 1023 1130 911 812 917 1018
8 1018 917 1024 1131 910 811 916 1017
8 1037 928 1031 1148 925 821 920 1030
8 928 823 931 1041 1031 921 1032 1149
8 1033 926 829 941 1151 1039 939 1057
8 1034 927 819 922 1152 1040 926 1033
8 1153 1038 929 1035 1034 927 820 923
8 1154 1042 930 1036 1035 929 822 924
8 1037 928 821 925 1155 1041 930 1036
8 1039 935 828 939 1156 1047 938 1055
8 1157 1043 932 1042 1038 933 825 929
8 1038 933 826 927 1158 1045 934 1040
8 1040 934 827 926 1159 1046 935 1039
8 930 824 932 1042 1041 931 1044 1160
8 1051 936 1048 1165 1175 1052 937 1053
8 1156 1047 938 1055 1053 937 1054 1178
8 939 828 940 1058 1055 938 1056 1181
8 941 829 942 1060 1057 939 1058 1183
8 942 830 943 1061 1058 940 1059 1184
8 1060 942 832 944 1185 1061 945 1062
8 1082 964 1063 1188 981 889 947 1064
8 1097 981 1064 1190 979 870 948 1066
8 1064 947 1065 1191 948 837 949 1067
8 1066 948 1067 1193 975 869 950 1069
8 1067 949 1068 1194 950 838 951 1070
8 1069 950 1070 1195 952 839 953 1071
8 956 849 959 1072 1073 958 1076 1197
8 1074 960 1076 1197 1008 906 959 1072
8 1073 958 1076 1197 965 868 980 1085
8 1074 960 906 1008 1198 1077 1014 1122
8 1133 1026 1079 1199 1019 918 962 1075
8 1077 963 913 1014 1200 1080 962 1075
8 960 853 963 1077 1076 961 1078 1201
8 980 883 961 1076 1099 994 1078 1201
8 1210 1083 964 1082 1100 999 889 981
8 966 871 980 1085 1086 984 1099 1215
8 967 872 984 1086 1087 985 1103 1216
8 971 876 985 1087 1090 988 1104 1217
8 1088 986 874 969 1218 1105 987 1089
8 972 879 986 1088 1091 991 1105 1218
8 970 875 988 1090 1089 987 1106 1219
8 973 880 991 1091 1092 992 1109 1220
8 1093 993 881 974 1221 1110 992 1092
8 1222 1108 990 1095 1093 993 882 976
8 1223 1101 982 1094 1096 989 877 977
8 1098 983 870 979 1223 1101 982 1094
8 1095 990 1107 1224 978 878 989 1096
8 1098 983 1100 1225 979 870 981 1097
8 984 884 994 1099 1103 995 1111 1227
8 1102 1001 1115 1228 983 891 999 1100
8 1101 1000 892 989 1229 1116 1002 1107
8 1102 1001 891 983 1229 1116 1000 1101
8 985 885 995 1103 1104 996 1112 1230
8 988 886 996 1104 1106 997 1113 1231
8 1105 998 888 987 1232 1114 997 1106
8 991 896 998 1105 1109 1005 1114 1232
8 1108 1003 1117 1233 990 893 1002 1107
8 1108 1003 894 993 1233 1117 1004 1110
8 992 895 1005 1109 1110 1004 1118 1234
8 1120 1013 1127 1244 1007 907 1015 1121
8 1148 1031 1127 1244 1030 920 1013 1120
8 1121 1015 1129 1245 1011 908 1016 1125
8 1126 1019 1075 1196 1246 1128 1014 1122
8 1246 1128 1014 1122 1123 1017 909 1009
8 1124 1018 1131 1247 1010 910 1017 1123
8 1125 1016 1130 1248 1012 911 1018 1124
8 1127 1020 1137 1254 1015 914 1022 1129
8 1031 921 1032 1149 1127 1020 1137 1254
8 1134 1027 918 1019 1257 1140 1021 1128
8 1257 1140 1021 1128 1131 1024 916 1017
8 1129 1022 1141 1258 1016 915 1023 1130
8 1130 1023 1142 1259 1018 917 1024 1131
8 1261 1144 1025 1132 1133 1026 1079 1199
8 1255 1138 1025 1132 1135 1028 1144 1261
8 1133 1026 918 1019 1262 1145 1027 1134
8 1136 1029 1139 1256 1263 1146 1028 1135
8 1037 928 1041 1155 1148 1031 1149 1275
8 1041 931 1044 1160 1149 1032 1150 1276
8 1151 1039 939 1057 1278 1156 1055 1180
8 1152 1040 926 1033 1279 1159 1039 1151
8 1153 1038 927 1034 1280 1158 1040 1152
8 1281 1157 1042 1154 1153 1038 929 1035
8 1036 930 1042 1154 1155 1041 1160 1282
8 1283 1164 1046 1159 1156 1047 935 1039
8 1165 1048 1164 1283 1053 937 1047 1156
8 1157 1043 933 1038 1284 1161 1045 1158
8 1157 1043 1161 1284 1042 932 1044 1160
8 1040 934 1046 1159 1158 1045 1163 1285
8 1166 1049 1167 1292 1051 936 1048 1165
8 1166 1049 936 1051 1293 1168 1050 1172
8 1051 936 1052 1175 1172 1050 1173 1306
8 1174 1051 1165 1290 1308 1175 1053 1177
8 1053 937 1054 1178 1175 1052 1176 1309
8 1278 1156 1055 1180 1177 1053 1178 1311
8 1055 938 1056 1181 1178 1054 1179 1312
8 1057 939 1058 1183 1180 1055 1181 1314
8 1058 940 1059 1184 1181 1056 1182 1315
8 1060 942 1061 1185 1183 1058 1184 1316
8 1208 1081 1187 1321 1082 964 1063 1188
8 1209 1082 1188 1322 1097 981 1064 1190
8 1188 1063 1189 1323 1064 947 1065 1191
8 1190 1064 1191 1325 1066 948 1067 1193
8 1191 1065 1192 1326 1067 949 1068 1194
8 1067 1193 1069 950 1194 1327 1195 1070
8 1250 1133 1199 1330 1126 1019 1075 1196
8 1198 1077 1014 1122 1331 1200 1075 1196
8 1074 960 1077 1198 1197 1076 1201 1332
8 1085 980 1076 1197 1215 1099 1201 1332
8 1199 1079 1203 1333 1075 962 1080 1200
8 1132 1025 1119 1243 1199 1079 1203 1333
8 1201 1078 963 1077 1334 1202 1080 1200
8 1099 994 1078 1201 1227 1111 1202 1334
8 1343 1207 1081 1208 1210 1083 964 1082
8 1214 1084 1186 1319 1343 1207 1081 1208
8 1345 1210 1082 1209 1225 1100 981 1097
8 1346 1211 1083 1210 1228 1115 999 1100
8 1086 984 1099 1215 1216 1103 1227 1352
8 1087 985 1103 1216 1217 1104 1230 1353
8 1090 988 1104 1217 1219 1106 1231 1354
8 1218 1105 987 1089 1355 1232 1106 1219
8 1091 991 1105 1218 1220 1109 1232 1355
8 1092 992 1109 1220 1221 1110 1234 1356
8 1222 1108 1233 1357 1095 990 1107 1224
8 1222 1108 993 1093 1357 1233 1110 1221
8 1223 1101 989 1096 1358 1229 1107 1224
8 1226 1102 983 1098 1358 1229 1101 1223
8 1226 1102 1228 1359 1098 983 1100 1225
8 1103 995 1111 1227 1230 1112 1235 1360
8 1107 1002 1117 1233 1229 1116 1240 1362
8 1102 1001 1116 1229 1228 1115 1240 1362
8 1104 996 1112 1230 1231 1113 1236 1363
8 1364 1237 1114 1232 1231 1113 997 1106
8 1109 1005 1114 1232 1234 1118 1238 1365
8 1110 1004 1118 1234 1233 1117 1241 1366
8 1242 1374 1255 1138 1119 1243 1132 1025
8 1244 1127 1254 1376 1121 1015 1129 1245
8 1148 1031 1149 1275 1244 1127 1254 1376
8 1245 1129 1258 1377 1125 1016 1130 1248
8 1251 1134 1019 1126 1378 1257 1128 1246
8 1378 1257 1128 1246 1247 1131 1017 1123
8 1248 1130 1259 1379 1124 1018 1131 1247
8 1261 1381 1250 1133 1132 1249 1330 1199
8 1255 1380 1252 1135 1132 1249 1381 1261
8 1250 1133 1019 1126 1382 1262 1134 1251
8 1253 1136 1256 1385 1384 1263 1135 1252
8 1254 1137 1265 1387 1129 1022 1141 1258
8 1149 1032 1150 1276 1254 1137 1265 1387
8 1028 1135 1255 1138 1139 1256 1388 1266
8 1136 1029 1147 1264 1256 1139 1267 1389
8 1390 1268 1140 1257 1259 1142 1024 1131
8 1260 1143 1027 1134 1390 1268 1140 1257
8 1258 1141 1269 1391 1130 1023 1142 1259
8 1262 1145 1027 1134 1393 1271 1143 1260
8 1261 1144 1026 1133 1394 1272 1145 1262
8 1135 1028 1144 1261 1263 1146 1272 1394
8 1136 1029 1146 1263 1264 1147 1273 1395
8 1155 1041 1160 1282 1275 1149 1276 1405
8 1276 1150 1044 1160 1406 1277 1162 1286
8 1408 1283 1159 1279 1278 1156 1039 1151
8 1290 1165 1283 1408 1177 1053 1156 1278
8 1152 1040 1159 1279 1280 1158 1285 1409
8 1281 1157 1038 1153 1410 1284 1158 1280
8 1281 1157 1284 1410 1154 1042 1160 1282
8 1159 1046 1164 1283 1285 1163 1289 1412
8 1292 1167 1289 1412 1165 1048 1164 1283
8 1158 1045 1163 1285 1284 1161 1288 1413
8 1284 1161 1288 1413 1160 1044 1162 1286
8 1291 1166 1292 1418 1174 1051 1165 1290
8 1291 1166 1051 1174 1419 1293 1172 1305
8 1294 1169 1296 1421 1166 1049 1167 1292
8 1293 1168 1050 1172 1422 1295 1171 1303
8 1294 1169 1049 1166 1423 1297 1168 1293
8 1422 1295 1171 1303 1301 1170 1302 1435
8 1172 1050 1173 1306 1303 1171 1304 1438
8 1174 1051 1175 1308 1305 1172 1306 1440
8 1175 1052 1176 1309 1306 1173 1307 1441
8 1177 1053 1178 1311 1308 1175 1309 1443
8 1178 1054 1179 1312 1309 1176 1310 1444
8 1180 1055 1181 1314 1311 1178 1312 1446
8 1056 1181 1312 1179 1182 1315 1447 1313
8 1183 1058 1184 1316 1314 1181 1315 1448
8 1319 1186 1084 1214 1451 1317 1213 1350
8 1319 1186 1318 1453 1208 1081 1187 1321
8 1321 1187 1320 1456 1188 1063 1189 1323
8 1344 1208 1321 1457 1209 1082 1188 1322
8 1322 1188 1323 1458 1190 1064 1191 1325
8 1323 1189 1324 1459 1191 1065 1192 1326
8 1191 1325 1193 1067 1326 1460 1327 1194
8 1242 1374 1243 1119 1328 1462 1335 1204
8 1330 1199 1333 1465 1196 1075 1200 1331
8 1132 1249 1330 1199 1243 1375 1465 1333
8 1332 1201 1077 1198 1466 1334 1200 1331
8 1215 1099 1201 1332 1352 1227 1334 1466
8 1119 1243 1333 1203 1204 1335 1470 1338
8 1333 1203 1338 1470 1200 1080 1202 1334
8 1227 1111 1202 1334 1360 1235 1338 1470
8 1328 1462 1335 1204 1205 1336 1471 1339
8 1337 1206 1340 1472 1464 1329 1205 1336
8 1346 1211 1342 1479 1210 1083 1207 1343
8 1346 1211 1115 1228 1479 1342 1239 1361
8 1348 1212 1084 1214 1479 1342 1207 1343
8 1480 1343 1208 1344 1345 1210 1082 1209
8 1351 1214 1319 1454 1480 1343 1208 1344
8 1481 1346 1210 1345 1359 1228 1100 1225
8 1348 1212 1347 1483 1214 1084 1213 1350
8 1216 1103 1227 1352 1353 1230 1360 1488
8 1217 1104 1230 1353 1354 1231 1363 1489
8 1490 1364 1232 1355 1354 1231 1106 1219
8 1220 1109 1232 1355 1356 1234 1365 1491
8 1221 1110 1234 1356 1357 1233 1366 1492
8 1224 1107 1233 1357 1358 1229 1362 1493
8 1226 1102 1229 1358 1359 1228 1362 1493
8 1230 1112 1235 1360 1363 1236 1367 1496
8 1361 1239 1115 1228 1497 1371 1240 1362
8 1366 1241 1372 1498 1233 1117 1240 1362
8 1364 1237 1113 1231 1499 1368 1236 1363
8 1364 1237 1368 1499 1232 1114 1238 1365
8 1234 1118 1238 1365 1366 1241 1369 1500
8 1507 1373 1242 1374 1388 1266 1138 1255
8 1508 1374 1243 1375 1380 1255 1132 1249
8 1376 1254 1387 1509 1245 1129 1258 1377
8 1275 1149 1276 1405 1376 1254 1387 1509
8 1377 1258 1391 1510 1248 1130 1259 1379
8 1511 1390 1257 1378 1379 1259 1131 1247
8 1383 1260 1134 1251 1511 1390 1257 1378
8 1252 1135 1256 1385 1380 1255 1388 1512
8 1261 1381 1513 1394 1133 1250 1382 1262
8 1135 1252 1384 1263 1261 1381 1513 1394
8 1382 1262 1134 1251 1514 1393 1260 1383
8 1253 1136 1263 1384 1386 1264 1395 1516
8 1253 1136 1264 1386 1385 1256 1389 1517
8 1387 1265 1397 1519 1258 1141 1269 1391
8 1276 1150 1277 1406 1387 1265 1397 1519
8 1256 1139 1267 1389 1388 1266 1398 1520
8 1264 1147 1274 1396 1389 1267 1399 1521
8 1392 1270 1143 1260 1522 1400 1268 1390
8 1390 1268 1142 1259 1522 1400 1269 1391
8 1392 1270 1401 1523 1260 1143 1271 1393
8 1272 1394 1524 1402 1145 1262 1393 1271
8 1395 1273 1146 1263 1524 1402 1272 1394
8 1273 1395 1264 1147 1403 1526 1396 1274
8 1405 1276 1160 1282 1534 1406 1286 1411
8 1414 1287 1407 1535 1286 1162 1277 1406
8 1279 1159 1283 1408 1409 1285 1412 1537
8 1418 1292 1412 1537 1290 1165 1283 1408
8 1280 1158 1285 1409 1410 1284 1413 1538
8 1410 1284 1413 1538 1282 1160 1286 1411
8 1285 1163 1289 1412 1413 1288 1417 1540
8 1421 1296 1417 1540 1292 1167 1289 1412
8 1414 1287 1162 1286 1541 1416 1288 1413
8 1420 1294 1421 1545 1291 1166 1292 1418
8 1419 1293 1172 1305 1546 1422 1303 1437
8 1420 1294 1166 1291 1547 1423 1293 1419
8 1294 1169 1297 1423 1421 1296 1425 1548
8 1423 1297 1168 1293 1549 1424 1295 1422
8 1301 1170 1298 1427 1422 1295 1424 1549
8 1432 1300 1428 1554 1301 1170 1298 1427
8 1431 1299 1428 1554 1560 1430 1300 1432
8 1563 1433 1300 1432 1435 1302 1170 1301
8 1546 1422 1303 1437 1434 1301 1435 1565
8 1303 1171 1304 1438 1435 1302 1436 1566
8 1305 1172 1306 1440 1437 1303 1438 1568
8 1306 1173 1307 1441 1438 1304 1439 1569
8 1308 1175 1309 1443 1440 1306 1441 1571
8 1309 1176 1310 1444 1441 1307 1442 1572
8 1311 1178 1312 1446 1443 1309 1444 1574
8 1179 1312 1444 1310 1313 1447 1575 1445
8 1314 1181 1315 1448 1446 1312 1447 1576
8 1350 1213 1349 1486 1451 1317 1449 1579
8 1451 1317 1450 1581 1319 1186 1318 1453
8 1454 1319 1214 1351 1582 1451 1350 1487
8 1453 1318 1452 1584 1321 1187 1320 1456
8 1454 1319 1453 1585 1344 1208 1321 1457
8 1456 1320 1455 1586 1323 1189 1324 1459
8 1457 1321 1456 1587 1322 1188 1323 1458
8 1458 1323 1459 1588 1325 1191 1326 1460
8 1205 1336 1464 1329 1328 1462 1590 1461
8 1507 1373 1461 1590 1374 1242 1328 1462
8 1508 1374 1462 1591 1375 1243 1335 1467
8 1337 1206 1329 1464 1473 1341 1463 1594
8 1375 1243 1335 1467 1465 1333 1470 1596
8 1465 1333 1470 1596 1331 1200 1334 1466
8 1352 1227 1334 1466 1488 1360 1470 1596
8 1591 1462 1336 1468 1467 1335 1471 1597
8 1469 1337 1472 1598 1595 1464 1336 1468
8 1471 1339 1474 1600 1335 1204 1338 1470
8 1600 1474 1367 1496 1470 1338 1235 1360
8 1336 1205 1340 1472 1471 1339 1475 1601
8 1337 1206 1341 1473 1472 1340 1476 1602
8 1495 1370 1478 1609 1361 1239 1342 1479
8 1348 1212 1342 1479 1483 1347 1478 1609
8 1481 1346 1479 1610 1345 1210 1343 1480
8 1481 1346 1228 1359 1610 1479 1361 1494
8 1484 1348 1214 1351 1610 1479 1343 1480
8 1483 1347 1482 1612 1350 1213 1349 1486
8 1484 1348 1483 1613 1351 1214 1350 1487
8 1353 1230 1360 1488 1489 1363 1496 1616
8 1490 1364 1231 1354 1617 1499 1363 1489
8 1490 1364 1499 1617 1355 1232 1365 1491
8 1356 1234 1365 1491 1492 1366 1500 1619
8 1492 1366 1498 1620 1357 1233 1362 1493
8 1494 1361 1228 1359 1621 1497 1362 1493
8 1495 1370 1239 1361 1622 1504 1371 1497
8 1363 1236 1367 1496 1499 1368 1501 1623
8 1497 1371 1240 1362 1624 1505 1372 1498
8 1625 1503 1372 1498 1500 1369 1241 1366
8 1365 1238 1368 1499 1500 1369 1502 1626
8 1520 1398 1506 1633 1388 1266 1373 1507
8 1634 1507 1374 1508 1512 1388 1255 1380
8 1509 1387 1519 1635 1377 1258 1391 1510
8 1405 1276 1406 1534 1509 1387 1519 1635
8 1515 1392 1260 1383 1636 1522 1390 1511
8 1511 1390 1259 1379 1636 1522 1391 1510
8 1385 1256 1389 1517 1512 1388 1520 1637
8 1513 1394 1262 1382 1638 1524 1393 1514
8 1395 1516 1638 1524 1263 1384 1513 1394
8 1515 1392 1523 1639 1383 1260 1393 1514
8 1516 1395 1526 1640 1386 1264 1396 1518
8 1386 1264 1396 1518 1517 1389 1521 1641
8 1519 1397 1527 1643 1391 1269 1400 1522
8 1535 1407 1527 1643 1406 1277 1397 1519
8 1389 1267 1399 1521 1520 1398 1528 1644
8 1645 1529 1399 1521 1525 1404 1274 1396
8 1392 1270 1400 1522 1523 1401 1531 1646
8 1524 1402 1271 1393 1648 1532 1401 1523
8 1403 1526 1648 1532 1273 1395 1524 1402
8 1525 1404 1274 1396 1649 1533 1403 1526
8 1539 1414 1535 1657 1411 1286 1406 1534
8 1542 1415 1536 1658 1414 1287 1407 1535
8 1409 1285 1412 1537 1538 1413 1540 1660
8 1545 1421 1540 1660 1418 1292 1412 1537
8 1539 1414 1286 1411 1661 1541 1413 1538
8 1540 1417 1544 1663 1413 1288 1416 1541
8 1421 1296 1425 1548 1540 1417 1544 1663
8 1542 1415 1287 1414 1664 1543 1416 1541
8 1420 1294 1423 1547 1545 1421 1548 1666
8 1547 1423 1293 1419 1667 1549 1422 1546
8 1434 1301 1427 1553 1546 1422 1549 1667
8 1423 1297 1424 1549 1548 1425 1550 1668
8 1551 1426 1550 1668 1427 1298 1424 1549
8 1551 1426 1298 1427 1671 1552 1428 1554
8 1562 1432 1554 1674 1434 1301 1427 1553
8 1431 1299 1429 1558 1554 1428 1555 1675
8 1431 1299 1430 1560 1558 1429 1557 1680
8 1560 1430 1300 1432 1683 1559 1433 1563
8 1561 1431 1554 1674 1684 1560 1432 1562
8 1685 1563 1432 1562 1565 1435 1301 1434
8 1435 1302 1436 1566 1563 1433 1564 1686
8 1437 1303 1438 1568 1565 1435 1566 1688
8 1438 1304 1439 1569 1566 1436 1567 1689
8 1440 1306 1441 1571 1568 1438 1569 1691
8 1441 1307 1442 1572 1569 1439 1570 1692
8 1443 1309 1444 1574 1571 1441 1572 1694
8 1310 1444 1572 1442 1445 1575 1695 1573
8 1446 1312 1447 1576 1574 1444 1575 1696
8 1486 1349 1485 1614 1579 1449 1577 1699
8 1451 1317 1449 1579 1581 1450 1578 1701
8 1487 1350 1486 1615 1582 1451 1579 1702
8 1581 1450 1580 1704 1453 1318 1452 1584
8 1582 1451 1581 1705 1454 1319 1453 1585
8 1584 1452 1583 1706 1456 1320 1455 1586
8 1585 1453 1584 1707 1457 1321 1456 1587
8 1587 1456 1586 1708 1458 1323 1459 1588
8 1633 1506 1589 1710 1507 1373 1461 1590
8 1464 1329 1461 1590 1594 1463 1589 1710
8 1468 1336 1462 1591 1595 1464 1590 1711
8 1634 1507 1590 1711 1508 1374 1462 1591
8 1473 1341 1463 1594 1603 1477 1593 1716
8 1469 1337 1464 1595 1599 1473 1594 1717
8 1471 1597 1467 1335 1600 1718 1596 1470
8 1718 1600 1496 1616 1596 1470 1360 1488
8 1336 1468 1597 1471 1472 1598 1719 1601
8 1469 1337 1473 1599 1598 1472 1602 1720
8 1722 1604 1501 1623 1600 1474 1367 1496
8 1475 1601 1471 1339 1604 1722 1600 1474
8 1602 1476 1605 1723 1472 1340 1475 1601
8 1476 1602 1724 1606 1341 1473 1603 1477
8 1483 1347 1478 1609 1612 1482 1608 1731
8 1495 1370 1504 1622 1609 1478 1608 1731
8 1618 1495 1609 1732 1494 1361 1479 1610
8 1484 1348 1479 1610 1613 1483 1609 1732
8 1486 1349 1482 1612 1614 1485 1611 1733
8 1613 1483 1612 1734 1487 1350 1486 1615
8 1489 1363 1496 1616 1617 1499 1623 1736
8 1491 1365 1499 1617 1619 1500 1626 1737
8 1618 1495 1361 1494 1738 1622 1497 1621
8 1739 1625 1498 1620 1619 1500 1366 1492
8 1621 1497 1362 1493 1740 1624 1498 1620
8 1742 1631 1504 1622 1624 1505 1371 1497
8 1743 1628 1502 1626 1623 1501 1368 1499
8 1744 1630 1505 1624 1625 1503 1372 1498
8 1745 1629 1503 1625 1626 1502 1369 1500
8 1520 1398 1528 1644 1633 1506 1632 1751
8 1637 1520 1633 1752 1512 1388 1507 1634
8 1635 1519 1643 1753 1510 1391 1522 1636
8 1657 1535 1643 1753 1534 1406 1519 1635
8 1515 1392 1522 1636 1639 1523 1646 1754
8 1517 1389 1521 1641 1637 1520 1644 1755
8 1524 1638 1756 1648 1393 1514 1639 1523
8 1640 1526 1395 1516 1756 1648 1524 1638
8 1642 1525 1396 1518 1757 1649 1526 1640
8 1758 1645 1521 1641 1642 1525 1396 1518
8 1646 1531 1400 1522 1760 1650 1527 1643
8 1535 1407 1536 1658 1643 1527 1650 1760
8 1521 1399 1529 1645 1644 1528 1651 1761
8 1647 1530 1652 1762 1525 1404 1529 1645
8 1401 1523 1648 1532 1531 1646 1763 1655
8 1525 1404 1533 1649 1647 1530 1654 1765
8 1533 1649 1766 1656 1403 1526 1648 1532
8 1662 1542 1658 1774 1539 1414 1535 1657
8 1542 1415 1543 1664 1658 1536 1659 1775
8 1660 1540 1663 1777 1538 1413 1541 1661
8 1545 1421 1548 1666 1660 1540 1663 1777
8 1662 1542 1414 1539 1778 1664 1541 1661
8 1664 1543 1416 1541 1779 1665 1544 1663
8 1548 1425 1550 1668 1663 1544 1665 1779
8 1547 1423 1549 1667 1666 1548 1668 1781
8 1670 1551 1668 1781 1553 1427 1549 1667
8 1551 1426 1552 1671 1668 1550 1669 1782
8 1670 1551 1427 1553 1784 1671 1554 1674
8 1675 1555 1672 1785 1554 1428 1552 1671
8 1678 1556 1673 1789 1558 1429 1555 1675
8 1561 1431 1558 1681 1674 1554 1675 1790
8 1794 1677 1556 1678 1680 1557 1429 1558
8 1560 1430 1559 1683 1680 1557 1679 1797
8 1561 1431 1560 1684 1681 1558 1680 1798
8 1563 1433 1564 1686 1683 1559 1682 1800
8 1684 1560 1432 1562 1801 1683 1563 1685
8 1565 1435 1566 1688 1685 1563 1686 1802
8 1566 1436 1567 1689 1686 1564 1687 1803
8 1568 1438 1569 1691 1688 1566 1689 1805
8 1569 1439 1570 1692 1689 1567 1690 1806
8 1571 1441 1572 1694 1691 1569 1692 1808
8 1442 1572 1692 1570 1573 1695 1809 1693
8 1574 1444 1575 1696 1694 1572 1695 1810
8 1614 1485 1592 1712 1699 1577 1697 1813
8 1579 1449 1577 1699 1701 1578 1698 1815
8 1615 1486 1614 1735 1702 1579 1699 1816
8 1701 1578 1700 1818 1581 1450 1580 1704
8 1582 1451 1579 1702 1705 1581 1701 1819
8 1704 1580 1703 1820 1584 1452 1583 1706
8 1705 1581 1704 1821 1585 1453 1584 1707
8 1707 1584 1706 1822 1587 1456 1586 1708
8 1710 1589 1506 1633 1824 1709 1632 1751
8 1594 1463 1589 1710 1716 1593 1709 1824
8 1752 1633 1710 1825 1634 1507 1590 1711
8 1595 1464 1590 1711 1717 1594 1710 1825
8 1830 1714 1592 1712 1733 1611 1485 1614
8 1603 1477 1593 1716 1725 1607 1715 1834
8 1599 1473 1594 1717 1721 1603 1716 1835
8 1837 1722 1623 1736 1718 1600 1496 1616
8 1719 1601 1722 1837 1597 1471 1600 1718
8 1602 1720 1598 1472 1723 1838 1719 1601
8 1720 1602 1473 1599 1839 1724 1603 1721
8 1723 1605 1726 1840 1601 1475 1604 1722
8 1840 1726 1628 1743 1722 1604 1501 1623
8 1724 1606 1727 1841 1602 1476 1605 1723
8 1725 1607 1728 1842 1603 1477 1606 1724
8 1612 1482 1608 1731 1733 1611 1730 1849
8 1741 1627 1730 1849 1622 1504 1608 1731
8 1613 1483 1609 1732 1734 1612 1731 1850
8 1618 1495 1622 1738 1732 1609 1731 1850
8 1615 1486 1612 1734 1735 1614 1733 1851
8 1852 1743 1626 1737 1736 1623 1499 1617
8 1853 1745 1625 1739 1737 1626 1500 1619
8 1855 1742 1622 1738 1740 1624 1497 1621
8 1856 1744 1624 1740 1739 1625 1498 1620
8 1741 1627 1504 1622 1857 1746 1631 1742
8 1742 1631 1505 1624 1858 1749 1630 1744
8 1859 1747 1629 1745 1743 1628 1502 1626
8 1860 1748 1630 1744 1745 1629 1503 1625
8 1644 1528 1651 1761 1751 1632 1750 1865
8 1637 1520 1644 1755 1752 1633 1751 1866
8 1754 1646 1522 1636 1867 1760 1643 1753
8 1657 1535 1658 1774 1753 1643 1760 1867
8 1639 1523 1646 1754 1756 1648 1763 1868
8 1641 1521 1645 1758 1755 1644 1761 1869
8 1757 1649 1526 1640 1870 1766 1648 1756
8 1642 1525 1649 1757 1759 1647 1765 1871
8 1759 1647 1762 1872 1642 1525 1645 1758
8 1760 1650 1767 1874 1646 1531 1655 1763
8 1658 1536 1659 1775 1760 1650 1767 1874
8 1762 1652 1768 1875 1645 1529 1651 1761
8 1764 1653 1769 1876 1647 1530 1652 1762
8 1656 1766 1877 1773 1532 1648 1763 1655
8 1771 1879 1765 1654 1653 1764 1647 1530
8 1533 1649 1765 1654 1656 1766 1880 1772
8 1662 1542 1664 1778 1774 1658 1775 1887
8 1664 1543 1665 1779 1775 1659 1776 1888
8 1778 1664 1541 1661 1890 1779 1663 1777
8 1666 1548 1668 1781 1777 1663 1779 1890
8 1782 1669 1780 1891 1668 1550 1665 1779
8 1670 1551 1671 1784 1781 1668 1782 1893
8 1671 1552 1672 1785 1782 1669 1783 1894
8 1790 1675 1785 1896 1674 1554 1671 1784
8 1675 1555 1673 1789 1785 1672 1786 1897
8 1792 1676 1788 1903 1678 1556 1673 1789
8 1795 1678 1789 1904 1681 1558 1675 1790
8 1792 1676 1556 1678 1906 1791 1677 1794
8 1680 1557 1679 1797 1794 1677 1793 1909
8 1910 1794 1678 1795 1798 1680 1558 1681
8 1683 1559 1682 1800 1797 1679 1796 1912
8 1684 1560 1683 1801 1798 1680 1797 1913
8 1686 1564 1687 1803 1800 1682 1799 1915
8 1685 1563 1686 1802 1801 1683 1800 1916
8 1688 1566 1689 1805 1802 1686 1803 1917
8 1689 1567 1690 1806 1803 1687 1804 1918
8 1691 1569 1692 1808 1805 1689 1806 1920
8 1692 1570 1693 1809 1806 1690 1807 1921
8 1694 1572 1695 1810 1808 1692 1809 1922
8 1829 1713 1811 1926 1712 1592 1697 1813
8 1813 1697 1812 1928 1699 1577 1698 1815
8 1735 1614 1712 1828 1816 1699 1813 1929
8 1815 1698 1814 1931 1701 1578 1700 1818
8 1702 1579 1699 1816 1819 1701 1815 1932
8 1818 1700 1817 1933 1704 1580 1703 1820
8 1819 1701 1818 1934 1705 1581 1704 1821
8 1821 1704 1820 1935 1707 1584 1706 1822
8 1824 1709 1632 1751 1937 1823 1750 1865
8 1716 1593 1709 1824 1834 1715 1823 1937
8 1825 1710 1633 1752 1938 1824 1751 1866
8 1717 1594 1710 1825 1835 1716 1824 1938
8 1945 1830 1712 1828 1851 1733 1614 1735
8 1830 1714 1831 1946 1712 1592 1713 1829
8 1947 1832 1714 1830 1849 1730 1611 1733
8 1843 1729 1607 1725 1950 1833 1715 1834
8 1721 1603 1716 1835 1836 1725 1834 1951
8 1836 1725 1842 1953 1721 1603 1724 1839
8 1723 1838 1719 1601 1840 1954 1837 1722
8 1954 1840 1743 1852 1837 1722 1623 1736
8 1724 1839 1720 1602 1841 1955 1838 1723
8 1841 1727 1844 1956 1723 1605 1726 1840
8 1956 1844 1747 1859 1840 1726 1628 1743
8 1728 1842 1724 1606 1845 1957 1841 1727
8 1725 1607 1729 1843 1842 1728 1846 1958
8 1741 1627 1746 1857 1849 1730 1848 1965
8 1734 1612 1731 1850 1851 1733 1849 1966
8 1854 1741 1849 1966 1738 1622 1731 1850
8 1967 1859 1745 1853 1852 1743 1626 1737
8 1968 1860 1744 1856 1853 1745 1625 1739
8 1854 1741 1622 1738 1969 1857 1742 1855
8 1855 1742 1624 1740 1970 1858 1744 1856
8 1857 1746 1631 1742 1971 1861 1749 1858
8 1858 1749 1630 1744 1972 1863 1748 1860
8 1859 1747 1862 1973 1745 1629 1748 1860
8 1875 1768 1864 1977 1761 1651 1750 1865
8 1755 1644 1761 1869 1866 1751 1865 1978
8 1867 1760 1874 1979 1754 1646 1763 1868
8 1774 1658 1775 1887 1867 1760 1874 1979
8 1870 1766 1648 1756 1980 1877 1763 1868
8 1872 1762 1875 1981 1758 1645 1761 1869
8 1757 1649 1766 1870 1871 1765 1880 1982
8 1983 1879 1764 1873 1871 1765 1647 1759
8 1873 1764 1876 1984 1759 1647 1762 1872
8 1877 1773 1655 1763 1986 1881 1767 1874
8 1775 1659 1776 1888 1874 1767 1881 1986
8 1876 1769 1882 1987 1762 1652 1768 1875
8 1878 1770 1883 1988 1764 1653 1769 1876
8 1880 1772 1656 1766 1989 1886 1773 1877
8 1878 1770 1653 1764 1990 1884 1771 1879
8 1765 1654 1772 1880 1879 1771 1885 1991
8 1778 1664 1779 1890 1887 1775 1888 1997
8 1998 1889 1776 1888 1891 1780 1665 1779
8 1893 1782 1891 2000 1781 1668 1779 1890
8 1894 1783 1892 2001 1782 1669 1780 1891
8 1784 1671 1785 1896 1893 1782 1894 2003
8 1897 1786 1895 2004 1785 1672 1783 1894
8 1790 1675 1789 1904 1896 1785 1897 2006
8 1901 1787 1898 2007 1789 1673 1786 1897
8 1903 1788 1900 2013 1789 1673 1787 1901
8 1792 1676 1791 1906 1903 1788 1902 2016
8 1907 1792 1903 2017 1795 1678 1789 1904
8 1906 1791 1677 1794 2019 1905 1793 1909
8 1907 1792 1678 1795 2020 1906 1794 1910
8 1797 1679 1796 1912 1909 1793 1908 2022
8 1798 1680 1797 1913 1910 1794 1909 2023
8 1800 1682 1799 1915 1912 1796 1911 2025
8 1801 1683 1800 1916 1913 1797 1912 2026
8 1803 1687 1804 1918 1915 1799 1914 2028
8 1802 1686 1803 1917 1916 1800 1915 2029
8 1805 1689 1806 1920 1917 1803 1918 2030
8 1806 1690 1807 1921 1918 1804 1919 2031
8 1808 1692 1809 1922 1920 1806 1921 2032
8 1939 1826 1924 2037 1829 1713 1811 1926
8 1926 1811 1925 2039 1813 1697 1812 1928
8 1944 1829 1926 2040 1828 1712 1813 1929
8 1928 1812 1927 2042 1815 1698 1814 1931
8 1929 1813 1928 2043 1816 1699 1815 1932
8 1931 1814 1930 2044 1818 1700 1817 1933
8 1932 1815 1931 2045 1819 1701 1818 1934
8 1934 1818 1933 2046 1821 1704 1820 1935
8 2048 1936 1823 1937 1977 1864 1750 1865
8 1950 1833 1715 1834 2048 1936 1823 1937
8 1938 1824 1751 1866 2049 1937 1865 1978
8 1835 1716 1824 1938 1951 1834 1937 2049
8 1939 1826 1713 1829 2053 1942 1831 1946
8 1940 1827 1923 2035 2053 1942 1826 1939
8 1945 1830 1946 2058 1828 1712 1829 1944
8 2059 1947 1830 1945 1966 1849 1733 1851
8 1947 1832 1730 1849 2060 1948 1848 1965
8 1947 1832 1948 2060 1830 1714 1831 1946
8 1959 1847 1729 1843 2063 1949 1833 1950
8 1952 1843 1725 1836 2064 1950 1834 1951
8 1836 1725 1843 1952 1953 1842 1958 2066
8 1953 1842 1957 2067 1839 1724 1841 1955
8 1841 1955 1838 1723 1956 2068 1954 1840
8 2068 1956 1859 1967 1954 1840 1743 1852
8 1956 1844 1960 2069 1859 1747 1862 1973
8 1845 1957 1841 1727 1960 2069 1956 1844
8 1728 1842 1957 1845 1846 1958 2071 1961
8 1962 2072 1959 1847 1846 1958 1843 1729
8 1971 1861 1964 2077 1857 1746 1848 1965
8 1854 1741 1857 1969 1966 1849 1965 2078
8 1967 1859 1973 2079 1853 1745 1860 1968
8 1970 1858 1744 1856 2080 1972 1860 1968
8 1969 1857 1742 1855 2081 1971 1858 1970
8 1971 1861 1749 1858 2082 1974 1863 1972
8 1973 1862 1975 2083 1860 1748 1863 1972
8 1987 1882 1976 2086 1875 1768 1864 1977
8 1981 1875 1977 2087 1869 1761 1865 1978
8 1980 1877 1763 1868 2088 1986 1874 1979
8 1887 1775 1888 1997 1979 1874 1986 2088
8 1880 1982 2089 1989 1766 1870 1980 1877
8 1984 1876 1987 2090 1872 1762 1875 1981
8 1765 1871 1983 1879 1880 1982 2091 1991
8 1985 1878 1764 1873 2092 1990 1879 1983
8 1985 1878 1988 2093 1873 1764 1876 1984
8 2094 1992 1881 1986 1998 1889 1776 1888
8 1986 1881 1992 2094 1877 1773 1886 1989
8 1988 1883 1993 2095 1876 1769 1882 1987
8 1878 1770 1884 1990 1988 1883 1994 2096
8 1991 1885 1772 1880 2097 1996 1886 1989
8 1879 1771 1885 1991 1990 1884 1995 2098
8 2103 1998 1888 1997 2000 1891 1779 1890
8 2104 1999 1889 1998 2001 1892 1780 1891
8 2003 1894 2001 2106 1893 1782 1891 2000
8 2004 1895 2002 2107 1894 1783 1892 2001
8 2006 1897 2004 2109 1896 1785 1894 2003
8 2007 1898 2005 2110 1897 1786 1895 2004
8 2014 1901 2007 2112 1904 1789 1897 2006
8 2011 1899 2008 2113 1901 1787 1898 2007
8 2119 2010 1899 2011 2013 1900 1787 1901
8 2016 1902 2012 2122 1903 1788 1900 2013
8 2017 1903 2013 2123 1904 1789 1901 2014
8 1906 1791 1905 2019 2016 1902 2015 2125
8 1907 1792 1906 2020 2017 1903 2016 2126
8 1909 1793 1908 2022 2019 1905 2018 2128
8 2020 1906 1794 1910 2129 2019 1909 2023
8 1912 1796 1911 2025 2022 1908 2021 2131
8 1913 1797 1912 2026 2023 1909 2022 2132
8 1915 1799 1914 2028 2025 1911 2024 2134
8 1916 1800 1915 2029 2026 1912 2025 2135
8 1918 1804 1919 2031 2028 1914 2027 2136
8 1917 1803 1918 2030 2029 1915 2028 2137
8 1920 1806 1921 2032 2030 1918 2031 2138
8 1940 1827 1941 2054 2035 1923 2033 2140
8 2035 1923 2034 2143 1939 1826 1924 2037
8 2037 1924 2036 2146 1926 1811 1925 2039
8 2051 1939 2037 2147 1944 1829 1926 2040
8 2039 1925 2038 2149 1928 1812 1927 2042
8 2040 1926 2039 2150 1929 1813 1928 2043
8 2042 1927 2041 2151 1931 1814 1930 2044
8 2043 1928 2042 2152 1932 1815 1931 2045
8 2045 1931 2044 2153 1934 1818 1933 2046
8 2155 2047 1936 2048 2086 1976 1864 1977
8 2063 1949 1833 1950 2155 2047 1936 2048
8 2156 2048 1937 2049 2087 1977 1865 1978
8 2064 1950 1834 1951 2156 2048 1937 2049
8 2051 1939 1829 1944 2160 2053 1946 2058
8 2052 1940 2035 2144 2160 2053 1939 2051
8 2053 1942 1831 1946 2163 2057 1948 2060
8 2055 1943 1827 1940 2163 2057 1942 2053
8 2055 1943 2056 2164 1940 1827 1941 2054
8 2059 1947 1849 1966 2167 2060 1965 2078
8 2059 1947 2060 2167 1945 1830 1946 2058
8 2077 1964 2061 2168 1965 1848 1948 2060
8 2070 1963 1847 1959 2170 2062 1949 2063
8 2065 1959 1843 1952 2171 2063 1950 2064
8 2173 2072 1958 2066 2065 1959 1843 1952
8 1953 1842 1958 2066 2067 1957 2071 2174
8 2068 1956 2069 2175 1967 1859 1973 2079
8 2067 1957 2069 2175 1955 1841 1956 2068
8 1845 1957 2069 1960 1961 2071 2176 2073
8 2069 1960 2073 2176 1973 1862 1975 2083
8 2070 1963 2075 2177 1959 1847 1962 2072
8 1846 1958 2071 1961 1962 2072 2178 2074
8 2077 1964 1861 1971 2182 2076 1974 2082
8 2081 1971 2077 2183 1969 1857 1965 2078
8 2079 1973 2083 2184 1968 1860 1972 2080
8 2081 1971 1858 1970 2185 2082 1972 2080
8 2083 1975 2084 2186 1972 1863 1974 2082
8 2086 1976 1882 1987 2189 2085 1993 2095
8 2090 1987 2086 2190 1981 1875 1977 2087
8 2191 2094 1986 2088 2103 1998 1888 1997
8 2088 1986 2094 2191 1980 1877 1989 2089
8 1991 2091 2192 2097 1880 1982 2089 1989
8 2093 1988 2095 2193 1984 1876 1987 2090
8 1879 1983 2092 1990 1991 2091 2194 2098
8 1985 1878 1990 2092 2093 1988 2096 2195
8 2097 1996 1886 1989 2196 2099 1992 2094
8 2196 2099 1992 2094 2104 1999 1889 1998
8 1994 2096 1988 1883 2100 2197 2095 1993
8 2096 1994 1884 1990 2198 2101 1995 2098
8 1995 2098 2199 2102 1885 1991 2097 1996
8 2203 2104 1998 2103 2106 2001 1891 2000
8 2107 2002 2105 2204 2001 1892 1999 2104
8 2109 2004 2107 2206 2003 1894 2001 2106
8 2110 2005 2108 2207 2004 1895 2002 2107
8 2112 2007 2110 2209 2006 1897 2004 2109
8 2113 2008 2111 2210 2007 1898 2005 2110
8 2120 2011 2113 2212 2014 1901 2007 2112
8 2117 2009 2114 2213 2011 1899 2008 2113
8 2219 2116 2009 2117 2119 2010 1899 2011
8 2222 2118 2010 2119 2122 2012 1900 2013
8 2223 2119 2011 2120 2123 2013 1901 2014
8 2016 1902 2015 2125 2122 2012 2121 2225
8 2126 2016 2122 2226 2017 1903 2013 2123
8 2019 1905 2018 2128 2125 2015 2124 2228
8 2020 1906 2019 2129 2126 2016 2125 2229
8 2022 1908 2021 2131 2128 2018 2127 2231
8 2023 1909 2022 2132 2129 2019 2128 2232
8 2025 1911 2024 2134 2131 2021 2130 2234
8 2026 1912 2025 2135 2132 2022 2131 2235
8 1914 2028 2134 2024 2027 2136 2236 2133
8 2029 1915 2028 2137 2135 2025 2134 2237
8 2030 1918 2031 2138 2137 2028 2136 2238
8 2157 2050 2139 2240 2054 1941 2033 2140
8 2052 1940 2054 2161 2144 2035 2140 2242
8 2140 2033 2141 2243 2035 1923 2034 2143
8 2143 2034 2142 2246 2037 1924 2036 2146
8 2144 2035 2143 2247 2051 1939 2037 2147
8 2146 2036 2145 2249 2039 1925 2038 2149
8 2147 2037 2146 2250 2040 1926 2039 2150
8 2149 2038 2148 2251 2042 1927 2041 2151
8 2150 2039 2149 2252 2043 1928 2042 2152
8 2152 2042 2151 2253 2045 1931 2044 2153
8 2255 2154 2047 2155 2189 2085 1976 2086
8 2170 2062 1949 2063 2255 2154 2047 2155
8 2256 2155 2048 2156 2190 2086 1977 2087
8 2171 2063 1950 2064 2256 2155 2048 2156
8 2258 2159 2050 2157 2164 2056 1941 2054
8 2160 2053 1946 2058 2262 2163 2060 2167
8 2162 2055 1940 2052 2262 2163 2053 2160
8 2162 2055 2164 2263 2052 1940 2054 2161
8 2163 2057 1948 2060 2264 2165 2061 2168
8 2055 1943 2057 2163 2164 2056 2165 2264
8 2182 2076 2166 2268 2077 1964 2061 2168
8 2183 2077 2168 2269 2078 1965 2060 2167
8 2070 1963 2062 2170 2177 2075 2169 2271
8 2172 2070 1959 2065 2272 2170 2063 2171
8 2172 2070 2177 2273 2065 1959 2072 2173
8 2066 1958 2072 2173 2174 2071 2178 2274
8 2067 1957 2071 2174 2175 2069 2176 2275
8 2175 2069 2176 2275 2079 1973 2083 2184
8 2071 1961 2074 2178 2176 2073 2179 2276
8 2176 2073 2179 2276 2083 1975 2084 2186
8 2072 1962 2075 2177 2178 2074 2180 2277
8 2182 2076 1974 2082 2280 2181 2084 2186
8 2183 2077 1971 2081 2281 2182 2082 2185
8 2184 2083 2186 2282 2080 1972 2082 2185
8 2189 2085 1993 2095 2285 2188 2100 2197
8 2190 2086 1987 2090 2286 2189 2095 2193
8 2192 2097 1989 2089 2287 2196 2094 2191
8 2287 2196 2094 2191 2203 2104 1998 2103
8 2194 2098 1991 2091 2288 2199 2097 2192
8 2195 2096 2197 2289 2093 1988 2095 2193
8 2096 2195 2290 2198 1990 2092 2194 2098
8 2097 1996 2099 2196 2199 2102 2200 2291
8 2196 2099 1999 2104 2291 2200 2105 2204
8 2100 2197 2292 2201 1994 2096 2198 2101
8 1995 2098 2198 2101 2102 2199 2293 2202
8 2206 2107 2204 2296 2106 2001 2104 2203
8 2207 2108 2205 2297 2107 2002 2105 2204
8 2209 2110 2207 2299 2109 2004 2107 2206
8 2210 2111 2208 2300 2110 2005 2108 2207
8 2212 2113 2210 2302 2112 2007 2110 2209
8 2213 2114 2211 2303 2113 2008 2111 2210
8 2220 2117 2213 2305 2120 2011 2113 2212
8 2216 2115 2214 2306 2117 2009 2114 2213
8 2216 2115 2009 2117 2311 2217 2116 2219
8 2219 2116 2010 2119 2314 2218 2118 2222
8 2315 2219 2117 2220 2223 2119 2011 2120
8 2122 2012 2121 2225 2222 2118 2221 2317
8 2318 2222 2119 2223 2226 2122 2013 2123
8 2125 2015 2124 2228 2225 2121 2224 2320
8 2126 2016 2125 2229 2226 2122 2225 2321
8 2128 2018 2127 2231 2228 2124 2227 2323
8 2129 2019 2128 2232 2229 2125 2228 2324
8 2131 2021 2130 2234 2231 2127 2230 2326
8 2132 2022 2131 2235 2232 2128 2231 2327
8 2134 2024 2133 2236 2234 2130 2233 2328
8 2135 2025 2134 2237 2235 2131 2234 2329
8 2137 2028 2136 2238 2237 2134 2236 2330
8 2157 2050 2158 2259 2240 2139 2239 2332
8 2257 2157 2240 2334 2161 2054 2140 2242
8 2240 2139 2241 2335 2140 2033 2141 2243
8 2242 2140 2243 2337 2144 2035 2143 2247
8 2243 2141 2244 2338 2143 2034 2142 2246
8 2246 2142 2245 2341 2146 2036 2145 2249
8 2247 2143 2246 2342 2147 2037 2146 2250
8 2249 2145 2248 2343 2149 2038 2148 2251
8 2250 2146 2249 2344 2150 2039 2149 2252
8 2252 2149 2251 2345 2152 2042 2151 2253
8 2169 2271 2347 2254 2062 2170 2255 2154
8 2189 2085 2188 2285 2255 2154 2254 2347
8 2348 2255 2155 2256 2286 2189 2086 2190
8 2272 2170 2063 2171 2348 2255 2155 2256
8 2349 2258 2157 2257 2263 2164 2054 2161
8 2258 2159 2261 2351 2157 2050 2158 2259
8 2258 2159 2056 2164 2351 2261 2165 2264
8 2262 2163 2060 2167 2355 2264 2168 2269
8 2162 2055 2163 2262 2263 2164 2264 2355
8 2357 2266 2165 2264 2268 2166 2061 2168
8 2268 2166 2076 2182 2361 2267 2181 2280
8 2281 2182 2268 2362 2183 2077 2168 2269
8 2271 2169 2270 2364 2177 2075 2180 2277
8 2172 2070 2170 2272 2273 2177 2271 2365
8 2072 2173 2274 2178 2177 2273 2366 2277
8 2071 2174 2275 2176 2178 2274 2367 2276
8 2275 2176 2276 2367 2184 2083 2186 2282
8 2283 2187 2084 2186 2368 2278 2179 2276
8 2178 2074 2180 2277 2276 2179 2278 2368
8 2283 2187 2279 2370 2186 2084 2181 2280
8 2281 2182 2082 2185 2371 2280 2186 2282
8 2188 2285 2374 2284 2100 2197 2292 2201
8 2286 2189 2095 2193 2375 2285 2197 2289
8 2192 2097 2196 2287 2288 2199 2291 2376
8 2287 2196 2104 2203 2376 2291 2204 2296
8 2194 2098 2199 2288 2290 2198 2293 2377
8 2289 2197 2096 2195 2378 2292 2198 2290
8 2291 2200 2105 2204 2379 2294 2205 2297
8 2199 2102 2200 2291 2293 2202 2294 2379
8 2198 2101 2202 2293 2292 2201 2295 2380
8 2299 2207 2297 2383 2206 2107 2204 2296
8 2300 2208 2298 2384 2207 2108 2205 2297
8 2302 2210 2300 2386 2209 2110 2207 2299
8 2303 2211 2301 2387 2210 2111 2208 2300
8 2305 2213 2303 2389 2212 2113 2210 2302
8 2306 2214 2304 2390 2213 2114 2211 2303
8 2310 2216 2306 2392 2220 2117 2213 2305
8 2308 2215 2307 2393 2216 2115 2214 2306
8 2308 2215 2115 2216 2396 2309 2217 2311
8 2310 2216 2117 2220 2398 2311 2219 2315
8 2311 2217 2116 2219 2399 2312 2218 2314
8 2314 2218 2118 2222 2402 2313 2221 2317
8 2315 2219 2119 2223 2403 2314 2222 2318
8 2225 2121 2224 2320 2317 2221 2316 2405
8 2226 2122 2225 2321 2318 2222 2317 2406
8 2228 2124 2227 2323 2320 2224 2319 2408
8 2229 2125 2228 2324 2321 2225 2320 2409
8 2231 2127 2230 2326 2323 2227 2322 2411
8 2232 2128 2231 2327 2324 2228 2323 2412
8 2234 2130 2233 2328 2326 2230 2325 2413
8 2235 2131 2234 2329 2327 2231 2326 2414
8 2237 2134 2236 2330 2329 2234 2328 2415
8 2259 2158 2260 2352 2332 2239 2331 2417
8 2257 2157 2259 2350 2334 2240 2332 2419
8 2240 2139 2239 2332 2335 2241 2333 2420
8 2334 2240 2335 2422 2242 2140 2243 2337
8 2335 2241 2336 2423 2243 2141 2244 2338
8 2337 2243 2338 2425 2247 2143 2246 2342
8 2338 2244 2339 2426 2246 2142 2245 2341
8 2341 2245 2340 2428 2249 2145 2248 2343
8 2342 2246 2341 2429 2250 2146 2249 2344
8 2344 2249 2343 2430 2252 2149 2251 2345
8 2188 2285 2347 2254 2284 2374 2432 2346
8 2347 2254 2346 2432 2271 2169 2270 2364
8 2365 2271 2170 2272 2433 2347 2255 2348
8 2286 2189 2285 2375 2348 2255 2347 2433
8 2349 2258 2351 2435 2257 2157 2259 2350
8 2349 2258 2164 2263 2435 2351 2264 2355
8 2259 2158 2261 2351 2352 2260 2354 2437
8 2356 2265 2354 2437 2264 2165 2261 2351
8 2441 2357 2264 2355 2362 2268 2168 2269
8 2356 2265 2165 2264 2442 2358 2266 2357
8 2443 2359 2266 2357 2361 2267 2166 2268
8 2370 2279 2360 2446 2280 2181 2267 2361
8 2362 2268 2182 2281 2447 2361 2280 2371
8 2180 2277 2368 2278 2270 2364 2449 2363
8 2271 2365 2273 2177 2364 2450 2366 2277
8 2372 2283 2186 2282 2451 2368 2276 2367
8 2178 2274 2367 2276 2277 2366 2451 2368
8 2283 2187 2278 2368 2370 2279 2369 2452
8 2372 2283 2370 2453 2282 2186 2280 2371
8 2284 2374 2455 2373 2201 2292 2380 2295
8 2375 2285 2197 2289 2456 2374 2292 2378
8 2376 2291 2204 2296 2457 2379 2297 2383
8 2288 2199 2291 2376 2377 2293 2379 2457
8 2198 2290 2378 2292 2293 2377 2458 2380
8 2293 2202 2294 2379 2380 2295 2381 2459
8 2384 2298 2381 2459 2297 2205 2294 2379
8 2386 2300 2384 2463 2299 2207 2297 2383
8 2387 2301 2385 2464 2300 2208 2298 2384
8 2389 2303 2387 2466 2302 2210 2300 2386
8 2390 2304 2388 2467 2303 2211 2301 2387
8 2392 2306 2390 2469 2305 2213 2303 2389
8 2393 2307 2391 2470 2306 2214 2304 2390
8 2395 2308 2393 2472 2310 2216 2306 2392
8 2308 2215 2309 2396 2393 2307 2394 2473
8 2395 2308 2216 2310 2475 2396 2311 2398
8 2396 2309 2217 2311 2476 2397 2312 2399
8 2398 2311 2219 2315 2478 2399 2314 2403
8 2399 2312 2218 2314 2479 2400 2313 2402
8 2317 2221 2316 2405 2402 2313 2401 2482
8 2403 2314 2222 2318 2483 2402 2317 2406
8 2320 2224 2319 2408 2405 2316 2404 2485
8 2321 2225 2320 2409 2406 2317 2405 2486
8 2323 2227 2322 2411 2408 2319 2407 2488
8 2324 2228 2323 2412 2409 2320 2408 2489
8 2326 2230 2325 2413 2411 2322 2410 2490
8 2327 2231 2326 2414 2412 2323 2411 2491
8 2329 2234 2328 2415 2414 2326 2413 2492
8 2417 2331 2260 2352 2494 2416 2353 2438
8 2350 2259 2352 2436 2419 2332 2417 2496
8 2332 2239 2331 2417 2420 2333 2418 2497
8 2334 2240 2332 2419 2422 2335 2420 2499
8 2420 2333 2421 2500 2335 2241 2336 2423
8 2422 2335 2423 2502 2337 2243 2338 2425
8 2423 2336 2424 2503 2338 2244 2339 2426
8 2425 2338 2426 2505 2342 2246 2341 2429
8 2426 2339 2427 2506 2341 2245 2340 2428
8 2429 2341 2428 2507 2344 2249 2343 2430
8 2432 2346 2284 2374 2509 2431 2373 2455
8 2432 2346 2431 2509 2364 2270 2363 2449
8 2375 2285 2374 2456 2433 2347 2432 2510
8 2347 2433 2365 2271 2432 2510 2450 2364
8 2350 2259 2351 2435 2436 2352 2437 2514
8 2440 2356 2437 2514 2355 2264 2351 2435
8 2352 2260 2354 2437 2438 2353 2439 2516
8 2356 2265 2358 2442 2437 2354 2439 2516
8 2440 2356 2264 2355 2518 2442 2357 2441
8 2519 2443 2357 2441 2447 2361 2268 2362
8 2443 2359 2444 2520 2357 2266 2358 2442
8 2443 2359 2267 2361 2520 2444 2360 2446
8 2446 2360 2279 2370 2523 2445 2369 2452
8 2453 2370 2446 2524 2371 2280 2361 2447
8 2449 2363 2448 2525 2368 2278 2369 2452
8 2366 2277 2364 2450 2451 2368 2449 2526
8 2372 2283 2368 2451 2453 2370 2452 2527
8 2455 2373 2295 2380 2529 2454 2382 2460
8 2456 2374 2292 2378 2530 2455 2380 2458
8 2377 2293 2379 2457 2458 2380 2459 2531
8 2463 2384 2459 2531 2383 2297 2379 2457
8 2533 2461 2382 2460 2459 2381 2295 2380
8 2464 2385 2461 2533 2384 2298 2381 2459
8 2466 2387 2464 2537 2386 2300 2384 2463
8 2467 2388 2465 2538 2387 2301 2385 2464
8 2469 2390 2467 2540 2389 2303 2387 2466
8 2470 2391 2468 2541 2390 2304 2388 2467
8 2472 2393 2470 2543 2392 2306 2390 2469
8 2393 2307 2394 2473 2470 2391 2471 2544
8 2395 2308 2396 2475 2472 2393 2473 2546
8 2396 2309 2397 2476 2473 2394 2474 2547
8 2475 2396 2311 2398 2549 2476 2399 2478
8 2476 2397 2312 2399 2550 2477 2400 2479
8 2478 2399 2314 2403 2552 2479 2402 2483
8 2479 2400 2313 2402 2553 2480 2401 2482
8 2405 2316 2404 2485 2482 2401 2481 2556
8 2406 2317 2405 2486 2483 2402 2482 2557
8 2408 2319 2407 2488 2485 2404 2484 2559
8 2409 2320 2408 2489 2486 2405 2485 2560
8 2411 2322 2410 2490 2488 2407 2487 2561
8 2412 2323 2411 2491 2489 2408 2488 2562
8 2414 2326 2413 2492 2491 2411 2490 2563
8 2513 2434 2493 2565 2438 2353 2416 2494
8 2496 2417 2352 2436 2567 2494 2438 2515
8 2494 2416 2495 2568 2417 2331 2418 2497
8 2419 2332 2417 2496 2499 2420 2497 2570
8 2497 2418 2498 2571 2420 2333 2421 2500
8 2499 2420 2500 2573 2422 2335 2423 2502
8 2500 2421 2501 2574 2423 2336 2424 2503
8 2502 2423 2503 2576 2425 2338 2426 2505
8 2503 2424 2504 2577 2426 2339 2427 2506
8 2505 2426 2506 2578 2429 2341 2428 2507
8 2509 2431 2373 2455 2580 2508 2454 2529
8 2509 2431 2508 2580 2449 2363 2448 2525
8 2432 2510 2581 2509 2374 2456 2530 2455
8 2432 2510 2450 2364 2509 2581 2526 2449
8 2583 2511 2434 2513 2516 2439 2353 2438
8 2436 2352 2437 2514 2515 2438 2516 2588
8 2440 2356 2442 2518 2514 2437 2516 2588
8 2442 2358 2444 2520 2516 2439 2517 2589
8 2519 2443 2520 2591 2441 2357 2442 2518
8 2519 2443 2361 2447 2591 2520 2446 2524
8 2446 2360 2445 2523 2520 2444 2521 2592
8 2525 2448 2522 2593 2452 2369 2445 2523
8 2524 2446 2370 2453 2594 2523 2452 2527
8 2526 2449 2525 2595 2451 2368 2452 2527
8 2534 2462 2528 2597 2460 2382 2454 2529
8 2530 2455 2380 2458 2598 2529 2460 2532
8 2599 2533 2460 2532 2531 2459 2380 2458
8 2537 2464 2533 2599 2463 2384 2459 2531
8 2534 2462 2382 2460 2601 2535 2461 2533
8 2538 2465 2535 2601 2464 2385 2461 2533
8 2540 2467 2538 2604 2466 2387 2464 2537
8 2541 2468 2539 2605 2467 2388 2465 2538
8 2543 2470 2541 2607 2469 2390 2467 2540
8 2470 2391 2471 2544 2541 2468 2542 2608
8 2472 2393 2473 2546 2543 2470 2544 2610
8 2473 2394 2474 2547 2544 2471 2545 2611
8 2475 2396 2476 2549 2546 2473 2547 2613
8 2476 2397 2477 2550 2547 2474 2548 2614
8 2549 2476 2399 2478 2616 2550 2479 2552
8 2479 2400 2480 2553 2550 2477 2551 2617
8 2552 2479 2402 2483 2619 2553 2482 2557
8 2482 2401 2481 2556 2553 2480 2554 2620
8 2485 2404 2484 2559 2556 2481 2555 2623
8 2486 2405 2485 2560 2557 2482 2556 2624
8 2488 2407 2487 2561 2559 2484 2558 2625
8 2489 2408 2488 2562 2560 2485 2559 2626
8 2491 2411 2490 2563 2562 2488 2561 2627
8 2513 2434 2512 2585 2565 2493 2564 2630
8 2586 2513 2565 2632 2515 2438 2494 2567
8 2565 2493 2566 2633 2494 2416 2495 2568
8 2567 2494 2568 2635 2496 2417 2497 2570
8 2568 2495 2569 2636 2497 2418 2498 2571
8 2570 2497 2571 2638 2499 2420 2500 2573
8 2571 2498 2572 2639 2500 2421 2501 2574
8 2573 2500 2574 2641 2502 2423 2503 2576
8 2574 2501 2575 2642 2503 2424 2504 2577
8 2576 2503 2577 2643 2505 2426 2506 2578
8 2597 2528 2579 2645 2529 2454 2508 2580
8 2580 2508 2579 2645 2525 2448 2522 2593
8 2581 2509 2455 2530 2646 2580 2529 2598
8 2581 2509 2580 2646 2526 2449 2525 2595
8 2583 2511 2582 2648 2513 2434 2512 2585
8 2583 2511 2439 2516 2648 2582 2517 2589
8 2649 2583 2513 2586 2588 2516 2438 2515
8 2589 2517 2444 2520 2653 2587 2521 2592
8 2518 2442 2520 2591 2588 2516 2589 2654
8 2593 2522 2590 2655 2523 2445 2521 2592
8 2524 2446 2523 2594 2591 2520 2592 2656
8 2595 2525 2593 2657 2527 2452 2523 2594
8 2602 2536 2596 2659 2534 2462 2528 2597
8 2600 2534 2597 2660 2532 2460 2529 2598
8 2600 2534 2460 2532 2661 2601 2533 2599
8 2604 2538 2601 2661 2537 2464 2533 2599
8 2602 2536 2462 2534 2663 2603 2535 2601
8 2601 2535 2465 2538 2663 2603 2539 2605
8 2607 2541 2605 2665 2540 2467 2538 2604
8 2608 2542 2606 2666 2541 2468 2539 2605
8 2543 2470 2544 2610 2607 2541 2608 2668
8 2544 2471 2545 2611 2608 2542 2609 2669
8 2546 2473 2547 2613 2610 2544 2611 2671
8 2547 2474 2548 2614 2611 2545 2612 2672
8 2549 2476 2550 2616 2613 2547 2614 2674
8 2550 2477 2551 2617 2614 2548 2615 2675
8 2552 2479 2553 2619 2616 2550 2617 2677
8 2553 2480 2554 2620 2617 2551 2618 2678
8 2557 2482 2556 2624 2619 2553 2620 2680
8 2556 2481 2555 2623 2620 2554 2621 2681
8 2559 2484 2558 2625 2623 2555 2622 2683
8 2560 2485 2559 2626 2624 2556 2623 2684
8 2562 2488 2561 2627 2626 2559 2625 2685
8 2690 2629 2564 2630 2650 2584 2512 2585
8 2586 2513 2585 2651 2632 2565 2630 2691
8 2630 2564 2631 2692 2565 2493 2566 2633
8 2632 2565 2633 2694 2567 2494 2568 2635
8 2633 2566 2634 2695 2568 2495 2569 2636
8 2635 2568 2636 2697 2570 2497 2571 2638
8 2636 2569 2637 2698 2571 2498 2572 2639
8 2638 2571 2639 2700 2573 2500 2574 2641
8 2639 2572 2640 2701 2574 2501 2575 2642
8 2641 2574 2642 2702 2576 2503 2577 2643
8 2597 2528 2596 2659 2645 2579 2644 2704
8 2645 2579 2644 2704 2593 2522 2590 2655
8 2660 2597 2645 2705 2598 2529 2580 2646
8 2646 2580 2645 2705 2595 2525 2593 2657
8 2650 2584 2512 2585 2707 2647 2582 2648
8 2648 2582 2517 2589 2707 2647 2587 2653
8 2649 2583 2648 2708 2586 2513 2585 2651
8 2649 2583 2516 2588 2708 2648 2589 2654
8 2655 2590 2652 2710 2592 2521 2587 2653
8 2654 2589 2520 2591 2711 2653 2592 2656
8 2657 2593 2655 2712 2594 2523 2592 2656
8 2602 2536 2603 2663 2659 2596 2658 2714
8 2662 2602 2659 2715 2600 2534 2597 2660
8 2662 2602 2534 2600 2717 2663 2601 2661
8 2661 2601 2538 2604 2717 2663 2605 2665
8 2666 2606 2664 2718 2605 2539 2603 2663
8 2668 2608 2666 2720 2607 2541 2605 2665
8 2608 2542 2609 2669 2666 2606 2667 2721
8 2610 2544 2611 2671 2668 2608 2669 2723
8 2611 2545 2612 2672 2669 2609 2670 2724
8 2613 2547 2614 2674 2671 2611 2672 2726
8 2614 2548 2615 2675 2672 2612 2673 2727
8 2616 2550 2617 2677 2674 2614 2675 2729
8 2617 2551 2618 2678 2675 2615 2676 2730
8 2619 2553 2620 2680 2677 2617 2678 2732
8 2620 2554 2621 2681 2678 2618 2679 2733
8 2624 2556 2623 2684 2680 2620 2681 2735
8 2681 2621 2555 2623 2736 2682 2622 2683
8 2626 2559 2625 2685 2684 2623 2683 2737
8 2688 2628 2584 2650 2740 2686 2647 2707
8 2688 2628 2687 2742 2650 2584 2629 2690
8 2690 2629 2689 2745 2630 2564 2631 2692
8 2746 2690 2630 2691 2709 2650 2585 2651
8 2691 2630 2692 2747 2632 2565 2633 2694
8 2692 2631 2693 2748 2633 2566 2634 2695
8 2694 2633 2695 2750 2635 2568 2636 2697
8 2695 2634 2696 2751 2636 2569 2637 2698
8 2697 2636 2698 2753 2638 2571 2639 2700
8 2698 2637 2699 2754 2639 2572 2640 2701
8 2700 2639 2701 2755 2641 2574 2642 2702
8 2659 2596 2658 2714 2704 2644 2703 2757
8 2704 2644 2703 2757 2655 2590 2652 2710
8 2660 2597 2659 2715 2705 2645 2704 2758
8 2705 2645 2704 2758 2657 2593 2655 2712
8 2759 2706 2647 2707 2710 2652 2587 2653
8 2709 2650 2585 2651 2760 2707 2648 2708
8 2708 2648 2589 2654 2760 2707 2653 2711
8 2712 2655 2710 2761 2656 2592 2653 2711
8 2763 2713 2658 2714 2718 2664 2603 2663
8 2662 2602 2663 2717 2715 2659 2714 2764
8 2720 2666 2718 2767 2665 2605 2663 2717
8 2768 2719 2664 2718 2721 2667 2606 2666
8 2668 2608 2669 2723 2720 2666 2721 2770
8 2669 2609 2670 2724 2721 2667 2722 2771
8 2671 2611 2672 2726 2723 2669 2724 2773
8 2672 2612 2673 2727 2724 2670 2725 2774
8 2674 2614 2675 2729 2726 2672 2727 2776
8 2675 2615 2676 2730 2727 2673 2728 2777
8 2677 2617 2678 2732 2729 2675 2730 2779
8 2678 2618 2679 2733 2730 2676 2731 2780
8 2680 2620 2681 2735 2732 2678 2733 2782
8 2733 2679 2621 2681 2783 2734 2682 2736
8 2735 2681 2623 2684 2784 2736 2683 2737
8 2740 2686 2647 2707 2787 2738 2706 2759
8 2688 2628 2686 2740 2742 2687 2739 2789
8 2743 2688 2650 2709 2790 2740 2707 2760
8 2742 2687 2741 2792 2690 2629 2689 2745
8 2743 2688 2742 2793 2709 2650 2690 2746
8 2745 2689 2744 2795 2692 2631 2693 2748
8 2746 2690 2745 2796 2691 2630 2692 2747
8 2747 2692 2748 2797 2694 2633 2695 2750
8 2748 2693 2749 2798 2695 2634 2696 2751
8 2750 2695 2751 2800 2697 2636 2698 2753
8 2751 2696 2752 2801 2698 2637 2699 2754
8 2753 2698 2754 2802 2700 2639 2701 2755
8 2763 2713 2756 2804 2714 2658 2703 2757
8 2759 2706 2652 2710 2804 2756 2703 2757
8 2715 2659 2714 2764 2758 2704 2757 2805
8 2758 2704 2757 2805 2712 2655 2710 2761
8 2806 2759 2707 2760 2761 2710 2653 2711
8 2765 2716 2762 2808 2718 2664 2713 2763
8 2809 2763 2714 2764 2767 2718 2663 2717
8 2765 2716 2664 2718 2811 2766 2719 2768
8 2813 2768 2718 2767 2770 2721 2666 2720
8 2814 2769 2719 2768 2771 2722 2667 2721
8 2723 2669 2724 2773 2770 2721 2771 2816
8 2724 2670 2725 2774 2771 2722 2772 2817
8 2726 2672 2727 2776 2773 2724 2774 2819
8 2727 2673 2728 2777 2774 2725 2775 2820
8 2729 2675 2730 2779 2776 2727 2777 2822
8 2730 2676 2731 2780 2777 2728 2778 2823
8 2732 2678 2733 2782 2779 2730 2780 2825
8 2780 2731 2679 2733 2826 2781 2734 2783
8 2782 2733 2681 2735 2827 2783 2736 2784
8 2830 2785 2738 2787 2804 2756 2706 2759
8 2789 2739 2686 2740 2832 2786 2738 2787
8 2790 2740 2707 2760 2833 2787 2759 2806
8 2742 2687 2739 2789 2792 2741 2788 2835
8 2743 2688 2740 2790 2793 2742 2789 2836
8 2792 2741 2791 2838 2745 2689 2744 2795
8 2793 2742 2792 2839 2746 2690 2745 2796
8 2795 2744 2794 2841 2748 2693 2749 2798
8 2796 2745 2795 2842 2747 2692 2748 2797
8 2797 2748 2798 2843 2750 2695 2751 2800
8 2798 2749 2799 2844 2751 2696 2752 2801
8 2800 2751 2801 2845 2753 2698 2754 2802
8 2808 2762 2803 2847 2763 2713 2756 2804
8 2809 2763 2804 2848 2764 2714 2757 2805
8 2806 2759 2710 2761 2848 2804 2757 2805
8 2765 2716 2766 2811 2808 2762 2807 2850
8 2810 2765 2808 2851 2767 2718 2763 2809
8 2810 2765 2718 2767 2852 2811 2768 2813
8 2811 2766 2719 2768 2853 2812 2769 2814
8 2855 2814 2768 2813 2816 2771 2721 2770
8 2856 2815 2769 2814 2817 2772 2722 2771
8 2773 2724 2774 2819 2816 2771 2817 2858
8 2774 2725 2775 2820 2817 2772 2818 2859
8 2776 2727 2777 2822 2819 2774 2820 2861
8 2777 2728 2778 2823 2820 2775 2821 2862
8 2779 2730 2780 2825 2822 2777 2823 2864
8 2823 2778 2731 2780 2865 2824 2781 2826
8 2825 2780 2733 2782 2866 2826 2783 2827
8 2869 2828 2785 2830 2847 2803 2756 2804
8 2871 2829 2786 2832 2830 2785 2738 2787
8 2872 2830 2787 2833 2848 2804 2759 2806
8 2789 2739 2786 2832 2835 2788 2831 2874
8 2836 2789 2740 2790 2875 2832 2787 2833
8 2792 2741 2788 2835 2838 2791 2834 2877
8 2793 2742 2789 2836 2839 2792 2835 2878
8 2838 2791 2837 2880 2795 2744 2794 2841
8 2839 2792 2838 2881 2796 2745 2795 2842
8 2841 2794 2840 2882 2798 2749 2799 2844
8 2842 2795 2841 2883 2797 2748 2798 2843
8 2843 2798 2844 2884 2800 2751 2801 2845
8 2886 2846 2803 2847 2850 2807 2762 2808
8 2851 2808 2847 2887 2809 2763 2804 2848
8 2850 2807 2766 2811 2889 2849 2812 2853
8 2810 2765 2811 2852 2851 2808 2850 2890
8 2852 2811 2768 2813 2891 2853 2814 2855
8 2853 2812 2769 2814 2892 2854 2815 2856
8 2894 2856 2814 2855 2858 2817 2771 2816
8 2817 2772 2818 2859 2856 2815 2857 2895
8 2819 2774 2820 2861 2858 2817 2859 2897
8 2820 2775 2821 2862 2859 2818 2860 2898
8 2822 2777 2823 2864 2861 2820 2862 2900
8 2823 2778 2824 2865 2862 2821 2863 2901
8 2864 2823 2780 2825 2902 2865 2826 2866
8 2904 2867 2828 2869 2886 2846 2803 2847
8 2869 2828 2868 2906 2830 2785 2829 2871
8 2907 2869 2830 2872 2887 2847 2804 2848
8 2871 2829 2870 2909 2832 2786 2831 2874
8 2910 2871 2832 2875 2872 2830 2787 2833
8 2835 2788 2831 2874 2877 2834 2873 2912
8 2836 2789 2832 2875 2878 2835 2874 2913
8 2877 2834 2876 2915 2838 2791 2837 2880
8 2839 2792 2835 2878 2881 2838 2877 2916
8 2880 2837 2879 2917 2841 2794 2840 2882
8 2881 2838 2880 2918 2842 2795 2841 2883
8 2883 2841 2882 2919 2843 2798 2844 2884
8 2921 2885 2846 2886 2889 2849 2807 2850
8 2922 2886 2847 2887 2890 2850 2808 2851
8 2889 2849 2812 2853 2924 2888 2854 2892
8 2890 2850 2811 2852 2925 2889 2853 2891
8 2891 2853 2814 2855 2926 2892 2856 2894
8 2892 2854 2815 2856 2927 2893 2857 2895
8 2858 2817 2859 2897 2894 2856 2895 2929
8 2859 2818 2860 2898 2895 2857 2896 2930
8 2861 2820 2862 2900 2897 2859 2898 2932
8 2862 2821 2863 2901 2898 2860 2899 2933
8 2864 2823 2865 2902 2900 2862 2901 2934
8 2904 2867 2846 2886 2936 2903 2885 2921
8 2904 2867 2903 2936 2869 2828 2868 2906
8 2937 2904 2869 2907 2922 2886 2847 2887
8 2906 2868 2905 2939 2871 2829 2870 2909
8 2907 2869 2906 2940 2872 2830 2871 2910
8 2909 2870 2908 2942 2874 2831 2873 2912
8 2910 2871 2909 2943 2875 2832 2874 2913
8 2912 2873 2911 2945 2877 2834 2876 2915
8 2878 2835 2874 2913 2916 2877 2912 2946
8 2915 2876 2914 2947 2880 2837 2879 2917
8 2916 2877 2915 2948 2881 2838 2880 2918
8 2918 2880 2917 2949 2883 2841 2882 2919
8 2921 2885 2849 2889 2951 2920 2888 2924
8 2952 2921 2886 2922 2925 2889 2850 2890
8 2924 2888 2854 2892 2954 2923 2893 2927
8 2925 2889 2853 2891 2955 2924 2892 2926
8 2926 2892 2856 2894 2956 2927 2895 2929
8 2895 2857 2896 2930 2927 2893 2928 2957
8 2897 2859 2898 2932 2929 2895 2930 2959
8 2898 2860 2899 2933 2930 2896 2931 2960
8 2900 2862 2901 2934 2932 2898 2933 2961
8 2936 2903 2885 2921 2963 2935 2920 2951
8 2936 2903 2935 2963 2906 2868 2905 2939
8 2937 2904 2886 2922 2964 2936 2921 2952
8 2937 2904 2936 2964 2907 2869 2906 2940
8 2939 2905 2938 2966 2909 2870 2908 2942
8 2940 2906 2939 2967 2910 2871 2909 2943
8 2942 2908 2941 2969 2912 2873 2911 2945
8 2943 2909 2942 2970 2913 2874 2912 2946
8 2945 2911 2944 2971 2915 2876 2914 2947
8 2946 2912 2945 2972 2916 2877 2915 2948
8 2948 2915 2947 2973 2918 2880 2917 2949
8 2951 2920 2888 2924 2975 2950 2923 2954
8 2952 2921 2889 2925 2976 2951 2924 2955
8 2927 2893 2928 2957 2954 2923 2953 2978
8 2955 2924 2892 2926 2979 2954 2927 2956
8 2929 2895 2930 2959 2956 2927 2957 2980
8 2930 2896 2931 2960 2957 2928 2958 2981
8 2932 2898 2933 2961 2959 2930 2960 2982
8 2951 2920 2950 2975 2963 2935 2962 2984
8 2963 2935 2962 2984 2939 2905 2938 2966
8 2964 2936 2921 2952 2985 2963 2951 2976
8 2964 2936 2963 2985 2940 2906 2939 2967
8 2966 2938 2965 2987 2942 2908 2941 2969
8 2967 2939 2966 2988 2943 2909 2942 2970
8 2969 2941 2968 2989 2945 2911 2944 2971
8 2970 2942 2969 2990 2946 2912 2945 2972
8 2972 2945 2971 2991 2948 2915 2947 2973
8 2954 2923 2953 2978 2975 2950 2974 2993
8 2976 2951 2924 2955 2994 2975 2954 2979
8 2957 2928 2958 2981 2978 2953 2977 2995
8 2956 2927 2957 2980 2979 2954 2978 2996
8 2959 2930 2960 2982 2980 2957 2981 2997
8 2984 2962 2983 2999 2966 2938 2965 2987
8 2975 2950 2974 2993 2984 2962 2983 2999
8 2976 2951 2975 2994 2985 2963 2984 3000
8 2985 2963 2984 3000 2967 2939 2966 2988
8 2987 2965 2986 3001 2969 2941 2968 2989
8 2988 2966 2987 3002 2970 2942 2969 2990
8 2990 2969 2989 3003 2972 2945 2971 2991
8 2978 2953 2977 2995 2993 2974 2992 3004
8 2979 2954 2978 2996 2994 2975 2993 3005
8 2980 2957 2981 2997 2996 2978 2995 3006
8 2974 2993 2999 2983 2992 3004 3007 2998
8 2983 2999 2987 2965 2998 3007 3001 2986
8 3000 2984 2999 3008 2988 2966 2987 3002
8 2994 2975 2993 3005 3000 2984 2999 3008
8 3002 2987 3001 3009 2990 2969 2989 3003
8 2996 2978 2995 3006 3005 2993 3004 3010
8 3005 2993 3004 3010 3008 2999 3007 3011
8 3008 2999 3007 3011 3002 2987 3001 3009

CELL_TYPES 1910
12
12
12
12
12
12
12
12
12
12
12
12
12
12
12
12
12
12
12
12
12
12
12
12
12
12
12
12
12
12
12
12
12
12
12
12
12
12
12
12
12
12
12
12
12
12
12
12
12
12
12
12
12
12
12
12
12
12
12
12
12
12
12
12
12
12
12
12
12
12
12
12
12
12
12
12
12
12
12
12
12
12
12
12
12
12
12
12
12
12
12
12
12
12
12
12
12
12
12
12
12
12
12
12
12
12
12
12
12
12
12
12
12
12
12
12
12
12
12
12
12
12
12
12
12
12
12
12
12
12
12
12
12
12
12
12
12
12
12
12
12
12
12
12
12
12
12
12
12
12
12
12
12
12
12
12
12
12
12
12
12
12
12
12
12
12
12
12
12
12
12
12
12
12
12
12
12
12
12
12
12
12
12
12
12
12
12
12
12
12
12
12
12
12
12
12
12
12
12
12
12
12
12
12
12
12
12
12
12
12
12
12
12
12
12
12
12
12
12
12
12
12
12
12
12
12
12
12
12
12
12
12
12
12
12
12
12
12
12
12
12
12
12
12
12
12
12
12
12
12
12
12
12
12
12
12
12
12
12
12
12
12
12
12
12
12
12
12
12
12
12
12
12
12
12
12
12
12
12
12
12
12
12
12
12
12
12
12
12
12
12
12
12
12
12
12
12
12
12
12
12
12
12
12
12
12
12
12
12
12
12
12
12
12
12
12
12
12
12
12
12
12
12
12
12
12
12
12
12
12
12
12
12
12
12
12
12
12
12
12
12
12
12
12
12
12
12
12
12
12
12
12
12
12
12
12
12
12
12
12
12
12
12
12
12
12
12
12
12
12
12
12
12
12
12
12
12
12
12
12
12
12
12
12
12
12
12
12
12
12
12
12
12
12
12
12
12
12
12
12
12
12
12
12
12
12
12
12
12
12
12
12
12
12
12
12
12
12
12
12
12
12
12
12
12
12
12
12
12
12
12
12
12
12
12
12
12
12
12
12
12
12
12
12
12
12
12
12
12
12
12
12
12
12
12
12
12
12
12
12
12
12
12
12
12
12
12
12
12
12
12
12
12
12
12
12
12
12
12
12
12
12
12
12
12
12
12
12
12
12
12
12
12
12
12
12
12
12
12
12
12
12
12
12
12
12
12
12
12
12
12
12
12
12
12
12
12
12
12
12
12
12
12
12
12
12
12
12
12
12
12
12
12
12
12
12
12
12
12
12
12
12
12
12
12
12
12
12
12
12
12
12
12
12
12
12
12
12
12
12
12
12
12
12
12
12
12
12
12
12
12
12
12
12
12
12
12
12
12
12
12
12
12
12
12
12
12
12
12
12
12
12
12
12
12
12
12
12
12
12
12
12
12
12
12
12
12
12
12
12
12
12
12
12
12
12
12
12
12
12
12
12
12
12
12
12
12
12
12
12
12
12
12
12
12
12
12
12
12
12
12
12
12
12
12
12
12
12
12
12
12
12
12
12
12
12
12
12
12
12
12
12
12
12
12
12
12
12
12
12
12
12
12
12
12
12
12
12
12
12
12
12
12
12
12
12
12
12
12
12
12
12
12
12
12
12
12
12
12
12
12
12
12
12
12
12
12
12
12
12
12
12
12
12
12
12
12
12
12
12
12
12
12
12
12
12
12
12
12
12
12
12
12
12
12
12
12
12
12
12
12
12
12
12
12
12
12
12
12
12
12
12
12
12
12
12
12
12
12
12
12
12
12
12
12
12
12
12
12
12
12
12
12
12
12
12
12
12
12
12
12
12
12
12
12
12
12
12
12
12
12
12
12
12
12
12
12
12
12
12
12
12
12
12
12
12
12
12
12
12
12
12
12
12
12
12
12
12
12
12
12
12
12
12
12
12
12
12
12
12
12
12
12
12
12
12
12
12
12
12
12
12
12
12
12
12
12
12
12
12
12
12
12
12
12
12
12
12
12
12
12
12
12
12
12
12
12
12
12
12
12
12
12
12
12
12
12
12
12
12
12
12
12
12
12
12
12
12
12
12
12
12
12
12
12
12
12
12
12
12
12
12
12
12
12
12
12
12
12
12
12
12
12
12
12
12
12
12
12
12
12
12
12
12
12
12
12
12
12
12
12
12
12
12
12
12
12
12
12
12
12
12
12
12
12
12
12
12
12
12
12
12
12
12
12
12
12
12
12
12
12
12
12
12
12
12
12
12
12
12
12
12
12
12
12
12
12
12
12
12
12
12
12
12
12
12
12
12
12
12
12
12
12
12
12
12
12
12
12
12
12
12
12
12
12
12
12
12
12
12
12
12
12
12
12
12
12
12
12
12
12
12
12
12
12
12
12
12
12
12
12
12
12
12
12
12
12
12
12
12
12
12
12
12
12
12
12
12
12
12
12
12
12
12
12
12
12
12
12
12
12
12
12
12
12
12
12
12
12
12
12
12
12
12
12
12
12
12
12
12
12
12
12
12
12
12
12
12
12
12
12
12
12
12
12
12
12
12
12
12
12
12
12
12
12
12
12
12
12
12
12
12
12
12
12
12
12
12
12
12
12
12
12
12
12
12
12
12
12
12
12
12
12
12
12
12
12
12
12
12
12
12
12
12
12
12
12
12
12
12
12
12
12
12
12
12
12
12
12
12
12
12
12
12
12
12
12
12
12
12
12
12
12
12
12
12
12
12
12
12
12
12
12
12
12
12
12
12
12
12
12
12
12
12
12
12
12
12
12
12
12
12
12
12
12
12
12
12
12
12
12
12
12
12
12
12
12
12
12
12
12
12
12
12
12
12
12
12
12
12
12
12
12
12
12
12
12
12
12
12
12
12
12
12
12
12
12
12
12
12
12
12
12
12
12
12
12
12
12
12
12
12
12
12
12
12
12
12
12
12
12
12
12
12
12
12
12
12
12
12
12
12
12
12
12
12
12
12
12
12
12
12
12
12
12
12
12
12
12
12
12
12
12
12
12
12
12
12
12
12
12
12
12
12
12
12
12
12
12
12
12
12
12
12
12
12
12
12
12
12
12
12
12
12
12
12
12
12
12
12
12
12
12
12
12
12
12
12
12
12
12
12
12
12
12
12
12
12
12
12
12
12
12
12
12
12
12
12
12
12
12
12
12
12
12
12
12
12
12
12
12
12
12
12
12
12
12
12
12
12
12
12
12
12
12
12
12
12
12
12
12
12
12
12
12
12
12
12
12
12
12
12
12
12
12
12
12
12
12
12
12
12
12
12
12
12
12
12
12
12
12
12
12
12
12
12
12
12
12
12
12
12
12
12
12
12
12
12
12
12
12
12
12
12
12
12
12
12
12
12
12
12
12
12
12
12
12
12
12
12
12
12
12
12
12
12
12
12
12
12
12
12
12
12
12
12
12
12
12
12
12
12
12
12
12
12
12
12
12
12
12
12
12
12
12
12
12
12
12
12
12
12
12
12
12
12
12
12
12
12
12
12
12
12
12
12
12
12
12
12
12
12
12
12
12
12
12
12
12
12
12
12
12
12
12
12
12
12
12
12
12
12
12
12
12
12
12
12
12
12
12
12
12
12
12
12
12
12
12
12
12
12
12
12
12
12
12
12
12
12
12
12
12
12
12
12
12
12
12
12
12
12
12
12
12
12
12
12
12
12
12
12
12
12
12
12
12
12
12
12
12
12
12
12
12
12
12
12
12
12
12
12
12
12
12
12
12
12
12
12
12
12
12
12
12
12
12
12
12
12
12
12
12
12
12
12
12
12
12
12
12
12
12
12
12
12
12
12
12
12
12
12
12
12
12
12
12
12
12
12
12
12
12
12
12
12
12
12
12
12
12
12
12
12
12
12
12
12
12
12
12
12
12
12
12
12
12
12
12
12
12
12
12
12
12
12
12
12
12
12
12
12
12
12
12
12
12
12
12
12
12
12
12
12
12
12
12
12
12
12
12
12
12
12
12
12
12
12
12
12
12
12
12
12
12
12
12
12
12
12
12
12
12
12
12
12
12
12
12
12
12
12
12
12
12
12
12
12
12
12
12
12
12
12
12
12
12
12
12
12
12
12
12
12
12
12
12
12
12
12
12
12
12
12
12
12
12
12
12
12
12
12
12
12
12
12
12
12
12
12
12
12
12
12
12
12
12
12
12
12
12
12
12
12
12
12
12
12
12
12
12
12
12
12
12
12
12
12
12
12
12
12
12
12
12
12
12
12
12
12
12
12
12
12
12
12
12
12
12
12
12
12
12
12
12
12
12
12
12
12
12
12
12
12
12
12
12
12
12
12
12
12
12
12
12
12
12
12
12
12
12
12
12
12
12
12
12
12
12
12
12
12
12
12
12
12
12
12
12
12

POINT_DATA 3012
SCALARS Jp_lamdaP float 4
LOOKUP_TABLE default
0.999877 1 1 0.999877
1 1 1 1
0.999881 1 1 0.999881
0.999837 1 1 0.999837
0.999875 1 1 0.999875
0.999873 1 1 0.999873
0.999389 1 1 0.999389
1 1 1 1
1 1 1 1
1 1 1 1
0.999948 1 1 0.999948
0.999553 1 1 0.999553
0.999798 1 1 0.999798
0.999828 1 1 0.999828
0.999881 1 1 0.999881
0.999851 1 1 0.999851
0.999878 1 1 0.999878
0.999883 1 1 0.999883
0.999392 1 1 0.999392
1 1 1 1
0.999818 1 1 0.999818
0.999859 1 1 0.999859
0.999261 1 1 0.999261
0.999357 1 1 0.999357
0.999895 1 1 0.999895
0.999425 1 1 0.999425
0.998615 1 1 0.998614
1 1 1 1
0.999927 1 1 0.999927
0.999941 1 1 0.999941
1 1 1 1
0.999562 1 1 0.999562
0.99985 1 1 0.99985
0.999872 1 1 0.999872
0.999466 1 1 0.999466
1 1 1 1
0.999556 1 1 0.999556
0.999649 1 1 0.999649
0.99867 1 1 0.99867
1 1 1 1
1 1 1 1
0.999912 1 1 0.999912
1 1 1 1
0.999819 1 1 0.999819
0.999192 1 1 0.999192
1 1 1 1
0.999375 1 1 0.999375
0.999862 1 1 0.999862
0.999888 1 1 0.999888
0.99988 1 1 0.99988
0.999397 1 1 0.999397
0.999897 1 1 0.999897
0.999832 1 1 0.999832
0.999904 1 1 0.999904
0.999871 1 1 0.999871
0.999262 1 1 0.999262
0.999429 1 1 0.999429
0.99936 1 1 0.99936
0.998613 1.00001 1 0.9986
1 1 1 1
0.999805 1 1 0.999805
0.999344 1 1 0.999344
0.999226 1 1 0.999226
0.99931 1 1 0.99931
0.999109 1.00079 1 0.998317
0.99851 1.00006 1 0.998453
0.999946 1 1 0.999946
0.99954 1 1 0.99954
0.99872 1 1 0.99872
1.00214 1.00424 1 0.997911
1 1 1 1
1 1 1 1
1 1 1 1
0.99957 1 1 0.99957
1 1 1 1
1 1 1 1
0.999397 1 1 0.999397
0.99999 1 1 0.99999
0.999504 1 1 0.999504
0.999693 1 1 0.999693
0.998667 1 1 0.998667
1 1 1 1
0.999965 1 1 0.999965
0.999339 1 1 0.999339
0.999434 1 1 0.999434
0.998998 1.00074 1 0.998254
0.999816 1 1 0.999816
0.998568 1 1 0.998568
0.998804 1 1 0.998804
0.998238 1.00009 1 0.998153
1 1 1 1
1 1 1 1
1 1 1 1
1 1 1 1
1 1 1 1
0.999906 1 1 0.999906
0.999264 1 1 0.999264
0.999917 1 1 0.999917
0.999335 1 1 0.999335
1 1 1 1
0.999175 1 1 0.999175
0.999346 1 1 0.999346
0.999045 1.0011 1 0.997951
0.999409 1 1 0.999409
0.999988 1.00195 1 0.998043
0.999815 1 1 0.999815
0.999844 1 1 0.999844
0.999913 1 1 0.999913
0.99988 1 1 0.99988
0.999264 1 1 0.999264
0.999365 1 1 0.999365
0.999435 1 1 0.999435
0.998613 1.00003 1 0.998585
1 1 1 1
0.999819 1 1 0.999819
0.999201 1 1 0.999201
0.999226 1 1 0.999226
0.999973 1 1 0.999973
0.999589 1 1 0.999589
0.999312 1 1 0.999312
0.999088 1.00081 1 0.998278
0.998702 1 1 0.998702
0.998571 1.00009 1 0.99848
1.00256 1.00465 1 0.997915
0.999197 1 1 0.999197
0.999202 1 1 0.999202
0.998788 1.00068 1 0.998106
0.999153 1.00095 1 0.998203
0.998836 1.0005 1 0.998335
1.00783 1.01016 1 0.997695
1 1 1 1
1.00364 1.00582 1 0.997839
0.999754 1 1 0.999754
0.998766 1 1 0.998766
1.00118 1.0032 1 0.997983
1.01107 1.01343 1 0.997668
0.999898 1 1 0.999898
0.999344 1 1.00008 0.999263
1 1 1 1
1 1 1 1
0.999403 1 1 0.999403
1 1 1 1
0.999697 1 1 0.999697
0.999509 1 1 0.999509
0.998664 1 1 0.998664
1 1 1 1
0.999975 1 1 0.999975
0.99939 1 1 0.99939
0.999482 1 1 0.999482
0.998813 1.00056 1 0.998257
0.999832 1 1 0.999832
0.998571 1 1 0.998571
0.998803 1 1 0.998803
0.998397 1.00026 1 0.998137
0.999907 1 1 0.999907
0.999994 1 1 0.999994
0.999436 1 1 0.999436
0.999561 1.00142 1 0.998142
0.998598 1.00018 1 0.998415
1.00562 1.00793 1 0.997707
0.999006 1 1 0.999006
0.999997 1.00196 1 0.998039
0.998917 1.0001 1.00057 0.998247
0.99978 1.0018 1 0.997979
1 1 1 1
1 1 1 1
1 1 1 1
0.99994 1 1 0.99994
1 1 1 1
1 1 1 1
1 1 1 1
0.999293 1 1 0.999293
0.999216 1 1 0.999216
1 1 1 1
1 1 1 1
0.999177 1 1 0.999177
0.999306 1 1 0.999306
0.999225 1.00128 1 0.997952
0.999321 1 1 0.999321
0.999965 1.00193 1 0.998043
0.999167 1 1 0.999167
0.998531 1.00063 1 0.9979
0.999619 1.00162 1 0.998007
1.01108 1.01363 1 0.997486
0.999905 1.00183 1 0.998079
1.01111 1.01358 1 0.997564
1 1 1 1
0.999833 1 1 0.999833
0.999046 1 1 0.999046
0.999225 1 1 0.999225
1 1 1 1
0.99964 1 1 0.99964
0.999316 1 1 0.999316
0.999067 1.00083 1 0.99824
0.99863 1.00012 1 0.998508
0.998683 1 1 0.998683
1.00298 1.00507 1 0.997919
0.999194 1 1 0.999194
0.999201 1 1 0.999201
0.998664 1.00065 1 0.998019
0.99919 1.00096 1 0.998231
1 1 1 1
0.999747 1 1 0.999747
0.998813 1 1 0.998813
0.998822 1.00049 1 0.998335
1.00777 1.01014 1 0.997657
1.00124 1.00327 1 0.997972
1.0041 1.00625 1 0.997867
1.01061 1.01296 1 0.997674
0.999888 1 1 0.999888
0.99936 1 1.0001 0.999264
0.998389 1.00047 1 0.997921
0.99908 1.00092 1 0.998159
1.00905 1.0115 1 0.997584
1.00838 1.01083 1 0.997576
1.00539 1.00762 1 0.99779
1.0188 1.02129 1 0.99756
0.999837 1 1 0.999837
1.01299 1.01538 1 0.997645
0.998922 1 1 0.998922
0.999047 1.00093 1 0.998119
1.00893 1.01124 1 0.997719
1.01516 1.01754 1 0.997662
0.999143 1 1.00001 0.99913
0.999436 1 1 0.999436
0.99956 1 1.00082 0.998742
0.999358 1 1 0.999358
1 1 1 1
0.999986 1 1 0.999986
0.999461 1 1 0.999461
0.998612 1.00035 1 0.998259
0.999843 1 1 0.999843
0.998804 1 1 0.998802
0.998574 1 1 0.998574
0.998567 1.00045 1 0.998121
0.999923 1 1 0.999923
0.999996 1 1 0.999996
0.999438 1 1 0.999438
0.999375 1.00123 1 0.998143
0.998523 1.0001 1 0.99842
1.00513 1.00744 1 0.997705
0.999009 1 1 0.999008
0.999562 1.00152 1 0.99805
0.998979 1.00027 1.00047 0.998243
0.999832 1.00187 1 0.997965
1 1 1 1
0.999213 1 1 0.999213
0.99965 1 1 0.99965
0.999394 1 1.00048 0.998913
1.00799 1.01039 1 0.997617
1.00307 1.0052 1 0.997879
1.01416 1.01669 1 0.997506
0.998914 1 1.00044 0.998477
1.00346 1.00562 1 0.997861
1.00122 1.0017 1.00158 0.997939
1.00494 1.00712 1 0.997835
0.999881 1 1 0.999881
1 1 1 1
1 1 1 1
1 1 1 1
1 1 1 1
0.999971 1 1 0.999971
1 1 1 1
0.99993 1 1 0.99993
1 1 1 1
0.999322 1 1 0.999322
0.999259 1 1 0.999259
1 1.00196 1 0.998042
0.999399 1.00145 1 0.997952
0.999179 1 1 0.999179
1 1 1 1
0.999166 1 1 0.999166
0.998661 1.00076 1 0.997901
0.999758 1.00176 1 0.998006
1.01096 1.0135 1 0.997485
0.999835 1.00176 1 0.998078
1.01112 1.01359 1 0.997563
0.998289 1.0004 1 0.997892
1.01024 1.01283 1 0.997439
1.01152 1.01402 1 0.997532
1.02477 1.02736 1 0.997485
1.01018 1.01263 1 0.997584
1.02325 1.0258 1 0.997515
0.999191 1 1 0.999191
0.9992 1 1 0.9992
0.998546 1.00061 1 0.997933
0.999227 1.00097 1 0.998258
1 1 1 1
0.999739 1 1 0.999739
0.998859 1 1 0.998859
0.998808 1.00047 1 0.998334
1.00771 1.01012 1 0.997619
1.00455 1.00667 1 0.997896
1.00128 1.00332 1 0.997961
1.01023 1.01258 1 0.997679
0.999879 1 1 0.999879
0.999449 1 1.00018 0.999265
0.998332 1.00044 1 0.997896
0.999047 1.00089 1 0.998157
1.00928 1.01173 1 0.997578
1.00855 1.01096 1 0.997614
0.999827 1 1 0.999827
0.998919 1 1 0.998919
0.999288 1.00114 1 0.998152
1.00564 1.00787 1 0.997788
1.01914 1.02163 1 0.997566
1.00827 1.01061 1 0.997685
1.01287 1.01526 1 0.997648
1.01546 1.01784 1 0.997662
0.999174 1 1.00004 0.999133
0.999636 1 1.00089 0.998744
0.999525 1 1.00009 0.999433
1.00938 1.01188 1 0.997526
1.00944 1.01186 1 0.997608
1.02277 1.02535 1 0.997477
1.02114 1.02369 1 0.997507
1.01517 1.0176 1 0.997617
1.02189 1.02426 1 0.997687
0.999046 1 1 0.999046
1.0172 1.01956 1 0.997685
0.998496 1.00007 1 0.998424
1.0017 1.00397 1 0.997735
1.0124 1.01489 1 0.997551
1.01552 1.01776 1 0.997796
0.999581 1 1 0.999581
0.99872 1 1 0.99872
0.999973 1 1.00115 0.998826
0.999301 1 1.00073 0.998576
0.999198 1.00106 1 0.998143
0.999999 1 1 0.999999
0.99994 1 1 0.99994
0.999441 1 1 0.999441
0.998458 1.00003 1 0.998425
1.00464 1.00695 1 0.997703
0.999011 1 1 0.999011
0.998988 1.00042 1.00033 0.998238
0.999091 1.00103 1 0.99806
0.999841 1.00189 1 0.997951
1 1 1 1
0.999213 1 1 0.999213
0.999657 1 1 0.999657
0.99939 1 1.00048 0.998909
1.00774 1.01015 1 0.997614
1.00213 1.00426 1 0.99788
1.01425 1.01679 1 0.997505
0.998931 1 1.00045 0.998481
1.00318 1.00531 1 0.997875
1.0014 1.00175 1.00173 0.997928
1.00484 1.00696 1 0.997903
1 1 1 1
0.99978 1 1 0.99978
0.998792 1 1.00008 0.998717
0.999575 1 1.00045 0.999128
0.999622 1 1.00098 0.998642
1.01747 1.02005 1 0.997473
1.00891 1.01127 1 0.997666
1.01501 1.01754 1 0.99751
1.00023 1.00012 1.00199 0.998123
1.0061 1.00833 1 0.997787
1.00391 1.0054 1.00086 0.997662
0.999865 1 1 0.999865
0.999514 1 1 0.999514
0.999891 1 1 0.999891
0.999883 1 1 0.999883
1 1 1 1
1 1 1 1
1 1 1 1
1 1 1 1
1 1 1 1
0.999991 1 1 0.999991
1 1 1 1
0.999962 1 1 0.999962
1 1 1 1
0.99992 1 1 0.99992
1 1 1 1
0.999745 1.00167 1 0.998077
0.999848 1.00185 1 0.998006
1.01101 1.01348 1 0.997562
1.01081 1.01336 1 0.997484
0.998818 1.00092 1 0.997901
0.999166 1 1 0.999166
0.998347 1.00046 1 0.997892
1.01022 1.01281 1 0.997439
1.01125 1.01376 1 0.997531
1.02501 1.02758 1 0.997494
1.00988 1.01233 1 0.997582
1.02274 1.02529 1 0.997514
1.00978 1.01239 1 0.997428
1.02426 1.02686 1 0.997469
1.02491 1.02747 1 0.997503
1.02978 1.03224 1 0.99762
1.01976 1.02231 1 0.9975
1.02421 1.02656 1 0.997716
0.99829 1.00042 1 0.997871
0.999017 1.00086 1 0.998154
1.00948 1.01193 1 0.997573
1.00872 1.01109 1 0.997652
0.999817 1 1 0.999817
0.998917 1 1 0.998917
0.999546 1.00136 1 0.998185
1.00592 1.00815 1 0.997787
1.01948 1.02196 1 0.997573
1.01276 1.01515 1 0.997651
1.00751 1.00988 1 0.997651
1.01574 1.01813 1 0.997662
0.999136 1 1 0.999136
0.999645 1 1.0009 0.998745
0.999609 1 1.00018 0.99943
1.00952 1.01205 1 0.997491
1.0095 1.01192 1 0.997606
1.02246 1.02504 1 0.997487
1.02143 1.02398 1 0.997511
0.999045 1 1 0.999045
0.998715 1.0003 1 0.998418
1.00157 1.00376 1.00003 0.997785
1.01532 1.01774 1 0.997619
1.02124 1.02357 1 0.997719
1.01249 1.01501 1 0.99752
1.01723 1.01959 1 0.997688
1.01496 1.01718 1 0.997818
0.99874 1 1.00002 0.998723
0.999304 1 1.00075 0.998559
0.999577 1 1 0.999577
0.999984 1 1.00114 0.99885
1.02295 1.02558 1 0.997439
1.02327 1.02582 1 0.997511
1.02642 1.02895 1 0.997547
1.02374 1.02614 0.999959 0.997695
1.01928 1.0216 1 0.997721
1.02083 1.02303 1 0.997855
0.998637 1 1 0.998637
1.01559 1.01771 1 0.997914
0.998403 1.00033 1 0.998075
1.00608 1.00843 1.00018 0.9975
1.0145 1.01706 1 0.997481
1.01406 1.01624 1 0.99785
0.999675 1 1 0.999675
0.999222 1 1.00023 0.998997
0.998551 1 1 0.998551
1.00026 1 1.00165 0.998611
0.998923 1 1.0004 0.998527
1 1 1 1
1.00743 1.00985 1 0.997611
0.999663 1 1 0.999663
0.999213 1 1 0.999213
0.999495 1 1.00059 0.998906
1.00126 1.00338 1 0.997881
1.0144 1.01694 1 0.997503
0.998991 1 1.00051 0.998486
1.00178 1.00193 1.00193 0.997916
1.00303 1.00515 1 0.99789
1.00491 1.00695 1 0.997969
1 1 1 1
0.999787 1 1 0.999787
0.998848 1 1.00013 0.998718
0.999534 1 1.00041 0.999129
0.999957 1 1.00134 0.99862
1.01771 1.02029 1 0.997468
1.00901 1.01137 1 0.997666
1.015 1.01754 1 0.997501
1.00034 1.00009 1.00213 0.998128
1.00806 1.01029 1 0.9978
1.00328 1.00464 1.00096 0.997682
0.999837 1 1 0.999837
0.999317 1 1 0.999317
0.998888 1 1.00048 0.998412
1.00028 1 1.00147 0.99881
0.999651 1 1.00115 0.998498
1.01828 1.02079 1 0.997537
1.01061 1.01301 1 0.997624
1.01361 1.01598 1 0.99767
1.00167 1 1.00379 0.997884
1.00471 1.00719 1 0.997537
0.999868 1 1 0.999868
0.999448 1 1 0.999448
0.999493 1 1 0.999493
0.999292 1 1 0.999292
0.999522 1 1 0.999522
0.999894 1 1 0.999894
0.999892 1 1 0.999892
1 1 1 1
0.999885 1 1 0.999885
1 1 1 1
1 1 1 1
1 1 1 1
1 1 1 1
1 1 1 1
0.999999 1 1 0.999999
0.999986 1 1 0.999986
1 1 1 1
1 1 1 1
0.999954 1 1 0.999954
1 1 1 1
1.00964 1.01209 1 0.99758
1.01111 1.01361 1 0.99753
1.02229 1.02484 1 0.997513
1.02528 1.02784 1 0.997503
1.01019 1.01278 1 0.997439
0.998379 1.00049 1 0.997891
1.00971 1.01231 1 0.997429
1.02417 1.02677 1 0.997462
1.02482 1.02738 1 0.997503
1.02886 1.03152 0.999777 0.997645
1.02018 1.02275 1 0.997495
1.02452 1.02685 1 0.997731
1.02346 1.02609 1 0.997436
1.0279 1.03077 0.999629 0.99758
1.02735 1.02971 1 0.99771
1.02789 1.03104 0.999191 0.997757
1.02188 1.02429 1 0.997647
1.02504 1.02732 0.999888 0.997894
1.00965 1.01223 1 0.997456
1.00955 1.01197 1 0.997604
1.02217 1.02474 1 0.997496
1.02173 1.02428 1 0.997514
0.999044 1 1 0.999044
0.998943 1.00053 1 0.998411
1.00167 1.00367 1.00018 0.997835
1.01547 1.01789 1 0.99762
1.02055 1.02285 1 0.99775
1.01724 1.0196 1 0.997691
1.01262 1.01517 1 0.997489
1.01435 1.01655 1 0.99784
0.998794 1 1.00007 0.998726
0.999277 1 1.00074 0.998541
0.999572 1 1 0.999572
0.999877 1 1.001 0.998874
1.02293 1.02555 1 0.997439
1.02288 1.02545 1 0.997498
1.02633 1.02884 1 0.997565
1.0233 1.0257 0.999986 0.99768
0.998632 1 1 0.998632
0.998574 1.00043 1.00003 0.998119
1.00629 1.00843 1.00039 0.997492
1.019 1.02136 1 0.997695
1.02088 1.02303 1 0.997903
1.01399 1.01656 1 0.997469
1.01563 1.01775 1 0.997916
1.01534 1.01749 1 0.997891
0.99855 1 1 0.99855
0.99871 1 1.00018 0.998529
1.0007 1 1.0021 0.998605
0.999643 1 1 0.999643
0.999112 1 1.00009 0.999019
1.02714 1.03001 0.999654 0.997558
1.02699 1.02952 0.999931 0.997616
1.02192 1.02463 0.999469 0.997878
1.01823 1.02034 1 0.997933
0.998425 1 1 0.998425
1.018 1.01998 1 0.998059
0.998197 1.00005 1.00029 0.997858
1.00843 1.01069 1.00051 0.997266
1.01378 1.01638 1 0.997448
0.999699 1 1 0.999699
0.999209 1 1 0.999209
0.999516 1 1.00073 0.998783
0.99851 1 1 0.99851
1.00124 1 1.0028 0.998439
0.998467 1 1 0.998467
1 1 1 1
0.999793 1 1 0.999793
1.01798 1.02057 1 0.997463
0.999451 1 1.00032 0.999129
0.998837 1 1.00012 0.998719
1.0004 1 1.00181 0.998599
1.00891 1.01127 1 0.997665
1.01483 1.01739 1 0.997492
1.00042 1 1.00229 0.998132
1.00224 1.00378 1.00077 0.997701
1.00977 1.01198 1 0.997813
0.999842 1 1 0.999842
0.99932 1 1 0.99932
0.998831 1 1.00041 0.998418
1.0006 1 1.00179 0.998807
0.999819 1 1.00133 0.998489
1.0183 1.02082 1 0.997532
1.01113 1.01355 1 0.997615
1.01347 1.01582 1 0.997694
1.0011 1 1.00324 0.997857
1.00388 1.00633 1.00006 0.997507
0.999429 1 1 0.999429
0.999563 1 1.00061 0.998956
1.00024 1 1.002 0.998244
1.00103 1 1.00249 0.998543
0.999375 1 1.001 0.998382
1.01972 1.02186 1 0.997913
1.00974 1.01223 1 0.997538
1.01112 1.01343 1 0.997719
1.00337 1.00135 1.00433 0.997695
1.0006 1.00331 1 0.997305
0.999871 1 1 0.999871
0.999465 1 1 0.999465
0.999203 1 1 0.999203
0.999473 1 1 0.999473
0.999522 1 1 0.999522
0.999263 1 1 0.999263
0.999119 1 1 0.999119
0.99924 1 1 0.99924
0.999526 1 1 0.999526
0.999891 1 1 0.999891
0.999894 1 1 0.999894
1 1 1 1
0.999894 1 1 0.999894
1 1 1 1
1 1 1 1
1 1 1 1
1 1 1 1
1 1 1 1
1 1 1 1
0.999998 1 1 0.999998
1 1 1 1
0.99998 1 1 0.99998
1 1 1 1
1 1 1 1
1.02056 1.02313 1 0.99749
1.02467 1.02724 1 0.997503
1.02483 1.02715 1 0.997747
1.02792 1.03082 0.999514 0.99767
1.02406 1.02667 1 0.997455
1.00966 1.01226 1 0.99743
1.0237 1.02635 1 0.997423
1.02826 1.03097 0.999795 0.997571
1.02708 1.02946 1 0.99769
1.02743 1.0308 0.998952 0.997771
1.02127 1.02368 1 0.997646
1.02446 1.02669 0.9999 0.997931
1.02752 1.03005 1 0.997541
1.02813 1.03277 0.997752 0.997746
1.02662 1.02978 0.99905 0.997877
1.02263 1.02469 0.999997 0.997991
1.02287 1.0255 1 0.99744
1.02249 1.02507 1 0.997485
1.02622 1.02871 1 0.997584
1.0229 1.0253 1 0.997666
0.998627 1 1 0.998627
0.998509 1.00035 1 0.998164
1.00641 1.00836 1.00058 0.997485
1.01869 1.02107 1 0.997668
1.02094 1.02304 1 0.997951
1.01573 1.01785 1 0.997918
1.01355 1.01614 1 0.997457
1.01651 1.01862 1 0.997931
0.998548 1 1 0.998548
0.998531 1 1 0.998531
1.00147 1 1.00288 0.998599
0.999611 1 1 0.999611
0.999042 1 1 0.999041
1.02725 1.02993 0.999835 0.997561
1.02722 1.02971 0.999963 0.997619
1.02179 1.02443 0.999548 0.997868
0.998419 1 1 0.998419
0.999062 1.00091 1.00026 0.9979
1.00798 1.00998 1.00076 0.997255
1.01878 1.0209 1 0.997922
1.01344 1.01597 1 0.997515
1.01682 1.01882 0.999991 0.998041
0.999709 1 1 0.999709
0.998504 1 1 0.998504
0.998526 1 1 0.998526
1.00108 1 1.00266 0.998425
0.999416 1 1.00062 0.998793
0.999184 1 1 0.999184
1.02775 1.03122 0.998987 0.997638
1.02597 1.03094 0.997381 0.997788
1.01955 1.02331 0.998364 0.997966
1.02318 1.02561 0.99952 0.998112
0.998299 1.00001 1 0.998286
1.01479 1.01707 1 0.997763
1.00081 1.00171 1.00165 0.997452
1.00565 1.00751 1.00104 0.997123
0.999795 1 1 0.999795
0.999337 1 1 0.999337
0.998938 1 1 0.998938
1.00135 1 1.00284 0.998513
0.99842 1 1 0.99842
0.99978 1 1.00145 0.998332
0.999846 1 1 0.999846
0.999323 1 1 0.999323
1.01846 1.02098 1 0.997526
1.00065 1 1.00185 0.998804
0.998693 1 1.00027 0.998424
0.999896 1 1.00142 0.99848
1.01189 1.01432 1 0.997606
1.01357 1.01589 1 0.997718
1.00056 1 1.00273 0.997831
1.0032 1.00547 1.00027 0.997476
0.99943 1 1 0.99943
0.999301 1 1.00034 0.998965
1.00024 1 1.00198 0.998261
1.00129 1 1.00275 0.998547
0.998915 1 1.00048 0.99844
1.01987 1.02198 1 0.997942
1.00926 1.01174 1 0.997541
1.01235 1.01458 1 0.997793
1.00305 1.00081 1.00458 0.997664
1.00138 1.0041 1.00003 0.99726
0.999137 1 1 0.999137
0.999994 1 1.00135 0.998649
1.00191 1.00004 1.00378 0.998098
0.999823 1 1.00155 0.998272
1.02256 1.02898 0.995618 0.998136
1.01608 1.01822 0.999872 0.998023
1.00592 1.00859 1 0.997349
1.00309 1.00153 1.00426 0.997315
0.999481 1 1 0.999481
0.999215 1 1 0.999215
0.99907 1 1 0.99907
0.999522 1 1 0.999522
0.999233 1 1 0.999233
0.999525 1 1 0.999525
0.999101 1 1 0.999101
0.999252 1 1 0.999252
0.998999 1 1 0.998999
0.999076 1 1 0.999076
0.999228 1 1 0.999228
0.999515 1 1 0.999515
0.999885 1 1 0.999885
0.99989 1 1 0.99989
1 1 1 1
0.999894 1 1 0.999894
1 1 1 1
1 1 1 1
1 1 1 1
1 1 1 1
1 1 1 1
1 1 1 1
1 1 1 1
1 1 1 1
0.999996 1 1 0.999996
1 1 1 1
1 1 1 1
1.02063 1.02303 1 0.997646
1.02678 1.02918 1 0.997669
1.02389 1.02607 0.999912 0.997968
1.02697 1.03052 0.998765 0.997785
1.02863 1.03115 0.999995 0.997563
1.02396 1.02662 1 0.997409
1.02736 1.03004 0.999846 0.997547
1.02731 1.03173 0.997979 0.997737
1.02643 1.02975 0.998895 0.997877
1.02405 1.02612 0.999998 0.997993
1.0277 1.03198 0.998162 0.997687
1.02788 1.03454 0.995637 0.997917
1.02768 1.03167 0.99811 0.998018
1.02735 1.02986 1 0.997564
1.02742 1.02987 1 0.997622
1.02161 1.02418 0.999636 0.997859
0.998412 1 1 0.998412
1.00003 1.00191 1.00018 0.997941
1.00734 1.00927 1.00085 0.997245
1.01931 1.02144 1 0.997912
1.01581 1.01782 0.999999 0.998022
1.01341 1.01587 1 0.997583
0.998498 1 1 0.998498
0.998586 1 1 0.998586
1.0008 1 1.00239 0.998412
0.99972 1 1 0.99972
0.999192 1 1.00039 0.998803
0.999159 1 1 0.999159
1.0284 1.03164 0.999215 0.997645
1.02661 1.03115 0.9978 0.997795
1.01972 1.02317 0.998663 0.997957
0.99855 1.00027 1 0.998276
1.00081 1.00188 1.0014 0.997536
1.00494 1.0069 1.0009 0.997157
1.02302 1.02535 0.999605 0.998122
1.01548 1.01777 1 0.997752
0.999831 1 1 0.999831
0.999337 1 1 0.999337
0.998441 1 1 0.998441
1.00045 1 1.00206 0.998398
1.00129 1 1.00277 0.998528
0.998916 1 1 0.998916
1.02812 1.03388 0.99659 0.997834
1.01946 1.0281 0.993662 0.997928
1.02062 1.02515 0.997418 0.998153
1.01913 1.02161 0.999419 0.99815
0.99924 1.00029 1.00088 0.998069
1.00491 1.00628 1.0014 0.997238
1.00288 1.00299 1.00264 0.997257
0.999914 1 1 0.999914
0.999574 1 1 0.999574
0.999395 1 1 0.999395
0.999016 1 1 0.999016
0.999399 1 1.00072 0.99868
1.00086 1 1.00246 0.998401
0.998466 1 1 0.998466
1.0108 1 1.01228 0.998531
0.999432 1 1 0.999432
0.999171 1 1.0002 0.998975
1.0199 1.02197 1 0.997971
1.00182 1 1.00327 0.998551
1.00043 1 1.00215 0.998279
0.998533 1 1.00004 0.998498
1.00854 1.01103 1 0.997544
1.01347 1.01563 1 0.997868
1.00286 1.00042 1.00482 0.997633
1.00223 1.00502 1 0.997216
0.99912 1 1 0.99912
1.00032 1 1.00166 0.998661
1.00231 1.00004 1.00415 0.998121
0.999642 1 1.00135 0.998299
1.02391 1.02995 0.995977 0.998147
1.01575 1.01784 0.999949 0.99799
1.00681 1.00945 1 0.997388
1.00298 1.00194 1.00377 0.997276
0.99902 1 1.00008 0.99894
1.02147 1.03055 0.993043 0.99814
1.00088 1 1.00246 0.998419
1.00071 1.00017 1.00268 0.997871
1.0214 1.0247 0.998541 0.998236
1.0067 1.00925 1 0.997471
1.0044 1.00403 1.00323 0.997144
0.999228 1 1 0.999228
0.999067 1 1 0.999067
0.998954 1 1 0.998954
0.999525 1 1 0.999525
0.999263 1 1 0.999263
0.999083 1 1 0.999083
0.999513 1 1 0.999513
0.999231 1 1 0.999231
0.998983 1 1 0.998983
0.999097 1 1 0.999097
0.998909 1 1 0.998909
0.998961 1 1 0.998961
0.999074 1 1 0.999074
0.999219 1 1 0.999219
0.99949 1 1 0.99949
0.999877 1 1 0.999877
0.999884 1 1 0.999884
1 1 1 1
0.99989 1 1 0.99989
1 1 1 1
1 1 1 1
1 1 1 1
1 1 1 1
1 1 1 1
0.99994 1 1 0.99994
1 1 1 1
1 1 1 1
1 1 1 1
1 1 1 1
1 1 1 1
1 1 1 1
1.0255 1.02756 1 0.997995
1.02626 1.02973 0.998749 0.997878
1.0265 1.03073 0.99817 0.997728
1.02723 1.03005 0.999707 0.997554
1.02746 1.03189 0.997992 0.997706
1.02823 1.03464 0.995887 0.997905
1.0272 1.03152 0.997777 0.99803
1.02769 1.03535 0.994705 0.997889
1.03077 1.03823 0.994774 0.998034
1.01505 1.02806 0.989084 0.998245
1.02911 1.0321 0.99945 0.997651
1.02732 1.03145 0.998194 0.997802
1.01982 1.02303 0.998911 0.997948
0.998814 1.00049 1.00006 0.998265
1.00088 1.002 1.00126 0.997621
1.00419 1.00623 1.00078 0.997192
1.02295 1.02522 0.99965 0.998132
1.01561 1.01792 0.999982 0.997741
0.998461 1 1 0.998461
1.00118 1 1.00272 0.998463
1.00161 1 1.00307 0.998544
0.999867 1 1 0.999867
0.999337 1 1 0.999337
0.998894 1 1 0.998894
1.02771 1.0339 0.996159 0.997847
0.99991 1 1 0.99991
0.999554 1 1 0.999554
1.01936 1.02733 0.994304 0.997927
1.02122 1.02589 0.99732 0.998121
0.999103 1.00012 1.00084 0.998145
1.0032 1.00268 1.0033 0.997231
1.0055 1.00743 1.00084 0.99724
1.01804 1.02062 0.999339 0.998134
0.999451 1 1 0.999451
0.999013 1 1 0.999013
0.998405 1 1 0.998405
1.00733 1 1.00871 0.998632
1.00089 1 1.0025 0.998391
0.999539 1 1.00085 0.998692
1.03045 1.03764 0.99507 0.997995
1.01109 1.02571 0.98765 0.998066
1.01859 1.02425 0.996129 0.998338
1.00573 1.00884 0.999054 0.997863
1.00048 1 1.00234 0.99814
1.00436 1.0018 1.00547 0.997097
0.999569 1 1 0.999569
0.999523 1 1 0.999523
0.999307 1 1 0.999307
0.999038 1 1 0.999038
0.998826 1 1 0.998826
0.999588 1 1.00113 0.998457
1.01646 1 1.01814 0.998353
1.00027 1 1.00161 0.998667
0.999103 1 1 0.999103
1.00034 1 1.00166 0.998674
1.02515 1.03076 0.99639 0.998157
1.01555 1.01763 1 0.997957
0.999404 1 1.00108 0.998326
1.00255 1 1.00441 0.998144
1.00796 1.01052 1.00004 0.997427
1.00282 1.00224 1.00335 0.997237
0.99907 1 1.00014 0.998933
1.02242 1.03242 0.992125 0.998169
1.00067 1 1.00224 0.998435
1.00061 1.00008 1.00269 0.997844
1.02027 1.02385 0.998299 0.99821
1.00718 1.00969 1 0.997517
1.00424 1.0036 1.00348 0.997157
1.00004 1 1.00136 0.998673
1.01645 1.02767 0.990573 0.998496
1.00005 1.00014 1.0017 0.998223
1.00221 1.00084 1.00379 0.997587
1.01004 1.01515 0.997066 0.997893
1.0018 1.00233 1.00221 0.997265
1.00353 1.00758 0.997435 0.998543
0.999064 1 1 0.999064
0.999013 1 1.00006 0.998952
0.998907 1 1.00007 0.998835
0.999512 1 1 0.999512
0.999233 1 1 0.999233
0.999119 1 1 0.999119
0.998967 1 1 0.998967
0.999489 1 1 0.999489
0.999208 1 1 0.999208
0.998891 1 1 0.998891
0.999073 1 1 0.999073
0.998975 1 1 0.998975
0.998881 1 1 0.998881
0.998952 1 1 0.998952
0.999067 1 1 0.999067
0.999153 1 1 0.999153
0.999424 1 1 0.999424
0.999262 1 1 0.999262
0.99942 1 1 0.99942
0.99987 1 1 0.99987
0.999876 1 1 0.999876
1 1 1 1
0.999883 1 1 0.999883
1 1 1 1
1 1 1 1
1 1 1 1
1 1 1 1
1 1 1 1
0.999956 1 1 0.999956
0.999937 1 1 0.999937
1 1 1 1
1 1 1 1
1 1 1 1
1 1 1 1
1 1 1 1
1 1 1 1
1.02678 1.03146 0.997409 0.998043
1.02858 1.03476 0.996126 0.997894
1.02718 1.03178 0.99781 0.997725
1.02753 1.03515 0.994735 0.997887
1.02923 1.03655 0.994895 0.998031
1.0157 1.02771 0.990074 0.99822
1.02798 1.038 0.992234 0.998098
0.99742 1.01596 0.983949 0.997768
1.01003 1.02555 0.986142 0.998704
0.999646 1 1 0.999646
1.02725 1.03384 0.995752 0.99786
1.01958 1.02667 0.995158 0.997927
1.02185 1.02656 0.997311 0.99809
0.99904 1 1.00082 0.998221
1.00354 1.00232 1.00402 0.997204
1.00641 1.00873 1.00045 0.997243
1.01705 1.01958 0.9994 0.998119
0.998344 1 1 0.998344
1.00387 1 1.00514 0.998735
1.00073 1 1.00236 0.998381
0.999906 1 1 0.999906
0.999547 1 1.00084 0.998704
0.999508 1 1 0.999508
0.99901 1 1 0.99901
0.999534 1 1 0.999534
1.02943 1.0382 0.993536 0.998003
0.999597 1 1 0.999597
0.999521 1 1 0.999521
0.999269 1 1 0.999269
1.01198 1.02533 0.988884 0.998068
1.0184 1.02394 0.996288 0.99829
0.999814 1.00001 1.00164 0.99816
1.00432 1.00165 1.00555 0.997136
1.00498 1.00773 0.999405 0.99786
0.999069 1 1 0.999069
0.998919 1 1.00012 0.998801
1.00286 1 1.00427 0.9986
1.01323 1 1.01486 0.99839
0.999385 1 1.0009 0.998482
1.01908 1.03091 0.990423 0.998083
1.0116 1.02874 0.985125 0.998183
1.01124 1.01548 0.997764 0.998056
1.00311 1.00395 1.00148 0.997692
1.00307 1 1.00484 0.998236
0.99925 1 1 0.99925
0.999149 1 1 0.999149
0.999037 1 1 0.999037
0.998911 1 1.00007 0.998841
0.99926 1 1.00062 0.998639
1.01177 1 1.01341 0.998387
1.01408 1 1.01578 0.998325
0.99913 1 1.00021 0.998925
1.0005 1 1.00205 0.998451
1.02313 1.03442 0.990872 0.998197
1.01907 1.02301 0.997965 0.998183
1.00728 1.00974 1 0.997564
1.00049 1 1.00268 0.997817
1.0038 1.00303 1.0036 0.99717
1.00001 1 1.0013 0.998708
1.01487 1.02722 0.989452 0.998508
0.999602 1.00006 1.00129 0.99825
1.0021 1.00043 1.00408 0.997599
1.01107 1.01572 0.997444 0.997972
1.00203 1.00209 1.00269 0.997251
1.00283 1.00776 0.997036 0.998066
1.00014 1 1.00159 0.998545
1.00561 1.01734 0.989963 0.998493
1.00017 1 1.00194 0.998224
1.00411 1.00018 1.00636 0.997586
1.00207 1.00525 0.99919 0.997649
0.952647 0.980116 0.985213 0.986562
0.973936 0.986761 0.993429 0.993531
0.982184 0.998715 0.98482 0.998606
0.856921 0.902504 0.966019 0.982891
0.817253 0.900479 0.926116 0.97998
0.998997 1 1.00005 0.99895
0.999087 1 1.00024 0.998851
0.998862 1 1 0.998862
0.999489 1 1 0.999489
0.999198 1 1 0.999198
0.999073 1 1 0.999073
0.99899 1 1 0.99899
0.998873 1 1 0.998873
0.999047 1 1 0.999047
0.999447 1 1 0.999447
0.999167 1 1 0.999167
0.998882 1 1 0.998882
0.998956 1 1 0.998956
0.998963 1 1 0.998963
0.998928 1 1 0.998928
0.99899 1 1 0.99899
0.999124 1 1 0.999124
0.999412 1 1 0.999412
0.999189 1 1 0.999189
0.999099 1 1 0.999099
0.999243 1 1 0.999243
0.999233 1 1 0.999233
0.999481 1 1 0.999481
0.999418 1 1 0.999418
0.999865 1 1 0.999865
0.999869 1 1 0.999869
1 1 1 1
0.999875 1 1 0.999875
1 1 1 1
1 1 1 1
1 1 1 1
1 1 1 1
1 1 1 1
0.999964 1 1 0.999964
0.999953 1 1 0.999953
1 1 1 1
0.999935 1 1 0.999935
1 1 1 1
1 1 1 1
1 1 1 1
1 1 1 1
1 1 1 1
1.02768 1.03484 0.995048 0.998028
1.02731 1.03491 0.994765 0.997886
1.0164 1.02723 0.991249 0.998195
0.999572 1.01572 0.986261 0.997811
1.02625 1.03632 0.99218 0.998096
1.01474 1.02757 0.988875 0.998624
1.02514 1.03168 0.995498 0.998148
0.961778 0.98481 0.983775 0.99272
1.0062 1.01935 0.98888 0.998198
0.999653 1 1 0.999653
0.999645 1 1 0.999645
0.999338 1 1 0.999338
0.999366 1 1 0.999366
1.02809 1.0386 0.991861 0.998011
1.01213 1.02449 0.989843 0.998071
1.01807 1.02359 0.996355 0.998243
0.99898 1.00003 1.00077 0.998179
1.00407 1.00155 1.00536 0.997175
1.00416 1.00684 0.999483 0.997858
1.00528 1 1.00676 0.998531
1.01006 1 1.01166 0.998427
0.999185 1 1.00068 0.998506
0.99952 1 1 0.99952
0.998913 1 1.00014 0.998775
0.9991 1 1 0.9991
0.999625 1 1 0.999625
0.99923 1 1 0.99923
1.01725 1.0301 0.989412 0.998097
0.999292 1 1 0.999292
0.99918 1 1 0.99918
0.999066 1 1 0.999066
1.01399 1.0306 0.985671 0.998189
1.00987 1.0146 0.997279 0.998054
1.00291 1 1.0047 0.998225
1.00344 1.00426 1.00149 0.997705
0.999007 1 1.00017 0.998837
0.998959 1 1.00034 0.998617
1.01486 1 1.01656 0.998323
1.01275 1 1.01441 0.998361
1.00881 1.02928 0.98192 0.998163
1.00383 1.0232 0.982876 0.998153
1.00501 1.00737 0.999891 0.997765
0.999707 1.00032 1.0011 0.998286
0.998946 1 1 0.998946
0.999165 1 1.00026 0.998902
1.00353 1 1.00489 0.998642
1.02517 1 1.02704 0.998179
0.935768 0.972766 0.975819 0.985804
1.00014 1 1.0014 0.998744
0.99937 1 1.00109 0.998277
1.013 1.02649 0.988315 0.99852
1.01213 1.01623 0.997909 0.998051
1.00267 1.00214 1.0033 0.997236
1.00207 1 1.00447 0.997611
1.00198 1.00774 0.996697 0.997578
1.00017 1 1.00159 0.998574
1.00514 1.01771 0.989149 0.99848
0.999671 1 1.00144 0.998236
1.00376 1.00008 1.00611 0.997586
1.00266 1.00612 0.998892 0.997673
0.951711 0.982417 0.982468 0.986031
0.968862 0.984399 0.992368 0.991786
0.983583 0.996732 0.988156 0.998636
0.859359 0.901698 0.9697 0.982824
0.800882 0.888329 0.921576 0.978281
0.999561 1 1.00084 0.998721
0.880816 0.921342 0.972311 0.983239
0.857853 0.905079 0.966003 0.981178
0.98381 1.00674 0.978809 0.998376
1.00497 1.00008 1.00655 0.998341
1.0109 1.00288 1.01019 0.997829
0.979062 0.992028 0.988151 0.998764
0.950983 0.97216 0.992381 0.985726
0.955473 0.966754 0.997233 0.991073
0.836664 0.902812 0.942564 0.983202
0.866085 0.93708 0.941344 0.981827
0.999362 1 1.0005 0.998867
0.998942 1 1.00009 0.998853
0.999077 1 1 0.999077
0.99947 1 1 0.99947
0.999181 1 1 0.999181
0.999026 1 1 0.999026
0.998959 1 1 0.998959
0.998883 1 1 0.998883
0.999412 1 1 0.999412
0.998959 1 1 0.998959
0.999008 1 1 0.999008
0.999148 1 1 0.999148
0.998927 1 1 0.998927
0.998926 1 1 0.998926
0.999148 1 1.0002 0.998951
0.998972 1 1 0.998972
0.999154 1 1 0.999154
0.999186 1 1 0.999186
0.999086 1 1 0.999086
0.999032 1 1 0.999032
0.999082 1 1 0.999082
0.999027 1 1 0.999027
0.998948 1 1 0.998948
0.999223 1 1 0.999223
0.999242 1 1 0.999242
0.999493 1 1 0.999493
0.999204 1 1 0.999204
0.999462 1 1 0.999462
0.999864 1 1 0.999864
0.999416 1 1 0.999416
0.999865 1 1 0.999865
1 1 1 1
0.999869 1 1 0.999869
1 1 1 1
1 1 1 1
1 1 1 1
1 1 1 1
1 1 1 1
0.999633 1 1 0.999633
0.999963 1 1 0.999963
0.999962 1 1 0.999962
1 1 1 1
0.99995 1 1 0.99995
1 1 1 1
1 1 1 1
1 1 1 1
1 1 1 1
1 1 1 1
1.00143 1.01579 0.987983 0.997857
1.02493 1.03483 0.992324 0.998094
1.01923 1.02984 0.991144 0.998543
0.958633 0.980739 0.983761 0.993595
1.00632 1.01907 0.98918 0.998287
1.02721 1.03449 0.994841 0.998113
1.0166 1.02383 0.994864 0.998058
0.967713 0.983275 0.989877 0.994238
0.953217 0.978733 0.988621 0.98514
0.837849 0.894584 0.953509 0.982245
0.79899 0.874833 0.93234 0.979584
0.999325 1 1 0.999325
0.999653 1 1 0.999653
0.999644 1 1 0.999644
0.999325 1 1 0.999325
0.999128 1 1 0.999128
0.999164 1 1 0.999164
0.999318 1 1 0.999318
0.999345 1 1 0.999345
1.01605 1.02976 0.988548 0.998112
1.01697 1.03323 0.986049 0.998194
1.00865 1.01383 0.99683 0.998052
1.00312 1.00003 1.00488 0.998215
1.00394 1.00437 1.00186 0.997718
1.01543 1 1.01713 0.998322
1.01387 1 1.01556 0.998336
0.998817 1 1.00022 0.998596
0.999211 1 1 0.999211
0.998991 1 1.00016 0.998833
0.999334 1 1 0.999334
0.999094 1 1 0.999094
1.00983 1.02937 0.982837 0.998147
0.998971 1 1 0.998971
0.999023 1 1.00011 0.998917
1.00465 1.02252 0.98437 0.998132
1.00389 1.00707 0.998963 0.997872
1.00154 1.00063 1.00268 0.998222
1.00516 1 1.00657 0.998597
1.02232 1 1.02418 0.998189
1.00809 1.02555 0.984812 0.998138
0.985615 1.007 0.980542 0.998183
0.996906 1.00054 0.998188 0.998181
1.00641 1.00008 1.00803 0.998318
0.998988 1 1.0002 0.998786
1.0022 1 1.00351 0.998694
1.02114 1 1.02279 0.998388
0.868906 0.925652 0.95422 0.983732
0.947855 0.976295 0.983428 0.98723
0.999908 1 1.00131 0.998602
0.999313 1 1.00107 0.998247
1.00591 1.01862 0.989038 0.998468
1.00325 1.0071 0.998473 0.997698
1.00328 1 1.00571 0.997587
0.949641 0.977247 0.986342 0.985207
0.971397 0.988415 0.99025 0.992459
0.985392 0.995285 0.991388 0.998661
0.85354 0.902521 0.962018 0.983067
0.786718 0.875731 0.919918 0.97656
0.999148 1 1.00043 0.998723
0.873257 0.923924 0.960891 0.98363
0.852921 0.899427 0.967212 0.98044
0.985858 1.0075 0.980119 0.998368
1.00455 1.00007 1.00613 0.998363
1.00995 1.00143 1.01058 0.997947
0.97073 0.987217 0.984435 0.998847
0.956014 0.979503 0.991263 0.984622
0.957551 0.97054 0.993806 0.992766
0.839247 0.897232 0.952571 0.981945
0.865644 0.938786 0.939766 0.981189
1.0011 1 1.00215 0.998949
0.883913 0.913356 0.984738 0.982763
0.946185 0.965565 0.992743 0.987092
0.989318 1.0003 0.990171 0.998837
1.01229 1.00151 1.01196 0.998817
0.985898 0.979284 1.00772 0.999044
0.941047 0.957484 0.988933 0.993831
0.942613 0.957918 0.999598 0.984418
0.855682 0.913723 0.953361 0.982292
0.89503 0.958436 0.948884 0.984149
0.99889 1 1.00005 0.998845
0.999057 1 1 0.999057
1.00003 1 1.00078 0.999255
0.999413 1 1 0.999413
0.999172 1 1 0.999172
0.999026 1 1 0.999026
0.998954 1 1 0.998954
0.998926 1 1 0.998926
0.999153 1 1 0.999153
0.998932 1 1 0.998932
0.998973 1 1 0.998973
0.999327 1 1.00035 0.998974
1.00483 1 1.00565 0.999192
0.998991 1 1.00009 0.998904
0.998959 1 1 0.998959
0.999184 1 1 0.999184
0.999072 1 1 0.999072
0.99903 1 1 0.99903
0.999079 1 1 0.999079
0.999034 1 1 0.999034
0.999035 1 1 0.999035
0.998985 1 1 0.998985
0.999016 1 1 0.999016
0.998804 1 1 0.998804
0.999396 1 1.00093 0.998468
0.99883 1 1 0.99883
0.998946 1 1 0.998946
0.99917 1 1 0.99917
0.999221 1 1 0.999221
0.999488 1 1 0.999488
0.999242 1 1 0.999242
0.999493 1 1 0.999493
0.999864 1 1 0.999864
0.999442 1 1 0.999442
0.999864 1 1 0.999864
1 1 1 1
0.999865 1 1 0.999865
1 1 1 1
1 1 1 1
1 1 1 1
1 1 1 1
1 1 1 1
0.999652 1 1 0.999652
0.999955 1 1 0.999955
0.999633 1 1 0.999633
1 1 1 1
0.999964 1 1 0.999964
0.99996 1 1 0.99996
1 1 1 1
1 1 1 1
1 1 1 1
1 1 1 1
1 1 1 1
0.869308 0.914186 0.967174 0.983183
0.86239 0.907261 0.968199 0.981763
0.960591 0.983608 0.982393 0.994102
1.00811 1.01871 0.991198 0.998377
1.02927 1.03692 0.994536 0.998078
0.961519 0.976279 0.989333 0.9955
1.01611 1.02349 0.994676 0.998108
0.957136 0.983143 0.986929 0.98644
0.851952 0.900808 0.962409 0.982705
0.789902 0.873549 0.924731 0.977846
0.986743 0.998757 0.991227 0.996715
0.951935 0.972953 0.992122 0.986167
0.828804 0.896822 0.940295 0.982837
0.86061 0.92921 0.944495 0.980602
0.999046 1 1 0.999046
0.999344 1 1 0.999344
0.999652 1 1 0.999652
0.999313 1 1 0.999313
0.999157 1 1 0.999157
0.999073 1 1.00001 0.999068
0.999163 1 1 0.999163
0.999185 1 1 0.999185
0.999293 1 1 0.999293
0.999324 1 1 0.999324
1.01063 1.029 0.983984 0.998132
1.00453 1.02082 0.985905 0.998113
1.003 1.00701 0.998036 0.997979
1.00305 1.00095 1.00394 0.998156
1.01891 1 1.02075 0.998199
1.00689 1 1.00835 0.998552
0.998933 1 1 0.998933
0.998995 1 1 0.998995
1.00773 1.0259 0.984116 0.998146
0.999028 1 1.00026 0.998773
1.00216 1 1.0035 0.998665
0.986409 1.00581 0.982574 0.998106
0.996547 1.0004 0.997844 0.998303
1.00747 1.00062 1.00864 0.998216
1.01853 1 1.0202 0.998362
0.99906 1.00508 0.995559 0.99844
0.988418 1 0.98958 0.998826
1.01384 1.00039 1.01508 0.998391
1.00081 1 1.00206 0.998753
1.00047 1 1.00186 0.998612
1.01242 1 1.01396 0.998477
0.890253 0.91953 0.982857 0.985047
0.877338 0.924886 0.964582 0.983421
0.94185 0.976793 0.978104 0.985812
0.998726 1 1 0.998724
1.00414 1 1.00577 0.998385
0.988289 1.00801 0.982045 0.99836
1.00913 1 1.01109 0.998064
0.867012 0.918952 0.959509 0.983294
0.955937 0.977717 0.991247 0.986357
0.952696 0.970153 0.990778 0.991146
0.966806 0.983182 0.984396 0.998931
0.839973 0.897639 0.952793 0.982121
0.855098 0.90397 0.964889 0.980357
0.857175 0.933282 0.935977 0.981277
1.00176 1 1.0028 0.998956
0.885054 0.916858 0.981623 0.983384
0.950845 0.969464 0.993696 0.987016
0.991711 1.00022 0.992577 0.998906
1.01169 1.00035 1.01256 0.998796
0.983878 0.978703 1.00636 0.998939
0.942422 0.959343 0.990273 0.992011
0.944891 0.962673 0.996243 0.98523
0.865597 0.924397 0.952734 0.982846
0.88527 0.949898 0.946909 0.984216
1.00352 0.999757 1.0043 0.999467
0.948825 0.969194 0.989124 0.989749
0.935702 0.95901 0.985207 0.990346
1.00442 0.991055 1.01377 0.999715
0.96052 0.961413 1.0029 0.996187
0.950558 0.958718 1.00707 0.984526
0.901423 0.942281 0.973278 0.982904
0.901333 0.970608 0.944115 0.983595
0.999036 1 1 0.999036
0.999961 1 1.00071 0.999255
1.01038 1 1.01097 0.999415
0.999152 1 1 0.999152
0.998973 1 1 0.998973
0.998939 1 1 0.998939
0.999327 1 1.00033 0.998997
0.998957 1 1 0.998957
0.998932 1 1.00003 0.998901
1.00724 1 1.00801 0.999232
1.01442 0.998453 1.01655 0.999446
1.00548 1 1.00636 0.999122
0.998906 1 1 0.998906
0.999028 1 1 0.999028
0.999075 1 1 0.999075
0.999041 1 1 0.999041
0.998993 1 1 0.998993
0.999034 1 1 0.999034
0.999021 1 1 0.999021
0.998946 1 1 0.998946
0.999117 1 1 0.999117
0.998828 1 1 0.998828
0.998827 1 1 0.998827
0.999275 1 1.00069 0.998581
0.999614 1 1.00153 0.998091
0.999054 1 1.00031 0.998743
0.999345 1 1.00079 0.998554
0.998861 1 1 0.998861
0.999048 1 1 0.999048
0.998943 1 1 0.998943
0.999168 1 1 0.999168
0.999454 1 1 0.999454
0.999219 1 1 0.999219
0.999487 1 1 0.999487
0.999862 1 1 0.999862
0.999493 1 1 0.999493
0.999864 1 1 0.999864
1 1 1 1
0.999864 1 1 0.999864
1 1 1 1
1 1 1 1
1 1 1 1
1 1 1 1
1 1 1 1
0.999533 1 1 0.999533
0.999942 1 1 0.999942
0.999604 1 1 0.999604
1 1 1 1
0.999957 1 1 0.999957
0.999633 1 1 0.999633
1 1 1 1
1 1 1 1
0.999964 1 1 0.999964
1 1 1 1
1 1 1 1
1 1 1 1
0.887931 0.916878 0.983924 0.984251
0.872655 0.919749 0.965265 0.982939
0.948212 0.970824 0.989672 0.986902
0.8536 0.900145 0.966589 0.98107
0.958355 0.97892 0.985232 0.993667
1.01428 1.02328 0.993032 0.998161
0.960824 0.983394 0.989226 0.98769
0.853202 0.904077 0.960558 0.982478
0.784063 0.874712 0.918319 0.976096
0.983062 0.996574 0.990369 0.996035
0.95156 0.973652 0.992648 0.984549
0.839566 0.903632 0.946499 0.981619
0.858796 0.930694 0.941734 0.979839
0.96729 0.985253 0.986528 0.995175
0.955662 0.964404 1.00692 0.98413
0.86488 0.92652 0.950276 0.982316
0.891246 0.959689 0.944966 0.982768
0.999181 1 1.00029 0.998889
0.999075 1 1 0.999075
0.999364 1 1 0.999364
0.999186 1 1 0.999186
0.998903 1 1 0.998903
0.999088 1 1 0.999088
0.999163 1 1 0.999163
0.999156 1 1 0.999156
0.999212 1 1 0.999212
0.999268 1 1 0.999268
1.00794 1.02692 0.983331 0.998155
0.988695 1.00544 0.98529 0.998031
0.996016 1.00001 0.997578 0.998425
1.00946 1.00123 1.01012 0.998117
1.0162 1 1.01789 0.998336
1.00183 1 1.0032 0.998636
0.999146 1 1.00039 0.99876
1.00022 1 1.00147 0.998749
0.994976 1.00587 0.990702 0.998454
1.00043 1 1.00181 0.998621
1.01259 1 1.01414 0.99847
0.987161 1.00019 0.988213 0.998745
1.01365 1.00065 1.01465 0.99837
0.967965 0.991721 0.977083 0.998938
1.00465 0.998741 1.00665 0.999268
1.01716 1 1.01858 0.998604
0.999762 1 1.00113 0.998631
1.00753 1 1.00906 0.998479
0.948839 0.965175 0.991884 0.991119
0.893943 0.919416 0.98697 0.985131
0.870434 0.921078 0.960659 0.983716
1.00238 1 1.00342 0.998961
1.01107 0.999227 1.0131 0.998775
0.991951 1 0.992973 0.998971
0.895122 0.92289 0.985579 0.984104
0.953943 0.962259 1.00732 0.984159
0.945057 0.960495 0.990594 0.99327
0.974515 0.975575 1.00011 0.998806
0.866934 0.923619 0.955515 0.982326
0.955202 0.972997 0.994698 0.986944
0.884651 0.949959 0.946104 0.984302
1.00305 0.999465 1.00415 0.999444
0.947013 0.967395 0.98835 0.99047
0.938182 0.961215 0.985541 0.990357
1.00575 0.992926 1.01335 0.999568
0.963979 0.964003 1.00422 0.99577
0.942236 0.957437 1.00057 0.983559
0.904475 0.972729 0.944589 0.984377
0.897387 0.940154 0.971325 0.98269
1.00527 0.994322 1.0113 0.999711
0.931403 0.956379 0.979114 0.994659
0.94622 0.971519 0.982798 0.991006
0.893509 0.960619 0.946405 0.982814
0.990765 0.977201 1.01493 0.998969
0.965852 0.966663 1.01419 0.985179
0.902168 0.93437 0.982202 0.983032
1.00039 1 1.00114 0.999255
1.00952 1 1.01016 0.999358
1.01503 0.997551 1.01797 0.999566
0.998956 1 1 0.998956
0.998897 1 1 0.998897
1.01041 1 1.01115 0.999272
0.998916 1 1 0.998916
1.00524 1 1.00612 0.999127
1.01603 0.998412 1.01824 0.999421
1.00623 0.997913 1.00885 0.999489
1.00355 1 1.00443 0.99912
0.999001 1 1 0.999001
0.999032 1 1 0.999032
0.999028 1 1 0.999028
0.999103 1 1 0.999103
0.998955 1 1 0.998955
0.999388 1 1.00033 0.999056
0.998941 1 1 0.998941
1.00094 1 1.00259 0.998358
0.998851 1 1 0.998851
0.999116 1 1.00057 0.99855
0.99894 1 1.00101 0.99793
0.999313 1 1.00129 0.998026
1.00003 1 1.00147 0.998565
0.999491 1 1.00138 0.998112
0.998933 1 1 0.998933
0.999079 1 1.00036 0.998715
0.999285 1 1.00065 0.99864
0.998891 1 1 0.998891
0.999077 1 1 0.999077
0.999393 1 1 0.999393
0.999166 1 1 0.999166
0.999453 1 1 0.999453
0.999851 1 1 0.999851
0.999485 1 1 0.999485
0.999861 1 1 0.999861
1 1 1 1
0.999864 1 1 0.999864
1 1 1 1
1 1 1 1
1 1 1 1
1 1 1 1
1 1 1 1
0.999388 1 1 0.999388
0.999844 1 1 0.999844
0.999532 1 1 0.999532
1 1 1 1
0.999912 1 1 0.999912
0.999556 1 1 0.999556
1 1 1 1
1 1 1 1
0.99996 1 1 0.99996
1 1 1 1
1 1 1 1
1 1 1 1
0.943488 0.964685 0.987448 0.99046
0.877021 0.914725 0.97426 0.984113
0.873232 0.916876 0.969098 0.982769
0.999068 1 1 0.999068
0.936139 0.957157 0.986786 0.991138
0.951713 0.971797 0.992388 0.986845
0.849229 0.90158 0.960123 0.981056
0.985259 0.997525 0.992446 0.995221
0.953819 0.973353 0.993925 0.985921
0.845943 0.914598 0.9421 0.98178
0.852149 0.924645 0.940551 0.979847
0.969368 0.986083 0.9899 0.993079
0.941983 0.958 0.998012 0.985239
0.87456 0.929749 0.957677 0.982211
0.889493 0.956152 0.946846 0.982508
0.95122 0.967294 0.991878 0.991434
0.95156 0.954154 1.01413 0.983391
0.901191 0.945142 0.970558 0.982422
0.900543 0.968905 0.944954 0.983587
0.999167 1 1.00043 0.998736
0.999359 1 1.00049 0.998869
0.999104 1 1 0.999104
0.998899 1 1 0.998899
0.99894 1 1 0.998937
0.999109 1 1 0.999109
0.999163 1 1 0.999163
0.999239 1 1 0.999239
0.989281 1.00577 0.985121 0.998466
0.984924 1.00014 0.986102 0.998665
0.999537 1 1.00079 0.998745
1.01317 1.00085 1.01398 0.998347
1.01305 1 1.01461 0.998464
1.00063 1 1.002 0.99863
0.999988 1 1.00135 0.99864
0.972587 0.993292 0.980171 0.998963
1.00798 1 1.00949 0.998505
1.01418 1 1.0156 0.998608
0.999 0.99896 1.00074 0.999298
1.00031 1 1.00164 0.998672
0.964497 0.984427 0.98047 0.999271
1.00925 0.996271 1.01358 0.999454
1.02293 1 1.02428 0.99868
1.00186 1 1.00324 0.998626
0.944082 0.958623 0.989383 0.995399
0.948221 0.964208 0.992123 0.991228
0.898861 0.919609 0.992103 0.985218
1.00218 0.999104 1.00366 0.999424
1.00845 0.994964 1.01414 0.999425
0.945792 0.965916 0.987873 0.991186
0.957451 0.958108 1.01454 0.984997
0.958856 0.961888 1.00339 0.993477
0.901871 0.943727 0.973312 0.981853
0.939145 0.961918 0.985822 0.990367
0.908735 0.97604 0.945071 0.985156
1.00628 0.995894 1.01076 0.999674
0.931334 0.955971 0.97945 0.994669
0.943867 0.969601 0.981324 0.991985
0.999273 0.983642 1.01607 0.999828
0.89102 0.957382 0.947234 0.982528
0.956039 0.959908 1.01156 0.984586
0.912742 0.948416 0.979804 0.982222
1.00724 0.992226 1.01537 0.999771
0.944236 0.96941 0.978455 0.995479
0.936876 0.958231 0.986414 0.991181
0.86095 0.931095 0.942885 0.980675
0.901137 0.947015 0.968868 0.98213
0.97435 0.970939 1.00523 0.99829
0.968236 0.960046 1.02618 0.982801
1.00745 1 1.00815 0.9993
1.01397 0.996838 1.01765 0.999543
1.00368 0.986492 1.01785 0.999582
0.998926 1 1 0.998926
1.00468 1 1.00555 0.999132
1.01725 0.99906 1.01883 0.999396
1.00163 1 1.00252 0.999109
1.0061 0.998515 1.00812 0.999488
1.00669 0.997705 1.00975 0.99926
0.999089 1 1 0.999089
0.998963 1 1 0.998963
1.00002 1 1.001 0.999026
1.00641 1 1.00787 0.998553
0.999053 1 1 0.999053
1.00043 1 1.00198 0.998451
1.00195 1 1.00413 0.997834
1.0005 1.00113 1.00188 0.997504
0.998922 1 1.0004 0.998518
0.99906 1.00012 1.00109 0.997847
0.998644 1 1.00053 0.99812
1.00069 1 1.00232 0.99837
0.999331 1 1.00125 0.99808
1.00018 1 1.00138 0.9988
0.999987 1 1.00143 0.998558
0.999408 1 1.00128 0.998132
0.999285 1 1 0.999285
0.998983 1 1.00006 0.998926
0.999157 1 1.00047 0.998688
0.999106 1 1 0.999106
0.999391 1 1 0.999391
0.999824 1 1 0.999824
0.999452 1 1 0.999452
0.999848 1 1 0.999848
1 1 1 1
0.99986 1 1 0.99986
1 1 1 1
1 1 1 1
1 1 1 1
1 1 1 1
1 1 1 1
0.999328 1 1 0.999328
0.999778 1 1 0.999778
0.999415 1 1 0.999415
1 1 1 1
0.999839 1 1 0.999839
0.99953 1 1 0.99953
1 1 1 1
1 1 1 1
0.999882 1 1 0.999882
1 1 1 1
1 1 1 1
1 1 1 1
0.933189 0.956192 0.981146 0.994696
0.944569 0.965229 0.988025 0.990455
0.877107 0.915974 0.972936 0.984203
0.999083 1 1 0.999083
0.999038 1 1 0.999038
0.998935 1 1 0.998935
0.943035 0.970238 0.980829 0.99096
0.934732 0.956268 0.986198 0.991159
0.955455 0.972868 0.995251 0.986788
0.976071 0.987895 0.993366 0.99463
0.941046 0.95839 0.997728 0.984139
0.865346 0.919169 0.958361 0.982348
0.896745 0.96131 0.949672 0.982273
0.953229 0.967318 0.99213 0.993251
0.946976 0.95334 1.00916 0.984312
0.891645 0.931623 0.973067 0.983578
0.902633 0.97133 0.944044 0.984355
0.939673 0.956483 0.990242 0.992107
0.965406 0.964071 1.01697 0.984675
0.903005 0.932846 0.984555 0.983196
0.895423 0.957643 0.950168 0.984066
0.998725 1 1 0.998725
0.999376 1 1.00065 0.998731
0.999485 1 1.00064 0.998849
0.998895 1 1 0.998895
0.998972 1 1 0.998972
0.999171 1 1 0.999171
0.979384 0.995824 0.984493 0.998982
0.994037 0.999047 0.995658 0.999324
1.00013 1 1.00148 0.998649
1.01136 1 1.01277 0.998612
1.00868 1 1.01017 0.998531
1.00009 1 1.00144 0.998648
1.00174 1 1.0031 0.998639
0.976197 0.987805 0.988945 0.999295
1.02062 1 1.02187 0.998779
1.00589 0.991604 1.01493 0.99948
1.00002 1 1.00127 0.998752
0.990888 0.977122 1.01461 0.999485
0.998181 0.988241 1.01054 0.999524
1.01664 1 1.01776 0.998906
0.959768 0.973244 0.989715 0.996401
0.943572 0.958663 0.988528 0.995681
0.947872 0.96315 0.992741 0.991334
1.00816 0.99782 1.01073 0.999637
0.994374 0.985627 1.00952 0.999356
0.931967 0.956268 0.979803 0.994678
0.956721 0.954709 1.01428 0.987995
0.912244 0.945343 0.981521 0.983155
0.942464 0.968069 0.980447 0.992965
0.897853 0.961919 0.950195 0.982322
1.00576 0.992139 1.01394 0.999788
0.944806 0.969732 0.978443 0.995761
0.935969 0.95748 0.986209 0.991203
0.973206 0.967534 1.01027 0.995642
0.857884 0.931259 0.940059 0.979949
0.889339 0.93466 0.967682 0.983288
0.977474 0.96584 1.02797 0.984513
1.00235 0.975011 1.0284 0.999652
0.93388 0.956776 0.981216 0.994755
0.949518 0.97242 0.989299 0.987011
0.79689 0.873227 0.931391 0.979803
0.866829 0.928709 0.950146 0.982344
0.965563 0.964726 1.01675 0.984377
0.950829 0.962579 0.993578 0.994178
1.01327 0.995941 1.01789 0.999519
1.00716 0.990623 1.01712 0.999586
1.01734 0.995379 1.02254 0.999529
0.999729 1 1.00063 0.999099
1.00587 0.998517 1.00788 0.999487
1.00775 0.997853 1.0106 0.999331
1.01729 1 1.01847 0.998842
1.0006 1 1.00161 0.998997
1.00671 1 1.00827 0.998455
1.01511 1 1.01743 0.997723
0.99999 1 1.00145 0.998546
1.00307 1.00021 1.00509 0.997793
1.00468 1.00157 1.00593 0.997189
1.00285 1.00385 1.00191 0.997101
0.99893 1.00005 1.00108 0.997809
1.00048 1.00113 1.00189 0.997468
0.999224 1.00022 1.00124 0.997764
0.999397 1 1.0011 0.998302
0.998686 1 1.00048 0.998207
1.00108 1 1.00252 0.998561
1.00076 1 1.00236 0.998406
0.999302 1 1.00117 0.998134
0.999488 1 1.00038 0.999104
0.99998 1 1.00118 0.998802
0.999887 1 1.00134 0.998551
0.99977 1 1 0.99977
0.999284 1 1 0.999284
0.999029 1 1.00011 0.99892
0.999389 1 1 0.999389
0.99982 1 1 0.99982
1 1 1 1
0.999846 1 1 0.999846
1 1 1 1
1 1 1 1
1 1 1 1
1 1 1 1
1 1 1 1
0.99932 1 1 0.99932
0.999787 1 1 0.999787
0.999346 1 1 0.999346
1 1 1 1
0.999808 1 1 0.999808
0.999443 1 1 0.999443
1 1 1 1
1 1 1 1
0.999833 1 1 0.999833
1 1 1 1
1 1 1 1
1 1 1 1
0.943493 0.968669 0.978466 0.995447
0.932967 0.956556 0.980528 0.994708
0.944036 0.965698 0.986984 0.990461
0.999016 1 1 0.999016
0.998903 1 1 0.998903
0.999099 1 1 0.999099
0.999035 1 1 0.999035
0.998917 1 1 0.998917
0.998926 1 1 0.998926
0.998825 1 1 0.998825
0.932995 0.958216 0.983252 0.990263
0.942371 0.968243 0.981182 0.991946
0.933388 0.955233 0.985824 0.991182
0.905392 0.974385 0.943226 0.985123
0.94181 0.957335 0.992091 0.991626
0.950528 0.954818 1.01029 0.985366
0.895815 0.932256 0.977961 0.982565
0.935442 0.955755 0.987225 0.991412
0.955929 0.956434 1.01599 0.983746
0.914969 0.949554 0.980567 0.982673
0.884439 0.949196 0.946794 0.984138
0.939125 0.956948 0.988077 0.993218
0.96164 0.961555 1.01699 0.983379
0.903413 0.943987 0.973513 0.983055
0.863651 0.935434 0.940554 0.981616
0.999683 1 1.00087 0.99881
0.998827 1 1.0001 0.998725
0.999574 1 1.00085 0.998727
0.998891 1 1 0.998891
0.985237 0.990471 0.995389 0.999324
1.00139 0.987609 1.01446 0.999505
0.998661 1 1.00004 0.998625
1.0015 1 1.00285 0.998651
1.01731 1 1.01845 0.998877
0.999501 1 1.00076 0.998746
1.01742 0.999889 1.01866 0.998892
0.986628 0.97527 1.01282 0.998845
1.00052 0.988027 1.01302 0.999634
1.0076 0.999429 1.0092 0.998993
0.991151 0.97305 1.0199 0.998724
1.01593 0.99399 1.02279 0.999302
0.944576 0.958965 0.989512 0.995434
0.955138 0.971268 0.986647 0.996702
0.942953 0.958695 0.987567 0.995962
1.00309 0.99079 1.01261 0.999805
0.976145 0.968999 1.00898 0.998405
0.944631 0.969405 0.978313 0.996046
0.969767 0.963428 1.02386 0.983121
0.893165 0.933903 0.97368 0.982232
0.934986 0.956713 0.985942 0.991225
0.851913 0.924885 0.93994 0.979958
1.00733 0.978257 1.03001 0.99972
0.933389 0.957083 0.980373 0.994768
0.952956 0.973331 0.992011 0.986952
0.953354 0.962776 0.993892 0.996299
0.789917 0.873278 0.92481 0.978084
0.872448 0.929257 0.955946 0.982132
0.963456 0.95992 1.01983 0.984164
0.999267 0.979175 1.0215 0.999036
0.944711 0.96585 0.987405 0.990589
0.863199 0.907833 0.968276 0.981986
0.831361 0.897788 0.941952 0.983076
0.949147 0.952296 1.01218 0.984704
0.934083 0.955766 0.984978 0.99222
1.01076 0.994589 1.01668 0.99959
1.01788 0.993889 1.02462 0.999522
1.01298 0.999388 1.01425 0.99936
1.00907 0.998188 1.01151 0.999402
1.01645 0.998766 1.01881 0.998915
1.01084 1.00075 1.01202 0.998082
1.00721 1 1.00886 0.998357
1.01419 1 1.01656 0.997672
1.00896 1.00017 1.01166 0.997159
1.00424 1.00046 1.00604 0.997752
1.00464 1.00114 1.00639 0.997124
1.00322 1.00209 1.00422 0.996913
1.00465 1.00754 1 0.997133
1.00461 1.00656 1.00077 0.997292
1.00339 1.00417 1.00218 0.997049
0.998351 1.00019 1.00013 0.998038
0.99874 1.00014 1.00074 0.997861
1.0005 1.00118 1.0019 0.997432
0.999442 1 1.00112 0.998329
0.999375 1 1.00108 0.998294
0.998719 1 1.00043 0.998293
1.00032 1 1.00146 0.998857
1.00092 1 1.00232 0.998599
1.00081 1 1.00238 0.998442
0.999643 1 1 0.999643
0.999451 1 1.00035 0.999105
0.99979 1 1.00099 0.998805
1 1 1 1
0.999764 1 1 0.999764
0.999282 1 1 0.999282
0.999816 1 1 0.999816
1 1 1 1
1 1 1 1
1 1 1 1
1 1 1 1
1 1 1 1
0.999011 1 1 0.999011
0.999269 1 1 0.999269
0.999738 1 1 0.999738
0.999319 1 1 0.999319
1 1 1 1
0.99979 1 1 0.99979
0.999364 1 1 0.999364
1 1 1 1
1 1 1 1
0.999839 1 1 0.999839
1 1 1 1
1 1 1 1
1 1 1 1
0.931109 0.956609 0.978588 0.994641
0.943949 0.969146 0.978174 0.995733
0.932821 0.956967 0.979943 0.994719
0.999026 1 1 0.999026
0.998889 1 1 0.998889
0.998826 1 1 0.998826
0.998889 1 1 0.998889
0.998958 1 1.00016 0.9988
0.999033 1 1 0.999033
0.998899 1 1 0.998899
0.998926 1 1 0.998926
0.998826 1 1 0.998826
0.999253 1 1.00038 0.998872
0.944327 0.964457 0.992105 0.986919
0.936936 0.960704 0.98483 0.990283
0.942625 0.966902 0.981834 0.99293
0.882572 0.949154 0.944743 0.984237
0.912782 0.943823 0.983491 0.983345
0.928172 0.951719 0.984619 0.990494
0.964058 0.96363 1.01623 0.984468
0.940029 0.958689 0.98925 0.991191
0.972951 0.970611 1.01831 0.984384
0.899309 0.940932 0.972223 0.98307
0.864546 0.937857 0.93975 0.980933
0.960313 0.967053 1.00049 0.992542
0.962888 0.963362 1.01489 0.984845
0.853869 0.91335 0.951908 0.982108
0.819037 0.901191 0.92786 0.9795
1.00159 1 1.0024 0.999195
1.00116 1 1.00235 0.99881
0.999576 1 1.00085 0.998726
0.984758 0.973804 1.01308 0.998195
1.00285 0.9871 1.01621 0.999748
0.999815 1 1.00108 0.99874
1.01881 0.999857 1.0201 0.998879
1.00866 0.999737 1.00993 0.999001
1.01695 0.995904 1.02186 0.999292
0.987653 0.970086 1.01937 0.998762
1.01433 0.999312 1.0157 0.999345
0.993913 0.980458 1.01518 0.998568
0.951381 0.96708 0.992679 0.991022
0.943978 0.958804 0.988777 0.995712
0.950371 0.969357 0.983361 0.997003
1.01241 0.981891 1.03131 0.999783
0.952235 0.963519 0.995013 0.993243
0.933274 0.957358 0.97996 0.994778
0.964033 0.965719 1.01608 0.982453
0.865558 0.919293 0.958511 0.982302
0.956361 0.974273 0.99465 0.986895
0.785979 0.875723 0.919258 0.976354
0.998131 0.977575 1.0219 0.999145
0.945924 0.966576 0.987935 0.990585
0.854489 0.901139 0.966305 0.981296
0.936462 0.958633 0.983476 0.993284
0.8415 0.904199 0.947874 0.981837
0.937986 0.950274 1.00358 0.983552
0.974384 0.978424 0.997606 0.99826
0.888267 0.917734 0.983158 0.984472
0.840148 0.895471 0.954935 0.982496
0.953769 0.964298 1.00495 0.984206
0.934744 0.955463 0.984561 0.993656
1.01746 0.99255 1.0256 0.999515
1.01373 0.997774 1.01667 0.999331
0.994375 1.00096 0.99469 0.998723
1.01508 0.997243 1.01892 0.998988
1.01138 1.00087 1.01234 0.998179
1.00251 1.00195 1.00289 0.997677
1.01297 1 1.01539 0.99762
1.00741 1.00032 1.00994 0.997174
0.999525 1.00147 1.0008 0.997266
1.0044 1.00071 1.00665 0.997059
1.00346 1.00301 1.00352 0.996933
1.00567 1.00841 1 0.997288
1.01374 1.01633 1 0.997454
1.00875 1.0116 1.00002 0.997169
1.00435 1.00722 1 0.997149
1.00139 1.00383 1 0.997574
1.00303 1.00472 1.00107 0.997246
1.00393 1.0045 1.00244 0.996997
0.998194 1 1 0.998194
0.99827 1.00014 1.00002 0.998101
0.998445 1.00021 1.00032 0.997914
0.999769 1 1.00115 0.99862
0.999636 1 1.00129 0.998351
0.999379 1 1.0011 0.998286
0.999668 1 1.00026 0.999407
1.00022 1 1.00136 0.998858
1.00077 1 1.00213 0.998637
0.999998 1 1 0.999998
0.999637 1 1 0.999637
0.999448 1 1.00034 0.999106
1 1 1 1
1 1 1 1
0.999758 1 1 0.999758
1 1 1 1
1 1 1 1
1 1 1 1
0.998927 1 1 0.998927
0.999209 1 1 0.999209
0.998998 1 1 0.998998
0.999699 1 1 0.999699
0.999269 1 1 0.999269
0.999998 1 1 0.999998
0.999741 1 1 0.999741
0.999317 1 1 0.999317
1 1 1 1
1 1 1 1
0.999794 1 1 0.999794
1 1 1 1
1 1 1 1
1 1 1 1
0.947484 0.969322 0.986076 0.991273
0.930754 0.95597 0.978857 0.994653
0.943938 0.968948 0.978081 0.996021
0.998827 1 1 0.998827
0.999036 1 1 0.999036
0.998874 1 1 0.998874
0.998903 1 1 0.998903
0.998842 1 1 0.998842
0.998867 1 1.00006 0.998803
0.999514 1 1.00081 0.998702
0.99963 1 1.00086 0.998774
0.998926 1 1 0.998926
0.998826 1 1 0.998826
0.999367 1 1.0005 0.998864
1.00002 1 1.00102 0.998995
0.857286 0.905087 0.965639 0.980891
0.948648 0.968284 0.992782 0.986843
0.938801 0.961061 0.986405 0.990301
0.858201 0.933699 0.936927 0.981017
0.906399 0.947872 0.973275 0.982503
0.962592 0.961826 1.01766 0.983431
0.944762 0.959596 0.992495 0.991986
0.960084 0.964602 1.00111 0.994216
0.802642 0.889049 0.923256 0.977855
0.959311 0.959568 1.01659 0.983414
0.862584 0.923453 0.95066 0.982566
0.950472 0.963187 0.992125 0.994631
0.951395 0.955371 1.01052 0.985474
0.836114 0.902973 0.942502 0.982445
1.00017 1 1.00057 0.999597
1.0012 1 1.002 0.999198
1.00224 1 1.00343 0.998811
0.984978 0.968279 1.01847 0.998795
1.01878 0.99868 1.02086 0.999281
1.00969 1 1.01069 0.999008
1.01357 0.999715 1.01453 0.999344
0.993845 0.981949 1.01352 0.998617
1.00076 0.992454 1.00939 0.998995
0.891566 0.92046 0.984804 0.983555
0.949695 0.965808 0.991242 0.992005
0.943028 0.958487 0.987833 0.99599
0.998481 0.976185 1.02361 0.999246
0.932794 0.959014 0.978498 0.994033
0.945485 0.96721 0.986827 0.990588
0.946591 0.951208 1.01005 0.985242
0.84964 0.916444 0.944072 0.982028
0.849375 0.902023 0.959586 0.981292
0.975428 0.978919 0.998113 0.998318
0.877406 0.915232 0.973933 0.984329
0.854971 0.901975 0.964295 0.982985
0.936654 0.955374 0.988763 0.991548
0.942405 0.960897 0.995433 0.985255
0.964725 0.986994 0.978361 0.999056
0.869507 0.914694 0.966658 0.983387
0.954558 0.975873 0.992123 0.985924
0.948913 0.968145 0.988692 0.991346
1.01533 0.996509 1.0196 0.999303
0.989967 1.00045 0.990689 0.998826
0.98261 1.00257 0.98176 0.998298
1.01222 1.00103 1.01293 0.998275
1.00342 1.00238 1.00338 0.997669
1.00061 1.00336 0.999428 0.997836
1.00619 1.0005 1.00852 0.99719
0.999618 1.00111 1.00123 0.99728
1.01031 1.01256 1 0.997782
1.0038 1.00395 1.00291 0.996953
1.00538 1.00811 1 0.997295
1.01438 1.01658 1 0.997834
1.01932 1.02154 1 0.997828
1.01529 1.01795 1 0.997392
1.01328 1.01584 1 0.99748
1.00741 1.01005 1 0.997384
1.00795 1.01077 1 0.99721
1.00396 1.00682 1 0.997165
0.999233 1.0013 1 0.997933
1.00156 1.00384 1.00014 0.997594
1.00159 1.00292 1.00148 0.9972
0.998434 1 1 0.998434
0.99842 1.00023 1 0.998188
0.998164 1 1 0.998164
0.999332 1 1.0002 0.999137
0.999585 1 1.00096 0.998622
0.999817 1 1.00145 0.998374
0.99998 1 1 0.99998
0.999614 1 1.00021 0.999404
1.00002 1 1.00116 0.998859
1 1 1 1
0.999995 1 1 0.999995
0.99963 1 1 0.99963
1 1 1 1
1 1 1 1
1 1 1 1
0.998893 1 1 0.998893
0.998927 1 1 0.998927
0.999128 1 1 0.999128
0.99966 1 1 0.99966
0.999209 1 1 0.999209
0.998985 1 1 0.998985
0.999993 1 1 0.999993
0.999702 1 1 0.999702
0.999268 1 1 0.999268
1 1 1 1
0.999998 1 1 0.999998
0.999744 1 1 0.999744
1 1 1 1
1 1 1 1
1 1 1 1
0.881929 0.912113 0.983771 0.982858
0.946442 0.967523 0.986814 0.991282
0.931388 0.956356 0.979116 0.994665
0.998813 1 1 0.998813
0.998755 1 1 0.998755
0.99919 1 1.00046 0.99873
0.998917 1 1 0.998917
0.998859 1 1 0.998859
0.998862 1 1.00006 0.998806
0.999546 1 1.00078 0.99877
0.9995 1 1.0008 0.998705
0.999869 1 1.00126 0.998616
0.99889 1 0.999817 0.999073
0.999115 1 1.00026 0.998855
0.999512 1 1.00053 0.998979
0.852048 0.899424 0.964227 0.982471
0.851605 0.898617 0.966899 0.980128
0.95374 0.972792 0.993556 0.986774
0.787234 0.875165 0.921464 0.976193
0.863761 0.921078 0.95487 0.982093
0.96095 0.962293 1.01304 0.985748
0.960891 0.96211 1.00651 0.992278
0.949234 0.962041 0.993721 0.992923
0.837166 0.895961 0.952006 0.981483
0.942265 0.951891 1.0049 0.985059
0.945283 0.963504 0.987489 0.993519
0.94103 0.962898 0.992609 0.984567
1.00723 1 1.00819 0.999054
0.999848 1 1.00031 0.999539
1.00041 1 1.00121 0.9992
0.992326 0.981802 1.01207 0.998662
1.01264 1 1.0133 0.999344
1.00141 0.993401 1.00918 0.998891
0.992396 0.996554 0.997674 0.99815
0.868603 0.926721 0.952728 0.983793
0.895377 0.920692 0.987968 0.984348
0.949003 0.964806 0.990573 0.992981
0.975112 0.98047 0.996121 0.998409
0.935961 0.954768 0.987863 0.992345
0.877801 0.916543 0.972894 0.984413
0.939776 0.957909 0.996759 0.98426
0.857867 0.907519 0.961898 0.982732
0.96807 0.987723 0.981517 0.998559
0.874187 0.920923 0.965541 0.983128
0.95507 0.977033 0.992886 0.984524
0.954823 0.96955 0.991636 0.993117
0.979228 0.99462 0.985626 0.998884
0.955689 0.981133 0.988859 0.985041
0.965519 0.985557 0.985284 0.9943
0.985771 1 0.98683 0.998927
0.983474 1.00329 0.98194 0.998276
0.983907 1.0063 0.979535 0.998179
1.00391 1.0027 1.00356 0.99766
0.999925 1.00346 0.998648 0.99783
1.01361 1.01821 0.997206 0.998273
0.999508 1.00064 1.00158 0.997293
1.01011 1.01237 1 0.997773
1.01941 1.02146 0.999743 0.998241
1.0049 1.00762 1 0.997301
1.01377 1.01597 1 0.997834
1.01969 1.02157 1 0.998169
1.01734 1.01932 1 0.998057
1.01949 1.02166 1 0.997872
1.01897 1.0213 1 0.997724
1.01457 1.01714 1 0.997475
1.01598 1.01863 1 0.997397
1.01285 1.01538 1 0.997506
1.00302 1.00538 1 0.997653
1.0079 1.01051 1 0.99742
1.00716 1.00994 1 0.997252
0.998411 1.00018 1 0.99823
1.00001 1.00209 1 0.997926
1.00179 1.00402 1.00017 0.997615
0.998937 1 1 0.998937
0.998433 1 1 0.998433
0.99876 1.00058 1 0.998183
0.999912 1 1 0.999912
0.999382 1 1.00025 0.999137
0.999475 1 1.00085 0.998625
1 1 1 1
0.999965 1 1 0.999965
0.999629 1 1.00023 0.9994
1 1 1 1
0.999992 1 1 0.999992
1 1 1 1
0.998826 1 1 0.998826
0.998884 1 1 0.998884
0.99904 1 1 0.99904
0.998927 1 1 0.998927
0.999128 1 1 0.999128
0.999597 1 1 0.999597
0.999989 1 1 0.999989
0.999662 1 1 0.999662
0.999209 1 1 0.999209
1 1 1 1
0.999995 1 1 0.999995
0.999704 1 1 0.999704
1 1 1 1
0.999999 1 1 0.999999
1 1 1 1
0.877339 0.918797 0.971179 0.983215
0.884234 0.916168 0.982247 0.982588
0.944875 0.965273 0.98747 0.991289
0.998798 1 1 0.998798
0.999213 1 1.00052 0.998695
0.998792 1 1 0.998792
0.998506 1 1 0.998506
0.999125 1 1.00047 0.998657
0.999571 1 1.0008 0.998767
0.99943 1 1.00072 0.998708
0.999742 1 1.0011 0.998645
0.998501 1 1 0.998501
0.99809 1.00009 0.999117 0.998886
0.99869 1.00034 1.00026 0.998098
0.999438 1 1.00032 0.999123
0.999393 1 1.00043 0.998963
0.95002 0.976025 0.98865 0.98453
0.854924 0.898286 0.968665 0.982516
0.852432 0.901545 0.964764 0.980055
0.835875 0.896836 0.949528 0.981568
0.946874 0.954616 1.00861 0.983424
0.951703 0.960567 0.995985 0.994766
0.94634 0.962837 0.988135 0.994668
0.946651 0.964398 0.995666 0.985871
0.96711 0.986788 0.986297 0.993674
1.00096 1.00132 1.00139 0.998251
1.00569 1 1.00666 0.999032
0.999481 1 1 0.999481
1.00198 0.995178 1.00804 0.998804
0.997296 0.999994 0.999248 0.998052
0.936938 0.974015 0.975788 0.985802
0.877343 0.926117 0.963184 0.983545
0.900277 0.92131 0.991899 0.985151
0.971437 0.988753 0.984416 0.998041
0.949908 0.96487 0.992985 0.991447
0.875002 0.918654 0.969026 0.982928
0.953926 0.973854 0.993699 0.985748
0.979366 0.994756 0.985612 0.998901
0.958268 0.984361 0.987079 0.986236
0.966656 0.985734 0.988046 0.99251
0.997804 1.0048 0.994678 0.998348
0.980466 0.996123 0.988169 0.996066
0.984416 1.00421 0.982002 0.998258
0.985625 1.00585 0.981728 0.998131
1.00495 1.02525 0.981874 0.998293
0.999519 1.00358 0.998123 0.997825
1.01293 1.01769 0.997056 0.99826
1.02027 1.02751 0.994489 0.998452
1.01007 1.01233 1 0.997764
1.01923 1.02162 0.999433 0.998225
1.01907 1.02197 0.998795 0.998357
1.01336 1.01556 1 0.997834
1.01995 1.02189 0.999945 0.998153
1.01806 1.0199 1 0.998191
1.01803 1.01997 1 0.998099
1.01725 1.01939 1 0.997904
1.01965 1.02178 1 0.997916
1.01883 1.02116 1 0.997718
1.01728 1.0197 1 0.997629
1.00906 1.01149 1 0.997593
1.01438 1.01696 1 0.997466
1.01662 1.01926 1 0.997402
0.99931 1.00129 1 0.998026
1.00318 1.00552 1 0.997675
1.00833 1.0109 1 0.997456
0.998774 1 1 0.998774
0.998632 1.00041 1 0.998225
1.00051 1.0026 1 0.997919
0.999795 1 1 0.999795
0.998938 1 1 0.998938
0.998432 1 1 0.998432
1 1 1 1
0.999891 1 1 0.999891
0.999363 1 1.00023 0.999138
1 1 1 1
0.999951 1 1 0.999951
1 1 1 1
0.998531 1.00001 1 0.998519
0.998825 1 1 0.998825
0.998911 1 1 0.998911
0.998875 1 1 0.998875
0.99902 1 1 0.99902
0.999479 1 1 0.999479
0.999128 1 1 0.999128
0.999599 1 1 0.999599
0.999983 1 1 0.999983
1 1 1 1
0.99999 1 1 0.99999
0.999665 1 1 0.999665
1 1 1 1
0.999996 1 1 0.999996
1 1 1 1
0.9555 0.981643 0.986671 0.986517
0.869788 0.920821 0.960251 0.983679
0.89534 0.922624 0.987801 0.982412
0.999221 1 1.00056 0.998659
0.99883 1 1 0.99883
0.99905 1 1.00038 0.998667
0.998521 1 1 0.998521
1.00031 1.00212 1.00002 0.998171
0.998554 1 1 0.998554
0.999585 1 1.00091 0.998675
0.998406 1 1 0.998406
0.998778 1.00004 0.999881 0.998852
0.998333 1 1 0.998333
0.999644 1.00225 0.999134 0.998261
0.998249 1.00129 0.999275 0.997688
0.99885 1.00081 0.999833 0.998212
1.00013 1 1.00096 0.999172
0.965366 0.987402 0.983739 0.993845
0.952421 0.97703 0.989326 0.98533
0.849652 0.898975 0.961781 0.982692
0.959045 0.970912 1.00357 0.984261
0.945587 0.962148 0.987215 0.995516
0.971193 0.987787 0.98737 0.995778
0.993505 1.00379 0.991474 0.998264
0.998704 1.00067 0.999732 0.998304
1.00463 1 1.00563 0.999011
0.99747 1.00112 0.998414 0.997937
0.967518 0.982409 0.990955 0.993831
0.948893 0.977221 0.983603 0.987198
0.868858 0.921484 0.958409 0.983807
0.980278 0.995818 0.985462 0.998917
0.971183 0.987776 0.989307 0.993829
0.961817 0.984834 0.989048 0.987444
0.991707 1.00398 0.989394 0.99836
0.978399 0.994198 0.988622 0.995435
0.999089 1.02293 0.978538 0.998117
1.00572 1.015 0.993042 0.997802
0.987013 1.00523 0.98377 0.99808
1.00504 1.02481 0.982391 0.998285
1.00853 1.03161 0.979265 0.998323
1.01243 1.01746 0.996802 0.998248
1.01997 1.02728 0.994429 0.998438
1.01463 1.02255 0.993945 0.998301
1.01891 1.02167 0.999094 0.998209
1.01863 1.0217 0.998648 0.998342
1.01887 1.02185 0.998932 0.998151
1.02015 1.02218 0.99988 0.998137
1.01762 1.01952 0.99994 0.998188
1.01734 1.01944 1 0.99794
1.01875 1.02064 1 0.998141
1.01712 1.01922 1 0.997938
1.01776 1.0201 1 0.997709
1.01873 1.02107 1 0.997711
1.01716 1.01958 1 0.997621
1.01241 1.01477 1 0.997671
1.00122 1.00335 1 0.997874
1.00874 1.01115 1 0.997613
1.01421 1.0168 1 0.997457
0.998603 1 1 0.998603
0.999926 1.0019 1 0.998027
1.00355 1.00586 1 0.997696
0.999663 1 1 0.999663
0.998773 1 1 0.998773
0.998888 1.00067 1 0.998221
1 1 1 1
0.99978 1 1 0.99978
0.998938 1 1 0.998938
1 1 1 1
0.99987 1 1 0.99987
1 1 1 1
1.00011 1.00189 1 0.99822
0.998541 1.00001 1 0.998532
0.9987 1 1 0.9987
0.998824 1 1 0.998824
0.998891 1 1 0.998891
0.999314 1 1 0.999314
0.998999 1 1 0.998999
0.999481 1 1 0.999481
0.999969 1 1 0.999969
0.999601 1 1 0.999601
0.999985 1 1 0.999985
1 1 1 1
1 1 1 1
0.999991 1 1 0.999991
1 1 1 1
0.966894 0.985262 0.987087 0.994195
0.95166 0.982065 0.983279 0.985519
0.863576 0.916661 0.958099 0.98329
1.00527 1.00737 1.00007 0.997848
0.998986 1 1.00031 0.998676
0.998537 1 1 0.998537
0.998527 1 1 0.998527
1.00025 1.00197 1.00012 0.99816
0.999962 1.00153 1 0.998436
0.998312 1 1 0.998312
0.999354 1 1.00054 0.998818
0.998468 1.00009 1 0.998375
0.998809 1.00156 0.999012 0.998237
1.00115 1.00349 1 0.997671
1.00305 1.0058 0.999631 0.997635
0.999335 1.00195 0.999744 0.997642
0.999155 1.00134 0.999494 0.998327
0.995792 1.00621 0.990891 0.998749
0.964987 0.987811 0.983791 0.99299
0.956356 0.978347 0.99099 0.98641
0.965571 0.983957 0.987012 0.994228
0.997657 1.00587 0.993231 0.998598
0.999304 1.0002 1.00075 0.998355
0.998764 1.00668 0.994238 0.997884
0.963628 0.976348 0.991867 0.995065
0.942545 0.97682 0.978718 0.985893
0.985142 1.00239 0.984404 0.998367
0.981508 0.995245 0.991493 0.994658
1.00033 1.02379 0.978895 0.998149
1.00468 1.01345 0.993406 0.997933
1.00687 1.02983 0.979559 0.998113
1.02036 1.02585 0.996617 0.998025
1.00499 1.02411 0.983018 0.998277
1.01092 1.03278 0.980484 0.998323
1.00768 1.02534 0.984588 0.998165
1.01942 1.02678 0.994398 0.998424
1.01525 1.02282 0.994289 0.998298
1.01863 1.0237 0.997003 0.99804
1.01827 1.02145 0.998557 0.998327
1.01879 1.02153 0.99915 0.998165
1.01911 1.02129 1 0.997859
1.01715 1.01911 0.999891 0.998186
1.01715 1.01925 1 0.99794
1.01962 1.02196 1 0.997704
1.01695 1.01902 1 0.997971
1.01778 1.0201 1 0.997729
1.01416 1.01656 1 0.997643
1.017 1.01943 1 0.997612
1.01225 1.01463 1 0.997651
1.00349 1.00564 1 0.997856
0.998478 1 1 0.998478
1.0016 1.00371 1 0.997899
1.00836 1.01075 1 0.997632
0.999537 1 1 0.999537
0.998602 1 1 0.998602
1.00049 1.00246 1 0.998027
1 1 1 1
0.99965 1 1 0.99965
0.998771 1 1 0.998771
1 1 1 1
0.999765 1 1 0.999765
1 1 1 1
1.0018 1.00389 1 0.997914
0.999642 1.00142 1 0.998225
0.998457 1 1 0.998457
0.998551 1 1.00001 0.998544
0.998708 1 1 0.998708
0.999132 1 1 0.999132
0.998871 1 1 0.998871
0.999314 1 1 0.999314
0.999934 1 1 0.999934
0.999483 1 1 0.999483
0.999973 1 1 0.999973
1 1 1 1
0.999986 1 1 0.999986
1 1 1 1
1 1 1 1
1.00027 1.01051 0.991132 0.998716
0.961664 0.983696 0.984966 0.992524
0.951436 0.975829 0.988049 0.986797
1.00567 1.00764 1.00001 0.99804
1.01014 1.01251 1 0.997654
1.00464 1.00663 1.00013 0.997887
0.9985 1 1 0.9985
1.00019 1.0018 1.00024 0.998148
1.00055 1.00217 1 0.998381
1.00752 1.00978 1 0.997761
0.998588 1.00018 0.999989 0.998417
0.997903 1.00077 0.998922 0.998212
1.00177 1.00406 0.999996 0.99773
1.00976 1.01239 1 0.997407
1.011 1.01739 0.995757 0.997953
1.00307 1.00604 0.999444 0.997611
1.0001 1.00262 0.999881 0.997596
0.999775 1.00851 0.992468 0.998861
0.966787 0.987925 0.986511 0.991985
0.998236 1.00715 0.992199 0.998941
1.01383 1.02131 0.994098 0.998569
0.997587 1.00539 0.994262 0.997964
0.963116 0.980304 0.989001 0.993393
1.0021 1.02488 0.979554 0.99818
1.0028 1.01213 0.992703 0.99807
1.00595 1.02978 0.978642 0.998174
1.0223 1.02805 0.996364 0.998034
1.01767 1.03019 0.989792 0.998037
1.03231 1.03864 0.995757 0.998145
1.01343 1.03441 0.981365 0.998323
1.00869 1.02497 0.985926 0.998169
1.02114 1.02968 0.993747 0.997948
1.0159 1.02314 0.994612 0.998295
1.01881 1.0233 0.997579 0.998037
1.0227 1.02533 0.999621 0.997811
1.01866 1.02119 0.999351 0.998178
1.01931 1.0215 1 0.997858
1.02225 1.02467 1 0.997638
1.01695 1.01904 1 0.99794
1.0195 1.02185 1 0.997704
1.01628 1.01873 1 0.997593
1.01779 1.02009 1 0.99775
1.01399 1.01638 1 0.997649
1.00443 1.00664 1 0.997801
1.01213 1.01453 1 0.997631
1.0035 1.00567 1 0.997845
0.998431 1.00003 1 0.998403
0.999458 1 1 0.999458
0.998477 1 1 0.998477
1.00201 1.0041 1 0.997925
1 1 1 1
0.999526 1 1 0.999526
0.998602 1 1 0.998602
1 1 1 1
0.999638 1 1 0.999638
1 1 1 1
1.00339 1.00572 1 0.997677
1.00167 1.00379 1 0.997887
0.999259 1.00109 1 0.998174
0.99918 1.00095 1 0.99823
0.998462 1 1 0.998462
0.998932 1 1 0.998932
0.998715 1 1 0.998715
0.999143 1 1.00001 0.999133
0.999862 1 1 0.999862
0.999314 1 1 0.999314
0.999946 1 1 0.999946
1 1 1 1
0.999978 1 1 0.999978
1 1 1 1
1 1 1 1
1.01115 1.02194 0.991033 0.99839
0.99714 1.00952 0.989344 0.998376
0.959291 0.984179 0.981251 0.993336
1.01322 1.01554 1 0.997709
1.00508 1.00689 1 0.998199
1.01991 1.02241 1 0.997556
1.01019 1.01258 1 0.99764
1.00408 1.00598 1.00018 0.997928
1.01959 1.02222 1 0.997426
1.00115 1.00283 1 0.998326
1.00692 1.00924 1 0.997703
1.02491 1.02797 0.999441 0.997586
1.00224 1.00446 1 0.997789
1.0107 1.01336 1 0.997376
1.01098 1.01685 0.996247 0.997967
1.00276 1.00563 0.999564 0.997585
1.00307 1.01039 0.993783 0.998975
1.02712 1.03476 0.994385 0.99822
1.01359 1.02118 0.993986 0.998572
0.997309 1.00409 0.995197 0.99804
1.00523 1.02936 0.978285 0.998236
1.02302 1.02932 0.995825 0.998043
1.01664 1.0305 0.988482 0.998052
1.03242 1.0396 0.994934 0.998148
1.03062 1.03901 0.993865 0.998044
1.00954 1.02442 0.98728 0.998173
1.02102 1.02923 0.994048 0.997956
1.02609 1.03135 0.997073 0.997817
1.01901 1.02292 0.99814 0.998035
1.02242 1.02492 0.99976 0.997793
1.02438 1.02687 1 0.997575
1.01959 1.02178 1 0.997856
1.02204 1.02446 1 0.997637
1.01917 1.0217 1 0.997519
1.01942 1.02176 1 0.997705
1.01633 1.01878 1 0.997594
1.00583 1.00814 1 0.997714
1.01382 1.01621 1 0.997654
1.00464 1.00685 1 0.997804
0.998481 1.00015 1 0.998328
1.0035 1.00568 1 0.997834
0.998447 1.00005 1 0.998402
0.999512 1 1 0.999512
0.999856 1 1 0.999856
0.999488 1 1 0.999488
0.998477 1 1 0.998477
1 1 1 1
0.999515 1 1 0.999515
1 1 1 1
1.0258 1.02827 1 0.997602
1.01212 1.01452 1 0.99763
1.00394 1.0063 1 0.997662
1.00192 1.00395 1 0.997984
1.00144 1.00359 1 0.99786
0.998865 1.00069 1 0.998178
0.998729 1 1 0.998729
0.998467 1 1 0.998467
0.998935 1 1 0.998935
0.999738 1 1 0.999738
0.999134 1 1 0.999134
0.99988 1 1 0.99988
1 1 1 1
0.999957 1 1 0.999957
1 1 1 1
1 1 1 1
1.02826 1.03382 0.996644 0.997973
1.01456 1.02509 0.991243 0.998475
0.995066 1.00962 0.987527 0.998035
1.02227 1.02486 1 0.997479
1.01245 1.0147 1 0.997779
1.0044 1.00605 1 0.998356
1.01975 1.02223 1 0.997576
1.01025 1.01266 1 0.997625
1.02894 1.0315 0.999955 0.997568
1.01764 1.02031 1 0.997387
1.00645 1.00882 1 0.997644
1.02424 1.02715 0.999589 0.997579
1.0125 1.0152 1 0.997345
1.01295 1.01846 0.9966 0.997985
1.03357 1.03991 0.995762 0.998133
1.029 1.03603 0.994973 0.99823
1.0143 1.02114 0.994718 0.998576
1.01646 1.03163 0.987207 0.998067
1.0333 1.04099 0.99445 0.998151
1.03071 1.03975 0.993238 0.998057
1.02982 1.03527 0.996851 0.99788
1.02073 1.02867 0.994308 0.997964
1.02599 1.03076 0.997559 0.997809
1.02677 1.02926 1 0.997574
1.0221 1.02448 0.999897 0.997776
1.0248 1.02729 1 0.997575
1.02218 1.02479 1 0.997455
1.02179 1.02421 1 0.997635
1.01922 1.02176 1 0.997519
1.00745 1.00985 1 0.997618
1.01638 1.01882 1 0.997596
1.00607 1.00837 1 0.997715
0.998663 1.00043 1 0.99823
1.00485 1.00706 1 0.997806
0.998544 1.00022 1 0.998326
0.999509 1 1 0.999509
0.998463 1.00006 1 0.9984
0.999507 1 1 0.999507
0.999864 1 1 0.999864
0.99993 1 1 0.99993
0.999519 1 1 0.999519
1 1 1 1
1.02571 1.0283 1 0.997481
1.01715 1.01955 1 0.997652
1.02571 1.02807 1 0.9977
1.00434 1.0065 1 0.997858
1.01335 1.01576 1 0.997622
1.00458 1.00695 1 0.997646
1.00098 1.003 1 0.997983
0.998558 1.00001 1 0.998553
0.998524 1.00034 1 0.998182
0.998731 1 1 0.998731
0.999594 1 1 0.999594
0.998959 1 1.00002 0.998939
0.999756 1 1 0.999756
1 1 1 1
0.999897 1 1 0.999897
1 1 1 1
1 1 1 1
1.03198 1.03569 0.998561 0.997855
1.02822 1.03376 0.996667 0.99797
1.01593 1.02682 0.990827 0.998554
1.02885 1.03142 1 0.997503
1.02142 1.024 1 0.997482
1.01182 1.014 1 0.997851
1.01947 1.02192 1 0.997597
1.02877 1.03137 0.999938 0.997548
1.01572 1.01842 1 0.997349
1.02222 1.02503 0.999688 0.997573
1.03266 1.03725 0.997631 0.997941
1.03305 1.03915 0.996027 0.998095
1.03103 1.03764 0.995378 0.998241
1.02931 1.03306 0.998605 0.997768
1.03069 1.04035 0.992633 0.99807
1.02949 1.03505 0.996756 0.997868
1.02846 1.03104 0.999847 0.997655
1.02596 1.03021 0.998071 0.9978
1.02764 1.03013 1 0.997576
1.02389 1.02653 1 0.997424
1.02519 1.02769 1 0.997575
1.02191 1.02452 1 0.997456
1.00917 1.01166 1 0.997539
1.01925 1.02178 1 0.997519
1.00773 1.01013 1 0.997619
0.998935 1.00081 1 0.99813
1.0063 1.0086 1 0.997716
0.998761 1.00053 1 0.998228
0.999488 1 1 0.999488
0.99861 1.00029 1 0.998324
0.999502 1 1 0.999502
0.999867 1 1 0.999867
0.999505 1 1 0.999505
0.999867 1 1 0.999867
1 1 1 1
1.02637 1.02907 1 0.997382
1.01904 1.0216 1 0.997495
1.0263 1.02887 1 0.9975
1.00535 1.00754 1 0.997835
1.01725 1.01964 1 0.997656
1.02569 1.02795 1 0.997798
0.998618 1.00022 1 0.998399
1.00388 1.00604 1 0.997854
1.01469 1.01711 1 0.997614
0.999934 1.00196 1 0.997981
0.998555 1 1 0.998554
0.999483 1 1 0.999483
0.998733 1 1 0.998733
0.999607 1 1 0.999607
1 1 1 1
0.999774 1 1 0.999774
1 1 1 1
1 1 1 1
1.03195 1.03469 0.999637 0.997714
1.0319 1.03594 0.99826 0.99784
1.02876 1.03417 0.996791 0.997967
1.02832 1.03089 1 0.997511
1.02051 1.02309 1 0.997485
1.02839 1.03102 0.999922 0.997529
1.03 1.0328 0.999518 0.997772
1.03269 1.03727 0.99765 0.997933
1.03226 1.03813 0.996288 0.998057
1.02999 1.03362 0.998692 0.997786
1.02805 1.03054 0.999975 0.997607
1.02916 1.03485 0.996638 0.997857
1.02874 1.03127 0.999919 0.997623
1.02409 1.02669 1 0.997464
1.02847 1.03097 1 0.997579
1.02359 1.02623 1 0.997427
1.01068 1.01323 1 0.997477
1.02175 1.02435 1 0.997457
1.00958 1.01207 1 0.997539
0.999226 1.00118 1 0.998053
1.00805 1.01046 1 0.997619
0.999048 1.00092 1 0.99813
0.999444 1 1 0.999444
0.998864 1.00064 1 0.998227
0.999477 1 1 0.999477
0.999855 1 1 0.999855
0.999497 1 1 0.999497
0.999875 1 1 0.999875
0.999866 1 1 0.999866
1.02807 1.03058 1 0.997562
1.02146 1.02416 1 0.997364
1.0267 1.02938 1 0.997396
1.00762 1.00996 1 0.99768
1.01874 1.0213 1 0.997499
1.02682 1.02937 1 0.997519
0.998805 1.00052 1 0.998283
1.00532 1.00755 1 0.997789
1.01722 1.0196 1 0.99766
0.999423 1 1 0.999423
0.998581 1.00018 1 0.998402
1.00344 1.0056 1 0.997849
0.998555 1 1 0.998555
0.999493 1 1 0.999493
1 1 1 1
0.999621 1 1 0.999621
1 1 1 1
1 1 1 1
1.02838 1.03092 0.999859 0.997678
1.03117 1.03411 0.999437 0.997711
1.03202 1.03639 0.997953 0.997825
1.02779 1.03035 1 0.997518
1.02789 1.03039 1 0.997571
1.03063 1.03372 0.999237 0.997781
1.03264 1.03721 0.997667 0.997925
1.03067 1.03421 0.998776 0.997805
1.02742 1.03011 0.999774 0.997617
1.02347 1.02606 1 0.997475
1.02911 1.0316 1 0.997592
1.02382 1.02644 1 0.997448
1.01155 1.01414 1 0.99745
1.02326 1.02589 1 0.99743
1.01094 1.01349 1 0.997479
0.999345 1.00136 1 0.997984
1.0099 1.01239 1 0.99754
0.999276 1.00123 1 0.998052
0.999316 1 1 0.999316
0.99914 1.00101 1 0.998129
0.999398 1 1 0.999398
1 1 1 1
0.999468 1 1 0.999468
0.999866 1 1 0.999866
0.999878 1 1 0.999878
1.0265 1.02895 1 0.997617
1.02251 1.02514 1 0.99743
1.02768 1.0302 1 0.997558
1.01028 1.01282 1 0.997497
1.0215 1.02418 1 0.997385
1.02713 1.0298 1 0.99741
0.999148 1.00105 1 0.998095
1.00769 1.01003 1 0.997679
1.01853 1.02108 1 0.997503
0.999397 1 1 0.999397
0.998694 1.00045 1 0.998242
1.00532 1.00759 1 0.997744
1 1 1 1
0.999433 1 1 0.999433
0.998542 1.00014 1 0.998404
0.999504 1 1 0.999504
1 1 1 1
1 1 1 1
1.02664 1.02913 1 0.997581
1.02872 1.03123 0.999884 0.997687
1.03037 1.03353 0.999239 0.997709
1.02457 1.02722 1 0.997423
1.02695 1.02945 1 0.997577
1.03125 1.03461 0.998959 0.997791
1.02679 1.02968 0.99957 0.997627
1.0235 1.02609 1 0.997476
1.01149 1.01403 1 0.997501
1.0235 1.02613 1 0.997432
1.01154 1.0141 1 0.99748
0.999347 1.0015 1 0.997854
1.01125 1.0138 1 0.997481
0.999391 1.00141 1 0.997984
0.999264 1 1 0.999264
0.999356 1.00131 1 0.998052
0.999313 1 1 0.999313
1 1 1 1
0.999345 1 1 0.999345
0.999922 1 1 0.999922
0.999875 1 1 0.999875
1.02417 1.02666 1 0.997578
1.02279 1.02538 1 0.997475
1.02623 1.02868 1 0.997619
1.01132 1.01386 1 0.997501
1.023 1.02565 1 0.997422
1.0273 1.02982 1 0.997555
0.99972 1.00173 1 0.997988
1.01023 1.01272 1 0.997541
1.02148 1.02413 1 0.997407
0.999369 1 1 0.999369
0.999124 1.00105 1 0.998081
1.00774 1.01009 1 0.997678
1 1 1 1
0.999405 1 1 0.999405
0.998585 1.00038 1 0.998201
1 1 1 1
0.999444 1 1 0.999444
1 1 1 1
1.02483 1.02744 1 0.997465
1.02621 1.02871 1 0.997573
1.02913 1.0316 0.99991 0.997695
1.0107 1.01324 1 0.997487
1.02458 1.02721 1 0.997439
1.02607 1.02856 1 0.997584
1.02354 1.02613 1 0.997477
1.01153 1.01406 1 0.997501
0.99919 1.00138 1 0.997815
1.01155 1.01407 1 0.997509
0.999359 1.00147 1 0.997889
0.999199 1 1 0.999199
0.999404 1.00142 1 0.997985
0.999261 1 1 0.999261
1 1 1 1
0.999311 1 1 0.999311
1 1 1 1
0.999858 1 1 0.999858
1.02311 1.02568 1 0.997496
1.02437 1.02685 1 0.99759
1.01093 1.01346 1 0.997511
1.02281 1.0254 1 0.997474
1.02594 1.02839 1 0.997622
0.999774 1.00177 1 0.998009
1.01119 1.01372 1 0.997498
1.02348 1.02613 1 0.997414
0.999325 1 1 0.999325
0.999758 1.00174 1 0.998017
1.01017 1.01261 1 0.997584
1 1 1 1
0.999375 1 1 0.999375
0.999102 1.00104 1 0.998067
1 1 1 1
0.999414 1 1 0.999414
1 1 1 1
1.01018 1.01269 1 0.997524
1.02474 1.02735 1 0.997459
1.02569 1.0282 1 0.997565
0.99864 1.00083 1 0.997816
1.01073 1.01328 1 0.997487
1.02457 1.02718 1 0.997454
1.01156 1.0141 1 0.9975
0.999189 1.00137 1 0.997817
0.99915 1 1 0.99915
0.999388 1.00147 1 0.997923
0.999196 1 1 0.999196
1 1 1 1
0.999258 1 1 0.999258
1 1 1 1
1 1 1 1
1.01032 1.01285 1 0.997508
1.02274 1.0253 1 0.997508
1.02457 1.02704 1 0.997601
0.999354 1.00137 1 0.997986
1.011 1.01352 1 0.997508
1.02279 1.02539 1 0.997473
0.999277 1 1 0.999277
0.999826 1.00182 1 0.998007
1.01109 1.01363 1 0.997495
1 1 1 1
0.999329 1 1 0.999329
0.999803 1.00176 1 0.998045
1 1 1 1
0.999381 1 1 0.999381
1 1 1 1
0.998363 1.00046 1 0.997905
1.01013 1.01268 1 0.997487
1.02466 1.02728 1 0.997453
0.999147 1 1 0.999147
0.998658 1.00085 1 0.997814
1.01077 1.01332 1 0.997487
0.999188 1.00137 1 0.99782
0.99915 1 1 0.99915
1 1 1 1
0.999193 1 1 0.999193
1 1 1 1
1 1 1 1
0.998712 1.00076 1 0.99795
1.01019 1.01271 1 0.997505
1.02241 1.02495 1 0.99752
0.999346 1 1 0.999346
0.999508 1.00153 1 0.997984
1.01107 1.0136 1 0.997506
1 1 1 1
0.999279 1 1 0.999279
0.999858 1.00186 1 0.998005
1 1 1 1
0.999333 1 1 0.999333
1 1 1 1
0.999148 1 1 0.999148
0.998412 1.00054 1 0.997874
1.01009 1.01267 1 0.997451
1 1 1 1
0.999147 1 1 0.999147
0.998674 1.00086 1 0.997813
0.999148 1 1 0.999148
1 1 1 1
1 1 1 1
0.999299 1 1 0.999299
0.998906 1.00096 1 0.99795
1.01002 1.01255 1 0.997501
1 1 1 1
0.999238 1 1 0.999238
0.999672 1.00169 1 0.997982
1 1 1 1
0.99928 1 1 0.99928
1 1 1 1
0.999777 1 1 0.999777
0.999223 1 1 0.999223
0.998458 1.00062 1 0.997844
1 1 1 1
0.999147 1 1 0.999147
1 1 1 1
0.999794 1 1 0.999794
0.999252 1 1 0.999252
0.999104 1.00116 1 0.99795
0.9999 1 1 0.9999
0.999236 1 1 0.999236
1 1 1 1
1 1 1 1
0.999169 1 1 0.999169
1 1 1 1
0.999894 1 1 0.999894
0.9992 1 1 0.9992
1 1 1 1
1 1 1 1
1 1 1 1

VECTORS lamdaE float
1.00023 1.00015 0.995036
1.00007 1.00043 0.99763
0.999917 1.00035 0.995222
1.00052 0.999931 0.994837
1.00035 0.999951 0.995075
1.00019 1.00031 0.994904
1.00149 1.00048 0.992213
1.00009 1.00033 0.997634
0.999988 1.00023 0.997914
0.999585 1.00072 0.997965
1.00007 1.00033 0.995104
1.00131 1.00122 0.991204
1.00036 1.00001 0.994893
1.00008 0.999993 0.995137
0.999634 1.00057 0.995382
1.00028 0.999908 0.995069
0.999861 1.00061 0.995064
1.00008 1.00003 0.995274
1.00165 1.00033 0.992138
1.00035 1 0.997546
1.00053 0.99999 0.994734
1.00045 0.999878 0.995003
1.00186 0.999994 0.992085
1.00169 1.00011 0.992252
1.00021 1.00028 0.994838
1.00125 1.001 0.992095
1.00415 1.0003 0.987924
1.00008 1.00027 0.99766
1.00014 1.00011 0.996443
0.999826 1.00055 0.996474
1.00006 1.0001 0.997749
1.00121 1.00136 0.991201
1.00041 0.999844 0.994917
1.00013 1.00037 0.994987
1.00195 1.00018 0.992485
0.999583 0.999527 0.998389
1.00161 1.00083 0.992482
1.00096 1.00166 0.991374
1.00332 1.00175 0.987177
0.999669 0.998479 0.998728
1.00037 1.00001 0.99752
1.00025 1.00001 0.996328
1.00033 0.999995 0.99754
1.00002 1.00004 0.995205
1.00197 1.00003 0.991258
1.00016 0.999965 0.997834
1.00213 1.00011 0.992285
1.00005 0.999847 0.995301
0.999833 1.0001 0.99546
0.999544 1.00094 0.995207
1.0018 1.00016 0.992075
1.00022 1.00002 0.996354
1.00029 0.999993 0.994973
0.999865 1.00064 0.994992
1.00022 0.999863 0.995218
1.00195 0.99996 0.991988
1.00146 1.00078 0.992017
1.00182 1.00002 0.992171
1.00414 1.00032 0.987907
1.0003 0.999999 0.997561
1.00047 1.00002 0.994796
1.0018 1 0.992795
1.00187 1.00003 0.99202
1.0018 0.999966 0.992202
1.00436 0.999949 0.987794
1.0043 0.999968 0.987723
0.999972 0.999801 0.995433
1.00081 1.0017 0.992067
1.00389 1.00076 0.987875
1.00507 1.00005 0.985806
1.00032 1.00014 0.997607
0.999934 0.999875 0.997952
1.00007 1.00039 0.997628
1.00115 1.00146 0.991192
1.00044 0.999978 0.997569
1.0002 1.00032 0.997627
1.00185 1.00013 0.991278
0.999702 0.999606 0.997142
1.00139 1.00091 0.991311
1.00084 1.0017 0.992184
1.00338 1.00166 0.987161
0.999811 0.998944 0.998424
0.999739 1.00042 0.994825
1.00204 0.999991 0.991155
1.00175 1.00042 0.991272
1.00436 1.00022 0.986869
1.00043 1.00152 0.993709
1.00373 1.00099 0.987231
1.00231 1.0034 0.987336
1.00464 1.00138 0.985227
0.999592 0.998045 0.998974
0.999588 0.998395 0.998834
1.00044 0.999994 0.997513
1.00039 1.00001 0.997519
1.00036 0.999997 0.99754
1.00021 1.00002 0.996366
1.002 1.00001 0.991896
1.00029 0.999974 0.996343
1.00207 1.00012 0.991692
1.00035 0.999992 0.99755
1.00189 0.999944 0.991438
1.00209 1.0001 0.992372
1.00441 0.999689 0.987345
1.0021 1.00003 0.992371
1.00446 0.999896 0.987057
1.00032 1.00001 0.994951
1.00003 0.999988 0.995216
0.999513 1.00104 0.995155
0.999987 0.999825 0.99543
1.00205 0.999963 0.991891
1.00193 0.999929 0.992098
1.00165 1.00052 0.991948
1.00413 1.00034 0.98789
1.00034 0.999996 0.997555
1.00021 1.00002 0.995035
1.00192 0.999977 0.991725
1.00197 1.00001 0.991912
0.99985 1.00009 0.996635
1.00106 1.00157 0.9922
1.00191 0.999914 0.992116
1.00438 0.999927 0.987714
1.00388 1.00078 0.987885
1.00429 1.00003 0.987785
1.00504 1.00006 0.985831
1.00187 0.999972 0.991475
1.00181 1.00001 0.992109
1.00433 0.999653 0.987953
1.00437 0.99985 0.987683
1.00435 0.99987 0.987694
1.0052 0.999559 0.98635
0.999727 0.999487 0.99828
1.00514 0.999811 0.985914
1.00027 1.0021 0.991969
1.00326 1.00175 0.987259
1.00495 1.00046 0.985672
1.00523 0.999754 0.985803
0.9999 1.00137 0.993423
1.00021 1.00437 0.990013
1.00042 1.00001 0.997582
1.00014 1.00031 0.997637
1.00186 1.00011 0.991278
0.999781 0.999297 0.998322
1.00058 1.00197 0.991618
1.00135 1.00094 0.991318
1.00345 1.00157 0.987145
0.999718 0.998865 0.998538
0.999722 1.00032 0.994876
1.00205 1.00002 0.991797
1.00174 1.00044 0.991906
1.00435 1.00023 0.986864
1.00019 1.00161 0.992806
1.00374 1.00097 0.987237
1.00234 1.00334 0.987326
1.00459 1.00133 0.985215
0.999935 1.00106 0.993845
0.999748 0.999632 0.995577
1.0003 1.00337 0.990951
1.00444 1.00009 0.986868
1.00408 1.00056 0.98701
1.00513 1.00009 0.98566
1.00137 1.00411 0.988351
1.00477 1.00084 0.985463
1.00388 1.00296 0.985177
1.00502 1.00116 0.98491
0.999612 0.997733 0.999087
0.999559 0.997978 0.999023
0.999529 0.998283 0.998921
0.999816 1.00091 0.994035
0.999674 0.999119 0.998474
1.00046 0.999978 0.997541
1.00039 1.00001 0.997508
1.00197 1.00014 0.991107
1.00192 1.00001 0.99132
1.00033 1 0.997541
1.00032 0.999995 0.997548
1.00188 0.999952 0.991434
1.00202 1.00009 0.991774
1.0044 0.999687 0.987345
1.00199 1.00006 0.991125
1.00445 0.999895 0.987052
1.00186 0.99994 0.991479
1.00438 0.999627 0.987448
1.00443 0.999778 0.98721
1.00519 0.998934 0.986811
1.00447 1 0.986933
1.00522 0.999333 0.986351
1.00032 0.999993 0.997548
0.99997 1.00003 0.995275
1.00193 0.999969 0.990758
1.00207 1.00001 0.991802
0.999479 1.00035 0.998117
1.00139 1.00134 0.992331
1.00201 0.999886 0.992031
1.00439 0.999888 0.987633
1.00429 1.00009 0.987848
1.00386 1.00083 0.987895
1.00502 1.00008 0.985855
1.00185 0.999957 0.991476
1.00193 1.00001 0.991996
1.00435 0.999632 0.987637
1.0044 0.99989 0.987721
0.999768 0.999576 0.998193
1.00053 1.00187 0.992543
1.00314 1.00198 0.987543
1.00435 0.999902 0.987671
1.0052 0.999422 0.986383
1.00493 1.00048 0.985628
1.00513 0.999858 0.986017
1.00522 0.999745 0.985834
0.999943 1.00137 0.993415
1.00031 1.00418 0.990032
1.00434 0.999637 0.987508
1.00436 0.999771 0.98781
1.00518 0.999084 0.986847
1.0052 0.999149 0.986577
1.00518 0.99957 0.986333
1.00523 0.998467 0.987198
1.00004 1.00176 0.992746
1.00523 0.999204 0.986373
1.00191 1.00355 0.987784
1.00469 1.00115 0.985237
1.0052 1.00045 0.985343
1.0052 0.99889 0.986827
1.00065 1.00424 0.989411
1.00016 1.00361 0.990854
1.00092 1.00471 0.988619
1.00196 1 0.991214
0.999624 0.998772 0.998659
0.999708 1.00022 0.994926
1.0016 1.00048 0.991336
1.00435 1.00024 0.986859
1.00009 1.0017 0.992723
1.00234 1.00331 0.987315
1.00374 1.00095 0.987243
1.00455 1.00128 0.985204
0.999893 1.00102 0.99387
0.99976 0.999514 0.995618
1.00013 1.00357 0.990953
1.00443 1.00011 0.986858
1.00409 1.00055 0.987009
1.00514 1.00009 0.98564
1.00127 1.0042 0.988379
1.00481 1.00083 0.985474
1.00382 1.00293 0.985166
1.00497 1.00103 0.984877
0.999865 0.999016 0.995959
1.00077 1.00384 0.989629
1.00008 1.00239 0.992281
1.00048 1.00464 0.989369
1.00517 0.99984 0.985865
1.00499 1.00044 0.985545
1.0052 0.999554 0.98609
1.0025 1.0042 0.986474
1.00512 1.00055 0.985277
1.00443 1.00232 0.984725
1.00515 1.00096 0.984812
1.00027 1.00045 0.993857
1.00008 0.998425 0.996156
0.999683 0.997499 0.999123
0.999605 0.997693 0.9991
0.999538 0.997917 0.999057
0.999819 1.00028 0.994688
0.999636 0.998727 0.998654
0.999849 1.00096 0.994012
0.999727 0.999166 0.998408
1.00199 1.00009 0.99112
1.00196 1.00008 0.991191
1.00445 0.999894 0.987047
1.0044 0.999687 0.987346
1.00189 0.99996 0.991433
1.00035 0.999995 0.997542
1.00187 0.999943 0.991479
1.00437 0.999633 0.987448
1.00443 0.999783 0.987207
1.00518 0.998942 0.986805
1.00446 1.00001 0.986921
1.00522 0.999336 0.986341
1.00435 0.999626 0.987501
1.00517 0.998835 0.986935
1.00521 0.999106 0.986602
1.00519 0.99743 0.988351
1.00521 0.999579 0.986099
1.00523 0.998123 0.987571
1.00187 0.999945 0.991479
1.00203 0.999989 0.991882
1.00437 0.999599 0.987323
1.00442 0.999923 0.98776
0.999843 0.999689 0.998093
1.00078 1.00175 0.992994
1.00314 1.00214 0.987825
1.00436 0.999923 0.987649
1.00519 0.999281 0.986416
1.00512 0.999908 0.98612
1.00492 1.0005 0.985585
1.00522 0.999736 0.985864
0.999995 1.00136 0.993405
1.0004 1.00398 0.990049
1.00434 0.999582 0.987468
1.00438 0.999754 0.987794
1.00518 0.998959 0.986988
1.0052 0.999288 0.986518
1.00012 1.00174 0.99273
1.00204 1.00343 0.987785
1.00465 1.00122 0.985292
1.00518 0.999655 0.986263
1.00523 0.998287 0.987412
1.0052 1.00044 0.985337
1.00523 0.999197 0.986395
1.0052 0.998841 0.986828
1.00074 1.00407 0.989408
1.00078 1.00465 0.988645
1.0002 1.00356 0.990854
1.00517 0.99897 0.986974
1.00519 0.999033 0.986906
1.00521 0.99759 0.988134
1.00523 0.998009 0.98765
1.00522 0.998555 0.987041
1.00517 0.9969 0.988776
1.00114 1.00399 0.988737
1.00519 0.997959 0.987585
1.00351 1.003 0.985723
1.00515 1.00119 0.984416
1.0052 1.00005 0.985676
1.00513 0.997979 0.987776
1.00018 1.00268 0.991751
1.00139 1.00402 0.988321
1.00038 1.00497 0.988984
1.00166 1.00389 0.988302
1.00442 1.00012 0.986848
0.999771 0.999409 0.995659
0.999843 1.001 0.993895
1.00001 1.0037 0.990955
1.0041 1.00055 0.987008
1.00516 1.00008 0.985621
1.00117 1.00427 0.988408
1.00378 1.00295 0.985154
1.00485 1.00084 0.985484
1.0049 1.00091 0.984843
0.999878 0.998952 0.995977
1.00069 1.00396 0.989636
1.00005 1.00233 0.992315
1.00036 1.00487 0.989327
1.00518 0.999846 0.98585
1.00501 1.00042 0.985519
1.00519 0.999558 0.986078
1.00238 1.0042 0.986507
1.00514 1.00061 0.985263
1.00446 1.00216 0.98473
1.00516 1.00097 0.984744
0.999998 0.998627 0.996097
1.0002 1.0013 0.993155
1.00128 1.00448 0.988208
1.00021 1.004 0.990552
1.00103 1.0043 0.988914
1.0052 0.999077 0.986594
1.00517 1.00005 0.985586
1.00513 0.998774 0.986888
1.00305 1.00349 0.986069
1.00515 1.0002 0.985564
1.00443 1.00191 0.984544
1.00028 1.00052 0.993764
1.00024 1.00184 0.99255
1.00022 1.00046 0.993933
1.00026 1.00046 0.993855
1.00011 0.998247 0.99678
1.00007 0.998409 0.996451
0.999839 0.997309 0.997986
0.999689 0.99746 0.999126
0.999602 0.997647 0.999111
0.999838 0.999667 0.995298
0.999634 0.998307 0.998844
0.999825 1.00035 0.994662
0.999691 0.998799 0.99859
0.99989 1.00097 0.993988
0.999769 0.999227 0.99834
1.00445 1.00002 0.98691
1.00443 0.999786 0.987204
1.00522 0.999353 0.98633
1.00518 0.998951 0.9868
1.00437 0.999639 0.987448
1.00186 0.999944 0.991476
1.00435 0.999625 0.987502
1.00517 0.998839 0.986933
1.0052 0.999121 0.986593
1.0052 0.997292 0.988505
1.00521 0.999589 0.986089
1.00523 0.998136 0.987553
1.00517 0.998816 0.986965
1.00515 0.997067 0.988856
1.00522 0.997675 0.988032
1.00518 0.995886 0.989809
1.00521 0.998628 0.987085
1.0052 0.996515 0.989015
1.00435 0.999531 0.987428
1.0044 0.99975 0.987778
1.00518 0.998847 0.987129
1.00519 0.99943 0.986459
1.00022 1.00172 0.992712
1.00204 1.00339 0.987787
1.00457 1.00129 0.985346
1.00518 0.999741 0.986192
1.00523 0.998107 0.987626
1.00522 0.999189 0.986417
1.0052 1.00041 0.98533
1.0052 0.998789 0.986827
1.00082 1.00395 0.989403
1.00073 1.00464 0.98867
1.00024 1.00346 0.990855
1.00517 0.99892 0.986953
1.0052 0.999032 0.986898
1.00521 0.997351 0.988411
1.00523 0.998101 0.987566
1.00118 1.004 0.988705
1.00353 1.00292 0.98572
1.00512 1.00128 0.984448
1.00522 0.998737 0.986864
1.00517 0.996696 0.988995
1.0052 1.00004 0.985601
1.00519 0.997972 0.987597
1.00514 0.997855 0.987903
1.00149 1.00399 0.988307
1.0016 1.00393 0.988283
1.00021 1.00265 0.991739
1.00032 1.00488 0.989088
1.00518 0.997313 0.988523
1.00522 0.997742 0.988047
1.00514 0.996105 0.989644
1.00518 0.996009 0.989567
1.00517 0.997195 0.98842
1.00514 0.995965 0.989821
1.00231 1.00369 0.987123
1.00512 0.996589 0.98889
1.0042 1.00275 0.984585
1.00515 1.00133 0.984341
1.00518 0.999546 0.985969
1.00512 0.997592 0.988126
1.00015 1.00192 0.992528
1.00023 1.00445 0.989751
1.00211 1.0033 0.987798
1.00065 1.00503 0.98864
1.00198 1.00323 0.988478
0.999885 0.998904 0.995996
1.00519 0.99985 0.985834
1.00002 1.00229 0.992348
1.00056 1.00414 0.989643
1.00024 1.00502 0.989286
1.00504 1.00041 0.985492
1.00519 0.999562 0.986066
1.00237 1.00405 0.986541
1.00449 1.002 0.984737
1.00515 1.00065 0.985249
1.00517 1.00097 0.984678
1 0.998611 0.996107
1.00017 1.0013 0.993177
1.00128 1.00443 0.988218
1.00007 1.0041 0.990544
1.00087 1.00425 0.988911
1.0052 0.999073 0.986581
1.00518 1.00005 0.985567
1.00513 0.998747 0.986858
1.00304 1.00345 0.986076
1.00518 1.00023 0.985448
1.0047 1.00183 0.984512
1.00027 1.00075 0.993573
1.00018 1.00288 0.991707
1.00187 1.00362 0.988003
1.00034 1.00483 0.989664
1.00135 1.00342 0.989193
1.00516 0.998101 0.987544
1.00514 0.999414 0.986195
1.00509 0.998115 0.987243
1.00315 1.00275 0.986241
1.00499 1.00096 0.984747
1.00028 1.00052 0.99376
1.00025 1.00179 0.992488
1.00018 1.0019 0.992506
1.00024 1.00251 0.992021
1.00019 1.00189 0.992582
1.00016 1.00051 0.993969
1.00022 1.00045 0.993933
1.00013 0.998178 0.996807
1.00025 1.00047 0.993854
1.00011 0.998268 0.996784
0.999933 0.997087 0.998017
1.00006 0.998408 0.996742
0.999803 0.99727 0.998565
0.999699 0.997408 0.99913
0.99989 0.999086 0.995791
0.999834 0.999725 0.99527
0.999639 0.997919 0.998992
0.999667 0.998395 0.998772
0.999828 1.00044 0.994636
0.999741 0.998848 0.998523
1.0052 0.999597 0.986079
1.0052 0.999122 0.986584
1.00523 0.998144 0.987536
1.0052 0.997152 0.98866
1.00517 0.998842 0.986932
1.00435 0.999624 0.987502
1.00516 0.998817 0.986968
1.00515 0.997066 0.988868
1.00523 0.997686 0.988021
1.00518 0.99574 0.989972
1.00521 0.998618 0.987064
1.0052 0.996413 0.989146
1.00515 0.997097 0.988841
1.00517 0.9957 0.990054
1.0052 0.995828 0.989812
1.0052 0.995061 0.99052
1.00518 0.997315 0.988306
1.00519 0.99555 0.989985
1.00516 0.998866 0.986932
1.0052 0.999039 0.98689
1.0052 0.9971 0.988688
1.00522 0.99819 0.987482
1.00124 1.004 0.988674
1.00356 1.00284 0.985716
1.00501 1.00132 0.984479
1.00522 0.998921 0.986687
1.00518 0.99649 0.989215
1.00519 0.997984 0.987609
1.00519 1.00005 0.985527
1.00514 0.997732 0.98803
1.00146 1.00403 0.988294
1.00139 1.00399 0.988264
1.00025 1.00264 0.991726
1.00027 1.00482 0.989193
1.00518 0.99732 0.988517
1.00522 0.997835 0.987918
1.00515 0.9959 0.989875
1.00519 0.996105 0.989453
1.00221 1.00392 0.98708
1.00419 1.00265 0.984611
1.00514 1.00134 0.984311
1.00517 0.997386 0.98821
1.00513 0.995677 0.990007
1.00517 0.999585 0.985946
1.00513 0.99661 0.988889
1.00513 0.997329 0.988269
1.00223 1.00324 0.987765
1.00191 1.00315 0.988551
1.00065 1.00503 0.988613
1.00016 1.00193 0.992457
1.00015 1.00443 0.989877
1.00515 0.995614 0.990237
1.00518 0.995753 0.989968
1.00516 0.995116 0.99042
1.00513 0.995841 0.989651
1.0029 1.00352 0.986217
1.00515 0.996117 0.989526
1.00467 1.00246 0.98388
1.00499 1.00132 0.984472
1.00513 0.99917 0.986227
1.00007 1.00122 0.993187
1.0001 1.00377 0.990871
1.00048 1.00475 0.989316
1.00247 1.00306 0.987568
1.00089 1.0048 0.9882
1.00221 1.00247 0.98827
1 0.998601 0.996117
1.00014 1.00128 0.993198
1.0052 0.999068 0.986569
0.999924 1.00424 0.990537
1.00116 1.00453 0.988229
1.00072 1.0042 0.988907
1.00519 1.00005 0.985548
1.00513 0.998722 0.986827
1.00302 1.0034 0.986083
1.00491 1.0018 0.984478
1.0052 1.00026 0.985332
1.00025 1.00075 0.993579
1.00008 1.00293 0.99173
1.00191 1.00359 0.987997
1.00017 1.00491 0.989629
1.00127 1.00326 0.98929
1.00515 0.998117 0.987521
1.00514 0.999414 0.986171
1.00509 0.998148 0.987306
1.0033 1.00267 0.986023
1.005 1.00104 0.984774
1.00023 1.00212 0.99235
0.999817 1.00429 0.990586
1.00257 1.00222 0.988118
1.00026 1.00476 0.989496
1.00188 1.00222 0.989181
1.00511 0.996646 0.988775
1.00509 0.99953 0.986067
1.00507 0.997967 0.987346
1.00408 1.00195 0.985693
1.00486 1.00087 0.985061
1.00028 1.00051 0.993757
1.00025 1.00182 0.992511
1.00007 1.0025 0.992064
1.00014 1.00195 0.992462
1.00016 1.00194 0.992577
1.00013 1.00259 0.991972
1.00008 1.00286 0.991862
1.00009 1.00275 0.991766
1.00012 1.00202 0.992589
1.0001 1.00062 0.993968
1.00016 1.00051 0.993969
1.00013 0.998174 0.99681
1.00021 1.00044 0.993934
1.00013 0.998202 0.996807
0.999997 0.996962 0.998028
1.00012 0.998278 0.99679
0.999922 0.997058 0.998024
0.999763 0.997223 0.999155
0.999938 0.998635 0.996173
0.999878 0.999161 0.995759
0.999672 0.997612 0.999091
0.999828 0.9998 0.995244
0.999664 0.998006 0.998948
0.999711 0.998465 0.998708
1.00522 0.998609 0.987042
1.00523 0.997701 0.98801
1.0052 0.996311 0.989278
1.00517 0.995613 0.990135
1.00515 0.997065 0.988879
1.00516 0.998818 0.98697
1.00515 0.997193 0.988718
1.00516 0.995744 0.99005
1.00519 0.995863 0.989794
1.0052 0.995036 0.990562
1.00518 0.997356 0.988296
1.00518 0.995345 0.990161
1.00517 0.995644 0.990197
1.00523 0.994961 0.990694
1.00519 0.995065 0.990496
1.00516 0.995671 0.989843
1.00517 0.997327 0.988511
1.00521 0.997927 0.987789
1.00515 0.995708 0.990105
1.0052 0.996209 0.989338
1.00222 1.00403 0.987038
1.00428 1.00256 0.984638
1.00514 1.00139 0.984282
1.00517 0.997578 0.988001
1.00513 0.995397 0.990191
1.00514 0.996631 0.988888
1.00516 0.999616 0.985922
1.00514 0.997078 0.988413
1.00234 1.00322 0.987733
1.00193 1.0029 0.988622
1.00063 1.00504 0.988585
1.00017 1.0019 0.992387
1.00012 1.00437 0.990004
1.00517 0.995622 0.990227
1.00518 0.995773 0.989907
1.00515 0.995246 0.99033
1.00288 1.00364 0.986206
1.00462 1.00243 0.983959
1.00503 1.00124 0.98445
1.00514 0.995859 0.989642
1.00513 0.998952 0.986525
1.00514 0.996081 0.989376
1.00008 1.0011 0.993303
1.00263 1.00284 0.987498
1.002 1.00225 0.988871
1.00105 1.0049 0.988137
1.00049 1.00484 0.989337
1.00011 1.00373 0.990806
1.00522 0.995024 0.990527
1.00517 0.995142 0.990499
1.00514 0.994976 0.990389
1.00516 0.995276 0.990194
1.0037 1.00307 0.985467
1.00512 0.997167 0.98824
1.00502 1.00246 0.983214
1.00497 1.00141 0.984288
1.00014 1.00029 0.994028
1.00007 1.00283 0.991879
1.00029 1.00434 0.990107
1.00075 1.00502 0.988507
1.00265 1.00279 0.987069
1.00205 1.00368 0.987562
1.00023 1.00075 0.993585
1 1.00295 0.991753
1.00515 0.998131 0.987497
0.999996 1.00499 0.989595
1.00195 1.00353 0.987992
1.00101 1.00318 0.989391
1.00514 0.999415 0.986148
1.00509 0.998184 0.987367
1.0035 1.00264 0.985803
1.00502 1.0011 0.984801
1.00018 1.00213 0.992364
0.999897 1.00435 0.990547
1.00266 1.00227 0.988103
1.00009 1.00493 0.989537
1.00171 1.00191 0.989681
1.00512 0.996608 0.98896
1.00509 0.999524 0.986139
1.00507 0.998055 0.98734
1.00401 1.00213 0.985502
1.00493 1.00089 0.984896
0.999885 1.00297 0.991814
0.999778 1.00504 0.98969
1.00326 1.00135 0.987766
1.00082 1.00361 0.988723
1.00518 0.995356 0.989882
1.00507 0.997018 0.988744
1.00497 0.999823 0.985768
1.00436 1.00095 0.985254
1.00027 1.00181 0.992534
1.00009 1.00251 0.992074
0.999838 1.00302 0.992189
1.00012 1.00201 0.992572
1.00003 1.00266 0.991923
1.00011 1.00203 0.992582
1.00002 1.00284 0.991905
1.00012 1.00274 0.991802
0.999973 1.00266 0.992215
1.00007 1.00314 0.991521
1.00012 1.00292 0.991567
1.00009 1.00211 0.992525
1.00005 1.00073 0.993928
1.00011 1.0006 0.993967
1.00012 0.998203 0.996804
1.00017 1.00049 0.99397
1.00013 0.998205 0.996809
1.00004 0.996895 0.998025
1.00014 0.998226 0.99681
0.999989 0.996929 0.998034
0.999908 0.997035 0.998025
1.00003 0.998229 0.996434
0.999945 0.998669 0.996142
0.999731 0.997284 0.999165
0.999866 0.999236 0.995725
0.999684 0.99766 0.999064
0.999693 0.998079 0.998885
1.00517 0.997395 0.988286
1.00519 0.995898 0.989777
1.00517 0.995139 0.990337
1.0052 0.994988 0.990604
1.00516 0.995772 0.990047
1.00515 0.997292 0.988596
1.00517 0.995709 0.990128
1.00523 0.99496 0.990678
1.00518 0.995104 0.990464
1.00517 0.995586 0.989938
1.00523 0.995006 0.990665
1.00519 0.99495 0.990665
1.00518 0.994996 0.990435
1.00518 0.995639 0.990218
1.00518 0.995793 0.989845
1.00514 0.995374 0.990241
1.00289 1.00377 0.986195
1.00454 1.0024 0.984035
1.00504 1.00119 0.984427
1.00514 0.995871 0.989633
1.00513 0.996025 0.989225
1.00513 0.99873 0.986824
1.00281 1.00266 0.987426
1.00175 1.00215 0.989471
1.00126 1.00501 0.988075
1.00009 1.00101 0.99342
1.0004 1.00487 0.989356
1.00012 1.00368 0.990741
1.00521 0.99506 0.99056
1.00517 0.995044 0.990546
1.00513 0.995045 0.99043
1.00349 1.00326 0.985451
1.00485 1.0025 0.983324
1.00494 1.00121 0.984601
1.00515 0.995284 0.990155
1.00512 0.997102 0.988177
1.00012 1.00026 0.994186
1.00008 1.00282 0.991877
1.0024 1.00265 0.987433
1.0019 1.00374 0.988062
1.0007 1.00502 0.988692
1.00026 1.00439 0.990036
1.00517 0.99493 0.990728
1.00515 0.994927 0.990534
1.00513 0.995031 0.990434
1.00511 0.995055 0.990102
1.00394 1.00303 0.984218
1.00477 1.00044 0.985541
1.00505 1.0027 0.98307
1.00021 0.999842 0.994568
1.00021 1.00098 0.993481
1.00009 1.00173 0.992776
1.00002 1.00389 0.990845
1.00024 1.00485 0.989406
1.00049 1.00463 0.988788
1.0026 1.00185 0.987686
1.00196 1.00356 0.988919
1.00012 1.00218 0.992378
0.999972 1.00445 0.990509
1.00513 0.996565 0.989145
1.00017 1.00497 0.989574
1.00273 1.00236 0.98809
1.00151 1.00165 0.990178
1.00508 0.999504 0.986214
1.00508 0.998131 0.987336
1.00393 1.00226 0.985317
1.00499 1.0009 0.984731
0.999903 1.00305 0.991708
0.999881 1.00496 0.989772
1.00321 1.00141 0.987861
1.00118 1.00368 0.988858
1.00518 0.99529 0.989999
1.00508 0.997023 0.988559
1.005 0.999779 0.985777
1.00464 1.00104 0.985124
0.999721 1.00374 0.991365
1.0052 0.994903 0.99028
1.00073 1.00488 0.989109
1.00336 1.00186 0.986996
1.00514 0.99581 0.989941
1.00505 0.99852 0.986154
1.00497 1.00111 0.98487
1.00009 1.00255 0.992084
0.999809 1.00298 0.992157
0.999535 1.00305 0.992696
1.00011 1.002 0.992575
1.00013 1.00273 0.991839
0.999836 1.00293 0.991947
1.0001 1.00209 0.992513
1.00009 1.00293 0.99159
0.999791 1.00277 0.992282
1.00015 1.00304 0.991541
0.999956 1.0024 0.992719
0.99991 1.00303 0.991909
1.00018 1.00343 0.991081
1.00026 1.00293 0.99138
1.00012 1.00224 0.992351
1.00001 1.00087 0.993849
1.00004 1.00076 0.993923
1.0001 0.998281 0.996764
1.0001 1.00061 0.993966
1.00012 0.998243 0.9968
1.00006 0.996856 0.998023
1.00014 0.998236 0.996808
1.00003 0.996861 0.998029
0.999986 0.996898 0.998037
1.00019 0.999831 0.994624
1.00009 0.997993 0.996573
1.00003 0.998259 0.996417
0.99982 0.997004 0.999211
0.999948 0.998715 0.996111
0.999736 0.997367 0.999144
0.999702 0.997733 0.999037
1.00517 0.995502 0.990033
1.00518 0.995146 0.990433
1.00524 0.994973 0.990663
1.00517 0.995761 0.990059
1.00523 0.994959 0.990715
1.00518 0.99495 0.990684
1.00517 0.995021 0.99041
1.00518 0.994956 0.990724
1.00521 0.994944 0.990543
1.00522 0.994927 0.990866
1.00521 0.995086 0.990594
1.00517 0.99494 0.990593
1.00513 0.995108 0.99047
1.00329 1.00343 0.985435
1.00475 1.00256 0.983439
1.00492 1.001 0.984914
1.00515 0.995311 0.990116
1.00512 0.997031 0.988116
1.00218 1.00257 0.9878
1.00182 1.00379 0.988559
1.00049 1.00499 0.988878
1.00011 1.00019 0.994345
1.00013 1.00278 0.991875
1.00023 1.00453 0.989965
1.00518 0.994933 0.990702
1.00019 0.999864 0.994562
1.00017 1.00102 0.993408
1.00515 0.994922 0.990546
1.00513 0.995022 0.990431
1.00372 1.00322 0.984574
1.00498 1.00266 0.983213
1.00485 1.00021 0.985475
1.00511 0.995248 0.990042
1.00009 1.00173 0.992961
1.00008 1.00385 0.990819
1.00286 1.0024 0.987321
1.00134 1.00358 0.989313
1.00055 1.00462 0.988972
1.0002 1.00489 0.989488
1.00521 0.994944 0.990489
1.00515 0.994867 0.99054
1.00512 0.994919 0.990213
1.00472 0.9959 0.989814
1.00354 1.0031 0.985161
1.00441 1.00326 0.983896
1.0001 1.00122 0.993241
1.00018 1.00107 0.993422
1.00037 1.00153 0.992793
1.00013 1.00295 0.991425
1 1.0046 0.990325
1.00102 1.00433 0.9888
0.999828 1.00485 0.989401
1.00202 1.00117 0.989337
0.999927 1.00312 0.991603
1.00006 1.00487 0.989858
1.00518 0.99523 0.990116
1.00509 0.997068 0.988375
1.00152 1.00373 0.988993
1.00317 1.00144 0.987953
1.00502 0.99975 0.985783
1.00489 1.00115 0.984991
0.999803 1.00372 0.991318
1.00521 0.99491 0.990395
1.00051 1.00485 0.989161
1.00335 1.00181 0.986924
1.00513 0.995691 0.989925
1.00497 0.998636 0.98643
1.00489 1.00116 0.984922
0.999866 1.00464 0.990656
1.00453 0.995081 0.991685
1.00204 1.00358 0.988534
1.00391 1.00198 0.986345
1.00489 0.99646 0.98925
1.00394 1.00107 0.985741
0.99882 0.99733 0.990563
0.999739 1.00299 0.992127
0.999378 1.00317 0.992677
0.999627 1.00325 0.992631
1.00008 1.00211 0.992501
1.00007 1.00296 0.991611
1.00026 1.00294 0.991562
0.99969 1.00278 0.992349
1.00011 1.00224 0.99235
1.00022 1.00301 0.991366
0.99992 1.00239 0.992652
1.00014 1.00349 0.991085
1.00003 1.00295 0.991828
0.999958 1.00258 0.992396
1.00027 1.00353 0.990838
1.00019 1.00354 0.990979
1.00037 1.00308 0.991072
1.00015 1.00238 0.992026
1.00026 1.00282 0.991667
1.00016 1.00243 0.991916
1.00001 1.00091 0.993806
1.00001 1.00088 0.993843
1.00011 0.998377 0.996147
1.00005 1.00074 0.993917
1.00011 0.998329 0.996467
1.00003 0.996846 0.99915
1.00012 0.998282 0.996796
1.00006 0.996818 0.998028
1.00003 0.996828 0.998031
1.00014 0.999825 0.994691
1.0002 0.99979 0.994633
1.0001 0.997876 0.996678
1.00007 0.997999 0.996828
0.999892 0.996822 0.999241
1.00003 0.998286 0.9964
0.999811 0.997072 0.999199
0.999742 0.997416 0.999124
1.00517 0.995045 0.990385
1.00518 0.99495 0.990703
1.00523 0.994924 0.990764
1.00519 0.994956 0.990726
1.00521 0.994942 0.990546
1.00522 0.994933 0.990522
1.00525 0.994965 0.990475
1.00104 0.994854 0.98688
1.00442 0.994904 0.993056
1.00003 1.00127 0.993444
1.00519 0.994935 0.990676
1.00514 0.994915 0.990558
1.00513 0.995013 0.990427
1.00343 1.00334 0.984925
1.00495 1.0026 0.983356
1.00493 1 0.985413
1.0051 0.995454 0.989981
1.00326 1.00261 0.986958
1.00068 1.00358 0.989714
1.00068 1.00458 0.989157
1.00017 0.99991 0.994557
1.00019 1.00494 0.98957
1.00007 1.00171 0.993144
1.00017 1.0038 0.990793
1.00016 1.00101 0.993335
1.0052 0.994939 0.990492
1.00011 1.00117 0.993339
1.00015 1.00112 0.993417
1.00034 1.00154 0.992735
1.00514 0.994886 0.990524
1.00513 0.994917 0.990239
1.00373 1.00298 0.985206
1.00431 1.00263 0.984452
1.00462 0.99636 0.989713
1.00004 1.00301 0.991573
1.00011 1.0045 0.990153
1.00194 1.00203 0.989044
1.00027 1.0047 0.989441
1.00089 1.00426 0.988901
1.0052 0.995102 0.990539
1.00515 0.994873 0.99051
1.00508 0.995543 0.989755
1.00441 0.998234 0.988999
1.0019 1.00328 0.988313
1.00011 1.00215 0.992293
1.00039 1.00172 0.992267
1.00016 1.00231 0.992023
0.999886 1.00445 0.990954
1.00007 1.00456 0.989874
1.0002 1.00452 0.9894
1.0006 1.00332 0.989845
0.999938 1.00366 0.991269
1.00019 1.00483 0.989211
1.00523 0.994909 0.990505
1.00512 0.995533 0.989907
1.00494 0.998771 0.986706
1.00336 1.00174 0.986855
1.00485 1.00116 0.984977
0.999949 1.00452 0.990758
1.00447 0.995065 0.991801
1.00169 1.00359 0.988599
1.00363 1.00201 0.986373
1.00494 0.996068 0.98957
1.0041 1.00124 0.985711
0.99885 0.997462 0.988447
1.00002 1.00452 0.990497
1.00278 0.997577 0.991744
1.00161 1.00287 0.989123
1.00259 1.00172 0.987636
1.00373 0.997469 0.989154
1.00014 0.995316 0.95291
0.99704 0.994907 0.971803
0.9965 1.00223 0.989859
0.999789 0.99641 0.897071
0.994704 0.996612 0.8716
0.999248 1.00329 0.992659
0.999249 1.00347 0.992733
0.999657 1.00312 0.992451
1.0001 1.00224 0.992348
1.00027 1.00292 0.99135
1.00011 1.00353 0.991089
1.00014 1.00288 0.991747
0.999842 1.00239 0.992586
1.00023 1.00349 0.990941
1.00015 1.00236 0.992098
1.00035 1.00307 0.9911
0.999963 1.00255 0.992309
1.00018 1.00357 0.990968
1.00021 1.00367 0.99095
0.99977 1.00328 0.991684
1.0003 1.0036 0.990751
1.00035 1.00312 0.990998
1.0002 1.00243 0.991887
1.00033 1.00314 0.991149
1.00017 1.003 0.991559
1.00012 1.00274 0.991831
1.00024 1.00284 0.991606
1.00023 1.00211 0.992296
1.00018 1.00244 0.991901
1.00006 1.00085 0.993787
1.00001 1.00092 0.993804
1.0001 0.998439 0.996127
0.999999 1.00091 0.993838
1.0001 0.998392 0.996145
1.00003 0.996844 0.999147
1.00011 0.998378 0.996171
1.00005 0.996844 0.998572
1.00006 0.996781 0.998031
1.00008 0.999851 0.994776
1.00015 0.999811 0.994695
1.00011 0.997784 0.996762
1.00021 0.999754 0.994642
1.0001 0.997835 0.996934
0.999943 0.99666 0.999271
1.00008 0.998036 0.996547
0.999882 0.996898 0.999227
0.999807 0.997134 0.999188
1.0052 0.994938 0.990549
1.00519 0.994956 0.990728
1.00521 0.994937 0.990179
1.00087 0.994939 0.987004
1.00523 0.994963 0.990476
1.00429 0.995292 0.992654
1.005 0.996229 0.991111
0.996832 0.994887 0.970793
1.00061 0.996789 0.988645
1.00005 1.0013 0.99339
1.00009 1.00121 0.993437
1.00003 1.00224 0.99247
1.00003 1.0022 0.992523
1.0052 0.994936 0.990496
1.00514 0.994898 0.990508
1.00513 0.99491 0.990263
1.00423 1.00266 0.985249
1.00414 1.00185 0.985002
1.00455 0.996872 0.989608
1.00167 1.00308 0.98875
1.00079 1.00457 0.989479
1.00076 1.00413 0.989001
1.00012 1.0012 0.993411
1.00016 1.00447 0.98998
1.00006 1.00303 0.991723
1.00011 1.00117 0.993438
1.00027 1.00158 0.992675
1.00521 0.995017 0.990536
1.00014 1.00216 0.992384
1.00036 1.00173 0.99245
0.999943 1.00225 0.992465
1.00516 0.994872 0.990418
1.00495 0.995472 0.989778
1.00247 1.00243 0.988226
1.00406 0.99806 0.989413
1 1.00422 0.990795
1.00021 1.00478 0.989465
1.00071 1.00378 0.989755
1.00081 1.0043 0.989294
1.00463 0.99503 0.991396
1.00511 0.995653 0.990109
1.00503 0.996116 0.989568
1.00201 0.999609 0.99162
0.999917 1.00324 0.991596
1.00022 1.00285 0.991446
0.999341 1.00473 0.991079
0.999572 1.00477 0.990187
0.999996 0.994894 0.945106
0.999978 1.00445 0.990861
1.00124 1.00369 0.988662
1.00444 0.994989 0.991919
1.005 0.995715 0.989888
1.00417 1.00132 0.985674
1.00334 1.00211 0.986397
0.998932 0.99754 0.986271
0.999898 1.00468 0.990635
1.00296 0.997356 0.991775
1.00154 1.00293 0.989129
1.00311 1.00125 0.987601
1.00402 0.997609 0.989165
1.00121 0.995483 0.943541
0.996833 0.995035 0.967499
0.996463 1.00238 0.98965
0.999771 0.996616 0.900591
0.994699 0.996616 0.860865
0.999723 1.00389 0.991555
0.999836 0.995002 0.907209
0.994973 0.996212 0.872168
1.00157 0.999993 0.991311
1.00087 1.00262 0.990316
1.00199 1.00074 0.989235
0.996412 1.00305 0.989652
1.00062 0.996819 0.949382
0.994914 0.99612 0.965271
0.997838 0.998732 0.905524
0.99479 0.99746 0.86737
0.998984 1.00364 0.992834
0.9995 1.00334 0.992375
0.999462 1.00306 0.993278
1.00017 1.00232 0.99217
1.00034 1.00311 0.991129
1.00008 1.00362 0.990905
1.00008 1.00361 0.991098
1.00002 1.00249 0.992223
1.0002 1.00241 0.991895
1.0001 1.00378 0.990907
1.00028 1.00361 0.990751
1.00039 1.00306 0.991066
0.999758 1.00331 0.991758
0.999978 1.00382 0.991278
0.999185 1.0038 0.991895
1.00039 1.00354 0.990598
1.00044 1.0032 0.990905
1.00037 1.0031 0.991123
1.00015 1.00298 0.991615
1.0004 1.00323 0.990966
1.00004 1.00303 0.991709
0.999816 1.00288 0.991837
0.999728 1.00402 0.991154
0.99997 1.00301 0.991808
1.00015 1.00273 0.991828
1.00017 1.002 0.992502
1.00023 1.00285 0.991546
1.00024 1.00211 0.992228
1.00014 1.00075 0.993764
1.0002 1.00246 0.991886
1.00005 1.00086 0.993791
1.00011 0.998396 0.996723
1 1.00093 0.993803
1.0001 0.99841 0.996427
1.00007 0.996861 0.997968
1.0001 0.998407 0.996142
1.00003 0.996855 0.999145
1.00007 0.996852 0.997993
1.00009 1.0014 0.993219
1.00002 0.999915 0.994797
1.00008 0.999838 0.994779
1.00011 0.997757 0.99679
1.00016 0.999788 0.994699
1.00012 0.997747 0.996764
0.999982 0.996556 0.999287
1.00009 0.997836 0.997168
0.999958 0.996742 0.998755
0.999925 0.99695 0.998189
1.00055 0.995094 0.987149
1.00522 0.994969 0.990479
1.00413 0.995999 0.992247
0.996748 0.994874 0.972058
1.00051 0.996491 0.988924
1.00503 0.995863 0.990955
1.00313 0.9972 0.988595
0.996589 0.996882 0.974776
1.00006 0.995655 0.950129
0.99934 0.99813 0.909096
0.99465 0.996874 0.87004
0.999934 1.00229 0.99245
1.00007 1.00129 0.993387
1.00015 1.00114 0.99343
1.00004 1.00224 0.992464
0.99981 1.00318 0.991911
1.00021 1.00257 0.991855
1.00003 1.00267 0.992176
0.999995 1.00231 0.992431
1.00521 0.994919 0.990529
1.00517 0.994875 0.990323
1.00488 0.995334 0.989802
1.00272 1.00196 0.988146
1.00374 0.99795 0.989832
1.00085 1.00435 0.989663
1.00132 1.00414 0.989189
1.00043 1.00493 0.989058
1.00025 1.00173 0.992635
1.00001 1.00424 0.990635
1.00017 1.00219 0.992476
0.999842 1.00217 0.992905
1.00467 0.994947 0.991508
0.999904 1.00329 0.991655
1.00016 1.00299 0.991587
1.00505 0.995411 0.990067
1.00483 0.99567 0.989741
1.002 0.999611 0.991263
0.999661 1.00495 0.990598
1.00019 1.00441 0.990269
1.00337 0.996034 0.991789
1.00467 0.996327 0.990453
1.00447 0.995208 0.991095
1.00158 0.999473 0.992172
0.999975 1.00438 0.990412
0.999581 1.0043 0.991057
0.999573 1.00498 0.990768
0.99987 0.994847 0.908702
1.00054 0.994969 0.954775
0.999833 1.00477 0.990774
1.0015 1.00287 0.989139
1.00311 0.99695 0.991813
1.00429 0.997883 0.989178
1.00366 1.0008 0.987575
1.00035 0.994934 0.951395
0.997173 0.995303 0.966743
0.99651 1.00256 0.989401
0.999461 0.996869 0.910787
0.994703 0.996712 0.849795
0.999736 1.00384 0.991549
0.999845 0.995717 0.906076
0.994885 0.996258 0.866747
1.00157 1.00017 0.991359
1.00094 1.00248 0.990374
1.00223 1.0005 0.989875
0.996665 1.00307 0.990254
1.00169 0.996819 0.942755
0.994914 0.995637 0.96913
0.998521 0.999244 0.905705
0.994802 0.997154 0.865418
0.999356 1.00352 0.992966
0.99507 0.996257 0.870392
0.994803 0.997039 0.885005
0.999352 1.00197 0.993459
0.999559 1.00297 0.992783
0.995831 1.00275 0.990225
0.994855 0.998361 0.968364
0.998193 0.999079 0.940333
0.994912 0.999809 0.911428
0.994844 0.9948 0.872318
0.999467 1.00351 0.992299
0.999611 1.00261 0.993249
0.99837 1.0042 0.993039
1.0002 1.0024 0.991903
1.0004 1.00301 0.991135
1.00027 1.00359 0.990749
1.00004 1.0039 0.990863
0.999675 1.00339 0.991833
1.00041 1.00323 0.9909
1 1.0037 0.991184
1.00041 1.0035 0.990623
0.998938 1.00414 0.992047
0.997315 1.00476 0.993888
1.00007 1.00375 0.991033
1.00064 1.0037 0.990134
1.00041 1.00307 0.991098
1.00019 1.0029 0.991671
1.0004 1.00326 0.990929
1.00007 1.00303 0.991677
0.99985 1.00282 0.992043
0.9998 1.0036 0.991481
0.999881 1.00348 0.991317
0.999732 1.00282 0.992209
1.00027 1.00277 0.991543
1.00014 1.00467 0.98933
0.999571 1.00438 0.990887
0.999794 1.00399 0.991145
0.999821 1.00347 0.991588
0.999995 1.00302 0.991799
1.00006 1.0021 0.992541
1.00014 1.00277 0.991824
1.00017 1.002 0.99251
1.00021 1.00059 0.993769
1.00025 1.00212 0.992161
1.00014 1.00073 0.993775
1.00013 0.998369 0.996704
1.00005 1.00086 0.993794
1.00012 0.998366 0.996427
1.00006 0.996816 0.997982
1.00012 0.998381 0.996133
1.00002 0.996864 0.999141
1.00003 0.996857 0.999143
1.00012 1.00161 0.993215
1.00001 1.00004 0.9947
1.00008 1.00142 0.993225
1.00012 0.997765 0.996777
1.00002 0.999911 0.994799
1.00008 0.999839 0.994782
1.00012 0.997746 0.996787
1.00001 0.996499 0.999288
1.0001 0.997722 0.997242
1 0.996571 0.998796
0.999981 0.996749 0.998269
0.999852 0.995767 0.898759
0.99467 0.996264 0.870205
0.998057 0.994878 0.97208
1.00049 0.995624 0.989227
1.00508 0.9952 0.9908
0.996244 0.995916 0.975872
1.00338 0.996339 0.988946
1.00126 0.995951 0.948986
0.999829 0.997216 0.898892
0.994671 0.996791 0.859274
0.998685 0.994987 0.979477
1.00002 0.997809 0.949821
0.998217 0.999106 0.903854
0.994763 0.996299 0.867328
1.00001 1.00332 0.991469
0.999933 1.00227 0.992529
1.00011 1.00124 0.993384
1.00003 1.00222 0.992459
0.999782 1.00304 0.992105
1.00002 1.00358 0.991288
1.00013 1.00279 0.991819
1.00025 1.00303 0.99129
1.00007 1.00262 0.992077
0.999951 1.00243 0.992342
1.0047 0.994884 0.991622
1.00507 0.99514 0.990039
1.00437 0.995389 0.989915
1.00182 0.999691 0.990906
1.00072 1.00414 0.990351
0.999867 1.00509 0.990117
1.00014 1.003 0.991731
0.999841 1.00336 0.991713
1.00337 0.995544 0.992052
0.999914 1.00462 0.99029
0.999527 1.00439 0.990954
1.00484 0.99593 0.990271
1.00429 0.995342 0.991
1.00153 0.999407 0.992136
0.999798 1.00491 0.990737
1.00077 0.997282 0.992324
1.00296 0.995764 0.993951
1.0005 1.00102 0.992331
0.999511 1.00477 0.990162
0.999648 1.00504 0.990123
0.999331 1.00511 0.990851
0.994748 0.996292 0.886594
0.999853 0.994868 0.911896
1 0.994903 0.945348
0.999575 1.00395 0.991542
1.00105 1.00234 0.990429
1.00151 1.0003 0.991407
1.00248 1.00028 0.99051
0.999827 0.995238 0.913563
1.00015 0.996581 0.942787
0.99489 0.99514 0.965417
0.996862 1.00215 0.990822
0.998044 0.998887 0.895075
0.994851 0.996246 0.868796
0.99478 0.996751 0.871956
0.999084 1.00342 0.992925
0.994951 0.995535 0.877027
0.994841 0.997146 0.884632
0.999458 1.0016 0.993562
0.999381 1.00291 0.99279
0.995779 0.999813 0.993028
0.994876 0.997848 0.967435
0.997428 0.999415 0.950007
0.997155 0.999908 0.900121
0.994817 0.994791 0.879172
0.997557 1.00394 0.995322
0.994824 0.996171 0.894665
0.994796 0.994764 0.890816
0.995732 1.00212 0.999532
0.994831 0.999741 0.974933
0.994965 0.99997 0.950743
0.994843 0.999581 0.896812
0.994865 0.99481 0.877121
0.999758 1.00218 0.993219
0.998651 1.00408 0.99336
0.996956 1.00506 0.99503
1.00038 1.00329 0.990895
1.00045 1.00346 0.990647
1.00005 1.00353 0.99109
0.998681 1.00451 0.992204
1.00054 1.00381 0.990118
1.00004 1.00384 0.99098
0.997456 1.00472 0.994295
0.995303 1.0053 0.99698
0.998095 1.00463 0.99371
1.00035 1.00392 0.990425
1.00043 1.00328 0.990891
1.00008 1.00304 0.991645
0.999829 1.00281 0.992245
0.999887 1.00341 0.991439
0.999838 1.00358 0.99149
0.999728 1.00295 0.99225
1.00003 1.00309 0.991809
0.998651 1.00328 0.993473
1.00137 1.00009 0.991932
1.00031 1.00261 0.991675
1.00045 1.00365 0.990151
1.00186 1.0045 0.987135
0.999886 1.00486 0.990491
0.999987 1.00473 0.989721
0.999702 1.0043 0.99094
0.999658 1.00391 0.991244
0.999864 1.00396 0.991137
0.999914 1.00338 0.991587
0.999995 1.00244 0.992326
1.00009 1.00296 0.991789
1.00012 1.00207 0.992535
1.00024 1.00058 0.993757
1.0002 1.00196 0.992517
1.00022 1.00061 0.993775
1.00015 0.998343 0.996698
1.00015 1.00072 0.993785
1.00014 0.998348 0.996408
1.00003 0.996895 0.997961
1.00014 0.99834 0.996131
1.00004 0.99684 0.998562
1.00002 0.996851 0.999143
1.00014 1.00204 0.992535
1.00006 1.00016 0.994517
1.00008 1.00165 0.993038
1.00012 0.997824 0.996713
1.00002 1.00002 0.994702
1.00006 1.00147 0.993229
1.00003 0.996481 0.999283
1.00011 0.997761 0.996778
1.00003 0.999898 0.994802
1.00012 0.997735 0.996784
1.00001 0.996515 0.999288
0.999982 0.996558 0.999286
0.994694 0.994848 0.876879
0.99987 0.995538 0.905191
0.994814 0.997414 0.884152
0.994678 0.996316 0.867682
0.996024 0.995538 0.973253
1.00344 0.996222 0.989331
1.00014 0.996286 0.947236
0.999819 0.997349 0.909766
0.994701 0.996895 0.848284
0.998357 0.995647 0.978613
1.00138 0.997587 0.939099
0.99841 0.999412 0.904614
0.994786 0.996877 0.861893
0.995698 0.996019 0.97358
0.997753 0.998908 0.940944
0.995566 0.999881 0.895217
0.99484 0.994794 0.867034
1.00005 1.00414 0.990782
0.999984 1.00321 0.991602
0.999917 1.00231 0.992606
0.999753 1.00291 0.992299
1.00039 1.00379 0.990267
1.00002 1.00336 0.991416
0.999998 1.00296 0.991783
1.00043 1.00303 0.99116
1.00026 1.00306 0.991373
1.00008 1.00256 0.991977
1.00351 0.994929 0.992299
1.00487 0.995334 0.990102
1.00454 0.995249 0.990902
1.00162 0.99907 0.992111
1.00007 1.00473 0.990708
0.999631 1.00453 0.990854
0.999812 1.00477 0.990169
0.999936 1.00489 0.989976
1.0008 0.996846 0.992633
0.999869 1.00496 0.990029
0.999635 1.0051 0.990827
1.00314 0.995492 0.993803
1.00111 1.00062 0.992132
0.998473 0.99678 0.993958
0.998292 0.998332 1.00017
0.998546 1.0036 0.992711
0.99998 1.00484 0.989961
0.999308 1.00504 0.990903
0.994838 0.996181 0.899344
0.994748 0.996246 0.884051
0.999844 0.994854 0.901765
0.998834 1.00335 0.992887
0.999257 1.00279 0.992783
0.99961 1.00134 0.993676
0.994808 0.994872 0.877491
0.997457 0.99886 0.941588
0.994859 0.997295 0.967634
0.996039 0.998337 0.996046
0.995354 0.999885 0.911749
0.994925 0.997371 0.884321
0.994833 0.994804 0.879476
0.997506 1.00392 0.995541
0.994853 0.99552 0.897543
0.994776 0.994763 0.890899
0.995922 1.00231 0.998536
0.994863 0.999444 0.976447
0.996106 0.999856 0.941585
0.994858 0.994812 0.877016
0.994842 0.999958 0.904059
0.99565 1.00491 0.998241
0.994707 0.994792 0.908848
0.994804 0.994778 0.893953
0.994831 0.994793 0.867667
0.995104 1.00034 0.992763
0.994952 0.99978 0.954072
0.994965 0.999872 0.904031
0.999025 1.00373 0.993679
0.997524 1.00502 0.994187
0.995249 1.00516 0.998365
1.0005 1.00385 0.990103
0.999975 1.00391 0.990925
0.997507 1.00468 0.99469
1.00022 1.00389 0.990487
0.998092 1.0045 0.993762
0.99564 1.00531 0.996753
0.995264 1.00516 0.99826
0.997998 1.00427 0.993702
0.999882 1.00335 0.991563
0.999871 1.00356 0.991499
0.999762 1.00305 0.992295
0.998866 1.00346 0.993329
0.999941 1.00302 0.9918
0.999702 1.00234 0.993024
1.00059 1.00056 0.992949
1.00141 1.00198 0.989629
1.00036 1.00244 0.99181
1.00089 1.00356 0.989855
1.00253 1.00339 0.986663
1.0025 1.00373 0.986569
1.00035 1.00483 0.989502
1.00153 1.00446 0.987214
0.99987 1.0046 0.990526
0.999791 1.00491 0.990434
0.99981 1.00479 0.990112
0.999827 1.00423 0.990993
0.999718 1.00379 0.991344
0.99998 1.00278 0.992007
0.999992 1.00329 0.991587
1.00005 1.00239 0.99233
1.0002 1.00079 0.993615
1.00015 1.00205 0.992529
1.00025 1.00058 0.993753
1.00012 0.998339 0.996718
1.00023 1.0006 0.993781
1.00015 0.998321 0.996408
0.999995 0.996971 0.99797
1.00016 0.998299 0.996117
1.00001 0.996902 0.99855
1.00001 0.996875 0.999142
1.00029 1.00221 0.991937
1.00011 1.00046 0.993912
1.00017 1.00202 0.992535
1.00014 0.997919 0.996579
1.00006 1.00017 0.994377
1.00009 1.00164 0.992864
1.00003 0.996534 0.999265
1.00012 0.997813 0.996718
1.00002 1 0.994704
1.00003 0.996491 0.999285
1.00011 0.997759 0.996778
1.00001 0.996515 0.999289
0.994814 0.994817 0.894901
0.994702 0.995494 0.882946
0.999852 0.995753 0.906046
1.00055 1.00315 0.990725
0.994783 0.99554 0.89629
0.994808 0.99666 0.883961
0.994709 0.996302 0.872787
0.998483 0.995924 0.977297
0.999591 0.998233 0.949152
0.998113 0.99882 0.893396
0.994774 0.996983 0.865324
0.996555 0.995545 0.969809
0.997423 0.998989 0.949582
0.996951 0.999895 0.899301
0.994826 0.995134 0.86982
0.994862 0.996459 0.965809
0.995308 0.999937 0.949121
0.994882 0.999976 0.904629
0.994876 0.994821 0.876852
1.00016 1.0045 0.98998
1.00003 1.00419 0.990613
1.00001 1.00312 0.991735
1.00036 1.00386 0.990308
1.00029 1.00391 0.990451
1.00005 1.0033 0.991542
1.00047 1.00299 0.991187
1.00027 1.00308 0.991454
1.00047 0.99696 0.992875
1.0033 0.995477 0.993615
1.00005 1.005 0.98979
1.00168 1.0005 0.991919
0.999927 1.00511 0.990802
1 1.00501 0.989935
0.999919 1.00485 0.98997
0.997746 0.997271 0.994561
0.99958 1.00487 0.991
0.99929 1.00345 0.992766
0.998376 0.997801 1.00018
0.999972 1.00488 0.990091
0.996035 0.998877 0.993915
0.995021 1.00065 1.00305
0.997891 1.00514 0.99293
0.999665 1.00473 0.991044
0.994701 0.994773 0.913962
0.994833 0.996227 0.899251
0.99474 0.996247 0.881496
0.997429 1.00396 0.995784
0.995835 1.00205 0.99753
0.99483 0.994817 0.900343
0.995078 0.999986 0.95098
0.994877 0.998963 0.97356
0.994847 0.999956 0.903492
0.99477 0.994763 0.89095
0.994843 0.994819 0.876908
0.99589 1.00483 0.997829
0.994725 0.994794 0.908664
0.994799 0.994768 0.897719
0.994949 1.00109 0.996093
0.994814 0.995266 0.870205
0.994904 0.999029 0.948519
0.994954 0.999868 0.908688
0.995057 1.0042 0.998645
0.994746 0.994791 0.912877
0.994764 0.995753 0.896712
0.994752 0.996394 0.867625
0.995789 0.999986 0.904118
0.994907 0.999681 0.982586
0.994952 1.0004 0.941214
0.998122 1.0051 0.993345
0.995527 1.00508 0.99788
0.994967 1.00505 0.999645
1.00007 1.00388 0.99055
0.998058 1.00442 0.993817
0.996103 1.00506 0.996534
0.998236 1.00425 0.993592
0.995391 1.00453 0.998193
0.99758 1.00336 0.996233
0.999114 1.00356 0.993181
0.999762 1.00303 0.991792
0.999771 1.00251 0.993149
0.999467 1.00364 0.99123
0.999795 1.00099 0.993949
1.00125 1.00184 0.99017
1.00288 1.00281 0.986694
1.00437 1.0021 0.984802
1.00135 1.00347 0.989555
1.00297 1.00351 0.985842
1.00343 1.00296 0.986522
1.00111 1.00429 0.988121
1.00244 1.00369 0.986755
0.999914 1.00496 0.989834
1.00039 1.00483 0.989455
1.0012 1.00443 0.987296
0.999988 1.0033 0.991428
0.999784 1.00457 0.990597
0.999715 1.00494 0.990377
0.999788 1.00367 0.991442
1.00003 1.00274 0.992005
1.00019 1.0011 0.993314
1.0001 1.00235 0.992334
1.00021 1.00078 0.993609
1.00008 0.998476 0.996116
1.00026 1.0006 0.993748
1.00015 0.998333 0.996138
0.999875 0.997033 0.999147
1.00016 0.998302 0.996115
0.999973 0.996978 0.998549
0.999982 0.996932 0.999136
1.00031 1.00244 0.991623
1.00021 1.00077 0.993436
1.00025 1.00225 0.992037
1.00015 0.998086 0.99639
1.00013 1.00047 0.993854
1.00016 1.00205 0.992533
1.00003 0.996604 0.999234
1.00013 0.99791 0.99659
1.00006 1.00019 0.994237
1.00004 0.99651 0.999271
1.00012 0.9978 0.996723
1.00003 0.996503 0.999287
0.994731 0.994783 0.909903
0.994811 0.995485 0.89475
0.994701 0.996128 0.883156
1.00047 1.00318 0.990817
1.00045 1.00335 0.990555
1.00051 1.0036 0.990454
0.994814 0.994771 0.893453
0.994783 0.995345 0.896334
0.994803 0.996375 0.883763
0.996413 0.994895 0.972103
0.998325 0.999322 0.939677
0.995198 0.999906 0.911193
0.994841 0.995875 0.866015
0.994899 0.996446 0.969161
0.995983 0.999955 0.945805
0.994821 0.999812 0.904341
0.994864 0.994822 0.876624
0.994894 0.996716 0.965115
0.994902 0.999672 0.950861
0.994986 0.999956 0.904233
0.994853 0.994806 0.872165
1.00035 1.00423 0.989916
1.00021 1.00452 0.989859
1.00016 1.00413 0.990443
1.00046 1.00371 0.99028
1.00015 1.00393 0.990637
1.0005 1.00299 0.991214
0.997133 0.997663 0.995161
0.998152 0.997396 1.00023
1.00001 1.00465 0.989978
0.999938 1.00297 0.992829
0.999657 1.00481 0.991097
0.999946 1.00473 0.990054
0.999304 1.00475 0.991167
0.995747 0.998733 0.994223
0.997937 1.00512 0.99361
0.995326 1.00103 1.00193
0.999599 1.00426 0.991227
0.995022 0.9986 0.993721
0.995969 1.002 0.998494
0.998268 1.00516 0.993488
0.994731 0.99474 0.918239
0.994708 0.994766 0.91506
0.994824 0.996231 0.899146
0.996097 1.00481 0.997399
0.994933 1.00111 0.993018
0.994728 0.994798 0.908483
0.994864 0.99923 0.950426
0.994955 0.999861 0.89797
0.994794 0.994757 0.901475
0.994841 0.996138 0.86654
0.995156 1.00393 0.999101
0.994737 0.994797 0.914411
0.994779 0.99546 0.896768
0.994924 0.999688 0.97914
0.994778 0.997092 0.86228
0.994806 0.999968 0.903523
0.994931 1.00006 0.951483
0.995145 1.00486 0.994972
0.99473 0.994789 0.910258
0.994847 0.997728 0.884633
0.994626 0.997055 0.870722
0.99592 0.999212 0.89509
0.995914 0.999919 0.949282
0.994985 1.00041 0.973205
0.995931 1.00507 0.997403
0.995251 1.00414 0.999582
0.996589 1.0034 0.99819
0.998404 1.00433 0.993484
0.995565 1.00414 0.99815
0.996587 1.00413 0.996676
0.999802 1.00164 0.994198
0.999846 1.00277 0.993273
1.00079 1.00323 0.99081
1.00185 1.00425 0.987284
1.00108 1.00175 0.99073
1.00305 1.00292 0.986452
1.00406 1.00391 0.983566
1.00492 1.00165 0.984217
1.00407 1.00202 0.985372
1.00434 1.00231 0.984608
1.00342 1.0036 0.985019
1.00292 1.00309 0.987054
1.00315 1.00283 0.986714
1.00051 1.0047 0.988647
1.00125 1.00427 0.988282
1.00239 1.00366 0.986943
0.999948 1.00439 0.990301
1.00008 1.00491 0.989838
1.0004 1.00485 0.989407
1.00017 1.00157 0.992888
1.00008 1.00326 0.991413
0.999697 1.00453 0.99067
1.00008 1.00271 0.992004
1.0002 1.00111 0.993308
0.999994 0.998714 0.996015
1.00022 1.00079 0.993604
1.00008 0.99848 0.996108
0.999816 0.997191 0.999137
1.00015 0.998328 0.996134
0.99991 0.997063 0.998559
0.999937 0.997014 0.999136
1.00035 1.00273 0.991466
1.00029 1.001 0.993254
1.00035 1.00242 0.991686
1.00017 0.998275 0.996156
1.0002 1.00077 0.99352
1.00027 1.00226 0.992138
1.00002 0.996735 0.999191
1.00015 0.99806 0.996405
1.00015 1.00046 0.993796
1.00003 0.996596 0.999243
1.00013 0.997903 0.996601
1.00004 0.996507 0.999278
0.994749 0.994799 0.91253
0.994733 0.994801 0.909724
0.994807 0.996156 0.894707
1.00032 1.00375 0.990355
1.00055 1.00386 0.990097
1.00041 1.00323 0.99091
1.00041 1.00346 0.990527
1.00036 1.00372 0.990424
1.00029 1.00398 0.990268
1.00038 1.00387 0.990219
0.994796 0.994754 0.890331
0.994811 0.99477 0.897278
0.994783 0.994753 0.896392
0.994851 0.994814 0.876426
0.994899 0.996253 0.966317
0.99519 0.999956 0.942895
0.994858 0.999656 0.911491
0.994897 0.997191 0.96423
0.994883 0.999948 0.942126
0.994951 0.999877 0.909181
0.994819 0.99479 0.879054
0.994946 0.996326 0.968171
0.994912 1.00012 0.941977
0.994803 0.99982 0.897435
0.994785 0.997731 0.866561
0.999607 1.00499 0.990574
1.00022 1.00438 0.989955
1.00025 1.00471 0.989738
1.00058 1.00357 0.990254
0.995571 0.99859 0.994654
0.995499 1.0024 1.00081
0.999919 1.00489 0.990019
0.999251 1.00477 0.991291
0.998363 1.00513 0.994283
0.999569 1.00445 0.991181
0.997954 1.00516 0.993491
0.994885 1.00003 0.99082
0.995431 1.00339 0.998737
0.997638 1.0049 0.994146
0.995052 0.998587 0.989703
0.997358 1.00411 0.99732
0.994699 0.994782 0.914085
0.994724 0.994734 0.921073
0.99472 0.994754 0.916155
0.995009 1.00364 0.999511
0.994937 0.998477 0.983263
0.994733 0.994799 0.915982
0.99594 1.00007 0.941866
0.994839 0.999873 0.910668
0.994794 0.994756 0.896837
0.994769 0.997326 0.8658
0.994963 1.00371 0.995628
0.994732 0.994799 0.910096
0.994813 0.996856 0.884444
0.994916 1.00056 0.974117
0.99466 0.99691 0.860193
0.996979 0.999906 0.898882
0.994876 0.999862 0.941403
0.995385 1.00484 0.9897
0.994811 0.994831 0.895584
0.994648 0.996342 0.871047
0.998623 0.998082 0.904485
0.995196 0.999974 0.949064
0.994917 1.00005 0.966894
0.99529 1.0033 0.999726
0.995921 1.00406 0.998139
0.997336 1.00139 0.997431
0.995684 1.00476 0.997116
0.998611 1.00191 0.994695
1.0029 1.00023 0.990568
1.00213 1.00273 0.990389
1.00227 1.00407 0.987217
1.003 1.00448 0.984372
1.00321 1.00304 0.986211
1.00442 1.0039 0.983136
1.00436 1.00423 0.982636
1.00497 1.00107 0.984801
1.00505 1.00118 0.984605
1.00483 1.0018 0.984197
1.00385 1.00182 0.985775
1.00408 1.00193 0.985535
1.00428 1.00255 0.984414
1.00225 1.00419 0.986855
1.00277 1.00306 0.987026
1.00283 1.00269 0.986902
1.00034 1.00502 0.988984
1.00055 1.00473 0.988877
1.0014 1.00423 0.988445
1.00006 1.00247 0.992088
1.00013 1.00425 0.990319
1.00023 1.00486 0.989842
0.999908 0.998978 0.995888
1.00019 1.00157 0.99287
1.00016 1.00323 0.991399
1.00022 1.0011 0.993302
0.999992 0.998736 0.996002
0.999731 0.997401 0.999118
1.00009 0.998476 0.9961
0.999809 0.99723 0.999132
0.999876 0.997091 0.99914
1.00035 1.00385 0.990329
1.00045 1.00297 0.99111
1.00033 1.00135 0.992843
1.00037 1.00272 0.991454
1.00016 0.998529 0.995906
1.00028 1.00102 0.993254
1.00031 1.00248 0.991749
1 0.996887 0.999137
1.00016 0.998272 0.996172
1.0002 1.00077 0.993603
1.00002 0.996701 0.999204
1.00015 0.998044 0.99642
1.00004 0.996565 0.999253
0.994694 0.994788 0.90851
0.994739 0.994797 0.9141
0.994736 0.994821 0.909525
1.0004 1.00371 0.990384
1.00042 1.00392 0.99011
1.00026 1.0036 0.990363
1.00017 1.00419 0.990087
1.00047 1.00433 0.990035
1.0004 1.00354 0.990499
1.0003 1.00383 0.990394
1.00035 1.00393 0.990272
1.00039 1.004 0.990277
1.00009 1.00461 0.990237
0.99479 0.99746 0.884074
0.994769 0.994763 0.890469
0.994808 0.994767 0.901082
0.994826 0.994796 0.879363
0.994978 0.999949 0.898194
0.994877 0.998416 0.962697
0.994891 0.99998 0.950628
0.995026 0.996679 0.964978
0.99492 0.999629 0.951139
0.994851 0.999977 0.905197
0.994802 0.997463 0.864395
0.995039 0.994976 0.969866
0.994919 1 0.951145
0.995442 0.999885 0.910317
0.994717 0.996847 0.869334
0.998767 1.00379 0.9928
0.999744 1.00486 0.990515
1.00023 1.00439 0.989994
0.994923 1.00066 0.987751
0.995348 1.00399 0.998988
0.999525 1.00447 0.991134
0.997253 1.0052 0.993496
0.997755 1.00456 0.994166
0.996457 1.00365 0.99738
0.994985 0.998846 0.989808
0.99611 1.00199 0.998566
0.996012 0.999876 0.990568
0.994833 0.995886 0.898945
0.994708 0.994776 0.915151
0.994714 0.994734 0.92391
0.994985 1.00259 0.995921
0.994918 1.001 0.970684
0.994735 0.994823 0.909907
0.995934 0.999976 0.948385
0.995062 0.999916 0.910736
0.994777 0.99651 0.884265
0.994708 0.996914 0.849435
0.995392 1.00503 0.990205
0.994805 0.995275 0.895446
0.994676 0.996421 0.868543
0.994912 1.00003 0.967898
0.998444 0.999224 0.905239
0.996007 0.999944 0.944589
0.994887 1.0045 0.987326
0.994694 0.99484 0.877803
0.99974 0.997695 0.910098
0.997671 0.998788 0.940793
0.99487 0.997328 0.969874
0.995438 1.00492 0.99808
0.997358 1.00189 0.997327
1.00169 1.00181 0.991566
0.997465 1.00225 0.995115
1.0018 1.00045 0.990749
1.0039 0.999599 0.988186
1.00265 1.00384 0.987148
1.0031 1.00428 0.984411
1.00442 1.00164 0.984751
1.00478 1.0039 0.982708
1.0044 1.00383 0.982731
1.00479 1.00092 0.985128
1.00514 0.999113 0.986282
1.00509 1.00059 0.984943
1.00491 1.00097 0.984889
1.00506 1.0014 0.984529
1.00503 1.00122 0.984586
1.00476 1.00194 0.984176
1.00361 1.00292 0.985699
1.0038 1.00187 0.985933
1.00411 1.00186 0.985699
1.00144 1.0043 0.987818
1.00204 1.00415 0.987022
1.00263 1.00306 0.986997
1.00003 1.00392 0.990604
1.0005 1.00493 0.989003
1.00062 1.00478 0.989105
0.999825 0.999494 0.996145
1.00014 1.00248 0.992055
1.0003 1.00409 0.990338
0.999661 0.99765 0.997853
0.999903 0.999067 0.996136
1.00022 1.00156 0.992853
0.999987 0.998766 0.995989
0.999728 0.997442 0.999109
0.999801 0.997259 0.999128
1.00026 1.0041 0.990213
1.00043 1.00332 0.990788
1.00028 1.00393 0.990297
1.00035 1.00169 0.992465
1.00037 1.00307 0.991103
1.00014 0.998833 0.995653
1.00033 1.00134 0.992846
1.00042 1.00267 0.991443
0.999976 0.997087 0.999079
1.00016 0.998511 0.995921
1.00027 1.00103 0.993254
1.00001 0.996872 0.999153
1.00015 0.99826 0.996188
1.00003 0.996683 0.999217
0.994993 0.994837 0.900793
0.994718 0.994792 0.908344
0.99473 0.994797 0.915693
1.00058 1.00309 0.990567
1.00037 1.0038 0.990414
1.00032 1.00396 0.990123
1.00031 1.00421 0.990079
1.00051 1.0035 0.990412
1.00037 1.00408 0.990267
1.00076 1.00406 0.98945
0.99977 1.0047 0.990054
1.00043 1.00382 0.990276
1.00009 1.00412 0.990334
0.999947 1.00457 0.990221
0.999415 1.00485 0.991565
0.995169 0.996558 0.870944
0.99502 0.997429 0.883699
0.994759 0.99477 0.890576
0.994786 0.997057 0.871107
0.994852 0.999959 0.905005
0.994945 1.00001 0.942027
0.994959 0.996607 0.963539
0.994945 0.995004 0.971428
0.994711 0.997001 0.859015
0.994895 0.999803 0.946125
0.996981 0.999912 0.899258
0.994875 0.996259 0.971986
0.995264 0.999962 0.951314
0.999136 0.998495 0.901164
0.999172 1.00159 0.995028
0.998931 1.00389 0.992754
0.999641 1.00481 0.990456
0.994879 0.999173 0.990046
0.995712 1.00323 0.997434
0.997752 1.00426 0.994183
0.997306 1.00183 0.998413
0.995529 0.999692 0.990672
0.996965 0.998778 0.993669
0.994753 0.997349 0.880611
0.994842 0.99542 0.90246
0.994723 0.99476 0.916216
0.99519 1.00505 0.990496
0.994866 1.00003 0.967992
0.994796 0.995811 0.895406
0.995095 0.999971 0.942202
0.998455 0.998008 0.894279
0.994714 0.996391 0.873744
0.995107 1.0048 0.987266
0.994701 0.995323 0.883829
0.999825 0.996466 0.900175
0.994946 0.997132 0.965888
0.997438 0.999016 0.949322
0.996714 1.0021 0.991277
0.99984 0.995608 0.899545
1.00002 0.997718 0.949733
0.994888 0.995572 0.965292
0.997231 1.00234 0.997333
1.00106 1.00102 0.991879
1.00319 1.0011 0.98893
1.00071 1.00085 0.990937
1.00324 1.00022 0.988186
1.00458 0.998339 0.987848
1.00318 1.0041 0.984448
1.00427 1.00169 0.984725
1.00499 0.997812 0.987352
1.00445 1.00343 0.982825
1.00473 1.00072 0.985173
1.00508 0.997412 0.987949
1.00513 0.997391 0.988081
1.00518 0.999393 0.985984
1.00514 0.998981 0.986414
1.00511 1.00077 0.984826
1.00507 1.00059 0.985009
1.00487 1.00087 0.984977
1.00484 1.00127 0.985093
1.00491 1.00136 0.984671
1.005 1.00123 0.984565
1.0028 1.00334 0.986538
1.00359 1.00284 0.985692
1.00377 1.00188 0.98609
1.00062 1.0046 0.989067
1.00153 1.00438 0.98779
1.00182 1.00408 0.98719
0.999753 1.00033 0.994721
1.00023 1.00377 0.990601
1.00069 1.00484 0.989022
0.999571 0.99792 0.999035
0.99981 0.999589 0.99546
1.00021 1.00246 0.992022
0.999664 0.997641 0.999081
0.999877 0.999136 0.995817
0.999726 0.997491 0.9991
1.00072 1.00362 0.990006
1.00031 1.00411 0.990165
1.00043 1.00368 0.990437
1.00032 1.00209 0.992137
1.00038 1.00337 0.990783
1.00028 1.00393 0.990265
1.00011 0.999133 0.995403
1.00034 1.00171 0.992468
1.00032 1.00315 0.991096
0.999937 0.99731 0.999015
1.00014 0.998797 0.995666
1.00033 1.00135 0.992849
0.999978 0.997049 0.999096
1.00016 0.998496 0.995937
1.00001 0.996827 0.99917
0.995205 0.996062 0.870823
0.994983 0.994833 0.900688
0.994726 0.994795 0.908182
1.00043 1.00336 0.990511
1.0014 1.00299 0.990194
1.00058 1.0036 0.990158
1.00035 1.0043 0.990071
1.00076 1.00337 0.99046
1.00012 1.00392 0.990498
0.999967 1.00473 0.989996
1.0006 1.00413 0.98957
1.00041 1.00473 0.989407
0.99997 1.00074 0.993642
1.00014 1.00452 0.990204
0.999497 1.00469 0.99123
0.999795 0.997363 0.895222
0.995002 0.996529 0.8655
0.995216 0.997557 0.883405
0.994707 0.99724 0.848417
0.996627 0.999077 0.91042
0.994855 0.999966 0.943919
0.994894 0.995132 0.969236
0.994922 0.99621 0.970689
0.998445 0.99947 0.903854
0.99604 0.999956 0.942591
0.994891 0.997534 0.972042
0.99858 0.998933 0.940836
1.00191 0.997836 0.994263
0.999142 1.0017 0.994869
0.999073 1.00408 0.992722
0.995033 0.999538 0.990727
0.998294 1.0017 0.998251
0.997595 0.998825 0.993191
0.999001 0.998425 0.9907
0.999877 0.994852 0.908335
0.994773 0.996617 0.880695
0.994801 0.994844 0.90588
0.995425 1.00513 0.98738
0.994922 0.99696 0.963874
0.994702 0.995697 0.883975
0.998744 0.998677 0.939734
0.999831 0.996943 0.910927
0.996389 1.00118 0.989134
0.999867 0.995344 0.906046
1.0015 0.997203 0.939448
0.994927 0.995564 0.968744
0.998405 0.996789 0.991735
1.00003 0.995846 0.950521
0.996309 0.995847 0.971069
1.00035 1.00002 0.992131
1.00301 0.99985 0.988899
1.00484 0.997746 0.989141
1.00259 1.00073 0.98819
1.00431 0.998529 0.987843
1.00488 0.996422 0.989109
1.00423 1.00172 0.984701
1.00494 0.998112 0.987271
1.00509 0.995739 0.989447
1.00469 1.00053 0.985218
1.00508 0.997424 0.987936
1.00512 0.995847 0.989579
1.00511 0.99647 0.989285
1.00514 0.997207 0.988293
1.00514 0.998092 0.987559
1.00516 0.999845 0.985774
1.00517 0.999457 0.986026
1.00513 0.998847 0.986546
1.00513 1.00064 0.985072
1.00511 1.00076 0.984818
1.00507 1.00058 0.985076
1.00407 1.00207 0.985642
1.0047 1.0014 0.985087
1.00473 1.00138 0.984814
1.00154 1.004 0.988082
1.00285 1.00335 0.986529
1.00353 1.0028 0.985685
0.999927 1.00123 0.993489
1.00075 1.00437 0.989076
1.00168 1.00438 0.987763
0.999618 0.998242 0.998883
0.999779 1.00043 0.994666
1.0004 1.00365 0.9906
0.999613 0.997946 0.998363
0.9998 0.999678 0.995439
0.999677 0.99771 0.999056
1.00101 1.00294 0.990163
1.00046 1.00377 0.990105
1.00036 1.00404 0.990069
1.0004 1.0041 0.990117
1.00035 1.00375 0.990434
1.00029 1.00248 0.991784
1.00005 0.99946 0.995188
1.00031 1.00207 0.992141
1.00029 1.00346 0.990777
0.999887 0.997535 0.998949
1.0001 0.999117 0.995414
1.00032 1.00173 0.992471
0.999939 0.997266 0.999035
1.00014 0.99877 0.99568
0.99998 0.997028 0.999113
0.999827 0.995097 0.906828
0.995117 0.996086 0.873724
0.995044 0.994828 0.900564
1.0003 1.00362 0.990455
1.00054 1.00411 0.989639
1.00105 1.00295 0.990462
1.00245 1.0035 0.987286
1.00051 1.00407 0.990009
1.00012 1.00474 0.98994
1.00053 1.00416 0.989692
1.00019 1.00465 0.989661
1.00083 1.00345 0.98888
1.00129 0.999761 0.992926
1.00417 0.997262 0.989994
1.0002 1.00052 0.993719
0.999923 1.00398 0.99089
0.998732 0.997435 0.94965
0.999775 0.997875 0.899854
0.994928 0.99645 0.867455
0.999033 0.999765 0.892308
0.995627 0.999954 0.948761
0.994872 0.996131 0.971885
0.994872 0.997523 0.97383
0.997418 0.998771 0.951136
0.995888 0.997542 0.97317
1.00241 0.996075 0.994332
1.00121 0.998536 0.994347
0.999167 1.00183 0.994701
0.998356 0.99863 0.9928
0.999609 0.998414 0.990202
0.999988 0.994913 0.945216
0.999866 0.994879 0.911991
0.994815 0.996005 0.88089
0.995979 1.00033 0.986915
0.995011 0.995235 0.965571
0.999852 0.995611 0.906881
1.00043 0.997796 0.948789
0.997559 0.99786 0.992083
1.00126 0.9959 0.948932
0.996688 0.995237 0.96805
1.00138 0.996235 0.990595
0.999129 0.995671 0.977095
1.00285 0.998836 0.988935
1.00478 0.996821 0.989074
1.00498 0.995858 0.990276
1.00404 0.998713 0.987836
1.00473 0.996588 0.989038
1.00515 0.995048 0.99012
1.00481 0.998419 0.98719
1.00509 0.995822 0.989404
1.00507 0.995004 0.990396
1.00507 0.997435 0.987923
1.00512 0.995877 0.989534
1.00514 0.995486 0.990115
1.00511 0.996225 0.989433
1.00511 0.99706 0.988692
1.00516 0.997023 0.988507
1.00514 0.998107 0.987535
1.00518 0.998949 0.986682
1.00518 1.0002 0.985475
1.00516 0.999889 0.985751
1.00517 0.999519 0.986069
1.00479 1.0008 0.985536
1.0051 1.00069 0.985046
1.00511 1.00076 0.98481
1.00259 1.00276 0.987442
1.00401 1.00212 0.985652
1.0046 1.00151 0.985083
1.00033 1.0017 0.992322
1.00159 1.00391 0.988068
1.00281 1.00346 0.986521
0.999734 0.998785 0.998589
1 1.00124 0.993461
1.00093 1.00414 0.989084
0.999683 0.998354 0.998793
0.999819 1.00051 0.99461
0.999677 0.997982 0.998947
1.0025 1.00342 0.987237
1.00108 1.00281 0.990136
1.00051 1.00395 0.989735
1.00023 1.00387 0.990203
1.0003 1.00408 0.990037
1.0003 1.00294 0.991288
1.00028 1.0038 0.990432
1.00027 1.00248 0.991791
0.999967 0.999804 0.99499
0.999818 0.997792 0.998893
1.00004 0.999434 0.995198
1.0003 1.00206 0.992144
0.999889 0.997513 0.99897
1.00009 0.999104 0.995425
0.999943 0.997222 0.999055
1.00004 0.995343 0.95346
0.999843 0.994968 0.906027
0.994921 0.996113 0.870227
1.00051 1.00467 0.989122
1.00077 1.00285 0.990731
1.00073 1.00395 0.989906
1.0023 1.00351 0.987458
1.00401 1.00254 0.985014
1.00112 1.00356 0.988734
0.999948 1.00469 0.989915
1.00157 1.00343 0.988092
1.00097 0.999934 0.993008
1.00294 0.999965 0.989021
1.00475 0.996204 0.990851
1.00412 0.996574 0.990734
1.00371 0.99714 0.990631
0.999939 1.0007 0.993799
0.995992 0.996039 0.972512
1.00011 0.997231 0.946827
0.998074 0.997576 0.910264
0.997776 0.999426 0.940783
0.994871 0.997907 0.974544
0.995849 0.997706 0.977944
0.999703 0.99784 0.99223
1.00272 0.99573 0.994249
1.00079 0.999057 0.994432
1.00105 0.998424 0.989677
0.996456 0.997535 0.973256
1.00027 0.995032 0.954769
0.99985 0.994867 0.901703
0.99678 0.998763 0.992284
0.996852 0.994884 0.970044
1.00007 0.996674 0.947105
1.00086 0.996173 0.990723
0.998499 0.995773 0.97646
1.00366 0.995582 0.990976
1.00275 0.99831 0.987437
1.00472 0.995961 0.988976
1.00486 0.995688 0.990286
1.00515 0.99484 0.990631
1.00461 0.996745 0.988967
1.00515 0.995039 0.990075
1.0051 0.994932 0.990545
1.00509 0.995897 0.989361
1.00506 0.995097 0.990365
1.00515 0.995083 0.99044
1.00512 0.995913 0.989489
1.00513 0.995469 0.990042
1.00512 0.99613 0.989436
1.00511 0.995985 0.989578
1.00512 0.996916 0.988843
1.00517 0.99825 0.987485
1.00514 0.998122 0.98751
1.00518 0.999007 0.986654
1.00521 0.999683 0.986057
1.005 1.00021 0.985655
1.00518 1.00024 0.985449
1.00516 0.999935 0.985727
1.00354 1.00136 0.9872
1.00478 1.00084 0.985538
1.00506 1.00074 0.985019
1.00073 1.00182 0.991493
1.00257 1.00281 0.987448
1.00397 1.00216 0.985661
0.999932 0.999343 0.998207
1.00043 1.00164 0.992312
1.00167 1.00381 0.988054
0.999836 0.998904 0.998447
1.00006 1.00127 0.993433
0.999766 0.998442 0.998679
1.00407 1.0027 0.985179
1.00256 1.0034 0.987255
1.00156 1.00405 0.987911
1.00106 1.00278 0.990109
1.00061 1.00388 0.989619
1.00057 1.00326 0.990582
1.00024 1.00412 0.990004
1.00028 1.00296 0.991292
0.999887 1.00022 0.994713
1.00025 1.00248 0.991798
0.999964 0.999764 0.995004
0.999744 0.998058 0.998838
0.999824 0.997754 0.998911
1.00004 0.999408 0.995208
0.999889 0.997463 0.998991
0.9968 0.994898 0.974116
1.00019 0.995559 0.944187
0.999825 0.995275 0.913351
1.00512 1.00084 0.984747
1.00095 1.0038 0.9898
1.00218 1.00354 0.987632
1.00153 1.00348 0.98845
1.00402 1.00264 0.985003
1.0035 1.00078 0.987377
1.00227 1.00347 0.987306
1.00063 1.00008 0.993096
1.00338 0.999731 0.988906
1.00461 0.995897 0.990734
1.00486 0.996467 0.989058
1.00415 0.995654 0.991838
1.00403 0.996216 0.990651
1.00321 0.996959 0.99127
0.999937 0.997078 0.992439
0.99582 0.99581 0.970817
0.999452 0.996537 0.944631
0.995549 0.997299 0.97646
0.999913 0.996919 0.994303
1.00243 0.995445 0.994153
1.0006 0.99754 0.986865
0.996391 0.996223 0.974735
1.00001 0.994896 0.945318
1.00008 0.99659 0.990914
0.998451 0.996198 0.975318
1.00323 0.9955 0.991304
1.00278 0.997733 0.987876
1.00445 0.994835 0.991246
1.00452 0.997562 0.990698
1.00475 0.995505 0.990295
1.00515 0.994846 0.990512
1.00519 0.994855 0.990418
1.00515 0.995043 0.99003
1.00509 0.994927 0.990534
1.00516 0.994939 0.990511
1.00506 0.995185 0.990334
1.00514 0.995057 0.990406
1.00514 0.995684 0.989861
1.00512 0.995444 0.989969
1.00513 0.996144 0.989423
1.00516 0.997378 0.988288
1.00512 0.996772 0.988994
1.00517 0.998113 0.987662
1.00521 0.999291 0.986406
1.00517 0.999063 0.986626
1.0052 0.999695 0.98602
1.0051 1.00001 0.985803
1.00398 1.00053 0.987242
1.00499 1.00028 0.985675
1.00518 1.00028 0.985423
1.00124 1.00135 0.991118
1.00348 1.00142 0.987208
1.00476 1.00089 0.985541
1.00006 0.999823 0.99789
1.00091 1.00161 0.991482
1.00254 1.00283 0.987455
1.00001 0.999442 0.998082
1.00055 1.00154 0.992304
0.999938 0.999011 0.998304
1.00497 1.00124 0.98469
1.00396 1.00267 0.985182
1.00308 1.0032 0.986203
1.00262 1.00337 0.987274
1.00165 1.00409 0.987866
1.0009 1.00387 0.989442
1.00073 1.00381 0.989502
1.00041 1.00345 0.990588
0.999867 1.00074 0.994237
1.00023 1.003 0.991297
0.999882 1.00017 0.994734
0.999688 0.998364 0.998751
0.999961 0.999727 0.995018
0.999748 0.998012 0.998858
0.999828 0.997727 0.998929
1.001 0.994935 0.99084
0.996786 0.994897 0.970646
0.999994 0.994913 0.954036
1.00467 0.999838 0.986212
1.00514 0.999411 0.986229
1.00508 1.00071 0.98489
1.00191 1.00336 0.988163
1.00402 1.00274 0.984988
1.0038 1.0006 0.987336
1.00506 0.997367 0.987944
1.00382 0.999469 0.988789
1.00443 0.995635 0.990609
1.00488 0.996505 0.989304
1.00499 0.995725 0.989749
1.00416 0.995447 0.991662
1.00391 0.995826 0.991696
1.00417 0.995963 0.990561
1.00019 0.996943 0.992572
0.995967 0.995747 0.969036
1.00025 0.996624 0.996452
1.00414 0.995662 0.99198
1.00046 0.997736 0.987049
0.996332 0.995816 0.972475
1.00311 0.994866 0.991604
1.00279 0.99769 0.988348
1.00451 0.994998 0.991586
1.00456 0.996779 0.990651
1.00521 0.994935 0.990402
1.00526 0.994978 0.9906
1.00516 0.994855 0.990394
1.00519 0.994877 0.9904
1.0052 0.99493 0.990374
1.00509 0.994925 0.990523
1.00515 0.994943 0.990483
1.00517 0.995319 0.99022
1.00514 0.99504 0.990373
1.00515 0.995704 0.98985
1.00516 0.996791 0.988882
1.00514 0.996158 0.989411
1.00516 0.997396 0.98829
1.00522 0.998859 0.986788
1.00517 0.997974 0.987838
1.00521 0.999231 0.986476
1.00515 0.999895 0.985844
1.0052 0.999711 0.985983
1.00509 1.00001 0.985814
1.00418 1.00018 0.98724
1.00151 1.00078 0.991168
1.00396 1.00055 0.987234
1.00498 1.00034 0.985694
1.00015 1.00017 0.997669
1.00129 1.00128 0.991117
1.0034 1.00152 0.987216
1.00013 0.999925 0.997791
1.00101 1.00151 0.991475
1.00009 0.999559 0.99796
1.00511 1.0003 0.985382
1.00499 1.00115 0.984717
1.00439 1.00146 0.985599
1.00385 1.00263 0.985185
1.00307 1.00324 0.986214
1.0017 1.00378 0.988081
1.00171 1.00413 0.987822
1.00074 1.004 0.989471
1.00006 1.00137 0.993344
1.00028 1.00361 0.990596
0.999846 1.0007 0.994258
0.999677 0.998765 0.998585
0.999879 1.00012 0.994754
0.99968 0.998302 0.998787
0.999752 0.997972 0.998876
1.00406 0.994891 0.99254
1.00099 0.995042 0.989151
0.996569 0.994896 0.970198
1.0051 0.998511 0.987255
1.00491 0.999485 0.986263
1.00521 0.998185 0.987362
1.00514 0.999391 0.986244
1.00503 1.00056 0.985034
1.00512 0.996553 0.988722
1.00413 1.00043 0.987296
1.00504 0.997598 0.987898
1.00514 0.995228 0.990011
1.00492 0.996531 0.989555
1.00496 0.995817 0.989639
1.00416 0.995551 0.991787
1.00347 0.995917 0.991544
1.00039 0.996879 0.992626
1.00521 0.994898 0.990469
1.00412 0.99631 0.992034
1.00041 0.997563 0.987219
1.00455 0.995157 0.99192
1.00458 0.995994 0.99061
1.00521 0.994916 0.99045
1.00526 0.995022 0.990511
1.00521 0.994945 0.990586
1.0052 0.994895 0.990384
1.0052 0.994929 0.990395
1.0052 0.995044 0.990475
1.00515 0.994945 0.990454
1.00516 0.995324 0.990171
1.00515 0.996345 0.989297
1.00516 0.995722 0.989839
1.00515 0.996815 0.98888
1.00523 0.998448 0.987209
1.00516 0.997414 0.988291
1.00522 0.998861 0.986809
1.00518 0.999807 0.985912
1.00521 0.99917 0.986547
1.00515 0.999897 0.985862
1.00428 1.00007 0.987174
1.00508 1 0.985825
1.00419 1.00018 0.987233
1.0016 1.00039 0.992751
1.00036 1.00006 0.994864
1.00157 1.00073 0.991856
1.00394 1.00059 0.987227
1.00018 1.00023 0.997625
1.00142 1.00111 0.991114
1.00018 1.00003 0.9977
1.00523 0.998087 0.987501
1.0052 0.999408 0.986207
1.00512 1.00031 0.985465
1.00484 1.00052 0.985735
1.005 1.00106 0.984744
1.00445 1.00139 0.985579
1.00287 1.00233 0.987351
1.00307 1.00328 0.986225
1.00163 1.00384 0.988084
1.00049 1.00185 0.992111
1.00059 1.00416 0.989497
0.999947 1.0014 0.993376
0.999742 0.999342 0.998266
0.999827 1.00065 0.994278
0.999643 0.99867 0.998655
0.999677 0.998245 0.998816
1.00519 0.994901 0.990393
1.00442 0.994883 0.992498
1.00122 0.994907 0.987508
1.00513 0.997132 0.988273
1.00511 0.998461 0.987101
1.00512 0.999153 0.986314
1.0052 0.998302 0.987324
1.00515 0.999376 0.98626
1.0052 0.995551 0.989955
1.0051 0.996551 0.988674
1.00503 0.997842 0.987852
1.00514 0.995213 0.990016
1.00496 0.995921 0.989529
1.0042 0.995712 0.991934
1.0052 0.99491 0.990707
1.00521 0.994898 0.990624
1.00411 0.996961 0.992093
1.00521 0.994897 0.990491
1.00526 0.994964 0.990423
1.00522 0.994945 0.990535
1.00519 0.994936 0.990758
1.00519 0.994929 0.990415
1.00519 0.995025 0.990437
1.00515 0.996061 0.989639
1.00516 0.995332 0.990122
1.00516 0.996364 0.989299
1.00522 0.998125 0.987557
1.00515 0.996841 0.988878
1.00523 0.998451 0.987222
1.0052 0.999688 0.986024
1.00522 0.998862 0.986831
1.00518 0.999801 0.985929
1.00434 1.00007 0.987083
1.00514 0.999899 0.98588
1.0043 1.00006 0.987174
1.00173 1.00009 0.99286
1.00419 1.00019 0.987224
1.00176 1.00031 0.992676
1.00035 0.99999 0.995
1.00016 1.00029 0.996257
1.00174 1.00066 0.992416
1.00018 1.00032 0.997596
1.00518 0.997462 0.988249
1.00523 0.999053 0.986473
1.00522 0.9979 0.987682
1.005 1.00009 0.985829
1.00522 0.999477 0.986149
1.00515 1.00032 0.985547
1.00488 1.00047 0.985715
1.00374 1.00094 0.98723
1.00451 1.0013 0.985558
1.00293 1.00227 0.987332
1.00101 1.00173 0.99124
1.00154 1.00391 0.988086
1.00031 1.002 0.99214
0.999879 1.00009 0.997852
0.999829 1.00146 0.993405
0.999664 0.999225 0.9984
0.999626 0.99858 0.998714
1.0052 0.994946 0.990434
1.00518 0.99492 0.990378
1.00468 0.994901 0.992422
1.00517 0.996253 0.989341
1.00512 0.997195 0.988259
1.00512 0.998415 0.986947
1.00518 0.998422 0.987287
1.00519 0.995561 0.989868
1.00508 0.996555 0.988626
1.00513 0.995219 0.990022
1.00515 0.994934 0.990817
1.00519 0.994916 0.990696
1.0052 0.994903 0.990778
1.00522 0.994954 0.990579
1.00522 0.994949 0.990484
1.00518 0.994986 0.99069
1.00515 0.995827 0.990008
1.00518 0.995008 0.9904
1.00518 0.996031 0.98964
1.00519 0.997919 0.987855
1.00517 0.996388 0.989301
1.00522 0.998127 0.987561
1.0052 0.999525 0.986201
1.00523 0.998455 0.987234
1.00519 0.999677 0.986037
1.00438 1.00006 0.987013
1.00517 0.999794 0.985947
1.00435 1.00005 0.98709
1.0018 1.00003 0.992808
1.00431 1.00004 0.987172
1.00186 1.00004 0.992761
1.0004 0.999886 0.995044
1.00191 1.00021 0.99261
1.00006 1.00015 0.995179
0.999747 1.00057 0.997904
1.00518 0.997373 0.98823
1.00522 0.998536 0.987115
1.00518 0.997516 0.988105
1.00518 0.999801 0.986084
1.00524 0.998865 0.986635
1.00522 0.997716 0.987862
1.00417 1.00031 0.987141
1.00505 1.00007 0.985796
1.00524 0.999543 0.986089
1.00491 1.00041 0.985694
1.00376 1.00089 0.987234
1.00138 1.0012 0.991072
1.00298 1.0022 0.987313
1.0009 1.00186 0.991242
0.999942 1.00064 0.997615
1.00016 1.00212 0.992169
0.999769 0.99993 0.998014
0.99961 0.999067 0.998514
1.00517 0.995451 0.990169
1.0052 0.994939 0.990447
1.00518 0.994921 0.990363
1.00518 0.99615 0.989421
1.00511 0.997252 0.988245
1.00518 0.995567 0.98978
1.0052 0.995005 0.99068
1.00515 0.994938 0.990831
1.00519 0.994921 0.990686
1.00523 0.994952 0.990676
1.00522 0.995998 0.989691
1.00518 0.995042 0.990622
1.00517 0.995971 0.98981
1.00515 0.997557 0.988373
1.0052 0.995995 0.989641
1.00519 0.997897 0.987858
1.00519 0.999333 0.986416
1.00523 0.998119 0.987565
1.0052 0.999513 0.98621
1.00442 1.00001 0.987007
1.00519 0.999666 0.986051
1.00439 1.00006 0.987023
1.00186 1.0001 0.99264
1.00436 1.00004 0.987097
1.00192 0.99999 0.992687
1.00047 0.999882 0.994956
1.00197 0.999997 0.992671
1.00015 0.999939 0.995245
0.99979 1.00034 0.995342
1.00518 0.996679 0.989038
1.00521 0.998386 0.987262
1.00518 0.997179 0.988396
1.0052 0.999394 0.98644
1.00521 0.998629 0.987005
1.00518 0.99757 0.98796
1.00436 0.999953 0.987144
1.00518 0.999682 0.986066
1.00525 0.99868 0.986798
1.00156 1.00065 0.991255
1.00415 1.00029 0.987154
1.00509 1.00005 0.985763
1.00378 1.00084 0.98724
1.00131 1.00129 0.991077
0.999967 1.00081 0.997584
1.00078 1.00199 0.99125
0.99991 1.00049 0.997685
0.999671 0.999753 0.998171
1.00518 0.995273 0.990334
1.00517 0.995489 0.990119
1.0052 0.994935 0.990461
1.00518 0.996052 0.989501
1.00521 0.996199 0.989578
1.00521 0.995024 0.990702
1.00515 0.994946 0.990845
1.00524 0.99495 0.990773
1.00521 0.995973 0.989736
1.00518 0.997586 0.988295
1.00519 0.996106 0.989613
1.00515 0.997754 0.988114
1.00518 0.998964 0.986847
1.00518 0.997885 0.987861
1.00518 0.999328 0.986424
1.00443 0.99993 0.98705
1.00519 0.999508 0.986219
1.00441 1.00001 0.987015
1.00193 1.00017 0.991147
1.00439 1.00005 0.987034
1.00197 1.00007 0.991855
1.0004 0.999936 0.997584
1.00204 0.999962 0.992569
1.00024 0.999869 0.99517
0.999912 0.999989 0.995429
1.00518 0.996268 0.9895
1.0052 0.998064 0.987688
1.00518 0.99676 0.989002
1.0052 0.999174 0.986501
1.0052 0.998391 0.98726
1.00518 0.996982 0.988563
1.00439 0.999732 0.987075
1.0052 0.9994 0.986447
1.00521 0.998717 0.986896
1.00173 1.00013 0.991464
1.00434 0.999911 0.987069
1.00518 0.999556 0.986049
1.00004 1.00064 0.997639
1.00155 1.00065 0.991267
1.00413 1.00028 0.987167
1.00124 1.00136 0.991084
0.999969 1.00071 0.997582
0.999818 1.00039 0.997788
1.00518 0.99609 0.989665
1.00519 0.99536 0.990301
1.00517 0.995524 0.990069
1.00519 0.997634 0.988164
1.0052 0.996085 0.989653
1.00522 0.995041 0.990724
1.0052 0.995949 0.989782
1.00518 0.997565 0.988305
1.00516 0.998889 0.98711
1.00514 0.99795 0.987854
1.00518 0.99911 0.986751
1.00443 0.999727 0.9871
1.00518 0.999315 0.986432
1.00443 0.999928 0.987056
1.00195 1.00014 0.991138
1.00442 1.00001 0.987024
1.00194 1.00015 0.991146
1.0004 0.999978 0.997549
1.00199 1.00006 0.991167
1.0003 0.99993 0.996349
1.00001 0.999834 0.995381
1.00518 0.996479 0.989248
1.0052 0.997896 0.987843
1.00518 0.996253 0.989548
1.0052 0.999216 0.986463
1.0052 0.99812 0.987605
1.00518 0.996844 0.988966
1.00444 0.99965 0.98712
1.0052 0.999291 0.986472
1.0052 0.998398 0.987257
1.00185 0.999895 0.991491
1.00439 0.999732 0.987078
1.00521 0.999409 0.986454
1.00019 1.0003 0.997672
1.00175 1.00011 0.991465
1.00433 0.999871 0.986992
1.00005 1.0006 0.997612
1.00154 1.00065 0.991278
0.999942 1.00067 0.997593
1.00521 0.997469 0.988321
1.00518 0.996171 0.989569
1.0052 0.995449 0.990268
1.00516 0.998781 0.987221
1.00519 0.997541 0.988257
1.0052 0.995971 0.989727
1.00518 0.997544 0.988314
1.00516 0.998892 0.98711
1.00438 0.999631 0.987288
1.00517 0.999259 0.986655
1.00444 0.999781 0.987111
1.00197 1.00006 0.991191
1.00443 0.999923 0.987062
1.00194 1.00014 0.99114
1.00038 1.00001 0.99751
1.00193 1.00015 0.991145
1.00039 0.999991 0.99753
1.00038 0.999887 0.994917
1.00522 0.997785 0.987899
1.00517 0.996294 0.98942
1.0052 0.9991 0.986601
1.00521 0.997903 0.987829
1.00518 0.996234 0.989597
1.00444 0.999694 0.987284
1.00519 0.999225 0.986459
1.00521 0.998173 0.987522
1.00194 0.99987 0.991372
1.00443 0.999691 0.987169
1.0052 0.999412 0.986443
1.00035 1.00005 0.997629
1.00186 0.999886 0.991493
1.00439 0.999724 0.987081
1.00017 1.00032 0.997661
1.00176 1.00009 0.991465
1.00004 1.00058 0.997594
1.00518 0.998758 0.987184
1.00521 0.997546 0.98823
1.00517 0.996254 0.989472
1.00434 0.999583 0.9874
1.00516 0.998787 0.987219
1.00519 0.997446 0.988349
1.00516 0.998899 0.987109
1.0044 0.999622 0.987263
1.00192 1.00001 0.991314
1.00444 0.999834 0.98712
1.00195 1.00006 0.991195
1.00041 1.00001 0.997496
1.00194 1.00014 0.991142
1.00039 1.00002 0.997508
1.0004 0.999999 0.997516
1.0052 0.998991 0.986714
1.00522 0.997569 0.988136
1.00516 0.996111 0.989591
1.00441 0.999678 0.987356
1.0052 0.999109 0.986591
1.00521 0.99791 0.987815
1.00196 0.999953 0.991282
1.00442 0.999698 0.987278
1.00519 0.999234 0.986454
1.00042 0.999949 0.997556
1.00194 0.999886 0.991372
1.00442 0.999726 0.987218
1.00031 1.00008 0.997649
1.00187 0.999894 0.991495
1.00018 1.00031 0.997641
1.00435 0.999658 0.987481
1.00518 0.998709 0.987157
1.00521 0.997624 0.988139
1.00188 0.999954 0.991455
1.00435 0.999565 0.987389
1.00516 0.998791 0.987218
1.00441 0.999608 0.987238
1.00192 0.999993 0.991322
1.0004 1.00001 0.997492
1.00193 1.00007 0.991199
1.0004 1.00002 0.997489
1.00038 1.00003 0.997504
1.00438 0.99966 0.987429
1.0052 0.998867 0.986847
1.00522 0.997355 0.988372
1.00202 1.00001 0.992523
1.0044 0.999677 0.987356
1.00519 0.999119 0.986581
1.00042 0.999957 0.99751
1.00196 0.999973 0.991283
1.00441 0.999703 0.987272
1.0004 0.999979 0.997585
1.00194 0.999911 0.991373
1.00029 1.0001 0.997664
1.00193 0.999954 0.991401
1.00435 0.999602 0.987442
1.00518 0.998658 0.987129
1.00034 0.999995 0.997531
1.00187 0.999953 0.991454
1.00436 0.999549 0.987377
1.00191 0.99998 0.991326
1.00037 1.00001 0.997503
1.00039 1.00003 0.997489
1.00205 0.999981 0.992542
1.00438 0.999658 0.987429
1.00519 0.99874 0.986981
1.00004 0.999995 0.997874
1.00193 1.00001 0.991304
1.00439 0.999672 0.987358
1.00042 0.999968 0.997532
1.00196 0.999995 0.991283
1.00038 0.999998 0.99761
1.00033 0.999982 0.994981
1.00195 0.999953 0.99203
1.00435 0.999548 0.987401
1.00036 0.999995 0.997534
1.00187 0.999954 0.991459
1.00039 1 0.997509
0.999964 1 0.995326
1.00197 0.999976 0.991968
1.00437 0.999658 0.987429
1.0002 0.999992 0.996392
1.00193 1.00001 0.991314
1.00042 0.999978 0.997555
1.00034 0.999988 0.997534
1.00186 0.99995 0.991477
1.00032 0.999994 0.997535
1.00016 0.999987 0.996434
1.0019 0.999974 0.99141
1.00039 0.999982 0.997525
1.00035 0.999986 0.997544
1.00035 0.999985 0.997534

TENSORS stress float
0.00173636 -9.77821e-05 0.000182883
-9.77821e-05 0.00069054 -2.54968e-05
0.000182883 -2.54968e-05 0.000668893
0.00549635 -0.000100285 0.000178255
-0.000100285 0.00295211 1.88528e-05
0.000178255 1.88528e-05 0.0029325
0.0015181 -2.85622e-05 8.45328e-05
-2.85622e-05 0.000567732 -1.00061e-05
8.45328e-05 -1.00061e-05 0.000536916
0.0018682 -5.83761e-05 0.00018322
-5.83761e-05 0.000743425 -1.5997e-05
0.00018322 -1.5997e-05 0.000725833
0.0018121 -8.81346e-05 0.000180178
-8.81346e-05 0.000725887 -2.30189e-05
0.000180178 -2.30189e-05 0.00070593
0.00168433 -9.4498e-05 0.000187671
-9.4498e-05 0.000658716 -2.52425e-05
0.000187671 -2.52425e-05 0.000638803
0.00148357 -7.3206e-05 2.89751e-05
-7.3206e-05 0.00046671 -9.78083e-06
2.89751e-05 -9.78083e-06 0.000382515
0.00542338 -0.000104628 -6.57248e-06
-0.000104628 0.00289769 3.86757e-07
-6.57248e-06 3.86757e-07 0.00288397
0.00545683 7.10913e-05 8.3003e-05
7.10913e-05 0.00288062 5.1336e-06
8.3003e-05 5.1336e-06 0.00286636
0.00520094 -0.000200695 1.94757e-05
-0.000200695 0.0027715 2.86833e-06
1.94757e-05 2.86833e-06 0.00273777
0.00170878 9.25743e-05 0.000184593
9.25743e-05 0.000670086 1.76568e-05
0.000184593 1.76568e-05 0.00066056
0.000619539 0.000189359 2.29575e-05
0.000189359 -3.04277e-05 1.41747e-05
2.29575e-05 1.41747e-05 -0.000124241
0.00165763 -3.2951e-05 0.000192541
-3.2951e-05 0.000614193 2.52324e-06
0.000192541 2.52324e-06 0.00060609
0.00128283 -1.08039e-05 3.57604e-05
-1.08039e-05 0.000414076 1.07179e-06
3.57604e-05 1.07179e-06 0.000376647
0.00136387 -1.97053e-05 -3.06432e-05
-1.97053e-05 0.00047816 5.52201e-06
-3.06432e-05 5.52201e-06 0.000441659
0.00157382 -6.23708e-05 6.43644e-05
-6.23708e-05 0.000582204 -3.68133e-06
6.43644e-05 -3.68133e-06 0.000554238
0.00152254 -1.045e-05 9.10167e-05
-1.045e-05 0.000577624 -9.50678e-06
9.10167e-05 -9.50678e-06 0.000542867
0.00154651 -4.4488e-05 7.54906e-05
-4.4488e-05 0.000572023 -8.7233e-06
7.54906e-05 -8.7233e-06 0.000545396
0.00155776 -0.000114756 -3.13736e-05
-0.000114756 0.000502221 3.19558e-06
-3.13736e-05 3.19558e-06 0.00042653
0.00548902 -0.00011124 0.00023061
-0.00011124 0.00290764 -6.99101e-06
0.00023061 -6.99101e-06 0.00291216
0.00184205 -4.04068e-05 0.000185493
-4.04068e-05 0.000725526 -1.19481e-05
0.000185493 -1.19481e-05 0.000708791
0.00186859 -7.52063e-05 0.000181015
-7.52063e-05 0.000749882 -1.97625e-05
0.000181015 -1.97625e-05 0.000731685
0.00152954 -0.000104743 5.03085e-05
-0.000104743 0.000464714 -7.65094e-06
5.03085e-05 -7.65094e-06 0.000388841
0.0015259 -8.89449e-05 3.83311e-05
-8.89449e-05 0.000472294 -8.95501e-06
3.83311e-05 -8.95501e-06 0.00039532
0.00158177 -6.6565e-05 0.000180111
-6.6565e-05 0.000589786 -2.16384e-05
0.000180111 -2.16384e-05 0.000572989
0.0014642 -5.95589e-05 2.16669e-05
-5.95589e-05 0.000476675 -1.054e-05
2.16669e-05 -1.054e-05 0.000384089
0.00203425 -0.000221244 1.38366e-05
-0.000221244 0.000648462 -6.25519e-06
1.38366e-05 -6.25519e-06 0.000504452
0.00535751 -0.000120833 -0.000173448
-0.000120833 0.00285062 -1.08072e-05
-0.000173448 -1.08072e-05 0.00284073
0.0035036 7.23621e-05 -0.000106282
7.23621e-05 0.00172981 -8.84798e-06
-0.000106282 -8.84798e-06 0.00171127
0.00339484 -3.8821e-05 -9.95098e-05
-3.8821e-05 0.0016898 -5.05083e-06
-9.95098e-05 -5.05083e-06 0.0016649
0.00516199 -0.000154506 4.71645e-06
-0.000154506 0.00275188 -1.5152e-07
4.71645e-06 -1.5152e-07 0.00273356
0.000589542 0.00017838 -2.36329e-06
0.00017838 -4.85961e-05 -6.45711e-07
-2.36329e-06 -6.45711e-07 -0.000139851
0.00159178 5.387e-05 0.000186693
5.387e-05 0.000585817 1.44272e-05
0.000186693 1.44272e-05 0.00056951
0.00175563 0.000127121 0.000189599
0.000127121 0.000705574 2.15768e-05
0.000189599 2.15768e-05 0.000684079
0.00263119 0.000174446 0.000115622
0.000174446 0.00112132 1.46763e-05
0.000115622 1.46763e-05 0.00105551
0.00403575 -0.000261666 1.37906e-08
-0.000261666 0.00211154 4.42701e-06
1.37906e-08 4.42701e-06 0.00206926
0.00268003 0.00021694 0.000114667
0.00021694 0.00117743 1.66705e-05
0.000114667 1.66705e-05 0.00110705
0.000606948 0.000154528 2.71169e-05
0.000154528 -3.23788e-05 1.80815e-05
2.71169e-05 1.80815e-05 -0.000118396
0.000884094 0.000179405 1.04345e-05
0.000179405 3.37361e-05 5.15237e-06
1.04345e-05 5.15237e-06 -0.00012821
0.00321312 -0.000104377 0.000102624
-0.000104377 0.00158687 4.33095e-06
0.000102624 4.33095e-06 0.0015903
0.00551381 6.64766e-05 3.67549e-06
6.64766e-05 0.00291288 -1.3443e-06
3.67549e-06 -1.3443e-06 0.00292251
0.00346735 5.98027e-05 -8.75398e-05
5.98027e-05 0.00170213 -3.20104e-06
-8.75398e-05 -3.20104e-06 0.00168803
0.005424 5.94681e-05 0.000226744
5.94681e-05 0.00286221 2.56377e-06
0.000226744 2.56377e-06 0.00287176
0.00129296 6.98208e-05 3.91441e-05
6.98208e-05 0.000417537 2.0998e-06
3.91441e-05 2.0998e-06 0.000384634
0.000672976 8.52859e-06 1.62089e-05
8.52859e-06 -6.95326e-05 1.64722e-06
1.62089e-05 1.64722e-06 -0.000142177
0.00535977 0.000188206 0.000116079
0.000188206 0.00284585 1.00552e-05
0.000116079 1.00552e-05 0.00282371
0.00268917 5.63711e-05 0.000112897
5.63711e-05 0.00112228 6.5484e-06
0.000112897 6.5484e-06 0.00107041
0.00121617 -7.36097e-05 -4.96717e-05
-7.36097e-05 0.000386043 6.19865e-06
-4.96717e-05 6.19865e-06 0.00034602
0.00128565 -6.324e-05 -4.27139e-05
-6.324e-05 0.000429402 6.50114e-06
-4.27139e-05 6.50114e-06 0.000392226
0.00143106 3.34212e-05 -1.89055e-05
3.34212e-05 0.000525094 5.59195e-06
-1.89055e-05 5.59195e-06 0.000483866
0.00159497 -0.000125544 -9.92839e-05
-0.000125544 0.000517664 1.58497e-05
-9.92839e-05 1.58497e-05 0.000448766
0.00345181 1.03177e-05 -9.27704e-05
1.03177e-05 0.0016996 -1.82556e-06
-9.27704e-05 -1.82556e-06 0.00168304
0.00156631 -4.61192e-05 7.11151e-05
-4.61192e-05 0.000572859 -3.09451e-06
7.11151e-05 -3.09451e-06 0.000546779
0.00146712 1.40635e-05 9.36427e-05
1.40635e-05 0.000547345 -7.49012e-06
9.36427e-05 -7.49012e-06 0.000511253
0.00156737 -5.47412e-05 6.86034e-05
-5.47412e-05 0.000578052 -6.18782e-06
6.86034e-05 -6.18782e-06 0.000552282
0.00158261 -8.68836e-05 -2.53243e-05
-8.68836e-05 0.0004891 1.13535e-06
-2.53243e-05 1.13535e-06 0.000420272
0.00154598 -0.000106108 -3.64114e-05
-0.000106108 0.000509717 3.30953e-06
-3.64114e-05 3.30953e-06 0.000429209
0.00157936 -0.000113286 -2.6836e-05
-0.000113286 0.0005015 2.37027e-06
-2.6836e-05 2.37027e-06 0.00042971
0.00202643 -0.000219066 -7.02799e-06
-0.000219066 0.000642146 1.87159e-06
-7.02799e-06 1.87159e-06 0.000498422
0.00538268 4.07865e-05 0.000220375
4.07865e-05 0.00283778 -1.71221e-07
0.000220375 -1.71221e-07 0.00284794
0.00181252 -2.16004e-05 0.000185385
-2.16004e-05 0.000710319 -8.17179e-06
0.000185385 -8.17179e-06 0.000695155
0.0024136 1.96157e-05 3.48332e-05
1.96157e-05 0.000976306 -9.41462e-07
3.48332e-05 -9.41462e-07 0.000915983
0.00153054 -8.41391e-05 4.38159e-05
-8.41391e-05 0.000456996 -5.19201e-06
4.38159e-05 -5.19201e-06 0.000385
0.00152463 -9.8052e-05 4.56252e-05
-9.8052e-05 0.000463386 -8.35984e-06
4.56252e-05 -8.35984e-06 0.000388466
0.00191639 -0.000134847 1.14814e-05
-0.000134847 0.000527345 -2.97526e-06
1.14814e-05 -2.97526e-06 0.000402505
0.00167862 -0.000178297 1.55638e-05
-0.000178297 0.00041482 -5.5914e-06
1.55638e-05 -5.5914e-06 0.000277808
0.00115486 -2.47927e-05 0.000140599
-2.47927e-05 0.000340597 -1.5197e-05
0.000140599 -1.5197e-05 0.000328178
0.00129219 -1.35633e-05 1.29129e-05
-1.35633e-05 0.000397998 -1.08426e-05
1.29129e-05 -1.08426e-05 0.000305557
0.00196895 -0.000236342 1.28879e-05
-0.000236342 0.000637629 -6.4772e-06
1.28879e-05 -6.4772e-06 0.000484809
0.00125816 -0.000213997 7.75985e-06
-0.000213997 8.27137e-05 -2.49318e-06
7.75985e-06 -2.49318e-06 -9.25775e-05
0.00570227 0.000142512 -0.000233225
0.000142512 0.00302642 -1.93265e-05
-0.000233225 -1.93265e-05 0.00302904
0.0048008 -0.000190985 -0.000129596
-0.000190985 0.00254899 -9.39559e-06
-0.000129596 -9.39559e-06 0.00252553
0.00545439 -4.2854e-05 -0.000195103
-4.2854e-05 0.00289361 -1.29637e-05
-0.000195103 -1.29637e-05 0.0028934
0.000546526 0.000173985 -2.37894e-05
0.000173985 -7.07957e-05 -1.45375e-05
-2.37894e-05 -1.45375e-05 -0.000162535
0.00571356 0.000161727 -3.01505e-06
0.000161727 0.00303216 -1.856e-06
-3.01505e-06 -1.856e-06 0.00303438
0.00570632 7.3535e-05 -8.53829e-06
7.3535e-05 0.00303266 -1.19809e-06
-8.53829e-06 -1.19809e-06 0.00303419
0.00052897 0.000120997 -1.74572e-07
0.000120997 -0.000122173 -2.70909e-07
-1.74572e-07 -2.70909e-07 -0.000209058
0.00265414 -0.000127888 -5.68658e-05
-0.000127888 0.00126999 -1.83287e-06
-5.68658e-05 -1.83287e-06 0.00124279
0.000528423 0.000177076 -6.24924e-07
0.000177076 -8.80706e-05 -2.91116e-07
-6.24924e-07 -2.91116e-07 -0.00018095
0.00153935 0.00012983 3.79987e-05
0.00012983 0.000530044 8.25274e-07
3.79987e-05 8.25274e-07 0.000456048
0.000889326 0.00017707 3.9012e-08
0.00017707 3.3213e-05 5.26236e-08
3.9012e-08 5.26236e-08 -0.000128079
0.00381522 -0.000110013 0.000128752
-0.000110013 0.00194304 6.88479e-06
0.000128752 6.88479e-06 0.0019434
0.000638357 -3.24403e-05 3.75043e-06
-3.24403e-05 4.69261e-05 8.3691e-06
3.75043e-06 8.3691e-06 5.27386e-06
0.000648668 9.06635e-05 1.71048e-05
9.06635e-05 -7.1718e-05 8.579e-06
1.71048e-05 8.579e-06 -0.000153918
0.000685604 0.000145308 2.18795e-05
0.000145308 -1.60825e-05 1.47867e-05
2.18795e-05 1.47867e-05 -0.000108119
0.000984886 0.000146282 1.35132e-05
0.000146282 -7.09296e-06 5.28772e-06
1.35132e-05 5.28772e-06 -0.000153164
0.00243151 6.25262e-05 8.2375e-05
6.25262e-05 0.00107834 1.10462e-05
8.2375e-05 1.10462e-05 0.0010257
0.000947268 0.000173492 1.14689e-05
0.000173492 3.59579e-05 6.35027e-06
1.14689e-05 6.35027e-06 -0.00011858
0.000882827 0.00018719 9.80386e-06
0.00018719 0.000104468 5.14214e-06
9.80386e-06 5.14214e-06 -6.6787e-05
0.00111483 0.000229177 4.98381e-06
0.000229177 9.51645e-05 1.31015e-06
4.98381e-06 1.31015e-06 -0.000103379
0.00274209 -0.000119878 5.70597e-05
-0.000119878 0.00130722 2.2688e-06
5.70597e-05 2.2688e-06 0.001307
0.00303761 -0.000135103 1.13217e-05
-0.000135103 0.00148857 -3.60814e-07
1.13217e-05 -3.60814e-07 0.00148413
0.0056623 2.2261e-05 -0.000226988
2.2261e-05 0.00299434 -9.43042e-06
-0.000226988 -9.43042e-06 0.00300263
0.00556189 5.68262e-05 -0.000231287
5.68262e-05 0.00293885 -5.60127e-06
-0.000231287 -5.60127e-06 0.00294925
0.00549239 8.29987e-05 -1.73938e-07
8.29987e-05 0.00290861 -2.59763e-06
-1.73938e-07 -2.59763e-06 0.00291409
0.00342951 1.22592e-05 -0.00010156
1.22592e-05 0.00167816 -3.97403e-06
-0.00010156 -3.97403e-06 0.00166726
0.00165502 3.1998e-05 4.83028e-05
3.1998e-05 0.00051268 9.34685e-07
4.83028e-05 9.34685e-07 0.000451953
0.00354001 0.000106665 -8.92042e-05
0.000106665 0.00174861 -4.47183e-06
-8.92042e-05 -4.47183e-06 0.00173039
0.0016908 7.54167e-05 4.74665e-05
7.54167e-05 0.000535831 1.82345e-06
4.74665e-05 1.82345e-06 0.000470201
0.00546225 0.000140168 0.00022944
0.000140168 0.00290101 5.6248e-06
0.00022944 5.6248e-06 0.00290028
0.000599566 1.00036e-05 1.84094e-05
1.00036e-05 -0.00010976 4.79808e-07
1.84094e-05 4.79808e-07 -0.000180702
0.00270928 2.40911e-05 0.000113063
2.40911e-05 0.00113307 4.35092e-06
0.000113063 4.35092e-06 0.00108402
0.00102417 3.48968e-05 1.24065e-05
3.48968e-05 -1.8514e-05 1.22244e-06
1.24065e-05 1.22244e-06 -0.000139811
0.00261499 9.8764e-05 0.000114889
9.8764e-05 0.00108657 8.37161e-06
0.000114889 8.37161e-06 0.00103094
0.00104535 8.30498e-05 1.21209e-05
8.30498e-05 -5.86337e-06 2.47071e-06
1.21209e-05 2.47071e-06 -0.000135747
0.00166086 4.12937e-05 -0.000190598
4.12937e-05 0.000617774 1.65159e-06
-0.000190598 1.65159e-06 0.000610017
0.00126376 8.12949e-07 -3.65432e-05
8.12949e-07 0.000405098 1.71564e-06
-3.65432e-05 1.71564e-06 0.00036868
0.00141405 8.62142e-05 -8.2295e-06
8.62142e-05 0.000533071 6.78776e-06
-8.2295e-06 6.78776e-06 0.000482041
0.00122739 -7.55665e-05 -5.03394e-05
-7.55665e-05 0.000393752 6.9426e-06
-5.03394e-05 6.9426e-06 0.000355296
0.00169792 -6.6764e-05 -9.83982e-05
-6.6764e-05 0.000549401 8.43285e-06
-9.83982e-05 8.43285e-06 0.000488194
0.00163999 -0.000106939 -9.79125e-05
-0.000106939 0.000530687 1.3798e-05
-9.79125e-05 1.3798e-05 0.000465823
0.00155959 -0.000130657 -0.000100488
-0.000130657 0.000508091 1.62639e-05
-0.000100488 1.62639e-05 0.000435809
0.00202043 -0.000217272 -2.65298e-05
-0.000217272 0.000637479 9.49271e-06
-2.65298e-05 9.49271e-06 0.000494035
0.00546805 -8.50955e-05 2.02992e-06
-8.50955e-05 0.00289506 -1.45354e-06
2.02992e-06 -1.45354e-06 0.00290018
0.00151134 4.43436e-05 7.9542e-05
4.43436e-05 0.000539519 -2.87086e-06
7.9542e-05 -2.87086e-06 0.000516331
0.00113195 -1.28185e-06 -5.11742e-05
-1.28185e-06 0.000208154 9.4144e-07
-5.11742e-05 9.4144e-07 0.000146078
0.00159081 -5.13718e-05 -2.93101e-05
-5.13718e-05 0.000487837 1.62418e-06
-2.93101e-05 1.62418e-06 0.000421541
0.00300783 4.26755e-05 0.000149257
4.26755e-05 0.00146215 -3.51828e-06
0.000149257 -3.51828e-06 0.00145064
0.00194552 -8.14846e-05 -3.25425e-05
-8.14846e-05 0.000767007 4.70726e-07
-3.25425e-05 4.70726e-07 0.000685906
0.00158398 -0.000102441 -2.464e-05
-0.000102441 0.000495568 1.57776e-06
-2.464e-05 1.57776e-06 0.000425888
0.00182252 -0.000128678 -8.71856e-06
-0.000128678 0.000470148 1.52896e-06
-8.71856e-06 1.52896e-06 0.000344882
0.00198752 -0.000238038 -5.74733e-06
-0.000238038 0.00064767 1.86765e-06
-5.74733e-06 1.86765e-06 0.00049461
0.00185328 -0.000185415 -4.42813e-06
-0.000185415 0.000517357 1.07202e-06
-4.42813e-06 1.07202e-06 0.000380995
0.00126483 -0.000214955 2.63235e-07
-0.000214955 8.46106e-05 -8.06669e-08
2.63235e-07 -8.06669e-08 -9.06494e-05
0.000635348 1.29632e-05 1.89304e-05
1.29632e-05 -9.05989e-05 -1.17565e-06
1.89304e-05 -1.17565e-06 -0.000158398
0.00147712 1.54197e-05 3.49962e-05
1.54197e-05 0.000421309 -2.54714e-06
3.49962e-05 -2.54714e-06 0.000354387
0.00164077 -3.20673e-05 1.27494e-05
-3.20673e-05 0.000351033 -1.05273e-06
1.27494e-05 -1.05273e-06 0.00023872
0.00164835 -0.000100459 1.25422e-05
-0.000100459 0.000361595 -2.36887e-06
1.25422e-05 -2.36887e-06 0.000239314
0.00163351 -0.000150307 1.43414e-05
-0.000150307 0.000370484 -4.25779e-06
1.43414e-05 -4.25779e-06 0.000239588
0.00171812 -0.00016349 1.76967e-06
-0.00016349 0.000263777 -7.10729e-07
1.76967e-06 -7.10729e-07 0.000115024
0.00418625 0.000161803 0.000116321
0.000161803 0.00217941 -6.06727e-06
0.000116321 -6.06727e-06 0.00216515
0.0013044 -0.000198799 6.50861e-06
-0.000198799 7.93354e-05 -2.15875e-06
6.50861e-06 -2.15875e-06 -8.78086e-05
0.0003402 -8.32928e-05 1.47637e-05
-8.32928e-05 -0.000166846 -1.35254e-05
1.47637e-05 -1.35254e-05 -0.000236423
0.000862361 -0.000178462 9.82883e-06
-0.000178462 2.54951e-05 -7.03172e-06
9.82883e-06 -7.03172e-06 -0.000135903
0.00131373 -0.000238767 8.93509e-06
-0.000238767 0.00014985 -2.93243e-06
8.93509e-06 -2.93243e-06 -3.75708e-05
0.00152974 -0.000276823 3.84763e-06
-0.000276823 0.00013634 2.65083e-07
3.84763e-06 2.65083e-07 -5.31073e-05
0.00041584 -2.17464e-05 7.87927e-06
-2.17464e-05 -9.57212e-05 -1.09426e-05
7.87927e-06 -1.09426e-05 -0.000150099
0.000689736 -3.62964e-05 1.03956e-06
-3.62964e-05 7.24654e-05 -4.13934e-06
1.03956e-06 -4.13934e-06 -4.19386e-05
0.00573196 0.000177511 -0.000244952
0.000177511 0.00304701 -1.99678e-05
-0.000244952 -1.99678e-05 0.00304723
0.00555698 5.49157e-05 -0.000212522
5.49157e-05 0.00294369 -1.61283e-05
-0.000212522 -1.61283e-05 0.00294821
0.000527139 0.000114154 -1.81851e-05
0.000114154 -0.000125013 -1.02379e-05
-1.81851e-05 -1.02379e-05 -0.000211693
0.00410357 -0.000167608 -0.000112585
-0.000167608 0.00212891 -5.50861e-06
-0.000112585 -5.50861e-06 0.00211528
0.000441599 0.000118658 -1.89826e-05
0.000118658 -0.000121655 -1.40904e-05
-1.89826e-05 -1.40904e-05 -0.000196698
0.000482358 0.000161858 -2.02994e-05
0.000161858 -0.000110957 -1.35831e-05
-2.02994e-05 -1.35831e-05 -0.000205468
0.000915759 0.000177648 -1.18902e-05
0.000177648 4.51714e-05 -5.25637e-06
-1.18902e-05 -5.25637e-06 -0.000115882
0.00362626 -0.000130783 7.73496e-06
-0.000130783 0.00183731 -4.64714e-07
7.73496e-06 -4.64714e-07 0.00183367
0.000528944 -4.36272e-05 2.90061e-07
-4.36272e-05 -1.35193e-05 4.81962e-07
2.90061e-07 4.81962e-07 -5.5718e-05
0.00165459 0.000118101 4.76212e-05
0.000118101 0.000526498 3.13428e-06
4.76212e-05 3.13428e-06 0.000454244
0.00159948 0.000167276 4.59623e-05
0.000167276 0.000528454 2.84533e-06
4.59623e-05 2.84533e-06 0.000447137
0.000980601 0.00014776 1.53241e-07
0.00014776 -6.95808e-06 -2.29347e-07
1.53241e-07 -2.29347e-07 -0.000153711
0.00062093 5.91386e-05 -6.6067e-07
5.91386e-05 8.43026e-06 1.8013e-07
-6.6067e-07 1.8013e-07 -5.42097e-05
0.000938508 0.000173461 4.88463e-07
0.000173461 3.12764e-05 2.96428e-07
4.88463e-07 2.96428e-07 -0.000123298
0.000856872 0.000175562 8.03176e-07
0.000175562 8.54084e-05 -1.46475e-06
8.03176e-07 -1.46475e-06 -8.36119e-05
0.000917762 0.000215156 -7.56852e-07
0.000215156 -2.12418e-05 6.10992e-07
-7.56852e-07 6.10992e-07 -0.000218261
0.000674622 1.69852e-05 1.02086e-05
1.69852e-05 5.57783e-05 1.00796e-05
1.02086e-05 1.00796e-05 3.95763e-06
0.000600894 -6.38905e-05 -7.34592e-08
-6.38905e-05 2.85649e-05 6.76475e-06
-7.34592e-08 6.76475e-06 -6.91093e-06
0.000786695 6.2707e-05 3.31226e-06
6.2707e-05 0.000142102 4.50672e-06
3.31226e-06 4.50672e-06 3.02498e-05
0.00102061 0.000126397 1.29954e-05
0.000126397 -4.28235e-06 4.29963e-06
1.29954e-05 4.29963e-06 -0.000144973
0.000945073 0.000162539 1.29638e-05
0.000162539 8.09267e-07 6.07193e-06
1.29638e-05 6.07193e-06 -0.000150283
0.00134155 0.000213466 6.02122e-06
0.000213466 8.75974e-05 1.62585e-06
6.02122e-06 1.62585e-06 -8.89706e-05
0.000902026 0.000174867 6.96663e-06
0.000174867 0.000175548 7.24815e-06
6.96663e-06 7.24815e-06 1.40109e-05
0.00108161 0.000219266 5.42108e-06
0.000219266 3.39002e-05 2.67409e-06
5.42108e-06 2.67409e-06 -0.000154903
0.00133814 0.00025694 5.77614e-06
0.00025694 0.000295611 6.63724e-07
5.77614e-06 6.63724e-07 7.51153e-05
0.00154405 0.00027917 3.12215e-07
0.00027917 0.000298805 2.98604e-08
3.12215e-07 2.98604e-08 8.70198e-05
0.00250079 -0.000115193 3.32835e-05
-0.000115193 0.00115914 2.91776e-06
3.32835e-05 2.91776e-06 0.00115981
0.00262875 -0.000129312 5.76176e-06
-0.000129312 0.00124259 -5.24888e-07
5.76176e-06 -5.24888e-07 0.00123935
0.00284928 -0.00014781 -4.3913e-05
-0.00014781 0.00138092 -2.47673e-06
-4.3913e-05 -2.47673e-06 0.00137242
0.000414313 -4.60896e-06 5.59798e-06
-4.60896e-06 -9.04683e-05 -9.181e-06
5.59798e-06 -9.181e-06 -0.000138218
0.00379453 0.000142434 0.00010218
0.000142434 0.0019412 -4.93308e-06
0.00010218 -4.93308e-06 0.00193254
0.00572491 0.000169497 -0.00024732
0.000169497 0.0030428 -1.76892e-05
-0.00024732 -1.76892e-05 0.00304396
0.00556091 6.10684e-05 -0.000228268
6.10684e-05 0.00293647 -7.81963e-06
-0.000228268 -7.81963e-06 0.00294632
0.000619322 8.70558e-05 -1.95691e-05
8.70558e-05 -9.69511e-05 -4.60263e-06
-1.95691e-05 -4.60263e-06 -0.000173188
0.000599353 3.88679e-05 -1.91099e-05
3.88679e-05 -0.000107809 -2.23727e-06
-1.91099e-05 -2.23727e-06 -0.000181327
0.00542993 -1.69292e-05 -0.000221671
-1.69292e-05 0.00286268 -1.29409e-06
-0.000221671 -1.29409e-06 0.00287388
0.00540625 1.78302e-05 -6.75939e-07
1.78302e-05 0.00284991 -3.66661e-07
-6.75939e-07 -3.66661e-07 0.00286077
0.000582092 6.79021e-07 -1.37919e-07
6.79021e-07 -0.000122085 -6.38894e-08
-1.37919e-07 -6.38894e-08 -0.00019151
0.00163933 3.04945e-05 4.81267e-05
3.04945e-05 0.000502211 1.63727e-06
4.81267e-05 1.63727e-06 0.000440999
0.00100658 3.86851e-05 2.38106e-08
3.86851e-05 -2.92569e-05 -1.30918e-07
2.38106e-08 -1.30918e-07 -0.000150927
0.000588543 7.30133e-05 -4.20472e-07
7.30133e-05 -0.000110225 -2.97827e-07
-4.20472e-07 -2.97827e-07 -0.000189836
0.0010112 8.46075e-05 -9.50517e-08
8.46075e-05 -2.47828e-05 -1.51459e-07
-9.50517e-08 -1.51459e-07 -0.000155209
0.000574542 -2.66548e-05 1.88858e-05
-2.66548e-05 -0.000128333 -8.32979e-07
1.88858e-05 -8.32979e-07 -0.000195526
0.00100526 1.50454e-05 1.2238e-05
1.50454e-05 -2.65286e-05 5.09271e-07
1.2238e-05 5.09271e-07 -0.000145972
0.00101825 5.90152e-05 1.21466e-05
5.90152e-05 -2.27311e-05 1.89277e-06
1.21466e-05 1.89277e-06 -0.000147676
0.00144185 5.81464e-05 1.81032e-06
5.81464e-05 5.27404e-05 1.6824e-07
1.81032e-06 1.6824e-07 -7.5433e-05
0.00104012 0.000104492 1.24446e-05
0.000104492 -3.34585e-06 3.27049e-06
1.24446e-05 3.27049e-06 -0.000138544
0.00147208 0.000128168 2.71093e-06
0.000128168 8.04645e-05 2.63978e-07
2.71093e-06 2.63978e-07 -6.31156e-05
0.00540407 -4.53886e-05 -0.000228238
-4.53886e-05 0.00285163 5.08092e-07
-0.000228238 5.08092e-07 0.00286074
0.00125287 -0.000128766 -3.86575e-05
-0.000128766 0.000404444 4.00595e-06
-3.86575e-05 4.00595e-06 0.00036706
-0.000259757 -1.63872e-06 -1.29996e-05
-1.63872e-06 -0.000612824 2.13108e-06
-1.29996e-05 2.13108e-06 -0.000693644
0.00167781 -4.58889e-05 -9.87418e-05
-4.58889e-05 0.000534301 6.07993e-06
-9.87418e-05 6.07993e-06 0.000474055
0.00456628 0.000329884 1.09162e-05
0.000329884 0.0024573 6.67215e-06
1.09162e-05 6.67215e-06 0.00239287
0.0026238 -0.000171704 -0.000100912
-0.000171704 0.00115419 1.63458e-05
-0.000100912 1.63458e-05 0.0010815
0.00168277 -8.74093e-05 -9.78453e-05
-8.74093e-05 0.000546106 1.10937e-05
-9.78453e-05 1.10937e-05 0.000483928
0.00170161 -0.000121541 -2.69828e-05
-0.000121541 0.000396708 5.30059e-06
-2.69828e-05 5.30059e-06 0.00027123
0.00201375 -0.000191628 -2.51069e-05
-0.000191628 0.000611546 7.83117e-06
-2.51069e-05 7.83117e-06 0.000476094
0.00202005 -0.000240209 -2.39702e-05
-0.000240209 0.000667156 9.5554e-06
-2.39702e-05 9.5554e-06 0.000513691
0.001269 -0.000215781 -6.44124e-06
-0.000215781 8.50908e-05 2.13442e-06
-6.44124e-06 2.13442e-06 -9.0137e-05
0.000578426 7.59846e-06 -5.42541e-08
7.59846e-06 -0.000122315 7.4923e-08
-5.42541e-08 7.4923e-08 -0.000191055
0.00159582 -6.41129e-05 -2.87607e-05
-6.41129e-05 0.000490825 3.24242e-07
-2.87607e-05 3.24242e-07 0.000426864
0.00121218 -2.76228e-05 -6.97689e-06
-2.76228e-05 9.83977e-05 3.58262e-07
-6.97689e-06 3.58262e-07 -1.82476e-05
0.00182172 -0.000102195 -5.25192e-06
-0.000102195 0.000461862 7.91327e-07
-5.25192e-06 7.91327e-07 0.000340968
0.0042963 0.000150639 -6.25028e-06
0.000150639 0.00224211 -8.67927e-07
-6.25028e-06 -8.67927e-07 0.00222963
0.00149386 -7.41108e-05 -2.64193e-06
-7.41108e-05 0.000524553 -7.65392e-08
-2.64193e-06 -7.65392e-08 0.000443208
0.00130954 -0.000202853 1.14244e-06
-0.000202853 0.000298441 -1.0509e-06
1.14244e-06 -1.0509e-06 0.000137296
0.00166402 -0.000150253 -5.60508e-06
-0.000150253 0.000388162 1.23608e-06
-5.60508e-06 1.23608e-06 0.000257252
0.00157332 -0.000159807 -2.43577e-06
-0.000159807 0.000176702 4.75077e-07
-2.43577e-06 4.75077e-07 2.85367e-05
0.00124523 -0.000235391 4.06479e-07
-0.000235391 0.000109285 -5.10096e-08
4.06479e-07 -5.10096e-08 -7.8786e-05
0.00149196 -0.00020747 2.65277e-07
-0.00020747 0.000187094 -1.92911e-07
2.65277e-07 -1.92911e-07 2.07542e-05
0.00154095 -0.000276019 6.24469e-07
-0.000276019 0.000147837 -3.62981e-08
6.24469e-07 -3.62981e-08 -4.08151e-05
0.000515688 -2.79305e-05 -8.16922e-07
-2.79305e-05 -3.98545e-05 1.28826e-07
-8.16922e-07 1.28826e-07 -9.47639e-05
0.000668011 -5.67154e-05 -4.90296e-07
-5.67154e-05 5.87979e-05 1.84166e-08
-4.90296e-07 1.84166e-08 -5.79159e-05
0.000995073 -1.31332e-05 1.21771e-05
-1.31332e-05 -2.86355e-05 -8.69788e-07
1.21771e-05 -8.69788e-07 -0.000147166
0.00167272 -6.12746e-05 1.20843e-05
-6.12746e-05 0.000370323 -1.62729e-06
1.20843e-05 -1.62729e-06 0.000254357
0.00167204 -5.08166e-05 8.52633e-07
-5.08166e-05 0.000207161 4.23013e-08
8.52633e-07 4.23013e-08 8.11492e-05
0.00146325 -0.000125862 3.01153e-06
-0.000125862 9.66503e-05 -2.73873e-07
3.01153e-06 -2.73873e-07 -4.26711e-05
0.0016774 -0.000197434 3.69698e-06
-0.000197434 0.000269129 -9.16668e-07
3.69698e-06 -9.16668e-07 0.000112685
0.0017263 -0.000198198 -6.90356e-07
-0.000198198 0.000143598 4.7799e-07
-6.90356e-07 4.7799e-07 2.95373e-06
0.000372761 -5.5023e-05 1.17128e-05
-5.5023e-05 -0.000132107 -1.23566e-05
1.17128e-05 -1.23566e-05 -0.000193317
0.00160117 -0.000257837 1.8158e-06
-0.000257837 0.000142419 4.8965e-07
1.8158e-06 4.8965e-07 -2.91069e-05
0.000703815 -0.000152131 5.35774e-06
-0.000152131 1.78178e-05 -7.41942e-06
5.35774e-06 -7.41942e-06 -0.000142965
0.000970907 -0.000231598 9.8257e-06
-0.000231598 2.26838e-06 -3.4871e-06
9.8257e-06 -3.4871e-06 -0.000198878
0.00175618 -0.000317533 3.49939e-06
-0.000317533 0.000318588 -8.66106e-08
3.49939e-06 -8.66106e-08 0.000107402
0.0018771 -0.000314003 -1.71757e-06
-0.000314003 0.000282284 3.2409e-06
-1.71757e-06 3.2409e-06 0.000104321
0.00076432 -9.93092e-05 2.68868e-06
-9.93092e-05 0.000112818 -4.71145e-06
2.68868e-06 -4.71145e-06 -2.1502e-05
0.000635356 -2.2129e-05 6.13953e-07
-2.2129e-05 4.35399e-05 -3.61623e-06
6.13953e-07 -3.61623e-06 -5.78602e-05
0.00101034 -0.000154612 1.2417e-07
-0.000154612 0.000275889 1.62287e-07
1.2417e-07 1.62287e-07 0.000102946
0.000559159 9.31286e-05 -1.76342e-05
9.31286e-05 -0.000119866 -7.79248e-06
-1.76342e-05 -7.79248e-06 -0.00020264
0.00342713 -0.000156143 -7.83849e-05
-0.000156143 0.00172493 -2.75677e-06
-7.83849e-05 -2.75677e-06 0.0017149
0.000407345 -5.60905e-05 1.24125e-06
-5.60905e-05 -7.92424e-05 -7.965e-06
1.24125e-06 -7.965e-06 -0.00012326
0.000489225 0.00014 -1.89741e-05
0.00014 -0.000124593 -1.26777e-05
-1.89741e-05 -1.26777e-05 -0.000216037
0.000966231 0.000148887 -1.39726e-05
0.000148887 -1.25485e-05 -5.73174e-06
-1.39726e-05 -5.73174e-06 -0.000159955
0.000370207 5.14688e-05 -1.28614e-05
5.14688e-05 -0.000136994 -1.19564e-05
-1.28614e-05 -1.19564e-05 -0.000197377
0.0007841 0.0001615 -7.32003e-06
0.0001615 3.9866e-05 -7.61822e-06
-7.32003e-06 -7.61822e-06 -0.000126562
0.000933861 0.000173554 -1.14257e-05
0.000173554 2.91846e-05 -6.09697e-06
-1.14257e-05 -6.09697e-06 -0.000125453
0.000711553 0.000200123 -7.24564e-06
0.000200123 -0.00014335 -8.77542e-07
-7.24564e-06 -8.77542e-07 -0.000338598
0.00053603 6.09906e-06 1.86033e-06
6.09906e-06 -2.38116e-05 3.95419e-07
1.86033e-06 3.95419e-07 -7.41695e-05
0.000516946 -6.87396e-05 1.12652e-07
-6.87396e-05 -1.93246e-05 2.62842e-07
1.12652e-07 2.62842e-07 -5.53607e-05
0.000641 1.91927e-05 7.63526e-07
1.91927e-05 4.88473e-05 3.78372e-07
7.63526e-07 3.78372e-07 -5.27941e-05
0.000998138 0.000127255 -1.41471e-08
0.000127255 -1.47488e-05 -2.3469e-07
-1.41471e-08 -2.3469e-07 -0.000156133
0.000960746 0.000164875 4.62781e-07
0.000164875 1.15992e-05 -2.53121e-07
4.62781e-07 -2.53121e-07 -0.000140133
0.00134571 0.000212913 2.42547e-07
0.000212913 9.29298e-05 1.50841e-08
2.42547e-07 1.50841e-08 -8.36927e-05
0.000803083 0.000156375 -5.66114e-07
0.000156375 0.000119609 3.95026e-07
-5.66114e-07 3.95026e-07 -3.91112e-05
0.00118659 0.000225418 8.98065e-09
0.000225418 9.85652e-05 -3.85036e-09
8.98065e-09 -3.85036e-09 -9.05414e-05
0.00113713 0.000239705 8.80294e-07
0.000239705 0.000177891 -1.94917e-06
8.80294e-07 -1.94917e-06 -4.00516e-05
0.00117634 0.00025512 -7.54233e-07
0.00025512 8.10953e-05 3.52796e-07
-7.54233e-07 3.52796e-07 -0.000128036
0.0005566 -7.00173e-05 -1.97012e-06
-7.00173e-05 -5.50862e-06 5.70461e-06
-1.97012e-06 5.70461e-06 -3.56785e-05
0.000776445 0.000116682 5.22489e-06
0.000116682 0.000118817 4.61041e-06
5.22489e-06 4.61041e-06 -1.47217e-05
0.000704736 -4.52982e-06 9.79543e-07
-4.52982e-06 8.06051e-05 4.21501e-06
9.79543e-07 4.21501e-06 2.58235e-06
0.000824056 0.000108684 1.63343e-06
0.000108684 0.000187529 -2.76234e-07
1.63343e-06 -2.76234e-07 2.69513e-05
0.00140659 0.000190142 4.67521e-06
0.000190142 8.83981e-05 6.94729e-07
4.67521e-06 6.94729e-07 -7.714e-05
0.00126946 0.000226628 6.89397e-06
0.000226628 9.16857e-05 2.3312e-06
6.89397e-06 2.3312e-06 -9.32217e-05
0.00168643 0.000284283 1.44039e-06
0.000284283 0.000185903 -2.00696e-07
1.44039e-06 -2.00696e-07 8.23559e-07
0.00135072 0.000234103 3.22622e-06
0.000234103 0.000391994 4.35145e-06
3.22622e-06 4.35145e-06 0.00018551
0.00159887 0.000303453 5.14995e-08
0.000303453 0.000270725 -2.58245e-07
5.14995e-08 -2.58245e-07 6.16264e-05
0.00137788 0.00027742 2.48555e-06
0.00027742 0.00026623 -1.43622e-06
2.48555e-06 -1.43622e-06 2.58227e-05
0.00162557 0.000297044 9.097e-07
0.000297044 0.00027487 1.28311e-07
9.097e-07 1.28311e-07 5.90395e-05
0.00063191 3.73918e-06 2.21137e-06
3.73918e-06 1.72367e-05 2.3085e-06
2.21137e-06 2.3085e-06 -3.23345e-05
0.000548884 -4.45809e-05 6.58448e-07
-4.45809e-05 -3.58424e-05 4.60742e-06
6.58448e-07 4.60742e-06 -5.52842e-05
0.00239415 -0.000100137 2.83993e-05
-0.000100137 0.0010873 3.31949e-06
2.83993e-05 3.31949e-06 0.00109171
0.0024428 -0.000112722 3.26526e-06
-0.000112722 0.00112432 -3.40225e-07
3.26526e-06 -3.40225e-07 0.00112545
0.00253474 -0.00012694 -3.55657e-05
-0.00012694 0.0011871 -2.69574e-06
-3.55657e-05 -2.69574e-06 0.00118423
0.000442798 3.8638e-06 4.33189e-06
3.8638e-06 -7.52586e-05 -7.59375e-06
4.33189e-06 -7.59375e-06 -0.000114601
0.00338784 0.000129113 8.44536e-05
0.000129113 0.00169523 -4.01759e-06
8.44536e-05 -4.01759e-06 0.00169032
0.000530538 -6.79357e-06 -3.34775e-07
-6.79357e-06 -2.46158e-05 1.99544e-07
-3.34775e-07 1.99544e-07 -7.27171e-05
0.00390466 0.000131583 -4.43069e-06
0.000131583 0.00200303 -6.51325e-07
-4.43069e-06 -6.51325e-07 0.00199689
0.000611104 9.66625e-05 -1.90702e-05
9.66625e-05 -9.52961e-05 -6.20327e-06
-1.90702e-05 -6.20327e-06 -0.00017625
0.000618892 3.25995e-05 -1.83716e-05
3.25995e-05 -9.95599e-05 -3.16495e-06
-1.83716e-05 -3.16495e-06 -0.000173137
0.000992746 8.59303e-05 -1.19901e-05
8.59303e-05 -3.53439e-05 -2.75973e-06
-1.19901e-05 -2.75973e-06 -0.000166196
0.000987637 4.06942e-05 -1.23438e-05
4.06942e-05 -4.08917e-05 -1.46411e-06
-1.23438e-05 -1.46411e-06 -0.000162805
0.000631388 -6.39244e-06 -1.9125e-05
-6.39244e-06 -9.6732e-05 -7.36603e-07
-1.9125e-05 -7.36603e-07 -0.000164132
0.00547847 -9.5014e-05 -0.000235417
-9.5014e-05 0.00290086 3.54127e-06
-0.000235417 3.54127e-06 0.00290696
0.000618074 -4.78088e-07 1.40652e-07
-4.78088e-07 -0.000103547 -4.70232e-07
1.40652e-07 -4.70232e-07 -0.000170688
0.000998453 1.97808e-05 -3.3146e-08
1.97808e-05 -3.09046e-05 -9.73439e-08
-3.3146e-08 -9.73439e-08 -0.00015053
0.00101445 6.07601e-05 -6.5458e-08
6.07601e-05 -2.55445e-05 -9.58745e-08
-6.5458e-08 -9.58745e-08 -0.00015082
0.00144252 5.73285e-05 -5.98396e-08
5.73285e-05 5.40705e-05 7.26109e-08
-5.98396e-08 7.26109e-08 -7.42184e-05
0.00101165 0.000106265 -9.74873e-08
0.000106265 -1.83049e-05 -2.33799e-07
-9.74873e-08 -2.33799e-07 -0.000154308
0.00145824 0.000128991 -2.38447e-08
0.000128991 7.24796e-05 -3.89933e-08
-2.38447e-08 -3.89933e-08 -7.16376e-05
0.0009958 -3.70121e-07 1.22124e-05
-3.70121e-07 -2.87386e-05 -3.32281e-07
1.22124e-05 -3.32281e-07 -0.00014747
0.00142737 3.07581e-05 1.99391e-06
3.07581e-05 4.95724e-05 1.33652e-07
1.99391e-06 1.33652e-07 -7.52674e-05
0.00145609 9.30003e-05 1.95271e-06
9.30003e-05 6.17689e-05 1.23525e-07
1.95271e-06 1.23525e-07 -7.29417e-05
0.00176758 8.20214e-05 -1.98596e-06
8.20214e-05 9.80107e-05 -5.36557e-07
-1.98596e-06 -5.36557e-07 -6.41202e-06
0.00145962 0.000162174 3.5222e-06
0.000162174 8.91002e-05 5.32017e-07
3.5222e-06 5.32017e-07 -6.51281e-05
0.00177608 0.000171911 -4.03407e-07
0.000171911 0.000127103 -1.22916e-06
-4.03407e-07 -1.22916e-06 -1.87714e-06
0.000601706 1.4846e-06 -1.82917e-05
1.4846e-06 -0.000106904 1.09997e-06
-1.82917e-05 1.09997e-06 -0.000177219
0.00167237 -2.39037e-05 -9.84394e-05
-2.39037e-05 0.00053034 3.97422e-06
-9.84394e-05 3.97422e-06 0.000472379
0.000757585 -2.18937e-05 -1.43338e-05
-2.18937e-05 -0.000169049 1.68965e-06
-1.43338e-05 1.68965e-06 -0.000290225
0.00198113 -0.000102699 -2.3883e-05
-0.000102699 0.000553574 3.78853e-06
-2.3883e-05 3.78853e-06 0.000434243
0.00450807 0.000127235 -0.000146954
0.000127235 0.00236116 9.04396e-06
-0.000146954 9.04396e-06 0.00235294
0.00262556 -0.000116551 -9.28223e-05
-0.000116551 0.00118108 1.27219e-05
-9.28223e-05 1.27219e-05 0.00111653
0.00193634 -0.000246557 -1.92812e-05
-0.000246557 0.000673462 8.16921e-06
-1.92812e-05 8.16921e-06 0.000509642
0.0016759 -0.000149055 -2.51013e-05
-0.000149055 0.000394558 6.43565e-06
-2.51013e-05 6.43565e-06 0.000263916
0.00142332 -0.000155876 -5.72569e-06
-0.000155876 8.64571e-05 1.14881e-06
-5.72569e-06 1.14881e-06 -6.1098e-05
0.00168689 -0.000216673 -6.91241e-06
-0.000216673 0.000299265 2.07666e-06
-6.91241e-06 2.07666e-06 0.000133665
0.00120887 -0.000234566 -7.65082e-06
-0.000234566 8.75721e-05 2.39552e-06
-7.65082e-06 2.39552e-06 -0.000101541
0.00155834 -0.00027587 -2.32401e-06
-0.00027587 0.000162138 -4.24667e-07
-2.32401e-06 -4.24667e-07 -2.58283e-05
0.000620493 -3.74952e-05 -1.03269e-05
-3.74952e-05 2.00972e-05 1.10286e-05
-1.03269e-05 1.10286e-05 -3.61955e-05
0.000651231 -7.64846e-05 -2.06265e-06
-7.64846e-05 5.00983e-05 3.32159e-06
-2.06265e-06 3.32159e-06 -7.05953e-05
0.000870585 -8.51029e-06 -2.90196e-07
-8.51029e-06 -0.000101738 -3.99006e-08
-2.90196e-07 -3.99006e-08 -0.000220932
0.0016802 -6.2317e-05 -5.76433e-06
-6.2317e-05 0.000373587 5.99922e-07
-5.76433e-06 5.99922e-07 0.000257701
0.00169913 -4.70892e-05 -2.03298e-06
-4.70892e-05 0.000219447 2.6482e-07
-2.03298e-06 2.6482e-07 9.60454e-05
0.00156688 -0.000127428 -3.6431e-07
-0.000127428 0.000158432 1.71902e-07
-3.6431e-07 1.71902e-07 1.82955e-05
0.000525406 -6.62055e-05 -1.98506e-07
-6.62055e-05 -4.43603e-05 3.48674e-07
-1.98506e-07 3.48674e-07 -0.000107842
0.000847074 -0.000174155 -8.37497e-07
-0.000174155 9.92779e-05 -4.69977e-07
-8.37497e-07 -4.69977e-07 -6.46418e-05
0.00102637 -0.0002348 2.45688e-06
-0.0002348 3.68503e-05 -9.93579e-07
2.45688e-06 -9.93579e-07 -0.00016397
0.00168972 -0.000195655 -2.70325e-06
-0.000195655 0.000275474 7.11229e-07
-2.70325e-06 7.11229e-07 0.000118255
0.00179192 -0.000202235 5.96729e-07
-0.000202235 0.000176252 -9.44425e-08
5.96729e-07 -9.44425e-08 3.89235e-05
0.00174081 -0.000320422 -1.84567e-06
-0.000320422 0.000312745 3.32512e-07
-1.84567e-06 3.32512e-07 0.000100041
0.00160853 -0.00025761 4.87898e-07
-0.00025761 0.000148246 -1.21087e-07
4.87898e-07 -1.21087e-07 -2.28293e-05
0.00182259 -0.000312764 6.92496e-07
-0.000312764 0.000244755 5.53534e-07
6.92496e-07 5.53534e-07 6.67359e-05
0.000716574 -0.000110794 -1.8334e-07
-0.000110794 8.43165e-05 -1.88595e-07
-1.8334e-07 -1.88595e-07 -5.22821e-05
0.000578192 -9.51795e-05 -5.75583e-07
-9.51795e-05 8.51821e-06 -6.39342e-07
-5.75583e-07 -6.39342e-07 -0.000150495
0.000673786 -3.38813e-05 -1.52528e-08
-3.38813e-05 6.48832e-05 1.26601e-07
-1.52528e-08 1.26601e-07 -3.7739e-05
0.00165747 -1.9167e-05 7.25366e-07
-1.9167e-05 0.000193169 1.44184e-08
7.25366e-07 1.44184e-08 7.00063e-05
0.00173189 -8.42269e-05 4.97775e-07
-8.42269e-05 0.000240185 3.77047e-07
4.97775e-07 3.77047e-07 0.000112484
0.00167788 -6.85259e-05 -2.29397e-06
-6.85259e-05 6.38942e-05 1.17418e-06
-2.29397e-06 1.17418e-06 -4.25198e-05
0.00173098 -0.000162462 -2.37523e-06
-0.000162462 0.000111858 1.18876e-06
-2.37523e-06 1.18876e-06 -1.41623e-05
0.00161712 -0.000234859 2.58871e-08
-0.000234859 0.00011669 1.52925e-06
2.58871e-08 1.52925e-06 -3.59055e-05
0.00180752 -0.000224897 -1.71213e-06
-0.000224897 0.000127338 1.17625e-06
-1.71213e-06 1.17625e-06 1.15993e-05
0.000690353 -0.000135066 3.94419e-06
-0.000135066 5.64795e-05 -5.45104e-06
3.94419e-06 -5.45104e-06 -9.41136e-05
0.00169572 -0.000288399 -2.07602e-06
-0.000288399 0.000127832 2.05522e-06
-2.07602e-06 2.05522e-06 -2.81244e-05
0.00116889 -0.000240646 3.10323e-06
-0.000240646 0.000222546 -5.29371e-06
3.10323e-06 -5.29371e-06 1.43996e-05
0.00129687 -0.000306156 5.69014e-06
-0.000306156 0.000132999 -1.2699e-06
5.69014e-06 -1.2699e-06 -0.000100628
0.00189538 -0.000359332 1.03435e-06
-0.000359332 0.000342886 3.2396e-06
1.03435e-06 3.2396e-06 0.00012612
0.00197915 -0.000337633 -3.43128e-06
-0.000337633 0.000307186 3.81831e-06
-3.43128e-06 3.81831e-06 0.000142273
0.0006169 -2.42231e-05 7.8688e-07
-2.42231e-05 3.17207e-05 -3.3745e-06
7.8688e-07 -3.3745e-06 -5.66412e-05
0.000761443 -0.000149948 8.41874e-07
-0.000149948 9.20194e-05 -3.24636e-08
8.41874e-07 -3.24636e-08 -7.15874e-05
0.000502268 -7.8753e-05 -4.75111e-07
-7.8753e-05 -1.10681e-05 2.49542e-07
-4.75111e-07 2.49542e-07 -0.000169192
0.00129364 -0.000216351 -2.31936e-06
-0.000216351 0.000413414 1.86884e-06
-2.31936e-06 1.86884e-06 0.000227764
0.000973767 0.000128308 -1.35498e-05
0.000128308 -2.64609e-05 -4.68576e-06
-1.35498e-05 -4.68576e-06 -0.000168552
0.000449033 -6.95314e-05 1.37673e-06
-6.95314e-05 -5.96148e-05 -6.17745e-06
1.37673e-06 -6.17745e-06 -9.51516e-05
0.00040012 -1.20353e-05 -4.13563e-06
-1.20353e-05 -9.9369e-05 -9.98731e-06
-4.13563e-06 -9.98731e-06 -0.000149436
0.00052993 -1.53689e-05 5.02668e-07
-1.53689e-05 -1.37482e-05 -4.86616e-06
5.02668e-07 -4.86616e-06 -0.000113227
0.000977731 0.000167579 -1.2981e-05
0.000167579 2.30474e-05 -6.75671e-06
-1.2981e-05 -6.75671e-06 -0.000129402
0.0013459 0.000212042 -5.83489e-06
0.000212042 9.59568e-05 -1.62961e-06
-5.83489e-06 -1.62961e-06 -8.06829e-05
0.000691598 0.000134499 -4.66691e-06
0.000134499 5.54552e-05 -4.99344e-06
-4.66691e-06 -4.99344e-06 -9.9828e-05
0.00102492 0.000229838 -4.8078e-06
0.000229838 0.000112404 -4.90914e-06
-4.8078e-06 -4.90914e-06 -0.0001037
0.00130275 0.000232384 -6.24013e-06
0.000232384 0.000170271 -2.49603e-06
-6.24013e-06 -2.49603e-06 -1.92824e-05
0.000797471 0.000229831 -3.86421e-06
0.000229831 -0.000142054 1.36283e-06
-3.86421e-06 1.36283e-06 -0.000348418
0.00052406 -6.67034e-05 -1.91933e-07
-6.67034e-05 -2.71083e-05 1.32917e-07
-1.91933e-07 1.32917e-07 -5.59826e-05
0.000750163 0.000103857 2.88607e-07
0.000103857 0.000110308 -3.08512e-07
2.88607e-07 -3.08512e-07 -2.4826e-05
0.000595598 -2.14451e-05 -5.52723e-07
-2.14451e-05 1.8711e-05 7.71203e-07
-5.52723e-07 7.71203e-07 -5.91132e-05
0.000801657 7.89869e-05 1.46232e-06
7.89869e-05 0.000172031 -8.99007e-07
1.46232e-06 -8.99007e-07 1.611e-05
0.0014075 0.000189935 1.41908e-07
0.000189935 9.03788e-05 -3.11565e-07
1.41908e-07 -3.11565e-07 -7.53955e-05
0.00126416 0.000224959 3.86461e-07
0.000224959 9.48123e-05 2.72774e-08
3.86461e-07 2.72774e-08 -8.99589e-05
0.00166913 0.000283416 2.27822e-07
0.000283416 0.00017475 1.18652e-07
2.27822e-07 1.18652e-07 -1.05009e-05
0.00106723 0.000211079 7.99593e-07
0.000211079 0.000229523 6.29115e-07
7.99593e-07 6.29115e-07 2.66169e-05
0.00167822 0.000305529 -1.21408e-06
0.000305529 0.000320861 -1.85101e-07
-1.21408e-06 -1.85101e-07 0.000111867
0.00123801 0.000268257 6.80695e-07
0.000268257 0.000181621 -2.49298e-06
6.80695e-07 -2.49298e-06 -5.93654e-05
0.00154854 0.000292402 -2.68893e-06
0.000292402 0.000231742 4.38855e-07
-2.68893e-06 4.38855e-07 1.62217e-05
0.000540423 -5.59566e-05 -3.91973e-10
-5.59566e-05 -3.07817e-05 4.8789e-06
-3.91973e-10 4.8789e-06 -5.41231e-05
0.000676669 -1.20203e-05 1.51847e-06
-1.20203e-05 5.4171e-05 3.12874e-06
1.51847e-06 3.12874e-06 -8.51933e-06
0.00102212 0.000176008 1.41651e-06
0.000176008 0.000259431 1.45202e-06
1.41651e-06 1.45202e-06 8.55315e-05
0.000896297 5.92746e-05 -9.30505e-07
5.92746e-05 0.000232888 2.67323e-06
-9.30505e-07 2.67323e-06 9.6857e-05
0.00113914 0.000164053 3.04773e-07
0.000164053 0.000355502 -1.92336e-06
3.04773e-07 -1.92336e-06 0.000173885
0.00173985 0.000250629 1.08592e-06
0.000250629 0.00017038 -1.41835e-06
1.08592e-06 -1.41835e-06 5.54767e-06
0.00155218 0.000301284 1.49631e-06
0.000301284 0.000172856 1.4449e-07
1.49631e-06 1.4449e-07 -2.90579e-05
0.00180296 0.000320948 2.98657e-07
0.000320948 0.000212517 -3.79044e-07
2.98657e-07 -3.79044e-07 3.29639e-05
0.00129715 0.000267808 2.15287e-06
0.000267808 0.000330691 5.17581e-06
2.15287e-06 5.17581e-06 9.44238e-05
0.00185242 0.000363145 1.78351e-06
0.000363145 0.000361571 -5.18731e-07
1.78351e-06 -5.18731e-07 0.000143142
0.000731348 0.000235863 3.44497e-06
0.000235863 -0.000179339 -1.70895e-06
3.44497e-06 -1.70895e-06 -0.000413639
0.000629975 -7.61903e-07 2.5404e-06
-7.61903e-07 1.6901e-05 2.3314e-06
2.5404e-06 2.3314e-06 -3.43776e-05
0.000683093 4.43239e-05 1.34534e-07
4.43239e-05 7.68468e-05 1.07345e-06
1.34534e-07 1.07345e-06 -7.42706e-06
0.00064698 1.36691e-05 1.96756e-06
1.36691e-05 2.8555e-05 2.27754e-06
1.96756e-06 2.27754e-06 -2.06135e-05
0.000619115 -1.82959e-05 -5.42555e-07
-1.82959e-05 1.18132e-05 8.10632e-09
-5.42555e-07 8.10632e-09 -3.88319e-05
0.00124973 -5.17366e-05 9.94604e-07
-5.17366e-05 0.000376453 2.66908e-06
9.94604e-07 2.66908e-06 0.000362899
0.000921013 -5.18904e-05 5.75233e-07
-5.18904e-05 0.000185715 -9.30753e-08
5.75233e-07 -9.30753e-08 0.000168139
0.000899112 -5.05584e-05 2.36549e-05
-5.05584e-05 0.000184274 7.39336e-06
2.36549e-05 7.39336e-06 0.000186016
0.00235916 -9.7812e-05 3.40978e-06
-9.7812e-05 0.0010655 -3.02037e-07
3.40978e-06 -3.02037e-07 0.00107041
0.00238469 -0.000109535 -3.25595e-05
-0.000109535 0.00108914 -3.03672e-06
-3.25595e-05 -3.03672e-06 0.00109095
0.000480561 2.61971e-05 7.44221e-07
2.61971e-05 -5.39657e-05 -6.19955e-06
7.44221e-07 -6.19955e-06 -8.67859e-05
0.00304577 0.000131771 5.32503e-05
0.000131771 0.00148746 -3.08212e-06
5.32503e-05 -3.08212e-06 0.00148256
0.000530691 3.14106e-06 -3.43006e-07
3.14106e-06 -2.39545e-05 2.58376e-07
-3.43006e-07 2.58376e-07 -6.39492e-05
0.00353963 0.000119834 -5.26726e-06
0.000119834 0.00178212 -4.89461e-07
-5.26726e-06 -4.89461e-07 0.00177951
0.000627736 -9.0181e-06 -6.39685e-06
-9.0181e-06 2.98089e-05 9.40175e-06
-6.39685e-06 9.40175e-06 -1.88327e-05
0.00400363 0.000118903 -0.000125766
0.000118903 0.00205816 6.99355e-06
-0.000125766 6.99355e-06 0.00205465
0.000989161 0.000108112 -1.26239e-05
0.000108112 -2.99494e-05 -3.67572e-06
-1.26239e-05 -3.67572e-06 -0.000166676
0.000998071 6.45121e-05 -1.2101e-05
6.45121e-05 -3.48299e-05 -2.07497e-06
-1.2101e-05 -2.07497e-06 -0.000160663
0.00145913 0.000126646 -3.34956e-06
0.000126646 7.35012e-05 -3.91542e-07
-3.34956e-06 -3.91542e-07 -7.0696e-05
0.00144286 5.66997e-05 -2.20033e-06
5.66997e-05 5.54347e-05 3.84107e-09
-2.20033e-06 3.84107e-09 -7.29805e-05
0.000996574 2.34625e-05 -1.23285e-05
2.34625e-05 -3.2713e-05 -7.53376e-07
-1.23285e-05 -7.53376e-07 -0.000152524
0.000584986 2.65301e-05 -1.88761e-05
2.65301e-05 -0.000122706 -9.71925e-08
-1.88761e-05 -9.71925e-08 -0.000189692
0.000994051 2.05908e-06 2.87419e-10
2.05908e-06 -3.02142e-05 -1.39571e-07
2.87419e-10 -1.39571e-07 -0.000148979
0.00142656 3.23257e-05 -6.91658e-08
3.23257e-05 4.94438e-05 3.44369e-08
-6.91658e-08 3.44369e-08 -7.55257e-05
0.0014589 9.06184e-05 5.76345e-09
9.06184e-05 6.49736e-05 1.84177e-09
5.76345e-09 1.84177e-09 -6.97231e-05
0.00181081 8.19752e-05 4.67347e-09
8.19752e-05 0.000119069 2.33139e-07
4.67347e-09 2.33139e-07 1.73739e-05
0.00144688 0.000161398 -2.04799e-07
0.000161398 8.3772e-05 -6.7735e-08
-2.04799e-07 -6.7735e-08 -7.0665e-05
0.00176526 0.000169387 -2.76278e-07
0.000169387 0.000124891 8.58286e-09
-2.76278e-07 8.58286e-09 -4.03863e-06
0.00142311 6.23653e-06 2.30375e-06
6.23653e-06 5.07457e-05 3.3224e-08
2.30375e-06 3.3224e-08 -7.31015e-05
0.00180029 4.40623e-05 -3.36668e-06
4.40623e-05 0.000123455 -1.4907e-07
-3.36668e-06 -1.4907e-07 2.95935e-05
0.00177908 0.000131526 -1.45163e-06
0.000131526 0.000105672 -1.00211e-06
-1.45163e-06 -1.00211e-06 -9.35269e-06
0.00177022 8.34161e-05 2.17339e-06
8.34161e-05 2.88451e-05 6.96813e-08
2.17339e-06 6.96813e-08 -4.90852e-05
0.00176594 0.000208927 2.89302e-08
0.000208927 0.000157229 -1.12698e-06
2.89302e-08 -1.12698e-06 1.21576e-05
0.00173047 0.000190882 -8.95099e-07
0.000190882 4.39268e-05 -1.27283e-06
-8.95099e-07 -1.27283e-06 -5.96908e-05
0.00074923 -5.42646e-06 -1.20702e-05
-5.42646e-06 -0.000172931 7.05991e-07
-1.20702e-05 7.05991e-07 -0.000292843
0.00170909 -6.47309e-05 -2.34641e-05
-6.47309e-05 0.000389467 2.7897e-06
-2.34641e-05 2.7897e-06 0.000273617
0.0017475 -4.10581e-05 -5.4465e-06
-4.10581e-05 0.000244138 1.43251e-07
-5.4465e-06 1.43251e-07 0.000123571
0.00167299 -0.000129202 -4.28173e-06
-0.000129202 0.000221691 9.45046e-07
-4.28173e-06 9.45046e-07 8.07262e-05
0.000719074 -8.18131e-05 -1.44764e-05
-8.18131e-05 6.83426e-05 1.3201e-05
-1.44764e-05 1.3201e-05 1.33637e-06
0.000807343 -0.000179583 -8.02226e-06
-0.000179583 7.62629e-05 6.93816e-06
-8.02226e-06 6.93816e-06 -8.84415e-05
0.00100655 -0.000231705 -5.52988e-06
-0.000231705 2.73192e-05 2.19921e-06
-5.52988e-06 2.19921e-06 -0.000172176
0.00170174 -0.000193719 -7.98118e-06
-0.000193719 0.000281564 2.26032e-06
-7.98118e-06 2.26032e-06 0.000123605
0.00185867 -0.000206171 6.00783e-07
-0.000206171 0.000209528 -1.02174e-06
6.00783e-07 -1.02174e-06 7.55495e-05
0.0016132 -0.000257238 -1.33456e-06
-0.000257238 0.000152406 -5.83077e-07
-1.33456e-06 -5.83077e-07 -1.82102e-05
0.0016975 -0.000320891 -5.08319e-06
-0.000320891 0.000291035 -2.67334e-07
-5.08319e-06 -2.67334e-07 7.72667e-05
0.00176106 -0.000310304 3.2462e-06
-0.000310304 0.000203327 -2.71095e-06
3.2462e-06 -2.71095e-06 2.55385e-05
0.000743533 -0.000119155 -4.02281e-06
-0.000119155 9.58775e-05 4.747e-06
-4.02281e-06 4.747e-06 -4.03677e-05
0.000486265 -8.15754e-05 -8.07832e-07
-8.15754e-05 -4.41507e-05 -9.66262e-07
-8.07832e-07 -9.66262e-07 -0.000202077
0.000622385 -4.06247e-05 -1.13928e-06
-4.06247e-05 3.42296e-05 3.32623e-06
-1.13928e-06 3.32623e-06 -6.9867e-05
0.00155345 -1.69254e-05 -2.15369e-06
-1.69254e-05 0.000130772 1.45855e-07
-2.15369e-06 1.45855e-07 7.07433e-06
0.00173206 -9.16779e-05 -2.74708e-06
-9.16779e-05 0.00023965 4.41031e-07
-2.74708e-06 4.41031e-07 0.000111147
0.00172068 -6.53505e-05 1.38176e-06
-6.53505e-05 8.91603e-05 5.67363e-07
1.38176e-06 5.67363e-07 -1.21541e-05
0.00173102 -0.000159193 -1.59254e-06
-0.000159193 0.000110769 4.81429e-07
-1.59254e-06 4.81429e-07 -1.62253e-05
0.000760884 -0.000149949 4.27802e-07
-0.000149949 9.90834e-05 3.0677e-07
4.27802e-07 3.0677e-07 -5.42593e-05
0.0010915 -0.000234525 -1.67128e-06
-0.000234525 0.000170863 -7.62525e-07
-1.67128e-06 -7.62525e-07 -3.55419e-05
0.00137995 -0.000308907 2.08059e-06
-0.000308907 0.000188024 -3.60283e-07
2.08059e-06 -3.60283e-07 -4.54881e-05
0.00161822 -0.000233824 -7.20066e-07
-0.000233824 0.00011935 5.56924e-07
-7.20066e-07 5.56924e-07 -3.62113e-05
0.00185141 -0.000226351 1.59287e-06
-0.000226351 0.000154234 1.38074e-07
1.59287e-06 1.38074e-07 4.26581e-05
0.00178619 -0.000357928 -8.82095e-07
-0.000357928 0.000275701 4.71156e-07
-8.82095e-07 4.71156e-07 5.65324e-05
0.00172897 -0.000289174 1.1044e-07
-0.000289174 0.000147155 3.30334e-07
1.1044e-07 3.30334e-07 -8.58166e-06
0.00200127 -0.000335196 1.80589e-06
-0.000335196 0.000319992 -3.41631e-07
1.80589e-06 -3.41631e-07 0.000158451
0.000960703 -0.000174558 3.64961e-07
-0.000174558 0.000211965 8.67478e-07
3.64961e-07 8.67478e-07 4.25922e-05
0.00114846 -0.000212007 -3.92275e-07
-0.000212007 0.000334775 1.65959e-07
-3.92275e-07 1.65959e-07 0.000146604
0.000638019 -2.95163e-05 1.46772e-08
-2.95163e-05 4.32073e-05 2.09207e-07
1.46772e-08 2.09207e-07 -4.59788e-05
0.000378809 -3.99476e-05 -9.24018e-08
-3.99476e-05 -9.39883e-05 -5.91442e-07
-9.24018e-08 -5.91442e-07 -0.000241869
0.0017505 -3.5954e-05 -2.45186e-06
-3.5954e-05 0.000105021 2.82628e-07
-2.45186e-06 2.82628e-07 5.91663e-06
0.00184635 -0.000109676 -8.79129e-07
-0.000109676 0.000161782 1.44291e-06
-8.79129e-07 1.44291e-06 4.99347e-05
0.00168513 -7.65649e-05 1.31239e-06
-7.65649e-05 1.34301e-05 6.43489e-09
1.31239e-06 6.43489e-09 -6.75781e-05
0.00177887 -0.000185429 -3.56765e-06
-0.000185429 6.8457e-05 8.25613e-07
-3.56765e-06 8.25613e-07 -2.48707e-05
0.00172931 -0.000257422 -3.69713e-06
-0.000257422 0.000114142 2.82142e-06
-3.69713e-06 2.82142e-06 -1.7155e-05
0.00199885 -0.000232143 1.9875e-06
-0.000232143 0.000223559 -6.02977e-07
1.9875e-06 -6.02977e-07 0.000127479
0.000960546 -0.000205628 6.49315e-07
-0.000205628 0.000175648 -3.87142e-06
6.49315e-07 -3.87142e-06 -1.38908e-05
0.00164313 -0.000301532 -4.96816e-06
-0.000301532 7.25878e-05 2.63942e-06
-4.96816e-06 2.63942e-06 -6.09227e-05
0.00114422 -0.000275556 1.6768e-06
-0.000275556 0.000157539 -4.70269e-06
1.6768e-06 -4.70269e-06 -7.75358e-05
0.0016516 -0.000380401 -4.68472e-07
-0.000380401 0.000286792 1.3731e-06
-4.68472e-07 1.3731e-06 2.90574e-05
0.00173573 -0.000368451 9.00161e-07
-0.000368451 0.000199718 5.05329e-06
9.00161e-07 5.05329e-06 -1.55218e-05
0.00197672 -0.000321382 -4.70579e-07
-0.000321382 0.000295328 1.13872e-06
-4.70579e-07 1.13872e-06 0.00014164
0.000545108 -3.08259e-05 1.04998e-06
-3.08259e-05 -1.15744e-05 -3.13663e-06
1.04998e-06 -3.13663e-06 -8.84188e-05
0.000444665 -3.47728e-05 -1.41654e-06
-3.47728e-05 -4.56863e-05 -1.07354e-06
-1.41654e-06 -1.07354e-06 -0.000182784
0.000862296 -0.000205236 -8.37378e-07
-0.000205236 0.000129886 7.20264e-07
-8.37378e-07 7.20264e-07 -5.4737e-05
0.000803539 -0.000146604 4.7976e-07
-0.000146604 0.000173582 2.14788e-06
4.7976e-07 2.14788e-06 -8.50756e-06
0.00141919 -0.000256615 -3.61941e-06
-0.000256615 0.000478764 3.50472e-06
-3.61941e-06 3.50472e-06 0.00028804
0.000500787 -6.05874e-05 -5.03214e-07
-6.05874e-05 -4.38664e-05 -4.95637e-06
-5.03214e-07 -4.95637e-06 -7.09803e-05
0.0014048 0.000189413 -4.52913e-06
0.000189413 9.0782e-05 -1.32188e-06
-4.52913e-06 -1.32188e-06 -7.5194e-05
0.000513898 -3.81283e-05 -2.69598e-07
-3.81283e-05 -2.58393e-05 -3.38986e-06
-2.69598e-07 -3.38986e-06 -0.000104273
0.000716065 7.75222e-05 -1.98097e-06
7.75222e-05 8.70526e-05 -4.60631e-06
-1.98097e-06 -4.60631e-06 -4.19317e-05
0.000664857 5.06431e-05 1.54453e-06
5.06431e-05 8.71038e-05 -1.28572e-06
1.54453e-06 -1.28572e-06 -6.30769e-05
0.00126706 0.000224026 -6.48932e-06
0.000224026 0.000102152 -2.36409e-06
-6.48932e-06 -2.36409e-06 -8.26021e-05
0.00165502 0.000282872 -1.13061e-07
0.000282872 0.00016507 6.80478e-07
-1.13061e-07 6.80478e-07 -2.04085e-05
0.00085533 0.000198022 -1.43447e-06
0.000198022 0.000108995 -3.60703e-06
-1.43447e-06 -3.60703e-06 -9.34564e-05
0.00110139 0.000260093 -1.693e-06
0.000260093 9.81416e-05 -2.88309e-06
-1.693e-06 -2.88309e-06 -0.000143919
0.00174892 0.000307461 -2.78304e-06
0.000307461 0.000364821 -5.98484e-07
-2.78304e-06 -5.98484e-07 0.000155893
0.00148439 0.000289663 -6.11899e-06
0.000289663 0.000195207 2.55555e-06
-6.11899e-06 2.55555e-06 -2.0378e-05
0.000545699 -5.20017e-05 2.14479e-08
-5.20017e-05 -2.9645e-05 3.07504e-09
2.14479e-08 3.07504e-09 -5.19941e-05
0.000633835 -2.10114e-05 -6.24258e-07
-2.10114e-05 3.14558e-05 3.00901e-07
-6.24258e-07 3.00901e-07 -3.14786e-05
0.000941215 0.00016821 -2.04279e-07
0.00016821 0.000211968 9.66439e-07
-2.04279e-07 9.66439e-07 3.90369e-05
0.000692223 1.41221e-05 -5.93891e-07
1.41221e-05 0.000105195 3.35581e-07
-5.93891e-07 3.35581e-07 -2.16093e-05
0.000645777 0.000113691 6.14183e-07
0.000113691 5.73609e-05 -7.95627e-07
6.14183e-07 -7.95627e-07 -0.000114473
0.00172177 0.000250999 -1.38476e-07
0.000250999 0.00015718 -8.29671e-07
-1.38476e-07 -8.29671e-07 -8.06997e-06
0.00155863 0.000302318 4.89948e-07
0.000302318 0.000175082 1.86509e-07
4.89948e-07 1.86509e-07 -2.72957e-05
0.00172727 0.0003178 1.78438e-06
0.0003178 0.000168948 2.05483e-07
1.78438e-06 2.05483e-07 -1.09988e-05
0.00118763 0.000258033 1.10578e-06
0.000258033 0.000273735 1.70022e-06
1.10578e-06 1.70022e-06 3.62654e-05
0.00180308 0.000358589 7.38931e-07
0.000358589 0.000317708 1.72834e-07
7.38931e-07 1.72834e-07 9.87286e-05
0.00125829 0.000281122 -1.56131e-06
0.000281122 0.000127287 1.78243e-07
-1.56131e-06 1.78243e-07 -0.000112663
0.000681824 -7.37767e-06 2.17796e-06
-7.37767e-06 5.00471e-05 2.5216e-06
2.17796e-06 2.5216e-06 -4.87876e-06
0.000849889 5.21503e-05 7.35274e-07
5.21503e-05 0.000187572 2.76378e-06
7.35274e-07 2.76378e-06 8.27995e-05
0.0010696 0.000227212 -2.37195e-06
0.000227212 0.000262263 -7.89491e-07
-2.37195e-06 -7.89491e-07 6.85283e-05
0.00119937 8.62134e-05 1.93459e-07
8.62134e-05 0.000407252 8.72773e-07
1.93459e-07 8.72773e-07 0.000247223
0.00112523 0.000134405 -5.36262e-06
0.000134405 0.000299404 -6.04467e-06
-5.36262e-06 -6.04467e-06 0.000136814
0.0017637 0.000261944 -2.88315e-06
0.000261944 0.000147908 -2.60526e-06
-2.88315e-06 -2.60526e-06 -1.73889e-06
0.00176977 0.000362341 1.76492e-06
0.000362341 0.000242076 2.28034e-07
1.76492e-06 2.28034e-07 3.56185e-05
0.00152641 0.000337351 3.87754e-06
0.000337351 2.60083e-05 -9.20662e-07
3.87754e-06 -9.20662e-07 -0.000151724
0.000845963 0.000241 -6.27405e-07
0.000241 5.31661e-05 3.41428e-06
-6.27405e-07 3.41428e-06 -0.000194546
0.00143667 0.000340044 6.07674e-06
0.000340044 0.000142916 -9.90431e-07
6.07674e-06 -9.90431e-07 -9.37421e-05
0.000632043 -8.68174e-06 -1.79234e-07
-8.68174e-06 1.77594e-05 1.79627e-08
-1.79234e-07 1.79627e-08 -3.33522e-05
0.000559972 2.21272e-05 1.49096e-06
2.21272e-05 -6.54816e-06 1.55276e-06
1.49096e-06 1.55276e-06 -8.58709e-05
0.00055209 1.06814e-05 -5.88945e-07
1.06814e-05 -6.6689e-06 -9.57082e-08
-5.88945e-07 -9.57082e-08 -8.59896e-05
0.000925452 8.83861e-05 3.87597e-07
8.83861e-05 0.000226531 -4.1925e-07
3.87597e-07 -4.1925e-07 0.000127407
0.000682686 6.77031e-05 1.84495e-06
6.77031e-05 7.72043e-05 1.38399e-06
1.84495e-06 1.38399e-06 -5.68652e-06
0.000625993 2.59375e-05 2.02571e-06
2.59375e-05 2.08345e-05 2.34202e-06
2.02571e-06 2.34202e-06 -2.92065e-05
0.000623579 -1.05237e-05 -6.39019e-07
-1.05237e-05 1.6031e-05 5.68448e-09
-6.39019e-07 5.68448e-09 -3.36959e-05
0.00124742 -3.93167e-05 7.97794e-07
-3.93167e-05 0.000371125 2.53698e-06
7.97794e-07 2.53698e-06 0.000359526
0.000625057 -1.99595e-05 -1.13322e-06
-1.99595e-05 1.4326e-05 -2.34411e-06
-1.13322e-06 -2.34411e-06 -3.54713e-05
0.00129557 -4.85406e-05 -5.30689e-06
-4.85406e-05 0.000403358 -1.39258e-06
-5.30689e-06 -1.39258e-06 0.000390298
0.00086452 -4.00596e-05 2.30052e-05
-4.00596e-05 0.000155257 7.52933e-06
2.30052e-05 7.52933e-06 0.000160076
0.00131379 -5.71645e-05 -9.4905e-06
-5.71645e-05 0.000420167 -3.86849e-06
-9.4905e-06 -3.86849e-06 0.000404837
0.00157729 -6.66262e-05 2.0761e-05
-6.66262e-05 0.000589794 1.91725e-06
2.0761e-05 1.91725e-06 0.000594791
0.00231226 -9.50341e-05 -2.87626e-05
-9.50341e-05 0.00103644 -3.56724e-06
-2.87626e-05 -3.56724e-06 0.00104195
0.000478252 6.27221e-05 -1.95075e-06
6.27221e-05 -5.40096e-05 -5.16659e-06
-1.95075e-06 -5.16659e-06 -8.43083e-05
0.000516157 2.32687e-05 3.56183e-07
2.32687e-05 -3.25974e-05 3.09334e-07
3.56183e-07 3.09334e-07 -6.6143e-05
0.00270697 0.000117148 3.51128e-05
0.000117148 0.0012804 -3.40808e-06
3.51128e-05 -3.40808e-06 0.00127926
0.00315454 0.0001104 -6.72019e-06
0.0001104 0.00154903 -3.98575e-07
-6.72019e-06 -3.98575e-07 0.00154926
0.000626124 1.76005e-06 -5.01617e-06
1.76005e-06 3.1744e-05 7.79802e-06
-5.01617e-06 7.79802e-06 -8.92732e-06
0.00364148 0.000106562 -0.000111656
0.000106562 0.00183893 5.94864e-06
-0.000111656 5.94864e-06 0.00183931
0.00143662 0.000160989 -4.08386e-06
0.000160989 7.93654e-05 -6.76089e-07
-4.08386e-06 -6.76089e-07 -7.53331e-05
0.00144735 9.10874e-05 -2.51503e-06
9.10874e-05 5.9315e-05 -1.19894e-07
-2.51503e-06 -1.19894e-07 -7.57848e-05
0.00174969 0.000167999 -2.54805e-07
0.000167999 0.000119617 1.17254e-06
-2.54805e-07 1.17254e-06 -9.43649e-06
0.00185378 8.18105e-05 1.2292e-06
8.18105e-05 0.000139616 8.93789e-07
1.2292e-06 8.93789e-07 4.06866e-05
0.00142154 3.52895e-05 -2.12097e-06
3.52895e-05 4.71579e-05 -4.76702e-08
-2.12097e-06 -4.76702e-08 -7.80024e-05
0.000998053 6.62656e-06 -1.20987e-05
6.62656e-06 -2.83064e-05 -5.66774e-08
-1.20987e-05 -5.66774e-08 -0.000147038
0.00141502 9.70464e-06 7.38232e-08
9.70464e-06 4.71665e-05 2.95081e-08
7.38232e-08 2.95081e-08 -7.67852e-05
0.00180702 3.49057e-05 -1.81241e-06
3.49057e-05 0.000128732 -1.46616e-08
-1.81241e-06 -1.46616e-08 3.52976e-05
0.00178676 0.000130306 -2.36938e-07
0.000130306 0.000110452 1.39603e-07
-2.36938e-07 1.39603e-07 -4.47986e-06
0.00179802 8.19469e-05 2.17295e-06
8.19469e-05 4.61963e-05 8.75736e-07
2.17295e-06 8.75736e-07 -2.6495e-05
0.00174164 0.000209465 -2.85901e-07
0.000209465 0.000138698 -7.18585e-08
-2.85901e-07 -7.18585e-08 -6.95129e-06
0.00177007 0.000188712 -4.24609e-07
0.000188712 6.4584e-05 9.5446e-07
-4.24609e-07 9.5446e-07 -3.61657e-05
0.0017927 2.72904e-06 -2.53226e-06
2.72904e-06 0.000128468 3.10024e-07
-2.53226e-06 3.10024e-07 3.51386e-05
0.00173282 4.02171e-05 2.40502e-06
4.02171e-05 2.08851e-05 3.13984e-07
2.40502e-06 3.13984e-07 -4.73946e-05
0.00185806 0.000139816 -8.37151e-07
0.000139816 8.88057e-05 -7.79867e-07
-8.37151e-07 -7.79867e-07 5.9736e-06
0.00177741 8.93036e-05 4.91157e-06
8.93036e-05 1.09933e-05 5.69545e-07
4.91157e-06 5.69545e-07 -4.5717e-05
0.0017281 0.000209791 -6.57308e-07
0.000209791 8.36068e-05 -2.46487e-06
-6.57308e-07 -2.46487e-06 -3.78484e-05
0.00189518 0.000198554 3.60953e-06
0.000198554 9.97177e-05 7.13826e-07
3.60953e-06 7.13826e-07 1.58173e-05
0.00143776 -1.49609e-05 -4.14918e-06
-1.49609e-05 6.15642e-05 8.1615e-08
-4.14918e-06 8.1615e-08 -6.26902e-05
0.00174221 -9.62847e-05 -6.13266e-06
-9.62847e-05 0.000244791 6.71795e-07
-6.13266e-06 6.71795e-07 0.00011575
0.0017446 -6.33014e-05 3.27579e-06
-6.33014e-05 0.000103208 -1.30313e-06
3.27579e-06 -1.30313e-06 6.87308e-06
0.00172314 -0.000156258 -1.16419e-07
-0.000156258 0.000105156 -1.59336e-07
-1.16419e-07 -1.59336e-07 -2.28876e-05
0.000874313 -0.000174678 -5.32328e-06
-0.000174678 0.000168224 7.34372e-06
-5.32328e-06 7.34372e-06 1.0621e-05
0.00105661 -0.000231818 -5.84399e-06
-0.000231818 0.000144224 3.6092e-06
-5.84399e-06 3.6092e-06 -6.10194e-05
0.00116642 -0.000285013 -1.43302e-06
-0.000285013 6.9038e-05 5.6199e-07
-1.43302e-06 5.6199e-07 -0.000160701
0.00161967 -0.000232853 -1.09642e-06
-0.000232853 0.00012218 1.19147e-07
-1.09642e-06 1.19147e-07 -3.63665e-05
0.00189206 -0.000227396 3.55106e-06
-0.000227396 0.000179606 -1.78441e-06
3.55106e-06 -1.78441e-06 7.22537e-05
0.00176428 -0.00029004 2.55491e-06
-0.00029004 0.00016788 -1.3785e-06
2.55491e-06 -1.3785e-06 1.23593e-05
0.00169863 -0.000359263 -3.60991e-07
-0.000359263 0.000220573 -1.94385e-06
-3.60991e-07 -1.94385e-06 -1.57662e-06
0.00202479 -0.000332789 5.85377e-06
-0.000332789 0.000334188 -6.41081e-06
5.85377e-06 -6.41081e-06 0.000176022
0.000920738 -0.000175675 1.22179e-07
-0.000175675 0.000189969 1.56817e-06
1.22179e-07 1.56817e-06 1.98873e-05
0.000660376 -0.00015181 1.093e-07
-0.00015181 3.7667e-05 -5.41653e-07
1.093e-07 -5.41653e-07 -0.000137127
0.0007054 -3.41227e-05 -1.2007e-06
-3.41227e-05 8.07719e-05 3.38639e-06
-1.2007e-06 3.38639e-06 -8.72987e-06
0.000310747 -1.2763e-05 8.58802e-07
-1.2763e-05 -0.000138715 -1.75007e-06
8.58802e-07 -1.75007e-06 -0.00027974
0.00173427 -3.59714e-05 1.92599e-08
-3.59714e-05 9.60345e-05 1.06778e-07
1.92599e-08 1.06778e-07 -3.24932e-06
0.0017789 -0.000108681 3.92087e-07
-0.000108681 0.000124652 -3.04012e-07
3.92087e-07 -3.04012e-07 1.06613e-05
0.00172391 -7.56179e-05 2.07223e-06
-7.56179e-05 3.5748e-05 -5.57869e-07
2.07223e-06 -5.57869e-07 -4.10461e-05
0.00175142 -0.000182046 -1.69033e-06
-0.000182046 5.87486e-05 6.62491e-07
-1.69033e-06 6.62491e-07 -3.65771e-05
0.000991416 -0.000201154 -9.47786e-07
-0.000201154 0.000194914 8.57012e-07
-9.47786e-07 8.57012e-07 6.23737e-06
0.00101232 -0.000260099 9.39023e-07
-0.000260099 7.7485e-05 -1.74476e-06
9.39023e-07 -1.74476e-06 -0.000153033
0.00161503 -0.000381256 -1.16558e-07
-0.000381256 0.000264946 7.98703e-07
-1.16558e-07 7.98703e-07 3.93382e-06
0.00168723 -0.000254382 -1.51144e-06
-0.000254382 9.48578e-05 7.56491e-07
-1.51144e-06 7.56491e-07 -3.99838e-05
0.00184651 -0.000228413 2.05287e-06
-0.000228413 0.000130588 -1.06189e-06
2.05287e-06 -1.06189e-06 3.86853e-05
0.00173685 -0.000370243 -6.64882e-07
-0.000370243 0.000204352 5.94845e-07
-6.64882e-07 5.94845e-07 -1.20575e-05
0.00170355 -0.00030467 -5.62856e-07
-0.00030467 0.000105152 1.08567e-06
-5.62856e-07 1.08567e-06 -2.87669e-05
0.0018495 -0.00031411 3.57292e-06
-0.00031411 0.000207608 -5.31537e-06
3.57292e-06 -5.31537e-06 5.86649e-05
0.00103414 -0.000221884 6.58781e-07
-0.000221884 0.000227674 1.44763e-06
6.58781e-07 1.44763e-06 4.01065e-05
0.00124128 -0.000233516 3.12142e-06
-0.000233516 0.00036614 1.23053e-06
3.12142e-06 1.23053e-06 0.000184162
0.000774769 -0.000112951 -2.39053e-07
-0.000112951 0.000151912 -1.91894e-07
-2.39053e-07 -1.91894e-07 -2.94743e-05
0.000467828 -6.75697e-06 -1.30703e-06
-6.75697e-06 -5.73668e-05 4.02979e-07
-1.30703e-06 4.02979e-07 -0.000135697
0.000392176 -3.18882e-06 -3.66124e-07
-3.18882e-06 -7.91504e-05 -7.13857e-07
-3.66124e-07 -7.13857e-07 -0.00021004
0.00184757 -4.97976e-05 1.03453e-06
-4.97976e-05 9.56731e-05 -6.31843e-07
1.03453e-06 -6.31843e-07 2.94762e-05
0.00186184 -0.000108166 2.40171e-06
-0.000108166 9.69544e-05 2.70649e-07
2.40171e-06 2.70649e-07 2.0717e-05
0.00180936 -0.000218355 2.70273e-07
-0.000218355 6.41045e-05 -1.37552e-06
2.70273e-07 -1.37552e-06 -1.18481e-05
0.0016374 -0.000253674 -9.38747e-07
-0.000253674 3.01101e-05 1.59025e-07
-9.38747e-07 1.59025e-07 -7.48632e-05
0.0010389 -0.000237942 -2.04154e-06
-0.000237942 0.000190288 -4.3096e-06
-2.04154e-06 -4.3096e-06 -2.04748e-05
0.00222598 -0.000362954 -3.80067e-06
-0.000362954 0.000347916 7.73477e-07
-3.80067e-06 7.73477e-07 0.000217336
0.00112724 -0.000311894 2.01118e-06
-0.000311894 0.00011333 -3.359e-06
2.01118e-06 -3.359e-06 -0.000145881
0.00166093 -0.000422293 4.94933e-08
-0.000422293 0.000250942 2.16629e-06
4.94933e-08 2.16629e-06 -2.31036e-05
0.00162816 -0.000356426 1.7134e-06
-0.000356426 0.000112113 3.94053e-06
1.7134e-06 3.94053e-06 -9.47012e-05
0.000261066 1.18492e-05 2.78089e-07
1.18492e-05 -0.000178937 -3.46864e-06
2.78089e-07 -3.46864e-06 -0.000246382
0.000731617 -3.92256e-05 3.59807e-07
-3.92256e-05 0.000134111 -7.59832e-07
3.59807e-07 -7.59832e-07 1.12417e-05
0.000928842 -6.75489e-05 -1.51628e-06
-6.75489e-05 0.000235989 1.05532e-06
-1.51628e-06 1.05532e-06 8.0943e-05
0.00115507 -0.000241055 -5.9373e-06
-0.000241055 0.000283892 -6.74416e-08
-5.9373e-06 -6.74416e-08 9.05092e-05
0.000497034 -0.000124668 2.68114e-06
-0.000124668 -2.18921e-05 3.76094e-06
2.68114e-06 3.76094e-06 -0.000216085
0.000636118 -0.000197744 -1.06389e-06
-0.000197744 -2.04267e-05 6.58959e-08
-1.06389e-06 6.58959e-08 -0.000197173
0.000549581 -5.01257e-05 -1.03714e-06
-5.01257e-05 -2.83779e-05 -4.59653e-06
-1.03714e-06 -4.59653e-06 -5.02597e-05
0.000575908 -2.43431e-05 -1.81672e-06
-2.43431e-05 -1.09833e-06 -2.60682e-06
-1.81672e-06 -2.60682e-06 -6.38828e-05
0.0017022 0.000251392 -1.2558e-06
0.000251392 0.000142752 -1.90234e-07
-1.2558e-06 -1.90234e-07 -2.29409e-05
0.000495266 -6.17885e-05 1.37102e-06
-6.17885e-05 -1.22406e-05 -2.59909e-06
1.37102e-06 -2.59909e-06 -0.000133012
0.000804349 0.000151974 -1.33048e-06
0.000151974 0.000133189 6.57932e-07
-1.33048e-06 6.57932e-07 -3.62178e-05
0.000181632 6.55291e-05 1.50848e-06
6.55291e-05 -0.000223026 1.6441e-06
1.50848e-06 1.6441e-06 -0.00038606
0.00156752 0.000303085 -4.64599e-07
0.000303085 0.000180237 3.32243e-07
-4.64599e-07 3.32243e-07 -2.24969e-05
0.00164947 0.000314113 2.2823e-07
0.000314113 0.000125447 2.58415e-07
2.2823e-07 2.58415e-07 -5.47694e-05
0.00107525 0.000248051 1.28599e-06
0.000248051 0.000215043 -1.59437e-06
1.28599e-06 -1.59437e-06 -2.37731e-05
0.0017232 0.000319709 -1.1646e-06
0.000319709 0.000397488 -9.83867e-07
-1.1646e-06 -9.83867e-07 0.000154455
0.0017443 0.0003531 -3.05957e-06
0.0003531 0.000270141 -3.5467e-07
-3.05957e-06 -3.5467e-07 5.07574e-05
0.000628743 -7.88856e-06 -3.33953e-07
-7.88856e-06 1.9842e-05 1.9289e-07
-3.33953e-07 1.9289e-07 -3.50288e-05
0.000695011 -3.83699e-06 -9.61331e-07
-3.83699e-06 9.43122e-05 4.26533e-07
-9.61331e-07 4.26533e-07 -5.58809e-06
0.0011006 0.000230388 -8.48571e-07
0.000230388 0.000281727 -2.77894e-08
-8.48571e-07 -2.77894e-08 8.75106e-05
0.000838869 3.64497e-05 4.49025e-07
3.64497e-05 0.000190638 -1.79781e-07
4.49025e-07 -1.79781e-07 3.81808e-05
0.000819845 0.000146466 1.08975e-06
0.000146466 0.000135861 1.25099e-06
1.08975e-06 1.25099e-06 -3.36307e-05
0.0017394 0.000263383 -1.88133e-06
0.000263383 0.000135306 -1.42083e-06
-1.88133e-06 -1.42083e-06 -1.55815e-05
0.0017354 0.000359405 1.4986e-06
0.000359405 0.000219255 4.17055e-07
1.4986e-06 4.17055e-07 1.2972e-05
0.00166563 0.000342296 4.61198e-07
0.000342296 0.000107736 3.03693e-08
4.61198e-07 3.03693e-08 -6.88913e-05
0.000831893 0.000245919 5.08057e-07
0.000245919 3.68403e-05 3.22984e-06
5.08057e-07 3.22984e-06 -0.000211675
0.00160379 0.000354245 -1.95754e-06
0.000354245 0.000250557 -9.44501e-07
-1.95754e-06 -9.44501e-07 1.04976e-05
0.00077599 3.43665e-05 7.63305e-07
3.43665e-05 0.000132286 1.91735e-06
7.63305e-07 1.91735e-06 4.38874e-05
0.000381948 -6.99006e-06 -1.844e-06
-6.99006e-06 -8.19338e-05 3.00762e-06
-1.844e-06 3.00762e-06 -0.000201574
0.0011006 0.000244593 -3.51688e-06
0.000244593 0.00023586 -1.12444e-06
-3.51688e-06 -1.12444e-06 3.36546e-05
0.000670595 0.000112342 -4.87183e-06
0.000112342 0.000114254 -4.23333e-06
-4.87183e-06 -4.23333e-06 -6.61257e-05
0.000765543 0.000209015 -1.11748e-06
0.000209015 7.43796e-05 -2.53042e-06
-1.11748e-06 -2.53042e-06 -0.000101549
0.00161919 0.000279464 -1.79785e-07
0.000279464 -1.19947e-06 -2.19684e-06
-1.79785e-07 -2.19684e-06 -0.000127246
0.00190175 0.000398117 3.64988e-06
0.000398117 0.000298041 -1.93376e-06
3.64988e-06 -1.93376e-06 7.91191e-05
0.00154973 0.000354705 3.1265e-06
0.000354705 2.87819e-05 1.68312e-07
3.1265e-06 1.68312e-07 -0.000149631
0.00149229 0.000316463 2.44357e-06
0.000316463 0.000356801 7.59633e-06
2.44357e-06 7.59633e-06 8.87199e-05
0.00156322 0.000376713 -1.0957e-06
0.000376713 0.000232926 -8.21184e-07
-1.0957e-06 -8.21184e-07 -1.26666e-05
0.000610119 -1.94644e-05 -1.45279e-06
-1.94644e-05 6.08242e-06 -2.4538e-06
-1.45279e-06 -2.4538e-06 -4.5766e-05
0.00062456 2.64767e-05 9.77025e-07
2.64767e-05 3.35281e-05 3.28611e-07
9.77025e-07 3.28611e-07 -4.65313e-05
0.000528891 4.18139e-06 -2.70152e-07
4.18139e-06 -2.07433e-05 9.91831e-07
-2.70152e-07 9.91831e-07 -0.000107066
0.000444839 -2.94165e-05 -6.67904e-07
-2.94165e-05 -7.07177e-05 -1.35675e-06
-6.67904e-07 -1.35675e-06 -0.000149107
0.000664757 3.38069e-05 -2.66253e-07
3.38069e-05 6.55893e-05 2.31989e-08
-2.66253e-07 2.31989e-08 -1.58118e-05
0.00068886 4.51855e-05 -2.77621e-07
4.51855e-05 7.62659e-05 -3.55299e-07
-2.77621e-07 -3.55299e-07 -1.36559e-05
0.000819297 7.58543e-05 -1.16694e-06
7.58543e-05 0.000161349 -1.66104e-06
-1.16694e-06 -1.66104e-06 6.20221e-05
0.0005222 -1.35768e-05 6.5114e-07
-1.35768e-05 -8.09585e-06 3.41105e-07
6.5114e-07 3.41105e-07 -0.00010821
0.00068985 5.67479e-05 8.99543e-07
5.67479e-05 7.71574e-05 1.49337e-06
8.99543e-07 1.49337e-06 -9.88841e-07
0.000633262 3.25837e-05 2.09569e-06
3.25837e-05 2.96e-05 2.36271e-06
2.09569e-06 2.36271e-06 -2.16375e-05
0.000623365 -9.94051e-07 -1.13722e-06
-9.94051e-07 1.925e-05 8.96745e-09
-1.13722e-06 8.96745e-09 -3.0751e-05
0.00125255 -2.72541e-05 8.99901e-07
-2.72541e-05 0.000372473 2.47412e-06
8.99901e-07 2.47412e-06 0.000361863
0.000592503 -4.4489e-05 -1.1907e-07
-4.4489e-05 8.50325e-07 -2.32267e-06
-1.1907e-07 -2.32267e-06 -5.06375e-05
0.00129582 -3.62421e-05 -4.5708e-06
-3.62421e-05 0.000399622 -1.44617e-06
-4.5708e-06 -1.44617e-06 0.000388311
0.000862133 -3.25605e-05 1.93038e-05
-3.25605e-05 0.000148438 7.86167e-06
1.93038e-05 7.86167e-06 0.000154778
0.00133406 -4.62449e-05 -8.35553e-06
-4.62449e-05 0.00042584 -5.47502e-06
-8.35553e-06 -5.47502e-06 0.000413018
0.000809828 -4.09861e-05 7.07425e-06
-4.09861e-05 0.000122228 2.95364e-06
7.07425e-06 2.95364e-06 0.000126499
0.00224814 -8.90895e-05 -4.69136e-06
-8.90895e-05 0.00099017 -1.94808e-06
-4.69136e-06 -1.94808e-06 0.000997061
0.000509114 4.50338e-05 -6.01424e-07
4.50338e-05 -4.88443e-05 -3.92353e-06
-6.01424e-07 -3.92353e-06 -6.9798e-05
0.000516856 4.36553e-05 -9.04674e-07
4.36553e-05 -3.52143e-05 1.25411e-08
-9.04674e-07 1.25411e-08 -6.33407e-05
0.00248704 0.000100969 2.60447e-05
0.000100969 0.00114303 -3.64032e-06
2.60447e-05 -3.64032e-06 0.00114614
0.000576329 9.38327e-06 -4.04264e-06
9.38327e-06 2.00034e-07 6.46347e-06
-4.04264e-06 6.46347e-06 -3.2155e-05
0.00283407 0.000116977 -1.01037e-05
0.000116977 0.00135523 -5.83764e-07
-1.01037e-05 -5.83764e-07 0.00135436
0.00327644 9.84246e-05 -9.33558e-05
9.84246e-05 0.00161858 4.80663e-06
-9.33558e-05 4.80663e-06 0.00162161
0.00171655 0.000209834 -1.69339e-06
0.000209834 0.000120137 7.29172e-07
-1.69339e-06 7.29172e-07 -2.60648e-05
0.0017968 0.000128137 1.22138e-06
0.000128137 0.000116917 1.30338e-06
1.22138e-06 1.30338e-06 2.21585e-06
0.00181203 0.000186674 9.79327e-07
0.000186674 8.64007e-05 2.19786e-06
9.79327e-07 2.19786e-06 -1.14832e-05
0.00185114 8.09877e-05 1.42115e-06
8.09877e-05 7.84607e-05 1.25147e-06
1.42115e-06 1.25147e-06 1.12632e-05
0.00181455 2.82176e-05 -3.13947e-07
2.82176e-05 0.000134762 1.69254e-07
-3.13947e-07 1.69254e-07 4.16815e-05
0.00141358 1.24695e-05 -2.00615e-06
1.24695e-05 4.70852e-05 4.55359e-08
-2.00615e-06 4.55359e-08 -7.68837e-05
0.00175198 3.8995e-06 -1.52026e-06
3.8995e-06 0.000103164 1.79197e-08
-1.52026e-06 1.79197e-08 7.58592e-06
0.00177085 3.84405e-05 1.93337e-06
3.84405e-05 4.62438e-05 2.5635e-08
1.93337e-06 2.5635e-08 -2.37456e-05
0.00186172 0.000138591 -1.39387e-06
0.000138591 9.3364e-05 -6.42661e-07
-1.39387e-06 -6.42661e-07 1.01964e-05
0.00182179 9.10051e-05 1.81777e-06
9.10051e-05 3.51551e-05 5.21246e-07
1.81777e-06 5.21246e-07 -1.8607e-05
0.00175213 0.000208785 -8.23391e-07
0.000208785 0.000105415 -2.60374e-07
-8.23391e-07 -2.60374e-07 -1.60212e-05
0.00185372 0.000199691 3.61223e-06
0.000199691 7.58506e-05 1.46726e-06
3.61223e-06 1.46726e-06 -4.90512e-06
0.00179492 -6.77625e-06 2.7483e-07
-6.77625e-06 7.43496e-05 1.16262e-07
2.7483e-07 1.16262e-07 5.42493e-06
0.00187434 4.34326e-05 4.82633e-06
4.34326e-05 5.09046e-05 1.6136e-07
4.82633e-06 1.6136e-07 1.24102e-05
0.00187457 0.000143007 3.73527e-06
0.000143007 6.17741e-05 9.06934e-07
3.73527e-06 9.06934e-07 1.93238e-06
0.00188056 0.00024646 7.52302e-07
0.00024646 0.000106353 -7.22837e-07
7.52302e-07 -7.22837e-07 1.16061e-05
0.00172059 -3.59908e-05 1.57403e-06
-3.59908e-05 8.87498e-05 -3.26023e-08
1.57403e-06 -3.26023e-08 -1.06974e-05
0.00171133 -0.00010932 2.39176e-06
-0.00010932 8.7597e-05 -1.25533e-06
2.39176e-06 -1.25533e-06 -2.86874e-05
0.00178036 -7.49916e-05 4.02194e-06
-7.49916e-05 6.9048e-05 -1.90921e-06
4.02194e-06 -1.90921e-06 -3.59297e-06
0.00173943 -0.000178711 -6.61981e-07
-0.000178711 5.7329e-05 1.0361e-07
-6.61981e-07 1.0361e-07 -3.9858e-05
0.00112204 -0.000212593 -1.31039e-06
-0.000212593 0.000273265 4.96064e-06
-1.31039e-06 4.96064e-06 8.15979e-05
0.00113937 -0.000268089 -3.66442e-07
-0.000268089 0.000148259 1.23237e-06
-3.66442e-07 1.23237e-06 -8.09026e-05
0.00163299 -0.00038715 -4.34734e-08
-0.00038715 0.000276678 -4.45639e-07
-4.34734e-08 -4.45639e-07 1.13652e-05
0.00164525 -0.000251476 3.6727e-07
-0.000251476 7.59184e-05 -4.80711e-07
3.6727e-07 -4.80711e-07 -6.24865e-05
0.00170413 -0.000225229 3.51987e-06
-0.000225229 4.34813e-05 -1.90231e-06
3.51987e-06 -1.90231e-06 -4.43657e-05
0.00176094 -0.000307716 3.74134e-06
-0.000307716 0.00013564 -4.1971e-07
3.74134e-06 -4.1971e-07 1.30598e-06
0.00173119 -0.000370926 -1.66818e-06
-0.000370926 0.000204007 -2.61311e-06
-1.66818e-06 -2.61311e-06 -1.32633e-05
0.0017339 -0.000307427 2.73313e-06
-0.000307427 0.000128173 -1.15379e-05
2.73313e-06 -1.15379e-05 -1.61816e-05
0.00124568 -0.000242116 2.42097e-06
-0.000242116 0.000350056 2.48792e-06
2.42097e-06 2.48792e-06 0.000158659
0.00101932 -0.000211545 3.65429e-06
-0.000211545 0.00022413 -2.31374e-06
3.65429e-06 -2.31374e-06 5.08084e-05
0.000710167 -9.21942e-05 1.54665e-06
-9.21942e-05 0.000109845 -2.96074e-06
1.54665e-06 -2.96074e-06 -7.18644e-05
0.000368111 8.90959e-06 -1.10459e-06
8.90959e-06 -0.000115724 2.94283e-06
-1.10459e-06 2.94283e-06 -0.000196153
0.000416993 2.47276e-05 1.47661e-06
2.47276e-05 -6.63097e-05 -1.76563e-07
1.47661e-06 -1.76563e-07 -0.000193265
0.00187634 -5.49563e-05 -1.24092e-07
-5.49563e-05 0.000114348 -1.31052e-07
-1.24092e-07 -1.31052e-07 4.62117e-05
0.00180819 -0.000110464 1.32503e-06
-0.000110464 6.28659e-05 -7.34399e-07
1.32503e-06 -7.34399e-07 -1.50367e-05
0.00182319 -0.000212629 -2.15136e-06
-0.000212629 7.96112e-05 2.56114e-07
-2.15136e-06 2.56114e-07 1.52684e-06
0.00114386 -0.000245447 -1.02037e-06
-0.000245447 0.000252443 4.33747e-07
-1.02037e-06 4.33747e-07 4.03213e-05
0.00105789 -0.000297683 1.85373e-06
-0.000297683 6.41199e-05 -2.21304e-06
1.85373e-06 -2.21304e-06 -0.000188648
0.00164485 -0.000427237 -1.63703e-07
-0.000427237 0.000242366 3.20981e-07
-1.63703e-07 3.20981e-07 -3.58678e-05
0.00166243 -0.000254804 4.8257e-07
-0.000254804 3.94765e-05 -3.18353e-07
4.8257e-07 -3.18353e-07 -6.585e-05
0.00170512 -0.000357514 7.55096e-07
-0.000357514 0.000159978 -2.19588e-06
7.55096e-07 -2.19588e-06 -4.04395e-05
0.00190129 -0.00034117 -3.90147e-07
-0.00034117 0.000174597 -1.07667e-06
-3.90147e-07 -1.07667e-06 4.47329e-05
0.000303349 3.37111e-05 -2.98455e-07
3.37111e-05 -0.000158729 -8.81115e-07
-2.98455e-07 -8.81115e-07 -0.000222359
0.00116365 -0.000240604 -1.44728e-07
-0.000240604 0.00027677 1.67802e-06
-1.44728e-07 1.67802e-06 8.48804e-05
0.000652362 -0.00019619 1.50295e-07
-0.00019619 -3.83731e-06 8.8052e-07
1.50295e-07 8.8052e-07 -0.000172131
0.000962331 -0.000163658 -6.58137e-07
-0.000163658 0.000254569 3.79863e-07
-6.58137e-07 3.79863e-07 5.20276e-05
0.00111782 -7.68107e-05 1.61215e-07
-7.68107e-05 0.0003487 -5.92111e-07
1.61215e-07 -5.92111e-07 0.000192907
0.000614425 -1.41416e-07 -4.60541e-07
-1.41416e-07 5.73349e-05 5.42196e-07
-4.60541e-07 5.42196e-07 -6.22213e-05
0.00168547 -6.22906e-05 2.41307e-06
-6.22906e-05 -3.81918e-05 -2.29351e-07
2.41307e-06 -2.29351e-07 -9.19165e-05
0.00203056 -0.000152536 2.27944e-06
-0.000152536 0.00012252 -2.73243e-07
2.27944e-06 -2.73243e-07 7.55276e-05
0.00162356 -0.000245537 1.50901e-06
-0.000245537 -5.54193e-05 -1.28171e-06
1.50901e-06 -1.28171e-06 -0.000126318
0.00204394 -0.000319695 -6.88984e-07
-0.000319695 0.000171685 -2.147e-06
-6.88984e-07 -2.147e-06 7.12213e-05
0.00150407 -0.000299075 -4.60722e-06
-0.000299075 0.000414813 -5.27196e-06
-4.60722e-06 -5.27196e-06 0.000184915
0.00187513 -0.000379947 7.35808e-07
-0.000379947 0.000182572 4.09374e-06
7.35808e-07 4.09374e-06 1.64833e-05
0.00140528 -0.000388209 -2.4861e-06
-0.000388209 0.000219136 1.04196e-06
-2.4861e-06 1.04196e-06 -8.36484e-05
0.00169156 -0.000446226 -2.55546e-06
-0.000446226 0.000262565 2.6067e-06
-2.55546e-06 2.6067e-06 -2.67255e-05
0.000302183 5.18298e-05 -1.86484e-06
5.18298e-05 -0.00016368 -2.2563e-06
-1.86484e-06 -2.2563e-06 -0.000217288
0.000717966 -6.24034e-07 -5.9573e-08
-6.24034e-07 0.000116075 -6.66346e-07
-5.9573e-08 -6.66346e-07 1.37506e-05
0.000964775 -0.000104474 -1.71329e-06
-0.000104474 0.00026633 2.06001e-06
-1.71329e-06 2.06001e-06 0.000126053
0.000891641 -2.98545e-05 -2.16032e-06
-2.98545e-05 0.00021445 3.22423e-06
-2.16032e-06 3.22423e-06 2.77888e-05
0.000584479 -0.000208923 -3.50593e-06
-0.000208923 -7.88306e-05 -3.74616e-06
-3.50593e-06 -3.74616e-06 -0.000274197
0.000981193 -0.000224607 -6.60481e-06
-0.000224607 0.000212107 1.20857e-06
-6.60481e-06 1.20857e-06 4.78204e-06
0.00058446 -1.58426e-05 -2.19837e-06
-1.58426e-05 -5.52149e-06 -2.35571e-06
-2.19837e-06 -2.35571e-06 -6.01864e-05
0.000554696 -4.07609e-05 3.26597e-07
-4.07609e-05 6.21366e-06 -1.86568e-06
3.26597e-07 -1.86568e-06 -8.71405e-05
0.00171833 0.000265324 -2.12369e-06
0.000265324 0.000123403 -4.63702e-07
-2.12369e-06 -4.63702e-07 -2.88104e-05
0.000448399 -1.06467e-05 8.25918e-07
-1.06467e-05 -4.41503e-05 -1.27291e-06
8.25918e-07 -1.27291e-06 -0.000187539
0.00112199 0.00023234 1.13305e-06
0.00023234 0.000295422 -1.62161e-07
1.13305e-06 -1.62161e-07 0.000101486
0.000178782 7.46451e-05 2.95416e-06
7.46451e-05 -0.000251778 2.24956e-06
2.95416e-06 2.24956e-06 -0.000403338
0.00170484 0.0003571 -7.63746e-07
0.0003571 0.000196815 2.64424e-07
-7.63746e-07 2.64424e-07 -9.42628e-06
0.00181358 0.000348088 -2.60812e-06
0.000348088 0.000191974 1.18116e-06
-2.60812e-06 1.18116e-06 1.62647e-05
0.00098752 0.000265435 -1.36555e-06
0.000265435 0.000120742 3.72026e-07
-1.36555e-06 3.72026e-07 -0.000130611
0.00175608 0.000366268 -2.1292e-06
0.000366268 0.000350378 1.28363e-06
-2.1292e-06 1.28363e-06 0.000106338
0.000693795 1.1544e-05 -8.61188e-07
1.1544e-05 8.06694e-05 1.93735e-07
-8.61188e-07 1.93735e-07 -3.95296e-06
0.000626874 1.8498e-05 7.09929e-07
1.8498e-05 6.1252e-05 1.37674e-06
7.09929e-07 1.37674e-06 -5.97562e-05
0.00133644 0.000266211 -1.03202e-06
0.000266211 0.000386267 -2.89554e-06
-1.03202e-06 -2.89554e-06 0.00017733
0.000553044 3.32109e-05 -9.08028e-07
3.32109e-05 1.72243e-05 -4.33145e-07
-9.08028e-07 -4.33145e-07 -0.000139169
0.000579845 0.00017345 -1.96698e-06
0.00017345 -4.43489e-05 -8.67405e-07
-1.96698e-06 -8.67405e-07 -0.000199327
0.00187396 0.000290861 -2.86127e-06
0.000290861 0.000144018 -1.31427e-06
-2.86127e-06 -1.31427e-06 2.00007e-05
0.00197812 0.000399431 1.77807e-06
0.000399431 0.00034612 -2.61626e-07
1.77807e-06 -2.61626e-07 0.000129042
0.00171184 0.000372944 1.77064e-06
0.000372944 0.000111519 2.47236e-06
1.77064e-06 2.47236e-06 -6.98771e-05
0.00130695 0.000303171 3.61143e-06
0.000303171 0.000261119 4.40974e-06
3.61143e-06 4.40974e-06 -1.23745e-05
0.00154533 0.000382423 -3.02029e-06
0.000382423 0.000215908 5.49017e-07
-3.02029e-06 5.49017e-07 -3.475e-05
0.000379745 -1.9524e-05 -1.05888e-06
-1.9524e-05 -9.3413e-05 2.60049e-06
-1.05888e-06 2.60049e-06 -0.000188539
8.93183e-05 7.70569e-05 3.00295e-07
7.70569e-05 -0.000220792 8.25276e-07
3.00295e-07 8.25276e-07 -0.000379307
0.00116454 0.000259483 2.05476e-06
0.000259483 0.000246027 3.66238e-06
2.05476e-06 3.66238e-06 2.27152e-05
-0.000602159 6.75424e-05 3.61529e-06
6.75424e-05 -0.000692775 -3.07498e-07
3.61529e-06 -3.07498e-07 -0.00086142
0.00195321 0.00030269 -1.75157e-06
0.00030269 2.3806e-05 -3.21482e-07
-1.75157e-06 -3.21482e-07 -3.77399e-05
0.00234554 0.000371299 7.66706e-07
0.000371299 0.000404645 -7.87185e-07
7.66706e-07 -7.87185e-07 0.000261549
0.00180183 0.000427903 -2.04287e-06
0.000427903 0.000247041 -3.56996e-06
-2.04287e-06 -3.56996e-06 1.04939e-05
0.00042652 0.000260845 -1.47682e-06
0.000260845 -0.000314041 1.66536e-06
-1.47682e-06 1.66536e-06 -0.000588552
0.000676903 5.56921e-05 -9.19255e-07
5.56921e-05 6.94318e-05 -7.53661e-07
-9.19255e-07 -7.53661e-07 -1.36256e-05
0.000615121 3.4204e-05 -9.97724e-08
3.4204e-05 3.72655e-05 3.46663e-07
-9.97724e-08 3.46663e-07 -5.40958e-05
0.000910906 2.54199e-05 -2.02382e-06
2.54199e-05 0.000209437 -1.45203e-06
-2.02382e-06 -1.45203e-06 0.000122548
0.000655884 5.10181e-06 -1.44754e-06
5.10181e-06 5.05777e-05 -1.33953e-06
-1.44754e-06 -1.33953e-06 -2.35866e-05
0.000453826 -5.5719e-06 -1.90271e-07
-5.5719e-06 -5.94553e-05 -7.57384e-07
-1.90271e-07 -7.57384e-07 -0.000149063
0.00066966 2.44662e-05 5.93671e-09
2.44662e-05 6.72381e-05 4.99016e-09
5.93671e-09 4.99016e-09 -1.19376e-05
0.000671104 7.52247e-05 -6.09624e-07
7.52247e-05 8.39859e-05 -3.10547e-07
-6.09624e-07 -3.10547e-07 -1.92542e-05
0.000612029 1.95963e-05 7.4801e-07
1.95963e-05 4.7551e-05 3.84153e-07
7.4801e-07 3.84153e-07 -5.44182e-05
0.000762602 4.78935e-05 8.3851e-07
4.78935e-05 0.000120663 -1.33526e-06
8.3851e-07 -1.33526e-06 2.96099e-05
0.000691618 -2.21188e-05 1.366e-06
-2.21188e-05 9.35293e-05 -1.34051e-06
1.366e-06 -1.34051e-06 -1.37557e-05
0.000536826 4.4082e-05 5.54331e-07
4.4082e-05 1.4112e-06 1.34503e-06
5.54331e-07 1.34503e-06 -0.000102265
0.000663007 6.84265e-05 1.20246e-06
6.84265e-05 6.67461e-05 1.89955e-06
1.20246e-06 1.89955e-06 -1.50107e-05
0.000580044 4.19105e-05 1.65219e-06
4.19105e-05 4.14816e-06 2.15847e-06
1.65219e-06 2.15847e-06 -4.95966e-05
0.00059679 -2.89259e-06 -1.02489e-06
-2.89259e-06 9.06948e-06 -1.40124e-10
-1.02489e-06 -1.40124e-10 -4.28061e-05
0.0012576 -1.57889e-05 7.26754e-07
-1.57889e-05 0.000375466 2.38541e-06
7.26754e-07 2.38541e-06 0.000365185
0.000595434 -4.12507e-05 5.14241e-08
-4.12507e-05 4.79763e-06 -2.3317e-06
5.14241e-08 -2.3317e-06 -4.64649e-05
0.00130173 -2.43924e-05 -3.83656e-06
-2.43924e-05 0.00040183 -1.52275e-06
-3.83656e-06 -1.52275e-06 0.000391297
0.000860661 -2.45861e-05 1.62165e-05
-2.45861e-05 0.000144108 8.16286e-06
1.62165e-05 8.16286e-06 0.000151386
0.0013405 -3.40899e-05 -6.98451e-06
-3.40899e-05 0.000426214 -5.48531e-06
-6.98451e-06 -5.48531e-06 0.000414929
0.0008098 -3.29979e-05 5.7107e-06
-3.29979e-05 0.000116546 3.05374e-06
5.7107e-06 3.05374e-06 0.000122626
0.00074764 -3.97471e-05 -1.2703e-06
-3.97471e-05 8.48294e-05 -2.14469e-06
-1.2703e-06 -2.14469e-06 8.91538e-05
0.000536444 3.66797e-05 2.831e-07
3.66797e-05 -4.39803e-05 -3.36977e-06
2.831e-07 -3.36977e-06 -5.89527e-05
0.000530072 5.18861e-05 6.92486e-09
5.18861e-05 -3.44382e-05 1.39407e-07
6.92486e-09 1.39407e-07 -5.69271e-05
0.00226703 8.36158e-05 2.07591e-05
8.36158e-05 0.00100434 -3.76529e-06
2.07591e-05 -3.76529e-06 0.00101205
0.000546326 3.60982e-05 -2.47087e-06
3.60982e-05 -1.83182e-05 5.47923e-06
-2.47087e-06 5.47923e-06 -4.61834e-05
0.00254799 0.000102487 -6.21774e-06
0.000102487 0.00117931 -4.56954e-07
-6.21774e-06 -4.56954e-07 0.00118211
0.00292123 9.27461e-05 -7.20321e-05
9.27461e-05 0.00140379 3.8427e-06
-7.20321e-05 3.8427e-06 0.0014086
0.00176976 0.000207529 -8.1885e-08
0.000207529 0.000123898 2.10219e-06
-8.1885e-08 2.10219e-06 2.48974e-06
0.00186593 0.000137247 -1.70626e-06
0.000137247 9.85013e-05 6.28514e-07
-1.70626e-06 6.28514e-07 1.50242e-05
0.00180974 0.000200511 2.12723e-06
0.000200511 5.04616e-05 1.08015e-06
2.12723e-06 1.08015e-06 -2.71299e-05
0.00183275 9.21851e-05 -2.58521e-06
9.21851e-05 3.97546e-05 -3.62846e-07
-2.58521e-06 -3.62846e-07 -1.14399e-05
0.00178619 3.68142e-05 1.63715e-06
3.68142e-05 5.82168e-05 -2.24704e-07
1.63715e-06 -2.24704e-07 -1.3743e-05
0.00171351 1.84227e-06 -2.45104e-07
1.84227e-06 7.88851e-05 2.74773e-08
-2.45104e-07 2.74773e-08 -1.88805e-05
0.00179537 -3.89776e-06 -2.55319e-08
-3.89776e-06 7.37911e-05 -6.67886e-08
-2.55319e-08 -6.67886e-08 5.04959e-06
0.00185435 4.264e-05 9.56693e-07
4.264e-05 4.96279e-05 1.48744e-07
9.56693e-07 1.48744e-07 8.80211e-06
0.0018866 0.000148258 6.72301e-07
0.000148258 6.66264e-05 -3.42927e-07
6.72301e-07 -3.42927e-07 6.78981e-06
0.00191142 0.000243379 1.74844e-07
0.000243379 0.000111132 1.45361e-07
1.74844e-07 1.45361e-07 1.89031e-05
0.00180727 -9.92785e-06 1.81173e-06
-9.92785e-06 3.15053e-05 -4.59585e-07
1.81173e-06 -4.59585e-07 -1.06091e-05
0.00192848 8.85236e-05 3.08294e-06
8.85236e-05 3.0401e-05 -1.56723e-07
3.08294e-06 -1.56723e-07 8.89691e-06
0.00195197 0.000215999 3.12725e-06
0.000215999 5.21543e-05 3.50381e-07
3.12725e-06 3.50381e-07 -9.10042e-06
0.00191809 -6.00632e-05 4.97496e-07
-6.00632e-05 0.000140691 2.86508e-07
4.97496e-07 2.86508e-07 7.07432e-05
0.00175096 -0.000112672 -4.79306e-08
-0.000112672 2.70739e-05 -7.56153e-07
-4.79306e-08 -7.56153e-07 -5.25384e-05
0.00183362 -0.000206667 -1.96674e-06
-0.000206667 9.39788e-05 7.12513e-07
-1.96674e-06 7.12513e-07 1.37621e-05
0.00134442 -0.000261617 -2.84117e-07
-0.000261617 0.000370192 4.93807e-06
-2.84117e-07 4.93807e-06 0.000155261
0.000894363 -0.000275161 1.27451e-06
-0.000275161 -4.04826e-05 2.92568e-07
1.27451e-06 2.92568e-07 -0.000285098
0.00157051 -0.000427905 3.83674e-07
-0.000427905 0.00020213 -1.49166e-06
3.83674e-07 -1.49166e-06 -7.88834e-05
0.00168238 -0.000255791 4.56717e-07
-0.000255791 4.57343e-05 -1.14165e-07
4.56717e-07 -1.14165e-07 -5.98899e-05
0.00156418 -0.000320876 1.33335e-06
-0.000320876 -9.4454e-06 -2.65136e-06
1.33335e-06 -2.65136e-06 -0.000139054
0.00179228 -0.000361078 -1.87897e-06
-0.000361078 0.000210835 -7.68103e-06
-1.87897e-06 -7.68103e-06 1.62376e-05
0.00124863 -0.000247429 3.81426e-06
-0.000247429 0.00031645 4.88573e-06
3.81426e-06 4.88573e-06 0.000124368
0.000699139 -0.000196464 -7.23037e-06
-0.000196464 3.41672e-05 1.52045e-06
-7.23037e-06 1.52045e-06 -0.000126632
0.00156845 -0.000209067 1.06566e-06
-0.000209067 0.000622262 -1.3891e-07
1.06566e-06 -1.3891e-07 0.00040446
0.00036481 2.40708e-05 4.77237e-07
2.40708e-05 -0.000123164 7.78147e-07
4.77237e-07 7.78147e-07 -0.000185409
0.000950642 -8.01011e-05 1.8947e-06
-8.01011e-05 0.00024558 -1.04636e-06
1.8947e-06 -1.04636e-06 9.69986e-05
0.000478256 3.42032e-05 2.47214e-06
3.42032e-05 -3.05034e-05 1.54562e-06
2.47214e-06 1.54562e-06 -0.000146554
0.00177041 -6.26086e-05 -4.71448e-07
-6.26086e-05 1.26172e-05 1.51167e-07
-4.71448e-07 1.51167e-07 -4.28587e-05
0.00196054 -0.000157435 8.80944e-08
-0.000157435 8.13593e-05 -2.32205e-07
8.80944e-08 -2.32205e-07 3.11085e-05
0.00175987 -0.000248575 -1.38729e-07
-0.000248575 2.8524e-05 4.65889e-07
-1.38729e-07 4.65889e-07 -4.4735e-05
0.00120482 -0.000269143 -1.98375e-06
-0.000269143 0.000242338 1.50444e-07
-1.98375e-06 1.50444e-07 1.68532e-05
0.00115068 -0.000359482 -3.29583e-07
-0.000359482 7.32808e-05 -6.46945e-07
-3.29583e-07 -6.46945e-07 -0.000219988
0.00174084 -0.000444113 -3.54999e-06
-0.000444113 0.000293694 2.2836e-07
-3.54999e-06 2.2836e-07 1.24387e-05
0.00198038 -0.000322442 8.58378e-07
-0.000322442 0.000138819 -3.97063e-07
8.58378e-07 -3.97063e-07 3.58062e-05
0.00170623 -0.000373171 1.20742e-06
-0.000373171 7.65034e-05 -2.93167e-06
1.20742e-06 -2.93167e-06 -8.96273e-05
0.000459552 4.35226e-05 -2.73679e-07
4.35226e-05 -7.32918e-05 -9.45557e-07
-2.73679e-07 -9.45557e-07 -0.000123025
0.00073735 -9.48025e-06 -5.91012e-07
-9.48025e-06 0.000126024 3.11433e-07
-5.91012e-07 3.11433e-07 2.42466e-05
0.000274564 -0.00017848 -2.98506e-06
-0.00017848 -0.000257025 4.67658e-06
-2.98506e-06 4.67658e-06 -0.000441814
0.00138577 -0.000244682 5.51901e-07
-0.000244682 0.000462687 -3.77915e-07
5.51901e-07 -3.77915e-07 0.000254895
0.00100157 -7.00659e-05 -3.04111e-08
-7.00659e-05 0.000287887 -9.7504e-07
-3.04111e-08 -9.7504e-07 9.99142e-05
0.000850514 -7.7167e-05 -4.97077e-07
-7.7167e-05 0.000199698 1.40826e-06
-4.97077e-07 1.40826e-06 5.88697e-05
0.00189286 -7.99179e-05 2.22727e-06
-7.99179e-05 2.63548e-05 1.7054e-07
2.22727e-06 1.7054e-07 -2.41363e-06
0.00197957 -0.000226006 6.79992e-07
-0.000226006 4.45439e-05 -6.97176e-07
6.79992e-07 -6.97176e-07 2.38626e-05
0.00192111 -0.000270457 5.8309e-07
-0.000270457 8.03754e-05 -1.64387e-06
5.8309e-07 -1.64387e-06 1.56279e-05
0.00185539 -0.000417069 4.5893e-06
-0.000417069 3.65859e-05 -2.43081e-06
4.5893e-06 -2.43081e-06 -8.87558e-05
0.000484626 -0.000241701 -5.73198e-06
-0.000241701 -0.000212471 -6.27193e-06
-5.73198e-06 -6.27193e-06 -0.000464845
0.00179032 -0.000449758 -1.64239e-06
-0.000449758 0.000282885 1.17996e-05
-1.64239e-06 1.17996e-05 1.62422e-05
0.00190248 -0.000471447 -2.47175e-06
-0.000471447 0.000467635 -8.3119e-07
-2.47175e-06 -8.3119e-07 0.000133603
0.000621093 4.41546e-05 2.13942e-07
4.41546e-05 1.41805e-05 -1.2802e-06
2.13942e-07 -1.2802e-06 -2.80212e-05
0.000688561 -0.000104142 2.72755e-06
-0.000104142 9.22346e-05 -1.62678e-06
2.72755e-06 -1.62678e-06 1.15942e-05
0.000460303 4.58893e-05 -2.03913e-06
4.58893e-05 -4.48769e-05 -1.1516e-06
-2.03913e-06 -1.1516e-06 -0.000131254
0.000676789 -4.604e-05 -7.97309e-07
-4.604e-05 0.000108744 2.37555e-06
-7.97309e-07 2.37555e-06 -2.11184e-05
0.000620439 -2.83432e-05 1.09414e-06
-2.83432e-05 4.82733e-05 -2.44452e-07
1.09414e-06 -2.44452e-07 -9.72658e-05
4.3851e-05 -8.73063e-05 -2.69632e-07
-8.73063e-05 -0.000273152 1.50295e-06
-2.69632e-07 1.50295e-06 -0.000454001
8.77847e-06 -0.000175859 -3.64944e-06
-0.000175859 -0.000429671 -5.6042e-06
-3.64944e-06 -5.6042e-06 -0.000605976
0.00257815 -0.000352503 -1.0915e-05
-0.000352503 0.00122546 2.52893e-06
-1.0915e-05 2.52893e-06 0.000929565
0.000636627 -8.02944e-06 -1.12513e-06
-8.02944e-06 4.15164e-05 -9.3777e-07
-1.12513e-06 -9.3777e-07 -3.76522e-05
0.000898666 2.69313e-05 4.75746e-07
2.69313e-05 0.000224859 -1.5902e-06
4.75746e-07 -1.5902e-06 9.92791e-05
0.00211377 0.000300807 -1.56427e-06
0.000300807 0.000282239 -3.51531e-07
-1.56427e-06 -3.51531e-07 0.000160504
0.000849881 7.05523e-05 -1.22594e-06
7.05523e-05 0.000202021 2.83646e-06
-1.22594e-06 2.83646e-06 3.44168e-05
0.00161608 0.000293265 9.65988e-07
0.000293265 0.000563225 -2.12567e-06
9.65988e-07 -2.12567e-06 0.000344847
0.000404751 0.000138993 -6.31339e-07
0.000138993 -0.000153615 1.24834e-06
-6.31339e-07 1.24834e-06 -0.000289297
0.00202862 0.000397572 -3.44581e-06
0.000397572 0.000381791 1.32426e-07
-3.44581e-06 1.32426e-07 0.000167265
0.00184694 0.00038921 -2.22747e-06
0.00038921 0.000179901 5.05878e-06
-2.22747e-06 5.05878e-06 -4.07613e-06
0.00104362 0.000284885 -3.97401e-07
0.000284885 0.000118303 -6.31305e-07
-3.97401e-07 -6.31305e-07 -0.000160257
0.00150264 0.000386668 1.83549e-07
0.000386668 0.00018211 1.44835e-06
1.83549e-07 1.44835e-06 -7.28813e-05
0.000392387 9.63248e-06 -1.8291e-07
9.63248e-06 -7.77314e-05 1.18397e-06
-1.8291e-07 1.18397e-06 -0.000179795
0.000361211 9.87643e-05 -5.77909e-07
9.87643e-05 -5.77388e-05 -2.17325e-06
-5.77909e-07 -2.17325e-06 -0.000221569
0.00127008 0.000271894 3.36758e-06
0.000271894 0.000319099 -1.80054e-06
3.36758e-06 -1.80054e-06 8.89953e-05
0.000632767 0.000161847 -1.60014e-06
0.000161847 2.54074e-05 -3.27221e-06
-1.60014e-06 -3.27221e-06 -0.000153118
0.0020268 0.000295967 1.05952e-06
0.000295967 6.32462e-05 -8.42545e-07
1.05952e-06 -8.42545e-07 2.31181e-06
0.00209976 0.000364228 3.21283e-06
0.000364228 0.000272067 6.77912e-07
3.21283e-06 6.77912e-07 0.000125003
0.00182096 0.000423453 -1.069e-06
0.000423453 0.000250311 2.60324e-07
-1.069e-06 2.60324e-07 1.62153e-05
0.00113741 0.000327697 2.40486e-07
0.000327697 7.4747e-05 1.4062e-07
2.40486e-07 1.4062e-07 -0.000203395
0.000466238 3.40928e-05 -1.23189e-06
3.40928e-05 -4.17288e-05 2.71148e-06
-1.23189e-06 2.71148e-06 -0.000143202
0.00191852 0.000239116 -5.19243e-07
0.000239116 -3.62863e-05 1.88084e-06
-5.19243e-07 1.88084e-06 -5.43157e-05
0.00153873 0.000261938 7.94647e-07
0.000261938 0.000629827 2.82464e-06
7.94647e-07 2.82464e-06 0.000417428
0.00122546 0.000279568 3.91048e-06
0.000279568 0.000255453 3.95208e-06
3.91048e-06 3.95208e-06 1.98341e-05
0.00251886 0.000362776 -1.77413e-05
0.000362776 0.000405278 -4.607e-06
-1.77413e-05 -4.607e-06 0.000305231
0.00112588 0.00039608 -3.45111e-06
0.00039608 -0.00022943 -7.24973e-06
-3.45111e-06 -7.24973e-06 -0.000445637
0.00205911 0.000440568 -1.70567e-06
0.000440568 0.000520688 3.24505e-06
-1.70567e-06 3.24505e-06 0.000229761
0.000686996 4.89861e-05 -1.2257e-06
4.89861e-05 7.96218e-05 -5.29922e-07
-1.2257e-06 -5.29922e-07 -1.13209e-05
0.000720839 4.14004e-05 -1.29206e-06
4.14004e-05 0.000103877 -5.04481e-07
-1.29206e-06 -5.04481e-07 1.39573e-05
0.000914876 2.87359e-05 -1.65757e-06
2.87359e-05 0.000224405 1.31949e-07
-1.65757e-06 1.31949e-07 0.000139726
0.000629672 -6.97483e-06 1.37442e-08
-6.97483e-06 4.60397e-05 -1.93719e-06
1.37442e-08 -1.93719e-06 -3.48027e-05
0.000673075 4.38145e-05 8.42685e-07
4.38145e-05 8.50721e-05 3.22567e-08
8.42685e-07 3.22567e-08 -1.76546e-05
0.000387725 1.25145e-05 -8.93529e-07
1.25145e-05 -7.02476e-05 1.04232e-06
-8.93529e-07 1.04232e-06 -0.000175521
0.000638247 2.32217e-06 -5.89474e-07
2.32217e-06 5.85356e-05 -8.74151e-09
-5.89474e-07 -8.74151e-09 -2.75354e-05
0.000502429 -2.26937e-05 -6.4795e-07
-2.26937e-05 -1.08978e-05 3.80308e-07
-6.4795e-07 3.80308e-07 -0.000118478
0.000562945 -2.91068e-07 4.33612e-07
-2.91068e-07 8.83183e-06 1.10665e-07
4.33612e-07 1.10665e-07 -7.94712e-05
0.000773299 3.73243e-05 4.75088e-07
3.73243e-05 0.000152044 -1.75254e-07
4.75088e-07 -1.75254e-07 3.63462e-05
0.00109098 3.95588e-05 4.25746e-07
3.95588e-05 0.00030247 -1.23654e-06
4.25746e-07 -1.23654e-06 0.000222339
0.000693032 -2.46479e-05 1.83747e-06
-2.46479e-05 8.53612e-05 -2.05273e-06
1.83747e-06 -2.05273e-06 -1.03153e-05
0.000757387 3.36682e-05 9.27616e-09
3.36682e-05 0.000141335 7.74227e-08
9.27616e-09 7.74227e-08 2.03702e-05
0.000635783 3.3363e-05 1.9198e-06
3.3363e-05 6.96358e-05 1.56299e-06
1.9198e-06 1.56299e-06 -4.61612e-05
0.000661001 2.09533e-05 1.45835e-06
2.09533e-05 6.54279e-05 1.89439e-06
1.45835e-06 1.89439e-06 -1.89749e-05
0.000583407 -2.65215e-05 -1.92202e-07
-2.65215e-05 5.63194e-06 1.95912e-06
-1.92202e-07 1.95912e-06 -4.76147e-05
0.000597543 -7.80673e-06 -3.287e-07
-7.80673e-06 1.19023e-05 2.29166e-08
-3.287e-07 2.29166e-08 -4.0121e-05
0.00127468 -5.36573e-06 6.90917e-07
-5.36573e-06 0.000386735 2.27177e-06
6.90917e-07 2.27177e-06 0.000375925
0.000606448 -2.6843e-05 7.09267e-07
-2.6843e-05 1.32646e-05 -2.44226e-06
7.09267e-07 -2.44226e-06 -3.75374e-05
0.00130663 -1.31786e-05 -2.91132e-06
-1.31786e-05 0.000405151 -1.57255e-06
-2.91132e-06 -1.57255e-06 0.000394741
0.000853485 -1.67202e-05 1.21254e-05
-1.67202e-05 0.000137852 8.30118e-06
1.21254e-05 8.30118e-06 0.000145674
0.00135236 -2.25396e-05 -4.99133e-06
-2.25396e-05 0.000432175 -5.59729e-06
-4.99133e-06 -5.59729e-06 0.000421495
0.000820618 -2.50889e-05 3.79587e-06
-2.50889e-05 0.000119064 3.16234e-06
3.79587e-06 3.16234e-06 0.000126208
0.000767436 -3.18821e-05 -8.47714e-07
-3.18821e-05 9.0106e-05 -2.12166e-06
-8.47714e-07 -2.12166e-06 9.63811e-05
0.000660248 1.08467e-05 1.09707e-06
1.08467e-05 3.33713e-05 -1.46492e-06
1.09707e-06 -1.46492e-06 -5.43689e-06
0.000549637 2.83414e-05 4.25063e-07
2.83414e-05 -4.34038e-05 -3.44519e-06
4.25063e-07 -3.44519e-06 -5.47364e-05
0.000556712 3.76912e-05 1.16527e-07
3.76912e-05 -3.1348e-05 1.14075e-07
1.16527e-07 1.14075e-07 -4.67172e-05
0.00215227 6.77652e-05 1.83642e-05
6.77652e-05 0.000927416 -3.96728e-06
1.83642e-05 -3.96728e-06 0.000939101
0.000559509 5.64055e-05 2.61497e-06
5.64055e-05 -1.54421e-05 4.78556e-06
2.61497e-06 4.78556e-06 -3.93717e-05
0.00237162 8.72418e-05 -4.09757e-06
8.72418e-05 0.00106721 -3.13203e-07
-4.09757e-06 -3.13203e-07 0.001074
0.00266154 0.000104664 -3.2818e-05
0.000104664 0.00124666 3.6257e-06
-3.2818e-05 3.6257e-06 0.00124901
0.00194618 0.000240645 -6.0086e-07
0.000240645 0.00011811 1.4494e-06
-6.0086e-07 1.4494e-06 2.83513e-05
0.00190011 0.000153634 -2.82768e-06
0.000153634 7.2441e-05 -4.51956e-07
-2.82768e-06 -4.51956e-07 1.2522e-05
0.00185198 4.44157e-05 -2.61441e-06
4.44157e-05 5.86251e-05 1.21906e-08
-2.61441e-06 1.21906e-08 1.57471e-05
0.00177825 -8.5294e-07 -4.60521e-08
-8.5294e-07 6.25046e-05 -1.10634e-07
-4.60521e-08 -1.10634e-07 -6.1583e-06
0.00181915 -6.00173e-06 -1.06851e-06
-6.00173e-06 3.65369e-05 -1.14647e-07
-1.06851e-06 -1.14647e-07 -2.98075e-06
0.001916 8.39698e-05 1.93716e-07
8.39698e-05 2.66568e-05 -6.12138e-08
1.93716e-07 -6.12138e-08 3.53265e-06
0.00194064 0.000219817 -5.83747e-07
0.000219817 4.42175e-05 -1.22459e-07
-5.83747e-07 -1.22459e-07 -1.49791e-05
0.0019218 -3.08464e-07 2.1352e-06
-3.08464e-07 2.13524e-05 -3.89889e-07
2.1352e-06 -3.89889e-07 1.1506e-05
0.00201043 0.000126236 2.33741e-06
0.000126236 1.97595e-05 -6.6054e-07
2.33741e-06 -6.6054e-07 2.21687e-06
0.002195 7.45753e-05 -3.87785e-06
7.45753e-05 0.000179274 3.20941e-06
-3.87785e-06 3.20941e-06 0.000210205
0.00184563 -6.31322e-05 -3.35398e-06
-6.31322e-05 5.69952e-05 5.08942e-08
-3.35398e-06 5.08942e-08 -2.63251e-07
0.00189023 -0.000163314 -3.56324e-06
-0.000163314 3.83116e-05 9.24644e-07
-3.56324e-06 9.24644e-07 -1.51276e-05
0.00189305 -0.000251341 -2.63485e-06
-0.000251341 0.000110065 1.67367e-06
-2.63485e-06 1.67367e-06 3.48254e-05
0.000925728 -0.000240815 3.92254e-08
-0.000240815 8.01224e-05 5.81841e-06
3.92254e-08 5.81841e-06 -0.000141253
0.00113594 -0.000353835 1.52094e-06
-0.000353835 6.82484e-05 1.09243e-06
1.52094e-06 1.09243e-06 -0.000220293
0.00181217 -0.000442039 -3.32011e-06
-0.000442039 0.000339453 -2.23855e-06
-3.32011e-06 -2.23855e-06 6.64788e-05
0.00193038 -0.000323886 2.88359e-06
-0.000323886 0.000114684 6.936e-07
2.88359e-06 6.936e-07 9.77544e-06
0.00150346 -0.000359187 -3.03151e-06
-0.000359187 -4.14761e-05 -5.94349e-06
-3.03151e-06 -5.94349e-06 -0.000205995
9.96335e-05 -0.000159832 -9.18966e-07
-0.000159832 -0.000355024 1.02683e-05
-9.18966e-07 1.02683e-05 -0.000531478
0.00196303 -0.000283455 1.34405e-05
-0.000283455 0.000817044 -3.1748e-06
1.34405e-05 -3.1748e-06 0.00060453
0.000711016 -2.81392e-05 3.52602e-07
-2.81392e-05 0.000104726 -1.14913e-06
3.52602e-07 -1.14913e-06 -6.68555e-05
0.000564772 1.52866e-05 -6.60688e-08
1.52866e-05 -1.26701e-05 5.42026e-07
-6.60688e-08 5.42026e-07 -5.90924e-05
0.000805684 2.30654e-05 1.17376e-06
2.30654e-05 0.000162722 9.75318e-07
1.17376e-06 9.75318e-07 6.17208e-05
0.000889181 -5.1429e-05 8.40711e-07
-5.1429e-05 0.000225037 1.30089e-06
8.40711e-07 1.30089e-06 8.19229e-05
0.00191181 -8.24653e-05 2.33239e-07
-8.24653e-05 3.09667e-05 -1.0652e-07
2.33239e-07 -1.0652e-07 5.48183e-06
0.000600843 1.76201e-05 9.85962e-07
1.76201e-05 1.74609e-06 1.17283e-07
9.85962e-07 1.17283e-07 -3.98024e-05
0.000545181 -3.54434e-05 -1.72776e-06
-3.54434e-05 -9.32154e-06 -4.22058e-08
-1.72776e-06 -4.22058e-08 -7.91092e-05
0.00195266 -0.000216514 -2.21226e-07
-0.000216514 4.53702e-05 2.28542e-07
-2.21226e-07 2.28542e-07 1.98684e-05
0.0018768 -0.00027011 -1.43931e-06
-0.00027011 5.10402e-05 2.39101e-07
-1.43931e-06 2.39101e-07 -1.29972e-05
0.000705573 -0.000259016 -4.27172e-07
-0.000259016 -7.48147e-05 1.89802e-06
-4.27172e-07 1.89802e-06 -0.000324521
0.0018358 -0.000464477 -1.78435e-07
-0.000464477 0.000439513 3.34534e-07
-1.78435e-07 3.34534e-07 0.000101952
0.00156792 -0.00043616 3.00422e-06
-0.00043616 0.000134935 -1.41957e-06
3.00422e-06 -1.41957e-06 -0.000124525
0.00203728 -0.000424706 2.43507e-06
-0.000424706 0.000150873 -9.31402e-07
2.43507e-06 -9.31402e-07 2.33376e-05
0.000718803 -1.23771e-05 8.82277e-07
-1.23771e-05 0.000113175 -1.11675e-06
8.82277e-07 -1.11675e-06 2.61171e-05
0.000728 -2.95357e-05 2.42104e-07
-2.95357e-05 0.000139145 1.26582e-06
2.42104e-07 1.26582e-06 7.12088e-06
0.000947541 -0.00023599 -3.57747e-06
-0.00023599 0.000115483 -1.24661e-06
-3.57747e-06 -1.24661e-06 -7.38383e-05
0.00155327 -0.000262999 1.37242e-05
-0.000262999 0.000619693 -3.52153e-06
1.37242e-05 -3.52153e-06 0.000371778
0.00047441 -8.54391e-05 -2.61615e-06
-8.54391e-05 -2.71292e-05 -9.2685e-08
-2.61615e-06 -9.2685e-08 -0.000205938
0.000678836 -2.78319e-05 5.32707e-07
-2.78319e-05 9.28249e-05 -8.00663e-07
5.32707e-07 -8.00663e-07 -5.72424e-05
0.00192715 -9.2695e-05 2.308e-06
-9.2695e-05 -2.65221e-05 -1.16522e-06
2.308e-06 -1.16522e-06 -4.43473e-05
0.00188155 -0.00024902 -5.99254e-07
-0.00024902 -4.75658e-05 -1.73542e-07
-5.99254e-07 -1.73542e-07 -1.39111e-05
0.00202718 -0.000379292 -3.08561e-06
-0.000379292 5.71783e-05 -2.55298e-06
-3.08561e-06 -2.55298e-06 -2.15019e-05
0.00158503 -0.000479012 1.76246e-06
-0.000479012 1.04337e-05 2.51307e-07
1.76246e-06 2.51307e-07 -0.000149241
0.000859572 -0.000243105 -9.40087e-06
-0.000243105 3.52372e-05 -7.89288e-06
-9.40087e-06 -7.89288e-06 -0.000214635
0.00251246 -0.000560532 -7.38167e-06
-0.000560532 0.00079551 7.05409e-06
-7.38167e-06 7.05409e-06 0.000433659
0.00040706 5.28563e-05 -1.08023e-06
5.28563e-05 -8.26058e-05 -2.16501e-06
-1.08023e-06 -2.16501e-06 -0.00015717
0.000659642 -5.7745e-05 3.04755e-06
-5.7745e-05 6.01021e-05 -7.95286e-07
3.04755e-06 -7.95286e-07 -1.14546e-05
0.000927713 -8.51372e-05 1.51148e-06
-8.51372e-05 0.000230495 1.41305e-06
1.51148e-06 1.41305e-06 0.000133854
0.000431824 1.68775e-05 -1.55024e-06
1.68775e-05 -4.21316e-05 2.43235e-06
-1.55024e-06 2.43235e-06 -0.000163944
0.000943931 -6.65425e-05 -1.50394e-06
-6.65425e-05 0.000250769 2.24985e-06
-1.50394e-06 2.24985e-06 0.000119422
0.00102133 -4.73899e-05 2.15284e-06
-4.73899e-05 0.000250499 1.09576e-06
2.15284e-06 1.09576e-06 8.84209e-05
-0.000484109 -9.52286e-05 6.13862e-06
-9.52286e-05 -0.000428346 7.7871e-07
6.13862e-06 7.7871e-07 -0.000753967
2.8267e-05 -0.000233917 -1.94199e-05
-0.000233917 -0.000406725 2.73644e-06
-1.94199e-05 2.73644e-06 -0.000590615
0.000406767 4.77367e-05 7.92532e-08
4.77367e-05 -6.39857e-05 -1.00574e-06
7.92532e-08 -1.00574e-06 -0.00017144
0.000823222 0.000134598 -3.88421e-06
0.000134598 0.000212583 -2.9167e-06
-3.88421e-06 -2.9167e-06 4.42173e-05
0.0020982 0.00029027 -3.20814e-06
0.00029027 0.000102542 -1.22101e-06
-3.20814e-06 -1.22101e-06 4.15515e-05
0.00192832 0.000361235 -6.35119e-07
0.000361235 0.000180431 1.72228e-06
-6.35119e-07 1.72228e-06 2.8902e-05
0.00179414 0.000227311 -7.09468e-06
0.000227311 0.000688166 -2.17042e-06
-7.09468e-06 -2.17042e-06 0.000508781
0.00132405 0.000278367 -3.44132e-06
0.000278367 0.000360264 -8.98146e-06
-3.44132e-06 -8.98146e-06 0.000125983
0.00181673 0.000417763 8.76779e-07
0.000417763 0.000240257 1.70454e-06
8.76779e-07 1.70454e-06 8.20159e-06
0.00178417 0.000386697 -3.29751e-07
0.000386697 0.000431165 -1.06665e-06
-3.29751e-07 -1.06665e-06 0.000149212
0.000582527 6.19378e-05 7.86588e-07
6.19378e-05 3.85782e-05 -9.18968e-07
7.86588e-07 -9.18968e-07 -7.35892e-05
0.002013 0.00022846 -7.37994e-07
0.00022846 8.03284e-06 -5.71935e-07
-7.37994e-07 -5.71935e-07 -2.5059e-06
0.00100577 0.000189756 9.28186e-07
0.000189756 0.000309617 1.54077e-06
9.28186e-07 1.54077e-06 0.000113827
0.000984697 0.000258644 1.21137e-06
0.000258644 0.000124923 2.12403e-07
1.21137e-06 2.12403e-07 -0.000110646
0.00228165 0.000353806 3.09965e-06
0.000353806 0.000276531 6.33742e-07
3.09965e-06 6.33742e-07 0.000178596
0.00149246 0.000419584 -9.0098e-07
0.000419584 -2.26366e-05 -3.41656e-06
-9.0098e-07 -3.41656e-06 -0.000238223
0.00199727 0.000434282 2.59983e-08
0.000434282 0.00049968 3.61339e-07
2.59983e-08 3.61339e-07 0.000208525
0.00116997 0.000141554 -3.81832e-06
0.000141554 0.000405639 3.12888e-06
-3.81832e-06 3.12888e-06 0.000253124
0.00245623 0.000259151 -4.36178e-05
0.000259151 0.000317622 -1.10266e-05
-4.36178e-05 -1.10266e-05 0.000332141
0.00233623 0.000382277 -5.98193e-06
0.000382277 0.00101615 4.16016e-07
-5.98193e-06 4.16016e-07 0.000787122
0.00221377 0.000408935 -7.29418e-06
0.000408935 0.000742743 -3.71343e-07
-7.29418e-06 -3.71343e-07 0.000476327
0.00190441 0.000467778 -2.09731e-05
0.000467778 9.51922e-05 -1.26518e-05
-2.09731e-05 -1.26518e-05 -4.9801e-05
0.00100422 0.000379259 -1.51498e-05
0.000379259 -0.000113513 -8.9467e-07
-1.51498e-05 -8.9467e-07 -0.000382122
0.000678044 0.000331754 2.82175e-05
0.000331754 -0.000617209 -1.92156e-05
2.82175e-05 -1.92156e-05 -0.000846114
0.000507689 5.60144e-05 9.07642e-07
5.60144e-05 -1.13807e-05 -4.31726e-07
9.07642e-07 -4.31726e-07 -0.000105377
0.000654017 3.61648e-05 -1.59377e-07
3.61648e-05 8.4519e-05 9.11442e-07
-1.59377e-07 9.11442e-07 -3.45648e-06
0.00136957 6.5831e-05 2.56671e-07
6.5831e-05 0.000490542 -3.05226e-07
2.56671e-07 -3.05226e-07 0.000399599
0.000607892 -5.96009e-05 1.84409e-07
-5.96009e-05 4.70476e-05 -2.39846e-06
1.84409e-07 -2.39846e-06 -4.2817e-05
0.000550604 -4.15376e-05 -1.08073e-06
-4.15376e-05 1.29878e-05 -5.65536e-08
-1.08073e-06 -5.65536e-08 -9.096e-05
0.000919115 0.000124206 -1.52756e-07
0.000124206 0.000237577 7.26795e-07
-1.52756e-07 7.26795e-07 0.000119401
0.00040519 -1.39467e-05 -1.42006e-06
-1.39467e-05 -7.53315e-05 3.2786e-06
-1.42006e-06 3.2786e-06 -0.000165294
0.000633426 -2.28646e-05 -1.31517e-07
-2.28646e-05 6.07973e-05 -4.01049e-08
-1.31517e-07 -4.01049e-08 -3.07967e-05
0.000631511 4.02051e-05 -9.62852e-08
4.02051e-05 5.32708e-05 -3.95819e-07
-9.62852e-08 -3.95819e-07 -5.28134e-05
0.000877897 3.28034e-05 -1.27928e-06
3.28034e-05 0.000179065 1.38942e-07
-1.27928e-06 1.38942e-07 9.82512e-05
0.000751229 1.96993e-05 4.37683e-07
1.96993e-05 0.000125713 -7.729e-08
4.37683e-07 -7.729e-08 1.3679e-05
0.000768167 -1.66765e-06 -7.01721e-08
-1.66765e-06 0.000126582 -2.84028e-07
-7.01721e-08 -2.84028e-07 2.863e-05
0.000886123 3.09804e-05 -5.10424e-07
3.09804e-05 0.000183184 -2.95872e-06
-5.10424e-07 -2.95872e-06 9.90676e-05
0.000803994 3.70725e-05 -1.49256e-06
3.70725e-05 0.000144517 -2.27694e-06
-1.49256e-06 -2.27694e-06 3.09415e-05
0.000809347 7.2239e-05 4.70971e-07
7.2239e-05 0.00015173 3.28313e-07
4.70971e-07 3.28313e-07 4.23893e-05
0.000689739 4.20942e-05 2.85612e-07
4.20942e-05 0.000101112 1.20908e-06
2.85612e-07 1.20908e-06 -2.13719e-05
0.000478033 -2.03537e-05 -1.72365e-07
-2.03537e-05 -4.56595e-05 2.07378e-06
-1.72365e-07 2.07378e-06 -0.000133256
0.000884661 -2.75072e-05 1.02274e-07
-2.75072e-05 0.000234296 -1.00352e-06
1.02274e-07 -1.00352e-06 0.000110893
0.000419614 -1.26122e-05 -8.37524e-07
-1.26122e-05 -7.63791e-05 2.26608e-06
-8.37524e-07 2.26608e-06 -0.000168001
0.000556325 6.49948e-06 -1.16607e-06
6.49948e-06 -7.3814e-06 1.98217e-06
-1.16607e-06 1.98217e-06 -6.28232e-05
0.000572926 2.07225e-05 1.21594e-06
2.07225e-05 1.38341e-06 -1.08875e-08
1.21594e-06 -1.08875e-08 -5.30669e-05
0.000543267 3.9348e-06 3.36022e-07
3.9348e-06 -4.68486e-05 3.73679e-06
3.36022e-07 3.73679e-06 -6.24814e-05
0.000582631 -1.01849e-06 -1.5653e-06
-1.01849e-06 4.89069e-06 -2.25347e-06
-1.5653e-06 -2.25347e-06 -4.85025e-05
0.000938355 -2.26875e-06 -1.9464e-06
-2.26875e-06 0.000187422 -1.65023e-06
-1.9464e-06 -1.65023e-06 0.000174328
0.00236495 -1.321e-05 7.93764e-06
-1.321e-05 0.00103631 5.1902e-06
7.93764e-06 5.1902e-06 0.00105202
0.00135803 -1.15293e-05 -3.02628e-06
-1.15293e-05 0.000436269 -5.51055e-06
-3.02628e-06 -5.51055e-06 0.000425585
0.000818405 -1.67437e-05 2.05073e-06
-1.67437e-05 0.000115451 3.21608e-06
2.05073e-06 3.21608e-06 0.00012336
0.000781498 -2.35606e-05 -2.95161e-07
-2.35606e-05 9.43243e-05 -2.14524e-06
-2.95161e-07 -2.14524e-06 0.000101756
0.000613671 8.03723e-06 -4.8383e-07
8.03723e-06 8.78524e-06 -1.46203e-06
-4.8383e-07 -1.46203e-06 -2.95984e-05
0.000628211 -3.65065e-06 1.00335e-06
-3.65065e-06 1.58025e-05 -1.10787e-07
1.00335e-06 -1.10787e-07 -2.39592e-05
0.000577309 2.15673e-05 3.60637e-07
2.15673e-05 -3.02948e-05 -3.37288e-06
3.60637e-07 -3.37288e-06 -3.94404e-05
0.000884053 3.439e-05 -3.7289e-07
3.439e-05 0.000156754 4.84241e-08
-3.7289e-07 4.84241e-08 0.000146844
0.00211678 5.41823e-05 1.44767e-05
5.41823e-05 0.000899533 -4.18249e-06
1.44767e-05 -4.18249e-06 0.000913905
0.00056543 4.0143e-05 6.14579e-07
4.0143e-05 -2.4979e-05 3.74694e-06
6.14579e-07 3.74694e-06 -4.09859e-05
0.00221199 7.07717e-05 -2.88598e-06
7.07717e-05 0.000964083 -1.86103e-07
-2.88598e-06 -1.86103e-07 0.000974972
0.00242956 8.97207e-05 -2.16659e-05
8.97207e-05 0.00110212 3.96254e-06
-2.16659e-05 3.96254e-06 0.00110827
0.0019319 0.000223663 -4.54167e-06
0.000223663 3.67611e-05 -1.51053e-06
-4.54167e-06 -1.51053e-06 -2.00797e-05
0.00190255 7.98342e-05 -2.20524e-06
7.98342e-05 2.21671e-05 4.39544e-07
-2.20524e-06 4.39544e-07 -2.47426e-06
0.00184776 -4.18356e-06 -3.78215e-06
-4.18356e-06 5.19148e-05 6.04109e-08
-3.78215e-06 6.04109e-08 1.50715e-05
0.0019156 -1.23757e-07 1.10477e-07
-1.23757e-07 2.0598e-05 -1.52462e-07
1.10477e-07 -1.52462e-07 1.06163e-05
0.00198865 0.000126008 2.41791e-07
0.000126008 2.23398e-05 1.14786e-07
2.41791e-07 1.14786e-07 3.398e-06
0.00189657 6.32819e-05 4.51225e-06
6.32819e-05 -3.69934e-06 8.73125e-08
4.51225e-06 8.73125e-08 2.08936e-05
0.00197046 6.66468e-06 -7.5064e-07
6.66468e-06 -1.89869e-05 -1.18669e-06
-7.5064e-07 -1.18669e-06 -7.14634e-06
0.00287788 0.000313417 3.34001e-05
0.000313417 -0.0002994 6.28249e-06
3.34001e-05 6.28249e-06 -0.000138096
0.00219326 3.88151e-05 -2.88275e-05
3.88151e-05 0.000319746 1.04628e-05
-2.88275e-05 1.04628e-05 0.000387093
0.000603084 8.00249e-05 -8.79698e-07
8.00249e-05 3.65204e-05 -4.35619e-07
-8.79698e-07 -4.35619e-07 -3.52772e-05
0.00192297 -8.44181e-05 -2.07568e-06
-8.44181e-05 3.20085e-05 2.18916e-08
-2.07568e-06 2.18916e-08 9.66417e-06
0.00191409 -0.000207241 -6.60632e-07
-0.000207241 4.03503e-05 7.48272e-07
-6.60632e-07 7.48272e-07 8.44143e-06
0.00183843 -0.00027169 2.03725e-07
-0.00027169 2.58353e-05 1.96629e-06
2.03725e-07 1.96629e-06 -3.85861e-05
0.000584889 -0.000244552 5.84316e-07
-0.000244552 -0.000137645 8.48949e-06
5.84316e-07 8.48949e-06 -0.000379282
0.00187546 -0.000466284 2.90241e-06
-0.000466284 0.000470232 4.70419e-06
2.90241e-06 4.70419e-06 0.000129061
0.00143601 -0.000431883 6.36663e-07
-0.000431883 3.60288e-05 -7.94904e-06
6.36663e-07 -7.94904e-06 -0.000219249
0.00224695 -0.00043648 -3.15689e-06
-0.00043648 0.000280326 -1.41387e-06
-3.15689e-06 -1.41387e-06 0.000148455
0.00176547 -0.000290063 1.50984e-05
-0.000290063 0.000580575 -4.89083e-07
1.50984e-05 -4.89083e-07 0.00037996
0.000420718 -0.000167036 1.0697e-05
-0.000167036 -4.52852e-05 -4.85548e-06
1.0697e-05 -4.85548e-06 -0.000246637
0.00101178 -0.000112512 1.06641e-06
-0.000112512 0.000283246 -2.34944e-06
1.06641e-06 -2.34944e-06 0.000104276
0.000602564 4.4889e-06 -8.07072e-07
4.4889e-06 2.07207e-06 1.49639e-06
-8.07072e-07 1.49639e-06 -3.85149e-05
0.000841557 -1.74054e-05 1.80175e-06
-1.74054e-05 0.000198982 -1.14262e-06
1.80175e-06 -1.14262e-06 4.35529e-05
0.000918221 -3.96097e-05 1.92526e-06
-3.96097e-05 0.000238075 -4.5127e-07
1.92526e-06 -4.5127e-07 0.000149643
0.000835836 -2.45465e-05 7.50576e-07
-2.45465e-05 0.000199571 -6.94017e-07
7.50576e-07 -6.94017e-07 6.63529e-05
0.000395736 -2.55875e-05 -1.97547e-06
-2.55875e-05 -0.000103994 8.38239e-07
-1.97547e-06 8.38239e-07 -0.000170445
0.0019541 -0.000106422 -2.63759e-07
-0.000106422 -3.19057e-05 6.64495e-08
-2.63759e-07 6.64495e-08 -3.69831e-05
0.000503033 3.58795e-05 3.58679e-08
3.58795e-05 -2.05482e-05 -1.27097e-06
3.58679e-08 -1.27097e-06 -9.73848e-05
0.000650634 -5.37506e-05 7.82273e-07
-5.37506e-05 6.24388e-05 4.37672e-07
7.82273e-07 4.37672e-07 -1.33984e-05
0.000785074 -5.47116e-05 -1.22521e-07
-5.47116e-05 0.000145236 7.69024e-07
-1.22521e-07 7.69024e-07 4.92871e-05
0.00190533 -0.000252135 1.18136e-06
-0.000252135 -2.42323e-05 -1.67869e-07
1.18136e-06 -1.67869e-07 -2.80156e-06
0.00204948 -0.000378655 -4.79494e-07
-0.000378655 8.05464e-05 -3.97075e-07
-4.79494e-07 -3.97075e-07 2.29611e-08
0.00128902 -0.000298231 6.18728e-06
-0.000298231 0.000263798 -1.42258e-07
6.18728e-06 -1.42258e-07 1.4061e-05
0.00202984 -0.000517465 5.67556e-06
-0.000517465 0.000539215 2.17873e-07
5.67556e-06 2.17873e-07 0.000188782
0.00184103 -0.000492846 -7.91847e-07
-0.000492846 0.000170361 1.44343e-06
-7.91847e-07 1.44343e-06 1.79721e-06
0.000489799 -1.09686e-05 -4.88536e-07
-1.09686e-05 -4.2589e-06 -1.65032e-07
-4.88536e-07 -1.65032e-07 -0.000123808
0.000822361 -7.52801e-05 -1.55226e-06
-7.52801e-05 0.00018582 5.2133e-07
-1.55226e-06 5.2133e-07 4.48737e-05
0.000628591 -0.000283132 -6.33612e-06
-0.000283132 -4.79274e-05 -1.6906e-07
-6.33612e-06 -1.6906e-07 -0.00026858
0.000545426 -0.000108507 -1.65085e-07
-0.000108507 9.80198e-05 -1.29966e-06
-1.65085e-07 -1.29966e-06 -0.000176639
0.00072125 -7.07431e-05 -8.80062e-08
-7.07431e-05 7.86862e-05 -1.35339e-07
-8.80062e-08 -1.35339e-07 -7.91928e-05
0.00238212 -0.000219214 -2.78678e-06
-0.000219214 0.000198301 -1.60685e-06
-2.78678e-06 -1.60685e-06 0.000202832
0.00176858 -0.000266165 -1.09911e-05
-0.000266165 -0.000140387 1.46298e-06
-1.09911e-05 1.46298e-06 -9.15378e-05
0.00248505 -0.00053194 -7.86065e-06
-0.00053194 0.000352486 -4.07034e-06
-7.86065e-06 -4.07034e-06 0.000210022
0.00278946 -0.000606703 -2.00165e-05
-0.000606703 0.000808728 2.94262e-06
-2.00165e-05 2.94262e-06 0.000574924
0.0013266 -0.000330872 -1.56547e-05
-0.000330872 0.000336092 -2.5911e-06
-1.56547e-05 -2.5911e-06 7.22548e-05
0.000443243 5.22319e-06 1.32118e-06
5.22319e-06 -5.33974e-05 -5.13533e-07
1.32118e-06 -5.13533e-07 -0.000149213
0.000493993 4.48359e-05 5.23928e-07
4.48359e-05 -3.32397e-05 7.7148e-07
5.23928e-07 7.7148e-07 -0.000132981
0.000430626 -9.06097e-07 1.32318e-07
-9.06097e-07 -6.06457e-05 -8.80363e-07
1.32318e-07 -8.80363e-07 -0.000166506
0.00133134 -0.000153942 -2.2513e-06
-0.000153942 0.000503296 4.78198e-06
-2.2513e-06 4.78198e-06 0.000364018
0.000427162 -5.53864e-05 -6.89782e-07
-5.53864e-05 -7.03549e-05 5.92844e-06
-6.89782e-07 5.92844e-06 -0.000202832
-5.16092e-05 -7.7716e-05 1.99905e-06
-7.7716e-05 -0.000194543 4.01572e-06
1.99905e-06 4.01572e-06 -0.000492559
0.000155015 -0.000328534 4.38603e-06
-0.000328534 -0.000117211 -6.74322e-07
4.38603e-06 -6.74322e-07 -0.000471352
0.000749871 9.93206e-05 1.31272e-06
9.93206e-05 0.000151124 -4.37667e-06
1.31272e-06 -4.37667e-06 2.48709e-05
0.000209751 8.93129e-05 4.53319e-08
8.93129e-05 -0.000166013 -1.46934e-06
4.53319e-08 -1.46934e-06 -0.000339838
0.0021145 0.00021599 7.42071e-06
0.00021599 5.41611e-05 2.11693e-08
7.42071e-06 2.11693e-08 5.35851e-05
0.00199124 0.000341783 1.32078e-05
0.000341783 0.000119071 3.44377e-06
1.32078e-05 3.44377e-06 2.46115e-05
0.002026 0.000455371 1.00558e-05
0.000455371 0.00027349 3.58714e-06
1.00558e-05 3.58714e-06 5.72777e-05
0.000802105 0.000243885 8.09922e-07
0.000243885 2.55883e-05 -7.66043e-07
8.09922e-07 -7.66043e-07 -0.000209974
0.00196661 0.000430626 1.79857e-06
0.000430626 0.000493518 1.06461e-06
1.79857e-06 1.06461e-06 0.00020326
0.00136001 0.000121167 -7.04511e-08
0.000121167 0.000500126 3.56148e-07
-7.04511e-08 3.56148e-07 0.000359038
0.00221604 0.000223692 -2.51452e-06
0.000223692 0.000206594 4.96609e-07
-2.51452e-06 4.96609e-07 0.000228938
0.00151901 0.000282092 -1.78339e-06
0.000282092 0.00053769 5.58327e-07
-1.78339e-06 5.58327e-07 0.000330805
0.00152756 0.000345311 -2.47081e-07
0.000345311 0.000379335 1.2338e-06
-2.47081e-07 1.2338e-06 0.000112312
0.00194129 0.000456464 -1.64999e-06
0.000456464 0.00011476 -3.00157e-06
-1.64999e-06 -3.00157e-06 -1.99984e-05
0.0016543 0.00043888 -3.0225e-06
0.00043888 0.000250013 4.98424e-06
-3.0225e-06 4.98424e-06 -3.14298e-05
0.00205892 0.000439481 3.35795e-05
0.000439481 -0.000164374 3.98553e-06
3.35795e-05 3.98553e-06 -0.000474286
0.0011562 0.000192113 -5.21991e-06
0.000192113 0.000407577 -7.81671e-07
-5.21991e-06 -7.81671e-07 0.000240478
0.00229792 0.000365234 -5.10988e-05
0.000365234 0.000344963 -2.55818e-05
-5.10988e-05 -2.55818e-05 0.000328314
0.00123148 0.000276903 -5.32073e-06
0.000276903 0.000305509 -9.90422e-07
-5.32073e-06 -9.90422e-07 0.00010681
0.00060012 0.000289121 -1.55674e-06
0.000289121 -0.000178483 -4.00939e-06
-1.55674e-06 -4.00939e-06 -0.000444332
0.000139554 0.000405703 -1.62559e-05
0.000405703 -0.00070895 -5.84215e-06
-1.62559e-05 -5.84215e-06 -0.000900955
0.0105108 0.000367198 -0.000196202
0.000367198 0.00229678 -4.10695e-05
-0.000196202 -4.10695e-05 0.00141602
0.00575123 0.000817472 0.000129277
0.000817472 0.000753883 -2.3329e-05
0.000129277 -2.3329e-05 0.00043206
0.000825604 0.000570656 1.85273e-05
0.000570656 -0.000387467 1.06124e-05
1.85273e-05 1.06124e-05 -0.000612266
-0.00461788 -0.000779449 0.000393186
-0.000779449 -0.00103392 3.82452e-05
0.000393186 3.82452e-05 -0.00239798
0.00868937 -0.00252825 -2.41078e-05
-0.00252825 0.00189506 1.25579e-05
-2.41078e-05 1.25579e-05 0.0032401
0.00046789 4.45115e-05 3.45026e-06
4.45115e-05 -1.45932e-05 8.71093e-07
3.45026e-06 8.71093e-07 -0.000104606
0.000843956 4.04146e-05 1.28324e-06
4.04146e-05 0.000202307 -5.56586e-07
1.28324e-06 -5.56586e-07 0.000111649
0.000974452 9.45577e-05 -2.62993e-06
9.45577e-05 0.000275073 -1.22459e-06
-2.62993e-06 -1.22459e-06 0.000172302
0.000616973 -6.02066e-05 -7.36593e-08
-6.02066e-05 5.8822e-05 -1.82315e-06
-7.36593e-08 -1.82315e-06 -3.75625e-05
0.000613457 5.80206e-05 -1.1295e-06
5.80206e-05 4.62018e-05 -1.48438e-06
-1.1295e-06 -1.48438e-06 -6.38158e-05
0.000756626 -2.97732e-05 3.50565e-07
-2.97732e-05 0.000131031 -2.92692e-07
3.50565e-07 -2.92692e-07 1.84124e-05
0.000842858 2.2822e-05 -1.36589e-06
2.2822e-05 0.000166803 2.73944e-06
-1.36589e-06 2.73944e-06 6.70474e-05
0.00057868 2.213e-05 -1.61788e-06
2.213e-05 6.98324e-06 2.25911e-06
-1.61788e-06 2.25911e-06 -7.43617e-05
0.000760585 7.79829e-05 -1.51527e-06
7.79829e-05 0.000136665 -5.09462e-07
-1.51527e-06 -5.09462e-07 1.70976e-05
0.000554874 -8.83217e-06 2.22309e-08
-8.83217e-06 5.93265e-06 7.37795e-07
2.22309e-08 7.37795e-07 -8.46288e-05
0.000670312 2.2387e-05 9.73341e-08
2.2387e-05 8.64658e-05 9.06365e-08
9.73341e-08 9.06365e-08 -3.29739e-05
0.000723189 3.14656e-05 8.93646e-07
3.14656e-05 8.74749e-05 -3.09297e-07
8.93646e-07 -3.09297e-07 2.48116e-06
0.000814314 4.39778e-05 -5.9973e-07
4.39778e-05 0.000150148 -7.77148e-08
-5.9973e-07 -7.77148e-08 4.10422e-05
0.00102719 8.94735e-05 -1.27816e-06
8.94735e-05 0.00027911 -1.30553e-06
-1.27816e-06 -1.30553e-06 0.000166911
0.000380892 4.38244e-05 5.56956e-08
4.38244e-05 -9.34875e-05 -2.96408e-06
5.56956e-08 -2.96408e-06 -0.000190851
0.000831304 8.0458e-05 1.69206e-06
8.0458e-05 0.000163591 4.76988e-07
1.69206e-06 4.76988e-07 4.91508e-05
0.000581377 -1.99188e-05 1.19742e-06
-1.99188e-05 2.08649e-05 2.22116e-08
1.19742e-06 2.22116e-08 -9.15154e-05
0.000469071 -5.26909e-05 -1.24302e-06
-5.26909e-05 -4.54816e-05 1.79201e-06
-1.24302e-06 1.79201e-06 -0.000139596
0.000778632 -4.5412e-06 -9.05839e-07
-4.5412e-06 0.000147699 -2.35052e-08
-9.05839e-07 -2.35052e-08 3.14649e-05
0.000790614 3.40059e-05 -3.54521e-08
3.40059e-05 0.000156116 -2.73548e-06
-3.54521e-08 -2.73548e-06 4.49151e-05
0.000667495 -2.17209e-05 -8.73497e-07
-2.17209e-05 9.13861e-05 -1.55454e-07
-8.73497e-07 -1.55454e-07 -1.78048e-05
0.000794783 -2.27437e-05 1.14408e-06
-2.27437e-05 0.000163339 -5.7215e-07
1.14408e-06 -5.7215e-07 5.0794e-05
0.000676086 -8.3587e-05 -2.37254e-06
-8.3587e-05 7.55616e-05 1.38986e-06
-2.37254e-06 1.38986e-06 -1.35165e-05
0.000470419 -1.04007e-05 1.08372e-07
-1.04007e-05 -4.42749e-05 8.06096e-07
1.08372e-07 8.06096e-07 -0.000138038
0.000594504 -1.80024e-05 -1.40195e-06
-1.80024e-05 8.35559e-06 2.3195e-06
-1.40195e-06 2.3195e-06 -4.47009e-05
0.00058591 -1.72994e-05 1.00821e-06
-1.72994e-05 8.71001e-06 -6.31279e-09
1.00821e-06 -6.31279e-09 -4.61127e-05
0.000582198 6.00842e-06 -2.1329e-07
6.00842e-06 -2.27027e-05 5.4444e-06
-2.1329e-07 5.4444e-06 -3.89443e-05
0.000585708 1.76956e-05 -8.66647e-07
1.76956e-05 6.98227e-06 -2.07976e-06
-8.66647e-07 -2.07976e-06 -4.60893e-05
0.000554597 3.47674e-06 3.83237e-07
3.47674e-06 -3.98526e-05 -7.44896e-09
3.83237e-07 -7.44896e-09 -5.55899e-05
0.00236137 -1.67628e-06 -7.16048e-07
-1.67628e-06 0.00103387 5.26724e-06
-7.16048e-07 5.26724e-06 0.00104956
0.00059581 3.60889e-08 -6.52423e-07
3.60889e-08 -1.62943e-05 -5.61102e-06
-6.52423e-07 -5.61102e-06 -3.17619e-05
0.00159402 -9.87462e-06 -7.81082e-09
-9.87462e-06 0.000576399 8.29737e-08
-7.81082e-09 8.29737e-08 0.000588093
0.000780107 -1.48866e-05 1.59681e-07
-1.48866e-05 9.10822e-05 -2.09955e-06
1.59681e-07 -2.09955e-06 9.93493e-05
0.000608695 -1.01564e-05 8.86125e-07
-1.01564e-05 8.26507e-06 -1.39821e-06
8.86125e-07 -1.39821e-06 -2.89845e-05
0.000627344 -1.76564e-05 4.19915e-07
-1.76564e-05 1.70981e-05 -4.20627e-08
4.19915e-07 -4.20627e-08 -2.18194e-05
0.000593042 1.41863e-05 4.04813e-07
1.41863e-05 -2.32628e-05 -3.15522e-06
4.04813e-07 -3.15522e-06 -3.06689e-05
0.000606717 -1.36975e-05 -1.42576e-06
-1.36975e-05 2.10631e-06 1.31554e-06
-1.42576e-06 1.31554e-06 -3.71398e-05
0.000866072 2.53013e-05 -6.36356e-08
2.53013e-05 0.000141833 -7.13713e-07
-6.36356e-08 -7.13713e-07 0.000134606
0.00205197 4.02313e-05 1.09917e-05
4.02313e-05 0.000856039 -4.30808e-06
1.09917e-05 -4.30808e-06 0.000872736
0.000563327 3.01932e-05 -4.25215e-07
3.01932e-05 -3.41031e-05 3.42372e-06
-4.25215e-07 3.42372e-06 -4.60621e-05
0.00217676 5.62137e-05 -7.21887e-06
5.62137e-05 0.000937345 1.12151e-06
-7.21887e-06 1.12151e-06 0.000951051
0.00227586 7.38191e-05 -1.68512e-05
7.38191e-05 0.00100314 4.04468e-06
-1.68512e-05 4.04468e-06 0.00101324
0.00195822 0.000125703 -2.71116e-06
0.000125703 2.05353e-05 -6.11334e-08
-2.71116e-06 -6.11334e-08 -3.16236e-08
0.00191326 -4.79485e-07 -1.84565e-06
-4.79485e-07 2.23236e-05 2.52851e-07
-1.84565e-06 2.52851e-07 1.22087e-05
0.00159416 5.24631e-05 1.00777e-05
5.24631e-05 -0.000188497 -8.92219e-07
1.00777e-05 -8.92219e-07 -0.000170503
0.0023222 0.000228266 3.71097e-05
0.000228266 -0.000423242 8.0073e-06
3.71097e-05 8.0073e-06 -0.000331809
0.00194348 -6.63026e-06 -2.4471e-06
-6.63026e-06 -2.44613e-05 -3.0548e-07
-2.4471e-06 -3.0548e-07 -1.21403e-05
0.00191038 4.89295e-05 3.82839e-06
4.89295e-05 0.000161613 -1.67813e-06
3.82839e-06 -1.67813e-06 0.000213995
0.00278933 -1.45864e-05 -2.6631e-05
-1.45864e-05 0.000684941 3.17303e-06
-2.6631e-05 3.17303e-06 0.000663213
0.00202133 -3.56967e-05 6.2369e-05
-3.56967e-05 -0.00123572 -1.691e-05
6.2369e-05 -1.691e-05 -0.00112037
0.0025746 7.70139e-05 2.75902e-05
7.70139e-05 -2.31661e-06 1.5556e-05
2.75902e-05 1.5556e-05 0.00011623
0.000633313 6.88825e-05 5.31564e-08
6.88825e-05 5.76702e-05 -6.5164e-07
5.31564e-08 -6.5164e-07 -1.73986e-05
0.000658434 -8.99541e-06 5.94395e-07
-8.99541e-06 7.39679e-05 -2.06749e-07
5.94395e-07 -2.06749e-07 -2.56119e-06
0.000635649 -9.26648e-05 -4.90518e-07
-9.26648e-05 6.05561e-05 9.46529e-07
-4.90518e-07 9.46529e-07 -3.06918e-05
0.000630821 -3.92053e-05 -9.58279e-07
-3.92053e-05 7.82849e-05 1.18167e-06
-9.58279e-07 1.18167e-06 -2.44101e-05
0.00199072 -0.000118212 -4.15709e-06
-0.000118212 -3.13985e-05 8.39251e-07
-4.15709e-06 8.39251e-07 -2.24588e-05
0.0019155 -0.000250441 8.95862e-07
-0.000250441 -5.3108e-06 2.17889e-07
8.95862e-07 2.17889e-07 6.65331e-06
0.00205538 -0.000374742 -2.99749e-06
-0.000374742 9.42573e-05 2.76835e-06
-2.99749e-06 2.76835e-06 1.34815e-05
0.00224288 -0.000410018 7.89435e-06
-0.000410018 0.000787875 4.35217e-06
7.89435e-06 4.35217e-06 0.000529552
0.00113322 -0.000439916 9.67387e-06
-0.000439916 5.43171e-05 -4.19582e-06
9.67387e-06 -4.19582e-06 -0.000282919
0.00224228 -0.000518151 5.09561e-06
-0.000518151 0.000405641 -3.91771e-06
5.09561e-06 -3.91771e-06 0.000228475
0.00100041 -0.000301147 -5.05428e-06
-0.000301147 0.000183132 2.75494e-06
-5.05428e-06 2.75494e-06 -6.55854e-05
0.00182916 -0.000142199 4.19459e-07
-0.000142199 0.000774922 -6.56888e-07
4.19459e-07 -6.56888e-07 0.000546249
0.000341069 -8.27207e-05 -7.53951e-07
-8.27207e-05 -0.000143978 -1.43822e-06
-7.53951e-07 -1.43822e-06 -0.00029495
0.000684764 -3.73573e-05 -2.78391e-07
-3.73573e-05 8.07977e-05 1.13761e-06
-2.78391e-07 1.13761e-06 6.73105e-06
0.000656873 -8.58589e-05 2.68016e-07
-8.58589e-05 9.74204e-05 -2.35622e-06
2.68016e-07 -2.35622e-06 -5.26554e-05
0.000797705 -5.88373e-06 6.65631e-07
-5.88373e-06 0.000178148 -7.11691e-07
6.65631e-07 -7.11691e-07 5.88543e-05
0.00065237 8.5334e-06 2.39407e-07
8.5334e-06 7.39801e-05 1.74892e-08
2.39407e-07 1.74892e-08 -5.73833e-06
0.000559685 7.05449e-06 -2.82198e-06
7.05449e-06 1.2619e-05 2.37681e-06
-2.82198e-06 2.37681e-06 -8.22703e-05
0.00226471 -0.00019932 1.12131e-06
-0.00019932 0.000141567 5.74654e-07
1.12131e-06 5.74654e-07 0.000158696
0.000660466 -1.16383e-05 1.15199e-06
-1.16383e-05 8.3964e-05 -3.56392e-07
1.15199e-06 -3.56392e-07 -1.7288e-05
0.000694507 8.30015e-06 2.36398e-06
8.30015e-06 9.36877e-05 -1.41453e-07
2.36398e-06 -1.41453e-07 -8.99345e-06
0.000427325 4.25134e-05 1.717e-07
4.25134e-05 -5.84567e-05 1.48104e-06
1.717e-07 1.48104e-06 -0.000155337
0.00176396 -0.000269705 -9.2228e-07
-0.000269705 -0.000165935 -1.75265e-06
-9.2228e-07 -1.75265e-06 -0.000122649
0.00201016 -0.000492797 1.32281e-06
-0.000492797 0.000107446 -4.00238e-07
1.32281e-06 -4.00238e-07 -2.41723e-05
0.00153254 -0.000387557 -9.2641e-07
-0.000387557 0.000439401 -3.40116e-07
-9.2641e-07 -3.40116e-07 0.000165667
0.00217243 -0.000559531 -5.35894e-06
-0.000559531 0.000480485 2.13727e-06
-5.35894e-06 2.13727e-06 0.000249658
0.00107231 -7.27495e-05 -9.93263e-07
-7.27495e-05 0.000332747 5.24722e-07
-9.93263e-07 5.24722e-07 0.000201004
0.000519446 -7.57752e-05 -1.58116e-07
-7.57752e-05 -1.56829e-05 9.19879e-07
-1.58116e-07 9.19879e-07 -0.00015693
0.000999579 -0.000379027 3.36741e-06
-0.000379027 0.000359682 -1.29959e-06
3.36741e-06 -1.29959e-06 -5.60424e-06
0.00114841 -0.000182227 3.91272e-07
-0.000182227 0.000433654 -2.66026e-07
3.91272e-07 -2.66026e-07 0.000155238
0.0024161 -0.000233489 -2.19581e-05
-0.000233489 0.000151762 3.40971e-07
-2.19581e-05 3.40971e-07 0.00024762
0.00233768 -0.000405596 -2.39625e-05
-0.000405596 0.000174566 5.15413e-06
-2.39625e-05 5.15413e-06 0.000185897
0.002819 -0.000647349 -1.14443e-05
-0.000647349 0.000630177 -6.8623e-06
-1.14443e-05 -6.8623e-06 0.00042202
0.00162935 -0.00047741 -4.67326e-06
-0.00047741 0.000381041 4.06438e-06
-4.67326e-06 4.06438e-06 0.000161292
0.000558181 -3.38995e-06 -1.4638e-06
-3.38995e-06 4.02021e-05 -2.04485e-06
-1.4638e-06 -2.04485e-06 -8.16532e-05
0.000543301 -7.38464e-05 -5.75022e-07
-7.38464e-05 2.11681e-05 -4.3192e-06
-5.75022e-07 -4.3192e-06 -0.000107703
0.000492547 -0.000111864 -2.00107e-06
-0.000111864 7.10683e-05 8.64137e-06
-2.00107e-06 8.64137e-06 -0.000109233
-0.00015245 -0.00016633 -7.33781e-07
-0.00016633 -0.000104415 -7.12637e-06
-7.33781e-07 -7.12637e-06 -0.000548681
0.000864526 -0.000375039 2.94141e-05
-0.000375039 -0.00308961 -4.18168e-06
2.94141e-05 -4.18168e-06 -0.00340223
0.00147214 0.000112889 7.77195e-07
0.000112889 0.000555855 -3.59723e-06
7.77195e-07 -3.59723e-06 0.000422685
0.0005397 0.000172861 3.46281e-06
0.000172861 -2.63819e-05 1.16952e-06
3.46281e-06 1.16952e-06 -0.000213502
0.0020046 0.000197263 4.93829e-05
0.000197263 0.000107813 9.49331e-06
4.93829e-05 9.49331e-06 0.000134405
0.00207484 0.000452409 1.74312e-05
0.000452409 0.000183585 6.98356e-06
1.74312e-05 6.98356e-06 5.66472e-05
0.00189328 0.000464983 5.90413e-06
0.000464983 0.000397596 7.11712e-06
5.90413e-06 7.11712e-06 0.000105233
0.000876405 0.000284715 6.1019e-06
0.000284715 3.51208e-05 3.25725e-06
6.1019e-06 3.25725e-06 -0.000233611
0.00340794 0.000546544 7.67618e-05
0.000546544 0.000331789 2.39898e-05
7.67618e-05 2.39898e-05 -0.000115122
0.00127163 0.000173552 3.08851e-06
0.000173552 0.000475282 3.99376e-07
3.08851e-06 3.99376e-07 0.000312498
0.00240964 0.000368281 -1.33838e-05
0.000368281 0.000385921 -1.24967e-06
-1.33838e-05 -1.24967e-06 0.000384465
0.00109949 0.000265414 1.2939e-06
0.000265414 0.000248843 6.61541e-07
1.2939e-06 6.61541e-07 5.02955e-05
0.0012448 0.000364312 2.19209e-06
0.000364312 0.000184026 -2.18024e-06
2.19209e-06 -2.18024e-06 -9.34142e-05
0.0012134 0.000489882 -5.58179e-06
0.000489882 -0.000157359 -1.55486e-06
-5.58179e-06 -1.55486e-06 -0.00035438
0.00289665 -0.000280649 -0.000114701
-0.000280649 -0.00217602 -3.42306e-05
-0.000114701 -3.42306e-05 -0.00316085
0.0056524 0.000673231 -1.94725e-05
0.000673231 0.000516767 -4.16699e-05
-1.94725e-05 -4.16699e-05 2.31495e-05
0.000418408 0.000454065 -8.65877e-06
0.000454065 -0.00045249 7.57518e-06
-8.65877e-06 7.57518e-06 -0.000735461
-0.00166506 -0.000575434 0.000175908
-0.000575434 0.00105072 7.45676e-05
0.000175908 7.45676e-05 -0.000470726
0.00103889 -0.00251869 -0.000125457
-0.00251869 -0.000677944 -0.000138413
-0.000125457 -0.000138413 0.000858172
0.00103734 0.000188989 -5.40369e-06
0.000188989 0.000322678 -3.1571e-06
-5.40369e-06 -3.1571e-06 0.000176029
0.000525475 0.000415995 0.00019469
0.000415995 0.00180129 -1.28898e-05
0.00019469 -1.28898e-05 0.000634918
0.00118947 -0.000788171 -0.000114777
-0.000788171 0.00253338 -0.000177594
-0.000114777 -0.000177594 0.000682549
0.00244737 0.000542887 -2.87716e-05
0.000542887 0.000403788 -9.28539e-06
-2.87716e-05 -9.28539e-06 0.000444074
0.000828054 0.000170557 -1.27847e-05
0.000170557 8.46272e-05 -2.90741e-06
-1.27847e-05 -2.90741e-06 -0.00010823
-4.43996e-05 0.000395953 -2.17712e-05
0.000395953 -0.000513615 -1.61596e-05
-2.17712e-05 -1.61596e-05 -0.000805742
0.000158872 0.000498659 3.26295e-05
0.000498659 -0.000634718 6.77649e-05
3.26295e-05 6.77649e-05 -0.000788914
0.0123599 0.000781734 -1.75016e-05
0.000781734 0.00371691 -3.85514e-05
-1.75016e-05 -3.85514e-05 0.00221322
0.00289171 0.0010132 1.36994e-05
0.0010132 0.000507898 7.02013e-06
1.36994e-05 7.02013e-06 -0.000608725
0.00314769 -0.00223253 0.00030948
-0.00223253 -8.85055e-05 0.000222401
0.00030948 0.000222401 4.35026e-05
0.00591278 -0.00118828 -2.25729e-05
-0.00118828 -0.000437997 0.000250047
-2.25729e-05 0.000250047 0.00058599
0.000545704 2.40377e-05 1.86653e-06
2.40377e-05 4.33169e-05 -1.63746e-06
1.86653e-06 -1.63746e-06 -4.8622e-05
0.000778368 8.62131e-05 2.05937e-06
8.62131e-05 0.000167091 1.03154e-06
2.05937e-06 1.03154e-06 6.3456e-05
0.0015854 0.00015743 -3.42038e-06
0.00015743 0.000649463 -2.90893e-06
-3.42038e-06 -2.90893e-06 0.00054656
0.000628727 4.78515e-06 7.35814e-07
4.78515e-06 6.6807e-05 -4.34283e-07
7.35814e-07 -4.34283e-07 -3.40105e-05
0.000734702 3.62362e-05 -7.92518e-08
3.62362e-05 0.00012275 -1.4381e-06
-7.92518e-08 -1.4381e-06 5.10008e-06
0.000529187 -4.59393e-06 -1.22561e-06
-4.59393e-06 -1.23256e-05 2.32332e-08
-1.22561e-06 2.32332e-08 -0.000120032
0.000799229 5.09857e-05 -6.78004e-07
5.09857e-05 0.000141796 1.44824e-06
-6.78004e-07 1.44824e-06 3.66856e-05
0.000652629 3.22572e-05 -6.10938e-07
3.22572e-05 4.30258e-05 2.25282e-07
-6.10938e-07 2.25282e-07 -4.25424e-05
0.000449332 -3.16074e-06 2.64193e-07
-3.16074e-06 -5.30633e-05 7.83516e-07
2.64193e-07 7.83516e-07 -0.000149582
0.000835813 3.83035e-05 3.52392e-07
3.83035e-05 0.000168705 5.94515e-07
3.52392e-07 5.94515e-07 5.79492e-05
0.000796841 3.21297e-05 2.70979e-07
3.21297e-05 0.000144757 3.71007e-07
2.70979e-07 3.71007e-07 3.00415e-05
0.00070015 2.03393e-05 5.80666e-07
2.03393e-05 0.000106148 -3.43594e-07
5.80666e-07 -3.43594e-07 -1.60506e-05
0.000495073 4.86551e-05 -3.58999e-07
4.86551e-05 -2.48964e-05 -6.97067e-07
-3.58999e-07 -6.97067e-07 -0.000122158
0.00111796 5.78036e-05 -5.36062e-07
5.78036e-05 0.000333494 -2.28961e-06
-5.36062e-07 -2.28961e-06 0.000230606
-6.66254e-05 3.62285e-05 -2.1657e-06
3.62285e-05 -0.000317974 -3.9089e-06
-2.1657e-06 -3.9089e-06 -0.000420325
0.000748383 -7.68464e-05 8.63123e-08
-7.68464e-05 0.000118173 -9.43242e-08
8.63123e-08 -9.43242e-08 -2.30671e-06
0.000783649 -5.76717e-05 -9.83365e-07
-5.76717e-05 0.00015969 -9.00445e-07
-9.83365e-07 -9.00445e-07 3.15845e-05
0.000805485 -2.75129e-05 -5.5683e-07
-2.75129e-05 0.000171963 -3.84399e-07
-5.5683e-07 -3.84399e-07 4.88312e-05
0.000800553 6.3404e-06 -8.57468e-07
6.3404e-06 0.000153405 -1.9142e-07
-8.57468e-07 -1.9142e-07 4.86144e-05
0.00083397 6.94619e-06 -2.53885e-06
6.94619e-06 0.000195288 -2.33258e-06
-2.53885e-06 -2.33258e-06 6.24748e-05
0.000731247 1.1834e-05 1.06394e-06
1.1834e-05 0.000116489 -1.42746e-06
1.06394e-06 -1.42746e-06 1.2539e-05
0.00012048 -1.83015e-05 1.23055e-07
-1.83015e-05 -0.000252003 -1.93357e-06
1.23055e-07 -1.93357e-06 -0.000342689
0.000607998 3.2916e-06 1.04729e-06
3.2916e-06 3.75267e-05 6.71401e-08
1.04729e-06 6.71401e-08 -6.44086e-05
0.000654891 -4.46684e-05 9.21542e-08
-4.46684e-05 6.26696e-05 2.42539e-07
9.21542e-08 2.42539e-07 -3.01515e-05
0.000716375 -4.21418e-05 -2.2851e-07
-4.21418e-05 0.000113844 -2.29538e-08
-2.2851e-07 -2.29538e-08 7.55322e-06
0.000666755 -4.97123e-05 -1.98504e-06
-4.97123e-05 5.89104e-05 1.06524e-06
-1.98504e-06 1.06524e-06 -1.90332e-05
0.000696134 -3.40405e-05 1.52937e-06
-3.40405e-05 8.62777e-05 -3.04809e-07
1.52937e-06 -3.04809e-07 -1.50211e-05
0.000615516 -7.74589e-05 2.55624e-09
-7.74589e-05 3.75214e-05 2.19693e-07
2.55624e-09 2.19693e-07 -5.14113e-05
0.00062979 -1.63699e-05 -1.91021e-06
-1.63699e-05 2.4377e-05 2.5354e-06
-1.91021e-06 2.5354e-06 -2.82729e-05
0.000496777 -6.33485e-06 1.22957e-06
-6.33485e-06 -1.93812e-05 -6.6618e-07
1.22957e-06 -6.6618e-07 -0.000119617
0.000590733 3.84954e-06 1.18994e-06
3.84954e-06 9.643e-06 -1.51994e-08
1.18994e-06 -1.51994e-08 -4.54085e-05
0.00138373 1.24507e-05 -2.97408e-06
1.24507e-05 0.000453533 5.3839e-06
-2.97408e-06 5.3839e-06 0.000441537
0.000582779 3.27846e-05 -5.5488e-07
3.27846e-05 6.96295e-06 -2.06138e-06
-5.5488e-07 -2.06138e-06 -4.77133e-05
0.000961849 5.40581e-06 -1.70962e-06
5.40581e-06 0.000203042 8.16584e-07
-1.70962e-06 8.16584e-07 0.000189105
0.000837165 3.30986e-06 -4.06045e-06
3.30986e-06 0.00012649 5.05643e-06
-4.06045e-06 5.05643e-06 0.000134025
0.000564226 1.09229e-06 2.49344e-07
1.09229e-06 -3.38959e-05 -3.74503e-06
2.49344e-07 -3.74503e-06 -4.97248e-05
0.00237177 9.45646e-08 4.45942e-06
9.45646e-08 0.00104015 -7.70965e-09
4.45942e-06 -7.70965e-09 0.00105579
0.000853753 -3.11475e-06 -4.1518e-06
-3.11475e-06 0.000136294 -5.16283e-06
-4.1518e-06 -5.16283e-06 0.000144087
0.000615928 6.51432e-05 1.88167e-06
6.51432e-05 5.41044e-05 1.46353e-07
1.88167e-06 1.46353e-07 -2.83198e-05
0.000591331 2.52431e-05 -1.20251e-06
2.52431e-05 2.94934e-06 -1.76463e-06
-1.20251e-06 -1.76463e-06 -3.57877e-05
0.000600321 -6.54849e-06 9.42735e-07
-6.54849e-06 5.17755e-06 1.09109e-08
9.42735e-07 1.09109e-08 -3.33626e-05
0.000596025 8.22799e-06 3.13372e-07
8.22799e-06 -2.22852e-05 -3.11569e-06
3.13372e-07 -3.11569e-06 -2.90393e-05
0.000624513 -3.19167e-05 -1.73996e-06
-3.19167e-05 1.68627e-05 1.4237e-06
-1.73996e-06 1.4237e-06 -2.33371e-05
0.000564498 1.41139e-05 1.15761e-08
1.41139e-05 -4.07984e-05 -7.57756e-07
1.15761e-08 -7.57756e-07 -4.7912e-05
0.00202398 2.69475e-05 7.3367e-06
2.69475e-05 0.000835738 -4.46519e-06
7.3367e-06 -4.46519e-06 0.00085396
0.00116725 3.16545e-05 -6.8621e-07
3.16545e-05 0.000322164 1.85524e-06
-6.8621e-07 1.85524e-06 0.000316204
0.00148289 3.46031e-05 1.11291e-07
3.46031e-05 0.000516992 1.41054e-06
1.11291e-07 1.41054e-06 0.000529658
0.000895409 3.78386e-05 -1.35859e-05
3.78386e-05 0.00017188 7.16392e-06
-1.35859e-05 7.16392e-06 0.000178761
0.00151726 0.000146379 6.95746e-05
0.000146379 -0.000749156 1.35371e-05
6.95746e-05 1.35371e-05 -0.000662359
0.00192503 -1.93935e-05 2.45597e-06
-1.93935e-05 -2.45101e-05 7.69088e-07
2.45597e-06 7.69088e-07 -1.39419e-05
0.00195909 6.07092e-05 3.44051e-05
6.07092e-05 0.000207416 -9.54709e-06
3.44051e-05 -9.54709e-06 0.00024893
0.00144506 0.000115324 -1.48667e-05
0.000115324 -0.00113583 -9.64879e-06
-1.48667e-05 -9.64879e-06 -0.000879279
0.00182485 5.89531e-05 1.87175e-05
5.89531e-05 -0.000335258 1.96881e-07
1.87175e-05 1.96881e-07 -0.000216426
0.00233231 -1.96222e-05 -1.00951e-07
-1.96222e-05 0.000363971 -1.98548e-06
-1.00951e-07 -1.98548e-06 0.000344869
0.0033709 -7.7271e-05 -6.02283e-05
-7.7271e-05 0.000751207 2.5134e-06
-6.02283e-05 2.5134e-06 0.000726279
0.00301335 -6.98606e-05 9.10447e-05
-6.98606e-05 0.000318473 -8.528e-07
9.10447e-05 -8.528e-07 0.000225119
0.00995888 -0.000443789 1.44589e-05
-0.000443789 0.00230446 3.42331e-05
1.44589e-05 3.42331e-05 0.000850479
0.00908293 0.00188593 0.000396798
0.00188593 0.00423681 -0.000172689
0.000396798 -0.000172689 0.00406687
0.0054995 0.00203729 -2.44423e-05
0.00203729 0.00399492 2.19579e-05
-2.44423e-05 2.19579e-05 0.00442552
0.000416194 -8.59309e-05 2.17155e-06
-8.59309e-05 -5.90992e-05 5.38494e-08
2.17155e-06 5.38494e-08 -0.000153595
0.000654221 -1.11139e-05 1.33547e-06
-1.11139e-05 7.19324e-05 -1.64066e-07
1.33547e-06 -1.64066e-07 -4.97221e-06
0.000691127 -7.85837e-05 -1.69056e-06
-7.85837e-05 9.9e-05 1.15714e-06
-1.69056e-06 1.15714e-06 1.71536e-05
0.000629208 -4.04002e-05 -2.28695e-07
-4.04002e-05 5.86198e-05 2.42429e-07
-2.28695e-07 2.42429e-07 -3.40409e-05
0.000646211 6.28861e-05 -9.15706e-07
6.28861e-05 9.0068e-05 1.9213e-06
-9.15706e-07 1.9213e-06 -2.05625e-05
0.000687247 0.000121244 1.52016e-06
0.000121244 9.7426e-05 3.64079e-06
1.52016e-06 3.64079e-06 -1.26612e-05
0.00082731 -1.09756e-05 2.75294e-06
-1.09756e-05 0.000192231 -1.24424e-07
2.75294e-06 -1.24424e-07 8.61441e-05
0.000579349 -2.87715e-05 -9.36324e-07
-2.87715e-05 3.83133e-05 9.21657e-07
-9.36324e-07 9.21657e-07 -5.87268e-05
0.00211845 -0.000184229 4.439e-06
-0.000184229 6.32612e-05 1.94685e-06
4.439e-06 1.94685e-06 9.17533e-05
0.00180105 -0.000280885 8.40324e-06
-0.000280885 -0.000178017 -1.20346e-06
8.40324e-06 -1.20346e-06 -0.000140442
0.0016243 -0.000461034 4.60414e-06
-0.000461034 -9.29208e-05 5.09957e-06
4.60414e-06 5.09957e-06 -0.000214954
0.00143995 -0.000404906 1.07798e-05
-0.000404906 0.000375804 8.65795e-07
1.07798e-05 8.65795e-07 9.53812e-05
0.00171954 -0.000527518 4.47396e-06
-0.000527518 0.000244481 -1.66972e-07
4.47396e-06 -1.66972e-07 1.59006e-05
0.00207461 -0.000448763 4.15902e-06
-0.000448763 0.00096572 -1.06982e-06
4.15902e-06 -1.06982e-06 0.000586363
0.00216969 -0.000276234 8.11933e-08
-0.000276234 0.000975842 -2.86231e-06
8.11933e-08 -2.86231e-06 0.000708039
0.000725603 -0.000124549 2.981e-06
-0.000124549 0.000111486 -3.16307e-06
2.981e-06 -3.16307e-06 -4.57035e-05
0.000678775 -2.35519e-05 3.92091e-07
-2.35519e-05 8.61858e-05 2.22105e-06
3.92091e-07 2.22105e-06 -1.22582e-05
0.000895143 -3.8992e-05 1.27392e-06
-3.8992e-05 0.000214185 -6.31904e-06
1.27392e-06 -6.31904e-06 9.01609e-05
0.000921405 -2.26277e-05 1.45341e-06
-2.26277e-05 0.000240521 1.10665e-07
1.45341e-06 1.10665e-07 0.000137766
0.000694502 0.000100211 2.26588e-06
0.000100211 0.000102632 2.3568e-06
2.26588e-06 2.3568e-06 1.12859e-05
0.0019892 -0.000223361 4.33921e-08
-0.000223361 -2.80076e-05 1.69201e-06
4.33921e-08 1.69201e-06 5.42796e-05
0.000675838 1.31969e-05 -1.60114e-06
1.31969e-05 0.000109517 2.9711e-07
-1.60114e-06 2.9711e-07 -1.10842e-05
0.000833682 -8.43017e-05 -2.21553e-06
-8.43017e-05 0.000184542 1.36676e-06
-2.21553e-06 1.36676e-06 6.38901e-05
0.00177302 -0.000388231 1.8455e-06
-0.000388231 -0.000126239 -1.56689e-06
1.8455e-06 -1.56689e-06 -0.000120002
0.00168938 -0.000556201 7.87528e-07
-0.000556201 3.2706e-05 9.79258e-07
7.87528e-07 9.79258e-07 -0.000148325
0.00111358 -0.000432262 -1.27746e-06
-0.000432262 0.000102718 -2.30974e-06
-1.27746e-06 -2.30974e-06 -0.000131186
0.000992946 -0.000147574 3.50895e-07
-0.000147574 0.000350642 -4.4029e-06
3.50895e-07 -4.4029e-06 0.000151759
0.00113343 -0.000245014 -1.39019e-06
-0.000245014 0.000570939 1.25596e-06
-1.39019e-06 1.25596e-06 0.000163565
0.00338645 -0.000353064 -3.22125e-05
-0.000353064 0.000716703 6.56981e-06
-3.22125e-05 6.56981e-06 0.000732672
0.00276051 -0.000553337 -3.24471e-05
-0.000553337 0.000513601 4.40757e-06
-3.24471e-05 4.40757e-06 0.000491327
0.00160536 -0.000595638 -1.02857e-05
-0.000595638 9.18411e-05 6.17442e-07
-1.02857e-05 6.17442e-07 -9.40369e-05
0.00067307 -0.000324108 -1.27971e-05
-0.000324108 -1.57984e-06 1.54704e-05
-1.27971e-05 1.54704e-05 -0.000227617
0.000671193 -0.000133368 1.48513e-06
-0.000133368 0.000111363 8.29652e-07
1.48513e-06 8.29652e-07 -3.23404e-05
0.000467094 -0.000107617 2.79302e-06
-0.000107617 2.74374e-05 -2.04459e-06
2.79302e-06 -2.04459e-06 -0.000134647
0.00100844 -0.000104823 3.48361e-07
-0.000104823 0.000505522 -5.7187e-06
3.48361e-07 -5.7187e-06 0.000157394
-0.00491678 -8.75148e-05 0.00026794
-8.75148e-05 -0.00347933 1.74291e-06
0.00026794 1.74291e-06 -0.00247376
0.0102061 -0.000143447 5.40998e-06
-0.000143447 0.0028009 -4.4199e-07
5.40998e-06 -4.4199e-07 0.00220944
0.00145864 0.000152523 5.5046e-06
0.000152523 0.00057326 -2.44549e-06
5.5046e-06 -2.44549e-06 0.000420992
0.000836904 0.000241499 3.32917e-06
0.000241499 0.000113969 -1.12368e-06
3.32917e-06 -1.12368e-06 -8.20437e-05
0.0021763 0.0003396 4.53776e-05
0.0003396 0.00024421 2.37011e-05
4.53776e-05 2.37011e-05 0.000261206
0.002443 0.000586928 1.29112e-05
0.000586928 0.000480002 6.44328e-06
1.29112e-05 6.44328e-06 0.000276966
0.00201384 0.000450228 9.88907e-06
0.000450228 0.00060999 1.77351e-07
9.88907e-06 1.77351e-07 0.000321574
0.0107617 0.00056089 4.58285e-05
0.00056089 0.00275191 1.84577e-05
4.58285e-05 1.84577e-05 0.00162069
0.00751266 0.000987505 -0.0001591
0.000987505 0.000975877 -2.8911e-05
-0.0001591 -2.8911e-05 0.000593159
0.000242785 0.000356742 6.86925e-06
0.000356742 -0.000406821 -1.94274e-05
6.86925e-06 -1.94274e-05 -0.000752659
0.00917659 -0.00152377 -9.9536e-05
-0.00152377 0.00428187 2.09628e-05
-9.9536e-05 2.09628e-05 0.00358709
-0.00748778 -0.00254926 -0.000670729
-0.00254926 -0.00330931 -0.000506924
-0.000670729 -0.000506924 -0.00186157
0.000969129 0.000183949 -6.03582e-07
0.000183949 0.000292436 -1.96887e-06
-6.03582e-07 -1.96887e-06 0.000145988
-0.00235845 -0.000761691 0.000139061
-0.000761691 -0.00215022 1.83464e-05
0.000139061 1.83464e-05 -0.00242199
-0.00280701 -0.000566034 -0.000162063
-0.000566034 0.0014877 -8.23674e-05
-0.000162063 -8.23674e-05 -0.000710342
0.00282263 0.000503135 -1.04501e-05
0.000503135 0.000623407 -7.93483e-07
-1.04501e-05 -7.93483e-07 0.000654758
0.000847269 0.000219972 -3.37988e-06
0.000219972 0.000127889 1.21819e-06
-3.37988e-06 1.21819e-06 -8.45446e-05
0.00104736 0.000456545 4.17243e-06
0.000456545 7.76481e-05 2.00542e-06
4.17243e-06 2.00542e-06 -0.00021067
0.00112906 0.000436283 1.72896e-05
0.000436283 2.35529e-06 1.43495e-05
1.72896e-05 1.43495e-05 -3.59649e-05
0.00903932 0.000617175 -5.9773e-05
0.000617175 0.00137319 -2.98207e-05
-5.9773e-05 -2.98207e-05 -0.000446987
0.00623969 0.00142743 -6.07897e-05
0.00142743 0.00152007 -2.56913e-05
-6.07897e-05 -2.56913e-05 0.000766688
0.0106239 -0.00177629 0.000138522
-0.00177629 0.00477369 -5.04141e-05
0.000138522 -5.04141e-05 0.00452519
0.00515538 -0.00146596 0.000149571
-0.00146596 -0.00118678 0.000321323
0.000149571 0.000321323 -0.00016538
0.00155986 0.000176196 -1.62576e-05
0.000176196 0.000646129 -8.14851e-06
-1.62576e-05 -8.14851e-06 0.000515064
-0.00595204 0.000328884 -9.32638e-05
0.000328884 0.00107985 -5.26301e-05
-9.32638e-05 -5.26301e-05 -0.00177721
0.0032558 0.000324374 -0.000168958
0.000324374 0.00179676 -0.000230975
-0.000168958 -0.000230975 -0.00101838
0.00158041 0.000443633 -1.68919e-05
0.000443633 0.000228452 5.84271e-06
-1.68919e-05 5.84271e-06 0.000221776
0.00115091 0.000416229 -4.69761e-05
0.000416229 0.000375508 -1.68371e-05
-4.69761e-05 -1.68371e-05 0.00012519
0.00227149 0.000385653 -6.08126e-05
0.000385653 0.00121781 -6.05739e-06
-6.08126e-05 -6.05739e-06 0.000816487
0.00203047 0.00099088 -3.93119e-05
0.00099088 0.000142776 -1.63273e-05
-3.93119e-05 -1.63273e-05 -0.000133107
0.00106811 0.000812538 0.000159207
0.000812538 -0.00019212 0.000114191
0.000159207 0.000114191 -0.00289492
0.0101604 -0.00205885 8.71898e-05
-0.00205885 0.0034855 0.000280116
8.71898e-05 0.000280116 0.00288163
0.00454412 -0.000901599 -5.11206e-05
-0.000901599 -0.00201177 -5.1227e-05
-5.11206e-05 -5.1227e-05 -0.00082295
0.000824841 0.000107007 3.8066e-06
0.000107007 0.000203541 2.89477e-06
3.8066e-06 2.89477e-06 9.25165e-05
0.00126739 0.000137163 5.88579e-06
0.000137163 0.000453473 2.6311e-06
5.88579e-06 2.6311e-06 0.000354229
4.83812e-05 4.69862e-05 2.05423e-06
4.69862e-05 -0.000195715 -4.51829e-06
2.05423e-06 -4.51829e-06 -0.00029651
0.000456834 4.48684e-05 1.35706e-06
4.48684e-05 -4.95368e-05 -1.24751e-07
1.35706e-06 -1.24751e-07 -0.000145532
0.000763641 5.27624e-05 -6.60471e-07
5.27624e-05 0.000149698 -1.09614e-06
-6.60471e-07 -1.09614e-06 2.42357e-05
0.000740908 -5.48453e-06 -4.74413e-07
-5.48453e-06 0.000111905 1.25213e-06
-4.74413e-07 1.25213e-06 -2.41656e-06
0.000769826 3.09648e-06 2.33687e-06
3.09648e-06 0.00013759 7.24155e-07
2.33687e-06 7.24155e-07 2.34187e-05
0.000510959 4.07524e-05 9.22001e-07
4.07524e-05 -1.25071e-05 2.51517e-06
9.22001e-07 2.51517e-06 -0.000108346
0.000769962 4.36349e-05 -1.51477e-08
4.36349e-05 0.000152624 -8.20745e-07
-1.51477e-08 -8.20745e-07 2.44732e-05
0.000870778 4.47565e-05 -2.79674e-08
4.47565e-05 0.000186426 2.57425e-07
-2.79674e-08 2.57425e-07 8.30671e-05
0.000786521 -3.44346e-05 -5.31835e-07
-3.44346e-05 0.000142648 6.08951e-07
-5.31835e-07 6.08951e-07 2.043e-05
2.01071e-06 3.44711e-05 -2.17334e-07
3.44711e-05 -0.000263659 7.92985e-07
-2.17334e-07 7.92985e-07 -0.000366557
-0.000656358 2.05966e-05 -9.55916e-07
2.05966e-05 -0.000505999 -1.54565e-06
-9.55916e-07 -1.54565e-06 -0.000651407
0.000871168 -1.43462e-06 -2.7048e-06
-1.43462e-06 0.000196049 -4.35759e-06
-2.7048e-06 -4.35759e-06 8.28669e-05
0.000946389 1.06171e-05 -5.95724e-07
1.06171e-05 0.000257185 -1.20101e-06
-5.95724e-07 -1.20101e-06 0.000109808
0.000814149 -5.75651e-05 -6.02025e-08
-5.75651e-05 0.000180872 -8.11022e-07
-6.02025e-08 -8.11022e-07 5.41107e-05
0.000858106 -3.29778e-05 -6.49705e-08
-3.29778e-05 0.000180722 1.45648e-06
-6.49705e-08 1.45648e-06 7.94473e-05
0.00083725 -5.29468e-05 1.99831e-07
-5.29468e-05 0.000186066 -6.43417e-07
1.99831e-07 -6.43417e-07 5.98296e-05
0.000760263 5.68643e-06 -3.21873e-07
5.68643e-06 0.000129888 -9.30709e-08
-3.21873e-07 -9.30709e-08 2.6904e-05
0.00040899 -4.60946e-05 4.10714e-07
-4.60946e-05 -7.88767e-05 1.19319e-06
4.10714e-07 1.19319e-06 -0.000170549
0.000628738 1.28473e-05 9.99203e-07
1.28473e-05 5.41261e-05 6.50028e-07
9.99203e-07 6.50028e-07 -4.59085e-05
0.000389619 -1.62924e-05 -1.88242e-06
-1.62924e-05 -6.48566e-05 -3.70195e-06
-1.88242e-06 -3.70195e-06 -0.000181505
0.000366604 -3.82645e-05 1.99113e-06
-3.82645e-05 -0.000102465 -9.22267e-07
1.99113e-06 -9.22267e-07 -0.000190884
0.000764307 -3.06378e-05 3.90107e-06
-3.06378e-05 9.51158e-05 -5.28303e-06
3.90107e-06 -5.28303e-06 -7.98104e-07
3.01013e-05 -4.4431e-05 5.52541e-07
-4.4431e-05 -0.000299855 1.20685e-06
5.52541e-07 1.20685e-06 -0.000450843
0.000335295 9.86856e-06 -5.91602e-07
9.86856e-06 -0.00011167 -6.93177e-07
-5.91602e-07 -6.93177e-07 -0.000221068
0.000724223 -3.65419e-06 2.22699e-07
-3.65419e-06 0.000104458 3.35507e-07
2.22699e-07 3.35507e-07 5.04904e-07
0.000645719 -9.55738e-06 7.99494e-08
-9.55738e-06 5.77963e-05 4.66696e-07
7.99494e-08 4.66696e-07 -3.52087e-05
0.000720121 -2.66506e-05 -1.71192e-07
-2.66506e-05 0.000113879 -6.40822e-08
-1.71192e-07 -6.40822e-08 1.18406e-05
0.000581827 1.88947e-06 -6.28997e-07
1.88947e-06 1.642e-05 8.73495e-07
-6.28997e-07 8.73495e-07 -6.3258e-05
0.000764224 -2.3358e-05 1.98866e-07
-2.3358e-05 0.000139875 -9.65801e-11
1.98866e-07 -9.65801e-11 3.499e-05
0.000673222 -4.44055e-05 -4.4789e-07
-4.44055e-05 7.09312e-05 1.04714e-07
-4.4789e-07 1.04714e-07 -1.22718e-05
0.000574967 3.80736e-05 -8.93017e-07
3.80736e-05 -9.47921e-06 2.35892e-06
-8.93017e-07 2.35892e-06 -6.30226e-05
0.000556132 -6.834e-05 1.73909e-06
-6.834e-05 -2.45817e-06 -1.03417e-06
1.73909e-06 -1.03417e-06 -8.95006e-05
0.0006054 -2.1772e-06 -2.537e-07
-2.1772e-06 9.54438e-06 -8.24559e-09
-2.537e-07 -8.24559e-09 -4.26309e-05
0.00138049 2.26358e-05 -4.76448e-06
2.26358e-05 0.000450654 5.52661e-06
-4.76448e-06 5.52661e-06 0.000438313
0.000592715 -2.26254e-05 9.67192e-07
-2.26254e-05 9.04438e-06 -2.11332e-06
9.67192e-07 -2.11332e-06 -4.48225e-05
0.00095267 1.13925e-05 -2.69784e-06
1.13925e-05 0.00019637 7.52397e-07
-2.69784e-06 7.52397e-07 0.000182565
0.000768221 1.46528e-05 -1.18565e-07
1.46528e-05 8.41257e-05 2.01672e-06
-1.18565e-07 2.01672e-06 9.17792e-05
0.000551441 2.83351e-06 6.7481e-07
2.83351e-06 -4.23548e-05 -3.76565e-06
6.7481e-07 -3.76565e-06 -5.81037e-05
0.00237575 1.35603e-05 4.19981e-06
1.35603e-05 0.00104279 5.28022e-08
4.19981e-06 5.28022e-08 0.00105825
0.00237109 1.89424e-06 -5.46002e-07
1.89424e-06 0.00103981 -5.25454e-06
-5.46002e-07 -5.25454e-06 0.00105539
0.000997343 7.21522e-05 -1.01661e-06
7.21522e-05 0.000274586 -6.59734e-07
-1.01661e-06 -6.59734e-07 0.000194206
0.000607129 3.52046e-05 -1.13203e-06
3.52046e-05 1.53677e-05 -1.95312e-06
-1.13203e-06 -1.95312e-06 -2.62268e-05
0.000643126 -8.42685e-06 6.28415e-07
-8.42685e-06 6.9125e-05 8.8372e-07
6.28415e-07 8.8372e-07 -1.24591e-05
0.000597077 3.11561e-06 2.25749e-07
3.11561e-06 -2.19535e-05 -3.30677e-06
2.25749e-07 -3.30677e-06 -2.87356e-05
0.000599407 -1.18119e-05 1.98902e-07
-1.18119e-05 7.95249e-06 -2.71218e-08
1.98902e-07 -2.71218e-08 -3.10345e-05
0.000618283 -3.18059e-05 -1.47698e-06
-3.18059e-05 1.67522e-05 1.31455e-06
-1.47698e-06 1.31455e-06 -2.26151e-05
0.00057939 7.92316e-06 -2.11263e-07
7.92316e-06 -3.21804e-05 -2.13588e-08
-2.11263e-07 -2.13588e-08 -3.88714e-05
0.00201547 1.42655e-05 2.89288e-06
1.42655e-05 0.000828257 -4.62871e-06
2.89288e-06 -4.62871e-06 0.0008473
0.00115197 2.07854e-05 -6.91199e-07
2.07854e-05 0.000310056 1.83141e-06
-6.91199e-07 1.83141e-06 0.00030613
0.00140098 2.30023e-05 8.679e-07
2.30023e-05 0.000463336 1.13887e-08
8.679e-07 1.13887e-08 0.000478176
0.00086429 2.7339e-05 -1.27957e-05
2.7339e-05 0.000147581 7.03355e-06
-1.27957e-05 7.03355e-06 0.000157399
-0.0083817 0.000415433 0.000213322
0.000415433 -0.00365429 4.12848e-06
0.000213322 4.12848e-06 -0.00460815
-0.00197113 4.01237e-05 0.00026741
4.01237e-05 0.002069 -2.30432e-07
0.00026741 -2.30432e-07 0.000434358
0.00449083 0.000227495 -0.000222876
0.000227495 0.000243811 -2.02966e-05
-0.000222876 -2.02966e-05 0.000624678
0.000468097 4.48312e-05 2.94569e-05
4.48312e-05 -0.000983811 -9.39731e-06
2.94569e-05 -9.39731e-06 -0.00093232
0.00152479 -2.91786e-05 1.85069e-05
-2.91786e-05 -0.00017234 -7.99332e-07
1.85069e-05 -7.99332e-07 -0.000189724
0.000178768 5.37378e-05 -1.09411e-05
5.37378e-05 -0.000773733 -7.14478e-06
-1.09411e-05 -7.14478e-06 -0.000710104
0.00261661 -0.000118942 -1.295e-06
-0.000118942 0.000257763 4.1485e-06
-1.295e-06 4.1485e-06 0.00022213
0.00924621 0.000119165 5.31695e-05
0.000119165 0.00138561 -3.22876e-05
5.31695e-05 -3.22876e-05 0.000358295
-0.00321974 0.0011375 -2.50328e-05
0.0011375 -0.000773492 -1.44095e-05
-2.50328e-05 -1.44095e-05 -0.00205235
-0.000873133 0.00220081 -0.000136741
0.00220081 0.00045824 7.0587e-05
-0.000136741 7.0587e-05 0.00148307
0.00188431 -0.000250211 6.38159e-05
-0.000250211 -0.000666216 -3.20481e-06
6.38159e-05 -3.20481e-06 -0.000717714
0.0124628 -0.00041258 9.98709e-05
-0.00041258 0.00336602 -3.25941e-05
9.98709e-05 -3.25941e-05 0.00185429
0.0034728 0.00212307 0.000137373
0.00212307 0.000338976 -0.000267801
0.000137373 -0.000267801 0.00068741
0.00689117 0.00156396 -0.000210868
0.00156396 0.000987312 0.000130923
-0.000210868 0.000130923 0.000940236
0.000703923 8.55147e-05 -1.92139e-06
8.55147e-05 0.00013274 1.46334e-06
-1.92139e-06 1.46334e-06 4.74775e-06
0.000504039 1.5636e-05 -1.6313e-07
1.5636e-05 -1.21732e-05 -7.45428e-07
-1.6313e-07 -7.45428e-07 -0.000102682
0.000675432 -8.73999e-05 -1.03303e-06
-8.73999e-05 8.94305e-05 9.14965e-07
-1.03303e-06 9.14965e-07 8.2892e-06
0.00056028 -6.62277e-06 5.21584e-07
-6.62277e-06 2.47585e-05 -4.02755e-07
5.21584e-07 -4.02755e-07 -7.19801e-05
0.00063626 5.88577e-05 9.35232e-07
5.88577e-05 9.01826e-05 1.42186e-06
9.35232e-07 1.42186e-06 -2.07838e-05
0.000868652 6.77803e-05 1.54621e-07
6.77803e-05 0.000231045 2.16233e-06
1.54621e-07 2.16233e-06 0.000100761
0.00075149 8.92011e-05 1.6017e-06
8.92011e-05 0.000146219 1.88316e-06
1.6017e-06 1.88316e-06 3.10554e-05
0.000641409 1.61712e-05 2.81327e-06
1.61712e-05 6.51885e-05 4.83825e-08
2.81327e-06 4.83825e-08 -4.77754e-05
0.000702051 -2.31903e-05 1.19098e-06
-2.31903e-05 0.000119588 -9.2247e-07
1.19098e-06 -9.2247e-07 1.03553e-05
0.000523072 -8.26498e-06 -5.47814e-07
-8.26498e-06 -4.45465e-06 -3.76984e-07
-5.47814e-07 -3.76984e-07 -9.55052e-05
0.00159334 -0.000207536 1.94027e-05
-0.000207536 -0.000185528 -1.28531e-06
1.94027e-05 -1.28531e-06 -0.000117475
0.00141704 -0.00037619 2.32515e-05
-0.00037619 -0.00030963 -3.10547e-06
2.32515e-05 -3.10547e-06 -0.000309902
5.8804e-05 -0.000419012 1.3918e-05
-0.000419012 -0.000830592 3.77881e-06
1.3918e-05 3.77881e-06 -0.000975659
0.000242819 -0.000358534 4.31964e-06
-0.000358534 -0.000357424 -1.82093e-06
4.31964e-06 -1.82093e-06 -0.000594281
0.00229723 -0.000299774 1.76166e-06
-0.000299774 0.0011782 7.4912e-06
1.76166e-06 7.4912e-06 0.000810459
0.00105064 -0.000195424 2.38241e-06
-0.000195424 0.000387969 -1.38154e-06
2.38241e-06 -1.38154e-06 0.000163235
0.00100255 -9.17503e-05 -2.35311e-07
-9.17503e-05 0.000271768 -3.0566e-07
-2.35311e-07 -3.0566e-07 0.000161719
0.000704204 1.88704e-05 -1.55192e-06
1.88704e-05 0.000126363 1.6483e-06
-1.55192e-06 1.6483e-06 8.5771e-06
0.00194627 -0.000268644 6.20982e-06
-0.000268644 -1.64264e-05 -3.10055e-06
6.20982e-06 -3.10055e-06 2.42967e-05
0.000688374 -6.47402e-05 -2.83536e-07
-6.47402e-05 0.000125345 -2.85978e-07
-2.83536e-07 -2.85978e-07 -2.08601e-05
0.00031153 -8.74601e-05 7.42678e-07
-8.74601e-05 -5.81289e-05 -1.72076e-06
7.42678e-07 -1.72076e-06 -0.000223495
0.00216909 -0.000517072 7.20714e-06
-0.000517072 0.000212268 -6.37735e-07
7.20714e-06 -6.37735e-07 0.000180906
0.00129969 -0.000574647 6.77747e-07
-0.000574647 -9.163e-05 4.04212e-06
6.77747e-07 4.04212e-06 -0.000262559
0.000514059 -0.000343447 7.91231e-06
-0.000343447 -8.69146e-05 -5.54187e-06
7.91231e-06 -5.54187e-06 -0.000332354
0.00149481 -0.000162201 -5.82965e-07
-0.000162201 0.000754358 -3.92027e-06
-5.82965e-07 -3.92027e-06 0.000427061
0.00206842 -0.000425631 -2.90694e-05
-0.000425631 0.000432984 4.87196e-06
-2.90694e-05 4.87196e-06 0.0001578
0.00148754 -0.000452665 -4.07356e-05
-0.000452665 0.000127285 8.02995e-06
-4.07356e-05 8.02995e-06 4.65226e-05
5.94722e-05 -0.000221657 -2.4483e-05
-0.000221657 -0.000181083 3.70558e-05
-2.4483e-05 3.70558e-05 -0.000461819
-0.000315892 -7.02509e-06 -2.55903e-07
-7.02509e-06 -0.000452114 2.05093e-06
-2.55903e-07 2.05093e-06 -0.000600925
0.000367816 -0.000114888 2.54621e-06
-0.000114888 -3.19567e-05 -3.20312e-07
2.54621e-06 -3.20312e-07 -0.000199996
0.000728054 -9.59359e-05 3.75551e-06
-9.59359e-05 0.000257811 -3.56236e-06
3.75551e-06 -3.56236e-06 1.15841e-05
1.09854e-05 0.000282635 -0.000164584
0.000282635 0.0038542 6.0066e-06
-0.000164584 6.0066e-06 0.00198243
0.00172633 -0.000437824 1.56778e-05
-0.000437824 0.0013979 2.4253e-05
1.56778e-05 2.4253e-05 0.00134779
0.000961495 0.000729041 -6.30566e-05
0.000729041 -0.0031374 7.71411e-06
-6.30566e-05 7.71411e-06 -0.00362007
0.000670139 0.000160382 6.09038e-06
0.000160382 0.000130515 1.73732e-06
6.09038e-06 1.73732e-06 -1.20454e-05
0.000950846 0.000277843 6.36886e-06
0.000277843 0.000213507 9.14478e-06
6.36886e-06 9.14478e-06 -1.79731e-05
0.00293082 0.000442655 2.81371e-05
0.000442655 0.000704053 1.15685e-05
2.81371e-05 1.15685e-05 0.000727784
0.00221517 0.000513279 1.83548e-05
0.000513279 0.000705418 1.32949e-05
1.83548e-05 1.32949e-05 0.000417205
0.00723464 -0.000875359 7.42716e-05
-0.000875359 0.00264838 4.07199e-05
7.42716e-05 4.07199e-05 0.00284747
0.0027715 7.51955e-05 -0.000156122
7.51955e-05 -0.00188891 -9.76667e-06
-0.000156122 -9.76667e-06 -0.00361815
0.00292305 0.00128424 -6.99307e-05
0.00128424 -0.000388733 -1.26455e-05
-6.99307e-05 -1.26455e-05 -0.00106274
0.000425069 0.000272627 2.45697e-05
0.000272627 -0.000168795 -2.35689e-05
2.45697e-05 -2.35689e-05 -0.000158068
-0.00339063 -0.00100841 -0.000111911
-0.00100841 -0.000855553 -0.000139179
-0.000111911 -0.000139179 -0.00138592
-0.000747361 -0.000911968 -0.000100422
-0.000911968 0.00150502 -9.99767e-06
-0.000100422 -9.99767e-06 -0.000719146
0.00971454 -0.00190679 0.000230084
-0.00190679 0.00123441 0.000174349
0.000230084 0.000174349 0.00231507
0.000627261 0.000126662 6.80543e-06
0.000126662 0.000126778 -2.19052e-06
6.80543e-06 -2.19052e-06 -1.03256e-05
-0.00212747 8.71607e-05 -8.58701e-05
8.71607e-05 0.00217791 -2.4357e-05
-8.58701e-05 -2.4357e-05 -0.00023812
0.00360035 0.00037012 -2.02439e-05
0.00037012 0.0017919 -7.82324e-05
-2.02439e-05 -7.82324e-05 -0.00112256
0.00135739 0.000416019 -4.39374e-06
0.000416019 0.000152815 4.8204e-06
-4.39374e-06 4.8204e-06 0.000110208
0.000526463 0.00028803 1.53486e-06
0.00028803 7.13749e-05 2.09569e-06
1.53486e-06 2.09569e-06 -0.000177119
-0.000495892 0.00027969 1.80923e-05
0.00027969 -0.000315545 -3.84306e-05
1.80923e-05 -3.84306e-05 -0.000607689
0.0053385 0.00151747 -8.22769e-06
0.00151747 0.00183814 6.77179e-06
-8.22769e-06 6.77179e-06 0.00122058
0.0117631 0.000920043 6.02304e-05
0.000920043 0.00405921 2.21557e-05
6.02304e-05 2.21557e-05 0.00205033
0.00415878 -0.00134528 2.55821e-05
-0.00134528 -0.000279284 -4.53419e-05
2.55821e-05 -4.53419e-05 -0.000887771
0.00937249 -0.00122382 7.15704e-06
-0.00122382 0.00121755 -3.42499e-05
7.15704e-06 -3.42499e-05 0.00238907
0.000738755 0.000195998 -9.37313e-06
0.000195998 0.000243738 -1.0297e-05
-9.37313e-06 -1.0297e-05 0.000106625
0.00281037 7.47061e-05 -0.000118811
7.47061e-05 0.00104787 -3.06527e-05
-0.000118811 -3.06527e-05 -0.000776872
2.84907e-06 9.66678e-05 -3.41516e-05
9.66678e-05 8.70783e-05 -9.47374e-05
-3.41516e-05 -9.47374e-05 -0.00148381
-0.000914551 8.05715e-05 -1.0963e-05
8.05715e-05 -0.000421339 -1.79939e-05
-1.0963e-05 -1.79939e-05 -0.000583742
0.00151522 0.000372114 -4.1779e-05
0.000372114 0.000912838 4.20593e-05
-4.1779e-05 4.20593e-05 0.000201755
0.00966538 0.00132691 4.47334e-05
0.00132691 0.00384684 1.74716e-06
4.47334e-05 1.74716e-06 0.000792642
-0.00680649 -0.0019661 -4.15787e-05
-0.0019661 -0.00361783 0.000123932
-4.15787e-05 0.000123932 -0.00579975
0.00769145 0.000418664 1.87183e-05
0.000418664 -0.000941152 -0.000180081
1.87183e-05 -0.000180081 0.00102505
0.000978384 0.000107949 2.13372e-06
0.000107949 0.000267763 6.5174e-06
2.13372e-06 6.5174e-06 0.000176701
0.00106725 0.000130701 -5.24602e-06
0.000130701 0.000404372 -1.39551e-06
-5.24602e-06 -1.39551e-06 0.000291353
0.000344382 8.30666e-05 -2.09336e-06
8.30666e-05 0.000149514 -4.23626e-06
-2.09336e-06 -4.23626e-06 -3.33031e-05
0.000762709 7.90228e-05 -2.4828e-06
7.90228e-05 0.000138161 -8.95976e-07
-2.4828e-06 -8.95976e-07 1.74323e-05
0.000865361 -2.74985e-05 -9.09186e-07
-2.74985e-05 0.000199141 1.36261e-06
-9.09186e-07 1.36261e-06 6.96655e-05
0.000595231 3.88022e-05 9.18227e-07
3.88022e-05 2.28364e-05 2.26761e-06
9.18227e-07 2.26761e-06 -8.16501e-05
0.000105889 3.44962e-05 1.93547e-06
3.44962e-05 -0.000188052 2.98071e-06
1.93547e-06 2.98071e-06 -0.0002907
0.000824905 -4.2311e-06 1.08264e-06
-4.2311e-06 0.000167965 1.45425e-07
1.08264e-06 1.45425e-07 3.45709e-05
0.000852836 2.60029e-05 1.90963e-07
2.60029e-05 0.000189613 -9.85362e-07
1.90963e-07 -9.85362e-07 7.41628e-05
0.00025112 -9.02875e-06 9.10044e-07
-9.02875e-06 2.50701e-05 1.32229e-06
9.10044e-07 1.32229e-06 -0.00012732
-0.000826347 4.56227e-06 -2.48904e-06
4.56227e-06 -0.00037961 -1.82314e-07
-2.48904e-06 -1.82314e-07 -0.000605344
0.000949111 -4.72811e-06 -2.58902e-06
-4.72811e-06 0.000377841 -7.07362e-06
-2.58902e-06 -7.07362e-06 0.000240759
0.000964869 4.29613e-05 -1.63864e-06
4.29613e-05 0.000262838 -4.03574e-06
-1.63864e-06 -4.03574e-06 0.000128369
0.000886356 -0.000108262 1.59547e-06
-0.000108262 0.000202658 8.2324e-07
1.59547e-06 8.2324e-07 8.30238e-05
0.000751352 6.8232e-06 -4.38872e-07
6.8232e-06 0.000120705 -2.13707e-08
-4.38872e-07 -2.13707e-08 1.95133e-05
0.000644258 -5.55374e-05 -1.75877e-06
-5.55374e-05 6.20905e-05 3.2109e-06
-1.75877e-06 3.2109e-06 -2.83507e-05
0.000493608 -3.30235e-05 1.81401e-06
-3.30235e-05 -1.4966e-05 1.43246e-06
1.81401e-06 1.43246e-06 -0.00012341
0.000715736 8.39459e-06 3.03297e-07
8.39459e-06 0.000105604 -8.18657e-09
3.03297e-07 -8.18657e-09 3.77338e-06
0.000604091 -2.51968e-05 -7.1496e-07
-2.51968e-05 3.60567e-05 -2.17895e-08
-7.1496e-07 -2.17895e-08 -5.12348e-05
0.000959471 -2.13251e-05 -3.53489e-07
-2.13251e-05 0.000226875 -2.90563e-06
-3.53489e-07 -2.90563e-06 0.000134571
7.2148e-05 -3.89292e-05 3.33141e-06
-3.89292e-05 -0.000215513 -4.41691e-06
3.33141e-06 -4.41691e-06 -0.000295306
0.000279172 -9.42992e-05 1.41477e-06
-9.42992e-05 -0.000240894 -6.83494e-07
1.41477e-06 -6.83494e-07 -0.000335841
0.000826844 -5.90806e-05 -2.66855e-06
-5.90806e-05 0.000137677 -3.89751e-07
-2.66855e-06 -3.89751e-07 3.70139e-05
0.000522691 -0.000100303 5.07347e-06
-0.000100303 -2.51968e-05 3.41372e-06
5.07347e-06 3.41372e-06 -0.000167743
0.00119271 -0.000240765 -1.85566e-06
-0.000240765 0.000327937 7.56143e-06
-1.85566e-06 7.56143e-06 0.000105631
0.00129853 -0.000117032 1.58322e-06
-0.000117032 0.000463304 -1.22483e-06
1.58322e-06 -1.22483e-06 0.000325861
0.000291577 -7.33871e-05 -2.08413e-06
-7.33871e-05 -0.000132139 -4.81155e-06
-2.08413e-06 -4.81155e-06 -0.000283634
0.000645591 -7.343e-06 -2.57317e-07
-7.343e-06 6.1311e-05 -7.60224e-08
-2.57317e-07 -7.60224e-08 -4.63223e-05
0.000364141 -1.14798e-07 3.45146e-07
-1.14798e-07 -9.55599e-05 4.68236e-09
3.45146e-07 4.68236e-09 -0.000197355
0.000851042 -1.63886e-05 -6.54634e-07
-1.63886e-05 0.000177856 8.57695e-07
-6.54634e-07 8.57695e-07 7.16121e-05
0.000736718 -3.66655e-05 -5.64517e-07
-3.66655e-05 0.000121525 6.28707e-07
-5.64517e-07 6.28707e-07 1.89462e-05
0.000619386 -1.81698e-05 -6.03652e-07
-1.81698e-05 3.42218e-05 9.14794e-07
-6.03652e-07 9.14794e-07 -4.42e-05
0.000835461 -5.53128e-05 -1.26755e-07
-5.53128e-05 0.000194178 -6.1849e-07
-1.26755e-07 -6.1849e-07 8.12289e-05
0.000679488 -5.0701e-05 -5.82801e-07
-5.0701e-05 7.50533e-05 -3.27651e-08
-5.82801e-07 -3.27651e-08 -7.08277e-06
0.000594215 2.98491e-05 -1.96346e-06
2.98491e-05 5.96743e-07 1.86834e-06
-1.96346e-06 1.86834e-06 -5.28989e-05
0.000713194 -8.18474e-05 1.86225e-06
-8.18474e-05 9.76057e-05 -1.16344e-06
1.86225e-06 -1.16344e-06 1.15968e-05
0.000645624 -1.08258e-05 -2.6057e-07
-1.08258e-05 2.8644e-05 3.98223e-08
-2.6057e-07 3.98223e-08 -2.29645e-05
0.00137232 3.24438e-05 -7.38613e-06
3.24438e-05 0.000445769 5.50535e-06
-7.38613e-06 5.50535e-06 0.000432997
0.000618287 -2.98436e-05 1.97163e-06
-2.98436e-05 1.92384e-05 -2.19009e-06
1.97163e-06 -2.19009e-06 -3.43567e-05
0.000958052 1.98662e-05 -3.61325e-06
1.98662e-05 0.000198715 7.12536e-07
-3.61325e-06 7.12536e-07 0.000184555
0.000777614 2.32878e-05 -4.13435e-07
2.32878e-05 9.25386e-05 2.10505e-06
-4.13435e-07 2.10505e-06 9.89785e-05
0.000547913 8.4209e-06 4.93718e-07
8.4209e-06 -4.5771e-05 -3.88503e-06
4.93718e-07 -3.88503e-06 -6.14207e-05
0.0015612 2.29684e-05 5.70718e-06
2.29684e-05 0.000557754 -1.49042e-06
5.70718e-06 -1.49042e-06 0.000569096
0.00235607 1.60085e-05 4.24427e-06
1.60085e-05 0.00103122 -5.15177e-06
4.24427e-06 -5.15177e-06 0.0010467
0.00070053 9.0036e-06 1.33909e-06
9.0036e-06 8.96488e-05 -1.46662e-06
1.33909e-06 -1.46662e-06 6.06674e-06
0.000649907 3.06427e-05 -6.26612e-07
3.06427e-05 3.79733e-05 -1.84743e-06
-6.26612e-07 -1.84743e-06 -5.45325e-06
0.000698183 -3.12933e-06 1.16228e-06
-3.12933e-06 9.52394e-05 3.14128e-07
1.16228e-06 3.14128e-07 1.52746e-05
0.000585334 -2.50054e-06 3.63679e-07
-2.50054e-06 -2.81555e-05 -3.47239e-06
3.63679e-07 -3.47239e-06 -3.58166e-05
0.000599205 2.38283e-05 7.09531e-08
2.38283e-05 9.06225e-06 -2.67436e-08
7.09531e-08 -2.67436e-08 -3.15513e-05
0.000656546 -8.89967e-05 -3.51845e-06
-8.89967e-05 7.14257e-05 1.40362e-06
-3.51845e-06 1.40362e-06 -5.90376e-06
0.00202984 1.68051e-06 -1.84567e-06
1.68051e-06 0.000835484 -4.73754e-06
-1.84567e-06 -4.73754e-06 0.000854802
0.000580308 2.72943e-06 -1.81683e-07
2.72943e-06 -3.15562e-05 -8.14829e-09
-1.81683e-07 -8.14829e-09 -3.83152e-05
0.00059483 -2.02673e-05 -1.4873e-06
-2.02673e-05 4.07303e-06 1.61625e-06
-1.4873e-06 1.61625e-06 -3.42602e-05
0.000562607 7.66916e-06 -5.25303e-07
7.66916e-06 -4.21519e-05 3.18908e-06
-5.25303e-07 3.18908e-06 -4.87992e-05
0.0020355 1.57306e-05 -3.85291e-06
1.57306e-05 0.000840367 -4.72056e-08
-3.85291e-06 -4.72056e-08 0.000859285
0.00202447 2.77472e-05 -9.54542e-06
2.77472e-05 0.000836071 4.34044e-06
-9.54542e-06 4.34044e-06 0.000854369
-0.00438601 -0.000404954 -5.328e-05
-0.000404954 0.00163335 1.99483e-05
-5.328e-05 1.99483e-05 -0.000692811
-0.000643022 0.000521779 -8.34442e-05
0.000521779 -0.000398575 2.05059e-05
-8.34442e-05 2.05059e-05 -0.000994453
0.00366187 -0.000406615 -0.000262656
-0.000406615 0.00115503 0.000171831
-0.000262656 0.000171831 -0.00139563
-0.00298904 9.66915e-05 0.000372168
9.66915e-05 0.00208924 -0.000160477
0.000372168 -0.000160477 0.000447445
0.000288104 0.00027085 -2.15787e-05
0.00027085 -0.00128329 3.70347e-06
-2.15787e-05 3.70347e-06 -0.00125312
0.00246074 -0.000173083 0.000100015
-0.000173083 9.35732e-05 -8.84757e-06
0.000100015 -8.84757e-06 8.58868e-05
0.00102197 -0.000409945 -1.61725e-05
-0.000409945 -0.00225756 -6.4677e-05
-1.61725e-05 -6.4677e-05 -0.00372438
0.0106178 0.00112821 -0.000130585
0.00112821 0.00517725 -1.87485e-05
-0.000130585 -1.87485e-05 0.00447515
-0.00762473 0.00246548 -0.000638553
0.00246548 -0.00341205 0.000493469
-0.000638553 0.000493469 -0.00185404
0.00279545 -0.00011936 -3.6437e-06
-0.00011936 -0.000250276 -4.94756e-06
-3.6437e-06 -4.94756e-06 -0.000329532
0.00496672 -0.000483204 5.3119e-05
-0.000483204 -0.000196876 -6.07475e-05
5.3119e-05 -6.07475e-05 -0.00233817
0.0112022 0.00205868 -8.54802e-05
0.00205868 0.00346834 -8.13462e-05
-8.54802e-05 -8.13462e-05 0.00386976
0.00401504 0.00152778 -7.16147e-05
0.00152778 -0.00103792 0.000181565
-7.16147e-05 0.000181565 -0.000946004
0.00305262 -0.000710679 -7.0342e-05
-0.000710679 -0.000599086 1.91253e-05
-7.0342e-05 1.91253e-05 -0.000562963
0.00296581 -0.000999257 0.000204997
-0.000999257 0.000140837 -0.000130876
0.000204997 -0.000130876 -0.00320082
-0.0043003 0.00115917 -6.90215e-05
0.00115917 -0.00403623 -0.000337537
-6.90215e-05 -0.000337537 -0.00433528
0.0038232 0.000870982 -8.97631e-05
0.000870982 -0.00298285 5.81636e-06
-8.97631e-05 5.81636e-06 -0.00176565
0.00102553 -2.52806e-05 7.51191e-07
-2.52806e-05 0.000333684 3.85533e-06
7.51191e-07 3.85533e-06 0.000184673
0.000684394 7.30663e-05 -1.75723e-06
7.30663e-05 0.000114176 -1.25428e-06
-1.75723e-06 -1.25428e-06 -6.63609e-06
0.000640323 6.50451e-05 -3.77475e-09
6.50451e-05 6.39882e-05 -1.51053e-06
-3.77475e-09 -1.51053e-06 -2.25224e-05
0.000650401 6.24523e-05 3.30489e-06
6.24523e-05 0.000102234 6.29737e-07
3.30489e-06 6.29737e-07 -7.46016e-06
0.000638559 4.73556e-05 8.58998e-07
4.73556e-05 8.06315e-05 1.31079e-06
8.58998e-07 1.31079e-06 -6.45264e-05
0.00072599 6.64758e-05 -1.03081e-07
6.64758e-05 0.000141773 1.37151e-06
-1.03081e-07 1.37151e-06 1.67814e-05
0.000605193 2.79872e-05 -1.79384e-08
2.79872e-05 6.07612e-05 -9.33037e-08
-1.79384e-08 -9.33037e-08 -5.12557e-05
0.00088185 0.000128101 1.19018e-06
0.000128101 0.000230902 1.72577e-06
1.19018e-06 1.72577e-06 9.5613e-05
0.000835272 8.09155e-05 -8.30876e-08
8.09155e-05 0.000203035 3.64811e-07
-8.30876e-08 3.64811e-07 7.56511e-05
0.000512243 -6.72072e-06 -3.12026e-06
-6.72072e-06 6.48366e-06 -1.6133e-06
-3.12026e-06 -1.6133e-06 -0.000103825
0.00068515 -0.000209909 3.88252e-05
-0.000209909 -0.000666598 -1.86406e-05
3.88252e-05 -1.86406e-05 -0.000608421
0.000964467 -0.000454568 3.0836e-05
-0.000454568 -0.000428309 -4.43419e-06
3.0836e-05 -4.43419e-06 -0.000459564
0.00191242 -0.000637005 1.57924e-05
-0.000637005 0.000214029 1.553e-06
1.57924e-05 1.553e-06 3.81708e-05
0.00039235 -0.000376714 5.77683e-06
-0.000376714 -0.000163819 -1.16274e-05
5.77683e-06 -1.16274e-05 -0.000442112
0.00194786 -0.000197962 -2.36996e-06
-0.000197962 0.00096395 1.43854e-05
-2.36996e-06 1.43854e-05 0.000670924
0.000635895 -9.72241e-05 -1.19386e-06
-9.72241e-05 0.000134791 2.79944e-06
-1.19386e-06 2.79944e-06 -3.68796e-05
0.000474206 7.38155e-05 -1.4252e-07
7.38155e-05 4.50917e-06 -2.86876e-06
-1.4252e-07 -2.86876e-06 -0.000143312
0.000686626 -5.7418e-05 -5.50781e-07
-5.7418e-05 0.00013715 3.09601e-06
-5.50781e-07 3.09601e-06 -2.65436e-05
0.00140228 -0.000344563 1.28707e-06
-0.000344563 5.21101e-06 -1.22661e-06
1.28707e-06 -1.22661e-06 -0.000153121
0.00069803 -2.43195e-05 2.86174e-09
-2.43195e-05 0.000149726 1.20164e-06
2.86174e-09 1.20164e-06 -1.88732e-05
0.00148082 -0.000149106 -2.80536e-07
-0.000149106 0.000692918 -3.14679e-07
-2.80536e-07 -3.14679e-07 0.000438009
0.00153978 -0.000469493 2.11085e-06
-0.000469493 0.000114407 1.47816e-06
2.11085e-06 1.47816e-06 4.95803e-05
0.000861373 -0.00031381 -1.66145e-05
-0.00031381 0.000237205 4.64733e-06
-1.66145e-05 4.64733e-06 -4.19806e-05
0.000905513 -0.00055814 -1.03056e-05
-0.00055814 -0.00030096 -2.4493e-05
-1.03056e-05 -2.4493e-05 -0.000291429
0.00118497 -0.000275473 -1.85974e-05
-0.000275473 0.000438562 1.67791e-05
-1.85974e-05 1.67791e-05 0.000313567
-0.000974831 -3.34525e-05 2.43305e-06
-3.34525e-05 -0.000631921 2.1093e-05
2.43305e-06 2.1093e-05 -0.000921248
0.000707305 1.05961e-05 -7.6224e-07
1.05961e-05 0.000124868 -4.38447e-06
-7.6224e-07 -4.38447e-06 -2.48582e-05
0.000634117 4.15082e-05 2.50863e-06
4.15082e-05 0.000197146 -2.37774e-06
2.50863e-06 -2.37774e-06 -2.8226e-05
0.00174035 -5.01889e-05 -1.91447e-05
-5.01889e-05 0.00114919 -5.03534e-06
-1.91447e-05 -5.03534e-06 -0.000586945
-0.00268981 0.000109355 -0.000132182
0.000109355 0.00295316 -5.52925e-06
-0.000132182 -5.52925e-06 0.000678086
-0.00979057 -0.000629145 -0.000309222
-0.000629145 -0.00518974 2.88116e-06
-0.000309222 2.88116e-06 -0.00498745
-0.000219349 9.39063e-05 6.14284e-06
9.39063e-05 -0.000336461 -2.21596e-06
6.14284e-06 -2.21596e-06 -0.000486081
-2.26747e-05 0.000183232 2.27993e-06
0.000183232 -0.000206514 4.57359e-06
2.27993e-06 4.57359e-06 -0.000450637
0.00149625 0.00039673 1.97181e-05
0.00039673 0.000224198 7.77516e-06
1.97181e-05 7.77516e-06 0.000189585
-0.00397269 0.00049354 -1.8204e-05
0.00049354 0.00147664 1.6319e-05
-1.8204e-05 1.6319e-05 -0.00105474
0.00136458 0.000833847 -9.38166e-05
0.000833847 -7.40555e-05 -9.49735e-05
-9.38166e-05 -9.49735e-05 -0.0034431
0.00292307 0.00111861 0.000163605
0.00111861 0.000478739 3.99343e-05
0.000163605 3.99343e-05 3.64886e-05
0.000259537 0.000334078 6.90745e-06
0.000334078 -6.57255e-05 -2.73823e-05
6.90745e-06 -2.73823e-05 -0.000131179
0.0128504 -0.00148933 -2.19744e-06
-0.00148933 0.00372452 -0.000117681
-2.19744e-06 -0.000117681 0.00333247
0.00410459 0.000403814 0.000149587
0.000403814 0.0019127 7.67979e-05
0.000149587 7.67979e-05 -0.00109806
0.00954666 -0.0010817 6.36527e-05
-0.0010817 0.00145664 1.73374e-05
6.36527e-05 1.73374e-05 0.00269766
0.000878836 0.000202849 1.56958e-06
0.000202849 0.000374818 -2.11316e-06
1.56958e-06 -2.11316e-06 0.000229552
0.00337912 8.9702e-05 1.04938e-05
8.9702e-05 0.00155493 -8.16524e-07
1.04938e-05 -8.16524e-07 3.83583e-05
0.000542978 0.000118203 1.62299e-05
0.000118203 0.000117618 1.06578e-05
1.62299e-05 1.06578e-05 -0.00148987
-0.000272119 0.000210412 -7.30725e-06
0.000210412 -0.000149351 -1.71318e-06
-7.30725e-06 -1.71318e-06 -0.000352303
0.00215808 0.000612118 -7.63278e-05
0.000612118 0.00102159 -3.8871e-05
-7.63278e-05 -3.8871e-05 0.000170374
0.00284216 0.00170505 8.08008e-05
0.00170505 0.000974231 5.88126e-05
8.08008e-05 5.88126e-05 -0.00226598
0.0058931 0.000164767 -1.07713e-05
0.000164767 -0.00245691 -0.000114939
-1.07713e-05 -0.000114939 -0.000167077
0.0021501 -0.00123181 -3.35693e-05
-0.00123181 0.000509907 -4.68331e-05
-3.35693e-05 -4.68331e-05 -0.00122297
0.000924535 0.000159385 -5.93983e-06
0.000159385 0.000595895 -1.20926e-05
-5.93983e-06 -1.20926e-05 0.000427773
0.000402469 -6.03692e-05 -3.87793e-06
-6.03692e-05 4.08542e-05 -7.61059e-06
-3.87793e-06 -7.61059e-06 5.44151e-05
0.00272361 1.63012e-05 2.99084e-05
1.63012e-05 0.000284152 -8.403e-05
2.99084e-05 -8.403e-05 -0.000860756
0.00392797 0.000907252 9.43038e-05
0.000907252 -0.00281774 -1.07781e-05
9.43038e-05 -1.07781e-05 -0.00176521
-0.000705469 0.00011196 -3.02948e-06
0.00011196 1.01616e-05 -1.8349e-05
-3.02948e-06 -1.8349e-05 -0.000512815
0.0105243 0.00129336 0.000129767
0.00129336 0.00515034 4.90549e-05
0.000129767 4.90549e-05 0.0014669
-0.00884139 -0.000352252 7.11586e-05
-0.000352252 -0.00051921 0.000201216
7.11586e-05 0.000201216 -0.00254194
0.00199638 0.000218846 1.81965e-05
0.000218846 0.000953385 1.00335e-05
1.81965e-05 1.00335e-05 0.000823585
0.000555964 0.000119293 -4.51161e-06
0.000119293 0.000244617 -8.09696e-07
-4.51161e-06 -8.09696e-07 5.24157e-05
0.000117448 6.94175e-05 -1.62107e-06
6.94175e-05 0.000204477 -2.03587e-06
-1.62107e-06 -2.03587e-06 -1.53906e-05
0.000750543 0.000134962 6.42845e-07
0.000134962 0.000135117 1.28244e-06
6.42845e-07 1.28244e-06 -4.16988e-06
0.000715664 6.4077e-05 1.01233e-06
6.4077e-05 0.00010446 2.23362e-06
1.01233e-06 2.23362e-06 -6.69977e-06
0.000891199 2.05448e-07 7.23065e-06
2.05448e-07 0.000413425 6.64818e-06
7.23065e-06 6.64818e-06 0.000244976
0.000663617 4.45184e-05 -1.96033e-07
4.45184e-05 7.97406e-05 -2.74432e-07
-1.96033e-07 -2.74432e-07 -4.61567e-05
0.000804648 -2.04948e-05 -1.23231e-06
-2.04948e-05 0.000299549 -1.79596e-06
-1.23231e-06 -1.79596e-06 0.00015971
-0.000181862 2.96091e-05 4.30949e-06
2.96091e-05 -2.04648e-05 3.79417e-06
4.30949e-06 3.79417e-06 -0.000253124
0.000820917 8.27134e-06 -8.40939e-06
8.27134e-06 0.000468956 -7.56485e-06
-8.40939e-06 -7.56485e-06 0.00035338
0.000138326 -3.85863e-05 -3.97589e-06
-3.85863e-05 -9.77572e-05 -8.36612e-06
-3.97589e-06 -8.36612e-06 -0.000222107
0.000579431 -4.70256e-05 2.61096e-06
-4.70256e-05 2.32182e-05 3.84349e-06
2.61096e-06 3.84349e-06 -7.60638e-05
0.000788467 9.01937e-06 -8.38672e-07
9.01937e-06 0.000148471 7.36215e-08
-8.38672e-07 7.36215e-08 4.51545e-05
0.000902976 -1.95709e-05 -6.24249e-06
-1.95709e-05 0.000209722 4.19052e-06
-6.24249e-06 4.19052e-06 0.000122981
0.000685703 -4.65237e-05 3.4828e-06
-4.65237e-05 0.00013327 -1.83166e-07
3.4828e-06 -1.83166e-07 5.18023e-05
0.000606652 -1.15677e-05 -6.87382e-07
-1.15677e-05 2.69581e-05 1.84388e-07
-6.87382e-07 1.84388e-07 -6.67324e-05
0.00076222 -8.99034e-05 3.20138e-06
-8.99034e-05 0.000144592 -3.02671e-07
3.20138e-06 -3.02671e-07 4.83934e-05
0.000394374 -8.38175e-05 -2.45512e-06
-8.38175e-05 -0.00013879 -1.14832e-06
-2.45512e-06 -1.14832e-06 -0.000220725
-0.000164759 -0.000156925 7.89244e-06
-0.000156925 -0.000441448 1.08602e-06
7.89244e-06 1.08602e-06 -0.000620845
0.000905348 -8.43687e-05 -9.00742e-07
-8.43687e-05 0.00019021 9.54131e-07
-9.00742e-07 9.54131e-07 8.406e-05
0.00114892 -0.000163903 -5.33333e-07
-0.000163903 0.000328037 2.65372e-06
-5.33333e-07 2.65372e-06 0.00017269
0.000770911 -0.000233457 -3.78779e-06
-0.000233457 3.95654e-05 4.93721e-06
-3.78779e-06 4.93721e-06 -0.000183555
0.000938821 -0.000225527 -4.26828e-06
-0.000225527 0.000139972 4.05497e-07
-4.26828e-06 4.05497e-07 -8.13712e-05
0.00102561 -0.000184023 -2.12463e-06
-0.000184023 0.000319087 4.20765e-06
-2.12463e-06 4.20765e-06 0.000137734
0.000379848 -0.000158047 1.97324e-06
-0.000158047 -0.000143099 -1.0164e-07
1.97324e-06 -1.0164e-07 -0.000349504
0.000897871 -7.21121e-05 1.18543e-06
-7.21121e-05 0.000218183 -9.5422e-08
1.18543e-06 -9.5422e-08 9.72235e-05
0.00104085 -0.00010948 -1.46279e-06
-0.00010948 0.000321219 -4.22662e-07
-1.46279e-06 -4.22662e-07 0.000179835
0.000464827 -9.48375e-05 3.27806e-06
-9.48375e-05 -1.71467e-05 -1.01332e-05
3.27806e-06 -1.01332e-05 -0.000167154
0.000947563 -2.46451e-05 -5.3054e-07
-2.46451e-05 0.000229606 -3.46244e-07
-5.3054e-07 -3.46244e-07 0.00012382
0.000492383 -8.39805e-06 3.20429e-07
-8.39805e-06 -1.80715e-05 -1.02931e-07
3.20429e-07 -1.02931e-07 -0.000121968
0.000617578 -6.64032e-06 -3.3774e-07
-6.64032e-06 3.42106e-05 6.74737e-07
-3.3774e-07 6.74737e-07 -4.92937e-05
0.000800043 -5.30616e-05 -1.44351e-07
-5.30616e-05 0.000168666 2.61603e-07
-1.44351e-07 2.61603e-07 5.71826e-05
0.000679503 -3.27995e-05 -1.20326e-07
-3.27995e-05 7.7338e-05 5.17601e-08
-1.20326e-07 5.17601e-08 -7.50982e-06
0.000596522 2.98794e-05 -5.20806e-07
2.98794e-05 7.0764e-06 1.91093e-06
-5.20806e-07 1.91093e-06 -5.01303e-05
0.000735974 -6.62896e-05 6.01033e-07
-6.62896e-05 0.000115437 -1.21371e-06
6.01033e-07 -1.21371e-06 2.76693e-05
0.000619386 2.11994e-05 -9.52053e-07
2.11994e-05 1.59352e-05 -5.87039e-08
-9.52053e-07 -5.87039e-08 -3.82683e-05
0.00133319 4.51168e-05 -8.38825e-06
4.51168e-05 0.000425655 3.66028e-06
-8.38825e-06 3.66028e-06 0.000411984
0.000652503 -2.26533e-05 2.26775e-06
-2.26533e-05 3.37919e-05 -2.18892e-06
2.26775e-06 -2.18892e-06 -1.86547e-05
0.000940028 2.92295e-05 -4.55468e-06
2.92295e-05 0.000188375 6.30966e-07
-4.55468e-06 6.30966e-07 0.000173772
0.000801987 3.202e-05 -1.02127e-06
3.202e-05 0.000110402 2.1604e-06
-1.02127e-06 2.1604e-06 0.000115673
0.000531672 1.54834e-05 8.10055e-07
1.54834e-05 -5.6579e-05 -4.10072e-06
8.10055e-07 -4.10072e-06 -7.23962e-05
0.00157016 3.44327e-05 7.76444e-06
3.44327e-05 0.000565824 -1.35256e-06
7.76444e-06 -1.35256e-06 0.000576073
0.00235379 3.06766e-05 7.8861e-06
3.06766e-05 0.00103156 -5.06416e-06
7.8861e-06 -5.06416e-06 0.00104642
0.000447302 5.20412e-06 8.8239e-07
5.20412e-06 -4.94531e-05 -6.43368e-07
8.8239e-07 -6.43368e-07 -0.000151781
0.00031891 3.86814e-06 -2.27373e-08
3.86814e-06 -0.000158082 -3.26626e-06
-2.27373e-08 -3.26626e-06 -0.000209526
0.000743896 1.9386e-05 2.68585e-08
1.9386e-05 0.000121182 1.19689e-07
2.68585e-08 1.19689e-07 3.31039e-05
0.000580156 -7.5765e-06 3.19297e-07
-7.5765e-06 -3.10073e-05 -3.64965e-06
3.19297e-07 -3.64965e-06 -4.04105e-05
0.000451084 3.53588e-06 1.11271e-06
3.53588e-06 -8.0626e-05 -7.64951e-08
1.11271e-06 -7.64951e-08 -0.000124796
0.000437137 -7.9986e-05 -1.40424e-06
-7.9986e-05 -5.82885e-05 7.99634e-07
-1.40424e-06 7.99634e-07 -0.00014105
0.00209234 -1.13875e-05 -6.21842e-06
-1.13875e-05 0.000872835 -4.78849e-06
-6.21842e-06 -4.78849e-06 0.000891586
0.000581196 -2.57988e-06 -1.05777e-07
-2.57988e-06 -3.07765e-05 -4.4401e-08
-1.05777e-07 -4.4401e-08 -3.8342e-05
0.000580101 -1.21228e-05 -1.58535e-06
-1.21228e-05 -3.64273e-06 1.81288e-06
-1.58535e-06 1.81288e-06 -4.33004e-05
0.00204213 3.04862e-06 -3.8684e-06
3.04862e-06 0.000842939 1.07499e-08
-3.8684e-06 1.07499e-08 0.000862199
0.000564616 2.49072e-06 -4.11032e-07
2.49072e-06 -4.05204e-05 3.2896e-06
-4.11032e-07 3.2896e-06 -4.72614e-05
0.002033 1.7123e-05 -2.51446e-06
1.7123e-05 0.000839008 4.5343e-06
-2.51446e-06 4.5343e-06 0.000857873
0.000419068 -0.000187395 -9.80256e-05
-0.000187395 -0.000172837 2.93178e-05
-9.80256e-05 2.93178e-05 -0.00173812
0.00146597 0.000166789 -2.98378e-05
0.000166789 0.0035692 -7.3686e-06
-2.98378e-05 -7.3686e-06 0.00208045
0.00110033 -0.000340395 -0.000273035
-0.000340395 0.00205507 6.67951e-06
-0.000273035 6.67951e-06 0.00108413
0.000759639 8.10469e-05 1.85485e-06
8.10469e-05 0.000138239 5.5429e-07
1.85485e-06 5.5429e-07 7.07244e-06
0.00363009 -0.000260322 -3.1925e-05
-0.000260322 0.00232892 9.5413e-05
-3.1925e-05 9.5413e-05 0.0010222
0.00360623 -0.00045646 -9.95767e-05
-0.00045646 0.00122867 7.81248e-06
-9.95767e-05 7.81248e-06 -0.00157171
0.00243323 0.000714259 0.000190296
0.000714259 0.00334677 -0.000166807
0.000190296 -0.000166807 0.00217289
0.00388189 -0.000238286 2.72524e-05
-0.000238286 0.000162586 -3.35788e-05
2.72524e-05 -3.35788e-05 -0.000119926
0.0115876 -0.000446235 0.000117691
-0.000446235 0.00307183 -6.25372e-05
0.000117691 -6.25372e-05 0.00143323
-0.00200153 0.00167383 -0.000135542
0.00167383 -0.00361619 0.000154759
-0.000135542 0.000154759 -0.00299751
0.0056525 0.00165496 4.05452e-05
0.00165496 0.000225384 4.92983e-05
4.05452e-05 4.92983e-05 0.000106065
0.00491419 -0.000840123 -8.81588e-05
-0.000840123 0.000241551 -1.12839e-06
-8.81588e-05 -1.12839e-06 -0.000149907
0.0107449 -0.000865834 5.63659e-05
-0.000865834 0.00387708 -1.45597e-05
5.63659e-05 -1.45597e-05 0.00172741
0.00682451 0.00109447 6.98956e-05
0.00109447 0.000645455 -0.000127819
6.98956e-05 -0.000127819 0.000147265
0.0056294 0.000798695 -4.73743e-06
0.000798695 -0.00159118 1.21702e-05
-4.73743e-06 1.21702e-05 -0.000645194
0.00387826 -0.00129413 2.1372e-05
-0.00129413 0.000371625 2.66039e-06
2.1372e-05 2.66039e-06 -0.000426916
0.0114006 -0.0014535 9.77457e-05
-0.0014535 0.00537754 -5.06495e-05
9.77457e-05 -5.06495e-05 0.00167924
0.00368805 -0.000130368 6.95366e-05
-0.000130368 0.000500265 -0.000191613
6.95366e-05 -0.000191613 -4.71868e-05
0.00739746 0.000413311 -4.52787e-05
0.000413311 -0.000907389 0.000108395
-4.52787e-05 0.000108395 0.000949694
0.000674624 -2.22415e-05 9.91221e-07
-2.22415e-05 0.000112346 1.99065e-06
9.91221e-07 1.99065e-06 -4.10323e-05
0.000820511 -6.14154e-05 -1.7702e-07
-6.14154e-05 0.000217012 -5.18682e-08
-1.7702e-07 -5.18682e-08 6.34092e-05
0.000807576 9.63271e-05 -5.71997e-07
9.63271e-05 0.000192034 -2.34863e-06
-5.71997e-07 -2.34863e-06 6.88806e-05
0.000733943 4.6054e-05 7.29487e-07
4.6054e-05 0.000113374 2.51586e-06
7.29487e-07 2.51586e-06 -1.52058e-05
0.000818098 9.68228e-05 -5.14666e-07
9.68228e-05 0.000196153 7.35912e-07
-5.14666e-07 7.35912e-07 4.99773e-05
0.000890536 6.26549e-05 -1.57552e-06
6.26549e-05 0.000238181 -3.96891e-08
-1.57552e-06 -3.96891e-08 0.000114411
0.000989535 0.000119007 -9.33566e-07
0.000119007 0.00029203 -1.17421e-07
-9.33566e-07 -1.17421e-07 0.000157369
0.000971051 0.000126146 7.81819e-07
0.000126146 0.000294016 2.51939e-06
7.81819e-07 2.51939e-06 0.00016076
0.000338467 -0.000234787 5.01023e-05
-0.000234787 -0.000633101 -2.15249e-05
5.01023e-05 -2.15249e-05 -0.000646356
0.00179689 -0.000488957 1.02856e-05
-0.000488957 0.000223813 -1.14066e-05
1.02856e-05 -1.14066e-05 0.000168214
0.000883294 -0.000174275 -7.30845e-07
-0.000174275 0.000260958 -2.9897e-06
-7.30845e-07 -2.9897e-06 8.84382e-05
0.00196284 -0.000401649 1.82739e-05
-0.000401649 0.000835383 -2.17789e-05
1.82739e-05 -2.17789e-05 0.000558318
0.00224284 -0.000202869 -4.51478e-06
-0.000202869 0.001125 5.90795e-06
-4.51478e-06 5.90795e-06 0.000865936
0.000990784 -7.53366e-05 -1.65921e-06
-7.53366e-05 0.000311008 -4.07184e-06
-1.65921e-06 -4.07184e-06 0.000142232
0.000576013 -5.04406e-06 7.81228e-07
-5.04406e-06 5.69303e-05 2.48823e-06
7.81228e-07 2.48823e-06 -9.71754e-05
0.000226927 -0.000513788 -6.22702e-06
-0.000513788 -0.000678235 -6.99685e-07
-6.22702e-06 -6.99685e-07 -0.000643002
0.00125764 5.04452e-05 2.15557e-07
5.04452e-05 0.000557534 5.29018e-07
2.15557e-07 5.29018e-07 0.000325075
0.000934856 -0.000171279 -1.5127e-05
-0.000171279 0.000398392 3.17778e-06
-1.5127e-05 3.17778e-06 0.000132963
0.000518069 -0.000190357 1.00486e-05
-0.000190357 3.28443e-05 4.30331e-06
1.00486e-05 4.30331e-06 -4.0271e-05
0.000934734 6.05475e-05 1.85344e-06
6.05475e-05 0.00024119 -2.7686e-06
1.85344e-06 -2.7686e-06 0.00010388
0.00123606 -0.000434095 1.89884e-05
-0.000434095 -1.69414e-05 -3.47334e-05
1.89884e-05 -3.47334e-05 0.000141895
-0.000283501 -0.000109293 1.24234e-05
-0.000109293 -0.000136922 2.31124e-05
1.24234e-05 2.31124e-05 -0.00024781
-0.000173442 4.18202e-05 2.71591e-06
4.18202e-05 -5.79973e-05 7.14199e-06
2.71591e-06 7.14199e-06 -0.000410287
0.00137653 0.000197622 1.84452e-06
0.000197622 0.000573704 -5.0727e-06
1.84452e-06 -5.0727e-06 0.000394489
0.000459606 -1.72078e-05 -3.52083e-06
-1.72078e-05 0.000708909 -9.17631e-06
-3.52083e-06 -9.17631e-06 7.22752e-05
0.00128966 -5.22739e-05 8.12241e-05
-5.22739e-05 0.000957234 -9.83966e-06
8.12241e-05 -9.83966e-06 -0.000801512
-0.00546459 -6.21663e-05 -0.00014559
-6.21663e-05 0.00212996 5.60649e-06
-0.00014559 5.60649e-06 -0.000622136
0.00105632 0.000203709 1.44681e-05
0.000203709 0.000536873 3.59441e-06
1.44681e-05 3.59441e-06 0.000383003
-0.0011389 0.000261006 7.10323e-06
0.000261006 -0.000647043 1.07114e-05
7.10323e-06 1.07114e-05 -0.000913722
0.00380332 8.10232e-05 9.11436e-05
8.10232e-05 0.00197071 2.31386e-06
9.11436e-05 2.31386e-06 0.000743313
0.00778477 0.000845452 0.000147158
0.000845452 0.00348998 7.99057e-05
0.000147158 7.99057e-05 5.21359e-05
0.00325676 0.000860403 -0.000106902
0.000860403 0.00154417 -8.58404e-05
-0.000106902 -8.58404e-05 0.000472672
0.0045401 -0.000796909 -1.30301e-05
-0.000796909 0.00145019 -0.000210113
-1.30301e-05 -0.000210113 -7.19924e-05
0.000949955 0.000141972 5.09993e-05
0.000141972 0.00016621 0.000120357
5.09993e-05 0.000120357 -0.00142402
0.00426198 -4.18703e-05 -1.25966e-05
-4.18703e-05 -0.00404842 -0.000115528
-1.25966e-05 -0.000115528 -0.00134174
0.00069587 0.000177559 4.16078e-07
0.000177559 0.000468121 -1.85982e-06
4.16078e-07 -1.85982e-06 0.000281397
0.00036778 -5.67015e-05 1.16561e-06
-5.67015e-05 5.02026e-05 -1.61874e-06
1.16561e-06 -1.61874e-06 4.77162e-05
0.00280162 4.38592e-05 3.78419e-05
4.38592e-05 0.000442634 1.63833e-05
3.78419e-05 1.63833e-05 -0.000319922
-0.000941404 0.000154903 -7.78784e-06
0.000154903 -0.000335998 -5.34931e-06
-7.78784e-06 -5.34931e-06 -0.000758337
0.00584752 0.000887138 4.75722e-06
0.000887138 -0.001523 -1.25273e-05
4.75722e-06 -1.25273e-05 -0.000637423
0.00492874 0.000995322 0.000118893
0.000995322 0.00303881 5.84617e-05
0.000118893 5.84617e-05 -0.000826101
0.00342025 0.00039669 -7.17553e-05
0.00039669 0.00238247 6.16217e-06
-7.17553e-05 6.16217e-06 0.0010546
0.000423293 0.00019758 -1.58666e-05
0.00019758 0.000343275 -1.61432e-05
-1.58666e-05 -1.61432e-05 8.24018e-05
0.00169273 6.6658e-05 9.75795e-06
6.6658e-05 -0.000205112 -1.4071e-05
9.75795e-06 -1.4071e-05 -2.163e-05
0.00371082 -0.000212788 3.57653e-05
-0.000212788 0.00232733 -9.64308e-05
3.57653e-05 -9.64308e-05 0.00106362
0.00706153 0.00167925 0.000192495
0.00167925 0.000727645 -0.000130298
0.000192495 -0.000130298 0.000846919
0.00658307 -0.000143488 -8.69373e-05
-0.000143488 0.00149321 0.000186471
-8.69373e-05 0.000186471 0.00112879
0.00083535 0.000177166 -1.04686e-05
0.000177166 6.98679e-05 -6.54382e-05
-1.04686e-05 -6.54382e-05 -5.23977e-05
-0.00070574 0.00104168 0.000123538
0.00104168 0.00266684 3.08766e-05
0.000123538 3.08766e-05 -0.00312458
0.00103826 0.00018081 3.68686e-06
0.00018081 0.000487777 1.23283e-05
3.68686e-06 1.23283e-05 0.000293768
0.000148891 9.44663e-05 2.68083e-06
9.44663e-05 0.000214591 1.43107e-06
2.68083e-06 1.43107e-06 -9.25929e-06
0.00105579 1.06299e-05 -1.23468e-05
1.06299e-05 0.000768085 -1.26552e-05
-1.23468e-05 -1.26552e-05 0.000626213
0.000366024 -2.2975e-05 1.20345e-06
-2.2975e-05 -0.000107902 4.3044e-06
1.20345e-06 4.3044e-06 -0.000220603
0.000681654 -2.38818e-05 2.4777e-06
-2.38818e-05 0.000231136 5.35687e-06
2.4777e-06 5.35687e-06 9.17893e-05
0.000390187 -1.32315e-05 2.35982e-06
-1.32315e-05 0.000281523 1.91029e-06
2.35982e-06 1.91029e-06 4.90441e-05
0.000574052 -6.29284e-05 5.47758e-07
-6.29284e-05 0.000131952 -3.37943e-07
5.47758e-07 -3.37943e-07 2.15359e-05
0.000117914 -1.18224e-05 1.01493e-06
-1.18224e-05 5.72924e-05 1.68043e-06
1.01493e-06 1.68043e-06 -6.05559e-05
0.0011241 -0.000207167 9.19342e-06
-0.000207167 0.000592464 -8.82115e-06
9.19342e-06 -8.82115e-06 0.000409936
0.00126494 -6.51666e-05 -1.53375e-06
-6.51666e-05 0.000463429 3.9609e-06
-1.53375e-06 3.9609e-06 0.000378693
0.000141768 3.65059e-06 -1.18064e-06
3.65059e-06 -0.000237074 1.71309e-06
-1.18064e-06 1.71309e-06 -0.000330482
0.00142377 -0.000149533 1.29751e-06
-0.000149533 0.000517339 2.18478e-06
1.29751e-06 2.18478e-06 0.00040944
-0.000568981 -0.000135959 5.125e-06
-0.000135959 -0.000525612 1.68549e-06
5.125e-06 1.68549e-06 -0.000752295
0.000404197 -6.62337e-05 -5.60485e-06
-6.62337e-05 -9.93578e-05 7.26507e-07
-5.60485e-06 7.26507e-07 -0.000167273
2.72337e-05 -0.000157875 2.48257e-06
-0.000157875 -0.000334605 -1.12818e-06
2.48257e-06 -1.12818e-06 -0.000499961
0.00108133 -0.00028949 1.05266e-05
-0.00028949 0.000189615 -3.03582e-06
1.05266e-05 -3.03582e-06 -6.75634e-05
0.00132675 -0.000327153 -4.68485e-06
-0.000327153 0.000213598 3.31118e-06
-4.68485e-06 3.31118e-06 -4.99243e-05
0.00178517 -0.000227838 -2.64736e-06
-0.000227838 0.000687736 6.40785e-08
-2.64736e-06 6.40785e-08 0.000519247
0.000924156 -0.000248661 -5.37025e-07
-0.000248661 0.000100702 4.24571e-07
-5.37025e-07 4.24571e-07 -0.000135669
0.00217633 -0.000350705 2.75248e-06
-0.000350705 0.000835664 -1.15325e-06
2.75248e-06 -1.15325e-06 0.000604643
0.00024621 -0.000131234 -1.42311e-06
-0.000131234 -0.000183066 2.22552e-06
-1.42311e-06 2.22552e-06 -0.000379642
0.000958406 -0.000223558 -2.06353e-07
-0.000223558 0.000157558 -4.08653e-07
-2.06353e-07 -4.08653e-07 -6.03655e-05
0.000546905 -6.3979e-05 3.09779e-07
-6.3979e-05 2.45391e-05 -6.09374e-07
3.09779e-07 -6.09374e-07 -0.000120566
0.00105277 -0.000197266 -3.93407e-06
-0.000197266 0.000336416 2.3719e-06
-3.93407e-06 2.3719e-06 0.000151782
-0.00042351 -7.64833e-05 -2.32227e-06
-7.64833e-05 -0.000607374 -3.99555e-06
-2.32227e-06 -3.99555e-06 -0.00079911
0.000573225 1.54258e-05 8.59512e-07
1.54258e-05 1.71752e-05 1.10191e-06
8.59512e-07 1.10191e-06 -8.11952e-05
0.000732423 -5.64584e-05 7.90799e-07
-5.64584e-05 0.000128498 -1.76722e-07
7.90799e-07 -1.76722e-07 6.06935e-06
0.000806581 -0.000102272 3.48954e-06
-0.000102272 0.000191856 -2.85323e-06
3.48954e-06 -2.85323e-06 4.6159e-05
0.000641772 -1.88161e-05 2.10623e-07
-1.88161e-05 7.16469e-05 -2.38923e-07
2.10623e-07 -2.38923e-07 -3.45147e-05
0.000691113 -1.90038e-05 -6.5129e-07
-1.90038e-05 8.64308e-05 -1.38652e-07
-6.5129e-07 -1.38652e-07 -4.51835e-06
0.000585998 3.40017e-05 -5.27618e-07
3.40017e-05 2.94484e-06 2.3383e-06
-5.27618e-07 2.3383e-06 -5.84978e-05
0.000754759 -4.51456e-05 5.33513e-07
-4.51456e-05 0.000128537 -7.60359e-07
5.33513e-07 -7.60359e-07 3.77962e-05
0.000619067 2.61218e-05 -8.1849e-07
2.61218e-05 1.88342e-05 -1.26699e-07
-8.1849e-07 -1.26699e-07 -3.78138e-05
0.000556522 4.21296e-05 -1.05244e-06
4.21296e-05 -3.14292e-05 4.14785e-06
-1.05244e-06 4.14785e-06 -5.11478e-05
0.000681527 -1.37563e-05 2.16998e-06
-1.37563e-05 4.87569e-05 -2.03113e-06
2.16998e-06 -2.03113e-06 -3.44754e-06
0.000560821 3.28373e-05 1.62053e-07
3.28373e-05 -3.57371e-05 4.56395e-09
1.62053e-07 4.56395e-09 -5.30914e-05
0.00224851 7.44772e-05 -4.00711e-06
7.44772e-05 0.000980464 1.90198e-06
-4.00711e-06 1.90198e-06 0.000990546
0.000532439 2.44904e-05 9.51595e-07
2.44904e-05 -5.50381e-05 -4.1665e-06
9.51595e-07 -4.1665e-06 -7.15442e-05
0.00157116 4.5703e-05 9.2597e-06
4.5703e-05 0.000570408 -1.15962e-06
9.2597e-06 -1.15962e-06 0.000579298
0.00235726 4.47427e-05 1.25365e-05
4.47427e-05 0.00103665 -4.86261e-06
1.25365e-05 -4.86261e-06 0.0010504
0.000392586 4.03546e-06 7.40876e-07
4.03546e-06 -9.5486e-05 -1.77749e-06
7.40876e-07 -1.77749e-06 -0.000193908
0.000338801 2.58867e-07 2.27787e-07
2.58867e-07 -0.000148403 -2.82697e-06
2.27787e-07 -2.82697e-06 -0.000206734
0.000571204 1.65294e-05 -4.33118e-07
1.65294e-05 2.25603e-05 -1.04712e-06
-4.33118e-07 -1.04712e-06 -7.66941e-05
0.000582228 -1.33609e-05 4.74308e-07
-1.33609e-05 -2.82187e-05 -3.91771e-06
4.74308e-07 -3.91771e-06 -4.03784e-05
0.00030838 2.84039e-06 -4.29837e-07
2.84039e-06 -0.00016468 -1.22165e-06
-4.29837e-07 -1.22165e-06 -0.000217101
0.000741333 3.01675e-05 -2.79931e-07
3.01675e-05 0.000128658 1.74827e-06
-2.79931e-07 1.74827e-06 3.52205e-05
0.00214486 -2.44208e-05 -1.08787e-05
-2.44208e-05 0.000904993 -4.74912e-06
-1.08787e-05 -4.74912e-06 0.000922769
0.000576011 -7.92757e-06 -2.19356e-07
-7.92757e-06 -3.34183e-05 -4.74833e-08
-2.19356e-07 -4.74833e-08 -4.26893e-05
0.000275987 3.25761e-06 6.14038e-07
3.25761e-06 -0.000182864 1.79833e-06
6.14038e-07 1.79833e-06 -0.00022949
0.00207032 -9.89886e-06 -3.6086e-06
-9.89886e-06 0.000859472 4.20501e-08
-3.6086e-06 4.20501e-08 0.000878465
0.000572735 -2.6604e-06 -3.61038e-07
-2.6604e-06 -3.59173e-05 3.4237e-06
-3.61038e-07 3.4237e-06 -4.3353e-05
0.00205841 4.45704e-06 2.04568e-06
4.45704e-06 0.000852778 4.66993e-06
2.04568e-06 4.66993e-06 0.000871912
0.000803947 -1.46992e-06 1.2668e-05
-1.46992e-06 0.000476447 8.56617e-06
1.2668e-05 8.56617e-06 0.000336095
0.000855192 -0.000133666 9.94402e-07
-0.000133666 0.00013618 -1.12817e-05
9.94402e-07 -1.12817e-05 -0.00149772
0.0016306 7.99079e-05 2.98337e-05
7.99079e-05 0.00362274 -3.20378e-05
2.98337e-05 -3.20378e-05 0.00231868
0.000738326 8.717e-05 -1.69794e-07
8.717e-05 0.000118585 3.48865e-07
-1.69794e-07 3.48865e-07 -4.67546e-06
0.00055289 6.10157e-05 1.53796e-06
6.10157e-05 -6.02617e-06 -4.73356e-07
1.53796e-06 -4.73356e-07 -0.000122139
0.000961097 0.000123968 2.52896e-06
0.000123968 0.000250602 2.75054e-06
2.52896e-06 2.75054e-06 0.000117556
0.00269329 -5.36031e-05 2.18977e-06
-5.36031e-05 0.000143472 0.000159291
2.18977e-06 0.000159291 -0.000816204
0.00347556 -0.000228989 8.78981e-06
-0.000228989 0.00230588 -3.02224e-06
8.78981e-06 -3.02224e-06 0.00109171
0.00374575 -0.000506205 6.57117e-05
-0.000506205 0.00140896 -0.000122357
6.57117e-05 -0.000122357 -0.00165528
0.00569148 -0.000973119 -9.20286e-05
-0.000973119 0.000708024 -1.0034e-06
-9.20286e-05 -1.0034e-06 0.000323004
0.0022795 -0.000910776 -0.000129643
-0.000910776 1.32581e-05 8.06802e-05
-0.000129643 8.06802e-05 -0.00261099
0.0114757 0.00155123 0.000100511
0.00155123 0.00398032 4.7159e-05
0.000100511 4.7159e-05 0.00320898
0.00308017 0.000243883 7.65092e-05
0.000243883 -0.00303382 -9.59598e-05
7.65092e-05 -9.59598e-05 -0.00218291
0.00529303 -0.00142678 -1.62076e-05
-0.00142678 0.00115731 3.86638e-06
-1.62076e-05 3.86638e-06 0.000510709
0.00638354 -0.00121516 -2.33358e-05
-0.00121516 0.00300108 2.04652e-05
-2.33358e-05 2.04652e-05 -0.00040199
-0.00298169 0.00114596 -3.2941e-05
0.00114596 6.10067e-05 -0.000128675
-3.2941e-05 -0.000128675 -0.00190159
0.00576717 0.000113497 -1.66478e-05
0.000113497 -0.00251439 5.11125e-05
-1.66478e-05 5.11125e-05 -0.000183071
0.0017325 -0.000856305 -3.87688e-05
-0.000856305 0.000268233 -1.74563e-05
-3.87688e-05 -1.74563e-05 -0.000291401
0.0111475 -0.00147224 -7.38678e-05
-0.00147224 0.00495221 5.45987e-05
-7.38678e-05 5.45987e-05 0.00112225
-0.00907506 -0.000119133 3.8873e-05
-0.000119133 -0.000340619 -0.00019359
3.8873e-05 -0.00019359 -0.00263439
0.00422374 -0.000914825 4.12045e-05
-0.000914825 -0.00195462 -1.41056e-05
4.12045e-05 -1.41056e-05 -0.000888667
0.000686368 5.28436e-05 5.62604e-07
5.28436e-05 8.92335e-05 7.86152e-06
5.62604e-07 7.86152e-06 -4.95765e-05
0.000658499 3.89321e-07 8.03851e-07
3.89321e-07 0.000103565 -6.96322e-07
8.03851e-07 -6.96322e-07 -5.42141e-05
0.000827291 -8.06168e-05 6.65711e-07
-8.06168e-05 0.000213968 -2.28934e-06
6.65711e-07 -2.28934e-06 5.75648e-05
0.000738507 6.55327e-05 -7.78286e-07
6.55327e-05 0.000115576 -6.22028e-07
-7.78286e-07 -6.22028e-07 -1.60995e-05
0.000776296 0.000114623 8.88261e-07
0.000114623 0.000173354 -4.41382e-07
8.88261e-07 -4.41382e-07 3.26544e-05
0.00108266 0.000132466 -2.04753e-06
0.000132466 0.000349919 -8.10429e-07
-2.04753e-06 -8.10429e-07 0.000212963
-0.00019374 -0.000486926 1.8259e-05
-0.000486926 -0.000918643 9.01126e-06
1.8259e-05 9.01126e-06 -0.000910234
-0.000758465 -0.000104926 1.71662e-05
-0.000104926 -0.000700417 -1.8428e-05
1.71662e-05 -1.8428e-05 -0.00071855
0.000532918 4.57686e-05 -1.64789e-06
4.57686e-05 3.72393e-05 -1.41886e-06
-1.64789e-06 -1.41886e-06 -0.000123387
0.00212369 -0.000290188 4.31899e-05
-0.000290188 0.00102742 -3.14939e-05
4.31899e-05 -3.14939e-05 0.000772754
0.00152138 1.17984e-05 -3.59536e-06
1.17984e-05 0.000700716 -5.46295e-07
-3.59536e-06 -5.46295e-07 0.000471075
0.000593814 4.21033e-05 -2.15809e-07
4.21033e-05 4.84771e-05 2.17601e-06
-2.15809e-07 2.17601e-06 -9.20759e-05
0.000642154 0.000114012 4.71333e-07
0.000114012 0.000145429 -1.23693e-06
4.71333e-07 -1.23693e-06 -1.84196e-05
0.000468072 -0.000461965 -6.76975e-07
-0.000461965 -0.000400732 -4.38009e-06
-6.76975e-07 -4.38009e-06 -0.000404239
0.00078675 -1.86159e-05 -1.75095e-06
-1.86159e-05 0.000445658 2.378e-07
-1.75095e-06 2.378e-07 0.000153381
0.000339071 -8.7502e-05 9.21498e-06
-8.7502e-05 0.000251303 -1.22064e-06
9.21498e-06 -1.22064e-06 0.000116502
0.000752744 8.10463e-05 3.67851e-06
8.10463e-05 0.000156434 -1.22254e-05
3.67851e-06 -1.22254e-05 2.804e-05
-0.00232476 0.000104312 -7.14827e-05
0.000104312 -0.000902711 -1.16375e-05
-7.14827e-05 -1.16375e-05 -0.00133995
-0.000578473 4.1858e-05 2.01247e-05
4.1858e-05 -0.000263479 2.57025e-05
2.01247e-05 2.57025e-05 -0.000405086
0.00145196 1.29353e-05 6.24189e-06
1.29353e-05 0.000765459 1.80173e-06
6.24189e-06 1.80173e-06 0.000540813
0.00087421 -1.84959e-05 -9.62165e-07
-1.84959e-05 -0.000124034 8.37954e-07
-9.62165e-07 8.37954e-07 -0.000630678
0.000276043 -1.38438e-05 -1.57431e-05
-1.38438e-05 0.000506896 -1.19863e-05
-1.57431e-05 -1.19863e-05 -2.80941e-05
0.000738762 -3.85509e-05 0.000178222
-3.85509e-05 0.000744782 -9.88149e-06
0.000178222 -9.88149e-06 -0.00106317
0.000426372 0.000184953 9.0372e-06
0.000184953 0.00030471 1.5317e-05
9.0372e-06 1.5317e-05 0.000101295
0.00107924 0.000421882 1.00801e-05
0.000421882 0.000260305 -1.27062e-05
1.00801e-05 -1.27062e-05 -4.16216e-05
0.0003786 -5.82153e-05 1.06128e-05
-5.82153e-05 3.00094e-05 2.73517e-06
1.06128e-05 2.73517e-06 8.94749e-06
-0.00281691 0.000543552 4.32966e-05
0.000543552 0.000351136 6.70261e-05
4.32966e-05 6.70261e-05 -0.00352104
-0.0100971 0.000550254 -8.37784e-05
0.000550254 -0.00364633 -0.000240837
-8.37784e-05 -0.000240837 -0.00586167
0.00279001 5.15955e-05 3.63617e-05
5.15955e-05 0.000605369 6.26355e-05
3.63617e-05 6.26355e-05 0.000155351
0.00330558 0.000320328 -7.77265e-05
0.000320328 -0.00285299 9.62785e-05
-7.77265e-05 9.62785e-05 -0.00206719
0.000525669 0.000177205 7.15529e-06
0.000177205 0.000399342 -1.27849e-06
7.15529e-06 -1.27849e-06 0.000174897
0.0014988 1.3935e-06 1.41555e-05
1.3935e-06 -0.00032447 -2.48524e-05
1.41555e-05 -2.48524e-05 -0.000109022
0.00351174 -0.00016723 -8.72195e-06
-0.00016723 0.00229473 2.80314e-06
-8.72195e-06 2.80314e-06 0.00109245
0.00114946 0.000222624 -4.53822e-05
0.000222624 0.000536075 -4.56323e-06
-4.53822e-05 -4.56323e-06 -8.79633e-05
0.00407044 0.00157879 6.54441e-05
0.00157879 -0.00120192 -0.000177635
6.54441e-05 -0.000177635 -0.000922045
-0.00267275 0.00107386 3.14422e-05
0.00107386 -0.000589715 0.000124925
3.14422e-05 0.000124925 -0.0020962
0.00700822 7.59744e-05 6.08235e-05
7.59744e-05 0.00555859 -2.60064e-05
6.08235e-05 -2.60064e-05 0.000242358
0.00172244 -7.67559e-05 5.97023e-05
-7.67559e-05 0.0014011 -2.0886e-05
5.97023e-05 -2.0886e-05 0.000932711
0.000898413 2.8851e-05 -1.46767e-05
2.8851e-05 0.000488647 -7.68027e-06
-1.46767e-05 -7.68027e-06 0.000352312
0.00374146 -0.000363444 0.000269649
-0.000363444 0.00110726 -0.000170638
0.000269649 -0.000170638 -0.00138783
0.00548727 0.00210521 2.94539e-06
0.00210521 0.00399777 -1.2347e-05
2.94539e-06 -1.2347e-05 0.00451173
-0.00376022 0.00114973 3.02538e-05
0.00114973 -0.00406456 0.000336514
3.02538e-05 0.000336514 -0.00431297
0.0133336 -0.00141259 0.000127027
-0.00141259 0.00546469 -0.000107947
0.000127027 -0.000107947 0.00163017
0.00324051 -0.000430259 -6.68452e-05
-0.000430259 0.00125384 7.37346e-05
-6.68452e-05 7.37346e-05 0.000946864
0.000653839 0.000152302 7.93753e-06
0.000152302 0.000494779 5.70152e-06
7.93753e-06 5.70152e-06 0.000265388
0.000249578 5.01464e-06 -2.71548e-05
5.01464e-06 0.000277158 1.41278e-06
-2.71548e-05 1.41278e-06 0.000121147
0.00108264 -0.000282248 1.87699e-05
-0.000282248 0.000750875 -7.67924e-06
1.87699e-05 -7.67924e-06 0.000447924
0.000972688 -8.40029e-05 1.42217e-06
-8.40029e-05 0.000344856 3.54378e-06
1.42217e-06 3.54378e-06 0.000246891
-6.23837e-05 -2.97054e-05 3.23601e-06
-2.97054e-05 -5.12032e-05 6.47757e-06
3.23601e-06 6.47757e-06 -0.000172587
0.00030243 -0.000191735 -9.47561e-07
-0.000191735 0.000170928 -6.95226e-07
-9.47561e-07 -6.95226e-07 -5.45766e-06
0.00145625 -0.000324745 2.44937e-05
-0.000324745 0.000680611 -1.65392e-05
2.44937e-05 -1.65392e-05 0.000400709
0.00224534 -0.000211759 -6.16229e-06
-0.000211759 0.000983424 4.32281e-06
-6.16229e-06 4.32281e-06 0.000862895
0.00189371 -0.000363449 3.68992e-06
-0.000363449 0.000784906 -5.30048e-07
3.68992e-06 -5.30048e-07 0.000539705
0.00137727 -0.000341638 1.1009e-05
-0.000341638 0.000520324 2.10949e-06
1.1009e-05 2.10949e-06 0.000113953
0.000272887 -0.000151418 -2.62598e-06
-0.000151418 -0.000199968 -5.77757e-07
-2.62598e-06 -5.77757e-07 -0.000347862
0.0014407 -0.000321342 -1.31768e-06
-0.000321342 0.00036112 1.28039e-06
-1.31768e-06 1.28039e-06 9.30084e-05
0.00176125 -0.000416272 -6.96841e-07
-0.000416272 0.000476781 2.16465e-06
-6.96841e-07 2.16465e-06 0.000123952
0.0017221 -0.000432152 -3.80492e-06
-0.000432152 0.000335138 3.33142e-06
-3.80492e-06 3.33142e-06 3.85758e-05
0.00105409 -0.000283987 -2.9856e-07
-0.000283987 9.58135e-05 4.06982e-06
-2.9856e-07 4.06982e-06 -0.000142426
0.00129264 -0.000326248 -2.56523e-06
-0.000326248 0.000194653 1.68012e-06
-2.56523e-06 1.68012e-06 -7.31331e-05
0.00110724 -0.000267078 -7.53432e-06
-0.000267078 0.000177083 2.47539e-06
-7.53432e-06 2.47539e-06 -7.29679e-05
0.00172775 -0.000302457 5.19343e-06
-0.000302457 0.000604017 -9.76455e-07
5.19343e-06 -9.76455e-07 0.000383635
0.00149383 -0.000285673 2.87046e-06
-0.000285673 0.000438243 -2.90496e-06
2.87046e-06 -2.90496e-06 0.00022224
7.40881e-06 -6.00511e-05 1.34962e-06
-6.00511e-05 -0.000310252 2.77152e-07
1.34962e-06 2.77152e-07 -0.000483752
0.000811606 -0.000188273 1.90537e-06
-0.000188273 0.000153741 -1.23399e-06
1.90537e-06 -1.23399e-06 -5.03796e-05
0.00105082 -0.000228589 5.73415e-06
-0.000228589 0.000218288 -4.85094e-06
5.73415e-06 -4.85094e-06 2.89217e-06
0.000452266 1.74366e-05 1.33473e-06
1.74366e-05 -4.58477e-05 1.70481e-06
1.33473e-06 1.70481e-06 -0.000166055
0.000892838 -0.000100986 -3.31477e-07
-0.000100986 0.000233708 5.51297e-07
-3.31477e-07 5.51297e-07 7.94946e-05
0.00105277 -0.00020729 -1.0594e-06
-0.00020729 0.000338651 -7.33197e-07
-1.0594e-06 -7.33197e-07 0.000151485
0.000607643 1.93167e-05 -1.07646e-06
1.93167e-05 1.72064e-05 2.53899e-06
-1.07646e-06 2.53899e-06 -4.99471e-05
0.000726044 -1.93766e-05 -5.45562e-07
-1.93766e-05 0.000105293 -2.75622e-07
-5.45562e-07 -2.75622e-07 4.94578e-06
0.000553027 -4.05237e-05 -2.16958e-07
-4.05237e-05 3.15315e-05 -3.23999e-08
-2.16958e-07 -3.23999e-08 -9.28827e-05
0.000766083 -3.80731e-05 3.56705e-07
-3.80731e-05 0.000133761 -1.1393e-06
3.56705e-07 -1.1393e-06 3.90921e-05
0.000638111 5.43127e-06 -2.73802e-07
5.43127e-06 2.97771e-05 -1.69006e-07
-2.73802e-07 -1.69006e-07 -2.9832e-05
0.000540895 5.14825e-05 -4.44096e-07
5.14825e-05 -3.13411e-05 4.67786e-06
-4.44096e-07 4.67786e-06 -5.49611e-05
0.000650978 -4.27123e-06 1.81563e-06
-4.27123e-06 3.36512e-05 -1.94712e-06
1.81563e-06 -1.94712e-06 -2.0897e-05
0.000564358 4.39421e-05 -1.71407e-07
4.39421e-05 -2.65074e-05 -4.59552e-08
-1.71407e-07 -4.59552e-08 -4.65278e-05
0.00230779 8.20294e-05 -2.46482e-05
8.20294e-05 0.00102342 3.84522e-06
-2.46482e-05 3.84522e-06 0.00103205
0.000552261 3.37467e-05 1.01469e-06
3.37467e-05 -4.06741e-05 -4.09294e-06
1.01469e-06 -4.09294e-06 -5.81229e-05
0.00154691 5.70862e-05 1.11101e-05
5.70862e-05 0.000561785 -9.99201e-07
1.11101e-05 -9.99201e-07 0.000569012
0.00236069 5.89648e-05 1.64817e-05
5.89648e-05 0.00104329 -4.51539e-06
1.64817e-05 -4.51539e-06 0.0010555
0.000703671 6.53343e-05 4.26938e-07
6.53343e-05 9.35533e-05 -1.09169e-06
4.26938e-07 -1.09169e-06 -1.14302e-05
0.000627767 2.44245e-05 -2.7069e-07
2.44245e-05 2.03572e-05 -2.39613e-06
-2.7069e-07 -2.39613e-06 -4.06126e-05
0.000563472 3.98714e-05 -1.16736e-06
3.98714e-05 1.68666e-05 -1.11672e-06
-1.16736e-06 -1.11672e-06 -8.91217e-05
0.000565721 -1.87912e-05 5.6174e-07
-1.87912e-05 -3.62069e-05 -4.33516e-06
5.6174e-07 -4.33516e-06 -5.17263e-05
0.000444221 1.65131e-05 -1.42747e-06
1.65131e-05 -8.57077e-05 -1.20334e-06
-1.42747e-06 -1.20334e-06 -0.000142817
0.000777713 4.17444e-05 -3.162e-07
4.17444e-05 0.000144798 -7.16372e-07
-3.162e-07 -7.16372e-07 4.61648e-05
0.00224928 -3.83733e-05 -1.56619e-05
-3.83733e-05 0.000969207 -4.70393e-06
-1.56619e-05 -4.70393e-06 0.000985237
0.000568512 -1.33384e-05 -2.01958e-07
-1.33384e-05 -3.67148e-05 -7.03219e-08
-2.01958e-07 -7.03219e-08 -4.8614e-05
0.000252508 2.13334e-06 -8.61501e-07
2.13334e-06 -0.000197939 9.70459e-07
-8.61501e-07 9.70459e-07 -0.000251095
0.0021525 -2.32606e-05 -4.00254e-06
-2.32606e-05 0.000909296 9.71648e-08
-4.00254e-06 9.71648e-08 0.000927211
0.000570699 -8.42934e-06 -5.26749e-07
-8.42934e-06 -3.64623e-05 3.51409e-06
-5.26749e-07 3.51409e-06 -4.56343e-05
0.00208114 -8.43797e-06 6.74079e-06
-8.43797e-06 0.000865741 4.72833e-06
6.74079e-06 4.72833e-06 0.000884769
0.00156859 -4.46281e-05 -1.36787e-05
-4.46281e-05 -0.000227071 1.63317e-05
-1.36787e-05 1.63317e-05 -4.73831e-05
0.000847792 -2.94044e-05 7.49001e-06
-2.94044e-05 0.000435641 -2.26051e-06
7.49001e-06 -2.26051e-06 0.00033944
0.0013867 -0.000121792 0.000106321
-0.000121792 0.000375795 -2.98754e-05
0.000106321 -2.98754e-05 -0.00117613
0.000540772 2.06961e-05 6.34674e-07
2.06961e-05 -2.43997e-05 -6.01933e-07
6.34674e-07 -6.01933e-07 -0.000132741
0.000947118 5.42034e-05 -6.31757e-07
5.42034e-05 0.000210727 5.21343e-07
-6.31757e-07 5.21343e-07 9.06169e-05
0.000796645 9.57871e-05 -2.2575e-07
9.57871e-05 0.000151647 3.23118e-08
-2.2575e-07 3.23118e-08 3.20522e-05
0.000583331 4.45244e-05 2.11743e-07
4.45244e-05 4.66316e-06 2.1457e-07
2.11743e-07 2.1457e-07 -0.000106023
0.000703852 6.02108e-05 9.35323e-08
6.02108e-05 9.57749e-05 4.37664e-07
9.35323e-08 4.37664e-07 -3.10688e-05
0.000682575 5.56762e-05 1.27077e-06
5.56762e-05 7.48102e-05 -1.18859e-06
1.27077e-06 -1.18859e-06 -4.61977e-05
0.000657173 0.000146683 3.54144e-06
0.000146683 9.09681e-05 3.86413e-06
3.54144e-06 3.86413e-06 -5.51491e-05
-6.04509e-06 5.17576e-05 5.86412e-05
5.17576e-05 -1.09436e-05 0.000156854
5.86412e-05 0.000156854 -0.00144455
0.00263985 -3.95305e-05 -9.7203e-06
-3.95305e-05 0.000443196 4.97498e-05
-9.7203e-06 4.97498e-05 -0.000336088
0.00302446 -0.000165768 3.29094e-05
-0.000165768 0.00216314 -6.48638e-05
3.29094e-05 -6.48638e-05 0.00101767
0.00412134 -0.000115529 -8.12345e-06
-0.000115529 -0.00417494 5.55892e-05
-8.12345e-06 5.55892e-05 -0.00131402
0.00302175 -0.00116661 -9.19517e-05
-0.00116661 0.000973373 6.39328e-05
-9.19517e-05 6.39328e-05 0.00010914
-0.00185322 -0.00137922 -2.81405e-05
-0.00137922 -0.000219175 8.01349e-05
-2.81405e-05 8.01349e-05 -0.00413951
0.00866924 0.00179814 7.51494e-05
0.00179814 0.00464124 -5.33318e-05
7.51494e-05 -5.33318e-05 0.0026468
0.00333376 -0.00104692 -2.77086e-05
-0.00104692 0.00088601 4.7747e-06
-2.77086e-05 4.7747e-06 0.000377884
-0.000320938 -0.000511007 3.31942e-05
-0.000511007 0.00161573 2.59505e-05
3.31942e-05 2.59505e-05 -0.00290909
0.00458811 0.000149524 1.37541e-05
0.000149524 0.00250568 -1.00488e-05
1.37541e-05 -1.00488e-05 0.00115974
0.00906735 -0.00123082 -3.21549e-05
-0.00123082 0.00116823 -3.87726e-05
-3.21549e-05 -3.87726e-05 0.00234379
-0.00179376 1.38182e-05 -0.000173763
1.38182e-05 -0.00156326 7.89343e-05
-0.000173763 7.89343e-05 -0.00142092
0.00075899 0.00126848 -5.29333e-05
0.00126848 0.00194959 -8.31067e-05
-5.29333e-05 -8.31067e-05 -0.00261273
-0.00673048 -0.00195746 4.82325e-05
-0.00195746 -0.00371612 -0.000130291
4.82325e-05 -0.000130291 -0.00584251
0.0055308 -0.00117598 3.86162e-05
-0.00117598 -0.000498657 -0.000254421
3.86162e-05 -0.000254421 0.000602984
0.000879266 2.2571e-05 3.47695e-06
2.2571e-05 0.000216059 -4.83356e-07
3.47695e-06 -4.83356e-07 9.4472e-05
0.000639175 6.36477e-05 1.99441e-07
6.36477e-05 6.93794e-05 -1.14293e-06
1.99441e-07 -1.14293e-06 -7.04368e-05
0.000882621 -7.66318e-06 5.4088e-07
-7.66318e-06 0.000251314 -2.64944e-06
5.4088e-07 -2.64944e-06 7.95362e-05
0.000785823 5.2378e-05 -1.15798e-06
5.2378e-05 0.000152134 -4.3414e-06
-1.15798e-06 -4.3414e-06 1.11898e-05
0.000232038 -0.000410515 -5.8408e-06
-0.000410515 -0.000538226 3.00077e-05
-5.8408e-06 3.00077e-05 -0.000620071
0.00214196 -6.2933e-05 -2.5618e-05
-6.2933e-05 0.00127269 -2.50959e-05
-2.5618e-05 -2.50959e-05 0.00113026
0.000711918 3.7209e-05 -2.74934e-06
3.7209e-05 9.71869e-05 -3.43209e-06
-2.74934e-06 -3.43209e-06 -2.50182e-05
0.000695708 0.000148791 -1.41908e-06
0.000148791 0.000188138 4.93387e-06
-1.41908e-06 4.93387e-06 2.02887e-05
0.00281502 -4.2661e-05 1.34017e-05
-4.2661e-05 0.00153993 -2.09889e-05
1.34017e-05 -2.09889e-05 0.00132061
0.00089435 6.60283e-05 1.52787e-06
6.60283e-05 0.00023143 3.46644e-06
1.52787e-06 3.46644e-06 0.000110245
0.000634082 0.000110131 -2.53576e-06
0.000110131 0.00032718 -1.44057e-06
-2.53576e-06 -1.44057e-06 7.58568e-05
0.000257123 1.103e-05 4.86301e-05
1.103e-05 0.000354657 -1.55425e-05
4.86301e-05 -1.55425e-05 -0.000196231
0.000214434 1.81624e-05 2.43278e-05
1.81624e-05 0.000210787 -9.29528e-07
2.43278e-05 -9.29528e-07 8.30038e-05
0.000644145 0.000134998 -3.85076e-07
0.000134998 0.000276215 -7.62499e-06
-3.85076e-07 -7.62499e-06 0.000101619
-0.000258008 -7.69591e-05 -3.1296e-05
-7.69591e-05 0.000512135 -4.54073e-05
-3.1296e-05 -4.54073e-05 -0.00069743
0.0039383 0.000150446 2.53502e-05
0.000150446 0.00216556 2.26869e-05
2.53502e-05 2.26869e-05 0.00194775
0.000498944 4.82102e-08 -1.89373e-06
4.82102e-08 0.000717404 1.18192e-05
-1.89373e-06 1.18192e-05 7.67926e-05
0.00131347 -3.12007e-05 -1.50981e-07
-3.12007e-05 9.09799e-05 6.9685e-07
-1.50981e-07 6.9685e-07 -0.000140061
0.000118082 -1.48196e-05 9.94882e-07
-1.48196e-05 0.000306863 -1.69876e-05
9.94882e-07 -1.69876e-05 -0.000115116
-0.000188161 9.95196e-05 -1.26213e-06
9.95196e-05 5.69414e-05 5.8841e-06
-1.26213e-06 5.8841e-06 -0.000130576
-0.000953529 0.000310266 6.08071e-05
0.000310266 -0.000794697 4.93989e-05
6.08071e-05 4.93989e-05 -0.0010486
0.00131356 -2.73362e-05 1.7779e-05
-2.73362e-05 -0.000399364 -6.34008e-06
1.7779e-05 -6.34008e-06 -0.000143168
0.00332186 -0.00108163 0.000123562
-0.00108163 0.00365482 -0.000124262
0.000123562 -0.000124262 -0.00171169
0.00895801 0.00183406 -7.31285e-05
0.00183406 0.00421713 5.1671e-05
-7.31285e-05 5.1671e-05 0.00248731
0.00306388 -0.000103708 -3.72199e-05
-0.000103708 0.00213389 6.66161e-05
-3.72199e-05 6.66161e-05 0.000987209
0.00573357 0.001665 -3.37627e-05
0.001665 0.000241632 -4.73081e-05
-3.37627e-05 -4.73081e-05 0.000192869
-0.000121654 0.000130247 -3.30827e-05
0.000130247 0.000420233 9.60214e-06
-3.30827e-05 9.60214e-06 -0.000119813
0.000933871 8.97876e-06 -8.98861e-06
8.97876e-06 0.000435537 2.35362e-06
-8.98861e-06 2.35362e-06 0.000360535
0.00362361 -0.000415344 9.73988e-05
-0.000415344 0.00114041 -9.51495e-06
9.73988e-05 -9.51495e-06 -0.00160551
-5.30222e-05 -0.000193803 8.4657e-06
-0.000193803 -0.000500343 2.48401e-05
8.4657e-06 2.48401e-05 -0.000539801
-0.000837609 0.00226539 0.000142343
0.00226539 0.000489711 -6.61088e-05
0.000142343 -6.61088e-05 0.00153143
0.00699946 0.00108546 -6.53078e-05
0.00108546 0.000481827 0.000127322
-6.53078e-05 0.000127322 0.000159966
-0.00294826 -0.000788501 7.4219e-05
-0.000788501 0.000516314 -7.31796e-05
7.4219e-05 -7.31796e-05 -0.00461871
0.000387783 -0.000137224 3.75687e-05
-0.000137224 0.000370902 -7.42157e-06
3.75687e-05 -7.42157e-06 4.7363e-07
0.000584123 -0.000169028 8.71426e-05
-0.000169028 -0.000188858 -3.06067e-05
8.71426e-05 -3.06067e-05 -0.00172076
-0.00190619 9.66648e-05 -0.000265415
9.66648e-05 0.00204856 7.44192e-06
-0.000265415 7.44192e-06 0.000440262
0.00375779 0.00210056 -0.000200105
0.00210056 0.000389995 0.000279067
-0.000200105 0.000279067 0.000629123
0.00810268 -0.000875042 -3.25819e-06
-0.000875042 0.00365337 -3.54886e-07
-3.25819e-06 -3.54886e-07 0.000327244
0.00313464 -0.000530516 -5.95513e-05
-0.000530516 0.00106737 4.79966e-05
-5.95513e-05 4.79966e-05 0.000727728
-0.000834401 4.40874e-05 2.7197e-05
4.40874e-05 -0.000340185 9.14574e-06
2.7197e-05 9.14574e-06 -0.0005177
0.000142721 -0.000196123 -2.30851e-06
-0.000196123 0.000254673 4.16061e-07
-2.30851e-06 4.16061e-07 -4.41345e-05
-8.39526e-05 -0.000240033 1.21142e-05
-0.000240033 -0.000150997 -4.88073e-06
1.21142e-05 -4.88073e-06 -0.000328125
-0.000482954 -0.000166462 -6.28264e-06
-0.000166462 -0.000235299 6.40484e-06
-6.28264e-06 6.40484e-06 -0.00040266
-0.000619007 -0.000174882 -7.11614e-07
-0.000174882 -0.000416552 -4.35631e-06
-7.11614e-07 -4.35631e-06 -0.000693064
0.00346 -0.000602139 2.9612e-05
-0.000602139 0.0014126 -1.69533e-06
2.9612e-05 -1.69533e-06 0.00111403
0.00428093 -0.000598647 -8.70781e-06
-0.000598647 0.00204851 3.2502e-06
-8.70781e-06 3.2502e-06 0.00178287
0.00224739 -0.000423184 6.08822e-06
-0.000423184 0.000928707 4.94789e-07
6.08822e-06 4.94789e-07 0.000546562
0.00123489 -0.000396231 8.07186e-06
-0.000396231 0.000218907 -5.69265e-06
8.07186e-06 -5.69265e-06 -0.000186691
0.00177488 -0.000351895 -7.85879e-06
-0.000351895 0.000516802 1.90665e-06
-7.85879e-06 1.90665e-06 0.000238676
0.00218428 -0.000464609 1.05892e-06
-0.000464609 0.00067647 4.55205e-07
1.05892e-06 4.55205e-07 0.000315305
0.00193968 -0.000464928 9.44202e-07
-0.000464928 0.000494953 -5.7049e-06
9.44202e-07 -5.7049e-06 0.000134878
0.00195217 -0.000436357 -1.0689e-06
-0.000436357 0.000390413 -2.62848e-06
-1.0689e-06 -2.62848e-06 0.000129186
0.00179034 -0.00043265 -1.30292e-06
-0.00043265 0.000358438 2.92276e-06
-1.30292e-06 2.92276e-06 8.17102e-05
0.00168599 -0.000432954 -8.75071e-07
-0.000432954 0.000317241 -2.11183e-07
-8.75071e-07 -2.11183e-07 1.55275e-05
0.00065682 -0.000230766 5.96423e-06
-0.000230766 -0.000127034 1.56215e-06
5.96423e-06 1.56215e-06 -0.000337863
0.00117025 -0.000287889 1.86339e-06
-0.000287889 0.000158625 1.33558e-07
1.86339e-06 1.33558e-07 -7.2901e-05
0.00121327 -0.000320586 6.39144e-07
-0.000320586 0.000151453 -2.7067e-06
6.39144e-07 -2.7067e-06 -0.000120062
0.0012745 -0.000245734 3.46379e-06
-0.000245734 0.000371383 1.79659e-06
3.46379e-06 1.79659e-06 0.000153438
0.0012702 -0.000257671 -2.0102e-06
-0.000257671 0.000331774 -1.51295e-06
-2.0102e-06 -1.51295e-06 0.000118643
0.000709947 -0.000211342 4.95375e-06
-0.000211342 -1.78427e-05 -5.04581e-06
4.95375e-06 -5.04581e-06 -0.000217252
0.000479979 -6.82489e-05 2.37394e-06
-6.82489e-05 -2.13055e-05 1.34379e-06
2.37394e-06 1.34379e-06 -0.000183329
0.000495409 -0.000102906 -6.69538e-07
-0.000102906 -1.09907e-05 1.04305e-06
-6.69538e-07 1.04305e-06 -0.000191448
0.00138058 -0.00024573 2.73678e-06
-0.00024573 0.000491949 -4.26886e-06
2.73678e-06 -4.26886e-06 0.000280314
0.000489428 2.61948e-05 -5.74315e-09
2.61948e-05 -4.37854e-05 3.09876e-06
-5.74315e-09 3.09876e-06 -0.000124525
0.000721991 -2.79651e-05 -4.31154e-07
-2.79651e-05 0.000118216 -4.91416e-07
-4.31154e-07 -4.91416e-07 -1.09565e-05
0.00122281 -0.000138689 6.84389e-07
-0.000138689 0.000432466 -3.57465e-07
6.84389e-07 -3.57465e-07 0.000270196
0.00050622 6.03061e-05 -7.3796e-07
6.03061e-05 -4.09948e-05 6.76631e-06
-7.3796e-07 6.76631e-06 -6.91907e-05
0.000640368 1.53499e-05 -2.73357e-07
1.53499e-05 3.45226e-05 -2.64269e-07
-2.73357e-07 -2.64269e-07 -3.25066e-05
0.000865171 -4.27648e-05 -1.85594e-07
-4.27648e-05 0.000190312 -1.57746e-06
-1.85594e-07 -1.57746e-06 8.50541e-05
0.000664335 3.99355e-06 1.45093e-06
3.99355e-06 4.41319e-05 -2.34052e-06
1.45093e-06 -2.34052e-06 -1.54369e-05
0.000546246 5.47683e-05 -9.105e-09
5.47683e-05 -2.66376e-05 -1.7621e-08
-9.105e-09 -1.7621e-08 -5.10719e-05
0.00236828 9.74913e-05 -2.66764e-05
9.74913e-05 0.00106797 3.50277e-06
-2.66764e-05 3.50277e-06 0.00107306
0.000565908 4.64283e-05 1.05757e-07
4.64283e-05 -2.5225e-05 -4.39933e-06
1.05757e-07 -4.39933e-06 -4.56651e-05
0.00233819 8.48657e-05 2.64601e-06
8.48657e-05 0.00104242 2.38938e-07
2.64601e-06 2.38938e-07 0.00105046
0.00232195 7.21355e-05 1.9917e-05
7.21355e-05 0.00102607 -4.06668e-06
1.9917e-05 -4.06668e-06 0.00103657
0.000715318 5.73706e-05 -1.45196e-07
5.73706e-05 0.000105866 -7.11353e-07
-1.45196e-07 -7.11353e-07 -2.19794e-05
0.000772886 8.53159e-05 4.40685e-07
8.53159e-05 0.000144995 -1.40002e-06
4.40685e-07 -1.40002e-06 2.58149e-05
0.000642971 1.60237e-05 -2.30862e-07
1.60237e-05 2.92883e-05 -2.73361e-06
-2.30862e-07 -2.73361e-06 -3.74181e-05
0.000708368 7.73714e-05 -7.3907e-08
7.73714e-05 9.53708e-05 -9.72218e-09
-7.3907e-08 -9.72218e-09 -9.53949e-06
0.000555969 -2.27254e-05 -3.5662e-08
-2.27254e-05 -3.82375e-05 -4.92753e-06
-3.5662e-08 -4.92753e-06 -5.76578e-05
0.000628161 2.46173e-05 -3.17883e-08
2.46173e-05 2.1237e-05 -9.26014e-08
-3.17883e-08 -9.26014e-08 -3.97403e-05
0.000639989 4.173e-05 -1.97922e-06
4.173e-05 5.13119e-05 3.35736e-07
-1.97922e-06 3.35736e-07 -4.58576e-05
0.00234728 -5.25279e-05 -2.05313e-05
-5.25279e-05 0.00103052 -4.63941e-06
-2.05313e-05 -4.63941e-06 0.00104438
0.000566282 -1.92366e-05 -2.92281e-07
-1.92366e-05 -3.55755e-05 -6.56804e-08
-2.92281e-07 -6.56804e-08 -5.09945e-05
0.000564364 2.77072e-05 -1.27495e-06
2.77072e-05 -1.44302e-05 8.56965e-07
-1.27495e-06 8.56965e-07 -7.0355e-05
0.0022228 -3.692e-05 -4.02108e-06
-3.692e-05 0.000953029 1.51319e-07
-4.02108e-06 1.51319e-07 0.000969419
0.000569054 -1.31874e-05 -5.77007e-07
-1.31874e-05 -3.66666e-05 3.72037e-06
-5.77007e-07 3.72037e-06 -4.83441e-05
0.00212682 -2.18926e-05 1.08427e-05
-2.18926e-05 0.000893663 4.68591e-06
1.08427e-05 4.68591e-06 0.000911852
0.000544919 -7.97607e-05 2.47957e-06
-7.97607e-05 3.41422e-05 7.92989e-06
2.47957e-06 7.92989e-06 7.89383e-05
0.0014816 -8.14683e-05 -1.52762e-05
-8.14683e-05 -0.000324796 2.46461e-05
-1.52762e-05 2.46461e-05 -9.78435e-05
0.000898551 -5.07374e-05 7.26646e-06
-5.07374e-05 0.000395799 -1.27906e-05
7.26646e-06 -1.27906e-05 0.000337605
0.000726576 5.77605e-05 -2.16329e-07
5.77605e-05 0.00010374 9.13457e-08
-2.16329e-07 9.13457e-08 -1.845e-05
0.00071791 4.0388e-05 1.01582e-06
4.0388e-05 7.73792e-05 -1.97632e-07
1.01582e-06 -1.97632e-07 -3.96342e-05
0.000198145 2.99698e-05 -3.2216e-06
2.99698e-05 -0.00022782 -4.13057e-06
-3.2216e-06 -4.13057e-06 -0.000338754
0.000409048 9.76663e-06 1.87526e-07
9.76663e-06 -9.11567e-05 -4.60225e-09
1.87526e-07 -4.60225e-09 -0.000208307
0.00133722 0.000147562 -6.88423e-07
0.000147562 0.000471497 -1.11702e-06
-6.88423e-07 -1.11702e-06 0.00032766
0.00064647 2.69633e-05 -1.3389e-06
2.69633e-05 3.5336e-05 7.3424e-07
-1.3389e-06 7.3424e-07 -7.15415e-05
0.000663811 4.96893e-05 -1.9186e-06
4.96893e-05 6.36127e-05 -2.65301e-06
-1.9186e-06 -2.65301e-06 -5.66156e-05
0.000771663 6.08568e-05 -1.03051e-07
6.08568e-05 0.000127687 -1.93217e-07
-1.03051e-07 -1.93217e-07 4.48145e-06
0.000969976 9.59272e-05 1.92736e-07
9.59272e-05 0.000254521 8.20223e-08
1.92736e-07 8.20223e-08 0.000121538
0.00105666 7.22009e-05 2.0604e-06
7.22009e-05 0.000319398 -1.41413e-06
2.0604e-06 -1.41413e-06 0.000183245
0.00304289 0.000226389 0.000161349
0.000226389 0.00177106 0.000228084
0.000161349 0.000228084 -0.00104113
0.000492944 7.86779e-05 8.74224e-06
7.86779e-05 8.22097e-05 6.19925e-05
8.74224e-06 6.19925e-05 -0.00148266
0.00260292 -4.43088e-05 -1.07897e-05
-4.43088e-05 0.000703111 -3.89207e-06
-1.07897e-05 -3.89207e-06 0.000117739
0.00936244 -0.00107696 -9.38148e-05
-0.00107696 0.00131006 -0.000102456
-9.38148e-05 -0.000102456 0.00268279
-0.0103523 0.00085358 -2.68796e-05
0.00085358 -0.00345248 0.000239321
-2.68796e-05 0.000239321 -0.00587845
0.00543659 -0.00114782 -0.000125392
-0.00114782 0.00210082 4.69958e-05
-0.000125392 4.69958e-05 0.00160977
0.0107226 -0.000958868 -5.10739e-05
-0.000958868 0.00474706 -3.73882e-06
-5.10739e-05 -3.73882e-06 0.0011808
0.00226424 -0.000197418 -1.55784e-05
-0.000197418 0.000547131 5.90456e-05
-1.55784e-05 5.90456e-05 0.000264118
0.0114889 -0.000116703 -2.69273e-06
-0.000116703 0.00579185 -1.3278e-05
-2.69273e-06 -1.3278e-05 0.00145496
0.0023034 -0.0012097 5.14788e-05
-0.0012097 0.000551116 6.74419e-05
5.14788e-05 6.74419e-05 -0.0010942
0.00470449 -0.00142187 -0.000136055
-0.00142187 -0.00125431 -0.000308487
-0.000136055 -0.000308487 -0.000235396
0.00339131 3.80123e-05 -0.000130605
3.80123e-05 0.000927932 4.58589e-05
-0.000130605 4.58589e-05 0.000378467
0.00978626 0.000985345 -3.838e-05
0.000985345 0.00455355 1.86567e-05
-3.838e-05 1.86567e-05 0.00105159
0.011046 -0.00211043 -6.62869e-05
-0.00211043 0.00371794 -0.000262495
-6.62869e-05 -0.000262495 0.00338966
0.00777365 -0.00231936 7.09194e-05
-0.00231936 0.00168539 3.30116e-06
7.09194e-05 3.30116e-06 0.00293531
0.000119311 6.88916e-05 2.62413e-06
6.88916e-05 -0.000153943 -4.7029e-06
2.62413e-06 -4.7029e-06 -0.000283396
0.000948017 2.22009e-05 9.62264e-07
2.22009e-05 0.00027096 2.94037e-06
9.62264e-07 2.94037e-06 0.000130041
0.000721042 7.29639e-05 -1.87368e-06
7.29639e-05 0.000119739 -5.79843e-06
-1.87368e-06 -5.79843e-06 -2.36614e-05
0.00167933 -0.000119945 -3.80948e-05
-0.000119945 0.00104082 2.28303e-05
-3.80948e-05 2.28303e-05 0.000340112
0.0010732 -3.91747e-05 -7.16196e-05
-3.91747e-05 0.000711922 -2.36344e-05
-7.16196e-05 -2.36344e-05 0.00060211
0.000748003 1.00571e-05 -2.95126e-06
1.00571e-05 0.000147648 5.90186e-06
-2.95126e-06 5.90186e-06 2.58529e-05
-0.00115996 0.000103326 -6.97072e-06
0.000103326 -0.000647935 -3.58844e-06
-6.97072e-06 -3.58844e-06 -0.000937388
0.000502562 7.53912e-05 3.37298e-07
7.53912e-05 0.000192895 -2.79486e-06
3.37298e-07 -2.79486e-06 8.6135e-06
0.000630263 0.00012557 -1.99014e-06
0.00012557 0.000395112 3.03169e-06
-1.99014e-06 3.03169e-06 0.000135592
-0.000327886 -7.57431e-05 0.00012918
-7.57431e-05 0.000696027 -4.20873e-05
0.00012918 -4.20873e-05 -0.00050013
-0.00230507 5.44638e-06 -2.26914e-05
5.44638e-06 -0.00124317 1.346e-05
-2.26914e-05 1.346e-05 -0.00144709
0.00252294 0.000290464 -4.07228e-05
0.000290464 0.00155364 -4.22862e-05
-4.07228e-05 -4.22862e-05 0.000741723
0.00182271 2.23094e-05 8.22434e-05
2.23094e-05 0.00105209 1.22219e-05
8.22434e-05 1.22219e-05 -0.000797401
0.000290666 -1.81845e-06 1.61431e-05
-1.81845e-06 0.000524095 1.31004e-05
1.61431e-05 1.31004e-05 -2.40034e-05
0.00177264 -6.52026e-05 3.85466e-07
-6.52026e-05 0.000303642 -5.7876e-07
3.85466e-07 -5.7876e-07 0.000341463
-0.00192588 0.000246184 8.95508e-05
0.000246184 -0.000531775 8.19983e-06
8.95508e-05 8.19983e-06 -0.00118692
0.00334977 0.000132653 -2.88675e-05
0.000132653 0.00150408 9.03129e-06
-2.88675e-05 9.03129e-06 0.00084821
0.000941435 -2.38381e-05 -5.9997e-06
-2.38381e-05 0.000397357 1.10648e-05
-5.9997e-06 1.10648e-05 0.000349488
0.0161155 -0.00155287 0.00012625
-0.00155287 0.00694455 -3.65338e-05
0.00012625 -3.65338e-05 0.00295059
0.0108612 0.00161292 -6.95005e-05
0.00161292 0.00370174 -4.85563e-05
-6.95005e-05 -4.85563e-05 0.00286997
0.00379175 -0.000460834 -7.61337e-05
-0.000460834 0.00131262 0.000123176
-7.61337e-05 0.000123176 -0.001668
-0.00736754 0.00253394 0.000667033
0.00253394 -0.00332859 -0.000503701
0.000667033 -0.000503701 -0.00182145
0.000919499 -0.000168807 9.96805e-06
-0.000168807 0.00076881 -3.74364e-06
9.96805e-06 -3.74364e-06 0.000322936
0.000949188 -0.000133095 -1.54452e-06
-0.000133095 5.7605e-05 1.10245e-05
-1.54452e-06 1.10245e-05 -0.00154387
-0.00281745 0.000169946 -0.000374884
0.000169946 0.00204501 0.000160595
-0.000374884 0.000160595 0.000464538
0.00162016 -0.00034061 -2.45596e-05
-0.00034061 0.000352291 3.62145e-05
-2.45596e-05 3.62145e-05 3.2613e-05
0.0113911 0.00213241 9.26364e-05
0.00213241 0.00351392 7.67575e-05
9.26364e-05 7.67575e-05 0.00383111
0.00759854 -0.00146656 8.26229e-05
-0.00146656 0.0031622 -5.28492e-05
8.26229e-05 -5.28492e-05 0.000111783
0.00113174 -0.000329989 4.34176e-06
-0.000329989 0.000372064 2.28329e-05
4.34176e-06 2.28329e-05 0.000350894
-0.0041437 -0.000378938 3.74837e-05
-0.000378938 0.00161472 -2.23037e-05
3.74837e-05 -2.23037e-05 -0.000589134
0.00997836 0.00197186 -0.000404508
0.00197186 0.00461872 0.000190696
-0.000404508 0.000190696 0.00441683
0.00249807 -0.000876859 -0.000196042
-0.000876859 -0.000250177 0.000133674
-0.000196042 0.000133674 -0.00340467
0.00251419 -0.000908306 9.26961e-05
-0.000908306 0.000509412 -4.27258e-05
9.26961e-05 -4.27258e-05 0.000400709
-9.37244e-05 -0.000183832 -4.50929e-05
-0.000183832 9.94429e-05 1.24419e-05
-4.50929e-05 1.24419e-05 -0.000173037
0.00060486 -0.000271766 -2.43766e-06
-0.000271766 0.000266355 5.82617e-06
-2.43766e-06 5.82617e-06 3.0951e-05
0.00358102 -0.000579238 3.22198e-05
-0.000579238 0.00141453 1.64124e-06
3.22198e-05 1.64124e-06 0.00127745
-0.00258105 -5.09728e-05 -2.00341e-06
-5.09728e-05 -0.00144468 9.78849e-06
-2.00341e-06 9.78849e-06 -0.0017166
0.000687916 -0.000333446 3.26546e-06
-0.000333446 -1.35058e-05 1.98312e-06
3.26546e-06 1.98312e-06 -0.00031527
0.00240857 -0.00057142 5.24533e-06
-0.00057142 0.000600108 7.0684e-07
5.24533e-06 7.0684e-07 0.000336373
0.00294747 -0.000485787 -1.27415e-05
-0.000485787 0.00124365 4.06587e-06
-1.27415e-05 4.06587e-06 0.000889392
0.00132091 -0.000396863 -2.44761e-06
-0.000396863 0.000236299 -3.86055e-06
-2.44761e-06 -3.86055e-06 -0.000144699
0.00196221 -0.000527771 4.55186e-06
-0.000527771 0.000348979 -5.38755e-06
4.55186e-06 -5.38755e-06 5.45447e-05
0.00257851 -0.00050925 -3.8251e-06
-0.00050925 0.000861676 -1.7503e-06
-3.8251e-06 -1.7503e-06 0.000493509
0.00160226 -0.000438124 5.3837e-08
-0.000438124 0.000281984 -3.31433e-06
5.3837e-08 -3.31433e-06 -6.35189e-05
0.00202929 -0.000451259 2.99752e-08
-0.000451259 0.000374374 -6.55668e-06
2.99752e-08 -6.55668e-06 0.000121258
0.00168598 -0.000352631 -2.72942e-06
-0.000352631 0.000132724 -3.16398e-06
-2.72942e-06 -3.16398e-06 -6.84834e-05
0.00161135 -0.000417283 2.0873e-06
-0.000417283 0.000182284 -7.28165e-07
2.0873e-06 -7.28165e-07 -7.54444e-05
0.00176634 -0.000420517 1.94559e-06
-0.000420517 0.000287349 -2.3051e-06
1.94559e-06 -2.3051e-06 3.00973e-05
0.00170344 -0.000366304 -5.88433e-07
-0.000366304 0.000365901 2.47641e-06
-5.88433e-07 2.47641e-06 0.000116202
0.00176422 -0.000431033 -1.88076e-06
-0.000431033 0.000361801 1.28093e-07
-1.88076e-06 1.28093e-07 8.0816e-05
0.00168387 -0.0004377 1.4236e-06
-0.0004377 0.000317869 -3.6793e-06
1.4236e-06 -3.6793e-06 1.07117e-05
0.0013735 -0.000275244 3.75797e-06
-0.000275244 0.000334541 1.0421e-06
3.75797e-06 1.0421e-06 0.000114669
0.000824793 -0.000242453 5.42341e-07
-0.000242453 -2.53784e-05 -4.75588e-07
5.42341e-07 -4.75588e-07 -0.000234414
0.00137155 -0.000300513 4.52308e-06
-0.000300513 0.000270242 -3.77225e-06
4.52308e-06 -3.77225e-06 4.46067e-05
0.000631065 -0.000167318 -1.85913e-07
-0.000167318 2.3719e-05 -3.21009e-07
-1.85913e-07 -3.21009e-07 -0.000163129
0.000904647 -0.000206308 4.04594e-08
-0.000206308 0.000156515 -5.31191e-07
4.04594e-08 -5.31191e-07 -5.32298e-05
0.000874605 -0.000218238 -3.25885e-06
-0.000218238 9.60908e-05 -1.28358e-06
-3.25885e-06 -1.28358e-06 -0.000110868
0.000409135 2.56512e-05 8.25064e-07
2.56512e-05 -8.37051e-05 4.7588e-06
8.25064e-07 4.7588e-06 -0.000190238
0.000779645 -9.18768e-05 1.19587e-06
-9.18768e-05 0.000161391 7.24868e-07
1.19587e-06 7.24868e-07 -9.81006e-06
0.00105392 -0.00014983 -2.44933e-06
-0.00014983 0.00032967 6.59874e-07
-2.44933e-06 6.59874e-07 0.000141425
0.0014031 9.38027e-05 -1.551e-05
9.38027e-05 0.000506421 4.55318e-06
-1.551e-05 4.55318e-06 0.000473683
0.000664994 2.16069e-06 -3.68987e-07
2.16069e-06 5.58501e-05 -6.58362e-07
-3.68987e-07 -6.58362e-07 -2.56802e-05
0.00097868 -6.57635e-05 -2.0844e-06
-6.57635e-05 0.000274595 -1.72826e-06
-2.0844e-06 -1.72826e-06 0.000136513
0.000749589 4.94676e-05 -2.81923e-05
4.94676e-05 0.00010916 3.60798e-06
-2.81923e-05 3.60798e-06 0.000107418
0.000980185 7.42853e-05 -8.42622e-06
7.42853e-05 0.000243021 -1.69605e-08
-8.42622e-06 -1.69605e-08 0.000215332
0.000677343 1.01399e-05 9.70992e-07
1.01399e-05 5.40677e-05 -2.93259e-06
9.70992e-07 -2.93259e-06 -1.27786e-05
0.000557575 5.89814e-05 -7.42436e-07
5.89814e-05 -1.797e-05 -5.02725e-06
-7.42436e-07 -5.02725e-06 -4.35032e-05
0.00240621 9.96369e-05 3.61896e-06
9.96369e-05 0.00109134 3.27585e-07
3.61896e-06 3.27585e-07 0.00109599
0.00235332 8.69656e-05 2.26505e-05
8.69656e-05 0.00105242 -3.80652e-06
2.26505e-05 -3.80652e-06 0.00106001
0.000700487 5.56553e-05 3.98041e-07
5.56553e-05 8.22325e-05 3.21982e-07
3.98041e-07 3.21982e-07 -3.73254e-05
0.000788227 7.29134e-05 2.1533e-07
7.29134e-05 0.000150821 -1.85615e-06
2.1533e-07 -1.85615e-06 2.89676e-05
0.000631267 4.41543e-05 -2.07214e-07
4.41543e-05 4.1875e-05 2.49533e-07
-2.07214e-07 2.49533e-07 -7.52174e-05
0.00064753 5.24513e-06 -4.63142e-07
5.24513e-06 3.25369e-05 -2.92036e-06
-4.63142e-07 -2.92036e-06 -3.94283e-05
0.000728083 6.05109e-05 6.00777e-07
6.05109e-05 0.000105979 3.51755e-08
6.00777e-07 3.51755e-08 -3.14583e-06
0.000554276 -2.47009e-05 -6.87083e-07
-2.47009e-05 -3.43492e-05 -5.43723e-06
-6.87083e-07 -5.43723e-06 -5.79799e-05
0.000624074 1.93039e-05 -3.72328e-08
1.93039e-05 1.93644e-05 -1.05103e-07
-3.72328e-08 -1.05103e-07 -4.77981e-05
0.000740115 6.66087e-05 -5.00462e-07
6.66087e-05 0.000129892 1.74297e-06
-5.00462e-07 1.74297e-06 1.34427e-05
0.00248273 -6.72808e-05 -2.68035e-05
-6.72808e-05 0.0011154 -4.49299e-06
-2.68035e-05 -4.49299e-06 0.0011266
0.000548584 -2.45043e-05 -4.1113e-07
-2.45043e-05 -4.25522e-05 -4.45333e-08
-4.1113e-07 -4.45333e-08 -6.19152e-05
0.000614049 2.67304e-05 3.35731e-07
2.67304e-05 1.36825e-05 2.51563e-06
3.35731e-07 2.51563e-06 -4.72877e-05
0.00235207 -5.17157e-05 -4.20179e-06
-5.17157e-05 0.00103304 2.19447e-07
-4.20179e-06 2.19447e-07 0.00104709
0.000553152 -1.9575e-05 -7.70031e-07
-1.9575e-05 -4.31469e-05 4.17157e-06
-7.70031e-07 4.17157e-06 -5.84378e-05
0.00222508 -3.56425e-05 1.55996e-05
-3.56425e-05 0.000953969 4.62591e-06
1.55996e-05 4.62591e-06 0.000970562
0.00432026 6.26467e-05 9.6916e-05
6.26467e-05 0.00171481 2.47797e-05
9.6916e-05 2.47797e-05 0.000613004
0.00049491 -7.55153e-05 -1.09381e-06
-7.55153e-05 5.0248e-05 8.55031e-07
-1.09381e-06 8.55031e-07 8.40999e-05
0.00135303 -7.9178e-05 -1.60355e-05
-7.9178e-05 -0.000380697 4.67295e-06
-1.60355e-05 4.67295e-06 -0.000117609
0.000581431 0.000104043 -5.36245e-06
0.000104043 2.93621e-06 -1.47764e-06
-5.36245e-06 -1.47764e-06 -0.000120585
0.000824169 6.10479e-05 -5.75486e-07
6.10479e-05 0.000157178 5.05538e-07
-5.75486e-07 5.05538e-07 3.88099e-05
0.000525739 2.9913e-05 5.68407e-07
2.9913e-05 -3.53167e-05 -5.80369e-08
5.68407e-07 -5.80369e-08 -0.000149264
0.000799021 3.42586e-05 -4.63771e-08
3.42586e-05 0.000130086 -9.74828e-08
-4.63771e-08 -9.74828e-08 1.364e-05
0.000781318 7.55091e-05 -6.05918e-07
7.55091e-05 0.000114126 3.78039e-08
-6.05918e-07 3.78039e-08 -3.55835e-06
0.0010488 0.000122101 8.31007e-07
0.000122101 0.000297676 2.54598e-07
8.31007e-07 2.54598e-07 0.000163135
0.000877091 9.78093e-05 -1.23346e-06
9.78093e-05 0.000176495 -6.08874e-06
-1.23346e-06 -6.08874e-06 2.90854e-05
9.72995e-05 2.16284e-05 1.16227e-07
2.16284e-05 -0.000247577 -5.57778e-07
1.16227e-07 -5.57778e-07 -0.000376359
0.00080925 0.000113686 -1.5185e-06
0.000113686 0.00016036 9.59478e-07
-1.5185e-06 9.59478e-07 2.80684e-05
0.000474143 1.71113e-05 -2.21447e-06
1.71113e-05 -5.42409e-05 -2.68439e-06
-2.21447e-06 -2.68439e-06 -0.000166187
0.00059812 5.74702e-05 -2.0147e-07
5.74702e-05 4.84885e-05 8.04114e-07
-2.0147e-07 8.04114e-07 -8.25433e-05
0.00162778 0.000157717 7.96468e-06
0.000157717 0.000691506 5.84195e-06
7.96468e-06 5.84195e-06 0.000550135
0.00111728 -0.000842841 0.00011358
-0.000842841 0.00251634 0.000189172
0.00011358 0.000189172 0.000651436
0.00356789 0.00029845 2.31814e-05
0.00029845 0.0018396 7.79451e-05
2.31814e-05 7.79451e-05 -0.00104679
0.000784574 9.06847e-05 -2.1546e-05
9.06847e-05 0.000255198 -3.76612e-05
-2.1546e-05 -3.76612e-05 -0.00143953
0.00938094 -0.00183941 -0.00024644
-0.00183941 0.00124857 -0.000184636
-0.00024644 -0.000184636 0.00221677
0.00547047 -0.000645959 5.90088e-05
-0.000645959 0.00129301 0.000230288
5.90088e-05 0.000230288 1.84828e-05
0.000711236 -0.000792288 -9.47817e-05
-0.000792288 0.00181747 8.92456e-05
-9.47817e-05 8.92456e-05 -0.00281901
0.00100779 -0.000294348 6.94606e-06
-0.000294348 0.000118805 6.7457e-05
6.94606e-06 6.7457e-05 -0.000452546
0.00255181 -0.000129601 2.62552e-05
-0.000129601 0.000625991 5.16944e-05
2.62552e-05 5.16944e-05 0.000253191
0.000518473 -0.00237803 0.000113675
-0.00237803 -0.000739122 0.000128242
0.000113675 0.000128242 0.000674241
0.00489166 0.000874656 -6.80549e-06
0.000874656 0.00357054 -2.22477e-05
-6.80549e-06 -2.22477e-05 -0.000727126
0.0028154 -0.00123099 -3.8608e-05
-0.00123099 -0.000867892 4.89813e-05
-3.8608e-05 4.89813e-05 -0.00127511
0.000878143 0.000337833 -3.14334e-06
0.000337833 -5.08145e-05 4.58609e-05
-3.14334e-06 4.58609e-05 -0.000149929
0.00824021 0.000916709 -3.93164e-05
0.000916709 0.00389856 -1.39773e-05
-3.93164e-05 -1.39773e-05 0.000772537
0.00331316 -0.00202682 -0.000207889
-0.00202682 -0.000118323 -0.000192874
-0.000207889 -0.000192874 4.10017e-05
0.000938217 0.000317495 5.58644e-06
0.000317495 0.000231101 -1.27937e-05
5.58644e-06 -1.27937e-05 9.31634e-05
0.000653551 9.13448e-05 2.95531e-06
9.13448e-05 0.000146011 -5.38521e-07
2.95531e-06 -5.38521e-07 2.10958e-05
0.000501404 4.00728e-05 -2.52883e-06
4.00728e-05 1.93134e-05 -2.03658e-06
-2.52883e-06 -2.03658e-06 -0.000130194
-6.08834e-05 -6.80813e-05 -0.000165552
-6.80813e-05 0.00095567 -4.43538e-05
-0.000165552 -4.43538e-05 -0.000185301
-0.00219709 0.000135992 4.60497e-06
0.000135992 -0.00115871 -1.5733e-05
4.60497e-06 -1.5733e-05 -0.00144175
9.0435e-05 0.000106534 -2.75286e-06
0.000106534 -3.41971e-05 5.07409e-06
-2.75286e-06 5.07409e-06 -0.000237191
0.000555319 0.000298981 1.122e-05
0.000298981 0.000244164 3.39303e-06
1.122e-05 3.39303e-06 2.54849e-05
0.000764085 0.000252318 -2.40302e-06
0.000252318 0.000555675 -3.3033e-05
-2.40302e-06 -3.3033e-05 -0.000139416
-0.000105979 0.000481816 2.80497e-05
0.000481816 -0.000469777 6.96281e-06
2.80497e-05 6.96281e-06 -0.000800726
-0.0010807 0.000296606 0.000154453
0.000296606 0.00323921 6.74639e-06
0.000154453 6.74639e-06 0.000754075
0.00202496 -1.85213e-05 -5.90516e-06
-1.85213e-05 0.00118967 2.1059e-05
-5.90516e-06 2.1059e-05 -0.000277364
6.4771e-05 -1.7473e-05 1.62867e-06
-1.7473e-05 0.000318783 1.59011e-05
1.62867e-06 1.59011e-05 -0.000117417
0.000242101 -0.000125106 -4.82471e-05
-0.000125106 0.000509787 4.27823e-06
-4.82471e-05 4.27823e-06 5.50225e-05
9.15663e-05 -9.01256e-05 -5.38888e-05
-9.01256e-05 -0.000930018 1.65413e-05
-5.38888e-05 1.65413e-05 -0.000697777
0.00144637 -0.000109785 -9.13958e-05
-0.000109785 0.000252614 3.06673e-05
-9.13958e-05 3.06673e-05 -0.00127157
-0.00183359 -0.00137073 6.73907e-05
-0.00137073 -1.51277e-05 -9.50631e-05
6.73907e-05 -9.50631e-05 -0.00398798
-0.00140153 0.00169805 0.000177699
0.00169805 -0.00345832 -0.000169093
0.000177699 -0.000169093 -0.00296927
0.00249693 0.000792848 -0.000190605
0.000792848 0.00330057 0.0001589
-0.000190605 0.0001589 0.00220012
0.00169631 -0.000170491 -8.19083e-06
-0.000170491 0.000583764 -6.82539e-07
-8.19083e-06 -6.82539e-07 0.000663833
0.00154906 0.000182191 3.03139e-05
0.000182191 0.00351904 7.37158e-06
3.03139e-05 7.37158e-06 0.00209558
-0.00353003 0.00120735 2.68629e-05
0.00120735 -0.00088975 1.34896e-05
2.68629e-05 1.34896e-05 -0.00229392
0.0036025 -0.00106626 3.91152e-05
-0.00106626 0.00126482 -1.09395e-05
3.91152e-05 -1.09395e-05 0.000649791
0.0110878 -0.000768841 1.57967e-05
-0.000768841 0.00361434 -1.11724e-05
1.57967e-05 -1.11724e-05 0.00170248
0.00320727 -0.000653207 -1.2771e-05
-0.000653207 0.0010773 2.38132e-05
-1.2771e-05 2.38132e-05 0.00111427
-0.00816414 0.000464349 -0.000208274
0.000464349 -0.00370842 6.3231e-06
-0.000208274 6.3231e-06 -0.00460041
0.0121703 -0.000426049 -8.95681e-05
-0.000426049 0.00321442 2.76277e-05
-8.95681e-05 2.76277e-05 0.00167651
0.00354991 -0.0012107 1.89089e-05
-0.0012107 -5.0049e-05 -2.0596e-05
1.89089e-05 -2.0596e-05 -0.000556581
0.000977891 -0.000259296 -1.54939e-05
-0.000259296 0.00051483 1.65837e-05
-1.54939e-05 1.65837e-05 0.000218761
0.00166002 -0.000450036 -4.53742e-06
-0.000450036 0.000301051 1.44001e-06
-4.53742e-06 1.44001e-06 0.000258061
0.00299415 -0.000522101 1.30863e-05
-0.000522101 0.000820143 -5.20828e-06
1.30863e-05 -5.20828e-06 0.000755591
-0.00181507 -8.84997e-05 -3.89137e-06
-8.84997e-05 -0.00128921 4.54349e-07
-3.89137e-06 4.54349e-07 -0.00159774
0.00138599 -0.000469744 -4.9602e-06
-0.000469744 0.00010267 -2.7621e-06
-4.9602e-06 -2.7621e-06 -0.000166486
0.00227166 -0.000571354 3.51466e-06
-0.000571354 0.000380011 -4.50409e-07
3.51466e-06 -4.50409e-07 0.000161462
0.00135544 -0.00039466 -1.39258e-05
-0.00039466 0.000232509 -2.32177e-06
-1.39258e-05 -2.32177e-06 -0.000127432
0.00154949 -0.000483556 1.02424e-07
-0.000483556 0.000141246 3.90441e-07
1.02424e-07 3.90441e-07 -0.000154414
0.00163497 -0.000434147 1.91079e-07
-0.000434147 1.92004e-05 -5.26794e-06
1.91079e-07 -5.26794e-06 -0.000178007
0.00126344 -0.000412226 -3.34244e-06
-0.000412226 7.01042e-05 -1.98935e-07
-3.34244e-06 -1.98935e-07 -0.000261909
0.00162142 -0.000414079 -3.83805e-07
-0.000414079 0.000148698 6.86655e-07
-3.83805e-07 6.86655e-07 -9.76667e-05
0.00175057 -0.000349213 -1.95178e-06
-0.000349213 0.000102788 -5.01855e-06
-1.95178e-06 -5.01855e-06 -5.95629e-05
0.00162542 -0.000278888 -4.00282e-06
-0.000278888 4.43792e-05 -3.05018e-06
-4.00282e-06 -3.05018e-06 -9.95568e-05
0.00154935 -0.000340028 -2.71899e-06
-0.000340028 7.5649e-05 -2.14344e-06
-2.71899e-06 -2.14344e-06 -0.000131043
0.00163317 -0.000341112 9.74185e-07
-0.000341112 0.000108317 1.48211e-06
9.74185e-07 1.48211e-06 -8.78103e-05
0.0014865 -0.00036157 -2.26109e-06
-0.00036157 0.000157946 -6.81626e-07
-2.26109e-06 -6.81626e-07 -8.4433e-05
0.00164303 -0.000414707 1.59753e-06
-0.000414707 0.000210621 -2.43837e-07
1.59753e-06 -2.43837e-07 -4.44561e-05
0.00161336 -0.000406992 1.53839e-06
-0.000406992 0.000202848 1.25923e-07
1.53839e-06 1.25923e-07 -5.06039e-05
0.0014465 -0.000298892 -1.18628e-06
-0.000298892 0.000274699 1.22256e-06
-1.18628e-06 1.22256e-06 5.27063e-05
0.00144814 -0.000345695 1.5455e-06
-0.000345695 0.000221838 -7.96352e-07
1.5455e-06 -7.96352e-07 -2.43772e-05
0.00165173 -0.00042107 -2.20073e-06
-0.00042107 0.000315524 -1.82561e-06
-2.20073e-06 -1.82561e-06 3.1055e-05
0.000950433 -0.000209911 -1.14678e-06
-0.000209911 0.000131021 2.80035e-06
-1.14678e-06 2.80035e-06 -6.42536e-05
0.00119291 -0.000257558 1.2062e-06
-0.000257558 0.000222232 5.28835e-07
1.2062e-06 5.28835e-07 6.39394e-06
0.000965886 -0.000251267 -1.0196e-06
-0.000251267 6.05281e-05 -4.02559e-06
-1.0196e-06 -4.02559e-06 -0.000146653
0.00070669 -7.82619e-05 -7.21531e-07
-7.82619e-05 7.90445e-05 5.39444e-06
-7.21531e-07 5.39444e-06 -6.00139e-05
0.000952785 -0.000175007 -1.44535e-07
-0.000175007 0.000211401 -1.17781e-07
-1.44535e-07 -1.17781e-07 2.18587e-05
0.000458133 -0.000161369 -4.15029e-06
-0.000161369 -0.000104032 -5.81642e-07
-4.15029e-06 -5.81642e-07 -0.000304539
0.000390124 4.55807e-05 3.71662e-07
4.55807e-05 -9.51715e-05 7.8722e-06
3.71662e-07 7.8722e-06 -0.000139249
0.000696656 -4.3928e-05 -5.63774e-07
-4.3928e-05 8.53632e-05 -4.91162e-07
-5.63774e-07 -4.91162e-07 -2.7849e-05
0.0011706 -0.000121885 9.35175e-07
-0.000121885 0.000396116 -1.36493e-06
9.35175e-07 -1.36493e-06 0.000216021
0.00260031 0.000140262 -6.82674e-06
0.000140262 0.00122401 1.81067e-06
-6.82674e-06 1.81067e-06 0.00121738
0.000528301 5.58764e-05 -3.65112e-07
5.58764e-05 -1.94471e-05 -2.45988e-07
-3.65112e-07 -2.45988e-07 -5.41765e-05
0.000780654 -1.99634e-05 2.03464e-06
-1.99634e-05 0.000122166 -4.18031e-06
2.03464e-06 -4.18031e-06 3.87468e-05
0.00249156 0.000112411 3.76615e-06
0.000112411 0.00114948 3.09452e-07
3.76615e-06 3.09452e-07 0.00115114
0.000562107 5.82291e-05 -2.78579e-07
5.82291e-05 -6.39836e-06 -5.49308e-06
-2.78579e-07 -5.49308e-06 -3.5462e-05
0.00246069 0.0001019 2.83552e-05
0.0001019 0.00112448 -3.30359e-06
2.83552e-05 -3.30359e-06 0.00112866
0.000891032 0.000119963 4.30457e-07
0.000119963 0.00018877 1.73199e-06
4.30457e-07 1.73199e-06 5.49135e-05
0.000780626 6.82615e-05 -2.53467e-09
6.82615e-05 0.000131961 -1.0773e-07
-2.53467e-09 -1.0773e-07 8.72943e-06
0.000807196 5.76888e-05 -6.18419e-09
5.76888e-05 0.000167288 -2.50138e-06
-6.18419e-09 -2.50138e-06 3.56499e-05
0.000654261 2.49174e-06 -8.61311e-07
2.49174e-06 4.03644e-05 -3.48865e-06
-8.61311e-07 -3.48865e-06 -3.7375e-05
0.000723054 4.29728e-05 3.34529e-07
4.29728e-05 0.000105556 2.22679e-07
3.34529e-07 2.22679e-07 -1.03846e-05
0.00058095 5.6476e-05 8.52988e-07
5.6476e-05 1.96758e-05 1.18012e-06
8.52988e-07 1.18012e-06 -0.000102499
0.000557357 -2.72207e-05 -1.16647e-06
-2.72207e-05 -2.80134e-05 -5.9444e-06
-1.16647e-06 -5.9444e-06 -5.58104e-05
0.000629779 1.13054e-05 -3.10925e-08
1.13054e-05 2.47005e-05 -7.58979e-08
-3.10925e-08 -7.58979e-08 -4.82474e-05
0.000704025 5.82758e-05 4.93155e-07
5.82758e-05 8.77821e-05 1.49594e-06
4.93155e-07 1.49594e-06 -1.72535e-05
0.00261684 -8.17083e-05 -3.44528e-05
-8.17083e-05 0.00120059 -4.23312e-06
-3.44528e-05 -4.23312e-06 0.00120892
0.000535544 -2.45855e-05 -3.99218e-07
-2.45855e-05 -4.5838e-05 -8.71298e-08
-3.99218e-07 -8.71298e-08 -6.91528e-05
0.000623954 2.1984e-05 4.07732e-07
2.1984e-05 2.01462e-05 2.84321e-06
4.07732e-07 2.84321e-06 -4.72697e-05
0.00245742 -6.62694e-05 -4.67088e-06
-6.62694e-05 0.00109986 2.88638e-07
-4.67088e-06 2.88638e-07 0.00111134
0.000542618 -2.43738e-05 -7.33758e-07
-2.43738e-05 -4.61488e-05 4.76544e-06
-7.33758e-07 4.76544e-06 -6.53152e-05
0.00231204 -5.01044e-05 1.98266e-05
-5.01044e-05 0.0010088 4.53236e-06
1.98266e-05 4.53236e-06 0.00102328
-0.00572254 0.000236653 -7.22201e-06
0.000236653 0.00120196 4.33573e-05
-7.22201e-06 4.33573e-05 -0.00151527
0.00412939 3.35707e-06 -2.51564e-06
3.35707e-06 0.00186452 6.53321e-06
-2.51564e-06 6.53321e-06 0.000725569
0.000526684 -7.84757e-05 -7.78598e-06
-7.84757e-05 2.66799e-05 -4.61284e-06
-7.78598e-06 -4.61284e-06 4.8619e-05
0.00051432 7.22452e-05 -1.25974e-06
7.22452e-05 -4.08424e-05 1.0957e-06
-1.25974e-06 1.0957e-06 -0.00015773
0.0020521 0.000300064 -6.41194e-07
0.000300064 0.00087911 2.95033e-06
-6.41194e-07 2.95033e-06 0.000704736
0.000757893 7.5039e-05 -3.40003e-06
7.5039e-05 0.00010079 -6.73968e-07
-3.40003e-06 -6.73968e-07 -2.78159e-05
0.00103884 3.73496e-05 -5.36998e-07
3.73496e-05 0.000265674 -9.02086e-07
-5.36998e-07 -9.02086e-07 0.000151251
0.00130692 0.000126628 2.23922e-06
0.000126628 0.000419653 5.51025e-07
2.23922e-06 5.51025e-07 0.000296977
0.000517976 4.88728e-05 -1.90604e-06
4.88728e-05 -3.03219e-05 2.59166e-06
-1.90604e-06 2.59166e-06 -0.000143379
0.000577422 6.70043e-05 -1.14226e-06
6.70043e-05 4.13253e-05 1.20341e-06
-1.14226e-06 1.20341e-06 -9.92598e-05
0.000729214 7.6909e-05 -1.38746e-06
7.6909e-05 8.92288e-05 -1.42001e-06
-1.38746e-06 -1.42001e-06 -5.1009e-05
0.000910702 0.000142916 1.01187e-06
0.000142916 0.000231884 -4.1556e-06
1.01187e-06 -4.1556e-06 5.55297e-05
0.000442539 0.000204751 1.99325e-06
0.000204751 -0.000118177 -3.55212e-06
1.99325e-06 -3.55212e-06 -0.000225004
0.000990445 8.63319e-05 -2.15303e-06
8.63319e-05 0.000285686 2.85986e-08
-2.15303e-06 2.85986e-08 0.000144671
0.00109278 0.00013993 4.4484e-07
0.00013993 0.000383568 3.11232e-06
4.4484e-07 3.11232e-06 0.000240204
-0.00516234 -0.00090435 -0.000399551
-0.00090435 -0.00115863 -6.58352e-06
-0.000399551 -6.58352e-06 -0.00248626
-0.00303179 -0.000629374 0.000164718
-0.000629374 0.00145457 8.33838e-05
0.000164718 8.33838e-05 -0.00075347
0.00426552 0.000337133 -0.000144753
0.000337133 0.00194542 -7.48312e-05
-0.000144753 -7.48312e-05 -0.00101964
-0.00783725 -0.00243772 0.000554152
-0.00243772 -0.00317875 0.000438537
0.000554152 0.000438537 -0.00186268
0.013407 -0.00147532 -5.71097e-05
-0.00147532 0.00410881 0.000134113
-5.71097e-05 0.000134113 0.003852
-0.00135369 0.00103465 2.38492e-07
0.00103465 0.00027953 -7.27513e-05
2.38492e-07 -7.27513e-05 -0.00386002
0.00240833 -1.40502e-05 -0.000137096
-1.40502e-05 0.000936683 3.47634e-05
-0.000137096 3.47634e-05 2.72506e-05
0.00241288 0.000400912 -1.81994e-06
0.000400912 0.000767212 2.35899e-05
-1.81994e-06 2.35899e-05 0.000499369
0.00957162 -0.00162674 -0.000173829
-0.00162674 0.00454898 5.44202e-05
-0.000173829 5.44202e-05 0.00434212
-0.00013123 0.00104851 -1.13703e-05
0.00104851 0.000491642 -2.78776e-05
-1.13703e-05 -2.78776e-05 -0.00280795
0.00167774 0.000753171 -4.16393e-05
0.000753171 0.000294088 -6.17788e-05
-4.16393e-05 -6.17788e-05 0.000165845
0.00438175 0.001564 -0.000181646
0.001564 0.00029948 -0.00010328
-0.000181646 -0.00010328 -0.00199922
0.00223808 0.000627693 1.6929e-05
0.000627693 0.000613618 -2.16518e-05
1.6929e-05 -2.16518e-05 0.000382794
0.000830807 0.000289411 -4.4114e-06
0.000289411 0.000169353 6.7644e-07
-4.4114e-06 6.7644e-07 4.08322e-05
0.0012887 0.00010152 -4.97164e-06
0.00010152 0.000502036 3.97065e-06
-4.97164e-06 3.97065e-06 0.000386945
-0.00106648 0.000190352 -4.60064e-05
0.000190352 -0.000450065 -4.64218e-05
-4.60064e-05 -4.64218e-05 -0.00104914
0.00278948 0.000439826 -1.96625e-05
0.000439826 0.00140557 -1.46503e-05
-1.96625e-05 -1.46503e-05 0.00118358
0.0012001 0.000598757 1.30582e-05
0.000598757 0.000140579 -3.9303e-06
1.30582e-05 -3.9303e-06 -0.000194785
0.00315634 0.000962198 9.98727e-05
0.000962198 0.000503943 3.20668e-05
9.98727e-05 3.20668e-05 0.000383374
-0.00466611 -8.25656e-05 -0.000286378
-8.25656e-05 -0.00367024 3.82247e-06
-0.000286378 3.82247e-06 -0.0025494
-0.00313722 0.000173995 0.000132803
0.000173995 0.00255274 2.29344e-06
0.000132803 2.29344e-06 -7.05374e-05
0.00207785 -5.15156e-05 -6.99843e-05
-5.15156e-05 0.00126198 2.89362e-05
-6.99843e-05 2.89362e-05 0.000119185
0.00326339 -0.000328877 -6.23581e-05
-0.000328877 0.00126568 -3.5983e-05
-6.23581e-05 -3.5983e-05 0.00132008
0.00146416 -0.000909927 -2.53565e-05
-0.000909927 -2.62584e-05 1.27157e-05
-2.53565e-05 1.27157e-05 -0.000458776
0.00166287 0.000128585 -2.05101e-05
0.000128585 0.00350396 3.31694e-05
-2.05101e-05 3.31694e-05 0.00221142
0.00270489 -0.000892964 0.000165642
-0.000892964 0.000126762 -0.000127504
0.000165642 -0.000127504 -0.00233015
0.0106639 0.00117646 0.000130609
0.00117646 0.00504499 2.92274e-06
0.000130609 2.92274e-06 0.00422463
0.00274266 -0.000760441 -2.20322e-05
-0.000760441 0.000678104 7.59233e-06
-2.20322e-05 7.59233e-06 0.0005667
-0.000620978 0.000569782 7.75858e-05
0.000569782 -0.000485611 -1.96119e-05
7.75858e-05 -1.96119e-05 -0.00107757
0.00467611 -0.000400456 -5.30977e-05
-0.000400456 -0.000466399 5.6249e-05
-5.30977e-05 5.6249e-05 -0.00260032
0.00579623 -0.00132564 -3.42089e-05
-0.00132564 0.00118474 1.57429e-05
-3.42089e-05 1.57429e-05 0.000646587
0.00123354 -0.000512668 4.44561e-05
-0.000512668 -8.83564e-05 -1.02849e-05
4.44561e-05 -1.02849e-05 -0.000278305
0.0101426 -0.000440959 1.35061e-05
-0.000440959 0.00240029 -2.96999e-05
1.35061e-05 -2.96999e-05 0.000929551
0.00385111 -0.000703067 6.93846e-05
-0.000703067 -0.000459065 -4.00721e-05
6.93846e-05 -4.00721e-05 -0.000363266
-0.000839346 -0.000273261 -2.05139e-05
-0.000273261 -0.00111678 8.61863e-06
-2.05139e-05 8.61863e-06 -0.00106205
0.000535079 -0.000363913 -8.79171e-06
-0.000363913 -0.0005171 -1.20657e-06
-8.79171e-06 -1.20657e-06 -0.00052454
0.00332109 -0.000553765 2.90317e-05
-0.000553765 0.000801172 -1.73205e-05
2.90317e-05 -1.73205e-05 0.00075995
0.000213869 -0.000354536 -1.22346e-05
-0.000354536 -0.000478834 -6.1751e-06
-1.22346e-05 -6.1751e-06 -0.000746794
0.00174635 -0.00052154 3.89111e-08
-0.00052154 0.000115494 -2.64588e-07
3.89111e-08 -2.64588e-07 -9.12198e-05
0.00217644 -0.000472356 -1.45025e-06
-0.000472356 0.000180459 -9.29661e-07
-1.45025e-06 -9.29661e-07 4.58877e-05
0.00143554 -0.000464073 -2.38155e-06
-0.000464073 8.7266e-05 3.99859e-06
-2.38155e-06 3.99859e-06 -0.000211081
0.00183933 -0.000447128 -2.09754e-06
-0.000447128 0.000130177 6.44341e-07
-2.09754e-06 6.44341e-07 -7.08554e-05
0.00183429 -0.000347519 -5.36344e-07
-0.000347519 4.51175e-05 -1.14755e-06
-5.36344e-07 -1.14755e-06 -7.65907e-05
0.00128628 -0.000381963 4.22804e-06
-0.000381963 -3.65052e-05 4.37381e-06
4.22804e-06 4.37381e-06 -0.000276697
0.00171551 -0.000340478 -9.75498e-08
-0.000340478 9.05524e-05 8.68186e-07
-9.75498e-08 8.68186e-07 -6.99286e-05
0.0017899 -0.000287144 -3.45873e-06
-0.000287144 8.20545e-05 -1.34426e-06
-3.45873e-06 -1.34426e-06 -2.93227e-05
0.00194394 -0.00026959 -2.4635e-06
-0.00026959 0.000234203 -5.7144e-07
-2.4635e-06 -5.7144e-07 0.000118664
0.00169926 -0.000280898 -2.50135e-06
-0.000280898 8.34771e-05 3.10196e-06
-2.50135e-06 3.10196e-06 -5.59449e-05
0.00174837 -0.000293976 -1.235e-06
-0.000293976 0.000149977 -5.43646e-06
-1.235e-06 -5.43646e-06 -8.81417e-06
0.00166372 -0.000337157 -3.91142e-06
-0.000337157 0.000178558 -1.88384e-06
-3.91142e-06 -1.88384e-06 -3.09677e-05
0.00167227 -0.000347789 1.19856e-06
-0.000347789 0.000146093 4.32377e-07
1.19856e-06 4.32377e-07 -6.1126e-05
0.00158102 -0.000329439 3.05538e-06
-0.000329439 8.37717e-05 5.66733e-06
3.05538e-06 5.66733e-06 -0.000107205
0.00142019 -0.000306848 -6.09148e-06
-0.000306848 0.000182434 1.91999e-06
-6.09148e-06 1.91999e-06 -3.76134e-05
0.00146317 -0.000360115 -3.51739e-07
-0.000360115 0.000141258 2.55296e-07
-3.51739e-07 2.55296e-07 -0.00010071
0.00168024 -0.000413175 2.05933e-06
-0.000413175 0.000241211 5.58991e-07
2.05933e-06 5.58991e-07 -1.14547e-05
0.00117643 -0.000240526 -4.06193e-06
-0.000240526 0.000181159 3.37799e-06
-4.06193e-06 3.37799e-06 -2.18357e-05
0.00127666 -0.000284914 1.52616e-07
-0.000284914 0.000173409 2.32975e-07
1.52616e-07 2.32975e-07 -4.73104e-05
0.00124306 -0.000329843 2.30014e-06
-0.000329843 0.000106429 -2.57625e-06
2.30014e-06 -2.57625e-06 -0.000136613
0.000788768 -0.000145334 -5.13729e-06
-0.000145334 9.03222e-05 4.86532e-06
-5.13729e-06 4.86532e-06 -6.77595e-05
0.00108429 -0.000222255 9.80566e-07
-0.000222255 0.000209184 -2.07471e-07
9.80566e-07 -2.07471e-07 1.17281e-05
0.000971743 -0.000237142 1.12766e-06
-0.000237142 8.7395e-05 -1.45107e-06
1.12766e-06 -1.45107e-06 -0.000124456
0.00037388 -7.54428e-06 -4.64681e-06
-7.54428e-06 -0.000122037 1.06282e-05
-4.64681e-06 1.06282e-05 -0.000175513
0.00072011 -0.000104075 4.6718e-07
-0.000104075 9.05371e-05 5.76248e-07
4.6718e-07 5.76248e-07 -5.53431e-05
0.00129056 -0.000194631 2.36837e-07
-0.000194631 0.000410185 -1.29707e-06
2.36837e-07 -1.29707e-06 0.000214805
0.00296399 0.000148628 -4.70969e-05
0.000148628 0.0014434 2.34424e-06
-4.70969e-05 2.34424e-06 0.00143548
0.00053125 3.13776e-05 -2.98792e-07
3.13776e-05 -1.76445e-05 -6.45233e-07
-2.98792e-07 -6.45233e-07 -6.07399e-05
0.000953605 -9.09096e-05 2.48831e-06
-9.09096e-05 0.000238107 -4.91257e-06
2.48831e-06 -4.91257e-06 0.000118154
0.0017846 0.000100905 2.23043e-05
0.000100905 0.000734308 3.01013e-07
2.23043e-05 3.01013e-07 0.000728444
0.000607384 4.86823e-05 1.20721e-06
4.86823e-05 2.51686e-05 -6.55439e-06
1.20721e-06 -6.55439e-06 -8.66113e-06
0.00259121 0.000114989 3.76633e-05
0.000114989 0.00120882 -2.705e-06
3.76633e-05 -2.705e-06 0.00121007
0.000899353 0.00012944 2.95219e-06
0.00012944 0.000173895 8.91015e-07
2.95219e-06 8.91015e-07 4.2621e-05
0.000593508 7.01271e-05 -1.898e-07
7.01271e-05 7.63297e-06 3.09005e-07
-1.898e-07 3.09005e-07 -0.000113289
0.000656745 4.49256e-05 -4.86931e-07
4.49256e-05 5.67504e-05 -1.4962e-06
-4.86931e-07 -1.4962e-06 -6.57887e-05
0.000915421 9.08252e-05 5.8048e-07
9.08252e-05 0.000214832 6.84817e-07
5.8048e-07 6.84817e-07 8.63051e-05
0.000711109 3.39812e-05 2.07454e-07
3.39812e-05 9.09211e-05 6.17256e-08
2.07454e-07 6.17256e-08 -2.55172e-05
0.000666521 5.58945e-06 -1.22473e-06
5.58945e-06 4.99254e-05 -4.12469e-06
-1.22473e-06 -4.12469e-06 -3.43314e-05
0.000562947 -2.86854e-05 -1.78095e-06
-2.86854e-05 -1.86345e-05 -6.67824e-06
-1.78095e-06 -6.67824e-06 -5.04616e-05
0.000625586 3.90648e-06 2.28248e-07
3.90648e-06 2.49308e-05 -7.26331e-08
2.28248e-07 -7.26331e-08 -5.33963e-05
0.000642421 1.47104e-05 -2.2721e-07
1.47104e-05 3.91803e-05 1.68938e-06
-2.2721e-07 1.68938e-06 -6.23117e-05
0.00271941 -9.51329e-05 -4.29641e-05
-9.51329e-05 0.00126796 -3.88528e-06
-4.29641e-05 -3.88528e-06 0.00127351
0.000529555 -2.39795e-05 -1.34643e-07
-2.39795e-05 -4.41648e-05 -6.81191e-08
-1.34643e-07 -6.81191e-08 -7.16099e-05
0.000611617 1.65267e-05 8.78485e-07
1.65267e-05 1.6932e-05 3.06467e-06
8.78485e-07 3.06467e-06 -5.72699e-05
0.00258564 -8.10883e-05 -4.95703e-06
-8.10883e-05 0.00118154 3.30882e-07
-4.95703e-06 3.30882e-07 0.00119006
0.000523127 -2.88408e-05 -3.3418e-07
-2.88408e-05 -5.28346e-05 5.3617e-06
-3.3418e-07 5.3617e-06 -7.62753e-05
0.00245797 -6.55372e-05 2.47317e-05
-6.55372e-05 0.00109971 4.44556e-06
2.47317e-05 4.44556e-06 0.00111135
0.000170616 0.000323779 -0.000214836
0.000323779 0.00168701 2.74744e-05
-0.000214836 2.74744e-05 0.000567854
-0.00263855 -8.41714e-06 1.30808e-05
-8.41714e-06 0.00190943 1.42853e-05
1.30808e-05 1.42853e-05 -0.000804422
0.00394493 -4.33191e-05 -7.03261e-05
-4.33191e-05 0.00205871 -6.08297e-06
-7.03261e-05 -6.08297e-06 0.000892712
0.000482228 4.11367e-05 2.40417e-06
4.11367e-05 -6.42054e-05 -1.5915e-06
2.40417e-06 -1.5915e-06 -0.000175078
0.000646269 4.90548e-05 2.38025e-06
4.90548e-05 3.13858e-05 8.39921e-07
2.38025e-06 8.39921e-07 -9.97993e-05
0.00146559 0.000239509 -1.4965e-06
0.000239509 0.000540641 8.45996e-07
-1.4965e-06 8.45996e-07 0.000380297
0.00144365 0.000284448 3.20075e-06
0.000284448 0.000448657 -2.08203e-06
3.20075e-06 -2.08203e-06 0.000238189
0.00106633 0.000189827 -6.94722e-06
0.000189827 0.000328787 -9.96146e-07
-6.94722e-06 -9.96146e-07 0.00015934
0.000900642 0.000114811 8.36265e-07
0.000114811 0.000233123 3.23199e-06
8.36265e-07 3.23199e-06 8.5323e-05
0.000759611 9.30692e-05 4.21414e-06
9.30692e-05 0.00011339 3.13845e-06
4.21414e-06 3.13845e-06 -2.6749e-05
0.000578388 0.000144889 -4.36536e-06
0.000144889 4.89309e-05 -3.43984e-06
-4.36536e-06 -3.43984e-06 -0.000120988
-0.000565896 0.000114062 -1.84528e-07
0.000114062 -0.00066727 -4.44316e-07
-1.84528e-07 -4.44316e-07 -0.000836991
0.00151378 0.000311173 2.57334e-06
0.000311173 0.000420932 -2.20845e-06
2.57334e-06 -2.20845e-06 0.000295521
0.00207206 0.000534557 3.30715e-06
0.000534557 0.00045091 -9.52027e-06
3.30715e-06 -9.52027e-06 0.000247974
0.000733955 0.000234555 -5.97994e-06
0.000234555 6.27663e-05 -6.00653e-07
-5.97994e-06 -6.00653e-07 -5.45303e-05
0.000665456 9.35942e-05 -4.58104e-07
9.35942e-05 9.02399e-05 -1.85604e-06
-4.58104e-07 -1.85604e-06 -4.05807e-05
0.0111118 0.000852976 -9.20988e-05
0.000852976 0.00272374 3.71994e-05
-9.20988e-05 3.71994e-05 0.00128484
-0.000227094 -0.000722182 -0.00019141
-0.000722182 0.001987 -6.38236e-05
-0.00019141 -6.38236e-05 0.00055913
-0.00122023 -0.00100641 0.000102953
-0.00100641 0.00150857 -6.91947e-06
0.000102953 -6.91947e-06 -0.000720869
-0.00154724 -0.000888563 2.66916e-05
-0.000888563 -0.000361758 0.000152601
2.66916e-05 0.000152601 -0.000651454
0.0111278 0.00111103 -6.68005e-08
0.00111103 0.00497138 2.79871e-07
-6.68005e-08 2.79871e-07 0.00174864
0.000221207 0.000309408 -3.71217e-05
0.000309408 -0.000325637 -2.49616e-05
-3.71217e-05 -2.49616e-05 -0.000477335
0.00155408 0.000723279 -2.22404e-05
0.000723279 0.000284456 -1.18252e-05
-2.22404e-05 -1.18252e-05 0.000178489
0.0103498 0.000998748 2.69376e-05
0.000998748 0.00332775 2.25847e-05
2.69376e-05 2.25847e-05 0.00138023
0.00572747 0.00148478 -4.12675e-05
0.00148478 0.000902324 -4.6612e-05
-4.12675e-05 -4.6612e-05 0.000480177
0.00171924 0.000648467 2.44193e-06
0.000648467 0.000188608 -6.61301e-06
2.44193e-06 -6.61301e-06 1.71255e-05
0.00107609 0.000475006 5.86624e-06
0.000475006 0.00012813 -9.14527e-07
5.86624e-06 -9.14527e-07 -8.80422e-05
0.000848825 0.000262653 -1.67401e-05
0.000262653 0.000192069 1.76638e-05
-1.67401e-05 1.76638e-05 7.31156e-05
0.0027192 0.000769072 -4.49057e-05
0.000769072 0.000792543 -1.94425e-05
-4.49057e-05 -1.94425e-05 0.000472015
0.00218492 0.000880699 -4.47798e-07
0.000880699 -9.18101e-05 1.92693e-05
-4.47798e-07 1.92693e-05 -0.000222148
0.000904845 -0.000340132 -3.45142e-05
-0.000340132 -0.00314558 1.89188e-05
-3.45142e-05 1.89188e-05 -0.00339306
0.00221484 -0.000469005 -8.91884e-07
-0.000469005 0.00128534 -2.19929e-05
-8.91884e-07 -2.19929e-05 0.00136744
-0.00527057 2.93063e-05 0.000157969
2.93063e-05 0.00197865 -5.42846e-06
0.000157969 -5.42846e-06 -0.000814725
0.00153013 -0.000757846 -2.62094e-05
-0.000757846 -5.50365e-05 7.79226e-06
-2.62094e-05 7.79226e-06 -0.000239641
0.00317359 -0.00117045 3.20304e-05
-0.00117045 0.000476493 -7.65769e-06
3.20304e-05 -7.65769e-06 -0.0003644
0.00124373 -0.000292612 0.000247627
-0.000292612 0.00199122 -1.37887e-05
0.000247627 -1.37887e-05 0.00108446
0.0125656 -0.000491928 -0.000135521
-0.000491928 0.00364034 6.67334e-05
-0.000135521 6.67334e-05 0.00203652
0.000858744 -0.000516659 -2.78382e-05
-0.000516659 -0.000343405 -3.72284e-06
-2.78382e-05 -3.72284e-06 -0.000465678
0.00863815 5.78131e-05 -6.02679e-05
5.78131e-05 0.00112099 2.93887e-05
-6.02679e-05 2.93887e-05 8.40225e-05
0.00462645 -0.000768867 7.52255e-05
-0.000768867 -0.000123104 5.49183e-06
7.52255e-05 5.49183e-06 -0.000410884
0.00351392 -0.00054327 5.09621e-05
-0.00054327 0.000975977 -1.15965e-05
5.09621e-05 -1.15965e-05 0.000671028
0.00339634 -0.000281206 -9.33236e-05
-0.000281206 -1.03119e-05 5.90334e-06
-9.33236e-05 5.90334e-06 1.88116e-05
-0.00137319 -0.000248026 -1.39545e-05
-0.000248026 -0.00156685 4.04642e-06
-1.39545e-05 4.04642e-06 -0.00152602
0.00155113 -0.000451451 -2.58137e-07
-0.000451451 -0.000141243 -6.77844e-07
-2.58137e-07 -6.77844e-07 -0.000160566
0.00238155 -0.000389407 1.63883e-05
-0.000389407 0.000171832 -9.35092e-06
1.63883e-05 -9.35092e-06 0.000201661
0.00121293 -0.000474573 -2.50546e-06
-0.000474573 -0.000152022 2.89719e-06
-2.50546e-06 2.89719e-06 -0.000349284
0.00182389 -0.000438577 -2.05775e-06
-0.000438577 1.34448e-05 3.19901e-07
-2.05775e-06 3.19901e-07 -0.000117835
0.0020404 -0.00034325 1.5304e-06
-0.00034325 3.83116e-05 1.1932e-06
1.5304e-06 1.1932e-06 -1.40575e-05
0.00184115 -0.000443734 -3.73478e-06
-0.000443734 0.000135695 5.98583e-06
-3.73478e-06 5.98583e-06 -6.7312e-05
0.00186827 -0.000348558 3.31868e-07
-0.000348558 6.47545e-05 1.61832e-06
3.31868e-07 1.61832e-06 -5.56718e-05
0.00182435 -0.000304442 -3.69884e-07
-0.000304442 4.53575e-05 1.81468e-06
-3.69884e-07 1.81468e-06 -3.92915e-05
0.00167972 -0.000332949 4.02104e-06
-0.000332949 7.63169e-05 5.37874e-06
4.02104e-06 5.37874e-06 -8.25829e-05
0.00176071 -0.000288409 -3.58968e-07
-0.000288409 6.39448e-05 1.30241e-06
-3.58968e-07 1.30241e-06 -4.84171e-05
0.00201713 -0.000290408 -7.81948e-07
-0.000290408 0.000226998 4.64852e-07
-7.81948e-07 4.64852e-07 0.000126224
0.00181867 -0.000264794 -3.98517e-06
-0.000264794 0.000152288 3.48572e-06
-3.98517e-06 3.48572e-06 4.05086e-05
0.00185051 -0.000276743 1.73604e-06
-0.000276743 0.000201625 -3.16294e-06
1.73604e-06 -3.16294e-06 7.14934e-05
0.0017724 -0.000283399 2.44726e-06
-0.000283399 0.000122232 7.67255e-06
2.44726e-06 7.67255e-06 -1.28206e-05
0.00174973 -0.000295579 3.4947e-07
-0.000295579 0.000150076 -8.00568e-07
3.4947e-07 -8.00568e-07 -9.43228e-06
0.00168506 -0.000291478 -1.41393e-06
-0.000291478 0.000149757 -3.21993e-06
-1.41393e-06 -3.21993e-06 -2.56645e-05
0.0015411 -0.000298532 -5.17765e-06
-0.000298532 0.000177786 -4.27635e-07
-5.17765e-06 -4.27635e-07 -2.71768e-05
0.00170289 -0.00034052 3.36417e-07
-0.00034052 0.000203008 -3.3615e-07
3.36417e-07 -3.3615e-07 -7.73411e-06
0.00179411 -0.00035568 3.69043e-06
-0.00035568 0.0002165 2.71741e-06
3.69043e-06 2.71741e-06 8.69725e-06
0.00114051 -0.000234787 -6.90276e-06
-0.000234787 8.62389e-05 2.40839e-06
-6.90276e-06 2.40839e-06 -0.000107579
0.00134815 -0.000300088 -9.61596e-07
-0.000300088 0.000141925 3.89098e-07
-9.61596e-07 3.89098e-07 -7.75979e-05
0.0014376 -0.000358099 2.63661e-06
-0.000358099 0.00012351 3.50314e-07
2.63661e-06 3.50314e-07 -0.000117924
0.000814427 -0.000162182 -7.0522e-06
-0.000162182 4.01824e-05 6.44613e-06
-7.0522e-06 6.44613e-06 -0.000121267
0.00113097 -0.000236311 8.5589e-07
-0.000236311 0.000153782 4.7754e-07
8.5589e-07 4.7754e-07 -4.84901e-05
0.00116143 -0.000274589 2.90786e-06
-0.000274589 0.000104966 -1.52647e-06
2.90786e-06 -1.52647e-06 -0.000114687
0.0004038 -7.72995e-05 -1.41258e-05
-7.72995e-05 -0.000129898 1.24654e-05
-1.41258e-05 1.24654e-05 -0.00019495
0.000791417 -0.000159321 -4.65662e-07
-0.000159321 9.10756e-05 2.51321e-07
-4.65662e-07 2.51321e-07 -6.89304e-05
0.0011219 -0.000221445 1.70289e-06
-0.000221445 0.00023078 -1.92828e-06
1.70289e-06 -1.92828e-06 3.41516e-05
0.00362866 0.000168268 -7.45884e-05
0.000168268 0.00183933 2.59328e-06
-7.45884e-05 2.59328e-06 0.00182671
0.000548665 -2.70068e-05 1.06635e-06
-2.70068e-05 -2.34569e-05 -3.63544e-07
1.06635e-06 -3.63544e-07 -7.8146e-05
0.000857888 -0.000151618 4.76742e-06
-0.000151618 0.000172862 -4.56243e-06
4.76742e-06 -4.56243e-06 2.05664e-05
0.00316207 0.000141386 8.83251e-06
0.000141386 0.00155725 4.01796e-07
8.83251e-06 4.01796e-07 0.00155183
0.000678185 1.38455e-05 5.62064e-06
1.38455e-05 6.3506e-05 -8.75845e-06
5.62064e-06 -8.75845e-06 2.09002e-05
0.00282835 0.00012292 5.74009e-05
0.00012292 0.0013536 -2.11164e-06
5.74009e-05 -2.11164e-06 0.00135335
0.0012863 0.000246211 4.31861e-06
0.000246211 0.000359587 -4.38756e-06
4.31861e-06 -4.38756e-06 0.0001621
0.000830702 0.000154021 1.11974e-06
0.000154021 0.000143544 -2.37977e-07
1.11974e-06 -2.37977e-07 4.08346e-06
0.000445038 5.19569e-05 2.39093e-07
5.19569e-05 -7.68117e-05 -5.98623e-07
2.39093e-07 -5.98623e-07 -0.000204583
0.000288093 3.1075e-05 1.15806e-07
3.1075e-05 -0.000171516 -3.96784e-07
1.15806e-07 -3.96784e-07 -0.000284579
0.000529094 1.91422e-05 -3.13284e-07
1.91422e-05 -2.17301e-05 6.56589e-07
-3.13284e-07 6.56589e-07 -0.000140907
0.000663563 1.18399e-05 -1.52791e-06
1.18399e-05 4.79906e-05 -4.20481e-06
-1.52791e-06 -4.20481e-06 -4.49663e-05
0.000619701 1.32931e-05 2.67998e-07
1.32931e-05 2.76673e-05 1.98372e-06
2.67998e-07 1.98372e-06 -8.06732e-05
0.000615429 -8.11647e-07 3.27148e-07
-8.11647e-07 2.15824e-05 -2.06157e-07
3.27148e-07 -2.06157e-07 -6.27742e-05
0.000567686 -3.1751e-05 -2.21992e-06
-3.1751e-05 -8.92198e-06 -7.47337e-06
-2.21992e-06 -7.47337e-06 -4.48543e-05
0.00283623 -0.000109175 -5.12222e-05
-0.000109175 0.00134534 -3.4041e-06
-5.12222e-05 -3.4041e-06 0.00134779
0.000525287 -2.65737e-05 1.22987e-07
-2.65737e-05 -4.07927e-05 -2.19136e-08
1.22987e-07 -2.19136e-08 -7.22386e-05
0.000588323 4.79953e-06 1.24031e-06
4.79953e-06 4.4351e-06 3.57022e-06
1.24031e-06 3.57022e-06 -7.43375e-05
0.00272583 -9.58186e-05 -5.24099e-06
-9.58186e-05 0.00127148 4.00712e-07
-5.24099e-06 4.00712e-07 0.0012768
0.000504493 -2.30466e-05 1.15657e-06
-2.30466e-05 -5.85695e-05 5.9211e-06
1.15657e-06 5.9211e-06 -8.58221e-05
0.00256201 -8.02758e-05 3.0648e-05
-8.02758e-05 0.0011668 4.28052e-06
3.0648e-05 4.28052e-06 0.00117555
0.0113143 0.000525823 0.000202643
0.000525823 0.00259857 5.80186e-05
0.000202643 5.80186e-05 0.00169168
-0.003164 -0.000908251 -0.000135853
-0.000908251 -0.00241488 -1.82916e-05
-0.000135853 -1.82916e-05 -0.00267991
-0.00539053 0.000399681 -7.19354e-05
0.000399681 0.000727796 -3.91835e-05
-7.19354e-05 -3.91835e-05 -0.00254044
0.00065883 2.53363e-05 9.23945e-06
2.53363e-05 3.20817e-05 1.81333e-06
9.23945e-06 1.81333e-06 -0.000100785
0.000950629 0.000192751 -3.1327e-06
0.000192751 0.000243528 1.51684e-06
-3.1327e-06 1.51684e-06 9.57854e-05
0.00133081 0.000211254 -1.49269e-07
0.000211254 0.000471988 -7.8891e-07
-1.49269e-07 -7.8891e-07 0.000300226
0.00130371 0.000268981 -4.11146e-06
0.000268981 0.000376581 1.11386e-06
-4.11146e-06 1.11386e-06 0.000170431
0.0010739 0.000287598 1.33119e-05
0.000287598 9.7838e-05 1.47276e-06
1.33119e-05 1.47276e-06 -0.000136451
0.000164024 0.000174087 -4.04936e-07
0.000174087 -0.000249175 -2.58039e-06
-4.04936e-07 -2.58039e-06 -0.000429398
0.000355597 0.000137368 -2.56029e-06
0.000137368 -6.46009e-05 -2.46664e-06
-2.56029e-06 -2.46664e-06 -0.000230827
0.000244959 0.000198357 1.19423e-06
0.000198357 -0.000224406 1.75983e-06
1.19423e-06 1.75983e-06 -0.000418641
0.0010327 0.000282091 5.43563e-07
0.000282091 0.00016851 6.93165e-07
5.43563e-07 6.93165e-07 3.98312e-05
0.000693558 0.000306896 5.47744e-06
0.000306896 -0.000132074 1.69119e-06
5.47744e-06 1.69119e-06 -0.000314404
0.00337233 0.000605152 -3.60665e-06
0.000605152 0.00114128 -3.58848e-06
-3.60665e-06 -3.58848e-06 0.000955813
0.0020641 0.00056217 -5.174e-06
0.00056217 0.000360774 4.28538e-06
-5.174e-06 4.28538e-06 0.000173771
0.00149017 0.000483116 3.71628e-06
0.000483116 0.000152373 -2.85848e-06
3.71628e-06 -2.85848e-06 -3.20747e-05
0.000369718 0.000224386 -2.4214e-06
0.000224386 -0.00013047 2.95759e-06
-2.4214e-06 2.95759e-06 -0.00025229
0.00568065 0.000665499 -1.73661e-05
0.000665499 0.000331555 9.23271e-06
-1.73661e-05 9.23271e-06 0.000580188
0.00959409 0.000695329 9.47681e-05
0.000695329 0.00188168 4.96702e-05
9.47681e-05 4.96702e-05 0.000319192
0.00545085 -0.00142445 0.000101117
-0.00142445 0.00311375 -5.70703e-05
0.000101117 -5.70703e-05 0.00231704
0.00387934 0.00142904 0.000338703
0.00142904 -1.74525e-05 0.000155932
0.000338703 0.000155932 -0.00333977
0.00112634 0.000605313 -4.26782e-05
0.000605313 0.000136033 -1.34703e-06
-4.26782e-05 -1.34703e-06 0.000250456
0.00337308 0.00113997 -8.52289e-05
0.00113997 -6.72309e-05 -2.60841e-05
-8.52289e-05 -2.60841e-05 -0.00023126
0.00387522 0.000935752 4.19123e-05
0.000935752 0.000671732 2.05474e-05
4.19123e-05 2.05474e-05 0.000631495
0.0030504 0.000770276 8.47383e-06
0.000770276 0.000773744 6.61742e-06
8.47383e-06 6.61742e-06 0.000602213
0.000622904 0.000407805 -9.86249e-06
0.000407805 -5.88697e-05 1.89741e-05
-9.86249e-06 1.89741e-05 -0.000259579
0.00398936 0.00103884 -0.000122127
0.00103884 0.000758477 -2.84685e-05
-0.000122127 -2.84685e-05 0.000554772
0.00284769 -0.000225885 -6.20345e-05
-0.000225885 0.000335507 9.04634e-06
-6.20345e-05 9.04634e-06 0.000117284
0.0100666 -0.000289383 -1.0608e-05
-0.000289383 0.00260389 4.52697e-06
-1.0608e-05 4.52697e-06 0.00200104
-0.0093283 -0.000679465 0.000319892
-0.000679465 -0.00528261 -8.26991e-06
0.000319892 -8.26991e-06 -0.00490786
0.000264533 -0.000486453 -4.53424e-05
-0.000486453 -0.00074073 9.25541e-06
-4.53424e-05 9.25541e-06 -0.000798274
0.00688745 -0.000996732 0.00011659
-0.000996732 0.000939721 2.94347e-05
0.00011659 2.94347e-05 0.000763376
0.00137255 -0.000380407 -1.79633e-05
-0.000380407 -0.00220383 5.91169e-05
-1.79633e-05 5.91169e-05 -0.00365606
0.00152057 -0.000392888 1.68945e-05
-0.000392888 -0.000143463 1.27603e-06
1.68945e-05 1.27603e-06 -0.000277081
0.00280249 -0.000158859 -7.12676e-06
-0.000158859 -0.000383551 5.48212e-06
-7.12676e-06 5.48212e-06 -0.000427364
0.00422557 -0.000402586 2.24813e-05
-0.000402586 0.000993479 -9.34234e-06
2.24813e-05 -9.34234e-06 0.00107512
0.00365889 -0.000106475 7.06097e-05
-0.000106475 0.000868563 1.44842e-06
7.06097e-05 1.44842e-06 0.000830435
-0.000154379 -0.000361548 -8.67252e-06
-0.000361548 -0.00105432 7.7961e-06
-8.67252e-06 7.7961e-06 -0.001047
0.00177705 -0.000363788 -3.27355e-07
-0.000363788 -0.000154923 5.75608e-07
-3.27355e-07 5.75608e-07 -0.000116027
0.00182132 -0.00025219 1.39547e-05
-0.00025219 -0.000188403 -2.47413e-06
1.39547e-05 -2.47413e-06 -8.02591e-05
0.00155008 -0.000412069 -2.99468e-07
-0.000412069 -0.000119385 1.74897e-06
-2.99468e-07 1.74897e-06 -0.000247693
0.00196698 -0.000341558 1.82955e-06
-0.000341558 1.13997e-06 8.75199e-07
1.82955e-06 8.75199e-07 -5.18804e-05
0.00190353 -0.000278697 8.96823e-07
-0.000278697 3.70125e-05 1.20053e-06
8.96823e-07 1.20053e-06 8.97873e-06
0.00188602 -0.000347984 4.06433e-06
-0.000347984 7.50335e-05 3.64964e-06
4.06433e-06 3.64964e-06 -4.35683e-05
0.00185902 -0.000303222 8.16123e-07
-0.000303222 7.22576e-05 3.92332e-07
8.16123e-07 3.92332e-07 -1.1803e-05
0.00193507 -0.000272163 -2.14724e-06
-0.000272163 0.00013846 1.62606e-06
-2.14724e-06 1.62606e-06 5.93637e-05
0.00173644 -0.000289352 4.15801e-06
-0.000289352 4.91755e-05 3.50076e-06
4.15801e-06 3.50076e-06 -6.39867e-05
0.00183953 -0.000283257 2.53781e-07
-0.000283257 0.000130983 5.39427e-07
2.53781e-07 5.39427e-07 3.00373e-05
0.00169639 -0.000266258 3.32413e-06
-0.000266258 8.24355e-05 -1.50115e-06
3.32413e-06 -1.50115e-06 -3.03528e-05
0.00170025 -0.000260397 -2.36163e-06
-0.000260397 7.44165e-05 7.04112e-06
-2.36163e-06 7.04112e-06 -3.36707e-05
0.00187739 -0.000274588 -2.1855e-06
-0.000274588 0.000214831 6.96191e-08
-2.1855e-06 6.96191e-08 8.83774e-05
0.00179291 -0.000269749 6.36236e-07
-0.000269749 0.000194731 -1.98607e-06
6.36236e-07 -1.98607e-06 4.23543e-05
0.00175154 -0.000296701 2.22414e-06
-0.000296701 0.000150347 3.65527e-06
2.22414e-06 3.65527e-06 -9.73797e-06
0.00172539 -0.000294513 5.52148e-07
-0.000294513 0.000175233 -6.35676e-07
5.52148e-07 -6.35676e-07 -1.29597e-06
0.00172272 -0.000273377 -2.18446e-06
-0.000273377 0.000237659 -1.31847e-06
-2.18446e-06 -1.31847e-06 5.58121e-05
0.0010776 -0.000217183 -8.86799e-06
-0.000217183 -2.13761e-06 2.38845e-06
-8.86799e-06 2.38845e-06 -0.000185001
0.00156445 -0.000300647 -9.57712e-07
-0.000300647 0.000195163 -2.8704e-07
-9.57712e-07 -2.8704e-07 -1.07346e-05
0.00173643 -0.00034309 3.88907e-06
-0.00034309 0.000224374 8.64767e-07
3.88907e-06 8.64767e-07 1.25678e-05
0.000937283 -0.000177923 -1.03791e-05
-0.000177923 4.83959e-05 6.2975e-06
-1.03791e-05 6.2975e-06 -0.000110828
0.00118339 -0.000238572 -1.38547e-07
-0.000238572 0.000107338 2.52273e-07
-1.38547e-07 2.52273e-07 -8.71205e-05
0.00128148 -0.000294199 1.77021e-06
-0.000294199 0.000103335 -5.67649e-07
1.77021e-06 -5.67649e-07 -0.000115892
0.000438427 -0.000110393 -1.7721e-05
-0.000110393 -0.000131775 1.35139e-05
-1.7721e-05 1.35139e-05 -0.000207306
0.00084977 -0.000169202 5.71779e-07
-0.000169202 6.30146e-05 4.25601e-07
5.71779e-07 4.25601e-07 -9.98637e-05
0.00109892 -0.000233525 5.82363e-06
-0.000233525 0.000133685 -2.25982e-06
5.82363e-06 -2.25982e-06 -6.80987e-05
0.00439534 0.000178368 -0.000114222
0.000178368 0.00229406 5.00404e-06
-0.000114222 5.00404e-06 0.002278
0.000570805 -8.37418e-05 3.35425e-07
-8.37418e-05 -3.28569e-05 -2.91629e-07
3.35425e-07 -2.91629e-07 -0.000101204
0.000812798 -0.00017334 6.50795e-06
-0.00017334 0.000101076 -5.8271e-06
6.50795e-06 -5.8271e-06 -6.0194e-05
0.00385743 0.000141321 8.60015e-06
0.000141321 0.0019683 4.11716e-07
8.60015e-06 4.11716e-07 0.0019621
0.000714602 -3.64826e-05 1.08894e-05
-3.64826e-05 7.07434e-05 -1.07017e-05
1.08894e-05 -1.07017e-05 1.4871e-05
0.00333978 0.000111073 9.96217e-05
0.000111073 0.00165601 -3.99259e-06
9.96217e-05 -3.99259e-06 0.00165801
0.0015284 0.000294485 -3.90514e-06
0.000294485 0.000388758 -3.96912e-06
-3.90514e-06 -3.96912e-06 0.000162058
0.0014207 0.000258218 7.94816e-07
0.000258218 0.000441944 2.40445e-07
7.94816e-07 2.40445e-07 0.000242268
0.000686427 0.000146377 -2.27056e-07
0.000146377 3.44505e-05 -5.66264e-06
-2.27056e-07 -5.66264e-06 -0.000134261
0.000687577 0.000166118 -1.87055e-06
0.000166118 7.16371e-05 -1.46707e-07
-1.87055e-06 -1.46707e-07 -7.4807e-05
0.000445333 6.45745e-05 1.94311e-07
6.45745e-05 -7.63997e-05 -4.94879e-07
1.94311e-07 -4.94879e-07 -0.000209089
0.000776928 8.89717e-05 -3.04475e-06
8.89717e-05 0.000123568 -4.30913e-06
-3.04475e-06 -4.30913e-06 6.11125e-06
0.000397001 3.9931e-07 4.73059e-07
3.9931e-07 -0.00010404 1.5865e-06
4.73059e-07 1.5865e-06 -0.000219024
0.000636271 1.09324e-05 1.19053e-07
1.09324e-05 3.40007e-05 -2.49301e-07
1.19053e-07 -2.49301e-07 -5.92847e-05
0.000573978 -2.76088e-05 -2.97171e-06
-2.76088e-05 -1.86031e-07 -8.29593e-06
-2.97171e-06 -8.29593e-06 -4.05199e-05
0.000575256 -3.12371e-06 1.16373e-06
-3.12371e-06 -1.82948e-06 4.07717e-06
1.16373e-06 4.07717e-06 -8.54999e-05
0.000519275 -2.95605e-05 2.73164e-07
-2.95605e-05 -3.7479e-05 -5.76391e-08
2.73164e-07 -5.76391e-08 -7.29441e-05
0.00295287 -0.000121439 -6.10854e-05
-0.000121439 0.00142299 -2.79852e-06
-6.10854e-05 -2.79852e-06 0.00142263
0.00282186 -0.000109616 -4.12775e-06
-0.000109616 0.00133628 4.06388e-07
-4.12775e-06 4.06388e-07 0.00133846
0.000493313 -2.04708e-05 2.62128e-06
-2.04708e-05 -6.01035e-05 6.63676e-06
2.62128e-06 6.63676e-06 -9.08893e-05
0.0026827 -9.50663e-05 3.76106e-05
-9.50663e-05 0.00124539 4.00065e-06
3.76106e-05 4.00065e-06 0.00125081
0.00337714 2.32884e-05 2.29468e-05
2.32884e-05 -0.000283579 9.05454e-06
2.29468e-05 9.05454e-06 -0.00013241
0.00292528 -0.000574176 6.39589e-05
-0.000574176 -0.00212671 2.82953e-05
6.39589e-05 2.82953e-05 -0.00319805
0.00759618 -0.000959403 -8.56766e-05
-0.000959403 0.00286149 -5.93825e-05
-8.56766e-05 -5.93825e-05 0.00319221
0.00129905 0.000329348 5.94921e-06
0.000329348 9.92049e-05 4.38754e-06
5.94921e-06 4.38754e-06 -0.000136234
0.00152927 0.000235418 1.84637e-06
0.000235418 0.000577797 1.61864e-06
1.84637e-06 1.61864e-06 0.000402622
0.0012658 0.000263825 -5.79071e-06
0.000263825 0.000364985 6.70378e-06
-5.79071e-06 6.70378e-06 0.00016103
0.000732312 0.000232976 1.39976e-06
0.000232976 6.90237e-05 2.52499e-06
1.39976e-06 2.52499e-06 -0.000125356
0.00123526 0.000304098 -5.34134e-07
0.000304098 0.000200925 -1.48119e-06
-5.34134e-07 -1.48119e-06 -3.90681e-05
0.00092216 0.000324453 6.22152e-06
0.000324453 -1.92049e-05 4.47213e-06
6.22152e-06 4.47213e-06 -0.000226387
0.00105259 0.000282594 -5.19801e-06
0.000282594 0.00021967 -3.18784e-06
-5.19801e-06 -3.18784e-06 5.2506e-07
0.00049079 0.000250282 3.21667e-06
0.000250282 -0.000118241 3.50702e-06
3.21667e-06 3.50702e-06 -0.000247931
0.00137282 0.000373548 2.63648e-06
0.000373548 0.000237441 -8.1217e-07
2.63648e-06 -8.1217e-07 4.47572e-05
0.00228807 0.000512706 3.56707e-06
0.000512706 0.000551301 6.65032e-06
3.56707e-06 6.65032e-06 0.000385562
0.00172521 0.00050126 1.63174e-06
0.00050126 0.000147727 -2.32101e-07
1.63174e-06 -2.32101e-07 -4.67311e-05
0.00165707 0.000464601 5.12021e-06
0.000464601 0.00013074 9.04203e-06
5.12021e-06 9.04203e-06 -2.11212e-06
0.00118332 0.000493037 -2.89996e-06
0.000493037 -0.000108523 -3.03112e-06
-2.89996e-06 -3.03112e-06 -0.000286642
0.000685484 0.000408067 -9.98313e-08
0.000408067 -0.000262627 1.11303e-06
-9.98313e-08 1.11303e-06 -0.000423602
0.00143114 0.000372697 2.78101e-05
0.000372697 -0.000264175 3.1075e-05
2.78101e-05 3.1075e-05 -0.000208127
0.00514107 0.000769163 -4.98648e-05
0.000769163 -0.000144215 -1.41124e-05
-4.98648e-05 -1.41124e-05 3.63653e-05
0.00202752 0.000423288 0.000282165
0.000423288 -0.00209036 3.56463e-05
0.000282165 3.56463e-05 -0.00383252
0.000477746 0.000840453 -1.41493e-05
0.000840453 -0.00124864 -2.33162e-05
-1.41493e-05 -2.33162e-05 -0.0013768
0.00262314 0.000750446 -2.57699e-05
0.000750446 0.000316171 -2.97419e-06
-2.57699e-05 -2.97419e-06 0.000255532
0.00246145 0.000703931 -6.21026e-05
0.000703931 0.000485322 -2.31386e-05
-6.21026e-05 -2.31386e-05 0.000311373
0.00231289 -0.000189079 -1.03165e-05
-0.000189079 2.95222e-05 -6.86727e-06
-1.03165e-05 -6.86727e-06 1.99169e-05
0.000938275 -6.02796e-05 1.01134e-05
-6.02796e-05 -0.000254581 6.17078e-06
1.01134e-05 6.17078e-06 -0.000398335
0.00114449 0.000717163 9.15382e-05
0.000717163 -0.00305849 -2.36735e-05
9.15382e-05 -2.36735e-05 -0.00357891
-0.000423609 -0.00025373 -1.76916e-05
-0.00025373 -0.00119316 2.91249e-05
-1.76916e-05 2.91249e-05 -0.00116207
0.00364769 -0.000136196 -3.75677e-05
-0.000136196 2.12891e-06 3.61437e-05
-3.75677e-05 3.61437e-05 -0.000292745
0.00221851 -0.000290659 -1.54049e-05
-0.000290659 -2.77779e-05 5.55881e-06
-1.54049e-05 5.55881e-06 8.1495e-05
0.0030716 -0.000139066 -2.77533e-06
-0.000139066 0.000506799 -3.27261e-06
-2.77533e-06 -3.27261e-06 0.000462702
0.0015165 -0.000165872 3.0331e-05
-0.000165872 -0.000385807 -1.32929e-06
3.0331e-05 -1.32929e-06 -0.000246508
0.00322276 -4.76044e-05 2.47969e-05
-4.76044e-05 0.000960819 5.29794e-07
2.47969e-05 5.29794e-07 0.0009207
0.00118123 -0.000335143 -1.69053e-05
-0.000335143 -0.000468689 8.27861e-06
-1.69053e-05 8.27861e-06 -0.00042353
0.00178449 -0.000262343 5.74244e-07
-0.000262343 -0.000226788 2.16857e-06
5.74244e-07 2.16857e-06 -0.000129545
0.00197021 -0.000258403 1.75565e-06
-0.000258403 -5.10021e-05 -1.21228e-07
1.75565e-06 -1.21228e-07 8.05726e-06
0.00190044 -0.000338514 3.20743e-07
-0.000338514 -2.83117e-05 1.58537e-06
3.20743e-07 1.58537e-06 -8.2126e-05
0.00190633 -0.000285725 3.59623e-07
-0.000285725 3.65218e-05 7.90303e-08
3.59623e-07 7.90303e-08 3.31507e-06
0.00192403 -0.00025574 -1.41954e-06
-0.00025574 8.11357e-05 6.79502e-07
-1.41954e-06 6.79502e-07 2.59266e-05
0.00189427 -0.000302762 8.37455e-07
-0.000302762 9.95755e-05 3.82442e-07
8.37455e-07 3.82442e-07 1.54736e-05
0.00184246 -0.000274758 -6.5718e-07
-0.000274758 8.96472e-05 4.81333e-08
-6.5718e-07 4.81333e-08 7.1478e-06
0.00174064 -0.00024245 4.08779e-07
-0.00024245 7.7797e-05 3.0468e-07
4.08779e-07 3.0468e-07 -2.05206e-05
0.00165268 -0.00027555 -1.28463e-07
-0.00027555 2.98921e-05 8.84785e-07
-1.28463e-07 8.84785e-07 -7.12252e-05
0.00173234 -0.000268039 7.71732e-07
-0.000268039 0.000103224 -6.57557e-07
7.71732e-07 -6.57557e-07 -9.92661e-06
0.00173892 -0.000254506 1.91494e-06
-0.000254506 0.000127197 -2.03784e-06
1.91494e-06 -2.03784e-06 -6.36637e-06
0.00190036 -0.000272013 -4.95259e-06
-0.000272013 0.000226094 4.74907e-06
-4.95259e-06 4.74907e-06 0.000103371
0.00185889 -0.000271339 -1.30069e-06
-0.000271339 0.000230631 3.28902e-07
-1.30069e-06 3.28902e-07 8.16114e-05
0.00167347 -0.0002462 -1.39224e-06
-0.0002462 0.000180139 -1.00337e-06
-1.39224e-06 -1.00337e-06 1.28056e-05
0.0017635 -0.000297803 2.47406e-06
-0.000297803 0.000199357 1.79756e-06
2.47406e-06 1.79756e-06 2.1644e-05
0.00168589 -0.000273074 9.94179e-07
-0.000273074 0.000216725 -6.82607e-07
9.94179e-07 -6.82607e-07 3.38191e-05
0.00129319 -0.000208119 -7.15972e-06
-0.000208119 8.72562e-05 2.15212e-06
-7.15972e-06 2.15212e-06 -8.56332e-05
0.000951551 -0.000170473 -1.16749e-05
-0.000170473 1.84719e-05 5.9981e-06
-1.16749e-05 5.9981e-06 -0.000132568
0.00117097 -0.000223831 -1.91232e-06
-0.000223831 5.26311e-05 4.0627e-07
-1.91232e-06 4.0627e-07 -0.00013104
0.00158961 -0.000303191 3.26529e-06
-0.000303191 0.00021373 -4.54384e-07
3.26529e-06 -4.54384e-07 6.79888e-06
0.000526253 -0.000171792 -2.13555e-05
-0.000171792 -8.94583e-05 1.4172e-05
-2.13555e-05 1.4172e-05 -0.000180977
0.0008806 -0.00017489 4.95435e-07
-0.00017489 1.7472e-05 1.99234e-07
4.95435e-07 1.99234e-07 -0.000141507
0.00120841 -0.000240757 7.07349e-06
-0.000240757 0.00011843 -2.18031e-06
7.07349e-06 -2.18031e-06 -7.63913e-05
0.00497224 0.000192937 -0.000134575
0.000192937 0.00264164 8.59525e-06
-0.000134575 8.59525e-06 0.00261845
0.000576458 -0.000147588 -8.18637e-07
-0.000147588 -4.66612e-05 9.68934e-08
-8.18637e-07 9.68934e-08 -0.000130461
0.000823293 -0.000173907 8.71878e-06
-0.000173907 4.99765e-05 -6.04932e-06
8.71878e-06 -6.04932e-06 -0.000114197
0.00456911 0.000153274 9.04287e-06
0.000153274 0.00239178 1.09436e-06
9.04287e-06 1.09436e-06 0.0023797
0.000734719 -0.000104578 1.70233e-05
-0.000104578 6.17275e-05 -1.29421e-05
1.70233e-05 -1.29421e-05 -1.03031e-05
0.00406759 0.000110912 0.000133155
0.000110912 0.00208542 -7.33411e-06
0.000133155 -7.33411e-06 0.00208453
0.00121146 0.000280799 -4.37108e-06
0.000280799 0.000101661 -2.09784e-07
-4.37108e-06 -2.09784e-07 -0.000120954
0.00118578 0.000261846 -2.00733e-06
0.000261846 0.000191292 -4.88517e-07
-2.00733e-06 -4.88517e-07 -2.97179e-05
0.00100339 0.000213426 -3.96725e-06
0.000213426 0.000143083 -2.25584e-06
-3.96725e-06 -2.25584e-06 -5.37281e-05
0.00155693 0.000270095 -2.58858e-06
0.000270095 0.000525203 3.65304e-06
-2.58858e-06 3.65304e-06 0.000323416
0.000904943 0.000166913 -1.09165e-06
0.000166913 0.000164615 -1.96705e-06
-1.09165e-06 -1.96705e-06 -7.86439e-06
0.000903494 0.000138923 -3.89333e-06
0.000138923 0.000193671 -5.64119e-06
-3.89333e-06 -5.64119e-06 5.22524e-05
0.000470038 7.97497e-05 -1.90878e-07
7.97497e-05 -6.39028e-05 2.07599e-07
-1.90878e-07 2.07599e-07 -0.00020052
0.000663358 3.89095e-05 -6.35505e-07
3.89095e-05 4.94085e-05 -1.63658e-07
-6.35505e-07 -1.63658e-07 -5.84219e-05
0.000591217 -1.11019e-05 -5.31469e-06
-1.11019e-05 9.70405e-06 -9.18331e-06
-5.31469e-06 -9.18331e-06 -3.66345e-05
0.000558019 -6.88015e-06 1.14122e-06
-6.88015e-06 -1.06174e-05 4.35467e-06
1.14122e-06 4.35467e-06 -0.000102748
0.000508125 -3.11733e-05 3.9673e-07
-3.11733e-05 -3.75425e-05 -1.6006e-07
3.9673e-07 -1.6006e-07 -7.79207e-05
0.00312951 -0.000129576 -7.6141e-05
-0.000129576 0.00153512 -2.37939e-06
-7.6141e-05 -2.37939e-06 0.00153279
0.000477729 -2.74754e-05 2.70245e-06
-2.74754e-05 -6.20443e-05 7.32587e-06
2.70245e-06 7.32587e-06 -9.70176e-05
0.00292638 -0.000123522 -3.26139e-06
-0.000123522 0.00140704 3.74389e-07
-3.26139e-06 3.74389e-07 0.00140589
0.00282079 -0.000109702 4.62634e-05
-0.000109702 0.00133522 3.64106e-06
4.62634e-05 3.64106e-06 0.00133724
0.000263384 5.13673e-05 1.59299e-05
5.13673e-05 -0.000993967 7.82891e-06
1.59299e-05 7.82891e-06 -0.000918117
0.0046677 2.66786e-05 5.46506e-05
2.66786e-05 0.000290631 8.26115e-07
5.46506e-05 8.26115e-07 0.000352359
0.010544 0.000635403 -7.79228e-05
0.000635403 0.00291291 -1.91207e-05
-7.79228e-05 -1.91207e-05 0.00186993
0.000994066 0.000327445 2.21089e-06
0.000327445 -0.000106491 2.46e-06
2.21089e-06 2.46e-06 -0.000318624
0.00171065 0.000382289 2.00199e-06
0.000382289 0.000231498 2.54122e-06
2.00199e-06 2.54122e-06 1.794e-05
0.00125346 0.000333148 9.20206e-08
0.000333148 7.64135e-05 -1.23829e-06
9.20206e-08 -1.23829e-06 -0.000159019
0.00117849 0.000280197 -2.06056e-06
0.000280197 0.000315119 2.10408e-06
-2.06056e-06 2.10408e-06 0.000109001
0.0013546 0.000315887 -1.53826e-06
0.000315887 0.000278831 -1.0561e-06
-1.53826e-06 -1.0561e-06 3.40588e-05
0.00143689 0.000373455 7.59683e-06
0.000373455 0.000253865 9.06476e-07
7.59683e-06 9.06476e-07 3.95857e-05
0.0017761 0.000469416 -3.82621e-06
0.000469416 0.000162401 -1.90455e-06
-3.82621e-06 -1.90455e-06 -3.95797e-05
0.00202567 0.000438499 -5.26255e-06
0.000438499 0.000591159 7.72718e-07
-5.26255e-06 7.72718e-07 0.000388482
0.00114853 0.000416964 1.03633e-05
0.000416964 -7.03111e-05 1.66603e-05
1.03633e-05 1.66603e-05 -0.000217106
0.00215708 0.00053142 -2.95514e-06
0.00053142 0.000386937 3.34864e-07
-2.95514e-06 3.34864e-07 0.000191724
0.00195199 0.000470486 -1.09341e-05
0.000470486 0.000171406 1.57311e-06
-1.09341e-05 1.57311e-06 8.09458e-06
0.000667186 0.000233559 1.53957e-05
0.000233559 -0.000498888 8.00392e-06
1.53957e-05 8.00392e-06 -0.000535985
0.00104397 0.000418189 1.00316e-05
0.000418189 -0.000181726 -1.48046e-07
1.00316e-05 -1.48046e-07 -0.00031151
0.0011292 0.000481757 -8.99758e-06
0.000481757 -0.000144231 -8.66869e-06
-8.99758e-06 -8.66869e-06 -0.000320881
0.0017917 0.0003814 3.62897e-06
0.0003814 -8.02968e-05 6.58556e-06
3.62897e-06 6.58556e-06 -6.90357e-05
0.00546063 0.000512255 2.98334e-05
0.000512255 5.31138e-05 -1.79282e-05
2.98334e-05 -1.79282e-05 -4.00729e-05
0.00274431 0.000660248 9.10209e-06
0.000660248 0.00063565 -2.95686e-05
9.10209e-06 -2.95686e-05 0.000584441
0.00148958 -4.18016e-05 2.33658e-05
-4.18016e-05 -1.10735e-05 -2.84811e-06
2.33658e-05 -2.84811e-06 -1.36062e-05
0.00215074 -0.000128159 -2.62205e-05
-0.000128159 -6.53658e-06 -4.70631e-08
-2.62205e-05 -4.70631e-08 -1.84157e-05
0.00148594 0.000169596 2.89336e-05
0.000169596 -0.000582135 -6.49039e-06
2.89336e-05 -6.49039e-06 -0.000771834
0.000231263 -0.000201218 -3.03378e-05
-0.000201218 -0.00105552 2.34683e-05
-3.03378e-05 2.34683e-05 -0.00093246
0.00326781 -0.000211034 -9.31264e-05
-0.000211034 0.000547143 -1.09706e-06
-9.31264e-05 -1.09706e-06 0.000535903
0.00189049 -0.000196682 3.50708e-06
-0.000196682 -0.000130805 -2.77682e-06
3.50708e-06 -2.77682e-06 -4.66691e-06
0.00232812 -6.41899e-05 -8.89626e-06
-6.41899e-05 0.000394054 3.36747e-07
-8.89626e-06 3.36747e-07 0.000358562
0.00203346 -0.00018305 3.37844e-06
-0.00018305 1.74835e-06 1.38537e-06
3.37844e-06 1.38537e-06 2.12453e-05
0.00206311 -2.49237e-05 4.64614e-06
-2.49237e-05 6.65922e-05 7.10452e-08
4.64614e-06 7.10452e-08 4.9319e-05
0.00177023 -0.000276125 -7.57276e-06
-0.000276125 -0.000260632 2.70484e-06
-7.57276e-06 2.70484e-06 -0.000171947
0.00199381 -0.000255827 -1.85533e-06
-0.000255827 -2.72761e-05 4.31464e-08
-1.85533e-06 4.31464e-08 2.07953e-05
0.00197904 -0.000202419 -2.06269e-06
-0.000202419 1.72348e-05 -2.19758e-07
-2.06269e-06 -2.19758e-07 -1.49804e-06
0.00191401 -0.000292401 -1.69171e-06
-0.000292401 3.83388e-05 -7.62931e-07
-1.69171e-06 -7.62931e-07 3.74622e-07
0.00186817 -0.000250847 2.31341e-07
-0.000250847 5.83012e-05 -8.20093e-08
2.31341e-07 -8.20093e-08 -1.91036e-06
0.00191676 -0.000222772 -1.12666e-06
-0.000222772 0.000115095 4.27056e-07
-1.12666e-06 4.27056e-07 3.35709e-05
0.00175875 -0.000277438 -1.5207e-06
-0.000277438 4.62419e-05 -1.05355e-06
-1.5207e-06 -1.05355e-06 -3.9519e-05
0.00177412 -0.000243215 4.01096e-07
-0.000243215 9.38797e-05 -1.60849e-07
4.01096e-07 -1.60849e-07 -4.60279e-06
0.00176588 -0.000228859 1.39703e-06
-0.000228859 0.000104325 -1.01207e-06
1.39703e-06 -1.01207e-06 -1.20943e-05
0.00176806 -0.000269858 -1.40677e-06
-0.000269858 0.00012386 1.66337e-07
-1.40677e-06 1.66337e-07 1.03429e-05
0.0017646 -0.000255052 -2.62333e-08
-0.000255052 0.000143021 -3.03485e-07
-2.62333e-08 -3.03485e-07 9.45534e-06
0.00164047 -0.000226565 -2.19912e-07
-0.000226565 0.000130877 -9.46789e-07
-2.19912e-07 -9.46789e-07 -2.46506e-05
0.00192419 -0.000272975 -1.84672e-06
-0.000272975 0.000266071 3.42913e-06
-1.84672e-06 3.42913e-06 0.000120399
0.00168795 -0.000247433 -6.5477e-07
-0.000247433 0.000189283 -9.21121e-08
-6.5477e-07 -9.21121e-08 2.29803e-05
0.00131581 -0.000189385 -6.43194e-06
-0.000189385 7.96663e-05 1.89179e-06
-6.43194e-06 1.89179e-06 -8.627e-05
0.00165376 -0.000272952 4.32447e-06
-0.000272952 0.000198421 6.63933e-08
4.32447e-06 6.63933e-08 1.44381e-05
0.00127481 -0.000208419 -1.03172e-07
-0.000208419 7.61619e-05 -4.53172e-08
-1.03172e-07 -4.53172e-08 -9.69906e-05
0.000965933 -0.000154025 -1.26792e-05
-0.000154025 4.09979e-06 6.03259e-06
-1.26792e-05 6.03259e-06 -0.000139501
0.000449544 -0.000163621 -1.9912e-05
-0.000163621 -0.000143795 1.34377e-05
-1.9912e-05 1.34377e-05 -0.000237233
0.000935704 -0.000168751 2.14224e-07
-0.000168751 9.49014e-06 -1.29841e-08
2.14224e-07 -1.29841e-08 -0.000141379
0.00126943 -0.000230854 5.52955e-06
-0.000230854 0.000110267 -1.82318e-06
5.52955e-06 -1.82318e-06 -7.42703e-05
0.00540411 0.000127266 -0.000167804
0.000127266 0.00287188 9.00998e-06
-0.000167804 9.00998e-06 0.00286186
0.000556468 -0.000165859 -1.97716e-06
-0.000165859 -7.69869e-05 6.2027e-07
-1.97716e-06 6.2027e-07 -0.000166454
0.000841615 -0.000174008 1.02755e-05
-0.000174008 -2.07913e-06 -5.6866e-06
1.02755e-05 -5.6866e-06 -0.000161164
0.00514231 0.000150806 6.32371e-06
0.000150806 0.00272917 6.19274e-07
6.32371e-06 6.19274e-07 0.00271413
0.000686077 -0.000150719 2.06935e-05
-0.000150719 1.40016e-05 -1.40037e-05
2.06935e-05 -1.40037e-05 -7.11704e-05
0.00475983 0.000125447 0.000155168
0.000125447 0.00249682 -9.78755e-06
0.000155168 -9.78755e-06 0.0024891
0.00133271 0.000302948 -3.18776e-06
0.000302948 0.000119155 1.20369e-06
-3.18776e-06 1.20369e-06 -9.3907e-05
0.00114095 0.000274834 4.87334e-07
0.000274834 5.80166e-05 4.15419e-07
4.87334e-07 4.15419e-07 -0.000162965
0.00111025 0.000230666 -7.05534e-06
0.000230666 0.000103505 -1.58057e-06
-7.05534e-06 -1.58057e-06 -9.25769e-05
0.000829353 0.000228299 -5.97362e-07
0.000228299 -1.43006e-05 3.06336e-06
-5.97362e-07 3.06336e-06 -0.000229444
0.00104316 0.000215869 -1.69902e-06
0.000215869 0.000168849 9.56005e-07
-1.69902e-06 9.56005e-07 -2.84767e-05
0.000891128 0.000172783 -6.48656e-06
0.000172783 0.000146479 -5.45403e-06
-6.48656e-06 -5.45403e-06 -1.55129e-05
0.0010743 0.00018254 -6.33622e-07
0.00018254 0.000265691 9.31819e-07
-6.33622e-07 9.31819e-07 9.02632e-05
0.000725835 0.000110268 -6.82658e-08
0.000110268 9.14369e-05 -4.30518e-07
-6.82658e-08 -4.30518e-07 -4.60359e-05
0.000711146 3.99002e-05 -1.08155e-05
3.99002e-05 7.19238e-05 -1.14848e-05
-1.08155e-05 -1.14848e-05 1.28341e-05
0.0005931 5.14839e-06 1.31995e-06
5.14839e-06 7.46209e-06 4.20125e-06
1.31995e-06 4.20125e-06 -9.60629e-05
0.000504106 -1.93873e-05 -1.39653e-07
-1.93873e-05 -3.8993e-05 -2.71116e-07
-1.39653e-07 -2.71116e-07 -8.52615e-05
0.00344545 -0.000130815 -9.92231e-05
-0.000130815 0.00172764 -2.98762e-06
-9.92231e-05 -2.98762e-06 0.0017243
0.000455659 -3.20984e-05 2.62092e-06
-3.20984e-05 -6.77595e-05 8.03712e-06
2.62092e-06 8.03712e-06 -0.000107871
0.00307104 -0.000136643 -3.19051e-06
-0.000136643 0.00150141 3.62152e-07
-3.19051e-06 3.62152e-07 0.00149694
0.0029061 -0.000123638 5.34149e-05
-0.000123638 0.00139458 3.17281e-06
5.34149e-05 3.17281e-06 0.0013932
0.000562333 5.98146e-05 1.88394e-05
5.98146e-05 -0.000569641 -1.61429e-06
1.88394e-05 -1.61429e-06 -0.000528698
0.00204661 2.78753e-05 -7.23707e-06
2.78753e-05 -0.000230836 -1.31412e-06
-7.23707e-06 -1.31412e-06 -0.000136217
0.00424735 4.05825e-05 0.000141532
4.05825e-05 -0.000313456 4.17112e-05
0.000141532 4.17112e-05 0.000132431
0.00214021 0.000443284 -2.03556e-06
0.000443284 0.000391635 7.77194e-07
-2.03556e-06 7.77194e-07 0.000187299
0.00128931 0.000372337 -7.58984e-08
0.000372337 5.07675e-05 -2.36524e-06
-7.58984e-08 -2.36524e-06 -0.000167015
0.00195268 0.000363076 -2.81379e-07
0.000363076 0.000242549 3.24645e-06
-2.81379e-07 3.24645e-06 6.08453e-05
0.0017268 0.000381641 8.21159e-07
0.000381641 0.00023996 2.47888e-07
8.21159e-07 2.47888e-07 2.6914e-05
0.00118698 0.000336133 1.30532e-06
0.000336133 3.94697e-05 -5.22682e-06
1.30532e-06 -5.22682e-06 -0.000195927
0.00184066 0.000388363 -1.96217e-06
0.000388363 8.71964e-05 1.51702e-06
-1.96217e-06 1.51702e-06 -7.40224e-05
0.00202543 0.000429873 -3.61095e-06
0.000429873 0.000570291 -1.40817e-06
-3.61095e-06 -1.40817e-06 0.000347425
0.00197335 0.000477368 -3.58533e-08
0.000477368 0.000285017 -5.50302e-07
-3.58533e-08 -5.50302e-07 8.08929e-05
0.00179343 0.000276667 -4.27749e-06
0.000276667 -1.78246e-05 1.03132e-07
-4.27749e-06 1.03132e-07 -0.000116982
0.00262317 0.000564935 4.36256e-06
0.000564935 0.000643991 2.71126e-06
4.36256e-06 2.71126e-06 0.000447596
0.00192957 0.000471147 -1.61191e-06
0.000471147 0.000150401 1.61145e-07
-1.61191e-06 1.61145e-07 -1.54631e-05
0.000876515 0.000248032 4.057e-06
0.000248032 -0.000349594 2.95815e-06
4.057e-06 2.95815e-06 -0.000397129
-0.000275756 0.000325946 -1.8841e-06
0.000325946 -0.000859224 -4.39165e-06
-1.8841e-06 -4.39165e-06 -0.000981335
0.00199898 0.000392442 -5.23077e-05
0.000392442 1.70469e-05 -2.52185e-05
-5.23077e-05 -2.52185e-05 -3.76642e-06
0.00184349 4.08557e-05 5.78417e-07
4.08557e-05 -6.44388e-05 -1.95873e-06
5.78417e-07 -1.95873e-06 -7.1437e-05
0.00216469 -3.48306e-05 1.03526e-06
-3.48306e-05 0.000401657 2.24002e-06
1.03526e-06 2.24002e-06 0.000401832
0.00164427 -5.01012e-05 -5.68279e-05
-5.01012e-05 -0.000187587 -2.90181e-06
-5.68279e-05 -2.90181e-06 -0.000279402
0.00226087 -0.000225657 -3.28818e-05
-0.000225657 0.000120325 1.97999e-06
-3.28818e-05 1.97999e-06 0.000228321
0.0013675 -7.4333e-05 -7.81957e-06
-7.4333e-05 -0.00020523 8.2395e-07
-7.81957e-06 8.2395e-07 -0.000235169
0.00197818 -0.000176591 9.31109e-08
-0.000176591 -3.21825e-05 -6.66234e-07
9.31109e-08 -6.66234e-07 -2.35783e-06
0.00209083 -2.6002e-05 -3.01747e-06
-2.6002e-05 6.2264e-05 1.20612e-06
-3.01747e-06 1.20612e-06 5.09988e-05
0.00206514 -6.54118e-05 -3.68073e-06
-6.54118e-05 3.77666e-05 -2.14524e-07
-3.68073e-06 -2.14524e-07 3.31834e-05
0.00200564 -0.00025174 -3.75625e-06
-0.00025174 -7.3577e-06 -1.10367e-07
-3.75625e-06 -1.10367e-07 2.97241e-05
0.00196207 -0.000194175 4.65156e-07
-0.000194175 1.86301e-05 -2.14327e-07
4.65156e-07 -2.14327e-07 -1.74321e-06
0.00205205 -0.000160867 -1.31309e-06
-0.000160867 0.000109433 -2.63113e-07
-1.31309e-06 -2.63113e-07 6.53432e-05
0.00181328 -0.000246621 9.05221e-07
-0.000246621 3.54213e-05 -1.14515e-06
9.05221e-07 -1.14515e-06 -2.98058e-05
0.0018327 -0.000218464 1.05075e-07
-0.000218464 7.09438e-05 -6.62791e-08
1.05075e-07 -6.62791e-08 -1.22738e-05
0.00176262 -0.000183385 6.69949e-07
-0.000183385 6.37049e-05 -3.80824e-07
6.69949e-07 -3.80824e-07 -3.60356e-05
0.00181214 -0.000244258 3.17437e-07
-0.000244258 0.000111716 -4.89177e-07
3.17437e-07 -4.89177e-07 1.30825e-05
0.00179133 -0.000228976 1.69494e-08
-0.000228976 0.000120703 -2.40819e-07
1.69494e-08 -2.40819e-07 4.27907e-06
0.00169085 -0.000202885 7.39857e-07
-0.000202885 0.000122383 -7.96593e-07
7.39857e-07 -7.96593e-07 -1.98982e-05
0.0017909 -0.000255685 -1.26614e-06
-0.000255685 0.000159008 1.26337e-06
-1.26614e-06 1.26337e-06 2.54277e-05
0.00166435 -0.000227268 -2.96713e-07
-0.000227268 0.000145041 -5.19853e-08
-2.96713e-07 -5.19853e-08 -1.01768e-05
0.00136167 -0.000172822 -4.97085e-06
-0.000172822 8.51957e-05 1.47017e-06
-4.97085e-06 1.47017e-06 -7.51785e-05
0.00170107 -0.00024851 1.02443e-06
-0.00024851 0.000197509 9.67709e-07
1.02443e-06 9.67709e-07 3.22753e-05
0.00133323 -0.000190315 -1.80094e-07
-0.000190315 8.84373e-05 7.1708e-08
-1.80094e-07 7.1708e-08 -7.72916e-05
0.000973938 -0.000136169 -1.33095e-05
-0.000136169 -5.77088e-06 5.56056e-06
-1.33095e-05 5.56056e-06 -0.00014467
0.00125807 -0.000208868 6.34975e-06
-0.000208868 6.60702e-05 -1.74693e-06
6.34975e-06 -1.74693e-06 -0.000107367
0.000973207 -0.000152969 2.25001e-07
-0.000152969 7.51492e-06 6.90002e-08
2.25001e-07 6.90002e-08 -0.000135775
0.00241858 -0.000110698 -2.88991e-05
-0.000110698 0.00101199 8.41089e-06
-2.88991e-05 8.41089e-06 0.00093464
0.00168928 -4.68275e-05 -0.000178578
-4.68275e-05 0.000646427 1.94016e-05
-0.000178578 1.94016e-05 0.00062855
0.0015308 -0.000146092 -5.15598e-06
-0.000146092 0.000491995 -3.37791e-07
-5.15598e-06 -3.37791e-07 0.000404331
0.000924891 -0.000167395 1.15162e-05
-0.000167395 3.5932e-06 -5.80311e-06
1.15162e-05 -5.80311e-06 -0.000147187
0.00550183 0.000110104 -5.85114e-06
0.000110104 0.00293545 -7.26053e-07
-5.85114e-06 -7.26053e-07 0.00292252
0.000621187 -0.000186468 2.24613e-05
-0.000186468 -3.8468e-05 -1.39131e-05
2.24613e-05 -1.39131e-05 -0.000131619
0.00529353 0.000133715 0.000168922
0.000133715 0.00282324 -1.41247e-05
0.000168922 -1.41247e-05 0.00280559
0.00192369 0.00028976 8.52119e-07
0.00028976 0.000192963 5.07759e-07
8.52119e-07 5.07759e-07 3.64675e-05
0.00163296 0.000318018 9.72012e-07
0.000318018 0.000182596 2.76804e-06
9.72012e-07 2.76804e-06 -1.31472e-05
0.00153825 0.000323842 -1.10773e-07
0.000323842 0.000232627 -3.44782e-08
-1.10773e-07 -3.44782e-08 1.68705e-05
0.00121639 0.00023963 -6.44984e-06
0.00023963 9.7559e-05 -2.08003e-06
-6.44984e-06 -2.08003e-06 -9.18147e-05
0.00109055 0.000270583 5.30263e-06
0.000270583 2.74007e-05 4.35173e-07
5.30263e-06 4.35173e-07 -0.000192299
0.00111978 0.00023081 -4.44467e-07
0.00023081 0.000109581 2.9994e-07
-4.44467e-07 2.9994e-07 -8.62257e-05
0.000811115 0.000172639 -9.4057e-06
0.000172639 1.89224e-05 -4.62007e-06
-9.4057e-06 -4.62007e-06 -0.000143128
0.00111858 0.000221348 1.94739e-06
0.000221348 0.000215709 4.48491e-06
1.94739e-06 4.48491e-06 1.73338e-05
0.000809046 0.00015821 -4.98845e-07
0.00015821 9.92584e-05 5.12046e-07
-4.98845e-07 5.12046e-07 -6.05928e-05
0.000767351 0.000122059 -1.78856e-05
0.000122059 8.80917e-05 -1.35748e-05
-1.78856e-05 -1.35748e-05 1.0022e-05
0.000609402 8.01659e-05 2.01033e-06
8.01659e-05 2.04926e-05 4.1555e-06
2.01033e-06 4.1555e-06 -0.000110274
0.000522684 2.71527e-05 -9.95896e-07
2.71527e-05 -3.56849e-05 -5.76549e-07
-9.95896e-07 -5.76549e-07 -9.20022e-05
0.00399291 -0.000125042 -0.000131086
-0.000125042 0.00205536 -5.96598e-06
-0.000131086 -5.96598e-06 0.00204982
0.000403497 -2.71974e-05 2.79636e-06
-2.71974e-05 -9.47522e-05 9.01949e-06
2.79636e-06 9.01949e-06 -0.000141416
0.00332349 -0.000148082 -4.30104e-06
-0.000148082 0.00165853 3.75436e-07
-4.30104e-06 3.75436e-07 0.00165086
0.00302391 -0.000138378 6.06222e-05
-0.000138378 0.00147351 2.55899e-06
6.06222e-05 2.55899e-06 0.00146835
0.00186954 0.000149765 7.28961e-07
0.000149765 -4.09741e-05 -8.3316e-07
7.28961e-07 -8.3316e-07 -7.9191e-05
0.0019175 4.73024e-05 1.57802e-05
4.73024e-05 0.000143823 9.24475e-07
1.57802e-05 9.24475e-07 0.000173703
0.00422665 1.9767e-05 -9.49518e-05
1.9767e-05 0.000709401 -1.26941e-05
-9.49518e-05 -1.26941e-05 0.000841777
0.0017596 0.000335051 -2.54556e-06
0.000335051 5.9714e-05 1.34651e-06
-2.54556e-06 1.34651e-06 -9.59733e-05
0.00181863 0.000416113 -1.65966e-06
0.000416113 0.000222101 -1.09614e-07
-1.65966e-06 -1.09614e-07 2.01152e-05
0.00150505 0.000408854 -1.37422e-05
0.000408854 0.000164312 -7.04074e-06
-1.37422e-05 -7.04074e-06 -5.7279e-05
0.00199337 0.000354208 2.61876e-06
0.000354208 0.000275448 9.37199e-07
2.61876e-06 9.37199e-07 9.59906e-05
0.0017423 0.000380868 -1.31152e-06
0.000380868 0.000249244 -2.43576e-06
-1.31152e-06 -2.43576e-06 3.66426e-05
0.00217171 0.000275117 1.27003e-06
0.000275117 0.000206734 1.0342e-06
1.27003e-06 1.0342e-06 0.000104713
0.00171773 0.000381999 -1.13208e-06
0.000381999 3.27184e-05 7.95941e-07
-1.13208e-06 7.95941e-07 -0.00012912
0.00219906 0.000487799 -3.52549e-07
0.000487799 0.000422764 -6.22994e-07
-3.52549e-07 -6.22994e-07 0.000216024
0.00179735 0.000282044 -9.82502e-07
0.000282044 -8.51471e-06 -5.01197e-08
-9.82502e-07 -5.01197e-08 -0.000109603
0.00204905 0.000481537 1.73982e-05
0.000481537 0.000197408 1.6136e-06
1.73982e-05 1.6136e-06 2.81247e-05
0.00127854 0.000260051 -2.5188e-05
0.000260051 -0.000108619 -5.78242e-06
-2.5188e-05 -5.78242e-06 -0.000164912
0.00201712 5.01632e-05 -3.98846e-06
5.01632e-05 3.36564e-05 -1.48048e-07
-3.98846e-06 -1.48048e-07 1.60481e-05
0.00194132 5.15426e-05 -2.30901e-06
5.15426e-05 -1.35209e-06 3.19556e-07
-2.30901e-06 3.19556e-07 -1.20531e-05
0.00286498 -2.3452e-05 -3.86958e-05
-2.3452e-05 0.000835639 1.53655e-06
-3.86958e-05 1.53655e-06 0.000830411
0.00189853 -0.000168557 -8.21236e-06
-0.000168557 -8.5128e-05 -1.35833e-06
-8.21236e-06 -1.35833e-06 -4.50523e-05
0.00198731 -2.5653e-05 2.23119e-06
-2.5653e-05 -2.25482e-05 -6.93637e-07
2.23119e-06 -6.93637e-07 -2.96146e-05
0.00203403 -6.96957e-05 -3.90765e-07
-6.96957e-05 4.41114e-06 7.64318e-08
-3.90765e-07 7.64318e-08 4.86623e-06
0.00193053 -5.17768e-05 -2.12181e-06
-5.17768e-05 4.70963e-05 -2.36252e-08
-2.12181e-06 -2.36252e-08 1.82132e-05
0.00194296 -0.000184839 2.46906e-06
-0.000184839 1.989e-05 -2.10733e-07
2.46906e-06 -2.10733e-07 -1.69017e-06
0.00191124 -0.000159732 3.3025e-07
-0.000159732 3.81279e-05 -2.21096e-08
3.3025e-07 -2.21096e-08 -1.09963e-05
0.00182017 -0.000123964 2.74418e-06
-0.000123964 7.13727e-05 -1.45906e-06
2.74418e-06 -1.45906e-06 -1.37911e-05
0.00174904 -0.00021402 1.34741e-06
-0.00021402 2.75282e-05 -3.03797e-07
1.34741e-06 -3.03797e-07 -5.73898e-05
0.00181867 -0.000185586 -4.71976e-09
-0.000185586 9.30427e-05 -7.17141e-09
-4.71976e-09 -7.17141e-09 -6.82727e-06
0.00177012 -0.00016863 9.62682e-07
-0.00016863 0.000127222 -6.1361e-07
9.62682e-07 -6.1361e-07 -1.89459e-06
0.00181536 -0.000228894 -7.3089e-07
-0.000228894 0.000136545 4.38589e-07
-7.3089e-07 4.38589e-07 2.01454e-05
0.00171617 -0.000203421 -2.44481e-07
-0.000203421 0.000137143 -4.61629e-08
-2.44481e-07 -4.61629e-08 -4.91283e-06
0.00140522 -0.00015165 -3.89656e-06
-0.00015165 8.68652e-05 1.02626e-06
-3.89656e-06 1.02626e-06 -6.7044e-05
0.00168811 -0.000227982 -2.1677e-07
-0.000227982 0.000159215 7.87885e-07
-2.1677e-07 7.87885e-07 4.30452e-06
0.00137106 -0.00017307 -1.38226e-07
-0.00017307 8.87498e-05 7.75412e-08
-1.38226e-07 7.75412e-08 -7.12854e-05
0.000981014 -0.000120066 -1.31441e-05
-0.000120066 -1.17958e-05 4.84327e-06
-1.31441e-05 4.84327e-06 -0.000148402
0.00135077 -0.000191298 5.61426e-06
-0.000191298 9.72278e-05 -1.58747e-06
5.61426e-06 -1.58747e-06 -6.83054e-05
0.000987915 -0.000135068 1.40088e-07
-0.000135068 7.78394e-07 1.05755e-07
1.40088e-07 1.05755e-07 -0.000137603
0.00246981 -0.000117983 -3.66236e-05
-0.000117983 0.00102835 7.65698e-06
-3.66236e-05 7.65698e-06 0.000958287
0.000972454 -0.0001517 1.27901e-05
-0.0001517 6.38503e-06 -5.81326e-06
1.27901e-05 -5.81326e-06 -0.000136608
0.00258341 -0.000156197 3.73037e-05
-0.000156197 0.00110419 -4.6789e-06
3.73037e-05 -4.6789e-06 0.00103309
0.0017642 -8.70531e-05 -0.0001831
-8.70531e-05 0.000696914 2.36863e-05
-0.0001831 2.36863e-05 0.000677531
0.00356811 -1.75602e-05 -0.000179846
-1.75602e-05 0.00177968 1.12998e-05
-0.000179846 1.12998e-05 0.00176617
0.00267402 -0.000208228 0.000114125
-0.000208228 0.00116323 -1.55404e-05
0.000114125 -1.55404e-05 0.00109445
0.00558752 9.62848e-05 0.000181132
9.62848e-05 0.00299551 -1.76414e-05
0.000181132 -1.76414e-05 0.00297798
0.0020601 0.000287538 -1.77485e-06
0.000287538 0.000247069 -7.0771e-07
-1.77485e-06 -7.0771e-07 0.000105582
0.00155573 0.000260822 2.67763e-06
0.000260822 8.16476e-05 1.01207e-06
2.67763e-06 1.01207e-06 -8.96293e-05
0.00191319 0.000288731 4.16329e-07
0.000288731 0.000183988 -1.15736e-06
4.16329e-07 -1.15736e-06 3.18024e-05
0.00123601 0.000229043 -6.26293e-06
0.000229043 5.91575e-05 -1.24969e-06
-6.26293e-06 -1.24969e-06 -0.000122182
0.00169816 0.000320201 5.90429e-07
0.000320201 0.000212415 4.95553e-07
5.90429e-07 4.95553e-07 1.59951e-05
0.00176493 0.000346881 2.61731e-06
0.000346881 0.000357462 -7.48905e-07
2.61731e-06 -7.48905e-07 0.000138712
0.00119974 0.000235627 9.42674e-08
0.000235627 9.24624e-05 -1.61884e-07
9.42674e-08 -1.61884e-07 -9.58412e-05
0.000919428 0.000174569 -1.08973e-05
0.000174569 1.75371e-05 -5.88865e-06
-1.08973e-05 -5.88865e-06 -0.000137515
0.00112868 0.000231099 6.71434e-06
0.000231099 0.000114849 2.38652e-06
6.71434e-06 2.38652e-06 -8.07262e-05
0.000844579 0.000169804 -6.39616e-07
0.000169804 3.54187e-05 6.47729e-07
-6.39616e-07 6.47729e-07 -0.000125938
0.000648047 0.000174637 -2.19976e-05
0.000174637 -3.5052e-06 -1.38237e-05
-2.19976e-05 -1.38237e-05 -9.45816e-05
0.000680306 0.000141068 3.76725e-06
0.000141068 2.50962e-05 5.93501e-06
3.76725e-06 5.93501e-06 -0.00013233
0.00054625 9.49762e-05 -6.54343e-07
9.49762e-05 -3.8417e-05 -2.14123e-08
-6.54343e-07 -2.14123e-08 -0.000111662
0.00483288 -0.0001205 -0.000163664
-0.0001205 0.00256021 -1.18317e-05
-0.000163664 -1.18317e-05 0.00254634
0.000338096 1.16658e-06 5.2362e-06
1.16658e-06 -0.00013734 1.04745e-05
5.2362e-06 1.04745e-05 -0.000192957
0.00381554 -0.000161033 -7.71469e-06
-0.000161033 0.00195803 5.1366e-07
-7.71469e-06 5.1366e-07 0.00194553
0.00323245 -0.000154785 6.98705e-05
-0.000154785 0.00160575 2.06177e-06
6.98705e-05 2.06177e-06 0.00159617
0.0019094 0.00016139 -8.63532e-07
0.00016139 -3.29871e-06 5.20077e-07
-8.63532e-07 5.20077e-07 -6.12121e-05
0.00184637 0.000149646 7.20134e-07
0.000149646 -5.25943e-05 -2.27631e-07
7.20134e-07 -2.27631e-07 -9.11278e-05
0.00297823 3.66671e-05 -6.52614e-05
3.66671e-05 0.000707397 -5.59838e-06
-6.52614e-05 -5.59838e-06 0.00073487
0.00201901 0.000244927 1.22323e-06
0.000244927 0.000154086 9.45863e-07
1.22323e-06 9.45863e-07 4.32744e-05
0.00177068 0.000330916 -5.87151e-07
0.000330916 8.20348e-05 3.04152e-07
-5.87151e-07 3.04152e-07 -7.31273e-05
0.00150392 0.000389613 -3.36996e-07
0.000389613 5.49712e-05 -2.22685e-06
-3.36996e-07 -2.22685e-06 -0.000144791
0.00203715 0.000345159 -6.827e-07
0.000345159 0.000310752 -2.36247e-06
-6.827e-07 -2.36247e-06 0.000133622
0.00202403 0.000265873 -1.06861e-06
0.000265873 0.000122429 -2.20238e-07
-1.06861e-06 -2.20238e-07 2.01852e-05
0.00160217 0.000375668 -9.08237e-07
0.000375668 -1.81895e-05 -2.38865e-07
-9.08237e-07 -2.38865e-07 -0.000180589
0.00179983 0.000284413 6.66368e-06
0.000284413 1.2629e-05 -5.6862e-07
6.66368e-06 -5.6862e-07 -8.9751e-05
0.00190547 4.67796e-05 -1.25215e-06
4.67796e-05 2.69464e-05 3.07837e-07
-1.25215e-06 3.07837e-07 -7.69792e-06
0.00197483 4.99348e-05 5.30716e-07
4.99348e-05 1.80598e-05 -3.19702e-08
5.30716e-07 -3.19702e-08 -2.3608e-06
0.00199226 6.14512e-05 -6.45872e-06
6.14512e-05 3.17968e-05 5.86551e-07
-6.45872e-06 5.86551e-07 1.93312e-05
0.00160734 -1.15954e-05 -2.7566e-06
-1.15954e-05 -9.81105e-05 5.61796e-08
-2.7566e-06 5.61796e-08 -0.000144403
0.00200065 -7.81945e-05 3.9478e-06
-7.81945e-05 -2.98655e-05 -4.35931e-07
3.9478e-06 -4.35931e-07 -2.48138e-05
0.00191003 -5.42686e-05 -9.21796e-07
-5.42686e-05 3.43372e-05 3.81816e-07
-9.21796e-07 3.81816e-07 4.69524e-06
0.00188832 -6.83109e-05 -8.801e-07
-6.83109e-05 0.0001078 -5.89345e-07
-8.801e-07 -5.89345e-07 3.5789e-05
0.0017738 -0.000158638 2.68769e-06
-0.000158638 -3.14173e-05 -3.19677e-07
2.68769e-06 -3.19677e-07 -8.58152e-05
0.00184803 -0.000125125 2.18834e-06
-0.000125125 7.91455e-05 -7.4306e-07
2.18834e-06 -7.4306e-07 -5.78685e-06
0.00182085 -0.000118449 2.5866e-06
-0.000118449 0.000134499 -1.3753e-06
2.5866e-06 -1.3753e-06 1.75984e-05
0.00188077 -0.000187444 -4.16558e-07
-0.000187444 0.000125995 3.51673e-07
-4.16558e-07 3.51673e-07 2.6076e-05
0.00177469 -0.000167134 -1.16178e-07
-0.000167134 0.000132171 -3.60727e-08
-1.16178e-07 -3.60727e-08 3.37775e-06
0.00144484 -0.0001232 -3.09468e-06
-0.0001232 8.51314e-05 5.30671e-07
-3.09468e-06 5.30671e-07 -6.08477e-05
0.00173975 -0.00020378 -7.90874e-07
-0.00020378 0.000151109 6.24136e-07
-7.90874e-07 6.24136e-07 9.30166e-06
0.00140416 -0.000151148 -1.48135e-07
-0.000151148 8.39538e-05 1.38918e-07
-1.48135e-07 1.38918e-07 -6.95889e-05
0.000989347 -0.000102444 -1.27318e-05
-0.000102444 -1.72557e-05 3.93045e-06
-1.27318e-05 3.93045e-06 -0.000151617
0.0013785 -0.000173146 4.4267e-06
-0.000173146 9.12265e-05 -1.25333e-06
4.4267e-06 -1.25333e-06 -6.84449e-05
0.000998254 -0.00011849 2.34199e-08
-0.00011849 -3.61512e-06 1.93517e-07
2.34199e-08 1.93517e-07 -0.000139526
0.00250094 -0.000126811 -4.43771e-05
-0.000126811 0.0010405 7.40748e-06
-4.43771e-05 7.40748e-06 0.000972783
0.000999649 -0.000133906 1.32914e-05
-0.000133906 5.87991e-06 -5.4026e-06
1.32914e-05 -5.4026e-06 -0.000131945
0.00257331 -0.000149005 3.39679e-05
-0.000149005 0.00108774 -3.93222e-06
3.39679e-05 -3.93222e-06 0.00102194
0.00181651 -7.58287e-05 -0.000179296
-7.58287e-05 0.000722832 2.12195e-05
-0.000179296 2.12195e-05 0.000704496
0.00272455 -0.000173465 0.000113446
-0.000173465 0.00118343 -1.7564e-05
0.000113446 -1.7564e-05 0.00111745
0.00153728 -2.39436e-05 -8.20282e-05
-2.39436e-05 0.000569566 9.22242e-06
-8.20282e-05 9.22242e-06 0.000540567
0.00531643 0.000177821 2.87416e-05
0.000177821 0.00282644 -2.33241e-06
2.87416e-05 -2.33241e-06 0.00279717
0.00186735 0.000233706 6.71609e-07
0.000233706 0.000118215 3.45352e-07
6.71609e-07 3.45352e-07 -1.20832e-05
0.00183463 0.000257008 1.0124e-09
0.000257008 0.000200371 -6.61936e-07
1.0124e-09 -6.61936e-07 4.41679e-05
0.00192462 0.000281948 -3.35797e-06
0.000281948 0.000165052 7.45982e-08
-3.35797e-06 7.45982e-08 2.16867e-05
0.00166534 0.000228775 -3.6738e-06
0.000228775 0.00027638 -7.21248e-07
-3.6738e-06 -7.21248e-07 0.000106546
0.00159603 0.000268158 4.93154e-07
0.000268158 9.7778e-05 -1.32214e-06
4.93154e-07 -1.32214e-06 -7.19028e-05
0.00190356 0.000287881 -2.70623e-06
0.000287881 0.000175498 -3.3841e-06
-2.70623e-06 -3.3841e-06 2.76246e-05
0.00101546 0.000170497 -1.30238e-05
0.000170497 3.53349e-05 -5.47834e-06
-1.30238e-05 -5.47834e-06 -0.000114549
0.00126194 0.000230285 -1.3366e-07
0.000230285 7.53921e-05 3.42257e-07
-1.3366e-07 3.42257e-07 -0.000106234
0.0017611 0.000322235 2.94707e-06
0.000322235 0.000239912 -1.53723e-06
2.94707e-06 -1.53723e-06 4.28188e-05
0.00116595 0.000230166 7.5183e-06
0.000230166 7.81932e-05 2.12054e-06
7.5183e-06 2.12054e-06 -0.000108821
0.00089186 0.000172454 -2.19409e-07
0.000172454 1.02556e-06 -4.10228e-07
-2.19409e-07 -4.10228e-07 -0.000153559
0.000588429 0.000205117 -2.45961e-05
0.000205117 -5.3674e-05 -1.3798e-05
-2.45961e-05 -1.3798e-05 -0.000148763
0.000857272 0.000167318 8.4155e-06
0.000167318 4.00244e-05 5.75032e-06
8.4155e-06 5.75032e-06 -0.000120675
0.000563453 0.000167508 1.41268e-06
0.000167508 -5.04461e-05 5.04613e-07
1.41268e-06 5.04613e-07 -0.000139898
0.00546138 -0.000122401 -0.000171511
-0.000122401 0.00295061 -1.88549e-05
-0.000171511 -1.88549e-05 0.00292072
0.000365597 7.9764e-05 1.27187e-05
7.9764e-05 -0.000143263 1.28174e-05
1.27187e-05 1.28174e-05 -0.000211628
0.00455278 -0.000173548 -1.25143e-05
-0.000173548 0.00240359 1.13106e-06
-1.25143e-05 1.13106e-06 0.00238318
0.00361325 -0.000175119 8.40268e-05
-0.000175119 0.00184085 2.22621e-06
8.40268e-05 2.22621e-06 0.00182519
0.00188336 0.000131244 -7.53355e-07
0.000131244 4.02294e-05 1.56912e-06
-7.53355e-07 1.56912e-06 -3.1601e-05
0.00194174 0.000165097 8.18059e-07
0.000165097 1.03725e-05 3.05738e-07
8.18059e-07 3.05738e-07 -4.518e-05
0.00184688 0.000154917 1.12407e-07
0.000154917 -5.70593e-05 7.60914e-07
1.12407e-07 7.60914e-07 -9.71793e-05
0.00198691 0.00024042 2.4157e-07
0.00024042 0.000138641 -7.33576e-08
2.4157e-07 -7.33576e-08 3.03464e-05
0.00176869 0.000326069 -9.07538e-07
0.000326069 9.75169e-05 -1.03388e-06
-9.07538e-07 -1.03388e-06 -5.70568e-05
0.00187437 0.000256247 -3.40835e-07
0.000256247 3.8758e-05 -1.05062e-06
-3.40835e-07 -1.05062e-06 -6.36253e-05
0.00182358 5.06655e-05 -7.71708e-07
5.06655e-05 3.76921e-05 -9.67176e-08
-7.71708e-07 -9.67176e-08 -1.71026e-05
0.00191622 4.48318e-05 4.71028e-07
4.48318e-05 3.56464e-05 -1.18944e-07
4.71028e-07 -1.18944e-07 8.8207e-07
0.00197381 5.05816e-05 3.10499e-06
5.05816e-05 2.86238e-05 3.38742e-07
3.10499e-06 3.38742e-07 5.27925e-06
0.00176646 -1.66205e-05 -2.33632e-06
-1.66205e-05 -5.4472e-06 5.06258e-08
-2.33632e-06 5.06258e-08 -5.09978e-05
0.00173774 -3.63907e-05 -6.3535e-07
-3.63907e-05 3.25035e-05 -3.52074e-07
-6.3535e-07 -3.52074e-07 -4.38271e-05
0.00189899 -5.67288e-05 1.11801e-06
-5.67288e-05 2.70745e-05 4.40079e-07
1.11801e-06 4.40079e-07 -3.15549e-06
0.00185033 -6.80819e-05 -1.45006e-06
-6.80819e-05 8.4863e-05 5.60719e-07
-1.45006e-06 5.60719e-07 8.81562e-06
0.0018612 -6.92099e-05 3.69586e-07
-6.92099e-05 0.00016118 -4.47757e-07
3.69586e-07 -4.47757e-07 5.75208e-05
0.0018662 -0.000126507 1.95933e-06
-0.000126507 8.16249e-05 -4.14665e-08
1.95933e-06 -4.14665e-08 -3.1524e-06
0.00177392 -0.000118897 1.82358e-06
-0.000118897 0.000109841 -7.02999e-07
1.82358e-06 -7.02999e-07 -7.22817e-06
0.00146686 -8.6184e-05 -2.19445e-06
-8.6184e-05 7.55524e-05 -3.03048e-08
-2.19445e-06 -3.03048e-08 -6.22759e-05
0.00176792 -0.000167084 -1.03679e-06
-0.000167084 0.000129859 5.0375e-07
-1.03679e-06 5.0375e-07 1.13619e-06
0.00143537 -0.000122692 -9.27978e-08
-0.000122692 7.62385e-05 7.2816e-08
-9.27978e-08 7.2816e-08 -6.95122e-05
0.000993549 -8.07063e-05 -1.23987e-05
-8.07063e-05 -2.52055e-05 2.99607e-06
-1.23987e-05 2.99607e-06 -0.000156227
0.00140811 -0.000150846 3.47405e-06
-0.000150846 8.3503e-05 -7.5837e-07
3.47405e-06 -7.5837e-07 -6.96737e-05
0.0010048 -0.000100498 -9.22843e-08
-0.000100498 -9.80654e-06 2.36182e-07
-9.22843e-08 2.36182e-07 -0.000143512
0.00248528 -0.000140203 -4.81356e-05
-0.000140203 0.0010278 6.70531e-06
-4.81356e-05 6.70531e-06 0.000959407
0.00101576 -0.000116984 1.31114e-05
-0.000116984 4.52993e-06 -4.55194e-06
1.31114e-05 -4.55194e-06 -0.000130664
0.00256661 -0.000134687 3.26518e-05
-0.000134687 0.00107596 -2.98635e-06
3.26518e-05 -2.98635e-06 0.00101253
0.00185232 -6.47849e-05 -0.000179161
-6.47849e-05 0.000737759 1.82344e-05
-0.000179161 1.82344e-05 0.000719907
0.00267532 -0.000149207 0.000111963
-0.000149207 0.00114307 -1.52774e-05
0.000111963 -1.52774e-05 0.00108287
0.00154604 -3.62345e-05 -7.4431e-05
-3.62345e-05 0.000567587 8.06365e-06
-7.4431e-05 8.06365e-06 0.000541777
0.00136452 -1.53747e-05 3.29194e-05
-1.53747e-05 0.000471245 -5.18026e-06
3.29194e-05 -5.18026e-06 0.000435453
0.00192231 0.000137969 -5.38648e-07
0.000137969 0.000128147 1.78292e-06
-5.38648e-07 1.78292e-06 3.0618e-05
0.00179636 0.000214926 -1.11925e-06
0.000214926 0.000146021 2.5575e-07
-1.11925e-06 2.5575e-07 1.8279e-06
0.00185592 0.000233659 -7.60826e-07
0.000233659 0.000104447 -1.13906e-07
-7.60826e-07 -1.13906e-07 -2.27995e-05
0.00172193 0.000211612 -2.9976e-06
0.000211612 0.000266864 -5.42224e-07
-2.9976e-06 -5.42224e-07 0.000108529
0.00177817 0.000252291 4.48471e-07
0.000252291 0.000172579 -9.50211e-09
4.48471e-07 -9.50211e-09 1.52575e-05
0.00179127 0.000276615 4.50801e-07
0.000276615 8.47555e-05 1.50911e-07
4.50801e-07 1.50911e-07 -6.05619e-05
0.00100557 0.000153233 -1.36912e-05
0.000153233 5.00493e-06 -5.09505e-06
-1.36912e-05 -5.09505e-06 -0.000138082
0.00149522 0.000224152 3.20133e-06
0.000224152 0.000172925 6.93385e-07
3.20133e-06 6.93385e-07 2.67972e-06
0.00164302 0.00027586 4.28953e-07
0.00027586 0.000118289 -2.05945e-06
4.28953e-07 -2.05945e-06 -4.98144e-05
0.000526428 0.000175183 -2.25227e-05
0.000175183 -9.94468e-05 -1.22211e-05
-2.25227e-05 -1.22211e-05 -0.000192604
0.000957615 0.000166849 -6.36588e-07
0.000166849 3.00642e-06 3.4228e-07
-6.36588e-07 3.4228e-07 -0.000146421
0.00130482 0.000232688 7.63942e-06
0.000232688 0.000101404 2.56723e-06
7.63942e-06 2.56723e-06 -8.06501e-05
0.000878896 0.000171637 1.1221e-05
0.000171637 -6.84267e-06 5.24156e-06
1.1221e-05 5.24156e-06 -0.000161193
0.000547534 0.000187229 1.64531e-06
0.000187229 -7.31457e-05 4.53008e-07
1.64531e-06 4.53008e-07 -0.000169495
0.00574044 -3.08777e-05 -0.000189186
-3.08777e-05 0.00309262 -2.12066e-05
-0.000189186 -2.12066e-05 0.00307307
0.000458908 0.000156986 2.01046e-05
0.000156986 -0.00011242 1.39252e-05
2.01046e-05 1.39252e-05 -0.000197962
0.00526626 -0.000127964 -1.2909e-06
-0.000127964 0.00281548 -4.08126e-07
-1.2909e-06 -4.08126e-07 0.00279802
0.00426998 -0.000204961 0.000103513
-0.000204961 0.00224332 4.55261e-06
0.000103513 4.55261e-06 0.0022173
0.00175608 9.10519e-05 -2.26756e-06
9.10519e-05 1.00268e-05 1.15693e-06
-2.26756e-06 1.15693e-06 -5.67442e-05
0.0018702 0.000130621 1.15965e-06
0.000130621 3.60571e-05 7.55229e-07
1.15965e-06 7.55229e-07 -3.47739e-05
0.00194986 0.000168603 -4.64877e-07
0.000168603 8.64817e-06 -1.04348e-07
-4.64877e-07 -1.04348e-07 -4.44623e-05
0.00195841 0.000235632 1.73987e-06
0.000235632 0.000125165 -5.88492e-07
1.73987e-06 -5.88492e-07 1.94734e-05
0.00181834 -5.30863e-07 1.91145e-06
-5.30863e-07 8.75824e-05 -3.11124e-07
1.91145e-06 -3.11124e-07 8.44026e-06
0.00190666 4.44747e-05 6.40185e-07
4.44747e-05 7.91157e-05 -1.13521e-07
6.40185e-07 -1.13521e-07 2.73399e-05
0.00192903 4.29635e-05 2.38966e-06
4.29635e-05 4.63741e-05 8.13559e-08
2.38966e-06 8.13559e-08 1.15303e-05
0.00193053 -1.94576e-05 -1.68059e-06
-1.94576e-05 8.98994e-05 2.48902e-07
-1.68059e-06 2.48902e-07 4.51087e-05
0.00174056 -2.84806e-05 -2.0809e-06
-2.84806e-05 3.62525e-05 -2.36964e-07
-2.0809e-06 -2.36964e-07 -3.73422e-05
0.00179348 -3.03226e-05 2.18333e-06
-3.03226e-05 0.000131019 -5.50505e-07
2.18333e-06 -5.50505e-07 2.86195e-05
0.00180209 -6.77625e-05 -1.7847e-06
-6.77625e-05 5.49622e-05 1.27599e-06
-1.7847e-06 1.27599e-06 -2.51833e-05
0.00175772 -6.91531e-05 -2.81894e-07
-6.91531e-05 0.00010352 3.68727e-07
-2.81894e-07 3.68727e-07 -4.67061e-06
0.00154 -5.01348e-05 -2.7716e-06
-5.01348e-05 0.000104193 -2.04681e-08
-2.7716e-06 -2.04681e-08 -2.31033e-05
0.00174194 -0.00011809 1.08469e-06
-0.00011809 9.39152e-05 -4.47585e-08
1.08469e-06 -4.47585e-08 -2.30817e-05
0.00145705 -8.4116e-05 5.34445e-07
-8.4116e-05 6.77518e-05 -2.16731e-07
5.34445e-07 -2.16731e-07 -6.96616e-05
0.000990171 -5.53559e-05 -1.22396e-05
-5.53559e-05 -3.5441e-05 2.23224e-06
-1.22396e-05 2.23224e-06 -0.000163026
0.00142911 -0.000120139 2.82388e-06
-0.000120139 6.97399e-05 -4.3137e-07
2.82388e-06 -4.3137e-07 -7.55069e-05
0.000999254 -7.98644e-05 -5.24638e-08
-7.98644e-05 -2.24141e-05 1.67956e-07
-5.24638e-08 1.67956e-07 -0.000153131
0.000596342 -7.94951e-05 -1.95284e-05
-7.94951e-05 -0.000108478 4.77452e-06
-1.95284e-05 4.77452e-06 -0.000183077
0.0010208 -9.85791e-05 1.26465e-05
-9.85791e-05 -1.99523e-06 -3.51453e-06
1.26465e-05 -3.51453e-06 -0.000135024
0.00158343 -8.92954e-05 4.56645e-05
-8.92954e-05 0.000483706 -2.96479e-06
4.56645e-05 -2.96479e-06 0.000416858
0.00556819 -0.000118661 -0.000228988
-0.000118661 0.0029441 1.42719e-05
-0.000228988 1.42719e-05 0.00294988
0.00265052 -0.00012166 0.000111085
-0.00012166 0.00111764 -1.23865e-05
0.000111085 -1.23865e-05 0.00106085
0.00155977 -4.75027e-05 -6.70085e-05
-4.75027e-05 0.000571975 5.60221e-06
-6.70085e-05 5.60221e-06 0.00054627
0.00128278 -5.76131e-05 4.40091e-05
-5.76131e-05 0.000422843 -6.09742e-06
4.40091e-05 -6.09742e-06 0.000386928
0.00189318 9.59132e-05 -3.56891e-07
9.59132e-05 0.000128521 1.83306e-06
-3.56891e-07 1.83306e-06 4.46203e-05
0.0018543 0.00014903 4.22581e-07
0.00014903 0.000165173 1.41884e-06
4.22581e-07 1.41884e-06 4.1097e-05
0.00196528 0.000135236 4.41439e-07
0.000135236 0.00016044 2.87371e-08
4.41439e-07 2.87371e-08 6.2242e-05
0.0015045 0.000169205 -3.55947e-06
0.000169205 0.000102002 -3.9846e-07
-3.55947e-06 -3.9846e-07 -4.7446e-05
0.00178506 0.000211858 3.57937e-07
0.000211858 0.000139505 7.23559e-10
3.57937e-07 7.23559e-10 -3.97907e-06
0.00183975 0.000233734 1.91219e-07
0.000233734 8.71526e-05 -2.93452e-07
1.91219e-07 -2.93452e-07 -3.71184e-05
0.000703804 0.000119037 -1.53911e-05
0.000119037 -0.000190225 -4.59413e-06
-1.53911e-05 -4.59413e-06 -0.000328254
0.00174466 0.000213028 2.44088e-06
0.000213028 0.000280141 6.50887e-07
2.44088e-06 6.50887e-07 0.0001218
0.00171545 0.000247152 3.14569e-07
0.000247152 0.000140944 -3.48912e-07
3.14569e-07 -3.48912e-07 -1.7468e-05
0.000503501 0.00012968 -1.95905e-05
0.00012968 -0.000130646 -9.69329e-06
-1.95905e-05 -9.69329e-06 -0.000216188
0.000806422 0.000143427 5.40781e-07
0.000143427 -0.00011147 2.63127e-07
5.40781e-07 2.63127e-07 -0.000255119
0.0013134 0.000218801 9.19601e-06
0.000218801 6.22512e-05 1.85442e-06
9.19601e-06 1.85442e-06 -0.000108298
0.00578793 5.38419e-05 -0.000201741
5.38419e-05 0.00309512 -2.04666e-05
-0.000201741 -2.04666e-05 0.00308771
0.000515555 0.000162577 1.10979e-06
0.000162577 -0.00010488 7.11639e-07
1.10979e-06 7.11639e-07 -0.000198859
0.000890547 0.000162778 1.23143e-05
0.000162778 -3.45655e-05 6.34236e-06
1.23143e-05 6.34236e-06 -0.000183532
0.00046855 0.000171132 2.06817e-05
0.000171132 -0.000114688 1.35396e-05
2.06817e-05 1.35396e-05 -0.000212268
0.00560731 -4.24211e-05 8.62063e-06
-4.24211e-05 0.00300419 -7.92189e-07
8.62063e-06 -7.92189e-07 0.00299175
0.00503304 -0.00017936 0.000139569
-0.00017936 0.00268388 7.2891e-06
0.000139569 7.2891e-06 0.00266142
0.00183633 6.28432e-05 -1.54654e-06
6.28432e-05 9.47765e-05 -7.27467e-07
-1.54654e-06 -7.27467e-07 1.53556e-05
0.00184678 9.21995e-05 3.22408e-07
9.21995e-05 6.19801e-05 5.65099e-07
3.22408e-07 5.65099e-07 -5.69886e-06
0.00185421 0.000129819 1.71175e-06
0.000129819 3.03252e-05 3.06354e-08
1.71175e-06 3.06354e-08 -3.95125e-05
0.00169635 4.06746e-06 2.40132e-06
4.06746e-06 6.42209e-05 -5.25837e-07
2.40132e-06 -5.25837e-07 -4.03361e-05
0.00174968 1.78482e-06 6.82897e-07
1.78482e-06 5.1718e-05 6.60839e-08
6.82897e-07 6.60839e-08 -2.59146e-05
0.00198015 3.69988e-05 1.11055e-06
3.69988e-05 0.000114989 4.81663e-08
1.11055e-06 4.81663e-08 6.61796e-05
0.00174373 -2.18031e-05 -2.62302e-06
-2.18031e-05 4.024e-05 7.67606e-07
-2.62302e-06 7.67606e-07 -3.06139e-05
0.00177172 -2.59944e-05 9.81741e-07
-2.59944e-05 0.000117671 -8.96743e-08
9.81741e-07 -8.96743e-08 1.55721e-05
0.00173106 -1.90177e-05 -8.09368e-07
-1.90177e-05 0.00021774 -4.66854e-07
-8.09368e-07 -4.66854e-07 9.64516e-05
0.00165268 -6.90968e-05 -1.78051e-06
-6.90968e-05 4.54801e-05 1.12501e-06
-1.78051e-06 1.12501e-06 -6.72446e-05
0.00159743 -5.0057e-05 5.864e-08
-5.0057e-05 0.000139344 6.59628e-08
5.864e-08 6.59628e-08 1.06364e-05
0.000781535 -2.6878e-05 -1.38026e-05
-2.6878e-05 -0.000164909 1.39107e-06
-1.38026e-05 1.39107e-06 -0.000290403
0.00143998 -8.40785e-05 3.04238e-06
-8.40785e-05 5.56006e-05 -4.40205e-07
3.04238e-06 -4.40205e-07 -8.16797e-05
0.000994516 -5.23151e-05 -3.51931e-08
-5.23151e-05 -3.38361e-05 1.24301e-07
-3.51931e-08 1.24301e-07 -0.000160984
0.000598535 -2.04939e-05 -1.83534e-05
-2.04939e-05 -0.000110859 3.12282e-06
-1.83534e-05 3.12282e-06 -0.000184613
0.00101723 -7.83579e-05 1.22971e-05
-7.83579e-05 -1.30434e-05 -2.65402e-06
1.22971e-05 -2.65402e-06 -0.000143306
0.000602125 -6.25009e-05 -2.14376e-07
-6.25009e-05 -0.000102875 3.32391e-07
-2.14376e-07 3.32391e-07 -0.000179043
0.00558085 -1.32498e-05 -0.000220269
-1.32498e-05 0.0029482 8.67862e-06
-0.000220269 8.67862e-06 0.00295619
0.000631128 -6.63107e-05 1.6042e-05
-6.63107e-05 -8.38176e-05 -6.6852e-06
1.6042e-05 -6.6852e-06 -0.000161951
0.00351235 -7.8091e-05 0.000102992
-7.8091e-05 0.00172924 -3.73088e-06
0.000102992 -3.73088e-06 0.00171308
0.00123288 -7.19564e-05 5.01227e-05
-7.19564e-05 0.000395228 -6.64927e-06
5.01227e-05 -6.64927e-06 0.000356848
0.00180383 8.98647e-05 -8.09162e-07
8.98647e-05 9.71179e-05 1.46718e-07
-8.09162e-07 1.46718e-07 9.18879e-06
0.00172674 8.97259e-05 2.39354e-06
8.97259e-05 9.16391e-05 2.27757e-06
2.39354e-06 2.27757e-06 -2.17449e-05
0.00193664 9.35218e-05 7.51627e-09
9.35218e-05 0.000156177 -3.76196e-07
7.51627e-09 -3.76196e-07 7.32705e-05
0.0014682 0.000120515 -2.30412e-06
0.000120515 6.63304e-05 -1.77587e-07
-2.30412e-06 -1.77587e-07 -7.48389e-05
0.00182348 0.000148037 5.53704e-07
0.000148037 0.000143044 1.59075e-07
5.53704e-07 1.59075e-07 1.76915e-05
0.00201399 0.000132377 5.47346e-08
0.000132377 0.000196172 -1.8489e-06
5.47346e-08 -1.8489e-06 9.73372e-05
0.000764508 9.89396e-05 -1.45927e-05
9.89396e-05 -0.000170292 -3.5165e-06
-1.45927e-05 -3.5165e-06 -0.000303278
0.00161695 0.000171396 -1.44537e-07
0.000171396 0.00017119 2.02202e-07
-1.44537e-07 2.02202e-07 2.14982e-05
0.0017767 0.000208867 8.14889e-07
0.000208867 0.000135135 -4.64797e-07
8.14889e-07 -4.64797e-07 -7.63215e-06
0.000525303 9.19986e-05 -1.79483e-05
9.19986e-05 -0.000135332 -7.16302e-06
-1.79483e-05 -7.16302e-06 -0.000214448
0.000691136 0.000118784 -2.85656e-06
0.000118784 -0.000196991 -3.93449e-07
-2.85656e-06 -3.93449e-07 -0.000335224
0.00177147 0.000214896 8.08946e-06
0.000214896 0.000295852 1.93339e-06
8.08946e-06 1.93339e-06 0.000137429
0.00572567 0.000131562 -0.000219598
0.000131562 0.00304267 -1.94621e-05
-0.000219598 -1.94621e-05 0.0030431
0.000513772 0.000123898 3.99087e-07
0.000123898 -0.000125524 3.43354e-07
3.99087e-07 3.43354e-07 -0.000211541
0.000613012 0.000134167 1.34298e-05
0.000134167 -0.000224711 4.88884e-06
1.34298e-05 4.88884e-06 -0.000368987
0.005693 6.82227e-05 1.25527e-05
6.82227e-05 0.00304008 1.10465e-06
1.25527e-05 1.10465e-06 0.0030338
0.000488273 0.000149205 1.90605e-05
0.000149205 -0.000119902 1.22121e-05
1.90605e-05 1.22121e-05 -0.000214546
0.00548778 -7.36206e-05 0.00018193
-7.36206e-05 0.00292412 1.09592e-05
0.00018193 1.09592e-05 0.00291786
0.00180101 4.426e-05 9.86922e-07
4.426e-05 0.000115108 -6.15834e-07
9.86922e-07 -6.15834e-07 1.26935e-05
0.00178043 6.02747e-05 -1.68038e-06
6.02747e-05 6.77952e-05 4.74571e-07
-1.68038e-06 4.74571e-07 -1.32561e-05
0.0019437 9.30644e-05 1.73405e-06
9.30644e-05 0.000117347 1.19664e-07
1.73405e-06 1.19664e-07 4.87781e-05
0.00173705 -1.84617e-06 2.5386e-07
-1.84617e-06 0.000226434 -3.29502e-07
2.5386e-07 -3.29502e-07 0.000107189
0.00170026 2.20291e-06 1.67751e-07
2.20291e-06 6.52234e-05 4.79743e-08
1.67751e-07 4.79743e-08 -3.76667e-05
0.00168697 5.42661e-06 1.0851e-06
5.42661e-06 1.89162e-05 1.75043e-07
1.0851e-06 1.75043e-07 -5.71872e-05
0.00174707 -2.19207e-05 -3.76024e-07
-2.19207e-05 0.000102737 5.32767e-07
-3.76024e-07 5.32767e-07 9.10594e-07
0.0017393 -1.90858e-05 2.68044e-06
-1.90858e-05 0.000222113 -2.01614e-07
2.68044e-06 -2.01614e-07 0.000100841
0.000794587 -9.06964e-06 -1.33065e-05
-9.06964e-06 -0.000156139 5.20272e-07
-1.33065e-05 5.20272e-07 -0.000278671
0.00165838 -5.01454e-05 3.15353e-06
-5.01454e-05 0.000176497 6.40808e-08
3.15353e-06 6.40808e-08 4.63772e-05
0.000890248 -2.6284e-05 -2.28598e-06
-2.6284e-05 -0.000101017 2.28284e-07
-2.28598e-06 2.28284e-07 -0.000225926
0.000603193 -6.27661e-06 -1.85981e-05
-6.27661e-06 -0.000112228 2.02504e-06
-1.85981e-05 2.02504e-06 -0.000184629
0.00100329 -5.04554e-05 1.18614e-05
-5.04554e-05 -2.93218e-05 -1.95081e-06
1.18614e-05 -1.95081e-06 -0.000156139
0.000583124 -3.06865e-05 7.81014e-07
-3.06865e-05 -0.000121684 -4.44963e-08
7.81014e-07 -4.44963e-08 -0.000194122
0.00553827 -0.000110627 -0.000229086
-0.000110627 0.00293102 9.01048e-06
-0.000229086 9.01048e-06 0.00293588
0.000580108 -4.61471e-05 1.77358e-05
-4.61471e-05 -0.000116027 -3.75565e-06
1.77358e-05 -3.75565e-06 -0.000191947
0.00555983 -4.91696e-05 7.81488e-06
-4.91696e-05 0.00293673 -4.31933e-08
7.81488e-06 -4.31933e-08 0.00294486
0.00156224 -1.9081e-05 0.000184995
-1.9081e-05 0.000565627 -1.00584e-05
0.000184995 -1.00584e-05 0.000552206
0.00166207 6.61345e-05 2.49245e-06
6.61345e-05 4.95671e-05 4.26885e-07
2.49245e-06 4.26885e-07 -6.04744e-05
0.00178702 9.40142e-05 -3.16435e-06
9.40142e-05 8.09166e-05 -6.85604e-07
-3.16435e-06 -6.85604e-07 -4.30104e-06
0.00147095 7.33894e-05 -1.4148e-06
7.33894e-05 6.70276e-05 1.14328e-07
-1.4148e-06 1.14328e-07 -6.54055e-05
0.00173281 8.86173e-05 6.06973e-07
8.86173e-05 9.462e-05 1.71525e-07
6.06973e-07 1.71525e-07 -1.88543e-05
0.00197388 9.12906e-05 -7.44011e-07
9.12906e-05 0.000179996 -3.01669e-06
-7.44011e-07 -3.01669e-06 9.80721e-05
0.00104373 7.75331e-05 -1.23821e-05
7.75331e-05 -1.1273e-05 -2.39899e-06
-1.23821e-05 -2.39899e-06 -0.000137228
0.00146694 0.000120328 8.14399e-08
0.000120328 6.68599e-05 6.40483e-08
8.14399e-08 6.40483e-08 -7.44788e-05
0.00178814 0.000146896 1.30577e-07
0.000146896 0.000118332 -8.722e-07
1.30577e-07 -8.722e-07 -8.29812e-06
0.000547757 6.50762e-05 -1.74749e-05
6.50762e-05 -0.000135241 -5.1739e-06
-1.74749e-05 -5.1739e-06 -0.000210882
0.000868065 0.000103187 -3.07813e-06
0.000103187 -0.000108026 -3.07059e-07
-3.07813e-06 -3.07059e-07 -0.000240559
0.00173282 0.000173483 4.4495e-06
0.000173483 0.000242558 1.13676e-06
4.4495e-06 1.13676e-06 9.26541e-05
0.00567702 0.00017727 -0.000238157
0.00017727 0.00301442 -1.87489e-05
-0.000238157 -1.87489e-05 0.00301457
0.000541676 9.09737e-05 6.07664e-08
9.09737e-05 -0.000126549 1.72477e-07
6.07664e-08 1.72477e-07 -0.000205811
0.000677275 0.00011857 9.47321e-06
0.00011857 -0.000204683 3.62603e-06
9.47321e-06 3.62603e-06 -0.000343076
0.00567696 0.00015163 1.06374e-05
0.00015163 0.00302282 2.72768e-06
1.06374e-05 2.72768e-06 0.00301925
0.000528266 0.000116848 1.83811e-05
0.000116848 -0.000118495 9.62304e-06
1.83811e-05 9.62304e-06 -0.000204541
0.00562242 6.24973e-05 0.000207933
6.24973e-05 0.00298763 1.63747e-05
0.000207933 1.63747e-05 0.00298891
0.00172583 2.99895e-05 9.09381e-07
2.99895e-05 0.000221449 -7.86428e-08
9.09381e-07 -7.86428e-08 0.000101821
0.00176123 3.97216e-05 -1.24257e-06
3.97216e-05 9.47919e-05 8.82484e-08
-1.24257e-06 8.82484e-08 -8.9955e-06
0.00172363 5.74222e-05 -1.52598e-06
5.74222e-05 4.10187e-05 5.25402e-07
-1.52598e-06 5.25402e-07 -4.16258e-05
0.000789334 -7.75586e-06 -1.37918e-05
-7.75586e-06 -0.000153239 -1.36784e-07
-1.37918e-05 -1.36784e-07 -0.000274277
0.00174268 3.99131e-06 3.07141e-06
3.99131e-06 0.000229692 -1.73485e-07
3.07141e-06 -1.73485e-07 0.000110404
0.00170324 1.85226e-07 -1.31431e-06
1.85226e-07 6.57395e-05 4.53436e-07
-1.31431e-06 4.53436e-07 -3.54687e-05
0.00175246 -1.95195e-05 6.00037e-06
-1.95195e-05 0.000229393 4.81277e-08
6.00037e-06 4.81277e-08 0.000108135
0.000787062 -9.19933e-06 -1.74181e-06
-9.19933e-06 -0.000161493 8.1449e-08
-1.74181e-06 8.1449e-08 -0.000284262
0.000605032 -2.80606e-05 -1.89547e-05
-2.80606e-05 -0.000111975 7.46784e-07
-1.89547e-05 7.46784e-07 -0.000182303
0.000983238 -2.488e-05 1.01055e-05
-2.488e-05 -4.6276e-05 -1.1534e-06
1.01055e-05 -1.1534e-06 -0.000170619
0.000583504 4.49213e-06 3.20652e-07
4.49213e-06 -0.000124121 9.29625e-08
3.20652e-07 9.29625e-08 -0.000195918
0.0055745 -8.79616e-05 -0.000236033
-8.79616e-05 0.00295004 6.3452e-06
-0.000236033 6.3452e-06 0.00295704
0.000594254 -3.31061e-05 1.85069e-05
-3.31061e-05 -0.00011358 -2.54274e-06
1.85069e-05 -2.54274e-06 -0.000187136
0.00557247 -4.24185e-06 -3.02568e-06
-4.24185e-06 0.00294249 1.53551e-06
-3.02568e-06 1.53551e-06 0.00295245
0.00556721 -6.77663e-05 0.000229217
-6.77663e-05 0.00293961 -8.03368e-06
0.000229217 -8.03368e-06 0.00294897
0.00144678 4.48071e-05 -1.29929e-06
4.48071e-05 5.80894e-05 -1.65988e-08
-1.29929e-06 -1.65988e-08 -7.00676e-05
0.00172189 6.9438e-05 -1.34338e-06
6.9438e-05 8.32825e-05 -1.25957e-06
-1.34338e-06 -1.25957e-06 -2.27193e-05
0.00177636 9.85746e-05 -4.29149e-06
9.85746e-05 6.83392e-05 -1.31063e-06
-4.29149e-06 -1.31063e-06 -1.42e-05
0.00104658 4.45086e-05 -1.2167e-05
4.45086e-05 -8.99276e-06 -1.84379e-06
-1.2167e-05 -1.84379e-06 -0.000130494
0.00145707 7.32679e-05 1.77749e-07
7.32679e-05 5.87032e-05 2.78749e-08
1.77749e-07 2.78749e-08 -7.4122e-05
0.00173859 8.74102e-05 -1.04681e-06
8.74102e-05 9.78282e-05 -1.72562e-06
-1.04681e-06 -1.72562e-06 -1.57279e-05
0.000574698 4.05155e-05 -1.70644e-05
4.05155e-05 -0.000125226 -3.75314e-06
-1.70644e-05 -3.75314e-06 -0.000198798
0.00101347 7.87136e-05 2.1331e-07
7.87136e-05 -2.8489e-05 2.21382e-07
2.1331e-07 2.21382e-07 -0.000154944
0.00146662 0.00012019 2.914e-06
0.00012019 6.76023e-05 3.69524e-07
2.914e-06 3.69524e-07 -7.39187e-05
0.00561562 0.000170831 -0.000250101
0.000170831 0.00298044 -1.62694e-05
-0.000250101 -1.62694e-05 0.00298126
0.000571732 6.77955e-05 3.22975e-07
6.77955e-05 -0.0001211 1.55675e-07
3.22975e-07 1.55675e-07 -0.000197207
0.000969213 0.000107403 9.49672e-06
0.000107403 -4.73532e-05 3.03237e-06
9.49672e-06 3.03237e-06 -0.000179393
0.00565824 0.000190857 6.10884e-06
0.000190857 0.00301006 2.60794e-06
6.10884e-06 2.60794e-06 0.00300747
0.000561123 9.10616e-05 1.74883e-05
9.10616e-05 -0.000115422 7.53368e-06
1.74883e-05 7.53368e-06 -0.000194954
0.00566149 0.000174219 0.000227589
0.000174219 0.00301333 2.12775e-05
0.000227589 2.12775e-05 0.00301052
0.00101661 1.37218e-05 -1.2854e-05
1.37218e-05 -1.71021e-05 -7.46244e-07
-1.2854e-05 -7.46244e-07 -0.000136265
0.00160889 2.56176e-05 3.52108e-06
2.56176e-05 0.000153302 1.02502e-07
3.52108e-06 1.02502e-07 3.30662e-05
0.00172172 3.44971e-05 -3.73891e-06
3.44971e-05 7.4338e-05 2.04759e-07
-3.73891e-06 2.04759e-07 -3.08411e-05
0.000631313 2.96018e-05 -1.94179e-05
2.96018e-05 -0.000103353 -4.51473e-07
-1.94179e-05 -4.51473e-07 -0.000166786
0.000767412 -2.27136e-06 -1.95123e-06
-2.27136e-06 -0.00016687 6.67424e-08
-1.95123e-06 6.67424e-08 -0.000288051
0.00174522 1.01575e-05 5.9673e-06
1.01575e-05 0.000231099 1.17186e-07
5.9673e-06 1.17186e-07 0.000111751
0.000776041 -8.96379e-06 9.89827e-06
-8.96379e-06 -0.000168987 -3.80198e-07
9.89827e-06 -3.80198e-07 -0.000291976
0.000597707 -4.18686e-06 2.65259e-07
-4.18686e-06 -0.000116035 2.99154e-07
2.65259e-07 2.99154e-07 -0.000186518
0.00554603 4.09452e-05 -0.000241734
4.09452e-05 0.00292938 -5.65225e-07
-0.000241734 -5.65225e-07 0.00293997
0.000559751 1.55932e-05 1.80247e-05
1.55932e-05 -0.000138921 -1.16847e-06
1.80247e-05 -1.16847e-06 -0.000209811
0.00555624 -8.67599e-05 -7.84014e-06
-8.67599e-05 0.00293998 1.51977e-06
-7.84014e-06 1.51977e-06 0.00294667
0.00554271 1.57726e-05 0.000220995
1.57726e-05 0.00292528 -3.5757e-06
0.000220995 -3.5757e-06 0.00293491
0.00102657 2.37432e-05 -1.26374e-05
2.37432e-05 -1.52785e-05 -1.38292e-06
-1.26374e-05 -1.38292e-06 -0.000134745
0.00145071 4.43258e-05 -1.39152e-07
4.43258e-05 5.98558e-05 -7.9061e-08
-1.39152e-07 -7.9061e-08 -6.61443e-05
0.00178325 7.24985e-05 -4.32941e-06
7.24985e-05 0.000117645 -1.95468e-06
-4.32941e-06 -1.95468e-06 1.56993e-05
0.00262028 4.88731e-05 -0.000116456
4.88731e-05 0.00108302 -3.68712e-06
-0.000116456 -3.68712e-06 0.00103481
0.00101655 4.64038e-05 2.44996e-07
4.64038e-05 -2.701e-05 1.28218e-07
2.44996e-07 1.28218e-07 -0.000148863
0.00144413 7.30846e-05 2.53235e-06
7.30846e-05 5.08749e-05 7.38667e-08
2.53235e-06 7.38667e-08 -8.2351e-05
0.00555651 0.000136198 -0.00025252
0.000136198 0.00294393 -1.21541e-05
-0.00025252 -1.21541e-05 0.00294805
0.000606683 5.69466e-05 8.1934e-07
5.69466e-05 -0.000104521 3.29902e-07
8.1934e-07 3.29902e-07 -0.000179552
0.00098741 8.00487e-05 1.22927e-05
8.00487e-05 -4.31959e-05 2.80342e-06
1.22927e-05 2.80342e-06 -0.000170131
0.00565208 0.000182733 1.72388e-06
0.000182733 0.00300408 1.65584e-06
1.72388e-06 1.65584e-06 0.00300383
0.000606023 7.30457e-05 1.78687e-05
7.30457e-05 -9.98739e-05 5.93794e-06
1.78687e-05 5.93794e-06 -0.000177004
0.00564188 0.000217097 0.000238708
0.000217097 0.0030083 2.2734e-05
0.000238708 2.2734e-05 0.00300163
0.000676183 9.1865e-06 -1.63465e-05
9.1865e-06 -6.6622e-05 -1.77134e-06
-1.63465e-05 -1.77134e-06 -0.000137913
0.000883718 1.18699e-05 6.7371e-07
1.18699e-05 -9.57464e-05 2.49629e-07
6.7371e-07 2.49629e-07 -0.00021573
0.00148886 2.08349e-05 5.29083e-06
2.08349e-05 8.32237e-05 1.32694e-07
5.29083e-06 1.32694e-07 -3.75866e-05
0.00541687 -9.31187e-05 -0.000225232
-9.31187e-05 0.00286955 8.87626e-07
-0.000225232 8.87626e-07 0.0028705
0.000593863 7.81545e-06 -5.04964e-07
7.81545e-06 -0.000120593 1.51793e-07
-5.04964e-07 1.51793e-07 -0.00018672
0.000757757 2.70378e-06 9.741e-06
2.70378e-06 -0.000173485 1.30537e-07
9.741e-06 1.30537e-07 -0.000294771
0.000558718 2.07029e-05 1.82603e-05
2.07029e-05 -0.000139315 1.55421e-07
1.82603e-05 1.55421e-07 -0.000209228
0.00549924 5.13552e-06 2.53451e-06
5.13552e-06 0.00290621 -8.38092e-07
2.53451e-06 -8.38092e-07 0.00291351
0.00556649 -8.12556e-07 0.000230188
-8.12556e-07 0.00293699 -1.71378e-06
0.000230188 -1.71378e-06 0.00294815
0.0026862 7.00555e-06 -0.00011331
7.00555e-06 0.0011187 -2.31091e-06
-0.00011331 -2.31091e-06 0.00107178
0.0010233 2.65851e-05 4.35423e-08
2.65851e-05 -1.8526e-05 1.04809e-07
4.35423e-08 1.04809e-07 -0.000138221
0.00145006 4.39943e-05 2.26129e-06
4.39943e-05 5.91428e-05 -1.28459e-07
2.26129e-06 -1.28459e-07 -6.46984e-05
0.00516838 -5.82209e-05 -7.68462e-05
-5.82209e-05 0.00272558 4.48436e-07
-7.68462e-05 4.48436e-07 0.00271146
0.000621866 4.92892e-05 6.01142e-08
4.92892e-05 -9.76357e-05 2.17302e-07
6.01142e-08 2.17302e-07 -0.00017006
0.00100296 4.8817e-05 1.20932e-05
4.8817e-05 -3.59182e-05 2.14281e-06
1.20932e-05 2.14281e-06 -0.000158065
0.00560368 0.00010598 -1.08839e-05
0.00010598 0.00296725 -1.12058e-06
-1.08839e-05 -1.12058e-06 0.00297313
0.000635745 7.87078e-05 1.9311e-05
7.87078e-05 -8.67753e-05 4.96643e-06
1.9311e-05 4.96643e-06 -0.000162424
0.00566139 0.000206864 0.000249378
0.000206864 0.00301687 2.1026e-05
0.000249378 2.1026e-05 0.0030131
0.00166597 -4.94348e-05 -0.000191336
-4.94348e-05 0.000621677 6.83694e-07
-0.000191336 6.83694e-07 0.000612732
0.00165073 2.52566e-05 -4.71851e-05
2.52566e-05 0.000503653 2.09639e-07
-4.71851e-05 2.09639e-07 0.000448911
0.000749644 1.24276e-05 1.24119e-05
1.24276e-05 -0.000174859 9.41605e-07
1.24119e-05 9.41605e-07 -0.000295722
0.00547366 -3.98812e-05 7.83826e-06
-3.98812e-05 0.00289777 1.23713e-06
7.83826e-06 1.23713e-06 0.00290281
0.000609789 -1.22423e-05 1.8772e-05
-1.22423e-05 -0.000106247 8.28986e-07
1.8772e-05 8.28986e-07 -0.000175419
0.00552964 -6.27819e-05 0.000244518
-6.27819e-05 0.00292513 -1.97471e-06
0.000244518 -1.97471e-06 0.00293305
0.00126703 8.36781e-06 -3.75921e-05
8.36781e-06 0.000408908 -6.64973e-07
-3.75921e-05 -6.64973e-07 0.00037492
0.00164148 1.23183e-05 -4.75667e-05
1.23183e-05 0.000501808 -6.03928e-07
-4.75667e-05 -6.03928e-07 0.000443956
0.00100876 2.80325e-05 1.2354e-05
2.80325e-05 -2.80571e-05 1.64073e-06
1.2354e-05 1.64073e-06 -0.000148009
0.003419 4.89378e-05 8.98942e-05
4.89378e-05 0.00167348 2.10301e-06
8.98942e-05 2.10301e-06 0.00166193
0.00062854 5.90651e-05 1.95379e-05
5.90651e-05 -9.34664e-05 3.86502e-06
1.95379e-05 3.86502e-06 -0.000166019
0.00565009 9.61711e-05 0.000238444
9.61711e-05 0.00298949 1.28063e-05
0.000238444 1.28063e-05 0.00299815
0.00542432 -2.20818e-05 -8.8741e-06
-2.20818e-05 0.00287104 -1.86251e-06
-8.8741e-06 -1.86251e-06 0.00287531
0.000611722 4.26921e-05 2.01333e-05
4.26921e-05 -0.000113012 1.94082e-06
2.01333e-05 1.94082e-06 -0.000176381
0.00539388 5.06833e-05 0.00023118
5.06833e-05 0.00284768 -9.17882e-09
0.00023118 -9.17882e-09 0.0028555
0.00336728 2.63261e-05 0.000103656
2.63261e-05 0.0016469 3.12487e-06
0.000103656 3.12487e-06 0.00163553
0.000640711 4.83537e-06 1.87637e-05
4.83537e-06 -8.82318e-05 2.64713e-06
1.87637e-05 2.64713e-06 -0.000157778
0.00554823 -2.66615e-05 0.000229962
-2.66615e-05 0.00293206 5.68695e-06
0.000229962 5.68695e-06 0.00293999
0.00545737 -0.000127637 0.000227282
-0.000127637 0.00289623 -2.85476e-06
0.000227282 -2.85476e-06 0.0028956
0.00544534 -1.15818e-05 0.000226597
-1.15818e-05 0.00286906 2.943e-06
0.000226597 2.943e-06 0.00288028
