# vtk DataFile Version 2.0
Wound Healing Simulation
ASCII
DATASET UNSTRUCTURED_GRID
POINTS 3012 float
69.9759 18.75 4
67.2507 60.3285 4
69.976 18.75 2
73.0099 25.446 4
71.1327 20.9142 4
68.6801 16.6661 4
67.8186 19.9238 3.96828
67.2507 60.3286 2
71.1327 54.0858 4
68.6801 58.3339 4
65.6939 62.2254 4
65.3046 58.9997 3.96713
74.6784 42.3946 4
73.7221 47.2057 4
69.9759 18.75 0
73.0099 25.446 2
68.6801 16.6661 2
71.1327 20.9142 2
67.8191 19.9284 2
74.6792 32.6053 4
73.7222 27.7943 4
72.1454 23.1494 4
70.6102 26.2218 3.97032
68.8798 21.9565 3.96888
67.2507 14.6715 4
66.6291 17.9703 3.96717
65.6741 21.0688 3.96051
67.2507 60.3285 0
71.1327 54.0858 2
68.6801 58.3339 2
65.694 62.2255 2
65.3062 58.9934 2
72.1454 51.8506 4
69.9759 56.25 4
68.8303 53.115 3.96875
64.0165 64.0165 4
66.603 57.1347 3.96803
63.8776 60.7607 3.9628
63.3948 57.7234 3.95657
60.3285 67.2507 4
74.6792 42.3947 2
73.7222 47.2057 2
74.9194 39.9526 4
74.2788 44.8158 4
72.1652 42.0857 3.97294
73.0099 49.554 4
71.2457 46.5981 3.97125
73.0099 25.446 0
71.1327 20.9142 0
68.6801 16.6661 0
67.8186 19.9238 0.0317181
74.6792 32.6053 2
73.7222 27.7943 2
67.2508 14.6715 2
72.1455 23.1494 2
70.6094 26.2232 2
66.6305 17.9756 2
68.8797 21.9598 2
65.6761 21.0701 2
74.9197 35.0474 4
74.2794 30.1841 4
72.1819 32.945 3.97308
71.2749 28.433 3.97112
69.8107 24.0593 3.96954
68.2595 26.9775 3.96467
66.6538 22.9701 3.96263
65.694 12.7746 4
65.3151 16.1036 3.96599
64.5786 19.2452 3.95765
63.5933 22.153 3.96792
71.1327 54.0858 0
65.6939 62.2254 0
68.6801 58.3339 0
65.3046 58.9997 0.0328683
72.1455 51.8506 2
69.9759 56.25 2
68.8303 53.1113 2
64.0165 64.0165 2
66.6045 57.1288 2
63.879 60.7534 2
63.3906 57.722 2
62.2254 65.694 4
58.8868 65.4092 3.97257
69.7638 50.9901 3.96957
67.7767 55.1694 3.96843
66.529 52.1711 3.96306
62.3282 62.4221 3.96621
64.5341 55.9841 3.95898
62.1432 59.357 3.95221
61.5666 56.552 3.96225
58.3339 68.6801 4
60.3285 67.2508 2
73.7221 47.2057 0
74.6784 42.3946 0
74.9197 39.9526 2
74.2794 44.8159 2
72.164 42.0846 2
73.0099 49.554 2
71.2447 46.5964 2
75 37.5 4
72.4024 39.8027 3.97382
71.7791 44.3528 3.97228
69.7651 41.7845 3.96866
70.5709 48.814 3.97051
68.8373 45.9974 3.9677
74.6792 32.6053 0
73.7222 27.7943 0
67.2507 14.6715 0
72.1454 23.1494 0
70.6102 26.2218 0.029678
68.8798 21.9565 0.031121
66.6291 17.9703 0.0328283
65.6741 21.0688 0.0394867
74.9197 35.0474 2
74.2794 30.1841 2
72.1805 32.9452 2
71.2738 28.434 2
65.694 12.7745 2
65.3161 16.1104 2
69.8102 24.0615 2
68.2617 26.9785 2
64.5731 19.2477 2
66.6561 22.9714 2
63.5932 22.1541 2
72.4104 35.2255 3.97391
71.8008 30.6782 3.97247
69.8008 33.2781 3.96813
68.8945 29.0584 3.96613
67.5118 24.9436 3.96359
65.8951 27.7179 3.97565
64.0165 10.9835 4
64.4599 23.9368 3.9716
63.8801 14.3311 3.96276
63.3883 17.4996 3.95419
62.6234 20.4478 3.96461
61.63 23.1391 3.97386
60.6762 11.1057 3.96767
57.5998 11.5112 3.96199
72.1454 51.8506 0
69.9759 56.25 0
68.8303 53.115 0.0312495
64.0165 64.0165 0
63.8776 60.7607 0.0371987
66.603 57.1347 0.0319696
63.3948 57.7234 0.0434281
62.2255 65.694 2
58.8905 65.4026 2
69.7635 50.9874 2
67.7774 55.1644 2
66.5302 52.1696 2
62.3311 62.413 2
64.5285 55.9818 2
62.1416 59.3561 2
61.5734 56.5537 2
60.661 63.9704 3.9658
57.0185 66.7276 3.97178
57.5417 63.6308 3.96725
67.3937 50.144 3.96439
65.5795 54.1309 3.96143
64.2166 51.2741 3.9726
60.7498 60.8886 3.95199
62.5332 54.9431 3.96665
60.3992 58.0151 3.95765
59.9356 55.5886 3.96877
56.25 69.9759 4
58.3339 68.6801 2
60.3285 67.2507 0
58.9154 9.66475 3.96878
62.2254 9.30607 4
73.0099 49.554 0
74.2788 44.8158 0
71.2457 46.5981 0.0287483
72.1652 42.0857 0.0270553
74.9194 39.9526 0
75 37.5 2
72.4017 39.8019 2
71.7784 44.3513 2
69.7661 41.7839 2
70.5704 48.812 2
68.8397 45.9965 2
72.486 37.5129 3.97373
70.0115 39.6563 3.96863
69.3785 43.8972 3.96853
67.3149 41.4681 3.97656
68.1678 48.0817 3.96604
66.3953 45.3735 3.97616
74.9197 35.0474 0
74.2794 30.1841 0
72.1819 32.945 0.0269215
71.2749 28.433 0.0288803
65.694 12.7746 0
65.3151 16.1036 0.0340075
69.8107 24.0593 0.0304632
68.2595 26.9775 0.0353327
66.6538 22.9701 0.0373669
64.5786 19.2452 0.0423492
63.5933 22.153 0.0320825
72.4096 35.2252 2
71.8 30.679 2
69.8025 33.2786 2
68.8975 29.059 2
64.0165 10.9835 2
63.8825 14.3385 2
63.4039 17.4961 2
67.5143 24.9447 2
65.8919 27.7196 2
62.6302 20.4472 2
64.4587 23.9382 2
61.6304 23.1413 2
60.6792 11.1121 2
57.5949 11.5004 2
70.0247 35.3978 3.96828
69.415 31.1637 3.96726
67.3804 33.6254 3.97638
66.4757 29.6921 3.97628
65.2288 25.7945 3.97403
63.6405 28.3876 3.97534
62.3322 12.6606 3.96549
62.3747 24.8192 3.97406
62.1415 15.8296 3.95232
61.5328 18.825 3.96072
60.7731 21.5494 3.97117
59.8149 23.9968 3.97386
59.2275 12.8356 3.95712
55.8651 10.2952 3.97025
56.3632 13.2211 3.95949
69.7638 50.9901 0.0304255
62.2254 65.694 0
58.8868 65.4092 0.0274326
67.7767 55.1694 0.0315728
66.529 52.1711 0.036942
62.3282 62.4221 0.0337947
62.1432 59.357 0.0477903
64.5341 55.9841 0.0410237
61.5666 56.552 0.0377518
60.6651 63.9625 2
57.0224 66.7214 2
57.5459 63.6441 2
67.3945 50.1426 2
65.5787 54.1292 2
64.2153 51.2732 2
60.7378 60.8936 2
62.5378 54.9443 2
60.3991 58.0149 2
59.9327 55.5868 2
55.0646 67.9297 3.98011
59.2071 62.2986 3.97057
55.7818 64.839 3.96613
56.2955 61.9934 3.97886
65.0007 49.3081 3.97437
63.3915 53.1717 3.9694
61.9067 50.4623 3.9734
59.1765 59.4293 3.95466
60.6318 54.1099 3.97251
58.8436 56.7843 3.95978
58.7309 54.9347 3.97085
48.0955 68.5656 3.97732
50.943 69.9292 3.98388
54.0858 71.1327 4
56.25 69.976 2
58.3339 68.6801 0
57.0543 8.34006 3.97608
60.3285 7.74928 4
58.918 9.67113 2
62.2255 9.30602 2
70.5709 48.814 0.0294863
71.7791 44.3528 0.0277179
68.8373 45.9974 0.0323039
69.7651 41.7845 0.0313436
72.4024 39.8027 0.0261753
75 37.5 0
72.4847 37.5124 2
70.013 39.6559 2
69.3787 43.8964 2
67.3114 41.4677 2
68.1674 48.0803 2
66.3914 45.3726 2
70.0997 37.5239 3.96851
67.5621 39.5002 3.97651
66.9258 43.4229 3.97641
65.0879 41.1679 3.97611
65.7378 47.3326 3.97583
64.1419 44.7542 3.97554
72.4104 35.2255 0.0260891
71.8008 30.6782 0.0275328
69.8008 33.2781 0.0318664
68.8945 29.0584 0.03387
64.0165 10.9835 0
63.8801 14.3311 0.0372424
63.3883 17.4996 0.0458064
67.5118 24.9436 0.0364081
65.8951 27.7179 0.0243521
64.4599 23.9368 0.0284023
62.6234 20.4478 0.0353853
61.63 23.1391 0.0261367
60.6762 11.1057 0.0323306
57.5998 11.5112 0.0380062
70.0264 35.398 2
69.4171 31.1642 2
67.3774 33.626 2
66.4722 29.6935 2
62.3354 12.6678 2
62.1501 15.8303 2
61.539 18.825 2
65.2264 25.7961 2
63.6395 28.3881 2
60.7734 21.5519 2
62.3736 24.8206 2
59.8126 23.9989 2
59.2243 12.8289 2
56.3575 13.2154 2
55.8656 10.2979 2
67.6035 35.5669 3.97656
66.9793 31.6753 3.97636
65.2457 33.9765 3.97621
64.1642 30.2979 3.97539
63.0409 26.5757 3.97461
61.5776 28.9595 3.97492
60.744 14.2722 3.95235
60.3967 25.5835 3.97415
60.3646 17.2738 3.95865
59.7703 20.0443 3.96644
59.0654 22.5431 3.97237
58.2331 24.6515 3.97382
54.0382 9.16386 3.98153
57.8176 14.4577 3.95233
54.7646 12.1304 3.97055
55.207 14.8199 3.95361
67.3937 50.144 0.0356103
57.0185 66.7276 0.028221
60.661 63.9704 0.0342033
57.5417 63.6308 0.0327501
65.5795 54.1309 0.0385714
64.2166 51.2741 0.0274023
60.7498 60.8886 0.0480122
60.3992 58.0151 0.0423497
62.5332 54.9431 0.0333489
59.9356 55.5886 0.0312284
55.0697 67.9236 2
59.2017 62.3072 2
55.7857 64.8333 2
56.2925 61.9988 2
64.9984 49.3069 2
63.3916 53.1715 2
61.906 50.4616 2
59.1999 59.4364 2
60.6308 54.1086 2
58.8526 56.7856 2
58.7394 54.9353 2
53.0364 68.9952 3.98046
53.9495 65.9712 3.96859
57.8029 60.7754 3.94909
54.6454 63.0813 3.96624
55.1405 60.4957 3.9744
62.6482 48.4953 3.97414
61.2459 52.3745 3.97298
59.5379 49.7495 3.97274
57.7068 58.0663 3.95643
58.7585 53.6841 3.97257
57.5166 55.5199 3.96277
50.0997 67.8422 3.97276
47.4481 66.5493 3.97351
46.0511 69.1461 3.98008
48.1001 68.5657 2
48.7974 70.7207 3.98666
50.9486 69.9259 2
51.8506 72.1454 4
54.0858 71.1327 2
56.25 69.9759 0
55.1007 7.14272 3.98913
58.3339 6.31992 4
57.0583 8.34501 2
60.3286 7.74926 2
58.9154 9.66475 0.031218
62.2254 9.30607 0
68.1678 48.0817 0.0339609
69.3785 43.8972 0.0314705
66.3953 45.3735 0.023845
67.3149 41.4681 0.0234361
70.0115 39.6563 0.0313723
72.486 37.5129 0.0262723
70.1023 37.5238 2
67.5585 39.5 2
66.9232 43.4217 2
65.0877 41.1677 2
65.735 47.3312 2
64.1416 44.7541 2
67.6649 37.5261 3.97646
65.33 39.3515 3.9763
64.6926 42.955 3.97599
63.121 40.8715 3.97631
63.4268 46.5882 3.97457
62.1157 44.0927 3.9757
70.0247 35.3978 0.03172
69.415 31.1637 0.0327422
67.3804 33.6254 0.0236231
66.4757 29.6921 0.0237158
62.3322 12.6606 0.0345091
62.1415 15.8296 0.047679
61.5328 18.825 0.0392814
65.2288 25.7945 0.0259664
63.6405 28.3876 0.0246615
62.3747 24.8192 0.0259378
60.7731 21.5494 0.0288304
59.8149 23.9968 0.0261445
59.2275 12.8356 0.0428751
56.3632 13.2211 0.0405107
55.8651 10.2952 0.0297453
67.6004 35.5671 2
66.9764 31.6764 2
65.2447 33.9767 2
64.1642 30.2981 2
60.7388 14.272 2
60.3577 17.2767 2
59.7683 20.0475 2
63.0397 26.5765 2
61.5776 28.9596 2
59.065 22.5458 2
60.396 25.5841 2
58.2284 24.654 2
57.8142 14.4473 2
55.1926 14.8022 2
54.0416 9.15674 2
54.7553 12.1239 2
65.4289 35.6943 3.97623
64.703 32.2283 3.97561
63.7067 34.3075 3.97608
61.9029 30.7782 3.97529
60.9775 27.2826 3.97451
60.033 29.3584 3.97536
59.132 15.8106 3.95525
58.5264 26.1008 3.97466
58.6947 18.5938 3.9608
58.1447 21.1572 3.96776
57.57 23.4405 3.97247
57.1427 25.0317 3.97471
52.1046 8.18931 3.96575
53.0491 11.0811 3.96244
56.4856 15.9359 3.95576
53.7465 13.8248 3.95485
54.1795 16.2125 3.95658
55.0646 67.9297 0.0198865
65.0007 49.3081 0.0256261
55.7818 64.839 0.033874
59.2071 62.2986 0.029434
56.2955 61.9934 0.0211369
63.3915 53.1717 0.0305974
61.9067 50.4623 0.0266013
59.1765 59.4293 0.0453394
58.8436 56.7843 0.0402233
60.6318 54.1099 0.0274941
58.7309 54.9347 0.0291483
53.0423 68.9912 2
53.9537 65.9661 2
57.805 60.7899 2
54.6405 63.0782 2
55.1375 60.4988 2
62.6476 48.4946 2
61.2456 52.3735 2
59.5379 49.7489 2
57.7082 58.067 2
58.7628 53.6832 2
57.5131 55.5166 2
52.0571 66.9721 3.9723
52.9235 64.1253 3.96775
56.4631 59.3245 3.95327
53.6024 61.4446 3.96525
54.1269 59.1445 3.96361
60.2251 47.6567 3.97363
59.0465 51.836 3.97254
57.1159 49.2785 3.97321
56.3679 56.7387 3.95934
56.3506 53.7695 3.96723
50.1039 67.8387 2
49.3167 65.8686 3.97156
47.4533 66.5415 2
46.8692 64.6628 3.97787
45.5502 67.0709 3.97816
43.9705 69.5789 3.98219
46.055 69.1469 2
46.6048 71.3651 3.98826
48.0955 68.5656 0.0226823
48.8027 70.7192 2
49.554 73.0099 4
50.943 69.9292 0.0161247
51.8506 72.1455 2
54.0858 71.1327 0
53.0628 6.08151 3.97898
55.1045 7.14494 2
56.25 5.02411 4
58.3339 6.3199 2
57.0543 8.34006 0.0239199
60.3285 7.74928 0
65.7378 47.3326 0.0241666
66.9258 43.4229 0.023593
64.1419 44.7542 0.024459
65.0879 41.1679 0.0238948
67.5621 39.5002 0.0234878
70.0997 37.5239 0.0314883
67.6612 37.5261 2
65.3298 39.3515 2
64.6919 42.9547 2
63.1218 40.8717 2
63.4266 46.5875 2
62.116 44.0929 2
65.4393 37.5067 3.97619
63.2693 39.2423 3.97633
62.6676 42.4629 3.97608
61.6593 40.6316 3.97647
61.23 45.7449 3.9749
60.6133 43.5408 3.97624
67.6035 35.5669 0.0234413
66.9793 31.6753 0.023637
65.2457 33.9765 0.0237907
64.1642 30.2979 0.0246068
60.744 14.2722 0.0476508
60.3646 17.2738 0.0413494
59.7703 20.0443 0.0335611
63.0409 26.5757 0.0253927
61.5776 28.9595 0.0250754
60.3967 25.5835 0.0258527
59.0654 22.5431 0.0276335
58.2331 24.6515 0.0261845
57.8176 14.4577 0.0476654
55.207 14.8199 0.0463946
54.0382 9.16386 0.0184699
54.7646 12.1304 0.0294533
65.4284 35.6944 2
64.7025 32.2287 2
63.7077 34.3073 2
61.903 30.7778 2
59.1479 15.808 2
58.6984 18.5954 2
58.14 21.1611 2
60.9773 27.2832 2
60.0335 29.3586 2
57.5656 23.4448 2
58.5237 26.1017 2
57.1374 25.0341 2
56.4709 15.9406 2
54.1792 16.2127 2
53.7308 13.8102 2
52.1038 8.19801 2
53.0467 11.0756 2
63.483 35.6698 3.97615
62.2325 33.1431 3.9759
59.7322 30.8086 3.9753
58.6862 28.1861 3.97484
57.6094 17.2057 3.95675
56.8181 26.1006 3.97468
57.1464 19.7888 3.96069
56.6436 22.2131 3.96869
56.3431 24.3457 3.97354
50.1045 7.31824 3.97205
51.1934 10.2214 3.96515
52.119 12.9087 3.96729
55.2269 17.232 3.95519
52.8518 15.4605 3.96228
53.487 17.2446 3.95424
53.0364 68.9952 0.0195388
53.9495 65.9712 0.0314077
62.6482 48.4953 0.0258562
54.6454 63.0813 0.0337601
57.8029 60.7754 0.0509053
55.1405 60.4957 0.0255955
61.2459 52.3745 0.0270222
59.5379 49.7495 0.0272586
57.7068 58.0663 0.0435724
57.5166 55.5199 0.0372292
58.7585 53.6841 0.0274314
52.0616 66.9713 2
52.9219 64.1181 2
56.4597 59.3263 2
53.597 61.4375 2
54.1233 59.1428 2
60.2251 47.6561 2
59.0481 51.8353 2
57.1163 49.2786 2
56.3631 56.7392 2
56.3484 53.7669 2
51.1432 65.0615 3.96435
51.9821 62.3922 3.96289
55.206 58.0376 3.95897
52.6785 59.9176 3.95725
53.4449 58.2617 3.96176
57.2453 46.5322 3.97439
56.7396 51.4271 3.97271
55.2291 49.136 3.97517
54.974 55.4975 3.9593
54.5216 53 3.96038
50.0997 67.8422 0.0272361
49.3202 65.8687 2
48.5854 64.0391 3.97631
47.4481 66.5493 0.0264868
45.552 67.0791 2
46.873 64.6599 2
46.3474 62.9637 3.98731
45.1139 65.1552 3.98144
43.6265 67.4503 3.97957
41.8589 69.8675 3.98243
43.9727 69.5807 2
44.373 71.8596 3.9891
46.0511 69.1461 0.0199161
46.6089 71.3642 2
47.2057 73.7222 4
48.7974 70.7207 0.0133412
49.554 73.0099 2
51.8506 72.1454 0
50.954 5.13603 3.98481
53.0649 6.08073 2
54.0858 3.86728 4
55.1007 7.14272 0.0108708
56.25 5.02406 2
58.3339 6.31992 0
63.4268 46.5882 0.0254261
64.6926 42.955 0.0240143
62.1157 44.0927 0.0243023
63.121 40.8715 0.0236879
65.33 39.3515 0.0236995
67.6649 37.5261 0.0235404
65.4386 37.5069 2
63.2707 39.2425 2
62.6684 42.4627 2
61.6596 40.6317 2
61.2302 45.7445 2
60.6131 43.5408 2
63.3348 37.4631 3.97637
61.3488 39.3177 3.97669
60.3431 41.8443 3.97684
59.3077 44.5656 3.97529
65.4289 35.6943 0.0237651
64.703 32.2283 0.0243919
63.7067 34.3075 0.0239185
61.9029 30.7782 0.0247125
59.132 15.8106 0.0447493
58.6947 18.5938 0.0391956
58.1447 21.1572 0.0322393
60.9775 27.2826 0.0254885
60.033 29.3584 0.0246409
58.5264 26.1008 0.0253395
57.57 23.4405 0.027526
57.1427 25.0317 0.025292
56.4856 15.9359 0.044239
54.1795 16.2125 0.0434222
53.7465 13.8248 0.0451494
52.1046 8.18931 0.0342529
53.0491 11.0811 0.0375602
63.4844 35.6697 2
62.234 33.1434 2
59.7323 30.8085 2
57.6151 17.2064 2
57.1453 19.79 2
56.6401 22.2179 2
58.686 28.1855 2
56.3474 24.3472 2
56.8168 26.1002 2
50.1113 7.29461 2
55.2287 17.2267 2
53.4936 17.2346 2
52.8394 15.4577 2
52.1277 12.9118 2
51.1978 10.2229 2
61.39 35.4154 3.97642
59.3283 32.8925 3.97591
57.5575 30.344 3.97486
56.2522 27.7438 3.97478
56.1891 18.4467 3.95771
55.3074 25.536 3.97351
55.6832 20.8977 3.96178
55.2736 23.2998 3.96883
48.0568 6.53595 3.97882
49.2978 9.39406 3.97248
50.372 12.1573 3.96925
51.2729 14.6579 3.97615
54.0432 18.2302 3.95937
52.1147 17.3028 3.95643
52.0571 66.9721 0.0276952
52.9235 64.1253 0.03225
60.2251 47.6567 0.0263662
53.6024 61.4446 0.0347535
56.4631 59.3245 0.0467316
54.1269 59.1445 0.0363866
59.0465 51.836 0.0274568
57.1159 49.2785 0.026794
56.3679 56.7387 0.0406627
56.3506 53.7695 0.032773
51.1458 65.0626 2
51.987 62.4186 2
55.2024 58.0355 2
52.669 59.9138 2
53.4443 58.2632 2
57.2447 46.5314 2
56.7389 51.4253 2
55.2287 49.1351 2
54.9712 55.496 2
54.5188 52.9988 2
50.3025 63.2926 3.96971
51.1208 60.7497 3.96947
53.8887 57.021 3.96677
52.0155 58.3835 3.96428
55.3925 43.8942 3.97503
54.2992 47.4633 3.97487
54.0015 50.9426 3.9658
53.3899 54.2067 3.96309
49.3167 65.8686 0.0284449
48.584 64.0578 2
47.9089 62.3869 3.99048
45.5502 67.0709 0.0218399
46.8692 64.6628 0.02213
43.6285 67.4516 2
46.3473 62.961 2
45.1197 65.1457 2
45.9397 61.4763 3.99003
44.7418 63.3781 3.97718
43.3471 65.4754 3.97963
41.6607 67.6696 3.9784
39.7017 70.0144 3.98141
41.8605 69.8695 2
42.1085 72.2039 3.99013
43.9705 69.5789 0.0178058
44.3761 71.8594 2
44.8159 74.2794 4
46.6048 71.3651 0.0117403
47.2057 73.7222 2
49.554 73.0099 0
48.7845 4.3255 3.98566
50.9541 5.1358 2
51.8506 2.85458 4
53.0628 6.08151 0.0210195
54.0858 3.86728 2
56.25 5.02411 0
61.23 45.7449 0.0250984
62.6676 42.4629 0.0239233
60.6133 43.5408 0.0237579
61.6593 40.6316 0.0235299
63.2693 39.2423 0.0236744
65.4393 37.5067 0.0238105
63.3358 37.4632 2
61.3491 39.3181 2
60.3429 41.8443 2
59.3083 44.5652 2
61.1654 37.4517 3.97683
59.2333 39.783 3.97654
57.8843 42.7453 3.97597
63.483 35.6698 0.0238535
62.2325 33.1431 0.0240987
59.7322 30.8086 0.0247033
57.6094 17.2057 0.0432538
57.1464 19.7888 0.0393096
56.6436 22.2131 0.0313071
58.6862 28.1861 0.0251613
56.8181 26.1006 0.0253229
56.3431 24.3457 0.0264644
55.2269 17.232 0.0448136
53.487 17.2446 0.045756
52.8518 15.4605 0.0377175
50.1045 7.31824 0.0279473
52.119 12.9087 0.0327068
51.1934 10.2214 0.0348506
61.3906 35.4155 2
59.3279 32.893 2
57.5574 30.3447 2
56.1903 18.4466 2
55.7012 20.8937 2
55.2891 23.3018 2
56.2519 27.744 2
55.3103 25.5407 2
48.0522 6.54664 2
49.3006 9.39565 2
54.0551 18.2279 2
52.1153 17.2963 2
51.2664 14.6523 2
50.3763 12.1531 2
58.8436 35.1988 3.97627
56.7836 32.481 3.97503
55.3334 29.6875 3.97495
54.3075 27.0638 3.97386
54.8376 19.5278 3.96095
53.9817 24.5266 3.97119
54.24 21.9929 3.96592
45.9614 5.89704 3.97913
43.3691 7.49632 3.97878
47.337 8.66357 3.97165
48.5567 11.4063 3.96765
49.6105 13.9311 3.97797
50.4548 16.3482 3.95879
52.7322 19.0168 3.95741
51.02 18.4097 3.95414
51.1432 65.0615 0.0356505
51.9821 62.3922 0.0371052
57.2453 46.5322 0.0256061
52.6785 59.9176 0.0427534
55.206 58.0376 0.0410269
53.4449 58.2617 0.038239
56.7396 51.4271 0.0272897
55.2291 49.136 0.024834
54.974 55.4975 0.0407019
54.5216 53 0.0396218
50.2985 63.2824 2
51.1195 60.7541 2
53.8806 57.0201 2
52.0074 58.3848 2
55.3959 43.8937 2
54.3 47.4632 2
53.9969 50.9408 2
53.3799 54.2066 2
49.5068 61.648 3.97591
54.0538 41.5405 3.97451
50.355 59.1166 3.96935
51.7132 56.1922 3.96325
52.6795 45.1133 3.97247
52.0668 48.8209 3.9699
51.823 52.4468 3.95814
48.5854 64.0391 0.0236874
47.9052 62.3917 2
47.2545 60.9036 3.99192
43.6265 67.4503 0.020429
45.1139 65.1552 0.0185571
46.3474 62.9637 0.0126877
41.6636 67.671 2
43.356 65.4721 2
45.9401 61.4832 2
44.7434 63.3712 2
45.686 60.5199 4.00165
44.445 61.7401 3.98664
43.1296 63.6639 3.98084
41.5418 65.6126 3.97277
39.6317 67.7478 3.97649
37.5264 70.0391 3.98189
39.7026 70.0147 2
39.8164 72.4013 3.99035
41.8589 69.8675 0.0175717
42.1105 72.2047 2
42.3947 74.6792 4
44.373 71.8596 0.0109013
44.8159 74.2794 2
47.2057 73.7222 0
43.8502 5.37025 3.97855
46.569 3.65108 3.98706
48.7837 4.3289 2
49.554 1.99015 4
50.954 5.13603 0.0151946
51.8506 2.85453 2
54.0858 3.86728 0
59.3077 44.5656 0.0247128
60.3431 41.8443 0.0231588
61.3488 39.3177 0.0233113
63.3348 37.4631 0.0236322
61.1659 37.4517 2
59.2318 39.7833 2
57.8823 42.7439 2
58.686 37.5719 3.97679
56.7613 40.532 3.97755
53.4299 39.5962 3.97691
61.39 35.4154 0.023577
59.3283 32.8925 0.0240852
57.5575 30.344 0.0251387
56.1891 18.4467 0.0422857
55.6832 20.8977 0.0382232
55.2736 23.2998 0.031171
56.2522 27.7438 0.025225
55.3074 25.536 0.0264854
54.0432 18.2302 0.0406255
52.1147 17.3028 0.043574
51.2729 14.6579 0.0238525
48.0568 6.53595 0.0211821
49.2978 9.39406 0.0275163
50.372 12.1573 0.0307469
58.8416 35.1981 2
45.9616 5.89528 2
43.3699 7.49899 2
56.783 32.4813 2
55.3353 29.6857 2
54.8262 19.5342 2
54.2666 21.9926 2
53.9798 24.5355 2
54.3071 27.0635 2
47.3399 8.65482 2
48.5593 11.3986 2
52.7357 18.9839 2
51.0281 18.4075 2
50.4654 16.3483 2
49.6064 13.9318 2
56.0753 34.8816 3.97731
54.318 31.8281 3.97417
53.181 28.8467 3.97554
52.6789 26.0106 3.97291
53.4182 20.5254 3.9677
52.7636 23.2004 3.96988
41.3965 7.09381 3.9774
45.3482 8.01392 3.9837
42.856 9.45005 3.97245
46.6384 10.7335 3.97335
47.6666 13.2336 3.97388
48.7647 15.5851 3.97461
49.743 17.9909 3.95667
51.2464 19.7272 3.97687
50.3025 63.2926 0.0302934
51.1208 60.7497 0.0305275
55.3925 43.8942 0.0249738
54.2992 47.4633 0.0251294
52.0155 58.3835 0.0357157
53.8887 57.021 0.0332302
54.0015 50.9426 0.0341995
53.3899 54.2067 0.0369052
49.5089 61.6448 2
54.0456 41.5325 2
50.3532 59.1222 2
51.7153 56.197 2
52.6719 45.1091 2
52.0625 48.8186 2
51.8264 52.4477 2
48.7057 60.0904 3.99573
50.5986 42.3247 3.98254
49.4627 57.4011 3.96111
49.9599 54.0794 3.95908
50.3427 46.707 3.97692
50.1692 50.4842 3.95373
46.3824 43.2424 3.95545
47.9089 62.3869 0.00951978
47.2585 60.9016 2
46.4996 59.6895 3.99349
41.6607 67.6696 0.0215986
43.3471 65.4754 0.0203745
44.7418 63.3781 0.0228224
45.9397 61.4763 0.00997494
39.6346 67.7485 2
41.5478 65.6096 2
45.6923 60.5247 2
43.1291 63.6634 2
44.4453 61.7364 2
44.5678 60.1747 3.99349
42.9199 61.9988 3.9801
41.5862 63.7782 3.98252
39.6441 65.5849 3.97554
37.5631 67.7309 3.97594
31.7045 65.0931 3.97363
33.395 67.4693 3.97865
35.3348 69.9509 3.98221
37.5264 70.0411 2
37.5096 72.4553 3.99091
39.7017 70.0144 0.0185871
39.8177 72.4014 2
39.9526 74.9197 4
42.1085 72.2039 0.00986811
42.3947 74.6792 2
44.8159 74.2794 0
41.7352 4.97708 3.98354
43.8502 5.37072 2
44.3252 3.11345 3.98911
46.5703 3.65059 2
47.2057 1.27793 4
48.7845 4.3255 0.0143364
49.554 1.99013 2
51.8506 2.85458 0
57.8843 42.7453 0.0240328
59.2333 39.783 0.0234646
61.1654 37.4517 0.0231697
58.6868 37.5722 2
56.7611 40.5338 2
53.4248 39.6005 2
55.3978 37.8827 3.97694
47.6091 41.066 3.96598
51.1161 39.2455 3.97941
39.4394 6.81675 3.97672
58.8436 35.1988 0.0237297
56.7836 32.481 0.0249731
55.3334 29.6875 0.0250465
54.8376 19.5278 0.0390537
54.24 21.9929 0.0340812
53.9817 24.5266 0.0288092
54.3075 27.0638 0.026135
52.7322 19.0168 0.0425942
51.02 18.4097 0.0458597
50.4548 16.3482 0.0412122
45.9614 5.89704 0.0208721
49.6105 13.9311 0.0220251
47.337 8.66357 0.0283544
48.5567 11.4063 0.0323499
43.3691 7.49632 0.0212169
56.0726 34.8829 2
41.3974 7.09552 2
45.3494 8.01346 2
42.8541 9.44909 2
54.3127 31.8274 2
53.1754 28.8486 2
53.4179 20.5333 2
52.7452 23.2143 2
52.6833 26.0072 2
46.6387 10.7241 2
47.6682 13.2202 2
51.2599 19.7248 2
49.7462 17.9722 2
48.7763 15.6093 2
53.2027 34.1469 3.97564
51.9327 30.9028 3.97468
51.3155 27.7256 3.975
51.1612 24.6335 3.97207
51.7959 21.5106 3.9726
41.0058 9.06819 3.97627
44.7103 10.0452 3.97892
42.4452 10.9411 4.00357
45.9399 12.8165 3.97301
47.5576 14.7589 3.97651
47.8821 17.1781 3.97336
49.4977 20.1224 3.98706
49.5068 61.648 0.0240947
50.355 59.1166 0.030653
54.0538 41.5405 0.0254859
52.6795 45.1133 0.0275278
52.0668 48.8209 0.0300961
51.7132 56.1922 0.0367471
51.823 52.4468 0.041857
48.704 60.0916 2
50.6249 42.3519 2
49.4611 57.3947 2
49.959 54.0821 2
50.3435 46.7064 2
50.1724 50.4841 2
46.3927 43.2803 2
47.7874 58.5503 3.99107
48.3771 44.833 3.9832
48.1596 55.6493 3.9488
48.3629 52.2055 3.97483
48.471 48.5327 3.97423
44.0232 39.6535 3.80215
44.6046 42.198 3.85099
44.9949 45.1515 3.96867
41.9623 40.9415 3.55096
41.0778 41.3792 3.35188
47.2545 60.9036 0.00808137
46.5075 59.6906 2
45.3417 58.6583 3.99371
39.6317 67.7478 0.0235077
41.5418 65.6126 0.0272341
43.1296 63.6639 0.0191587
44.445 61.7401 0.0133594
45.686 60.5199 -0.00165303
41.5902 63.7731 2
37.5654 67.7334 2
39.6487 65.587 2
44.5645 60.1875 2
42.9201 61.994 2
41.7301 62.4252 3.98601
42.4383 59.8605 3.98912
39.8837 63.5187 3.97999
37.6404 65.4848 3.97621
35.464 67.6409 3.97524
33.5796 65.3103 3.97377
31.9729 63.2481 3.99442
29.8979 64.6831 3.98011
31.6964 65.1021 2
31.3831 67.1827 3.97908
33.3964 67.4742 2
33.1589 69.7442 3.98256
35.3344 69.9525 2
35.1968 72.3707 3.99139
37.5264 70.0391 0.0181071
37.5103 72.456 2
37.5 75 4
39.8164 72.4013 0.00965405
39.9526 74.9197 2
42.3947 74.6792 0
39.6237 4.72318 3.98511
41.735 4.97786 2
42.0619 2.72039 3.98975
43.8502 5.37025 0.0214466
44.3254 3.11356 2
44.8158 0.721173 4
46.569 3.65108 0.0129403
47.2057 1.27779 2
49.554 1.99015 0
56.7613 40.532 0.0224467
58.686 37.5719 0.0232108
53.4299 39.5962 0.0230922
47.6532 41.0924 2
55.3961 37.8809 2
51.1343 39.2271 2
52.062 36.6322 3.97704
45.526 40.1815 3.87682
48.4276 38.4536 3.96239
37.5138 6.68522 3.9815
39.4405 6.81518 2
39.207 8.71737 3.98469
35.9422 8.51326 3.97636
56.0753 34.8816 0.0226894
54.318 31.8281 0.0258289
53.181 28.8467 0.0244649
53.4182 20.5254 0.0323012
52.7636 23.2004 0.0301239
52.6789 26.0106 0.0270898
51.2464 19.7272 0.0231259
49.743 17.9909 0.0433338
48.7647 15.5851 0.0253928
45.3482 8.01392 0.0162978
47.6666 13.2336 0.0261205
46.6384 10.7335 0.0266526
41.3965 7.09381 0.0226038
42.856 9.45005 0.0275457
53.2049 34.1522 2
41.0029 9.07085 2
44.7105 10.0387 2
42.4433 10.9457 2
51.9366 30.8998 2
51.3173 27.7289 2
51.7838 21.5174 2
51.1485 24.6444 2
45.9397 12.8039 2
47.5521 14.7391 2
49.5239 20.1364 2
47.8841 17.1713 2
50.5627 33.1565 3.97456
49.7344 29.7183 3.97668
49.6114 26.2544 3.97118
49.32 22.6893 3.97319
40.5549 11.6319 3.99024
43.8073 11.9706 3.96887
45.6773 15.6175 4.00573
47.2208 19.6883 3.97658
44.2487 37.5093 3.81404
48.7057 60.0904 0.0042737
49.4627 57.4011 0.0388854
50.5986 42.3247 0.0174562
50.3427 46.707 0.0230782
50.1692 50.4842 0.0462674
49.9599 54.0794 0.0409183
46.3824 43.2424 0.0445546
47.779 58.5531 2
48.3914 44.8438 2
48.1544 55.65 2
48.3625 52.2106 2
48.4753 48.5339 2
44.1402 39.6715 2
44.6455 42.2466 2
45.0013 45.1761 2
42.0353 41.0094 2
41.1272 41.3916 2
46.5725 57.1323 3.99286
42.5293 39.411 3.54764
41.4489 40.3841 3.33416
46.6866 46.7634 3.99637
46.6315 53.9133 3.95383
46.6766 50.3271 3.97265
43.6917 46.7538 3.97696
43.2945 41.6107 3.80941
43.562 43.9533 3.83911
41.4137 42.0783 3.56805
40.2714 41.6446 3.26855
46.4996 59.6895 0.00651075
45.3356 58.6603 2
43.7573 57.5157 3.99622
37.5631 67.7309 0.0240571
39.6441 65.5849 0.024456
41.5862 63.7782 0.0174805
42.9199 61.9988 0.0199027
44.5678 60.1747 0.00651132
35.4657 67.6426 2
41.7295 62.4217 2
39.8857 63.5224 2
37.6434 65.4884 2
42.4365 59.8662 2
40.6028 61.5644 3.98871
40.4065 58.0414 3.99315
37.8325 63.1711 3.97437
35.5738 65.402 3.97444
33.5743 65.3029 2
31.9719 63.2316 2
33.6362 63.3017 3.99152
30.4085 62.7809 3.97932
32.139 61.9477 3.98481
26.9403 61.3527 3.99107
28.0904 64.0722 3.9883
29.8938 64.6766 2
29.4153 66.7336 3.98069
31.7045 65.0931 0.0263688
31.3843 67.1847 2
31.0173 69.4101 3.98303
33.395 67.4693 0.0213455
33.1578 69.7471 2
32.8954 72.1449 3.99101
35.3348 69.9509 0.0177915
35.1964 72.3716 2
35.0474 74.9194 4
37.5096 72.4553 0.00909284
37.5 75 2
39.9526 74.9197 0
35.6189 6.73829 3.97779
37.5238 4.62219 3.98568
39.6232 4.72181 2
39.7887 2.47648 3.99126
41.7352 4.97708 0.0164606
42.0619 2.7207 2
42.3946 0.32156 4
44.3252 3.11345 0.0108907
44.8159 0.72056 2
47.2057 1.27793 0
47.6091 41.066 0.0340206
55.3978 37.8827 0.0230609
51.1161 39.2455 0.0205913
45.5993 40.1694 2
48.4855 38.4564 2
52.0546 36.6297 2
49.2939 35.654 3.97872
46.0465 37.6855 3.82864
44.0578 35.333 3.80527
42.0139 34.0213 3.55071
41.1255 33.5761 3.35614
37.4574 8.54891 3.97933
37.515 6.68543 2
39.4394 6.81675 0.0232798
39.2067 8.72097 2
38.9704 10.1567 3.994
35.8986 9.79774 3.98163
34.153 8.84499 3.97597
35.941 8.51305 2
53.2027 34.1469 0.0243589
51.9327 30.9028 0.0253189
51.3155 27.7256 0.0249987
51.7959 21.5106 0.0273995
51.1612 24.6335 0.0279252
49.4977 20.1224 0.0129421
47.8821 17.1781 0.0266386
47.5576 14.7589 0.0234908
44.7103 10.0452 0.0210776
45.9399 12.8165 0.0269859
41.0058 9.06819 0.0237346
42.4452 10.9411 -0.00356732
50.5885 33.1398 2
40.5572 11.6474 2
43.8061 11.9466 2
49.7423 29.7142 2
49.6103 26.2729 2
49.314 22.6776 2
45.6609 15.5573 2
47.2421 19.738 2
48.1731 31.7147 3.97904
47.9297 28.0437 3.97553
48.4743 24.8567 3.96344
46.7368 22.5145 3.98872
38.3004 12.7807 3.98029
42.0402 14.4319 3.99658
44.5774 18.7176 3.99046
42.7414 37.4905 3.53739
44.3767 37.4968 2
47.7874 58.5503 0.00892622
48.1596 55.6493 0.0511951
48.3771 44.833 0.0168043
48.471 48.5327 0.0257664
48.3629 52.2055 0.0251682
44.0232 39.6535 0.197847
44.6046 42.198 0.149015
44.9949 45.1515 0.0313339
41.9623 40.9415 0.449042
41.0778 41.3792 0.648125
46.5672 57.1362 2
42.6197 39.4243 2
41.4833 40.3851 2
46.6919 46.7679 2
46.6227 53.9158 2
46.6758 50.3402 2
43.734 46.7745 2
43.3664 41.6688 2
43.6308 43.9934 2
41.477 42.1745 2
40.3671 41.662 2
45.0665 55.6929 4.0043
41.7399 38.9925 3.34572
40.0981 40.3588 3.35093
45.0495 48.4074 4.00458
44.844 52.131 3.99576
42.539 47.7293 3.98582
42.3779 45.3923 3.85064
42.4284 43.24 3.76849
40.6093 42.9289 3.53892
39.0783 41.9551 3.35989
45.3417 58.6583 0.00629183
43.7553 57.5267 2
41.9892 56.0463 3.99541
35.464 67.6409 0.0247634
37.6404 65.4848 0.0237924
39.8837 63.5187 0.0200073
41.7301 62.4252 0.0139853
42.4383 59.8605 0.0108823
35.5753 65.4101 2
40.6036 61.5533 2
37.8347 63.1771 2
40.4061 58.0535 2
38.899 56.2008 3.99545
38.2351 60.2452 3.98953
35.6079 63.1667 3.97534
33.5796 65.3103 0.0262324
31.9729 63.2481 0.0055782
33.6346 63.3049 2
30.4052 62.7695 2
32.153 61.932 2
28.7316 62.0976 3.98693
33.3606 61.4716 3.9907
31.1473 61.1392 4.00631
27.7001 59.455 3.96923
23.9591 58.8781 3.97324
25.1306 60.6791 3.98491
26.9349 61.3618 2
26.2757 63.3917 3.97994
28.0913 64.0826 2
27.4798 66.156 3.97714
29.8979 64.6831 0.0198861
29.4158 66.7481 2
28.9127 68.9297 3.9802
31.3831 67.1827 0.0209244
31.0154 69.4114 2
30.6189 71.7769 3.99047
33.1589 69.7442 0.0174395
32.8938 72.146 2
32.6054 74.6784 4
35.1968 72.3707 0.00860892
35.0474 74.9197 2
37.5 75 0
33.722 6.99532 3.97626
35.4363 4.69247 3.98515
35.62 6.73809 2
37.515 2.38895 3.9914
37.5226 4.62153 2
39.6237 4.72318 0.0148902
39.7883 2.47603 2
39.9526 0.0806499 4
42.0619 2.72039 0.0102515
42.3947 0.320817 2
44.8158 0.721173 0
42.5746 35.5574 3.5525
41.4919 34.559 3.31982
45.526 40.1815 0.123175
48.4276 38.4536 0.0376086
52.062 36.6322 0.0229572
46.0959 37.7051 2
49.3443 35.6672 2
44.1733 35.3109 2
42.0884 33.9459 2
41.1439 33.5578 2
46.428 34.5761 3.91735
43.3479 33.3466 3.80125
41.4508 32.8816 3.57088
40.2859 33.3166 3.26598
37.3089 10.6517 3.98062
37.4576 8.54862 2
37.5138 6.68522 0.018502
39.207 8.71737 0.0153129
38.9731 10.161 2
34.7578 10.4116 3.97467
35.9036 9.79742 2
32.3828 9.3963 3.9718
34.1514 8.84536 2
35.9422 8.51326 0.0236414
50.5627 33.1565 0.0254443
49.7344 29.7183 0.0233217
49.6114 26.2544 0.028816
49.32 22.6893 0.0268095
47.2208 19.6883 0.023416
45.6773 15.6175 -0.00573163
43.8073 11.9706 0.0311316
40.5549 11.6319 0.00976108
48.1922 31.6907 2
38.2958 12.7839 2
42.0486 14.4235 2
47.9193 28.042 2
48.4734 24.8707 2
46.7293 22.5071 2
44.6012 18.7858 2
46.2 30.0896 3.97627
46.1761 25.5633 3.97743
43.977 21.7913 3.98334
36.5956 12.9976 3.98153
38.6573 14.9527 3.98228
41.6362 18.0766 3.98993
41.8603 37.456 3.34641
42.8353 37.4913 2
44.2487 37.5093 0.185956
46.5725 57.1323 0.00714319
46.6315 53.9133 0.0461667
46.6866 46.7634 0.00362818
46.6766 50.3271 0.0273484
42.5293 39.411 0.452358
43.2945 41.6107 0.190592
43.562 43.9533 0.160893
43.6917 46.7538 0.023043
41.4137 42.0783 0.431951
41.4489 40.3841 0.665839
40.2714 41.6446 0.731448
45.0627 55.6928 2
41.7778 38.9977 2
40.2026 40.345 2
45.0467 48.435 2
44.8336 52.1325 2
42.5889 47.7549 2
42.4466 45.4792 2
42.4884 43.2755 2
40.6809 43.0261 2
39.02 42.0055 2
43.3914 54.0905 4.00315
40.1072 38.9106 3.38932
38.9947 40.465 3.36025
42.8924 49.8476 4.00424
41.271 46.862 3.90851
41.1697 44.4408 3.76937
39.3687 43.6054 3.55255
37.5054 42.1251 3.43651
43.7573 57.5157 0.00378362
41.9854 56.034 2
40.2953 54.6 3.99726
35.5738 65.402 0.0255563
37.8325 63.1711 0.0256314
40.6028 61.5644 0.0112875
40.4065 58.0414 0.00685272
35.609 63.1716 2
38.2368 60.227 2
38.8999 56.1894 2
37.964 54.8849 3.9963
36.9291 57.4519 3.99304
35.3647 60.8434 3.98454
33.6362 63.3017 0.00847744
30.4085 62.7809 0.0206792
32.139 61.9477 0.0151931
33.3781 61.4647 2
28.7232 62.1104 2
31.1396 61.1346 2
29.5234 60.2761 3.98136
32.3937 59.5958 3.99475
28.1933 58.2019 4.00821
27.7007 59.4648 2
25.5562 58.4036 3.96907
22.9792 58.018 3.96419
23.5104 60.1554 3.96858
23.9586 58.8772 2
25.1271 60.6766 2
24.4954 62.6548 3.96628
26.9403 61.3527 0.00893056
26.2761 63.4061 2
25.5732 65.4359 3.9742
28.0904 64.0722 0.011698
27.4747 66.1393 2
26.845 68.3224 3.98148
29.4153 66.7336 0.0193137
28.9082 68.9332 2
28.3753 71.2606 3.98725
31.0173 69.4101 0.0169654
30.6164 71.7765 2
30.1842 74.2788 4
32.8954 72.1449 0.00899445
32.6053 74.6792 2
35.0474 74.9194 0
31.7874 7.43912 3.97342
33.349 4.93267 3.98302
33.7233 6.99554 2
35.2458 2.46505 3.99102
35.4343 4.69258 2
35.6189 6.73829 0.0222091
37.5 0 4
37.5138 2.38886 2
37.5238 4.62219 0.0143209
39.7887 2.47648 0.00873557
39.9526 0.0802889 2
42.3946 0.32156 0
41.7472 35.9225 3.28663
42.6811 35.5461 2
40.1568 34.579 3.37666
41.5242 34.5496 2
46.0465 37.6855 0.171363
49.2939 35.654 0.0212767
44.0578 35.333 0.194726
42.0139 34.0213 0.449294
41.1255 33.5761 0.643856
46.4793 34.5696 2
43.4097 33.2956 2
41.4989 32.7892 2
40.3501 33.303 2
44.6433 32.0763 3.87052
42.456 31.7191 3.75667
40.6416 32.0304 3.54574
39.0688 33.0106 3.36194
35.7006 11.8178 3.97294
37.3159 10.6504 2
37.4574 8.54891 0.0206746
38.9704 10.1567 0.00599515
33.1082 11.2638 3.97082
34.762 10.4067 2
35.8986 9.79774 0.0183736
30.4928 10.06 3.9711
32.381 9.40114 2
34.153 8.84499 0.024026
48.1731 31.7147 0.0209588
47.9297 28.0437 0.0244661
48.4743 24.8567 0.0365585
46.7368 22.5145 0.0112821
44.5774 18.7176 0.00954394
42.0402 14.4319 0.00341797
38.3004 12.7807 0.0197051
36.588 12.9977 2
46.1757 30.0352 2
38.6634 14.9229 2
41.6045 18.0464 2
46.1737 25.5515 2
43.9754 21.7897 2
44.3381 28.2686 3.9868
43.1683 24.4664 4.00547
41.0998 21.1241 3.9958
35.7867 14.8289 3.99195
38.6092 17.8301 3.9933
40.1624 37.4056 3.42217
41.9092 37.4656 2
42.7414 37.4905 0.462613
45.0665 55.6929 -0.00430262
44.844 52.131 0.00423992
45.0495 48.4074 -0.004582
41.7399 38.9925 0.654285
42.4284 43.24 0.231509
42.3779 45.3923 0.14936
42.539 47.7293 0.0141764
40.6093 42.9289 0.461076
40.0981 40.3588 0.64907
39.0783 41.9551 0.640112
43.3855 54.0852 2
40.1744 38.9153 2
38.9464 40.4671 2
42.8717 49.8693 2
41.2718 46.8895 2
41.1941 44.4956 2
37.4896 42.1441 2
39.3827 43.705 2
41.5464 52.5443 4.0057
39.0053 38.9728 3.34153
37.4976 40.4971 3.44818
35.9124 41.9784 3.35993
40.5527 49.0248 3.98668
39.5187 45.1482 3.74274
37.4946 43.9283 3.60467
41.9892 56.0463 0.00459272
40.2892 54.6019 2
38.6593 53.3474 3.99898
35.6079 63.1667 0.0246559
38.2351 60.2452 0.0104738
38.899 56.2008 0.00454932
35.3775 60.8303 2
36.9345 57.4649 2
37.955 54.8794 2
36.3245 55.0073 3.99566
34.5098 58.3705 3.9949
33.3606 61.4716 0.00930197
28.7316 62.0976 0.0130704
31.1473 61.1392 -0.00631318
32.3958 59.584 2
29.5218 60.2827 2
30.4301 57.5419 3.98317
28.187 58.1926 2
27.2233 56.6299 3.96287
27.7001 59.455 0.0307747
25.5564 58.4004 2
24.1737 56.5559 3.95572
21.6899 57.1363 3.96
22.1315 59.4283 3.96849
22.9777 58.0193 2
22.8141 61.8586 3.97004
23.5096 60.1558 2
23.9591 58.8781 0.0267565
25.1306 60.6791 0.015092
24.4945 62.6685 2
23.7151 64.6445 3.96347
26.2757 63.3917 0.0200618
25.568 65.4295 2
24.8197 67.5829 3.97075
27.4798 66.156 0.0228602
26.8403 68.3247 2
26.171 70.6031 3.98757
28.9127 68.9297 0.0197959
28.3714 71.2612 2
27.7943 73.7221 4
30.6189 71.7769 0.00953044
30.1841 74.2794 2
32.6054 74.6784 0
29.8112 8.01944 3.97007
31.2545 5.34196 3.98101
31.7881 7.43645 2
32.982 2.70329 3.99019
33.3464 4.93302 2
33.722 6.99532 0.0237367
35.0474 0.080333 4
35.2441 2.46524 2
35.4363 4.69247 0.0148529
37.5 0 2
37.515 2.38895 0.00860212
39.9526 0.0806499 0
40.2753 35.971 3.43865
41.8047 35.9199 2
42.5746 35.5574 0.447498
28.5569 10.7483 3.96994
38.9737 34.5217 3.33786
40.1661 34.5683 2
41.4919 34.559 0.680184
46.428 34.5761 0.0826455
43.3479 33.3466 0.198751
41.4508 32.8816 0.429117
40.2859 33.3166 0.734023
44.6657 32.0413 2
42.5233 31.6753 2
40.7099 31.9363 2
39.0275 32.9612 2
43.1944 30.3961 3.85301
41.1868 30.4927 3.77103
39.3631 31.3555 3.55706
37.4952 32.8655 3.43349
34.1105 12.9891 3.98336
35.7035 11.8095 2
37.3089 10.6517 0.0193831
31.2041 12.0483 3.97244
33.1111 11.2549 2
34.7578 10.4116 0.0253342
30.4882 10.056 2
32.3828 9.3963 0.0282016
46.2 30.0896 0.0237273
46.1761 25.5633 0.0225674
36.5956 12.9976 0.0184653
43.977 21.7913 0.0166601
41.6362 18.0766 0.0100684
38.6573 14.9527 0.017716
35.7691 14.8553 2
44.3316 28.2822 2
38.6168 17.8292 2
41.1262 21.1055 2
43.1566 24.4487 2
33.6514 15.9708 3.99212
42.3048 27.0397 3.96802
40.6894 23.8877 4.00318
38.3486 20.6636 3.99633
35.8341 17.7406 3.98954
39.0003 37.4869 3.31208
40.2041 37.4151 2
41.8603 37.456 0.653594
43.3914 54.0905 -0.00315026
42.8924 49.8476 -0.00423962
40.1072 38.9106 0.610678
41.1697 44.4408 0.230627
41.271 46.862 0.0914943
39.3687 43.6054 0.447446
38.9947 40.465 0.639747
37.5054 42.1251 0.563493
41.5329 52.5361 2
38.9659 38.971 2
37.4773 40.5055 2
40.5411 49.0297 2
35.9617 42.0236 2
39.556 45.2268 2
37.486 44.0134 2
39.652 51.2724 3.99834
37.4907 38.9688 3.41084
36.0524 40.4891 3.34847
34.7339 41.6748 3.26286
35.6268 43.6263 3.55148
38.5533 47.8365 3.91556
37.475 45.4362 3.77527
40.2953 54.6 0.00273556
38.6471 53.3583 2
36.782 52.6887 3.99922
35.3647 60.8434 0.0154554
36.9291 57.4519 0.00696267
37.964 54.8849 0.00370224
34.507 58.3762 2
36.3285 55.0064 2
33.4423 55.1887 4.00598
32.3937 59.5958 0.0052548
29.5234 60.2761 0.0186404
30.4302 57.5357 2
29.0787 55.1474 3.98423
28.1933 58.2019 -0.0082097
27.2273 56.6268 2
25.7728 54.8753 3.95551
22.3573 55.027 3.95903
25.5562 58.4036 0.0309313
24.1729 56.5552 2
20.5819 56.7692 3.96147
20.8339 58.573 3.95829
21.6908 57.1385 2
21.2583 60.988 3.96543
22.1274 59.4329 2
22.9792 58.018 0.0358116
21.9404 63.729 3.96738
22.812 61.8638 2
23.5104 60.1554 0.031424
24.4954 62.6548 0.0337248
23.7085 64.6431 2
22.8504 66.7123 3.96833
25.5732 65.4359 0.0257987
24.815 67.5768 2
24.0149 69.8045 3.98537
26.845 68.3224 0.0185169
26.1651 70.602 2
25.446 73.0099 4
28.3753 71.2606 0.0127469
27.7943 73.7222 2
30.1842 74.2788 0
27.8231 8.69723 3.97103
29.1564 5.88817 3.97895
29.8111 8.01814 2
30.7279 3.10107 3.98903
31.2514 5.34113 2
31.7874 7.43912 0.0265757
32.6053 0.320823 4
32.9797 2.70379 2
33.349 4.93267 0.0169833
35.0474 0.0802903 2
35.2458 2.46505 0.00897653
37.5 0 0
38.868 36.015 3.32794
40.2466 35.9719 2
41.7472 35.9225 0.713366
28.5544 10.7479 2
26.6431 11.4517 3.97115
29.2512 12.6954 3.97656
37.5063 34.5008 3.44785
38.9854 34.5288 2
40.1568 34.579 0.62334
44.6433 32.0763 0.129479
42.456 31.7191 0.243331
40.6416 32.0304 0.454257
39.0688 33.0106 0.638063
43.2597 30.3441 2
41.2347 30.4311 2
39.3781 31.2527 2
37.5099 32.8428 2
41.5961 29.1396 3.84613
39.5414 29.8197 3.76398
37.492 31.0451 3.6081
35.9192 33.028 3.36632
31.9584 14.5541 3.98498
34.1118 12.9836 2
35.7006 11.8178 0.0270638
31.2028 12.0382 2
33.1082 11.2638 0.0291767
30.4928 10.06 0.0288977
44.3381 28.2686 0.0132018
43.1683 24.4664 -0.00546675
35.7867 14.8289 0.00804548
41.0998 21.1241 0.00420412
38.6092 17.8301 0.00669765
33.6319 15.9495 2
35.8435 17.6405 2
42.3598 26.9943 2
38.2998 20.7203 2
40.6606 23.9101 2
33.592 17.5405 3.99045
40.1105 26.4022 3.95724
37.9806 23.6652 3.99583
35.539 20.5349 3.9927
37.5289 37.4835 3.43339
38.9533 37.4877 2
40.1624 37.4056 0.577825
41.5464 52.5443 -0.00570311
40.5527 49.0248 0.013316
39.0053 38.9728 0.65847
39.5187 45.1482 0.257264
37.4946 43.9283 0.395328
37.4976 40.4971 0.551823
35.9124 41.9784 0.640066
39.6375 51.2605 2
37.4705 38.9783 2
36.0327 40.4611 2
38.5807 47.9081 2
34.6553 41.6913 2
35.604 43.7309 2
37.4908 45.515 2
37.6824 50.2442 3.98911
36.1403 39.0067 3.33775
34.8535 40.3906 3.37859
33.8989 41.4189 3.35496
34.3928 42.9617 3.5364
35.4295 45.2298 3.77389
36.9551 47.4713 3.8653
38.6593 53.3474 0.00102473
36.8099 52.6271 2
34.5582 52.0486 3.9981
34.5098 58.3705 0.00509784
36.3245 55.0073 0.004336
33.447 55.1869 2
30.9681 53.1579 3.99431
30.4301 57.5419 0.0168332
29.0855 55.149 2
27.4719 53.14 3.95186
27.2233 56.6299 0.0371261
25.7872 54.8723 2
24.2761 53.1119 3.95316
21.3012 52.8281 3.95879
20.4605 55.527 3.95973
22.3608 55.0268 2
24.1737 56.5559 0.0442777
19.723 57.6623 3.96096
20.5749 56.7734 2
19.8012 60.0434 3.96963
20.8246 58.5793 2
21.6899 57.1363 0.0399984
20.2701 62.7008 3.97027
21.2645 60.9991 2
22.1315 59.4283 0.031515
20.9582 65.7069 3.96434
21.9361 63.7208 2
22.8141 61.8586 0.0299632
23.7151 64.6445 0.0365282
22.8469 66.7032 2
21.9187 68.8677 3.98047
24.8197 67.5829 0.0292455
24.0097 69.8003 2
23.1494 72.1454 4
26.171 70.6031 0.0124301
25.446 73.0099 2
27.7943 73.7221 0
25.8644 9.4387 3.97033
27.0715 6.55469 3.97527
27.8223 8.68401 2
28.4905 3.6464 3.9882
29.1535 5.88832 2
29.8112 8.01944 0.0299313
30.1841 0.720592 4
30.7244 3.10111 2
31.2545 5.34196 0.0189906
32.6053 0.320817 2
32.982 2.70329 0.00981268
35.0474 0.080333 0
37.5201 35.9991 3.39757
38.8404 35.9691 2
40.2753 35.971 0.561349
24.8091 12.1355 3.96631
23.8172 14.5713 3.9803
28.5569 10.7483 0.0300572
26.6373 11.4575 2
29.2458 12.7242 2
27.3171 13.4888 3.97443
29.8354 14.2509 4.00403
36.0044 34.52 3.36831
37.5402 34.4811 2
38.9737 34.5217 0.662138
37.4952 32.8655 0.566513
43.1944 30.3961 0.146995
41.1868 30.4927 0.228975
39.3631 31.3555 0.442943
41.6253 29.0586 2
39.549 29.7369 2
37.496 30.9622 2
35.9683 32.9784 2
39.712 28.4307 3.8404
37.4713 29.5055 3.7586
35.6296 31.3793 3.5548
34.7081 33.3401 3.2738
31.0179 16.916 3.9966
31.9497 14.5292 2
34.1105 12.9891 0.016639
31.2041 12.0483 0.0275569
42.3048 27.0397 0.0319828
40.6894 23.8877 -0.00317906
33.6514 15.9708 0.00788387
35.8341 17.7406 0.0104616
38.3486 20.6636 0.00367339
33.5421 17.577 2
35.4733 20.5848 2
40.1239 26.3947 2
38.05 23.662 2
33.0405 20.1223 3.99613
37.7675 26.0747 3.95373
35.426 23.2891 4.00483
36.0841 37.4834 3.32125
37.4951 37.4823 2
39.0003 37.4869 0.687916
39.652 51.2724 0.00166438
38.5533 47.8365 0.0844392
37.4907 38.9688 0.589156
37.475 45.4362 0.224727
35.6268 43.6263 0.448518
36.0524 40.4891 0.651534
34.7339 41.6748 0.737145
37.6256 50.2806 2
36.199 38.9872 2
34.8116 40.4118 2
36.927 47.5453 2
33.8548 41.4368 2
34.3214 43.0529 2
35.3974 45.2953 2
35.604 49.4283 3.98064
34.7794 38.9747 3.43492
33.5231 40.4352 3.3187
33.5761 42.1153 3.56811
33.8611 44.4778 3.76033
34.7502 46.6396 3.84579
36.782 52.6887 0.00078222
34.5472 52.0691 2
32.5112 50.794 4.00491
33.4423 55.1887 -0.0059829
30.9737 53.1538 2
29.0972 51.1441 3.98378
29.0787 55.1474 0.0157722
27.4806 53.1346 2
25.9034 51.3176 3.95591
25.7728 54.8753 0.044494
24.2839 53.1133 2
22.9042 51.3708 3.9538
20.221 51.2027 3.96582
19.6484 53.955 3.96153
21.2983 52.8274 2
18.9025 56.4523 3.96134
20.4569 55.5296 2
22.3573 55.027 0.0409684
18.546 58.9278 3.95357
19.7204 57.664 2
20.5819 56.7692 0.0385292
18.6744 61.6566 3.97733
19.8105 60.0439 2
20.8339 58.573 0.0417079
19.1539 64.5901 3.96629
20.2671 62.7052 2
21.2583 60.988 0.0345653
19.8926 67.8069 3.97883
20.9499 65.7108 2
21.9404 63.729 0.0326152
22.8504 66.7123 0.0316711
21.9131 68.8641 2
20.9142 71.1327 4
24.0149 69.8045 0.0146271
23.1494 72.1455 2
25.446 73.0099 0
23.1305 12.9561 3.9696
23.9853 10.2138 3.96799
25.0263 7.3289 3.97083
25.8652 9.43217 2
26.2827 4.3313 3.98658
27.0678 6.55597 2
27.8231 8.69723 0.0289651
27.7943 1.27781 4
28.4858 3.64812 2
29.1564 5.88817 0.0210482
30.1841 0.720551 2
30.7279 3.10107 0.0109743
32.6053 0.320823 0
36.0251 36.0061 3.34615
37.5707 36.0144 2
38.868 36.015 0.672064
24.7916 12.1896 2
23.8143 14.5822 2
22.5811 15.2335 3.97812
25.3997 14.0984 3.97142
24.1497 15.825 4.00163
26.6431 11.4517 0.0288529
29.2512 12.6954 0.0234386
27.3279 13.4608 2
29.8231 14.2763 2
28.4642 16.0074 3.99015
34.8783 34.6173 3.3609
36.0615 34.5212 2
37.5063 34.5008 0.552152
35.9192 33.028 0.633679
37.492 31.0451 0.391902
41.5961 29.1396 0.153868
39.5414 29.8197 0.236017
39.7669 28.368 2
37.4728 29.4605 2
35.6136 31.2821 2
34.6259 33.3211 2
37.5928 28.1234 3.83494
35.4704 29.8313 3.75702
34.3673 32.0522 3.5403
33.8875 33.6023 3.35654
30.3937 19.7672 3.98429
30.9725 16.9252 2
31.9584 14.5541 0.0150159
40.1105 26.4022 0.0427641
37.9806 23.6652 0.00416891
33.592 17.5405 0.00954796
35.539 20.5349 0.00730373
33.0287 20.1349 2
35.3608 23.2689 2
37.7292 26.0507 2
32.6974 22.9005 4.00784
35.2677 25.9275 3.97626
34.7924 37.5211 3.44952
36.074 37.5087 2
37.5289 37.4835 0.566606
37.6824 50.2442 0.0108949
36.9551 47.4713 0.1347
36.1403 39.0067 0.662253
35.4295 45.2298 0.226108
34.3928 42.9617 0.463598
34.8535 40.3906 0.621412
33.8989 41.4189 0.645038
35.6062 49.4375 2
34.75 38.9897 2
33.4884 40.4306 2
34.7 46.7173 2
33.5139 42.2101 2
33.8094 44.5372 2
33.7184 48.5391 3.96795
33.2485 39.0561 3.28725
32.9988 40.9727 3.54983
32.5583 43.279 3.7654
33.1184 45.6262 3.84003
34.5582 52.0486 0.00189701
32.5282 50.7838 2
30.7204 49.2786 4.00368
30.9681 53.1579 0.00568821
29.106 51.1324 2
27.4753 49.4996 3.97955
27.4719 53.14 0.0481357
25.9132 51.3169 2
24.397 49.7102 3.96992
24.2761 53.1119 0.0468372
22.9064 51.3679 2
21.6146 49.8374 3.96699
18.9106 49.9396 3.97368
18.6989 52.4136 3.96751
20.2178 51.2015 2
18.0605 55.031 3.96273
19.6417 53.9561 2
21.3012 52.8281 0.0412108
17.4702 57.6528 3.95902
18.9011 56.4533 2
20.4605 55.527 0.0402661
17.2369 60.4244 3.94811
18.5533 58.9288 2
19.723 57.6623 0.0390379
17.4167 63.4057 3.97061
18.6729 61.6472 2
19.8012 60.0434 0.0303743
17.9513 66.6073 3.96946
19.1419 64.5884 2
20.2701 62.7008 0.0297268
18.75 69.9759 4
19.8877 67.8009 2
20.9582 65.7069 0.0356556
21.9187 68.8677 0.0195346
20.9142 71.1327 2
23.1494 72.1454 0
21.642 13.7719 3.9679
22.2101 11.1161 3.96344
23.129 12.9499 2
23.0455 8.20527 3.97049
23.9801 10.2427 2
24.1208 5.14603 3.98557
25.0206 7.3293 2
25.8644 9.4387 0.0296747
25.446 1.99014 4
26.2769 4.33323 2
27.0715 6.55469 0.0247331
27.7943 1.27778 2
28.4905 3.6464 0.0117952
30.1841 0.720592 0
34.8705 36.0453 3.39812
36.0709 36.007 2
37.5201 35.9991 0.602427
21.4579 16.0395 3.95805
24.8091 12.1355 0.0336864
23.8172 14.5713 0.0196963
25.3999 14.0599 2
22.5816 15.2281 2
24.1522 15.8438 2
23.4429 16.4514 3.9664
25.4997 16.3373 3.98856
27.3171 13.4888 0.0255659
29.8354 14.2509 -0.00403413
28.4486 16.0755 2
27.6532 19.1625 3.98879
33.5172 34.5917 3.33935
34.7823 34.6304 2
36.0044 34.52 0.631687
34.7081 33.3401 0.726199
35.6296 31.3793 0.445203
37.4713 29.5055 0.241396
39.712 28.4307 0.159596
37.555 28.0913 2
33.8457 33.5898 2
35.4548 29.7578 2
34.3059 31.9573 2
35.3493 28.2196 3.85795
33.828 30.5242 3.76975
33.551 32.8954 3.57209
30.0459 22.3989 4.01205
30.3621 19.7918 2
31.0179 16.916 0.00339581
37.7675 26.0747 0.046273
35.426 23.2891 -0.00483314
33.0405 20.1223 0.00386681
32.7054 22.8598 2
35.2737 25.9181 2
32.4041 26.2342 4.02249
33.1169 37.5118 3.33202
34.7765 37.5168 2
36.0841 37.4834 0.678751
35.604 49.4283 0.0193615
34.7502 46.6396 0.154208
34.7794 38.9747 0.565079
33.8611 44.4778 0.239666
33.5761 42.1153 0.431892
33.5231 40.4352 0.681304
33.6668 48.5396 2
33.2311 39.0616 2
32.9236 41.0494 2
33.0998 45.6974 2
32.505 43.3046 2
32.0924 47.3098 3.98064
32.4359 39.4352 3.55677
31.6658 41.6508 3.8035
31.6882 44.3236 3.83868
32.5112 50.794 -0.00491457
30.7351 49.2949 2
29.0286 47.7068 3.97506
29.0972 51.1441 0.0162159
27.4826 49.4985 2
25.8876 47.9402 3.97713
25.9034 51.3176 0.0440897
24.4003 49.7083 2
22.9426 48.2678 3.97315
22.9042 51.3708 0.0462049
21.6148 49.8345 2
20.099 48.6759 3.97486
17.7861 48.9954 3.97565
17.5672 51.0638 3.97273
18.9123 49.9379 2
17.0757 53.5566 3.96846
18.699 52.4123 2
20.221 51.2027 0.0341781
16.4415 56.2295 3.96358
18.0564 55.032 2
19.6484 53.955 0.0384738
15.8951 59.0681 3.9559
17.4763 57.6531 2
18.9025 56.4523 0.0386603
15.7999 62.0535 3.96835
17.2247 60.431 2
18.546 58.9278 0.0464338
16.098 65.2985 3.97397
17.4177 63.4161 2
18.6744 61.6566 0.0226663
16.6661 68.6801 4
17.9449 66.6028 2
19.1539 64.5901 0.0337147
18.75 69.9759 2
19.8926 67.8069 0.0211696
20.9142 71.1327 0
20.3057 14.7732 3.9588
21.643 13.7707 2
20.5632 12.1366 3.96991
21.1518 9.18818 3.9714
22.1998 11.1353 2
23.1305 12.9561 0.0304047
22.022 6.08583 3.98533
23.0399 8.21359 2
23.9853 10.2138 0.0320119
23.1494 2.85457 4
24.1144 5.15078 2
25.0263 7.3289 0.0291653
25.446 1.99012 2
26.2827 4.3313 0.0134179
27.7943 1.27781 0
33.228 35.9775 3.34282
34.8016 36.0466 2
36.0251 36.0061 0.653847
21.4686 16.0431 2
20.5516 17.2232 3.96188
22.2947 16.8517 3.96736
25.3997 14.0984 0.0285753
22.5811 15.2335 0.0218824
24.1497 15.825 -0.00162857
25.4999 16.3323 2
23.446 16.4564 2
24.4511 18.8028 3.97967
27.5168 21.9661 3.99021
28.4642 16.0074 0.00984674
27.6319 19.151 2
32.9836 34.0236 3.55029
33.4856 34.5933 2
34.8783 34.6173 0.639099
33.8875 33.6023 0.64346
34.3673 32.0522 0.459704
35.4704 29.8313 0.242979
37.5928 28.1234 0.165064
35.3308 28.1719 2
33.5017 32.8051 2
33.7789 30.4541 2
33.3015 28.8683 3.86821
32.56 31.7262 3.76151
29.5763 24.8939 4.01286
30.0503 22.3606 2
30.3937 19.7672 0.0157128
35.2677 25.9275 0.0237404
32.6974 22.9005 -0.00783733
32.3835 26.1911 2
30.7009 27.8749 3.99003
32.2604 37.4926 3.53565
33.0867 37.5133 2
34.7924 37.5211 0.550477
33.7184 48.5391 0.0320546
33.1184 45.6262 0.159972
33.2485 39.0561 0.712751
32.5583 43.279 0.234598
32.9988 40.9727 0.45017
32.0508 47.3419 2
32.3433 39.4383 2
31.5972 41.7061 2
31.6093 44.3894 2
30.4947 45.9372 3.97438
30.9501 39.6661 3.80883
30.3666 42.6812 3.86436
30.7204 49.2786 -0.00368306
29.0348 47.7153 2
27.3684 46.1428 3.98611
27.4753 49.4996 0.0204514
25.8932 47.9384 2
24.27 46.5404 3.97589
24.397 49.7102 0.0300848
22.943 48.2654 2
21.2032 47.1843 3.97503
21.6146 49.8374 0.0330089
20.0983 48.6754 2
18.6945 47.8174 3.97548
17.0287 48.3716 3.97516
17.7861 48.996 2
16.6189 49.8677 3.9746
16.0254 52.13 3.97318
17.5688 51.0623 2
18.9106 49.9396 0.0263219
15.3669 54.7382 3.96941
17.077 53.5557 2
18.6989 52.4136 0.0324919
14.7016 57.5888 3.96182
16.4433 56.2295 2
18.0605 55.031 0.0372704
14.29 60.637 3.95501
15.8904 59.0703 2
17.4702 57.6528 0.0409821
14.3406 63.8521 3.96411
15.8059 62.0594 2
17.2369 60.4244 0.0518924
14.6715 67.2507 4
16.0921 65.2885 2
17.4167 63.4057 0.0293878
16.6661 68.6801 2
17.9513 66.6073 0.0305417
18.75 69.9759 0
19.0884 15.993 3.95726
20.3141 14.7621 2
19.0222 13.267 3.96588
21.642 13.7719 0.0321008
20.5497 12.1335 2
19.3596 10.298 3.96968
19.9974 7.14822 3.98035
21.1448 9.18992 2
22.2101 11.1161 0.0365587
20.9142 3.86727 4
22.0124 6.08726 2
23.0455 8.20527 0.0295099
23.1494 2.85451 2
24.1208 5.14603 0.0144303
25.446 1.99014 0
32.4498 35.5588 3.54096
33.1977 35.9728 2
34.8705 36.0453 0.60188
21.4579 16.0395 0.0419535
22.3084 16.8575 2
20.5669 17.2199 2
19.6307 18.7124 3.96701
22.0238 18.2013 3.97989
25.4997 16.3373 0.0114449
23.4429 16.4514 0.0336022
24.4658 18.8155 2
22.7771 20.2668 3.96894
25.1357 21.8092 3.98645
27.2366 24.134 3.97356
27.5384 21.8772 2
27.6532 19.1625 0.0112074
31.6551 33.3582 3.80175
32.9255 33.9712 2
33.5172 34.5917 0.660645
33.551 32.8954 0.427907
33.828 30.5242 0.230245
35.3493 28.2196 0.142055
33.2557 28.814 2
32.4734 31.6589 2
31.3881 30.2087 3.8857
29.0004 27.0659 4.01478
29.5745 24.8738 2
30.0459 22.3989 -0.0120495
32.4041 26.2342 -0.0224867
30.6996 27.8835 2
30.7462 37.482 3.81313
32.1463 37.4937 2
33.1169 37.5118 0.667984
32.0924 47.3098 0.019364
31.6882 44.3236 0.161318
32.4359 39.4352 0.443229
31.6658 41.6508 0.196497
30.5097 45.9544 2
30.8512 39.6827 2
30.3372 42.7137 2
28.8886 44.3459 3.95565
28.7102 40.3236 3.90955
29.0286 47.7068 0.0249384
27.3716 46.1429 2
25.6336 44.692 3.97844
25.8876 47.9402 0.0228742
24.2712 46.5404 2
22.3156 45.51 3.97615
22.9426 48.2678 0.0268514
21.2041 47.1841 2
19.4918 46.3868 3.97495
20.099 48.6759 0.0251408
18.6951 47.818 2
17.2977 47.4069 3.97475
17.0304 48.3724 2
15.9939 48.7335 3.97471
17.7861 48.9954 0.024346
16.6206 49.8671 2
15.1279 50.73 3.97396
14.3113 53.2192 3.97311
16.026 52.1293 2
17.5672 51.0638 0.0272717
13.5596 56.016 3.96293
15.3673 54.7381 2
17.0757 53.5566 0.0315351
12.9231 59.0645 3.95141
14.7026 57.5888 2
16.4415 56.2295 0.0364159
12.6867 62.2936 3.96452
14.2951 60.6416 2
15.8951 59.0681 0.0441028
12.7746 65.6939 4
14.3369 63.8431 2
15.7999 62.0535 0.0316509
14.6714 67.2507 2
16.098 65.2985 0.0260293
16.6661 68.6801 0
17.9753 17.4015 3.95996
19.1101 15.9861 2
17.5759 14.517 3.95482
20.3057 14.7732 0.0411991
19.0143 13.2367 2
17.6675 11.5577 3.969
20.5632 12.1366 0.0300922
19.3495 10.3188 2
18.0577 8.34404 3.97498
18.75 5.0241 4
19.9878 7.1593 2
21.1518 9.18818 0.0285979
20.9142 3.86727 2
22.022 6.08583 0.0146669
23.1494 2.85457 0
30.9494 35.3403 3.80292
32.3469 35.5488 2
33.228 35.9775 0.657183
22.2947 16.8517 0.0326441
20.5516 17.2232 0.0381196
22.0484 18.191 2
19.6347 18.7076 2
18.5744 20.2862 3.96897
21.3479 19.7399 3.97515
24.4511 18.8028 0.0203343
22.7875 20.2654 2
25.1549 21.7701 2
23.071 22.153 3.97404
25.5594 23.4614 3.96983
26.6448 26.4356 3.9858
27.2366 24.1445 2
27.5168 21.9661 0.00978796
30.0976 32.7768 3.86116
31.5833 33.3044 2
32.9836 34.0236 0.449715
32.56 31.7262 0.23849
33.3015 28.8683 0.131788
31.3651 30.1639 2
28.4967 29.6768 4.00312
28.9907 27.0887 2
29.5763 24.8939 -0.0128635
30.7009 27.8749 0.00996675
29.0354 37.4452 3.83076
30.624 37.4985 2
32.2604 37.4926 0.464345
30.4947 45.9372 0.0256234
30.3666 42.6812 0.135641
30.9501 39.6661 0.191166
28.8961 44.402 2
28.6633 40.3564 2
27.0817 42.8746 3.98286
26.0671 39.3423 3.97739
27.3684 46.1428 0.0138936
25.6261 44.7001 2
23.5961 43.5726 3.97447
24.27 46.5404 0.0241134
22.3148 45.5097 2
20.3434 44.6422 3.97451
21.2032 47.1843 0.024973
19.492 46.3871 2
17.6894 45.9212 3.97489
18.6945 47.8174 0.0245175
17.2982 47.4073 2
15.7737 47.4148 3.97465
17.0287 48.3716 0.0248357
15.9957 48.7337 2
14.4543 49.3126 3.97427
16.6189 49.8677 0.0254015
15.1288 50.7293 2
13.3803 51.6779 3.97388
12.4473 54.3914 3.96683
14.3122 53.2188 2
16.0254 52.13 0.0268151
11.6521 57.3981 3.95696
13.5551 56.017 2
15.3669 54.7382 0.0305905
11.1416 60.6197 3.96294
12.9196 59.0661 2
14.7016 57.5888 0.0381752
10.9835 64.0165 4
12.6842 62.2845 2
14.29 60.637 0.0449865
12.7745 65.694 2
14.3406 63.8521 0.0358901
14.6715 67.2507 0
16.8406 18.9194 3.96301
17.9845 17.3971 2
16.271 15.9463 3.95699
19.0884 15.993 0.0427448
17.5812 14.5148 2
16.0345 12.8818 3.95904
19.0222 13.267 0.03412
17.6484 11.5484 2
16.2107 9.67059 3.96685
19.3596 10.298 0.0303195
18.0493 8.35397 2
16.6661 6.31991 4
18.75 5.02404 2
19.9974 7.14822 0.0196492
20.9142 3.86727 0
29.3512 34.9839 3.87694
30.8235 35.3142 2
32.4498 35.5588 0.459043
17.312 21.7088 3.97159
22.0238 18.2013 0.02011
19.6307 18.7124 0.0329945
21.3564 19.736 2
18.5663 20.2787 2
20.4903 21.9939 3.97373
22.7771 20.2668 0.0310564
25.1357 21.8092 0.0135463
23.0743 22.1509 2
25.5474 23.5073 2
23.9586 25.0912 3.97201
26.0732 29.0602 3.98367
26.6411 26.4604 2
27.2366 24.134 0.026441
27.9874 32.1221 3.97319
30.0466 32.7531 2
31.6551 33.3582 0.198246
31.3881 30.2087 0.114298
28.5005 29.635 2
29.0004 27.0659 -0.0147755
26.8171 36.8973 3.95358
28.9745 37.3981 2
30.7462 37.482 0.18687
28.8886 44.3459 0.0443495
28.7102 40.3236 0.0904534
27.0573 42.912 2
26.013 39.3279 2
24.8709 41.5622 3.97515
23.7639 38.5045 3.97515
25.6336 44.692 0.0215586
23.5944 43.5797 2
21.2729 42.6224 3.97448
22.3156 45.51 0.0238516
20.3454 44.6429 2
18.1244 44.1259 3.97507
19.4918 46.3868 0.0250474
17.6901 45.9216 2
15.7466 45.8593 3.97499
17.2977 47.4069 0.0252517
15.7739 47.415 2
13.9893 47.8026 3.97455
15.9939 48.7335 0.0252885
14.4551 49.3124 2
12.6219 50.0742 3.97409
15.1279 50.73 0.0260448
13.3809 51.6774 2
11.4409 52.7167 3.97006
10.4563 55.6562 3.95958
12.4439 54.3919 2
14.3113 53.2192 0.0268947
9.70884 58.8451 3.96512
11.6554 57.3981 2
13.5596 56.016 0.0370706
9.30605 62.2254 4
11.1403 60.6125 2
12.9231 59.0645 0.0485888
10.9835 64.0165 2
12.6867 62.2936 0.0354849
12.7746 65.6939 0
15.6152 20.441 3.96876
16.8478 18.9159 2
15.0089 17.4794 3.95983
17.9753 17.4015 0.0400417
16.2474 15.9352 2
14.4984 14.3682 3.95526
17.5759 14.517 0.0451768
16.0424 12.8858 2
14.4529 11.121 3.96775
17.6675 11.5577 0.0310001
16.2029 9.68439 2
14.6715 7.74927 4
18.0577 8.34404 0.025017
16.6661 6.31988 2
18.75 5.0241 0
27.3032 34.508 3.97494
29.3026 34.9961 2
30.9494 35.3403 0.197085
18.6287 22.714 3.97434
16.1996 23.2348 3.97239
17.312 21.7041 2
21.3479 19.7399 0.024853
18.5744 20.2862 0.031031
20.4975 21.9927 2
20.6876 24.8591 3.97213
23.071 22.153 0.0259599
25.5594 23.4614 0.030167
23.9604 25.088 2
23.4534 28.363 3.9705
25.5698 31.5857 3.98257
26.0862 28.9614 2
26.6448 26.4356 0.0141997
27.9515 32.0968 2
30.0976 32.7768 0.138843
28.4967 29.6768 -0.00312488
24.4924 36.3599 3.97841
26.7562 36.9059 2
29.0354 37.4452 0.169241
27.0817 42.8746 0.0171379
26.0671 39.3423 0.0226052
24.8371 41.5729 2
23.755 38.5097 2
22.4785 40.4672 3.97532
21.7617 37.7883 3.97817
23.5961 43.5726 0.0255307
21.2738 42.6204 2
18.6319 41.9195 3.97566
20.3434 44.6422 0.0254924
18.1248 44.1257 2
15.8002 44.0085 3.97517
17.6894 45.9212 0.0251133
15.7463 45.8594 2
13.685 46.1183 3.97479
15.7737 47.4148 0.0253538
13.989 47.8025 2
12.0114 48.3945 3.97496
14.4543 49.3126 0.0257278
12.6228 50.0737 2
10.5731 50.9727 3.97319
13.3803 51.6779 0.0261239
11.4411 52.7161 2
9.35473 53.8441 3.96199
8.39172 56.9811 3.96738
10.4594 55.655 2
12.4473 54.3914 0.0331679
7.74927 60.3285 4
9.70762 58.839 2
11.6521 57.3981 0.0430445
9.306 62.2255 2
11.1416 60.6197 0.0370576
10.9835 64.0165 0
14.4491 21.989 3.97256
15.6176 20.4365 2
13.7314 19.0623 3.96388
16.8406 18.9194 0.0369912
14.9986 17.4709 2
13.052 15.9416 3.95471
16.271 15.9463 0.0430069
14.5146 14.3557 2
12.7888 12.6948 3.9662
16.0345 12.8818 0.0409576
14.4473 11.1357 2
12.7746 9.30605 4
16.2107 9.67059 0.0331457
14.6715 7.74924 2
16.6661 6.31991 0
24.9758 34.0149 3.98002
27.2765 34.4517 2
29.3512 34.9839 0.123057
18.5239 24.4492 3.97203
18.6363 22.7127 2
15.0135 24.7096 3.97364
16.1982 23.2316 2
17.312 21.7088 0.0284088
20.2445 27.6225 3.97276
20.4903 21.9939 0.0262718
20.6909 24.8591 2
22.8275 31.0443 3.97373
23.9586 25.0912 0.0279878
23.4466 28.37 2
25.5119 31.6646 2
26.0732 29.0602 0.0163305
27.9874 32.1221 0.0268066
21.8427 36.0196 3.97761
24.4776 36.3757 2
26.8171 36.8973 0.046417
24.8709 41.5622 0.0248503
23.7639 38.5045 0.0248501
22.4851 40.4694 2
21.7587 37.7877 2
19.4413 38.9516 3.97705
21.2729 42.6224 0.0255246
18.6325 41.9194 2
15.7939 41.7967 3.97584
18.1244 44.1259 0.0249346
15.7999 44.0083 2
13.4453 44.2513 3.97512
15.7466 45.8593 0.0250117
13.6842 46.1184 2
11.5206 46.6037 3.97501
13.9893 47.8026 0.0254467
12.0122 48.394 2
9.84893 49.1434 3.97494
12.6219 50.0742 0.0259113
10.5739 50.9717 2
8.38286 51.9641 3.96345
11.4409 52.7167 0.0299423
9.35335 53.8432 2
7.20027 55.0331 3.96848
6.31991 58.3339 4
8.39046 56.9756 2
10.4563 55.6562 0.0404178
7.74924 60.3285 2
9.70884 58.8451 0.034879
9.30605 62.2254 0
13.84 25.5862 3.97575
13.3417 23.4915 3.97338
14.4503 21.9851 2
12.5467 20.6973 3.96756
15.6152 20.441 0.0312439
13.7192 19.0545 2
11.7594 17.6249 3.95435
15.0089 17.4794 0.0401703
13.0793 15.9405 2
11.2277 14.3824 3.96294
14.4984 14.3682 0.0447383
12.7878 12.7078 2
10.9835 10.9835 4
14.4529 11.121 0.0322466
12.7745 9.306 2
14.6715 7.74927 0
22.2053 33.6339 3.97705
24.9731 33.9589 2
27.3032 34.508 0.0250605
16.8187 26.7049 3.97376
18.525 24.4488 2
18.6287 22.714 0.0256607
15.0101 24.7097 2
16.1996 23.2348 0.0276089
19.6362 30.4841 3.97483
20.2464 27.6202 2
20.6876 24.8591 0.027875
22.8418 31.0317 2
23.4534 28.363 0.0295002
25.5698 31.5857 0.0174318
19.0074 36.0436 3.97727
21.8425 36.0153 2
24.4924 36.3599 0.0215854
22.4785 40.4672 0.0246783
21.7617 37.7883 0.021831
19.4399 38.9521 2
15.2725 39.1378 3.97682
18.6319 41.9195 0.0243428
15.7938 41.7965 2
13.1339 42.1844 3.97579
15.8002 44.0085 0.024831
13.4446 44.2513 2
11.0991 44.7019 3.97533
13.685 46.1183 0.0252096
11.5209 46.6034 2
9.23802 47.2349 3.97597
12.0114 48.3945 0.025039
9.85105 49.1422 2
7.54336 50.0035 3.96463
10.5731 50.9727 0.0268074
8.38117 51.9631 2
6.14019 53.0083 3.96924
9.35473 53.8441 0.0380069
7.19976 55.0283 2
5.0241 56.25 4
6.31988 58.3339 2
8.39172 56.9811 0.0326217
7.74927 60.3285 0
14.1499 27.0278 3.97453
12.4347 24.9659 3.97491
13.8384 25.5859 2
11.461 22.3658 3.97193
13.3387 23.4893 2
14.4491 21.989 0.0274426
12.5401 20.6922 2
10.5372 19.382 3.95803
13.7314 19.0623 0.0361187
11.7719 17.6238 2
9.76832 16.1635 3.96466
13.052 15.9416 0.045292
11.2274 14.3902 2
9.30607 12.7746 4
12.7888 12.6948 0.0338018
10.9835 10.9835 2
12.7746 9.30605 0
19.1507 33.2878 3.97571
22.1978 33.6419 2
24.9758 34.0149 0.0199829
16.448 29.8804 3.975
16.8185 26.7072 2
18.5239 24.4492 0.0279728
15.0135 24.7096 0.0263611
19.632 30.4857 2
20.2445 27.6225 0.0272395
22.8275 31.0443 0.026271
15.9305 36.0713 3.97706
19.0051 36.0442 2
21.8427 36.0196 0.0223931
13.3777 37.8311 3.97707
19.4413 38.9516 0.0229547
15.2726 39.1378 2
12.6174 40.095 3.97638
15.7939 41.7967 0.024162
13.1331 42.1841 2
10.6898 42.7088 3.97562
13.4453 44.2513 0.0248765
11.0992 44.7019 2
8.71112 45.2537 3.97609
11.5206 46.6037 0.0249912
9.2409 47.2337 2
6.82006 47.9759 3.96624
9.84893 49.1434 0.0250591
7.54195 50.0026 2
5.21613 50.9113 3.97003
8.38286 51.9641 0.0365522
6.14021 53.0047 2
3.86727 54.0858 4
7.20027 55.0331 0.0315185
5.02404 56.25 2
6.31991 58.3339 0
13.6235 29.2036 3.97411
11.8816 26.6359 3.97479
14.1497 27.0282 2
10.5059 24.0794 3.97449
12.4355 24.9658 2
13.84 25.5862 0.024248
9.37862 21.1903 3.96199
11.4605 22.3629 2
13.3417 23.4915 0.0266203
12.5467 20.6973 0.0324371
10.546 19.3821 2
8.42385 18.0317 3.96728
11.7594 17.6249 0.0456468
9.76886 16.1687 2
7.74928 14.6715 4
11.2277 14.3824 0.0370637
9.30602 12.7745 2
10.9835 10.9835 0
15.4217 32.9889 3.97624
19.151 33.2867 2
22.2053 33.6339 0.0229515
16.4489 29.8799 2
16.8187 26.7049 0.0262368
19.6362 30.4841 0.0251744
13.6915 36.2424 3.97672
15.9304 36.0713 2
19.0074 36.0436 0.0227348
13.3771 37.8311 2
11.9177 38.3031 3.97642
15.2725 39.1378 0.0231814
12.6167 40.0951 2
10.255 40.7157 3.97604
13.1339 42.1844 0.0242084
10.69 42.7083 2
8.25147 43.2224 3.9761
11.0991 44.7019 0.0246706
8.71449 45.2532 2
6.20843 45.8884 3.96775
9.23802 47.2349 0.0240349
6.81926 47.9751 2
4.42685 48.7516 3.97072
7.54336 50.0035 0.0353704
5.21646 50.9088 2
2.85457 51.8506 4
6.14019 53.0083 0.0307591
3.86727 54.0858 2
5.0241 56.25 0
12.7378 31.3709 3.97547
11.2862 28.5407 3.97488
13.6233 29.2032 2
9.72289 25.895 3.97573
11.8818 26.6361 2
14.1499 27.0278 0.025469
8.34386 23.0638 3.96383
10.5065 24.0778 2
12.4347 24.9659 0.0250865
7.20573 19.9796 3.96846
9.38253 21.1908 2
11.461 22.3658 0.0280688
10.5372 19.382 0.0419748
8.42373 18.0357 2
6.31992 16.6661 4
9.76832 16.1635 0.0353356
7.74926 14.6714 2
9.30607 12.7746 0
12.7895 34.364 3.97659
15.4217 32.9893 2
19.1507 33.2878 0.0242861
16.448 29.8804 0.0250044
11.4314 36.6341 3.97638
13.6911 36.2425 2
15.9305 36.0713 0.0229408
13.3777 37.8311 0.0229314
11.9168 38.303 2
9.82142 38.8135 3.97629
12.6174 40.095 0.0236226
10.2549 40.7155 2
7.84912 41.1842 3.97617
10.6898 42.7088 0.0243774
8.2538 43.2212 2
5.70062 43.7581 3.96866
8.71112 45.2537 0.0239135
6.20685 45.8876 2
3.77196 46.5369 3.97135
6.82006 47.9759 0.0337604
4.4275 48.7497 2
1.99014 49.554 4
5.21613 50.9113 0.0299694
2.85451 51.8506 2
3.86727 54.0858 0
11.5047 32.9994 3.97627
10.578 30.4741 3.97529
12.7367 31.3714 2
9.02542 27.8126 3.97583
11.286 28.5403 2
13.6235 29.2036 0.02589
7.45284 25.0141 3.96505
9.72368 25.8941 2
11.8816 26.6359 0.0252117
6.12182 22.0021 3.9696
8.34354 23.0641 2
10.5059 24.0794 0.025513
5.02411 18.75 4
7.20597 19.9827 2
9.37862 21.1903 0.038009
8.42385 18.0317 0.0327191
6.3199 16.6661 2
7.74928 14.6715 0
10.9984 35.0419 3.97605
12.7888 34.364 2
15.4217 32.9889 0.0237604
9.46581 36.997 3.97634
11.4305 36.6344 2
13.6915 36.2424 0.0232755
11.9177 38.3031 0.0235831
9.82168 38.8135 2
7.51106 39.173 3.9764
10.255 40.7157 0.0239635
7.8526 41.1837 2
5.30401 41.6093 3.96893
8.25147 43.2224 0.023895
5.70019 43.7575 2
3.24944 44.2818 3.97226
6.20843 45.8884 0.0322547
3.77287 46.5354 2
1.27781 47.2057 4
4.42685 48.7516 0.0292804
1.99012 49.554 2
2.85457 51.8506 0
10.6091 33.9348 3.97563
9.83315 32.2208 3.97587
11.5039 32.9996 2
8.3584 29.7597 3.97606
10.5781 30.4747 2
12.7378 31.3709 0.0245293
6.67997 27.0329 3.96582
9.02734 27.8127 2
11.2862 28.5407 0.0251236
5.17623 24.0953 3.97022
7.45134 25.0145 2
9.72289 25.895 0.0242654
3.86728 20.9142 4
6.12238 22.0043 2
8.34386 23.0638 0.036174
5.02406 18.75 2
7.20573 19.9796 0.031539
6.31992 16.6661 0
9.269 35.3101 3.97648
10.9976 35.0418 2
12.7895 34.364 0.0234052
7.27787 37.2123 3.97645
9.46667 36.9972 2
11.4314 36.6341 0.0236189
9.82142 38.8135 0.0237146
7.51439 39.1727 2
5.0264 39.4673 3.96874
7.84912 41.1842 0.023832
5.30308 41.6088 2
2.85965 42.0023 3.97285
5.70062 43.7581 0.0313393
3.25013 44.2806 2
0.720592 44.8159 4
3.77196 46.5369 0.0286461
1.27778 47.2057 2
1.99014 49.554 0
9.30158 33.7433 3.97651
10.6087 33.9348 2
7.78037 31.6557 3.97631
9.83458 32.2208 2
11.5047 32.9994 0.0237285
6.00955 29.0879 3.96615
8.3609 29.7603 2
10.578 30.4741 0.024713
4.36313 26.2488 3.97066
6.67821 27.0333 2
9.02542 27.8126 0.0241691
2.85458 23.1494 4
5.17705 24.0966 2
7.45284 25.0141 0.0349486
3.86728 20.9142 2
6.12182 22.0021 0.0303961
5.02411 18.75 0
7.21783 35.3264 3.97662
9.27051 35.3102 2
10.9984 35.0419 0.0239503
4.87056 37.3435 3.96832
7.28126 37.2122 2
9.46581 36.997 0.023662
7.51106 39.173 0.0235968
5.02516 39.4669 2
2.6074 39.7144 3.97342
5.30401 41.6093 0.0310714
2.86065 42.0015 2
0.320823 42.3947 4
3.24944 44.2818 0.0277393
0.720551 44.8159 2
1.27781 47.2057 0
7.37941 33.4935 3.97679
9.30338 33.7435 2
10.6091 33.9348 0.0243723
5.46557 31.1472 3.96659
7.78292 31.6561 2
9.83315 32.2208 0.0241285
3.6843 28.4456 3.97145
6.00667 29.0882 2
8.3584 29.7597 0.0239399
1.99015 25.446 4
4.364 26.2497 2
6.67997 27.0329 0.0341763
2.85453 23.1494 2
5.17623 24.0953 0.0297817
3.86728 20.9142 0
4.88514 35.2584 3.96752
7.22012 35.3266 2
9.269 35.3101 0.0235241
2.49883 37.4295 3.97411
4.86764 37.3434 2
7.27787 37.2123 0.023555
5.0264 39.4673 0.0312607
2.60854 39.7141 2
0.080333 39.9526 4
2.85965 42.0023 0.0271481
0.320817 42.3947 2
0.720592 44.8159 0
5.0864 33.2003 3.96688
7.38118 33.4939 2
9.30158 33.7433 0.0234882
3.14836 30.6685 3.9724
5.46166 31.1474 2
7.78037 31.6557 0.0236906
1.27793 27.7943 4
3.68538 28.4463 2
6.00955 29.0879 0.0338525
1.99013 25.446 2
4.36313 26.2488 0.0293428
2.85458 23.1494 0
2.55079 35.1607 3.97385
4.88246 35.2585 2
7.21783 35.3264 0.0233845
0 37.5 4
2.49969 37.4295 2
4.87056 37.3435 0.0316802
2.6074 39.7144 0.0265779
0.0802903 39.9526 2
0.320823 42.3947 0
2.76842 32.9079 3.97352
5.08372 33.2004 2
7.37941 33.4935 0.023209
0.721173 30.1842 4
3.14969 30.6693 2
5.46557 31.1472 0.0334051
1.27779 27.7943 2
3.6843 28.4456 0.0285533
1.99015 25.446 0
0.0806499 35.0474 4
2.55221 35.1608 2
4.88514 35.2584 0.0324796
0 37.5 2
2.49883 37.4295 0.0258919
0.080333 39.9526 0
0.32156 32.6054 4
2.76937 32.9085 2
5.0864 33.2003 0.0331246
0.72056 30.1841 2
3.14836 30.6685 0.0276005
1.27793 27.7943 0
0.0802889 35.0474 2
2.55079 35.1607 0.0261497
0 37.5 0
0.320817 32.6053 2
2.76842 32.9079 0.0264842
0.721173 30.1842 0
0.0806499 35.0474 0
0.32156 32.6054 0
CELLS 1910 17190
8 18 6 25 56 2 0 5 16
8 57 23 6 18 17 4 0 2
8 78 36 9 29 31 11 1 7
8 31 11 1 7 79 37 10 30
8 110 57 18 50 48 17 2 14
8 50 18 56 111 14 2 16 49
8 116 62 22 55 52 20 3 15
8 56 25 67 118 16 5 24 53
8 119 63 23 57 54 21 4 17
8 55 22 63 119 15 3 21 54
8 58 26 68 121 18 6 25 56
8 122 65 26 58 57 23 6 18
8 73 31 7 27 142 79 30 71
8 143 78 29 72 73 31 7 27
8 83 147 76 34 32 74 28 8
8 84 148 78 36 33 75 29 9
8 76 34 8 28 148 84 33 75
8 37 79 150 86 10 30 77 35
8 151 87 36 78 80 38 11 31
8 80 38 11 31 152 88 37 79
8 175 100 42 94 96 44 12 40
8 44 96 176 101 12 40 95 43
8 101 176 98 46 43 95 41 13
8 46 98 178 103 13 41 97 45
8 178 103 45 97 147 83 32 74
8 189 116 55 109 106 52 15 47
8 111 56 118 191 49 16 53 107
8 192 119 57 110 108 54 17 48
8 109 55 119 192 47 15 54 108
8 194 122 58 112 110 57 18 50
8 112 58 121 195 50 18 56 111
8 115 61 19 51 197 124 59 113
8 115 61 125 198 51 19 60 114
8 198 125 62 116 114 60 20 52
8 200 127 64 120 116 62 22 55
8 118 67 132 202 53 24 66 117
8 121 68 133 203 56 25 67 118
8 120 64 128 204 55 22 63 119
8 204 128 65 122 119 63 23 57
8 206 134 68 121 123 69 26 58
8 123 69 26 58 207 131 65 122
8 226 147 74 138 140 76 28 70
8 229 148 75 139 143 78 29 72
8 140 76 28 70 229 148 75 139
8 142 79 30 71 231 150 77 141
8 144 80 31 73 232 152 79 142
8 233 151 78 143 144 80 31 73
8 150 86 35 77 235 154 81 145
8 235 154 81 145 146 82 39 91
8 146 82 39 91 236 155 90 165
8 238 157 83 147 149 85 34 76
8 239 158 84 148 151 87 36 78
8 149 85 34 76 239 158 84 148
8 152 88 37 79 241 160 86 150
8 242 161 87 151 153 89 38 80
8 153 89 38 80 243 162 88 152
8 171 98 41 92 265 178 97 169
8 265 178 97 169 226 147 74 138
8 172 96 40 93 266 176 95 170
8 266 176 95 170 171 98 41 92
8 269 175 94 173 172 96 40 93
8 271 180 99 174 175 100 42 94
8 197 124 59 113 271 180 99 174
8 272 181 100 175 177 102 44 96
8 273 182 101 176 179 104 46 98
8 177 102 44 96 273 182 101 176
8 179 104 46 98 275 184 103 178
8 275 184 103 178 238 157 83 147
8 188 115 51 105 283 197 113 186
8 188 115 198 284 105 51 114 187
8 284 198 116 189 187 114 52 106
8 286 200 120 193 189 116 55 109
8 191 118 202 288 107 53 117 190
8 195 121 203 289 111 56 118 191
8 193 120 204 290 109 55 119 192
8 290 204 122 194 192 119 57 110
8 196 123 58 112 292 207 122 194
8 293 206 121 195 196 123 58 112
8 199 126 61 115 297 211 124 197
8 298 212 127 200 198 125 62 116
8 199 126 212 298 115 61 125 198
8 205 129 64 120 300 214 127 200
8 301 217 130 201 202 132 66 117
8 209 136 168 264 301 217 130 201
8 302 219 132 202 203 133 67 118
8 303 220 133 203 206 134 68 121
8 205 129 215 304 120 64 128 204
8 304 215 131 207 204 128 65 122
8 306 221 134 206 208 135 69 123
8 208 135 69 123 307 218 131 207
8 210 137 167 263 309 223 136 209
8 328 238 147 226 230 149 76 140
8 228 146 91 166 329 236 165 260
8 231 150 77 141 330 235 145 227
8 330 235 145 227 228 146 91 166
8 332 239 148 229 233 151 78 143
8 230 149 76 140 332 239 148 229
8 232 152 79 142 334 241 150 231
8 234 153 80 144 335 243 152 232
8 336 242 151 233 234 153 80 144
8 236 155 90 165 338 245 164 259
8 241 160 86 150 339 246 154 235
8 339 246 154 235 237 156 82 146
8 237 156 82 146 340 247 155 236
8 342 249 157 238 240 159 85 149
8 343 250 158 239 242 161 87 151
8 240 159 85 149 343 250 158 239
8 243 162 88 152 345 252 160 241
8 244 163 253 346 153 89 161 242
8 244 163 89 153 347 254 162 243
8 311 224 261 371 210 137 167 263
8 263 167 262 372 209 136 168 264
8 267 179 98 171 375 275 178 265
8 375 275 178 265 328 238 147 226
8 376 273 176 266 267 179 98 171
8 268 177 96 172 376 273 176 266
8 379 272 175 269 268 177 96 172
8 380 271 174 270 269 175 94 173
8 283 197 113 186 380 271 174 270
8 381 277 180 271 272 181 100 175
8 297 211 124 197 381 277 180 271
8 382 278 181 272 274 183 102 177
8 274 183 102 177 383 279 182 273
8 383 279 182 273 276 185 104 179
8 385 281 184 275 342 249 157 238
8 276 185 104 179 385 281 184 275
8 285 199 115 188 393 297 197 283
8 394 298 200 286 284 198 116 189
8 285 199 298 394 188 115 198 284
8 291 205 120 193 396 300 200 286
8 397 301 201 287 288 202 117 190
8 295 209 264 374 397 301 201 287
8 398 302 202 288 289 203 118 191
8 399 303 203 289 293 206 121 195
8 291 205 304 400 193 120 204 290
8 400 304 207 292 290 204 122 194
8 294 208 123 196 402 307 207 292
8 403 306 206 293 294 208 123 196
8 296 210 263 373 405 309 209 295
8 408 312 213 299 297 211 126 199
8 299 213 313 409 199 126 212 298
8 409 313 214 300 298 212 127 200
8 305 216 129 205 411 315 214 300
8 412 318 217 301 302 219 132 202
8 309 223 136 209 412 318 217 301
8 413 320 219 302 303 220 133 203
8 306 221 321 414 206 134 220 303
8 307 218 131 207 415 316 215 304
8 305 216 316 415 205 129 215 304
8 417 322 221 306 308 222 135 208
8 308 222 135 208 418 319 218 307
8 310 225 137 210 420 325 223 309
8 423 326 224 311 310 225 137 210
8 329 236 165 260 441 338 259 368
8 442 342 238 328 333 240 149 230
8 331 237 146 228 443 340 236 329
8 334 241 150 231 444 339 235 330
8 444 339 235 330 331 237 146 228
8 446 343 239 332 336 242 151 233
8 333 240 149 230 446 343 239 332
8 335 243 152 232 448 345 241 334
8 337 244 153 234 449 347 243 335
8 337 244 346 450 234 153 242 336
8 338 245 164 259 452 349 258 367
8 340 247 155 236 453 350 245 338
8 345 252 160 241 454 351 246 339
8 454 351 246 339 341 248 156 237
8 341 248 156 237 455 352 247 340
8 240 159 251 344 342 249 354 457
8 242 161 253 346 343 250 355 458
8 343 250 355 458 240 159 251 344
8 347 254 162 243 460 357 252 345
8 348 255 358 461 244 163 253 346
8 348 255 163 244 462 359 254 347
8 473 360 257 365 363 256 364 482
8 452 349 258 367 365 257 366 485
8 422 324 369 488 311 224 261 371
8 371 261 370 490 263 167 262 372
8 407 311 371 491 296 210 263 373
8 373 263 372 492 295 209 264 374
8 493 385 275 375 442 342 238 328
8 377 276 179 267 493 385 275 375
8 378 274 177 268 494 383 273 376
8 494 383 273 376 377 276 179 267
8 497 382 272 379 378 274 177 268
8 498 381 271 380 379 272 175 269
8 393 297 197 283 498 381 271 380
8 499 387 277 381 382 278 181 272
8 408 312 211 297 499 387 277 381
8 500 388 278 382 384 280 183 274
8 501 389 279 383 386 282 185 276
8 384 280 183 274 501 389 279 383
8 386 282 185 276 503 391 281 385
8 503 391 281 385 457 354 249 342
8 511 408 299 395 393 297 199 285
8 395 299 409 512 285 199 298 394
8 512 409 300 396 394 298 200 286
8 401 305 205 291 514 411 300 396
8 515 412 301 397 398 302 202 288
8 405 309 209 295 515 412 301 397
8 516 413 302 398 399 303 203 289
8 403 306 414 517 293 206 303 399
8 402 307 207 292 518 415 304 400
8 401 305 415 518 291 205 304 400
8 404 308 208 294 520 418 307 402
8 521 417 306 403 404 308 208 294
8 406 310 210 296 523 420 309 405
8 526 423 311 407 406 310 210 296
8 410 314 213 299 527 424 312 408
8 528 425 315 411 409 313 214 300
8 410 314 425 528 299 213 313 409
8 416 317 216 305 530 427 315 411
8 531 430 318 412 413 320 219 302
8 420 325 223 309 531 430 318 412
8 532 432 320 413 414 321 220 303
8 417 322 433 533 306 221 321 414
8 418 319 218 307 534 428 316 415
8 416 317 428 534 305 216 316 415
8 419 323 434 536 308 222 322 417
8 419 323 222 308 537 431 319 418
8 421 327 225 310 539 438 325 420
8 421 327 439 541 310 225 326 423
8 543 437 324 422 423 326 224 311
8 441 338 259 368 559 452 367 486
8 443 340 236 329 560 453 338 441
8 333 240 344 447 442 342 457 561
8 445 341 237 331 562 455 340 443
8 448 345 241 334 563 454 339 444
8 563 454 339 444 445 341 237 331
8 336 242 346 450 446 343 458 565
8 446 343 458 565 333 240 344 447
8 449 347 243 335 567 460 345 448
8 451 348 244 337 568 462 347 449
8 451 348 461 569 337 244 346 450
8 570 463 349 452 473 360 257 365
8 453 350 245 338 570 463 349 452
8 455 352 247 340 571 464 350 453
8 460 357 252 345 572 465 351 454
8 572 465 351 454 456 353 248 341
8 456 353 248 341 573 466 352 455
8 344 251 356 459 457 354 468 575
8 458 355 469 576 344 251 356 459
8 346 253 358 461 458 355 469 576
8 462 359 254 347 578 471 357 460
8 348 255 359 462 461 358 472 579
8 591 474 360 473 475 361 256 363
8 475 361 256 363 594 477 362 479
8 363 256 364 482 479 362 480 603
8 590 473 365 484 481 363 482 605
8 482 364 257 365 606 483 366 485
8 559 452 367 486 484 365 485 607
8 542 436 487 609 422 324 369 488
8 525 422 488 611 407 311 371 491
8 488 369 489 612 371 261 370 490
8 491 371 490 613 373 263 372 492
8 495 386 276 377 614 503 385 493
8 614 503 385 493 561 457 342 442
8 615 501 383 494 495 386 276 377
8 496 384 274 378 615 501 383 494
8 618 500 382 497 496 384 274 378
8 619 499 381 498 497 382 272 379
8 511 408 297 393 619 499 381 498
8 620 505 387 499 500 388 278 382
8 527 424 312 408 620 505 387 499
8 502 390 506 621 384 280 388 500
8 622 507 389 501 504 392 282 386
8 502 390 280 384 622 507 389 501
8 504 392 282 386 624 509 391 503
8 624 509 391 503 575 468 354 457
8 513 410 299 395 630 527 408 511
8 631 528 411 514 512 409 300 396
8 513 410 528 631 395 299 409 512
8 519 416 305 401 633 530 411 514
8 634 531 412 515 516 413 302 398
8 523 420 309 405 634 531 412 515
8 635 532 413 516 517 414 303 399
8 521 417 533 636 403 306 414 517
8 520 418 307 402 637 534 415 518
8 519 416 534 637 401 305 415 518
8 522 419 308 404 639 537 418 520
8 522 419 536 640 404 308 417 521
8 524 421 310 406 642 539 420 523
8 524 421 541 644 406 310 423 526
8 646 543 422 525 526 423 311 407
8 529 426 314 410 647 544 424 527
8 528 425 545 648 411 315 427 530
8 529 426 545 648 410 314 425 528
8 535 429 317 416 649 546 427 530
8 650 548 430 531 532 432 320 413
8 539 438 325 420 650 548 430 531
8 533 433 550 651 414 321 432 532
8 536 434 551 652 417 322 433 533
8 537 431 319 418 653 547 428 534
8 535 429 547 653 416 317 428 534
8 538 435 552 654 419 323 434 536
8 538 435 323 419 655 549 431 537
8 540 440 327 421 657 556 438 539
8 540 440 557 659 421 327 439 541
8 541 439 555 660 423 326 437 543
8 661 554 436 542 543 437 324 422
8 676 570 452 559 590 473 365 484
8 560 453 338 441 676 570 452 559
8 562 455 340 443 677 571 453 560
8 447 344 459 566 561 457 575 678
8 564 456 341 445 679 573 455 562
8 567 460 345 448 680 572 454 563
8 680 572 454 563 564 456 341 445
8 565 458 576 682 447 344 459 566
8 450 346 461 569 565 458 576 682
8 568 462 347 449 684 578 460 567
8 451 348 462 568 569 461 579 685
8 686 580 463 570 591 474 360 473
8 571 464 350 453 686 580 463 570
8 573 466 352 455 687 581 464 571
8 572 465 582 688 460 357 471 578
8 574 467 582 688 456 353 465 572
8 574 467 353 456 689 583 466 573
8 459 356 470 577 575 468 585 691
8 576 469 586 692 459 356 470 577
8 461 358 472 579 576 469 586 692
8 462 359 471 578 579 472 588 694
8 704 591 473 590 593 475 363 481
8 595 476 592 705 475 361 474 591
8 593 475 363 481 707 594 479 602
8 594 477 362 479 709 598 478 600
8 595 476 361 475 711 597 477 594
8 479 362 480 603 600 478 601 720
8 481 363 482 605 602 479 603 722
8 603 480 364 482 723 604 483 606
8 605 482 365 484 724 606 485 607
8 656 553 608 726 542 436 487 609
8 645 542 609 728 525 422 488 611
8 609 487 610 729 488 369 489 612
8 611 488 612 730 491 371 490 613
8 616 504 386 495 731 624 503 614
8 731 624 503 614 678 575 457 561
8 732 622 501 615 616 504 386 495
8 617 502 384 496 732 622 501 615
8 617 502 621 735 496 384 500 618
8 736 620 499 619 618 500 382 497
8 630 527 408 511 736 620 499 619
8 621 506 626 737 500 388 505 620
8 647 544 424 527 737 626 505 620
8 623 508 627 738 502 390 506 621
8 623 508 390 502 739 628 507 622
8 625 510 628 739 504 392 507 622
8 740 629 509 624 691 585 468 575
8 625 510 392 504 740 629 509 624
8 632 529 410 513 744 647 527 630
8 631 528 648 745 514 411 530 633
8 632 529 648 745 513 410 528 631
8 638 535 416 519 746 649 530 633
8 747 650 531 634 635 532 413 516
8 642 539 420 523 747 650 531 634
8 636 533 651 748 517 414 532 635
8 640 536 652 749 521 417 533 636
8 639 537 418 520 750 653 534 637
8 638 535 653 750 519 416 534 637
8 641 538 419 522 751 655 537 639
8 641 538 654 752 522 419 536 640
8 643 540 421 524 753 657 539 642
8 643 540 659 755 524 421 541 644
8 644 541 660 757 526 423 543 646
8 758 661 542 645 646 543 422 525
8 529 426 544 647 648 545 662 759
8 530 427 545 648 649 546 663 760
8 535 429 546 649 653 547 664 761
8 762 666 548 650 651 550 432 532
8 657 556 438 539 762 666 548 650
8 652 551 668 763 533 433 550 651
8 654 552 669 764 536 434 551 652
8 655 549 431 537 765 665 547 653
8 538 435 549 655 654 552 667 766
8 661 554 671 768 542 436 553 656
8 658 558 440 540 769 674 556 657
8 658 558 675 770 540 440 557 659
8 659 557 673 771 541 439 555 660
8 660 555 672 772 543 437 554 661
8 788 686 570 676 704 591 473 590
8 677 571 453 560 788 686 570 676
8 679 573 455 562 789 687 571 677
8 566 459 577 683 678 575 691 790
8 681 574 456 564 791 689 573 679
8 680 572 688 792 567 460 578 684
8 681 574 688 792 564 456 572 680
8 682 576 692 794 566 459 577 683
8 569 461 579 685 682 576 692 794
8 568 462 578 684 685 579 694 796
8 687 581 464 571 798 696 580 686
8 798 696 580 686 705 592 474 591
8 689 583 466 573 799 697 581 687
8 688 582 698 800 578 471 588 694
8 690 584 698 800 574 467 582 688
8 690 584 467 574 801 699 583 689
8 693 587 701 803 577 470 585 691
8 693 587 470 577 804 702 586 692
8 695 589 702 804 579 472 586 692
8 695 589 472 579 805 703 588 694
8 708 595 705 813 593 475 591 704
8 710 596 706 814 595 476 592 705
8 707 594 479 602 816 709 600 719
8 708 595 475 593 817 711 594 707
8 709 598 478 600 819 715 599 717
8 711 597 477 594 820 714 598 709
8 710 596 476 595 822 713 597 711
8 600 478 601 720 717 599 718 832
8 602 479 603 722 719 600 720 834
8 720 601 480 603 835 721 604 723
8 722 603 482 605 836 723 606 724
8 767 670 725 839 656 553 608 726
8 756 656 726 841 645 542 609 728
8 726 608 727 842 609 487 610 729
8 728 609 729 843 611 488 612 730
8 844 740 624 731 790 691 575 678
8 733 625 504 616 844 740 624 731
8 734 623 502 617 845 739 622 732
8 733 625 739 845 616 504 622 732
8 734 623 738 846 617 502 621 735
8 735 621 737 847 618 500 620 736
8 744 647 527 630 847 737 620 736
8 621 506 627 738 737 626 741 848
8 647 544 626 737 759 662 741 848
8 623 508 628 739 738 627 742 849
8 740 629 585 691 850 743 700 802
8 625 510 629 740 739 628 743 850
8 632 529 647 744 745 648 759 854
8 633 530 648 745 746 649 760 855
8 638 535 649 746 750 653 761 856
8 857 762 650 747 748 651 532 635
8 753 657 539 642 857 762 650 747
8 749 652 763 858 636 533 651 748
8 752 654 764 859 640 536 652 749
8 751 655 537 639 860 765 653 750
8 641 538 655 751 752 654 766 861
8 754 658 540 643 862 769 657 753
8 754 658 770 863 643 540 659 755
8 755 659 771 864 644 541 660 757
8 758 661 768 866 645 542 656 756
8 757 660 772 867 646 543 661 758
8 759 662 773 868 648 545 663 760
8 649 546 663 760 761 664 774 871
8 765 665 547 653 872 775 664 761
8 873 777 666 762 763 668 550 651
8 769 674 556 657 873 777 666 762
8 764 669 779 874 652 551 668 763
8 654 552 667 766 764 669 778 875
8 655 549 665 765 766 667 776 876
8 768 671 782 877 656 553 670 767
8 772 672 783 878 661 554 671 768
8 658 558 674 769 770 675 786 879
8 659 557 675 770 771 673 785 881
8 882 784 672 772 771 673 555 660
8 789 687 571 677 897 798 686 788
8 897 798 686 788 813 705 591 704
8 791 689 573 679 898 799 687 789
8 795 693 803 900 683 577 691 790
8 793 690 574 681 901 801 689 791
8 792 688 800 902 684 578 694 796
8 793 690 800 902 681 574 688 792
8 795 693 577 683 903 804 692 794
8 797 695 804 903 685 579 692 794
8 797 695 579 685 904 805 694 796
8 905 806 697 799 798 696 581 687
8 814 706 806 905 705 592 696 798
8 689 583 697 799 801 699 808 907
8 800 698 809 908 694 588 703 805
8 690 584 699 801 800 698 809 908
8 803 701 810 909 691 585 700 802
8 693 587 702 804 803 701 811 910
8 695 589 703 805 804 702 812 911
8 818 710 814 919 708 595 705 813
8 821 712 815 920 710 596 706 814
8 816 709 600 719 922 819 717 831
8 817 711 594 707 923 820 709 816
8 818 710 595 708 924 822 711 817
8 819 715 599 717 926 827 716 829
8 820 714 598 709 927 826 715 819
8 929 825 713 822 820 714 597 711
8 821 712 596 710 930 824 713 822
8 717 599 718 832 829 716 830 942
8 719 600 720 834 831 717 832 944
8 832 718 601 720 945 833 721 835
8 834 720 603 722 946 835 723 836
8 869 780 838 950 767 670 725 839
8 865 767 839 952 756 656 726 841
8 839 725 840 953 726 608 727 842
8 841 726 842 954 728 609 729 843
8 844 740 691 790 955 850 802 899
8 733 625 740 844 845 739 850 955
8 734 623 739 845 846 738 849 956
8 735 621 738 846 847 737 848 957
8 744 647 737 847 854 759 848 957
8 738 627 742 849 848 741 851 958
8 848 741 851 958 759 662 773 868
8 850 743 700 802 959 852 807 906
8 849 742 628 739 959 852 743 850
8 854 759 868 965 745 648 760 855
8 746 649 760 855 856 761 871 966
8 860 765 653 750 967 872 761 856
8 968 873 762 857 858 763 651 748
8 862 769 657 753 968 873 762 857
8 859 764 874 969 749 652 763 858
8 752 654 766 861 859 764 875 970
8 751 655 765 860 861 766 876 971
8 754 658 769 862 863 770 879 972
8 755 659 770 863 864 771 881 974
8 976 882 772 867 864 771 660 757
8 866 768 877 977 756 656 767 865
8 867 772 878 978 758 661 768 866
8 760 663 773 868 871 774 883 980
8 870 781 837 948 982 890 780 869
8 982 890 780 869 877 782 670 767
8 761 664 774 871 872 775 884 984
8 876 776 665 765 985 885 775 872
8 873 777 668 763 986 887 779 874
8 769 674 777 873 879 786 887 986
8 764 669 778 875 874 779 888 987
8 766 667 776 876 875 778 886 988
8 878 783 892 989 768 671 782 877
8 878 783 672 772 990 893 784 882
8 880 787 675 770 991 896 786 879
8 880 787 895 992 770 675 785 881
8 881 785 894 993 771 673 784 882
8 1006 905 799 898 897 798 687 789
8 919 814 905 1006 813 705 798 897
8 791 689 799 898 901 801 907 1007
8 900 803 909 1009 790 691 802 899
8 795 693 804 903 900 803 910 1010
8 902 800 908 1011 796 694 805 904
8 793 690 801 901 902 800 908 1011
8 797 695 805 904 903 804 911 1012
8 799 697 806 905 907 808 912 1013
8 920 815 912 1013 814 706 806 905
8 802 700 810 909 906 807 913 1014
8 801 699 808 907 908 809 914 1015
8 805 703 809 908 911 812 915 1016
8 803 701 811 910 909 810 916 1017
8 911 812 917 1018 804 702 811 910
8 925 821 920 1030 818 710 814 919
8 928 823 921 1031 821 712 815 920
8 922 819 717 831 1033 926 829 941
8 923 820 709 816 1034 927 819 922
8 1035 929 822 924 923 820 711 817
8 925 821 710 818 1036 930 822 924
8 1038 933 825 929 927 826 714 820
8 926 827 716 829 1039 935 828 939
8 927 826 715 819 1040 934 827 926
8 928 823 712 821 1041 931 824 930
8 1042 932 824 930 929 825 713 822
8 829 716 830 942 939 828 940 1058
8 831 717 832 944 941 829 942 1060
8 942 830 718 832 1061 943 833 945
8 944 832 720 834 1062 945 835 946
8 981 889 947 1064 870 781 837 948
8 948 837 949 1067 869 780 838 950
8 975 869 950 1069 865 767 839 952
8 950 838 951 1070 839 725 840 953
8 952 839 953 1071 841 726 842 954
8 955 850 802 899 1072 959 906 1008
8 956 849 739 845 1072 959 850 955
8 846 738 849 956 957 848 958 1073
8 957 848 958 1073 854 759 868 965
8 849 742 852 959 958 851 961 1076
8 960 853 961 1076 906 807 852 959
8 958 851 961 1076 868 773 883 980
8 960 853 807 906 1077 963 913 1014
8 855 760 868 965 966 871 980 1085
8 856 761 871 966 967 872 984 1086
8 971 876 765 860 1087 985 872 967
8 968 873 763 858 1088 986 874 969
8 862 769 873 968 972 879 986 1088
8 859 764 875 970 969 874 987 1089
8 861 766 876 971 970 875 988 1090
8 973 880 770 863 1091 991 879 972
8 973 880 992 1092 863 770 881 974
8 974 881 993 1093 864 771 882 976
8 979 870 948 1066 1094 982 869 975
8 1094 982 869 975 977 877 767 865
8 978 878 772 867 1095 990 882 976
8 978 878 989 1096 866 768 877 977
8 871 774 883 980 984 884 994 1099
8 983 891 999 1100 870 781 889 981
8 1101 1000 890 982 989 892 782 877
8 983 891 781 870 1101 1000 890 982
8 872 775 884 984 985 885 995 1103
8 876 776 885 985 988 886 996 1104
8 986 887 779 874 1105 998 888 987
8 879 786 887 986 991 896 998 1105
8 875 778 886 988 987 888 997 1106
8 990 893 1002 1107 878 783 892 989
8 1108 1003 893 990 993 894 784 882
8 880 787 896 991 992 895 1005 1109
8 993 894 785 881 1110 1004 895 992
8 898 799 905 1006 1007 907 1013 1120
8 1030 920 1013 1120 919 814 905 1006
8 901 801 907 1007 1011 908 1015 1121
8 899 802 909 1009 1008 906 1014 1122
8 900 803 910 1010 1009 909 1017 1123
8 1012 911 1018 1124 903 804 910 1010
8 904 805 908 1011 1012 911 1016 1125
8 1013 912 1020 1127 907 808 914 1015
8 1031 921 1020 1127 920 815 912 1013
8 1019 918 962 1075 1128 1021 913 1014
8 1128 1021 913 1014 1017 916 810 909
8 1015 914 1022 1129 908 809 915 1016
8 1016 915 1023 1130 911 812 917 1018
8 1018 917 1024 1131 910 811 916 1017
8 1037 928 1031 1148 925 821 920 1030
8 928 823 931 1041 1031 921 1032 1149
8 1033 926 829 941 1151 1039 939 1057
8 1034 927 819 922 1152 1040 926 1033
8 1153 1038 929 1035 1034 927 820 923
8 1154 1042 930 1036 1035 929 822 924
8 1037 928 821 925 1155 1041 930 1036
8 1039 935 828 939 1156 1047 938 1055
8 1157 1043 932 1042 1038 933 825 929
8 1038 933 826 927 1158 1045 934 1040
8 1040 934 827 926 1159 1046 935 1039
8 930 824 932 1042 1041 931 1044 1160
8 1051 936 1048 1165 1175 1052 937 1053
8 1156 1047 938 1055 1053 937 1054 1178
8 939 828 940 1058 1055 938 1056 1181
8 941 829 942 1060 1057 939 1058 1183
8 942 830 943 1061 1058 940 1059 1184
8 1060 942 832 944 1185 1061 945 1062
8 1082 964 1063 1188 981 889 947 1064
8 1097 981 1064 1190 979 870 948 1066
8 1064 947 1065 1191 948 837 949 1067
8 1066 948 1067 1193 975 869 950 1069
8 1067 949 1068 1194 950 838 951 1070
8 1069 950 1070 1195 952 839 953 1071
8 956 849 959 1072 1073 958 1076 1197
8 1074 960 1076 1197 1008 906 959 1072
8 1073 958 1076 1197 965 868 980 1085
8 1074 960 906 1008 1198 1077 1014 1122
8 1133 1026 1079 1199 1019 918 962 1075
8 1077 963 913 1014 1200 1080 962 1075
8 960 853 963 1077 1076 961 1078 1201
8 980 883 961 1076 1099 994 1078 1201
8 1210 1083 964 1082 1100 999 889 981
8 966 871 980 1085 1086 984 1099 1215
8 967 872 984 1086 1087 985 1103 1216
8 971 876 985 1087 1090 988 1104 1217
8 1088 986 874 969 1218 1105 987 1089
8 972 879 986 1088 1091 991 1105 1218
8 970 875 988 1090 1089 987 1106 1219
8 973 880 991 1091 1092 992 1109 1220
8 1093 993 881 974 1221 1110 992 1092
8 1222 1108 990 1095 1093 993 882 976
8 1223 1101 982 1094 1096 989 877 977
8 1098 983 870 979 1223 1101 982 1094
8 1095 990 1107 1224 978 878 989 1096
8 1098 983 1100 1225 979 870 981 1097
8 984 884 994 1099 1103 995 1111 1227
8 1102 1001 1115 1228 983 891 999 1100
8 1101 1000 892 989 1229 1116 1002 1107
8 1102 1001 891 983 1229 1116 1000 1101
8 985 885 995 1103 1104 996 1112 1230
8 988 886 996 1104 1106 997 1113 1231
8 1105 998 888 987 1232 1114 997 1106
8 991 896 998 1105 1109 1005 1114 1232
8 1108 1003 1117 1233 990 893 1002 1107
8 1108 1003 894 993 1233 1117 1004 1110
8 992 895 1005 1109 1110 1004 1118 1234
8 1120 1013 1127 1244 1007 907 1015 1121
8 1148 1031 1127 1244 1030 920 1013 1120
8 1121 1015 1129 1245 1011 908 1016 1125
8 1126 1019 1075 1196 1246 1128 1014 1122
8 1246 1128 1014 1122 1123 1017 909 1009
8 1124 1018 1131 1247 1010 910 1017 1123
8 1125 1016 1130 1248 1012 911 1018 1124
8 1127 1020 1137 1254 1015 914 1022 1129
8 1031 921 1032 1149 1127 1020 1137 1254
8 1134 1027 918 1019 1257 1140 1021 1128
8 1257 1140 1021 1128 1131 1024 916 1017
8 1129 1022 1141 1258 1016 915 1023 1130
8 1130 1023 1142 1259 1018 917 1024 1131
8 1261 1144 1025 1132 1133 1026 1079 1199
8 1255 1138 1025 1132 1135 1028 1144 1261
8 1133 1026 918 1019 1262 1145 1027 1134
8 1136 1029 1139 1256 1263 1146 1028 1135
8 1037 928 1041 1155 1148 1031 1149 1275
8 1041 931 1044 1160 1149 1032 1150 1276
8 1151 1039 939 1057 1278 1156 1055 1180
8 1152 1040 926 1033 1279 1159 1039 1151
8 1153 1038 927 1034 1280 1158 1040 1152
8 1281 1157 1042 1154 1153 1038 929 1035
8 1036 930 1042 1154 1155 1041 1160 1282
8 1283 1164 1046 1159 1156 1047 935 1039
8 1165 1048 1164 1283 1053 937 1047 1156
8 1157 1043 933 1038 1284 1161 1045 1158
8 1157 1043 1161 1284 1042 932 1044 1160
8 1040 934 1046 1159 1158 1045 1163 1285
8 1166 1049 1167 1292 1051 936 1048 1165
8 1166 1049 936 1051 1293 1168 1050 1172
8 1051 936 1052 1175 1172 1050 1173 1306
8 1174 1051 1165 1290 1308 1175 1053 1177
8 1053 937 1054 1178 1175 1052 1176 1309
8 1278 1156 1055 1180 1177 1053 1178 1311
8 1055 938 1056 1181 1178 1054 1179 1312
8 1057 939 1058 1183 1180 1055 1181 1314
8 1058 940 1059 1184 1181 1056 1182 1315
8 1060 942 1061 1185 1183 1058 1184 1316
8 1208 1081 1187 1321 1082 964 1063 1188
8 1209 1082 1188 1322 1097 981 1064 1190
8 1188 1063 1189 1323 1064 947 1065 1191
8 1190 1064 1191 1325 1066 948 1067 1193
8 1191 1065 1192 1326 1067 949 1068 1194
8 1067 1193 1069 950 1194 1327 1195 1070
8 1250 1133 1199 1330 1126 1019 1075 1196
8 1198 1077 1014 1122 1331 1200 1075 1196
8 1074 960 1077 1198 1197 1076 1201 1332
8 1085 980 1076 1197 1215 1099 1201 1332
8 1199 1079 1203 1333 1075 962 1080 1200
8 1132 1025 1119 1243 1199 1079 1203 1333
8 1201 1078 963 1077 1334 1202 1080 1200
8 1099 994 1078 1201 1227 1111 1202 1334
8 1343 1207 1081 1208 1210 1083 964 1082
8 1214 1084 1186 1319 1343 1207 1081 1208
8 1345 1210 1082 1209 1225 1100 981 1097
8 1346 1211 1083 1210 1228 1115 999 1100
8 1086 984 1099 1215 1216 1103 1227 1352
8 1087 985 1103 1216 1217 1104 1230 1353
8 1090 988 1104 1217 1219 1106 1231 1354
8 1218 1105 987 1089 1355 1232 1106 1219
8 1091 991 1105 1218 1220 1109 1232 1355
8 1092 992 1109 1220 1221 1110 1234 1356
8 1222 1108 1233 1357 1095 990 1107 1224
8 1222 1108 993 1093 1357 1233 1110 1221
8 1223 1101 989 1096 1358 1229 1107 1224
8 1226 1102 983 1098 1358 1229 1101 1223
8 1226 1102 1228 1359 1098 983 1100 1225
8 1103 995 1111 1227 1230 1112 1235 1360
8 1107 1002 1117 1233 1229 1116 1240 1362
8 1102 1001 1116 1229 1228 1115 1240 1362
8 1104 996 1112 1230 1231 1113 1236 1363
8 1364 1237 1114 1232 1231 1113 997 1106
8 1109 1005 1114 1232 1234 1118 1238 1365
8 1110 1004 1118 1234 1233 1117 1241 1366
8 1242 1374 1255 1138 1119 1243 1132 1025
8 1244 1127 1254 1376 1121 1015 1129 1245
8 1148 1031 1149 1275 1244 1127 1254 1376
8 1245 1129 1258 1377 1125 1016 1130 1248
8 1251 1134 1019 1126 1378 1257 1128 1246
8 1378 1257 1128 1246 1247 1131 1017 1123
8 1248 1130 1259 1379 1124 1018 1131 1247
8 1261 1381 1250 1133 1132 1249 1330 1199
8 1255 1380 1252 1135 1132 1249 1381 1261
8 1250 1133 1019 1126 1382 1262 1134 1251
8 1253 1136 1256 1385 1384 1263 1135 1252
8 1254 1137 1265 1387 1129 1022 1141 1258
8 1149 1032 1150 1276 1254 1137 1265 1387
8 1028 1135 1255 1138 1139 1256 1388 1266
8 1136 1029 1147 1264 1256 1139 1267 1389
8 1390 1268 1140 1257 1259 1142 1024 1131
8 1260 1143 1027 1134 1390 1268 1140 1257
8 1258 1141 1269 1391 1130 1023 1142 1259
8 1262 1145 1027 1134 1393 1271 1143 1260
8 1261 1144 1026 1133 1394 1272 1145 1262
8 1135 1028 1144 1261 1263 1146 1272 1394
8 1136 1029 1146 1263 1264 1147 1273 1395
8 1155 1041 1160 1282 1275 1149 1276 1405
8 1276 1150 1044 1160 1406 1277 1162 1286
8 1408 1283 1159 1279 1278 1156 1039 1151
8 1290 1165 1283 1408 1177 1053 1156 1278
8 1152 1040 1159 1279 1280 1158 1285 1409
8 1281 1157 1038 1153 1410 1284 1158 1280
8 1281 1157 1284 1410 1154 1042 1160 1282
8 1159 1046 1164 1283 1285 1163 1289 1412
8 1292 1167 1289 1412 1165 1048 1164 1283
8 1158 1045 1163 1285 1284 1161 1288 1413
8 1284 1161 1288 1413 1160 1044 1162 1286
8 1291 1166 1292 1418 1174 1051 1165 1290
8 1291 1166 1051 1174 1419 1293 1172 1305
8 1294 1169 1296 1421 1166 1049 1167 1292
8 1293 1168 1050 1172 1422 1295 1171 1303
8 1294 1169 1049 1166 1423 1297 1168 1293
8 1422 1295 1171 1303 1301 1170 1302 1435
8 1172 1050 1173 1306 1303 1171 1304 1438
8 1174 1051 1175 1308 1305 1172 1306 1440
8 1175 1052 1176 1309 1306 1173 1307 1441
8 1177 1053 1178 1311 1308 1175 1309 1443
8 1178 1054 1179 1312 1309 1176 1310 1444
8 1180 1055 1181 1314 1311 1178 1312 1446
8 1056 1181 1312 1179 1182 1315 1447 1313
8 1183 1058 1184 1316 1314 1181 1315 1448
8 1319 1186 1084 1214 1451 1317 1213 1350
8 1319 1186 1318 1453 1208 1081 1187 1321
8 1321 1187 1320 1456 1188 1063 1189 1323
8 1344 1208 1321 1457 1209 1082 1188 1322
8 1322 1188 1323 1458 1190 1064 1191 1325
8 1323 1189 1324 1459 1191 1065 1192 1326
8 1191 1325 1193 1067 1326 1460 1327 1194
8 1242 1374 1243 1119 1328 1462 1335 1204
8 1330 1199 1333 1465 1196 1075 1200 1331
8 1132 1249 1330 1199 1243 1375 1465 1333
8 1332 1201 1077 1198 1466 1334 1200 1331
8 1215 1099 1201 1332 1352 1227 1334 1466
8 1119 1243 1333 1203 1204 1335 1470 1338
8 1333 1203 1338 1470 1200 1080 1202 1334
8 1227 1111 1202 1334 1360 1235 1338 1470
8 1328 1462 1335 1204 1205 1336 1471 1339
8 1337 1206 1340 1472 1464 1329 1205 1336
8 1346 1211 1342 1479 1210 1083 1207 1343
8 1346 1211 1115 1228 1479 1342 1239 1361
8 1348 1212 1084 1214 1479 1342 1207 1343
8 1480 1343 1208 1344 1345 1210 1082 1209
8 1351 1214 1319 1454 1480 1343 1208 1344
8 1481 1346 1210 1345 1359 1228 1100 1225
8 1348 1212 1347 1483 1214 1084 1213 1350
8 1216 1103 1227 1352 1353 1230 1360 1488
8 1217 1104 1230 1353 1354 1231 1363 1489
8 1490 1364 1232 1355 1354 1231 1106 1219
8 1220 1109 1232 1355 1356 1234 1365 1491
8 1221 1110 1234 1356 1357 1233 1366 1492
8 1224 1107 1233 1357 1358 1229 1362 1493
8 1226 1102 1229 1358 1359 1228 1362 1493
8 1230 1112 1235 1360 1363 1236 1367 1496
8 1361 1239 1115 1228 1497 1371 1240 1362
8 1366 1241 1372 1498 1233 1117 1240 1362
8 1364 1237 1113 1231 1499 1368 1236 1363
8 1364 1237 1368 1499 1232 1114 1238 1365
8 1234 1118 1238 1365 1366 1241 1369 1500
8 1507 1373 1242 1374 1388 1266 1138 1255
8 1508 1374 1243 1375 1380 1255 1132 1249
8 1376 1254 1387 1509 1245 1129 1258 1377
8 1275 1149 1276 1405 1376 1254 1387 1509
8 1377 1258 1391 1510 1248 1130 1259 1379
8 1511 1390 1257 1378 1379 1259 1131 1247
8 1383 1260 1134 1251 1511 1390 1257 1378
8 1252 1135 1256 1385 1380 1255 1388 1512
8 1261 1381 1513 1394 1133 1250 1382 1262
8 1135 1252 1384 1263 1261 1381 1513 1394
8 1382 1262 1134 1251 1514 1393 1260 1383
8 1253 1136 1263 1384 1386 1264 1395 1516
8 1253 1136 1264 1386 1385 1256 1389 1517
8 1387 1265 1397 1519 1258 1141 1269 1391
8 1276 1150 1277 1406 1387 1265 1397 1519
8 1256 1139 1267 1389 1388 1266 1398 1520
8 1264 1147 1274 1396 1389 1267 1399 1521
8 1392 1270 1143 1260 1522 1400 1268 1390
8 1390 1268 1142 1259 1522 1400 1269 1391
8 1392 1270 1401 1523 1260 1143 1271 1393
8 1272 1394 1524 1402 1145 1262 1393 1271
8 1395 1273 1146 1263 1524 1402 1272 1394
8 1273 1395 1264 1147 1403 1526 1396 1274
8 1405 1276 1160 1282 1534 1406 1286 1411
8 1414 1287 1407 1535 1286 1162 1277 1406
8 1279 1159 1283 1408 1409 1285 1412 1537
8 1418 1292 1412 1537 1290 1165 1283 1408
8 1280 1158 1285 1409 1410 1284 1413 1538
8 1410 1284 1413 1538 1282 1160 1286 1411
8 1285 1163 1289 1412 1413 1288 1417 1540
8 1421 1296 1417 1540 1292 1167 1289 1412
8 1414 1287 1162 1286 1541 1416 1288 1413
8 1420 1294 1421 1545 1291 1166 1292 1418
8 1419 1293 1172 1305 1546 1422 1303 1437
8 1420 1294 1166 1291 1547 1423 1293 1419
8 1294 1169 1297 1423 1421 1296 1425 1548
8 1423 1297 1168 1293 1549 1424 1295 1422
8 1301 1170 1298 1427 1422 1295 1424 1549
8 1432 1300 1428 1554 1301 1170 1298 1427
8 1431 1299 1428 1554 1560 1430 1300 1432
8 1563 1433 1300 1432 1435 1302 1170 1301
8 1546 1422 1303 1437 1434 1301 1435 1565
8 1303 1171 1304 1438 1435 1302 1436 1566
8 1305 1172 1306 1440 1437 1303 1438 1568
8 1306 1173 1307 1441 1438 1304 1439 1569
8 1308 1175 1309 1443 1440 1306 1441 1571
8 1309 1176 1310 1444 1441 1307 1442 1572
8 1311 1178 1312 1446 1443 1309 1444 1574
8 1179 1312 1444 1310 1313 1447 1575 1445
8 1314 1181 1315 1448 1446 1312 1447 1576
8 1350 1213 1349 1486 1451 1317 1449 1579
8 1451 1317 1450 1581 1319 1186 1318 1453
8 1454 1319 1214 1351 1582 1451 1350 1487
8 1453 1318 1452 1584 1321 1187 1320 1456
8 1454 1319 1453 1585 1344 1208 1321 1457
8 1456 1320 1455 1586 1323 1189 1324 1459
8 1457 1321 1456 1587 1322 1188 1323 1458
8 1458 1323 1459 1588 1325 1191 1326 1460
8 1205 1336 1464 1329 1328 1462 1590 1461
8 1507 1373 1461 1590 1374 1242 1328 1462
8 1508 1374 1462 1591 1375 1243 1335 1467
8 1337 1206 1329 1464 1473 1341 1463 1594
8 1375 1243 1335 1467 1465 1333 1470 1596
8 1465 1333 1470 1596 1331 1200 1334 1466
8 1352 1227 1334 1466 1488 1360 1470 1596
8 1591 1462 1336 1468 1467 1335 1471 1597
8 1469 1337 1472 1598 1595 1464 1336 1468
8 1471 1339 1474 1600 1335 1204 1338 1470
8 1600 1474 1367 1496 1470 1338 1235 1360
8 1336 1205 1340 1472 1471 1339 1475 1601
8 1337 1206 1341 1473 1472 1340 1476 1602
8 1495 1370 1478 1609 1361 1239 1342 1479
8 1348 1212 1342 1479 1483 1347 1478 1609
8 1481 1346 1479 1610 1345 1210 1343 1480
8 1481 1346 1228 1359 1610 1479 1361 1494
8 1484 1348 1214 1351 1610 1479 1343 1480
8 1483 1347 1482 1612 1350 1213 1349 1486
8 1484 1348 1483 1613 1351 1214 1350 1487
8 1353 1230 1360 1488 1489 1363 1496 1616
8 1490 1364 1231 1354 1617 1499 1363 1489
8 1490 1364 1499 1617 1355 1232 1365 1491
8 1356 1234 1365 1491 1492 1366 1500 1619
8 1492 1366 1498 1620 1357 1233 1362 1493
8 1494 1361 1228 1359 1621 1497 1362 1493
8 1495 1370 1239 1361 1622 1504 1371 1497
8 1363 1236 1367 1496 1499 1368 1501 1623
8 1497 1371 1240 1362 1624 1505 1372 1498
8 1625 1503 1372 1498 1500 1369 1241 1366
8 1365 1238 1368 1499 1500 1369 1502 1626
8 1520 1398 1506 1633 1388 1266 1373 1507
8 1634 1507 1374 1508 1512 1388 1255 1380
8 1509 1387 1519 1635 1377 1258 1391 1510
8 1405 1276 1406 1534 1509 1387 1519 1635
8 1515 1392 1260 1383 1636 1522 1390 1511
8 1511 1390 1259 1379 1636 1522 1391 1510
8 1385 1256 1389 1517 1512 1388 1520 1637
8 1513 1394 1262 1382 1638 1524 1393 1514
8 1395 1516 1638 1524 1263 1384 1513 1394
8 1515 1392 1523 1639 1383 1260 1393 1514
8 1516 1395 1526 1640 1386 1264 1396 1518
8 1386 1264 1396 1518 1517 1389 1521 1641
8 1519 1397 1527 1643 1391 1269 1400 1522
8 1535 1407 1527 1643 1406 1277 1397 1519
8 1389 1267 1399 1521 1520 1398 1528 1644
8 1645 1529 1399 1521 1525 1404 1274 1396
8 1392 1270 1400 1522 1523 1401 1531 1646
8 1524 1402 1271 1393 1648 1532 1401 1523
8 1403 1526 1648 1532 1273 1395 1524 1402
8 1525 1404 1274 1396 1649 1533 1403 1526
8 1539 1414 1535 1657 1411 1286 1406 1534
8 1542 1415 1536 1658 1414 1287 1407 1535
8 1409 1285 1412 1537 1538 1413 1540 1660
8 1545 1421 1540 1660 1418 1292 1412 1537
8 1539 1414 1286 1411 1661 1541 1413 1538
8 1540 1417 1544 1663 1413 1288 1416 1541
8 1421 1296 1425 1548 1540 1417 1544 1663
8 1542 1415 1287 1414 1664 1543 1416 1541
8 1420 1294 1423 1547 1545 1421 1548 1666
8 1547 1423 1293 1419 1667 1549 1422 1546
8 1434 1301 1427 1553 1546 1422 1549 1667
8 1423 1297 1424 1549 1548 1425 1550 1668
8 1551 1426 1550 1668 1427 1298 1424 1549
8 1551 1426 1298 1427 1671 1552 1428 1554
8 1562 1432 1554 1674 1434 1301 1427 1553
8 1431 1299 1429 1558 1554 1428 1555 1675
8 1431 1299 1430 1560 1558 1429 1557 1680
8 1560 1430 1300 1432 1683 1559 1433 1563
8 1561 1431 1554 1674 1684 1560 1432 1562
8 1685 1563 1432 1562 1565 1435 1301 1434
8 1435 1302 1436 1566 1563 1433 1564 1686
8 1437 1303 1438 1568 1565 1435 1566 1688
8 1438 1304 1439 1569 1566 1436 1567 1689
8 1440 1306 1441 1571 1568 1438 1569 1691
8 1441 1307 1442 1572 1569 1439 1570 1692
8 1443 1309 1444 1574 1571 1441 1572 1694
8 1310 1444 1572 1442 1445 1575 1695 1573
8 1446 1312 1447 1576 1574 1444 1575 1696
8 1486 1349 1485 1614 1579 1449 1577 1699
8 1451 1317 1449 1579 1581 1450 1578 1701
8 1487 1350 1486 1615 1582 1451 1579 1702
8 1581 1450 1580 1704 1453 1318 1452 1584
8 1582 1451 1581 1705 1454 1319 1453 1585
8 1584 1452 1583 1706 1456 1320 1455 1586
8 1585 1453 1584 1707 1457 1321 1456 1587
8 1587 1456 1586 1708 1458 1323 1459 1588
8 1633 1506 1589 1710 1507 1373 1461 1590
8 1464 1329 1461 1590 1594 1463 1589 1710
8 1468 1336 1462 1591 1595 1464 1590 1711
8 1634 1507 1590 1711 1508 1374 1462 1591
8 1473 1341 1463 1594 1603 1477 1593 1716
8 1469 1337 1464 1595 1599 1473 1594 1717
8 1471 1597 1467 1335 1600 1718 1596 1470
8 1718 1600 1496 1616 1596 1470 1360 1488
8 1336 1468 1597 1471 1472 1598 1719 1601
8 1469 1337 1473 1599 1598 1472 1602 1720
8 1722 1604 1501 1623 1600 1474 1367 1496
8 1475 1601 1471 1339 1604 1722 1600 1474
8 1602 1476 1605 1723 1472 1340 1475 1601
8 1476 1602 1724 1606 1341 1473 1603 1477
8 1483 1347 1478 1609 1612 1482 1608 1731
8 1495 1370 1504 1622 1609 1478 1608 1731
8 1618 1495 1609 1732 1494 1361 1479 1610
8 1484 1348 1479 1610 1613 1483 1609 1732
8 1486 1349 1482 1612 1614 1485 1611 1733
8 1613 1483 1612 1734 1487 1350 1486 1615
8 1489 1363 1496 1616 1617 1499 1623 1736
8 1491 1365 1499 1617 1619 1500 1626 1737
8 1618 1495 1361 1494 1738 1622 1497 1621
8 1739 1625 1498 1620 1619 1500 1366 1492
8 1621 1497 1362 1493 1740 1624 1498 1620
8 1742 1631 1504 1622 1624 1505 1371 1497
8 1743 1628 1502 1626 1623 1501 1368 1499
8 1744 1630 1505 1624 1625 1503 1372 1498
8 1745 1629 1503 1625 1626 1502 1369 1500
8 1520 1398 1528 1644 1633 1506 1632 1751
8 1637 1520 1633 1752 1512 1388 1507 1634
8 1635 1519 1643 1753 1510 1391 1522 1636
8 1657 1535 1643 1753 1534 1406 1519 1635
8 1515 1392 1522 1636 1639 1523 1646 1754
8 1517 1389 1521 1641 1637 1520 1644 1755
8 1524 1638 1756 1648 1393 1514 1639 1523
8 1640 1526 1395 1516 1756 1648 1524 1638
8 1642 1525 1396 1518 1757 1649 1526 1640
8 1758 1645 1521 1641 1642 1525 1396 1518
8 1646 1531 1400 1522 1760 1650 1527 1643
8 1535 1407 1536 1658 1643 1527 1650 1760
8 1521 1399 1529 1645 1644 1528 1651 1761
8 1647 1530 1652 1762 1525 1404 1529 1645
8 1401 1523 1648 1532 1531 1646 1763 1655
8 1525 1404 1533 1649 1647 1530 1654 1765
8 1533 1649 1766 1656 1403 1526 1648 1532
8 1662 1542 1658 1774 1539 1414 1535 1657
8 1542 1415 1543 1664 1658 1536 1659 1775
8 1660 1540 1663 1777 1538 1413 1541 1661
8 1545 1421 1548 1666 1660 1540 1663 1777
8 1662 1542 1414 1539 1778 1664 1541 1661
8 1664 1543 1416 1541 1779 1665 1544 1663
8 1548 1425 1550 1668 1663 1544 1665 1779
8 1547 1423 1549 1667 1666 1548 1668 1781
8 1670 1551 1668 1781 1553 1427 1549 1667
8 1551 1426 1552 1671 1668 1550 1669 1782
8 1670 1551 1427 1553 1784 1671 1554 1674
8 1675 1555 1672 1785 1554 1428 1552 1671
8 1678 1556 1673 1789 1558 1429 1555 1675
8 1561 1431 1558 1681 1674 1554 1675 1790
8 1794 1677 1556 1678 1680 1557 1429 1558
8 1560 1430 1559 1683 1680 1557 1679 1797
8 1561 1431 1560 1684 1681 1558 1680 1798
8 1563 1433 1564 1686 1683 1559 1682 1800
8 1684 1560 1432 1562 1801 1683 1563 1685
8 1565 1435 1566 1688 1685 1563 1686 1802
8 1566 1436 1567 1689 1686 1564 1687 1803
8 1568 1438 1569 1691 1688 1566 1689 1805
8 1569 1439 1570 1692 1689 1567 1690 1806
8 1571 1441 1572 1694 1691 1569 1692 1808
8 1442 1572 1692 1570 1573 1695 1809 1693
8 1574 1444 1575 1696 1694 1572 1695 1810
8 1614 1485 1592 1712 1699 1577 1697 1813
8 1579 1449 1577 1699 1701 1578 1698 1815
8 1615 1486 1614 1735 1702 1579 1699 1816
8 1701 1578 1700 1818 1581 1450 1580 1704
8 1582 1451 1579 1702 1705 1581 1701 1819
8 1704 1580 1703 1820 1584 1452 1583 1706
8 1705 1581 1704 1821 1585 1453 1584 1707
8 1707 1584 1706 1822 1587 1456 1586 1708
8 1710 1589 1506 1633 1824 1709 1632 1751
8 1594 1463 1589 1710 1716 1593 1709 1824
8 1752 1633 1710 1825 1634 1507 1590 1711
8 1595 1464 1590 1711 1717 1594 1710 1825
8 1830 1714 1592 1712 1733 1611 1485 1614
8 1603 1477 1593 1716 1725 1607 1715 1834
8 1599 1473 1594 1717 1721 1603 1716 1835
8 1837 1722 1623 1736 1718 1600 1496 1616
8 1719 1601 1722 1837 1597 1471 1600 1718
8 1602 1720 1598 1472 1723 1838 1719 1601
8 1720 1602 1473 1599 1839 1724 1603 1721
8 1723 1605 1726 1840 1601 1475 1604 1722
8 1840 1726 1628 1743 1722 1604 1501 1623
8 1724 1606 1727 1841 1602 1476 1605 1723
8 1725 1607 1728 1842 1603 1477 1606 1724
8 1612 1482 1608 1731 1733 1611 1730 1849
8 1741 1627 1730 1849 1622 1504 1608 1731
8 1613 1483 1609 1732 1734 1612 1731 1850
8 1618 1495 1622 1738 1732 1609 1731 1850
8 1615 1486 1612 1734 1735 1614 1733 1851
8 1852 1743 1626 1737 1736 1623 1499 1617
8 1853 1745 1625 1739 1737 1626 1500 1619
8 1855 1742 1622 1738 1740 1624 1497 1621
8 1856 1744 1624 1740 1739 1625 1498 1620
8 1741 1627 1504 1622 1857 1746 1631 1742
8 1742 1631 1505 1624 1858 1749 1630 1744
8 1859 1747 1629 1745 1743 1628 1502 1626
8 1860 1748 1630 1744 1745 1629 1503 1625
8 1644 1528 1651 1761 1751 1632 1750 1865
8 1637 1520 1644 1755 1752 1633 1751 1866
8 1754 1646 1522 1636 1867 1760 1643 1753
8 1657 1535 1658 1774 1753 1643 1760 1867
8 1639 1523 1646 1754 1756 1648 1763 1868
8 1641 1521 1645 1758 1755 1644 1761 1869
8 1757 1649 1526 1640 1870 1766 1648 1756
8 1642 1525 1649 1757 1759 1647 1765 1871
8 1759 1647 1762 1872 1642 1525 1645 1758
8 1760 1650 1767 1874 1646 1531 1655 1763
8 1658 1536 1659 1775 1760 1650 1767 1874
8 1762 1652 1768 1875 1645 1529 1651 1761
8 1764 1653 1769 1876 1647 1530 1652 1762
8 1656 1766 1877 1773 1532 1648 1763 1655
8 1771 1879 1765 1654 1653 1764 1647 1530
8 1533 1649 1765 1654 1656 1766 1880 1772
8 1662 1542 1664 1778 1774 1658 1775 1887
8 1664 1543 1665 1779 1775 1659 1776 1888
8 1778 1664 1541 1661 1890 1779 1663 1777
8 1666 1548 1668 1781 1777 1663 1779 1890
8 1782 1669 1780 1891 1668 1550 1665 1779
8 1670 1551 1671 1784 1781 1668 1782 1893
8 1671 1552 1672 1785 1782 1669 1783 1894
8 1790 1675 1785 1896 1674 1554 1671 1784
8 1675 1555 1673 1789 1785 1672 1786 1897
8 1792 1676 1788 1903 1678 1556 1673 1789
8 1795 1678 1789 1904 1681 1558 1675 1790
8 1792 1676 1556 1678 1906 1791 1677 1794
8 1680 1557 1679 1797 1794 1677 1793 1909
8 1910 1794 1678 1795 1798 1680 1558 1681
8 1683 1559 1682 1800 1797 1679 1796 1912
8 1684 1560 1683 1801 1798 1680 1797 1913
8 1686 1564 1687 1803 1800 1682 1799 1915
8 1685 1563 1686 1802 1801 1683 1800 1916
8 1688 1566 1689 1805 1802 1686 1803 1917
8 1689 1567 1690 1806 1803 1687 1804 1918
8 1691 1569 1692 1808 1805 1689 1806 1920
8 1692 1570 1693 1809 1806 1690 1807 1921
8 1694 1572 1695 1810 1808 1692 1809 1922
8 1829 1713 1811 1926 1712 1592 1697 1813
8 1813 1697 1812 1928 1699 1577 1698 1815
8 1735 1614 1712 1828 1816 1699 1813 1929
8 1815 1698 1814 1931 1701 1578 1700 1818
8 1702 1579 1699 1816 1819 1701 1815 1932
8 1818 1700 1817 1933 1704 1580 1703 1820
8 1819 1701 1818 1934 1705 1581 1704 1821
8 1821 1704 1820 1935 1707 1584 1706 1822
8 1824 1709 1632 1751 1937 1823 1750 1865
8 1716 1593 1709 1824 1834 1715 1823 1937
8 1825 1710 1633 1752 1938 1824 1751 1866
8 1717 1594 1710 1825 1835 1716 1824 1938
8 1945 1830 1712 1828 1851 1733 1614 1735
8 1830 1714 1831 1946 1712 1592 1713 1829
8 1947 1832 1714 1830 1849 1730 1611 1733
8 1843 1729 1607 1725 1950 1833 1715 1834
8 1721 1603 1716 1835 1836 1725 1834 1951
8 1836 1725 1842 1953 1721 1603 1724 1839
8 1723 1838 1719 1601 1840 1954 1837 1722
8 1954 1840 1743 1852 1837 1722 1623 1736
8 1724 1839 1720 1602 1841 1955 1838 1723
8 1841 1727 1844 1956 1723 1605 1726 1840
8 1956 1844 1747 1859 1840 1726 1628 1743
8 1728 1842 1724 1606 1845 1957 1841 1727
8 1725 1607 1729 1843 1842 1728 1846 1958
8 1741 1627 1746 1857 1849 1730 1848 1965
8 1734 1612 1731 1850 1851 1733 1849 1966
8 1854 1741 1849 1966 1738 1622 1731 1850
8 1967 1859 1745 1853 1852 1743 1626 1737
8 1968 1860 1744 1856 1853 1745 1625 1739
8 1854 1741 1622 1738 1969 1857 1742 1855
8 1855 1742 1624 1740 1970 1858 1744 1856
8 1857 1746 1631 1742 1971 1861 1749 1858
8 1858 1749 1630 1744 1972 1863 1748 1860
8 1859 1747 1862 1973 1745 1629 1748 1860
8 1875 1768 1864 1977 1761 1651 1750 1865
8 1755 1644 1761 1869 1866 1751 1865 1978
8 1867 1760 1874 1979 1754 1646 1763 1868
8 1774 1658 1775 1887 1867 1760 1874 1979
8 1870 1766 1648 1756 1980 1877 1763 1868
8 1872 1762 1875 1981 1758 1645 1761 1869
8 1757 1649 1766 1870 1871 1765 1880 1982
8 1983 1879 1764 1873 1871 1765 1647 1759
8 1873 1764 1876 1984 1759 1647 1762 1872
8 1877 1773 1655 1763 1986 1881 1767 1874
8 1775 1659 1776 1888 1874 1767 1881 1986
8 1876 1769 1882 1987 1762 1652 1768 1875
8 1878 1770 1883 1988 1764 1653 1769 1876
8 1880 1772 1656 1766 1989 1886 1773 1877
8 1878 1770 1653 1764 1990 1884 1771 1879
8 1765 1654 1772 1880 1879 1771 1885 1991
8 1778 1664 1779 1890 1887 1775 1888 1997
8 1998 1889 1776 1888 1891 1780 1665 1779
8 1893 1782 1891 2000 1781 1668 1779 1890
8 1894 1783 1892 2001 1782 1669 1780 1891
8 1784 1671 1785 1896 1893 1782 1894 2003
8 1897 1786 1895 2004 1785 1672 1783 1894
8 1790 1675 1789 1904 1896 1785 1897 2006
8 1901 1787 1898 2007 1789 1673 1786 1897
8 1903 1788 1900 2013 1789 1673 1787 1901
8 1792 1676 1791 1906 1903 1788 1902 2016
8 1907 1792 1903 2017 1795 1678 1789 1904
8 1906 1791 1677 1794 2019 1905 1793 1909
8 1907 1792 1678 1795 2020 1906 1794 1910
8 1797 1679 1796 1912 1909 1793 1908 2022
8 1798 1680 1797 1913 1910 1794 1909 2023
8 1800 1682 1799 1915 1912 1796 1911 2025
8 1801 1683 1800 1916 1913 1797 1912 2026
8 1803 1687 1804 1918 1915 1799 1914 2028
8 1802 1686 1803 1917 1916 1800 1915 2029
8 1805 1689 1806 1920 1917 1803 1918 2030
8 1806 1690 1807 1921 1918 1804 1919 2031
8 1808 1692 1809 1922 1920 1806 1921 2032
8 1939 1826 1924 2037 1829 1713 1811 1926
8 1926 1811 1925 2039 1813 1697 1812 1928
8 1944 1829 1926 2040 1828 1712 1813 1929
8 1928 1812 1927 2042 1815 1698 1814 1931
8 1929 1813 1928 2043 1816 1699 1815 1932
8 1931 1814 1930 2044 1818 1700 1817 1933
8 1932 1815 1931 2045 1819 1701 1818 1934
8 1934 1818 1933 2046 1821 1704 1820 1935
8 2048 1936 1823 1937 1977 1864 1750 1865
8 1950 1833 1715 1834 2048 1936 1823 1937
8 1938 1824 1751 1866 2049 1937 1865 1978
8 1835 1716 1824 1938 1951 1834 1937 2049
8 1939 1826 1713 1829 2053 1942 1831 1946
8 1940 1827 1923 2035 2053 1942 1826 1939
8 1945 1830 1946 2058 1828 1712 1829 1944
8 2059 1947 1830 1945 1966 1849 1733 1851
8 1947 1832 1730 1849 2060 1948 1848 1965
8 1947 1832 1948 2060 1830 1714 1831 1946
8 1959 1847 1729 1843 2063 1949 1833 1950
8 1952 1843 1725 1836 2064 1950 1834 1951
8 1836 1725 1843 1952 1953 1842 1958 2066
8 1953 1842 1957 2067 1839 1724 1841 1955
8 1841 1955 1838 1723 1956 2068 1954 1840
8 2068 1956 1859 1967 1954 1840 1743 1852
8 1956 1844 1960 2069 1859 1747 1862 1973
8 1845 1957 1841 1727 1960 2069 1956 1844
8 1728 1842 1957 1845 1846 1958 2071 1961
8 1962 2072 1959 1847 1846 1958 1843 1729
8 1971 1861 1964 2077 1857 1746 1848 1965
8 1854 1741 1857 1969 1966 1849 1965 2078
8 1967 1859 1973 2079 1853 1745 1860 1968
8 1970 1858 1744 1856 2080 1972 1860 1968
8 1969 1857 1742 1855 2081 1971 1858 1970
8 1971 1861 1749 1858 2082 1974 1863 1972
8 1973 1862 1975 2083 1860 1748 1863 1972
8 1987 1882 1976 2086 1875 1768 1864 1977
8 1981 1875 1977 2087 1869 1761 1865 1978
8 1980 1877 1763 1868 2088 1986 1874 1979
8 1887 1775 1888 1997 1979 1874 1986 2088
8 1880 1982 2089 1989 1766 1870 1980 1877
8 1984 1876 1987 2090 1872 1762 1875 1981
8 1765 1871 1983 1879 1880 1982 2091 1991
8 1985 1878 1764 1873 2092 1990 1879 1983
8 1985 1878 1988 2093 1873 1764 1876 1984
8 2094 1992 1881 1986 1998 1889 1776 1888
8 1986 1881 1992 2094 1877 1773 1886 1989
8 1988 1883 1993 2095 1876 1769 1882 1987
8 1878 1770 1884 1990 1988 1883 1994 2096
8 1991 1885 1772 1880 2097 1996 1886 1989
8 1879 1771 1885 1991 1990 1884 1995 2098
8 2103 1998 1888 1997 2000 1891 1779 1890
8 2104 1999 1889 1998 2001 1892 1780 1891
8 2003 1894 2001 2106 1893 1782 1891 2000
8 2004 1895 2002 2107 1894 1783 1892 2001
8 2006 1897 2004 2109 1896 1785 1894 2003
8 2007 1898 2005 2110 1897 1786 1895 2004
8 2014 1901 2007 2112 1904 1789 1897 2006
8 2011 1899 2008 2113 1901 1787 1898 2007
8 2119 2010 1899 2011 2013 1900 1787 1901
8 2016 1902 2012 2122 1903 1788 1900 2013
8 2017 1903 2013 2123 1904 1789 1901 2014
8 1906 1791 1905 2019 2016 1902 2015 2125
8 1907 1792 1906 2020 2017 1903 2016 2126
8 1909 1793 1908 2022 2019 1905 2018 2128
8 2020 1906 1794 1910 2129 2019 1909 2023
8 1912 1796 1911 2025 2022 1908 2021 2131
8 1913 1797 1912 2026 2023 1909 2022 2132
8 1915 1799 1914 2028 2025 1911 2024 2134
8 1916 1800 1915 2029 2026 1912 2025 2135
8 1918 1804 1919 2031 2028 1914 2027 2136
8 1917 1803 1918 2030 2029 1915 2028 2137
8 1920 1806 1921 2032 2030 1918 2031 2138
8 1940 1827 1941 2054 2035 1923 2033 2140
8 2035 1923 2034 2143 1939 1826 1924 2037
8 2037 1924 2036 2146 1926 1811 1925 2039
8 2051 1939 2037 2147 1944 1829 1926 2040
8 2039 1925 2038 2149 1928 1812 1927 2042
8 2040 1926 2039 2150 1929 1813 1928 2043
8 2042 1927 2041 2151 1931 1814 1930 2044
8 2043 1928 2042 2152 1932 1815 1931 2045
8 2045 1931 2044 2153 1934 1818 1933 2046
8 2155 2047 1936 2048 2086 1976 1864 1977
8 2063 1949 1833 1950 2155 2047 1936 2048
8 2156 2048 1937 2049 2087 1977 1865 1978
8 2064 1950 1834 1951 2156 2048 1937 2049
8 2051 1939 1829 1944 2160 2053 1946 2058
8 2052 1940 2035 2144 2160 2053 1939 2051
8 2053 1942 1831 1946 2163 2057 1948 2060
8 2055 1943 1827 1940 2163 2057 1942 2053
8 2055 1943 2056 2164 1940 1827 1941 2054
8 2059 1947 1849 1966 2167 2060 1965 2078
8 2059 1947 2060 2167 1945 1830 1946 2058
8 2077 1964 2061 2168 1965 1848 1948 2060
8 2070 1963 1847 1959 2170 2062 1949 2063
8 2065 1959 1843 1952 2171 2063 1950 2064
8 2173 2072 1958 2066 2065 1959 1843 1952
8 1953 1842 1958 2066 2067 1957 2071 2174
8 2068 1956 2069 2175 1967 1859 1973 2079
8 2067 1957 2069 2175 1955 1841 1956 2068
8 1845 1957 2069 1960 1961 2071 2176 2073
8 2069 1960 2073 2176 1973 1862 1975 2083
8 2070 1963 2075 2177 1959 1847 1962 2072
8 1846 1958 2071 1961 1962 2072 2178 2074
8 2077 1964 1861 1971 2182 2076 1974 2082
8 2081 1971 2077 2183 1969 1857 1965 2078
8 2079 1973 2083 2184 1968 1860 1972 2080
8 2081 1971 1858 1970 2185 2082 1972 2080
8 2083 1975 2084 2186 1972 1863 1974 2082
8 2086 1976 1882 1987 2189 2085 1993 2095
8 2090 1987 2086 2190 1981 1875 1977 2087
8 2191 2094 1986 2088 2103 1998 1888 1997
8 2088 1986 2094 2191 1980 1877 1989 2089
8 1991 2091 2192 2097 1880 1982 2089 1989
8 2093 1988 2095 2193 1984 1876 1987 2090
8 1879 1983 2092 1990 1991 2091 2194 2098
8 1985 1878 1990 2092 2093 1988 2096 2195
8 2097 1996 1886 1989 2196 2099 1992 2094
8 2196 2099 1992 2094 2104 1999 1889 1998
8 1994 2096 1988 1883 2100 2197 2095 1993
8 2096 1994 1884 1990 2198 2101 1995 2098
8 1995 2098 2199 2102 1885 1991 2097 1996
8 2203 2104 1998 2103 2106 2001 1891 2000
8 2107 2002 2105 2204 2001 1892 1999 2104
8 2109 2004 2107 2206 2003 1894 2001 2106
8 2110 2005 2108 2207 2004 1895 2002 2107
8 2112 2007 2110 2209 2006 1897 2004 2109
8 2113 2008 2111 2210 2007 1898 2005 2110
8 2120 2011 2113 2212 2014 1901 2007 2112
8 2117 2009 2114 2213 2011 1899 2008 2113
8 2219 2116 2009 2117 2119 2010 1899 2011
8 2222 2118 2010 2119 2122 2012 1900 2013
8 2223 2119 2011 2120 2123 2013 1901 2014
8 2016 1902 2015 2125 2122 2012 2121 2225
8 2126 2016 2122 2226 2017 1903 2013 2123
8 2019 1905 2018 2128 2125 2015 2124 2228
8 2020 1906 2019 2129 2126 2016 2125 2229
8 2022 1908 2021 2131 2128 2018 2127 2231
8 2023 1909 2022 2132 2129 2019 2128 2232
8 2025 1911 2024 2134 2131 2021 2130 2234
8 2026 1912 2025 2135 2132 2022 2131 2235
8 1914 2028 2134 2024 2027 2136 2236 2133
8 2029 1915 2028 2137 2135 2025 2134 2237
8 2030 1918 2031 2138 2137 2028 2136 2238
8 2157 2050 2139 2240 2054 1941 2033 2140
8 2052 1940 2054 2161 2144 2035 2140 2242
8 2140 2033 2141 2243 2035 1923 2034 2143
8 2143 2034 2142 2246 2037 1924 2036 2146
8 2144 2035 2143 2247 2051 1939 2037 2147
8 2146 2036 2145 2249 2039 1925 2038 2149
8 2147 2037 2146 2250 2040 1926 2039 2150
8 2149 2038 2148 2251 2042 1927 2041 2151
8 2150 2039 2149 2252 2043 1928 2042 2152
8 2152 2042 2151 2253 2045 1931 2044 2153
8 2255 2154 2047 2155 2189 2085 1976 2086
8 2170 2062 1949 2063 2255 2154 2047 2155
8 2256 2155 2048 2156 2190 2086 1977 2087
8 2171 2063 1950 2064 2256 2155 2048 2156
8 2258 2159 2050 2157 2164 2056 1941 2054
8 2160 2053 1946 2058 2262 2163 2060 2167
8 2162 2055 1940 2052 2262 2163 2053 2160
8 2162 2055 2164 2263 2052 1940 2054 2161
8 2163 2057 1948 2060 2264 2165 2061 2168
8 2055 1943 2057 2163 2164 2056 2165 2264
8 2182 2076 2166 2268 2077 1964 2061 2168
8 2183 2077 2168 2269 2078 1965 2060 2167
8 2070 1963 2062 2170 2177 2075 2169 2271
8 2172 2070 1959 2065 2272 2170 2063 2171
8 2172 2070 2177 2273 2065 1959 2072 2173
8 2066 1958 2072 2173 2174 2071 2178 2274
8 2067 1957 2071 2174 2175 2069 2176 2275
8 2175 2069 2176 2275 2079 1973 2083 2184
8 2071 1961 2074 2178 2176 2073 2179 2276
8 2176 2073 2179 2276 2083 1975 2084 2186
8 2072 1962 2075 2177 2178 2074 2180 2277
8 2182 2076 1974 2082 2280 2181 2084 2186
8 2183 2077 1971 2081 2281 2182 2082 2185
8 2184 2083 2186 2282 2080 1972 2082 2185
8 2189 2085 1993 2095 2285 2188 2100 2197
8 2190 2086 1987 2090 2286 2189 2095 2193
8 2192 2097 1989 2089 2287 2196 2094 2191
8 2287 2196 2094 2191 2203 2104 1998 2103
8 2194 2098 1991 2091 2288 2199 2097 2192
8 2195 2096 2197 2289 2093 1988 2095 2193
8 2096 2195 2290 2198 1990 2092 2194 2098
8 2097 1996 2099 2196 2199 2102 2200 2291
8 2196 2099 1999 2104 2291 2200 2105 2204
8 2100 2197 2292 2201 1994 2096 2198 2101
8 1995 2098 2198 2101 2102 2199 2293 2202
8 2206 2107 2204 2296 2106 2001 2104 2203
8 2207 2108 2205 2297 2107 2002 2105 2204
8 2209 2110 2207 2299 2109 2004 2107 2206
8 2210 2111 2208 2300 2110 2005 2108 2207
8 2212 2113 2210 2302 2112 2007 2110 2209
8 2213 2114 2211 2303 2113 2008 2111 2210
8 2220 2117 2213 2305 2120 2011 2113 2212
8 2216 2115 2214 2306 2117 2009 2114 2213
8 2216 2115 2009 2117 2311 2217 2116 2219
8 2219 2116 2010 2119 2314 2218 2118 2222
8 2315 2219 2117 2220 2223 2119 2011 2120
8 2122 2012 2121 2225 2222 2118 2221 2317
8 2318 2222 2119 2223 2226 2122 2013 2123
8 2125 2015 2124 2228 2225 2121 2224 2320
8 2126 2016 2125 2229 2226 2122 2225 2321
8 2128 2018 2127 2231 2228 2124 2227 2323
8 2129 2019 2128 2232 2229 2125 2228 2324
8 2131 2021 2130 2234 2231 2127 2230 2326
8 2132 2022 2131 2235 2232 2128 2231 2327
8 2134 2024 2133 2236 2234 2130 2233 2328
8 2135 2025 2134 2237 2235 2131 2234 2329
8 2137 2028 2136 2238 2237 2134 2236 2330
8 2157 2050 2158 2259 2240 2139 2239 2332
8 2257 2157 2240 2334 2161 2054 2140 2242
8 2240 2139 2241 2335 2140 2033 2141 2243
8 2242 2140 2243 2337 2144 2035 2143 2247
8 2243 2141 2244 2338 2143 2034 2142 2246
8 2246 2142 2245 2341 2146 2036 2145 2249
8 2247 2143 2246 2342 2147 2037 2146 2250
8 2249 2145 2248 2343 2149 2038 2148 2251
8 2250 2146 2249 2344 2150 2039 2149 2252
8 2252 2149 2251 2345 2152 2042 2151 2253
8 2169 2271 2347 2254 2062 2170 2255 2154
8 2189 2085 2188 2285 2255 2154 2254 2347
8 2348 2255 2155 2256 2286 2189 2086 2190
8 2272 2170 2063 2171 2348 2255 2155 2256
8 2349 2258 2157 2257 2263 2164 2054 2161
8 2258 2159 2261 2351 2157 2050 2158 2259
8 2258 2159 2056 2164 2351 2261 2165 2264
8 2262 2163 2060 2167 2355 2264 2168 2269
8 2162 2055 2163 2262 2263 2164 2264 2355
8 2357 2266 2165 2264 2268 2166 2061 2168
8 2268 2166 2076 2182 2361 2267 2181 2280
8 2281 2182 2268 2362 2183 2077 2168 2269
8 2271 2169 2270 2364 2177 2075 2180 2277
8 2172 2070 2170 2272 2273 2177 2271 2365
8 2072 2173 2274 2178 2177 2273 2366 2277
8 2071 2174 2275 2176 2178 2274 2367 2276
8 2275 2176 2276 2367 2184 2083 2186 2282
8 2283 2187 2084 2186 2368 2278 2179 2276
8 2178 2074 2180 2277 2276 2179 2278 2368
8 2283 2187 2279 2370 2186 2084 2181 2280
8 2281 2182 2082 2185 2371 2280 2186 2282
8 2188 2285 2374 2284 2100 2197 2292 2201
8 2286 2189 2095 2193 2375 2285 2197 2289
8 2192 2097 2196 2287 2288 2199 2291 2376
8 2287 2196 2104 2203 2376 2291 2204 2296
8 2194 2098 2199 2288 2290 2198 2293 2377
8 2289 2197 2096 2195 2378 2292 2198 2290
8 2291 2200 2105 2204 2379 2294 2205 2297
8 2199 2102 2200 2291 2293 2202 2294 2379
8 2198 2101 2202 2293 2292 2201 2295 2380
8 2299 2207 2297 2383 2206 2107 2204 2296
8 2300 2208 2298 2384 2207 2108 2205 2297
8 2302 2210 2300 2386 2209 2110 2207 2299
8 2303 2211 2301 2387 2210 2111 2208 2300
8 2305 2213 2303 2389 2212 2113 2210 2302
8 2306 2214 2304 2390 2213 2114 2211 2303
8 2310 2216 2306 2392 2220 2117 2213 2305
8 2308 2215 2307 2393 2216 2115 2214 2306
8 2308 2215 2115 2216 2396 2309 2217 2311
8 2310 2216 2117 2220 2398 2311 2219 2315
8 2311 2217 2116 2219 2399 2312 2218 2314
8 2314 2218 2118 2222 2402 2313 2221 2317
8 2315 2219 2119 2223 2403 2314 2222 2318
8 2225 2121 2224 2320 2317 2221 2316 2405
8 2226 2122 2225 2321 2318 2222 2317 2406
8 2228 2124 2227 2323 2320 2224 2319 2408
8 2229 2125 2228 2324 2321 2225 2320 2409
8 2231 2127 2230 2326 2323 2227 2322 2411
8 2232 2128 2231 2327 2324 2228 2323 2412
8 2234 2130 2233 2328 2326 2230 2325 2413
8 2235 2131 2234 2329 2327 2231 2326 2414
8 2237 2134 2236 2330 2329 2234 2328 2415
8 2259 2158 2260 2352 2332 2239 2331 2417
8 2257 2157 2259 2350 2334 2240 2332 2419
8 2240 2139 2239 2332 2335 2241 2333 2420
8 2334 2240 2335 2422 2242 2140 2243 2337
8 2335 2241 2336 2423 2243 2141 2244 2338
8 2337 2243 2338 2425 2247 2143 2246 2342
8 2338 2244 2339 2426 2246 2142 2245 2341
8 2341 2245 2340 2428 2249 2145 2248 2343
8 2342 2246 2341 2429 2250 2146 2249 2344
8 2344 2249 2343 2430 2252 2149 2251 2345
8 2188 2285 2347 2254 2284 2374 2432 2346
8 2347 2254 2346 2432 2271 2169 2270 2364
8 2365 2271 2170 2272 2433 2347 2255 2348
8 2286 2189 2285 2375 2348 2255 2347 2433
8 2349 2258 2351 2435 2257 2157 2259 2350
8 2349 2258 2164 2263 2435 2351 2264 2355
8 2259 2158 2261 2351 2352 2260 2354 2437
8 2356 2265 2354 2437 2264 2165 2261 2351
8 2441 2357 2264 2355 2362 2268 2168 2269
8 2356 2265 2165 2264 2442 2358 2266 2357
8 2443 2359 2266 2357 2361 2267 2166 2268
8 2370 2279 2360 2446 2280 2181 2267 2361
8 2362 2268 2182 2281 2447 2361 2280 2371
8 2180 2277 2368 2278 2270 2364 2449 2363
8 2271 2365 2273 2177 2364 2450 2366 2277
8 2372 2283 2186 2282 2451 2368 2276 2367
8 2178 2274 2367 2276 2277 2366 2451 2368
8 2283 2187 2278 2368 2370 2279 2369 2452
8 2372 2283 2370 2453 2282 2186 2280 2371
8 2284 2374 2455 2373 2201 2292 2380 2295
8 2375 2285 2197 2289 2456 2374 2292 2378
8 2376 2291 2204 2296 2457 2379 2297 2383
8 2288 2199 2291 2376 2377 2293 2379 2457
8 2198 2290 2378 2292 2293 2377 2458 2380
8 2293 2202 2294 2379 2380 2295 2381 2459
8 2384 2298 2381 2459 2297 2205 2294 2379
8 2386 2300 2384 2463 2299 2207 2297 2383
8 2387 2301 2385 2464 2300 2208 2298 2384
8 2389 2303 2387 2466 2302 2210 2300 2386
8 2390 2304 2388 2467 2303 2211 2301 2387
8 2392 2306 2390 2469 2305 2213 2303 2389
8 2393 2307 2391 2470 2306 2214 2304 2390
8 2395 2308 2393 2472 2310 2216 2306 2392
8 2308 2215 2309 2396 2393 2307 2394 2473
8 2395 2308 2216 2310 2475 2396 2311 2398
8 2396 2309 2217 2311 2476 2397 2312 2399
8 2398 2311 2219 2315 2478 2399 2314 2403
8 2399 2312 2218 2314 2479 2400 2313 2402
8 2317 2221 2316 2405 2402 2313 2401 2482
8 2403 2314 2222 2318 2483 2402 2317 2406
8 2320 2224 2319 2408 2405 2316 2404 2485
8 2321 2225 2320 2409 2406 2317 2405 2486
8 2323 2227 2322 2411 2408 2319 2407 2488
8 2324 2228 2323 2412 2409 2320 2408 2489
8 2326 2230 2325 2413 2411 2322 2410 2490
8 2327 2231 2326 2414 2412 2323 2411 2491
8 2329 2234 2328 2415 2414 2326 2413 2492
8 2417 2331 2260 2352 2494 2416 2353 2438
8 2350 2259 2352 2436 2419 2332 2417 2496
8 2332 2239 2331 2417 2420 2333 2418 2497
8 2334 2240 2332 2419 2422 2335 2420 2499
8 2420 2333 2421 2500 2335 2241 2336 2423
8 2422 2335 2423 2502 2337 2243 2338 2425
8 2423 2336 2424 2503 2338 2244 2339 2426
8 2425 2338 2426 2505 2342 2246 2341 2429
8 2426 2339 2427 2506 2341 2245 2340 2428
8 2429 2341 2428 2507 2344 2249 2343 2430
8 2432 2346 2284 2374 2509 2431 2373 2455
8 2432 2346 2431 2509 2364 2270 2363 2449
8 2375 2285 2374 2456 2433 2347 2432 2510
8 2347 2433 2365 2271 2432 2510 2450 2364
8 2350 2259 2351 2435 2436 2352 2437 2514
8 2440 2356 2437 2514 2355 2264 2351 2435
8 2352 2260 2354 2437 2438 2353 2439 2516
8 2356 2265 2358 2442 2437 2354 2439 2516
8 2440 2356 2264 2355 2518 2442 2357 2441
8 2519 2443 2357 2441 2447 2361 2268 2362
8 2443 2359 2444 2520 2357 2266 2358 2442
8 2443 2359 2267 2361 2520 2444 2360 2446
8 2446 2360 2279 2370 2523 2445 2369 2452
8 2453 2370 2446 2524 2371 2280 2361 2447
8 2449 2363 2448 2525 2368 2278 2369 2452
8 2366 2277 2364 2450 2451 2368 2449 2526
8 2372 2283 2368 2451 2453 2370 2452 2527
8 2455 2373 2295 2380 2529 2454 2382 2460
8 2456 2374 2292 2378 2530 2455 2380 2458
8 2377 2293 2379 2457 2458 2380 2459 2531
8 2463 2384 2459 2531 2383 2297 2379 2457
8 2533 2461 2382 2460 2459 2381 2295 2380
8 2464 2385 2461 2533 2384 2298 2381 2459
8 2466 2387 2464 2537 2386 2300 2384 2463
8 2467 2388 2465 2538 2387 2301 2385 2464
8 2469 2390 2467 2540 2389 2303 2387 2466
8 2470 2391 2468 2541 2390 2304 2388 2467
8 2472 2393 2470 2543 2392 2306 2390 2469
8 2393 2307 2394 2473 2470 2391 2471 2544
8 2395 2308 2396 2475 2472 2393 2473 2546
8 2396 2309 2397 2476 2473 2394 2474 2547
8 2475 2396 2311 2398 2549 2476 2399 2478
8 2476 2397 2312 2399 2550 2477 2400 2479
8 2478 2399 2314 2403 2552 2479 2402 2483
8 2479 2400 2313 2402 2553 2480 2401 2482
8 2405 2316 2404 2485 2482 2401 2481 2556
8 2406 2317 2405 2486 2483 2402 2482 2557
8 2408 2319 2407 2488 2485 2404 2484 2559
8 2409 2320 2408 2489 2486 2405 2485 2560
8 2411 2322 2410 2490 2488 2407 2487 2561
8 2412 2323 2411 2491 2489 2408 2488 2562
8 2414 2326 2413 2492 2491 2411 2490 2563
8 2513 2434 2493 2565 2438 2353 2416 2494
8 2496 2417 2352 2436 2567 2494 2438 2515
8 2494 2416 2495 2568 2417 2331 2418 2497
8 2419 2332 2417 2496 2499 2420 2497 2570
8 2497 2418 2498 2571 2420 2333 2421 2500
8 2499 2420 2500 2573 2422 2335 2423 2502
8 2500 2421 2501 2574 2423 2336 2424 2503
8 2502 2423 2503 2576 2425 2338 2426 2505
8 2503 2424 2504 2577 2426 2339 2427 2506
8 2505 2426 2506 2578 2429 2341 2428 2507
8 2509 2431 2373 2455 2580 2508 2454 2529
8 2509 2431 2508 2580 2449 2363 2448 2525
8 2432 2510 2581 2509 2374 2456 2530 2455
8 2432 2510 2450 2364 2509 2581 2526 2449
8 2583 2511 2434 2513 2516 2439 2353 2438
8 2436 2352 2437 2514 2515 2438 2516 2588
8 2440 2356 2442 2518 2514 2437 2516 2588
8 2442 2358 2444 2520 2516 2439 2517 2589
8 2519 2443 2520 2591 2441 2357 2442 2518
8 2519 2443 2361 2447 2591 2520 2446 2524
8 2446 2360 2445 2523 2520 2444 2521 2592
8 2525 2448 2522 2593 2452 2369 2445 2523
8 2524 2446 2370 2453 2594 2523 2452 2527
8 2526 2449 2525 2595 2451 2368 2452 2527
8 2534 2462 2528 2597 2460 2382 2454 2529
8 2530 2455 2380 2458 2598 2529 2460 2532
8 2599 2533 2460 2532 2531 2459 2380 2458
8 2537 2464 2533 2599 2463 2384 2459 2531
8 2534 2462 2382 2460 2601 2535 2461 2533
8 2538 2465 2535 2601 2464 2385 2461 2533
8 2540 2467 2538 2604 2466 2387 2464 2537
8 2541 2468 2539 2605 2467 2388 2465 2538
8 2543 2470 2541 2607 2469 2390 2467 2540
8 2470 2391 2471 2544 2541 2468 2542 2608
8 2472 2393 2473 2546 2543 2470 2544 2610
8 2473 2394 2474 2547 2544 2471 2545 2611
8 2475 2396 2476 2549 2546 2473 2547 2613
8 2476 2397 2477 2550 2547 2474 2548 2614
8 2549 2476 2399 2478 2616 2550 2479 2552
8 2479 2400 2480 2553 2550 2477 2551 2617
8 2552 2479 2402 2483 2619 2553 2482 2557
8 2482 2401 2481 2556 2553 2480 2554 2620
8 2485 2404 2484 2559 2556 2481 2555 2623
8 2486 2405 2485 2560 2557 2482 2556 2624
8 2488 2407 2487 2561 2559 2484 2558 2625
8 2489 2408 2488 2562 2560 2485 2559 2626
8 2491 2411 2490 2563 2562 2488 2561 2627
8 2513 2434 2512 2585 2565 2493 2564 2630
8 2586 2513 2565 2632 2515 2438 2494 2567
8 2565 2493 2566 2633 2494 2416 2495 2568
8 2567 2494 2568 2635 2496 2417 2497 2570
8 2568 2495 2569 2636 2497 2418 2498 2571
8 2570 2497 2571 2638 2499 2420 2500 2573
8 2571 2498 2572 2639 2500 2421 2501 2574
8 2573 2500 2574 2641 2502 2423 2503 2576
8 2574 2501 2575 2642 2503 2424 2504 2577
8 2576 2503 2577 2643 2505 2426 2506 2578
8 2597 2528 2579 2645 2529 2454 2508 2580
8 2580 2508 2579 2645 2525 2448 2522 2593
8 2581 2509 2455 2530 2646 2580 2529 2598
8 2581 2509 2580 2646 2526 2449 2525 2595
8 2583 2511 2582 2648 2513 2434 2512 2585
8 2583 2511 2439 2516 2648 2582 2517 2589
8 2649 2583 2513 2586 2588 2516 2438 2515
8 2589 2517 2444 2520 2653 2587 2521 2592
8 2518 2442 2520 2591 2588 2516 2589 2654
8 2593 2522 2590 2655 2523 2445 2521 2592
8 2524 2446 2523 2594 2591 2520 2592 2656
8 2595 2525 2593 2657 2527 2452 2523 2594
8 2602 2536 2596 2659 2534 2462 2528 2597
8 2600 2534 2597 2660 2532 2460 2529 2598
8 2600 2534 2460 2532 2661 2601 2533 2599
8 2604 2538 2601 2661 2537 2464 2533 2599
8 2602 2536 2462 2534 2663 2603 2535 2601
8 2601 2535 2465 2538 2663 2603 2539 2605
8 2607 2541 2605 2665 2540 2467 2538 2604
8 2608 2542 2606 2666 2541 2468 2539 2605
8 2543 2470 2544 2610 2607 2541 2608 2668
8 2544 2471 2545 2611 2608 2542 2609 2669
8 2546 2473 2547 2613 2610 2544 2611 2671
8 2547 2474 2548 2614 2611 2545 2612 2672
8 2549 2476 2550 2616 2613 2547 2614 2674
8 2550 2477 2551 2617 2614 2548 2615 2675
8 2552 2479 2553 2619 2616 2550 2617 2677
8 2553 2480 2554 2620 2617 2551 2618 2678
8 2557 2482 2556 2624 2619 2553 2620 2680
8 2556 2481 2555 2623 2620 2554 2621 2681
8 2559 2484 2558 2625 2623 2555 2622 2683
8 2560 2485 2559 2626 2624 2556 2623 2684
8 2562 2488 2561 2627 2626 2559 2625 2685
8 2690 2629 2564 2630 2650 2584 2512 2585
8 2586 2513 2585 2651 2632 2565 2630 2691
8 2630 2564 2631 2692 2565 2493 2566 2633
8 2632 2565 2633 2694 2567 2494 2568 2635
8 2633 2566 2634 2695 2568 2495 2569 2636
8 2635 2568 2636 2697 2570 2497 2571 2638
8 2636 2569 2637 2698 2571 2498 2572 2639
8 2638 2571 2639 2700 2573 2500 2574 2641
8 2639 2572 2640 2701 2574 2501 2575 2642
8 2641 2574 2642 2702 2576 2503 2577 2643
8 2597 2528 2596 2659 2645 2579 2644 2704
8 2645 2579 2644 2704 2593 2522 2590 2655
8 2660 2597 2645 2705 2598 2529 2580 2646
8 2646 2580 2645 2705 2595 2525 2593 2657
8 2650 2584 2512 2585 2707 2647 2582 2648
8 2648 2582 2517 2589 2707 2647 2587 2653
8 2649 2583 2648 2708 2586 2513 2585 2651
8 2649 2583 2516 2588 2708 2648 2589 2654
8 2655 2590 2652 2710 2592 2521 2587 2653
8 2654 2589 2520 2591 2711 2653 2592 2656
8 2657 2593 2655 2712 2594 2523 2592 2656
8 2602 2536 2603 2663 2659 2596 2658 2714
8 2662 2602 2659 2715 2600 2534 2597 2660
8 2662 2602 2534 2600 2717 2663 2601 2661
8 2661 2601 2538 2604 2717 2663 2605 2665
8 2666 2606 2664 2718 2605 2539 2603 2663
8 2668 2608 2666 2720 2607 2541 2605 2665
8 2608 2542 2609 2669 2666 2606 2667 2721
8 2610 2544 2611 2671 2668 2608 2669 2723
8 2611 2545 2612 2672 2669 2609 2670 2724
8 2613 2547 2614 2674 2671 2611 2672 2726
8 2614 2548 2615 2675 2672 2612 2673 2727
8 2616 2550 2617 2677 2674 2614 2675 2729
8 2617 2551 2618 2678 2675 2615 2676 2730
8 2619 2553 2620 2680 2677 2617 2678 2732
8 2620 2554 2621 2681 2678 2618 2679 2733
8 2624 2556 2623 2684 2680 2620 2681 2735
8 2681 2621 2555 2623 2736 2682 2622 2683
8 2626 2559 2625 2685 2684 2623 2683 2737
8 2688 2628 2584 2650 2740 2686 2647 2707
8 2688 2628 2687 2742 2650 2584 2629 2690
8 2690 2629 2689 2745 2630 2564 2631 2692
8 2746 2690 2630 2691 2709 2650 2585 2651
8 2691 2630 2692 2747 2632 2565 2633 2694
8 2692 2631 2693 2748 2633 2566 2634 2695
8 2694 2633 2695 2750 2635 2568 2636 2697
8 2695 2634 2696 2751 2636 2569 2637 2698
8 2697 2636 2698 2753 2638 2571 2639 2700
8 2698 2637 2699 2754 2639 2572 2640 2701
8 2700 2639 2701 2755 2641 2574 2642 2702
8 2659 2596 2658 2714 2704 2644 2703 2757
8 2704 2644 2703 2757 2655 2590 2652 2710
8 2660 2597 2659 2715 2705 2645 2704 2758
8 2705 2645 2704 2758 2657 2593 2655 2712
8 2759 2706 2647 2707 2710 2652 2587 2653
8 2709 2650 2585 2651 2760 2707 2648 2708
8 2708 2648 2589 2654 2760 2707 2653 2711
8 2712 2655 2710 2761 2656 2592 2653 2711
8 2763 2713 2658 2714 2718 2664 2603 2663
8 2662 2602 2663 2717 2715 2659 2714 2764
8 2720 2666 2718 2767 2665 2605 2663 2717
8 2768 2719 2664 2718 2721 2667 2606 2666
8 2668 2608 2669 2723 2720 2666 2721 2770
8 2669 2609 2670 2724 2721 2667 2722 2771
8 2671 2611 2672 2726 2723 2669 2724 2773
8 2672 2612 2673 2727 2724 2670 2725 2774
8 2674 2614 2675 2729 2726 2672 2727 2776
8 2675 2615 2676 2730 2727 2673 2728 2777
8 2677 2617 2678 2732 2729 2675 2730 2779
8 2678 2618 2679 2733 2730 2676 2731 2780
8 2680 2620 2681 2735 2732 2678 2733 2782
8 2733 2679 2621 2681 2783 2734 2682 2736
8 2735 2681 2623 2684 2784 2736 2683 2737
8 2740 2686 2647 2707 2787 2738 2706 2759
8 2688 2628 2686 2740 2742 2687 2739 2789
8 2743 2688 2650 2709 2790 2740 2707 2760
8 2742 2687 2741 2792 2690 2629 2689 2745
8 2743 2688 2742 2793 2709 2650 2690 2746
8 2745 2689 2744 2795 2692 2631 2693 2748
8 2746 2690 2745 2796 2691 2630 2692 2747
8 2747 2692 2748 2797 2694 2633 2695 2750
8 2748 2693 2749 2798 2695 2634 2696 2751
8 2750 2695 2751 2800 2697 2636 2698 2753
8 2751 2696 2752 2801 2698 2637 2699 2754
8 2753 2698 2754 2802 2700 2639 2701 2755
8 2763 2713 2756 2804 2714 2658 2703 2757
8 2759 2706 2652 2710 2804 2756 2703 2757
8 2715 2659 2714 2764 2758 2704 2757 2805
8 2758 2704 2757 2805 2712 2655 2710 2761
8 2806 2759 2707 2760 2761 2710 2653 2711
8 2765 2716 2762 2808 2718 2664 2713 2763
8 2809 2763 2714 2764 2767 2718 2663 2717
8 2765 2716 2664 2718 2811 2766 2719 2768
8 2813 2768 2718 2767 2770 2721 2666 2720
8 2814 2769 2719 2768 2771 2722 2667 2721
8 2723 2669 2724 2773 2770 2721 2771 2816
8 2724 2670 2725 2774 2771 2722 2772 2817
8 2726 2672 2727 2776 2773 2724 2774 2819
8 2727 2673 2728 2777 2774 2725 2775 2820
8 2729 2675 2730 2779 2776 2727 2777 2822
8 2730 2676 2731 2780 2777 2728 2778 2823
8 2732 2678 2733 2782 2779 2730 2780 2825
8 2780 2731 2679 2733 2826 2781 2734 2783
8 2782 2733 2681 2735 2827 2783 2736 2784
8 2830 2785 2738 2787 2804 2756 2706 2759
8 2789 2739 2686 2740 2832 2786 2738 2787
8 2790 2740 2707 2760 2833 2787 2759 2806
8 2742 2687 2739 2789 2792 2741 2788 2835
8 2743 2688 2740 2790 2793 2742 2789 2836
8 2792 2741 2791 2838 2745 2689 2744 2795
8 2793 2742 2792 2839 2746 2690 2745 2796
8 2795 2744 2794 2841 2748 2693 2749 2798
8 2796 2745 2795 2842 2747 2692 2748 2797
8 2797 2748 2798 2843 2750 2695 2751 2800
8 2798 2749 2799 2844 2751 2696 2752 2801
8 2800 2751 2801 2845 2753 2698 2754 2802
8 2808 2762 2803 2847 2763 2713 2756 2804
8 2809 2763 2804 2848 2764 2714 2757 2805
8 2806 2759 2710 2761 2848 2804 2757 2805
8 2765 2716 2766 2811 2808 2762 2807 2850
8 2810 2765 2808 2851 2767 2718 2763 2809
8 2810 2765 2718 2767 2852 2811 2768 2813
8 2811 2766 2719 2768 2853 2812 2769 2814
8 2855 2814 2768 2813 2816 2771 2721 2770
8 2856 2815 2769 2814 2817 2772 2722 2771
8 2773 2724 2774 2819 2816 2771 2817 2858
8 2774 2725 2775 2820 2817 2772 2818 2859
8 2776 2727 2777 2822 2819 2774 2820 2861
8 2777 2728 2778 2823 2820 2775 2821 2862
8 2779 2730 2780 2825 2822 2777 2823 2864
8 2823 2778 2731 2780 2865 2824 2781 2826
8 2825 2780 2733 2782 2866 2826 2783 2827
8 2869 2828 2785 2830 2847 2803 2756 2804
8 2871 2829 2786 2832 2830 2785 2738 2787
8 2872 2830 2787 2833 2848 2804 2759 2806
8 2789 2739 2786 2832 2835 2788 2831 2874
8 2836 2789 2740 2790 2875 2832 2787 2833
8 2792 2741 2788 2835 2838 2791 2834 2877
8 2793 2742 2789 2836 2839 2792 2835 2878
8 2838 2791 2837 2880 2795 2744 2794 2841
8 2839 2792 2838 2881 2796 2745 2795 2842
8 2841 2794 2840 2882 2798 2749 2799 2844
8 2842 2795 2841 2883 2797 2748 2798 2843
8 2843 2798 2844 2884 2800 2751 2801 2845
8 2886 2846 2803 2847 2850 2807 2762 2808
8 2851 2808 2847 2887 2809 2763 2804 2848
8 2850 2807 2766 2811 2889 2849 2812 2853
8 2810 2765 2811 2852 2851 2808 2850 2890
8 2852 2811 2768 2813 2891 2853 2814 2855
8 2853 2812 2769 2814 2892 2854 2815 2856
8 2894 2856 2814 2855 2858 2817 2771 2816
8 2817 2772 2818 2859 2856 2815 2857 2895
8 2819 2774 2820 2861 2858 2817 2859 2897
8 2820 2775 2821 2862 2859 2818 2860 2898
8 2822 2777 2823 2864 2861 2820 2862 2900
8 2823 2778 2824 2865 2862 2821 2863 2901
8 2864 2823 2780 2825 2902 2865 2826 2866
8 2904 2867 2828 2869 2886 2846 2803 2847
8 2869 2828 2868 2906 2830 2785 2829 2871
8 2907 2869 2830 2872 2887 2847 2804 2848
8 2871 2829 2870 2909 2832 2786 2831 2874
8 2910 2871 2832 2875 2872 2830 2787 2833
8 2835 2788 2831 2874 2877 2834 2873 2912
8 2836 2789 2832 2875 2878 2835 2874 2913
8 2877 2834 2876 2915 2838 2791 2837 2880
8 2839 2792 2835 2878 2881 2838 2877 2916
8 2880 2837 2879 2917 2841 2794 2840 2882
8 2881 2838 2880 2918 2842 2795 2841 2883
8 2883 2841 2882 2919 2843 2798 2844 2884
8 2921 2885 2846 2886 2889 2849 2807 2850
8 2922 2886 2847 2887 2890 2850 2808 2851
8 2889 2849 2812 2853 2924 2888 2854 2892
8 2890 2850 2811 2852 2925 2889 2853 2891
8 2891 2853 2814 2855 2926 2892 2856 2894
8 2892 2854 2815 2856 2927 2893 2857 2895
8 2858 2817 2859 2897 2894 2856 2895 2929
8 2859 2818 2860 2898 2895 2857 2896 2930
8 2861 2820 2862 2900 2897 2859 2898 2932
8 2862 2821 2863 2901 2898 2860 2899 2933
8 2864 2823 2865 2902 2900 2862 2901 2934
8 2904 2867 2846 2886 2936 2903 2885 2921
8 2904 2867 2903 2936 2869 2828 2868 2906
8 2937 2904 2869 2907 2922 2886 2847 2887
8 2906 2868 2905 2939 2871 2829 2870 2909
8 2907 2869 2906 2940 2872 2830 2871 2910
8 2909 2870 2908 2942 2874 2831 2873 2912
8 2910 2871 2909 2943 2875 2832 2874 2913
8 2912 2873 2911 2945 2877 2834 2876 2915
8 2878 2835 2874 2913 2916 2877 2912 2946
8 2915 2876 2914 2947 2880 2837 2879 2917
8 2916 2877 2915 2948 2881 2838 2880 2918
8 2918 2880 2917 2949 2883 2841 2882 2919
8 2921 2885 2849 2889 2951 2920 2888 2924
8 2952 2921 2886 2922 2925 2889 2850 2890
8 2924 2888 2854 2892 2954 2923 2893 2927
8 2925 2889 2853 2891 2955 2924 2892 2926
8 2926 2892 2856 2894 2956 2927 2895 2929
8 2895 2857 2896 2930 2927 2893 2928 2957
8 2897 2859 2898 2932 2929 2895 2930 2959
8 2898 2860 2899 2933 2930 2896 2931 2960
8 2900 2862 2901 2934 2932 2898 2933 2961
8 2936 2903 2885 2921 2963 2935 2920 2951
8 2936 2903 2935 2963 2906 2868 2905 2939
8 2937 2904 2886 2922 2964 2936 2921 2952
8 2937 2904 2936 2964 2907 2869 2906 2940
8 2939 2905 2938 2966 2909 2870 2908 2942
8 2940 2906 2939 2967 2910 2871 2909 2943
8 2942 2908 2941 2969 2912 2873 2911 2945
8 2943 2909 2942 2970 2913 2874 2912 2946
8 2945 2911 2944 2971 2915 2876 2914 2947
8 2946 2912 2945 2972 2916 2877 2915 2948
8 2948 2915 2947 2973 2918 2880 2917 2949
8 2951 2920 2888 2924 2975 2950 2923 2954
8 2952 2921 2889 2925 2976 2951 2924 2955
8 2927 2893 2928 2957 2954 2923 2953 2978
8 2955 2924 2892 2926 2979 2954 2927 2956
8 2929 2895 2930 2959 2956 2927 2957 2980
8 2930 2896 2931 2960 2957 2928 2958 2981
8 2932 2898 2933 2961 2959 2930 2960 2982
8 2951 2920 2950 2975 2963 2935 2962 2984
8 2963 2935 2962 2984 2939 2905 2938 2966
8 2964 2936 2921 2952 2985 2963 2951 2976
8 2964 2936 2963 2985 2940 2906 2939 2967
8 2966 2938 2965 2987 2942 2908 2941 2969
8 2967 2939 2966 2988 2943 2909 2942 2970
8 2969 2941 2968 2989 2945 2911 2944 2971
8 2970 2942 2969 2990 2946 2912 2945 2972
8 2972 2945 2971 2991 2948 2915 2947 2973
8 2954 2923 2953 2978 2975 2950 2974 2993
8 2976 2951 2924 2955 2994 2975 2954 2979
8 2957 2928 2958 2981 2978 2953 2977 2995
8 2956 2927 2957 2980 2979 2954 2978 2996
8 2959 2930 2960 2982 2980 2957 2981 2997
8 2984 2962 2983 2999 2966 2938 2965 2987
8 2975 2950 2974 2993 2984 2962 2983 2999
8 2976 2951 2975 2994 2985 2963 2984 3000
8 2985 2963 2984 3000 2967 2939 2966 2988
8 2987 2965 2986 3001 2969 2941 2968 2989
8 2988 2966 2987 3002 2970 2942 2969 2990
8 2990 2969 2989 3003 2972 2945 2971 2991
8 2978 2953 2977 2995 2993 2974 2992 3004
8 2979 2954 2978 2996 2994 2975 2993 3005
8 2980 2957 2981 2997 2996 2978 2995 3006
8 2974 2993 2999 2983 2992 3004 3007 2998
8 2983 2999 2987 2965 2998 3007 3001 2986
8 3000 2984 2999 3008 2988 2966 2987 3002
8 2994 2975 2993 3005 3000 2984 2999 3008
8 3002 2987 3001 3009 2990 2969 2989 3003
8 2996 2978 2995 3006 3005 2993 3004 3010
8 3005 2993 3004 3010 3008 2999 3007 3011
8 3008 2999 3007 3011 3002 2987 3001 3009

CELL_TYPES 1910
12
12
12
12
12
12
12
12
12
12
12
12
12
12
12
12
12
12
12
12
12
12
12
12
12
12
12
12
12
12
12
12
12
12
12
12
12
12
12
12
12
12
12
12
12
12
12
12
12
12
12
12
12
12
12
12
12
12
12
12
12
12
12
12
12
12
12
12
12
12
12
12
12
12
12
12
12
12
12
12
12
12
12
12
12
12
12
12
12
12
12
12
12
12
12
12
12
12
12
12
12
12
12
12
12
12
12
12
12
12
12
12
12
12
12
12
12
12
12
12
12
12
12
12
12
12
12
12
12
12
12
12
12
12
12
12
12
12
12
12
12
12
12
12
12
12
12
12
12
12
12
12
12
12
12
12
12
12
12
12
12
12
12
12
12
12
12
12
12
12
12
12
12
12
12
12
12
12
12
12
12
12
12
12
12
12
12
12
12
12
12
12
12
12
12
12
12
12
12
12
12
12
12
12
12
12
12
12
12
12
12
12
12
12
12
12
12
12
12
12
12
12
12
12
12
12
12
12
12
12
12
12
12
12
12
12
12
12
12
12
12
12
12
12
12
12
12
12
12
12
12
12
12
12
12
12
12
12
12
12
12
12
12
12
12
12
12
12
12
12
12
12
12
12
12
12
12
12
12
12
12
12
12
12
12
12
12
12
12
12
12
12
12
12
12
12
12
12
12
12
12
12
12
12
12
12
12
12
12
12
12
12
12
12
12
12
12
12
12
12
12
12
12
12
12
12
12
12
12
12
12
12
12
12
12
12
12
12
12
12
12
12
12
12
12
12
12
12
12
12
12
12
12
12
12
12
12
12
12
12
12
12
12
12
12
12
12
12
12
12
12
12
12
12
12
12
12
12
12
12
12
12
12
12
12
12
12
12
12
12
12
12
12
12
12
12
12
12
12
12
12
12
12
12
12
12
12
12
12
12
12
12
12
12
12
12
12
12
12
12
12
12
12
12
12
12
12
12
12
12
12
12
12
12
12
12
12
12
12
12
12
12
12
12
12
12
12
12
12
12
12
12
12
12
12
12
12
12
12
12
12
12
12
12
12
12
12
12
12
12
12
12
12
12
12
12
12
12
12
12
12
12
12
12
12
12
12
12
12
12
12
12
12
12
12
12
12
12
12
12
12
12
12
12
12
12
12
12
12
12
12
12
12
12
12
12
12
12
12
12
12
12
12
12
12
12
12
12
12
12
12
12
12
12
12
12
12
12
12
12
12
12
12
12
12
12
12
12
12
12
12
12
12
12
12
12
12
12
12
12
12
12
12
12
12
12
12
12
12
12
12
12
12
12
12
12
12
12
12
12
12
12
12
12
12
12
12
12
12
12
12
12
12
12
12
12
12
12
12
12
12
12
12
12
12
12
12
12
12
12
12
12
12
12
12
12
12
12
12
12
12
12
12
12
12
12
12
12
12
12
12
12
12
12
12
12
12
12
12
12
12
12
12
12
12
12
12
12
12
12
12
12
12
12
12
12
12
12
12
12
12
12
12
12
12
12
12
12
12
12
12
12
12
12
12
12
12
12
12
12
12
12
12
12
12
12
12
12
12
12
12
12
12
12
12
12
12
12
12
12
12
12
12
12
12
12
12
12
12
12
12
12
12
12
12
12
12
12
12
12
12
12
12
12
12
12
12
12
12
12
12
12
12
12
12
12
12
12
12
12
12
12
12
12
12
12
12
12
12
12
12
12
12
12
12
12
12
12
12
12
12
12
12
12
12
12
12
12
12
12
12
12
12
12
12
12
12
12
12
12
12
12
12
12
12
12
12
12
12
12
12
12
12
12
12
12
12
12
12
12
12
12
12
12
12
12
12
12
12
12
12
12
12
12
12
12
12
12
12
12
12
12
12
12
12
12
12
12
12
12
12
12
12
12
12
12
12
12
12
12
12
12
12
12
12
12
12
12
12
12
12
12
12
12
12
12
12
12
12
12
12
12
12
12
12
12
12
12
12
12
12
12
12
12
12
12
12
12
12
12
12
12
12
12
12
12
12
12
12
12
12
12
12
12
12
12
12
12
12
12
12
12
12
12
12
12
12
12
12
12
12
12
12
12
12
12
12
12
12
12
12
12
12
12
12
12
12
12
12
12
12
12
12
12
12
12
12
12
12
12
12
12
12
12
12
12
12
12
12
12
12
12
12
12
12
12
12
12
12
12
12
12
12
12
12
12
12
12
12
12
12
12
12
12
12
12
12
12
12
12
12
12
12
12
12
12
12
12
12
12
12
12
12
12
12
12
12
12
12
12
12
12
12
12
12
12
12
12
12
12
12
12
12
12
12
12
12
12
12
12
12
12
12
12
12
12
12
12
12
12
12
12
12
12
12
12
12
12
12
12
12
12
12
12
12
12
12
12
12
12
12
12
12
12
12
12
12
12
12
12
12
12
12
12
12
12
12
12
12
12
12
12
12
12
12
12
12
12
12
12
12
12
12
12
12
12
12
12
12
12
12
12
12
12
12
12
12
12
12
12
12
12
12
12
12
12
12
12
12
12
12
12
12
12
12
12
12
12
12
12
12
12
12
12
12
12
12
12
12
12
12
12
12
12
12
12
12
12
12
12
12
12
12
12
12
12
12
12
12
12
12
12
12
12
12
12
12
12
12
12
12
12
12
12
12
12
12
12
12
12
12
12
12
12
12
12
12
12
12
12
12
12
12
12
12
12
12
12
12
12
12
12
12
12
12
12
12
12
12
12
12
12
12
12
12
12
12
12
12
12
12
12
12
12
12
12
12
12
12
12
12
12
12
12
12
12
12
12
12
12
12
12
12
12
12
12
12
12
12
12
12
12
12
12
12
12
12
12
12
12
12
12
12
12
12
12
12
12
12
12
12
12
12
12
12
12
12
12
12
12
12
12
12
12
12
12
12
12
12
12
12
12
12
12
12
12
12
12
12
12
12
12
12
12
12
12
12
12
12
12
12
12
12
12
12
12
12
12
12
12
12
12
12
12
12
12
12
12
12
12
12
12
12
12
12
12
12
12
12
12
12
12
12
12
12
12
12
12
12
12
12
12
12
12
12
12
12
12
12
12
12
12
12
12
12
12
12
12
12
12
12
12
12
12
12
12
12
12
12
12
12
12
12
12
12
12
12
12
12
12
12
12
12
12
12
12
12
12
12
12
12
12
12
12
12
12
12
12
12
12
12
12
12
12
12
12
12
12
12
12
12
12
12
12
12
12
12
12
12
12
12
12
12
12
12
12
12
12
12
12
12
12
12
12
12
12
12
12
12
12
12
12
12
12
12
12
12
12
12
12
12
12
12
12
12
12
12
12
12
12
12
12
12
12
12
12
12
12
12
12
12
12
12
12
12
12
12
12
12
12
12
12
12
12
12
12
12
12
12
12
12
12
12
12
12
12
12
12
12
12
12
12
12
12
12
12
12
12
12
12
12
12
12
12
12
12
12
12
12
12
12
12
12
12
12
12
12
12
12
12
12
12
12
12
12
12
12
12
12
12
12
12
12
12
12
12
12
12
12
12
12
12
12
12
12
12
12
12
12
12
12
12
12
12
12
12
12
12
12
12
12
12
12
12
12
12
12
12
12
12
12
12
12
12
12
12
12
12
12
12
12
12
12
12
12
12
12
12
12
12
12
12
12
12
12
12
12
12
12
12
12
12
12
12
12
12
12
12
12
12
12
12
12
12
12
12
12
12
12
12
12
12
12
12
12
12
12
12
12
12
12
12
12
12
12
12
12
12
12
12
12
12
12
12
12
12
12
12
12
12
12
12
12
12
12
12
12
12
12
12
12
12
12
12
12
12
12
12
12
12
12
12
12
12
12
12
12
12
12
12
12
12
12
12
12
12
12
12
12
12
12
12
12
12
12
12
12
12
12
12
12
12
12
12
12
12
12
12
12
12
12
12
12
12
12
12
12
12
12
12
12
12
12
12
12
12
12
12
12
12
12
12
12
12
12
12
12
12
12
12
12
12
12
12
12
12
12
12
12
12
12
12
12
12
12
12
12
12
12
12
12
12
12
12
12
12
12
12
12
12
12
12
12
12
12
12
12
12
12
12
12
12
12
12
12
12
12
12
12
12
12
12
12
12
12
12
12
12
12
12
12
12
12
12
12
12
12
12
12
12
12
12
12
12
12
12
12
12
12
12
12
12
12
12
12
12
12
12
12
12
12
12
12
12
12
12
12
12
12
12
12
12
12
12
12
12
12
12
12
12
12
12
12
12
12
12
12
12
12
12
12
12
12
12
12
12
12
12
12
12
12
12
12
12
12
12
12
12
12
12
12
12
12
12
12
12
12
12
12
12
12
12
12
12
12
12
12
12
12
12

POINT_DATA 3012
SCALARS Jp_lamdaP float 4
LOOKUP_TABLE default
0.999264 1 1 0.999264
1 1 1 1
0.999288 1 1 0.999288
0.999216 1 1 0.999216
0.999268 1 1 0.999268
0.999228 1 1 0.999228
1.02268 1.02475 1 0.997978
1 1 1 1
1 1 1 1
1 1 1 1
0.999278 1 1 0.999278
1.01916 1.02134 1 0.997866
0.999305 1 1 0.999305
0.99927 1 1 0.99927
0.9993 1 1 0.9993
0.999261 1 1 0.999261
0.999244 1 1 0.999244
0.999303 1 1 0.999303
1.02251 1.02459 1 0.99797
1 1 1 1
0.999214 1 1 0.999214
0.999244 1 1 0.999244
1.01464 1.01675 1 0.99793
1.01953 1.02158 1 0.99799
0.999209 1 1 0.999209
1.02462 1.02674 1 0.997935
1.06022 1.06435 1 0.996119
0.999997 1 1 0.999997
0.999642 1 1 0.999642
0.999651 1 1 0.999651
0.999997 1 1 0.999997
1.01704 1.01916 1.00004 0.997872
0.999278 1 1 0.999278
0.999301 1 1 0.999301
1.02102 1.02283 1 0.998234
1 1 1 1
1.02302 1.02479 1 0.998269
1.01157 1.01291 1.0008 0.997878
1.04727 1.05143 1.00015 0.995895
1 1 1 1
1 1 1 1
0.99964 1 1 0.99964
1 1 1 1
0.999301 1 1 0.999301
1.0037 1.00587 1 0.99784
1 1 1 1
1.01052 1.01237 1 0.998179
0.9993 1 1 0.9993
0.99933 1 1 0.99933
0.999251 1 1 0.999251
1.02244 1.02452 1 0.997969
0.999623 1 1 0.999623
0.999254 1 1 0.999254
0.999223 1 1 0.999223
0.999287 1 1 0.999287
1.01441 1.01653 1 0.997916
1.02437 1.02649 1 0.99793
1.01935 1.02141 1 0.997981
1.06115 1.06528 1 0.996118
1 1 1 1
0.999245 1 1 0.999245
1.00484 1.00655 1 0.998303
1.01135 1.01345 1 0.997932
1.01725 1.01933 1 0.997963
1.06053 1.06471 1 0.996076
1.06044 1.06457 1 0.996115
0.999208 1 1 0.999208
1.01495 1.01691 1.00013 0.997939
1.05938 1.06354 1 0.996095
1.08017 1.08515 1 0.995408
1 1 1 1
1 1 1 1
1 1 1 1
1.01504 1.0172 1 0.997878
1 1 1 1
1 1 1 1
1.02107 1.02327 1 0.997853
0.999695 1 1 0.999695
1.02217 1.02431 1 0.997906
1.00956 1.0105 1.00093 0.998142
1.05132 1.05566 1 0.995889
1 1 1 1
1.00537 1 1.00633 0.99905
1.01845 1.02073 1 0.997773
1.02201 1.0242 1 0.997863
1.06611 1.07066 1 0.995749
1.00575 1.0051 1.00207 0.998584
1.05934 1.0637 1 0.995898
1.0413 1.04317 1.0022 0.996013
1.07863 1.08379 1 0.995235
1 1 1 1
1 1 1 1
1 1 1 1
1 1 1 1
1 1 1 1
0.999653 1 1 0.999653
1.00462 1.00657 1 0.998059
0.999633 1 1 0.999633
1.01186 1.01389 1 0.997993
1 1 1 1
1.00248 1.00459 1 0.997904
1.00669 1.0085 1 0.998211
1.05788 1.06227 1 0.995861
1.01531 1.01714 1 0.9982
1.06546 1.06994 1 0.995812
0.99933 1 1 0.99933
0.999291 1 1 0.999291
0.999231 1 1 0.999231
0.999324 1 1 0.999324
1.01417 1.0163 1 0.997904
1.01918 1.02125 1 0.997976
1.02371 1.02583 1 0.997929
1.06249 1.06663 1 0.996118
1 1 1 1
0.999283 1 1 0.999283
1.00436 1.00641 1 0.997963
1.01107 1.01319 1 0.997914
0.999611 1 1 0.999611
1.01641 1.01804 1.00034 0.998063
1.01701 1.0191 1 0.997952
1.06095 1.06512 1 0.996084
1.0595 1.06365 1 0.996094
1.06129 1.06543 1 0.996116
1.07953 1.08449 1 0.995419
1.00348 1.00556 1 0.997925
1.00749 1.00954 1 0.997972
1.05477 1.05919 0.999608 0.996223
1.05835 1.06264 0.999827 0.996127
1.06011 1.06425 1 0.99611
1.09141 1.09786 0.998389 0.995728
1 1 1 1
1.08533 1.09031 0.999903 0.995531
1.00562 1.00594 1.00175 0.997939
1.05181 1.05617 1 0.99587
1.07561 1.08071 1 0.99528
1.08075 1.08738 0.998248 0.995655
1.00334 1.00056 1.00425 0.998534
1.01249 1.0031 1.01235 0.997048
1 1 1 1
1 1 1 1
1.02143 1.02363 1 0.997856
1 1 1 1
1.00685 1.00746 1.00142 0.997985
1.02193 1.02407 1 0.997911
1.05495 1.05932 1 0.995882
1 1 1 1
1.00603 1 1.00697 0.999073
1.01943 1.02148 1 0.997993
1.02264 1.02462 1 0.998067
1.06523 1.06978 1 0.995745
1.00462 1.00334 1.00296 0.998332
1.05906 1.06343 1 0.995896
1.04151 1.04365 1.00195 0.996007
1.07777 1.0829 1 0.995261
1.00452 1.00096 1.00487 0.998696
1.00761 1 1.00828 0.999334
1.01722 1.00665 1.01301 0.997523
1.06721 1.07179 1 0.995727
1.06568 1.07015 1 0.995824
1.08944 1.09484 0.99959 0.995473
1.03013 1.02999 1.00371 0.996438
1.076 1.0809 1 0.995466
1.06859 1.07261 1.00108 0.995173
1.08842 1.09354 1 0.995321
1 1 1 1
1 1 1 1
1 1 1 1
1.00466 1.00009 1.00576 0.99882
1 1 1 1
1 1 1 1
1 1 1 1
1.013 1.01521 1 0.997815
1.00511 1.00724 1 0.997887
1 1 1 1
1 1 1 1
1.00273 1.00483 1 0.997904
1.00757 1.00956 1 0.99803
1.05721 1.0616 1 0.995863
1.016 1.01825 1 0.997793
1.06338 1.06786 1 0.99581
1.0025 1.0046 1 0.997912
1.05523 1.05963 1 0.995848
1.06131 1.06573 1 0.995857
1.09109 1.09962 0.996278 0.995952
1.06737 1.07192 1 0.995755
1.0906 1.09854 0.996893 0.995864
1 1 1 1
0.999321 1 1 0.999321
1.00382 1.00625 1 0.99758
1.01081 1.01294 1 0.997899
1 1 1 1
1.01782 1.01967 1 0.998191
1.01678 1.01887 1 0.997944
1.06133 1.06549 1 0.996093
1.0622 1.06634 1 0.996116
1.05868 1.06283 1 0.996094
1.07809 1.08304 1 0.995429
1.00314 1.00522 1 0.997923
1.00731 1.00937 1 0.997956
1.05519 1.05988 0.999506 0.996068
1.05935 1.06359 0.999907 0.996105
1 1 1 1
1.00863 1.00957 1.00096 0.998118
1.04876 1.0525 1.00044 0.996005
1.06064 1.0648 1 0.9961
1.08952 1.09674 0.997633 0.995772
1.07514 1.08024 1 0.995285
1.08554 1.09056 0.999853 0.995547
1.08026 1.08688 0.998237 0.995663
1.00341 1.00104 1.00385 0.998518
1.01331 1.00528 1.01098 0.997041
1.05395 1.05834 1 0.99586
1.05673 1.06131 0.999494 0.996188
1.09098 1.09852 0.997227 0.995895
1.09031 1.0983 0.996853 0.995861
1.08721 1.09438 0.997752 0.995693
1.08047 1.09351 0.991962 0.996082
1.00365 1.00249 1.00294 0.998221
1.08054 1.09066 0.994815 0.99589
1.04311 1.04547 1.00171 0.996044
1.07539 1.08062 1 0.995162
1.08235 1.08749 0.999915 0.995365
1.07444 1.08749 0.991929 0.996036
1.01591 1.01153 1.00775 0.996605
1.01353 1.00081 1.01514 0.997605
1.01977 1.01328 1.01028 0.996168
1.01998 1.02221 1 0.997814
1 1 1 1
1.00608 1 1.00699 0.999097
1.02277 1.02492 1 0.997901
1.06454 1.0691 1 0.995741
1.00404 1.00215 1.00355 0.998332
1.04332 1.04622 1.00123 0.996002
1.05823 1.0626 1 0.995894
1.07827 1.08337 1 0.995286
1.00465 1.00069 1.00524 0.998724
1.00697 1 1.00762 0.999353
1.01449 1.00407 1.01288 0.997525
1.06574 1.07032 1 0.995721
1.06412 1.06859 1 0.995823
1.08959 1.09495 0.999635 0.995468
1.02713 1.02728 1.00343 0.996438
1.0773 1.08222 1 0.995456
1.07235 1.07678 1.00073 0.995157
1.08849 1.09357 1 0.995356
1.00674 1 1.0072 0.999544
1.02 1.01526 1.00772 0.996976
1.01759 1.00167 1.01793 0.997994
1.01602 1.01335 1.00575 0.996908
1.08954 1.09597 0.99854 0.995583
1.08427 1.08924 1 0.995444
1.08439 1.09517 0.994453 0.995686
1.04899 1.04739 1.0061 0.995449
1.07926 1.08447 0.999493 0.995699
1.07623 1.07986 1.00158 0.995066
1.10108 1.10611 1 0.99545
1.00273 1 1.00366 0.999082
1.00061 1 1.00083 0.99978
1 1 1 1
1 1 1 1
1 1 1 1
1.00489 1 1.00572 0.999177
1 1 1 1
1.00472 1.00012 1.00581 0.998797
1 1 1 1
1.01729 1.01954 1 0.997795
1.00857 1.01073 1 0.997855
1.06175 1.06622 1 0.995809
1.05661 1.061 1 0.995864
1.00303 1.00514 1 0.997906
1 1 1 1
1.00245 1.00454 1 0.997912
1.05513 1.05952 1 0.99585
1.06027 1.06469 1 0.995857
1.09114 1.09962 0.996319 0.99595
1.06569 1.07024 1 0.99575
1.09182 1.09971 0.996955 0.995862
1.05381 1.05821 1 0.995848
1.09109 1.09957 0.996339 0.995933
1.09135 1.09942 0.99671 0.995934
1.07653 1.09084 0.990529 0.996323
1.09006 1.09748 0.997486 0.995735
1.08024 1.09435 0.990879 0.996185
1.00287 1.00496 1 0.997922
1.00712 1.0092 1 0.997939
1.0556 1.06059 0.999377 0.995914
1.06038 1.06455 1 0.996083
0.999998 1 1 0.999998
1.01163 1.01246 1.00087 0.998302
1.04654 1.04997 1.0006 0.996138
1.06116 1.06533 1 0.996089
1.0877 1.09572 0.996859 0.995816
1.08575 1.0908 0.999804 0.995564
1.07637 1.08147 1 0.995291
1.08026 1.0869 0.998209 0.99567
1.00345 1.00152 1.00343 0.998502
1.01542 1.00758 1.01078 0.997034
1.05419 1.05877 0.999788 0.995884
1.05738 1.06184 0.999618 0.996182
1.09028 1.09823 0.996824 0.995924
1.0901 1.09745 0.997478 0.995815
1.00402 1.00335 1.00246 0.998207
1.04094 1.04311 1.00188 0.996046
1.07817 1.08341 1 0.995162
1.0879 1.09436 0.998427 0.995664
1.08031 1.09418 0.991153 0.996135
1.08198 1.08709 0.99992 0.995385
1.0802 1.09043 0.994711 0.995891
1.07418 1.08761 0.991595 0.996018
1.01937 1.01507 1.00766 0.996602
1.01978 1.01129 1.01227 0.996166
1.01515 1.0011 1.01646 0.99761
1.09116 1.09863 0.997302 0.995887
1.09067 1.09898 0.996526 0.995903
1.07601 1.08875 0.992021 0.996254
1.07858 1.09301 0.990579 0.996176
1.07994 1.09378 0.991252 0.996057
1.07412 1.0949 0.984542 0.996428
1.02754 1.02714 1.00411 0.996305
1.06995 1.09024 0.9851 0.99623
1.07107 1.07619 1 0.995246
1.08026 1.08569 1 0.995003
1.07555 1.08269 0.997849 0.995543
1.06566 1.08609 0.984823 0.996306
1.01824 1.0032 1.01703 0.997998
1.03317 1.02626 1.01099 0.995794
1.01634 1.00159 1.01812 0.996658
1.02613 1.02059 1.00977 0.995699
1.06434 1.06892 1 0.995715
1.00683 1 1.00746 0.99937
1.00474 1.00021 1.00579 0.998752
1.01426 1.0022 1.01454 0.997526
1.06293 1.06739 1 0.995821
1.08964 1.09496 0.999681 0.995462
1.02197 1.02203 1.00352 0.996438
1.07243 1.07715 1.00048 0.995141
1.07867 1.0836 1 0.995445
1.08633 1.09136 1 0.99539
1.00561 1 1.00605 0.999558
1.01639 1.01103 1.00834 0.996993
1.01811 1.00166 1.01847 0.997989
1.01432 1.01049 1.0069 0.996912
1.09075 1.09704 0.998688 0.995577
1.08479 1.08975 1 0.995441
1.084 1.0948 0.994421 0.995686
1.04864 1.0466 1.00654 0.995441
1.07808 1.08332 0.999502 0.995662
1.07161 1.07508 1.00173 0.995052
1.10091 1.10581 1 0.995568
1.00263 1 1.00295 0.99968
1.01555 1 1.01723 0.998355
1.02672 1.02403 1.00649 0.996163
1.0203 1.00715 1.01583 0.997268
1.01503 1.01327 1.00504 0.996716
1.08257 1.09725 0.990755 0.995834
1.08194 1.08924 0.997643 0.995652
1.07501 1.09174 0.988755 0.995874
1.03774 1.03885 1.00383 0.99512
1.08285 1.09062 0.997068 0.995796
1.05811 1.06247 1.00086 0.995038
1.00494 1 1.00606 0.998889
1.00839 1 1.01008 0.998331
1.00006 1 1.00082 0.999248
1.00173 1 1.00265 0.999085
0.999872 1 1 0.999872
1.00026 1 1.00047 0.999797
0.999984 1 1 0.999984
1 1 1 1
1 1 1 1
1.00247 1 1.00297 0.999501
1 1 1 1
1.00535 1 1.0062 0.999148
1 1 1 1
1.00417 1.00016 1.00524 0.998773
1 1 1 1
1.06371 1.06825 1 0.995744
1.05895 1.06335 1 0.995857
1.09269 1.10048 0.997048 0.995859
1.09111 1.09954 0.996363 0.995949
1.05495 1.05934 1 0.995851
1.00227 1.00437 1 0.997911
1.05403 1.05842 1 0.995848
1.09093 1.09942 0.99633 0.995934
1.09142 1.09956 0.99665 0.995933
1.07595 1.09097 0.989859 0.996339
1.09127 1.09863 0.997559 0.995731
1.08002 1.09398 0.991023 0.996185
1.09081 1.09905 0.996561 0.995921
1.07556 1.0905 0.989919 0.996348
1.07841 1.09202 0.991222 0.996282
1.07919 1.09823 0.986086 0.996533
1.0797 1.09586 0.989186 0.996026
1.0788 1.10097 0.983307 0.996496
1.05427 1.05907 0.999556 0.995908
1.05807 1.06239 0.99976 0.996176
1.08965 1.09796 0.996463 0.995953
1.0898 1.09652 0.998088 0.995768
1.00497 1.00473 1.00206 0.998193
1.04004 1.0419 1.00218 0.996049
1.08109 1.08635 1 0.995163
1.08855 1.0943 0.999105 0.995636
1.08006 1.09477 0.990338 0.996189
1.07969 1.09003 0.994606 0.995891
1.08125 1.08631 0.999934 0.995404
1.07372 1.08757 0.991235 0.996
1.02329 1.01915 1.00748 0.996599
1.01806 1.00967 1.01219 0.996164
1.01531 1.00158 1.01614 0.997616
1.09057 1.09827 0.997075 0.995908
1.08999 1.09847 0.996361 0.995902
1.07567 1.08923 0.991224 0.996297
1.07935 1.09326 0.991089 0.996151
1.03209 1.03148 1.0043 0.99631
1.07142 1.07651 1.00002 0.995252
1.08039 1.08578 1.00003 0.995003
1.0804 1.09349 0.991999 0.996004
1.07379 1.09521 0.983916 0.996472
1.07643 1.0833 0.998139 0.995505
1.0702 1.09049 0.985108 0.99623
1.06543 1.08656 0.984149 0.996345
1.03105 1.02658 1.00859 0.995799
1.02307 1.01806 1.00932 0.99564
1.01525 1.00277 1.01447 0.998003
1.01408 1.0019 1.01549 0.996728
1.07589 1.08916 0.991482 0.996303
1.0785 1.09226 0.991158 0.996214
1.07471 1.0931 0.986678 0.996451
1.0717 1.0966 0.980717 0.996509
1.0719 1.09294 0.984306 0.996386
1.07596 1.10148 0.980135 0.99663
1.05155 1.05442 1.00181 0.995472
1.06274 1.09056 0.977837 0.996583
1.06505 1.07042 1 0.994984
1.07329 1.07869 1.00006 0.994929
1.07232 1.08327 0.994274 0.995593
1.06691 1.08969 0.982659 0.996374
1.01409 1.0044 1.01149 0.998178
1.02423 1.00926 1.01789 0.996999
1.02872 1.03018 1.0032 0.995402
1.01521 1.00571 1.01321 0.996286
1.02334 1.01636 1.01145 0.995468
1.00448 1 1.00491 0.999574
1.092 1.09814 0.998835 0.995571
1.01679 1.00171 1.0171 0.997983
1.01306 1.00707 1.00896 0.997011
1.01123 1.00708 1.00723 0.996916
1.08522 1.0902 1 0.995438
1.08354 1.09438 0.994389 0.995686
1.05169 1.05112 1.00513 0.995434
1.07081 1.07408 1.00193 0.995038
1.0773 1.08257 0.999505 0.995625
1.10172 1.10649 1 0.995685
1.00193 1 1.00224 0.999691
1.01639 1.00002 1.01804 0.998364
1.0259 1.02311 1.00657 0.996177
1.01972 1.00598 1.01644 0.997254
1.01625 1.01371 1.00595 0.996583
1.08196 1.09668 0.990711 0.995831
1.08162 1.08895 0.997603 0.995653
1.07404 1.09094 0.988595 0.995863
1.03876 1.04042 1.00331 0.995116
1.08795 1.09563 0.997215 0.995765
1.05894 1.06313 1.00096 0.995099
1.0087 1 1.01005 0.998659
1.01982 1.00254 1.01972 0.997557
1.014 1.01494 1.00331 0.995778
1.02655 1.01514 1.01443 0.996857
1.02591 1.02455 1.00502 0.996331
1.07697 1.09948 0.983396 0.996062
1.0753 1.08591 0.994397 0.995808
1.06322 1.08576 0.983094 0.996088
1.00994 1.01105 1.00379 0.995133
1.0534 1.05885 0.999678 0.995174
1.00495 1 1.00607 0.998892
1.00848 1.00002 1.01033 0.998157
1.00892 1 1.01062 0.998314
1.00724 1 1.00911 0.998153
1.00419 1 1.00572 0.998479
0.999551 1 1.0002 0.999349
1.00026 1 1.00101 0.999252
0.999925 1 1 0.999925
1.00151 1 1.00243 0.999087
0.999887 1 1 0.999887
1 1 1 1
1.00001 1 1.00019 0.999814
0.999992 1 1 0.999992
1 1 1 1
1.00267 1 1.00298 0.999689
1.00423 1 1.00474 0.999487
1 1 1 1
1 1 1 1
1.0064 1 1.00729 0.999119
1 1 1 1
1.09264 1.09994 0.997626 0.995727
1.09178 1.10002 0.996561 0.995931
1.07993 1.09374 0.991159 0.996184
1.07545 1.09118 0.989196 0.996355
1.09077 1.09927 0.996319 0.995934
1.05447 1.05886 1 0.995848
1.09064 1.09889 0.99656 0.995922
1.07571 1.0904 0.990156 0.996343
1.07859 1.09221 0.991218 0.996282
1.07814 1.09798 0.98532 0.99656
1.07934 1.09563 0.989071 0.996023
1.07876 1.10117 0.98307 0.996519
1.07565 1.08992 0.990553 0.99632
1.07785 1.0981 0.98499 0.996519
1.07916 1.09887 0.985421 0.996586
1.08033 1.10593 0.980111 0.996677
1.07823 1.10141 0.982573 0.996316
1.08304 1.10924 0.979603 0.996711
1.09006 1.09795 0.996869 0.99593
1.08927 1.09794 0.996184 0.995901
1.07525 1.08967 0.990388 0.996341
1.08016 1.09353 0.991613 0.996126
1.03419 1.03323 1.00463 0.996315
1.06868 1.0737 1.00007 0.995256
1.07987 1.0851 1.00018 0.995003
1.08092 1.09323 0.992762 0.99595
1.07355 1.09552 0.983372 0.996517
1.07062 1.0909 0.985125 0.996229
1.07726 1.0839 0.998403 0.995467
1.06523 1.08704 0.983494 0.996385
1.0302 1.02547 1.00885 0.995804
1.02259 1.01491 1.01204 0.99558
1.01395 1.00252 1.01342 0.998006
1.01221 1.00225 1.01319 0.996798
1.07608 1.08933 0.991501 0.996302
1.07836 1.09209 0.991199 0.996199
1.0741 1.09284 0.986328 0.996479
1.07295 1.09682 0.981683 0.996492
1.05075 1.05112 1.0042 0.995472
1.06454 1.06985 1.00003 0.995004
1.07263 1.07777 1.00031 0.994916
1.07282 1.09322 0.984946 0.996338
1.07344 1.09995 0.97914 0.996685
1.07036 1.08126 0.994318 0.99558
1.06384 1.09166 0.977854 0.996583
1.06537 1.08862 0.982129 0.996449
1.02885 1.02858 1.00488 0.995411
1.02114 1.01375 1.01189 0.995453
1.01814 1.0056 1.01624 0.996287
1.01425 1.00299 1.01308 0.998163
1.02163 1.00456 1.02002 0.997028
1.07655 1.09662 0.985153 0.996496
1.07681 1.09952 0.982789 0.996498
1.07215 1.10603 0.972606 0.996671
1.06861 1.09685 0.977505 0.996677
1.04276 1.04777 1.00002 0.995203
1.06375 1.09416 0.975388 0.996746
1.04486 1.05003 1.00029 0.994784
1.06006 1.0668 0.998851 0.994818
1.0652 1.08275 0.988133 0.995606
1.00885 1 1.01032 0.998551
1.02005 1.00072 1.02202 0.997358
1.02239 1.01301 1.0126 0.996708
1.02067 1.01901 1.00634 0.99532
1.02259 1.00798 1.0188 0.995779
1.0214 1.01124 1.01476 0.995347
1.00109 1 1.00139 0.999702
1.01735 1 1.01901 0.998373
1.08127 1.09603 0.990667 0.995828
1.02184 1.00426 1.02032 0.99724
1.02487 1.02011 1.00851 0.996191
1.01815 1.01474 1.00693 0.996452
1.081 1.08836 0.997571 0.995654
1.07325 1.09033 0.988436 0.995853
1.03755 1.03947 1.00306 0.995114
1.05828 1.0626 1.00077 0.995161
1.09336 1.10096 0.997356 0.995734
1.00923 1 1.01058 0.998665
1.02131 1.00129 1.02249 0.997562
1.0202 1.01982 1.00472 0.995676
1.02767 1.01362 1.01705 0.996865
1.02645 1.02538 1.00475 0.996304
1.07566 1.09801 0.983525 0.996058
1.07883 1.08942 0.994462 0.995793
1.06617 1.08948 0.982424 0.996108
1.01235 1.01402 1.00324 0.995123
1.05062 1.05606 0.999719 0.995131
1.01395 1.00101 1.01504 0.997922
1.0259 1.00349 1.02525 0.99715
1.00895 1.01046 1.00288 0.995632
1.03527 1.02487 1.01373 0.99647
1.04868 1.05157 1.00111 0.99615
1.06386 1.09851 0.971818 0.99654
1.08095 1.09356 0.992844 0.995595
1.07534 1.09521 0.98579 0.996012
1.01557 1.01609 1.00433 0.995183
1.02227 1.02752 1 0.994889
1.00432 1 1.00543 0.998895
1.00809 1.00011 1.00984 0.998157
1.00177 1 1.0036 0.998174
1.00679 1 1.00851 0.998295
1.00348 1 1.00501 0.998475
1.00842 1 1.01028 0.998158
1.00342 1 1.00515 0.998272
1.00801 1 1.00992 0.998102
1.0007 1 1.00212 0.998578
0.999357 1 1 0.999357
0.999348 1 1 0.999348
0.999959 1 1 0.999959
0.999769 1 1.00051 0.999256
0.999935 1 1 0.999935
1 1 1 1
0.999902 1 1 0.999902
0.999997 1 1 0.999997
1 1 1 1
1.00035 1 1.00053 0.999824
1.00202 1 1.00235 0.999671
1 1 1 1
1.0048 1 1.00533 0.999473
1 1 1 1
1 1 1 1
1.079 1.09541 0.988955 0.996019
1.0786 1.09221 0.991227 0.996283
1.07871 1.10139 0.98281 0.996542
1.07701 1.09768 0.984526 0.996587
1.07589 1.09032 0.990392 0.996338
1.09037 1.09861 0.996562 0.995922
1.07592 1.08984 0.99089 0.996304
1.07842 1.0981 0.985516 0.996512
1.07884 1.09832 0.985638 0.996573
1.07789 1.10468 0.978988 0.996685
1.07866 1.10156 0.982826 0.996319
1.08006 1.10765 0.978269 0.996746
1.07856 1.09782 0.985918 0.996492
1.08166 1.10874 0.978829 0.996681
1.07928 1.10814 0.977128 0.996759
1.07422 1.10969 0.971207 0.996737
1.07629 1.08952 0.99152 0.996302
1.07829 1.09197 0.99125 0.996183
1.07357 1.09265 0.985984 0.996507
1.07424 1.09708 0.982641 0.996475
1.05202 1.05186 1.00469 0.995472
1.06553 1.07086 1 0.995024
1.07181 1.07668 1.00058 0.994903
1.0736 1.09343 0.985515 0.99629
1.07091 1.09845 0.97812 0.99674
1.06467 1.09247 0.977893 0.996582
1.06842 1.07937 0.99426 0.995566
1.06475 1.08822 0.981846 0.996524
1.02536 1.02477 1.00518 0.99542
1.01642 1.01131 1.00966 0.995438
1.02165 1.00617 1.01916 0.996288
1.01182 1.00217 1.0115 0.998153
1.0199 1.00068 1.02221 0.997059
1.07639 1.09637 0.985231 0.996497
1.07747 1.10007 0.982901 0.996495
1.07336 1.1055 0.974182 0.996664
1.0421 1.04691 1.00021 0.995202
1.04558 1.05076 1.00026 0.994811
1.05894 1.06497 0.999528 0.994808
1.06894 1.09657 0.978067 0.996665
1.06606 1.08386 0.987793 0.995739
1.06127 1.09181 0.975233 0.996713
1.00822 1 1.00961 0.998627
1.01708 1.01596 1.0058 0.995318
1.02163 1.01066 1.0155 0.995423
1.0264 1.01045 1.02011 0.99576
1.02412 1.01282 1.01446 0.996736
1.02275 1.00426 1.02117 0.997304
1.08045 1.10664 0.979702 0.996562
1.07736 1.11301 0.971235 0.996635
1.06595 1.10526 0.967601 0.996732
1.05769 1.09712 0.9671 0.996858
1.02437 1.02911 1.00031 0.995084
1.05413 1.07964 0.979996 0.996297
1.02882 1.03281 1.00165 0.994509
1.04206 1.05209 0.995736 0.994709
1.00193 1 1.00283 0.999106
1.01741 1 1.01957 0.997882
1.01953 1.00696 1.01551 0.997026
1.02959 1.0096 1.02367 0.996212
1.01174 1.00618 1.0102 0.995373
1.02686 1.00891 1.02273 0.99516
1.01002 1 1.01137 0.998671
1.01879 1 1.02127 0.997566
1.07436 1.09654 0.983651 0.996053
1.02594 1.01187 1.01709 0.996873
1.02622 1.02498 1.00566 0.995573
1.02547 1.02468 1.00451 0.996275
1.08254 1.09311 0.994533 0.995778
1.06879 1.09294 0.981699 0.996128
1.01556 1.01777 1.00273 0.995111
1.04762 1.05288 0.999917 0.995088
1.01222 1.00017 1.01415 0.99793
1.02507 1.00322 1.02476 0.997099
1.00993 1.01092 1.00341 0.99562
1.03641 1.02743 1.01233 0.996448
1.05426 1.05773 1.00056 0.996171
1.06695 1.10117 0.972239 0.996587
1.08063 1.09318 0.99283 0.995654
1.07564 1.09467 0.986451 0.99611
1.01822 1.01852 1.00458 0.995145
1.02103 1.02636 1.00003 0.994779
1.00892 1 1.01118 0.997765
1.02432 1.00357 1.02386 0.99689
1.02886 1.02938 1.00378 0.995727
1.04592 1.04686 1.00303 0.996085
1.06751 1.12696 0.950272 0.996819
1.05981 1.0949 0.971283 0.996574
1.05967 1.06688 0.998152 0.995074
1.03002 1.03104 1.00426 0.994778
1.0072 1 1.00905 0.998158
1.00324 0.999944 1.00516 0.998147
1.00115 0.998905 1.00379 0.998464
1.00505 1 1.00659 0.998472
1.011 1 1.01286 0.998162
1.00101 1 1.00245 0.99857
1.00294 0.999499 1.00514 0.998314
1.00985 1 1.01176 0.998115
1.00021 1 1.0016 0.998608
1.00925 1 1.01124 0.998035
1.00553 1 1.00749 0.998054
0.999796 1 1.00127 0.998531
0.999309 1 1 0.999309
0.999353 1 1 0.999353
0.999975 1 1 0.999975
0.999348 1 1 0.999348
0.999964 1 1 0.999964
1 1 1 1
0.999946 1 1 0.999946
1 1 1 1
0.999995 1 1 0.999995
0.999911 1 1 0.999911
1.00205 1 1.00225 0.999799
1 1 1 1
1.00362 1 1.00397 0.999654
1 1 1 1
1 1 1 1
1.07899 1.10162 0.983079 0.996321
1.07862 1.09786 0.985871 0.996559
1.07718 1.10613 0.976969 0.996781
1.07554 1.10352 0.977885 0.996694
1.07897 1.09806 0.98606 0.996505
1.07619 1.08977 0.991217 0.996287
1.07818 1.09765 0.985718 0.996493
1.08074 1.10774 0.97888 0.996671
1.07882 1.10789 0.976935 0.996751
1.07354 1.10895 0.971226 0.996751
1.08326 1.10931 0.979821 0.996627
1.07824 1.11414 0.970861 0.996824
1.08056 1.12062 0.967313 0.996835
1.07622 1.09609 0.985323 0.996498
1.0781 1.10057 0.98303 0.996492
1.07444 1.10492 0.975672 0.996658
1.04219 1.04652 1.00067 0.995201
1.04497 1.05021 1.00018 0.994839
1.05831 1.06371 1.00012 0.994798
1.06943 1.09651 0.978572 0.996653
1.05827 1.08949 0.97458 0.996681
1.06693 1.08504 0.987383 0.995873
1.01512 1.01338 1.00643 0.995315
1.02081 1.01004 1.01524 0.995501
1.0301 1.01349 1.02074 0.995741
1.01002 1 1.01133 0.998704
1.02236 1.01094 1.01458 0.996762
1.02564 1.00681 1.02152 0.997247
1.0819 1.10752 0.980225 0.996572
1.07613 1.1129 0.970219 0.996636
1.06644 1.10503 0.96825 0.996725
1.02322 1.02785 1.00043 0.995074
1.02749 1.03165 1.0014 0.994583
1.04575 1.05583 0.995597 0.99483
1.05861 1.09766 0.967463 0.996858
1.0516 1.0777 0.97943 0.996271
1.00283 1 1.00363 0.9992
1.01628 1 1.01844 0.997874
1.0095 1.00565 1.00848 0.99539
1.02998 1.00875 1.0258 0.995361
1.02795 1.01078 1.02085 0.996213
1.02128 1.01013 1.01408 0.996993
1.07838 1.1154 0.969975 0.996737
1.06773 1.12009 0.956412 0.996696
1.05878 1.10482 0.961303 0.996903
1.04042 1.07883 0.967454 0.996836
1.00608 1.00976 1.00133 0.995031
1.03434 1.05539 0.984645 0.995333
1.02124 1.0247 1.0022 0.994442
0.999567 1 1.00008 0.999485
0.999515 1 1.00064 0.998876
1.00953 1 1.01114 0.99841
1.01283 1 1.01555 0.997321
1.01514 1 1.01849 0.996704
1.03815 1.01535 1.02687 0.995704
1.00959 1.00227 1.0116 0.99575
1.05184 1.00546 1.05033 0.996004
1.01355 1 1.01564 0.99794
1.02941 1.00413 1.02821 0.997047
1.07043 1.10415 0.97274 0.996634
1.04111 1.03321 1.01126 0.996427
1.01066 1.01097 1.0041 0.995609
1.05937 1.063 1.0004 0.996194
1.08031 1.09281 0.992812 0.995714
1.07612 1.09432 0.987116 0.996208
1.02015 1.02025 1.00482 0.995107
1.01951 1.02497 1 0.994669
1.01084 1.00029 1.01289 0.997685
1.0236 1.00442 1.02234 0.996832
1.03643 1.03659 1.00415 0.995718
1.04342 1.04503 1.00236 0.996105
1.06848 1.12853 0.9498 0.996838
1.06744 1.09979 0.973976 0.996518
1.05486 1.06239 0.997763 0.995141
1.03154 1.03311 1.00377 0.99473
1.00667 0.999021 1.0099 0.997781
1.07922 1.13981 0.949815 0.996871
1.01456 1.00493 1.01311 0.996526
1.03714 1.03755 1.00409 0.995531
1.04334 1.10678 0.945527 0.996984
1.04374 1.05545 0.993668 0.995206
1.02137 1.02374 1.00323 0.994467
1.00546 1 1.00735 0.998121
0.999079 0.997718 1.00291 0.998457
1.00097 0.99715 1.00511 0.998723
1.00069 1 1.00213 0.998561
1.0102 1 1.0121 0.998128
1.00295 0.998511 1.00609 0.998356
0.999613 1 1.00109 0.998526
1.00535 1 1.0073 0.998068
1.00103 0.999256 1.00312 0.998664
1.00766 1 1.00964 0.998032
0.996634 0.99683 1.00099 0.998815
1.00382 1 1.00542 0.998413
1.00846 1 1.01061 0.997876
0.999678 1 1.00182 0.997862
0.998891 1 1.00048 0.998409
0.999261 1 1 0.999261
0.999303 1 1 0.999303
0.999982 1 1 0.999982
0.999349 1 1 0.999349
0.999977 1 1 0.999977
1 1 1 1
0.999969 1 1 0.999969
1 1 1 1
1 1 1 1
0.999684 1 1.00013 0.999556
0.999951 1 1 0.999951
0.999901 1 1 0.999901
1 1 1 1
1.00154 1 1.00177 0.999774
1 1 1 1
1 1 1 1
1.07273 1.10807 0.971249 0.996765
1.07834 1.10758 0.976784 0.996744
1.07969 1.10664 0.978917 0.996661
1.07783 1.0975 0.985534 0.996494
1.08275 1.1093 0.979358 0.996646
1.07776 1.11377 0.970762 0.996815
1.07696 1.11694 0.967267 0.996836
1.07966 1.11664 0.969981 0.996806
1.08846 1.13252 0.964084 0.996906
1.10438 1.16158 0.953468 0.99716
1.0832 1.10829 0.980719 0.996582
1.07499 1.11279 0.969295 0.996638
1.06715 1.10483 0.969071 0.996718
1.02368 1.02826 1.00048 0.995066
1.02743 1.03164 1.00126 0.994661
1.04946 1.05964 0.995418 0.994951
1.05949 1.09768 0.968249 0.996858
1.04866 1.07494 0.979225 0.996245
1.01054 1.00579 1.00936 0.995408
1.03552 1.00929 1.03058 0.995556
1.02693 1.01011 1.02051 0.996215
1.00131 1 1.00202 0.999295
1.01467 1 1.01684 0.997866
1.02372 1.0136 1.01307 0.996959
1.07757 1.11527 0.969344 0.996745
0.999741 1 1.00026 0.999478
0.999959 1 1.00114 0.998824
1.06907 1.11938 0.95822 0.996698
1.05797 1.10363 0.961631 0.996875
1.00738 1.01039 1.00192 0.995105
1.02277 1.02593 1.00245 0.994483
1.03056 1.05146 0.984744 0.995316
1.03905 1.0781 0.966867 0.996803
1.00832 1 1.00982 0.998512
1.01339 1 1.01613 0.997303
1.01033 1.0022 1.01256 0.995613
1.04632 1.0066 1.04365 0.995988
1.0349 1.01151 1.02754 0.9957
1.01547 1.00241 1.01633 0.996756
1.0856 1.13976 0.955505 0.996838
1.05222 1.11789 0.944278 0.996797
1.04024 1.09191 0.955498 0.997048
1.02157 1.05314 0.973438 0.996493
1.00944 1.00597 1.00797 0.995511
1.01853 1.02757 0.996435 0.994749
0.999624 1 1.00087 0.99875
1.00275 1 1.00391 0.99884
1.00105 1.00021 1.00237 0.998473
1.00702 1 1.00939 0.99766
1.015 1 1.01799 0.997062
1.01027 1.0004 1.01344 0.996475
1.07912 1.00685 1.07614 0.995949
0.99367 1.00049 0.996098 0.997071
1.00886 1 1.01128 0.997607
1.02021 1.00316 1.02029 0.996774
1.06828 1.12824 0.949843 0.996857
1.07455 1.10411 0.976675 0.996463
1.04111 1.04286 1.00221 0.996124
1.04577 1.04567 1.00441 0.995707
1.05045 1.05821 0.997449 0.995207
1.03402 1.03608 1.00335 0.994682
1.00758 0.998921 1.01092 0.997772
1.07986 1.14305 0.947608 0.996955
1.01539 1.0025 1.01629 0.99662
1.03192 1.03251 1.00399 0.995452
1.04429 1.10765 0.945661 0.996966
1.03855 1.05187 0.991976 0.995317
1.02296 1.02507 1.00348 0.994476
1.01805 0.998131 1.02237 0.997638
1.00022 1.08059 0.928133 0.997292
1.00769 0.999767 1.01164 0.996323
1.01322 1.01251 1.00592 0.994823
1.00356 1.04739 0.961524 0.996498
1.00472 1.00773 1.00221 0.994812
0.924437 0.999897 0.929007 0.995184
0.996016 0.995446 1.00213 0.998448
0.999131 0.994171 1.00627 0.998728
1.00223 0.995034 1.00858 0.998668
0.999563 1 1.00104 0.998521
1.00683 1 1.00877 0.998083
1.00638 1 1.00836 0.99803
1.00274 0.998903 1.00513 0.998721
0.998831 1 1.00042 0.998409
1.00038 1 1.00249 0.99789
0.994288 0.994343 1.00116 0.998781
1.00982 1 1.01198 0.997872
1.00497 1 1.00661 0.998368
1.00027 0.992674 1.00889 0.99877
1.00945 1 1.01171 0.997765
1.00701 1 1.00919 0.997836
0.998241 1 1.00049 0.997755
0.998342 1 1.00013 0.998212
1.00615 1 1.0082 0.997961
1.00033 1 1.00214 0.998191
0.999244 1 1 0.999244
0.999256 1 1 0.999256
0.999989 1 1 0.999989
0.999297 1 1 0.999297
0.999984 1 1 0.999984
1 1 1 1
0.999979 1 1 0.999979
1 1 1 1
1 1 1 1
0.999658 1 1 0.999658
0.999642 1 1.00008 0.999562
0.999977 1 1 0.999977
0.999945 1 1 0.999945
1 1 1 1
1.00084 1 1.00095 0.99989
1 1 1 1
1 1 1 1
1.07369 1.11383 0.967018 0.996837
1.07735 1.11358 0.970561 0.996806
1.08241 1.10944 0.978894 0.996665
1.07927 1.1163 0.969926 0.996804
1.08601 1.13073 0.963438 0.996895
1.10648 1.16192 0.955083 0.997071
1.09869 1.15145 0.95707 0.996972
0.918842 1.01631 0.910777 0.992666
1.04544 1.10666 0.946805 0.997751
0.999676 1 1.0007 0.99898
1.07689 1.11534 0.96867 0.996754
1.07021 1.11841 0.960074 0.9967
1.05674 1.1023 0.961702 0.996846
1.00419 1.00823 1.00082 0.995175
1.02415 1.02702 1.0027 0.99452
1.02719 1.04762 0.985128 0.995298
1.03828 1.0781 0.966185 0.996769
1.00577 1.00221 1.00809 0.995487
1.03973 1.00746 1.03619 0.995986
1.0328 1.00769 1.02935 0.995695
1.00105 1 1.00158 0.999471
1.01527 1.00386 1.01461 0.996806
1.0082 1 1.0096 0.99861
1.0141 1 1.01686 0.997285
1.00046 1 1.00169 0.998772
1.08482 1.13977 0.954803 0.996845
0.999314 1 1.0005 0.998816
1.00352 1 1.00468 0.998844
1.00089 1.00051 1.00195 0.998435
1.05539 1.11815 0.946902 0.996796
1.03706 1.08893 0.955237 0.996996
1.00446 1.00399 1.00493 0.99555
1.01927 1.02812 0.996474 0.994902
1.02227 1.05316 0.974105 0.996475
1.00696 1 1.00925 0.997727
1.01382 1 1.01684 0.997031
1.00469 1.00031 1.00758 0.996814
1.06748 1.00492 1.06661 0.995912
1.01074 1.0037 1.01052 0.996536
1.05954 1.13327 0.937831 0.996922
1.01882 1.09999 0.929028 0.996967
1.02695 1.06521 0.967306 0.996663
1.00773 1.03103 0.981093 0.996235
1.00084 1.0009 1.00339 0.996565
0.998647 1 1.00024 0.998409
1.00451 1.00038 1.00606 0.998086
1.00276 0.999018 1.00547 0.998285
1.01516 1 1.01769 0.99752
1.0138 1 1.01666 0.997191
1.04877 0.999932 1.05219 0.996818
1.02973 1.00335 1.02913 0.997242
1.00874 0.999621 1.01139 0.997759
1.01659 1.00067 1.01926 0.996717
1.07982 1.14748 0.943834 0.997037
1.04608 1.10972 0.945541 0.996946
1.03364 1.04868 0.990185 0.995428
1.02482 1.02579 1.0037 0.995372
1.02374 1.02571 1.0036 0.994488
1.01829 0.998253 1.02234 0.997778
1.00258 1.08285 0.928325 0.997357
1.00466 1.00045 1.00792 0.996323
1.01064 1.00954 1.00631 0.994812
1.00237 1.04451 0.96288 0.996654
1.00607 1.00856 1.00273 0.994814
0.920151 0.997181 0.928613 0.99369
1.01951 0.994747 1.02734 0.997619
0.967354 1.02932 0.942369 0.997271
1.00225 1.00137 1.00498 0.995908
1.00424 1.00267 1.00614 0.995452
0.98773 1.0077 0.983686 0.996439
0.857059 0.967657 0.922504 0.96011
0.818167 0.939846 0.889299 0.978897
0.922221 0.971169 0.953579 0.995826
0.577664 0.753172 0.847135 0.905375
0.493047 0.673389 0.838756 0.872945
0.998063 0.991291 1.00811 0.998733
1.00405 0.992304 1.01314 0.998721
1.00429 0.992564 1.01313 0.998703
0.998447 1 1.00004 0.998409
1.00047 1 1.00256 0.997917
1.00968 1 1.01184 0.997867
1.00442 1 1.00611 0.998322
0.990751 0.991994 1 0.998747
1.00779 1 1.00997 0.997841
0.998253 1 1 0.998253
0.998602 1 1.00084 0.997768
0.999392 0.994169 1.00657 0.998693
1.00973 1 1.01189 0.997863
1.01484 1 1.01696 0.997917
1.01523 0.998274 1.01876 0.998262
1.00803 1 1.01022 0.997836
0.998989 1 1.00137 0.997617
0.998998 1 1.00083 0.998171
1.00226 1 1.00445 0.997819
1.00685 0.999777 1.00903 0.998059
1.00779 1 1.00967 0.99814
1.00593 1 1.00801 0.997939
1.00094 1 1.00259 0.998351
1.00109 1 1.00291 0.998186
0.999244 1 1 0.999244
0.999245 1 1 0.999245
0.999995 1 1 0.999995
0.999251 1 1 0.999251
0.999991 1 1 0.999991
1 1 1 1
0.999986 1 1 0.999986
1 1 1 1
1 1 1 1
0.999759 1 1 0.999759
0.999762 1 1.00011 0.999657
0.999992 1 1 0.999992
0.999778 1 1.00021 0.999567
0.999971 1 1 0.999971
1 1 1 1
0.999938 1 1 0.999938
1 1 1 1
1 1 1 1
1.08328 1.12864 0.962815 0.996885
1.07852 1.11558 0.969884 0.996802
1.11138 1.16378 0.957865 0.996985
0.924559 1.01525 0.917331 0.992741
1.09744 1.15189 0.955628 0.996968
1.05323 1.10951 0.951526 0.997627
1.06851 1.12717 0.950725 0.997084
0.870631 0.964215 0.922883 0.978393
0.964807 1.03079 0.942249 0.993354
0.999049 1 1 0.999049
0.999348 1 1.00038 0.998972
0.999773 1 1.00126 0.99851
0.998588 1 1 0.998588
1.08391 1.13995 0.953843 0.996852
1.05816 1.11871 0.948922 0.996795
1.03408 1.08614 0.954991 0.996943
1.00395 1.00388 1.0045 0.995589
1.0195 1.0287 0.995978 0.995059
1.02164 1.05226 0.974352 0.996458
1.0173 1 1.02083 0.996548
1.05643 1.00439 1.05616 0.995876
1.01284 1.00731 1.00892 0.996601
1.00332 1 1.00448 0.998848
1.01315 1.00061 1.01557 0.997003
1.00637 1 1.0086 0.997794
0.998882 1 1 0.998882
1.00066 1.00042 1.00185 0.998397
1.06017 1.13567 0.936394 0.996936
0.999275 0.999999 1.00088 0.998401
1.00326 1.0006 1.00448 0.99819
1.00247 0.997986 1.00586 0.998641
1.02739 1.10426 0.93323 0.996953
1.02633 1.06462 0.967266 0.996661
1.0007 1.0044 0.999746 0.996561
1.00895 1.03124 0.982015 0.996305
1.01434 1 1.017 0.997384
1.014 1.00003 1.01702 0.997
1.03677 1.00421 1.03529 0.997226
1.04993 1.0033 1.04997 0.996678
1.01076 1.08202 0.936931 0.997027
0.99312 1.06454 0.935735 0.996982
1.01105 1.02769 0.987499 0.99627
0.972865 1.00384 0.971586 0.997484
1.00805 0.999373 1.01024 0.998454
1.00817 1 1.01058 0.997617
1.02084 0.999096 1.02369 0.998121
1.07502 1.0015 1.07633 0.997283
0.854688 0.967011 0.927706 0.952721
1.01913 0.998113 1.02319 0.997918
1.00264 1.00091 1.00543 0.996322
1.00529 1.0845 0.929342 0.997431
1.00089 1.04138 0.964191 0.996807
1.00751 1.00944 1.0033 0.99481
1.00896 1.00721 1.00697 0.994798
0.917884 0.996427 0.928489 0.992124
1.01533 0.994938 1.02286 0.997683
0.966183 1.02947 0.941122 0.997241
1.0027 1.00151 1.0053 0.995918
1.00658 1.00526 1.00585 0.995478
0.989843 1.00875 0.984783 0.996419
0.844844 0.967941 0.915881 0.952991
0.821082 0.940331 0.895514 0.975064
0.925687 0.971147 0.957105 0.99591
0.57557 0.751591 0.843203 0.908208
0.491432 0.680947 0.83268 0.866706
1.00587 0.994891 1.01335 0.997708
0.625319 0.781291 0.877046 0.912571
0.533725 0.706867 0.865556 0.872338
0.973152 1.00558 0.970064 0.997616
1.01284 1.00214 1.01385 0.996879
1.01671 1.00649 1.01317 0.997019
0.919818 0.957463 0.963985 0.996574
0.785909 0.932318 0.880193 0.957701
0.788577 0.908449 0.892983 0.972077
0.547974 0.726051 0.823997 0.91594
0.536398 0.756101 0.82204 0.863007
1.00537 0.989562 1.01722 0.998773
1.00542 0.991237 1.01565 0.998676
1.01508 0.994246 1.02214 0.998837
0.998294 1 1 0.998294
0.999125 1 1.00135 0.997781
1.00869 1 1.01087 0.997847
1.01102 1 1.01309 0.99796
0.999147 0.995423 1.00513 0.998615
0.998894 1 1.00073 0.99817
1.01498 1 1.01711 0.997908
1.00849 1 1.01072 0.997801
0.998888 1 1.00122 0.99767
1.01476 0.997724 1.01878 0.998323
1.01513 1 1.01696 0.998193
1.03162 0.997018 1.03626 0.998495
1.0075 1 1.0099 0.997621
0.99938 1 1.00168 0.997709
1.00128 1 1.00348 0.99781
1.00585 0.99912 1.00862 0.998131
1.00137 0.999955 1.00356 0.997868
1.00173 0.998363 1.00516 0.998225
1.00987 0.996453 1.0151 0.99839
1.01263 0.999713 1.01493 0.998023
1.01152 1 1.01336 0.998188
1.00998 1 1.01186 0.998143
1.00632 1 1.00795 0.99839
1.00786 1 1.00996 0.997918
1.00137 1 1.00306 0.998309
0.999215 1 1 0.999215
1.00179 1 1.00362 0.99818
0.999248 1 1 0.999248
0.99999 1 1 0.99999
0.999246 1 1 0.999246
0.999994 1 1 0.999994
1 1 1 1
0.999993 1 1 0.999993
1 1 1 1
1 1 1 1
0.998966 1 1 0.998966
0.999792 1 1 0.999792
0.999755 1 1 0.999755
0.999999 1 1 0.999999
0.999734 1 1.00008 0.999656
0.999988 1 1 0.999988
1 1 1 1
0.999964 1 1 0.999964
1 1 1 1
1 1 1 1
0.927276 1.01416 0.920946 0.992815
1.09625 1.15156 0.954866 0.996964
1.05797 1.11142 0.954296 0.9975
0.857996 0.964094 0.908387 0.979704
0.95826 1.03008 0.936253 0.993619
1.0712 1.12985 0.950895 0.997046
0.968077 1.04916 0.927297 0.995062
0.87875 0.974622 0.918791 0.981323
0.858543 0.973141 0.921372 0.957528
0.591815 0.761773 0.846478 0.917793
0.464073 0.649405 0.819617 0.871885
0.999782 1 1.00119 0.998595
0.999301 1 1.00025 0.999047
0.999472 1 1.00051 0.998964
0.999969 1 1.00143 0.99854
1.00059 1 1.00214 0.998452
0.998672 1 1.00045 0.998221
0.99956 1 1.00123 0.998329
0.998686 1 1.00015 0.998541
1.06244 1.13772 0.936698 0.996947
1.03649 1.10862 0.937807 0.99694
1.02617 1.06473 0.967019 0.996659
0.999212 1.00621 0.996472 0.996558
1.01069 1.03162 0.983277 0.996373
1.04427 1.00469 1.0423 0.997208
1.05073 1.00611 1.04798 0.996539
1.01144 1.00036 1.01432 0.996804
1.00219 1.00077 1.00313 0.998292
1.01501 1 1.01782 0.997242
1.00016 1 1.00177 0.998395
1.00229 0.997944 1.00535 0.999002
1.005 1.08163 0.931848 0.997102
1.00727 0.999171 1.00972 0.998404
1.0102 0.999965 1.01239 0.99787
0.992564 1.06281 0.93676 0.996954
1.0111 1.03036 0.984823 0.996434
0.974937 1.00313 0.974476 0.997347
1.02989 0.99906 1.03321 0.997725
1.06557 1.00361 1.06457 0.997333
0.952723 1.03611 0.922524 0.996738
0.995687 1.02172 0.97749 0.996967
0.974162 1.00266 0.974464 0.997034
0.972249 0.995487 0.978732 0.99788
1.01243 0.999983 1.01469 0.997792
1.01985 0.996352 1.02565 0.997988
1.05973 0.998797 1.06346 0.997689
0.6557 0.793422 0.902765 0.915433
0.860592 0.971132 0.921804 0.961347
1.01133 0.996258 1.01742 0.997749
1.00276 1.00132 1.00553 0.995932
0.966388 1.02957 0.941262 0.99721
0.992084 1.01011 0.985703 0.996404
1.00922 1.00802 1.00571 0.995512
0.849161 0.970802 0.913437 0.957592
0.827886 0.952896 0.890455 0.975693
0.927157 0.969076 0.960565 0.996021
0.590535 0.749938 0.857766 0.918019
0.488645 0.68986 0.823431 0.860213
1.00603 0.996817 1.01155 0.997721
0.642822 0.793085 0.887247 0.913538
0.502408 0.674327 0.858819 0.867531
0.973492 1.00671 0.969351 0.997579
1.01304 1.00279 1.01338 0.996873
1.01448 1.00425 1.01306 0.997164
0.915213 0.951413 0.964918 0.996925
0.784924 0.937351 0.878763 0.952914
0.788351 0.905935 0.892554 0.974963
0.568672 0.73938 0.841441 0.914051
0.546767 0.773501 0.820589 0.861422
1.0063 0.995229 1.01271 0.998434
0.535982 0.714211 0.863 0.869588
0.577354 0.786694 0.839756 0.873944
0.984252 0.989201 0.996412 0.99858
1.01925 1.00233 1.0184 0.998516
0.926599 0.938253 0.991744 0.995801
0.811709 0.897833 0.925047 0.97733
0.720524 0.87729 0.86523 0.949235
0.605266 0.744204 0.888288 0.915588
0.628376 0.852747 0.847525 0.869455
1.00847 0.993639 1.0163 0.99865
1.01261 0.995705 1.01822 0.998787
1.01178 0.993105 1.01975 0.999074
0.998477 1 1.00031 0.998169
0.998791 1 1.00107 0.997724
1.00969 1 1.01196 0.997765
1.01512 1 1.01725 0.9979
1.01382 0.997098 1.01841 0.998385
0.998884 1 1.00119 0.997701
1.01537 1 1.01728 0.99812
1.00655 1 1.00894 0.997623
1.02842 0.994764 1.03532 0.998559
1.04582 0.992668 1.0545 0.999094
1.0221 0.999913 1.02407 0.998164
1.00372 1 1.00614 0.997594
1.00009 1 1.00229 0.997801
1.00458 0.999855 1.00654 0.998203
1.00147 0.999929 1.0037 0.997856
1.00154 0.999906 1.00344 0.9982
1.00251 0.992595 1.01149 0.998518
1.00372 0.999378 1.00616 0.998195
1.01721 0.997396 1.02167 0.998232
0.99606 0.986856 1.01078 0.998564
1.02184 1.00044 1.02354 0.997901
1.00758 1.00962 1.00093 0.997048
1.01943 0.999549 1.02218 0.997755
1.013 0.999481 1.01553 0.998028
1.01526 1 1.0174 0.997896
1.01081 0.999939 1.0127 0.998194
1.00766 1 1.00935 0.998321
1.00832 1 1.01019 0.998145
1.00326 1 1.00487 0.998404
0.999401 1 1.00025 0.999152
1.00039 1 1.00213 0.998267
0.99922 1 1 0.99922
0.999969 1 1 0.999969
0.999252 1 1 0.999252
0.999985 1 1 0.999985
1 1 1 1
0.999993 1 1 0.999993
1 1 1 1
1 1 1 1
0.998933 1 1 0.998933
0.999741 1 1 0.999741
0.998975 1 1.00001 0.99897
1 1 1 1
0.999792 1 1 0.999792
0.99975 1 1 0.99975
0.999998 1 1 0.999998
1 1 1 1
0.999984 1 1 0.999984
1 1 1 1
1 1 1 1
0.623724 0.779882 0.88332 0.90541
0.517218 0.700834 0.851707 0.8665
0.85773 0.961742 0.909611 0.980474
0.955037 1.02915 0.933661 0.993918
1.074 1.13404 0.949894 0.997009
0.875183 0.960653 0.927385 0.982364
0.97208 1.04556 0.93404 0.995381
0.862638 0.978079 0.921145 0.957473
0.569966 0.752688 0.833624 0.908371
0.477341 0.671415 0.821223 0.865718
0.889472 0.99048 0.909496 0.987384
0.811273 0.946695 0.893898 0.958669
0.553678 0.732914 0.825117 0.915564
0.552344 0.76695 0.831782 0.86583
1.00123 1 1.0031 0.998133
0.999062 1 1.00043 0.998631
0.999367 1 1.00032 0.999047
0.99965 1 1.00108 0.99857
1.00018 1 1.00158 0.998606
1.0003 1 1.00246 0.997843
0.999041 1 1.00082 0.998227
1.00152 1 1.00371 0.997817
0.999145 1 1.00088 0.998272
0.998922 1 1.00043 0.998494
0.997285 1.08121 0.924998 0.997172
0.991542 1.06076 0.93763 0.996928
1.01154 1.03294 0.982632 0.996598
0.977564 1.00294 0.977429 0.997209
1.05558 1.00586 1.05218 0.997385
1.04053 0.999418 1.04392 0.997336
1.01085 0.999821 1.01293 0.998123
1.00644 0.998814 1.0093 0.998353
0.952073 1.03651 0.921377 0.996919
1.0158 0.999973 1.01814 0.997727
1.02009 0.996389 1.02587 0.997972
0.984266 1.01708 0.970738 0.996906
0.972007 1.00206 0.972844 0.997089
0.976221 0.997385 0.980863 0.997877
1.05214 0.997775 1.05698 0.997636
0.930418 1.00132 0.932169 0.996805
0.970505 0.996926 0.975375 0.998075
1.0186 0.986517 1.03441 0.998168
1.01118 1 1.01359 0.997626
1.02689 0.997621 1.03171 0.9977
1.02875 0.995582 1.03555 0.997838
0.55748 0.724776 0.869605 0.884511
0.64825 0.789197 0.895624 0.917131
0.858052 0.972645 0.925742 0.952948
1.00501 0.995407 1.01194 0.997729
1.01275 1.00285 1.01306 0.996859
0.97533 1.00796 0.970016 0.99754
1.01253 1.00259 1.01265 0.997302
0.650935 0.785911 0.901066 0.919195
0.795488 0.942787 0.88554 0.952823
0.78035 0.904116 0.887772 0.972218
0.915606 0.948139 0.968366 0.997234
0.561867 0.74545 0.831965 0.905962
0.488458 0.65937 0.850846 0.870657
0.559535 0.779927 0.824825 0.869784
1.00586 0.994779 1.01279 0.99837
0.539869 0.713957 0.863959 0.875231
0.598829 0.809345 0.847068 0.873476
0.979843 0.986314 0.994733 0.9987
1.01823 1.00102 1.01877 0.998454
0.923572 0.935589 0.990333 0.996791
0.798934 0.903914 0.907447 0.974008
0.746952 0.8827 0.885098 0.956066
0.603888 0.750865 0.887183 0.906528
0.621426 0.843197 0.841985 0.875298
1.00557 0.992319 1.01393 0.999431
0.620574 0.808942 0.868031 0.883773
0.619715 0.827038 0.853673 0.877759
0.966488 0.942745 1.02548 0.999715
0.853564 0.895013 0.969235 0.98396
0.759182 0.850291 0.936498 0.953391
0.705466 0.847873 0.921458 0.902962
0.679407 0.90067 0.856805 0.880405
1.0094 0.995819 1.01492 0.998736
1.0141 0.992428 1.0228 0.999059
1.02215 0.979131 1.04461 0.999354
0.999229 1 1.00154 0.997693
1.00508 1 1.00748 0.997625
1.01494 1 1.01693 0.998047
1.02607 0.993023 1.0347 0.998624
1.00419 1 1.00661 0.997593
1.02103 0.999326 1.02361 0.998152
1.05144 0.992638 1.06012 0.999173
1.04044 0.977808 1.06465 0.999446
1.04683 0.9935 1.05467 0.999068
1.01565 0.999485 1.01817 0.998044
1.00116 1 1.00332 0.997842
1.00046 1.00012 1.00218 0.998175
0.994358 0.986649 1.00918 0.998643
1.01578 0.9973 1.02031 0.998258
1.00214 0.999825 1.00414 0.998183
0.998603 0.985935 1.01427 0.998598
1.02331 0.999217 1.02592 0.998239
1.01976 0.981542 1.04002 0.998962
1.0097 1.00323 1.00832 0.998154
1.01645 1.00133 1.01719 0.99794
1.00371 1.00193 1.00446 0.997328
1.01327 1.01591 1.00153 0.995883
1.01084 1.00529 1.00819 0.997356
1.00539 1.00719 1.0008 0.99742
1.01721 0.999808 1.0197 0.997748
1.02637 0.999857 1.02899 0.997594
1.01266 0.999319 1.01535 0.998033
1.01619 1 1.01833 0.9979
1.01058 1 1.01256 0.998051
1.01214 1 1.01396 0.9982
1.00933 1 1.01103 0.998321
1.00236 1 1.00334 0.999031
1.00378 1 1.00537 0.998419
1.00017 1 1.00102 0.999154
0.999928 1 1 0.999928
0.999329 1 1.0001 0.999225
0.999957 1 1 0.999957
1 1 1 1
0.999982 1 1 0.999982
1 1 1 1
1 1 1 1
0.999341 1 1.00081 0.998531
0.999644 1 1 0.999644
0.998987 1 1.00016 0.998831
0.999998 1 1 0.999998
0.999748 1 1 0.999748
0.999061 1 1.00009 0.998972
1 1 1 1
1 1 1 1
0.999792 1 1 0.999792
0.999996 1 1 0.999996
1 1 1 1
1 1 1 1
0.519853 0.700722 0.851334 0.871435
0.636471 0.787471 0.886491 0.911738
0.60213 0.815652 0.845119 0.87351
0.515481 0.704557 0.845527 0.865305
0.87398 0.962728 0.92674 0.97958
0.975819 1.04164 0.940841 0.995719
0.854627 0.982088 0.909395 0.956915
0.58478 0.746942 0.853282 0.917515
0.491856 0.698799 0.818902 0.859516
0.897293 0.984774 0.923986 0.986127
0.780427 0.93188 0.882003 0.949517
0.57204 0.741983 0.843869 0.913603
0.538424 0.756514 0.82664 0.860977
0.845628 0.951638 0.90537 0.98148
0.714234 0.852469 0.883912 0.947879
0.631536 0.79059 0.885471 0.902137
0.617523 0.839363 0.847804 0.867776
1.00544 1 1.0078 0.997658
1.00132 1 1.00313 0.998194
0.998884 1 1.00022 0.998667
0.999986 1 1.00123 0.998759
1.00003 1 1.00264 0.997393
0.999979 1 1.00207 0.997916
0.999174 1 1.00094 0.998233
1.00108 1 1.00331 0.997778
1.00058 1 1.00273 0.997856
0.998753 1 1.00054 0.998214
0.952299 1.03724 0.920788 0.99709
0.97467 1.01283 0.965364 0.996852
0.968587 1.00129 0.970112 0.997143
0.979134 0.999022 0.982179 0.997877
1.04006 0.99564 1.04715 0.997578
1.02085 0.997501 1.0255 0.997958
1.01762 1 1.02 0.997664
1.01094 1 1.0134 0.997576
0.932357 1.00055 0.934702 0.996945
1.02203 0.998418 1.02606 0.997658
1.02889 0.996185 1.03509 0.997816
0.969465 0.998399 0.972894 0.998074
1.01101 0.990331 1.0228 0.998124
0.933428 0.966626 0.968538 0.997025
0.95222 0.95118 1.00187 0.99922
1.04681 0.976348 1.07392 0.998377
1.01173 0.998478 1.01548 0.997827
1.03273 0.994942 1.04006 0.998004
0.63552 0.825021 0.865503 0.890012
0.549146 0.725285 0.858287 0.882159
0.637711 0.781979 0.897653 0.908491
1.00647 0.995706 1.01252 0.998311
1.01725 0.999304 1.0196 0.99839
0.973399 0.983553 0.990836 0.998829
0.531912 0.707745 0.859159 0.874761
0.717751 0.860971 0.878985 0.948427
0.803718 0.901543 0.913539 0.975867
0.913029 0.929078 0.984845 0.997848
0.614004 0.763476 0.878293 0.915664
0.616169 0.825997 0.85407 0.87343
0.616976 0.837125 0.841261 0.876087
1.00347 0.992575 1.01161 0.999376
0.625793 0.81343 0.868576 0.885734
0.614557 0.819687 0.853717 0.878213
0.969519 0.948773 1.02241 0.999472
0.864662 0.907451 0.968402 0.983937
0.734343 0.851513 0.911759 0.945862
0.669998 0.892726 0.853685 0.879139
0.722038 0.847328 0.939141 0.907356
0.986609 0.947799 1.04125 0.999711
0.620517 0.806638 0.866902 0.887372
0.667339 0.873059 0.863852 0.884837
0.615062 0.83808 0.845564 0.867934
0.915483 0.906613 1.01413 0.995719
0.834741 0.886559 0.985316 0.955583
0.786715 0.922717 0.933224 0.913616
1.01758 0.992534 1.02622 0.999043
1.02567 0.984508 1.04257 0.99927
1.04034 0.974014 1.06856 0.999566
1.00501 1 1.00744 0.997593
1.01964 0.998856 1.02272 0.998139
1.05612 0.991176 1.06632 0.999251
1.01873 0.999352 1.02137 0.998056
1.04701 0.993364 1.05498 0.999079
1.0483 0.979779 1.07055 0.999421
1.03407 0.968088 1.0687 0.999489
1.03046 0.989668 1.0422 0.999058
1.01368 0.997384 1.01809 0.998287
1.00189 1.00018 1.00354 0.998169
1.00342 0.988124 1.01687 0.998633
1.0213 0.986384 1.0365 0.998933
1.03003 0.999913 1.03193 0.998249
1.0154 1.00013 1.0165 0.998794
1.01148 0.999982 1.01293 0.998587
1.00385 1.0025 1.00457 0.996789
1.01243 1.00336 1.01107 0.997991
1.00494 1.00422 1.00352 0.997206
1.00449 1.00682 1.00227 0.995434
1.03043 1.03405 1.00129 0.995216
1.01247 1.01305 1.00258 0.996848
1.00901 1.01172 1.00138 0.995948
1.01763 1.0006 1.01985 0.997223
1.01079 1.00546 1.00793 0.997386
1.00305 1.00469 1.00059 0.997787
1.01514 0.999957 1.01748 0.997742
1.02547 0.999843 1.0281 0.997604
1.01632 1 1.01862 0.997745
1.01761 0.999877 1.01987 0.997904
1.01023 1.00035 1.01185 0.998048
1.00588 1 1.0071 0.998792
1.00698 1 1.00867 0.998319
1.0025 1 1.00347 0.999024
0.999887 1 1 0.999887
1.00018 1 1.00102 0.999155
0.999918 1 1 0.999918
1 1 1 1
0.999946 1 1 0.999946
1 1 1 1
1 1 1 1
1.00161 1 1.00349 0.998134
0.999457 1 1.00014 0.999317
0.999555 1 1.00103 0.99853
0.99999 1 1 0.99999
0.999567 1 1 0.999567
0.998849 1 1.00012 0.99873
1 1 1 1
0.999999 1 1 0.999999
0.999755 1 1 0.999755
1 1 1 1
1 1 1 1
1 1 1 1
0.642653 0.839218 0.866598 0.883658
0.534456 0.705482 0.862044 0.878814
0.62323 0.780634 0.876863 0.910477
1.00264 1 1.00497 0.997679
0.611412 0.814125 0.851607 0.881869
0.60288 0.813288 0.848817 0.873317
0.534377 0.726663 0.84296 0.872383
0.903019 0.990793 0.925469 0.984809
0.787817 0.925841 0.888476 0.95773
0.559827 0.74476 0.830442 0.905167
0.52569 0.732784 0.827997 0.866413
0.84093 0.947977 0.907405 0.977599
0.74311 0.872611 0.891294 0.955458
0.619282 0.768686 0.891472 0.903715
0.620481 0.84165 0.847938 0.869426
0.783687 0.894771 0.900522 0.972605
0.742144 0.840251 0.928753 0.950997
0.729314 0.85196 0.942031 0.90872
0.677129 0.894508 0.859798 0.880422
1.0035 1 1.00586 0.997653
1.00569 1 1.00807 0.997646
1.00115 1 1.0029 0.998256
1.0001 1 1.00249 0.997615
1.00116 1 1.0037 0.99747
1.00013 1 1.00215 0.997988
1.00213 1 1.00436 0.997776
1.0002 1 1.00231 0.997893
0.93591 1.00188 0.93692 0.997051
0.970092 1.00115 0.970843 0.998082
1.00955 1 1.01206 0.997524
1.0032 0.994 1.0112 0.998079
1.02939 0.995437 1.0364 0.997793
1.023 0.999868 1.02559 0.997614
1.01649 0.999461 1.01928 0.997799
0.935296 0.96612 0.970812 0.9972
1.03092 0.995865 1.03727 0.998003
1.03567 0.983292 1.05493 0.998422
0.957538 0.955602 1.00277 0.999261
1.0213 0.998061 1.02527 0.998065
0.919169 0.926797 0.995463 0.996289
0.982533 0.949345 1.0355 0.999476
1.07144 0.987704 1.08637 0.998536
1.06404 0.995011 1.07129 0.998211
0.616149 0.798538 0.865117 0.891899
0.63343 0.823318 0.865712 0.888704
0.540735 0.724032 0.84895 0.87972
1.00046 0.992615 1.00859 0.999322
0.973537 0.95343 1.02188 0.999229
0.634297 0.821351 0.870069 0.887585
0.752313 0.831605 0.947441 0.954838
0.853886 0.905177 0.963296 0.97928
0.709191 0.837451 0.935776 0.904965
0.612416 0.816341 0.853881 0.878573
0.666371 0.89004 0.852887 0.87784
0.996769 0.961073 1.03749 0.999669
0.621718 0.808853 0.86612 0.887454
0.673172 0.874 0.868578 0.88676
0.932904 0.918701 1.01691 0.99857
0.618288 0.839929 0.846619 0.869481
0.80289 0.865244 0.975742 0.951005
0.782237 0.909908 0.9415 0.913104
0.990118 0.949717 1.04298 0.999581
0.669147 0.855585 0.874696 0.894131
0.615087 0.813943 0.856026 0.882788
0.548552 0.762704 0.830729 0.865771
0.722693 0.846076 0.940719 0.907998
0.917988 0.919167 1.00935 0.989468
0.851962 0.897952 1.00442 0.944604
1.02779 0.990936 1.03804 0.999188
1.03434 0.966326 1.07089 0.999534
1.01461 0.943457 1.07587 0.999581
1.02138 0.998692 1.0247 0.998067
1.04869 0.99196 1.05815 0.999091
1.05762 0.982482 1.07713 0.999396
1.02727 0.990058 1.03858 0.999045
1.02832 0.967897 1.06297 0.999488
0.985351 0.963938 1.023 0.999234
1.02339 0.990025 1.03484 0.998903
1.03507 0.997272 1.03971 0.998263
1.02207 0.998697 1.02468 0.998763
1.00174 0.998745 1.0051 0.997913
1.01296 0.997566 1.01643 0.999019
0.998123 1.00257 0.998496 0.997063
1.00808 1.00397 1.00945 0.994695
1.01033 1.01305 1.00283 0.994493
1.00587 1.00689 1.00192 0.99707
1.00459 1.0074 1.00205 0.995182
1.02719 1.03157 1.00053 0.995232
1.02537 1.02683 1.00261 0.995968
1.02717 1.03069 1.00125 0.995333
1.01376 1.00643 1.0103 0.997015
1.01648 1.01641 1.00328 0.996801
1.00435 1.00708 1.00128 0.996016
1.0241 1 1.02664 0.997522
1.01769 1.00077 1.01971 0.997255
1.01111 1.00568 1.00801 0.997415
1.0247 1 1.02716 0.997613
1.01575 1.00027 1.01777 0.997746
1.01184 1 1.01337 0.998487
1.01075 1.00054 1.01218 0.998044
1.00624 1 1.00747 0.998785
1.00007 1 1.00026 0.999815
1.00388 1 1.00486 0.99902
0.999877 1 1 0.999877
1 1 1 1
0.999907 1 1 0.999907
1 1 1 1
1 1 1 1
1.0029 1 1.00487 0.998038
1.00123 1 1.0022 0.999033
1.00182 1 1.00361 0.998209
0.999972 1 1 0.999972
0.99934 1 1.00005 0.999286
0.999641 1 1.00112 0.998527
1 1 1 1
0.999993 1 1 0.999993
0.999491 1 1 0.999491
1 1 1 1
0.999999 1 1 0.999999
1 1 1 1
0.623251 0.807849 0.865247 0.891646
0.640351 0.835863 0.866881 0.883739
0.536102 0.703816 0.866829 0.878728
1.00281 1 1.00509 0.997728
1.00957 1 1.01198 0.99761
1.00127 1 1.00347 0.997812
0.673838 0.878393 0.867662 0.88413
0.612061 0.818162 0.847879 0.882312
0.599672 0.813947 0.843738 0.873193
0.842772 0.951649 0.903743 0.979915
0.715576 0.868578 0.869023 0.948017
0.633778 0.759147 0.912192 0.915218
0.622229 0.849458 0.845921 0.865921
0.790662 0.898265 0.901774 0.976087
0.755237 0.850505 0.934512 0.950215
0.725526 0.849788 0.938341 0.909875
0.670259 0.890538 0.85623 0.879022
0.812259 0.891852 0.935883 0.973151
0.79942 0.866078 0.968927 0.952636
0.789988 0.919342 0.940104 0.914045
0.632472 0.854158 0.851066 0.870042
1.00078 0.999232 1.00361 0.997948
1.00294 1 1.00534 0.997612
1.00549 1 1.00787 0.997635
1.00027 1 1.00269 0.997593
1.00159 1 1.00406 0.997548
1.00173 1 1.00397 0.997775
0.930086 0.958545 0.972826 0.997414
0.960523 0.955405 1.00609 0.999276
1.01507 0.999871 1.01746 0.997774
1.03032 0.991868 1.04036 0.998466
1.02701 0.996879 1.03229 0.998
1.02116 0.997588 1.0256 0.998083
1.04559 0.987924 1.06023 0.998248
0.918978 0.923593 0.998588 0.996411
1.06448 0.981928 1.08551 0.998678
0.983114 0.936877 1.05019 0.999202
1.03624 0.985683 1.05296 0.998418
0.934925 0.91882 1.02183 0.99579
1.00764 0.950109 1.06166 0.998949
1.02947 0.955675 1.07852 0.998792
0.689785 0.87219 0.88446 0.894179
0.622868 0.803321 0.869078 0.89217
0.630545 0.821736 0.864694 0.887404
1.00749 0.974224 1.03453 0.999627
0.920903 0.917956 1.00694 0.996299
0.621322 0.808606 0.865749 0.88754
0.798962 0.850405 0.983162 0.955598
0.772886 0.914347 0.932509 0.906466
0.675957 0.876758 0.86756 0.888669
0.621073 0.847938 0.845628 0.866161
0.982647 0.942535 1.04287 0.999699
0.664952 0.848442 0.875851 0.894824
0.618794 0.824247 0.849938 0.883286
0.913528 0.914936 1.01452 0.984174
0.534034 0.750129 0.826733 0.861127
0.726444 0.848404 0.942337 0.908643
0.839745 0.89359 0.98501 0.954044
1.00285 0.938277 1.07157 0.997433
0.626699 0.80821 0.868868 0.892444
0.612358 0.82068 0.853539 0.874195
0.466305 0.647794 0.825033 0.872492
0.617613 0.777368 0.881312 0.901488
0.809314 0.863613 0.984187 0.952182
0.875438 0.895936 0.997306 0.979762
1.02872 0.962275 1.06958 0.999501
1.02668 0.959384 1.07061 0.999568
0.994628 0.951433 1.04602 0.99941
1.02326 0.991532 1.033 0.999032
1.0226 0.968419 1.0565 0.999487
0.988959 0.961416 1.02935 0.999318
1.01376 0.992357 1.02287 0.998732
1.02943 0.998072 1.03273 0.998728
0.998643 1.00089 1.00019 0.997564
1.03266 1.00159 1.03584 0.995344
0.991644 1.00154 0.992756 0.997348
1.00952 1.00364 1.01114 0.994784
1.00874 1.0051 1.00985 0.993837
1.02061 1.02461 1.00191 0.994196
1.01862 1.02275 1.00108 0.994892
1.01054 1.01304 1.00312 0.994432
1.00439 1.0078 1.00169 0.994933
1.01814 1.02157 1.0011 0.995545
1.03034 1.03468 1.00048 0.99533
1.01556 1.01394 1.00526 0.996361
1.02642 1.02767 1.00274 0.996062
1.025 1.02848 1.00117 0.995451
1.02369 1.00355 1.02283 0.997303
1.01565 1.00793 1.0107 0.996997
1.01975 1.0191 1.00391 0.996751
1.02144 1.00063 1.02263 0.998203
1.02289 1.00011 1.02532 0.997521
1.01866 1.00129 1.02011 0.997287
1.01663 1.00084 1.01807 0.997749
1.01143 1.00015 1.01281 0.998485
1.0013 1 1.00161 0.999687
1.00581 1 1.00704 0.998777
1.0003 1 1.00049 0.999801
1 1 1 1
0.999868 1 1 0.999868
1 1 1 1
1 1 1 1
1.00336 1 1.00542 0.99795
1.00253 1 1.00359 0.998945
1.00379 1 1.00574 0.998065
0.999935 1 1 0.999935
1.00056 1 1.00147 0.99909
1.00159 1 1.00331 0.998285
1 1 1 1
0.999978 1 1 0.999978
0.999268 1 1.00001 0.999255
1 1 1 1
0.999995 1 1 0.999995
1 1 1 1
0.666149 0.853073 0.8743 0.893151
0.631403 0.810223 0.8739 0.891744
0.642125 0.836425 0.868599 0.883839
1.02736 1 1.02996 0.99747
1.00915 1.00209 1.00941 0.997659
1.00339 1 1.00562 0.997778
1.00912 1 1.01156 0.997583
1.00097 1 1.00312 0.997856
1.00754 1 1.00977 0.997786
0.996667 0.998538 1 0.998127
0.627611 0.836829 0.854048 0.878156
0.676202 0.87643 0.870748 0.886067
0.62109 0.818879 0.859209 0.882746
0.667584 0.889898 0.854813 0.877596
0.794737 0.906181 0.901378 0.972974
0.765769 0.851236 0.947899 0.949042
0.731284 0.865161 0.923888 0.914893
0.801124 0.896411 0.919575 0.971863
0.804422 0.860556 0.989435 0.944752
0.782186 0.907648 0.943136 0.913731
0.62584 0.84788 0.842788 0.87581
0.850287 0.895551 0.973117 0.975686
0.829196 0.878226 0.999548 0.944598
0.709072 0.850385 0.922723 0.903657
0.543134 0.764835 0.822522 0.86336
1.05832 0.99627 1.06401 0.998375
1.00408 0.999273 1.00684 0.997985
1.00429 1 1.00673 0.997572
1.0018 1 1.00424 0.997571
0.926038 0.926195 1.0033 0.996542
0.982657 0.928708 1.05923 0.998924
1.02237 0.997533 1.02685 0.998101
1.03778 0.989779 1.05029 0.998285
1.04585 0.964321 1.08583 0.998821
1.03819 0.991707 1.04852 0.99842
1.03913 0.956637 1.08756 0.998779
0.936725 0.920093 1.02458 0.993657
1.01068 0.943453 1.0722 0.999126
1.01552 0.96482 1.0537 0.998906
0.931998 0.910865 1.03129 0.992153
0.979359 0.925995 1.05847 0.999206
0.624359 0.80058 0.873449 0.892878
0.683833 0.864029 0.882068 0.897262
0.632651 0.808405 0.876923 0.89243
0.970925 0.929097 1.04523 0.999805
0.922458 0.919339 1.01345 0.990077
0.659005 0.840411 0.875623 0.89553
0.858094 0.904922 1.0026 0.945788
0.727539 0.859715 0.92601 0.913874
0.626676 0.824371 0.860227 0.883706
0.521829 0.725381 0.830297 0.86642
1.00139 0.939366 1.06842 0.997767
0.63293 0.814197 0.870929 0.892572
0.607486 0.811813 0.856158 0.87403
0.879572 0.896538 0.9982 0.982845
0.480116 0.671673 0.825016 0.866414
0.608756 0.756633 0.891257 0.902724
0.809358 0.867742 0.986238 0.945732
0.985061 0.940176 1.0533 0.99472
0.651067 0.848832 0.867585 0.88408
0.514066 0.692521 0.855925 0.867261
0.55251 0.731238 0.82478 0.916101
0.747711 0.828257 0.947535 0.952738
0.825643 0.870865 0.973016 0.974365
1.03304 0.964421 1.07159 0.99959
1.00081 0.950627 1.05339 0.999428
0.984044 0.962754 1.02298 0.999157
0.993216 0.958706 1.03662 0.999402
1.01442 0.979107 1.03725 0.998859
1.02358 1.0008 1.0253 0.997524
0.995291 1.00298 0.995104 0.997216
1.03224 1.00184 1.03538 0.995126
1.01867 1.00355 1.02101 0.994179
1.01109 1.00356 1.01269 0.994873
1.01022 1.0054 1.01112 0.993739
1.0081 1.00993 1.00448 0.993734
1.06046 1.06718 0.999068 0.994632
1.03674 1.04159 1.00077 0.994588
1.02043 1.02422 1.00218 0.994139
1.0208 1.02559 1.00013 0.99521
1.01625 1.02065 1.00074 0.994957
1.01075 1.01285 1.00357 0.994371
1.02545 1.02751 1.00248 0.995521
1.01885 1.02233 1.00108 0.995522
1.03276 1.03706 1.00043 0.995428
1.01656 1.00855 1.01116 0.996824
1.01493 1.01188 1.00653 0.996506
1.02755 1.02854 1.00289 0.996157
1.02134 1.00383 1.01959 0.997904
1.02181 1.0048 1.01967 0.997308
1.01629 1.00934 1.00993 0.996979
1.00517 1 1.00564 0.999536
1.01967 1.00079 1.0207 0.998205
1.02009 1 1.02263 0.997519
1.00978 1 1.01132 0.998482
1.0023 1 1.00263 0.999674
1 1 1 1
1.00045 1 1.00066 0.999788
1 1 1 1
1 1 1 1
1.01994 1.00088 1.02162 0.997486
1.01566 1.00039 1.0176 0.997696
1.00312 1 1.00443 0.998695
1.00542 1 1.00749 0.997945
0.999882 1 1 0.999882
1.00226 1 1.00332 0.998946
1.00564 1 1.00757 0.998091
1 1 1 1
0.999946 1 1 0.999946
1.00024 1 1.00109 0.999147
1 1 1 1
0.999984 1 1 0.999984
1 1 1 1
0.628526 0.811899 0.871895 0.887887
0.659091 0.846847 0.870679 0.893887
0.630822 0.81378 0.869193 0.891833
1.0292 1 1.03183 0.99745
1.01312 1.00134 1.0141 0.997699
0.998999 1.00132 1.0003 0.997382
1.03062 0.999926 1.03309 0.997681
1.01137 1.00504 1.00854 0.997777
1.01184 1 1.01432 0.997556
1.00027 0.999802 1.00257 0.997897
1.00942 0.999686 1.01197 0.997793
0.998046 0.999528 1.00032 0.998197
1.03066 0.999137 1.03339 0.998216
0.586164 0.798025 0.840158 0.874261
0.623474 0.82747 0.857485 0.878698
0.672596 0.875086 0.865536 0.888011
0.621403 0.845014 0.838893 0.876603
0.776903 0.912268 0.93899 0.90695
0.795613 0.888951 0.92272 0.96996
0.802635 0.857013 0.983979 0.951798
0.840863 0.899828 0.962398 0.970981
0.832637 0.892545 0.979854 0.95206
0.725725 0.847281 0.942573 0.908719
0.552192 0.779908 0.821651 0.861706
0.868494 0.897918 0.993151 0.973901
0.810692 0.853246 0.997055 0.952934
0.614993 0.749648 0.89597 0.915629
0.498256 0.679436 0.840183 0.872831
1.04511 0.99828 1.04803 0.998928
1.05857 0.995456 1.06513 0.998382
1.00903 1 1.01103 0.998024
0.934177 0.918566 1.02584 0.991381
1.01459 0.941367 1.0786 0.999244
1.03788 0.994619 1.04515 0.998422
1.05008 0.953359 1.10282 0.998767
1.02138 0.971164 1.05285 0.998912
0.983794 0.934224 1.05386 0.999238
0.926536 0.906759 1.02982 0.992227
1.0014 0.975721 1.02698 0.999354
0.94507 0.931416 1.02088 0.993911
0.646465 0.833789 0.871329 0.889829
0.637016 0.811469 0.878984 0.893094
0.676169 0.856515 0.876736 0.900433
1.00529 0.951344 1.05881 0.998007
0.874612 0.898781 0.995711 0.9773
0.643473 0.823993 0.874798 0.892686
0.812907 0.866913 0.987951 0.94914
0.618856 0.745697 0.908086 0.913902
0.598855 0.811372 0.844481 0.874001
0.493129 0.698168 0.821026 0.860288
0.981344 0.938058 1.05127 0.995128
0.646725 0.841509 0.869315 0.884063
0.513863 0.698396 0.849571 0.866056
0.839495 0.886443 0.969961 0.976367
0.570272 0.740426 0.842657 0.914007
0.739575 0.841214 0.927373 0.948027
0.921153 0.918535 1.01023 0.992699
0.520772 0.699858 0.853352 0.871986
0.594653 0.763745 0.847717 0.918468
0.716959 0.857777 0.881793 0.94788
0.795037 0.880619 0.923838 0.977244
1.00694 0.953159 1.05701 0.99945
0.985267 0.951563 1.03633 0.999125
0.99759 0.986407 1.01298 0.998374
1.01462 0.964163 1.05341 0.998979
1.01557 0.998937 1.01907 0.997625
0.98996 1.00452 0.989105 0.99636
1.03157 1.00183 1.03496 0.994904
1.01759 1.00496 1.0185 0.994171
1.00401 1.00905 1.00021 0.994792
1.01137 1.00568 1.01209 0.993642
1.00685 1.00942 1.0037 0.993777
1.04459 1.05787 0.992488 0.994919
1.07932 1.09705 0.98824 0.995546
1.07562 1.08134 0.999977 0.994736
1.06078 1.06806 0.998513 0.994667
1.04963 1.05502 1 0.994892
1.03517 1.03975 1.00107 0.994525
1.02045 1.02402 1.00244 0.994083
1.04372 1.04843 1.00026 0.995239
1.01849 1.0233 1.00002 0.995275
1.01365 1.01839 1.00032 0.995023
1.02826 1.02288 1.00928 0.996021
1.02135 1.02228 1.00349 0.99562
1.02034 1.02384 1.0011 0.995497
1.02414 1.00626 1.02035 0.99748
1.02134 1.01017 1.01428 0.996816
1.01529 1.011 1.00762 0.996651
1.00805 1 1.00866 0.999389
1.02413 1.00535 1.02081 0.997906
1.02158 1.00603 1.01819 0.997314
0.999863 1 1 0.999863
1.00704 1 1.00753 0.999517
1.02015 1.00124 1.02071 0.998208
1.00388 1 1.00423 0.999659
1 1 1 1
1 1 1 1
1.01182 1.00415 1.01038 0.997282
1.02048 1.00073 1.02235 0.997456
1.02227 1.00067 1.02418 0.997465
1.00797 1 1.00953 0.998449
1.01319 1.00036 1.01516 0.997692
1.00073 1 1.00091 0.999819
1.00437 1 1.00568 0.998699
1.00682 1 1.0089 0.997938
1 1 1 1
0.999897 1 1 0.999897
1.00138 1 1.00243 0.998947
1 1 1 1
0.999958 1 1 0.999958
1 1 1 1
0.632719 0.819055 0.868774 0.889183
0.632355 0.816661 0.871978 0.888002
0.659411 0.837237 0.88042 0.894577
1.01317 1.00488 1.01126 0.997025
1.02548 1 1.02812 0.997431
1.01058 1 1.01287 0.997742
1.02472 1 1.02719 0.997595
1.00315 1.00459 1.00118 0.997396
1.00322 1.00156 1.00365 0.998015
1.01839 1.00386 1.01765 0.996875
1.02323 0.990788 1.03474 0.998068
1.0092 0.999282 1.01215 0.997802
0.998108 1 0.99984 0.998267
1.03207 0.997032 1.03701 0.998202
1.05101 1.00042 1.05218 0.99847
0.534681 0.709232 0.864404 0.872146
0.605184 0.817607 0.847091 0.873801
0.622719 0.822927 0.860767 0.879114
0.564356 0.785687 0.825683 0.869942
0.713422 0.839774 0.93681 0.906844
0.832695 0.88297 0.998211 0.944753
0.848626 0.901587 0.968497 0.971875
0.864534 0.89434 0.990013 0.976424
0.496628 0.686635 0.834574 0.866643
0.803212 0.860731 0.985498 0.946906
0.614489 0.757109 0.895455 0.906384
0.864029 0.901718 0.978562 0.979194
0.76418 0.846493 0.945043 0.955259
0.55474 0.729712 0.830783 0.915062
0.984559 1.00122 0.98379 0.999561
1.04751 0.998508 1.0502 0.998934
1.0569 0.994114 1.06488 0.998386
0.930972 0.911086 1.02976 0.992294
0.991958 0.946822 1.04843 0.999273
1.03054 0.981776 1.0508 0.998919
0.998272 0.973052 1.02657 0.999366
0.942452 0.932608 1.01667 0.993988
0.963912 0.967658 0.999841 0.996287
0.549673 0.718944 0.868979 0.879834
0.64306 0.830244 0.868633 0.891681
0.64316 0.821246 0.876775 0.893219
0.979115 0.934286 1.05288 0.995343
0.833736 0.882724 0.966453 0.977289
0.641174 0.831528 0.872045 0.884218
0.757569 0.840736 0.950722 0.947783
0.560391 0.745401 0.830024 0.905754
0.535491 0.723043 0.848346 0.873001
0.921566 0.912738 1.01708 0.992718
0.53596 0.704634 0.865047 0.879285
0.572852 0.753494 0.836375 0.908996
0.794374 0.889238 0.918723 0.97235
0.746184 0.879739 0.887722 0.955465
0.915989 0.93999 0.977762 0.996629
0.623978 0.778141 0.885386 0.905687
0.81567 0.949741 0.895877 0.958652
0.783523 0.902579 0.893224 0.971866
0.988347 0.943918 1.04801 0.9991
0.984034 0.985389 1.00018 0.998443
0.983721 1.00023 0.986211 0.997245
1.00711 0.997559 1.01188 0.997727
0.992093 1.00445 0.991355 0.996311
0.990125 1.01083 0.983283 0.996173
1.01718 1.00687 1.01617 0.994163
1.00376 1.00896 1.00007 0.994785
1.03381 1.05706 0.981939 0.995996
1.00607 1.00911 1.00319 0.99382
1.04359 1.05708 0.992268 0.994923
1.07208 1.09826 0.979861 0.996225
1.06756 1.09191 0.981255 0.99638
1.08359 1.09682 0.992443 0.995457
1.08161 1.09903 0.988499 0.995597
1.08448 1.08999 0.999968 0.994975
1.07339 1.07911 0.99988 0.994822
1.06037 1.06823 0.997936 0.994702
1.07087 1.07613 1 0.995106
1.0495 1.05473 1.00014 0.994906
1.03325 1.03747 1.00148 0.994461
1.05107 1.05292 1.00281 0.995453
1.04123 1.04579 1.0004 0.995234
1.01636 1.02111 1 0.99534
1.0202 1.01154 1.01166 0.996928
1.03114 1.02594 1.0091 0.99601
1.01538 1.01501 1.00467 0.995721
1.00709 1.00026 1.00781 0.999032
1.02327 1.00897 1.01675 0.99747
1.0239 1.01149 1.01551 0.996806
1 1 1 1
1.00771 1.00013 1.00834 0.999249
1.02539 1.00684 1.02056 0.997907
1 1 1 1
1.00814 1 1.00868 0.99947
1 1 1 1
1.01438 1.01103 1.00644 0.996896
1.0105 1.00424 1.00904 0.99722
1.02036 1.00354 1.01952 0.997295
1.01576 1 1.01756 0.998228
1.02309 1.00082 1.02486 0.997453
1.02842 1 1.03106 0.997442
1.00301 1 1.00329 0.999724
1.00786 1 1.00942 0.998455
1.01102 1 1.01336 0.997686
1 1 1 1
1.00069 1 1.00086 0.999832
1.0054 1 1.0067 0.998703
1 1 1 1
0.999911 1 1 0.999911
1 1 1 1
0.532815 0.710136 0.861831 0.870589
0.637159 0.826091 0.867313 0.889291
0.636228 0.822222 0.871241 0.888148
1.01961 1.00368 1.01893 0.997003
1.0336 1.01514 1.02169 0.996565
1.03553 1.00299 1.0356 0.996951
1.02585 1 1.02842 0.997505
1.00662 1.00843 1.0008 0.997411
1.0002 0.999015 1.00294 0.998246
1.025 0.996804 1.0304 0.997952
1.02052 1.004 1.01943 0.997089
1.02069 0.998917 1.0245 0.997362
0.971388 0.999685 0.97271 0.998955
1.03351 0.998544 1.03689 0.998186
1.04568 0.99897 1.0484 0.998434
0.581765 0.755861 0.85089 0.904549
0.50493 0.677954 0.858586 0.867456
0.619999 0.831195 0.853693 0.873749
0.494 0.694993 0.826318 0.8602
0.622864 0.766403 0.887732 0.915491
0.791828 0.85604 0.975507 0.948214
0.858981 0.886712 0.995539 0.973067
0.849995 0.893617 0.974757 0.975818
0.575936 0.743308 0.848443 0.913234
0.745588 0.844814 0.930708 0.948253
0.825896 0.902236 0.93552 0.978481
0.719952 0.886932 0.855203 0.94917
0.989766 1 0.990652 0.999106
0.984866 1.00085 0.984522 0.999496
1.04825 0.99766 1.05182 0.998939
0.92994 0.924506 1.01185 0.994095
0.991681 0.967039 1.02612 0.999378
0.966662 0.971209 0.999068 0.996247
0.946441 0.98254 0.968292 0.994802
0.658754 0.793401 0.907466 0.914956
0.543737 0.719442 0.859687 0.879129
0.647107 0.831735 0.87086 0.893393
0.924991 0.92158 1.01079 0.992992
0.798704 0.889313 0.923242 0.972782
0.537563 0.704147 0.868438 0.879078
0.718058 0.875122 0.865032 0.948547
0.585393 0.745223 0.855524 0.918183
0.912624 0.943355 0.972525 0.994755
0.639488 0.78889 0.888687 0.912152
0.783277 0.934746 0.882154 0.949899
0.787991 0.90086 0.89712 0.97502
0.913635 0.967877 0.947611 0.996144
0.859429 0.972485 0.922753 0.957727
0.8419 0.950865 0.903847 0.979596
0.969135 0.982342 0.988049 0.998489
0.978753 1.00029 0.981215 0.997202
0.968189 1.00912 0.962364 0.99696
0.994144 1.00406 0.993838 0.996264
0.989794 1.0101 0.983676 0.996158
1.00879 1.05885 0.955753 0.99683
1.00307 1.00857 0.999761 0.994779
1.02997 1.05474 0.98047 0.995963
1.04849 1.09617 0.959528 0.996846
1.04292 1.05661 0.992077 0.994926
1.07083 1.09804 0.978928 0.996212
1.05874 1.09277 0.971904 0.996869
1.06793 1.09285 0.980383 0.996757
1.06715 1.09215 0.980581 0.996457
1.07138 1.08983 0.986788 0.996229
1.08728 1.09688 0.995703 0.995529
1.08496 1.09717 0.993346 0.995495
1.0845 1.10163 0.988757 0.995649
1.09005 1.09538 0.999982 0.995158
1.0856 1.09121 0.999868 0.994999
1.07167 1.07739 0.999784 0.994908
1.07219 1.0773 1 0.99526
1.07327 1.07855 1 0.995104
1.04957 1.05475 1.00017 0.994921
1.02314 1.02374 1.00306 0.996366
1.05184 1.05428 1.00223 0.995465
1.03879 1.04319 1.00055 0.995228
1.00622 1.00054 1.00706 0.998626
1.02294 1.01474 1.01119 0.996919
1.03612 1.03069 1.0093 0.996001
1 1 1 1
1.00702 1.00003 1.00799 0.99901
1.02435 1.01165 1.01513 0.997459
0.999892 1 1 0.999892
1.00798 1 1.00874 0.999253
1 1 1 1
1.02612 1.01922 1.01032 0.996488
1.01244 1.00584 1.00968 0.996905
1.0128 1.00619 1.0095 0.997103
1.00944 1.0049 1.00738 0.997157
1.01809 1.00213 1.01867 0.997302
1.02105 1 1.02311 0.997991
1.00537 1 1.0058 0.999574
1.01472 1 1.01652 0.998225
1.02187 1.00008 1.0244 0.997451
1 1 1 1
1.00186 1 1.00212 0.999741
1.00766 1 1.00921 0.998461
1 1 1 1
1.00008 1 1.00023 0.999849
1 1 1 1
0.625263 0.781422 0.87732 0.912051
0.535483 0.711845 0.861426 0.873258
0.63869 0.829607 0.865571 0.889437
1.02383 1.00207 1.0248 0.996982
1.04298 1.00204 1.04435 0.996655
1.02784 1.01336 1.01777 0.996582
1.02077 1.02276 1.00242 0.995651
1.0327 1.00506 1.03039 0.997198
1.02109 0.999899 1.0234 0.997843
1.0207 1.00344 1.01995 0.997302
1.02097 1.00081 1.0227 0.997489
0.99732 1.0097 0.990709 0.997005
0.963319 1.00204 0.962894 0.99841
0.96945 1.00117 0.970651 0.9976
0.978496 1.00117 0.978351 0.998978
1.03979 0.998092 1.04345 0.998402
0.790556 0.936274 0.883768 0.955414
0.579058 0.754575 0.845601 0.907516
0.491305 0.663172 0.851122 0.870429
0.568371 0.749812 0.837308 0.905303
0.75035 0.846407 0.931685 0.951514
0.859756 0.894574 0.981487 0.979208
0.822105 0.897115 0.934227 0.980905
0.750776 0.882434 0.888887 0.957153
0.836632 0.948947 0.899888 0.979726
0.983583 1.00033 0.984979 0.998253
0.99261 0.999414 0.994109 0.999078
0.985343 1.00037 0.985533 0.999433
0.971944 0.976813 0.99872 0.99629
0.955961 0.986093 0.973593 0.995737
0.854223 0.963314 0.930809 0.952671
0.650176 0.789885 0.897837 0.916789
0.536289 0.717315 0.851043 0.878492
0.916007 0.952743 0.968475 0.992738
0.791034 0.911415 0.89274 0.972196
0.627264 0.782965 0.879487 0.910917
0.791911 0.931857 0.88729 0.957771
0.923477 0.970087 0.955524 0.996262
0.86335 0.978217 0.921885 0.957359
0.838696 0.947634 0.906627 0.976192
0.917173 0.998138 0.92301 0.99553
0.888475 0.985451 0.914491 0.985896
0.976654 1.0021 0.977355 0.997189
0.961578 1.00908 0.955874 0.996919
0.967071 1.04574 0.927328 0.997245
0.989222 1.00941 0.983797 0.996142
1.01293 1.06104 0.957729 0.996791
1.037 1.09967 0.945683 0.997172
1.02622 1.05236 0.979143 0.995931
1.04882 1.09556 0.960396 0.996817
1.04928 1.09626 0.959945 0.997082
1.06907 1.09732 0.977971 0.996198
1.05836 1.0921 0.972168 0.996847
1.06345 1.09793 0.971567 0.996937
1.0655 1.09138 0.979412 0.996814
1.06951 1.09302 0.981859 0.996565
1.06645 1.09204 0.979972 0.996534
1.07036 1.08963 0.986043 0.996221
1.0738 1.08729 0.991578 0.995983
1.08887 1.09542 0.998561 0.99546
1.08854 1.09732 0.996469 0.995517
1.08618 1.09736 0.994261 0.995533
1.08361 1.08882 1 0.99521
1.0926 1.09797 0.999967 0.995143
1.08643 1.09212 0.999764 0.995023
1.0386 1.04053 1.00219 0.99596
1.07087 1.07596 1 0.995268
1.076 1.08129 1 0.995102
1.00438 1.00223 1.00399 0.99817
1.02512 1.0254 1.00337 0.996374
1.05275 1.05525 1.00216 0.995477
1 1 1 1
1.00578 1.0008 1.00639 0.998595
1.02429 1.01776 1.00953 0.996911
1 1 1 1
1.00644 1.00002 1.00743 0.998987
1 1 1 1
1.03355 1.0372 1.00086 0.99563
1.02446 1.02184 1.00611 0.996483
1.01869 1.00977 1.01226 0.996621
1.01103 1.00106 1.01308 0.996914
1.01388 1.00408 1.01276 0.997043
1.02062 1.00471 1.01825 0.997623
1.01998 1.00142 1.02128 0.997307
1.02281 1.00026 1.02461 0.997981
1.01017 1.00007 1.01078 0.999336
1 1 1 1
1.00511 1 1.00552 0.999587
1.01604 1 1.01785 0.998223
1 1 1 1
1.00204 1 1.00229 0.999752
1 1 1 1
0.854976 0.969529 0.918666 0.95992
0.642143 0.792108 0.88786 0.913067
0.528482 0.709654 0.856262 0.869716
1.05339 1.00153 1.05563 0.996357
1.02161 1.01253 1.01241 0.9966
1.0291 1.00688 1.02515 0.996995
1.01963 1.02171 1.00224 0.99574
1.04388 1.04844 1.00016 0.995485
1.00435 1.01553 0.992314 0.996657
1.02483 1.00383 1.02336 0.997611
0.998417 1.01096 0.990809 0.996759
0.971231 1.00252 0.970351 0.998388
1.0014 1.00894 0.995524 0.996983
0.973252 1.00404 0.971794 0.997476
0.987617 1.00172 0.988829 0.997063
0.968174 1.00144 0.969003 0.997706
0.985563 1.00046 0.986094 0.999001
0.845737 0.960018 0.899305 0.9796
0.791414 0.942422 0.880205 0.954057
0.595385 0.753615 0.861589 0.916956
0.720359 0.870748 0.872359 0.948334
0.834561 0.899459 0.94473 0.982129
0.844707 0.937596 0.914732 0.98491
0.944073 1.00317 0.94496 0.995908
0.979795 0.999859 0.981759 0.99814
0.995321 0.998692 0.997571 0.999051
0.964342 0.989404 0.977941 0.996654
0.877478 0.972951 0.919991 0.980306
0.85988 0.968724 0.923475 0.961197
0.639852 0.783037 0.89989 0.908046
0.921658 0.965313 0.958214 0.996413
0.83683 0.947114 0.903355 0.978084
0.856008 0.980497 0.912542 0.956707
0.917932 0.996452 0.925172 0.995708
0.893578 0.983216 0.922896 0.984761
0.937449 1.02591 0.917251 0.996206
0.943621 1.02693 0.924121 0.994322
0.954714 1.0091 0.94907 0.996871
0.964045 1.04237 0.927409 0.997253
1.00591 1.09329 0.92271 0.997146
1.01749 1.06373 0.959649 0.996753
1.03678 1.09932 0.945815 0.997146
1.05835 1.10706 0.958848 0.997032
1.04924 1.0952 0.961118 0.996786
1.05061 1.09615 0.961278 0.997063
1.06992 1.1072 0.969343 0.996892
1.05816 1.0917 0.97236 0.996824
1.06223 1.09587 0.97228 0.996932
1.07069 1.09911 0.977398 0.996668
1.0632 1.09012 0.978367 0.99687
1.06903 1.09287 0.981511 0.99661
1.07385 1.0914 0.987631 0.996241
1.06941 1.0895 0.985284 0.996213
1.07403 1.08783 0.991304 0.995973
1.08223 1.09111 0.996083 0.995759
1.08403 1.08912 0.999983 0.995343
1.09014 1.09627 0.998988 0.995417
1.08979 1.09769 0.997286 0.995504
1.05435 1.0588 1 0.995796
1.08192 1.08712 1 0.995217
1.09525 1.10065 0.99996 0.995129
1.00758 1.0079 1.00182 0.997867
1.03789 1.03957 1.00243 0.995961
1.06814 1.07313 1.00008 0.995278
1 1 1 1
1.00515 1.00377 1.00323 0.998141
1.0269 1.0268 1.00373 0.996383
1 1 1 1
1.00562 1.00103 1.00603 0.998566
1 1 1 1
1.05946 1.0644 1 0.995362
1.03344 1.03746 1.00049 0.995646
1.03908 1.03903 1.00415 0.995916
1.02348 1.02384 1.00318 0.996478
1.02242 1.01573 1.01008 0.996537
1.02364 1.01588 1.01053 0.997137
1.01324 1.00084 1.01545 0.996985
1.01798 1.00289 1.01746 0.997628
1.00862 1.00034 1.00925 0.999036
1.02035 1.00017 1.02225 0.997974
1.00785 1 1.0085 0.999348
1 1 1 1
1 1 1 1
1.00349 1 1.00389 0.999604
1 1 1 1
0.872802 0.960965 0.925633 0.981226
0.847919 0.965623 0.922547 0.951827
0.650683 0.78399 0.903389 0.918722
1.0733 1.07903 0.999159 0.995525
1.02512 1.00862 1.01962 0.996797
1.01937 1.02151 1.00208 0.99583
1.00662 1.01785 0.992266 0.996668
1.04534 1.04974 1.00033 0.995471
1.03207 1.03692 0.998724 0.996589
1.00077 1.01197 0.992396 0.996514
0.977622 1.00212 0.977153 0.998365
0.99958 1.01053 0.992139 0.996999
0.964929 1.00325 0.964392 0.997314
1.02295 1.02692 0.999886 0.99625
0.963386 1.00824 0.958205 0.997194
0.987588 1.00228 0.988232 0.997075
0.968246 1.00171 0.968715 0.997812
0.929286 1.0048 0.928008 0.996591
0.832125 0.951334 0.894618 0.977728
0.797523 0.949729 0.881197 0.952951
0.84134 0.931104 0.919814 0.982365
0.945769 1.00288 0.945648 0.997253
0.976261 0.999948 0.978255 0.998014
0.952188 1.01682 0.943575 0.992434
0.878713 0.960218 0.932399 0.981468
0.855315 0.969133 0.926213 0.952866
0.924335 0.99592 0.931966 0.995875
0.900594 0.985951 0.92873 0.983522
0.939437 1.02776 0.917321 0.996452
0.951738 1.02729 0.931331 0.994764
0.991113 1.06208 0.93612 0.99686
1.05386 1.12488 0.93986 0.996814
0.960353 1.03827 0.927501 0.997259
1.01274 1.09499 0.927552 0.997127
1.05626 1.12284 0.94365 0.996885
1.03674 1.09864 0.946379 0.99712
1.05501 1.10474 0.957822 0.99703
1.07263 1.11729 0.963127 0.996776
1.05188 1.09584 0.962732 0.997044
1.06734 1.10515 0.968784 0.996906
1.07489 1.10407 0.976867 0.996622
1.06103 1.09374 0.973082 0.996927
1.07134 1.09968 0.977488 0.996665
1.07421 1.09555 0.984099 0.996369
1.0685 1.09265 0.981177 0.996656
1.0734 1.09152 0.987074 0.996286
1.08204 1.094 0.993076 0.995959
1.07423 1.0884 0.990977 0.995964
1.08195 1.0909 0.996021 0.995763
1.08512 1.09003 1 0.995497
1.06102 1.0655 1 0.995798
1.08359 1.0887 0.999989 0.995323
1.09148 1.09721 0.999404 0.995375
1.01647 1.01858 1.00015 0.997776
1.05257 1.057 1.00002 0.995797
1.08091 1.0861 1 0.995224
0.999999 1 1 0.999999
1.01037 1.01151 1.00103 0.997849
1.03809 1.0401 1.00211 0.995963
0.999999 1 1 0.999999
1.00604 1.00578 1.00215 0.998112
1 1 1 1
1.07764 1.08282 0.999926 0.995291
1.0569 1.06183 1 0.995355
1.06803 1.07282 1 0.995527
1.03221 1.03644 1.00026 0.995662
1.04436 1.04402 1.00447 0.995877
1.0348 1.03222 1.00584 0.996682
1.02571 1.02137 1.00782 0.996453
1.01947 1.01054 1.01173 0.997144
1.00615 1.00077 1.00666 0.998734
1.01877 1.00109 1.02008 0.997627
1.00933 1.00053 1.00976 0.999053
1 1 1 1
1.00707 1 1.00771 0.99936
1 1 1 1
1 1 1 1
0.931156 1.00999 0.92569 0.995956
0.861974 0.961066 0.917778 0.977244
0.847513 0.966583 0.913104 0.960256
1.06898 1.07597 0.997339 0.996147
1.07546 1.09029 0.990519 0.995839
1.07245 1.07864 0.998636 0.995626
1.00838 1.01995 0.99195 0.996677
1.04661 1.05079 1.00057 0.995456
1.03478 1.04046 0.997953 0.99658
1.05451 1.07764 0.982304 0.996162
0.998781 1.01233 0.989573 0.997015
0.959445 1.00297 0.959338 0.997154
1.027 1.03099 0.999717 0.996417
1.02306 1.06617 0.963225 0.996209
0.976144 1.03226 0.948212 0.997282
0.976748 1.01185 0.968107 0.997112
0.992227 1.00275 0.992399 0.997085
0.925765 1.00529 0.923687 0.996977
0.842642 0.955751 0.903418 0.97591
0.946046 1.00145 0.945959 0.998648
1.03628 1.08968 0.95362 0.997254
0.947606 1.01632 0.939334 0.992606
0.878269 0.964286 0.930345 0.978989
0.941519 1.03006 0.91709 0.996677
0.957641 1.02777 0.936232 0.995233
0.984571 1.06218 0.929652 0.997079
1.0502 1.12272 0.938354 0.996856
1.06217 1.13874 0.935697 0.996859
1.10747 1.16732 0.951538 0.997043
1.01944 1.09791 0.931227 0.997108
1.06164 1.12629 0.945542 0.996886
1.07501 1.12778 0.956358 0.996715
1.05125 1.1025 0.956359 0.997027
1.07273 1.11694 0.963527 0.996779
1.07295 1.10919 0.970621 0.996599
1.06469 1.10311 0.968157 0.996919
1.07589 1.10499 0.976965 0.996618
1.07641 1.09873 0.983237 0.996386
1.072 1.10026 0.977572 0.996663
1.07487 1.09616 0.98415 0.996366
1.08092 1.09524 0.990844 0.996048
1.07295 1.09161 0.986522 0.996331
1.08146 1.09372 0.992794 0.995968
1.08889 1.0942 0.999539 0.995603
1.08165 1.09062 0.995991 0.995767
1.08489 1.08985 0.999941 0.995513
1.06116 1.0656 1 0.99583
1.02194 1.02419 1 0.997806
1.06094 1.06542 1 0.995801
1.08334 1.08846 1 0.995303
0.999997 1 1 0.999997
1.01786 1.01983 1.0003 0.997768
1.0502 1.0542 1.00041 0.995797
0.999997 1 1 0.999997
1.01269 1.01394 1.00093 0.997831
0.999998 1 1 0.999998
1.08038 1.0887 0.996819 0.995528
1.07631 1.08162 0.999775 0.995318
1.07776 1.08276 1 0.995388
1.05469 1.05962 1 0.995346
1.06817 1.07297 1 0.995523
1.03624 1.038 1.00202 0.996295
1.05096 1.05072 1.00441 0.995838
1.03004 1.02681 1.00649 0.996683
1.00423 1.00222 1.00365 0.998365
1.01476 1.00661 1.01097 0.997153
1.00623 1.00063 1.00685 0.998756
1 1 1 1
1.00818 1.00006 1.00906 0.999069
1 1 1 1
1 1 1 1
0.980951 1.05991 0.927754 0.997579
0.932867 1.00823 0.930352 0.994521
0.865045 0.965366 0.915933 0.978325
1.06789 1.08941 0.984099 0.996084
1.06677 1.07432 0.996591 0.99637
1.08058 1.10141 0.984993 0.996034
1.07504 1.09099 0.989513 0.995817
1.07113 1.07787 0.998012 0.995728
1.07429 1.11303 0.969068 0.995999
1.03771 1.04421 0.997196 0.996571
1.05194 1.07397 0.983321 0.9961
1.04866 1.11255 0.946034 0.996339
1.02515 1.03498 0.993901 0.996584
1.02284 1.06782 0.961625 0.996099
0.968234 1.03856 0.934778 0.997332
0.985224 1.01419 0.97434 0.997028
0.922728 1.00565 0.920028 0.997295
1.09311 1.15407 0.949937 0.99709
1.04112 1.09539 0.953049 0.997284
0.949811 1.01534 0.942259 0.99279
0.978136 1.06138 0.924071 0.997294
1.04699 1.12029 0.937473 0.996898
1.05382 1.1335 0.93262 0.996878
1.11656 1.17493 0.953132 0.997047
1.0908 1.14436 0.956142 0.996926
1.06688 1.12915 0.947801 0.996888
1.07546 1.12654 0.957797 0.996725
1.0734 1.11336 0.967341 0.996662
1.07297 1.11655 0.964072 0.996781
1.07367 1.10929 0.971214 0.99658
1.0758 1.10039 0.981197 0.996388
1.07692 1.10594 0.977071 0.996615
1.07677 1.09907 0.983266 0.996382
1.07974 1.09504 0.989874 0.996113
1.07554 1.0968 0.984202 0.996363
1.0817 1.09596 0.990907 0.996047
1.09274 1.09879 0.99879 0.995697
1.08087 1.09345 0.992488 0.995976
1.08847 1.09386 0.999465 0.995609
1.06174 1.06618 1 0.995838
1.08445 1.08946 0.999876 0.995528
1.06215 1.06659 1 0.995832
1.02218 1.02396 1 0.998259
0.99922 1 1 0.99922
1.02203 1.02409 1 0.997994
1.06044 1.06491 1 0.995803
1 1 1 1
1.01954 1.02182 1 0.997761
0.999999 1 1 0.999999
1.08642 1.10346 0.988347 0.996166
1.08097 1.09455 0.991713 0.99584
1.07974 1.08904 0.99588 0.995563
1.07596 1.08089 1 0.995432
1.07539 1.08077 0.999673 0.995346
1.07576 1.08076 1 0.995377
1.04029 1.04388 1.00054 0.996012
1.06818 1.07299 1 0.995518
1.03849 1.04053 1.00176 0.996292
1.00816 1.00928 1.00091 0.997983
1.02547 1.02068 1.00804 0.996683
1.00502 1.002 1.00464 0.998386
0.999999 1 1 0.999999
1.00753 1.00109 1.00767 0.998779
1 1 1 1
1 1 1 1
1.0794 1.14239 0.947876 0.996817
0.995215 1.0719 0.930741 0.997546
0.930921 1.00805 0.929888 0.993113
1.0753 1.1034 0.978383 0.996072
1.06441 1.08576 0.984147 0.996124
1.06487 1.07283 0.995982 0.996592
1.07999 1.09919 0.986426 0.99605
1.07468 1.09159 0.988674 0.995795
1.07965 1.12893 0.959878 0.996319
1.06679 1.10667 0.967883 0.995954
1.04948 1.07047 0.984289 0.996039
1.04202 1.10552 0.946015 0.996342
1.02868 1.07143 0.963965 0.995989
0.962331 1.04869 0.920054 0.997391
1.08613 1.13209 0.962257 0.997036
1.09411 1.15455 0.950378 0.997128
1.04567 1.10185 0.951563 0.997315
1.04563 1.12912 0.928948 0.996892
1.12523 1.18308 0.953915 0.997051
1.09319 1.14701 0.956011 0.996928
1.08169 1.11459 0.973602 0.996799
1.07588 1.12522 0.959285 0.996735
1.07428 1.11322 0.968275 0.996643
1.07719 1.10159 0.981332 0.996448
1.07441 1.1094 0.971806 0.99656
1.07636 1.10091 0.981242 0.996387
1.07886 1.09476 0.989276 0.996152
1.07715 1.09943 0.983295 0.996377
1.08048 1.09574 0.989923 0.99611
1.09364 1.1008 0.997729 0.995764
1.08243 1.09663 0.990969 0.996046
1.09136 1.09751 0.998692 0.995701
1.06287 1.06734 1 0.995811
1.08808 1.09354 0.999389 0.995615
1.06283 1.06727 1 0.995841
1.02051 1.02225 1 0.998292
1.06355 1.068 1 0.995834
1.02167 1.02346 1 0.998252
0.999258 1 1 0.999258
0.999631 1 1 0.999631
1.02232 1.02416 1 0.998201
1 1 1 1
1.07696 1.09941 0.983331 0.996182
1.08361 1.09585 0.992838 0.995969
1.08469 1.10171 0.988216 0.996299
1.08395 1.08917 0.999644 0.995562
1.08294 1.09598 0.992231 0.995838
1.07893 1.08929 0.994873 0.995598
1.07605 1.081 1 0.995421
1.05618 1.06053 1 0.995899
1.07387 1.07887 1 0.995366
1.04507 1.04893 1.00031 0.996012
1.018 1.02022 1 0.997819
1.0393 1.04186 1.00125 0.99629
1.00609 1.00627 1.00182 0.998009
0.999999 1 1 0.999999
1.00483 1.00118 1.00525 0.99841
1 1 1 1
1 1 1 1
1.0798 1.12596 0.962188 0.99669
1.06944 1.13118 0.948441 0.996821
1.00828 1.08099 0.935064 0.997509
1.07732 1.11042 0.973838 0.996257
1.07214 1.10094 0.977688 0.996065
1.06055 1.08186 0.984076 0.996167
1.07911 1.09686 0.987704 0.996065
1.0805 1.1282 0.96128 0.996292
1.05898 1.09969 0.966931 0.995909
1.03203 1.09376 0.947023 0.996345
1.08542 1.11762 0.974249 0.996865
1.08486 1.12991 0.963022 0.996992
1.09495 1.15412 0.951425 0.997166
1.08036 1.10613 0.97993 0.99671
1.09543 1.14943 0.955954 0.996931
1.08129 1.11432 0.973491 0.996784
1.07969 1.10241 0.982763 0.99657
1.07514 1.11306 0.969202 0.996625
1.07756 1.10198 0.981319 0.996451
1.07868 1.09426 0.989534 0.996188
1.07687 1.10138 0.981288 0.996386
1.07909 1.09503 0.989247 0.996151
1.09319 1.10137 0.996748 0.995815
1.08123 1.09645 0.989972 0.996108
1.09252 1.09965 0.997734 0.995766
1.06312 1.06763 1 0.995782
1.08995 1.09619 0.998596 0.995705
1.06442 1.06889 1 0.995816
1.01905 1.02081 1 0.998277
1.06394 1.06838 1 0.995845
1.02004 1.0218 1 0.998275
0.999261 1 1 0.999261
1.02102 1.02281 1 0.998248
0.999279 1 1 0.999279
1 1 1 1
1.07653 1.09815 0.984148 0.996097
1.07903 1.09464 0.989699 0.996
1.07914 1.10064 0.984224 0.996181
1.08989 1.09587 0.998867 0.995674
1.08304 1.09738 0.990869 0.996024
1.08328 1.10018 0.988164 0.996431
1.06702 1.07144 1 0.995874
1.08523 1.09031 0.999791 0.995552
1.08554 1.09799 0.992797 0.995836
1.07635 1.08131 1 0.99541
1.05701 1.06136 1 0.995897
1.02449 1.02672 1 0.997825
1.0502 1.05441 1 0.996011
1.01487 1.01685 1.00022 0.997833
1 1 1 1
1.00507 1.00433 1.00271 0.998031
0.999998 1 1 0.999998
1 1 1 1
1.07957 1.11057 0.975416 0.996586
1.08093 1.12821 0.961302 0.996664
1.06159 1.12342 0.947971 0.996826
1.07683 1.10964 0.97406 0.996274
1.06897 1.09857 0.976903 0.996059
1.08218 1.12864 0.962437 0.996264
1.08306 1.10766 0.981026 0.996708
1.08559 1.11746 0.974546 0.996861
1.08389 1.12811 0.963747 0.996947
1.08082 1.10619 0.980264 0.996732
1.07814 1.0978 0.985505 0.996539
1.08087 1.11404 0.973377 0.996769
1.08012 1.1022 0.983382 0.996533
1.0772 1.09304 0.989182 0.996284
1.07793 1.10237 0.981308 0.996454
1.07854 1.09414 0.989516 0.996191
1.09259 1.10169 0.995878 0.995845
1.07941 1.09539 0.989214 0.99615
1.09252 1.1008 0.996648 0.995816
1.06171 1.06621 1 0.995778
1.09139 1.09852 0.997733 0.995769
1.06484 1.06935 1 0.995785
1.01651 1.0183 1 0.998237
1.066 1.07047 1 0.99582
1.01829 1.02008 1 0.998254
0.999238 1 1 0.999238
1.01956 1.02134 1 0.998264
0.999296 1 1 0.999296
0.999293 1 1 0.999293
1.07767 1.09935 0.983845 0.996378
1.08016 1.09376 0.99157 0.995967
1.07585 1.09916 0.982607 0.996121
1.09005 1.09859 0.996455 0.99576
1.07983 1.09424 0.990807 0.995984
1.0813 1.10185 0.985106 0.996181
1.06611 1.07054 1 0.995863
1.08945 1.09627 0.998074 0.995701
1.08217 1.09867 0.988863 0.99608
1.02316 1.02535 1 0.997871
1.0648 1.06922 1 0.995871
1.08583 1.09077 0.999932 0.995542
1.05769 1.06205 1 0.995894
1.02339 1.02562 1 0.997832
1 1 1 1
1.01141 1.01303 1.00055 0.997849
0.999999 1 1 0.999999
1 1 1 1
1.079 1.10212 0.982366 0.996597
1.07954 1.1106 0.975375 0.996572
1.08138 1.12966 0.960488 0.996638
1.07671 1.10902 0.974474 0.996292
1.07858 1.09494 0.988521 0.996498
1.08319 1.10802 0.980814 0.996719
1.08588 1.11733 0.974924 0.996857
1.08128 1.10625 0.980613 0.996754
1.07812 1.09817 0.985142 0.996549
1.07769 1.09172 0.990831 0.996275
1.08059 1.102 0.98402 0.996497
1.07826 1.09325 0.990018 0.996234
1.09107 1.10089 0.995143 0.995923
1.07842 1.09403 0.9895 0.996193
1.09197 1.10099 0.995939 0.995847
1.05948 1.06397 1 0.995781
1.09169 1.10005 0.99657 0.995817
1.06317 1.06767 1 0.995779
1.01249 1.01469 1 0.997826
1.06647 1.07098 1 0.995789
1.01523 1.01722 1 0.998035
1 1 1 1
1.01754 1.01934 1 0.998233
0.99928 1 1 0.99928
0.999322 1 1 0.999322
1.07768 1.0954 0.987296 0.996489
1.07771 1.09227 0.990521 0.996116
1.07832 1.09875 0.98498 0.996372
1.09039 1.09779 0.99747 0.995775
1.07923 1.0931 0.991311 0.995967
1.07519 1.10017 0.981081 0.996145
1.06437 1.06882 1 0.995838
1.09063 1.09852 0.997051 0.995761
1.08068 1.09385 0.991968 0.995968
1.0192 1.02133 1 0.997907
1.0643 1.06873 1 0.99586
1.08894 1.09659 0.997281 0.995728
1 1 1 1
1.02418 1.02636 1 0.997878
1.06277 1.06718 1 0.995868
1.02238 1.02459 1 0.99784
1 1 1 1
0.999997 1 1 0.999997
1.07733 1.09255 0.989538 0.996498
1.08018 1.1028 0.982831 0.996602
1.07937 1.11053 0.975299 0.996559
1.07777 1.08983 0.99269 0.996221
1.07759 1.09459 0.98792 0.996508
1.08332 1.10839 0.980593 0.996731
1.07807 1.09855 0.984745 0.99656
1.07761 1.0918 0.990691 0.996276
1.09129 1.09966 0.996469 0.995901
1.07924 1.09338 0.990845 0.996185
1.09156 1.10066 0.995846 0.99587
1.05692 1.0619 0.999481 0.995824
1.09145 1.10042 0.995983 0.995848
1.06066 1.06515 1 0.995782
1.00877 1.01097 1 0.997831
1.06481 1.06932 1 0.995781
1.01136 1.01357 1 0.997825
1 1 1 1
1.01397 1.01621 1 0.997799
0.999611 1 1 0.999611
0.999316 1 1 0.999316
1.07359 1.0887 0.989626 0.996462
1.07723 1.08924 0.992731 0.996213
1.07705 1.09457 0.987456 0.996497
1.08947 1.0967 0.99761 0.995782
1.0782 1.09242 0.990839 0.996105
1.07888 1.09807 0.986109 0.996367
1.06225 1.06689 0.99986 0.995794
1.09076 1.0978 0.997834 0.99574
1.07823 1.09243 0.991 0.995967
1.01546 1.0176 1 0.997893
1.06337 1.06785 0.999972 0.995831
1.09113 1.09845 0.997565 0.995761
1 1 1 1
1.02045 1.02259 1 0.997914
1.06279 1.06722 1 0.995858
1 1 1 1
1.0252 1.02737 1 0.997885
0.999999 1 1 0.999999
1.07827 1.08944 0.993469 0.996254
1.07642 1.09179 0.989406 0.996486
1.08137 1.10347 0.983309 0.996608
1.09137 1.09939 0.996799 0.995894
1.07726 1.08982 0.992214 0.996239
1.07661 1.09425 0.987321 0.996517
1.07755 1.09187 0.990572 0.996276
1.09058 1.09917 0.99627 0.995902
1.05432 1.05919 0.999561 0.995837
1.09203 1.10043 0.99653 0.995816
1.05787 1.06261 0.999731 0.995799
1.00583 1.00802 1 0.997827
1.06164 1.06613 1 0.995782
1.00778 1.00997 1 0.99783
1 1 1 1
1.01016 1.01236 1 0.997823
1 1 1 1
0.999293 1 1 0.999293
1.07726 1.08813 0.993764 0.996229
1.07216 1.0883 0.988652 0.996474
1.08957 1.09674 0.997604 0.995849
1.07782 1.08976 0.992799 0.996213
1.0764 1.09376 0.987587 0.996506
1.05997 1.06448 1 0.99576
1.09011 1.09736 0.997608 0.995778
1.07879 1.0927 0.991143 0.996094
1.012 1.01419 1 0.99785
1.0616 1.06616 0.999949 0.995774
1.0913 1.09787 0.998302 0.995705
1 1 1 1
1.01654 1.01868 1 0.997898
1.06242 1.0669 0.999976 0.995824
1 1 1 1
1.02161 1.02374 1 0.997921
1 1 1 1
1.09078 1.09808 0.997437 0.995907
1.07831 1.0893 0.99364 0.996245
1.07548 1.09099 0.989276 0.996474
1.05295 1.05777 0.999591 0.995851
1.09072 1.09881 0.99673 0.995894
1.07673 1.08977 0.991748 0.996256
1.08987 1.09867 0.996073 0.995902
1.05493 1.0599 0.999476 0.995833
1.00425 1.00642 1 0.997839
1.0589 1.06339 1 0.995774
1.00534 1.00753 1 0.997826
1 1 1 1
1.00686 1.00906 1 0.997829
1 1 1 1
1 1 1 1
1.09061 1.09724 0.998061 0.995889
1.07693 1.08828 0.993264 0.996275
1.07085 1.08801 0.987699 0.996486
1.05712 1.06159 1 0.995792
1.0899 1.09706 0.997618 0.995846
1.07841 1.09026 0.992886 0.996212
1.0087 1.0109 1 0.997827
1.05886 1.06337 1 0.995758
1.09068 1.09794 0.997601 0.995775
1 1 1 1
1.01299 1.01517 1 0.997853
1.06081 1.06533 1 0.995754
1 1 1 1
1.01759 1.01973 1 0.997903
1 1 1 1
1.05358 1.05801 1 0.995814
1.09021 1.09782 0.997134 0.995924
1.07836 1.0892 0.993794 0.996236
1.00324 1.00537 1 0.997883
1.05348 1.05837 0.99953 0.995849
1.09006 1.09825 0.996639 0.995895
1.05551 1.06058 0.999389 0.99583
1.00392 1.00609 1 0.99784
1 1 1 1
1.00484 1.00703 1 0.997824
1 1 1 1
1 1 1 1
1.05473 1.05916 1 0.995816
1.0902 1.09711 0.99777 0.99592
1.07649 1.08835 0.992755 0.996322
1.00641 1.00819 1 0.998243
1.05626 1.06073 1 0.995792
1.09011 1.09726 0.997629 0.995843
1 1 1 1
1.00963 1.01183 1 0.997828
1.05777 1.06228 1 0.995756
1 1 1 1
1.01402 1.0162 1 0.997856
1 1 1 1
1.00298 1.00514 1 0.997852
1.05295 1.05759 0.999775 0.995836
1.08966 1.09753 0.996867 0.995942
1 1 1 1
1.00311 1.00524 1 0.99788
1.05404 1.059 0.999476 0.995846
1.00362 1.00579 1 0.997839
1 1 1 1
1 1 1 1
1.0045 1.00628 1 0.998231
1.0543 1.05873 1 0.995817
1.08993 1.09712 0.997484 0.995951
1 1 1 1
1.00679 1.00896 1 0.997844
1.05563 1.06009 1 0.995792
1 1 1 1
1.01056 1.01275 1 0.997829
1 1 1 1
0.999323 1 1 0.999323
1.0035 1.00544 1 0.998069
1.05234 1.05722 0.999525 0.995857
1 1 1 1
1.00296 1.00509 1 0.997881
1 1 1 1
0.999325 1 1 0.999325
1.00484 1.0068 1 0.998056
1.05371 1.05813 1 0.995818
0.999651 1 1 0.999651
1.00747 1.00965 1 0.997849
1 1 1 1
1 1 1 1
1.0036 1.00571 1 0.9979
1 1 1 1
0.999664 1 1 0.999664
1.00524 1.00737 1 0.997886
1 1 1 1
1 1 1 1
1 1 1 1

VECTORS lamdaE float
1.00337 0.999773 0.991708
1.00303 1.00054 0.995726
1.00276 0.999947 0.992188
1.00268 1.00016 0.992185
1.00318 0.99992 0.991809
1.00358 0.999688 0.991559
1.00374 1.00095 0.989107
1.00313 1.00064 0.99563
1.00225 1.00004 0.996563
1.00215 1.00057 0.996525
1.00267 1.00143 0.990964
1.00385 1.00194 0.986399
1.00199 0.999946 0.993154
1.00159 1.00014 0.993421
1.00218 1.00015 0.992641
1.00222 1.00018 0.992658
1.00286 1.00002 0.992006
1.00265 0.999986 0.992292
1.00404 1.00087 0.988818
1.00205 1.00001 0.996319
1.00247 1.00017 0.992403
1.00295 1.00006 0.991974
1.00353 1.00024 0.990179
1.00372 1.00064 0.989502
1.00374 0.999779 0.991317
1.00379 1.00142 0.988518
1.0053 1.00148 0.985235
1.00326 1.00071 0.995508
1.00257 0.999945 0.994354
1.00262 1.00027 0.994219
1.00308 1.00129 0.995416
1.00387 1.00203 0.986341
1.00259 0.999909 0.992322
1.00291 0.999838 0.992009
1.00414 1.00064 0.989386
1.00122 1.00281 0.996347
1.00415 1.00134 0.988836
1.004 1.00266 0.985351
1.00545 1.00302 0.98294
1.00152 1.00147 0.996306
1.00202 0.999985 0.996326
1.00191 1.00007 0.994814
1.00195 0.999955 0.996396
1.00143 1.0001 0.993637
1.00351 0.999791 0.989462
1.00184 1.00004 0.996718
1.00385 1.0002 0.990311
1.00178 1.00014 0.993129
1.00214 1.00004 0.992761
1.00222 1.00032 0.992437
1.00431 1.00076 0.988546
1.00182 1.00002 0.994937
1.00201 1.00022 0.992881
1.00301 1.00027 0.991708
1.00246 1.00008 0.992448
1.00377 1.00021 0.989901
1.00412 1.00126 0.988246
1.00398 1.00058 0.989219
1.00531 1.00139 0.985407
1.00194 0.999982 0.996376
1.0023 1.00008 0.992702
1.00323 0.999846 0.99133
1.00339 1.00006 0.990571
1.00366 1.00042 0.989815
1.00542 0.999245 0.987514
1.00529 0.999932 0.986881
1.00366 1.0003 0.990888
1.00385 1.0024 0.987585
1.00533 1.00262 0.983997
1.00533 0.997507 0.988437
1.00305 0.999865 0.995846
1.00294 1.00134 0.995548
1.00315 1.00018 0.995779
1.00387 1.00208 0.986285
1.00268 0.999929 0.995956
1.00306 0.999906 0.99584
1.00395 1.00069 0.987683
1.00168 1.00228 0.993804
1.00391 1.0013 0.987087
1.00404 1.00281 0.986483
1.00543 1.00298 0.982917
1.00199 1.00187 0.995842
1.00227 1.0035 0.98774
1.00397 1.00045 0.988028
1.00414 1.00077 0.987352
1.00534 0.999763 0.986524
1.00364 1.00352 0.987405
1.00536 1.00164 0.984411
1.00545 1.00452 0.981421
1.00555 0.999897 0.985494
1.00096 1.00132 0.996798
1.00119 1.00158 0.996527
1.00233 1.00003 0.996109
1.00209 0.999985 0.996291
1.00199 0.999959 0.996387
1.0018 1 0.994966
1.00354 0.999794 0.990197
1.00214 1.00004 0.994654
1.0037 1.0002 0.989578
1.00195 0.999957 0.996411
1.00334 0.999642 0.989778
1.00375 1.00001 0.990605
1.00533 0.997581 0.989037
1.00387 1.00029 0.990081
1.00534 0.997992 0.988539
1.002 0.999923 0.993163
1.00154 1.00026 0.993361
1.00222 1.00081 0.99209
1.00199 1.00007 0.992916
1.00399 1.00021 0.989625
1.00422 1.00054 0.988944
1.00442 1.0012 0.987977
1.00531 1.0013 0.985574
1.00199 0.999962 0.996394
1.00187 1.00008 0.993175
1.00347 0.999679 0.990255
1.00362 1.00003 0.990293
1.00318 1.00101 0.993183
1.00415 1.0021 0.987707
1.0039 1.00038 0.98954
1.00541 0.998874 0.987939
1.00534 1.00256 0.984179
1.00529 1.00022 0.986618
1.00534 0.997553 0.988411
1.00334 0.999667 0.989768
1.00329 0.999803 0.990971
1.00534 0.99754 0.989448
1.00539 0.998186 0.988676
1.00535 0.999077 0.987709
1.00528 0.995816 0.990692
1.00248 1.00157 0.995828
1.00532 0.996355 0.989613
1.00385 1.00307 0.985162
1.00535 1.00369 0.982112
1.00533 0.998828 0.98715
1.00535 0.995056 0.990705
1.00291 1.00359 0.986375
1.00418 1.00396 0.984681
1.00283 0.999905 0.995905
1.00317 0.999921 0.995821
1.0039 1.00074 0.987682
1.00229 1.00177 0.995736
1.00366 1.00317 0.985478
1.00393 1.00124 0.987055
1.00544 1.00285 0.982893
1.00189 1.00174 0.996005
1.00241 1.00355 0.987668
1.004 1.0005 0.988838
1.00417 1.00088 0.988194
1.00533 0.99976 0.986498
1.00322 1.00364 0.985686
1.00538 1.00168 0.98437
1.00542 1.0044 0.981375
1.00556 0.999615 0.985808
1.00296 1.00356 0.986486
1.00198 1.00318 0.988683
1.00291 1.00244 0.986438
1.0054 0.999045 0.987259
1.00533 1.0006 0.985584
1.0053 0.995885 0.990169
1.00451 1.0051 0.98222
1.00547 0.997903 0.987938
1.00563 1.00219 0.983751
1.00564 0.997413 0.987471
1.00057 1.00057 0.997356
1.00075 1.00115 0.996998
1.00104 1.00154 0.99667
1.00214 1.00403 0.987619
1.00168 1.00204 0.996088
1.00257 0.999965 0.996003
1.00218 1.00001 0.996196
1.00349 1.00026 0.98891
1.00336 0.999803 0.989569
1.00197 0.999959 0.996371
1.00193 0.99995 0.99641
1.00332 0.99965 0.989776
1.00361 0.999985 0.989901
1.00532 0.997594 0.989047
1.00368 1.00038 0.988509
1.00534 0.99801 0.988547
1.00331 0.999598 0.989844
1.00533 0.997547 0.989079
1.00532 0.997707 0.98889
1.00532 0.994955 0.991834
1.00539 0.998451 0.987951
1.00532 0.994937 0.991666
1.00194 0.999958 0.996401
1.00138 1.00017 0.993646
1.0035 0.999578 0.989372
1.00386 1.00001 0.990014
1.0021 1.00189 0.996076
1.00449 1.00172 0.987843
1.00413 1.00036 0.989267
1.00541 0.998492 0.988364
1.00529 1.00049 0.986354
1.00534 1.00242 0.984375
1.00535 0.997609 0.988384
1.00333 0.999657 0.989768
1.0035 0.999813 0.990705
1.00534 0.997438 0.989415
1.00539 0.998495 0.988381
1.00266 1.00149 0.995704
1.00387 1.00301 0.986407
1.00536 1.00377 0.982498
1.00535 0.99913 0.9877
1.00529 0.995458 0.991027
1.00533 0.998729 0.987235
1.00533 0.996687 0.98932
1.00534 0.995073 0.990658
1.0029 1.00364 0.986303
1.0035 1.00448 0.984606
1.00533 0.997659 0.988973
1.00536 0.997879 0.989156
1.00534 0.99542 0.991204
1.00529 0.994954 0.99154
1.00534 0.996181 0.989878
1.00516 0.994944 0.991536
1.00348 1.0033 0.985613
1.00535 0.994853 0.991039
1.00541 1.00467 0.981166
1.00543 0.999893 0.985678
1.00534 0.996304 0.989526
1.0054 0.994778 0.99081
1.00479 1.00467 0.982333
1.00166 1.00494 0.987776
1.00514 1.00365 0.983066
1.00379 1.00057 0.988074
1.00151 1.00174 0.996258
1.0022 1.00361 0.987603
1.00395 1.00093 0.987371
1.00532 0.999753 0.986476
1.00334 1.00355 0.985753
1.00543 1.00437 0.981332
1.00538 1.00173 0.984323
1.00556 0.99931 0.986126
1.00267 1.00373 0.986632
1.00176 1.00334 0.988672
1.00309 1.00349 0.986528
1.00538 0.99905 0.987256
1.00534 1.00062 0.985543
1.00533 0.995864 0.990189
1.00494 1.00438 0.982148
1.00545 0.997944 0.98789
1.00562 1.002 0.98372
1.00561 0.997142 0.9877
1.00146 1.00275 0.990133
1.00298 1.00421 0.985162
1.00321 1.00383 0.986145
1.00248 1.00257 0.986965
1.00526 0.99533 0.990981
1.00542 0.996839 0.988988
1.00538 0.994869 0.99089
1.00551 1.0044 0.981968
1.00543 0.995416 0.990112
1.00556 1.00036 0.985465
1.00558 0.996354 0.988624
1.00083 1.00434 0.989707
1.00054 1.00188 0.992224
1.00039 0.999562 0.997848
1.00041 1.00032 0.997567
1.00045 1.00104 0.997247
1.00047 1.00337 0.990577
1.00075 1.00181 0.996669
1.00217 1.00381 0.98752
1.00194 1.00192 0.996003
1.00363 1.00043 0.98851
1.00344 0.999975 0.989264
1.00533 0.998023 0.988561
1.00531 0.997606 0.989057
1.00333 0.999662 0.989781
1.00198 0.999939 0.996406
1.00333 0.999598 0.989849
1.00532 0.997559 0.989086
1.00532 0.997723 0.988901
1.00533 0.994955 0.991834
1.00538 0.998459 0.987959
1.00531 0.994937 0.991677
1.00533 0.997591 0.98905
1.00534 0.994954 0.991858
1.00532 0.994958 0.99177
1.00525 0.994928 0.991726
1.0053 0.995013 0.991441
1.00522 0.994953 0.991541
1.00334 0.999654 0.989776
1.00373 0.999752 0.990439
1.00533 0.997319 0.989386
1.00538 0.998781 0.988087
1.00284 1.00141 0.995559
1.00416 1.00287 0.98736
1.00539 1.00371 0.982869
1.00535 0.99917 0.987691
1.00529 0.99511 0.991363
1.00534 0.997011 0.989028
1.00534 0.998653 0.98732
1.00534 0.995093 0.990611
1.00289 1.00361 0.986226
1.00308 1.00449 0.984538
1.00533 0.997422 0.989241
1.00535 0.997787 0.989176
1.00534 0.995436 0.991176
1.00529 0.995293 0.991246
1.00341 1.00338 0.985582
1.0054 1.00458 0.981209
1.00542 1.00028 0.985351
1.00532 0.996238 0.989953
1.00517 0.994944 0.991464
1.00534 0.996042 0.98977
1.00534 0.994852 0.990997
1.00538 0.994769 0.990769
1.0047 1.00479 0.982327
1.00457 1.00441 0.983217
1.00158 1.00444 0.98792
1.00534 0.995417 0.99128
1.00533 0.995549 0.990999
1.00523 0.994927 0.991823
1.00518 0.994951 0.991526
1.00527 0.994899 0.991132
1.00534 0.994913 0.991085
1.00535 1.00516 0.981021
1.00535 0.994836 0.990834
1.00556 1.00187 0.983649
1.00544 0.997404 0.987977
1.00541 0.99518 0.99043
1.00543 0.994747 0.990641
1.00151 1.00202 0.989252
1.00525 1.005 0.981619
1.00292 1.00438 0.985285
1.00509 1.00431 0.982308
1.00535 0.999053 0.987253
1.00163 1.00353 0.988659
1.00262 1.00387 0.986748
1.00289 1.0045 0.986608
1.00535 1.00063 0.985505
1.00537 0.995845 0.990209
1.00534 1.00375 0.982052
1.00561 1.00184 0.983684
1.00544 0.997994 0.987842
1.00558 0.996913 0.987929
1.00115 1.00292 0.990164
1.00368 1.0039 0.985262
1.00279 1.00399 0.986007
1.00339 1.00211 0.987088
1.0053 0.995262 0.991001
1.00541 0.996799 0.989016
1.00536 0.994866 0.99092
1.00552 1.00431 0.981775
1.00543 0.995649 0.989935
1.00554 1.00027 0.98545
1.0056 0.99639 0.988874
1.00094 1.00226 0.991383
1.0025 1.0052 0.98651
1.00358 1.00514 0.983184
1.0031 1.00258 0.987391
1.00307 1.0026 0.987845
1.00528 0.994901 0.991148
1.00543 0.994896 0.990544
1.0054 0.994858 0.990603
1.00524 1.00351 0.983067
1.00545 0.995233 0.990157
1.00524 0.999346 0.986577
1.00127 1.00487 0.988312
1.00052 1.00511 0.989252
1.00028 1.00379 0.990985
1.00043 1.00448 0.989722
1.0003 1.00103 0.994399
1.00043 1.00183 0.992888
1.00051 0.998874 0.99589
1.00032 0.99958 0.997933
1.00038 1.00013 0.997715
1.00013 1.00223 0.992536
0.999866 1.00051 0.997876
1.00083 1.00313 0.990445
1.00113 1.00189 0.996411
1.00226 1.00359 0.987419
1.00214 1.00183 0.995909
1.00536 0.998477 0.987963
1.00531 0.99774 0.98891
1.0053 0.994938 0.991687
1.00534 0.994955 0.991834
1.00532 0.997573 0.989092
1.00332 0.999588 0.989851
1.00533 0.997595 0.989049
1.00534 0.994954 0.991855
1.00532 0.994958 0.991775
1.00524 0.994926 0.991721
1.0053 0.994977 0.991461
1.00522 0.994955 0.991536
1.00535 0.994953 0.991858
1.00524 0.994935 0.991766
1.00524 0.994932 0.991674
1.00535 0.994909 0.991559
1.00521 0.994939 0.991344
1.00531 0.99493 0.99126
1.00533 0.997204 0.989504
1.00535 0.997719 0.989195
1.00534 0.995452 0.991148
1.0053 0.995636 0.99095
1.00336 1.00347 0.985569
1.00539 1.00472 0.98125
1.0054 1.00059 0.985028
1.0053 0.996294 0.990027
1.00517 0.994941 0.991392
1.00534 0.994853 0.990954
1.00535 0.995769 0.990013
1.00537 0.994763 0.990728
1.00433 1.00514 0.982327
1.00386 1.00518 0.983369
1.00144 1.00423 0.988057
1.00534 0.995193 0.991561
1.00533 0.99552 0.991008
1.00524 0.994925 0.991768
1.00519 0.99495 0.991591
1.00513 1.00514 0.98111
1.00554 1.00201 0.983704
1.00546 0.99761 0.987576
1.00528 0.994902 0.991161
1.00533 0.994909 0.991042
1.0054 0.995082 0.990456
1.00535 0.994839 0.990836
1.00543 0.994752 0.990634
1.00502 1.00501 0.981719
1.0051 1.00425 0.98226
1.00187 1.00252 0.989298
1.00312 1.00408 0.985544
1.00524 0.994932 0.991786
1.00523 0.994932 0.991677
1.00535 0.994919 0.991563
1.00535 0.9949 0.991144
1.00531 0.994909 0.990867
1.00538 0.994876 0.990867
1.00551 1.00363 0.982087
1.00538 0.994829 0.990635
1.00554 0.999809 0.985397
1.00546 0.996448 0.988729
1.00546 0.994805 0.990569
1.00539 0.994766 0.990618
1.00314 1.00182 0.987429
1.00207 1.00359 0.986019
1.00518 1.00412 0.982226
1.00501 1.00509 0.98404
1.00509 1.00437 0.982387
1.00087 1.00304 0.990204
1.00534 0.995194 0.991021
1.00321 1.00416 0.985863
1.00384 1.00356 0.985399
1.00421 1.00136 0.987215
1.0054 0.996756 0.989043
1.00534 0.994863 0.99095
1.00553 1.00417 0.981599
1.00551 1.00017 0.985436
1.00542 0.995867 0.989756
1.00562 0.996404 0.989126
1.00076 1.00237 0.991406
1.00215 1.00521 0.98642
1.0043 1.00456 0.983195
1.00318 1.00261 0.987307
1.00364 1.00184 0.986918
1.00526 0.994899 0.991159
1.00542 0.994912 0.990587
1.00539 0.994857 0.99061
1.00519 1.00362 0.983102
1.00548 0.995281 0.99005
1.00522 0.999544 0.986952
1.00173 1.00511 0.98735
1.0032 1.00517 0.985734
1.00354 1.00508 0.984111
1.00386 1.0026 0.986322
1.00468 1.00329 0.985338
1.00537 0.994864 0.990822
1.0054 0.994856 0.99045
1.00539 0.994769 0.990504
1.00506 1.00188 0.984451
1.00521 0.998074 0.98785
1.00109 1.00496 0.988343
1.00117 1.00511 0.987696
0.999706 1.00512 0.989371
1.00001 1.00503 0.991045
1.0002 1.0049 0.990505
0.999913 1.0034 0.991775
1 1.00398 0.991008
1.00011 1.0005 0.995107
1.00022 1.00469 0.989735
1.00027 1.00094 0.994524
1.00034 0.998057 0.996672
1.00038 1.00187 0.993537
1.00029 0.999045 0.997074
1.00022 0.999502 0.998021
1.00041 1.00263 0.992002
1.00027 1.00172 0.9926
0.999852 1.00008 0.998159
1.00036 1.00077 0.997372
1.00122 1.00291 0.990333
1.00141 1.00216 0.996217
1.0053 0.994938 0.991479
1.00532 0.994957 0.991779
1.00522 0.994957 0.991532
1.00524 0.994924 0.991716
1.00535 0.994954 0.991853
1.00533 0.997597 0.989051
1.00535 0.994953 0.991855
1.00524 0.994934 0.991773
1.00524 0.994932 0.991671
1.00534 0.994907 0.991549
1.00521 0.994941 0.991345
1.00531 0.994925 0.991273
1.00523 0.994937 0.991791
1.00534 0.994916 0.991656
1.00532 0.994909 0.991477
1.00535 0.994896 0.991565
1.00532 0.994913 0.99107
1.00531 0.994909 0.991232
1.00534 0.994951 0.991843
1.00533 0.995491 0.991017
1.00524 0.994923 0.991712
1.00519 0.994949 0.991656
1.00497 1.00512 0.981189
1.00552 1.00225 0.983757
1.00547 0.997799 0.987178
1.00529 0.994907 0.99119
1.00533 0.994907 0.990999
1.00535 0.994841 0.990838
1.00539 0.99498 0.990482
1.00544 0.994754 0.990627
1.00485 1.00502 0.981812
1.0051 1.00477 0.982204
1.00226 1.00304 0.989339
1.00317 1.00323 0.985779
1.00524 0.994932 0.991788
1.00523 0.994933 0.99169
1.00535 0.994918 0.991534
1.00534 0.994902 0.991141
1.00551 1.00382 0.982161
1.00558 0.999864 0.985192
1.00545 0.996393 0.988741
1.00532 0.994911 0.990904
1.00538 0.994871 0.990855
1.00547 0.994768 0.990583
1.00538 0.99483 0.990628
1.00539 0.994772 0.990643
1.00512 1.00449 0.982259
1.00499 1.0046 0.982444
1.004 1.00432 0.984157
1.00269 1.00268 0.987552
1.00251 1.00457 0.985942
1.00534 0.994907 0.991608
1.00535 0.994903 0.991416
1.00538 0.994859 0.990916
1.00537 0.994871 0.990701
1.00543 1.00276 0.983384
1.00537 0.994768 0.990434
1.00546 0.998884 0.985658
1.00541 0.995832 0.989254
1.00545 0.994728 0.990532
1.0011 1.00507 0.987669
1.00389 1.00467 0.986146
1.00212 1.0033 0.987078
1.00486 1.00495 0.98274
1.00496 1.00351 0.984919
1.00506 1.00351 0.983104
1.00058 1.0025 0.991426
1.00195 1.0052 0.986334
1.00524 0.994897 0.99117
1.00266 1.00261 0.987226
1.00522 1.00442 0.983196
1.00421 1.00123 0.985997
1.00541 0.994926 0.990631
1.00538 0.994857 0.990617
1.00529 1.00371 0.983143
1.00522 0.999786 0.987326
1.00552 0.995323 0.989943
1.00168 1.00515 0.987346
1.00265 1.00521 0.985725
1.00413 1.005 0.983345
1.00392 1.00195 0.986451
1.00457 1.00219 0.985201
1.00537 0.994863 0.990819
1.00542 0.994856 0.990426
1.00541 0.994756 0.990514
1.00503 1.00204 0.984702
1.00521 0.998222 0.987668
1.00291 1.00517 0.985856
1.00152 1.00523 0.985943
1.00459 1.00319 0.9845
1.00282 1.00262 0.985115
1.00538 1.00105 0.985563
1.00539 0.994798 0.990604
1.00546 0.995465 0.989515
1.0054 0.994757 0.990004
1.00505 1.00089 0.986006
1.00511 0.999063 0.987152
1.00098 1.00495 0.988378
1.00161 1.00512 0.987481
0.999184 1.00456 0.991062
0.999411 1.0051 0.989462
0.999691 1.00503 0.990478
0.998928 1.00472 0.991472
0.998429 1.00436 0.99346
0.998765 1.00511 0.991685
0.99958 1.00482 0.991083
1.00003 1.00298 0.991945
0.999867 1.00335 0.991761
1 1.00017 0.995526
0.999708 1.00403 0.991025
1.00011 1.00041 0.995176
1.0002 0.997845 0.997068
1.00026 1.00078 0.994651
1.00026 0.998216 0.99662
0.99999 0.999153 0.998286
1.00025 1.00223 0.992329
1.00063 1.00183 0.99209
0.999726 0.999948 0.998151
1.00069 1.0012 0.992647
0.999881 0.999897 0.998153
1.00077 1.00107 0.996917
1.00521 0.994943 0.991347
1.00524 0.994931 0.991669
1.00531 0.99492 0.991287
1.00534 0.994905 0.991539
1.00524 0.994933 0.991779
1.00535 0.994953 0.991852
1.00523 0.994939 0.991801
1.00534 0.994916 0.991649
1.00532 0.994912 0.991482
1.00534 0.994892 0.991549
1.00533 0.994913 0.991064
1.00532 0.994903 0.99124
1.00533 0.994909 0.991665
1.00536 0.994891 0.99162
1.00532 0.994879 0.991525
1.00537 0.99488 0.990871
1.00523 0.994932 0.991791
1.00523 0.994935 0.991703
1.00534 0.994916 0.991506
1.00534 0.994904 0.991138
1.00554 1.00395 0.98224
1.00564 0.999912 0.984982
1.00543 0.996349 0.98875
1.00533 0.994912 0.990942
1.00538 0.994865 0.990844
1.00538 0.994831 0.990623
1.00547 0.994731 0.990598
1.00539 0.99478 0.990669
1.00511 1.00464 0.982295
1.00474 1.00473 0.982502
1.00353 1.00379 0.984281
1.00226 1.00348 0.987705
1.00329 1.00527 0.985898
1.00535 0.994909 0.991594
1.00535 0.994905 0.991414
1.00538 0.99486 0.990924
1.00543 1.00282 0.98338
1.00545 0.999145 0.985558
1.00543 0.995669 0.989296
1.00536 0.994875 0.990717
1.00542 0.994708 0.990584
1.00539 0.994773 0.990454
1.0009 1.00489 0.987966
1.00477 1.00461 0.982769
1.00516 1.004 0.982634
1.0046 1.00316 0.984754
1.00266 1.00367 0.986836
1.00323 1.00429 0.986076
1.00536 0.994888 0.991547
1.00539 0.994857 0.991238
1.0054 0.994835 0.990721
1.00538 0.994815 0.990475
1.00524 1.00245 0.983909
1.00537 0.994743 0.990316
1.00539 0.998233 0.987001
1.00538 0.995135 0.989571
1.00024 1.00413 0.98949
1.00179 1.00499 0.98764
1.00324 1.0039 0.987488
1.0019 1.0016 0.989954
1.00456 1.004 0.983956
1.00504 1.0035 0.983323
1.00138 1.00521 0.98734
1.00235 1.00513 0.985707
1.00537 0.994862 0.990817
1.00407 1.00109 0.986576
1.00476 1.00491 0.982577
1.0041 1.00253 0.985054
1.00545 0.994857 0.990402
1.00542 0.994744 0.990524
1.00496 1.00217 0.984951
1.0052 0.998382 0.987486
1.00255 1.00511 0.985917
1.00281 1.00505 0.985677
1.00444 1.00332 0.984301
1.00422 1.00336 0.984688
1.00532 1.00194 0.985334
1.00539 0.994803 0.990609
1.00546 0.995281 0.989792
1.00539 0.994758 0.990317
1.0051 1.00073 0.985877
1.00505 0.999586 0.986746
1.00018 1.00478 0.988268
1.00039 1.00511 0.987676
1.00497 1.00086 0.986086
1.00507 1.0019 0.985612
1.00545 0.994797 0.990547
1.00536 0.994683 0.990449
1.00526 0.997435 0.988027
1.00513 1.00012 0.986041
1.00222 1.00509 0.987279
0.999497 1.00485 0.990656
0.996858 1.00499 0.994542
0.999225 1.00511 0.99046
0.997316 1.00509 0.991894
0.999638 1.00467 0.991006
0.997938 1.00462 0.993827
0.998934 1.00508 0.991717
0.998567 1.00176 0.99614
0.998169 1.00501 0.992958
0.998699 1.00512 0.991381
1.00003 1.00454 0.990641
0.999986 1.00318 0.991801
0.99992 1.00312 0.991911
0.999895 0.999934 0.995833
0.99972 1.00351 0.991748
0.999986 1.00012 0.995568
1.00006 0.997817 0.997299
1.00008 1.00034 0.995241
1.00016 0.997934 0.997036
1.00013 0.998394 0.996555
1.00037 1.00102 0.99334
1.00028 1.00215 0.99225
0.999917 0.998889 0.99838
1.00047 1.00117 0.992181
0.999871 1.00003 0.998126
1.00014 0.999605 0.998013
1.00535 0.994913 0.991058
1.00533 0.994916 0.991488
1.00532 0.994898 0.991249
1.00533 0.994888 0.991533
1.00534 0.994917 0.991642
1.00523 0.994942 0.991811
1.00534 0.994909 0.991666
1.00535 0.994892 0.991613
1.00533 0.994881 0.991468
1.00536 0.994879 0.990925
1.00536 0.994884 0.991634
1.00537 0.994856 0.991553
1.00535 0.994856 0.991213
1.00535 0.994911 0.99158
1.00535 0.994907 0.991413
1.00539 0.994863 0.990931
1.00536 1.00293 0.983379
1.00542 0.999404 0.985462
1.00545 0.995446 0.989335
1.00536 0.994879 0.990733
1.0054 0.994777 0.990473
1.00539 0.994689 0.990643
1.00485 1.00427 0.982801
1.00514 1.00433 0.982177
1.00382 1.00331 0.984589
1.00097 1.00484 0.988264
1.00349 1.00401 0.986568
1.00239 1.00394 0.98598
1.00537 0.994891 0.991565
1.00539 0.994858 0.991212
1.00539 0.99484 0.990737
1.00514 1.00254 0.983898
1.00536 0.998078 0.986893
1.0054 0.995019 0.989729
1.00538 0.994804 0.990449
1.00539 0.994752 0.990311
1.00016 1.00457 0.98971
1.00145 1.00503 0.987576
1.0046 1.00352 0.983711
1.00471 1.00334 0.98346
1.00267 1.00242 0.988779
1.00236 1.00356 0.987677
1.0054 0.994851 0.99146
1.00543 0.994842 0.990872
1.00538 0.994787 0.990521
1.00536 0.994775 0.990226
1.00467 1.00109 0.986
1.00536 0.994712 0.990367
1.00485 0.99749 0.988357
1.00002 1.0044 0.990464
1.00056 1.00351 0.990678
0.999655 1.00504 0.989143
1.00136 1.00505 0.988066
1.00172 1.00459 0.989843
1.00405 1.00176 0.985547
1.00408 1.00355 0.985082
1.00362 1.00524 0.985161
1.00242 1.00516 0.985984
1.00315 1.00528 0.985407
1.0054 0.994809 0.990614
1.00527 1.00216 0.984271
1.00451 1.00339 0.984105
1.00538 1.00226 0.985118
1.00545 0.995082 0.99007
1.00537 0.994758 0.99063
1.00515 1.00056 0.985749
1.00497 1.00004 0.98634
1.00104 1.00411 0.987865
1.00125 1.00485 0.987089
1.00497 1.00096 0.985759
1.005 1.00198 0.98547
1.00543 0.994805 0.990554
1.00538 0.994708 0.990461
1.00522 0.997335 0.9881
1.00511 1.00024 0.986081
0.998983 1.00369 0.991735
1.00549 0.994744 0.99098
1.00276 1.00348 0.988647
1.00468 1.00115 0.985868
1.00539 0.99471 0.990727
1.00515 0.996614 0.988082
1.00508 1.00076 0.98599
0.999974 1.00481 0.990258
0.997349 1.00471 0.994666
0.99625 1.00268 0.997118
0.999376 1.00461 0.990923
0.998821 1.00505 0.991742
0.996776 1.00491 0.9942
0.999877 1.0045 0.990618
0.998831 1.00509 0.991501
0.996658 1.00334 0.996529
0.998457 1.00478 0.992749
0.996629 1.00298 0.998001
0.996445 1.00488 0.995582
0.998919 1.00475 0.99239
1.00018 1.00491 0.989821
1.00023 1.00447 0.990135
0.999988 1.00309 0.991839
0.999911 1.00326 0.99178
0.999787 0.999965 0.99599
0.999794 1.00333 0.99188
0.999918 0.99995 0.995847
0.999941 0.997857 0.997527
0.99999 1.00003 0.995618
1.00008 0.997832 0.997276
1.00014 0.99802 0.996997
1.00029 1.00368 0.990793
0.999976 1.00091 0.993893
1.00022 1.00115 0.993299
1.00006 0.998704 0.998527
1.00033 1.00192 0.992174
0.999885 0.999445 0.998284
0.999988 0.999864 0.998154
1.00534 0.994878 0.99098
1.00534 0.994884 0.99141
1.00534 0.994892 0.991606
1.00534 0.994908 0.991666
1.00536 0.994881 0.991645
1.00536 0.994856 0.991539
1.00535 0.994854 0.991153
1.0054 0.994848 0.991502
1.00538 0.994811 0.991559
1.00562 0.994685 0.991471
1.00537 0.994893 0.991584
1.00538 0.994856 0.991186
1.00539 0.994842 0.990753
1.00504 1.00264 0.983888
1.00535 0.998038 0.986794
1.00543 0.994992 0.989879
1.00539 0.994794 0.990423
1.00543 0.994753 0.990305
1.00505 1.00332 0.983463
1.00427 1.00303 0.983551
1.00276 1.00419 0.98761
1.00038 1.0046 0.989932
1.00121 1.00503 0.987507
1.0016 1.00352 0.987872
1.0054 0.994846 0.991455
1.00057 1.00369 0.99044
1.00006 1.00423 0.990582
1.00543 0.99483 0.990872
1.00539 0.994798 0.990546
1.00474 1.00131 0.985779
1.00527 0.997014 0.988615
1.00533 0.994711 0.990347
1.00535 0.994764 0.990162
1.00025 1.00503 0.989209
1.00125 1.00502 0.987997
1.00382 1.00405 0.984718
1.00392 1.00468 0.983936
1.0042 1.00305 0.985217
1.00101 1.00302 0.990519
1.00548 0.994738 0.991385
1.0054 0.995106 0.9905
1.00536 0.994737 0.990519
1.00526 0.99474 0.98992
1.00359 1.00063 0.987682
1.00527 0.995689 0.990132
1.00028 1.00435 0.990166
0.999562 1.00402 0.990646
1.00042 1.00447 0.99069
1.00063 1.00475 0.989007
1.00117 1.00411 0.989622
1.00167 1.0011 0.990291
1.00255 1.00434 0.985522
1.00182 1.00263 0.989929
1.0013 1.00469 0.987479
1.00342 1.00517 0.986496
1.00541 0.99481 0.990561
1.0054 0.994732 0.990473
1.0049 1.00285 0.985326
1.00485 1.00115 0.98542
1.00518 0.997254 0.988175
1.00509 1.00037 0.986123
0.999253 1.00431 0.991677
1.0055 0.994728 0.991128
1.00181 1.004 0.989175
1.00455 1.00112 0.985741
1.0054 0.994704 0.990794
1.00517 0.996748 0.988304
1.00505 1.00051 0.985894
0.998107 1.00441 0.994223
1.005 0.994671 0.990285
1.00168 1.00336 0.988599
1.00419 1.00305 0.984289
1.00491 0.99503 0.991478
1.00416 1.00024 0.987051
0.998449 0.994742 0.981087
0.997327 1.00485 0.994769
0.996942 1.00273 0.997123
0.995995 1.00285 0.998081
0.999839 1.00442 0.990593
0.998487 1.00506 0.991632
0.999243 1.00463 0.99255
0.995455 1.00364 0.996944
1.00018 1.00445 0.99016
0.99972 1.00501 0.990287
0.996123 1.00183 0.999146
0.998349 1.00493 0.992338
0.996841 1.0047 0.995127
0.994871 1.00521 0.99796
0.998129 1.00502 0.993201
0.998756 1.00482 0.992271
1.00017 1.00452 0.990324
0.999952 1.00464 0.990039
0.99996 1.00439 0.99118
0.999976 1.00413 0.990605
0.999888 1.00299 0.991997
0.99992 1.00318 0.991829
0.999681 0.999905 0.99545
0.999923 1.00315 0.991765
0.999782 0.999952 0.995636
0.999961 0.997788 0.998981
0.999909 0.999951 0.995869
0.999966 0.997782 0.99751
1.0001 0.997845 0.997245
0.999992 1.00306 0.991764
1.00049 1.00342 0.990858
1.0001 1.00013 0.994563
1.00012 1.0008 0.994354
0.999979 0.998252 0.998703
1.00007 1.00157 0.993257
0.999975 0.998514 0.99851
0.999896 0.999856 0.998129
1.00536 0.994853 0.991093
1.00536 0.994856 0.991524
1.00536 0.994877 0.991655
1.00539 0.994847 0.991503
1.00539 0.994813 0.99149
1.00563 0.9947 0.991473
1.00552 0.994778 0.991517
1.00024 0.994657 0.979721
1.00546 0.994661 0.989692
1.0003 1.00382 0.990573
1.0054 0.994843 0.99145
1.00542 0.994827 0.990872
1.0054 0.994811 0.990571
1.00474 1.00151 0.985544
1.0053 0.996185 0.988856
1.0053 0.994711 0.990311
1.00534 0.994758 0.990095
1.00411 1.00424 0.984422
1.00455 1.00506 0.982791
1.00378 1.00292 0.98487
1.0008 1.00331 0.99042
1.00101 1.00234 0.991169
1.00096 1.00504 0.989248
1.00089 1.00501 0.98793
1.00006 1.00442 0.990487
1.00546 0.994763 0.9914
1.00054 1.00404 0.990133
1.00022 1.0042 0.990643
0.999675 1.00441 0.99119
1.00539 0.994916 0.990527
1.00535 0.994736 0.990479
1.00358 1.00168 0.987707
1.005 0.995435 0.99014
1.00529 0.994739 0.989945
1.00051 1.00484 0.989057
1.00114 1.00397 0.989998
1.00295 1.00281 0.989085
1.00307 1.00506 0.985002
1.00309 0.999915 0.990706
1.00546 0.994713 0.990943
1.00534 0.994856 0.990594
1.00525 0.994718 0.990445
1.00459 0.997368 0.98958
1.0034 1.00014 0.989033
0.999522 1.00338 0.992607
0.999838 1.00478 0.989743
0.998904 1.00334 0.993054
1.00066 1.0031 0.992007
1.00062 1.0006 0.993717
1.00007 1.00133 0.992477
1.00185 1.00055 0.992291
1.00106 1.00363 0.991566
1.00012 1.00419 0.989705
1.00551 0.994707 0.991267
1.00541 0.994701 0.990846
1.00519 0.996884 0.988528
1.00442 1.00124 0.985616
1.00503 1.00026 0.985806
0.998149 1.00475 0.995152
1.0045 0.994659 0.990387
1.00202 1.00327 0.988359
1.00451 1.00285 0.984193
1.00469 0.994996 0.991633
1.00437 1.00013 0.9871
0.998354 0.994695 0.979317
0.997403 1.0051 0.994308
1.00312 0.994599 0.990588
1.00225 1.00444 0.986068
1.00377 1.00155 0.986752
1.00348 0.997107 0.992875
0.999797 0.994841 0.933904
0.994838 0.994683 0.956331
0.997175 0.994606 0.984088
0.994804 0.99697 0.841134
0.99477 1.00068 0.80148
0.997793 1.00306 0.997134
0.99648 1.00273 0.998202
0.994982 1.00522 0.998462
1.00022 1.00445 0.990192
0.999505 1.00505 0.990755
0.998325 1.00499 0.992274
0.997179 1.00477 0.994655
0.995603 1.00114 1.00025
0.9986 1.00469 0.992641
1.00025 1.00444 0.990019
1.00013 1.00471 0.990184
0.99524 1.00478 0.997877
0.997717 1.00493 0.993639
0.997779 1.00486 0.994111
0.996094 1.0052 0.996087
0.998315 1.00482 0.993052
0.99983 1.0048 0.990203
1.00007 1.00451 0.990016
0.998975 1.00427 0.991785
0.996975 1.00472 0.994793
0.998541 1.00487 0.992327
0.999605 1.00442 0.991614
0.999947 1.00376 0.991211
0.999817 1.0041 0.99054
0.99996 1.00279 0.992204
0.999988 1.00294 0.992016
0.999663 0.999788 0.995605
0.999871 1.0033 0.991814
0.999669 0.999917 0.995459
0.999933 0.997755 0.999023
0.99976 0.999969 0.99529
0.999904 0.997791 0.998294
1.00003 0.997718 0.997489
0.999926 1.00238 0.99265
1.00012 1.00293 0.991797
1.00003 0.999669 0.995187
1.00066 1.00307 0.99092
1.00008 1.0002 0.994982
1.00001 0.997872 0.998853
1.0003 1.00051 0.993793
1.00002 0.99848 0.99862
0.999932 0.998838 0.998494
1.00541 0.994811 0.99142
1.00539 0.994847 0.991505
1.00567 0.994715 0.991499
0.999101 0.994671 0.979418
1.00554 0.99476 0.99152
1.00548 0.994688 0.989769
1.00547 0.994652 0.991305
0.994863 0.994755 0.959831
1.00488 0.994694 0.974984
1.00031 1.00351 0.990912
1.00048 1.00369 0.990581
0.998908 1.00377 0.99279
1.0005 1.00396 0.990236
1.00545 0.994786 0.991415
1.00538 0.99483 0.990556
1.00534 0.994734 0.990439
1.00377 1.0016 0.987742
1.00513 0.99557 0.990189
1.00531 0.99474 0.989993
1.0028 1.0017 0.988171
1.00413 1.00528 0.984486
1.00287 0.998201 0.991173
1.00027 1.00484 0.990653
1.00024 1.00322 0.990418
1.00046 1.00498 0.989105
1.00073 1.00373 0.990091
0.998867 1.00495 0.991798
1.00549 0.994736 0.990922
0.999302 1.00379 0.992023
1.00023 1.00455 0.989923
0.996481 1.00459 0.995468
1.00535 0.994868 0.990586
1.00524 0.994721 0.990426
1.00391 0.998753 0.98922
1.00447 0.9974 0.989627
1.00097 1.00285 0.991315
0.999459 1.00106 0.993157
1.00135 1.00065 0.992315
1.00193 1.00097 0.991421
1.00374 0.996878 0.989583
1.0052 0.994624 0.990964
1.00393 0.998871 0.989661
1.00449 0.998446 0.989567
0.996134 1.00458 0.99636
1.00091 1.00309 0.990352
0.99758 0.999143 1.0002
0.998075 1.00429 0.993315
0.999469 0.997451 0.916153
0.998173 1.00463 0.996125
1.00179 1.00352 0.98811
1.00389 0.99467 0.990533
1.00445 0.994956 0.991776
1.00448 0.999941 0.987121
1.00474 1.00264 0.984086
0.998051 0.994651 0.977179
0.997857 1.00457 0.994577
1.00276 0.994617 0.990559
1.00254 1.00441 0.986056
1.00408 1.00116 0.98694
1.00334 0.997402 0.992791
0.998235 0.994936 0.919261
0.995033 0.994702 0.953019
0.99689 0.994762 0.984519
0.996062 0.996665 0.848817
0.994801 0.999155 0.79951
0.997841 1.00459 0.99373
0.997372 0.994987 0.852868
0.994842 0.99947 0.798912
1.00139 0.994759 0.994344
1.00172 1.00298 0.989487
1.00158 1.00058 0.992734
0.995312 0.995506 0.987638
0.997409 0.994649 0.930537
0.995006 0.994706 0.946938
0.994747 0.997997 0.853932
0.994811 0.995994 0.777932
0.996901 1.00231 0.998333
0.994984 1.00526 0.998277
0.995162 1.00517 0.999354
1.00048 1.00419 0.98999
0.999936 1.00487 0.990037
0.997884 1.00483 0.993016
0.997453 1.00495 0.994073
0.995573 1.00427 0.997801
1.00016 1.00454 0.989972
0.99752 1.00477 0.994383
0.998268 1.0049 0.992609
1.00008 1.00475 0.990158
0.995878 1.00517 0.99646
0.996392 1.00514 0.995676
0.995079 1.00518 0.997534
0.998662 1.00507 0.991712
1.0001 1.00456 0.990092
0.999658 1.00399 0.991681
0.99708 1.00442 0.99527
0.997605 1.00328 0.995059
0.998135 1.00344 0.994682
0.995237 1.005 0.998447
0.998509 1.00187 0.994738
0.99701 1.00518 0.993485
0.998587 1.00495 0.992289
0.998876 1.00467 0.991336
0.999255 1.0044 0.992052
0.999906 1.00421 0.99112
1.00007 1.00289 0.992093
1.00003 1.00421 0.990466
0.999954 1.00276 0.992239
0.999873 0.999648 0.996197
0.999767 1.00324 0.992037
0.999746 0.999725 0.995899
0.999921 0.997622 0.997808
0.999669 0.999893 0.995458
0.999923 0.997756 0.999036
0.999905 0.997838 0.9976
1.00042 1.00398 0.990454
0.999842 1.0022 0.992916
0.999969 1.00233 0.992636
0.999974 0.999282 0.995636
1.00018 1.00294 0.991834
1.00006 0.999672 0.995159
1 0.997603 0.998973
1.00005 1.0004 0.995288
0.999973 0.998004 0.997989
0.999978 0.998336 0.996797
0.998258 0.994673 0.979087
1.00555 0.994748 0.991525
1.00549 0.994657 0.989834
0.995968 0.994762 0.959558
1.00474 0.994639 0.974979
1.00547 0.994649 0.991426
1.00439 0.994526 0.984204
0.999685 0.994714 0.956546
0.99761 0.995346 0.932534
0.996241 0.995118 0.867477
0.994887 1.00041 0.801646
0.999334 1.00393 0.991665
1.00032 1.00357 0.99097
1.00071 1.00358 0.990589
0.998932 1.00377 0.992871
0.997551 1.00467 0.994312
1.00006 1.00459 0.990652
1.00014 1.00505 0.989534
1.00023 1.00424 0.990357
1.00551 0.99475 0.990897
1.00536 0.994766 0.990575
1.00523 0.994717 0.990405
1.00423 0.998533 0.989396
1.00446 0.997332 0.989658
1.00101 1.0012 0.992329
1.0043 0.999665 0.990381
1.00086 1.00192 0.992586
1.00061 1.0038 0.99005
1.00122 1.00284 0.990559
0.999094 1.00461 0.991445
0.994957 1.005 0.997539
1.00419 0.99571 0.990018
0.996312 1.00477 0.996034
1.00029 1.00257 0.992094
1.00496 0.994637 0.990935
1.00389 0.999129 0.989523
1.00385 0.998682 0.989764
0.998382 1.00004 0.997629
0.999278 1.00297 0.99362
1.0025 0.996474 0.987955
1.00268 0.999413 0.990733
1.00375 1.00082 0.98944
1.00186 0.998867 0.993178
0.997779 1.00488 0.994042
0.996212 1.00286 0.997251
0.997229 1.0028 0.996851
0.999863 0.999947 0.845123
1.00075 0.994862 0.9328
0.998735 1.00344 0.994846
1.00297 1.0043 0.98606
1.00235 0.994641 0.990522
1.00326 0.99752 0.992731
1.0042 1.00079 0.987168
0.999973 0.994849 0.930991
0.995496 0.994706 0.952348
0.996594 0.99496 0.985214
0.994776 0.99791 0.866987
0.994833 0.998606 0.797138
0.998327 1.00433 0.993807
0.999396 0.996025 0.849916
0.994805 0.997307 0.793149
1.00093 0.994995 0.994157
1.00148 1.00306 0.989518
1.00158 1.00039 0.993737
0.99582 0.996307 0.988769
0.995431 0.99465 0.923677
0.995184 0.994705 0.948495
0.994787 0.998439 0.859401
0.994845 0.996933 0.77491
0.996728 1.00517 0.996864
0.994793 0.99494 0.786851
0.994741 0.99473 0.767191
0.997244 1.00036 0.996752
0.999068 1.00282 0.997166
0.994896 0.997925 0.986427
0.995076 0.99477 0.954164
0.994888 0.994558 0.911922
0.994815 0.997366 0.863335
0.9949 0.994906 0.79463
0.99521 1.00528 0.998115
0.995041 1.00486 0.999546
0.994937 1.00526 0.999217
1.00032 1.00443 0.989922
1.00033 1.0048 0.990115
0.99839 1.00502 0.992164
0.997239 1.00447 0.994653
0.995709 1.00515 0.996839
1.00027 1.00474 0.989994
0.996629 1.00505 0.995247
0.998911 1.00507 0.991735
0.995169 1.00512 0.997643
0.995019 1.0052 0.998181
0.996383 1.00506 0.995475
0.999858 1.00489 0.991687
1.00023 1.0036 0.99158
0.997036 1.0042 0.995734
0.997959 1.00313 0.995075
0.998434 1.00284 0.99455
0.995329 1.00519 0.997196
0.999823 1.00044 0.994906
0.995347 1.00482 0.996426
0.997095 1.00275 0.998726
1.0007 1.00469 0.989731
1.00511 1.00115 0.98725
0.99738 1.00443 0.992082
0.998354 1.0025 0.994818
0.998575 1.00514 0.991474
0.998031 1.00501 0.993617
0.999504 1.00457 0.990681
0.999186 1.00504 0.992248
0.999341 1.00436 0.991448
0.999516 1.00361 0.991722
0.999914 1.00448 0.991021
0.999922 1.00283 0.992132
0.999971 0.999699 0.995943
1.00009 1.00251 0.992271
0.999858 0.999614 0.99585
1.00004 0.997366 0.997731
0.999727 0.999741 0.995595
0.999969 0.997572 0.999071
0.99992 0.997711 0.999052
1.00068 1.00432 0.990075
0.999886 1.00254 0.992588
1.00052 1.00374 0.990455
0.999995 0.99913 0.995788
0.999996 1.00203 0.992899
1.00009 1.00217 0.992621
0.999996 0.999301 0.995621
0.999995 0.997355 0.999067
1.00006 0.999752 0.995845
1.00001 0.997648 0.998192
0.999999 0.997981 0.997283
0.999307 0.998603 0.834996
0.994848 0.995778 0.78232
0.995294 0.994787 0.960551
1.00461 0.9946 0.975231
1.0055 0.994679 0.991533
1.00275 0.994735 0.953365
1.00332 0.994616 0.985011
0.999462 0.995057 0.928073
0.994768 0.995877 0.846689
0.994879 0.998973 0.800149
0.998976 0.994708 0.966889
0.994861 0.994645 0.933601
0.994709 0.998054 0.855496
0.995115 0.997687 0.791326
0.999967 1.00427 0.992006
0.999954 1.00369 0.991373
1.0003 1.00348 0.99104
0.998961 1.0034 0.992968
0.997045 1.00405 0.995373
1.00033 1.00481 0.989684
0.999312 1.00476 0.991182
1.001 1.00509 0.988246
1.00027 1.00501 0.989498
0.999386 1.00506 0.990489
1.00451 0.994776 0.990423
1.00482 0.994659 0.990903
1.00362 0.999444 0.989381
1.00296 0.998993 0.989964
0.999857 1.00294 0.993898
0.998978 1.00104 0.995125
0.999191 1.00245 0.994082
0.996453 1.00472 0.995705
1.00214 0.99569 0.988674
0.99768 1.00495 0.993769
0.996232 1.003 0.99785
1.00253 0.999164 0.990862
1.00356 1.00187 0.988032
1.001 0.999368 0.993839
0.997405 1.00323 0.996721
0.999349 0.994831 0.986656
1.0011 1.00156 0.992699
0.996876 1.00399 0.996138
0.998635 1.00449 0.99325
0.996 1.00508 0.995685
0.994993 1.00499 0.998288
0.994798 0.994755 0.795908
0.999732 0.995486 0.856391
0.999819 0.99744 0.916482
0.998534 1.00418 0.99386
1.00164 1.00322 0.989491
1.00045 0.995224 0.993947
1.00139 0.999934 0.99475
0.999213 0.999821 0.864557
0.994918 0.994664 0.917826
0.994935 0.994651 0.947143
0.996185 0.997228 0.989655
0.994763 0.99781 0.842529
0.994763 0.995732 0.799158
0.995017 0.997386 0.789858
0.996853 1.00496 0.996541
0.994808 0.995551 0.791831
0.994771 0.994757 0.767079
0.997639 0.998734 0.997417
0.998704 1.00268 0.997038
0.994936 0.996893 0.98811
0.995332 0.994763 0.95011
0.995261 0.994575 0.925307
0.994808 0.996733 0.842571
0.995311 0.994894 0.802849
0.995754 1.00484 1.00057
0.994719 0.99476 0.774666
0.994818 0.994835 0.774783
0.994862 1.00198 1.00053
0.994876 0.996649 0.962829
0.9948 0.99475 0.923843
0.99503 0.994899 0.848475
0.995562 0.994905 0.8256
0.994901 1.00468 0.999719
0.994854 1.00526 0.999511
0.994845 1.00507 1.00004
1 1.00501 0.989899
0.999208 1.00508 0.991758
0.996902 1.00493 0.994819
0.995204 1.00509 0.997753
0.999099 1.00485 0.991652
0.996562 1.00502 0.995372
0.995043 1.00508 0.99824
0.994902 1.00518 0.99885
0.995537 1.00513 0.997827
0.997526 1.00499 0.994333
0.998366 1.00317 0.995077
0.998448 1.00233 0.994454
0.995666 1.00524 0.996037
0.995855 1.00432 0.996641
0.999786 1.00039 0.994662
0.995938 1.00239 0.998927
1.00122 1.00219 0.99361
0.994782 1.00526 0.999073
1.00244 1.00017 0.991265
1.00054 1.00379 0.990914
1.00219 1.00281 0.98781
1.00505 1.00114 0.985801
1.00426 1.00155 0.987478
1.00445 1.00087 0.98748
0.999021 1.00414 0.992074
0.998812 1.00519 0.989279
0.998363 1.00308 0.994905
0.999136 1.00483 0.991567
1.00129 1.00471 0.988502
0.99844 1.00453 0.99374
0.999512 1.00483 0.990752
0.999917 1.00407 0.990639
1.00019 1.00429 0.991559
1.00007 1.00332 0.991734
1.00024 1.00011 0.995262
0.999886 1.00293 0.992177
0.999958 0.999851 0.995432
1.00015 0.997535 0.997483
0.999866 0.999563 0.995549
1.00004 0.997411 0.998408
0.999985 0.997517 0.999068
1.00045 1.00491 0.988942
0.99998 1.00301 0.992015
1.00029 1.00454 0.989891
1.00002 0.999297 0.995589
0.999864 1.00251 0.992612
1.00037 1.00376 0.990451
1.00001 0.997325 0.999076
0.999976 0.99916 0.995786
0.999939 1.00216 0.992892
1.00002 0.999285 0.995607
1 0.997431 0.999042
1.00001 0.997665 0.998927
0.994765 0.994833 0.778176
0.998631 0.99622 0.849529
0.994824 0.99478 0.772612
0.994854 0.996156 0.784533
0.999522 0.995255 0.954996
1.00214 0.994682 0.985865
0.99888 0.994718 0.922792
0.994914 0.996135 0.865986
0.994865 0.997311 0.79896
0.998552 0.994752 0.965477
0.996061 0.99463 0.917118
0.994757 0.997644 0.860714
0.994848 0.99706 0.784258
0.994911 0.994753 0.958646
0.994798 0.994628 0.908937
0.994825 0.996488 0.837009
0.994865 0.994897 0.801852
1.00021 1.00446 0.990683
0.998811 1.00438 0.992186
0.999883 1.00395 0.991078
0.996331 1.0036 0.996384
1.00072 1.00467 0.989007
1.0002 1.00487 0.989856
0.998792 1.00474 0.991703
1.0016 1.00507 0.987729
1.00122 1.00505 0.988265
1.00048 1.00473 0.989455
1.00249 0.994676 0.98929
1.00224 0.999001 0.991007
1.00342 1.003 0.98664
1.00045 0.999519 0.994511
0.997838 1.00461 0.996578
0.996866 1.00196 0.998459
0.99831 1.00497 0.993464
0.998997 1.00354 0.993291
0.999524 0.99606 0.987348
0.997071 1.00512 0.995229
0.996263 1.0034 0.998373
1.00072 1.0011 0.992649
0.997378 1.00347 0.996241
0.996818 0.998499 0.985882
0.996926 1.00297 0.997456
0.994705 1.00554 0.998316
0.996095 1.00465 0.996965
0.99488 1.00504 0.998022
0.994733 0.994748 0.779396
0.994814 0.994707 0.790687
0.999808 1.00077 0.834973
0.996892 1.0046 0.996276
0.998835 1.00262 0.996937
0.998354 0.997715 0.998047
0.994808 0.994935 0.786264
0.994804 0.994589 0.909393
0.994949 0.994753 0.951308
0.995087 0.995526 0.990252
0.994796 0.996875 0.859971
0.994815 0.994779 0.767783
0.996197 0.994883 0.805027
0.996106 1.00487 1.00041
0.994735 0.994788 0.774534
0.994797 0.994834 0.775941
0.995023 1.00254 0.999135
0.994867 0.995634 0.964495
0.995459 0.99476 0.908645
0.995777 0.994901 0.819918
0.995525 0.995436 0.858053
0.994852 1.00486 1.0019
0.994758 0.994828 0.761914
0.994865 0.994844 0.795731
0.994866 0.994888 0.801211
0.994768 1.00031 0.987167
0.994822 0.995684 0.930376
0.997227 0.994875 0.873356
0.994836 1.00524 0.99981
0.995149 1.00477 0.999821
0.994962 1.00487 0.999527
0.998647 1.00471 0.991636
0.996818 1.00499 0.995268
0.994988 1.00491 0.998305
0.996925 1.00506 0.994504
0.995383 1.00465 0.997946
0.994901 1.00496 0.998812
0.994767 1.00512 0.999563
0.995254 1.00513 0.998058
0.99605 1.00364 0.996912
0.999749 1.00031 0.994396
0.994759 1.00222 0.998971
0.994787 1.00491 0.998896
0.999344 1.00129 0.994116
1.00066 1.00111 0.99479
0.999938 1.0012 0.994684
1.00347 1.00086 0.987938
1.00025 1.00285 0.992046
1.00261 1.00252 0.98795
1.00482 1.00228 0.984997
1.0051 1.00154 0.985052
1.00506 1.0005 0.986261
1.00484 1.00113 0.985803
1.003 1.00397 0.987062
1.00317 1.00244 0.987544
1.00374 1.00077 0.987711
1.00074 1.00377 0.99206
1.00026 1.00519 0.988647
1.00238 1.00513 0.986051
0.999669 1.00485 0.991661
1.00126 1.00502 0.988424
1.00091 1.00484 0.988224
1.0001 1.00497 0.990804
1.00033 1.00371 0.990582
1.00036 1.00043 0.994798
1.00036 1.00271 0.991739
1.00023 1.00014 0.994783
1.00038 0.997778 0.996856
0.999906 0.999993 0.995088
1.00014 0.997496 0.998289
1.00009 0.997379 0.999029
1.00128 1.00511 0.987604
1.00022 1.0034 0.990795
1.00075 1.0049 0.988944
1.00005 0.999652 0.995177
1.00006 1.00293 0.991777
1.00041 1.00451 0.989705
1.00002 0.99742 0.999021
1.00002 0.999273 0.995607
1 1.00226 0.992631
0.999998 0.997334 0.999079
0.999958 0.999181 0.995784
1.00001 0.997429 0.999017
0.994783 0.994813 0.774144
0.994788 0.995487 0.792587
0.999487 0.995395 0.849236
1.00125 1.00515 0.987721
0.994774 0.994795 0.776305
0.994803 0.994787 0.772624
0.994857 0.997304 0.797329
0.997733 0.994692 0.965529
0.994821 0.994667 0.93218
0.994738 0.997536 0.843711
0.994836 0.996356 0.795942
0.995207 0.994744 0.955682
0.995032 0.994624 0.924934
0.994841 0.996827 0.843395
0.994912 0.994983 0.801897
0.994953 0.99473 0.949228
0.994822 0.994817 0.920761
0.996478 0.994904 0.860485
0.99518 0.994907 0.825938
0.998192 1.00397 0.993518
0.999357 1.00469 0.991225
0.998731 1.00377 0.992368
1.00138 1.00324 0.989789
1.00086 1.00495 0.988983
1.00006 1.00485 0.990029
1.00175 1.00509 0.987744
1.00136 1.00497 0.988286
0.99891 0.99718 0.987931
0.99992 1.00066 0.992533
0.997591 1.00443 0.993332
0.997531 1.00309 0.996258
0.996531 1.00356 0.998417
0.997302 1.00477 0.994767
0.996069 1.00433 0.996211
0.996508 0.999405 0.985932
0.995708 1.00493 0.997873
0.995125 1.00508 0.998323
0.996348 1.00293 0.997614
0.995005 1.00522 0.996855
0.995637 1.00367 0.983195
0.994709 1.00402 0.9991
0.994758 1.00528 0.999215
0.995006 1.00501 0.997738
0.994724 0.9948 0.761021
0.994722 0.994746 0.775776
0.994823 0.994647 0.785186
0.995989 1.00514 1.00023
0.99502 1.00173 0.9977
0.994751 0.994813 0.774325
0.994758 0.994809 0.924643
0.994861 0.995358 0.96049
0.995705 0.994906 0.857528
0.994779 0.994834 0.77688
0.994893 0.994893 0.814015
0.994883 1.00504 1.00166
0.994762 0.994824 0.762474
0.994876 0.994854 0.793213
0.994737 1.00103 0.990761
0.99488 0.994937 0.801129
0.994833 0.996672 0.924258
0.996597 0.9959 0.874472
0.994731 1.00446 0.996927
0.994832 0.994837 0.7794
0.994787 0.99481 0.778375
0.994858 0.997525 0.789495
0.996672 0.994893 0.860442
0.994819 1.0016 0.968956
0.994956 0.994926 0.917272
0.995342 1.00486 0.999647
0.995013 1.00511 0.999554
0.99469 1.0053 0.998224
0.996381 1.00513 0.994647
0.995348 1.00409 0.998069
0.994963 1.00482 0.998841
0.995325 1.00464 0.997969
0.994749 1.00516 0.999445
0.997125 1.00302 0.999613
0.994816 1.00468 0.998741
0.997473 1.00039 0.994733
0.999265 1.00114 0.995474
1.00125 0.999968 0.991691
0.996668 1.00248 0.997623
1.00277 1.00075 0.988792
1.00465 1.00344 0.983318
1.00473 1.00228 0.984738
1.00328 1.00223 0.987975
1.00485 1.00234 0.984513
1.00514 1.00178 0.984856
1.00499 1.00187 0.98502
1.00496 1.00159 0.985045
1.00419 1.00234 0.987032
1.004 1.00145 0.986212
1.0047 1.00105 0.985824
1.00206 1.00518 0.985971
1.00212 1.00448 0.986966
1.00184 1.0034 0.987594
1.00119 1.00521 0.988023
1.00275 1.0049 0.986006
1.00183 1.00514 0.986117
1.00092 1.00514 0.988344
1.00117 1.00479 0.988213
1.00038 1.00149 0.992808
1.00107 1.00361 0.990566
1.00051 1.00031 0.993851
1.00015 0.997868 0.998657
1.00027 1.00012 0.994424
1.00028 0.997763 0.997857
1.00018 0.997662 0.998862
1.00113 1.00517 0.987496
1.00057 1.00386 0.989711
1.00114 1.00511 0.987844
1.00016 0.999975 0.994695
1.00024 1.00352 0.990678
1.00082 1.00508 0.988944
1.00004 0.997648 0.998922
1.00008 0.999577 0.995205
1.00001 1.00295 0.991542
1.00001 0.997407 0.99904
1.00001 0.999272 0.995628
0.99999 0.997349 0.999083
0.994732 0.994803 0.768752
0.994771 0.99479 0.774516
0.99479 0.996138 0.791209
1.0014 1.00511 0.987936
1.00041 1.00515 0.988046
1.00184 1.00333 0.990441
0.994879 0.994857 0.794446
0.994799 0.994798 0.777469
0.994785 0.99478 0.772811
0.995907 0.994743 0.956443
0.994883 0.994604 0.910479
0.994849 0.997401 0.861512
0.994887 0.994885 0.796667
0.99501 0.994765 0.951924
0.995134 0.994792 0.916455
0.995962 0.994917 0.861421
0.99551 0.994903 0.820142
0.994941 0.994888 0.951598
0.99478 0.996323 0.925589
0.996826 0.994903 0.873533
0.994897 0.994909 0.797279
0.997387 1.00346 0.99511
0.998215 1.0044 0.993557
0.99916 1.00505 0.991765
1.00093 1.00374 0.989653
1.00068 1.00507 0.988965
1.00166 1.00509 0.987755
0.996108 0.999859 0.986327
0.99646 1.00304 0.997807
0.997221 1.00338 0.995491
0.995819 1.00472 0.998269
0.996778 1.00454 0.997729
0.995163 1.00529 0.996971
0.995291 1.00529 0.997479
0.995348 1.00262 0.983219
0.994702 1.00528 0.999271
0.994684 1.00486 0.997523
0.995135 1.00544 0.998021
0.994748 1.00269 0.982127
0.994766 1.00508 0.9946
0.995171 1.00389 0.998689
0.994855 0.994852 0.765225
0.994729 0.994804 0.760877
0.99471 0.994744 0.772105
0.994945 1.00514 1.00139
0.994749 1.00202 0.986081
0.994756 0.994821 0.763044
0.994808 0.996915 0.925532
0.996421 0.99488 0.861316
0.994889 0.994849 0.790714
0.994876 0.994872 0.796009
0.994718 1.00462 0.997434
0.994808 0.99484 0.777903
0.99481 0.994792 0.779735
0.994841 1.00228 0.965008
0.994826 0.997396 0.782382
0.995905 0.995469 0.860578
0.994854 0.997366 0.930913
0.994755 1.00519 0.987815
0.994751 0.994807 0.772331
0.9948 0.994781 0.773016
0.994893 1.00152 0.799981
0.994789 0.997261 0.834583
0.994812 0.9949 0.928483
0.994805 1.00184 0.958466
0.99523 1.00498 0.999483
0.994747 1.00518 0.998227
0.99515 1.00522 0.998058
0.995281 1.00421 0.997871
0.994736 1.00525 0.999174
0.996096 1.00288 1.00001
0.998488 1.00281 0.998086
0.998136 1.0008 0.996106
1.00304 0.99954 0.99081
1.00186 1.00451 0.986053
1.00216 1.00081 0.990198
1.00441 1.00344 0.983609
1.00442 1.00319 0.983705
1.00522 0.999593 0.98606
1.0051 1.00143 0.985027
1.00483 1.00227 0.984617
1.00481 1.00253 0.984035
1.00499 1.00287 0.984365
1.00512 1.00152 0.984923
1.00515 1.00159 0.985267
1.00503 1.00221 0.985084
1.00476 1.00149 0.985034
1.0024 1.00288 0.987944
1.00349 1.00175 0.986892
1.0039 1.00205 0.986144
1.00261 1.00521 0.985189
1.0025 1.00519 0.985982
1.00104 1.00451 0.98688
1.00274 1.0049 0.985985
1.00253 1.00515 0.986119
1.00073 1.00247 0.99126
1.00205 1.00459 0.988169
1.00054 1.00138 0.99272
1.0003 0.998361 0.998474
1.00076 1.00007 0.99379
1.00037 0.997926 0.997704
1.0003 0.997677 0.998689
1.00223 1.0051 0.98711
1.00111 1.00434 0.988978
1.00152 1.00514 0.987451
1.00024 1.00041 0.99416
1.00056 1.00396 0.989881
1.00115 1.0051 0.988092
1.00007 0.997771 0.998813
1.00016 0.999925 0.994711
1.00042 1.00351 0.990561
1.00003 0.997556 0.998953
1.00011 0.999501 0.99523
1.00001 0.997393 0.999059
0.994834 0.994842 0.776257
0.994743 0.994821 0.769334
0.994781 0.994767 0.774484
1.00076 1.00522 0.987425
1.00323 1.00226 0.990915
1.00081 1.00508 0.988159
1.0008 1.00511 0.98796
1.0005 1.0019 0.991331
1.0013 1.00235 0.991108
0.998562 1.00126 0.995341
0.994831 0.994838 0.777654
0.994875 0.994855 0.791725
0.994826 0.994819 0.778493
0.99489 0.994897 0.814051
0.995094 0.99475 0.949066
0.994838 0.994833 0.912244
0.996055 0.995173 0.871295
0.995322 0.994859 0.94987
0.994808 0.997098 0.911629
0.996318 0.995271 0.873305
0.995172 0.994897 0.80519
0.994839 0.995964 0.954285
0.995098 0.998545 0.912984
0.99512 0.994908 0.849122
0.994833 0.996595 0.781034
0.995179 1.00542 0.99708
0.996846 1.00386 0.995805
0.997919 1.00436 0.993604
1.00035 1.00482 0.989507
0.99539 1.00204 0.983128
0.994659 1.00523 0.996085
0.995176 1.00542 0.997127
0.995869 1.00531 0.997412
0.994701 1.00531 0.99962
0.995168 1.00546 0.997977
0.995717 1.00401 0.999169
0.994766 1.00242 0.979193
0.9948 1.00525 0.994513
0.995739 1.00323 0.999838
0.996172 1.00068 0.973963
0.995368 1.00431 0.997742
0.994728 0.994823 0.765253
0.994833 0.994856 0.772443
0.994736 0.994824 0.760731
0.994638 1.0052 0.997945
0.994838 1.00166 0.969897
0.994786 0.994839 0.776366
0.994924 0.994916 0.918293
0.995801 0.995015 0.871072
0.994804 0.994817 0.780787
0.994806 0.997145 0.793889
0.994733 1.00507 0.989035
0.994742 0.994821 0.773041
0.994799 0.994808 0.773075
0.994816 1.00209 0.958912
0.994878 0.999281 0.798483
0.994801 0.997234 0.841166
0.994842 0.994952 0.914614
0.995405 1.00403 0.982113
0.994813 0.994826 0.77539
0.994858 0.995778 0.781271
0.994709 0.998575 0.853945
0.994812 0.994969 0.923403
0.99483 0.998897 0.954334
0.994733 1.00515 0.999047
0.995015 1.00512 0.998125
0.994988 1.00527 0.997764
0.994899 1.00249 1.00041
0.996875 1.00278 0.998626
1.00066 1.00194 0.993846
1.00484 0.999149 0.98994
1.003 1.00477 0.98532
1.00431 1.00164 0.985894
1.00425 1.00331 0.983896
1.00457 1.00306 0.983704
1.00512 1.001 0.985302
1.00542 0.996811 0.988295
1.00531 0.999182 0.986787
1.00521 0.999802 0.986083
1.00508 1.00179 0.985281
1.00514 1.0012 0.985071
1.00501 1.00219 0.984494
1.00523 1.00415 0.982821
1.00502 1.00282 0.984483
1.00525 1.0015 0.984999
1.00427 1.00228 0.987216
1.00401 1.00254 0.985935
1.00434 1.00305 0.985144
1.00367 1.00339 0.985927
1.00263 1.00275 0.98789
1.00321 1.00209 0.986748
1.00135 1.00244 0.990104
1.00296 1.00517 0.985319
1.00288 1.00515 0.985992
1.00264 1.00512 0.98612
1.00081 1.00228 0.991256
1.00032 0.999218 0.998086
1.00055 1.00139 0.992649
1.00031 0.9985 0.998353
1.00036 0.997757 0.998569
1.00348 1.00485 0.987207
1.00332 1.00519 0.986221
1.00158 1.00484 0.987833
1.00201 1.00481 0.987098
1.00015 1.00127 0.993484
1.00105 1.00452 0.988952
1.00167 1.00515 0.987402
1.00007 0.99812 0.998682
1.0002 1.00043 0.994178
1.00062 1.00411 0.990046
1.00005 0.997818 0.998844
1.00016 0.999932 0.994734
1.00003 0.997521 0.998985
0.994774 0.994843 0.764657
0.99482 0.994832 0.774847
0.994742 0.994819 0.769948
1.00171 1.00527 0.987027
1.00009 1.00242 0.99163
1.0027 1.00241 0.988459
0.998267 1.00491 0.991172
1.00216 0.998331 0.9932
1.00098 1.00519 0.987844
0.999675 1.0027 0.992354
1.00082 1.00297 0.991082
0.99869 0.999978 0.997646
0.999326 1.00206 0.99579
0.994777 0.994745 0.771354
0.994814 0.994841 0.778936
0.994865 0.994842 0.789182
0.995638 0.994881 0.807582
0.996352 0.994907 0.861388
0.995108 0.994864 0.948253
0.994745 0.996649 0.924692
0.994868 0.99698 0.948539
0.994866 0.998262 0.925271
0.995248 0.995276 0.858689
0.994859 0.997145 0.778071
0.994898 0.999812 0.949397
0.994862 0.996068 0.924663
0.994836 0.997376 0.864727
0.994787 1.00142 0.804001
0.998241 1.0004 0.998214
0.99536 1.00502 0.997372
0.997263 1.00337 0.996516
0.994783 1.002 0.97563
0.994801 1.00527 0.993397
0.995245 1.00542 0.997829
0.994878 1.00406 0.99942
0.995433 1.00402 0.999763
0.994899 1.00324 0.998384
0.994827 1.00221 0.974868
0.995006 1.00192 1.00368
0.994758 1.00102 0.982362
0.994755 0.994764 0.782737
0.994744 0.994836 0.764766
0.994814 0.994848 0.780126
0.99477 1.00485 0.989218
0.994838 0.999626 0.956372
0.994752 0.994826 0.773726
0.994831 0.994906 0.926114
0.994809 0.997396 0.858757
0.994834 0.994795 0.773447
0.994862 0.997625 0.797361
0.995082 1.00418 0.983073
0.994815 0.9948 0.775297
0.994856 0.996813 0.783385
0.994851 0.998234 0.955873
0.994753 0.998043 0.859675
0.99516 0.994828 0.913088
0.994801 1.00257 0.981015
0.994762 0.994919 0.777142
0.995657 0.995435 0.867377
0.994803 0.994613 0.908464
0.994937 0.995034 0.954663
0.994889 1.00527 0.998224
0.9949 1.00527 0.997556
0.997821 1.00001 0.997038
0.995457 1.00276 0.999151
0.999624 1.00203 0.994704
1.00419 0.996148 0.993019
1.00413 1.00516 0.984568
1.00415 1.00159 0.985855
1.00505 0.997049 0.988893
1.00457 1.00311 0.983709
1.00504 1.00069 0.985335
1.00531 0.997191 0.988326
1.00546 0.994781 0.990391
1.00546 0.996325 0.988439
1.00541 0.996733 0.988334
1.00546 0.998918 0.987017
1.00531 0.999214 0.98673
1.00519 0.999945 0.986107
1.00536 1.00228 0.98415
1.00504 1.00154 0.985143
1.00509 1.00092 0.985115
1.00531 1.0051 0.983076
1.00431 1.004 0.983465
1.005 1.00245 0.984601
1.00253 1.00409 0.987152
1.00303 1.0027 0.987114
1.00269 1.00291 0.986611
1.0022 1.00328 0.99012
1.00307 1.00363 0.986063
1.00267 1.00268 0.98783
1.0006 1.00036 0.994402
1.00162 1.00279 0.990379
1.00311 1.00518 0.985461
1.00108 1.00221 0.991223
1.00044 0.999408 0.997949
1.00037 0.998869 0.998224
1.00237 1.00264 0.986719
1.00316 1.00516 0.985998
1.00098 1.00479 0.987533
1.00162 1.00515 0.987444
1.00215 1.00515 0.986269
1.00004 1.00177 0.993039
1.00139 1.00493 0.987838
1.00189 1.00517 0.987076
1.00006 0.998513 0.998528
1.00016 1.00105 0.993546
1.00081 1.00454 0.988929
1.00005 0.998026 0.998722
1.00019 1.00034 0.994195
1.00004 0.997725 0.998876
0.994752 0.994818 0.780382
0.994779 0.994836 0.765324
0.994795 0.994851 0.773133
1.00282 1.00513 0.98485
1.00113 1.00517 0.986693
0.999064 1.00268 0.992558
1.00027 1.00518 0.990463
1.00361 1.001 0.988143
1.00129 0.997859 0.995675
1.00361 1.00057 0.989097
0.995586 1.00521 0.994998
0.99998 1.00334 0.990962
0.997935 0.997031 0.999768
0.997312 1.00292 0.995905
0.997488 1.00288 0.996037
0.994854 0.999336 0.800431
0.994794 0.994769 0.77115
0.994799 0.994848 0.779888
0.995114 0.997395 0.792741
0.995409 0.9949 0.857638
0.995059 0.998546 0.913367
0.994983 0.995648 0.949527
0.995514 0.999083 0.950645
0.994819 0.999395 0.802152
0.994831 0.996767 0.915957
0.994829 0.997015 0.844073
0.994852 0.996811 0.957718
0.994778 0.994804 0.926036
0.994734 0.997821 0.855932
0.998942 0.996834 1.00263
0.997981 1.0005 0.998156
0.994965 1.00546 0.997651
0.994875 1.00252 0.975445
0.995039 1.00221 0.99902
0.995591 1.00318 0.999801
0.995678 0.999764 1.00402
0.994954 1.00001 0.982585
0.995548 0.995992 0.99561
0.994775 0.994724 0.79226
0.994749 0.994784 0.781509
0.994773 0.994826 0.763922
0.994774 1.00481 0.983039
0.994837 0.999795 0.955519
0.994799 0.994801 0.775486
0.994829 0.994822 0.910607
0.994742 0.9975 0.842446
0.994849 0.99849 0.796272
0.994816 1.00437 0.980757
0.994787 0.995735 0.791998
0.994771 0.995982 0.846082
0.995198 0.994859 0.94864
0.995086 0.994609 0.92439
0.996005 0.998063 0.987271
0.99898 0.999678 0.834415
0.994855 0.994645 0.933817
0.994954 0.994718 0.946466
0.99484 1.00526 0.99741
0.997639 1.00143 0.996631
1.0011 0.996707 0.994395
0.998504 1.00264 0.995566
1.00324 0.997018 0.992785
1.00494 0.994654 0.992288
1.00407 1.00143 0.985818
1.00505 0.99689 0.988765
1.00524 0.995112 0.990345
1.00492 1.00025 0.985369
1.00528 0.997011 0.988245
1.00541 0.994748 0.990358
1.00536 0.994755 0.991033
1.00544 0.994819 0.990437
1.00545 0.994801 0.990387
1.00554 0.996023 0.98866
1.00547 0.996266 0.988603
1.00542 0.996668 0.988374
1.00554 0.998801 0.986599
1.00544 0.99875 0.986881
1.00531 0.999274 0.98667
1.00547 1.00321 0.982268
1.00538 1.00231 0.984064
1.00505 1.00133 0.985005
1.00362 1.00339 0.985537
1.00417 1.00489 0.983113
1.00366 1.00402 0.984114
1.00221 1.00333 0.987645
1.00304 1.00312 0.987016
1.00185 1.00281 0.986997
1.00018 1.0025 0.996931
1.00209 1.00348 0.988072
1.00343 1.00292 0.986159
1.00058 0.999922 0.997578
1.00171 1.00277 0.989609
1.00053 0.999402 0.997811
1.00455 1.00439 0.984181
1.00381 1.00252 0.98654
1.00227 1.00416 0.986315
1.00193 1.00519 0.987467
1.00263 1.00497 0.985999
1.00115 1.00465 0.987841
1.0003 1.00209 0.992481
1.00151 1.00517 0.987449
1.00228 1.00444 0.986317
1.00008 0.999046 0.998439
0.999987 1.00187 0.993029
1.0013 1.00514 0.98784
1.00003 0.998531 0.998576
1.00015 1.00112 0.993593
1.00003 0.998033 0.998761
0.994779 0.995042 0.785303
0.994763 0.99481 0.780501
0.994781 0.994829 0.766113
1.00274 1.00485 0.985225
1.00475 1.0029 0.986095
1.00111 1.0045 0.987457
0.999987 1.00524 0.989721
1.00452 1.00081 0.987849
0.997136 0.99854 0.997884
0.998034 1.00244 0.994665
1.00171 1.0016 0.990471
1.00083 1.00094 0.992603
0.998714 1.00205 0.995184
0.997315 1.00304 0.996024
0.998744 1.00273 0.995995
0.995008 0.997753 0.841827
0.994808 0.997638 0.795072
0.994824 0.994788 0.771741
0.994853 0.998478 0.799853
0.994807 0.997321 0.861557
0.994844 0.996005 0.913892
0.994873 1.00008 0.949247
0.995062 0.997453 0.953475
0.994796 0.998685 0.860515
0.995018 0.994783 0.911367
0.994914 0.994809 0.9597
0.994893 0.994544 0.912338
0.998329 0.996259 1.00557
0.998945 0.996838 1.00232
0.997754 1.00056 0.998115
0.995117 1.00004 0.982858
0.996022 0.999109 1.0043
0.995493 0.996391 0.995062
0.995193 0.994647 0.992305
0.999362 0.999963 0.844568
0.994802 0.994688 0.788361
0.994745 0.994808 0.78009
0.994849 1.00413 0.981306
0.995002 0.994955 0.94906
0.994793 0.99581 0.790224
0.994886 0.994584 0.91091
0.994994 0.996905 0.865471
0.99585 0.998139 0.983569
0.99863 0.995877 0.849697
0.995798 0.994622 0.917456
0.995132 0.994751 0.948259
0.997311 0.996222 0.982872
0.99768 0.994878 0.93299
0.994905 0.994741 0.956927
0.997317 1.00236 0.996252
1.00063 0.996498 0.994315
1.00351 0.995854 0.992736
1.0024 0.99737 0.992561
1.00456 0.994669 0.992199
1.00514 0.994566 0.991383
1.00508 0.996812 0.988639
1.00523 0.995201 0.990207
1.00539 0.994626 0.990449
1.00521 0.996825 0.988162
1.00542 0.99474 0.990312
1.00537 0.994767 0.99067
1.0054 0.994841 0.990731
1.00535 0.99475 0.991003
1.00539 0.99477 0.991007
1.00537 0.994847 0.990787
1.00544 0.994855 0.990561
1.00544 0.994809 0.990384
1.00552 0.996211 0.988818
1.00553 0.995991 0.988696
1.00549 0.996203 0.988767
1.00558 1.0005 0.984729
1.00557 0.998852 0.986602
1.00542 0.998613 0.986749
1.00532 1.0032 0.982414
1.0055 1.00341 0.98246
1.00542 1.00234 0.983975
1.00237 1.00407 0.986557
1.00356 1.00392 0.985446
1.0032 1.00495 0.983166
1.00134 1.00139 0.996641
1.00243 1.00343 0.987683
1.00276 1.00311 0.986896
1.00072 1.00163 0.995019
1.00217 1.00315 0.988378
1.00082 1.00076 0.997199
1.00491 1.00408 0.982563
1.00394 1.00454 0.984122
1.00332 1.00307 0.985565
1.00418 1.00247 0.986362
1.00325 1.00413 0.986407
1.00203 1.0052 0.987139
1.00112 1.00247 0.991105
1.00162 1.00519 0.987371
1.00176 1.00501 0.98601
1.00021 0.998856 0.998175
1.00022 1.00211 0.992458
1.00156 1.00521 0.987457
1.00001 0.99874 0.998455
1.00007 1.0016 0.993061
0.999996 0.998377 0.998624
0.997388 0.995087 0.851923
0.994801 0.995498 0.790522
0.994764 0.994808 0.780763
1.00294 1.00465 0.985605
1.00161 1.00506 0.987527
1.00453 1.00224 0.985431
1.0051 0.998821 0.987842
1.00302 0.999733 0.990574
1.00051 1.0032 0.994351
1.00232 1.00042 0.991829
1.00149 1.00116 0.992776
1.00478 0.996738 0.990814
1.00178 0.999643 0.993371
1.0025 0.998835 0.993064
1.00022 1.00027 0.995309
0.999145 1.00255 0.996059
0.997411 0.994644 0.928811
0.996084 0.997141 0.848782
0.994768 0.996033 0.800526
0.994757 0.998285 0.844367
0.994786 0.994802 0.92247
0.995217 0.997632 0.957173
0.995067 0.994832 0.962008
0.994966 0.994591 0.927587
0.995573 0.994779 0.957514
0.997364 0.995261 1.00496
0.997581 0.996767 1.0057
0.99906 0.99677 1.00202
0.995287 0.996478 0.994752
0.996367 0.994739 0.993733
0.999531 0.997438 0.916157
0.9997 0.996202 0.854863
0.994825 0.994653 0.784274
0.995866 0.99737 0.97932
0.994949 0.994728 0.946859
0.999159 0.995262 0.849126
0.994822 0.994647 0.932404
0.997589 0.995048 0.983012
0.999335 0.994909 0.928396
0.995246 0.994746 0.953822
0.999725 0.994599 0.982737
0.998183 0.994734 0.966156
1.00023 0.996943 0.994186
1.00253 0.995362 0.992828
1.00488 0.994684 0.991788
1.00411 0.994699 0.992105
1.00505 0.994586 0.991294
1.00536 0.994676 0.990611
1.00522 0.995296 0.990068
1.00538 0.99465 0.990405
1.00541 0.994767 0.99039
1.00544 0.994735 0.990265
1.00537 0.994768 0.990681
1.00541 0.994798 0.990521
1.00539 0.994838 0.990695
1.00541 0.994845 0.99072
1.00535 0.994746 0.990973
1.00539 0.994761 0.991011
1.00536 0.994811 0.990995
1.00539 0.99514 0.99058
1.00538 0.9949 0.990779
1.00545 0.994896 0.990685
1.00551 0.999046 0.986426
1.00553 0.996292 0.988759
1.00552 0.995946 0.988729
1.00542 1.00416 0.981669
1.00556 1.00087 0.984784
1.00561 0.998893 0.986605
1.0033 1.00374 0.985454
1.00498 1.00383 0.98253
1.00553 1.0036 0.982656
1.00158 1.00148 0.996288
1.00277 1.00383 0.986424
1.00335 1.00433 0.985376
1.00136 1.00116 0.996557
1.00271 1.00333 0.987729
1.0012 1.00095 0.996762
1.00525 1.00223 0.985184
1.00507 1.00451 0.982707
1.00361 1.005 0.982534
1.00387 1.00433 0.984049
1.00301 1.00415 0.985096
1.00231 1.00443 0.985556
1.00286 1.00357 0.986472
1.00177 1.00502 0.987017
1.00199 1.00327 0.988945
1.00039 1.00021 0.997582
1.00066 1.00281 0.991077
1.00126 1.00518 0.987281
1.00008 0.999383 0.998283
0.999808 1.00257 0.992374
0.999977 0.998836 0.998484
0.99995 0.994835 0.933698
0.999755 0.997198 0.848074
0.994807 0.994992 0.784839
1.00121 1.00513 0.987591
1.00484 1.00218 0.98477
1.00354 1.00021 0.989807
1.00499 0.999208 0.987442
1.00524 0.996863 0.988937
1.00493 0.996019 0.990562
1.0023 0.999583 0.992895
1.00488 0.99699 0.990089
1.00206 1.00005 0.993075
1.00438 0.998525 0.989828
1.00234 1.00019 0.991068
1.00287 0.99831 0.994042
1.0023 0.999751 0.993358
1.00101 0.999502 0.995416
0.994932 0.994718 0.957375
0.9961 0.994625 0.923564
0.994816 0.99835 0.866581
0.994804 0.994559 0.911071
0.994867 0.99536 0.963046
0.995611 0.994772 0.964421
0.998541 0.994685 0.989493
0.998623 0.994914 1.00345
0.997019 0.997145 1.00585
0.997195 0.994808 0.995166
0.999384 0.994714 0.956258
1.00091 0.99485 0.932735
0.999313 1.00191 0.833301
0.997653 0.99472 0.983459
0.995684 0.994749 0.954295
0.998277 0.994724 0.923221
0.999726 0.994649 0.983412
0.99768 0.994754 0.964755
1.00157 0.99616 0.986937
1.00408 0.994594 0.983489
1.00139 0.994692 0.992944
1.00418 0.994657 0.991936
1.0053 0.994826 0.990676
1.00494 0.994589 0.991205
1.00536 0.99466 0.990593
1.00544 0.994756 0.990438
1.00537 0.99467 0.990359
1.00541 0.994762 0.990402
1.00541 0.994805 0.99054
1.00537 0.994767 0.99069
1.00541 0.994803 0.990535
1.00541 0.994858 0.990678
1.00538 0.994833 0.99066
1.00541 0.994845 0.990707
1.00536 0.994864 0.990893
1.00539 0.994752 0.991016
1.00536 0.994802 0.990996
1.00538 0.995228 0.99067
1.00543 0.997299 0.988287
1.0054 0.995404 0.990271
1.00539 0.994949 0.990772
1.00542 1.00245 0.983093
1.0055 0.999179 0.986429
1.00554 0.996373 0.988701
1.00367 1.00331 0.985299
1.00522 1.00418 0.981715
1.00553 1.00124 0.984844
1.00225 1.00197 0.995584
1.00326 1.00381 0.985325
1.00455 1.00456 0.982633
1.00185 1.00177 0.995936
1.0031 1.00362 0.986279
1.00151 1.00123 0.99633
1.00545 0.999113 0.986503
1.00504 1.00226 0.984835
1.00543 1.00355 0.983003
1.00493 1.00395 0.982843
1.00479 1.00469 0.982328
1.00369 1.00515 0.983275
1.0041 1.00529 0.984651
1.0035 1.0042 0.985692
1.00242 1.00382 0.986956
1.00222 1.0048 0.986948
1.00152 1.0035 0.988955
1.0007 1.00146 0.99677
1.00022 0.999783 0.997819
1.00046 1.00281 0.991077
0.999962 0.99906 0.998352
0.994923 0.994776 0.961794
0.998082 0.995126 0.916891
0.999444 1.00074 0.863622
1.00546 0.995368 0.989727
1.00388 1.00046 0.989061
1.00495 0.999349 0.987046
1.0051 0.996299 0.99046
1.00534 0.996822 0.989023
1.00534 0.995641 0.990029
1.00478 0.997335 0.989392
1.00155 1.00004 0.992827
1.00448 0.997687 0.989863
1.00238 1.00042 0.990213
1.00343 0.998991 0.990264
1.00363 0.994457 0.994521
1.00184 0.997948 0.994577
1.00175 1.00003 0.993665
0.997649 0.99469 0.987636
0.995179 0.994708 0.955406
0.995111 0.994651 0.918266
0.995001 0.994745 0.965215
0.998546 0.994668 0.991502
0.999386 0.994827 1.0019
1.00456 0.994641 0.974391
1.00127 0.99476 0.953329
0.999809 0.997443 0.916667
0.99942 0.994711 0.984024
0.996329 0.994724 0.964645
1.00133 0.995449 0.987716
1.00262 0.994623 0.984121
1.00312 0.99622 0.990028
1.00551 0.99453 0.990545
1.00366 0.99466 0.992083
1.0053 0.994791 0.99065
1.00545 0.994947 0.990509
1.00537 0.994652 0.990576
1.00544 0.994768 0.99045
1.00541 0.994821 0.990675
1.00541 0.994761 0.990414
1.00541 0.994802 0.990523
1.00539 0.994862 0.990813
1.00541 0.994808 0.990549
1.00541 0.994859 0.990674
1.00536 0.994893 0.990897
1.00541 0.994846 0.990695
1.00536 0.994859 0.990865
1.00531 0.994875 0.991107
1.00535 0.994794 0.990998
1.00539 0.995039 0.990792
1.00541 0.996565 0.989453
1.00538 1.00137 0.98464
1.00545 0.997638 0.987995
1.00541 0.99566 0.989961
1.00386 1.00232 0.985945
1.00544 1.00263 0.983096
1.0055 0.9993 0.98643
1.00281 1.00167 0.995478
1.00362 1.00327 0.985327
1.00522 1.00432 0.981757
1.00237 1.00203 0.995533
1.00321 1.00383 0.985216
1.00197 1.00208 0.995705
1.00552 0.996709 0.988445
1.00541 0.999203 0.986529
1.00562 1.00146 0.984469
1.00483 1.00264 0.984494
1.00531 1.00375 0.982936
1.00494 1.00451 0.981914
1.00534 1.00499 0.982129
1.00401 1.00474 0.983294
1.00268 1.00413 0.986093
1.00303 1.00464 0.985695
1.0024 1.00413 0.987037
1.00102 1.00265 0.996197
1.00127 1.00389 0.988961
1.00039 1.00138 0.997083
1.00005 0.999999 0.998027
0.998316 0.994698 0.985296
0.996347 0.994785 0.955831
0.999995 0.994835 0.933155
1.00542 0.994869 0.990097
1.00546 0.994768 0.990358
1.00546 0.995279 0.98982
1.00522 0.996617 0.990342
1.00539 0.996681 0.989114
1.00533 0.995732 0.990033
1.0054 0.995038 0.990103
1.00473 0.996927 0.989887
1.00329 1.00116 0.989356
1.00372 0.998217 0.9905
1.00527 0.994614 0.991323
1.00362 0.994724 0.992965
1.00262 0.994494 0.994495
1.00163 0.997627 0.995125
0.998738 0.994663 0.987448
0.995665 0.994742 0.954612
0.99949 0.994628 0.993632
1.0053 0.994618 0.989118
1.00444 0.994633 0.974302
0.999259 0.994799 0.954836
1.00166 0.99474 0.988371
1.00116 0.994655 0.984782
1.00365 0.995534 0.990318
1.0054 0.994544 0.990785
1.00554 0.994717 0.99094
1.00558 0.994618 0.991393
1.0053 0.994755 0.990625
1.00544 0.99488 0.990532
1.00545 0.994823 0.990989
1.00544 0.994778 0.990463
1.00542 0.994819 0.99068
1.00538 0.994852 0.990998
1.00542 0.994799 0.990507
1.00539 0.994863 0.990815
1.00536 0.994909 0.991009
1.00541 0.99486 0.990671
1.00536 0.994894 0.990894
1.00521 0.994911 0.991301
1.00537 0.994854 0.990836
1.00533 0.994876 0.991063
1.00537 0.995745 0.990368
1.00539 0.994853 0.990914
1.0054 0.996466 0.989475
1.00534 1.00043 0.985748
1.0039 1.0015 0.986809
1.00536 1.00136 0.984669
1.00547 0.99799 0.987703
1.00322 1.001 0.99546
1.00384 1.00232 0.986016
1.00547 1.0027 0.983101
1.00289 1.00163 0.995431
1.00357 1.00332 0.98535
1.00251 1.00217 0.995463
1.00541 0.995267 0.990077
1.00548 0.996643 0.988644
1.00543 0.999639 0.986298
1.00537 0.999274 0.986557
1.00555 1.00135 0.984406
1.00529 1.00428 0.981821
1.00546 1.00365 0.982868
1.00495 1.0047 0.98185
1.00267 1.00421 0.985706
1.00516 1.0037 0.983389
1.00268 1.00411 0.986203
1.00129 1.00276 0.995977
1.00213 1.00431 0.98712
1.00089 1.00234 0.996378
1.00024 1.00089 0.997375
1.00375 0.994742 0.99199
0.997843 0.99472 0.982601
0.995741 0.99479 0.957853
1.00545 0.994745 0.990226
1.00542 0.994915 0.990136
1.00535 0.994829 0.990777
1.00546 0.994787 0.99034
1.00546 0.995227 0.989904
1.00543 0.994696 0.990524
1.00532 0.995803 0.990032
1.00537 0.994906 0.990132
1.00533 0.994724 0.990937
1.00387 0.997432 0.990736
1.00528 0.994593 0.9909
1.00288 0.994836 0.993155
1.00131 0.994505 0.994497
0.999431 0.994634 0.987093
1.00549 0.994686 0.991642
1.00532 0.994586 0.989161
1.00412 0.994626 0.974318
1.00401 0.994834 0.990567
1.00544 0.994554 0.991012
1.00551 0.994716 0.990842
1.00564 0.994615 0.991559
1.0055 0.994756 0.991487
1.00544 0.994809 0.990556
1.00544 0.99482 0.990986
1.00538 0.994847 0.991291
1.00542 0.994818 0.990685
1.00537 0.994854 0.990996
1.00536 0.994901 0.991192
1.00539 0.994863 0.990816
1.00535 0.994909 0.991014
1.00521 0.994949 0.991418
1.00536 0.994894 0.990892
1.00524 0.994912 0.991285
1.00533 0.99518 0.991132
1.00536 0.994877 0.99102
1.00533 0.995785 0.99035
1.00534 0.999665 0.986595
1.0054 0.996369 0.989497
1.00533 1.00042 0.98578
1.00375 1.00122 0.989416
1.00358 0.999968 0.991537
1.00393 1.0015 0.987851
1.00533 1.00133 0.984695
1.00313 1.00091 0.995535
1.00381 1.00227 0.98608
1.00292 1.00159 0.995428
1.00532 0.994896 0.991064
1.00538 0.994831 0.990791
1.00542 0.995243 0.990216
1.00539 0.997744 0.988072
1.00545 0.996572 0.988844
1.00546 0.999454 0.986262
1.00535 1.00341 0.982524
1.00556 1.00141 0.984338
1.00541 1.00415 0.981759
1.00323 1.0038 0.985353
1.00498 1.00504 0.981778
1.0029 1.00412 0.985733
1.00197 1.00276 0.995636
1.00273 1.00406 0.986323
1.00131 1.00262 0.99607
1.00049 1.00235 0.996619
1.0054 0.994766 0.991463
1.00315 0.994783 0.991487
0.997799 0.994741 0.979842
1.00536 0.994824 0.990756
1.00545 0.994758 0.990186
1.00541 0.994867 0.990182
1.00533 0.994829 0.990822
1.00547 0.994792 0.990323
1.00538 0.99479 0.991064
1.0054 0.994688 0.99048
1.00533 0.994877 0.990157
1.0053 0.994708 0.990989
1.00527 0.994598 0.990474
1.00228 0.994577 0.993265
1.00547 0.994778 0.991495
1.0055 0.994685 0.99164
1.00536 0.994562 0.989207
1.00547 0.994712 0.990739
1.00569 0.994612 0.991723
1.00551 0.994753 0.991461
1.00539 0.994853 0.991549
1.00544 0.994818 0.990982
1.00538 0.994849 0.99125
1.00535 0.994896 0.991401
1.00537 0.994857 0.990995
1.00536 0.994902 0.991195
1.00524 0.994938 0.991503
1.00534 0.99491 0.99102
1.00521 0.994949 0.991416
1.0053 0.99495 0.991554
1.00526 0.994913 0.991268
1.0053 0.995237 0.991114
1.00538 0.999003 0.987312
1.0053 0.995825 0.990333
1.00535 0.999659 0.986615
1.00374 1.00082 0.989749
1.00532 1.00039 0.985814
1.00403 1.00102 0.989248
1.00335 0.999745 0.991809
1.00308 1.00031 0.99376
1.00418 1.00146 0.988659
1.00306 1.00081 0.995611
1.00529 0.994899 0.991059
1.00529 0.994891 0.991243
1.00532 0.994905 0.991103
1.00529 0.996315 0.989689
1.00536 0.994828 0.990846
1.00544 0.995234 0.990355
1.00537 0.997633 0.988108
1.00529 1.00194 0.984057
1.00542 0.999278 0.98623
1.00533 1.0035 0.982497
1.00363 1.00287 0.985831
1.00545 1.00392 0.981704
1.00325 1.00374 0.985356
1.0026 1.00217 0.995429
1.00303 1.00392 0.98577
1.00176 1.00249 0.995796
1.00121 1.00263 0.99612
1.0054 0.994807 0.9913
1.00536 0.994771 0.991509
1.00198 0.995197 0.991032
1.00533 0.99485 0.991089
1.00535 0.994818 0.990715
1.00546 0.994775 0.990149
1.00531 0.994836 0.990865
1.0054 0.994796 0.991005
1.00537 0.99468 0.990436
1.00529 0.994686 0.991038
1.0054 0.994842 0.991549
1.00546 0.994783 0.991483
1.0055 0.99468 0.991635
1.00535 0.994874 0.99162
1.00553 0.994752 0.991435
1.00539 0.994852 0.991539
1.00536 0.994895 0.991554
1.00538 0.994851 0.99121
1.00536 0.994896 0.991406
1.00525 0.99492 0.991628
1.00535 0.994902 0.991198
1.00524 0.994938 0.991511
1.00532 0.994931 0.991708
1.00521 0.994948 0.991414
1.00531 0.994974 0.99153
1.00538 0.998418 0.988022
1.00526 0.995295 0.991095
1.0054 0.999002 0.987316
1.00367 1.00057 0.990076
1.00535 0.999649 0.986636
1.004 1.00068 0.989563
1.00319 0.999789 0.991954
1.00431 1.00081 0.989085
1.00275 0.999931 0.992263
1.00217 1.00069 0.996445
1.00529 0.994914 0.99115
1.00514 0.994916 0.991469
1.0053 0.994902 0.991086
1.00523 0.996341 0.989976
1.00526 0.994882 0.991218
1.00531 0.994912 0.991144
1.00532 1.00043 0.985717
1.00532 0.996201 0.989726
1.00536 0.99482 0.990903
1.00533 0.997485 0.988143
1.00531 1.00204 0.984025
1.00377 1.00178 0.986804
1.00541 1.00359 0.982461
1.00366 1.00277 0.985797
1.00279 1.00134 0.99558
1.00334 1.00369 0.985348
1.00249 1.00216 0.995497
1.00176 1.00235 0.995962
1.00534 0.994863 0.991424
1.0054 0.994801 0.991248
1.00533 0.99478 0.991557
1.00532 0.994854 0.991105
1.00534 0.99481 0.990674
1.00541 0.994804 0.990945
1.00535 0.994881 0.991629
1.0054 0.994848 0.991561
1.00544 0.994788 0.99147
1.00535 0.994875 0.991647
1.00534 0.994907 0.991648
1.00539 0.994851 0.991529
1.00535 0.994897 0.991567
1.00525 0.994918 0.991708
1.00536 0.994896 0.99141
1.00525 0.994921 0.991634
1.00534 0.994949 0.991755
1.00523 0.994938 0.991518
1.00533 0.994931 0.991693
1.00534 0.997939 0.988637
1.00531 0.994997 0.991506
1.00539 0.998411 0.988016
1.0035 1.0004 0.990456
1.00542 0.999001 0.98732
1.0039 1.00047 0.989896
1.00294 0.999903 0.992156
1.00425 1.00056 0.989386
1.00266 0.999874 0.992416
1.00216 1.00014 0.992701
1.00531 0.994901 0.991387
1.00516 0.994965 0.991471
1.0053 0.994907 0.991128
1.00527 0.99574 0.990596
1.00513 0.994927 0.991476
1.00531 0.994907 0.991112
1.00536 0.999548 0.98671
1.00528 0.995855 0.990346
1.00523 0.994874 0.991193
1.00377 1.00111 0.987498
1.00529 1.0005 0.985683
1.00535 0.996125 0.989763
1.00533 1.0021 0.983992
1.00374 1.00179 0.986731
1.00277 1.00074 0.995775
1.00361 1.00275 0.98576
1.00284 1.00143 0.995504
1.00232 1.00203 0.995602
1.00533 0.994897 0.991591
1.00534 0.99486 0.991383
1.00541 0.994796 0.991196
1.00531 0.994858 0.991121
1.00533 0.994915 0.991655
1.00535 0.99488 0.991635
1.00541 0.994854 0.991573
1.00535 0.994877 0.991674
1.00534 0.994905 0.991658
1.00524 0.99493 0.991857
1.00535 0.994899 0.991579
1.00525 0.994922 0.991755
1.00534 0.994949 0.991722
1.00525 0.994921 0.991641
1.00534 0.99495 0.99175
1.00532 0.997611 0.98903
1.00533 0.99493 0.991678
1.00535 0.997929 0.988623
1.00348 1.00025 0.988949
1.00541 0.998411 0.98801
1.00371 1.00034 0.989391
1.00242 0.999988 0.996084
1.00412 1.00038 0.989717
1.00246 0.999929 0.992605
1.00215 0.999938 0.992859
1.00532 0.994912 0.991524
1.00517 0.99495 0.991567
1.00531 0.994906 0.991416
1.00527 0.994976 0.991481
1.00515 0.994956 0.991499
1.00531 0.9949 0.991107
1.0054 0.998122 0.988149
1.00527 0.995739 0.990581
1.00513 0.99494 0.991482
1.0038 1.00069 0.987932
1.00534 0.99913 0.987126
1.00534 0.995355 0.990714
1.00271 1.00037 0.995897
1.00378 1.00111 0.987453
1.00527 1.00056 0.98565
1.00373 1.00183 0.986665
1.00286 1.0008 0.995711
1.00293 1.00147 0.995459
1.00533 0.994918 0.991565
1.00533 0.994898 0.991582
1.00534 0.994857 0.991342
1.00521 0.994935 0.991935
1.00532 0.994912 0.991642
1.00535 0.99488 0.991641
1.00534 0.994904 0.991669
1.00524 0.994929 0.991859
1.00534 0.995314 0.991288
1.00525 0.994926 0.991803
1.00534 0.995157 0.991515
1.00532 0.997053 0.989679
1.00534 0.99495 0.991744
1.00533 0.997588 0.98902
1.00343 0.999976 0.989298
1.00536 0.997913 0.988612
1.00351 1.0002 0.988966
1.0023 1.00003 0.996135
1.00378 1.00029 0.988522
1.00222 1.00002 0.994536
1.00199 0.999931 0.99305
1.00533 0.994915 0.991596
1.00517 0.994944 0.99172
1.00532 0.994911 0.991527
1.00527 0.994988 0.991656
1.00517 0.994952 0.991588
1.00532 0.99491 0.991445
1.00537 0.997848 0.988546
1.00527 0.995319 0.991181
1.00515 0.994945 0.991527
1.00371 1.00052 0.988265
1.0054 0.998064 0.988214
1.00527 0.99575 0.990567
1.0026 1.00016 0.995972
1.00377 1.00072 0.987911
1.00531 0.998721 0.987547
1.00279 1.00038 0.995855
1.00378 1.0011 0.987403
1.00291 1.00084 0.995639
1.00519 0.994928 0.991902
1.00533 0.994917 0.991579
1.00534 0.994898 0.991573
1.00534 0.995355 0.991273
1.00521 0.994932 0.991922
1.00532 0.994909 0.99163
1.00524 0.994928 0.991861
1.00534 0.995364 0.991279
1.00532 0.996997 0.989677
1.00534 0.995376 0.991307
1.00532 0.997258 0.989434
1.00337 0.999765 0.989585
1.00533 0.99757 0.989007
1.00342 0.99998 0.989306
1.00217 1 0.996213
1.00352 1.00017 0.988981
1.00224 1.00004 0.99616
1.00233 1.00001 0.992597
1.00517 0.994923 0.991911
1.00533 0.994916 0.991509
1.00528 0.994958 0.991759
1.00517 0.994945 0.991725
1.00532 0.994912 0.99153
1.00537 0.99837 0.988074
1.00528 0.994976 0.991657
1.00517 0.994955 0.991608
1.00361 1.00043 0.988556
1.00537 0.99817 0.988228
1.00527 0.99565 0.990882
1.00246 1.00013 0.996008
1.00369 1.00057 0.988251
1.0054 0.997991 0.988281
1.00269 1.00017 0.995944
1.00375 1.00076 0.987885
1.00289 1.00038 0.995817
1.00531 0.995413 0.991225
1.00519 0.994927 0.991933
1.00533 0.994916 0.991593
1.00534 0.99713 0.989531
1.00534 0.995404 0.991261
1.00522 0.994928 0.991909
1.00534 0.995415 0.991271
1.00532 0.997058 0.989683
1.00332 0.99964 0.989806
1.00532 0.99745 0.989192
1.00338 0.999757 0.989585
1.00209 0.999978 0.996296
1.00343 0.999982 0.989317
1.00212 1.00003 0.996251
1.0022 1.00005 0.996193
1.00528 0.994944 0.991873
1.00517 0.994924 0.991837
1.00532 0.994916 0.991422
1.00535 0.998251 0.988256
1.00528 0.994958 0.991759
1.00517 0.994947 0.99173
1.0035 1.00029 0.988884
1.00536 0.9984 0.988087
1.00528 0.994975 0.991659
1.00229 1.00016 0.996052
1.00358 1.00048 0.98855
1.00536 0.998495 0.98791
1.00252 1.00012 0.995996
1.00366 1.00063 0.988235
1.00281 1.00015 0.99591
1.00535 0.997896 0.988676
1.00531 0.995184 0.991528
1.0052 0.994927 0.991964
1.00328 0.999624 0.989911
1.00533 0.997168 0.989554
1.00534 0.995455 0.991248
1.00532 0.997116 0.989687
1.00334 0.999619 0.989799
1.00201 0.999958 0.996351
1.00339 0.99975 0.989584
1.00205 0.999981 0.996312
1.00207 1.00004 0.996279
1.00534 0.99813 0.988455
1.00528 0.994943 0.99183
1.00517 0.994925 0.991763
1.00357 1.00013 0.990662
1.00535 0.99828 0.988266
1.00528 0.994957 0.991758
1.00215 1.00016 0.996135
1.00348 1.00034 0.988884
1.00535 0.998434 0.9881
1.00235 1.00015 0.996037
1.00356 1.00053 0.988544
1.0026 1.0001 0.99598
1.00345 0.999642 0.9897
1.00534 0.997645 0.989007
1.00531 0.994937 0.991834
1.00192 0.999963 0.996415
1.0033 0.999592 0.989894
1.00533 0.997207 0.989578
1.00335 0.999594 0.989791
1.00198 0.99995 0.996375
1.00201 0.999991 0.996334
1.00366 0.999887 0.990854
1.00534 0.998135 0.988463
1.00528 0.994943 0.991787
1.00144 1.00018 0.996934
1.00339 1.00013 0.989229
1.00534 0.998305 0.988279
1.00219 1.00017 0.996111
1.00345 1.00039 0.988884
1.00241 1.00013 0.996021
1.00194 0.999821 0.993346
1.00347 0.999686 0.990411
1.00533 0.997409 0.989334
1.00194 0.999958 0.996416
1.00332 0.99957 0.989884
1.00198 0.999947 0.996389
1.00125 1.00005 0.993908
1.00353 0.999817 0.990189
1.00534 0.998145 0.98847
1.00171 1.00013 0.994972
1.00336 1.00012 0.989255
1.00222 1.00016 0.996088
1.00195 0.999968 0.996395
1.0033 0.999684 0.989804
1.00192 0.999944 0.996407
1.00168 0.999941 0.995144
1.00338 0.999787 0.989585
1.00207 1.00015 0.996185
1.00193 1.00001 0.996382
1.00198 1.00004 0.996297

TENSORS stress float
0.0030151 -0.000210784 0.000345373
-0.000210784 0.0016567 -6.73309e-05
0.000345373 -6.73309e-05 0.0016269
0.00913597 0.000244218 0.000442024
0.000244218 0.00569673 6.15569e-05
0.000442024 6.15569e-05 0.00572012
0.00257354 -0.000138177 0.000133563
-0.000138177 0.00135865 -2.50657e-05
0.000133563 -2.50657e-05 0.00131084
0.00266648 -0.000116269 0.000312567
-0.000116269 0.00142382 -3.67303e-05
0.000312567 -3.67303e-05 0.00140941
0.00292977 -0.000182685 0.000333566
-0.000182685 0.00159864 -5.7879e-05
0.000333566 -5.7879e-05 0.00157304
0.00315668 -0.000224362 0.000363566
-0.000224362 0.00174216 -7.24273e-05
0.000363566 -7.24273e-05 0.00171372
0.00240985 -0.000288964 6.73058e-05
-0.000288964 0.00103337 -1.7459e-05
6.73058e-05 -1.7459e-05 0.000850492
0.00939229 0.0002469 -7.73374e-06
0.0002469 0.00585626 -4.16271e-06
-7.73374e-06 -4.16271e-06 0.00588507
0.00778952 0.000315626 0.000210815
0.000315626 0.00485476 2.62043e-05
0.000210815 2.62043e-05 0.0048149
0.00836918 0.000158012 0.000158406
0.000158012 0.00517186 1.36358e-05
0.000158406 1.36358e-05 0.00514762
0.00275341 0.000287149 0.000399159
0.000287149 0.00151672 6.95833e-05
0.000399159 6.95833e-05 0.00148546
0.000183924 0.000367204 2.64074e-05
0.000367204 -0.000356217 2.7156e-05
2.64074e-05 2.7156e-05 -0.000600437
0.00214512 -2.26851e-05 0.000296195
-2.26851e-05 0.00107804 6.50033e-06
0.000296195 6.50033e-06 0.00108771
0.00189905 1.41094e-05 8.71277e-05
1.41094e-05 0.000945145 4.21795e-06
8.71277e-05 4.21795e-06 0.000889751
0.0021955 -0.000132096 -8.90747e-05
-0.000132096 0.00112685 1.76652e-05
-8.90747e-05 1.76652e-05 0.00104987
0.00229408 -0.000111092 9.97225e-05
-0.000111092 0.00119957 -7.08956e-06
9.97225e-05 -7.08956e-06 0.00115846
0.00267898 -0.000133273 0.00014657
-0.000133273 0.00142094 -2.88963e-05
0.00014657 -2.88963e-05 0.00137202
0.00250769 -0.000136721 0.000119766
-0.000136721 0.00132297 -1.84459e-05
0.000119766 -1.84459e-05 0.00127659
0.00253953 -0.000324136 -5.39415e-05
-0.000324136 0.00111913 1.01291e-05
-5.39415e-05 1.01291e-05 0.000948133
0.0069236 -0.000183223 0.000396546
-0.000183223 0.00428959 -2.27535e-05
0.000396546 -2.27535e-05 0.00432311
0.00250161 -8.88336e-05 0.000302625
-8.88336e-05 0.00131748 -2.78185e-05
0.000302625 -2.78185e-05 0.00130766
0.00281962 -0.00014902 0.000323623
-0.00014902 0.00152386 -4.70333e-05
0.000323623 -4.70333e-05 0.00150431
0.00219321 -0.000207337 7.99368e-05
-0.000207337 0.000937401 -1.31834e-05
7.99368e-05 -1.31834e-05 0.000810895
0.00238322 -0.000271419 7.40842e-05
-0.000271419 0.00103519 -1.69757e-05
7.40842e-05 -1.69757e-05 0.000873599
0.00332318 -0.000212872 0.000381986
-0.000212872 0.00183469 -7.20288e-05
0.000381986 -7.20288e-05 0.00181221
0.00246559 -0.000312748 6.57908e-05
-0.000312748 0.0010592 -1.90813e-05
6.57908e-05 -1.90813e-05 0.000847902
0.00234664 -0.000571268 1.34431e-05
-0.000571268 0.000606393 -5.92996e-06
1.34431e-05 -5.92996e-06 0.000266814
0.00960599 0.000249539 -0.000489645
0.000249539 0.00598158 -5.70624e-05
-0.000489645 -5.70624e-05 0.00601772
0.00523261 0.000231711 -0.000182062
0.000231711 0.00314041 -2.4093e-05
-0.000182062 -2.4093e-05 0.00311215
0.00565706 0.000192699 -0.000196572
0.000192699 0.00340208 -2.70407e-05
-0.000196572 -2.70407e-05 0.00337789
0.00992439 0.000196117 -6.92256e-06
0.000196117 0.00620223 -3.52159e-06
-6.92256e-06 -3.52159e-06 0.00623318
0.000250259 0.000353696 -3.22125e-07
0.000353696 -0.0003038 -1.07655e-06
-3.22125e-07 -1.07655e-06 -0.000546262
0.00229455 8.98162e-05 0.000311243
8.98162e-05 0.00117154 3.38944e-05
0.000311243 3.38944e-05 0.00116158
0.00249386 0.000186028 0.00033731
0.000186028 0.00132156 5.54474e-05
0.00033731 5.54474e-05 0.00129695
0.00317551 0.000317492 0.000192025
0.000317492 0.00155933 3.14508e-05
0.000192025 3.14508e-05 0.00142851
0.00926608 -0.000127468 9.41397e-05
-0.000127468 0.00580347 5.26875e-06
9.41397e-05 5.26875e-06 0.00576498
0.00347621 0.00044025 0.000214281
0.00044025 0.00179829 4.36749e-05
0.000214281 4.36749e-05 0.00162277
3.08838e-05 0.000324538 2.22549e-05
0.000324538 -0.000423478 3.76974e-05
2.22549e-05 3.76974e-05 -0.000675561
0.00179958 0.000668182 2.35482e-05
0.000668182 0.000337812 5.83579e-06
2.35482e-05 5.83579e-06 -0.000109105
0.00781207 -2.13575e-05 0.000330809
-2.13575e-05 0.00493486 4.57584e-05
0.000330809 4.57584e-05 0.00494097
0.00685109 9.8324e-05 2.5223e-06
9.8324e-05 0.00422455 -2.3685e-06
2.5223e-06 -2.3685e-06 0.00426834
0.00454708 0.000115155 -0.000149524
0.000115155 0.00269648 -8.00386e-06
-0.000149524 -8.00386e-06 0.00268775
0.00672899 5.86013e-05 0.000385123
5.86013e-05 0.00414543 5.80039e-06
0.000385123 5.80039e-06 0.00419092
0.00177245 9.31451e-05 8.86062e-05
9.31451e-05 0.000867554 7.51779e-06
8.86062e-05 7.51779e-06 0.00081533
0.000353176 2.23242e-05 1.17518e-05
2.23242e-05 -0.000241458 3.04932e-06
1.17518e-05 3.04932e-06 -0.000342904
0.00705706 0.000262792 0.000222903
0.000262792 0.00440026 2.40572e-05
0.000222903 2.40572e-05 0.00437252
0.00300152 0.00012338 0.000170167
0.00012338 0.00147207 1.35615e-05
0.000170167 1.35615e-05 0.00140272
0.00190915 -0.000111123 -0.000102757
-0.000111123 0.00096812 1.475e-05
-0.000102757 1.475e-05 0.000899834
0.00207254 -0.000148213 -0.000100509
-0.000148213 0.00106593 1.95586e-05
-0.000100509 1.95586e-05 0.00098674
0.00228198 -9.98822e-05 -7.73377e-05
-9.98822e-05 0.00116305 1.54207e-05
-7.73377e-05 1.54207e-05 0.00108931
0.0026263 -0.000324008 -0.000181695
-0.000324008 0.00116206 3.74217e-05
-0.000181695 3.74217e-05 0.0010091
0.00443228 -5.43321e-05 -0.000151082
-5.43321e-05 0.00262679 -2.09819e-07
-0.000151082 -2.09819e-07 0.00262016
0.00219905 -8.87859e-05 0.000102085
-8.87859e-05 0.00113606 -5.58841e-06
0.000102085 -5.58841e-06 0.00110088
0.00297326 -0.000116212 0.000155488
-0.000116212 0.00160272 -2.9118e-05
0.000155488 -2.9118e-05 0.0015539
0.00241462 -0.00012432 0.000108195
-0.00012432 0.00127034 -1.18817e-05
0.000108195 -1.18817e-05 0.00122644
0.00230096 -0.0001881 -4.3348e-05
-0.0001881 0.000992569 4.24334e-06
-4.3348e-05 4.24334e-06 0.000882651
0.00259671 -0.000362681 -6.20712e-05
-0.000362681 0.00114751 1.18168e-05
-6.20712e-05 1.18168e-05 0.000948398
0.00247873 -0.000283619 -4.8527e-05
-0.000283619 0.00109239 7.70171e-06
-4.8527e-05 7.70171e-06 0.000944496
0.00248174 -0.000582156 -1.00282e-05
-0.000582156 0.000694273 2.6876e-06
-1.00282e-05 2.6876e-06 0.000356013
0.00673682 -3.02803e-05 0.000383117
-3.02803e-05 0.00414675 -6.96152e-06
0.000383117 -6.96152e-06 0.00419354
0.00242087 -6.19408e-05 0.000296311
-6.19408e-05 0.0012667 -2.00396e-05
0.000296311 -2.00396e-05 0.00126299
0.00247227 -4.41195e-05 6.1709e-05
-4.41195e-05 0.00117367 -1.55809e-06
6.1709e-05 -1.55809e-06 0.001095
0.0021393 -0.000160712 7.18562e-05
-0.000160712 0.000915223 -8.97608e-06
7.18562e-05 -8.97608e-06 0.000807681
0.00230754 -0.000242228 7.88078e-05
-0.000242228 0.000997489 -1.56165e-05
7.88078e-05 -1.56165e-05 0.000853798
0.0022293 -0.000363932 1.72394e-06
-0.000363932 0.000441649 -1.5108e-06
1.72394e-06 -1.5108e-06 0.000235073
0.00235426 -0.000512686 8.36924e-06
-0.000512686 0.000568411 -2.97235e-06
8.36924e-06 -2.97235e-06 0.00028972
0.00328865 -0.000191833 0.000389727
-0.000191833 0.0018116 -6.77475e-05
0.000389727 -6.77475e-05 0.00178884
0.00273786 -0.000291258 5.53918e-05
-0.000291258 0.00127788 -1.74729e-05
5.53918e-05 -1.74729e-05 0.00105331
0.00241413 -0.00065936 1.31688e-05
-0.00065936 0.000686042 -5.83183e-06
1.31688e-05 -5.83183e-06 0.000277439
0.00230964 -0.000755873 -2.61341e-06
-0.000755873 0.000314856 2.99612e-06
-2.61341e-06 2.99612e-06 -4.66174e-05
0.00834251 0.000372225 -0.000467003
0.000372225 0.00520729 -6.35982e-05
-0.000467003 -6.35982e-05 0.0052213
0.00986074 0.000159794 -0.000458096
0.000159794 0.00616405 -5.00211e-05
-0.000458096 -5.00211e-05 0.00619684
0.00898412 0.000298109 -0.000471893
0.000298109 0.00558872 -6.00404e-05
-0.000471893 -6.00404e-05 0.00561941
0.000255598 0.000344271 -2.56089e-05
0.000344271 -0.000289195 -2.72146e-05
-2.56089e-05 -2.72146e-05 -0.000532737
0.00775093 0.000297534 -2.5067e-06
0.000297534 0.00481713 -3.10044e-06
-2.5067e-06 -3.10044e-06 0.00483936
0.00842971 0.000350817 -7.22568e-06
0.000350817 0.00524991 -4.45849e-06
-7.22568e-06 -4.45849e-06 0.00526568
0.000380471 0.000220886 -2.33376e-07
0.000220886 -0.000297273 -4.27414e-07
-2.33376e-07 -4.27414e-07 -0.000476936
0.00583513 3.67285e-05 -0.000200478
3.67285e-05 0.00355844 -1.78992e-05
-0.000200478 -1.78992e-05 0.00352515
0.000368738 0.00031841 1.12092e-06
0.00031841 -0.000262996 -3.58879e-07
1.12092e-06 -3.58879e-07 -0.000487335
0.00194145 0.000374151 0.000103022
0.000374151 0.000844881 8.94203e-06
0.000103022 8.94203e-06 0.000631681
0.00168037 0.000683863 -6.47465e-07
0.000683863 0.000231126 3.04355e-07
-6.47465e-07 3.04355e-07 -0.000226358
0.00884077 8.84186e-06 0.000378111
8.84186e-06 0.00558196 5.15584e-05
0.000378111 5.15584e-05 0.00559089
0.000549374 0.000274611 3.31646e-05
0.000274611 -5.31538e-05 1.96703e-05
3.31646e-05 1.96703e-05 -0.00019504
0.000514999 0.000178383 1.48552e-05
0.000178383 -0.000210024 1.25937e-05
1.48552e-05 1.25937e-05 -0.00036731
0.000497059 0.000260564 1.83281e-05
0.000260564 -0.000214234 2.25436e-05
1.83281e-05 2.25436e-05 -0.000412086
0.00179161 0.000495933 1.13837e-05
0.000495933 0.000124458 4.52807e-06
1.13837e-05 4.52807e-06 -0.000163032
0.00334536 0.000405445 0.000227721
0.000405445 0.00179795 4.44823e-05
0.000227721 4.44823e-05 0.00163176
0.0017253 0.000621433 2.2971e-05
0.000621433 0.000186956 6.57273e-06
2.2971e-05 6.57273e-06 -0.000206987
0.00161532 0.000664708 2.71683e-05
0.000664708 0.000334203 2.88285e-06
2.71683e-05 2.88285e-06 -0.000173652
0.00215026 0.000899757 -7.84251e-06
0.000899757 0.000319256 -8.74005e-06
-7.84251e-06 -8.74005e-06 -0.00019456
0.00702994 -0.000172791 0.000214194
-0.000172791 0.00445775 2.9915e-05
0.000214194 2.9915e-05 0.0044321
0.00753221 -0.000126484 1.11381e-05
-0.000126484 0.00476407 5.7036e-06
1.11381e-05 5.7036e-06 0.00475135
0.00731446 0.000100585 -0.000405992
0.000100585 0.00451215 -2.49424e-05
-0.000405992 -2.49424e-05 0.00455347
0.00694231 9.13022e-05 -0.000396867
9.13022e-05 0.00427957 -1.54039e-05
-0.000396867 -1.54039e-05 0.00432479
0.00680916 8.43306e-05 -4.76349e-07
8.43306e-05 0.00420181 -4.80624e-06
-4.76349e-07 -4.80624e-06 0.00424542
0.00441233 5.92973e-05 -0.000159826
5.92973e-05 0.00260552 -9.95456e-06
-0.000159826 -9.95456e-06 0.00260348
0.0014801 5.16857e-05 7.61649e-05
5.16857e-05 0.000502176 2.68107e-06
7.61649e-05 2.68107e-06 0.000424259
0.00477742 0.000180141 -0.000154036
0.000180141 0.00285362 -1.07582e-05
-0.000154036 -1.07582e-05 0.00283488
0.00163191 0.000133965 7.7391e-05
0.000133965 0.000563991 4.83099e-06
7.7391e-05 4.83099e-06 0.000464722
0.00676217 9.94007e-05 0.000388345
9.94007e-05 0.00417741 7.01884e-06
0.000388345 7.01884e-06 0.00421726
0.000192815 1.12289e-05 1.41505e-05
1.12289e-05 -0.000336421 1.79677e-06
1.41505e-05 1.79677e-06 -0.000432985
0.00290947 7.12824e-05 0.00016826
7.12824e-05 0.00143136 9.52979e-06
0.00016826 9.52979e-06 0.00137395
0.00157352 0.000116024 6.23498e-06
0.000116024 -6.30579e-05 1.42041e-06
6.23498e-06 1.42041e-06 -0.000185931
0.00291373 0.000186162 0.000175237
0.000186162 0.00139489 1.7443e-05
0.000175237 1.7443e-05 0.0013075
0.00163548 0.000246024 4.58226e-06
0.000246024 -4.87584e-05 1.56851e-06
4.58226e-06 1.56851e-06 -0.000208289
0.00215285 2.72021e-05 -0.000295717
2.72021e-05 0.00107774 6.19708e-06
-0.000295717 6.19708e-06 0.0010907
0.00186571 -4.13161e-05 -8.88686e-05
-4.13161e-05 0.000928815 5.91802e-06
-8.88686e-05 5.91802e-06 0.000870916
0.00252653 -7.58418e-05 -7.4396e-05
-7.58418e-05 0.00131398 1.45273e-05
-7.4396e-05 1.45273e-05 0.00123943
0.00197853 -0.000131415 -0.000106326
-0.000131415 0.00101102 1.80906e-05
-0.000106326 1.80906e-05 0.00093737
0.00243289 -0.000167513 -0.000160953
-0.000167513 0.00106476 1.7448e-05
-0.000160953 1.7448e-05 0.000971388
0.00260022 -0.00026831 -0.000173849
-0.00026831 0.00115435 3.0635e-05
-0.000173849 3.0635e-05 0.0010258
0.00279961 -0.000396022 -0.000192128
-0.000396022 0.00128713 4.18874e-05
-0.000192128 4.18874e-05 0.00109896
0.0026178 -0.00059569 -3.04506e-05
-0.00059569 0.000781525 9.96226e-06
-3.04506e-05 9.96226e-06 0.000443572
0.00681508 -0.00013063 2.56418e-06
-0.00013063 0.00421515 -2.24214e-06
2.56418e-06 -2.24214e-06 0.00425247
0.00210625 -5.22798e-07 0.000108344
-5.22798e-07 0.0010621 -6.60297e-06
0.000108344 -6.60297e-06 0.00104037
0.00124129 -3.194e-05 -7.90529e-05
-3.194e-05 0.000340934 3.68477e-06
-7.90529e-05 3.68477e-06 0.000265388
0.00222522 -0.000127836 -4.48096e-05
-0.000127836 0.000957894 4.74e-06
-4.48096e-05 4.74e-06 0.000865723
0.00653716 -0.000194118 0.000380477
-0.000194118 0.00396185 -4.40301e-05
0.000380477 -4.40301e-05 0.00396456
0.00308746 -0.000365268 -5.97116e-05
-0.000365268 0.00152293 8.10051e-06
-5.97116e-05 8.10051e-06 0.00131836
0.00239871 -0.000237198 -4.48866e-05
-0.000237198 0.00104633 5.5869e-06
-4.48866e-05 5.5869e-06 0.000918337
0.00230092 -0.000368296 -8.43358e-06
-0.000368296 0.000484377 1.44464e-06
-8.43358e-06 1.44464e-06 0.000285595
0.00265747 -0.000691232 -7.34488e-06
-0.000691232 0.000859322 2.3509e-06
-7.34488e-06 2.3509e-06 0.000444631
0.00236552 -0.000513117 -1.13091e-05
-0.000513117 0.000576856 3.58238e-06
-1.13091e-05 3.58238e-06 0.000293429
0.00236112 -0.00076026 1.12276e-06
-0.00076026 0.000355532 -1.31408e-07
1.12276e-06 -1.31408e-07 -7.44636e-06
0.000226345 -3.35164e-06 1.51429e-05
-3.35164e-06 -0.000325169 6.21857e-08
1.51429e-05 6.21857e-08 -0.000419141
0.00209068 -4.89965e-05 6.39229e-05
-4.89965e-05 0.000891285 -3.47157e-06
6.39229e-05 -3.47157e-06 0.000806458
0.00212323 -0.000131746 1.42544e-06
-0.000131746 0.000338447 1.15421e-07
1.42544e-06 1.15421e-07 0.000229321
0.00221775 -0.000290681 -6.45949e-08
-0.000290681 0.000419524 -3.98099e-07
-6.45949e-08 -3.98099e-07 0.000259436
0.00229224 -0.000441644 4.03144e-06
-0.000441644 0.000501071 -1.78175e-06
4.03144e-06 -1.78175e-06 0.000269229
0.002347 -0.000491718 2.9974e-06
-0.000491718 0.000171602 -1.61937e-06
2.9974e-06 -1.61937e-06 -2.64375e-06
0.00953128 -0.000111025 0.000413951
-0.000111025 0.00596691 -4.60292e-05
0.000413951 -4.60292e-05 0.00599156
0.00221467 -0.000673878 8.11402e-07
-0.000673878 0.000171403 1.6389e-06
8.11402e-07 1.6389e-06 -0.000121451
7.82612e-05 -0.000279474 1.89534e-05
-0.000279474 -0.000416521 -3.17401e-05
1.89534e-05 -3.17401e-05 -0.000638517
0.00147266 -0.000721266 -3.46085e-06
-0.000721266 9.97586e-05 -2.41898e-06
-3.46085e-06 -2.41898e-06 -0.0004029
0.00245923 -0.000840433 -7.25214e-06
-0.000840433 0.000499558 4.93173e-06
-7.25214e-06 4.93173e-06 6.2539e-05
0.00245712 -0.000839028 -8.61547e-07
-0.000839028 0.000323269 -7.14844e-07
-8.61547e-07 -7.14844e-07 -6.34321e-06
0.000321862 -0.000271846 2.34733e-05
-0.000271846 -0.000210746 -2.71008e-05
2.34733e-05 -2.71008e-05 -0.000402485
0.00167747 -0.000327976 3.73694e-06
-0.000327976 0.000729631 3.41169e-06
3.73694e-06 3.41169e-06 0.000369738
0.00797327 0.000328245 -0.000456559
0.000328245 0.00496644 -5.53211e-05
-0.000456559 -5.53211e-05 0.00498626
0.00867007 0.000356147 -0.000471596
0.000356147 0.00540468 -6.47326e-05
-0.000471596 -6.47326e-05 0.00542507
0.000346595 0.000222285 -1.69849e-05
0.000222285 -0.000319607 -1.59927e-05
-1.69849e-05 -1.59927e-05 -0.000501554
0.00922861 6.61143e-05 -0.000398137
6.61143e-05 0.00578679 -4.24024e-05
-0.000398137 -4.24024e-05 0.00581067
0.000167609 0.000304606 -2.5318e-05
0.000304606 -0.000325995 -3.23143e-05
-2.5318e-05 -3.23143e-05 -0.00055668
0.000278974 0.000310453 -1.97981e-05
0.000310453 -0.000320569 -2.4851e-05
-1.97981e-05 -2.4851e-05 -0.000546726
0.00149161 0.000688861 -2.63758e-05
0.000688861 8.20953e-05 -5.57943e-06
-2.63758e-05 -5.57943e-06 -0.000384011
0.00864491 1.96256e-05 -1.47604e-05
1.96256e-05 0.0054468 9.04981e-08
-1.47604e-05 9.04981e-08 0.00546048
0.000835211 0.000239907 7.88077e-07
0.000239907 0.000123757 1.13558e-06
7.88077e-07 1.13558e-06 -1.36777e-05
0.00181526 0.000230489 8.36534e-05
0.000230489 0.000652079 8.66366e-06
8.36534e-05 8.66366e-06 0.00051484
0.00193004 0.00032706 9.08626e-05
0.00032706 0.000743737 1.16055e-05
9.08626e-05 1.16055e-05 0.000564487
0.0017347 0.000492374 -3.3624e-07
0.000492374 9.13748e-05 -2.2987e-07
-3.3624e-07 -2.2987e-07 -0.000197065
0.000123081 0.000284823 2.44194e-06
0.000284823 -0.000339046 -1.04543e-06
2.44194e-06 -1.04543e-06 -0.000554388
0.00177481 0.000623562 3.28679e-07
0.000623562 0.000223612 -1.62118e-07
3.28679e-07 -1.62118e-07 -0.000171712
0.00127942 0.000639917 4.03983e-07
0.000639917 9.79677e-05 -1.79146e-06
4.03983e-07 -1.79146e-06 -0.000403536
0.00227413 0.000915366 3.06965e-07
0.000915366 0.000400439 7.9147e-07
3.06965e-07 7.9147e-07 -0.00011131
0.000501473 0.000252552 1.8342e-05
0.000252552 -7.99683e-05 2.93203e-05
1.8342e-05 2.93203e-05 -0.000272298
0.000692011 0.000188515 2.5577e-05
0.000188515 8.34797e-05 2.09523e-05
2.5577e-05 2.09523e-05 -5.44653e-05
-0.00121614 0.000401753 1.20338e-05
0.000401753 -0.00104976 -8.56259e-06
1.20338e-05 -8.56259e-06 -0.00141626
0.00180959 0.000426014 8.91624e-06
0.000426014 0.000101765 3.13349e-06
8.91624e-06 3.13349e-06 -0.000139768
0.00177361 0.000558433 1.7153e-05
0.000558433 0.000144372 5.85855e-06
1.7153e-05 5.85855e-06 -0.000192523
0.00232768 0.000696472 2.07981e-06
0.000696472 0.000221668 -1.23807e-06
2.07981e-06 -1.23807e-06 -6.76267e-05
0.000991252 0.000535013 1.92875e-05
0.000535013 0.000112481 -5.44479e-07
1.92875e-05 -5.44479e-07 -0.000362757
0.0026571 0.000915133 -5.64943e-06
0.000915133 0.000616901 -6.08896e-06
-5.64943e-06 -6.08896e-06 0.000167105
0.00273528 0.00115163 -1.34322e-05
0.00115163 0.00087751 -1.20185e-05
-1.34322e-05 -1.20185e-05 0.000177835
0.00207652 0.000906463 -1.15962e-05
0.000906463 0.000134388 -7.05594e-06
-1.15962e-05 -7.05594e-06 -0.000336536
0.00585133 -0.000155986 0.000166034
-0.000155986 0.00366198 1.9854e-05
0.000166034 1.9854e-05 0.00364255
0.00660885 -0.000171151 4.29398e-06
-0.000171151 0.00416136 2.79118e-06
4.29398e-06 2.79118e-06 0.00413866
0.00737757 -0.000160184 -0.00021911
-0.000160184 0.00464589 -1.84707e-05
-0.00021911 -1.84707e-05 0.00463075
0.000858529 -0.000294117 2.88836e-05
-0.000294117 0.000185706 -2.5814e-05
2.88836e-05 -2.5814e-05 1.66962e-05
0.00873192 -3.48376e-05 0.000350012
-3.48376e-05 0.0054949 -4.1869e-05
0.000350012 -4.1869e-05 0.0055062
0.0076072 0.000260348 -0.000438368
0.000260348 0.00472136 -4.36182e-05
-0.000438368 -4.36182e-05 0.00475021
0.0070476 0.000125517 -0.000398561
0.000125517 0.00434623 -2.16038e-05
-0.000398561 -2.16038e-05 0.00438792
0.000275845 0.000133611 -1.50884e-05
0.000133611 -0.000336891 -7.66089e-06
-1.50884e-05 -7.66089e-06 -0.000461907
0.000184406 5.31806e-05 -1.42325e-05
5.31806e-05 -0.000354784 -3.89462e-06
-1.42325e-05 -3.89462e-06 -0.000457898
0.00675585 3.87945e-06 -0.000383128
3.87945e-06 0.00415838 -4.7699e-06
-0.000383128 -4.7699e-06 0.00420515
0.0067015 -7.79895e-06 7.064e-08
-7.79895e-06 0.00412367 -1.45803e-06
7.064e-08 -1.45803e-06 0.0041709
0.0001724 5.08794e-06 -6.00468e-08
5.08794e-06 -0.000353696 2.40346e-07
-6.00468e-08 2.40346e-07 -0.000448894
0.00153058 6.90442e-05 7.7018e-05
6.90442e-05 0.000515711 4.11683e-06
7.7018e-05 4.11683e-06 0.000431511
0.00157333 0.000118674 1.0348e-07
0.000118674 -5.0461e-05 -3.49289e-08
1.0348e-07 -3.49289e-08 -0.000174223
0.000367374 0.000143239 -9.14985e-07
0.000143239 -0.000292034 -3.34329e-07
-9.14985e-07 -3.34329e-07 -0.000432234
0.00165007 0.000246912 -1.61716e-07
0.000246912 -1.55316e-05 1.27492e-08
-1.61716e-07 1.27492e-08 -0.000176154
0.000170143 -3.2415e-05 1.49852e-05
-3.2415e-05 -0.000356727 -1.02426e-07
1.49852e-05 -1.02426e-07 -0.00044903
0.00153546 5.4193e-05 5.16123e-06
5.4193e-05 -7.35939e-05 9.86082e-07
5.16123e-06 9.86082e-07 -0.000189059
0.00159157 0.000181681 5.32119e-06
0.000181681 -6.30517e-05 1.73465e-06
5.32119e-06 1.73465e-06 -0.000200327
0.00238306 0.000179899 3.58238e-06
0.000179899 0.00010585 8.28725e-07
3.58238e-06 8.28725e-07 5.98861e-05
0.00173288 0.000336604 6.78398e-06
0.000336604 2.54404e-05 2.03352e-06
6.78398e-06 2.03352e-06 -0.000171137
0.0023985 0.000378427 4.31514e-06
0.000378427 0.000153204 1.19532e-06
4.31514e-06 1.19532e-06 5.17328e-05
0.0067311 -9.41719e-05 -0.000386583
-9.41719e-05 0.00415424 7.31029e-06
-0.000386583 7.31029e-06 0.00419519
0.00176874 -0.000169193 -8.84024e-05
-0.000169193 0.000891943 1.24765e-05
-8.84024e-05 1.24765e-05 0.000824313
-8.20705e-05 -1.85548e-05 -8.69609e-06
-1.85548e-05 -0.000534244 1.22991e-06
-8.69609e-06 1.22991e-06 -0.000639683
0.00233358 -0.000118564 -0.000155796
-0.000118564 0.00101883 1.24804e-05
-0.000155796 1.24804e-05 0.000940712
0.00957815 7.17812e-05 -0.000113604
7.17812e-05 0.00594236 5.82377e-06
-0.000113604 5.82377e-06 0.00591127
0.00340525 -0.0004325 -0.00019919
-0.0004325 0.00175197 4.46592e-05
-0.00019919 4.46592e-05 0.00155951
0.00252208 -0.000217476 -0.000167218
-0.000217476 0.00111052 2.36234e-05
-0.000167218 2.36234e-05 0.00100059
0.0023639 -0.000371886 -2.15236e-05
-0.000371886 0.000521037 4.23293e-06
-2.15236e-05 4.23293e-06 0.000330302
0.00235088 -0.000511778 -2.69755e-05
-0.000511778 0.000565847 9.15365e-06
-2.69755e-05 9.15365e-06 0.000278176
0.00276445 -0.000703686 -3.50362e-05
-0.000703686 0.000941245 1.17888e-05
-3.50362e-05 1.17888e-05 0.000526541
0.00241916 -0.000762534 2.4816e-06
-0.000762534 0.000407046 -2.61703e-06
2.4816e-06 -2.61703e-06 4.3399e-05
0.00018207 -5.4278e-06 8.47868e-08
-5.4278e-06 -0.000350982 4.26164e-07
8.47868e-08 4.26164e-07 -0.000445541
0.00218032 -0.000120119 -4.34867e-05
-0.000120119 0.000958557 1.32446e-06
-4.34867e-05 1.32446e-06 0.000876649
0.00194359 -0.000129281 -1.32424e-05
-0.000129281 0.000210853 7.73398e-07
-1.32424e-05 7.73398e-07 0.000101344
0.00221418 -0.000287694 -1.28361e-05
-0.000287694 0.000413092 2.26263e-06
-1.28361e-05 2.26263e-06 0.000247853
0.00966667 -0.000106748 5.02709e-06
-0.000106748 0.00604943 -1.38465e-06
5.02709e-06 -1.38465e-06 0.00607332
0.00182294 -0.000305377 1.34144e-05
-0.000305377 0.000747944 6.83352e-07
1.34144e-05 6.83352e-07 0.00051886
0.00212838 -0.000722158 6.58699e-06
-0.000722158 0.000550561 -2.84444e-06
6.58699e-06 -2.84444e-06 7.15279e-05
0.00236384 -0.000448183 -1.1516e-05
-0.000448183 0.000548939 3.2575e-06
-1.1516e-05 3.2575e-06 0.000315561
0.00236355 -0.000495586 3.16449e-06
-0.000495586 0.000177546 -1.00001e-06
3.16449e-06 -1.00001e-06 1.62475e-05
0.00243811 -0.000835961 1.97048e-06
-0.000835961 0.000489414 -3.00763e-07
1.97048e-06 -3.00763e-07 5.52606e-05
0.00225971 -0.000673145 2.99645e-07
-0.000673145 0.000205805 2.37075e-07
2.99645e-07 2.37075e-07 -9.09989e-05
0.00239776 -0.000831812 -5.33136e-08
-0.000831812 0.000285932 1.06053e-06
-5.33136e-08 1.06053e-06 -4.2404e-05
0.000287385 -0.000296029 1.44694e-06
-0.000296029 -0.000237048 -3.83272e-07
1.44694e-06 -3.83272e-07 -0.00042933
0.000725186 -0.000354934 -1.39216e-07
-0.000354934 0.000155468 1.76977e-07
-1.39216e-07 1.76977e-07 -0.000230225
0.00152339 -6.12608e-05 4.53502e-06
-6.12608e-05 -6.31463e-05 -1.33786e-07
4.53502e-06 -1.33786e-07 -0.000180743
0.00230584 -0.000210321 2.26995e-09
-0.000210321 0.000463957 -1.37765e-07
2.26995e-09 -1.37765e-07 0.000337508
0.00221996 -0.000190215 3.40135e-06
-0.000190215 2.65394e-07 -8.28687e-07
3.40135e-06 -8.28687e-07 -6.82299e-05
0.00224764 -0.000399001 1.18091e-06
-0.000399001 4.43424e-05 -7.41274e-07
1.18091e-06 -7.41274e-07 -6.45422e-05
0.00216466 -0.000593264 3.5346e-07
-0.000593264 7.42944e-05 -4.9104e-07
3.5346e-07 -4.9104e-07 -0.000152132
0.0024199 -0.00051174 5.29233e-06
-0.00051174 0.000145807 -1.4784e-06
5.29233e-06 -1.4784e-06 4.47041e-05
0.000182305 -0.000263893 1.7651e-05
-0.000263893 -0.000325426 -3.12307e-05
1.7651e-05 -3.12307e-05 -0.00053761
0.0025186 -0.000754457 1.24378e-06
-0.000754457 0.000284719 -2.02336e-06
1.24378e-06 -2.02336e-06 4.39278e-05
0.0014436 -0.000652948 1.21574e-06
-0.000652948 0.00015043 -5.36228e-06
1.21574e-06 -5.36228e-06 -0.000350996
0.00230692 -0.000947727 1.48737e-06
-0.000947727 0.000440129 2.65708e-06
1.48737e-06 2.65708e-06 -9.93591e-05
0.00262749 -0.000912578 -2.92064e-06
-0.000912578 0.000512099 -2.50404e-07
-2.92064e-06 -2.50404e-07 9.55648e-05
0.00249604 -0.000865394 2.42832e-06
-0.000865394 0.000265474 -1.74468e-06
2.42832e-06 -1.74468e-06 -4.50274e-06
0.000974742 -0.000377579 8.75244e-06
-0.000377579 0.000227317 2.94579e-06
8.75244e-06 2.94579e-06 -0.000196864
0.00143642 -0.000268637 7.57601e-07
-0.000268637 0.000714019 -4.9545e-06
7.57601e-07 -4.9545e-06 0.00038223
0.00154587 -0.000536788 6.75581e-06
-0.000536788 0.00060504 8.04212e-06
6.75581e-06 8.04212e-06 9.35237e-05
0.000362961 0.000187474 -1.58616e-05
0.000187474 -0.000310621 -1.20084e-05
-1.58616e-05 -1.20084e-05 -0.000473377
0.0081344 -2.97423e-05 -0.000318409
-2.97423e-05 0.00511339 -3.05564e-05
-0.000318409 -3.05564e-05 0.00512513
0.00029018 0.000181319 -2.12165e-05
0.000181319 -0.000202337 -2.10585e-05
-2.12165e-05 -2.10585e-05 -0.000345915
0.000321914 0.000264994 -1.85392e-05
0.000264994 -0.000322404 -2.06841e-05
-1.85392e-05 -2.06841e-05 -0.000525609
0.00167482 0.000489395 -1.31052e-05
0.000489395 5.47828e-05 -4.72222e-06
-1.31052e-05 -4.72222e-06 -0.000234772
0.000366549 0.000278079 -2.14282e-05
0.000278079 -0.000196149 -2.99125e-05
-2.14282e-05 -2.99125e-05 -0.000405259
0.00120901 0.000645899 -2.39136e-05
0.000645899 1.75831e-05 -4.54673e-06
-2.39136e-05 -4.54673e-06 -0.000480664
0.00176485 0.00061864 -2.47719e-05
0.00061864 0.000224425 -6.96511e-06
-2.47719e-05 -6.96511e-06 -0.000170651
0.00233561 0.000928954 7.17818e-07
0.000928954 0.000429645 6.91289e-06
7.17818e-07 6.91289e-06 -8.04553e-05
0.000277238 0.000268938 -6.29813e-06
0.000268938 -0.000227057 5.69178e-07
-6.29813e-06 5.69178e-07 -0.000410121
0.000365224 0.000152527 -1.60026e-06
0.000152527 -0.000114358 1.25464e-06
-1.60026e-06 1.25464e-06 -0.000249345
0.000892617 0.000413135 5.61169e-07
0.000413135 0.000238673 4.26387e-08
5.61169e-07 4.26387e-08 -7.12019e-05
0.00174343 0.000421153 -4.66048e-07
0.000421153 6.73297e-05 -3.55479e-07
-4.66048e-07 -3.55479e-07 -0.000174664
0.00175441 0.000553423 -3.215e-07
0.000553423 0.000143362 -2.30542e-07
-3.215e-07 -2.30542e-07 -0.000193351
0.00240304 0.000702644 -1.01612e-06
0.000702644 0.000274163 -3.2684e-07
-1.01612e-06 -3.2684e-07 -1.61349e-05
0.000868265 0.000485771 6.5878e-06
0.000485771 2.02439e-06 -1.87649e-06
6.5878e-06 -1.87649e-06 -0.000443688
0.00258346 0.000903305 -2.01574e-06
0.000903305 0.000562516 -1.02554e-06
-2.01574e-06 -1.02554e-06 0.000115658
0.00244889 0.0011214 -2.73272e-06
0.0011214 0.000658719 -1.62246e-06
-2.73272e-06 -1.62246e-06 -3.07373e-05
0.00202284 0.00089847 -8.50214e-08
0.00089847 7.96634e-05 5.03204e-06
-8.50214e-08 5.03204e-06 -0.000382519
0.000864507 0.000116051 1.37048e-05
0.000116051 0.000258859 2.02329e-05
1.37048e-05 2.02329e-05 0.000135661
-8.14176e-05 0.000534814 2.16668e-06
0.000534814 -0.000414311 -5.18387e-06
2.16668e-06 -5.18387e-06 -0.000799239
0.000983289 0.000266577 -1.45944e-06
0.000266577 0.000364302 1.38289e-07
-1.45944e-06 1.38289e-07 3.66312e-05
-0.00117398 0.000243713 -8.27496e-06
0.000243713 -0.00104321 5.59769e-07
-8.27496e-06 5.59769e-07 -0.00141089
0.00236908 0.000606109 2.49191e-06
0.000606109 0.000203398 -2.72151e-07
2.49191e-06 -2.72151e-07 -1.55314e-05
0.00244444 0.000798426 -1.04051e-06
0.000798426 0.000380199 -3.25625e-06
-1.04051e-06 -3.25625e-06 1.12399e-05
0.00252261 0.000771108 1.1685e-06
0.000771108 0.000259318 6.68352e-07
1.1685e-06 6.68352e-07 8.08292e-06
0.00256343 0.00106478 -1.56653e-05
0.00106478 0.00101703 -1.60916e-05
-1.56653e-05 -1.60916e-05 0.000269609
0.00264737 0.000973519 -5.89561e-06
0.000973519 0.000502313 -1.48337e-06
-5.89561e-06 -1.48337e-06 7.74697e-05
0.00278638 0.00124408 -1.5808e-05
0.00124408 0.000789825 -1.51757e-05
-1.5808e-05 -1.51757e-05 6.71665e-05
0.00227826 0.000911689 -3.64e-06
0.000911689 0.0001287 -9.04949e-07
-3.64e-06 -9.04949e-07 -0.000304899
0.00110741 0.000168913 -3.48182e-06
0.000168913 0.000513551 8.59383e-06
-3.48182e-06 8.59383e-06 0.000343349
0.000451295 7.33658e-05 7.49822e-06
7.33658e-05 1.95458e-05 1.53388e-05
7.49822e-06 1.53388e-05 -5.50202e-05
0.00470787 -0.000147605 9.43294e-05
-0.000147605 0.00288359 1.30689e-05
9.43294e-05 1.30689e-05 0.00286808
0.00545008 -0.000205031 2.20243e-05
-0.000205031 0.00340277 -1.45209e-06
2.20243e-05 -1.45209e-06 0.00337062
0.00610517 -0.000246511 -0.000118884
-0.000246511 0.00385507 -1.69716e-05
-0.000118884 -1.69716e-05 0.00380983
0.000218421 -0.000249506 2.8102e-05
-0.000249506 -0.00016187 -1.81695e-05
2.8102e-05 -1.81695e-05 -0.000288436
0.00711587 3.96227e-05 0.000241627
3.96227e-05 0.00446652 -3.16227e-05
0.000241627 -3.16227e-05 0.0044639
0.000495799 -0.000291868 3.20244e-06
-0.000291868 -5.96126e-05 1.12128e-06
3.20244e-06 1.12128e-06 -0.000231883
0.0090393 -6.96352e-05 5.48979e-06
-6.96352e-05 0.00568683 -9.85742e-07
5.48979e-06 -9.85742e-07 0.00570222
0.000346792 0.000166047 -1.61004e-05
0.000166047 -0.000308424 -9.67173e-06
-1.61004e-05 -9.67173e-06 -0.000452885
0.000214109 5.8407e-05 -1.30747e-05
5.8407e-05 -0.000358639 -4.76255e-06
-1.30747e-05 -4.76255e-06 -0.000468701
0.00167381 0.000247684 -4.61339e-06
0.000247684 1.89926e-05 -1.1168e-06
-4.61339e-06 -1.1168e-06 -0.000142592
0.00158014 0.00012094 -5.81629e-06
0.00012094 -3.39066e-05 -1.30276e-06
-5.81629e-06 -1.30276e-06 -0.000158397
0.000216589 -2.17692e-07 -1.46398e-05
-2.17692e-07 -0.000328322 -1.74508e-06
-1.46398e-05 -1.74508e-06 -0.000422353
0.00679486 -0.000104176 -0.000394349
-0.000104176 0.00419915 7.36486e-06
-0.000394349 7.36486e-06 0.00424003
0.000207877 -4.17893e-06 -3.49052e-08
-4.17893e-06 -0.000331953 -6.70396e-07
-3.49052e-08 -6.70396e-07 -0.000424006
0.00154474 5.93142e-05 1.2646e-08
5.93142e-05 -6.14076e-05 2.99968e-08
1.2646e-08 2.99968e-08 -0.000177371
0.00161218 0.000181288 1.99095e-08
0.000181288 -3.4327e-05 1.08639e-07
1.99095e-08 1.08639e-07 -0.000172146
0.0023994 0.000177814 -1.21471e-07
0.000177814 0.000117381 1.30861e-07
-1.21471e-07 1.30861e-07 7.14995e-05
0.00171309 0.000333494 -4.26192e-07
0.000333494 2.69581e-05 -1.90759e-07
-4.26192e-07 -1.90759e-07 -0.00017004
0.00239028 0.000378402 -7.52544e-08
0.000378402 0.000140444 1.58386e-07
-7.52544e-08 1.58386e-07 3.86418e-05
0.00152525 -4.81456e-06 4.16181e-06
-4.81456e-06 -6.62909e-05 3.50884e-07
4.16181e-06 3.50884e-07 -0.000180776
0.00239369 8.69439e-05 4.1485e-06
8.69439e-05 0.000107382 4.1134e-07
4.1485e-06 4.1134e-07 7.17361e-05
0.00237202 0.000274657 3.44697e-06
0.000274657 0.000115663 1.1473e-06
3.44697e-06 1.1473e-06 4.60148e-05
0.00221222 0.000181257 3.89918e-06
0.000181257 -3.01798e-05 5.68759e-07
3.89918e-06 5.68759e-07 -1.86047e-05
0.00240523 0.000492502 3.92376e-06
0.000492502 0.000185816 1.09553e-06
3.92376e-06 1.09553e-06 3.4078e-05
0.00226461 0.000358821 4.1468e-06
0.000358821 -3.03728e-06 6.40478e-07
4.1468e-06 6.40478e-07 -4.07093e-05
0.000218274 -1.02435e-05 -1.41504e-05
-1.02435e-05 -0.000322274 1.15145e-07
-1.41504e-05 1.15145e-07 -0.000418673
0.0022491 -7.63278e-05 -0.000153464
-7.63278e-05 0.000986761 8.68834e-06
-0.000153464 8.68834e-06 0.000921521
0.00174134 -0.000126656 -1.60868e-05
-0.000126656 6.76681e-05 1.43701e-06
-1.60868e-05 1.43701e-06 -4.23594e-05
0.0021835 -0.000284669 -1.9403e-05
-0.000284669 0.000385512 3.23704e-06
-1.9403e-05 3.23704e-06 0.000214888
0.00976163 -0.000137371 -0.000442354
-0.000137371 0.00610089 5.54421e-05
-0.000442354 5.54421e-05 0.0061263
0.00363208 -0.000417418 -0.00022727
-0.000417418 0.00194261 4.34035e-05
-0.00022727 4.34035e-05 0.0017532
0.00258314 -0.000735065 -1.46923e-05
-0.000735065 0.000902227 8.37711e-06
-1.46923e-05 8.37711e-06 0.000432724
0.00241896 -0.000453713 -2.6052e-05
-0.000453713 0.000584678 7.38419e-06
-2.6052e-05 7.38419e-06 0.000349984
0.00238648 -0.000499562 -4.97344e-08
-0.000499562 0.0001877 -3.12426e-07
-4.97344e-08 -3.12426e-07 3.94996e-05
0.00230206 -0.000672388 -5.36013e-08
-0.000672388 0.000238623 -1.75031e-07
-5.36013e-08 -1.75031e-07 -6.21392e-05
0.00248547 -0.000843504 7.79235e-06
-0.000843504 0.000515055 -3.99637e-06
7.79235e-06 -3.99637e-06 8.0045e-05
0.00233826 -0.000825937 2.57444e-06
-0.000825937 0.000244856 1.93443e-06
2.57444e-06 1.93443e-06 -8.26313e-05
0.000111435 -0.000305939 -2.45911e-05
-0.000305939 -0.000346746 2.85769e-05
-2.45911e-05 2.85769e-05 -0.000542939
-0.000339215 -0.000347885 -4.46673e-06
-0.000347885 -0.00047537 -3.33904e-06
-4.46673e-06 -3.33904e-06 -0.000896967
0.00159458 -5.87752e-05 8.84254e-07
-5.87752e-05 -1.95694e-05 -6.95092e-08
8.84254e-07 -6.95092e-08 -0.000129685
0.00219339 -0.000209015 -1.19881e-05
-0.000209015 0.000380195 1.34267e-06
-1.19881e-05 1.34267e-06 0.00025295
0.00221801 -0.000185971 2.38211e-06
-0.000185971 -4.80509e-06 -3.55673e-07
2.38211e-06 -3.55673e-07 -6.83834e-05
0.00227265 -0.000396737 -1.23161e-06
-0.000396737 8.36798e-05 2.95875e-07
-1.23161e-06 2.95875e-07 -3.73601e-05
9.60011e-05 -0.000281781 -2.32714e-06
-0.000281781 -0.000367984 -3.04266e-07
-2.32714e-06 -3.04266e-07 -0.000585714
0.00135474 -0.000649216 -1.29108e-06
-0.000649216 0.000134069 -2.69798e-07
-1.29108e-06 -2.69798e-07 -0.000373134
0.00238379 -0.000963631 -3.17728e-07
-0.000963631 0.000481242 1.54081e-06
-3.17728e-07 1.54081e-06 -7.02441e-05
0.00227001 -0.000594169 1.12618e-06
-0.000594169 0.000158789 -4.89814e-07
1.12618e-06 -4.89814e-07 -7.25881e-05
0.00238009 -0.00051217 8.661e-08
-0.00051217 9.83407e-05 -8.17083e-08
8.661e-08 -8.17083e-08 4.95407e-06
0.00263995 -0.000913256 2.15684e-06
-0.000913256 0.00051745 -1.95259e-06
2.15684e-06 -1.95259e-06 0.000105787
0.00244991 -0.000746823 -6.70876e-07
-0.000746823 0.000238405 3.03603e-07
-6.70876e-07 3.03603e-07 1.37078e-08
0.00242373 -0.000871467 1.32554e-07
-0.000871467 0.000208451 3.98197e-07
1.32554e-07 3.98197e-07 -6.22945e-05
0.000931671 -0.000403234 -2.28078e-06
-0.000403234 0.000189355 3.38272e-07
-2.28078e-06 3.38272e-07 -0.000250509
0.00147348 -0.000499903 1.57594e-06
-0.000499903 0.000584288 1.46669e-06
1.57594e-06 1.46669e-06 7.87833e-05
0.000694702 -0.000231383 -2.52563e-06
-0.000231383 0.000293443 -2.23019e-07
-2.52563e-06 -2.23019e-07 -6.91158e-05
0.00223038 -9.38836e-05 3.81553e-06
-9.38836e-05 5.40063e-06 -3.86968e-07
3.81553e-06 -3.86968e-07 -5.09266e-05
0.00224548 -0.00028329 1.46935e-06
-0.00028329 1.74674e-05 -1.17986e-06
1.46935e-06 -1.17986e-06 -6.50206e-05
0.00230077 -0.000172734 6.50482e-06
-0.000172734 6.38637e-05 -6.49528e-07
6.50482e-06 -6.49528e-07 6.24696e-05
0.00228978 -0.000399266 3.18699e-06
-0.000399266 1.85939e-05 -8.46115e-07
3.18699e-06 -8.46115e-07 -2.79192e-05
0.00240833 -0.000652167 2.17567e-06
-0.000652167 0.000136441 -9.23046e-07
2.17567e-06 -9.23046e-07 -1.95017e-05
0.00253904 -0.000548642 1.17549e-06
-0.000548642 0.000102168 -3.19795e-09
1.17549e-06 -3.19795e-09 6.07869e-05
0.00144562 -0.000520011 1.17169e-05
-0.000520011 0.000373641 -6.10466e-06
1.17169e-05 -6.10466e-06 -0.000100651
0.00251984 -0.000794092 1.95304e-06
-0.000794092 0.000174584 -1.62691e-06
1.95304e-06 -1.62691e-06 1.12545e-05
0.00227629 -0.00108303 -2.25605e-07
-0.00108303 0.000545269 9.62678e-07
-2.25605e-07 9.62678e-07 -0.000125675
0.00269838 -0.00104757 9.47843e-06
-0.00104757 0.000590355 1.15179e-06
9.47843e-06 1.15179e-06 5.70433e-05
0.00272662 -0.000940021 5.79193e-06
-0.000940021 0.000538556 -2.84215e-06
5.79193e-06 -2.84215e-06 0.000155724
0.00257909 -0.000920692 5.54728e-06
-0.000920692 0.000236477 -2.52903e-06
5.54728e-06 -2.52903e-06 1.17928e-05
-0.00124208 -9.96506e-05 7.80927e-06
-9.96506e-05 -0.000993763 -3.95074e-07
7.80927e-06 -3.95074e-07 -0.00132013
0.00201624 -0.000781559 1.49155e-06
-0.000781559 0.000815026 9.8266e-06
1.49155e-06 9.8266e-06 0.00016058
1.77372e-05 -0.000335508 2.49866e-05
-0.000335508 -1.72346e-05 6.05025e-06
2.49866e-05 6.05025e-06 -0.000559401
0.00153893 -0.000771642 2.12439e-05
-0.000771642 0.000649061 2.09708e-05
2.12439e-05 2.09708e-05 -4.09282e-05
0.00167316 0.000416252 -1.02772e-05
0.000416252 2.95711e-05 -3.53478e-06
-1.02772e-05 -3.53478e-06 -0.000212863
0.000320572 0.000155531 -1.82826e-05
0.000155531 -0.000147556 -2.17138e-05
-1.82826e-05 -2.17138e-05 -0.000276628
0.000531127 0.000241376 -2.45317e-05
0.000241376 -7.10993e-05 -2.59467e-05
-2.45317e-05 -2.59467e-05 -0.000242628
0.00201709 0.000343362 -8.35372e-07
0.000343362 0.000967496 1.28216e-05
-8.35372e-07 1.28216e-05 0.000667006
0.00172118 0.000549052 -1.8861e-05
0.000549052 0.000129493 -5.82028e-06
-1.8861e-05 -5.82028e-06 -0.000207486
0.0024828 0.000709003 -2.21163e-06
0.000709003 0.000330387 1.23676e-06
-2.21163e-06 1.23676e-06 3.90478e-05
0.000739027 0.000423626 -1.66269e-05
0.000423626 -9.25835e-05 -8.90789e-06
-1.66269e-05 -8.90789e-06 -0.0005055
0.00218427 0.00107514 5.99971e-06
0.00107514 0.000479824 6.89343e-06
5.99971e-06 6.89343e-06 -0.000191801
0.00254152 0.000895982 6.56151e-06
0.000895982 0.00052943 6.38878e-06
6.56151e-06 6.38878e-06 8.41593e-05
0.00200387 0.000889603 1.04023e-05
0.000889603 6.27554e-05 1.47721e-05
1.04023e-05 1.47721e-05 -0.000389888
0.000409926 9.37891e-05 -1.91819e-06
9.37891e-05 -2.42856e-05 5.40152e-07
-1.91819e-06 5.40152e-07 -0.000146835
0.00125833 0.000421673 -6.92281e-06
0.000421673 0.000442088 4.64854e-06
-6.92281e-06 4.64854e-06 8.10221e-05
6.73873e-06 0.000253653 3.29989e-06
0.000253653 -0.000246398 -1.92673e-06
3.29989e-06 -1.92673e-06 -0.00058966
0.000552956 0.000326033 -3.83546e-06
0.000326033 3.00709e-05 9.83881e-06
-3.83546e-06 9.83881e-06 -0.000342573
0.00240534 0.000612969 -1.04364e-06
0.000612969 0.000220539 -6.59874e-07
-1.04364e-06 -6.59874e-07 -4.95952e-07
0.00241427 0.000796856 -1.26133e-06
0.000796856 0.000357501 -3.86414e-07
-1.26133e-06 -3.86414e-07 -1.0996e-05
0.00251332 0.000769137 2.9466e-07
0.000769137 0.000255707 1.4888e-07
2.9466e-07 1.4888e-07 5.78947e-06
0.00215009 0.00104045 2.41754e-07
0.00104045 0.000747276 -1.91468e-06
2.41754e-07 -1.91468e-06 -1.05762e-05
0.00265417 0.000973058 1.24752e-06
0.000973058 0.000522774 4.84738e-07
1.24752e-06 4.84738e-07 9.36325e-05
0.00261875 0.00120722 -1.4666e-06
0.00120722 0.00070682 -3.2334e-06
-1.4666e-06 -3.2334e-06 -3.27371e-06
0.0026134 0.000911131 -9.02608e-06
0.000911131 0.000384809 3.17318e-06
-9.02608e-06 3.17318e-06 -3.59793e-05
0.000726896 8.34164e-05 1.01601e-05
8.34164e-05 0.000184265 1.78024e-05
1.01601e-05 1.78024e-05 9.45313e-05
0.0017186 0.000225701 -1.63995e-06
0.000225701 0.000907163 1.42351e-05
-1.63995e-06 1.42351e-05 0.000595224
0.000196498 0.000646495 -6.06233e-06
0.000646495 -0.000224498 -1.49705e-05
-6.06233e-06 -1.49705e-05 -0.000804656
0.000864853 0.000455118 1.21344e-05
0.000455118 0.000282666 -8.47408e-07
1.21344e-05 -8.47408e-07 -8.42169e-05
0.001676 0.000339279 2.28809e-06
0.000339279 0.000584612 1.40188e-05
2.28809e-06 1.40188e-05 0.000204378
0.00251269 0.000649596 1.56365e-06
0.000649596 0.000175491 3.08142e-07
1.56365e-06 3.08142e-07 2.37306e-05
0.00243934 0.000878244 -1.71749e-06
0.000878244 0.000286665 2.93388e-07
-1.71749e-06 2.93388e-07 -6.14688e-05
0.00257507 0.000839426 -1.69839e-06
0.000839426 0.000229451 7.17737e-07
-1.69839e-06 7.17737e-07 8.15501e-07
0.00253359 0.00138043 -1.52596e-06
0.00138043 0.00100209 -1.05083e-05
-1.52596e-06 -1.05083e-05 8.69793e-05
0.00288806 0.00102012 -6.07705e-06
0.00102012 0.000562595 -5.6634e-07
-6.07705e-06 -5.6634e-07 0.00015112
0.00213606 0.00124761 7.10201e-06
0.00124761 0.000291977 -4.94056e-06
7.10201e-06 -4.94056e-06 -0.000415624
0.000886278 0.000175422 -9.59713e-08
0.000175422 0.000365351 1.11934e-05
-9.59713e-08 1.11934e-05 0.000160404
0.000848005 0.00022319 -9.67411e-06
0.00022319 0.000493857 4.7307e-06
-9.67411e-06 4.7307e-06 0.000188185
0.000879553 0.000133278 -1.8572e-06
0.000133278 0.000366523 4.81554e-06
-1.8572e-06 4.81554e-06 0.000232589
0.000417527 7.16869e-05 -3.15295e-06
7.16869e-05 5.93481e-05 -1.49975e-07
-3.15295e-06 -1.49975e-07 -9.97647e-05
0.0017881 1.99493e-05 1.61532e-06
1.99493e-05 0.000916517 9.14188e-06
1.61532e-06 9.14188e-06 0.000863718
0.00106788 4.76973e-05 -1.33285e-06
4.76973e-05 0.000433141 -1.59102e-07
-1.33285e-06 -1.59102e-07 0.000364334
0.00120108 2.867e-06 0.000100033
2.867e-06 0.000518895 1.91623e-05
0.000100033 1.91623e-05 0.000508501
0.00470651 -0.000153426 1.55415e-05
-0.000153426 0.00288902 -1.95927e-06
1.55415e-05 -1.95927e-06 0.00287077
0.00531145 -0.000225967 -9.24941e-05
-0.000225967 0.00332293 -1.52614e-05
-9.24941e-05 -1.52614e-05 0.00328367
0.000516917 -0.0001633 3.40523e-05
-0.0001633 6.47711e-05 -9.87876e-06
3.40523e-05 -9.87876e-06 -2.32903e-05
0.00494987 0.000155743 0.000113606
0.000155743 0.00308255 -1.74662e-05
0.000113606 -1.74662e-05 0.0030562
0.000521907 -0.000217542 -8.93647e-07
-0.000217542 4.48817e-05 2.29716e-06
-8.93647e-07 2.29716e-06 -9.64515e-05
0.00771056 1.11295e-05 1.94791e-06
1.11295e-05 0.00487146 2.00423e-06
1.94791e-06 2.00423e-06 0.00486903
0.00027373 -0.000294274 -2.71078e-05
-0.000294274 -0.000211078 2.48515e-05
-2.71078e-05 2.48515e-05 -0.000385841
0.00923983 -6.18194e-05 -0.00039133
-6.18194e-05 0.00581158 5.14097e-05
-0.00039133 5.14097e-05 0.0058265
0.00169618 0.000329681 -7.49223e-06
0.000329681 3.35167e-05 -2.11512e-06
-7.49223e-06 -2.11512e-06 -0.000163668
0.00162023 0.000181679 -5.09465e-06
0.000181679 -1.07771e-05 -1.15745e-06
-5.09465e-06 -1.15745e-06 -0.000149428
0.00239521 0.000376208 -4.54802e-06
0.000376208 0.00013711 -9.75033e-07
-4.54802e-06 -9.75033e-07 3.55086e-05
0.00241363 0.000175954 -3.77439e-06
0.000175954 0.000128238 -5.28955e-07
-3.77439e-06 -5.28955e-07 8.23411e-05
0.00155433 6.46234e-05 -5.05228e-06
6.46234e-05 -4.83698e-05 -8.0415e-07
-5.05228e-06 -8.0415e-07 -0.000164822
0.000175447 2.61163e-05 -1.48078e-05
2.61163e-05 -0.000355065 -1.56963e-06
-1.48078e-05 -1.56963e-06 -0.00044517
0.00153171 9.4819e-07 -3.55373e-08
9.4819e-07 -6.13906e-05 -2.78587e-08
-3.55373e-08 -2.78587e-08 -0.000175871
0.00239969 8.51788e-05 -1.3013e-07
8.51788e-05 0.000112729 1.03835e-07
-1.3013e-07 1.03835e-07 7.73646e-05
0.00239746 0.000273664 9.03297e-09
0.000273664 0.000129559 1.41461e-07
9.03297e-09 1.41461e-07 6.12355e-05
0.00220871 0.000176916 -3.46009e-07
0.000176916 -4.17705e-05 -6.77285e-08
-3.46009e-07 -6.77285e-08 -2.29307e-05
0.00239587 0.000495828 -5.2633e-07
0.000495828 0.000170408 2.39367e-07
-5.2633e-07 2.39367e-07 1.76857e-05
0.00227234 0.000360595 -9.19447e-08
0.000360595 6.76356e-06 1.42214e-07
-9.19447e-08 1.42214e-07 -3.26865e-05
0.0023945 -5.11532e-06 3.82905e-06
-5.11532e-06 0.000111388 3.14665e-08
3.82905e-06 3.14665e-08 7.69475e-05
0.00217291 8.32084e-05 2.45596e-06
8.32084e-05 -6.61716e-05 1.48664e-07
2.45596e-06 1.48664e-07 -3.62414e-05
0.00222262 0.000256726 4.4239e-06
0.000256726 -1.6605e-05 7.4698e-07
4.4239e-06 7.4698e-07 -2.70666e-05
0.00233203 0.000177878 1.05384e-06
0.000177878 -6.45575e-05 8.65789e-08
1.05384e-06 8.65789e-08 -7.95687e-06
0.00241246 0.000510782 2.9397e-06
0.000510782 7.71821e-05 7.59797e-07
2.9397e-06 7.59797e-07 8.74877e-07
0.00240452 0.000393647 8.24439e-08
0.000393647 -6.3889e-05 -5.36438e-07
8.24439e-08 -5.36438e-07 -3.53889e-05
0.00168212 -5.65248e-05 -6.84319e-06
-5.65248e-05 3.86658e-05 3.07355e-07
-6.84319e-06 3.07355e-07 -6.37817e-05
0.00210433 -0.000207712 -2.22666e-05
-0.000207712 0.000313018 2.74992e-06
-2.22666e-05 2.74992e-06 0.000184873
0.00222765 -0.000180422 2.13687e-06
-0.000180422 -3.38849e-06 -1.02474e-07
2.13687e-06 -1.02474e-07 -6.20743e-05
0.00230222 -0.000393642 -1.21627e-06
-0.000393642 0.000127097 1.28507e-06
-1.21627e-06 1.28507e-06 -5.65923e-06
8.17657e-05 -0.000307997 -2.34297e-05
-0.000307997 -0.000369029 3.16039e-05
-2.34297e-05 3.16039e-05 -0.000591609
0.00164253 -0.000665769 -4.01494e-06
-0.000665769 0.000328933 4.53167e-06
-4.01494e-06 4.53167e-06 -0.000179852
0.00232368 -0.000967336 5.88043e-06
-0.000967336 0.000424986 -1.83083e-06
5.88043e-06 -1.83083e-06 -0.00013579
0.00236842 -0.000594344 1.69802e-07
-0.000594344 0.000238551 -3.49492e-07
1.69802e-07 -3.49492e-07 2.38101e-06
0.00233702 -0.000512443 -2.79155e-06
-0.000512443 4.90378e-05 6.44566e-07
-2.79155e-06 6.44566e-07 -3.65626e-05
0.00238224 -0.000738917 -1.1559e-06
-0.000738917 0.000193789 1.94469e-06
-1.1559e-06 1.94469e-06 -4.20578e-05
0.00263996 -0.000911188 3.05278e-06
-0.000911188 0.000516831 -2.38582e-06
3.05278e-06 -2.38582e-06 0.000110997
0.00234802 -0.000875846 -2.31537e-06
-0.000875846 0.000150855 3.2251e-06
-2.31537e-06 3.2251e-06 -0.000119606
0.000537608 -0.000404384 -8.19915e-06
-0.000404384 -6.86804e-05 -3.33148e-06
-8.19915e-06 -3.33148e-06 -0.000519475
0.00107337 -0.000410321 -1.25438e-05
-0.000410321 0.000361021 -1.32861e-05
-1.25438e-05 -1.32861e-05 -0.000122528
0.00027872 -0.000251292 9.12498e-07
-0.000251292 5.8084e-05 2.42834e-06
9.12498e-07 2.42834e-06 -0.000326035
0.00232017 -9.08041e-05 3.89175e-06
-9.08041e-05 6.98775e-05 -1.23309e-07
3.89175e-06 -1.23309e-07 2.16573e-05
0.00219633 -0.000286909 2.08583e-06
-0.000286909 -1.27017e-05 -6.42014e-07
2.08583e-06 -6.42014e-07 -9.4527e-05
0.00225918 -0.000166781 -2.10042e-07
-0.000166781 1.62362e-05 1.02518e-07
-2.10042e-07 1.02518e-07 2.36217e-05
0.00235386 -0.000394436 -2.96884e-07
-0.000394436 7.02821e-05 -1.95206e-08
-2.96884e-07 -1.95206e-08 2.073e-05
0.00106439 -0.000523653 -2.69036e-06
-0.000523653 0.000111319 -1.16086e-06
-2.69036e-06 -1.16086e-06 -0.000377314
0.00250599 -0.00112802 1.99792e-06
-0.00112802 0.000695682 -3.57786e-07
1.99792e-06 -3.57786e-07 8.81533e-06
0.00244958 -0.00102512 1.31737e-06
-0.00102512 0.000424813 2.08027e-06
1.31737e-06 2.08027e-06 -0.000112298
0.00242527 -0.000649068 -5.50596e-07
-0.000649068 0.000162774 3.22426e-07
-5.50596e-07 3.22426e-07 1.43954e-07
0.00249966 -0.000550751 6.51811e-08
-0.000550751 6.16852e-05 -3.32228e-09
6.51811e-08 -3.32228e-09 2.60647e-05
0.00264331 -0.000931436 -7.91272e-07
-0.000931436 0.000477416 -1.50249e-07
-7.91272e-07 -1.50249e-07 9.39951e-05
0.00252212 -0.000795093 -6.81231e-07
-0.000795093 0.000174327 2.07273e-07
-6.81231e-07 2.07273e-07 1.09033e-05
0.00254295 -0.00092276 1.47818e-06
-0.00092276 0.000203675 -3.49162e-07
1.47818e-06 -3.49162e-07 -1.34619e-05
0.00160296 -0.000763338 -3.50888e-06
-0.000763338 0.000581738 -2.18807e-06
-3.50888e-06 -2.18807e-06 -6.93264e-05
0.00141796 -0.000758614 -2.83379e-06
-0.000758614 0.000570193 2.56959e-07
-2.83379e-06 2.56959e-07 -0.000110677
0.000436956 -0.000111348 3.63261e-06
-0.000111348 8.38889e-05 8.16875e-07
3.63261e-06 8.16875e-07 -0.000217654
0.000424786 -0.000250383 3.1869e-06
-0.000250383 0.000105528 -7.29609e-06
3.1869e-06 -7.29609e-06 -0.000337715
0.00219618 -9.53738e-05 5.12557e-06
-9.53738e-05 -2.37646e-05 -3.80786e-07
5.12557e-06 -3.80786e-07 -1.05452e-05
0.00229612 -0.000276109 3.85375e-06
-0.000276109 2.52685e-05 -1.11287e-06
3.85375e-06 -1.11287e-06 9.89789e-06
0.00233586 -0.00017632 1.58938e-06
-0.00017632 -1.59482e-05 -3.08999e-07
1.58938e-06 -3.08999e-07 3.38839e-05
0.00245893 -0.000435795 -1.13196e-06
-0.000435795 -2.25129e-05 6.08676e-07
-1.13196e-06 6.08676e-07 1.56996e-05
0.00244469 -0.000674762 -4.4433e-07
-0.000674762 6.85308e-05 1.73946e-07
-4.4433e-07 1.73946e-07 -2.78613e-05
0.00258574 -0.000594132 1.5354e-06
-0.000594132 1.63218e-05 -5.87933e-08
1.5354e-06 -5.87933e-08 4.67447e-06
0.00180177 -0.00105566 -5.1991e-06
-0.00105566 0.000472473 7.6492e-06
-5.1991e-06 7.6492e-06 -0.00026651
0.00264745 -0.000864576 2.07385e-06
-0.000864576 0.000153358 -3.28088e-07
2.07385e-06 -3.28088e-07 3.30829e-05
0.00250882 -0.00122558 2.58606e-06
-0.00122558 0.000656363 3.2359e-06
2.58606e-06 3.2359e-06 -5.78676e-05
0.00280968 -0.00107454 1.21172e-05
-0.00107454 0.000636098 -1.80916e-06
1.21172e-05 -1.80916e-06 0.000110817
0.00270933 -0.000969831 3.04729e-06
-0.000969831 0.00045894 -2.50698e-06
3.04729e-06 -2.50698e-06 0.000103306
0.00260211 -0.000991599 2.19487e-06
-0.000991599 0.000177604 -3.16543e-06
2.19487e-06 -3.16543e-06 -4.85731e-05
-0.0003099 -0.000264694 1.19828e-05
-0.000264694 -0.000511655 -8.99042e-06
1.19828e-05 -8.99042e-06 -0.000794717
-0.00214764 3.10469e-05 -1.3448e-07
3.10469e-05 -0.00154268 1.54024e-06
-1.3448e-07 1.54024e-06 -0.00201713
0.00163628 -0.001057 1.80356e-05
-0.001057 0.000594331 8.46091e-06
1.80356e-05 8.46091e-06 -0.0001978
0.00450957 -0.00090568 1.44161e-05
-0.00090568 0.00274698 1.63764e-05
1.44161e-05 1.63764e-05 0.00214348
0.00191036 -0.00100734 -4.95116e-06
-0.00100734 0.000914581 1.30587e-05
-4.95116e-06 1.30587e-05 8.05063e-05
-1.56757e-05 7.11694e-05 -8.06313e-06
7.11694e-05 -0.000290588 -1.98893e-05
-8.06313e-06 -1.98893e-05 -0.000409463
0.00244472 0.000620047 -3.56294e-06
0.000620047 0.000239827 -6.2437e-07
-3.56294e-06 -6.2437e-07 1.66407e-05
0.00102983 0.00015921 2.08942e-06
0.00015921 0.000380825 -5.62297e-06
2.08942e-06 -5.62297e-06 5.32186e-05
0.0013355 0.000454846 -1.14478e-05
0.000454846 0.000455881 1.51913e-05
-1.14478e-05 1.51913e-05 0.000131634
0.00162223 0.000326716 -1.19614e-06
0.000326716 0.000678591 1.24465e-05
-1.19614e-06 1.24465e-05 0.000322474
0.00238284 0.00079507 1.33768e-06
0.00079507 0.000334462 3.34468e-06
1.33768e-06 3.34468e-06 -3.3527e-05
0.00250279 0.00076687 -1.15e-06
0.00076687 0.000251525 -7.73477e-07
-1.15e-06 -7.73477e-07 3.02309e-06
0.00169082 0.0010575 1.60022e-05
0.0010575 0.000455793 1.68825e-05
1.60022e-05 1.68825e-05 -0.00033305
0.00246614 0.00119294 6.2084e-06
0.00119294 0.000611062 7.83943e-06
6.2084e-06 7.83943e-06 -9.75815e-05
0.00264832 0.000967767 6.41825e-06
0.000967767 0.000532036 3.99439e-06
6.41825e-06 3.99439e-06 0.000100855
0.00296662 0.000920409 1.3296e-05
0.000920409 0.000647936 1.51205e-05
1.3296e-05 1.51205e-05 0.000235547
0.00049748 9.38248e-05 -3.11465e-06
9.38248e-05 3.89983e-05 4.20919e-07
-3.11465e-06 4.20919e-07 -4.74534e-05
0.000750322 0.000214018 -1.46601e-06
0.000214018 0.000305698 -8.0314e-07
-1.46601e-06 -8.0314e-07 -2.58576e-05
0.00108888 0.000676834 9.53827e-06
0.000676834 0.000329071 -4.46904e-06
9.53827e-06 -4.46904e-06 -0.000252208
0.000952386 0.000260355 -3.10344e-06
0.000260355 0.000330839 -4.20699e-06
-3.10344e-06 -4.20699e-06 -1.96278e-05
0.000639231 0.000382784 -2.45302e-06
0.000382784 -7.50849e-05 5.42309e-06
-2.45302e-06 5.42309e-06 -0.000497127
0.00248281 0.000646307 -5.81728e-07
0.000646307 0.000157769 -5.3756e-07
-5.81728e-07 -5.3756e-07 7.35557e-06
0.00249192 0.000881151 5.01641e-07
0.000881151 0.000326201 1.85834e-07
5.01641e-07 1.85834e-07 -2.14775e-05
0.00255305 0.00083969 1.21424e-06
0.00083969 0.000219851 5.12139e-07
1.21424e-06 5.12139e-07 -8.27852e-06
0.00256398 0.00137589 2.17447e-06
0.00137589 0.00104299 -5.60906e-07
2.17447e-06 -5.60906e-07 0.000135076
0.00287011 0.00101826 3.27469e-06
0.00101826 0.000521643 6.732e-08
3.27469e-06 6.732e-08 0.000108791
0.00283693 0.00132925 -6.28852e-06
0.00132925 0.000786831 8.53755e-07
-6.28852e-06 8.53755e-07 6.33626e-05
0.000944803 0.000208217 -5.62245e-07
0.000208217 0.000400869 1.13798e-05
-5.62245e-07 1.13798e-05 0.000152917
0.00230067 0.0005944 7.28274e-06
0.0005944 0.00136801 7.57766e-06
7.28274e-06 7.57766e-06 0.000912698
0.00139624 0.000957333 -1.13873e-06
0.000957333 0.000582334 -2.96299e-06
-1.13873e-06 -2.96299e-06 -0.000153954
0.00155782 0.000307842 1.12766e-05
0.000307842 0.000434498 -4.1961e-06
1.12766e-05 -4.1961e-06 0.000111433
0.00352299 0.000918857 2.74442e-06
0.000918857 0.00157131 2.65719e-06
2.74442e-06 2.65719e-06 0.00099892
0.00256114 0.000692488 -2.54803e-06
0.000692488 8.77955e-05 -1.04686e-06
-2.54803e-06 -1.04686e-06 -9.85567e-06
0.00261044 0.000960658 -3.11064e-06
0.000960658 0.000348554 1.38971e-06
-3.11064e-06 1.38971e-06 -2.92305e-06
0.00263641 0.000955287 -5.27603e-07
0.000955287 0.00022322 3.86329e-07
-5.27603e-07 3.86329e-07 -9.05488e-07
0.0019251 0.00139675 1.23527e-05
0.00139675 0.000702325 -3.03608e-06
1.23527e-05 -3.03608e-06 -0.000214058
0.00258616 0.00126458 1.73056e-05
0.00126458 0.00048262 -1.18713e-06
1.73056e-05 -1.18713e-06 -0.000153367
0.000641369 0.000146442 9.8364e-08
0.000146442 0.000207541 -4.79873e-07
9.8364e-08 -4.79873e-07 3.67821e-06
0.000127069 0.000271991 -7.68715e-06
0.000271991 -3.92274e-05 -2.45167e-06
-7.68715e-06 -2.45167e-06 -0.000356308
-0.000851424 0.00010942 7.85514e-07
0.00010942 -0.000612684 -2.44422e-06
7.85514e-07 -2.44422e-06 -0.00091351
0.00215035 0.000369716 -1.5089e-05
0.000369716 0.00141635 -9.86073e-07
-1.5089e-05 -9.86073e-07 0.001074
0.00163142 0.000298186 -6.65487e-06
0.000298186 0.000986331 -1.31462e-06
-6.65487e-06 -1.31462e-06 0.000731203
0.000603976 0.000119641 -3.39588e-07
0.000119641 0.000192646 2.00518e-06
-3.39588e-07 2.00518e-06 7.30931e-05
0.000553185 6.76562e-05 -1.92566e-06
6.76562e-05 0.000153811 -2.81483e-07
-1.92566e-06 -2.81483e-07 2.28629e-05
0.00162593 3.09595e-05 1.63905e-06
3.09595e-05 0.000813455 6.73328e-06
1.63905e-06 6.73328e-06 0.000769532
0.00026749 7.83513e-05 6.65448e-06
7.83513e-05 -4.57117e-05 -7.3685e-06
6.65448e-06 -7.3685e-06 -0.000196206
0.00176278 1.9166e-05 -1.98925e-05
1.9166e-05 0.000898521 -2.55585e-06
-1.98925e-05 -2.55585e-06 0.000851758
0.000751243 -2.87245e-06 6.8687e-05
-2.87245e-06 0.000219932 1.46072e-05
6.8687e-05 1.46072e-05 0.00021604
0.00194451 5.15068e-05 -4.03896e-05
5.15068e-05 0.00101954 -1.25874e-05
-4.03896e-05 -1.25874e-05 0.000961402
0.00263611 -7.28962e-05 8.71926e-05
-7.28962e-05 0.00149466 1.87668e-06
8.71926e-05 1.87668e-06 0.0014803
0.00448813 -0.000167809 -7.49522e-05
-0.000167809 0.00275214 -1.2164e-05
-7.49522e-05 -1.2164e-05 0.00272924
0.000941986 2.13024e-05 3.07894e-06
2.13024e-05 0.000349363 -9.6374e-06
3.07894e-06 -9.6374e-06 0.00025727
0.000203377 -0.000121646 1.6813e-06
-0.000121646 -0.000136489 1.17546e-06
1.6813e-06 1.17546e-06 -0.000237112
0.00469421 0.000192248 5.98433e-05
0.000192248 0.00291785 -1.37528e-05
5.98433e-05 -1.37528e-05 0.00287918
0.00569805 8.42012e-05 -1.15051e-05
8.42012e-05 0.00357091 3.23458e-06
-1.15051e-05 3.23458e-06 0.00355786
0.000957287 -0.000214075 -2.12035e-05
-0.000214075 0.000323824 2.13589e-05
-2.12035e-05 2.13589e-05 0.000169171
0.00846282 -7.19726e-06 -0.000344979
-7.19726e-06 0.00536054 5.05245e-05
-0.000344979 5.05245e-05 0.00536099
0.00238486 0.000499509 -3.87927e-06
0.000499509 0.000152454 -4.33344e-07
-3.87927e-06 -4.33344e-07 -1.30716e-06
0.00241074 0.000274237 -3.94081e-06
0.000274237 0.000135049 -8.72253e-07
-3.94081e-06 -8.72253e-07 6.76692e-05
0.00227563 0.0003628 -3.87389e-06
0.0003628 1.29772e-05 -2.44385e-07
-3.87389e-06 -2.44385e-07 -2.82764e-05
0.00220603 0.000172267 -3.33724e-06
0.000172267 -5.34279e-05 -3.41678e-07
-3.33724e-06 -3.41678e-07 -2.73564e-05
0.00240712 8.40409e-05 -4.17199e-06
8.40409e-05 0.000119187 -1.81205e-07
-4.17199e-06 -1.81205e-07 8.40927e-05
0.00154131 6.49175e-06 -4.14746e-06
6.49175e-06 -5.67581e-05 -3.78494e-07
-4.14746e-06 -3.78494e-07 -0.000171238
0.00239113 -5.11021e-06 -1.05362e-08
-5.11021e-06 0.000110289 5.46526e-08
-1.05362e-08 5.46526e-08 7.5798e-05
0.00217611 7.5243e-05 -4.20337e-07
7.5243e-05 -6.11569e-05 -4.74539e-08
-4.20337e-07 -4.74539e-08 -3.29947e-05
0.00221848 0.00025618 -1.27006e-07
0.00025618 -2.17725e-05 7.44956e-08
-1.27006e-07 7.44956e-08 -3.20489e-05
0.00232591 0.000180077 1.5057e-07
0.000180077 -7.57082e-05 4.99482e-08
1.5057e-07 4.99482e-08 -1.19567e-05
0.00241087 0.000509463 1.45425e-07
0.000509463 7.67408e-05 -2.68491e-08
1.45425e-07 -2.68491e-08 2.06203e-06
0.00241096 0.000384287 2.37863e-07
0.000384287 -6.47571e-05 3.5285e-07
2.37863e-07 3.5285e-07 -3.08896e-05
0.00217346 -1.11985e-05 3.31004e-06
-1.11985e-05 -5.55875e-05 -1.66161e-07
3.31004e-06 -1.66161e-07 -2.89901e-05
0.00236266 7.58619e-05 3.9814e-07
7.58619e-05 -4.97539e-05 -3.44308e-07
3.9814e-07 -3.44308e-07 2.80495e-05
0.00234775 0.000256516 -8.07056e-07
0.000256516 -6.85493e-05 -4.50308e-07
-8.07056e-07 -4.50308e-07 -2.09113e-05
0.00246357 0.000190568 2.64717e-10
0.000190568 -9.25723e-05 -3.20501e-07
2.64717e-10 -3.20501e-07 1.9867e-05
0.00249481 0.000526305 -3.37678e-07
0.000526305 -2.26227e-07 -4.44563e-07
-3.37678e-07 -4.44563e-07 -1.37074e-05
0.00249788 0.000376752 5.51826e-07
0.000376752 -0.000118525 2.34042e-08
5.51826e-07 2.34042e-08 -4.62973e-05
0.00238853 -8.76147e-05 -4.21924e-07
-8.76147e-05 0.000117446 7.77225e-08
-4.21924e-07 7.77225e-08 7.71201e-05
0.00216574 -0.000290255 2.82586e-06
-0.000290255 -3.20201e-05 1.15394e-07
2.82586e-06 1.15394e-07 -0.000112935
0.00221268 -0.0001608 -3.21952e-06
-0.0001608 -3.40359e-05 2.73348e-07
-3.21952e-06 2.73348e-07 -1.76062e-05
0.00241756 -0.000390223 -5.45008e-06
-0.000390223 0.000122258 1.65697e-06
-5.45008e-06 1.65697e-06 6.93764e-05
0.000785922 -0.000517711 -1.1414e-05
-0.000517711 -7.62669e-05 3.52415e-06
-1.1414e-05 3.52415e-06 -0.000572957
0.00283138 -0.00116924 2.99164e-07
-0.00116924 0.0009324 -1.10906e-06
2.99164e-07 -1.10906e-06 0.000232955
0.00218103 -0.000996417 7.87465e-07
-0.000996417 0.000250584 -2.77068e-08
7.87465e-07 -2.77068e-08 -0.000288425
0.00245098 -0.000646717 -4.54156e-06
-0.000646717 0.000195147 1.81983e-06
-4.54156e-06 1.81983e-06 2.54985e-05
0.00246059 -0.000552474 6.69937e-08
-0.000552474 2.21088e-05 -4.92835e-07
6.69937e-08 -4.92835e-07 -8.41224e-06
0.00252047 -0.000796449 -2.01407e-06
-0.000796449 0.000170339 1.68818e-06
-2.01407e-06 1.68818e-06 6.69935e-06
0.00256924 -0.000927872 -4.52397e-06
-0.000927872 0.000420047 2.7893e-06
-4.52397e-06 2.7893e-06 3.39109e-05
0.00253396 -0.000933838 -2.94033e-06
-0.000933838 0.000185833 1.14617e-06
-2.94033e-06 1.14617e-06 -2.76748e-05
0.00138237 -0.00074611 -3.21727e-06
-0.00074611 0.000433391 -1.44283e-05
-3.21727e-06 -1.44283e-05 -0.000214572
0.00206451 -0.000809685 -2.7613e-05
-0.000809685 0.000974743 -1.30856e-05
-2.7613e-05 -1.30856e-05 0.000287568
0.00216188 -0.000119654 3.55399e-06
-0.000119654 0.00121063 6.98322e-06
3.55399e-06 6.98322e-06 0.000913212
-0.000351584 -0.000106913 -1.36492e-05
-0.000106913 -0.000476151 -8.41652e-06
-1.36492e-05 -8.41652e-06 -0.000847204
0.00219582 -9.48041e-05 -1.12711e-07
-9.48041e-05 -2.50712e-05 2.56997e-08
-1.12711e-07 2.56997e-08 -1.19753e-05
0.00233166 -0.000278624 1.23147e-06
-0.000278624 5.21197e-05 -1.91666e-07
1.23147e-06 -1.91666e-07 3.5806e-05
0.00230196 -0.000173777 -1.44282e-10
-0.000173777 -4.43433e-05 -8.69545e-08
-1.44282e-10 -8.69545e-08 9.55141e-06
0.00242282 -0.000434465 -3.06762e-07
-0.000434465 -3.90493e-05 2.86701e-07
-3.06762e-07 2.86701e-07 -9.59646e-06
0.00218831 -0.00104499 -1.26768e-06
-0.00104499 0.000717447 -5.09509e-07
-1.26768e-06 -5.09509e-07 -8.47929e-06
0.00239552 -0.00121446 2.40409e-06
-0.00121446 0.000570897 3.1059e-07
2.40409e-06 3.1059e-07 -0.000142919
0.00275585 -0.00108354 -7.91852e-07
-0.00108354 0.000598952 7.07001e-07
-7.91852e-07 7.07001e-07 6.53288e-05
0.0024869 -0.000677226 -9.57278e-07
-0.000677226 0.000105978 2.27788e-07
-9.57278e-07 2.27788e-07 2.22841e-06
0.00255933 -0.000591055 6.84893e-07
-0.000591055 -6.03036e-07 -5.41449e-07
6.84893e-07 -5.41449e-07 -1.50686e-06
0.00271802 -0.000979814 -1.93732e-06
-0.000979814 0.000473956 6.47432e-07
-1.93732e-06 6.47432e-07 0.000111937
0.00265573 -0.000868811 -1.16983e-06
-0.000868811 0.000151595 6.10089e-07
-1.16983e-06 6.10089e-07 2.98004e-05
0.00262334 -0.000986232 7.82589e-06
-0.000986232 0.000189945 -2.71095e-06
7.82589e-06 -2.71095e-06 -2.74005e-05
0.00203613 -0.00112189 4.86907e-07
-0.00112189 0.00087146 -8.5711e-07
4.86907e-07 -8.5711e-07 4.11261e-05
0.00210091 -0.00102518 -5.87573e-06
-0.00102518 0.00103006 -1.15628e-06
-5.87573e-06 -1.15628e-06 0.000200716
0.00110705 -0.0006045 -4.72663e-06
-0.0006045 0.000576642 3.43853e-06
-4.72663e-06 3.43853e-06 -7.38578e-06
1.244e-05 -0.000196224 -6.53138e-06
-0.000196224 -0.000239637 1.27686e-06
-6.53138e-06 1.27686e-06 -0.000541714
0.00019561 5.86483e-05 -5.04739e-06
5.86483e-05 -1.88855e-05 -1.61337e-06
-5.04739e-06 -1.61337e-06 -0.000469899
0.00232558 -0.000109677 -4.99739e-07
-0.000109677 -6.61047e-05 5.3183e-08
-4.99739e-07 5.3183e-08 7.35576e-06
0.00238217 -0.000264205 -1.30557e-06
-0.000264205 -7.86939e-05 -1.89984e-07
-1.30557e-06 -1.89984e-07 -8.53015e-06
0.00259251 -0.000529859 1.17011e-07
-0.000529859 -9.50753e-05 5.28414e-08
1.17011e-07 5.28414e-08 -6.90902e-06
0.00257435 -0.000723541 1.51379e-06
-0.000723541 2.55403e-05 4.5798e-07
1.51379e-06 4.5798e-07 -1.79798e-05
0.00255103 -0.00136022 3.1247e-07
-0.00136022 0.000961458 -6.78467e-07
3.1247e-07 -6.78467e-07 0.000102481
0.00278425 -0.000998222 2.5743e-07
-0.000998222 0.000128341 -1.8784e-06
2.5743e-07 -1.8784e-06 -2.05488e-05
0.00186098 -0.00120205 -7.21689e-07
-0.00120205 0.000258478 5.94239e-06
-7.21689e-07 5.94239e-06 -0.000458644
0.00290863 -0.00114966 -1.23944e-07
-0.00114966 0.000683844 -9.31216e-07
-1.23944e-07 -9.31216e-07 0.000148131
0.00265275 -0.00101312 -1.00011e-05
-0.00101312 0.000341706 -3.60521e-06
-1.00011e-05 -3.60521e-06 2.75019e-05
-0.000134702 -0.000189356 -1.68263e-06
-0.000189356 -0.000247042 4.23862e-06
-1.68263e-06 4.23862e-06 -0.00052538
0.00383457 -0.00045385 -4.18067e-06
-0.00045385 0.00237044 8.26332e-07
-4.18067e-06 8.26332e-07 0.00190877
-0.000829649 -0.000221322 -1.00293e-05
-0.000221322 -0.000752803 8.7474e-06
-1.00293e-05 8.7474e-06 -0.00116766
0.0028348 -0.00134344 -1.18916e-05
-0.00134344 0.00139545 9.95142e-06
-1.18916e-05 9.95142e-06 0.00046919
0.00384895 -0.000928806 2.54216e-06
-0.000928806 0.00218627 1.0131e-05
2.54216e-06 1.0131e-05 0.00152964
0.0019983 -0.00106576 -1.82372e-05
-0.00106576 0.000923193 1.77874e-05
-1.82372e-05 1.77874e-05 5.93602e-05
0.000304796 9.97567e-05 -1.33263e-05
9.97567e-05 -8.53206e-05 -1.73116e-05
-1.33263e-05 -1.73116e-05 -0.000167119
9.80747e-05 0.000242935 -1.81745e-06
0.000242935 -0.000100742 -1.51075e-05
-1.81745e-06 -1.51075e-05 -0.000447155
0.00245071 0.000642734 -3.63243e-06
0.000642734 0.000139097 -1.75733e-06
-3.63243e-06 -1.75733e-06 -9.89714e-06
-0.000501208 -2.80544e-05 -6.82778e-06
-2.80544e-05 -0.000537632 -1.29455e-06
-6.82778e-06 -1.29455e-06 -0.000927117
0.00305532 0.000761883 1.82534e-05
0.000761883 0.00154258 2.11317e-06
1.82534e-05 2.11317e-06 0.00096197
-0.000151782 0.000443927 -1.50445e-05
0.000443927 -0.000583073 -2.86351e-06
-1.50445e-05 -2.86351e-06 -0.00106267
0.00253442 0.00088239 1.00228e-06
0.00088239 0.000361165 -7.91351e-07
1.00228e-06 -7.91351e-07 1.43746e-05
0.00252956 0.000840305 2.03551e-06
0.000840305 0.000208053 -3.26642e-07
2.03551e-06 -3.26642e-07 -1.96719e-05
0.00298705 0.0014197 6.56134e-06
0.0014197 0.00134158 7.79273e-06
6.56134e-06 7.79273e-06 0.000425629
0.00358792 0.00140869 -6.70238e-06
0.00140869 0.0013101 5.57741e-06
-6.70238e-06 5.57741e-06 0.00057422
0.00285224 0.00102044 3.20312e-06
0.00102044 0.000476534 8.28206e-07
3.20312e-06 8.28206e-07 6.06533e-05
0.000861465 0.000204924 2.52394e-08
0.000204924 0.000358611 -1.36756e-07
2.52394e-08 -1.36756e-07 0.000102016
0.000986469 0.00037489 -4.42552e-06
0.00037489 0.000523212 -6.22019e-07
-4.42552e-06 -6.22019e-07 8.09749e-05
0.00171522 0.00102764 4.47474e-07
0.00102764 0.000755329 -1.36423e-07
4.47474e-07 -1.36423e-07 -2.62719e-05
0.000938027 0.00027975 -6.64058e-07
0.00027975 4.84826e-05 -9.56928e-07
-6.64058e-07 -9.56928e-07 -0.000284175
0.00152799 0.00072766 6.69228e-07
0.00072766 0.000205176 -5.11185e-06
6.69228e-07 -5.11185e-06 -0.00032066
0.00255404 0.00069088 -1.98027e-06
0.00069088 9.68798e-05 -1.10766e-06
-1.98027e-06 -1.10766e-06 -2.49941e-06
0.00264688 0.000968957 2.61075e-06
0.000968957 0.000349496 5.45758e-07
2.61075e-06 5.45758e-07 -4.46177e-06
0.00270643 0.000961841 1.07636e-06
0.000961841 0.000234054 1.16287e-06
1.07636e-06 1.16287e-06 1.64918e-05
0.0024135 0.00148824 2.5941e-06
0.00148824 0.000977789 1.31801e-06
2.5941e-06 1.31801e-06 4.00501e-05
0.00255443 0.00128547 -2.6881e-06
0.00128547 0.000509323 -3.90158e-06
-2.6881e-06 -3.90158e-06 -0.000147119
0.00166958 0.000553648 4.74858e-06
0.000553648 0.000937024 4.46727e-06
4.74858e-06 4.46727e-06 0.000553476
-0.0011415 0.000381153 2.24435e-06
0.000381153 -0.000880058 -7.89539e-06
2.24435e-06 -7.89539e-06 -0.00134552
0.0021368 0.00119868 1.70948e-06
0.00119868 0.000984691 -3.31637e-06
1.70948e-06 -3.31637e-06 0.000173098
-0.00223581 0.000591503 1.71625e-05
0.000591503 -0.00204449 -1.81966e-06
1.71625e-05 -1.81966e-06 -0.00257687
0.00280344 0.00117986 6.70348e-06
0.00117986 0.000929207 -3.65462e-06
6.70348e-06 -3.65462e-06 0.000263106
0.00271621 0.000814485 -2.24565e-06
0.000814485 3.24002e-05 5.53491e-08
-2.24565e-06 5.53491e-08 2.90375e-06
0.00273193 0.00104182 9.48907e-06
0.00104182 0.00032753 -1.99577e-06
9.48907e-06 -1.99577e-06 -6.27777e-05
0.00240763 0.000910587 7.07735e-06
0.000910587 -4.0247e-05 1.17397e-06
7.07735e-06 1.17397e-06 -0.000271595
0.00285753 0.00157105 2.52424e-05
0.00157105 0.00113795 7.27145e-06
2.52424e-05 7.27145e-06 0.000213863
0.0028757 0.00153362 1.30367e-05
0.00153362 0.000809141 1.51594e-06
1.30367e-05 1.51594e-06 2.1383e-05
0.000409369 0.000108289 7.79408e-06
0.000108289 5.39037e-05 -1.08528e-05
7.79408e-06 -1.08528e-05 -0.000144239
0.000838359 0.000279162 -1.86144e-06
0.000279162 0.000410022 7.2774e-07
-1.86144e-06 7.2774e-07 0.000102146
-0.000369056 0.000137906 -8.67869e-06
0.000137906 -0.000377246 -2.69807e-05
-8.67869e-06 -2.69807e-05 -0.000584985
-0.00142334 -4.33821e-05 1.18424e-05
-4.33821e-05 -0.00103441 -2.10229e-06
1.18424e-05 -2.10229e-06 -0.00128486
0.000609557 0.000142483 -2.8116e-06
0.000142483 0.00028679 2.37688e-07
-2.8116e-06 2.37688e-07 6.58475e-05
-0.000179306 0.000113208 5.60847e-06
0.000113208 -0.000157767 1.11047e-06
5.60847e-06 1.11047e-06 -0.000428393
0.000966058 0.000275747 -3.00858e-06
0.000275747 0.000626377 -1.2313e-06
-3.00858e-06 -1.2313e-06 0.000364837
0.000339953 -2.26882e-06 -1.34093e-05
-2.26882e-06 0.000167116 6.66266e-06
-1.34093e-05 6.66266e-06 -8.71444e-05
0.000937186 0.000161474 -3.98163e-06
0.000161474 0.000462602 -2.70959e-06
-3.98163e-06 -2.70959e-06 0.000288242
0.000492305 0.000106776 8.89662e-07
0.000106776 0.000109334 2.63123e-06
8.89662e-07 2.63123e-06 -3.20994e-06
0.000404576 4.99499e-05 -3.22794e-06
4.99499e-05 4.89153e-05 2.40848e-07
-3.22794e-06 2.40848e-07 -6.12156e-05
0.00150257 8.80242e-06 1.50098e-06
8.80242e-06 0.000730821 5.14393e-06
1.50098e-06 5.14393e-06 0.000694711
-2.92463e-05 -7.7267e-05 1.00633e-05
-7.7267e-05 -0.0002248 -3.33845e-06
1.00633e-05 -3.33845e-06 -0.000351086
0.0015772 1.7206e-05 -1.72285e-05
1.7206e-05 0.000777818 -2.63218e-06
-1.72285e-05 -2.63218e-06 0.000739623
0.000722678 -2.99783e-06 5.4484e-05
-2.99783e-06 0.000202101 1.29976e-05
5.4484e-05 1.29976e-05 0.000200484
0.001691 2.32129e-05 -2.61273e-05
2.32129e-05 0.000847647 -1.23273e-05
-2.61273e-05 -1.23273e-05 0.000805982
0.000746591 -2.58159e-05 2.94214e-05
-2.58159e-05 0.00021873 5.15818e-06
2.94214e-05 5.15818e-06 0.000206303
0.00386572 -0.000177604 1.8616e-05
-0.000177604 0.00232519 -7.46059e-06
1.8616e-05 -7.46059e-06 0.0022995
0.0004263 0.000117314 -3.22536e-06
0.000117314 6.74592e-05 -1.03797e-05
-3.22536e-06 -1.03797e-05 -3.83889e-05
0.000427764 -5.76064e-05 -8.56614e-06
-5.76064e-05 1.58595e-05 -1.49763e-06
-8.56614e-06 -1.49763e-06 -8.32356e-05
0.0042059 0.000259732 -3.86837e-05
0.000259732 0.00260657 -1.66588e-05
-3.86837e-05 -1.66588e-05 0.00255448
0.000491559 -0.000168103 -1.63269e-05
-0.000168103 4.87396e-05 1.39151e-05
-1.63269e-05 1.39151e-05 -6.04353e-05
0.00447964 0.000167836 -2.20761e-05
0.000167836 0.00278194 -6.79658e-07
-2.20761e-05 -6.79658e-07 0.00275037
0.00638241 7.20375e-05 -0.000259287
7.20375e-05 0.00405987 5.0879e-05
-0.000259287 5.0879e-05 0.00403488
0.00241075 0.000508213 -3.78758e-06
0.000508213 7.72415e-05 -1.09979e-06
-3.78758e-06 -1.09979e-06 4.16752e-06
0.00221764 0.000255312 -4.1858e-06
0.000255312 -2.35128e-05 -4.57043e-07
-4.1858e-06 -4.57043e-07 -3.36353e-05
0.00241812 0.000375214 9.37386e-07
0.000375214 -6.55164e-05 8.80406e-07
9.37386e-07 8.80406e-07 -2.61525e-05
0.0023202 0.000182789 1.24886e-06
0.000182789 -8.6396e-05 3.60972e-07
1.24886e-06 3.60972e-07 -1.52991e-05
0.00217678 6.80906e-05 -3.45105e-06
6.80906e-05 -5.79948e-05 4.77686e-08
-3.45105e-06 4.77686e-08 -3.16059e-05
0.00238711 -5.4916e-06 -3.70856e-06
-5.4916e-06 0.000109309 1.39394e-07
-3.70856e-06 1.39394e-07 7.48126e-05
0.00218031 -1.25997e-05 2.51631e-07
-1.25997e-05 -4.58863e-05 -2.74753e-08
2.51631e-07 -2.74753e-08 -2.25909e-05
0.00234364 7.82328e-05 4.17206e-07
7.82328e-05 -5.81991e-05 2.93023e-08
4.17206e-07 2.93023e-08 1.46854e-05
0.00236481 0.00025691 -7.1066e-07
0.00025691 -5.06914e-05 -6.77784e-08
-7.1066e-07 -6.77784e-08 -5.41766e-06
0.00242947 0.000193394 5.9994e-07
0.000193394 -0.000120097 1.64955e-07
5.9994e-07 1.64955e-07 3.67651e-06
0.00250676 0.000529771 -2.87009e-07
0.000529771 1.02118e-05 3.33178e-09
-2.87009e-07 3.33178e-09 -6.83369e-06
0.00252097 0.00038082 1.80291e-06
0.00038082 -0.000103315 7.5863e-07
1.80291e-06 7.5863e-07 -1.97547e-05
0.00231254 -1.62213e-05 -1.09762e-06
-1.62213e-05 -7.47794e-05 -4.90779e-08
-1.09762e-06 -4.90779e-08 -2.84792e-06
0.00247669 9.61047e-05 -6.2513e-07
9.61047e-05 -0.000115892 -7.05142e-07
-6.2513e-07 -7.05142e-07 2.04943e-05
0.00252436 0.000270203 9.8924e-08
0.000270203 -0.000100632 -2.27439e-07
9.8924e-08 -2.27439e-07 2.75781e-05
0.00263459 0.000541596 -4.24342e-07
0.000541596 -0.000109203 3.10612e-07
-4.24342e-07 3.10612e-07 -1.4134e-05
0.00219311 -9.43056e-05 -5.09553e-06
-9.43056e-05 -2.83405e-05 5.09541e-07
-5.09553e-06 5.09541e-07 -1.53529e-05
0.00235926 -0.000281461 -4.11852e-06
-0.000281461 7.41581e-05 1.14696e-06
-4.11852e-06 1.14696e-06 5.68033e-05
0.00226401 -0.000172194 4.45021e-07
-0.000172194 -7.57878e-05 -3.44824e-07
4.45021e-07 -3.44824e-07 -1.79293e-05
0.00239214 -0.00043365 -1.68543e-06
-0.00043365 -5.29538e-05 -2.65408e-07
-1.68543e-06 -2.65408e-07 -3.24304e-05
0.00257259 -0.00106801 4.20642e-06
-0.00106801 0.000977014 -8.24426e-06
4.20642e-06 -8.24426e-06 0.000249079
0.00230305 -0.0012136 8.77217e-06
-0.0012136 0.00048993 -1.70954e-06
8.77217e-06 -1.70954e-06 -0.000227016
0.00269726 -0.00109632 -1.03019e-05
-0.00109632 0.000561225 1.09347e-06
-1.03019e-05 1.09347e-06 1.64396e-05
0.00253094 -0.000679637 -2.95585e-06
-0.000679637 0.000144579 1.15511e-06
-2.95585e-06 1.15511e-06 3.41526e-05
0.00253641 -0.000588772 1.8119e-06
-0.000588772 -1.51125e-05 -6.49876e-07
1.8119e-06 -6.49876e-07 -5.37488e-06
0.00266359 -0.000871668 -4.8332e-06
-0.000871668 0.00015216 1.55307e-06
-4.8332e-06 1.55307e-06 2.9019e-05
0.00268886 -0.000981405 -3.68025e-06
-0.000981405 0.00046639 3.47044e-06
-3.68025e-06 3.47044e-06 0.000102041
0.00261818 -0.000978107 -2.54853e-08
-0.000978107 0.000183386 6.51666e-08
-2.54853e-08 6.51666e-08 -2.57047e-05
0.0022901 -0.00114344 -2.08452e-05
-0.00114344 0.00105109 -7.6112e-06
-2.08452e-05 -7.6112e-06 0.000217832
0.00176877 -0.00097178 1.55524e-05
-0.00097178 0.000831057 -1.61188e-05
1.55524e-05 -1.61188e-05 3.2709e-05
-0.000703938 -0.000318256 -1.84194e-05
-0.000318256 -0.000588794 -7.90225e-06
-1.84194e-05 -7.90225e-06 -0.00115442
0.000392407 -0.000114913 -6.30401e-06
-0.000114913 4.07828e-05 2.3885e-06
-6.30401e-06 2.3885e-06 -0.0002545
0.00301699 5.19792e-06 5.35924e-07
5.19792e-06 0.00174531 -1.5284e-06
5.35924e-07 -1.5284e-06 0.00133637
0.00231872 -0.000117782 1.73008e-07
-0.000117782 -6.82488e-05 -8.10307e-08
1.73008e-07 -8.10307e-08 3.41051e-06
0.00238748 -0.000265588 1.79134e-06
-0.000265588 -7.69015e-05 -6.68918e-08
1.79134e-06 -6.68918e-08 -8.86537e-06
0.00256579 -0.000523628 -1.06564e-06
-0.000523628 -9.35091e-05 1.45228e-07
-1.06564e-06 1.45228e-07 -1.87227e-05
0.00267043 -0.00135306 -2.00014e-06
-0.00135306 0.00103642 -5.77871e-09
-2.00014e-06 -5.77871e-09 0.000184958
0.00197679 -0.00121095 5.33472e-06
-0.00121095 0.000324371 -4.1749e-07
5.33472e-06 -4.1749e-07 -0.000394798
0.00283188 -0.00115724 -1.5574e-06
-0.00115724 0.000635373 -6.73711e-07
-1.5574e-06 -6.73711e-07 8.80473e-05
0.00258262 -0.000713774 2.50174e-07
-0.000713774 3.91883e-05 -3.81735e-07
2.50174e-07 -3.81735e-07 -6.16744e-06
0.00266528 -0.00103343 5.57258e-06
-0.00103343 0.000330531 -2.85826e-06
5.57258e-06 -2.85826e-06 1.38287e-05
0.00278685 -0.000988742 -6.20706e-07
-0.000988742 0.000155785 -6.13844e-07
-6.20706e-07 -6.13844e-07 9.87123e-06
-0.000434086 -2.81074e-05 -3.45896e-06
-2.81074e-05 -0.00048335 -6.46628e-08
-3.45896e-06 -6.46628e-08 -0.000720496
0.00218962 -0.00122315 8.4231e-07
-0.00122315 0.000993891 -5.60022e-07
8.4231e-07 -5.60022e-07 0.000114228
0.00234834 -0.00115172 -5.4994e-06
-0.00115172 0.00115008 3.85477e-06
-5.4994e-06 3.85477e-06 0.000238947
0.00216184 -0.000769638 3.95132e-06
-0.000769638 0.00118028 2.52822e-06
3.95132e-06 2.52822e-06 0.000504213
0.000671044 -0.000310317 -2.67633e-06
-0.000310317 0.000190607 -7.31555e-08
-2.67633e-06 -7.31555e-08 -0.000236459
0.00166207 -0.000201365 -3.40241e-06
-0.000201365 0.000904877 3.2126e-06
-3.40241e-06 3.2126e-06 0.000459697
0.00241505 -0.000151205 -1.63591e-06
-0.000151205 -0.000137944 3.10006e-07
-1.63591e-06 3.10006e-07 -1.64147e-05
0.00257391 -0.000350058 1.53171e-06
-0.000350058 -0.00017302 1.76023e-07
1.53171e-06 1.76023e-07 -9.25263e-06
0.00270076 -0.000661938 5.28149e-07
-0.000661938 -6.93314e-05 6.45859e-07
5.28149e-07 6.45859e-07 1.53786e-05
0.00273067 -0.000858881 7.71227e-07
-0.000858881 5.58923e-06 7.3337e-07
7.71227e-07 7.3337e-07 5.01609e-06
0.00272291 -0.00142947 -6.80302e-06
-0.00142947 0.00108798 7.60908e-06
-6.80302e-06 7.60908e-06 0.000207767
0.00279121 -0.00113662 -3.69882e-07
-0.00113662 0.000246384 -7.61078e-06
-3.69882e-07 -7.61078e-06 -2.71605e-05
0.00289424 -0.0014696 -4.71636e-05
-0.0014696 0.000899069 1.09492e-05
-4.71636e-05 1.09492e-05 9.25158e-05
0.00254821 -0.00120443 -3.19211e-05
-0.00120443 0.000459584 -2.61364e-07
-3.19211e-05 -2.61364e-07 -7.66025e-05
-0.000876481 -6.07452e-06 -1.88549e-06
-6.07452e-06 -0.000799794 -8.185e-08
-1.88549e-06 -8.185e-08 -0.000954482
0.00136474 -0.000224923 -3.15051e-06
-0.000224923 0.00085823 6.4491e-06
-3.15051e-06 6.4491e-06 0.000435808
0.00321058 -0.000519477 -1.55381e-05
-0.000519477 0.00190683 8.35569e-06
-1.55381e-05 8.35569e-06 0.00148203
0.000458702 -0.000370754 -1.63445e-07
-0.000370754 7.40446e-05 -5.19289e-06
-1.63445e-07 -5.19289e-06 -0.00036284
0.00280854 -0.0013057 -2.00724e-05
-0.0013057 0.00137375 2.73148e-05
-2.00724e-05 2.73148e-05 0.000465386
0.00220136 -0.00108781 -1.77979e-05
-0.00108781 0.00110782 2.17472e-05
-1.77979e-05 2.17472e-05 0.00017906
0.000215538 0.000158438 1.9994e-06
0.000158438 -4.02001e-05 -1.0747e-05
1.9994e-06 -1.0747e-05 -0.000310571
0.000108576 0.000199462 -3.09068e-06
0.000199462 -9.63749e-05 -5.1202e-06
-3.09068e-06 -5.1202e-06 -0.000483547
0.00254752 0.000689354 -1.22179e-06
0.000689354 0.000106172 -9.58234e-07
-1.22179e-06 -9.58234e-07 5.06892e-06
0.000205829 0.00025762 -9.2859e-06
0.00025762 -0.000424068 6.8617e-06
-9.2859e-06 6.8617e-06 -0.000744203
0.00206107 0.00109222 7.97913e-06
0.00109222 0.000955574 -9.18859e-08
7.97913e-06 -9.18859e-08 0.000134931
0.000581604 0.000570479 -1.65787e-05
0.000570479 -0.000344864 -4.45605e-06
-1.65787e-05 -4.45605e-06 -0.00082011
0.00268829 0.000977378 3.75535e-06
0.000977378 0.000352712 -1.5895e-06
3.75535e-06 -1.5895e-06 -3.73224e-06
0.00277351 0.000966985 -3.75373e-06
0.000966985 0.000244791 -1.12142e-06
-3.75373e-06 -1.12142e-06 3.46488e-05
0.00274162 0.00155584 -9.22154e-06
0.00155584 0.00115131 1.76767e-06
-9.22154e-06 1.76767e-06 0.00019989
0.00250626 0.00129992 -1.16327e-05
0.00129992 0.0005374 3.13575e-07
-1.16327e-05 3.13575e-07 -0.000138554
0.000787854 0.000325718 1.50328e-07
0.000325718 0.000371303 -6.36459e-07
1.50328e-07 -6.36459e-07 -3.65499e-07
0.00131046 0.000459094 -2.05503e-06
0.000459094 0.00065994 -6.98464e-06
-2.05503e-06 -6.98464e-06 0.000204206
0.00164153 0.00110198 -3.50327e-06
0.00110198 0.000684952 -1.40841e-06
-3.50327e-06 -1.40841e-06 -0.000102368
0.0017466 0.000605613 8.46679e-07
0.000605613 0.000358298 2.03034e-06
8.46679e-07 2.03034e-06 -6.60805e-05
0.00353878 0.00116332 -3.07277e-06
0.00116332 0.00146045 9.96923e-07
-3.07277e-06 9.96923e-07 0.000811908
0.00275959 0.000825758 -2.50135e-06
0.000825758 4.38112e-05 -4.40811e-07
-2.50135e-06 -4.40811e-07 7.22e-06
0.00280183 0.00100084 2.76618e-06
0.00100084 0.000383453 -1.03441e-06
2.76618e-06 -1.03441e-06 2.04684e-05
0.00276476 0.000937923 5.62467e-07
0.000937923 0.00021233 2.6656e-06
5.62467e-07 2.6656e-06 -2.83362e-05
0.00265651 0.00156173 7.23032e-06
0.00156173 0.0010043 2.16115e-06
7.23032e-06 2.16115e-06 7.45269e-05
0.00285309 0.00161628 -5.68299e-06
0.00161628 0.000802598 1.78515e-06
-5.68299e-06 1.78515e-06 -3.65729e-05
-0.0017499 0.000157754 -1.02177e-05
0.000157754 -0.0012779 -4.27546e-06
-1.02177e-05 -4.27546e-06 -0.00156394
-0.00168199 0.000552007 2.37565e-06
0.000552007 -0.000862312 -9.71249e-06
2.37565e-06 -9.71249e-06 -0.00154384
0.0023485 0.00125536 1.58211e-05
0.00125536 0.000944236 -3.21068e-07
1.58211e-05 -3.21068e-07 0.000157868
0.00338127 0.000927624 6.83196e-06
0.000927624 0.00129026 -7.54326e-06
6.83196e-06 -7.54326e-06 0.00078811
0.00290471 0.000744248 2.86102e-06
0.000744248 -0.000223147 3.42677e-06
2.86102e-06 3.42677e-06 -1.15354e-05
0.00280642 0.00101557 7.30557e-06
0.00101557 5.93853e-05 2.23565e-06
7.30557e-06 2.23565e-06 -4.71455e-05
0.00307248 0.00132434 1.24431e-05
0.00132434 0.000581056 -4.70787e-06
1.24431e-05 -4.70787e-06 -2.11962e-05
0.0026289 0.00167607 1.4999e-05
0.00167607 0.000758681 8.90032e-07
1.4999e-05 8.90032e-07 -0.000196934
0.00188431 0.000322829 9.97597e-06
0.000322829 0.00114524 9.29566e-07
9.97597e-06 9.29566e-07 0.000797023
0.000145779 0.000251866 -4.90494e-06
0.000251866 1.09471e-05 2.31569e-06
-4.90494e-06 2.31569e-06 -0.000239382
-0.000280886 0.0001027 1.27908e-07
0.0001027 -0.000221696 -1.09416e-05
1.27908e-07 -1.09416e-05 -0.000383429
-0.000351866 2.40877e-05 6.30177e-06
2.40877e-05 -0.000369508 1.28315e-06
6.30177e-06 1.28315e-06 -0.000572268
-0.00283408 4.4386e-06 4.49354e-06
4.4386e-06 -0.00180167 -2.70484e-06
4.49354e-06 -2.70484e-06 -0.00209385
0.000733635 0.000102829 -1.29694e-06
0.000102829 0.000330531 -4.26028e-07
-1.29694e-06 -4.26028e-07 0.000152428
0.00070771 0.000271485 1.07549e-05
0.000271485 0.000497111 3.64132e-06
1.07549e-05 3.64132e-06 0.000239205
0.000720421 0.000108779 1.6962e-06
0.000108779 0.000456305 2.72305e-06
1.6962e-06 2.72305e-06 0.000163132
0.00145899 0.000228019 -9.75136e-06
0.000228019 0.000769622 -1.30948e-05
-9.75136e-06 -1.30948e-05 0.000641163
0.000630822 7.64779e-05 -7.85895e-06
7.64779e-05 0.000419866 -1.45064e-07
-7.85895e-06 -1.45064e-07 0.000134799
-0.000228889 8.29007e-05 -7.12773e-06
8.29007e-05 -0.000244194 3.92716e-06
-7.12773e-06 3.92716e-06 -0.000465776
0.00091188 0.000177613 -9.59478e-08
0.000177613 0.00044009 1.88486e-06
-9.59478e-08 1.88486e-06 0.000260195
0.000474957 0.000112762 2.57919e-06
0.000112762 0.000106141 4.05513e-06
2.57919e-06 4.05513e-06 -1.30551e-05
0.000417843 2.59216e-05 -2.05538e-06
2.59216e-05 5.65894e-05 -5.60232e-07
-2.05538e-06 -5.60232e-07 -5.21665e-05
0.00134843 3.4611e-05 6.84296e-07
3.4611e-05 0.000634584 3.53392e-06
6.84296e-07 3.53392e-06 0.000600404
0.000301786 -5.12822e-05 4.06266e-06
-5.12822e-05 -2.41176e-05 -1.86332e-06
4.06266e-06 -1.86332e-06 -0.000128332
0.00144227 1.6056e-05 -1.57805e-05
1.6056e-05 0.000695566 -2.21405e-06
-1.57805e-05 -2.21405e-06 0.000659813
0.00070306 2.8688e-06 4.94002e-05
2.8688e-06 0.000192794 1.20396e-05
4.94002e-05 1.20396e-05 0.000192413
0.00148196 -3.70144e-05 -1.55682e-05
-3.70144e-05 0.000718419 -1.02977e-05
-1.55682e-05 -1.02977e-05 0.000681216
0.00072552 -1.71238e-05 2.45104e-05
-1.71238e-05 0.000203008 4.74932e-06
2.45104e-05 4.74932e-06 0.000196324
0.000653175 -3.55852e-05 6.71368e-06
-3.55852e-05 0.000159364 -5.87366e-06
6.71368e-06 -5.87366e-06 0.000142641
0.000421279 1.27058e-05 4.17536e-06
1.27058e-05 1.11562e-06 -1.05576e-05
4.17536e-06 -1.05576e-05 -5.30017e-05
0.000296406 1.77396e-05 -1.62707e-06
1.77396e-05 -5.81101e-05 5.96465e-07
-1.62707e-06 5.96465e-07 -0.000147526
0.00343316 0.000191035 -2.56177e-05
0.000191035 0.00205494 -1.3514e-05
-2.56177e-05 -1.3514e-05 0.00202608
-0.000779948 -7.92602e-05 -2.18098e-05
-7.92602e-05 -0.000774377 7.27529e-06
-2.18098e-05 7.27529e-06 -0.000877106
0.00464248 0.000166365 -2.87738e-05
0.000166365 0.00286108 -1.58778e-06
-2.87738e-05 -1.58778e-06 0.00283169
0.00443646 6.46553e-05 -0.000161192
6.46553e-05 0.00273981 3.07403e-05
-0.000161192 3.07403e-05 0.00273456
0.00251635 0.000532718 7.66408e-07
0.000532718 1.98371e-05 6.68115e-07
7.66408e-07 6.68115e-07 -6.1292e-07
0.0023825 0.000257276 3.06616e-09
0.000257276 -3.29402e-05 7.56166e-10
3.06616e-09 7.56166e-10 9.86078e-06
0.00254447 0.000384063 1.13854e-06
0.000384063 -8.80698e-05 1.83522e-06
1.13854e-06 1.83522e-06 6.8147e-06
0.00239429 0.0001961 1.62874e-06
0.0001961 -0.000148753 3.68391e-07
1.62874e-06 3.68391e-07 -1.37634e-05
0.00232618 8.05269e-05 7.51691e-07
8.05269e-05 -6.51054e-05 3.36542e-07
7.51691e-07 3.36542e-07 2.6779e-06
0.00219099 -1.48346e-05 -5.18151e-06
-1.48346e-05 -3.37664e-05 1.99712e-07
-5.18151e-06 1.99712e-07 -1.3665e-05
0.00231773 -1.57688e-05 5.48573e-07
-1.57688e-05 -7.07232e-05 -2.85133e-08
5.48573e-07 -2.85133e-08 2.7381e-06
0.00244012 0.000101624 4.26615e-07
0.000101624 -0.000133848 1.88829e-07
4.26615e-07 1.88829e-07 1.91848e-06
0.00251385 0.000274868 6.96475e-07
0.000274868 -0.000112468 -5.77935e-09
6.96475e-07 -5.77935e-09 1.57017e-05
0.00264411 0.000523557 4.57019e-07
0.000523557 -9.97377e-05 2.6225e-07
4.57019e-07 2.6225e-07 1.48338e-06
0.00244057 -1.48605e-05 -1.89935e-06
-1.48605e-05 -0.000135612 -1.9471e-07
-1.89935e-06 -1.9471e-07 -4.99671e-06
0.00259253 0.000171069 9.90766e-08
0.000171069 -0.000160726 -8.53649e-07
9.90766e-08 -8.53649e-07 4.41637e-05
0.00274518 0.000370372 2.06291e-06
0.000370372 -0.000161384 -2.57631e-08
2.06291e-06 -2.57631e-08 2.78871e-05
0.00231503 -0.000125562 1.0715e-06
-0.000125562 -6.77313e-05 -2.89078e-07
1.0715e-06 -2.89078e-07 1.99817e-06
0.00239191 -0.000265959 -4.49589e-07
-0.000265959 -7.52507e-05 -3.07445e-07
-4.49589e-07 -3.07445e-07 -9.34015e-06
0.00253464 -0.000516606 -7.39353e-07
-0.000516606 -9.54032e-05 -4.43705e-08
-7.39353e-07 -4.43705e-08 -3.28677e-05
0.00265462 -0.0013356 -2.68526e-06
-0.0013356 0.00102042 -1.14094e-06
-2.68526e-06 -1.14094e-06 0.000174047
0.00204305 -0.0011958 7.83904e-06
-0.0011958 0.000369183 -4.4079e-06
7.83904e-06 -4.4079e-06 -0.000340897
0.00269022 -0.00114476 1.95329e-06
-0.00114476 0.000547395 1.15337e-06
1.95329e-06 1.15337e-06 -2.54086e-06
0.00258843 -0.000704394 -1.34652e-06
-0.000704394 4.87046e-05 2.2357e-07
-1.34652e-06 2.2357e-07 2.02797e-06
0.00279873 -0.000977887 -1.99087e-06
-0.000977887 0.000185674 2.15409e-06
-1.99087e-06 2.15409e-06 4.75162e-05
0.00269593 -0.00105558 7.11698e-06
-0.00105558 0.000330285 -2.069e-06
7.11698e-06 -2.069e-06 1.09014e-05
0.00198142 -0.00118616 1.44623e-06
-0.00118616 0.000864015 -1.08816e-05
1.44623e-06 -1.08816e-05 -3.45999e-06
0.00216146 -0.00116237 2.33634e-05
-0.00116237 0.00104821 -2.66283e-05
2.33634e-05 -2.66283e-05 0.000108767
0.000193326 -0.000744958 -1.02614e-05
-0.000744958 3.98851e-05 -8.47296e-06
-1.02614e-05 -8.47296e-06 -0.000703502
5.31093e-05 1.11839e-05 5.94191e-06
1.11839e-05 -0.000127243 -7.33547e-06
5.94191e-06 -7.33547e-06 -0.000388035
0.00283614 -0.000418349 1.12975e-05
-0.000418349 0.00151044 -5.74271e-06
1.12975e-05 -5.74271e-06 0.00111408
-0.000941391 4.56271e-05 9.39662e-06
4.56271e-05 -0.000827316 1.75443e-06
9.39662e-06 1.75443e-06 -0.00125587
0.00244242 -0.000142002 -3.24454e-07
-0.000142002 -0.000118975 1.38196e-07
-3.24454e-07 1.38196e-07 -1.66763e-06
0.00256848 -0.000366061 7.78033e-08
-0.000366061 -0.000184396 -4.67894e-07
7.78033e-08 -4.67894e-07 -1.54433e-05
0.00268446 -0.000645837 -3.14347e-07
-0.000645837 -7.33196e-05 -1.27291e-07
-3.14347e-07 -1.27291e-07 1.09348e-05
0.0025894 -0.00140437 -1.76437e-06
-0.00140437 0.00100161 5.31686e-07
-1.76437e-06 5.31686e-07 0.000128536
0.00239251 -0.00138638 1.02635e-05
-0.00138638 0.000607711 -3.29344e-06
1.02635e-05 -3.29344e-06 -0.000171435
0.00264698 -0.00120272 -6.79193e-07
-0.00120272 0.000497308 -1.74772e-06
-6.79193e-07 -1.74772e-06 -2.82764e-05
0.00272842 -0.000872836 5.98993e-07
-0.000872836 -6.05493e-07 -4.90955e-07
5.98993e-07 -4.90955e-07 -1.04219e-05
0.00283065 -0.00112944 2.31075e-06
-0.00112944 0.00028236 -1.70284e-06
2.31075e-06 -1.70284e-06 1.58508e-05
-0.000107571 2.86787e-05 -2.03457e-08
2.86787e-05 -0.000277779 -6.15545e-06
-2.03457e-08 -6.15545e-06 -0.000439704
0.000526802 -0.000174886 -1.75158e-06
-0.000174886 0.000285776 2.50758e-07
-1.75158e-06 2.50758e-07 -0.000107902
0.00187327 -0.00117766 -8.75849e-06
-0.00117766 0.000800965 4.25834e-07
-8.75849e-06 4.25834e-07 -6.65085e-05
0.00122615 -0.000890857 1.58616e-06
-0.000890857 0.00054631 2.28632e-06
1.58616e-06 2.28632e-06 -0.000352125
0.00189682 -0.000390688 -2.96245e-06
-0.000390688 0.000938522 -7.44172e-06
-2.96245e-06 -7.44172e-06 0.000497325
0.000905637 -0.000377697 2.49657e-06
-0.000377697 0.000414059 -2.40633e-06
2.49657e-06 -2.40633e-06 -1.15771e-05
0.00253727 -0.000192065 1.89825e-06
-0.000192065 -0.000218863 7.30091e-07
1.89825e-06 7.30091e-07 -7.61122e-06
0.00281339 -0.000538614 3.52346e-06
-0.000538614 -0.00020205 3.76115e-07
3.52346e-06 3.76115e-07 3.84981e-05
0.00273044 -0.000810589 1.97428e-06
-0.000810589 -0.000128561 1.09255e-06
1.97428e-06 1.09255e-06 -3.9019e-05
0.00297409 -0.00112731 4.67331e-06
-0.00112731 0.000188384 -1.37298e-07
4.67331e-06 -1.37298e-07 5.19658e-05
0.00239653 -0.00143999 -3.82779e-06
-0.00143999 0.000919562 -4.53781e-06
-3.82779e-06 -4.53781e-06 5.83697e-05
0.00314166 -0.00144609 2.77201e-06
-0.00144609 0.000624555 -1.47196e-05
2.77201e-06 -1.47196e-05 0.000121504
0.00233526 -0.00149097 -5.70375e-05
-0.00149097 0.0005673 3.3703e-06
-5.70375e-05 3.3703e-06 -0.000246424
0.000411457 3.01314e-05 1.50631e-06
3.01314e-05 3.59212e-05 -5.53187e-06
1.50631e-06 -5.53187e-06 -7.6341e-05
0.0006277 -0.000191941 5.70495e-06
-0.000191941 0.000270145 -6.30647e-06
5.70495e-06 -6.30647e-06 7.89601e-05
-0.0013855 6.36014e-06 -8.5872e-06
6.36014e-06 -0.000981541 3.97748e-06
-8.5872e-06 3.97748e-06 -0.00127231
0.00109488 -0.000354668 -1.15859e-05
-0.000354668 0.000728307 1.50564e-05
-1.15859e-05 1.50564e-05 0.000292889
0.00399857 -0.000151598 -1.41579e-05
-0.000151598 0.00239664 -9.50498e-07
-1.41579e-05 -9.50498e-07 0.00206069
-0.000401252 -0.000341327 -6.04014e-06
-0.000341327 -0.0003999 1.09549e-06
-6.04014e-06 1.09549e-06 -0.00107906
0.00246977 -0.00135105 -4.28501e-05
-0.00135105 0.0010559 4.94403e-05
-4.28501e-05 4.94403e-05 0.000154568
0.0037026 -0.00128379 -5.08398e-05
-0.00128379 0.00209289 3.52841e-05
-5.08398e-05 3.52841e-05 0.000991867
0.000639644 0.000163659 7.66153e-06
0.000163659 0.000253955 -3.67221e-06
7.66153e-06 -3.67221e-06 -9.59994e-05
0.00211389 0.000591369 6.2919e-06
0.000591369 0.00119414 2.08006e-05
6.2919e-06 2.08006e-05 0.000690178
0.00280773 0.000839208 -7.80341e-07
0.000839208 5.55657e-05 -1.33707e-06
-7.80341e-07 -1.33707e-06 1.06841e-05
0.00209733 0.000457581 -9.3343e-06
0.000457581 0.000428636 -6.32864e-06
-9.3343e-06 -6.32864e-06 5.45169e-05
0.00161801 0.00107482 9.95662e-07
0.00107482 0.000679695 -4.06023e-06
9.95662e-07 -4.06023e-06 -0.000103265
0.0038818 0.00116259 -1.144e-06
0.00116259 0.00168788 9.20028e-06
-1.144e-06 9.20028e-06 0.00104293
0.00285057 0.000956602 -5.21926e-06
0.000956602 0.000425327 -2.40286e-06
-5.21926e-06 -2.40286e-06 9.10222e-05
0.00312188 0.000966006 -3.15337e-06
0.000966006 0.000463875 5.7421e-06
-3.15337e-06 5.7421e-06 0.000213576
0.00245286 0.00155218 -1.17325e-05
0.00155218 0.000867949 -2.68801e-06
-1.17325e-05 -2.68801e-06 -6.58909e-05
0.00266687 0.00168347 -2.31532e-05
0.00168347 0.00069782 -2.30054e-06
-2.31532e-05 -2.30054e-06 -0.000188282
-0.00131764 0.000233483 -4.57322e-07
0.000233483 -0.000951816 -4.47408e-07
-4.57322e-07 -4.47408e-07 -0.00130023
-0.000794144 0.000544586 4.32198e-06
0.000544586 -0.000339152 1.25179e-07
4.32198e-06 1.25179e-07 -0.000992867
0.00212451 0.0012587 4.93617e-07
0.0012587 0.000739296 -7.04731e-07
4.93617e-07 -7.04731e-07 -6.10574e-05
0.00304868 0.000886127 -8.66765e-06
0.000886127 0.00118736 -9.83708e-07
-8.66765e-06 -9.83708e-07 0.000673112
0.0028326 0.000704908 -6.39698e-08
0.000704908 -0.000308163 4.86493e-09
-6.39698e-08 4.86493e-09 -6.69989e-05
0.00296522 0.00101764 3.28766e-06
0.00101764 0.00016147 -1.14399e-06
3.28766e-06 -1.14399e-06 2.61479e-05
0.00283261 0.00127185 -4.67277e-06
0.00127185 0.000495369 -6.10153e-07
-4.67277e-06 -6.10153e-07 -8.63864e-05
0.00284925 0.00166887 1.89373e-06
0.00166887 0.000886254 1.18197e-06
1.89373e-06 1.18197e-06 -5.00743e-05
-0.00128815 2.40136e-05 -6.31228e-06
2.40136e-05 -0.000899629 -4.65254e-06
-6.31228e-06 -4.65254e-06 -0.00114214
0.00281908 0.000488976 4.15684e-06
0.000488976 -0.000358002 3.40216e-06
4.15684e-06 3.40216e-06 -5.3425e-05
0.00345546 0.000986608 -6.59731e-06
0.000986608 0.00225012 8.31105e-06
-6.59731e-06 8.31105e-06 0.0015429
0.0022163 0.0010998 9.72883e-06
0.0010998 0.000735654 -2.94872e-06
9.72883e-06 -2.94872e-06 3.12927e-05
0.00297957 0.00101287 -2.26109e-05
0.00101287 -7.01111e-05 -1.28459e-05
-2.26109e-05 -1.28459e-05 4.31994e-05
0.00209806 0.00121123 7.36103e-06
0.00121123 -6.91978e-05 -1.19451e-05
7.36103e-06 -1.19451e-05 -0.000576643
0.00379834 0.00183154 9.47758e-06
0.00183154 0.00137794 4.16624e-06
9.47758e-06 4.16624e-06 0.000404962
0.000604223 0.000241138 4.94131e-06
0.000241138 0.00033851 1.03429e-05
4.94131e-06 1.03429e-05 5.10035e-05
0.000644423 0.000201042 -4.11195e-06
0.000201042 0.00038439 1.77836e-07
-4.11195e-06 1.77836e-07 0.000204291
-0.00148494 3.63414e-05 -9.29466e-06
3.63414e-05 -0.000973707 -2.17668e-06
-9.29466e-06 -2.17668e-06 -0.00110607
-6.76197e-05 5.13629e-06 4.54685e-06
5.13629e-06 -0.000215185 6.86925e-07
4.54685e-06 6.86925e-07 -0.000373915
0.000456029 0.000146691 8.01342e-06
0.000146691 0.000270627 -1.0202e-05
8.01342e-06 -1.0202e-05 -1.30094e-05
-0.00103226 0.0001431 -8.03685e-06
0.0001431 -0.000612438 9.24166e-06
-8.03685e-06 9.24166e-06 -0.000835303
0.000474521 4.74083e-05 -1.84938e-06
4.74083e-05 0.000146591 -6.63293e-07
-1.84938e-06 -6.63293e-07 -2.4882e-05
0.000194182 2.57627e-05 6.65136e-07
2.57627e-05 5.65261e-05 -9.27608e-07
6.65136e-07 -9.27608e-07 -0.000182496
-0.000204935 0.000113218 -3.00687e-06
0.000113218 -0.000212437 2.39603e-06
-3.00687e-06 2.39603e-06 -0.000334806
0.00066605 0.000182791 3.35137e-06
0.000182791 0.00044756 -4.12632e-06
3.35137e-06 -4.12632e-06 0.00015595
0.00123062 0.000210406 -5.75264e-06
0.000210406 0.000704757 -1.09443e-05
-5.75264e-06 -1.09443e-05 0.000604778
0.000215116 0.000107672 8.51403e-07
0.000107672 6.77574e-05 -1.40999e-05
8.51403e-07 -1.40999e-05 -8.65924e-05
0.00117309 9.1382e-05 -6.84262e-06
9.1382e-05 0.000752826 5.03865e-06
-6.84262e-06 5.03865e-06 0.000464756
0.000618065 6.25524e-05 -6.37644e-06
6.25524e-05 0.000297229 1.02192e-06
-6.37644e-06 1.02192e-06 5.8653e-05
0.000543585 5.33248e-05 3.25402e-08
5.33248e-05 0.000167925 2.37912e-06
3.25402e-08 2.37912e-06 1.1365e-06
0.000419688 -9.51274e-05 -3.15731e-06
-9.51274e-05 5.64233e-05 3.53199e-06
-3.15731e-06 3.53199e-06 -5.56543e-05
0.000414422 1.64328e-05 9.82836e-07
1.64328e-05 4.58676e-05 -5.15092e-07
9.82836e-07 -5.15092e-07 -6.03553e-05
0.0013774 3.92936e-05 4.46394e-06
3.92936e-05 0.000657052 4.49719e-06
4.46394e-06 4.49719e-06 0.000623847
0.000400503 1.61586e-05 2.78162e-06
1.61586e-05 2.52797e-05 -2.44316e-06
2.78162e-06 -2.44316e-06 -7.00466e-05
0.00143535 2.30976e-05 -1.47538e-05
2.30976e-05 0.000695808 -2.29661e-06
-1.47538e-05 -2.29661e-06 0.000660722
0.000818582 8.12127e-06 4.4204e-05
8.12127e-06 0.000272758 1.08789e-05
4.4204e-05 1.08789e-05 0.000272887
0.00137592 -2.33254e-05 -1.41065e-05
-2.33254e-05 0.000649006 -8.96695e-06
-1.41065e-05 -8.96695e-06 0.000616869
0.000750605 -8.6254e-06 2.05821e-05
-8.6254e-06 0.000219894 4.6919e-06
2.05821e-05 4.6919e-06 0.000215981
0.000770365 -2.7397e-05 4.95505e-06
-2.7397e-05 0.000230325 -4.50683e-06
4.95505e-06 -4.50683e-06 0.000220899
0.000435431 -3.73616e-05 4.41722e-08
-3.73616e-05 3.6045e-05 -6.01178e-06
4.41722e-08 -6.01178e-06 -6.69917e-05
0.000160301 3.88637e-05 -7.84819e-07
3.88637e-05 -0.000151356 -9.63943e-06
-7.84819e-07 -9.63943e-06 -0.000205809
0.000218272 3.19948e-05 2.14129e-06
3.19948e-05 -0.00011785 1.33707e-06
2.14129e-06 1.33707e-06 -0.000180698
0.00370319 0.000143128 6.80841e-06
0.000143128 0.00221155 -8.95152e-06
6.80841e-06 -8.95152e-06 0.00219636
-2.92154e-05 -1.31993e-05 -3.77109e-06
-1.31993e-05 -0.000282843 1.04401e-05
-3.77109e-06 1.04401e-05 -0.000368331
0.00403069 0.000222912 -1.55116e-05
0.000222912 0.0024655 -2.30105e-06
-1.55116e-05 -2.30105e-06 0.00242795
0.00469021 0.000151709 -8.09661e-05
0.000151709 0.00289487 1.20658e-05
-8.09661e-05 1.20658e-05 0.0028717
0.00265514 0.000507106 5.71902e-07
0.000507106 -8.77028e-05 4.59181e-07
5.71902e-07 4.59181e-07 1.88588e-05
0.00250339 0.000280569 -5.16649e-07
0.000280569 -0.00012315 4.08781e-07
-5.16649e-07 4.08781e-07 4.24722e-06
0.00239814 0.000107472 1.47419e-06
0.000107472 -0.000154803 5.67289e-07
1.47419e-06 5.67289e-07 -1.94163e-05
0.00231972 -1.54085e-05 1.17921e-07
-1.54085e-05 -6.90174e-05 -3.63113e-08
1.17921e-07 -3.63113e-08 5.8596e-06
0.00244268 -1.12595e-05 -4.47521e-07
-1.12595e-05 -0.000137509 -8.56854e-08
-4.47521e-07 -8.56854e-08 -2.10488e-06
0.00254467 0.000170657 8.11234e-07
0.000170657 -0.00019338 2.20661e-07
8.11234e-07 2.20661e-07 1.39277e-05
0.00266809 0.000387697 -5.53589e-07
0.000387697 -0.000189967 1.71175e-08
-5.53589e-07 1.71175e-08 -3.24144e-06
0.00250778 -9.93179e-06 1.12133e-06
-9.93179e-06 -0.000255563 -1.63502e-07
1.12133e-06 -1.63502e-07 -2.88463e-05
0.0028225 0.000214752 3.45142e-06
0.000214752 -0.000213795 -1.65254e-06
3.45142e-06 -1.65254e-06 5.50818e-05
0.00266087 0.000229134 -1.53411e-06
0.000229134 -0.000500719 9.58122e-06
-1.53411e-06 9.58122e-06 -0.000157651
0.00246839 -0.000133631 1.27101e-06
-0.000133631 -0.000100355 -2.44177e-07
1.27101e-06 -2.44177e-07 1.29435e-05
0.00256403 -0.000383136 -2.23058e-06
-0.000383136 -0.000194402 2.15037e-07
-2.23058e-06 2.15037e-07 -2.1398e-05
0.00266268 -0.000630495 -3.69416e-07
-0.000630495 -7.9183e-05 3.6878e-07
-3.69416e-07 3.6878e-07 2.99886e-06
0.00249335 -0.00139299 -1.91984e-06
-0.00139299 0.000927036 -4.76321e-06
-1.91984e-06 -4.76321e-06 5.60634e-05
0.00208759 -0.0013513 2.75722e-05
-0.0013513 0.000425017 -4.42154e-06
2.75722e-05 -4.42154e-06 -0.000346138
0.00282705 -0.00122014 2.12045e-05
-0.00122014 0.000584137 -8.88111e-08
2.12045e-05 -8.88111e-08 6.16346e-05
0.00271365 -0.000883889 5.59779e-07
-0.000883889 -8.28888e-06 -1.2789e-06
5.59779e-07 -1.2789e-06 -2.99332e-05
0.00286478 -0.00111638 4.40978e-06
-0.00111638 0.000322246 5.27185e-06
4.40978e-06 5.27185e-06 6.2541e-05
0.00251139 -0.00127807 1.65692e-05
-0.00127807 0.00116795 -2.87603e-05
1.65692e-05 -2.87603e-05 0.000275309
-0.000354272 -0.000597731 2.35541e-05
-0.000597731 -0.00037386 -2.07604e-05
2.35541e-05 -2.07604e-05 -0.00124317
0.00300549 -0.000534683 6.88218e-06
-0.000534683 0.00162706 3.78952e-07
6.88218e-06 3.78952e-07 0.00118699
0.000760811 -7.9431e-05 -2.73678e-06
-7.9431e-05 0.000298716 9.17459e-06
-2.73678e-06 9.17459e-06 0.000142816
-0.000128712 -1.27442e-05 9.78218e-06
-1.27442e-05 -0.000189433 -9.50786e-06
9.78218e-06 -9.50786e-06 -0.000542009
-0.000657537 -0.000213482 7.18701e-06
-0.000213482 -0.000613969 -1.02204e-05
7.18701e-06 -1.02204e-05 -0.00103573
0.00255629 -0.00019336 1.45722e-07
-0.00019336 -0.000211122 -3.2691e-07
1.45722e-07 -3.2691e-07 4.14207e-06
0.000567339 -5.98345e-05 2.02924e-06
-5.98345e-05 0.000134816 4.38336e-07
2.02924e-06 4.38336e-07 1.48847e-05
0.00042888 -0.000124201 -4.03693e-06
-0.000124201 0.000108362 -3.57512e-07
-4.03693e-06 -3.57512e-07 -5.81787e-05
0.00274655 -0.000529611 6.54172e-09
-0.000529611 -0.000230115 1.20195e-07
6.54172e-09 1.20195e-07 -3.04874e-07
0.00275399 -0.000799279 -1.68519e-06
-0.000799279 -9.49929e-05 5.02076e-07
-1.68519e-06 5.02076e-07 -6.00021e-06
0.00260002 -0.00148992 -1.20319e-06
-0.00148992 0.00103552 2.41466e-06
-1.20319e-06 2.41466e-06 0.000145886
0.0032643 -0.0016652 1.05894e-05
-0.0016652 0.00106399 -3.03443e-06
1.05894e-05 -3.03443e-06 0.000205645
0.00299056 -0.00141149 3.84674e-06
-0.00141149 0.000558849 -8.78231e-07
3.84674e-06 -8.78231e-07 6.8572e-05
0.00285761 -0.00111901 2.4266e-06
-0.00111901 0.000117862 -1.23007e-06
2.4266e-06 -1.23007e-06 -9.54584e-06
5.52103e-05 -6.37194e-05 -3.24257e-06
-6.37194e-05 -4.22375e-05 -1.73891e-06
-3.24257e-06 -1.73891e-06 -0.000332825
0.000679743 -0.000256985 1.09655e-07
-0.000256985 0.000438826 6.55424e-07
1.09655e-07 6.55424e-07 1.48562e-05
0.00197567 -0.00120371 1.68141e-05
-0.00120371 0.000833817 6.28439e-06
1.68141e-05 6.28439e-06 -3.61115e-05
0.00185978 -0.001 1.71724e-05
-0.001 0.00103453 -1.87372e-05
1.71724e-05 -1.87372e-05 -1.60635e-05
0.00124743 -0.000438331 -3.24609e-06
-0.000438331 0.000665111 -2.12862e-07
-3.24609e-06 -2.12862e-07 1.94439e-05
0.000986856 -0.000296001 1.01694e-05
-0.000296001 0.00047321 -3.62774e-06
1.01694e-05 -3.62774e-06 0.000147988
0.00262119 -0.000244034 3.17505e-06
-0.000244034 -0.000471192 -1.76416e-06
3.17505e-06 -1.76416e-06 -0.000113921
0.00300768 -0.000717167 -1.0437e-07
-0.000717167 -0.00014781 3.94378e-06
-1.0437e-07 3.94378e-06 0.000125866
0.00317598 -0.00118332 1.81522e-06
-0.00118332 8.94367e-05 -1.69293e-06
1.81522e-06 -1.69293e-06 6.55109e-05
0.00277128 -0.00133308 6.96902e-06
-0.00133308 0.000218717 -5.7212e-06
6.96902e-06 -5.7212e-06 -9.69493e-05
0.000998579 -0.00130962 1.1661e-05
-0.00130962 0.000137768 -9.97954e-06
1.1661e-05 -9.97954e-06 -0.000720301
0.00387625 -0.00194788 -7.18831e-07
-0.00194788 0.0012262 -1.89051e-05
-7.18831e-07 -1.89051e-05 0.000348387
0.000496819 8.64486e-05 -4.9559e-06
8.64486e-05 0.000142179 -5.32454e-06
-4.9559e-06 -5.32454e-06 -2.27738e-05
-0.000953335 -9.34508e-05 3.90552e-06
-9.34508e-05 -0.000767852 1.91938e-07
3.90552e-06 1.91938e-07 -0.000958611
0.00182137 -0.000281512 -1.30134e-05
-0.000281512 0.00105989 1.72728e-05
-1.30134e-05 1.72728e-05 0.000834068
0.000269743 -9.97059e-05 -8.32337e-06
-9.97059e-05 0.000110798 1.92164e-05
-8.32337e-06 1.92164e-05 -0.000210363
0.00158365 -0.00042518 -1.75145e-05
-0.00042518 0.000990889 3.17048e-05
-1.75145e-05 3.17048e-05 0.000588537
-0.000631623 -0.000109429 -1.54803e-05
-0.000109429 -0.000618852 -1.71743e-05
-1.54803e-05 -1.71743e-05 -0.000881168
-0.000427208 -0.000651668 -2.80634e-05
-0.000651668 0.000197735 2.21177e-05
-2.80634e-05 2.21177e-05 -0.0010428
0.00151217 -0.00148584 -9.61955e-05
-0.00148584 0.000338728 3.22347e-05
-9.61955e-05 3.22347e-05 -0.000374628
-0.000502928 0.000500131 1.80829e-06
0.000500131 -0.000322257 4.28327e-06
1.80829e-06 4.28327e-06 -0.000733899
0.00416719 0.000795817 -6.51646e-06
0.000795817 0.00263657 2.65977e-06
-6.51646e-06 2.65977e-06 0.0021019
0.00275197 0.000663207 -4.18066e-06
0.000663207 -0.000383784 -3.95238e-06
-4.18066e-06 -3.95238e-06 -0.000118823
0.00311618 0.00101797 -5.56856e-06
0.00101797 0.000262129 -1.74976e-06
-5.56856e-06 -1.74976e-06 9.86246e-05
0.00374867 0.000868408 -9.0033e-06
0.000868408 0.00174206 9.09307e-07
-9.0033e-06 9.09307e-07 0.00124602
0.00165721 0.00122921 -1.44419e-05
0.00122921 0.000386334 -8.37757e-06
-1.44419e-05 -8.37757e-06 -0.000419274
0.00264483 0.00122337 -7.3981e-06
0.00122337 0.000440945 2.46472e-06
-7.3981e-06 2.46472e-06 -0.000121789
0.00308464 0.00165501 -1.94965e-05
0.00165501 0.00101881 -2.67783e-06
-1.94965e-05 -2.67783e-06 0.000103806
0.000185655 0.000387943 1.68034e-06
0.000387943 0.000165202 2.92497e-07
1.68034e-06 2.92497e-07 -0.000193183
0.00279945 0.000482743 -4.85445e-06
0.000482743 -0.000368864 -5.02218e-06
-4.85445e-06 -5.02218e-06 -4.68713e-05
0.0025214 0.000800643 2.35599e-06
0.000800643 0.00170993 5.66124e-06
2.35599e-06 5.66124e-06 0.00107955
0.0015863 0.000994141 3.13888e-06
0.000994141 0.000399531 2.57242e-06
3.13888e-06 2.57242e-06 -0.000277123
0.00304775 0.000970181 1.71013e-08
0.000970181 2.14034e-05 1.25756e-07
1.71013e-08 1.25756e-07 0.000136353
0.00258417 0.00129734 -3.99703e-06
0.00129734 0.000228145 -6.89474e-06
-3.99703e-06 -6.89474e-06 -0.000289427
0.0032703 0.00169916 -1.4496e-06
0.00169916 0.00109898 -6.21957e-07
-1.4496e-06 -6.21957e-07 0.000170425
0.00124476 0.000540077 -8.91787e-06
0.000540077 0.000963224 -5.14986e-06
-8.91787e-06 -5.14986e-06 0.000463073
0.00485372 0.00106144 -0.000150143
0.00106144 0.00059509 -5.96048e-05
-0.000150143 -5.96048e-05 0.00115506
0.000591408 0.000737703 -9.96729e-06
0.000737703 0.000354197 2.04262e-05
-9.96729e-06 2.04262e-05 -0.000305779
0.00175563 0.00114752 3.76303e-06
0.00114752 0.00054758 -1.06829e-05
3.76303e-06 -1.06829e-05 -0.000258978
0.00390653 0.00142124 -5.65857e-05
0.00142124 0.000812502 -2.53708e-05
-5.65857e-05 -2.53708e-05 0.000563907
0.0022867 0.00154935 -3.50706e-05
0.00154935 0.000524868 -9.36505e-06
-3.50706e-05 -9.36505e-06 -0.000318332
0.00115797 0.00233087 -6.27153e-06
0.00233087 -0.00388439 -7.0505e-05
-6.27153e-06 -7.0505e-05 -0.00157221
0.000894213 0.000294056 1.21415e-05
0.000294056 0.00060929 1.78127e-05
1.21415e-05 1.78127e-05 0.000404993
0.000222401 0.000202916 -3.8793e-06
0.000202916 0.00017855 -1.63197e-06
-3.8793e-06 -1.63197e-06 9.80328e-07
-0.000659068 0.000117887 -7.34902e-06
0.000117887 -0.000376956 4.42987e-07
-7.34902e-06 4.42987e-07 -0.000558708
0.000233803 -5.69095e-05 4.47194e-06
-5.69095e-05 -1.50858e-05 -1.7208e-06
4.47194e-06 -1.7208e-06 -0.000183572
-0.000448294 3.18674e-05 5.92491e-06
3.18674e-05 -0.000362027 -5.57605e-06
5.92491e-06 -5.57605e-06 -0.000596733
0.00196544 0.000358458 -4.4371e-07
0.000358458 0.0013039 -8.78047e-06
-4.4371e-07 -8.78047e-06 0.000990621
-0.00203246 -1.12319e-05 -1.02942e-05
-1.12319e-05 -0.00131306 1.19598e-05
-1.02942e-05 1.19598e-05 -0.00144124
0.000430699 -3.7504e-06 3.79946e-07
-3.7504e-06 0.000106411 -4.93259e-07
3.79946e-07 -4.93259e-07 -6.65881e-05
0.000396136 0.000102244 6.1079e-07
0.000102244 0.000111403 -3.1472e-07
6.1079e-07 -3.1472e-07 -8.76955e-05
-7.69834e-06 0.000143505 2.71241e-06
0.000143505 -5.62461e-05 3.58036e-06
2.71241e-06 3.58036e-06 -0.000134347
5.05151e-05 8.87018e-05 1.12908e-06
8.87018e-05 2.83232e-08 1.08704e-07
1.12908e-06 1.08704e-07 -0.00026528
0.000217512 0.000103829 1.23207e-06
0.000103829 8.1725e-05 2.44473e-06
1.23207e-06 2.44473e-06 -9.11742e-05
7.42576e-05 0.000116076 9.89123e-06
0.000116076 0.000144005 -1.83885e-05
9.89123e-06 -1.83885e-05 -3.47904e-05
0.000906107 0.000146824 -4.62707e-06
0.000146824 0.000562115 2.15185e-06
-4.62707e-06 2.15185e-06 0.000303891
0.000765121 0.000131791 -4.81265e-06
0.000131791 0.000416767 1.25491e-06
-4.81265e-06 1.25491e-06 0.00018454
0.000764926 0.000141891 -7.93905e-06
0.000141891 0.000365744 -5.36789e-06
-7.93905e-06 -5.36789e-06 0.000157874
3.22894e-05 7.62638e-08 -3.83762e-06
7.62638e-08 -0.000186831 -1.12807e-06
-3.83762e-06 -1.12807e-06 -0.000338294
0.00129007 -0.000236301 9.96185e-06
-0.000236301 0.00082814 -1.27401e-05
9.96185e-06 -1.27401e-05 0.000520753
0.000154301 -7.32678e-05 -2.68203e-06
-7.32678e-05 -8.179e-05 2.26128e-06
-2.68203e-06 2.26128e-06 -0.000253594
0.000278769 3.57194e-06 -2.92494e-06
3.57194e-06 -3.12007e-05 2.83603e-06
-2.92494e-06 2.83603e-06 -0.000143567
0.000385561 5.26334e-05 2.27292e-06
5.26334e-05 4.049e-05 -8.06071e-08
2.27292e-06 -8.06071e-08 -7.45731e-05
0.000291031 1.9248e-05 -4.00825e-06
1.9248e-05 -5.51857e-05 5.90973e-06
-4.00825e-06 5.90973e-06 -9.53836e-05
0.000254768 -3.49524e-06 -1.54499e-07
-3.49524e-06 -4.70106e-05 -4.16569e-06
-1.54499e-07 -4.16569e-06 -0.000161194
0.000841253 1.88111e-05 -5.7174e-06
1.88111e-05 0.000306566 -1.6853e-06
-5.7174e-06 -1.6853e-06 0.00026963
0.00282153 1.2661e-05 3.96155e-05
1.2661e-05 0.00160209 7.29545e-06
3.96155e-05 7.29545e-06 0.00161257
0.00143966 7.72881e-05 -2.49501e-05
7.72881e-05 0.000705754 -9.38065e-06
-2.49501e-05 -9.38065e-06 0.000668335
0.000756681 -5.29721e-07 1.91378e-05
-5.29721e-07 0.000227214 4.45545e-06
1.91378e-05 4.45545e-06 0.000225487
0.000775623 -1.73497e-05 4.02913e-06
-1.73497e-05 0.000232158 -3.53176e-06
4.02913e-06 -3.53176e-06 0.000226674
0.000255695 7.36012e-06 -3.56954e-06
7.36012e-06 -5.8615e-05 -7.27388e-06
-3.56954e-06 -7.27388e-06 -0.000159064
0.000605715 -7.13713e-05 5.79261e-07
-7.13713e-05 0.000164757 -4.33066e-07
5.79261e-07 -4.33066e-07 5.00542e-05
0.000291587 2.5143e-05 -1.03196e-06
2.5143e-05 -7.73762e-05 -7.32737e-06
-1.03196e-06 -7.32737e-06 -0.000118293
0.000981954 4.22611e-05 -1.24407e-07
4.22611e-05 0.000385473 2.21748e-08
-1.24407e-07 2.21748e-08 0.000336505
0.00312767 0.000113154 -7.24116e-06
0.000113154 0.00182101 -8.46353e-06
-7.24116e-06 -8.46353e-06 0.00181424
0.000435003 2.34773e-05 -1.31295e-06
2.34773e-05 3.00948e-05 1.07271e-05
-1.31295e-06 1.07271e-05 -3.65413e-05
0.00321219 0.000146645 -8.80303e-07
0.000146645 0.00188921 -3.01753e-08
-8.80303e-07 -3.01753e-08 0.00187331
0.00445491 0.000141231 -3.44247e-05
0.000141231 0.00271832 1.00708e-05
-3.44247e-05 1.00708e-05 0.00269587
0.00259929 0.000403294 -2.53288e-06
0.000403294 -0.000218425 -8.78172e-07
-2.53288e-06 -8.78172e-07 -3.1571e-05
0.00249042 0.00017016 -2.58296e-07
0.00017016 -0.00023329 8.80455e-07
-2.58296e-07 8.80455e-07 -2.20554e-05
0.00245127 -7.48087e-06 1.01917e-06
-7.48087e-06 -0.00013623 8.41166e-08
1.01917e-06 8.41166e-08 3.9059e-06
0.00248661 -7.63414e-07 -8.03817e-08
-7.63414e-07 -0.000269663 -1.35253e-07
-8.03817e-08 -1.35253e-07 -4.14749e-05
0.0027881 0.000227852 1.0888e-06
0.000227852 -0.000228761 3.76928e-07
1.0888e-06 3.76928e-07 4.14198e-05
0.00282482 0.000193917 6.11672e-06
0.000193917 -0.000390012 -4.54123e-06
6.11672e-06 -4.54123e-06 -6.02353e-05
0.00295244 7.22575e-05 3.48953e-06
7.22575e-05 -0.000287057 1.66423e-06
3.48953e-06 1.66423e-06 5.50311e-05
0.00689974 0.00263021 -2.11988e-06
0.00263021 -0.0019077 2.13243e-05
-2.11988e-06 2.13243e-05 0.000787836
0.00296086 0.000249667 -8.71566e-05
0.000249667 -0.000513828 1.27667e-05
-8.71566e-05 1.27667e-05 0.000129757
0.000340222 0.000124518 -4.54263e-06
0.000124518 3.94849e-05 -2.82324e-06
-4.54263e-06 -2.82324e-06 -0.0001175
0.00256925 -0.000192867 -1.62705e-06
-0.000192867 -0.000209955 -5.99474e-07
-1.62705e-06 -5.99474e-07 1.02316e-05
0.00268537 -0.000518011 -3.83863e-06
-0.000518011 -0.000252736 -6.25946e-07
-3.83863e-06 -6.25946e-07 -3.40512e-05
0.00279054 -0.000784839 3.4155e-07
-0.000784839 -5.26575e-05 -9.15131e-07
3.4155e-07 -9.15131e-07 3.80734e-05
0.00251316 -0.00148687 -8.64437e-06
-0.00148687 0.00100104 -5.27927e-07
-8.64437e-06 -5.27927e-07 0.000105934
0.00249324 -0.00153058 2.92762e-05
-0.00153058 0.000620516 4.77164e-06
2.92762e-05 4.77164e-06 -0.000191606
0.00284485 -0.00138277 -1.76854e-06
-0.00138277 0.000495611 1.40726e-05
-1.76854e-06 1.40726e-05 1.30163e-05
0.0027405 -0.0011162 -9.26547e-08
-0.0011162 4.13773e-05 -2.87691e-06
-9.26547e-08 -2.87691e-06 -7.82457e-05
0.00269451 -0.00126101 7.1849e-05
-0.00126101 0.00120841 -6.80433e-05
7.1849e-05 -6.80433e-05 0.000368905
0.00241762 -0.00111445 6.39619e-05
-0.00111445 0.00131036 -6.19169e-05
6.39619e-05 -6.19169e-05 0.00027658
-0.000526239 -0.000294177 2.32073e-05
-0.000294177 -0.000426499 6.31624e-06
2.32073e-05 6.31624e-06 -0.00109982
0.000515506 -2.52541e-05 1.77649e-07
-2.52541e-05 9.35574e-05 6.58327e-06
1.77649e-07 6.58327e-06 -3.15132e-05
0.00100186 -0.000338769 -3.92418e-06
-0.000338769 0.000493586 -5.54081e-07
-3.92418e-06 -5.54081e-07 0.000150602
0.00172957 -0.000179413 1.13426e-05
-0.000179413 0.00111898 -6.37604e-06
1.13426e-05 -6.37604e-06 0.00078111
-0.000232652 -0.000139611 6.05243e-06
-0.000139611 -0.000203483 -1.35977e-05
6.05243e-06 -1.35977e-05 -0.00059121
0.000549795 -0.000115757 -7.31759e-06
-0.000115757 0.000202924 4.06447e-06
-7.31759e-06 4.06447e-06 2.55575e-05
0.00272136 -0.000263537 -5.97539e-07
-0.000263537 -0.000397901 -9.27103e-07
-5.97539e-07 -9.27103e-07 -4.66186e-05
0.000551909 7.60392e-05 1.23377e-06
7.60392e-05 0.000193394 -2.12478e-06
1.23377e-06 -2.12478e-06 1.69711e-05
0.000791256 -0.000201132 2.14998e-06
-0.000201132 0.000459377 2.81226e-06
2.14998e-06 2.81226e-06 0.000205221
0.000746154 -0.000170598 1.03577e-05
-0.000170598 0.00034064 7.09427e-07
1.03577e-05 7.09427e-07 0.000145738
0.0028233 -0.000710671 2.84531e-06
-0.000710671 -0.000283194 -5.32298e-07
2.84531e-06 -5.32298e-07 -1.46608e-05
0.00309154 -0.00115067 -8.36e-07
-0.00115067 6.73467e-05 2.659e-07
-8.36e-07 2.659e-07 5.65275e-05
0.00250275 -0.00146587 -5.55223e-06
-0.00146587 0.000955189 2.36368e-06
-5.55223e-06 2.36368e-06 0.000120456
0.00259827 -0.00175184 1.13772e-05
-0.00175184 0.000525198 -1.12691e-06
1.13772e-05 -1.12691e-06 -0.000293413
0.00289074 -0.00136734 3.67003e-07
-0.00136734 0.000288193 7.0835e-07
3.67003e-07 7.0835e-07 -4.98101e-05
0.000203043 -0.000101451 -1.09309e-06
-0.000101451 6.28032e-05 -1.97379e-07
-1.09309e-06 -1.97379e-07 -0.000251552
0.00183847 -0.000393634 1.04796e-05
-0.000393634 0.00117263 -1.16644e-06
1.04796e-05 -1.16644e-06 0.00076365
0.00386514 -0.00188039 -7.8309e-06
-0.00188039 0.00169613 1.31623e-05
-7.8309e-06 1.31623e-05 0.000739425
0.00147741 -0.000631248 -5.00886e-06
-0.000631248 0.000935587 7.88245e-06
-5.00886e-06 7.88245e-06 -2.7463e-05
0.00171948 -0.000277712 1.00665e-05
-0.000277712 0.000871575 1.28781e-05
1.00665e-05 1.28781e-05 0.00055026
0.00299924 -0.00050625 -2.54589e-05
-0.00050625 -0.000385809 5.30534e-06
-2.54589e-05 5.30534e-06 5.24359e-05
0.0027412 -0.00084138 -2.3121e-05
-0.00084138 -0.000356855 1.13762e-05
-2.3121e-05 1.13762e-05 3.1347e-05
0.00313905 -0.00141189 -2.92621e-06
-0.00141189 0.000277455 -9.79955e-06
-2.92621e-06 -9.79955e-06 1.45669e-05
0.00353086 -0.00170275 1.23924e-05
-0.00170275 0.00094041 -1.25819e-05
1.23924e-05 -1.25819e-05 0.000299383
0.00221035 -0.00168208 1.7834e-05
-0.00168208 0.000590002 -6.42301e-07
1.7834e-05 -6.42301e-07 -0.000285527
0.000881382 4.41403e-06 -6.8027e-06
4.41403e-06 0.000440672 9.45366e-07
-6.8027e-06 9.45366e-07 0.000277382
-0.000426966 -0.000101079 -9.75448e-06
-0.000101079 -0.000449552 2.39984e-05
-9.75448e-06 2.39984e-05 -0.000667903
7.29555e-05 -0.000184679 -6.50205e-06
-0.000184679 -3.9633e-05 8.33139e-06
-6.50205e-06 8.33139e-06 -0.000229815
0.00236138 -0.000517648 -6.16759e-05
-0.000517648 0.00146156 5.76672e-05
-6.16759e-05 5.76672e-05 0.00108812
0.00108203 -0.000275334 4.59754e-06
-0.000275334 0.000600637 2.78528e-05
4.59754e-06 2.78528e-05 0.000306758
-0.001526 -7.77269e-05 -6.62696e-06
-7.77269e-05 -0.000478797 2.28595e-06
-6.62696e-06 2.28595e-06 -0.00128062
0.00251151 -0.00192415 -4.10904e-05
-0.00192415 0.00132738 -1.74428e-05
-4.10904e-05 -1.74428e-05 0.000179933
0.00342321 0.000828701 7.36867e-06
0.000828701 0.00223213 3.8841e-06
7.36867e-06 3.8841e-06 0.00177167
-0.000769504 0.00034372 -3.7181e-06
0.00034372 -0.000288898 -2.24517e-06
-3.7181e-06 -2.24517e-06 -0.000818425
0.00274922 0.000469115 1.24912e-05
0.000469115 -0.000419596 5.06339e-06
1.24912e-05 5.06339e-06 -6.2619e-05
0.00312782 0.000929706 2.11276e-05
0.000929706 0.000107146 1.3072e-05
2.11276e-05 1.3072e-05 0.000231113
0.00306448 0.00138157 4.9211e-06
0.00138157 0.000520081 4.18848e-06
4.9211e-06 4.18848e-06 -5.88213e-06
0.00117714 0.000919097 -8.92194e-06
0.000919097 0.000208786 4.64076e-07
-8.92194e-06 4.64076e-07 -0.000447545
0.00275265 0.00157646 -1.68964e-06
0.00157646 0.000828638 6.37244e-06
-1.68964e-06 6.37244e-06 -5.86309e-05
0.00308295 0.000698904 -2.11601e-07
0.000698904 0.00210304 -1.71265e-06
-2.11601e-07 -1.71265e-06 0.00161012
0.00332517 0.000842833 2.44189e-05
0.000842833 -0.000311826 7.05619e-06
2.44189e-05 7.05619e-06 0.000387676
0.000998948 0.000736289 -7.10021e-06
0.000736289 0.000546468 9.55565e-06
-7.10021e-06 9.55565e-06 -6.8293e-05
0.00224007 0.00124931 4.88802e-06
0.00124931 0.000856372 -2.94734e-06
4.88802e-06 -2.94734e-06 8.00164e-06
0.00322346 0.00129763 -4.75516e-06
0.00129763 0.000497019 -3.86887e-06
-4.75516e-06 -3.86887e-06 0.000298081
0.00286434 0.00164617 -3.22713e-06
0.00164617 0.000836801 7.91581e-06
-3.22713e-06 7.91581e-06 -3.68366e-05
0.00276667 0.002802 4.68874e-05
0.002802 -0.00331242 7.64369e-07
4.68874e-05 7.64369e-07 -0.00112689
0.000350231 0.000471014 2.54132e-06
0.000471014 0.00054435 4.05995e-06
2.54132e-06 4.05995e-06 -8.04234e-05
0.00451087 0.00175791 -0.000143158
0.00175791 0.000458981 -5.77131e-05
-0.000143158 -5.77131e-05 0.000657876
0.000548243 0.000825919 -2.31752e-05
0.000825919 5.08867e-05 1.37978e-05
-2.31752e-05 1.37978e-05 -0.000621709
0.0020059 0.00141497 -9.71045e-06
0.00141497 0.000629256 -2.69031e-05
-9.71045e-06 -2.69031e-05 -0.000248395
0.00434936 0.00197512 -6.84785e-05
0.00197512 0.00135123 -3.89845e-05
-6.84785e-05 -3.89845e-05 0.00066059
0.0156855 0.00120817 -0.00097155
0.00120817 -0.00192857 -8.73219e-05
-0.00097155 -8.73219e-05 0.00100159
0.00275442 0.00438635 -0.00026433
0.00438635 -0.0060848 -0.000219448
-0.00026433 -0.000219448 -0.000231577
0.00126589 0.00331721 3.61467e-05
0.00331721 -0.00176191 -9.98147e-06
3.61467e-05 -9.98147e-06 -0.00127647
0.0080973 -0.00902384 0.00428969
-0.00902384 0.00683952 -0.000552727
0.00428969 -0.000552727 -0.00390077
0.0401445 -0.0222356 -0.000280037
-0.0222356 0.0298736 -1.91326e-05
-0.000280037 -1.91326e-05 0.0106915
0.00275326 0.000386679 1.78227e-05
0.000386679 0.00183005 8.21173e-06
1.78227e-05 8.21173e-06 0.00160826
0.000546566 0.000186002 6.90637e-07
0.000186002 0.000433922 1.38907e-06
6.90637e-07 1.38907e-06 0.000213155
0.00039811 0.000277825 7.22519e-06
0.000277825 0.000439269 -7.59204e-06
7.22519e-06 -7.59204e-06 0.000132235
0.000549003 -6.35165e-05 3.7711e-06
-6.35165e-05 0.000199603 -4.34014e-07
3.7711e-06 -4.34014e-07 1.82608e-05
0.000613972 7.96002e-05 7.25895e-06
7.96002e-05 0.000277669 -2.39328e-06
7.25895e-06 -2.39328e-06 7.48385e-05
-1.01898e-05 -8.74567e-06 3.06546e-06
-8.74567e-06 -4.29774e-05 -3.91116e-06
3.06546e-06 -3.91116e-06 -0.000304698
0.000426615 0.000120895 6.48871e-06
0.000120895 0.000202633 7.84877e-06
6.48871e-06 7.84877e-06 3.07734e-05
-0.000693088 0.000112661 7.04901e-06
0.000112661 -0.000472576 1.65929e-05
7.04901e-06 1.65929e-05 -0.000522233
0.00071894 0.000155708 -3.14217e-06
0.000155708 0.00044128 1.83294e-06
-3.14217e-06 1.83294e-06 0.000178707
0.000373525 -1.09799e-05 1.03764e-07
-1.09799e-05 5.09087e-05 4.69012e-07
1.03764e-07 4.69012e-07 -0.000113871
0.000734554 8.09506e-05 -7.62056e-07
8.09506e-05 0.000347224 6.36922e-07
-7.62056e-07 6.36922e-07 0.000137385
0.00022537 0.00013978 -1.95472e-06
0.00013978 0.000193521 -2.87204e-06
-1.95472e-06 -2.87204e-06 3.94715e-05
0.000442856 9.38381e-05 9.35545e-07
9.38381e-05 0.000259496 1.62539e-07
9.35545e-07 1.62539e-07 1.53271e-05
0.00112535 0.00017556 -1.97962e-06
0.00017556 0.000754117 6.40664e-06
-1.97962e-06 6.40664e-06 0.000458398
0.000216154 9.77773e-05 5.30777e-07
9.77773e-05 0.000255365 -7.76596e-06
5.30777e-07 -7.76596e-06 -3.73286e-05
0.000829542 0.00012875 -7.56931e-07
0.00012875 0.00051119 -2.30407e-06
-7.56931e-07 -2.30407e-06 0.000261026
0.000230468 1.0871e-05 -3.64376e-06
1.0871e-05 -1.95794e-05 -7.09089e-06
-3.64376e-06 -7.09089e-06 -0.000204319
7.85382e-05 -5.78953e-05 -1.81092e-06
-5.78953e-05 -0.000144803 -2.39425e-06
-1.81092e-06 -2.39425e-06 -0.000310188
-0.000222645 -4.90676e-05 2.87021e-06
-4.90676e-05 -0.000284213 -8.94559e-06
2.87021e-06 -8.94559e-06 -0.000468692
9.72395e-05 -8.15812e-05 1.2279e-05
-8.15812e-05 2.06656e-05 1.47025e-05
1.2279e-05 1.47025e-05 -0.000174884
0.0003706 -7.75194e-05 5.3878e-06
-7.75194e-05 0.000235424 -7.7156e-06
5.3878e-06 -7.7156e-06 -4.22314e-05
0.0011665 -0.000262053 2.00528e-06
-0.000262053 0.000696296 1.15122e-06
2.00528e-06 1.15122e-06 0.000435296
0.000391397 -0.000142682 -3.87495e-06
-0.000142682 0.000109955 -4.74995e-06
-3.87495e-06 -4.74995e-06 -7.80014e-05
-0.000351175 -5.32741e-05 -1.27872e-06
-5.32741e-05 -0.000413793 1.89561e-06
-1.27872e-06 1.89561e-06 -0.000586339
0.000456421 -8.92365e-05 -2.16569e-06
-8.92365e-05 7.20685e-05 2.29899e-06
-2.16569e-06 2.29899e-06 -3.13117e-05
0.000457174 -5.84253e-05 2.79327e-06
-5.84253e-05 8.53335e-05 6.49259e-08
2.79327e-06 6.49259e-08 -2.82657e-05
0.000296468 2.98539e-06 5.55398e-06
2.98539e-06 -4.86335e-05 7.76819e-06
5.55398e-06 7.76819e-06 -8.89899e-05
0.00042513 7.87076e-05 -1.24796e-06
7.87076e-05 5.61081e-05 -4.09011e-06
-1.24796e-06 -4.09011e-06 -5.20906e-05
0.000293772 3.37391e-05 4.75276e-07
3.37391e-05 -5.43981e-05 2.27514e-07
4.75276e-07 2.27514e-07 -9.37935e-05
0.00277019 1.985e-05 2.72138e-05
1.985e-05 0.00156886 6.87517e-06
2.72138e-05 6.87517e-06 0.00157829
0.000316929 8.55164e-05 -6.91003e-06
8.55164e-05 -3.22846e-05 -9.64634e-06
-6.91003e-06 -9.64634e-06 -7.90198e-05
0.00173161 3.47502e-06 -1.62587e-05
3.47502e-06 0.00087638 -2.0396e-07
-1.62587e-05 -2.0396e-07 0.00087981
0.000794898 -7.8652e-06 2.71135e-06
-7.8652e-06 0.000244806 -2.44553e-06
2.71135e-06 -2.44553e-06 0.000242496
0.000408448 2.47661e-05 -1.94621e-07
2.47661e-05 1.90255e-05 -3.86828e-06
-1.94621e-07 -3.86828e-06 -5.5405e-05
0.000408341 -5.4568e-05 1.22511e-06
-5.4568e-05 4.00677e-05 1.43842e-07
1.22511e-06 1.43842e-07 -6.12678e-05
0.00036879 -1.62104e-06 1.96788e-06
-1.62104e-06 -3.10529e-05 -6.47516e-06
1.96788e-06 -6.47516e-06 -6.24309e-05
0.000562876 -9.06053e-05 -5.59137e-07
-9.06053e-05 0.000137588 2.95109e-06
-5.59137e-07 2.95109e-06 1.98469e-05
0.000932307 4.0774e-05 8.46617e-07
4.0774e-05 0.000350838 -1.02964e-06
8.46617e-07 -1.02964e-06 0.000310471
0.00285603 7.96723e-05 -2.2627e-06
7.96723e-05 0.00162997 -7.3841e-06
-2.2627e-06 -7.3841e-06 0.00163126
0.000167875 2.68341e-05 -1.68945e-06
2.68341e-05 -0.000161476 9.18663e-06
-1.68945e-06 9.18663e-06 -0.000213121
0.00341304 0.000123661 -7.80328e-06
0.000123661 0.00201686 1.61705e-06
-7.80328e-06 1.61705e-06 0.00200737
0.00356002 0.000174026 3.67189e-05
0.000174026 0.00213354 1.52046e-05
3.67189e-05 1.52046e-05 0.00211147
0.0027503 0.000243892 -3.55918e-06
0.000243892 -0.000243963 -9.0858e-07
-3.55918e-06 -9.0858e-07 2.7006e-05
0.00247707 5.88563e-06 -7.41035e-07
5.88563e-06 -0.000271592 -1.46269e-07
-7.41035e-07 -1.46269e-07 -4.28081e-05
0.00305371 0.000156937 1.78361e-06
0.000156937 -0.00021951 1.70535e-06
1.78361e-06 1.70535e-06 7.86053e-05
0.00282743 0.00199885 0.000174781
0.00199885 -0.00407628 7.44907e-05
0.000174781 7.44907e-05 -0.00123945
0.00293831 3.09911e-05 -1.16914e-06
3.09911e-05 -0.000297979 -1.86399e-07
-1.16914e-06 -1.86399e-07 5.22037e-05
0.00302957 0.000199083 2.10311e-06
0.000199083 -0.000437485 -4.54333e-06
2.10311e-06 -4.54333e-06 0.000128782
0.00335227 -0.000131443 -5.68033e-05
-0.000131443 2.72458e-07 1.19881e-06
-5.68033e-05 1.19881e-06 0.000414813
0.00379789 0.0017547 -0.000264166
0.0017547 -0.00403563 3.49833e-06
-0.000264166 3.49833e-06 -0.00014224
0.00471545 0.000730934 0.000129519
0.000730934 -0.0018644 6.54949e-05
0.000129519 6.54949e-05 -6.23458e-05
0.000381751 9.31704e-05 8.9505e-07
9.31704e-05 7.20283e-05 -3.4648e-06
8.9505e-07 -3.4648e-06 -8.01159e-05
0.000564769 -4.20811e-05 8.52747e-08
-4.20811e-05 0.000203929 -1.96297e-07
8.52747e-08 -1.96297e-07 3.45155e-05
0.000340246 -0.000116018 9.98972e-07
-0.000116018 7.59485e-05 2.22941e-06
9.98972e-07 2.22941e-06 -7.32347e-05
0.000523687 -0.000105113 -5.07425e-07
-0.000105113 0.000190624 3.06389e-06
-5.07425e-07 3.06389e-06 3.27861e-06
0.00283774 -0.00028552 -5.11648e-06
-0.00028552 -0.000314392 2.57989e-06
-5.11648e-06 2.57989e-06 3.21661e-05
0.00274418 -0.000707474 -2.01588e-06
-0.000707474 -0.000334088 -1.94796e-06
-2.01588e-06 -1.94796e-06 -7.89557e-05
0.0030099 -0.00112097 -3.6025e-06
-0.00112097 4.2652e-05 6.00768e-07
-3.6025e-06 6.00768e-07 4.48085e-05
0.00301323 -0.00153662 7.0842e-06
-0.00153662 0.00127804 7.2935e-06
7.0842e-06 7.2935e-06 0.000417149
0.00313974 -0.00188544 -1.71989e-05
-0.00188544 0.000811286 2.25363e-05
-1.71989e-05 2.25363e-05 -3.67767e-05
0.00304324 -0.00139608 -2.38003e-07
-0.00139608 0.000382963 1.90865e-06
-2.38003e-07 1.90865e-06 2.78923e-05
0.000622811 -0.00137923 4.81414e-05
-0.00137923 -3.50446e-05 -2.89824e-05
4.81414e-05 -2.89824e-05 -0.00101924
0.00394099 -0.00072725 4.1801e-05
-0.00072725 0.00214623 -2.7762e-05
4.1801e-05 -2.7762e-05 0.00143048
-0.000594189 -0.000268799 1.7215e-05
-0.000268799 -0.000626915 9.44893e-06
1.7215e-05 9.44893e-06 -0.000954074
0.00188782 -0.000138858 1.05241e-05
-0.000138858 0.00115826 -5.67859e-07
1.05241e-05 -5.67859e-07 0.000916721
-0.000816545 -7.01388e-05 -1.79803e-05
-7.01388e-05 -0.000492631 -2.05286e-05
-1.79803e-05 -2.05286e-05 -0.000899141
0.000367318 -8.21277e-05 3.10196e-06
-8.21277e-05 0.000148952 -1.67413e-05
3.10196e-06 -1.67413e-05 -0.000147531
0.000494511 -4.14863e-05 2.54026e-07
-4.14863e-05 0.000155988 4.78365e-06
2.54026e-07 4.78365e-06 -2.3216e-05
0.00055633 -0.000135453 -7.91409e-06
-0.000135453 0.000227366 1.72276e-06
-7.91409e-06 1.72276e-06 3.8056e-05
0.00291494 -0.000502118 4.70369e-06
-0.000502118 -0.00044316 -2.50944e-07
4.70369e-06 -2.50944e-07 1.16683e-05
0.000133105 -5.16014e-05 -1.34126e-06
-5.16014e-05 -6.13143e-05 5.63549e-06
-1.34126e-06 5.63549e-06 -0.000220005
0.000397265 -0.00016322 4.89888e-06
-0.00016322 0.000113245 -4.89466e-06
4.89888e-06 -4.89466e-06 -0.000128262
-0.000292403 -9.14991e-05 1.68082e-05
-9.14991e-05 -0.000210208 -7.27578e-06
1.68082e-05 -7.27578e-06 -0.000363613
0.00276216 -0.000892728 1.83802e-06
-0.000892728 -0.000346751 -1.01084e-06
1.83802e-06 -1.01084e-06 -1.79295e-05
0.00309648 -0.0013974 1.57691e-06
-0.0013974 0.00025098 -1.97777e-06
1.57691e-06 -1.97777e-06 -3.67203e-06
0.00203554 -0.00169874 -1.00855e-05
-0.00169874 0.000480739 -1.02906e-07
-1.00855e-05 -1.02906e-07 -0.000387243
0.00331973 -0.00173331 -3.9392e-06
-0.00173331 0.000797184 4.38411e-07
-3.9392e-06 4.38411e-07 0.00014247
0.00174641 -0.000325839 2.62537e-05
-0.000325839 0.00106789 -1.06177e-05
2.62537e-05 -1.06177e-05 0.000699399
-0.0018955 -4.71997e-05 1.60176e-05
-4.71997e-05 -0.00121525 3.34751e-06
1.60176e-05 3.34751e-06 -0.00156861
0.00104942 -0.00168764 2.21046e-07
-0.00168764 0.000633472 2.63221e-06
2.21046e-07 2.63221e-06 -0.000502904
0.00165077 -0.000689313 -2.40722e-05
-0.000689313 0.000956329 2.90436e-06
-2.40722e-05 2.90436e-06 0.00027762
0.00382728 -0.00074741 -9.10775e-05
-0.00074741 0.000178772 3.1371e-05
-9.10775e-05 3.1371e-05 0.000596894
0.00324683 -0.00128547 -4.16321e-05
-0.00128547 8.18979e-05 2.27358e-05
-4.16321e-05 2.27358e-05 0.000229431
0.003392 -0.00159996 1.47134e-05
-0.00159996 0.000891233 -2.63284e-05
1.47134e-05 -2.63284e-05 0.000259702
0.0037489 -0.00210098 -6.25893e-06
-0.00210098 0.00122116 2.5856e-06
-6.25893e-06 2.5856e-06 0.000429268
9.63138e-05 -0.000213437 4.64251e-06
-0.000213437 0.000148706 -1.592e-05
4.64251e-06 -1.592e-05 -9.32588e-05
0.000660972 -0.000381502 -1.45651e-05
-0.000381502 0.000311126 3.49187e-05
-1.45651e-05 3.49187e-05 -3.61845e-05
0.000692092 -0.000373767 -2.91553e-05
-0.000373767 0.000671092 7.18636e-05
-2.91553e-05 7.18636e-05 0.000270678
-0.000968005 -0.00119315 9.38001e-06
-0.00119315 0.00021187 -4.60175e-05
9.38001e-06 -4.60175e-05 -0.00108532
0.00778512 -0.000452504 -2.88302e-06
-0.000452504 -0.00766552 4.28426e-05
-2.88302e-06 4.28426e-05 -0.00833869
0.00435524 0.000682395 1.73704e-05
0.000682395 0.00285843 -2.86164e-07
1.73704e-05 -2.86164e-07 0.00238127
0.000373169 0.000621358 -3.02184e-06
0.000621358 0.000155869 -1.09323e-05
-3.02184e-06 -1.09323e-05 -0.000419415
0.00163018 0.000661133 9.03588e-05
0.000661133 -0.00136019 4.16525e-05
9.03588e-05 4.16525e-05 -0.000520205
0.00242465 0.00116417 3.3305e-05
0.00116417 0.000113958 1.36124e-05
3.3305e-05 1.36124e-05 -2.81322e-05
0.00299592 0.00166684 1.52847e-05
0.00166684 0.000907836 1.91058e-05
1.52847e-05 1.91058e-05 2.43768e-05
0.00248466 0.00131613 1.20118e-05
0.00131613 0.00101053 1.39708e-05
1.20118e-05 1.39708e-05 0.000127549
0.00344145 0.00316102 0.000146536
0.00316102 -0.00327305 7.68183e-05
0.000146536 7.68183e-05 -0.00126172
0.00108128 0.000510283 3.69681e-06
0.000510283 0.000902894 -7.27752e-06
3.69681e-06 -7.27752e-06 0.000359169
0.00322239 0.00155698 -7.52106e-06
0.00155698 -0.000297006 4.70188e-06
-7.52106e-06 4.70188e-06 9.03246e-05
0.00125175 0.000943332 -1.31731e-05
0.000943332 0.000489244 1.00617e-05
-1.31731e-05 1.00617e-05 -0.000227627
0.00260877 0.00153759 3.44553e-06
0.00153759 0.000959309 -9.31864e-06
3.44553e-06 -9.31864e-06 5.10202e-05
0.00418426 0.00186862 -1.16945e-05
0.00186862 0.00132573 -1.04967e-06
-1.16945e-05 -1.04967e-06 0.000647762
0.00396827 0.000829328 -0.000278364
0.000829328 -0.0108859 -0.000195188
-0.000278364 -0.000195188 -0.00901989
0.00673477 0.00482834 -0.000233969
0.00482834 -0.00362509 -0.000125331
-0.000233969 -0.000125331 0.00105456
0.000850001 0.0030801 -1.74157e-05
0.0030801 -0.00187671 -1.35357e-05
-1.74157e-05 -1.35357e-05 -0.00141918
0.0161494 -0.0060641 0.00114805
-0.0060641 0.00986546 0.000156907
0.00114805 0.000156907 0.00200823
0.0417805 -0.0255174 -0.000384333
-0.0255174 0.0303507 -0.000525223
-0.000384333 -0.000525223 0.00957371
-2.86022e-05 0.00046528 -3.76488e-06
0.00046528 3.96815e-06 -2.41094e-06
-3.76488e-06 -2.41094e-06 -0.000472839
0.00309873 -0.0037156 0.00291491
-0.0037156 0.00540817 -0.000218388
0.00291491 -0.000218388 0.000801422
0.0185041 -0.0150429 0.000307237
-0.0150429 0.0206343 -0.000287081
0.000307237 -0.000287081 0.00151992
0.00542515 0.00288257 -0.000102077
0.00288257 0.00120032 -3.6122e-05
-0.000102077 -3.6122e-05 0.000644574
0.00193379 0.00110854 -4.26143e-05
0.00110854 0.00077744 -4.35622e-06
-4.26143e-05 -4.35622e-06 4.71959e-05
0.00239681 0.00158187 -6.26233e-05
0.00158187 0.000783755 -5.65272e-05
-6.26233e-05 -5.65272e-05 -3.01638e-05
-0.000971216 0.00279256 0.000172389
0.00279256 -0.00188761 0.000139539
0.000172389 0.000139539 -0.00183552
0.0159363 0.00746133 0.000381739
0.00746133 -0.0047304 -1.93535e-05
0.000381739 -1.93535e-05 0.000611925
0.00713436 0.00738476 -0.0002294
0.00738476 -0.00177777 -0.000240998
-0.0002294 -0.000240998 0.000794196
0.0302291 -0.0113227 0.00126592
-0.0113227 0.0168995 -5.61534e-05
0.00126592 -5.61534e-05 0.00357
0.0263497 -0.00201706 -0.00118193
-0.00201706 0.0142258 0.000886422
-0.00118193 0.000886422 0.0066382
0.00121461 0.000212394 1.20108e-05
0.000212394 0.000895635 3.90686e-06
1.20108e-05 3.90686e-06 0.000650671
0.000262382 0.000248222 3.03178e-06
0.000248222 0.000372779 1.08334e-06
3.03178e-06 1.08334e-06 6.30987e-05
0.00126873 0.000518811 4.36302e-06
0.000518811 0.000994792 -9.11202e-06
4.36302e-06 -9.11202e-06 0.000533406
0.000480479 2.89192e-06 4.64809e-06
2.89192e-06 0.000145717 1.95032e-06
4.64809e-06 1.95032e-06 -3.77731e-05
0.000319352 0.000124162 6.85762e-06
0.000124162 4.4416e-05 2.64391e-06
6.85762e-06 2.64391e-06 -0.000145706
-0.000166197 2.13544e-05 4.06245e-06
2.13544e-05 -0.00016828 4.06243e-06
4.06245e-06 4.06243e-06 -0.00039343
0.00045545 0.000117433 -3.88045e-06
0.000117433 0.000292641 8.00027e-07
-3.88045e-06 8.00027e-07 3.78281e-05
0.000235032 0.00014166 -4.95799e-06
0.00014166 0.000166177 9.84088e-06
-4.95799e-06 9.84088e-06 2.74446e-05
0.000249796 1.56968e-05 -2.71088e-07
1.56968e-05 -2.00672e-05 8.61298e-07
-2.71088e-07 8.61298e-07 -0.000194579
0.000786963 0.000111862 2.95556e-06
0.000111862 0.000519287 2.88361e-06
2.95556e-06 2.88361e-06 0.000240915
0.000221399 7.02022e-05 -1.9045e-07
7.02022e-05 9.06168e-05 -3.0634e-06
-1.9045e-07 -3.0634e-06 -0.000150603
0.000641204 9.18913e-05 7.85475e-07
9.18913e-05 0.000300633 2.74934e-07
7.85475e-07 2.74934e-07 7.8667e-05
0.000204607 9.2661e-05 -2.46274e-06
9.2661e-05 0.000253332 -1.96223e-06
-2.46274e-06 -1.96223e-06 -3.33518e-05
0.000482118 7.11736e-05 -3.35448e-07
7.11736e-05 0.000359676 2.33178e-06
-3.35448e-07 2.33178e-06 9.98465e-05
-0.000473205 3.94145e-05 2.88906e-07
3.94145e-05 3.59844e-05 -4.84741e-06
2.88906e-07 -4.84741e-06 -0.000424361
5.48447e-05 -9.30298e-05 -4.89469e-06
-9.30298e-05 -1.215e-05 -3.48721e-07
-4.89469e-06 -3.48721e-07 -0.000275106
0.000328379 -5.97032e-05 -6.5156e-06
-5.97032e-05 6.99043e-05 -1.0327e-05
-6.5156e-06 -1.0327e-05 -0.000137796
0.00075338 -2.49054e-05 8.25964e-07
-2.49054e-05 0.000397922 -6.4961e-06
8.25964e-07 -6.4961e-06 0.000177448
0.00060585 -0.0001621 -1.79255e-07
-0.0001621 0.00035454 3.02612e-06
-1.79255e-07 3.02612e-06 0.000160056
-0.000123284 3.32252e-05 -7.05971e-06
3.32252e-05 -0.000177871 2.24186e-06
-7.05971e-06 2.24186e-06 -0.000325858
0.000793809 -0.000206521 1.67182e-05
-0.000206521 0.000412216 8.82009e-06
1.67182e-05 8.82009e-06 0.000235924
0.001648 -0.000106137 -4.677e-06
-0.000106137 0.00116952 1.2252e-05
-4.677e-06 1.2252e-05 0.000944313
-0.000685733 -8.0074e-08 1.34173e-06
-8.0074e-08 -0.00042098 -1.35878e-05
1.34173e-06 -1.35878e-05 -0.000736727
-0.00107988 1.67243e-05 -3.06788e-07
1.67243e-05 -0.000684157 -1.24501e-05
-3.06788e-07 -1.24501e-05 -0.000952435
0.000539657 -0.000220659 1.9463e-07
-0.000220659 0.000361398 8.0631e-07
1.9463e-07 8.0631e-07 5.93119e-05
-0.000541994 4.97806e-06 -4.51574e-07
4.97806e-06 -0.000470535 -3.53997e-06
-4.51574e-07 -3.53997e-06 -0.000679739
0.00100043 -0.000306274 -4.74342e-06
-0.000306274 0.000550836 1.38166e-07
-4.74342e-06 1.38166e-07 0.00031645
0.000828234 -0.000174956 1.98204e-06
-0.000174956 0.000407649 2.25231e-07
1.98204e-06 2.25231e-07 0.00021074
0.000691986 -9.11374e-05 -8.57157e-07
-9.11374e-05 0.000228548 1.23332e-06
-8.57157e-07 1.23332e-06 0.000121326
0.000174539 2.01883e-05 1.12355e-06
2.01883e-05 -3.00114e-05 6.11612e-07
1.12355e-06 6.11612e-07 -0.000233598
0.00044651 -6.31026e-06 3.29311e-06
-6.31026e-06 7.94864e-05 1.33732e-07
3.29311e-06 1.33732e-07 -3.1787e-05
0.00139905 -4.38522e-05 -2.06729e-05
-4.38522e-05 0.000670792 7.92316e-06
-2.06729e-05 7.92316e-06 0.000641026
0.000425477 0.000102702 -2.12532e-06
0.000102702 7.00951e-05 -2.33573e-06
-2.12532e-06 -2.33573e-06 -4.29352e-05
0.000802231 -3.66863e-05 -7.84034e-06
-3.66863e-05 0.000287533 9.09472e-07
-7.84034e-06 9.09472e-07 0.000249182
0.000859655 -9.64161e-06 -2.26738e-05
-9.64161e-06 0.000298221 5.38556e-06
-2.26738e-05 5.38556e-06 0.000299908
0.00025551 -6.22606e-05 7.50528e-06
-6.22606e-05 -7.8698e-05 -6.54963e-06
7.50528e-06 -6.54963e-06 -0.000118321
0.00276838 -1.16034e-06 2.05969e-05
-1.16034e-06 0.00156695 -1.04147e-07
2.05969e-05 -1.04147e-07 0.001576
0.000832426 7.28039e-06 -1.53255e-05
7.28039e-06 0.000282896 -6.1422e-06
-1.53255e-05 -6.1422e-06 0.000280994
0.000657283 9.8183e-05 2.773e-06
9.8183e-05 0.000276186 -2.82387e-06
2.773e-06 -2.82387e-06 0.000102853
0.000329916 7.92716e-05 -2.05357e-06
7.92716e-05 -4.68539e-06 -5.17415e-06
-2.05357e-06 -5.17415e-06 -9.13029e-05
0.000397467 4.57555e-06 3.17884e-06
4.57555e-06 3.52735e-05 2.41376e-07
3.17884e-06 2.41376e-07 -5.42289e-05
0.000317693 1.76973e-05 6.73535e-07
1.76973e-05 -6.40612e-05 -5.35462e-06
6.73535e-07 -5.35462e-06 -9.02597e-05
0.000607017 -0.000113236 -2.5133e-06
-0.000113236 0.00019259 5.92757e-06
-2.5133e-06 5.92757e-06 7.78922e-05
0.000386808 4.24908e-06 2.0086e-06
4.24908e-06 -1.8636e-05 -1.02635e-06
2.0086e-06 -1.02635e-06 -5.11968e-05
0.00263495 5.48927e-05 -3.86218e-06
5.48927e-05 0.00147741 -6.61806e-06
-3.86218e-06 -6.61806e-06 0.00148398
0.00157953 5.33287e-05 3.25544e-06
5.33287e-05 0.000785931 5.26891e-06
3.25544e-06 5.26891e-06 0.000744008
0.0017455 6.0974e-05 -2.65976e-06
6.0974e-05 0.000894387 2.40592e-06
-2.65976e-06 2.40592e-06 0.000889636
0.000532098 4.66994e-05 8.93572e-06
4.66994e-05 9.39505e-05 1.60898e-05
8.93572e-06 1.60898e-05 7.74989e-05
-0.000375959 0.00155588 0.000200209
0.00155588 -0.0059686 4.4096e-05
0.000200209 4.4096e-05 -0.00280365
0.00286891 -7.58078e-06 -4.2142e-06
-7.58078e-06 -0.000340418 -1.08968e-06
-4.2142e-06 -1.08968e-06 1.55364e-05
0.00291429 0.000147216 7.43813e-05
0.000147216 -0.000484875 -7.11294e-06
7.43813e-05 -7.11294e-06 2.06161e-05
0.0058503 0.00207905 -0.00011415
0.00207905 -0.00414787 -4.89296e-05
-0.00011415 -4.89296e-05 0.000905815
0.00400886 0.000404447 0.00016093
0.000404447 -0.00275347 -1.2692e-05
0.00016093 -1.2692e-05 -0.000525975
0.00331517 -0.00015354 2.03682e-06
-0.00015354 -1.42024e-05 2.75859e-06
2.03682e-06 2.75859e-06 0.000369114
0.00732409 -0.00125017 -0.000107288
-0.00125017 0.000413176 -3.00128e-05
-0.000107288 -3.00128e-05 0.00202644
0.00488473 -0.000682124 -0.00022043
-0.000682124 -0.00459924 -7.54437e-05
-0.00022043 -7.54437e-05 3.20312e-05
0.0174417 -0.00166551 2.16152e-05
-0.00166551 -0.00236568 -0.000171993
2.16152e-05 -0.000171993 -0.000347549
0.0262595 0.0126445 0.00275021
0.0126445 0.013722 0.000224579
0.00275021 0.000224579 0.00216867
0.0535865 0.0205225 0.000141615
0.0205225 0.0349116 0.000350806
0.000141615 0.000350806 0.0148718
-0.000111124 -0.000109365 7.08038e-06
-0.000109365 -0.000214451 2.05445e-06
7.08038e-06 2.05445e-06 -0.000378295
0.00057966 -3.25729e-05 2.22249e-06
-3.25729e-05 0.000217722 -1.02127e-07
2.22249e-06 -1.02127e-07 5.60269e-05
0.000916468 -0.000158723 -2.20604e-07
-0.000158723 0.000464881 3.6057e-06
-2.20604e-07 3.6057e-06 0.000273745
0.00051592 -0.000114467 7.82883e-06
-0.000114467 0.000174528 -6.29074e-07
7.82883e-06 -6.29074e-07 3.39583e-05
0.000713545 0.000145115 -2.52075e-06
0.000145115 0.000393545 -6.96249e-06
-2.52075e-06 -6.96249e-06 0.00022567
0.001055 0.000220902 1.00182e-06
0.000220902 0.000575281 5.37182e-06
1.00182e-06 5.37182e-06 0.0003708
0.000316311 3.06326e-05 4.00921e-06
3.06326e-05 4.73047e-05 -9.86315e-07
4.00921e-06 -9.86315e-07 -0.000147928
0.00050647 -2.67612e-05 -1.09288e-06
-2.67612e-05 0.000167118 6.26735e-07
-1.09288e-06 6.26735e-07 -1.00706e-05
0.00282187 -0.000500496 2.10116e-05
-0.000500496 -0.000495099 -5.69827e-06
2.10116e-05 -5.69827e-06 -4.1148e-05
0.00267826 -0.000946571 2.09985e-05
-0.000946571 -0.000428914 -9.02178e-06
2.09985e-05 -9.02178e-06 -0.000149718
0.00302896 -0.00138253 -3.07743e-06
-0.00138253 0.000205651 1.0978e-05
-3.07743e-06 1.0978e-05 -3.85436e-05
0.00292995 -0.00179519 1.55787e-06
-0.00179519 0.000931564 1.24818e-05
1.55787e-06 1.24818e-05 0.000102655
0.00326057 -0.0017769 -2.90042e-05
-0.0017769 0.000749806 1.98791e-05
-2.90042e-05 1.98791e-05 6.26787e-05
0.000716603 -0.00161947 4.11635e-05
-0.00161947 0.000462676 1.70157e-05
4.11635e-05 1.70157e-05 -0.000704864
0.00462453 -0.00111417 3.39118e-05
-0.00111417 0.00239184 -4.01925e-06
3.39118e-05 -4.01925e-06 0.00176836
0.00201367 -0.000522569 3.93321e-05
-0.000522569 0.00131241 -5.56408e-05
3.93321e-05 -5.56408e-05 0.000848585
0.000415819 -5.29112e-05 2.33606e-06
-5.29112e-05 0.000100629 -5.16712e-06
2.33606e-06 -5.16712e-06 -0.000123004
0.00123228 -0.000177188 2.14741e-05
-0.000177188 0.000678528 -4.64967e-05
2.14741e-05 -4.64967e-05 0.000338964
6.29369e-05 -0.000162682 9.7896e-07
-0.000162682 -0.00011844 4.72849e-06
9.7896e-07 4.72849e-06 -0.000281523
-0.000247757 4.73684e-06 -2.90169e-05
4.73684e-06 -0.00016307 -1.00604e-05
-2.90169e-05 -1.00604e-05 -0.000270589
0.00300069 -0.000690592 -3.90071e-07
-0.000690592 -0.00037444 5.55663e-06
-3.90071e-07 5.55663e-06 0.000172449
0.000335792 -8.66289e-05 -6.6411e-06
-8.66289e-05 0.000250505 5.22093e-06
-6.6411e-06 5.22093e-06 3.60969e-05
0.000892202 -0.000322023 -3.32849e-06
-0.000322023 0.000466079 1.15599e-06
-3.32849e-06 1.15599e-06 0.000168326
0.00241775 -0.00121333 1.10948e-05
-0.00121333 -0.000413511 -6.27499e-06
1.10948e-05 -6.27499e-06 -0.000196244
0.00325854 -0.00158384 1.07556e-06
-0.00158384 0.000774705 4.67302e-06
1.07556e-06 4.67302e-06 0.000184106
0.00246868 -0.0018537 3.25107e-06
-0.0018537 0.000525215 -1.35111e-05
3.25107e-06 -1.35111e-05 -0.000192415
0.000445687 -0.000457827 -7.65075e-06
-0.000457827 0.000435923 -2.62065e-05
-7.65075e-06 -2.62065e-05 -9.95476e-05
0.000807845 -0.00101275 1.20311e-05
-0.00101275 0.00107012 -3.32321e-06
1.20311e-05 -3.32321e-06 -3.89333e-05
0.0062455 -0.00176972 -5.71915e-05
-0.00176972 0.000875034 5.00089e-05
-5.71915e-05 5.00089e-05 0.00162099
0.00266498 -0.00164437 -3.47626e-05
-0.00164437 0.000335694 2.23381e-05
-3.47626e-05 2.23381e-05 -0.000152943
0.00430763 -0.00217395 3.49986e-06
-0.00217395 0.00141585 -1.01268e-06
3.49986e-06 -1.01268e-06 0.000636523
0.00134026 -0.00148115 -5.06072e-05
-0.00148115 0.000375168 1.01934e-05
-5.06072e-05 1.01934e-05 -8.97389e-05
0.000926539 -0.000261184 1.67658e-05
-0.000261184 0.000736555 -2.30706e-06
1.67658e-05 -2.30706e-06 0.000356637
-0.00135873 3.01615e-06 2.28052e-05
3.01615e-06 -0.000620524 2.58698e-05
2.28052e-05 2.58698e-05 -0.00100768
-0.000205993 -0.000474751 -2.48342e-05
-0.000474751 0.00047018 -1.65666e-05
-2.48342e-05 -1.65666e-05 -0.000403684
-0.00668467 -0.00104428 0.0019598
-0.00104428 0.00326868 2.69233e-05
0.0019598 2.69233e-05 -0.00626074
0.0157511 -0.000457726 -0.000101633
-0.000457726 -0.00293313 5.4655e-05
-0.000101633 5.4655e-05 -2.55313e-05
0.00205884 0.000581591 9.76082e-06
0.000581591 0.00135386 -1.79945e-05
9.76082e-06 -1.79945e-05 0.000896108
0.00222749 0.00109895 -5.99333e-06
0.00109895 0.00110375 5.03154e-06
-5.99333e-06 5.03154e-06 0.000332692
0.00178037 0.00129065 0.000150388
0.00129065 -0.00111631 6.75821e-05
0.000150388 6.75821e-05 -0.000547416
0.0039644 0.00176202 4.16765e-05
0.00176202 0.00126527 2.37107e-05
4.16765e-05 2.37107e-05 0.000594087
0.00273185 0.00157953 2.22317e-05
0.00157953 0.00100515 1.13153e-05
2.22317e-05 1.13153e-05 8.9049e-05
0.0204039 0.00135051 2.27928e-05
0.00135051 -0.00106524 -0.000288562
2.27928e-05 -0.000288562 0.00199821
0.00791906 0.00565439 -0.000362332
0.00565439 -0.00505624 2.77153e-05
-0.000362332 2.77153e-05 0.00043292
0.000625766 0.0029632 -4.49942e-05
0.0029632 -0.00175443 -4.34155e-05
-4.49942e-05 -4.34155e-05 -0.00143831
0.0208149 -0.0105529 -0.00178459
-0.0105529 0.013062 0.000646763
-0.00178459 0.000646763 0.00176247
0.0405296 -0.0304974 -0.00195858
-0.0304974 0.0306325 -0.00182705
-0.00195858 -0.00182705 0.00867057
0.000726072 0.000598797 1.0035e-05
0.000598797 0.000512587 -8.22492e-06
1.0035e-05 -8.22492e-06 -9.91473e-06
0.00491501 -0.0094648 0.00165418
-0.0094648 0.00330742 -7.11138e-05
0.00165418 -7.11138e-05 -0.00717509
0.00949979 -0.0113606 -0.00147061
-0.0113606 0.0202161 0.000195292
-0.00147061 0.000195292 0.00453964
0.00419702 0.00250875 -5.26497e-06
0.00250875 0.000520205 1.26978e-05
-5.26497e-06 1.26978e-05 0.000126899
0.00122022 0.00105086 -1.4663e-05
0.00105086 0.000439696 1.22348e-05
-1.4663e-05 1.22348e-05 -0.000320667
0.00372019 0.00186441 -8.73303e-06
0.00186441 0.0014646 -3.0793e-06
-8.73303e-06 -3.0793e-06 0.000554573
0.00211726 0.00309717 0.00010695
0.00309717 6.93976e-05 7.18256e-05
0.00010695 7.18256e-05 -6.60337e-05
0.0126555 0.00839509 -0.000396027
0.00839509 -0.00712027 -0.000135892
-0.000396027 -0.000135892 -0.00259601
0.00402096 0.00714537 -0.000113961
0.00714537 -0.00178033 -0.000122422
-0.000113961 -0.000122422 0.000449959
0.0366232 -0.0113585 0.00118937
-0.0113585 0.0190291 -0.000463322
0.00118937 -0.000463322 0.00528438
0.0355785 -0.00758598 -0.000587974
-0.00758598 0.0153385 0.00116438
-0.000587974 0.00116438 0.00336432
0.00126061 0.00079042 -1.88058e-05
0.00079042 0.000767464 -1.36878e-05
-1.88058e-05 -1.36878e-05 0.000233946
0.00202014 -0.00129733 0.000472194
-0.00129733 0.00974046 -0.000285815
0.000472194 -0.000285815 -0.00174298
0.0121014 0.00590639 -0.00142095
0.00590639 0.00872508 -0.00063927
-0.00142095 -0.00063927 0.0028856
0.00305645 0.00198157 -6.23798e-05
0.00198157 0.000444342 -4.01575e-05
-6.23798e-05 -4.01575e-05 9.97414e-05
0.00328679 0.00186404 -0.000100983
0.00186404 0.00154392 -4.57422e-05
-0.000100983 -4.57422e-05 0.000613
0.000762957 0.00227972 -0.000136982
0.00227972 0.000896329 -7.28463e-05
-0.000136982 -7.28463e-05 -0.000131426
-0.00144704 0.00559269 0.00011694
0.00559269 -0.00015623 -8.68902e-05
0.00011694 -8.68902e-05 -0.000512239
0.0057655 0.0121172 0.00149201
0.0121172 -0.00607389 0.000269236
0.00149201 0.000269236 -0.00364452
0.0367288 -0.0136039 -0.00176157
-0.0136039 0.0231449 0.00148596
-0.00176157 0.00148596 0.00749252
0.0103277 0.00135253 -2.29521e-05
0.00135253 -0.00124219 -0.000297515
-2.29521e-05 -0.000297515 -0.00429727
0.000590988 0.000318512 -6.63823e-06
0.000318512 0.000583406 9.71162e-06
-6.63823e-06 9.71162e-06 0.000239865
0.000824597 0.000471793 5.97447e-06
0.000471793 0.000708667 1.38959e-06
5.97447e-06 1.38959e-06 0.000283425
0.000301604 0.000445889 1.45503e-06
0.000445889 0.000452621 2.89203e-06
1.45503e-06 2.89203e-06 -1.31055e-05
0.00036806 9.37562e-05 5.90367e-06
9.37562e-05 6.50914e-05 4.31082e-06
5.90367e-06 4.31082e-06 -0.000115627
0.00120529 0.000186521 1.72096e-06
0.000186521 0.00070039 5.27561e-06
1.72096e-06 5.27561e-06 0.000455425
2.94948e-05 4.4657e-05 1.48928e-06
4.4657e-05 -2.76868e-05 4.30644e-06
1.48928e-06 4.30644e-06 -0.000284173
5.81131e-05 4.52365e-05 9.28583e-06
4.52365e-05 6.12238e-05 -2.20634e-06
9.28583e-06 -2.20634e-06 -0.000215823
0.000321184 0.00010122 -2.32936e-06
0.00010122 0.000322735 7.20491e-06
-2.32936e-06 7.20491e-06 4.90482e-05
0.000831838 8.49371e-05 -1.34502e-06
8.49371e-05 0.000431029 -1.47509e-06
-1.34502e-06 -1.47509e-06 0.000200602
0.000300456 5.69686e-05 1.56766e-06
5.69686e-05 0.000239896 -2.81984e-06
1.56766e-06 -2.81984e-06 -3.147e-05
0.000678413 -1.89583e-06 -7.15952e-08
-1.89583e-06 0.000404596 2.84528e-06
-7.15952e-08 2.84528e-06 0.000135011
-0.000162765 8.18409e-05 -1.92084e-06
8.18409e-05 0.00022886 -5.33111e-08
-1.92084e-06 -5.33111e-08 -0.000212341
-1.3204e-06 4.48704e-05 9.34334e-07
4.48704e-05 0.000475768 9.80893e-07
9.34334e-07 9.80893e-07 -0.000108018
3.27339e-05 -5.792e-05 -5.36648e-07
-5.792e-05 0.000184636 2.80954e-06
-5.36648e-07 2.80954e-06 -0.000177811
0.00247302 -0.000145237 -1.20072e-05
-0.000145237 0.00166273 -4.5457e-06
-1.20072e-05 -4.5457e-06 0.00132293
0.00133986 -0.000215102 -4.60667e-06
-0.000215102 0.00079792 -3.73728e-07
-4.60667e-06 -3.73728e-07 0.000558498
0.000854228 -0.000126849 -1.4432e-05
-0.000126849 0.000492601 -7.01168e-07
-1.4432e-05 -7.01168e-07 0.000323907
0.00049669 -0.000178516 -5.62381e-09
-0.000178516 0.000245067 3.76221e-06
-5.62381e-09 3.76221e-06 7.72132e-05
0.00046651 -0.000240141 2.26797e-06
-0.000240141 0.000141891 -2.19172e-06
2.26797e-06 -2.19172e-06 -5.35712e-06
0.000237482 -5.48115e-05 -1.54483e-05
-5.48115e-05 0.000294137 9.41286e-06
-1.54483e-05 9.41286e-06 8.63056e-05
0.000672438 -0.000137886 1.75958e-05
-0.000137886 0.000286304 -1.78351e-05
1.75958e-05 -1.78351e-05 9.89401e-05
-0.00131088 -5.20678e-05 -1.62568e-05
-5.20678e-05 -0.000683963 7.50007e-06
-1.62568e-05 7.50007e-06 -0.00099071
0.00282002 -0.000334144 1.62539e-05
-0.000334144 0.00185409 -2.4044e-06
1.62539e-05 -2.4044e-06 0.00165411
0.00156361 -9.6168e-06 1.83597e-05
-9.6168e-06 0.000868986 -1.73718e-05
1.83597e-05 -1.73718e-05 0.000525316
0.00423516 -0.000885539 2.79984e-06
-0.000885539 0.00230553 6.48925e-06
2.79984e-06 6.48925e-06 0.00182252
-0.00350056 -0.000316947 9.7728e-06
-0.000316947 -0.00210912 1.55779e-06
9.7728e-06 1.55779e-06 -0.00254987
9.06606e-06 -5.49946e-05 -8.93093e-08
-5.49946e-05 3.00355e-05 4.69651e-07
-8.93093e-08 4.69651e-07 -0.000283977
-0.000409028 -4.87639e-05 1.52645e-05
-4.87639e-05 -0.000275055 -2.29462e-05
1.52645e-05 -2.29462e-05 -0.000597705
0.00128215 -0.000214004 -1.66634e-06
-0.000214004 0.000835935 -1.54414e-06
-1.66634e-06 -1.54414e-06 0.000549234
-0.000190141 -4.97811e-05 1.13347e-05
-4.97811e-05 -0.000236946 8.18639e-06
1.13347e-05 8.18639e-06 -0.000478964
0.00199098 -0.000122894 -2.1688e-06
-0.000122894 0.00129269 4.19392e-06
-2.1688e-06 4.19392e-06 0.000997295
0.000232686 -9.57064e-05 -3.31845e-06
-9.57064e-05 2.40438e-05 4.90785e-08
-3.31845e-06 4.90785e-08 -0.000170189
-4.14915e-05 3.23984e-05 5.72646e-06
3.23984e-05 -0.000244841 -9.6456e-07
5.72646e-06 -9.6456e-07 -0.000354172
0.00111113 -0.000200188 -1.83554e-07
-0.000200188 0.000588516 7.46353e-06
-1.83554e-07 7.46353e-06 0.000395769
0.000329366 -5.81344e-05 -1.21137e-06
-5.81344e-05 -1.99473e-05 -7.63883e-08
-1.21137e-06 -7.63883e-08 -0.000117903
0.00132731 4.5351e-05 -9.94081e-06
4.5351e-05 0.000618237 8.45285e-06
-9.94081e-06 8.45285e-06 0.000587686
0.000423975 -9.9091e-05 1.60329e-06
-9.9091e-05 5.20097e-05 -1.21873e-06
1.60329e-06 -1.21873e-06 -5.34095e-05
0.000830724 -3.28166e-05 -1.46416e-05
-3.28166e-05 0.000294832 1.11233e-06
-1.46416e-05 1.11233e-06 0.000261463
0.000663691 6.88804e-06 2.38699e-06
6.88804e-06 0.000154503 1.83314e-06
2.38699e-06 1.83314e-06 0.000156548
0.000368431 -6.15917e-05 6.13467e-06
-6.15917e-05 -8.83316e-06 -5.6224e-06
6.13467e-06 -5.6224e-06 -4.56397e-05
0.0026543 -2.4326e-06 6.38763e-06
-2.4326e-06 0.00148794 -1.21259e-08
6.38763e-06 -1.21259e-08 0.00149895
0.00272041 -1.23097e-05 2.19101e-05
-1.23097e-05 0.00153425 -5.796e-06
2.19101e-05 -5.796e-06 0.00154375
0.00119273 9.76905e-05 -6.528e-07
9.76905e-05 0.000626471 -2.94935e-06
-6.528e-07 -2.94935e-06 0.000444153
0.000441587 9.29487e-05 -5.87151e-07
9.29487e-05 7.90887e-05 -6.68675e-06
-5.87151e-07 -6.68675e-06 -1.8922e-05
0.000534979 -7.75597e-06 -6.5272e-07
-7.75597e-06 0.000185905 8.89136e-07
-6.5272e-07 8.89136e-07 1.62837e-05
0.000364822 1.62456e-05 1.06563e-06
1.62456e-05 -3.46697e-05 -5.49629e-06
1.06563e-06 -5.49629e-06 -5.88706e-05
0.000408174 -1.99252e-05 2.59137e-06
-1.99252e-05 4.0194e-05 -3.29043e-07
2.59137e-06 -3.29043e-07 -4.48791e-05
0.000419905 -8.94389e-05 -3.77518e-06
-8.94389e-05 5.33312e-05 5.29824e-06
-3.77518e-06 5.29824e-06 -4.03515e-05
0.000375108 -6.25892e-06 -1.5907e-07
-6.25892e-06 -2.81588e-05 1.29458e-07
-1.5907e-07 1.29458e-07 -5.3885e-05
0.0023879 3.3668e-05 -7.62537e-06
3.3668e-05 0.00130951 -6.24697e-06
-7.62537e-06 -6.24697e-06 0.00132014
0.00146679 2.48281e-05 -3.44604e-07
2.48281e-05 0.000698696 4.9696e-06
-3.44604e-07 4.9696e-06 0.0006704
0.00162008 3.96594e-05 -9.2011e-06
3.96594e-05 0.000800197 -6.91548e-08
-9.2011e-06 -6.91548e-08 0.000801648
0.000776244 4.27677e-05 3.8367e-06
4.27677e-05 0.000247421 1.29438e-05
3.8367e-06 1.29438e-05 0.000238504
0.00252731 0.00643899 0.00190126
0.00643899 0.00475133 4.73767e-05
0.00190126 4.73767e-05 -0.00585613
0.0115442 0.00829116 0.0033688
0.00829116 0.017359 0.000165778
0.0033688 0.000165778 0.00335333
0.00134904 0.0020736 -2.01739e-05
0.0020736 -0.00599745 -9.25259e-05
-2.01739e-05 -9.25259e-05 -0.000440203
0.00349294 6.24543e-05 0.000142019
6.24543e-05 -0.0033769 1.89935e-05
0.000142019 1.89935e-05 -0.000882483
0.00342415 -0.000173313 4.77646e-05
-0.000173313 4.80218e-05 -4.38553e-06
4.77646e-05 -4.38553e-06 0.000406471
0.00397774 0.000331741 -1.84926e-05
0.000331741 -0.00315463 -3.92182e-05
-1.84926e-05 -3.92182e-05 0.000641273
0.00509893 -0.00110337 3.41161e-05
-0.00110337 -0.000616979 1.27914e-07
3.41161e-05 1.27914e-07 0.000762979
0.0130364 -0.00156855 0.000477733
-0.00156855 -0.00551411 -0.000192031
0.000477733 -0.000192031 -0.00382555
0.0128139 0.00834294 -0.000122922
0.00834294 0.00633893 -0.000127868
-0.000122922 -0.000127868 -0.00220958
0.0478012 0.0253246 -0.000675771
0.0253246 0.0328748 0.000267838
-0.000675771 0.000267838 0.0120197
0.00427685 -0.0027464 -0.000135852
-0.0027464 -0.00443044 -3.03184e-06
-0.000135852 -3.03184e-06 0.000105698
0.0138634 -0.00714006 0.000712008
-0.00714006 -0.00521565 -0.00014233
0.000712008 -0.00014233 -0.00237219
0.0320182 0.0116996 0.000136805
0.0116996 0.0171841 -0.000595024
0.000136805 -0.000595024 0.00347197
0.0378583 0.00732151 -0.000570676
0.00732151 0.0186036 0.000485907
-0.000570676 0.000485907 0.00840284
0.00233609 0.000216124 -5.00415e-06
0.000216124 0.00153966 2.55404e-06
-5.00415e-06 2.55404e-06 0.00122995
0.000552889 4.22116e-05 1.79747e-06
4.22116e-05 0.00019538 -9.60244e-07
1.79747e-06 -9.60244e-07 3.2889e-05
0.00049101 -0.000130595 2.3932e-06
-0.000130595 0.000163181 1.27203e-06
2.3932e-06 1.27203e-06 -1.09753e-07
0.000163107 -2.48903e-05 5.88442e-06
-2.48903e-05 -4.85968e-05 -1.63709e-06
5.88442e-06 -1.63709e-06 -0.000188379
0.000191833 9.59032e-05 4.19563e-06
9.59032e-05 3.77862e-05 1.15419e-07
4.19563e-06 1.15419e-07 -9.19533e-05
0.00064253 0.000188608 2.16488e-06
0.000188608 0.000293851 5.67777e-06
2.16488e-06 5.67777e-06 5.82207e-05
0.000372801 7.75765e-05 -3.0957e-06
7.75765e-05 0.000124052 -1.15263e-07
-3.0957e-06 -1.15263e-07 -6.33546e-05
0.000490616 0.000144517 7.65662e-06
0.000144517 0.000162436 4.04715e-06
7.65662e-06 4.04715e-06 -8.06299e-05
0.000477594 4.45926e-05 2.9696e-07
4.45926e-05 0.000171659 -3.67096e-07
2.9696e-07 -3.67096e-07 -3.7502e-05
1.98797e-06 -2.73957e-05 5.97923e-08
-2.73957e-05 -0.000182857 -1.4001e-06
5.97923e-08 -1.4001e-06 -0.000332811
0.00210152 -0.000624843 7.43152e-05
-0.000624843 -0.00100048 -2.92811e-05
7.43152e-05 -2.92811e-05 -0.000295328
0.00181804 -0.00113718 2.44268e-05
-0.00113718 -0.000723343 -1.65328e-05
2.44268e-05 -1.65328e-05 -0.000465977
0.00255583 -0.00147902 5.66604e-07
-0.00147902 0.000359127 1.4901e-05
5.66604e-07 1.4901e-05 -0.00016398
0.000620905 -0.00150816 -8.54044e-06
-0.00150816 -0.000483182 1.12156e-05
-8.54044e-06 1.12156e-05 -0.0011108
0.0027924 -0.00101836 2.19647e-05
-0.00101836 0.00211899 7.17895e-05
2.19647e-05 7.17895e-05 0.00111319
-0.000131505 -0.000820309 -2.66508e-05
-0.000820309 0.000127832 -2.89208e-05
-2.66508e-05 -2.89208e-05 -0.000624777
0.000948729 -0.000316861 1.75945e-05
-0.000316861 0.000538257 -2.62453e-05
1.75945e-05 -2.62453e-05 0.000280803
0.000114354 -3.45636e-05 -4.8931e-06
-3.45636e-05 5.61057e-05 1.90703e-06
-4.8931e-06 1.90703e-06 -0.000129606
0.00382735 -0.00147637 4.39057e-06
-0.00147637 -0.000545989 -1.02512e-05
4.39057e-06 -1.02512e-05 0.000405966
0.000376283 -8.24598e-05 -5.63656e-07
-8.24598e-05 0.00038248 1.67102e-06
-5.63656e-07 1.67102e-06 -2.0688e-06
-0.000170306 -0.000183415 -1.26714e-05
-0.000183415 0.000117967 2.17347e-06
-1.26714e-05 2.17347e-06 -0.00025728
0.00199669 -0.00147288 2.40135e-05
-0.00147288 -6.70867e-05 -9.53921e-07
2.40135e-05 -9.53921e-07 -0.000368549
0.00338578 -0.00196121 -2.91017e-06
-0.00196121 0.000974164 -7.59853e-06
-2.91017e-06 -7.59853e-06 0.000214046
0.000511827 -0.00132657 2.88952e-05
-0.00132657 -4.70106e-05 -1.6721e-05
2.88952e-05 -1.6721e-05 -0.0005346
0.000865584 -0.000667518 2.87906e-05
-0.000667518 0.00112925 -4.07987e-05
2.87906e-05 -4.07987e-05 0.000273254
0.00141101 -0.00225598 -2.61032e-05
-0.00225598 -0.00172419 5.18765e-05
-2.61032e-05 5.18765e-05 -0.00104496
0.00304164 -0.00176509 -4.77058e-05
-0.00176509 0.00103297 3.16711e-05
-4.77058e-05 3.16711e-05 0.000372807
-0.000462874 -0.000759345 -8.02115e-05
-0.000759345 0.000179783 2.05338e-05
-8.02115e-05 2.05338e-05 -0.000476822
0.00130684 0.000162693 5.40506e-06
0.000162693 0.000912306 -3.94886e-07
5.40506e-06 -3.94886e-07 0.000558314
-0.000852538 6.79019e-06 7.35813e-06
6.79019e-06 -0.000242341 1.70404e-05
7.35813e-06 1.70404e-05 -0.00071965
0.000132247 -9.48346e-05 1.58757e-05
-9.48346e-05 0.000416204 1.36564e-05
1.58757e-05 1.36564e-05 -2.84451e-05
-0.00279102 0.00228662 -0.000896757
0.00228662 0.00902137 -6.12201e-05
-0.000896757 -6.12201e-05 0.000350584
0.00156079 -0.00261375 8.79585e-06
-0.00261375 0.00774438 -5.6216e-05
8.79585e-06 -5.6216e-05 0.00122094
0.00881117 8.10481e-05 -6.82379e-05
8.10481e-05 -0.00785328 -1.53005e-05
-6.82379e-05 -1.53005e-05 -0.00807252
0.000990294 0.000630624 2.22446e-05
0.000630624 0.000721635 -1.55244e-05
2.22446e-05 -1.55244e-05 0.000183235
0.00172916 0.00119174 2.42895e-05
0.00119174 0.000793767 3.13118e-05
2.42895e-05 3.13118e-05 -4.58737e-05
0.00291129 0.00204087 0.000109061
0.00204087 -0.000185753 5.93982e-05
0.000109061 5.93982e-05 -0.000383583
0.00394862 0.00198992 5.25398e-05
0.00198992 0.00160872 4.58752e-05
5.25398e-05 4.58752e-05 0.000631888
0.0200159 -0.011037 0.000342811
-0.011037 0.0153499 0.000181721
0.000342811 0.000181721 0.00273256
0.00265006 0.0066223 -0.00106878
0.0066223 -0.0135497 -0.000181327
-0.00106878 -0.000181327 -0.00971248
0.00645803 0.00766606 -5.96182e-05
0.00766606 -0.00133569 2.74978e-05
-5.96182e-05 2.74978e-05 0.00101547
0.00471377 0.00317475 0.000127514
0.00317475 0.00170402 4.10038e-05
0.000127514 4.10038e-05 0.00146201
0.0276266 -0.00800883 -0.000609889
-0.00800883 0.0134701 -0.000215328
-0.000609889 -0.000215328 0.00169703
0.00921499 -0.0113128 -0.00224094
-0.0113128 0.0215775 7.69635e-05
-0.00224094 7.69635e-05 0.0070785
0.0473832 -0.0133025 0.00208705
-0.0133025 0.0199035 0.000451806
0.00208705 0.000451806 0.00540482
0.000807939 0.000749629 1.59948e-05
0.000749629 0.000544491 -5.24073e-06
1.59948e-05 -5.24073e-06 -1.11669e-05
0.0037332 -0.0036481 6.85895e-05
-0.0036481 0.012647 1.64925e-05
6.85895e-05 1.64925e-05 0.000605668
0.0112318 0.00603553 -0.000349555
0.00603553 0.00570216 -0.000205002
-0.000349555 -0.000205002 -0.00141341
0.0033273 0.00225481 1.11628e-05
0.00225481 0.00074709 5.99374e-06
1.11628e-05 5.99374e-06 0.000200692
0.00161703 0.00153907 5.87645e-06
0.00153907 0.00075267 7.68692e-06
5.87645e-06 7.68692e-06 -0.000123672
7.96987e-05 0.00228816 -0.000175327
0.00228816 0.000475013 -0.000118325
-0.000175327 -0.000118325 -0.000353061
0.0044707 0.00805542 0.00012057
0.00805542 0.00110614 5.88145e-05
0.00012057 5.88145e-05 0.000648703
0.0115453 0.0124528 -4.16797e-05
0.0124528 -0.00156371 -1.83965e-05
-4.16797e-05 -1.83965e-05 -0.00158125
0.0185601 -0.00786305 3.87146e-05
-0.00786305 0.0158388 -0.000193025
3.87146e-05 -0.000193025 0.00160637
0.0214401 -0.00252356 -0.000211816
-0.00252356 0.00481043 -2.70102e-05
-0.000211816 -2.70102e-05 0.00209828
0.00153223 0.00139038 -1.39461e-05
0.00139038 0.000950568 -1.09412e-05
-1.39461e-05 -1.09412e-05 0.000147533
0.00211735 0.00168932 -0.000828606
0.00168932 0.00477476 -0.00021295
-0.000828606 -0.00021295 -0.00253624
0.00552956 0.00146409 -3.99713e-06
0.00146409 0.00195517 -0.000207502
-3.99713e-06 -0.000207502 -0.00263094
-0.00109538 0.000932353 -2.73925e-06
0.000932353 1.94916e-05 -3.66715e-05
-2.73925e-06 -3.66715e-05 -0.000659709
-0.00284652 0.00253462 -6.44694e-05
0.00253462 0.000953693 5.56245e-05
-6.44694e-05 5.56245e-05 -0.000311943
0.006434 0.0103497 0.000555162
0.0103497 0.00442237 6.92229e-05
0.000555162 6.92229e-05 -0.00154678
0.0157328 -0.00644626 0.000102264
-0.00644626 0.00612289 0.000213266
0.000102264 0.000213266 -0.00475892
0.0212491 -0.00134153 0.000147062
-0.00134153 0.00125817 -0.000330197
0.000147062 -0.000330197 0.000432039
0.000544747 0.000425993 5.7357e-06
0.000425993 0.000522802 2.10175e-05
5.7357e-06 2.10175e-05 0.000140887
0.00058829 0.000452303 -2.82851e-06
0.000452303 0.000642701 -5.13358e-06
-2.82851e-06 -5.13358e-06 0.000165963
0.000514978 0.000468543 1.25583e-05
0.000468543 0.00074583 1.63014e-06
1.25583e-05 1.63014e-06 0.000131205
0.000488795 0.000115779 1.66612e-06
0.000115779 0.000169437 8.10608e-06
1.66612e-06 8.10608e-06 -3.46024e-05
0.00140302 -1.94176e-05 -3.00851e-07
-1.94176e-05 0.000899758 7.23481e-06
-3.00851e-07 7.23481e-06 0.00061776
0.000160372 6.67908e-05 4.24282e-06
6.67908e-05 0.000143898 -7.92752e-07
4.24282e-06 -7.92752e-07 -0.000136228
2.54976e-06 0.000121436 1.71742e-06
0.000121436 0.000335296 1.25949e-06
1.71742e-06 1.25949e-06 -9.9586e-05
0.000655752 -4.32059e-05 5.28221e-06
-4.32059e-05 0.00037275 1.1773e-06
5.28221e-06 1.1773e-06 0.000113279
0.000258802 -2.00884e-05 3.14048e-07
-2.00884e-05 0.000306131 -4.29176e-06
3.14048e-07 -4.29176e-06 -3.77532e-05
-9.96404e-06 5.54921e-05 -1.13006e-07
5.54921e-05 0.000522455 1.06106e-06
-1.13006e-07 1.06106e-06 -0.000106389
-0.000527734 4.39636e-05 4.71107e-06
4.39636e-05 0.000377039 6.14607e-06
4.71107e-06 6.14607e-06 -0.000316627
0.00115691 -0.000119126 8.25269e-06
-0.000119126 0.0011824 -9.86858e-06
8.25269e-06 -9.86858e-06 0.000636575
0.000959565 -0.000101078 -2.57904e-05
-0.000101078 0.000801968 7.56171e-06
-2.57904e-05 7.56171e-06 0.000407348
0.00146935 -0.000251206 5.75288e-06
-0.000251206 0.000907568 7.48487e-06
5.75288e-06 7.48487e-06 0.000709296
-0.000363873 -0.000345123 -8.94947e-06
-0.000345123 -0.000436486 -3.75484e-06
-8.94947e-06 -3.75484e-06 -0.00055819
-0.000717281 -1.12457e-05 2.69132e-05
-1.12457e-05 -0.00024292 -1.39766e-05
2.69132e-05 -1.39766e-05 -0.000445013
-0.000582422 -2.8378e-05 1.79054e-06
-2.8378e-05 -0.00020702 -2.77418e-06
1.79054e-06 -2.77418e-06 -0.000517845
0.000184629 -0.000183785 -1.56348e-06
-0.000183785 -8.87998e-05 4.47123e-06
-1.56348e-06 4.47123e-06 -0.000230195
-0.000169204 -0.000228214 -1.40448e-05
-0.000228214 -1.03372e-05 3.73594e-06
-1.40448e-05 3.73594e-06 -0.000177391
0.0043895 -0.000372298 1.61911e-05
-0.000372298 0.00266602 -9.21798e-07
1.61911e-05 -9.21798e-07 0.00226326
0.00134591 -0.000142257 1.35593e-06
-0.000142257 0.00124202 7.66627e-06
1.35593e-06 7.66627e-06 0.000841683
0.00162777 -0.000693266 -1.07451e-05
-0.000693266 0.00091047 9.17378e-06
-1.07451e-05 9.17378e-06 0.000347114
0.00163874 -0.000186906 -1.87891e-05
-0.000186906 0.000872382 2.22916e-06
-1.87891e-05 2.22916e-06 0.000553731
0.000219928 -0.000449989 2.28672e-05
-0.000449989 -0.000149866 5.83679e-06
2.28672e-05 5.83679e-06 -0.00051817
0.00233062 -0.00110587 -1.11492e-05
-0.00110587 0.00107711 1.43323e-05
-1.11492e-05 1.43323e-05 0.000366801
0.00271433 -0.000455993 2.44429e-05
-0.000455993 0.00131809 -7.66693e-06
2.44429e-05 -7.66693e-06 0.00101247
0.00241728 -0.000674879 4.70211e-07
-0.000674879 0.00118269 -9.22629e-06
4.70211e-07 -9.22629e-06 0.000767396
8.5924e-05 -0.000349728 5.74739e-07
-0.000349728 5.72378e-05 1.42591e-07
5.74739e-07 1.42591e-07 -0.000327717
-0.00303201 -0.000300142 1.68085e-05
-0.000300142 -0.00186956 -1.73876e-05
1.68085e-05 -1.73876e-05 -0.00235192
0.00101608 -0.000168405 -3.90839e-06
-0.000168405 0.000656709 6.55555e-06
-3.90839e-06 6.55555e-06 0.000363489
0.000729543 -0.000466314 7.90454e-06
-0.000466314 0.000403493 -4.16863e-06
7.90454e-06 -4.16863e-06 7.27505e-05
0.00103983 -0.000162224 1.69905e-05
-0.000162224 0.000535759 7.57022e-06
1.69905e-05 7.57022e-06 0.00023417
0.00175317 -0.000579664 -1.21975e-05
-0.000579664 0.00113174 1.71714e-05
-1.21975e-05 1.71714e-05 0.00081783
0.000291116 -0.000200001 -9.18537e-07
-0.000200001 0.000155826 -8.47912e-07
-9.18537e-07 -8.47912e-07 -0.000143405
-3.13303e-05 -5.01897e-05 6.48132e-06
-5.01897e-05 -0.00022796 4.63156e-06
6.48132e-06 4.63156e-06 -0.000377635
0.00221647 -0.000364368 -4.02506e-06
-0.000364368 0.00139691 7.64688e-06
-4.02506e-06 7.64688e-06 0.00114169
0.000807519 -0.000124937 6.99435e-07
-0.000124937 0.000316525 8.07973e-07
6.99435e-07 8.07973e-07 0.000192018
0.00154185 -9.78858e-06 -1.85135e-05
-9.78858e-06 0.000757125 9.17736e-06
-1.85135e-05 9.17736e-06 0.000717354
0.00043889 -0.000106852 -1.08595e-06
-0.000106852 7.80139e-05 1.89178e-07
-1.08595e-06 1.89178e-07 -3.5417e-05
0.000797589 -2.15401e-05 -1.75149e-05
-2.15401e-05 0.000268041 8.87374e-07
-1.75149e-05 8.87374e-07 0.000231659
0.000786465 1.60685e-05 3.89805e-06
1.60685e-05 0.000233684 3.12008e-06
3.89805e-06 3.12008e-06 0.000232282
0.000358598 -6.4284e-05 5.04725e-06
-6.4284e-05 -2.05481e-05 -5.63964e-06
5.04725e-06 -5.63964e-06 -5.69161e-05
0.00166967 9.11702e-06 2.04169e-05
9.11702e-06 0.000827509 -2.03043e-06
2.04169e-05 -2.03043e-06 0.000834991
0.00260664 -6.52807e-06 2.99534e-05
-6.52807e-06 0.00145538 -5.77808e-06
2.99534e-05 -5.77808e-06 0.00146714
-3.43621e-05 0.000117944 2.61162e-06
0.000117944 -0.000249006 -2.26115e-06
2.61162e-06 -2.26115e-06 -0.000408403
0.000514837 9.45134e-05 9.36209e-07
9.45134e-05 0.000126588 -7.1072e-06
9.36209e-07 -7.1072e-06 2.00299e-05
0.00039961 2.9511e-05 1.17775e-06
2.9511e-05 7.94676e-05 1.2065e-06
1.17775e-06 1.2065e-06 -8.52037e-05
0.000371382 1.48409e-05 3.05094e-06
1.48409e-05 -3.06894e-05 -6.3951e-06
3.05094e-06 -6.3951e-06 -5.69263e-05
0.000394866 7.52492e-05 4.6469e-07
7.52492e-05 3.6584e-05 -2.90177e-09
4.6469e-07 -2.90177e-09 -5.35283e-05
0.000234985 -0.000114678 -4.54243e-06
-0.000114678 -4.16732e-05 5.29263e-06
-4.54243e-06 5.29263e-06 -0.000190817
0.0023841 1.74316e-05 -1.33649e-05
1.74316e-05 0.0013054 -6.43224e-06
-1.33649e-05 -6.43224e-06 0.0013174
0.000363208 1.09305e-05 -5.49095e-07
1.09305e-05 -3.55579e-05 -4.35737e-08
-5.49095e-07 -4.35737e-08 -5.95827e-05
0.000468018 -6.67027e-06 -3.48083e-06
-6.67027e-06 6.46437e-05 4.6661e-06
-3.48083e-06 4.6661e-06 -1.06405e-05
0.000394232 -1.57531e-05 -3.71164e-06
-1.57531e-05 -1.65044e-05 5.68932e-06
-3.71164e-06 5.68932e-06 -4.26636e-05
0.00247433 3.56527e-05 -6.55397e-06
3.56527e-05 0.00136772 -1.95815e-07
-6.55397e-06 -1.95815e-07 0.00137751
0.00267105 5.50007e-05 2.01836e-06
5.50007e-05 0.00150202 7.22927e-06
2.01836e-06 7.22927e-06 0.0015078
0.0049248 -0.000588668 -0.000538005
-0.000588668 0.0138 9.03608e-05
-0.000538005 9.03608e-05 0.00537592
0.00909859 0.00734333 -0.000545086
0.00734333 0.00748429 0.000209551
-0.000545086 0.000209551 -0.00276839
0.00923509 -0.00325816 -0.000548419
-0.00325816 0.00325037 0.000366252
-0.000548419 0.000366252 -0.00274914
0.0170576 0.00932639 0.00174538
0.00932639 0.0175439 3.10746e-05
0.00174538 3.10746e-05 0.00299671
0.00610761 0.000955943 9.57955e-05
0.000955943 -0.00240242 2.35442e-05
9.57955e-05 2.35442e-05 0.000996927
0.00258096 -0.00104423 0.000132231
-0.00104423 -0.00189313 -4.74098e-06
0.000132231 -4.74098e-06 -0.000668195
0.00304939 -0.00131452 0.000689004
-0.00131452 -0.0133743 -4.06026e-05
0.000689004 -4.06026e-05 -0.00941637
0.0221465 0.00937173 -0.00278629
0.00937173 0.0161931 -0.000470901
-0.00278629 -0.000470901 0.00524181
0.0396796 0.0297317 -0.00220999
0.0297317 0.0286992 0.00183477
-0.00220999 0.00183477 0.00736801
0.00598561 -0.00192386 9.21474e-05
-0.00192386 -0.00298726 -1.25321e-05
9.21474e-05 -1.25321e-05 0.000316595
0.00878231 -0.00766197 0.000467087
-0.00766197 -0.0088195 -0.000253979
0.000467087 -0.000253979 -0.00546682
0.034283 0.0113199 -0.000744051
0.0113199 0.0186244 -0.000468617
-0.000744051 -0.000468617 0.00440518
0.0288928 0.00663721 0.000612206
0.00663721 0.0148491 0.000635431
0.000612206 0.000635431 0.00487802
0.00307326 -0.00451485 -9.72351e-05
-0.00451485 -0.00505134 0.000152005
-9.72351e-05 0.000152005 -0.000951733
-0.00045518 -0.0111031 0.00138597
-0.0111031 -0.00520965 -0.000340193
0.00138597 -0.000340193 -0.00462459
0.0198739 0.00459387 -0.000927161
0.00459387 0.0113508 -0.00152256
-0.000927161 -0.00152256 -0.000725879
0.0130789 -0.00176015 -0.000363602
-0.00176015 0.00300058 4.95593e-05
-0.000363602 4.95593e-05 -0.000553176
0.00137506 2.06789e-05 5.65746e-06
2.06789e-05 0.000847629 1.51421e-05
5.65746e-06 1.51421e-05 0.000532136
0.000115936 5.99069e-07 -4.43561e-07
5.99069e-07 -2.4766e-05 -5.22107e-07
-4.43561e-07 -5.22107e-07 -0.000219987
0.000359707 0.000118631 -1.27016e-06
0.000118631 4.77487e-05 -1.50137e-07
-1.27016e-06 -1.50137e-07 -0.000101298
-0.00059032 -0.000100153 -1.2848e-05
-0.000100153 -0.000565149 1.21072e-06
-1.2848e-05 1.21072e-06 -0.000602759
0.000380327 0.000173336 6.08924e-06
0.000173336 9.91109e-05 2.0441e-05
6.08924e-06 2.0441e-05 -0.000145351
0.00064706 0.000136837 -1.5687e-06
0.000136837 0.000319869 -1.78876e-06
-1.5687e-06 -1.78876e-06 7.93783e-05
-8.77529e-05 -4.80258e-05 1.45577e-06
-4.80258e-05 -0.000186899 -1.8944e-06
1.45577e-06 -1.8944e-06 -0.000354122
0.00104893 0.000252935 1.25858e-05
0.000252935 0.000590584 7.8945e-06
1.25858e-05 7.8945e-06 0.000293606
0.000945797 0.000240983 -1.071e-06
0.000240983 0.000512558 -3.04387e-06
-1.071e-06 -3.04387e-06 0.000235461
0.00050268 6.75065e-05 -3.90667e-06
6.75065e-05 0.000190394 -2.30448e-06
-3.90667e-06 -2.30448e-06 -2.3408e-05
0.00276459 -0.00138463 0.000167864
-0.00138463 -0.00113061 -0.000100135
0.000167864 -0.000100135 -0.00016672
0.00107416 -0.00132436 -9.7535e-06
-0.00132436 -0.000661603 -1.31581e-05
-9.7535e-06 -1.31581e-05 -0.000774152
0.00262797 -0.00179191 9.02913e-06
-0.00179191 0.000622021 2.38441e-05
9.02913e-06 2.38441e-05 -0.000119127
6.20071e-05 -0.00126755 1.76382e-05
-0.00126755 -0.000290534 -1.62826e-08
1.76382e-05 -1.62826e-08 -0.000796078
0.00406975 -0.000743928 -5.89567e-05
-0.000743928 0.00280438 8.84846e-05
-5.89567e-05 8.84846e-05 0.00222964
0.000721448 -0.000309671 -1.01748e-05
-0.000309671 0.000703821 -2.33203e-05
-1.01748e-05 -2.33203e-05 0.000283156
0.00148758 0.000103762 -8.58014e-06
0.000103762 0.00107902 -1.21253e-05
-8.58014e-06 -1.21253e-05 0.000670897
0.000884019 8.76003e-05 -7.97937e-06
8.76003e-05 0.00059446 -1.19495e-06
-7.97937e-06 -1.19495e-06 0.000258568
0.00375023 -0.00242484 -4.58481e-05
-0.00242484 -0.000379095 8.6655e-06
-4.58481e-05 8.6655e-06 0.000288519
0.00122976 -0.000134173 -3.26491e-06
-0.000134173 0.00100486 8.51473e-06
-3.26491e-06 8.51473e-06 0.000554146
0.000917374 -0.000326357 1.38223e-05
-0.000326357 0.000837963 -6.88807e-06
1.38223e-05 -6.88807e-06 0.000374572
0.00136187 -0.00154736 2.25138e-05
-0.00154736 5.8058e-05 -5.19661e-06
2.25138e-05 -5.19661e-06 -0.000472004
0.000195047 -0.000788119 -9.00013e-06
-0.000788119 0.00040269 6.34849e-06
-9.00013e-06 6.34849e-06 -0.000145861
0.0013771 -0.00326005 -8.19248e-06
-0.00326005 -0.000188339 7.12625e-07
-8.19248e-06 7.12625e-07 -0.000926207
0.000574639 -0.00115232 -1.27901e-05
-0.00115232 0.000640795 1.00992e-05
-1.27901e-05 1.00992e-05 3.12448e-05
-0.0010918 -0.000226685 -1.03287e-05
-0.000226685 0.000103196 -1.20775e-05
-1.03287e-05 -1.20775e-05 -0.000667915
0.000847223 0.000128143 2.03306e-05
0.000128143 0.000674064 -5.87133e-06
2.03306e-05 -5.87133e-06 0.000383106
-0.000490263 -0.000108973 2.02399e-06
-0.000108973 5.71963e-05 1.69636e-05
2.02399e-06 1.69636e-05 -0.000420863
0.00340827 0.000305389 -0.000241039
0.000305389 0.00244223 -9.52102e-05
-0.000241039 -9.52102e-05 -0.00273841
-0.00608112 0.000630924 -0.00125416
0.000630924 0.00769671 4.85568e-05
-0.00125416 4.85568e-05 0.00105898
-0.00672152 -0.00472776 -0.00229998
-0.00472776 0.00305422 0.000150164
-0.00229998 0.000150164 -0.00645756
-8.87231e-05 0.000662459 2.43402e-05
0.000662459 7.40918e-05 -1.27972e-05
2.43402e-05 -1.27972e-05 -0.000509111
0.00165558 0.00147765 9.38262e-06
0.00147765 0.000857318 1.36358e-05
9.38262e-06 1.36358e-05 -1.59472e-05
0.00553559 0.00289053 9.18299e-05
0.00289053 0.00193397 9.05916e-05
9.18299e-05 9.05916e-05 0.00109785
0.00165762 -0.00138741 0.000282186
-0.00138741 0.0133766 9.52394e-05
0.000282186 9.52394e-05 0.00369208
0.000300568 0.011673 -0.00132594
0.011673 -0.00636573 -0.00024784
-0.00132594 -0.00024784 -0.00488907
0.00104408 0.00592519 0.000644071
0.00592519 -0.000732882 0.000364197
0.000644071 0.000364197 -0.000390209
-0.00016781 0.00216879 -6.47038e-06
0.00216879 0.000324516 -5.82496e-05
-6.47038e-06 -5.82496e-05 -8.24143e-05
0.0356207 -0.00822426 0.000423958
-0.00822426 0.017994 -0.000843065
0.000423958 -0.000843065 0.00578386
0.011276 0.00665754 0.00169658
0.00665754 0.00439353 0.000460118
0.00169658 0.000460118 -0.00393261
0.0156117 -0.000726882 -1.66091e-05
-0.000726882 0.00450878 8.52333e-05
-1.66091e-05 8.52333e-05 0.00379992
0.00237108 0.00146161 9.22376e-06
0.00146161 0.00144675 4.74673e-08
9.22376e-06 4.74673e-08 0.000646214
0.0041845 0.00293156 -0.000207745
0.00293156 0.00588056 -6.32504e-05
-0.000207745 -6.32504e-05 -0.000950094
0.00492594 0.001053 0.000221934
0.001053 0.00289044 -2.66777e-05
0.000221934 -2.66777e-05 -0.00127303
0.000618777 0.00158186 -3.62377e-05
0.00158186 0.000761403 -1.35349e-05
-3.62377e-05 -1.35349e-05 -0.000171444
-0.0015898 0.00375811 -0.000196218
0.00375811 0.000567123 -0.00015546
-0.000196218 -0.00015546 -0.00127917
0.00331577 0.01176 0.000732794
0.01176 0.00292465 0.000271357
0.000732794 0.000271357 -0.0031319
0.0157838 -0.0010974 4.04901e-05
-0.0010974 -0.00100557 -0.00020647
4.04901e-05 -0.00020647 -0.00140487
0.0112691 -0.00458855 -0.000111869
-0.00458855 0.00778743 -0.000292224
-0.000111869 -0.000292224 -0.00217826
0.0017525 0.0012138 -1.60602e-06
0.0012138 0.00156798 -1.30357e-05
-1.60602e-06 -1.30357e-05 0.000670574
-0.00270406 0.00150818 0.000181771
0.00150818 0.00390951 0.000108785
0.000181771 0.000108785 -0.0015253
0.0100408 -0.00210661 0.000661228
-0.00210661 0.00123173 1.90795e-05
0.000661228 1.90795e-05 -0.00202702
0.013534 -0.00199819 0.000383121
-0.00199819 0.0028353 -3.23336e-05
0.000383121 -3.23336e-05 -0.00037978
-0.00312726 0.00107234 7.32769e-05
0.00107234 0.000980757 -8.30679e-06
7.32769e-05 -8.30679e-06 -0.000729086
0.00629859 0.00523606 0.000574931
0.00523606 0.00704895 0.00033088
0.000574931 0.00033088 -0.00146343
0.0149142 -0.00122632 -8.12746e-05
-0.00122632 0.0042848 0.000453027
-8.12746e-05 0.000453027 -0.000759123
0.000998915 0.000489516 1.09642e-05
0.000489516 0.00091239 7.27678e-06
1.09642e-05 7.27678e-06 0.000404358
0.00037976 0.000498946 -8.08065e-06
0.000498946 0.000644631 -2.15682e-06
-8.08065e-06 -2.15682e-06 -7.95816e-06
-0.000367407 0.000246631 2.10771e-05
0.000246631 0.000513448 -5.70562e-06
2.10771e-05 -5.70562e-06 -0.000368795
-0.000595582 1.2509e-05 7.93355e-06
1.2509e-05 -0.000468016 5.51017e-06
7.93355e-06 5.51017e-06 -0.000699372
0.000682436 0.000110891 6.11116e-06
0.000110891 0.000566133 -4.69692e-06
6.11116e-06 -4.69692e-06 0.000232578
-0.000188784 5.48849e-05 -8.89338e-08
5.48849e-05 0.00049129 -2.34438e-07
-8.89338e-08 -2.34438e-07 -0.000182178
-8.6327e-05 -7.35797e-05 -1.34292e-06
-7.35797e-05 0.000113934 -1.09535e-07
-1.34292e-06 -1.09535e-07 -0.000263439
0.000140144 -6.72015e-05 -1.8406e-06
-6.72015e-05 0.000607013 -1.21053e-06
-1.8406e-06 -1.21053e-06 2.22997e-05
-0.000305174 3.18294e-05 3.16372e-06
3.18294e-05 0.000530313 1.03368e-06
3.16372e-06 1.03368e-06 -0.00015506
0.000403038 -0.000202985 -1.18032e-05
-0.000202985 0.000894244 1.78823e-05
-1.18032e-05 1.78823e-05 0.000304796
0.00090909 -0.000108989 6.19602e-07
-0.000108989 0.000989328 -6.96977e-06
6.19602e-07 -6.96977e-06 0.00052902
-0.000730621 5.89114e-06 2.23532e-05
5.89114e-06 -0.000337848 -1.01496e-05
2.23532e-05 -1.01496e-05 -0.000614198
-0.000354453 -0.0002018 -9.58689e-06
-0.0002018 -0.000485588 9.91519e-06
-9.58689e-06 9.91519e-06 -0.000595786
-0.00314675 -0.000105645 5.85644e-06
-0.000105645 -0.00188285 -1.32151e-05
5.85644e-06 -1.32151e-05 -0.0020329
0.000629937 -0.00010081 1.49181e-06
-0.00010081 0.000765923 4.07464e-06
1.49181e-06 4.07464e-06 0.000373329
-0.000852462 -6.96587e-05 -2.28553e-05
-6.96587e-05 -0.000386666 1.95656e-06
-2.28553e-05 1.95656e-06 -0.000928087
0.00356741 -0.000954623 1.96548e-06
-0.000954623 0.00218657 1.41014e-05
1.96548e-06 1.41014e-05 0.00159741
0.00170299 -0.000585592 1.17193e-05
-0.000585592 0.000979264 -2.71531e-06
1.17193e-05 -2.71531e-06 0.000583235
0.000922749 -0.00063515 7.7779e-06
-0.00063515 0.000225359 2.21701e-05
7.7779e-06 2.21701e-05 -0.000210162
0.00123936 -0.000275521 -9.10938e-06
-0.000275521 0.000586377 1.99256e-06
-9.10938e-06 1.99256e-06 0.000315167
0.00101241 -0.000533829 -6.56253e-06
-0.000533829 0.000360007 3.28508e-06
-6.56253e-06 3.28508e-06 -3.60592e-05
0.00268942 -0.00116177 -1.74161e-05
-0.00116177 0.00124461 1.50002e-05
-1.74161e-05 1.50002e-05 0.000502799
0.0021418 -0.00126673 -8.30937e-07
-0.00126673 0.000807729 -3.53583e-06
-8.30937e-07 -3.53583e-06 -5.97127e-06
0.00164818 -0.000635961 1.08835e-05
-0.000635961 0.000611512 -3.05536e-06
1.08835e-05 -3.05536e-06 0.000177795
0.00168959 -0.000984791 2.62018e-06
-0.000984791 0.00069949 -5.59472e-07
2.62018e-06 -5.59472e-07 3.24483e-05
0.00223412 -0.000392828 6.95505e-06
-0.000392828 0.00127474 -1.43643e-05
6.95505e-06 -1.43643e-05 0.000847965
0.00141776 -0.000373775 -4.6441e-06
-0.000373775 0.000568939 3.30783e-06
-4.6441e-06 3.30783e-06 0.000239661
0.000733137 -0.000477455 6.82231e-06
-0.000477455 0.000145152 -1.84909e-05
6.82231e-06 -1.84909e-05 -0.000205802
0.00369795 -0.000393289 -8.59501e-06
-0.000393289 0.00225691 8.54569e-06
-8.59501e-06 8.54569e-06 0.0019067
-0.000397908 -0.000485224 2.47382e-06
-0.000485224 -0.000292988 -4.31851e-06
2.47382e-06 -4.31851e-06 -0.000735303
0.000641382 -0.000124639 1.70684e-05
-0.000124639 0.000289151 6.14068e-06
1.70684e-05 6.14068e-06 -0.000103133
0.00230463 -0.000972946 -1.89313e-05
-0.000972946 0.001334 2.20763e-05
-1.89313e-05 2.20763e-05 0.00101607
0.00133599 -0.000331272 8.88142e-08
-0.000331272 0.000736227 -7.9491e-07
8.88142e-08 -7.9491e-07 0.000422719
-0.00010389 -0.000149097 9.76819e-06
-0.000149097 -0.000283047 1.7336e-05
9.76819e-06 1.7336e-05 -0.000492277
0.00193625 -0.000245484 -9.98308e-06
-0.000245484 0.0012153 -6.34706e-06
-9.98308e-06 -6.34706e-06 0.000934112
0.000311876 -8.54118e-05 -2.948e-06
-8.54118e-05 -4.02876e-06 -7.44042e-07
-2.948e-06 -7.44042e-07 -0.000160285
0.00162517 -5.71802e-05 -2.96647e-05
-5.71802e-05 0.000806137 8.34764e-06
-2.96647e-05 8.34764e-06 0.00076349
0.000578982 -0.000113905 -1.82354e-06
-0.000113905 0.000158375 -5.48086e-07
-1.82354e-06 -5.48086e-07 3.36065e-05
0.00089148 -4.33183e-05 -1.64117e-05
-4.33183e-05 0.000322727 1.10094e-06
-1.64117e-05 1.10094e-06 0.000280451
0.000768048 2.46025e-05 4.06034e-06
2.46025e-05 0.00021656 3.32283e-06
4.06034e-06 3.32283e-06 0.000208078
0.000412836 -5.51638e-05 3.34526e-06
-5.51638e-05 1.09827e-05 -6.62529e-06
3.34526e-06 -6.62529e-06 -2.89629e-05
0.00183063 2.16382e-05 2.37318e-05
2.16382e-05 0.000931668 -1.60384e-06
2.37318e-05 -1.60384e-06 0.000937604
0.0025739 5.2232e-06 3.34312e-05
5.2232e-06 0.00142876 -6.03305e-06
3.34312e-05 -6.03305e-06 0.00144177
0.000182645 2.79557e-05 3.10429e-06
2.79557e-05 -4.81809e-05 1.57366e-06
3.10429e-06 1.57366e-06 -0.000290114
-0.000123898 3.93126e-05 1.14497e-06
3.93126e-05 -0.000317738 -8.27932e-06
1.14497e-06 -8.27932e-06 -0.000433481
0.000604021 7.6167e-05 4.78514e-07
7.6167e-05 0.000224375 1.3435e-06
4.78514e-07 1.3435e-06 2.63934e-05
0.000363105 1.6986e-05 4.40679e-06
1.6986e-05 -3.39047e-05 -7.11264e-06
4.40679e-06 -7.11264e-06 -6.60349e-05
0.000239799 7.99485e-06 1.58761e-06
7.99485e-06 -7.69609e-05 2.64518e-07
1.58761e-06 2.64518e-07 -0.00017499
0.000332994 -0.000139995 -5.07432e-07
-0.000139995 4.87292e-05 5.22456e-06
-5.07432e-07 5.22456e-06 -0.000129381
0.00247443 2.16655e-06 -1.91404e-05
2.16655e-06 0.00136547 -6.80966e-06
-1.91404e-05 -6.80966e-06 0.00137709
0.000355585 1.28665e-05 1.67948e-06
1.28665e-05 -4.01335e-05 -1.13908e-07
1.67948e-06 -1.13908e-07 -6.66598e-05
0.000354677 -1.75783e-05 -6.92319e-06
-1.75783e-05 1.40783e-07 5.79171e-06
-6.92319e-06 5.79171e-06 -8.534e-05
0.00238119 1.78024e-05 -6.48793e-06
1.78024e-05 0.001304 -3.68418e-08
-6.48793e-06 -3.68418e-08 0.00131578
0.000348567 -7.90281e-06 -4.61397e-06
-7.90281e-06 -4.47504e-05 5.44225e-06
-4.61397e-06 5.44225e-06 -6.86329e-05
0.00244849 3.94139e-05 1.39186e-05
3.94139e-05 0.00135142 7.41024e-06
1.39186e-05 7.41024e-06 0.00136079
-0.00229193 -0.00294185 -0.000343163
-0.00294185 6.8835e-05 0.000148304
-0.000343163 0.000148304 -0.00560035
0.00844499 0.00578747 -0.000539249
0.00578747 0.0166833 6.75814e-05
-0.000539249 6.75814e-05 0.00520643
0.0115477 0.00369566 -0.00252111
0.00369566 0.00874014 0.000261753
-0.00252111 0.000261753 0.00351003
0.000353884 0.000129757 9.77023e-06
0.000129757 0.00011195 3.34037e-06
9.77023e-06 3.34037e-06 -0.000171588
0.00975696 -0.00258518 -0.00030757
-0.00258518 0.00709081 0.000400959
-0.00030757 0.000400959 0.00254566
0.00630023 -0.00232291 -0.000243938
-0.00232291 0.00346795 3.30979e-05
-0.000243938 3.30979e-05 -0.00259011
0.0303183 0.0169829 -4.72892e-05
0.0169829 0.0209423 -0.000822134
-4.72892e-05 -0.000822134 0.00278232
0.00634382 -0.00302762 0.000222039
-0.00302762 -0.00341753 -5.98025e-05
0.000222039 -5.98025e-05 -0.000173853
0.0111366 -0.00642941 0.000446743
-0.00642941 -0.00584816 -0.000366647
0.000446743 -0.000366647 -0.00177601
0.0245426 0.00887652 -0.00129003
0.00887652 0.0132282 0.000108409
-0.00129003 0.000108409 0.000293493
0.0221631 0.00617527 0.00082637
0.00617527 0.0160802 0.000474704
0.00082637 0.000474704 0.0086947
0.00738215 -0.00552986 -9.67964e-05
-0.00552986 -0.00242076 4.82035e-06
-9.67964e-05 4.82035e-06 0.000569116
0.0105202 -0.0112778 6.25414e-05
-0.0112778 -0.000945886 -0.000110277
6.25414e-05 -0.000110277 -0.00139061
0.0176063 0.0021037 3.97762e-05
0.0021037 0.0134063 -0.000642336
3.97762e-05 -0.000642336 0.00199789
0.0193887 0.00140762 -4.93031e-05
0.00140762 0.00555224 0.000106517
-4.93031e-05 0.000106517 0.000205621
0.00500759 -0.00746151 1.19824e-05
-0.00746151 0.000304258 4.81821e-05
1.19824e-05 4.81821e-05 0.00124406
0.00690457 -0.00980012 0.00049462
-0.00980012 0.00455058 -0.000286485
0.00049462 -0.000286485 -0.000228436
0.00915756 0.00111216 -0.000230494
0.00111216 0.00851767 -0.000482997
-0.000230494 -0.000482997 0.00138269
0.019474 -0.00116056 -0.000352875
-0.00116056 0.00224103 0.000347273
-0.000352875 0.000347273 0.000717223
-2.05223e-05 0.000323069 2.63509e-05
0.000323069 -6.97696e-05 2.50355e-05
2.63509e-05 2.50355e-05 -0.000304959
0.000438749 -0.000109735 -1.65637e-06
-0.000109735 0.000238895 -3.91662e-06
-1.65637e-06 -3.91662e-06 -4.23448e-05
-0.000672007 -6.74011e-05 2.65883e-06
-6.74011e-05 -0.000603807 5.87637e-07
2.65883e-06 5.87637e-07 -0.000744896
0.000979439 0.000254841 2.02942e-05
0.000254841 0.00047439 2.06843e-05
2.02942e-05 2.06843e-05 0.000232719
0.00104674 0.000289751 -5.38195e-06
0.000289751 0.000603082 -5.07833e-06
-5.38195e-06 -5.07833e-06 0.000305188
0.000571762 0.000131193 2.7262e-06
0.000131193 0.000276735 -3.44005e-06
2.7262e-06 -3.44005e-06 3.48797e-05
0.00144458 0.000268014 -1.94836e-06
0.000268014 0.000873077 9.71434e-08
-1.94836e-06 9.71434e-08 0.000555606
0.00116707 0.000230836 -6.00194e-07
0.000230836 0.000680442 4.71405e-06
-6.00194e-07 4.71405e-06 0.000388977
0.0036503 -0.00231527 0.000193911
-0.00231527 -0.000497281 -0.000123667
0.000193911 -0.000123667 0.000361963
-0.00159942 -0.00114 -1.36867e-05
-0.00114 -0.00164117 -1.18596e-05
-1.36867e-05 -1.18596e-05 -0.00196903
-0.00110431 8.45828e-05 -1.60784e-05
8.45828e-05 -0.00076122 -8.38344e-06
-1.60784e-05 -8.38344e-06 -0.000986628
-3.60663e-05 -0.000693986 2.09641e-05
-0.000693986 0.000126637 -8.70137e-06
2.09641e-05 -8.70137e-06 -0.00029977
0.00186267 -0.000513903 -4.42168e-05
-0.000513903 0.00134317 3.39508e-06
-4.42168e-05 3.39508e-06 0.000885684
0.000584312 -7.42069e-05 3.2234e-06
-7.42069e-05 0.000577994 -2.89693e-05
3.2234e-06 -2.89693e-05 0.00010961
-0.000830336 0.000195317 2.00813e-06
0.000195317 -0.000418137 1.76372e-05
2.00813e-06 1.76372e-05 -0.000718404
0.00192331 -0.00328156 -2.94201e-05
-0.00328156 -3.43788e-05 -4.91181e-06
-2.94201e-05 -4.91181e-06 -0.000720583
0.00107881 -0.000251645 -3.73677e-06
-0.000251645 0.000999523 9.02733e-06
-3.73677e-06 9.02733e-06 0.000511436
-0.000583001 -0.000192452 -1.13491e-06
-0.000192452 0.000211265 8.15173e-06
-1.13491e-06 8.15173e-06 -0.000423814
-0.000873564 -0.000949177 1.28742e-05
-0.000949177 -0.000328908 1.68217e-06
1.28742e-05 1.68217e-06 -0.000765084
-0.00108463 -6.78133e-05 2.70355e-05
-6.78133e-05 -0.000479896 4.52142e-07
2.70355e-05 4.52142e-07 -0.000818791
0.00308033 -0.00334644 -0.000107933
-0.00334644 0.00259779 -1.22812e-05
-0.000107933 -1.22812e-05 0.000891239
-0.000787824 -0.000849599 1.18505e-05
-0.000849599 0.000120651 -2.54496e-05
1.18505e-05 -2.54496e-05 -0.000584685
0.000309677 -1.42976e-05 1.49536e-05
-1.42976e-05 0.000887044 -2.49769e-05
1.49536e-05 -2.49769e-05 0.000106613
-0.000964203 -0.000184625 3.21687e-05
-0.000184625 3.55124e-05 2.21689e-05
3.21687e-05 2.21689e-05 -0.000734694
0.00199583 -0.000519091 0.000479819
-0.000519091 0.00769052 0.000105971
0.000479819 0.000105971 0.00185329
-0.000359389 5.15795e-05 0.000190743
5.15795e-05 0.00111174 3.17473e-06
0.000190743 3.17473e-06 -0.00411468
-0.0119637 -0.000847976 -0.00149401
-0.000847976 0.00545398 1.90882e-05
-0.00149401 1.90882e-05 0.00076918
0.00216422 0.00133579 2.78466e-05
0.00133579 0.00136171 5.04002e-06
2.78466e-05 5.04002e-06 0.000631946
-0.000487379 0.0018221 3.34349e-05
0.0018221 0.000228165 2.0013e-05
3.34349e-05 2.0013e-05 -0.000906908
0.00522383 0.0034821 0.00096255
0.0034821 0.00569956 0.000229593
0.00096255 0.000229593 -0.000943254
0.00187971 0.00672983 0.000231157
0.00672983 0.00348915 0.000297353
0.000231157 0.000297353 -0.000561727
0.000536697 0.00537454 -0.00033049
0.00537454 0.00184486 -0.000277082
-0.00033049 -0.000277082 -0.00104332
0.0106428 -0.00143271 -0.000154406
-0.00143271 0.00842109 -0.000554595
-0.000154406 -0.000554595 0.00112368
0.005655 0.000252316 -2.36461e-05
0.000252316 0.0037956 7.34112e-05
-2.36461e-05 7.34112e-05 -0.000158387
0.0119539 -0.000165024 -4.43504e-05
-0.000165024 -0.00303127 -0.000328314
-4.43504e-05 -0.000328314 -0.00379571
0.000889154 0.0012923 5.96027e-06
0.0012923 0.00101744 -9.29765e-07
5.96027e-06 -9.29765e-07 3.14946e-05
-0.0012412 0.00104853 2.75258e-05
0.00104853 0.00422143 -7.29106e-06
2.75258e-05 -7.29106e-06 -0.00131488
0.00902024 -0.000716737 0.000369302
-0.000716737 0.00117207 6.39666e-06
0.000369302 6.39666e-06 -0.00258575
-0.00231124 0.00152177 -3.92578e-05
0.00152177 0.000533306 -2.12605e-05
-3.92578e-05 -2.12605e-05 -0.0010991
0.0206542 0.00184582 4.41634e-05
0.00184582 0.00547983 -0.000125566
4.41634e-05 -0.000125566 1.85581e-05
0.00365847 0.00372124 0.000480531
0.00372124 0.00710449 0.000324402
0.000480531 0.000324402 -0.00106703
0.0166116 0.000783617 -0.000265515
0.000783617 0.00620946 -3.8467e-05
-0.000265515 -3.8467e-05 -0.000232628
-4.718e-05 0.00103808 7.15812e-06
0.00103808 0.000858 -1.28906e-05
7.15812e-06 -1.28906e-05 -0.000329856
0.00624359 -4.45684e-06 0.00025051
-4.45684e-06 0.00434243 9.89436e-05
0.00025051 9.89436e-05 0.000120994
0.00383624 -0.00490722 0.000479378
-0.00490722 0.00547651 -0.000254477
0.000479378 -0.000254477 0.00173303
0.0400644 0.00884178 0.000759476
0.00884178 0.0194706 -0.000477814
0.000759476 -0.000477814 0.00795847
0.0119772 -2.29242e-05 3.25662e-05
-2.29242e-05 0.00995409 0.00065511
3.25662e-05 0.00065511 0.00265074
-0.002179 0.00130078 -0.000204225
0.00130078 0.0016413 -0.000143942
-0.000204225 -0.000143942 -0.000236562
0.00161888 -0.000441946 0.000172343
-0.000441946 0.00625727 -8.46512e-05
0.000172343 -8.46512e-05 -0.0045788
0.000552836 0.000600704 -9.75246e-07
0.000600704 0.000699836 8.6957e-06
-9.75246e-07 8.6957e-06 1.14578e-05
0.000444872 0.00034631 3.80134e-07
0.00034631 0.00102431 4.85653e-06
3.80134e-07 4.85653e-06 0.000200793
0.000719827 -0.000143434 -2.33111e-05
-0.000143434 0.00162785 2.21128e-05
-2.33111e-05 2.21128e-05 0.000832082
-0.00101152 6.79162e-05 1.93959e-05
6.79162e-05 -0.000511375 -6.13252e-06
1.93959e-05 -6.13252e-06 -0.000863806
-0.000677077 9.01818e-06 9.26851e-06
9.01818e-06 0.00015386 6.83689e-06
9.26851e-06 6.83689e-06 -0.00046289
6.25904e-05 4.85897e-05 -1.09506e-05
4.85897e-05 0.00075797 -3.61194e-06
-1.09506e-05 -3.61194e-06 6.83637e-05
0.000197363 -3.14737e-05 -7.2303e-06
-3.14737e-05 0.000522754 1.80812e-06
-7.2303e-06 1.80812e-06 8.58322e-05
4.11323e-05 -0.000159151 1.98912e-06
-0.000159151 0.000718143 2.34234e-06
1.98912e-06 2.34234e-06 0.000106695
0.00363616 -0.000808883 1.79698e-05
-0.000808883 0.00249037 -7.62632e-06
1.79698e-05 -7.62632e-06 0.00199318
0.000197559 -6.50885e-05 -2.1853e-06
-6.50885e-05 0.000456237 -8.96949e-06
-2.1853e-06 -8.96949e-06 7.2993e-05
-0.00593086 0.000141717 1.23734e-06
0.000141717 -0.00330356 -1.1873e-06
1.23734e-06 -1.1873e-06 -0.0039809
0.000985177 -0.000661222 1.44227e-07
-0.000661222 0.000783696 7.20334e-06
1.44227e-07 7.20334e-06 6.31096e-05
-0.00143527 -0.000320774 2.31592e-05
-0.000320774 -0.000924798 2.3628e-05
2.31592e-05 2.3628e-05 -0.00140398
-0.00045004 -0.000313479 -6.28105e-06
-0.000313479 -0.000282245 -1.68103e-05
-6.28105e-06 -1.68103e-05 -0.000558415
0.000272769 -0.000628503 -1.24056e-05
-0.000628503 -0.00016195 -5.1986e-06
-1.24056e-05 -5.1986e-06 -0.000578384
0.00218577 -0.00120958 -2.21111e-05
-0.00120958 0.000916155 8.46477e-06
-2.21111e-05 8.46477e-06 2.77692e-05
0.00254136 -0.00147009 -1.73681e-05
-0.00147009 0.000959473 4.58369e-06
-1.73681e-05 4.58369e-06 5.68038e-05
0.00234794 -0.000671741 -2.38685e-06
-0.000671741 0.00116804 -1.26347e-05
-2.38685e-06 -1.26347e-05 0.000758054
0.00223584 -0.00111146 -1.34194e-06
-0.00111146 0.000957575 1.98148e-06
-1.34194e-06 1.98148e-06 0.000219823
0.00229674 -0.00135606 1.20895e-05
-0.00135606 0.000826355 -8.62034e-06
1.20895e-05 -8.62034e-06 -5.89052e-06
0.00186931 -0.000960091 5.13848e-06
-0.000960091 0.00075913 -2.60146e-06
5.13848e-06 -2.60146e-06 9.45401e-05
0.00179359 -0.00122113 4.58809e-06
-0.00122113 0.000601343 -3.05502e-06
4.58809e-06 -3.05502e-06 -0.000199695
0.0028519 -0.000426481 -1.87568e-06
-0.000426481 0.00144933 -9.68483e-06
-1.87568e-06 -9.68483e-06 0.0011164
0.000363357 -0.000531387 -1.39385e-07
-0.000531387 -0.000179011 1.10796e-07
-1.39385e-07 1.10796e-07 -0.000621391
0.0011916 -0.000883364 1.72113e-06
-0.000883364 0.000403106 -8.26399e-06
1.72113e-06 -8.26399e-06 -0.000225543
-0.000107073 -0.000218822 9.39745e-06
-0.000218822 -0.000148454 -6.66365e-08
9.39745e-06 -6.66365e-08 -0.000618241
0.000658914 -0.00037096 -4.72841e-08
-0.00037096 0.000339022 -1.31889e-06
-4.72841e-08 -1.31889e-06 -0.000122262
-0.000406344 -0.000238002 -6.64875e-06
-0.000238002 -0.000506236 -9.7362e-07
-6.64875e-06 -9.7362e-07 -0.000847704
0.00105713 -0.000618267 -1.66199e-05
-0.000618267 0.000576307 2.593e-05
-1.66199e-05 2.593e-05 0.000141053
0.00118295 -0.000394584 1.72408e-06
-0.000394584 0.000608779 1.02802e-06
1.72408e-06 1.02802e-06 0.000217139
-0.000611943 -0.00013022 7.73135e-06
-0.00013022 -0.000589525 1.47566e-05
7.73135e-06 1.47566e-05 -0.000893935
0.000631233 -0.000581575 -1.53789e-05
-0.000581575 0.000311049 -8.30601e-06
-1.53789e-05 -8.30601e-06 -4.33342e-05
0.00040508 -0.000118208 -1.37238e-06
-0.000118208 5.16576e-05 -1.7979e-07
-1.37238e-06 -1.7979e-07 -0.000165232
0.00035411 1.71038e-05 2.7502e-06
1.71038e-05 -3.85751e-05 1.42812e-05
2.7502e-06 1.42812e-05 -0.000104972
0.00184048 -0.000234935 -7.53741e-06
-0.000234935 0.000995897 -6.54813e-06
-7.53741e-06 -6.54813e-06 0.000823531
0.00045827 -6.18199e-05 -2.77036e-06
-6.18199e-05 2.10198e-05 3.2526e-07
-2.77036e-06 3.2526e-07 -2.95583e-05
0.00290598 9.92817e-05 7.40596e-06
9.92817e-05 0.00165305 4.33402e-06
7.40596e-06 4.33402e-06 0.00165042
0.000462963 -7.02991e-05 2.7771e-06
-7.02991e-05 3.50449e-05 -7.07269e-06
2.7771e-06 -7.07269e-06 -1.30557e-05
0.00191026 3.26013e-05 3.1391e-05
3.26013e-05 0.000985209 -1.89804e-06
3.1391e-05 -1.89804e-06 0.000986277
0.0029664 1.87555e-05 4.67687e-05
1.87555e-05 0.0016894 -7.27613e-06
4.67687e-05 -7.27613e-06 0.00170036
-0.000229706 0.000104981 2.77593e-06
0.000104981 -0.000325869 7.75809e-06
2.77593e-06 7.75809e-06 -0.000573285
-0.000219784 5.56727e-05 2.96633e-06
5.56727e-05 -0.000370771 -8.35733e-06
2.96633e-06 -8.35733e-06 -0.000522754
0.000199132 0.000138774 -8.35809e-07
0.000138774 -2.2191e-05 9.19891e-07
-8.35809e-07 9.19891e-07 -0.000268281
0.000391414 2.52403e-05 3.58386e-06
2.52403e-05 -1.66078e-05 -8.08157e-06
3.58386e-06 -8.08157e-06 -5.47012e-05
-7.07367e-05 4.13998e-05 -9.88565e-07
4.13998e-05 -0.000278773 -2.80937e-06
-9.88565e-07 -2.80937e-06 -0.000398301
0.00101236 0.000119467 -1.22476e-06
0.000119467 0.000537071 5.63389e-06
-1.22476e-06 5.63389e-06 0.000309967
0.00270317 -1.32498e-05 -2.75486e-05
-1.32498e-05 0.00151886 -7.17091e-06
-2.75486e-05 -7.17091e-06 0.00152878
0.000368565 1.79234e-05 -3.00019e-07
1.79234e-05 -3.17887e-05 -2.51456e-07
-3.00019e-07 -2.51456e-07 -6.31675e-05
-0.000176264 2.42443e-05 -7.00697e-07
2.42443e-05 -0.000355662 6.57778e-06
-7.00697e-07 6.57778e-06 -0.000454244
0.00246655 1.76247e-06 -5.4108e-06
1.76247e-06 0.00136034 1.0733e-07
-5.4108e-06 1.0733e-07 0.00137193
0.000367058 2.35841e-05 -1.98676e-06
2.35841e-05 -3.19637e-05 6.04916e-06
-1.98676e-06 6.04916e-06 -5.85059e-05
0.0023921 1.86232e-05 1.3069e-05
1.86232e-05 0.00131191 6.50379e-06
1.3069e-05 6.50379e-06 0.0013234
0.000939446 -0.000521834 0.000427882
-0.000521834 0.00740446 0.000249005
0.000427882 0.000249005 0.00373639
-0.00271503 -0.000958568 -5.90246e-05
-0.000958568 0.000206032 1.18501e-05
-5.90246e-05 1.18501e-05 -0.00562855
0.00448998 0.00578096 -0.00111731
0.00578096 0.0152179 -0.000317434
-0.00111731 -0.000317434 0.00384102
0.000954576 0.000240895 -9.3226e-08
0.000240895 0.000519956 -5.44751e-07
-9.3226e-08 -5.44751e-07 0.000227438
-0.00112816 0.000138466 1.03412e-05
0.000138466 -0.000784431 -1.58946e-06
1.03412e-05 -1.58946e-06 -0.00112314
0.00299289 0.000437535 3.63114e-05
0.000437535 0.00188378 6.78123e-07
3.63114e-05 6.78123e-07 0.00159181
0.0112134 -0.00151311 -0.000633764
-0.00151311 0.000976511 4.27573e-05
-0.000633764 4.27573e-05 -0.00333832
0.0109592 -0.00463071 0.000256989
-0.00463071 0.00613797 6.22441e-05
0.000256989 6.22441e-05 0.00280253
0.00488564 -0.00590987 0.000426747
-0.00590987 0.00231701 -0.000356946
0.000426747 -0.000356946 -0.00279717
0.00847048 -0.0060922 7.54245e-05
-0.0060922 -0.00247979 -0.000144653
7.54245e-05 -0.000144653 0.00081204
0.00326601 -0.0111135 -0.00141721
-0.0111135 -0.00566171 0.00018144
-0.00141721 0.00018144 -0.00379203
0.0340859 0.00963228 0.00119694
0.00963228 0.0210526 0.000411753
0.00119694 0.000411753 0.00616955
0.0108467 -0.00223103 0.000537251
-0.00223103 0.000204363 -0.000335341
0.000537251 -0.000335341 -0.00429401
0.00425644 -0.00689659 6.62691e-06
-0.00689659 -0.000266532 1.10051e-05
6.62691e-06 1.10051e-05 0.00111498
0.00371292 -0.0107611 -0.000396094
-0.0107611 0.00348107 2.01273e-05
-0.000396094 2.01273e-05 -0.00281932
0.0118989 0.00528387 -0.00025971
0.00528387 0.00930693 -0.000460386
-0.00025971 -0.000460386 0.000682284
0.0158421 -0.000699046 -0.000240713
-0.000699046 0.000173608 0.000195756
-0.000240713 0.000195756 -0.00104284
0.00122382 -0.00590158 -0.000259028
-0.00590158 0.00240221 0.000156211
-0.000259028 0.000156211 0.000489851
0.00878363 -0.00512002 -0.000401418
-0.00512002 0.00791487 0.00038014
-0.000401418 0.00038014 0.000938915
0.0143617 -0.000430135 6.74165e-05
-0.000430135 0.00527599 -0.000398665
6.74165e-05 -0.000398665 -0.000556777
0.0106059 0.00139334 -0.00016948
0.00139334 -8.95233e-05 0.000290171
-0.00016948 0.000290171 -0.00398224
-0.000409818 0.00014013 1.82095e-05
0.00014013 -0.000290478 3.57439e-05
1.82095e-05 3.57439e-05 -0.000479058
0.000686517 5.13336e-05 -7.82769e-06
5.13336e-05 0.000411003 2.73258e-06
-7.82769e-06 2.73258e-06 0.000170689
0.00126138 -0.000389706 1.08261e-05
-0.000389706 0.000798785 -1.40196e-05
1.08261e-05 -1.40196e-05 0.00050049
0.000472211 0.000199725 1.66539e-06
0.000199725 0.000124078 5.37306e-06
1.66539e-06 5.37306e-06 -9.59608e-05
0.000777186 0.000310345 -3.8165e-06
0.000310345 0.000431112 -1.37241e-05
-3.8165e-06 -1.37241e-05 0.000134904
0.00124084 0.000351804 -8.72839e-06
0.000351804 0.000759768 -5.58658e-06
-8.72839e-06 -5.58658e-06 0.000430782
0.00187487 -0.00284657 8.45065e-05
-0.00284657 0.000138132 -3.86797e-05
8.45065e-05 -3.86797e-05 -0.000310672
0.000183193 -0.000979752 8.12225e-06
-0.000979752 6.50166e-05 -2.57119e-05
8.12225e-06 -2.57119e-05 -0.00026393
-0.000498044 0.000206407 -1.67969e-05
0.000206407 -0.000262309 -3.26901e-05
-1.67969e-05 -3.26901e-05 -0.000567896
0.000620032 -0.000347469 4.25786e-05
-0.000347469 0.000724581 -1.29434e-05
4.25786e-05 -1.29434e-05 0.000153923
0.00289728 -0.000204659 -6.99617e-06
-0.000204659 0.00209862 -3.73068e-05
-6.99617e-06 -3.73068e-05 0.00160615
-0.000488227 2.22249e-05 7.16877e-06
2.22249e-05 -9.95767e-05 7.28891e-06
7.16877e-06 7.28891e-06 -0.000437937
-0.000326224 2.21616e-05 6.13272e-06
2.21616e-05 0.000471843 1.91989e-05
6.13272e-06 1.91989e-05 -0.000251119
0.00115536 -0.00287244 6.15049e-06
-0.00287244 0.00170351 -1.80852e-05
6.15049e-06 -1.80852e-05 0.000196831
-3.73304e-05 -4.69142e-05 -7.47363e-06
-4.69142e-05 0.000743487 3.71864e-07
-7.47363e-06 3.71864e-07 -9.88072e-05
0.000252378 -0.000827564 -4.81999e-06
-0.000827564 0.00104525 6.18791e-06
-4.81999e-06 6.18791e-06 9.98069e-05
-6.68688e-07 0.000212755 6.42039e-05
0.000212755 0.000546884 -3.26158e-05
6.42039e-05 -3.26158e-05 -0.00011639
-0.00297642 -0.000616714 -0.000255291
-0.000616714 0.000694263 9.1032e-06
-0.000255291 9.1032e-06 -0.000712505
-0.000931784 -0.000292076 -6.74883e-05
-0.000292076 0.00124131 -3.36483e-05
-6.74883e-05 -3.36483e-05 0.000110208
-0.00202822 -6.4958e-05 4.67668e-05
-6.4958e-05 -0.000272381 1.03544e-06
4.67668e-05 1.03544e-06 -0.00108369
0.0022443 0.000906204 2.3326e-05
0.000906204 0.000282797 -3.2433e-05
2.3326e-05 -3.2433e-05 -0.00731394
-0.000530272 0.00186406 0.000333831
0.00186406 0.00712743 4.88132e-05
0.000333831 4.88132e-05 0.00199943
-0.00263966 0.000697571 0.000537772
0.000697571 0.000614993 4.31805e-05
0.000537772 4.31805e-05 -0.00399341
-3.72715e-05 0.00135648 1.84906e-05
0.00135648 0.000434964 2.8811e-05
1.84906e-05 2.8811e-05 -0.000645669
0.00182351 0.00234106 1.12841e-05
0.00234106 0.0021077 -5.14411e-05
1.12841e-05 -5.14411e-05 0.00042356
-0.000721892 0.00118552 -0.00048173
0.00118552 0.00477438 -0.000132708
-0.00048173 -0.000132708 -0.00083139
-0.00174837 0.00219622 0.00036234
0.00219622 0.00625235 0.000356387
0.00036234 0.000356387 -0.000966607
0.0113836 -7.91715e-06 -0.000211419
-7.91715e-06 0.000907646 -0.000537716
-0.000211419 -0.000537716 -0.00609301
0.00955618 6.77437e-05 7.97855e-05
6.77437e-05 0.000408169 -5.37156e-05
7.97855e-05 -5.37156e-05 -0.00263416
0.00964554 -0.00220597 -0.000563033
-0.00220597 -0.00061188 0.000322911
-0.000563033 0.000322911 -0.00454088
0.000542407 0.000955317 -2.25309e-05
0.000955317 0.00121485 -4.97239e-06
-2.25309e-05 -4.97239e-06 0.00015983
0.00321401 0.00108404 0.000136555
0.00108404 0.00432234 7.64934e-05
0.000136555 7.64934e-05 0.000245828
0.0103288 -0.00335564 -0.000261304
-0.00335564 0.00557138 -5.41247e-05
-0.000261304 -5.41247e-05 0.00261946
-0.000545854 0.00151916 -0.000208183
0.00151916 0.00345102 -3.26243e-05
-0.000208183 -3.26243e-05 0.000168859
0.0298628 0.0083929 -0.000699506
0.0083929 0.0160628 -0.000642358
-0.000699506 -0.000642358 0.00528887
0.0161287 0.00424146 0.000183329
0.00424146 0.0108613 0.000533944
0.000183329 0.000533944 0.000713206
0.00814388 0.00369458 0.000139574
0.00369458 0.00888436 -4.5384e-06
0.000139574 -4.5384e-06 0.000709754
-2.0384e-05 4.78095e-05 7.66382e-05
4.78095e-05 0.00215135 -1.63877e-05
7.66382e-05 -1.63877e-05 7.64597e-05
0.00346141 0.000603079 -0.000496054
0.000603079 0.00972996 -8.90526e-06
-0.000496054 -8.90526e-06 0.00566634
0.0025342 -0.00190537 0.000737666
-0.00190537 0.00177154 -0.00027564
0.000737666 -0.00027564 -0.00490441
0.0520024 0.0217639 5.78354e-05
0.0217639 0.0356585 -0.000303212
5.78354e-05 -0.000303212 0.0145983
0.0213237 0.00700322 0.00123414
0.00700322 0.0124692 0.00159608
0.00123414 0.00159608 -0.000245948
0.0122048 -0.00756546 0.000781772
-0.00756546 0.00984068 -0.000547847
0.000781772 -0.000547847 9.95813e-05
5.08328e-05 -0.000989555 -8.97599e-05
-0.000989555 0.00454366 6.57875e-05
-8.97599e-05 6.57875e-05 0.00219945
0.00120416 0.000409985 -1.30577e-05
0.000409985 0.00145261 -2.40811e-06
-1.30577e-05 -2.40811e-06 0.000711136
-0.000340793 -0.000113966 -1.68449e-05
-0.000113966 0.000792726 -7.91723e-06
-1.68449e-05 -7.91723e-06 -0.000122967
0.00110402 -0.00108522 7.23555e-05
-0.00108522 0.00139875 -1.56559e-05
7.23555e-05 -1.56559e-05 0.000248926
-0.000765458 2.56363e-05 1.90048e-06
2.56363e-05 -8.86486e-05 3.53342e-06
1.90048e-06 3.53342e-06 -0.000514798
-0.000402574 -0.000111006 1.70073e-05
-0.000111006 0.00046038 -1.99472e-05
1.70073e-05 -1.99472e-05 -0.000143148
0.00127674 -0.000549297 -8.64761e-06
-0.000549297 0.00118675 1.04911e-06
-8.64761e-06 1.04911e-06 0.00077898
0.00305737 -0.00144241 5.19249e-05
-0.00144241 0.00187231 -1.31896e-05
5.19249e-05 -1.31896e-05 0.000934723
-0.00153096 -0.000364597 7.59746e-06
-0.000364597 -0.000617571 -6.95697e-06
7.59746e-06 -6.95697e-06 -0.00145321
0.00205085 -0.00107281 2.13849e-05
-0.00107281 0.000868599 -6.67458e-06
2.13849e-05 -6.67458e-06 0.000266235
-0.000672718 -0.000795771 -1.281e-05
-0.000795771 -0.00045817 2.61623e-06
-1.281e-05 2.61623e-06 -0.00155806
0.000928309 -0.000718946 -1.42524e-05
-0.000718946 0.000267571 -5.62791e-06
-1.42524e-05 -5.62791e-06 -0.000128327
0.00187811 -0.00114842 2.77769e-06
-0.00114842 0.000736199 -2.86411e-06
2.77769e-06 -2.86411e-06 -0.000129012
0.00243574 -0.00153563 -2.83115e-05
-0.00153563 0.000821806 4.59463e-06
-2.83115e-05 4.59463e-06 -0.000206415
0.00302175 -0.00166219 -1.47081e-05
-0.00166219 0.000923714 -4.85297e-07
-1.47081e-05 -4.85297e-07 1.93843e-05
0.00256492 -0.00160022 -2.10268e-06
-0.00160022 0.00088719 -1.41531e-06
-2.10268e-06 -1.41531e-06 -4.77549e-05
0.00271369 -0.00147983 -3.70166e-06
-0.00147983 0.00104455 1.63659e-06
-3.70166e-06 1.63659e-06 0.00014116
0.00175612 -0.00104938 1.35705e-06
-0.00104938 0.000663098 -8.15497e-06
1.35705e-06 -8.15497e-06 -6.58964e-05
0.00249245 -0.00135362 1.13887e-05
-0.00135362 0.00106367 -8.97371e-06
1.13887e-05 -8.97371e-06 0.000216931
0.00199156 -0.00133233 1.18437e-05
-0.00133233 0.0006301 -3.62273e-06
1.18437e-05 -3.62273e-06 -0.000195895
0.00186433 -0.000642603 -9.53728e-06
-0.000642603 0.000728098 -2.63016e-06
-9.53728e-06 -2.63016e-06 0.000244331
0.00255432 -0.00104062 4.06094e-06
-0.00104062 0.00116976 -4.69622e-06
4.06094e-06 -4.69622e-06 0.000492332
0.00104254 -0.00112228 2.29863e-06
-0.00112228 0.000140136 4.30681e-07
2.29863e-06 4.30681e-07 -0.000633262
0.00039338 -5.79156e-05 2.52909e-06
-5.79156e-05 3.08622e-05 -2.82328e-06
2.52909e-06 -2.82328e-06 -0.000342918
0.000137444 -0.000434594 1.73198e-06
-0.000434594 -0.000281083 -3.86986e-07
1.73198e-06 -3.86986e-07 -0.00063622
0.000935759 -0.000598371 -1.37542e-05
-0.000598371 0.000158502 6.31745e-06
-1.37542e-05 6.31745e-06 -0.000306853
2.01413e-05 -0.000248592 9.27906e-06
-0.000248592 -0.000155627 8.0824e-06
9.27906e-06 8.0824e-06 -0.00055383
0.00100302 -0.000403059 -4.80983e-08
-0.000403059 0.000560346 1.32163e-06
-4.80983e-08 1.32163e-06 8.37735e-05
-0.00204482 -0.000502229 -7.36129e-06
-0.000502229 -0.0013887 1.26049e-05
-7.36129e-06 1.26049e-05 -0.00185414
0.00120044 -0.000582816 -1.0412e-05
-0.000582816 0.000607049 -5.42307e-06
-1.0412e-05 -5.42307e-06 0.000207785
0.00107886 -0.000212764 -1.83753e-07
-0.000212764 0.000483746 9.27251e-07
-1.83753e-07 9.27251e-07 0.000193279
0.000349429 -2.51719e-05 2.68381e-06
-2.51719e-05 -3.21566e-05 2.11705e-05
2.68381e-06 2.11705e-05 -0.000134329
0.00209604 -0.00022111 -3.76654e-06
-0.00022111 0.00113226 -1.66497e-05
-3.76654e-06 -1.66497e-05 0.000921936
0.000449167 -3.04726e-05 -8.59335e-06
-3.04726e-05 2.93272e-05 -9.55087e-07
-8.59335e-06 -9.55087e-07 -4.58234e-05
0.00367166 0.000106362 -5.54275e-05
0.000106362 0.00217394 8.61326e-06
-5.54275e-05 8.61326e-06 0.0021701
0.000569806 -6.80773e-05 2.78609e-06
-6.80773e-05 8.56215e-05 -1.20797e-05
2.78609e-06 -1.20797e-05 3.45022e-05
0.00212777 6.00026e-05 3.60153e-05
6.00026e-05 0.00113054 -6.23945e-07
3.60153e-05 -6.23945e-07 0.0011268
0.00300208 3.91307e-05 5.01893e-05
3.91307e-05 0.00170984 -7.14788e-06
5.01893e-05 -7.14788e-06 0.00171915
0.00164447 0.000265719 -4.0854e-07
0.000265719 0.000957691 -8.44932e-06
-4.0854e-07 -8.44932e-06 0.000643411
0.000641964 0.00013988 4.89685e-06
0.00013988 0.000217227 -6.37379e-06
4.89685e-06 -6.37379e-06 3.02787e-05
0.000523914 0.000115411 -1.19026e-06
0.000115411 0.000224098 2.85566e-06
-1.19026e-06 2.85566e-06 -6.39917e-05
0.000413424 4.90898e-05 -1.34183e-06
4.90898e-05 4.64638e-06 -1.1145e-05
-1.34183e-06 -1.1145e-05 -4.39606e-05
0.000130598 7.1764e-05 -2.90229e-06
7.1764e-05 -0.000134198 -3.95618e-06
-2.90229e-06 -3.95618e-06 -0.000283383
0.000572406 0.000108575 -1.66715e-06
0.000108575 0.000231969 -3.67262e-06
-1.66715e-06 -3.67262e-06 -1.40819e-05
0.00278905 -3.03213e-05 -3.21716e-05
-3.03213e-05 0.001577 -7.57857e-06
-3.21716e-05 -7.57857e-06 0.00158533
0.000341021 5.31318e-06 6.23991e-07
5.31318e-06 -4.80391e-05 -3.8009e-07
6.23991e-07 -3.8009e-07 -8.61463e-05
0.000130779 1.58467e-05 -4.09831e-06
1.58467e-05 -0.000138494 3.30269e-06
-4.09831e-06 3.30269e-06 -0.00026629
0.00259909 -1.45035e-05 -7.80606e-06
-1.45035e-05 0.00144922 1.70565e-07
-7.80606e-06 1.70565e-07 0.00145953
0.000351058 9.59823e-06 -5.89866e-06
9.59823e-06 -4.39943e-05 6.75376e-06
-5.89866e-06 6.75376e-06 -7.46327e-05
0.00245995 2.64615e-06 1.79802e-05
2.64615e-06 0.00135626 6.62574e-06
1.79802e-05 6.62574e-06 0.00136783
0.00493734 -8.30406e-05 -0.000416131
-8.30406e-05 0.00377182 -3.03936e-05
-0.000416131 -3.03936e-05 -0.000510201
-0.00239137 0.000359323 0.000329486
0.000359323 0.00728345 4.12543e-06
0.000329486 4.12543e-06 0.00241113
0.000212675 -0.000733202 -6.59569e-05
-0.000733202 0.00151467 -0.000305388
-6.59569e-05 -0.000305388 -0.00481012
-0.0010937 -5.5083e-05 1.22089e-05
-5.5083e-05 -0.000671803 -1.35481e-05
1.22089e-05 -1.35481e-05 -0.00117358
0.00572921 0.000623385 2.11226e-05
0.000623385 0.00348817 1.44109e-05
2.11226e-05 1.44109e-05 0.00312757
-0.000142334 0.000163361 -7.82467e-06
0.000163361 -0.000178472 -5.52099e-07
-7.82467e-06 -5.52099e-07 -0.000473062
-0.000341704 0.000109651 2.81662e-06
0.000109651 -0.000314886 -3.89491e-06
2.81662e-06 -3.89491e-06 -0.000644187
-0.00078416 6.49244e-05 -1.78522e-07
6.49244e-05 -0.000709453 -8.02266e-06
-1.78522e-07 -8.02266e-06 -0.000886608
0.00140987 0.000251313 1.67787e-05
0.000251313 0.000775212 -7.20959e-06
1.67787e-05 -7.20959e-06 0.000511078
-0.000487969 5.64404e-05 2.3225e-05
5.64404e-05 -0.000473921 -2.63596e-05
2.3225e-05 -2.63596e-05 -0.000576361
0.00756255 0.00229679 0.000126747
0.00229679 0.00129084 0.000205231
0.000126747 0.000205231 -0.00275519
0.0100958 -0.000479341 -0.000233448
-0.000479341 0.00143201 2.18067e-05
-0.000233448 2.18067e-05 -0.00324137
0.00877239 -0.00152539 0.000706033
-0.00152539 0.0070152 -0.000120472
0.000706033 -0.000120472 0.00233145
0.0126673 0.000278019 -7.44927e-05
0.000278019 -0.00225469 0.000262161
-7.44927e-05 0.000262161 -0.00355273
0.00674547 -0.00818094 -0.00010911
-0.00818094 0.000266371 1.66253e-05
-0.00010911 1.66253e-05 0.00100082
6.55184e-05 -0.00890523 -0.000584117
-0.00890523 0.00324818 0.000243083
-0.000584117 0.000243083 -0.00498215
0.0293096 0.00422248 0.000404616
0.00422248 0.0119794 -0.000460883
0.000404616 -0.000460883 0.00303695
0.00483666 -0.00794969 -0.000161151
-0.00794969 0.00239913 0.000109273
-0.000161151 0.000109273 0.000860959
-0.00126064 -0.00255035 -0.000217729
-0.00255035 0.00640778 9.19594e-05
-0.000217729 9.19594e-05 -0.00328631
0.0159223 -3.524e-05 0.000586687
-3.524e-05 0.00640506 -4.45711e-05
0.000586687 -4.45711e-05 -0.00071155
0.0214881 -0.00201756 -2.69639e-05
-0.00201756 0.00446095 8.84392e-06
-2.69639e-05 8.84392e-06 0.00189462
-0.00551438 -0.00109528 -0.000281062
-0.00109528 0.000614935 0.000282865
-0.000281062 0.000282865 -0.000768175
0.00168923 -0.000132304 -0.000224413
-0.000132304 0.00702663 -0.000239313
-0.000224413 -0.000239313 -0.00233741
0.016662 -0.00588324 -0.000169885
-0.00588324 0.0065734 -0.000239
-0.000169885 -0.000239 -0.00427807
0.0273562 -0.0015961 0.00109231
-0.0015961 0.0138314 -0.000854307
0.00109231 -0.000854307 0.00649083
-0.000470172 0.000159394 5.17944e-05
0.000159394 0.000325389 -2.29432e-05
5.17944e-05 -2.29432e-05 -0.000430612
-8.08342e-05 0.000161825 -3.07939e-06
0.000161825 -4.50002e-05 -7.12956e-06
-3.07939e-06 -7.12956e-06 -0.000253443
-9.17673e-06 -2.49228e-05 -4.94324e-08
-2.49228e-05 -2.21074e-05 -2.04442e-05
-4.94324e-08 -2.04442e-05 -0.000268575
0.00045477 0.000165304 -9.92077e-06
0.000165304 0.000164451 -8.14815e-06
-9.92077e-06 -8.14815e-06 -8.26461e-05
0.00069679 -0.00290105 6.67881e-05
-0.00290105 0.0013234 2.79267e-05
6.67881e-05 2.79267e-05 -0.000225669
0.000933344 -0.000777937 -5.31256e-06
-0.000777937 0.00170999 1.02683e-05
-5.31256e-06 1.02683e-05 0.000594263
-1.11961e-05 3.59766e-05 -4.06679e-05
3.59766e-05 0.00018801 -1.97978e-05
-4.06679e-05 -1.97978e-05 -0.000144999
0.000930484 -0.000221047 -1.30887e-05
-0.000221047 0.00097568 -6.43021e-05
-1.30887e-05 -6.43021e-05 0.000401414
0.000909488 2.08254e-05 -5.47074e-06
2.08254e-05 0.00139776 2.57406e-05
-5.47074e-06 2.57406e-05 0.000689343
0.000481609 0.000207633 -4.35336e-06
0.000207633 0.000729871 9.90589e-06
-4.35336e-06 9.90589e-06 0.000142262
0.000396275 -0.000145569 -1.34432e-06
-0.000145569 0.00102823 -2.5379e-06
-1.34432e-06 -2.5379e-06 0.000270825
-0.00049328 -0.00151814 3.8864e-05
-0.00151814 0.00192962 -1.29765e-05
3.8864e-05 -1.29765e-05 -0.00024097
6.90748e-05 -0.00015672 -1.98956e-05
-0.00015672 0.00166502 -2.04165e-05
-1.98956e-05 -2.04165e-05 0.000654395
0.000340164 0.000147036 4.46585e-05
0.000147036 0.00058168 -1.34905e-05
4.46585e-05 -1.34905e-05 6.04998e-05
-0.00177559 -0.000269322 -0.000283976
-0.000269322 0.00255412 -1.68738e-06
-0.000283976 -1.68738e-06 -0.000430607
0.00213075 0.000655731 7.73885e-05
0.000655731 0.00226236 6.65718e-06
7.73885e-05 6.65718e-06 0.00141788
-0.00540521 -0.000666099 1.49061e-05
-0.000666099 0.00684145 -0.000173348
1.49061e-05 -0.000173348 0.0023187
0.00351519 1.49613e-05 6.34142e-05
1.49613e-05 0.00283963 4.21916e-05
6.34142e-05 4.21916e-05 -0.00261618
-0.0050562 0.00332141 -0.000217619
0.00332141 0.00646709 -0.000117296
-0.000217619 -0.000117296 0.0006924
0.00140407 0.000863381 -7.70098e-06
0.000863381 0.0018249 -2.46016e-06
-7.70098e-06 -2.46016e-06 0.00091789
-0.00132432 0.0018837 0.000368348
0.0018837 0.00210974 0.000130284
0.000368348 0.000130284 7.98074e-05
0.000951518 -0.000219831 7.28078e-05
-0.000219831 0.00508876 3.51418e-07
7.28078e-05 3.51418e-07 0.00113158
0.00570013 -0.00150315 0.000509662
-0.00150315 0.00672329 -0.000241254
0.000509662 -0.000241254 -0.00429375
0.0315919 0.00385938 -0.00055831
0.00385938 0.0128449 0.000448451
-0.00055831 0.000448451 0.00259271
0.00465448 -0.00125306 -0.000696199
-0.00125306 0.0052028 -2.54085e-05
-0.000696199 -2.54085e-05 0.00110865
0.0227032 0.00740504 -0.00096308
0.00740504 0.0177754 -0.000466802
-0.00096308 -0.000466802 0.00924542
0.000713457 0.000297508 -7.91808e-05
0.000297508 0.00232024 9.06543e-06
-7.91808e-05 9.06543e-06 0.000292273
-0.00194189 -0.00151422 -0.000267689
-0.00151422 0.00687883 1.32849e-05
-0.000267689 1.32849e-05 0.00307417
0.00115433 -0.00292808 0.000227919
-0.00292808 0.00315202 -6.79261e-05
0.000227919 -6.79261e-05 -0.00351252
-0.00414099 0.000107652 0.000102652
0.000107652 0.00203557 5.66277e-05
0.000102652 5.66277e-05 0.000325919
0.0469567 0.0259676 0.000786041
0.0259676 0.0335882 -0.000214441
0.000786041 -0.000214441 0.0116005
0.018918 0.00403602 -4.07244e-05
0.00403602 0.014596 0.000630959
-4.07244e-05 0.000630959 0.00232838
1.68423e-05 -0.00232965 0.000487762
-0.00232965 0.00593657 -0.000294474
0.000487762 -0.000294474 -0.0045514
-0.00177665 -0.00125952 -2.99109e-05
-0.00125952 0.00161951 -5.8774e-05
-2.99109e-05 -5.8774e-05 -0.000584037
0.0022127 -0.00178549 0.000479184
-0.00178549 0.000597962 -0.000123123
0.000479184 -0.000123123 -0.005742
0.00868269 0.00902746 -0.0034567
0.00902746 0.0187241 -0.000121287
-0.0034567 -0.000121287 0.00401415
0.031689 0.0124049 -0.000135171
0.0124049 0.0174226 0.000586246
-0.000135171 0.000586246 0.00353541
0.0051504 -0.00783775 -0.000419248
-0.00783775 0.00479917 0.000220807
-0.000419248 0.000220807 -0.000204348
0.00259119 -0.00419941 5.34324e-05
-0.00419941 0.00552667 9.2074e-05
5.34324e-05 9.2074e-05 0.00221387
-0.000232445 -0.000184497 1.34324e-05
-0.000184497 0.000776333 -2.84652e-05
1.34324e-05 -2.84652e-05 -0.000235796
0.000686988 -0.000826368 -1.61987e-05
-0.000826368 0.00124291 3.72593e-06
-1.61987e-05 3.72593e-06 6.22837e-05
6.03739e-05 -0.0017751 2.48838e-05
-0.0017751 0.000568725 1.96376e-05
2.48838e-05 1.96376e-05 -0.000706558
-0.00188948 -0.000234659 5.14167e-06
-0.000234659 -0.000521233 -4.80543e-07
5.14167e-06 -4.80543e-07 -0.0008536
-0.000413899 -0.000830052 -1.67578e-05
-0.000830052 0.000109898 5.19352e-06
-1.67578e-05 5.19352e-06 -0.000645148
0.00276629 -0.00144901 3.69852e-05
-0.00144901 0.00129538 -9.55783e-06
3.69852e-05 -9.55783e-06 0.00037265
0.00559758 -0.00183988 -1.00698e-05
-0.00183988 0.00271211 9.95418e-07
-1.00698e-05 9.95418e-07 0.00197227
0.00222255 -0.00133772 1.04044e-05
-0.00133772 0.00101782 -3.64063e-06
1.04044e-05 -3.64063e-06 -0.000120218
0.00310868 -0.00184959 -3.36485e-06
-0.00184959 0.00110697 -1.91223e-05
-3.36485e-06 -1.91223e-05 -7.60951e-05
0.00164674 -0.00111516 3.0905e-06
-0.00111516 0.000559622 -1.3095e-05
3.0905e-06 -1.3095e-05 -0.000289346
0.00271639 -0.00158612 1.8504e-06
-0.00158612 0.000978432 -2.89366e-06
1.8504e-06 -2.89366e-06 -6.93615e-05
0.0040936 -0.00191289 -5.10055e-06
-0.00191289 0.00150572 -1.14381e-05
-5.10055e-06 -1.14381e-05 0.000474123
0.0027754 -0.00120354 -1.36869e-06
-0.00120354 0.000463892 -4.52205e-06
-1.36869e-06 -4.52205e-06 -0.000106949
0.00365821 -0.00168444 -6.6678e-06
-0.00168444 0.00125036 -3.00151e-06
-6.6678e-06 -3.00151e-06 0.000383041
0.00335904 -0.00172527 -3.51868e-06
-0.00172527 0.00110423 -1.02588e-06
-3.51868e-06 -1.02588e-06 0.000177833
0.00317308 -0.00164758 1.38081e-05
-0.00164758 0.00128741 -8.62229e-06
1.38081e-05 -8.62229e-06 0.000357286
0.00236971 -0.00152826 3.97405e-06
-0.00152826 0.000788265 -1.74161e-06
3.97405e-06 -1.74161e-06 -0.000110826
0.00300192 -0.00151154 1.24752e-05
-0.00151154 0.00119602 -4.47203e-06
1.24752e-05 -4.47203e-06 0.000284604
0.00265217 -0.00123296 4.60125e-06
-0.00123296 0.00124618 2.83988e-06
4.60125e-06 2.83988e-06 0.00042198
0.00268926 -0.00137821 -2.06179e-07
-0.00137821 0.00118846 -2.53674e-06
-2.06179e-07 -2.53674e-06 0.000336626
0.00240652 -0.00141183 -6.20325e-06
-0.00141183 0.000887583 6.21272e-06
-6.20325e-06 6.21272e-06 3.65985e-05
0.0031575 -0.000319673 1.22909e-05
-0.000319673 0.00167369 3.3777e-06
1.22909e-05 3.3777e-06 0.00128511
0.0012925 -0.000481926 -1.02595e-05
-0.000481926 0.00044348 4.9311e-06
-1.02595e-05 4.9311e-06 -1.79802e-05
0.00210654 -0.00101544 -4.52497e-06
-0.00101544 0.00091072 -2.47797e-06
-4.52497e-06 -2.47797e-06 0.000225477
0.0011524 -0.000319647 4.1338e-06
-0.000319647 0.000398695 -5.10172e-06
4.1338e-06 -5.10172e-06 6.70046e-05
0.000682301 -0.000229494 -4.3602e-06
-0.000229494 0.000196776 5.05296e-07
-4.3602e-06 5.05296e-07 -0.000180167
-0.000264286 -0.000188183 7.02454e-06
-0.000188183 -0.000510121 9.06791e-06
7.02454e-06 9.06791e-06 -0.000888061
8.59158e-05 -0.000140969 -1.96463e-05
-0.000140969 -0.000248818 2.61884e-05
-1.96463e-05 2.61884e-05 -0.000369151
0.00105349 -0.000288991 4.42223e-06
-0.000288991 0.000453786 2.56081e-06
4.42223e-06 2.56081e-06 0.000101349
0.00190958 -0.000544535 -5.67827e-06
-0.000544535 0.00111549 -1.77114e-06
-5.67827e-06 -1.77114e-06 0.000661493
0.00131164 -0.000172914 -7.1312e-06
-0.000172914 0.000619246 -1.56694e-05
-7.1312e-06 -1.56694e-05 0.000344084
0.000278623 -7.96624e-05 -5.94051e-07
-7.96624e-05 -0.00010151 -8.37602e-07
-5.94051e-07 -8.37602e-07 -0.000196447
0.00440111 0.000136749 -7.29204e-05
0.000136749 0.00267059 9.41577e-06
-7.29204e-05 9.41577e-06 0.00265733
0.000376103 -7.79383e-05 6.40018e-06
-7.79383e-05 -3.03314e-05 -1.69744e-05
6.40018e-06 -1.69744e-05 -0.000100688
0.00372101 0.00010607 1.26475e-05
0.00010607 0.0022077 1.16961e-06
1.26475e-05 1.16961e-06 0.00220347
0.00308184 6.12046e-05 5.72533e-05
6.12046e-05 0.00176497 -8.06969e-06
5.72533e-05 -8.06969e-06 0.00177223
0.00462443 0.000472098 1.8059e-05
0.000472098 0.0030424 -1.57394e-05
1.8059e-05 -1.57394e-05 0.00246319
0.00308316 0.000325385 1.31772e-05
0.000325385 0.00204811 -3.83211e-05
1.31772e-05 -3.83211e-05 0.00155453
0.00080833 0.000141265 5.68079e-06
0.000141265 0.000322892 -1.27229e-05
5.68079e-06 -1.27229e-05 0.000110321
0.00068447 0.000221321 2.13192e-06
0.000221321 0.000344161 1.68292e-06
2.13192e-06 1.68292e-06 1.80722e-05
0.00049019 -3.33776e-05 9.11872e-06
-3.33776e-05 6.03635e-05 -1.36382e-05
9.11872e-06 -1.36382e-05 2.87439e-06
0.000726798 0.000138015 -5.02538e-07
0.000138015 0.000274593 -7.65233e-07
-5.02538e-07 -7.65233e-07 8.94677e-05
0.000814094 0.000135925 -5.82321e-06
0.000135925 0.000410224 -1.45321e-05
-5.82321e-06 -1.45321e-05 0.000115827
0.00312086 -4.6921e-05 -4.64651e-05
-4.6921e-05 0.00180304 -8.71512e-06
-4.64651e-05 -8.71512e-06 0.00180904
0.00038984 3.82464e-06 -3.33275e-06
3.82464e-06 -1.10619e-05 -3.86893e-07
-3.33275e-06 -3.86893e-07 -5.80476e-05
0.000712152 0.000124256 -7.01733e-06
0.000124256 0.000262038 5.28849e-06
-7.01733e-06 5.28849e-06 0.000109667
0.00286846 -3.48154e-05 -7.6997e-06
-3.48154e-05 0.0016308 5.19883e-07
-7.6997e-06 5.19883e-07 0.00163816
0.000369299 -9.46471e-06 -7.32608e-06
-9.46471e-06 -3.10246e-05 7.93868e-06
-7.32608e-06 7.93868e-06 -6.79403e-05
0.00259281 -1.52803e-05 2.22421e-05
-1.52803e-05 0.00144467 6.86149e-06
2.22421e-05 6.86149e-06 0.00145494
-0.00059357 0.00189582 -0.000141526
0.00189582 0.00557103 -0.000208784
-0.000141526 -0.000208784 -0.000288261
0.00781889 -0.000808826 -8.36811e-05
-0.000808826 0.00557795 -0.000116649
-8.36811e-05 -0.000116649 0.00138601
-0.000105018 -0.000739657 0.000201202
-0.000739657 0.00746213 -0.000108597
0.000201202 -0.000108597 0.00304357
0.000640237 0.000173091 2.20788e-06
0.000173091 0.000573971 -1.28297e-05
2.20788e-06 -1.28297e-05 -5.114e-05
-0.000633701 0.00043623 -1.19465e-05
0.00043623 -0.000454577 -1.24986e-05
-1.19465e-05 -1.24986e-05 -0.000835059
0.00106108 0.000430291 1.54885e-05
0.000430291 0.000358922 -2.35288e-05
1.54885e-05 -2.35288e-05 6.68907e-05
-0.00211078 5.98783e-05 7.07398e-06
5.98783e-05 -0.00106949 2.9378e-05
7.07398e-06 2.9378e-05 -0.00173069
0.00100198 0.000608109 4.73339e-06
0.000608109 0.000430647 -1.01543e-05
4.73339e-06 -1.01543e-05 -7.42053e-06
-1.51179e-05 0.000115786 -1.16589e-05
0.000115786 -8.43032e-05 8.85355e-06
-1.16589e-05 8.85355e-06 -0.00044292
-2.80249e-05 0.000123474 -2.10282e-05
0.000123474 -0.000185883 1.05205e-05
-2.10282e-05 1.05205e-05 -0.000359654
0.00111753 3.09334e-05 1.18114e-05
3.09334e-05 0.000602419 2.17239e-06
1.18114e-05 2.17239e-06 0.000326646
0.00132623 0.000243759 -1.07484e-05
0.000243759 0.000734825 -1.09399e-05
-1.07484e-05 -1.09399e-05 0.00062017
0.0028812 0.000298962 -4.22823e-06
0.000298962 0.00197455 -4.8319e-05
-4.22823e-06 -4.8319e-05 0.00151911
0.0138373 0.00630025 0.00135133
0.00630025 0.00806219 0.000670567
0.00135133 0.000670567 0.00250291
0.00652156 0.00190125 3.41193e-05
0.00190125 0.00331434 5.72436e-05
3.41193e-05 5.72436e-05 -0.00129287
0.0109779 -0.000542481 0.000326794
-0.000542481 0.00126454 6.65311e-06
0.000326794 6.65311e-06 -0.00217404
0.0173431 -0.00022522 -0.000196193
-0.00022522 0.0034146 -0.000114754
-0.000196193 -0.000114754 0.00357618
0.0107679 0.000440827 0.000199248
0.000440827 0.00152275 0.000469671
0.000199248 0.000469671 -0.00598315
0.00427052 -0.0078054 -0.000190393
-0.0078054 0.00275091 0.000102149
-0.000190393 0.000102149 0.000935204
0.00317069 -0.00236101 -0.000694162
-0.00236101 0.00729593 0.000192265
-0.000694162 0.000192265 0.000360229
-0.00154243 -0.00276233 -0.00017451
-0.00276233 0.00216867 0.00020234
-0.00017451 0.00020234 -5.41621e-05
0.0121514 -0.000569771 -0.000517725
-0.000569771 0.00998587 -3.28886e-05
-0.000517725 -3.28886e-05 0.000598539
0.0102962 -0.00452739 0.000129203
-0.00452739 0.007631 0.000298621
0.000129203 0.000298621 -0.00176927
0.0360429 -0.00722328 0.000575674
-0.00722328 0.0150931 -0.00118222
0.000575674 -0.00118222 0.00341259
-0.000630886 0.00080218 -0.000325961
0.00080218 0.00387743 0.000110421
-0.000325961 0.000110421 0.000713913
0.00284378 0.00197791 -0.000464912
0.00197791 0.00752052 -0.000183436
-0.000464912 -0.000183436 -7.57209e-05
0.036281 -0.0133491 0.00181818
-0.0133491 0.022866 -0.00148343
0.00181818 -0.00148343 0.00716131
0.040962 -0.0221785 0.00023174
-0.0221785 0.0296537 -3.38871e-05
0.00023174 -3.38871e-05 0.0105689
0.00097656 0.000746266 6.27406e-05
0.000746266 0.000983088 1.31685e-05
6.27406e-05 1.31685e-05 0.000159106
-0.000308805 0.000132476 1.97416e-05
0.000132476 0.000435269 1.73758e-06
1.97416e-05 1.73758e-06 -0.000333784
0.00122131 0.000193673 -4.49925e-05
0.000193673 0.000803746 -1.32739e-05
-4.49925e-05 -1.32739e-05 0.000571328
0.00097257 -0.00213282 0.000105896
-0.00213282 0.00250343 1.36931e-05
0.000105896 1.36931e-05 -0.00023392
-0.00196848 -0.000216266 0.00017189
-0.000216266 0.000714668 3.82872e-05
0.00017189 3.82872e-05 -0.000455153
0.000644457 0.000217741 -5.27731e-05
0.000217741 0.00078369 9.14813e-06
-5.27731e-05 9.14813e-06 0.000241766
-0.00122008 5.44863e-05 -7.40453e-05
5.44863e-05 0.00043575 -5.69e-06
-7.40453e-05 -5.69e-06 -0.000483907
0.000538314 0.000334192 -1.593e-05
0.000334192 0.000753112 3.11464e-06
-1.593e-05 3.11464e-06 0.000208334
-9.16716e-05 0.000671579 2.1629e-05
0.000671579 0.000945793 1.47369e-06
2.1629e-05 1.47369e-06 9.07316e-05
-0.00321833 9.82848e-06 0.00022851
9.82848e-06 0.00195137 -0.000121293
0.00022851 -0.000121293 -0.000635521
0.00249446 0.00122609 7.04501e-05
0.00122609 0.00148469 8.66341e-05
7.04501e-05 8.66341e-05 0.000847826
0.000696975 0.00152784 -8.66092e-05
0.00152784 0.00222942 -0.00014193
-8.66092e-05 -0.00014193 -0.000238012
-0.000395602 -0.00169422 0.000396163
-0.00169422 0.000983602 0.000146814
0.000396163 0.000146814 -0.00406793
-0.00432712 0.0013581 -0.000328423
0.0013581 0.00683744 -3.13489e-05
-0.000328423 -3.13489e-05 0.00101893
0.00750448 -0.000945696 -0.000270414
-0.000945696 0.00604003 1.60483e-05
-0.000270414 1.60483e-05 0.00291703
-0.000211995 0.00107683 0.000111236
0.00107683 0.00148905 1.32546e-05
0.000111236 1.32546e-05 -0.000671578
-0.000705191 0.000610129 -2.07799e-05
0.000610129 0.00364365 0.000128459
-2.07799e-05 0.000128459 0.000616425
-0.00215985 8.35608e-06 -0.000163424
8.35608e-06 0.00550778 -0.000129316
-0.000163424 -0.000129316 0.00105998
0.0137843 -0.00806494 0.00067523
-0.00806494 0.0111485 -0.00037563
0.00067523 -0.00037563 0.000372003
0.0338937 0.0118414 -0.00125975
0.0118414 0.0217161 -0.000477053
-0.00125975 -0.000477053 0.00639417
0.00920672 -0.00415788 -0.000619471
-0.00415788 0.00466571 0.000366456
-0.000619471 0.000366456 -0.000664873
0.0394571 0.0304958 0.00193202
0.0304958 0.0294205 -0.0018828
0.00193202 -0.0018828 0.0073279
-0.00142658 -0.00101688 1.51815e-05
-0.00101688 0.00157785 2.33753e-06
1.51815e-05 2.33753e-06 -0.000711246
0.00107881 -0.00131238 0.000162402
-0.00131238 0.00154186 1.5883e-06
0.000162402 1.5883e-06 -0.0048299
0.0153421 0.00966694 -0.00172295
0.00966694 0.0185686 -5.89567e-05
-0.00172295 -5.89567e-05 0.00339416
-5.9886e-05 -0.0027877 4.37876e-05
-0.0027877 0.00312869 4.46403e-05
4.37876e-05 4.46403e-05 0.000681265
0.0349969 0.012152 0.000761061
0.012152 0.0189999 0.000473833
0.000761061 0.000473833 0.00471388
0.00405535 -0.011313 0.000649052
-0.011313 0.0038943 -0.000222938
0.000649052 -0.000222938 -0.00240745
-0.000586328 -0.00306415 3.79216e-05
-0.00306415 0.00135321 5.10149e-05
3.79216e-05 5.10149e-05 -0.000922836
0.00438244 3.59096e-05 0.0001844
3.59096e-05 0.0143016 -0.000200559
0.0001844 -0.000200559 0.00579318
0.0254803 0.0129423 -0.00274428
0.0129423 0.0135066 -0.000166108
-0.00274428 -0.000166108 0.00160414
0.000660497 -0.0109641 -0.00137768
-0.0109641 -0.0057175 0.00033426
-0.00137768 0.00033426 -0.00462576
3.97237e-05 -0.00473515 0.000282668
-0.00473515 0.000512117 -0.000234966
0.000282668 -0.000234966 0.000774223
0.000463532 -0.00064304 -8.83635e-05
-0.00064304 0.0010875 2.71785e-05
-8.83635e-05 2.71785e-05 -9.94658e-05
-0.00010054 -0.00138199 -2.93632e-05
-0.00138199 0.000618378 2.03756e-05
-2.93632e-05 2.03756e-05 -0.000571296
-0.000481853 -0.00139195 -1.11828e-05
-0.00139195 -0.000373764 -1.0805e-05
-1.11828e-05 -1.0805e-05 -0.00124187
-0.00327828 -0.000265382 2.63465e-05
-0.000265382 -0.00131832 -5.99244e-06
2.63465e-05 -5.99244e-06 -0.00189996
0.00097585 -0.00121574 8.42095e-06
-0.00121574 0.00033291 -7.82085e-06
8.42095e-06 -7.82085e-06 -0.000482072
0.00449942 -0.00209791 -5.04686e-06
-0.00209791 0.00155421 -2.89278e-06
-5.04686e-06 -2.89278e-06 0.000745032
0.00522963 -0.00187602 -2.52134e-05
-0.00187602 0.00258584 9.63055e-07
-2.52134e-05 9.63055e-07 0.00140786
0.0025418 -0.00168868 -1.97613e-06
-0.00168868 0.000799485 -1.61468e-06
-1.97613e-06 -1.61468e-06 -0.000312323
0.00360862 -0.00195247 1.58733e-06
-0.00195247 0.000985929 -1.13159e-05
1.58733e-06 -1.13159e-05 9.64857e-05
0.00277924 -0.00158518 1.49662e-05
-0.00158518 0.0010319 6.64273e-07
1.49662e-05 6.64273e-07 -2.70052e-05
0.00339144 -0.00178427 3.62559e-06
-0.00178427 0.00112358 -5.02279e-06
3.62559e-06 -5.02279e-06 0.00014053
0.00343551 -0.00138138 -1.29127e-06
-0.00138138 0.000776227 -6.15936e-06
-1.29127e-06 -6.15936e-06 0.000211597
0.00241856 -0.000795637 -2.48764e-06
-0.000795637 5.94005e-05 -8.18246e-08
-2.48764e-06 -8.18246e-08 -0.000145849
0.00244356 -0.00114389 5.54587e-07
-0.00114389 0.000213456 -2.35831e-06
5.54587e-07 -2.35831e-06 -0.000343473
0.00275329 -0.0012055 4.93805e-06
-0.0012055 0.00042913 -1.59107e-06
4.93805e-06 -1.59107e-06 -0.000136852
0.00360384 -0.00151475 -2.40256e-06
-0.00151475 0.00126306 -3.84747e-06
-2.40256e-06 -3.84747e-06 0.000486049
0.0036044 -0.0016908 -4.614e-06
-0.0016908 0.00122297 -7.41169e-07
-4.614e-06 -7.41169e-07 0.000344798
0.00356882 -0.00176821 5.62439e-06
-0.00176821 0.00121122 -4.52879e-06
5.62439e-06 -4.52879e-06 0.000268505
0.00279557 -0.00145641 -8.15373e-06
-0.00145641 0.00107685 -1.23151e-05
-8.15373e-06 -1.23151e-05 0.000204414
0.00251088 -0.0015421 2.57938e-06
-0.0015421 0.000896038 -1.03385e-06
2.57938e-06 -1.03385e-06 -1.4521e-06
0.00186551 -0.0014131 1.3043e-06
-0.0014131 0.000506065 2.45609e-06
1.3043e-06 2.45609e-06 -0.000344767
0.00426683 -0.000923544 1.73626e-05
-0.000923544 0.00233692 1.31529e-05
1.73626e-05 1.31529e-05 0.00171067
0.000987194 -0.00102221 5.23683e-06
-0.00102221 0.000251693 5.16694e-06
5.23683e-06 5.16694e-06 -0.000531999
0.00231629 -0.00131949 -1.34311e-05
-0.00131949 0.000944109 1.09311e-05
-1.34311e-05 1.09311e-05 0.000114297
0.00141591 -0.000420591 5.18384e-06
-0.000420591 0.000513837 -1.05566e-05
5.18384e-06 -1.05566e-05 0.000219768
0.000629699 -0.000450643 -1.29469e-06
-0.000450643 0.000130721 -7.27567e-06
-1.29469e-06 -7.27567e-06 -0.000310798
-0.000563822 -0.000302687 4.1845e-06
-0.000302687 -0.000608659 -3.17844e-06
4.1845e-06 -3.17844e-06 -0.00106943
0.00334372 -0.000164143 -0.000124481
-0.000164143 0.00185532 1.97714e-05
-0.000124481 1.97714e-05 0.00174447
0.000334658 -0.000319657 -4.07032e-06
-0.000319657 -8.84674e-05 8.92868e-07
-4.07032e-06 8.92868e-07 -0.000446629
0.000658435 -0.00050909 -5.30175e-06
-0.00050909 0.000168103 -1.49691e-07
-5.30175e-06 -1.49691e-07 -0.000229163
0.00142441 -2.36477e-05 -0.000124611
-2.36477e-05 0.000669233 1.34016e-05
-0.000124611 1.34016e-05 0.000644344
0.00162161 -0.00012473 -3.47603e-05
-0.00012473 0.000771399 -6.3604e-07
-3.47603e-05 -6.3604e-07 0.000644509
0.00169431 -0.000361641 -1.50045e-06
-0.000361641 0.000825917 -3.78261e-06
-1.50045e-06 -3.78261e-06 0.000497832
0.00075826 -0.000108047 1.49904e-05
-0.000108047 0.000203451 -1.93476e-05
1.49904e-05 -1.93476e-05 0.000103733
0.00474962 0.000129511 1.26462e-05
0.000129511 0.00290109 6.72135e-07
1.26462e-05 6.72135e-07 0.00289047
0.00420576 9.3255e-05 8.86953e-05
9.3255e-05 0.00252749 -9.90368e-06
8.86953e-05 -9.90368e-06 0.00252574
-0.0018167 0.000187022 1.69818e-05
0.000187022 -0.0013712 6.57752e-06
1.69818e-05 6.57752e-06 -0.00175939
0.00246976 0.00056328 3.9752e-06
0.00056328 0.00161977 -2.85816e-05
3.9752e-06 -2.85816e-05 0.00109511
-0.00100641 0.000117268 4.55243e-06
0.000117268 -0.00061046 2.07473e-07
4.55243e-06 2.07473e-07 -0.00113094
0.00084576 0.000181746 -1.10028e-06
0.000181746 0.000353623 -1.93484e-05
-1.10028e-06 -1.93484e-05 0.00010219
0.000349361 0.000243517 7.1004e-06
0.000243517 0.000198053 -9.79462e-07
7.1004e-06 -9.79462e-07 -0.000239926
0.000316049 4.56954e-05 -8.9592e-06
4.56954e-05 -3.59141e-05 -1.68732e-05
-8.9592e-06 -1.68732e-05 -0.000111954
0.000513427 0.000124281 -9.34324e-08
0.000124281 0.000143052 1.27518e-06
-9.34324e-08 1.27518e-06 -8.15089e-05
0.00087148 0.000253832 -3.8653e-06
0.000253832 0.00051039 5.18984e-06
-3.8653e-06 5.18984e-06 0.000158215
0.00344549 -6.71997e-05 -6.10083e-05
-6.71997e-05 0.00202653 -9.77019e-06
-6.10083e-05 -9.77019e-06 0.00202916
0.000274777 2.55945e-05 -1.65801e-06
2.55945e-05 -7.84918e-05 2.2985e-08
-1.65801e-06 2.2985e-08 -0.000136423
0.000172142 0.000121134 -4.78859e-06
0.000121134 -0.000101766 8.42953e-06
-4.78859e-06 8.42953e-06 -0.000274251
0.00299124 -5.45881e-05 -1.04727e-05
-5.45881e-05 0.00171688 6.83988e-07
-1.04727e-05 6.83988e-07 0.00172135
0.000241977 -1.85847e-05 -9.41501e-06
-1.85847e-05 -0.00010882 9.88873e-06
-9.41501e-06 9.88873e-06 -0.000153904
0.0027489 -3.42969e-05 2.81425e-05
-3.42969e-05 0.00155107 7.37315e-06
2.81425e-05 7.37315e-06 0.00155896
0.00586236 0.00222454 0.000799289
0.00222454 0.00614426 0.000181546
0.000799289 0.000181546 0.000951196
-0.000775089 0.0019053 -5.80398e-05
0.0019053 0.00471862 -2.57923e-06
-5.80398e-05 -2.57923e-06 -0.00120794
0.000662412 0.00261424 1.21642e-05
0.00261424 0.00565153 -3.86363e-05
1.21642e-05 -3.86363e-05 0.000364903
0.000358669 0.000563239 -2.50911e-05
0.000563239 8.91065e-05 3.5997e-06
-2.50911e-05 3.5997e-06 -0.000471012
-0.00130431 2.27312e-05 -2.54852e-05
2.27312e-05 -0.000810759 4.86735e-05
-2.54852e-05 4.86735e-05 -0.00134506
-0.00140466 0.000127984 -2.38366e-05
0.000127984 -0.000971179 -1.65237e-05
-2.38366e-05 -1.65237e-05 -0.00127408
0.00220492 0.000189208 1.41118e-05
0.000189208 0.00142254 3.47091e-07
1.41118e-05 3.47091e-07 0.000992222
0.000920364 0.000439286 3.73602e-06
0.000439286 0.000180579 -5.93572e-06
3.73602e-06 -5.93572e-06 -0.0001062
0.00154026 0.000663854 -3.02022e-05
0.000663854 0.000769661 -1.42724e-05
-3.02022e-05 -1.42724e-05 0.000446947
0.00188645 0.00062461 1.04402e-05
0.00062461 0.000847435 -3.35771e-05
1.04402e-05 -3.35771e-05 0.000388278
-0.00280513 0.000173246 -2.6497e-05
0.000173246 -0.00130068 1.01404e-05
-2.6497e-05 1.01404e-05 -0.00184471
-0.000536995 7.45536e-05 -9.45303e-06
7.45536e-05 -0.000363902 -2.58262e-06
-9.45303e-06 -2.58262e-06 -0.000688208
-0.00166102 3.47399e-05 -9.46459e-06
3.47399e-05 -0.00129505 2.66209e-05
-9.46459e-06 2.66209e-05 -0.0013101
-0.000600549 7.54209e-05 -1.42421e-05
7.54209e-05 -9.78965e-05 3.38829e-06
-1.42421e-05 3.38829e-06 -0.000589019
-0.00043954 0.000463739 5.8304e-06
0.000463739 0.000164336 1.96283e-05
5.8304e-06 1.96283e-05 -0.000704395
0.0201417 -0.0152199 -0.000389334
-0.0152199 0.0204922 0.000290039
-0.000389334 0.000290039 0.0015808
0.0126333 0.00630822 0.000346019
0.00630822 0.00526973 0.000211459
0.000346019 0.000211459 -0.00138412
0.00642967 0.0011966 0.000331547
0.0011966 0.0047644 -4.0527e-05
0.000331547 -4.0527e-05 -0.0003894
0.0476049 -0.0129992 -0.0019541
-0.0129992 0.0196376 -0.000492183
-0.0019541 -0.000492183 0.00554092
0.0105489 -0.000590239 0.000398197
-0.000590239 0.00761312 0.000663731
0.000398197 0.000663731 0.000710329
0.00190131 1.34035e-05 -0.000299664
1.34035e-05 0.00694782 0.00019148
-0.000299664 0.00019148 -0.00242988
-0.00127324 -0.00298978 -2.3785e-05
-0.00298978 0.00276891 0.000142719
-2.3785e-05 0.000142719 -0.000267932
-0.00145085 -0.000863177 0.000226989
-0.000863177 0.00313221 7.66532e-05
0.000226989 7.66532e-05 0.000740866
0.0432161 -0.0253607 0.000288098
-0.0253607 0.0303456 0.000536986
0.000288098 0.000536986 0.00964465
0.00330909 0.00314478 -0.000247414
0.00314478 0.00730206 -0.000154972
-0.000247414 -0.000154972 -0.00198106
0.0179971 -0.00734858 -7.6717e-05
-0.00734858 0.0156755 0.000221842
-7.6717e-05 0.000221842 0.00109895
-0.000434108 0.00202536 1.86804e-05
0.00202536 0.00268157 -3.91412e-05
1.86804e-05 -3.91412e-05 0.000412857
0.00417428 0.00838014 -0.000347682
0.00838014 0.0037359 2.3531e-05
-0.000347682 2.3531e-05 -0.00118174
0.0311396 -0.011253 -0.00108993
-0.011253 0.0171373 -2.99544e-05
-0.00108993 -2.99544e-05 0.00327823
0.00229802 0.00133423 7.24287e-06
0.00133423 0.00109194 5.88679e-05
7.24287e-06 5.88679e-05 0.000638219
0.000152401 0.000577582 4.67446e-06
0.000577582 0.00055043 1.90943e-06
4.67446e-06 1.90943e-06 -0.000299579
-0.000379538 7.92071e-05 -8.0662e-05
7.92071e-05 0.000410145 2.09066e-05
-8.0662e-05 2.09066e-05 -0.000368362
-0.00198165 -0.000380602 -0.000209741
-0.000380602 0.00254524 -3.79018e-05
-0.000209741 -3.79018e-05 0.000152792
-0.000319252 0.000600742 -8.96921e-05
0.000600742 0.000456372 -8.79375e-06
-8.96921e-05 -8.79375e-06 -0.000294473
-0.000335321 0.00030578 -2.5858e-05
0.00030578 0.000259805 -4.33776e-06
-2.5858e-05 -4.33776e-06 -0.000336037
0.00121476 0.00106857 -4.90796e-06
0.00106857 0.000743094 1.23838e-06
-4.90796e-06 1.23838e-06 0.000106412
-7.98692e-05 0.00162339 -0.000116269
0.00162339 0.00176272 -0.000101101
-0.000116269 -0.000101101 -0.000491566
0.00312373 0.00356481 0.000129162
0.00356481 0.00170921 5.73753e-05
0.000129162 5.73753e-05 -0.000136266
-0.00696231 0.00195505 0.000824429
0.00195505 0.00662882 -7.24355e-05
0.000824429 -7.24355e-05 -0.00284945
0.000670052 -0.00164118 -8.59305e-05
-0.00164118 0.00245194 9.24315e-05
-8.59305e-05 9.24315e-05 -0.00151906
-0.00204016 0.000662615 -0.000103353
0.000662615 0.00572316 0.000152681
-0.000103353 0.000152681 2.14998e-05
-0.0021543 -0.000664562 -7.4687e-05
-0.000664562 0.00115975 3.68882e-06
-7.4687e-05 3.68882e-06 -0.00111317
-0.001205 -0.00185178 9.04229e-06
-0.00185178 0.00206841 -1.07014e-06
9.04229e-06 -1.07014e-06 0.000845996
-0.00441878 -0.00279894 -0.000258726
-0.00279894 0.000877747 0.000192032
-0.000258726 0.000192032 -0.00531422
-0.000848333 -0.00887803 0.000556578
-0.00887803 0.00431184 -0.000333881
0.000556578 -0.000333881 -0.00475337
0.0250112 0.00986191 0.00111256
0.00986191 0.0134019 -0.000208678
0.00111256 -0.000208678 0.000239209
0.0306301 0.0171178 -0.000246588
0.0171178 0.0225222 0.000779285
-0.000246588 0.000779285 0.00300946
0.000151184 -0.00214764 -5.39547e-05
-0.00214764 0.00216021 1.84217e-05
-5.39547e-05 1.84217e-05 0.000137475
0.00939291 0.00540388 0.000666027
0.00540388 0.0174552 -5.09701e-05
0.000666027 -5.09701e-05 0.00537738
0.0124907 0.00867399 0.000105737
0.00867399 0.00684398 0.000133771
0.000105737 0.000133771 -0.00218162
0.00297002 -0.00732392 8.96804e-05
-0.00732392 0.00154641 -5.26726e-05
8.96804e-05 -5.26726e-05 0.000328573
0.0113802 -0.0113482 4.57272e-06
-0.0113482 -0.00176728 2.01691e-05
4.57272e-06 2.01691e-05 -0.00153353
0.00234945 -0.00358716 4.73297e-05
-0.00358716 0.00110295 -7.356e-06
4.73297e-05 -7.356e-06 0.000183683
0.00246043 0.00660323 -0.00218205
0.00660323 0.00542255 -5.36091e-06
-0.00218205 -5.36091e-06 -0.00561532
0.0145711 -0.00738772 -0.000669075
-0.00738772 -0.00462083 0.000126075
-0.000669075 0.000126075 -0.00203269
0.00521385 -0.00753358 0.000126034
-0.00753358 -0.0012703 -9.2905e-05
0.000126034 -9.2905e-05 0.000633597
0.000105636 -0.00101276 -1.51078e-05
-0.00101276 0.000828592 -1.26951e-05
-1.51078e-05 -1.26951e-05 -0.000305155
0.00236134 -0.0021259 4.76545e-05
-0.0021259 0.00096323 -2.27725e-05
4.76545e-05 -2.27725e-05 -1.6527e-05
0.00254193 -0.00182856 -6.89663e-06
-0.00182856 0.000399293 -1.49094e-05
-6.89663e-06 -1.49094e-05 -0.000237863
-0.000290428 -0.001084 -9.38549e-07
-0.001084 -0.000365648 8.40112e-07
-9.38549e-07 8.40112e-07 -0.00109619
0.00240807 -0.00183174 -8.19007e-06
-0.00183174 0.000450876 2.09378e-06
-8.19007e-06 2.09378e-06 -0.000271153
0.00449639 -0.00200349 -3.36169e-06
-0.00200349 0.00126398 -3.1503e-06
-3.36169e-06 -3.1503e-06 0.000606914
0.00210198 -0.00156958 1.18064e-05
-0.00156958 0.000549017 7.9708e-06
1.18064e-05 7.9708e-06 -0.000496461
0.00321782 -0.00189172 -1.1729e-06
-0.00189172 0.000770503 4.02593e-06
-1.1729e-06 4.02593e-06 -0.000104241
0.00309699 -0.00143531 -1.44403e-06
-0.00143531 0.000379894 -1.08343e-06
-1.44403e-06 -1.08343e-06 -3.14138e-05
0.00241343 -0.00161279 7.23628e-06
-0.00161279 0.000586732 2.29492e-06
7.23628e-06 2.29492e-06 -0.000339202
0.00292053 -0.00129878 -3.63583e-06
-0.00129878 0.000478343 4.29999e-06
-3.63583e-06 4.29999e-06 -5.88749e-05
0.00260664 -0.000883105 6.7453e-08
-0.000883105 4.29182e-05 -7.9425e-07
6.7453e-08 -7.9425e-07 -0.00010235
0.00263056 -0.000870927 -3.32729e-06
-0.000870927 0.000192068 4.46097e-07
-3.32729e-06 4.46097e-07 4.72836e-05
0.00235679 -0.000795209 -4.75365e-06
-0.000795209 9.2826e-05 3.48918e-07
-4.75365e-06 3.48918e-07 -0.000162429
0.00237196 -0.000786 1.02544e-06
-0.000786 1.62435e-05 2.4648e-06
1.02544e-06 2.4648e-06 -0.000187585
0.00225803 -0.000992194 -5.57433e-06
-0.000992194 0.000156476 -3.84306e-06
-5.57433e-06 -3.84306e-06 -0.000326618
0.0026105 -0.00114876 4.268e-06
-0.00114876 0.000346961 7.00316e-07
4.268e-06 7.00316e-07 -0.0002044
0.0027779 -0.00120982 3.41577e-06
-0.00120982 0.000426447 4.14397e-06
3.41577e-06 4.14397e-06 -0.000134629
0.00270529 -0.00130642 -9.30516e-06
-0.00130642 0.000704134 -6.26527e-06
-9.30516e-06 -6.26527e-06 -3.38248e-06
0.00314502 -0.0014664 2.25332e-06
-0.0014664 0.000969724 -1.30425e-06
2.25332e-06 -1.30425e-06 0.000200006
0.00358094 -0.00169883 -2.45002e-06
-0.00169883 0.00121629 -1.07927e-07
-2.45002e-06 -1.07927e-07 0.000327059
0.00152824 -0.000981019 -1.87273e-06
-0.000981019 0.000231089 -1.03273e-05
-1.87273e-06 -1.03273e-05 -0.000463203
0.00278551 -0.00145128 2.11948e-06
-0.00145128 0.00105502 -1.32777e-06
2.11948e-06 -1.32777e-06 0.000184962
0.00202307 -0.00146131 -1.92123e-06
-0.00146131 0.000608548 5.64576e-06
-1.92123e-06 5.64576e-06 -0.000263766
0.0009639 -0.000535503 -1.45789e-05
-0.000535503 0.000121331 -9.22422e-06
-1.45789e-05 -9.22422e-06 -0.000192204
0.00131936 -0.000872682 3.53107e-06
-0.000872682 0.000478285 4.47331e-06
3.53107e-06 4.47331e-06 -0.000150078
0.000266616 -0.000911961 3.71484e-06
-0.000911961 -0.000153727 9.58209e-06
3.71484e-06 9.58209e-06 -0.0009001
1.2424e-05 -0.000245313 -3.17939e-05
-0.000245313 -0.000409261 1.99296e-05
-3.17939e-05 1.99296e-05 -0.000546723
0.000977876 -0.000507794 3.14068e-06
-0.000507794 0.000316934 6.10752e-07
3.14068e-06 6.10752e-07 -4.48569e-05
-0.00221832 -0.000514563 -9.1926e-06
-0.000514563 -0.00162253 -1.23298e-05
-9.1926e-06 -1.23298e-05 -0.00210275
0.00718906 0.000402917 3.27074e-05
0.000402917 0.00460113 1.31819e-05
3.27074e-05 1.31819e-05 0.00450782
0.000505592 -0.000225974 4.76129e-06
-0.000225974 -4.81083e-05 1.24974e-06
4.76129e-06 1.24974e-06 -0.000190028
0.000310889 -0.000236166 -1.06233e-05
-0.000236166 -0.0001301 6.03511e-06
-1.06233e-05 6.03511e-06 -0.000480869
0.00526971 0.000166581 2.91925e-05
0.000166581 0.00326544 1.85251e-06
2.91925e-05 1.85251e-06 0.00324415
0.00071101 -0.000157401 1.50954e-05
-0.000157401 0.000155867 -1.95508e-05
1.50954e-05 -1.95508e-05 1.37384e-05
0.00473692 0.000127245 0.000101785
0.000127245 0.00289108 -1.31307e-05
0.000101785 -1.31307e-05 0.00288132
0.00259172 0.00064839 7.17094e-07
0.00064839 0.00133569 2.00833e-05
7.17094e-07 2.00833e-05 0.000859324
0.00123264 0.000395503 4.21023e-06
0.000395503 0.000515711 5.19823e-07
4.21023e-06 5.19823e-07 0.000128918
-0.000447772 0.000843541 2.36811e-06
0.000843541 -0.00044454 6.36666e-06
2.36811e-06 6.36666e-06 -0.000896152
0.00183142 0.000405883 -1.59053e-06
0.000405883 0.00095521 -1.93525e-05
-1.59053e-06 -1.93525e-05 0.000671423
0.000893988 0.00025624 -2.08888e-07
0.00025624 0.000607915 9.99707e-07
-2.08888e-07 9.99707e-07 7.13983e-05
-0.000424331 0.000260297 -5.6698e-06
0.000260297 -0.00016511 1.52597e-05
-5.6698e-06 1.52597e-05 -0.000722557
0.000603393 4.45358e-05 -5.52166e-06
4.45358e-05 0.000151553 -1.8972e-05
-5.52166e-06 -1.8972e-05 5.42056e-05
0.000623892 0.000181184 -2.08078e-07
0.000181184 0.000213099 1.52919e-06
-2.08078e-07 1.52919e-06 -4.12401e-05
-0.000333683 0.000100853 -1.27234e-05
0.000100853 -0.000327349 3.70031e-05
-1.27234e-05 3.70031e-05 -0.00070321
0.00413557 -9.99797e-05 -7.57733e-05
-9.99797e-05 0.00249743 -1.07378e-05
-7.57733e-05 -1.07378e-05 0.00249482
0.000346465 -2.16578e-05 3.3828e-07
-2.16578e-05 -1.79018e-05 -1.97744e-07
3.3828e-07 -1.97744e-07 -9.13233e-05
0.000604435 0.000101439 -6.3938e-06
0.000101439 0.000221144 1.14482e-05
-6.3938e-06 1.14482e-05 -1.62516e-05
0.00346346 -7.99344e-05 -1.28103e-05
-7.99344e-05 0.00204143 1.15724e-06
-1.28103e-05 1.15724e-06 0.00204077
0.000430456 4.94282e-05 1.4531e-06
4.94282e-05 2.27602e-05 1.29634e-05
1.4531e-06 1.29634e-05 -3.39191e-05
0.00300824 -5.86338e-05 3.00386e-05
-5.86338e-05 0.00172885 8.00108e-06
3.00386e-05 8.00108e-06 0.00173228
0.000196607 -0.00223397 -0.000779675
-0.00223397 0.00857961 0.000180861
-0.000779675 0.000180861 -0.00226219
0.00666363 0.00215846 0.000150759
0.00215846 0.00513565 7.5409e-06
0.000150759 7.5409e-06 0.000456737
0.000224793 0.00234948 0.000446163
0.00234948 0.00457893 0.000175399
0.000446163 0.000175399 -0.00115014
0.000251223 0.000425955 -3.28602e-06
0.000425955 5.92711e-05 3.48533e-06
-3.28602e-06 3.48533e-06 -0.000545626
0.00432822 0.00141512 -1.44977e-06
0.00141512 0.00239313 3.2423e-05
-1.44977e-06 3.2423e-05 0.00156271
-0.0012522 0.000267069 -2.9748e-05
0.000267069 -0.000549309 1.33665e-07
-2.9748e-05 1.33665e-07 -0.00135184
0.000426615 0.000306729 -9.35927e-06
0.000306729 0.000375881 -1.73306e-05
-9.35927e-06 -1.73306e-05 -0.000111275
0.00252261 0.000622662 -4.1031e-06
0.000622662 0.00113386 -1.46902e-06
-4.1031e-06 -1.46902e-06 0.00082054
-0.00463188 6.05527e-05 3.06024e-05
6.05527e-05 -0.00319453 4.35025e-05
3.06024e-05 4.35025e-05 -0.00324396
-0.001244 0.000374921 -5.77028e-07
0.000374921 -0.000563114 3.94767e-06
-5.77028e-07 3.94767e-06 -0.00106999
0.00038712 0.000426165 -1.08336e-05
0.000426165 0.000120282 -7.8175e-07
-1.08336e-05 -7.8175e-07 -0.000384626
0.00076723 0.0012093 -4.71482e-05
0.0012093 0.000536438 -1.13302e-05
-4.71482e-05 -1.13302e-05 -0.000315116
-0.000635476 0.00100053 -6.26833e-05
0.00100053 -0.000602428 8.1356e-05
-6.26833e-05 8.1356e-05 -0.00109951
-0.000279061 0.000214432 -1.0831e-05
0.000214432 2.31306e-05 3.2373e-05
-1.0831e-05 3.2373e-05 -0.000439733
0.00232256 0.000972826 3.2227e-05
0.000972826 0.00165674 1.97048e-06
3.2227e-05 1.97048e-06 0.00088917
0.0108423 -0.00921302 -0.0042133
-0.00921302 0.0078474 0.000568972
-0.0042133 0.000568972 -0.00389716
0.0117093 -0.0117978 0.00136327
-0.0117978 0.0199871 -0.000182853
0.00136327 -0.000182853 0.0042152
0.0120411 0.00661015 -0.00157977
0.00661015 0.00399957 -0.000435132
-0.00157977 -0.000435132 -0.00365689
0.0419346 -0.0301699 0.00187581
-0.0301699 0.0306191 0.00179443
0.00187581 0.00179443 0.00853015
0.0344974 -0.00783453 -0.000433186
-0.00783453 0.0178936 0.000732605
-0.000433186 0.000732605 0.00575109
0.00148167 0.00305325 -0.000248318
0.00305325 0.00629978 -0.000297564
-0.000248318 -0.000297564 -0.00170617
0.000400027 -0.000636805 -0.000261454
-0.000636805 0.0051741 8.53933e-05
-0.000261454 8.53933e-05 0.00197337
-8.26348e-05 0.00211007 1.46176e-05
0.00211007 0.0031126 3.37521e-05
1.46176e-05 3.37521e-05 0.00085642
0.0369389 -0.01125 -0.00121568
-0.01125 0.0191313 0.00047417
-0.00121568 0.00047417 0.00491705
-0.0010306 0.0088431 -0.000486221
0.0088431 0.00198523 -5.71768e-05
-0.000486221 -5.71768e-05 -0.00378011
0.00118448 0.00552135 -2.19306e-05
0.00552135 0.000907446 -0.000161685
-2.19306e-05 -0.000161685 0.000451011
0.00713164 0.0145944 -0.00138586
0.0145944 -0.00478164 -0.000192519
-0.00138586 -0.000192519 -0.00407328
0.0040159 0.0022268 3.36965e-05
0.0022268 0.00175367 3.68735e-05
3.36965e-05 3.68735e-05 0.00100541
0.00199141 0.00123478 -1.87295e-05
0.00123478 0.000888928 -6.06573e-06
-1.87295e-05 -6.06573e-06 0.000522865
-0.000385657 0.000434495 -6.71602e-05
0.000434495 0.000179696 -1.14947e-05
-6.71602e-05 -1.14947e-05 -0.000596157
0.000152883 0.00184698 -0.000160709
0.00184698 0.0019768 -9.27457e-05
-0.000160709 -9.27457e-05 -0.000109333
0.00128589 0.00118693 -8.17326e-05
0.00118693 0.000817216 -8.84562e-05
-8.17326e-05 -8.84562e-05 0.000202243
0.00287038 0.00358567 1.60104e-06
0.00358567 0.00130922 -1.88513e-05
1.60104e-06 -1.88513e-05 -0.000388393
0.000735059 0.00406977 0.000229598
0.00406977 -0.00131018 0.000146587
0.000229598 0.000146587 -0.00196829
-0.00771223 -0.000693996 -0.00196925
-0.000693996 0.00344686 -6.34064e-06
-0.00196925 -6.34064e-06 -0.00689617
-0.00940381 0.00112608 0.00130577
0.00112608 0.00717822 -5.52442e-05
0.00130577 -5.52442e-05 -0.000216828
0.000264267 0.000999463 -0.000298692
0.000999463 0.00281498 5.79805e-05
-0.000298692 5.79805e-05 -0.000451792
0.000807318 -0.00251714 -0.000115235
-0.00251714 0.00189234 -7.56967e-05
-0.000115235 -7.56967e-05 -0.000197032
0.00183993 -0.00648626 0.00016087
-0.00648626 0.00133955 7.95739e-05
0.00016087 7.95739e-05 5.37902e-05
0.00561015 0.00542854 0.00130437
0.00542854 0.016158 0.00038354
0.00130437 0.00038354 0.00439915
0.00567961 -0.0116933 0.00148306
-0.0116933 -0.00591976 -0.000306533
0.00148306 -0.000306533 -0.00361439
0.0221235 0.0097496 0.00275104
0.0097496 0.016804 0.000413311
0.00275104 0.000413311 0.00557588
0.00377992 -0.00470915 -1.70465e-05
-0.00470915 0.0015346 -1.10952e-05
-1.70465e-05 -1.10952e-05 5.97727e-05
0.00943395 0.0076854 0.000593358
0.0076854 0.00787703 -0.000203192
0.000593358 -0.000203192 -0.00287674
0.00877503 -0.00778519 -0.000475485
-0.00778519 -0.00891355 0.000238799
-0.000475485 0.000238799 -0.00551917
0.00342041 -0.0064964 -9.45308e-05
-0.0064964 -0.00166869 9.429e-05
-9.45308e-05 9.429e-05 0.000559562
0.00366967 -0.00362509 6.55927e-05
-0.00362509 -0.0001185 -3.95831e-05
6.55927e-05 -3.95831e-05 0.00013629
0.0166998 -0.00180831 -0.000115886
-0.00180831 -0.00229076 0.00016419
-0.000115886 0.00016419 -0.000257487
0.00385685 -0.00461584 0.000143007
-0.00461584 -0.00534009 -0.000207144
0.000143007 -0.000207144 -0.000805226
0.00391695 -0.00260244 -0.000102009
-0.00260244 0.00174597 5.65654e-05
-0.000102009 5.65654e-05 0.000733657
0.000722212 -0.00157548 -1.38614e-05
-0.00157548 -0.000603913 2.38624e-06
-1.38614e-05 2.38624e-06 -0.00101474
0.00604775 -0.00200825 5.12336e-05
-0.00200825 0.00189885 -2.80237e-05
5.12336e-05 -2.80237e-05 0.00150909
-0.000141788 -0.00146458 -4.34575e-06
-0.00146458 -0.00087688 3.13188e-06
-4.34575e-06 3.13188e-06 -0.00150542
0.00312662 -0.0018045 1.91572e-06
-0.0018045 0.000559557 -6.65517e-07
1.91572e-06 -6.65517e-07 -1.75486e-05
0.0035791 -0.00143832 -1.38603e-06
-0.00143832 0.000471024 -1.68526e-06
-1.38603e-06 -1.68526e-06 0.000311843
0.00305175 -0.00186339 1.15816e-05
-0.00186339 0.000676576 1.20565e-05
1.15816e-05 1.20565e-05 -0.000190537
0.00308711 -0.0014173 -4.09692e-06
-0.0014173 0.000374326 2.48917e-06
-4.09692e-06 2.48917e-06 -1.89941e-05
0.00279613 -0.00096183 -6.87456e-07
-0.00096183 -2.62067e-05 3.21751e-07
-6.87456e-07 3.21751e-07 -2.5322e-06
0.00230622 -0.00120148 7.06359e-06
-0.00120148 0.00012811 7.28351e-06
7.06359e-06 7.28351e-06 -0.000378204
0.00254876 -0.000871774 -1.00774e-07
-0.000871774 2.64479e-07 2.82227e-06
-1.00774e-07 2.82227e-06 -0.000133912
0.00269805 -0.000923403 -2.09744e-06
-0.000923403 6.20689e-05 4.73013e-07
-2.09744e-06 4.73013e-07 -6.5551e-06
0.00265468 -0.000889453 -4.3769e-06
-0.000889453 0.000131658 -2.39503e-07
-4.3769e-06 -2.39503e-07 -3.36948e-06
0.00257177 -0.000870114 -3.68633e-06
-0.000870114 0.000142165 1.66806e-06
-3.68633e-06 1.66806e-06 5.85361e-06
0.0025534 -0.000834167 -9.05529e-07
-0.000834167 0.000230824 -1.19235e-06
-9.05529e-07 -1.19235e-06 4.00847e-05
0.0025716 -0.000835434 -6.40754e-06
-0.000835434 0.000309226 -9.43237e-07
-6.40754e-06 -9.43237e-07 8.99374e-06
0.00254404 -0.000799308 1.55372e-06
-0.000799308 0.000232716 1.27177e-06
1.55372e-06 1.27177e-06 -2.74737e-05
0.00231478 -0.000778829 3.85369e-06
-0.000778829 -4.02192e-05 5.56428e-06
3.85369e-06 5.56428e-06 -0.000243346
0.00237645 -0.00099108 -7.48267e-06
-0.00099108 0.00028003 -6.77288e-06
-7.48267e-06 -6.77288e-06 -0.000201437
0.00227322 -0.00101308 -5.62109e-07
-0.00101308 0.000150751 -4.71296e-08
-5.62109e-07 -4.71296e-08 -0.000339922
0.00277469 -0.00115663 8.42857e-06
-0.00115663 0.000474116 4.51949e-06
8.42857e-06 4.51949e-06 -7.29265e-05
0.00196719 -0.00113751 -5.36846e-06
-0.00113751 0.000241475 -7.38693e-06
-5.36846e-06 -7.38693e-06 -0.000426363
0.00289227 -0.00134334 -1.78669e-06
-0.00134334 0.000790692 8.98571e-07
-1.78669e-06 8.98571e-07 7.13236e-05
0.0027606 -0.00143085 4.70653e-06
-0.00143085 0.000720121 3.24584e-06
4.70653e-06 3.24584e-06 -4.62394e-05
0.000595608 -0.000427317 -1.06628e-05
-0.000427317 -0.0002716 7.03834e-06
-1.06628e-05 7.03834e-06 -0.000669781
0.00213558 -0.00106153 -2.65323e-06
-0.00106153 0.000631502 2.88605e-06
-2.65323e-06 2.88605e-06 -7.7937e-05
0.0028192 -0.00145565 1.12288e-05
-0.00145565 0.00105649 9.18983e-06
1.12288e-05 9.18983e-06 0.000185056
-4.04995e-05 -0.000227184 -2.00171e-05
-0.000227184 -0.000402927 2.79755e-05
-2.00171e-05 2.79755e-05 -0.000608427
0.00145671 -0.000552446 -1.15257e-05
-0.000552446 0.000479264 -1.57842e-06
-1.15257e-05 -1.57842e-06 0.000123365
-0.000845123 -0.000863555 -5.11291e-06
-0.000863555 -0.000870764 7.15707e-07
-5.11291e-06 7.15707e-07 -0.00152704
0.00777034 0.000183159 -0.000229719
0.000183159 0.00490638 2.00783e-05
-0.000229719 2.00783e-05 0.00488655
0.000750493 -0.000252524 -7.29395e-06
-0.000252524 7.54626e-05 -1.39954e-06
-7.29395e-06 -1.39954e-06 -7.66085e-05
0.000105359 -0.000559696 1.74339e-05
-0.000559696 -0.000142765 1.55992e-06
1.74339e-05 1.55992e-06 -0.000568632
0.00440644 0.00014701 0.000110571
0.00014701 0.0026933 -4.65823e-06
0.000110571 -4.65823e-06 0.00263973
0.000673147 -0.000235035 3.02827e-05
-0.000235035 5.89289e-05 -1.91578e-05
3.02827e-05 -1.91578e-05 -8.86581e-05
0.00647907 0.000105726 0.000211667
0.000105726 0.0040514 -1.86984e-05
0.000211667 -1.86984e-05 0.00404624
0.00104809 0.00073121 -2.83373e-05
0.00073121 0.000189818 1.87315e-05
-2.83373e-05 1.87315e-05 -0.000428957
0.0011885 0.000483345 -9.55658e-06
0.000483345 0.000465803 1.19025e-06
-9.55658e-06 1.19025e-06 4.00291e-06
-0.000415747 0.000255208 1.70373e-05
0.000255208 -0.000586181 2.63105e-05
1.70373e-05 2.63105e-05 -0.00094603
0.00180101 0.000444534 -1.54117e-06
0.000444534 0.000841429 -9.61422e-06
-1.54117e-06 -9.61422e-06 0.000465943
0.00193908 0.000377604 3.53004e-06
0.000377604 0.00109564 -1.21256e-06
3.53004e-06 -1.21256e-06 0.000669846
0.00162926 0.000351449 2.48746e-06
0.000351449 0.000875288 -1.33227e-05
2.48746e-06 -1.33227e-05 0.000511248
0.00106501 0.000175908 -2.21991e-05
0.000175908 0.000420126 -2.60692e-05
-2.21991e-05 -2.60692e-05 0.000299216
0.000854202 0.000257457 -1.05652e-06
0.000257457 0.000398295 9.19523e-07
-1.05652e-06 9.19523e-07 7.90003e-05
-0.00108499 8.01909e-05 -2.07101e-05
8.01909e-05 -0.000718434 3.37711e-05
-2.07101e-05 3.37711e-05 -0.00122658
0.00374859 -8.82742e-05 -9.9966e-05
-8.82742e-05 0.0022414 -1.52569e-05
-9.9966e-05 -1.52569e-05 0.00224234
0.000402168 9.94872e-05 1.22093e-06
9.94872e-05 2.36048e-05 -6.13071e-07
1.22093e-06 -6.13071e-07 -6.97353e-05
0.000789142 0.000215699 -3.9696e-06
0.000215699 0.00034045 1.73953e-05
-3.9696e-06 1.73953e-05 7.55577e-05
0.00354154 -9.1829e-05 -1.09955e-05
-9.1829e-05 0.00210148 9.10314e-07
-1.09955e-05 9.10314e-07 0.00209888
0.000158142 7.52885e-07 2.64131e-06
7.52885e-07 -0.000137673 1.52185e-05
2.64131e-06 1.52185e-05 -0.000209999
0.00323434 -8.27766e-05 3.80734e-05
-8.27766e-05 0.00188821 9.13821e-06
3.80734e-05 9.13821e-06 0.00188664
0.00357825 -0.00426203 -0.0030513
-0.00426203 0.00577436 0.000207456
-0.0030513 0.000207456 0.000694953
0.00142493 -0.00388355 -0.000304926
-0.00388355 0.0106947 -9.03988e-05
-0.000304926 -9.03988e-05 -0.00108473
0.00704011 0.0017559 -0.000799
0.0017559 0.00445356 -0.000204128
-0.000799 -0.000204128 4.67001e-05
0.000986664 0.000353994 6.60886e-06
0.000353994 0.000477655 1.0965e-05
6.60886e-06 1.0965e-05 -7.09123e-05
0.000995394 0.000390786 1.52754e-05
0.000390786 0.000735254 -1.0745e-06
1.52754e-05 -1.0745e-06 -6.06166e-06
0.00186764 0.00107209 -3.23132e-06
0.00107209 0.000868378 -1.63925e-06
-3.23132e-06 -1.63925e-06 6.47401e-05
0.00255588 0.0014574 4.67532e-06
0.0014574 0.00103304 2.33182e-05
4.67532e-06 2.33182e-05 0.000190389
0.00157079 0.00122924 -4.78242e-05
0.00122924 0.000984985 1.77045e-05
-4.78242e-05 1.77045e-05 1.93646e-05
0.0054922 0.000874508 1.11548e-05
0.000874508 0.003449 8.88105e-06
1.11548e-05 8.88105e-06 0.00304358
0.00203028 0.000659023 3.28037e-05
0.000659023 0.00126807 2.3907e-05
3.28037e-05 2.3907e-05 0.00068349
0.00293556 0.00126395 -6.12827e-06
0.00126395 0.00177451 9.67118e-08
-6.12827e-06 9.67118e-08 0.000965502
0.00276684 0.00171438 -3.07522e-05
0.00171438 0.00112921 2.02301e-06
-3.07522e-05 2.02301e-06 0.000302014
0.00227712 0.00157901 -2.94931e-05
0.00157901 0.00078497 5.81946e-05
-2.94931e-05 5.81946e-05 0.000262099
0.00204628 0.00214953 4.65197e-05
0.00214953 0.00010797 -1.98631e-05
4.65197e-05 -1.98631e-05 -0.000494061
0.00126323 0.00131842 2.0798e-05
0.00131842 0.00047042 1.02768e-05
2.0798e-05 1.02768e-05 -0.000117883
0.00339024 0.00117938 -1.89556e-05
0.00117938 0.00230382 -5.88282e-06
-1.89556e-05 -5.88282e-06 0.00139091
0.0188107 0.00821577 -0.00023494
0.00821577 -0.00198629 0.000109239
-0.00023494 0.000109239 0.00109089
0.0180296 -0.00655276 -0.00107147
-0.00655276 0.0102119 -0.000174771
-0.00107147 -0.000174771 0.00155583
0.0113918 -0.0116743 0.00219168
-0.0116743 0.0215419 -4.99032e-05
0.00219168 -4.99032e-05 0.00683124
0.0285473 -0.00757622 0.0006296
-0.00757622 0.0137628 0.000171348
0.0006296 0.000171348 0.00154951
0.00800408 0.0103161 -0.000352757
0.0103161 0.00481303 -0.000155831
-0.000352757 -0.000155831 -0.000389585
0.000632157 0.00235329 6.53664e-05
0.00235329 0.00365182 6.51415e-05
6.53664e-05 6.51415e-05 0.00125894
0.00157499 0.00528327 -0.000189561
0.00528327 0.00112768 -0.000117152
-0.000189561 -0.000117152 0.00103994
0.0102908 0.0119507 0.000129716
0.0119507 -0.00121975 0.000135779
0.000129716 0.000135779 -0.00171639
0.00842654 0.00851624 -0.000216874
0.00851624 -0.000997987 -0.000173674
-0.000216874 -0.000173674 0.00026749
0.00177237 0.0022528 6.52551e-06
0.0022528 0.000104007 -3.25162e-05
6.52551e-06 -3.25162e-05 -0.000444097
0.00253568 0.00192847 1.93159e-05
0.00192847 0.000956001 6.13567e-06
1.93159e-05 6.13567e-06 0.000296971
0.00175358 0.00113894 -2.77804e-06
0.00113894 0.000789198 -5.40171e-05
-2.77804e-06 -5.40171e-05 0.000434897
0.00234135 0.00362203 -0.000107384
0.00362203 0.000784969 -6.94821e-05
-0.000107384 -6.94821e-05 -0.000856207
0.00549144 0.00467597 0.000125016
0.00467597 0.00100146 3.88031e-05
0.000125016 3.88031e-05 -0.000159022
0.0077236 -0.000187306 -3.4047e-05
-0.000187306 -0.00693607 -9.22481e-07
-3.4047e-05 -9.22481e-07 -0.00784499
0.00141065 -0.00300303 -5.4362e-05
-0.00300303 0.00796671 7.60307e-05
-5.4362e-05 7.60307e-05 0.000866703
-0.0124816 9.817e-05 0.0018985
9.817e-05 0.00832532 4.93876e-05
0.0018985 4.93876e-05 0.00295342
0.00358634 -0.00558614 -0.000212564
-0.00558614 0.000927871 0.00013461
-0.000212564 0.00013461 -0.000902165
0.00692729 -0.00814613 -4.91914e-05
-0.00814613 -0.00104885 0.000148162
-4.91914e-05 0.000148162 0.000738972
0.0110275 0.00387989 0.0029155
0.00387989 0.00856894 -0.000277265
0.0029155 -0.000277265 0.00299076
0.0121373 -0.00695359 -0.000498465
-0.00695359 -0.00611717 0.000378788
-0.000498465 0.000378788 -0.00184606
0.00320006 -0.00367519 -4.39401e-05
-0.00367519 -0.000504566 1.65139e-05
-4.39401e-05 1.65139e-05 -0.000389243
0.0134046 -0.00156522 -0.000473976
-0.00156522 -0.00517463 0.000173732
-0.000473976 0.000173732 -0.00354371
0.00781737 -0.00539311 0.000120778
-0.00539311 -0.00276212 -1.21513e-05
0.000120778 -1.21513e-05 0.000616405
0.00392806 -0.00281557 7.38239e-05
-0.00281557 -0.00129355 -8.58481e-05
7.38239e-05 -8.58481e-05 -0.000147884
0.00433368 -0.00222548 0.000171864
-0.00222548 -0.00453715 -5.82166e-05
0.000171864 -5.82166e-05 2.065e-05
3.41282e-05 -0.00151548 5.13719e-06
-0.00151548 -0.0010683 2.19226e-05
5.13719e-06 2.19226e-05 -0.00133647
0.00246881 -0.00156531 -3.56046e-05
-0.00156531 -0.000246901 1.17432e-05
-3.56046e-05 1.17432e-05 -0.000205188
0.00476053 -0.0014184 5.33168e-05
-0.0014184 0.000920236 -2.80387e-05
5.33168e-05 -2.80387e-05 0.00108574
0.00152688 -0.00156805 -3.74422e-06
-0.00156805 -0.000265473 1.0637e-05
-3.74422e-06 1.0637e-05 -0.00074662
0.00314834 -0.00141699 -5.8031e-06
-0.00141699 0.000215548 1.98939e-06
-5.8031e-06 1.98939e-06 6.30667e-05
0.00314134 -0.00104255 3.45792e-06
-0.00104255 -6.08183e-06 -1.35169e-06
3.45792e-06 -1.35169e-06 0.000123603
0.00304674 -0.00139487 -1.28068e-05
-0.00139487 0.000354436 9.5555e-06
-1.28068e-05 9.5555e-06 -2.07546e-05
0.00272138 -0.000954357 -3.04435e-07
-0.000954357 -7.0547e-05 1.24769e-06
-3.04435e-07 1.24769e-06 -4.8454e-05
0.00285162 -0.000911268 -1.534e-06
-0.000911268 -9.7744e-06 -3.35381e-07
-1.534e-06 -3.35381e-07 3.9303e-05
0.00248391 -0.000856638 2.93646e-06
-0.000856638 -4.26502e-05 4.50614e-06
2.93646e-06 4.50614e-06 -0.000164387
0.00269122 -0.000914403 -2.25967e-07
-0.000914403 7.20668e-05 5.83938e-07
-2.25967e-07 5.83938e-07 3.14593e-06
0.00276661 -0.000879776 -2.31029e-06
-0.000879776 5.41227e-05 -2.63114e-07
-2.31029e-06 -2.63114e-07 6.11289e-06
0.0026104 -0.00088798 -5.05522e-06
-0.00088798 0.000100296 4.7824e-07
-5.05522e-06 4.7824e-07 -2.54311e-05
0.00257027 -0.000834147 -1.17959e-06
-0.000834147 0.000123887 -7.84421e-07
-1.17959e-06 -7.84421e-07 -1.26987e-05
0.00251561 -0.000869214 3.49406e-07
-0.000869214 9.75982e-05 3.26637e-06
3.49406e-07 3.26637e-06 -3.11687e-05
0.00255821 -0.000834518 8.86053e-07
-0.000834518 0.000231138 -5.72377e-07
8.86053e-07 -5.72377e-07 4.68551e-05
0.00253027 -0.000819329 -2.47763e-06
-0.000819329 0.000289364 3.94024e-07
-2.47763e-06 3.94024e-07 5.02902e-05
0.00254004 -0.000857 -1.08487e-06
-0.000857 0.000363751 -4.43553e-06
-1.08487e-06 -4.43553e-06 1.50103e-05
0.00267464 -0.000839486 -2.45637e-07
-0.000839486 0.000382044 -1.19127e-07
-2.45637e-07 -1.19127e-07 7.41981e-05
0.00273263 -0.000802034 8.02292e-06
-0.000802034 0.000377197 2.01897e-06
8.02292e-06 2.01897e-06 0.000112492
0.00239317 -0.00101098 -1.49879e-06
-0.00101098 0.000402973 -4.0166e-06
-1.49879e-06 -4.0166e-06 -0.000139975
0.00242561 -0.00101519 -3.7523e-06
-0.00101519 0.000296452 -7.81203e-07
-3.7523e-06 -7.81203e-07 -0.000196965
0.00224369 -0.00102548 6.46241e-06
-0.00102548 0.000119495 3.48294e-06
6.46241e-06 3.48294e-06 -0.000375934
0.00151527 -0.000682056 -1.55942e-05
-0.000682056 0.00024465 3.69324e-06
-1.55942e-05 3.69324e-06 -0.00026239
0.00247358 -0.00119288 -1.771e-06
-0.00119288 0.00060081 -2.88986e-07
-1.771e-06 -2.88986e-07 -8.27885e-05
0.0030744 -0.00138093 9.08901e-06
-0.00138093 0.000871496 6.4351e-06
9.08901e-06 6.4351e-06 0.00014012
0.000187221 -0.000280063 -1.67473e-05
-0.000280063 -0.00029559 2.92468e-05
-1.67473e-05 2.92468e-05 -0.000528141
0.000876684 -0.000472951 4.99155e-06
-0.000472951 -5.24152e-05 -2.29585e-07
4.99155e-06 -2.29585e-07 -0.000475696
0.00272379 -0.00112439 3.28769e-06
-0.00112439 0.00101433 9.4519e-06
3.28769e-06 9.4519e-06 0.000298658
0.00797105 1.13002e-05 -0.000300583
1.13002e-05 0.00498717 2.79497e-05
-0.000300583 2.79497e-05 0.00499867
0.000403254 -0.00027622 -6.63623e-06
-0.00027622 -0.000139481 9.34753e-07
-6.63623e-06 9.34753e-07 -0.000343205
0.0014238 -0.000638699 5.10688e-06
-0.000638699 0.000561443 1.09475e-06
5.10688e-06 1.09475e-06 0.000133592
0.00735809 0.000112345 1.5702e-05
0.000112345 0.00462015 -4.39088e-06
1.5702e-05 -4.39088e-06 0.00461276
0.00136566 -0.00029236 2.99451e-05
-0.00029236 0.000464866 -2.45449e-05
2.99451e-05 -2.45449e-05 0.000308998
0.00698 0.000174876 0.00019435
0.000174876 0.00439679 -2.52371e-05
0.00019435 -2.52371e-05 0.00437425
0.00370854 0.00145244 -1.16288e-05
0.00145244 0.00177096 1.96817e-05
-1.16288e-05 1.96817e-05 0.000929263
0.00225972 0.000945932 -1.637e-06
0.000945932 0.00103134 1.68793e-06
-1.637e-06 1.68793e-06 0.000342284
-0.00112178 0.000449151 -6.00735e-06
0.000449151 -0.00100714 1.97651e-05
-6.00735e-06 1.97651e-05 -0.00155014
0.000527885 0.000351619 2.33929e-06
0.000351619 8.48587e-05 -9.70095e-06
2.33929e-06 -9.70095e-06 -0.000361301
-0.000272702 0.000458783 1.98749e-06
0.000458783 -0.000476617 -8.45749e-06
1.98749e-06 -8.45749e-06 -0.000850806
-0.000961649 0.000612802 -2.12603e-06
0.000612802 -0.000927406 -3.15393e-06
-2.12603e-06 -3.15393e-06 -0.00130422
0.00027833 0.000167196 -1.9237e-05
0.000167196 3.36809e-05 -7.90982e-06
-1.9237e-05 -7.90982e-06 -0.000409415
0.000608948 0.00047332 2.49773e-06
0.00047332 0.000200297 6.54407e-07
2.49773e-06 6.54407e-07 -0.000175327
0.00123842 0.000277188 -3.64292e-05
0.000277188 0.000444638 -2.87453e-05
-3.64292e-05 -2.87453e-05 0.00030502
0.00524778 -0.000136747 -0.000142982
-0.000136747 0.00326744 -2.54314e-05
-0.000142982 -2.54314e-05 0.00325371
0.000435074 0.000121133 5.07647e-06
0.000121133 3.14272e-05 -5.37614e-07
5.07647e-06 -5.37614e-07 -9.52985e-05
-0.000163712 0.000141816 -6.00894e-06
0.000141816 -0.000219306 2.31706e-05
-6.00894e-06 2.31706e-05 -0.000567791
0.00438164 -0.000139881 -1.63996e-05
-0.000139881 0.00267883 2.06761e-06
-1.63996e-05 2.06761e-06 0.00266562
-1.1672e-05 -6.29857e-05 -1.38959e-05
-6.29857e-05 -0.00021845 1.93151e-05
-1.38959e-05 1.93151e-05 -0.000325035
0.00365236 -0.000108911 5.1275e-05
-0.000108911 0.00217928 1.09326e-05
5.1275e-05 1.09326e-05 0.00217194
0.0161941 0.00120384 0.000919012
0.00120384 -0.00221589 0.000169685
0.000919012 0.000169685 0.00110467
0.00649692 -0.009781 -0.0016956
-0.009781 0.00450117 9.44316e-05
-0.0016956 9.44316e-05 -0.00667624
-0.00115308 -0.00132816 -0.000347661
-0.00132816 0.00992389 -6.12822e-05
-0.000347661 -6.12822e-05 -8.05551e-05
0.000228956 0.000193678 6.87899e-06
0.000193678 0.000232004 -1.49217e-05
6.87899e-06 -1.49217e-05 -0.000516536
0.00157186 0.00106252 2.89445e-05
0.00106252 0.000704248 -2.47266e-05
2.89445e-05 -2.47266e-05 -0.000123629
0.00255496 0.00128149 -9.57161e-06
0.00128149 0.00141207 -1.0708e-05
-9.57161e-06 -1.0708e-05 0.000543278
0.00217612 0.00142616 -4.19369e-06
0.00142616 0.000815808 -5.33136e-07
-4.19369e-06 -5.33136e-07 -3.41616e-05
0.00219551 0.00132828 2.396e-05
0.00132828 0.000550197 2.9604e-05
2.396e-05 2.9604e-05 -0.000163432
0.0017578 0.00160804 -1.86088e-05
0.00160804 0.000471125 1.71336e-05
-1.86088e-05 1.71336e-05 -0.00031309
0.00275236 0.00117067 -5.80037e-06
0.00117067 0.00153424 -1.45606e-05
-5.80037e-06 -1.45606e-05 0.00074428
0.00238205 0.0016822 3.14329e-06
0.0016822 0.000862992 3.33494e-06
3.14329e-06 3.33494e-06 5.23967e-05
0.00319016 0.00160836 3.71255e-05
0.00160836 0.00148565 1.05308e-05
3.71255e-05 1.05308e-05 0.000761297
0.00350702 0.00166789 3.76746e-06
0.00166789 0.00140881 1.06228e-05
3.76746e-06 1.06228e-05 0.000627383
0.00118874 0.00157628 -1.41451e-06
0.00157628 -9.52341e-05 5.30166e-06
-1.41451e-06 5.30166e-06 -0.000652175
0.00473144 0.0023761 1.80466e-05
0.0023761 0.00159002 2.80993e-05
1.80466e-05 2.80993e-05 0.000741249
0.00311999 0.00220699 1.69595e-05
0.00220699 0.000795785 4.67286e-06
1.69595e-05 4.67286e-06 0.000137975
0.00260685 0.00138479 -4.25546e-05
0.00138479 0.00119913 -0.000118433
-4.25546e-05 -0.000118433 0.000573084
0.00573208 0.00439712 3.89754e-05
0.00439712 -0.00507608 9.47853e-05
3.89754e-05 9.47853e-05 0.000174152
0.0132799 0.009411 0.000694024
0.009411 -0.00610895 0.000307858
0.000694024 0.000307858 -0.00278461
0.0224257 -0.0108999 0.00180741
-0.0108999 0.0135929 -0.000657494
0.00180741 -0.000657494 0.00148853
0.00314605 0.0144151 0.00167679
0.0144151 -0.00437542 0.000537629
0.00167679 0.000537629 -0.00498233
-0.000671564 0.00413593 -6.39411e-06
0.00413593 0.000631434 4.63603e-05
-6.39411e-06 4.63603e-05 0.000364972
0.00354995 0.00517928 -0.000149419
0.00517928 -0.00184097 -0.000131859
-0.000149419 -0.000131859 0.00025839
0.00770809 0.00427641 5.34639e-05
0.00427641 0.000842992 2.48122e-05
5.34639e-05 2.48122e-05 0.000703147
0.00593012 0.00313982 1.98531e-05
0.00313982 0.00198543 8.9129e-06
1.98531e-05 8.9129e-06 0.00117735
0.00144164 0.00168897 -1.53744e-05
0.00168897 0.000378086 -3.6622e-05
-1.53744e-05 -3.6622e-05 -0.000215218
0.00886856 0.00504466 -0.00016629
0.00504466 0.00248944 9.91651e-05
-0.00016629 9.91651e-05 0.00108867
0.00638649 -0.00102508 0.000244874
-0.00102508 -0.00418544 8.10472e-05
0.000244874 8.10472e-05 0.000408627
0.0166732 -0.000354616 3.86963e-05
-0.000354616 -0.00222905 -5.86662e-05
3.86963e-05 -5.86662e-05 0.00047363
-0.00699313 -0.00526948 0.00232442
-0.00526948 0.00338551 -0.000177927
0.00232442 -0.000177927 -0.00720501
0.0034657 -0.00363539 -0.00016909
-0.00363539 -0.00035232 9.54724e-05
-0.00016909 9.54724e-05 -0.000165181
0.00770254 -0.00559333 -0.000182494
-0.00559333 -0.00318538 0.000215856
-0.000182494 0.000215856 0.000655647
0.00274513 -0.00109491 -0.00058795
-0.00109491 -0.0129247 5.21152e-05
-0.00058795 5.21152e-05 -0.00943473
0.00412601 -0.00269494 5.35716e-05
-0.00269494 -0.00112154 -8.24185e-07
5.35716e-05 -8.24185e-07 0.000163702
0.00524427 -0.00222876 -0.000117078
-0.00222876 -0.00368576 2.65447e-05
-0.000117078 2.65447e-05 -4.86982e-05
0.00602034 -0.00185458 7.07504e-05
-0.00185458 0.000201452 -7.22828e-05
7.07504e-05 -7.22828e-05 0.00131268
0.00980743 -0.00151203 0.000208961
-0.00151203 0.00159891 6.15329e-06
0.000208961 6.15329e-06 0.00332571
-0.0016337 -0.00113169 4.7071e-05
-0.00113169 -0.00284293 1.33502e-05
4.7071e-05 1.33502e-05 -0.00225055
0.00276502 -0.00122501 -1.75237e-05
-0.00122501 -0.000351883 2.61306e-06
-1.75237e-05 2.61306e-06 8.66152e-05
0.00299044 -0.000850149 3.35594e-05
-0.000850149 -0.000318789 -1.81033e-05
3.35594e-05 -1.81033e-05 0.000154301
0.00265508 -0.00139185 -3.38962e-06
-0.00139185 -7.71393e-05 3.92869e-06
-3.38962e-06 3.92869e-06 -0.000220779
0.00310057 -0.00104096 3.40614e-07
-0.00104096 -2.38324e-05 9.22829e-07
3.40614e-07 9.22829e-07 0.000107583
0.00297192 -0.0008478 -1.42199e-06
-0.0008478 -0.0001079 -1.09177e-06
-1.42199e-06 -1.09177e-06 1.9544e-06
0.00265365 -0.000949701 7.74592e-07
-0.000949701 -0.000115464 2.57367e-06
7.74592e-07 2.57367e-06 -9.41929e-05
0.00282186 -0.000909339 -7.21091e-08
-0.000909339 -1.88668e-05 1.79996e-07
-7.21091e-08 1.79996e-07 2.09534e-05
0.00273911 -0.000756301 -2.15845e-06
-0.000756301 -6.06785e-05 -5.60798e-07
-2.15845e-06 -5.60798e-07 -2.90462e-05
0.00268635 -0.000907726 1.66909e-06
-0.000907726 7.87509e-05 9.88257e-07
1.66909e-06 9.88257e-07 9.91735e-06
0.00276172 -0.000880536 -2.19102e-07
-0.000880536 7.6745e-05 -2.26417e-07
-2.19102e-07 -2.26417e-07 2.05983e-05
0.00268166 -0.000757199 1.00725e-06
-0.000757199 9.61862e-05 -9.05873e-07
1.00725e-06 -9.05873e-07 3.66261e-05
0.00255955 -0.000886342 -1.66054e-06
-0.000886342 6.25749e-05 1.17517e-06
-1.66054e-06 1.17517e-06 -5.29252e-05
0.00254447 -0.000839045 -1.42977e-06
-0.000839045 9.8132e-05 2.58326e-07
-1.42977e-06 2.58326e-07 -3.46081e-05
0.00250406 -0.000773653 -1.57641e-06
-0.000773653 0.000176565 1.41869e-07
-1.57641e-06 1.41869e-07 3.61357e-06
0.00255486 -0.000832846 3.26575e-06
-0.000832846 0.000226039 6.37394e-07
3.26575e-06 6.37394e-07 4.90928e-05
0.00251242 -0.000810283 3.8406e-07
-0.000810283 0.000272995 -3.32792e-07
3.8406e-07 -3.32792e-07 3.96979e-05
0.00259217 -0.000816999 -1.08079e-06
-0.000816999 0.000373774 -6.82687e-08
-1.08079e-06 -6.82687e-08 8.33463e-05
0.00216733 -0.000810754 2.48731e-06
-0.000810754 0.000204616 -6.92154e-06
2.48731e-06 -6.92154e-06 -0.000192797
0.00252136 -0.000858659 -1.2186e-07
-0.000858659 0.000348917 -1.56537e-06
-1.2186e-07 -1.56537e-06 -1.16914e-05
0.00277452 -0.000844078 5.4005e-06
-0.000844078 0.000453097 7.06096e-07
5.4005e-06 7.06096e-07 0.00013692
0.00138509 -0.000678704 -1.90878e-05
-0.000678704 -1.51869e-05 7.02184e-07
-1.90878e-05 7.02184e-07 -0.000473281
0.00254316 -0.00101421 -2.56566e-07
-0.00101421 0.000520813 4.4605e-07
-2.56566e-07 4.4605e-07 -2.03149e-05
0.00246368 -0.00103933 1.40373e-06
-0.00103933 0.00030377 4.5007e-06
1.40373e-06 4.5007e-06 -0.000201972
0.000198623 -0.000302383 -1.96221e-05
-0.000302383 -0.000320275 2.99945e-05
-1.96221e-05 2.99945e-05 -0.000558553
0.00112014 -0.000641061 4.06579e-06
-0.000641061 1.54987e-05 1.53506e-06
4.06579e-06 1.53506e-06 -0.000488333
0.00294275 -0.00123835 1.63e-06
-0.00123835 0.000944484 6.41882e-06
1.63e-06 6.41882e-06 0.000248289
0.00922134 -0.000105646 -0.000388085
-0.000105646 0.00576637 4.13348e-05
-0.000388085 4.13348e-05 0.00578425
-1.44126e-06 -0.000292771 2.93021e-06
-0.000292771 -0.000412735 9.38955e-07
2.93021e-06 9.38955e-07 -0.000650162
0.00103987 -0.000493151 6.64188e-06
-0.000493151 9.64937e-05 9.91537e-07
6.64188e-06 9.91537e-07 -0.000350167
0.00851274 -1.43152e-05 -2.4952e-05
-1.43152e-05 0.00535566 -1.02379e-06
-2.4952e-05 -1.02379e-06 0.00535918
0.000693004 -0.00027551 1.46594e-05
-0.00027551 3.62565e-05 -3.07601e-05
1.46594e-05 -3.07601e-05 -0.000171231
0.00748202 5.4252e-05 0.000300982
5.4252e-05 0.0047224 -4.45658e-05
0.000300982 -4.45658e-05 0.00471619
0.00241358 0.00121901 -1.02853e-05
0.00121901 0.000643815 2.07326e-05
-1.02853e-05 2.07326e-05 -4.81436e-05
0.00267208 0.00129223 2.25788e-06
0.00129223 0.00112169 4.03776e-07
2.25788e-06 4.03776e-07 0.00032845
0.00251689 0.00104416 2.16613e-06
0.00104416 0.000985921 1.96856e-05
2.16613e-06 1.96856e-05 0.000298225
0.00131221 0.000886642 2.78502e-05
0.000886642 0.0004339 -1.55665e-05
2.78502e-05 -1.55665e-05 -0.000255392
0.00113899 0.000580288 -1.16243e-06
0.000580288 0.00025194 -8.68349e-07
-1.16243e-06 -8.68349e-07 -0.000266694
0.000215421 0.000441404 -3.80056e-06
0.000441404 -0.000134552 -1.69985e-06
-3.80056e-06 -1.69985e-06 -0.000614913
0.00338757 0.000414352 -3.84077e-06
0.000414352 0.0018407 -1.75509e-05
-3.84077e-06 -1.75509e-05 0.00146091
0.00173363 0.000372258 7.15304e-06
0.000372258 0.000806351 -3.69518e-06
7.15304e-06 -3.69518e-06 0.000453318
0.00027289 0.000279992 -3.34829e-05
0.000279992 -0.000220532 -3.21391e-05
-3.34829e-05 -3.21391e-05 -0.000397637
0.0011859 0.000308712 -5.44501e-06
0.000308712 0.00058325 1.82624e-05
-5.44501e-06 1.82624e-05 0.000215017
0.000432759 0.000245931 -6.13998e-06
0.000245931 -3.69633e-05 -6.71656e-07
-6.13998e-06 -6.71656e-07 -0.000185045
0.00659774 -0.000149903 -0.000214105
-0.000149903 0.00418424 -3.76763e-05
-0.000214105 -3.76763e-05 0.0041566
0.00459649 -0.000159942 -2.39262e-05
-0.000159942 0.00283865 2.81322e-06
-2.39262e-05 2.81322e-06 0.00281708
-1.83541e-05 0.000202241 2.89534e-05
0.000202241 -0.000269942 2.58179e-05
2.89534e-05 2.58179e-05 -0.000382598
0.0037452 -0.000126126 6.62639e-05
-0.000126126 0.00225288 1.2038e-05
6.62639e-05 1.2038e-05 0.00224114
0.00170744 0.00130789 0.000205236
0.00130789 -0.00470934 6.02072e-05
0.000205236 6.02072e-05 -0.000448683
0.00342402 0.000715665 0.00031956
0.000715665 -0.01047 0.000215361
0.00031956 0.000215361 -0.00964374
0.0216 -0.0112671 -0.00041035
-0.0112671 0.0167399 -0.000195199
-0.00041035 -0.000195199 0.00324582
0.00226071 0.00109421 1.45883e-05
0.00109421 0.000316926 1.81241e-05
1.45883e-05 1.81241e-05 -0.000204999
0.00279402 0.0012539 2.36975e-05
0.0012539 0.00141514 -1.69947e-05
2.36975e-05 -1.69947e-05 0.000598638
0.00165382 0.00138372 6.36849e-06
0.00138372 0.000491168 -2.57697e-05
6.36849e-06 -2.57697e-05 -0.000361873
0.00251446 0.00169144 3.68583e-06
0.00169144 0.000918329 1.92141e-06
3.68583e-06 1.92141e-06 0.000102142
0.0025367 0.00138499 1.18893e-06
0.00138499 0.000760641 3.336e-06
1.18893e-06 3.336e-06 2.67913e-05
0.00284491 0.00151708 6.99492e-06
0.00151708 0.000838528 1.6401e-05
6.99492e-06 1.6401e-05 0.000121366
0.00158419 0.00155721 1.08768e-05
0.00155721 0.000375924 -1.48867e-06
1.08768e-05 -1.48867e-06 -0.000404297
0.00148374 0.00130966 2.5673e-05
0.00130966 0.000547946 -5.82422e-05
2.5673e-05 -5.82422e-05 -0.000109978
0.00258265 0.00165819 8.96332e-07
0.00165819 0.000774199 -1.3713e-06
8.96332e-07 -1.3713e-06 3.62679e-05
0.000330938 0.00151976 1.12066e-05
0.00151976 -0.000656802 -3.22072e-05
1.12066e-05 -3.22072e-05 -0.00109297
0.00289357 0.00152654 1.19267e-05
0.00152654 0.000792182 8.74403e-07
1.19267e-05 8.74403e-07 4.68553e-05
0.00382183 0.00151869 7.164e-05
0.00151869 0.000989466 9.71064e-05
7.164e-05 9.71064e-05 0.000780451
0.00170771 0.00178424 -1.6473e-05
0.00178424 5.95928e-05 -2.12801e-05
-1.6473e-05 -2.12801e-05 -0.000543143
0.00234536 0.00196792 -2.9699e-05
0.00196792 0.00044869 -1.08503e-05
-2.9699e-05 -1.08503e-05 -9.60354e-05
0.00258846 0.00201351 2.1658e-05
0.00201351 -0.00263648 7.33498e-05
2.1658e-05 7.33498e-05 -0.000551037
0.00652047 0.00478115 -0.000192808
0.00478115 -0.0046035 -9.32616e-05
-0.000192808 -9.32616e-05 0.000690338
0.00331184 0.0070286 0.00129721
0.0070286 -0.0131364 0.000367466
0.00129721 0.000367466 -0.00954338
0.00217901 0.0048936 -0.000287785
0.0048936 -0.00159761 -0.000154177
-0.000287785 -0.000154177 9.06846e-05
0.00584455 0.0034678 -2.58477e-05
0.0034678 0.000334184 -1.70448e-05
-2.58477e-05 -1.70448e-05 0.000546643
0.00911791 0.00380568 -0.000256411
0.00380568 0.0033469 -8.52294e-05
-0.000256411 -8.52294e-05 0.0023884
0.00561816 5.34584e-05 -3.77616e-05
5.34584e-05 -0.00135376 -2.77101e-05
-3.77616e-05 -2.77101e-05 0.000350329
0.00271951 -0.000332581 9.21109e-05
-0.000332581 -0.00374845 3.09654e-05
9.21109e-05 3.09654e-05 -0.000193193
0.0102032 -0.000271615 0.000169098
-0.000271615 -0.00679521 -3.35337e-05
0.000169098 -3.35337e-05 -0.00711866
0.00346323 -0.00249686 -9.00211e-05
-0.00249686 -0.00134361 0.000145056
-9.00211e-05 0.000145056 -5.2977e-05
0.00455523 -0.0022406 -0.000260961
-0.0022406 -0.00464496 0.000116243
-0.000260961 0.000116243 -0.00122393
0.00405368 -0.00162157 -6.25288e-06
-0.00162157 -0.000874595 1.23522e-05
-6.25288e-06 1.23522e-05 0.000361889
0.00520957 -0.00117228 -8.76128e-05
-0.00117228 -0.000791051 1.49598e-06
-8.76128e-05 1.49598e-06 0.000778734
0.00418979 -0.000758143 0.000131099
-0.000758143 0.000251796 -3.43045e-05
0.000131099 -3.43045e-05 0.000787309
0.00339231 -0.000168117 7.71637e-05
-0.000168117 -0.000192089 -6.78641e-06
7.71637e-05 -6.78641e-06 0.000355602
0.0011941 -0.00102815 -1.94757e-05
-0.00102815 -0.00125656 1.91663e-05
-1.94757e-05 1.91663e-05 -0.000625322
0.00293317 -0.000877621 -5.95701e-06
-0.000877621 -0.000320849 1.46301e-06
-5.95701e-06 1.46301e-06 9.17629e-05
0.00295424 -0.000624206 4.4683e-06
-0.000624206 -0.000270137 -3.76011e-06
4.4683e-06 -3.76011e-06 5.97158e-05
0.00304827 -0.00103654 -2.31161e-06
-0.00103654 -4.07561e-05 1.85663e-06
-2.31161e-06 1.85663e-06 8.93003e-05
0.00296856 -0.00082123 -3.33951e-07
-0.00082123 -6.85299e-05 -3.32054e-07
-3.33951e-07 -3.32054e-07 5.01561e-05
0.00273096 -0.000607854 -2.07017e-06
-0.000607854 -0.000195802 -3.6824e-07
-2.07017e-06 -3.6824e-07 -4.03894e-05
0.00279055 -0.000905622 3.06421e-07
-0.000905622 -2.43468e-05 5.71147e-07
3.06421e-07 5.71147e-07 5.10113e-06
0.00271942 -0.000757905 -5.19818e-07
-0.000757905 -5.76258e-05 1.09951e-09
-5.19818e-07 1.09951e-09 -2.3733e-05
0.00261958 -0.00062378 4.05245e-07
-0.00062378 -5.20411e-07 -5.99332e-07
4.05245e-07 -5.99332e-07 5.08415e-06
0.00275776 -0.000880102 6.63706e-07
-0.000880102 0.00010187 6.58862e-07
6.63706e-07 6.58862e-07 3.70233e-05
0.00267883 -0.000757696 1.00869e-06
-0.000757696 9.09351e-05 -6.19149e-08
1.00869e-06 -6.19149e-08 3.06217e-05
0.00250214 -0.00067283 3.95036e-07
-0.00067283 9.65872e-05 -3.83844e-07
3.95036e-07 -3.83844e-07 3.67145e-06
0.00252425 -0.000844758 -1.15559e-06
-0.000844758 7.63849e-05 1.56731e-06
-1.15559e-06 1.56731e-06 -5.29526e-05
0.00247685 -0.000777855 -1.03962e-06
-0.000777855 0.000146643 2.46074e-07
-1.03962e-06 2.46074e-07 -2.11945e-05
0.00248746 -0.000744527 -1.9573e-06
-0.000744527 0.000223555 1.48634e-07
-1.9573e-06 1.48634e-07 8.69419e-06
0.00249864 -0.000801587 3.32817e-06
-0.000801587 0.000258685 -7.90199e-07
3.32817e-06 -7.90199e-07 3.15146e-05
0.00251952 -0.000809541 -1.57041e-07
-0.000809541 0.000321456 7.28526e-07
-1.57041e-07 7.28526e-07 3.60422e-05
0.00249914 -0.00075519 -6.75255e-07
-0.00075519 0.000400074 -3.3016e-06
-6.75255e-07 -3.3016e-06 6.87806e-05
0.00178661 -0.000614793 -2.00427e-05
-0.000614793 0.000195923 4.32404e-06
-2.00427e-05 4.32404e-06 -0.000188194
0.00228286 -0.000821008 5.53393e-07
-0.000821008 0.000294181 -1.98352e-06
5.53393e-07 -1.98352e-06 -0.000112013
0.00251355 -0.000860818 -9.48894e-07
-0.000860818 0.000339864 2.96601e-06
-9.48894e-07 2.96601e-06 -3.23434e-05
0.000149928 -0.000347881 -2.05944e-05
-0.000347881 -0.000380379 2.64383e-05
-2.05944e-05 2.64383e-05 -0.000632781
0.00168236 -0.00069568 -1.33567e-06
-0.00069568 0.000188086 4.81161e-09
-1.33567e-06 4.81161e-09 -0.000268907
0.00269727 -0.00102082 -2.52471e-06
-0.00102082 0.000636888 6.67376e-06
-2.52471e-06 6.67376e-06 9.62727e-05
0.00996407 -0.000170898 -0.000453142
-0.000170898 0.00622393 4.96355e-05
-0.000453142 4.96355e-05 0.00625047
6.16155e-05 -0.000343636 -2.36083e-07
-0.000343636 -0.000390051 1.71622e-06
-2.36083e-07 1.71622e-06 -0.000647891
0.00143558 -0.000668356 1.80218e-05
-0.000668356 0.00021875 1.59884e-07
1.80218e-05 1.59884e-07 -0.000286809
0.00952258 -0.000135481 -7.57251e-06
-0.000135481 0.00596747 1.78544e-06
-7.57251e-06 1.78544e-06 0.00598697
-0.000257916 -0.000338844 2.35156e-05
-0.000338844 -0.000570408 -3.29939e-05
2.35156e-05 -3.29939e-05 -0.000814133
0.00892002 -4.56089e-05 0.000378868
-4.56089e-05 0.00562174 -5.32303e-05
0.000378868 -5.32303e-05 0.00562753
0.00221308 0.00102723 -2.78103e-06
0.00102723 0.000321667 1.77696e-05
-2.78103e-06 1.77696e-05 -0.00020491
0.00247308 0.00120336 -1.15682e-06
0.00120336 0.000715267 2.42255e-06
-1.15682e-06 2.42255e-06 3.13879e-05
0.00273369 0.00114964 1.68473e-05
0.00114964 0.000882368 2.45706e-05
1.68473e-05 2.45706e-05 0.000209079
0.00211554 0.00118795 4.54112e-06
0.00118795 0.000798835 -2.046e-05
4.54112e-06 -2.046e-05 3.58107e-05
0.00236767 0.00104887 4.20611e-06
0.00104887 0.000897891 2.63186e-06
4.20611e-06 2.63186e-06 0.000197983
0.000705645 0.000486307 -3.28262e-05
0.000486307 -0.000135966 6.41304e-06
-3.28262e-05 6.41304e-06 -0.000601784
0.00265475 0.000746141 8.22011e-07
0.000746141 0.00119952 -1.34479e-05
8.22011e-07 -1.34479e-05 0.000640188
0.000422809 0.000398134 1.6533e-06
0.000398134 -0.000110402 -1.53971e-06
1.6533e-06 -1.53971e-06 -0.000515442
0.000195588 0.000316075 -4.03085e-05
0.000316075 -0.000314666 -3.44681e-05
-4.03085e-05 -3.44681e-05 -0.000491893
0.00128177 0.000474324 9.06742e-07
0.000474324 0.000507098 -7.52675e-07
9.06742e-07 -7.52675e-07 0.000150517
0.000784104 0.000307074 6.96154e-06
0.000307074 9.28542e-05 -1.64282e-06
6.96154e-06 -1.64282e-06 -6.52128e-05
0.00819972 -0.000251163 -0.000239554
-0.000251163 0.00528617 -4.72888e-05
-0.000239554 -4.72888e-05 0.00522041
0.000407026 0.000227298 2.91415e-05
0.000227298 -3.4726e-05 3.05799e-05
2.91415e-05 3.05799e-05 -0.00018453
0.00621676 -0.00023248 -2.54679e-05
-0.00023248 0.00395948 2.79324e-06
-2.54679e-05 2.79324e-06 0.00391015
0.00482842 -0.000195471 7.93538e-05
-0.000195471 0.00300395 1.7035e-05
7.93538e-05 1.7035e-05 0.00297267
0.000842606 0.00103685 4.54292e-05
0.00103685 -0.00416878 7.58325e-05
4.54292e-05 7.58325e-05 -0.00134169
0.00624341 0.0013198 7.9611e-05
0.0013198 -0.00379484 2.70482e-05
7.9611e-05 2.70482e-05 0.000947628
0.0179953 0.00132904 4.3077e-05
0.00132904 -0.00198196 0.000229093
4.3077e-05 0.000229093 0.00161631
0.00251551 0.00121 -2.50456e-07
0.00121 0.000377774 8.44783e-06
-2.50456e-07 8.44783e-06 -0.000150306
0.00276503 0.00113571 4.06985e-06
0.00113571 0.000378141 7.26174e-06
4.06985e-06 7.26174e-06 -2.02778e-05
0.00233217 0.00110984 -1.26692e-06
0.00110984 0.000360821 -4.06729e-06
-1.26692e-06 -4.06729e-06 -0.000160047
0.00319602 0.00175597 2.53297e-05
0.00175597 0.00132018 -8.34428e-06
2.53297e-05 -8.34428e-06 0.000484382
0.00264523 0.00140356 -1.20494e-05
0.00140356 0.000826967 -1.9834e-05
-1.20494e-05 -1.9834e-05 8.56443e-05
0.00295759 0.00157405 8.51461e-06
0.00157405 0.000857845 2.49526e-06
8.51461e-06 2.49526e-06 0.000128318
0.00343212 0.00146101 -1.57812e-05
0.00146101 0.000633138 -6.74646e-07
-1.57812e-05 -6.74646e-07 0.000174038
0.00218831 0.00170937 1.21246e-05
0.00170937 0.000468833 -8.27113e-06
1.21246e-05 -8.27113e-06 -0.000267154
0.00256507 0.00189704 8.23133e-06
0.00189704 0.000618326 0.000100087
8.23133e-06 0.000100087 1.90958e-06
0.00282499 0.00162935 7.35845e-06
0.00162935 0.000663611 -3.49608e-06
7.35845e-06 -3.49608e-06 -9.65483e-05
0.0036958 0.00141387 3.97638e-06
0.00141387 0.000605297 3.65258e-05
3.97638e-06 3.65258e-05 0.000379113
0.00274545 0.00073775 9.9168e-05
0.00073775 0.000190289 1.25207e-05
9.9168e-05 1.25207e-05 0.000505654
0.000607704 0.00111924 -9.20425e-06
0.00111924 -0.000748658 -3.65002e-05
-9.20425e-06 -3.65002e-05 -0.000803991
0.00115596 0.00164099 -4.63147e-05
0.00164099 -0.000148976 5.16934e-06
-4.63147e-05 5.16934e-06 -0.000742875
0.00516918 0.00224231 5.82128e-05
0.00224231 -0.00110416 1.88854e-05
5.82128e-05 1.88854e-05 0.000825292
0.00995755 0.00467184 -0.000111562
0.00467184 -0.00218731 -8.99432e-05
-0.000111562 -8.99432e-05 0.00195824
0.0069901 0.00309037 -0.000149788
0.00309037 0.00153575 -0.000125866
-0.000149788 -0.000125866 0.00175967
0.00380049 6.06771e-05 0.000119884
6.06771e-05 5.65111e-05 8.18396e-06
0.000119884 8.18396e-06 0.000626411
0.00465849 -0.000183913 -0.000178729
-0.000183913 -0.00253926 1.32501e-05
-0.000178729 1.32501e-05 -0.000181262
0.00536144 0.000293609 -9.08855e-05
0.000293609 -0.00287988 -5.29572e-05
-9.08855e-05 -5.29572e-05 0.00055893
0.00345777 -0.00157245 -0.000164172
-0.00157245 -0.00115169 0.000115079
-0.000164172 0.000115079 7.22291e-05
0.000717115 -0.00098733 -0.000111902
-0.00098733 -0.0033278 2.76008e-05
-0.000111902 2.76008e-05 -0.00174866
0.00384923 -0.000729053 1.32802e-05
-0.000729053 1.04661e-05 -1.08019e-05
1.32802e-05 -1.08019e-05 0.000647209
0.00279177 -0.000173404 -2.35266e-05
-0.000173404 -0.000523427 -2.20688e-06
-2.35266e-05 -2.20688e-06 3.3654e-05
0.00294308 -0.00041314 1.16905e-05
-0.00041314 -0.000434011 -8.34531e-06
1.16905e-05 -8.34531e-06 2.32563e-05
0.00261519 0.000159623 1.04869e-05
0.000159623 -0.000688889 -3.91022e-06
1.04869e-05 -3.91022e-06 -0.000286679
0.00291801 -0.000914163 -2.34801e-05
-0.000914163 -0.000315178 1.38399e-05
-2.34801e-05 1.38399e-05 4.52028e-05
0.00296077 -0.000654032 -3.39319e-06
-0.000654032 -0.000297953 8.19077e-07
-3.39319e-06 8.19077e-07 6.26297e-06
0.00282237 -0.000457325 -1.83255e-06
-0.000457325 -0.000255973 -4.54526e-07
-1.83255e-06 -4.54526e-07 1.89326e-05
0.00296882 -0.000794495 -1.55515e-06
-0.000794495 -3.32977e-05 7.00345e-07
-1.55515e-06 7.00345e-07 9.90359e-05
0.00273211 -0.000612552 3.35136e-07
-0.000612552 -0.000188605 -2.08226e-07
3.35136e-07 -2.08226e-07 -3.94834e-05
0.00263613 -0.000502946 4.96147e-07
-0.000502946 -0.000104944 -1.64294e-07
4.96147e-07 -1.64294e-07 1.12887e-05
0.00270084 -0.000760114 3.5535e-08
-0.000760114 -5.54619e-05 8.87273e-07
3.5535e-08 8.87273e-07 -1.87368e-05
0.00261713 -0.000621701 3.65507e-07
-0.000621701 -8.8844e-06 -1.30968e-07
3.65507e-07 -1.30968e-07 -2.79336e-06
0.00247449 -0.000550676 6.63783e-07
-0.000550676 2.58804e-05 -2.63375e-07
6.63783e-07 -2.63375e-07 -4.83165e-06
0.00267531 -0.000758446 1.62163e-06
-0.000758446 8.48705e-05 6.25436e-07
1.62163e-06 6.25436e-07 2.38104e-05
0.00250524 -0.000673353 5.94212e-07
-0.000673353 9.41386e-05 -1.71556e-07
5.94212e-07 -1.71556e-07 8.34723e-07
0.00241633 -0.000628025 -2.99007e-06
-0.000628025 0.000138201 3.22368e-07
-2.99007e-06 3.22368e-07 -2.77994e-06
0.00245015 -0.000782295 3.70129e-07
-0.000782295 0.000116999 5.84945e-07
3.70129e-07 5.84945e-07 -4.58518e-05
0.00249539 -0.000750547 5.34995e-07
-0.000750547 0.000227419 -1.55365e-07
5.34995e-07 -1.55365e-07 1.2422e-05
0.00246774 -0.000697034 -1.57619e-06
-0.000697034 0.000312292 -2.06628e-06
-1.57619e-06 -2.06628e-06 3.61297e-05
0.00244464 -0.00080259 8.81277e-08
-0.00080259 0.000268808 1.15954e-06
8.81277e-08 1.15954e-06 -1.22215e-05
0.00239682 -0.000751244 -2.76185e-07
-0.000751244 0.000327005 1.45905e-07
-2.76185e-07 1.45905e-07 -3.13022e-06
0.00170762 -0.000525471 -1.3954e-05
-0.000525471 0.000118198 3.7919e-06
-1.3954e-05 3.7919e-06 -0.000200741
0.000285667 -0.000313259 -1.7597e-05
-0.000313259 -0.000330941 2.26132e-05
-1.7597e-05 2.26132e-05 -0.000560217
0.00176627 -0.000612682 -1.01466e-09
-0.000612682 0.000181882 1.50781e-07
-1.01466e-09 1.50781e-07 -0.000200626
0.00240417 -0.000833014 -3.76929e-06
-0.000833014 0.00038752 4.29874e-06
-3.76929e-06 4.29874e-06 -2.824e-05
0.0098755 -0.000246076 -0.000476988
-0.000246076 0.0061518 5.37223e-05
-0.000476988 5.37223e-05 0.00618127
0.00023009 -0.00034989 -3.96988e-07
-0.00034989 -0.000343354 1.66797e-06
-3.96988e-07 1.66797e-06 -0.00058992
0.00185585 -0.000690174 1.87242e-05
-0.000690174 0.000311347 -2.35282e-06
1.87242e-05 -2.35282e-06 -0.000139233
0.010014 -0.0002002 -5.44451e-06
-0.0002002 0.00625723 3.02082e-06
-5.44451e-06 3.02082e-06 0.00628254
4.67473e-05 -0.000355937 2.04401e-05
-0.000355937 -0.000404817 -2.98199e-05
2.04401e-05 -2.98199e-05 -0.000667074
0.0099722 -0.000180548 0.000453409
-0.000180548 0.0062542 -5.67157e-05
0.000453409 -5.67157e-05 0.00627507
0.00242602 0.00104849 4.90041e-06
0.00104849 0.000315478 1.3736e-05
4.90041e-06 1.3736e-05 -0.000132045
0.00232655 0.00103668 2.41326e-06
0.00103668 0.000409119 -6.6573e-07
2.41326e-06 -6.6573e-07 -0.000115132
0.0026189 0.00102552 1.36311e-05
0.00102552 0.000662924 2.13101e-05
1.36311e-05 2.13101e-05 0.000105897
0.00246275 0.0011823 1.02175e-05
0.0011823 0.000737316 -1.59824e-05
1.02175e-05 -1.59824e-05 6.23501e-05
0.00231647 0.00109006 5.75408e-07
0.00109006 0.000600703 7.03844e-07
5.75408e-07 7.03844e-07 -5.43601e-05
0.00137717 0.00061706 -4.64262e-05
0.00061706 0.000179717 5.39139e-06
-4.64262e-05 5.39139e-06 -0.000298222
0.00252151 0.00104802 -2.58679e-05
0.00104802 0.000904302 -2.33433e-05
-2.58679e-05 -2.33433e-05 0.000224333
0.000832225 0.000460317 -1.68362e-06
0.000460317 -5.54072e-06 1.21817e-06
-1.68362e-06 1.21817e-06 -0.000461192
-0.000238355 0.000302724 -3.23023e-05
0.000302724 -0.000553821 -3.56204e-05
-3.23023e-05 -3.56204e-05 -0.000764395
0.00180281 0.000265917 3.15715e-06
0.000265917 0.000679829 2.73772e-06
3.15715e-06 2.73772e-06 0.00034686
0.000300057 0.000283015 4.7102e-06
0.000283015 -0.000239546 -3.08584e-07
4.7102e-06 -3.08584e-07 -0.000418339
0.00874533 -0.00010858 -0.000303841
-0.00010858 0.00554556 -4.30752e-05
-0.000303841 -4.30752e-05 0.00552711
0.000497462 0.000300074 4.07244e-05
0.000300074 -7.01451e-05 3.23322e-05
4.07244e-05 3.23322e-05 -0.00022964
0.00775897 -0.000180817 -1.79984e-07
-0.000180817 0.00493981 -3.36867e-06
-1.79984e-07 -3.36867e-06 0.00490604
0.00558294 -0.000253549 0.000106244
-0.000253549 0.00354106 2.6119e-05
0.000106244 2.6119e-05 0.00348658
0.00180862 0.000533574 7.14297e-05
0.000533574 -0.000849107 4.62041e-05
7.14297e-05 4.62041e-05 -0.000160207
0.00150309 0.0011683 4.96116e-05
0.0011683 -0.0041308 -1.38939e-05
4.96116e-05 -1.38939e-05 -0.00139949
0.00637767 0.00226478 0.000310177
0.00226478 -0.00391141 0.000158954
0.000310177 0.000158954 0.0013054
0.00293225 0.00117799 -6.04192e-06
0.00117799 0.000361942 2.6094e-08
-6.04192e-06 2.6094e-08 1.49183e-05
0.00268147 0.00125187 -1.03773e-05
0.00125187 0.000476371 -3.64023e-06
-1.03773e-05 -3.64023e-06 -5.83783e-05
0.00262733 0.000861433 6.93595e-06
0.000861433 0.00017177 2.47516e-06
6.93595e-06 2.47516e-06 -3.34362e-05
0.00274192 0.00112275 9.72751e-07
0.00112275 0.000358818 2.27202e-07
9.72751e-07 2.27202e-07 -2.5309e-05
0.00241702 0.00112147 -7.24008e-06
0.00112147 0.000419938 -1.80767e-05
-7.24008e-06 -1.80767e-05 -9.75789e-05
0.00309045 0.001038 -5.69215e-06
0.001038 0.000166967 1.35381e-06
-5.69215e-06 1.35381e-06 4.79161e-05
0.00305809 0.00163392 5.25358e-06
0.00163392 0.000873127 -7.90365e-06
5.25358e-06 -7.90365e-06 0.00013004
0.0032087 0.00138 -3.43971e-07
0.00138 0.000536246 -1.37923e-06
-3.43971e-07 -1.37923e-06 0.000101113
0.00246783 0.000650286 -4.3026e-06
0.000650286 -0.000436589 4.36685e-06
-4.3026e-06 4.36685e-06 -0.000166453
0.00225677 0.00166639 -6.9436e-06
0.00166639 0.000248212 1.95201e-05
-6.9436e-06 1.95201e-05 -0.000482432
0.00318288 0.00134469 3.53665e-06
0.00134469 0.000317817 -7.9089e-06
3.53665e-06 -7.9089e-06 0.000114432
0.000962736 0.000738133 -4.96117e-05
0.000738133 -0.00108619 -5.63694e-06
-4.96117e-05 -5.63694e-06 -0.000541277
-0.0035746 0.000646904 -1.50231e-05
0.000646904 -0.00301202 -2.3876e-05
-1.50231e-05 -2.3876e-05 -0.00289997
0.00648617 0.0023966 -0.000268915
0.0023966 -0.000329968 -0.000111075
-0.000268915 -0.000111075 0.00147621
0.00285304 0.000276489 6.29485e-06
0.000276489 -0.00037703 -4.65556e-08
6.29485e-06 -4.65556e-08 3.34376e-07
0.00362482 8.1531e-05 -2.0436e-06
8.1531e-05 -0.000151623 -8.56465e-06
-2.0436e-06 -8.56465e-06 0.000446298
0.00331587 -0.000476039 -0.000245815
-0.000476039 -0.00343794 -2.70792e-05
-0.000245815 -2.70792e-05 -0.000974384
0.00306348 -0.000665234 -0.000144306
-0.000665234 -0.000504104 3.95179e-05
-0.000144306 3.95179e-05 0.000254042
0.00253275 -0.000193967 -3.01106e-05
-0.000193967 -0.000611838 5.68254e-06
-3.01106e-05 5.68254e-06 -7.50775e-05
0.00281603 -0.000441899 7.66065e-06
-0.000441899 -0.000556573 -1.02145e-06
7.66065e-06 -1.02145e-06 -4.19485e-05
0.0029727 0.000175649 -1.41439e-06
0.000175649 -0.000414848 2.52618e-06
-1.41439e-06 2.52618e-06 -4.87443e-05
0.00282997 -8.0802e-05 6.90133e-07
-8.0802e-05 -0.000345263 -2.50148e-06
6.90133e-07 -2.50148e-06 1.02348e-05
0.00293212 -0.000677522 -2.384e-06
-0.000677522 -0.00034137 3.13164e-06
-2.384e-06 3.13164e-06 -6.24043e-05
0.00275115 -0.000437282 3.66385e-07
-0.000437282 -0.000289724 -2.67576e-07
3.66385e-07 -2.67576e-07 -2.06086e-05
0.00264448 -0.000325582 7.12e-07
-0.000325582 -0.00016625 -5.98503e-07
7.12e-07 -5.98503e-07 3.8237e-05
0.00273335 -0.00061719 1.28989e-06
-0.00061719 -0.000179362 6.80263e-07
1.28989e-06 6.80263e-07 -3.80913e-05
0.00262014 -0.000502355 3.03262e-07
-0.000502355 -0.000111436 1.16352e-07
3.03262e-07 1.16352e-07 -2.26348e-07
0.00245589 -0.000422808 8.75401e-07
-0.000422808 -3.99905e-05 -1.95282e-07
8.75401e-07 -1.95282e-07 -2.04168e-06
0.00261598 -0.000619481 2.5761e-07
-0.000619481 -1.65211e-05 2.90074e-07
2.5761e-07 2.90074e-07 -9.95776e-06
0.00246984 -0.000550615 2.72391e-07
-0.000550615 1.94663e-05 -1.8988e-08
2.72391e-07 -1.8988e-08 -1.12833e-05
0.00236687 -0.000501463 -3.40312e-06
-0.000501463 7.83874e-05 8.77994e-07
-3.40312e-06 8.77994e-07 -7.92081e-08
0.00250907 -0.000673972 7.02554e-07
-0.000673972 9.20715e-05 -2.50179e-08
7.02554e-07 -2.50179e-08 -1.66079e-06
0.00244847 -0.000632531 3.67083e-07
-0.000632531 0.000155828 -3.87005e-07
3.67083e-07 -3.87005e-07 1.27891e-05
0.00243654 -0.000608335 -2.13584e-06
-0.000608335 0.000238615 -3.72473e-07
-2.13584e-06 -3.72473e-07 2.41532e-05
0.00250361 -0.000756615 1.96904e-06
-0.000756615 0.000231019 8.92192e-08
1.96904e-06 8.92192e-08 1.61356e-05
0.00240607 -0.000690785 -9.58595e-07
-0.000690785 0.000271836 -1.86346e-07
-9.58595e-07 -1.86346e-07 -2.88102e-06
0.00165633 -0.00046498 -1.00497e-05
-0.00046498 5.75127e-05 3.29498e-06
-1.00497e-05 3.29498e-06 -0.000217107
0.00229771 -0.000745984 4.04686e-07
-0.000745984 0.000257378 2.83934e-06
4.04686e-07 2.83934e-06 -7.09228e-05
0.00171473 -0.000527088 -1.37079e-07
-0.000527088 0.000115591 7.37233e-08
-1.37079e-07 7.37233e-08 -0.000202677
0.00322526 -0.000333438 -6.72272e-05
-0.000333438 0.0016044 1.76112e-05
-6.72272e-05 1.76112e-05 0.00142449
0.00355523 -0.000193744 -0.000385451
-0.000193744 0.00198648 6.45018e-05
-0.000385451 6.45018e-05 0.00196887
0.00183739 -0.000345716 -2.35358e-05
-0.000345716 0.000692057 6.99855e-07
-2.35358e-05 6.99855e-07 0.000477186
0.00171041 -0.00060634 1.77114e-05
-0.00060634 0.000146287 -3.83026e-06
1.77114e-05 -3.83026e-06 -0.000233576
0.0096656 -0.000251093 -6.57176e-06
-0.000251093 0.006027 3.68659e-06
-6.57176e-06 3.68659e-06 0.00605275
0.000186885 -0.00037544 2.43498e-05
-0.00037544 -0.000367549 -2.55703e-05
2.43498e-05 -2.55703e-05 -0.000620537
0.0100398 -0.000213696 0.000459979
-0.000213696 0.00627967 -5.85446e-05
0.000459979 -5.85446e-05 0.00630082
0.00248776 0.0006681 3.65527e-06
0.0006681 0.000107333 4.69496e-07
3.65527e-06 4.69496e-07 -2.70411e-05
0.00252405 0.000898387 8.61595e-06
0.000898387 0.000272971 8.31516e-06
8.61595e-06 8.31516e-06 -2.49386e-05
0.00262313 0.0010654 3.91537e-07
0.0010654 0.000441041 -5.92218e-07
3.91537e-07 -5.92218e-07 1.52265e-06
0.00252447 0.000942091 1.03319e-05
0.000942091 0.000526172 1.709e-05
1.03319e-05 1.709e-05 5.89747e-05
0.00247303 0.00105317 2.55377e-06
0.00105317 0.000513911 -1.85186e-05
2.55377e-06 -1.85186e-05 -1.09516e-05
0.00240596 0.000999366 1.78155e-06
0.000999366 0.000520203 4.95401e-07
1.78155e-06 4.95401e-07 -2.87701e-05
0.00160559 0.00068035 -4.13095e-05
0.00068035 0.000245262 1.21984e-06
-4.13095e-05 1.21984e-06 -0.000223088
0.00234789 0.00107795 -1.38763e-05
0.00107795 0.000632682 -2.18791e-05
-1.38763e-05 -2.18791e-05 -1.66902e-05
0.00139823 0.000625929 -1.58188e-06
0.000625929 0.000159442 2.27868e-07
-1.58188e-06 2.27868e-07 -0.000316593
-2.02062e-05 0.000353758 -3.16683e-05
0.000353758 -0.000422928 -3.1143e-05
-3.16683e-05 -3.1143e-05 -0.000668923
0.0012224 0.000439293 3.16641e-05
0.000439293 0.000296247 -3.75439e-06
3.16641e-05 -3.75439e-06 -0.000152356
0.000192204 0.00027817 3.51137e-06
0.00027817 -0.000290803 -4.62932e-07
3.51137e-06 -4.62932e-07 -0.000498981
0.00984549 6.01434e-05 -0.000405769
6.01434e-05 0.0061984 -5.15784e-05
-0.000405769 -5.15784e-05 0.00620577
0.000497967 0.000267159 3.03043e-05
0.000267159 -0.000115666 3.38052e-05
3.03043e-05 3.38052e-05 -0.000291247
0.00871247 -0.000102157 1.83389e-05
-0.000102157 0.00550993 -3.22239e-06
1.83389e-05 -3.22239e-06 0.00549787
0.00722126 -0.000218744 0.000183185
-0.000218744 0.00459024 2.77514e-05
0.000183185 2.77514e-05 0.00455056
0.00260687 0.000314853 2.05757e-06
0.000314853 -0.00049788 4.58842e-06
2.05757e-06 4.58842e-06 -0.00010818
0.00141751 0.00045471 -7.3914e-06
0.00045471 -0.0014974 -1.06885e-05
-7.3914e-06 -1.06885e-05 -0.000542549
0.0030956 0.00142305 -0.00021751
0.00142305 -0.00379881 -8.59194e-05
-0.00021751 -8.59194e-05 -0.00088568
0.00270266 0.000806872 -1.13667e-06
0.000806872 0.000103207 -1.38407e-06
-1.13667e-06 -1.38407e-06 -3.0291e-06
0.00281127 0.00115035 -5.05774e-06
0.00115035 0.000319213 -4.48268e-07
-5.05774e-06 -4.48268e-07 -1.80296e-05
0.00273109 0.00128228 -1.18351e-06
0.00128228 0.000496611 -9.64584e-06
-1.18351e-06 -9.64584e-06 -4.15397e-05
0.00258929 0.000843528 1.63996e-06
0.000843528 0.000171092 1.09379e-06
1.63996e-06 1.09379e-06 -3.80938e-05
0.00270547 0.00111083 -3.20406e-06
0.00111083 0.000331575 -9.45114e-06
-3.20406e-06 -9.45114e-06 -4.04149e-05
0.00294685 0.000640728 4.59694e-06
0.000640728 -7.90151e-05 1.30737e-06
4.59694e-06 1.30737e-06 8.8254e-05
0.00298277 0.0010258 -1.94084e-06
0.0010258 0.000122951 8.97668e-07
-1.94084e-06 8.97668e-07 1.86441e-05
0.00310309 0.00131622 7.02593e-06
0.00131622 0.000508175 -2.10294e-06
7.02593e-06 -2.10294e-06 9.19401e-05
0.00235012 0.000588643 -5.72427e-09
0.000588643 -0.000429919 1.32955e-06
-5.72427e-09 1.32955e-06 -0.000140883
0.00267529 0.0012352 5.83787e-06
0.0012352 2.92885e-05 -1.3435e-05
5.83787e-06 -1.3435e-05 -0.000142007
-0.000999541 0.000616695 -3.65595e-05
0.000616695 -0.00261527 -7.45923e-06
-3.65595e-05 -7.45923e-06 -0.00159472
0.00273924 0.000150392 3.76228e-06
0.000150392 -0.000270702 9.77241e-08
3.76228e-06 9.77241e-08 2.28575e-05
0.00283216 0.000256639 1.75701e-06
0.000256639 -0.000394601 -1.24045e-06
1.75701e-06 -1.24045e-06 -1.46946e-05
0.00348476 8.69002e-05 -9.15802e-05
8.69002e-05 -0.000278639 1.40207e-05
-9.15802e-05 1.40207e-05 0.000303517
0.00268814 -0.000480492 -3.14397e-05
-0.000480492 -0.000700647 1.14524e-05
-3.14397e-05 1.14524e-05 -0.000120966
0.00330185 0.00019737 -5.46667e-06
0.00019737 -0.000173437 2.30132e-06
-5.46667e-06 2.30132e-06 0.000166866
0.00283541 -8.03984e-05 -8.9907e-07
-8.03984e-05 -0.000350251 -7.84815e-07
-8.9907e-07 -7.84815e-07 -8.81929e-08
0.00251615 -9.01963e-05 7.08749e-07
-9.01963e-05 -0.000193135 -3.09211e-07
7.08749e-07 -3.09211e-07 -5.22623e-06
0.00267414 -0.000416317 1.93939e-06
-0.000416317 -0.000326763 -4.63503e-07
1.93939e-06 -4.63503e-07 -6.31506e-05
0.00260596 -0.000336581 -4.09109e-08
-0.000336581 -0.000184783 9.68574e-08
-4.09109e-08 9.68574e-08 8.00633e-06
0.00240412 -0.000278355 1.8729e-06
-0.000278355 -9.21457e-05 -7.4563e-07
1.8729e-06 -7.4563e-07 -1.23691e-05
0.00260104 -0.000501558 -8.69925e-07
-0.000501558 -0.000120015 3.42852e-07
-8.69925e-07 3.42852e-07 -1.36712e-05
0.0024528 -0.000421587 2.5996e-08
-0.000421587 -4.53516e-05 6.65606e-08
2.5996e-08 6.65606e-08 -7.33768e-06
0.00231948 -0.000381755 -3.59496e-06
-0.000381755 1.69264e-05 6.25907e-07
-3.59496e-06 6.25907e-07 -1.18995e-05
0.00246535 -0.000550594 -4.60508e-09
-0.000550594 1.29255e-05 8.33595e-08
-4.60508e-09 8.33595e-08 -1.78661e-05
0.0023683 -0.000503146 2.84231e-07
-0.000503146 7.43091e-05 -6.41961e-09
2.84231e-07 -6.41961e-09 -5.06027e-06
0.00238242 -0.000491623 -3.12225e-06
-0.000491623 0.000162586 3.4843e-07
-3.12225e-06 3.4843e-07 1.14667e-05
0.00248149 -0.000637063 3.03615e-06
-0.000637063 0.000174475 -9.51067e-07
3.03615e-06 -9.51067e-07 2.93634e-05
0.00239991 -0.000601575 -5.34182e-07
-0.000601575 0.000222492 -1.77436e-07
-5.34182e-07 -1.77436e-07 9.82333e-06
0.00164491 -0.000396444 -8.11698e-06
-0.000396444 2.40777e-05 2.44792e-06
-8.11698e-06 2.44792e-06 -0.000208721
0.00234044 -0.000684251 1.31713e-06
-0.000684251 0.000228443 9.27554e-07
1.31713e-06 9.27554e-07 -4.47721e-05
0.00169813 -0.000468952 -7.11327e-08
-0.000468952 7.80449e-05 9.08454e-08
-7.11327e-08 9.08454e-08 -0.000196228
0.00304833 -0.000296077 -7.16974e-05
-0.000296077 0.00148748 1.60574e-05
-7.16974e-05 1.60574e-05 0.00133051
0.00171319 -0.000529774 1.22531e-05
-0.000529774 0.000103809 -3.81581e-06
1.22531e-05 -3.81581e-06 -0.000214301
0.0033213 -0.000361579 6.35864e-05
-0.000361579 0.00167127 -1.16651e-05
6.35864e-05 -1.16651e-05 0.00150584
0.00306746 -0.000195974 -0.000347501
-0.000195974 0.00168446 6.2943e-05
-0.000347501 6.2943e-05 0.00166077
0.0060983 -0.000237464 -0.000333153
-0.000237464 0.00368926 4.6452e-05
-0.000333153 4.6452e-05 0.0036888
0.00350584 -0.000430526 0.000209525
-0.000430526 0.00180343 -4.02661e-05
0.000209525 -4.02661e-05 0.00162775
0.00944324 -0.000250379 0.000443253
-0.000250379 0.0058901 -5.96389e-05
0.000443253 -5.96389e-05 0.00591026
0.00251064 0.000639583 -8.14849e-07
0.000639583 7.74629e-05 -1.2004e-06
-8.14849e-07 -1.2004e-06 6.33763e-06
0.00254505 0.000723483 3.62005e-06
0.000723483 0.000287796 3.31721e-06
3.62005e-06 3.31721e-06 7.96556e-05
0.00248284 0.000653081 4.89342e-07
0.000653081 0.000115733 -1.64528e-07
4.89342e-07 -1.64528e-07 -1.06708e-05
0.00235727 0.000795406 4.19057e-06
0.000795406 0.00031971 1.10878e-05
4.19057e-06 1.10878e-05 -3.464e-05
0.00256985 0.000898533 2.61207e-07
0.000898533 0.000294827 -1.22877e-07
2.61207e-07 -1.22877e-07 -3.92421e-06
0.00285686 0.00108624 -4.54167e-06
0.00108624 0.000591053 -1.29898e-05
-4.54167e-06 -1.29898e-05 0.00015913
0.00236448 0.000926145 8.51009e-07
0.000926145 0.000415074 3.43309e-07
8.51009e-07 3.43309e-07 -4.79597e-05
0.00168053 0.000656231 -3.02599e-05
0.000656231 0.000159564 3.1608e-07
-3.02599e-05 3.1608e-07 -0.0002591
0.00205844 0.000958192 -1.18582e-05
0.000958192 0.000285821 -2.046e-05
-1.18582e-05 -2.046e-05 -0.000251544
0.00163571 0.000717588 -2.79411e-06
0.000717588 0.000237689 4.49736e-07
-2.79411e-06 4.49736e-07 -0.00024627
0.000304615 0.000389834 -2.97413e-05
0.000389834 -0.000270248 -2.48033e-05
-2.97413e-05 -2.48033e-05 -0.000528159
0.0010858 0.000589322 4.5696e-05
0.000589322 -8.36831e-05 -5.69607e-06
4.5696e-05 -5.69607e-06 -0.000542649
-7.01743e-05 0.000309919 1.6943e-06
0.000309919 -0.000465512 2.1336e-06
1.6943e-06 2.1336e-06 -0.000698514
0.0101392 0.000167569 -0.000437915
0.000167569 0.00635479 -5.82639e-05
-0.000437915 -5.82639e-05 0.00636687
0.000263041 0.000240348 2.94504e-05
0.000240348 -0.000268765 3.46647e-05
2.94504e-05 3.46647e-05 -0.000462954
0.00918286 5.07303e-06 1.44952e-05
5.07303e-06 0.00576492 -1.34803e-06
1.44952e-05 -1.34803e-06 0.00577004
0.00857739 -0.000113144 0.000289798
-0.000113144 0.00541355 2.91373e-05
0.000289798 2.91373e-05 0.00540551
0.00279181 0.000399253 3.53499e-06
0.000399253 -0.000186766 7.37077e-07
3.53499e-06 7.37077e-07 4.73127e-05
0.00248626 0.000327731 2.46195e-06
0.000327731 -0.000488082 -2.66438e-06
2.46195e-06 -2.66438e-06 -0.000102588
0.000237281 0.000413541 -6.52181e-05
0.000413541 -0.00262135 -1.3325e-05
-6.52181e-05 -1.3325e-05 -0.00141837
0.0026116 0.000560237 2.73384e-06
0.000560237 -6.30491e-05 2.61541e-07
2.73384e-06 2.61541e-07 -2.94213e-06
0.00263063 0.00080361 -8.39796e-07
0.00080361 6.41452e-05 1.09172e-06
-8.39796e-07 1.09172e-06 -3.35013e-05
0.00271707 0.00112297 5.70213e-06
0.00112297 0.000294933 -3.09179e-06
5.70213e-06 -3.09179e-06 -3.17394e-05
0.00256055 0.000825938 -5.70156e-06
0.000825938 0.000174752 -2.41114e-06
-5.70156e-06 -2.41114e-06 -3.69398e-05
0.00286402 0.000629815 -2.29802e-06
0.000629815 -0.000124954 3.60309e-07
-2.29802e-06 3.60309e-07 3.47957e-05
0.002887 0.00101238 2.22577e-06
0.00101238 9.48747e-05 -2.57897e-06
2.22577e-06 -2.57897e-06 2.59964e-06
0.00222487 0.000590966 1.89077e-06
0.000590966 -0.000391077 -8.49461e-06
1.89077e-06 -8.49461e-06 -0.000110443
0.00256686 0.000119086 2.32086e-06
0.000119086 -0.000174135 2.08382e-07
2.32086e-06 2.08382e-07 5.28971e-06
0.0026999 0.000153581 -3.63098e-07
0.000153581 -0.000276507 -1.02266e-07
-3.63098e-07 -1.02266e-07 8.19937e-06
0.00279678 0.000252987 -1.65707e-05
0.000252987 -0.000411129 2.54677e-06
-1.65707e-05 2.54677e-06 -3.64136e-05
0.0023663 -1.10435e-05 5.29546e-07
-1.10435e-05 -0.000169524 -3.87152e-08
5.29546e-07 -3.87152e-08 -3.65357e-05
0.00285643 -8.38463e-05 -2.06137e-07
-8.38463e-05 -0.000343183 1.6028e-06
-2.06137e-07 1.6028e-06 1.9972e-07
0.00252541 -9.49473e-05 -3.50483e-08
-9.49473e-05 -0.000186125 2.42172e-07
-3.50483e-08 2.42172e-07 5.40514e-07
0.00237864 -0.00014482 7.61866e-07
-0.00014482 -0.000101355 -2.04447e-07
7.61866e-07 -2.04447e-07 -9.08032e-06
0.00256782 -0.000347319 -4.23429e-07
-0.000347319 -0.000203205 4.80104e-07
-4.23429e-07 4.80104e-07 -2.20061e-05
0.00241139 -0.000274755 6.03926e-07
-0.000274755 -8.91662e-05 -4.5501e-07
6.03926e-07 -4.5501e-07 -8.62551e-06
0.00226804 -0.000262346 -2.73684e-06
-0.000262346 -2.90281e-05 3.87354e-07
-2.73684e-06 3.87354e-07 -2.58616e-05
0.00245227 -0.00042016 -5.36752e-07
-0.00042016 -4.89907e-05 2.71725e-07
-5.36752e-07 2.71725e-07 -1.08971e-05
0.00231906 -0.000380568 4.25063e-08
-0.000380568 1.40077e-05 -1.79584e-08
4.25063e-08 -1.79584e-08 -1.42255e-05
0.00239702 -0.000378492 -3.69325e-06
-0.000378492 0.000140251 8.73879e-07
-3.69325e-06 8.73879e-07 4.05966e-05
0.00237114 -0.000504902 3.63128e-06
-0.000504902 7.11283e-05 -9.27601e-07
3.63128e-06 -9.27601e-07 -9.17404e-06
0.00238283 -0.00048831 -2.47245e-07
-0.00048831 0.000171384 -2.80828e-07
-2.47245e-07 -2.80828e-07 2.06559e-05
0.00166271 -0.00032215 -6.37852e-06
-0.00032215 1.75489e-05 1.41054e-06
-6.37852e-06 1.41054e-06 -0.000175558
0.00236276 -0.000594634 1.96708e-06
-0.000594634 0.000206266 -3.0618e-07
1.96708e-06 -3.0618e-07 -4.55243e-06
0.00170788 -0.000401457 -3.52897e-07
-0.000401457 5.58855e-05 2.86195e-07
-3.52897e-07 2.86195e-07 -0.000176625
0.00289927 -0.000261654 -7.5385e-05
-0.000261654 0.00139572 1.45979e-05
-7.5385e-05 1.45979e-05 0.00125741
0.00174058 -0.00047324 8.60991e-06
-0.00047324 9.8847e-05 -3.21022e-06
8.60991e-06 -3.21022e-06 -0.000175078
0.00315946 -0.000311856 5.77203e-05
-0.000311856 0.00156037 -8.94317e-06
5.77203e-05 -8.94317e-06 0.0014181
0.00296421 -0.000163339 -0.000333747
-0.000163339 0.00161298 5.29706e-05
-0.000333747 5.29706e-05 0.00159421
0.0034072 -0.000360886 0.000196873
-0.000360886 0.00172206 -3.87907e-05
0.000196873 -3.87907e-05 0.00157557
0.00261961 -0.000128938 -0.000129849
-0.000128938 0.00138849 2.22354e-05
-0.000129849 2.22354e-05 0.00134418
0.00847827 -0.000176024 0.000166703
-0.000176024 0.0052506 -1.4636e-05
0.000166703 -1.4636e-05 0.00522417
0.00247972 0.000538406 1.62936e-08
0.000538406 4.49616e-05 4.23202e-07
1.62936e-08 4.23202e-07 8.42838e-06
0.00246233 0.000610856 -2.09687e-06
0.000610856 0.000169723 -6.07914e-07
-2.09687e-06 -6.07914e-07 4.71712e-05
0.00254681 0.000636268 -2.10948e-06
0.000636268 0.000105672 6.89959e-08
-2.10948e-06 6.89959e-08 2.77182e-05
0.00231251 0.000672358 -1.44064e-07
0.000672358 0.000231406 4.52992e-06
-1.44064e-07 4.52992e-06 -4.54152e-05
0.00250184 0.000727601 -5.95435e-07
0.000727601 0.00022516 -1.88978e-06
-5.95435e-07 -1.88978e-06 3.44136e-05
0.00247394 0.000636952 -6.02122e-06
0.000636952 0.000122419 -2.23942e-06
-6.02122e-06 -2.23942e-06 3.84607e-06
0.00175247 0.000562553 -2.08671e-05
0.000562553 0.000110561 -1.06392e-06
-2.08671e-05 -1.06392e-06 -0.000225867
0.0023427 0.000796669 1.86718e-06
0.000796669 0.000302521 -2.02961e-08
1.86718e-06 -2.02961e-08 -5.27838e-05
0.00261986 0.000901157 -5.34708e-06
0.000901157 0.000317396 -6.81792e-06
-5.34708e-06 -6.81792e-06 1.63436e-05
0.00212813 0.000902844 -9.82368e-06
0.000902844 0.000250525 -1.73197e-05
-9.82368e-06 -1.73197e-05 -0.000206389
0.00180289 0.000669499 -6.07218e-07
0.000669499 0.000242396 2.50412e-07
-6.07218e-07 2.50412e-07 -0.000181288
0.000446119 0.000358494 -2.5526e-05
0.000358494 -0.000218638 -2.02077e-05
-2.5526e-05 -2.02077e-05 -0.000460777
0.00186488 0.000772539 4.50252e-05
0.000772539 0.000355473 1.04034e-06
4.50252e-05 1.04034e-06 -0.000146604
0.000148426 0.000357801 4.74037e-07
0.000357801 -0.000363876 1.83129e-06
4.74037e-07 1.83129e-06 -0.000616075
0.00957614 0.000245522 -0.000428799
0.000245522 0.00598712 -6.33294e-05
-0.000428799 -6.33294e-05 0.00599424
5.54069e-05 0.000287736 2.91588e-05
0.000287736 -0.000391955 3.06853e-05
2.91588e-05 3.06853e-05 -0.000619994
0.00998278 0.00012355 7.8746e-06
0.00012355 0.00624681 1.81923e-06
7.8746e-06 1.81923e-06 0.0062643
0.00921776 -2.24716e-05 0.000342928
-2.24716e-05 0.00578116 3.13772e-05
0.000342928 3.13772e-05 0.00579073
0.00252256 0.000317137 1.12548e-06
0.000317137 -0.000134621 7.48969e-07
1.12548e-06 7.48969e-07 -6.57278e-06
0.00273395 0.000407095 -9.93076e-07
0.000407095 -0.000259028 9.10842e-07
-9.93076e-07 9.10842e-07 -1.25453e-05
0.0024223 0.00030148 -8.48211e-06
0.00030148 -0.000476821 -1.68276e-06
-8.48211e-06 -1.68276e-06 -8.20623e-05
0.0026021 0.000555593 -5.25279e-07
0.000555593 -6.3986e-05 4.23205e-07
-5.25279e-07 4.23205e-07 -3.22762e-06
0.00255426 0.000801246 -1.06801e-06
0.000801246 2.15432e-05 -8.03522e-07
-1.06801e-06 -8.03522e-07 -6.68383e-05
0.00277714 0.000614852 3.48688e-07
0.000614852 -0.000185959 -2.1134e-06
3.48688e-07 -2.1134e-06 -2.87871e-05
0.00245654 0.000108827 1.73967e-06
0.000108827 -0.000103259 1.41162e-07
1.73967e-06 1.41162e-07 1.09759e-05
0.00256896 0.00011776 -3.08929e-08
0.00011776 -0.00016543 -1.34144e-07
-3.08929e-08 -1.34144e-07 1.15367e-05
0.00263754 0.000154573 -3.08923e-06
0.000154573 -0.000304082 4.55663e-09
-3.08923e-06 4.55663e-09 -2.58786e-05
0.00240662 -6.511e-06 -6.57341e-07
-6.511e-06 -0.000136438 2.82948e-08
-6.57341e-07 2.82948e-08 -7.21851e-06
0.0023364 -3.18786e-05 -1.36314e-07
-3.18786e-05 -6.50629e-05 -1.40187e-07
-1.36314e-07 -1.40187e-07 1.05007e-05
0.00253485 -9.97962e-05 -1.67179e-06
-9.97962e-05 -0.000178908 8.50159e-07
-1.67179e-06 8.50159e-07 6.45562e-06
0.00237714 -0.000147254 -8.16884e-07
-0.000147254 -9.29239e-05 2.50351e-07
-8.16884e-07 2.50351e-07 -6.85713e-06
0.0022089 -0.000159955 -2.93752e-06
-0.000159955 -6.99944e-05 5.3281e-07
-2.93752e-06 5.3281e-07 -4.23515e-05
0.00241518 -0.000271353 -3.28998e-07
-0.000271353 -8.81567e-05 -1.46293e-07
-3.28998e-07 -1.46293e-07 -6.85555e-06
0.00226552 -0.000260517 9.11026e-07
-0.000260517 -2.85047e-05 -3.12345e-07
9.11026e-07 -3.12345e-07 -2.4946e-05
0.00243436 -0.000278929 -3.25482e-06
-0.000278929 0.000132866 1.0393e-06
-3.25482e-06 1.0393e-06 7.00253e-05
0.00231312 -0.00037989 3.71244e-06
-0.00037989 7.52459e-06 -7.08795e-07
3.71244e-06 -7.08795e-07 -2.01951e-05
0.00239126 -0.000377484 5.39792e-08
-0.000377484 0.000138406 -1.24809e-07
5.39792e-08 -1.24809e-07 3.96973e-05
0.00165569 -0.000248849 -5.29276e-06
-0.000248849 4.79309e-06 9.85566e-07
-5.29276e-06 9.85566e-07 -0.000155352
0.0023819 -0.000484804 3.13369e-06
-0.000484804 0.000178887 -9.81419e-07
3.13369e-06 -9.81419e-07 2.86458e-05
0.0016881 -0.000324599 -3.26101e-07
-0.000324599 2.11671e-05 1.18919e-07
-3.26101e-07 1.18919e-07 -0.000171473
0.00275193 -0.000232014 -7.47675e-05
-0.000232014 0.00131202 1.22826e-05
-7.47675e-05 1.22826e-05 0.00119108
0.0017698 -0.000406507 7.13339e-06
-0.000406507 8.66233e-05 -2.19689e-06
7.13339e-06 -2.19689e-06 -0.000145563
0.00301546 -0.000258484 5.38404e-05
-0.000258484 0.00146707 -6.77816e-06
5.38404e-05 -6.77816e-06 0.00134531
0.00283961 -0.00013122 -0.000320389
-0.00013122 0.00153057 4.27124e-05
-0.000320389 4.27124e-05 0.00151604
0.00327735 -0.000300998 0.000188413
-0.000300998 0.00162736 -3.15828e-05
0.000188413 -3.15828e-05 0.00150393
0.00253458 -0.000118329 -0.000117207
-0.000118329 0.0013357 1.67532e-05
-0.000117207 1.67532e-05 0.00129478
0.00221455 -0.000118906 9.35267e-05
-0.000118906 0.0011409 -1.70746e-05
9.35267e-05 -1.70746e-05 0.00106767
0.00240579 0.000343226 1.19877e-06
0.000343226 -4.56698e-05 2.00095e-07
1.19877e-06 2.00095e-07 -1.01548e-05
0.00233467 0.000475691 -2.84463e-06
0.000475691 6.86499e-05 3.63409e-08
-2.84463e-06 3.63409e-08 -1.70236e-05
0.00248405 0.000540663 -8.25808e-07
0.000540663 2.46687e-05 -2.99662e-07
-8.25808e-07 -2.99662e-07 2.56646e-06
0.00235799 0.000593106 5.85616e-08
0.000593106 0.000176361 1.37976e-06
5.85616e-08 1.37976e-06 -2.26061e-05
0.00245622 0.000608406 -1.95747e-07
0.000608406 0.000177861 -2.80759e-08
-1.95747e-07 -2.80759e-08 4.51775e-05
0.00258115 0.000633918 1.78642e-07
0.000633918 0.000132243 8.08182e-07
1.78642e-07 8.08182e-07 4.70867e-05
0.00171812 0.000478048 -1.29909e-05
0.000478048 8.13914e-05 -1.28829e-06
-1.29909e-05 -1.28829e-06 -0.000196462
0.00231621 0.000683381 -8.02091e-07
0.000683381 0.000213519 -1.70129e-06
-8.02091e-07 -1.70129e-06 -5.18453e-05
0.00245502 0.000731901 -4.17625e-06
0.000731901 0.000159829 -4.08461e-06
-4.17625e-06 -4.08461e-06 -1.34481e-05
0.00041021 0.000286248 -2.14706e-05
0.000286248 -0.000254452 -1.58329e-05
-2.14706e-05 -1.58329e-05 -0.000461344
0.0017147 0.000551093 3.18116e-07
0.000551093 0.000104124 -1.32592e-07
3.18116e-07 -1.32592e-07 -0.000230052
0.00235362 0.000798259 -3.12312e-06
0.000798259 0.000307917 -1.2574e-05
-3.12312e-06 -1.2574e-05 -4.83205e-05
0.001885 0.000680638 3.34181e-05
0.000680638 0.000298082 3.01132e-07
3.34181e-05 3.01132e-07 -0.000130634
0.000290077 0.000344379 5.38608e-07
0.000344379 -0.000316896 1.02186e-06
5.38608e-07 1.02186e-06 -0.000558944
0.00893418 0.000325996 -0.000421181
0.000325996 0.0055754 -6.64221e-05
-0.000421181 -6.64221e-05 0.00557707
-5.53029e-05 0.000319583 2.51315e-05
0.000319583 -0.000488287 2.41265e-05
2.51315e-05 2.41265e-05 -0.000732765
0.00972423 0.000231286 8.92487e-06
0.000231286 0.00606973 2.82396e-06
8.92487e-06 2.82396e-06 0.00608705
0.00953936 8.2876e-05 0.000388619
8.2876e-05 0.00595178 3.87973e-05
0.000388619 3.87973e-05 0.00596935
0.00243873 0.000197444 1.56485e-06
0.000197444 -6.01408e-05 2.91548e-08
1.56485e-06 2.91548e-08 2.95737e-05
0.00249353 0.000322805 5.15828e-07
0.000322805 -0.000161771 5.00676e-07
5.15828e-07 5.00676e-07 -3.3298e-05
0.00269437 0.000419703 -1.37364e-06
0.000419703 -0.000309475 -1.5922e-06
-1.37364e-06 -1.5922e-06 -5.40537e-05
0.00258329 0.000548436 6.12006e-07
0.000548436 -7.17019e-05 -8.38777e-07
6.12006e-07 -8.38777e-07 -1.08419e-05
0.002289 5.01371e-05 -4.12921e-07
5.01371e-05 -4.77162e-05 4.72959e-08
-4.12921e-07 4.72959e-08 -1.92023e-06
0.00245606 9.62478e-05 1.47421e-07
9.62478e-05 -0.000108246 -6.96099e-08
1.47421e-07 -6.96099e-08 9.64602e-06
0.00257259 0.000116054 -1.36055e-06
0.000116054 -0.000155043 -1.04346e-07
-1.36055e-06 -1.04346e-07 1.86888e-05
0.00244598 -1.59908e-06 -2.9054e-06
-1.59908e-06 -0.000103734 1.36344e-07
-2.9054e-06 1.36344e-07 2.16185e-05
0.00234797 -2.56129e-05 -7.12177e-07
-2.56129e-05 -6.26392e-05 -1.61083e-07
-7.12177e-07 -1.61083e-07 1.66067e-05
0.00226737 -5.7401e-05 -4.11482e-06
-5.7401e-05 3.26448e-06 1.55302e-07
-4.11482e-06 1.55302e-07 2.58854e-05
0.00237618 -0.000149537 -8.33066e-07
-0.000149537 -8.41542e-05 4.58615e-07
-8.33066e-07 4.58615e-07 -4.48965e-06
0.00226078 -0.00016114 -1.56952e-06
-0.00016114 -2.30671e-05 2.79491e-07
-1.56952e-06 2.79491e-07 -3.95213e-06
0.00234902 -0.00018424 -2.83466e-06
-0.00018424 4.87095e-05 6.80195e-07
-2.83466e-06 6.80195e-07 1.24435e-05
0.00226917 -0.000258202 4.53773e-06
-0.000258202 -2.49165e-05 -9.77291e-07
4.53773e-06 -9.77291e-07 -2.08558e-05
0.0024231 -0.000276869 5.88638e-07
-0.000276869 0.000129183 -1.40568e-07
5.88638e-07 -1.40568e-07 6.61801e-05
0.00164113 -0.000183609 -5.80643e-06
-0.000183609 -8.85459e-06 1.05099e-06
-5.80643e-06 1.05099e-06 -0.000145769
0.00239193 -0.000375553 3.7194e-06
-0.000375553 0.000140997 -1.1149e-06
3.7194e-06 -1.1149e-06 4.34197e-05
0.00164504 -0.000248972 -1.31287e-07
-0.000248972 -1.64987e-05 1.1131e-08
-1.31287e-07 1.1131e-08 -0.000176053
0.000284033 -0.000124522 -1.56114e-05
-0.000124522 -0.000327656 7.04948e-06
-1.56114e-05 7.04948e-06 -0.000451011
0.00171922 -0.000327171 6.02495e-06
-0.000327171 2.99393e-05 -1.51599e-06
6.02495e-06 -1.51599e-06 -0.000162185
0.0016304 -0.00017273 7.88304e-05
-0.00017273 0.000554475 -7.04111e-06
7.88304e-05 -7.04111e-06 0.000441331
0.00741982 -0.000204987 -0.000414604
-0.000204987 0.00459293 3.64075e-05
-0.000414604 3.64075e-05 0.00462645
0.00314535 -0.000240205 0.000179657
-0.000240205 0.00154184 -2.40874e-05
0.000179657 -2.40874e-05 0.00143858
0.00242121 -0.000104564 -0.000105336
-0.000104564 0.00126823 1.0665e-05
-0.000105336 1.0665e-05 0.00122989
0.00209555 -0.000126656 0.000102769
-0.000126656 0.00107336 -1.78098e-05
0.000102769 -1.78098e-05 0.00100179
0.00235961 0.000232331 8.44441e-07
0.000232331 -1.70827e-05 -5.4668e-07
8.44441e-07 -5.4668e-07 1.65363e-05
0.00227758 0.000360292 -2.27103e-06
0.000360292 4.36244e-06 -1.09801e-07
-2.27103e-06 -1.09801e-07 -3.04985e-05
0.00242469 0.000333971 -3.4151e-07
0.000333971 -1.60734e-05 -4.13341e-08
-3.4151e-07 -4.13341e-08 1.10708e-05
0.0022831 0.000468216 3.45528e-07
0.000468216 9.76878e-05 1.04652e-06
3.45528e-07 1.04652e-06 -4.43796e-05
0.00235414 0.000479004 4.18064e-08
0.000479004 8.62079e-05 -2.21058e-07
4.18064e-08 -2.21058e-07 2.4316e-06
0.00248821 0.000542983 -3.31367e-07
0.000542983 4.68754e-06 -6.35333e-07
-3.31367e-07 -6.35333e-07 -3.24049e-06
0.00172778 0.000419936 -5.68572e-06
0.000419936 6.24215e-05 8.61388e-07
-5.68572e-06 8.61388e-07 -0.000161442
0.00232074 0.000586382 -1.81035e-06
0.000586382 0.000153639 -9.81554e-07
-1.81035e-06 -9.81554e-07 -4.90319e-05
0.00244302 0.000604539 1.92637e-06
0.000604539 0.000182542 -3.64597e-07
1.92637e-06 -3.64597e-07 3.98004e-05
0.000387669 0.000214095 -1.78722e-05
0.000214095 -0.000273608 -1.15003e-05
-1.78722e-05 -1.15003e-05 -0.000447933
0.00165905 0.000472076 5.08901e-07
0.000472076 4.84667e-05 4.23192e-07
5.08901e-07 4.23192e-07 -0.000221001
0.00231734 0.000693674 -3.08226e-06
0.000693674 0.000193809 -8.54008e-06
-3.08226e-06 -8.54008e-06 -5.97232e-05
0.00841092 0.000364368 -0.000415773
0.000364368 0.00524175 -6.30481e-05
-0.000415773 -6.30481e-05 0.00524257
0.000366126 0.000286207 2.23695e-07
0.000286207 -0.000290145 8.62375e-07
2.23695e-07 8.62375e-07 -0.000500241
0.00167877 0.000540777 2.33627e-05
0.000540777 9.77075e-05 4.59781e-07
2.33627e-05 4.59781e-07 -0.000234533
0.000233495 0.000332422 2.35318e-05
0.000332422 -0.000350258 2.03067e-05
2.35318e-05 2.03067e-05 -0.000592634
0.00914216 0.000326123 9.85593e-06
0.000326123 0.00570684 3.95044e-06
9.85593e-06 3.95044e-06 0.00571424
0.00993185 0.000205011 0.00045523
0.000205011 0.00618475 4.91525e-05
0.00045523 4.91525e-05 0.00621094
0.00226964 0.000126458 -1.16808e-06
0.000126458 -4.05875e-05 9.94307e-08
-1.16808e-06 9.94307e-08 -1.14306e-05
0.00243212 0.00019144 -1.00259e-07
0.00019144 -6.71293e-05 4.14758e-08
-1.00259e-07 4.14758e-08 1.93305e-05
0.00246476 0.000328741 -6.50998e-07
0.000328741 -0.00018831 -5.16273e-07
-6.50998e-07 -5.16273e-07 -5.92319e-05
0.00226845 2.8692e-05 -6.25891e-06
2.8692e-05 4.07047e-05 -2.49255e-07
-6.25891e-06 -2.49255e-07 4.69121e-05
0.00227983 5.87473e-05 8.60407e-07
5.87473e-05 -5.84058e-05 4.51114e-08
8.60407e-07 4.51114e-08 -7.31243e-06
0.00245612 8.29019e-05 -1.79016e-06
8.29019e-05 -0.000113104 -4.35281e-08
-1.79016e-06 -4.35281e-08 8.56696e-06
0.00236021 -1.9451e-05 -6.78043e-07
-1.9451e-05 -6.0188e-05 2.2554e-07
-6.78043e-07 2.2554e-07 2.30475e-05
0.00227092 -5.729e-05 -1.9944e-07
-5.729e-05 4.22062e-06 7.17396e-09
-1.9944e-07 7.17396e-09 2.83933e-05
0.00211221 -8.3775e-05 -2.87435e-06
-8.3775e-05 -0.000105006 3.2475e-07
-2.87435e-06 3.2475e-07 -0.000151493
0.00231201 -0.000162596 3.83277e-06
-0.000162596 2.42178e-05 -3.97812e-07
3.83277e-06 -3.97812e-07 3.49002e-05
0.00232216 -0.00018681 4.26716e-07
-0.00018681 4.16113e-05 1.7363e-08
4.26716e-07 1.7363e-08 -6.71243e-06
0.0017487 -0.000120894 -6.08929e-06
-0.000120894 6.47645e-05 7.06919e-07
-6.08929e-06 7.06919e-07 -4.2872e-05
0.00240509 -0.000275863 4.04392e-06
-0.000275863 0.000121593 -1.30513e-06
4.04392e-06 -1.30513e-06 5.81691e-05
0.00161267 -0.00018015 6.76356e-08
-0.00018015 -4.39071e-05 -2.51722e-08
6.76356e-08 -2.51722e-08 -0.000179819
0.000230118 -5.08292e-05 -1.37828e-05
-5.08292e-05 -0.00035128 4.10344e-06
-1.37828e-05 4.10344e-06 -0.000459698
0.0016368 -0.000247676 5.27849e-06
-0.000247676 -3.91635e-05 -1.35062e-06
5.27849e-06 -1.35062e-06 -0.000197756
0.000292971 -0.000108662 -3.58547e-07
-0.000108662 -0.000315695 4.48273e-07
-3.58547e-07 4.48273e-07 -0.000437455
0.00727778 -9.79386e-05 -0.000401076
-9.79386e-05 0.00449046 2.37943e-05
-0.000401076 2.37943e-05 0.00453166
0.000444238 -0.000129536 1.24054e-05
-0.000129536 -0.000231028 -9.13541e-06
1.24054e-05 -9.13541e-06 -0.000366423
0.00478654 -0.000136564 0.000168109
-0.000136564 0.00285138 -1.09914e-05
0.000168109 -1.09914e-05 0.00283685
0.00197522 -0.000108351 0.000104781
-0.000108351 0.000999123 -1.5905e-05
0.000104781 -1.5905e-05 0.000932783
0.00236419 0.000195355 -3.78947e-06
0.000195355 6.2572e-05 -3.97045e-07
-3.78947e-06 -3.97045e-07 8.03387e-05
0.00224288 0.000256163 -5.47648e-06
0.000256163 1.75783e-05 -3.20768e-07
-5.47648e-06 -3.20768e-07 -7.95074e-06
0.00234472 0.000222029 -7.94726e-07
0.000222029 -2.093e-05 -3.38012e-07
-7.94726e-07 -3.38012e-07 1.34596e-05
0.00238779 0.000380629 -5.83951e-07
0.000380629 0.000159709 4.75994e-07
-5.83951e-07 4.75994e-07 5.0095e-05
0.0022968 0.000356778 -1.03302e-07
0.000356778 2.01504e-05 -2.12099e-07
-1.03302e-07 -2.12099e-07 -1.62041e-05
0.00244597 0.000325104 -2.45938e-07
0.000325104 1.56299e-05 -2.19857e-07
-2.45938e-07 -2.19857e-07 3.43674e-05
0.00168622 0.000335796 -2.83221e-06
0.000335796 2.39169e-05 1.67198e-07
-2.83221e-06 1.67198e-07 -0.000160228
0.00231254 0.000469638 9.56056e-07
0.000469638 0.000129892 5.54059e-08
9.56056e-07 5.54059e-08 -2.24898e-05
0.0023719 0.000482291 3.05158e-06
0.000482291 0.00010215 1.00615e-07
3.05158e-06 1.00615e-07 2.08104e-05
0.000343195 0.000160313 -1.54269e-05
0.000160313 -0.000296801 -8.19502e-06
-1.54269e-05 -8.19502e-06 -0.000448099
0.00171326 0.000411389 2.35042e-06
0.000411389 6.04189e-05 1.28061e-06
2.35042e-06 1.28061e-06 -0.000159503
0.00230171 0.000580969 -3.38397e-06
0.000580969 0.000143453 -3.55531e-06
-3.38397e-06 -3.55531e-06 -6.24786e-05
0.00794659 0.000373954 -0.000418831
0.000373954 0.00495558 -5.78894e-05
-0.000418831 -5.78894e-05 0.0049571
0.000362591 0.000219216 4.81656e-07
0.000219216 -0.000295992 5.2899e-07
4.81656e-07 5.2899e-07 -0.000473908
0.00161258 0.000468267 1.33953e-05
0.000468267 2.25003e-05 2.3011e-07
1.33953e-05 2.3011e-07 -0.000239241
0.00855054 0.000390148 1.16669e-05
0.000390148 0.00534398 6.19754e-06
1.16669e-05 6.19754e-06 0.00534173
0.00030884 0.000284771 1.92959e-05
0.000284771 -0.000335438 1.66081e-05
1.92959e-05 1.66081e-05 -0.000548672
0.00919818 0.000309036 0.000456814
0.000309036 0.00572665 5.89832e-05
0.000456814 5.89832e-05 0.0057455
0.00224009 0.000100654 -6.15039e-06
0.000100654 2.60166e-05 -1.07009e-07
-6.15039e-06 -1.07009e-07 2.10098e-05
0.00227154 0.000134503 -7.12182e-07
0.000134503 -3.17197e-05 -3.19854e-07
-7.12182e-07 -3.19854e-07 -2.21829e-06
0.002426 0.000185796 -1.15454e-06
0.000185796 -7.34256e-05 7.32742e-09
-1.15454e-06 7.32742e-09 9.59756e-06
0.00211116 4.14407e-06 -1.73072e-06
4.14407e-06 -9.99891e-05 -1.82774e-08
-1.73072e-06 -1.82774e-08 -0.000146737
0.00226596 3.1965e-05 -1.75411e-07
3.1965e-05 3.31974e-05 2.43042e-08
-1.75411e-07 2.43042e-08 4.39638e-05
0.00227049 6.77795e-05 2.97096e-07
6.77795e-05 -6.917e-05 2.52501e-07
2.97096e-07 2.52501e-07 -1.28011e-05
0.00227386 -5.73254e-05 3.53575e-06
-5.73254e-05 4.99097e-06 -7.9331e-08
3.53575e-06 -7.9331e-08 3.05258e-05
0.00216374 -8.25941e-05 -1.66893e-06
-8.25941e-05 -6.21959e-05 1.71167e-07
-1.66893e-06 1.71167e-07 -0.000106495
0.00160948 -5.11988e-05 -4.2749e-06
-5.11988e-05 -1.69729e-05 4.46319e-07
-4.2749e-06 4.46319e-07 -0.000117621
0.00230841 -0.000189542 2.27033e-06
-0.000189542 4.44893e-05 -1.00587e-06
2.27033e-06 -1.00587e-06 -1.5704e-05
0.00168605 -0.000122615 3.11571e-06
-0.000122615 1.31754e-05 -2.23554e-07
3.11571e-06 -2.23554e-07 -0.00010155
0.000191982 -2.40249e-05 -1.37375e-05
-2.40249e-05 -0.000360373 2.68675e-06
-1.37375e-05 2.68675e-06 -0.000461199
0.00158034 -0.00017851 5.95626e-06
-0.00017851 -7.87823e-05 -1.40912e-06
5.95626e-06 -1.40912e-06 -0.000214032
0.000222948 -5.86644e-05 3.93715e-07
-5.86644e-05 -0.000349606 -3.80515e-07
3.93715e-07 -3.80515e-07 -0.000457001
0.00704489 -0.000182551 -0.000398411
-0.000182551 0.00435888 2.54239e-05
-0.000398411 2.54239e-05 0.00439217
0.0002833 -9.27388e-05 1.35687e-05
-9.27388e-05 -0.000316443 -5.58466e-06
1.35687e-05 -5.58466e-06 -0.000435871
0.00719467 -0.000131594 6.33738e-06
-0.000131594 0.00444209 3.53289e-07
6.33738e-06 3.53289e-07 0.00448137
0.00222187 -5.94692e-05 0.000302814
-5.94692e-05 0.00112922 -2.47785e-05
0.000302814 -2.47785e-05 0.00112401
0.00228033 0.000182518 -7.86112e-06
0.000182518 7.10922e-05 -5.48735e-07
-7.86112e-06 -5.48735e-07 5.21952e-05
0.00226754 0.000196571 -6.70676e-07
0.000196571 -1.74792e-05 -3.19463e-08
-6.70676e-07 -3.19463e-08 9.57944e-06
0.00239532 0.000283176 4.37863e-07
0.000283176 0.000141315 5.34674e-07
4.37863e-07 5.34674e-07 6.09645e-05
0.00224922 0.00025657 5.94955e-07
0.00025657 1.83252e-05 4.33934e-08
5.94955e-07 4.33934e-08 -7.609e-06
0.00232964 0.000211519 -3.02987e-07
0.000211519 -2.53172e-05 -2.18729e-07
-3.02987e-07 -2.18729e-07 1.01188e-05
0.00160217 0.000252703 -1.6137e-06
0.000252703 -2.97112e-05 -2.95149e-07
-1.6137e-06 -2.95149e-07 -0.000199095
0.00238804 0.000381003 3.47606e-07
0.000381003 0.000153251 1.34839e-08
3.47606e-07 1.34839e-08 4.38107e-05
0.00231299 0.000352944 3.52382e-06
0.000352944 3.27122e-05 6.62319e-07
3.52382e-06 6.62319e-07 -4.90525e-06
0.000324694 0.000120198 -1.42421e-05
0.000120198 -0.000296282 -5.9336e-06
-1.42421e-05 -5.9336e-06 -0.000431033
0.00165782 0.000330017 3.19033e-06
0.000330017 1.85533e-05 1.12737e-06
3.19033e-06 1.12737e-06 -0.000171674
0.00233208 0.000471155 -2.9854e-07
0.000471155 0.000154538 -1.01953e-06
-2.9854e-07 -1.01953e-06 -9.22631e-06
0.00758926 0.00034723 -0.000424154
0.00034723 0.00473547 -5.11307e-05
-0.000424154 -5.11307e-05 0.00474159
0.000361483 0.000168672 4.20214e-07
0.000168672 -0.000288263 2.38461e-07
4.20214e-07 2.38461e-07 -0.000443027
0.00167962 0.00040152 8.64201e-06
0.00040152 4.42784e-05 1.56477e-06
8.64201e-06 1.56477e-06 -0.000171587
0.00810688 0.000404371 8.5387e-06
0.000404371 0.00507141 6.18866e-06
8.5387e-06 6.18866e-06 0.0050675
0.000346271 0.000223312 1.63421e-05
0.000223312 -0.000312404 1.2172e-05
1.63421e-05 1.2172e-05 -0.000493815
0.00872379 0.000408921 0.000454665
0.000408921 0.0054545 6.83332e-05
0.000454665 6.83332e-05 0.00545525
0.0020691 9.73154e-05 1.98374e-07
9.73154e-05 -0.000110917 -3.41319e-07
1.98374e-07 -3.41319e-07 -0.000169088
0.0022703 0.000101103 -1.95451e-06
0.000101103 5.2947e-05 -6.17675e-08
-1.95451e-06 -6.17675e-08 4.64795e-05
0.00227349 0.000142503 2.09629e-06
0.000142503 -2.25596e-05 3.61881e-08
2.09629e-06 3.61881e-08 7.24458e-06
0.00160055 -3.09554e-06 -2.84566e-06
-3.09554e-06 -9.99396e-06 3.27622e-07
-2.84566e-06 3.27622e-07 -0.000110809
0.00214774 5.25801e-06 -1.70024e-06
5.25801e-06 -6.55805e-05 4.19498e-08
-1.70024e-06 4.19498e-08 -0.00011174
0.00226319 3.47756e-05 4.43331e-06
3.47756e-05 2.57607e-05 3.17885e-07
4.43331e-06 3.17885e-07 4.09957e-05
0.00221664 -8.18257e-05 -1.13163e-06
-8.18257e-05 -1.81998e-05 -2.00707e-09
-1.13163e-06 -2.00707e-09 -6.037e-05
0.00170615 -5.50887e-05 2.47015e-06
-5.50887e-05 4.45007e-05 -7.65394e-08
2.47015e-06 -7.65394e-08 -5.52052e-05
0.000211541 -3.39704e-05 -1.4506e-05
-3.39704e-05 -0.000338877 1.87141e-06
-1.4506e-05 1.87141e-06 -0.00043442
0.00161385 -0.000123361 8.9864e-06
-0.000123361 -4.73273e-05 -1.56618e-06
8.9864e-06 -1.56618e-06 -0.000169182
0.000202237 -1.29167e-05 -1.80749e-08
-1.29167e-05 -0.000353125 6.79814e-08
-1.80749e-08 6.79814e-08 -0.000452137
0.00694116 -0.000146193 -0.000398085
-0.000146193 0.00428829 1.94682e-05
-0.000398085 1.94682e-05 0.00432653
0.000255714 -6.35672e-05 1.42992e-05
-6.35672e-05 -0.000320521 -4.08524e-06
1.42992e-05 -4.08524e-06 -0.000427896
0.00704095 -8.43188e-05 -2.63756e-06
-8.43188e-05 0.00434097 3.94322e-06
-2.63756e-06 3.94322e-06 0.00438393
0.00716408 -0.000144653 0.000398124
-0.000144653 0.0044253 -2.3456e-05
0.000398124 -2.3456e-05 0.00446412
0.00235065 0.0001866 1.22135e-06
0.0001866 0.000109982 -2.18338e-07
1.22135e-06 -2.18338e-07 4.64148e-05
0.00221884 0.000183944 -5.19702e-07
0.000183944 1.47264e-05 8.59705e-08
-5.19702e-07 8.59705e-08 4.40742e-07
0.00217063 0.00019791 1.96044e-06
0.00019791 -9.82287e-05 3.09798e-07
1.96044e-06 3.09798e-07 -6.20519e-05
0.00155193 0.000175871 -4.77321e-07
0.000175871 -5.75732e-05 -1.90938e-08
-4.77321e-07 -1.90938e-08 -0.000204899
0.00240029 0.000281513 3.04513e-07
0.000281513 0.00014187 -3.14911e-08
3.04513e-07 -3.14911e-08 6.19308e-05
0.00225866 0.000257248 4.90418e-06
0.000257248 2.15693e-05 1.54086e-07
4.90418e-06 1.54086e-07 -4.98098e-06
0.00028225 8.34298e-05 -1.31476e-05
8.34298e-05 -0.000309261 -4.28004e-06
-1.31476e-05 -4.28004e-06 -0.00043014
0.0016349 0.000253484 -4.9819e-09
0.000253484 9.26711e-06 1.96307e-07
-4.9819e-09 1.96307e-07 -0.000161011
0.00240474 0.000381901 6.5181e-07
0.000381901 0.000159679 -5.51087e-07
6.5181e-07 -5.51087e-07 5.0395e-05
0.00730893 0.000281192 -0.000425492
0.000281192 0.00454865 -4.106e-05
-0.000425492 -4.106e-05 0.00456797
0.000336459 0.000129423 3.32111e-07
0.000129423 -0.000291328 1.89548e-07
3.32111e-07 1.89548e-07 -0.000429271
0.00162172 0.000323204 5.40821e-06
0.000323204 8.5344e-06 1.59439e-06
5.40821e-06 1.59439e-06 -0.000187163
0.00770716 0.000367837 5.02855e-06
0.000367837 0.00481658 3.85701e-06
5.02855e-06 3.85701e-06 0.00482037
0.000375217 0.000178185 1.53242e-05
0.000178185 -0.000281402 9.12843e-06
1.53242e-05 9.12843e-06 -0.000440261
0.00828013 0.000448732 0.000454948
0.000448732 0.00519937 7.16222e-05
0.000454948 7.16222e-05 0.00518895
0.00147373 5.42018e-05 -3.2479e-06
5.42018e-05 -8.89196e-05 3.84479e-07
-3.2479e-06 3.84479e-07 -0.000211551
0.00219016 9.51726e-05 -3.10445e-06
9.51726e-05 -2.36628e-05 -2.93827e-07
-3.10445e-06 -2.93827e-07 -7.25065e-05
0.0023026 0.000101873 5.2598e-06
0.000101873 8.08423e-05 5.12776e-07
5.2598e-06 5.12776e-07 7.30693e-05
0.000242808 3.22538e-05 -1.52385e-05
3.22538e-05 -0.000319141 -1.91642e-07
-1.52385e-05 -1.91642e-07 -0.000407186
0.00168087 -8.6296e-07 2.70006e-06
-8.6296e-07 4.12983e-05 6.95943e-08
2.70006e-06 6.95943e-08 -5.85569e-05
0.00218896 8.23278e-06 -2.17286e-06
8.23278e-06 -2.8225e-05 -2.92761e-08
-2.17286e-06 -2.92761e-08 -7.36056e-05
0.0017944 -5.83347e-05 1.04803e-05
-5.83347e-05 0.000100553 -1.06255e-06
1.04803e-05 -1.06255e-06 1.79808e-06
0.000205493 -9.22059e-06 2.43488e-07
-9.22059e-06 -0.00034147 3.78126e-07
2.43488e-07 3.78126e-07 -0.000436783
0.00681917 -6.03174e-06 -0.000398713
-6.03174e-06 0.00419767 5.01435e-06
-0.000398713 5.01435e-06 0.0042455
0.000198407 -1.3812e-06 1.40866e-05
-1.3812e-06 -0.000355195 -1.74094e-06
1.40866e-05 -1.74094e-06 -0.000452342
0.00688594 -0.000142746 -6.90338e-06
-0.000142746 0.00425444 2.43348e-06
-6.90338e-06 2.43348e-06 0.00429206
0.00697265 -6.81225e-05 0.000384273
-6.81225e-05 0.00429605 -1.41897e-05
0.000384273 -1.41897e-05 0.0043394
0.00154255 0.000110863 -2.01547e-06
0.000110863 -4.30939e-05 -2.90684e-08
-2.01547e-06 -2.90684e-08 -0.000175325
0.00231123 0.000182019 -2.72642e-07
0.000182019 7.60562e-05 -2.99981e-07
-2.72642e-07 -2.99981e-07 1.5899e-05
0.00215628 0.000185221 3.62874e-06
0.000185221 -4.17726e-05 -2.45063e-07
3.62874e-06 -2.45063e-07 -5.13959e-05
0.00273507 9.52514e-05 -0.000171903
9.52514e-05 0.00132599 -7.76112e-06
-0.000171903 -7.76112e-06 0.00126591
0.00159559 0.00017769 -1.65944e-08
0.00017769 -1.4146e-05 8.01509e-08
-1.65944e-08 8.01509e-08 -0.000162298
0.00240065 0.000279413 4.09179e-07
0.000279413 0.000140019 -5.17269e-07
4.09179e-07 -5.17269e-07 6.05715e-05
0.00711939 0.000211119 -0.000421354
0.000211119 0.00441582 -3.02713e-05
-0.000421354 -3.02713e-05 0.00444758
0.000306177 0.000103475 4.68759e-07
0.000103475 -0.000294801 4.68109e-07
4.68759e-07 4.68109e-07 -0.000419059
0.00167463 0.000253983 1.5409e-06
0.000253983 5.30513e-05 4.11663e-07
1.5409e-06 4.11663e-07 -0.000118091
0.00741957 0.000298763 2.54989e-06
0.000298763 0.00462171 2.13465e-06
2.54989e-06 2.13465e-06 0.00463904
0.000363271 0.000141076 1.49142e-05
0.000141076 -0.000275699 7.09399e-06
1.49142e-05 7.09399e-06 -0.000417485
0.00782956 0.000402931 0.000445266
0.000402931 0.00490916 6.41828e-05
0.000445266 6.41828e-05 0.00490705
0.000351916 2.14263e-05 -1.18771e-05
2.14263e-05 -0.000236987 -1.2188e-06
-1.18771e-05 -1.2188e-06 -0.000334688
0.00158156 5.46931e-05 -9.7929e-07
5.46931e-05 -1.33627e-05 -4.25995e-08
-9.7929e-07 -4.25995e-08 -0.00012787
0.00228676 9.17271e-05 -2.1329e-06
9.17271e-05 4.50332e-05 2.47773e-07
-2.1329e-06 2.47773e-07 5.20231e-06
0.00669552 -9.94166e-05 -0.000382529
-9.94166e-05 0.00413341 6.93372e-06
-0.000382529 6.93372e-06 0.00417126
0.000203501 1.41057e-05 -6.66787e-07
1.41057e-05 -0.000341244 -3.07157e-07
-6.66787e-07 -3.07157e-07 -0.000431767
0.00176611 -2.06383e-07 9.32598e-06
-2.06383e-07 9.5383e-05 -6.60068e-07
9.32598e-06 -6.60068e-07 -3.55348e-06
0.000185032 1.51518e-05 1.43822e-05
1.51518e-05 -0.000355605 -4.8748e-07
1.43822e-05 -4.8748e-07 -0.00044957
0.00676511 -3.75651e-05 1.50531e-06
-3.75651e-05 0.00416971 -2.15595e-06
1.50531e-06 -2.15595e-06 0.00421183
0.00685131 -7.2896e-05 0.00038644
-7.2896e-05 0.00421831 -1.05928e-05
0.00038644 -1.05928e-05 0.00426233
0.00285154 4.11444e-05 -0.000167026
4.11444e-05 0.0014071 -4.03622e-06
-0.000167026 -4.03622e-06 0.00135531
0.00155544 0.000113645 -2.04576e-07
0.000113645 -2.94705e-05 2.89238e-08
-2.04576e-07 2.89238e-08 -0.000162431
0.00227354 0.000177579 -1.31995e-07
0.000177579 4.24627e-05 -5.75101e-07
-1.31995e-07 -5.75101e-07 -1.43383e-05
0.00667376 1.92838e-05 -0.000188622
1.92838e-05 0.00413155 -2.75949e-06
-0.000188622 -2.75949e-06 0.00412362
0.000264585 8.10296e-05 4.49567e-07
8.10296e-05 -0.000310198 2.02113e-07
4.49567e-07 2.02113e-07 -0.000421542
0.00164057 0.000180601 1.12479e-06
0.000180601 2.79544e-05 -3.19067e-08
1.12479e-06 -3.19067e-08 -0.000121164
0.00717756 0.000189407 -6.62404e-06
0.000189407 0.00444597 -1.60767e-06
-6.62404e-06 -1.60767e-06 0.00447923
0.000327189 0.000124394 1.57867e-05
0.000124394 -0.000283357 6.02861e-06
1.57867e-05 6.02861e-06 -0.000410319
0.00748974 0.000319175 0.000437835
0.000319175 0.00467137 5.16604e-05
0.000437835 5.16604e-05 0.0046873
0.00213091 -4.5265e-05 -0.000293544
-4.5265e-05 0.00107123 1.89216e-06
-0.000293544 1.89216e-06 0.00108135
0.00147519 4.3502e-05 -7.52817e-05
4.3502e-05 0.000498629 -5.45675e-07
-7.52817e-05 -5.45675e-07 0.000429419
0.00170473 5.78748e-05 5.24129e-06
5.78748e-05 7.4618e-05 -2.42829e-07
5.24129e-06 -2.42829e-07 -3.15881e-05
0.00674407 -4.64057e-05 6.32552e-06
-4.64057e-05 0.0041591 3.79532e-06
6.32552e-06 3.79532e-06 0.00420287
0.00020131 -2.21902e-06 1.5058e-05
-2.21902e-06 -0.000336358 -1.75354e-08
1.5058e-05 -1.75354e-08 -0.000430376
0.00677049 -9.41888e-05 0.000398229
-9.41888e-05 0.00417889 -8.34633e-06
0.000398229 -8.34633e-06 0.00422062
0.001689 3.52035e-05 -8.76227e-05
3.52035e-05 0.000817153 -2.39038e-06
-8.76227e-05 -2.39038e-06 0.000769736
0.00148552 4.15949e-05 -7.57535e-05
4.15949e-05 0.000501034 -2.60189e-06
-7.57535e-05 -2.60189e-06 0.000424851
0.00156948 0.0001146 2.27591e-06
0.0001146 -1.37043e-05 -1.51938e-07
2.27591e-06 -1.51938e-07 -0.000147283
0.00438977 9.81184e-05 0.000150333
9.81184e-05 0.00259799 6.31627e-06
0.000150333 6.31627e-06 0.00259378
0.000236706 9.21079e-05 1.56004e-05
9.21079e-05 -0.000332091 4.60844e-06
1.56004e-05 4.60844e-06 -0.000444133
0.0072287 0.000177782 0.00041546
0.000177782 0.00447022 3.24763e-05
0.00041546 3.24763e-05 0.00450717
0.00673833 -3.20109e-06 -7.60963e-06
-3.20109e-06 0.00416093 -4.25263e-06
-7.60963e-06 -4.25263e-06 0.00420224
0.000218613 5.86376e-05 1.70628e-05
5.86376e-05 -0.000337287 2.1071e-06
1.70628e-05 2.1071e-06 -0.000427004
0.00667826 3.48838e-05 0.000388715
3.48838e-05 0.00411197 8.90079e-07
0.000388715 8.90079e-07 0.00415862
0.00429916 5.81966e-05 0.000159992
5.81966e-05 0.00253831 7.96792e-06
0.000159992 7.96792e-06 0.00253896
0.000243999 2.98323e-05 1.50996e-05
2.98323e-05 -0.000321846 2.29818e-06
1.50996e-05 2.29818e-06 -0.000422272
0.00699741 4.8882e-05 0.000399905
4.8882e-05 0.00431346 1.66705e-05
0.000399905 1.66705e-05 0.0043568
0.00674924 -9.04051e-05 0.000388259
-9.04051e-05 0.00416874 -3.3493e-06
0.000388259 -3.3493e-06 0.00420749
0.00678738 4.67985e-05 0.00039165
4.67985e-05 0.0041762 1.09812e-05
0.00039165 1.09812e-05 0.00422276
