# vtk DataFile Version 2.0
Wound Healing Simulation
ASCII
DATASET UNSTRUCTURED_GRID
POINTS 3012 float
69.9759 18.75 4
67.2507 60.3285 4
69.976 18.75 2
73.0099 25.446 4
71.1327 20.9142 4
68.6801 16.6661 4
67.8221 19.9262 3.97493
67.2507 60.3286 2
71.1327 54.0858 4
68.6801 58.3339 4
65.6939 62.2254 4
65.3091 58.9991 3.97346
74.6784 42.3946 4
73.7221 47.2057 4
69.9759 18.75 0
73.0099 25.446 2
68.6801 16.6661 2
71.1327 20.9142 2
67.8229 19.9303 2
74.6792 32.6053 4
73.7222 27.7943 4
72.1454 23.1494 4
70.6117 26.2216 3.97471
68.8825 21.9579 3.97531
67.2507 14.6715 4
66.6334 17.973 3.97369
65.7797 21.0312 3.96348
67.2507 60.3285 0
71.1327 54.0858 2
68.6801 58.3339 2
65.694 62.2255 2
65.31 58.9945 2
72.1454 51.8506 4
69.9759 56.25 4
68.8331 53.1137 3.97485
64.0165 64.0165 4
66.6073 57.1327 3.97464
63.8822 60.7632 3.97312
63.4919 57.7638 3.96515
60.3285 67.2507 4
74.6792 42.3947 2
73.7222 47.2057 2
74.9194 39.9526 4
74.2788 44.8158 4
72.1664 42.0856 3.97617
73.0099 49.554 4
71.2469 46.598 3.97457
73.0099 25.446 0
71.1327 20.9142 0
68.6801 16.6661 0
67.8221 19.9262 0.0250744
74.6792 32.6053 2
73.7222 27.7943 2
67.2508 14.6715 2
72.1455 23.1494 2
70.6111 26.2223 2
66.6348 17.9777 2
68.8828 21.9607 2
65.7769 21.0335 2
74.9197 35.0474 4
74.2794 30.1841 4
72.1831 32.9444 3.97653
71.276 28.4323 3.97507
69.8127 24.0597 3.97504
68.3379 26.9553 3.96417
66.7474 22.9381 3.96362
65.694 12.7746 4
65.3195 16.1059 3.97178
64.7001 19.202 3.96341
63.7869 22.0742 3.96428
71.1327 54.0858 0
65.6939 62.2254 0
68.6801 58.3339 0
65.3091 58.9991 0.0265403
72.1455 51.8506 2
69.9759 56.25 2
68.8332 53.111 2
64.0165 64.0165 2
66.6083 57.1285 2
63.8836 60.7581 2
63.4899 57.7638 2
62.2254 65.694 4
58.8916 65.4128 3.98279
69.7658 50.9895 3.97457
67.7803 55.1673 3.97495
66.6299 52.2049 3.96371
62.3324 62.4245 3.97677
64.6507 56.027 3.96405
62.1951 59.3908 3.96497
61.7624 56.6493 3.96122
58.3339 68.6801 4
60.3285 67.2508 2
73.7221 47.2057 0
74.6784 42.3946 0
74.9197 39.9526 2
74.2794 44.8159 2
72.1656 42.0854 2
73.0099 49.554 2
71.2463 46.5976 2
75 37.5 4
72.4037 39.8025 3.97729
71.7805 44.3529 3.97596
69.7985 41.7898 3.96673
70.5724 48.8138 3.97427
68.9038 46.0133 3.96527
74.6792 32.6053 0
73.7222 27.7943 0
67.2507 14.6715 0
72.1454 23.1494 0
70.6117 26.2216 0.0252908
68.8825 21.9579 0.02469
66.6334 17.973 0.0263143
65.7797 21.0312 0.0365175
74.9197 35.0474 2
74.2794 30.1841 2
72.1823 32.9446 2
71.2756 28.4327 2
65.694 12.7745 2
65.3209 16.111 2
69.8125 24.0614 2
68.3394 26.9563 2
64.6943 19.2045 2
66.7472 22.94 2
63.7862 22.0752 2
72.4116 35.225 3.97734
71.802 30.6774 3.97605
69.8348 33.2713 3.96671
68.9601 29.0415 3.96509
67.5999 24.9162 3.96382
66.0798 27.6648 3.96861
64.0165 10.9835 4
64.6484 23.8667 3.96587
63.8855 14.3306 3.97247
63.5027 17.4574 3.9636
62.8129 20.3621 3.96233
61.8973 23.0179 3.96869
60.6807 11.1019 3.97771
57.6051 11.4759 3.96892
72.1454 51.8506 0
69.9759 56.25 0
68.8331 53.1137 0.0251537
64.0165 64.0165 0
63.8822 60.7632 0.0268805
66.6073 57.1327 0.0253571
63.4919 57.7638 0.0348504
62.2255 65.694 2
58.8938 65.4087 2
69.7656 50.9878 2
67.7809 55.1637 2
66.6295 52.2036 2
62.3347 62.4196 2
64.6456 56.0255 2
62.1923 59.3907 2
61.7615 56.6497 2
60.6657 63.9735 3.97941
57.0224 66.7335 3.98556
57.5518 63.6728 3.97113
67.4889 50.1729 3.96404
65.6865 54.1691 3.96376
64.4128 51.3488 3.96605
60.7673 60.9174 3.96805
62.7366 55.0344 3.96334
60.6146 58.126 3.96002
60.2051 55.7269 3.96479
56.25 69.9759 4
58.3339 68.6801 2
60.3285 67.2507 0
58.918 9.65988 3.97905
62.2254 9.30607 4
73.0099 49.554 0
74.2788 44.8158 0
71.2469 46.598 0.0254331
72.1664 42.0856 0.0238326
74.9194 39.9526 0
75 37.5 2
72.4035 39.8025 2
71.7803 44.3524 2
69.7977 41.7895 2
70.5718 48.813 2
68.9052 46.0128 2
72.4872 37.5126 3.9769
70.0362 39.6582 3.96717
69.4248 43.9071 3.96636
67.4928 41.488 3.97317
68.2508 48.1042 3.96451
66.5812 45.4165 3.97089
74.9197 35.0474 0
74.2794 30.1841 0
72.1831 32.9444 0.0234676
71.276 28.4323 0.0249252
65.694 12.7746 0
65.3195 16.1059 0.0282204
69.8127 24.0597 0.0249606
68.3379 26.9553 0.0358271
66.7474 22.9381 0.0363774
64.7001 19.202 0.0365921
63.7869 22.0742 0.0357163
72.4114 35.225 2
71.8018 30.6779 2
69.834 33.272 2
68.9596 29.0426 2
64.0165 10.9835 2
63.8875 14.3361 2
63.5004 17.4587 2
67.601 24.9176 2
66.079 27.6657 2
62.811 20.363 2
64.6472 23.8679 2
61.8963 23.0189 2
60.6834 11.1065 2
57.606 11.4691 2
70.053 35.3943 3.96722
69.4615 31.1528 3.96578
67.5578 33.6042 3.97228
66.6583 29.6482 3.96968
65.4116 25.7331 3.96741
63.9088 28.3145 3.97546
62.3375 12.6589 3.97583
62.6429 24.7083 3.97103
62.1896 15.8015 3.96517
61.7357 18.7279 3.96026
61.0333 21.4211 3.9656
60.1399 23.8356 3.97273
59.2388 12.8107 3.96597
55.868 10.2602 3.97261
56.393 13.1741 3.96926
69.7658 50.9895 0.0254347
62.2254 65.694 0
58.8916 65.4128 0.0172103
67.7803 55.1673 0.0250451
66.6299 52.2049 0.0362908
62.3324 62.4245 0.0232285
62.1951 59.3908 0.0350287
64.6507 56.027 0.0359499
61.7624 56.6493 0.0387761
60.668 63.9704 2
57.025 66.7311 2
57.5528 63.6775 2
67.4899 50.1718 2
65.6834 54.1676 2
64.4123 51.3483 2
60.7656 60.9191 2
62.7354 55.0344 2
60.6173 58.1278 2
60.2036 55.7268 2
55.0682 67.9311 3.98744
59.2129 62.3362 3.96855
55.8002 64.8998 3.97386
56.3154 62.043 3.97145
65.1963 49.3737 3.96746
63.5962 53.256 3.96463
62.1963 50.5819 3.97011
59.3138 59.524 3.96107
60.9082 54.2447 3.96735
59.1748 56.9485 3.96133
59.0644 55.1051 3.96788
48.0995 68.5736 3.9834
50.946 69.9312 3.98949
54.0858 71.1327 4
56.25 69.976 2
58.3339 68.6801 0
57.0554 8.33891 3.98143
60.3285 7.74928 4
58.9211 9.66406 2
62.2255 9.30602 2
70.5724 48.8138 0.0257263
71.7805 44.3529 0.0240363
68.9038 46.0133 0.0347308
69.7985 41.7898 0.0332676
72.4037 39.8025 0.022709
75 37.5 0
72.4864 37.5126 2
70.036 39.6582 2
69.4241 43.9065 2
67.4907 41.4878 2
68.2529 48.1036 2
66.5792 45.4159 2
70.1243 37.5231 3.96726
67.7385 39.509 3.97334
67.1039 43.4535 3.97178
65.3104 41.1873 3.97644
65.9328 47.3881 3.96944
64.3826 44.8 3.97612
72.4116 35.225 0.0226555
71.802 30.6774 0.0239494
69.8348 33.2713 0.0332907
68.9601 29.0415 0.0349065
64.0165 10.9835 0
63.8855 14.3306 0.0275268
63.5027 17.4574 0.0364033
67.5999 24.9162 0.0361803
66.0798 27.6648 0.0313925
64.6484 23.8667 0.0341277
62.8129 20.3621 0.0376651
61.8973 23.0179 0.0313079
60.6807 11.1019 0.0222915
57.6051 11.4759 0.0310766
70.0528 35.3946 2
69.4612 31.1535 2
67.5558 33.6046 2
66.656 29.649 2
62.3402 12.6642 2
62.1877 15.8027 2
61.7348 18.7283 2
65.4104 25.7342 2
63.9067 28.3158 2
61.032 21.422 2
62.6412 24.7095 2
60.1381 23.8369 2
59.2393 12.8111 2
56.3943 13.1718 2
55.8703 10.2583 2
67.7768 35.5552 3.97281
67.162 31.6416 3.97133
65.467 33.9528 3.97672
64.4194 30.2425 3.97624
63.3107 26.4799 3.97338
61.907 28.8673 3.97599
60.7676 14.2472 3.96626
60.7336 25.4421 3.97508
60.5626 17.1705 3.95962
60.0486 19.9009 3.96195
59.3865 22.3732 3.96843
58.6199 24.4589 3.97448
54.0334 9.14883 3.97223
57.8951 14.3804 3.96439
54.7746 12.0726 3.96745
55.2908 14.722 3.96442
67.4889 50.1729 0.035965
57.0224 66.7335 0.0144386
60.6657 63.9735 0.0205904
57.5518 63.6728 0.0288731
65.6865 54.1691 0.0362373
64.4128 51.3488 0.0339451
60.7673 60.9174 0.0319482
60.6146 58.126 0.03998
62.7366 55.0344 0.0366618
60.2051 55.7269 0.0352145
55.0707 67.9291 2
59.2126 62.3391 2
55.8009 64.898 2
56.3141 62.0432 2
65.1951 49.373 2
63.5961 53.2558 2
62.1956 50.5814 2
59.3146 59.5275 2
60.9081 54.2447 2
59.181 56.9503 2
59.0688 55.106 2
53.0403 68.9992 3.98893
53.9629 66.0042 3.9776
57.8667 60.8317 3.96845
54.6725 63.1712 3.97074
55.1924 60.5624 3.97506
62.9316 48.5953 3.97241
61.5307 52.5062 3.96864
59.9158 49.917 3.97276
57.9514 58.2083 3.9606
59.0953 53.8591 3.96963
57.9204 55.7211 3.96308
50.1061 67.8515 3.98237
47.4601 66.5693 3.97804
46.0535 69.1531 3.98464
48.1006 68.5734 2
48.8 70.7225 3.99
50.948 69.9302 2
51.8506 72.1454 4
54.0858 71.1327 2
56.25 69.9759 0
55.1004 7.14325 3.98509
58.3339 6.31992 4
57.0587 8.34251 2
60.3286 7.74926 2
58.918 9.65988 0.0209512
62.2254 9.30607 0
68.2508 48.1042 0.0354863
69.4248 43.9071 0.0336433
66.5812 45.4165 0.0291104
67.4928 41.488 0.026832
70.0362 39.6582 0.0328343
72.4872 37.5126 0.023098
70.1236 37.5233 2
67.7361 39.5089 2
67.1026 43.4532 2
65.3075 41.1868 2
65.9318 47.3874 2
64.3811 44.7992 2
67.8389 37.5243 3.97319
65.5499 39.3608 3.97658
64.9217 42.988 3.97666
63.4031 40.8986 3.97657
63.6915 46.6585 3.97456
62.4198 44.1447 3.97619
70.053 35.3943 0.0327814
69.4615 31.1528 0.0342184
67.5578 33.6042 0.0277228
66.6583 29.6482 0.0303199
62.3375 12.6589 0.0241721
62.1896 15.8015 0.0348272
61.7357 18.7279 0.0397361
65.4116 25.7331 0.0325913
63.9088 28.3145 0.0245428
62.6429 24.7083 0.0289692
61.0333 21.4211 0.0344033
60.1399 23.8356 0.0272694
59.2388 12.8107 0.0340324
56.393 13.1741 0.0307375
55.868 10.2602 0.0273909
67.7742 35.5556 2
67.1606 31.6422 2
65.4632 33.9536 2
64.4164 30.2438 2
60.7671 14.2483 2
60.559 17.171 2
60.0469 19.9018 2
63.3088 26.4812 2
61.905 28.868 2
59.3876 22.374 2
60.7313 25.4435 2
58.6175 24.4604 2
57.8938 14.381 2
55.2923 14.7185 2
54.036 9.14856 2
54.7757 12.0688 2
65.6486 35.6815 3.97661
64.9409 32.1928 3.97638
63.9714 34.2816 3.97651
62.2242 30.7072 3.97616
61.3178 27.1711 3.97571
60.4232 29.2471 3.97622
59.2857 15.712 3.96003
58.9335 25.9369 3.97613
58.9977 18.4362 3.96001
58.4889 20.9731 3.96372
57.941 23.2371 3.96986
57.5741 24.8234 3.97533
52.1091 8.16395 3.97611
53.0476 11.0602 3.96927
56.6437 15.8118 3.95975
53.7881 13.7614 3.9664
54.3297 16.0927 3.96045
55.0682 67.9311 0.0125577
65.1963 49.3737 0.0325406
55.8002 64.8998 0.0261363
59.2129 62.3362 0.031447
56.3154 62.043 0.0285528
63.5962 53.256 0.0353711
62.1963 50.5819 0.0298947
59.3138 59.524 0.0389268
59.1748 56.9485 0.0386679
60.9082 54.2447 0.0326455
59.0644 55.1051 0.0321186
53.0425 68.9981 2
53.9641 66.0035 2
57.8653 60.8328 2
54.6719 63.1725 2
55.19 60.5625 2
62.93 48.5944 2
61.531 52.5061 2
59.9169 49.9168 2
57.9491 58.2094 2
59.0994 53.8596 2
57.9166 55.7197 2
52.0671 66.9934 3.98098
52.9463 64.1989 3.97489
56.6171 59.4411 3.96399
53.6596 61.5638 3.9716
54.2244 59.2649 3.97161
60.5901 47.7805 3.97415
59.4051 52.0064 3.97068
57.577 49.4832 3.97402
56.6594 56.9105 3.96296
56.8279 54.0072 3.96678
50.1071 67.851 2
49.3334 65.9094 3.97803
47.4606 66.5688 2
46.8875 64.7173 3.97648
45.5559 67.0871 3.97931
43.9712 69.5853 3.98572
46.0547 69.1532 2
46.6065 71.3668 3.9906
48.0995 68.5736 0.0165957
48.8018 70.7219 2
49.554 73.0099 4
50.946 69.9312 0.0105148
51.8506 72.1455 2
54.0858 71.1327 0
53.0628 6.07359 3.98832
55.1039 7.14484 2
56.25 5.02411 4
58.3339 6.3199 2
57.0554 8.33891 0.0185652
60.3285 7.74928 0
65.9328 47.3881 0.0305634
67.1039 43.4535 0.0282196
64.3826 44.8 0.0238815
65.3104 41.1873 0.0235584
67.7385 39.509 0.0266579
70.1243 37.5231 0.0327432
67.8367 37.5244 2
65.5467 39.3606 2
64.9184 42.9871 2
63.4024 40.8982 2
63.6896 46.6575 2
62.4187 44.1444 2
65.659 37.5048 3.97656
63.5528 39.2533 3.97665
62.9559 42.5038 3.97631
61.9958 40.6598 3.97661
61.5651 45.8312 3.97571
60.97 43.6044 3.97607
67.7768 35.5552 0.0271939
67.162 31.6416 0.0286716
65.467 33.9528 0.0232755
64.4194 30.2425 0.0237644
60.7676 14.2472 0.0337407
60.5626 17.1705 0.0403806
60.0486 19.9009 0.0380527
63.3107 26.4799 0.0266172
61.907 28.8673 0.0240133
60.7336 25.4421 0.0249203
59.3865 22.3732 0.0315685
58.6199 24.4589 0.025518
57.8951 14.3804 0.0356106
55.2908 14.722 0.0355808
54.0334 9.14883 0.0277707
54.7746 12.0726 0.0325522
65.645 35.6816 2
64.9375 32.1937 2
63.9699 34.282 2
62.2225 30.7075 2
59.2847 15.7109 2
59.0078 18.4338 2
58.4879 20.9745 2
61.316 27.1724 2
60.4228 29.2477 2
57.9315 23.2404 2
58.9323 25.938 2
57.5786 24.825 2
56.6411 15.8119 2
54.3354 16.0867 2
53.7871 13.7507 2
52.1113 8.16353 2
53.0492 11.0585 2
63.7629 35.6514 3.97644
62.5488 33.0973 3.97617
60.1373 30.7128 3.97588
59.1201 28.0427 3.97598
57.8689 17.0565 3.9589
57.2856 25.8986 3.97597
57.5132 19.5921 3.95979
57.0388 21.9941 3.96419
56.7664 24.1209 3.97077
50.1103 7.29285 3.98164
51.2251 10.1499 3.97289
52.1533 12.8669 3.96793
55.4666 17.0671 3.95821
52.9393 15.3617 3.96318
53.6869 17.0926 3.95793
53.0403 68.9992 0.0110672
53.9629 66.0042 0.022397
62.9316 48.5953 0.0275941
54.6725 63.1712 0.0292571
57.8667 60.8317 0.0315525
55.1924 60.5624 0.024939
61.5307 52.5062 0.0313579
59.9158 49.917 0.0272358
57.9514 58.2083 0.0393989
57.9204 55.7211 0.0369153
59.0953 53.8591 0.0303737
52.0683 66.9933 2
52.9459 64.2008 2
56.6154 59.4415 2
53.6579 61.5651 2
54.2205 59.2668 2
60.5896 47.7799 2
59.4066 52.0063 2
57.5764 49.4825 2
56.6549 56.9138 2
56.8249 54.006 2
51.1637 65.115 3.97692
52.0303 62.505 3.97152
55.4137 58.1875 3.96085
52.7945 60.0585 3.96906
53.5856 58.4057 3.96612
57.7529 46.7037 3.97586
57.1849 51.66 3.97084
55.7202 49.3958 3.97328
55.3024 55.6961 3.96374
55.0122 53.2522 3.96328
50.1061 67.8515 0.0176258
49.3337 65.9089 2
48.6116 64.1052 3.97793
47.4601 66.5693 0.0219612
45.5564 67.0878 2
46.8881 64.7166 2
46.3737 63.0282 3.9822
45.1296 65.1795 3.97755
43.6297 67.4594 3.9813
41.859 69.8723 3.98542
43.9721 69.5857 2
44.374 71.8614 3.99101
46.0535 69.1531 0.0153623
46.608 71.3666 2
47.2057 73.7222 4
48.8 70.7225 0.00999674
49.554 73.0099 2
51.8506 72.1454 0
50.9538 5.13418 3.99026
53.0654 6.07445 2
54.0858 3.86728 4
55.1004 7.14325 0.0149091
56.25 5.02406 2
58.3339 6.31992 0
63.6915 46.6585 0.0254361
64.9217 42.988 0.023343
62.4198 44.1447 0.0238077
63.4031 40.8986 0.0234308
65.5499 39.3608 0.0234165
67.8389 37.5243 0.0268095
65.6554 37.5048 2
63.5524 39.2532 2
62.9554 42.5035 2
61.9968 40.6596 2
61.5639 45.8304 2
60.9698 43.6045 2
63.6171 37.4593 3.97654
61.7031 39.3337 3.97676
60.7145 41.8943 3.97659
59.726 44.6576 3.97611
65.6486 35.6815 0.023387
64.9409 32.1928 0.0236229
63.9714 34.2816 0.0234917
62.2242 30.7072 0.023839
59.2857 15.712 0.0399676
58.9977 18.4362 0.0399875
58.4889 20.9731 0.0362764
61.3178 27.1711 0.0242943
60.4232 29.2471 0.0237794
58.9335 25.9369 0.0238703
57.941 23.2371 0.0301397
57.5741 24.8234 0.024674
56.6437 15.8118 0.0402529
54.3297 16.0927 0.0395461
53.7881 13.7614 0.0335985
52.1091 8.16395 0.0238887
53.0476 11.0602 0.0307305
63.7621 35.6515 2
62.5491 33.0976 2
60.1378 30.713 2
57.8708 17.056 2
57.5298 19.5878 2
57.0345 21.9968 2
59.1196 28.0434 2
56.7817 24.1219 2
57.2879 25.9012 2
50.1123 7.29048 2
55.4719 17.0642 2
53.6987 17.082 2
52.9378 15.3533 2
52.1542 12.8708 2
51.2272 10.1467 2
61.7467 35.3861 3.9765
59.7559 32.822 3.97609
58.0526 30.2075 3.97573
56.7622 27.5593 3.97635
56.5176 18.2587 3.95985
55.8096 25.3001 3.97507
56.1015 20.6682 3.96068
55.7098 23.0529 3.9641
48.0558 6.53262 3.98586
49.3202 9.3472 3.97567
50.4188 12.0437 3.97157
51.3426 14.5802 3.96387
54.3057 18.04 3.959
52.3013 17.162 3.95863
52.0671 66.9934 0.0190235
52.9463 64.1989 0.0251149
60.5901 47.7805 0.0258541
53.6596 61.5638 0.0283952
56.6171 59.4411 0.0360104
54.2244 59.2649 0.028392
59.4051 52.0064 0.0293207
57.577 49.4832 0.0259844
56.6594 56.9105 0.0370364
56.8279 54.0072 0.0332169
51.1635 65.1148 2
52.029 62.5064 2
55.4114 58.1886 2
52.7936 60.0618 2
53.5832 58.4083 2
57.7527 46.7031 2
57.1816 51.6589 2
55.7152 49.3943 2
55.2994 55.6959 2
55.0124 53.2525 2
50.3366 63.3628 3.97848
51.2124 60.874 3.97508
54.124 57.1926 3.96687
52.2288 58.5522 3.96709
55.9744 44.0255 3.97645
54.8672 47.7177 3.97516
54.5939 51.2328 3.96595
53.7668 54.4307 3.96571
49.3334 65.9094 0.0219737
48.6115 64.1034 2
47.9486 62.4525 3.98161
45.5559 67.0871 0.0206908
46.8875 64.7173 0.0235207
43.63 67.46 2
46.3737 63.0283 2
45.1302 65.1791 2
45.974 61.5572 3.98995
44.7619 63.426 3.97686
43.3557 65.4916 3.97823
41.6622 67.6779 3.98096
39.7014 70.0182 3.98483
41.8597 69.8727 2
42.1087 72.2057 3.9914
43.9712 69.5853 0.0142817
44.3752 71.8613 2
44.8159 74.2794 4
46.6065 71.3668 0.00940095
47.2057 73.7222 2
49.554 73.0099 0
48.7852 4.32443 3.99115
50.9556 5.13375 2
51.8506 2.85458 4
53.0628 6.07359 0.0116764
54.0858 3.86728 2
56.25 5.02411 0
61.5651 45.8312 0.0242929
62.9559 42.5038 0.023692
60.97 43.6044 0.0239277
61.9958 40.6598 0.0233942
63.5528 39.2533 0.0233502
65.659 37.5048 0.0234377
63.6165 37.4592 2
61.7043 39.3337 2
60.7161 41.8944 2
59.7264 44.657 2
61.5318 37.4458 3.97692
59.6659 39.807 3.9768
58.347 42.8192 3.97602
63.7629 35.6514 0.0235617
62.5488 33.0973 0.0238307
60.1373 30.7128 0.0241234
57.8689 17.0565 0.041096
57.5132 19.5921 0.0402101
57.0388 21.9941 0.0358084
59.1201 28.0427 0.0240181
57.2856 25.8986 0.0240305
56.7664 24.1209 0.029226
55.4666 17.0671 0.0417884
53.6869 17.0926 0.042066
52.9393 15.3617 0.0368157
50.1103 7.29285 0.018362
52.1533 12.8669 0.0320714
51.2251 10.1499 0.0271122
61.7477 35.3861 2
59.7563 32.8218 2
58.0537 30.2068 2
56.5206 18.2572 2
56.1257 20.6613 2
55.7197 23.0572 2
56.7628 27.5611 2
55.817 25.3057 2
48.0568 6.53149 2
49.3222 9.34518 2
54.3242 18.0377 2
52.2939 17.1547 2
51.3395 14.5809 2
50.4208 12.0439 2
59.3011 35.1579 3.97657
57.3215 32.3756 3.97557
55.9103 29.5128 3.97605
54.8616 26.8304 3.97553
55.1862 19.3157 3.96216
54.4884 24.2693 3.97324
54.6894 21.7372 3.96045
45.9626 5.8863 3.98784
43.3744 7.48042 3.98357
47.3533 8.63432 3.9806
48.59 11.3253 3.97338
49.6832 13.7998 3.96837
50.58 16.2332 3.96137
52.9991 18.8081 3.96316
51.2187 18.2181 3.96053
51.1637 65.115 0.0230816
52.0303 62.505 0.0284825
57.7529 46.7037 0.0241416
52.7945 60.0585 0.0309425
55.4137 58.1875 0.0391458
53.5856 58.4057 0.0338845
57.1849 51.66 0.0291649
55.7202 49.3958 0.0267186
55.3024 55.6961 0.0362636
55.0122 53.2522 0.0367245
50.3359 63.3614 2
51.2104 60.8729 2
54.1221 57.1942 2
52.2252 58.5547 2
55.9751 44.0257 2
54.8648 47.7164 2
54.5903 51.2317 2
53.765 54.4324 2
49.5711 61.7237 3.97497
54.7081 41.6238 3.97402
50.5045 59.2633 3.97004
52.0356 56.3993 3.96675
53.3775 45.3521 3.97426
52.7267 49.1443 3.96965
52.2938 52.712 3.9601
48.6116 64.1052 0.0220749
47.9478 62.4491 2
47.3067 60.9831 3.9942
43.6297 67.4594 0.0186983
45.1296 65.1795 0.0224528
46.3737 63.0282 0.0178028
41.6629 67.6772 2
43.3569 65.4923 2
45.9733 61.5574 2
44.7623 63.425 2
45.7411 60.6029 3.99065
44.4743 61.8002 3.97915
43.1436 63.7019 3.97822
41.5457 65.63 3.97622
39.632 67.7551 3.98012
37.5258 70.0425 3.98398
39.702 70.0183 2
39.8161 72.4023 3.99138
41.859 69.8723 0.0145755
42.1096 72.2059 2
42.3947 74.6792 4
44.374 71.8614 0.00899136
44.8159 74.2794 2
47.2057 73.7222 0
43.852 5.36292 3.98713
46.5714 3.6488 3.99173
48.7861 4.32412 2
49.554 1.99015 4
50.9538 5.13418 0.00974473
51.8506 2.85453 2
54.0858 3.86728 0
59.726 44.6576 0.0238923
60.7145 41.8943 0.0234125
61.7031 39.3337 0.0232449
63.6171 37.4593 0.0234557
61.5326 37.4456 2
59.6675 39.8066 2
58.3477 42.8195 2
59.1556 37.5658 3.97731
57.2704 40.5885 3.97729
54.1069 39.6396 3.97544
61.7467 35.3861 0.0235004
59.7559 32.822 0.0239126
58.0526 30.2075 0.0242721
56.5176 18.2587 0.0401505
56.1015 20.6682 0.0393181
55.7098 23.0529 0.0359004
56.7622 27.5593 0.0236511
55.8096 25.3001 0.0249285
54.3057 18.04 0.0409976
52.3013 17.162 0.0413681
51.3426 14.5802 0.0361274
48.0558 6.53262 0.0141384
49.3202 9.3472 0.0243332
50.4188 12.0437 0.0284261
59.3018 35.1572 2
45.9631 5.88479 2
43.3748 7.47784 2
57.3224 32.3762 2
55.91 29.5122 2
55.1769 19.3214 2
54.7279 21.7382 2
54.4899 24.2757 2
54.8604 26.832 2
47.3549 8.63157 2
48.5923 11.3227 2
53.0125 18.7805 2
51.2255 18.2112 2
50.5771 16.232 2
49.6822 13.8044 2
56.6424 34.8157 3.97714
54.9649 31.6626 3.9756
53.8249 28.6248 3.977
53.2396 25.7471 3.97449
53.7751 20.2874 3.96054
53.2287 22.928 3.95765
41.4003 7.08437 3.98344
45.3599 8.00021 3.98662
42.8667 9.42741 3.97659
46.6626 10.6711 3.97841
47.7205 13.1381 3.97331
48.886 15.476 3.96836
49.9235 17.796 3.95715
51.5134 19.5043 3.97401
50.3366 63.3628 0.0215211
51.2124 60.874 0.0249214
55.9744 44.0255 0.0235522
54.8672 47.7177 0.0248367
52.2288 58.5522 0.0329089
54.124 57.1926 0.0331343
54.5939 51.2328 0.0340504
53.7668 54.4307 0.0342948
49.5695 61.7213 2
54.6988 41.6194 2
50.5012 59.2655 2
52.0384 56.4032 2
53.3725 45.3499 2
52.7235 49.1421 2
52.2966 52.7122 2
48.807 60.1734 3.97901
51.456 42.4928 3.98338
49.6848 57.5585 3.96395
50.3417 54.3238 3.96175
51.0482 47.0555 3.97556
50.7287 50.7847 3.95478
47.1489 43.5372 3.97353
47.9486 62.4525 0.0183853
47.3052 60.9798 2
46.582 59.7744 3.99386
41.6622 67.6779 0.019035
43.3557 65.4916 0.0217687
44.7619 63.426 0.023143
45.974 61.5572 0.0100514
39.6329 67.7556 2
41.5467 65.6276 2
45.7412 60.603 2
43.1433 63.7009 2
44.4726 61.8014 2
44.598 60.2573 3.99599
42.943 62.0541 3.97484
41.5989 63.7989 3.97698
39.6468 65.5943 3.9756
37.5633 67.7358 3.97832
31.6983 65.1124 3.97535
33.3932 67.4741 3.9782
35.3341 69.9532 3.9843
37.5259 70.044 2
37.509 72.4566 3.99194
39.7014 70.0182 0.0151658
39.8168 72.4024 2
39.9526 74.9197 4
42.1087 72.2057 0.00860317
42.3947 74.6792 2
44.8159 74.2794 0
41.7368 4.97094 3.988
43.8523 5.36102 2
44.327 3.11173 3.99238
46.572 3.64825 2
47.2057 1.27793 4
48.7852 4.32443 0.00885007
49.554 1.99013 2
51.8506 2.85458 0
58.347 42.8192 0.0239824
59.6659 39.807 0.0232001
61.5318 37.4458 0.0230758
59.1571 37.5662 2
57.2716 40.5901 2
54.0977 39.6477 2
55.9959 37.8743 3.9768
48.4815 41.2133 3.97031
52.0425 39.2754 3.98182
39.444 6.8076 3.98392
59.3011 35.1579 0.0234267
57.3215 32.3756 0.0244291
55.9103 29.5128 0.0239522
55.1862 19.3157 0.0378429
54.6894 21.7372 0.0395488
54.4884 24.2693 0.0267605
54.8616 26.8304 0.0244707
52.9991 18.8081 0.0368371
51.2187 18.2181 0.0394725
50.58 16.2332 0.0386343
45.9626 5.8863 0.0121639
49.6832 13.7998 0.0316272
47.3533 8.63432 0.0193957
48.59 11.3253 0.0266192
43.3744 7.48042 0.0164274
56.6419 34.8158 2
41.4005 7.08397 2
45.3606 7.99804 2
42.8671 9.42497 2
54.9671 31.6618 2
53.8238 28.6261 2
53.7807 20.3047 2
53.2149 22.9318 2
53.2358 25.7484 2
46.6645 10.6657 2
47.7213 13.1342 2
51.5363 19.5032 2
49.923 17.7989 2
48.8788 15.489 2
53.928 34.0175 3.97485
52.6619 30.7223 3.97525
51.9364 27.4815 3.97486
51.7324 24.3743 3.97843
52.1688 21.251 3.97521
41.0136 9.05837 3.97721
44.7264 10.0024 3.98531
42.4597 10.9115 4.00438
45.9829 12.7468 3.96841
47.6435 14.6519 3.96621
48.0326 17.0512 3.96681
49.726 19.9039 3.98066
49.5711 61.7237 0.025026
50.5045 59.2633 0.0299625
54.7081 41.6238 0.0259806
53.3775 45.3521 0.0257364
52.7267 49.1443 0.0303469
52.0356 56.3993 0.0332454
52.2938 52.712 0.0398967
48.8038 60.1701 2
51.4681 42.5042 2
49.6819 57.5586 2
50.3432 54.3263 2
51.0508 47.0546 2
50.733 50.7845 2
47.1596 43.571 2
47.9187 58.6865 3.98896
49.1394 45.08 3.98099
48.4341 55.8423 3.95848
48.7926 52.4733 3.97637
49.0828 48.8599 3.97004
44.8773 39.7705 3.84709
45.3816 42.4629 3.88786
45.6631 45.5306 3.98266
42.717 40.9928 3.65516
41.5005 41.7503 3.45481
47.3067 60.9831 0.0058014
46.5806 59.7687 2
45.4188 58.7692 3.99479
39.632 67.7551 0.0198806
41.5457 65.63 0.0237775
43.1436 63.7019 0.0217819
44.4743 61.8002 0.0208475
45.7411 60.6029 0.009346
41.5991 63.7964 2
37.5639 67.7376 2
39.6482 65.5948 2
44.5989 60.2587 2
42.9409 62.0539 2
41.7467 62.4604 3.97678
42.4608 59.9481 3.98285
39.8939 63.5307 3.97622
37.6416 65.4903 3.97489
35.4638 67.6456 3.97826
33.5762 65.3236 3.97437
31.9607 63.2715 3.97681
29.8863 64.7022 3.97931
31.6979 65.1118 2
31.3782 67.1852 3.97871
33.3928 67.4751 2
33.1578 69.7468 3.98424
35.3336 69.9546 2
35.1959 72.3713 3.99202
37.5258 70.0425 0.0160248
37.5093 72.4571 2
37.5 75 4
39.8161 72.4023 0.00861591
39.9526 74.9197 2
42.3947 74.6792 0
39.6249 4.7186 3.98904
41.7369 4.9704 2
42.0636 2.71873 3.99277
43.852 5.36292 0.0128687
44.3271 3.11076 2
44.8158 0.721173 4
46.5714 3.6488 0.00826795
47.2057 1.27779 2
49.554 1.99015 0
57.2704 40.5885 0.0227072
59.1556 37.5658 0.0226865
54.1069 39.6396 0.0245584
48.5041 41.2205 2
55.9977 37.8709 2
52.0367 39.239 2
52.9006 36.6137 3.97762
46.4119 40.2896 3.89349
49.4203 38.5025 3.98294
37.518 6.67708 3.9851
39.4446 6.80583 2
39.2116 8.70031 3.9816
35.9441 8.49801 3.98332
56.6424 34.8157 0.0228582
54.9649 31.6626 0.0243983
53.8249 28.6248 0.023002
53.7751 20.2874 0.0394579
53.2287 22.928 0.042347
53.2396 25.7471 0.0255055
51.5134 19.5043 0.0259877
49.9235 17.796 0.0428543
48.886 15.476 0.0316376
45.3599 8.00021 0.0133801
47.7205 13.1381 0.0266934
46.6626 10.6711 0.0215923
41.4003 7.08437 0.0165593
42.8667 9.42741 0.0234111
53.9263 34.0143 2
41.0148 9.0598 2
44.7264 9.99939 2
42.4609 10.9123 2
52.6553 30.7197 2
51.944 27.4837 2
52.166 21.2609 2
51.7192 24.3787 2
45.984 12.739 2
47.6356 14.6224 2
49.7467 19.8877 2
48.0291 17.0614 2
51.4215 32.9402 3.98207
50.495 29.4425 3.97735
50.2402 25.9775 3.97006
49.7335 22.5012 3.98565
40.5631 11.6205 3.98416
43.8384 11.9165 3.97597
45.7602 15.499 3.98975
47.4336 19.5169 3.98054
45.3367 37.4834 3.84567
48.807 60.1734 0.0209922
49.6848 57.5585 0.0360529
51.456 42.4928 0.0166174
51.0482 47.0555 0.0244431
50.7287 50.7847 0.0452181
50.3417 54.3238 0.0382533
47.1489 43.5372 0.0264732
47.9149 58.6924 2
49.1555 45.0956 2
48.4299 55.8448 2
48.7936 52.4784 2
49.0874 48.8623 2
44.978 39.7964 2
45.4096 42.4831 2
45.671 45.55 2
42.7737 41.0471 2
41.5396 41.7751 2
46.7409 57.292 3.98038
43.4288 39.348 3.65347
41.8795 40.6942 3.46071
47.3395 47.107 3.98387
46.9452 54.1465 3.95943
47.1639 50.6149 3.97749
44.2194 47.1592 3.98436
44.0316 41.8046 3.84612
44.1595 44.2652 3.88191
41.7859 42.3887 3.70029
40.5437 42.0394 3.42685
46.582 59.7744 0.00613975
45.4187 58.7678 2
43.8262 57.6489 3.98309
37.5633 67.7358 0.0216774
39.6468 65.5943 0.0243958
41.5989 63.7989 0.0230221
42.943 62.0541 0.0251597
44.598 60.2573 0.00400774
35.4639 67.6478 2
41.745 62.4631 2
39.8932 63.5308 2
37.6425 65.4922 2
42.4633 59.9453 2
40.6169 61.6015 3.98218
40.4243 58.1225 3.98453
37.837 63.1866 3.97257
35.5729 65.4131 3.97647
33.5763 65.3238 2
31.9625 63.2751 2
33.6294 63.3146 3.97538
30.381 62.834 3.98122
32.1298 61.9743 3.98738
26.8835 61.4518 3.98049
28.0677 64.1311 3.97963
29.8858 64.7023 2
29.4083 66.7479 3.97888
31.6983 65.1124 0.024655
31.378 67.185 2
31.0156 69.4125 3.98416
33.3932 67.4741 0.0217968
33.157 69.7476 2
32.8941 72.1457 3.99133
35.3341 69.9532 0.0156979
35.1955 72.372 2
35.0474 74.9194 4
37.509 72.4566 0.00806005
37.5 75 2
39.9526 74.9197 0
35.6225 6.72864 3.98427
37.5248 4.61759 3.98937
39.6249 4.71704 2
39.7901 2.47538 3.99288
41.7368 4.97094 0.0119989
42.0633 2.71833 2
42.3946 0.32156 4
44.327 3.11173 0.00761636
44.8159 0.72056 2
47.2057 1.27793 0
48.4815 41.2133 0.0296877
55.9959 37.8743 0.0231977
52.0425 39.2754 0.0181832
46.4316 40.2967 2
49.4189 38.4996 2
52.9035 36.6417 2
50.2264 35.5575 3.9743
47.0682 37.7536 3.89869
44.9044 35.1962 3.84608
42.7664 33.9593 3.6544
41.5377 33.2051 3.45361
37.4594 8.53775 3.98442
37.5185 6.67656 2
39.444 6.8076 0.0160798
39.2134 8.69788 2
38.9757 10.1368 3.98562
35.9002 9.78086 3.98005
34.154 8.83 3.98124
35.9451 8.49544 2
53.928 34.0175 0.0251526
52.6619 30.7223 0.0247464
51.9364 27.4815 0.0251431
52.1688 21.251 0.0247873
51.7324 24.3743 0.0215672
49.726 19.9039 0.019342
48.0326 17.0512 0.0331861
47.6435 14.6519 0.033785
44.7264 10.0024 0.014686
45.9829 12.7468 0.0315931
41.0136 9.05837 0.0227917
42.4597 10.9115 -0.00437517
51.4342 32.9336 2
40.5659 11.6243 2
43.8378 11.9084 2
50.5123 29.443 2
50.2358 25.9845 2
49.7173 22.488 2
45.7485 15.4442 2
47.4363 19.5475 2
49.0106 31.557 3.98528
48.6044 27.7464 3.97634
48.9995 24.6188 3.98101
47.0556 22.2879 3.9902
38.2988 12.7531 3.97715
42.0799 14.3313 3.98069
44.7484 18.626 3.97357
43.8508 37.4845 3.6671
45.4361 37.4876 2
47.9187 58.6865 0.0110362
48.4341 55.8423 0.0415249
49.1394 45.08 0.0190087
49.0828 48.8599 0.0299556
48.7926 52.4733 0.023635
44.8773 39.7705 0.15291
45.3816 42.4629 0.112138
45.6631 45.5306 0.0173365
42.717 40.9928 0.344842
41.5005 41.7503 0.545195
46.7373 57.2987 2
43.5036 39.3749 2
41.8888 40.7073 2
47.3475 47.1041 2
46.94 54.151 2
47.166 50.6239 2
44.2543 47.1577 2
44.0943 41.8387 2
44.2173 44.2939 2
41.8427 42.4492 2
40.5784 42.0554 2
45.2692 55.8701 4.00041
42.2236 39.1862 3.47126
40.4328 40.5755 3.5722
45.57 48.7492 4.00161
45.2255 52.4069 3.98609
42.9834 48.1528 3.99365
42.8654 45.7918 3.87688
42.9551 43.5682 3.83019
40.6745 43.3694 3.67505
39.1629 42.2966 3.48206
45.4188 58.7692 0.00521342
43.824 57.6581 2
42.049 56.2262 3.98907
35.4638 67.6456 0.0217377
37.6416 65.4903 0.0251074
39.8939 63.5307 0.0237776
41.7467 62.4604 0.023225
42.4608 59.9481 0.0171537
35.5737 65.4163 2
40.6169 61.5997 2
37.8376 63.1854 2
40.4247 58.1268 2
38.9031 56.3682 3.99378
38.2451 60.2827 3.98182
35.607 63.1809 3.97234
33.5762 65.3236 0.0256305
31.9607 63.2715 0.023188
33.6314 63.3161 2
30.3823 62.8367 2
32.1321 61.977 2
28.6889 62.1728 3.98002
33.3488 61.48 3.97923
31.0804 61.1997 3.9845
27.5994 59.5462 3.97962
23.8356 59.0201 3.9931
25.0544 60.8179 3.97648
26.8846 61.4524 2
26.2376 63.4609 3.97578
28.0671 64.1293 2
27.4656 66.171 3.97862
29.8863 64.7022 0.0206917
29.4078 66.7473 2
28.9083 68.9376 3.98315
31.3782 67.1852 0.0212885
31.0148 69.4123 2
30.617 71.7773 3.99074
33.1578 69.7468 0.0157642
32.8932 72.1461 2
32.6054 74.6784 4
35.1959 72.3713 0.00798235
35.0474 74.9197 2
37.5 75 0
33.7255 6.98477 3.98292
35.4369 4.68772 3.98894
35.6229 6.72729 2
37.5159 2.38775 3.993
37.5247 4.61689 2
39.6249 4.7186 0.0109599
39.7897 2.47453 2
39.9526 0.0806499 4
42.0636 2.71873 0.00722972
42.3947 0.320817 2
44.8158 0.721173 0
43.4491 35.6167 3.65819
41.9044 34.2564 3.44719
46.4119 40.2896 0.106506
49.4203 38.5025 0.0170611
52.9006 36.6137 0.0223762
47.0643 37.7339 2
50.239 35.5594 2
44.9881 35.1773 2
42.8101 33.9096 2
41.5657 33.1796 2
47.2778 34.3657 3.9406
44.0882 33.1583 3.83556
41.8397 32.5688 3.69867
40.5737 32.9254 3.42585
37.3118 10.6351 3.98139
37.4609 8.53778 2
37.518 6.67708 0.0149024
39.2116 8.70031 0.0183967
38.9794 10.1346 2
34.7571 10.3907 3.97982
35.9027 9.77571 2
32.381 9.37624 3.97758
34.1533 8.82558 2
35.9441 8.49801 0.0166805
51.4215 32.9402 0.0179336
50.495 29.4425 0.0226528
50.2402 25.9775 0.0299435
49.7335 22.5012 0.0143467
47.4336 19.5169 0.0194636
45.7602 15.499 0.0102458
43.8384 11.9165 0.0240327
40.5631 11.6205 0.0158433
49.0314 31.5413 2
38.3007 12.7483 2
42.0868 14.3443 2
48.6046 27.7484 2
48.9915 24.625 2
47.0408 22.2886 2
44.7525 18.6939 2
46.9393 29.7409 3.98322
46.6829 25.3345 3.9732
44.1968 21.6303 3.981
36.586 12.967 3.97474
38.6763 14.8699 3.97542
41.7184 17.9607 3.97769
42.3919 37.4636 3.50782
43.9139 37.486 2
45.3367 37.4834 0.154327
46.7409 57.292 0.0196204
46.9452 54.1465 0.0405738
47.3395 47.107 0.0161309
47.1639 50.6149 0.0225061
43.4288 39.348 0.346533
44.0316 41.8046 0.153879
44.1595 44.2652 0.118087
44.2194 47.1592 0.0156433
41.7859 42.3887 0.29971
41.8795 40.6942 0.539287
40.5437 42.0394 0.57315
45.2656 55.8731 2
42.2293 39.1935 2
40.4745 40.5624 2
45.5712 48.769 2
45.2207 52.4096 2
43.0191 48.1681 2
42.9245 45.8436 2
43.0065 43.6009 2
40.7198 43.4401 2
39.1576 42.3157 2
43.5905 54.3242 3.99673
40.532 39.0305 3.59401
39.0586 40.6529 3.54132
43.3031 50.2423 4.00342
41.6281 47.2955 3.92391
41.5376 44.887 3.84051
39.3469 44.0191 3.64336
37.5026 42.4192 3.52836
43.8262 57.6489 0.0169084
42.0532 56.219 2
40.3627 54.7845 3.99479
35.5729 65.4131 0.0235267
37.837 63.1866 0.0274315
40.6169 61.6015 0.0178187
40.4243 58.1225 0.0154708
35.6084 63.1782 2
38.2436 60.2826 2
38.9058 56.35 2
37.9771 55.0436 3.99485
36.9261 57.5613 3.99131
35.3643 60.8781 3.9797
33.6294 63.3146 0.0246217
30.381 62.834 0.0187752
32.1298 61.9743 0.012617
33.3503 61.4803 2
28.69 62.1767 2
31.0824 61.2051 2
29.4257 60.2559 3.97712
32.3694 59.6923 3.99639
28.0726 58.333 4.01579
27.6012 59.5446 2
25.4245 58.5408 3.97917
22.825 58.1761 3.96797
23.4249 60.2845 3.97657
23.8379 59.0204 2
25.0561 60.8172 2
24.4439 62.7406 3.97626
26.8835 61.4518 0.019515
26.238 63.4596 2
25.5506 65.4799 3.97722
28.0677 64.1311 0.0203695
27.4653 66.1714 2
26.8382 68.3253 3.98287
29.4083 66.7479 0.0211195
28.9075 68.9371 2
28.3723 71.2626 3.98993
31.0156 69.4125 0.0158386
30.6159 71.777 2
30.1842 74.2788 4
32.8941 72.1457 0.0086659
32.6053 74.6792 2
35.0474 74.9194 0
31.7899 7.42411 3.98151
33.3494 4.92747 3.9879
33.7253 6.98218 2
35.2463 2.46362 3.99304
35.4367 4.687 2
35.6225 6.72864 0.0157341
37.5 0 4
37.5151 2.38732 2
37.5248 4.61759 0.0106272
39.7901 2.47538 0.00712064
39.9526 0.0802889 2
42.3946 0.32156 0
42.2181 35.7389 3.45348
43.533 35.5865 2
40.4783 34.3759 3.57297
41.905 34.2388 2
47.0682 37.7536 0.101314
50.2264 35.5575 0.0257008
44.9044 35.1962 0.153922
42.7664 33.9593 0.345601
41.5377 33.2051 0.546389
47.309 34.3814 2
44.1331 33.1198 2
41.892 32.5071 2
40.6045 32.9089 2
45.4023 31.7881 3.89865
43.006 31.3926 3.82278
40.7189 31.5921 3.67469
39.1817 32.6853 3.47739
35.6965 11.7889 3.97623
37.3162 10.6343 2
37.4594 8.53775 0.0155822
38.9757 10.1368 0.0143832
33.1022 11.2288 3.97287
34.7568 10.3827 2
35.9002 9.78086 0.0199549
30.4867 10.0282 3.97708
32.3803 9.3748 2
34.154 8.83 0.0187644
49.0106 31.557 0.0147217
48.6044 27.7464 0.0236595
48.9995 24.6188 0.0189871
47.0556 22.2879 0.00979677
44.7484 18.626 0.0264323
42.0799 14.3313 0.019309
38.2988 12.7531 0.0228534
36.5832 12.9453 2
46.9446 29.6867 2
38.6756 14.8484 2
41.7104 17.9629 2
46.6818 25.3366 2
44.1811 21.6071 2
44.9282 27.8819 3.99418
43.5427 24.2717 4.02412
41.2742 20.9748 3.99095
35.7708 14.8068 3.98024
38.6587 17.6896 3.98328
40.5884 37.444 3.61164
42.4048 37.4682 2
43.8508 37.4845 0.332897
45.2692 55.8701 -0.000410139
45.2255 52.4069 0.0139053
45.57 48.7492 -0.00160786
42.2236 39.1862 0.528741
42.9551 43.5682 0.169812
42.8654 45.7918 0.123123
42.9834 48.1528 0.00634885
40.6745 43.3694 0.324947
40.4328 40.5755 0.427796
39.1629 42.2966 0.517942
43.5873 54.321 2
40.5463 39.0311 2
39.0569 40.6502 2
43.2951 50.2559 2
41.6299 47.3311 2
41.5582 44.9332 2
37.4978 42.4423 2
39.3658 44.0899 2
41.7405 52.7864 4.00022
39.0677 39.0728 3.54664
37.5051 40.7076 3.5787
35.8502 42.3065 3.47869
40.7762 49.3801 3.99384
39.7004 45.6068 3.80556
37.5002 44.2907 3.67922
42.049 56.2262 0.0109267
40.3622 54.7929 2
38.7185 53.5791 3.99655
35.607 63.1809 0.0276591
38.2451 60.2827 0.0181757
38.9031 56.3682 0.00622218
35.3639 60.8688 2
36.9275 57.5711 2
37.977 55.0407 2
36.3145 55.1285 3.99742
34.4935 58.4747 3.99348
33.3488 61.48 0.0207719
28.6889 62.1728 0.0199786
31.0804 61.1997 0.015504
32.3688 59.6946 2
29.4271 60.2558 2
30.3419 57.7752 3.98656
28.0758 58.331 2
27.0464 56.7792 3.96938
27.5994 59.5462 0.0203757
25.4273 58.5401 2
23.9577 56.7301 3.95986
21.4487 57.3156 3.95838
22.0278 59.5588 3.98023
22.8269 58.1774 2
22.7511 61.9808 3.9728
23.4266 60.2845 2
23.8356 59.0201 0.00690396
25.0544 60.8179 0.0235215
24.4448 62.7427 2
23.6868 64.6948 3.9749
26.2376 63.4609 0.0242188
25.5506 65.4814 2
24.8105 67.5866 3.98185
27.4656 66.171 0.0213832
26.8372 68.3266 2
26.1676 70.6032 3.98964
28.9083 68.9376 0.016849
28.3711 71.2621 2
27.7943 73.7221 4
30.617 71.7773 0.00926294
30.1841 74.2794 2
32.6054 74.6784 0
29.8128 8.00022 3.97967
31.2548 5.33415 3.98693
31.7894 7.42256 2
32.9824 2.70182 3.99261
33.3489 4.92596 2
33.7255 6.98477 0.0170827
35.0474 0.080333 4
35.2455 2.46337 2
35.4369 4.68772 0.0110557
37.5 0 2
37.5159 2.38775 0.00700244
39.9526 0.0806499 0
40.5889 35.8861 3.60036
42.2274 35.7395 2
43.4491 35.6167 0.341814
28.5469 10.7024 3.97714
39.0717 34.3283 3.53737
40.4901 34.3824 2
41.9044 34.2564 0.552805
47.2778 34.3657 0.0593974
44.0882 33.1583 0.164442
41.8397 32.5688 0.30133
40.5737 32.9254 0.574153
45.4376 31.7715 2
43.0543 31.3553 2
40.7648 31.5205 2
39.1835 32.6655 2
43.7985 30.0236 3.88998
41.562 30.0668 3.84097
39.3769 30.9501 3.64272
37.5321 32.5714 3.52562
34.1 12.9529 3.97528
35.6966 11.7755 2
37.3118 10.6351 0.0186118
31.1928 12.0004 3.97788
33.1028 11.2272 2
34.7571 10.3907 0.0201781
30.4843 10.0227 2
32.381 9.37624 0.0224189
46.9393 29.7409 0.0167846
46.6829 25.3345 0.0268041
36.586 12.967 0.0252587
44.1968 21.6303 0.0190046
41.7184 17.9607 0.0223096
38.6763 14.8699 0.0245822
35.7737 14.8126 2
44.9215 27.8798 2
38.6584 17.6929 2
41.2574 20.9656 2
43.5288 24.2532 2
33.617 15.9108 3.98776
42.7017 26.7139 3.98249
40.7723 23.5782 3.99401
38.3837 20.4697 3.9943
35.8447 17.5753 3.98712
39.0885 37.4869 3.55687
40.5948 37.449 2
42.3919 37.4636 0.492177
43.5905 54.3242 0.00327444
43.3031 50.2423 -0.00341742
40.532 39.0305 0.405993
41.5376 44.887 0.159494
41.6281 47.2955 0.0760851
39.3469 44.0191 0.356636
39.0586 40.6529 0.458682
37.5026 42.4192 0.471643
41.7316 52.7874 2
39.0596 39.0606 2
37.5004 40.6995 2
40.756 49.3952 2
35.851 42.324 2
39.7192 45.6677 2
37.4951 44.3566 2
39.7093 51.5753 4.00267
37.51 39.0742 3.58769
35.9598 40.6679 3.54253
34.4622 42.0562 3.42849
35.6518 44.0362 3.63501
38.6532 48.2597 3.93338
37.5316 45.9002 3.8395
40.3627 54.7845 0.00521301
38.7172 53.5775 2
36.7654 52.9041 3.99688
35.3643 60.8781 0.0203046
36.9261 57.5613 0.00869357
37.9771 55.0436 0.00514506
34.4915 58.474 2
36.3183 55.1181 2
33.2758 55.3324 3.99291
32.3694 59.6923 0.00361334
29.4257 60.2559 0.02288
30.3447 57.7704 2
28.8453 55.2827 3.98943
28.0726 58.333 -0.0157914
27.0499 56.7771 2
25.4958 55.0603 3.95485
22.0127 55.2432 3.96063
25.4245 58.5408 0.0208343
23.9607 56.7317 2
20.323 56.9474 3.96281
20.6904 58.7146 3.96464
21.4516 57.3169 2
21.1868 61.1088 3.97239
22.0291 59.5601 2
22.825 58.1761 0.0320279
21.9028 63.8138 3.97421
22.7526 61.9818 2
23.4249 60.2845 0.0234281
24.4439 62.7406 0.0237446
23.6867 64.6943 2
22.8392 66.7285 3.97866
25.5506 65.4799 0.0227764
24.8096 67.5871 2
24.0119 69.8049 3.98954
26.8382 68.3253 0.0171327
26.1659 70.6033 2
25.446 73.0099 4
28.3723 71.2626 0.0100725
27.7943 73.7222 2
30.1842 74.2788 0
27.8227 8.65987 3.9801
29.157 5.88103 3.98512
29.8113 7.99627 2
30.7279 3.0986 3.99233
31.2541 5.3327 2
31.7899 7.42411 0.0184859
32.6053 0.320823 4
32.9812 2.70129 2
33.3494 4.92747 0.0120962
35.0474 0.0802903 2
35.2463 2.46362 0.00696315
37.5 0 0
39.047 35.9088 3.55787
40.5703 35.8848 2
42.2181 35.7389 0.546523
28.5446 10.6994 2
26.6259 11.4003 3.97766
29.2338 12.651 3.98138
37.5287 34.2891 3.57835
39.0911 34.3441 2
40.4783 34.3759 0.42703
45.4023 31.7881 0.101346
43.006 31.3926 0.177225
40.7189 31.5921 0.325306
39.1817 32.6853 0.522613
43.8278 29.9906 2
41.5903 30.0227 2
39.3877 30.881 2
37.5345 32.5457 2
41.9842 28.7161 3.86193
39.706 29.3523 3.82802
37.5286 30.6997 3.68456
35.8696 32.6857 3.48449
31.9299 14.4995 3.98129
34.1001 12.9578 2
35.6965 11.7889 0.0237738
31.1905 11.9915 2
33.1022 11.2288 0.0271316
30.4867 10.0282 0.022922
44.9282 27.8819 0.00582477
43.5427 24.2717 -0.0241243
35.7708 14.8068 0.0197629
41.2742 20.9748 0.0090548
38.6587 17.6896 0.0167207
33.61 15.8941 2
35.8401 17.5656 2
42.743 26.6918 2
38.3669 20.5245 2
40.7647 23.5615 2
33.5527 17.4551 3.98295
40.2056 26.0247 3.95877
38.0278 23.3309 3.99772
35.5541 20.2347 3.99633
37.5175 37.4864 3.60331
39.0738 37.4781 2
40.5884 37.444 0.388362
41.7405 52.7864 -0.000215731
40.7762 49.3801 0.00616469
39.0677 39.0728 0.45336
39.7004 45.6068 0.194436
37.5002 44.2907 0.320777
37.5051 40.7076 0.421295
35.8502 42.3065 0.521311
39.69 51.5778 2
37.5113 39.0716 2
35.9567 40.6567 2
38.6721 48.3204 2
34.4328 42.0721 2
35.6328 44.1016 2
37.522 45.96 2
37.6811 50.5664 3.99385
35.9745 39.083 3.55754
34.5776 40.6015 3.57583
33.4996 41.7696 3.4575
34.3406 43.3835 3.66802
35.2637 45.6338 3.82576
36.9206 47.8679 3.89806
38.7185 53.5791 0.00344617
36.7619 52.8705 2
34.4643 52.2278 3.99911
34.4935 58.4747 0.00651714
36.3145 55.1285 0.00257543
33.2816 55.341 2
30.6883 53.2457 3.99508
30.3419 57.7752 0.0134403
28.848 55.2778 2
27.1388 53.3463 3.95705
27.0464 56.7792 0.0306185
25.4998 55.0611 2
23.8701 53.3543 3.95434
20.8306 53.0804 3.95821
20.1099 55.7328 3.96157
22.0128 55.2447 2
23.9577 56.7301 0.040144
19.5066 57.8185 3.96234
20.3204 56.9495 2
19.728 60.1411 3.97504
20.6897 58.7161 2
21.4487 57.3156 0.041623
20.2182 62.8193 3.97138
21.1878 61.1105 2
22.0278 59.5588 0.0197748
20.9412 65.754 3.9759
21.9031 63.8172 2
22.7511 61.9808 0.0272024
23.6868 64.6948 0.0250984
22.8383 66.7285 2
21.9146 68.8719 3.98864
24.8105 67.5866 0.0181517
24.0096 69.8041 2
23.1494 72.1454 4
26.1676 70.6032 0.0103562
25.446 73.0099 2
27.7943 73.7221 0
25.8621 9.38964 3.97865
27.0717 6.54538 3.9837
27.8204 8.65759 2
28.4904 3.64455 3.99148
29.1557 5.87867 2
29.8128 8.00022 0.0203278
30.1841 0.720592 4
30.7263 3.09826 2
31.2548 5.33415 0.0130715
32.6053 0.320817 2
32.9824 2.70182 0.00738936
35.0474 0.080333 0
37.5132 35.9041 3.58202
39.0302 35.8995 2
40.5889 35.8861 0.399644
24.7839 12.0875 3.97627
23.7689 14.4004 3.97786
28.5469 10.7024 0.0228586
26.6234 11.3965 2
29.2306 12.6493 2
27.3011 13.3854 3.97774
29.7972 14.2102 3.98337
35.9682 34.3285 3.54361
37.537 34.2947 2
39.0717 34.3283 0.46263
37.5321 32.5714 0.474378
43.7985 30.0236 0.110024
41.562 30.0668 0.159028
39.3769 30.9501 0.357276
42.02 28.654 2
39.7311 29.2938 2
37.5306 30.6335 2
35.8715 32.6695 2
39.8707 27.9859 3.87535
37.489 29.081 3.83101
35.685 30.9676 3.64449
34.4813 32.9379 3.43015
30.9472 16.8544 3.9923
31.9233 14.4847 2
34.1 12.9529 0.0247155
31.1928 12.0004 0.022119
42.7017 26.7139 0.0175148
40.7723 23.5782 0.00599304
33.617 15.9108 0.0122445
35.8447 17.5753 0.0128816
38.3837 20.4697 0.0057018
33.5449 17.4622 2
35.5588 20.2418 2
40.2745 26.0029 2
38.0166 23.2944 2
32.8991 19.8592 3.99558
37.6643 25.6613 3.96443
35.262 22.9827 4.00396
35.9525 37.4821 3.55946
37.5081 37.4857 2
39.0885 37.4869 0.443127
39.7093 51.5753 -0.00267193
38.6532 48.2597 0.0666194
37.51 39.0742 0.41231
37.5316 45.9002 0.160499
35.6518 44.0362 0.364987
35.9598 40.6679 0.457473
34.4622 42.0562 0.571509
37.6619 50.6055 2
35.9965 39.0708 2
34.5374 40.5981 2
36.9094 47.9307 2
33.4621 41.7966 2
34.2919 43.4519 2
35.2427 45.6889 2
35.5673 49.7604 3.98467
34.4719 39.0749 3.59781
33.1289 40.7201 3.45307
33.212 42.4058 3.70467
33.5 44.8944 3.82975
34.5068 47.022 3.87051
36.7654 52.9041 0.00311999
34.4532 52.2396 2
32.2644 51.0403 4.00877
33.2758 55.3324 0.00708805
30.6925 53.2467 2
28.7431 51.4477 3.98158
28.8453 55.2827 0.0105723
27.1414 53.3437 2
25.4528 51.5873 3.95296
25.4958 55.0603 0.0451489
23.8727 53.3608 2
22.4017 51.6418 3.95211
19.6953 51.469 3.96176
19.2132 54.1851 3.96132
20.8339 53.0786 2
18.5798 56.6376 3.96308
20.1089 55.7342 2
22.0127 55.2432 0.0393668
18.401 59.0524 3.96464
19.5042 57.8202 2
20.323 56.9474 0.0371866
18.6327 61.7118 3.97165
19.7287 60.1431 2
20.6904 58.7146 0.0353603
19.1309 64.6644 3.97483
20.2188 62.8232 2
21.1868 61.1088 0.0276135
19.8889 67.8081 3.9861
20.9405 65.7534 2
21.9028 63.8138 0.0257897
22.8392 66.7285 0.0213367
21.9119 68.8705 2
20.9142 71.1327 4
24.0119 69.8049 0.0104604
23.1494 72.1455 2
25.446 73.0099 0
23.1069 12.8154 3.97696
23.9747 10.1783 3.97574
25.0252 7.31658 3.98207
25.8591 9.3873 2
26.2822 4.32863 3.99056
27.0699 6.54409 2
27.8227 8.65987 0.0199004
27.7943 1.27781 4
28.488 3.64431 2
29.157 5.88103 0.0148835
30.1841 0.720551 2
30.7279 3.0986 0.00767333
32.6053 0.320823 0
35.9568 35.8932 3.54696
37.5359 35.9129 2
39.047 35.9088 0.442131
24.7802 12.0866 2
23.7689 14.4038 2
22.504 15.0919 3.97761
25.3706 13.9432 3.97166
24.0585 15.6593 3.98657
26.6259 11.4003 0.022336
29.2338 12.651 0.0186222
27.3013 13.3833 2
29.7892 14.2086 2
28.3846 15.9769 3.98559
34.5972 34.3979 3.5711
35.9671 34.331 2
37.5287 34.2891 0.421652
35.8696 32.6857 0.515505
37.5286 30.6997 0.315438
41.9842 28.7161 0.138074
39.706 29.3523 0.171981
39.8988 27.9407 2
37.4878 29.0228 2
35.67 30.8938 2
34.4469 32.9234 2
37.629 27.7154 3.87121
35.3241 29.3675 3.82606
34.3461 31.6092 3.6737
33.5177 33.2225 3.45518
30.2436 19.4531 3.98129
30.9381 16.8412 2
31.9299 14.4995 0.0187114
40.2056 26.0247 0.0412267
38.0278 23.3309 0.0022821
33.5527 17.4551 0.017054
35.5541 20.2347 0.00366959
32.9003 19.8879 2
35.2546 22.9736 2
37.7124 25.6412 2
32.4569 22.5996 3.99721
35.1443 25.5685 3.98966
34.4319 37.5053 3.61621
35.9519 37.4929 2
37.5175 37.4864 0.396687
37.6811 50.5664 0.00614575
36.9206 47.8679 0.101941
35.9745 39.083 0.442464
35.2637 45.6338 0.17424
34.3406 43.3835 0.331977
34.5776 40.6015 0.424166
33.4996 41.7696 0.542497
35.5489 49.7743 2
34.4647 39.0735 2
33.1214 40.733 2
34.4754 47.0804 2
33.166 42.4663 2
33.4717 44.9419 2
33.4366 48.8602 3.97306
32.8014 39.2274 3.4582
32.2672 41.0145 3.65611
32.0414 43.5831 3.82853
32.7002 46.0127 3.87128
34.4643 52.2278 0.000891026
32.2762 51.0464 2
30.2892 49.597 4.0005
30.6883 53.2457 0.0049161
28.7471 51.4446 2
26.9751 49.8117 3.97481
27.1388 53.3463 0.042947
25.4544 51.5902 2
23.8561 49.9971 3.96595
23.8701 53.3543 0.0456608
22.4045 51.6397 2
21.0264 50.1277 3.96412
18.473 50.1734 3.97026
18.24 52.6497 3.9643
19.6925 51.4682 2
17.6696 55.2353 3.96235
19.2123 54.1847 2
20.8306 53.0804 0.0417886
17.2153 57.8068 3.96084
18.5766 56.6388 2
20.1099 55.7328 0.0384291
17.1481 60.5004 3.96651
18.4004 59.0535 2
19.5066 57.8185 0.0376631
17.4143 63.44 3.96922
18.6341 61.7128 2
19.728 60.1411 0.0249583
17.9449 66.6155 3.98428
19.1304 64.6625 2
20.2182 62.8193 0.0286172
18.75 69.9759 4
19.8861 67.8056 2
20.9412 65.754 0.0241006
21.9146 68.8719 0.0113572
20.9142 71.1327 2
23.1494 72.1454 0
21.6029 13.6493 3.97447
22.1952 11.0472 3.97337
23.1047 12.8173 2
23.0425 8.18342 3.97951
23.9722 10.1796 2
24.1199 5.1435 3.99001
25.0226 7.31532 2
25.8621 9.38964 0.0213508
25.446 1.99014 4
26.2792 4.32923 2
27.0717 6.54538 0.0163023
27.7943 1.27778 2
28.4904 3.64455 0.00852428
30.1841 0.720592 0
34.501 35.9283 3.59297
35.9693 35.9087 2
37.5132 35.9041 0.417979
21.3396 15.8968 3.97682
24.7839 12.0875 0.0237341
23.7689 14.4004 0.02214
25.3695 13.9204 2
22.5056 15.086 2
24.0623 15.6641 2
23.3095 16.2995 3.96609
25.4159 16.1288 3.98628
27.3011 13.3854 0.0222627
29.7972 14.2102 0.0166262
28.3754 15.9918 2
27.4839 18.8851 3.9833
33.1416 34.2794 3.46319
34.5554 34.4106 2
35.9682 34.3285 0.456391
34.4813 32.9379 0.569853
35.685 30.9676 0.355513
37.489 29.081 0.168987
39.8707 27.9859 0.124648
37.5997 27.6757 2
33.4841 33.1975 2
35.3218 29.3046 2
34.3016 31.5393 2
35.2126 27.8067 3.88539
33.4925 30.0882 3.83153
33.2334 32.5855 3.7028
29.7719 22.057 4.00698
30.2454 19.4678 2
30.9472 16.8544 0.00770061
37.6643 25.6613 0.0355741
35.262 22.9827 -0.00396398
32.8991 19.8592 0.0044151
32.4588 22.5884 2
35.1718 25.5603 2
32.0387 25.8714 4.00701
32.6258 37.5025 3.50622
34.4411 37.499 2
35.9525 37.4821 0.440536
35.5673 49.7604 0.0153311
34.5068 47.022 0.129488
34.4719 39.0749 0.402194
33.5 44.8944 0.170246
33.212 42.4058 0.295328
33.1289 40.7201 0.546932
33.4187 48.8613 2
32.8086 39.2361 2
32.2221 41.0648 2
32.6729 46.0652 2
31.9887 43.6172 2
31.6381 47.7053 3.9817
31.5796 39.3661 3.65851
30.9528 41.8268 3.84043
31.119 44.6477 3.88185
32.2644 51.0403 -0.00876934
30.2976 49.6266 2
28.4588 47.987 3.96807
28.7431 51.4477 0.0184229
26.9755 49.8144 2
25.275 48.2528 3.96544
25.4528 51.5873 0.0470429
23.8594 49.9958 2
22.3188 48.5726 3.97109
22.4017 51.6418 0.0478941
21.0268 50.1264 2
19.5958 48.9144 3.97363
17.3485 49.189 3.97506
17.1817 51.2719 3.9693
18.475 50.1716 2
16.6853 53.7573 3.96557
18.2374 52.6495 2
19.6953 51.469 0.0382363
16.1181 56.3991 3.96198
17.6695 55.2355 2
19.2132 54.1851 0.0386817
15.7685 59.1685 3.9624
17.2102 57.8089 2
18.5798 56.6376 0.0369226
15.7938 62.1006 3.96807
17.1499 60.5024 2
18.401 59.0524 0.0353615
16.0914 65.2976 3.98217
17.4133 63.4449 2
18.6327 61.7118 0.0283451
16.6661 68.6801 4
17.9421 66.6125 2
19.1309 64.6644 0.0251712
18.75 69.9759 2
19.8889 67.8081 0.0139024
20.9142 71.1327 0
20.2389 14.6573 3.96802
21.6007 13.6609 2
20.5377 12.0312 3.97362
21.1458 9.15666 3.97702
22.1921 11.045 2
23.1069 12.8154 0.023045
22.0191 6.08212 3.98923
23.0401 8.18363 2
23.9747 10.1783 0.0242554
23.1494 2.85457 4
24.1162 5.1444 2
25.0252 7.31658 0.0179251
25.446 1.99012 2
26.2822 4.32863 0.00943652
27.7943 1.27781 0
32.7917 35.7829 3.47151
34.4829 35.928 2
35.9568 35.8932 0.453037
21.3431 15.89 2
20.3562 17.0233 3.96639
22.1425 16.6966 3.96417
25.3706 13.9432 0.0283358
22.504 15.0919 0.0223918
24.0585 15.6593 0.013425
25.4176 16.1251 2
23.3141 16.2956 2
24.2658 18.5789 3.97006
27.2048 21.6793 3.99375
28.3846 15.9769 0.0144115
27.4814 18.9277 2
32.306 33.9781 3.65041
33.1363 34.263 2
34.5972 34.3979 0.428899
33.5177 33.2225 0.544824
34.3461 31.6092 0.326303
35.3241 29.3675 0.173937
37.629 27.7154 0.128786
35.2128 27.759 2
33.1602 32.5238 2
33.4622 30.0459 2
32.9456 28.4509 3.89374
32.0499 31.4083 3.81931
29.1725 24.5524 4.00895
29.7581 22.0824 2
30.2436 19.4531 0.0187074
35.1443 25.5685 0.0103416
32.4569 22.5996 0.00279154
32.0277 25.8443 2
30.1884 27.5345 3.97617
31.1703 37.4915 3.66375
32.6291 37.5018 2
34.4319 37.5053 0.383795
33.4366 48.8602 0.0269422
32.7002 46.0127 0.128721
32.8014 39.2274 0.541802
32.0414 43.5831 0.171474
32.2672 41.0145 0.343894
31.59 47.7312 2
31.5009 39.3865 2
30.9036 41.8662 2
31.0748 44.688 2
29.8912 46.3142 3.98964
30.1187 39.7897 3.84909
29.6343 42.936 3.89395
30.2892 49.597 -0.000502483
28.4567 47.9883 2
26.6963 46.4181 3.98012
26.9751 49.8117 0.0251933
25.2769 48.2514 2
23.5757 46.8352 3.97321
23.8561 49.9971 0.0340476
22.3192 48.5726 2
20.609 47.4214 3.97649
21.0264 50.1277 0.0358815
19.5967 48.9127 2
18.188 48.0194 3.97695
16.5803 48.5505 3.97654
17.3487 49.1879 2
16.2448 50.0456 3.97355
15.6939 52.3063 3.96936
17.1831 51.2708 2
18.473 50.1734 0.0297443
15.073 54.8927 3.964
16.6862 53.7569 2
18.24 52.6497 0.0357009
14.5109 57.6969 3.96146
16.1189 56.3993 2
17.6696 55.2353 0.0376487
14.2717 60.6672 3.96735
15.7712 59.1693 2
17.2153 57.8068 0.039162
14.3363 63.8539 3.9778
15.7946 62.1021 2
17.1481 60.5004 0.0334856
14.6715 67.2507 4
16.0891 65.2939 2
17.4143 63.44 0.0307774
16.6661 68.6801 2
17.9449 66.6155 0.0157246
18.75 69.9759 0
18.9598 15.8392 3.97517
20.2405 14.6546 2
18.9916 13.1552 3.97256
21.6029 13.6493 0.025534
20.5361 12.0313 2
19.3464 10.248 3.97418
19.9939 7.14751 3.98719
21.1429 9.15697 2
22.1952 11.0472 0.026632
20.9142 3.86727 4
22.0148 6.08434 2
23.0425 8.18342 0.0204911
23.1494 2.85451 2
24.1199 5.1435 0.00998921
25.446 1.99014 0
31.6066 35.6318 3.65338
32.794 35.7742 2
34.501 35.9283 0.407034
21.3396 15.8968 0.0231812
22.1456 16.6896 2
20.3584 17.0197 2
19.3687 18.4949 3.9577
21.8409 17.9488 3.97655
25.4159 16.1288 0.0137175
23.3095 16.2995 0.0339119
24.2551 18.6004 2
22.4533 20.0229 3.97603
24.7874 21.5385 3.98836
26.7986 23.8343 3.98459
27.2099 21.5946 2
27.4839 18.8851 0.016699
31.006 33.1729 3.8417
32.2601 33.9243 2
33.1416 34.2794 0.536815
33.2334 32.5855 0.297204
33.4925 30.0882 0.168465
35.2126 27.8067 0.114613
32.9065 28.4181 2
31.9941 31.3642 2
30.8107 29.8295 3.91956
28.4554 26.7169 3.99716
29.1591 24.55 2
29.7719 22.057 -0.00697636
32.0387 25.8714 -0.00701146
30.1803 27.5102 2
29.676 37.4888 3.8469
31.1028 37.4896 2
32.6258 37.5025 0.49378
31.6381 47.7053 0.0183039
31.119 44.6477 0.118154
31.5796 39.3661 0.341492
30.9528 41.8268 0.159574
29.8944 46.3188 2
30.0415 39.8042 2
29.602 42.9628 2
28.1783 44.6404 3.96852
27.875 40.5055 3.9303
28.4588 47.987 0.0319274
26.695 46.4188 2
24.8903 44.9488 3.97916
25.275 48.2528 0.0345642
23.5748 46.8344 2
21.6405 45.7046 3.97783
22.3188 48.5726 0.0289091
20.6097 47.4202 2
18.9278 46.5727 3.97648
19.5958 48.9144 0.0263713
18.1888 48.018 2
16.8241 47.5743 3.97627
16.5816 48.5494 2
15.5922 48.8975 3.97552
17.3485 49.189 0.0249379
16.2466 50.0446 2
14.8061 50.884 3.97275
14.0443 53.355 3.967
15.6951 52.3057 2
17.1817 51.2719 0.0307031
13.3503 56.1211 3.96132
15.0733 54.8925 2
16.6853 53.7573 0.0344307
12.8594 59.1066 3.96555
14.5155 57.6965 2
16.1181 56.3991 0.0380223
12.6823 62.2967 3.97587
14.273 60.667 2
15.7685 59.1685 0.0375966
12.7746 65.6939 4
14.3342 63.8506 2
15.7938 62.1006 0.0319329
14.6714 67.2507 2
16.0914 65.2976 0.0178266
16.6661 68.6801 0
17.7318 17.2214 3.96222
18.9598 15.838 2
17.528 14.4234 3.96791
20.2389 14.6573 0.0319842
18.9911 13.1598 2
17.6441 11.473 3.97314
20.5377 12.0312 0.0263804
19.3427 10.2487 2
18.0541 8.34116 3.98478
18.75 5.0241 4
19.9891 7.15025 2
21.1458 9.15666 0.0229764
20.9142 3.86727 2
22.0191 6.08212 0.0107741
23.1494 2.85457 0
30.1473 35.2106 3.84764
31.5286 35.6077 2
32.7917 35.7829 0.528487
22.1425 16.6966 0.0358283
20.3562 17.0233 0.0336062
21.8395 17.9477 2
19.3611 18.4885 2
18.2092 20.0511 3.96168
21.0351 19.4934 3.96559
24.2658 18.5789 0.029944
22.4437 20.0293 2
24.7938 21.5234 2
22.6372 21.8689 3.98021
25.0772 23.2716 3.97222
26.0623 26.0908 3.97866
26.7957 23.8286 2
27.2048 21.6793 0.00624699
29.3992 32.5206 3.89393
30.9338 33.1376 2
32.306 33.9781 0.349591
32.0499 31.4083 0.180694
32.9456 28.4509 0.106256
30.7883 29.819 2
27.8299 29.2996 4.01377
28.4432 26.7223 2
29.1725 24.5524 -0.00895283
30.1884 27.5345 0.0238258
28.0269 37.3666 3.89388
29.6007 37.4831 2
31.1703 37.4915 0.336249
29.8912 46.3142 0.0103632
29.6343 42.936 0.106051
30.1187 39.7897 0.150913
28.1738 44.6957 2
27.8426 40.5073 2
26.2725 43.0204 3.9853
25.1511 39.4357 3.97183
26.6963 46.4181 0.0198793
24.8799 44.9507 2
22.8091 43.7422 3.9754
23.5757 46.8352 0.0267882
21.6372 45.7059 2
19.7069 44.8106 3.97607
20.609 47.4214 0.0235062
18.9276 46.5731 2
17.186 46.0733 3.97606
18.188 48.0194 0.0230521
16.8253 47.5737 2
15.3603 47.5519 3.97587
16.5803 48.5505 0.0234567
15.5941 48.8965 2
14.1164 49.4513 3.97489
16.2448 50.0456 0.0264535
14.8074 50.8833 2
13.1138 51.8015 3.96954
12.2566 54.4819 3.96346
14.0448 53.3544 2
15.6939 52.3063 0.0306359
11.547 57.4456 3.96353
13.3508 56.1209 2
15.073 54.8927 0.035996
11.1377 60.6218 3.97179
12.8611 59.1058 2
14.5109 57.6969 0.0385364
10.9835 64.0165 4
12.6806 62.2922 2
14.2717 60.6672 0.0326495
12.7745 65.694 2
14.3363 63.8539 0.0222018
14.6715 67.2507 0
16.5429 18.7309 3.96181
17.7241 17.2177 2
16.1228 15.8269 3.96475
18.9598 15.8392 0.0248333
17.5283 14.4207 2
16.0283 12.8431 3.96971
18.9916 13.1552 0.0274435
17.6419 11.4818 2
16.2053 9.66553 3.98232
19.3464 10.248 0.0258235
18.049 8.34607 2
16.6661 6.31991 4
18.75 5.02404 2
19.9939 7.14751 0.0128092
20.9142 3.86727 0
28.5413 34.8547 3.89604
30.0578 35.1734 2
31.6066 35.6318 0.346617
16.9529 21.4885 3.96749
21.8409 17.9488 0.02345
19.3687 18.4949 0.0422994
21.0234 19.4892 2
18.2096 20.049 2
20.0403 21.7126 3.97165
22.4533 20.0229 0.023969
24.7874 21.5385 0.0116447
22.6347 21.8741 2
25.0684 23.2768 2
23.375 24.7564 3.97187
25.3824 28.6906 3.98383
26.0551 26.0973 2
26.7986 23.8343 0.0154106
27.2547 31.8803 3.98166
29.362 32.4987 2
31.006 33.1729 0.158301
30.8107 29.8295 0.0804431
27.842 29.276 2
28.4554 26.7169 0.00283619
25.8501 36.8472 3.97195
28.0048 37.3672 2
29.676 37.4888 0.153097
28.1783 44.6404 0.0314765
27.875 40.5055 0.0696998
26.2494 43.0434 2
25.1245 39.4394 2
24.0284 41.7605 3.98203
22.8693 38.5217 3.97931
24.8903 44.9488 0.0208351
22.8067 43.7433 2
20.593 42.7631 3.97519
21.6405 45.7046 0.022173
19.7074 44.811 2
17.5984 44.2546 3.97544
18.9278 46.5727 0.0235244
17.1865 46.0734 2
15.3259 45.9787 3.97569
16.8241 47.5743 0.0237266
15.3617 47.5511 2
13.6478 47.9171 3.97565
15.5922 48.8975 0.0244832
14.1181 49.4505 2
12.346 50.1852 3.97168
14.8061 50.884 0.0272479
13.1147 51.8007 2
11.2527 52.7963 3.96501
10.3462 55.7008 3.96367
12.2573 54.4814 2
14.0443 53.355 0.0330047
9.70459 58.8454 3.97243
11.549 57.4446 2
13.3503 56.1211 0.0386807
9.30605 62.2254 4
11.1364 60.6176 2
12.8594 59.1066 0.0344525
10.9835 64.0165 2
12.6823 62.2967 0.0241272
12.7746 65.6939 0
15.3362 20.2699 3.96398
16.5456 18.7304 2
14.7967 17.3503 3.96293
17.7318 17.2214 0.0377818
16.1248 15.8253 2
14.4904 14.3239 3.96799
17.528 14.4234 0.0320928
16.0277 12.8397 2
14.4477 11.1175 3.97974
17.6441 11.473 0.0268596
16.2007 9.67129 2
14.6715 7.74927 4
18.0541 8.34116 0.0152196
16.6661 6.31988 2
18.75 5.0241 0
26.5006 34.3689 3.97429
28.5242 34.8621 2
30.1473 35.2106 0.152361
18.2179 22.4576 3.97479
15.8587 23.0326 3.97159
16.9566 21.4884 2
21.0351 19.4934 0.0344148
18.2092 20.0511 0.0383234
20.0402 21.7108 2
20.1677 24.5536 3.97195
22.6372 21.8689 0.0197948
25.0772 23.2716 0.0277849
23.3709 24.758 2
22.7453 28.0276 3.97156
24.8205 31.3802 3.9824
25.3885 28.6773 2
26.0623 26.0908 0.0213407
27.2276 31.8416 2
29.3992 32.5206 0.106069
27.8299 29.2996 -0.0137702
23.6004 36.302 3.97854
25.8291 36.8425 2
28.0269 37.3666 0.106125
26.2725 43.0204 0.0147006
25.1511 39.4357 0.0281674
24.0066 41.7588 2
22.855 38.5168 2
21.7075 40.5834 3.97446
21.0531 37.7991 3.97673
22.8091 43.7422 0.0246019
20.5931 42.7633 2
18.0794 42.0085 3.97565
19.7069 44.8106 0.0239327
17.5987 44.2548 2
15.3753 44.1013 3.97535
17.186 46.0733 0.0239443
15.3264 45.9785 2
13.3483 46.2087 3.97574
15.3603 47.5519 0.0241265
13.6494 47.9163 2
11.7366 48.4868 3.97365
14.1164 49.4513 0.0251142
12.3478 50.1842 2
10.3838 51.0437 3.96637
13.1138 51.8015 0.030464
11.2534 52.7956 2
9.25788 53.8818 3.96382
8.38803 56.9801 3.97399
10.351 55.6988 2
12.2566 54.4819 0.0365434
7.74927 60.3285 4
9.70332 58.8411 2
11.547 57.4456 0.0364702
9.306 62.2255 2
11.1377 60.6218 0.0282137
10.9835 64.0165 0
14.1745 21.8332 3.96758
15.3352 20.2689 2
13.5279 18.9475 3.96247
16.5429 18.7309 0.038188
14.7978 17.3493 2
13.0364 15.9089 3.96858
16.1228 15.8269 0.0352496
14.4924 14.3223 2
12.7856 12.6931 3.97682
16.0283 12.8431 0.0302932
14.4446 11.1246 2
12.7746 9.30605 4
16.2053 9.66553 0.0176758
14.6715 7.74924 2
16.6661 6.31991 0
24.1746 33.8844 3.98079
26.4806 34.3686 2
28.5413 34.8547 0.10396
18.0939 24.1911 3.97308
18.2264 22.4582 2
14.6927 24.5612 3.97359
15.8608 23.0324 2
16.9529 21.4885 0.0325073
19.7115 27.3926 3.97396
20.0403 21.7126 0.0283474
20.1613 24.552 2
22.1254 30.8437 3.97437
23.375 24.7564 0.0281304
22.7452 28.0301 2
24.7849 31.3799 2
25.3824 28.6906 0.0161652
27.2547 31.8803 0.0183372
21.1702 35.9654 3.97667
23.5985 36.3022 2
25.8501 36.8472 0.0280488
24.0284 41.7605 0.0179673
22.8693 38.5217 0.0206915
21.7123 40.5862 2
21.0533 37.7981 2
18.8446 38.9808 3.97705
20.593 42.7631 0.0248062
18.0793 42.0084 2
15.3603 41.855 3.97598
17.5984 44.2546 0.0245561
15.375 44.1012 2
13.1119 44.3195 3.9757
15.3259 45.9787 0.024313
13.3497 46.2081 2
11.252 46.6763 3.97526
13.6478 47.9171 0.0243534
11.7387 48.4857 2
9.65386 49.2068 3.96791
12.346 50.1852 0.028316
10.3848 51.0428 2
8.28837 51.9968 3.96394
11.2527 52.7963 0.0349915
9.25971 53.8799 2
7.19713 55.032 3.97501
6.31991 58.3339 4
8.38677 56.9758 2
10.3462 55.7008 0.0363269
7.74924 60.3285 2
9.70459 58.8454 0.0275659
9.30605 62.2254 0
13.5522 25.4535 3.97611
13.0775 23.3593 3.97056
14.1743 21.8326 2
12.3466 20.5965 3.9638
15.3362 20.2699 0.0360203
13.5288 18.9467 2
11.67 17.5817 3.96656
14.7967 17.3503 0.0370656
13.0399 15.9081 2
11.2238 14.379 3.97287
14.4904 14.3239 0.032011
12.7835 12.6991 2
10.9835 10.9835 4
14.4477 11.1175 0.0202567
12.7745 9.306 2
14.6715 7.74927 0
21.5177 33.5051 3.97634
24.1786 33.8695 2
26.5006 34.3689 0.025712
16.4211 26.5431 3.97461
18.0975 24.191 2
18.2179 22.4576 0.0252101
14.6918 24.5611 2
15.8587 23.0326 0.028413
19.1142 30.3334 3.97468
19.7119 27.393 2
20.1677 24.5536 0.0280536
22.1437 30.845 2
22.7453 28.0276 0.0284442
24.8205 31.3802 0.0176015
18.4464 36.0023 3.97777
21.1726 35.9652 2
23.6004 36.302 0.0214577
21.7075 40.5834 0.0255392
21.0531 37.7991 0.0232741
18.8433 38.9802 2
14.8549 39.1564 3.97694
18.0794 42.0085 0.0243486
15.3596 41.8547 2
12.8064 42.2295 3.97602
15.3753 44.1013 0.0246473
13.1126 44.3191 2
10.84 44.7529 3.97623
13.3483 46.2087 0.0242603
11.2545 46.6752 2
9.04093 47.2897 3.96916
11.7366 48.4868 0.0263455
9.65504 49.2059 2
7.45108 50.0315 3.96404
10.3838 51.0437 0.0336291
8.28824 51.9952 2
6.13769 53.0078 3.97524
9.25788 53.8818 0.0361841
7.19633 55.0282 2
5.0241 56.25 4
6.31988 58.3339 2
8.38803 56.9801 0.0260118
7.74927 60.3285 0
13.8356 26.9117 3.97579
12.1864 24.8571 3.97369
13.5517 25.4536 2
11.277 22.2796 3.96581
13.0777 23.3593 2
14.1745 21.8332 0.0324208
12.349 20.5965 2
10.4058 19.3304 3.96442
13.5279 18.9475 0.0375308
11.6736 17.5814 2
9.76475 16.1625 3.9719
13.0364 15.9089 0.0314218
11.2225 14.3846 2
9.30607 12.7746 4
12.7856 12.6931 0.0231849
10.9835 10.9835 2
12.7746 9.30605 0
18.6058 33.1929 3.97595
21.5161 33.5087 2
24.1746 33.8844 0.0192057
16.0466 29.7604 3.97543
16.4207 26.5429 2
18.0939 24.1911 0.026923
14.6927 24.5612 0.0264077
19.1124 30.3332 2
19.7115 27.3926 0.0260439
22.1254 30.8437 0.025628
15.4911 36.038 3.97741
18.4459 36.0029 2
21.1702 35.9654 0.0233262
13.0373 37.828 3.97696
18.8446 38.9808 0.0229529
14.8545 39.1563 2
12.3058 40.1146 3.97654
15.3603 41.855 0.0240237
12.8067 42.229 2
10.4413 42.7406 3.97615
13.1119 44.3195 0.0242999
10.8423 44.7519 2
8.5177 45.297 3.97034
11.252 46.6763 0.024741
9.04185 47.289 2
6.73868 47.9975 3.96425
9.65386 49.2068 0.0320852
7.44982 50.0303 2
5.21427 50.9113 3.97483
8.28837 51.9968 0.0360584
6.13734 53.005 2
3.86727 54.0858 4
7.19713 55.032 0.0249893
5.02404 56.25 2
6.31991 58.3339 0
13.3185 29.1168 3.97514
11.6314 26.5512 3.97463
13.8354 26.9118 2
10.3293 24.0057 3.96785
12.1893 24.8578 2
13.5522 25.4535 0.0238906
9.27084 21.1471 3.96447
11.2771 22.2796 2
13.0775 23.3593 0.0294427
12.3466 20.5965 0.0362001
10.4151 19.3322 2
8.42089 18.0319 3.97371
11.67 17.5817 0.0334369
9.76404 16.1671 2
7.74928 14.6715 4
11.2238 14.379 0.0271344
9.30602 12.7745 2
10.9835 10.9835 0
15.0325 32.9243 3.97622
18.6047 33.1923 2
21.5177 33.5051 0.0236604
16.0469 29.7605 2
16.4211 26.5431 0.0253893
19.1142 30.3334 0.0253248
13.3404 36.2214 3.97673
15.4906 36.038 2
18.4464 36.0023 0.0222255
13.0371 37.8279 2
11.6295 38.3038 3.97682
14.8549 39.1564 0.0230572
12.3065 40.1146 2
10.017 40.733 3.97634
12.8064 42.2295 0.0239782
10.4444 42.7399 2
8.05889 43.2525 3.97169
10.84 44.7529 0.0237689
8.52034 45.2963 2
6.14017 45.9034 3.9648
9.04093 47.2897 0.0308368
6.73688 47.9967 2
4.42537 48.7517 3.97445
7.45108 50.0315 0.0359594
5.21433 50.9094 2
2.85457 51.8506 4
6.13769 53.0078 0.0247587
3.86727 54.0858 2
5.0241 56.25 0
12.448 31.3124 3.97604
11.0428 28.4695 3.97563
13.3188 29.1169 2
9.54396 25.8308 3.96897
11.6342 26.552 2
13.8356 26.9117 0.0242139
8.2541 23.0287 3.96464
10.3311 24.0062 2
12.1864 24.8571 0.0263148
7.20299 19.9797 3.97497
9.27724 21.149 2
11.277 22.2796 0.0341881
10.4058 19.3304 0.0355815
8.41976 18.036 2
6.31992 16.6661 4
9.76475 16.1625 0.0281013
7.74926 14.6714 2
9.30607 12.7746 0
12.4841 34.3267 3.9765
15.0318 32.925 2
18.6058 33.1929 0.0240498
16.0466 29.7604 0.0245738
11.1641 36.6202 3.9766
13.3402 36.2214 2
15.4911 36.038 0.0225924
13.0373 37.828 0.0230401
11.6306 38.3034 2
9.59582 38.816 3.97664
12.3058 40.1146 0.0234561
10.0201 40.7325 2
7.66121 41.2006 3.97246
10.4413 42.7406 0.0238471
8.05992 43.252 2
5.65122 43.7666 3.96553
8.5177 45.297 0.0296623
6.14025 45.9027 2
3.77068 46.5368 3.97457
6.73868 47.9975 0.0357528
4.42591 48.7506 2
1.99014 49.554 4
5.21427 50.9113 0.0251701
2.85451 51.8506 2
3.86727 54.0858 0
11.2525 32.9579 3.97652
10.349 30.4247 3.97608
12.4483 31.3129 2
8.85121 27.7596 3.96938
11.0452 28.4703 2
13.3185 29.1168 0.0248611
7.37388 24.9857 3.96459
9.54572 25.8315 2
11.6314 26.5512 0.025367
6.11997 22.0018 3.97557
8.2557 23.0301 2
10.3293 24.0057 0.0321455
5.02411 18.75 4
7.2024 19.9833 2
9.27084 21.1471 0.0355273
8.42089 18.0319 0.0262855
6.3199 16.6661 2
7.74928 14.6715 0
10.7473 35.0187 3.97651
12.4835 34.3269 2
15.0325 32.9243 0.0237835
9.25188 36.9885 3.97674
11.1654 36.6202 2
13.3404 36.2214 0.0232693
11.6295 38.3038 0.0231826
9.59906 38.8157 2
7.33571 39.1775 3.9726
10.017 40.733 0.0236597
7.66326 41.2001 2
5.26602 41.6127 3.96599
8.05889 43.2525 0.0283091
5.65157 43.766 2
3.24809 44.2815 3.97535
6.14017 45.9034 0.0351958
3.77118 46.5364 2
1.27781 47.2057 4
4.42537 48.7517 0.0255495
1.99012 49.554 2
2.85457 51.8506 0
10.3805 33.9066 3.97625
9.62392 32.1843 3.97645
11.2539 32.9584 2
8.18862 29.7168 3.97011
10.3515 30.4256 2
12.448 31.3124 0.0239636
6.61166 27.0104 3.96476
8.8527 27.7602 2
11.0428 28.4695 0.0243665
5.17504 24.0941 3.9753
7.37275 24.9866 2
9.54396 25.8308 0.0310282
3.86728 20.9142 4
6.11972 22.0043 2
8.2541 23.0287 0.0353645
5.02406 18.75 2
7.20299 19.9797 0.0250288
6.31992 16.6661 0
9.06461 35.2919 3.97694
10.7489 35.0188 2
12.4841 34.3267 0.0234996
7.11277 37.2066 3.9723
9.25526 36.9882 2
11.1641 36.6202 0.0234001
9.59582 38.816 0.0233603
7.33821 39.1772 2
4.99312 39.4667 3.96668
7.66121 41.2006 0.0275362
5.26675 41.6123 2
2.85836 42.0016 3.97579
5.65122 43.7666 0.034474
3.24835 44.281 2
0.720592 44.8159 4
3.77068 46.5368 0.0254295
1.27778 47.2057 2
1.99014 49.554 0
9.10462 33.7176 3.97697
10.3829 33.9068 2
7.61694 31.6244 3.97102
9.62707 32.185 2
11.2525 32.9579 0.0234771
5.95215 29.0709 3.9651
8.19031 29.7173 2
10.349 30.4247 0.0239181
4.36223 26.2468 3.97498
6.6094 27.011 2
8.85121 27.7596 0.0306246
2.85458 23.1494 4
5.17523 24.0956 2
7.37388 24.9857 0.0354079
3.86728 20.9142 2
6.11997 22.0018 0.0244275
5.02411 18.75 0
7.06123 35.3114 3.9719
9.06837 35.2919 2
10.7473 35.0187 0.0234858
4.8432 37.3397 3.96714
7.1156 37.2066 2
9.25188 36.9885 0.0232598
7.33571 39.1775 0.0273955
4.99386 39.4664 2
2.60619 39.7133 3.97633
5.26602 41.6127 0.0340111
2.85896 42.0015 2
0.320823 42.3947 4
3.24809 44.2815 0.024654
0.720551 44.8159 2
1.27781 47.2057 0
7.22476 33.471 3.97159
9.10826 33.7181 2
10.3805 33.9066 0.0237468
5.4223 31.1347 3.96579
7.61896 31.6248 2
9.62392 32.1843 0.0235543
3.68359 28.4433 3.97503
5.95235 29.0714 2
8.18862 29.7168 0.0298904
1.99015 25.446 4
4.36276 26.2476 2
6.61166 27.0104 0.0352406
2.85453 23.1494 2
5.17504 24.0941 0.0247027
3.86728 20.9142 0
4.85747 35.2521 3.96698
7.06328 35.3115 2
9.06461 35.2919 0.0230553
2.49761 37.428 3.97722
4.84341 37.3398 2
7.11277 37.2066 0.0277001
4.99312 39.4667 0.0333159
2.6069 39.7137 2
0.080333 39.9526 4
2.85836 42.0016 0.024211
0.320817 42.3947 2
0.720592 44.8159 0
5.05104 33.1911 3.9666
7.22697 33.4712 2
9.10462 33.7176 0.0230318
3.14762 30.6662 3.97565
5.42268 31.1353 2
7.61694 31.6244 0.028977
1.27793 27.7943 4
3.68415 28.4436 2
5.95215 29.0709 0.0348965
1.99013 25.446 2
4.36223 26.2468 0.0250172
2.85458 23.1494 0
2.54969 35.1588 3.97695
4.85832 35.2524 2
7.06123 35.3114 0.0281041
0 37.5 4
2.49781 37.4285 2
4.8432 37.3397 0.032863
2.60619 39.7133 0.0236686
0.0802903 39.9526 2
0.320823 42.3947 0
2.76742 32.9057 3.97688
5.05139 33.1916 2
7.22476 33.471 0.0284148
0.721173 30.1842 4
3.14808 30.6667 2
5.4223 31.1347 0.0342072
1.27779 27.7943 2
3.68359 28.4433 0.0249733
1.99015 25.446 0
0.0806499 35.0474 4
2.55048 35.1593 2
4.85747 35.2521 0.0330156
0 37.5 2
2.49761 37.428 0.0227832
0.080333 39.9526 0
0.32156 32.6054 4
2.7677 32.9064 2
5.05104 33.1911 0.0333977
0.72056 30.1841 2
3.14762 30.6662 0.0243487
1.27793 27.7943 0
0.0802889 35.0474 2
2.54969 35.1588 0.0230543
0 37.5 0
0.320817 32.6053 2
2.76742 32.9057 0.0231249
0.721173 30.1842 0
0.0806499 35.0474 0
0.32156 32.6054 0
CELLS 1910 17190
8 18 6 25 56 2 0 5 16
8 57 23 6 18 17 4 0 2
8 78 36 9 29 31 11 1 7
8 31 11 1 7 79 37 10 30
8 110 57 18 50 48 17 2 14
8 50 18 56 111 14 2 16 49
8 116 62 22 55 52 20 3 15
8 56 25 67 118 16 5 24 53
8 119 63 23 57 54 21 4 17
8 55 22 63 119 15 3 21 54
8 58 26 68 121 18 6 25 56
8 122 65 26 58 57 23 6 18
8 73 31 7 27 142 79 30 71
8 143 78 29 72 73 31 7 27
8 83 147 76 34 32 74 28 8
8 84 148 78 36 33 75 29 9
8 76 34 8 28 148 84 33 75
8 37 79 150 86 10 30 77 35
8 151 87 36 78 80 38 11 31
8 80 38 11 31 152 88 37 79
8 175 100 42 94 96 44 12 40
8 44 96 176 101 12 40 95 43
8 101 176 98 46 43 95 41 13
8 46 98 178 103 13 41 97 45
8 178 103 45 97 147 83 32 74
8 189 116 55 109 106 52 15 47
8 111 56 118 191 49 16 53 107
8 192 119 57 110 108 54 17 48
8 109 55 119 192 47 15 54 108
8 194 122 58 112 110 57 18 50
8 112 58 121 195 50 18 56 111
8 115 61 19 51 197 124 59 113
8 115 61 125 198 51 19 60 114
8 198 125 62 116 114 60 20 52
8 200 127 64 120 116 62 22 55
8 118 67 132 202 53 24 66 117
8 121 68 133 203 56 25 67 118
8 120 64 128 204 55 22 63 119
8 204 128 65 122 119 63 23 57
8 206 134 68 121 123 69 26 58
8 123 69 26 58 207 131 65 122
8 226 147 74 138 140 76 28 70
8 229 148 75 139 143 78 29 72
8 140 76 28 70 229 148 75 139
8 142 79 30 71 231 150 77 141
8 144 80 31 73 232 152 79 142
8 233 151 78 143 144 80 31 73
8 150 86 35 77 235 154 81 145
8 235 154 81 145 146 82 39 91
8 146 82 39 91 236 155 90 165
8 238 157 83 147 149 85 34 76
8 239 158 84 148 151 87 36 78
8 149 85 34 76 239 158 84 148
8 152 88 37 79 241 160 86 150
8 242 161 87 151 153 89 38 80
8 153 89 38 80 243 162 88 152
8 171 98 41 92 265 178 97 169
8 265 178 97 169 226 147 74 138
8 172 96 40 93 266 176 95 170
8 266 176 95 170 171 98 41 92
8 269 175 94 173 172 96 40 93
8 271 180 99 174 175 100 42 94
8 197 124 59 113 271 180 99 174
8 272 181 100 175 177 102 44 96
8 273 182 101 176 179 104 46 98
8 177 102 44 96 273 182 101 176
8 179 104 46 98 275 184 103 178
8 275 184 103 178 238 157 83 147
8 188 115 51 105 283 197 113 186
8 188 115 198 284 105 51 114 187
8 284 198 116 189 187 114 52 106
8 286 200 120 193 189 116 55 109
8 191 118 202 288 107 53 117 190
8 195 121 203 289 111 56 118 191
8 193 120 204 290 109 55 119 192
8 290 204 122 194 192 119 57 110
8 196 123 58 112 292 207 122 194
8 293 206 121 195 196 123 58 112
8 199 126 61 115 297 211 124 197
8 298 212 127 200 198 125 62 116
8 199 126 212 298 115 61 125 198
8 205 129 64 120 300 214 127 200
8 301 217 130 201 202 132 66 117
8 209 136 168 264 301 217 130 201
8 302 219 132 202 203 133 67 118
8 303 220 133 203 206 134 68 121
8 205 129 215 304 120 64 128 204
8 304 215 131 207 204 128 65 122
8 306 221 134 206 208 135 69 123
8 208 135 69 123 307 218 131 207
8 210 137 167 263 309 223 136 209
8 328 238 147 226 230 149 76 140
8 228 146 91 166 329 236 165 260
8 231 150 77 141 330 235 145 227
8 330 235 145 227 228 146 91 166
8 332 239 148 229 233 151 78 143
8 230 149 76 140 332 239 148 229
8 232 152 79 142 334 241 150 231
8 234 153 80 144 335 243 152 232
8 336 242 151 233 234 153 80 144
8 236 155 90 165 338 245 164 259
8 241 160 86 150 339 246 154 235
8 339 246 154 235 237 156 82 146
8 237 156 82 146 340 247 155 236
8 342 249 157 238 240 159 85 149
8 343 250 158 239 242 161 87 151
8 240 159 85 149 343 250 158 239
8 243 162 88 152 345 252 160 241
8 244 163 253 346 153 89 161 242
8 244 163 89 153 347 254 162 243
8 311 224 261 371 210 137 167 263
8 263 167 262 372 209 136 168 264
8 267 179 98 171 375 275 178 265
8 375 275 178 265 328 238 147 226
8 376 273 176 266 267 179 98 171
8 268 177 96 172 376 273 176 266
8 379 272 175 269 268 177 96 172
8 380 271 174 270 269 175 94 173
8 283 197 113 186 380 271 174 270
8 381 277 180 271 272 181 100 175
8 297 211 124 197 381 277 180 271
8 382 278 181 272 274 183 102 177
8 274 183 102 177 383 279 182 273
8 383 279 182 273 276 185 104 179
8 385 281 184 275 342 249 157 238
8 276 185 104 179 385 281 184 275
8 285 199 115 188 393 297 197 283
8 394 298 200 286 284 198 116 189
8 285 199 298 394 188 115 198 284
8 291 205 120 193 396 300 200 286
8 397 301 201 287 288 202 117 190
8 295 209 264 374 397 301 201 287
8 398 302 202 288 289 203 118 191
8 399 303 203 289 293 206 121 195
8 291 205 304 400 193 120 204 290
8 400 304 207 292 290 204 122 194
8 294 208 123 196 402 307 207 292
8 403 306 206 293 294 208 123 196
8 296 210 263 373 405 309 209 295
8 408 312 213 299 297 211 126 199
8 299 213 313 409 199 126 212 298
8 409 313 214 300 298 212 127 200
8 305 216 129 205 411 315 214 300
8 412 318 217 301 302 219 132 202
8 309 223 136 209 412 318 217 301
8 413 320 219 302 303 220 133 203
8 306 221 321 414 206 134 220 303
8 307 218 131 207 415 316 215 304
8 305 216 316 415 205 129 215 304
8 417 322 221 306 308 222 135 208
8 308 222 135 208 418 319 218 307
8 310 225 137 210 420 325 223 309
8 423 326 224 311 310 225 137 210
8 329 236 165 260 441 338 259 368
8 442 342 238 328 333 240 149 230
8 331 237 146 228 443 340 236 329
8 334 241 150 231 444 339 235 330
8 444 339 235 330 331 237 146 228
8 446 343 239 332 336 242 151 233
8 333 240 149 230 446 343 239 332
8 335 243 152 232 448 345 241 334
8 337 244 153 234 449 347 243 335
8 337 244 346 450 234 153 242 336
8 338 245 164 259 452 349 258 367
8 340 247 155 236 453 350 245 338
8 345 252 160 241 454 351 246 339
8 454 351 246 339 341 248 156 237
8 341 248 156 237 455 352 247 340
8 240 159 251 344 342 249 354 457
8 242 161 253 346 343 250 355 458
8 343 250 355 458 240 159 251 344
8 347 254 162 243 460 357 252 345
8 348 255 358 461 244 163 253 346
8 348 255 163 244 462 359 254 347
8 473 360 257 365 363 256 364 482
8 452 349 258 367 365 257 366 485
8 422 324 369 488 311 224 261 371
8 371 261 370 490 263 167 262 372
8 407 311 371 491 296 210 263 373
8 373 263 372 492 295 209 264 374
8 493 385 275 375 442 342 238 328
8 377 276 179 267 493 385 275 375
8 378 274 177 268 494 383 273 376
8 494 383 273 376 377 276 179 267
8 497 382 272 379 378 274 177 268
8 498 381 271 380 379 272 175 269
8 393 297 197 283 498 381 271 380
8 499 387 277 381 382 278 181 272
8 408 312 211 297 499 387 277 381
8 500 388 278 382 384 280 183 274
8 501 389 279 383 386 282 185 276
8 384 280 183 274 501 389 279 383
8 386 282 185 276 503 391 281 385
8 503 391 281 385 457 354 249 342
8 511 408 299 395 393 297 199 285
8 395 299 409 512 285 199 298 394
8 512 409 300 396 394 298 200 286
8 401 305 205 291 514 411 300 396
8 515 412 301 397 398 302 202 288
8 405 309 209 295 515 412 301 397
8 516 413 302 398 399 303 203 289
8 403 306 414 517 293 206 303 399
8 402 307 207 292 518 415 304 400
8 401 305 415 518 291 205 304 400
8 404 308 208 294 520 418 307 402
8 521 417 306 403 404 308 208 294
8 406 310 210 296 523 420 309 405
8 526 423 311 407 406 310 210 296
8 410 314 213 299 527 424 312 408
8 528 425 315 411 409 313 214 300
8 410 314 425 528 299 213 313 409
8 416 317 216 305 530 427 315 411
8 531 430 318 412 413 320 219 302
8 420 325 223 309 531 430 318 412
8 532 432 320 413 414 321 220 303
8 417 322 433 533 306 221 321 414
8 418 319 218 307 534 428 316 415
8 416 317 428 534 305 216 316 415
8 419 323 434 536 308 222 322 417
8 419 323 222 308 537 431 319 418
8 421 327 225 310 539 438 325 420
8 421 327 439 541 310 225 326 423
8 543 437 324 422 423 326 224 311
8 441 338 259 368 559 452 367 486
8 443 340 236 329 560 453 338 441
8 333 240 344 447 442 342 457 561
8 445 341 237 331 562 455 340 443
8 448 345 241 334 563 454 339 444
8 563 454 339 444 445 341 237 331
8 336 242 346 450 446 343 458 565
8 446 343 458 565 333 240 344 447
8 449 347 243 335 567 460 345 448
8 451 348 244 337 568 462 347 449
8 451 348 461 569 337 244 346 450
8 570 463 349 452 473 360 257 365
8 453 350 245 338 570 463 349 452
8 455 352 247 340 571 464 350 453
8 460 357 252 345 572 465 351 454
8 572 465 351 454 456 353 248 341
8 456 353 248 341 573 466 352 455
8 344 251 356 459 457 354 468 575
8 458 355 469 576 344 251 356 459
8 346 253 358 461 458 355 469 576
8 462 359 254 347 578 471 357 460
8 348 255 359 462 461 358 472 579
8 591 474 360 473 475 361 256 363
8 475 361 256 363 594 477 362 479
8 363 256 364 482 479 362 480 603
8 590 473 365 484 481 363 482 605
8 482 364 257 365 606 483 366 485
8 559 452 367 486 484 365 485 607
8 542 436 487 609 422 324 369 488
8 525 422 488 611 407 311 371 491
8 488 369 489 612 371 261 370 490
8 491 371 490 613 373 263 372 492
8 495 386 276 377 614 503 385 493
8 614 503 385 493 561 457 342 442
8 615 501 383 494 495 386 276 377
8 496 384 274 378 615 501 383 494
8 618 500 382 497 496 384 274 378
8 619 499 381 498 497 382 272 379
8 511 408 297 393 619 499 381 498
8 620 505 387 499 500 388 278 382
8 527 424 312 408 620 505 387 499
8 502 390 506 621 384 280 388 500
8 622 507 389 501 504 392 282 386
8 502 390 280 384 622 507 389 501
8 504 392 282 386 624 509 391 503
8 624 509 391 503 575 468 354 457
8 513 410 299 395 630 527 408 511
8 631 528 411 514 512 409 300 396
8 513 410 528 631 395 299 409 512
8 519 416 305 401 633 530 411 514
8 634 531 412 515 516 413 302 398
8 523 420 309 405 634 531 412 515
8 635 532 413 516 517 414 303 399
8 521 417 533 636 403 306 414 517
8 520 418 307 402 637 534 415 518
8 519 416 534 637 401 305 415 518
8 522 419 308 404 639 537 418 520
8 522 419 536 640 404 308 417 521
8 524 421 310 406 642 539 420 523
8 524 421 541 644 406 310 423 526
8 646 543 422 525 526 423 311 407
8 529 426 314 410 647 544 424 527
8 528 425 545 648 411 315 427 530
8 529 426 545 648 410 314 425 528
8 535 429 317 416 649 546 427 530
8 650 548 430 531 532 432 320 413
8 539 438 325 420 650 548 430 531
8 533 433 550 651 414 321 432 532
8 536 434 551 652 417 322 433 533
8 537 431 319 418 653 547 428 534
8 535 429 547 653 416 317 428 534
8 538 435 552 654 419 323 434 536
8 538 435 323 419 655 549 431 537
8 540 440 327 421 657 556 438 539
8 540 440 557 659 421 327 439 541
8 541 439 555 660 423 326 437 543
8 661 554 436 542 543 437 324 422
8 676 570 452 559 590 473 365 484
8 560 453 338 441 676 570 452 559
8 562 455 340 443 677 571 453 560
8 447 344 459 566 561 457 575 678
8 564 456 341 445 679 573 455 562
8 567 460 345 448 680 572 454 563
8 680 572 454 563 564 456 341 445
8 565 458 576 682 447 344 459 566
8 450 346 461 569 565 458 576 682
8 568 462 347 449 684 578 460 567
8 451 348 462 568 569 461 579 685
8 686 580 463 570 591 474 360 473
8 571 464 350 453 686 580 463 570
8 573 466 352 455 687 581 464 571
8 572 465 582 688 460 357 471 578
8 574 467 582 688 456 353 465 572
8 574 467 353 456 689 583 466 573
8 459 356 470 577 575 468 585 691
8 576 469 586 692 459 356 470 577
8 461 358 472 579 576 469 586 692
8 462 359 471 578 579 472 588 694
8 704 591 473 590 593 475 363 481
8 595 476 592 705 475 361 474 591
8 593 475 363 481 707 594 479 602
8 594 477 362 479 709 598 478 600
8 595 476 361 475 711 597 477 594
8 479 362 480 603 600 478 601 720
8 481 363 482 605 602 479 603 722
8 603 480 364 482 723 604 483 606
8 605 482 365 484 724 606 485 607
8 656 553 608 726 542 436 487 609
8 645 542 609 728 525 422 488 611
8 609 487 610 729 488 369 489 612
8 611 488 612 730 491 371 490 613
8 616 504 386 495 731 624 503 614
8 731 624 503 614 678 575 457 561
8 732 622 501 615 616 504 386 495
8 617 502 384 496 732 622 501 615
8 617 502 621 735 496 384 500 618
8 736 620 499 619 618 500 382 497
8 630 527 408 511 736 620 499 619
8 621 506 626 737 500 388 505 620
8 647 544 424 527 737 626 505 620
8 623 508 627 738 502 390 506 621
8 623 508 390 502 739 628 507 622
8 625 510 628 739 504 392 507 622
8 740 629 509 624 691 585 468 575
8 625 510 392 504 740 629 509 624
8 632 529 410 513 744 647 527 630
8 631 528 648 745 514 411 530 633
8 632 529 648 745 513 410 528 631
8 638 535 416 519 746 649 530 633
8 747 650 531 634 635 532 413 516
8 642 539 420 523 747 650 531 634
8 636 533 651 748 517 414 532 635
8 640 536 652 749 521 417 533 636
8 639 537 418 520 750 653 534 637
8 638 535 653 750 519 416 534 637
8 641 538 419 522 751 655 537 639
8 641 538 654 752 522 419 536 640
8 643 540 421 524 753 657 539 642
8 643 540 659 755 524 421 541 644
8 644 541 660 757 526 423 543 646
8 758 661 542 645 646 543 422 525
8 529 426 544 647 648 545 662 759
8 530 427 545 648 649 546 663 760
8 535 429 546 649 653 547 664 761
8 762 666 548 650 651 550 432 532
8 657 556 438 539 762 666 548 650
8 652 551 668 763 533 433 550 651
8 654 552 669 764 536 434 551 652
8 655 549 431 537 765 665 547 653
8 538 435 549 655 654 552 667 766
8 661 554 671 768 542 436 553 656
8 658 558 440 540 769 674 556 657
8 658 558 675 770 540 440 557 659
8 659 557 673 771 541 439 555 660
8 660 555 672 772 543 437 554 661
8 788 686 570 676 704 591 473 590
8 677 571 453 560 788 686 570 676
8 679 573 455 562 789 687 571 677
8 566 459 577 683 678 575 691 790
8 681 574 456 564 791 689 573 679
8 680 572 688 792 567 460 578 684
8 681 574 688 792 564 456 572 680
8 682 576 692 794 566 459 577 683
8 569 461 579 685 682 576 692 794
8 568 462 578 684 685 579 694 796
8 687 581 464 571 798 696 580 686
8 798 696 580 686 705 592 474 591
8 689 583 466 573 799 697 581 687
8 688 582 698 800 578 471 588 694
8 690 584 698 800 574 467 582 688
8 690 584 467 574 801 699 583 689
8 693 587 701 803 577 470 585 691
8 693 587 470 577 804 702 586 692
8 695 589 702 804 579 472 586 692
8 695 589 472 579 805 703 588 694
8 708 595 705 813 593 475 591 704
8 710 596 706 814 595 476 592 705
8 707 594 479 602 816 709 600 719
8 708 595 475 593 817 711 594 707
8 709 598 478 600 819 715 599 717
8 711 597 477 594 820 714 598 709
8 710 596 476 595 822 713 597 711
8 600 478 601 720 717 599 718 832
8 602 479 603 722 719 600 720 834
8 720 601 480 603 835 721 604 723
8 722 603 482 605 836 723 606 724
8 767 670 725 839 656 553 608 726
8 756 656 726 841 645 542 609 728
8 726 608 727 842 609 487 610 729
8 728 609 729 843 611 488 612 730
8 844 740 624 731 790 691 575 678
8 733 625 504 616 844 740 624 731
8 734 623 502 617 845 739 622 732
8 733 625 739 845 616 504 622 732
8 734 623 738 846 617 502 621 735
8 735 621 737 847 618 500 620 736
8 744 647 527 630 847 737 620 736
8 621 506 627 738 737 626 741 848
8 647 544 626 737 759 662 741 848
8 623 508 628 739 738 627 742 849
8 740 629 585 691 850 743 700 802
8 625 510 629 740 739 628 743 850
8 632 529 647 744 745 648 759 854
8 633 530 648 745 746 649 760 855
8 638 535 649 746 750 653 761 856
8 857 762 650 747 748 651 532 635
8 753 657 539 642 857 762 650 747
8 749 652 763 858 636 533 651 748
8 752 654 764 859 640 536 652 749
8 751 655 537 639 860 765 653 750
8 641 538 655 751 752 654 766 861
8 754 658 540 643 862 769 657 753
8 754 658 770 863 643 540 659 755
8 755 659 771 864 644 541 660 757
8 758 661 768 866 645 542 656 756
8 757 660 772 867 646 543 661 758
8 759 662 773 868 648 545 663 760
8 649 546 663 760 761 664 774 871
8 765 665 547 653 872 775 664 761
8 873 777 666 762 763 668 550 651
8 769 674 556 657 873 777 666 762
8 764 669 779 874 652 551 668 763
8 654 552 667 766 764 669 778 875
8 655 549 665 765 766 667 776 876
8 768 671 782 877 656 553 670 767
8 772 672 783 878 661 554 671 768
8 658 558 674 769 770 675 786 879
8 659 557 675 770 771 673 785 881
8 882 784 672 772 771 673 555 660
8 789 687 571 677 897 798 686 788
8 897 798 686 788 813 705 591 704
8 791 689 573 679 898 799 687 789
8 795 693 803 900 683 577 691 790
8 793 690 574 681 901 801 689 791
8 792 688 800 902 684 578 694 796
8 793 690 800 902 681 574 688 792
8 795 693 577 683 903 804 692 794
8 797 695 804 903 685 579 692 794
8 797 695 579 685 904 805 694 796
8 905 806 697 799 798 696 581 687
8 814 706 806 905 705 592 696 798
8 689 583 697 799 801 699 808 907
8 800 698 809 908 694 588 703 805
8 690 584 699 801 800 698 809 908
8 803 701 810 909 691 585 700 802
8 693 587 702 804 803 701 811 910
8 695 589 703 805 804 702 812 911
8 818 710 814 919 708 595 705 813
8 821 712 815 920 710 596 706 814
8 816 709 600 719 922 819 717 831
8 817 711 594 707 923 820 709 816
8 818 710 595 708 924 822 711 817
8 819 715 599 717 926 827 716 829
8 820 714 598 709 927 826 715 819
8 929 825 713 822 820 714 597 711
8 821 712 596 710 930 824 713 822
8 717 599 718 832 829 716 830 942
8 719 600 720 834 831 717 832 944
8 832 718 601 720 945 833 721 835
8 834 720 603 722 946 835 723 836
8 869 780 838 950 767 670 725 839
8 865 767 839 952 756 656 726 841
8 839 725 840 953 726 608 727 842
8 841 726 842 954 728 609 729 843
8 844 740 691 790 955 850 802 899
8 733 625 740 844 845 739 850 955
8 734 623 739 845 846 738 849 956
8 735 621 738 846 847 737 848 957
8 744 647 737 847 854 759 848 957
8 738 627 742 849 848 741 851 958
8 848 741 851 958 759 662 773 868
8 850 743 700 802 959 852 807 906
8 849 742 628 739 959 852 743 850
8 854 759 868 965 745 648 760 855
8 746 649 760 855 856 761 871 966
8 860 765 653 750 967 872 761 856
8 968 873 762 857 858 763 651 748
8 862 769 657 753 968 873 762 857
8 859 764 874 969 749 652 763 858
8 752 654 766 861 859 764 875 970
8 751 655 765 860 861 766 876 971
8 754 658 769 862 863 770 879 972
8 755 659 770 863 864 771 881 974
8 976 882 772 867 864 771 660 757
8 866 768 877 977 756 656 767 865
8 867 772 878 978 758 661 768 866
8 760 663 773 868 871 774 883 980
8 870 781 837 948 982 890 780 869
8 982 890 780 869 877 782 670 767
8 761 664 774 871 872 775 884 984
8 876 776 665 765 985 885 775 872
8 873 777 668 763 986 887 779 874
8 769 674 777 873 879 786 887 986
8 764 669 778 875 874 779 888 987
8 766 667 776 876 875 778 886 988
8 878 783 892 989 768 671 782 877
8 878 783 672 772 990 893 784 882
8 880 787 675 770 991 896 786 879
8 880 787 895 992 770 675 785 881
8 881 785 894 993 771 673 784 882
8 1006 905 799 898 897 798 687 789
8 919 814 905 1006 813 705 798 897
8 791 689 799 898 901 801 907 1007
8 900 803 909 1009 790 691 802 899
8 795 693 804 903 900 803 910 1010
8 902 800 908 1011 796 694 805 904
8 793 690 801 901 902 800 908 1011
8 797 695 805 904 903 804 911 1012
8 799 697 806 905 907 808 912 1013
8 920 815 912 1013 814 706 806 905
8 802 700 810 909 906 807 913 1014
8 801 699 808 907 908 809 914 1015
8 805 703 809 908 911 812 915 1016
8 803 701 811 910 909 810 916 1017
8 911 812 917 1018 804 702 811 910
8 925 821 920 1030 818 710 814 919
8 928 823 921 1031 821 712 815 920
8 922 819 717 831 1033 926 829 941
8 923 820 709 816 1034 927 819 922
8 1035 929 822 924 923 820 711 817
8 925 821 710 818 1036 930 822 924
8 1038 933 825 929 927 826 714 820
8 926 827 716 829 1039 935 828 939
8 927 826 715 819 1040 934 827 926
8 928 823 712 821 1041 931 824 930
8 1042 932 824 930 929 825 713 822
8 829 716 830 942 939 828 940 1058
8 831 717 832 944 941 829 942 1060
8 942 830 718 832 1061 943 833 945
8 944 832 720 834 1062 945 835 946
8 981 889 947 1064 870 781 837 948
8 948 837 949 1067 869 780 838 950
8 975 869 950 1069 865 767 839 952
8 950 838 951 1070 839 725 840 953
8 952 839 953 1071 841 726 842 954
8 955 850 802 899 1072 959 906 1008
8 956 849 739 845 1072 959 850 955
8 846 738 849 956 957 848 958 1073
8 957 848 958 1073 854 759 868 965
8 849 742 852 959 958 851 961 1076
8 960 853 961 1076 906 807 852 959
8 958 851 961 1076 868 773 883 980
8 960 853 807 906 1077 963 913 1014
8 855 760 868 965 966 871 980 1085
8 856 761 871 966 967 872 984 1086
8 971 876 765 860 1087 985 872 967
8 968 873 763 858 1088 986 874 969
8 862 769 873 968 972 879 986 1088
8 859 764 875 970 969 874 987 1089
8 861 766 876 971 970 875 988 1090
8 973 880 770 863 1091 991 879 972
8 973 880 992 1092 863 770 881 974
8 974 881 993 1093 864 771 882 976
8 979 870 948 1066 1094 982 869 975
8 1094 982 869 975 977 877 767 865
8 978 878 772 867 1095 990 882 976
8 978 878 989 1096 866 768 877 977
8 871 774 883 980 984 884 994 1099
8 983 891 999 1100 870 781 889 981
8 1101 1000 890 982 989 892 782 877
8 983 891 781 870 1101 1000 890 982
8 872 775 884 984 985 885 995 1103
8 876 776 885 985 988 886 996 1104
8 986 887 779 874 1105 998 888 987
8 879 786 887 986 991 896 998 1105
8 875 778 886 988 987 888 997 1106
8 990 893 1002 1107 878 783 892 989
8 1108 1003 893 990 993 894 784 882
8 880 787 896 991 992 895 1005 1109
8 993 894 785 881 1110 1004 895 992
8 898 799 905 1006 1007 907 1013 1120
8 1030 920 1013 1120 919 814 905 1006
8 901 801 907 1007 1011 908 1015 1121
8 899 802 909 1009 1008 906 1014 1122
8 900 803 910 1010 1009 909 1017 1123
8 1012 911 1018 1124 903 804 910 1010
8 904 805 908 1011 1012 911 1016 1125
8 1013 912 1020 1127 907 808 914 1015
8 1031 921 1020 1127 920 815 912 1013
8 1019 918 962 1075 1128 1021 913 1014
8 1128 1021 913 1014 1017 916 810 909
8 1015 914 1022 1129 908 809 915 1016
8 1016 915 1023 1130 911 812 917 1018
8 1018 917 1024 1131 910 811 916 1017
8 1037 928 1031 1148 925 821 920 1030
8 928 823 931 1041 1031 921 1032 1149
8 1033 926 829 941 1151 1039 939 1057
8 1034 927 819 922 1152 1040 926 1033
8 1153 1038 929 1035 1034 927 820 923
8 1154 1042 930 1036 1035 929 822 924
8 1037 928 821 925 1155 1041 930 1036
8 1039 935 828 939 1156 1047 938 1055
8 1157 1043 932 1042 1038 933 825 929
8 1038 933 826 927 1158 1045 934 1040
8 1040 934 827 926 1159 1046 935 1039
8 930 824 932 1042 1041 931 1044 1160
8 1051 936 1048 1165 1175 1052 937 1053
8 1156 1047 938 1055 1053 937 1054 1178
8 939 828 940 1058 1055 938 1056 1181
8 941 829 942 1060 1057 939 1058 1183
8 942 830 943 1061 1058 940 1059 1184
8 1060 942 832 944 1185 1061 945 1062
8 1082 964 1063 1188 981 889 947 1064
8 1097 981 1064 1190 979 870 948 1066
8 1064 947 1065 1191 948 837 949 1067
8 1066 948 1067 1193 975 869 950 1069
8 1067 949 1068 1194 950 838 951 1070
8 1069 950 1070 1195 952 839 953 1071
8 956 849 959 1072 1073 958 1076 1197
8 1074 960 1076 1197 1008 906 959 1072
8 1073 958 1076 1197 965 868 980 1085
8 1074 960 906 1008 1198 1077 1014 1122
8 1133 1026 1079 1199 1019 918 962 1075
8 1077 963 913 1014 1200 1080 962 1075
8 960 853 963 1077 1076 961 1078 1201
8 980 883 961 1076 1099 994 1078 1201
8 1210 1083 964 1082 1100 999 889 981
8 966 871 980 1085 1086 984 1099 1215
8 967 872 984 1086 1087 985 1103 1216
8 971 876 985 1087 1090 988 1104 1217
8 1088 986 874 969 1218 1105 987 1089
8 972 879 986 1088 1091 991 1105 1218
8 970 875 988 1090 1089 987 1106 1219
8 973 880 991 1091 1092 992 1109 1220
8 1093 993 881 974 1221 1110 992 1092
8 1222 1108 990 1095 1093 993 882 976
8 1223 1101 982 1094 1096 989 877 977
8 1098 983 870 979 1223 1101 982 1094
8 1095 990 1107 1224 978 878 989 1096
8 1098 983 1100 1225 979 870 981 1097
8 984 884 994 1099 1103 995 1111 1227
8 1102 1001 1115 1228 983 891 999 1100
8 1101 1000 892 989 1229 1116 1002 1107
8 1102 1001 891 983 1229 1116 1000 1101
8 985 885 995 1103 1104 996 1112 1230
8 988 886 996 1104 1106 997 1113 1231
8 1105 998 888 987 1232 1114 997 1106
8 991 896 998 1105 1109 1005 1114 1232
8 1108 1003 1117 1233 990 893 1002 1107
8 1108 1003 894 993 1233 1117 1004 1110
8 992 895 1005 1109 1110 1004 1118 1234
8 1120 1013 1127 1244 1007 907 1015 1121
8 1148 1031 1127 1244 1030 920 1013 1120
8 1121 1015 1129 1245 1011 908 1016 1125
8 1126 1019 1075 1196 1246 1128 1014 1122
8 1246 1128 1014 1122 1123 1017 909 1009
8 1124 1018 1131 1247 1010 910 1017 1123
8 1125 1016 1130 1248 1012 911 1018 1124
8 1127 1020 1137 1254 1015 914 1022 1129
8 1031 921 1032 1149 1127 1020 1137 1254
8 1134 1027 918 1019 1257 1140 1021 1128
8 1257 1140 1021 1128 1131 1024 916 1017
8 1129 1022 1141 1258 1016 915 1023 1130
8 1130 1023 1142 1259 1018 917 1024 1131
8 1261 1144 1025 1132 1133 1026 1079 1199
8 1255 1138 1025 1132 1135 1028 1144 1261
8 1133 1026 918 1019 1262 1145 1027 1134
8 1136 1029 1139 1256 1263 1146 1028 1135
8 1037 928 1041 1155 1148 1031 1149 1275
8 1041 931 1044 1160 1149 1032 1150 1276
8 1151 1039 939 1057 1278 1156 1055 1180
8 1152 1040 926 1033 1279 1159 1039 1151
8 1153 1038 927 1034 1280 1158 1040 1152
8 1281 1157 1042 1154 1153 1038 929 1035
8 1036 930 1042 1154 1155 1041 1160 1282
8 1283 1164 1046 1159 1156 1047 935 1039
8 1165 1048 1164 1283 1053 937 1047 1156
8 1157 1043 933 1038 1284 1161 1045 1158
8 1157 1043 1161 1284 1042 932 1044 1160
8 1040 934 1046 1159 1158 1045 1163 1285
8 1166 1049 1167 1292 1051 936 1048 1165
8 1166 1049 936 1051 1293 1168 1050 1172
8 1051 936 1052 1175 1172 1050 1173 1306
8 1174 1051 1165 1290 1308 1175 1053 1177
8 1053 937 1054 1178 1175 1052 1176 1309
8 1278 1156 1055 1180 1177 1053 1178 1311
8 1055 938 1056 1181 1178 1054 1179 1312
8 1057 939 1058 1183 1180 1055 1181 1314
8 1058 940 1059 1184 1181 1056 1182 1315
8 1060 942 1061 1185 1183 1058 1184 1316
8 1208 1081 1187 1321 1082 964 1063 1188
8 1209 1082 1188 1322 1097 981 1064 1190
8 1188 1063 1189 1323 1064 947 1065 1191
8 1190 1064 1191 1325 1066 948 1067 1193
8 1191 1065 1192 1326 1067 949 1068 1194
8 1067 1193 1069 950 1194 1327 1195 1070
8 1250 1133 1199 1330 1126 1019 1075 1196
8 1198 1077 1014 1122 1331 1200 1075 1196
8 1074 960 1077 1198 1197 1076 1201 1332
8 1085 980 1076 1197 1215 1099 1201 1332
8 1199 1079 1203 1333 1075 962 1080 1200
8 1132 1025 1119 1243 1199 1079 1203 1333
8 1201 1078 963 1077 1334 1202 1080 1200
8 1099 994 1078 1201 1227 1111 1202 1334
8 1343 1207 1081 1208 1210 1083 964 1082
8 1214 1084 1186 1319 1343 1207 1081 1208
8 1345 1210 1082 1209 1225 1100 981 1097
8 1346 1211 1083 1210 1228 1115 999 1100
8 1086 984 1099 1215 1216 1103 1227 1352
8 1087 985 1103 1216 1217 1104 1230 1353
8 1090 988 1104 1217 1219 1106 1231 1354
8 1218 1105 987 1089 1355 1232 1106 1219
8 1091 991 1105 1218 1220 1109 1232 1355
8 1092 992 1109 1220 1221 1110 1234 1356
8 1222 1108 1233 1357 1095 990 1107 1224
8 1222 1108 993 1093 1357 1233 1110 1221
8 1223 1101 989 1096 1358 1229 1107 1224
8 1226 1102 983 1098 1358 1229 1101 1223
8 1226 1102 1228 1359 1098 983 1100 1225
8 1103 995 1111 1227 1230 1112 1235 1360
8 1107 1002 1117 1233 1229 1116 1240 1362
8 1102 1001 1116 1229 1228 1115 1240 1362
8 1104 996 1112 1230 1231 1113 1236 1363
8 1364 1237 1114 1232 1231 1113 997 1106
8 1109 1005 1114 1232 1234 1118 1238 1365
8 1110 1004 1118 1234 1233 1117 1241 1366
8 1242 1374 1255 1138 1119 1243 1132 1025
8 1244 1127 1254 1376 1121 1015 1129 1245
8 1148 1031 1149 1275 1244 1127 1254 1376
8 1245 1129 1258 1377 1125 1016 1130 1248
8 1251 1134 1019 1126 1378 1257 1128 1246
8 1378 1257 1128 1246 1247 1131 1017 1123
8 1248 1130 1259 1379 1124 1018 1131 1247
8 1261 1381 1250 1133 1132 1249 1330 1199
8 1255 1380 1252 1135 1132 1249 1381 1261
8 1250 1133 1019 1126 1382 1262 1134 1251
8 1253 1136 1256 1385 1384 1263 1135 1252
8 1254 1137 1265 1387 1129 1022 1141 1258
8 1149 1032 1150 1276 1254 1137 1265 1387
8 1028 1135 1255 1138 1139 1256 1388 1266
8 1136 1029 1147 1264 1256 1139 1267 1389
8 1390 1268 1140 1257 1259 1142 1024 1131
8 1260 1143 1027 1134 1390 1268 1140 1257
8 1258 1141 1269 1391 1130 1023 1142 1259
8 1262 1145 1027 1134 1393 1271 1143 1260
8 1261 1144 1026 1133 1394 1272 1145 1262
8 1135 1028 1144 1261 1263 1146 1272 1394
8 1136 1029 1146 1263 1264 1147 1273 1395
8 1155 1041 1160 1282 1275 1149 1276 1405
8 1276 1150 1044 1160 1406 1277 1162 1286
8 1408 1283 1159 1279 1278 1156 1039 1151
8 1290 1165 1283 1408 1177 1053 1156 1278
8 1152 1040 1159 1279 1280 1158 1285 1409
8 1281 1157 1038 1153 1410 1284 1158 1280
8 1281 1157 1284 1410 1154 1042 1160 1282
8 1159 1046 1164 1283 1285 1163 1289 1412
8 1292 1167 1289 1412 1165 1048 1164 1283
8 1158 1045 1163 1285 1284 1161 1288 1413
8 1284 1161 1288 1413 1160 1044 1162 1286
8 1291 1166 1292 1418 1174 1051 1165 1290
8 1291 1166 1051 1174 1419 1293 1172 1305
8 1294 1169 1296 1421 1166 1049 1167 1292
8 1293 1168 1050 1172 1422 1295 1171 1303
8 1294 1169 1049 1166 1423 1297 1168 1293
8 1422 1295 1171 1303 1301 1170 1302 1435
8 1172 1050 1173 1306 1303 1171 1304 1438
8 1174 1051 1175 1308 1305 1172 1306 1440
8 1175 1052 1176 1309 1306 1173 1307 1441
8 1177 1053 1178 1311 1308 1175 1309 1443
8 1178 1054 1179 1312 1309 1176 1310 1444
8 1180 1055 1181 1314 1311 1178 1312 1446
8 1056 1181 1312 1179 1182 1315 1447 1313
8 1183 1058 1184 1316 1314 1181 1315 1448
8 1319 1186 1084 1214 1451 1317 1213 1350
8 1319 1186 1318 1453 1208 1081 1187 1321
8 1321 1187 1320 1456 1188 1063 1189 1323
8 1344 1208 1321 1457 1209 1082 1188 1322
8 1322 1188 1323 1458 1190 1064 1191 1325
8 1323 1189 1324 1459 1191 1065 1192 1326
8 1191 1325 1193 1067 1326 1460 1327 1194
8 1242 1374 1243 1119 1328 1462 1335 1204
8 1330 1199 1333 1465 1196 1075 1200 1331
8 1132 1249 1330 1199 1243 1375 1465 1333
8 1332 1201 1077 1198 1466 1334 1200 1331
8 1215 1099 1201 1332 1352 1227 1334 1466
8 1119 1243 1333 1203 1204 1335 1470 1338
8 1333 1203 1338 1470 1200 1080 1202 1334
8 1227 1111 1202 1334 1360 1235 1338 1470
8 1328 1462 1335 1204 1205 1336 1471 1339
8 1337 1206 1340 1472 1464 1329 1205 1336
8 1346 1211 1342 1479 1210 1083 1207 1343
8 1346 1211 1115 1228 1479 1342 1239 1361
8 1348 1212 1084 1214 1479 1342 1207 1343
8 1480 1343 1208 1344 1345 1210 1082 1209
8 1351 1214 1319 1454 1480 1343 1208 1344
8 1481 1346 1210 1345 1359 1228 1100 1225
8 1348 1212 1347 1483 1214 1084 1213 1350
8 1216 1103 1227 1352 1353 1230 1360 1488
8 1217 1104 1230 1353 1354 1231 1363 1489
8 1490 1364 1232 1355 1354 1231 1106 1219
8 1220 1109 1232 1355 1356 1234 1365 1491
8 1221 1110 1234 1356 1357 1233 1366 1492
8 1224 1107 1233 1357 1358 1229 1362 1493
8 1226 1102 1229 1358 1359 1228 1362 1493
8 1230 1112 1235 1360 1363 1236 1367 1496
8 1361 1239 1115 1228 1497 1371 1240 1362
8 1366 1241 1372 1498 1233 1117 1240 1362
8 1364 1237 1113 1231 1499 1368 1236 1363
8 1364 1237 1368 1499 1232 1114 1238 1365
8 1234 1118 1238 1365 1366 1241 1369 1500
8 1507 1373 1242 1374 1388 1266 1138 1255
8 1508 1374 1243 1375 1380 1255 1132 1249
8 1376 1254 1387 1509 1245 1129 1258 1377
8 1275 1149 1276 1405 1376 1254 1387 1509
8 1377 1258 1391 1510 1248 1130 1259 1379
8 1511 1390 1257 1378 1379 1259 1131 1247
8 1383 1260 1134 1251 1511 1390 1257 1378
8 1252 1135 1256 1385 1380 1255 1388 1512
8 1261 1381 1513 1394 1133 1250 1382 1262
8 1135 1252 1384 1263 1261 1381 1513 1394
8 1382 1262 1134 1251 1514 1393 1260 1383
8 1253 1136 1263 1384 1386 1264 1395 1516
8 1253 1136 1264 1386 1385 1256 1389 1517
8 1387 1265 1397 1519 1258 1141 1269 1391
8 1276 1150 1277 1406 1387 1265 1397 1519
8 1256 1139 1267 1389 1388 1266 1398 1520
8 1264 1147 1274 1396 1389 1267 1399 1521
8 1392 1270 1143 1260 1522 1400 1268 1390
8 1390 1268 1142 1259 1522 1400 1269 1391
8 1392 1270 1401 1523 1260 1143 1271 1393
8 1272 1394 1524 1402 1145 1262 1393 1271
8 1395 1273 1146 1263 1524 1402 1272 1394
8 1273 1395 1264 1147 1403 1526 1396 1274
8 1405 1276 1160 1282 1534 1406 1286 1411
8 1414 1287 1407 1535 1286 1162 1277 1406
8 1279 1159 1283 1408 1409 1285 1412 1537
8 1418 1292 1412 1537 1290 1165 1283 1408
8 1280 1158 1285 1409 1410 1284 1413 1538
8 1410 1284 1413 1538 1282 1160 1286 1411
8 1285 1163 1289 1412 1413 1288 1417 1540
8 1421 1296 1417 1540 1292 1167 1289 1412
8 1414 1287 1162 1286 1541 1416 1288 1413
8 1420 1294 1421 1545 1291 1166 1292 1418
8 1419 1293 1172 1305 1546 1422 1303 1437
8 1420 1294 1166 1291 1547 1423 1293 1419
8 1294 1169 1297 1423 1421 1296 1425 1548
8 1423 1297 1168 1293 1549 1424 1295 1422
8 1301 1170 1298 1427 1422 1295 1424 1549
8 1432 1300 1428 1554 1301 1170 1298 1427
8 1431 1299 1428 1554 1560 1430 1300 1432
8 1563 1433 1300 1432 1435 1302 1170 1301
8 1546 1422 1303 1437 1434 1301 1435 1565
8 1303 1171 1304 1438 1435 1302 1436 1566
8 1305 1172 1306 1440 1437 1303 1438 1568
8 1306 1173 1307 1441 1438 1304 1439 1569
8 1308 1175 1309 1443 1440 1306 1441 1571
8 1309 1176 1310 1444 1441 1307 1442 1572
8 1311 1178 1312 1446 1443 1309 1444 1574
8 1179 1312 1444 1310 1313 1447 1575 1445
8 1314 1181 1315 1448 1446 1312 1447 1576
8 1350 1213 1349 1486 1451 1317 1449 1579
8 1451 1317 1450 1581 1319 1186 1318 1453
8 1454 1319 1214 1351 1582 1451 1350 1487
8 1453 1318 1452 1584 1321 1187 1320 1456
8 1454 1319 1453 1585 1344 1208 1321 1457
8 1456 1320 1455 1586 1323 1189 1324 1459
8 1457 1321 1456 1587 1322 1188 1323 1458
8 1458 1323 1459 1588 1325 1191 1326 1460
8 1205 1336 1464 1329 1328 1462 1590 1461
8 1507 1373 1461 1590 1374 1242 1328 1462
8 1508 1374 1462 1591 1375 1243 1335 1467
8 1337 1206 1329 1464 1473 1341 1463 1594
8 1375 1243 1335 1467 1465 1333 1470 1596
8 1465 1333 1470 1596 1331 1200 1334 1466
8 1352 1227 1334 1466 1488 1360 1470 1596
8 1591 1462 1336 1468 1467 1335 1471 1597
8 1469 1337 1472 1598 1595 1464 1336 1468
8 1471 1339 1474 1600 1335 1204 1338 1470
8 1600 1474 1367 1496 1470 1338 1235 1360
8 1336 1205 1340 1472 1471 1339 1475 1601
8 1337 1206 1341 1473 1472 1340 1476 1602
8 1495 1370 1478 1609 1361 1239 1342 1479
8 1348 1212 1342 1479 1483 1347 1478 1609
8 1481 1346 1479 1610 1345 1210 1343 1480
8 1481 1346 1228 1359 1610 1479 1361 1494
8 1484 1348 1214 1351 1610 1479 1343 1480
8 1483 1347 1482 1612 1350 1213 1349 1486
8 1484 1348 1483 1613 1351 1214 1350 1487
8 1353 1230 1360 1488 1489 1363 1496 1616
8 1490 1364 1231 1354 1617 1499 1363 1489
8 1490 1364 1499 1617 1355 1232 1365 1491
8 1356 1234 1365 1491 1492 1366 1500 1619
8 1492 1366 1498 1620 1357 1233 1362 1493
8 1494 1361 1228 1359 1621 1497 1362 1493
8 1495 1370 1239 1361 1622 1504 1371 1497
8 1363 1236 1367 1496 1499 1368 1501 1623
8 1497 1371 1240 1362 1624 1505 1372 1498
8 1625 1503 1372 1498 1500 1369 1241 1366
8 1365 1238 1368 1499 1500 1369 1502 1626
8 1520 1398 1506 1633 1388 1266 1373 1507
8 1634 1507 1374 1508 1512 1388 1255 1380
8 1509 1387 1519 1635 1377 1258 1391 1510
8 1405 1276 1406 1534 1509 1387 1519 1635
8 1515 1392 1260 1383 1636 1522 1390 1511
8 1511 1390 1259 1379 1636 1522 1391 1510
8 1385 1256 1389 1517 1512 1388 1520 1637
8 1513 1394 1262 1382 1638 1524 1393 1514
8 1395 1516 1638 1524 1263 1384 1513 1394
8 1515 1392 1523 1639 1383 1260 1393 1514
8 1516 1395 1526 1640 1386 1264 1396 1518
8 1386 1264 1396 1518 1517 1389 1521 1641
8 1519 1397 1527 1643 1391 1269 1400 1522
8 1535 1407 1527 1643 1406 1277 1397 1519
8 1389 1267 1399 1521 1520 1398 1528 1644
8 1645 1529 1399 1521 1525 1404 1274 1396
8 1392 1270 1400 1522 1523 1401 1531 1646
8 1524 1402 1271 1393 1648 1532 1401 1523
8 1403 1526 1648 1532 1273 1395 1524 1402
8 1525 1404 1274 1396 1649 1533 1403 1526
8 1539 1414 1535 1657 1411 1286 1406 1534
8 1542 1415 1536 1658 1414 1287 1407 1535
8 1409 1285 1412 1537 1538 1413 1540 1660
8 1545 1421 1540 1660 1418 1292 1412 1537
8 1539 1414 1286 1411 1661 1541 1413 1538
8 1540 1417 1544 1663 1413 1288 1416 1541
8 1421 1296 1425 1548 1540 1417 1544 1663
8 1542 1415 1287 1414 1664 1543 1416 1541
8 1420 1294 1423 1547 1545 1421 1548 1666
8 1547 1423 1293 1419 1667 1549 1422 1546
8 1434 1301 1427 1553 1546 1422 1549 1667
8 1423 1297 1424 1549 1548 1425 1550 1668
8 1551 1426 1550 1668 1427 1298 1424 1549
8 1551 1426 1298 1427 1671 1552 1428 1554
8 1562 1432 1554 1674 1434 1301 1427 1553
8 1431 1299 1429 1558 1554 1428 1555 1675
8 1431 1299 1430 1560 1558 1429 1557 1680
8 1560 1430 1300 1432 1683 1559 1433 1563
8 1561 1431 1554 1674 1684 1560 1432 1562
8 1685 1563 1432 1562 1565 1435 1301 1434
8 1435 1302 1436 1566 1563 1433 1564 1686
8 1437 1303 1438 1568 1565 1435 1566 1688
8 1438 1304 1439 1569 1566 1436 1567 1689
8 1440 1306 1441 1571 1568 1438 1569 1691
8 1441 1307 1442 1572 1569 1439 1570 1692
8 1443 1309 1444 1574 1571 1441 1572 1694
8 1310 1444 1572 1442 1445 1575 1695 1573
8 1446 1312 1447 1576 1574 1444 1575 1696
8 1486 1349 1485 1614 1579 1449 1577 1699
8 1451 1317 1449 1579 1581 1450 1578 1701
8 1487 1350 1486 1615 1582 1451 1579 1702
8 1581 1450 1580 1704 1453 1318 1452 1584
8 1582 1451 1581 1705 1454 1319 1453 1585
8 1584 1452 1583 1706 1456 1320 1455 1586
8 1585 1453 1584 1707 1457 1321 1456 1587
8 1587 1456 1586 1708 1458 1323 1459 1588
8 1633 1506 1589 1710 1507 1373 1461 1590
8 1464 1329 1461 1590 1594 1463 1589 1710
8 1468 1336 1462 1591 1595 1464 1590 1711
8 1634 1507 1590 1711 1508 1374 1462 1591
8 1473 1341 1463 1594 1603 1477 1593 1716
8 1469 1337 1464 1595 1599 1473 1594 1717
8 1471 1597 1467 1335 1600 1718 1596 1470
8 1718 1600 1496 1616 1596 1470 1360 1488
8 1336 1468 1597 1471 1472 1598 1719 1601
8 1469 1337 1473 1599 1598 1472 1602 1720
8 1722 1604 1501 1623 1600 1474 1367 1496
8 1475 1601 1471 1339 1604 1722 1600 1474
8 1602 1476 1605 1723 1472 1340 1475 1601
8 1476 1602 1724 1606 1341 1473 1603 1477
8 1483 1347 1478 1609 1612 1482 1608 1731
8 1495 1370 1504 1622 1609 1478 1608 1731
8 1618 1495 1609 1732 1494 1361 1479 1610
8 1484 1348 1479 1610 1613 1483 1609 1732
8 1486 1349 1482 1612 1614 1485 1611 1733
8 1613 1483 1612 1734 1487 1350 1486 1615
8 1489 1363 1496 1616 1617 1499 1623 1736
8 1491 1365 1499 1617 1619 1500 1626 1737
8 1618 1495 1361 1494 1738 1622 1497 1621
8 1739 1625 1498 1620 1619 1500 1366 1492
8 1621 1497 1362 1493 1740 1624 1498 1620
8 1742 1631 1504 1622 1624 1505 1371 1497
8 1743 1628 1502 1626 1623 1501 1368 1499
8 1744 1630 1505 1624 1625 1503 1372 1498
8 1745 1629 1503 1625 1626 1502 1369 1500
8 1520 1398 1528 1644 1633 1506 1632 1751
8 1637 1520 1633 1752 1512 1388 1507 1634
8 1635 1519 1643 1753 1510 1391 1522 1636
8 1657 1535 1643 1753 1534 1406 1519 1635
8 1515 1392 1522 1636 1639 1523 1646 1754
8 1517 1389 1521 1641 1637 1520 1644 1755
8 1524 1638 1756 1648 1393 1514 1639 1523
8 1640 1526 1395 1516 1756 1648 1524 1638
8 1642 1525 1396 1518 1757 1649 1526 1640
8 1758 1645 1521 1641 1642 1525 1396 1518
8 1646 1531 1400 1522 1760 1650 1527 1643
8 1535 1407 1536 1658 1643 1527 1650 1760
8 1521 1399 1529 1645 1644 1528 1651 1761
8 1647 1530 1652 1762 1525 1404 1529 1645
8 1401 1523 1648 1532 1531 1646 1763 1655
8 1525 1404 1533 1649 1647 1530 1654 1765
8 1533 1649 1766 1656 1403 1526 1648 1532
8 1662 1542 1658 1774 1539 1414 1535 1657
8 1542 1415 1543 1664 1658 1536 1659 1775
8 1660 1540 1663 1777 1538 1413 1541 1661
8 1545 1421 1548 1666 1660 1540 1663 1777
8 1662 1542 1414 1539 1778 1664 1541 1661
8 1664 1543 1416 1541 1779 1665 1544 1663
8 1548 1425 1550 1668 1663 1544 1665 1779
8 1547 1423 1549 1667 1666 1548 1668 1781
8 1670 1551 1668 1781 1553 1427 1549 1667
8 1551 1426 1552 1671 1668 1550 1669 1782
8 1670 1551 1427 1553 1784 1671 1554 1674
8 1675 1555 1672 1785 1554 1428 1552 1671
8 1678 1556 1673 1789 1558 1429 1555 1675
8 1561 1431 1558 1681 1674 1554 1675 1790
8 1794 1677 1556 1678 1680 1557 1429 1558
8 1560 1430 1559 1683 1680 1557 1679 1797
8 1561 1431 1560 1684 1681 1558 1680 1798
8 1563 1433 1564 1686 1683 1559 1682 1800
8 1684 1560 1432 1562 1801 1683 1563 1685
8 1565 1435 1566 1688 1685 1563 1686 1802
8 1566 1436 1567 1689 1686 1564 1687 1803
8 1568 1438 1569 1691 1688 1566 1689 1805
8 1569 1439 1570 1692 1689 1567 1690 1806
8 1571 1441 1572 1694 1691 1569 1692 1808
8 1442 1572 1692 1570 1573 1695 1809 1693
8 1574 1444 1575 1696 1694 1572 1695 1810
8 1614 1485 1592 1712 1699 1577 1697 1813
8 1579 1449 1577 1699 1701 1578 1698 1815
8 1615 1486 1614 1735 1702 1579 1699 1816
8 1701 1578 1700 1818 1581 1450 1580 1704
8 1582 1451 1579 1702 1705 1581 1701 1819
8 1704 1580 1703 1820 1584 1452 1583 1706
8 1705 1581 1704 1821 1585 1453 1584 1707
8 1707 1584 1706 1822 1587 1456 1586 1708
8 1710 1589 1506 1633 1824 1709 1632 1751
8 1594 1463 1589 1710 1716 1593 1709 1824
8 1752 1633 1710 1825 1634 1507 1590 1711
8 1595 1464 1590 1711 1717 1594 1710 1825
8 1830 1714 1592 1712 1733 1611 1485 1614
8 1603 1477 1593 1716 1725 1607 1715 1834
8 1599 1473 1594 1717 1721 1603 1716 1835
8 1837 1722 1623 1736 1718 1600 1496 1616
8 1719 1601 1722 1837 1597 1471 1600 1718
8 1602 1720 1598 1472 1723 1838 1719 1601
8 1720 1602 1473 1599 1839 1724 1603 1721
8 1723 1605 1726 1840 1601 1475 1604 1722
8 1840 1726 1628 1743 1722 1604 1501 1623
8 1724 1606 1727 1841 1602 1476 1605 1723
8 1725 1607 1728 1842 1603 1477 1606 1724
8 1612 1482 1608 1731 1733 1611 1730 1849
8 1741 1627 1730 1849 1622 1504 1608 1731
8 1613 1483 1609 1732 1734 1612 1731 1850
8 1618 1495 1622 1738 1732 1609 1731 1850
8 1615 1486 1612 1734 1735 1614 1733 1851
8 1852 1743 1626 1737 1736 1623 1499 1617
8 1853 1745 1625 1739 1737 1626 1500 1619
8 1855 1742 1622 1738 1740 1624 1497 1621
8 1856 1744 1624 1740 1739 1625 1498 1620
8 1741 1627 1504 1622 1857 1746 1631 1742
8 1742 1631 1505 1624 1858 1749 1630 1744
8 1859 1747 1629 1745 1743 1628 1502 1626
8 1860 1748 1630 1744 1745 1629 1503 1625
8 1644 1528 1651 1761 1751 1632 1750 1865
8 1637 1520 1644 1755 1752 1633 1751 1866
8 1754 1646 1522 1636 1867 1760 1643 1753
8 1657 1535 1658 1774 1753 1643 1760 1867
8 1639 1523 1646 1754 1756 1648 1763 1868
8 1641 1521 1645 1758 1755 1644 1761 1869
8 1757 1649 1526 1640 1870 1766 1648 1756
8 1642 1525 1649 1757 1759 1647 1765 1871
8 1759 1647 1762 1872 1642 1525 1645 1758
8 1760 1650 1767 1874 1646 1531 1655 1763
8 1658 1536 1659 1775 1760 1650 1767 1874
8 1762 1652 1768 1875 1645 1529 1651 1761
8 1764 1653 1769 1876 1647 1530 1652 1762
8 1656 1766 1877 1773 1532 1648 1763 1655
8 1771 1879 1765 1654 1653 1764 1647 1530
8 1533 1649 1765 1654 1656 1766 1880 1772
8 1662 1542 1664 1778 1774 1658 1775 1887
8 1664 1543 1665 1779 1775 1659 1776 1888
8 1778 1664 1541 1661 1890 1779 1663 1777
8 1666 1548 1668 1781 1777 1663 1779 1890
8 1782 1669 1780 1891 1668 1550 1665 1779
8 1670 1551 1671 1784 1781 1668 1782 1893
8 1671 1552 1672 1785 1782 1669 1783 1894
8 1790 1675 1785 1896 1674 1554 1671 1784
8 1675 1555 1673 1789 1785 1672 1786 1897
8 1792 1676 1788 1903 1678 1556 1673 1789
8 1795 1678 1789 1904 1681 1558 1675 1790
8 1792 1676 1556 1678 1906 1791 1677 1794
8 1680 1557 1679 1797 1794 1677 1793 1909
8 1910 1794 1678 1795 1798 1680 1558 1681
8 1683 1559 1682 1800 1797 1679 1796 1912
8 1684 1560 1683 1801 1798 1680 1797 1913
8 1686 1564 1687 1803 1800 1682 1799 1915
8 1685 1563 1686 1802 1801 1683 1800 1916
8 1688 1566 1689 1805 1802 1686 1803 1917
8 1689 1567 1690 1806 1803 1687 1804 1918
8 1691 1569 1692 1808 1805 1689 1806 1920
8 1692 1570 1693 1809 1806 1690 1807 1921
8 1694 1572 1695 1810 1808 1692 1809 1922
8 1829 1713 1811 1926 1712 1592 1697 1813
8 1813 1697 1812 1928 1699 1577 1698 1815
8 1735 1614 1712 1828 1816 1699 1813 1929
8 1815 1698 1814 1931 1701 1578 1700 1818
8 1702 1579 1699 1816 1819 1701 1815 1932
8 1818 1700 1817 1933 1704 1580 1703 1820
8 1819 1701 1818 1934 1705 1581 1704 1821
8 1821 1704 1820 1935 1707 1584 1706 1822
8 1824 1709 1632 1751 1937 1823 1750 1865
8 1716 1593 1709 1824 1834 1715 1823 1937
8 1825 1710 1633 1752 1938 1824 1751 1866
8 1717 1594 1710 1825 1835 1716 1824 1938
8 1945 1830 1712 1828 1851 1733 1614 1735
8 1830 1714 1831 1946 1712 1592 1713 1829
8 1947 1832 1714 1830 1849 1730 1611 1733
8 1843 1729 1607 1725 1950 1833 1715 1834
8 1721 1603 1716 1835 1836 1725 1834 1951
8 1836 1725 1842 1953 1721 1603 1724 1839
8 1723 1838 1719 1601 1840 1954 1837 1722
8 1954 1840 1743 1852 1837 1722 1623 1736
8 1724 1839 1720 1602 1841 1955 1838 1723
8 1841 1727 1844 1956 1723 1605 1726 1840
8 1956 1844 1747 1859 1840 1726 1628 1743
8 1728 1842 1724 1606 1845 1957 1841 1727
8 1725 1607 1729 1843 1842 1728 1846 1958
8 1741 1627 1746 1857 1849 1730 1848 1965
8 1734 1612 1731 1850 1851 1733 1849 1966
8 1854 1741 1849 1966 1738 1622 1731 1850
8 1967 1859 1745 1853 1852 1743 1626 1737
8 1968 1860 1744 1856 1853 1745 1625 1739
8 1854 1741 1622 1738 1969 1857 1742 1855
8 1855 1742 1624 1740 1970 1858 1744 1856
8 1857 1746 1631 1742 1971 1861 1749 1858
8 1858 1749 1630 1744 1972 1863 1748 1860
8 1859 1747 1862 1973 1745 1629 1748 1860
8 1875 1768 1864 1977 1761 1651 1750 1865
8 1755 1644 1761 1869 1866 1751 1865 1978
8 1867 1760 1874 1979 1754 1646 1763 1868
8 1774 1658 1775 1887 1867 1760 1874 1979
8 1870 1766 1648 1756 1980 1877 1763 1868
8 1872 1762 1875 1981 1758 1645 1761 1869
8 1757 1649 1766 1870 1871 1765 1880 1982
8 1983 1879 1764 1873 1871 1765 1647 1759
8 1873 1764 1876 1984 1759 1647 1762 1872
8 1877 1773 1655 1763 1986 1881 1767 1874
8 1775 1659 1776 1888 1874 1767 1881 1986
8 1876 1769 1882 1987 1762 1652 1768 1875
8 1878 1770 1883 1988 1764 1653 1769 1876
8 1880 1772 1656 1766 1989 1886 1773 1877
8 1878 1770 1653 1764 1990 1884 1771 1879
8 1765 1654 1772 1880 1879 1771 1885 1991
8 1778 1664 1779 1890 1887 1775 1888 1997
8 1998 1889 1776 1888 1891 1780 1665 1779
8 1893 1782 1891 2000 1781 1668 1779 1890
8 1894 1783 1892 2001 1782 1669 1780 1891
8 1784 1671 1785 1896 1893 1782 1894 2003
8 1897 1786 1895 2004 1785 1672 1783 1894
8 1790 1675 1789 1904 1896 1785 1897 2006
8 1901 1787 1898 2007 1789 1673 1786 1897
8 1903 1788 1900 2013 1789 1673 1787 1901
8 1792 1676 1791 1906 1903 1788 1902 2016
8 1907 1792 1903 2017 1795 1678 1789 1904
8 1906 1791 1677 1794 2019 1905 1793 1909
8 1907 1792 1678 1795 2020 1906 1794 1910
8 1797 1679 1796 1912 1909 1793 1908 2022
8 1798 1680 1797 1913 1910 1794 1909 2023
8 1800 1682 1799 1915 1912 1796 1911 2025
8 1801 1683 1800 1916 1913 1797 1912 2026
8 1803 1687 1804 1918 1915 1799 1914 2028
8 1802 1686 1803 1917 1916 1800 1915 2029
8 1805 1689 1806 1920 1917 1803 1918 2030
8 1806 1690 1807 1921 1918 1804 1919 2031
8 1808 1692 1809 1922 1920 1806 1921 2032
8 1939 1826 1924 2037 1829 1713 1811 1926
8 1926 1811 1925 2039 1813 1697 1812 1928
8 1944 1829 1926 2040 1828 1712 1813 1929
8 1928 1812 1927 2042 1815 1698 1814 1931
8 1929 1813 1928 2043 1816 1699 1815 1932
8 1931 1814 1930 2044 1818 1700 1817 1933
8 1932 1815 1931 2045 1819 1701 1818 1934
8 1934 1818 1933 2046 1821 1704 1820 1935
8 2048 1936 1823 1937 1977 1864 1750 1865
8 1950 1833 1715 1834 2048 1936 1823 1937
8 1938 1824 1751 1866 2049 1937 1865 1978
8 1835 1716 1824 1938 1951 1834 1937 2049
8 1939 1826 1713 1829 2053 1942 1831 1946
8 1940 1827 1923 2035 2053 1942 1826 1939
8 1945 1830 1946 2058 1828 1712 1829 1944
8 2059 1947 1830 1945 1966 1849 1733 1851
8 1947 1832 1730 1849 2060 1948 1848 1965
8 1947 1832 1948 2060 1830 1714 1831 1946
8 1959 1847 1729 1843 2063 1949 1833 1950
8 1952 1843 1725 1836 2064 1950 1834 1951
8 1836 1725 1843 1952 1953 1842 1958 2066
8 1953 1842 1957 2067 1839 1724 1841 1955
8 1841 1955 1838 1723 1956 2068 1954 1840
8 2068 1956 1859 1967 1954 1840 1743 1852
8 1956 1844 1960 2069 1859 1747 1862 1973
8 1845 1957 1841 1727 1960 2069 1956 1844
8 1728 1842 1957 1845 1846 1958 2071 1961
8 1962 2072 1959 1847 1846 1958 1843 1729
8 1971 1861 1964 2077 1857 1746 1848 1965
8 1854 1741 1857 1969 1966 1849 1965 2078
8 1967 1859 1973 2079 1853 1745 1860 1968
8 1970 1858 1744 1856 2080 1972 1860 1968
8 1969 1857 1742 1855 2081 1971 1858 1970
8 1971 1861 1749 1858 2082 1974 1863 1972
8 1973 1862 1975 2083 1860 1748 1863 1972
8 1987 1882 1976 2086 1875 1768 1864 1977
8 1981 1875 1977 2087 1869 1761 1865 1978
8 1980 1877 1763 1868 2088 1986 1874 1979
8 1887 1775 1888 1997 1979 1874 1986 2088
8 1880 1982 2089 1989 1766 1870 1980 1877
8 1984 1876 1987 2090 1872 1762 1875 1981
8 1765 1871 1983 1879 1880 1982 2091 1991
8 1985 1878 1764 1873 2092 1990 1879 1983
8 1985 1878 1988 2093 1873 1764 1876 1984
8 2094 1992 1881 1986 1998 1889 1776 1888
8 1986 1881 1992 2094 1877 1773 1886 1989
8 1988 1883 1993 2095 1876 1769 1882 1987
8 1878 1770 1884 1990 1988 1883 1994 2096
8 1991 1885 1772 1880 2097 1996 1886 1989
8 1879 1771 1885 1991 1990 1884 1995 2098
8 2103 1998 1888 1997 2000 1891 1779 1890
8 2104 1999 1889 1998 2001 1892 1780 1891
8 2003 1894 2001 2106 1893 1782 1891 2000
8 2004 1895 2002 2107 1894 1783 1892 2001
8 2006 1897 2004 2109 1896 1785 1894 2003
8 2007 1898 2005 2110 1897 1786 1895 2004
8 2014 1901 2007 2112 1904 1789 1897 2006
8 2011 1899 2008 2113 1901 1787 1898 2007
8 2119 2010 1899 2011 2013 1900 1787 1901
8 2016 1902 2012 2122 1903 1788 1900 2013
8 2017 1903 2013 2123 1904 1789 1901 2014
8 1906 1791 1905 2019 2016 1902 2015 2125
8 1907 1792 1906 2020 2017 1903 2016 2126
8 1909 1793 1908 2022 2019 1905 2018 2128
8 2020 1906 1794 1910 2129 2019 1909 2023
8 1912 1796 1911 2025 2022 1908 2021 2131
8 1913 1797 1912 2026 2023 1909 2022 2132
8 1915 1799 1914 2028 2025 1911 2024 2134
8 1916 1800 1915 2029 2026 1912 2025 2135
8 1918 1804 1919 2031 2028 1914 2027 2136
8 1917 1803 1918 2030 2029 1915 2028 2137
8 1920 1806 1921 2032 2030 1918 2031 2138
8 1940 1827 1941 2054 2035 1923 2033 2140
8 2035 1923 2034 2143 1939 1826 1924 2037
8 2037 1924 2036 2146 1926 1811 1925 2039
8 2051 1939 2037 2147 1944 1829 1926 2040
8 2039 1925 2038 2149 1928 1812 1927 2042
8 2040 1926 2039 2150 1929 1813 1928 2043
8 2042 1927 2041 2151 1931 1814 1930 2044
8 2043 1928 2042 2152 1932 1815 1931 2045
8 2045 1931 2044 2153 1934 1818 1933 2046
8 2155 2047 1936 2048 2086 1976 1864 1977
8 2063 1949 1833 1950 2155 2047 1936 2048
8 2156 2048 1937 2049 2087 1977 1865 1978
8 2064 1950 1834 1951 2156 2048 1937 2049
8 2051 1939 1829 1944 2160 2053 1946 2058
8 2052 1940 2035 2144 2160 2053 1939 2051
8 2053 1942 1831 1946 2163 2057 1948 2060
8 2055 1943 1827 1940 2163 2057 1942 2053
8 2055 1943 2056 2164 1940 1827 1941 2054
8 2059 1947 1849 1966 2167 2060 1965 2078
8 2059 1947 2060 2167 1945 1830 1946 2058
8 2077 1964 2061 2168 1965 1848 1948 2060
8 2070 1963 1847 1959 2170 2062 1949 2063
8 2065 1959 1843 1952 2171 2063 1950 2064
8 2173 2072 1958 2066 2065 1959 1843 1952
8 1953 1842 1958 2066 2067 1957 2071 2174
8 2068 1956 2069 2175 1967 1859 1973 2079
8 2067 1957 2069 2175 1955 1841 1956 2068
8 1845 1957 2069 1960 1961 2071 2176 2073
8 2069 1960 2073 2176 1973 1862 1975 2083
8 2070 1963 2075 2177 1959 1847 1962 2072
8 1846 1958 2071 1961 1962 2072 2178 2074
8 2077 1964 1861 1971 2182 2076 1974 2082
8 2081 1971 2077 2183 1969 1857 1965 2078
8 2079 1973 2083 2184 1968 1860 1972 2080
8 2081 1971 1858 1970 2185 2082 1972 2080
8 2083 1975 2084 2186 1972 1863 1974 2082
8 2086 1976 1882 1987 2189 2085 1993 2095
8 2090 1987 2086 2190 1981 1875 1977 2087
8 2191 2094 1986 2088 2103 1998 1888 1997
8 2088 1986 2094 2191 1980 1877 1989 2089
8 1991 2091 2192 2097 1880 1982 2089 1989
8 2093 1988 2095 2193 1984 1876 1987 2090
8 1879 1983 2092 1990 1991 2091 2194 2098
8 1985 1878 1990 2092 2093 1988 2096 2195
8 2097 1996 1886 1989 2196 2099 1992 2094
8 2196 2099 1992 2094 2104 1999 1889 1998
8 1994 2096 1988 1883 2100 2197 2095 1993
8 2096 1994 1884 1990 2198 2101 1995 2098
8 1995 2098 2199 2102 1885 1991 2097 1996
8 2203 2104 1998 2103 2106 2001 1891 2000
8 2107 2002 2105 2204 2001 1892 1999 2104
8 2109 2004 2107 2206 2003 1894 2001 2106
8 2110 2005 2108 2207 2004 1895 2002 2107
8 2112 2007 2110 2209 2006 1897 2004 2109
8 2113 2008 2111 2210 2007 1898 2005 2110
8 2120 2011 2113 2212 2014 1901 2007 2112
8 2117 2009 2114 2213 2011 1899 2008 2113
8 2219 2116 2009 2117 2119 2010 1899 2011
8 2222 2118 2010 2119 2122 2012 1900 2013
8 2223 2119 2011 2120 2123 2013 1901 2014
8 2016 1902 2015 2125 2122 2012 2121 2225
8 2126 2016 2122 2226 2017 1903 2013 2123
8 2019 1905 2018 2128 2125 2015 2124 2228
8 2020 1906 2019 2129 2126 2016 2125 2229
8 2022 1908 2021 2131 2128 2018 2127 2231
8 2023 1909 2022 2132 2129 2019 2128 2232
8 2025 1911 2024 2134 2131 2021 2130 2234
8 2026 1912 2025 2135 2132 2022 2131 2235
8 1914 2028 2134 2024 2027 2136 2236 2133
8 2029 1915 2028 2137 2135 2025 2134 2237
8 2030 1918 2031 2138 2137 2028 2136 2238
8 2157 2050 2139 2240 2054 1941 2033 2140
8 2052 1940 2054 2161 2144 2035 2140 2242
8 2140 2033 2141 2243 2035 1923 2034 2143
8 2143 2034 2142 2246 2037 1924 2036 2146
8 2144 2035 2143 2247 2051 1939 2037 2147
8 2146 2036 2145 2249 2039 1925 2038 2149
8 2147 2037 2146 2250 2040 1926 2039 2150
8 2149 2038 2148 2251 2042 1927 2041 2151
8 2150 2039 2149 2252 2043 1928 2042 2152
8 2152 2042 2151 2253 2045 1931 2044 2153
8 2255 2154 2047 2155 2189 2085 1976 2086
8 2170 2062 1949 2063 2255 2154 2047 2155
8 2256 2155 2048 2156 2190 2086 1977 2087
8 2171 2063 1950 2064 2256 2155 2048 2156
8 2258 2159 2050 2157 2164 2056 1941 2054
8 2160 2053 1946 2058 2262 2163 2060 2167
8 2162 2055 1940 2052 2262 2163 2053 2160
8 2162 2055 2164 2263 2052 1940 2054 2161
8 2163 2057 1948 2060 2264 2165 2061 2168
8 2055 1943 2057 2163 2164 2056 2165 2264
8 2182 2076 2166 2268 2077 1964 2061 2168
8 2183 2077 2168 2269 2078 1965 2060 2167
8 2070 1963 2062 2170 2177 2075 2169 2271
8 2172 2070 1959 2065 2272 2170 2063 2171
8 2172 2070 2177 2273 2065 1959 2072 2173
8 2066 1958 2072 2173 2174 2071 2178 2274
8 2067 1957 2071 2174 2175 2069 2176 2275
8 2175 2069 2176 2275 2079 1973 2083 2184
8 2071 1961 2074 2178 2176 2073 2179 2276
8 2176 2073 2179 2276 2083 1975 2084 2186
8 2072 1962 2075 2177 2178 2074 2180 2277
8 2182 2076 1974 2082 2280 2181 2084 2186
8 2183 2077 1971 2081 2281 2182 2082 2185
8 2184 2083 2186 2282 2080 1972 2082 2185
8 2189 2085 1993 2095 2285 2188 2100 2197
8 2190 2086 1987 2090 2286 2189 2095 2193
8 2192 2097 1989 2089 2287 2196 2094 2191
8 2287 2196 2094 2191 2203 2104 1998 2103
8 2194 2098 1991 2091 2288 2199 2097 2192
8 2195 2096 2197 2289 2093 1988 2095 2193
8 2096 2195 2290 2198 1990 2092 2194 2098
8 2097 1996 2099 2196 2199 2102 2200 2291
8 2196 2099 1999 2104 2291 2200 2105 2204
8 2100 2197 2292 2201 1994 2096 2198 2101
8 1995 2098 2198 2101 2102 2199 2293 2202
8 2206 2107 2204 2296 2106 2001 2104 2203
8 2207 2108 2205 2297 2107 2002 2105 2204
8 2209 2110 2207 2299 2109 2004 2107 2206
8 2210 2111 2208 2300 2110 2005 2108 2207
8 2212 2113 2210 2302 2112 2007 2110 2209
8 2213 2114 2211 2303 2113 2008 2111 2210
8 2220 2117 2213 2305 2120 2011 2113 2212
8 2216 2115 2214 2306 2117 2009 2114 2213
8 2216 2115 2009 2117 2311 2217 2116 2219
8 2219 2116 2010 2119 2314 2218 2118 2222
8 2315 2219 2117 2220 2223 2119 2011 2120
8 2122 2012 2121 2225 2222 2118 2221 2317
8 2318 2222 2119 2223 2226 2122 2013 2123
8 2125 2015 2124 2228 2225 2121 2224 2320
8 2126 2016 2125 2229 2226 2122 2225 2321
8 2128 2018 2127 2231 2228 2124 2227 2323
8 2129 2019 2128 2232 2229 2125 2228 2324
8 2131 2021 2130 2234 2231 2127 2230 2326
8 2132 2022 2131 2235 2232 2128 2231 2327
8 2134 2024 2133 2236 2234 2130 2233 2328
8 2135 2025 2134 2237 2235 2131 2234 2329
8 2137 2028 2136 2238 2237 2134 2236 2330
8 2157 2050 2158 2259 2240 2139 2239 2332
8 2257 2157 2240 2334 2161 2054 2140 2242
8 2240 2139 2241 2335 2140 2033 2141 2243
8 2242 2140 2243 2337 2144 2035 2143 2247
8 2243 2141 2244 2338 2143 2034 2142 2246
8 2246 2142 2245 2341 2146 2036 2145 2249
8 2247 2143 2246 2342 2147 2037 2146 2250
8 2249 2145 2248 2343 2149 2038 2148 2251
8 2250 2146 2249 2344 2150 2039 2149 2252
8 2252 2149 2251 2345 2152 2042 2151 2253
8 2169 2271 2347 2254 2062 2170 2255 2154
8 2189 2085 2188 2285 2255 2154 2254 2347
8 2348 2255 2155 2256 2286 2189 2086 2190
8 2272 2170 2063 2171 2348 2255 2155 2256
8 2349 2258 2157 2257 2263 2164 2054 2161
8 2258 2159 2261 2351 2157 2050 2158 2259
8 2258 2159 2056 2164 2351 2261 2165 2264
8 2262 2163 2060 2167 2355 2264 2168 2269
8 2162 2055 2163 2262 2263 2164 2264 2355
8 2357 2266 2165 2264 2268 2166 2061 2168
8 2268 2166 2076 2182 2361 2267 2181 2280
8 2281 2182 2268 2362 2183 2077 2168 2269
8 2271 2169 2270 2364 2177 2075 2180 2277
8 2172 2070 2170 2272 2273 2177 2271 2365
8 2072 2173 2274 2178 2177 2273 2366 2277
8 2071 2174 2275 2176 2178 2274 2367 2276
8 2275 2176 2276 2367 2184 2083 2186 2282
8 2283 2187 2084 2186 2368 2278 2179 2276
8 2178 2074 2180 2277 2276 2179 2278 2368
8 2283 2187 2279 2370 2186 2084 2181 2280
8 2281 2182 2082 2185 2371 2280 2186 2282
8 2188 2285 2374 2284 2100 2197 2292 2201
8 2286 2189 2095 2193 2375 2285 2197 2289
8 2192 2097 2196 2287 2288 2199 2291 2376
8 2287 2196 2104 2203 2376 2291 2204 2296
8 2194 2098 2199 2288 2290 2198 2293 2377
8 2289 2197 2096 2195 2378 2292 2198 2290
8 2291 2200 2105 2204 2379 2294 2205 2297
8 2199 2102 2200 2291 2293 2202 2294 2379
8 2198 2101 2202 2293 2292 2201 2295 2380
8 2299 2207 2297 2383 2206 2107 2204 2296
8 2300 2208 2298 2384 2207 2108 2205 2297
8 2302 2210 2300 2386 2209 2110 2207 2299
8 2303 2211 2301 2387 2210 2111 2208 2300
8 2305 2213 2303 2389 2212 2113 2210 2302
8 2306 2214 2304 2390 2213 2114 2211 2303
8 2310 2216 2306 2392 2220 2117 2213 2305
8 2308 2215 2307 2393 2216 2115 2214 2306
8 2308 2215 2115 2216 2396 2309 2217 2311
8 2310 2216 2117 2220 2398 2311 2219 2315
8 2311 2217 2116 2219 2399 2312 2218 2314
8 2314 2218 2118 2222 2402 2313 2221 2317
8 2315 2219 2119 2223 2403 2314 2222 2318
8 2225 2121 2224 2320 2317 2221 2316 2405
8 2226 2122 2225 2321 2318 2222 2317 2406
8 2228 2124 2227 2323 2320 2224 2319 2408
8 2229 2125 2228 2324 2321 2225 2320 2409
8 2231 2127 2230 2326 2323 2227 2322 2411
8 2232 2128 2231 2327 2324 2228 2323 2412
8 2234 2130 2233 2328 2326 2230 2325 2413
8 2235 2131 2234 2329 2327 2231 2326 2414
8 2237 2134 2236 2330 2329 2234 2328 2415
8 2259 2158 2260 2352 2332 2239 2331 2417
8 2257 2157 2259 2350 2334 2240 2332 2419
8 2240 2139 2239 2332 2335 2241 2333 2420
8 2334 2240 2335 2422 2242 2140 2243 2337
8 2335 2241 2336 2423 2243 2141 2244 2338
8 2337 2243 2338 2425 2247 2143 2246 2342
8 2338 2244 2339 2426 2246 2142 2245 2341
8 2341 2245 2340 2428 2249 2145 2248 2343
8 2342 2246 2341 2429 2250 2146 2249 2344
8 2344 2249 2343 2430 2252 2149 2251 2345
8 2188 2285 2347 2254 2284 2374 2432 2346
8 2347 2254 2346 2432 2271 2169 2270 2364
8 2365 2271 2170 2272 2433 2347 2255 2348
8 2286 2189 2285 2375 2348 2255 2347 2433
8 2349 2258 2351 2435 2257 2157 2259 2350
8 2349 2258 2164 2263 2435 2351 2264 2355
8 2259 2158 2261 2351 2352 2260 2354 2437
8 2356 2265 2354 2437 2264 2165 2261 2351
8 2441 2357 2264 2355 2362 2268 2168 2269
8 2356 2265 2165 2264 2442 2358 2266 2357
8 2443 2359 2266 2357 2361 2267 2166 2268
8 2370 2279 2360 2446 2280 2181 2267 2361
8 2362 2268 2182 2281 2447 2361 2280 2371
8 2180 2277 2368 2278 2270 2364 2449 2363
8 2271 2365 2273 2177 2364 2450 2366 2277
8 2372 2283 2186 2282 2451 2368 2276 2367
8 2178 2274 2367 2276 2277 2366 2451 2368
8 2283 2187 2278 2368 2370 2279 2369 2452
8 2372 2283 2370 2453 2282 2186 2280 2371
8 2284 2374 2455 2373 2201 2292 2380 2295
8 2375 2285 2197 2289 2456 2374 2292 2378
8 2376 2291 2204 2296 2457 2379 2297 2383
8 2288 2199 2291 2376 2377 2293 2379 2457
8 2198 2290 2378 2292 2293 2377 2458 2380
8 2293 2202 2294 2379 2380 2295 2381 2459
8 2384 2298 2381 2459 2297 2205 2294 2379
8 2386 2300 2384 2463 2299 2207 2297 2383
8 2387 2301 2385 2464 2300 2208 2298 2384
8 2389 2303 2387 2466 2302 2210 2300 2386
8 2390 2304 2388 2467 2303 2211 2301 2387
8 2392 2306 2390 2469 2305 2213 2303 2389
8 2393 2307 2391 2470 2306 2214 2304 2390
8 2395 2308 2393 2472 2310 2216 2306 2392
8 2308 2215 2309 2396 2393 2307 2394 2473
8 2395 2308 2216 2310 2475 2396 2311 2398
8 2396 2309 2217 2311 2476 2397 2312 2399
8 2398 2311 2219 2315 2478 2399 2314 2403
8 2399 2312 2218 2314 2479 2400 2313 2402
8 2317 2221 2316 2405 2402 2313 2401 2482
8 2403 2314 2222 2318 2483 2402 2317 2406
8 2320 2224 2319 2408 2405 2316 2404 2485
8 2321 2225 2320 2409 2406 2317 2405 2486
8 2323 2227 2322 2411 2408 2319 2407 2488
8 2324 2228 2323 2412 2409 2320 2408 2489
8 2326 2230 2325 2413 2411 2322 2410 2490
8 2327 2231 2326 2414 2412 2323 2411 2491
8 2329 2234 2328 2415 2414 2326 2413 2492
8 2417 2331 2260 2352 2494 2416 2353 2438
8 2350 2259 2352 2436 2419 2332 2417 2496
8 2332 2239 2331 2417 2420 2333 2418 2497
8 2334 2240 2332 2419 2422 2335 2420 2499
8 2420 2333 2421 2500 2335 2241 2336 2423
8 2422 2335 2423 2502 2337 2243 2338 2425
8 2423 2336 2424 2503 2338 2244 2339 2426
8 2425 2338 2426 2505 2342 2246 2341 2429
8 2426 2339 2427 2506 2341 2245 2340 2428
8 2429 2341 2428 2507 2344 2249 2343 2430
8 2432 2346 2284 2374 2509 2431 2373 2455
8 2432 2346 2431 2509 2364 2270 2363 2449
8 2375 2285 2374 2456 2433 2347 2432 2510
8 2347 2433 2365 2271 2432 2510 2450 2364
8 2350 2259 2351 2435 2436 2352 2437 2514
8 2440 2356 2437 2514 2355 2264 2351 2435
8 2352 2260 2354 2437 2438 2353 2439 2516
8 2356 2265 2358 2442 2437 2354 2439 2516
8 2440 2356 2264 2355 2518 2442 2357 2441
8 2519 2443 2357 2441 2447 2361 2268 2362
8 2443 2359 2444 2520 2357 2266 2358 2442
8 2443 2359 2267 2361 2520 2444 2360 2446
8 2446 2360 2279 2370 2523 2445 2369 2452
8 2453 2370 2446 2524 2371 2280 2361 2447
8 2449 2363 2448 2525 2368 2278 2369 2452
8 2366 2277 2364 2450 2451 2368 2449 2526
8 2372 2283 2368 2451 2453 2370 2452 2527
8 2455 2373 2295 2380 2529 2454 2382 2460
8 2456 2374 2292 2378 2530 2455 2380 2458
8 2377 2293 2379 2457 2458 2380 2459 2531
8 2463 2384 2459 2531 2383 2297 2379 2457
8 2533 2461 2382 2460 2459 2381 2295 2380
8 2464 2385 2461 2533 2384 2298 2381 2459
8 2466 2387 2464 2537 2386 2300 2384 2463
8 2467 2388 2465 2538 2387 2301 2385 2464
8 2469 2390 2467 2540 2389 2303 2387 2466
8 2470 2391 2468 2541 2390 2304 2388 2467
8 2472 2393 2470 2543 2392 2306 2390 2469
8 2393 2307 2394 2473 2470 2391 2471 2544
8 2395 2308 2396 2475 2472 2393 2473 2546
8 2396 2309 2397 2476 2473 2394 2474 2547
8 2475 2396 2311 2398 2549 2476 2399 2478
8 2476 2397 2312 2399 2550 2477 2400 2479
8 2478 2399 2314 2403 2552 2479 2402 2483
8 2479 2400 2313 2402 2553 2480 2401 2482
8 2405 2316 2404 2485 2482 2401 2481 2556
8 2406 2317 2405 2486 2483 2402 2482 2557
8 2408 2319 2407 2488 2485 2404 2484 2559
8 2409 2320 2408 2489 2486 2405 2485 2560
8 2411 2322 2410 2490 2488 2407 2487 2561
8 2412 2323 2411 2491 2489 2408 2488 2562
8 2414 2326 2413 2492 2491 2411 2490 2563
8 2513 2434 2493 2565 2438 2353 2416 2494
8 2496 2417 2352 2436 2567 2494 2438 2515
8 2494 2416 2495 2568 2417 2331 2418 2497
8 2419 2332 2417 2496 2499 2420 2497 2570
8 2497 2418 2498 2571 2420 2333 2421 2500
8 2499 2420 2500 2573 2422 2335 2423 2502
8 2500 2421 2501 2574 2423 2336 2424 2503
8 2502 2423 2503 2576 2425 2338 2426 2505
8 2503 2424 2504 2577 2426 2339 2427 2506
8 2505 2426 2506 2578 2429 2341 2428 2507
8 2509 2431 2373 2455 2580 2508 2454 2529
8 2509 2431 2508 2580 2449 2363 2448 2525
8 2432 2510 2581 2509 2374 2456 2530 2455
8 2432 2510 2450 2364 2509 2581 2526 2449
8 2583 2511 2434 2513 2516 2439 2353 2438
8 2436 2352 2437 2514 2515 2438 2516 2588
8 2440 2356 2442 2518 2514 2437 2516 2588
8 2442 2358 2444 2520 2516 2439 2517 2589
8 2519 2443 2520 2591 2441 2357 2442 2518
8 2519 2443 2361 2447 2591 2520 2446 2524
8 2446 2360 2445 2523 2520 2444 2521 2592
8 2525 2448 2522 2593 2452 2369 2445 2523
8 2524 2446 2370 2453 2594 2523 2452 2527
8 2526 2449 2525 2595 2451 2368 2452 2527
8 2534 2462 2528 2597 2460 2382 2454 2529
8 2530 2455 2380 2458 2598 2529 2460 2532
8 2599 2533 2460 2532 2531 2459 2380 2458
8 2537 2464 2533 2599 2463 2384 2459 2531
8 2534 2462 2382 2460 2601 2535 2461 2533
8 2538 2465 2535 2601 2464 2385 2461 2533
8 2540 2467 2538 2604 2466 2387 2464 2537
8 2541 2468 2539 2605 2467 2388 2465 2538
8 2543 2470 2541 2607 2469 2390 2467 2540
8 2470 2391 2471 2544 2541 2468 2542 2608
8 2472 2393 2473 2546 2543 2470 2544 2610
8 2473 2394 2474 2547 2544 2471 2545 2611
8 2475 2396 2476 2549 2546 2473 2547 2613
8 2476 2397 2477 2550 2547 2474 2548 2614
8 2549 2476 2399 2478 2616 2550 2479 2552
8 2479 2400 2480 2553 2550 2477 2551 2617
8 2552 2479 2402 2483 2619 2553 2482 2557
8 2482 2401 2481 2556 2553 2480 2554 2620
8 2485 2404 2484 2559 2556 2481 2555 2623
8 2486 2405 2485 2560 2557 2482 2556 2624
8 2488 2407 2487 2561 2559 2484 2558 2625
8 2489 2408 2488 2562 2560 2485 2559 2626
8 2491 2411 2490 2563 2562 2488 2561 2627
8 2513 2434 2512 2585 2565 2493 2564 2630
8 2586 2513 2565 2632 2515 2438 2494 2567
8 2565 2493 2566 2633 2494 2416 2495 2568
8 2567 2494 2568 2635 2496 2417 2497 2570
8 2568 2495 2569 2636 2497 2418 2498 2571
8 2570 2497 2571 2638 2499 2420 2500 2573
8 2571 2498 2572 2639 2500 2421 2501 2574
8 2573 2500 2574 2641 2502 2423 2503 2576
8 2574 2501 2575 2642 2503 2424 2504 2577
8 2576 2503 2577 2643 2505 2426 2506 2578
8 2597 2528 2579 2645 2529 2454 2508 2580
8 2580 2508 2579 2645 2525 2448 2522 2593
8 2581 2509 2455 2530 2646 2580 2529 2598
8 2581 2509 2580 2646 2526 2449 2525 2595
8 2583 2511 2582 2648 2513 2434 2512 2585
8 2583 2511 2439 2516 2648 2582 2517 2589
8 2649 2583 2513 2586 2588 2516 2438 2515
8 2589 2517 2444 2520 2653 2587 2521 2592
8 2518 2442 2520 2591 2588 2516 2589 2654
8 2593 2522 2590 2655 2523 2445 2521 2592
8 2524 2446 2523 2594 2591 2520 2592 2656
8 2595 2525 2593 2657 2527 2452 2523 2594
8 2602 2536 2596 2659 2534 2462 2528 2597
8 2600 2534 2597 2660 2532 2460 2529 2598
8 2600 2534 2460 2532 2661 2601 2533 2599
8 2604 2538 2601 2661 2537 2464 2533 2599
8 2602 2536 2462 2534 2663 2603 2535 2601
8 2601 2535 2465 2538 2663 2603 2539 2605
8 2607 2541 2605 2665 2540 2467 2538 2604
8 2608 2542 2606 2666 2541 2468 2539 2605
8 2543 2470 2544 2610 2607 2541 2608 2668
8 2544 2471 2545 2611 2608 2542 2609 2669
8 2546 2473 2547 2613 2610 2544 2611 2671
8 2547 2474 2548 2614 2611 2545 2612 2672
8 2549 2476 2550 2616 2613 2547 2614 2674
8 2550 2477 2551 2617 2614 2548 2615 2675
8 2552 2479 2553 2619 2616 2550 2617 2677
8 2553 2480 2554 2620 2617 2551 2618 2678
8 2557 2482 2556 2624 2619 2553 2620 2680
8 2556 2481 2555 2623 2620 2554 2621 2681
8 2559 2484 2558 2625 2623 2555 2622 2683
8 2560 2485 2559 2626 2624 2556 2623 2684
8 2562 2488 2561 2627 2626 2559 2625 2685
8 2690 2629 2564 2630 2650 2584 2512 2585
8 2586 2513 2585 2651 2632 2565 2630 2691
8 2630 2564 2631 2692 2565 2493 2566 2633
8 2632 2565 2633 2694 2567 2494 2568 2635
8 2633 2566 2634 2695 2568 2495 2569 2636
8 2635 2568 2636 2697 2570 2497 2571 2638
8 2636 2569 2637 2698 2571 2498 2572 2639
8 2638 2571 2639 2700 2573 2500 2574 2641
8 2639 2572 2640 2701 2574 2501 2575 2642
8 2641 2574 2642 2702 2576 2503 2577 2643
8 2597 2528 2596 2659 2645 2579 2644 2704
8 2645 2579 2644 2704 2593 2522 2590 2655
8 2660 2597 2645 2705 2598 2529 2580 2646
8 2646 2580 2645 2705 2595 2525 2593 2657
8 2650 2584 2512 2585 2707 2647 2582 2648
8 2648 2582 2517 2589 2707 2647 2587 2653
8 2649 2583 2648 2708 2586 2513 2585 2651
8 2649 2583 2516 2588 2708 2648 2589 2654
8 2655 2590 2652 2710 2592 2521 2587 2653
8 2654 2589 2520 2591 2711 2653 2592 2656
8 2657 2593 2655 2712 2594 2523 2592 2656
8 2602 2536 2603 2663 2659 2596 2658 2714
8 2662 2602 2659 2715 2600 2534 2597 2660
8 2662 2602 2534 2600 2717 2663 2601 2661
8 2661 2601 2538 2604 2717 2663 2605 2665
8 2666 2606 2664 2718 2605 2539 2603 2663
8 2668 2608 2666 2720 2607 2541 2605 2665
8 2608 2542 2609 2669 2666 2606 2667 2721
8 2610 2544 2611 2671 2668 2608 2669 2723
8 2611 2545 2612 2672 2669 2609 2670 2724
8 2613 2547 2614 2674 2671 2611 2672 2726
8 2614 2548 2615 2675 2672 2612 2673 2727
8 2616 2550 2617 2677 2674 2614 2675 2729
8 2617 2551 2618 2678 2675 2615 2676 2730
8 2619 2553 2620 2680 2677 2617 2678 2732
8 2620 2554 2621 2681 2678 2618 2679 2733
8 2624 2556 2623 2684 2680 2620 2681 2735
8 2681 2621 2555 2623 2736 2682 2622 2683
8 2626 2559 2625 2685 2684 2623 2683 2737
8 2688 2628 2584 2650 2740 2686 2647 2707
8 2688 2628 2687 2742 2650 2584 2629 2690
8 2690 2629 2689 2745 2630 2564 2631 2692
8 2746 2690 2630 2691 2709 2650 2585 2651
8 2691 2630 2692 2747 2632 2565 2633 2694
8 2692 2631 2693 2748 2633 2566 2634 2695
8 2694 2633 2695 2750 2635 2568 2636 2697
8 2695 2634 2696 2751 2636 2569 2637 2698
8 2697 2636 2698 2753 2638 2571 2639 2700
8 2698 2637 2699 2754 2639 2572 2640 2701
8 2700 2639 2701 2755 2641 2574 2642 2702
8 2659 2596 2658 2714 2704 2644 2703 2757
8 2704 2644 2703 2757 2655 2590 2652 2710
8 2660 2597 2659 2715 2705 2645 2704 2758
8 2705 2645 2704 2758 2657 2593 2655 2712
8 2759 2706 2647 2707 2710 2652 2587 2653
8 2709 2650 2585 2651 2760 2707 2648 2708
8 2708 2648 2589 2654 2760 2707 2653 2711
8 2712 2655 2710 2761 2656 2592 2653 2711
8 2763 2713 2658 2714 2718 2664 2603 2663
8 2662 2602 2663 2717 2715 2659 2714 2764
8 2720 2666 2718 2767 2665 2605 2663 2717
8 2768 2719 2664 2718 2721 2667 2606 2666
8 2668 2608 2669 2723 2720 2666 2721 2770
8 2669 2609 2670 2724 2721 2667 2722 2771
8 2671 2611 2672 2726 2723 2669 2724 2773
8 2672 2612 2673 2727 2724 2670 2725 2774
8 2674 2614 2675 2729 2726 2672 2727 2776
8 2675 2615 2676 2730 2727 2673 2728 2777
8 2677 2617 2678 2732 2729 2675 2730 2779
8 2678 2618 2679 2733 2730 2676 2731 2780
8 2680 2620 2681 2735 2732 2678 2733 2782
8 2733 2679 2621 2681 2783 2734 2682 2736
8 2735 2681 2623 2684 2784 2736 2683 2737
8 2740 2686 2647 2707 2787 2738 2706 2759
8 2688 2628 2686 2740 2742 2687 2739 2789
8 2743 2688 2650 2709 2790 2740 2707 2760
8 2742 2687 2741 2792 2690 2629 2689 2745
8 2743 2688 2742 2793 2709 2650 2690 2746
8 2745 2689 2744 2795 2692 2631 2693 2748
8 2746 2690 2745 2796 2691 2630 2692 2747
8 2747 2692 2748 2797 2694 2633 2695 2750
8 2748 2693 2749 2798 2695 2634 2696 2751
8 2750 2695 2751 2800 2697 2636 2698 2753
8 2751 2696 2752 2801 2698 2637 2699 2754
8 2753 2698 2754 2802 2700 2639 2701 2755
8 2763 2713 2756 2804 2714 2658 2703 2757
8 2759 2706 2652 2710 2804 2756 2703 2757
8 2715 2659 2714 2764 2758 2704 2757 2805
8 2758 2704 2757 2805 2712 2655 2710 2761
8 2806 2759 2707 2760 2761 2710 2653 2711
8 2765 2716 2762 2808 2718 2664 2713 2763
8 2809 2763 2714 2764 2767 2718 2663 2717
8 2765 2716 2664 2718 2811 2766 2719 2768
8 2813 2768 2718 2767 2770 2721 2666 2720
8 2814 2769 2719 2768 2771 2722 2667 2721
8 2723 2669 2724 2773 2770 2721 2771 2816
8 2724 2670 2725 2774 2771 2722 2772 2817
8 2726 2672 2727 2776 2773 2724 2774 2819
8 2727 2673 2728 2777 2774 2725 2775 2820
8 2729 2675 2730 2779 2776 2727 2777 2822
8 2730 2676 2731 2780 2777 2728 2778 2823
8 2732 2678 2733 2782 2779 2730 2780 2825
8 2780 2731 2679 2733 2826 2781 2734 2783
8 2782 2733 2681 2735 2827 2783 2736 2784
8 2830 2785 2738 2787 2804 2756 2706 2759
8 2789 2739 2686 2740 2832 2786 2738 2787
8 2790 2740 2707 2760 2833 2787 2759 2806
8 2742 2687 2739 2789 2792 2741 2788 2835
8 2743 2688 2740 2790 2793 2742 2789 2836
8 2792 2741 2791 2838 2745 2689 2744 2795
8 2793 2742 2792 2839 2746 2690 2745 2796
8 2795 2744 2794 2841 2748 2693 2749 2798
8 2796 2745 2795 2842 2747 2692 2748 2797
8 2797 2748 2798 2843 2750 2695 2751 2800
8 2798 2749 2799 2844 2751 2696 2752 2801
8 2800 2751 2801 2845 2753 2698 2754 2802
8 2808 2762 2803 2847 2763 2713 2756 2804
8 2809 2763 2804 2848 2764 2714 2757 2805
8 2806 2759 2710 2761 2848 2804 2757 2805
8 2765 2716 2766 2811 2808 2762 2807 2850
8 2810 2765 2808 2851 2767 2718 2763 2809
8 2810 2765 2718 2767 2852 2811 2768 2813
8 2811 2766 2719 2768 2853 2812 2769 2814
8 2855 2814 2768 2813 2816 2771 2721 2770
8 2856 2815 2769 2814 2817 2772 2722 2771
8 2773 2724 2774 2819 2816 2771 2817 2858
8 2774 2725 2775 2820 2817 2772 2818 2859
8 2776 2727 2777 2822 2819 2774 2820 2861
8 2777 2728 2778 2823 2820 2775 2821 2862
8 2779 2730 2780 2825 2822 2777 2823 2864
8 2823 2778 2731 2780 2865 2824 2781 2826
8 2825 2780 2733 2782 2866 2826 2783 2827
8 2869 2828 2785 2830 2847 2803 2756 2804
8 2871 2829 2786 2832 2830 2785 2738 2787
8 2872 2830 2787 2833 2848 2804 2759 2806
8 2789 2739 2786 2832 2835 2788 2831 2874
8 2836 2789 2740 2790 2875 2832 2787 2833
8 2792 2741 2788 2835 2838 2791 2834 2877
8 2793 2742 2789 2836 2839 2792 2835 2878
8 2838 2791 2837 2880 2795 2744 2794 2841
8 2839 2792 2838 2881 2796 2745 2795 2842
8 2841 2794 2840 2882 2798 2749 2799 2844
8 2842 2795 2841 2883 2797 2748 2798 2843
8 2843 2798 2844 2884 2800 2751 2801 2845
8 2886 2846 2803 2847 2850 2807 2762 2808
8 2851 2808 2847 2887 2809 2763 2804 2848
8 2850 2807 2766 2811 2889 2849 2812 2853
8 2810 2765 2811 2852 2851 2808 2850 2890
8 2852 2811 2768 2813 2891 2853 2814 2855
8 2853 2812 2769 2814 2892 2854 2815 2856
8 2894 2856 2814 2855 2858 2817 2771 2816
8 2817 2772 2818 2859 2856 2815 2857 2895
8 2819 2774 2820 2861 2858 2817 2859 2897
8 2820 2775 2821 2862 2859 2818 2860 2898
8 2822 2777 2823 2864 2861 2820 2862 2900
8 2823 2778 2824 2865 2862 2821 2863 2901
8 2864 2823 2780 2825 2902 2865 2826 2866
8 2904 2867 2828 2869 2886 2846 2803 2847
8 2869 2828 2868 2906 2830 2785 2829 2871
8 2907 2869 2830 2872 2887 2847 2804 2848
8 2871 2829 2870 2909 2832 2786 2831 2874
8 2910 2871 2832 2875 2872 2830 2787 2833
8 2835 2788 2831 2874 2877 2834 2873 2912
8 2836 2789 2832 2875 2878 2835 2874 2913
8 2877 2834 2876 2915 2838 2791 2837 2880
8 2839 2792 2835 2878 2881 2838 2877 2916
8 2880 2837 2879 2917 2841 2794 2840 2882
8 2881 2838 2880 2918 2842 2795 2841 2883
8 2883 2841 2882 2919 2843 2798 2844 2884
8 2921 2885 2846 2886 2889 2849 2807 2850
8 2922 2886 2847 2887 2890 2850 2808 2851
8 2889 2849 2812 2853 2924 2888 2854 2892
8 2890 2850 2811 2852 2925 2889 2853 2891
8 2891 2853 2814 2855 2926 2892 2856 2894
8 2892 2854 2815 2856 2927 2893 2857 2895
8 2858 2817 2859 2897 2894 2856 2895 2929
8 2859 2818 2860 2898 2895 2857 2896 2930
8 2861 2820 2862 2900 2897 2859 2898 2932
8 2862 2821 2863 2901 2898 2860 2899 2933
8 2864 2823 2865 2902 2900 2862 2901 2934
8 2904 2867 2846 2886 2936 2903 2885 2921
8 2904 2867 2903 2936 2869 2828 2868 2906
8 2937 2904 2869 2907 2922 2886 2847 2887
8 2906 2868 2905 2939 2871 2829 2870 2909
8 2907 2869 2906 2940 2872 2830 2871 2910
8 2909 2870 2908 2942 2874 2831 2873 2912
8 2910 2871 2909 2943 2875 2832 2874 2913
8 2912 2873 2911 2945 2877 2834 2876 2915
8 2878 2835 2874 2913 2916 2877 2912 2946
8 2915 2876 2914 2947 2880 2837 2879 2917
8 2916 2877 2915 2948 2881 2838 2880 2918
8 2918 2880 2917 2949 2883 2841 2882 2919
8 2921 2885 2849 2889 2951 2920 2888 2924
8 2952 2921 2886 2922 2925 2889 2850 2890
8 2924 2888 2854 2892 2954 2923 2893 2927
8 2925 2889 2853 2891 2955 2924 2892 2926
8 2926 2892 2856 2894 2956 2927 2895 2929
8 2895 2857 2896 2930 2927 2893 2928 2957
8 2897 2859 2898 2932 2929 2895 2930 2959
8 2898 2860 2899 2933 2930 2896 2931 2960
8 2900 2862 2901 2934 2932 2898 2933 2961
8 2936 2903 2885 2921 2963 2935 2920 2951
8 2936 2903 2935 2963 2906 2868 2905 2939
8 2937 2904 2886 2922 2964 2936 2921 2952
8 2937 2904 2936 2964 2907 2869 2906 2940
8 2939 2905 2938 2966 2909 2870 2908 2942
8 2940 2906 2939 2967 2910 2871 2909 2943
8 2942 2908 2941 2969 2912 2873 2911 2945
8 2943 2909 2942 2970 2913 2874 2912 2946
8 2945 2911 2944 2971 2915 2876 2914 2947
8 2946 2912 2945 2972 2916 2877 2915 2948
8 2948 2915 2947 2973 2918 2880 2917 2949
8 2951 2920 2888 2924 2975 2950 2923 2954
8 2952 2921 2889 2925 2976 2951 2924 2955
8 2927 2893 2928 2957 2954 2923 2953 2978
8 2955 2924 2892 2926 2979 2954 2927 2956
8 2929 2895 2930 2959 2956 2927 2957 2980
8 2930 2896 2931 2960 2957 2928 2958 2981
8 2932 2898 2933 2961 2959 2930 2960 2982
8 2951 2920 2950 2975 2963 2935 2962 2984
8 2963 2935 2962 2984 2939 2905 2938 2966
8 2964 2936 2921 2952 2985 2963 2951 2976
8 2964 2936 2963 2985 2940 2906 2939 2967
8 2966 2938 2965 2987 2942 2908 2941 2969
8 2967 2939 2966 2988 2943 2909 2942 2970
8 2969 2941 2968 2989 2945 2911 2944 2971
8 2970 2942 2969 2990 2946 2912 2945 2972
8 2972 2945 2971 2991 2948 2915 2947 2973
8 2954 2923 2953 2978 2975 2950 2974 2993
8 2976 2951 2924 2955 2994 2975 2954 2979
8 2957 2928 2958 2981 2978 2953 2977 2995
8 2956 2927 2957 2980 2979 2954 2978 2996
8 2959 2930 2960 2982 2980 2957 2981 2997
8 2984 2962 2983 2999 2966 2938 2965 2987
8 2975 2950 2974 2993 2984 2962 2983 2999
8 2976 2951 2975 2994 2985 2963 2984 3000
8 2985 2963 2984 3000 2967 2939 2966 2988
8 2987 2965 2986 3001 2969 2941 2968 2989
8 2988 2966 2987 3002 2970 2942 2969 2990
8 2990 2969 2989 3003 2972 2945 2971 2991
8 2978 2953 2977 2995 2993 2974 2992 3004
8 2979 2954 2978 2996 2994 2975 2993 3005
8 2980 2957 2981 2997 2996 2978 2995 3006
8 2974 2993 2999 2983 2992 3004 3007 2998
8 2983 2999 2987 2965 2998 3007 3001 2986
8 3000 2984 2999 3008 2988 2966 2987 3002
8 2994 2975 2993 3005 3000 2984 2999 3008
8 3002 2987 3001 3009 2990 2969 2989 3003
8 2996 2978 2995 3006 3005 2993 3004 3010
8 3005 2993 3004 3010 3008 2999 3007 3011
8 3008 2999 3007 3011 3002 2987 3001 3009

CELL_TYPES 1910
12
12
12
12
12
12
12
12
12
12
12
12
12
12
12
12
12
12
12
12
12
12
12
12
12
12
12
12
12
12
12
12
12
12
12
12
12
12
12
12
12
12
12
12
12
12
12
12
12
12
12
12
12
12
12
12
12
12
12
12
12
12
12
12
12
12
12
12
12
12
12
12
12
12
12
12
12
12
12
12
12
12
12
12
12
12
12
12
12
12
12
12
12
12
12
12
12
12
12
12
12
12
12
12
12
12
12
12
12
12
12
12
12
12
12
12
12
12
12
12
12
12
12
12
12
12
12
12
12
12
12
12
12
12
12
12
12
12
12
12
12
12
12
12
12
12
12
12
12
12
12
12
12
12
12
12
12
12
12
12
12
12
12
12
12
12
12
12
12
12
12
12
12
12
12
12
12
12
12
12
12
12
12
12
12
12
12
12
12
12
12
12
12
12
12
12
12
12
12
12
12
12
12
12
12
12
12
12
12
12
12
12
12
12
12
12
12
12
12
12
12
12
12
12
12
12
12
12
12
12
12
12
12
12
12
12
12
12
12
12
12
12
12
12
12
12
12
12
12
12
12
12
12
12
12
12
12
12
12
12
12
12
12
12
12
12
12
12
12
12
12
12
12
12
12
12
12
12
12
12
12
12
12
12
12
12
12
12
12
12
12
12
12
12
12
12
12
12
12
12
12
12
12
12
12
12
12
12
12
12
12
12
12
12
12
12
12
12
12
12
12
12
12
12
12
12
12
12
12
12
12
12
12
12
12
12
12
12
12
12
12
12
12
12
12
12
12
12
12
12
12
12
12
12
12
12
12
12
12
12
12
12
12
12
12
12
12
12
12
12
12
12
12
12
12
12
12
12
12
12
12
12
12
12
12
12
12
12
12
12
12
12
12
12
12
12
12
12
12
12
12
12
12
12
12
12
12
12
12
12
12
12
12
12
12
12
12
12
12
12
12
12
12
12
12
12
12
12
12
12
12
12
12
12
12
12
12
12
12
12
12
12
12
12
12
12
12
12
12
12
12
12
12
12
12
12
12
12
12
12
12
12
12
12
12
12
12
12
12
12
12
12
12
12
12
12
12
12
12
12
12
12
12
12
12
12
12
12
12
12
12
12
12
12
12
12
12
12
12
12
12
12
12
12
12
12
12
12
12
12
12
12
12
12
12
12
12
12
12
12
12
12
12
12
12
12
12
12
12
12
12
12
12
12
12
12
12
12
12
12
12
12
12
12
12
12
12
12
12
12
12
12
12
12
12
12
12
12
12
12
12
12
12
12
12
12
12
12
12
12
12
12
12
12
12
12
12
12
12
12
12
12
12
12
12
12
12
12
12
12
12
12
12
12
12
12
12
12
12
12
12
12
12
12
12
12
12
12
12
12
12
12
12
12
12
12
12
12
12
12
12
12
12
12
12
12
12
12
12
12
12
12
12
12
12
12
12
12
12
12
12
12
12
12
12
12
12
12
12
12
12
12
12
12
12
12
12
12
12
12
12
12
12
12
12
12
12
12
12
12
12
12
12
12
12
12
12
12
12
12
12
12
12
12
12
12
12
12
12
12
12
12
12
12
12
12
12
12
12
12
12
12
12
12
12
12
12
12
12
12
12
12
12
12
12
12
12
12
12
12
12
12
12
12
12
12
12
12
12
12
12
12
12
12
12
12
12
12
12
12
12
12
12
12
12
12
12
12
12
12
12
12
12
12
12
12
12
12
12
12
12
12
12
12
12
12
12
12
12
12
12
12
12
12
12
12
12
12
12
12
12
12
12
12
12
12
12
12
12
12
12
12
12
12
12
12
12
12
12
12
12
12
12
12
12
12
12
12
12
12
12
12
12
12
12
12
12
12
12
12
12
12
12
12
12
12
12
12
12
12
12
12
12
12
12
12
12
12
12
12
12
12
12
12
12
12
12
12
12
12
12
12
12
12
12
12
12
12
12
12
12
12
12
12
12
12
12
12
12
12
12
12
12
12
12
12
12
12
12
12
12
12
12
12
12
12
12
12
12
12
12
12
12
12
12
12
12
12
12
12
12
12
12
12
12
12
12
12
12
12
12
12
12
12
12
12
12
12
12
12
12
12
12
12
12
12
12
12
12
12
12
12
12
12
12
12
12
12
12
12
12
12
12
12
12
12
12
12
12
12
12
12
12
12
12
12
12
12
12
12
12
12
12
12
12
12
12
12
12
12
12
12
12
12
12
12
12
12
12
12
12
12
12
12
12
12
12
12
12
12
12
12
12
12
12
12
12
12
12
12
12
12
12
12
12
12
12
12
12
12
12
12
12
12
12
12
12
12
12
12
12
12
12
12
12
12
12
12
12
12
12
12
12
12
12
12
12
12
12
12
12
12
12
12
12
12
12
12
12
12
12
12
12
12
12
12
12
12
12
12
12
12
12
12
12
12
12
12
12
12
12
12
12
12
12
12
12
12
12
12
12
12
12
12
12
12
12
12
12
12
12
12
12
12
12
12
12
12
12
12
12
12
12
12
12
12
12
12
12
12
12
12
12
12
12
12
12
12
12
12
12
12
12
12
12
12
12
12
12
12
12
12
12
12
12
12
12
12
12
12
12
12
12
12
12
12
12
12
12
12
12
12
12
12
12
12
12
12
12
12
12
12
12
12
12
12
12
12
12
12
12
12
12
12
12
12
12
12
12
12
12
12
12
12
12
12
12
12
12
12
12
12
12
12
12
12
12
12
12
12
12
12
12
12
12
12
12
12
12
12
12
12
12
12
12
12
12
12
12
12
12
12
12
12
12
12
12
12
12
12
12
12
12
12
12
12
12
12
12
12
12
12
12
12
12
12
12
12
12
12
12
12
12
12
12
12
12
12
12
12
12
12
12
12
12
12
12
12
12
12
12
12
12
12
12
12
12
12
12
12
12
12
12
12
12
12
12
12
12
12
12
12
12
12
12
12
12
12
12
12
12
12
12
12
12
12
12
12
12
12
12
12
12
12
12
12
12
12
12
12
12
12
12
12
12
12
12
12
12
12
12
12
12
12
12
12
12
12
12
12
12
12
12
12
12
12
12
12
12
12
12
12
12
12
12
12
12
12
12
12
12
12
12
12
12
12
12
12
12
12
12
12
12
12
12
12
12
12
12
12
12
12
12
12
12
12
12
12
12
12
12
12
12
12
12
12
12
12
12
12
12
12
12
12
12
12
12
12
12
12
12
12
12
12
12
12
12
12
12
12
12
12
12
12
12
12
12
12
12
12
12
12
12
12
12
12
12
12
12
12
12
12
12
12
12
12
12
12
12
12
12
12
12
12
12
12
12
12
12
12
12
12
12
12
12
12
12
12
12
12
12
12
12
12
12
12
12
12
12
12
12
12
12
12
12
12
12
12
12
12
12
12
12
12
12
12
12
12
12
12
12
12
12
12
12
12
12
12
12
12
12
12
12
12
12
12
12
12
12
12
12
12
12
12
12
12
12
12
12
12
12
12
12
12
12
12
12
12
12
12
12
12
12
12
12
12
12
12
12
12
12
12
12
12
12
12
12
12
12
12
12
12
12
12
12
12
12
12
12
12
12
12
12
12
12
12
12
12
12
12
12
12
12
12
12
12
12
12
12
12
12
12
12
12
12
12
12
12
12
12
12
12
12
12
12
12
12
12
12
12
12
12
12
12
12
12
12
12
12
12
12
12
12
12
12
12
12
12
12
12
12
12
12
12
12
12
12
12
12
12
12
12
12
12
12
12
12
12
12
12
12
12
12
12
12
12
12
12
12
12
12
12
12
12
12
12
12
12
12
12
12
12
12
12
12
12
12
12
12
12
12
12
12
12
12
12
12
12
12
12
12
12
12
12
12
12
12
12
12
12
12
12
12
12
12
12
12
12
12
12
12
12
12
12
12
12
12
12
12
12
12
12
12
12
12
12
12
12
12
12
12
12
12
12
12
12
12
12
12
12
12
12
12
12
12
12
12
12
12
12
12
12
12
12
12
12
12
12
12
12
12
12
12
12
12
12
12
12
12
12
12
12
12
12
12
12
12
12
12
12
12
12
12
12
12
12
12
12
12
12
12
12
12
12
12
12
12
12
12
12
12
12
12
12
12
12
12
12
12
12
12
12
12
12
12
12
12
12
12
12
12
12
12
12
12
12
12
12
12
12
12
12
12
12
12
12
12
12
12
12
12
12
12
12
12
12
12
12
12
12
12
12
12
12
12
12
12
12
12
12
12
12
12
12
12
12
12
12
12
12
12
12
12
12
12
12
12
12
12
12
12
12
12
12
12
12
12
12
12
12
12
12
12
12
12
12
12
12
12
12
12
12
12
12
12
12
12
12
12
12

POINT_DATA 3012
SCALARS Jp_lamdaP float 4
LOOKUP_TABLE default
0.999628 1 1 0.999628
1 1 1 1
0.999639 1 1 0.999639
0.999573 1 1 0.999573
0.99963 1 1 0.99963
0.999607 1 1 0.999607
1.00058 1.00184 1 0.998742
1 1 1 1
1 1 1 1
1 1 1 1
0.999702 1 1 0.999702
0.998951 1.00011 1 0.998837
0.999578 1 1 0.999578
0.999581 1 1 0.999581
0.999642 1 1 0.999642
0.999601 1 1 0.999601
0.999614 1 1 0.999614
0.999649 1 1 0.999649
1.00068 1.00194 1 0.998743
1 1 1 1
0.999556 1 1 0.999556
0.999606 1 1 0.999606
0.998981 1.00036 1 0.998622
1.00026 1.00154 1 0.998722
0.999607 1 1 0.999607
0.999684 1.00093 1 0.998752
1.01787 1.02052 1 0.997401
1 1 1 1
0.999807 1 1 0.999807
0.99982 1 1 0.99982
1 1 1 1
0.999011 1.00016 1 0.998846
0.999606 1 1 0.999606
0.999634 1 1 0.999634
1.00108 1.00218 1 0.998903
1 1 1 1
0.999918 1.00094 1 0.998984
0.998936 1 1 0.998936
1.00977 1.01242 1 0.997376
1 1 1 1
1 1 1 1
0.999791 1 1 0.999791
1 1 1 1
0.99959 1 1 0.99959
0.998555 1 1 0.998555
1 1 1 1
0.998933 1.00013 1 0.998807
0.999626 1 1 0.999626
0.999662 1 1 0.999662
0.999616 1 1 0.999616
1.00079 1.00204 1 0.998748
0.999776 1 1 0.999776
0.999582 1 1 0.999582
0.999622 1 1 0.999622
0.999632 1 1 0.999632
0.998852 1.00023 1 0.998618
0.999981 1.00123 1 0.998755
1.00025 1.00153 1 0.998723
1.01798 1.02064 1 0.997388
1 1 1 1
0.99956 1 1 0.99956
0.998848 1 1 0.998848
0.99861 1.00001 1 0.998596
0.999501 1.00083 1 0.998675
1.02044 1.02335 1 0.997149
1.01885 1.02165 1 0.997258
0.999673 1 1 0.999673
0.99885 1 1 0.99885
1.01504 1.01759 1 0.997487
1.03811 1.04174 1 0.99651
1 1 1 1
1 1 1 1
1 1 1 1
0.998921 1.00007 1 0.998854
1 1 1 1
1 1 1 1
1.0008 1.0021 1 0.998704
0.999888 1 1 0.999888
0.999427 1.00062 1 0.998805
0.999109 1 1.00004 0.999066
1.00831 1.01097 1 0.997372
1 1 1 1
1.00131 1 1.0016 0.999709
1.00046 1.00183 1 0.998624
1.00058 1.00184 1 0.998737
1.0223 1.02543 1 0.996955
0.999705 1 1.00036 0.999341
1.01437 1.01714 1 0.997275
1.00478 1.00727 1 0.99753
1.02053 1.02398 1 0.996634
1 1 1 1
1 1 1 1
1 1 1 1
1 1 1 1
1 1 1 1
0.999794 1 1 0.999794
0.998693 1 1 0.998693
0.999792 1 1 0.999792
0.999118 1.00042 1 0.998703
1 1 1 1
0.998575 1 1 0.998575
0.998806 1 1 0.998806
1.01837 1.02163 1 0.996801
0.999767 1.00093 1 0.99884
1.02329 1.02655 1 0.99682
0.999601 1 1 0.999601
0.999605 1 1 0.999605
0.999632 1 1 0.999632
0.999654 1 1 0.999654
0.998745 1.00013 1 0.998616
1.00026 1.00153 1 0.998726
1.00017 1.00141 1 0.998761
1.01803 1.02071 1 0.997374
1 1 1 1
0.999585 1 1 0.999585
0.998605 1 1 0.998605
0.998604 1.00001 1 0.998589
0.999838 1 1 0.999838
0.999006 1.00008 1 0.998931
0.999418 1.00075 1 0.998674
1.02054 1.02349 1 0.997116
1.01515 1.01773 1 0.99747
1.01922 1.02199 1 0.997283
1.03803 1.04165 1 0.996518
0.998597 1 1 0.998597
0.998599 1 1 0.998599
1.01758 1.02058 1 0.99706
1.02027 1.02327 1 0.997071
1.02008 1.02299 1 0.997163
1.04845 1.05215 1 0.996483
1 1 1 1
1.04163 1.04529 1 0.9965
0.999336 1 1.00029 0.999046
1.00902 1.01159 1 0.997456
1.03471 1.03833 1 0.99652
1.04351 1.04725 1 0.996425
1.00145 1 1.00205 0.999403
1.00655 1 1.0083 0.998259
1 1 1 1
1 1 1 1
1.00067 1.00196 1 0.99871
1 1 1 1
0.999224 1 1.00021 0.99901
0.999343 1.00053 1 0.998812
1.00731 1.00997 1 0.997368
1 1 1 1
1.00105 1 1.00131 0.999733
1.0007 1.00196 1 0.998749
1.00038 1.00153 1 0.998851
1.02171 1.02483 1 0.996955
1 1 1.00073 0.999268
1.01357 1.01634 1 0.997277
1.00357 1.00602 1.00004 0.997528
1.02197 1.02543 1 0.996625
1.00116 1 1.00167 0.999492
1.00033 1 1.00048 0.999856
1.0038 1 1.00524 0.998567
1.02427 1.0275 1 0.996858
1.01892 1.02188 1 0.997113
1.04482 1.04862 1 0.996374
1.00151 1.00303 1.00066 0.997822
1.03069 1.0342 1 0.996603
1.0142 1.01696 1.00057 0.996718
1.03026 1.03389 1 0.996485
1 1 1 1
1 1 1 1
1 1 1 1
1.0014 1 1.00184 0.99956
1 1 1 1
1 1 1 1
1 1 1 1
0.999236 1.00064 1 0.998601
0.998589 1 1 0.998589
1 1 1 1
1 1 1 1
0.998576 1 1 0.998576
0.998703 1 1 0.998703
1.0191 1.02237 1 0.996802
0.999856 1.00125 1 0.998612
1.02323 1.0265 1 0.996819
0.998574 1 1 0.998574
1.01691 1.0202 1 0.996773
1.02071 1.02396 1 0.996823
1.05363 1.05737 1 0.996456
1.02459 1.02786 1 0.99682
1.05507 1.05884 1 0.99644
1 1 1 1
0.99961 1 1 0.99961
0.998335 1 1 0.998335
0.998584 1 1 0.998584
1 1 1 1
0.999288 1.00028 1 0.999014
0.999347 1.00067 1 0.998675
1.02064 1.02363 1 0.997082
1.01969 1.02245 1 0.997308
1.01524 1.01783 1 0.997454
1.03803 1.04165 1 0.996526
0.998595 1 1 0.998595
0.998592 1 1 0.998592
1.01752 1.02065 1 0.996928
1.02038 1.02336 1 0.99709
1 1 1 1
0.999243 1.00001 1.00013 0.999103
1.01061 1.0131 1 0.997538
1.0203 1.0232 1 0.997157
1.04836 1.05207 1 0.996476
1.03429 1.03791 1 0.996514
1.04188 1.04551 1 0.996534
1.0431 1.04683 1 0.996434
1.00128 1 1.00188 0.999391
1.00525 1 1.007 0.998261
1.01682 1.02009 1 0.996794
1.0185 1.02149 1 0.997073
1.05064 1.05432 1 0.996508
1.04919 1.05306 0.99986 0.996469
1.04562 1.04924 1 0.996551
1.05377 1.05779 0.99959 0.996614
1.00043 1 1.00121 0.999226
1.04634 1.04999 1 0.996529
1.00372 1.00598 1.00011 0.997647
1.02807 1.0316 1 0.996582
1.04081 1.04464 1 0.99634
1.04319 1.04669 1 0.996653
1.00317 1.00046 1.00471 0.998013
1.00573 1 1.00718 0.998562
1.00357 1.00056 1.00546 0.997565
1.00072 1.00207 1 0.998654
1 1 1 1
1.0003 1 1.00054 0.999756
1.00001 1.00124 1 0.998771
1.02119 1.0243 1 0.996955
1.00018 1 1.00092 0.99927
1.00202 1.00446 1.00004 0.997526
1.01239 1.01516 1 0.997279
1.02331 1.02679 1 0.996616
1.00112 1 1.00161 0.999514
0.999931 1 1.00006 0.999874
1.00468 1 1.00612 0.998567
1.02366 1.02689 1 0.996855
1.0183 1.02125 1 0.997116
1.04494 1.04875 1 0.996369
1.00033 1.002 1.00051 0.997826
1.03178 1.03529 1 0.996605
1.01446 1.01733 1.00047 0.996711
1.03114 1.03478 1 0.996483
0.99993 1 1 0.99993
1.00195 1.00062 1.00317 0.998165
1.00327 1 1.0043 0.998983
1.0049 1.00062 1.00641 0.997878
1.04925 1.05309 1 0.996355
1.03906 1.04273 1 0.996481
1.04788 1.05173 1 0.996348
1.0074 1.00988 1.00049 0.997059
1.03571 1.03931 1 0.996535
1.02651 1.02859 1.00158 0.996407
1.03885 1.04258 1 0.996419
0.999626 1 1 0.999626
0.999982 1 1 0.999982
1 1 1 1
1 1 1 1
1 1 1 1
1.00063 1 1.00092 0.999708
1 1 1 1
1.00167 1 1.00212 0.999545
1 1 1 1
1.00011 1.00149 1 0.998614
0.998692 1.00009 1 0.998599
1.02336 1.02662 1 0.996818
1.01982 1.0231 1 0.996802
0.998577 1 1 0.998577
1 1 1 1
0.998573 1 1 0.998573
1.01726 1.02055 1 0.996773
1.02146 1.02472 1 0.996822
1.05269 1.05644 1 0.996455
1.02414 1.02741 1 0.996817
1.0549 1.05867 1 0.996437
1.01652 1.01981 1 0.996771
1.05155 1.05531 1 0.996432
1.05505 1.05879 1 0.996461
1.05642 1.06317 0.99687 0.99677
1.05359 1.0574 1 0.996395
1.05866 1.06313 0.999135 0.996665
0.998593 1 1 0.998593
0.998585 1 1 0.998585
1.01747 1.02073 1 0.996797
1.02049 1.02345 1 0.997109
1 1 1 1
0.99916 1 1 0.99916
1.01209 1.0145 1 0.99762
1.02049 1.0234 1 0.997152
1.04827 1.05199 1 0.996468
1.042 1.04559 1 0.996568
1.034 1.03763 1 0.996509
1.04281 1.04653 1 0.996444
1.00127 1 1.0019 0.99938
1.00453 1 1.00628 0.998262
1.0167 1.01999 1 0.996779
1.0186 1.02159 1 0.997068
1.05036 1.05418 0.999841 0.996533
1.04942 1.05323 0.99992 0.996472
1.00011 1 1.0009 0.999215
1.00529 1.00756 1.0001 0.997645
1.02739 1.03088 1 0.996613
1.04575 1.04939 1 0.996532
1.0535 1.05767 0.999396 0.99666
1.04059 1.04443 1 0.996325
1.04615 1.04978 1 0.996533
1.04333 1.04684 1 0.996649
1.00309 1.00068 1.0044 0.998015
1.00421 1.00071 1.00594 0.997564
1.00595 1 1.0074 0.998561
1.04998 1.05368 1 0.996482
1.05057 1.05447 0.999764 0.996542
1.0562 1.0619 0.997923 0.996704
1.05455 1.05937 0.998783 0.996664
1.04915 1.05303 0.999691 0.996628
1.04758 1.05543 0.9956 0.996957
1.0003 1.00186 1.0006 0.997842
1.04523 1.04898 0.999626 0.996799
1.01515 1.01833 1 0.996877
1.03257 1.03651 1 0.996197
1.03938 1.04322 1 0.996327
1.03733 1.0406 0.999943 0.996914
1.00381 1 1.00496 0.998848
1.00023 1.00212 1.00067 0.997436
1.00867 1 1.01097 0.997726
1.00328 1.00334 1.00266 0.997288
1.02309 1.02632 1 0.996853
0.999892 1 1 0.999892
1.00127 1 1.00173 0.999537
1.0064 1 1.00785 0.998567
1.01758 1.02052 1 0.997119
1.04502 1.04883 1 0.996363
0.999173 1.00094 1.00041 0.997831
1.0146 1.01762 1.00033 0.996705
1.03301 1.03653 1 0.996608
1.03102 1.03466 1 0.996481
0.999941 1 1 0.999941
1.00261 1.00034 1.00411 0.998166
1.00303 1 1.00404 0.998992
1.00507 1.00034 1.00687 0.997872
1.04925 1.0531 1 0.996349
1.03921 1.04288 1 0.996479
1.04742 1.05127 1 0.996345
1.00582 1.00833 1.00045 0.997066
1.03534 1.03894 1 0.996531
1.02524 1.02718 1.00173 0.996394
1.03856 1.0422 1 0.996502
0.999966 1 1 0.999966
1.00094 1 1.00165 0.999291
1.0035 1.00408 1.00191 0.997508
1.00658 1 1.00834 0.998247
1.00246 1.00165 1.00322 0.99759
1.05279 1.05658 1 0.996418
1.04154 1.04529 1 0.996408
1.04279 1.04646 1 0.99649
1.01063 1.01198 1.00199 0.996672
1.03432 1.0379 1 0.996546
1.02236 1.02538 1.00086 0.996192
0.999573 1 1 0.999573
0.999033 1 1 0.999033
0.999667 1 1 0.999667
0.999628 1 1 0.999628
0.99999 1 1 0.99999
0.999985 1 1 0.999985
1 1 1 1
1 1 1 1
1 1 1 1
0.99998 1 1.00013 0.99985
1 1 1 1
1.00107 1 1.00138 0.999692
1 1 1 1
1.00157 1 1.00204 0.99953
1 1 1 1
1.02379 1.02706 1 0.996814
1.022 1.02526 1 0.996822
1.05444 1.05822 1 0.996434
1.05172 1.05547 1 0.996453
1.01767 1.02096 1 0.996774
0.998572 1 1 0.998572
1.01659 1.01988 1 0.996771
1.05125 1.05501 1 0.996433
1.0541 1.05784 1 0.996459
1.05658 1.06368 0.996528 0.996788
1.05303 1.05685 1 0.99639
1.05872 1.06303 0.999279 0.996663
1.05014 1.05391 1 0.996424
1.0563 1.0634 0.996516 0.996792
1.05744 1.0634 0.997643 0.996738
1.05201 1.06132 0.994204 0.997005
1.05595 1.05967 0.999934 0.996549
1.05272 1.06288 0.993407 0.997011
1.01661 1.01991 1 0.996764
1.01871 1.02171 1 0.997062
1.05008 1.05406 0.999668 0.996558
1.04968 1.05339 1 0.996475
0.999791 1 1.00059 0.999204
1.00699 1.0093 1.00007 0.997644
1.02727 1.03074 1 0.996643
1.0459 1.04956 1 0.996512
1.05321 1.05758 0.999162 0.996705
1.04597 1.04961 1 0.996538
1.04026 1.04411 1 0.996309
1.0435 1.04702 1 0.996644
1.00278 1.00097 1.0038 0.998016
1.00489 1.00105 1.00629 0.997564
1.00601 1 1.00746 0.99856
1.05003 1.05376 1 0.996461
1.05062 1.05452 0.999765 0.99654
1.05573 1.06174 0.997583 0.996748
1.05426 1.05909 0.998794 0.996644
1.00162 1.00302 1.00077 0.997839
1.01585 1.01903 1 0.996874
1.03128 1.03514 1.00003 0.996236
1.04936 1.05313 0.999827 0.996592
1.04729 1.05565 0.995053 0.997006
1.04017 1.04404 1 0.996289
1.04542 1.04918 0.999618 0.996801
1.03829 1.04151 0.999958 0.99695
1.0018 1.0032 1.00117 0.997436
1.00367 1.00365 1.00277 0.997252
1.00413 1 1.00529 0.998845
1.00814 1 1.0104 0.997766
1.05578 1.06191 0.997477 0.996743
1.05672 1.0623 0.99805 0.996693
1.04709 1.05669 0.993973 0.996921
1.04605 1.05739 0.992213 0.997033
1.04645 1.05178 0.99799 0.996938
1.04457 1.05507 0.992844 0.997187
1.00482 1.00764 1 0.997195
1.03857 1.04457 0.997077 0.997165
1.0192 1.02284 1 0.99644
1.02996 1.0339 1.00018 0.996012
1.04081 1.04465 1 0.996319
1.03936 1.04251 1 0.996981
1.00049 1 1.00139 0.999093
1.00977 1 1.01177 0.998025
1.00295 1.00584 1 0.997127
1.00491 1.00104 1.00645 0.997434
1.0047 1.00523 1.00234 0.997134
0.999952 1 1 0.999952
1.04919 1.05305 1 0.996343
1.00218 1 1.00318 0.999
1.00316 1.00021 1.00479 0.998168
1.00494 1.00006 1.00703 0.997865
1.03943 1.04311 1 0.996476
1.04703 1.05087 1 0.996342
1.00483 1.00727 1.00051 0.997072
1.02563 1.02737 1.00193 0.996382
1.03512 1.03873 1 0.996528
1.03899 1.04255 1 0.996585
0.999971 1 1 0.999971
1.0005 1 1.0012 0.999301
1.00179 1.00295 1.00134 0.997512
1.00774 1 1.00951 0.998245
1.00252 1.00132 1.00363 0.997568
1.05264 1.05643 1 0.996412
1.04136 1.04511 1 0.996406
1.04281 1.0465 1 0.996479
1.01134 1.01256 1.00213 0.996674
1.03696 1.04056 1 0.996537
1.02273 1.02562 1.00096 0.996217
0.999644 1 1.00017 0.999476
1.00309 1 1.00448 0.99862
1.00126 1.00364 1.00048 0.997157
1.00854 1.00132 1.00935 0.997876
1.00323 1.00368 1.00203 0.99752
1.04981 1.05356 0.999808 0.996629
1.03706 1.04072 1 0.996486
1.04239 1.04586 0.999984 0.996704
1.00415 1.00387 1.00379 0.996502
1.02063 1.02456 1 0.996167
0.999576 1 1 0.999576
0.99895 1 1 0.99895
0.999057 1 1.00005 0.999007
0.998812 1 1.00006 0.99875
0.999097 1 1.00004 0.999061
0.999692 1 1 0.999692
0.999669 1 1 0.999669
0.999996 1 1 0.999996
0.999629 1 1 0.999629
0.999992 1 1 0.999992
1 1 1 1
0.999987 1 1 0.999987
1 1 1 1
1 1 1 1
0.999948 1 1 0.999948
1.00033 1 1.0005 0.999829
1 1 1 1
1 1 1 1
1.00157 1 1.00189 0.999675
1 1 1 1
1.05252 1.05634 1 0.996386
1.05344 1.05719 1 0.996457
1.05903 1.0632 0.999415 0.996661
1.05681 1.06425 0.996193 0.996805
1.05087 1.05463 1 0.996433
1.0166 1.0199 1 0.996771
1.05021 1.05398 1 0.996425
1.05612 1.06316 0.996585 0.996787
1.05802 1.06394 0.997691 0.996738
1.05135 1.06119 0.99367 0.997035
1.05668 1.0604 0.999951 0.996543
1.05299 1.06282 0.993703 0.997034
1.05613 1.06277 0.99698 0.996762
1.04986 1.06004 0.9934 0.996981
1.05218 1.06268 0.993026 0.997076
1.05161 1.06448 0.990723 0.997157
1.05381 1.05954 0.997729 0.99685
1.05111 1.06502 0.989676 0.997239
1.05 1.05375 1 0.99644
1.05066 1.05454 0.999774 0.996538
1.05526 1.06156 0.997257 0.996793
1.05385 1.05871 0.998782 0.996624
1.00284 1.00406 1.00095 0.997837
1.01539 1.01858 1 0.99687
1.02938 1.03304 1.00018 0.996275
1.04957 1.05319 1 0.996556
1.04702 1.05584 0.994571 0.997056
1.04549 1.04926 0.999607 0.996803
1.04079 1.04471 1 0.996251
1.03849 1.04164 0.999991 0.996986
1.00339 1.00418 1.00179 0.997436
1.00381 1.0037 1.0029 0.997216
1.0044 1 1.00556 0.998842
1.00735 1.00001 1.00955 0.997807
1.05572 1.06187 0.997461 0.996742
1.05627 1.06168 0.998219 0.996674
1.04722 1.05689 0.993883 0.996953
1.04698 1.05767 0.992854 0.997016
1.00553 1.00836 1 0.997187
1.01762 1.02118 1.00003 0.996481
1.0298 1.03353 1.00039 0.996001
1.04681 1.05171 0.998447 0.996888
1.0434 1.05425 0.992443 0.997244
1.03694 1.04078 1 0.996304
1.03948 1.04541 0.997152 0.997166
1.04019 1.04328 1 0.997042
1.00266 1.00555 1 0.997128
1.00421 1.0054 1.00169 0.997127
1.00606 1.00135 1.0073 0.997428
1.00109 1 1.00204 0.999058
1.00942 1 1.01138 0.998067
1.04833 1.05881 0.99311 0.996967
1.04832 1.05934 0.992575 0.996993
1.04415 1.05916 0.988573 0.997229
1.03976 1.05103 0.992002 0.997251
1.00834 1.01152 1 0.99685
1.04369 1.04988 0.996751 0.997341
1.01063 1.0142 1.00029 0.996195
1.0253 1.02908 1.00051 0.995819
1.0332 1.03703 1 0.996307
0.999539 1 1.00024 0.999295
1.00622 1 1.00783 0.998409
1.00691 1 1.00917 0.997768
1.00356 1.00659 1 0.996997
1.00489 1.00138 1.0064 0.997129
1.00563 1.0065 1.00217 0.996973
0.999977 1 1 0.999977
0.999916 1 1.00061 0.999311
1.05247 1.05627 1 0.996406
1.00911 1 1.01089 0.998242
0.999653 1.0014 1.00074 0.997516
1.00253 1.00108 1.0039 0.997546
1.04099 1.04475 1 0.996405
1.04282 1.04652 1 0.996467
1.01119 1.01225 1.00229 0.996677
1.02187 1.02493 1.00077 0.996241
1.03962 1.04324 1 0.996528
0.999506 1 1.00002 0.999482
1.00342 1 1.0048 0.998624
1.00226 1.00471 1.00041 0.997151
1.00945 1.00106 1.01054 0.997869
1.00349 1.00424 1.00174 0.997518
1.04943 1.05311 0.99988 0.996623
1.03786 1.04153 1 0.996473
1.04255 1.046 0.999964 0.996729
1.00523 1.00553 1.00324 0.996466
1.01927 1.02316 1.00006 0.996138
0.999732 1 1.00086 0.998876
1.00937 1 1.01121 0.998183
1.00328 1.00428 1.002 0.997011
1.00909 1.00419 1.00726 0.997643
1.01152 1.01317 1.001 0.997378
1.04594 1.05299 0.996175 0.99712
1.03802 1.0418 1 0.996376
1.04085 1.0443 0.999984 0.996712
1.00718 1.0065 1.00433 0.996363
1.00921 1.01332 1 0.995947
0.999579 1 1 0.999579
0.998968 1 1 0.998968
0.998681 1 1 0.998681
0.999012 1 1.00003 0.998981
0.999075 1 1.00002 0.99906
0.998913 1 1.00019 0.998723
0.998953 1 1.0003 0.99865
0.999236 1 1.00057 0.998662
0.999087 1 1 0.999087
0.999686 1 1 0.999686
0.999692 1 1 0.999692
0.999999 1 1 0.999999
0.999671 1 1 0.999671
0.999997 1 1 0.999997
1 1 1 1
0.999994 1 1 0.999994
1 1 1 1
1 1 1 1
0.99999 1 1 0.99999
0.99993 1 1 0.99993
1 1 1 1
1.0008 1 1.00099 0.999809
1 1 1 1
1 1 1 1
1.05738 1.06108 0.999975 0.996536
1.05833 1.06421 0.997737 0.996739
1.0532 1.06268 0.994011 0.997056
1.05064 1.06102 0.993135 0.997065
1.05598 1.06294 0.996658 0.996782
1.05037 1.05414 1 0.996426
1.05606 1.06255 0.997144 0.996743
1.05044 1.06022 0.993783 0.996974
1.05137 1.06201 0.992897 0.997061
1.05039 1.06399 0.990026 0.997168
1.05351 1.05895 0.997997 0.996851
1.04895 1.0636 0.98891 0.997278
1.05052 1.05994 0.994145 0.996956
1.0516 1.0656 0.989672 0.997155
1.0519 1.06653 0.988995 0.997253
1.04579 1.06086 0.988461 0.997301
1.05572 1.06189 0.997445 0.996742
1.05589 1.06115 0.998379 0.996654
1.0474 1.05712 0.993803 0.996985
1.048 1.05806 0.993472 0.996998
1.00688 1.00973 1 0.997179
1.0169 1.02045 1 0.996522
1.0297 1.03325 1.00058 0.99599
1.04715 1.05168 0.998852 0.996837
1.04216 1.05341 0.991992 0.997301
1.04068 1.04657 0.997199 0.997167
1.03402 1.03787 1 0.996289
1.0425 1.04552 1 0.997103
1.00201 1.0049 1 0.997128
1.00404 1.00625 1.00069 0.997121
1.00735 1.00136 1.00858 0.997423
1.00155 1 1.00253 0.999024
1.00921 1 1.01113 0.998109
1.04861 1.05904 0.993154 0.996969
1.04888 1.05998 0.992517 0.996989
1.04412 1.05838 0.989274 0.997221
1.00795 1.01114 1 0.996846
1.01122 1.01478 1.00026 0.996235
1.02365 1.02717 1.00076 0.995807
1.04018 1.05106 0.99239 0.997237
1.03672 1.04044 1 0.99642
1.04007 1.0465 0.996531 0.997308
0.999551 1 1.00022 0.999334
1.00361 1.00655 1.00009 0.996989
1.00347 1.00522 1.00117 0.997093
1.00737 1.00267 1.00759 0.997122
1.0073 1 1.00953 0.997793
1.00624 1 1.00787 0.998374
1.04998 1.06356 0.990164 0.997044
1.04803 1.06629 0.985675 0.997157
1.03792 1.05699 0.984613 0.99731
1.03726 1.05358 0.987025 0.997451
1.00725 1.01063 1 0.996654
1.03554 1.03983 0.998965 0.996906
1.00497 1.00756 1.00165 0.995796
1.01375 1.01711 1.00104 0.995658
0.999599 1 1 0.999599
1.00131 1 1.00258 0.998735
1.00634 1 1.00829 0.998066
1.00673 1 1.00944 0.99732
1.00325 1.00491 1.00153 0.996827
1.00838 1.0031 1.00849 0.996802
0.999488 1 1 0.999488
1.00386 1 1.00524 0.998629
1.04923 1.05284 0.999954 0.996617
1.01015 1.00068 1.01163 0.997863
1.00331 1.00591 1.00027 0.997144
1.00312 1.00409 1.00152 0.997516
1.03883 1.04252 1 0.996461
1.04281 1.04626 0.99995 0.996755
1.00676 1.00762 1.00273 0.996429
1.01789 1.0216 1.00027 0.996108
0.999623 1 1.00075 0.998879
1.00966 1 1.01151 0.998169
1.00382 1.00483 1.00198 0.99702
1.00836 1.00407 1.00664 0.997648
1.01244 1.01455 1.00048 0.997447
1.04745 1.05456 0.996078 0.997167
1.03752 1.04127 1 0.996401
1.04203 1.04543 0.999956 0.996788
1.00738 1.00648 1.00458 0.99633
1.00929 1.01345 1.00003 0.995872
1.00072 1 1.00217 0.998554
1.00951 1.00065 1.01108 0.997801
1.00953 1.00883 1.00378 0.996923
1.01037 1.01152 1.00161 0.997263
1.04413 1.06989 0.97845 0.99742
1.04168 1.04677 0.997942 0.997191
1.02515 1.0292 1 0.996061
1.0122 1.01201 1.00426 0.99595
0.998986 1 1 0.998986
0.998723 1 1.00003 0.998693
0.998661 1 1 0.998661
0.999159 1 1.0001 0.999058
0.99906 1 1.00037 0.998695
0.999103 1 1.00002 0.999085
0.998815 1 1.00016 0.99866
0.999426 1 1.00076 0.998672
0.998721 1 1 0.998721
0.999775 1 1.00126 0.998517
0.99951 1 1.00089 0.998625
0.999067 1 1 0.999067
0.999654 1 1 0.999654
0.999685 1 1 0.999685
1 1 1 1
0.999692 1 1 0.999692
0.999999 1 1 0.999999
1 1 1 1
0.999998 1 1 0.999998
1 1 1 1
1 1 1 1
1 1 1 1
0.999981 1 1 0.999981
1 1 1 1
0.999911 1 1 0.999911
1 1 1 1
1 1 1 1
1.05312 1.05828 0.998264 0.996853
1.05069 1.06148 0.99276 0.997046
1.04687 1.06226 0.988165 0.997317
1.04921 1.06355 0.989308 0.997179
1.05103 1.06042 0.994158 0.996967
1.05595 1.06228 0.997302 0.996724
1.0503 1.05981 0.994051 0.996956
1.05145 1.06527 0.989854 0.997146
1.05046 1.06569 0.988422 0.997252
1.04696 1.06173 0.988738 0.997312
1.05267 1.06557 0.990769 0.9971
1.05321 1.07222 0.984922 0.997306
1.05179 1.07238 0.983388 0.997369
1.04887 1.05927 0.99319 0.996971
1.04939 1.06055 0.99247 0.996984
1.04419 1.05761 0.990075 0.997212
1.00776 1.01095 1 0.996842
1.0111 1.0147 1.00018 0.996275
1.02164 1.02509 1.00085 0.995795
1.04066 1.05114 0.992791 0.997223
1.03585 1.04274 0.996109 0.997274
1.03901 1.04262 1 0.996532
1.00291 1.00547 1.00048 0.996981
0.999247 1.00194 1.0001 0.997214
1.00906 1.00356 1.00839 0.997114
0.999586 1 1.00021 0.999373
1.00677 1 1.00897 0.997817
1.00647 1 1.00814 0.998339
1.05078 1.06407 0.990426 0.997052
1.04734 1.06601 0.985283 0.997163
1.03816 1.05669 0.985122 0.997302
1.00458 1.00796 1 0.996647
1.00495 1.0077 1.0014 0.995872
1.01393 1.01735 1.0009 0.995742
1.0375 1.05326 0.987556 0.997454
1.03222 1.03726 0.998248 0.996885
0.999664 1 1 0.999664
1.00135 1 1.00262 0.998733
1.00068 1.00334 1.00048 0.996872
1.01045 1.00242 1.0111 0.996955
1.00623 1.00026 1.00862 0.997367
1.00617 1 1.00816 0.998028
1.05058 1.06992 0.984648 0.997227
1.03928 1.06738 0.976345 0.997264
1.03498 1.05687 0.981745 0.997497
1.02764 1.04126 0.989441 0.997457
1.00245 1.00478 1.00133 0.996356
1.01503 1.01766 1.0014 0.996024
1.0058 1.00759 1.00264 0.995586
0.999829 1 1 0.999829
0.999317 1 1 0.999317
0.999244 1 1.00022 0.999028
1.002 1 1.00375 0.998256
1.00725 1 1.0096 0.997679
1.00914 1.00033 1.01172 0.99712
0.999855 1.00192 1.00097 0.996974
1.0339 1.00117 1.03558 0.997218
0.999484 1 1.0006 0.998883
1.0102 1 1.01207 0.998155
1.049 1.05614 0.996016 0.997214
1.00895 1.00499 1.0063 0.997653
1.00455 1.00538 1.00215 0.997028
1.01317 1.01566 1.00004 0.997516
1.03682 1.04053 1 0.996427
1.04312 1.04648 0.99992 0.996863
1.00749 1.00638 1.00482 0.996298
1.00908 1.01334 1 0.995798
1.00122 1 1.00271 0.998518
1.00851 1.00025 1.01047 0.997807
1.01209 1.01099 1.00415 0.996948
1.00979 1.0111 1.00142 0.997299
1.0461 1.07217 0.97819 0.99744
1.04307 1.04765 0.998484 0.997139
1.02476 1.02876 1 0.996111
1.01379 1.01414 1.00377 0.995897
1.00234 1 1.00404 0.998313
1.04833 1.07672 0.976124 0.997446
1.00286 1.0005 1.00493 0.997447
1.01178 1.01241 1.00268 0.996702
1.03721 1.058 0.982757 0.997546
1.02177 1.02574 0.999924 0.996202
1.01014 1.01125 1.00323 0.995687
0.998705 1 1 0.998705
0.998635 0.999983 1 0.998651
0.998922 1 1.00018 0.998744
0.999083 1 1 0.999083
0.99954 1 1.00086 0.998682
0.998863 1 1.00019 0.998669
0.999064 1 1 0.999064
0.999595 1 1.00097 0.99863
0.998736 1 1 0.998736
0.999435 1 1.0009 0.998532
0.998815 1 1 0.998815
0.998756 1 1.00015 0.99861
0.999823 1 1.00143 0.998395
0.998622 1 1.00006 0.998563
0.998996 1 1 0.998996
0.999613 1 1 0.999613
0.999651 1 1 0.999651
1 1 1 1
0.999683 1 1 0.999683
1 1 1 1
1 1 1 1
1 1 1 1
1 1 1 1
1 1 1 1
0.999856 1 1 0.999856
1 1 1 1
0.999998 1 1 0.999998
1 1 1 1
0.999972 1 1 0.999972
1 1 1 1
1 1 1 1
1.04807 1.0626 0.988976 0.997322
1.049 1.06477 0.987897 0.997251
1.05129 1.0649 0.990054 0.997136
1.05006 1.05967 0.993963 0.996955
1.05231 1.06547 0.990497 0.997119
1.05301 1.07165 0.985268 0.997297
1.04956 1.07008 0.983403 0.997377
1.05278 1.07214 0.984614 0.997287
1.06293 1.08397 0.983142 0.997396
1.05663 1.08132 0.979465 0.997662
1.05154 1.06455 0.990692 0.99706
1.04658 1.06575 0.984802 0.997169
1.03831 1.05641 0.985541 0.997294
1.00385 1.00717 1.00006 0.99664
1.00564 1.00846 1.00126 0.995951
1.01653 1.02 1.00078 0.995826
1.03778 1.05273 0.988313 0.997458
1.02907 1.03455 0.997834 0.996864
1.0012 1.00369 1.0006 0.996919
1.01388 1.00304 1.01374 0.997106
1.0071 1.00057 1.00913 0.997415
0.999729 1 1 0.999729
1.00125 1 1.00252 0.998731
1.00617 1 1.00819 0.99799
1.05045 1.07023 0.984238 0.997237
0.999824 1 1 0.999824
0.999281 1 1 0.999281
1.04002 1.06656 0.977787 0.997266
1.0333 1.05571 0.981262 0.997466
1.00321 1.00491 1.00188 0.99644
1.00592 1.00704 1.00332 0.995581
1.01557 1.01897 1.00065 0.996014
1.02657 1.04083 0.988844 0.997431
0.999347 1 1.00024 0.999112
1.00199 1 1.00375 0.998248
1.00147 1.00183 1.00278 0.996868
1.02926 1.00122 1.03072 0.997374
1.00734 1.00025 1.00998 0.997137
1.00669 1 1.00902 0.997695
1.06016 1.08362 0.980951 0.99735
1.02056 1.06491 0.960856 0.997401
1.02246 1.04799 0.977943 0.997647
1.00845 1.02204 0.989516 0.997149
1.00522 1.00273 1.00597 0.996539
1.0055 1.00444 1.0055 0.995579
0.999243 1 1 0.999243
0.99928 1 1 0.99928
0.998978 1 1 0.998978
0.998694 1 1.00024 0.998452
1.00517 1 1.0072 0.997993
1.00563 1.00018 1.00814 0.997338
1.04892 1 1.05191 0.997157
1.00141 1.00049 1.00337 0.997555
1.00179 1 1.00331 0.998481
1.00717 1 1.00938 0.997813
1.04733 1.07343 0.978173 0.99746
1.04399 1.04813 0.99896 0.997087
1.00915 1.01068 1.00115 0.997335
1.01487 1.01348 1.00441 0.996973
1.02472 1.02864 1.00004 0.996161
1.01572 1.01655 1.00335 0.995844
1.0025 1 1.00421 0.998294
1.05116 1.08018 0.97557 0.997504
1.00352 1.00032 1.00573 0.997476
1.00992 1.01061 1.00269 0.99664
1.03611 1.05708 0.982592 0.997521
1.02082 1.02469 0.999937 0.996285
1.01128 1.01212 1.00348 0.995703
1.00557 1 1.00759 0.997993
1.01379 1.04806 0.969302 0.99793
1.00425 1.00319 1.0039 0.997177
1.00478 1.00481 1.00379 0.996191
1.01765 1.02952 0.991362 0.997087
1.00261 1.00451 1.00221 0.995909
0.976192 1.00343 0.975497 0.997289
0.998522 0.999833 1.00005 0.99864
0.999168 0.999482 1.00094 0.998744
0.999483 1 1.00082 0.998668
0.999061 1 1 0.999061
0.999901 1 1.00127 0.998635
0.998954 1 1.00041 0.998548
0.998753 1 1 0.998753
0.998995 1 1 0.998995
0.998753 1 1.0002 0.998556
0.998781 1 1 0.998781
0.999689 1 1.00129 0.998396
0.998727 1 1.00014 0.998591
0.99889 1 1.00012 0.99877
0.998776 1 1.00056 0.998216
1.00064 1 1.00228 0.998369
0.998529 1 1.00009 0.998441
0.998852 1 1 0.998852
0.999182 1 1.00056 0.998622
0.998871 1 1.00005 0.998822
0.999593 1 1 0.999593
0.99961 1 1 0.99961
1 1 1 1
0.999647 1 1 0.999647
1 1 1 1
1 1 1 1
1 1 1 1
1 1 1 1
1 1 1 1
0.999884 1 1 0.999884
0.999857 1 1 0.999857
1 1 1 1
1 1 1 1
1 1 1 1
0.999996 1 1 0.999996
1 1 1 1
1 1 1 1
1.04757 1.06813 0.983318 0.997385
1.05266 1.07107 0.985491 0.997288
1.052 1.06543 0.990224 0.997137
1.05275 1.07204 0.984686 0.997285
1.06043 1.08166 0.982931 0.997393
1.05575 1.07943 0.980436 0.997586
1.065 1.09037 0.97922 0.997461
0.97241 1.01605 0.961319 0.995555
1.01428 1.047 0.970332 0.998364
0.999386 1 1 0.999386
1.05034 1.07053 0.983853 0.997248
1.04087 1.06579 0.979292 0.997268
1.03153 1.05464 0.980604 0.997436
1.00008 1.00275 1.00082 0.996523
1.00458 1.00501 1.00402 0.995576
1.01471 1.01864 1.00013 0.996005
1.02533 1.0404 0.988076 0.997404
0.998863 1.00199 1.00011 0.996765
1.02239 1.00031 1.02459 0.997534
1.00529 1 1.00815 0.997155
0.999819 1 1 0.999819
1.00738 1 1.00969 0.997711
0.999449 1 1.00026 0.999194
1.00203 1 1.0038 0.998239
0.999246 1 1 0.999246
1.0567 1.08382 0.977562 0.997358
0.999288 1 1 0.999288
0.99928 1 1 0.99928
0.998787 1.00005 0.999795 0.998943
1.02504 1.06535 0.96467 0.997399
1.02284 1.04817 0.978179 0.9976
1.00171 1.00211 1.00304 0.996568
1.00922 1.00797 1.00556 0.995703
1.00748 1.01982 0.990739 0.997132
0.99881 1 1.0003 0.998508
1.00524 1 1.00731 0.997943
1.00773 1.00031 1.01 0.997441
1.0389 1.00007 1.04176 0.997182
1.0049 1.00022 1.00731 0.997387
1.03766 1.07226 0.970189 0.997464
1.00283 1.05464 0.953206 0.997554
1.01503 1.03096 0.987211 0.9973
0.991727 1.0082 0.986726 0.996889
1.00363 1 1.00646 0.99718
0.998814 1 1 0.998814
0.998751 1 1 0.998751
0.999859 1 1.00118 0.998684
1.00525 1 1.00702 0.99824
1.008 1 1.01019 0.99783
1.03633 0.99984 1.03917 0.997426
1.03047 1.00168 1.03133 0.997486
1.00245 1 1.00418 0.998275
1.00381 1 1.00632 0.997505
1.0531 1.08449 0.973437 0.997559
1.03556 1.05699 0.982183 0.997494
1.02026 1.02405 0.999927 0.996368
1.0077 1.00846 1.00268 0.996578
1.01204 1.01275 1.0036 0.99572
1.00506 1 1.00704 0.998035
1.01327 1.04848 0.968386 0.997969
1.00151 1.00203 1.0023 0.997187
1.0039 1.00364 1.00408 0.996193
1.01674 1.02962 0.990257 0.997205
1.00311 1.00449 1.00273 0.995902
0.975915 1.00342 0.976196 0.996305
1.00574 1.00065 1.00722 0.997886
1.00257 1.02405 0.981066 0.997913
1.0005 1.00137 1.00209 0.997049
1.00434 1.00148 1.00644 0.996442
0.992212 1.00605 0.989252 0.996956
0.916079 0.977364 0.961086 0.975246
0.913059 0.969022 0.954431 0.987236
0.969487 0.98469 0.987097 0.997431
0.733982 0.840105 0.917969 0.951753
0.653886 0.802513 0.869433 0.93716
0.999133 0.998976 1.00141 0.998744
1.00043 0.99931 1.0024 0.998721
1.00008 1 1.00138 0.998704
0.998995 1 1 0.998995
0.998617 1 1.00007 0.998549
0.999338 1 1.00094 0.998398
0.998682 1 1.00011 0.998572
0.998747 1 1 0.998747
1.00129 1 1.00295 0.998345
0.998887 1 1 0.998887
0.998504 1 1.00004 0.998461
0.998945 1 1.00022 0.998726
0.999071 1 1.00081 0.998259
1.00248 1 1.00422 0.998271
1.00307 1 1.00469 0.998387
1.002 1 1.00372 0.99828
0.99889 1 1.00052 0.998366
0.998818 1 1 0.998818
0.998786 1 1.00033 0.998455
0.998999 1 1.00054 0.998463
0.999012 1 1.00036 0.998648
0.999249 1 1.00067 0.998582
0.998939 1 1 0.998939
0.998921 1 1.0001 0.998818
0.999587 1 1 0.999587
0.999592 1 1 0.999592
1 1 1 1
0.999607 1 1 0.999607
1 1 1 1
1 1 1 1
1 1 1 1
1 1 1 1
1 1 1 1
0.999915 1 1 0.999915
0.99988 1 1 0.99988
1 1 1 1
0.999857 1 1 0.999857
1 1 1 1
1 1 1 1
1 1 1 1
1 1 1 1
1 1 1 1
1.05757 1.07904 0.982669 0.997389
1.0528 1.07196 0.984799 0.997284
1.05531 1.07779 0.981583 0.997511
0.973538 1.01587 0.962537 0.995631
1.06195 1.08769 0.978823 0.997461
1.02669 1.05052 0.979037 0.998235
1.04491 1.0624 0.985906 0.99759
0.928498 0.980123 0.96044 0.986348
0.991823 1.01935 0.976465 0.996445
0.999408 1 1 0.999408
0.999381 1 1 0.999381
0.998927 1 1 0.998927
0.999021 1 1 0.999021
1.05428 1.08404 0.975111 0.997365
1.0291 1.06522 0.968615 0.997397
1.02328 1.04815 0.978668 0.997552
1.00048 1.00091 1.00298 0.996597
1.01391 1.01286 1.00523 0.995827
1.00671 1.01805 0.991723 0.997115
1.01784 1 1.02057 0.997325
1.03137 1.00012 1.03414 0.997207
1.00332 1.00013 1.00577 0.997435
0.999279 1 1 0.999279
1.0036 1 1.00571 0.997894
0.998872 1 1.00031 0.998565
0.999333 1 1 0.999333
0.998923 1.00011 0.999908 0.998907
1.03544 1.07221 0.968155 0.997479
0.998852 1 1 0.998852
0.998821 1.00005 0.999954 0.998813
0.999503 0.999946 1.00071 0.998843
1.00831 1.05741 0.95591 0.997545
1.01467 1.03097 0.986854 0.9973
1.00373 1.00062 1.00597 0.997162
0.994868 1.00833 0.989659 0.996963
1.00365 1 1.00548 0.998179
1.00723 1 1.00953 0.997718
1.03723 1.00162 1.03819 0.997466
1.03677 1.00018 1.03934 0.997347
0.996169 1.04546 0.955082 0.997665
0.995266 1.03505 0.963934 0.997543
1.00542 1.01209 0.996433 0.996967
0.983362 1.00095 0.98453 0.997866
1.00035 1 1.00182 0.99854
1.00161 1 1.00319 0.998421
1.01412 0.999768 1.01615 0.998232
1.05697 1.00004 1.05958 0.997498
0.893541 0.968157 0.94938 0.97214
1.00539 1 1.00733 0.998075
0.999297 1.0009 1.0012 0.997196
1.0142 1.0486 0.969129 0.99801
1.0159 1.02917 0.989753 0.997321
1.00354 1.00437 1.0033 0.995893
1.00346 1.00281 1.00447 0.996194
0.976332 1.00471 0.976351 0.995293
1.00432 1.0002 1.00619 0.997942
1.00212 1.02515 0.979599 0.997898
1.00027 1.00144 1.00177 0.997065
1.00458 1.00204 1.00611 0.996446
0.995843 1.00715 0.991795 0.996951
0.913983 0.983718 0.955689 0.972189
0.906426 0.965652 0.953497 0.984446
0.973374 0.985359 0.990353 0.997459
0.730749 0.835535 0.917905 0.95281
0.639942 0.792378 0.86602 0.932567
1.00183 0.999801 1.00392 0.998117
0.761886 0.856144 0.931585 0.955259
0.691229 0.809112 0.910527 0.938254
0.987925 1.00615 0.983953 0.997902
1.00767 1.00157 1.00855 0.997556
1.01334 1.00501 1.011 0.997319
0.963551 0.977026 0.988437 0.997744
0.896807 0.957698 0.961993 0.973416
0.879134 0.939003 0.95264 0.982788
0.722057 0.835218 0.904555 0.955734
0.711305 0.855913 0.88802 0.935844
1.00204 0.998868 1.0044 0.998773
1.00107 0.999575 1.00282 0.998678
1.00479 1 1.00595 0.99884
0.998922 1 1 0.998922
0.998482 1 1 0.998482
1.00191 1 1.0036 0.998322
0.99963 1 1.00133 0.998302
0.998683 1 1 0.998683
0.998819 1 1 0.998819
1.00281 1 1.00456 0.998257
1.00235 1 1.00407 0.998288
0.998559 1 1.00015 0.998406
1.00333 1 1.00493 0.998415
1.00504 1 1.00671 0.99834
1.0127 1 1.01419 0.998525
1.0008 1 1.00259 0.998211
0.998909 1 1.00049 0.998421
0.998549 1 1.0001 0.998451
0.999375 1 1.0009 0.998472
0.999644 1 1.00136 0.998282
0.999289 1 1.00078 0.998509
1.00109 1 1.00259 0.998501
1.00527 1 1.00699 0.998293
0.999863 1 1.00126 0.998609
0.99891 1 1.00026 0.99865
0.998977 1 1 0.998977
0.999026 1 1.00048 0.998543
0.99891 1 1 0.99891
0.999575 1 1 0.999575
0.998924 1 1.00011 0.998815
0.999589 1 1 0.999589
0.999999 1 1 0.999999
0.999592 1 1 0.999592
1 1 1 1
1 1 1 1
1 1 1 1
1 1 1 1
1 1 1 1
0.999361 1 1 0.999361
0.999921 1 1 0.999921
0.999911 1 1 0.999911
1 1 1 1
0.999877 1 1 0.999877
1 1 1 1
1 1 1 1
1 1 1 1
1 1 1 1
1 1 1 1
0.975384 1.01562 0.964517 0.995712
1.0597 1.0848 0.97935 0.997461
1.0343 1.05375 0.983406 0.998103
0.921356 0.974165 0.957778 0.987485
0.991198 1.01911 0.975907 0.996623
1.04412 1.06633 0.981583 0.997544
1.00253 1.02797 0.978447 0.996737
0.935899 0.975225 0.970473 0.988873
0.914528 0.977222 0.961755 0.973059
0.73199 0.837918 0.914149 0.955623
0.619269 0.76084 0.8693 0.936303
0.998966 1 1 0.998966
0.999406 1 1 0.999406
0.999377 1 1 0.999377
0.998921 1 1 0.998921
0.998696 1 1 0.998696
0.998707 1 1 0.998707
0.99889 1 1 0.99889
0.998979 1 1 0.998979
1.03196 1.07259 0.964536 0.997493
1.01429 1.06137 0.958011 0.997536
1.01421 1.03104 0.986336 0.997299
1.00324 1.00178 1.00432 0.997145
0.997491 1.00789 0.992622 0.997037
1.041 1.00108 1.04254 0.997444
1.03672 1.00074 1.03879 0.997268
1.00789 1 1.01031 0.997606
0.998562 1.0001 0.999591 0.998874
1.00371 1 1.0056 0.998117
0.998891 1 1 0.998891
0.999002 1 1 0.999002
0.995063 1.0462 0.95333 0.997683
1.00024 1 1.00169 0.998554
1.00198 1 1.00351 0.998473
0.993364 1.03349 0.963566 0.997517
1.00257 1.01258 0.992986 0.997109
0.985535 1.0012 0.986579 0.997743
1.02291 1.00005 1.02489 0.998019
1.05291 1.00138 1.05406 0.997531
0.978487 1.02759 0.954489 0.997621
0.987204 1.0109 0.978971 0.997536
0.976571 1.00166 0.977321 0.997578
0.986789 1.00118 0.987577 0.998029
1.00489 1 1.00677 0.998125
1.01145 1 1.01326 0.998211
1.05042 1 1.05269 0.997846
0.765237 0.865628 0.923588 0.957163
0.911227 0.975807 0.956552 0.976235
1.0018 0.99961 1.0042 0.997999
0.999965 1.0013 1.00159 0.997082
1.00182 1.02657 0.977957 0.997883
0.998931 1.00867 0.993382 0.996947
1.00493 1.00278 1.00571 0.996454
0.911457 0.974737 0.96057 0.973464
0.911006 0.973048 0.95044 0.98506
0.974942 0.984125 0.993169 0.997483
0.736212 0.837328 0.919173 0.956555
0.627217 0.782487 0.863918 0.927829
1.00108 0.999737 1.00323 0.998118
0.762676 0.863329 0.924012 0.956063
0.676368 0.795342 0.908886 0.935664
0.987869 1.00719 0.982883 0.997898
1.00774 1.002 1.00818 0.997575
1.01154 1.00332 1.01075 0.99747
0.956663 0.971057 0.987227 0.997923
0.907814 0.969742 0.964326 0.970771
0.875006 0.935834 0.948965 0.985285
0.728277 0.833251 0.916355 0.953799
0.710685 0.862248 0.881662 0.934851
1.00322 1 1.00461 0.998622
0.722213 0.821399 0.936198 0.939168
0.793927 0.894917 0.936969 0.946831
0.987093 0.994941 0.993439 0.998664
1.01501 1.0026 1.01381 0.998592
0.965566 0.96259 1.00556 0.997545
0.886326 0.926007 0.970212 0.986535
0.861826 0.924206 0.962046 0.969293
0.732713 0.827556 0.927374 0.954732
0.761128 0.905661 0.894855 0.93916
1.00201 0.999322 1.00404 0.998653
1.00382 1 1.00503 0.998799
1.00662 0.99942 1.00814 0.999074
0.99882 1 1 0.99882
0.998445 1 1 0.998445
1.00308 1 1.00479 0.998296
1.0034 1 1.00517 0.998244
1.00334 1 1.00491 0.998443
0.99881 1 1.00039 0.998419
1.00365 1 1.00535 0.998316
1.00084 1 1.00263 0.998213
1.01219 0.999833 1.01379 0.998585
1.0318 0.998796 1.03398 0.999094
1.00705 1 1.00871 0.998352
1.00016 1 1.00199 0.99817
0.998489 1 1.00004 0.998447
0.999823 1 1.00134 0.998482
1.00007 1 1.00179 0.998274
0.999646 1 1.00115 0.998497
0.999841 1 1.00125 0.998592
1.00299 1 1.00456 0.998436
1.00211 1 1.00372 0.998392
1.00216 0.999765 1.0038 0.998608
0.999189 1 1.00083 0.998358
0.998851 1.00019 1.00093 0.997738
1.00443 1 1.00625 0.998191
1.00438 1 1.0061 0.998294
1.00396 1 1.00548 0.998491
1.00058 1 1.00198 0.998607
0.998956 1 1 0.998956
0.999092 1 1.00044 0.998651
0.998979 1 1 0.998979
0.999564 1 1 0.999564
0.998881 1 1 0.998881
0.999578 1 1 0.999578
0.999995 1 1 0.999995
0.99959 1 1 0.99959
0.999998 1 1 0.999998
1 1 1 1
1 1 1 1
1 1 1 1
1 1 1 1
0.999367 1 1 0.999367
0.999898 1 1 0.999898
0.999363 1 1 0.999363
1 1 1 1
0.999922 1 1 0.999922
0.999907 1 1 0.999907
1 1 1 1
1 1 1 1
1 1 1 1
1 1 1 1
1 1 1 1
0.75583 0.854183 0.928745 0.952745
0.682084 0.804008 0.905032 0.937376
0.921712 0.976834 0.95501 0.988022
0.992789 1.01904 0.977357 0.996807
1.04639 1.07032 0.980093 0.9975
0.918209 0.958405 0.967477 0.990266
1.00309 1.02716 0.97961 0.996893
0.926853 0.989425 0.961682 0.974084
0.7298 0.839502 0.912517 0.952667
0.621628 0.771515 0.864814 0.931673
0.95039 0.996105 0.961099 0.992723
0.912012 0.968824 0.966588 0.9739
0.721089 0.835062 0.904161 0.955046
0.697468 0.84742 0.880271 0.934994
1.00004 1 1.00151 0.998535
0.999002 1 1 0.999002
0.999404 1 1 0.999404
0.998916 1 1 0.998916
0.998761 1 1.00001 0.998755
0.999571 1 1.00109 0.998486
0.998683 1 1 0.998683
0.998564 1 1 0.998564
0.998849 1 1 0.998849
0.998938 1 1 0.998938
0.99452 1.04626 0.952738 0.997701
0.9901 1.03075 0.962978 0.997494
1.00045 1.01335 0.989991 0.997251
0.987874 1.00141 0.988835 0.997618
1.04755 1.00316 1.0468 0.997565
1.03216 1.00027 1.03414 0.997807
1.00099 1 1.00247 0.998526
1.00008 0.999935 1.00158 0.998566
0.979169 1.02796 0.954737 0.997695
1.00592 1 1.00785 0.998087
1.01119 1 1.01305 0.998163
0.983941 1.00901 0.977621 0.997475
0.974526 1.00136 0.975465 0.997676
0.987494 1.00202 0.987519 0.997963
1.04387 0.999983 1.04619 0.997798
0.977111 1.00369 0.975541 0.997932
0.968645 0.998967 0.971227 0.998373
1.01357 1.0009 1.0145 0.998183
1.0087 1 1.01068 0.998032
1.01025 1 1.01234 0.997938
1.02728 1 1.02938 0.997954
0.748578 0.83726 0.943476 0.947644
0.772019 0.864425 0.932864 0.957375
0.899755 0.972301 0.951788 0.972262
1.00052 0.999481 1.00293 0.998117
1.0074 1.002 1.00781 0.997591
0.990397 1.00826 0.984351 0.997895
1.01007 1.00197 1.01049 0.997616
0.759259 0.858425 0.923531 0.957715
0.901993 0.96617 0.960247 0.972224
0.872734 0.932826 0.951862 0.982895
0.953645 0.967025 0.988046 0.998095
0.722765 0.834351 0.911043 0.950845
0.675612 0.795535 0.906732 0.936611
0.704271 0.854869 0.878553 0.937718
1.00337 0.999797 1.00498 0.998608
0.72413 0.823548 0.933302 0.942119
0.805964 0.906159 0.939637 0.946566
0.986861 0.992927 0.99513 0.998756
1.01518 1.00172 1.01491 0.998546
0.962818 0.961035 1.00384 0.998021
0.878617 0.929718 0.960235 0.984171
0.883238 0.934675 0.971718 0.972471
0.749515 0.847733 0.928812 0.951904
0.750081 0.895038 0.890091 0.941527
1.00744 0.998845 1.00918 0.999431
0.823661 0.912268 0.947212 0.953188
0.794348 0.903855 0.924265 0.950858
0.985267 0.970662 1.01534 0.999715
0.910375 0.926692 0.991533 0.990781
0.887433 0.921899 0.991246 0.971115
0.800622 0.886486 0.950895 0.94978
0.789355 0.934301 0.89765 0.941192
1.00365 1 1.00489 0.998759
1.00703 0.999022 1.00896 0.999067
1.0235 0.995999 1.02828 0.999354
0.998961 1 1.00054 0.998417
1.00079 1 1.00258 0.998216
1.00183 1 1.00354 0.998292
1.01189 0.999658 1.01361 0.998645
1.00061 1 1.00244 0.99817
1.00668 1 1.00835 0.998343
1.03662 0.999582 1.03791 0.999173
1.04441 0.996088 1.04909 0.999446
1.03625 0.999183 1.03806 0.999068
1.00105 1 1.00277 0.998285
1.00024 1 1.00198 0.998266
0.999666 1 1.00118 0.998485
0.998837 1 1.00016 0.998681
1.00179 1 1.00339 0.998411
1.00211 1 1.00367 0.998437
1.00309 0.999979 1.00449 0.998627
1.00116 1 1.00271 0.998453
1.00748 0.999056 1.00948 0.998962
0.996677 1.00036 0.997846 0.998471
0.999817 1.00058 1.00087 0.998373
0.998657 1 1.00069 0.997964
1.00175 1.00335 1.00153 0.996883
1.00285 1.00013 1.00464 0.998084
0.998799 1.00002 1.00079 0.997986
1.00421 1 1.00601 0.998203
1.00737 1 1.00906 0.998324
1.00318 1 1.00489 0.998295
1.00368 1 1.0052 0.998491
0.999403 1 1.00055 0.99885
1.00094 1 1.00234 0.998604
0.998953 1 1 0.998953
0.999545 1 1 0.999545
0.998981 1 1 0.998981
0.999565 1 1 0.999565
0.999986 1 1 0.999986
0.99958 1 1 0.99958
0.999992 1 1 0.999992
1 1 1 1
0.999998 1 1 0.999998
1 1 1 1
1 1 1 1
0.999123 1 1 0.999123
0.999855 1 1 0.999855
0.999292 1 1 0.999292
1 1 1 1
0.999902 1 1 0.999902
0.999364 1 1 0.999364
1 1 1 1
1 1 1 1
0.999922 1 1 0.999922
1 1 1 1
1 1 1 1
1 1 1 1
0.715857 0.819456 0.927202 0.942163
0.762635 0.861326 0.927319 0.954817
0.799558 0.904558 0.934312 0.946066
0.678331 0.801425 0.904304 0.935976
0.919061 0.967979 0.961224 0.987766
1.00105 1.0266 0.977993 0.997059
0.931019 0.986718 0.967867 0.974877
0.740265 0.842618 0.919179 0.955777
0.627417 0.785325 0.86188 0.926959
0.949396 0.990633 0.966262 0.991835
0.905055 0.968143 0.964441 0.969303
0.735045 0.843323 0.914395 0.953204
0.696795 0.849916 0.879121 0.932567
0.923099 0.975445 0.95662 0.98925
0.877604 0.927685 0.976639 0.968643
0.757669 0.863816 0.923504 0.949771
0.755804 0.902999 0.893898 0.936341
1.00172 1 1.00348 0.998241
0.99934 1 1.00076 0.998582
0.999038 1 1 0.999038
0.998815 1 1 0.998815
0.99853 1 1.0004 0.998129
0.998883 1 1.00035 0.998532
0.99866 1 1 0.99866
0.998532 1 1 0.998532
0.998611 1 1.00001 0.998603
0.998807 1 1 0.998807
0.980369 1.02912 0.954763 0.997769
0.982742 1.00791 0.977558 0.997417
0.971765 1.00129 0.972681 0.997772
0.990327 1.00326 0.989187 0.997901
1.03623 1 1.03857 0.997749
1.0109 1 1.0128 0.998116
1.00634 1 1.00831 0.998048
1.00786 1 1.00989 0.99799
0.975011 1.00391 0.97321 0.997951
1.00885 1 1.01095 0.997923
1.02754 1 1.02967 0.997936
0.967375 0.999542 0.969406 0.998362
1.0095 1.00196 1.0094 0.99814
0.951673 0.981282 0.971448 0.99833
0.981481 0.987131 0.995039 0.999233
1.03929 0.999618 1.04136 0.998393
1.00479 1 1.00685 0.997946
1.0191 1 1.0211 0.998041
0.83424 0.919195 0.948544 0.95681
0.748961 0.836374 0.945682 0.946921
0.761084 0.859035 0.928134 0.954578
1.00343 0.999785 1.00505 0.998596
1.01568 1.0007 1.0165 0.998499
0.983421 0.990897 0.993598 0.998849
0.726036 0.82486 0.933511 0.942884
0.876565 0.928158 0.974666 0.96896
0.882934 0.927583 0.965696 0.985677
0.954427 0.956748 0.99908 0.998493
0.752227 0.853088 0.923201 0.955121
0.813154 0.911838 0.94228 0.946401
0.754456 0.897752 0.892381 0.941731
1.00581 0.998763 1.00768 0.999381
0.821033 0.911417 0.943518 0.954757
0.794237 0.903542 0.924373 0.950944
0.987474 0.974305 1.01398 0.999544
0.922813 0.937083 0.994146 0.990571
0.860141 0.914804 0.971727 0.967602
0.789164 0.933694 0.897497 0.941737
0.815532 0.893568 0.959465 0.951227
1.00121 0.978477 1.02353 0.999711
0.805371 0.898291 0.932967 0.960976
0.821012 0.928337 0.928214 0.952786
0.754539 0.901592 0.89357 0.936576
0.960097 0.949136 1.014 0.99758
0.916295 0.937267 1.00537 0.972403
0.861597 0.931821 0.970094 0.953143
1.00783 0.998609 1.01019 0.999058
1.02322 0.996094 1.02799 0.99927
1.02292 0.98432 1.03967 0.999566
1.00068 1 1.00251 0.998169
1.00566 1 1.00734 0.998333
1.04107 0.999665 1.0422 0.999251
1.00158 1 1.00329 0.998291
1.03546 0.999269 1.03717 0.999079
1.04606 0.995885 1.05099 0.999421
1.03493 0.991309 1.04453 0.999489
1.0221 0.998427 1.02468 0.999058
1.00135 1 1.00292 0.998431
1.00161 1 1.00317 0.998439
1.00383 1 1.00519 0.998648
1.00685 0.999355 1.00858 0.998933
1.0008 1 1.00236 0.998451
1.00187 1 1.00304 0.998842
0.997758 1.00013 0.998874 0.99875
1.00244 1.00033 1.0046 0.997511
1.00036 1.00112 1.00084 0.998393
0.999308 1.00087 1.00057 0.997871
0.998845 1.00122 1.00101 0.996616
1.01358 1.01578 1.00129 0.996548
1.00253 1.00205 1.00276 0.997724
1.00056 1.00225 1.00138 0.996939
1.00934 1 1.01125 0.998114
1.00398 1.00058 1.00532 0.998081
0.998877 1 1.00065 0.998232
1.00418 1 1.00598 0.998215
1.00665 1 1.0083 0.99836
1.00069 1 1.00198 0.99871
1.00354 1 1.00506 0.99849
0.999384 1 1.00053 0.998851
0.99948 1 1 0.99948
0.99895 1 1 0.99895
0.999542 1 1 0.999542
0.99998 1 1 0.99998
0.999565 1 1 0.999565
0.999984 1 1 0.999984
1 1 1 1
0.99999 1 1 0.99999
1 1 1 1
1 1 1 1
0.998869 1 1 0.998869
0.999658 1 1 0.999658
0.99912 1 1 0.99912
1 1 1 1
0.999804 1 1 0.999804
0.999218 1 1 0.999218
1 1 1 1
1 1 1 1
0.999907 1 1 0.999907
1 1 1 1
1 1 1 1
1 1 1 1
0.821262 0.916734 0.939353 0.953694
0.715175 0.819426 0.924008 0.944554
0.757969 0.856964 0.92682 0.954318
0.998412 1 1 0.998412
0.800875 0.901922 0.931342 0.953426
0.79839 0.904196 0.933467 0.945917
0.683606 0.809613 0.899827 0.938359
0.957553 0.993714 0.972641 0.990715
0.900004 0.95886 0.964436 0.973232
0.738034 0.85593 0.907529 0.950118
0.691231 0.837238 0.883817 0.934139
0.920168 0.970996 0.960853 0.986263
0.881444 0.931209 0.973689 0.972137
0.763323 0.860809 0.93317 0.950255
0.75203 0.897872 0.893788 0.9371
0.877562 0.929493 0.960343 0.983118
0.87292 0.913319 0.985915 0.969422
0.829057 0.905087 0.962496 0.95169
0.790773 0.933636 0.89996 0.941134
1.00108 1 1.00307 0.998018
1.00297 1 1.00478 0.998197
0.998856 1 1.00023 0.998629
0.998231 1 1.00002 0.998214
0.998763 1 1.00056 0.9982
0.998578 1 1 0.998578
0.998537 1 1 0.998537
0.998667 1 1.00003 0.998642
0.972085 1.00461 0.9696 0.997962
0.966116 1.00076 0.966971 0.998358
1.00746 1 1.00954 0.997947
1.00565 1.00297 1.00459 0.998096
1.02934 1 1.03148 0.997918
1.00844 1 1.01055 0.997909
1.00532 1 1.00738 0.997958
0.955038 0.981024 0.975031 0.998441
1.01745 1 1.01942 0.998065
1.02893 1.00032 1.03022 0.99843
0.978595 0.988609 0.990578 0.999286
1.00732 1 1.00923 0.998106
0.946363 0.964998 0.982555 0.9981
1.00216 0.984829 1.01813 0.999475
1.05173 0.997258 1.05617 0.998536
1.0172 0.999986 1.01902 0.998234
0.814996 0.900856 0.938615 0.963857
0.833835 0.919333 0.948084 0.956666
0.750977 0.835269 0.950222 0.946184
1.00375 0.998648 1.00578 0.999333
0.990355 0.97731 1.01398 0.999377
0.820927 0.912882 0.940377 0.956286
0.886261 0.915672 0.995859 0.971905
0.911647 0.934851 0.987779 0.987244
0.813844 0.892268 0.960307 0.949808
0.795166 0.904727 0.924183 0.951003
0.790242 0.93418 0.897733 0.942285
1.0058 0.98556 1.02088 0.999669
0.807008 0.899762 0.933365 0.960944
0.820561 0.926146 0.927826 0.954916
0.969235 0.954712 1.01585 0.999374
0.750312 0.896121 0.893361 0.937235
0.892963 0.920525 1.00001 0.97005
0.867008 0.937601 0.970631 0.952689
0.99878 0.972711 1.02706 0.999744
0.831615 0.92122 0.937035 0.963392
0.798252 0.898491 0.931577 0.953691
0.694953 0.845461 0.878937 0.935199
0.827429 0.904157 0.962125 0.951164
0.948742 0.948204 1.00599 0.994614
0.924648 0.935628 1.02274 0.966287
1.02081 0.996894 1.02482 0.999188
1.02505 0.984934 1.04122 0.999534
1.01276 0.973109 1.04118 0.999582
1.00237 1 1.00408 0.998297
1.03795 0.99933 1.03959 0.999091
1.04947 0.996882 1.05339 0.999396
1.01723 0.9987 1.01953 0.999045
1.0348 0.99313 1.04249 0.999488
1.01033 0.988238 1.02314 0.999235
1.00632 0.999787 1.00764 0.998904
1.00061 1 1.00217 0.99845
1.00452 1 1.00571 0.998821
1.01106 0.999794 1.01316 0.998129
0.999028 1 1 0.999028
0.999978 1.00025 1.00203 0.997708
1.00238 1.00108 1.00504 0.996271
1.0052 1.00746 1.00188 0.995887
1.00001 1.00184 1.0004 0.997774
0.999442 1.00185 1.00117 0.996424
1.01475 1.01764 1.00053 0.996636
1.00854 1.00876 1.00261 0.997184
1.01261 1.01475 1.00125 0.996642
1.00753 1.00001 1.00962 0.997917
1.005 1.00396 1.00335 0.997697
0.999034 1.00076 1.00128 0.996997
1.00538 1 1.00688 0.998512
1.00866 1 1.01054 0.998133
1.00523 1.00105 1.00611 0.998079
1.00619 1 1.00781 0.998395
1.00124 1 1.00254 0.998709
0.999553 1 1.0002 0.999357
0.999565 1 1.00071 0.998851
0.999475 1 1 0.999475
0.999973 1 1 0.999973
0.999539 1 1 0.999539
0.999979 1 1 0.999979
1 1 1 1
0.999982 1 1 0.999982
1 1 1 1
1 1 1 1
0.998781 1 1 0.998781
0.999505 1 1 0.999505
0.998916 1 1 0.998916
1 1 1 1
0.999642 1 1 0.999642
0.999118 1 1 0.999118
1 1 1 1
1 1 1 1
0.999753 1 1 0.999753
1 1 1 1
1 1 1 1
1 1 1 1
0.811868 0.901321 0.936226 0.962111
0.823776 0.9162 0.942787 0.953685
0.715915 0.819257 0.924993 0.944721
0.998448 1 1 0.998448
0.998374 1 1 0.998374
0.998328 1 1 0.998328
0.820603 0.93003 0.926312 0.952531
0.797422 0.901338 0.927847 0.953508
0.797354 0.903597 0.933009 0.945781
0.92634 0.976651 0.959729 0.988286
0.862296 0.923698 0.963865 0.968524
0.756977 0.846066 0.937074 0.954784
0.762678 0.906615 0.899137 0.935605
0.88012 0.934338 0.955447 0.985896
0.881817 0.919124 0.989363 0.969726
0.809451 0.883685 0.961651 0.952523
0.789359 0.934093 0.897459 0.941607
0.880597 0.924804 0.968065 0.98361
0.897459 0.92469 0.999665 0.970876
0.861605 0.929807 0.971918 0.953423
0.765064 0.908758 0.896423 0.939152
0.998752 1 1.00064 0.99811
1.00174 1 1.00376 0.997986
1.00287 1 1.00473 0.998152
0.998215 1 1.00001 0.998203
0.998609 1 1.00034 0.998271
0.998543 1 1 0.998543
0.956645 0.977634 0.979964 0.998537
0.974232 0.987815 0.986921 0.99932
1.00567 1 1.00771 0.997969
1.02034 1.00052 1.02137 0.998466
1.01783 1 1.01978 0.998088
1.00943 1 1.01135 0.998104
1.01464 0.998612 1.01782 0.998263
0.953978 0.96508 0.990285 0.998194
1.04898 0.996355 1.05422 0.998678
1.006 0.980676 1.02648 0.999364
1.00983 0.99787 1.01359 0.998421
0.975763 0.959745 1.01882 0.997909
1.00752 0.97644 1.03249 0.99936
1.03531 0.986058 1.05122 0.998792
0.844563 0.926703 0.943591 0.965846
0.816998 0.901607 0.939653 0.964354
0.833247 0.919371 0.947518 0.956523
1.01134 0.992377 1.01949 0.999627
0.958092 0.951728 1.0086 0.998102
0.808383 0.900696 0.934016 0.960914
0.88887 0.908869 1.00397 0.974132
0.861805 0.935326 0.969316 0.950562
0.820892 0.924624 0.927661 0.957042
0.763174 0.905737 0.900347 0.935861
0.994491 0.969847 1.02564 0.999778
0.83244 0.920578 0.937838 0.964194
0.799426 0.901554 0.929693 0.953778
0.944485 0.943789 1.01004 0.990785
0.694941 0.847942 0.878513 0.932897
0.804368 0.881469 0.958841 0.951702
0.933695 0.942115 1.02045 0.971201
1.0021 0.958209 1.04706 0.998803
0.812719 0.900289 0.938127 0.96227
0.807961 0.910469 0.937599 0.946472
0.61871 0.758729 0.87037 0.936907
0.74969 0.856138 0.922059 0.949685
0.898346 0.921497 1.0049 0.970124
0.922834 0.939013 0.994746 0.987962
1.02626 0.985423 1.04196 0.999501
1.01737 0.980079 1.03848 0.999586
1.01054 0.983426 1.02807 0.99951
1.01159 0.999056 1.01353 0.999032
1.03184 0.994399 1.03819 0.999487
1.01406 0.98592 1.02925 0.999319
1.00819 0.999499 1.00991 0.9988
1.00721 1 1.00842 0.998799
1.00887 0.999926 1.01103 0.997935
1.02104 1.00086 1.02375 0.996496
0.997431 1.00005 0.999469 0.997909
1.00384 1.00133 1.00625 0.996276
1.00454 1.00252 1.00664 0.995394
1.00646 1.0091 1.00191 0.995478
1.00826 1.01097 1.00108 0.99625
1.0051 1.00733 1.00196 0.995835
0.999738 1.00227 1.00124 0.996233
1.00749 1.00947 1.0011 0.996949
1.01512 1.01797 1.00048 0.996722
1.00268 1.00056 1.00464 0.997499
1.01024 1.01026 1.00274 0.997256
1.01222 1.01435 1.00117 0.996737
1.0094 1 1.01121 0.998203
1.00713 1.0005 1.00873 0.997914
1.0075 1.006 1.00383 0.997669
1.00009 1 1.00089 0.9992
1.00469 1 1.00619 0.99851
1.00754 1 1.00941 0.998152
1.00116 1 1.00246 0.998708
0.999632 1 1.00028 0.999352
0.999953 1 1 0.999953
0.999471 1 1 0.999471
0.999969 1 1 0.999969
1 1 1 1
0.999977 1 1 0.999977
1 1 1 1
1 1 1 1
0.998742 1 1 0.998742
0.999483 1 1 0.999483
0.998809 1 1 0.998809
0.999997 1 1 0.999997
0.999549 1 1 0.999549
0.998962 1 1 0.998962
1 1 1 1
1 1 1 1
0.999626 1 1 0.999626
1 1 1 1
1 1 1 1
1 1 1 1
0.830749 0.921049 0.936433 0.963186
0.814598 0.902197 0.938485 0.962087
0.825491 0.915137 0.945825 0.953709
1.00073 1 1.00248 0.998258
1.00092 1 1.0028 0.998127
0.998486 1 1 0.998486
0.998361 1 1 0.998361
0.998323 1 1 0.998323
0.998698 1 1.00039 0.998309
0.998302 1 1 0.998302
0.796149 0.907419 0.922925 0.950649
0.822983 0.928174 0.928751 0.954689
0.796367 0.899637 0.928288 0.953594
0.78885 0.934657 0.895872 0.942098
0.87644 0.932283 0.955922 0.98345
0.881338 0.915122 0.992909 0.96996
0.818206 0.895428 0.957722 0.954097
0.870337 0.925953 0.956536 0.982647
0.896881 0.917439 1.01068 0.967258
0.865492 0.93578 0.970133 0.953362
0.751783 0.897023 0.890145 0.941517
0.899161 0.931111 0.98004 0.985353
0.911362 0.927748 1.01593 0.966932
0.80474 0.889843 0.951796 0.950164
0.71251 0.858451 0.88712 0.935606
1.01702 1 1.01865 0.998401
1.00034 1 1.00221 0.998131
1.0028 1 1.00486 0.997955
0.998192 1 1 0.998192
0.962162 0.965725 0.997988 0.99832
1.00809 0.978616 1.03089 0.999247
1.00881 1 1.01073 0.998103
1.01196 0.998521 1.0152 0.998292
1.04069 0.993524 1.04871 0.998821
1.00877 0.99934 1.01103 0.998422
1.03769 0.986244 1.05345 0.998779
0.975472 0.959461 1.02019 0.996563
1.00609 0.967252 1.04067 0.999509
1.0114 0.987748 1.02507 0.998906
0.953508 0.929638 1.02966 0.996131
1.00989 0.963205 1.04921 0.999295
0.816304 0.900397 0.940491 0.963969
0.84255 0.925713 0.941141 0.967085
0.818982 0.902188 0.940847 0.964847
0.989934 0.965404 1.02561 0.999805
0.950384 0.94798 1.00761 0.994967
0.831274 0.919073 0.937269 0.965006
0.933099 0.945599 1.02049 0.966973
0.808951 0.888764 0.954726 0.95336
0.800659 0.903671 0.928867 0.953858
0.690422 0.835483 0.884356 0.934437
1.00322 0.960735 1.04528 0.998989
0.81417 0.903289 0.936699 0.962251
0.801963 0.905696 0.935686 0.946329
0.92525 0.939266 0.99452 0.990505
0.621951 0.770714 0.865542 0.932341
0.754173 0.853109 0.930669 0.949885
0.8973 0.918831 1.00929 0.967578
0.994877 0.966442 1.03228 0.997236
0.822903 0.918729 0.938902 0.953984
0.682085 0.802513 0.906097 0.938018
0.723396 0.837187 0.904209 0.955619
0.863457 0.901177 0.987006 0.970758
0.886246 0.918119 0.980848 0.984132
1.02328 0.984305 1.04003 0.99959
1.01257 0.980899 1.03279 0.999511
0.98381 0.978412 1.00622 0.999305
1.01897 0.984168 1.03598 0.999402
1.00567 0.99196 1.01495 0.998892
1.00201 1.0008 1.00345 0.99776
1.00684 1.00003 1.0091 0.997742
1.01884 1.0008 1.02173 0.996381
1.01031 1.00049 1.01436 0.995523
1.00563 1.00186 1.00752 0.996282
1.00524 1.00229 1.00768 0.995303
1.00182 1.00226 1.00448 0.995097
1.02299 1.02746 1 0.995655
1.01464 1.01817 1.00077 0.995773
1.00678 1.00921 1.00218 0.995421
1.00623 1.00958 1.00013 0.996552
1.00703 1.01001 1.00074 0.996314
1.00509 1.00714 1.00219 0.995782
1.0048 1.00669 1.00112 0.997011
1.00729 1.00931 1.00108 0.996923
1.01521 1.01803 1.00043 0.996808
1.00597 1.00035 1.00783 0.997803
1.00355 1.00136 1.00463 0.997569
1.01168 1.01148 1.00288 0.997328
1.00352 1 1.0046 0.99893
1.00806 1 1.00987 0.998208
1.00682 1.001 1.00792 0.997911
0.999917 1 1 0.999917
1.00073 1 1.00153 0.999193
1.0044 1 1.0059 0.998509
0.999862 1 1.00051 0.999348
0.999945 1 1 0.999945
1 1 1 1
0.999964 1 1 0.999964
1 1 1 1
1 1 1 1
1.00358 1 1.00534 0.998249
0.999146 1 1.00056 0.998592
0.999357 1 1 0.999357
0.998738 1 1 0.998738
0.999984 1 1 0.999984
0.999485 1 1 0.999485
0.998836 1 1 0.998836
1 1 1 1
0.999999 1 1 0.999999
0.999592 1 1 0.999592
1 1 1 1
1 1 1 1
1 1 1 1
0.805355 0.89863 0.932714 0.960855
0.828631 0.918581 0.935759 0.964005
0.815433 0.904644 0.936934 0.962058
1.00124 1 1.00298 0.998269
1.00253 1 1.00441 0.998131
1.00055 1 1.0024 0.998155
1.00244 1 1.00431 0.99814
1.00723 1 1.00915 0.998097
0.998547 1 1.0002 0.998347
0.998317 1 1 0.998317
0.998604 1 1.00029 0.998311
0.998307 1 1 0.998307
1.01038 1 1.01203 0.998368
0.794466 0.89679 0.935934 0.946541
0.796335 0.906176 0.924292 0.950766
0.824435 0.927495 0.928981 0.956837
0.754117 0.899156 0.890588 0.94173
0.862829 0.93402 0.971449 0.950931
0.865478 0.921639 0.957015 0.981243
0.905568 0.925705 1.008 0.970485
0.894563 0.933876 0.975237 0.982226
0.920583 0.938868 1.01027 0.970559
0.819039 0.894044 0.962183 0.952112
0.71251 0.865147 0.881272 0.934525
0.909523 0.92554 0.998083 0.984582
0.902705 0.919624 1.01071 0.971201
0.73623 0.83048 0.928891 0.954376
0.653518 0.801918 0.870316 0.936377
1.01679 1 1.01784 0.998975
1.01848 1 1.0201 0.998414
1.00314 1 1.005 0.998153
0.977451 0.961684 1.02134 0.995159
1.00831 0.961011 1.04957 0.999668
1.00885 1 1.01045 0.998423
1.04144 0.985621 1.05794 0.998767
1.01334 0.991049 1.02361 0.998912
1.01599 0.970787 1.04731 0.999284
0.959001 0.93974 1.02452 0.996077
1.01677 0.991985 1.02566 0.999345
0.970677 0.956837 1.0179 0.996627
0.833206 0.91902 0.947946 0.956409
0.819616 0.902359 0.941776 0.964458
0.840299 0.924407 0.938744 0.96833
1.00455 0.967045 1.03967 0.999148
0.920823 0.936125 0.997371 0.986247
0.818164 0.906233 0.938264 0.962223
0.900391 0.925711 1.00499 0.967821
0.746458 0.836362 0.935192 0.954356
0.795336 0.900922 0.932984 0.946214
0.627032 0.783831 0.862319 0.927682
0.992696 0.964726 1.03161 0.997465
0.823553 0.915726 0.942745 0.953964
0.678794 0.801115 0.904625 0.936645
0.895787 0.927823 0.979568 0.985609
0.736634 0.844455 0.914683 0.953684
0.859403 0.90862 0.976669 0.968428
0.951899 0.951055 1.00516 0.995748
0.716491 0.820386 0.926472 0.942671
0.732331 0.837728 0.914214 0.956217
0.874486 0.927855 0.972895 0.968739
0.864443 0.916748 0.955884 0.986463
1.01157 0.978015 1.03481 0.999513
0.986189 0.975522 1.01166 0.99928
0.995017 0.992137 1.00447 0.998444
1.00196 0.982974 1.02036 0.998979
1.00187 1.00076 1.00328 0.997846
0.997981 1.00206 0.999119 0.996812
1.01655 1.00071 1.01964 0.996264
1.00904 1.00092 1.01264 0.995527
0.999156 1.00202 1.00137 0.99578
1.00545 1.00199 1.00828 0.995213
1.00206 1.00325 1.0037 0.995132
1.02063 1.02485 1 0.995879
1.045 1.04892 1 0.996269
1.03327 1.03767 1.00002 0.995741
1.02313 1.02756 1 0.995684
1.01744 1.02146 1 0.996061
1.01325 1.01652 1.00107 0.995719
1.00744 1.00968 1.00244 0.995364
1.00971 1.01305 1 0.996708
1.00462 1.008 1.00002 0.996626
1.00556 1.0089 1.00032 0.996378
1.00181 1.00234 1.00208 0.997393
1.00385 1.00551 1.0013 0.997049
1.00732 1.00935 1.0011 0.996897
1.00819 1 1.00972 0.998481
1.00678 1.00078 1.0082 0.997807
1.00446 1.00202 1.0048 0.997639
0.999942 1 1.00009 0.999853
1.00395 1 1.00504 0.998922
1.00733 1 1.00913 0.998214
0.999994 1 1 0.999994
0.999904 1 1 0.999904
1.00125 1 1.00206 0.999186
0.999936 1 1 0.999936
1 1 1 1
1 1 1 1
1.00566 1 1.00754 0.998141
1.0014 1 1.00297 0.998435
1.00442 1 1.0062 0.998229
0.99947 1 1.00025 0.999224
0.999382 1 1.00079 0.998589
0.99996 1 1 0.99996
0.999362 1 1 0.999362
0.998735 1 1 0.998735
1 1 1 1
0.999989 1 1 0.999989
0.999488 1 1 0.999488
1 1 1 1
1 1 1 1
1 1 1 1
0.819831 0.912901 0.938721 0.956674
0.808846 0.901248 0.934059 0.960831
0.82892 0.915843 0.938084 0.964827
0.999177 1.00064 1.00039 0.998152
1.00136 1 1.00309 0.99828
1.00211 1 1.00398 0.998136
1.00062 1 1.0025 0.99813
1.00052 1 1.00234 0.998179
1.00437 1 1.00618 0.998203
1.01234 1 1.01459 0.997776
1.01574 1 1.01761 0.998167
0.998418 1 1.0001 0.998314
0.998313 1 1 0.998313
1.01059 1 1.01226 0.998352
1.02436 0.999622 1.02622 0.998563
0.691442 0.8085 0.911981 0.937756
0.805893 0.907761 0.938177 0.946284
0.797165 0.905904 0.925447 0.950855
0.706811 0.858569 0.878269 0.937347
0.818619 0.895964 0.960605 0.951146
0.915023 0.932112 1.01516 0.967007
0.894633 0.925937 0.982943 0.982958
0.908068 0.925688 0.99432 0.98657
0.640912 0.79362 0.866612 0.931882
0.89654 0.91893 1.00791 0.967979
0.75285 0.849965 0.93098 0.951409
0.908464 0.934721 0.983857 0.987857
0.885553 0.919259 0.990661 0.972414
0.723399 0.836979 0.905764 0.954219
0.995641 1 0.996101 0.999538
1.01592 1 1.01695 0.99898
1.01882 1 1.02043 0.998426
0.958413 0.941661 1.02177 0.996103
1.02236 0.978477 1.04561 0.999273
1.01483 0.994974 1.02106 0.998919
1.01577 0.99202 1.02461 0.999344
0.967021 0.955345 1.0156 0.996672
0.991904 0.985586 1.00866 0.997766
0.748912 0.836581 0.947949 0.944359
0.830272 0.918159 0.943607 0.958322
0.82002 0.903418 0.94067 0.964935
0.993839 0.963908 1.03351 0.99762
0.885891 0.923683 0.972226 0.986484
0.822061 0.912881 0.943948 0.953986
0.867106 0.901442 0.992257 0.969415
0.741719 0.859197 0.908027 0.95071
0.685382 0.810137 0.900987 0.938979
0.952585 0.948179 1.00886 0.995819
0.716053 0.82009 0.923939 0.945018
0.731033 0.839746 0.913203 0.953283
0.863474 0.917964 0.956782 0.983129
0.880343 0.934039 0.969459 0.972204
0.946666 0.962365 0.985705 0.997953
0.753131 0.851106 0.928417 0.953112
0.914015 0.97125 0.966357 0.973833
0.871385 0.930113 0.953177 0.98288
0.989305 0.973666 1.01681 0.99926
0.986447 0.991942 0.995922 0.998533
0.994785 1.00109 0.996147 0.997548
1.00221 1.00086 1.00342 0.997932
1.00114 1.00249 1.00187 0.996789
1.00051 1.00433 0.999428 0.996766
1.00782 1.0013 1.01103 0.995531
0.999062 1.00162 1.00167 0.995788
1.02478 1.0295 0.998697 0.996718
1.00237 1.00404 1.00319 0.995166
1.01941 1.02362 1 0.99589
1.04561 1.0496 0.999322 0.99688
1.04777 1.05118 0.999818 0.996938
1.04728 1.05129 1 0.996185
1.04544 1.04931 1 0.996315
1.03495 1.03914 1 0.995966
1.03158 1.03593 1 0.995803
1.02275 1.02715 1 0.995714
1.02371 1.02741 1 0.996396
1.01773 1.02159 1.00014 0.996086
1.01197 1.01487 1.00148 0.995664
1.00565 1.00863 1 0.997043
1.00946 1.0128 1 0.996703
1.00295 1.00627 1 0.9967
1.00349 1.00029 1.00518 0.998031
1.00363 1.00391 1.00234 0.997389
1.00253 1.00401 1.00145 0.997087
1.00109 1 1.00139 0.999705
1.00609 1 1.00762 0.998479
1.00668 1.00126 1.00762 0.997809
1 1 1 1
1.00029 1 1.00046 0.999829
1.00378 1 1.00487 0.998915
1 1 1 1
0.999893 1 1 0.999893
1 1 1 1
1.00033 1.00048 1.00185 0.99801
1.00453 1 1.00642 0.998124
1.00505 1 1.00677 0.998287
1.00046 1 1.00138 0.999082
1.00197 1 1.00355 0.998432
1.00495 1 1.00676 0.998208
0.999924 1 1 0.999924
0.999291 1 1.00006 0.999229
0.999157 1 1.00057 0.998587
1 1 1 1
0.999967 1 1 0.999967
0.999366 1 1 0.999366
1 1 1 1
0.999994 1 1 0.999994
1 1 1 1
0.722148 0.821541 0.935366 0.939757
0.821464 0.914436 0.93899 0.956697
0.812619 0.904158 0.935417 0.96081
1.00144 1.00024 1.00307 0.99813
1.00558 1.00283 1.00497 0.997791
1.00943 1.0002 1.01129 0.997961
1.00201 1 1.0039 0.99812
1.00026 1 1.00206 0.998202
1.00475 1 1.00646 0.998306
1.01481 1 1.01672 0.998125
1.01198 1.00007 1.01409 0.99784
1.01506 1.0008 1.01654 0.99774
0.986436 1.00106 0.986404 0.998969
1.00916 1 1.01084 0.998335
1.0203 0.999827 1.02197 0.998541
0.731862 0.836199 0.920438 0.950878
0.675874 0.794362 0.909821 0.935172
0.813408 0.914028 0.940582 0.946133
0.628962 0.784465 0.864667 0.92726
0.755466 0.853359 0.927388 0.954601
0.884587 0.913378 0.998586 0.969849
0.914333 0.931454 0.997646 0.983936
0.896827 0.926484 0.982171 0.985561
0.72636 0.831705 0.916606 0.952796
0.867374 0.908823 0.98449 0.969429
0.88394 0.932041 0.960973 0.986908
0.864548 0.931681 0.957369 0.969264
1.00263 1 1.00361 0.999021
0.996324 1 0.996839 0.999483
1.01518 1 1.01622 0.998985
0.963287 0.954003 1.01305 0.996721
1.01447 0.991334 1.02401 0.999344
0.993022 0.987233 1.00818 0.997708
0.978719 0.990958 0.990855 0.996764
0.766665 0.867616 0.92327 0.957083
0.748186 0.834838 0.948395 0.944969
0.831699 0.919763 0.941739 0.960196
0.955859 0.955012 1.00492 0.995983
0.86655 0.917723 0.95995 0.983633
0.717186 0.820594 0.924705 0.945149
0.859119 0.923448 0.960217 0.968883
0.743072 0.84515 0.919292 0.956409
0.94969 0.964838 0.987399 0.996862
0.7632 0.861008 0.927987 0.955189
0.908032 0.970451 0.965048 0.969569
0.874602 0.932516 0.951722 0.985472
0.958398 0.983826 0.976279 0.997823
0.919487 0.979331 0.964783 0.973164
0.918518 0.97419 0.954431 0.987868
0.977322 0.990713 0.98786 0.998606
0.99093 1.00149 0.991918 0.99752
0.982049 1.00791 0.976887 0.997399
1.0031 1.00283 1.00352 0.996767
0.999853 1.00446 0.998648 0.996761
1.02387 1.0373 0.989602 0.997424
0.998882 1.00123 1.00186 0.995797
1.02361 1.02917 0.99789 0.996698
1.03957 1.05116 0.991482 0.997469
1.01851 1.0227 1 0.995901
1.04453 1.04913 0.998738 0.996873
1.04503 1.05198 0.995944 0.997439
1.04416 1.04821 0.998813 0.997317
1.04865 1.0522 0.999609 0.99701
1.04665 1.05002 1 0.996787
1.04876 1.05271 1 0.996249
1.04731 1.0513 1 0.996203
1.04623 1.05006 1 0.996361
1.03662 1.04057 1 0.996206
1.03664 1.04081 1 0.995996
1.02992 1.0342 1 0.995864
1.01802 1.02135 1 0.996741
1.02308 1.02679 1 0.996393
1.01795 1.02175 1.00017 0.996112
0.999354 1.00137 1.00026 0.997728
1.0072 1.01019 1 0.997039
1.00994 1.01329 1 0.996698
1.00188 1 1.00243 0.999452
1.0034 1.00055 1.00483 0.998032
1.00604 1.00566 1.003 0.997385
1 1 1 1
1.0018 1 1.00212 0.99968
1.00508 1 1.00661 0.998476
0.999993 1 1 0.999993
1.00087 1 1.00106 0.999815
1 1 1 1
0.999248 1.00135 1 0.997903
1.00124 1.00032 1.00289 0.998029
1.00473 1 1.0066 0.998142
1.00271 1 1.00461 0.998108
1.00537 1 1.00709 0.998287
1.00259 1 1.00368 0.998912
0.999876 1 1 0.999876
1.00013 1 1.00105 0.999084
1.00301 1 1.00459 0.99843
1 1 1 1
0.999935 1 1 0.999935
0.999233 1 1 0.999233
1 1 1 1
0.999975 1 1 0.999975
1 1 1 1
0.760918 0.855899 0.930883 0.955038
0.724755 0.823353 0.935934 0.940502
0.821562 0.914957 0.93855 0.956713
1.00398 1 1.00588 0.998108
1.01159 1 1.01382 0.997799
1.00329 1.00179 1.00364 0.997865
1.00402 1.00616 1.00093 0.996953
1.01166 1.00132 1.01255 0.997811
1.01346 1 1.0154 0.998086
1.01013 1 1.01225 0.997904
1.01752 1.00071 1.019 0.997826
0.999252 1.00265 0.999088 0.997519
0.977279 1.00174 0.977008 0.998538
0.97524 1.00035 0.977145 0.9977
0.986416 1.00086 0.986547 0.999006
1.0149 1 1.0164 0.99852
0.897259 0.961034 0.960655 0.971877
0.727479 0.831627 0.918676 0.952203
0.67419 0.794023 0.907057 0.936083
0.723752 0.835509 0.912078 0.949744
0.877721 0.919754 0.984307 0.969514
0.90086 0.922609 0.988351 0.987934
0.884713 0.93086 0.961366 0.988619
0.886764 0.937771 0.971633 0.973216
0.910557 0.967181 0.953137 0.987744
0.993812 1.00132 0.994275 0.998218
1.00149 1 1.0025 0.998999
0.997152 1 0.997723 0.999428
0.995216 0.990172 1.00742 0.99769
0.984298 0.993922 0.993284 0.997014
0.895751 0.966459 0.953381 0.972159
0.773186 0.866096 0.93242 0.957429
0.746434 0.831476 0.949352 0.945616
0.954329 0.970099 0.987986 0.995707
0.880189 0.939247 0.953266 0.983064
0.759973 0.857569 0.928258 0.954686
0.899666 0.958944 0.963999 0.97322
0.965419 0.983485 0.98369 0.997906
0.928989 0.98948 0.963973 0.973954
0.915741 0.970051 0.95808 0.985318
0.974899 1.00373 0.973904 0.997299
0.947658 0.993303 0.962139 0.991589
0.991316 1.00384 0.989983 0.997516
0.98067 1.00763 0.975825 0.997352
0.995423 1.03605 0.963005 0.997701
0.999248 1.00439 0.998123 0.996756
1.02526 1.03815 0.990158 0.997395
1.0366 1.05893 0.981111 0.997755
1.0223 1.02879 0.996996 0.996679
1.0392 1.05132 0.991005 0.997445
1.034 1.05074 0.986362 0.997682
1.04314 1.0484 0.998104 0.996866
1.04484 1.05225 0.995535 0.997417
1.04219 1.05122 0.993883 0.997518
1.04424 1.0486 0.998473 0.997372
1.04273 1.04648 0.999277 0.997128
1.04926 1.05299 0.999372 0.997082
1.04647 1.04985 1 0.996779
1.04844 1.05204 1 0.996577
1.04595 1.04986 1 0.996278
1.04856 1.05252 1 0.996237
1.0473 1.05127 1 0.996222
1.03146 1.03505 1 0.996531
1.03645 1.04039 1 0.996213
1.03846 1.04261 1 0.996026
1.00315 1.00567 1 0.997497
1.01751 1.02084 1 0.99674
1.02223 1.02593 1 0.99639
1.00031 1 1.00114 0.999167
1.00075 1.00252 1.00051 0.997728
1.00842 1.01142 1 0.997035
1 1 1 1
1.00161 1 1.00219 0.999427
1.00279 1.00079 1.00398 0.998033
1 1 1 1
1.00213 1 1.00247 0.999655
1 1 1 1
1.00546 1.00839 1 0.997092
0.99968 1.00179 1 0.997889
1.00054 1.00036 1.00226 0.997921
1.00265 1 1.00461 0.998048
1.00411 1 1.00602 0.998107
1.00448 1 1.00582 0.998672
1.00618 1 1.00791 0.998288
1.00241 1 1.0035 0.998912
1.00022 1 1.00041 0.999809
1 1 1 1
0.999889 1 1 0.999889
0.999637 1 1.00055 0.999086
1 1 1 1
0.999945 1 1 0.999945
1 1 1 1
0.918879 0.979799 0.961716 0.975156
0.762422 0.862907 0.924291 0.955923
0.728547 0.825903 0.939386 0.93904
1.01318 1 1.01558 0.997637
1.00119 1.00129 1.00196 0.99794
1.00983 1.00144 1.01064 0.99776
1.005 1.00684 1.00114 0.997041
1.01597 1.01928 1.00016 0.996586
0.999897 1.00253 1 0.997372
1.02139 1.00106 1.02244 0.997911
1.00035 1.00332 0.99972 0.997321
0.983417 1.00217 0.982746 0.998521
0.995466 1.00192 0.995992 0.99756
0.972933 1.00344 0.971775 0.997763
0.994551 1.0014 0.995872 0.997274
0.977288 1.00082 0.978619 0.997823
0.990545 1.00077 0.990734 0.999045
0.919206 0.97469 0.954783 0.987738
0.904271 0.967707 0.961437 0.971927
0.733773 0.832854 0.921778 0.955799
0.883766 0.937804 0.97278 0.968747
0.89236 0.931692 0.967834 0.989617
0.912527 0.962128 0.956809 0.99126
0.981979 1.00377 0.980903 0.99734
0.991734 1.00067 0.99288 0.998178
1.00035 1 1.00137 0.998978
0.985884 0.995869 0.992709 0.997245
0.933719 0.973428 0.970759 0.9881
0.910979 0.973557 0.958552 0.976183
0.761362 0.860274 0.927138 0.954575
0.964441 0.979383 0.986731 0.997986
0.920851 0.975908 0.956008 0.987004
0.931908 0.987073 0.968662 0.974655
0.967865 1.00194 0.968551 0.997355
0.946618 0.989256 0.965792 0.990791
0.968782 1.02458 0.948033 0.997375
0.990008 1.01721 0.976983 0.996188
0.978228 1.00736 0.973708 0.997298
0.993027 1.03419 0.962418 0.997697
1.00508 1.05943 0.950879 0.997703
1.02722 1.03957 0.990724 0.997367
1.03626 1.05868 0.981037 0.997735
1.03314 1.05557 0.981067 0.997633
1.03931 1.05173 0.990741 0.997421
1.03413 1.05016 0.987041 0.997663
1.04266 1.05702 0.988895 0.997485
1.04493 1.05266 0.99525 0.997396
1.04026 1.04902 0.994125 0.99751
1.04323 1.05024 0.996079 0.997239
1.04451 1.04912 0.998182 0.997427
1.04308 1.04678 0.999296 0.997174
1.04703 1.05043 0.999957 0.996799
1.0464 1.04979 1 0.99677
1.04851 1.05212 1 0.996566
1.04788 1.05159 1 0.996475
1.03902 1.04272 1 0.996452
1.04612 1.05003 1 0.996277
1.0483 1.05227 1 0.996225
1.01079 1.01353 1 0.997295
1.03037 1.03395 1 0.996535
1.03621 1.04014 1 0.996221
0.999152 1 1.00022 0.998935
1.00523 1.00775 1 0.997495
1.01681 1.02013 1 0.996738
1 1 1 1
0.999991 1 1.00084 0.99915
1.00208 1.00362 1.00074 0.997728
1 1 1 1
1.00152 1 1.00212 0.999403
1 1 1 1
1.01676 1.02015 1 0.99668
1.00762 1.01053 1 0.997121
1.00577 1.0077 1.00066 0.997416
0.99936 1.00149 1 0.997875
1.00019 1.00012 1.0022 0.997874
1.00299 1.00044 1.0042 0.998356
1.00353 1 1.00547 0.998074
1.00481 1 1.00615 0.998674
1.00173 1 1.00202 0.999711
1.00265 1 1.00375 0.998912
1.00013 1 1.00031 0.99982
1 1 1 1
1 1 1 1
0.999901 1 1 0.999901
1 1 1 1
0.923931 0.975142 0.958522 0.988483
0.909684 0.978944 0.956426 0.971587
0.756402 0.855739 0.923138 0.957513
1.03227 1.03591 1.00007 0.996426
1.00807 1.00128 1.00909 0.997709
1.0061 1.00764 1.00135 0.99713
1.00018 1.00283 1 0.997361
1.01482 1.01788 1.00042 0.996568
1.0043 1.00716 0.999846 0.997314
1.00003 1.00291 1 0.997123
0.985026 1.0018 0.984729 0.998503
0.993474 1.00236 0.993545 0.997571
0.966565 1.00243 0.9665 0.99764
1.00524 1.01243 0.995994 0.996894
0.998206 1.007 0.993937 0.997318
0.995132 1.00203 0.995863 0.997243
0.978191 1.00134 0.978897 0.997945
0.979949 1.00613 0.976092 0.997839
0.913883 0.971733 0.953427 0.986407
0.904187 0.969126 0.959483 0.97239
0.907153 0.955603 0.959852 0.989006
0.984863 1.0052 0.981634 0.998101
0.991668 1.0002 0.993327 0.99813
0.982027 1.00673 0.979632 0.995742
0.918985 0.958399 0.969007 0.989543
0.898542 0.970511 0.952233 0.972287
0.965262 0.999773 0.967987 0.997411
0.954153 0.991285 0.972508 0.989751
0.972727 1.02594 0.950518 0.997493
0.992923 1.01701 0.979778 0.996468
0.992294 1.04165 0.954971 0.997537
1.04431 1.06145 0.986426 0.997393
0.989977 1.03176 0.96172 0.997691
1.00976 1.06078 0.954109 0.997687
1.02262 1.06775 0.960148 0.997488
1.03518 1.05793 0.980742 0.997714
1.03088 1.05412 0.980279 0.997629
1.04242 1.06381 0.982486 0.997369
1.0339 1.04941 0.987549 0.997644
1.04105 1.05567 0.988619 0.997498
1.04513 1.05609 0.992413 0.997188
1.03819 1.04676 0.994287 0.997502
1.04373 1.05071 0.996103 0.997237
1.0491 1.05338 0.999017 0.996912
1.04338 1.04701 0.999312 0.99722
1.04744 1.05079 0.999971 0.996843
1.04989 1.05353 1 0.996554
1.04858 1.0522 1 0.996554
1.04763 1.05136 1 0.996459
1.04157 1.04524 1 0.99649
1.01732 1.0202 1 0.997173
1.03837 1.04205 1 0.996465
1.04629 1.0502 1 0.996276
0.999181 1.0004 1 0.998785
1.01214 1.01488 1 0.997295
1.02947 1.03305 1 0.996539
1 1 1 1
0.999058 1.00007 1.00007 0.998922
1.00751 1.01005 1 0.997493
1 1 1 1
0.999563 1 1.00043 0.999133
1 1 1 1
1.03146 1.03519 1 0.996396
1.01879 1.02219 1 0.996677
1.01591 1.01896 1 0.997009
1.01026 1.01314 1.00001 0.997151
1.00513 1.00718 1.00056 0.997409
1.00297 1.00282 1.00213 0.998023
0.999784 1 1.00196 0.997827
1.00359 1.00014 1.0051 0.998357
1.00182 1 1.00226 0.999562
1.00425 1 1.00559 0.998675
1.00085 1 1.00113 0.999723
1 1 1 1
0.999842 1 1.00001 0.999831
1 1 1 1
1 1 1 1
0.977533 1.01057 0.969685 0.997554
0.918608 0.9725 0.958072 0.985922
0.908161 0.970117 0.959637 0.97551
1.02285 1.02605 1.00001 0.996874
1.0424 1.04604 1 0.996525
1.03036 1.03384 1.00013 0.996499
1.00082 1.00348 1 0.997349
1.01363 1.01639 1.00073 0.996547
1.00559 1.00936 0.998971 0.997293
1.0237 1.02899 0.998005 0.996841
0.992907 1.00345 0.991889 0.997583
0.963252 1.00189 0.963831 0.997515
1.00631 1.01426 0.99516 0.99699
1.02335 1.03421 0.99275 0.99673
1.00271 1.02552 0.980173 0.997535
1.00179 1.00893 0.995636 0.997272
0.99648 1.00262 0.996652 0.99721
0.984319 1.00785 0.978512 0.9981
0.917783 0.974612 0.956049 0.984981
0.984982 1.00542 0.980766 0.998886
1.02408 1.04806 0.97908 0.997994
0.97991 1.00551 0.978584 0.995871
0.922557 0.969438 0.963884 0.987297
0.975721 1.02762 0.951774 0.997604
0.995682 1.0173 0.981928 0.996763
0.989468 1.0421 0.951694 0.997685
1.0435 1.06276 0.984425 0.997411
1.03927 1.07387 0.970298 0.997399
1.07484 1.09436 0.984588 0.997538
1.01435 1.06288 0.956562 0.997672
1.02834 1.06924 0.964178 0.997488
1.04572 1.07368 0.97662 0.997274
1.02887 1.0528 0.979594 0.997625
1.04213 1.0629 0.983051 0.997368
1.04571 1.06189 0.987582 0.997154
1.03952 1.05436 0.988386 0.997512
1.04568 1.05663 0.992433 0.997185
1.0502 1.05736 0.996296 0.99692
1.04421 1.05118 0.996129 0.997235
1.04947 1.05372 0.999054 0.99691
1.05315 1.05676 1 0.996592
1.04786 1.05115 0.999986 0.996887
1.0494 1.05301 1 0.996568
1.04473 1.04842 1 0.996483
1.04741 1.05115 1 0.996443
1.04151 1.04518 1 0.996489
1.0196 1.02255 1 0.997109
1.0004 1.00167 1 0.998729
1.01734 1.02022 1 0.997173
1.03792 1.04158 1 0.996479
1 1 1 1
0.999456 1.00068 1 0.998773
1.01353 1.01628 1 0.997295
1 1 1 1
0.998959 1.00005 1 0.998908
1 1 1 1
1.03993 1.04372 1 0.996362
1.03099 1.03472 1 0.99639
1.02502 1.0284 1 0.996709
1.02008 1.02348 1 0.996673
1.01495 1.01799 1 0.997016
1.00582 1.00775 1.00035 0.997734
1.00382 1.00597 1.00046 0.997402
1.00245 1.00187 1.00256 0.998025
1.00051 1 1.00118 0.999331
1.00511 1 1.00676 0.998359
1.0018 1 1.00222 0.999579
1 1 1 1
1.00052 1 1.00079 0.999734
1 1 1 1
1 1 1 1
1.00457 1.04069 0.967244 0.997981
0.974474 1.00952 0.96845 0.996731
0.919647 0.974422 0.95657 0.986638
1.03725 1.04066 1 0.996724
1.02426 1.02727 1 0.997073
1.05733 1.06097 0.999952 0.996611
1.04294 1.04659 1 0.996508
1.02848 1.03183 1.00018 0.996573
1.04787 1.05638 0.995312 0.996614
1.00696 1.01181 0.997929 0.997271
1.02388 1.02862 0.99861 0.996779
1.04275 1.06602 0.981213 0.996897
1.00611 1.01595 0.993208 0.997086
1.024 1.03496 0.992727 0.996667
1.00373 1.02787 0.978893 0.997571
1.00269 1.00919 0.996332 0.997224
0.98929 1.00959 0.981517 0.998342
1.06081 1.08514 0.97995 0.997577
1.02715 1.04783 0.982203 0.99802
0.978793 1.00429 0.978527 0.995998
0.987375 1.04176 0.949855 0.997831
1.0416 1.0629 0.982485 0.997431
1.03455 1.07266 0.966962 0.997423
1.07687 1.09676 0.984296 0.99753
1.06319 1.08757 0.980121 0.997416
1.0338 1.07036 0.96828 0.997489
1.04645 1.07303 0.977884 0.997284
1.04694 1.06716 0.983818 0.997181
1.0418 1.06195 0.983615 0.997368
1.04575 1.06169 0.987814 0.997134
1.0489 1.05977 0.992811 0.996907
1.04626 1.0572 0.992455 0.997181
1.05051 1.05765 0.996323 0.996916
1.0561 1.06005 0.999651 0.996615
1.04986 1.05408 0.999088 0.996909
1.05303 1.05663 1 0.996594
1.04905 1.05278 1 0.996452
1.0489 1.0525 1 0.996583
1.04471 1.04839 1 0.996489
1.02045 1.02348 1 0.997041
1.0414 1.04507 1 0.996488
1.01984 1.0228 1 0.997108
1.00151 1.00256 1 0.998952
0.99959 1 1 0.99959
1.00071 1.00189 1 0.998824
1.01694 1.01983 1 0.997172
1 1 1 1
0.999712 1.00095 1 0.998761
1 1 1 1
1.0628 1.06634 0.999978 0.996705
1.04884 1.05252 1 0.996498
1.04077 1.04456 1 0.996369
1.03292 1.03647 1 0.996573
1.03095 1.0347 1 0.996383
1.02619 1.02958 1 0.996707
1.01102 1.01356 1 0.997489
1.01462 1.01765 1 0.997023
1.00432 1.00612 1.00048 0.997736
0.999177 1 1.00012 0.999055
1.00168 1.00083 1.00282 0.998027
1.00082 1 1.00147 0.999351
1 1 1 1
1.00133 1 1.00174 0.999596
1 1 1 1
1 1 1 1
1.05263 1.08326 0.974339 0.997324
1.0092 1.04736 0.965467 0.998029
0.971284 1.00962 0.965971 0.995922
1.05364 1.05942 0.997896 0.996642
1.03394 1.03729 0.999995 0.996774
1.02539 1.0282 1 0.99727
1.05579 1.05941 0.999961 0.996627
1.04352 1.0472 1 0.996491
1.05502 1.07644 0.98317 0.996877
1.04443 1.05333 0.994959 0.996574
1.02386 1.02783 0.999418 0.996716
1.04083 1.06395 0.981319 0.996894
1.02766 1.03803 0.993381 0.996604
1.00884 1.03465 0.977387 0.997614
1.06332 1.08399 0.983382 0.997517
1.06393 1.08767 0.980507 0.997614
1.02942 1.04796 0.984231 0.998046
1.03143 1.07279 0.963909 0.997443
1.07996 1.10012 0.984109 0.997523
1.06335 1.08855 0.979372 0.997423
1.05348 1.06888 0.988273 0.997282
1.04717 1.0723 0.979217 0.997293
1.04736 1.06691 0.984463 0.997168
1.05045 1.06192 0.992226 0.996944
1.04582 1.06154 0.988045 0.997115
1.04965 1.06051 0.992827 0.996906
1.05779 1.06291 0.998543 0.99663
1.05081 1.05792 0.996352 0.996912
1.05622 1.06018 0.999642 0.996616
1.05213 1.05591 1 0.996413
1.05294 1.05654 1 0.996597
1.04906 1.05279 1 0.996457
1.02163 1.02476 1 0.99695
1.04467 1.04835 1 0.996495
1.02119 1.02422 1 0.99704
1.00133 1.00237 1 0.998965
1.02014 1.0231 1 0.997106
1.00154 1.0026 1 0.998946
0.999615 1 1 0.999615
0.999804 1 1 0.999804
1.00124 1.00231 1 0.998928
1 1 1 1
1.05681 1.0622 0.998207 0.99671
1.05387 1.05749 1 0.996572
1.0616 1.06506 0.999912 0.996831
1.04367 1.04732 1 0.996521
1.05095 1.05466 1 0.996486
1.04162 1.04541 1 0.996377
1.03393 1.0375 1 0.996565
1.01616 1.01892 1 0.997285
1.02711 1.03051 1 0.996704
1.00923 1.01177 1 0.997489
0.999228 1.00038 1 0.998845
1.00267 1.00442 1.00052 0.997739
0.999473 1 1.0004 0.999073
1 1 1 1
1.00125 1 1.00188 0.999371
1 1 1 1
1 1 1 1
1.05401 1.07784 0.980625 0.997211
1.04908 1.07946 0.974465 0.997321
1.0121 1.05107 0.964791 0.998069
1.05438 1.06837 0.990075 0.996797
1.05069 1.05673 0.997636 0.996642
1.03098 1.03427 1 0.996825
1.05405 1.05764 0.999967 0.996643
1.05346 1.07451 0.983507 0.996853
1.04091 1.05019 0.994613 0.996534
1.03432 1.05696 0.981629 0.996891
1.05766 1.0724 0.988882 0.997344
1.0616 1.08205 0.983589 0.997477
1.06675 1.08967 0.981272 0.99765
1.05216 1.06359 0.992046 0.997182
1.06285 1.08911 0.978406 0.99743
1.05337 1.06895 0.988123 0.997268
1.05241 1.06285 0.993114 0.997048
1.0478 1.06665 0.98513 0.997155
1.05053 1.06206 0.992175 0.996946
1.05799 1.06429 0.997421 0.99665
1.05036 1.06122 0.992848 0.996904
1.05728 1.0624 0.998547 0.996631
1.05325 1.05707 1 0.99639
1.05622 1.0602 0.999634 0.996616
1.05226 1.05605 1 0.996416
1.02243 1.02565 1 0.996863
1.04902 1.05275 1 0.996461
1.02232 1.02545 1 0.996951
1.00055 1.00161 1 0.998939
1.02199 1.02503 1 0.99704
1.00114 1.00219 1 0.998953
0.999619 1 1 0.999619
1.00153 1.00259 1 0.998943
0.999624 1 1 0.999624
1 1 1 1
1.05462 1.06284 0.995641 0.996616
1.05624 1.06013 0.999784 0.99654
1.0585 1.06394 0.998173 0.996708
1.05007 1.0537 1 0.996558
1.05529 1.05891 0.999967 0.996609
1.0606 1.06399 0.999856 0.996956
1.02201 1.02495 1 0.997129
1.04339 1.04704 1 0.996511
1.05321 1.05694 1 0.996474
1.03498 1.03856 1 0.996556
1.01571 1.01847 1 0.997286
1.00101 1.00227 1 0.998746
1.00785 1.01038 1 0.997491
0.999253 1.00039 1 0.99886
1 1 1 1
0.99974 1 1.00065 0.999091
1 1 1 1
1 1 1 1
1.0521 1.068 0.987989 0.997086
1.05402 1.07813 0.980386 0.997194
1.0481 1.07855 0.974379 0.997317
1.05384 1.06786 0.990025 0.996814
1.04741 1.0537 0.997376 0.996642
1.05303 1.07373 0.983839 0.996829
1.05403 1.06562 0.991921 0.997181
1.05785 1.07255 0.988928 0.997337
1.06 1.08028 0.983745 0.997437
1.05261 1.06382 0.992236 0.997202
1.05148 1.06069 0.994299 0.996999
1.05327 1.06905 0.987952 0.997253
1.05265 1.06279 0.993427 0.997008
1.05758 1.06459 0.996665 0.996738
1.05064 1.06222 0.992123 0.996948
1.05753 1.06389 0.997367 0.996652
1.05331 1.05714 1 0.996377
1.05696 1.06209 0.998537 0.996631
1.05406 1.05788 1 0.996391
1.02242 1.02569 1 0.996809
1.05249 1.05627 1 0.99642
1.02277 1.02599 1 0.996864
0.999724 1.00084 1 0.998884
1.02307 1.0262 1 0.996951
1.00032 1.0014 1 0.998922
0.999597 1 1 0.999597
1.00093 1.00199 1 0.998945
0.999638 1 1 0.999638
0.999628 1 1 0.999628
1.05391 1.06427 0.993375 0.996875
1.05745 1.06194 0.999297 0.996464
1.05479 1.06407 0.994618 0.996644
1.05281 1.0565 1 0.996504
1.05548 1.05935 0.999818 0.996526
1.06015 1.06564 0.998137 0.996706
1.02466 1.02772 1 0.997026
1.04994 1.0536 1 0.996534
1.05652 1.06014 0.999933 0.996647
1.00218 1.00346 1 0.998726
1.02179 1.02473 1 0.997131
1.04337 1.04703 1 0.996501
1.01473 1.01749 1 0.997288
1.00036 1.0016 1 0.998758
1 1 1 1
0.99907 1.00019 1 0.998875
1 1 1 1
1 1 1 1
1.05091 1.06263 0.991875 0.997074
1.05244 1.06816 0.988172 0.997078
1.05345 1.07778 0.980198 0.997176
1.05333 1.06739 0.989965 0.99683
1.05202 1.05963 0.995845 0.996957
1.05413 1.06567 0.99195 0.997192
1.05807 1.07267 0.98903 0.997331
1.05309 1.06406 0.992449 0.997223
1.05163 1.06097 0.994167 0.997009
1.05783 1.06388 0.997576 0.996722
1.05292 1.06275 0.993763 0.996968
1.05794 1.06448 0.997151 0.996687
1.05274 1.05691 0.999616 0.996437
1.05701 1.06341 0.997325 0.996655
1.05411 1.05794 1 0.996379
1.02118 1.02449 1 0.996771
1.05463 1.05845 1 0.996393
1.02221 1.02548 1 0.99681
0.99894 1.00032 1 0.998623
1.02321 1.02643 1 0.996866
0.999437 1.00067 1 0.998769
1 1 1 1
1.00008 1.00117 1 0.998906
0.999622 1 1 0.999622
0.999651 1 1 0.999651
1.05232 1.06084 0.99498 0.996968
1.05636 1.06209 0.997998 0.996598
1.05439 1.06393 0.994145 0.996865
1.05333 1.05715 1 0.996382
1.05647 1.06138 0.998896 0.996475
1.05499 1.06533 0.993607 0.996672
1.02416 1.02739 1 0.996863
1.05281 1.0565 1 0.996504
1.05477 1.05862 0.999849 0.996513
1.00152 1.00279 1 0.998732
1.02402 1.02712 1 0.996988
1.04966 1.05333 1 0.996511
1 1 1 1
1.00188 1.00315 1 0.998737
1.02128 1.02421 1 0.997133
1.00001 1.00124 1 0.998771
1 1 1 1
1 1 1 1
1.05052 1.05789 0.996057 0.996968
1.05126 1.06273 0.992097 0.997081
1.05272 1.0683 0.988312 0.997069
1.0576 1.06282 0.998419 0.996661
1.05145 1.05943 0.995492 0.99697
1.05422 1.06574 0.991975 0.997202
1.05172 1.06125 0.993986 0.997019
1.05745 1.06366 0.997433 0.996723
1.05173 1.05571 0.999729 0.996493
1.05821 1.06432 0.997614 0.996635
1.0531 1.05708 0.999803 0.996428
1.01954 1.02291 1 0.996698
1.05506 1.05889 1 0.996382
1.02073 1.02404 1 0.996772
0.99859 1 1 0.99859
1.02201 1.02528 1 0.99681
0.99876 1.00014 1 0.998621
1 1 1 1
0.999042 1.00041 1 0.998637
0.999789 1 1 0.999789
0.999643 1 1 0.999643
1.05062 1.05776 0.996312 0.996925
1.05729 1.06217 0.998727 0.996671
1.05212 1.06053 0.995085 0.996976
1.05347 1.05731 1 0.996373
1.05738 1.06279 0.998317 0.996582
1.05483 1.06358 0.994903 0.996856
1.02295 1.02626 1 0.996776
1.05294 1.05675 1 0.996395
1.05543 1.06077 0.998482 0.996486
1.00021 1.00151 1 0.998709
1.02384 1.02707 1 0.99685
1.05279 1.05648 1 0.996505
1 1 1 1
1.00181 1.00308 1 0.998741
1.02365 1.02679 1 0.99695
1 1 1 1
1.00165 1.00291 1 0.998749
1 1 1 1
1.05698 1.06205 0.998521 0.996706
1.0501 1.05748 0.996057 0.996953
1.05154 1.06277 0.99233 0.997088
1.05111 1.05505 0.999773 0.99649
1.05699 1.06253 0.998097 0.996682
1.05089 1.05921 0.995148 0.996982
1.05711 1.06344 0.997317 0.996724
1.05156 1.05566 0.999628 0.996494
1.01842 1.0218 1 0.99669
1.05348 1.05727 1 0.996418
1.01937 1.02273 1 0.996718
0.998548 1 1 0.998548
1.02019 1.02349 1 0.996773
0.998588 1 1 0.998588
1 1 1 1
0.998642 1.00002 1 0.998619
1 1 1 1
0.999617 1 1 0.999617
1.05808 1.06289 0.998786 0.996682
1.04987 1.05755 0.995773 0.996947
1.0527 1.05648 1 0.996416
1.05778 1.06269 0.998712 0.996669
1.05198 1.06027 0.99518 0.996983
1.02095 1.02422 1 0.996801
1.0527 1.05654 1 0.996369
1.05842 1.0635 0.998654 0.996567
0.999092 1.00044 1 0.998656
1.02304 1.02633 1 0.996796
1.05246 1.05626 1 0.996409
1 1 1 1
1.00056 1.00185 1 0.998715
1.02358 1.02683 1 0.996838
1 1 1 1
1.00204 1.00329 1 0.99875
1 1 1 1
1.05117 1.05499 0.999869 0.996515
1.05687 1.06184 0.998619 0.996694
1.0497 1.05708 0.996069 0.996938
1.01783 1.02119 1 0.996705
1.05093 1.05494 0.999705 0.99649
1.05635 1.06223 0.997753 0.996704
1.0514 1.0556 0.999528 0.996494
1.01852 1.02191 1 0.996689
0.998526 1 1 0.998526
1.01924 1.02257 1 0.996737
0.998546 1 1 0.998546
1 1 1 1
0.998586 1 1 0.998586
1 1 1 1
1 1 1 1
1.05224 1.056 1 0.99644
1.05775 1.06278 0.998539 0.996728
1.0491 1.05734 0.995224 0.996968
1.01968 1.02295 1 0.996805
1.0523 1.05608 1 0.996413
1.05827 1.0632 0.998697 0.996668
0.998626 1.00002 1 0.99861
1.02144 1.02472 1 0.996798
1.052 1.05584 1 0.996366
1 1 1 1
0.999436 1.00078 1 0.998659
1.02335 1.02661 1 0.996816
1 1 1 1
1.00085 1.00214 1 0.99872
1 1 1 1
1.01819 1.02149 1 0.996767
1.0509 1.05483 0.999781 0.996492
1.05676 1.06166 0.998695 0.996681
0.998546 1 1 0.998546
1.01799 1.02136 1 0.996702
1.05077 1.05484 0.999649 0.99649
1.01863 1.02202 1 0.996688
0.998527 1 1 0.998527
1 1 1 1
0.998543 1 1 0.998543
1 1 1 1
1 1 1 1
1.01884 1.02211 1 0.996796
1.05186 1.05566 0.999932 0.996464
1.05747 1.06266 0.998335 0.996774
0.998826 1 1 0.998826
1.02001 1.02328 1 0.996804
1.05189 1.05568 1 0.996409
1 1 1 1
0.998735 1.00012 1 0.998611
1.02176 1.02504 1 0.996796
1 1 1 1
0.999654 1.00099 1 0.998663
1 1 1 1
0.998534 1 1 0.998534
1.01834 1.02167 1 0.996747
1.05066 1.05469 0.999702 0.996468
1 1 1 1
0.998545 1 1 0.998545
1.01815 1.02152 1 0.9967
0.998526 1 1 0.998526
1 1 1 1
1 1 1 1
0.998791 1 1 0.998791
1.0191 1.02238 1 0.996796
1.05143 1.05532 0.999831 0.996489
1 1 1 1
0.99859 1 1 0.99859
1.02034 1.02361 1 0.996802
1 1 1 1
0.998926 1.00031 1 0.998612
1 1 1 1
0.999574 1 1 0.999574
0.998674 1 1 0.998674
1.01847 1.02182 1 0.996727
1 1 1 1
0.998546 1 1 0.998546
1 1 1 1
0.999587 1 1 0.999587
0.998688 1 1 0.998688
1.0194 1.02268 1 0.996796
0.999791 1 1 0.999791
0.998593 1 1 0.998591
1 1 1 1
1 1 1 1
0.998568 1 1 0.998568
1 1 1 1
0.999792 1 1 0.999792
0.998584 1 1 0.998584
1 1 1 1
1 1 1 1
1 1 1 1

VECTORS lamdaE float
1.00166 1.00006 0.993368
1.00124 1.0008 0.996691
1.00116 1.00029 0.993695
1.00172 1.00005 0.993257
1.00172 0.99994 0.993405
1.00165 1.0003 0.993149
1.00297 1.00047 0.990313
1.00125 1.00076 0.996663
1.00109 1.00012 0.997249
1.00061 1.00089 0.997263
1.00103 1.00104 0.993216
1.00282 1.00121 0.988806
1.00119 0.999991 0.993912
1.001 1.00001 0.993998
1.00069 1.00054 0.993994
1.00137 1.00003 0.99362
1.00108 1.00068 0.993439
1.0013 0.999998 0.993748
1.0032 1.00031 0.99016
1.00122 1.00002 0.996894
1.0016 1.0001 0.993368
1.00175 0.999975 0.99332
1.00306 1.00015 0.990514
1.00305 1.0002 0.990449
1.00171 1.00052 0.992788
1.00286 1.00096 0.989998
1.00527 1.00097 0.985707
1.00126 1.00072 0.996661
1.00133 1 0.995385
1.00097 1.00063 0.995353
1.00113 1.00083 0.996714
1.00271 1.00138 0.988826
1.00162 0.999794 0.993439
1.00139 1.00014 0.993536
1.00336 1.00008 0.990751
1.0001 1.00112 0.997527
1.0032 1.00065 0.990545
1.00242 1.00197 0.988731
1.00483 1.00137 0.985277
1.0003 0.999755 0.997808
1.00123 0.999992 0.99688
1.00123 1 0.995391
1.00114 0.99997 0.996949
1.00078 1.00003 0.994284
1.00289 0.999945 0.990067
1.00119 0.999952 0.997166
1.00335 1.00007 0.990812
1.00103 0.99996 0.993983
1.00091 1.00005 0.994079
1.00056 1.00106 0.993708
1.00342 1.00013 0.990022
1.00102 1.00004 0.995577
1.00122 1.00012 0.993728
1.00112 1.00102 0.993066
1.00139 0.999944 0.993677
1.00322 1.00011 0.990331
1.00315 1.0007 0.989853
1.00325 1.0001 0.990288
1.00526 1.00095 0.985745
1.00111 1 0.996945
1.00144 1.00008 0.993592
1.00262 0.999995 0.99183
1.0029 1.00017 0.990739
1.00309 1.00014 0.990468
1.00524 1.00019 0.986489
1.00525 1.00037 0.986238
1.00136 1.00055 0.993102
1.00251 1.0019 0.989631
1.00527 1.00133 0.985347
1.00528 1.00021 0.985687
1.00163 1.00002 0.996752
1.00102 1.00072 0.996905
1.00133 1.00053 0.996702
1.00263 1.00151 0.988834
1.00168 0.999912 0.996692
1.0015 1.0002 0.996773
1.00322 1.00002 0.989294
1.00037 1.00089 0.99572
1.00295 1.00067 0.989092
1.00228 1.00219 0.989699
1.00493 1.00124 0.985264
1.00059 1.00022 0.997405
1.00044 1.00228 0.991886
1.00338 1 0.98914
1.00325 1.00013 0.98922
1.00527 1.00043 0.985607
1.00166 1.00265 0.99117
1.00513 1.00091 0.985269
1.00389 1.00278 0.985497
1.00534 1.00144 0.984272
1.00011 0.998937 0.998224
1.00015 0.999498 0.997983
1.00156 0.999983 0.996685
1.00128 0.99999 0.99686
1.00118 0.999976 0.996942
1.00105 1 0.995579
1.00293 0.999937 0.990776
1.00139 0.999958 0.9953
1.00325 1.0001 0.990095
1.00114 0.999983 0.996966
1.00272 0.999828 0.990398
1.00313 1.00004 0.991167
1.00499 0.999263 0.987346
1.00339 1.00004 0.990725
1.00525 0.999571 0.986594
1.00116 0.999998 0.99396
1.00084 1.00011 0.994092
1.0005 1.00152 0.993341
1.00103 0.999898 0.994032
1.00338 1.00012 0.990148
1.00344 1.00002 0.990135
1.00341 1.00044 0.989717
1.00526 1.00093 0.98578
1.00116 0.999983 0.996956
1.00107 1.00009 0.99395
1.00281 0.99995 0.990672
1.00306 1.00014 0.990552
1.00111 1.001 0.994873
1.00289 1.00169 0.98968
1.00326 1.00008 0.990299
1.00524 1.00003 0.986681
1.00525 1.00132 0.985394
1.00525 1.00054 0.986114
1.00528 1.00022 0.985719
1.0027 0.999868 0.990413
1.00273 1.00007 0.991048
1.0049 0.999071 0.988215
1.00511 0.999649 0.987211
1.00524 1.00006 0.986587
1.00535 0.998402 0.987664
1.00064 1.00085 0.997153
1.00529 0.999466 0.986416
1.00188 1.00287 0.98854
1.00502 1.00165 0.984697
1.00527 1.00107 0.984925
1.00525 0.998057 0.987729
1.00103 1.00303 0.990014
1.00222 1.00444 0.986727
1.00169 0.99993 0.996713
1.00149 1.00024 0.996761
1.00324 0.999996 0.989279
1.00059 1.00056 0.997294
1.0019 1.00249 0.988964
1.00295 1.00066 0.989115
1.00501 1.00115 0.985255
1.00042 1.0002 0.997553
1.00035 1.00235 0.991903
1.0034 1.00003 0.989927
1.00329 1.00018 0.989952
1.00527 1.00044 0.985581
1.00125 1.00282 0.989835
1.00518 1.00087 0.985254
1.00413 1.00237 0.985476
1.00534 1.00135 0.984441
1.00083 1.00259 0.990785
1.00022 1.00162 0.992945
1.00186 1.00465 0.98761
1.00527 1.00016 0.985893
1.00526 1.00066 0.985371
1.00529 0.999252 0.986739
1.0032 1.0033 0.986054
1.00532 1.00046 0.9855
1.00518 1.00213 0.983924
1.00531 1.00031 0.985302
1.00003 0.998428 0.998531
1.00003 0.998889 0.998352
1.00005 0.999378 0.998144
1.00075 1.0029 0.990705
1.00036 1.00066 0.997407
1.00168 0.999939 0.996671
1.00138 0.999991 0.996767
1.00309 1.00014 0.989449
1.00279 0.999945 0.990149
1.00116 0.999976 0.996925
1.00111 0.999975 0.996962
1.0027 0.999841 0.990389
1.00305 1.00003 0.990457
1.00496 0.999277 0.987345
1.00324 1.00009 0.989234
1.00522 0.999605 0.986589
1.00266 0.99983 0.990478
1.00494 0.999143 0.987547
1.00509 0.999418 0.987016
1.00532 0.996407 0.989807
1.00528 0.999882 0.986215
1.00535 0.997274 0.988884
1.00112 0.999982 0.996955
1.00068 1.00015 0.994306
1.00283 0.999942 0.989664
1.00322 1.00014 0.990363
1.00038 1.00158 0.997104
1.00337 1.0013 0.989731
1.00343 1.00004 0.990131
1.00525 0.999852 0.986873
1.00526 1.0007 0.985987
1.00522 1.00131 0.985445
1.00528 1.00022 0.985752
1.00268 0.999862 0.990417
1.00289 1.00009 0.990861
1.00494 0.999043 0.987942
1.00514 0.999833 0.987029
1.00079 1.00088 0.997033
1.00216 1.00262 0.989436
1.00485 1.00196 0.984949
1.00525 1.00011 0.986544
1.00535 0.998034 0.988068
1.00529 1.00096 0.985003
1.00529 0.999606 0.986369
1.00525 0.998082 0.987744
1.00109 1.00295 0.989994
1.00225 1.00436 0.986729
1.0049 0.999205 0.987553
1.00499 0.999401 0.987758
1.00532 0.997093 0.98911
1.00537 0.997181 0.988834
1.00532 0.998659 0.987305
1.00526 0.995783 0.990273
1.00136 1.00309 0.989275
1.00526 0.996946 0.988869
1.00424 1.00261 0.984951
1.00532 1.00172 0.984025
1.00524 0.999598 0.986354
1.00522 0.996336 0.989626
1.00304 1.0037 0.985845
1.00148 1.00501 0.987539
1.00386 1.00228 0.986147
1.00327 1.00001 0.989233
1.00021 1.00003 0.997722
1.00023 1.00245 0.991918
1.00313 1.00018 0.989266
1.00527 1.00045 0.985554
1.00118 1.00299 0.989754
1.00432 1.00198 0.985453
1.00525 1.00082 0.985235
1.00534 1.00123 0.984609
1.00078 1.0027 0.990797
1.0001 1.00166 0.992978
1.00153 1.00477 0.987579
1.00527 1.00019 0.985865
1.00525 1.00067 0.985347
1.00529 0.999253 0.986717
1.00333 1.00312 0.986066
1.0053 1.00056 0.985396
1.0053 1.00207 0.983878
1.00532 1.00003 0.985516
1.00013 1.00081 0.993837
1.00269 1.00384 0.986771
1.00112 1.0047 0.988556
1.00302 1.00252 0.987421
1.00529 0.998548 0.987496
1.00529 0.999947 0.985995
1.00524 0.997181 0.988668
1.00483 1.00221 0.984427
1.00523 0.998763 0.98721
1.00533 1.00132 0.984624
1.00534 0.999063 0.986564
1.00023 1.00234 0.992176
1.00027 0.999516 0.994884
1.00005 0.997882 0.998731
1 0.998292 0.998608
0.999965 0.998745 0.998457
1.0003 1.00265 0.991623
1.00018 1.00029 0.997674
1.0008 1.00281 0.990664
1.00048 1.0007 0.99732
1.00322 1.00012 0.989235
1.00295 1.00002 0.989819
1.00518 0.999643 0.986587
1.00495 0.999298 0.987343
1.00272 0.999858 0.990388
1.00117 0.999963 0.99696
1.00268 0.999824 0.990481
1.00492 0.999154 0.987552
1.00508 0.999419 0.987013
1.00532 0.996428 0.989814
1.00526 0.9999 0.98619
1.00533 0.997258 0.988885
1.0049 0.999131 0.987611
1.0053 0.996274 0.990009
1.00537 0.996769 0.989385
1.00531 0.994939 0.991254
1.00529 0.997871 0.988257
1.00522 0.995174 0.990966
1.00269 0.99986 0.990427
1.00306 1.00006 0.990675
1.00497 0.998995 0.987671
1.00517 0.999992 0.986847
1.00094 1.00092 0.99689
1.00252 1.00244 0.990115
1.00481 1.00221 0.985198
1.00526 1.00015 0.986499
1.00536 0.997671 0.988472
1.00529 0.999752 0.986324
1.00531 1.00084 0.98508
1.00524 0.998105 0.987758
1.00112 1.00288 0.989976
1.00231 1.00424 0.986732
1.00491 0.998995 0.987755
1.00502 0.999367 0.987732
1.00532 0.996954 0.989267
1.00538 0.997587 0.988431
1.00143 1.00305 0.989278
1.00414 1.00281 0.984982
1.00532 1.00185 0.983891
1.00531 0.998881 0.987148
1.00524 0.995565 0.990494
1.00524 0.999362 0.986588
1.00526 0.996973 0.988863
1.00521 0.9963 0.98954
1.00307 1.00385 0.985795
1.00375 1.00254 0.985965
1.00148 1.00486 0.987585
1.00531 0.996876 0.989373
1.00535 0.997176 0.989001
1.00527 0.995187 0.99103
1.00528 0.995033 0.991004
1.00526 0.996005 0.989818
1.00522 0.994951 0.990935
1.00357 1.00342 0.985319
1.00522 0.995322 0.990384
1.0053 1.00265 0.983252
1.00526 1.00071 0.984954
1.00521 0.997934 0.987958
1.00519 0.995817 0.990104
1.0009 1.00504 0.988202
1.00463 1.00263 0.984724
1.00295 1.00363 0.986227
1.00507 1.00223 0.984732
1.00526 1.00021 0.985836
1.00005 1.00164 0.993007
1.00063 1.00291 0.990818
1.00123 1.0048 0.987547
1.00527 1.00067 0.985321
1.00529 0.999256 0.986695
1.00347 1.00283 0.986083
1.00533 1.00205 0.983831
1.0053 1.00068 0.985292
1.00532 0.999755 0.985729
1.00011 1.00076 0.993879
1.00258 1.00369 0.986813
1.00092 1.00481 0.988536
1.00295 1.00255 0.987447
1.00529 0.998552 0.987474
1.00529 0.999946 0.985972
1.00524 0.997168 0.988666
1.00494 1.00219 0.984415
1.00523 0.998944 0.986985
1.0053 1.00119 0.984601
1.00534 0.998922 0.986735
1.00022 1.00002 0.99451
1.00076 1.00407 0.989789
1.00384 1.00227 0.986066
1.00213 1.00398 0.987928
1.00376 1.00013 0.988635
1.00525 0.996329 0.989571
1.00523 0.997989 0.987802
1.00522 0.995949 0.989715
1.00506 1.00201 0.984274
1.00525 0.997691 0.988044
1.00513 1.00009 0.985814
1.00039 1.00255 0.991705
1.00034 1.00405 0.990337
1.00009 1.0021 0.99266
1.0002 1.00237 0.992176
1.00023 0.999238 0.99588
1.00025 0.999458 0.995291
1.00022 0.99746 0.997343
1.00004 0.997829 0.998772
0.999984 0.99819 0.998673
0.999925 1.00205 0.992844
0.999991 0.999774 0.998056
1.00041 1.00256 0.991615
1.00029 1.00037 0.997567
1.00088 1.00271 0.990624
1.0006 1.00073 0.997232
1.00524 0.999918 0.986168
1.00509 0.99941 0.987007
1.00531 0.997266 0.988886
1.00532 0.996444 0.989822
1.0049 0.999165 0.987558
1.00267 0.99981 0.990479
1.00489 0.999132 0.987616
1.00531 0.99628 0.990012
1.00535 0.99679 0.989396
1.0053 0.994934 0.991255
1.0053 0.997856 0.988243
1.00524 0.995153 0.990982
1.00531 0.996315 0.989978
1.00529 0.994958 0.991289
1.00526 0.994971 0.991205
1.00523 0.99496 0.991223
1.00524 0.995627 0.990398
1.00525 0.99489 0.990979
1.00491 0.998787 0.987958
1.00504 0.999357 0.987705
1.00532 0.99685 0.989424
1.00539 0.997994 0.988029
1.0015 1.00301 0.989286
1.00392 1.00315 0.985018
1.00533 1.00198 0.983759
1.0053 0.999089 0.986993
1.00522 0.995353 0.990717
1.00527 0.997001 0.988857
1.00525 0.999131 0.986822
1.00521 0.996246 0.989453
1.00309 1.00411 0.985742
1.00362 1.00269 0.985783
1.00145 1.00467 0.987631
1.00531 0.996669 0.989611
1.00535 0.997139 0.989014
1.00527 0.995079 0.991139
1.00526 0.995258 0.990794
1.0035 1.0036 0.985321
1.00528 1.00268 0.983301
1.00526 1.00088 0.98476
1.00526 0.996264 0.989553
1.00523 0.994936 0.990919
1.00522 0.997811 0.987932
1.00523 0.995343 0.990358
1.00519 0.995717 0.990145
1.00436 1.00291 0.9847
1.0049 1.00221 0.984503
1.00108 1.0049 0.988218
1.00282 1.00354 0.986237
1.00527 0.99496 0.991338
1.00528 0.99529 0.990783
1.00522 0.994947 0.991283
1.00521 0.994906 0.990983
1.00525 0.994952 0.990752
1.00527 0.994913 0.990776
1.00518 1.00291 0.98343
1.00521 0.99498 0.990623
1.00524 1.00214 0.983626
1.00523 0.999859 0.985728
1.0052 0.997174 0.98846
1.00522 0.995815 0.989991
1.00063 1.00455 0.989213
1.00164 1.00508 0.986586
1.00512 1.00312 0.983231
1.00469 1.00285 0.985445
1.00493 1.00369 0.983205
1.00008 1.00067 0.993922
1.0053 0.998555 0.987452
1.00071 1.00493 0.988516
1.00244 1.00366 0.986853
1.00292 1.00244 0.987471
1.00529 0.999946 0.985951
1.00524 0.997155 0.988664
1.00518 1.002 0.9844
1.00529 1.00111 0.98458
1.00523 0.999113 0.986761
1.00534 0.998801 0.986906
1.0002 0.999963 0.994541
1.00053 1.0042 0.989801
1.0041 1.00189 0.986145
1.00177 1.00406 0.987852
1.00372 1.00018 0.98818
1.00524 0.9963 0.98958
1.00523 0.99797 0.9878
1.00522 0.995898 0.989717
1.0051 1.00208 0.984189
1.00527 0.99778 0.987866
1.00517 1.00011 0.985967
1.00046 1.0032 0.990986
1.00116 1.00504 0.988653
1.00449 1.00176 0.985517
1.00281 1.0022 0.988233
1.00489 1.00047 0.987572
1.00527 0.995291 0.990387
1.00522 0.996698 0.988843
1.00523 0.995488 0.989863
1.00495 1.00127 0.984747
1.00512 0.998709 0.986865
1.00037 1.00258 0.991703
1.00052 1.00371 0.990157
1.0001 1.00419 0.990309
1.00052 1.00429 0.99011
1.00014 1.00394 0.990843
1.00001 1.00183 0.993041
1.00005 1.0021 0.992675
1.00018 0.999042 0.996112
1.00018 1.0024 0.992176
1.00024 0.999186 0.995914
1.00026 0.997198 0.997499
1.00025 0.999431 0.995688
1.00014 0.997513 0.998105
1.00004 0.997731 0.998807
0.999795 1.00092 0.994142
1.00001 1.00193 0.992839
0.999797 0.999038 0.998498
1.00012 0.999834 0.997899
1.0005 1.00242 0.991607
1.00039 1.00047 0.997467
1.00532 0.997838 0.988228
1.00532 0.996791 0.989407
1.00525 0.995128 0.990997
1.00529 0.994928 0.991256
1.00531 0.996286 0.990014
1.00489 0.999133 0.98762
1.00531 0.996318 0.989978
1.00529 0.994958 0.991297
1.00527 0.994958 0.991219
1.00524 0.99496 0.991198
1.00524 0.995576 0.990415
1.00526 0.994895 0.990975
1.00528 0.994959 0.991318
1.00524 0.994942 0.99131
1.00524 0.99495 0.991099
1.00528 0.994941 0.99113
1.00528 0.994958 0.990792
1.00532 0.994898 0.990841
1.00531 0.996458 0.989849
1.00535 0.997094 0.989026
1.00528 0.994949 0.991249
1.00525 0.995489 0.990584
1.00343 1.00369 0.985325
1.00524 1.00266 0.983346
1.00526 1.00099 0.984562
1.00526 0.996522 0.989288
1.00524 0.994909 0.990903
1.00523 0.995364 0.990331
1.00523 0.997698 0.987908
1.0052 0.995569 0.990191
1.00399 1.00341 0.98468
1.00493 1.0023 0.984276
1.00127 1.00477 0.988233
1.00275 1.00328 0.986251
1.00527 0.99496 0.991331
1.00528 0.995255 0.99083
1.00522 0.994945 0.991258
1.00522 0.994912 0.990999
1.00498 1.00311 0.983445
1.00524 1.00222 0.983515
1.00522 0.999838 0.985712
1.00525 0.994985 0.990702
1.00527 0.994913 0.990754
1.00519 0.997182 0.988461
1.00522 0.994947 0.990606
1.00522 0.995631 0.99011
1.00509 1.0032 0.983298
1.00484 1.00386 0.983011
1.00412 1.0026 0.985478
1.00062 1.00436 0.989275
1.00155 1.00508 0.986725
1.00524 0.994949 0.991261
1.00524 0.994938 0.991095
1.00529 0.9949 0.990697
1.00526 0.994897 0.99072
1.00518 1.00327 0.982832
1.00523 0.994986 0.990496
1.00514 1.00147 0.984012
1.00518 0.99922 0.986274
1.00518 0.996853 0.988659
1.00001 1.00366 0.990873
1.00123 1.00509 0.987996
1.00224 1.00507 0.986236
1.00497 1.00428 0.982559
1.00501 1.00281 0.984306
1.00494 1.00327 0.982719
1.00018 0.999919 0.994572
1.00035 1.0044 0.989812
1.00524 0.996273 0.989589
1.00142 1.0042 0.987774
1.00433 1.00176 0.986229
1.00369 1.0004 0.98773
1.00523 0.997952 0.987798
1.00522 0.995851 0.989719
1.00519 1.00205 0.984105
1.00519 1.00014 0.986122
1.00528 0.997854 0.987686
1.00039 1.00328 0.990989
1.00075 1.00508 0.988647
1.00479 1.00162 0.985231
1.00268 1.00218 0.988241
1.00448 0.999839 0.987379
1.00526 0.995253 0.990411
1.00523 0.996716 0.988821
1.00523 0.995529 0.989835
1.00497 1.00131 0.984844
1.00513 0.998822 0.986836
1.00076 1.00444 0.989639
1.00059 1.00459 0.988661
1.00483 1.00198 0.984744
1.00345 1.00082 0.987567
1.00495 1.00087 0.986404
1.00524 0.994937 0.990494
1.00527 0.996842 0.988443
1.00529 0.995841 0.989271
1.00501 1.00017 0.985939
1.00512 0.999013 0.986729
1.00035 1.0026 0.991701
1.00053 1.00384 0.990131
0.999975 1.00398 0.99069
0.999946 1.00426 0.990279
0.999992 1.00407 0.99084
0.999982 1.00461 0.990233
0.999939 1.00343 0.991602
0.999823 1.00474 0.990231
0.999951 1.00368 0.991362
0.999996 1.00182 0.993075
1 1.00181 0.993045
1.00009 0.998962 0.996309
1.00002 1.00206 0.992688
1.00019 0.999012 0.996147
1.00022 0.997079 0.997647
1.00026 0.999135 0.995952
1.00022 0.997247 0.997496
1.00002 0.997543 0.998888
0.999817 0.999879 0.995148
0.999844 1.00096 0.994094
0.999734 0.998401 0.998807
1.00015 1.0018 0.992835
0.999921 0.999216 0.998336
1.00024 0.999974 0.997754
1.00523 0.995523 0.990432
1.00528 0.99495 0.991234
1.00526 0.9949 0.990972
1.00525 0.994962 0.991173
1.00528 0.994958 0.991304
1.00531 0.996323 0.989977
1.00528 0.994961 0.991333
1.00524 0.994942 0.991315
1.00524 0.994949 0.991112
1.00527 0.994938 0.991117
1.00527 0.994963 0.990817
1.00531 0.994897 0.990786
1.00524 0.994947 0.991308
1.00528 0.994929 0.991215
1.00529 0.994934 0.990979
1.00531 0.994863 0.990656
1.00528 0.994961 0.991325
1.00529 0.995226 0.990877
1.00522 0.994942 0.991232
1.00522 0.994918 0.991014
1.00484 1.00316 0.983459
1.00524 1.00234 0.983407
1.00521 0.999873 0.985696
1.00526 0.995026 0.990653
1.00526 0.994912 0.990733
1.00522 0.994934 0.99059
1.00518 0.997159 0.988459
1.0052 0.995545 0.990228
1.00478 1.00331 0.983363
1.00484 1.00399 0.982819
1.00363 1.0028 0.985509
1.00064 1.00414 0.989347
1.00156 1.0051 0.986865
1.00523 0.99495 0.991254
1.00524 0.994937 0.991119
1.00529 0.994906 0.990725
1.00517 1.00328 0.982888
1.00514 1.00171 0.983907
1.00516 0.999258 0.986275
1.00525 0.994899 0.990724
1.00518 0.996728 0.988884
1.00523 0.995007 0.990459
0.999954 1.00347 0.991114
1.00475 1.0042 0.982645
1.00468 1.00466 0.982373
1.00464 1.00309 0.984422
1.00255 1.0048 0.98621
1.00098 1.00509 0.988019
1.00528 0.994935 0.991163
1.0053 0.994908 0.990881
1.00529 0.994897 0.99061
1.00525 0.994863 0.990593
1.00507 1.00316 0.983075
1.00519 0.99527 0.990351
1.00505 1.00108 0.984716
1.00511 0.999162 0.986458
0.999943 1.00176 0.992794
1.00032 1.00493 0.989655
1.00183 1.0051 0.987627
1.00306 1.00486 0.984854
1.0046 1.00464 0.983294
1.00486 1.00387 0.983011
1.00031 1.00336 0.990991
1.00029 1.00511 0.988642
1.00524 0.995214 0.990435
1.00254 1.00209 0.988245
1.00513 1.00146 0.98494
1.0038 0.999772 0.98718
1.00525 0.996735 0.988798
1.00524 0.995567 0.989804
1.005 1.00142 0.984938
1.00515 0.998958 0.986807
1.00055 1.00448 0.989648
1.00106 1.00458 0.988398
1.00483 1.00198 0.984716
1.00382 1.00083 0.987514
1.00474 1.00114 0.986152
1.00525 0.994987 0.990517
1.00526 0.996749 0.988666
1.00528 0.995888 0.989365
1.00496 1.00015 0.985978
1.00506 0.999244 0.986511
0.999614 1.00441 0.989964
1.00086 1.00359 0.98885
1.00482 1.00086 0.985856
1.0045 1.00039 0.986335
1.00534 0.994849 0.990414
1.00526 0.995402 0.990109
1.00524 0.998014 0.987145
1.0051 0.99946 0.986181
1.00071 1.00381 0.990104
1.00014 1.00395 0.99063
0.999223 1.00377 0.992909
0.999845 1.00422 0.990839
0.999404 1.00491 0.990357
0.999929 1.00368 0.991347
0.999594 1.00347 0.992016
0.999884 1.00483 0.990156
0.999744 1.00105 0.994284
0.999751 1.00444 0.990921
0.999759 1.00458 0.99039
1.00008 1.00345 0.991369
0.999963 1.00204 0.99285
0.999958 1.00182 0.993064
0.999978 0.998999 0.996429
0.999979 1.00179 0.993051
1.0001 0.998958 0.996328
1.00014 0.997098 0.997755
1.0002 0.998983 0.996183
1.00021 0.997104 0.997641
1.00018 0.997301 0.997485
0.999957 0.999106 0.995749
0.999819 1.00001 0.995082
0.999725 0.997901 0.998981
0.999854 1.00105 0.994044
0.999782 0.998504 0.998723
1.00006 0.999283 0.998159
1.00528 0.994968 0.990842
1.00524 0.994949 0.991126
1.0053 0.994896 0.990731
1.00527 0.994934 0.991104
1.00525 0.994941 0.991319
1.00528 0.994963 0.991347
1.00524 0.994946 0.991318
1.00528 0.994927 0.99121
1.00529 0.994927 0.99096
1.00531 0.99486 0.990666
1.00527 0.994929 0.99124
1.00528 0.99492 0.991124
1.00533 0.994886 0.990764
1.00522 0.994951 0.991246
1.00524 0.994936 0.991143
1.00529 0.994912 0.990752
1.00521 1.00324 0.982946
1.00514 1.00186 0.983799
1.00515 0.999149 0.986273
1.00525 0.9949 0.990727
1.00524 0.995022 0.99042
1.00522 0.99651 0.989105
1.00465 1.00405 0.98273
1.00485 1.0048 0.982048
1.0043 1.00314 0.984537
0.99999 1.00329 0.991362
1.00299 1.00448 0.986183
1.00066 1.00509 0.988032
1.00527 0.994937 0.99118
1.0053 0.994904 0.990849
1.0053 0.994894 0.990601
1.00505 1.00322 0.983101
1.00495 1.00097 0.984629
1.00511 0.998915 0.9868
1.00525 0.994866 0.990563
1.00503 0.995312 0.990298
0.999952 1.00174 0.993013
1.00022 1.00492 0.989631
1.00461 1.00341 0.983167
1.00471 1.00375 0.983202
1.00355 1.0045 0.984992
1.00158 1.00509 0.98743
1.00529 0.994907 0.99111
1.00533 0.994856 0.990595
1.00529 0.99489 0.990556
1.00521 0.994888 0.990353
1.00447 1.00244 0.9841
1.00515 0.996698 0.988995
1.00497 1.00115 0.984921
1.00013 1.00083 0.99386
1.00023 1.002 0.992649
0.999581 1.00364 0.991753
1.00077 1.00504 0.988734
1.00149 1.00506 0.986686
1.00405 1.00422 0.983467
1.00334 1.0043 0.984719
1.00375 1.00511 0.984551
1.00027 1.00455 0.989658
1.00149 1.00456 0.988135
1.00527 0.995035 0.99054
1.00425 0.999931 0.987464
1.00482 1.00195 0.984693
1.00467 1.00141 0.98591
1.00526 0.996631 0.988892
1.00527 0.995918 0.989461
1.00497 1.00009 0.986016
1.00501 0.999407 0.986294
1.00022 1.00415 0.989792
1.00133 1.00372 0.988554
1.00491 1.00086 0.985708
1.00486 1.00061 0.986441
1.00534 0.994827 0.990416
1.00529 0.995337 0.990048
1.00519 0.997962 0.987258
1.00513 0.999537 0.986189
0.999597 1.00436 0.990403
1.00537 0.994889 0.990412
1.00305 1.00304 0.98818
1.00484 1.00007 0.986288
1.0053 0.994819 0.990732
1.0052 0.997136 0.987101
1.00506 1.00053 0.985665
1.00027 1.00397 0.99057
0.999071 1.0036 0.992822
0.998099 1.00224 0.995994
0.999931 1.0036 0.991331
0.999908 1.00497 0.99008
0.998514 1.00419 0.992423
1.0001 1.00335 0.991359
0.999773 1.00464 0.990398
0.998765 1.00186 0.994686
0.999882 1.0044 0.990792
0.99929 0.999615 0.997273
0.998946 1.00286 0.993547
0.999667 1.00499 0.990247
1.00032 1.00451 0.989832
1.00019 1.00359 0.990966
0.999924 1.00232 0.992646
0.999895 1.00218 0.992829
0.999854 0.999193 0.996487
0.999915 1.00192 0.993054
0.999993 0.999035 0.996429
1.00002 0.997217 0.99784
1.00011 0.998937 0.99635
1.00015 0.997108 0.99775
1.0002 0.997133 0.997629
1.00013 1.00077 0.993956
1.00003 0.998669 0.996078
0.999942 0.999201 0.995703
0.9998 0.997543 0.999074
0.99982 1.00012 0.995017
0.999759 0.998023 0.998941
0.99986 0.998651 0.998606
1.00531 0.994858 0.990677
1.00529 0.99492 0.990942
1.00528 0.994926 0.991205
1.00524 0.994946 0.991329
1.00527 0.994927 0.991246
1.00528 0.994919 0.991135
1.00531 0.994888 0.990725
1.00528 0.994912 0.991178
1.00534 0.994904 0.99097
1.00549 0.995103 0.991081
1.00527 0.994939 0.991198
1.0053 0.994897 0.990817
1.0053 0.994893 0.990592
1.00482 1.00332 0.983129
1.00498 1.00138 0.984567
1.00487 0.998785 0.987135
1.00524 0.994878 0.990533
1.00498 0.995408 0.990248
1.00424 1.00391 0.983042
1.00438 1.00428 0.983347
1.00355 1.0041 0.98513
0.999953 1.00165 0.99323
1.00014 1.00496 0.989604
1.00139 1.00509 0.987229
1.00529 0.994906 0.99109
1.00011 1.00082 0.99385
1.00016 1.00203 0.9925
1.00533 0.994868 0.990607
1.00528 0.99489 0.990566
1.00473 1.00267 0.984001
1.00473 1.00107 0.985164
1.00507 0.996552 0.988907
1.00522 0.994883 0.990311
0.999677 1.00357 0.991915
1.00075 1.00505 0.988684
1.00359 1.00417 0.98458
1.00373 1.00468 0.983901
1.00428 1.00438 0.983435
1.00168 1.00508 0.986629
1.00538 0.994869 0.990836
1.00533 0.994841 0.990484
1.00524 0.994853 0.990452
1.00518 0.99491 0.990376
1.00403 1.00217 0.985355
1.00458 1.00036 0.986802
1.00009 1.00247 0.992056
0.999926 1.00214 0.992856
1.00152 1.00057 0.992306
1.00058 1.00385 0.989904
1.00101 1.0051 0.988178
1.00263 1.0045 0.986271
1.00263 1.0051 0.984187
1.00227 1.00127 0.988944
1.00072 1.00396 0.989622
1.00181 1.00391 0.988255
1.00535 0.994806 0.990416
1.0053 0.99533 0.989988
1.00524 1.00105 0.986544
1.00494 1.00089 0.985557
1.00514 0.997927 0.98737
1.00516 0.99964 0.986199
1.00023 1.00398 0.990284
1.00538 0.994922 0.990644
1.00222 1.00321 0.988369
1.00499 1.00022 0.986118
1.0053 0.994825 0.990751
1.00519 0.997322 0.987302
1.00495 1.00039 0.985633
0.999335 1.00498 0.991507
1.00495 0.994787 0.990769
1.00236 1.00247 0.988242
1.00468 1.00145 0.984936
1.0051 0.99559 0.989959
1.0037 1.00099 0.986304
0.998795 0.994973 0.985977
0.998823 1.00363 0.992744
0.997713 1.0026 0.996031
0.99799 1.0017 0.997177
1.00001 1.00341 0.991348
0.999686 1.00482 0.990408
1.00035 1.00409 0.990666
0.998259 1.00213 0.995104
1.00012 1.00369 0.990967
1.00023 1.00445 0.989923
0.999275 0.999397 0.997124
0.999727 1.00496 0.990253
0.99937 1.00289 0.993079
0.998046 1.00135 0.997408
1.00041 1.00406 0.990259
1.00012 1.00489 0.990005
1.00073 1.00432 0.98957
1.00014 1.004 0.990398
1.00035 1.00483 0.98991
1.00008 1.00425 0.990185
0.9999 1.00238 0.992591
0.999914 1.00233 0.99263
0.99973 0.999271 0.995948
0.999886 1.00217 0.992808
0.99984 0.999235 0.996164
0.999991 0.997359 0.999094
1 0.999079 0.99643
1.00004 0.997194 0.997838
1.00016 0.997117 0.997739
1.00004 1.00064 0.994147
1.00015 1.00067 0.993988
1.00008 0.998407 0.996313
1.00002 0.998685 0.996362
0.999859 0.997264 0.999144
0.99992 0.999325 0.995657
0.999801 0.99762 0.999053
0.999794 0.998053 0.998903
1.00529 0.994891 0.990687
1.00528 0.994917 0.991147
1.00528 0.994925 0.991252
1.00528 0.994912 0.991179
1.00534 0.994905 0.99094
1.00548 0.995018 0.990854
1.00543 0.994874 0.99096
1.0013 0.994843 0.981428
1.00485 0.995052 0.991933
1.00012 1.00187 0.992799
1.00529 0.994906 0.99107
1.00533 0.994878 0.99062
1.00527 0.994884 0.990576
1.00479 1.00235 0.983878
1.00497 1.00058 0.985386
1.00484 0.9964 0.988814
1.00522 0.994876 0.990272
1.00416 1.00331 0.984493
1.00431 1.00427 0.983321
1.00411 1.00433 0.9834
1.0001 1.00084 0.993842
1.00226 1.00508 0.98657
0.999732 1.00349 0.992062
1.00073 1.00505 0.988631
1.00011 1.00205 0.992353
1.00537 0.994861 0.990839
1.00006 1.00244 0.992222
0.999902 1.00221 0.992881
1.00104 1.00075 0.99272
1.00534 0.994845 0.990457
1.00523 0.994854 0.990412
1.00324 1.00311 0.985452
1.00482 0.999076 0.987281
1.00518 0.994906 0.990315
1.00042 1.00386 0.990103
1.00127 1.00509 0.988015
1.00258 1.00259 0.988222
1.00319 1.00497 0.983908
1.00306 1.00374 0.986438
1.00536 0.994772 0.99098
1.00525 0.994801 0.990711
1.00518 0.994937 0.989962
1.00508 0.996801 0.990422
1.00177 1.00166 0.989247
0.999476 1.00349 0.991861
1.00151 1.00096 0.991642
1.00008 1.00026 0.993066
1.00088 1.00435 0.990076
1.00058 1.00502 0.989111
1.00096 1.00412 0.988175
1.00174 1.00011 0.991384
1.00117 1.00353 0.990158
1.00125 1.00335 0.988564
1.0054 0.994965 0.990867
1.00531 0.994785 0.990763
1.00518 0.997471 0.987501
1.00504 1.00033 0.985944
1.00485 1.00024 0.985608
0.999817 1.00473 0.991501
1.00466 0.994824 0.990976
1.00265 1.00236 0.98806
1.00479 1.00144 0.984855
1.00506 0.99548 0.990246
1.00398 1.00087 0.986381
0.998559 0.996078 0.984062
0.998312 1.00439 0.992998
1.00309 0.995628 0.991117
1.00327 1.00237 0.986088
1.00304 1.00112 0.986998
1.00349 0.997541 0.990651
0.999959 0.994876 0.943007
0.995147 0.994777 0.964369
0.995722 0.999154 0.987962
0.999073 0.994799 0.857309
0.994709 0.994853 0.818651
0.997442 1.00283 0.996059
0.99753 1.00187 0.997357
0.997467 1.00304 0.996964
1.00009 1.00373 0.990969
1.00022 1.00437 0.990012
0.999883 1.00488 0.990261
0.999652 1.00307 0.992591
0.999201 0.998919 0.996967
1.00001 1.00494 0.990065
1.00018 1.00398 0.990477
1.00063 1.00434 0.989584
0.998421 1.00045 0.996849
0.999956 1.00432 0.990646
1.00047 1.00446 0.990702
0.998602 1.00428 0.992696
0.999981 1.00471 0.990384
1.00056 1.00465 0.989051
1.00017 1.00409 0.99034
1.00026 1.00498 0.989416
1.00037 1.00409 0.990712
0.999669 1.00492 0.990608
1.00018 1.00477 0.989906
1.00025 1.00401 0.990507
1.00013 1.00424 0.990188
0.999901 1.00243 0.992579
0.999909 1.0024 0.992596
0.999703 0.999324 0.99598
0.999875 1.00243 0.992614
0.999715 0.999314 0.995944
0.999941 0.997352 0.999126
0.999816 0.999291 0.995843
0.99996 0.997357 0.998483
1.00007 0.997175 0.997832
0.999914 1.00046 0.994488
1.00002 1.00069 0.994152
1.00009 0.998222 0.996505
1.00018 1.00054 0.99402
1.00007 0.998353 0.996602
0.999916 0.996964 0.999203
1.00004 0.998751 0.996021
0.999859 0.997399 0.999115
0.999812 0.997725 0.999034
1.00533 0.994905 0.990909
1.00528 0.994912 0.991181
1.00546 0.994906 0.990633
1.00061 0.994837 0.981594
1.00543 0.994875 0.990962
1.00469 0.994964 0.991775
1.00529 0.995679 0.991174
0.996126 0.994889 0.964125
1.00164 0.99515 0.983361
1.00017 1.00157 0.993081
1.00008 1.00203 0.992761
0.999411 1.00383 0.991849
0.999852 1.00247 0.992546
1.00537 0.994857 0.990842
1.00534 0.994854 0.99043
1.00522 0.994862 0.990371
1.00413 1.0036 0.985557
1.00465 0.997257 0.987791
1.00518 0.994906 0.990257
1.00222 1.00319 0.98746
1.00469 1.00484 0.983618
1.00326 1.00207 0.986595
0.999857 1.00231 0.99291
1.00111 1.00508 0.987867
1.00032 1.00394 0.990303
0.99996 1.00259 0.992385
1.00051 1.00104 0.993103
1.00536 0.994777 0.990982
0.999822 1.00349 0.991623
1.00154 1.00056 0.991933
0.998149 1.00114 0.995735
1.00526 0.994825 0.990633
1.00519 0.995003 0.989976
1.00312 1.0005 0.989269
1.0047 0.995861 0.990655
1.00098 1.00446 0.989378
1.00086 1.00466 0.988219
1.00151 1.00141 0.991327
1.00249 1.00342 0.987573
1.00426 0.995287 0.991475
1.00514 0.995011 0.990994
1.00508 0.995851 0.989682
1.00352 0.996238 0.993335
0.997789 1.00463 0.993535
1.00121 1.00158 0.991148
0.99805 1.00463 0.993314
0.999199 1.00446 0.991624
0.999991 0.994887 0.929273
1.00005 1.00455 0.991494
1.0027 1.00266 0.987869
1.00428 0.994858 0.991214
1.00503 0.995408 0.990527
1.00416 1.00079 0.986438
1.00468 1.00153 0.984766
0.998437 0.996853 0.982001
0.998847 1.0042 0.993006
1.00299 0.995934 0.991006
1.00323 1.00275 0.986079
1.00362 1.001 0.987115
1.0038 0.997658 0.990415
0.999948 0.994863 0.929824
0.995527 0.994804 0.960953
0.995685 0.999644 0.988207
0.998003 0.994772 0.86213
0.99472 0.994851 0.809991
0.999138 1.00421 0.991827
0.999776 0.994819 0.86831
0.994728 0.994817 0.810499
1.00046 0.99935 0.992616
1.00156 1.00196 0.989526
1.00149 0.999607 0.992533
0.994906 0.998131 0.990847
0.997579 0.994818 0.942062
0.994893 0.994778 0.95692
0.99625 0.994826 0.880727
0.994732 0.994819 0.800303
0.997113 1.00211 0.997549
0.997272 1.00247 0.996848
0.997358 1.00461 0.995763
1.00026 1.00392 0.990553
1.00058 1.00432 0.989599
0.999526 1.00504 0.990124
0.999642 1.00459 0.991031
0.998959 0.999704 0.996299
1.00022 1.00401 0.990343
1.0002 1.0045 0.990539
0.999858 1.00487 0.990182
1.00072 1.00464 0.989192
0.998535 1.00409 0.992995
0.999365 1.0043 0.992244
0.997288 1.00503 0.993831
1.00003 1.00506 0.989574
1.0005 1.00469 0.989472
1.00041 1.00497 0.989391
1.00014 1.00363 0.991033
1.00019 1.00497 0.989926
0.999964 1.00347 0.991613
0.999103 1.0025 0.992531
0.999017 1.00498 0.991176
0.999437 1.00479 0.990749
0.999793 1.00472 0.990633
1.0001 1.00409 0.990578
1.00005 1.00478 0.989903
1.00026 1.00401 0.990435
0.999991 1.00243 0.992447
1.00019 1.00424 0.99019
0.999926 1.00237 0.992591
0.9999 0.999294 0.99641
0.999878 1.00242 0.992599
0.999754 0.999293 0.996236
0.999892 0.997323 0.997972
0.999703 0.999325 0.995939
0.999935 0.997367 0.999136
0.999948 0.997387 0.99787
1.00028 1.00154 0.992879
0.999921 1.00033 0.99463
0.999915 1.0005 0.99448
1.00005 0.998147 0.996615
0.999997 1.00075 0.994157
1.00009 0.998187 0.996501
0.999963 0.996843 0.999236
1.00006 0.99835 0.996848
0.999917 0.997139 0.998623
0.999882 0.997463 0.997934
1.00012 0.994822 0.981734
1.00544 0.994876 0.990961
1.00458 0.995277 0.991604
0.996358 0.994839 0.964655
1.0018 0.995075 0.983743
1.00527 0.995527 0.991156
1.00345 0.996209 0.986364
0.997392 0.994845 0.967204
0.999964 0.994865 0.941467
0.997491 0.994812 0.882316
0.994661 0.99481 0.817251
0.999674 1.00256 0.99258
1.00019 1.00153 0.993067
1.00019 1.00193 0.992721
0.999744 1.00325 0.992027
0.998972 1.00429 0.992526
1.00053 1.00214 0.991847
1.00023 1.00299 0.991796
1.00013 1.00223 0.992419
1.00538 0.99479 0.990976
1.00527 0.994844 0.99056
1.00518 0.995066 0.989985
1.00307 1.00087 0.989285
1.00456 0.995493 0.990884
1.00122 1.00207 0.991249
1.00385 1.00365 0.986982
1.00188 1.00489 0.987335
1.00146 1.00025 0.992215
1.00112 1.00458 0.988639
1.00037 1.00316 0.991401
0.996854 1.00192 0.998349
1.00426 0.994869 0.991758
0.998209 1.00434 0.993426
1.00091 1.00187 0.991966
1.00486 0.994908 0.990964
1.00468 0.995852 0.990066
1.00277 0.996428 0.993026
0.999492 1.00506 0.991479
1.00029 1.00311 0.991866
1.00337 0.994951 0.990955
1.00379 0.998616 0.990571
1.00449 0.995489 0.991408
1.00086 0.997595 0.994378
0.999293 1.00481 0.99112
0.998635 1.00468 0.992382
0.999416 1.00497 0.992037
0.999788 0.994919 0.8707
1.00021 0.994864 0.943604
0.999842 1.00368 0.993024
1.00341 1.003 0.986083
1.0029 0.99657 0.99089
1.00409 0.9978 0.990192
1.00411 1.00097 0.98726
0.999987 0.994847 0.941271
0.995822 0.9948 0.960464
0.99568 0.999706 0.98849
0.997491 0.99483 0.880416
0.99474 0.994832 0.800822
0.999436 1.00421 0.991792
0.999812 0.994852 0.867241
0.994695 0.994801 0.80373
1.00052 0.999296 0.992555
1.00158 1.00214 0.989539
1.00138 0.999761 0.992952
0.994904 0.999184 0.991625
0.998315 0.994939 0.935625
0.994931 0.994793 0.958032
0.995686 0.994941 0.880506
0.994749 0.994813 0.798601
0.998315 1.00425 0.994526
0.994722 0.994799 0.800552
0.994745 0.994775 0.808445
0.996953 1.00189 0.996878
0.999881 1.00171 0.994977
0.994901 0.99933 0.988638
0.995052 0.994871 0.959828
0.995244 0.99478 0.930789
0.994756 0.994975 0.885115
0.994832 0.994846 0.806207
0.997354 1.00188 0.996739
0.997868 1.00396 0.995468
0.99664 1.00392 0.996142
1.00026 1.00395 0.990346
1.00082 1.0045 0.989334
0.999924 1.005 0.989978
0.999861 1.00458 0.990379
0.998118 1.00394 0.993297
1.00049 1.00474 0.989454
0.999439 1.00403 0.991842
1.00027 1.00499 0.989596
0.996898 1.00494 0.994164
0.995982 1.00518 0.996541
0.998668 1.00486 0.992282
1.00058 1.00505 0.989464
1.00055 1.00475 0.989366
0.999994 1.00326 0.991345
1.00009 1.00491 0.989869
1.00008 1.00332 0.991514
0.998855 1.00303 0.993144
0.998899 1.00459 0.991639
0.998494 1.0051 0.991845
0.99852 1.00289 0.994098
1.00027 1.00186 0.992738
1.00292 0.999246 0.990868
0.999064 1.00489 0.991036
0.999262 1.00487 0.991217
0.999521 1.00502 0.990063
0.999517 1.00496 0.990759
1.00008 1.00419 0.990461
0.999717 1.00479 0.990656
1.00012 1.00409 0.990619
1.00002 1.00253 0.992207
1.00027 1.00406 0.990363
0.999973 1.00243 0.992461
1.00003 0.999269 0.996194
0.999924 1.00235 0.992603
0.99988 0.999266 0.996057
1.00001 0.997257 0.997816
0.999748 0.999278 0.995946
0.99995 0.997311 0.999146
0.999931 0.997362 0.999145
1.00036 1.00194 0.992712
0.999958 1.00048 0.994457
1.00017 1.00173 0.992891
1.00005 0.998103 0.996659
0.999909 1.00035 0.994627
0.999907 1.00055 0.994474
1.00006 0.998147 0.996604
0.999992 0.996755 0.999252
1.00007 0.998205 0.997003
0.999972 0.996847 0.998702
0.999933 0.997149 0.998102
0.999772 0.994828 0.854899
0.994698 0.99478 0.800263
0.996423 0.994843 0.96509
1.00146 0.994898 0.984236
1.00527 0.994781 0.991152
0.99709 0.99501 0.966554
1.0035 0.995204 0.986896
1.00057 0.994872 0.937706
0.998039 0.994775 0.86271
0.994705 0.994831 0.808886
0.99782 0.994768 0.973124
0.998117 0.994852 0.942232
0.996531 0.994848 0.880717
0.994762 0.99483 0.807517
0.99998 1.00347 0.991751
0.999813 1.00234 0.992695
1.00012 1.00166 0.993057
0.999877 1.00297 0.992205
0.998787 1.00415 0.992915
1.00031 1.00352 0.990772
1.00022 1.00292 0.991728
1.00059 1.00342 0.990383
1.00018 1.00299 0.991677
0.999962 1.0026 0.992288
1.00408 0.994764 0.992027
1.00472 0.994841 0.990933
1.00425 0.995867 0.990453
1.00227 0.996903 0.992714
1.00075 1.00262 0.992101
0.999527 1.00512 0.98968
1.00031 1.00207 0.992885
0.998392 1.00416 0.993295
1.00241 0.995031 0.991424
0.999371 1.00493 0.990893
0.998324 1.00494 0.992277
1.00347 0.997704 0.990721
1.00417 0.995561 0.991684
1.00105 0.99791 0.994617
0.999188 1.00496 0.991655
1.0002 0.995324 0.989932
1.00117 0.998831 0.993856
0.998419 1.00177 0.995444
0.998767 1.00445 0.990583
0.998347 1.00499 0.991451
0.998753 1.00493 0.992209
0.99472 0.994835 0.823817
0.999785 0.994881 0.876115
1 0.994879 0.929677
0.999318 1.00414 0.991734
1.00184 1.00238 0.989521
1.00058 0.999065 0.992487
1.00115 0.999812 0.993376
0.999819 0.994882 0.880269
0.997838 0.994828 0.930051
0.994849 0.994809 0.956991
0.994907 1.00049 0.992295
0.996559 0.994835 0.865222
0.994666 0.994792 0.809577
0.994778 0.994826 0.813414
0.99819 1.00362 0.994233
0.994709 0.994808 0.810546
0.994766 0.994779 0.807844
0.997115 1.00034 0.997494
0.999402 1.00157 0.994867
0.994883 0.998161 0.990945
0.995373 0.994828 0.958687
0.996285 0.995671 0.942149
0.994724 0.997203 0.867423
0.995005 0.994842 0.816499
0.996927 1.00358 0.99726
0.994777 0.994825 0.816689
0.994812 0.994801 0.805265
0.994965 1.00228 1.00001
0.995196 0.996898 0.967674
0.994819 0.996947 0.940765
0.995028 0.995245 0.860196
0.99545 0.994879 0.825874
0.998323 1.00282 0.995135
0.996998 1.00421 0.996284
0.995608 1.00417 0.998204
1.00037 1.00479 0.989435
1.00041 1.00506 0.98962
0.999567 1.00371 0.991439
0.996717 1.00478 0.994501
1.00018 1.00506 0.989479
0.998602 1.0049 0.992242
0.99571 1.00516 0.996847
0.995012 1.005 0.998294
0.995878 1.00517 0.996762
0.999297 1.0051 0.991517
1.00013 1.00502 0.989808
1.00014 1.00294 0.991416
0.998482 1.00335 0.99374
0.998552 1.00509 0.991944
0.999205 1.0045 0.991627
0.998352 1.00322 0.994196
0.998544 1.00457 0.992657
0.995931 1.00512 0.99657
1.00197 0.997667 0.994164
0.999817 1.00155 0.993459
1.0014 1.00071 0.991522
1.00487 1.00013 0.987176
1.00203 1.00141 0.99079
1.00178 0.998891 0.992801
0.999614 1.00464 0.990776
0.99976 1.00513 0.989492
0.999577 1.00467 0.991258
0.999877 1.00507 0.990064
1.00019 1.00458 0.98985
0.999924 1.00482 0.990766
1.00032 1.00398 0.990448
1.00011 1.00273 0.991944
1.00031 1.00381 0.99066
1.00011 1.00251 0.992214
1.00016 0.999327 0.99595
1.00002 1.00237 0.992475
1.00002 0.99928 0.995807
1.0001 0.997306 0.997657
0.999887 0.999238 0.995761
0.999998 0.997263 0.998479
0.999963 0.997281 0.999127
1.00028 1.00254 0.99184
1.00011 1.0006 0.994151
1.00025 1.00199 0.99253
1.00005 0.998151 0.996604
0.999975 1.00043 0.994465
1.00016 1.00171 0.992902
1.00002 0.996711 0.999261
1.00004 0.998105 0.996659
0.99991 1.00038 0.994626
1.00007 0.998136 0.996594
0.999992 0.996794 0.999248
0.999958 0.996845 0.999232
0.994691 0.99477 0.803117
0.999756 0.994844 0.867258
0.994753 0.994769 0.805638
0.994715 0.994776 0.799723
0.997248 0.994877 0.964767
1.0034 0.994795 0.987432
0.99983 0.994842 0.933241
0.999021 0.994821 0.88211
0.994751 0.994833 0.800299
0.998421 0.994827 0.972148
0.998639 0.995553 0.928134
0.995847 0.995574 0.879303
0.994725 0.994822 0.800105
0.9951 0.994823 0.964684
0.996178 0.995598 0.929288
0.994855 0.997403 0.859729
0.994827 0.994873 0.805763
1.00072 1.00452 0.990449
0.999636 1.00342 0.991866
1.00001 1.00204 0.992806
0.998454 1.00378 0.99331
1.00094 1.00359 0.989595
1.00022 1.00345 0.990971
0.999765 1.00338 0.991615
1.00111 1.00285 0.990449
1.00067 1.00355 0.990465
1.00024 1.00277 0.991558
1.00202 0.994782 0.991882
1.00321 0.997055 0.990876
1.00369 0.995658 0.991962
1.00076 0.997242 0.994873
1.00032 1.00493 0.991254
0.998708 1.0051 0.992182
0.999436 1.00501 0.990663
1.00002 1.0046 0.990291
0.999868 0.995766 0.990463
0.999289 1.00498 0.991164
0.999487 1.00482 0.992042
1.00103 0.998579 0.994437
0.999449 1.00055 0.995259
0.996432 1.0002 0.989462
0.996786 0.999455 1.00019
0.99637 1.00386 0.996187
0.999043 1.00431 0.992126
0.997599 1.00508 0.993725
0.994805 0.994812 0.822908
0.994713 0.994814 0.819639
0.9998 0.994895 0.858557
0.998233 1.00332 0.994001
0.99912 1.00121 0.994754
0.997319 0.999763 0.998108
0.994683 0.994792 0.808906
0.996299 0.995415 0.930587
0.995461 0.994856 0.95816
0.994847 0.996313 0.993581
0.994779 0.996814 0.886302
0.994775 0.994783 0.807965
0.995194 0.994846 0.817836
0.9973 1.0035 0.997173
0.994787 0.994825 0.819503
0.994801 0.994801 0.806223
0.995211 1.0015 0.999091
0.995194 0.996044 0.969565
0.994806 0.995915 0.929048
0.995176 0.994869 0.821706
0.995067 0.998634 0.868721
0.994922 1.00467 1.00017
0.994794 0.994829 0.810013
0.994869 0.994833 0.814884
0.994821 0.994861 0.806063
0.994776 0.99873 0.98995
0.994868 0.998088 0.94401
0.997589 0.996328 0.877533
0.997443 1.00479 0.996452
0.995746 1.00472 0.997969
0.995134 1.0049 0.999179
1.00009 1.00506 0.989494
0.998624 1.00499 0.992198
0.995499 1.00521 0.997147
0.99891 1.00511 0.991516
0.995983 1.00517 0.996766
0.995151 1.00495 0.998236
0.994936 1.0052 0.998471
0.995599 1.0051 0.997073
0.998416 1.00508 0.992063
0.999434 1.00456 0.991615
0.998364 1.00379 0.994317
0.996198 1.00496 0.996445
0.998482 1.00469 0.992585
0.998855 1.0018 0.995061
0.99926 0.997845 0.997998
1.00229 0.999832 0.989815
0.999406 1.00124 0.994122
1.00194 1.00063 0.991104
1.00449 1.00162 0.985959
1.00489 1.00252 0.984227
1.0039 0.998911 0.989934
1.00393 1.00013 0.987566
1.00098 1.00502 0.988606
1.00124 1.00186 0.991209
1.00051 0.998568 0.994707
1.00018 1.00446 0.990517
0.999992 1.00512 0.989512
1.0003 1.00507 0.98909
1.00025 1.00507 0.990067
1.00035 1.0045 0.989855
1.00015 1.00313 0.991385
1.00045 1.00387 0.990433
1.00016 1.00262 0.991936
1.00019 0.999438 0.995785
1.00011 1.0025 0.99222
1.00013 0.999358 0.995555
1.00019 0.997345 0.997479
1.00003 0.9993 0.995481
1.00008 0.997286 0.998364
1.00003 0.997246 0.999064
1.00062 1.0027 0.991001
1.00014 1.00095 0.993438
1.00042 1.0024 0.991835
1.00012 0.9982 0.996446
1.00008 1.00062 0.993995
1.00018 1.00204 0.992351
1.00005 0.996723 0.999245
1.00006 0.998121 0.996616
0.999989 1.00036 0.994473
1.00002 0.996734 0.999258
1.00003 0.998122 0.99666
0.999992 0.996773 0.999245
0.99482 0.994819 0.813141
0.994699 0.994806 0.816335
0.999756 0.994815 0.866156
1.00115 1.0026 0.99049
0.994818 0.9948 0.811837
0.994755 0.99477 0.805599
0.994746 0.994782 0.812893
0.998979 0.994859 0.971368
0.997632 0.99483 0.941466
0.996207 0.99485 0.862769
0.994693 0.994824 0.809422
0.996271 0.994826 0.962344
0.996341 0.996743 0.94066
0.994758 0.996193 0.863185
0.994839 0.994863 0.809569
0.994814 0.994787 0.956588
0.994806 0.995183 0.938606
0.995487 0.999821 0.872253
0.995171 0.994888 0.826058
0.999476 1.00464 0.990975
1.00011 1.00432 0.990425
0.999826 1.00336 0.991982
1.00079 1.00278 0.990719
1.00072 1.004 0.989826
1.00016 1.00379 0.991167
1.00111 1.003 0.990398
1.00067 1.00359 0.990541
0.998673 0.997368 0.990839
1.0005 0.99817 0.99494
1.00022 1.00471 0.989993
1.00056 0.999693 0.995083
0.99969 1.00466 0.99188
0.999795 1.00504 0.990879
0.998892 1.00426 0.992101
0.996 0.999611 0.990064
0.998052 1.00487 0.993875
0.997247 1.00317 0.996457
0.996205 1.00032 1.00031
0.998545 1.00406 0.99344
0.99478 1.00156 0.987153
0.995422 1.00282 0.998643
0.995875 1.00481 0.997207
0.997198 1.00513 0.995193
0.994777 0.99481 0.815408
0.994809 0.994815 0.820327
0.994703 0.994798 0.815342
0.997528 1.00355 0.997061
0.995451 1.00052 0.998156
0.994803 0.994827 0.822126
0.99477 0.996371 0.941681
0.995596 0.99605 0.96679
0.995163 0.997674 0.867023
0.994803 0.994802 0.80696
0.994893 0.994862 0.817531
0.995308 1.00452 0.999848
0.994796 0.994827 0.81012
0.99487 0.994842 0.815533
0.99479 0.999351 0.993691
0.994835 0.99485 0.809729
0.994847 0.996423 0.936214
0.996167 0.99744 0.879702
0.994815 1.00325 0.998395
0.994839 0.994842 0.817329
0.994802 0.994805 0.81314
0.994759 0.994823 0.807573
0.995869 0.999815 0.871023
0.994859 1.00103 0.974075
0.995606 0.997495 0.929198
0.996065 1.00501 0.997746
0.995097 1.00512 0.999168
0.994886 1.00522 0.998401
0.998388 1.00513 0.991514
0.995711 1.00519 0.996776
0.994982 1.00518 0.99819
0.995634 1.00497 0.997012
0.99494 1.00516 0.998489
0.997639 1.00228 0.997873
0.996263 1.00488 0.996303
0.998396 1.00468 0.992535
0.998597 1.00202 0.995715
0.998673 1.00123 0.993533
0.996676 0.998113 1.00164
1.00195 0.999644 0.991118
1.00439 1.00453 0.98233
1.00448 1.00292 0.984082
1.00244 1.00051 0.990628
1.00431 1.00199 0.985374
1.0051 1.00226 0.98403
1.00505 1.00001 0.986559
1.00459 1.00225 0.984569
1.00215 1.0026 0.988775
1.00336 0.999625 0.989684
1.00312 1.00012 0.987983
1.00051 1.00512 0.988444
1.00049 1.00496 0.98885
1.0004 1.0022 0.991615
1.00016 1.00511 0.989532
1.00047 1.00503 0.989112
1.00023 1.00412 0.990333
1.00048 1.00457 0.989859
1.00021 1.00318 0.99137
1.00015 0.999666 0.994866
1.00028 1.00259 0.99193
1.00021 0.999449 0.995032
1.00011 0.997347 0.998908
1.00013 0.999426 0.995208
1.00015 0.997336 0.998231
1.0001 0.997276 0.998987
1.00053 1.00287 0.990934
1.0003 1.00138 0.992776
1.00055 1.00275 0.991159
1.00019 0.998352 0.996196
1.00022 1.00092 0.993361
1.00047 1.00238 0.991825
1.00008 0.996715 0.99921
1.00012 0.998175 0.996461
1.00009 1.00061 0.99384
1.00005 0.996709 0.999252
1.00007 0.998087 0.996627
1.00001 0.996773 0.999257
0.994797 0.994829 0.817521
0.994816 0.994817 0.813461
0.994692 0.994823 0.816125
1.00107 1.00261 0.990651
1.0006 1.00311 0.990455
1.00124 1.00174 0.991482
0.994877 0.994838 0.813938
0.994817 0.994796 0.812641
0.994756 0.99476 0.805661
0.996841 0.994807 0.962802
0.995518 0.994763 0.928769
0.994794 0.99772 0.88479
0.994832 0.994842 0.803923
0.994993 0.994982 0.958842
0.994892 0.997092 0.93462
0.995452 0.997435 0.868925
0.995141 0.994876 0.821594
0.995621 0.995071 0.956082
0.994838 0.997134 0.939133
0.996473 0.996188 0.879069
0.994839 0.994844 0.807333
0.999656 1.00265 0.9925
1.00015 1.00387 0.990783
1.00018 1.00394 0.990399
1.00095 1.00267 0.99066
1.00039 1.00428 0.990059
1.00107 1.00318 0.990349
0.996037 0.998309 0.990824
0.996091 1.00124 1.00056
0.999377 1.00351 0.992075
0.998448 1.00243 0.996633
0.99842 1.00442 0.994019
0.997905 1.00386 0.99404
0.996798 1.00475 0.995481
0.994778 1.00207 0.987004
0.995584 1.00512 0.997584
0.995442 1.00344 0.997996
0.996829 1.00505 0.995256
0.994917 1.00236 0.984875
0.99541 1.0052 0.995167
0.995001 1.00417 0.998794
0.994851 0.994837 0.814537
0.994782 0.99482 0.814603
0.994812 0.994812 0.817791
0.995718 1.00386 0.99949
0.994805 0.999575 0.989496
0.994793 0.994826 0.810239
0.994822 0.997584 0.935775
0.996763 0.996336 0.86449
0.994871 0.994843 0.816158
0.994829 0.994836 0.804381
0.994793 1.00311 0.998877
0.994828 0.994844 0.817425
0.99482 0.994805 0.814007
0.994869 0.999925 0.971546
0.994719 0.994819 0.80059
0.995759 0.999145 0.866618
0.994892 0.995623 0.942843
0.994866 1.00517 0.9902
0.99479 0.994838 0.817956
0.994773 0.994784 0.807006
0.994676 0.994817 0.81874
0.994802 0.99739 0.858759
0.99486 0.998372 0.938074
0.994871 1.00123 0.965889
0.995104 1.0051 0.999119
0.994907 1.00521 0.998332
0.996044 1.00418 0.997459
0.995869 1.00475 0.996956
0.994939 1.00511 0.998522
0.996275 1.0039 0.997853
0.999234 0.99928 0.997991
0.998267 1.00237 0.996354
1.00109 1.00096 0.992558
1.0022 1.00496 0.985812
1.00139 0.999474 0.992695
1.00427 1.00425 0.983246
1.00428 1.00466 0.98232
1.00501 1.00136 0.984352
1.00503 1.00179 0.984416
1.00447 1.00303 0.983923
1.00441 1.00228 0.984808
1.0051 1.00156 0.984723
1.00511 1.00215 0.984115
1.00422 1.00033 0.98755
1.00467 1.0001 0.986887
1.00423 1.00198 0.984913
1.00095 1.00497 0.987921
1.00207 1.00293 0.988707
1.00277 1.00045 0.989424
1.00048 1.00472 0.989332
1.00085 1.00511 0.988445
1.00021 1.00493 0.989094
1.00071 1.00499 0.989136
1.00038 1.00393 0.990342
1.00008 1.00029 0.994326
1.00034 1.00305 0.991354
1.00018 0.999709 0.99484
1.00013 0.99749 0.998867
1.00022 0.999453 0.995032
1.00018 0.997376 0.998156
1.00014 0.997348 0.99892
1.00081 1.00319 0.990549
1.00043 1.00167 0.992499
1.00069 1.00269 0.990993
1.00027 0.998581 0.99583
1.0003 1.00137 0.992861
1.00056 1.00272 0.99132
1.00012 0.996779 0.999153
1.0002 0.998296 0.996214
1.00027 1.00087 0.993286
1.00008 0.996732 0.999221
1.00013 0.998149 0.996476
1.00005 0.996727 0.999258
0.994835 0.994839 0.816313
0.9948 0.994844 0.817649
0.994813 0.994826 0.813811
0.999975 1.00483 0.989745
1.00098 1.0042 0.990336
1.00089 1.0027 0.99082
1.00051 1.0035 0.990344
1.00066 1.00189 0.991712
1.00025 1.0029 0.991382
0.999886 1.00168 0.993093
0.99483 0.994808 0.805969
0.994881 0.994847 0.814689
0.994809 0.994822 0.813464
0.994896 0.994875 0.817185
0.995298 0.995141 0.956843
0.994827 0.998156 0.929321
0.995517 0.995051 0.882953
0.995172 0.995145 0.955343
0.994861 0.998296 0.926345
0.99564 0.99744 0.880273
0.99492 0.994843 0.817425
0.995864 0.996505 0.959639
0.994954 0.998616 0.928121
0.994918 0.995754 0.860846
0.99474 0.99482 0.801365
0.997477 1.00462 0.994502
0.999354 1.00323 0.992869
1.00025 1.00405 0.990592
1.00098 1.00291 0.990608
0.994815 1.00179 0.986978
0.995501 1.00393 0.997217
0.997465 1.00475 0.99464
0.996857 1.00465 0.995777
0.995386 1.00513 0.998053
0.996605 1.00504 0.995408
0.995341 1.00429 0.998824
0.995507 1.00192 0.981596
0.995183 1.00525 0.99538
0.995752 1.0041 0.997583
0.994966 1.00452 0.979561
0.995248 1.003 0.99912
0.994776 0.994819 0.816093
0.994842 0.994837 0.817851
0.994789 0.994835 0.813777
0.994786 1.00313 0.999343
0.994863 1.00016 0.974831
0.994819 0.99484 0.817567
0.99504 0.997598 0.930274
0.996412 0.995846 0.881193
0.994828 0.994827 0.814778
0.994687 0.994825 0.809634
0.994877 1.00473 0.991109
0.994807 0.994837 0.818109
0.994757 0.994783 0.807023
0.994867 0.999815 0.965902
0.994714 0.994827 0.810444
0.994728 0.99711 0.861477
0.994899 0.998528 0.926001
0.994888 1.00466 0.985054
0.994834 0.994817 0.813313
0.994688 0.994785 0.801904
0.996234 0.994836 0.882318
0.994762 0.99672 0.937993
0.994793 0.999979 0.959227
0.994922 1.00528 0.99866
0.995473 1.00447 0.997539
0.996688 1.00043 0.998623
0.995216 1.00512 0.997822
0.997413 1.00095 0.998372
1.00195 1.0004 0.99253
1.00358 1.00054 0.991591
1.00311 1.00502 0.985073
1.00408 1.00312 0.983837
1.0039 1.00406 0.984162
1.00441 1.0046 0.982265
1.00448 1.00373 0.983179
1.00523 0.99947 0.985802
1.00512 1.00078 0.985204
1.00505 1.00154 0.984296
1.0051 1.00161 0.984557
1.00502 1.00164 0.984422
1.0044 1.00317 0.983761
1.00513 1.00125 0.985263
1.00505 1.0018 0.98459
1.00512 1.00204 0.984204
1.00279 1.00313 0.987408
1.0036 1.00078 0.988012
1.00434 1.00014 0.987219
1.00065 1.00499 0.988371
1.00134 1.00473 0.987984
1.00174 1.00332 0.988636
1.00019 1.00088 0.993557
1.00061 1.00456 0.989347
1.00111 1.00509 0.988446
1.00047 1.00384 0.99035
1.0001 1.00036 0.994292
1.00009 0.997744 0.998784
1.00019 0.999752 0.994814
1.00013 0.997486 0.998852
1.00016 0.997333 0.998886
1.00012 1.0051 0.989918
1.00072 1.0045 0.989605
1.0006 1.00213 0.991773
1.00064 1.00332 0.990527
1.00027 0.99894 0.995442
1.00043 1.00169 0.992492
1.00071 1.00267 0.991052
1.00014 0.996931 0.999062
1.00025 0.998573 0.995851
1.00031 1.00138 0.992944
1.00011 0.99677 0.99917
1.00021 0.998265 0.996235
1.00008 0.996717 0.999233
0.9948 0.994838 0.810506
0.994821 0.994834 0.81644
0.994809 0.994834 0.817772
1.00022 1.00491 0.989737
1.0002 1.00362 0.990536
1.00057 1.00306 0.98929
0.999214 1.00446 0.99053
1.00126 1.00338 0.99078
1.00068 1.00387 0.990232
1.00049 1.00202 0.991941
1.00028 1.00319 0.99141
1.00027 1.00158 0.993161
0.998887 1.00392 0.993331
0.994754 0.994774 0.808869
0.994814 0.99481 0.806998
0.994885 0.99484 0.815373
0.995118 0.994846 0.818671
0.995591 0.996192 0.86569
0.994869 0.995068 0.954287
0.994822 0.997167 0.938573
0.995367 0.996251 0.955795
0.99488 0.996027 0.940091
0.995031 0.998691 0.869477
0.994756 0.994821 0.799721
0.994907 0.998453 0.958903
0.994851 1.00019 0.939685
0.994788 0.996186 0.885189
0.994712 0.994864 0.820212
0.998516 1.00144 0.996238
0.997105 1.00442 0.994936
0.999348 1.00303 0.993256
0.9956 1.00212 0.978046
0.994985 1.00523 0.995517
0.99638 1.00494 0.995551
0.994935 1.00457 0.998849
0.996033 1.00403 0.997558
0.995175 1.00231 0.99949
0.994869 1.00249 0.979056
0.996063 1.00111 1.00007
0.995569 1.00024 0.985817
0.994812 0.994821 0.822016
0.994791 0.994831 0.8153
0.994832 0.994835 0.821223
0.994903 1.0043 0.9914
0.994853 0.999705 0.963524
0.994824 0.994845 0.818257
0.994835 0.998914 0.937907
0.994768 0.997691 0.882323
0.994744 0.994761 0.807229
0.994743 0.994838 0.801872
0.995337 1.00476 0.985778
0.994816 0.994821 0.813514
0.994712 0.994787 0.801423
0.995033 0.998997 0.960308
0.995665 0.995068 0.880244
0.994839 0.997287 0.932465
0.995192 1.00261 0.982794
0.994695 0.994777 0.803975
0.99764 0.994821 0.883483
0.995992 0.995618 0.929534
0.99485 0.996194 0.961296
0.995592 1.00505 0.997633
0.99621 1.00194 0.998524
0.998964 1.00191 0.995622
0.995803 1.00318 0.998751
1.00075 1.0005 0.993528
1.00403 0.998567 0.989827
1.00393 1.00503 0.984318
1.00389 1.00338 0.983728
1.00446 1.00018 0.986108
1.00465 1.00461 0.982212
1.00455 1.00324 0.983271
1.005 0.999588 0.986204
1.00531 0.996913 0.988122
1.00524 0.999013 0.986174
1.00524 0.9994 0.985875
1.00517 1.00068 0.985385
1.00512 1.00082 0.985123
1.00507 1.00167 0.984238
1.00519 1.002 0.984331
1.00505 1.00151 0.984569
1.005 1.00153 0.984427
1.0045 1.00153 0.986101
1.00461 1.00165 0.98545
1.005 1.00207 0.984458
1.00133 1.00474 0.98725
1.00257 1.00315 0.987399
1.00317 1.00112 0.988471
1.00015 1.00194 0.993642
1.00096 1.00494 0.988388
1.00169 1.00443 0.988048
1.00015 0.998337 0.996518
1.00019 1.00108 0.993932
1.00075 1.00445 0.989361
1.00013 1.00045 0.994256
1.0001 0.997839 0.998725
1.00014 0.997508 0.998834
1.00085 1.00471 0.988963
1.00093 1.0051 0.988853
0.999588 1.00511 0.989851
1.00052 1.00327 0.990816
1.00058 1.00446 0.989579
1.00023 0.999357 0.995089
1.00052 1.00225 0.991793
1.00066 1.00338 0.990501
1.00013 0.9972 0.998975
1.00028 0.998909 0.99546
1.00042 1.00171 0.992485
1.00013 0.996931 0.999091
1.00024 0.998544 0.995871
1.00011 0.996769 0.999188
0.994783 0.994822 0.823062
0.994806 0.994839 0.810642
0.994807 0.99485 0.816575
1.00238 1.00141 0.98862
0.999851 1.00502 0.989726
0.999919 1.00363 0.990759
1.00013 1.00506 0.990192
1.00153 1.00259 0.989412
1.00048 1.00331 0.99192
1.00327 1.00264 0.986969
0.997696 1.00499 0.992478
1.0001 1.00329 0.991434
1.00007 1.00105 0.993226
0.998316 1.00382 0.993265
0.998329 1.0042 0.993796
0.994727 0.994811 0.810978
0.994771 0.994779 0.808314
0.99481 0.99481 0.807828
0.994796 0.994914 0.814255
0.994962 0.998268 0.868072
0.994885 0.998466 0.92829
0.995016 0.995343 0.95589
0.994917 0.998903 0.95847
0.99473 0.994911 0.811331
0.994879 0.996405 0.931546
0.994737 0.997387 0.867756
0.994884 0.99645 0.963887
0.994819 0.998313 0.941135
0.995706 0.994854 0.88236
0.999927 0.994901 1.00036
0.998436 1.0014 0.996144
0.996887 1.00432 0.995343
0.994898 1.00188 0.978852
0.995274 1.00139 0.999821
0.996558 1.00403 0.997547
0.997096 1.00042 1.00033
0.995172 0.999151 0.985964
0.996235 0.998526 0.992128
0.994711 0.994828 0.81851
0.994809 0.994813 0.823163
0.994802 0.994832 0.814408
0.99497 1.00445 0.986021
0.994855 0.999965 0.959898
0.994799 0.994828 0.813917
0.994829 0.998217 0.927375
0.996007 0.994845 0.864221
0.994754 0.994807 0.814224
0.994792 1.00485 0.9827
0.994704 0.994818 0.816936
0.997776 0.994766 0.863797
0.994859 0.995762 0.957073
0.996114 0.996465 0.941078
0.994889 1.00221 0.989411
0.999806 0.994848 0.855071
0.997905 0.994837 0.943126
0.994842 0.994821 0.956085
0.995501 1.00312 0.998458
0.998274 1.00146 0.995438
1.00108 1.00223 0.991873
0.99976 1.0004 0.994526
1.00326 0.999235 0.989612
1.00451 0.998961 0.988187
1.00382 1.00364 0.983616
1.00438 1.00038 0.986009
1.00506 0.996609 0.988556
1.0046 1.00266 0.983366
1.00493 0.999444 0.98618
1.00532 0.995853 0.989205
1.00527 0.995531 0.989983
1.00529 0.997091 0.988105
1.00532 0.996864 0.988234
1.00526 0.998903 0.986352
1.00523 0.998993 0.986359
1.00522 0.999356 0.985948
1.00527 1.00112 0.984654
1.00517 1.00059 0.985338
1.00512 1.00081 0.985041
1.00518 1.00156 0.984655
1.00508 1.00195 0.984374
1.00501 1.0014 0.98458
1.00277 1.00349 0.986531
1.00419 1.0019 0.986008
1.00401 1.00205 0.985638
1.00034 1.00262 0.991528
1.00183 1.00467 0.98727
1.0024 1.00337 0.987385
0.999851 0.999272 0.998336
1.00025 1.00189 0.992503
1.00122 1.00487 0.988406
1.00012 0.998275 0.998519
1.0002 1.00114 0.993416
1.00012 0.997897 0.998658
1.00324 1.00283 0.987704
1.00095 1.00455 0.988822
1.0012 1.00507 0.988377
1.00064 1.00416 0.989774
1.00065 1.00512 0.98883
0.999797 1.00518 0.989788
1.00014 1.00006 0.994585
1.00049 1.00325 0.99083
1.00043 1.00436 0.989551
1.00011 0.997404 0.998894
1.00023 0.999321 0.995106
1.00043 1.00232 0.991811
1.00013 0.997146 0.999
1.00028 0.998882 0.995476
1.00012 0.996885 0.999119
0.994724 0.994796 0.802934
0.994803 0.994824 0.823401
0.994813 0.994838 0.810808
1.00223 1.00227 0.988497
1.00486 1.00168 0.986494
1.00241 1.00313 0.987691
0.999955 1.00494 0.98985
1.0028 1.00225 0.989535
0.999005 1.0024 0.993022
0.998747 1.00459 0.991949
1.00214 1.00315 0.988021
1.00222 1.00189 0.989584
0.998955 0.999696 0.996328
0.999096 1.00386 0.993184
0.998558 1.00441 0.99369
0.998595 0.994803 0.857169
0.994698 0.9948 0.804511
0.994778 0.994782 0.808452
0.994749 0.994841 0.801921
0.994802 0.997288 0.886451
0.99486 0.997368 0.927144
0.994862 0.996977 0.957052
0.994863 0.996797 0.961625
0.995959 0.996278 0.880383
0.994839 0.996482 0.928894
0.994859 0.997378 0.964939
0.995778 0.994778 0.929645
0.999711 0.99537 1.00221
0.99961 0.995997 1.00034
0.998224 1.00128 0.996125
0.994878 0.998896 0.986276
0.997724 0.999658 1.00058
0.996659 0.998738 0.991741
0.99629 0.996582 0.990257
0.999792 0.994931 0.869593
0.994702 0.994817 0.815782
0.994815 0.994815 0.824124
0.994787 1.00499 0.983048
0.994854 0.994889 0.955313
0.994698 0.99483 0.816563
0.99542 0.99477 0.930108
0.998733 0.994819 0.883478
0.994894 1.00021 0.986093
0.999763 0.994854 0.867542
0.998109 0.995049 0.929412
0.994836 0.994793 0.957584
0.996573 0.998341 0.987327
0.999967 0.994887 0.942165
0.995142 0.994811 0.963225
0.997458 1.00075 0.995244
1.00017 1.00097 0.991898
1.00359 0.999656 0.990691
1.00243 1.00018 0.989416
1.00423 0.998859 0.988138
1.00518 0.996323 0.989128
1.00432 1.00062 0.985916
1.00491 0.997111 0.988505
1.00529 0.994946 0.990047
1.00487 0.999311 0.986153
1.00532 0.995878 0.989151
1.00527 0.994938 0.990494
1.00528 0.99509 0.99053
1.00528 0.995495 0.990112
1.00524 0.995872 0.98993
1.00529 0.99746 0.988085
1.00529 0.99714 0.988239
1.00534 0.996801 0.988349
1.00529 0.999744 0.985903
1.00526 0.998954 0.986303
1.00523 0.998949 0.986544
1.00531 1.00165 0.984209
1.00528 1.00114 0.984684
1.00518 1.00053 0.98529
1.00357 1.00274 0.985996
1.00513 1.00163 0.984656
1.0049 1.00193 0.984419
1.00082 1.00305 0.99038
1.00283 1.00352 0.986499
1.004 1.00198 0.985919
1.00009 0.999508 0.998037
1.0005 1.00252 0.991504
1.0022 1.00456 0.98729
1.00004 0.999161 0.997169
1.0004 1.00175 0.992515
1.00013 0.998535 0.998396
1.00448 1.00079 0.987249
1.00246 1.00279 0.987785
1.00127 1.00473 0.987895
1.00089 1.00451 0.988673
1.00082 1.00511 0.98842
1.00094 1.00474 0.988886
1.00016 1.00087 0.993781
1.00056 1.00427 0.989754
1.00015 1.00512 0.988808
1.00008 0.997785 0.998743
1.00014 0.999957 0.994614
1.00048 1.00327 0.990845
1.0001 0.99742 0.998919
1.00022 0.999292 0.995132
1.00012 0.997127 0.999025
0.999731 0.994818 0.86764
0.994709 0.994804 0.808768
0.994812 0.994823 0.823774
1.00194 1.00252 0.988379
1.00256 1.00355 0.986868
1.00445 1.00223 0.986465
1.00495 1.00343 0.98352
1.0022 1.00295 0.988102
0.999484 1.00486 0.99147
1.00174 1.00354 0.989065
1.00151 1.00193 0.990272
1.00455 0.996737 0.989356
1.00214 0.998651 0.993365
1.0022 0.996375 0.994858
1.0002 0.998893 0.996044
0.999633 1.00286 0.993585
0.997675 0.994851 0.939714
0.998652 0.994772 0.861786
0.994672 0.994796 0.810148
0.996095 0.994848 0.866178
0.994822 0.998072 0.938701
0.994857 0.995817 0.963022
0.994857 0.996777 0.966616
0.996497 0.997303 0.941923
0.995735 0.994793 0.965675
0.999049 0.996749 1.00017
0.998952 0.996027 1.00227
0.999262 0.997305 1.00026
0.997156 0.998121 0.991473
0.997314 0.997094 0.990381
0.999982 0.994895 0.929127
0.999793 0.994886 0.875466
0.994689 0.994799 0.813174
0.994902 0.999355 0.982458
0.995105 0.994782 0.956411
0.999797 0.994813 0.866617
0.997714 0.994816 0.942401
0.996313 0.998161 0.98757
1.00019 0.99487 0.937924
0.995902 0.99483 0.961065
1.00041 0.994979 0.986991
0.997997 0.9948 0.971289
0.999246 0.99938 0.991962
1.00276 0.998129 0.99073
1.0051 0.9952 0.991243
1.00405 0.998559 0.988078
1.00512 0.996142 0.989041
1.00529 0.994845 0.990357
1.00469 0.997568 0.988454
1.00529 0.995008 0.989996
1.00527 0.994833 0.990498
1.00532 0.995891 0.989099
1.00526 0.994969 0.990465
1.00529 0.994854 0.990626
1.00528 0.995043 0.990587
1.00527 0.995262 0.990525
1.00528 0.995453 0.990241
1.00524 0.995855 0.989933
1.00522 0.996386 0.989404
1.00528 0.998512 0.987271
1.00528 0.997523 0.988069
1.00529 0.997188 0.988374
1.00535 1.0012 0.984543
1.0053 0.999832 0.985757
1.00526 0.999008 0.986254
1.00441 1.00201 0.985375
1.00526 1.00168 0.984265
1.0053 1.00116 0.984713
1.00129 1.00313 0.989361
1.00339 1.00302 0.986001
1.00489 1.00186 0.984656
1.00022 1.00028 0.997615
1.00093 1.00287 0.990369
1.00305 1.00361 0.986466
1.00016 0.99971 0.997884
1.00064 1.00239 0.991478
1.00016 0.999113 0.998121
1.00518 1.0027 0.98412
1.00407 1.00078 0.987177
1.00275 1.00287 0.987105
1.00193 1.00277 0.987883
1.00134 1.00466 0.987736
1.0012 1.00507 0.988042
1.0006 1.00513 0.98846
1.00067 1.00488 0.988853
1.00022 1.00168 0.992818
1.00005 0.998336 0.998487
1.00011 1.00081 0.993806
1.0004 1.00435 0.989734
1.00006 0.997704 0.998799
1.00015 0.999853 0.994626
1.00009 0.997373 0.998942
0.999966 0.994886 0.942799
0.999814 0.994852 0.866877
0.994685 0.994792 0.802829
1.00221 1.0047 0.986038
1.00373 1.00263 0.986438
1.00333 1.00288 0.987445
1.00451 1.00323 0.983909
1.00518 1.00074 0.98497
1.00367 1.00015 0.987055
1.00065 1.00239 0.990922
1.00456 0.995976 0.989798
1.00213 0.998361 0.993404
1.00433 0.995325 0.990529
1.0037 0.997243 0.992468
1.00232 0.997127 0.993601
1.0018 0.996604 0.994706
0.999643 0.999658 0.995771
0.99569 0.994806 0.963965
0.998598 0.99587 0.935134
0.997529 0.99483 0.879215
0.995737 0.996016 0.929361
0.994903 0.996807 0.967031
0.995524 0.995726 0.971417
0.999276 0.99481 0.992096
0.999872 0.996066 0.999577
0.998252 0.996454 1.00235
0.998696 0.998958 0.990548
0.997374 0.995097 0.965615
1.00005 0.994873 0.943329
0.999805 0.994906 0.857802
0.995927 0.998217 0.987924
0.996319 0.994833 0.961422
0.999789 0.994839 0.933239
0.999777 0.995835 0.987386
0.998359 0.994837 0.970381
1.00293 0.99545 0.989407
1.0035 0.996162 0.98476
1.00175 0.997016 0.990756
1.00458 0.995175 0.991263
1.00526 0.994854 0.990739
1.00506 0.996078 0.988954
1.00529 0.994841 0.990306
1.00531 0.994911 0.990464
1.00529 0.995087 0.989943
1.00527 0.994846 0.990479
1.00532 0.994901 0.990498
1.00525 0.995006 0.990435
1.00528 0.994869 0.990632
1.0053 0.994904 0.990631
1.00527 0.995 0.990643
1.00526 0.995216 0.990537
1.00524 0.99569 0.990253
1.00524 0.995844 0.989935
1.00522 0.996406 0.989403
1.00526 0.997697 0.988221
1.00531 1.00024 0.98559
1.00529 0.998695 0.987022
1.00528 0.997589 0.988052
1.00517 1.00108 0.985018
1.00534 1.00122 0.984592
1.00531 0.999926 0.985611
1.00196 1.00277 0.988565
1.00417 1.00232 0.985392
1.00522 1.00171 0.98432
1.00064 1.00079 0.997162
1.00138 1.00304 0.989351
1.00321 1.0033 0.986005
1.00044 1.00043 0.997433
1.00097 1.00274 0.990367
1.00031 0.999924 0.997704
1.00524 1.00147 0.984614
1.00518 1.00224 0.984257
1.00455 1.002 0.985162
1.00398 1.00138 0.987105
1.00282 1.00296 0.986905
1.00226 1.00413 0.987081
1.00134 1.0046 0.987581
1.00104 1.00507 0.988055
1.00045 1.00239 0.991824
1.00043 1.00508 0.988826
1.00011 1.00185 0.992838
1.00003 0.999164 0.99818
1.00003 0.998278 0.998583
1.00006 1.00084 0.993837
1.00005 0.997675 0.998847
0.996668 0.994884 0.966069
0.999912 0.994877 0.928624
0.999818 0.99488 0.879658
1.00526 0.998606 0.986765
1.00452 1.00281 0.986807
1.00413 1.003 0.984297
1.00432 0.99992 0.987519
1.00518 1.00094 0.984928
1.00498 0.99729 0.988468
1.00494 0.996785 0.990249
1.00193 0.997481 0.993459
1.00476 0.996018 0.990545
1.00344 0.997567 0.991448
1.00463 0.996568 0.98971
1.00328 0.994895 0.994298
1.00231 0.996731 0.993703
1.00175 0.996795 0.994545
0.998665 0.994791 0.990681
0.995763 0.994814 0.962405
0.998376 0.994817 0.929643
0.995213 0.996242 0.970967
0.99888 0.994831 0.994829
1.0001 0.995394 0.998933
1.00235 0.994853 0.981405
0.997415 0.994874 0.965383
0.999993 0.994879 0.929257
0.998823 0.996059 0.98778
0.998645 0.994854 0.969727
1.00205 0.995053 0.989929
1.00324 0.995523 0.985598
1.00388 0.995382 0.990743
1.00518 0.996283 0.990825
1.00409 0.995065 0.991275
1.00522 0.994873 0.990656
1.00537 0.994916 0.990325
1.00528 0.99484 0.990256
1.00529 0.994899 0.990473
1.00536 0.994902 0.990422
1.00527 0.994858 0.99046
1.00531 0.994893 0.990513
1.00531 0.994906 0.990637
1.00527 0.994882 0.990637
1.0053 0.994903 0.990622
1.00527 0.995025 0.990739
1.00526 0.995171 0.990549
1.00524 0.995554 0.990337
1.00525 0.996746 0.989262
1.00523 0.99642 0.989402
1.00526 0.997598 0.988316
1.00529 0.99979 0.986212
1.00528 1.00086 0.985099
1.00532 1.00041 0.985417
1.0053 0.998873 0.986773
1.00283 1.00147 0.988477
1.00508 1.00121 0.985015
1.00532 1.00123 0.984642
1.00101 1.00098 0.996796
1.00222 1.00246 0.988543
1.00399 1.00253 0.985414
1.00077 1.00084 0.99702
1.00154 1.00294 0.989347
1.00058 1.00054 0.997278
1.00524 1.00009 0.985592
1.00524 1.00148 0.984529
1.00514 1.00138 0.984805
1.00519 1.00175 0.984395
1.00477 1.0018 0.985087
1.00317 1.00335 0.986476
1.003 1.00265 0.986703
1.00219 1.00423 0.987093
1.00073 1.0028 0.990805
1.00092 1.00511 0.988054
1.00026 1.00252 0.99185
1.00005 0.999866 0.997846
0.999965 1.00192 0.992858
0.999988 0.998977 0.998294
1.00001 0.998118 0.998669
1.00023 0.995207 0.986428
0.996554 0.994891 0.962264
0.99998 0.994863 0.942582
1.00523 0.996871 0.988608
1.00523 0.99658 0.988948
1.00526 0.998326 0.987034
1.00494 0.999263 0.987978
1.00516 1.00121 0.984893
1.0051 0.997232 0.988706
1.00525 0.995437 0.989534
1.00503 0.99577 0.990563
1.00317 0.998242 0.990434
1.00442 0.997024 0.990135
1.00513 0.99496 0.990811
1.00372 0.994804 0.993038
1.00293 0.994929 0.993982
1.00257 0.996306 0.99382
0.999361 0.994782 0.990731
0.995844 0.994821 0.961081
0.998874 0.994922 0.997696
1.005 0.994955 0.990386
1.00226 0.995208 0.981534
0.997611 0.994872 0.964045
1.00174 0.994794 0.990399
1.003 0.994811 0.986452
1.00393 0.995162 0.991415
1.00518 0.9955 0.99092
1.00541 0.994803 0.990887
1.0055 0.994827 0.991124
1.00524 0.994887 0.990572
1.00539 0.994914 0.990303
1.00537 0.994895 0.990523
1.00527 0.994884 0.990481
1.00535 0.994901 0.990449
1.00532 0.99491 0.990635
1.0053 0.994886 0.990528
1.00531 0.994906 0.990633
1.00526 0.994907 0.990894
1.0053 0.994903 0.990613
1.00527 0.995015 0.990714
1.00526 0.995966 0.98997
1.00524 0.995415 0.990421
1.00526 0.996688 0.989286
1.00531 0.999183 0.986796
1.00525 0.997504 0.988411
1.00529 0.999687 0.986339
1.00528 1.00062 0.985354
1.00305 1.00065 0.988878
1.00525 1.00088 0.985111
1.00533 1.00058 0.985244
1.00136 1.0009 0.996563
1.00286 1.00143 0.988463
1.00489 1.00143 0.985012
1.00116 1.00103 0.996666
1.0024 1.00228 0.988513
1.00094 1.00096 0.996858
1.00523 0.998252 0.987417
1.00524 0.99994 0.985793
1.00526 1.00097 0.985038
1.00523 1.00144 0.984437
1.00521 1.00135 0.984773
1.00368 1.00252 0.98626
1.00501 1.00168 0.985015
1.00313 1.00301 0.986465
1.00109 1.00315 0.989755
1.00194 1.00423 0.987113
1.00065 1.00293 0.990826
1.0002 1.00067 0.997476
1.00014 1.00267 0.991873
0.999991 0.99975 0.997976
0.99993 0.998853 0.9984
1.0043 0.995234 0.991831
1.0003 0.995076 0.984203
0.996508 0.994917 0.961935
1.00526 0.995707 0.989792
1.00522 0.996427 0.988946
1.00524 0.995526 0.990146
1.00523 0.99665 0.988914
1.00526 0.998013 0.987299
1.00535 0.994872 0.990195
1.00513 0.997389 0.988934
1.00525 0.995697 0.989544
1.00531 0.994804 0.990573
1.0043 0.99736 0.990559
1.00513 0.995052 0.990491
1.00334 0.994976 0.993306
1.00227 0.995433 0.993674
0.999744 0.994777 0.990559
1.0055 0.994859 0.990839
1.00503 0.995408 0.990377
1.002 0.995471 0.981748
1.00385 0.994801 0.992077
1.00514 0.994783 0.991027
1.00538 0.994812 0.990925
1.00553 0.994838 0.99105
1.0054 0.994851 0.990996
1.00541 0.994914 0.990285
1.00536 0.994895 0.990538
1.00531 0.994901 0.990834
1.00535 0.994899 0.990476
1.00532 0.994909 0.990629
1.00525 0.994917 0.990964
1.00532 0.994906 0.990629
1.00527 0.994907 0.990874
1.00528 0.995363 0.990639
1.00527 0.995007 0.990689
1.00526 0.995998 0.989952
1.00534 0.998509 0.987505
1.00526 0.996628 0.98931
1.0053 0.999188 0.98682
1.00527 1.00046 0.985561
1.00529 0.999581 0.986467
1.00528 1.00061 0.985371
1.00306 1.00033 0.990951
1.00172 1.0002 0.9932
1.00308 1.00067 0.989731
1.00523 1.00091 0.985119
1.00137 1.00087 0.996584
1.00297 1.00124 0.988447
1.00124 1.00108 0.996582
1.00522 0.995405 0.990497
1.00524 0.996928 0.988912
1.00523 0.998222 0.987619
1.00526 1.00031 0.985661
1.00524 0.999799 0.985996
1.00526 1.00102 0.984965
1.00444 1.00135 0.985846
1.00525 1.00132 0.984742
1.00385 1.00202 0.986237
1.00186 1.00287 0.988799
1.00331 1.00265 0.986452
1.00107 1.00323 0.989742
1.00053 1.00124 0.997022
1.00053 1.00299 0.990854
1.00008 1.00043 0.997623
0.999922 0.999592 0.998095
1.00545 0.994805 0.990814
1.00427 0.995135 0.991492
1.00072 0.994889 0.982045
1.00528 0.994962 0.990532
1.00523 0.995743 0.989678
1.00521 0.996007 0.989286
1.00523 0.995694 0.990095
1.00523 0.996728 0.988878
1.00537 0.994827 0.990575
1.00534 0.994873 0.990181
1.00526 0.995887 0.989551
1.00527 0.994802 0.990618
1.00511 0.995095 0.99017
1.00316 0.994714 0.99357
1.00533 0.994894 0.991113
1.00551 0.994842 0.990902
1.00512 0.9957 0.990363
1.00536 0.994823 0.990941
1.00557 0.994863 0.990978
1.00541 0.994856 0.990947
1.0053 0.994916 0.991132
1.00536 0.994899 0.990552
1.00531 0.994904 0.990796
1.00526 0.99494 0.991061
1.00533 0.994909 0.990624
1.00526 0.994917 0.990961
1.00529 0.995009 0.991037
1.00528 0.994908 0.990854
1.00526 0.99538 0.990621
1.00536 0.99787 0.988166
1.00527 0.99603 0.989935
1.00533 0.99852 0.987525
1.00527 1.00028 0.985769
1.0053 0.999192 0.986844
1.00528 1.00044 0.985586
1.00313 1.00012 0.991049
1.00529 1.0006 0.985386
1.00328 1.00021 0.990816
1.00176 0.999876 0.993422
1.00138 1.00052 0.99502
1.00329 1.00065 0.990407
1.00135 1.00086 0.996614
1.00522 0.994921 0.990992
1.00523 0.996572 0.989316
1.00522 0.995329 0.990606
1.00529 0.999367 0.986569
1.00524 0.996975 0.988902
1.00522 0.998194 0.987821
1.00526 1.00032 0.985603
1.00507 1.0007 0.985521
1.00526 1.00107 0.984891
1.00465 1.00112 0.985844
1.00262 1.0018 0.98847
1.004 1.00163 0.986218
1.00167 1.00305 0.988807
1.00089 1.00153 0.996643
1.00094 1.00336 0.989742
1.00036 1.00108 0.997207
0.999999 1.00029 0.997765
1.00532 0.994894 0.990823
1.00538 0.994809 0.990872
1.00406 0.995124 0.991155
1.00528 0.994853 0.990799
1.00527 0.995024 0.990469
1.0052 0.995772 0.989572
1.00521 0.99586 0.990043
1.00537 0.994827 0.990575
1.00534 0.994874 0.990168
1.00523 0.994805 0.990664
1.00528 0.994942 0.991178
1.00532 0.994896 0.991086
1.00551 0.994815 0.990963
1.00528 0.994936 0.991221
1.00541 0.994858 0.990898
1.0053 0.994917 0.991123
1.00526 0.994939 0.991173
1.00532 0.994907 0.990757
1.00525 0.99494 0.99107
1.00531 0.994929 0.991186
1.00526 0.994916 0.990957
1.00528 0.995015 0.991019
1.00537 0.997318 0.988768
1.00525 0.995396 0.990602
1.00536 0.997884 0.988176
1.00526 1.00008 0.986025
1.00532 0.998531 0.987546
1.00529 1.00026 0.985796
1.00315 1.00012 0.990996
1.00529 1.00041 0.985611
1.00332 1.00004 0.990883
1.00182 0.99979 0.993411
1.00348 1.00009 0.990689
1.00128 1.00007 0.993736
1.00071 1.00088 0.997194
1.00521 0.994882 0.991076
1.00523 0.995718 0.990233
1.00522 0.994973 0.990945
1.00529 0.998956 0.987042
1.00523 0.996271 0.989562
1.00523 0.99525 0.990715
1.00528 1.00029 0.985672
1.00528 0.999356 0.986533
1.00525 0.997023 0.988894
1.00526 1.00033 0.985544
1.00513 1.00061 0.985521
1.00291 1.00091 0.988861
1.00478 1.00089 0.985847
1.00247 1.00203 0.988508
1.00109 1.00139 0.996594
1.00159 1.00315 0.988803
1.00076 1.00139 0.996781
1.00019 1.00089 0.997377
1.00528 0.994938 0.990999
1.00533 0.994892 0.990772
1.00534 0.994809 0.990934
1.00529 0.994854 0.990804
1.00526 0.995092 0.990406
1.00537 0.994828 0.990574
1.00527 0.994956 0.9912
1.00527 0.994939 0.991197
1.00531 0.994898 0.991059
1.00528 0.99494 0.991215
1.00523 0.994945 0.991344
1.0053 0.994918 0.991113
1.00526 0.994941 0.991199
1.00531 0.994948 0.991204
1.00525 0.994939 0.991079
1.0053 0.994929 0.991173
1.00535 0.99688 0.989293
1.00527 0.995021 0.991001
1.00538 0.997319 0.988764
1.00518 0.999925 0.986358
1.00536 0.997899 0.988187
1.00527 1.00006 0.986043
1.00309 1.00021 0.990966
1.0053 1.00023 0.985824
1.00333 1.00007 0.990818
1.00184 0.999868 0.993296
1.0035 0.999968 0.990726
1.0014 0.999848 0.993753
1.00083 1.00029 0.994035
1.0052 0.994936 0.991122
1.00523 0.995089 0.990952
1.0052 0.994879 0.991045
1.00533 0.997914 0.988072
1.00524 0.995783 0.990175
1.00522 0.995025 0.990899
1.00529 1.00006 0.985934
1.00529 0.998565 0.98738
1.00524 0.99597 0.989808
1.00301 1.00029 0.989329
1.00527 1.0003 0.985651
1.00528 0.999345 0.986498
1.00524 1.00052 0.985517
1.00288 1.00094 0.988872
1.00118 1.00098 0.996723
1.0023 1.00228 0.988538
1.00106 1.00136 0.996587
1.00062 1.0013 0.996938
1.00527 0.994956 0.991148
1.00528 0.994939 0.990974
1.00534 0.99489 0.990721
1.00529 0.994854 0.990809
1.00522 0.994961 0.991355
1.00527 0.994951 0.991207
1.00527 0.994935 0.991215
1.00528 0.994945 0.991209
1.00523 0.994943 0.991337
1.00528 0.995106 0.991071
1.00526 0.994942 0.991226
1.00531 0.995053 0.991105
1.00534 0.996439 0.989834
1.0053 0.994928 0.991159
1.00536 0.996869 0.989282
1.00508 0.999702 0.986732
1.00541 0.997333 0.988759
1.0052 0.999876 0.98637
1.00303 1.00032 0.989363
1.00529 1.00004 0.986063
1.00326 1.00018 0.989971
1.0016 0.999947 0.996691
1.0035 1.00002 0.99064
1.00147 0.99985 0.993648
1.00101 0.999903 0.99408
1.0052 0.994961 0.991198
1.00526 0.994966 0.991072
1.00519 0.994939 0.991151
1.00538 0.997151 0.988857
1.00525 0.995261 0.990699
1.00519 0.994875 0.991014
1.00528 0.999545 0.986485
1.00532 0.997914 0.988089
1.00524 0.995841 0.990117
1.00314 0.999903 0.989515
1.00528 0.999882 0.986082
1.00529 0.99817 0.987717
1.00132 1.00051 0.996821
1.00305 1.00023 0.989324
1.00528 1.00031 0.985627
1.00289 1.00098 0.988893
1.00122 1.00099 0.99667
1.00101 1.00133 0.996623
1.0052 0.994967 0.991284
1.00526 0.994961 0.991146
1.00529 0.99494 0.990948
1.00526 0.995151 0.991128
1.00522 0.994959 0.991329
1.00527 0.994946 0.991213
1.00524 0.994942 0.99133
1.00528 0.995156 0.991068
1.00533 0.996724 0.989514
1.00531 0.995171 0.991006
1.00534 0.996755 0.98947
1.00499 0.99909 0.987574
1.00538 0.996845 0.989272
1.00509 0.999694 0.986737
1.00295 1.00019 0.989636
1.00522 0.999832 0.986381
1.00307 1.00027 0.989373
1.0015 1.00002 0.996696
1.00329 1.00018 0.989125
1.00143 0.999965 0.995204
1.00111 0.999826 0.993998
1.00516 0.994961 0.991343
1.00526 0.994958 0.991233
1.0052 0.994963 0.991204
1.00539 0.997297 0.988713
1.00526 0.994954 0.991114
1.00519 0.994943 0.991179
1.00526 0.999375 0.986702
1.00538 0.997543 0.988456
1.00526 0.995441 0.990446
1.0032 0.999846 0.989497
1.00528 0.999505 0.986504
1.00532 0.997919 0.988105
1.00149 1.00011 0.996822
1.00317 0.999859 0.989513
1.00527 0.999702 0.986228
1.00134 1.00052 0.996789
1.00308 1.00016 0.989321
1.00118 1.00103 0.996618
1.00524 0.995208 0.991038
1.0052 0.994965 0.991307
1.00526 0.994965 0.991145
1.00532 0.996733 0.989525
1.00526 0.995196 0.991101
1.00522 0.994958 0.991303
1.00528 0.995206 0.991065
1.00532 0.996758 0.989521
1.00493 0.998907 0.98786
1.00534 0.997055 0.989106
1.00501 0.999281 0.9873
1.00287 1.00004 0.989923
1.00508 0.999682 0.986743
1.00292 1.00021 0.989646
1.00138 1.00004 0.996736
1.00308 1.00022 0.989382
1.00146 1.00004 0.996704
1.00153 0.999931 0.993417
1.00523 0.995278 0.991007
1.00517 0.99496 0.991277
1.00536 0.997069 0.989032
1.00526 0.994957 0.991244
1.00519 0.994965 0.991209
1.00521 0.999661 0.98653
1.00538 0.997313 0.988719
1.00526 0.994939 0.991155
1.00318 0.999951 0.989459
1.00525 0.999563 0.986511
1.00536 0.997939 0.988057
1.00158 0.999933 0.99676
1.00322 0.999837 0.989495
1.00527 0.999464 0.986524
1.00149 1.00015 0.996826
1.00321 0.999824 0.989509
1.00138 1.00055 0.996754
1.00532 0.996832 0.989393
1.00524 0.995247 0.991066
1.00521 0.994964 0.991329
1.00491 0.998853 0.987934
1.00532 0.996771 0.989526
1.00526 0.995244 0.991074
1.00532 0.996796 0.989528
1.00495 0.998881 0.987825
1.00275 0.999958 0.990211
1.00502 0.999473 0.987026
1.00285 1.00005 0.989933
1.00131 1.00002 0.996801
1.00292 1.00023 0.989659
1.00135 1.00006 0.996766
1.00143 1.00004 0.996723
1.00533 0.996942 0.989277
1.00523 0.995131 0.991136
1.00518 0.994959 0.991211
1.00509 0.999594 0.986838
1.00536 0.997084 0.98904
1.00525 0.994956 0.991254
1.00309 1.00003 0.98956
1.00517 0.999718 0.986527
1.00538 0.997325 0.988724
1.00156 0.999925 0.996709
1.00318 0.999966 0.989458
1.00525 0.999739 0.986322
1.00158 0.999961 0.996785
1.00323 0.999838 0.989491
1.00152 1.00016 0.99682
1.00493 0.999278 0.987417
1.00532 0.996671 0.989602
1.00524 0.995287 0.991094
1.00269 0.999869 0.990425
1.00491 0.998821 0.987928
1.00532 0.996804 0.989527
1.00498 0.998849 0.987791
1.00276 0.999931 0.990221
1.00124 1.00002 0.99685
1.00283 1.00006 0.989943
1.00128 1.00003 0.996813
1.00129 1.00008 0.996787
1.005 0.999413 0.987184
1.00533 0.996777 0.989459
1.00523 0.994968 0.991267
1.00305 1.00005 0.991227
1.00507 0.999602 0.986842
1.00536 0.997102 0.989048
1.00146 0.999961 0.996724
1.00307 1.00007 0.989557
1.00514 0.999779 0.986522
1.00158 0.999933 0.996727
1.00317 0.999984 0.989454
1.0016 0.999972 0.996807
1.00279 0.999866 0.990317
1.00493 0.999083 0.987621
1.00532 0.996507 0.989811
1.00114 0.999978 0.996928
1.00268 0.999866 0.99042
1.00493 0.998793 0.987924
1.00275 0.999905 0.990227
1.0012 1.00001 0.996879
1.00125 1.00005 0.996834
1.00299 0.999951 0.991471
1.00498 0.999418 0.987188
1.00533 0.996627 0.98964
1.00083 1.00001 0.997332
1.00292 1.00006 0.989824
1.00505 0.999603 0.986847
1.00149 0.999972 0.996722
1.00304 1.00013 0.989553
1.00161 0.999937 0.996746
1.00112 0.999935 0.994075
1.00282 0.999872 0.991005
1.00492 0.998887 0.987825
1.00116 0.999982 0.996937
1.00268 0.999868 0.990423
1.00121 0.999995 0.996901
1.00064 0.999995 0.994518
1.0029 0.999932 0.990808
1.00496 0.999427 0.987191
1.00107 1 0.995553
1.00292 1.00005 0.989848
1.00152 0.999973 0.996724
1.00116 0.999965 0.996931
1.00269 0.999861 0.990412
1.00112 0.999983 0.996936
1.00093 0.999962 0.995728
1.00279 0.999923 0.990205
1.00138 0.99999 0.996763
1.00118 0.999966 0.996932
1.00124 0.999975 0.99686

TENSORS stress float
0.00230784 -0.000159548 0.000267521
-0.000159548 0.00112379 -4.63618e-05
0.000267521 -4.63618e-05 0.00109739
0.00718139 7.57074e-05 0.000312298
7.57074e-05 0.00420764 3.6044e-05
0.000312298 3.6044e-05 0.00421495
0.00192169 -8.96308e-05 0.000111415
-8.96308e-05 0.000878468 -1.80758e-05
0.000111415 -1.80758e-05 0.000839836
0.00226345 -9.01663e-05 0.000257876
-9.01663e-05 0.00107188 -2.64562e-05
0.000257876 -2.64562e-05 0.0010553
0.00232986 -0.000140067 0.00026114
-0.000140067 0.00112775 -4.0829e-05
0.00026114 -4.0829e-05 0.00110486
0.00231009 -0.000164296 0.000279292
-0.000164296 0.0011258 -4.81034e-05
0.000279292 -4.81034e-05 0.00109957
0.00189373 -0.000153008 5.30122e-05
-0.000153008 0.000761966 -1.48052e-05
5.30122e-05 -1.48052e-05 0.000643775
0.00711292 6.74619e-05 -7.85065e-06
6.74619e-05 0.00415604 -1.79336e-06
-7.85065e-06 -1.79336e-06 0.00416802
0.00666037 0.000224923 0.000154405
0.000224923 0.00387546 1.56147e-05
0.000154405 1.56147e-05 0.00384794
0.00668682 -9.03949e-06 8.96487e-05
-9.03949e-06 0.00387125 4.69878e-06
8.96487e-05 4.69878e-06 0.00385177
0.00202907 0.000209012 0.000288114
0.000209012 0.000956837 3.87131e-05
0.000288114 3.87131e-05 0.000945603
0.000368647 0.000262152 2.65762e-05
0.000262152 -0.000160593 2.04238e-05
2.65762e-05 2.04238e-05 -0.000304914
0.00184529 -3.26933e-05 0.000251412
-3.26933e-05 0.00080839 4.12944e-06
0.000251412 4.12944e-06 0.000810163
0.00153944 3.48442e-06 6.69355e-05
3.48442e-06 0.000635972 1.94701e-06
6.69355e-05 1.94701e-06 0.00058816
0.00162027 -8.88057e-05 -6.02436e-05
-8.88057e-05 0.000700074 1.11631e-05
-6.02436e-05 1.11631e-05 0.000643226
0.00191742 -8.98163e-05 8.38452e-05
-8.98163e-05 0.000871362 -5.28444e-06
8.38452e-05 -5.28444e-06 0.000835972
0.00193805 -7.83481e-05 0.000121609
-7.83481e-05 0.00089344 -1.95141e-05
0.000121609 -1.95141e-05 0.000850919
0.00192345 -9.59812e-05 9.94009e-05
-9.59812e-05 0.000873694 -1.38854e-05
9.94009e-05 -1.38854e-05 0.000837969
0.00198083 -0.000189239 -4.22046e-05
-0.000189239 0.000815486 6.3241e-06
-4.22046e-05 6.3241e-06 0.000706485
0.00625642 -0.000149103 0.000327786
-0.000149103 0.00362998 -1.45889e-05
0.000327786 -1.45889e-05 0.0036496
0.00221389 -6.69622e-05 0.000254906
-6.69622e-05 0.00104184 -1.9623e-05
0.000254906 -1.9623e-05 0.00102864
0.00232356 -0.000115939 0.00025943
-0.000115939 0.00111469 -3.39523e-05
0.00025943 -3.39523e-05 0.00109523
0.00185936 -0.000143517 7.2387e-05
-0.000143517 0.000741189 -1.12614e-05
7.2387e-05 -1.12614e-05 0.000639729
0.00188704 -0.000155309 6.13873e-05
-0.000155309 0.000751365 -1.43543e-05
6.13873e-05 -1.43543e-05 0.000641929
0.0022596 -0.000143768 0.00028374
-0.000143768 0.00108295 -4.51014e-05
0.00028374 -4.51014e-05 0.00105894
0.00189669 -0.000152239 4.68245e-05
-0.000152239 0.000784099 -1.50671e-05
4.68245e-05 -1.50671e-05 0.00065314
0.00207718 -0.000347377 1.99872e-05
-0.000347377 0.000632611 -8.59456e-06
1.99872e-05 -8.59456e-06 0.00040591
0.00707518 5.14005e-05 -0.000311295
5.14005e-05 0.00412139 -2.64472e-05
-0.000311295 -2.64472e-05 0.00413792
0.00434498 0.000165826 -0.000150137
0.000165826 0.00240672 -1.72911e-05
-0.000150137 -1.72911e-05 0.0023838
0.00437012 8.35922e-05 -0.000151366
8.35922e-05 0.00242859 -1.56148e-05
-0.000151366 -1.56148e-05 0.00240733
0.00700845 -6.51901e-06 -3.2352e-06
-6.51901e-06 0.00410028 -6.21793e-07
-3.2352e-06 -6.21793e-07 0.00410847
0.00040509 0.000245887 -8.82701e-07
0.000245887 -0.000135796 -1.31078e-06
-8.82701e-07 -1.31078e-06 -0.000280216
0.00191468 7.1541e-05 0.000261704
7.1541e-05 0.000851209 2.49204e-05
0.000261704 2.49204e-05 0.00083929
0.00203969 0.000162124 0.000268827
0.000162124 0.00096355 3.84709e-05
0.000268827 3.84709e-05 0.000939191
0.00285879 0.000218173 0.0001604
0.000218173 0.00135609 2.3757e-05
0.0001604 2.3757e-05 0.00127019
0.00613544 -0.000280873 1.93279e-05
-0.000280873 0.00361274 4.46497e-06
1.93279e-05 4.46497e-06 0.00356021
0.00297795 0.000296881 0.000168934
0.000296881 0.00147397 2.957e-05
0.000168934 2.957e-05 0.00137095
0.000404391 0.000231922 2.615e-05
0.000231922 -0.000129947 2.7868e-05
2.615e-05 2.7868e-05 -0.000274665
0.000888489 0.00028038 1.56513e-05
0.00028038 -1.01801e-05 6.23645e-06
1.56513e-05 6.23645e-06 -0.000244859
0.00499046 -0.000113055 0.000188102
-0.000113055 0.00289242 1.89419e-05
0.000188102 1.89419e-05 0.0028884
0.00623977 8.47253e-05 3.27011e-06
8.47253e-05 0.00360543 -1.93859e-06
3.27011e-06 -1.93859e-06 0.00363275
0.00409946 9.44789e-05 -0.000125779
9.44789e-05 0.00224873 -5.91016e-06
-0.000125779 -5.91016e-06 0.00223752
0.00608272 5.79616e-05 0.000318327
5.79616e-05 0.00350941 4.47349e-06
0.000318327 4.47349e-06 0.00353754
0.00144931 8.90128e-05 6.80845e-05
8.90128e-05 0.000584833 4.50829e-06
6.80845e-05 4.50829e-06 0.000542256
0.000486116 1.20585e-05 1.49462e-05
1.20585e-05 -0.000149916 1.68175e-06
1.49462e-05 1.68175e-06 -0.00023834
0.00649788 0.00023969 0.000185277
0.00023969 0.00379558 1.8126e-05
0.000185277 1.8126e-05 0.00376971
0.00287897 7.9882e-05 0.000150601
7.9882e-05 0.00134701 9.65262e-06
0.000150601 9.65262e-06 0.00128689
0.00150107 -9.02348e-05 -8.15711e-05
-9.02348e-05 0.000627269 1.05877e-05
-8.15711e-05 1.05877e-05 0.000572586
0.00153204 -0.000115399 -7.34499e-05
-0.000115399 0.000651299 1.33798e-05
-7.34499e-05 1.33798e-05 0.000592241
0.00168005 -4.68115e-05 -4.79663e-05
-4.68115e-05 0.00073156 9.26789e-06
-4.79663e-05 9.26789e-06 0.000674603
0.00202538 -0.000191094 -0.000144646
-0.000191094 0.000834518 2.74544e-05
-0.000144646 2.74544e-05 0.000737574
0.00392411 -2.43464e-05 -0.000127666
-2.43464e-05 0.00214991 -1.56398e-06
-0.000127666 -1.56398e-06 0.00213873
0.00185339 -6.95594e-05 8.87592e-05
-6.95594e-05 0.000829239 -4.16301e-06
8.87592e-05 -4.16301e-06 0.000798448
0.00199408 -5.63075e-05 0.000128311
-5.63075e-05 0.000926575 -1.89756e-05
0.000128311 -1.89756e-05 0.000881567
0.00192644 -9.35225e-05 9.02344e-05
-9.35225e-05 0.000874326 -9.1136e-06
9.02344e-05 -9.1136e-06 0.00083921
0.00193355 -0.000121442 -3.41676e-05
-0.000121442 0.000776975 2.48725e-06
-3.41676e-05 2.48725e-06 0.000687793
0.00198792 -0.000194211 -4.95271e-05
-0.000194211 0.000833112 7.30797e-06
-4.95271e-05 7.30797e-06 0.000715314
0.00197268 -0.000172225 -3.65884e-05
-0.000172225 0.000803899 4.52854e-06
-3.65884e-05 4.52854e-06 0.000702988
0.00209826 -0.000349608 -1.04344e-05
-0.000349608 0.000643167 2.7312e-06
-1.04344e-05 2.7312e-06 0.000417071
0.00606727 1.08427e-06 0.000314409
1.08427e-06 0.00349749 -2.74286e-06
0.000314409 -2.74286e-06 0.00352691
0.00211498 -4.15075e-05 0.000249075
-4.15075e-05 0.000983625 -1.35041e-05
0.000249075 -1.35041e-05 0.000974321
0.00245015 -1.21763e-05 5.36486e-05
-1.21763e-05 0.00110648 -9.96486e-07
5.36486e-05 -9.96486e-07 0.00103673
0.0018184 -0.000116431 6.50873e-05
-0.000116431 0.000714084 -7.39945e-06
6.50873e-05 -7.39945e-06 0.000622031
0.00188011 -0.000151115 6.83891e-05
-0.000151115 0.000750096 -1.33948e-05
6.83891e-05 -1.33948e-05 0.000644846
0.00193773 -0.000226249 8.61067e-06
-0.000226249 0.000467437 -2.86369e-06
8.61067e-06 -2.86369e-06 0.000294378
0.00194513 -0.000303805 1.64115e-05
-0.000303805 0.000509378 -6.13603e-06
1.64115e-05 -6.13603e-06 0.000306672
0.00190715 -9.93079e-05 0.000254267
-9.93079e-05 0.000866679 -3.67295e-05
0.000254267 -3.67295e-05 0.000846764
0.00193639 -0.000119144 3.70534e-05
-0.000119144 0.00082373 -1.40898e-05
3.70534e-05 -1.40898e-05 0.000688947
0.0020651 -0.000378718 2.20872e-05
-0.000378718 0.000671449 -9.52888e-06
2.20872e-05 -9.52888e-06 0.000424143
0.0017637 -0.000458172 7.48015e-06
-0.000458172 0.00020117 -8.02066e-07
7.48015e-06 -8.02066e-07 -7.21908e-05
0.00706062 0.000280574 -0.000358478
0.000280574 0.00412628 -4.13218e-05
-0.000358478 -4.13218e-05 0.00413253
0.00685544 -3.53616e-05 -0.000276434
-3.53616e-05 0.00400618 -2.10516e-05
-0.000276434 -2.10516e-05 0.00401605
0.0070356 0.000130353 -0.00032773
0.000130353 0.004093 -3.15892e-05
-0.00032773 -3.15892e-05 0.00411115
0.00041059 0.000237186 -2.55159e-05
0.000237186 -0.000126072 -2.07499e-05
-2.55159e-05 -2.07499e-05 -0.000273192
0.00693525 0.0002493 -2.32605e-06
0.0002493 0.00404205 -2.45745e-06
-2.32605e-06 -2.45745e-06 0.00405349
0.00707204 0.00023366 -9.08051e-06
0.00023366 0.004125 -3.18752e-06
-9.08051e-06 -3.18752e-06 0.00413446
0.000345437 0.0001366 3.75208e-07
0.0001366 -0.000233703 -2.70033e-07
3.75208e-07 -2.70033e-07 -0.000352824
0.00382716 -8.26313e-05 -0.000124054
-8.26313e-05 0.00213392 -5.69805e-06
-0.000124054 -5.69805e-06 0.00210185
0.000322919 0.000214625 7.49428e-07
0.000214625 -0.000199117 -5.50025e-07
7.49428e-07 -5.50025e-07 -0.00033806
0.00178822 0.00024379 6.11152e-05
0.00024379 0.000746915 3.76523e-06
6.11152e-05 3.76523e-06 0.000626463
0.000890462 0.000278343 7.38332e-07
0.000278343 -6.48264e-07 2.76302e-07
7.38332e-07 2.76302e-07 -0.000233864
0.00576254 -0.000139137 0.000212722
-0.000139137 0.00339157 2.63661e-05
0.000212722 2.63661e-05 0.00337438
0.000607423 7.88473e-05 1.8888e-05
7.88473e-05 5.42034e-05 1.40782e-05
1.8888e-05 1.40782e-05 -2.51781e-05
0.000457263 0.00010627 1.47884e-05
0.00010627 -0.000181115 1.09382e-05
1.47884e-05 1.09382e-05 -0.000293593
0.000459043 0.000165913 1.94924e-05
0.000165913 -0.000148919 1.86533e-05
1.94924e-05 1.86533e-05 -0.000276074
0.00121709 0.000271006 1.55563e-05
0.000271006 1.95148e-05 5.86535e-06
1.55563e-05 5.86535e-06 -0.000191408
0.00310623 0.000232793 0.000151796
0.000232793 0.00158914 2.19897e-05
0.000151796 2.19897e-05 0.00150504
0.000992124 0.000296454 1.97253e-05
0.000296454 -8.0173e-06 7.24106e-06
1.97253e-05 7.24106e-06 -0.00024213
0.000868662 0.000277915 1.39276e-05
0.000277915 8.37001e-05 5.65265e-06
1.39276e-05 5.65265e-06 -0.000156596
0.00136393 0.000464086 4.27656e-06
0.000464086 0.000165708 -2.51957e-06
4.27656e-06 -2.51957e-06 -0.000156819
0.00393882 -0.000128554 0.000121569
-0.000128554 0.00221282 8.80978e-06
0.000121569 8.80978e-06 0.0022095
0.00449446 -0.000171922 2.50947e-05
-0.000171922 0.00258727 -6.88781e-07
2.50947e-05 -6.88781e-07 0.00257002
0.00674159 6.6998e-05 -0.000338991
6.6998e-05 0.00390408 -1.74033e-05
-0.000338991 -1.74033e-05 0.00393001
0.0063319 7.60522e-05 -0.000329142
7.60522e-05 0.00365943 -1.05856e-05
-0.000329142 -1.05856e-05 0.00368784
0.00617691 8.38943e-05 -2.18261e-08
8.38943e-05 0.00357346 -3.95556e-06
-2.18261e-08 -3.95556e-06 0.00359852
0.00393179 3.59748e-05 -0.000136539
3.59748e-05 0.00214483 -7.40166e-06
-0.000136539 -7.40166e-06 0.00213912
0.00159178 3.96156e-05 6.50797e-05
3.96156e-05 0.000548767 1.8193e-06
6.50797e-05 1.8193e-06 0.000478757
0.00428029 0.000154817 -0.000129012
0.000154817 0.00236763 -7.81659e-06
-0.000129012 -7.81659e-06 0.00234807
0.00164238 9.47277e-05 6.66142e-05
9.47277e-05 0.000571169 3.35671e-06
6.66142e-05 3.35671e-06 0.000489074
0.00611976 0.000118777 0.000320845
0.000118777 0.00354638 7.32286e-06
0.000320845 7.32286e-06 0.0035666
0.000384864 1.03455e-05 1.82143e-05
1.03455e-05 -0.000208613 7.6729e-07
1.82143e-05 7.6729e-07 -0.000293175
0.00280594 4.1799e-05 0.000147339
4.1799e-05 0.00130778 6.40765e-06
0.000147339 6.40765e-06 0.00125413
0.00112394 6.98603e-05 1.14205e-05
6.98603e-05 -4.64259e-05 6.46249e-07
1.14205e-05 6.46249e-07 -0.000180811
0.00280539 0.000125955 0.000155794
0.000125955 0.00130169 1.32562e-05
0.000155794 1.32562e-05 0.00123403
0.00122884 0.000155151 9.32796e-06
0.000155151 -2.02174e-05 1.36927e-06
9.32796e-06 1.36927e-06 -0.000179194
0.0018643 4.13301e-05 -0.000250383
4.13301e-05 0.000818282 3.32751e-06
-0.000250383 3.32751e-06 0.000822412
0.00144876 -2.04536e-05 -6.6844e-05
-2.04536e-05 0.000586977 3.13675e-06
-6.6844e-05 3.13675e-06 0.000539066
0.0016795 -1.73651e-05 -4.21158e-05
-1.73651e-05 0.000730703 8.79952e-06
-4.21158e-05 8.79952e-06 0.000671644
0.0015017 -0.000107054 -8.25839e-05
-0.000107054 0.000630772 1.31266e-05
-8.25839e-05 1.31266e-05 0.000573933
0.00206914 -0.000100191 -0.000135753
-0.000100191 0.000851437 1.31815e-05
-0.000135753 1.31815e-05 0.000774535
0.00206713 -0.000158408 -0.000139843
-0.000158408 0.000850712 2.31468e-05
-0.000139843 2.31468e-05 0.000763267
0.00202352 -0.000210314 -0.000150124
-0.000210314 0.000848914 2.92058e-05
-0.000150124 2.92058e-05 0.000742753
0.00212612 -0.000352068 -3.62131e-05
-0.000352068 0.000659413 1.27873e-05
-3.62131e-05 1.27873e-05 0.000434019
0.00616242 -0.000109399 2.3927e-06
-0.000109399 0.0035702 -1.93861e-06
2.3927e-06 -1.93861e-06 0.00359167
0.00175659 2.64495e-05 9.56105e-05
2.64495e-05 0.000761471 -4.86479e-06
9.56105e-05 -4.86479e-06 0.000739998
0.00116691 -1.26011e-05 -6.81389e-05
-1.26011e-05 0.00028645 2.19357e-06
-6.81389e-05 2.19357e-06 0.000215786
0.00187928 -8.01384e-05 -3.73211e-05
-8.01384e-05 0.000743701 3.14987e-06
-3.73211e-05 3.14987e-06 0.000662213
0.00455555 -5.68794e-05 0.00026334
-5.68794e-05 0.00255234 -1.93048e-05
0.00026334 -1.93048e-05 0.0025462
0.00256402 -0.000204434 -4.58837e-05
-0.000204434 0.00120874 4.46793e-06
-4.58837e-05 4.46793e-06 0.00108682
0.0019657 -0.000147909 -3.38509e-05
-0.000147909 0.000797738 3.21994e-06
-3.38509e-05 3.21994e-06 0.000703158
0.00200255 -0.000226467 -9.593e-06
-0.000226467 0.000504039 1.77146e-06
-9.593e-06 1.77146e-06 0.000334981
0.00209484 -0.000384873 -8.88023e-06
-0.000384873 0.000688981 2.44064e-06
-8.88023e-06 2.44064e-06 0.00044063
0.00202573 -0.000307211 -9.17885e-06
-0.000307211 0.000560581 2.40886e-06
-9.17885e-06 2.40886e-06 0.00035623
0.0018149 -0.000461132 9.48182e-07
-0.000461132 0.000234839 -1.85825e-07
9.48182e-07 -1.85825e-07 -3.81974e-05
0.000419203 8.95757e-06 1.89856e-05
8.95757e-06 -0.00019049 -6.03559e-07
1.89856e-05 -6.03559e-07 -0.000271458
0.00172249 -7.52042e-06 5.54505e-05
-7.52042e-06 0.000643454 -2.73565e-06
5.54505e-05 -2.73565e-06 0.000565273
0.00187478 -7.52576e-05 9.50271e-06
-7.52576e-05 0.000431539 -2.89381e-07
9.50271e-06 -2.89381e-07 0.000312321
0.00184909 -0.00017746 9.69678e-06
-0.00017746 0.000403043 -1.2358e-06
9.69678e-06 -1.2358e-06 0.000252053
0.00195513 -0.000265829 1.18411e-05
-0.000265829 0.000488886 -4.0723e-06
1.18411e-05 -4.0723e-06 0.000305497
0.00194579 -0.000321409 -3.5962e-07
-0.000321409 0.00017861 -2.06716e-07
-3.5962e-07 -2.06716e-07 -3.57939e-07
0.00648878 8.45408e-05 0.000237257
8.45408e-05 0.00380011 -1.89941e-05
0.000237257 -1.89941e-05 0.00379925
0.00175632 -0.000420062 4.95339e-06
-0.000420062 0.000140797 -6.30516e-07
4.95339e-06 -6.30516e-07 -0.000100517
0.000189392 -0.00018907 2.01688e-05
-0.00018907 -0.000277838 -2.24448e-05
2.01688e-05 -2.24448e-05 -0.000405925
0.000963702 -0.000303086 1.67598e-05
-0.000303086 4.21105e-05 -9.65288e-06
1.67598e-05 -9.65288e-06 -0.000208576
0.00188463 -0.000513695 1.11537e-05
-0.000513695 0.000342453 -1.39419e-06
1.11537e-05 -1.39419e-06 2.79355e-05
0.00197376 -0.000530079 2.56982e-06
-0.000530079 0.000227704 2.30385e-06
2.56982e-06 2.30385e-06 -3.0221e-05
0.000454074 -0.000158153 2.26493e-05
-0.000158153 -7.41136e-05 -1.79215e-05
2.26493e-05 -1.79215e-05 -0.000182492
0.000719123 -0.000146087 -6.08346e-07
-0.000146087 0.000141315 -1.01321e-06
-6.08346e-07 -1.01321e-06 -0.00010736
0.00702006 0.000273951 -0.000366007
0.000273951 0.00410142 -3.8831e-05
-0.000366007 -3.8831e-05 0.00410957
0.00708143 0.000222898 -0.000346007
0.000222898 0.00412891 -3.80922e-05
-0.000346007 -3.80922e-05 0.00414219
0.000332573 0.000134648 -1.83139e-05
0.000134648 -0.000243363 -1.34576e-05
-1.83139e-05 -1.34576e-05 -0.000362853
0.0061263 -0.000110555 -0.000221609
-0.000110555 0.0035827 -1.6559e-05
-0.000221609 -1.6559e-05 0.0035808
0.000269463 0.000207648 -2.29253e-05
0.000207648 -0.000214461 -2.14508e-05
-2.29253e-05 -2.14508e-05 -0.000343299
0.00035548 0.000204428 -2.14178e-05
0.000204428 -0.000177456 -1.86689e-05
-2.14178e-05 -1.86689e-05 -0.000317772
0.000912751 0.000277446 -1.73348e-05
0.000277446 1.86147e-05 -6.83328e-06
-1.73348e-05 -6.83328e-06 -0.000213579
0.00555812 -0.000120568 -4.56004e-06
-0.000120568 0.00324463 1.35764e-06
-4.56004e-06 1.35764e-06 0.00323835
0.000508968 6.29543e-05 1.79598e-06
6.29543e-05 -4.54646e-06 3.66583e-07
1.79598e-06 3.66583e-07 -8.05771e-05
0.00168285 0.000149419 6.87443e-05
0.000149419 0.000596367 6.16001e-06
6.87443e-05 6.16001e-06 0.000499868
0.00167297 0.000212926 7.04431e-05
0.000212926 0.000625325 7.13116e-06
7.04431e-05 7.13116e-06 0.0005128
0.00118969 0.000270113 7.36709e-09
0.000270113 7.65858e-06 -3.23049e-07
7.36709e-09 -3.23049e-07 -0.000204232
0.000427015 0.000181429 -3.07122e-07
0.000181429 -9.8083e-05 -3.97376e-07
-3.07122e-07 -3.97376e-07 -0.000210326
0.00101946 0.000295212 1.45947e-06
0.000295212 1.40425e-05 7.47547e-08
1.45947e-06 7.47547e-08 -0.000219211
0.000797035 0.000261547 4.25446e-07
0.000261547 3.22647e-05 -1.01044e-06
4.25446e-07 -1.01044e-06 -0.00020185
0.00150718 0.000486736 -4.41285e-07
0.000486736 0.000242823 -4.40371e-07
-4.41285e-07 -4.40371e-07 -8.33463e-05
0.000428336 0.00013776 1.93029e-05
0.00013776 -7.36943e-05 1.71021e-05
1.93029e-05 1.71021e-05 -0.000175611
0.000616309 2.43936e-05 1.06449e-05
2.43936e-05 7.30198e-05 1.292e-05
1.06449e-05 1.292e-05 1.24317e-05
0.00139971 0.000222052 4.96024e-06
0.000222052 0.000592985 3.23918e-06
4.96024e-06 3.23918e-06 0.000368196
0.00124295 0.000236227 1.1472e-05
0.000236227 8.54649e-07 4.1637e-06
1.1472e-05 4.1637e-06 -0.000192538
0.0011617 0.000296659 1.94865e-05
0.000296659 3.57632e-05 7.19147e-06
1.94865e-05 7.19147e-06 -0.000190852
0.0019606 0.000450294 3.93109e-06
0.000450294 0.000248099 -2.46035e-07
3.93109e-06 -2.46035e-07 2.43861e-06
0.000623891 0.000225907 1.02267e-05
0.000225907 2.51223e-07 5.67126e-06
1.02267e-05 5.67126e-06 -0.000227045
0.00190585 0.00053012 5.40608e-06
0.00053012 0.000381432 -1.49085e-06
5.40608e-06 -1.49085e-06 7.17643e-05
0.00123805 0.000441083 1.84922e-06
0.000441083 0.000195912 -3.09893e-06
1.84922e-06 -3.09893e-06 -0.00014153
0.00158517 0.000565352 -5.87286e-06
0.000565352 0.000190404 -5.50168e-06
-5.87286e-06 -5.50168e-06 -0.000151716
0.00347567 -0.000135561 7.99746e-05
-0.000135561 0.00191258 4.93058e-06
7.99746e-05 4.93058e-06 0.00190788
0.00386991 -0.000168689 1.58423e-05
-0.000168689 0.0021771 -1.0181e-06
1.58423e-05 -1.0181e-06 0.00216312
0.00433345 -0.000214984 -9.08968e-05
-0.000214984 0.00249142 -8.09055e-06
-9.08968e-05 -8.09055e-06 0.00246356
0.000543293 -0.000145876 2.21091e-05
-0.000145876 1.99212e-06 -1.5781e-05
2.21091e-05 -1.5781e-05 -9.2953e-05
0.00589127 0.0001328 0.000197923
0.0001328 0.00345785 -1.90518e-05
0.000197923 -1.90518e-05 0.00344501
0.00694224 0.000228808 -0.000364335
0.000228808 0.00404584 -3.20242e-05
-0.000364335 -3.20242e-05 0.00406091
0.00644114 0.000100245 -0.000332846
0.000100245 0.00372396 -1.49188e-05
-0.000332846 -1.49188e-05 0.00375073
0.000390173 9.92492e-05 -1.87915e-05
9.92492e-05 -0.00021728 -5.73836e-06
-1.87915e-05 -5.73836e-06 -0.000317358
0.000358942 4.31568e-05 -1.85986e-05
4.31568e-05 -0.000224087 -2.71203e-06
-1.85986e-05 -2.71203e-06 -0.00031322
0.0061199 -4.63988e-06 -0.000316285
-4.63988e-06 0.00352859 -2.83066e-06
-0.000316285 -2.83066e-06 0.00355814
0.00605828 3.76864e-06 -8.38721e-08
3.76864e-06 0.00349144 -1.09263e-06
-8.38721e-08 -1.09263e-06 0.00352115
0.000361643 7.83681e-07 1.52433e-08
7.83681e-07 -0.000225915 2.04128e-07
1.52433e-08 2.04128e-07 -0.000308727
0.00157384 4.16545e-05 6.56624e-05
4.16545e-05 0.00053165 3.18138e-06
6.56624e-05 3.18138e-06 0.000458708
0.00108259 7.32699e-05 1.01563e-07
7.32699e-05 -7.67081e-05 -9.33472e-08
1.01563e-07 -9.33472e-08 -0.000212225
0.000374208 8.76044e-05 -7.1679e-07
8.76044e-05 -0.000230683 -3.96823e-07
-7.1679e-07 -3.96823e-07 -0.000337792
0.00119801 0.000156296 -3.76414e-08
0.000156296 -3.80453e-05 -2.00907e-07
-3.76414e-08 -2.00907e-07 -0.000198276
0.00036035 -3.20601e-05 1.87622e-05
-3.20601e-05 -0.000227824 -8.70569e-07
1.87622e-05 -8.70569e-07 -0.000307746
0.001078 3.06959e-05 1.09756e-05
3.06959e-05 -6.4255e-05 2.28356e-07
1.09756e-05 2.28356e-07 -0.000192863
0.00114583 0.000113398 1.04107e-05
0.000113398 -4.94228e-05 1.19637e-06
1.04107e-05 1.19637e-06 -0.000194678
0.00187017 0.00011572 1.20701e-06
0.00011572 4.40728e-05 -3.79815e-07
1.20701e-06 -3.79815e-07 -5.38164e-05
0.00125713 0.000194891 9.02862e-06
0.000194891 -5.72799e-06 2.54055e-06
9.02862e-06 2.54055e-06 -0.000181065
0.00205388 0.000269046 3.47922e-07
0.000269046 0.000174226 -8.53497e-07
3.47922e-07 -8.53497e-07 3.22154e-05
0.00607969 -7.10342e-05 -0.000319993
-7.10342e-05 0.0035123 3.63514e-06
-0.000319993 3.63514e-06 0.00353779
0.00140176 -0.000159073 -6.76225e-05
-0.000159073 0.000576492 8.33123e-06
-6.76225e-05 8.33123e-06 0.000523119
-0.000237199 -7.49833e-06 -1.18072e-05
-7.49833e-06 -0.000594771 1.63094e-06
-1.18072e-05 1.63094e-06 -0.000691986
0.00199524 -7.14818e-05 -0.000133746
-7.14818e-05 0.000809479 9.12703e-06
-0.000133746 9.12703e-06 0.000738038
0.00691022 0.000244484 -3.93749e-05
0.000244484 0.00405954 3.54491e-06
-3.93749e-05 3.54491e-06 0.00401245
0.00316881 -0.000286696 -0.000156027
-0.000286696 0.00158781 3.04706e-05
-0.000156027 3.04706e-05 0.00147167
0.00207845 -0.000127853 -0.00013755
-0.000127853 0.000855763 1.81219e-05
-0.00013755 1.81219e-05 0.000774562
0.00205501 -0.000226217 -2.92889e-05
-0.000226217 0.000532912 5.52481e-06
-2.92889e-05 5.52481e-06 0.000368053
0.00208105 -0.00030915 -3.24991e-05
-0.00030915 0.000594449 1.10475e-05
-3.24991e-05 1.10475e-05 0.000388819
0.00210567 -0.000387799 -3.72189e-05
-0.000387799 0.000694237 1.37068e-05
-3.72189e-05 1.37068e-05 0.000445829
0.00186192 -0.000463957 -6.08723e-06
-0.000463957 0.000265231 6.29417e-07
-6.08723e-06 6.29417e-07 -7.50134e-06
0.000361802 3.98085e-06 -4.95188e-09
3.98085e-06 -0.000224622 3.52064e-07
-4.95188e-09 3.52064e-07 -0.000306586
0.00185404 -9.00924e-05 -3.56644e-05
-9.00924e-05 0.000733599 5.34416e-07
-3.56644e-05 5.34416e-07 0.000656826
0.00153066 -7.0898e-05 -1.13383e-05
-7.0898e-05 0.000213811 7.47016e-07
-1.13383e-05 7.47016e-07 9.04351e-05
0.00193274 -0.000178982 -9.64331e-06
-0.000178982 0.000454765 1.55026e-06
-9.64331e-06 1.55026e-06 0.000301724
0.00671503 8.36223e-05 4.99431e-06
8.36223e-05 0.00394448 4.33236e-07
4.99431e-06 4.33236e-07 0.00394157
0.00178624 -0.000199026 6.42601e-06
-0.000199026 0.000741068 7.74357e-07
6.42601e-06 7.74357e-07 0.000603332
0.00135928 -0.0003313 1.17062e-06
-0.0003313 0.000289141 -1.24661e-06
1.17062e-06 -1.24661e-06 3.68638e-05
0.00199734 -0.000268805 -9.53181e-06
-0.000268805 0.000512601 2.51208e-06
-9.53181e-06 2.51208e-06 0.000328506
0.0020398 -0.000328595 1.0803e-07
-0.000328595 0.000234487 -1.67716e-07
1.0803e-07 -1.67716e-07 6.15208e-05
0.00187381 -0.00051277 9.72304e-07
-0.00051277 0.000337151 -1.78124e-07
9.72304e-07 -1.78124e-07 2.41926e-05
0.00187334 -0.000424435 4.59194e-07
-0.000424435 0.00021805 -2.63373e-07
4.59194e-07 -2.63373e-07 -2.39096e-05
0.00201544 -0.000531742 8.70214e-07
-0.000531742 0.000258524 1.67277e-07
8.70214e-07 1.67277e-07 6.2997e-07
0.000455559 -0.000171678 1.95781e-06
-0.000171678 -7.89227e-05 4.14705e-07
1.95781e-06 4.14705e-07 -0.000186831
0.000696466 -0.000192493 1.53735e-06
-0.000192493 0.00012037 4.15406e-07
1.53735e-06 4.15406e-07 -0.000121871
0.00107793 -3.50841e-05 1.12599e-05
-3.50841e-05 -6.03545e-05 -5.21116e-07
1.12599e-05 -5.21116e-07 -0.00018913
0.00194267 -0.000123675 8.82443e-06
-0.000123675 0.000470322 -5.80269e-07
8.82443e-06 -5.80269e-07 0.000338525
0.00183671 -0.000124792 1.50036e-06
-0.000124792 5.31098e-05 -2.03686e-08
1.50036e-06 -2.03686e-08 -5.70256e-05
0.00188587 -0.000263908 -1.0452e-08
-0.000263908 0.00010316 7.33289e-07
-1.0452e-08 7.33289e-07 -3.72331e-05
0.00187208 -0.000378974 2.06569e-07
-0.000378974 0.00016347 2.47945e-07
2.06569e-07 2.47945e-07 -4.21456e-05
0.00209329 -0.00036809 3.21638e-06
-0.00036809 0.000163781 -9.07349e-07
3.21638e-06 -9.07349e-07 2.55929e-05
0.000311243 -0.000175802 2.01979e-05
-0.000175802 -0.000178909 -2.13802e-05
2.01979e-05 -2.13802e-05 -0.000300827
0.00201098 -0.000487643 1.26132e-06
-0.000487643 0.000198999 1.49251e-06
1.26132e-06 1.49251e-06 -1.51879e-05
0.000679354 -0.000260623 1.16535e-05
-0.000260623 -4.23429e-05 -9.30495e-06
1.16535e-05 -9.30495e-06 -0.000285166
0.00158389 -0.000534665 1.34557e-05
-0.000534665 0.000243908 -1.91229e-06
1.34557e-05 -1.91229e-06 -0.000110685
0.00220071 -0.000595501 3.74645e-06
-0.000595501 0.000440512 1.35001e-06
3.74645e-06 1.35001e-06 0.000124799
0.00229191 -0.000569642 1.70572e-07
-0.000569642 0.000393668 3.77831e-06
1.70572e-07 3.77831e-06 0.000164476
0.000452513 -0.000205229 9.4172e-07
-0.000205229 -5.43844e-05 -4.58977e-06
9.4172e-07 -4.58977e-06 -0.000312799
0.000869189 -0.00013296 -3.30647e-07
-0.00013296 0.000261824 -1.46372e-06
-3.30647e-07 -1.46372e-06 3.97365e-05
0.000850399 -0.000269639 -7.6879e-07
-0.000269639 0.000199693 2.11718e-06
-7.6879e-07 2.11718e-06 -9.4388e-05
0.000346471 0.000112148 -1.72971e-05
0.000112148 -0.000246265 -1.04082e-05
-1.72971e-05 -1.04082e-05 -0.000360081
0.00506077 -0.000169232 -0.000154167
-0.000169232 0.00294147 -1.22963e-05
-0.000154167 -1.22963e-05 0.00292549
0.000379422 5.10228e-05 -1.40204e-05
5.10228e-05 -8.42986e-05 -1.38072e-05
-1.40204e-05 -1.38072e-05 -0.000153752
0.000301443 0.000164873 -1.97659e-05
0.000164873 -0.000238917 -1.65388e-05
-1.97659e-05 -1.65388e-05 -0.000367126
0.00115559 0.000269123 -1.65909e-05
0.000269123 -9.04991e-06 -6.44333e-06
-1.65909e-05 -6.44333e-06 -0.000221921
0.000398848 0.000172197 -2.2933e-05
0.000172197 -0.000118386 -1.95618e-05
-2.2933e-05 -1.95618e-05 -0.000229198
0.000636382 0.000242999 -1.241e-05
0.000242999 -6.83225e-05 -7.53912e-06
-1.241e-05 -7.53912e-06 -0.000296433
0.0010726 0.000294728 -2.07401e-05
0.000294728 5.38018e-05 -8.33789e-06
-2.07401e-05 -8.33789e-06 -0.000178336
0.00162238 0.000506326 -5.95469e-06
0.000506326 0.000301808 1.16241e-06
-5.95469e-06 1.16241e-06 -2.717e-05
0.000482119 0.000136671 -1.67878e-06
0.000136671 -4.80128e-05 1.40289e-06
-1.67878e-06 1.40289e-06 -0.000142031
0.00044509 2.21334e-06 1.0191e-06
2.21334e-06 -2.61316e-05 4.64498e-07
1.0191e-06 4.64498e-07 -8.60531e-05
0.000720783 0.000144708 2.19255e-06
0.000144708 0.000150615 -5.3463e-07
2.19255e-06 -5.3463e-07 -5.62718e-05
0.00121649 0.000235889 -1.48759e-07
0.000235889 -1.02485e-05 -3.02921e-07
-1.48759e-07 -3.02921e-07 -0.000204773
0.00111995 0.000292843 3.82521e-07
0.000292843 1.50168e-05 -1.97581e-07
3.82521e-07 -1.97581e-07 -0.000211643
0.00193365 0.000448386 -3.06158e-07
0.000448386 0.000229673 -1.32595e-07
-3.06158e-07 -1.32595e-07 -1.60666e-05
0.000679868 0.000228108 -2.93115e-07
0.000228108 3.77722e-05 6.33353e-08
-2.93115e-07 6.33353e-08 -0.000186636
0.00186276 0.00052361 -3.15466e-07
0.00052361 0.000350125 -4.17719e-07
-3.15466e-07 -4.17719e-07 4.02999e-05
0.00138639 0.000461157 -1.74506e-07
0.000461157 0.000284985 -1.08854e-06
-1.74506e-07 -1.08854e-06 -5.73825e-05
0.00158366 0.000575706 -7.34345e-07
0.000575706 0.000170915 1.97852e-06
-7.34345e-07 1.97852e-06 -0.000170751
0.000517459 -1.16825e-05 3.1466e-06
-1.16825e-05 1.82237e-05 1.13709e-05
3.1466e-06 1.13709e-05 -3.08006e-05
0.00106731 0.000199572 5.7597e-06
0.000199572 0.000336154 2.4724e-06
5.7597e-06 2.4724e-06 0.00010901
0.00100679 9.82578e-05 2.34535e-06
9.82578e-05 0.000326911 5.87241e-06
2.34535e-06 5.87241e-06 0.000161157
0.000906233 0.000217306 3.90991e-07
0.000217306 0.000279589 9.9739e-07
3.90991e-07 9.9739e-07 4.63907e-06
0.00200067 0.000397368 1.22853e-06
0.000397368 0.0002113 -1.81827e-06
1.22853e-06 -1.81827e-06 2.59308e-06
0.00189592 0.000494577 5.18717e-06
0.000494577 0.000283281 -3.17976e-07
5.18717e-06 -3.17976e-07 1.29803e-06
0.00211345 0.000516091 1.62811e-07
0.000516091 0.00025271 -1.33383e-06
1.62811e-07 -1.33383e-06 2.21285e-05
0.000962604 0.000354731 3.53268e-06
0.000354731 9.67401e-05 -3.51392e-07
3.53268e-06 -3.51392e-07 -0.000203347
0.00229328 0.000643818 -3.84845e-06
0.000643818 0.000513141 -2.71472e-06
-3.84845e-06 -2.71472e-06 0.000196744
0.00192934 0.000627942 -5.18285e-06
0.000627942 0.000520362 -7.94991e-06
-5.18285e-06 -7.94991e-06 0.000115779
0.00198062 0.000625255 -1.31045e-06
0.000625255 0.000322994 -2.41251e-06
-1.31045e-06 -2.41251e-06 -7.11633e-06
0.000573597 5.62367e-05 1.79687e-06
5.62367e-05 7.229e-05 5.4312e-06
1.79687e-06 5.4312e-06 -1.14557e-05
0.00047404 -1.04923e-05 2.04453e-06
-1.04923e-05 -2.05934e-05 8.05921e-06
2.04453e-06 8.05921e-06 -5.35066e-05
0.0030073 -0.000123284 5.17976e-05
-0.000123284 0.00160662 4.56227e-06
5.17976e-05 4.56227e-06 0.00160489
0.00331425 -0.000151449 9.57575e-06
-0.000151449 0.00181343 -9.28873e-07
9.57575e-06 -9.28873e-07 0.00180399
0.00366477 -0.000185179 -6.30011e-05
-0.000185179 0.00205036 -4.99208e-06
-6.30011e-05 -4.99208e-06 0.00203095
0.000409347 -0.000127311 1.97564e-05
-0.000127311 -5.81593e-05 -1.48713e-05
1.97564e-05 -1.48713e-05 -0.000138723
0.00528156 0.000162909 0.000157018
0.000162909 0.00309037 -1.76174e-05
0.000157018 -1.76174e-05 0.00306985
0.000493284 -0.000146371 1.41122e-06
-0.000146371 -3.17363e-05 5.43694e-07
1.41122e-06 5.43694e-07 -0.000130311
0.00609854 0.000113143 5.79526e-06
0.000113143 0.0035822 6.61469e-07
5.79526e-06 6.61469e-07 0.00357208
0.000373622 0.000113081 -1.83198e-05
0.000113081 -0.000229131 -8.1463e-06
-1.83198e-05 -8.1463e-06 -0.000338593
0.000386557 3.5191e-05 -1.74736e-05
3.5191e-05 -0.000215608 -3.16238e-06
-1.74736e-05 -3.16238e-06 -0.000307461
0.00114342 0.000156352 -9.43235e-06
0.000156352 -7.11044e-05 -1.73184e-06
-9.43235e-06 -1.73184e-06 -0.000232617
0.00108695 7.67411e-05 -1.15709e-05
7.67411e-05 -7.8937e-05 -7.87829e-07
-1.15709e-05 -7.87829e-07 -0.00021526
0.000418625 -7.60175e-06 -1.88929e-05
-7.60175e-06 -0.000193198 -6.20029e-07
-1.88929e-05 -6.20029e-07 -0.000274269
0.00615239 -0.000100955 -0.000326861
-0.000100955 0.00356267 5.77363e-06
-0.000326861 5.77363e-06 0.00358623
0.00040736 -2.63507e-06 6.23411e-08
-2.63507e-06 -0.000199237 -7.01817e-07
6.23411e-08 -7.01817e-07 -0.000279028
0.00105781 3.59587e-05 -1.24557e-07
3.59587e-05 -7.87927e-05 6.95527e-08
-1.24557e-07 6.95527e-08 -0.000207908
0.0011468 0.000115788 -8.35837e-08
0.000115788 -5.52997e-05 6.89429e-08
-8.35837e-08 6.89429e-08 -0.000201425
0.00189969 0.000114558 -2.23447e-07
0.000114558 7.19467e-05 3.38267e-07
-2.23447e-07 3.38267e-07 -2.57485e-05
0.00121956 0.000196032 -3.18179e-07
0.000196032 -2.49193e-05 -2.65468e-07
-3.18179e-07 -2.65468e-07 -0.000201778
0.00198022 0.00026528 -1.55236e-07
0.00026528 0.000127752 1.63369e-07
-1.55236e-07 1.63369e-07 -1.41919e-05
0.00104701 -3.93616e-06 1.10405e-05
-3.93616e-06 -7.8917e-05 -3.44641e-07
1.10405e-05 -3.44641e-07 -0.00020624
0.00185913 5.60497e-05 1.90779e-06
5.60497e-05 4.9854e-05 1.37539e-08
1.90779e-06 1.37539e-08 -3.95497e-05
0.00197005 0.000190497 6.95299e-07
0.000190497 0.000108991 -1.02099e-06
6.95299e-07 -1.02099e-06 -7.23787e-06
0.00209408 0.000144082 4.85711e-06
0.000144082 7.5708e-05 7.73327e-07
4.85711e-06 7.73327e-07 3.19493e-05
0.00200943 0.000335585 8.52909e-07
0.000335585 0.000167568 -1.06443e-06
8.52909e-07 -1.06443e-06 -5.59489e-06
0.00204776 0.000291665 2.45833e-06
0.000291665 7.49262e-05 3.02321e-07
2.45833e-06 3.02321e-07 -2.58647e-05
0.000393097 -3.24004e-06 -1.80049e-05
-3.24004e-06 -0.000201635 8.42052e-07
-1.80049e-05 8.42052e-07 -0.000285835
0.00195204 -4.57658e-05 -0.000131297
-4.57658e-05 0.000785173 6.1194e-06
-0.000131297 6.1194e-06 0.000719618
0.00114967 -6.57617e-05 -1.86579e-05
-6.57617e-05 -2.69776e-05 1.58295e-06
-1.86579e-05 1.58295e-06 -0.000154906
0.00196645 -0.000178102 -2.8475e-05
-0.000178102 0.000473902 4.28232e-06
-2.8475e-05 4.28232e-06 0.000319111
0.00692413 5.97651e-05 -0.000272013
5.97651e-05 0.0040695 2.71983e-05
-0.000272013 2.71983e-05 0.00406885
0.00338888 -0.000279348 -0.000164645
-0.000279348 0.00174544 2.61375e-05
-0.000164645 2.61375e-05 0.00163836
0.00199525 -0.000386867 -2.91313e-05
-0.000386867 0.000686485 1.15597e-05
-2.91313e-05 1.15597e-05 0.000426636
0.00203118 -0.000271168 -3.04715e-05
-0.000271168 0.000530998 8.475e-06
-3.04715e-05 8.475e-06 0.000346399
0.00213437 -0.000335958 -1.76857e-06
-0.000335958 0.000290665 -4.51644e-07
-1.76857e-06 -4.51644e-07 0.000123593
0.00199283 -0.000428815 -3.79297e-06
-0.000428815 0.000298457 1.01045e-06
-3.79297e-06 1.01045e-06 5.58352e-05
0.00187601 -0.00051319 -8.71578e-06
-0.00051319 0.000338297 5.80504e-07
-8.71578e-06 5.80504e-07 2.67313e-05
0.00205249 -0.00053342 -8.65288e-07
-0.00053342 0.000285257 -1.9801e-06
-8.65288e-07 -1.9801e-06 2.73239e-05
0.000419183 -0.000180398 -2.15787e-05
-0.000180398 -9.68547e-05 1.91412e-05
-2.15787e-05 1.91412e-05 -0.000210477
0.000684739 -0.000220661 2.18711e-08
-0.000220661 0.000117681 7.90504e-07
2.18711e-08 7.90504e-07 -0.000127786
0.00109263 -3.0117e-05 4.46909e-07
-3.0117e-05 -5.27436e-05 5.11173e-08
4.46909e-07 5.11173e-08 -0.000177791
0.00192153 -0.000123696 -9.93478e-06
-0.000123696 0.000453792 1.29646e-06
-9.93478e-06 1.29646e-06 0.000322217
0.00187145 -0.000121711 7.07522e-07
-0.000121711 7.25529e-05 -2.38233e-07
7.07522e-07 -2.38233e-07 -3.24822e-05
0.00189555 -0.000264586 -2.60592e-06
-0.000264586 0.000115696 8.43673e-07
-2.60592e-06 8.43673e-07 -3.24147e-05
0.000415403 -0.000198042 3.58149e-07
-0.000198042 -0.000113894 2.36677e-07
3.58149e-07 2.36677e-07 -0.000237133
0.000789832 -0.000273672 -5.74768e-07
-0.000273672 1.92358e-05 -1.10847e-07
-5.74768e-07 -1.10847e-07 -0.000227476
0.00155164 -0.000529116 1.91673e-06
-0.000529116 0.000230707 -2.43421e-07
1.91673e-06 -2.43421e-07 -0.000124364
0.00192048 -0.000380215 -2.81765e-06
-0.000380215 0.000198553 8.5974e-07
-2.81765e-06 8.5974e-07 -1.01898e-05
0.00209235 -0.000370001 2.35424e-06
-0.000370001 0.000155647 -9.05684e-07
2.35424e-06 -9.05684e-07 2.31965e-05
0.00224172 -0.000603636 -5.90647e-07
-0.000603636 0.000461119 -7.96306e-07
-5.90647e-07 -7.96306e-07 0.000146998
0.00204689 -0.000490224 5.29056e-07
-0.000490224 0.000223332 1.83843e-08
5.29056e-07 1.83843e-08 8.52089e-06
0.00212429 -0.000561487 7.61022e-07
-0.000561487 0.000281751 8.68916e-07
7.61022e-07 8.68916e-07 5.19172e-05
0.000646385 -0.000211198 3.90217e-07
-0.000211198 6.72752e-05 -5.82991e-07
3.90217e-07 -5.82991e-07 -0.000190496
0.000712706 -0.000215879 1.14027e-06
-0.000215879 8.6922e-05 9.1343e-07
1.14027e-06 9.1343e-07 -0.000188906
0.000735046 -0.00015198 5.30407e-07
-0.00015198 0.00018155 1.04575e-07
5.30407e-07 1.04575e-07 -4.51401e-05
0.0018245 -5.70662e-05 1.67432e-06
-5.70662e-05 4.72545e-05 -1.17777e-07
1.67432e-06 -1.17777e-07 -5.25361e-05
0.00197727 -0.000189946 -6.84406e-07
-0.000189946 0.000143618 6.05568e-07
-6.84406e-07 6.05568e-07 2.49704e-05
0.0020054 -0.000134718 7.07022e-06
-0.000134718 3.93614e-05 -8.26342e-07
7.07022e-06 -8.26342e-07 -1.79373e-05
0.00206304 -0.000304738 2.00236e-06
-0.000304738 0.000102858 -7.92986e-07
2.00236e-06 -7.92986e-07 4.64587e-06
0.00197267 -0.000436841 -1.83823e-07
-0.000436841 0.00012341 1.44357e-06
-1.83823e-07 1.44357e-06 -4.83082e-05
0.00212808 -0.000389339 3.84816e-06
-0.000389339 0.000114396 -1.23788e-06
3.84816e-06 -1.23788e-06 2.47006e-05
0.00061937 -0.000242029 7.21276e-06
-0.000242029 -7.08085e-07 -7.86266e-06
7.21276e-06 -7.86266e-06 -0.000241944
0.00200637 -0.000516116 8.88455e-07
-0.000516116 0.000150259 8.25404e-07
8.88455e-07 8.25404e-07 -3.77308e-05
0.00138846 -0.000494403 1.0156e-05
-0.000494403 0.000281734 -3.35315e-06
1.0156e-05 -3.35315e-06 -8.22657e-05
0.00193888 -0.000675419 6.96779e-06
-0.000675419 0.000363968 2.28935e-06
6.96779e-06 2.28935e-06 -3.05697e-05
0.00230256 -0.000631972 6.29552e-06
-0.000631972 0.000458559 3.48794e-06
6.29552e-06 3.48794e-06 0.000161939
0.00233151 -0.000592087 -3.94301e-07
-0.000592087 0.000424841 1.94736e-06
-3.94301e-07 1.94736e-06 0.00020135
0.000432771 -0.000119312 -5.46468e-07
-0.000119312 1.09938e-05 -5.8241e-06
-5.46468e-07 -5.8241e-06 -0.000183565
0.00132041 -0.000331059 2.46358e-07
-0.000331059 0.000403099 -4.40175e-06
2.46358e-07 -4.40175e-06 0.000125823
0.000580134 -0.000218102 -9.64462e-07
-0.000218102 0.000121142 5.53394e-06
-9.64462e-07 5.53394e-06 -0.000212579
0.00183466 -0.000419758 -4.61948e-06
-0.000419758 0.000751648 3.41372e-06
-4.61948e-06 3.41372e-06 0.000424404
0.00118487 0.000235589 -1.27472e-05
0.000235589 -2.50373e-05 -4.69813e-06
-1.27472e-05 -4.69813e-06 -0.000220726
0.00031674 -2.46314e-05 5.97817e-07
-2.46314e-05 -9.10786e-05 -1.38521e-05
5.97817e-07 -1.38521e-05 -0.000157292
0.000433998 0.000112568 -2.24616e-05
0.000112568 -7.59581e-05 -1.46103e-05
-2.24616e-05 -1.46103e-05 -0.000165185
-3.90565e-05 0.000112767 -3.41855e-06
0.000112767 -0.000311068 -1.80054e-06
-3.41855e-06 -1.80054e-06 -0.000524907
0.00110478 0.000290976 -2.01823e-05
0.000290976 1.16576e-05 -7.74627e-06
-2.01823e-05 -7.74627e-06 -0.00021528
0.00190597 0.000446197 -3.69671e-06
0.000446197 0.000211178 3.03026e-07
-3.69671e-06 3.03026e-07 -3.45644e-05
0.000582097 0.000217572 -7.13317e-06
0.000217572 -2.42651e-05 -3.62098e-06
-7.13317e-06 -3.62098e-06 -0.000243122
0.00136116 0.00046209 -4.59112e-06
0.00046209 0.000265831 1.01288e-07
-4.59112e-06 1.01288e-07 -7.69776e-05
0.00187229 0.000522406 -6.00652e-06
0.000522406 0.000351424 8.50493e-07
-6.00652e-06 8.50493e-07 4.03824e-05
0.00155065 0.000579797 3.81743e-06
0.000579797 0.000139337 7.97869e-06
3.81743e-06 7.97869e-06 -0.000200088
0.00044852 -2.71457e-05 -3.74369e-06
-2.71457e-05 -1.67485e-05 8.70552e-07
-3.74369e-06 8.70552e-07 -6.90207e-05
0.000643279 0.000210253 -1.42425e-06
0.000210253 8.48151e-05 -7.31349e-07
-1.42425e-06 -7.31349e-07 -0.000150352
0.000640128 8.44975e-05 1.04596e-06
8.44975e-05 9.93166e-05 -3.70098e-07
1.04596e-06 -3.70098e-07 -6.08701e-05
0.000802716 0.000199547 -6.14086e-07
0.000199547 0.00019652 1.82445e-07
-6.14086e-07 1.82445e-07 -6.55872e-05
0.00198333 0.000395722 -1.44299e-06
0.000395722 0.000200004 -1.18467e-06
-1.44299e-06 -1.18467e-06 -8.79289e-06
0.0018677 0.000493083 -4.95045e-07
0.000493083 0.000264855 -2.55796e-07
-4.95045e-07 -2.55796e-07 -1.75295e-05
0.00209043 0.000512477 2.31116e-07
0.000512477 0.000242384 2.15556e-07
2.31116e-07 2.15556e-07 1.26802e-05
0.00115924 0.000366192 3.25996e-06
0.000366192 0.000235737 -8.44182e-08
3.25996e-06 -8.44182e-08 -6.42488e-05
0.00218694 0.000626375 4.85404e-07
0.000626375 0.000456563 5.5997e-07
4.85404e-07 5.5997e-07 0.000141093
0.0016691 0.000601349 -1.10379e-06
0.000601349 0.000361525 -1.87496e-06
-1.10379e-06 -1.87496e-06 -3.9639e-05
0.00197991 0.000614055 -4.8844e-06
0.000614055 0.000327574 2.20661e-06
-4.8844e-06 2.20661e-06 6.48673e-06
0.000543375 -1.67233e-05 2.02158e-06
-1.67233e-05 2.85792e-05 9.37098e-06
2.02158e-06 9.37098e-06 -1.07067e-05
0.000942 7.52784e-05 1.42842e-06
7.52784e-05 0.00029509 7.68789e-06
1.42842e-06 7.68789e-06 0.000166334
0.000742477 0.000249035 1.14137e-08
0.000249035 5.04094e-05 2.22806e-06
1.14137e-08 2.22806e-06 -0.000199612
0.00151554 0.000181777 1.21763e-06
0.000181777 0.000723651 -1.05427e-06
1.21763e-06 -1.05427e-06 0.000444779
0.00110232 0.000290617 -2.80642e-06
0.000290617 0.000330471 4.20112e-06
-2.80642e-06 4.20112e-06 8.63775e-05
0.00216008 0.000457017 1.55918e-08
0.000457017 0.000213574 -3.14269e-06
1.55918e-08 -3.14269e-06 2.78019e-05
0.00209951 0.000578647 -1.15141e-06
0.000578647 0.000315608 -1.74087e-06
-1.15141e-06 -1.74087e-06 3.86841e-05
0.00211152 0.00056133 -2.60291e-06
0.00056133 0.000235551 -1.61138e-06
-2.60291e-06 -1.61138e-06 1.10921e-05
0.00145516 0.000549165 4.98693e-06
0.000549165 0.000399753 -1.13752e-06
4.98693e-06 -1.13752e-06 -2.61042e-06
0.0023669 0.000688476 -3.27053e-06
0.000688476 0.000506824 -2.41524e-06
-3.27053e-06 -2.41524e-06 0.000192972
0.00165843 0.000649813 6.90003e-06
0.000649813 0.000287602 -4.65259e-06
6.90003e-06 -4.65259e-06 -0.000104666
0.000567028 5.23425e-05 1.67439e-06
5.23425e-05 6.36989e-05 5.80928e-06
1.67439e-06 5.80928e-06 -2.6268e-05
0.000662528 0.000111835 -6.09454e-07
0.000111835 0.000171679 3.21122e-06
-6.09454e-07 3.21122e-06 3.00005e-05
0.000592654 6.19935e-05 1.5174e-06
6.19935e-05 9.0611e-05 4.92541e-06
1.5174e-06 4.92541e-06 1.13158e-05
0.000524121 1.52535e-05 -6.93496e-07
1.52535e-05 4.20691e-05 -5.67052e-08
-6.93496e-07 -5.67052e-08 -4.14876e-05
0.00138159 -3.04517e-05 1.58351e-06
-3.04517e-05 0.000555117 4.75665e-06
1.58351e-06 4.75665e-06 0.000529396
0.000917533 -2.3537e-05 2.4797e-07
-2.3537e-05 0.000261837 -1.69809e-07
2.4797e-07 -1.69809e-07 0.000231068
0.000844901 -4.66876e-05 3.79891e-05
-4.66876e-05 0.000217651 1.00386e-05
3.79891e-05 1.00386e-05 0.000214823
0.00297985 -0.000128547 8.24726e-06
-0.000128547 0.00158997 -7.88826e-07
8.24726e-06 -7.88826e-07 0.00158684
0.00321808 -0.000155044 -5.00794e-05
-0.000155044 0.00175339 -4.5046e-06
-5.00794e-05 -4.5046e-06 0.0017429
0.000389441 -7.49565e-05 1.06732e-05
-7.49565e-05 -5.19182e-05 -1.24094e-05
1.06732e-05 -1.24094e-05 -0.00011539
0.00464125 0.000175394 0.000111295
0.000175394 0.0026851 -1.21802e-05
0.000111295 -1.21802e-05 0.00266272
0.000519838 -0.000121281 -1.01481e-06
-0.000121281 1.18356e-05 8.28349e-07
-1.01481e-06 8.28349e-07 -7.41796e-05
0.005526 0.000137334 -6.00912e-06
0.000137334 0.00323837 -1.35894e-07
-6.00912e-06 -1.35894e-07 0.00322282
0.00048825 -0.000146999 -2.1139e-05
-0.000146999 -3.78998e-05 1.66782e-05
-2.1139e-05 1.66782e-05 -0.000138845
0.00631261 0.000116242 -0.000228472
0.000116242 0.00372097 2.5817e-05
-0.000228472 2.5817e-05 0.00370843
0.00116404 0.000196486 -9.84518e-06
0.000196486 -5.6008e-05 -3.02211e-06
-9.84518e-06 -3.02211e-06 -0.000234353
0.00114718 0.000119677 -1.1466e-05
0.000119677 -6.04361e-05 -1.04946e-06
-1.1466e-05 -1.04946e-06 -0.000207617
0.00194814 0.000259321 -1.32851e-06
0.000259321 0.000109324 1.22168e-06
-1.32851e-06 1.22168e-06 -3.17459e-05
0.00192012 0.000113335 -1.12392e-06
0.000113335 9.40918e-05 1.21268e-06
-1.12392e-06 1.21268e-06 -3.43807e-06
0.00103471 4.07877e-05 -1.09802e-05
4.07877e-05 -9.56104e-05 -1.17103e-07
-1.09802e-05 -1.17103e-07 -0.000225278
0.000368563 2.88452e-05 -1.87619e-05
2.88452e-05 -0.000225742 -6.35061e-07
-1.87619e-05 -6.35061e-07 -0.000304059
0.00104071 3.03609e-08 -4.8967e-08
3.03609e-08 -8.28492e-05 -4.089e-08
-4.8967e-08 -4.089e-08 -0.000210195
0.00188111 5.68138e-05 -6.15168e-08
5.68138e-05 6.78222e-05 1.81241e-07
-6.15168e-08 1.81241e-07 -2.15728e-05
0.00195657 0.000186219 -9.96658e-08
0.000186219 0.000106413 -2.39368e-08
-9.96658e-08 -2.39368e-08 -9.24023e-06
0.00208588 0.000140623 -1.30097e-07
0.000140623 6.11282e-05 2.21133e-08
-1.30097e-07 2.21133e-08 2.11693e-05
0.00199889 0.000333322 -5.31532e-07
0.000333322 0.000163794 -5.05167e-09
-5.31532e-07 -5.05167e-09 -8.99211e-06
0.00207461 0.000293924 -3.72932e-07
0.000293924 9.49039e-05 3.03254e-07
-3.72932e-07 3.03254e-07 -7.04721e-06
0.00186958 -4.89382e-07 2.14351e-06
-4.89382e-07 6.75112e-05 1.16272e-07
2.14351e-06 1.16272e-07 -2.06728e-05
0.00205853 6.80642e-05 3.96267e-06
6.80642e-05 4.8064e-05 3.33394e-07
3.96267e-06 3.33394e-07 1.59863e-05
0.00204622 0.000212444 3.8366e-06
0.000212444 5.53734e-05 9.96032e-07
3.8366e-06 9.96032e-07 -8.67006e-06
0.00202467 0.000126845 5.60418e-06
0.000126845 3.76594e-06 8.1939e-07
5.60418e-06 8.1939e-07 -1.10863e-05
0.00216567 0.000386105 1.42675e-06
0.000386105 0.000178527 -7.17898e-07
1.42675e-06 -7.17898e-07 3.47612e-05
0.00211791 0.000309008 2.52878e-06
0.000309008 2.14205e-05 6.02857e-07
2.52878e-06 6.02857e-07 -2.3699e-05
0.00110264 -2.61498e-05 -1.1801e-05
-2.61498e-05 -4.78121e-05 7.01399e-07
-1.1801e-05 7.01399e-07 -0.00016925
0.00193291 -0.000124806 -2.83526e-05
-0.000124806 0.00045842 2.95768e-06
-2.83526e-05 2.95768e-06 0.000326936
0.00196134 -0.000117807 -2.22455e-06
-0.000117807 0.000127588 -3.78714e-07
-2.22455e-06 -3.78714e-07 2.81355e-05
0.00191126 -0.000265106 -3.1083e-06
-0.000265106 0.000132393 7.01837e-07
-3.1083e-06 7.01837e-07 -2.35401e-05
0.000559397 -0.000230105 -2.64527e-05
-0.000230105 -2.47021e-05 2.14312e-05
-2.64527e-05 2.14312e-05 -0.000149322
0.000842923 -0.000283436 -1.28679e-05
-0.000283436 4.97678e-05 9.01827e-06
-1.28679e-05 9.01827e-06 -0.000200939
0.00155494 -0.000529881 -9.31343e-06
-0.000529881 0.000235916 1.95665e-06
-9.31343e-06 1.95665e-06 -0.000121512
0.00195049 -0.00038015 -4.35824e-06
-0.00038015 0.000221141 1.23984e-06
-4.35824e-06 1.23984e-06 9.52603e-06
0.0020974 -0.00037224 1.21808e-07
-0.00037224 0.000150791 -5.62744e-07
1.21808e-07 -5.62744e-07 2.43683e-05
0.00208237 -0.000492803 -1.16958e-06
-0.000492803 0.000247281 -1.10455e-06
-1.16958e-06 -1.10455e-06 3.18379e-05
0.00228867 -0.000611334 -3.15072e-06
-0.000611334 0.00048716 -4.06472e-06
-3.15072e-06 -4.06472e-06 0.000174892
0.00193659 -0.000548477 4.5736e-07
-0.000548477 0.00015724 -2.13575e-06
4.5736e-07 -2.13575e-06 -7.16338e-05
0.000995815 -0.000229536 -5.97759e-06
-0.000229536 0.000278836 5.45497e-06
-5.97759e-06 5.45497e-06 2.60235e-05
0.000330064 -0.000169215 2.29244e-06
-0.000169215 -0.000160308 -4.90096e-07
2.29244e-06 -4.90096e-07 -0.000431589
0.000486526 -0.000182369 -3.26414e-07
-0.000182369 2.52717e-05 1.05302e-06
-3.26414e-07 1.05302e-06 -0.00020194
0.00187224 -5.3899e-05 9.03316e-07
-5.3899e-05 7.55299e-05 -8.07471e-08
9.03316e-07 -8.07471e-08 -2.00722e-05
0.00193522 -0.00019676 -2.05502e-06
-0.00019676 0.000117041 1.13094e-07
-2.05502e-06 1.13094e-07 -2.96155e-06
0.0020445 -0.000132783 2.18985e-06
-0.000132783 5.84068e-05 -3.20299e-07
2.18985e-06 -3.20299e-07 7.45925e-06
0.00202229 -0.0002945 -1.2238e-06
-0.0002945 8.22726e-05 4.86997e-07
-1.2238e-06 4.86997e-07 -1.8247e-05
0.000747272 -0.000254448 9.0299e-07
-0.000254448 7.74721e-05 -3.51912e-07
9.0299e-07 -3.51912e-07 -0.000169304
0.00147336 -0.000506104 -7.11601e-07
-0.000506104 0.000329749 -3.7301e-07
-7.11601e-07 -3.7301e-07 -3.63474e-05
0.00186493 -0.000666487 5.20192e-07
-0.000666487 0.000332221 1.07755e-06
5.20192e-07 1.07755e-06 -6.46529e-05
0.00193949 -0.000432317 -1.1089e-06
-0.000432317 0.000108161 9.96473e-07
-1.1089e-06 9.96473e-07 -6.92913e-05
0.00212978 -0.000394291 5.57685e-07
-0.000394291 0.000104985 -3.56514e-07
5.57685e-07 -3.56514e-07 1.98332e-05
0.00216687 -0.000626932 -2.30911e-07
-0.000626932 0.000360246 3.79252e-07
-2.30911e-07 3.79252e-07 6.28858e-05
0.00201037 -0.000515462 -3.78499e-07
-0.000515462 0.000150051 7.90557e-07
-3.78499e-07 7.90557e-07 -3.79571e-05
0.00224407 -0.000575175 5.47836e-07
-0.000575175 0.000361276 -4.97481e-07
5.47836e-07 -4.97481e-07 0.000144432
0.0010402 -0.000313894 -1.36656e-06
-0.000313894 0.000236521 7.09892e-07
-1.36656e-06 7.09892e-07 -4.82241e-05
0.00107966 -0.000343941 -1.48191e-06
-0.000343941 0.000268533 2.27361e-06
-1.48191e-06 2.27361e-06 -4.90198e-05
0.000678439 -0.000135997 7.3916e-08
-0.000135997 0.000161742 -8.02702e-07
7.3916e-08 -8.02702e-07 -3.69454e-05
0.000120268 -0.000132734 1.94325e-06
-0.000132734 -0.000198313 -1.76071e-06
1.94325e-06 -1.76071e-06 -0.000501553
0.00206596 -7.05634e-05 6.22215e-06
-7.05634e-05 7.52053e-05 -3.72684e-07
6.22215e-06 -3.72684e-07 3.38955e-05
0.0019836 -0.000216046 4.59607e-06
-0.000216046 1.85185e-05 -1.14254e-06
4.59607e-06 -1.14254e-06 -5.65205e-05
0.0020264 -0.000124368 6.67715e-06
-0.000124368 4.25105e-05 -9.39056e-07
6.67715e-06 -9.39056e-07 3.00091e-05
0.00209235 -0.000317791 1.45459e-06
-0.000317791 3.10157e-05 -6.49142e-07
1.45459e-06 -6.49142e-07 -5.34692e-06
0.00201616 -0.000463451 -1.88288e-07
-0.000463451 9.86955e-05 -5.91444e-07
-1.88288e-07 -5.91444e-07 -4.24155e-05
0.00214873 -0.000411199 3.74071e-06
-0.000411199 7.6274e-05 -1.44077e-06
3.74071e-06 -1.44077e-06 8.94034e-06
0.00136605 -0.00042624 6.79738e-06
-0.00042624 0.000388797 -5.62714e-06
6.79738e-06 -5.62714e-06 5.37305e-05
0.00205151 -0.000550552 -2.14476e-06
-0.000550552 0.000148116 3.63355e-08
-2.14476e-06 3.63355e-08 -1.70643e-05
0.00168924 -0.000679577 -7.05649e-06
-0.000679577 0.00039128 4.28046e-06
-7.05649e-06 4.28046e-06 -5.07506e-05
0.00210407 -0.00073427 5.58086e-06
-0.00073427 0.000421086 2.74677e-06
5.58086e-06 2.74677e-06 1.92307e-05
0.00212057 -0.000634816 3.00175e-06
-0.000634816 0.000290423 3.59036e-06
3.00175e-06 3.59036e-06 1.92005e-06
0.00229773 -0.000611882 -9.74591e-06
-0.000611882 0.000360774 -1.83901e-06
-9.74591e-06 -1.83901e-06 0.000132522
0.000491001 -0.000124236 -1.82676e-06
-0.000124236 3.61892e-05 -6.70681e-06
-1.82676e-06 -6.70681e-06 -0.00011458
-6.12123e-05 -0.000143892 -3.19727e-06
-0.000143892 -0.00021061 -1.54599e-06
-3.19727e-06 -1.54599e-06 -0.000541986
0.00131771 -0.000449793 -2.33385e-06
-0.000449793 0.000390315 -2.91009e-06
-2.33385e-06 -2.91009e-06 3.20032e-05
0.0027344 -0.000461038 -3.50017e-06
-0.000461038 0.00139238 1.06147e-05
-3.50017e-06 1.06147e-05 0.00104859
0.00162044 -0.000462091 -1.59815e-05
-0.000462091 0.00061857 9.46463e-06
-1.59815e-05 9.46463e-06 0.000235814
0.000286227 -3.29948e-05 -1.39675e-06
-3.29948e-05 -0.000116964 -1.06754e-05
-1.39675e-06 -1.06754e-05 -0.00016799
0.00196327 0.000393594 -3.56687e-06
0.000393594 0.000187528 -2.90582e-07
-3.56687e-06 -2.90582e-07 -2.12544e-05
0.000250211 4.70784e-05 -6.63047e-07
4.70784e-05 -0.000136056 -6.68153e-06
-6.63047e-07 -6.68153e-06 -0.000291934
0.00033093 0.000205058 -6.99739e-06
0.000205058 -0.000136242 3.05006e-07
-6.99739e-06 3.05006e-07 -0.000353933
0.000622021 0.000189996 -1.03966e-06
0.000189996 6.52961e-05 2.71916e-06
-1.03966e-06 2.71916e-06 -0.0001836
0.00182456 0.000490561 -5.05347e-06
0.000490561 0.000236399 2.61673e-07
-5.05347e-06 2.61673e-07 -4.62891e-05
0.00207074 0.000509253 1.10821e-06
0.000509253 0.000233661 1.95617e-06
1.10821e-06 1.95617e-06 4.75471e-06
0.00138719 0.000403258 -2.55275e-06
0.000403258 0.000402237 -3.32715e-06
-2.55275e-06 -3.32715e-06 8.95558e-05
0.00155317 0.000598613 9.36703e-07
0.000598613 0.000283465 4.30686e-06
9.36703e-07 4.30686e-06 -0.000121494
0.00206446 0.000606692 1.86012e-06
0.000606692 0.000388317 3.93511e-06
1.86012e-06 3.93511e-06 7.44184e-05
0.00202803 0.000613157 5.08945e-06
0.000613157 0.000360085 1.10721e-05
5.08945e-06 1.10721e-05 4.44904e-05
0.000450998 -1.2484e-05 -8.63871e-07
-1.2484e-05 -2.83629e-05 2.82179e-07
-8.63871e-07 2.82179e-07 -6.69297e-05
0.000583755 5.49542e-05 -1.13867e-07
5.49542e-05 7.54293e-05 4.32101e-07
-1.13867e-07 4.32101e-07 -4.92173e-05
0.0009159 0.000283107 1.36723e-06
0.000283107 0.000167843 1.7263e-06
1.36723e-06 1.7263e-06 -8.4762e-05
0.000623015 0.000129706 8.11836e-07
0.000129706 0.000151845 -1.47049e-06
8.11836e-07 -1.47049e-06 -0.000114023
0.00043173 0.000203293 -1.50807e-06
0.000203293 -0.000122282 3.4829e-06
-1.50807e-06 3.4829e-06 -0.000343626
0.00213142 0.000455389 -1.90473e-06
0.000455389 0.000195945 -1.95996e-06
-1.90473e-06 -1.95996e-06 1.05272e-05
0.00205782 0.000573992 5.21388e-07
0.000573992 0.000292159 1.73123e-07
5.21388e-07 1.73123e-07 1.6293e-05
0.00204791 0.000557277 1.6608e-06
0.000557277 0.000197941 1.38926e-07
1.6608e-06 1.38926e-07 -2.61929e-05
0.00150603 0.000554089 1.80908e-06
0.000554089 0.000436627 -3.93579e-07
1.80908e-06 -3.93579e-07 2.99177e-05
0.00225643 0.000676089 2.55872e-06
0.000676089 0.000422995 4.64496e-07
2.55872e-06 4.64496e-07 0.000109521
0.00201488 0.000686791 -3.83559e-06
0.000686791 0.000514319 4.98481e-08
-3.83559e-06 4.98481e-08 0.000116901
0.000662112 5.73723e-05 7.70209e-07
5.73723e-05 0.000123717 6.20522e-06
7.70209e-07 6.20522e-06 2.17629e-05
0.00170912 0.000202561 2.64008e-08
0.000202561 0.000852074 1.89487e-06
2.64008e-08 1.89487e-06 0.000625996
0.00104723 0.000395668 -8.40062e-07
0.000395668 0.000242685 5.62103e-06
-8.40062e-07 5.62103e-06 -6.86826e-05
0.00113813 0.000148729 5.62603e-06
0.000148729 0.000405022 -2.44453e-06
5.62603e-06 -2.44453e-06 0.000142666
0.00302872 0.000418129 -4.5209e-06
0.000418129 0.00141235 -1.0083e-07
-4.5209e-06 -1.0083e-07 0.00115097
0.00212733 0.000481023 -3.95449e-06
0.000481023 0.00016297 -2.15724e-06
-3.95449e-06 -2.15724e-06 -9.09283e-06
0.00208681 0.000626944 -2.42873e-06
0.000626944 0.000274662 -1.32743e-06
-2.42873e-06 -1.32743e-06 9.52106e-07
0.00200438 0.000609108 4.15438e-06
0.000609108 0.00012882 -4.5462e-07
4.15438e-06 -4.5462e-07 -0.000107079
0.00115074 0.000593779 1.13308e-05
0.000593779 0.0002339 -4.91934e-06
1.13308e-05 -4.91934e-06 -0.000209052
0.00167204 0.000675966 1.19968e-05
0.000675966 0.000192142 -2.13187e-06
1.19968e-05 -2.13187e-06 -0.000167247
0.000581854 4.63205e-05 -3.74817e-07
4.63205e-05 7.09338e-05 1.59175e-07
-3.74817e-07 1.59175e-07 -1.72895e-05
0.000345395 7.69646e-05 8.70945e-07
7.69646e-05 -5.76674e-05 3.3086e-06
8.70945e-07 3.3086e-06 -0.000187573
0.000274507 6.51675e-05 -1.20479e-07
6.51675e-05 -9.24334e-05 -4.18127e-07
-1.20479e-07 -4.18127e-07 -0.000217046
0.0011505 0.000177317 -2.06918e-06
0.000177317 0.000486852 -1.44692e-06
-2.06918e-06 -1.44692e-06 0.000324569
0.0007469 0.000127606 5.16729e-07
0.000127606 0.000229795 3.18685e-06
5.16729e-07 3.18685e-06 9.47817e-05
0.000540329 6.96076e-05 1.92047e-06
6.96076e-05 6.31183e-05 4.20796e-06
1.92047e-06 4.20796e-06 -1.34433e-05
0.000520193 1.96258e-05 -7.88919e-07
1.96258e-05 4.55361e-05 -2.20058e-08
-7.88919e-07 -2.20058e-08 -3.30053e-05
0.00132413 -1.50545e-05 1.45928e-06
-1.50545e-05 0.000517938 4.1483e-06
1.45928e-06 4.1483e-06 0.000496156
0.000535474 3.4099e-05 -7.03939e-07
3.4099e-05 4.32823e-05 -5.47156e-06
-7.03939e-07 -5.47156e-06 -3.63209e-05
0.00138951 -2.37793e-05 -9.02738e-06
-2.37793e-05 0.000559121 -1.68473e-06
-9.02738e-06 -1.68473e-06 0.00053535
0.000771003 -3.31578e-05 3.62251e-05
-3.31578e-05 0.000164428 9.79286e-06
3.62251e-05 9.79286e-06 0.000166205
0.00142193 -3.00081e-05 -1.67531e-05
-3.00081e-05 0.000583506 -6.28525e-06
-1.67531e-05 -6.28525e-06 0.000556349
0.00180708 -7.61046e-05 3.68008e-05
-7.61046e-05 0.000833085 1.40017e-06
3.68008e-05 1.40017e-06 0.000832514
0.00288665 -0.000125092 -4.23826e-05
-0.000125092 0.00152971 -4.68323e-06
-4.23826e-05 -4.68323e-06 0.0015273
0.000288137 7.06952e-05 -5.6677e-06
7.06952e-05 -8.77923e-05 -9.7502e-06
-5.6677e-06 -9.7502e-06 -0.000147814
0.00040805 -5.52926e-05 -6.22754e-07
-5.52926e-05 -3.65103e-05 5.76311e-07
-6.22754e-07 5.76311e-07 -0.000106543
0.00375973 0.000190572 1.89754e-05
0.000190572 0.0021153 -7.5391e-06
1.89754e-05 -7.5391e-06 0.00208976
0.00480368 0.00013635 -1.6764e-05
0.00013635 0.00278209 -1.66047e-06
-1.6764e-05 -1.66047e-06 0.00276833
0.000533742 -0.000124929 -1.8467e-05
-0.000124929 1.64066e-05 1.42368e-05
-1.8467e-05 1.42368e-05 -7.2537e-05
0.00575035 0.000136517 -0.000194985
0.000136517 0.0033864 2.52546e-05
-0.000194985 2.52546e-05 0.0033676
0.00198198 0.000331055 -1.8688e-06
0.000331055 0.000155487 1.26231e-06
-1.8688e-06 1.26231e-06 -1.6994e-05
0.00191261 0.000184321 -8.29877e-07
0.000184321 8.30523e-05 1.11784e-06
-8.29877e-07 1.11784e-06 -3.27942e-05
0.0020851 0.000296891 -2.36471e-06
0.000296891 0.000102428 4.94473e-07
-2.36471e-06 4.94473e-07 -9.4663e-07
0.00207965 0.000137228 -4.4104e-06
0.000137228 4.73864e-05 -6.47832e-07
-4.4104e-06 -6.47832e-07 1.11723e-05
0.00190629 5.88048e-05 -1.91231e-06
5.88048e-05 8.85447e-05 3.98098e-07
-1.91231e-06 3.98098e-07 -8.40455e-07
0.00104832 4.80735e-06 -1.07017e-05
4.80735e-06 -7.79413e-05 1.442e-07
-1.07017e-05 1.442e-07 -0.000205184
0.00187572 2.59249e-06 9.37434e-08
2.59249e-06 7.2118e-05 1.46644e-07
9.37434e-08 1.46644e-07 -1.61357e-05
0.0020529 5.92685e-05 -6.92931e-07
5.92685e-05 4.71565e-05 -6.31304e-09
-6.92931e-07 -6.31304e-09 1.4936e-05
0.00207875 0.000213649 -4.78292e-08
0.000213649 7.20676e-05 2.5731e-07
-4.78292e-08 2.5731e-07 7.93773e-06
0.00202845 0.000126764 1.03928e-07
0.000126764 -1.22577e-07 3.64289e-08
1.03928e-07 3.64289e-08 -9.90642e-06
0.00212301 0.000385851 -4.05149e-07
0.000385851 0.000145107 1.3641e-07
-4.05149e-07 1.3641e-07 1.25571e-06
0.00210617 0.000301775 1.79839e-07
0.000301775 1.58796e-05 1.22429e-07
1.79839e-07 1.22429e-07 -2.97138e-05
0.00203869 -5.85399e-06 4.96606e-06
-5.85399e-06 4.58509e-05 1.28153e-07
4.96606e-06 1.28153e-07 1.16421e-05
0.00204006 5.51303e-05 4.89513e-06
5.51303e-05 2.32049e-05 2.76339e-07
4.89513e-06 2.76339e-07 2.29429e-05
0.00207853 0.000203983 2.0134e-06
0.000203983 5.13141e-06 2.53888e-07
2.0134e-06 2.53888e-07 -1.2333e-05
0.00211872 0.00013192 1.31096e-06
0.00013192 -6.71512e-06 3.41299e-07
1.31096e-06 3.41299e-07 1.0567e-05
0.0020736 0.000383251 1.0113e-06
0.000383251 5.75464e-05 3.00618e-07
1.0113e-06 3.00618e-07 -5.18976e-05
0.002282 0.000307335 2.06018e-06
0.000307335 5.02523e-05 4.98537e-07
2.06018e-06 4.98537e-07 4.11943e-05
0.00191241 -5.06217e-05 -2.09147e-06
-5.06217e-05 9.94839e-05 -1.99027e-07
-2.09147e-06 -1.99027e-07 8.10121e-06
0.00189158 -0.000201613 -3.22209e-06
-0.000201613 8.73848e-05 -2.05022e-07
-3.22209e-06 -2.05022e-07 -3.35936e-05
0.0020519 -0.000130999 -2.54291e-06
-0.000130999 5.68007e-05 2.03894e-07
-2.54291e-06 2.03894e-07 1.1922e-05
0.00199171 -0.000285278 -3.57448e-06
-0.000285278 6.95526e-05 8.47748e-07
-3.57448e-06 8.47748e-07 -3.3256e-05
0.000728591 -0.000255241 -1.01801e-05
-0.000255241 6.17474e-05 9.16957e-06
-1.01801e-05 9.16957e-06 -0.000187698
0.00142521 -0.000499276 -1.05675e-05
-0.000499276 0.00030118 2.48049e-06
-1.05675e-05 2.48049e-06 -6.19288e-05
0.00167167 -0.000644104 1.79133e-06
-0.000644104 0.000231329 -2.09163e-06
1.79133e-06 -2.09163e-06 -0.000165497
0.00190456 -0.000427578 -2.03356e-06
-0.000427578 9.25521e-05 4.5734e-07
-2.03356e-06 4.5734e-07 -9.09083e-05
0.00210787 -0.000397465 -1.71261e-06
-0.000397465 8.11683e-05 6.22118e-07
-1.71261e-06 6.22118e-07 3.25341e-07
0.00201674 -0.000514708 -1.02269e-06
-0.000514708 0.000152246 5.42055e-07
-1.02269e-06 5.42055e-07 -3.57367e-05
0.00203985 -0.000628032 -4.80696e-06
-0.000628032 0.000268079 -3.25629e-06
-4.80696e-06 -3.25629e-06 -3.23569e-05
0.00210877 -0.000561832 5.99184e-06
-0.000561832 0.000272708 -3.95655e-06
5.99184e-06 -3.95655e-06 6.05557e-05
0.000834799 -0.000293999 -5.6447e-07
-0.000293999 0.000117662 3.11931e-06
-5.6447e-07 3.11931e-06 -0.000171371
0.000996018 -0.000312551 3.95125e-06
-0.000312551 0.000185122 -3.95989e-07
3.95125e-06 -3.95989e-07 -0.000119908
0.000981598 -0.000145339 -1.4022e-07
-0.000145339 0.000345499 5.44246e-06
-1.4022e-07 5.44246e-06 0.000144512
-0.000398739 -8.33125e-05 1.22325e-06
-8.33125e-05 -0.00055065 -6.76163e-06
1.22325e-06 -6.76163e-06 -0.000827683
0.00206715 -7.05005e-05 -2.2575e-07
-7.05005e-05 7.60269e-05 7.73382e-08
-2.2575e-07 7.73382e-08 3.47989e-05
0.00201541 -0.00021739 2.76664e-06
-0.00021739 4.4947e-05 -7.86521e-07
2.76664e-06 -7.86521e-07 -3.12674e-05
0.00199749 -0.000123003 8.36376e-07
-0.000123003 1.90399e-05 -1.92619e-07
8.36376e-07 -1.92619e-07 7.72206e-06
0.0020946 -0.00031734 -6.15685e-07
-0.00031734 3.95766e-05 1.65543e-07
-6.15685e-07 1.65543e-07 -2.69924e-06
0.00123649 -0.000398312 -2.9135e-06
-0.000398312 0.000290419 1.05945e-07
-2.9135e-06 1.05945e-07 -3.33824e-05
0.00159495 -0.000657633 1.4028e-06
-0.000657633 0.000346151 -2.40366e-07
1.4028e-06 -2.40366e-07 -8.98813e-05
0.00203428 -0.000741343 -5.09443e-07
-0.000741343 0.000376007 4.27212e-07
-5.09443e-07 4.27212e-07 -3.27633e-05
0.00199161 -0.000457142 -1.26065e-06
-0.000457142 9.01332e-05 4.79343e-07
-1.26065e-06 4.79343e-07 -5.52629e-05
0.00211411 -0.00041006 1.0334e-06
-0.00041006 5.57879e-05 -2.95833e-07
1.0334e-06 -2.95833e-07 -7.42332e-06
0.00212102 -0.000638266 -4.23467e-07
-0.000638266 0.00031599 4.10576e-07
-4.23467e-07 4.10576e-07 2.53267e-05
0.00200677 -0.000549498 -9.09049e-07
-0.000549498 0.00011293 9.55298e-07
-9.09049e-07 9.55298e-07 -5.28195e-05
0.00218922 -0.000600384 3.7607e-06
-0.000600384 0.000286262 -4.39214e-06
3.7607e-06 -4.39214e-06 6.4628e-05
0.00146312 -0.000465779 -9.68974e-07
-0.000465779 0.00048572 -1.22725e-06
-9.68974e-07 -1.22725e-06 0.000124141
0.00139976 -0.000437165 -1.32154e-06
-0.000437165 0.000463012 1.57412e-06
-1.32154e-06 1.57412e-06 9.16054e-05
0.00100819 -0.000299052 1.81863e-06
-0.000299052 0.000294412 -8.08888e-07
1.81863e-06 -8.08888e-07 -2.33561e-05
0.000296269 -9.52586e-05 -2.47825e-06
-9.52586e-05 -8.80107e-05 1.04767e-06
-2.47825e-06 1.04767e-06 -0.000239831
-5.76711e-05 -0.000104914 -1.16782e-06
-0.000104914 -0.000232346 -1.27088e-06
-1.16782e-06 -1.27088e-06 -0.000542441
0.00198462 -6.97803e-05 4.29841e-06
-6.97803e-05 -8.63149e-06 -1.85745e-07
4.29841e-06 -1.85745e-07 -7.47644e-06
0.00203412 -0.000190043 3.10666e-06
-0.000190043 -5.12404e-06 -7.18494e-07
3.10666e-06 -7.18494e-07 -1.55538e-05
0.00216418 -0.00037593 5.43363e-07
-0.00037593 -2.581e-06 -4.07269e-07
5.43363e-07 -4.07269e-07 -1.93115e-05
0.0021333 -0.000483208 1.45696e-06
-0.000483208 8.92139e-05 -1.85032e-06
1.45696e-06 -1.85032e-06 4.6811e-06
0.00143353 -0.000556307 -4.35237e-06
-0.000556307 0.000395069 3.9336e-07
-4.35237e-06 3.9336e-07 -1.73871e-05
0.00228508 -0.000662746 -7.64233e-06
-0.000662746 0.000188859 -5.15606e-06
-7.64233e-06 -5.15606e-06 -3.57222e-06
0.00137526 -0.000723654 -2.20695e-05
-0.000723654 0.000198474 8.14623e-06
-2.20695e-05 8.14623e-06 -0.000268517
0.00216849 -0.000804805 2.68834e-07
-0.000804805 0.000420861 9.65786e-07
2.68834e-07 9.65786e-07 -1.77683e-07
0.00198976 -0.00060972 -1.49922e-05
-0.00060972 0.000231917 7.74959e-07
-1.49922e-05 7.74959e-07 -4.29163e-05
8.36272e-05 -2.06751e-05 -2.66522e-06
-2.06751e-05 -0.000206926 -5.88208e-06
-2.66522e-06 -5.88208e-06 -0.000324898
0.000982897 -0.000169433 -3.61734e-06
-0.000169433 0.000441232 -1.1566e-06
-3.61734e-06 -1.1566e-06 0.00016219
0.000950768 -0.00024851 -1.29375e-06
-0.00024851 0.000374706 -3.71844e-06
-1.29375e-06 -3.71844e-06 6.07377e-05
0.00188814 -0.000577935 -1.68735e-05
-0.000577935 0.000739635 5.65611e-06
-1.68735e-05 5.65611e-06 0.00031989
0.00203262 -0.000389484 -2.85173e-06
-0.000389484 0.000883011 1.07607e-05
-2.85173e-06 1.07607e-05 0.000540766
0.000641749 -0.000401801 -1.84308e-05
-0.000401801 -4.8109e-05 1.77202e-05
-1.84308e-05 1.77202e-05 -0.000427904
0.000377153 -1.01707e-05 -2.61191e-06
-1.01707e-05 -7.40313e-05 -8.75408e-06
-2.61191e-06 -8.75408e-06 -0.00011199
0.000447449 4.06656e-05 -4.14227e-07
4.06656e-05 -4.95793e-06 -7.90637e-06
-4.14227e-07 -7.90637e-06 -0.000126271
0.00210568 0.000453824 -2.91842e-06
0.000453824 0.000180554 -4.68709e-07
-2.91842e-06 -4.68709e-07 -4.50384e-06
-0.000136771 4.37447e-05 2.52456e-07
4.37447e-05 -0.000331559 -7.64219e-07
2.52456e-07 -7.64219e-07 -0.00058888
0.00137451 0.000315148 5.10526e-07
0.000315148 0.000455645 -9.8818e-08
5.10526e-07 -9.8818e-08 0.00020791
5.40249e-05 0.000147543 -4.35677e-06
0.000147543 -0.000385409 1.26689e-06
-4.35677e-06 1.26689e-06 -0.000591957
0.00201863 0.000569038 2.09737e-06
0.000569038 0.000271726 1.98373e-06
2.09737e-06 1.98373e-06 -2.93093e-06
0.00199557 0.000554014 2.703e-06
0.000554014 0.000167122 1.21302e-06
2.703e-06 1.21302e-06 -5.67673e-05
0.00154005 0.000553297 -9.32189e-07
0.000553297 0.000466742 7.7082e-07
-9.32189e-07 7.7082e-07 5.7449e-05
0.00230151 0.000708887 -5.01274e-06
0.000708887 0.000701963 4.35258e-06
-5.01274e-06 4.35258e-06 0.000306064
0.00213713 0.000663979 1.74922e-06
0.000663979 0.000332782 3.27198e-06
1.74922e-06 3.27198e-06 1.94509e-05
0.000612306 5.18815e-05 -2.51403e-07
5.18815e-05 9.49108e-05 5.62202e-07
-2.51403e-07 5.62202e-07 -6.3676e-06
0.000755881 9.60164e-05 -1.27884e-06
9.60164e-05 0.000242886 -9.08076e-08
-1.27884e-06 -9.08076e-08 3.40338e-05
0.001171 0.000414098 9.63538e-07
0.000414098 0.000304558 2.11544e-06
9.63538e-07 2.11544e-06 -1.30544e-05
0.000780444 0.000115093 1.28995e-06
0.000115093 0.000175012 -1.36577e-06
1.28995e-06 -1.36577e-06 -8.2626e-05
0.000852122 0.000235858 3.70897e-06
0.000235858 3.09819e-05 -2.29349e-06
3.70897e-06 -2.29349e-06 -0.000193578
0.00206472 0.000479036 -2.29395e-06
0.000479036 0.000131215 -1.39143e-06
-2.29395e-06 -1.39143e-06 -4.18975e-05
0.00212565 0.000630198 2.02462e-06
0.000630198 0.000294015 6.30706e-07
2.02462e-06 6.30706e-07 1.96697e-05
0.00205469 0.000609398 1.17151e-06
0.000609398 0.000155112 1.99833e-07
1.17151e-06 1.99833e-07 -7.96325e-05
0.00141911 0.000637075 2.17168e-06
0.000637075 0.000379437 7.05804e-07
2.17168e-06 7.05804e-07 -6.87853e-05
0.00181469 0.000694754 -1.99927e-06
0.000694754 0.000296963 -2.04651e-06
-1.99927e-06 -2.04651e-06 -7.04036e-05
0.00126082 0.000149119 1.43403e-06
0.000149119 0.000543674 3.57639e-06
1.43403e-06 3.57639e-06 0.000378743
-0.000278763 1.53062e-05 -9.34414e-07
1.53062e-05 -0.000361238 7.45899e-07
-9.34414e-07 7.45899e-07 -0.000629915
0.00138804 0.000498568 -5.74464e-07
0.000498568 0.000437296 -3.55503e-06
-5.74464e-07 -3.55503e-06 6.12011e-05
-6.5657e-05 0.0001597 5.53769e-06
0.0001597 -0.000499452 -1.00941e-07
5.53769e-06 -1.00941e-07 -0.000726222
0.00238513 0.000552797 -9.30278e-07
0.000552797 0.000947594 -4.43469e-06
-9.30278e-07 -4.43469e-06 0.000626907
0.00205347 0.000525256 -3.01975e-07
0.000525256 3.04001e-05 -3.81568e-07
-3.01975e-07 -3.81568e-07 -0.000111082
0.00218942 0.000693061 9.27953e-06
0.000693061 0.000294401 -2.47216e-06
9.27953e-06 -2.47216e-06 -1.05513e-05
0.00215152 0.000646359 9.69403e-06
0.000646359 0.000173589 1.365e-06
9.69403e-06 1.365e-06 -8.02658e-05
0.00163631 0.000688631 1.29308e-05
0.000688631 0.000456425 -1.89265e-07
1.29308e-05 -1.89265e-07 7.95797e-06
0.00212489 0.000802236 4.59775e-06
0.000802236 0.000498832 -7.36637e-07
4.59775e-06 -7.36637e-07 9.02968e-05
0.000552488 3.7935e-05 -1.31846e-06
3.7935e-05 5.08704e-05 -5.87317e-06
-1.31846e-06 -5.87317e-06 -3.58647e-05
0.000521408 9.04476e-05 1.22095e-06
9.04476e-05 5.77053e-05 1.21886e-07
1.22095e-06 1.21886e-07 -7.55659e-05
0.000241492 7.26078e-05 -3.6531e-07
7.26078e-05 -0.000121771 1.13578e-06
-3.6531e-07 1.13578e-06 -0.000242
-4.37242e-05 -2.11256e-05 1.08141e-06
-2.11256e-05 -0.000287693 -3.9705e-06
1.08141e-06 -3.9705e-06 -0.000412279
0.000594762 7.21159e-05 -5.63719e-07
7.21159e-05 0.000132766 1.567e-07
-5.63719e-07 1.567e-07 1.88468e-06
0.000500216 0.000101446 7.30957e-08
0.000101446 6.49094e-05 -1.43278e-07
7.30957e-08 -1.43278e-07 -7.48896e-05
0.000666894 0.000145721 -2.59801e-06
0.000145721 0.000182259 -4.89462e-06
-2.59801e-06 -4.89462e-06 4.39317e-05
0.000305795 4.10348e-05 -2.73281e-06
4.10348e-05 -3.92992e-05 9.403e-08
-2.73281e-06 9.403e-08 -0.0001891
0.000683191 0.000104618 -6.61898e-08
0.000104618 0.000177607 2.89094e-06
-6.61898e-08 2.89094e-06 6.01436e-05
0.000550548 7.66168e-05 2.81225e-06
7.66168e-05 7.20707e-05 4.085e-06
2.81225e-06 4.085e-06 -5.80872e-06
0.000511557 2.66748e-05 -2.67696e-06
2.66748e-05 4.25108e-05 5.58039e-08
-2.67696e-06 5.58039e-08 -3.2344e-05
0.00128137 3.43644e-07 2.03087e-06
3.43644e-07 0.000493972 3.62535e-06
2.03087e-06 3.62535e-06 0.000474392
0.000390345 -6.92359e-05 3.68956e-06
-6.92359e-05 -2.76634e-05 -4.65287e-06
3.68956e-06 -4.65287e-06 -0.000110418
0.00134948 -1.06747e-05 -7.84225e-06
-1.06747e-05 0.000533525 -1.71118e-06
-7.84225e-06 -1.71118e-06 0.000513143
0.000733388 -2.37281e-05 3.13308e-05
-2.37281e-05 0.000139335 9.62497e-06
3.13308e-05 9.62497e-06 0.000143501
0.00140767 -1.93142e-05 -1.45087e-05
-1.93142e-05 0.000569687 -7.98497e-06
-1.45087e-05 -7.98497e-06 0.000547059
0.000758009 -3.91876e-05 1.30321e-05
-3.91876e-05 0.000156257 3.60438e-06
1.30321e-05 3.60438e-06 0.00015531
0.00269957 -0.000119089 -1.00858e-06
-0.000119089 0.00140319 -3.16725e-06
-1.00858e-06 -3.16725e-06 0.00140134
0.000279567 6.53465e-05 -4.42406e-06
6.53465e-05 -0.000103059 -6.22551e-06
-4.42406e-06 -6.22551e-06 -0.000146765
0.000397027 4.57258e-06 -3.65318e-06
4.57258e-06 -3.62412e-05 3.0614e-07
-3.65318e-06 3.0614e-07 -8.92031e-05
0.00313027 0.000165253 -3.20422e-06
0.000165253 0.0017097 -7.36452e-06
-3.20422e-06 -7.36452e-06 0.0016934
0.000550499 -8.73084e-05 -1.27701e-05
-8.73084e-05 4.50399e-05 1.23755e-05
-1.27701e-05 1.23755e-05 -2.62069e-05
0.00407601 0.000142282 -3.6624e-05
0.000142282 0.00230827 -8.87726e-08
-3.6624e-05 -8.87726e-08 0.00229547
0.00507799 0.000107207 -0.000174607
0.000107207 0.00294832 2.04105e-05
-0.000174607 2.04105e-05 0.00294083
0.00207875 0.000385395 -2.35894e-06
0.000385395 0.000111113 1.09373e-06
-2.35894e-06 1.09373e-06 -3.28168e-05
0.00212133 0.000213828 -3.5013e-06
0.000213828 9.70996e-05 -4.27154e-07
-3.5013e-06 -4.27154e-07 3.32418e-05
0.00209025 0.000293834 -9.14147e-07
0.000293834 8.32312e-06 -2.72516e-08
-9.14147e-07 -2.72516e-08 -3.77085e-05
0.00203384 0.00012684 -1.99536e-06
0.00012684 -2.64936e-06 -3.6697e-07
-1.99536e-06 -3.6697e-07 -7.40442e-06
0.00204543 5.19804e-05 -5.65839e-06
5.19804e-05 4.51061e-05 -1.07126e-07
-5.65839e-06 -1.07126e-07 1.26359e-05
0.00188036 5.0163e-06 -2.08181e-06
5.0163e-06 7.48034e-05 2.32897e-07
-2.08181e-06 2.32897e-07 -1.34808e-05
0.00204858 -6.91789e-06 -9.29823e-08
-6.91789e-06 5.6947e-05 2.00503e-08
-9.29823e-08 2.00503e-08 2.11865e-05
0.00203834 5.58443e-05 1.24934e-06
5.58443e-05 2.53449e-05 3.77238e-08
1.24934e-06 3.77238e-08 2.14628e-05
0.00209052 0.000201899 -1.60822e-07
0.000201899 1.66953e-05 -3.78562e-08
-1.60822e-07 -3.78562e-08 8.94977e-07
0.00210338 0.000133073 6.26986e-07
0.000133073 -2.1405e-05 1.78104e-07
6.26986e-07 1.78104e-07 2.44281e-06
0.002097 0.000384279 -4.88106e-07
0.000384279 8.19216e-05 2.84438e-07
-4.88106e-07 2.84438e-07 -2.97584e-05
0.00221361 0.000307524 2.68915e-06
0.000307524 5.99818e-06 3.50318e-07
2.68915e-06 3.50318e-07 3.76832e-06
0.00199196 -1.30935e-05 4.08307e-06
-1.30935e-05 2.56307e-06 2.49382e-07
4.08307e-06 2.49382e-07 -3.51111e-06
0.00211375 6.35185e-05 -1.87278e-07
6.35185e-05 -2.0388e-05 4.78303e-08
-1.87278e-07 4.78303e-08 1.35726e-05
0.00218252 0.000204012 -1.03574e-06
0.000204012 -1.5684e-05 -3.43257e-07
-1.03574e-06 -3.43257e-07 6.13582e-06
0.00224791 0.000421337 -8.63846e-07
0.000421337 3.072e-05 4.4646e-07
-8.63846e-07 4.4646e-07 1.37546e-06
0.00206897 -7.05841e-05 -6.45724e-06
-7.05841e-05 7.67975e-05 4.89927e-07
-6.45724e-06 4.89927e-07 3.56264e-05
0.00204668 -0.000219494 -1.593e-06
-0.000219494 7.15488e-05 1.73007e-07
-1.593e-06 1.73007e-07 -5.95246e-06
0.00196747 -0.000121966 -4.83947e-06
-0.000121966 -5.01423e-06 8.16472e-07
-4.83947e-06 8.16472e-07 -1.53024e-05
0.00210306 -0.000317324 -5.29237e-06
-0.000317324 5.03206e-05 1.16269e-06
-5.29237e-06 1.16269e-06 2.26254e-06
0.00100322 -0.00038149 -7.13075e-06
-0.00038149 0.000133788 3.1049e-06
-7.13075e-06 3.1049e-06 -0.000188114
0.00156957 -0.000644929 1.33845e-05
-0.000644929 0.000337939 -4.41885e-06
1.33845e-05 -4.41885e-06 -9.39672e-05
0.00203916 -0.000756657 -3.00619e-06
-0.000756657 0.000375681 -2.54335e-06
-3.00619e-06 -2.54335e-06 -4.20202e-05
0.00197327 -0.000451527 -3.63816e-06
-0.000451527 8.49353e-05 1.33204e-06
-3.63816e-06 1.33204e-06 -6.44359e-05
0.00208536 -0.000409678 -3.16107e-07
-0.000409678 3.89294e-05 1.26084e-06
-3.16107e-07 1.26084e-06 -1.9927e-05
0.00198022 -0.000550702 -9.98748e-08
-0.000550702 8.65397e-05 1.89439e-06
-9.98748e-08 1.89439e-06 -8.00729e-05
0.00206812 -0.000624397 -3.16135e-06
-0.000624397 0.000304172 -2.29559e-06
-3.16135e-06 -2.29559e-06 1.71868e-05
0.00217311 -0.000591765 1.45821e-05
-0.000591765 0.000264031 -6.13587e-06
1.45821e-05 -6.13587e-06 4.86488e-05
0.000953474 -0.00040339 2.86293e-08
-0.00040339 0.000169261 6.46607e-07
2.86293e-08 6.46607e-07 -0.000176222
0.0013539 -0.000438252 1.78603e-05
-0.000438252 0.000414459 -8.12376e-06
1.78603e-05 -8.12376e-06 4.90509e-05
8.81557e-05 -0.000163266 5.30996e-07
-0.000163266 -0.000279408 -1.2326e-05
5.30996e-07 -1.2326e-05 -0.000584197
0.000103904 -8.55883e-05 4.38739e-07
-8.55883e-05 -0.000210129 5.19782e-06
4.38739e-07 5.19782e-06 -0.000363649
0.000198673 -8.07534e-05 4.95656e-06
-8.07534e-05 -8.58749e-05 2.42462e-07
4.95656e-06 2.42462e-07 -0.000383797
0.00197184 -7.82005e-05 1.1167e-07
-7.82005e-05 -1.87158e-05 -1.67061e-07
1.1167e-07 -1.67061e-07 -1.87161e-05
0.00206817 -0.000191484 1.46852e-06
-0.000191484 1.25967e-05 -1.06758e-08
1.46852e-06 -1.06758e-08 2.1666e-06
0.00216974 -0.000369509 -6.55905e-07
-0.000369509 1.78001e-05 7.01975e-08
-6.55905e-07 7.01975e-08 -4.1726e-06
0.00151579 -0.000564916 -1.27817e-06
-0.000564916 0.000445782 -6.90121e-07
-1.27817e-06 -6.90121e-07 3.26269e-05
0.00152298 -0.000722201 3.75769e-06
-0.000722201 0.000287343 -8.3407e-07
3.75769e-06 -8.3407e-07 -0.000176154
0.00217644 -0.000814135 -3.25718e-07
-0.000814135 0.000432223 -3.50896e-07
-3.25718e-07 -3.50896e-07 4.37672e-06
0.0021156 -0.000479334 4.33936e-07
-0.000479334 8.20628e-05 8.10837e-08
4.33936e-07 8.10837e-08 -5.03365e-06
0.00216052 -0.000645543 2.52896e-06
-0.000645543 0.000306363 -3.89929e-06
2.52896e-06 -3.89929e-06 2.76002e-05
0.00220598 -0.000640986 -1.46177e-06
-0.000640986 0.000174126 -2.73774e-07
-1.46177e-06 -2.73774e-07 -1.25267e-05
3.35834e-05 4.41883e-05 -1.94677e-06
4.41883e-05 -0.000249441 -9.29418e-07
-1.94677e-06 -9.29418e-07 -0.000356074
0.00134827 -0.000507588 4.55024e-08
-0.000507588 0.000402009 -2.00359e-06
4.55024e-08 -2.00359e-06 2.1272e-06
0.00149785 -0.000504826 -4.07296e-06
-0.000504826 0.000507686 1.71791e-06
-4.07296e-06 1.71791e-06 9.72418e-05
0.00163539 -0.000372175 -1.08653e-06
-0.000372175 0.000667823 2.49399e-06
-1.08653e-06 2.49399e-06 0.000308184
0.00128059 -0.000287435 1.67797e-06
-0.000287435 0.000574216 -2.14138e-06
1.67797e-06 -2.14138e-06 0.000254132
0.000414724 -9.00074e-05 -9.50186e-07
-9.00074e-05 7.16789e-05 1.30967e-06
-9.50186e-07 1.30967e-06 -0.00019262
0.0020713 -0.000100755 1.02816e-06
-0.000100755 -2.94325e-05 1.7795e-07
1.02816e-06 1.7795e-07 -4.31405e-06
0.00223519 -0.000257697 8.55e-08
-0.000257697 -2.69261e-05 1.50209e-07
8.55e-08 1.50209e-07 1.39205e-05
0.00224525 -0.000455178 5.18615e-07
-0.000455178 1.49427e-05 -4.68162e-07
5.18615e-07 -4.68162e-07 1.21531e-05
0.0022793 -0.000574778 5.94517e-07
-0.000574778 7.69323e-05 -2.91516e-06
5.94517e-07 -2.91516e-06 1.14084e-05
0.00171975 -0.000665022 -1.55536e-05
-0.000665022 0.000531536 6.56703e-06
-1.55536e-05 6.56703e-06 7.95097e-05
0.00247521 -0.000757752 -9.62195e-06
-0.000757752 0.000386359 -7.34939e-06
-9.62195e-06 -7.34939e-06 0.000126321
0.00194226 -0.000849374 -4.86153e-05
-0.000849374 0.000513608 7.40437e-06
-4.86153e-05 7.40437e-06 5.73106e-06
0.00232651 -0.000873045 -2.95405e-05
-0.000873045 0.000539263 1.10738e-06
-2.95405e-05 1.10738e-06 9.08703e-05
-8.81662e-05 5.09698e-05 -6.28051e-06
5.09698e-05 -0.000329254 -2.78334e-06
-6.28051e-06 -2.78334e-06 -0.000409523
0.000944346 -2.97557e-06 -3.68711e-06
-2.97557e-06 0.000387537 -8.09252e-08
-3.68711e-06 -8.09252e-08 0.000195539
0.00195231 -0.000300176 -6.70084e-06
-0.000300176 0.00105703 -2.27687e-07
-6.70084e-06 -2.27687e-07 0.000744346
0.00072688 -0.000179277 -6.72601e-08
-0.000179277 0.000172335 -5.8692e-06
-6.72601e-08 -5.8692e-06 -0.000149683
0.00287507 -0.000724185 -2.58317e-05
-0.000724185 0.00132013 1.46554e-05
-2.58317e-05 1.46554e-05 0.000858524
0.00169557 -0.000504376 -3.7932e-06
-0.000504376 0.000679578 2.16379e-05
-3.7932e-06 2.16379e-05 0.00022691
0.000539815 3.73084e-05 -1.02338e-06
3.73084e-05 5.05184e-05 -6.33744e-06
-1.02338e-06 -6.33744e-06 -4.94286e-05
-0.000324012 2.83724e-05 9.14883e-07
2.83724e-05 -0.000441015 -8.89412e-07
9.14883e-07 -8.89412e-07 -0.000634733
0.00199696 0.000477276 -1.69151e-06
0.000477276 9.47042e-05 -8.00624e-07
-1.69151e-06 -8.00624e-07 -7.9593e-05
0.00030494 8.2068e-05 -2.33334e-06
8.2068e-05 -0.000130599 2.83445e-06
-2.33334e-06 2.83445e-06 -0.000380926
0.00134736 0.00043944 -1.32899e-06
0.00043944 0.000398258 -5.33659e-06
-1.32899e-06 -5.33659e-06 7.35256e-05
-0.00119916 4.03053e-05 -5.68637e-06
4.03053e-05 -0.00126297 -2.48838e-06
-5.68637e-06 -2.48838e-06 -0.00143652
0.0021633 0.000633733 3.34737e-06
0.000633733 0.000311313 1.92648e-06
3.34737e-06 1.92648e-06 3.62189e-05
0.0020827 0.000607328 -5.99841e-06
0.000607328 0.000167355 3.43941e-07
-5.99841e-06 3.43941e-07 -6.59011e-05
0.00179847 0.000693078 -5.89406e-06
0.000693078 0.000594062 4.51029e-06
-5.89406e-06 4.51029e-06 0.000136697
0.00202944 0.000721396 -7.62576e-06
0.000721396 0.000448177 1.41608e-06
-7.62576e-06 1.41608e-06 6.98245e-05
0.000821761 0.000111167 -5.81868e-07
0.000111167 0.000256534 3.33897e-08
-5.81868e-07 3.33897e-08 0.000104943
0.000478665 9.97412e-05 1.7233e-06
9.97412e-05 0.0001087 -3.6238e-07
1.7233e-06 -3.6238e-07 -0.000174633
0.00129589 0.000481274 -3.58583e-06
0.000481274 0.000376556 -1.22089e-06
-3.58583e-06 -1.22089e-06 6.43361e-06
0.000774791 0.000191158 2.18866e-07
0.000191158 1.32671e-05 -4.91219e-07
2.18866e-07 -4.91219e-07 -0.000212338
0.00190532 0.000452766 2.3057e-06
0.000452766 0.000627145 -2.43288e-06
2.3057e-06 -2.43288e-06 0.000336643
0.00221242 0.000541288 -2.4901e-06
0.000541288 0.000113995 -8.37952e-07
-2.4901e-06 -8.37952e-07 -2.88604e-05
0.00233681 0.000693351 2.8425e-06
0.000693351 0.000389477 -5.93466e-07
2.8425e-06 -5.93466e-07 9.13854e-05
0.00232828 0.000669396 1.84848e-06
0.000669396 0.000274259 2.75523e-06
1.84848e-06 2.75523e-06 1.66752e-05
0.00157752 0.000686469 4.15265e-06
0.000686469 0.000422944 1.13518e-06
4.15265e-06 1.13518e-06 -2.87614e-05
0.00199049 0.000813545 -4.86177e-06
0.000813545 0.000421904 4.26163e-07
-4.86177e-06 4.26163e-07 1.01645e-07
-0.00104553 1.02075e-05 -4.39274e-06
1.02075e-05 -0.000900378 6.69619e-06
-4.39274e-06 6.69619e-06 -0.00104625
-0.000801561 0.000216511 1.24666e-06
0.000216511 -0.000626028 1.03525e-06
1.24666e-06 1.03525e-06 -0.000955494
0.00152262 0.000544582 5.00042e-06
0.000544582 0.000471258 -2.93141e-06
5.00042e-06 -2.93141e-06 8.32525e-05
0.000430773 0.000273355 3.95218e-06
0.000273355 -0.000304789 -2.25827e-06
3.95218e-06 -2.25827e-06 -0.000547554
0.00246901 0.000546862 4.95243e-06
0.000546862 -3.4848e-05 2.02276e-06
4.95243e-06 2.02276e-06 -8.58379e-06
0.00268344 0.000669721 8.57395e-06
0.000669721 0.000411519 1.10336e-06
8.57395e-06 1.10336e-06 0.000206851
0.00226008 0.000799622 8.02118e-06
0.000799622 0.000360136 -3.64661e-06
8.02118e-06 -3.64661e-06 -1.37045e-05
0.00168248 0.000790141 2.434e-06
0.000790141 0.000347566 -1.15499e-06
2.434e-06 -1.15499e-06 -0.00012981
0.000849633 0.000136655 -5.33858e-07
0.000136655 0.000276581 -3.01675e-06
-5.33858e-07 -3.01675e-06 0.000131817
0.000494304 0.000128841 -1.61951e-06
0.000128841 5.31637e-05 -9.34941e-07
-1.61951e-06 -9.34941e-07 -8.11769e-05
0.00135302 0.000123266 -8.8292e-06
0.000123266 0.000597414 -4.02728e-06
-8.8292e-06 -4.02728e-06 0.000492318
0.00047987 4.7556e-05 2.3482e-08
4.7556e-05 3.49191e-05 -3.29614e-06
2.3482e-08 -3.29614e-06 -7.72507e-05
-0.000261363 4.26059e-05 4.25198e-07
4.26059e-05 -0.00040844 -1.44219e-06
4.25198e-07 -1.44219e-06 -0.00053664
0.000606791 5.56093e-05 -7.74919e-07
5.56093e-05 0.000131187 2.13836e-07
-7.74919e-07 2.13836e-07 1.30915e-05
0.000495668 0.000141836 6.71735e-07
0.000141836 9.54649e-05 1.00531e-06
6.71735e-07 1.00531e-06 -4.18888e-05
0.000479193 6.63081e-05 7.77741e-07
6.63081e-05 8.27188e-05 2.68134e-07
7.77741e-07 2.68134e-07 -7.83547e-05
0.000655338 0.000122979 5.0394e-06
0.000122979 0.000132316 -3.41988e-06
5.0394e-06 -3.41988e-06 4.73784e-05
0.000719879 2.8404e-05 2.78418e-06
2.8404e-05 0.000226946 -4.757e-06
2.78418e-06 -4.757e-06 7.35121e-05
0.000143033 6.96595e-05 -3.92657e-07
6.96595e-05 -0.000137636 2.58524e-06
-3.92657e-07 2.58524e-06 -0.00028762
0.000670844 0.00011632 1.97789e-06
0.00011632 0.000170944 4.05238e-06
1.97789e-06 4.05238e-06 4.98315e-05
0.000456983 8.14942e-05 2.81907e-06
8.14942e-05 1.95969e-05 3.98029e-06
2.81907e-06 3.98029e-06 -6.44541e-05
0.000447059 1.78067e-05 -1.55648e-06
1.78067e-05 4.54328e-06 -3.43531e-07
-1.55648e-06 -3.43531e-07 -7.11354e-05
0.0012388 8.09511e-06 1.07806e-06
8.09511e-06 0.00047278 3.16056e-06
1.07806e-06 3.16056e-06 0.000453574
0.000435106 -4.21781e-05 8.39154e-07
-4.21781e-05 -8.13027e-06 -3.57765e-06
8.39154e-07 -3.57765e-06 -8.08047e-05
0.00132573 -4.57748e-06 -7.4507e-06
-4.57748e-06 0.000521695 -1.71871e-06
-7.4507e-06 -1.71871e-06 0.000503038
0.00072218 -1.39895e-05 2.86239e-05
-1.39895e-05 0.000134667 9.46403e-06
2.86239e-05 9.46403e-06 0.000139863
0.00136907 -1.80481e-05 -1.1054e-05
-1.80481e-05 0.000546013 -7.31282e-06
-1.1054e-05 -7.31282e-06 0.000526353
0.000742865 -2.84464e-05 1.12811e-05
-2.84464e-05 0.000143751 3.60679e-06
1.12811e-05 3.60679e-06 0.000146032
0.000736537 -4.12581e-05 6.9461e-07
-4.12581e-05 0.00014248 -3.53797e-06
6.9461e-07 -3.53797e-06 0.000140325
0.000372287 4.57609e-05 -1.9144e-06
4.57609e-05 -6.77072e-05 -4.29393e-06
-1.9144e-06 -4.29393e-06 -9.61062e-05
0.000388652 7.05617e-05 -6.01155e-07
7.05617e-05 -3.36153e-05 3.04458e-07
-6.01155e-07 3.04458e-07 -7.91835e-05
0.00263218 0.000125601 4.16606e-06
0.000125601 0.00138185 -5.66057e-06
4.16606e-06 -5.66057e-06 0.00137658
0.000492669 3.37262e-06 -6.689e-06
3.37262e-06 2.51018e-05 1.05426e-05
-6.689e-06 1.05426e-05 -3.03725e-05
0.00327211 0.000162102 -2.15164e-05
0.000162102 0.00179725 -2.2205e-06
-2.15164e-05 -2.2205e-06 0.00178137
0.00425082 8.39602e-05 -0.000143491
8.39602e-05 0.0024133 1.49996e-05
-0.000143491 1.49996e-05 0.00241431
0.0021217 0.000385146 -8.11438e-07
0.000385146 0.000107854 3.87065e-07
-8.11438e-07 3.87065e-07 -6.00044e-06
0.00210684 0.000200582 -3.93363e-06
0.000200582 2.99626e-05 -6.80222e-07
-3.93363e-06 -6.80222e-07 1.57456e-05
0.00213971 0.000307342 8.60906e-07
0.000307342 -4.21239e-05 6.60167e-07
8.60906e-07 6.60167e-07 -3.75593e-05
0.00208364 0.000134348 5.98078e-07
0.000134348 -3.96026e-05 -6.55199e-08
5.98078e-07 -6.55199e-08 -8.94794e-06
0.00203586 5.67426e-05 -3.90791e-06
5.67426e-05 2.67208e-05 -3.69079e-07
-3.90791e-06 -3.69079e-07 1.93167e-05
0.00206274 -9.90526e-06 -7.17228e-06
-9.90526e-06 7.08643e-05 5.52298e-08
-7.17228e-06 5.52298e-08 3.36479e-05
0.00200412 -1.14235e-05 1.38407e-07
-1.14235e-05 1.14771e-05 -2.44883e-08
1.38407e-07 -2.44883e-08 6.19177e-06
0.00209677 6.62852e-05 1.12823e-06
6.62852e-05 -2.68424e-05 1.25653e-07
1.12823e-06 1.25653e-07 5.20572e-06
0.00217733 0.000210739 1.09248e-06
0.000210739 -2.02924e-05 2.15019e-07
1.09248e-06 2.15019e-07 5.09982e-06
0.00224372 0.000409799 5.50478e-07
0.000409799 2.12509e-05 1.51635e-07
5.50478e-07 1.51635e-07 -6.51999e-06
0.00206423 -1.67278e-05 -6.68758e-07
-1.67278e-05 -3.6454e-05 1.08111e-07
-6.68758e-07 1.08111e-07 -1.06061e-05
0.0022253 0.000117826 -2.46283e-06
0.000117826 -6.22987e-05 -4.41034e-07
-2.46283e-06 -4.41034e-07 1.0864e-05
0.00241007 0.000319334 1.03044e-06
0.000319334 -1.39614e-06 -2.99408e-07
1.03044e-06 -2.99408e-07 4.39491e-05
0.00195923 -8.64931e-05 -3.90379e-06
-8.64931e-05 -2.87499e-05 1.81604e-07
-3.90379e-06 1.81604e-07 -2.98047e-05
0.00210259 -0.000192359 -3.3096e-06
-0.000192359 3.13048e-05 5.40524e-07
-3.3096e-06 5.40524e-07 2.08592e-05
0.00216915 -0.000362395 -2.01466e-06
-0.000362395 3.51426e-05 5.65791e-07
-2.01466e-06 5.65791e-07 7.22131e-06
0.00165188 -0.000581204 2.89675e-06
-0.000581204 0.000525896 -1.23176e-06
2.89675e-06 -1.23176e-06 0.000110428
0.0015427 -0.00069948 2.48787e-05
-0.00069948 0.000304955 -8.05646e-06
2.48787e-05 -8.05646e-06 -0.000148092
0.0019873 -0.00080151 1.28876e-06
-0.00080151 0.000335341 1.13395e-07
1.28876e-06 1.13395e-07 -9.32612e-05
0.00209731 -0.000475393 -1.49287e-06
-0.000475393 7.40957e-05 1.55521e-06
-1.49287e-06 1.55521e-06 -1.5557e-05
0.0021477 -0.000620638 8.66465e-06
-0.000620638 0.000171122 3.04796e-06
8.66465e-06 3.04796e-06 -8.07615e-06
0.00225185 -0.000679601 1.46846e-05
-0.000679601 0.000337028 -6.86241e-06
1.46846e-05 -6.86241e-06 5.41411e-05
0.00100084 -0.000457533 9.20644e-06
-0.000457533 0.00018453 -6.74953e-06
9.20644e-06 -6.74953e-06 -0.000201973
0.00166771 -0.000542525 2.09503e-05
-0.000542525 0.00062835 -1.75011e-05
2.09503e-05 -1.75011e-05 0.000210379
0.00101124 -0.000378948 -1.98287e-06
-0.000378948 0.000310179 -1.02457e-05
-1.98287e-06 -1.02457e-05 -6.66165e-05
0.000216349 3.92396e-05 4.20151e-06
3.92396e-05 -0.000138146 1.95473e-06
4.20151e-06 1.95473e-06 -0.000240294
0.00186583 -0.000316616 2.81257e-06
-0.000316616 0.00090556 4.40637e-06
2.81257e-06 4.40637e-06 0.000595283
-0.000333687 4.25932e-06 7.00129e-06
4.25932e-06 -0.000410689 1.23911e-07
7.00129e-06 1.23911e-07 -0.000659405
0.00208718 -9.80811e-05 -5.70322e-07
-9.80811e-05 -1.94981e-05 1.39867e-07
-5.70322e-07 1.39867e-07 3.59234e-06
0.00220543 -0.000265954 1.03255e-07
-0.000265954 -4.90465e-05 -1.17853e-07
1.03255e-07 -1.17853e-07 -6.37112e-06
0.00223326 -0.000447048 -6.59712e-07
-0.000447048 1.30095e-05 3.39749e-07
-6.59712e-07 3.39749e-07 7.70773e-06
0.00177185 -0.000668625 -7.37568e-07
-0.000668625 0.000580644 8.65226e-07
-7.37568e-07 8.65226e-07 0.000127744
0.00135053 -0.000769062 6.16379e-06
-0.000769062 0.000172334 -2.28467e-06
6.16379e-06 -2.28467e-06 -0.00031477
0.00244694 -0.000864098 -3.55672e-06
-0.000864098 0.000609333 -3.78132e-07
-3.55672e-06 -3.78132e-07 0.000176699
0.00224767 -0.000583633 2.7626e-07
-0.000583633 6.04832e-05 -4.20804e-07
2.7626e-07 -4.20804e-07 -1.31859e-05
0.00199223 -0.000698213 2.46408e-06
-0.000698213 0.000124884 -9.16977e-07
2.46408e-06 -9.16977e-07 -0.000117487
0.000231616 6.04726e-05 -1.87379e-06
6.04726e-05 -0.000129234 -1.36905e-06
-1.87379e-06 -1.36905e-06 -0.000206115
0.000653413 -3.64621e-05 -9.3719e-07
-3.64621e-05 0.00019341 9.88357e-07
-9.3719e-07 9.88357e-07 1.10547e-05
0.000952587 -0.000505803 -3.03857e-06
-0.000505803 0.000130486 2.01582e-06
-3.03857e-06 2.01582e-06 -0.00027196
0.00135191 -0.000439489 -5.818e-06
-0.000439489 0.000476138 1.2399e-06
-5.818e-06 1.2399e-06 3.05356e-05
0.00161456 -0.000240122 -7.91039e-07
-0.000240122 0.000716155 -1.54699e-06
-7.91039e-07 -1.54699e-06 0.000386401
0.00105453 -0.000212627 -3.51463e-07
-0.000212627 0.00048103 1.78441e-06
-3.51463e-07 1.78441e-06 0.000180826
0.002198 -0.000136055 -1.96621e-06
-0.000136055 -6.2022e-05 1.13484e-06
-1.96621e-06 1.13484e-06 1.14296e-05
0.00234916 -0.000382443 -2.01601e-06
-0.000382443 -8.97411e-05 8.97788e-07
-2.01601e-06 8.97788e-07 7.13773e-06
0.00233086 -0.000549591 2.32897e-06
-0.000549591 1.60924e-05 -1.07758e-06
2.32897e-06 -1.07758e-06 1.66978e-05
0.00239979 -0.000748895 6.00453e-06
-0.000748895 0.000165095 -4.3455e-06
6.00453e-06 -4.3455e-06 1.10858e-05
0.00099641 -0.000615581 -1.25712e-05
-0.000615581 9.99462e-05 -7.27325e-06
-1.25712e-05 -7.27325e-06 -0.000347274
0.00277255 -0.000948671 -7.70577e-06
-0.000948671 0.000705341 -9.64304e-07
-7.70577e-06 -9.64304e-07 0.000299571
0.00241015 -0.000981251 -5.44263e-05
-0.000981251 0.000714688 -2.33832e-06
-5.44263e-05 -2.33832e-06 0.000159196
0.000545422 4.48099e-05 -1.8405e-07
4.48099e-05 5.09727e-05 -1.90407e-08
-1.8405e-07 -1.90407e-08 -6.80476e-06
0.000719363 -0.000151585 3.82525e-06
-0.000151585 0.000225246 -1.07118e-06
3.82525e-06 -1.07118e-06 0.000105801
0.000302756 8.84148e-05 -8.82536e-06
8.84148e-05 -3.47807e-05 -7.52247e-09
-8.82536e-06 -7.52247e-09 -0.000159938
0.00089424 -7.17875e-05 -4.76909e-06
-7.17875e-05 0.000370755 3.22987e-06
-4.76909e-06 3.22987e-06 0.000133313
-0.000211405 -0.000158473 2.1826e-06
-0.000158473 -0.000364217 -8.62231e-06
2.1826e-06 -8.62231e-06 -0.000648368
0.000273107 -0.000186512 6.74655e-06
-0.000186512 -6.253e-05 -2.66358e-06
6.74655e-06 -2.66358e-06 -0.000477082
0.00118196 -0.000564382 -4.1919e-05
-0.000564382 0.00029613 2.88263e-05
-4.1919e-05 2.88263e-05 -0.000107619
0.00304994 -0.000573495 -3.31174e-05
-0.000573495 0.00171487 2.0034e-05
-3.31174e-05 2.0034e-05 0.00102445
0.000272726 5.76144e-05 -1.85022e-07
5.76144e-05 -0.000107386 -2.00771e-06
-1.85022e-07 -2.00771e-06 -0.0002394
0.00113292 0.000248602 -7.71054e-07
0.000248602 0.000497515 2.7057e-07
-7.71054e-07 2.7057e-07 0.00020756
0.00237065 0.000557706 -2.34909e-06
0.000557706 0.000197342 -1.33835e-06
-2.34909e-06 -1.33835e-06 5.28051e-05
0.000433459 0.000197214 -4.25183e-06
0.000197214 -0.000184929 5.22859e-07
-4.25183e-06 5.22859e-07 -0.000434491
0.00118916 0.000463604 -2.31453e-06
0.000463604 0.000306992 6.57407e-08
-2.31453e-06 6.57407e-08 -5.89733e-05
0.00179587 0.000396265 -5.71821e-06
0.000396265 0.000538676 -1.65091e-06
-5.71821e-06 -1.65091e-06 0.000266998
0.00246232 0.000689407 -7.2926e-06
0.000689407 0.000473127 -1.13338e-07
-7.2926e-06 -1.13338e-07 0.000183345
0.00248884 0.000691002 -1.08702e-05
0.000691002 0.00036611 5.21883e-06
-1.08702e-05 5.21883e-06 0.000105375
0.00160705 0.000698672 -5.4503e-06
0.000698672 0.00043776 1.75459e-06
-5.4503e-06 1.75459e-06 -1.90596e-05
0.00181637 0.000822059 -7.53128e-06
0.000822059 0.000319014 1.08966e-07
-7.53128e-06 1.08966e-07 -0.000114497
-0.000217188 7.24656e-05 1.22195e-06
7.24656e-05 -0.000371426 1.40107e-06
1.22195e-06 1.40107e-06 -0.000544961
9.40212e-05 0.000285284 8.76494e-08
0.000285284 -7.02603e-05 -2.44176e-06
8.76494e-08 -2.44176e-06 -0.000405507
0.00157265 0.000561984 1.85506e-06
0.000561984 0.000480549 1.85505e-07
1.85506e-06 1.85505e-07 8.26905e-05
0.00177829 0.000399016 -4.223e-06
0.000399016 0.000563296 1.65628e-06
-4.223e-06 1.65628e-06 0.000294335
0.00243669 0.000524875 6.36799e-07
0.000524875 -7.75558e-05 -8.98759e-07
6.36799e-07 -8.98759e-07 -3.82422e-05
0.00258294 0.000671848 3.35852e-06
0.000671848 0.000351176 -3.50549e-09
3.35852e-06 -3.50549e-09 0.000137787
0.00217082 0.000775591 -2.64632e-06
0.000775591 0.000327163 -1.28745e-09
-2.64632e-06 -1.28745e-09 -3.76132e-05
0.0019167 0.000809764 1.19158e-06
0.000809764 0.000465746 1.25364e-07
1.19158e-06 1.25364e-07 -7.54154e-06
-0.000518986 3.73244e-05 -3.67719e-06
3.73244e-05 -0.000546839 5.08421e-06
-3.67719e-06 5.08421e-06 -0.000715766
0.00230995 0.000395451 1.20781e-05
0.000395451 -0.000194236 3.22673e-06
1.20781e-05 3.22673e-06 -0.000105162
0.00297096 0.000585559 7.84009e-06
0.000585559 0.0016636 9.38905e-06
7.84009e-06 9.38905e-06 0.00129455
0.00136458 0.000540227 3.72784e-06
0.000540227 0.000271496 -4.07394e-06
3.72784e-06 -4.07394e-06 -9.52537e-05
0.00257109 0.00065369 -1.27262e-05
0.00065369 0.000153508 -7.68578e-06
-1.27262e-05 -7.68578e-06 9.65261e-05
0.00127815 0.000723778 4.275e-06
0.000723778 -0.000294885 -8.74023e-06
4.275e-06 -8.74023e-06 -0.000638205
0.00281781 0.000937776 1.49397e-06
0.000937776 0.000924292 3.61276e-06
1.49397e-06 3.61276e-06 0.000420875
0.000736135 0.000131845 -1.28241e-06
0.000131845 0.000207219 -2.98356e-06
-1.28241e-06 -2.98356e-06 6.91495e-05
0.000587273 0.000122431 -3.74915e-06
0.000122431 0.000142347 -1.57497e-06
-3.74915e-06 -1.57497e-06 3.05421e-05
0.000851224 0.000106624 -2.76028e-06
0.000106624 0.000319401 4.44825e-06
-2.76028e-06 4.44825e-06 0.000247431
0.000469003 8.73241e-06 1.32615e-06
8.73241e-06 4.4813e-05 -3.90398e-06
1.32615e-06 -3.90398e-06 -7.31618e-05
0.00062885 9.01999e-05 2.77499e-06
9.01999e-05 0.000181464 -1.59294e-06
2.77499e-06 -1.59294e-06 1.55437e-05
-0.000484645 9.84709e-05 -3.10617e-06
9.84709e-05 -0.000482526 6.42363e-06
-3.10617e-06 6.42363e-06 -0.000609286
0.000539454 2.4665e-05 -1.58499e-06
2.4665e-05 9.26382e-05 1.27917e-08
-1.58499e-06 1.27917e-08 -3.1291e-05
0.000281384 -4.81422e-06 -8.95125e-07
-4.81422e-06 -3.5002e-05 -2.75462e-07
-8.95125e-07 -2.75462e-07 -0.000195513
4.85834e-05 6.48672e-05 -1.60737e-06
6.48672e-05 -0.000217745 2.35919e-06
-1.60737e-06 2.35919e-06 -0.000289595
0.000775591 0.000117627 1.15625e-06
0.000117627 0.000275806 -1.6767e-06
1.15625e-06 -1.6767e-06 0.000110741
0.00180756 0.000158164 -1.03224e-06
0.000158164 0.000842101 -1.49878e-06
-1.03224e-06 -1.49878e-06 0.000794965
0.000292255 2.98296e-05 1.06034e-05
2.98296e-05 -6.79943e-05 -8.32839e-06
1.06034e-05 -8.32839e-06 -0.000156508
0.000327111 0.000117862 6.38833e-07
0.000117862 4.2226e-06 2.96018e-06
6.38833e-07 2.96018e-06 -0.000169073
0.00056571 5.75615e-05 1.25302e-06
5.75615e-05 0.000135621 4.38466e-06
1.25302e-06 4.38466e-06 -3.57496e-05
0.000550878 2.99101e-05 2.20521e-06
2.99101e-05 8.88795e-05 3.54359e-06
2.20521e-06 3.54359e-06 -3.5825e-05
0.000484019 -6.34188e-05 -1.16078e-06
-6.34188e-05 3.2151e-05 3.17298e-06
-1.16078e-06 3.17298e-06 -5.15487e-05
0.000479569 1.32302e-05 4.67802e-07
1.32302e-05 2.40481e-05 -4.10924e-07
4.67802e-07 -4.10924e-07 -5.31916e-05
0.00130966 2.96968e-05 3.46841e-06
2.96968e-05 0.000525425 3.39457e-06
3.46841e-06 3.39457e-06 0.000504188
0.000483205 7.94869e-06 5.76837e-07
7.94869e-06 1.63487e-05 -3.70565e-06
5.76837e-07 -3.70565e-06 -5.20809e-05
0.00132321 1.48166e-05 -7.29785e-06
1.48166e-05 0.000526716 -1.78706e-06
-7.29785e-06 -1.78706e-06 0.00050719
0.000743504 -6.93203e-06 2.36984e-05
-6.93203e-06 0.000153249 9.1329e-06
2.36984e-05 9.1329e-06 0.000158027
0.00134656 -1.07697e-05 -8.6721e-06
-1.07697e-05 0.000534597 -7.0032e-06
-8.6721e-06 -7.0032e-06 0.000516573
0.000764908 -1.88416e-05 8.94122e-06
-1.88416e-05 0.000158745 3.59765e-06
8.94122e-06 3.59765e-06 0.000162451
0.000758232 -3.08319e-05 5.3121e-07
-3.08319e-05 0.00015137 -3.12324e-06
5.3121e-07 -3.12324e-06 0.000152815
0.000619392 -1.49108e-05 1.50378e-06
-1.49108e-05 9.1605e-05 -1.27244e-06
1.50378e-06 -1.27244e-06 3.83429e-05
0.000388995 2.82013e-05 -2.07252e-07
2.82013e-05 -6.95496e-05 -3.73826e-06
-2.07252e-07 -3.73826e-06 -8.96365e-05
0.000408689 4.89122e-05 3.24403e-07
4.89122e-05 -4.20178e-05 2.74459e-07
3.24403e-07 2.74459e-07 -7.20178e-05
0.00242605 9.80783e-05 9.9301e-06
9.80783e-05 0.00123959 -4.8692e-06
9.9301e-06 -4.8692e-06 0.0012419
0.00046406 5.87821e-05 4.59728e-06
5.87821e-05 6.49256e-06 7.68725e-06
4.59728e-06 7.68725e-06 -3.62924e-05
0.00283351 0.000136945 -4.80427e-06
0.000136945 0.00151162 -5.55751e-07
-4.80427e-06 -5.55751e-07 0.00150372
0.00350751 0.000117276 -5.76834e-05
0.000117276 0.00193422 6.54239e-06
-5.76834e-05 6.54239e-06 0.0019279
0.00224626 0.000399195 9.10762e-07
0.000399195 1.57414e-05 -1.56143e-08
9.10762e-07 -1.56143e-08 -1.03981e-05
0.00217602 0.000217648 6.04682e-08
0.000217648 -2.13719e-05 3.33962e-07
6.04682e-08 3.33962e-07 7.02926e-06
0.00208051 7.00506e-05 2.43091e-07
7.00506e-05 -3.19731e-05 -9.30072e-08
2.43091e-07 -9.30072e-08 -2.04538e-06
0.00201444 -9.66929e-06 -4.20461e-06
-9.66929e-06 1.94594e-05 -3.07136e-07
-4.20461e-06 -3.07136e-07 1.49331e-05
0.00207283 -1.15731e-05 -9.64111e-07
-1.15731e-05 -3.23733e-05 -3.67052e-08
-9.64111e-07 -3.67052e-08 -3.80842e-06
0.00221295 0.000111345 2.58548e-08
0.000111345 -6.0301e-05 3.83992e-07
2.58548e-08 3.83992e-07 1.03383e-05
0.0023315 0.000326418 -1.18718e-06
0.000326418 -3.58982e-05 -1.39005e-07
-1.18718e-06 -1.39005e-07 8.24924e-06
0.00219358 -1.12514e-05 -2.6844e-06
-1.12514e-05 -7.80148e-05 2.7821e-07
-2.6844e-06 2.7821e-07 4.66126e-06
0.00244539 0.00016695 2.87541e-06
0.00016695 -5.34032e-05 -1.36033e-06
2.87541e-06 -1.36033e-06 3.13209e-05
0.00260396 0.000125891 1.28172e-05
0.000125891 0.000114137 1.26248e-05
1.28172e-05 1.26248e-05 0.000206116
0.0021029 -9.59627e-05 -9.13739e-07
-9.59627e-05 -9.3484e-06 -1.3187e-07
-9.13739e-07 -1.3187e-07 1.1654e-05
0.00217896 -0.000275651 -4.54652e-07
-0.000275651 -7.04618e-05 -2.75163e-07
-4.54652e-07 -2.75163e-07 -2.54632e-05
0.00222808 -0.000438512 -5.19958e-08
-0.000438512 1.54318e-05 -1.75205e-07
-5.19958e-08 -1.75205e-07 8.37394e-06
0.00138112 -0.000630485 1.16633e-05
-0.000630485 0.000342844 -4.50598e-06
1.16633e-05 -4.50598e-06 -0.000104049
0.00193097 -0.000836771 3.46724e-05
-0.000836771 0.000506128 -2.5439e-06
3.46724e-05 -2.5439e-06 3.69324e-06
0.00200202 -0.000786419 1.5934e-05
-0.000786419 0.000364681 -1.90816e-06
1.5934e-05 -1.90816e-06 -4.05955e-05
0.00221298 -0.00058963 1.88931e-06
-0.00058963 4.69393e-05 3.03509e-06
1.88931e-06 3.03509e-06 -3.60967e-05
0.00190666 -0.000677161 1.29167e-05
-0.000677161 9.66036e-05 4.36476e-06
1.29167e-05 4.36476e-06 -0.000137678
0.000534846 -0.000445881 2.12527e-05
-0.000445881 -0.000115504 -2.16163e-05
2.12527e-05 -2.16163e-05 -0.000509441
0.00137928 -0.000418441 1.8874e-05
-0.000418441 0.000545266 -2.15747e-05
1.8874e-05 -2.15747e-05 8.57571e-05
0.00122278 -0.000158168 -3.56794e-06
-0.000158168 0.000435851 2.52312e-06
-3.56794e-06 2.52312e-06 0.000131625
0.000412609 1.6455e-05 2.85289e-06
1.6455e-05 -1.69144e-05 8.80361e-07
2.85289e-06 8.80361e-07 -8.95542e-05
0.000479993 2.44269e-05 7.70135e-06
2.44269e-05 7.61524e-05 8.84149e-07
7.70135e-06 8.84149e-07 -9.88619e-05
0.00031584 -0.000150847 1.91025e-06
-0.000150847 -1.2464e-06 7.38932e-06
1.91025e-06 7.38932e-06 -0.000287599
0.00220871 -0.000138787 5.68584e-07
-0.000138787 -6.44712e-05 -6.31912e-08
5.68584e-07 -6.31912e-08 1.14804e-05
0.000478962 7.39528e-06 1.8531e-06
7.39528e-06 9.29777e-06 3.50978e-07
1.8531e-06 3.50978e-07 -4.84907e-05
0.000386586 -7.70128e-05 -2.65791e-06
-7.70128e-05 -2.06571e-05 -6.55332e-07
-2.65791e-06 -6.55332e-07 -0.000117925
0.002323 -0.000371603 -2.21015e-07
-0.000371603 -8.21258e-05 1.11785e-07
-2.21015e-07 1.11785e-07 3.66605e-06
0.00228171 -0.000535559 -1.87066e-06
-0.000535559 -2.61699e-06 4.05851e-07
-1.87066e-06 4.05851e-07 5.69053e-06
0.00183821 -0.000729898 -1.30196e-06
-0.000729898 0.000595261 2.11446e-06
-1.30196e-06 2.11446e-06 0.0001143
0.00192797 -0.000916752 9.91221e-06
-0.000916752 0.000464843 4.61136e-07
9.91221e-06 4.61136e-07 -8.18406e-05
0.00218893 -0.000887653 1.94961e-06
-0.000887653 0.000359515 -5.82902e-06
1.94961e-06 -5.82902e-06 -2.82791e-05
0.002361 -0.000745223 2.9309e-06
-0.000745223 0.000143817 -9.28174e-07
2.9309e-06 -9.28174e-07 -5.35034e-06
0.000653411 1.03778e-05 -8.93501e-07
1.03778e-05 0.000194007 -1.40295e-06
-8.93501e-07 -1.40295e-06 6.47733e-05
0.000770388 -6.32611e-05 1.40031e-06
-6.32611e-05 0.000290963 2.1377e-06
1.40031e-06 2.1377e-06 5.57053e-05
0.00145388 -0.000569789 5.47052e-06
-0.000569789 0.000485371 6.59915e-06
5.47052e-06 6.59915e-06 6.47246e-05
0.00137117 -0.000431454 1.23032e-05
-0.000431454 0.00066113 -9.44137e-06
1.23032e-05 -9.44137e-06 7.32715e-05
0.00101195 -0.000180601 1.33299e-08
-0.000180601 0.000328089 -2.6665e-07
1.33299e-08 -2.6665e-07 -3.84855e-05
0.000173762 -0.000122752 8.86953e-07
-0.000122752 -0.000114945 -2.85914e-06
8.86953e-07 -2.85914e-06 -0.000408464
0.00221254 -0.000162641 7.48077e-07
-0.000162641 -0.000221033 7.23389e-07
7.48077e-07 7.23389e-07 -0.000114537
0.00233092 -0.000479342 -6.69754e-07
-0.000479342 -0.000235363 3.00165e-06
-6.69754e-07 3.00165e-06 -1.30087e-05
0.00256975 -0.000747114 -4.14201e-06
-0.000747114 0.000100867 -2.28048e-06
-4.14201e-06 -2.28048e-06 6.60146e-05
0.00259327 -0.000973005 1.27845e-05
-0.000973005 0.000361559 -6.15897e-06
1.27845e-05 -6.15897e-06 0.000108327
0.00122762 -0.00069654 -5.57464e-06
-0.00069654 0.000280494 -2.09626e-05
-5.57464e-06 -2.09626e-05 -0.000216131
0.00329342 -0.00116817 -1.30795e-05
-0.00116817 0.00112524 6.60368e-06
-1.30795e-05 6.60368e-06 0.000534686
0.0002129 5.79232e-05 -2.81589e-06
5.79232e-05 -0.000125863 -4.38651e-06
-2.81589e-06 -4.38651e-06 -0.000229812
0.000516762 -4.68669e-05 4.32021e-06
-4.68669e-05 6.79345e-05 1.02338e-06
4.32021e-06 1.02338e-06 -2.47671e-05
0.00129107 -0.000177069 -3.92072e-06
-0.000177069 0.000517536 1.64169e-05
-3.92072e-06 1.64169e-05 0.000394721
0.000390468 1.11621e-05 -4.67236e-06
1.11621e-05 1.13251e-05 5.45277e-06
-4.67236e-06 5.45277e-06 -0.000161811
0.00080307 -0.000118598 -5.15717e-06
-0.000118598 0.000293247 9.03409e-06
-5.15717e-06 9.03409e-06 3.81613e-05
0.00112555 -9.19765e-05 1.33459e-05
-9.19765e-05 0.000393782 -1.31204e-05
1.33459e-05 -1.31204e-05 0.000127771
-0.000843043 -0.000359527 -1.99318e-06
-0.000359527 -0.000326832 1.25194e-07
-1.99318e-06 1.25194e-07 -0.00118356
0.000186344 -0.000582635 -6.38048e-05
-0.000582635 -0.000328153 3.03908e-05
-6.38048e-05 3.03908e-05 -0.000699173
0.000438995 0.000101322 -1.18171e-06
0.000101322 6.90926e-05 -2.45266e-06
-1.18171e-06 -2.45266e-06 -0.000141789
0.00113967 0.000316393 -1.10159e-05
0.000316393 0.00054975 -6.21521e-06
-1.10159e-05 -6.21521e-06 0.000230921
0.00240241 0.000502058 -8.97304e-06
0.000502058 -0.000112885 -2.46531e-06
-8.97304e-06 -2.46531e-06 -6.30935e-05
0.00255275 0.000678869 -8.50324e-06
0.000678869 0.000336399 -9.06865e-07
-8.50324e-06 -9.06865e-07 0.000113552
0.00349274 0.000518157 -6.15034e-06
0.000518157 0.00162896 1.77971e-06
-6.15034e-06 1.77971e-06 0.0013497
0.00152086 0.000565159 -5.65902e-06
0.000565159 0.000431792 -1.62412e-06
-5.65902e-06 -1.62412e-06 2.70504e-05
0.00210588 0.000754156 -6.25077e-06
0.000754156 0.000307779 2.07265e-06
-6.25077e-06 2.07265e-06 -4.89347e-05
0.0021775 0.000829069 -5.61636e-06
0.000829069 0.000601215 -5.60084e-07
-5.61636e-06 -5.60084e-07 0.000131845
0.000264031 0.000122663 1.50166e-06
0.000122663 -2.50858e-05 -1.20187e-06
1.50166e-06 -1.20187e-06 -0.000238178
0.00246737 0.000380299 -2.32655e-06
0.000380299 -9.33583e-05 -2.00912e-06
-2.32655e-06 -2.00912e-06 1.32259e-06
0.00145353 0.000375952 1.02398e-06
0.000375952 0.00070034 1.6785e-06
1.02398e-06 1.6785e-06 0.000385475
0.00165525 0.000566339 2.26414e-06
0.000566339 0.00048424 1.18368e-06
2.26414e-06 1.18368e-06 0.000107309
0.00262311 0.00064681 1.5258e-06
0.00064681 0.000203948 2.99392e-07
1.5258e-06 2.99392e-07 0.000144768
0.00176956 0.000770988 -1.95915e-06
0.000770988 -1.11052e-06 -4.77621e-06
-1.95915e-06 -4.77621e-06 -0.000350752
0.00226932 0.000857456 -2.84571e-07
0.000857456 0.000626453 2.83642e-07
-2.84571e-07 2.83642e-07 0.000139446
0.0013428 0.000321503 -2.76389e-06
0.000321503 0.000757584 2.45405e-07
-2.76389e-06 2.45405e-07 0.000468975
0.00362864 0.000568259 -8.09485e-05
0.000568259 0.000576642 -2.01614e-05
-8.09485e-05 -2.01614e-05 0.000748882
0.000830959 0.000480824 -9.39644e-06
0.000480824 0.000255198 5.65843e-06
-9.39644e-06 5.65843e-06 -0.000104642
0.00154186 0.000645606 -3.99617e-06
0.000645606 0.00034926 -8.04206e-06
-3.99617e-06 -8.04206e-06 -8.94123e-05
0.00245441 0.000861636 -3.33141e-05
0.000861636 0.000233315 -2.09352e-05
-3.33141e-05 -2.09352e-05 -2.5091e-06
0.00113871 0.000738203 -2.38587e-05
0.000738203 -5.05606e-05 -3.39036e-06
-2.38587e-05 -3.39036e-06 -0.000493443
0.000450903 0.000920759 3.47316e-05
0.000920759 -0.00192528 -3.66556e-05
3.47316e-05 -3.66556e-05 -0.001459
-0.00011692 0.000138675 4.70657e-06
0.000138675 -0.000257304 -1.09493e-06
4.70657e-06 -1.09493e-06 -0.000381188
0.00045415 0.000113929 2.81254e-06
0.000113929 0.000118636 2.52564e-06
2.81254e-06 2.52564e-06 3.27052e-05
0.00148911 0.000159962 1.9644e-06
0.000159962 0.000725791 2.80307e-06
1.9644e-06 2.80307e-06 0.000650686
0.000385468 -6.52728e-05 1.21393e-06
-6.52728e-05 3.02337e-06 -4.61455e-06
1.21393e-06 -4.61455e-06 -0.000123649
0.000346481 -3.15359e-05 -4.65721e-07
-3.15359e-05 2.377e-06 -1.78789e-06
-4.65721e-07 -1.78789e-06 -0.000154568
0.00125415 0.000211393 2.69343e-07
0.000211393 0.000577731 3.56722e-07
2.69343e-07 3.56722e-07 0.000400532
-0.00019544 4.24028e-05 -7.20164e-06
4.24028e-05 -0.000346159 1.47292e-05
-7.20164e-06 1.47292e-05 -0.000415024
0.000508151 -1.54525e-05 -2.62622e-07
-1.54525e-05 7.96772e-05 -1.71909e-07
-2.62622e-07 -1.71909e-07 -5.43832e-05
0.000413622 7.44038e-05 2.23069e-07
7.44038e-05 1.52161e-05 -7.56349e-07
2.23069e-07 -7.56349e-07 -0.000137346
0.00123079 0.000136102 2.53247e-06
0.000136102 0.000479479 4.52821e-06
2.53247e-06 4.52821e-06 0.000434754
0.00045366 7.77161e-05 1.68941e-06
7.77161e-05 6.15374e-05 8.35946e-07
1.68941e-06 8.35946e-07 -9.94948e-05
0.000685223 6.70403e-05 -1.08573e-06
6.70403e-05 0.000171865 -2.09553e-06
-1.08573e-06 -2.09553e-06 7.03371e-05
0.00146731 0.000144014 -3.49417e-06
0.000144014 0.000676385 -1.39346e-05
-3.49417e-06 -1.39346e-05 0.000621341
0.000836119 0.000151766 -2.46895e-06
0.000151766 0.000245098 -2.55546e-06
-2.46895e-06 -2.55546e-06 9.70335e-05
0.000942927 0.000139625 1.7231e-06
0.000139625 0.00036093 2.42529e-06
1.7231e-06 2.42529e-06 0.00018688
0.000885778 0.000108455 -4.1049e-07
0.000108455 0.000331043 2.09903e-06
-4.1049e-07 2.09903e-06 0.000149666
0.000219835 -2.43391e-05 -1.30317e-06
-2.43391e-05 -0.000124088 2.15243e-06
-1.30317e-06 2.15243e-06 -0.000252314
0.00120908 -9.97809e-05 5.3921e-07
-9.97809e-05 0.000587308 -1.2038e-06
5.3921e-07 -1.2038e-06 0.000383362
0.0001384 -4.59701e-05 -1.14927e-06
-4.59701e-05 -0.000170427 3.94001e-06
-1.14927e-06 3.94001e-06 -0.000303778
0.00043804 3.68362e-06 -2.14764e-06
3.68362e-06 9.55196e-06 3.07087e-06
-2.14764e-06 3.07087e-06 -7.85487e-05
0.00045609 4.00403e-05 2.51128e-06
4.00403e-05 1.87367e-05 -1.30945e-07
2.51128e-06 -1.30945e-07 -6.75235e-05
0.000366839 2.13558e-05 -6.15822e-07
2.13558e-05 -6.50105e-05 4.69287e-06
-6.15822e-07 4.69287e-06 -9.02084e-05
0.000406839 5.12871e-06 -2.08091e-06
5.12871e-06 -1.1765e-05 -4.049e-06
-2.08091e-06 -4.049e-06 -9.52088e-05
0.000877279 1.66478e-05 -3.78507e-06
1.66478e-05 0.000252084 -1.52733e-06
-3.78507e-06 -1.52733e-06 0.000229699
0.00265104 -2.29517e-06 2.20294e-05
-2.29517e-06 0.00136059 5.6753e-06
2.20294e-05 5.6753e-06 0.00137305
0.00140785 3.06084e-05 -1.18499e-05
3.06084e-05 0.000581475 -7.13837e-06
-1.18499e-05 -7.13837e-06 0.000561301
0.000767147 -9.27099e-06 8.09801e-06
-9.27099e-06 0.000164694 3.51501e-06
8.09801e-06 3.51501e-06 0.000168818
0.000809059 -2.08283e-05 8.05278e-07
-2.08283e-05 0.000183032 -2.84861e-06
8.05278e-07 -2.84861e-06 0.000186304
0.000470836 1.36008e-05 -2.05916e-06
1.36008e-05 5.341e-06 -2.27204e-06
-2.05916e-06 -2.27204e-06 -4.80899e-05
0.000547473 -2.93313e-05 7.43574e-07
-2.93313e-05 4.98319e-05 -3.38829e-07
7.43574e-07 -3.38829e-07 -5.29306e-06
0.000478422 2.32922e-05 2.31845e-07
2.32922e-05 -1.94423e-05 -3.46574e-06
2.31845e-07 -3.46574e-06 -3.53091e-05
0.000796444 4.04699e-05 -2.12678e-08
4.04699e-05 0.000190354 1.77906e-07
-2.12678e-08 1.77906e-07 0.000171224
0.00226381 7.60158e-05 7.78331e-06
7.60158e-05 0.00112815 -4.69076e-06
7.78331e-06 -4.69076e-06 0.00113583
0.000468114 5.91039e-05 5.31831e-06
5.91039e-05 1.61651e-06 5.86863e-06
5.31831e-06 5.86863e-06 -3.21368e-05
0.00250947 0.000104712 -2.80246e-06
0.000104712 0.00129423 -2.82228e-07
-2.80246e-06 -2.82228e-07 0.0012949
0.00290221 0.000143787 1.26478e-05
0.000143787 0.00155653 8.47074e-06
1.26478e-05 8.47074e-06 0.00154714
0.00224783 0.000332987 -1.04908e-06
0.000332987 -7.70852e-05 3.37633e-07
-1.04908e-06 3.37633e-07 -3.28957e-05
0.00219695 0.000106467 3.66862e-06
0.000106467 -6.17046e-05 2.88394e-07
3.66862e-06 2.88394e-07 7.58422e-06
0.00208265 -7.08399e-06 4.32377e-07
-7.08399e-06 -2.81821e-05 -3.78769e-07
4.32377e-07 -3.78769e-07 3.13372e-06
0.00217605 -6.81904e-06 6.81935e-08
-6.81904e-06 -8.77664e-05 -2.88629e-07
6.81935e-08 -2.88629e-07 -5.29185e-06
0.00239477 0.00017299 -1.35323e-07
0.00017299 -7.08456e-05 4.07704e-07
-1.35323e-07 4.07704e-07 1.30855e-05
0.00239049 0.000101296 8.16384e-06
0.000101296 -3.21897e-05 -6.61078e-06
8.16384e-06 -6.61078e-06 5.34882e-05
0.00247542 2.37614e-06 -1.16394e-06
2.37614e-06 -0.000105367 -1.2609e-06
-1.16394e-06 -1.2609e-06 2.48645e-05
0.00470399 0.000960403 7.12611e-05
0.000960403 -0.00059949 1.56468e-05
7.12611e-05 1.56468e-05 0.000198535
0.0029646 8.33216e-05 -2.27287e-05
8.33216e-05 0.000470799 3.0769e-05
-2.27287e-05 3.0769e-05 0.000704456
0.000480935 0.000113198 -2.8047e-06
0.000113198 5.11026e-05 -1.02069e-06
-2.8047e-06 -1.02069e-06 -4.88228e-05
0.00221342 -0.000139617 1.32664e-06
-0.000139617 -7.03184e-05 -1.21661e-06
1.32664e-06 -1.21661e-06 8.12131e-06
0.00229695 -0.000360655 2.13244e-06
-0.000360655 -7.51647e-05 -5.51353e-07
2.13244e-06 -5.51353e-07 -7.78566e-07
0.0022367 -0.000524782 4.46946e-08
-0.000524782 -2.25686e-05 7.87058e-07
4.46946e-08 7.87058e-07 -5.74266e-06
0.00130868 -0.000677265 4.79081e-06
-0.000677265 0.000293749 1.03645e-05
4.79081e-06 1.03645e-05 -0.000171763
0.00224629 -0.000942471 3.35721e-05
-0.000942471 0.000644097 9.36907e-06
3.35721e-05 9.36907e-06 0.000100378
0.0012171 -0.000779984 -1.10069e-06
-0.000779984 -0.000188484 -1.68085e-06
-1.10069e-06 -1.68085e-06 -0.000550062
0.00232361 -0.000743383 -4.00152e-06
-0.000743383 0.000121835 2.48424e-06
-4.00152e-06 2.48424e-06 -2.15807e-05
0.00160196 -0.000557892 5.06303e-05
-0.000557892 0.000483672 -3.84842e-05
5.06303e-05 -3.84842e-05 0.000107651
0.00142081 -0.000457528 2.76991e-05
-0.000457528 0.000631655 -3.95637e-05
2.76991e-05 -3.95637e-05 9.7647e-05
0.000463357 -6.65756e-05 6.20019e-07
-6.65756e-05 -5.4416e-05 6.47186e-06
6.20019e-07 6.47186e-06 -0.000380062
0.000476768 1.05483e-05 2.65386e-06
1.05483e-05 9.20491e-06 8.27902e-07
2.65386e-06 8.27902e-07 -4.94851e-05
0.00152102 -0.000135361 1.0666e-06
-0.000135361 0.000730025 9.57193e-06
1.0666e-06 9.57193e-06 0.000415097
0.000880785 -2.30719e-05 8.11071e-06
-2.30719e-05 0.000349613 -1.63523e-06
8.11071e-06 -1.63523e-06 0.000215338
0.000661583 -6.21764e-05 3.63455e-06
-6.21764e-05 0.000212424 -2.70462e-06
3.63455e-06 -2.70462e-06 -1.72882e-05
7.48193e-05 -4.55052e-05 -3.68799e-06
-4.55052e-05 -0.000226357 -8.46414e-07
-3.68799e-06 -8.46414e-07 -0.00031846
0.00228967 -0.000181062 -2.28631e-07
-0.000181062 -0.000205392 2.02388e-07
-2.28631e-07 2.02388e-07 -7.10855e-05
0.000335922 3.00693e-05 5.39426e-07
3.00693e-05 -3.6265e-05 -2.67125e-06
5.39426e-07 -2.67125e-06 -0.000145032
0.000595975 -6.42381e-05 2.87642e-06
-6.42381e-05 0.000137343 1.06328e-06
2.87642e-06 1.06328e-06 3.29843e-05
0.00101139 -0.000146353 5.09433e-06
-0.000146353 0.000343356 -7.17471e-09
5.09433e-06 -7.17471e-09 0.000232214
0.00234875 -0.000494272 2.13883e-06
-0.000494272 -0.000205322 -9.19779e-07
2.13883e-06 -9.19779e-07 -2.35133e-05
0.00246065 -0.000739085 4.94902e-07
-0.000739085 4.18484e-05 -5.22177e-07
4.94902e-07 -5.22177e-07 7.726e-06
0.000547092 -0.000548161 7.17706e-06
-0.000548161 -0.000116582 -1.67261e-07
7.17706e-06 -1.67261e-07 -0.000541407
0.00275069 -0.00111625 2.0768e-05
-0.00111625 0.000794704 3.87319e-07
2.0768e-05 3.87319e-07 0.000231051
0.00249067 -0.000968872 -6.43019e-07
-0.000968872 0.000319706 2.19796e-06
-6.43019e-07 2.19796e-06 5.65112e-05
0.000282973 -2.66231e-05 -3.38145e-07
-2.66231e-05 -5.4551e-05 2.9265e-07
-3.38145e-07 2.9265e-07 -0.000221661
0.00116494 -0.000143247 -1.44025e-07
-0.000143247 0.000542772 3.57126e-06
-1.44025e-07 3.57126e-06 0.000260554
0.00189694 -0.000803151 3.45243e-07
-0.000803151 0.000672519 1.86037e-06
3.45243e-07 1.86037e-06 0.000197365
0.000114863 -0.000258811 -1.91754e-06
-0.000258811 6.80051e-06 3.89707e-06
-1.91754e-06 3.89707e-06 -0.000654218
0.00129255 -0.000144124 1.4744e-06
-0.000144124 0.000502197 6.02449e-06
1.4744e-06 6.02449e-06 0.000229325
0.00273684 -0.000344677 -8.14936e-06
-0.000344677 5.56365e-05 3.55137e-06
-8.14936e-06 3.55137e-06 0.000202913
0.00210511 -0.000551047 -1.53833e-05
-0.000551047 -0.000328455 7.5263e-06
-1.53833e-05 7.5263e-06 -6.89916e-05
0.00223933 -0.000870452 -7.19271e-06
-0.000870452 5.02004e-05 -3.84852e-06
-7.19271e-06 -3.84852e-06 -0.000138047
0.00481628 -0.00133206 -3.64272e-06
-0.00133206 0.00175463 -3.65533e-06
-3.64272e-06 -3.65533e-06 0.00136376
-0.000124966 -0.000658478 -1.83344e-05
-0.000658478 -0.000539624 -6.41263e-06
-1.83344e-05 -6.41263e-06 -0.000998073
-4.10336e-07 -2.89681e-05 1.04455e-06
-2.89681e-05 -0.000243484 2.50748e-06
1.04455e-06 2.50748e-06 -0.000355025
0.000903822 -1.24615e-06 -5.24091e-06
-1.24615e-06 0.000241908 1.56862e-05
-5.24091e-06 1.56862e-05 0.000130342
-0.00149513 -0.000136383 -7.29301e-06
-0.000136383 -0.00121763 2.79351e-06
-7.29301e-06 2.79351e-06 -0.00130382
0.00213048 -0.000312449 -2.99846e-05
-0.000312449 0.00111994 2.86796e-05
-2.99846e-05 2.86796e-05 0.000883328
0.000957829 -0.000124137 -5.08185e-06
-0.000124137 0.000396625 2.75351e-05
-5.08185e-06 2.75351e-05 0.000137024
-0.00136716 -0.000142326 6.15438e-06
-0.000142326 -0.000432104 -1.16873e-06
6.15438e-06 -1.16873e-06 -0.00122145
0.000635363 -0.000862787 -2.58058e-05
-0.000862787 0.000237686 1.41562e-05
-2.58058e-05 1.41562e-05 -0.000444517
0.00173118 0.000321926 -5.57991e-06
0.000321926 0.000894874 -6.69839e-06
-5.57991e-06 -6.69839e-06 0.000645851
-0.00048091 0.000127403 -5.55898e-06
0.000127403 -0.000511858 -2.07727e-06
-5.55898e-06 -2.07727e-06 -0.000764466
0.0026112 0.000355738 1.4784e-06
0.000355738 -9.97267e-06 1.41221e-06
1.4784e-06 1.41221e-06 0.000100405
0.00261574 0.000636314 1.16902e-05
0.000636314 0.000211241 6.03941e-06
1.16902e-05 6.03941e-06 0.000154815
0.00220432 0.00081197 5.28918e-06
0.00081197 0.000258897 3.28076e-06
5.28918e-06 3.28076e-06 -9.53277e-05
0.00163739 0.000556726 -2.33024e-06
0.000556726 0.000505719 2.82026e-06
-2.33024e-06 2.82026e-06 0.000127479
0.00173415 0.000781409 2.27947e-06
0.000781409 0.000335857 3.78431e-06
2.27947e-06 3.78431e-06 -0.000135007
0.00217587 0.000375749 9.46617e-07
0.000375749 0.00119624 -9.09643e-07
9.46617e-07 -9.09643e-07 0.000943305
0.00285307 0.000458781 6.67608e-06
0.000458781 0.000166703 3.49915e-06
6.67608e-06 3.49915e-06 0.000376667
0.00111853 0.000438128 -4.53431e-06
0.000438128 0.000395196 5.07753e-06
-4.53431e-06 5.07753e-06 7.19068e-05
0.00167638 0.000668055 3.29122e-06
0.000668055 0.000467792 -7.21288e-07
3.29122e-06 -7.21288e-07 1.1107e-05
0.00243615 0.000843074 -3.00734e-06
0.000843074 0.00024062 -3.76897e-06
-3.00734e-06 -3.76897e-06 2.68738e-05
0.00187399 0.000833702 -4.40162e-06
0.000833702 0.00036348 5.5721e-06
-4.40162e-06 5.5721e-06 -0.000101909
0.00309669 0.00125523 3.63985e-05
0.00125523 -0.000798618 7.62381e-06
3.63985e-05 7.62381e-06 -0.000512612
0.000111551 0.000277775 3.1813e-07
0.000277775 3.44005e-05 3.57854e-07
3.1813e-07 3.57854e-07 -0.000242731
0.00281177 0.000840372 -8.45299e-05
0.000840372 0.000266207 -4.03378e-05
-8.45299e-05 -4.03378e-05 0.000235253
0.000562053 0.000430578 -8.95834e-06
0.000430578 -0.000138032 3.4434e-06
-8.95834e-06 3.4434e-06 -0.000478425
-2.87024e-05 0.000511685 -2.58859e-06
0.000511685 -0.000539274 -1.78115e-05
-2.58859e-06 -1.78115e-05 -0.000962611
0.00162424 0.000928713 -4.20555e-05
0.000928713 -2.46599e-06 -1.56835e-05
-4.20555e-05 -1.56835e-05 -0.000307834
0.0151516 0.000472835 -0.000565991
0.000472835 0.00207602 -9.38696e-05
-0.000565991 -9.38696e-05 0.00180716
0.00334 0.0019255 -7.13121e-05
0.0019255 -0.002439 -6.85654e-05
-7.13121e-05 -6.85654e-05 -0.000805125
0.0006378 0.00145354 1.79445e-05
0.00145354 -0.000822684 -1.14715e-08
1.79445e-05 -1.14715e-08 -0.00106316
0.00379589 -0.00257107 0.0017602
-0.00257107 0.002414 0.000329737
0.0017602 0.000329737 -0.00145944
0.0241247 -0.0097246 -5.07355e-05
-0.0097246 0.0100876 8.30773e-05
-5.07355e-05 8.30773e-05 0.00632844
0.000139739 0.00012108 7.38774e-06
0.00012108 -4.39094e-05 1.91657e-06
7.38774e-06 1.91657e-06 -0.000139397
0.000846279 0.000122433 -2.00784e-06
0.000122433 0.000366469 -2.97791e-06
-2.00784e-06 -2.97791e-06 0.000284702
0.00175224 0.00027752 2.52012e-06
0.00027752 0.000951822 -9.70918e-07
2.52012e-06 -9.70918e-07 0.000817812
0.000496747 -5.79127e-05 1.49457e-07
-5.79127e-05 8.26693e-05 -3.11578e-06
1.49457e-07 -3.11578e-06 -5.69636e-05
0.000406666 6.9703e-05 -5.78059e-07
6.9703e-05 1.46405e-05 -3.86723e-06
-5.78059e-07 -3.86723e-06 -0.000138482
0.000729651 -1.93901e-05 -3.15629e-07
-1.93901e-05 0.000233587 -1.78404e-06
-3.15629e-07 -1.78404e-06 7.04945e-05
0.000926911 9.149e-05 -2.77683e-06
9.149e-05 0.000313897 1.06686e-05
-2.77683e-06 1.06686e-05 0.000205991
0.000113313 9.21264e-05 3.2218e-06
9.21264e-05 -0.000215785 8.01414e-06
3.2218e-06 8.01414e-06 -0.000254243
0.000815092 0.000161717 -1.31673e-06
0.000161717 0.000316118 -2.10147e-07
-1.31673e-06 -2.10147e-07 0.000120582
0.000400192 -1.52449e-05 3.28653e-07
-1.52449e-05 -5.89734e-07 1.10468e-06
3.28653e-07 1.10468e-06 -0.000135026
0.000715911 5.89167e-05 -8.21167e-07
5.89167e-05 0.000217612 3.99968e-08
-8.21167e-07 3.99968e-08 4.36431e-05
0.000238281 9.75606e-05 -1.16522e-06
9.75606e-05 -9.53757e-05 -2.55931e-06
-1.16522e-06 -2.55931e-06 -0.000147624
0.000673144 0.000126292 -1.5513e-06
0.000126292 0.000162967 -2.97415e-07
-1.5513e-06 -2.97415e-07 1.79969e-05
0.00218442 0.000262519 -1.5025e-06
0.000262519 0.00115391 -3.34991e-07
-1.5025e-06 -3.34991e-07 0.000949282
0.000203311 0.00010636 -4.1479e-07
0.00010636 -3.09411e-05 -4.07015e-06
-4.1479e-07 -4.07015e-06 -0.00020097
0.000882305 0.000106325 2.86455e-06
0.000106325 0.00034056 3.38778e-07
2.86455e-06 3.38778e-07 0.000159069
0.00023344 -2.82701e-06 1.74791e-07
-2.82701e-06 -0.000108023 2.16986e-07
1.74791e-07 2.16986e-07 -0.000274689
0.000326233 -7.29024e-05 -8.67741e-07
-7.29024e-05 -4.62804e-05 7.43368e-07
-8.67741e-07 7.43368e-07 -0.000183112
0.000549074 -2.82893e-05 -8.53563e-07
-2.82893e-05 0.000110122 -1.2762e-06
-8.53563e-07 -1.2762e-06 -5.74449e-05
0.00140522 -2.71196e-05 8.15295e-07
-2.71196e-05 0.000645822 -1.14553e-05
8.15295e-07 -1.14553e-05 0.000482171
0.000742043 -5.367e-05 -1.60937e-06
-5.367e-05 0.000276101 -8.14378e-07
-1.60937e-06 -8.14378e-07 0.000106969
0.000727685 -8.22908e-05 1.90823e-06
-8.22908e-05 0.000243784 -9.24726e-07
1.90823e-06 -9.24726e-07 6.94808e-05
0.000643511 -0.000128809 -2.03771e-06
-0.000128809 0.000160766 4.28457e-06
-2.03771e-06 4.28457e-06 1.99868e-05
0.000243283 -2.5421e-05 2.5691e-07
-2.5421e-05 -9.93391e-05 9.55241e-07
2.5691e-07 9.55241e-07 -0.000237261
0.000496163 -6.15221e-05 -1.8928e-06
-6.15221e-05 3.67326e-05 4.03535e-06
-1.8928e-06 4.03535e-06 -4.58692e-05
0.000495347 -4.13439e-05 1.98646e-06
-4.13439e-05 4.32989e-05 1.14495e-07
1.98646e-06 1.14495e-07 -4.36234e-05
0.000420093 2.15969e-06 3.12839e-06
2.15969e-06 -2.78811e-05 6.54061e-06
3.12839e-06 6.54061e-06 -5.46466e-05
0.000494403 5.60542e-05 -1.49125e-06
5.60542e-05 3.64953e-05 -3.47301e-06
-1.49125e-06 -3.47301e-06 -4.54237e-05
0.000387586 3.22377e-05 3.8165e-07
3.22377e-05 -5.00485e-05 8.65018e-08
3.8165e-07 8.65018e-08 -7.61804e-05
0.00256966 6.91242e-06 8.06576e-06
6.91242e-06 0.00131109 5.46602e-06
8.06576e-06 5.46602e-06 0.00132311
0.000442124 4.63162e-05 -3.92441e-06
4.63162e-05 -1.86887e-05 -7.66546e-06
-3.92441e-06 -7.66546e-06 -4.63405e-05
0.00171297 -3.85855e-06 -5.08808e-06
-3.85855e-06 0.000766721 1.88205e-07
-5.08808e-06 1.88205e-07 0.000774152
0.000815598 -1.03921e-05 5.5859e-07
-1.03921e-05 0.000190596 -2.43692e-06
5.5859e-07 -2.43692e-06 0.000194671
0.000420838 1.01204e-05 -2.06722e-07
1.01204e-05 -3.2157e-05 -1.66553e-06
-2.06722e-07 -1.66553e-06 -7.59557e-05
0.000517486 -4.01402e-05 1.46292e-07
-4.01402e-05 3.83614e-05 5.96291e-08
1.46292e-07 5.96291e-08 -1.72605e-05
0.000509136 1.16348e-05 1.28089e-06
1.16348e-05 -3.34298e-06 -3.2444e-06
1.28089e-06 -3.2444e-06 -1.56492e-05
0.000481236 -4.24365e-05 -1.41186e-06
-4.24365e-05 8.76117e-06 6.3857e-08
-1.41186e-06 6.3857e-08 -4.69304e-05
0.000791185 2.82641e-05 -1.55223e-07
2.82641e-05 0.000179358 -7.32818e-07
-1.55223e-07 -7.32818e-07 0.000165707
0.00204644 5.54693e-05 4.88514e-06
5.54693e-05 0.000983216 -4.68957e-06
4.88514e-06 -4.68957e-06 0.00099558
0.000457913 3.69963e-05 1.41958e-06
3.69963e-05 -2.39456e-05 3.97103e-06
1.41958e-06 3.97103e-06 -4.60053e-05
0.00241576 8.30544e-05 -5.20836e-06
8.30544e-05 0.00122799 1.23482e-06
-5.20836e-06 1.23482e-06 0.00123384
0.00266241 0.000114663 4.13158e-06
0.000114663 0.00139401 6.41187e-06
4.13158e-06 6.41187e-06 0.00139246
0.0023433 0.000181755 -9.654e-07
0.000181755 -8.65069e-05 -8.40392e-07
-9.654e-07 -8.40392e-07 -3.04803e-06
0.00216545 -5.34041e-06 2.91551e-06
-5.34041e-06 -9.26838e-05 -7.45404e-07
2.91551e-06 -7.45404e-07 -1.08641e-05
0.00214974 7.23612e-05 -7.88033e-06
7.23612e-05 -0.000206957 4.25408e-06
-7.88033e-06 4.25408e-06 -0.000122675
0.00258357 0.000723511 0.000102291
0.000723511 -0.00170619 2.29485e-05
0.000102291 2.29485e-05 -0.000797003
0.00245479 -2.88908e-05 2.49711e-07
-2.88908e-05 -9.35661e-05 -3.0146e-06
2.49711e-07 -3.0146e-06 3.48106e-05
0.00228495 7.26951e-05 -1.26231e-06
7.26951e-05 5.936e-05 -1.00448e-05
-1.26231e-06 -1.00448e-05 0.000227769
0.00297888 -4.79e-05 -2.52976e-05
-4.79e-05 0.000586689 -3.24331e-06
-2.52976e-05 -3.24331e-06 0.000639236
0.00333986 0.000243029 -2.84277e-05
0.000243029 -0.00208567 -4.46372e-05
-2.84277e-05 -4.46372e-05 -0.000797944
0.00241909 0.000246119 0.00013986
0.000246119 -0.00106279 5.18797e-05
0.00013986 5.18797e-05 -0.000477172
0.000586383 9.08834e-05 2.42125e-07
9.08834e-05 0.000120668 -8.9627e-07
2.42125e-07 -8.9627e-07 2.12298e-05
0.000576621 -4.02458e-06 2.1398e-07
-4.02458e-06 0.000125858 -1.32527e-07
2.1398e-07 -1.32527e-07 1.70905e-05
0.000327015 -9.37085e-05 -6.15594e-06
-9.37085e-05 -2.26055e-05 2.37298e-06
-6.15594e-06 2.37298e-06 -0.000141992
0.000369899 -4.496e-05 -3.70119e-06
-4.496e-05 1.11909e-05 2.17141e-06
-3.70119e-06 2.17141e-06 -0.000110956
0.00236718 -0.000201278 -3.55566e-06
-0.000201278 -0.000181242 -1.79634e-06
-3.55566e-06 -1.79634e-06 -2.87136e-05
0.00233764 -0.000502609 8.27967e-08
-0.000502609 -0.00018514 -1.99439e-06
8.27967e-08 -1.99439e-06 -4.28258e-05
0.00236836 -0.000729567 -2.85204e-06
-0.000729567 -4.35467e-06 2.05483e-06
-2.85204e-06 2.05483e-06 -3.97224e-05
0.00388712 -0.000927826 2.42757e-05
-0.000927826 0.00180254 1.48811e-05
2.42757e-05 1.48811e-05 0.00130411
0.000288154 -0.00084656 -2.30525e-06
-0.00084656 -0.000596679 4.22862e-06
-2.30525e-06 4.22862e-06 -0.0011044
0.00239674 -0.000967161 -1.41594e-06
-0.000967161 0.000279701 -5.01044e-07
-1.41594e-06 -5.01044e-07 6.98779e-06
0.000765476 -0.000739888 2.8386e-05
-0.000739888 -9.64204e-06 -2.682e-05
2.8386e-05 -2.682e-05 -0.000517324
0.00356183 -0.000365681 1.35861e-05
-0.000365681 0.00172949 -7.6825e-06
1.35861e-05 -7.6825e-06 0.00131439
-0.000355068 -2.44334e-05 -7.39642e-06
-2.44334e-05 -0.000582513 6.08073e-06
-7.39642e-06 6.08073e-06 -0.000808712
0.00067464 -6.86279e-05 4.04862e-06
-6.86279e-05 0.00018768 -1.09175e-06
4.04862e-06 -1.09175e-06 8.28832e-05
0.000539455 -0.000135128 -5.80268e-06
-0.000135128 0.000173549 -1.34055e-05
-5.80268e-06 -1.34055e-05 -0.000113527
0.000458127 -2.42495e-05 6.04435e-06
-2.42495e-05 5.6282e-05 -2.385e-06
6.04435e-06 -2.385e-06 -0.000106803
0.000555248 -3.36256e-08 4.96105e-07
-3.36256e-08 0.000127545 1.45574e-06
4.96105e-07 1.45574e-06 6.58544e-06
0.000733363 -8.53106e-05 -8.90407e-06
-8.53106e-05 0.000168236 -1.0013e-06
-8.90407e-06 -1.0013e-06 7.04896e-05
0.00267092 -0.000325815 2.15431e-06
-0.000325815 2.73262e-05 1.55053e-06
2.15431e-06 1.55053e-06 0.000191428
0.000462079 -2.98638e-05 -8.31045e-07
-2.98638e-05 6.76362e-05 2.46382e-06
-8.31045e-07 2.46382e-06 -6.61599e-05
0.000817863 -5.58953e-05 7.63756e-06
-5.58953e-05 0.000204062 -7.33517e-07
7.63756e-06 -7.33517e-07 8.33157e-05
-0.00102403 -4.74435e-05 6.19888e-06
-4.74435e-05 -0.000851927 -1.04988e-06
6.19888e-06 -1.04988e-06 -0.000915723
0.00211307 -0.000566155 7.79617e-07
-0.000566155 -0.000342582 -1.24707e-06
7.79617e-07 -1.24707e-06 -0.00010475
0.00233986 -0.000882098 2.26816e-06
-0.000882098 9.99017e-05 -1.42983e-06
2.26816e-06 -1.42983e-06 -8.45186e-05
0.00201825 -0.000941629 -6.1216e-06
-0.000941629 0.000651034 1.0092e-06
-6.1216e-06 1.0092e-06 0.000140828
0.00272273 -0.00111399 -6.12852e-06
-0.00111399 0.00061176 1.59455e-06
-6.12852e-06 1.59455e-06 0.000252918
0.00150974 -0.000173417 5.53546e-06
-0.000173417 0.00072602 -3.30409e-06
5.53546e-06 -3.30409e-06 0.000492998
-0.000141818 -4.18093e-05 7.28659e-06
-4.18093e-05 -0.000311238 9.03304e-06
7.28659e-06 9.03304e-06 -0.000570445
0.00179341 -0.0011294 5.18518e-08
-0.0011294 0.000979521 -2.63601e-06
5.18518e-08 -2.63601e-06 0.000197524
0.0013401 -0.000444864 -9.71097e-06
-0.000444864 0.000635188 1.20364e-07
-9.71097e-06 1.20364e-07 0.000112675
0.00354987 -0.000480634 -4.81971e-05
-0.000480634 0.000476149 1.00213e-05
-4.81971e-05 1.00213e-05 0.000754296
0.00275514 -0.000737085 -4.13365e-05
-0.000737085 0.000249965 1.26721e-05
-4.13365e-05 1.26721e-05 0.000314513
0.00270914 -0.00102881 3.46318e-06
-0.00102881 0.000511143 -1.44662e-05
3.46318e-06 -1.44662e-05 0.000158986
0.00318589 -0.00113795 1.17839e-05
-0.00113795 0.00109862 1.13282e-05
1.17839e-05 1.13282e-05 0.000717364
7.21205e-06 -8.09852e-05 -2.85128e-06
-8.09852e-05 -0.00012418 -7.05443e-06
-2.85128e-06 -7.05443e-06 -0.000263843
0.000380704 -0.000147018 -1.45379e-05
-0.000147018 2.93406e-05 7.33314e-08
-1.45379e-05 7.33314e-08 -0.000184234
4.26832e-05 -0.000194234 -6.31689e-06
-0.000194234 0.000109061 5.44014e-05
-6.31689e-06 5.44014e-05 -0.000236921
2.68089e-05 -0.00099826 -3.32891e-06
-0.00099826 0.000667821 -2.80944e-05
-3.32891e-06 -2.80944e-05 -0.000491034
0.00317414 -0.000452934 6.43732e-05
-0.000452934 -0.00561572 -2.51715e-05
6.43732e-05 -2.51715e-05 -0.00566674
0.00247282 0.000333461 3.09204e-06
0.000333461 0.00135489 -3.45373e-06
3.09204e-06 -3.45373e-06 0.001104
0.0014068 0.000404446 -1.77879e-06
0.000404446 0.000558264 -1.07851e-08
-1.77879e-06 -1.07851e-08 0.000257482
0.00189926 0.000369438 5.40843e-05
0.000369438 -0.000368815 1.59613e-05
5.40843e-05 1.59613e-05 -0.000127627
0.00251997 0.000834413 2.49183e-05
0.000834413 0.000305009 1.15309e-05
2.49183e-05 1.15309e-05 0.000107839
0.00234371 0.000892442 1.01412e-05
0.000892442 0.000637362 1.24625e-05
1.01412e-05 1.24625e-05 0.000155655
0.0013765 0.000636831 9.05707e-06
0.000636831 0.000323224 9.02669e-06
9.05707e-06 9.02669e-06 -0.000139363
0.00549719 0.00161774 0.000111882
0.00161774 0.000105524 3.35071e-05
0.000111882 3.35071e-05 0.000190548
0.00120431 0.000331932 5.09863e-06
0.000331932 0.000664091 2.37858e-07
5.09863e-06 2.37858e-07 0.000395476
0.00264524 0.00079828 -2.59892e-05
0.00079828 0.000160663 9.22633e-07
-2.59892e-05 9.22633e-07 0.000169572
0.000923907 0.000476079 -5.97649e-06
0.000476079 0.000128248 4.38499e-06
-5.97649e-06 4.38499e-06 -0.000232416
0.00152177 0.000725399 5.03504e-07
0.000725399 0.000351799 -7.13309e-06
5.03504e-07 -7.13309e-06 -0.000116257
0.00239297 0.000988874 -1.14209e-05
0.000988874 0.000418922 -2.94919e-07
-1.14209e-05 -2.94919e-07 8.91062e-05
0.0050357 -0.000633805 -0.000175597
-0.000633805 -0.00515394 -0.000101047
-0.000175597 -0.000101047 -0.0058656
0.00688004 0.00202714 -0.000156532
0.00202714 -0.00066054 -6.44842e-05
-0.000156532 -6.44842e-05 0.000713473
0.00143799 0.00146364 -4.32248e-07
0.00146364 -0.000376811 4.04927e-06
-4.32248e-07 4.04927e-06 -0.000737381
0.00202448 -0.00235873 0.000616167
-0.00235873 0.00325559 0.000229003
0.000616167 0.000229003 4.47179e-05
0.0164669 -0.0100293 -0.000527929
-0.0100293 0.00842812 -0.00047454
-0.000527929 -0.00047454 0.00446541
0.00051497 0.000258637 -1.37416e-05
0.000258637 9.78841e-05 -2.74675e-06
-1.37416e-05 -2.74675e-06 -0.000133691
0.0017826 0.00052848 0.000884749
0.00052848 0.00451639 7.67926e-05
0.000884749 7.67926e-05 0.0024375
0.00470221 -0.00380268 -0.000171603
-0.00380268 0.00653722 -0.000225139
-0.000171603 -0.000225139 0.000588999
0.00343264 0.00130526 -6.53065e-05
0.00130526 0.000726754 -1.899e-05
-6.53065e-05 -1.899e-05 0.000498223
0.000587241 0.000377866 -2.94885e-05
0.000377866 -8.58494e-05 -6.84777e-06
-2.94885e-05 -6.84777e-06 -0.000400742
0.00102837 0.000741997 -3.82307e-05
0.000741997 0.000126877 -3.15284e-05
-3.82307e-05 -3.15284e-05 -0.000270304
-0.000490533 0.00128382 6.66748e-05
0.00128382 -0.00107434 0.000101583
6.66748e-05 0.000101583 -0.00144473
0.0127626 0.00277336 7.79215e-05
0.00277336 0.00113824 -1.15355e-05
7.79215e-05 -1.15355e-05 0.0006015
0.0053268 0.00300301 -6.0634e-05
0.00300301 -0.000375186 -5.6566e-05
-6.0634e-05 -5.6566e-05 0.000611724
0.0178625 -0.00703291 0.00110537
-0.00703291 0.00609236 0.000523858
0.00110537 0.000523858 0.00146024
0.0142843 -0.00316325 -0.00013497
-0.00316325 0.00465062 0.000665377
-0.00013497 0.000665377 0.00246576
0.000446756 8.92762e-05 2.61213e-06
8.92762e-05 0.000160614 -4.89299e-06
2.61213e-06 -4.89299e-06 6.23411e-05
0.000243156 0.000145569 7.76885e-06
0.000145569 3.29636e-05 1.51382e-06
7.76885e-06 1.51382e-06 -8.73371e-05
0.00185602 0.000314222 3.07483e-06
0.000314222 0.00103711 -3.19685e-06
3.07483e-06 -3.19685e-06 0.000837322
0.000587113 3.34848e-06 1.71347e-06
3.34848e-06 0.00014442 1.01514e-07
1.71347e-06 1.01514e-07 -7.61542e-06
0.000598562 7.21143e-05 -1.94447e-08
7.21143e-05 0.000134469 -2.51482e-06
-1.94447e-08 -2.51482e-06 -3.18624e-05
-0.000102872 3.74117e-05 -1.42079e-06
3.74117e-05 -0.000284135 6.46203e-07
-1.42079e-06 6.46203e-07 -0.000452361
0.000854963 0.000133056 -7.44566e-06
0.000133056 0.000301012 2.04154e-06
-7.44566e-06 2.04154e-06 0.000150105
-0.000318996 7.25106e-05 -2.83954e-06
7.25106e-05 -0.000462696 5.0791e-07
-2.83954e-06 5.0791e-07 -0.000512072
0.000332704 -1.23578e-05 -1.28936e-07
-1.23578e-05 -3.70549e-05 7.31714e-07
-1.28936e-07 7.31714e-07 -0.000178143
0.00138028 0.000163213 2.32397e-06
0.000163213 0.000626182 5.59811e-07
2.32397e-06 5.59811e-07 0.000441119
0.000519356 6.21693e-05 -2.66025e-07
6.21693e-05 0.000124591 -2.13197e-07
-2.66025e-07 -2.13197e-07 -6.49499e-05
0.000800524 4.18527e-05 1.45655e-06
4.18527e-05 0.00028449 -3.45006e-07
1.45655e-06 -3.45006e-07 9.41905e-05
0.000184318 0.000101285 -7.0561e-07
0.000101285 -4.00353e-05 -3.29835e-06
-7.0561e-07 -3.29835e-06 -0.000209357
0.00152212 0.000150228 -2.42747e-06
0.000150228 0.000745522 -2.87695e-06
-2.42747e-06 -2.87695e-06 0.000568738
-0.000366971 6.7517e-05 -7.15052e-06
6.7517e-05 -0.000217297 -4.74905e-06
-7.15052e-06 -4.74905e-06 -0.000478182
0.000322419 -6.85938e-05 -9.99338e-08
-6.85938e-05 -1.29518e-05 1.29586e-06
-9.99338e-08 1.29586e-06 -0.000197809
0.000746429 -8.55129e-05 -2.3268e-06
-8.55129e-05 0.000257243 -1.06003e-06
-2.3268e-06 -1.06003e-06 7.00862e-05
0.000825109 -5.9277e-05 -3.74265e-07
-5.9277e-05 0.000306386 -7.97946e-07
-3.74265e-07 -7.97946e-07 0.00012152
0.000659346 -4.03612e-05 -3.99316e-06
-4.03612e-05 0.000161755 6.73411e-07
-3.99316e-06 6.73411e-07 1.80982e-05
0.00107182 1.42964e-05 -7.8241e-06
1.42964e-05 0.000501311 -5.62615e-06
-7.8241e-06 -5.62615e-06 0.000292165
0.00082743 -8.67687e-05 2.39559e-06
-8.67687e-05 0.000268444 -1.19684e-05
2.39559e-06 -1.19684e-05 0.000133981
-0.00136704 2.86547e-06 -5.10277e-06
2.86547e-06 -0.00107048 -8.71165e-06
-5.10277e-06 -8.71165e-06 -0.00119298
0.000113038 -4.00565e-05 2.00104e-06
-4.00565e-05 -0.000101122 -2.18883e-06
2.00104e-06 -2.18883e-06 -0.000299683
0.000219249 -7.44345e-05 1.00821e-06
-7.44345e-05 -9.20392e-05 3.44248e-07
1.00821e-06 3.44248e-07 -0.000233761
0.000792751 -0.000122456 -1.06497e-06
-0.000122456 0.000290984 3.91398e-07
-1.06497e-06 3.91398e-07 0.00012895
0.000511229 -8.95164e-05 -1.32376e-06
-8.95164e-05 5.84558e-05 3.12625e-06
-1.32376e-06 3.12625e-06 -6.59319e-05
0.00044547 -9.66631e-05 3.62767e-06
-9.66631e-05 2.93565e-05 2.94417e-07
3.62767e-06 2.94417e-07 -0.000118402
0.000546822 -0.000120298 4.00813e-09
-0.000120298 9.68844e-05 1.47999e-07
4.00813e-09 1.47999e-07 -4.30883e-05
0.000527861 -6.08521e-05 -2.27097e-06
-6.08521e-05 5.3722e-05 5.24143e-06
-2.27097e-06 5.24143e-06 -3.03124e-05
0.000379131 -8.31227e-06 8.3315e-07
-8.31227e-06 4.70261e-06 -1.07185e-06
8.3315e-07 -1.07185e-06 -0.000146122
0.000479768 2.07671e-07 2.41571e-06
2.07671e-07 3.4086e-05 1.54686e-07
2.41571e-06 1.54686e-07 -5.35685e-05
0.00144762 -3.69614e-05 -1.08639e-05
-3.69614e-05 0.000613257 7.02004e-06
-1.08639e-05 7.02004e-06 0.000590637
0.000458861 7.07677e-05 -2.02841e-06
7.07677e-05 2.03334e-05 -3.23966e-06
-2.02841e-06 -3.23966e-06 -6.58515e-05
0.000857051 -1.97885e-05 -4.34118e-06
-1.97885e-05 0.000247349 7.30993e-07
-4.34118e-06 7.30993e-07 0.00022264
0.000793241 3.3501e-06 -2.96762e-06
3.3501e-06 0.000190132 4.78681e-06
-2.96762e-06 4.78681e-06 0.000194335
0.000367662 -2.44007e-05 4.13191e-06
-2.44007e-05 -6.3214e-05 -5.12017e-06
4.13191e-06 -5.12017e-06 -8.85804e-05
0.0025902 4.41171e-06 7.89852e-06
4.41171e-06 0.00132448 -4.86656e-09
7.89852e-06 -4.86656e-09 0.00133642
0.000870824 4.05662e-06 -1.06022e-05
4.05662e-06 0.000236814 -5.49971e-06
-1.06022e-05 -5.49971e-06 0.000239972
0.000502513 6.98998e-05 2.56191e-06
6.98998e-05 6.86246e-05 8.11011e-07
2.56191e-06 8.11011e-07 -3.63436e-05
0.000446604 5.62778e-05 -2.34965e-06
5.62778e-05 -3.72355e-06 -2.35573e-06
-2.34965e-06 -2.35573e-06 -5.37362e-05
0.000465929 -1.34454e-06 1.57362e-06
-1.34454e-06 9.1322e-06 1.77536e-07
1.57362e-06 1.77536e-07 -4.26966e-05
0.000467327 9.73522e-06 1.20679e-06
9.73522e-06 -2.89366e-05 -3.08012e-06
1.20679e-06 -3.08012e-06 -3.97474e-05
0.000552504 -6.70172e-05 -2.03219e-06
-6.70172e-05 6.95449e-05 1.94948e-06
-2.03219e-06 1.94948e-06 8.80238e-06
0.000464077 1.29294e-05 1.37583e-07
1.29294e-05 -3.21116e-05 -7.24143e-07
1.37583e-07 -7.24143e-07 -4.42539e-05
0.00203048 3.87111e-05 3.22907e-06
3.87111e-05 0.000968403 -4.73484e-06
3.22907e-06 -4.73484e-06 0.000983308
0.00110693 3.70494e-05 -8.64499e-09
3.70494e-05 0.000380901 1.61252e-06
-8.64499e-09 1.61252e-06 0.000368325
0.00148814 4.79679e-05 -4.90257e-07
4.79679e-05 0.000630233 1.41934e-06
-4.90257e-07 1.41934e-06 0.00063756
0.000898922 5.22023e-05 -4.27059e-06
5.22023e-05 0.00026329 8.55838e-06
-4.27059e-06 8.55838e-06 0.00026213
0.000988802 0.000515664 7.59304e-05
0.000515664 -0.00245827 1.58241e-05
7.59304e-05 1.58241e-05 -0.00151787
0.00242282 -5.15194e-05 -2.8744e-06
-5.15194e-05 -7.87175e-05 6.26942e-06
-2.8744e-06 6.26942e-06 4.06464e-05
0.00223308 7.22055e-05 3.25913e-05
7.22055e-05 5.27006e-05 -1.27362e-05
3.25913e-05 -1.27362e-05 0.000189275
0.00293906 0.000466485 -6.29057e-05
0.000466485 -0.00209796 -3.92696e-05
-6.29057e-05 -3.92696e-05 -0.000469967
0.00283321 0.000119817 5.42268e-05
0.000119817 -0.000634201 -1.76066e-06
5.42268e-05 -1.76066e-06 -0.000119003
0.00275575 -5.18624e-05 1.68654e-06
-5.18624e-05 0.000376954 -1.02746e-05
1.68654e-06 -1.02746e-05 0.000464831
0.00502014 -0.000420205 -6.34092e-05
-0.000420205 0.00107886 -2.35963e-05
-6.34092e-05 -2.35963e-05 0.00133274
0.0035067 -0.000362508 2.96919e-05
-0.000362508 -0.000627764 -3.83053e-06
2.96919e-05 -3.83053e-06 0.000278183
0.0177122 -0.00094709 7.17894e-05
-0.00094709 0.00296879 -4.10036e-05
7.17894e-05 -4.10036e-05 0.00210132
0.0155048 0.00642951 0.00165139
0.00642951 0.00607299 -0.000468853
0.00165139 -0.000468853 0.00244359
0.0218017 0.00741661 7.47911e-05
0.00741661 0.0140179 2.06038e-05
7.47911e-05 2.06038e-05 0.0101476
0.000135779 -0.000100813 3.90813e-07
-0.000100813 -0.000142509 -4.77681e-07
3.90813e-07 -4.77681e-07 -0.000257435
0.000533365 -5.64986e-06 1.67504e-06
-5.64986e-06 8.56398e-05 -5.01366e-08
1.67504e-06 -5.01366e-08 -1.31266e-05
0.000613597 -9.02867e-05 -7.70044e-07
-9.02867e-05 0.000155512 3.22683e-06
-7.70044e-07 3.22683e-06 4.01979e-05
0.000532361 -3.4978e-05 1.1439e-06
-3.4978e-05 9.52088e-05 3.10485e-07
1.1439e-06 3.10485e-07 -2.26595e-05
0.000921575 0.000118341 -5.03224e-06
0.000118341 0.000396914 1.16156e-06
-5.03224e-06 1.16156e-06 0.000257743
0.000518548 0.000138214 5.8303e-07
0.000138214 6.8775e-05 7.49135e-06
5.8303e-07 7.49135e-06 -5.80486e-05
0.000960637 2.23594e-06 2.46515e-06
2.23594e-06 0.000384917 4.15907e-06
2.46515e-06 4.15907e-06 0.000240414
0.000519738 -2.60997e-05 -1.52518e-06
-2.60997e-05 8.66273e-05 1.30639e-06
-1.52518e-06 1.30639e-06 -3.27367e-05
0.00264636 -0.000311462 1.24159e-05
-0.000311462 5.79659e-06 -4.10559e-06
1.24159e-05 -4.10559e-06 0.000200946
0.0021606 -0.000592344 1.42707e-05
-0.000592344 -0.000346743 -6.55284e-06
1.42707e-05 -6.55284e-06 -0.000130051
0.00240781 -0.000890252 1.882e-07
-0.000890252 0.000130203 5.94029e-06
1.882e-07 5.94029e-06 -4.78883e-05
0.00249952 -0.000970773 1.67702e-05
-0.000970773 0.000876259 8.29741e-06
1.67702e-05 8.29741e-06 0.000389973
0.00215381 -0.00107212 -2.31567e-05
-0.00107212 0.000299164 4.985e-06
-2.31567e-05 4.985e-06 -6.66225e-05
0.00175056 -0.00118507 3.92977e-05
-0.00118507 0.00106069 -1.50015e-05
3.92977e-05 -1.50015e-05 0.000176243
0.00470086 -0.000801943 6.96206e-06
-0.000801943 0.00236622 5.57348e-06
6.96206e-06 5.57348e-06 0.00193798
0.00138491 -0.000296822 1.24717e-05
-0.000296822 0.000710261 -5.04176e-05
1.24717e-05 -5.04176e-05 0.000357152
0.000602176 -0.000112206 2.35451e-06
-0.000112206 4.99179e-05 -6.27047e-07
2.35451e-06 -6.27047e-07 -5.3866e-05
0.000975361 -8.51426e-05 1.17832e-05
-8.51426e-05 0.000357319 -2.29486e-05
1.17832e-05 -2.29486e-05 0.000139395
0.000996274 -5.27481e-05 3.90394e-06
-5.27481e-05 0.000393935 1.11073e-06
3.90394e-06 1.11073e-06 0.000249632
0.000807262 1.34957e-05 9.39646e-06
1.34957e-05 0.00031178 -7.71896e-06
9.39646e-06 -7.71896e-06 0.000282343
0.00246109 -0.00042437 -5.72157e-07
-0.00042437 -0.000117179 2.91703e-06
-5.72157e-07 2.91703e-06 0.000200637
0.000439282 -8.84062e-05 -4.25113e-06
-8.84062e-05 0.000127248 -8.442e-07
-4.25113e-06 -8.442e-07 -1.5163e-05
0.00129802 -0.000199371 -8.97279e-06
-0.000199371 0.000572257 4.17622e-06
-8.97279e-06 4.17622e-06 0.000392102
0.00172078 -0.000669518 8.68293e-06
-0.000669518 -0.000356099 -3.96291e-06
8.68293e-06 -3.96291e-06 -0.000229384
0.00191213 -0.000902568 1.60401e-06
-0.000902568 7.16069e-05 1.28514e-06
1.60401e-06 1.28514e-06 -0.000197652
0.000985331 -0.000865844 -3.41532e-06
-0.000865844 -0.000168092 -7.5501e-06
-3.41532e-06 -7.5501e-06 -0.000475059
0.00181769 -0.000387245 5.96727e-07
-0.000387245 0.00107368 -2.68804e-05
5.96727e-07 -2.68804e-05 0.000657899
0.00148439 -0.000694236 8.72051e-06
-0.000694236 0.00125575 3.84472e-06
8.72051e-06 3.84472e-06 0.000358406
0.00560362 -0.000928923 -5.79826e-05
-0.000928923 0.00143281 2.84902e-05
-5.79826e-05 2.84902e-05 0.00164845
0.004108 -0.00103927 -4.70975e-05
-0.00103927 0.00129492 1.03392e-05
-4.70975e-05 1.03392e-05 0.00107753
0.00218413 -0.00104937 1.43388e-05
-0.00104937 0.000335227 -4.25996e-06
1.43388e-05 -4.25996e-06 5.5048e-05
-0.00107737 -0.000467598 -1.595e-06
-0.000467598 -0.00103047 1.38359e-05
-1.595e-06 1.38359e-05 -0.00114758
0.000407172 -0.000154361 8.51225e-07
-0.000154361 0.000143953 8.55054e-06
8.51225e-07 8.55054e-06 -9.87057e-05
0.000384119 -0.000175536 4.20918e-06
-0.000175536 0.000204396 9.20124e-07
4.20918e-06 9.20124e-07 -8.83466e-05
0.00211979 -0.000252619 -1.07394e-05
-0.000252619 0.00156917 -2.48568e-05
-1.07394e-05 -2.48568e-05 0.000853022
-0.00709617 -0.000448084 0.000645803
-0.000448084 -0.00403962 -3.94051e-05
0.000645803 -3.94051e-05 -0.00418379
0.0119239 -0.000390589 7.53647e-05
-0.000390589 0.000745033 2.89839e-05
7.53647e-05 2.89839e-05 0.0010793
0.00300279 0.000425843 1.15987e-05
0.000425843 0.0016803 -1.12668e-05
1.15987e-05 -1.12668e-05 0.00144444
0.00168365 0.000570445 -2.66979e-06
0.000570445 0.000632306 6.95191e-06
-2.66979e-06 6.95191e-06 0.000239522
0.00293056 0.000760383 0.000106502
0.000760383 0.000331426 4.62851e-05
0.000106502 4.62851e-05 0.000365334
0.00313365 0.00105775 2.80094e-05
0.00105775 0.000821023 1.25703e-05
2.80094e-05 1.25703e-05 0.00046964
0.00299391 0.000924447 2.06131e-05
0.000924447 0.00119102 7.52756e-06
2.06131e-05 7.52756e-06 0.00068431
0.0165833 0.000774134 9.724e-05
0.000774134 0.00277413 -4.86678e-05
9.724e-05 -4.86678e-05 0.00222989
0.00853489 0.00257166 -0.000238913
0.00257166 -0.000948799 -3.47929e-05
-0.000238913 -3.47929e-05 0.000774873
0.00160159 0.00138872 1.11171e-05
0.00138872 -9.96145e-05 -3.13052e-05
1.11171e-05 -3.13052e-05 -0.000580479
0.014309 -0.00493947 -0.000562594
-0.00493947 0.0061765 9.6562e-06
-0.000562594 9.6562e-06 0.00282541
0.0069846 -0.0106289 -0.00266425
-0.0106289 0.00666234 -0.00160948
-0.00266425 -0.00160948 0.00223609
0.00105059 0.000350989 2.93952e-06
0.000350989 0.000492753 -2.20228e-06
2.93952e-06 -2.20228e-06 0.000221586
-0.00124529 -0.00291384 0.000565533
-0.00291384 -0.00250744 8.73894e-05
0.000565533 8.73894e-05 -0.00486928
-0.00173607 -0.00293839 -0.000599427
-0.00293839 0.00656562 -0.000206637
-0.000599427 -0.000206637 0.000556717
0.00356989 0.00121916 -1.68571e-05
0.00121916 0.000755853 2.21115e-06
-1.68571e-05 2.21115e-06 0.000588625
0.000827226 0.00047163 -9.62457e-06
0.00047163 0.000116288 8.48369e-06
-9.62457e-06 8.48369e-06 -0.000251632
0.00150037 0.000865651 6.12107e-06
0.000865651 0.000379978 1.8663e-06
6.12107e-06 1.8663e-06 -6.70768e-05
0.00115412 0.00129655 5.58808e-05
0.00129655 8.40647e-05 4.10375e-05
5.58808e-05 4.10375e-05 -0.000233603
0.0142618 0.00302614 -0.000157647
0.00302614 0.000772963 -9.93424e-05
-0.000157647 -9.93424e-05 -0.000790445
0.00411587 0.00317095 -2.69912e-05
0.00317095 -0.000754735 -3.9971e-05
-2.69912e-05 -3.9971e-05 0.000431028
0.0187603 -0.00562059 0.000626234
-0.00562059 0.00781278 -1.72309e-05
0.000626234 -1.72309e-05 0.00305397
0.0180119 -0.00470647 0.000102778
-0.00470647 0.00405336 0.000773937
0.000102778 0.000773937 0.00124666
0.00199745 0.00042008 -2.05138e-05
0.00042008 0.00101633 -1.63474e-05
-2.05138e-05 -1.63474e-05 0.000777515
-0.0102296 0.00132534 -0.000138716
0.00132534 0.00419528 -0.000147996
-0.000138716 -0.000147996 -0.0029655
0.00548682 0.00106469 -0.000423017
0.00106469 0.00444234 -0.000531796
-0.000423017 -0.000531796 -0.000512597
0.0026231 0.000905823 -3.38663e-05
0.000905823 0.000640184 -9.1183e-06
-3.38663e-05 -9.1183e-06 0.000573634
0.00272342 0.000908265 -8.03255e-05
0.000908265 0.00118332 -3.02653e-05
-8.03255e-05 -3.02653e-05 0.000765279
0.00112094 0.000943654 -9.8517e-05
0.000943654 0.000876304 -2.72099e-05
-9.8517e-05 -2.72099e-05 0.000142802
-0.00265632 0.00199383 -9.62803e-07
0.00199383 -0.0011421 -3.49306e-05
-9.62803e-07 -3.49306e-05 -0.00133458
0.00168984 0.00379942 0.000449288
0.00379942 -0.00198799 0.000144859
0.000449288 0.000144859 -0.00399383
0.0192468 -0.00715001 0.000137046
-0.00715001 0.0104689 0.000767573
0.000137046 0.000767573 0.00506043
0.00911561 -0.000595694 -0.000192944
-0.000595694 -0.00199572 -0.000169358
-0.000192944 -0.000169358 -0.00111249
-0.000616304 0.000139126 1.35873e-06
0.000139126 -0.000448503 -5.42877e-06
1.35873e-06 -5.42877e-06 -0.000596582
0.00177696 0.000330351 1.07809e-05
0.000330351 0.000973047 2.54632e-06
1.07809e-05 2.54632e-06 0.000771487
-0.000616845 8.29521e-05 -2.50817e-06
8.29521e-05 -0.000404525 -1.80497e-06
-2.50817e-06 -1.80497e-06 -0.000578433
0.000340417 5.23365e-05 2.1654e-06
5.23365e-05 -3.37183e-05 1.23215e-06
2.1654e-06 1.23215e-06 -0.000174632
0.0010409 9.16231e-05 -2.10375e-08
9.16231e-05 0.000444918 -1.7017e-06
-2.10375e-08 -1.7017e-06 0.000248908
0.000568605 2.6601e-05 -2.00096e-06
2.6601e-05 0.000161737 1.44062e-06
-2.00096e-06 1.44062e-06 -3.79962e-05
0.000432165 0.000105063 6.10121e-06
0.000105063 4.96067e-05 5.88995e-06
6.10121e-06 5.88995e-06 -0.00013954
-0.000652412 4.29158e-05 -4.07459e-06
4.29158e-05 -0.000535766 1.01143e-06
-4.07459e-06 1.01143e-06 -0.000698539
0.000775866 4.1136e-05 3.2873e-07
4.1136e-05 0.000279076 -7.84586e-07
3.2873e-07 -7.84586e-07 8.97997e-05
0.000718962 9.5105e-05 7.02809e-07
9.5105e-05 0.000238017 -1.54251e-07
7.02809e-07 -1.54251e-07 6.88079e-05
0.000836973 -4.00651e-05 -1.28667e-06
-4.00651e-05 0.00032151 2.18633e-06
-1.28667e-06 2.18633e-06 0.000123202
-0.00101018 3.29983e-05 2.21503e-06
3.29983e-05 -0.000597952 5.0729e-07
2.21503e-06 5.0729e-07 -0.000849738
0.000368386 6.19246e-05 -3.15819e-06
6.19246e-05 0.00041924 5.68699e-06
-3.15819e-06 5.68699e-06 3.94659e-05
0.000635125 -2.53859e-05 -1.08299e-06
-2.53859e-05 0.000288656 -7.02774e-06
-1.08299e-06 -7.02774e-06 7.44251e-05
0.00144349 -1.29468e-05 -1.9497e-06
-1.29468e-05 0.000747436 2.27181e-06
-1.9497e-06 2.27181e-06 0.000513894
0.000800236 -8.30358e-05 -3.09723e-07
-8.30358e-05 0.000291592 -1.52975e-06
-3.09723e-07 -1.52975e-06 0.000102969
0.000200556 -9.93441e-05 4.83783e-06
-9.93441e-05 -0.000134361 1.05675e-05
4.83783e-06 1.05675e-05 -0.000267782
0.000659256 -8.78571e-05 5.06302e-07
-8.78571e-05 0.000219002 -9.27494e-07
5.06302e-07 -9.27494e-07 2.51993e-05
0.000763035 -9.22801e-05 -2.19032e-06
-9.22801e-05 0.000217789 -4.47919e-07
-2.19032e-06 -4.47919e-07 8.37157e-05
-0.00030431 -6.67312e-05 2.03741e-06
-6.67312e-05 -0.000401839 4.99484e-06
2.03741e-06 4.99484e-06 -0.000517497
-9.05259e-05 -5.80328e-05 -3.25953e-07
-5.80328e-05 -0.000244077 -4.21022e-06
-3.25953e-07 -4.21022e-06 -0.000406753
-7.30707e-05 -3.08789e-05 -8.57535e-06
-3.08789e-05 -0.00017111 -3.82878e-06
-8.57535e-06 -3.82878e-06 -0.000356158
8.04459e-06 -9.45149e-05 2.49704e-06
-9.45149e-05 -0.000177365 -7.67779e-06
2.49704e-06 -7.67779e-06 -0.000307534
0.000980271 -0.000120246 1.25331e-05
-0.000120246 0.000293194 -1.65162e-05
1.25331e-05 -1.65162e-05 0.000186812
0.00122677 -0.000273895 -1.33672e-06
-0.000273895 0.000385184 4.11066e-06
-1.33672e-06 4.11066e-06 0.0001978
-0.000103557 -6.03768e-05 -7.45763e-06
-6.03768e-05 -0.000248706 -2.5833e-06
-7.45763e-06 -2.5833e-06 -0.000440389
0.000619496 -5.49653e-05 1.83013e-06
-5.49653e-05 0.000199125 -8.57987e-07
1.83013e-06 -8.57987e-07 6.44824e-06
-0.000240297 -3.19901e-05 2.43385e-06
-3.19901e-05 -0.000353149 -2.22644e-07
2.43385e-06 -2.22644e-07 -0.00053867
0.000671247 -0.000128106 -6.41706e-07
-0.000128106 0.000216194 -3.78285e-07
-6.41706e-07 -3.78285e-07 5.12705e-05
0.000440596 -3.06782e-05 5.88071e-07
-3.06782e-05 1.71219e-05 1.22439e-06
5.88071e-07 1.22439e-06 -0.000111355
0.000753259 -0.000127201 -2.36898e-07
-0.000127201 0.000252852 3.08543e-07
-2.36898e-07 3.08543e-07 9.94368e-05
0.000624378 -8.75481e-05 -6.19096e-07
-8.75481e-05 0.000145891 1.95945e-07
-6.19096e-07 1.95945e-07 1.09795e-05
0.000382253 3.19272e-05 5.70839e-08
3.19272e-05 -3.9141e-05 4.67834e-06
5.70839e-08 4.67834e-06 -0.000125259
0.000550008 -0.00011562 9.44097e-07
-0.00011562 9.27853e-05 -2.74965e-06
9.44097e-07 -2.74965e-06 -4.48813e-05
0.000507227 -4.37258e-05 -5.39174e-07
-4.37258e-05 3.67614e-05 1.14811e-07
-5.39174e-07 1.14811e-07 -4.41808e-05
0.00141645 1.66668e-05 -7.87957e-06
1.66668e-05 0.000584574 7.52948e-06
-7.87957e-06 7.52948e-06 0.00056278
0.000479045 -6.61223e-05 1.40019e-06
-6.61223e-05 2.7923e-05 -3.76185e-06
1.40019e-06 -3.76185e-06 -5.6041e-05
0.00086084 -2.05263e-05 -8.02845e-06
-2.05263e-05 0.000242171 8.54197e-07
-8.02845e-06 8.54197e-07 0.000217824
0.000750973 1.17479e-05 1.24692e-06
1.17479e-05 0.000153945 2.27075e-06
1.24692e-06 2.27075e-06 0.000157231
0.000418367 -2.26104e-05 3.07749e-06
-2.26104e-05 -3.46563e-05 -4.74168e-06
3.07749e-06 -4.74168e-06 -5.92171e-05
0.00256069 1.16351e-05 7.16524e-06
1.16351e-05 0.00130493 1.70466e-08
7.16524e-06 1.70466e-08 0.00131737
0.00258754 1.0203e-06 2.46433e-06
1.0203e-06 0.00132275 -5.06662e-06
2.46433e-06 -5.06662e-06 0.00133472
0.00104053 8.32146e-05 -6.99336e-07
8.32146e-05 0.000408805 8.84566e-07
-6.99336e-07 8.84566e-07 0.000298203
0.000502956 6.53285e-05 -1.69906e-06
6.53285e-05 3.54208e-05 -2.61085e-06
-1.69906e-06 -2.61085e-06 -2.00515e-05
0.000534037 -1.35938e-05 -3.4105e-07
-1.35938e-05 9.37207e-05 7.86761e-07
-3.4105e-07 7.86761e-07 -1.22115e-05
0.000465886 8.23943e-06 1.25478e-06
8.23943e-06 -3.01895e-05 -3.38849e-06
1.25478e-06 -3.38849e-06 -4.02587e-05
0.00044258 -1.12726e-05 1.19569e-06
-1.12726e-05 -7.94016e-06 -2.06012e-07
1.19569e-06 -2.06012e-07 -5.67509e-05
0.000514439 -6.14955e-05 -1.95823e-06
-6.14955e-05 4.4095e-05 2.12268e-06
-1.95823e-06 2.12268e-06 -1.05348e-05
0.000470282 7.33726e-06 -5.08592e-07
7.33726e-06 -2.74178e-05 2.03067e-09
-5.08592e-07 2.03067e-09 -3.8202e-05
0.00199257 2.42794e-05 -2.15241e-06
2.42794e-05 0.000941429 -4.82095e-06
-2.15241e-06 -4.82095e-06 0.000957967
0.00113367 2.47114e-05 -6.84478e-07
2.47114e-05 0.000394367 2.0171e-06
-6.84478e-07 2.0171e-06 0.000385051
0.00131059 3.08344e-05 -2.07541e-06
3.08344e-05 0.000510217 -2.99624e-08
-2.07541e-06 -2.99624e-08 0.000521697
0.000812783 3.71463e-05 -7.3384e-06
3.71463e-05 0.000200709 7.50565e-06
-7.3384e-06 7.50565e-06 0.000205048
-0.00815849 0.00149811 0.000633163
0.00149811 -0.00274831 -7.09693e-05
0.000633163 -7.09693e-05 -0.00592157
-0.000122864 0.000571569 0.00138269
0.000571569 0.00714591 -0.000332761
0.00138269 -0.000332761 0.00290628
0.00218237 0.000432344 -0.000165441
0.000432344 -0.00262389 -3.18001e-05
-0.000165441 -3.18001e-05 -0.000713962
0.00196916 -7.71137e-06 1.34495e-05
-7.71137e-06 -0.00108167 -2.87388e-05
1.34495e-05 -2.87388e-05 -0.000513603
0.00174906 -7.96661e-05 1.21342e-05
-7.96661e-05 -0.000331571 2.36135e-05
1.21342e-05 2.36135e-05 -0.000231207
-0.00163569 1.2367e-05 -0.000108542
1.2367e-05 -0.00209078 -2.95411e-05
-0.000108542 -2.95411e-05 -0.000758394
0.00390972 -0.000473806 3.5367e-06
-0.000473806 0.000287879 5.50902e-06
3.5367e-06 5.50902e-06 0.000518226
0.0123856 -0.000154374 0.000209578
-0.000154374 -0.0011668 -9.20162e-05
0.000209578 -9.20162e-05 -0.00175954
0.00239888 0.00423492 1.28065e-07
0.00423492 0.00114803 -7.11949e-05
1.28065e-07 -7.11949e-05 -0.00267022
0.0160383 0.00863315 -0.000599578
0.00863315 0.0107126 0.000278787
-0.000599578 0.000278787 0.00679216
0.00172831 -0.000920315 1.28635e-05
-0.000920315 -0.00268547 -3.73973e-05
1.28635e-05 -3.73973e-05 -0.0012624
0.0157175 -0.00281465 0.000245091
-0.00281465 0.00154875 -7.2992e-05
0.000245091 -7.2992e-05 0.00024741
0.0196735 0.00672336 0.000400808
0.00672336 0.00651861 -0.00054262
0.000400808 -0.00054262 0.001949
0.0220609 0.00478904 -0.000332575
0.00478904 0.00711712 0.000300416
-0.000332575 0.000300416 0.00439547
0.00101545 0.000174645 -3.36564e-06
0.000174645 0.000462566 3.22991e-06
-3.36564e-06 3.22991e-06 0.000278436
0.000326743 4.10798e-05 4.28307e-07
4.10798e-05 -3.79073e-05 -1.04598e-06
4.28307e-07 -1.04598e-06 -0.000145077
0.000542846 -9.77421e-05 1.73607e-06
-9.77421e-05 0.000104406 1.44147e-06
1.73607e-06 1.44147e-06 -1.04976e-06
0.000685186 6.84829e-06 6.75495e-06
6.84829e-06 0.000200697 -1.4874e-06
6.75495e-06 -1.4874e-06 7.62859e-05
0.000839998 8.74676e-05 2.83143e-06
8.74676e-05 0.00035766 1.13522e-06
2.83143e-06 1.13522e-06 0.000220077
0.000478164 2.79821e-05 -1.1803e-07
2.79821e-05 8.18687e-05 8.48013e-06
-1.1803e-07 8.48013e-06 -8.64218e-05
0.000742633 9.59812e-05 5.95093e-07
9.59812e-05 0.000238356 3.23847e-06
5.95093e-07 3.23847e-06 9.77011e-05
0.000445563 6.88927e-05 5.29469e-06
6.88927e-05 1.66652e-05 2.86264e-06
5.29469e-06 2.86264e-06 -0.000126198
0.000674857 -2.24842e-05 2.58265e-06
-2.24842e-05 0.000202901 -1.1797e-06
2.58265e-06 -1.1797e-06 6.05884e-05
0.000466801 -1.54957e-05 2.22355e-06
-1.54957e-05 4.45701e-05 -2.80036e-06
2.22355e-06 -2.80036e-06 -6.73175e-05
0.00133555 -0.000355527 3.71725e-05
-0.000355527 -0.000716199 -1.04998e-05
3.71725e-05 -1.04998e-05 -0.000368002
0.00107098 -0.000615549 2.83539e-05
-0.000615549 -0.000709961 -9.20462e-06
2.83539e-05 -9.20462e-06 -0.000545364
0.0010342 -0.000771262 1.32984e-06
-0.000771262 -0.000417544 7.70604e-06
1.32984e-06 7.70604e-06 -0.000604116
-0.000128289 -0.000727022 -1.93745e-05
-0.000727022 -0.000771607 3.0905e-06
-1.93745e-05 3.0905e-06 -0.00104939
0.00249476 -0.00050082 7.34313e-06
-0.00050082 0.00161724 3.68189e-05
7.34313e-06 3.68189e-05 0.000925207
-0.000477635 -0.000568103 -6.78934e-06
-0.000568103 -0.000303723 -7.94948e-06
-6.78934e-06 -7.94948e-06 -0.000865301
0.00145629 -0.000277614 7.09327e-06
-0.000277614 0.00067842 -5.64605e-06
7.09327e-06 -5.64605e-06 0.000521776
0.000425556 -6.20048e-05 9.84491e-07
-6.20048e-05 0.00010115 2.62837e-06
9.84491e-07 2.62837e-06 -3.57623e-05
0.00251615 -0.000657095 1.35617e-05
-0.000657095 -0.000249977 -9.39481e-06
1.35617e-05 -9.39481e-06 7.79427e-05
0.00044662 -7.46478e-05 4.27226e-07
-7.46478e-05 0.000167911 1.76132e-06
4.27226e-07 1.76132e-06 -8.44203e-05
-0.000152887 -0.000215716 -2.32657e-06
-0.000215716 -0.00010888 -5.86384e-06
-2.32657e-06 -5.86384e-06 -0.000406471
0.00181749 -0.000821135 1.88974e-05
-0.000821135 -1.45572e-06 -1.27785e-06
1.88974e-05 -1.27785e-06 -8.06418e-05
0.00196911 -0.00102149 -1.2356e-06
-0.00102149 0.00015166 1.29718e-06
-1.2356e-06 1.29718e-06 -5.22476e-05
0.000288211 -0.000761114 2.02952e-05
-0.000761114 -0.000227057 -1.62093e-05
2.02952e-05 -1.62093e-05 -0.000485205
0.000991446 -0.000373539 9.77432e-06
-0.000373539 0.000928949 -2.07302e-05
9.77432e-06 -2.07302e-05 0.000197729
0.00203562 -0.000992609 -7.14162e-05
-0.000992609 -2.88475e-05 4.52337e-05
-7.14162e-05 4.52337e-05 -0.000266705
0.00109681 -0.000773485 -2.65403e-05
-0.000773485 -0.000157015 1.99226e-06
-2.65403e-05 1.99226e-06 -0.000173894
-0.000175337 -0.00064069 -6.50128e-05
-0.00064069 -5.84156e-05 3.97098e-05
-6.50128e-05 3.97098e-05 -0.00048802
-0.0021982 -0.000204186 -8.91171e-06
-0.000204186 -0.0014834 1.26038e-05
-8.91171e-06 1.26038e-05 -0.00172925
-0.00120224 -2.26972e-05 2.70492e-08
-2.26972e-05 -0.000762322 1.20784e-05
2.70492e-08 1.20784e-05 -0.00106133
0.000835316 -9.45135e-05 7.84816e-06
-9.45135e-05 0.00053419 -1.48651e-05
7.84816e-06 -1.48651e-05 0.000145745
-0.00265584 0.00138483 -0.000468306
0.00138483 0.0074173 2.22602e-05
-0.000468306 2.22602e-05 0.00202762
2.74745e-05 -0.0017242 -1.6216e-05
-0.0017242 0.00268627 3.13129e-06
-1.6216e-05 3.13129e-06 0.00150004
0.00323851 0.00100262 -0.00014045
0.00100262 -0.00567478 -2.05653e-05
-0.00014045 -2.05653e-05 -0.0058527
0.000447178 0.00030008 1.35775e-05
0.00030008 0.000156927 -2.81515e-06
1.35775e-05 -2.81515e-06 -0.000112322
0.0017839 0.000657774 1.44694e-05
0.000657774 0.000728911 2.30478e-05
1.44694e-05 2.30478e-05 0.000289965
0.00349379 0.00107473 7.49055e-05
0.00107473 0.000698657 2.66396e-05
7.49055e-05 2.66396e-05 0.000580568
0.001433 0.000915429 1.7453e-05
0.000915429 0.000372832 2.42468e-05
1.7453e-05 2.42468e-05 -0.000113418
0.0135503 -0.00338494 0.000269985
-0.00338494 0.00534246 8.89766e-05
0.000269985 8.89766e-05 0.00363397
0.00359029 0.0017634 -0.000398619
0.0017634 -0.00490921 -9.36933e-05
-0.000398619 -9.36933e-05 -0.00631024
0.00533561 0.00306639 5.06172e-05
0.00306639 0.000325447 2.82728e-05
5.06172e-05 2.82728e-05 0.00105463
0.00320912 0.00135851 6.00608e-05
0.00135851 0.00133974 -7.73901e-06
6.00608e-05 -7.73901e-06 0.00105584
0.0107762 -0.00340167 -0.000450191
-0.00340167 0.00452461 -0.000371908
-0.000450191 -0.000371908 0.000332696
0.000301137 -0.00409988 -0.000842478
-0.00409988 0.00722833 -0.000247048
-0.000842478 -0.000247048 0.00111337
0.0268097 -0.00620025 0.000848597
-0.00620025 0.00788193 0.000412569
0.000848597 0.000412569 0.0046446
0.000312108 0.000271967 1.74934e-05
0.000271967 2.618e-05 -4.58445e-06
1.74934e-05 -4.58445e-06 -0.000201009
-0.00400111 0.000463084 -0.000193905
0.000463084 0.0062157 -3.45823e-05
-0.000193905 -3.45823e-05 9.83742e-05
0.00619381 0.00146132 -0.000160782
0.00146132 0.00355763 -0.00018379
-0.000160782 -0.00018379 -0.00195537
0.00178257 0.000930643 9.26444e-06
0.000930643 0.000291624 2.82107e-06
9.26444e-06 2.82107e-06 0.000154122
0.000776571 0.000693859 1.56746e-05
0.000693859 0.000236892 5.55363e-06
1.56746e-05 5.55363e-06 -0.000193167
0.000811559 0.00106954 -6.34175e-05
0.00106954 0.00055895 -6.51302e-05
-6.34175e-05 -6.51302e-05 -4.38773e-05
0.00413989 0.00352662 3.67031e-05
0.00352662 0.00119401 3.69092e-05
3.67031e-05 3.69092e-05 0.00110029
0.016049 0.00493941 1.4517e-05
0.00493941 0.00310061 8.36367e-06
1.4517e-05 8.36367e-06 0.000862922
0.00962287 -0.00404041 9.14208e-05
-0.00404041 0.00489314 -0.000106554
9.14208e-05 -0.000106554 -0.000882463
0.0161936 -0.00219379 -1.81034e-05
-0.00219379 0.00230684 -7.13169e-05
-1.81034e-05 -7.13169e-05 0.00334169
0.000688695 0.000524783 -1.47764e-05
0.000524783 0.000244627 -9.8105e-06
-1.47764e-05 -9.8105e-06 -7.0518e-05
0.00174737 0.000254571 -0.000392834
0.000254571 0.00244312 -9.86069e-05
-0.000392834 -9.86069e-05 -0.00276657
0.00127021 0.000984526 -0.000149543
0.000984526 -0.000136304 -0.000183437
-0.000149543 -0.000183437 -0.00178775
-0.000734936 0.000342634 -6.45942e-06
0.000342634 -0.000154998 -2.08303e-05
-6.45942e-06 -2.08303e-05 -0.000442388
-0.00115483 0.000752152 -0.000190254
0.000752152 0.000921606 -1.37136e-05
-0.000190254 -1.37136e-05 0.00013443
0.0121472 0.00541305 0.000129541
0.00541305 0.00397517 -3.99748e-05
0.000129541 -3.99748e-05 -0.000619818
-0.00125341 -0.00587245 -1.82699e-05
-0.00587245 -1.73977e-05 0.000237218
-1.82699e-05 0.000237218 -0.00548956
0.0126052 5.55865e-06 7.19651e-05
5.55865e-06 -0.00160158 -0.000336298
7.19651e-05 -0.000336298 0.000836972
0.000824647 0.000206681 -3.65278e-06
0.000206681 0.000342968 1.84651e-05
-3.65278e-06 1.84651e-05 0.000185579
0.000943067 0.00025331 -9.37684e-06
0.00025331 0.000556655 -5.50492e-06
-9.37684e-06 -5.50492e-06 0.00033696
-0.000302667 0.000139892 9.53826e-07
0.000139892 -4.44145e-06 -2.06879e-06
9.53826e-07 -2.06879e-06 -0.000337011
0.000526268 8.67374e-05 -7.10753e-07
8.67374e-05 0.000100263 -1.07522e-06
-7.10753e-07 -1.07522e-06 -7.28238e-05
0.00128046 -2.90402e-05 -2.30761e-06
-2.90402e-05 0.000620018 3.82712e-06
-2.30761e-06 3.82712e-06 0.00040605
-3.26791e-05 7.72124e-05 3.09985e-06
7.72124e-05 -0.000240045 2.19436e-06
3.09985e-06 2.19436e-06 -0.00040247
-0.00122775 4.38186e-05 2.32565e-06
4.38186e-05 -0.000716835 1.18512e-06
2.32565e-06 1.18512e-06 -0.000968243
0.000544723 -2.16476e-05 1.25185e-06
-2.16476e-05 0.000140836 4.67541e-07
1.25185e-06 4.67541e-07 -5.77658e-05
0.000482705 4.89465e-05 6.89791e-07
4.89465e-05 0.000185382 -2.34194e-06
6.89791e-07 -2.34194e-06 -2.2151e-05
7.93901e-05 4.69556e-05 2.58461e-06
4.69556e-05 0.000301277 2.87179e-06
2.58461e-06 2.87179e-06 -0.000119398
-0.000471208 6.07328e-05 -3.05717e-06
6.07328e-05 0.0001264 1.23162e-05
-3.05717e-06 1.23162e-05 -0.000387536
0.000565408 9.35522e-06 -2.41173e-06
9.35522e-06 0.000578993 -5.1642e-06
-2.41173e-06 -5.1642e-06 0.000171788
0.0014089 2.89481e-05 -2.12358e-06
2.89481e-05 0.000743593 -1.37871e-06
-2.12358e-06 -1.37871e-06 0.000545554
0.000846464 -0.000166619 3.7408e-06
-0.000166619 0.000331662 2.04465e-06
3.7408e-06 2.04465e-06 0.000138887
0.000216631 -6.71626e-05 1.61394e-06
-6.71626e-05 -0.000143904 5.74973e-06
1.61394e-06 5.74973e-06 -0.000266533
0.000122832 -8.74943e-05 5.10893e-06
-8.74943e-05 -0.000132308 1.6031e-05
5.10893e-06 1.6031e-05 -0.000233129
0.00020955 -3.49222e-05 2.14943e-06
-3.49222e-05 -1.04965e-05 2.18659e-06
2.14943e-06 2.18659e-06 -0.000184119
0.000515308 -4.87908e-05 -1.01175e-07
-4.87908e-05 0.000117868 9.34445e-07
-1.01175e-07 9.34445e-07 -4.01458e-05
0.000244941 -5.20878e-05 -7.96243e-07
-5.20878e-05 -2.58297e-05 -1.77151e-06
-7.96243e-07 -1.77151e-06 -0.000156066
0.000501949 -7.31687e-05 -7.42995e-06
-7.31687e-05 0.00011465 -5.42053e-06
-7.42995e-06 -5.42053e-06 -1.88407e-05
0.000478341 -8.17877e-05 9.07824e-06
-8.17877e-05 0.000295651 -8.30884e-06
9.07824e-06 -8.30884e-06 0.000125297
0.00132122 -0.000272123 1.76097e-06
-0.000272123 0.000413089 5.01485e-06
1.76097e-06 5.01485e-06 0.000322368
0.000509574 -0.00013487 -1.53903e-05
-0.00013487 2.47701e-05 -4.83159e-07
-1.53903e-05 -4.83159e-07 -8.67984e-05
0.000511669 -0.000229266 7.53025e-06
-0.000229266 -1.10002e-05 6.74968e-06
7.53025e-06 6.74968e-06 -0.000182459
0.00235976 -0.00061767 -3.64009e-06
-0.00061767 0.00103402 2.25107e-05
-3.64009e-06 2.25107e-05 0.00066862
0.00186206 -0.000268139 4.3879e-06
-0.000268139 0.000852013 -1.08185e-05
4.3879e-06 -1.08185e-05 0.000647519
0.000601926 -0.000217159 -5.91498e-06
-0.000217159 3.56152e-05 -6.9905e-06
-5.91498e-06 -6.9905e-06 -0.00011512
0.000507325 -8.66951e-05 -3.3893e-07
-8.66951e-05 0.000102002 -1.06171e-06
-3.3893e-07 -1.06171e-06 -8.79398e-05
-0.000328846 -4.5293e-05 -7.31975e-07
-4.5293e-05 -0.000383913 -1.66269e-06
-7.31975e-07 -1.66269e-06 -0.00061428
0.00115621 -5.85479e-05 9.25582e-07
-5.85479e-05 0.000520038 1.52428e-06
9.25582e-07 1.52428e-06 0.000332147
0.000710923 -0.000142587 2.11459e-07
-0.000142587 0.000243514 6.50433e-08
2.11459e-07 6.50433e-08 4.59028e-05
0.000421887 -6.52731e-05 5.14659e-07
-6.52731e-05 -1.00217e-05 1.34069e-06
5.14659e-07 1.34069e-06 -0.000142484
0.00146288 -0.000212908 -2.56935e-06
-0.000212908 0.000733634 -5.21107e-07
-2.56935e-06 -5.21107e-07 0.000541486
0.000692367 -0.00011843 -5.10481e-07
-0.00011843 0.000177837 2.10949e-08
-5.10481e-07 2.10949e-08 4.1624e-05
0.000512945 8.8361e-07 -1.58768e-06
8.8361e-07 3.5764e-05 3.60709e-06
-1.58768e-06 3.60709e-06 -5.08079e-05
0.000717864 -0.000136144 9.27498e-07
-0.000136144 0.000205963 -2.40137e-06
9.27498e-07 -2.40137e-06 6.66093e-05
0.000585385 -6.07991e-05 -8.53534e-08
-6.07991e-05 8.56229e-05 1.20047e-07
-8.53534e-08 1.20047e-07 -5.08426e-07
0.00144305 9.38672e-06 -1.2987e-05
9.38672e-06 0.000597156 7.85556e-06
-1.2987e-05 7.85556e-06 0.000573115
0.000535892 -7.18804e-05 1.73881e-06
-7.18804e-05 6.38209e-05 -4.89407e-06
1.73881e-06 -4.89407e-06 -2.33378e-05
0.00085728 -1.51284e-05 -9.36348e-06
-1.51284e-05 0.000232883 7.31161e-07
-9.36348e-06 7.31161e-07 0.000207484
0.000812407 2.10308e-05 1.22099e-06
2.10308e-05 0.000189717 3.00807e-06
1.22099e-06 3.00807e-06 0.000190985
0.000424186 -3.55971e-05 2.8446e-06
-3.55971e-05 -3.59172e-05 -5.26589e-06
2.8446e-06 -5.26589e-06 -6.24184e-05
0.00166471 1.98835e-05 1.19763e-05
1.98835e-05 0.000735281 -1.50261e-06
1.19763e-05 -1.50261e-06 0.000743304
0.0025171 1.01426e-05 1.32624e-05
1.01426e-05 0.00127662 -5.19137e-06
1.32624e-05 -5.19137e-06 0.00128929
0.000482284 5.7214e-05 1.5795e-06
5.7214e-05 3.20531e-05 -6.71234e-07
1.5795e-06 -6.71234e-07 -7.32521e-05
0.0005912 6.69547e-05 -1.15753e-06
6.69547e-05 8.49671e-05 -2.07903e-06
-1.15753e-06 -2.07903e-06 2.64093e-05
0.000578132 5.15764e-06 7.08325e-07
5.15764e-06 0.000108402 8.49309e-07
7.08325e-07 8.49309e-07 3.77255e-06
0.000455644 5.76086e-06 1.97467e-06
5.76086e-06 -3.59313e-05 -3.73916e-06
1.97467e-06 -3.73916e-06 -4.66499e-05
0.000484281 5.64336e-05 -3.18072e-09
5.64336e-05 1.86664e-05 -1.86654e-07
-3.18072e-09 -1.86654e-07 -3.37415e-05
0.000498523 -0.000114694 -2.96044e-06
-0.000114694 6.01381e-05 8.62152e-07
-2.96044e-06 8.62152e-07 -3.86338e-05
0.00201408 1.03118e-05 -7.36732e-06
1.03118e-05 0.000952838 -4.87036e-06
-7.36732e-06 -4.87036e-06 0.000970325
0.000445006 6.43568e-06 -2.56969e-07
6.43568e-06 -4.29434e-05 2.92802e-08
-2.56969e-07 2.92802e-08 -5.29917e-05
0.000492473 -6.81224e-06 -1.59476e-06
-6.81224e-06 1.85549e-05 2.16729e-06
-1.59476e-06 2.16729e-06 -2.7196e-05
0.000458717 5.12951e-06 -1.80573e-06
5.12951e-06 -3.53631e-05 3.32336e-06
-1.80573e-06 3.32336e-06 -4.61265e-05
0.00204593 2.58747e-05 -5.53454e-06
2.58747e-05 0.000975571 -1.17058e-07
-5.53454e-06 -1.17058e-07 0.000991738
0.00201525 4.00443e-05 -4.04391e-06
4.00443e-05 0.000959063 4.75468e-06
-4.04391e-06 4.75468e-06 0.000973879
-0.0060409 -0.00195045 -0.000216738
-0.00195045 0.00632255 6.10819e-05
-0.000216738 6.10819e-05 0.00188158
0.00264174 0.00167339 -0.000302183
0.00167339 0.0010454 9.71806e-05
-0.000302183 9.71806e-05 -0.00149814
0.00292602 -0.00107383 -0.000647644
-0.00107383 0.00127839 0.000276636
-0.000647644 0.000276636 -0.00347263
0.000958093 0.00112078 0.00121952
0.00112078 0.00701659 -0.000336219
0.00121952 -0.000336219 0.00224292
0.00338709 0.000689376 -5.32712e-05
0.000689376 -0.000853143 1.20112e-05
-5.32712e-05 1.20112e-05 0.000208945
0.00310562 -0.000536907 9.57695e-05
-0.000536907 -0.000210924 1.09528e-05
9.57695e-05 1.09528e-05 -2.40978e-05
0.00101528 -0.000393567 0.000323088
-0.000393567 -0.0055468 -5.6199e-05
0.000323088 -5.6199e-05 -0.0069033
0.0243505 0.00369447 -0.00102777
0.00369447 0.0107683 7.31724e-05
-0.00102777 7.31724e-05 0.00721618
0.00845785 0.0101176 -0.00256035
0.0101176 0.0065288 0.00159841
-0.00256035 0.00159841 0.00225033
0.00501885 -0.00076601 3.61831e-05
-0.00076601 -0.000569021 5.23874e-06
3.61831e-05 5.23874e-06 0.000350199
0.0085727 -0.00268566 0.000190461
-0.00268566 -0.0024618 -0.000154606
0.000190461 -0.000154606 -0.00452341
0.0211231 0.00614737 -0.000369519
0.00614737 0.00710094 -0.000121608
-0.000369519 -0.000121608 0.00244917
0.0164784 0.00480216 3.72486e-05
0.00480216 0.00405012 0.000431917
3.72486e-05 0.000431917 0.00115301
0.00176698 -0.00198242 -0.000121273
-0.00198242 -0.00350561 3.37811e-05
-0.000121273 3.37811e-05 -0.0019964
0.00661006 -0.00426877 0.000497594
-0.00426877 -0.000213716 -0.000238209
0.000497594 -0.000238209 -0.00382753
0.00948632 0.00367105 5.60265e-05
0.00367105 0.0024714 -0.00089365
5.60265e-05 -0.00089365 -0.00234139
0.00904438 0.000532344 -0.000330203
0.000532344 -0.00187065 1.90373e-05
-0.000330203 1.90373e-05 -0.00134973
0.00247759 -8.15808e-05 9.3991e-07
-8.15808e-05 0.00143364 1.75233e-05
9.3991e-07 1.75233e-05 0.0011573
0.000285036 9.28036e-05 -1.59312e-06
9.28036e-05 -3.10221e-05 -2.21662e-06
-1.59312e-06 -2.21662e-06 -0.00017625
0.000519967 0.000105836 2.85192e-06
0.000105836 7.11196e-05 -7.94664e-07
2.85192e-06 -7.94664e-07 -3.11618e-05
8.58058e-05 -1.42633e-05 5.61407e-06
-1.42633e-05 -0.00014588 -3.50112e-06
5.61407e-06 -3.50112e-06 -0.000248076
0.000438687 0.000109757 3.98508e-06
0.000109757 3.09477e-05 6.73505e-06
3.98508e-06 6.73505e-06 -0.000153322
0.000459503 5.04278e-05 -4.84407e-08
5.04278e-05 6.14616e-05 1.87525e-06
-4.84407e-08 1.87525e-06 -9.44719e-05
0.000185168 2.52608e-05 1.56079e-06
2.52608e-05 -0.000112795 -3.69859e-06
1.56079e-06 -3.69859e-06 -0.000244677
0.00090515 0.000184688 5.55753e-06
0.000184688 0.000343908 9.39468e-06
5.55753e-06 9.39468e-06 0.000164894
0.000914552 0.000139868 -2.92305e-07
0.000139868 0.000360336 -4.86666e-07
-2.92305e-07 -4.86666e-07 0.00018397
0.000343152 -1.10396e-05 -3.69192e-06
-1.10396e-05 -2.11659e-05 -6.81541e-06
-3.69192e-06 -6.81541e-06 -0.000156606
0.000458317 -0.000514302 9.17865e-05
-0.000514302 -0.00136747 -4.93995e-05
9.17865e-05 -4.93995e-05 -0.000983868
0.000110734 -0.000666923 8.6792e-06
-0.000666923 -0.0009709 -6.65931e-06
8.6792e-06 -6.65931e-06 -0.000958262
0.00127539 -0.000939018 -1.42631e-05
-0.000939018 -0.000287407 2.26559e-05
-1.42631e-05 2.26559e-05 -0.000376092
-0.0011154 -0.000738355 3.48993e-06
-0.000738355 -0.000984076 -2.3754e-06
3.48993e-06 -2.3754e-06 -0.00131941
0.00341003 -0.00047251 -3.06968e-05
-0.00047251 0.00213698 7.33186e-05
-3.06968e-05 7.33186e-05 0.00159717
0.000899112 -0.000218232 -2.35466e-06
-0.000218232 0.000551339 7.07441e-06
-2.35466e-06 7.07441e-06 0.000230537
0.000400153 0.000122427 -1.98176e-06
0.000122427 0.000123321 -1.64943e-05
-1.98176e-06 -1.64943e-05 -0.000123304
0.000708656 -4.75893e-05 -3.11181e-06
-4.75893e-05 0.000315031 8.98152e-06
-3.11181e-06 8.98152e-06 3.43607e-05
0.00194679 -0.000915479 -1.42716e-05
-0.000915479 -0.00017399 -2.72018e-06
-1.42716e-05 -2.72018e-06 -0.000209646
0.000725635 -4.09514e-05 1.19216e-06
-4.09514e-05 0.000368782 4.61805e-06
1.19216e-06 4.61805e-06 8.60372e-05
0.00229657 -0.000328258 2.88088e-06
-0.000328258 0.00140313 -2.35688e-06
2.88088e-06 -2.35688e-06 0.000993745
0.00136188 -0.000800482 1.02936e-05
-0.000800482 -1.83201e-05 1.62662e-06
1.02936e-05 1.62662e-06 -5.06573e-05
0.000487811 -0.00067329 -3.55836e-05
-0.00067329 0.000241021 9.17693e-06
-3.55836e-05 9.17693e-06 -0.000147533
0.00213079 -0.00160109 6.89199e-05
-0.00160109 2.12781e-05 -2.73448e-05
6.89199e-05 -2.73448e-05 -0.000129185
-0.000233372 -0.000538481 -4.88396e-06
-0.000538481 -0.000345486 2.31356e-05
-4.88396e-06 2.31356e-05 -0.000439305
-0.00161409 -8.81548e-05 1.98174e-05
-8.81548e-05 -0.000706897 -2.10067e-06
1.98174e-05 -2.10067e-06 -0.00118906
0.000539035 5.32987e-05 -4.23251e-06
5.32987e-05 0.000198992 5.45463e-06
-4.23251e-06 5.45463e-06 -1.4347e-05
0.000395065 -4.94272e-05 3.92469e-06
-4.94272e-05 0.0002897 -3.48483e-06
3.92469e-06 -3.48483e-06 -4.65545e-05
0.00134917 0.00017247 -5.69718e-05
0.00017247 0.00198003 -2.21101e-05
-5.69718e-05 -2.21101e-05 -0.00232836
-0.00704649 0.000454382 -0.000419352
0.000454382 0.00682715 -2.11536e-05
-0.000419352 -2.11536e-05 0.00136773
-0.0136094 -0.00286742 -0.000819675
-0.00286742 -0.00504935 -6.27282e-06
-0.000819675 -6.27282e-06 -0.00628431
-0.000425311 0.000243804 1.25389e-05
0.000243804 -0.000348509 -3.85445e-06
1.25389e-05 -3.85445e-06 -0.000607579
-0.0008686 0.000530665 -2.11374e-06
0.000530665 -0.00058339 1.03176e-05
-2.11374e-06 1.03176e-05 -0.00102512
0.00250505 0.00110441 3.85204e-05
0.00110441 0.000688709 3.26413e-05
3.85204e-05 3.26413e-05 0.000495272
-0.00535959 0.00216527 9.91468e-05
0.00216527 0.00689297 6.13028e-05
9.91468e-05 6.13028e-05 0.00194824
0.00687587 0.00421141 -0.000355323
0.00421141 -0.000124498 -0.000187962
-0.000355323 -0.000187962 -0.00336871
0.00106734 0.00227 0.000447166
0.00227 1.43473e-05 0.000167994
0.000447166 0.000167994 -5.84401e-05
-0.00022798 0.000980159 9.49729e-06
0.000980159 -8.85721e-05 -4.88465e-05
9.49729e-06 -4.88465e-05 -0.000391512
0.028475 -0.0039951 -0.000152378
-0.0039951 0.00952232 -0.000412791
-0.000152378 -0.000412791 0.00542728
0.00680873 0.00190139 0.0006349
0.00190139 0.00337733 0.000226223
0.0006349 0.000226223 -0.00262462
0.0139697 -0.00171855 0.00017878
-0.00171855 0.00247894 4.31988e-05
0.00017878 4.31988e-05 0.00378452
0.00134997 0.000593865 4.74363e-06
0.000593865 0.000705191 -1.68112e-06
4.74363e-06 -1.68112e-06 0.000374735
0.00384198 0.000717771 -1.98734e-05
0.000717771 0.00341101 1.17868e-05
-1.98734e-05 1.17868e-05 -0.000522112
0.00184043 0.000880293 8.05e-05
0.000880293 0.000167938 -3.18822e-06
8.05e-05 -3.18822e-06 -0.00150362
-0.00047509 0.000531181 -1.92524e-06
0.000531181 -0.000118512 -5.43745e-06
-1.92524e-06 -5.43745e-06 -0.00047579
-0.00013436 0.00142027 -0.000126029
0.00142027 0.000710859 -6.47271e-05
-0.000126029 -6.47271e-05 -0.000569128
0.00184853 0.00522775 0.000249394
0.00522775 0.000962849 0.000119325
0.000249394 0.000119325 -0.00347841
0.0102601 -0.000186873 2.26043e-06
-0.000186873 -0.00349182 -0.000221725
2.26043e-06 -0.000221725 -0.000747829
0.00667815 -0.00268219 -8.42418e-05
-0.00268219 0.003925 -0.000178131
-8.42418e-05 -0.000178131 -0.00140802
0.00105053 0.000477279 -8.11991e-06
0.000477279 0.000844474 -1.53178e-05
-8.11991e-06 -1.53178e-05 0.000461226
-0.00334278 0.00032355 1.92256e-05
0.00032355 0.000182103 3.52622e-05
1.92256e-05 3.52622e-05 -0.000486007
0.00557113 -0.000325085 0.000144162
-0.000325085 -0.000166108 -0.000155245
0.000144162 -0.000155245 -0.00153304
0.00885349 0.000681796 0.000314324
0.000681796 -0.00175108 -1.9747e-05
0.000314324 -1.9747e-05 -0.00117019
-0.00276041 0.00016315 4.6396e-05
0.00016315 -0.000103702 -2.67069e-05
4.6396e-05 -2.67069e-05 -0.000972771
0.0125266 0.00373062 0.000361195
0.00373062 0.00624683 9.55976e-05
0.000361195 9.55976e-05 0.000656765
0.00343532 -0.000664345 9.65782e-06
-0.000664345 0.00309551 0.000409974
9.65782e-06 0.000409974 -0.000803546
0.003177 0.000489783 2.68386e-05
0.000489783 0.00194298 1.19893e-05
2.68386e-05 1.19893e-05 0.00166207
0.000401562 0.000235785 -6.64745e-06
0.000235785 0.000445884 -1.69254e-06
-6.64745e-06 -1.69254e-06 6.99842e-05
0.000241933 0.000204814 4.47253e-06
0.000204814 0.000514399 -3.98892e-06
4.47253e-06 -3.98892e-06 3.45815e-05
0.000358952 0.000132652 1.50778e-06
0.000132652 3.3874e-05 -2.52615e-06
1.50778e-06 -2.52615e-06 -0.000168507
0.000605436 0.000100181 1.06318e-06
0.000100181 0.00023915 1.39083e-06
1.06318e-06 1.39083e-06 4.83749e-05
0.000116948 -6.669e-06 6.83962e-06
-6.669e-06 0.000346838 -3.66043e-06
6.83962e-06 -3.66043e-06 -8.41439e-05
0.000489346 3.53435e-05 1.41866e-07
3.53435e-05 0.000152854 -8.13653e-07
1.41866e-07 -8.13653e-07 -2.65484e-05
0.00080008 -4.1352e-05 -6.67109e-07
-4.1352e-05 0.000732105 -2.52176e-06
-6.67109e-07 -2.52176e-06 0.000320434
-2.12456e-05 2.91565e-05 -5.86568e-08
2.91565e-05 0.000398575 -8.41606e-07
-5.86568e-08 -8.41606e-07 -0.000112821
-7.28016e-05 -3.22952e-05 -2.86617e-06
-3.22952e-05 0.000335839 1.23076e-05
-2.86617e-06 1.23076e-05 -0.000106481
0.000308129 -3.18346e-05 -1.47786e-06
-3.18346e-05 0.000373911 -7.8722e-06
-1.47786e-06 -7.8722e-06 5.31849e-05
5.36545e-05 -6.23457e-05 5.40249e-06
-6.23457e-05 -0.000136995 9.4663e-06
5.40249e-06 9.4663e-06 -0.000287397
0.00114972 -5.26369e-05 3.41836e-07
-5.26369e-05 0.000500176 3.96775e-06
3.41836e-07 3.96775e-06 0.000345403
0.00131205 -8.09914e-05 -1.63242e-05
-8.09914e-05 0.000632009 1.3745e-05
-1.63242e-05 1.3745e-05 0.000500844
0.000742661 -9.19355e-05 5.79383e-06
-9.19355e-05 0.00043433 -8.35509e-07
5.79383e-06 -8.35509e-07 0.000273198
0.000408692 -5.67823e-05 -1.38028e-06
-5.67823e-05 5.98398e-05 -1.40121e-06
-1.38028e-06 -1.40121e-06 -7.22862e-05
0.00065258 -0.000213495 -7.70358e-07
-0.000213495 0.000195947 4.11877e-06
-7.70358e-07 4.11877e-06 6.16868e-05
0.000269532 -0.000180134 -1.44365e-05
-0.000180134 -0.000112891 -5.92158e-07
-1.44365e-05 -5.92158e-07 -0.000163194
-0.000968064 -0.000288544 1.18342e-05
-0.000288544 -0.000810273 2.25079e-05
1.18342e-05 2.25079e-05 -0.00111365
1.64914e-05 -0.000153754 5.08337e-06
-0.000153754 -0.000254395 -3.74906e-07
5.08337e-06 -3.74906e-07 -0.000368846
0.00116113 -0.00030684 -4.41011e-06
-0.00030684 0.000372067 1.18497e-05
-4.41011e-06 1.18497e-05 0.000177424
0.00209604 -0.000614544 -6.61378e-06
-0.000614544 0.000871029 1.44703e-05
-6.61378e-06 1.44703e-05 0.000478669
0.00177186 -0.000594055 -7.21004e-06
-0.000594055 0.000570575 -6.83782e-07
-7.21004e-06 -6.83782e-07 0.000155528
0.00169691 -0.000414845 8.96363e-07
-0.000414845 0.00070086 1.12299e-06
8.96363e-07 1.12299e-06 0.000443481
0.000529512 -0.000379403 9.14456e-06
-0.000379403 -9.61494e-05 -4.18434e-06
9.14456e-06 -4.18434e-06 -0.000393881
0.00125645 -0.000189606 2.66895e-06
-0.000189606 0.000584475 -3.48097e-06
2.66895e-06 -3.48097e-06 0.000305203
0.00114261 -0.000232737 -8.65393e-06
-0.000232737 0.000454115 2.03817e-06
-8.65393e-06 2.03817e-06 0.000238072
-0.000301516 -0.000125872 1.68618e-05
-0.000125872 -0.000503367 -1.7011e-05
1.68618e-05 -1.7011e-05 -0.000606835
0.00126751 -0.000121111 -2.06079e-06
-0.000121111 0.000544523 2.08136e-06
-2.06079e-06 2.08136e-06 0.000354398
0.000267712 -9.09073e-05 8.36882e-07
-9.09073e-05 -2.12493e-05 -4.4383e-08
8.36882e-07 -4.4383e-08 -0.000248966
0.00031083 -5.62417e-05 1.11651e-06
-5.62417e-05 -7.46741e-05 6.71184e-07
1.11651e-06 6.71184e-07 -0.000229872
0.00163397 -0.00025624 -2.00461e-06
-0.00025624 0.000825046 -3.11044e-07
-2.00461e-06 -3.11044e-07 0.000611922
0.000672171 -0.000106919 -3.49632e-07
-0.000106919 0.00016412 -5.99242e-08
-3.49632e-07 -5.99242e-08 1.6478e-05
0.000378638 6.8793e-06 2.56204e-06
6.8793e-06 -3.62673e-05 4.49339e-06
2.56204e-06 4.49339e-06 -0.000138612
0.000805696 -0.000148174 -2.58305e-08
-0.000148174 0.000261577 -2.18892e-06
-2.58305e-08 -2.18892e-06 0.000113931
0.000469125 5.32653e-06 -2.1998e-06
5.32653e-06 1.9134e-05 -1.91181e-07
-2.1998e-06 -1.91181e-07 -7.534e-05
0.00144003 3.1209e-06 -1.85104e-05
3.1209e-06 0.000595333 5.53329e-06
-1.85104e-05 5.53329e-06 0.000569509
0.00058759 -6.97722e-05 2.27988e-06
-6.97722e-05 9.24567e-05 -4.7049e-06
2.27988e-06 -4.7049e-06 3.13246e-06
0.000874715 -1.10607e-05 -9.12487e-06
-1.10607e-05 0.000238485 5.48055e-07
-9.12487e-06 5.48055e-07 0.00021165
0.000840009 3.11821e-05 4.74801e-07
3.11821e-05 0.00020457 3.18763e-06
4.74801e-07 3.18763e-06 0.000203413
0.000444318 -2.8419e-05 2.96268e-06
-2.8419e-05 -3.02873e-05 -6.27177e-06
2.96268e-06 -6.27177e-06 -5.8406e-05
0.00173814 3.21205e-05 1.50138e-05
3.21205e-05 0.000779056 -1.24375e-06
1.50138e-05 -1.24375e-06 0.000785682
0.00254503 2.39279e-05 1.83358e-05
2.39279e-05 0.00129162 -5.5142e-06
1.83358e-05 -5.5142e-06 0.00130401
0.00030835 2.01544e-05 1.91005e-06
2.01544e-05 -5.99922e-05 2.44866e-06
1.91005e-06 2.44866e-06 -0.000195929
0.000135907 2.12802e-05 1.53864e-07
2.12802e-05 -0.000206997 -3.70851e-06
1.53864e-07 -3.70851e-06 -0.00027274
0.000614494 5.59774e-05 1.22488e-07
5.59774e-05 0.000126898 2.38185e-07
1.22488e-07 2.38185e-07 1.08584e-05
0.000457055 5.9584e-06 1.7444e-06
5.9584e-06 -3.71649e-05 -3.91631e-06
1.7444e-06 -3.91631e-06 -4.941e-05
0.000318341 7.6897e-06 1.65575e-06
7.6897e-06 -9.36707e-05 5.2184e-08
1.65575e-06 5.2184e-08 -0.000149335
0.000229052 -9.44642e-05 -1.00473e-06
-9.44642e-05 -0.000114014 -6.36369e-07
-1.00473e-06 -6.36369e-07 -0.000218028
0.00206613 -3.76035e-06 -1.20781e-05
-3.76035e-06 0.000984815 -4.89987e-06
-1.20781e-05 -4.89987e-06 0.00100235
0.000451783 4.60201e-06 1.72566e-08
4.60201e-06 -3.92092e-05 -6.69253e-08
1.72566e-08 -6.69253e-08 -4.9636e-05
0.000423723 -1.4335e-05 -3.05327e-06
-1.4335e-05 -2.49349e-05 2.40889e-06
-3.05327e-06 2.40889e-06 -7.38481e-05
0.00203304 1.16994e-05 -4.77098e-06
1.16994e-05 0.000965297 5.89149e-09
-4.77098e-06 5.89149e-09 0.000982537
0.000445906 5.615e-06 -1.63146e-06
5.615e-06 -4.17522e-05 3.28961e-06
-1.63146e-06 3.28961e-06 -5.18799e-05
0.00201139 2.68912e-05 2.18808e-06
2.68912e-05 0.000953655 4.91368e-06
2.18808e-06 4.91368e-06 0.000969825
-0.000438385 -0.000922314 -0.00026779
-0.000922314 -0.000127575 0.000106818
-0.00026779 0.000106818 -0.003575
0.00215464 0.00081082 -0.000133846
0.00081082 0.00820948 2.94629e-05
-0.000133846 2.94629e-05 0.00358087
0.00272602 9.18221e-05 -0.000989679
9.18221e-05 0.00404681 0.000214884
-0.000989679 0.000214884 0.00207704
0.000718766 0.000124561 6.64107e-06
0.000124561 0.000195997 7.14929e-06
6.64107e-06 7.14929e-06 3.60911e-05
0.00538366 -0.00103292 -0.000117651
-0.00103292 0.00335351 0.000261698
-0.000117651 0.000261698 0.00108972
0.00420171 -0.00137582 -0.000291874
-0.00137582 0.00179722 2.87421e-05
-0.000291874 2.87421e-05 -0.00296957
0.0128228 0.00408137 0.000342925
0.00408137 0.00849428 -0.000379352
0.000342925 -0.000379352 0.00361969
0.00753345 -0.00120909 0.000134171
-0.00120909 0.000672368 -2.2305e-05
0.000134171 -2.2305e-05 0.00113615
0.0132494 -0.00258229 0.000283974
-0.00258229 0.000910964 -0.000158902
0.000283974 -0.000158902 5.30729e-05
0.0112058 0.00506818 -0.000751932
0.00506818 0.00165321 0.000437926
-0.000751932 0.000437926 -0.00264399
0.0144591 0.00449139 0.000144968
0.00449139 0.00586353 0.000247005
0.000144968 0.000247005 0.00288898
0.00774434 -0.00253516 -0.000117705
-0.00253516 7.83968e-05 -3.81674e-06
-0.000117705 -3.81674e-06 0.000752644
0.0168555 -0.00469853 2.60615e-05
-0.00469853 0.00357596 -3.71802e-05
2.60615e-05 -3.71802e-05 0.001057
0.00920126 0.00294991 0.000138554
0.00294991 0.00388257 -0.000378414
0.000138554 -0.000378414 -0.00102558
0.0128985 0.00127814 7.39932e-06
0.00127814 3.7685e-05 4.52871e-05
7.39932e-06 4.52871e-05 -0.000108327
0.00276455 -0.00258105 -6.97258e-05
-0.00258105 2.01489e-05 8.53404e-05
-6.97258e-05 8.53404e-05 0.000178956
0.0103718 -0.00479448 0.000188847
-0.00479448 0.00440177 -0.000113135
0.000188847 -0.000113135 0.000117718
0.0102001 -0.000311673 0.000120466
-0.000311673 0.00521973 -0.000475295
0.000120466 -0.000475295 0.00192244
0.0126347 0.000191215 -0.000155054
0.000191215 -0.00121642 0.000273719
-0.000155054 0.000273719 0.000754752
0.000397113 7.94934e-05 6.21761e-06
7.94934e-05 0.00010043 1.3679e-05
6.21761e-06 1.3679e-05 -0.000112977
0.000662233 -0.000129221 5.83192e-07
-0.000129221 0.000280903 1.40053e-08
5.83192e-07 1.40053e-08 3.43137e-05
0.000822102 0.000117261 2.25949e-06
0.000117261 0.000324332 -4.87196e-06
2.25949e-06 -4.87196e-06 0.000166727
0.000514214 0.000143758 4.00232e-06
0.000143758 4.4746e-05 1.3678e-05
4.00232e-06 1.3678e-05 -9.95994e-05
0.000829637 0.000199442 2.27866e-07
0.000199442 0.000308464 3.73723e-07
2.27866e-07 3.73723e-07 0.000110085
0.00108096 0.000114328 -4.44328e-06
0.000114328 0.000472788 -5.38751e-06
-4.44328e-06 -5.38751e-06 0.000308187
0.00105953 0.000179749 -1.5646e-06
0.000179749 0.000445568 3.75985e-08
-1.5646e-06 3.75985e-08 0.000262868
0.00106398 0.000190233 1.23539e-06
0.000190233 0.000473082 1.44867e-06
1.23539e-06 1.44867e-06 0.000285938
0.000755229 -0.00070138 0.000130065
-0.00070138 -0.000892104 -7.18753e-05
0.000130065 -7.18753e-05 -0.000703793
0.000161378 -0.000703698 -3.27699e-05
-0.000703698 -0.000764675 -8.32794e-07
-3.27699e-05 -8.32794e-07 -0.000706814
0.000921571 -0.000226906 4.66391e-06
-0.000226906 0.000465976 -3.10247e-05
4.66391e-06 -3.10247e-05 0.000167914
0.00187526 -0.000728051 2.23397e-05
-0.000728051 0.000975318 -2.20266e-05
2.23397e-05 -2.20266e-05 0.000625017
0.00245242 -0.000494628 -2.24254e-05
-0.000494628 0.0014363 2.30262e-05
-2.24254e-05 2.30262e-05 0.00103183
0.00166066 -0.000167753 6.44003e-06
-0.000167753 0.000936866 -2.27579e-05
6.44003e-06 -2.27579e-05 0.000635242
7.73185e-05 -2.72797e-06 3.53472e-06
-2.72797e-06 -9.42029e-05 7.24018e-06
3.53472e-06 7.24018e-06 -0.000303956
0.00067791 -0.00133887 -9.4016e-06
-0.00133887 -0.000572564 -5.4489e-06
-9.4016e-06 -5.4489e-06 -0.000711784
0.00135898 -2.16512e-05 -8.40857e-07
-2.16512e-05 0.000880694 -6.27479e-07
-8.40857e-07 -6.27479e-07 0.000539228
0.00010879 -0.000238848 -4.57472e-06
-0.000238848 0.000226298 6.3449e-06
-4.57472e-06 6.3449e-06 -0.000221376
-0.000461161 -0.000430341 2.34226e-05
-0.000430341 -0.000530396 -5.19327e-07
2.34226e-05 -5.19327e-07 -0.000512566
0.000873794 0.00011931 3.09327e-06
0.00011931 0.000407092 7.90673e-06
3.09327e-06 7.90673e-06 0.000214372
0.000182687 -0.00127156 -6.60965e-05
-0.00127156 -0.000158504 -2.496e-05
-6.60965e-05 -2.496e-05 -0.000508026
-0.00102229 -0.000451561 -1.9962e-05
-0.000451561 -0.000484392 2.83521e-05
-1.9962e-05 2.83521e-05 -0.00081191
0.000101734 0.000157907 1.45555e-05
0.000157907 0.000422163 -2.38367e-05
1.45555e-05 -2.38367e-05 -9.98883e-05
0.001517 0.000254958 -1.03072e-06
0.000254958 0.00102852 2.20912e-07
-1.03072e-06 2.20912e-07 0.000697142
-0.00120105 0.000116436 0.000140716
0.000116436 0.00181815 3.06934e-05
0.000140716 3.06934e-05 0.000723835
0.000333087 -6.25953e-06 0.00017076
-6.25953e-06 0.00125991 -3.5324e-05
0.00017076 -3.5324e-05 -0.00310758
-0.0122168 -0.000391523 -0.000302886
-0.000391523 0.00632661 2.83748e-05
-0.000302886 2.83748e-05 0.000571423
0.00174634 0.000617881 2.06822e-05
0.000617881 0.00102389 3.8864e-06
2.06822e-05 3.8864e-06 0.000686954
-0.000623248 0.000750263 1.33834e-05
0.000750263 -0.000230988 1.077e-05
1.33834e-05 1.077e-05 -0.000713559
0.00565965 0.000967402 0.000363329
0.000967402 0.00397277 7.55151e-05
0.000363329 7.55151e-05 0.00121718
0.0084032 0.00408182 0.000252411
0.00408182 0.00305733 0.000209468
0.000252411 0.000209468 -0.00109933
0.00443395 0.00274395 -0.000115656
0.00274395 0.00248844 -0.000109908
-0.000115656 -0.000109908 0.00102768
0.00432197 -0.00232565 -0.000171659
-0.00232565 0.0044629 -0.00047214
-0.000171659 -0.00047214 0.000300009
0.00294525 0.000713504 0.000142064
0.000713504 0.000449585 0.000186137
0.000142064 0.000186137 -0.00121163
0.0081237 -0.000312276 -5.36232e-05
-0.000312276 -0.00546848 -0.000247165
-5.36232e-05 -0.000247165 -0.00231654
0.00100641 0.000556154 5.55942e-06
0.000556154 0.000773291 1.29653e-06
5.55942e-06 1.29653e-06 0.000355299
-0.00275762 0.00015562 -2.78498e-06
0.00015562 0.000277476 3.84651e-06
-2.78498e-06 3.84651e-06 -0.000536532
0.00480408 -0.000180126 0.000127364
-0.000180126 -0.000220965 2.09869e-05
0.000127364 2.09869e-05 -0.000972546
-0.00183823 0.000479926 -1.56073e-05
0.000479926 -0.000223819 -1.1679e-05
-1.56073e-05 -1.1679e-05 -0.00100339
0.012636 0.00143765 -2.16819e-06
0.00143765 3.62061e-05 -4.88122e-05
-2.16819e-06 -4.88122e-05 -0.000126757
0.00296106 0.00211015 0.000247542
0.00211015 0.00415856 0.000148856
0.000247542 0.000148856 -0.00172067
0.00794898 0.000717846 -0.000185139
0.000717846 0.00338343 5.71895e-06
-0.000185139 5.71895e-06 -0.000570945
0.000302131 0.000471355 8.04918e-06
0.000471355 0.00054525 -2.35195e-05
8.04918e-06 -2.35195e-05 -1.9306e-05
0.00170939 -2.55802e-05 1.07277e-06
-2.55802e-05 0.000499065 -1.06588e-05
1.07277e-06 -1.06588e-05 -0.000117802
0.00401817 -0.00137954 0.000102373
-0.00137954 0.00334489 -0.000254904
0.000102373 -0.000254904 0.00136632
0.0218673 0.00526283 0.000326219
0.00526283 0.0069886 -0.000299956
0.000326219 -0.000299956 0.00419127
0.00956504 -0.000216841 -0.000125323
-0.000216841 0.00543562 0.000495834
-0.000125323 0.000495834 0.00184509
-0.000158278 0.000462581 -3.49999e-05
0.000462581 0.000727514 -0.000136784
-3.49999e-05 -0.000136784 -3.40043e-05
0.00459229 0.00140092 0.0002743
0.00140092 0.00647837 2.71488e-05
0.0002743 2.71488e-05 -0.00214678
0.0012592 0.000368369 8.62358e-06
0.000368369 0.000936086 1.16748e-05
8.62358e-06 1.16748e-05 0.000540914
0.000683648 0.000270832 4.25193e-06
0.000270832 0.000769647 3.34743e-06
4.25193e-06 3.34743e-06 0.000309955
0.000550131 -4.13108e-05 -1.30966e-05
-4.13108e-05 0.000856562 6.13297e-06
-1.30966e-05 6.13297e-06 0.000451664
-0.000726946 -2.31771e-05 2.05748e-06
-2.31771e-05 -0.0006183 2.67065e-07
2.05748e-06 2.67065e-07 -0.000781396
0.00011451 -2.49873e-05 4.16413e-06
-2.49873e-05 0.00036238 1.51025e-06
4.16413e-06 1.51025e-06 -8.55386e-05
-6.00037e-05 4.50043e-05 3.18319e-06
4.50043e-05 0.000396117 -6.07523e-06
3.18319e-06 -6.07523e-06 -0.000127576
0.000124274 -2.83771e-05 1.01422e-07
-2.83771e-05 0.000202967 8.01461e-07
1.01422e-07 8.01461e-07 -6.44309e-05
-9.35761e-05 -4.62241e-05 2.88647e-06
-4.62241e-05 0.000311865 1.2349e-06
2.88647e-06 1.2349e-06 -0.000130514
0.00170044 -0.000405842 5.18376e-06
-0.000405842 0.00113641 -1.04116e-05
5.18376e-06 -1.04116e-05 0.000793801
0.000590968 -8.54862e-05 -5.97327e-06
-8.54862e-05 0.000327198 6.18221e-06
-5.97327e-06 6.18221e-06 0.000173227
0.000111805 3.45069e-06 -1.94346e-07
3.45069e-06 -0.000119306 2.58597e-06
-1.94346e-07 2.58597e-06 -0.000249754
0.00132559 -0.0003003 4.11457e-07
-0.0003003 0.000604057 5.82407e-06
4.11457e-07 5.82407e-06 0.000430786
-0.00336934 -7.30253e-05 1.90819e-05
-7.30253e-05 -0.00202451 2.30503e-05
1.90819e-05 2.30503e-05 -0.00236535
-0.000570485 -0.000101492 1.54362e-05
-0.000101492 -0.000531127 -2.03117e-06
1.54362e-05 -2.03117e-06 -0.000544547
-0.000115614 -0.000346789 -1.28035e-06
-0.000346789 -0.000345483 -5.7875e-06
-1.28035e-06 -5.7875e-06 -0.00061192
0.00140195 -0.00059176 -1.66409e-06
-0.00059176 0.00041414 6.41293e-07
-1.66409e-06 6.41293e-07 -8.09083e-05
0.00174128 -0.000699505 -9.66018e-06
-0.000699505 0.000507414 1.11051e-06
-9.66018e-06 1.11051e-06 3.88059e-05
0.00160319 -0.000369686 6.35537e-06
-0.000369686 0.000627212 -4.96476e-06
6.35537e-06 -4.96476e-06 0.000411857
0.00135934 -0.000526091 6.53779e-07
-0.000526091 0.000411744 4.17732e-07
6.53779e-07 4.17732e-07 2.97785e-05
0.00162746 -0.000598946 3.29296e-06
-0.000598946 0.000443239 -3.97389e-06
3.29296e-06 -3.97389e-06 3.47264e-05
0.00146335 -0.000448001 -2.71973e-06
-0.000448001 0.000453422 8.45584e-06
-2.71973e-06 8.45584e-06 0.00013183
0.00106397 -0.000503389 2.27525e-06
-0.000503389 0.000143627 -4.57399e-06
2.27525e-06 -4.57399e-06 -0.000242874
0.000865561 -0.000194184 6.31507e-07
-0.000194184 0.000275269 -5.81197e-06
6.31507e-07 -5.81197e-06 1.11501e-05
0.00105852 -0.000363855 -5.5269e-06
-0.000363855 0.000311835 2.91278e-06
-5.5269e-06 2.91278e-06 4.86342e-05
-0.000931547 -0.00018383 1.65288e-06
-0.00018383 -0.000987676 -9.98428e-06
1.65288e-06 -9.98428e-06 -0.00122807
-5.16377e-05 -6.28322e-05 5.25997e-07
-6.28322e-05 -0.000267185 -2.64238e-06
5.25997e-07 -2.64238e-06 -0.00047999
0.000299744 -0.000147348 2.29512e-07
-0.000147348 1.74985e-05 1.88383e-07
2.29512e-07 1.88383e-07 -0.000260697
0.000155907 -0.000183073 1.25934e-05
-0.000183073 -0.000105674 7.66567e-07
1.25934e-05 7.66567e-07 -0.000333373
0.000694244 -0.000141089 2.81421e-08
-0.000141089 0.000233657 1.63894e-06
2.81421e-08 1.63894e-06 1.08486e-05
0.000700418 -0.000127203 1.04195e-07
-0.000127203 0.00018468 3.65887e-07
1.04195e-07 3.65887e-07 1.23778e-05
0.000516967 -1.11784e-05 1.30644e-06
-1.11784e-05 3.98951e-05 6.19634e-06
1.30644e-06 6.19634e-06 -7.20915e-05
0.00111092 -0.000165164 -1.27588e-06
-0.000165164 0.000459176 -1.06954e-06
-1.27588e-06 -1.06954e-06 0.000293764
0.000590912 -1.78384e-05 -1.24976e-06
-1.78384e-05 8.45178e-05 -3.41213e-07
-1.24976e-06 -3.41213e-07 -1.18828e-05
0.000382684 5.01481e-05 2.71825e-06
5.01481e-05 -6.37787e-05 7.3845e-06
2.71825e-06 7.3845e-06 -0.000103282
0.000708309 -7.20358e-05 1.60241e-06
-7.20358e-05 0.000160177 -3.79804e-06
1.60241e-06 -3.79804e-06 6.84343e-05
0.000446248 -1.36594e-06 -1.60311e-06
-1.36594e-06 -3.529e-05 -7.15729e-08
-1.60311e-06 -7.15729e-08 -6.75047e-05
0.00265296 9.23916e-05 -1.7949e-06
9.23916e-05 0.00136184 2.68322e-06
-1.7949e-06 2.68322e-06 0.00136573
0.000470414 -2.0499e-05 3.04891e-06
-2.0499e-05 -1.827e-05 -6.43908e-06
3.04891e-06 -6.43908e-06 -4.8527e-05
0.00177722 4.57327e-05 1.80875e-05
4.57327e-05 0.000803185 -1.04176e-06
1.80875e-05 -1.04176e-06 0.000807701
0.00263569 4.00368e-05 2.53767e-05
4.00368e-05 0.00134766 -5.75088e-06
2.53767e-05 -5.75088e-06 0.00135899
0.000259129 2.63107e-05 2.5672e-06
2.63107e-05 -0.0001097 1.77427e-06
2.5672e-06 1.77427e-06 -0.000233568
0.000208413 1.07846e-05 1.87297e-06
1.07846e-05 -0.000162924 -2.50379e-06
1.87297e-06 -2.50379e-06 -0.000239917
0.000455884 3.79143e-05 -5.36449e-07
3.79143e-05 2.75169e-05 -1.27136e-06
-5.36449e-07 -1.27136e-06 -0.000101271
0.000480154 7.19665e-06 1.59635e-06
7.19665e-06 -2.31931e-05 -4.39556e-06
1.59635e-06 -4.39556e-06 -3.84482e-05
0.000181938 1.81564e-05 -6.48538e-07
1.81564e-05 -0.00017876 -1.78714e-06
-6.48538e-07 -1.78714e-06 -0.000246634
0.000661189 5.91171e-05 -2.11359e-07
5.91171e-05 0.000169836 1.23313e-06
-2.11359e-07 1.23313e-06 4.44129e-05
0.00209072 -1.73696e-05 -1.7401e-05
-1.73696e-05 0.000999064 -4.81422e-06
-1.7401e-05 -4.81422e-06 0.00101644
0.000459723 3.77273e-06 -7.15702e-07
3.77273e-06 -3.60148e-05 -7.67868e-08
-7.15702e-07 -7.67868e-08 -4.78958e-05
9.72022e-05 1.71704e-05 1.47076e-06
1.71704e-05 -0.000230263 1.89748e-06
1.47076e-06 1.89748e-06 -0.000289851
0.00205424 -2.61217e-06 -4.11405e-06
-2.61217e-06 0.000977193 5.32641e-08
-4.11405e-06 5.32641e-08 0.000994818
0.000441773 4.04395e-06 -1.89628e-06
4.04395e-06 -4.61302e-05 3.54265e-06
-1.89628e-06 3.54265e-06 -5.61999e-05
0.00207892 1.32633e-05 7.81047e-06
1.32633e-05 0.000994879 4.97977e-06
7.81047e-06 4.97977e-06 0.00101168
0.000490897 -5.29576e-05 0.000153589
-5.29576e-05 0.00257539 6.80079e-05
0.000153589 6.80079e-05 0.00173156
-0.000341188 -0.000429085 -5.83709e-05
-0.000429085 0.000439558 -8.3055e-06
-5.83709e-05 -8.3055e-06 -0.00367972
0.000209255 0.00079741 -7.00603e-05
0.00079741 0.00782589 -5.39174e-05
-7.00603e-05 -5.39174e-05 0.00298103
0.000784951 0.000138982 7.87507e-07
0.000138982 0.000223506 2.16973e-07
7.87507e-07 2.16973e-07 7.57778e-05
9.8911e-05 8.65275e-05 6.91854e-06
8.65275e-05 -0.000214675 5.22332e-06
6.91854e-06 5.22332e-06 -0.000349542
0.00115905 0.000206783 1.15616e-05
0.000206783 0.000462181 9.29264e-06
1.15616e-05 9.29264e-06 0.000310832
0.00657721 -0.000500347 -0.000127925
-0.000500347 -0.00033694 0.000222483
-0.000127925 0.000222483 -0.0015532
0.00535105 -0.00127808 0.000107305
-0.00127808 0.00299964 1.18305e-05
0.000107305 1.18305e-05 0.00144301
0.00463776 -0.00204911 0.000224718
-0.00204911 0.00193106 -0.000277379
0.000224718 -0.000277379 -0.00287936
0.00920937 -0.00306525 -5.71263e-06
-0.00306525 0.000152639 -4.11108e-05
-5.71263e-06 -4.11108e-05 0.00100721
0.00135123 -0.00374945 -0.000479978
-0.00374945 -0.00215712 8.88765e-05
-0.000479978 8.88765e-05 -0.00452368
0.0268172 0.00466564 0.000284643
0.00466564 0.011416 0.000192125
0.000284643 0.000192125 0.00580688
0.00766666 -0.00029051 0.000331081
-0.00029051 -0.00250419 -0.000259341
0.000331081 -0.000259341 -0.00291613
0.00389258 -0.00297637 -2.94461e-05
-0.00297637 -0.00022952 1.79634e-05
-2.94461e-05 1.79634e-05 0.000410343
0.0073786 -0.0047843 -0.000141037
-0.0047843 0.00269815 2.13245e-05
-0.000141037 2.13245e-05 -0.00212752
-0.000856621 0.00396113 -9.54138e-05
0.00396113 0.00451165 -0.000329441
-9.54138e-05 -0.000329441 -0.000739825
0.0106502 -2.97767e-05 -9.02877e-05
-2.97767e-05 -0.0034391 0.000153921
-9.02877e-05 0.000153921 -0.000725355
0.00105837 -0.00210235 -0.000116643
-0.00210235 0.000945194 5.04231e-05
-0.000116643 5.04231e-05 0.000509656
0.010839 -0.00335454 -0.000329397
-0.00335454 0.00599471 0.000198507
-0.000329397 0.000198507 0.000750597
0.000754242 -0.000205227 6.04893e-05
-0.000205227 0.002699 -0.000346319
6.04893e-05 -0.000346319 -0.00132654
0.00935739 -0.00063828 0.000129862
-0.00063828 -0.00193031 8.08773e-05
0.000129862 8.08773e-05 -0.00127147
0.000157157 0.000102898 1.09593e-05
0.000102898 -0.000121262 2.34643e-05
1.09593e-05 2.34643e-05 -0.000262363
0.000677618 -8.63632e-07 2.54263e-06
-8.63632e-07 0.000251296 -2.96318e-06
2.54263e-06 -2.96318e-06 2.89683e-05
0.000305831 -0.000164628 2.71735e-06
-0.000164628 -2.21843e-05 -1.20471e-05
2.71735e-06 -1.20471e-05 -0.000229066
0.000644851 0.000142628 -1.92483e-06
0.000142628 0.000131667 1.84947e-06
-1.92483e-06 1.84947e-06 -2.01305e-05
0.000770855 0.000151335 1.86009e-06
0.000151335 0.000276062 -7.43694e-06
1.86009e-06 -7.43694e-06 8.80684e-05
0.00116416 0.000202212 -4.96773e-06
0.000202212 0.000512421 -5.80088e-06
-4.96773e-06 -5.80088e-06 0.000328914
-0.000104977 -0.00115281 3.86768e-05
-0.00115281 -0.000869523 -1.74795e-05
3.86768e-05 -1.74795e-05 -0.000981431
0.000997845 -0.000411813 2.29388e-05
-0.000411813 0.00026511 -2.26383e-05
2.29388e-05 -2.26383e-05 0.00030946
0.00013185 9.85147e-05 -2.22906e-06
9.85147e-05 -4.79478e-05 -1.97021e-05
-2.22906e-06 -1.97021e-05 -0.000275642
0.00253119 -0.000498148 6.65697e-05
-0.000498148 0.00154807 -2.72554e-05
6.65697e-05 -2.72554e-05 0.00114682
0.00182251 -0.000146128 5.68027e-07
-0.000146128 0.00110454 1.46196e-06
5.68027e-07 1.46196e-06 0.000798923
-0.000162445 9.98715e-05 4.37308e-06
9.98715e-05 -0.000165067 4.15321e-06
4.37308e-06 4.15321e-06 -0.000383248
0.000434773 9.23524e-05 1.12212e-06
9.23524e-05 0.000338416 1.42109e-08
1.12212e-06 1.42109e-08 5.8155e-05
0.000836196 -0.00133912 -4.29992e-05
-0.00133912 0.000123111 2.57068e-06
-4.29992e-05 2.57068e-06 -0.00031026
0.000197516 -3.6423e-05 -5.17005e-06
-3.6423e-05 0.000521287 3.71056e-06
-5.17005e-06 3.71056e-06 -2.11366e-05
0.000907823 -0.000392919 -8.06647e-06
-0.000392919 0.000688433 -7.15831e-06
-8.06647e-06 -7.15831e-06 0.000261003
0.000617118 0.000170993 4.71285e-06
0.000170993 0.000434899 -1.00886e-05
4.71285e-06 -1.00886e-05 0.000176106
-0.00189752 -0.000336787 -3.86827e-05
-0.000336787 -2.2892e-05 -1.95891e-05
-3.86827e-05 -1.95891e-05 -0.0009735
0.000877517 -0.000244453 -3.11282e-05
-0.000244453 0.00103678 4.38265e-06
-3.11282e-05 4.38265e-06 0.000560196
-0.00104171 1.82321e-06 -1.30283e-05
1.82321e-06 -7.39837e-05 1.0209e-06
-1.30283e-05 1.0209e-06 -0.000592632
-0.00015548 0.000243718 -1.25387e-05
0.000243718 -0.000578234 3.11014e-06
-1.25387e-05 3.11014e-06 -0.00202282
-0.00193057 0.000261269 7.18075e-05
0.000261269 0.00154934 -1.17656e-05
7.18075e-05 -1.17656e-05 0.000422499
-0.000565261 -0.000153008 0.000357886
-0.000153008 0.000612453 3.31023e-05
0.000357886 3.31023e-05 -0.00374481
0.000184678 0.000539521 4.82864e-06
0.000539521 0.000275649 1.79377e-05
4.82864e-06 1.79377e-05 -0.000169135
0.000164202 0.000844943 -2.4222e-05
0.000844943 0.000416702 -1.32099e-05
-2.4222e-05 -1.32099e-05 -0.000282805
-0.00248404 0.000106821 -5.66439e-05
0.000106821 0.000369641 -2.61829e-05
-5.66439e-05 -2.61829e-05 -0.000592555
-0.00483841 0.000730776 8.00637e-05
0.000730776 0.00279156 0.000200706
8.00637e-05 0.000200706 -0.00277346
0.000303662 0.00106691 -0.000172912
0.00106691 -0.00149402 -0.000497513
-0.000172912 -0.000497513 -0.00636809
0.00400859 -2.38825e-05 9.26474e-05
-2.38825e-05 -0.000327517 8.90881e-05
9.26474e-05 8.90881e-05 -0.00053154
0.00703147 -8.73058e-05 -0.000323627
-8.73058e-05 -0.00239187 0.000256092
-0.000323627 0.000256092 -0.00297908
0.000181074 0.000385405 -1.09827e-06
0.000385405 0.000521177 -5.87679e-07
-1.09827e-06 -5.87679e-07 3.12833e-05
0.00112894 4.16097e-05 3.51187e-05
4.16097e-05 0.000422557 -7.60337e-06
3.51187e-05 -7.60337e-06 -0.00017607
0.00445129 -0.000982234 -0.000102388
-0.000982234 0.00298477 -1.97849e-06
-0.000102388 -1.97849e-06 0.00137705
-0.000516586 0.000719724 -0.000142857
0.000719724 0.00124839 -8.10525e-06
-0.000142857 -8.10525e-06 -0.000276353
0.0157774 0.00531667 -2.08075e-05
0.00531667 0.00405195 -0.000423406
-2.08075e-05 -0.000423406 0.00112729
0.000865609 0.00339557 9.02758e-05
0.00339557 0.00484682 0.000343126
9.02758e-05 0.000343126 -0.000651142
0.00514505 0.000854785 6.48411e-05
0.000854785 0.00594349 -1.91491e-05
6.48411e-05 -1.91491e-05 -0.00151284
0.000434771 -5.91917e-06 3.81164e-05
-5.91917e-06 0.00140605 -2.52031e-05
3.81164e-05 -2.52031e-05 0.000294455
1.16282e-05 -0.000151435 -0.000138791
-0.000151435 0.00274296 3.3163e-06
-0.000138791 3.3163e-06 0.00169867
0.00178817 -0.00094426 0.000756494
-0.00094426 0.000628989 -0.000265701
0.000756494 -0.000265701 -0.00443009
0.0210026 0.00801367 -7.778e-05
0.00801367 0.0141923 -9.85211e-06
-7.778e-05 -9.85211e-06 0.010105
0.00804372 0.00399685 -7.73823e-05
0.00399685 0.00257542 0.000864221
-7.73823e-05 0.000864221 -0.0021929
0.0120499 -0.00375709 0.000312559
-0.00375709 0.00630943 -0.000251838
0.000312559 -0.000251838 0.000263327
0.00334928 -0.000798447 -6.92304e-05
-0.000798447 0.00331082 3.5475e-05
-6.92304e-05 3.5475e-05 0.00231305
0.000832086 0.00025514 -4.8942e-06
0.00025514 0.000869669 2.96704e-06
-4.8942e-06 2.96704e-06 0.000426582
-1.87579e-05 -6.1143e-05 -5.74282e-06
-6.1143e-05 0.000456745 -4.01489e-06
-5.74282e-06 -4.01489e-06 9.59737e-06
0.00121427 -0.000545945 4.3699e-05
-0.000545945 0.000938716 -1.27077e-05
4.3699e-05 -1.27077e-05 0.000393557
0.0002955 -7.6366e-05 -2.29911e-06
-7.6366e-05 0.000259804 5.90322e-06
-2.29911e-06 5.90322e-06 3.82644e-05
-0.000104999 -6.47035e-05 -1.68496e-06
-6.47035e-05 0.000269938 -1.49003e-05
-1.68496e-06 -1.49003e-05 -0.000146465
0.000533118 -0.00031705 -4.71873e-06
-0.00031705 0.000582522 3.98646e-07
-4.71873e-06 3.98646e-07 0.000222325
0.00114685 -0.000646833 2.35151e-05
-0.000646833 0.000498435 -1.73211e-05
2.35151e-05 -1.73211e-05 0.00017909
0.00197984 -0.000390745 6.95321e-07
-0.000390745 0.00102629 4.1621e-07
6.95321e-07 4.1621e-07 0.000795532
0.00156201 -0.000648426 1.55114e-05
-0.000648426 0.000695512 -2.78963e-06
1.55114e-05 -2.78963e-06 0.000279984
0.00113853 -0.000604662 8.04252e-06
-0.000604662 0.000451382 2.23574e-06
8.04252e-06 2.23574e-06 -0.000211081
0.000611504 -0.000365673 -5.87872e-06
-0.000365673 5.47163e-05 -7.57437e-06
-5.87872e-06 -7.57437e-06 -0.000160137
0.00207707 -0.000674924 -3.14333e-06
-0.000674924 0.000771222 -1.83214e-06
-3.14333e-06 -1.83214e-06 0.000276889
0.00197519 -0.000817434 -1.12179e-05
-0.000817434 0.000598964 -6.94081e-07
-1.12179e-05 -6.94081e-07 6.70527e-06
0.00202574 -0.000894064 -1.34282e-05
-0.000894064 0.000473837 2.37949e-06
-1.34282e-05 2.37949e-06 -4.79611e-05
0.00188324 -0.000763718 -4.70268e-06
-0.000763718 0.000555348 3.62349e-07
-4.70268e-06 3.62349e-07 8.28217e-05
0.00169142 -0.000694884 -4.58042e-06
-0.000694884 0.000467474 9.81263e-07
-4.58042e-06 9.81263e-07 -3.29929e-06
0.00125448 -0.000518657 1.52476e-06
-0.000518657 0.000322914 -6.86318e-06
1.52476e-06 -6.86318e-06 -6.57744e-05
0.00144825 -0.000542046 8.68896e-06
-0.000542046 0.00040816 -2.37356e-06
8.68896e-06 -2.37356e-06 2.86393e-05
0.0016114 -0.000605876 6.42045e-06
-0.000605876 0.000437214 -1.71264e-06
6.42045e-06 -1.71264e-06 2.73759e-05
0.00104308 -0.000279168 6.17573e-07
-0.000279168 0.000262097 -5.61625e-07
6.17573e-07 -5.61625e-07 5.95022e-06
0.00112333 -0.00042091 5.65184e-06
-0.00042091 0.000242199 -4.75197e-06
5.65184e-06 -4.75197e-06 -7.29267e-05
0.000236634 -0.000400549 -2.22168e-06
-0.000400549 -0.000360725 -8.42524e-06
-2.22168e-06 -8.42524e-06 -0.000716588
7.59036e-05 -7.66644e-05 -1.56182e-08
-7.66644e-05 -0.000172511 -3.37719e-06
-1.56182e-08 -3.37719e-06 -0.000435339
0.0010463 -0.000236156 -3.11386e-07
-0.000236156 0.000401682 6.95897e-07
-3.11386e-07 6.95897e-07 0.000130778
0.000451865 -0.000312379 -3.8401e-06
-0.000312379 -5.94982e-05 -1.55078e-06
-3.8401e-06 -1.55078e-06 -0.000327405
0.000566991 -5.5061e-05 -2.78956e-07
-5.5061e-05 6.56749e-05 7.01418e-06
-2.78956e-07 7.01418e-06 -6.5002e-05
0.000770027 -0.000119151 -3.57203e-07
-0.000119151 0.000240815 -5.22257e-09
-3.57203e-07 -5.22257e-09 2.49741e-05
-8.8212e-05 -0.000113571 8.72994e-08
-0.000113571 -0.000219572 4.67083e-06
8.72994e-08 4.67083e-06 -0.000483847
0.00123179 -0.000154705 3.76765e-07
-0.000154705 0.000529719 -6.03264e-07
3.76765e-07 -6.03264e-07 0.000344738
0.000610555 -5.7716e-05 -3.82728e-07
-5.7716e-05 9.74892e-05 -3.28835e-07
-3.82728e-07 -3.28835e-07 -1.75026e-05
0.000333048 2.1603e-05 1.99222e-06
2.1603e-05 -9.06588e-05 9.70047e-06
1.99222e-06 9.70047e-06 -0.000136484
0.000690228 -6.50594e-05 4.56738e-07
-6.50594e-05 0.000145201 -4.63483e-06
4.56738e-07 -4.63483e-06 4.66329e-05
0.000468229 1.12361e-05 -3.28542e-06
1.12361e-05 -1.67621e-05 -2.94237e-07
-3.28542e-06 -2.94237e-07 -5.32656e-05
0.00284414 9.8479e-05 -4.01719e-05
9.8479e-05 0.00149001 4.8245e-06
-4.01719e-05 4.8245e-06 0.00149373
0.000489197 -1.21997e-05 2.95191e-06
-1.21997e-05 -1.10217e-05 -6.49424e-06
2.95191e-06 -6.49424e-06 -4.22945e-05
0.0017918 6.29408e-05 2.14209e-05
6.29408e-05 0.000814621 -7.36876e-07
2.14209e-05 -7.36876e-07 0.000816516
0.00274337 5.98756e-05 3.14031e-05
5.98756e-05 0.00141678 -5.38393e-06
3.14031e-05 -5.38393e-06 0.00142611
0.000844185 0.000107973 5.62327e-06
0.000107973 0.000270319 6.20459e-07
5.62327e-06 6.20459e-07 0.000126504
0.000509162 4.97535e-05 2.81797e-06
4.97535e-05 2.83086e-05 -2.04607e-06
2.81797e-06 -2.04607e-06 -5.52877e-05
0.000450462 5.06592e-05 -7.6498e-07
5.06592e-05 2.65295e-05 -1.395e-06
-7.6498e-07 -1.395e-06 -0.000109711
0.000473541 7.67244e-06 1.13402e-06
7.67244e-06 -2.74594e-05 -5.38645e-06
1.13402e-06 -5.38645e-06 -4.73958e-05
0.000313821 4.07758e-05 -2.37053e-06
4.07758e-05 -9.48046e-05 -1.91631e-06
-2.37053e-06 -1.91631e-06 -0.000171327
0.000657762 8.18136e-05 -1.67609e-06
8.18136e-05 0.000159501 -3.57534e-06
-1.67609e-06 -3.57534e-06 2.97105e-05
0.00218195 -3.29707e-05 -2.11036e-05
-3.29707e-05 0.00105684 -4.88615e-06
-2.11036e-05 -4.88615e-06 0.00107292
0.000453983 -1.5228e-06 1.61877e-07
-1.5228e-06 -4.08405e-05 -1.41832e-07
1.61877e-07 -1.41832e-07 -5.54422e-05
0.000118643 1.56618e-05 -1.80376e-06
1.56618e-05 -0.000219357 1.89608e-07
-1.80376e-06 1.89608e-07 -0.000288439
0.00212677 -1.67849e-05 -5.59019e-06
-1.67849e-05 0.00102213 1.29798e-07
-5.59019e-06 1.29798e-07 0.00103938
0.000453019 1.00763e-07 -2.86309e-06
1.00763e-07 -4.0679e-05 3.71929e-06
-2.86309e-06 3.71929e-06 -5.22515e-05
0.00209259 -1.12445e-06 1.27506e-05
-1.12445e-06 0.00100161 4.96477e-06
1.27506e-05 4.96477e-06 0.00101904
0.00164079 -0.000284869 -7.30995e-05
-0.000284869 0.000354886 3.41502e-05
-7.30995e-05 3.41502e-05 -0.000281761
-0.000905607 -0.000203414 7.5666e-05
-0.000203414 0.00217002 -4.19979e-06
7.5666e-05 -4.19979e-06 0.00108198
-0.000957616 -0.000385737 0.000161121
-0.000385737 0.000768791 -0.000168934
0.000161121 -0.000168934 -0.00388322
0.000128234 5.02552e-05 4.25931e-06
5.02552e-05 -0.000171498 8.04694e-06
4.25931e-06 8.04694e-06 -0.000329098
0.00253227 0.000105971 2.98123e-06
0.000105971 0.00133132 7.29168e-06
2.98123e-06 7.29168e-06 0.00114395
0.00073007 0.000156205 -4.67404e-06
0.000156205 0.000198054 -6.24129e-06
-4.67404e-06 -6.24129e-06 5.07515e-05
0.000318643 8.15665e-05 1.01311e-06
8.15665e-05 -8.31216e-05 1.04903e-06
1.01311e-06 1.04903e-06 -0.000213821
0.00032985 8.9206e-05 5.16023e-07
8.9206e-05 -7.88124e-05 -1.2122e-06
5.16023e-07 -1.2122e-06 -0.000200174
0.000333895 9.63293e-05 8.49059e-06
9.63293e-05 -5.79996e-05 1.75893e-06
8.49059e-06 1.75893e-06 -0.000186944
0.000137843 0.000116616 1.61345e-05
0.000116616 -0.000149811 6.50005e-06
1.61345e-05 6.50005e-06 -0.000269769
0.00212512 0.00117696 0.000239109
0.00117696 -0.000420425 0.000252613
0.000239109 0.000252613 -0.00184295
0.00539093 -0.000314759 -5.95658e-05
-0.000314759 -0.000159172 5.40774e-05
-5.95658e-05 5.40774e-05 -0.0012479
0.00422577 -0.000788545 0.000250047
-0.000788545 0.00297004 -0.00011649
0.000250047 -0.00011649 0.00150045
0.00851955 -0.000190477 -1.66506e-06
-0.000190477 -0.00576333 0.000186913
-1.66506e-06 0.000186913 -0.00227597
0.0056603 -0.00331977 -0.000127266
-0.00331977 0.000837481 3.63946e-05
-0.000127266 3.63946e-05 0.00115421
0.00116798 -0.00435028 -0.000301797
-0.00435028 0.00154985 9.96853e-05
-0.000301797 9.96853e-05 -0.00429536
0.0164468 0.00447108 0.000147496
0.00447108 0.00746409 -0.000175498
0.000147496 -0.000175498 0.00254824
0.00235968 -0.0026065 -6.07045e-05
-0.0026065 0.000166739 2.4536e-05
-6.07045e-05 2.4536e-05 0.000513607
-0.00137346 -0.000964516 -5.59099e-05
-0.000964516 0.00413083 5.33772e-05
-5.59099e-05 5.33772e-05 -0.00315032
0.00945093 0.000563635 0.000224202
0.000563635 0.00371738 -3.01095e-05
0.000224202 -3.01095e-05 -8.82293e-06
0.0160736 -0.00201431 -7.92662e-05
-0.00201431 0.00208629 -1.45521e-05
-7.92662e-05 -1.45521e-05 0.00325669
-0.0013541 -0.000597649 -0.00017375
-0.000597649 0.000504757 0.000155543
-0.00017375 0.000155543 0.00034233
0.00294603 0.00214813 -0.000209758
0.00214813 0.00543405 -0.000110999
-0.000209758 -0.000110999 -0.00203437
-0.00106981 -0.00560772 3.4406e-06
-0.00560772 -0.000177702 -0.00025085
3.4406e-06 -0.00025085 -0.00557182
0.0146174 -0.00301527 0.000156191
-0.00301527 0.00445182 -0.000664575
0.000156191 -0.000664575 0.00250501
0.000579656 1.98406e-05 1.82701e-05
1.98406e-05 0.000339685 5.46085e-07
1.82701e-05 5.46085e-07 8.54113e-05
0.00079934 0.000186086 -1.55038e-06
0.000186086 0.000308656 -4.10271e-06
-1.55038e-06 -4.10271e-06 0.000150144
0.000891245 -1.65337e-05 -1.53508e-06
-1.65337e-05 0.00040279 -6.27363e-06
-1.53508e-06 -6.27363e-06 0.000154695
0.000987134 0.000156979 -5.86517e-06
0.000156979 0.000371603 -1.19326e-05
-5.86517e-06 -1.19326e-05 0.00020052
0.000441793 -0.00114575 4.04521e-05
-0.00114575 -1.12707e-05 3.15344e-05
4.04521e-05 3.15344e-05 -0.000502247
0.00246816 -0.000377691 7.74252e-06
-0.000377691 0.00161637 -2.67491e-05
7.74252e-06 -2.67491e-05 0.00110794
0.000954409 0.000110569 -1.57442e-05
0.000110569 0.00051702 -2.17542e-05
-1.57442e-05 -2.17542e-05 0.000321038
0.000864051 4.18749e-05 7.60802e-08
4.18749e-05 0.000578255 -8.43346e-06
7.60802e-08 -8.43346e-06 0.00032367
0.00031225 -3.28252e-05 -1.9195e-06
-3.28252e-05 0.000587625 1.48332e-05
-1.9195e-06 1.48332e-05 0.000113022
0.000328293 8.18116e-05 2.08155e-06
8.18116e-05 0.000194331 3.80315e-06
2.08155e-06 3.80315e-06 -1.63215e-05
9.39738e-05 4.06533e-06 7.95887e-07
4.06533e-06 0.000546331 9.20798e-07
7.95887e-07 9.20798e-07 4.18617e-05
0.000485863 -0.000468683 -7.01105e-06
-0.000468683 0.00116116 6.60474e-06
-7.01105e-06 6.60474e-06 -8.76853e-05
0.000376149 -0.000133732 7.85266e-06
-0.000133732 0.000915838 -2.26661e-06
7.85266e-06 -2.26661e-06 0.000439286
-0.000616737 0.000111114 3.66236e-06
0.000111114 -0.000181171 -1.42319e-05
3.66236e-06 -1.42319e-05 -0.000449122
0.00158216 4.25547e-05 -0.000126202
4.25547e-05 0.00351146 -2.28802e-05
-0.000126202 -2.28802e-05 0.00158529
0.00102348 0.000353586 -2.27668e-05
0.000353586 0.00122447 7.65884e-06
-2.27668e-05 7.65884e-06 0.00066251
-0.00210233 5.38028e-05 -8.67843e-05
5.38028e-05 0.00185433 -2.63221e-05
-8.67843e-05 -2.63221e-05 0.000650699
0.00102923 8.42986e-05 1.84045e-05
8.42986e-05 2.63537e-05 7.59698e-06
1.84045e-05 7.59698e-06 -0.000645863
-0.00303269 0.000367811 -2.5632e-05
0.000367811 0.00110459 -6.76005e-05
-2.5632e-05 -6.76005e-05 -7.91905e-05
0.000326761 0.000305139 -2.57032e-05
0.000305139 0.000693515 5.76229e-06
-2.57032e-05 5.76229e-06 0.000293398
-0.00133829 0.000857423 0.00015344
0.000857423 0.000139344 0.000111144
0.00015344 0.000111144 -0.000684797
0.000753859 4.14555e-05 7.13372e-05
4.14555e-05 0.000362803 -7.31397e-06
7.13372e-05 -7.31397e-06 3.46634e-06
0.00576599 -0.00226597 0.000264613
-0.00226597 0.00591375 -0.000185874
0.000264613 -0.000185874 -0.00258185
0.0191186 0.00383799 -0.000185775
0.00383799 0.00830426 0.000165763
-0.000185775 0.000165763 0.00338602
0.00328216 -0.000710391 -0.000223365
-0.000710391 0.00224884 0.000115097
-0.000223365 0.000115097 0.000923942
0.0135035 0.00481222 -0.000101982
0.00481222 0.00594794 -0.000236791
-0.000101982 -0.000236791 0.00277758
0.000465282 0.000233235 -5.63682e-05
0.000233235 0.0012602 1.37269e-05
-5.63682e-05 1.37269e-05 0.000204694
-1.55638e-05 -0.000241465 -8.51086e-05
-0.000241465 0.00217196 1.11584e-06
-8.51086e-05 1.11584e-06 0.00140193
0.00314285 -0.00153434 0.000284593
-0.00153434 0.00159591 -4.19195e-05
0.000284593 -4.19195e-05 -0.00329447
-0.00292392 -0.000115577 5.02823e-05
-0.000115577 -0.000463704 3.23171e-05
5.02823e-05 3.23171e-05 -0.00095557
0.0151694 0.00913858 0.000656035
0.00913858 0.0107531 -0.000277248
0.000656035 -0.000277248 0.00668459
0.00881668 0.00312523 -0.000161425
0.00312523 0.00403792 0.000381148
-0.000161425 0.000381148 -0.000829229
-0.00304138 -0.00123019 0.000178439
-0.00123019 0.00289995 -0.000146641
0.000178439 -0.000146641 -0.0048612
-0.0011092 -0.00041432 9.37058e-06
-0.00041432 0.000449063 -2.98141e-05
9.37058e-06 -2.98141e-05 -0.000626785
0.000421805 -0.000837103 0.000309233
-0.000837103 -0.000147277 -7.82132e-05
0.000309233 -7.82132e-05 -0.00356165
-0.000342804 0.000809167 -0.00130663
0.000809167 0.00741666 0.000338833
-0.00130663 0.000338833 0.0031224
0.0196823 0.0071716 -0.000568427
0.0071716 0.00638974 0.00054083
-0.000568427 0.00054083 0.00180263
0.00731564 -0.00361435 -0.000183435
-0.00361435 0.00330243 5.98091e-05
-0.000183435 5.98091e-05 -0.000337514
0.00277402 -0.00162646 3.60737e-05
-0.00162646 0.00284083 2.41469e-07
3.60737e-05 2.41469e-07 0.00190614
0.000199914 -5.22833e-05 3.79056e-06
-5.22833e-05 0.000531958 -7.67797e-06
3.79056e-06 -7.67797e-06 5.69964e-05
1.53343e-05 -0.000387885 3.15643e-06
-0.000387885 0.000369689 -1.68773e-06
3.15643e-06 -1.68773e-06 -0.000200412
-0.00016574 -0.000679284 -4.0531e-06
-0.000679284 -2.90511e-05 8.54156e-07
-4.0531e-06 8.54156e-07 -0.000358085
-0.000433218 -0.000223933 2.13469e-07
-0.000223933 0.000131532 7.23296e-06
2.13469e-07 7.23296e-06 -0.000240279
-0.000721529 -0.000388433 1.14639e-06
-0.000388433 -0.00040591 1.1506e-06
1.14639e-06 1.1506e-06 -0.000697099
0.00311508 -0.000933999 3.82891e-05
-0.000933999 0.00132326 -1.65053e-05
3.82891e-05 -1.65053e-05 0.000905353
0.00650571 -0.00125104 -1.22445e-05
-0.00125104 0.00341387 -2.08041e-06
-1.22445e-05 -2.08041e-06 0.00291518
0.00286833 -0.000838338 1.0274e-05
-0.000838338 0.00131525 -2.83017e-06
1.0274e-05 -2.83017e-06 0.000659678
0.00184383 -0.000882917 4.75668e-06
-0.000882917 0.000473138 -1.7363e-05
4.75668e-06 -1.7363e-05 -0.000178299
0.00218313 -0.000682699 -1.00224e-05
-0.000682699 0.000804411 -7.58153e-06
-1.00224e-05 -7.58153e-06 0.000324069
0.00220573 -0.000852624 1.52178e-06
-0.000852624 0.000714426 -1.97258e-06
1.52178e-06 -1.97258e-06 0.000109565
0.00266132 -0.000985634 -4.26007e-06
-0.000985634 0.00085938 -1.13911e-05
-4.26007e-06 -1.13911e-05 0.000261735
0.0021927 -0.000780143 -5.28989e-06
-0.000780143 0.000387546 -4.43612e-06
-5.28989e-06 -4.43612e-06 -1.89288e-05
0.00253844 -0.000949621 -9.70926e-06
-0.000949621 0.000733425 1.76597e-06
-9.70926e-06 1.76597e-06 0.000228735
0.00236534 -0.000937765 -3.0365e-06
-0.000937765 0.000657361 1.14842e-08
-3.0365e-06 1.14842e-08 0.000122716
0.00176213 -0.000725648 7.18533e-06
-0.000725648 0.000509656 -3.56127e-06
7.18533e-06 -3.56127e-06 6.43391e-05
0.00157671 -0.000713662 2.9237e-06
-0.000713662 0.000380284 -1.02118e-06
2.9237e-06 -1.02118e-06 -7.32449e-05
0.00150318 -0.000671332 6.72026e-06
-0.000671332 0.000344743 -4.10296e-07
6.72026e-06 -4.10296e-07 -0.000124274
0.00164105 -0.000491826 8.87318e-06
-0.000491826 0.000565006 5.02958e-06
8.87318e-06 5.02958e-06 0.000220783
0.00148866 -0.000543365 -1.41727e-06
-0.000543365 0.000439378 -2.25213e-06
-1.41727e-06 -2.25213e-06 5.73627e-05
0.00161496 -0.000614 6.52376e-06
-0.000614 0.000442793 2.43679e-06
6.52376e-06 2.43679e-06 3.19928e-05
0.00123376 -0.000226508 8.95466e-07
-0.000226508 0.000470003 -4.60607e-06
8.95466e-07 -4.60607e-06 0.000201139
0.000822427 -0.000270007 -3.72679e-06
-0.000270007 0.000151626 2.55759e-06
-3.72679e-06 2.55759e-06 -9.97759e-05
0.000834356 -0.000398707 -5.02627e-07
-0.000398707 6.34035e-05 -1.21818e-05
-5.02627e-07 -1.21818e-05 -0.000246261
-1.55097e-05 -7.2297e-05 -2.18936e-06
-7.2297e-05 -0.000284396 4.69519e-06
-2.18936e-06 4.69519e-06 -0.000459764
0.000779645 -0.000145526 3.18739e-07
-0.000145526 0.000263798 8.83264e-07
3.18739e-07 8.83264e-07 -2.532e-06
0.000700361 -0.000269948 4.02667e-06
-0.000269948 0.000217741 1.80623e-06
4.02667e-06 1.80623e-06 -6.61004e-05
0.000343316 -1.61723e-05 -6.52142e-06
-1.61723e-05 -9.69464e-05 1.46984e-05
-6.52142e-06 1.46984e-05 -0.000146775
0.000669159 -7.70931e-05 7.90175e-07
-7.70931e-05 0.000122605 1.63047e-07
7.90175e-07 1.63047e-07 -8.96117e-06
0.00140562 -0.000200413 -1.2854e-06
-0.000200413 0.000632082 2.05952e-06
-1.2854e-06 2.05952e-06 0.000412904
0.000710806 -6.81304e-05 1.67655e-07
-6.81304e-05 0.000158093 -5.51275e-06
1.67655e-07 -5.51275e-06 4.15767e-05
0.000432639 8.34449e-06 -6.02487e-07
8.34449e-06 -3.40763e-05 -5.07295e-07
-6.02487e-07 -5.07295e-07 -7.77826e-05
0.0029778 0.00012484 -4.03172e-05
0.00012484 0.00158445 4.80209e-06
-4.03172e-05 4.80209e-06 0.00158194
0.000517778 -1.40547e-06 2.26726e-06
-1.40547e-06 9.92361e-06 -7.88218e-06
2.26726e-06 -7.88218e-06 -2.46691e-05
0.00281524 0.000100797 5.0445e-06
0.000100797 0.00147191 5.93191e-07
5.0445e-06 5.93191e-07 0.00147526
0.00270534 7.90118e-05 3.42526e-05
7.90118e-05 0.00139549 -4.9101e-06
3.42526e-05 -4.9101e-06 0.00140289
0.00109733 0.000100051 4.14472e-06
0.000100051 0.000528744 -2.38013e-06
4.14472e-06 -2.38013e-06 0.000296985
0.00116935 0.000143017 7.00628e-06
0.000143017 0.000526305 -1.11071e-06
7.00628e-06 -1.11071e-06 0.000336271
0.000546807 3.87489e-05 4.37997e-06
3.87489e-05 4.73258e-05 -4.13811e-06
4.37997e-06 -4.13811e-06 -4.65284e-05
0.000594033 0.000110631 1.96405e-07
0.000110631 0.000115327 -2.44263e-07
1.96405e-07 -2.44263e-07 -2.59004e-05
0.000450365 -4.08807e-07 1.74113e-06
-4.08807e-07 -3.90558e-05 -6.59946e-06
1.74113e-06 -6.59946e-06 -6.41142e-05
0.000522223 5.24966e-05 2.41363e-07
5.24966e-05 3.67239e-05 -2.10345e-07
2.41363e-07 -2.10345e-07 -4.68583e-05
0.0005635 5.64658e-05 -5.40067e-06
5.64658e-05 8.35979e-05 -2.72914e-06
-5.40067e-06 -2.72914e-06 -4.35697e-05
0.0023236 -4.92361e-05 -2.72166e-05
-4.92361e-05 0.0011483 -5.07194e-06
-2.72166e-05 -5.07194e-06 0.0011621
0.000463996 2.49217e-06 -8.14372e-07
2.49217e-06 -3.29444e-05 -1.58895e-07
-8.14372e-07 -1.58895e-07 -5.23597e-05
0.00046225 5.78051e-05 -4.04558e-06
5.78051e-05 5.70165e-07 -1.08125e-07
-4.04558e-06 -1.08125e-07 -7.55938e-05
0.00218589 -3.23828e-05 -4.85227e-06
-3.23828e-05 0.00105932 2.42221e-07
-4.85227e-06 2.42221e-07 0.00107547
0.000464405 -2.32132e-07 -2.90564e-06
-2.32132e-07 -3.49844e-05 4.07685e-06
-2.90564e-06 4.07685e-06 -4.91948e-05
0.00212229 -1.62564e-05 1.66673e-05
-1.62564e-05 0.00101916 4.82803e-06
1.66673e-05 4.82803e-06 0.00103641
-0.0025247 0.000294946 -1.51717e-05
0.000294946 0.000503016 -5.4341e-05
-1.51717e-05 -5.4341e-05 -0.000142588
0.00172779 -0.000228195 -1.56611e-05
-0.000228195 0.000627619 -2.63608e-06
-1.56611e-05 -2.63608e-06 0.000182916
-6.40881e-05 -0.00023541 1.06741e-05
-0.00023541 0.0019935 -4.18469e-05
1.06741e-05 -4.18469e-05 0.00112804
0.000794508 0.000106631 4.95073e-07
0.000106631 0.000299925 -1.08167e-06
4.95073e-07 -1.08167e-06 9.99294e-05
7.35338e-05 9.32622e-05 6.30856e-06
9.32622e-05 -0.000194513 -2.2895e-06
6.30856e-06 -2.2895e-06 -0.00037241
-0.00165378 -7.96087e-06 -6.86833e-07
-7.96087e-06 -0.00130759 -9.76578e-06
-6.86833e-07 -9.76578e-06 -0.00146904
-0.00113764 1.40173e-05 -1.0247e-06
1.40173e-05 -0.000909918 1.94933e-05
-1.0247e-06 1.94933e-05 -0.00108504
0.00278595 0.000392135 3.64627e-07
0.000392135 0.00151562 2.59517e-07
3.64627e-07 2.59517e-07 0.00123755
0.00110618 4.95604e-05 -6.71546e-06
4.95604e-05 0.000401021 -5.15936e-06
-6.71546e-06 -5.15936e-06 0.000269477
0.000448017 0.000113003 -1.15391e-05
0.000113003 -1.14115e-07 -1.05453e-05
-1.15391e-05 -1.05453e-05 -0.000119181
0.000866191 5.03821e-05 1.04703e-06
5.03821e-05 0.000267741 -4.29589e-07
1.04703e-06 -4.29589e-07 0.000143512
0.0010416 0.000176278 -1.22562e-06
0.000176278 0.000404186 -3.33662e-06
-1.22562e-06 -3.33662e-06 0.000278504
0.00129065 0.000142855 8.94859e-06
0.000142855 0.000719173 -1.84629e-05
8.94859e-06 -1.84629e-05 0.000478712
0.0059761 0.00113507 0.000441746
0.00113507 0.00428104 0.000519586
0.000441746 0.000519586 -0.000548939
0.00254554 0.000938562 2.30977e-05
0.000938562 0.000171459 9.12734e-05
2.30977e-05 9.12734e-05 -0.0014934
0.00473871 -0.000241554 5.91243e-05
-0.000241554 -0.000224577 -2.03267e-05
5.91243e-05 -2.03267e-05 -0.000833197
0.01421 -0.00154488 -0.000291035
-0.00154488 0.00215711 -0.000135484
-0.000291035 -0.000135484 0.00386348
-0.00287458 0.00121641 7.53366e-05
0.00121641 -0.00233021 0.000426
7.53366e-05 0.000426 -0.00718475
0.00206734 -0.00260033 -5.20191e-05
-0.00260033 0.000550412 -3.74631e-05
-5.20191e-05 -3.74631e-05 0.000667425
0.00792445 -0.0022057 -0.00016337
-0.0022057 0.00533682 3.94169e-05
-0.00016337 3.94169e-05 -6.73133e-05
0.000790976 -0.00110286 -0.000108733
-0.00110286 0.000936545 0.00012042
-0.000108733 0.00012042 0.00055589
0.0100239 -4.16772e-05 -0.000182954
-4.16772e-05 0.00685977 2.97708e-07
-0.000182954 2.97708e-07 0.000117053
0.00618982 -0.002712 9.66012e-05
-0.002712 0.0039973 0.000201619
9.66012e-05 0.000201619 -0.00123383
0.0182004 -0.00451053 -0.000104926
-0.00451053 0.00384294 -0.000769641
-0.000104926 -0.000769641 0.00120493
0.00222761 0.00011425 -0.000154941
0.00011425 0.00296443 0.000114732
-0.000154941 0.000114732 0.00170794
0.0126233 0.00275095 -0.000238396
0.00275095 0.00737707 -8.91111e-06
-0.000238396 -8.91111e-06 0.00196312
0.0201896 -0.00725391 -8.87175e-05
-0.00725391 0.0105221 -0.000767394
-8.87175e-05 -0.000767394 0.00511147
0.0244717 -0.00934432 9.40338e-05
-0.00934432 0.0103244 -7.36922e-05
9.40338e-05 -7.36922e-05 0.00660246
0.000859433 0.000299808 1.89883e-05
0.000299808 0.000529629 -1.06803e-05
1.89883e-05 -1.06803e-05 0.000183305
-6.66048e-05 4.49449e-05 4.08559e-06
4.49449e-05 2.29132e-05 2.04413e-06
4.08559e-06 2.04413e-06 -0.000284573
0.00104856 0.000194712 -1.77075e-05
0.000194712 0.000482301 -1.84397e-05
-1.77075e-05 -1.84397e-05 0.000308126
0.00233683 -0.00071057 5.67214e-05
-0.00071057 0.00175315 1.70595e-05
5.67214e-05 1.70595e-05 0.000257305
-0.000290771 -0.000121503 3.54753e-05
-0.000121503 0.000731865 -3.00792e-05
3.54753e-05 -3.00792e-05 0.000184881
-0.000119802 7.31849e-05 -7.05112e-06
7.31849e-05 -8.5542e-05 -1.66421e-06
-7.05112e-06 -1.66421e-06 -0.000288646
-0.000372592 -4.66745e-05 1.55352e-05
-4.66745e-05 0.000311814 -2.86291e-06
1.55352e-05 -2.86291e-06 -0.000230433
-3.24592e-05 0.000134443 -7.52415e-07
0.000134443 0.000138875 -8.16268e-07
-7.52415e-07 -8.16268e-07 -0.000136448
0.000201602 0.000320578 1.5566e-05
0.000320578 0.000617354 2.61164e-06
1.5566e-05 2.61164e-06 3.79326e-05
-0.00226675 -3.09798e-05 0.000245436
-3.09798e-05 0.000996479 -2.83821e-05
0.000245436 -2.83821e-05 -0.000963344
-0.000728094 0.000431168 7.4545e-07
0.000431168 -0.000369751 1.37486e-05
7.4545e-07 1.37486e-05 -0.000764109
0.0026977 0.000961603 -0.000146194
0.000961603 0.00221267 -9.26535e-05
-0.000146194 -9.26535e-05 0.000725025
0.00113114 0.000171334 0.00020116
0.000171334 0.00174954 6.95407e-05
0.00020116 6.95407e-05 -0.00261768
-0.00240777 0.000235989 -7.8129e-05
0.000235989 0.00159275 1.32583e-05
-7.8129e-05 1.32583e-05 0.000236113
0.00261724 -0.000265789 -3.69022e-05
-0.000265789 0.000898329 -3.44675e-06
-3.69022e-05 -3.44675e-06 0.000906293
-0.000374989 0.000543307 0.000116669
0.000543307 0.000616469 1.36179e-05
0.000116669 1.36179e-05 -0.000502367
0.00127214 0.00030943 -0.000111114
0.00030943 0.00259931 0.00010557
-0.000111114 0.00010557 0.00111254
-0.000419134 -0.000265327 -7.38774e-06
-0.000265327 0.00183101 -1.5823e-05
-7.38774e-06 -1.5823e-05 0.000846793
0.0165563 -0.00441611 0.000248312
-0.00441611 0.00862631 -0.000120645
0.000248312 -0.000120645 0.00218332
0.0236511 0.00518305 -0.00021079
0.00518305 0.0110897 -0.000175061
-0.00021079 -0.000175061 0.00545121
0.00517231 -0.00178254 -0.000309491
-0.00178254 0.00267124 0.000272494
-0.000309491 0.000272494 -0.00190284
0.0076706 0.0105556 0.0026572
0.0105556 0.00655281 -0.00163381
0.0026572 -0.00163381 0.00226819
0.00117237 -0.000568421 4.28218e-05
-0.000568421 0.0015895 -1.30292e-05
4.28218e-05 -1.30292e-05 0.000438138
-0.00035847 -0.000595394 5.15374e-05
-0.000595394 0.000492115 1.22727e-05
5.15374e-05 1.22727e-05 -0.00355386
0.000846453 0.00126688 -0.00125225
0.00126688 0.00705585 0.000336367
-0.00125225 0.000336367 0.00236545
0.000380828 -0.000894617 1.96393e-05
-0.000894617 0.00134327 3.01692e-05
1.96393e-05 3.01692e-05 0.000523876
0.0203149 0.00667297 0.000379242
0.00667297 0.00673562 0.000103705
0.000379242 0.000103705 0.00200741
0.00774893 -0.0054471 0.000230391
-0.0054471 0.00260185 -8.17861e-05
0.000230391 -8.17861e-05 -0.00143952
0.000525599 -0.00132416 -1.2886e-08
-0.00132416 0.000568199 2.88131e-05
-1.2886e-08 2.88131e-05 -0.000356367
-0.00592082 -0.00188605 0.000160329
-0.00188605 0.00612134 -8.87929e-05
0.000160329 -8.87929e-05 0.0018925
0.0164209 0.00660517 -0.00168316
0.00660517 0.00648263 0.000523526
-0.00168316 0.000523526 0.00287763
0.00641906 -0.0040534 -0.000472776
-0.0040534 -0.0005393 0.000199634
-0.000472776 0.000199634 -0.00371744
0.000645163 -0.00205988 0.000192736
-0.00205988 -5.54901e-05 -0.000133692
0.000192736 -0.000133692 0.000870764
0.00124838 -0.000575654 -0.00010861
-0.000575654 0.000918916 3.47447e-05
-0.00010861 3.47447e-05 0.000405151
0.000811434 -0.000641184 -7.71829e-06
-0.000641184 0.000566072 1.18445e-05
-7.71829e-06 1.18445e-05 0.000172293
0.00306384 -0.000961323 1.64752e-05
-0.000961323 0.00139771 -1.73272e-05
1.64752e-05 -1.73272e-05 0.000975563
-0.00115325 -0.000221102 9.28361e-06
-0.000221102 -0.000476631 7.86897e-06
9.28361e-06 7.86897e-06 -0.00076693
0.00121469 -0.00069163 3.20204e-06
-0.00069163 0.000326737 -3.36678e-06
3.20204e-06 -3.36678e-06 -6.25534e-05
0.00325215 -0.00107392 7.78681e-06
-0.00107392 0.00103885 -4.18733e-06
7.78681e-06 -4.18733e-06 0.000609296
0.00423473 -0.00101907 -2.84812e-05
-0.00101907 0.00199716 1.17437e-06
-2.84812e-05 1.17437e-06 0.00135172
0.00146317 -0.000802883 -1.60847e-06
-0.000802883 0.000263835 -1.40947e-06
-1.60847e-06 -1.40947e-06 -0.000361974
0.00212635 -0.00100704 3.52997e-08
-0.00100704 0.000371028 -1.13334e-05
3.52997e-08 -1.13334e-05 -0.000130386
0.00286579 -0.000942076 4.92793e-06
-0.000942076 0.00106691 6.90061e-06
4.92793e-06 6.90061e-06 0.000444794
0.00227198 -0.000940035 1.77738e-06
-0.000940035 0.000619796 -4.30595e-06
1.77738e-06 -4.30595e-06 4.44218e-05
0.00259141 -0.000838755 -2.82059e-06
-0.000838755 0.000566808 -9.42215e-06
-2.82059e-06 -9.42215e-06 0.00016152
0.00179416 -0.000537927 -4.2267e-06
-0.000537927 -1.78707e-07 -2.29474e-06
-4.2267e-06 -2.29474e-06 -0.00025233
0.00193404 -0.000778107 -8.05581e-07
-0.000778107 0.000184411 -1.59876e-06
-8.05581e-07 -1.59876e-06 -0.000220372
0.00221184 -0.000786962 3.16366e-06
-0.000786962 0.00038796 -2.70687e-06
3.16366e-06 -2.70687e-06 -1.84302e-05
0.0023746 -0.000837324 -4.92108e-06
-0.000837324 0.000700699 -5.59311e-07
-4.92108e-06 -5.59311e-07 0.000247045
0.00250108 -0.000944486 -3.21996e-06
-0.000944486 0.000721266 -1.5332e-08
-3.21996e-06 -1.5332e-08 0.000212196
0.00258565 -0.000968045 9.33267e-06
-0.000968045 0.000771396 -5.25276e-06
9.33267e-06 -5.25276e-06 0.000226172
0.00190383 -0.000638343 7.07739e-06
-0.000638343 0.000647568 -1.86673e-07
7.07739e-06 -1.86673e-07 0.000239138
0.00150129 -0.000685742 2.39919e-06
-0.000685742 0.000367112 -5.49501e-07
2.39919e-06 -5.49501e-07 -6.55332e-05
0.00131167 -0.000671862 4.02501e-06
-0.000671862 0.000228528 1.47838e-06
4.02501e-06 1.47838e-06 -0.00020797
0.00137563 -0.000352145 2.76712e-07
-0.000352145 0.000457972 4.02491e-07
2.76712e-07 4.02491e-07 0.000180884
0.0011885 -0.000428092 1.15299e-06
-0.000428092 0.000302813 -1.51135e-08
1.15299e-06 -1.51135e-08 -2.48217e-05
0.00157975 -0.000549133 -5.0007e-06
-0.000549133 0.000503949 4.4409e-07
-5.0007e-06 4.4409e-07 0.000118181
-0.000299513 -0.000113613 -2.24843e-06
-0.000113613 -0.000471758 2.23941e-06
-2.24843e-06 2.23941e-06 -0.000701825
0.000689239 -0.000239 -9.97586e-07
-0.000239 0.000151525 -8.15358e-07
-9.97586e-07 -8.15358e-07 -0.000128841
0.000900917 -0.000290818 -3.98458e-06
-0.000290818 0.000228189 3.25404e-07
-3.98458e-06 3.25404e-07 -2.7025e-05
0.00191326 1.11166e-05 -5.12837e-05
1.11166e-05 0.000904971 9.29155e-06
-5.12837e-05 9.29155e-06 0.000852843
0.000712975 -0.000123737 -2.73537e-07
-0.000123737 0.000155191 -4.42531e-07
-2.73537e-07 -4.42531e-07 -2.10762e-05
0.00129918 -0.000212832 5.77676e-07
-0.000212832 0.000588729 4.61999e-06
5.77676e-07 4.61999e-06 0.000314649
0.000760312 3.22587e-05 -5.57066e-05
3.22587e-05 0.000174183 6.33128e-06
-5.57066e-05 6.33128e-06 0.000162564
0.00116101 5.10172e-06 -1.84167e-05
5.10172e-06 0.000424224 -6.15751e-07
-1.84167e-05 -6.15751e-07 0.000376082
0.000861059 -9.66492e-05 3.89146e-06
-9.66492e-05 0.000236594 -5.98766e-06
3.89146e-06 -5.98766e-06 0.000103666
0.000592263 -1.0579e-06 3.20108e-06
-1.0579e-06 6.17919e-05 -9.96983e-06
3.20108e-06 -9.96983e-06 1.89329e-05
0.0030713 0.000124923 8.91034e-06
0.000124923 0.00164377 7.7557e-07
8.91034e-06 7.7557e-07 0.00164137
0.00282948 0.000100687 3.91699e-05
0.000100687 0.00148106 -4.77437e-06
3.91699e-05 -4.77437e-06 0.00148462
0.00093913 0.000171003 1.32898e-05
0.000171003 0.000390679 -1.38227e-06
1.32898e-05 -1.38227e-06 0.00014273
0.00150269 0.000189143 5.15098e-06
0.000189143 0.000756353 -1.63139e-06
5.15098e-06 -1.63139e-06 0.000524654
-0.000253056 3.72994e-05 1.14767e-06
3.72994e-05 -0.000350452 3.29968e-08
1.14767e-06 3.29968e-08 -0.000551856
0.000637256 5.10639e-05 3.10048e-06
5.10639e-05 0.000112338 -6.05895e-06
3.10048e-06 -6.05895e-06 1.19341e-06
0.00076244 0.000117125 5.1302e-07
0.000117125 0.000244605 2.72002e-07
5.1302e-07 2.72002e-07 7.19566e-05
0.000441028 9.71723e-06 -1.05276e-06
9.71723e-06 -3.85416e-05 -8.64943e-06
-1.05276e-06 -8.64943e-06 -7.00642e-05
0.000555781 4.79164e-05 -1.04617e-07
4.79164e-05 5.98487e-05 -4.10501e-07
-1.04617e-07 -4.10501e-07 -3.59766e-05
0.0006754 5.1503e-05 -4.95612e-06
5.1503e-05 0.000190833 2.6936e-07
-4.95612e-06 2.6936e-07 3.44118e-05
0.00257825 -6.82918e-05 -3.58743e-05
-6.82918e-05 0.00131419 -4.97861e-06
-3.58743e-05 -4.97861e-06 0.00132465
0.000438457 2.67139e-06 -2.72852e-07
2.67139e-06 -4.57796e-05 -7.42768e-08
-2.72852e-07 -7.42768e-08 -7.08695e-05
0.000533273 5.83558e-05 -1.78106e-06
5.83558e-05 4.49751e-05 2.43822e-06
-1.78106e-06 2.43822e-06 -3.92003e-05
0.00235087 -5.00387e-05 -6.26485e-06
-5.00387e-05 0.00116574 3.86608e-07
-6.26485e-06 3.86608e-07 0.00117933
0.000426119 -1.09279e-05 -5.09438e-06
-1.09279e-05 -5.65547e-05 5.03119e-06
-5.09438e-06 5.03119e-06 -7.56216e-05
0.00221219 -3.11594e-05 2.22022e-05
-3.11594e-05 0.00107595 4.80129e-06
2.22022e-05 4.80129e-06 0.0010922
0.00667037 0.000777705 0.000373793
0.000777705 0.00405857 8.57932e-05
0.000373793 8.57932e-05 0.00155442
-0.00217767 0.000210592 -4.39762e-06
0.000210592 0.000448865 -8.98066e-06
-4.39762e-06 -8.98066e-06 -0.000472776
0.000526218 0.000213955 -1.00479e-05
0.000213955 0.000725949 -1.15391e-05
-1.00479e-05 -1.15391e-05 0.00013113
-0.000528326 0.000121336 -9.36076e-06
0.000121336 -0.000683099 2.48727e-06
-9.36076e-06 2.48727e-06 -0.000854217
7.19288e-05 3.53305e-05 -6.69227e-06
3.53305e-05 -0.000197303 -2.71947e-06
-6.69227e-06 -2.71947e-06 -0.000360224
-0.000246403 5.13807e-05 -3.80261e-06
5.13807e-05 -0.000390079 -1.05376e-05
-3.80261e-06 -1.05376e-05 -0.000558332
0.00149504 7.9011e-05 2.4986e-06
7.9011e-05 0.000693142 5.51576e-07
2.4986e-06 5.51576e-07 0.000521171
0.000217742 0.000114523 -3.1975e-06
0.000114523 -0.000166472 -4.06978e-06
-3.1975e-06 -4.06978e-06 -0.000335006
0.00239391 0.000336225 -8.52997e-06
0.000336225 0.0012718 -3.62617e-06
-8.52997e-06 -3.62617e-06 0.0010549
0.00110561 0.00027202 -4.4054e-06
0.00027202 0.000400446 -1.32335e-05
-4.4054e-06 -1.32335e-05 7.3708e-05
-0.00139824 0.000125941 1.61353e-06
0.000125941 -0.000771573 4.45416e-07
1.61353e-06 4.45416e-07 -0.0011452
0.000608843 0.000132142 -7.72084e-06
0.000132142 0.000140962 -3.84708e-06
-7.72084e-06 -3.84708e-06 4.72422e-07
-9.86307e-05 5.57676e-05 -1.45228e-05
5.57676e-05 -0.000364534 -7.75628e-06
-1.45228e-05 -7.75628e-06 -0.000447554
-0.000357526 3.38386e-05 -8.86143e-07
3.38386e-05 -0.000290557 1.89099e-06
-8.86143e-07 1.89099e-06 -0.00052862
0.00105046 0.000347389 2.05478e-05
0.000347389 0.000712089 -7.62056e-07
2.05478e-05 -7.62056e-07 0.000264771
0.00432636 -0.00371394 0.000104569
-0.00371394 0.00660343 0.000248903
0.000104569 0.000248903 0.000448144
0.00677035 0.00157195 0.000163625
0.00157195 0.00341354 0.000180729
0.000163625 0.000180729 -0.00191073
0.00338303 0.000585459 -3.31797e-05
0.000585459 0.000768108 -8.23339e-05
-3.31797e-05 -8.23339e-05 -0.00114537
0.0269836 -0.00589085 -0.000843044
-0.00589085 0.00766472 -0.000408713
-0.000843044 -0.000408713 0.00458525
0.00567362 -0.00168521 0.000292965
-0.00168521 0.0040825 0.000522189
0.000292965 0.000522189 0.000277118
0.00305554 -0.00179583 -0.000267405
-0.00179583 0.00512154 0.000111225
-0.000267405 0.000111225 -0.00234916
-0.00149096 -0.000585264 0.000114555
-0.000585264 0.00112873 2.09948e-05
0.000114555 2.09948e-05 0.000117897
-0.000677886 -0.000160684 0.000121063
-0.000160684 0.00119489 5.30892e-05
0.000121063 5.30892e-05 0.000400686
0.0171088 -0.00987298 0.000494252
-0.00987298 0.00854457 0.000465783
0.000494252 0.000465783 0.00450082
0.00198824 0.00168564 -0.000109134
0.00168564 0.00444307 -9.06728e-05
-0.000109134 -9.06728e-05 -0.00228432
0.00927602 -0.00406033 -0.000136177
-0.00406033 0.00483679 0.000117698
-0.000136177 0.000117698 -0.00105737
0.000318173 0.000780562 -1.82601e-05
0.000780562 0.00117489 5.36673e-05
-1.82601e-05 5.36673e-05 0.000709759
0.0111627 0.00446147 -0.000132681
0.00446147 0.00372666 4.36558e-06
-0.000132681 4.36558e-06 -0.000150941
0.0173157 -0.00712961 -0.000883197
-0.00712961 0.00570277 -0.000504895
-0.000883197 -0.000504895 0.000804769
0.000297626 0.000566905 7.1605e-06
0.000566905 -0.000234273 -1.11615e-05
7.1605e-06 -1.11615e-05 -0.000390491
0.000499923 0.000201449 7.58433e-06
0.000201449 0.00028314 5.65374e-06
7.58433e-06 5.65374e-06 -3.17125e-06
-0.000185926 4.86504e-05 -1.50292e-05
4.86504e-05 -6.07973e-05 -3.4387e-06
-1.50292e-05 -3.4387e-06 -0.000357782
-0.00373065 -0.00033792 -0.000126188
-0.00033792 -1.83391e-05 -6.30117e-05
-0.000126188 -6.30117e-05 -0.00188001
-0.000617312 0.000235407 9.41574e-06
0.000235407 -6.79942e-05 -1.41597e-05
9.41574e-06 -1.41597e-05 -0.000609853
0.00123268 0.000242928 -5.34214e-06
0.000242928 0.00085345 1.38053e-05
-5.34214e-06 1.38053e-05 0.000556285
0.00122028 0.00071535 1.32284e-05
0.00071535 0.000640994 3.50143e-06
1.32284e-05 3.50143e-06 0.000212055
-0.000394683 0.000550733 4.07164e-05
0.000550733 0.000775611 -3.18664e-05
4.07164e-05 -3.18664e-05 -0.000494583
0.00101334 0.00147336 7.33718e-05
0.00147336 0.000176874 4.86689e-06
7.33718e-05 4.86689e-06 -0.000744561
-0.00634026 0.00119651 0.000391087
0.00119651 0.00566922 3.2978e-07
0.000391087 3.2978e-07 -0.00171538
0.00228424 -0.00022992 -1.10719e-05
-0.00022992 0.00207477 7.21734e-05
-1.10719e-05 7.21734e-05 -0.000883519
-0.00278217 -4.27317e-05 -1.58463e-05
-4.27317e-05 0.00105567 6.13407e-05
-1.58463e-05 6.13407e-05 -5.57389e-05
-0.000628083 -0.000313976 -6.27922e-05
-0.000313976 0.000733789 1.69489e-05
-6.27922e-05 1.69489e-05 -0.000481762
-0.00162548 -0.000518527 -7.42897e-05
-0.000518527 -0.000259647 5.88522e-05
-7.42897e-05 5.88522e-05 -6.27488e-05
-0.000449444 -0.000528142 -0.000205623
-0.000528142 0.000949824 0.000133471
-0.000205623 0.000133471 -0.00340607
-0.000805004 -0.00418728 0.000266919
-0.00418728 0.00206733 -0.000104888
0.000266919 -0.000104888 -0.0039863
0.0120305 0.00552707 0.000753054
0.00552707 0.00165778 -0.00046344
0.000753054 -0.00046344 -0.00267947
0.0120782 0.00406211 -0.000428127
0.00406211 0.00835193 0.00036178
-0.000428127 0.00036178 0.0033722
0.00113136 -0.000926182 -1.34576e-05
-0.000926182 0.00137981 -5.32007e-07
-1.34576e-05 -5.32007e-07 0.000497624
0.00225737 0.000693941 0.000151478
0.000693941 0.00800679 -2.84934e-05
0.000151478 -2.84934e-05 0.00344561
0.00177694 0.0045196 8.00102e-06
0.0045196 0.00105269 7.59143e-05
8.00102e-06 7.59143e-05 -0.00285715
0.0024896 -0.00288643 8.58729e-05
-0.00288643 0.000800361 -4.70672e-05
8.58729e-05 -4.70672e-05 0.00102506
0.0167298 -0.00453972 9.90248e-06
-0.00453972 0.00288746 2.15088e-06
9.90248e-06 2.15088e-06 0.000979762
0.00318922 -0.00178459 1.12899e-06
-0.00178459 0.00129811 1.8987e-05
1.12899e-06 1.8987e-05 0.000863256
-0.00776319 0.00139382 -0.000669062
0.00139382 -0.00214729 0.000109787
-0.000669062 0.000109787 -0.00526174
0.0159539 -0.00291254 -0.000231426
-0.00291254 0.0018099 6.59355e-05
-0.000231426 6.59355e-05 0.000534957
0.0039881 -0.00290052 0.000118187
-0.00290052 6.54985e-06 -7.57643e-05
0.000118187 -7.57643e-05 0.000721262
0.00067916 -0.000544976 -8.94089e-06
-0.000544976 0.000550252 1.15499e-05
-8.94089e-06 1.15499e-05 0.000104139
0.00151832 -0.000908617 2.07145e-06
-0.000908617 0.000455002 -3.73226e-06
2.07145e-06 -3.73226e-06 0.000146202
0.0048057 -0.00109757 2.23016e-05
-0.00109757 0.00192095 -1.63286e-05
2.23016e-05 -1.63286e-05 0.00153604
-0.000415203 -0.000489544 -6.42674e-06
-0.000489544 -0.000504361 9.19197e-06
-6.42674e-06 9.19197e-06 -0.000889421
0.00160279 -0.000881239 -3.06252e-06
-0.000881239 0.000195565 1.07048e-06
-3.06252e-06 1.07048e-06 -0.000229776
0.00329777 -0.00112529 2.39585e-06
-0.00112529 0.000873296 -8.27029e-06
2.39585e-06 -8.27029e-06 0.000437523
0.00147051 -0.000775799 -1.01126e-05
-0.000775799 0.000245353 1.00073e-05
-1.01126e-05 1.00073e-05 -0.000360194
0.00205194 -0.000988827 -8.76308e-07
-0.000988827 0.000339027 2.32322e-06
-8.76308e-07 2.32322e-06 -0.000166943
0.00200359 -0.000796873 -2.87307e-06
-0.000796873 7.01819e-05 -5.53398e-06
-2.87307e-06 -5.53398e-06 -0.000242828
0.00170493 -0.000872766 2.20125e-06
-0.000872766 0.000286267 4.28816e-06
2.20125e-06 4.28816e-06 -0.000265539
0.00210831 -0.000773296 -1.7186e-06
-0.000773296 0.000303968 1.60703e-06
-1.7186e-06 1.60703e-06 -8.57237e-05
0.0021129 -0.000572626 -2.4794e-06
-0.000572626 0.000115471 -3.49301e-06
-2.4794e-06 -3.49301e-06 -0.00010395
0.00192595 -0.000478459 -4.24432e-06
-0.000478459 7.04735e-05 -2.09691e-07
-4.24432e-06 -2.09691e-07 -0.000110451
0.00175454 -0.000553911 -4.77692e-06
-0.000553911 -3.32403e-06 -1.76487e-06
-4.77692e-06 -1.76487e-06 -0.000267625
0.00186498 -0.000537915 1.66938e-06
-0.000537915 4.36467e-05 2.62505e-06
1.66938e-06 2.62505e-06 -0.000205012
0.00173927 -0.000676115 -5.55386e-06
-0.000676115 0.000130819 -2.79022e-06
-5.55386e-06 -2.79022e-06 -0.000232899
0.00211606 -0.000787307 2.83559e-06
-0.000787307 0.000314251 -1.72442e-07
2.83559e-06 -1.72442e-07 -8.73578e-05
0.00221653 -0.000789242 5.83334e-06
-0.000789242 0.000384946 1.05754e-06
5.83334e-06 1.05754e-06 -2.00945e-05
0.0017816 -0.000700094 -1.51806e-06
-0.000700094 0.000383768 -1.98599e-06
-1.51806e-06 -1.98599e-06 -3.71594e-05
0.00220463 -0.000823938 2.13855e-06
-0.000823938 0.000594314 -7.00353e-07
2.13855e-06 -7.00353e-07 0.000140573
0.00239862 -0.000929796 3.14356e-06
-0.000929796 0.000671805 -2.60166e-06
3.14356e-06 -2.60166e-06 0.000160256
0.0012676 -0.000415945 -7.11186e-06
-0.000415945 0.000284835 3.46227e-06
-7.11186e-06 3.46227e-06 -2.29555e-05
0.00161065 -0.000597928 1.73036e-06
-0.000597928 0.000460615 9.90641e-07
1.73036e-06 9.90641e-07 6.50013e-05
0.00120201 -0.00063915 -3.47058e-06
-0.00063915 0.000202912 1.7122e-06
-3.47058e-06 1.7122e-06 -0.000215471
0.000478465 -0.000223192 -8.12383e-06
-0.000223192 -7.56246e-05 -1.02096e-07
-8.12383e-06 -1.02096e-07 -0.000292738
0.0010523 -0.000334961 1.08455e-06
-0.000334961 0.000244771 -8.83962e-07
1.08455e-06 -8.83962e-07 -2.75809e-05
0.000542344 -0.00034941 -8.49234e-06
-0.00034941 -7.47065e-05 1.8027e-07
-8.49234e-06 1.8027e-07 -0.000383363
0.000331341 -6.56161e-05 -1.3766e-05
-6.56161e-05 -0.000115886 1.36006e-05
-1.3766e-05 1.36006e-05 -0.000195124
0.00086269 -0.000198309 3.34048e-06
-0.000198309 0.000258375 1.42623e-06
3.34048e-06 1.42623e-06 1.85167e-05
0.000581174 -0.000263094 -3.30328e-08
-0.000263094 9.92698e-05 1.55598e-06
-3.30328e-08 1.55598e-06 -0.000187011
0.00399584 0.000244523 7.38887e-06
0.000244523 0.0022746 5.95291e-06
7.38887e-06 5.95291e-06 0.0022345
0.000435028 -3.77235e-05 3.69525e-07
-3.77235e-05 -4.1182e-05 -2.18436e-07
3.69525e-07 -2.18436e-07 -0.000106314
0.00128712 -0.00012271 1.04671e-07
-0.00012271 0.000515326 -5.91105e-06
1.04671e-07 -5.91105e-06 0.000332703
0.00344209 0.000142999 9.50563e-06
0.000142999 0.00188639 7.10442e-07
9.50563e-06 7.10442e-07 0.0018794
0.000551815 -1.49283e-05 5.5432e-06
-1.49283e-05 3.47638e-05 -1.17081e-05
5.5432e-06 -1.17081e-05 -1.84437e-05
0.00310687 0.000116878 5.73105e-05
0.000116878 0.00166456 -5.20079e-06
5.73105e-05 -5.20079e-06 0.00166422
0.002252 0.000365824 5.82575e-06
0.000365824 0.00111346 1.74527e-06
5.82575e-06 1.74527e-06 0.000858762
0.000729001 0.000179122 4.08063e-07
0.000179122 0.000265909 -4.71252e-06
4.08063e-07 -4.71252e-06 1.17083e-05
0.00143324 0.000217867 -1.31449e-07
0.000217867 0.000717168 -4.92343e-06
-1.31449e-07 -4.92343e-06 0.000450003
0.000763795 8.01475e-05 2.31514e-06
8.01475e-05 0.000192237 -6.40689e-06
2.31514e-06 -6.40689e-06 5.80755e-05
0.000807139 0.000108843 5.49687e-07
0.000108843 0.00030552 1.45575e-06
5.49687e-07 1.45575e-06 8.78574e-05
0.000231069 0.000116616 -2.49214e-06
0.000116616 -4.57223e-06 3.09854e-06
-2.49214e-06 3.09854e-06 -0.000240337
0.000529857 3.29875e-09 -1.58497e-06
3.29875e-09 2.54243e-05 -1.07973e-05
-1.58497e-06 -1.07973e-05 -1.51748e-05
0.000561055 4.51723e-05 -2.25189e-07
4.51723e-05 6.78921e-05 -2.89819e-07
-2.25189e-07 -2.89819e-07 -4.37809e-05
0.000211961 8.66035e-05 -5.50184e-06
8.66035e-05 -0.000125582 1.76861e-06
-5.50184e-06 1.76861e-06 -0.000278001
0.00270187 -8.49445e-05 -4.44272e-05
-8.49445e-05 0.00139818 -5.01027e-06
-4.44272e-05 -5.01027e-06 0.00140581
0.000405908 -2.24126e-05 2.87831e-06
-2.24126e-05 -5.79575e-05 -2.22334e-07
2.87831e-06 -2.22334e-07 -9.02812e-05
0.000478656 4.59679e-05 -3.35549e-06
4.59679e-05 1.59411e-05 3.88336e-06
-3.35549e-06 3.88336e-06 -8.05194e-05
0.00252036 -6.81838e-05 -6.87044e-06
-6.81838e-05 0.00127728 5.16461e-07
-6.87044e-06 5.16461e-07 0.00128766
0.00042789 5.29976e-08 -2.51937e-06
5.29976e-08 -5.24924e-05 6.33701e-06
-2.51937e-06 6.33701e-06 -7.70669e-05
0.00230916 -4.91948e-05 2.40766e-05
-4.91948e-05 0.00113917 4.8174e-06
2.40766e-05 4.8174e-06 0.00115304
-0.00941421 0.00111518 -0.000142054
0.00111518 0.0042204 7.99743e-05
-0.000142054 7.99743e-05 -0.0026408
0.00627479 0.000584406 1.14124e-05
0.000584406 0.003793 -1.16793e-06
1.14124e-05 -1.16793e-06 0.00140749
-0.00171721 0.000130317 6.45695e-05
0.000130317 0.000475528 3.22877e-05
6.45695e-05 3.22877e-05 -0.000712921
0.000150136 0.000154825 9.32104e-08
0.000154825 -0.000216314 3.7114e-06
9.32104e-08 3.7114e-06 -0.000428073
0.00327953 0.000714412 1.74467e-05
0.000714412 0.00167111 1.19432e-05
1.74467e-05 1.19432e-05 0.0012856
0.000592936 0.000184734 -8.60445e-06
0.000184734 0.000190045 3.2351e-06
-8.60445e-06 3.2351e-06 -0.000153363
0.000385423 6.69979e-05 -8.03944e-06
6.69979e-05 1.14245e-05 -2.15134e-05
-8.03944e-06 -2.15134e-05 -0.000168958
0.00301813 0.000336431 3.47826e-06
0.000336431 0.00154625 -1.48052e-06
3.47826e-06 -1.48052e-06 0.0013546
-0.00105875 1.55818e-05 -1.43538e-05
1.55818e-05 -0.000847922 1.07e-05
-1.43538e-05 1.07e-05 -0.00100529
-7.48059e-05 0.00013999 -1.04532e-06
0.00013999 -8.87616e-05 7.51693e-06
-1.04532e-06 7.51693e-06 -0.000392836
0.000507222 0.000161603 -3.43687e-06
0.000161603 0.000103011 -5.81939e-06
-3.43687e-06 -5.81939e-06 -0.000226734
0.00161466 0.000583828 8.64016e-06
0.000583828 0.00079507 -2.36435e-05
8.64016e-06 -2.36435e-05 0.00031411
-0.000280946 0.000492178 -1.72914e-05
0.000492178 -0.000487412 5.43722e-05
-1.72914e-05 5.43722e-05 -0.000646463
0.00151421 6.2646e-05 -1.71089e-05
6.2646e-05 0.000808682 1.77481e-05
-1.71089e-05 1.77481e-05 0.000596705
0.00159819 0.000322126 6.68697e-06
0.000322126 0.00103663 -9.96423e-06
6.68697e-06 -9.96423e-06 0.000636053
0.0012423 -0.0027241 -0.00179251
-0.0027241 0.00200667 -0.000277924
-0.00179251 -0.000277924 -0.00230636
-0.00162818 -0.00285697 0.000598981
-0.00285697 0.0066979 0.000201825
0.000598981 0.000201825 0.000517092
0.00754025 0.00199317 -0.000641217
0.00199317 0.00315942 -0.000219684
-0.000641217 -0.000219684 -0.00260964
0.00737677 -0.0105385 0.00263951
-0.0105385 0.00662774 0.00159035
0.00263951 0.00159035 0.00200342
0.0279432 -0.00413477 5.67702e-05
-0.00413477 0.00969183 0.00039871
5.67702e-05 0.00039871 0.00555617
-0.00353459 0.00143572 -2.26742e-05
0.00143572 0.00250114 -0.000194468
-2.26742e-05 -0.000194468 -0.00342419
-0.00262503 0.000141173 -0.00035389
0.000141173 0.0010449 -6.19866e-05
-0.00035389 -6.19866e-05 -0.000718533
0.000803186 0.000794865 7.84491e-05
0.000794865 0.00167922 5.56881e-05
7.84491e-05 5.56881e-05 0.00128334
0.0207153 -0.00545454 -0.000722624
-0.00545454 0.0086456 1.17478e-05
-0.000722624 1.17478e-05 0.00384532
-0.00242064 0.00343286 -0.000132991
0.00343286 0.000401814 -4.88086e-05
-0.000132991 -4.88086e-05 -0.00441463
0.00333618 0.00243349 2.28378e-05
0.00243349 0.00105801 -7.66909e-05
2.28378e-05 -7.66909e-05 0.0017826
0.00376915 0.00543815 -0.000470623
0.00543815 -0.00196498 -0.000114166
-0.000470623 -0.000114166 -0.00448814
0.00326147 0.00124506 2.48519e-05
0.00124506 0.00124314 -9.26987e-06
2.48519e-05 -9.26987e-06 0.000865705
0.00103387 0.000609885 -4.55629e-06
0.000609885 0.000279447 -2.63522e-06
-4.55629e-06 -2.63522e-06 0.000118313
-0.000213475 0.000177703 -1.36002e-05
0.000177703 -0.000150977 1.16663e-05
-1.36002e-05 1.16663e-05 -0.000433947
-0.00164976 0.000397751 -9.36905e-05
0.000397751 0.000180331 -7.10621e-05
-9.36905e-05 -7.10621e-05 -0.000911529
0.00196781 0.000823306 -4.29271e-05
0.000823306 0.000977886 -2.28666e-05
-4.29271e-05 -2.28666e-05 0.000543374
0.00209848 0.00162456 1.13022e-05
0.00162456 0.000609257 -8.7425e-06
1.13022e-05 -8.7425e-06 -0.000299705
-0.00104478 0.00168461 0.000102162
0.00168461 -0.00184996 5.21641e-05
0.000102162 5.21641e-05 -0.00222634
-0.00649847 -0.000538952 -0.000671926
-0.000538952 -0.00406715 5.36649e-05
-0.000671926 5.36649e-05 -0.00435483
-0.00912336 0.000514864 0.000444887
0.000514864 0.00599065 1.82889e-05
0.000444887 1.82889e-05 -0.000685463
0.00289537 -6.65725e-05 -0.000138041
-6.65725e-05 0.00210485 3.37696e-05
-0.000138041 3.37696e-05 0.000219108
0.00205526 -0.00108213 -6.2416e-05
-0.00108213 0.00142139 -4.5786e-05
-6.2416e-05 -4.5786e-05 0.000573135
-0.000811085 -0.00212208 7.89206e-05
-0.00212208 -0.000602325 4.36497e-05
7.89206e-05 4.36497e-05 -0.0003507
0.000774554 0.000798065 9.82341e-05
0.000798065 0.00769019 5.35474e-05
9.82341e-05 5.35474e-05 0.0029327
0.00298777 -0.0038799 0.000525749
-0.0038799 -0.00179053 -0.000104665
0.000525749 -0.000104665 -0.00369857
0.0242253 0.00388273 0.000995689
0.00388273 0.0106869 -9.68594e-05
0.000995689 -9.68594e-05 0.00713243
0.00165401 -0.00187713 -2.04555e-05
-0.00187713 0.000388687 3.93462e-06
-2.04555e-05 3.93462e-06 -0.000310434
0.00269493 0.00171101 0.000300617
0.00171101 0.00109533 -9.23765e-05
0.000300617 -9.23765e-05 -0.00151613
0.00757486 -0.00256389 -0.000188488
-0.00256389 -0.0029018 0.000156535
-0.000188488 0.000156535 -0.00494391
0.00328752 -0.00284136 -8.88296e-06
-0.00284136 -0.0007279 2.56567e-05
-8.88296e-06 2.56567e-05 0.000351896
0.00258049 -0.00156075 7.46538e-05
-0.00156075 0.000224516 -2.07385e-05
7.46538e-05 -2.07385e-05 1.84636e-05
0.0180452 -0.000944467 -9.27962e-05
-0.000944467 0.00349352 5.83007e-05
-9.27962e-05 5.83007e-05 0.00239216
0.00272425 -0.00198899 0.000136177
-0.00198899 -0.00333467 -8.69606e-05
0.000136177 -8.69606e-05 -0.00160316
-0.000721821 -0.000735177 -2.52249e-05
-0.000735177 -0.000847498 3.56125e-05
-2.52249e-05 3.56125e-05 -0.000998561
0.000252925 -0.000649277 -4.05205e-05
-0.000649277 -0.000565511 4.22683e-06
-4.05205e-05 4.22683e-06 -0.000731813
0.00625074 -0.00123072 6.1552e-05
-0.00123072 0.00234752 -2.56445e-05
6.1552e-05 -2.56445e-05 0.00209878
0.000165628 -0.000698802 -9.45535e-06
-0.000698802 -0.000520472 4.13648e-06
-9.45535e-06 4.13648e-06 -0.000937986
0.00221081 -0.000987825 -3.09976e-06
-0.000987825 0.000314618 -3.35902e-06
-3.09976e-06 -3.35902e-06 -8.69726e-05
0.0028637 -0.00089087 -1.28876e-07
-0.00089087 0.000355907 -5.03882e-06
-1.28876e-07 -5.03882e-06 0.00013882
0.0020858 -0.000983834 5.73112e-06
-0.000983834 0.000363756 1.02789e-05
5.73112e-06 1.02789e-05 -0.000147811
0.00226042 -0.000814513 -1.60412e-06
-0.000814513 0.000218579 2.67004e-07
-1.60412e-06 2.67004e-07 -9.4886e-05
0.00218088 -0.000595626 -7.02178e-07
-0.000595626 1.73588e-05 -8.24795e-07
-7.02178e-07 -8.24795e-07 -0.000105664
0.00166759 -0.000713493 7.75318e-06
-0.000713493 6.17968e-05 7.17997e-06
7.75318e-06 7.17997e-06 -0.00031361
0.00204707 -0.000559947 -3.71784e-07
-0.000559947 7.63285e-05 2.52794e-06
-3.71784e-07 2.52794e-06 -0.000135159
0.0021283 -0.0005361 -2.88218e-06
-0.0005361 8.62332e-05 1.96598e-06
-2.88218e-06 1.96598e-06 -5.33854e-05
0.00208241 -0.000505747 -4.23843e-06
-0.000505747 0.000154158 1.40376e-06
-4.23843e-06 1.40376e-06 -5.71238e-06
0.00205721 -0.000489136 -3.07164e-06
-0.000489136 0.000143852 3.148e-06
-3.07164e-06 3.148e-06 -3.36046e-05
0.00212151 -0.000496425 -2.35122e-06
-0.000496425 0.000238364 -3.23657e-06
-2.35122e-06 -3.23657e-06 4.46277e-05
0.00207425 -0.000587708 -6.48447e-06
-0.000587708 0.000220099 -2.65677e-06
-6.48447e-06 -2.65677e-06 -5.43367e-05
0.0019937 -0.000571582 1.63054e-06
-0.000571582 0.000150956 9.62304e-07
1.63054e-06 9.62304e-07 -0.000114092
0.00194627 -0.000539794 5.47684e-06
-0.000539794 9.01187e-05 7.1734e-06
5.47684e-06 7.1734e-06 -0.000155385
0.0019866 -0.000674049 -7.48131e-06
-0.000674049 0.000343795 -2.72666e-06
-7.48131e-06 -2.72666e-06 -2.5067e-05
0.00174416 -0.000684815 -5.79672e-07
-0.000684815 0.000119548 1.40901e-07
-5.79672e-07 1.40901e-07 -0.000248069
0.00227412 -0.000795497 8.09373e-06
-0.000795497 0.000427842 1.43164e-06
8.09373e-06 1.43164e-06 2.94204e-05
0.0014369 -0.000521035 -1.168e-05
-0.000521035 0.000262176 3.22903e-06
-1.168e-05 3.22903e-06 -9.11019e-05
0.00188705 -0.000711923 -5.54078e-07
-0.000711923 0.00044854 8.11767e-07
-5.54078e-07 8.11767e-07 2.55263e-05
0.00208649 -0.000818321 4.457e-06
-0.000818321 0.000517447 5.62543e-07
4.457e-06 5.62543e-07 6.19479e-05
0.000646123 -0.000222785 -7.93739e-06
-0.000222785 -5.62537e-06 5.46649e-06
-7.93739e-06 5.46649e-06 -0.000224688
0.00127103 -0.000423788 1.43287e-06
-0.000423788 0.000277519 2.83525e-07
1.43287e-06 2.83525e-07 -3.41705e-05
0.00121686 -0.000549521 -2.20913e-06
-0.000549521 0.000205673 2.01777e-06
-2.20913e-06 2.01777e-06 -0.000176207
0.00049437 -0.000141811 -2.47062e-05
-0.000141811 -4.64403e-05 1.50857e-05
-2.47062e-05 1.50857e-05 -0.000146695
0.00061124 -0.000223241 -2.63453e-06
-0.000223241 3.61276e-05 8.88956e-07
-2.63453e-06 8.88956e-07 -0.000201198
0.000603196 -0.000336677 1.67586e-06
-0.000336677 -4.16391e-05 -1.02153e-06
1.67586e-06 -1.02153e-06 -0.000320422
0.00445868 0.000217054 -9.16659e-05
0.000217054 0.002568 8.25386e-06
-9.16659e-05 8.25386e-06 0.00253862
0.000557802 -8.39022e-05 1.82749e-06
-8.39022e-05 2.13374e-05 -2.23344e-07
1.82749e-06 -2.23344e-07 -6.41301e-05
0.00164513 -0.000283581 6.98802e-06
-0.000283581 0.00074255 -3.0053e-06
6.98802e-06 -3.0053e-06 0.000497228
0.00260351 0.000135202 5.59517e-05
0.000135202 0.00136972 1.41772e-06
5.59517e-05 1.41772e-06 0.00134382
0.000621859 -4.49822e-05 1.19522e-05
-4.49822e-05 7.03816e-05 -1.35556e-05
1.19522e-05 -1.35556e-05 1.87047e-06
0.00367261 0.000132881 8.7373e-05
0.000132881 0.00203229 -5.70414e-06
8.7373e-05 -5.70414e-06 0.00202784
0.00185104 0.000371479 3.17865e-06
0.000371479 0.000738446 -4.32883e-06
3.17865e-06 -4.32883e-06 0.000503968
0.000443485 0.000162007 -4.54497e-06
0.000162007 -5.62866e-05 -5.39609e-08
-4.54497e-06 -5.39609e-08 -0.000259366
0.000480901 0.000179009 1.04654e-06
0.000179009 6.97626e-05 -7.87198e-06
1.04654e-06 -7.87198e-06 -0.00018039
0.000321044 0.000142553 -2.42624e-06
0.000142553 -1.36253e-05 1.04447e-05
-2.42624e-06 1.04447e-05 -0.000242985
0.00064783 0.000109889 5.74999e-07
0.000109889 0.000202224 1.74189e-07
5.74999e-07 1.74189e-07 -4.15976e-05
0.00109717 0.000126555 -2.65566e-07
0.000126555 0.000393404 -9.41999e-06
-2.65566e-07 -9.41999e-06 0.000232043
0.000582912 3.84801e-05 -5.76657e-06
3.84801e-05 5.85417e-05 -1.32175e-05
-5.76657e-06 -1.32175e-05 7.31452e-06
0.000703027 7.27675e-05 4.74022e-07
7.27675e-05 0.000159291 -1.19682e-07
4.74022e-07 -1.19682e-07 2.50232e-05
-0.000404041 2.51749e-05 -6.2672e-06
2.51749e-05 -0.000484574 6.33788e-07
-6.2672e-06 6.33788e-07 -0.00067639
0.00296299 -9.92958e-05 -6.26234e-05
-9.92958e-05 0.001572 -5.58522e-06
-6.26234e-05 -5.58522e-06 0.00157668
0.000398412 1.8129e-05 1.05051e-06
1.8129e-05 -5.59075e-05 -3.3234e-07
1.05051e-06 -3.3234e-07 -9.61607e-05
0.000590795 5.39199e-05 -3.61428e-06
5.39199e-05 9.21234e-05 6.33667e-06
-3.61428e-06 6.33667e-06 -2.21134e-05
0.00273608 -8.75178e-05 -7.65846e-06
-8.75178e-05 0.00142059 6.46932e-07
-7.65846e-06 6.46932e-07 0.00142724
0.000368275 -1.3034e-05 -8.45772e-07
-1.3034e-05 -8.02142e-05 7.8872e-06
-8.45772e-07 7.8872e-06 -0.000112325
0.00252407 -6.83647e-05 3.00784e-05
-6.83647e-05 0.0012794 5.0168e-06
3.00784e-05 5.0168e-06 0.00128959
0.00163766 -1.75375e-07 -0.000982897
-1.75375e-07 0.00406723 -6.85475e-05
-0.000982897 -6.85475e-05 0.00183028
-0.00579999 0.000123765 3.19388e-05
0.000123765 0.00531223 -9.0089e-06
3.19388e-05 -9.0089e-06 -0.0018199
0.00601806 0.000281281 -0.000294743
0.000281281 0.0036387 -7.96527e-05
-0.000294743 -7.96527e-05 0.00142135
-0.000372916 5.59602e-05 3.98887e-06
5.59602e-05 -0.000534584 -6.6547e-06
3.98887e-06 -6.6547e-06 -0.000748396
0.000420787 0.000110819 6.80388e-06
0.000110819 1.70176e-05 7.23864e-06
6.80388e-06 7.23864e-06 -0.000302333
0.00293829 0.00064923 -3.41984e-06
0.00064923 0.00149384 3.75873e-06
-3.41984e-06 3.75873e-06 0.00111625
0.0023064 0.000752649 1.83759e-05
0.000752649 0.000961003 8.64604e-06
1.83759e-05 8.64604e-06 0.000476014
0.000787854 0.000478533 1.11769e-05
0.000478533 0.000318862 6.59228e-06
1.11769e-05 6.59228e-06 -0.000103336
0.00145596 0.000218853 -8.81976e-06
0.000218853 0.000830582 7.21798e-06
-8.81976e-06 7.21798e-06 0.000527244
0.00154259 0.000228067 1.0114e-05
0.000228067 0.000772907 9.9558e-06
1.0114e-05 9.9558e-06 0.000463418
0.000750634 0.000500327 -4.39825e-06
0.000500327 0.000333459 -4.84633e-07
-4.39825e-06 -4.84633e-07 -0.000143807
0.000128311 0.000669744 1.88742e-05
0.000669744 -0.000440898 -9.76595e-06
1.88742e-05 -9.76595e-06 -0.000805824
0.00264242 0.00090576 -8.30137e-06
0.00090576 0.00100817 2.66207e-05
-8.30137e-06 2.66207e-05 0.000745563
0.00155892 0.000949107 3.24116e-05
0.000949107 0.000108239 1.20488e-05
3.24116e-05 1.20488e-05 -4.63358e-05
0.00147148 0.000693973 -5.77728e-06
0.000693973 0.000553146 -2.92676e-06
-5.77728e-06 -2.92676e-06 0.000303032
0.00206509 0.000436581 -7.49415e-06
0.000436581 0.00119176 3.40415e-05
-7.49415e-06 3.40415e-05 0.000812022
0.0139382 0.00286266 -0.000134194
0.00286266 0.0015362 6.06116e-05
-0.000134194 6.06116e-05 0.000400602
0.00355231 -0.0023283 -0.000629864
-0.0023283 0.00413194 -0.000220894
-0.000629864 -0.000220894 0.000738465
0.000538839 -0.00414867 0.000912767
-0.00414867 0.00740012 0.000230818
0.000912767 0.000230818 0.00111907
0.0100594 -0.0032328 0.000353937
-0.0032328 0.00414225 0.000323634
0.000353937 0.000323634 -0.000189427
0.0141104 0.00545674 -0.000110778
0.00545674 0.00463296 -5.41935e-05
-0.000110778 -5.41935e-05 0.000568893
-0.00302512 0.000299877 -5.03941e-05
0.000299877 0.000127256 -4.41321e-05
-5.03941e-05 -4.41321e-05 -0.000363649
0.0020712 0.00209729 -6.727e-05
0.00209729 0.00051343 -2.56485e-05
-6.727e-05 -2.56485e-05 0.00136898
0.0168475 0.00526244 1.91634e-05
0.00526244 0.00327839 3.89903e-05
1.91634e-05 3.89903e-05 0.000778655
0.00674658 0.00398332 -0.000103493
0.00398332 -0.000269783 -0.000115693
-0.000103493 -0.000115693 0.000333286
0.00179144 0.00130465 5.8938e-06
0.00130465 0.000198641 3.37209e-06
5.8938e-06 3.37209e-06 -9.17064e-05
0.00163168 0.000990932 1.15073e-05
0.000990932 0.000473904 -4.32377e-06
1.15073e-05 -4.32377e-06 0.000154
0.00184735 0.000635465 -3.10577e-05
0.000635465 0.000855742 5.27035e-06
-3.10577e-05 5.27035e-06 0.000682124
0.00251209 0.00176597 -7.4174e-05
0.00176597 0.000664439 -2.72973e-05
-7.4174e-05 -2.72973e-05 -0.000224938
0.00147248 0.00198318 8.29819e-05
0.00198318 -0.000777094 4.37052e-05
8.29819e-05 4.37052e-05 -0.00126027
0.0028923 -0.000288667 -0.000136747
-0.000288667 -0.00522523 5.43466e-05
-0.000136747 5.43466e-05 -0.00547644
0.000568675 -0.0018756 1.27375e-05
-0.0018756 0.00249818 1.63748e-05
1.27375e-05 1.63748e-05 0.00124472
-0.0123896 -0.000324401 0.000353821
-0.000324401 0.00658249 -2.3145e-05
0.000353821 -2.3145e-05 0.000731574
0.000901799 -0.00211889 -6.54269e-05
-0.00211889 -0.000300588 2.9084e-05
-6.54269e-05 2.9084e-05 -0.00121991
0.00616532 -0.00357058 2.97327e-05
-0.00357058 0.000322519 4.843e-05
2.97327e-05 4.843e-05 0.000902119
0.0029599 0.000111137 0.00105821
0.000111137 0.00421503 -0.000251766
0.00105821 -0.000251766 0.00217204
0.014469 -0.00275126 -0.00031791
-0.00275126 0.00153541 0.000173146
-0.00031791 0.000173146 0.000795606
0.00174504 -0.0015402 -3.07178e-05
-0.0015402 -0.000154957 2.49862e-06
-3.07178e-05 2.49862e-06 -0.000486157
0.0117064 -0.000148832 -0.000210252
-0.000148832 -0.00137206 7.57354e-05
-0.000210252 7.57354e-05 -0.00210585
0.00726794 -0.00230689 9.8224e-05
-0.00230689 -0.000520531 1.07824e-05
9.8224e-05 1.07824e-05 0.000495999
0.00364579 -0.00131793 6.54601e-05
-0.00131793 0.000274063 -4.44357e-05
6.54601e-05 -4.44357e-05 0.000115996
0.00242108 -0.000865726 7.526e-06
-0.000865726 -0.00236438 3.26236e-06
7.526e-06 3.26236e-06 -0.00098243
-0.00475241 -0.000168419 1.15756e-05
-0.000168419 -0.00328582 1.54173e-05
1.15756e-05 1.54173e-05 -0.00327389
0.00143349 -0.000785905 -1.9812e-05
-0.000785905 -0.00031431 2.37497e-06
-1.9812e-05 2.37497e-06 -0.00032764
0.00379521 -0.000834168 3.86028e-05
-0.000834168 0.000735898 -1.47302e-05
3.86028e-05 -1.47302e-05 0.00078769
0.00110346 -0.000855927 -9.71429e-06
-0.000855927 -0.000259488 7.47372e-06
-9.71429e-06 7.47372e-06 -0.000629152
0.00224099 -0.000831452 -3.86785e-06
-0.000831452 2.43938e-05 3.27007e-06
-3.86785e-06 3.27007e-06 -0.000185787
0.00247786 -0.00067471 5.39895e-06
-0.00067471 -1.02667e-05 -9.95621e-07
5.39895e-06 -9.95621e-07 -3.53022e-05
0.00222481 -0.000796833 -3.41288e-06
-0.000796833 0.00021282 9.42988e-06
-3.41288e-06 9.42988e-06 -9.31226e-05
0.00217877 -0.000593617 4.7612e-07
-0.000593617 1.51611e-05 1.42585e-06
4.7612e-07 1.42585e-06 -0.000104696
0.00232305 -0.000589626 -6.29429e-07
-0.000589626 7.69699e-05 6.00197e-07
-6.29429e-07 6.00197e-07 1.73534e-05
0.00194008 -0.000542299 5.34347e-06
-0.000542299 1.50716e-05 6.01541e-06
5.34347e-06 6.01541e-06 -0.000187142
0.0021003 -0.000533727 3.53816e-08
-0.000533727 6.81915e-05 1.29644e-06
3.53816e-08 1.29644e-06 -6.88306e-05
0.00225357 -0.000571547 -2.34448e-06
-0.000571547 0.000138606 1.80113e-06
-2.34448e-06 1.80113e-06 1.35834e-05
0.00209267 -0.000513564 -4.50774e-06
-0.000513564 0.000151485 2.23126e-06
-4.50774e-06 2.23126e-06 -5.94405e-06
0.0022129 -0.000509191 -1.42132e-06
-0.000509191 0.00027671 -5.47495e-07
-1.42132e-06 -5.47495e-07 0.000106881
0.00216955 -0.000498846 2.60397e-06
-0.000498846 0.000207295 4.89421e-06
2.60397e-06 4.89421e-06 3.3538e-05
0.00210632 -0.000495446 6.84684e-07
-0.000495446 0.00022781 -6.08378e-07
6.84684e-07 -6.08378e-07 3.43333e-05
0.00201684 -0.000513089 -3.13886e-06
-0.000513089 0.000176817 -2.33581e-06
-3.13886e-06 -2.33581e-06 -3.72705e-05
0.00210747 -0.000571905 -4.04077e-06
-0.000571905 0.000315095 -4.20763e-06
-4.04077e-06 -4.20763e-06 2.87309e-05
0.00213929 -0.000595971 -5.00404e-07
-0.000595971 0.0002634 5.39076e-08
-5.00404e-07 5.39076e-08 -1.39443e-05
0.00222769 -0.000588339 7.82088e-06
-0.000588339 0.000303694 4.08239e-06
7.82088e-06 4.08239e-06 3.81107e-05
0.00167127 -0.000561295 -1.09846e-05
-0.000561295 0.000254566 2.35237e-06
-1.09846e-05 2.35237e-06 -9.63377e-05
0.00190958 -0.000664791 -1.86644e-06
-0.000664791 0.000296709 -3.09166e-07
-1.86644e-06 -3.09166e-07 -7.26567e-05
0.00176278 -0.000694272 5.99746e-06
-0.000694272 0.000116139 2.21043e-06
5.99746e-06 2.21043e-06 -0.000255466
0.000838892 -0.00027081 -1.14295e-05
-0.00027081 4.07095e-05 8.0578e-06
-1.14295e-05 8.0578e-06 -0.000194119
0.00141759 -0.000519469 5.41085e-07
-0.000519469 0.000254755 3.05927e-07
5.41085e-07 3.05927e-07 -9.77983e-05
0.00198766 -0.000721687 3.32668e-06
-0.000721687 0.000512723 2.29709e-06
3.32668e-06 2.29709e-06 8.8405e-05
0.000292719 -0.000189394 -2.1675e-05
-0.000189394 -0.000179643 1.90936e-05
-2.1675e-05 1.90936e-05 -0.000305396
0.000620582 -0.000228275 -4.90742e-07
-0.000228275 -1.63661e-05 2.68652e-07
-4.90742e-07 2.68652e-07 -0.000241782
0.00105509 -0.000399903 8.12331e-06
-0.000399903 0.000134077 -1.59806e-06
8.12331e-06 -1.59806e-06 -0.000172436
0.00530085 0.000161616 -0.000154545
0.000161616 0.00308216 1.01918e-05
-0.000154545 1.01918e-05 0.00306728
0.000501388 -0.000162651 -3.79274e-06
-0.000162651 -3.95528e-05 -8.56218e-07
-3.79274e-06 -8.56218e-07 -0.000145734
0.00122083 -0.000276227 5.83538e-06
-0.000276227 0.000435731 -3.00415e-06
5.83538e-06 -3.00415e-06 0.000180393
0.00469575 0.000178669 2.17425e-05
0.000178669 0.00271059 4.33652e-07
2.17425e-05 4.33652e-07 0.00269119
0.000663602 -0.000109595 2.19494e-05
-0.000109595 8.43173e-05 -1.45759e-05
2.19494e-05 -1.45759e-05 -5.98941e-06
0.0041714 0.000140848 0.000119224
0.000140848 0.00235815 -8.09573e-06
0.000119224 -8.09573e-06 0.00235137
0.00231616 0.000645906 6.64892e-06
0.000645906 0.000984824 -3.6493e-07
6.64892e-06 -3.6493e-07 0.000574296
0.000717266 0.000280672 -1.56387e-06
0.000280672 4.32267e-05 -3.0803e-06
-1.56387e-06 -3.0803e-06 -0.000183008
0.000329304 0.000171516 4.72943e-06
0.000171516 -0.000149567 2.49684e-06
4.72943e-06 2.49684e-06 -0.000360632
-0.000754013 4.98229e-05 -2.51491e-06
4.98229e-05 -0.000790657 1.47984e-06
-2.51491e-06 1.47984e-06 -0.000993714
0.000342195 0.000132725 1.61314e-07
0.000132725 -5.12603e-05 2.1503e-06
1.61314e-07 2.1503e-06 -0.000279923
0.00101053 0.00011879 -1.20035e-07
0.00011879 0.000347066 -1.20585e-05
-1.20035e-07 -1.20585e-05 0.000148909
0.000206782 6.64275e-05 -3.52517e-06
6.64275e-05 -9.00275e-05 2.83815e-06
-3.52517e-06 2.83815e-06 -0.000320449
0.000583992 9.31937e-05 -1.19025e-07
9.31937e-05 8.72013e-05 6.11233e-07
-1.19025e-07 6.11233e-07 -7.63412e-05
0.000525889 4.91104e-05 -8.8859e-06
4.91104e-05 2.07554e-05 -1.60076e-05
-8.8859e-06 -1.60076e-05 -4.43306e-05
0.00332867 -0.00010722 -9.10834e-05
-0.00010722 0.00181403 -7.43395e-06
-9.10834e-05 -7.43395e-06 0.00181637
0.000401878 1.66851e-05 1.35338e-06
1.66851e-05 -4.94219e-05 -4.52095e-07
1.35338e-06 -4.52095e-07 -0.000101533
0.000383353 5.84014e-05 -3.44262e-06
5.84014e-05 -3.74601e-05 7.51326e-06
-3.44262e-06 7.51326e-06 -0.000168494
0.00288294 -0.000106648 -8.69344e-06
-0.000106648 0.00152202 8.21464e-07
-8.69344e-06 8.21464e-07 0.00152432
0.000283722 -5.37511e-05 -7.39388e-06
-5.37511e-05 -0.000119724 1.02864e-05
-7.39388e-06 1.02864e-05 -0.000163867
0.00267779 -8.73021e-05 3.7353e-05
-8.73021e-05 0.00138353 5.08221e-06
3.7353e-05 5.08221e-06 0.00138989
0.0153183 0.000652122 0.000528979
0.000652122 0.0017745 0.00012925
0.000528979 0.00012925 0.0016183
-0.00070231 -0.00324572 -0.000589112
-0.00324572 -0.00227865 -8.98211e-05
-0.000589112 -8.98211e-05 -0.00489729
-0.00949783 0.00160554 -0.000229911
0.00160554 0.0048227 -0.00012954
-0.000229911 -0.00012954 -0.00251507
5.96775e-05 5.20414e-05 1.53371e-05
5.20414e-05 -0.000201803 -9.60929e-06
1.53371e-05 -9.60929e-06 -0.000535356
0.00161829 0.0004859 -8.45531e-06
0.0004859 0.000698897 -7.45037e-07
-8.45531e-06 -7.45037e-07 0.000352212
0.00265259 0.000679332 -1.09013e-05
0.000679332 0.00140109 -2.69512e-06
-1.09013e-05 -2.69512e-06 0.000931169
0.00141956 0.000637972 1.05573e-06
0.000637972 0.000425389 -9.21535e-07
1.05573e-06 -9.21535e-07 -2.92532e-05
0.00151766 0.000701356 1.17041e-05
0.000701356 0.000280905 1.90598e-05
1.17041e-05 1.90598e-05 -0.000153253
-0.000548277 0.000498923 3.49013e-05
0.000498923 -0.000787111 8.30125e-06
3.49013e-05 8.30125e-06 -0.0011596
2.01141e-05 0.000372615 -1.44658e-05
0.000372615 -2.51245e-05 9.92086e-06
-1.44658e-05 9.92086e-06 -0.000518475
-0.000255284 0.000604063 8.04666e-06
0.000604063 -0.000678966 -1.78234e-06
8.04666e-06 -1.78234e-06 -0.00101974
0.0022514 0.000864284 8.75434e-06
0.000864284 0.000839034 7.48805e-06
8.75434e-06 7.48805e-06 0.000533898
-0.000185164 0.000632254 6.57389e-06
0.000632254 -0.000767518 -6.16222e-06
6.57389e-06 -6.16222e-06 -0.00103723
0.00388947 0.00111789 6.57058e-06
0.00111789 0.00137458 1.3447e-05
6.57058e-06 1.3447e-05 0.00115726
0.00133464 0.000933924 2.22352e-05
0.000933924 2.96934e-06 6.69776e-06
2.22352e-05 6.69776e-06 -0.000308834
0.000534461 0.000819597 4.34492e-06
0.000819597 -0.000485339 -1.04364e-07
4.34492e-06 -1.04364e-07 -0.000559664
0.000748999 0.000568686 -3.39582e-06
0.000568686 0.000133348 -5.79917e-05
-3.39582e-06 -5.79917e-05 -8.39251e-05
0.00477119 0.00191739 2.28648e-05
0.00191739 -0.00193261 3.05039e-05
2.28648e-05 3.05039e-05 -0.000210581
0.0139745 0.00345192 0.000306555
0.00345192 0.000610498 0.000167936
0.000306555 0.000167936 -0.00087797
0.0122469 -0.0048224 0.000613055
-0.0048224 0.00592213 -4.7337e-05
0.000613055 -4.7337e-05 0.00214682
0.00588757 0.00554599 0.000622075
0.00554599 -0.00111381 0.000345226
0.000622075 0.000345226 -0.00523635
-1.55191e-05 0.00145014 -5.41029e-05
0.00145014 0.000104508 8.19683e-06
-5.41029e-05 8.19683e-06 0.000763575
0.0038701 0.00269523 -0.000105445
0.00269523 -0.000755837 -5.48283e-05
-0.000105445 -5.48283e-05 0.000236123
0.00632002 0.00235795 6.75931e-05
0.00235795 0.00115667 3.41607e-05
6.75931e-05 3.41607e-05 0.000913449
0.00459538 0.00172166 2.15694e-05
0.00172166 0.00144619 9.59528e-06
2.15694e-05 9.59528e-06 0.00106303
8.21839e-05 0.000763423 -2.96907e-05
0.000763423 -0.000336725 5.9227e-06
-2.96907e-05 5.9227e-06 -0.000578657
0.00743211 0.00273844 -0.000190417
0.00273844 0.00198896 -2.02903e-05
-0.000190417 -2.02903e-05 0.0013007
0.00315415 -0.000585654 1.22025e-05
-0.000585654 -0.000926667 1.91151e-05
1.22025e-05 1.91151e-05 2.95742e-06
0.0116291 -0.000582693 -5.25852e-05
-0.000582693 0.000850295 -1.86314e-05
-5.25852e-05 -1.86314e-05 0.00101059
-0.0129181 -0.00307602 0.000868672
-0.00307602 -0.00498917 1.24807e-06
0.000868672 1.24807e-06 -0.00636531
0.00102649 -0.00134801 -0.000119982
-0.00134801 -0.000413829 3.69229e-05
-0.000119982 3.69229e-05 -0.00069325
0.0085025 -0.00280944 -2.5684e-05
-0.00280944 -0.000617086 8.82135e-05
-2.5684e-05 8.82135e-05 0.000647007
0.00117645 -0.000304862 -0.000312782
-0.000304862 -0.00533722 3.85298e-05
-0.000312782 3.85298e-05 -0.00682407
0.00302759 -0.00114119 3.5085e-05
-0.00114119 -8.41115e-05 1.0871e-06
3.5085e-05 1.0871e-06 5.54138e-05
0.00521714 -0.000818417 -5.27636e-05
-0.000818417 -0.000666514 1.04071e-06
-5.27636e-05 1.04071e-06 0.000305941
0.00616231 -0.000972608 5.19648e-05
-0.000972608 0.00141398 -3.54109e-05
5.19648e-05 -3.54109e-05 0.00179295
0.00589277 -0.000519417 0.000114981
-0.000519417 0.00130537 -2.02983e-07
0.000114981 -2.02983e-07 0.00162773
-0.0032091 -0.00038703 1.04538e-05
-0.00038703 -0.00295719 1.20222e-05
1.04538e-05 1.20222e-05 -0.00268322
0.00213068 -0.000701628 -7.69384e-06
-0.000701628 -0.000224157 2.21583e-06
-7.69384e-06 2.21583e-06 -5.191e-05
0.00239325 -0.000533088 2.58688e-05
-0.000533088 -0.000242185 -6.59127e-06
2.58688e-05 -6.59127e-06 4.19442e-05
0.00180882 -0.000795552 2.16243e-06
-0.000795552 -0.000211648 5.84041e-06
2.16243e-06 5.84041e-06 -0.000421031
0.00240981 -0.000669558 1.33238e-06
-0.000669558 -4.21082e-05 1.65339e-06
1.33238e-06 1.65339e-06 -6.82919e-05
0.00245917 -0.000587537 1.74194e-06
-0.000587537 1.86699e-05 -3.86678e-07
1.74194e-06 -3.86678e-07 2.56869e-05
0.00220642 -0.000596278 2.96704e-06
-0.000596278 2.93838e-05 5.06655e-06
2.96704e-06 5.06655e-06 -8.99833e-05
0.00227854 -0.000582439 2.65392e-07
-0.000582439 6.40755e-05 4.46631e-07
2.65392e-07 4.46631e-07 2.40534e-07
0.00227372 -0.000518578 -2.09741e-06
-0.000518578 5.02751e-05 2.92804e-07
-2.09741e-06 2.92804e-07 -9.40415e-06
0.0020876 -0.000533381 3.92768e-06
-0.000533381 5.84781e-05 1.0507e-06
3.92768e-06 1.0507e-06 -7.73065e-05
0.00222677 -0.000565357 -9.17077e-08
-0.000565357 0.000147476 1.63876e-08
-9.17077e-08 1.63876e-08 2.08673e-05
0.00212059 -0.000503915 -2.22395e-08
-0.000503915 0.000125648 6.37831e-07
-2.22395e-08 6.37831e-07 -5.81528e-06
0.00211829 -0.000522241 -1.2366e-06
-0.000522241 0.000158089 1.24036e-06
-1.2366e-06 1.24036e-06 2.55203e-06
0.00214716 -0.000499528 -1.70094e-06
-0.000499528 0.000231322 2.19823e-07
-1.70094e-06 2.19823e-07 6.48685e-05
0.00222027 -0.000500478 -2.28524e-06
-0.000500478 0.000293198 -3.35836e-07
-2.28524e-06 -3.35836e-07 0.000108739
0.00210147 -0.000493877 4.48097e-06
-0.000493877 0.000223688 2.31098e-06
4.48097e-06 2.31098e-06 3.07965e-05
0.00205963 -0.000516109 -3.37098e-07
-0.000516109 0.000202808 -1.00242e-07
-3.37098e-07 -1.00242e-07 -1.19767e-05
0.00210643 -0.00051186 -1.09312e-06
-0.00051186 0.000276993 -2.53516e-06
-1.09312e-06 -2.53516e-06 4.00528e-05
0.00177407 -0.000504328 -8.67773e-06
-0.000504328 0.000217052 -9.62471e-07
-8.67773e-06 -9.62471e-07 -8.05499e-05
0.00204713 -0.000572767 -7.13563e-07
-0.000572767 0.000275683 -1.24224e-06
-7.13563e-07 -1.24224e-06 -1.68182e-05
0.00220648 -0.000604817 4.79742e-06
-0.000604817 0.000308639 2.71031e-06
4.79742e-06 2.71031e-06 2.8188e-05
0.000980703 -0.000308997 -1.67436e-05
-0.000308997 1.97123e-05 8.93529e-06
-1.67436e-05 8.93529e-06 -0.000225245
0.00172808 -0.000559019 -1.16821e-07
-0.000559019 0.000299346 9.54697e-07
-1.16821e-07 9.54697e-07 -4.85181e-05
0.00184517 -0.00065642 3.16667e-06
-0.00065642 0.000258061 1.92312e-06
3.16667e-06 1.92312e-06 -0.000111894
0.000239399 -0.00019555 -1.83928e-05
-0.00019555 -0.000235074 2.06234e-05
-1.83928e-05 2.06234e-05 -0.000371003
0.000765261 -0.000274515 1.15353e-06
-0.000274515 -9.61725e-06 -2.16978e-08
1.15353e-06 -2.16978e-08 -0.00024887
0.00143833 -0.000521093 1.18713e-05
-0.000521093 0.00027391 -2.26856e-06
1.18713e-05 -2.26856e-06 -7.84447e-05
0.00639973 8.26247e-05 -0.000233273
8.26247e-05 0.00374119 1.49757e-05
-0.000233273 1.49757e-05 0.00374201
0.000365901 -0.000198751 -1.64461e-06
-0.000198751 -0.000133748 -2.54624e-07
-1.64461e-06 -2.54624e-07 -0.000260574
0.000615819 -0.000233967 9.51098e-06
-0.000233967 -1.43389e-05 -6.65894e-06
9.51098e-06 -6.65894e-06 -0.00024569
0.005776 0.000115229 -7.3525e-06
0.000115229 0.00337546 -1.8636e-06
-7.3525e-06 -1.8636e-06 0.00336755
0.000411598 -0.000161141 2.0552e-05
-0.000161141 -8.78259e-05 -1.70751e-05
2.0552e-05 -1.70751e-05 -0.000200742
0.0051203 0.000114921 0.000186148
0.000114921 0.00297 -1.7705e-05
0.000186148 -1.7705e-05 0.00296352
0.00184055 0.000659281 -4.32898e-06
0.000659281 0.000526955 3.99325e-06
-4.32898e-06 3.99325e-06 0.000115941
0.00181683 0.000586137 -1.47805e-06
0.000586137 0.000650784 -1.39214e-06
-1.47805e-06 -1.39214e-06 0.000260588
0.000917342 0.000351203 -1.08604e-06
0.000351203 0.000110611 -2.9147e-06
-1.08604e-06 -2.9147e-06 -0.00017768
0.00125266 0.000363706 -9.13798e-06
0.000363706 0.000421746 -2.6008e-06
-9.13798e-06 -2.6008e-06 0.000161266
0.00030712 0.000182265 1.95035e-06
0.000182265 -0.00014904 -3.71351e-07
1.95035e-06 -3.71351e-07 -0.000369928
0.000836753 0.000245016 -2.64587e-06
0.000245016 0.000228347 -6.96196e-06
-2.64587e-06 -6.96196e-06 -8.12201e-06
1.877e-05 8.14658e-05 -5.33114e-07
8.14658e-05 -0.000270257 3.41919e-06
-5.33114e-07 3.41919e-06 -0.000486429
0.000642722 0.000138886 9.64599e-07
0.000138886 0.000134465 -5.13202e-07
9.64599e-07 -5.13202e-07 -7.41481e-05
0.00069983 8.90147e-05 -1.66573e-05
8.90147e-05 0.0001175 -1.79137e-05
-1.66573e-05 -1.79137e-05 3.50549e-05
0.00025314 6.378e-05 -3.02042e-06
6.378e-05 -9.83527e-05 1.05361e-05
-3.02042e-06 1.05361e-05 -0.000270854
0.000523014 5.66322e-05 1.32384e-07
5.66322e-05 2.40514e-05 -1.70037e-07
1.32384e-07 -1.70037e-07 -4.01868e-05
0.00404064 -0.000130844 -0.000117669
-0.000130844 0.00228002 -1.00314e-05
-0.000117669 -1.00314e-05 0.00227499
0.00331772 -0.000129948 -1.16096e-05
-0.000129948 0.00181034 1.01169e-06
-1.16096e-05 1.01169e-06 0.00180654
0.000373799 4.54225e-05 6.12755e-06
4.54225e-05 -6.59013e-05 1.31603e-05
6.12755e-06 1.31603e-05 -0.000116777
0.0028863 -0.000108509 4.56889e-05
-0.000108509 0.0015244 5.20182e-06
4.56889e-05 5.20182e-06 0.00152604
0.00390096 0.000187618 9.21776e-05
0.000187618 -0.00140807 3.16449e-05
9.21776e-05 3.16449e-05 0.000223241
0.00552189 -0.000924363 0.000195532
-0.000924363 -0.00464162 9.20868e-05
0.000195532 9.20868e-05 -0.00547105
0.0133871 -0.00352044 -0.000246048
-0.00352044 0.00561044 -0.000108561
-0.000246048 -0.000108561 0.00382485
0.00153427 0.000677876 5.40307e-06
0.000677876 9.07219e-05 8.99589e-06
5.40307e-06 8.99589e-06 -0.000276665
0.00474262 0.000895945 -1.40693e-05
0.000895945 0.00259082 -8.59982e-07
-1.40693e-05 -8.59982e-07 0.00209007
0.000628672 0.000533761 -1.05842e-05
0.000533761 -4.90322e-05 -6.44988e-06
-1.05842e-05 -6.44988e-06 -0.000475506
0.00151094 0.000750842 1.27991e-06
0.000750842 0.000447074 -3.2973e-06
1.27991e-06 -3.2973e-06 1.83291e-05
0.00174317 0.000728068 -1.7246e-06
0.000728068 0.000442036 3.69294e-06
-1.7246e-06 3.69294e-06 -4.78482e-06
0.00153235 0.000786053 2.21478e-05
0.000786053 0.000248737 1.25116e-05
2.21478e-05 1.25116e-05 -0.00013442
0.00260336 0.000915865 -4.55171e-05
0.000915865 0.00103848 -2.53643e-06
-4.55171e-05 -2.53643e-06 0.000616538
0.000456205 0.000667354 1.60727e-05
0.000667354 -0.000159971 -3.65244e-05
1.60727e-05 -3.65244e-05 -0.000447711
0.00197842 0.000919465 9.83284e-07
0.000919465 0.000464616 -1.64675e-06
9.83284e-07 -1.64675e-06 0.000131521
0.00218914 0.000944007 9.1301e-06
0.000944007 0.00034056 -1.7952e-06
9.1301e-06 -1.7952e-06 0.00027266
0.00223294 0.000963 1.58758e-05
0.000963 0.000330076 -3.45419e-06
1.58758e-05 -3.45419e-06 -1.06646e-05
0.00191372 0.000819839 2.4838e-05
0.000819839 0.000237827 2.38846e-05
2.4838e-05 2.38846e-05 3.83661e-05
0.000810691 0.000874619 -6.96748e-06
0.000874619 -0.000277194 -6.29155e-06
-6.96748e-06 -6.29155e-06 -0.000563063
0.000386266 0.000797511 -2.06756e-05
0.000797511 -0.000555237 -2.51909e-05
-2.06756e-05 -2.51909e-05 -0.000616256
0.00142898 0.000856956 5.42908e-05
0.000856956 -0.00115726 3.71998e-05
5.42908e-05 3.71998e-05 -0.000714862
0.00610972 0.00200094 -9.60448e-05
0.00200094 -0.00142781 -2.9203e-05
-9.60448e-05 -2.9203e-05 0.000208229
0.00434444 0.00233955 0.000600834
0.00233955 -0.00487136 0.000139165
0.000600834 0.000139165 -0.00643273
0.00237755 0.00217695 -0.000192567
0.00217695 -0.000658486 -7.78234e-05
-0.000192567 -7.78234e-05 0.000188395
0.00476478 0.00191974 -3.08346e-05
0.00191974 0.000790163 -9.51019e-06
-3.08346e-05 -9.51019e-06 0.000640565
0.0053686 0.00184106 -0.000156673
0.00184106 0.00173485 -4.51091e-05
-0.000156673 -4.51091e-05 0.00133168
0.00282283 -0.000242826 -5.7071e-05
-0.000242826 -0.000621101 -1.79442e-05
-5.7071e-05 -1.79442e-05 -0.000201276
-0.000672554 -0.000327131 9.64583e-05
-0.000327131 -0.00151203 2.11854e-05
9.64583e-05 2.11854e-05 -0.00041034
0.00388371 0.00076436 0.000242607
0.00076436 -0.00527028 -1.93967e-05
0.000242607 -1.93967e-05 -0.00546069
0.000526173 -0.000859882 -5.42672e-05
-0.000859882 -0.00133818 7.71693e-05
-5.42672e-05 7.71693e-05 -0.00099897
0.00683454 -0.000918206 -0.000177123
-0.000918206 0.000247651 5.15698e-05
-0.000177123 5.15698e-05 0.000751796
0.00268414 -0.000717312 -2.23352e-05
-0.000717312 -0.000500637 1.1819e-05
-2.23352e-05 1.1819e-05 -2.38093e-05
0.0043641 -0.00051411 -1.03924e-05
-0.00051411 0.000454506 -2.78286e-06
-1.03924e-05 -2.78286e-06 0.000695632
0.00297205 -0.000400681 6.80982e-05
-0.000400681 -7.12526e-06 -9.76445e-06
6.80982e-05 -9.76445e-06 0.000353683
0.00379894 -0.000114024 5.20662e-05
-0.000114024 0.00108396 1.79867e-06
5.20662e-05 1.79867e-06 0.00111773
0.000399435 -0.000551538 -2.18032e-05
-0.000551538 -0.00119325 1.33632e-05
-2.18032e-05 1.33632e-05 -0.000905067
0.00225395 -0.000553054 -2.78271e-06
-0.000553054 -0.000343745 1.3195e-06
-2.78271e-06 1.3195e-06 -7.26246e-05
0.00247188 -0.000460928 4.42236e-06
-0.000460928 -0.000197435 -1.42828e-06
4.42236e-06 -1.42828e-06 2.68539e-05
0.00233306 -0.000658968 -1.62488e-06
-0.000658968 -7.30854e-05 3.42478e-06
-1.62488e-06 3.42478e-06 -9.75911e-05
0.0024381 -0.000572884 9.90908e-09
-0.000572884 2.73108e-05 -4.5741e-07
9.90908e-09 -4.5741e-07 4.04324e-05
0.00233663 -0.000450246 -8.71217e-07
-0.000450246 -2.6084e-05 -1.05533e-07
-8.71217e-07 -1.05533e-07 -6.17773e-06
0.00223239 -0.000573582 -1.36396e-07
-0.000573582 5.16947e-05 6.7457e-07
-1.36396e-07 6.7457e-07 -1.47185e-05
0.00226553 -0.000523271 -8.53411e-07
-0.000523271 5.67222e-05 5.68203e-08
-8.53411e-07 5.68203e-08 -2.91216e-06
0.00215857 -0.000441812 -1.42217e-06
-0.000441812 6.46852e-05 9.81206e-07
-1.42217e-06 9.81206e-07 -1.08284e-05
0.00219352 -0.000558363 5.32304e-07
-0.000558363 0.000152505 -1.3384e-06
5.32304e-07 -1.3384e-06 2.51579e-05
0.00210622 -0.000504298 9.89859e-07
-0.000504298 0.000113407 -4.56748e-07
9.89859e-07 -4.56748e-07 -1.85402e-05
0.0020952 -0.000465208 -1.21273e-06
-0.000465208 0.000155758 1.4292e-07
-1.21273e-06 1.4292e-07 4.26476e-06
0.00207861 -0.000490081 -1.3175e-06
-0.000490081 0.000184721 1.15666e-06
-1.3175e-06 1.15666e-06 2.15621e-05
0.00215891 -0.000494559 -1.65972e-06
-0.000494559 0.000247048 6.75242e-07
-1.65972e-06 6.75242e-07 6.63888e-05
0.00218959 -0.000486721 -1.28436e-06
-0.000486721 0.000289202 -1.86253e-06
-1.28436e-06 -1.86253e-06 8.66553e-05
0.00209832 -0.000519143 2.88405e-06
-0.000519143 0.000225708 2.64169e-06
2.88405e-06 2.64169e-06 1.01951e-05
0.00210945 -0.000514112 3.27545e-07
-0.000514112 0.00027887 -3.85635e-07
3.27545e-07 -3.85635e-07 4.25441e-05
0.0018906 -0.000450356 -5.9938e-06
-0.000450356 0.000249256 2.62762e-07
-5.9938e-06 2.62762e-07 -7.68529e-06
0.0011088 -0.000313806 -2.01564e-05
-0.000313806 2.64851e-05 8.33535e-06
-2.01564e-05 8.33535e-06 -0.000213238
0.00177443 -0.000502519 -1.13854e-06
-0.000502519 0.000225599 -6.53144e-07
-1.13854e-06 -6.53144e-07 -7.4423e-05
0.00197387 -0.000572815 2.47596e-06
-0.000572815 0.000227642 1.41318e-06
2.47596e-06 1.41318e-06 -7.09351e-05
0.000329637 -0.000236524 -2.21697e-05
-0.000236524 -0.000191063 1.96141e-05
-2.21697e-05 1.96141e-05 -0.000341979
0.000950887 -0.000309491 1.82307e-06
-0.000309491 -6.97183e-06 7.29635e-08
1.82307e-06 7.29635e-08 -0.000253371
0.00176829 -0.000556144 9.76561e-06
-0.000556144 0.000331452 -3.67396e-07
9.76561e-06 -3.67396e-07 -1.33609e-05
0.00706516 3.72274e-05 -0.00027552
3.72274e-05 0.00413553 1.99954e-05
-0.00027552 1.99954e-05 0.00414174
0.000391671 -0.000249791 -1.44226e-06
-0.000249791 -0.000131436 9.8708e-07
-1.44226e-06 9.8708e-07 -0.000278973
0.00070449 -0.000282693 1.21012e-05
-0.000282693 -5.45298e-05 -7.61202e-06
1.21012e-05 -7.61202e-06 -0.000299048
0.00658953 6.67139e-05 -4.84298e-06
6.67139e-05 0.0038629 -1.95509e-07
-4.84298e-06 -1.95509e-07 0.00386228
0.000608644 -0.000246895 2.63251e-05
-0.000246895 1.5693e-05 -1.99496e-05
2.63251e-05 -1.99496e-05 -0.000113495
0.00604172 0.000129925 0.000214644
0.000129925 0.00356169 -2.60317e-05
0.000214644 -2.60317e-05 0.00354315
0.00160859 0.0006187 -2.54176e-06
0.0006187 0.000201792 5.94283e-06
-2.54176e-06 5.94283e-06 -0.000164504
0.00173573 0.000654431 -1.60987e-06
0.000654431 0.00045027 5.38718e-07
-1.60987e-06 5.38718e-07 3.77049e-05
0.00126801 0.000465915 -7.95342e-06
0.000465915 0.000204056 -3.49055e-07
-7.95342e-06 -3.49055e-07 -0.00012159
0.00130558 0.000527645 -5.99792e-06
0.000527645 0.000298642 -1.51142e-06
-5.99792e-06 -1.51142e-06 -7.11317e-05
0.0010327 0.000343696 -4.0334e-06
0.000343696 0.000173103 -1.9658e-06
-4.0334e-06 -1.9658e-06 -0.000107519
0.00113823 0.000253951 -9.16338e-06
0.000253951 0.000347548 -2.84015e-06
-9.16338e-06 -2.84015e-06 0.000113194
3.5736e-05 0.000148303 -3.47192e-06
0.000148303 -0.000331081 -1.04623e-06
-3.47192e-06 -1.04623e-06 -0.000547292
0.000849462 0.000174018 -7.75823e-07
0.000174018 0.000215112 -2.16747e-07
-7.75823e-07 -2.16747e-07 -5.90345e-06
0.000526553 0.000134582 -2.46449e-05
0.000134582 -1.71009e-05 -1.79498e-05
-2.46449e-05 -1.79498e-05 -0.000110445
0.000395575 0.000106913 8.86163e-07
0.000106913 -3.29299e-05 1.1164e-05
8.86163e-07 1.1164e-05 -0.000227225
0.000455221 8.22304e-05 -8.80202e-07
8.22304e-05 -3.00911e-05 -3.24744e-07
-8.80202e-07 -3.24744e-07 -0.000107235
0.0046119 -0.000152718 -0.000140932
-0.000152718 0.0026571 -1.35355e-05
-0.000140932 -1.35355e-05 0.00264328
0.000316492 6.10034e-05 9.71597e-06
6.10034e-05 -0.000100319 1.57764e-05
9.71597e-06 1.57764e-05 -0.000162359
0.00381919 -0.00014953 -1.10532e-05
-0.00014953 0.00214405 1.16968e-06
-1.10532e-05 1.16968e-06 0.00213381
0.00316514 -0.00013521 5.41196e-05
-0.00013521 0.00171324 5.76636e-06
5.41196e-05 5.76636e-06 0.00170755
0.000710964 0.00018049 -3.12692e-06
0.00018049 -0.0018226 9.07064e-06
-3.12692e-06 9.07064e-06 -0.00104
0.00503633 7.69369e-05 6.69989e-05
7.69369e-05 -0.000880593 2.08789e-05
6.69989e-05 2.08789e-05 0.000647325
0.0147865 0.000839498 -9.00496e-06
0.000839498 0.00206247 2.06114e-05
-9.00496e-06 2.06114e-05 0.00199053
0.00196511 0.000790226 -1.2246e-06
0.000790226 0.000317712 5.14829e-06
-1.2246e-06 5.14829e-06 -4.14213e-05
0.00218282 0.000753439 -3.65642e-07
0.000753439 0.000288749 4.08146e-06
-3.65642e-07 4.08146e-06 -3.1229e-05
0.00156116 0.000683131 -5.79014e-07
0.000683131 0.000117778 -3.94869e-06
-5.79014e-07 -3.94869e-06 -0.000246586
0.0028614 0.000919878 -1.56523e-05
0.000919878 0.00124361 1.99189e-06
-1.56523e-05 1.99189e-06 0.000783154
0.00204658 0.000762565 -5.76155e-06
0.000762565 0.000652744 -9.68375e-06
-5.76155e-06 -9.68375e-06 0.000190936
0.00211416 0.00087769 7.47156e-06
0.00087769 0.000548205 3.82971e-06
7.47156e-06 3.82971e-06 0.000153552
0.00209375 0.000879164 -2.21836e-06
0.000879164 0.000178296 -3.47949e-06
-2.21836e-06 -3.47949e-06 -0.000146576
0.00235138 0.000988663 -1.76339e-05
0.000988663 0.000624865 5.75314e-06
-1.76339e-05 5.75314e-06 0.000285558
0.000984573 0.000818636 -1.61383e-05
0.000818636 -0.00041615 1.75346e-05
-1.61383e-05 1.75346e-05 -0.00035042
0.00279505 0.00102815 6.79417e-07
0.00102815 0.000653864 3.67199e-06
6.79417e-07 3.67199e-06 0.000302034
0.00275239 0.000877514 -4.63723e-06
0.000877514 0.000416191 4.26871e-06
-4.63723e-06 4.26871e-06 0.000179176
0.00131347 0.00041784 4.11315e-05
0.00041784 -0.000293873 1.64331e-05
4.11315e-05 1.64331e-05 -0.000220349
0.000375628 0.000675417 9.20425e-06
0.000675417 -0.000569274 -4.82092e-06
9.20425e-06 -4.82092e-06 -0.00075186
0.00102595 0.00089731 -3.54277e-05
0.00089731 -0.000159308 -4.24126e-06
-3.54277e-05 -4.24126e-06 -0.000453244
0.00319739 0.00100667 1.0439e-05
0.00100667 -0.000181779 8.94894e-06
1.0439e-05 8.94894e-06 0.000113043
0.00749088 0.00164995 -3.39221e-05
0.00164995 -0.000727216 -4.31706e-05
-3.39221e-05 -4.31706e-05 0.000532125
0.00464422 0.00162212 -4.96606e-05
0.00162212 0.00116398 -6.15284e-05
-4.96606e-05 -6.15284e-05 0.00108176
0.00252338 -9.81486e-05 4.42262e-05
-9.81486e-05 0.000132126 4.58256e-06
4.42262e-05 4.58256e-06 0.000328171
0.00295361 -0.00024445 -6.69931e-05
-0.00024445 -0.00051863 4.19176e-06
-6.69931e-05 4.19176e-06 -3.62428e-05
0.004418 0.000413346 2.3824e-05
0.000413346 -0.000151887 -2.1724e-05
2.3824e-05 -2.1724e-05 0.000640879
0.00085231 -0.000605158 -7.30598e-05
-0.000605158 -0.00148228 5.41943e-05
-7.30598e-05 5.41943e-05 -0.00097289
0.0027022 -0.000555939 -0.000100413
-0.000555939 -0.000458309 1.55997e-07
-0.000100413 1.55997e-07 -0.000294427
0.0027341 -0.000394222 8.44183e-06
-0.000394222 -7.06771e-05 -2.8383e-06
8.44183e-06 -2.8383e-06 0.000304704
0.00257585 -0.000105411 -1.74738e-05
-0.000105411 0.000273885 7.24341e-07
-1.74738e-05 7.24341e-07 0.00033574
0.00254466 -0.000255427 1.52386e-05
-0.000255427 -2.07472e-05 -1.00218e-06
1.52386e-05 -1.00218e-06 0.00014289
0.00236898 1.49733e-05 1.10251e-05
1.49733e-05 -0.000105798 2.7412e-06
1.10251e-05 2.7412e-06 -2.15041e-05
0.00226217 -0.000582521 -1.90387e-05
-0.000582521 -0.000359401 5.641e-06
-1.90387e-05 5.641e-06 -0.000108749
0.00249453 -0.000478702 -2.67686e-06
-0.000478702 -0.000182877 7.71075e-07
-2.67686e-06 7.71075e-07 3.40501e-06
0.00240864 -0.000332172 -1.6803e-07
-0.000332172 -0.000103098 -8.2424e-07
-1.6803e-07 -8.2424e-07 3.39165e-06
0.00241426 -0.00055907 -3.64398e-06
-0.00055907 3.10804e-05 7.24375e-07
-3.64398e-06 7.24375e-07 5.00345e-05
0.00234441 -0.000447881 8.34384e-09
-0.000447881 -8.45984e-06 -1.97425e-07
8.34384e-09 -1.97425e-07 6.77858e-06
0.00224592 -0.000370436 -5.65474e-07
-0.000370436 1.20046e-05 5.06075e-07
-5.65474e-07 5.06075e-07 3.78799e-06
0.00226129 -0.000528379 -4.08014e-07
-0.000528379 6.49712e-05 -8.43446e-07
-4.08014e-07 -8.43446e-07 4.99648e-06
0.00216657 -0.000441495 4.60602e-07
-0.000441495 6.52141e-05 -1.36945e-07
4.60602e-07 -1.36945e-07 -1.01575e-05
0.00211941 -0.000402183 -2.41511e-06
-0.000402183 0.000102842 1.01881e-06
-2.41511e-06 1.01881e-06 1.48384e-06
0.00209474 -0.000504739 2.36141e-06
-0.000504739 0.000102952 -1.4516e-06
2.36141e-06 -1.4516e-06 -2.94731e-05
0.00206011 -0.000462557 6.73823e-07
-0.000462557 0.000129525 -4.76197e-07
6.73823e-07 -4.76197e-07 -2.19892e-05
0.00205701 -0.000434848 -1.3787e-06
-0.000434848 0.000163428 -1.08379e-06
-1.3787e-06 -1.08379e-06 -7.55211e-06
0.00209394 -0.000488518 -4.20239e-07
-0.000488518 0.000198379 1.86762e-06
-4.20239e-07 1.86762e-06 2.15216e-05
0.00215236 -0.000485265 -3.99387e-07
-0.000485265 0.000266912 -1.81184e-07
-3.99387e-07 -1.81184e-07 6.50032e-05
0.00188179 -0.00041597 -4.4912e-06
-0.00041597 0.000195513 1.26887e-07
-4.4912e-06 1.26887e-07 -3.44656e-05
0.00211565 -0.000516556 2.1833e-06
-0.000516556 0.000282897 2.31119e-06
2.1833e-06 2.31119e-06 4.71431e-05
0.00193362 -0.000455487 -8.56078e-07
-0.000455487 0.000276077 5.64293e-09
-8.56078e-07 5.64293e-09 2.00429e-05
0.00112598 -0.000280607 -1.82625e-05
-0.000280607 -1.97395e-06 7.92742e-06
-1.82625e-05 7.92742e-06 -0.000222241
0.000252545 -0.000202719 -1.92403e-05
-0.000202719 -0.000259146 1.82245e-05
-1.92403e-05 1.82245e-05 -0.000400262
0.00109132 -0.000313273 5.02784e-07
-0.000313273 1.56308e-05 -5.5772e-08
5.02784e-07 -5.5772e-08 -0.000224074
0.00179783 -0.000503104 6.60064e-06
-0.000503104 0.00024765 -7.92416e-07
6.60064e-06 -7.92416e-07 -5.52731e-05
0.00745801 -4.95145e-05 -0.00031789
-4.95145e-05 0.00435629 2.47515e-05
-0.00031789 2.47515e-05 0.00437115
0.000348933 -0.000235317 -1.28575e-06
-0.000235317 -0.000188599 1.53848e-06
-1.28575e-06 1.53848e-06 -0.000334482
0.000850007 -0.000304694 1.6157e-05
-0.000304694 -7.56359e-05 -7.09947e-06
1.6157e-05 -7.09947e-06 -0.000323169
0.00728845 4.0553e-06 -1.15098e-06
4.0553e-06 0.00427248 8.08956e-07
-1.15098e-06 8.08956e-07 0.00428032
0.000525637 -0.000256496 2.47277e-05
-0.000256496 -5.40884e-05 -2.09026e-05
2.47277e-05 -2.09026e-05 -0.000202373
0.00692311 2.73478e-05 0.000283559
2.73478e-05 0.00406324 -2.63353e-05
0.000283559 -2.63353e-05 0.00406741
0.00191179 0.00067429 -8.71013e-07
0.00067429 0.000242231 6.42568e-06
-8.71013e-07 6.42568e-06 -9.3016e-05
0.00168477 0.000632007 -4.99639e-08
0.000632007 0.000253821 7.83086e-07
-4.99639e-08 7.83086e-07 -0.000113255
0.00161651 0.000528878 -8.75878e-06
0.000528878 0.000302695 8.98056e-07
-8.75878e-06 8.98056e-07 -3.09394e-05
0.00153004 0.000635275 5.34387e-07
0.000635275 0.000316087 -2.98398e-06
5.34387e-07 -2.98398e-06 -9.4013e-05
0.00132018 0.000465694 -9.79942e-07
0.000465694 0.000243153 6.8096e-08
-9.79942e-07 6.8096e-08 -8.12809e-05
0.00103166 0.000261972 -1.27017e-05
0.000261972 0.000187495 -4.34733e-06
-1.27017e-05 -4.34733e-06 -3.86409e-05
0.0013195 0.000347195 1.31941e-06
0.000347195 0.000349995 -1.11991e-06
1.31941e-06 -1.11991e-06 7.479e-05
0.000510988 0.00020377 8.55967e-07
0.00020377 -4.77181e-05 1.05073e-06
8.55967e-07 1.05073e-06 -0.000273834
0.000437205 0.000203526 -2.87344e-05
0.000203526 -8.87346e-05 -1.95828e-05
-2.87344e-05 -1.95828e-05 -0.000200177
0.000260093 0.0001208 1.35412e-06
0.0001208 -0.000143683 6.73656e-06
1.35412e-06 6.73656e-06 -0.000369276
0.000551816 0.000117757 -6.07399e-07
0.000117757 4.07682e-06 -6.19538e-07
-6.07399e-07 -6.19538e-07 -8.81163e-05
0.00561626 -0.000170426 -0.000184163
-0.000170426 0.00330773 -1.92759e-05
-0.000184163 -1.92759e-05 0.00328428
0.000415262 7.78131e-05 1.45595e-05
7.78131e-05 -4.95865e-05 1.81592e-05
1.45595e-05 1.81592e-05 -0.000125182
0.0044888 -0.000178202 -1.10915e-05
-0.000178202 0.00258615 1.3329e-06
-1.10915e-05 1.3329e-06 0.00256605
0.00365782 -0.000163238 7.51916e-05
-0.000163238 0.00204438 7.21798e-06
7.51916e-05 7.21798e-06 0.00202987
0.00154661 0.000194008 3.319e-05
0.000194008 -0.000329852 1.75879e-05
3.319e-05 1.75879e-05 -8.01635e-05
0.00258015 0.000239018 -2.35584e-05
0.000239018 -0.00114282 -2.15321e-06
-2.35584e-05 -2.15321e-06 -0.000291582
0.00433943 0.000353988 0.000231077
0.000353988 -0.0017201 6.74793e-05
0.000231077 6.74793e-05 0.000264853
0.0025517 0.000804913 -8.55145e-06
0.000804913 0.000459045 1.63202e-07
-8.55145e-06 1.63202e-07 0.000152882
0.0018703 0.000803557 -6.91615e-06
0.000803557 0.000240587 -5.17946e-06
-6.91615e-06 -5.17946e-06 -0.000115697
0.00224944 0.000610949 1.722e-06
0.000610949 0.000203276 4.79339e-06
1.722e-06 4.79339e-06 -2.94609e-05
0.00220619 0.00074525 1.4671e-06
0.00074525 0.000306551 5.0104e-07
1.4671e-06 5.0104e-07 -1.09911e-05
0.00154997 0.000684534 4.53347e-06
0.000684534 0.000120307 -1.13647e-05
4.53347e-06 -1.13647e-05 -0.000240221
0.00229556 0.000683748 -2.7406e-06
0.000683748 0.000107394 9.31961e-07
-2.7406e-06 9.31961e-07 -9.49776e-05
0.0027421 0.000974191 -7.83989e-06
0.000974191 0.000876952 -3.82555e-06
-7.83989e-06 -3.82555e-06 0.000468518
0.00248531 0.000898402 1.012e-06
0.000898402 0.000417385 1.96965e-07
1.012e-06 1.96965e-07 8.42419e-05
0.00211391 0.000444473 -1.41706e-05
0.000444473 -0.000174335 -1.18039e-06
-1.41706e-05 -1.18039e-06 -0.000156972
0.00343692 0.00111321 -6.29206e-06
0.00111321 0.00100601 7.44455e-06
-6.29206e-06 7.44455e-06 0.000645958
0.00255888 0.000860648 2.22473e-07
0.000860648 0.000307904 -7.07797e-07
2.22473e-07 -7.07797e-07 6.88548e-05
0.000678259 0.00041151 -2.16751e-06
0.00041151 -0.000657793 1.59174e-06
-2.16751e-06 1.59174e-06 -0.000564414
-0.00131958 0.000512663 -2.47754e-05
0.000512663 -0.00144561 -1.09733e-05
-2.47754e-05 -1.09733e-05 -0.00159719
0.00381073 0.00111592 -0.000131935
0.00111592 0.000131381 -4.37262e-05
-0.000131935 -4.37262e-05 0.00030788
0.0022644 0.0001179 -1.41168e-06
0.0001179 -0.000178421 -7.87724e-07
-1.41168e-06 -7.87724e-07 -6.5474e-05
0.00278317 -8.31096e-05 2.04802e-06
-8.31096e-05 0.000396518 -5.68399e-07
2.04802e-06 -5.68399e-07 0.000525011
0.002658 -0.000268369 -0.000100889
-0.000268369 -0.000670494 1.93304e-06
-0.000100889 1.93304e-06 -0.000144295
0.00201989 -0.000373951 -7.51369e-05
-0.000373951 -0.000423163 7.99174e-06
-7.51369e-05 7.99174e-06 -3.30793e-05
0.00138505 -0.00011286 -1.59675e-05
-0.00011286 -0.000511887 6.80511e-07
-1.59675e-05 6.80511e-07 -0.000425413
0.00251925 -0.000260437 1.8775e-06
-0.000260437 -5.96995e-05 -1.89893e-06
1.8775e-06 -1.89893e-06 0.000129745
0.00244648 1.99158e-05 -2.87908e-06
1.99158e-05 -8.3849e-05 1.04263e-07
-2.87908e-06 1.04263e-07 8.43842e-07
0.00243558 -7.78859e-05 1.57132e-07
-7.78859e-05 -0.000105148 -1.0124e-06
1.57132e-07 -1.0124e-06 1.56104e-05
0.00251034 -0.000493197 -5.22764e-06
-0.000493197 -0.000165237 8.68558e-07
-5.22764e-06 8.68558e-07 -1.7691e-05
0.00235685 -0.000320058 3.69431e-07
-0.000320058 -0.00011688 -2.28662e-07
3.69431e-07 -2.28662e-07 -1.89273e-05
0.00228802 -0.000245304 4.4099e-07
-0.000245304 -3.01822e-05 -2.2612e-07
4.4099e-07 -2.2612e-07 2.89509e-05
0.00235205 -0.000445719 -1.62169e-07
-0.000445719 9.7994e-06 8.00362e-08
-1.62169e-07 8.00362e-08 2.01558e-05
0.00223524 -0.000366865 9.52337e-08
-0.000366865 9.11603e-06 2.17447e-07
9.52337e-08 2.17447e-07 -3.27518e-07
0.0021322 -0.000310676 -2.75853e-06
-0.000310676 4.91094e-05 9.95577e-07
-2.75853e-06 9.95577e-07 7.36773e-06
0.00217396 -0.0004411 2.05925e-06
-0.0004411 6.51771e-05 -1.1452e-06
2.05925e-06 -1.1452e-06 -1.00416e-05
0.00211016 -0.000401273 6.35134e-07
-0.000401273 9.38232e-05 -2.07817e-07
6.35134e-07 -2.07817e-07 -7.69149e-06
0.00210737 -0.000373909 -2.04875e-06
-0.000373909 0.000152734 -1.09165e-07
-2.04875e-06 -1.09165e-07 1.88328e-05
0.00202448 -0.000459962 2.12666e-06
-0.000459962 0.00010291 -9.0989e-07
2.12666e-06 -9.0989e-07 -4.86366e-05
0.00208746 -0.000436892 -2.64518e-07
-0.000436892 0.000182998 -2.01033e-07
-2.64518e-07 -2.01033e-07 1.14115e-05
0.00193373 -0.000377079 -2.58493e-06
-0.000377079 0.000179317 -3.21974e-07
-2.58493e-06 -3.21974e-07 -2.19381e-05
0.00211616 -0.000483715 9.04233e-07
-0.000483715 0.000245125 1.50107e-06
9.04233e-07 1.50107e-06 4.39352e-05
0.00190684 -0.000417639 -6.28645e-07
-0.000417639 0.00021252 1.74552e-07
-6.28645e-07 1.74552e-07 -1.72911e-05
0.00113773 -0.000247159 -1.47432e-05
-0.000247159 -1.65093e-05 6.70446e-06
-1.47432e-05 6.70446e-06 -0.000220437
0.00197083 -0.000460113 5.21445e-06
-0.000460113 0.000299257 -3.21358e-08
5.21445e-06 -3.21358e-08 4.42281e-05
0.00115205 -0.000281314 1.36092e-07
-0.000281314 1.08129e-05 1.14518e-07
1.36092e-07 1.14518e-07 -0.000208672
0.00279765 -0.000196287 -5.18132e-05
-0.000196287 0.00132453 1.32601e-05
-5.18132e-05 1.32601e-05 0.00121454
0.00241336 -0.000113844 -0.000275926
-0.000113844 0.00117196 3.85566e-05
-0.000275926 3.85566e-05 0.00115365
0.00159031 -0.000215513 -1.48821e-05
-0.000215513 0.00057818 -2.01149e-08
-1.48821e-05 -2.01149e-08 0.000447529
0.00108739 -0.000312424 1.92022e-05
-0.000312424 1.61978e-05 -7.66498e-06
1.92022e-05 -7.66498e-06 -0.000223174
0.00745763 -6.70741e-05 -7.73148e-06
-6.70741e-05 0.00436446 1.58703e-06
-7.73148e-06 1.58703e-06 0.00437588
0.000302017 -0.000261914 2.55663e-05
-0.000261914 -0.000216374 -1.95096e-05
2.55663e-05 -1.95096e-05 -0.000365014
0.00743395 -1.73314e-05 0.000309852
-1.73314e-05 0.00436846 -3.07035e-05
0.000309852 -3.07035e-05 0.00437308
0.00213634 0.000466169 -2.0267e-07
0.000466169 0.000130207 7.83012e-07
-2.0267e-07 7.83012e-07 -4.07413e-05
0.00217451 0.000615081 3.16479e-06
0.000615081 0.00029903 5.94584e-06
3.16479e-06 5.94584e-06 3.02966e-05
0.00216845 0.000694295 5.08716e-07
0.000694295 0.000397064 1.85938e-07
5.08716e-07 1.85938e-07 6.22939e-05
0.00183874 0.000559666 -8.50923e-06
0.000559666 0.000325967 1.82493e-06
-8.50923e-06 1.82493e-06 3.77378e-06
0.00178733 0.000649758 6.00743e-06
0.000649758 0.000318715 -3.90939e-06
6.00743e-06 -3.90939e-06 -5.05125e-05
0.00158559 0.000530909 -2.70918e-07
0.000530909 0.000273639 7.10731e-07
-2.70918e-07 7.10731e-07 -6.25986e-05
0.000746754 0.000283162 -1.66857e-05
0.000283162 -9.29453e-05 -5.54987e-06
-1.66857e-05 -5.54987e-06 -0.000324249
0.00131377 0.000462107 8.21172e-06
0.000462107 0.000240839 1.59655e-06
8.21172e-06 1.59655e-06 -8.2126e-05
0.000659304 0.000240381 9.04854e-07
0.000240381 -4.24307e-05 1.21057e-07
9.04854e-07 1.21057e-07 -0.000262988
0.000516912 0.000267929 -2.87986e-05
0.000267929 -5.07704e-05 -2.04855e-05
-2.87986e-05 -2.04855e-05 -0.000186795
0.000397854 0.000190093 5.80423e-06
0.000190093 -0.000129963 2.39253e-06
5.80423e-06 2.39253e-06 -0.000348661
0.000463105 0.000183816 2.20283e-06
0.000183816 -7.70924e-05 -1.1175e-06
2.20283e-06 -1.1175e-06 -0.00018443
0.00657974 -0.000119557 -0.000240188
-0.000119557 0.00389075 -2.47256e-05
-0.000240188 -2.47256e-05 0.0038739
0.000358914 0.000109357 2.07318e-05
0.000109357 -0.000114307 1.83009e-05
2.07318e-05 1.83009e-05 -0.00020061
0.00518612 -0.000181254 -3.81698e-06
-0.000181254 0.00302701 -6.45129e-07
-3.81698e-06 -6.45129e-07 0.00300473
0.00426504 -0.000195114 9.90509e-05
-0.000195114 0.00244931 9.90059e-06
9.90509e-05 9.90059e-06 0.00242442
0.00231669 0.000227352 -7.04983e-06
0.000227352 -0.000194274 -1.55376e-06
-7.04983e-06 -1.55376e-06 -4.45452e-05
0.00209111 0.000146374 1.87362e-05
0.000146374 -0.000166753 -2.93444e-06
1.87362e-05 -2.93444e-06 0.000141462
0.00536801 0.000350566 -0.000119963
0.000350566 8.27566e-05 -2.0905e-06
-0.000119963 -2.0905e-06 0.000986122
0.00225585 0.000560147 -3.11464e-06
0.000560147 0.000141983 1.44394e-06
-3.11464e-06 1.44394e-06 -3.69324e-05
0.00226983 0.000763562 -4.15149e-06
0.000763562 0.000333702 -4.22639e-07
-4.15149e-06 -4.22639e-07 3.44299e-05
0.00180064 0.000818602 -2.43722e-06
0.000818602 0.000180008 -1.04178e-05
-2.43722e-06 -1.04178e-05 -0.000173177
0.00232882 0.000602379 2.66978e-06
0.000602379 0.00027058 1.40579e-06
2.66978e-06 1.40579e-06 4.07829e-05
0.0022324 0.000737266 8.2661e-07
0.000737266 0.000326511 -5.28824e-06
8.2661e-07 -5.28824e-06 1.12713e-05
0.00248366 0.000447762 -1.7532e-07
0.000447762 1.16191e-05 4.93362e-07
-1.7532e-07 4.93362e-07 1.86998e-05
0.00228852 0.000689473 -8.38484e-07
0.000689473 0.000118144 1.88198e-07
-8.38484e-07 1.88198e-07 -8.36742e-05
0.0027866 0.000907843 -6.55981e-06
0.000907843 0.000608472 -2.29484e-06
-6.55981e-06 -2.29484e-06 0.000267719
0.00206784 0.00043035 5.37023e-08
0.00043035 -0.000174716 -2.29359e-07
5.37023e-08 -2.29359e-07 -0.000154885
0.00225066 0.00082841 1.38653e-05
0.00082841 0.000124369 2.60308e-06
1.38653e-05 2.60308e-06 -0.000112662
-8.31826e-05 0.000367065 -4.10039e-05
0.000367065 -0.00110183 -1.87796e-05
-4.10039e-05 -1.87796e-05 -0.000983494
0.00242726 9.41495e-05 4.84795e-07
9.41495e-05 -4.59118e-05 1.59586e-07
4.84795e-07 1.59586e-07 4.42653e-05
0.00224398 0.000124485 -1.10158e-06
0.000124485 -0.000189295 5.40957e-07
-1.10158e-06 5.40957e-07 -8.05976e-05
0.002976 -6.98705e-05 -5.13645e-05
-6.98705e-05 0.000603376 3.10463e-07
-5.13645e-05 3.10463e-07 0.000677649
0.00246623 -0.000259724 -2.4423e-05
-0.000259724 -0.000121159 3.02616e-06
-2.4423e-05 3.02616e-06 9.36636e-05
0.0025421 2.99206e-05 -7.0895e-06
2.99206e-05 -5.55528e-05 -3.2705e-06
-7.0895e-06 -3.2705e-06 2.88754e-05
0.00240072 -8.70641e-05 -2.16927e-07
-8.70641e-05 -0.000141527 -2.21274e-08
-2.16927e-07 -2.21274e-08 -1.5383e-05
0.0021573 -7.40837e-05 3.31622e-07
-7.40837e-05 -4.36298e-05 2.97496e-08
3.31622e-07 2.97496e-08 2.30205e-06
0.00230532 -0.000307203 2.503e-07
-0.000307203 -0.000128783 -2.63874e-08
2.503e-07 -2.63874e-08 -3.99001e-05
0.00223798 -0.000251001 -1.40543e-07
-0.000251001 -5.46675e-05 4.05606e-08
-1.40543e-07 4.05606e-08 -2.89012e-06
0.00210026 -0.000208712 -1.60039e-06
-0.000208712 1.02271e-05 1.31976e-07
-1.60039e-06 1.31976e-07 -1.6114e-06
0.00222366 -0.000363286 6.77427e-07
-0.000363286 5.57119e-06 4.84111e-09
6.77427e-07 4.84111e-09 -5.10207e-06
0.00213263 -0.00031182 2.15722e-07
-0.00031182 4.40234e-05 5.66176e-08
2.15722e-07 5.66176e-08 2.01085e-06
0.00213821 -0.00030144 -3.13992e-06
-0.00030144 0.000121634 6.0995e-07
-3.13992e-06 6.0995e-07 2.68809e-05
0.00210412 -0.000400382 3.12492e-06
-0.000400382 8.69361e-05 -1.27291e-06
3.12492e-06 -1.27291e-06 -1.4709e-05
0.00207246 -0.00037193 -1.67657e-07
-0.00037193 0.000128054 -2.23276e-07
-1.67657e-07 -2.23276e-07 -6.00116e-06
0.00192462 -0.000322562 -1.74232e-06
-0.000322562 0.000133101 -3.94586e-07
-1.74232e-06 -3.94586e-07 -3.8387e-05
0.00211856 -0.00043905 1.88572e-06
-0.00043905 0.000202923 3.71473e-07
1.88572e-06 3.71473e-07 3.06968e-05
0.00195032 -0.000378332 -5.51202e-07
-0.000378332 0.000190915 8.64694e-09
-5.51202e-07 8.64694e-09 -1.02433e-05
0.00113586 -0.000218453 -1.18443e-05
-0.000218453 -3.84349e-05 5.14833e-06
-1.18443e-05 5.14833e-06 -0.000229455
0.00193078 -0.000419154 3.58062e-06
-0.000419154 0.000228986 2.20536e-08
3.58062e-06 2.20536e-08 -6.26472e-07
0.00117467 -0.000248947 -3.17855e-08
-0.000248947 -7.5258e-07 2.07473e-07
-3.17855e-08 2.07473e-07 -0.000203907
0.00278482 -0.00018707 -5.94626e-05
-0.00018707 0.00130873 1.28782e-05
-5.94626e-05 1.28782e-05 0.00120806
0.00117801 -0.000282419 1.774e-05
-0.000282419 2.32803e-05 -7.52503e-06
1.774e-05 -7.52503e-06 -0.000195549
0.00294375 -0.00023406 5.10865e-05
-0.00023406 0.00141756 -8.18397e-06
5.10865e-05 -8.18397e-06 0.00131589
0.00235445 -0.000145527 -0.000268392
-0.000145527 0.00114217 4.2998e-05
-0.000268392 4.2998e-05 0.00112102
0.00470604 -0.000130462 -0.000263167
-0.000130462 0.00263678 2.84676e-05
-0.000263167 2.84676e-05 0.0026316
0.00302691 -0.000291428 0.000167615
-0.000291428 0.00148748 -2.79966e-05
0.000167615 -2.79966e-05 0.00138382
0.00745052 -7.89388e-05 0.000317246
-7.89388e-05 0.00436871 -3.47523e-05
0.000317246 -3.47523e-05 0.00437571
0.00230702 0.000460875 -2.46718e-06
0.000460875 0.000215085 -4.99532e-07
-2.46718e-06 -4.99532e-07 7.64129e-05
0.00197625 0.000476167 6.94018e-07
0.000476167 0.000135044 1.6297e-06
6.94018e-07 1.6297e-06 -6.87442e-05
0.00216562 0.000458302 1.91915e-07
0.000458302 0.00015733 -1.51561e-06
1.91915e-07 -1.51561e-06 -6.98076e-06
0.0019399 0.000517048 -5.89292e-06
0.000517048 0.000268704 2.1272e-06
-5.89292e-06 2.1272e-06 -1.06853e-05
0.00225652 0.000624538 8.16049e-07
0.000624538 0.000335076 4.26315e-07
8.16049e-07 4.26315e-07 6.48063e-05
0.00243689 0.000716945 6.20691e-07
0.000716945 0.0005594 -5.58479e-06
6.20691e-07 -5.58479e-06 0.000224359
0.00177313 0.000556867 4.15509e-07
0.000556867 0.000276808 6.00858e-07
4.15509e-07 6.00858e-07 -4.66116e-05
0.00100973 0.000327634 -2.43353e-05
0.000327634 -1.36288e-05 -6.82027e-06
-2.43353e-05 -6.82027e-06 -0.000255282
0.00155272 0.000531923 1.05059e-05
0.000531923 0.000244948 1.13375e-06
1.05059e-05 1.13375e-06 -9.35365e-05
0.000887982 0.000289637 -1.5211e-06
0.000289637 2.49825e-06 -3.76908e-07
-1.5211e-06 -3.76908e-07 -0.000227197
0.000316012 0.000267694 -2.63495e-05
0.000267694 -0.00019162 -1.98879e-05
-2.63495e-05 -1.98879e-05 -0.000339819
0.000386746 0.000220244 1.01966e-05
0.000220244 -0.000207371 2.9701e-06
1.01966e-05 2.9701e-06 -0.000422619
0.000322101 0.000225447 3.20668e-06
0.000225447 -0.00017398 4.64584e-07
3.20668e-06 4.64584e-07 -0.000304307
0.00733628 -2.69746e-05 -0.00029058
-2.69746e-05 0.00433281 -3.10482e-05
-0.00029058 -3.10482e-05 0.00432631
0.00032697 0.000142118 2.38582e-05
0.000142118 -0.000159747 1.85085e-05
2.38582e-05 1.85085e-05 -0.000263427
0.00620716 -0.000152455 7.18572e-06
-0.000152455 0.00365777 -2.74987e-06
7.18572e-06 -2.74987e-06 0.00363898
0.00498246 -0.000227451 0.000124306
-0.000227451 0.00291909 1.26892e-05
0.000124306 1.26892e-05 0.00288326
0.00242876 0.000266432 3.99047e-07
0.000266432 -5.37031e-05 7.4329e-07
3.99047e-07 7.4329e-07 3.05843e-05
0.00221725 0.000231881 1.89185e-06
0.000231881 -0.000224648 -2.74526e-07
1.89185e-06 -2.74526e-07 -7.51077e-05
0.00229216 0.000102985 -7.24443e-05
0.000102985 -0.000193208 -8.65407e-06
-7.24443e-05 -8.65407e-06 0.000177505
0.00224701 0.000399848 8.86826e-07
0.000399848 1.54909e-05 3.53015e-07
8.86826e-07 3.53015e-07 -2.82387e-05
0.00221768 0.00055461 -7.43357e-07
0.00055461 0.000140777 3.4154e-07
-7.43357e-07 3.4154e-07 -3.60615e-05
0.0019864 0.000721585 7.10786e-06
0.000721585 0.00020576 -2.66602e-06
7.10786e-06 -2.66602e-06 -8.64294e-05
0.00240301 0.000593203 -8.9704e-07
0.000593203 0.000334881 -2.9946e-06
-8.9704e-07 -2.9946e-06 0.000108266
0.00242465 0.000430092 -1.03166e-06
0.000430092 -7.08576e-06 -1.43543e-07
-1.03166e-06 -1.43543e-07 1.46443e-06
0.0022719 0.000694589 -2.67804e-06
0.000694589 0.000123361 -3.08082e-07
-2.67804e-06 -3.08082e-07 -7.78286e-05
0.00201691 0.000420222 1.3269e-05
0.000420222 -0.000145028 5.93933e-07
1.3269e-05 5.93933e-07 -0.000125266
0.00221478 7.22491e-05 1.98691e-06
7.22491e-05 -2.69169e-05 3.09017e-07
1.98691e-06 3.09017e-07 1.3825e-05
0.00235285 8.85992e-05 1.37109e-07
8.85992e-05 -7.81352e-05 5.4915e-09
1.37109e-07 5.4915e-09 1.01377e-05
0.00218648 0.000136354 -7.24101e-06
0.000136354 -0.000219903 -1.57372e-06
-7.24101e-06 -1.57372e-06 -0.000117023
0.00206962 -1.3849e-05 -2.51961e-06
-1.3849e-05 -8.88692e-06 2.68856e-07
-2.51961e-06 2.68856e-07 5.69701e-06
0.0023645 -0.000102819 1.73768e-07
-0.000102819 -0.000178177 3.24089e-08
1.73768e-07 3.24089e-08 -4.48755e-05
0.0021698 -7.73987e-05 -6.12313e-07
-7.73987e-05 -3.98802e-05 2.34932e-07
-6.12313e-07 2.34932e-07 6.0588e-06
0.00202826 -0.000113316 -3.01556e-06
-0.000113316 -2.30163e-05 3.36206e-07
-3.01556e-06 3.36206e-07 -2.65276e-05
0.00218817 -0.00025645 1.04406e-07
-0.00025645 -7.88756e-05 1.75506e-07
1.04406e-07 1.75506e-07 -3.4629e-05
0.00209485 -0.000206297 9.9592e-07
-0.000206297 6.15527e-06 -2.99977e-07
9.9592e-07 -2.99977e-07 -4.8012e-06
0.0021416 -0.000211529 -2.19042e-06
-0.000211529 9.47559e-05 4.39677e-07
-2.19042e-06 4.39677e-07 3.32786e-05
0.00213486 -0.000312683 2.93556e-06
-0.000312683 4.00423e-05 -9.48639e-07
2.93556e-06 -9.48639e-07 -2.20559e-06
0.00208885 -0.0002958 1.01562e-07
-0.0002958 9.28276e-05 -3.07773e-07
1.01562e-07 -3.07773e-07 -1.46155e-06
0.00191973 -0.000252724 -1.59086e-06
-0.000252724 0.000104656 -5.06671e-07
-1.59086e-06 -5.06671e-07 -3.70642e-05
0.00203562 -0.00036959 2.61006e-06
-0.00036959 0.000102966 -5.41799e-07
2.61006e-06 -5.41799e-07 -3.11578e-05
0.00197332 -0.000324341 -3.34319e-07
-0.000324341 0.000165062 1.23291e-08
-3.34319e-07 1.23291e-08 -6.20611e-06
0.00115916 -0.000189254 -1.06023e-05
-0.000189254 -4.0225e-05 3.57716e-06
-1.06023e-05 3.57716e-06 -0.000218447
0.00196905 -0.000379433 1.72553e-06
-0.000379433 0.000204367 1.02742e-07
1.72553e-06 1.02742e-07 3.38426e-06
0.00118533 -0.000219565 -2.12656e-07
-0.000219565 -1.43424e-05 2.39494e-07
-2.12656e-07 2.39494e-07 -0.000204235
0.00275183 -0.000177308 -6.66765e-05
-0.000177308 0.00128959 1.23315e-05
-6.66765e-05 1.23315e-05 0.00119345
0.00120378 -0.000250478 1.41296e-05
-0.000250478 9.48609e-06 -6.32391e-06
1.41296e-05 -6.32391e-06 -0.000192855
0.00287935 -0.000208404 4.66467e-05
-0.000208404 0.00136861 -6.46457e-06
4.66467e-05 -6.46457e-06 0.00127611
0.00235028 -0.000123435 -0.000261485
-0.000123435 0.00113078 3.766e-05
-0.000261485 3.766e-05 0.00111229
0.00306277 -0.000240919 0.000161275
-0.000240919 0.00148715 -2.90605e-05
0.000161275 -2.90605e-05 0.00139648
0.00196355 -8.22258e-05 -0.000108096
-8.22258e-05 0.000897627 1.61636e-05
-0.000108096 1.61636e-05 0.00086264
0.00681777 -1.43723e-05 9.97682e-05
-1.43723e-05 0.00395345 -5.40906e-06
9.97682e-05 -5.40906e-06 0.00393418
0.00225819 0.000398532 -1.30446e-06
0.000398532 0.00014499 -4.99572e-07
-1.30446e-06 -4.99572e-07 5.09128e-05
0.00213343 0.00043338 -2.84923e-06
0.00043338 0.000169381 -7.97337e-07
-2.84923e-06 -7.97337e-07 5.38012e-06
0.00229639 0.000462472 -3.48027e-06
0.000462472 0.000199452 -1.21258e-07
-3.48027e-06 -1.21258e-07 5.95222e-05
0.00193476 0.000440023 -2.80603e-06
0.000440023 0.000198471 4.49129e-07
-2.80603e-06 4.49129e-07 -3.68043e-05
0.00196852 0.000483425 -1.09841e-06
0.000483425 0.000110117 -2.33117e-06
-1.09841e-06 -2.33117e-06 -9.04585e-05
0.00219321 0.000450399 -3.34141e-06
0.000450399 0.000183086 -3.93734e-06
-3.34141e-06 -3.93734e-06 2.53939e-05
0.00120729 0.000320122 -2.39447e-05
0.000320122 3.12192e-05 -7.03871e-06
-2.39447e-05 -7.03871e-06 -0.000197316
0.00186969 0.000511917 1.27058e-06
0.000511917 0.000225681 4.3021e-07
1.27058e-06 4.3021e-07 -5.36328e-05
0.00233147 0.000632906 1.29351e-06
0.000632906 0.000366339 -4.75705e-06
1.29351e-06 -4.75705e-06 9.47675e-05
0.00172498 0.000555744 1.00343e-05
0.000555744 0.000238443 -6.03154e-07
1.00343e-05 -6.03154e-07 -8.65415e-05
0.00100693 0.000323521 -2.07156e-06
0.000323521 -1.34656e-05 -4.42011e-08
-2.07156e-06 -4.42011e-08 -0.000253137
0.000276546 0.000248156 -2.57262e-05
0.000248156 -0.000231725 -1.84475e-05
-2.57262e-05 -1.84475e-05 -0.000377327
0.000850948 0.000283675 1.74229e-05
0.000283675 -1.42172e-05 6.43816e-06
1.74229e-05 6.43816e-06 -0.000241002
0.000342607 0.000256271 1.06933e-06
0.000256271 -0.000169506 1.2689e-06
1.06933e-06 1.2689e-06 -0.000318376
0.00756128 6.17726e-05 -0.000307551
6.17726e-05 0.00445728 -3.76316e-05
-0.000307551 -3.76316e-05 0.00445209
0.000279292 0.000203223 2.42062e-05
0.000203223 -0.000204831 2.04952e-05
2.42062e-05 2.04952e-05 -0.000331633
0.0070445 -7.41466e-05 4.28971e-06
-7.41466e-05 0.00414656 -6.44006e-07
4.28971e-06 -6.44006e-07 0.00414088
0.00579142 -0.000180312 0.000172275
-0.000180312 0.00339467 1.15873e-05
0.000172275 1.15873e-05 0.00337404
0.00220717 0.000212886 2.75572e-07
0.000212886 -1.77619e-05 -2.20164e-07
2.75572e-07 -2.20164e-07 8.64476e-06
0.00239934 0.000271269 -2.11916e-07
0.000271269 -8.02592e-05 5.62856e-07
-2.11916e-07 5.62856e-07 5.98028e-06
0.00220828 0.000234794 3.53276e-06
0.000234794 -0.000222414 4.8091e-07
3.53276e-06 4.8091e-07 -7.25574e-05
0.00225518 0.000394881 -8.9256e-08
0.000394881 2.38226e-05 3.95162e-08
-8.9256e-08 3.95162e-08 -1.72206e-05
0.00218757 0.000548851 4.37806e-07
0.000548851 0.000147495 -8.60044e-07
4.37806e-07 -8.60044e-07 -2.72512e-05
0.00238457 0.000414133 2.00092e-06
0.000414133 -2.15219e-05 -2.82406e-07
2.00092e-06 -2.82406e-07 -1.18823e-05
0.00210113 6.50768e-05 -4.24181e-07
6.50768e-05 -9.62333e-06 1.40465e-07
-4.24181e-07 1.40465e-07 3.26785e-06
0.00220057 6.78715e-05 3.3014e-07
6.78715e-05 -3.38384e-05 -1.94685e-07
3.3014e-07 -1.94685e-07 7.41072e-06
0.00228144 8.28563e-05 -9.49788e-07
8.28563e-05 -0.000110089 -1.11903e-07
-9.49788e-07 -1.11903e-07 -2.31085e-05
0.00206821 -1.17484e-05 -8.56473e-07
-1.17484e-05 -1.07705e-05 5.5607e-08
-8.56473e-07 5.5607e-08 2.35426e-06
0.00204381 -3.71778e-05 -5.83368e-06
-3.71778e-05 2.95587e-05 5.41739e-07
-5.83368e-06 5.41739e-07 2.22746e-05
0.00218309 -8.05016e-05 -3.2395e-07
-8.05016e-05 -3.60493e-05 3.19234e-07
-3.2395e-07 3.19234e-07 1.00816e-05
0.00204815 -0.000113042 -1.53446e-06
-0.000113042 -4.18874e-06 2.50192e-07
-1.53446e-06 2.50192e-07 -1.06664e-05
0.00207092 -0.000133067 -6.18023e-06
-0.000133067 4.13875e-05 6.3305e-07
-6.18023e-06 6.3305e-07 4.87899e-07
0.00208898 -0.000204208 3.72307e-06
-0.000204208 2.06809e-06 -8.42245e-07
3.72307e-06 -8.42245e-07 -8.09306e-06
0.00211105 -0.000210934 2.72131e-06
-0.000210934 7.85707e-05 -5.08811e-07
2.72131e-06 -5.08811e-07 1.72218e-05
0.00195674 -0.000184511 6.71737e-07
-0.000184511 0.000111426 -1.13518e-06
6.71737e-07 -1.13518e-06 -6.15653e-06
0.00203321 -0.000291211 3.23503e-06
-0.000291211 5.91708e-05 -1.22243e-06
3.23503e-06 -1.22243e-06 -3.48698e-05
0.00196851 -0.000256717 -1.95635e-07
-0.000256717 0.000129801 1.00578e-08
-1.95635e-07 1.00578e-08 -1.22881e-05
0.00117844 -0.00015277 -1.12138e-05
-0.00015277 -3.45582e-05 2.29407e-06
-1.12138e-05 2.29407e-06 -0.000198746
0.002008 -0.000325689 9.12918e-07
-0.000325689 0.000187141 2.413e-07
9.12918e-07 2.413e-07 1.60304e-05
0.00118511 -0.000187382 -3.76743e-07
-0.000187382 -2.79196e-05 2.92797e-07
-3.76743e-07 2.92797e-07 -0.000204718
0.00266226 -0.000175506 -6.8825e-05
-0.000175506 0.00123744 1.03352e-05
-6.8825e-05 1.03352e-05 0.00114474
0.00122673 -0.000220454 1.12834e-05
-0.000220454 4.0766e-06 -4.77635e-06
1.12834e-05 -4.77635e-06 -0.000184685
0.00283076 -0.000177445 4.45793e-05
-0.000177445 0.00133428 -4.96169e-06
4.45793e-05 -4.96169e-06 0.00124801
0.0023493 -0.000102468 -0.000259339
-0.000102468 0.00112319 3.15448e-05
-0.000259339 3.15448e-05 0.00110613
0.0029734 -0.000200377 0.00015701
-0.000200377 0.00141962 -2.47773e-05
0.00015701 -2.47773e-05 0.00133911
0.00194578 -8.31063e-05 -9.79588e-05
-8.31063e-05 0.000881138 1.28323e-05
-9.79588e-05 1.28323e-05 0.00084858
0.00163742 -7.92324e-05 6.45994e-05
-7.92324e-05 0.00070564 -1.06719e-05
6.45994e-05 -1.06719e-05 0.000652062
0.00209292 0.000249141 -1.57575e-06
0.000249141 2.9913e-07 -7.43543e-07
-1.57575e-06 -7.43543e-07 -3.05538e-05
0.00215083 0.000360902 -3.12512e-06
0.000360902 0.000146343 -1.34836e-07
-3.12512e-06 -1.34836e-07 2.40639e-05
0.0022129 0.000398493 -4.13153e-07
0.000398493 9.4662e-05 -1.36445e-07
-4.13153e-07 -1.36445e-07 9.90149e-06
0.00204753 0.000401636 -3.3846e-08
0.000401636 0.000209035 6.1223e-07
-3.3846e-08 6.1223e-07 1.16107e-05
0.00213895 0.000431071 -1.55404e-06
0.000431071 0.000181727 -6.42083e-07
-1.55404e-06 -6.42083e-07 1.70094e-05
0.00228494 0.000464704 2.39191e-06
0.000464704 0.000183197 3.98049e-07
2.39191e-06 3.98049e-07 4.17878e-05
0.00124922 0.000277166 -1.86238e-05
0.000277166 1.54095e-05 -6.26164e-06
-1.86238e-05 -6.26164e-06 -0.000190815
0.00190179 0.000442965 1.85183e-06
0.000442965 0.000169693 -2.83719e-07
1.85183e-06 -2.83719e-07 -6.09086e-05
0.00197213 0.000491681 -1.73545e-06
0.000491681 9.25804e-05 -5.04641e-06
-1.73545e-06 -5.04641e-06 -0.000104926
0.000288733 0.000196002 -2.2176e-05
0.000196002 -0.000247509 -1.59369e-05
-2.2176e-05 -1.59369e-05 -0.0003795
0.00115818 0.000315556 -6.29686e-07
0.000315556 3.0184e-06 3.77637e-08
-6.29686e-07 3.77637e-08 -0.000225296
0.00179418 0.000507154 7.69227e-06
0.000507154 0.000177362 -1.46489e-06
7.69227e-06 -1.46489e-06 -0.000102083
0.00110681 0.000325884 2.5502e-05
0.000325884 5.26767e-05 8.6299e-06
2.5502e-05 8.6299e-06 -0.000185502
0.000282983 0.000237296 3.61119e-07
0.000237296 -0.000223709 1.05719e-06
3.61119e-07 1.05719e-06 -0.000370538
0.00738056 0.000160887 -0.000311567
0.000160887 0.00432989 -4.17078e-05
-0.000311567 -4.17078e-05 0.00432665
0.000335943 0.000236069 2.25944e-05
0.000236069 -0.000170288 1.90829e-05
2.25944e-05 1.90829e-05 -0.000317153
0.00743504 3.53286e-05 7.94286e-06
3.53286e-05 0.0043661 5.33697e-07
7.94286e-06 5.33697e-07 0.00436925
0.00679873 -0.000105172 0.000237256
-0.000105172 0.00398929 1.48517e-05
0.000237256 1.48517e-05 0.00398422
0.00212307 0.000129288 -2.5704e-06
0.000129288 2.12701e-05 -6.13307e-07
-2.5704e-06 -6.13307e-07 2.74978e-05
0.00219802 0.000217389 7.15071e-07
0.000217389 -2.63062e-05 3.43605e-07
7.15071e-07 3.43605e-07 -2.56888e-06
0.00235325 0.000276326 -3.83466e-07
0.000276326 -0.000113021 -7.03166e-07
-3.83466e-07 -7.03166e-07 -2.51714e-05
0.00225726 0.000388685 1.60107e-06
0.000388685 2.79707e-05 -1.40054e-07
1.60107e-06 -1.40054e-07 -9.91554e-06
0.00201433 2.133e-05 -5.80727e-06
2.133e-05 3.53631e-05 3.58611e-07
-5.80727e-06 3.58611e-07 1.37386e-05
0.00209268 5.58586e-05 -3.96368e-08
5.58586e-05 -1.44562e-05 -2.60117e-08
-3.96368e-08 -2.60117e-08 -9.60474e-07
0.00218567 6.34061e-05 -1.12744e-06
6.34061e-05 -4.05697e-05 -7.08881e-08
-1.12744e-06 -7.08881e-08 6.43555e-07
0.00206567 -8.7462e-06 -3.39294e-07
-8.7462e-06 -1.2921e-05 -3.19186e-07
-3.39294e-07 -3.19186e-07 -1.50662e-06
0.00204631 -3.14669e-05 -7.0393e-07
-3.14669e-05 2.69877e-05 -1.41251e-07
-7.0393e-07 -1.41251e-07 2.11176e-05
0.00190845 -5.75302e-05 -5.24519e-06
-5.75302e-05 -4.4167e-05 4.69646e-07
-5.24519e-06 4.69646e-07 -9.00882e-05
0.00206632 -0.000112841 3.36981e-06
-0.000112841 1.35553e-05 -4.9874e-08
3.36981e-06 -4.9874e-08 3.90606e-06
0.00205953 -0.000134331 -1.92345e-06
-0.000134331 4.24807e-05 3.75725e-07
-1.92345e-06 3.75725e-07 -5.57463e-06
0.00203544 -0.000124306 -1.86485e-06
-0.000124306 0.000147905 -2.67324e-07
-1.86485e-06 -2.67324e-07 5.38673e-05
0.00208618 -0.000209408 7.25849e-06
-0.000209408 6.57552e-05 -1.33793e-06
7.25849e-06 -1.33793e-06 4.73486e-06
0.00196164 -0.000183389 1.50733e-06
-0.000183389 0.000106383 -5.84622e-07
1.50733e-06 -5.84622e-07 -1.0769e-05
0.00114591 -0.000114033 -1.18086e-05
-0.000114033 -5.28893e-05 1.53896e-06
-1.18086e-05 1.53896e-06 -0.000203968
0.00204825 -0.0002596 1.56532e-06
-0.0002596 0.000176427 3.93245e-07
1.56532e-06 3.93245e-07 3.44686e-05
0.00117007 -0.000151493 -1.08094e-07
-0.000151493 -3.95486e-05 1.78759e-07
-1.08094e-07 1.78759e-07 -0.000202761
0.00035568 -9.02487e-05 -1.94294e-05
-9.02487e-05 -0.000231667 5.86948e-06
-1.94294e-05 5.86948e-06 -0.000332815
0.00123315 -0.000186509 1.0255e-05
-0.000186509 -2.60471e-06 -3.15133e-06
1.0255e-05 -3.15133e-06 -0.000177944
0.00158717 -0.000115436 6.57615e-05
-0.000115436 0.000543627 -5.16988e-06
6.57615e-05 -5.16988e-06 0.00045504
0.00678305 -0.00017219 -0.000344508
-0.00017219 0.00393874 2.6377e-05
-0.000344508 2.6377e-05 0.00395887
0.00291963 -0.000160203 0.000154043
-0.000160203 0.00137961 -1.95459e-05
0.000154043 -1.95459e-05 0.0013057
0.00194721 -8.00357e-05 -8.88531e-05
-8.00357e-05 0.000880685 8.40088e-06
-8.88531e-05 8.40088e-06 0.000848002
0.00155761 -0.000101889 7.65932e-05
-0.000101889 0.000659057 -1.25084e-05
7.65932e-05 -1.25084e-05 0.000604569
0.00204038 0.000169506 -3.46186e-06
0.000169506 1.4263e-05 -1.08264e-06
-3.46186e-06 -1.08264e-06 -1.4436e-05
0.00206055 0.000273644 -1.78543e-06
0.000273644 6.01694e-05 -2.74614e-08
-1.78543e-06 -2.74614e-08 -2.25007e-05
0.00210772 0.000243184 -1.41045e-07
0.000243184 2.10935e-05 -1.06378e-08
-1.41045e-07 -1.06378e-08 -1.57333e-05
0.00208529 0.000328314 5.64437e-07
0.000328314 0.000205362 1.28572e-06
5.64437e-07 1.28572e-06 4.64913e-05
0.00206611 0.000356147 9.88537e-07
0.000356147 9.2031e-05 2.2207e-07
9.88537e-07 2.2207e-07 -2.97627e-05
0.00216826 0.00039872 1.0037e-06
0.00039872 4.4782e-05 2.17674e-07
1.0037e-06 2.17674e-07 -3.08836e-05
0.00128116 0.000243855 -1.41768e-05
0.000243855 1.71548e-05 -4.0209e-06
-1.41768e-05 -4.0209e-06 -0.000167915
0.0020411 0.000398367 2.14092e-06
0.000398367 0.000206255 5.44802e-07
2.14092e-06 5.44802e-07 9.96036e-06
0.00212621 0.000427304 9.34947e-07
0.000427304 0.000182638 -1.31976e-06
9.34947e-07 -1.31976e-06 1.74562e-05
0.000319933 0.000139172 -1.93874e-05
0.000139172 -0.000250912 -1.24586e-05
-1.93874e-05 -1.24586e-05 -0.000367283
0.00119135 0.000274246 4.81797e-07
0.000274246 -1.88969e-05 4.72102e-07
4.81797e-07 4.72102e-07 -0.000222897
0.001856 0.000444029 6.68907e-06
0.000444029 0.000133506 -1.74751e-06
6.68907e-06 -1.74751e-06 -9.19528e-05
0.0071686 0.000233189 -0.0003187
0.000233189 0.00418687 -4.142e-05
-0.0003187 -4.142e-05 0.00418759
0.000312969 0.000188977 1.66674e-07
0.000188977 -0.000233855 7.12701e-07
1.66674e-07 7.12701e-07 -0.000366254
0.00114328 0.000312906 2.49887e-05
0.000312906 -1.10285e-06 7.67394e-06
2.49887e-05 7.67394e-06 -0.000229337
0.000387524 0.000230987 2.27315e-05
0.000230987 -0.000156036 1.78398e-05
2.27315e-05 1.78398e-05 -0.000304956
0.00741632 0.000153967 1.05583e-05
0.000153967 0.00434616 1.65589e-06
1.05583e-05 1.65589e-06 0.00434953
0.00731981 -3.88308e-06 0.000290342
-3.88308e-06 0.00428273 2.11488e-05
0.000290342 2.11488e-05 0.00429032
0.00198102 7.35578e-05 -7.50095e-06
7.35578e-05 1.7682e-05 -1.55137e-07
-7.50095e-06 -1.55137e-07 -9.00875e-06
0.00211163 0.000125453 8.05021e-08
0.000125453 1.53373e-05 -2.26146e-08
8.05021e-08 -2.26146e-08 2.00466e-05
0.00219198 0.000221929 1.7673e-07
0.000221929 -3.31567e-05 1.57938e-07
1.7673e-07 1.57938e-07 -1.17575e-05
0.00194949 6.33093e-06 -6.5121e-06
6.33093e-06 4.78462e-06 1.75523e-07
-6.5121e-06 1.75523e-07 -4.75564e-05
0.00199575 2.63365e-05 4.79662e-07
2.63365e-05 1.96636e-05 9.38033e-09
4.79662e-07 9.38033e-09 1.01246e-06
0.00208668 4.5639e-05 -1.70493e-07
4.5639e-05 -1.80524e-05 -9.5338e-08
-1.70493e-07 -9.5338e-08 -3.88258e-06
0.00204963 -2.63454e-05 3.59215e-06
-2.63454e-05 2.43941e-05 -3.59659e-07
3.59215e-06 -3.59659e-07 2.03994e-05
0.00197443 -5.63225e-05 -1.16983e-06
-5.63225e-05 2.08942e-06 1.59156e-07
-1.16983e-06 1.59156e-07 -4.24056e-05
0.00188149 -6.01458e-05 -8.18268e-07
-6.01458e-05 6.12491e-05 -1.86407e-07
-8.18268e-07 -1.86407e-07 -3.31312e-05
0.00206537 -0.000135733 2.59062e-06
-0.000135733 5.5884e-05 -5.30694e-08
2.59062e-06 -5.30694e-08 8.95903e-07
0.00195854 -0.000125037 5.38931e-07
-0.000125037 0.000101606 2.53507e-08
5.38931e-07 2.53507e-08 -6.76555e-07
0.00122782 -7.0339e-05 -1.17086e-05
-7.0339e-05 5.73359e-06 6.65494e-07
-1.17086e-05 6.65494e-07 -0.000125846
0.00194582 -0.000183901 3.06953e-06
-0.000183901 8.7356e-05 -1.67682e-07
3.06953e-06 -1.67682e-07 -2.98501e-05
0.00114343 -0.000109299 -3.05675e-08
-0.000109299 -5.09227e-05 3.78753e-08
-3.05675e-08 3.78753e-08 -0.000200858
0.000382157 -2.48597e-05 -1.81833e-05
-2.48597e-05 -0.000217871 3.20742e-06
-1.81833e-05 3.20742e-06 -0.000311344
0.00118073 -0.000149245 1.08498e-05
-0.000149245 -3.35191e-05 -1.96756e-06
1.08498e-05 -1.96756e-06 -0.000195456
0.000376401 -7.59734e-05 -2.86989e-07
-7.59734e-05 -0.000218316 5.0121e-07
-2.86989e-07 5.0121e-07 -0.000319545
0.00667673 -6.20444e-05 -0.000333251
-6.20444e-05 0.00386641 1.64046e-05
-0.000333251 1.64046e-05 0.00389193
0.000438594 -7.88461e-05 1.41186e-05
-7.88461e-05 -0.000184437 -8.18119e-06
1.41186e-05 -8.18119e-06 -0.000291342
0.00426172 -0.000112273 0.000146746
-0.000112273 0.00234942 -7.9398e-06
0.000146746 -7.9398e-06 0.00233328
0.00153439 -9.32218e-05 8.28924e-05
-9.32218e-05 0.000643001 -1.21046e-05
8.28924e-05 -1.21046e-05 0.000589416
0.00205108 0.000131677 -8.0963e-06
0.000131677 6.5836e-05 -8.55767e-07
-8.0963e-06 -8.55767e-07 3.08599e-05
0.00211423 0.000202755 -3.27883e-06
0.000202755 0.000104768 -4.42283e-08
-3.27883e-06 -4.42283e-08 3.40904e-05
0.00202832 0.000163808 -6.60586e-07
0.000163808 1.00249e-05 -1.34983e-07
-6.60586e-07 -1.34983e-07 -1.84936e-05
0.00199253 0.000255216 -4.57562e-07
0.000255216 0.000132187 9.8113e-07
-4.57562e-07 9.8113e-07 -9.081e-06
0.0021053 0.000274428 9.1387e-09
0.000274428 8.6785e-05 -8.59616e-08
9.1387e-09 -8.59616e-08 1.87281e-06
0.00212066 0.000237233 2.81123e-06
0.000237233 4.07009e-05 8.66088e-07
2.81123e-06 8.66088e-07 -1.96182e-06
0.00124099 0.000197603 -1.1699e-05
0.000197603 -1.2071e-05 -2.5858e-06
-1.1699e-05 -2.5858e-06 -0.000180147
0.0020305 0.000323754 2.4863e-06
0.000323754 0.000178699 8.46322e-07
2.4863e-06 8.46322e-07 1.34104e-05
0.00199587 0.000352086 1.91904e-06
0.000352086 4.73947e-05 -1.74401e-07
1.91904e-06 -1.74401e-07 -7.38539e-05
0.0003385 9.85252e-05 -1.79088e-05
9.85252e-05 -0.000250201 -9.08118e-06
-1.79088e-05 -9.08118e-06 -0.000356829
0.00122483 0.000238843 -2.56019e-07
0.000238843 -1.55269e-05 5.12445e-07
-2.56019e-07 5.12445e-07 -0.000199561
0.00204372 0.000396034 4.74342e-06
0.000396034 0.00020963 6.0756e-07
4.74342e-06 6.0756e-07 1.42351e-05
0.00698996 0.000283178 -0.000334475
0.000283178 0.00407772 -3.98001e-05
-0.000334475 -3.98001e-05 0.00407958
0.000323476 0.000138639 2.14949e-08
0.000138639 -0.000252176 3.99803e-07
2.14949e-08 3.99803e-07 -0.00036927
0.0011245 0.000272127 1.829e-05
0.000272127 -6.06115e-05 5.94274e-06
1.829e-05 5.94274e-06 -0.000262724
0.00717599 0.000251655 1.39621e-05
0.000251655 0.00420002 4.1534e-06
1.39621e-05 4.1534e-06 0.00419826
0.000290788 0.000179804 1.99478e-05
0.000179804 -0.000249966 1.58482e-05
1.99478e-05 1.58482e-05 -0.000382469
0.00730226 0.00012086 0.000319702
0.00012086 0.00426104 3.02204e-05
0.000319702 3.02204e-05 0.00427325
0.00191248 5.63011e-05 -6.74931e-06
5.63011e-05 -1.82679e-05 7.18913e-08
-6.74931e-06 7.18913e-08 -7.37932e-05
0.00201127 7.97165e-05 -9.06227e-07
7.97165e-05 4.32336e-05 -1.77638e-07
-9.06227e-07 -1.77638e-07 1.60193e-05
0.00209792 0.000121942 2.21589e-06
0.000121942 8.77307e-06 3.68282e-07
2.21589e-06 3.68282e-07 1.18318e-05
0.00187291 -7.91844e-06 -1.4181e-07
-7.91844e-06 6.24277e-05 -2.15662e-07
-1.4181e-07 -2.15662e-07 -3.0396e-05
0.00197564 7.61017e-06 -1.56121e-06
7.61017e-06 2.20057e-05 9.76993e-08
-1.56121e-06 9.76993e-08 -2.74606e-05
0.00197672 3.24667e-05 6.31947e-06
3.24667e-05 3.84005e-06 -1.1352e-07
6.31947e-06 -1.1352e-07 -1.19795e-05
0.00203861 -5.51336e-05 2.66308e-06
-5.51336e-05 4.74514e-05 -1.10845e-07
2.66308e-06 -1.10845e-07 4.12761e-06
0.00192657 -6.00511e-05 1.62779e-06
-6.00511e-05 9.22623e-05 -1.01297e-09
1.62779e-06 -1.01297e-09 -1.0309e-06
0.00119275 -3.09072e-05 -1.14519e-05
-3.09072e-05 -6.90711e-06 -5.57123e-08
-1.14519e-05 -5.57123e-08 -0.000130955
0.0018623 -0.000125658 8.27186e-07
-0.000125658 4.19342e-05 2.83609e-07
8.27186e-07 2.83609e-07 -6.87014e-05
0.00115107 -6.93562e-05 8.4296e-07
-6.93562e-05 -4.19509e-05 -1.65826e-07
8.4296e-07 -1.65826e-07 -0.000177619
0.000377056 -9.14213e-06 -1.84029e-05
-9.14213e-06 -0.000220432 1.97738e-06
-1.84029e-05 1.97738e-06 -0.000309662
0.00111177 -0.000105141 1.08196e-05
-0.000105141 -6.58692e-05 -1.41375e-06
1.08196e-05 -1.41375e-06 -0.000214934
0.000341872 -3.6421e-05 9.06956e-07
-3.6421e-05 -0.000242313 -3.08069e-07
9.06956e-07 -3.08069e-07 -0.000335271
0.00646095 -0.000156817 -0.000334167
-0.000156817 0.00374884 1.77737e-05
-0.000334167 1.77737e-05 0.00376788
0.000361829 -6.0187e-05 1.75773e-05
-6.0187e-05 -0.000228177 -4.36914e-06
1.75773e-05 -4.36914e-06 -0.000328541
0.00661897 -9.88472e-05 7.81541e-06
-9.88472e-05 0.00383385 2.27729e-08
7.81541e-06 2.27729e-08 0.00385852
0.00185627 -3.85471e-05 0.000258397
-3.85471e-05 0.000813759 -1.78579e-05
0.000258397 -1.78579e-05 0.000804375
0.00202713 0.000134478 -6.51014e-06
0.000134478 5.37458e-05 -5.83438e-07
-6.51014e-06 -5.83438e-07 -1.25788e-05
0.00200721 0.000132869 -1.76895e-06
0.000132869 2.85585e-05 -1.23623e-07
-1.76895e-06 -1.23623e-07 -2.0489e-06
0.00193915 0.000184054 -1.28311e-07
0.000184054 9.25547e-05 9.43162e-07
-1.28311e-07 9.43162e-07 -2.77368e-05
0.00211721 0.000202546 7.1682e-07
0.000202546 0.000102208 2.27848e-08
7.1682e-07 2.27848e-08 3.19587e-05
0.00201455 0.000157903 4.3671e-06
0.000157903 4.05795e-06 6.74282e-07
4.3671e-06 6.74282e-07 -2.41587e-05
0.0011868 0.000149322 -1.11609e-05
0.000149322 -3.15936e-05 -1.67893e-06
-1.11609e-05 -1.67893e-06 -0.000190887
0.00199184 0.000252998 1.68667e-07
0.000252998 0.000138378 9.2781e-08
1.68667e-07 9.2781e-08 -2.57073e-06
0.00214648 0.000274918 3.13544e-06
0.000274918 0.000111186 2.36017e-07
3.13544e-06 2.36017e-07 2.39126e-05
0.000359252 7.1684e-05 -1.75851e-05
7.1684e-05 -0.000238618 -6.33362e-06
-1.75851e-05 -6.33362e-06 -0.000339981
0.00120483 0.000196366 3.72034e-07
0.000196366 -3.09694e-05 5.36905e-07
3.72034e-07 5.36905e-07 -0.000202387
0.00196944 0.000318743 1.77748e-06
0.000318743 0.000148916 3.81802e-07
1.77748e-06 3.81802e-07 -2.275e-05
0.00683372 0.00029017 -0.000349947
0.00029017 0.00399022 -3.66661e-05
-0.000349947 -3.66661e-05 0.00399205
0.000359358 0.000102112 3.37466e-07
0.000102112 -0.000239894 2.30089e-07
3.37466e-07 2.30089e-07 -0.000347419
0.00116623 0.000233401 1.09093e-05
0.000233401 -5.02621e-05 4.50413e-06
1.09093e-05 4.50413e-06 -0.000233073
0.00703393 0.000308225 1.03357e-05
0.000308225 0.00411787 5.06544e-06
1.03357e-05 5.06544e-06 0.00411394
0.000357007 0.000138503 1.8454e-05
0.000138503 -0.000234938 1.28538e-05
1.8454e-05 1.28538e-05 -0.000352595
0.00725836 0.000257508 0.000340604
0.000257508 0.00424372 4.05591e-05
0.000340604 4.05591e-05 0.00424807
0.00184314 5.29993e-05 1.46551e-06
5.29993e-05 4.54743e-05 -1.10822e-07
1.46551e-06 -1.10822e-07 -5.16909e-05
0.00197917 5.77203e-05 -3.30349e-06
5.77203e-05 3.28288e-05 -1.03668e-07
-3.30349e-06 -1.03668e-07 -2.35102e-05
0.00204116 8.53193e-05 7.17692e-06
8.53193e-05 6.8566e-05 2.59456e-07
7.17692e-06 2.59456e-07 4.07891e-05
0.00115663 -1.15758e-05 -1.19126e-05
-1.15758e-05 -2.36786e-05 -2.76426e-07
-1.19126e-05 -2.76426e-07 -0.000145819
0.00191446 -3.87903e-06 2.13986e-06
-3.87903e-06 9.21769e-05 -2.76967e-08
2.13986e-06 -2.76967e-08 -6.83112e-08
0.00200496 8.35887e-06 2.56388e-06
8.35887e-06 4.14667e-05 4.18466e-08
2.56388e-06 4.18466e-08 -4.90924e-06
0.00197652 -6.04299e-05 3.71591e-06
-6.04299e-05 0.000126681 1.7198e-07
3.71591e-06 1.7198e-07 3.44593e-05
0.00116975 -3.23928e-05 6.66083e-07
-3.23928e-05 -2.48058e-05 -8.21796e-08
6.66083e-07 -8.21796e-08 -0.000149167
0.000383387 -3.25447e-05 -1.8948e-05
-3.25447e-05 -0.000214313 7.81989e-07
-1.8948e-05 7.81989e-07 -0.000299506
0.00106462 -6.75354e-05 1.20066e-05
-6.75354e-05 -9.56541e-05 -1.13941e-06
1.20066e-05 -1.13941e-06 -0.000235399
0.000359563 2.29205e-06 4.40134e-07
2.29205e-06 -0.000232571 9.25004e-08
4.40134e-07 9.25004e-08 -0.000320543
0.00637143 -0.000126776 -0.000334029
-0.000126776 0.00369161 1.33287e-05
-0.000334029 1.33287e-05 0.00371393
0.000381053 -4.46838e-05 1.83751e-05
-4.46838e-05 -0.000215519 -2.96671e-06
1.83751e-05 -2.96671e-06 -0.000309622
0.00646403 -5.18289e-05 -3.02335e-06
-5.18289e-05 0.00373776 3.00994e-06
-3.02335e-06 3.00994e-06 0.00376482
0.00656304 -0.000112298 0.000333011
-0.000112298 0.00380031 -1.58717e-05
0.000333011 -1.58717e-05 0.00382501
0.00190191 0.000115724 -1.84245e-07
0.000115724 7.69422e-05 2.80347e-07
-1.84245e-07 2.80347e-07 -2.97308e-05
0.00203272 0.00013268 -3.17569e-06
0.00013268 5.02669e-05 -4.53669e-07
-3.17569e-06 -4.53669e-07 -1.03924e-05
0.0019672 0.000134619 6.30742e-06
0.000134619 -6.21872e-06 6.68284e-07
6.30742e-06 6.68284e-07 -3.24535e-05
0.00117352 0.000100592 -1.17033e-05
0.000100592 -2.84507e-05 -1.01383e-06
-1.17033e-05 -1.01383e-06 -0.000174484
0.0019695 0.00018326 3.23981e-07
0.00018326 0.000116606 -1.43415e-07
3.23981e-07 -1.43415e-07 -3.54433e-06
0.00211918 0.000202226 3.44695e-06
0.000202226 9.90414e-05 -1.18761e-07
3.44695e-06 -1.18761e-07 2.92198e-05
0.00038545 4.96027e-05 -1.72182e-05
4.96027e-05 -0.000220503 -4.1971e-06
-1.72182e-05 -4.1971e-06 -0.00031739
0.00118073 0.000151564 2.77864e-07
0.000151564 -3.53545e-05 2.97256e-07
2.77864e-07 2.97256e-07 -0.000196076
0.00199414 0.000251046 9.40351e-07
0.000251046 0.000145817 -8.85861e-07
9.40351e-07 -8.85861e-07 5.16147e-06
0.00669012 0.00024196 -0.000359017
0.00024196 0.00389873 -2.98927e-05
-0.000359017 -2.98927e-05 0.00390898
0.000386668 7.86276e-05 7.8252e-07
7.86276e-05 -0.00022266 2.05344e-07
7.8252e-07 2.05344e-07 -0.000325507
0.00117544 0.000195312 9.14103e-06
0.000195312 -4.84994e-05 3.25564e-06
9.14103e-06 3.25564e-06 -0.00022313
0.00691037 0.000307748 5.68037e-06
0.000307748 0.00404333 3.49475e-06
5.68037e-06 3.49475e-06 0.00404301
0.000384863 0.000107806 1.73923e-05
0.000107806 -0.000225346 9.93516e-06
1.73923e-05 9.93516e-06 -0.000334367
0.00708938 0.000343226 0.000351059
0.000343226 0.00416212 4.68289e-05
0.000351059 4.68289e-05 0.00415327
0.00108349 2.837e-05 -1.20477e-05
2.837e-05 -6.84525e-05 -6.17516e-07
-1.20477e-05 -6.17516e-07 -0.00019945
0.00190915 5.08116e-05 2.33763e-06
5.08116e-05 8.772e-05 1.09524e-08
2.33763e-06 1.09524e-08 -5.09363e-06
0.00205 5.95634e-05 1.51901e-06
5.95634e-05 8.61067e-05 1.35713e-07
1.51901e-06 1.35713e-07 2.90987e-05
0.000422285 3.19781e-05 -1.94596e-05
3.19781e-05 -0.000197324 -9.73291e-07
-1.94596e-05 -9.73291e-07 -0.000273768
0.00112772 -6.20062e-06 4.48742e-07
-6.20062e-06 -4.49709e-05 2.99146e-08
4.48742e-07 2.99146e-08 -0.000167138
0.00194975 1.59185e-06 4.21866e-06
1.59185e-06 0.000117578 4.43518e-09
4.21866e-06 4.43518e-09 2.58001e-05
0.00114226 -3.34211e-05 1.27059e-05
-3.34211e-05 -4.58749e-05 -4.35581e-07
1.27059e-05 -4.35581e-07 -0.000170535
0.000380066 -5.93384e-06 4.78389e-07
-5.93384e-06 -0.000216606 3.73878e-07
4.78389e-07 3.73878e-07 -0.000301705
0.00625221 1.01066e-05 -0.000335615
1.01066e-05 0.00360898 2.06583e-06
-0.000335615 2.06583e-06 0.00363904
0.000334147 1.41909e-05 1.78128e-05
1.41909e-05 -0.000250275 -8.87531e-07
1.78128e-05 -8.87531e-07 -0.000336749
0.00632597 -0.000124196 -7.95375e-06
-0.000124196 0.00366498 2.09833e-06
-7.95375e-06 2.09833e-06 0.00368685
0.00639154 -3.40347e-05 0.000319928
-3.40347e-05 0.00369259 -8.59822e-06
0.000319928 -8.59822e-06 0.00371987
0.00114639 6.01563e-05 -1.19553e-05
6.01563e-05 -3.63228e-05 -1.03691e-06
-1.19553e-05 -1.03691e-06 -0.000172222
0.00194666 0.000112702 -2.85313e-07
0.000112702 0.000104922 -4.00453e-07
-2.85313e-07 -4.00453e-07 2.64889e-06
0.0020142 0.000130127 2.36385e-08
0.000130127 3.06171e-05 -5.24785e-07
2.36385e-08 -5.24785e-07 -2.47207e-05
0.00272 6.6426e-05 -0.000153679
6.6426e-05 0.00125636 -5.52125e-06
-0.000153679 -5.52125e-06 0.00120217
0.00115186 0.000102707 3.09206e-07
0.000102707 -4.4183e-05 1.70638e-07
3.09206e-07 1.70638e-07 -0.000191154
0.00201349 0.000182794 1.16432e-06
0.000182794 0.000149621 -1.19049e-06
1.16432e-06 -1.19049e-06 2.96278e-05
0.00650898 0.000174786 -0.000356176
0.000174786 0.00377862 -2.12375e-05
-0.000356176 -2.12375e-05 0.00379864
0.000395496 6.81527e-05 1.1464e-06
6.81527e-05 -0.000210832 5.10661e-07
1.1464e-06 5.10661e-07 -0.000310076
0.00118399 0.000153393 1.12756e-05
0.000153393 -3.21216e-05 2.16338e-06
1.12756e-05 2.16338e-06 -0.000194141
0.00676353 0.000257521 8.60323e-07
0.000257521 0.0039461 1.56351e-06
8.60323e-07 1.56351e-06 0.00395483
0.000389918 8.69889e-05 1.7548e-05
8.69889e-05 -0.000219677 7.47609e-06
1.7548e-05 7.47609e-06 -0.00032463
0.00698702 0.000343922 0.000361388
0.000343922 0.00410508 4.59597e-05
0.000361388 4.59597e-05 0.0040977
0.000509761 1.24667e-05 -1.54128e-05
1.24667e-05 -0.000131766 -2.05043e-06
-1.54128e-05 -2.05043e-06 -0.000217483
0.00109692 2.79374e-05 2.61326e-08
2.79374e-05 -6.44511e-05 1.75924e-07
2.61326e-08 1.75924e-07 -0.000192306
0.00197023 4.72531e-05 4.23334e-06
4.72531e-05 0.000126544 -1.40228e-07
4.23334e-06 -1.40228e-07 3.8036e-05
0.00606934 -0.000103654 -0.000316917
-0.000103654 0.00351323 4.49232e-06
-0.000316917 4.49232e-06 0.00353197
0.000379591 9.84209e-06 -5.85836e-07
9.84209e-06 -0.000219811 -1.48836e-07
-5.85836e-07 -1.48836e-07 -0.000298906
0.00111541 -2.1181e-06 1.26579e-05
-2.1181e-06 -5.59797e-05 3.40425e-08
1.26579e-05 3.40425e-08 -0.000178109
0.000337701 2.08093e-05 1.81491e-05
2.08093e-05 -0.000244942 4.95237e-07
1.81491e-05 4.95237e-07 -0.00032871
0.00618709 -2.52376e-05 1.87613e-06
-2.52376e-05 0.00357485 -1.71831e-06
1.87613e-06 -1.71831e-06 0.00359991
0.00631124 -4.74104e-05 0.000324208
-4.74104e-05 0.00364342 -6.13138e-06
0.000324208 -6.13138e-06 0.00367151
0.00278708 1.84448e-05 -0.000146942
1.84448e-05 0.00129889 -3.09849e-06
-0.000146942 -3.09849e-06 0.00124924
0.00111594 6.32405e-05 7.79086e-08
6.32405e-05 -5.76665e-05 -8.22573e-08
7.79086e-08 -8.22573e-08 -0.00019438
0.00200756 0.000110121 1.75216e-06
0.000110121 0.000144289 -7.94401e-07
1.75216e-06 -7.94401e-07 4.66644e-05
0.00596313 -2.92814e-05 -0.000142636
-2.92814e-05 0.00344891 1.47415e-07
-0.000142636 1.47415e-07 0.00343807
0.000384297 5.98128e-05 2.14073e-07
5.98128e-05 -0.000214892 2.99977e-07
2.14073e-07 2.99977e-07 -0.000307619
0.00110991 0.000104509 1.18509e-05
0.000104509 -7.27028e-05 1.33335e-06
1.18509e-05 1.33335e-06 -0.000220668
0.00659738 0.000151958 -1.07013e-05
0.000151958 0.0038285 -1.85241e-06
-1.07013e-05 -1.85241e-06 0.00384966
0.00040029 9.04516e-05 1.91787e-05
9.04516e-05 -0.000206046 5.97378e-06
1.91787e-05 5.97378e-06 -0.00030679
0.00686064 0.000282136 0.000367097
0.000282136 0.00401264 3.85483e-05
0.000367097 3.85483e-05 0.00401907
0.00183905 -5.38905e-05 -0.000249507
-5.38905e-05 0.000808977 1.47812e-06
-0.000249507 1.47812e-06 0.000810056
0.00157511 3.23267e-05 -6.33862e-05
3.23267e-05 0.000533177 3.43684e-08
-6.33862e-05 3.43684e-08 0.000470894
0.00110325 3.01101e-05 1.25906e-05
3.01101e-05 -6.42977e-05 6.266e-07
1.25906e-05 6.266e-07 -0.000189087
0.00614339 -5.03789e-05 6.67856e-06
-5.03789e-05 0.00355305 2.83662e-06
6.67856e-06 2.83662e-06 0.00357751
0.000396392 -1.11675e-05 1.8773e-05
-1.11675e-05 -0.00020262 9.07395e-07
1.8773e-05 9.07395e-07 -0.000285689
0.00621935 -8.73781e-05 0.000335403
-8.73781e-05 0.00359966 -5.61358e-06
0.000335403 -5.61358e-06 0.00362416
0.00139941 2.36987e-05 -6.66969e-05
2.36987e-05 0.000559925 -1.21351e-06
-6.66969e-05 -1.21351e-06 0.000519804
0.00157088 2.05339e-05 -6.45831e-05
2.05339e-05 0.000532098 -1.59286e-06
-6.45831e-05 -1.59286e-06 0.000464766
0.00108339 6.49076e-05 1.1931e-05
6.49076e-05 -8.01882e-05 8.50254e-07
1.1931e-05 8.50254e-07 -0.000217701
0.00394187 7.24239e-05 0.000125977
7.24239e-05 0.00215274 3.99068e-06
0.000125977 3.99068e-06 0.00214596
0.000412395 7.02968e-05 1.96326e-05
7.02968e-05 -0.000197469 4.41298e-06
1.96326e-05 4.41298e-06 -0.000290093
0.00667803 0.000139096 0.000349318
0.000139096 0.00387088 2.30855e-05
0.000349318 2.30855e-05 0.00389578
0.00609245 -1.97251e-05 -8.74098e-06
-1.97251e-05 0.00352456 -3.38748e-06
-8.74098e-06 -3.38748e-06 0.00354761
0.000390211 5.1252e-05 2.04328e-05
5.1252e-05 -0.000218031 2.61217e-06
2.04328e-05 2.61217e-06 -0.000294041
0.00605314 3.40419e-05 0.000323048
3.40419e-05 0.00349171 1.76332e-07
0.000323048 1.76332e-07 0.00351997
0.00379639 3.39854e-05 0.000136955
3.39854e-05 0.00206705 5.54158e-06
0.000136955 5.54158e-06 0.00206282
0.000420256 1.02803e-05 1.88453e-05
1.02803e-05 -0.000191223 2.58713e-06
1.88453e-05 2.58713e-06 -0.00027674
0.00643058 7.45564e-06 0.000335573
7.45564e-06 0.00371693 1.04086e-05
0.000335573 1.04086e-05 0.00374423
0.00615209 -0.000116096 0.000321959
-0.000116096 0.00356567 -4.40112e-06
0.000321959 -4.40112e-06 0.00358455
0.00620714 1.34969e-05 0.00032665
1.34969e-05 0.00357817 6.0858e-06
0.00032665 6.0858e-06 0.0036085
