# vtk DataFile Version 2.0
Wound Healing Simulation
ASCII
DATASET UNSTRUCTURED_GRID
POINTS 3012 float
69.9759 18.75 4
67.2507 60.3285 4
69.976 18.75 2
73.0099 25.446 4
71.1327 20.9142 4
68.6801 16.6661 4
67.82 19.9249 3.97091
67.2507 60.3286 2
71.1327 54.0858 4
68.6801 58.3339 4
65.6939 62.2254 4
65.3071 58.9988 3.97011
74.6784 42.3946 4
73.7221 47.2057 4
69.9759 18.75 0
73.0099 25.446 2
68.6801 16.6661 2
71.1327 20.9142 2
67.8205 19.9291 2
74.6792 32.6053 4
73.7222 27.7943 4
72.1454 23.1494 4
70.6105 26.2215 3.97141
68.8807 21.9568 3.97139
67.2507 14.6715 4
66.6309 17.972 3.96988
65.7163 21.0527 3.96092
67.2507 60.3285 0
71.1327 54.0858 2
68.6801 58.3339 2
65.694 62.2255 2
65.3083 58.9938 2
72.1454 51.8506 4
69.9759 56.25 4
68.8314 53.1145 3.97135
64.0165 64.0165 4
66.6049 57.1332 3.97092
63.8797 60.7608 3.96717
63.4422 57.7444 3.95834
60.3285 67.2507 4
74.6792 42.3947 2
73.7222 47.2057 2
74.9194 39.9526 4
74.2788 44.8158 4
72.1655 42.0859 3.97379
73.0099 49.554 4
71.246 46.5983 3.97219
73.0099 25.446 0
71.1327 20.9142 0
68.6801 16.6661 0
67.82 19.9249 0.0290897
74.6792 32.6053 2
73.7222 27.7943 2
67.2508 14.6715 2
72.1455 23.1494 2
70.6098 26.2228 2
66.6322 17.9768 2
68.8808 21.9599 2
65.7164 21.054 2
74.9197 35.0474 4
74.2794 30.1841 4
72.1822 32.9448 3.97381
71.2752 28.4326 3.97208
69.8113 24.0591 3.97148
68.2979 26.9669 3.96402
66.6894 22.9568 3.96221
65.694 12.7746 4
65.3177 16.1054 3.96908
64.6302 19.2256 3.95914
63.671 22.1198 3.96526
71.1327 54.0858 0
65.6939 62.2254 0
68.6801 58.3339 0
65.3071 58.9988 0.0298899
72.1455 51.8506 2
69.9759 56.25 2
68.8315 53.1113 2
64.0165 64.0165 2
66.6061 57.1283 2
63.8806 60.7551 2
63.4335 57.7436 2
62.2254 65.694 4
58.8894 65.4089 3.97469
69.7645 50.99 3.97135
67.7782 55.1683 3.97119
66.5649 52.1844 3.96269
62.3308 62.4218 3.96846
64.5811 56.0034 3.96016
62.1847 59.3804 3.95543
61.6425 56.5948 3.96075
58.3339 68.6801 4
60.3285 67.2508 2
73.7221 47.2057 0
74.6784 42.3946 0
74.9197 39.9526 2
74.2794 44.8159 2
72.1644 42.0849 2
73.0099 49.554 2
71.2452 46.5968 2
75 37.5 4
72.4028 39.8027 3.97467
71.7795 44.3531 3.97317
69.7795 41.7863 3.96688
70.5713 48.8141 3.97154
68.8633 46.0035 3.96567
74.6792 32.6053 0
73.7222 27.7943 0
67.2507 14.6715 0
72.1454 23.1494 0
70.6105 26.2215 0.0285856
68.8807 21.9568 0.028613
66.6309 17.972 0.0301175
65.7163 21.0527 0.0390811
74.9197 35.0474 2
74.2794 30.1841 2
72.1809 32.945 2
71.2742 28.4335 2
65.694 12.7745 2
65.3185 16.1111 2
69.8109 24.0612 2
68.3012 26.9677 2
64.6237 19.2278 2
66.6912 22.958 2
63.6714 22.1203 2
72.4107 35.2254 3.97462
71.8011 30.6778 3.97326
69.8183 33.2754 3.96604
68.927 29.0506 3.96446
67.5503 24.9314 3.96346
65.9796 27.6945 3.9739
64.0165 10.9835 4
64.5302 23.9089 3.96799
63.8827 14.3319 3.96585
63.4435 17.4784 3.95629
62.6965 20.4115 3.96223
61.7345 23.0865 3.97168
60.6788 11.1037 3.97215
57.6031 11.4928 3.96337
72.1454 51.8506 0
69.9759 56.25 0
68.8314 53.1145 0.0286451
64.0165 64.0165 0
63.8797 60.7608 0.0328253
66.6049 57.1332 0.0290806
63.4422 57.7444 0.0416622
62.2255 65.694 2
58.8928 65.4028 2
69.7642 50.9877 2
67.7788 55.164 2
66.5664 52.1836 2
62.3324 62.4134 2
64.5756 56.0022 2
62.1755 59.3798 2
61.6426 56.5956 2
60.6637 63.972 3.97398
57.0206 66.7319 3.9796
57.5438 63.644 3.96812
67.4314 50.1558 3.96408
65.6176 54.1464 3.96143
64.2844 51.3035 3.96906
60.7636 60.9034 3.96367
62.6129 54.9824 3.9642
60.5046 58.0707 3.95547
60.0455 55.6497 3.96678
56.25 69.9759 4
58.3339 68.6801 2
60.3285 67.2507 0
58.9165 9.66152 3.97483
62.2254 9.30607 4
73.0099 49.554 0
74.2788 44.8158 0
71.246 46.5983 0.0278071
72.1655 42.0859 0.0262097
74.9194 39.9526 0
75 37.5 2
72.4021 39.8021 2
71.7789 44.3517 2
69.7822 41.786 2
70.5707 48.8123 2
68.8679 46.0031 2
72.4864 37.5129 3.97448
70.0232 39.6569 3.96692
69.3982 43.9008 3.96652
67.3905 41.4773 3.97679
68.2018 48.0909 3.96493
66.4773 45.3925 3.97595
74.9197 35.0474 0
74.2794 30.1841 0
72.1822 32.9448 0.0261884
71.2752 28.4326 0.0279155
65.694 12.7746 0
65.3177 16.1054 0.0309215
69.8113 24.0591 0.0285238
68.2979 26.9669 0.0359838
66.6894 22.9568 0.0377878
64.6302 19.2256 0.0408578
63.671 22.1198 0.0347389
72.41 35.2252 2
71.8004 30.6786 2
69.8216 33.2757 2
68.9319 29.051 2
64.0165 10.9835 2
63.8844 14.3394 2
63.4454 17.4772 2
67.5529 24.9324 2
65.9772 27.6958 2
62.7015 20.4105 2
64.529 23.9099 2
61.7335 23.0878 2
60.6821 11.1097 2
57.6028 11.4854 2
70.0404 35.3965 3.96645
69.4384 31.159 3.96515
67.4626 33.6153 3.97652
66.5655 29.6712 3.97519
65.2976 25.7696 3.97079
63.7449 28.3635 3.97508
62.3346 12.6614 3.96755
62.4792 24.7728 3.97428
62.1747 15.8113 3.95502
61.6081 18.7834 3.95924
60.8766 21.4933 3.96779
59.9425 23.9272 3.97366
59.2352 12.8255 3.96222
55.866 10.28 3.9726
56.3846 13.1986 3.96439
69.7645 50.99 0.0286521
62.2254 65.694 0
58.8894 65.4089 0.0253144
67.7782 55.1683 0.0288147
66.5649 52.1844 0.0373128
62.3308 62.4218 0.0315441
62.1847 59.3804 0.0445675
64.5811 56.0034 0.0398392
61.6425 56.5948 0.0392469
60.6671 63.9658 2
57.0246 66.7269 2
57.5462 63.651 2
67.4333 50.155 2
65.6166 54.1455 2
64.2825 51.3028 2
60.757 60.9056 2
62.6139 54.9831 2
60.4951 58.0695 2
60.0453 55.6504 2
55.0661 67.9294 3.98267
59.2122 62.3187 3.96795
55.791 64.8674 3.97016
56.3109 62.0136 3.98071
65.0743 49.3353 3.97185
63.4686 53.2064 3.96662
62.0141 50.5102 3.97372
59.2463 59.4797 3.9541
60.7405 54.1687 3.97055
58.9933 56.8608 3.96067
58.8682 55.0105 3.97115
48.0979 68.5679 3.97946
50.9442 69.9305 3.98655
54.0858 71.1327 4
56.25 69.976 2
58.3339 68.6801 0
57.0545 8.34011 3.97708
60.3285 7.74928 4
58.92 9.66726 2
62.2255 9.30602 2
70.5713 48.8141 0.0284644
71.7795 44.3531 0.0268265
68.8633 46.0035 0.0343272
69.7795 41.7863 0.0331197
72.4028 39.8027 0.0253321
75 37.5 0
72.4851 37.5125 2
70.0264 39.6568 2
69.4004 43.9003 2
67.3876 41.4764 2
68.2032 48.09 2
66.4735 45.3913 2
70.1117 37.5237 3.96679
67.6385 39.5043 3.97667
67.0027 43.4363 3.97682
65.1733 41.1776 3.97663
65.8239 47.3573 3.9744
64.2295 44.7714 3.97612
72.4107 35.2254 0.0253794
71.8011 30.6778 0.0267441
69.8183 33.2754 0.0339647
68.927 29.0506 0.0355445
64.0165 10.9835 0
63.8827 14.3319 0.0341522
63.4435 17.4784 0.0437097
67.5503 24.9314 0.0365438
65.9796 27.6945 0.0261
64.5302 23.9089 0.0320054
62.6965 20.4115 0.0377672
61.7345 23.0865 0.0283241
60.6788 11.1037 0.0278478
57.6031 11.4928 0.036634
70.0434 35.3967 2
69.4418 31.1594 2
67.46 33.6162 2
66.5625 29.6724 2
62.3378 12.6691 2
62.1727 15.8124 2
61.6176 18.7813 2
65.2957 25.7708 2
63.743 28.3641 2
60.8753 21.4946 2
62.4781 24.7742 2
59.9411 23.9288 2
59.2348 12.8247 2
56.3855 13.1938 2
55.8678 10.2823 2
67.6831 35.561 3.97671
67.067 31.6586 3.97602
65.3332 33.9653 3.97685
64.261 30.2786 3.97576
63.1489 26.5402 3.97484
61.7047 28.9239 3.97512
60.7609 14.2592 3.96068
60.5308 25.5318 3.97447
60.46 17.2222 3.95533
59.8798 19.9809 3.96283
59.1905 22.4681 3.97037
58.3921 24.5709 3.97391
54.0308 9.17227 3.97558
57.8705 14.4098 3.95287
54.7738 12.092 3.96574
55.2602 14.7612 3.95294
67.4314 50.1558 0.0359159
57.0206 66.7319 0.0204013
60.6637 63.972 0.0260171
57.5438 63.644 0.0318815
65.6176 54.1464 0.0385657
64.2844 51.3035 0.0309413
60.7636 60.9034 0.0363325
60.5046 58.0707 0.0445256
62.6129 54.9824 0.035804
60.0455 55.6497 0.0332216
55.0705 67.9245 2
59.2094 62.3249 2
55.7943 64.8629 2
56.3085 62.0151 2
65.0719 49.3343 2
63.4675 53.2062 2
62.013 50.5102 2
59.2669 59.4888 2
60.7398 54.1691 2
59.0024 56.8641 2
58.8777 55.0131 2
53.0379 68.9969 3.98296
53.9577 65.9939 3.97107
57.8467 60.802 3.95667
54.6599 63.1189 3.964
55.1755 60.5265 3.97729
62.7558 48.5305 3.97438
61.3545 52.4315 3.97229
59.6815 49.8144 3.97331
57.816 58.1316 3.95732
58.8933 53.7621 3.97274
57.6881 55.6098 3.96351
50.1035 67.8461 3.97582
47.4549 66.5619 3.97507
46.0526 69.1493 3.9818
48.1016 68.5687 2
48.7982 70.7212 3.98797
50.9485 69.9273 2
51.8506 72.1454 4
54.0858 71.1327 2
56.25 69.9759 0
55.0991 7.1438 3.98236
58.3339 6.31992 4
57.0585 8.34567 2
60.3286 7.74926 2
58.9165 9.66152 0.0251684
62.2254 9.30607 0
68.2018 48.0909 0.0350672
69.3982 43.9008 0.033476
66.4773 45.3925 0.0240472
67.3905 41.4773 0.0232091
70.0232 39.6569 0.0330804
72.4864 37.5129 0.0255189
70.1153 37.5237 2
67.6357 39.5041 2
67.0004 43.4352 2
65.1723 41.1774 2
65.8213 47.3561 2
64.2282 44.771 2
67.7425 37.525 3.97662
65.4158 39.3552 3.97678
64.7775 42.9703 3.97655
63.2343 40.8834 3.97648
63.525 46.6098 3.97486
62.2273 44.1149 3.97581
70.0404 35.3965 0.0335537
69.4384 31.159 0.0348458
67.4626 33.6153 0.0234832
66.5655 29.6712 0.0248146
62.3346 12.6614 0.0324522
62.1747 15.8113 0.0449847
61.6081 18.7834 0.0407591
65.2976 25.7696 0.0292096
63.7449 28.3635 0.0249192
62.4792 24.7728 0.025721
60.8766 21.4933 0.0322147
59.9425 23.9272 0.0263436
59.2352 12.8255 0.037785
56.3846 13.1986 0.0356074
55.866 10.28 0.0274
67.6806 35.5617 2
67.0648 31.6596 2
65.3314 33.9657 2
64.2597 30.2791 2
60.759 14.2596 2
60.4551 17.2234 2
59.8765 19.9825 2
63.1474 26.5415 2
61.7044 28.9239 2
59.1916 22.469 2
60.53 25.5323 2
58.3889 24.5737 2
57.8743 14.4062 2
55.2547 14.7533 2
54.0344 9.16607 2
54.769 12.0931 2
65.5152 35.6883 3.97685
64.795 32.2129 3.97614
63.8141 34.2958 3.97632
62.0264 30.7503 3.97551
61.1117 27.2409 3.97473
60.183 29.3148 3.97567
59.2176 15.755 3.95419
58.6905 26.0389 3.97479
58.8313 18.5179 3.95891
58.2804 21.0749 3.96472
57.7196 23.3499 3.97107
57.3244 24.9468 3.97562
52.106 8.17613 3.96701
53.0456 11.085 3.9769
56.5784 15.8675 3.95466
53.7806 13.7857 3.96796
54.2616 16.1492 3.95562
55.0661 67.9294 0.0173304
65.0743 49.3353 0.0281539
55.791 64.8674 0.0298366
59.2122 62.3187 0.0320486
56.3109 62.0136 0.0192941
63.4686 53.2064 0.033381
62.0141 50.5102 0.0262807
59.2463 59.4797 0.0459005
58.9933 56.8608 0.0393318
60.7405 54.1687 0.0294502
58.8682 55.0105 0.0288538
53.0425 68.9938 2
53.9611 65.9934 2
57.8489 60.8062 2
54.6583 63.1197 2
55.1731 60.5255 2
62.755 48.5303 2
61.354 52.4318 2
59.6821 49.8143 2
57.8247 58.1366 2
58.8982 53.7633 2
57.6856 55.6089 2
52.0628 66.9833 3.97349
52.9345 64.1596 3.9692
56.5468 59.383 3.95255
53.6298 61.494 3.96569
54.1841 59.2 3.9645
60.3639 47.7001 3.97404
59.1871 51.9061 3.97309
57.3004 49.3575 3.97398
56.4941 56.8154 3.96119
56.5497 53.8751 3.96804
50.1071 67.8427 2
49.3253 65.8864 3.97449
47.4583 66.5533 2
46.8801 64.6835 3.97743
45.5543 67.0799 3.97835
43.9709 69.5825 3.98325
46.0562 69.1493 2
46.6055 71.366 3.98945
48.0979 68.5679 0.020537
48.8025 70.7205 2
49.554 73.0099 4
50.9442 69.9305 0.0134529
51.8506 72.1455 2
54.0858 71.1327 0
53.0614 6.07673 3.98472
55.1033 7.14627 2
56.25 5.02411 4
58.3339 6.3199 2
57.0545 8.34011 0.0229201
60.3285 7.74928 0
65.8239 47.3573 0.0255991
67.0027 43.4363 0.0231751
64.2295 44.7714 0.0238792
65.1733 41.1776 0.0233679
67.6385 39.5043 0.0233322
70.1117 37.5237 0.0332145
67.7401 37.5254 2
65.4147 39.3552 2
64.776 42.9698 2
63.2346 40.8834 2
63.5241 46.6091 2
62.2274 44.115 2
65.5259 37.5055 3.97678
63.3839 39.2476 3.97633
62.7796 42.4813 3.97622
61.7954 40.6439 3.97651
61.3541 45.7771 3.97515
60.7451 43.5673 3.97597
67.6831 35.561 0.0232922
67.067 31.6586 0.0239791
65.3332 33.9653 0.0231458
64.261 30.2786 0.0242429
60.7609 14.2592 0.0393188
60.46 17.2222 0.0446742
59.8798 19.9809 0.0371695
63.1489 26.5402 0.0251642
61.7047 28.9239 0.0248782
60.5308 25.5318 0.0255335
59.1905 22.4681 0.029631
58.3921 24.5709 0.026095
57.8705 14.4098 0.0471309
55.2602 14.7612 0.0470561
54.0308 9.17227 0.02442
54.7738 12.092 0.0342576
65.5139 35.6885 2
64.7938 32.2135 2
63.8146 34.2959 2
62.0263 30.7503 2
59.2365 15.75 2
58.8283 18.5196 2
58.2767 21.0771 2
61.1109 27.2411 2
60.1839 29.3148 2
57.7164 23.353 2
58.6879 26.0401 2
57.3224 24.9506 2
56.557 15.8717 2
54.2659 16.1404 2
53.7698 13.7776 2
52.1081 8.18152 2
53.0487 11.0771 2
63.5961 35.6617 3.97624
62.3591 33.1247 3.97597
59.8881 30.771 3.97535
58.8539 28.1299 3.97504
57.7424 17.1281 3.95521
57.007 26.0224 3.975
57.3031 19.696 3.95908
56.7989 22.1151 3.96508
56.5241 24.2476 3.97339
50.1082 7.29905 3.9766
51.214 10.1936 3.96613
52.1408 12.8929 3.97479
55.3538 17.1424 3.95527
52.9045 15.3959 3.95941
53.5966 17.1612 3.95599
53.0379 68.9969 0.0170355
53.9577 65.9939 0.0289325
62.7558 48.5305 0.0256213
54.6599 63.1189 0.035999
57.8467 60.802 0.0433276
55.1755 60.5265 0.0227149
61.3545 52.4315 0.0277149
59.6815 49.8144 0.0266902
57.816 58.1316 0.0426772
57.6881 55.6098 0.0364908
58.8933 53.7621 0.0272598
52.0662 66.9802 2
52.9348 64.1592 2
56.5432 59.384 2
53.6282 61.494 2
54.1777 59.2019 2
60.3641 47.7 2
59.1896 51.9064 2
57.3014 49.3582 2
56.4914 56.8193 2
56.5475 53.8744 2
51.1532 65.0911 3.96969
52.0075 62.444 3.96385
55.3113 58.106 3.96099
52.7287 59.9768 3.96113
53.5211 58.3268 3.96243
57.4364 46.5981 3.97492
56.9136 51.5283 3.97254
55.429 49.2481 3.97436
55.1128 55.5844 3.96286
54.719 53.1098 3.9628
50.1035 67.8461 0.024176
49.3271 65.8876 2
48.5997 64.0708 3.97859
47.4549 66.5619 0.0249264
45.5558 67.0836 2
46.8814 64.6832 2
46.3619 62.9867 3.98177
45.123 65.1675 3.97995
43.6294 67.4545 3.98016
41.8587 69.8694 3.98334
43.9731 69.5827 2
44.3734 71.8608 3.99017
46.0526 69.1493 0.0181989
46.6085 71.3653 2
47.2057 73.7222 4
48.7982 70.7212 0.0120261
49.554 73.0099 2
51.8506 72.1454 0
50.9535 5.13636 3.98746
53.0644 6.07657 2
54.0858 3.86728 4
55.0991 7.1438 0.0176385
56.25 5.02406 2
58.3339 6.31992 0
63.525 46.6098 0.0251442
64.7775 42.9703 0.0234453
62.2273 44.1149 0.0241938
63.2343 40.8834 0.0235169
65.4158 39.3552 0.0232176
67.7425 37.525 0.0233783
65.5249 37.5056 2
63.3846 39.248 2
62.7803 42.4809 2
61.7954 40.6438 2
61.3541 45.7768 2
60.7454 43.5673 2
63.4487 37.4615 3.97637
61.4932 39.3246 3.9767
60.4884 41.8655 3.97675
59.4605 44.6022 3.97556
65.5152 35.6883 0.0231507
64.795 32.2129 0.0238589
63.8141 34.2958 0.0236837
62.0264 30.7503 0.0244853
59.2176 15.755 0.0458055
58.8313 18.5179 0.0410909
58.2804 21.0749 0.0352765
61.1117 27.2409 0.0252686
60.183 29.3148 0.0243337
58.6905 26.0389 0.0252104
57.7196 23.3499 0.0289252
57.3244 24.9468 0.0243809
56.5784 15.8675 0.0453449
54.2616 16.1492 0.0443774
53.7806 13.7857 0.0320363
52.106 8.17613 0.03299
53.0456 11.085 0.0231018
63.5967 35.6615 2
62.3605 33.1251 2
59.8891 30.7713 2
57.75 17.1261 2
57.3064 19.6954 2
56.7965 22.1186 2
58.8544 28.1291 2
56.5339 24.2503 2
57.0061 26.0216 2
50.1119 7.2935 2
55.3491 17.1455 2
53.6009 17.1535 2
52.9002 15.3977 2
52.1515 12.8824 2
51.215 10.1888 2
61.536 35.4034 3.9764
59.4975 32.8645 3.97584
57.7472 30.2906 3.97504
56.4532 27.6712 3.97526
56.353 18.3503 3.95675
55.5168 25.4435 3.97455
55.8593 20.7888 3.95738
55.4471 23.1886 3.96606
48.0551 6.53736 3.98087
49.3123 9.37384 3.97042
50.3974 12.1012 3.96695
51.3127 14.6174 3.96325
54.1818 18.1301 3.96056
52.2245 17.232 3.95357
52.0628 66.9833 0.0265092
52.9345 64.1596 0.0307966
60.3639 47.7001 0.0259593
53.6298 61.494 0.0343095
56.5468 59.383 0.0474516
54.1841 59.2 0.0354977
59.1871 51.9061 0.0269082
57.3004 49.3575 0.026023
56.4941 56.8154 0.0388119
56.5497 53.8751 0.0319608
51.1542 65.0874 2
52.0075 62.4508 2
55.3046 58.1062 2
52.7305 59.9802 2
53.5154 58.3299 2
57.4366 46.5972 2
56.9126 51.5278 2
55.4281 49.2476 2
55.112 55.5857 2
54.7179 53.1101 2
50.3195 63.3269 3.97129
51.1661 60.8097 3.97238
54.0044 57.098 3.96788
52.1223 58.4551 3.97039
55.6116 43.949 3.97551
54.5191 47.5618 3.97553
54.2365 51.0691 3.96614
53.5446 54.3047 3.96498
49.3253 65.8864 0.0255077
48.5976 64.0804 2
47.9297 62.4191 3.98943
45.5543 67.0799 0.0216452
46.8801 64.6835 0.0225674
43.6301 67.4553 2
46.3612 62.9875 2
45.1258 65.1615 2
45.9546 61.5128 3.99358
44.7528 63.3969 3.97474
43.3531 65.4827 3.97848
41.663 67.6725 3.97885
39.7012 70.0166 3.98304
41.8603 69.871 2
42.1085 72.2047 3.99066
43.9709 69.5825 0.0167514
44.3757 71.8601 2
44.8159 74.2794 4
46.6055 71.366 0.0105538
47.2057 73.7222 2
49.554 73.0099 0
48.785 4.32522 3.98805
50.9547 5.13528 2
51.8506 2.85458 4
53.0614 6.07673 0.0152761
54.0858 3.86728 2
56.25 5.02411 0
61.3541 45.7771 0.0248477
62.7796 42.4813 0.0237796
60.7451 43.5673 0.0240327
61.7954 40.6439 0.0234918
63.3839 39.2476 0.0236653
65.5259 37.5055 0.0232211
63.4499 37.4616 2
61.4928 39.3251 2
60.4888 41.8652 2
59.4615 44.602 2
61.3122 37.45 3.97657
59.409 39.7942 3.97674
58.056 42.775 3.97584
63.5961 35.6617 0.0237616
62.3591 33.1247 0.0240259
59.8881 30.771 0.0246465
57.7424 17.1281 0.0447857
57.3031 19.696 0.0409237
56.7989 22.1151 0.0349157
58.8539 28.1299 0.0249649
57.007 26.0224 0.0249994
56.5241 24.2476 0.0266116
55.3538 17.1424 0.0447299
53.5966 17.1612 0.0440098
52.9045 15.3959 0.0405871
50.1082 7.29905 0.023396
52.1408 12.8929 0.0252059
51.214 10.1936 0.0338694
61.536 35.4034 2
59.4965 32.8646 2
57.7489 30.2911 2
56.3544 18.3496 2
55.8813 20.7845 2
55.457 23.1928 2
56.4548 27.6708 2
55.5203 25.446 2
48.0542 6.53903 2
49.3118 9.37045 2
54.1821 18.1347 2
52.2172 17.2306 2
51.3139 14.6035 2
50.3999 12.0974 2
59.0302 35.1826 3.97645
56.9943 32.4382 3.97512
55.5533 29.6191 3.97519
54.5311 26.9727 3.97443
55.0077 19.4194 3.96155
54.2068 24.4153 3.97219
54.4329 21.8736 3.96175
45.9621 5.89174 3.98354
43.3728 7.48439 3.98139
47.3485 8.64715 3.9725
48.5734 11.3737 3.96817
49.6502 13.8628 3.97241
50.5197 16.293 3.9494
52.8738 18.9133 3.96042
51.1358 18.3211 3.95375
51.1532 65.0911 0.0303079
52.0075 62.444 0.0361493
57.4364 46.5981 0.0250803
52.7287 59.9768 0.0388671
55.3113 58.106 0.0390089
53.5211 58.3268 0.0375748
56.9136 51.5283 0.0274629
55.429 49.2481 0.02564
55.1128 55.5844 0.0371445
54.719 53.1098 0.0372045
50.3165 63.3251 2
51.1662 60.8088 2
53.9968 57.0992 2
52.1137 58.4578 2
55.6143 43.949 2
54.5194 47.5627 2
54.2316 51.0678 2
53.5398 54.3064 2
49.5394 61.684 3.97481
54.2915 41.5755 3.97414
50.4295 59.1821 3.9662
51.8571 56.2844 3.96713
52.948 45.202 3.97268
52.3214 48.9595 3.9696
52.0076 52.563 3.95896
48.5997 64.0708 0.0214139
47.9286 62.4197 2
47.2802 60.9422 3.9899
43.6294 67.4545 0.0198409
45.123 65.1675 0.0200464
46.3619 62.9867 0.0182284
41.664 67.6738 2
43.3583 65.4837 2
45.957 61.5146 2
44.7536 63.3901 2
45.7194 60.5558 4.00301
44.4599 61.7608 3.98003
43.1375 63.681 3.97835
41.5453 65.6231 3.97404
39.6328 67.7523 3.97828
37.5258 70.0412 3.98321
39.7022 70.0168 2
39.8162 72.402 3.99102
41.8587 69.8694 0.0166621
42.1101 72.2053 2
42.3947 74.6792 4
44.3734 71.8608 0.00982917
44.8159 74.2794 2
47.2057 73.7222 0
43.8516 5.36508 3.98402
46.5707 3.65022 3.98922
48.7845 4.32614 2
49.554 1.99015 4
50.9535 5.13636 0.0125445
51.8506 2.85453 2
54.0858 3.86728 0
59.4605 44.6022 0.0244405
60.4884 41.8655 0.0232451
61.4932 39.3246 0.0233012
63.4487 37.4615 0.0236288
61.3126 37.4501 2
59.407 39.7931 2
58.0558 42.7744 2
58.8778 37.5691 3.9768
56.9602 40.5556 3.9775
53.6882 39.6146 3.9764
61.536 35.4034 0.0236049
59.4975 32.8645 0.0241575
57.7472 30.2906 0.0249598
56.353 18.3503 0.0432482
55.8593 20.7888 0.0426169
55.4471 23.1886 0.0339417
56.4532 27.6712 0.0247433
55.5168 25.4435 0.0254462
54.1818 18.1301 0.0394381
52.2245 17.232 0.0464324
51.3127 14.6174 0.0367476
48.0551 6.53736 0.0191303
49.3123 9.37384 0.0295811
50.3974 12.1012 0.0330473
59.0288 35.1828 2
45.9612 5.89058 2
43.3711 7.48626 2
56.9926 32.4387 2
55.5557 29.6166 2
54.9975 19.4235 2
54.465 21.8737 2
54.2021 24.4215 2
54.5337 26.9735 2
47.347 8.64334 2
48.5752 11.3621 2
52.8634 18.8804 2
51.1314 18.3226 2
50.5326 16.2938 2
49.6452 13.8735 2
56.3015 34.8545 3.97706
54.5671 31.7627 3.97442
53.4328 28.7575 3.97598
52.9099 25.8997 3.97415
53.5897 20.4098 3.96419
52.9553 23.0726 3.96699
41.3989 7.08507 3.98258
45.3566 8.00809 3.98446
42.8642 9.43253 3.97363
46.6508 10.7074 3.97393
47.6929 13.1924 3.97065
48.8283 15.5308 3.97123
49.8477 17.9144 3.96758
51.3901 19.6231 3.98399
50.3195 63.3269 0.0287099
51.1661 60.8097 0.0276218
55.6116 43.949 0.0244886
54.5191 47.5618 0.0244675
52.1223 58.4551 0.029606
54.0044 57.098 0.0321193
54.2365 51.0691 0.0338593
53.5446 54.3047 0.0350235
49.5399 61.6781 2
54.2891 41.5714 2
50.4269 59.1893 2
51.8615 56.2892 2
52.9418 45.1998 2
52.3169 48.9576 2
52.012 52.564 2
48.757 60.1316 3.99762
50.9215 42.4133 3.98346
49.5714 57.4654 3.96556
50.1223 54.1915 3.95984
50.6098 46.8573 3.97709
50.39 50.6176 3.95239
46.6699 43.3668 3.96
47.9297 62.4191 0.0105735
47.284 60.9415 2
46.5508 59.7234 3.99402
41.663 67.6725 0.0211477
43.3531 65.4827 0.0215206
44.7528 63.3969 0.0252603
45.9546 61.5128 0.00641936
39.634 67.7529 2
41.5492 65.6188 2
45.7188 60.5595 2
43.1364 63.6768 2
44.4599 61.7601 2
44.5822 60.2094 3.99345
42.9316 62.0188 3.97821
41.5923 63.7906 3.97896
39.6465 65.592 3.97593
37.5636 67.7342 3.97683
31.6996 65.1054 3.97335
33.3932 67.471 3.97741
35.3341 69.9521 3.98324
37.5257 70.0431 2
37.5093 72.456 3.99159
39.7012 70.0166 0.0169578
39.8172 72.402 2
39.9526 74.9197 4
42.1085 72.2047 0.00934348
42.3947 74.6792 2
44.8159 74.2794 0
41.7362 4.97218 3.98712
43.8505 5.36547 2
44.3265 3.11216 3.99105
46.5706 3.6498 2
47.2057 1.27793 4
48.785 4.32522 0.0119529
49.554 1.99013 2
51.8506 2.85458 0
58.056 42.775 0.0241614
59.409 39.7942 0.0232612
61.3122 37.45 0.0234319
58.876 37.5704 2
56.9626 40.5552 2
53.6902 39.6148 2
55.6502 37.8821 3.97736
47.9385 41.1362 3.96683
51.4718 39.2362 3.97896
39.4418 6.81042 3.98046
59.0302 35.1826 0.023548
56.9943 32.4382 0.0248766
55.5533 29.6191 0.0248104
55.0077 19.4194 0.0384498
54.4329 21.8736 0.0382461
54.2068 24.4153 0.0278103
54.5311 26.9727 0.0255732
52.8738 18.9133 0.0395824
51.1358 18.3211 0.0462458
50.5197 16.293 0.0505972
45.9621 5.89174 0.0164566
49.6502 13.8628 0.0275915
47.3485 8.64715 0.0274956
48.5734 11.3737 0.0318324
43.3728 7.48439 0.0186124
56.3024 34.8585 2
41.3985 7.08727 2
45.3539 8.00733 2
42.8595 9.43633 2
54.5673 31.7647 2
53.4296 28.7565 2
53.5933 20.4157 2
52.9286 23.079 2
52.9168 25.9011 2
46.6492 10.6962 2
47.6952 13.1853 2
51.3895 19.6238 2
49.8473 17.9208 2
48.8375 15.5641 2
53.4841 34.0882 3.97527
52.2066 30.8367 3.97474
51.5648 27.6222 3.97501
51.4083 24.5163 3.97184
51.9685 21.3841 3.98069
41.012 9.05684 3.97809
44.7216 10.0163 3.97698
42.4529 10.9176 4.0052
45.9581 12.7887 3.96752
47.6049 14.7174 3.96746
47.9745 17.1288 3.97962
49.629 20.0291 3.98778
49.5394 61.684 0.0251915
50.4295 59.1821 0.0337962
54.2915 41.5755 0.0258644
52.948 45.202 0.0273151
52.3214 48.9595 0.0303968
51.8571 56.2844 0.0328731
52.0076 52.563 0.0410397
48.7551 60.1283 2
50.9424 42.4326 2
49.569 57.4648 2
50.1228 54.1939 2
50.6105 46.8566 2
50.3932 50.6176 2
46.679 43.4115 2
47.8594 58.6109 3.99028
48.672 44.922 3.98136
48.2846 55.7351 3.95423
48.5389 52.3301 3.98052
48.7047 48.6783 3.97113
44.3451 39.6869 3.81766
44.8981 42.3011 3.86522
45.2415 45.3068 3.978
42.2412 40.945 3.58579
41.2451 41.5123 3.38461
47.2802 60.9422 0.0101006
46.5459 59.7286 2
45.3918 58.7073 3.99492
39.6328 67.7523 0.0217196
41.5453 65.6231 0.0259571
43.1375 63.681 0.0216539
44.4599 61.7608 0.01997
45.7194 60.5558 -0.00301107
41.5952 63.782 2
37.5644 67.7368 2
39.6503 65.5931 2
44.5808 60.2119 2
42.931 62.0151 2
41.7405 62.4361 3.98426
42.4498 59.908 3.98844
39.8881 63.5272 3.9786
37.6412 65.4888 3.97431
35.4637 67.6436 3.97596
33.5765 65.319 3.97385
31.9657 63.2619 3.98192
29.89 64.6923 3.97928
31.6968 65.1079 2
31.3794 67.1817 3.9782
33.3931 67.4731 2
33.1581 69.7449 3.98298
35.3335 69.9534 2
35.1964 72.3711 3.99173
37.5258 70.0412 0.0167876
37.5097 72.4566 2
37.5 75 4
39.8162 72.402 0.00897945
39.9526 74.9197 2
42.3947 74.6792 0
39.6243 4.71972 3.98742
41.7355 4.9727 2
42.0629 2.71913 3.9919
43.8516 5.36508 0.0159842
44.326 3.11212 2
44.8158 0.721173 4
46.5707 3.65022 0.0107818
47.2057 1.27779 2
49.554 1.99015 0
56.9602 40.5556 0.0225026
58.8778 37.5691 0.0232009
53.6882 39.6146 0.0236033
47.9752 41.1541 2
55.6431 37.878 2
51.486 39.2258 2
52.391 36.6277 3.97657
45.8659 40.2258 3.88241
48.8305 38.4784 3.96899
37.5158 6.67915 3.98394
39.4421 6.81091 2
39.2095 8.70565 3.97965
35.9427 8.50188 3.98053
56.3015 34.8545 0.022938
54.5671 31.7627 0.0255827
53.4328 28.7575 0.0240229
53.5897 20.4098 0.035807
52.9553 23.0726 0.0330126
52.9099 25.8997 0.0258479
51.3901 19.6231 0.0160105
49.8477 17.9144 0.0324218
48.8283 15.5308 0.0287711
45.3566 8.00809 0.0155408
47.6929 13.1924 0.0293535
46.6508 10.7074 0.0260687
41.3989 7.08507 0.0174175
42.8642 9.43253 0.0263651
53.483 34.0904 2
41.0093 9.062 2
44.7173 10.0164 2
42.4502 10.929 2
52.2091 30.8318 2
51.5706 27.6211 2
51.9737 21.3837 2
51.3967 24.522 2
45.9615 12.7779 2
47.5997 14.7024 2
49.639 20.0522 2
47.9764 17.1342 2
50.8968 33.0744 3.97592
50.0281 29.6059 3.97642
49.8689 26.1281 3.97079
49.5201 22.6019 3.97808
40.5559 11.6134 3.98572
43.8192 11.9419 3.96209
45.7283 15.5978 3.99084
47.3438 19.6257 3.98028
44.7031 37.4933 3.82621
48.757 60.1316 0.00238354
49.5714 57.4654 0.034441
50.9215 42.4133 0.0165383
50.6098 46.8573 0.0229132
50.39 50.6176 0.0476071
50.1223 54.1915 0.040162
46.6699 43.3668 0.0399953
47.851 58.6161 2
48.6856 44.9376 2
48.2804 55.7383 2
48.5388 52.3348 2
48.7091 48.6791 2
44.4734 39.708 2
44.9326 42.3334 2
45.249 45.33 2
42.3074 41.0083 2
41.2861 41.5385 2
46.6559 57.2084 3.99156
42.8749 39.3663 3.57736
41.6263 40.5019 3.36545
46.9281 46.9189 3.9902
46.7657 54.0212 3.95931
46.8693 50.4634 3.97368
43.8954 46.9315 3.98498
43.5641 41.679 3.82211
43.781 44.0761 3.85208
41.517 42.1854 3.62703
40.3774 41.788 3.31279
46.5508 59.7234 0.0059845
45.3836 58.7079 2
43.7984 57.5772 3.99104
37.5636 67.7342 0.0231669
39.6465 65.592 0.0240682
41.5923 63.7906 0.021036
42.9316 62.0188 0.0217881
44.5822 60.2094 0.00655318
35.4638 67.6453 2
41.7388 62.4302 2
39.8891 63.5301 2
37.6438 65.4925 2
42.4488 59.9069 2
40.6121 61.5835 3.98464
40.422 58.0838 3.99111
37.8349 63.1818 3.97394
35.5728 65.4102 3.9746
33.5755 65.315 2
31.9686 63.2571 2
33.6321 63.3114 3.98299
30.392 62.8107 3.97812
32.1411 61.9654 3.99323
26.9073 61.391 3.98991
28.0774 64.1112 3.986
29.8893 64.6884 2
29.4105 66.7427 3.97818
31.6996 65.1054 0.0266542
31.3792 67.1827 2
31.0162 69.4104 3.98265
33.3932 67.471 0.0225872
33.1569 69.7465 2
32.8947 72.1451 3.99093
35.3341 69.9521 0.0167586
35.1958 72.3717 2
35.0474 74.9194 4
37.5093 72.456 0.00841275
37.5 75 2
39.9526 74.9197 0
35.6202 6.73109 3.98175
37.5242 4.61895 3.98822
39.6237 4.71958 2
39.7895 2.4755 3.99225
41.7362 4.97218 0.0128765
42.0624 2.71911 2
42.3946 0.32156 4
44.3265 3.11216 0.00895308
44.8159 0.72056 2
47.2057 1.27793 0
47.9385 41.1362 0.0331662
55.6502 37.8821 0.0226401
51.4718 39.2362 0.0210412
45.9108 40.2217 2
48.856 38.4549 2
52.399 36.6256 2
49.6614 35.5767 3.97801
46.468 37.7078 3.85606
44.3717 35.2607 3.82091
42.2936 33.9881 3.58736
41.2872 33.4202 3.3866
37.4579 8.54028 3.98322
37.5163 6.67976 2
39.4418 6.81042 0.0195393
39.2095 8.70747 2
38.9699 10.1408 3.99168
35.8979 9.78525 3.98208
34.1526 8.83368 3.97801
35.9429 8.5029 2
53.4841 34.0882 0.0247348
52.2066 30.8367 0.0252605
51.5648 27.6222 0.0249938
51.9685 21.3841 0.0193052
51.4083 24.5163 0.0281576
49.629 20.0291 0.0122181
47.9745 17.1288 0.0203806
47.6049 14.7174 0.0325354
44.7216 10.0163 0.0230163
45.9581 12.7887 0.0324783
41.012 9.05684 0.0219135
42.4529 10.9176 -0.00520274
50.9155 33.0564 2
40.5606 11.6292 2
43.82 11.9303 2
50.0414 29.6047 2
49.8721 26.1418 2
49.5092 22.5706 2
45.7139 15.5401 2
47.3499 19.6638 2
48.4943 31.6358 3.98087
48.1918 27.9056 3.97486
48.7031 24.742 3.97164
46.9008 22.4241 3.99287
38.2969 12.7651 3.97902
42.0578 14.4114 3.98689
44.6821 18.7122 3.99482
43.1961 37.4766 3.58489
44.814 37.4805 2
47.8594 58.6109 0.00972325
48.2846 55.7351 0.0457702
48.672 44.922 0.01864
48.7047 48.6783 0.0288694
48.5389 52.3301 0.0194842
44.3451 39.6869 0.182338
44.8981 42.3011 0.134783
45.2415 45.3068 0.0220043
42.2412 40.945 0.414208
41.2451 41.5123 0.615386
46.6513 57.2129 2
42.9674 39.3852 2
41.648 40.5123 2
46.9339 46.9219 2
46.7594 54.025 2
46.8691 50.4758 2
43.938 46.9443 2
43.6358 41.7359 2
43.8396 44.1118 2
41.5738 42.2792 2
40.4416 41.8073 2
45.1656 55.7663 4.00197
41.9511 39.0744 3.37459
40.2408 40.4282 3.42998
45.2503 48.5579 4.00322
45.0006 52.2543 3.99479
42.7168 47.9085 3.98945
42.5681 45.5617 3.85986
42.6265 43.3895 3.80291
40.6334 43.0916 3.59114
39.1184 42.0721 3.39818
45.3918 58.7073 0.00508024
43.791 57.5914 2
42.0247 56.118 3.99629
35.4637 67.6436 0.0240414
37.6412 65.4888 0.0256864
39.8881 63.5272 0.0214029
41.7405 62.4361 0.0157389
42.4498 59.908 0.0115573
35.5743 65.4136 2
40.6103 61.573 2
37.8365 63.1819 2
40.4203 58.0952 2
38.9136 56.2634 3.99635
38.2433 60.2688 3.98554
35.607 63.1769 3.97323
33.5765 65.319 0.0261506
31.9657 63.2619 0.0180752
33.6339 63.3126 2
30.3938 62.8066 2
32.1463 61.9613 2
28.7025 62.1433 3.97836
33.359 61.4752 3.98718
31.1008 61.1757 3.99459
27.6468 59.4891 3.97783
23.8952 58.9438 3.9812
25.0893 60.7488 3.98037
26.9077 61.3925 2
26.2534 63.4343 3.97391
28.0776 64.1085 2
27.4707 66.1568 3.97735
29.89 64.6923 0.0207244
29.4096 66.7464 2
28.9098 68.9344 3.98191
31.3794 67.1817 0.0217987
31.0145 69.4107 2
30.6181 71.7768 3.99037
33.1581 69.7449 0.0170151
32.8934 72.1458 2
32.6054 74.6784 4
35.1964 72.3711 0.00826647
35.0474 74.9197 2
37.5 75 0
33.7229 6.98739 3.9799
35.4363 4.68892 3.98761
35.621 6.73196 2
37.5153 2.38809 3.99245
37.5235 4.61872 2
39.6243 4.71972 0.0125768
39.7887 2.47532 2
39.9526 0.0806499 4
42.0629 2.71913 0.00810151
42.3947 0.320817 2
44.8158 0.721173 0
42.9079 35.5784 3.58524
41.6653 34.4197 3.35003
45.8659 40.2258 0.117589
48.8305 38.4784 0.0310081
52.391 36.6277 0.0234329
46.4838 37.7097 2
49.6937 35.6137 2
44.4869 35.2467 2
42.3514 33.9226 2
41.3086 33.3928 2
46.7563 34.4739 3.92695
43.6221 33.2596 3.81448
41.5609 32.7507 3.6303
40.3992 33.1523 3.31135
37.3071 10.6395 3.98117
37.4585 8.54179 2
37.5158 6.67915 0.0160582
39.2095 8.70565 0.0203478
38.9752 10.1463 2
34.7562 10.397 3.97608
35.9026 9.78519 2
32.3808 9.38437 3.97266
34.1522 8.83507 2
35.9427 8.50188 0.0194683
50.8968 33.0744 0.0240761
50.0281 29.6059 0.0235786
49.8689 26.1281 0.0292128
49.5201 22.6019 0.0219207
47.3438 19.6257 0.0197204
45.7283 15.5978 0.0091594
43.8192 11.9419 0.0379065
40.5559 11.6134 0.0142788
48.5144 31.618 2
38.298 12.7687 2
42.0696 14.4097 2
48.1901 27.9046 2
48.7048 24.7483 2
46.8911 22.4135 2
44.6853 18.7717 2
46.4735 29.929 3.97818
46.3949 25.4474 3.97796
44.1078 21.7119 3.98568
36.5889 12.9811 3.97955
38.6593 14.9132 3.97937
41.6723 18.0378 3.99092
42.1134 37.4467 3.39608
43.2784 37.4773 2
44.7031 37.4933 0.173793
46.6559 57.2084 0.00843847
46.7657 54.0212 0.0406932
46.9281 46.9189 0.00979933
46.8693 50.4634 0.0263203
42.8749 39.3663 0.422641
43.5641 41.679 0.17789
43.781 44.0761 0.147924
43.8954 46.9315 0.0150173
41.517 42.1854 0.372968
41.6263 40.5019 0.63455
40.3774 41.788 0.68721
45.161 55.7689 2
41.9741 39.0821 2
40.3238 40.4198 2
45.2489 48.5831 2
44.9938 52.2579 2
42.7675 47.933 2
42.6397 45.6321 2
42.6735 43.4228 2
40.7035 43.1811 2
39.0868 42.1102 2
43.4835 54.1943 4.00625
40.3038 38.9389 3.4623
39.0197 40.5261 3.41803
43.0548 50.0169 4.00339
41.41 47.0408 3.91281
41.3224 44.6356 3.80068
39.3686 43.7483 3.57972
37.51 42.2245 3.46456
43.7984 57.5772 0.00895635
42.026 56.1085 2
40.3255 54.6791 3.99679
35.5728 65.4102 0.0253965
37.8349 63.1818 0.0260557
40.6121 61.5835 0.015361
40.422 58.0838 0.00888854
35.6099 63.1736 2
38.2404 60.2607 2
38.916 56.2549 2
37.9868 54.9422 3.9956
36.9361 57.4945 3.99455
35.3683 60.869 3.98752
33.6321 63.3114 0.0170127
30.392 62.8107 0.0218772
32.1411 61.9654 0.0067677
33.3654 61.4711 2
28.7006 62.1508 2
31.106 61.1752 2
29.4613 60.2355 3.98438
32.3814 59.6219 3.99531
28.1371 58.2778 4.01106
27.649 59.4884 2
25.4883 58.4726 3.97618
22.9039 58.0914 3.97055
23.4669 60.2138 3.97284
23.8969 58.9448 2
25.0907 60.7488 2
24.4663 62.6979 3.9741
26.9073 61.391 0.0100936
26.2535 63.4353 2
25.5595 65.4619 3.97406
28.0774 64.1112 0.0139975
27.4683 66.1541 2
26.8413 68.3227 3.98058
29.4105 66.7427 0.021823
28.907 68.9346 2
28.3738 71.262 3.98891
31.0162 69.4104 0.0173547
30.6161 71.7763 2
30.1842 74.2788 4
32.8947 72.1451 0.0090668
32.6053 74.6792 2
35.0474 74.9194 0
31.7874 7.42946 3.97719
33.3486 4.92855 3.98613
33.7239 6.98814 2
35.2459 2.46399 3.99233
35.4353 4.68946 2
35.6202 6.73109 0.0182476
37.5 0 4
37.5142 2.38802 2
37.5242 4.61895 0.0117787
39.7895 2.4755 0.00775176
39.9526 0.0802889 2
42.3946 0.32156 0
41.9499 35.8171 3.32951
43.0131 35.5589 2
40.2996 34.4825 3.44356
41.6799 34.404 2
46.468 37.7078 0.14394
49.6614 35.5767 0.0219923
44.3717 35.2607 0.17909
42.2936 33.9881 0.412643
41.2872 33.4202 0.613398
46.7984 34.4767 2
43.6823 33.1999 2
41.6094 32.6609 2
40.4484 33.1333 2
44.9291 31.9456 3.88012
42.6697 31.5441 3.7927
40.6766 31.8466 3.59571
39.1205 32.8776 3.39643
35.6969 11.8006 3.97504
37.3153 10.641 2
37.4579 8.54028 0.0167801
38.9699 10.1408 0.00832452
33.1051 11.242 3.97301
34.7593 10.3945 2
35.8979 9.78525 0.0179153
30.4886 10.0391 3.97383
32.38 9.38502 2
34.1526 8.83368 0.0219908
48.4943 31.6358 0.0191302
48.1918 27.9056 0.025143
48.7031 24.742 0.0283573
46.9008 22.4242 0.00713478
44.6821 18.7122 0.00518063
42.0578 14.4114 0.0131129
38.2969 12.7651 0.020977
36.585 12.9731 2
46.4605 29.8709 2
38.6661 14.8878 2
41.6592 18.0264 2
46.4008 25.4345 2
44.0949 21.6976 2
44.5673 28.0869 3.99371
43.3406 24.3624 4.0121
41.2134 21.0595 3.99475
35.775 14.8142 3.99249
38.6211 17.7853 3.99086
40.3604 37.4061 3.49163
42.1424 37.4532 2
43.1961 37.4766 0.415108
45.1656 55.7663 -0.00197421
45.0006 52.2543 0.00521228
45.2503 48.5579 -0.00321953
41.9511 39.0744 0.625408
42.6265 43.3895 0.197094
42.5681 45.5617 0.14014
42.7168 47.9085 0.010546
40.6334 43.0916 0.408861
40.2408 40.4282 0.57002
39.1184 42.0721 0.601824
43.4771 54.1917 2
40.3511 38.9429 2
38.9981 40.5308 2
43.0422 50.0386 2
41.4019 47.066 2
41.3457 44.6795 2
37.5027 42.2503 2
39.3877 43.8372 2
41.6394 52.6427 4.00304
39.033 39.0029 3.40566
37.5054 40.566 3.48626
35.8987 42.0925 3.39481
40.6396 49.1668 3.9896
39.5933 45.32 3.76808
37.5074 44.0533 3.62941
42.0247 56.118 0.003706
40.3216 54.6863 2
38.6946 53.4133 3.99838
35.607 63.1769 0.0267738
38.2433 60.2688 0.0144621
38.9136 56.2634 0.00365287
35.3705 60.8508 2
36.9366 57.4993 2
37.9812 54.9361 2
36.3444 55.0518 3.99814
34.51 58.4126 3.99858
33.359 61.4752 0.0128209
28.7025 62.1433 0.0216436
31.1008 61.1757 0.00540606
32.3806 59.6242 2
29.4645 60.2422 2
30.3925 57.6916 3.98347
28.1386 58.2757 2
27.143 56.7049 3.96367
27.6468 59.4891 0.0221725
25.4909 58.4728 2
24.0781 56.6414 3.95931
21.5801 57.2212 3.96043
22.0788 59.4905 3.97232
22.9049 58.0931 2
22.7796 61.914 3.97208
23.4685 60.2143 2
23.8952 58.9438 0.018799
25.0893 60.7488 0.019634
24.4667 62.6999 2
23.6978 64.6707 3.96875
26.2534 63.4343 0.0260903
25.5574 65.4633 2
24.8141 67.5834 3.97554
27.4707 66.1568 0.0226527
26.8383 68.3241 2
26.1694 70.603 3.98841
28.9098 68.9344 0.0180938
28.3713 71.2616 2
27.7943 73.7221 4
30.6181 71.7768 0.00962923
30.1841 74.2794 2
32.6054 74.6784 0
29.8107 8.00856 3.97444
31.2537 5.33681 3.98451
31.7881 7.42906 2
32.9818 2.70205 3.99179
33.3475 4.92919 2
33.7229 6.98739 0.020103
35.0474 0.080333 4
35.2445 2.46433 2
35.4363 4.68892 0.0123915
37.5 0 2
37.5153 2.38809 0.00755225
39.9526 0.0806499 0
40.4247 35.9272 3.49329
41.9876 35.8164 2
42.9079 35.5784 0.414756
28.551 10.7166 3.97345
39.0205 34.4381 3.40345
40.3098 34.4781 2
41.6653 34.4197 0.649972
46.7563 34.4739 0.0730549
43.6221 33.2596 0.185525
41.5609 32.7507 0.369697
40.3992 33.1523 0.688648
44.959 31.9217 2
42.7216 31.5011 2
40.7411 31.758 2
39.1019 32.8364 2
43.427 30.2286 3.86334
41.3479 30.2891 3.80187
39.3775 31.1963 3.58501
37.5194 32.7463 3.46245
34.1033 12.9656 3.98059
35.7011 11.7905 2
37.3071 10.6395 0.0188276
31.1966 12.0143 3.97528
33.1064 11.2382 2
34.7562 10.397 0.0239204
30.4844 10.0345 2
32.3808 9.38437 0.0273355
46.4735 29.929 0.0218191
46.3949 25.4474 0.0220394
36.5889 12.9811 0.0204538
44.1078 21.7119 0.0143228
41.6723 18.0378 0.00907782
38.6593 14.9132 0.0206274
35.7678 14.8304 2
44.5659 28.087 2
38.6332 17.7649 2
41.2072 21.0409 2
43.3367 24.3387 2
33.6345 15.9257 3.98882
42.4815 26.8687 3.96809
40.7427 23.7433 3.99912
38.3622 20.5958 3.99315
35.8257 17.6744 3.98376
39.048 37.481 3.3961
40.3895 37.4149 2
42.1134 37.4467 0.603919
43.4835 54.1943 -0.00625182
43.0548 50.0169 -0.00338741
40.3038 38.9389 0.537697
41.3224 44.6356 0.199319
41.41 47.0408 0.0871896
39.3686 43.7483 0.420278
39.0197 40.5261 0.581973
37.51 42.2245 0.535439
41.6276 52.6384 2
39.0084 38.997 2
37.4956 40.5696 2
40.6211 49.1723 2
35.9244 42.126 2
39.6261 45.3924 2
37.4986 44.1339 2
39.6818 51.3875 3.9993
37.5087 38.9998 3.46526
36.0208 40.5487 3.41428
34.6414 41.8174 3.31176
35.646 43.7668 3.57922
38.5933 47.9892 3.92054
37.499 45.6106 3.80118
40.3255 54.6791 0.00321022
38.6884 53.4255 2
36.771 52.7767 3.99833
35.3683 60.869 0.0124806
36.9361 57.4945 0.00544963
37.9868 54.9422 0.00439872
34.508 58.4272 2
36.3498 55.0462 2
33.357 55.2508 4.00469
32.3814 59.6219 0.00468834
29.4613 60.2355 0.0156245
30.3938 57.68 2
28.9685 55.216 3.99387
28.1371 58.2778 -0.011057
27.1467 56.7025 2
25.6546 54.9661 3.95708
22.2098 55.1286 3.95877
25.4883 58.4726 0.023816
24.0804 56.6428 2
20.4719 56.8519 3.96167
20.766 58.6416 3.96082
21.5834 57.2227 2
21.2199 61.0469 3.96793
22.0786 59.4908 2
22.9039 58.0914 0.029446
21.9192 63.7674 3.97164
22.7806 61.9161 2
23.4669 60.2138 0.0271575
24.4663 62.6979 0.0258966
23.6961 64.6692 2
22.8426 66.7226 3.97229
25.5595 65.4619 0.0259428
24.8112 67.58 2
24.0137 69.8046 3.98715
26.8413 68.3227 0.019419
26.1657 70.6024 2
25.446 73.0099 4
28.3738 71.262 0.0110897
27.7943 73.7222 2
30.1842 74.2788 0
27.8215 8.67137 3.9741
29.1559 5.88513 3.98133
29.81 8.00506 2
30.7274 3.09952 3.99115
31.2527 5.33613 2
31.7874 7.42946 0.0228139
32.6053 0.320823 4
32.9802 2.70252 2
33.3486 4.92855 0.0138714
35.0474 0.0802903 2
35.2459 2.46399 0.00766974
37.5 0 0
38.951 35.9649 3.41229
40.4028 35.923 2
41.9499 35.8171 0.670489
28.5467 10.7149 2
26.6344 11.4174 3.97325
29.2393 12.6684 3.97736
37.5281 34.409 3.48664
39.0424 34.4483 2
40.2996 34.4825 0.556438
44.9291 31.9456 0.119883
42.6697 31.5441 0.207304
40.6766 31.8466 0.404294
39.1205 32.8776 0.603573
43.4619 30.1981 2
41.3873 30.2408 2
39.3955 31.1062 2
37.5292 32.7175 2
41.7641 28.9548 3.85213
39.6097 29.6157 3.79112
37.5145 30.9035 3.63061
35.9106 32.8902 3.40175
31.9428 14.5137 3.98451
34.1068 12.967 2
35.6969 11.8006 0.0249644
31.1959 12.0037 2
33.1051 11.242 0.0269941
30.4886 10.0391 0.0261726
44.5673 28.0869 0.00629266
43.3406 24.3624 -0.0120972
35.775 14.8142 0.00750819
41.2134 21.0595 0.00525414
38.6211 17.7853 0.00914363
33.617 15.9177 2
35.8422 17.5901 2
42.5486 26.8367 2
38.3343 20.6339 2
40.7276 23.7522 2
33.5724 17.4652 3.99085
40.1926 26.2443 3.96421
38.0112 23.5148 3.99675
35.5179 20.4099 3.99612
37.5316 37.474 3.48412
39.0125 37.4731 2
40.3604 37.4061 0.508365
41.6394 52.6427 -0.0030392
40.6396 49.1668 0.0103967
39.033 39.0029 0.594339
39.5933 45.32 0.23192
37.5074 44.0533 0.370588
37.5054 40.566 0.513741
35.8987 42.0925 0.605191
39.666 51.3815 2
37.4993 39.0022 2
36.0074 40.5277 2
38.6169 48.0565 2
34.586 41.8371 2
35.622 43.8546 2
37.5024 45.6756 2
37.6743 50.3456 3.98983
36.0699 39.0237 3.41739
34.752 40.4661 3.44449
33.7568 41.5493 3.3878
34.3871 43.1216 3.58711
35.3701 45.3867 3.79718
36.9334 47.6135 3.87529
38.6946 53.4133 0.00162079
36.7856 52.7223 2
34.5226 52.1123 4.00052
34.51 58.4126 0.00141619
36.3444 55.0518 0.00185867
33.3631 55.2588 2
30.8363 53.2054 3.99674
30.3925 57.6916 0.0165345
28.9726 55.2193 2
27.327 53.2273 3.95462
27.143 56.7049 0.0363334
25.6593 54.9676 2
24.1042 53.2194 3.95358
21.111 52.9418 3.95838
20.3149 55.6209 3.96061
22.2108 55.1287 2
24.0781 56.6414 0.0406918
19.6252 57.7361 3.96198
20.4654 56.8565 2
19.7565 60.1001 3.97318
20.7553 58.6472 2
21.5801 57.2212 0.0395701
20.2416 62.7588 3.97068
21.2251 61.0496 2
22.0788 59.4905 0.02768
20.9469 65.7372 3.96936
21.9177 63.7678 2
22.7796 61.914 0.0279178
23.6978 64.6707 0.0312506
22.8406 66.7202 2
21.9167 68.8699 3.98433
24.8141 67.5834 0.0244577
24.01 69.8019 2
23.1494 72.1454 4
26.1694 70.603 0.0115865
25.446 73.0099 2
27.7943 73.7221 0
25.8616 9.40369 3.97301
27.0709 6.55105 3.97879
27.819 8.66827 2
28.49 3.64555 3.98982
29.1541 5.8837 2
29.8107 8.00856 0.0255555
30.1841 0.720592 4
30.725 3.09954 2
31.2537 5.33681 0.0154873
32.6053 0.320817 2
32.9818 2.70205 0.00820962
35.0474 0.080333 0
37.5221 35.9543 3.45393
38.9287 35.9319 2
40.4247 35.9272 0.506706
24.7965 12.0935 3.96854
23.7922 14.4938 3.98051
28.551 10.7166 0.0265455
26.6289 11.4164 2
29.2382 12.6681 2
27.3046 13.435 3.97316
29.8153 14.2232 3.9954
36.0056 34.4368 3.42504
37.5458 34.4006 2
39.0205 34.4381 0.596553
37.5194 32.7463 0.537548
43.427 30.2286 0.136664
41.3479 30.2891 0.198134
39.3775 31.1963 0.414995
41.7934 28.8791 2
39.6295 29.5462 2
37.5176 30.8282 2
35.9375 32.855 2
39.7932 28.2394 3.8507
37.4792 29.3327 3.78821
35.6611 31.2186 3.58227
34.6379 33.1724 3.31756
30.9809 16.8753 3.99628
31.9377 14.496 2
34.1033 12.9656 0.0194117
31.1966 12.0143 0.0247234
42.4815 26.8687 0.031912
40.7427 23.7433 0.000881617
33.6345 15.9257 0.0111754
35.8257 17.6744 0.016238
38.3622 20.5958 0.0068457
33.5428 17.5109 2
35.4959 20.4736 2
40.1994 26.2225 2
38.0403 23.507 2
32.9897 19.9825 3.99829
37.7566 25.9121 3.95763
35.3835 23.1646 4.01045
36.0339 37.4716 3.40263
37.5086 37.4738 2
39.048 37.481 0.6039
39.6818 51.3875 0.000700471
38.5933 47.9892 0.0794647
37.5087 38.9998 0.534742
37.499 45.6106 0.19882
35.646 43.7668 0.420779
36.0208 40.5487 0.585723
34.6414 41.8174 0.688242
37.6473 50.3823 2
36.1161 39.0087 2
34.6959 40.48 2
36.9315 47.6807 2
33.7173 41.5783 2
34.3187 43.2048 2
35.3363 45.4468 2
35.5831 49.5478 3.98101
34.6503 39.0043 3.48787
33.3771 40.5485 3.35182
33.4901 42.2195 3.62891
33.7251 44.6608 3.79169
34.6652 46.7854 3.85257
36.771 52.7767 0.00166817
34.5062 52.1435 2
32.389 50.913 4.00261
33.357 55.2508 -0.00469275
30.8394 53.2015 2
28.9505 51.2691 3.98704
28.9685 55.216 0.00613481
27.3328 53.2294 2
25.7207 51.4405 3.95365
25.6546 54.9661 0.0429151
24.1095 53.2236 2
22.7002 51.4928 3.95618
20.0238 51.3189 3.96434
19.4771 54.0577 3.96134
21.1154 52.9402 2
18.7617 56.5404 3.96264
20.3135 55.6236 2
22.2098 55.1286 0.0412279
18.474 58.9916 3.95748
19.6218 57.7406 2
20.4719 56.8519 0.0383255
18.6416 61.6925 3.97732
19.7589 60.1033 2
20.766 58.6416 0.0391786
19.1412 64.6235 3.96812
20.2415 62.7598 2
21.2199 61.0469 0.0320743
19.8902 67.8079 3.9826
20.9443 65.7339 2
21.9192 63.7674 0.028356
22.8426 66.7226 0.0277106
21.9126 68.8673 2
20.9142 71.1327 4
24.0137 69.8046 0.0128472
23.1494 72.1455 2
25.446 73.0099 0
23.1167 12.8998 3.97653
23.9769 10.1858 3.97383
25.0245 7.32295 3.97609
25.8597 9.40398 2
26.2821 4.33029 3.98839
27.0678 6.55075 2
27.8215 8.67137 0.0259049
27.7943 1.27781 4
28.4866 3.64646 2
29.1559 5.88513 0.0186716
30.1841 0.720551 2
30.7274 3.09952 0.00885382
32.6053 0.320823 0
36.0066 35.9506 3.41051
37.5623 35.967 2
38.951 35.9649 0.587708
24.7838 12.1323 2
23.789 14.5045 2
22.5389 15.1703 3.98561
25.3831 14.037 3.97424
24.1068 15.7475 4.01325
26.6344 11.4174 0.0267483
29.2393 12.6684 0.0226372
27.3149 13.4099 2
29.8074 14.2254 2
28.4252 15.9878 3.99146
34.7764 34.5245 3.43302
36.0313 34.4348 2
37.5281 34.409 0.513358
35.9106 32.8902 0.598248
37.5145 30.9035 0.369391
41.7641 28.9548 0.147866
39.6097 29.6157 0.208885
39.8434 28.181 2
37.4891 29.2839 2
35.6415 31.1289 2
34.581 33.1537 2
37.6327 27.9565 3.8487
35.4277 29.6327 3.78786
34.3745 31.8669 3.59287
33.7616 33.445 3.38755
30.3321 19.6278 3.98323
30.9488 16.8762 2
31.9428 14.5137 0.0154922
40.1926 26.2443 0.0357868
38.0112 23.5148 0.00324577
33.5724 17.4652 0.00915494
35.5179 20.4099 0.00388373
32.9981 20.0063 2
35.3353 23.1477 2
37.7367 25.8889 2
32.6248 22.7394 4.00276
35.247 25.7775 3.984
34.641 37.5093 3.509
36.0278 37.4932 2
37.5316 37.474 0.515882
37.6743 50.3456 0.0101671
36.9334 47.6135 0.12471
36.0699 39.0237 0.58261
35.3701 45.3867 0.202822
34.3871 43.1216 0.412895
34.752 40.4661 0.555506
33.7568 41.5493 0.612201
35.5629 49.5625 2
34.626 39.0135 2
33.3586 40.5562 2
34.599 46.8625 2
33.4342 42.313 2
33.6825 44.7079 2
33.5926 48.6824 3.97162
33.0704 39.1358 3.33424
32.7413 40.9795 3.58583
32.376 43.4249 3.79902
32.9569 45.7888 3.84888
34.5226 52.1123 -0.000522213
32.4052 50.9117 2
30.5558 49.4198 4.00386
30.8363 53.2054 0.00325961
28.9584 51.272 2
27.2834 49.6397 3.97771
27.327 53.2273 0.0453797
25.7259 51.4384 2
24.1865 49.838 3.96873
24.1042 53.2194 0.0464228
22.7054 51.4905 2
21.394 49.9653 3.96765
18.7507 50.0409 3.97322
18.5263 52.5171 3.96664
20.0178 51.3191 2
17.9106 55.1234 3.96237
19.4734 54.0588 2
21.111 52.9418 0.0416243
17.3543 57.7301 3.95903
18.763 56.5411 2
20.3149 55.6209 0.0393898
17.1803 60.4667 3.95637
18.4709 58.9976 2
19.6252 57.7361 0.0380244
17.4128 63.4185 3.97367
18.6423 61.6927 2
19.7565 60.1001 0.0268231
17.9468 66.6102 3.97559
19.1373 64.6205 2
20.2416 62.7588 0.029316
18.75 69.9759 4
19.8867 67.8038 2
20.9469 65.7372 0.030641
21.9167 68.8699 0.0156661
20.9142 71.1327 2
23.1494 72.1454 0
21.6195 13.7235 3.96647
22.2014 11.0781 3.96684
23.117 12.8894 2
23.0417 8.1912 3.97294
23.9745 10.2053 2
24.1201 5.14485 3.98799
25.0203 7.32307 2
25.8616 9.40369 0.0269886
25.446 1.99014 4
26.2776 4.33162 2
27.0709 6.55105 0.0212087
27.7943 1.27778 2
28.49 3.64555 0.0101785
30.1841 0.720592 0
34.7216 35.9951 3.4673
36.0363 35.9596 2
37.5221 35.9543 0.546069
21.3958 15.9728 3.96202
24.7965 12.0935 0.0314556
23.7922 14.4938 0.0194882
25.382 14.0107 2
22.5395 15.1614 2
24.1073 15.7568 2
23.3856 16.3754 3.9659
25.4593 16.2393 3.98612
27.3046 13.435 0.026843
29.8153 14.2232 0.004598
28.4157 16.0158 2
27.5737 19.0407 3.98458
33.3822 34.4516 3.37052
34.6955 34.5333 2
36.0056 34.4368 0.574959
34.6379 33.1724 0.682441
35.6611 31.2186 0.417731
37.4792 29.3327 0.211788
39.7932 28.2394 0.149296
37.5864 27.9233 2
33.7263 33.4214 2
35.4176 29.5672 2
34.3175 31.7822 2
35.3097 28.0481 3.86503
33.7063 30.3168 3.79607
33.4834 32.7649 3.63405
29.9498 22.2361 4.00753
30.3278 19.6268 2
30.9809 16.8753 0.0037215
37.7566 25.9121 0.0423721
35.3835 23.1646 -0.0104482
32.9897 19.9825 0.00171286
32.6086 22.7009 2
35.2608 25.7699 2
32.2584 26.0498 4.01307
32.9015 37.5 3.38728
34.6343 37.5005 2
36.0339 37.4716 0.59737
35.5831 49.5478 0.0189944
34.6652 46.7854 0.147427
34.6503 39.0043 0.512134
33.7251 44.6608 0.208308
33.4901 42.2195 0.371091
33.3771 40.5485 0.648181
33.5722 48.6701 2
33.0657 39.1433 2
32.6833 41.044 2
32.9466 45.8507 2
32.3313 43.4555 2
31.9295 47.4883 3.98609
32.1282 39.3922 3.58719
31.4173 41.7153 3.81715
31.4921 44.4487 3.85326
32.389 50.913 -0.00260872
30.5648 49.4436 2
28.8181 47.8369 3.97321
28.9505 51.2691 0.0129609
27.2858 49.6404 2
25.6606 48.0798 3.97532
25.7207 51.4405 0.0463468
24.1892 49.8362 2
22.7172 48.396 3.97196
22.7002 51.4928 0.0438198
21.3938 49.9633 2
19.9096 48.7689 3.97523
17.6184 49.0707 3.97636
17.4292 51.1546 3.97243
18.7517 50.0397 2
16.9311 53.6463 3.96743
18.5242 52.5172 2
20.0238 51.3189 0.0356621
16.3234 56.3068 3.96149
17.9066 55.1249 2
19.4771 54.0577 0.0386595
15.8369 59.1212 3.95475
17.354 57.7322 2
18.7617 56.5404 0.0373556
15.7952 62.0766 3.96827
17.1796 60.4702 2
18.474 58.9916 0.0425197
16.0929 65.2974 3.98058
17.4108 63.4281 2
18.6416 61.6925 0.0226761
16.6661 68.6801 4
17.9435 66.6058 2
19.1412 64.6235 0.0318787
18.75 69.9759 2
19.8902 67.8079 0.0174033
20.9142 71.1327 0
20.2649 14.7195 3.96875
21.6244 13.7242 2
20.5491 12.0908 3.9717
21.1459 9.16796 3.97336
22.1949 11.0906 2
23.1167 12.8998 0.0234682
22.02 6.08436 3.98612
23.0381 8.19497 2
23.9769 10.1858 0.026168
23.1494 2.85457 4
24.1145 5.14761 2
25.0245 7.32295 0.0239075
25.446 1.99012 2
26.2821 4.33029 0.0116143
27.7943 1.27781 0
33.0517 35.8753 3.37496
34.6669 35.9956 2
36.0066 35.9506 0.589485
21.4024 15.9643 2
20.4698 17.1221 3.95825
22.2252 16.7763 3.95485
25.3831 14.037 0.0257625
22.5389 15.1703 0.0143926
24.1068 15.7475 -0.0132499
25.4575 16.2412 2
23.3873 16.3758 2
24.3618 18.7048 3.98376
27.3943 21.8365 3.99426
28.4252 15.9878 0.00853526
27.5627 19.0544 2
32.757 34.0024 3.58323
33.3618 34.4454 2
34.7764 34.5245 0.566978
33.7616 33.445 0.612455
34.3745 31.8669 0.407132
35.4277 29.6327 0.212144
37.6327 27.9565 0.151302
35.2935 27.9993 2
33.4384 32.6801 2
33.6624 30.2613 2
33.1752 28.678 3.87529
32.3786 31.5492 3.79579
29.42 24.7026 4.01582
29.9268 22.2218 2
30.3321 19.6278 0.0167699
35.247 25.7775 0.0160046
32.6248 22.7394 -0.00276163
32.2491 26.0141 2
30.5196 27.73 3.98749
31.8259 37.4834 3.57897
32.8901 37.5002 2
34.641 37.5093 0.491002
33.5926 48.6824 0.0283794
32.9569 45.7888 0.151122
33.0704 39.1358 0.66576
32.376 43.4249 0.200981
32.7413 40.9795 0.414167
31.8808 47.5183 2
32.0312 39.4018 2
31.3517 41.7755 2
31.428 44.503 2
30.2765 46.1054 3.98124
30.659 39.7187 3.82413
30.1072 42.7855 3.8737
30.5558 49.4198 -0.0038555
28.8201 47.8409 2
27.1246 46.2494 3.9813
27.2834 49.6397 0.0222889
25.6642 48.0781 2
24.015 46.6557 3.97643
24.1865 49.838 0.0312739
22.7155 48.395 2
20.9809 47.2731 3.97585
21.394 49.9653 0.0323498
19.9078 48.7679 2
18.5061 47.8962 3.97635
16.861 48.4402 3.97611
17.6175 49.0708 2
16.4752 49.9389 3.97515
15.9077 52.2082 3.97244
17.4305 51.1539 2
18.7507 50.0409 0.0267832
15.2636 54.8065 3.96567
16.9317 53.6461 2
18.5263 52.5171 0.0333578
14.6334 57.6373 3.95943
16.3222 56.308 2
17.9106 55.1234 0.0376291
14.2763 60.6529 3.96682
15.8362 59.1242 2
17.3543 57.7301 0.0409696
14.3374 63.8519 3.9707
15.7988 62.0757 2
17.1803 60.4667 0.0436266
14.6715 67.2507 4
16.0892 65.293 2
17.4128 63.4185 0.0263251
16.6661 68.6801 2
17.9468 66.6102 0.0244083
18.75 69.9759 0
19.0154 15.9093 3.95721
20.2707 14.7089 2
19.0064 13.213 3.96899
21.6195 13.7235 0.0335265
20.5439 12.0943 2
19.3505 10.2665 3.97101
19.9949 7.1481 3.98463
21.1416 9.16438 2
22.2014 11.0781 0.0331575
20.9142 3.86727 4
22.0135 6.08766 2
23.0417 8.1912 0.0270592
23.1494 2.85451 2
24.1201 5.14485 0.012011
25.446 1.99014 0
32.1486 35.588 3.57492
33.0426 35.8688 2
34.7216 35.9951 0.5327
21.3958 15.9728 0.037978
22.2306 16.7736 2
20.4757 17.1187 2
19.5331 18.6114 3.95718
21.9453 18.0933 3.99046
25.4593 16.2393 0.0138805
23.3856 16.3754 0.0341041
24.3581 18.7156 2
22.6371 20.1527 3.97113
24.9888 21.6824 3.99358
27.0597 23.9842 3.98265
27.3936 21.7444 2
27.5737 19.0407 0.0154243
31.4425 33.2713 3.81617
32.6982 33.9505 2
33.3822 34.4516 0.629482
33.4834 32.7649 0.365952
33.7063 30.3168 0.203931
35.3097 28.0481 0.134973
33.1339 28.6364 2
32.3107 31.4913 2
31.187 30.0406 3.89297
28.8117 26.8942 4.0127
29.4095 24.7118 2
29.9498 22.2361 -0.00752677
32.2584 26.0498 -0.0130696
30.5076 27.7059 2
30.3144 37.4713 3.8257
31.7299 37.4824 2
32.9015 37.5 0.612717
31.9295 47.4883 0.0139092
31.4921 44.4487 0.146743
32.1282 39.3922 0.412805
31.4173 41.7153 0.18285
30.2865 46.1163 2
30.5562 39.726 2
30.0763 42.8173 2
28.6355 44.4529 3.964
28.4041 40.3939 3.91895
28.8181 47.8369 0.0267928
27.1262 46.2492 2
25.3625 44.7804 3.98035
25.6606 48.0798 0.0246821
24.0151 46.6544 2
22.065 45.5897 3.97717
22.7172 48.396 0.028044
20.9812 47.2719 2
19.2846 46.4592 3.97569
19.9096 48.7689 0.0247694
18.5063 47.8962 2
17.1259 47.4716 3.97554
16.8622 48.4406 2
15.8423 48.796 3.97523
17.6184 49.0707 0.0236432
16.4766 49.9384 2
15.0092 50.7937 3.97463
14.2165 53.279 3.97024
15.9081 52.2079 2
17.4292 51.1546 0.027566
13.489 56.0613 3.96153
15.2641 54.8066 2
16.9311 53.6463 0.0325661
12.8806 59.0937 3.95421
14.6324 57.6396 2
16.3234 56.3068 0.0385063
12.6846 62.2919 3.96736
14.2788 60.6539 2
15.8369 59.1212 0.0452482
12.7746 65.6939 4
14.3344 63.8454 2
15.7952 62.0766 0.0317293
14.6714 67.2507 2
16.0929 65.2974 0.0194191
16.6661 68.6801 0
17.8749 17.3133 3.95761
19.0252 15.9026 2
17.5473 14.4625 3.96408
20.2649 14.7195 0.0312507
19.0022 13.2039 2
17.6543 11.5172 3.97074
20.5491 12.0908 0.0283043
19.3459 10.2848 2
18.0546 8.34176 3.98137
18.75 5.0241 4
19.9881 7.15505 2
21.1459 9.16796 0.0266377
20.9142 3.86727 2
22.02 6.08436 0.0138781
23.1494 2.85457 0
30.6659 35.2791 3.81842
32.0488 35.5697 2
33.0517 35.8753 0.62504
22.2252 16.7763 0.0451463
20.4698 17.1221 0.04175
21.9499 18.0877 2
19.5292 18.6071 2
18.4407 20.1813 3.96438
21.2002 19.6301 3.97648
24.3618 18.7048 0.0162409
22.6376 20.1477 2
25.0028 21.6454 2
22.894 22.0211 3.97874
25.3803 23.3178 3.98105
26.4404 26.2736 3.98279
27.0614 23.9872 2
27.3943 21.8365 0.0057416
29.8656 32.6469 3.87306
31.3635 33.221 2
32.757 34.0024 0.416767
32.3786 31.5492 0.204214
33.1752 28.678 0.124709
31.1669 30.0149 2
28.2588 29.5118 4.00775
28.7901 26.9095 2
29.42 24.7026 -0.0158162
30.5196 27.73 0.012511
28.6398 37.4022 3.85573
30.2162 37.484 2
31.8259 37.4834 0.421027
30.2765 46.1054 0.0187587
30.1072 42.7855 0.126296
30.659 39.7187 0.175868
28.639 44.5098 2
28.3599 40.4078 2
26.7889 42.9377 3.97937
25.7253 39.3943 3.97795
27.1246 46.2494 0.0187022
25.3541 44.7884 2
23.3106 43.629 3.97537
24.015 46.6557 0.0235734
22.0632 45.5908 2
20.1148 44.7051 3.97498
20.9809 47.2731 0.024145
19.2843 46.46 2
17.509 45.9789 3.97534
18.5061 47.8962 0.0236462
17.1263 47.472 2
15.6247 47.4672 3.97525
16.861 48.4402 0.0238864
15.844 48.796 2
14.3278 49.3651 3.97489
16.4752 49.9389 0.0248493
15.01 50.7932 2
13.2826 51.7325 3.9733
12.3811 54.43 3.96445
14.2168 53.2789 2
15.9077 52.2082 0.0275601
11.619 57.4202 3.95828
13.4899 56.0617 2
15.2636 54.8065 0.0343258
11.1404 60.6204 3.9668
12.8799 59.0931 2
14.6334 57.6373 0.0405739
10.9835 64.0165 4
12.683 62.2855 2
14.2763 60.6529 0.0331791
12.7745 65.694 2
14.3374 63.8519 0.0292976
14.6715 67.2507 0
16.7218 18.8299 3.96061
17.8752 17.3075 2
16.1865 15.8758 3.95599
19.0154 15.9093 0.0427874
17.5516 14.4589 2
16.0315 12.8655 3.96487
19.0064 13.213 0.0310146
17.6473 11.5194 2
16.2068 9.66943 3.97427
19.3505 10.2665 0.0289944
18.0489 8.34924 2
16.6661 6.31991 4
18.75 5.02404 2
19.9949 7.1481 0.0153651
20.9142 3.86727 0
29.0627 34.9104 3.88398
30.5456 35.2432 2
32.1486 35.588 0.42508
17.1785 21.6098 3.97039
21.9453 18.0933 0.00953792
19.5331 18.6114 0.0428162
21.1962 19.6246 2
18.4313 20.176 2
20.3198 21.872 3.97406
22.6371 20.1527 0.0288664
24.9888 21.6824 0.00641823
22.8946 22.016 2
25.3609 23.3757 2
23.7483 24.9324 3.97114
25.8302 28.8775 3.98433
26.4264 26.2844 2
27.0597 23.9842 0.0173527
27.7359 32.0048 3.97692
29.8174 32.6278 2
31.4425 33.2713 0.183827
31.187 30.0406 0.107028
28.2747 29.4682 2
28.8117 26.8942 -0.0126953
26.4424 36.8809 3.95761
28.5988 37.3875 2
30.3144 37.4713 0.174302
28.6355 44.4529 0.0360009
28.4041 40.3939 0.0810545
26.7641 42.9679 2
25.6813 39.3851 2
24.5619 41.6294 3.97729
23.4154 38.5139 3.97582
25.3625 44.7804 0.0196502
23.3089 43.6337 2
21.0203 42.6738 3.97466
22.065 45.5897 0.0228327
20.1162 44.706 2
17.9355 44.1738 3.97508
19.2846 46.4592 0.0243054
17.5091 45.9797 2
15.5978 45.9047 3.97531
17.1259 47.4716 0.0244644
15.625 47.4674 2
13.8653 47.8446 3.975
15.8423 48.796 0.0247695
14.3288 49.3647 2
12.5207 50.1201 3.97494
15.0092 50.7937 0.0253655
13.2833 51.7322 2
11.3726 52.7504 3.96696
10.4216 55.6757 3.96033
12.381 54.4302 2
14.2165 53.279 0.0297552
9.70669 58.8457 3.96947
11.6235 57.4194 2
13.489 56.0613 0.038474
9.30605 62.2254 4
11.1389 60.6139 2
12.8806 59.0937 0.0457925
10.9835 64.0165 2
12.6846 62.2919 0.0326406
12.7746 65.6939 0
15.5228 20.3653 3.96552
16.7361 18.8292 2
14.9236 17.4147 3.95747
17.8749 17.3133 0.0423876
16.1848 15.87 2
14.4945 14.3387 3.96543
17.5473 14.4625 0.0359157
16.0344 12.8614 2
14.4506 11.1207 3.97321
17.6543 11.5172 0.0292583
16.2017 9.67809 2
14.6715 7.74927 4
18.0546 8.34176 0.018635
16.6661 6.31988 2
18.75 5.0241 0
27.0189 34.4228 3.97351
29.0331 34.9176 2
30.6659 35.2791 0.181584
18.4753 22.6008 3.97463
16.0785 23.1467 3.9727
17.1764 21.6066 2
21.2002 19.6301 0.0235221
18.4407 20.1813 0.0356217
20.322 21.8701 2
20.4884 24.7248 3.97222
22.894 22.0211 0.021262
25.3803 23.3178 0.0189515
23.7408 24.9263 2
23.2005 28.2227 3.97109
25.3064 31.5213 3.98324
25.8413 28.8304 2
26.4404 26.2736 0.0172132
27.7029 31.9741 2
29.8656 32.6469 0.126939
28.2588 29.5118 -0.00775141
24.1619 36.3366 3.9783
26.4046 36.8762 2
28.6398 37.4022 0.14427
26.7889 42.9377 0.0206269
25.7253 39.3943 0.0220496
24.5325 41.635 2
23.4143 38.5114 2
22.1865 40.5162 3.97552
21.4821 37.7849 3.97795
23.3106 43.629 0.0246253
21.021 42.6728 2
18.4244 41.9532 3.9757
20.1148 44.7051 0.0250176
17.9356 44.174 2
15.6461 44.0426 3.97527
17.509 45.9789 0.0246611
15.5972 45.905 2
13.5666 46.1523 3.97523
15.6247 47.4672 0.0247493
13.8656 47.8445 2
11.9108 48.427 3.97496
14.3278 49.3651 0.0251131
12.5219 50.1196 2
10.5081 51.0018 3.96945
13.2826 51.7325 0.0266983
11.3734 52.7499 2
9.32548 53.8597 3.96179
8.39072 56.9813 3.97028
10.4235 55.6746 2
12.3811 54.43 0.0355489
7.74927 60.3285 4
9.70569 58.8406 2
11.619 57.4202 0.0417242
9.306 62.2255 2
11.1404 60.6204 0.0331953
10.9835 64.0165 0
14.3507 21.918 3.97082
15.525 20.3623 2
13.6645 19.0104 3.96142
16.7218 18.8299 0.0393896
14.9236 17.4107 2
13.0484 15.9208 3.95878
16.1865 15.8758 0.0440143
14.5021 14.3345 2
12.7877 12.6954 3.96859
16.0315 12.8655 0.0351293
14.4465 11.1307 2
12.7746 9.30605 4
16.2068 9.66943 0.025727
14.6715 7.74924 2
16.6661 6.31991 0
24.6913 33.9274 3.98179
26.9919 34.4055 2
29.0627 34.9104 0.116016
18.3608 24.3416 3.97323
18.4836 22.6007 2
14.8906 24.6525 3.97417
16.0773 23.1437 2
17.1785 21.6098 0.0296097
20.0571 27.5246 3.97307
20.3198 21.872 0.0259383
20.4915 24.7238 2
22.5845 30.9525 3.97392
23.7483 24.9324 0.0288556
23.1962 28.2307 2
25.2591 31.5571 2
25.8302 28.8775 0.015669
27.7359 32.0048 0.0230804
21.575 35.9841 3.97783
24.156 36.3359 2
26.4424 36.8809 0.0423932
24.5619 41.6294 0.0227072
23.4154 38.5139 0.0241794
22.1908 40.5166 2
21.4858 37.7852 2
19.2088 38.9597 3.97712
21.0203 42.6738 0.025345
18.424 41.9528 2
15.6298 41.818 3.97587
17.9355 44.1738 0.0249165
15.6451 44.0428 2
13.3251 44.2765 3.97541
15.5978 45.9047 0.0246944
13.5661 46.1524 2
11.4254 46.6273 3.97534
13.8653 47.8446 0.0249968
11.9124 48.4263 2
9.77507 49.1705 3.97234
12.5207 50.1201 0.0250612
10.5094 51.001 2
8.35034 51.9779 3.96306
11.3726 52.7504 0.0330404
9.32377 53.8588 2
7.19935 55.0336 3.97112
6.31991 58.3339 4
8.38954 56.9766 2
10.4216 55.6757 0.0396723
7.74924 60.3285 2
9.70669 58.8457 0.0305297
9.30605 62.2254 0
13.7336 25.5347 3.97606
13.2394 23.4333 3.97412
14.3518 21.9153 2
12.4784 20.653 3.96443
15.5228 20.3653 0.0344756
13.6576 19.0054 2
11.7167 17.6004 3.95754
14.9236 17.4147 0.0425343
13.0586 15.918 2
11.2266 14.3818 3.9654
14.4945 14.3387 0.0345708
12.7869 12.7049 2
10.9835 10.9835 4
14.4506 11.1207 0.0267895
12.7745 9.306 2
14.6715 7.74927 0
21.9489 33.5775 3.9766
24.6904 33.903 2
27.0189 34.4228 0.0264921
16.6744 26.6398 3.97414
18.3641 24.3407 2
18.4753 22.6008 0.0253722
14.887 24.6515 2
16.0785 23.1467 0.0273032
19.4547 30.416 3.97469
20.0588 27.5225 2
20.4884 24.7248 0.0277794
22.6 30.948 2
23.2005 28.2227 0.0289096
25.3064 31.5213 0.0167617
18.7822 36.0218 3.97762
21.5773 35.9853 2
24.1619 36.3366 0.0216998
22.1865 40.5162 0.0244834
21.4821 37.7849 0.022046
19.2089 38.9584 2
15.1109 39.1423 3.97686
18.4244 41.9532 0.0242987
15.6292 41.8177 2
13.0112 42.2004 3.97594
15.6461 44.0426 0.0247345
13.3243 44.2765 2
11.0082 44.7197 3.97598
13.5666 46.1523 0.0247715
11.4268 46.6268 2
9.15183 47.2598 3.97451
11.9108 48.427 0.0250407
9.77688 49.1695 2
7.50592 50.016 3.96418
10.5081 51.0018 0.0305517
8.34815 51.977 2
6.1395 53.009 3.97142
9.32548 53.8597 0.0382094
7.19882 55.0294 2
5.0241 56.25 4
6.31988 58.3339 2
8.39072 56.9813 0.0297223
7.74927 60.3285 0
14.0386 26.9817 3.97494
12.3444 24.9235 3.97518
13.7311 25.5333 2
11.4006 22.329 3.96781
13.2395 23.4314 2
14.3507 21.918 0.0291837
12.4744 20.6496 2
10.4925 19.3584 3.95983
13.6645 19.0104 0.0385817
11.7338 17.6007 2
9.76709 16.1624 3.96892
13.0484 15.9208 0.0412209
11.2265 14.3879 2
9.30607 12.7746 4
12.7877 12.6954 0.0314064
10.9835 10.9835 2
12.7746 9.30605 0
18.9498 33.2395 3.97562
21.9453 33.5813 2
24.6913 33.9274 0.0182056
16.3046 29.825 3.97504
16.6727 26.6401 2
18.3608 24.3416 0.0267726
14.8906 24.6525 0.0258321
19.4485 30.4158 2
20.0571 27.5246 0.0269343
22.5845 30.9525 0.0260783
15.7607 36.0537 3.97709
18.783 36.022 2
21.575 35.9841 0.0221749
13.2456 37.8272 3.977
19.2088 38.9597 0.0228787
15.1105 39.142 2
12.4978 40.101 3.97644
15.6298 41.818 0.0241257
13.0102 42.2001 2
10.5997 42.7214 3.97613
13.3251 44.2765 0.0245925
11.0092 44.7193 2
8.62527 45.2732 3.97577
11.4254 46.6273 0.02466
9.15416 47.2588 2
6.7859 47.9854 3.96457
9.77507 49.1705 0.0276623
7.50346 50.0152 2
5.21568 50.912 3.97141
8.35034 51.9779 0.0369439
6.13943 53.0059 2
3.86727 54.0858 4
7.19935 55.0336 0.0288849
5.02404 56.25 2
6.31991 58.3339 0
13.5133 29.1654 3.97435
11.7917 26.6051 3.97469
14.0372 26.9819 2
10.4407 24.046 3.97165
12.3458 24.9224 2
13.7336 25.5347 0.0239412
9.34539 21.1716 3.96212
11.3993 22.3273 2
13.2394 23.4333 0.0258772
12.4784 20.653 0.0355686
10.5021 19.3589 2
8.42315 18.0306 3.97025
11.7167 17.6004 0.0424616
9.76638 16.1671 2
7.74928 14.6715 4
11.2266 14.3818 0.0346015
9.30602 12.7745 2
10.9835 10.9835 0
15.2771 32.9566 3.97622
18.9503 33.241 2
21.9489 33.5775 0.0233995
16.3045 29.825 2
16.6744 26.6398 0.0258619
19.4547 30.416 0.0253084
13.5576 36.2302 3.97662
15.7616 36.0536 2
18.7822 36.0218 0.0223808
13.2447 37.8269 2
11.8063 38.3006 3.97658
15.1109 39.1423 0.0231395
12.4967 40.1011 2
10.1666 40.7212 3.97657
13.0112 42.2004 0.0240591
10.6008 42.7209 2
8.16954 43.2349 3.97648
11.0082 44.7197 0.0240208
8.62877 45.2722 2
6.18202 45.8942 3.96502
9.15183 47.2598 0.0254869
6.78366 47.9847 2
4.42657 48.752 3.97144
7.50592 50.016 0.035822
5.21594 50.9097 2
2.85457 51.8506 4
6.1395 53.009 0.028583
3.86727 54.0858 2
5.0241 56.25 0
12.6319 31.3427 3.97569
11.1996 28.5121 3.97515
13.5133 29.1652 2
9.64485 25.8642 3.97389
11.7923 26.6052 2
14.0386 26.9817 0.0250562
8.31099 23.0477 3.96401
10.4429 24.0457 2
12.3444 24.9235 0.0248219
7.20513 19.9782 3.97138
9.35124 21.1726 2
11.4006 22.329 0.0321948
10.4925 19.3584 0.040171
8.42254 18.0351 2
6.31992 16.6661 4
9.76709 16.1624 0.0310836
7.74926 14.6714 2
9.30607 12.7746 0
12.6725 34.3447 3.97663
15.2764 32.9572 2
18.9498 33.2395 0.0243771
16.3046 29.825 0.0249586
11.3289 36.6251 3.97656
13.5576 36.2301 2
15.7607 36.0537 0.0229082
13.2456 37.8272 0.0230038
11.8054 38.3003 2
9.73688 38.8113 3.97689
12.4978 40.101 0.0235577
10.1673 40.7208 2
7.76989 41.1897 3.97658
10.5997 42.7214 0.0238659
8.1721 43.234 2
5.68254 43.7607 3.96568
8.62527 45.2732 0.0242262
6.17819 45.8937 2
3.77164 46.5371 3.97195
6.7859 47.9854 0.0354295
4.42719 48.7503 2
1.99014 49.554 4
5.21568 50.912 0.0285909
2.85451 51.8506 2
3.86727 54.0858 0
11.4097 32.9789 3.97644
10.4957 30.4519 3.97568
12.6306 31.3429 2
8.94504 27.7863 3.97458
11.2007 28.5124 2
13.5133 29.1654 0.0256492
7.42166 25.0007 3.96451
9.64751 25.8643 2
11.7917 26.6051 0.0253065
6.12163 22.0006 3.97185
8.31221 23.0485 2
10.4407 24.046 0.0283457
5.02411 18.75 4
7.20485 19.9818 2
9.34539 21.1716 0.0378828
8.42315 18.0306 0.029751
6.3199 16.6661 2
7.74928 14.6715 0
10.9029 35.0286 3.97636
12.6713 34.3448 2
15.2771 32.9566 0.0237757
9.38429 36.9901 3.977
11.3282 36.6251 2
13.5576 36.2302 0.0233769
11.8063 38.3006 0.0234242
9.73783 38.811 2
7.43332 39.1729 3.97654
10.1666 40.7212 0.0234271
7.77335 41.189 2
5.29018 41.6096 3.96615
8.16954 43.2349 0.0235195
5.67984 43.7602 2
3.24906 44.2817 3.97282
6.18202 45.8942 0.0349826
3.77252 46.5358 2
1.27781 47.2057 4
4.42657 48.752 0.0285641
1.99012 49.554 2
2.85457 51.8506 0
10.5218 33.9198 3.97617
9.75474 32.2029 3.97639
11.4092 32.9792 2
8.2774 29.737 3.97508
10.4967 30.4523 2
12.6319 31.3427 0.0243108
6.65094 27.022 3.9646
8.94798 27.7867 2
11.1996 28.5121 0.0248504
5.17629 24.0936 3.97174
7.41979 25.0011 2
9.64485 25.8642 0.02611
3.86728 20.9142 4
6.12174 22.0032 2
8.31099 23.0477 0.0359888
5.02406 18.75 2
7.20513 19.9782 0.028616
6.31992 16.6661 0
9.19077 35.2993 3.97706
10.9023 35.0285 2
12.6725 34.3447 0.0233677
7.19993 37.2073 3.97634
9.38567 36.99 2
11.3289 36.6251 0.0234415
9.73688 38.8113 0.0231145
7.43657 39.1725 2
5.01141 39.4659 3.96644
7.76989 41.1897 0.0234189
5.28792 41.6092 2
2.85926 42.002 3.9734
5.68254 43.7607 0.0343156
3.24975 44.2808 2
0.720592 44.8159 4
3.77164 46.5371 0.0280451
1.27778 47.2057 2
1.99014 49.554 0
9.22546 33.7298 3.97701
10.5218 33.9199 2
7.70171 31.6389 3.97553
9.75678 32.2035 2
11.4097 32.9789 0.0235623
5.98468 29.0798 3.96485
8.28029 29.7376 2
10.4957 30.4519 0.0243199
4.36315 26.2469 3.97192
6.64784 27.0224 2
8.94504 27.7863 0.0254248
2.85458 23.1494 4
5.17673 24.0953 2
7.42166 25.0007 0.0354874
3.86728 20.9142 2
6.12163 22.0006 0.028153
5.02411 18.75 0
7.14076 35.3167 3.97609
9.19272 35.2994 2
10.9029 35.0286 0.0236379
4.85561 37.3409 3.96639
7.20312 37.2071 2
9.38429 36.9901 0.0229952
7.43332 39.1729 0.0234621
5.00892 39.4657 2
2.60711 39.7138 3.97381
5.29018 41.6096 0.0338504
2.86023 42.0015 2
0.320823 42.3947 4
3.24906 44.2817 0.0271801
0.720551 44.8159 2
1.27781 47.2057 0
7.30318 33.4805 3.97589
9.22765 33.7302 2
10.5218 33.9198 0.0238287
5.44373 31.1409 3.96533
7.70451 31.6395 2
9.75474 32.2029 0.0236111
3.68427 28.4437 3.97232
5.98062 29.0801 2
8.2774 29.737 0.0249229
1.99015 25.446 4
4.36381 26.2482 2
6.65094 27.022 0.0354007
2.85453 23.1494 2
5.17629 24.0936 0.0282626
3.86728 20.9142 0
4.86779 35.2548 3.96606
7.14297 35.3168 2
9.19077 35.2993 0.022943
2.49855 37.4287 3.97458
4.85243 37.3409 2
7.19993 37.2073 0.0236557
5.01141 39.4659 0.03356
2.60824 39.7139 2
0.080333 39.9526 4
2.85926 42.002 0.0266021
0.320817 42.3947 2
0.720592 44.8159 0
5.06423 33.1953 3.96575
7.30533 33.4809 2
9.22546 33.7298 0.022987
3.14826 30.667 3.97303
5.4392 31.1412 2
7.70171 31.6389 0.0244739
1.27793 27.7943 4
3.68521 28.4448 2
5.98468 29.0798 0.0351508
1.99013 25.446 2
4.36315 26.2469 0.0280841
2.85458 23.1494 0
2.55054 35.1596 3.97438
4.86549 35.255 2
7.14076 35.3167 0.0239083
0 37.5 4
2.49924 37.429 2
4.85561 37.3409 0.0336071
2.60711 39.7138 0.0261909
0.0802903 39.9526 2
0.320823 42.3947 0
2.76826 32.9066 3.97408
5.06133 33.1957 2
7.30318 33.4805 0.0241102
0.721173 30.1842 4
3.14938 30.6679 2
5.44373 31.1409 0.0346664
1.27779 27.7943 2
3.68427 28.4437 0.0276818
1.99015 25.446 0
0.0806499 35.0474 4
2.55182 35.16 2
4.86779 35.2548 0.0339372
0 37.5 2
2.49855 37.4287 0.0254157
0.080333 39.9526 0
0.32156 32.6054 4
2.76904 32.9074 2
5.06423 33.1953 0.0342465
0.72056 30.1841 2
3.14826 30.667 0.0269689
1.27793 27.7943 0
0.0802889 35.0474 2
2.55054 35.1596 0.0256222
0 37.5 0
0.320817 32.6053 2
2.76826 32.9066 0.0259176
0.721173 30.1842 0
0.0806499 35.0474 0
0.32156 32.6054 0
CELLS 1910 17190
8 18 6 25 56 2 0 5 16
8 57 23 6 18 17 4 0 2
8 78 36 9 29 31 11 1 7
8 31 11 1 7 79 37 10 30
8 110 57 18 50 48 17 2 14
8 50 18 56 111 14 2 16 49
8 116 62 22 55 52 20 3 15
8 56 25 67 118 16 5 24 53
8 119 63 23 57 54 21 4 17
8 55 22 63 119 15 3 21 54
8 58 26 68 121 18 6 25 56
8 122 65 26 58 57 23 6 18
8 73 31 7 27 142 79 30 71
8 143 78 29 72 73 31 7 27
8 83 147 76 34 32 74 28 8
8 84 148 78 36 33 75 29 9
8 76 34 8 28 148 84 33 75
8 37 79 150 86 10 30 77 35
8 151 87 36 78 80 38 11 31
8 80 38 11 31 152 88 37 79
8 175 100 42 94 96 44 12 40
8 44 96 176 101 12 40 95 43
8 101 176 98 46 43 95 41 13
8 46 98 178 103 13 41 97 45
8 178 103 45 97 147 83 32 74
8 189 116 55 109 106 52 15 47
8 111 56 118 191 49 16 53 107
8 192 119 57 110 108 54 17 48
8 109 55 119 192 47 15 54 108
8 194 122 58 112 110 57 18 50
8 112 58 121 195 50 18 56 111
8 115 61 19 51 197 124 59 113
8 115 61 125 198 51 19 60 114
8 198 125 62 116 114 60 20 52
8 200 127 64 120 116 62 22 55
8 118 67 132 202 53 24 66 117
8 121 68 133 203 56 25 67 118
8 120 64 128 204 55 22 63 119
8 204 128 65 122 119 63 23 57
8 206 134 68 121 123 69 26 58
8 123 69 26 58 207 131 65 122
8 226 147 74 138 140 76 28 70
8 229 148 75 139 143 78 29 72
8 140 76 28 70 229 148 75 139
8 142 79 30 71 231 150 77 141
8 144 80 31 73 232 152 79 142
8 233 151 78 143 144 80 31 73
8 150 86 35 77 235 154 81 145
8 235 154 81 145 146 82 39 91
8 146 82 39 91 236 155 90 165
8 238 157 83 147 149 85 34 76
8 239 158 84 148 151 87 36 78
8 149 85 34 76 239 158 84 148
8 152 88 37 79 241 160 86 150
8 242 161 87 151 153 89 38 80
8 153 89 38 80 243 162 88 152
8 171 98 41 92 265 178 97 169
8 265 178 97 169 226 147 74 138
8 172 96 40 93 266 176 95 170
8 266 176 95 170 171 98 41 92
8 269 175 94 173 172 96 40 93
8 271 180 99 174 175 100 42 94
8 197 124 59 113 271 180 99 174
8 272 181 100 175 177 102 44 96
8 273 182 101 176 179 104 46 98
8 177 102 44 96 273 182 101 176
8 179 104 46 98 275 184 103 178
8 275 184 103 178 238 157 83 147
8 188 115 51 105 283 197 113 186
8 188 115 198 284 105 51 114 187
8 284 198 116 189 187 114 52 106
8 286 200 120 193 189 116 55 109
8 191 118 202 288 107 53 117 190
8 195 121 203 289 111 56 118 191
8 193 120 204 290 109 55 119 192
8 290 204 122 194 192 119 57 110
8 196 123 58 112 292 207 122 194
8 293 206 121 195 196 123 58 112
8 199 126 61 115 297 211 124 197
8 298 212 127 200 198 125 62 116
8 199 126 212 298 115 61 125 198
8 205 129 64 120 300 214 127 200
8 301 217 130 201 202 132 66 117
8 209 136 168 264 301 217 130 201
8 302 219 132 202 203 133 67 118
8 303 220 133 203 206 134 68 121
8 205 129 215 304 120 64 128 204
8 304 215 131 207 204 128 65 122
8 306 221 134 206 208 135 69 123
8 208 135 69 123 307 218 131 207
8 210 137 167 263 309 223 136 209
8 328 238 147 226 230 149 76 140
8 228 146 91 166 329 236 165 260
8 231 150 77 141 330 235 145 227
8 330 235 145 227 228 146 91 166
8 332 239 148 229 233 151 78 143
8 230 149 76 140 332 239 148 229
8 232 152 79 142 334 241 150 231
8 234 153 80 144 335 243 152 232
8 336 242 151 233 234 153 80 144
8 236 155 90 165 338 245 164 259
8 241 160 86 150 339 246 154 235
8 339 246 154 235 237 156 82 146
8 237 156 82 146 340 247 155 236
8 342 249 157 238 240 159 85 149
8 343 250 158 239 242 161 87 151
8 240 159 85 149 343 250 158 239
8 243 162 88 152 345 252 160 241
8 244 163 253 346 153 89 161 242
8 244 163 89 153 347 254 162 243
8 311 224 261 371 210 137 167 263
8 263 167 262 372 209 136 168 264
8 267 179 98 171 375 275 178 265
8 375 275 178 265 328 238 147 226
8 376 273 176 266 267 179 98 171
8 268 177 96 172 376 273 176 266
8 379 272 175 269 268 177 96 172
8 380 271 174 270 269 175 94 173
8 283 197 113 186 380 271 174 270
8 381 277 180 271 272 181 100 175
8 297 211 124 197 381 277 180 271
8 382 278 181 272 274 183 102 177
8 274 183 102 177 383 279 182 273
8 383 279 182 273 276 185 104 179
8 385 281 184 275 342 249 157 238
8 276 185 104 179 385 281 184 275
8 285 199 115 188 393 297 197 283
8 394 298 200 286 284 198 116 189
8 285 199 298 394 188 115 198 284
8 291 205 120 193 396 300 200 286
8 397 301 201 287 288 202 117 190
8 295 209 264 374 397 301 201 287
8 398 302 202 288 289 203 118 191
8 399 303 203 289 293 206 121 195
8 291 205 304 400 193 120 204 290
8 400 304 207 292 290 204 122 194
8 294 208 123 196 402 307 207 292
8 403 306 206 293 294 208 123 196
8 296 210 263 373 405 309 209 295
8 408 312 213 299 297 211 126 199
8 299 213 313 409 199 126 212 298
8 409 313 214 300 298 212 127 200
8 305 216 129 205 411 315 214 300
8 412 318 217 301 302 219 132 202
8 309 223 136 209 412 318 217 301
8 413 320 219 302 303 220 133 203
8 306 221 321 414 206 134 220 303
8 307 218 131 207 415 316 215 304
8 305 216 316 415 205 129 215 304
8 417 322 221 306 308 222 135 208
8 308 222 135 208 418 319 218 307
8 310 225 137 210 420 325 223 309
8 423 326 224 311 310 225 137 210
8 329 236 165 260 441 338 259 368
8 442 342 238 328 333 240 149 230
8 331 237 146 228 443 340 236 329
8 334 241 150 231 444 339 235 330
8 444 339 235 330 331 237 146 228
8 446 343 239 332 336 242 151 233
8 333 240 149 230 446 343 239 332
8 335 243 152 232 448 345 241 334
8 337 244 153 234 449 347 243 335
8 337 244 346 450 234 153 242 336
8 338 245 164 259 452 349 258 367
8 340 247 155 236 453 350 245 338
8 345 252 160 241 454 351 246 339
8 454 351 246 339 341 248 156 237
8 341 248 156 237 455 352 247 340
8 240 159 251 344 342 249 354 457
8 242 161 253 346 343 250 355 458
8 343 250 355 458 240 159 251 344
8 347 254 162 243 460 357 252 345
8 348 255 358 461 244 163 253 346
8 348 255 163 244 462 359 254 347
8 473 360 257 365 363 256 364 482
8 452 349 258 367 365 257 366 485
8 422 324 369 488 311 224 261 371
8 371 261 370 490 263 167 262 372
8 407 311 371 491 296 210 263 373
8 373 263 372 492 295 209 264 374
8 493 385 275 375 442 342 238 328
8 377 276 179 267 493 385 275 375
8 378 274 177 268 494 383 273 376
8 494 383 273 376 377 276 179 267
8 497 382 272 379 378 274 177 268
8 498 381 271 380 379 272 175 269
8 393 297 197 283 498 381 271 380
8 499 387 277 381 382 278 181 272
8 408 312 211 297 499 387 277 381
8 500 388 278 382 384 280 183 274
8 501 389 279 383 386 282 185 276
8 384 280 183 274 501 389 279 383
8 386 282 185 276 503 391 281 385
8 503 391 281 385 457 354 249 342
8 511 408 299 395 393 297 199 285
8 395 299 409 512 285 199 298 394
8 512 409 300 396 394 298 200 286
8 401 305 205 291 514 411 300 396
8 515 412 301 397 398 302 202 288
8 405 309 209 295 515 412 301 397
8 516 413 302 398 399 303 203 289
8 403 306 414 517 293 206 303 399
8 402 307 207 292 518 415 304 400
8 401 305 415 518 291 205 304 400
8 404 308 208 294 520 418 307 402
8 521 417 306 403 404 308 208 294
8 406 310 210 296 523 420 309 405
8 526 423 311 407 406 310 210 296
8 410 314 213 299 527 424 312 408
8 528 425 315 411 409 313 214 300
8 410 314 425 528 299 213 313 409
8 416 317 216 305 530 427 315 411
8 531 430 318 412 413 320 219 302
8 420 325 223 309 531 430 318 412
8 532 432 320 413 414 321 220 303
8 417 322 433 533 306 221 321 414
8 418 319 218 307 534 428 316 415
8 416 317 428 534 305 216 316 415
8 419 323 434 536 308 222 322 417
8 419 323 222 308 537 431 319 418
8 421 327 225 310 539 438 325 420
8 421 327 439 541 310 225 326 423
8 543 437 324 422 423 326 224 311
8 441 338 259 368 559 452 367 486
8 443 340 236 329 560 453 338 441
8 333 240 344 447 442 342 457 561
8 445 341 237 331 562 455 340 443
8 448 345 241 334 563 454 339 444
8 563 454 339 444 445 341 237 331
8 336 242 346 450 446 343 458 565
8 446 343 458 565 333 240 344 447
8 449 347 243 335 567 460 345 448
8 451 348 244 337 568 462 347 449
8 451 348 461 569 337 244 346 450
8 570 463 349 452 473 360 257 365
8 453 350 245 338 570 463 349 452
8 455 352 247 340 571 464 350 453
8 460 357 252 345 572 465 351 454
8 572 465 351 454 456 353 248 341
8 456 353 248 341 573 466 352 455
8 344 251 356 459 457 354 468 575
8 458 355 469 576 344 251 356 459
8 346 253 358 461 458 355 469 576
8 462 359 254 347 578 471 357 460
8 348 255 359 462 461 358 472 579
8 591 474 360 473 475 361 256 363
8 475 361 256 363 594 477 362 479
8 363 256 364 482 479 362 480 603
8 590 473 365 484 481 363 482 605
8 482 364 257 365 606 483 366 485
8 559 452 367 486 484 365 485 607
8 542 436 487 609 422 324 369 488
8 525 422 488 611 407 311 371 491
8 488 369 489 612 371 261 370 490
8 491 371 490 613 373 263 372 492
8 495 386 276 377 614 503 385 493
8 614 503 385 493 561 457 342 442
8 615 501 383 494 495 386 276 377
8 496 384 274 378 615 501 383 494
8 618 500 382 497 496 384 274 378
8 619 499 381 498 497 382 272 379
8 511 408 297 393 619 499 381 498
8 620 505 387 499 500 388 278 382
8 527 424 312 408 620 505 387 499
8 502 390 506 621 384 280 388 500
8 622 507 389 501 504 392 282 386
8 502 390 280 384 622 507 389 501
8 504 392 282 386 624 509 391 503
8 624 509 391 503 575 468 354 457
8 513 410 299 395 630 527 408 511
8 631 528 411 514 512 409 300 396
8 513 410 528 631 395 299 409 512
8 519 416 305 401 633 530 411 514
8 634 531 412 515 516 413 302 398
8 523 420 309 405 634 531 412 515
8 635 532 413 516 517 414 303 399
8 521 417 533 636 403 306 414 517
8 520 418 307 402 637 534 415 518
8 519 416 534 637 401 305 415 518
8 522 419 308 404 639 537 418 520
8 522 419 536 640 404 308 417 521
8 524 421 310 406 642 539 420 523
8 524 421 541 644 406 310 423 526
8 646 543 422 525 526 423 311 407
8 529 426 314 410 647 544 424 527
8 528 425 545 648 411 315 427 530
8 529 426 545 648 410 314 425 528
8 535 429 317 416 649 546 427 530
8 650 548 430 531 532 432 320 413
8 539 438 325 420 650 548 430 531
8 533 433 550 651 414 321 432 532
8 536 434 551 652 417 322 433 533
8 537 431 319 418 653 547 428 534
8 535 429 547 653 416 317 428 534
8 538 435 552 654 419 323 434 536
8 538 435 323 419 655 549 431 537
8 540 440 327 421 657 556 438 539
8 540 440 557 659 421 327 439 541
8 541 439 555 660 423 326 437 543
8 661 554 436 542 543 437 324 422
8 676 570 452 559 590 473 365 484
8 560 453 338 441 676 570 452 559
8 562 455 340 443 677 571 453 560
8 447 344 459 566 561 457 575 678
8 564 456 341 445 679 573 455 562
8 567 460 345 448 680 572 454 563
8 680 572 454 563 564 456 341 445
8 565 458 576 682 447 344 459 566
8 450 346 461 569 565 458 576 682
8 568 462 347 449 684 578 460 567
8 451 348 462 568 569 461 579 685
8 686 580 463 570 591 474 360 473
8 571 464 350 453 686 580 463 570
8 573 466 352 455 687 581 464 571
8 572 465 582 688 460 357 471 578
8 574 467 582 688 456 353 465 572
8 574 467 353 456 689 583 466 573
8 459 356 470 577 575 468 585 691
8 576 469 586 692 459 356 470 577
8 461 358 472 579 576 469 586 692
8 462 359 471 578 579 472 588 694
8 704 591 473 590 593 475 363 481
8 595 476 592 705 475 361 474 591
8 593 475 363 481 707 594 479 602
8 594 477 362 479 709 598 478 600
8 595 476 361 475 711 597 477 594
8 479 362 480 603 600 478 601 720
8 481 363 482 605 602 479 603 722
8 603 480 364 482 723 604 483 606
8 605 482 365 484 724 606 485 607
8 656 553 608 726 542 436 487 609
8 645 542 609 728 525 422 488 611
8 609 487 610 729 488 369 489 612
8 611 488 612 730 491 371 490 613
8 616 504 386 495 731 624 503 614
8 731 624 503 614 678 575 457 561
8 732 622 501 615 616 504 386 495
8 617 502 384 496 732 622 501 615
8 617 502 621 735 496 384 500 618
8 736 620 499 619 618 500 382 497
8 630 527 408 511 736 620 499 619
8 621 506 626 737 500 388 505 620
8 647 544 424 527 737 626 505 620
8 623 508 627 738 502 390 506 621
8 623 508 390 502 739 628 507 622
8 625 510 628 739 504 392 507 622
8 740 629 509 624 691 585 468 575
8 625 510 392 504 740 629 509 624
8 632 529 410 513 744 647 527 630
8 631 528 648 745 514 411 530 633
8 632 529 648 745 513 410 528 631
8 638 535 416 519 746 649 530 633
8 747 650 531 634 635 532 413 516
8 642 539 420 523 747 650 531 634
8 636 533 651 748 517 414 532 635
8 640 536 652 749 521 417 533 636
8 639 537 418 520 750 653 534 637
8 638 535 653 750 519 416 534 637
8 641 538 419 522 751 655 537 639
8 641 538 654 752 522 419 536 640
8 643 540 421 524 753 657 539 642
8 643 540 659 755 524 421 541 644
8 644 541 660 757 526 423 543 646
8 758 661 542 645 646 543 422 525
8 529 426 544 647 648 545 662 759
8 530 427 545 648 649 546 663 760
8 535 429 546 649 653 547 664 761
8 762 666 548 650 651 550 432 532
8 657 556 438 539 762 666 548 650
8 652 551 668 763 533 433 550 651
8 654 552 669 764 536 434 551 652
8 655 549 431 537 765 665 547 653
8 538 435 549 655 654 552 667 766
8 661 554 671 768 542 436 553 656
8 658 558 440 540 769 674 556 657
8 658 558 675 770 540 440 557 659
8 659 557 673 771 541 439 555 660
8 660 555 672 772 543 437 554 661
8 788 686 570 676 704 591 473 590
8 677 571 453 560 788 686 570 676
8 679 573 455 562 789 687 571 677
8 566 459 577 683 678 575 691 790
8 681 574 456 564 791 689 573 679
8 680 572 688 792 567 460 578 684
8 681 574 688 792 564 456 572 680
8 682 576 692 794 566 459 577 683
8 569 461 579 685 682 576 692 794
8 568 462 578 684 685 579 694 796
8 687 581 464 571 798 696 580 686
8 798 696 580 686 705 592 474 591
8 689 583 466 573 799 697 581 687
8 688 582 698 800 578 471 588 694
8 690 584 698 800 574 467 582 688
8 690 584 467 574 801 699 583 689
8 693 587 701 803 577 470 585 691
8 693 587 470 577 804 702 586 692
8 695 589 702 804 579 472 586 692
8 695 589 472 579 805 703 588 694
8 708 595 705 813 593 475 591 704
8 710 596 706 814 595 476 592 705
8 707 594 479 602 816 709 600 719
8 708 595 475 593 817 711 594 707
8 709 598 478 600 819 715 599 717
8 711 597 477 594 820 714 598 709
8 710 596 476 595 822 713 597 711
8 600 478 601 720 717 599 718 832
8 602 479 603 722 719 600 720 834
8 720 601 480 603 835 721 604 723
8 722 603 482 605 836 723 606 724
8 767 670 725 839 656 553 608 726
8 756 656 726 841 645 542 609 728
8 726 608 727 842 609 487 610 729
8 728 609 729 843 611 488 612 730
8 844 740 624 731 790 691 575 678
8 733 625 504 616 844 740 624 731
8 734 623 502 617 845 739 622 732
8 733 625 739 845 616 504 622 732
8 734 623 738 846 617 502 621 735
8 735 621 737 847 618 500 620 736
8 744 647 527 630 847 737 620 736
8 621 506 627 738 737 626 741 848
8 647 544 626 737 759 662 741 848
8 623 508 628 739 738 627 742 849
8 740 629 585 691 850 743 700 802
8 625 510 629 740 739 628 743 850
8 632 529 647 744 745 648 759 854
8 633 530 648 745 746 649 760 855
8 638 535 649 746 750 653 761 856
8 857 762 650 747 748 651 532 635
8 753 657 539 642 857 762 650 747
8 749 652 763 858 636 533 651 748
8 752 654 764 859 640 536 652 749
8 751 655 537 639 860 765 653 750
8 641 538 655 751 752 654 766 861
8 754 658 540 643 862 769 657 753
8 754 658 770 863 643 540 659 755
8 755 659 771 864 644 541 660 757
8 758 661 768 866 645 542 656 756
8 757 660 772 867 646 543 661 758
8 759 662 773 868 648 545 663 760
8 649 546 663 760 761 664 774 871
8 765 665 547 653 872 775 664 761
8 873 777 666 762 763 668 550 651
8 769 674 556 657 873 777 666 762
8 764 669 779 874 652 551 668 763
8 654 552 667 766 764 669 778 875
8 655 549 665 765 766 667 776 876
8 768 671 782 877 656 553 670 767
8 772 672 783 878 661 554 671 768
8 658 558 674 769 770 675 786 879
8 659 557 675 770 771 673 785 881
8 882 784 672 772 771 673 555 660
8 789 687 571 677 897 798 686 788
8 897 798 686 788 813 705 591 704
8 791 689 573 679 898 799 687 789
8 795 693 803 900 683 577 691 790
8 793 690 574 681 901 801 689 791
8 792 688 800 902 684 578 694 796
8 793 690 800 902 681 574 688 792
8 795 693 577 683 903 804 692 794
8 797 695 804 903 685 579 692 794
8 797 695 579 685 904 805 694 796
8 905 806 697 799 798 696 581 687
8 814 706 806 905 705 592 696 798
8 689 583 697 799 801 699 808 907
8 800 698 809 908 694 588 703 805
8 690 584 699 801 800 698 809 908
8 803 701 810 909 691 585 700 802
8 693 587 702 804 803 701 811 910
8 695 589 703 805 804 702 812 911
8 818 710 814 919 708 595 705 813
8 821 712 815 920 710 596 706 814
8 816 709 600 719 922 819 717 831
8 817 711 594 707 923 820 709 816
8 818 710 595 708 924 822 711 817
8 819 715 599 717 926 827 716 829
8 820 714 598 709 927 826 715 819
8 929 825 713 822 820 714 597 711
8 821 712 596 710 930 824 713 822
8 717 599 718 832 829 716 830 942
8 719 600 720 834 831 717 832 944
8 832 718 601 720 945 833 721 835
8 834 720 603 722 946 835 723 836
8 869 780 838 950 767 670 725 839
8 865 767 839 952 756 656 726 841
8 839 725 840 953 726 608 727 842
8 841 726 842 954 728 609 729 843
8 844 740 691 790 955 850 802 899
8 733 625 740 844 845 739 850 955
8 734 623 739 845 846 738 849 956
8 735 621 738 846 847 737 848 957
8 744 647 737 847 854 759 848 957
8 738 627 742 849 848 741 851 958
8 848 741 851 958 759 662 773 868
8 850 743 700 802 959 852 807 906
8 849 742 628 739 959 852 743 850
8 854 759 868 965 745 648 760 855
8 746 649 760 855 856 761 871 966
8 860 765 653 750 967 872 761 856
8 968 873 762 857 858 763 651 748
8 862 769 657 753 968 873 762 857
8 859 764 874 969 749 652 763 858
8 752 654 766 861 859 764 875 970
8 751 655 765 860 861 766 876 971
8 754 658 769 862 863 770 879 972
8 755 659 770 863 864 771 881 974
8 976 882 772 867 864 771 660 757
8 866 768 877 977 756 656 767 865
8 867 772 878 978 758 661 768 866
8 760 663 773 868 871 774 883 980
8 870 781 837 948 982 890 780 869
8 982 890 780 869 877 782 670 767
8 761 664 774 871 872 775 884 984
8 876 776 665 765 985 885 775 872
8 873 777 668 763 986 887 779 874
8 769 674 777 873 879 786 887 986
8 764 669 778 875 874 779 888 987
8 766 667 776 876 875 778 886 988
8 878 783 892 989 768 671 782 877
8 878 783 672 772 990 893 784 882
8 880 787 675 770 991 896 786 879
8 880 787 895 992 770 675 785 881
8 881 785 894 993 771 673 784 882
8 1006 905 799 898 897 798 687 789
8 919 814 905 1006 813 705 798 897
8 791 689 799 898 901 801 907 1007
8 900 803 909 1009 790 691 802 899
8 795 693 804 903 900 803 910 1010
8 902 800 908 1011 796 694 805 904
8 793 690 801 901 902 800 908 1011
8 797 695 805 904 903 804 911 1012
8 799 697 806 905 907 808 912 1013
8 920 815 912 1013 814 706 806 905
8 802 700 810 909 906 807 913 1014
8 801 699 808 907 908 809 914 1015
8 805 703 809 908 911 812 915 1016
8 803 701 811 910 909 810 916 1017
8 911 812 917 1018 804 702 811 910
8 925 821 920 1030 818 710 814 919
8 928 823 921 1031 821 712 815 920
8 922 819 717 831 1033 926 829 941
8 923 820 709 816 1034 927 819 922
8 1035 929 822 924 923 820 711 817
8 925 821 710 818 1036 930 822 924
8 1038 933 825 929 927 826 714 820
8 926 827 716 829 1039 935 828 939
8 927 826 715 819 1040 934 827 926
8 928 823 712 821 1041 931 824 930
8 1042 932 824 930 929 825 713 822
8 829 716 830 942 939 828 940 1058
8 831 717 832 944 941 829 942 1060
8 942 830 718 832 1061 943 833 945
8 944 832 720 834 1062 945 835 946
8 981 889 947 1064 870 781 837 948
8 948 837 949 1067 869 780 838 950
8 975 869 950 1069 865 767 839 952
8 950 838 951 1070 839 725 840 953
8 952 839 953 1071 841 726 842 954
8 955 850 802 899 1072 959 906 1008
8 956 849 739 845 1072 959 850 955
8 846 738 849 956 957 848 958 1073
8 957 848 958 1073 854 759 868 965
8 849 742 852 959 958 851 961 1076
8 960 853 961 1076 906 807 852 959
8 958 851 961 1076 868 773 883 980
8 960 853 807 906 1077 963 913 1014
8 855 760 868 965 966 871 980 1085
8 856 761 871 966 967 872 984 1086
8 971 876 765 860 1087 985 872 967
8 968 873 763 858 1088 986 874 969
8 862 769 873 968 972 879 986 1088
8 859 764 875 970 969 874 987 1089
8 861 766 876 971 970 875 988 1090
8 973 880 770 863 1091 991 879 972
8 973 880 992 1092 863 770 881 974
8 974 881 993 1093 864 771 882 976
8 979 870 948 1066 1094 982 869 975
8 1094 982 869 975 977 877 767 865
8 978 878 772 867 1095 990 882 976
8 978 878 989 1096 866 768 877 977
8 871 774 883 980 984 884 994 1099
8 983 891 999 1100 870 781 889 981
8 1101 1000 890 982 989 892 782 877
8 983 891 781 870 1101 1000 890 982
8 872 775 884 984 985 885 995 1103
8 876 776 885 985 988 886 996 1104
8 986 887 779 874 1105 998 888 987
8 879 786 887 986 991 896 998 1105
8 875 778 886 988 987 888 997 1106
8 990 893 1002 1107 878 783 892 989
8 1108 1003 893 990 993 894 784 882
8 880 787 896 991 992 895 1005 1109
8 993 894 785 881 1110 1004 895 992
8 898 799 905 1006 1007 907 1013 1120
8 1030 920 1013 1120 919 814 905 1006
8 901 801 907 1007 1011 908 1015 1121
8 899 802 909 1009 1008 906 1014 1122
8 900 803 910 1010 1009 909 1017 1123
8 1012 911 1018 1124 903 804 910 1010
8 904 805 908 1011 1012 911 1016 1125
8 1013 912 1020 1127 907 808 914 1015
8 1031 921 1020 1127 920 815 912 1013
8 1019 918 962 1075 1128 1021 913 1014
8 1128 1021 913 1014 1017 916 810 909
8 1015 914 1022 1129 908 809 915 1016
8 1016 915 1023 1130 911 812 917 1018
8 1018 917 1024 1131 910 811 916 1017
8 1037 928 1031 1148 925 821 920 1030
8 928 823 931 1041 1031 921 1032 1149
8 1033 926 829 941 1151 1039 939 1057
8 1034 927 819 922 1152 1040 926 1033
8 1153 1038 929 1035 1034 927 820 923
8 1154 1042 930 1036 1035 929 822 924
8 1037 928 821 925 1155 1041 930 1036
8 1039 935 828 939 1156 1047 938 1055
8 1157 1043 932 1042 1038 933 825 929
8 1038 933 826 927 1158 1045 934 1040
8 1040 934 827 926 1159 1046 935 1039
8 930 824 932 1042 1041 931 1044 1160
8 1051 936 1048 1165 1175 1052 937 1053
8 1156 1047 938 1055 1053 937 1054 1178
8 939 828 940 1058 1055 938 1056 1181
8 941 829 942 1060 1057 939 1058 1183
8 942 830 943 1061 1058 940 1059 1184
8 1060 942 832 944 1185 1061 945 1062
8 1082 964 1063 1188 981 889 947 1064
8 1097 981 1064 1190 979 870 948 1066
8 1064 947 1065 1191 948 837 949 1067
8 1066 948 1067 1193 975 869 950 1069
8 1067 949 1068 1194 950 838 951 1070
8 1069 950 1070 1195 952 839 953 1071
8 956 849 959 1072 1073 958 1076 1197
8 1074 960 1076 1197 1008 906 959 1072
8 1073 958 1076 1197 965 868 980 1085
8 1074 960 906 1008 1198 1077 1014 1122
8 1133 1026 1079 1199 1019 918 962 1075
8 1077 963 913 1014 1200 1080 962 1075
8 960 853 963 1077 1076 961 1078 1201
8 980 883 961 1076 1099 994 1078 1201
8 1210 1083 964 1082 1100 999 889 981
8 966 871 980 1085 1086 984 1099 1215
8 967 872 984 1086 1087 985 1103 1216
8 971 876 985 1087 1090 988 1104 1217
8 1088 986 874 969 1218 1105 987 1089
8 972 879 986 1088 1091 991 1105 1218
8 970 875 988 1090 1089 987 1106 1219
8 973 880 991 1091 1092 992 1109 1220
8 1093 993 881 974 1221 1110 992 1092
8 1222 1108 990 1095 1093 993 882 976
8 1223 1101 982 1094 1096 989 877 977
8 1098 983 870 979 1223 1101 982 1094
8 1095 990 1107 1224 978 878 989 1096
8 1098 983 1100 1225 979 870 981 1097
8 984 884 994 1099 1103 995 1111 1227
8 1102 1001 1115 1228 983 891 999 1100
8 1101 1000 892 989 1229 1116 1002 1107
8 1102 1001 891 983 1229 1116 1000 1101
8 985 885 995 1103 1104 996 1112 1230
8 988 886 996 1104 1106 997 1113 1231
8 1105 998 888 987 1232 1114 997 1106
8 991 896 998 1105 1109 1005 1114 1232
8 1108 1003 1117 1233 990 893 1002 1107
8 1108 1003 894 993 1233 1117 1004 1110
8 992 895 1005 1109 1110 1004 1118 1234
8 1120 1013 1127 1244 1007 907 1015 1121
8 1148 1031 1127 1244 1030 920 1013 1120
8 1121 1015 1129 1245 1011 908 1016 1125
8 1126 1019 1075 1196 1246 1128 1014 1122
8 1246 1128 1014 1122 1123 1017 909 1009
8 1124 1018 1131 1247 1010 910 1017 1123
8 1125 1016 1130 1248 1012 911 1018 1124
8 1127 1020 1137 1254 1015 914 1022 1129
8 1031 921 1032 1149 1127 1020 1137 1254
8 1134 1027 918 1019 1257 1140 1021 1128
8 1257 1140 1021 1128 1131 1024 916 1017
8 1129 1022 1141 1258 1016 915 1023 1130
8 1130 1023 1142 1259 1018 917 1024 1131
8 1261 1144 1025 1132 1133 1026 1079 1199
8 1255 1138 1025 1132 1135 1028 1144 1261
8 1133 1026 918 1019 1262 1145 1027 1134
8 1136 1029 1139 1256 1263 1146 1028 1135
8 1037 928 1041 1155 1148 1031 1149 1275
8 1041 931 1044 1160 1149 1032 1150 1276
8 1151 1039 939 1057 1278 1156 1055 1180
8 1152 1040 926 1033 1279 1159 1039 1151
8 1153 1038 927 1034 1280 1158 1040 1152
8 1281 1157 1042 1154 1153 1038 929 1035
8 1036 930 1042 1154 1155 1041 1160 1282
8 1283 1164 1046 1159 1156 1047 935 1039
8 1165 1048 1164 1283 1053 937 1047 1156
8 1157 1043 933 1038 1284 1161 1045 1158
8 1157 1043 1161 1284 1042 932 1044 1160
8 1040 934 1046 1159 1158 1045 1163 1285
8 1166 1049 1167 1292 1051 936 1048 1165
8 1166 1049 936 1051 1293 1168 1050 1172
8 1051 936 1052 1175 1172 1050 1173 1306
8 1174 1051 1165 1290 1308 1175 1053 1177
8 1053 937 1054 1178 1175 1052 1176 1309
8 1278 1156 1055 1180 1177 1053 1178 1311
8 1055 938 1056 1181 1178 1054 1179 1312
8 1057 939 1058 1183 1180 1055 1181 1314
8 1058 940 1059 1184 1181 1056 1182 1315
8 1060 942 1061 1185 1183 1058 1184 1316
8 1208 1081 1187 1321 1082 964 1063 1188
8 1209 1082 1188 1322 1097 981 1064 1190
8 1188 1063 1189 1323 1064 947 1065 1191
8 1190 1064 1191 1325 1066 948 1067 1193
8 1191 1065 1192 1326 1067 949 1068 1194
8 1067 1193 1069 950 1194 1327 1195 1070
8 1250 1133 1199 1330 1126 1019 1075 1196
8 1198 1077 1014 1122 1331 1200 1075 1196
8 1074 960 1077 1198 1197 1076 1201 1332
8 1085 980 1076 1197 1215 1099 1201 1332
8 1199 1079 1203 1333 1075 962 1080 1200
8 1132 1025 1119 1243 1199 1079 1203 1333
8 1201 1078 963 1077 1334 1202 1080 1200
8 1099 994 1078 1201 1227 1111 1202 1334
8 1343 1207 1081 1208 1210 1083 964 1082
8 1214 1084 1186 1319 1343 1207 1081 1208
8 1345 1210 1082 1209 1225 1100 981 1097
8 1346 1211 1083 1210 1228 1115 999 1100
8 1086 984 1099 1215 1216 1103 1227 1352
8 1087 985 1103 1216 1217 1104 1230 1353
8 1090 988 1104 1217 1219 1106 1231 1354
8 1218 1105 987 1089 1355 1232 1106 1219
8 1091 991 1105 1218 1220 1109 1232 1355
8 1092 992 1109 1220 1221 1110 1234 1356
8 1222 1108 1233 1357 1095 990 1107 1224
8 1222 1108 993 1093 1357 1233 1110 1221
8 1223 1101 989 1096 1358 1229 1107 1224
8 1226 1102 983 1098 1358 1229 1101 1223
8 1226 1102 1228 1359 1098 983 1100 1225
8 1103 995 1111 1227 1230 1112 1235 1360
8 1107 1002 1117 1233 1229 1116 1240 1362
8 1102 1001 1116 1229 1228 1115 1240 1362
8 1104 996 1112 1230 1231 1113 1236 1363
8 1364 1237 1114 1232 1231 1113 997 1106
8 1109 1005 1114 1232 1234 1118 1238 1365
8 1110 1004 1118 1234 1233 1117 1241 1366
8 1242 1374 1255 1138 1119 1243 1132 1025
8 1244 1127 1254 1376 1121 1015 1129 1245
8 1148 1031 1149 1275 1244 1127 1254 1376
8 1245 1129 1258 1377 1125 1016 1130 1248
8 1251 1134 1019 1126 1378 1257 1128 1246
8 1378 1257 1128 1246 1247 1131 1017 1123
8 1248 1130 1259 1379 1124 1018 1131 1247
8 1261 1381 1250 1133 1132 1249 1330 1199
8 1255 1380 1252 1135 1132 1249 1381 1261
8 1250 1133 1019 1126 1382 1262 1134 1251
8 1253 1136 1256 1385 1384 1263 1135 1252
8 1254 1137 1265 1387 1129 1022 1141 1258
8 1149 1032 1150 1276 1254 1137 1265 1387
8 1028 1135 1255 1138 1139 1256 1388 1266
8 1136 1029 1147 1264 1256 1139 1267 1389
8 1390 1268 1140 1257 1259 1142 1024 1131
8 1260 1143 1027 1134 1390 1268 1140 1257
8 1258 1141 1269 1391 1130 1023 1142 1259
8 1262 1145 1027 1134 1393 1271 1143 1260
8 1261 1144 1026 1133 1394 1272 1145 1262
8 1135 1028 1144 1261 1263 1146 1272 1394
8 1136 1029 1146 1263 1264 1147 1273 1395
8 1155 1041 1160 1282 1275 1149 1276 1405
8 1276 1150 1044 1160 1406 1277 1162 1286
8 1408 1283 1159 1279 1278 1156 1039 1151
8 1290 1165 1283 1408 1177 1053 1156 1278
8 1152 1040 1159 1279 1280 1158 1285 1409
8 1281 1157 1038 1153 1410 1284 1158 1280
8 1281 1157 1284 1410 1154 1042 1160 1282
8 1159 1046 1164 1283 1285 1163 1289 1412
8 1292 1167 1289 1412 1165 1048 1164 1283
8 1158 1045 1163 1285 1284 1161 1288 1413
8 1284 1161 1288 1413 1160 1044 1162 1286
8 1291 1166 1292 1418 1174 1051 1165 1290
8 1291 1166 1051 1174 1419 1293 1172 1305
8 1294 1169 1296 1421 1166 1049 1167 1292
8 1293 1168 1050 1172 1422 1295 1171 1303
8 1294 1169 1049 1166 1423 1297 1168 1293
8 1422 1295 1171 1303 1301 1170 1302 1435
8 1172 1050 1173 1306 1303 1171 1304 1438
8 1174 1051 1175 1308 1305 1172 1306 1440
8 1175 1052 1176 1309 1306 1173 1307 1441
8 1177 1053 1178 1311 1308 1175 1309 1443
8 1178 1054 1179 1312 1309 1176 1310 1444
8 1180 1055 1181 1314 1311 1178 1312 1446
8 1056 1181 1312 1179 1182 1315 1447 1313
8 1183 1058 1184 1316 1314 1181 1315 1448
8 1319 1186 1084 1214 1451 1317 1213 1350
8 1319 1186 1318 1453 1208 1081 1187 1321
8 1321 1187 1320 1456 1188 1063 1189 1323
8 1344 1208 1321 1457 1209 1082 1188 1322
8 1322 1188 1323 1458 1190 1064 1191 1325
8 1323 1189 1324 1459 1191 1065 1192 1326
8 1191 1325 1193 1067 1326 1460 1327 1194
8 1242 1374 1243 1119 1328 1462 1335 1204
8 1330 1199 1333 1465 1196 1075 1200 1331
8 1132 1249 1330 1199 1243 1375 1465 1333
8 1332 1201 1077 1198 1466 1334 1200 1331
8 1215 1099 1201 1332 1352 1227 1334 1466
8 1119 1243 1333 1203 1204 1335 1470 1338
8 1333 1203 1338 1470 1200 1080 1202 1334
8 1227 1111 1202 1334 1360 1235 1338 1470
8 1328 1462 1335 1204 1205 1336 1471 1339
8 1337 1206 1340 1472 1464 1329 1205 1336
8 1346 1211 1342 1479 1210 1083 1207 1343
8 1346 1211 1115 1228 1479 1342 1239 1361
8 1348 1212 1084 1214 1479 1342 1207 1343
8 1480 1343 1208 1344 1345 1210 1082 1209
8 1351 1214 1319 1454 1480 1343 1208 1344
8 1481 1346 1210 1345 1359 1228 1100 1225
8 1348 1212 1347 1483 1214 1084 1213 1350
8 1216 1103 1227 1352 1353 1230 1360 1488
8 1217 1104 1230 1353 1354 1231 1363 1489
8 1490 1364 1232 1355 1354 1231 1106 1219
8 1220 1109 1232 1355 1356 1234 1365 1491
8 1221 1110 1234 1356 1357 1233 1366 1492
8 1224 1107 1233 1357 1358 1229 1362 1493
8 1226 1102 1229 1358 1359 1228 1362 1493
8 1230 1112 1235 1360 1363 1236 1367 1496
8 1361 1239 1115 1228 1497 1371 1240 1362
8 1366 1241 1372 1498 1233 1117 1240 1362
8 1364 1237 1113 1231 1499 1368 1236 1363
8 1364 1237 1368 1499 1232 1114 1238 1365
8 1234 1118 1238 1365 1366 1241 1369 1500
8 1507 1373 1242 1374 1388 1266 1138 1255
8 1508 1374 1243 1375 1380 1255 1132 1249
8 1376 1254 1387 1509 1245 1129 1258 1377
8 1275 1149 1276 1405 1376 1254 1387 1509
8 1377 1258 1391 1510 1248 1130 1259 1379
8 1511 1390 1257 1378 1379 1259 1131 1247
8 1383 1260 1134 1251 1511 1390 1257 1378
8 1252 1135 1256 1385 1380 1255 1388 1512
8 1261 1381 1513 1394 1133 1250 1382 1262
8 1135 1252 1384 1263 1261 1381 1513 1394
8 1382 1262 1134 1251 1514 1393 1260 1383
8 1253 1136 1263 1384 1386 1264 1395 1516
8 1253 1136 1264 1386 1385 1256 1389 1517
8 1387 1265 1397 1519 1258 1141 1269 1391
8 1276 1150 1277 1406 1387 1265 1397 1519
8 1256 1139 1267 1389 1388 1266 1398 1520
8 1264 1147 1274 1396 1389 1267 1399 1521
8 1392 1270 1143 1260 1522 1400 1268 1390
8 1390 1268 1142 1259 1522 1400 1269 1391
8 1392 1270 1401 1523 1260 1143 1271 1393
8 1272 1394 1524 1402 1145 1262 1393 1271
8 1395 1273 1146 1263 1524 1402 1272 1394
8 1273 1395 1264 1147 1403 1526 1396 1274
8 1405 1276 1160 1282 1534 1406 1286 1411
8 1414 1287 1407 1535 1286 1162 1277 1406
8 1279 1159 1283 1408 1409 1285 1412 1537
8 1418 1292 1412 1537 1290 1165 1283 1408
8 1280 1158 1285 1409 1410 1284 1413 1538
8 1410 1284 1413 1538 1282 1160 1286 1411
8 1285 1163 1289 1412 1413 1288 1417 1540
8 1421 1296 1417 1540 1292 1167 1289 1412
8 1414 1287 1162 1286 1541 1416 1288 1413
8 1420 1294 1421 1545 1291 1166 1292 1418
8 1419 1293 1172 1305 1546 1422 1303 1437
8 1420 1294 1166 1291 1547 1423 1293 1419
8 1294 1169 1297 1423 1421 1296 1425 1548
8 1423 1297 1168 1293 1549 1424 1295 1422
8 1301 1170 1298 1427 1422 1295 1424 1549
8 1432 1300 1428 1554 1301 1170 1298 1427
8 1431 1299 1428 1554 1560 1430 1300 1432
8 1563 1433 1300 1432 1435 1302 1170 1301
8 1546 1422 1303 1437 1434 1301 1435 1565
8 1303 1171 1304 1438 1435 1302 1436 1566
8 1305 1172 1306 1440 1437 1303 1438 1568
8 1306 1173 1307 1441 1438 1304 1439 1569
8 1308 1175 1309 1443 1440 1306 1441 1571
8 1309 1176 1310 1444 1441 1307 1442 1572
8 1311 1178 1312 1446 1443 1309 1444 1574
8 1179 1312 1444 1310 1313 1447 1575 1445
8 1314 1181 1315 1448 1446 1312 1447 1576
8 1350 1213 1349 1486 1451 1317 1449 1579
8 1451 1317 1450 1581 1319 1186 1318 1453
8 1454 1319 1214 1351 1582 1451 1350 1487
8 1453 1318 1452 1584 1321 1187 1320 1456
8 1454 1319 1453 1585 1344 1208 1321 1457
8 1456 1320 1455 1586 1323 1189 1324 1459
8 1457 1321 1456 1587 1322 1188 1323 1458
8 1458 1323 1459 1588 1325 1191 1326 1460
8 1205 1336 1464 1329 1328 1462 1590 1461
8 1507 1373 1461 1590 1374 1242 1328 1462
8 1508 1374 1462 1591 1375 1243 1335 1467
8 1337 1206 1329 1464 1473 1341 1463 1594
8 1375 1243 1335 1467 1465 1333 1470 1596
8 1465 1333 1470 1596 1331 1200 1334 1466
8 1352 1227 1334 1466 1488 1360 1470 1596
8 1591 1462 1336 1468 1467 1335 1471 1597
8 1469 1337 1472 1598 1595 1464 1336 1468
8 1471 1339 1474 1600 1335 1204 1338 1470
8 1600 1474 1367 1496 1470 1338 1235 1360
8 1336 1205 1340 1472 1471 1339 1475 1601
8 1337 1206 1341 1473 1472 1340 1476 1602
8 1495 1370 1478 1609 1361 1239 1342 1479
8 1348 1212 1342 1479 1483 1347 1478 1609
8 1481 1346 1479 1610 1345 1210 1343 1480
8 1481 1346 1228 1359 1610 1479 1361 1494
8 1484 1348 1214 1351 1610 1479 1343 1480
8 1483 1347 1482 1612 1350 1213 1349 1486
8 1484 1348 1483 1613 1351 1214 1350 1487
8 1353 1230 1360 1488 1489 1363 1496 1616
8 1490 1364 1231 1354 1617 1499 1363 1489
8 1490 1364 1499 1617 1355 1232 1365 1491
8 1356 1234 1365 1491 1492 1366 1500 1619
8 1492 1366 1498 1620 1357 1233 1362 1493
8 1494 1361 1228 1359 1621 1497 1362 1493
8 1495 1370 1239 1361 1622 1504 1371 1497
8 1363 1236 1367 1496 1499 1368 1501 1623
8 1497 1371 1240 1362 1624 1505 1372 1498
8 1625 1503 1372 1498 1500 1369 1241 1366
8 1365 1238 1368 1499 1500 1369 1502 1626
8 1520 1398 1506 1633 1388 1266 1373 1507
8 1634 1507 1374 1508 1512 1388 1255 1380
8 1509 1387 1519 1635 1377 1258 1391 1510
8 1405 1276 1406 1534 1509 1387 1519 1635
8 1515 1392 1260 1383 1636 1522 1390 1511
8 1511 1390 1259 1379 1636 1522 1391 1510
8 1385 1256 1389 1517 1512 1388 1520 1637
8 1513 1394 1262 1382 1638 1524 1393 1514
8 1395 1516 1638 1524 1263 1384 1513 1394
8 1515 1392 1523 1639 1383 1260 1393 1514
8 1516 1395 1526 1640 1386 1264 1396 1518
8 1386 1264 1396 1518 1517 1389 1521 1641
8 1519 1397 1527 1643 1391 1269 1400 1522
8 1535 1407 1527 1643 1406 1277 1397 1519
8 1389 1267 1399 1521 1520 1398 1528 1644
8 1645 1529 1399 1521 1525 1404 1274 1396
8 1392 1270 1400 1522 1523 1401 1531 1646
8 1524 1402 1271 1393 1648 1532 1401 1523
8 1403 1526 1648 1532 1273 1395 1524 1402
8 1525 1404 1274 1396 1649 1533 1403 1526
8 1539 1414 1535 1657 1411 1286 1406 1534
8 1542 1415 1536 1658 1414 1287 1407 1535
8 1409 1285 1412 1537 1538 1413 1540 1660
8 1545 1421 1540 1660 1418 1292 1412 1537
8 1539 1414 1286 1411 1661 1541 1413 1538
8 1540 1417 1544 1663 1413 1288 1416 1541
8 1421 1296 1425 1548 1540 1417 1544 1663
8 1542 1415 1287 1414 1664 1543 1416 1541
8 1420 1294 1423 1547 1545 1421 1548 1666
8 1547 1423 1293 1419 1667 1549 1422 1546
8 1434 1301 1427 1553 1546 1422 1549 1667
8 1423 1297 1424 1549 1548 1425 1550 1668
8 1551 1426 1550 1668 1427 1298 1424 1549
8 1551 1426 1298 1427 1671 1552 1428 1554
8 1562 1432 1554 1674 1434 1301 1427 1553
8 1431 1299 1429 1558 1554 1428 1555 1675
8 1431 1299 1430 1560 1558 1429 1557 1680
8 1560 1430 1300 1432 1683 1559 1433 1563
8 1561 1431 1554 1674 1684 1560 1432 1562
8 1685 1563 1432 1562 1565 1435 1301 1434
8 1435 1302 1436 1566 1563 1433 1564 1686
8 1437 1303 1438 1568 1565 1435 1566 1688
8 1438 1304 1439 1569 1566 1436 1567 1689
8 1440 1306 1441 1571 1568 1438 1569 1691
8 1441 1307 1442 1572 1569 1439 1570 1692
8 1443 1309 1444 1574 1571 1441 1572 1694
8 1310 1444 1572 1442 1445 1575 1695 1573
8 1446 1312 1447 1576 1574 1444 1575 1696
8 1486 1349 1485 1614 1579 1449 1577 1699
8 1451 1317 1449 1579 1581 1450 1578 1701
8 1487 1350 1486 1615 1582 1451 1579 1702
8 1581 1450 1580 1704 1453 1318 1452 1584
8 1582 1451 1581 1705 1454 1319 1453 1585
8 1584 1452 1583 1706 1456 1320 1455 1586
8 1585 1453 1584 1707 1457 1321 1456 1587
8 1587 1456 1586 1708 1458 1323 1459 1588
8 1633 1506 1589 1710 1507 1373 1461 1590
8 1464 1329 1461 1590 1594 1463 1589 1710
8 1468 1336 1462 1591 1595 1464 1590 1711
8 1634 1507 1590 1711 1508 1374 1462 1591
8 1473 1341 1463 1594 1603 1477 1593 1716
8 1469 1337 1464 1595 1599 1473 1594 1717
8 1471 1597 1467 1335 1600 1718 1596 1470
8 1718 1600 1496 1616 1596 1470 1360 1488
8 1336 1468 1597 1471 1472 1598 1719 1601
8 1469 1337 1473 1599 1598 1472 1602 1720
8 1722 1604 1501 1623 1600 1474 1367 1496
8 1475 1601 1471 1339 1604 1722 1600 1474
8 1602 1476 1605 1723 1472 1340 1475 1601
8 1476 1602 1724 1606 1341 1473 1603 1477
8 1483 1347 1478 1609 1612 1482 1608 1731
8 1495 1370 1504 1622 1609 1478 1608 1731
8 1618 1495 1609 1732 1494 1361 1479 1610
8 1484 1348 1479 1610 1613 1483 1609 1732
8 1486 1349 1482 1612 1614 1485 1611 1733
8 1613 1483 1612 1734 1487 1350 1486 1615
8 1489 1363 1496 1616 1617 1499 1623 1736
8 1491 1365 1499 1617 1619 1500 1626 1737
8 1618 1495 1361 1494 1738 1622 1497 1621
8 1739 1625 1498 1620 1619 1500 1366 1492
8 1621 1497 1362 1493 1740 1624 1498 1620
8 1742 1631 1504 1622 1624 1505 1371 1497
8 1743 1628 1502 1626 1623 1501 1368 1499
8 1744 1630 1505 1624 1625 1503 1372 1498
8 1745 1629 1503 1625 1626 1502 1369 1500
8 1520 1398 1528 1644 1633 1506 1632 1751
8 1637 1520 1633 1752 1512 1388 1507 1634
8 1635 1519 1643 1753 1510 1391 1522 1636
8 1657 1535 1643 1753 1534 1406 1519 1635
8 1515 1392 1522 1636 1639 1523 1646 1754
8 1517 1389 1521 1641 1637 1520 1644 1755
8 1524 1638 1756 1648 1393 1514 1639 1523
8 1640 1526 1395 1516 1756 1648 1524 1638
8 1642 1525 1396 1518 1757 1649 1526 1640
8 1758 1645 1521 1641 1642 1525 1396 1518
8 1646 1531 1400 1522 1760 1650 1527 1643
8 1535 1407 1536 1658 1643 1527 1650 1760
8 1521 1399 1529 1645 1644 1528 1651 1761
8 1647 1530 1652 1762 1525 1404 1529 1645
8 1401 1523 1648 1532 1531 1646 1763 1655
8 1525 1404 1533 1649 1647 1530 1654 1765
8 1533 1649 1766 1656 1403 1526 1648 1532
8 1662 1542 1658 1774 1539 1414 1535 1657
8 1542 1415 1543 1664 1658 1536 1659 1775
8 1660 1540 1663 1777 1538 1413 1541 1661
8 1545 1421 1548 1666 1660 1540 1663 1777
8 1662 1542 1414 1539 1778 1664 1541 1661
8 1664 1543 1416 1541 1779 1665 1544 1663
8 1548 1425 1550 1668 1663 1544 1665 1779
8 1547 1423 1549 1667 1666 1548 1668 1781
8 1670 1551 1668 1781 1553 1427 1549 1667
8 1551 1426 1552 1671 1668 1550 1669 1782
8 1670 1551 1427 1553 1784 1671 1554 1674
8 1675 1555 1672 1785 1554 1428 1552 1671
8 1678 1556 1673 1789 1558 1429 1555 1675
8 1561 1431 1558 1681 1674 1554 1675 1790
8 1794 1677 1556 1678 1680 1557 1429 1558
8 1560 1430 1559 1683 1680 1557 1679 1797
8 1561 1431 1560 1684 1681 1558 1680 1798
8 1563 1433 1564 1686 1683 1559 1682 1800
8 1684 1560 1432 1562 1801 1683 1563 1685
8 1565 1435 1566 1688 1685 1563 1686 1802
8 1566 1436 1567 1689 1686 1564 1687 1803
8 1568 1438 1569 1691 1688 1566 1689 1805
8 1569 1439 1570 1692 1689 1567 1690 1806
8 1571 1441 1572 1694 1691 1569 1692 1808
8 1442 1572 1692 1570 1573 1695 1809 1693
8 1574 1444 1575 1696 1694 1572 1695 1810
8 1614 1485 1592 1712 1699 1577 1697 1813
8 1579 1449 1577 1699 1701 1578 1698 1815
8 1615 1486 1614 1735 1702 1579 1699 1816
8 1701 1578 1700 1818 1581 1450 1580 1704
8 1582 1451 1579 1702 1705 1581 1701 1819
8 1704 1580 1703 1820 1584 1452 1583 1706
8 1705 1581 1704 1821 1585 1453 1584 1707
8 1707 1584 1706 1822 1587 1456 1586 1708
8 1710 1589 1506 1633 1824 1709 1632 1751
8 1594 1463 1589 1710 1716 1593 1709 1824
8 1752 1633 1710 1825 1634 1507 1590 1711
8 1595 1464 1590 1711 1717 1594 1710 1825
8 1830 1714 1592 1712 1733 1611 1485 1614
8 1603 1477 1593 1716 1725 1607 1715 1834
8 1599 1473 1594 1717 1721 1603 1716 1835
8 1837 1722 1623 1736 1718 1600 1496 1616
8 1719 1601 1722 1837 1597 1471 1600 1718
8 1602 1720 1598 1472 1723 1838 1719 1601
8 1720 1602 1473 1599 1839 1724 1603 1721
8 1723 1605 1726 1840 1601 1475 1604 1722
8 1840 1726 1628 1743 1722 1604 1501 1623
8 1724 1606 1727 1841 1602 1476 1605 1723
8 1725 1607 1728 1842 1603 1477 1606 1724
8 1612 1482 1608 1731 1733 1611 1730 1849
8 1741 1627 1730 1849 1622 1504 1608 1731
8 1613 1483 1609 1732 1734 1612 1731 1850
8 1618 1495 1622 1738 1732 1609 1731 1850
8 1615 1486 1612 1734 1735 1614 1733 1851
8 1852 1743 1626 1737 1736 1623 1499 1617
8 1853 1745 1625 1739 1737 1626 1500 1619
8 1855 1742 1622 1738 1740 1624 1497 1621
8 1856 1744 1624 1740 1739 1625 1498 1620
8 1741 1627 1504 1622 1857 1746 1631 1742
8 1742 1631 1505 1624 1858 1749 1630 1744
8 1859 1747 1629 1745 1743 1628 1502 1626
8 1860 1748 1630 1744 1745 1629 1503 1625
8 1644 1528 1651 1761 1751 1632 1750 1865
8 1637 1520 1644 1755 1752 1633 1751 1866
8 1754 1646 1522 1636 1867 1760 1643 1753
8 1657 1535 1658 1774 1753 1643 1760 1867
8 1639 1523 1646 1754 1756 1648 1763 1868
8 1641 1521 1645 1758 1755 1644 1761 1869
8 1757 1649 1526 1640 1870 1766 1648 1756
8 1642 1525 1649 1757 1759 1647 1765 1871
8 1759 1647 1762 1872 1642 1525 1645 1758
8 1760 1650 1767 1874 1646 1531 1655 1763
8 1658 1536 1659 1775 1760 1650 1767 1874
8 1762 1652 1768 1875 1645 1529 1651 1761
8 1764 1653 1769 1876 1647 1530 1652 1762
8 1656 1766 1877 1773 1532 1648 1763 1655
8 1771 1879 1765 1654 1653 1764 1647 1530
8 1533 1649 1765 1654 1656 1766 1880 1772
8 1662 1542 1664 1778 1774 1658 1775 1887
8 1664 1543 1665 1779 1775 1659 1776 1888
8 1778 1664 1541 1661 1890 1779 1663 1777
8 1666 1548 1668 1781 1777 1663 1779 1890
8 1782 1669 1780 1891 1668 1550 1665 1779
8 1670 1551 1671 1784 1781 1668 1782 1893
8 1671 1552 1672 1785 1782 1669 1783 1894
8 1790 1675 1785 1896 1674 1554 1671 1784
8 1675 1555 1673 1789 1785 1672 1786 1897
8 1792 1676 1788 1903 1678 1556 1673 1789
8 1795 1678 1789 1904 1681 1558 1675 1790
8 1792 1676 1556 1678 1906 1791 1677 1794
8 1680 1557 1679 1797 1794 1677 1793 1909
8 1910 1794 1678 1795 1798 1680 1558 1681
8 1683 1559 1682 1800 1797 1679 1796 1912
8 1684 1560 1683 1801 1798 1680 1797 1913
8 1686 1564 1687 1803 1800 1682 1799 1915
8 1685 1563 1686 1802 1801 1683 1800 1916
8 1688 1566 1689 1805 1802 1686 1803 1917
8 1689 1567 1690 1806 1803 1687 1804 1918
8 1691 1569 1692 1808 1805 1689 1806 1920
8 1692 1570 1693 1809 1806 1690 1807 1921
8 1694 1572 1695 1810 1808 1692 1809 1922
8 1829 1713 1811 1926 1712 1592 1697 1813
8 1813 1697 1812 1928 1699 1577 1698 1815
8 1735 1614 1712 1828 1816 1699 1813 1929
8 1815 1698 1814 1931 1701 1578 1700 1818
8 1702 1579 1699 1816 1819 1701 1815 1932
8 1818 1700 1817 1933 1704 1580 1703 1820
8 1819 1701 1818 1934 1705 1581 1704 1821
8 1821 1704 1820 1935 1707 1584 1706 1822
8 1824 1709 1632 1751 1937 1823 1750 1865
8 1716 1593 1709 1824 1834 1715 1823 1937
8 1825 1710 1633 1752 1938 1824 1751 1866
8 1717 1594 1710 1825 1835 1716 1824 1938
8 1945 1830 1712 1828 1851 1733 1614 1735
8 1830 1714 1831 1946 1712 1592 1713 1829
8 1947 1832 1714 1830 1849 1730 1611 1733
8 1843 1729 1607 1725 1950 1833 1715 1834
8 1721 1603 1716 1835 1836 1725 1834 1951
8 1836 1725 1842 1953 1721 1603 1724 1839
8 1723 1838 1719 1601 1840 1954 1837 1722
8 1954 1840 1743 1852 1837 1722 1623 1736
8 1724 1839 1720 1602 1841 1955 1838 1723
8 1841 1727 1844 1956 1723 1605 1726 1840
8 1956 1844 1747 1859 1840 1726 1628 1743
8 1728 1842 1724 1606 1845 1957 1841 1727
8 1725 1607 1729 1843 1842 1728 1846 1958
8 1741 1627 1746 1857 1849 1730 1848 1965
8 1734 1612 1731 1850 1851 1733 1849 1966
8 1854 1741 1849 1966 1738 1622 1731 1850
8 1967 1859 1745 1853 1852 1743 1626 1737
8 1968 1860 1744 1856 1853 1745 1625 1739
8 1854 1741 1622 1738 1969 1857 1742 1855
8 1855 1742 1624 1740 1970 1858 1744 1856
8 1857 1746 1631 1742 1971 1861 1749 1858
8 1858 1749 1630 1744 1972 1863 1748 1860
8 1859 1747 1862 1973 1745 1629 1748 1860
8 1875 1768 1864 1977 1761 1651 1750 1865
8 1755 1644 1761 1869 1866 1751 1865 1978
8 1867 1760 1874 1979 1754 1646 1763 1868
8 1774 1658 1775 1887 1867 1760 1874 1979
8 1870 1766 1648 1756 1980 1877 1763 1868
8 1872 1762 1875 1981 1758 1645 1761 1869
8 1757 1649 1766 1870 1871 1765 1880 1982
8 1983 1879 1764 1873 1871 1765 1647 1759
8 1873 1764 1876 1984 1759 1647 1762 1872
8 1877 1773 1655 1763 1986 1881 1767 1874
8 1775 1659 1776 1888 1874 1767 1881 1986
8 1876 1769 1882 1987 1762 1652 1768 1875
8 1878 1770 1883 1988 1764 1653 1769 1876
8 1880 1772 1656 1766 1989 1886 1773 1877
8 1878 1770 1653 1764 1990 1884 1771 1879
8 1765 1654 1772 1880 1879 1771 1885 1991
8 1778 1664 1779 1890 1887 1775 1888 1997
8 1998 1889 1776 1888 1891 1780 1665 1779
8 1893 1782 1891 2000 1781 1668 1779 1890
8 1894 1783 1892 2001 1782 1669 1780 1891
8 1784 1671 1785 1896 1893 1782 1894 2003
8 1897 1786 1895 2004 1785 1672 1783 1894
8 1790 1675 1789 1904 1896 1785 1897 2006
8 1901 1787 1898 2007 1789 1673 1786 1897
8 1903 1788 1900 2013 1789 1673 1787 1901
8 1792 1676 1791 1906 1903 1788 1902 2016
8 1907 1792 1903 2017 1795 1678 1789 1904
8 1906 1791 1677 1794 2019 1905 1793 1909
8 1907 1792 1678 1795 2020 1906 1794 1910
8 1797 1679 1796 1912 1909 1793 1908 2022
8 1798 1680 1797 1913 1910 1794 1909 2023
8 1800 1682 1799 1915 1912 1796 1911 2025
8 1801 1683 1800 1916 1913 1797 1912 2026
8 1803 1687 1804 1918 1915 1799 1914 2028
8 1802 1686 1803 1917 1916 1800 1915 2029
8 1805 1689 1806 1920 1917 1803 1918 2030
8 1806 1690 1807 1921 1918 1804 1919 2031
8 1808 1692 1809 1922 1920 1806 1921 2032
8 1939 1826 1924 2037 1829 1713 1811 1926
8 1926 1811 1925 2039 1813 1697 1812 1928
8 1944 1829 1926 2040 1828 1712 1813 1929
8 1928 1812 1927 2042 1815 1698 1814 1931
8 1929 1813 1928 2043 1816 1699 1815 1932
8 1931 1814 1930 2044 1818 1700 1817 1933
8 1932 1815 1931 2045 1819 1701 1818 1934
8 1934 1818 1933 2046 1821 1704 1820 1935
8 2048 1936 1823 1937 1977 1864 1750 1865
8 1950 1833 1715 1834 2048 1936 1823 1937
8 1938 1824 1751 1866 2049 1937 1865 1978
8 1835 1716 1824 1938 1951 1834 1937 2049
8 1939 1826 1713 1829 2053 1942 1831 1946
8 1940 1827 1923 2035 2053 1942 1826 1939
8 1945 1830 1946 2058 1828 1712 1829 1944
8 2059 1947 1830 1945 1966 1849 1733 1851
8 1947 1832 1730 1849 2060 1948 1848 1965
8 1947 1832 1948 2060 1830 1714 1831 1946
8 1959 1847 1729 1843 2063 1949 1833 1950
8 1952 1843 1725 1836 2064 1950 1834 1951
8 1836 1725 1843 1952 1953 1842 1958 2066
8 1953 1842 1957 2067 1839 1724 1841 1955
8 1841 1955 1838 1723 1956 2068 1954 1840
8 2068 1956 1859 1967 1954 1840 1743 1852
8 1956 1844 1960 2069 1859 1747 1862 1973
8 1845 1957 1841 1727 1960 2069 1956 1844
8 1728 1842 1957 1845 1846 1958 2071 1961
8 1962 2072 1959 1847 1846 1958 1843 1729
8 1971 1861 1964 2077 1857 1746 1848 1965
8 1854 1741 1857 1969 1966 1849 1965 2078
8 1967 1859 1973 2079 1853 1745 1860 1968
8 1970 1858 1744 1856 2080 1972 1860 1968
8 1969 1857 1742 1855 2081 1971 1858 1970
8 1971 1861 1749 1858 2082 1974 1863 1972
8 1973 1862 1975 2083 1860 1748 1863 1972
8 1987 1882 1976 2086 1875 1768 1864 1977
8 1981 1875 1977 2087 1869 1761 1865 1978
8 1980 1877 1763 1868 2088 1986 1874 1979
8 1887 1775 1888 1997 1979 1874 1986 2088
8 1880 1982 2089 1989 1766 1870 1980 1877
8 1984 1876 1987 2090 1872 1762 1875 1981
8 1765 1871 1983 1879 1880 1982 2091 1991
8 1985 1878 1764 1873 2092 1990 1879 1983
8 1985 1878 1988 2093 1873 1764 1876 1984
8 2094 1992 1881 1986 1998 1889 1776 1888
8 1986 1881 1992 2094 1877 1773 1886 1989
8 1988 1883 1993 2095 1876 1769 1882 1987
8 1878 1770 1884 1990 1988 1883 1994 2096
8 1991 1885 1772 1880 2097 1996 1886 1989
8 1879 1771 1885 1991 1990 1884 1995 2098
8 2103 1998 1888 1997 2000 1891 1779 1890
8 2104 1999 1889 1998 2001 1892 1780 1891
8 2003 1894 2001 2106 1893 1782 1891 2000
8 2004 1895 2002 2107 1894 1783 1892 2001
8 2006 1897 2004 2109 1896 1785 1894 2003
8 2007 1898 2005 2110 1897 1786 1895 2004
8 2014 1901 2007 2112 1904 1789 1897 2006
8 2011 1899 2008 2113 1901 1787 1898 2007
8 2119 2010 1899 2011 2013 1900 1787 1901
8 2016 1902 2012 2122 1903 1788 1900 2013
8 2017 1903 2013 2123 1904 1789 1901 2014
8 1906 1791 1905 2019 2016 1902 2015 2125
8 1907 1792 1906 2020 2017 1903 2016 2126
8 1909 1793 1908 2022 2019 1905 2018 2128
8 2020 1906 1794 1910 2129 2019 1909 2023
8 1912 1796 1911 2025 2022 1908 2021 2131
8 1913 1797 1912 2026 2023 1909 2022 2132
8 1915 1799 1914 2028 2025 1911 2024 2134
8 1916 1800 1915 2029 2026 1912 2025 2135
8 1918 1804 1919 2031 2028 1914 2027 2136
8 1917 1803 1918 2030 2029 1915 2028 2137
8 1920 1806 1921 2032 2030 1918 2031 2138
8 1940 1827 1941 2054 2035 1923 2033 2140
8 2035 1923 2034 2143 1939 1826 1924 2037
8 2037 1924 2036 2146 1926 1811 1925 2039
8 2051 1939 2037 2147 1944 1829 1926 2040
8 2039 1925 2038 2149 1928 1812 1927 2042
8 2040 1926 2039 2150 1929 1813 1928 2043
8 2042 1927 2041 2151 1931 1814 1930 2044
8 2043 1928 2042 2152 1932 1815 1931 2045
8 2045 1931 2044 2153 1934 1818 1933 2046
8 2155 2047 1936 2048 2086 1976 1864 1977
8 2063 1949 1833 1950 2155 2047 1936 2048
8 2156 2048 1937 2049 2087 1977 1865 1978
8 2064 1950 1834 1951 2156 2048 1937 2049
8 2051 1939 1829 1944 2160 2053 1946 2058
8 2052 1940 2035 2144 2160 2053 1939 2051
8 2053 1942 1831 1946 2163 2057 1948 2060
8 2055 1943 1827 1940 2163 2057 1942 2053
8 2055 1943 2056 2164 1940 1827 1941 2054
8 2059 1947 1849 1966 2167 2060 1965 2078
8 2059 1947 2060 2167 1945 1830 1946 2058
8 2077 1964 2061 2168 1965 1848 1948 2060
8 2070 1963 1847 1959 2170 2062 1949 2063
8 2065 1959 1843 1952 2171 2063 1950 2064
8 2173 2072 1958 2066 2065 1959 1843 1952
8 1953 1842 1958 2066 2067 1957 2071 2174
8 2068 1956 2069 2175 1967 1859 1973 2079
8 2067 1957 2069 2175 1955 1841 1956 2068
8 1845 1957 2069 1960 1961 2071 2176 2073
8 2069 1960 2073 2176 1973 1862 1975 2083
8 2070 1963 2075 2177 1959 1847 1962 2072
8 1846 1958 2071 1961 1962 2072 2178 2074
8 2077 1964 1861 1971 2182 2076 1974 2082
8 2081 1971 2077 2183 1969 1857 1965 2078
8 2079 1973 2083 2184 1968 1860 1972 2080
8 2081 1971 1858 1970 2185 2082 1972 2080
8 2083 1975 2084 2186 1972 1863 1974 2082
8 2086 1976 1882 1987 2189 2085 1993 2095
8 2090 1987 2086 2190 1981 1875 1977 2087
8 2191 2094 1986 2088 2103 1998 1888 1997
8 2088 1986 2094 2191 1980 1877 1989 2089
8 1991 2091 2192 2097 1880 1982 2089 1989
8 2093 1988 2095 2193 1984 1876 1987 2090
8 1879 1983 2092 1990 1991 2091 2194 2098
8 1985 1878 1990 2092 2093 1988 2096 2195
8 2097 1996 1886 1989 2196 2099 1992 2094
8 2196 2099 1992 2094 2104 1999 1889 1998
8 1994 2096 1988 1883 2100 2197 2095 1993
8 2096 1994 1884 1990 2198 2101 1995 2098
8 1995 2098 2199 2102 1885 1991 2097 1996
8 2203 2104 1998 2103 2106 2001 1891 2000
8 2107 2002 2105 2204 2001 1892 1999 2104
8 2109 2004 2107 2206 2003 1894 2001 2106
8 2110 2005 2108 2207 2004 1895 2002 2107
8 2112 2007 2110 2209 2006 1897 2004 2109
8 2113 2008 2111 2210 2007 1898 2005 2110
8 2120 2011 2113 2212 2014 1901 2007 2112
8 2117 2009 2114 2213 2011 1899 2008 2113
8 2219 2116 2009 2117 2119 2010 1899 2011
8 2222 2118 2010 2119 2122 2012 1900 2013
8 2223 2119 2011 2120 2123 2013 1901 2014
8 2016 1902 2015 2125 2122 2012 2121 2225
8 2126 2016 2122 2226 2017 1903 2013 2123
8 2019 1905 2018 2128 2125 2015 2124 2228
8 2020 1906 2019 2129 2126 2016 2125 2229
8 2022 1908 2021 2131 2128 2018 2127 2231
8 2023 1909 2022 2132 2129 2019 2128 2232
8 2025 1911 2024 2134 2131 2021 2130 2234
8 2026 1912 2025 2135 2132 2022 2131 2235
8 1914 2028 2134 2024 2027 2136 2236 2133
8 2029 1915 2028 2137 2135 2025 2134 2237
8 2030 1918 2031 2138 2137 2028 2136 2238
8 2157 2050 2139 2240 2054 1941 2033 2140
8 2052 1940 2054 2161 2144 2035 2140 2242
8 2140 2033 2141 2243 2035 1923 2034 2143
8 2143 2034 2142 2246 2037 1924 2036 2146
8 2144 2035 2143 2247 2051 1939 2037 2147
8 2146 2036 2145 2249 2039 1925 2038 2149
8 2147 2037 2146 2250 2040 1926 2039 2150
8 2149 2038 2148 2251 2042 1927 2041 2151
8 2150 2039 2149 2252 2043 1928 2042 2152
8 2152 2042 2151 2253 2045 1931 2044 2153
8 2255 2154 2047 2155 2189 2085 1976 2086
8 2170 2062 1949 2063 2255 2154 2047 2155
8 2256 2155 2048 2156 2190 2086 1977 2087
8 2171 2063 1950 2064 2256 2155 2048 2156
8 2258 2159 2050 2157 2164 2056 1941 2054
8 2160 2053 1946 2058 2262 2163 2060 2167
8 2162 2055 1940 2052 2262 2163 2053 2160
8 2162 2055 2164 2263 2052 1940 2054 2161
8 2163 2057 1948 2060 2264 2165 2061 2168
8 2055 1943 2057 2163 2164 2056 2165 2264
8 2182 2076 2166 2268 2077 1964 2061 2168
8 2183 2077 2168 2269 2078 1965 2060 2167
8 2070 1963 2062 2170 2177 2075 2169 2271
8 2172 2070 1959 2065 2272 2170 2063 2171
8 2172 2070 2177 2273 2065 1959 2072 2173
8 2066 1958 2072 2173 2174 2071 2178 2274
8 2067 1957 2071 2174 2175 2069 2176 2275
8 2175 2069 2176 2275 2079 1973 2083 2184
8 2071 1961 2074 2178 2176 2073 2179 2276
8 2176 2073 2179 2276 2083 1975 2084 2186
8 2072 1962 2075 2177 2178 2074 2180 2277
8 2182 2076 1974 2082 2280 2181 2084 2186
8 2183 2077 1971 2081 2281 2182 2082 2185
8 2184 2083 2186 2282 2080 1972 2082 2185
8 2189 2085 1993 2095 2285 2188 2100 2197
8 2190 2086 1987 2090 2286 2189 2095 2193
8 2192 2097 1989 2089 2287 2196 2094 2191
8 2287 2196 2094 2191 2203 2104 1998 2103
8 2194 2098 1991 2091 2288 2199 2097 2192
8 2195 2096 2197 2289 2093 1988 2095 2193
8 2096 2195 2290 2198 1990 2092 2194 2098
8 2097 1996 2099 2196 2199 2102 2200 2291
8 2196 2099 1999 2104 2291 2200 2105 2204
8 2100 2197 2292 2201 1994 2096 2198 2101
8 1995 2098 2198 2101 2102 2199 2293 2202
8 2206 2107 2204 2296 2106 2001 2104 2203
8 2207 2108 2205 2297 2107 2002 2105 2204
8 2209 2110 2207 2299 2109 2004 2107 2206
8 2210 2111 2208 2300 2110 2005 2108 2207
8 2212 2113 2210 2302 2112 2007 2110 2209
8 2213 2114 2211 2303 2113 2008 2111 2210
8 2220 2117 2213 2305 2120 2011 2113 2212
8 2216 2115 2214 2306 2117 2009 2114 2213
8 2216 2115 2009 2117 2311 2217 2116 2219
8 2219 2116 2010 2119 2314 2218 2118 2222
8 2315 2219 2117 2220 2223 2119 2011 2120
8 2122 2012 2121 2225 2222 2118 2221 2317
8 2318 2222 2119 2223 2226 2122 2013 2123
8 2125 2015 2124 2228 2225 2121 2224 2320
8 2126 2016 2125 2229 2226 2122 2225 2321
8 2128 2018 2127 2231 2228 2124 2227 2323
8 2129 2019 2128 2232 2229 2125 2228 2324
8 2131 2021 2130 2234 2231 2127 2230 2326
8 2132 2022 2131 2235 2232 2128 2231 2327
8 2134 2024 2133 2236 2234 2130 2233 2328
8 2135 2025 2134 2237 2235 2131 2234 2329
8 2137 2028 2136 2238 2237 2134 2236 2330
8 2157 2050 2158 2259 2240 2139 2239 2332
8 2257 2157 2240 2334 2161 2054 2140 2242
8 2240 2139 2241 2335 2140 2033 2141 2243
8 2242 2140 2243 2337 2144 2035 2143 2247
8 2243 2141 2244 2338 2143 2034 2142 2246
8 2246 2142 2245 2341 2146 2036 2145 2249
8 2247 2143 2246 2342 2147 2037 2146 2250
8 2249 2145 2248 2343 2149 2038 2148 2251
8 2250 2146 2249 2344 2150 2039 2149 2252
8 2252 2149 2251 2345 2152 2042 2151 2253
8 2169 2271 2347 2254 2062 2170 2255 2154
8 2189 2085 2188 2285 2255 2154 2254 2347
8 2348 2255 2155 2256 2286 2189 2086 2190
8 2272 2170 2063 2171 2348 2255 2155 2256
8 2349 2258 2157 2257 2263 2164 2054 2161
8 2258 2159 2261 2351 2157 2050 2158 2259
8 2258 2159 2056 2164 2351 2261 2165 2264
8 2262 2163 2060 2167 2355 2264 2168 2269
8 2162 2055 2163 2262 2263 2164 2264 2355
8 2357 2266 2165 2264 2268 2166 2061 2168
8 2268 2166 2076 2182 2361 2267 2181 2280
8 2281 2182 2268 2362 2183 2077 2168 2269
8 2271 2169 2270 2364 2177 2075 2180 2277
8 2172 2070 2170 2272 2273 2177 2271 2365
8 2072 2173 2274 2178 2177 2273 2366 2277
8 2071 2174 2275 2176 2178 2274 2367 2276
8 2275 2176 2276 2367 2184 2083 2186 2282
8 2283 2187 2084 2186 2368 2278 2179 2276
8 2178 2074 2180 2277 2276 2179 2278 2368
8 2283 2187 2279 2370 2186 2084 2181 2280
8 2281 2182 2082 2185 2371 2280 2186 2282
8 2188 2285 2374 2284 2100 2197 2292 2201
8 2286 2189 2095 2193 2375 2285 2197 2289
8 2192 2097 2196 2287 2288 2199 2291 2376
8 2287 2196 2104 2203 2376 2291 2204 2296
8 2194 2098 2199 2288 2290 2198 2293 2377
8 2289 2197 2096 2195 2378 2292 2198 2290
8 2291 2200 2105 2204 2379 2294 2205 2297
8 2199 2102 2200 2291 2293 2202 2294 2379
8 2198 2101 2202 2293 2292 2201 2295 2380
8 2299 2207 2297 2383 2206 2107 2204 2296
8 2300 2208 2298 2384 2207 2108 2205 2297
8 2302 2210 2300 2386 2209 2110 2207 2299
8 2303 2211 2301 2387 2210 2111 2208 2300
8 2305 2213 2303 2389 2212 2113 2210 2302
8 2306 2214 2304 2390 2213 2114 2211 2303
8 2310 2216 2306 2392 2220 2117 2213 2305
8 2308 2215 2307 2393 2216 2115 2214 2306
8 2308 2215 2115 2216 2396 2309 2217 2311
8 2310 2216 2117 2220 2398 2311 2219 2315
8 2311 2217 2116 2219 2399 2312 2218 2314
8 2314 2218 2118 2222 2402 2313 2221 2317
8 2315 2219 2119 2223 2403 2314 2222 2318
8 2225 2121 2224 2320 2317 2221 2316 2405
8 2226 2122 2225 2321 2318 2222 2317 2406
8 2228 2124 2227 2323 2320 2224 2319 2408
8 2229 2125 2228 2324 2321 2225 2320 2409
8 2231 2127 2230 2326 2323 2227 2322 2411
8 2232 2128 2231 2327 2324 2228 2323 2412
8 2234 2130 2233 2328 2326 2230 2325 2413
8 2235 2131 2234 2329 2327 2231 2326 2414
8 2237 2134 2236 2330 2329 2234 2328 2415
8 2259 2158 2260 2352 2332 2239 2331 2417
8 2257 2157 2259 2350 2334 2240 2332 2419
8 2240 2139 2239 2332 2335 2241 2333 2420
8 2334 2240 2335 2422 2242 2140 2243 2337
8 2335 2241 2336 2423 2243 2141 2244 2338
8 2337 2243 2338 2425 2247 2143 2246 2342
8 2338 2244 2339 2426 2246 2142 2245 2341
8 2341 2245 2340 2428 2249 2145 2248 2343
8 2342 2246 2341 2429 2250 2146 2249 2344
8 2344 2249 2343 2430 2252 2149 2251 2345
8 2188 2285 2347 2254 2284 2374 2432 2346
8 2347 2254 2346 2432 2271 2169 2270 2364
8 2365 2271 2170 2272 2433 2347 2255 2348
8 2286 2189 2285 2375 2348 2255 2347 2433
8 2349 2258 2351 2435 2257 2157 2259 2350
8 2349 2258 2164 2263 2435 2351 2264 2355
8 2259 2158 2261 2351 2352 2260 2354 2437
8 2356 2265 2354 2437 2264 2165 2261 2351
8 2441 2357 2264 2355 2362 2268 2168 2269
8 2356 2265 2165 2264 2442 2358 2266 2357
8 2443 2359 2266 2357 2361 2267 2166 2268
8 2370 2279 2360 2446 2280 2181 2267 2361
8 2362 2268 2182 2281 2447 2361 2280 2371
8 2180 2277 2368 2278 2270 2364 2449 2363
8 2271 2365 2273 2177 2364 2450 2366 2277
8 2372 2283 2186 2282 2451 2368 2276 2367
8 2178 2274 2367 2276 2277 2366 2451 2368
8 2283 2187 2278 2368 2370 2279 2369 2452
8 2372 2283 2370 2453 2282 2186 2280 2371
8 2284 2374 2455 2373 2201 2292 2380 2295
8 2375 2285 2197 2289 2456 2374 2292 2378
8 2376 2291 2204 2296 2457 2379 2297 2383
8 2288 2199 2291 2376 2377 2293 2379 2457
8 2198 2290 2378 2292 2293 2377 2458 2380
8 2293 2202 2294 2379 2380 2295 2381 2459
8 2384 2298 2381 2459 2297 2205 2294 2379
8 2386 2300 2384 2463 2299 2207 2297 2383
8 2387 2301 2385 2464 2300 2208 2298 2384
8 2389 2303 2387 2466 2302 2210 2300 2386
8 2390 2304 2388 2467 2303 2211 2301 2387
8 2392 2306 2390 2469 2305 2213 2303 2389
8 2393 2307 2391 2470 2306 2214 2304 2390
8 2395 2308 2393 2472 2310 2216 2306 2392
8 2308 2215 2309 2396 2393 2307 2394 2473
8 2395 2308 2216 2310 2475 2396 2311 2398
8 2396 2309 2217 2311 2476 2397 2312 2399
8 2398 2311 2219 2315 2478 2399 2314 2403
8 2399 2312 2218 2314 2479 2400 2313 2402
8 2317 2221 2316 2405 2402 2313 2401 2482
8 2403 2314 2222 2318 2483 2402 2317 2406
8 2320 2224 2319 2408 2405 2316 2404 2485
8 2321 2225 2320 2409 2406 2317 2405 2486
8 2323 2227 2322 2411 2408 2319 2407 2488
8 2324 2228 2323 2412 2409 2320 2408 2489
8 2326 2230 2325 2413 2411 2322 2410 2490
8 2327 2231 2326 2414 2412 2323 2411 2491
8 2329 2234 2328 2415 2414 2326 2413 2492
8 2417 2331 2260 2352 2494 2416 2353 2438
8 2350 2259 2352 2436 2419 2332 2417 2496
8 2332 2239 2331 2417 2420 2333 2418 2497
8 2334 2240 2332 2419 2422 2335 2420 2499
8 2420 2333 2421 2500 2335 2241 2336 2423
8 2422 2335 2423 2502 2337 2243 2338 2425
8 2423 2336 2424 2503 2338 2244 2339 2426
8 2425 2338 2426 2505 2342 2246 2341 2429
8 2426 2339 2427 2506 2341 2245 2340 2428
8 2429 2341 2428 2507 2344 2249 2343 2430
8 2432 2346 2284 2374 2509 2431 2373 2455
8 2432 2346 2431 2509 2364 2270 2363 2449
8 2375 2285 2374 2456 2433 2347 2432 2510
8 2347 2433 2365 2271 2432 2510 2450 2364
8 2350 2259 2351 2435 2436 2352 2437 2514
8 2440 2356 2437 2514 2355 2264 2351 2435
8 2352 2260 2354 2437 2438 2353 2439 2516
8 2356 2265 2358 2442 2437 2354 2439 2516
8 2440 2356 2264 2355 2518 2442 2357 2441
8 2519 2443 2357 2441 2447 2361 2268 2362
8 2443 2359 2444 2520 2357 2266 2358 2442
8 2443 2359 2267 2361 2520 2444 2360 2446
8 2446 2360 2279 2370 2523 2445 2369 2452
8 2453 2370 2446 2524 2371 2280 2361 2447
8 2449 2363 2448 2525 2368 2278 2369 2452
8 2366 2277 2364 2450 2451 2368 2449 2526
8 2372 2283 2368 2451 2453 2370 2452 2527
8 2455 2373 2295 2380 2529 2454 2382 2460
8 2456 2374 2292 2378 2530 2455 2380 2458
8 2377 2293 2379 2457 2458 2380 2459 2531
8 2463 2384 2459 2531 2383 2297 2379 2457
8 2533 2461 2382 2460 2459 2381 2295 2380
8 2464 2385 2461 2533 2384 2298 2381 2459
8 2466 2387 2464 2537 2386 2300 2384 2463
8 2467 2388 2465 2538 2387 2301 2385 2464
8 2469 2390 2467 2540 2389 2303 2387 2466
8 2470 2391 2468 2541 2390 2304 2388 2467
8 2472 2393 2470 2543 2392 2306 2390 2469
8 2393 2307 2394 2473 2470 2391 2471 2544
8 2395 2308 2396 2475 2472 2393 2473 2546
8 2396 2309 2397 2476 2473 2394 2474 2547
8 2475 2396 2311 2398 2549 2476 2399 2478
8 2476 2397 2312 2399 2550 2477 2400 2479
8 2478 2399 2314 2403 2552 2479 2402 2483
8 2479 2400 2313 2402 2553 2480 2401 2482
8 2405 2316 2404 2485 2482 2401 2481 2556
8 2406 2317 2405 2486 2483 2402 2482 2557
8 2408 2319 2407 2488 2485 2404 2484 2559
8 2409 2320 2408 2489 2486 2405 2485 2560
8 2411 2322 2410 2490 2488 2407 2487 2561
8 2412 2323 2411 2491 2489 2408 2488 2562
8 2414 2326 2413 2492 2491 2411 2490 2563
8 2513 2434 2493 2565 2438 2353 2416 2494
8 2496 2417 2352 2436 2567 2494 2438 2515
8 2494 2416 2495 2568 2417 2331 2418 2497
8 2419 2332 2417 2496 2499 2420 2497 2570
8 2497 2418 2498 2571 2420 2333 2421 2500
8 2499 2420 2500 2573 2422 2335 2423 2502
8 2500 2421 2501 2574 2423 2336 2424 2503
8 2502 2423 2503 2576 2425 2338 2426 2505
8 2503 2424 2504 2577 2426 2339 2427 2506
8 2505 2426 2506 2578 2429 2341 2428 2507
8 2509 2431 2373 2455 2580 2508 2454 2529
8 2509 2431 2508 2580 2449 2363 2448 2525
8 2432 2510 2581 2509 2374 2456 2530 2455
8 2432 2510 2450 2364 2509 2581 2526 2449
8 2583 2511 2434 2513 2516 2439 2353 2438
8 2436 2352 2437 2514 2515 2438 2516 2588
8 2440 2356 2442 2518 2514 2437 2516 2588
8 2442 2358 2444 2520 2516 2439 2517 2589
8 2519 2443 2520 2591 2441 2357 2442 2518
8 2519 2443 2361 2447 2591 2520 2446 2524
8 2446 2360 2445 2523 2520 2444 2521 2592
8 2525 2448 2522 2593 2452 2369 2445 2523
8 2524 2446 2370 2453 2594 2523 2452 2527
8 2526 2449 2525 2595 2451 2368 2452 2527
8 2534 2462 2528 2597 2460 2382 2454 2529
8 2530 2455 2380 2458 2598 2529 2460 2532
8 2599 2533 2460 2532 2531 2459 2380 2458
8 2537 2464 2533 2599 2463 2384 2459 2531
8 2534 2462 2382 2460 2601 2535 2461 2533
8 2538 2465 2535 2601 2464 2385 2461 2533
8 2540 2467 2538 2604 2466 2387 2464 2537
8 2541 2468 2539 2605 2467 2388 2465 2538
8 2543 2470 2541 2607 2469 2390 2467 2540
8 2470 2391 2471 2544 2541 2468 2542 2608
8 2472 2393 2473 2546 2543 2470 2544 2610
8 2473 2394 2474 2547 2544 2471 2545 2611
8 2475 2396 2476 2549 2546 2473 2547 2613
8 2476 2397 2477 2550 2547 2474 2548 2614
8 2549 2476 2399 2478 2616 2550 2479 2552
8 2479 2400 2480 2553 2550 2477 2551 2617
8 2552 2479 2402 2483 2619 2553 2482 2557
8 2482 2401 2481 2556 2553 2480 2554 2620
8 2485 2404 2484 2559 2556 2481 2555 2623
8 2486 2405 2485 2560 2557 2482 2556 2624
8 2488 2407 2487 2561 2559 2484 2558 2625
8 2489 2408 2488 2562 2560 2485 2559 2626
8 2491 2411 2490 2563 2562 2488 2561 2627
8 2513 2434 2512 2585 2565 2493 2564 2630
8 2586 2513 2565 2632 2515 2438 2494 2567
8 2565 2493 2566 2633 2494 2416 2495 2568
8 2567 2494 2568 2635 2496 2417 2497 2570
8 2568 2495 2569 2636 2497 2418 2498 2571
8 2570 2497 2571 2638 2499 2420 2500 2573
8 2571 2498 2572 2639 2500 2421 2501 2574
8 2573 2500 2574 2641 2502 2423 2503 2576
8 2574 2501 2575 2642 2503 2424 2504 2577
8 2576 2503 2577 2643 2505 2426 2506 2578
8 2597 2528 2579 2645 2529 2454 2508 2580
8 2580 2508 2579 2645 2525 2448 2522 2593
8 2581 2509 2455 2530 2646 2580 2529 2598
8 2581 2509 2580 2646 2526 2449 2525 2595
8 2583 2511 2582 2648 2513 2434 2512 2585
8 2583 2511 2439 2516 2648 2582 2517 2589
8 2649 2583 2513 2586 2588 2516 2438 2515
8 2589 2517 2444 2520 2653 2587 2521 2592
8 2518 2442 2520 2591 2588 2516 2589 2654
8 2593 2522 2590 2655 2523 2445 2521 2592
8 2524 2446 2523 2594 2591 2520 2592 2656
8 2595 2525 2593 2657 2527 2452 2523 2594
8 2602 2536 2596 2659 2534 2462 2528 2597
8 2600 2534 2597 2660 2532 2460 2529 2598
8 2600 2534 2460 2532 2661 2601 2533 2599
8 2604 2538 2601 2661 2537 2464 2533 2599
8 2602 2536 2462 2534 2663 2603 2535 2601
8 2601 2535 2465 2538 2663 2603 2539 2605
8 2607 2541 2605 2665 2540 2467 2538 2604
8 2608 2542 2606 2666 2541 2468 2539 2605
8 2543 2470 2544 2610 2607 2541 2608 2668
8 2544 2471 2545 2611 2608 2542 2609 2669
8 2546 2473 2547 2613 2610 2544 2611 2671
8 2547 2474 2548 2614 2611 2545 2612 2672
8 2549 2476 2550 2616 2613 2547 2614 2674
8 2550 2477 2551 2617 2614 2548 2615 2675
8 2552 2479 2553 2619 2616 2550 2617 2677
8 2553 2480 2554 2620 2617 2551 2618 2678
8 2557 2482 2556 2624 2619 2553 2620 2680
8 2556 2481 2555 2623 2620 2554 2621 2681
8 2559 2484 2558 2625 2623 2555 2622 2683
8 2560 2485 2559 2626 2624 2556 2623 2684
8 2562 2488 2561 2627 2626 2559 2625 2685
8 2690 2629 2564 2630 2650 2584 2512 2585
8 2586 2513 2585 2651 2632 2565 2630 2691
8 2630 2564 2631 2692 2565 2493 2566 2633
8 2632 2565 2633 2694 2567 2494 2568 2635
8 2633 2566 2634 2695 2568 2495 2569 2636
8 2635 2568 2636 2697 2570 2497 2571 2638
8 2636 2569 2637 2698 2571 2498 2572 2639
8 2638 2571 2639 2700 2573 2500 2574 2641
8 2639 2572 2640 2701 2574 2501 2575 2642
8 2641 2574 2642 2702 2576 2503 2577 2643
8 2597 2528 2596 2659 2645 2579 2644 2704
8 2645 2579 2644 2704 2593 2522 2590 2655
8 2660 2597 2645 2705 2598 2529 2580 2646
8 2646 2580 2645 2705 2595 2525 2593 2657
8 2650 2584 2512 2585 2707 2647 2582 2648
8 2648 2582 2517 2589 2707 2647 2587 2653
8 2649 2583 2648 2708 2586 2513 2585 2651
8 2649 2583 2516 2588 2708 2648 2589 2654
8 2655 2590 2652 2710 2592 2521 2587 2653
8 2654 2589 2520 2591 2711 2653 2592 2656
8 2657 2593 2655 2712 2594 2523 2592 2656
8 2602 2536 2603 2663 2659 2596 2658 2714
8 2662 2602 2659 2715 2600 2534 2597 2660
8 2662 2602 2534 2600 2717 2663 2601 2661
8 2661 2601 2538 2604 2717 2663 2605 2665
8 2666 2606 2664 2718 2605 2539 2603 2663
8 2668 2608 2666 2720 2607 2541 2605 2665
8 2608 2542 2609 2669 2666 2606 2667 2721
8 2610 2544 2611 2671 2668 2608 2669 2723
8 2611 2545 2612 2672 2669 2609 2670 2724
8 2613 2547 2614 2674 2671 2611 2672 2726
8 2614 2548 2615 2675 2672 2612 2673 2727
8 2616 2550 2617 2677 2674 2614 2675 2729
8 2617 2551 2618 2678 2675 2615 2676 2730
8 2619 2553 2620 2680 2677 2617 2678 2732
8 2620 2554 2621 2681 2678 2618 2679 2733
8 2624 2556 2623 2684 2680 2620 2681 2735
8 2681 2621 2555 2623 2736 2682 2622 2683
8 2626 2559 2625 2685 2684 2623 2683 2737
8 2688 2628 2584 2650 2740 2686 2647 2707
8 2688 2628 2687 2742 2650 2584 2629 2690
8 2690 2629 2689 2745 2630 2564 2631 2692
8 2746 2690 2630 2691 2709 2650 2585 2651
8 2691 2630 2692 2747 2632 2565 2633 2694
8 2692 2631 2693 2748 2633 2566 2634 2695
8 2694 2633 2695 2750 2635 2568 2636 2697
8 2695 2634 2696 2751 2636 2569 2637 2698
8 2697 2636 2698 2753 2638 2571 2639 2700
8 2698 2637 2699 2754 2639 2572 2640 2701
8 2700 2639 2701 2755 2641 2574 2642 2702
8 2659 2596 2658 2714 2704 2644 2703 2757
8 2704 2644 2703 2757 2655 2590 2652 2710
8 2660 2597 2659 2715 2705 2645 2704 2758
8 2705 2645 2704 2758 2657 2593 2655 2712
8 2759 2706 2647 2707 2710 2652 2587 2653
8 2709 2650 2585 2651 2760 2707 2648 2708
8 2708 2648 2589 2654 2760 2707 2653 2711
8 2712 2655 2710 2761 2656 2592 2653 2711
8 2763 2713 2658 2714 2718 2664 2603 2663
8 2662 2602 2663 2717 2715 2659 2714 2764
8 2720 2666 2718 2767 2665 2605 2663 2717
8 2768 2719 2664 2718 2721 2667 2606 2666
8 2668 2608 2669 2723 2720 2666 2721 2770
8 2669 2609 2670 2724 2721 2667 2722 2771
8 2671 2611 2672 2726 2723 2669 2724 2773
8 2672 2612 2673 2727 2724 2670 2725 2774
8 2674 2614 2675 2729 2726 2672 2727 2776
8 2675 2615 2676 2730 2727 2673 2728 2777
8 2677 2617 2678 2732 2729 2675 2730 2779
8 2678 2618 2679 2733 2730 2676 2731 2780
8 2680 2620 2681 2735 2732 2678 2733 2782
8 2733 2679 2621 2681 2783 2734 2682 2736
8 2735 2681 2623 2684 2784 2736 2683 2737
8 2740 2686 2647 2707 2787 2738 2706 2759
8 2688 2628 2686 2740 2742 2687 2739 2789
8 2743 2688 2650 2709 2790 2740 2707 2760
8 2742 2687 2741 2792 2690 2629 2689 2745
8 2743 2688 2742 2793 2709 2650 2690 2746
8 2745 2689 2744 2795 2692 2631 2693 2748
8 2746 2690 2745 2796 2691 2630 2692 2747
8 2747 2692 2748 2797 2694 2633 2695 2750
8 2748 2693 2749 2798 2695 2634 2696 2751
8 2750 2695 2751 2800 2697 2636 2698 2753
8 2751 2696 2752 2801 2698 2637 2699 2754
8 2753 2698 2754 2802 2700 2639 2701 2755
8 2763 2713 2756 2804 2714 2658 2703 2757
8 2759 2706 2652 2710 2804 2756 2703 2757
8 2715 2659 2714 2764 2758 2704 2757 2805
8 2758 2704 2757 2805 2712 2655 2710 2761
8 2806 2759 2707 2760 2761 2710 2653 2711
8 2765 2716 2762 2808 2718 2664 2713 2763
8 2809 2763 2714 2764 2767 2718 2663 2717
8 2765 2716 2664 2718 2811 2766 2719 2768
8 2813 2768 2718 2767 2770 2721 2666 2720
8 2814 2769 2719 2768 2771 2722 2667 2721
8 2723 2669 2724 2773 2770 2721 2771 2816
8 2724 2670 2725 2774 2771 2722 2772 2817
8 2726 2672 2727 2776 2773 2724 2774 2819
8 2727 2673 2728 2777 2774 2725 2775 2820
8 2729 2675 2730 2779 2776 2727 2777 2822
8 2730 2676 2731 2780 2777 2728 2778 2823
8 2732 2678 2733 2782 2779 2730 2780 2825
8 2780 2731 2679 2733 2826 2781 2734 2783
8 2782 2733 2681 2735 2827 2783 2736 2784
8 2830 2785 2738 2787 2804 2756 2706 2759
8 2789 2739 2686 2740 2832 2786 2738 2787
8 2790 2740 2707 2760 2833 2787 2759 2806
8 2742 2687 2739 2789 2792 2741 2788 2835
8 2743 2688 2740 2790 2793 2742 2789 2836
8 2792 2741 2791 2838 2745 2689 2744 2795
8 2793 2742 2792 2839 2746 2690 2745 2796
8 2795 2744 2794 2841 2748 2693 2749 2798
8 2796 2745 2795 2842 2747 2692 2748 2797
8 2797 2748 2798 2843 2750 2695 2751 2800
8 2798 2749 2799 2844 2751 2696 2752 2801
8 2800 2751 2801 2845 2753 2698 2754 2802
8 2808 2762 2803 2847 2763 2713 2756 2804
8 2809 2763 2804 2848 2764 2714 2757 2805
8 2806 2759 2710 2761 2848 2804 2757 2805
8 2765 2716 2766 2811 2808 2762 2807 2850
8 2810 2765 2808 2851 2767 2718 2763 2809
8 2810 2765 2718 2767 2852 2811 2768 2813
8 2811 2766 2719 2768 2853 2812 2769 2814
8 2855 2814 2768 2813 2816 2771 2721 2770
8 2856 2815 2769 2814 2817 2772 2722 2771
8 2773 2724 2774 2819 2816 2771 2817 2858
8 2774 2725 2775 2820 2817 2772 2818 2859
8 2776 2727 2777 2822 2819 2774 2820 2861
8 2777 2728 2778 2823 2820 2775 2821 2862
8 2779 2730 2780 2825 2822 2777 2823 2864
8 2823 2778 2731 2780 2865 2824 2781 2826
8 2825 2780 2733 2782 2866 2826 2783 2827
8 2869 2828 2785 2830 2847 2803 2756 2804
8 2871 2829 2786 2832 2830 2785 2738 2787
8 2872 2830 2787 2833 2848 2804 2759 2806
8 2789 2739 2786 2832 2835 2788 2831 2874
8 2836 2789 2740 2790 2875 2832 2787 2833
8 2792 2741 2788 2835 2838 2791 2834 2877
8 2793 2742 2789 2836 2839 2792 2835 2878
8 2838 2791 2837 2880 2795 2744 2794 2841
8 2839 2792 2838 2881 2796 2745 2795 2842
8 2841 2794 2840 2882 2798 2749 2799 2844
8 2842 2795 2841 2883 2797 2748 2798 2843
8 2843 2798 2844 2884 2800 2751 2801 2845
8 2886 2846 2803 2847 2850 2807 2762 2808
8 2851 2808 2847 2887 2809 2763 2804 2848
8 2850 2807 2766 2811 2889 2849 2812 2853
8 2810 2765 2811 2852 2851 2808 2850 2890
8 2852 2811 2768 2813 2891 2853 2814 2855
8 2853 2812 2769 2814 2892 2854 2815 2856
8 2894 2856 2814 2855 2858 2817 2771 2816
8 2817 2772 2818 2859 2856 2815 2857 2895
8 2819 2774 2820 2861 2858 2817 2859 2897
8 2820 2775 2821 2862 2859 2818 2860 2898
8 2822 2777 2823 2864 2861 2820 2862 2900
8 2823 2778 2824 2865 2862 2821 2863 2901
8 2864 2823 2780 2825 2902 2865 2826 2866
8 2904 2867 2828 2869 2886 2846 2803 2847
8 2869 2828 2868 2906 2830 2785 2829 2871
8 2907 2869 2830 2872 2887 2847 2804 2848
8 2871 2829 2870 2909 2832 2786 2831 2874
8 2910 2871 2832 2875 2872 2830 2787 2833
8 2835 2788 2831 2874 2877 2834 2873 2912
8 2836 2789 2832 2875 2878 2835 2874 2913
8 2877 2834 2876 2915 2838 2791 2837 2880
8 2839 2792 2835 2878 2881 2838 2877 2916
8 2880 2837 2879 2917 2841 2794 2840 2882
8 2881 2838 2880 2918 2842 2795 2841 2883
8 2883 2841 2882 2919 2843 2798 2844 2884
8 2921 2885 2846 2886 2889 2849 2807 2850
8 2922 2886 2847 2887 2890 2850 2808 2851
8 2889 2849 2812 2853 2924 2888 2854 2892
8 2890 2850 2811 2852 2925 2889 2853 2891
8 2891 2853 2814 2855 2926 2892 2856 2894
8 2892 2854 2815 2856 2927 2893 2857 2895
8 2858 2817 2859 2897 2894 2856 2895 2929
8 2859 2818 2860 2898 2895 2857 2896 2930
8 2861 2820 2862 2900 2897 2859 2898 2932
8 2862 2821 2863 2901 2898 2860 2899 2933
8 2864 2823 2865 2902 2900 2862 2901 2934
8 2904 2867 2846 2886 2936 2903 2885 2921
8 2904 2867 2903 2936 2869 2828 2868 2906
8 2937 2904 2869 2907 2922 2886 2847 2887
8 2906 2868 2905 2939 2871 2829 2870 2909
8 2907 2869 2906 2940 2872 2830 2871 2910
8 2909 2870 2908 2942 2874 2831 2873 2912
8 2910 2871 2909 2943 2875 2832 2874 2913
8 2912 2873 2911 2945 2877 2834 2876 2915
8 2878 2835 2874 2913 2916 2877 2912 2946
8 2915 2876 2914 2947 2880 2837 2879 2917
8 2916 2877 2915 2948 2881 2838 2880 2918
8 2918 2880 2917 2949 2883 2841 2882 2919
8 2921 2885 2849 2889 2951 2920 2888 2924
8 2952 2921 2886 2922 2925 2889 2850 2890
8 2924 2888 2854 2892 2954 2923 2893 2927
8 2925 2889 2853 2891 2955 2924 2892 2926
8 2926 2892 2856 2894 2956 2927 2895 2929
8 2895 2857 2896 2930 2927 2893 2928 2957
8 2897 2859 2898 2932 2929 2895 2930 2959
8 2898 2860 2899 2933 2930 2896 2931 2960
8 2900 2862 2901 2934 2932 2898 2933 2961
8 2936 2903 2885 2921 2963 2935 2920 2951
8 2936 2903 2935 2963 2906 2868 2905 2939
8 2937 2904 2886 2922 2964 2936 2921 2952
8 2937 2904 2936 2964 2907 2869 2906 2940
8 2939 2905 2938 2966 2909 2870 2908 2942
8 2940 2906 2939 2967 2910 2871 2909 2943
8 2942 2908 2941 2969 2912 2873 2911 2945
8 2943 2909 2942 2970 2913 2874 2912 2946
8 2945 2911 2944 2971 2915 2876 2914 2947
8 2946 2912 2945 2972 2916 2877 2915 2948
8 2948 2915 2947 2973 2918 2880 2917 2949
8 2951 2920 2888 2924 2975 2950 2923 2954
8 2952 2921 2889 2925 2976 2951 2924 2955
8 2927 2893 2928 2957 2954 2923 2953 2978
8 2955 2924 2892 2926 2979 2954 2927 2956
8 2929 2895 2930 2959 2956 2927 2957 2980
8 2930 2896 2931 2960 2957 2928 2958 2981
8 2932 2898 2933 2961 2959 2930 2960 2982
8 2951 2920 2950 2975 2963 2935 2962 2984
8 2963 2935 2962 2984 2939 2905 2938 2966
8 2964 2936 2921 2952 2985 2963 2951 2976
8 2964 2936 2963 2985 2940 2906 2939 2967
8 2966 2938 2965 2987 2942 2908 2941 2969
8 2967 2939 2966 2988 2943 2909 2942 2970
8 2969 2941 2968 2989 2945 2911 2944 2971
8 2970 2942 2969 2990 2946 2912 2945 2972
8 2972 2945 2971 2991 2948 2915 2947 2973
8 2954 2923 2953 2978 2975 2950 2974 2993
8 2976 2951 2924 2955 2994 2975 2954 2979
8 2957 2928 2958 2981 2978 2953 2977 2995
8 2956 2927 2957 2980 2979 2954 2978 2996
8 2959 2930 2960 2982 2980 2957 2981 2997
8 2984 2962 2983 2999 2966 2938 2965 2987
8 2975 2950 2974 2993 2984 2962 2983 2999
8 2976 2951 2975 2994 2985 2963 2984 3000
8 2985 2963 2984 3000 2967 2939 2966 2988
8 2987 2965 2986 3001 2969 2941 2968 2989
8 2988 2966 2987 3002 2970 2942 2969 2990
8 2990 2969 2989 3003 2972 2945 2971 2991
8 2978 2953 2977 2995 2993 2974 2992 3004
8 2979 2954 2978 2996 2994 2975 2993 3005
8 2980 2957 2981 2997 2996 2978 2995 3006
8 2974 2993 2999 2983 2992 3004 3007 2998
8 2983 2999 2987 2965 2998 3007 3001 2986
8 3000 2984 2999 3008 2988 2966 2987 3002
8 2994 2975 2993 3005 3000 2984 2999 3008
8 3002 2987 3001 3009 2990 2969 2989 3003
8 2996 2978 2995 3006 3005 2993 3004 3010
8 3005 2993 3004 3010 3008 2999 3007 3011
8 3008 2999 3007 3011 3002 2987 3001 3009

CELL_TYPES 1910
12
12
12
12
12
12
12
12
12
12
12
12
12
12
12
12
12
12
12
12
12
12
12
12
12
12
12
12
12
12
12
12
12
12
12
12
12
12
12
12
12
12
12
12
12
12
12
12
12
12
12
12
12
12
12
12
12
12
12
12
12
12
12
12
12
12
12
12
12
12
12
12
12
12
12
12
12
12
12
12
12
12
12
12
12
12
12
12
12
12
12
12
12
12
12
12
12
12
12
12
12
12
12
12
12
12
12
12
12
12
12
12
12
12
12
12
12
12
12
12
12
12
12
12
12
12
12
12
12
12
12
12
12
12
12
12
12
12
12
12
12
12
12
12
12
12
12
12
12
12
12
12
12
12
12
12
12
12
12
12
12
12
12
12
12
12
12
12
12
12
12
12
12
12
12
12
12
12
12
12
12
12
12
12
12
12
12
12
12
12
12
12
12
12
12
12
12
12
12
12
12
12
12
12
12
12
12
12
12
12
12
12
12
12
12
12
12
12
12
12
12
12
12
12
12
12
12
12
12
12
12
12
12
12
12
12
12
12
12
12
12
12
12
12
12
12
12
12
12
12
12
12
12
12
12
12
12
12
12
12
12
12
12
12
12
12
12
12
12
12
12
12
12
12
12
12
12
12
12
12
12
12
12
12
12
12
12
12
12
12
12
12
12
12
12
12
12
12
12
12
12
12
12
12
12
12
12
12
12
12
12
12
12
12
12
12
12
12
12
12
12
12
12
12
12
12
12
12
12
12
12
12
12
12
12
12
12
12
12
12
12
12
12
12
12
12
12
12
12
12
12
12
12
12
12
12
12
12
12
12
12
12
12
12
12
12
12
12
12
12
12
12
12
12
12
12
12
12
12
12
12
12
12
12
12
12
12
12
12
12
12
12
12
12
12
12
12
12
12
12
12
12
12
12
12
12
12
12
12
12
12
12
12
12
12
12
12
12
12
12
12
12
12
12
12
12
12
12
12
12
12
12
12
12
12
12
12
12
12
12
12
12
12
12
12
12
12
12
12
12
12
12
12
12
12
12
12
12
12
12
12
12
12
12
12
12
12
12
12
12
12
12
12
12
12
12
12
12
12
12
12
12
12
12
12
12
12
12
12
12
12
12
12
12
12
12
12
12
12
12
12
12
12
12
12
12
12
12
12
12
12
12
12
12
12
12
12
12
12
12
12
12
12
12
12
12
12
12
12
12
12
12
12
12
12
12
12
12
12
12
12
12
12
12
12
12
12
12
12
12
12
12
12
12
12
12
12
12
12
12
12
12
12
12
12
12
12
12
12
12
12
12
12
12
12
12
12
12
12
12
12
12
12
12
12
12
12
12
12
12
12
12
12
12
12
12
12
12
12
12
12
12
12
12
12
12
12
12
12
12
12
12
12
12
12
12
12
12
12
12
12
12
12
12
12
12
12
12
12
12
12
12
12
12
12
12
12
12
12
12
12
12
12
12
12
12
12
12
12
12
12
12
12
12
12
12
12
12
12
12
12
12
12
12
12
12
12
12
12
12
12
12
12
12
12
12
12
12
12
12
12
12
12
12
12
12
12
12
12
12
12
12
12
12
12
12
12
12
12
12
12
12
12
12
12
12
12
12
12
12
12
12
12
12
12
12
12
12
12
12
12
12
12
12
12
12
12
12
12
12
12
12
12
12
12
12
12
12
12
12
12
12
12
12
12
12
12
12
12
12
12
12
12
12
12
12
12
12
12
12
12
12
12
12
12
12
12
12
12
12
12
12
12
12
12
12
12
12
12
12
12
12
12
12
12
12
12
12
12
12
12
12
12
12
12
12
12
12
12
12
12
12
12
12
12
12
12
12
12
12
12
12
12
12
12
12
12
12
12
12
12
12
12
12
12
12
12
12
12
12
12
12
12
12
12
12
12
12
12
12
12
12
12
12
12
12
12
12
12
12
12
12
12
12
12
12
12
12
12
12
12
12
12
12
12
12
12
12
12
12
12
12
12
12
12
12
12
12
12
12
12
12
12
12
12
12
12
12
12
12
12
12
12
12
12
12
12
12
12
12
12
12
12
12
12
12
12
12
12
12
12
12
12
12
12
12
12
12
12
12
12
12
12
12
12
12
12
12
12
12
12
12
12
12
12
12
12
12
12
12
12
12
12
12
12
12
12
12
12
12
12
12
12
12
12
12
12
12
12
12
12
12
12
12
12
12
12
12
12
12
12
12
12
12
12
12
12
12
12
12
12
12
12
12
12
12
12
12
12
12
12
12
12
12
12
12
12
12
12
12
12
12
12
12
12
12
12
12
12
12
12
12
12
12
12
12
12
12
12
12
12
12
12
12
12
12
12
12
12
12
12
12
12
12
12
12
12
12
12
12
12
12
12
12
12
12
12
12
12
12
12
12
12
12
12
12
12
12
12
12
12
12
12
12
12
12
12
12
12
12
12
12
12
12
12
12
12
12
12
12
12
12
12
12
12
12
12
12
12
12
12
12
12
12
12
12
12
12
12
12
12
12
12
12
12
12
12
12
12
12
12
12
12
12
12
12
12
12
12
12
12
12
12
12
12
12
12
12
12
12
12
12
12
12
12
12
12
12
12
12
12
12
12
12
12
12
12
12
12
12
12
12
12
12
12
12
12
12
12
12
12
12
12
12
12
12
12
12
12
12
12
12
12
12
12
12
12
12
12
12
12
12
12
12
12
12
12
12
12
12
12
12
12
12
12
12
12
12
12
12
12
12
12
12
12
12
12
12
12
12
12
12
12
12
12
12
12
12
12
12
12
12
12
12
12
12
12
12
12
12
12
12
12
12
12
12
12
12
12
12
12
12
12
12
12
12
12
12
12
12
12
12
12
12
12
12
12
12
12
12
12
12
12
12
12
12
12
12
12
12
12
12
12
12
12
12
12
12
12
12
12
12
12
12
12
12
12
12
12
12
12
12
12
12
12
12
12
12
12
12
12
12
12
12
12
12
12
12
12
12
12
12
12
12
12
12
12
12
12
12
12
12
12
12
12
12
12
12
12
12
12
12
12
12
12
12
12
12
12
12
12
12
12
12
12
12
12
12
12
12
12
12
12
12
12
12
12
12
12
12
12
12
12
12
12
12
12
12
12
12
12
12
12
12
12
12
12
12
12
12
12
12
12
12
12
12
12
12
12
12
12
12
12
12
12
12
12
12
12
12
12
12
12
12
12
12
12
12
12
12
12
12
12
12
12
12
12
12
12
12
12
12
12
12
12
12
12
12
12
12
12
12
12
12
12
12
12
12
12
12
12
12
12
12
12
12
12
12
12
12
12
12
12
12
12
12
12
12
12
12
12
12
12
12
12
12
12
12
12
12
12
12
12
12
12
12
12
12
12
12
12
12
12
12
12
12
12
12
12
12
12
12
12
12
12
12
12
12
12
12
12
12
12
12
12
12
12
12
12
12
12
12
12
12
12
12
12
12
12
12
12
12
12
12
12
12
12
12
12
12
12
12
12
12
12
12
12
12
12
12
12
12
12
12
12
12
12
12
12
12
12
12
12
12
12
12
12
12
12
12
12
12
12
12
12
12
12
12
12
12
12
12
12
12
12
12
12
12
12
12
12
12
12
12
12
12
12
12
12
12
12
12
12
12
12
12
12
12
12
12
12
12
12
12
12
12
12
12
12
12
12
12
12
12
12
12
12
12
12
12
12
12
12
12
12
12
12
12
12
12
12
12
12
12
12
12
12
12
12
12
12
12
12
12
12
12
12
12
12
12
12
12
12
12
12
12
12
12
12
12
12
12
12
12
12
12
12
12
12
12
12
12
12
12
12
12
12
12
12
12
12
12
12
12
12
12
12
12
12
12
12
12
12
12
12
12
12
12
12
12
12
12
12
12
12
12
12
12
12
12
12
12
12
12
12
12
12
12
12
12
12
12
12
12
12
12
12
12
12
12
12
12
12
12
12
12
12
12
12
12
12
12
12
12
12
12
12
12
12
12
12
12
12
12
12
12
12
12
12
12
12
12
12
12
12
12
12
12
12
12
12
12
12
12
12
12
12
12
12
12
12
12
12
12
12
12
12
12
12
12
12
12
12
12
12
12
12
12
12
12
12
12
12
12
12
12
12
12
12
12
12
12
12
12
12
12
12
12
12
12
12
12
12
12
12
12
12
12
12
12
12
12
12
12
12
12
12
12
12
12
12
12
12
12
12
12
12
12
12
12
12
12
12
12
12
12
12
12
12
12
12
12
12
12
12
12
12
12
12
12
12
12
12
12
12
12
12
12
12
12
12
12
12
12
12
12
12
12
12
12
12
12
12
12
12
12
12
12
12
12
12
12
12
12
12
12
12
12
12
12

POINT_DATA 3012
SCALARS Jp_lamdaP float 4
LOOKUP_TABLE default
0.99941 1 1 0.99941
1 1 1 1
0.999428 1 1 0.999428
0.999352 1 1 0.999352
0.999412 1 1 0.999412
0.999378 1 1 0.999378
1.01352 1.01528 1 0.998265
1 1 1 1
1 1 1 1
1 1 1 1
0.999451 1 1 0.999451
1.00968 1.01146 1 0.998243
0.999407 1 1 0.999407
0.999385 1 1 0.999385
0.999436 1 1 0.999436
0.999392 1 1 0.999392
0.999389 1 1 0.999389
0.999441 1 1 0.999441
1.01344 1.01521 1 0.998262
1 1 1 1
0.999343 1 1 0.999343
0.999386 1 1 0.999386
1.00679 1.00862 1 0.99818
1.01195 1.01372 1 0.998261
0.999362 1 1 0.999362
1.01354 1.01532 1 0.998244
1.04314 1.04672 1 0.996581
1 1 1 1
0.999707 1 1 0.999707
0.999719 1 1 0.999719
1 1 1 1
1.00768 1.00945 1 0.998252
0.999405 1 1 0.999405
0.999434 1 1 0.999434
1.01343 1.01496 1 0.998488
1 1 1 1
1.01366 1.01514 1 0.998544
1.00315 1.00486 1 0.9983
1.02957 1.03323 1 0.99646
1 1 1 1
1 1 1 1
0.999696 1 1 0.999696
1 1 1 1
0.999408 1 1 0.999408
1.00093 1.00284 1 0.9981
1 1 1 1
1.00545 1.00705 1 0.998405
0.999426 1 1 0.999426
0.999462 1 1 0.999462
0.999393 1 1 0.999393
1.01344 1.0152 1 0.998264
0.999681 1 1 0.999681
0.999378 1 1 0.999378
0.999376 1 1 0.999376
0.999422 1 1 0.999422
1.00653 1.00838 1 0.99817
1.01356 1.01535 1 0.998242
1.01175 1.01352 1 0.998257
1.04366 1.04724 1 0.996574
1 1 1 1
0.999364 1 1 0.999364
1.00113 1.00263 1 0.998501
1.00464 1.00648 1 0.998168
1.00942 1.01122 1 0.998223
1.04243 1.04615 1 0.996444
1.04421 1.04786 1 0.996511
0.999387 1 1 0.999387
1.00588 1.00761 1 0.998285
1.04189 1.04544 1 0.996607
1.06333 1.06786 1 0.995758
1 1 1 1
1 1 1 1
1 1 1 1
1.00589 1.00764 1 0.99826
1 1 1 1
1 1 1 1
1.01348 1.01532 1 0.998179
0.999779 1 1 0.999779
1.01261 1.01438 1 0.998255
1.0019 1.00328 1.00011 0.998517
1.03215 1.03582 1 0.996455
1 1 1 1
1.00389 1 1.00455 0.999352
1.0111 1.01303 1 0.998092
1.01401 1.01584 1 0.998201
1.05047 1.05451 1 0.99616
1.00038 1.00054 1.00093 0.998908
1.0407 1.04446 1 0.9964
1.02303 1.02637 1.00012 0.996623
1.05341 1.05794 1 0.995711
1 1 1 1
1 1 1 1
1 1 1 1
1 1 1 1
1 1 1 1
0.999705 1 1 0.999705
1.00157 1.00329 1 0.998288
0.999692 1 1 0.999692
1.00637 1.00813 1 0.99825
1 1 1 1
1.00009 1.00194 1 0.998149
1.00293 1.00451 1 0.998425
1.0407 1.04471 1 0.996164
1.0088 1.01039 1 0.998434
1.04707 1.05113 1 0.99614
0.999432 1 1 0.999432
0.99941 1 1 0.99941
0.999384 1 1 0.999384
0.999454 1 1 0.999454
1.00628 1.00813 1 0.998163
1.01156 1.01333 1 0.998256
1.01335 1.01514 1 0.998245
1.04441 1.048 1 0.996567
1 1 1 1
0.999396 1 1 0.999396
1.00072 1.00253 1 0.998195
1.00428 1.00613 1 0.998155
0.999699 1 1 0.999699
1.00733 1.00895 1 0.998392
1.00921 1.01101 1 0.998217
1.04266 1.0464 1 0.996433
1.04127 1.04483 1 0.996599
1.045 1.04865 1 0.996522
1.0629 1.06742 1 0.995768
1.00025 1.00208 1 0.998172
1.00261 1.00442 1 0.998193
1.03695 1.04059 1 0.9965
1.03961 1.04332 1 0.996442
1.04491 1.04861 1 0.996466
1.07764 1.08232 0.999725 0.995951
1 1 1 1
1.06808 1.07256 1 0.995826
1.0003 1.00145 1.00048 0.998375
1.03223 1.03589 1 0.99647
1.05954 1.06413 1 0.995686
1.06659 1.071 1 0.995882
1.00252 1 1.00363 0.998894
1.00775 1.00035 1.00993 0.997492
1 1 1 1
1 1 1 1
1.01376 1.0156 1 0.998183
1 1 1 1
1.00072 1.0018 1.00052 0.998402
1.01191 1.01367 1 0.998262
1.0341 1.03778 1 0.99645
1 1 1 1
1.00411 1 1.00474 0.999376
1.01196 1.01371 1 0.998276
1.01415 1.0158 1 0.99837
1.04942 1.05346 1 0.996157
1.00069 1.00038 1.00158 0.998736
1.04062 1.04438 1 0.9964
1.02216 1.02549 1.00013 0.996619
1.05325 1.05777 1 0.995722
1.00209 1 1.00304 0.99905
1.00471 1 1.00513 0.999584
1.00985 1.00189 1.01005 0.997916
1.05053 1.05464 1 0.996105
1.04771 1.05163 1 0.996277
1.07247 1.07706 1 0.995736
1.0162 1.01775 1.00149 0.996991
1.05829 1.06272 1 0.995829
1.0412 1.04507 1.00057 0.995726
1.06089 1.06548 1 0.995698
1 1 1 1
1 1 1 1
1 1 1 1
1.00318 1 1.00406 0.999118
1 1 1 1
1 1 1 1
1 1 1 1
1.00707 1.00899 1 0.9981
1.00183 1.0037 1 0.998142
1 1 1 1
1 1 1 1
1.00028 1.00213 1 0.998149
1.00346 1.00519 1 0.998272
1.04054 1.04455 1 0.996165
1.00921 1.01114 1 0.998095
1.04557 1.04963 1 0.996138
0.999847 1.0017 1 0.998155
1.0382 1.04221 1 0.996148
1.04375 1.04777 1 0.996168
1.07831 1.08416 0.998497 0.996104
1.04877 1.05287 1 0.996107
1.07904 1.08473 0.998716 0.996026
1 1 1 1
0.999429 1 1 0.999429
1.00026 1.00242 1 0.997851
1.00394 1.00581 1 0.998144
1 1 1 1
1.00906 1.01057 1 0.998503
1.009 1.0108 1 0.998213
1.04282 1.04656 1 0.996422
1.04592 1.04956 1 0.996533
1.04035 1.04391 1 0.996591
1.06204 1.06655 1 0.995778
1.00008 1.00191 1 0.99817
1.00233 1.00416 1 0.99818
1.03754 1.04134 1 0.996349
1.04036 1.04408 1 0.996436
1 1 1 1
1.0022 1.00346 1.00025 0.998505
1.03132 1.03483 1.00003 0.996584
1.04533 1.04905 1 0.996456
1.0767 1.08192 0.99919 0.995978
1.0595 1.06409 1 0.995687
1.06807 1.07252 1 0.995853
1.06615 1.07054 1 0.995891
1.00216 1 1.00328 0.99888
1.00773 1.00119 1.00906 0.99749
1.0366 1.04059 1 0.996167
1.0379 1.04156 1 0.996481
1.07731 1.08273 0.998908 0.996081
1.07644 1.08284 0.998036 0.996037
1.07239 1.07773 0.999085 0.995958
1.07368 1.08308 0.995044 0.996252
1.00068 1.00006 1.002 0.998629
1.06863 1.07357 0.999314 0.996085
1.02083 1.02412 1.00011 0.996676
1.05547 1.06009 1 0.995641
1.06583 1.07048 1 0.995662
1.06396 1.0692 0.998856 0.996238
1.00615 1.0033 1.00572 0.99714
1.00845 1.00013 1.01044 0.997897
1.0079 1.00523 1.00598 0.996701
1.01246 1.01436 1 0.99813
1 1 1 1
1.00394 1 1.00454 0.999401
1.0139 1.01569 1 0.998239
1.04854 1.05259 1 0.996154
1.00067 1.00002 1.00192 0.998731
1.02252 1.02595 1.00004 0.996615
1.04034 1.0441 1 0.996399
1.05438 1.0589 1 0.995733
1.00251 1 1.00344 0.999074
1.00374 1 1.00414 0.999603
1.009 1.00078 1.01032 0.997915
1.04964 1.05375 1 0.9961
1.04652 1.05043 1 0.996277
1.07265 1.07725 1 0.99573
1.01281 1.01465 1.0012 0.996994
1.05919 1.06363 1 0.995822
1.04621 1.05018 1.00051 0.995713
1.06202 1.06658 1 0.99572
1.00227 1 1.00254 0.999733
1.01025 1.0072 1.00562 0.997422
1.01067 1 1.01231 0.998379
1.01157 1.00738 1.00692 0.997263
1.07716 1.08188 0.999839 0.995799
1.06588 1.07042 1 0.995763
1.07222 1.07746 0.999241 0.995885
1.02734 1.03015 1.00122 0.996064
1.06048 1.0648 1 0.995946
1.0551 1.05817 1.00158 0.995526
1.07467 1.07925 1 0.99576
1.00087 1 1.00156 0.999311
0.999916 1 1.00003 0.999886
1 1 1 1
1 1 1 1
1 1 1 1
1.00373 1 1.0044 0.999337
1 1 1 1
1.00329 1 1.0042 0.999098
1 1 1 1
1.01012 1.01205 1 0.998096
1.00411 1.006 1 0.998124
1.04457 1.04862 1 0.996137
1.04045 1.04445 1 0.996166
1.0005 1.00236 1 0.998151
1 1 1 1
0.999903 1.00175 1 0.998155
1.03831 1.04233 1 0.996149
1.04327 1.04728 1 0.996168
1.07809 1.08394 0.998491 0.996102
1.04804 1.05214 1 0.996102
1.08003 1.08562 0.99883 0.996023
1.03673 1.04074 1 0.99615
1.07764 1.08336 0.998638 0.996084
1.07902 1.08479 0.998581 0.996089
1.07059 1.08132 0.993579 0.996476
1.07947 1.08476 0.999204 0.995917
1.07337 1.08548 0.992476 0.996347
0.999994 1.00183 1 0.998169
1.00204 1.00388 1 0.998167
1.03817 1.04213 1 0.9962
1.04115 1.04489 1 0.99643
1 1 1 1
1.00391 1.00524 1.00004 0.99864
1.03059 1.03399 1.00001 0.996698
1.04575 1.04948 1 0.996447
1.07585 1.08166 0.998622 0.996005
1.06788 1.0723 1 0.995879
1.0603 1.06489 1 0.995689
1.066 1.07039 1 0.9959
1.00196 1 1.0031 0.998867
1.00826 1.00212 1.00866 0.997487
1.03679 1.04077 1 0.996177
1.03856 1.04224 1 0.996474
1.07657 1.08234 0.998544 0.996111
1.07705 1.08291 0.998576 0.996007
1.00055 1.00037 1.00156 0.998618
1.02121 1.02442 1.00019 0.996676
1.05665 1.06126 1 0.995656
1.07278 1.07768 0.999522 0.995928
1.07283 1.08304 0.994251 0.996308
1.06518 1.06981 1 0.995669
1.06863 1.07365 0.999237 0.996088
1.06429 1.06952 0.998889 0.996223
1.00794 1.00519 1.00561 0.997139
1.00908 1.00568 1.0067 0.996696
1.00947 1.00021 1.01139 0.997899
1.07717 1.08256 0.99895 0.996069
1.07729 1.08351 0.998157 0.996101
1.07093 1.08051 0.994705 0.996401
1.07255 1.0845 0.992611 0.99634
1.06913 1.07722 0.99623 0.996244
1.06348 1.07953 0.988477 0.996613
1.00837 1.01053 1.00095 0.996916
1.06183 1.07282 0.993297 0.996427
1.04517 1.04956 1 0.995821
1.05936 1.06428 1 0.995379
1.06078 1.06527 1 0.995782
1.05583 1.06482 0.995026 0.996513
1.01187 1.00005 1.01364 0.998203
1.012 1.01313 1.00248 0.996424
1.00931 1.00111 1.0112 0.997028
1.01355 1.01219 1.00507 0.996301
1.04882 1.05293 1 0.996094
1.0032 1 1.00358 0.999621
1.00302 1 1.00392 0.999099
1.00994 1.00011 1.01194 0.997914
1.04554 1.04944 1 0.996278
1.07272 1.07733 1 0.995724
1.00769 1.0098 1.00092 0.996997
1.04753 1.05171 1.00033 0.9957
1.06016 1.06462 1 0.995816
1.06115 1.06569 1 0.995741
1.00164 1 1.00189 0.999747
1.00797 1.00456 1.00597 0.997432
1.01186 1.00009 1.01341 0.998381
1.01015 1.00563 1.00726 0.997262
1.07677 1.08142 0.999909 0.995792
1.06642 1.07096 1 0.995759
1.07178 1.07697 0.999297 0.995883
1.02507 1.028 1.00108 0.996065
1.05982 1.06416 1 0.99592
1.05155 1.05447 1.00173 0.995512
1.07408 1.07854 1 0.995863
1.00006 1 1.00024 0.999823
1.00809 1 1.00938 0.998728
1.0136 1.01437 1.00256 0.996692
1.01591 1.00352 1.01475 0.997627
1.00923 1.00916 1.00304 0.997041
1.07341 1.08168 0.99632 0.99602
1.06642 1.07084 1 0.995872
1.06376 1.07285 0.995427 0.99608
1.02568 1.02807 1.002 0.995689
1.06351 1.06786 0.999895 0.996029
1.04399 1.04788 1.00086 0.995431
1.00142 1 1.00224 0.999179
1.00416 1 1.00558 0.99859
0.999431 1 1.00001 0.999423
1.00004 1 1.00073 0.999314
0.99993 1 1 0.99993
0.999909 1 1.00001 0.999895
0.999999 1 1 0.999999
1 1 1 1
1 1 1 1
1.00256 1 1.00297 0.999586
1 1 1 1
1.0038 1 1.00448 0.999319
1 1 1 1
1.00294 1 1.00386 0.999077
1 1 1 1
1.04699 1.0511 1 0.996096
1.04249 1.0465 1 0.996167
1.0806 1.08606 0.998947 0.996021
1.07778 1.08365 0.998482 0.996101
1.0384 1.04241 1 0.99615
0.999878 1.00173 1 0.998154
1.03689 1.04089 1 0.99615
1.07727 1.08298 0.998633 0.996085
1.07914 1.08489 0.998607 0.996087
1.07011 1.08149 0.992962 0.996492
1.07915 1.0843 0.999339 0.995912
1.07328 1.08533 0.99252 0.996346
1.07704 1.0826 0.998784 0.996073
1.06958 1.08092 0.99298 0.9965
1.07208 1.08324 0.993243 0.996437
1.068 1.08248 0.989896 0.996697
1.07214 1.08401 0.992822 0.9962
1.06807 1.08667 0.986155 0.996675
1.03688 1.04085 1 0.996187
1.03925 1.04294 1 0.996468
1.07583 1.08196 0.998181 0.996141
1.07755 1.08287 0.999105 0.995977
1.00049 1.00076 1.00113 0.998607
1.02218 1.02534 1.00025 0.996678
1.05858 1.06318 1 0.99567
1.0732 1.07762 1 0.995898
1.072 1.08293 0.993515 0.996363
1.06867 1.07377 0.999157 0.99609
1.06415 1.06877 1 0.995675
1.06449 1.0697 0.998919 0.996209
1.01001 1.00747 1.0054 0.997136
1.00883 1.00562 1.00653 0.996691
1.00981 1.00039 1.01155 0.997901
1.07674 1.08212 0.998949 0.996075
1.07655 1.08308 0.99787 0.996099
1.07047 1.08082 0.993951 0.996448
1.07273 1.08409 0.99318 0.996313
1.01278 1.01466 1.00124 0.996916
1.04425 1.04863 1 0.995824
1.05924 1.0641 1.00003 0.995396
1.06983 1.07729 0.996872 0.996192
1.06313 1.07989 0.987781 0.99666
1.06151 1.06605 1 0.995742
1.06228 1.07326 0.993316 0.996427
1.05663 1.0654 0.995199 0.996552
1.01258 1.01387 1.00231 0.996425
1.01115 1.01014 1.00477 0.996247
1.01008 1.0001 1.01179 0.998204
1.0086 1.00079 1.01076 0.997075
1.07028 1.08037 0.994182 0.996452
1.07321 1.08419 0.99348 0.99637
1.06277 1.07767 0.989526 0.996614
1.06118 1.08109 0.984834 0.996692
1.06142 1.07698 0.988934 0.996581
1.0639 1.0837 0.984863 0.996826
1.02561 1.02932 1.00029 0.996107
1.05353 1.07107 0.986793 0.99679
1.04372 1.04847 1 0.995471
1.05454 1.05937 1.00018 0.995262
1.05902 1.06352 0.999958 0.995815
1.05996 1.0697 0.994296 0.99658
1.00803 1.0002 1.00935 0.99849
1.0143 1.00268 1.01434 0.997287
1.01772 1.02059 1.00117 0.996025
1.00865 1.00508 1.00687 0.996711
1.01295 1.00951 1.00736 0.996072
1.00077 1 1.001 0.999761
1.07637 1.08095 0.999977 0.995785
1.01144 1.00021 1.01287 0.998383
1.00622 1.00229 1.00649 0.997443
1.00826 1.00377 1.00723 0.997261
1.06692 1.07146 1 0.995756
1.07134 1.07647 0.999354 0.995881
1.02672 1.03018 1.00057 0.996066
1.05136 1.05407 1.00193 0.995498
1.05938 1.06375 1 0.995894
1.0743 1.07865 1 0.995966
0.999897 1 1.00006 0.999833
1.00828 1 1.00955 0.998739
1.01156 1.01307 1.00181 0.996704
1.01601 1.00305 1.01533 0.997618
1.00962 1.00933 1.00334 0.996955
1.07356 1.08177 0.996385 0.996016
1.06597 1.07039 1 0.995872
1.06316 1.07237 0.995328 0.99607
1.02674 1.02893 1.00219 0.995686
1.06748 1.07187 0.999906 0.996003
1.04418 1.04791 1.00096 0.995476
1.00317 1 1.00418 0.998997
1.01383 1.00094 1.01493 0.997987
1.00662 1.00964 1.00072 0.99629
1.01961 1.00977 1.01253 0.997259
1.01583 1.01684 1.00224 0.996782
1.06694 1.08179 0.989975 0.996259
1.06159 1.06636 0.999498 0.996023
1.05601 1.06786 0.992571 0.9963
1.00675 1.00736 1.00379 0.995618
1.04056 1.04526 1 0.995505
1.00151 1 1.00233 0.999182
1.00267 1 1.00421 0.998471
1.00449 1 1.00593 0.998567
1.00407 1 1.00573 0.998345
1.00191 1 1.00323 0.998689
0.99949 1 1 0.99949
0.999656 1 1.00023 0.999426
0.999961 1 1 0.999961
1.0001 1 1.00079 0.999316
0.999939 1 1 0.999939
1 1 1 1
0.999903 1 1 0.999903
1 1 1 1
1 1 1 1
1.00095 1 1.00113 0.999815
1.00366 1 1.00409 0.999568
1 1 1 1
1 1 1 1
1.00431 1 1.00502 0.999301
1 1 1 1
1.07905 1.08405 0.999477 0.995908
1.07957 1.08531 0.998629 0.996085
1.07331 1.08532 0.992558 0.996346
1.06971 1.08175 0.992338 0.996509
1.07688 1.0826 0.998629 0.996085
1.03715 1.04116 1 0.99615
1.07676 1.0823 0.998807 0.996073
1.06978 1.08084 0.993246 0.996495
1.07226 1.08345 0.993208 0.996437
1.0671 1.08231 0.989181 0.996725
1.07276 1.08473 0.992739 0.996196
1.06811 1.08672 0.986136 0.996697
1.06988 1.08078 0.99342 0.99647
1.0662 1.08202 0.988659 0.996679
1.0687 1.08438 0.988754 0.996755
1.06937 1.08953 0.984607 0.996842
1.0674 1.08569 0.986605 0.996503
1.07184 1.09341 0.98333 0.996893
1.07633 1.08171 0.998946 0.996082
1.07581 1.08262 0.997604 0.996098
1.06996 1.08109 0.993182 0.996494
1.07294 1.0837 0.993758 0.996287
1.01586 1.01735 1.00162 0.996918
1.04094 1.0453 1 0.995825
1.05856 1.06325 1.00018 0.995413
1.07046 1.07735 0.997453 0.99614
1.0628 1.08023 0.987118 0.996706
1.06286 1.07382 0.993341 0.996427
1.06223 1.06682 1 0.995703
1.05723 1.06584 0.995318 0.996591
1.01452 1.01484 1.00327 0.996426
1.00975 1.00844 1.00512 0.996194
1.00936 1 1.01118 0.998206
1.00821 1.0008 1.01031 0.997121
1.07051 1.08061 0.99418 0.996452
1.07287 1.08383 0.99351 0.996354
1.06251 1.07762 0.989302 0.996644
1.06237 1.08134 0.985733 0.996675
1.0255 1.02828 1.0012 0.996103
1.04248 1.04716 1.00003 0.995499
1.0539 1.05852 1.00039 0.995249
1.06232 1.07719 0.989632 0.996532
1.06193 1.08249 0.984075 0.996881
1.05702 1.06151 0.999967 0.995801
1.05457 1.07216 0.986765 0.99679
1.05887 1.06885 0.993988 0.996652
1.01596 1.01845 1.00153 0.996031
1.01098 1.009 1.00592 0.996055
1.00957 1.00407 1.0088 0.99671
1.00844 1.00003 1.00996 0.99847
1.01327 1.00119 1.01478 0.997325
1.0648 1.08067 0.988619 0.996659
1.06513 1.08333 0.986487 0.99667
1.06143 1.08794 0.978695 0.996865
1.05676 1.07902 0.982437 0.996881
1.0255 1.02986 1 0.995772
1.05655 1.07607 0.984849 0.99696
1.02751 1.03211 1.00029 0.995256
1.04559 1.05019 1.00051 0.995118
1.05554 1.06112 0.998913 0.995823
1.00409 1 1.00522 0.998874
1.01315 1 1.01547 0.99772
1.01235 1.00352 1.01184 0.996998
1.01194 1.01386 1.0022 0.99591
1.0135 1.00549 1.01177 0.996231
1.01104 1.00854 1.00659 0.995913
0.999866 1 1.00002 0.999843
1.0088 1 1.01006 0.99875
1.07367 1.08181 0.996454 0.996012
1.01697 1.00236 1.01701 0.997608
1.0083 1.01003 1.00157 0.996716
1.01056 1.01002 1.00368 0.99687
1.06534 1.06976 0.999999 0.995871
1.06277 1.07209 0.995234 0.996059
1.02592 1.0279 1.00241 0.995683
1.04324 1.04712 1.00077 0.995522
1.07179 1.0762 0.999923 0.995978
1.00267 1 1.00367 0.999003
1.01452 1.0004 1.01616 0.997991
1.01009 1.01311 1.0008 0.996231
1.01997 1.00865 1.01401 0.997261
1.01651 1.0177 1.00207 0.996761
1.06562 1.08041 0.990014 0.996255
1.06421 1.06896 0.99954 0.996009
1.05888 1.07057 0.992738 0.996321
1.0093 1.01049 1.00324 0.995596
1.03842 1.04309 1.00006 0.995469
1.00646 1 1.00816 0.998322
1.01787 1.00147 1.01886 0.997566
1.00601 1.00768 1.00224 0.996118
1.02574 1.01821 1.01051 0.996922
1.03284 1.03528 1.00107 0.996576
1.05647 1.08027 0.981157 0.996746
1.06529 1.07145 0.998396 0.995854
1.06569 1.07578 0.994349 0.996249
1.01193 1.01203 1.00433 0.995588
1.01829 1.02315 1 0.995249
1.00091 1 1.00173 0.999184
1.00216 1 1.00368 0.99848
0.999572 1 1.00123 0.998347
1.0026 1 1.00406 0.998544
1.00118 1 1.0025 0.998686
1.00521 1 1.00688 0.998335
1.00095 1 1.00257 0.998382
1.0051 1 1.00684 0.998276
0.999613 1 1.00085 0.998761
0.999489 1 1 0.999489
0.99949 1 1 0.99949
0.999982 1 1 0.999982
0.99943 1 1 0.99943
0.999968 1 1 0.999968
1 1 1 1
0.999949 1 1 0.999949
1 1 1 1
1 1 1 1
0.999938 1 1 0.999938
1.0012 1 1.00141 0.999788
1 1 1 1
1.00394 1 1.00439 0.999551
1 1 1 1
1 1 1 1
1.07334 1.08542 0.992651 0.996191
1.07226 1.08348 0.99318 0.996438
1.06816 1.08676 0.986112 0.99672
1.06614 1.08211 0.988452 0.996753
1.07001 1.08077 0.993533 0.99649
1.07646 1.08196 0.998832 0.996074
1.07017 1.08081 0.993677 0.996453
1.06674 1.082 0.989193 0.996672
1.0681 1.08369 0.988841 0.996741
1.06748 1.08858 0.983717 0.996851
1.06749 1.08556 0.986803 0.996505
1.06891 1.09156 0.982261 0.996928
1.06743 1.08226 0.989613 0.996651
1.06962 1.09126 0.983273 0.996844
1.06996 1.0927 0.982207 0.996926
1.06314 1.09142 0.977089 0.996934
1.07079 1.08089 0.994179 0.996451
1.07255 1.0835 0.993528 0.996337
1.06236 1.07766 0.989094 0.996673
1.06359 1.08166 0.98659 0.996658
1.02668 1.02944 1.00123 0.996098
1.04182 1.0465 1 0.995527
1.05322 1.05764 1.00058 0.995237
1.06309 1.07728 0.990309 0.996482
1.05992 1.0813 0.983245 0.996936
1.05543 1.07302 0.986773 0.996789
1.05547 1.05993 1 0.995786
1.05915 1.06899 0.994053 0.996725
1.01137 1.01362 1.00175 0.996037
1.00966 1.00892 1.00471 0.996038
1.01154 1.00355 1.01129 0.996708
1.00753 1 1.00909 0.998453
1.01231 1.00011 1.01487 0.997363
1.06462 1.08046 0.988641 0.996661
1.06582 1.08397 0.986541 0.996666
1.06222 1.08734 0.979978 0.996858
1.02532 1.02964 1.00003 0.995772
1.0275 1.0321 1.00026 0.995289
1.04423 1.04856 1.00076 0.995107
1.05701 1.07881 0.982866 0.996868
1.05826 1.06429 0.998379 0.995952
1.05332 1.07302 0.984667 0.996926
1.00408 1 1.00514 0.998936
1.01038 1.01117 1.00333 0.995908
1.01101 1.00652 1.00848 0.99601
1.01648 1.00778 1.01247 0.996221
1.01456 1.00576 1.01176 0.997023
1.01421 1.00054 1.01601 0.997686
1.06829 1.08917 0.984054 0.996728
1.06626 1.09467 0.977153 0.996815
1.05531 1.08648 0.974296 0.996935
1.04864 1.07975 0.974044 0.997071
1.01379 1.01796 1.00027 0.99563
1.04949 1.06276 0.990968 0.996513
1.01425 1.01775 1.00165 0.994919
1.03276 1.03689 1.00104 0.994989
1.00017 1 1.00083 0.999341
1.00999 1 1.0118 0.998215
1.01405 1.00337 1.01333 0.997354
1.01766 1.00577 1.01541 0.996467
1.0075 1.00575 1.00588 0.995888
1.01768 1.00675 1.0152 0.995718
1.00228 1 1.00328 0.999008
1.01444 1 1.01648 0.997995
1.06434 1.07908 0.990052 0.99625
1.01925 1.00715 1.0148 0.997262
1.01347 1.01671 1.00064 0.996172
1.01586 1.01738 1.00177 0.996739
1.06692 1.07166 0.999575 0.995995
1.06141 1.07303 0.992807 0.996341
1.01234 1.01407 1.00273 0.995572
1.03609 1.04057 1.00027 0.995432
1.00641 1.00001 1.00809 0.998328
1.01797 1.00098 1.01949 0.997529
1.00633 1.00801 1.00222 0.996118
1.0245 1.01813 1.00936 0.996922
1.03652 1.03955 1.00048 0.996616
1.05907 1.08268 0.981343 0.996793
1.06517 1.07127 0.998399 0.995901
1.06662 1.07605 0.994881 0.996335
1.01369 1.01357 1.00458 0.995553
1.01762 1.02255 1.00003 0.995152
1.00548 1 1.00743 0.998066
1.01651 1.00193 1.01738 0.997224
1.0205 1.02061 1.00378 0.99613
1.03088 1.0316 1.00283 0.996485
1.05828 1.1048 0.960745 0.99703
1.05798 1.07747 0.985079 0.996788
1.04785 1.05299 0.999712 0.995407
1.02324 1.02383 1.00426 0.99518
1.00213 1 1.00364 0.998488
1.00038 1 1.00205 0.998338
0.999845 1 1.00133 0.998515
1.00194 1 1.00326 0.998683
1.00725 1 1.00895 0.998324
0.999699 1 1.00094 0.998756
1.00069 1 1.00228 0.998413
1.00664 1 1.00836 0.998286
0.99926 1 1.00063 0.99863
1.0059 1 1.00774 0.998175
1.0029 1 1.00467 0.998238
0.999073 1 1.00035 0.998729
0.999445 1 1 0.999445
0.999486 1 1 0.999486
0.99999 1 1 0.99999
0.99949 1 1 0.99949
0.999984 1 1 0.999984
1 1 1 1
0.999974 1 1 0.999974
1 1 1 1
1 1 1 1
0.999978 1 1 0.999978
1.00027 1 1.00035 0.999916
1 1 1 1
1.00236 1 1.0026 0.99976
1 1 1 1
1 1 1 1
1.0675 1.08536 0.986994 0.996508
1.06758 1.08308 0.98893 0.996727
1.06604 1.08976 0.981211 0.996963
1.06567 1.08771 0.982824 0.99686
1.06727 1.08196 0.989724 0.996665
1.07044 1.08084 0.993919 0.996436
1.06699 1.08201 0.98943 0.996653
1.06918 1.09072 0.983365 0.996834
1.06871 1.09187 0.981812 0.996922
1.06318 1.09131 0.977208 0.996946
1.0709 1.09145 0.984338 0.99679
1.06839 1.09726 0.976625 0.99699
1.07095 1.10295 0.973888 0.997017
1.06437 1.0802 0.988651 0.996662
1.06644 1.08453 0.986612 0.996662
1.06302 1.08671 0.981284 0.996852
1.02683 1.03108 1.00011 0.995771
1.02672 1.03136 1.00018 0.995321
1.0429 1.04715 1.00085 0.995095
1.05736 1.07878 0.983233 0.996855
1.04945 1.0698 0.984039 0.996893
1.06017 1.06677 0.997723 0.996082
1.00898 1.00873 1.00436 0.995904
1.00674 1.00345 1.00721 0.996108
1.01833 1.00974 1.01235 0.996212
1.00408 1 1.00509 0.998999
1.01448 1.00658 1.01083 0.997048
1.0161 1.00124 1.01724 0.997651
1.06924 1.08971 0.984426 0.996738
1.06523 1.09461 0.976273 0.996818
1.05575 1.08642 0.974768 0.996928
1.01266 1.01702 1.00009 0.995621
1.0136 1.01727 1.0014 0.994997
1.0338 1.03813 1.00073 0.995101
1.04954 1.07997 0.974682 0.997072
1.04518 1.05905 0.990382 0.996488
1.00018 1 1.00076 0.999424
1.00963 1 1.01144 0.998211
1.00404 1.00422 1.00392 0.995916
1.02028 1.0063 1.01806 0.99591
1.01787 1.00693 1.0144 0.996508
1.0139 1.00357 1.01302 0.997309
1.06737 1.09701 0.976004 0.996906
1.05644 1.09983 0.963548 0.996893
1.05066 1.08673 0.969614 0.997114
1.0349 1.06341 0.976057 0.997058
1.00236 1.00558 1.00133 0.995473
1.0315 1.03746 0.998698 0.995551
1.01253 1.01515 1.00264 0.994787
0.999672 1 1 0.999672
0.999067 1 1 0.999067
1.00312 1 1.00445 0.998674
1.0082 1 1.01058 0.997642
1.01087 1 1.01397 0.996943
1.03007 1.00905 1.02478 0.996148
1.00385 1.00194 1.00573 0.996201
1.0449 1.00456 1.04385 0.996452
1.00653 1 1.00821 0.998334
1.0192 1.00082 1.02092 0.997491
1.062 1.08531 0.98163 0.99684
1.02505 1.01996 1.00809 0.996923
1.00667 1.00802 1.00255 0.996118
1.03964 1.0431 1.00004 0.996655
1.06507 1.07112 0.9984 0.995949
1.06774 1.07645 0.995464 0.99642
1.01489 1.01457 1.00482 0.995518
1.01667 1.02172 1 0.995056
1.00656 1 1.00857 0.998006
1.01544 1.00133 1.01695 0.997195
1.02587 1.02559 1.00415 0.996137
1.02908 1.03048 1.00212 0.99652
1.05972 1.10708 0.960047 0.997049
1.06274 1.08103 0.986304 0.996732
1.04425 1.04951 0.999517 0.995469
1.02482 1.02597 1.00377 0.995131
1.00596 0.999873 1.00815 0.997956
1.07066 1.11592 0.962271 0.997064
1.00964 1.00204 1.0108 0.996822
1.02599 1.02744 1.00268 0.995921
1.03907 1.08782 0.957874 0.997186
1.03757 1.04485 0.997469 0.995546
1.01612 1.01805 1.00323 0.99489
1.00173 1 1.0034 0.99833
0.998646 0.999056 1.00108 0.998507
0.999678 0.998253 1.00271 0.998723
0.999341 1 1.00059 0.998751
1.0072 1 1.00892 0.998296
1.00075 0.999657 1.00265 0.998445
0.998839 1 1.00012 0.998724
1.00307 1 1.00483 0.998247
0.999303 0.999829 1.0008 0.998675
1.00494 1 1.00677 0.998181
0.998815 1 1 0.998815
1.00111 1 1.00266 0.998457
1.00695 1 1.00895 0.99802
0.999029 1 1.00093 0.998101
0.998623 1 1 0.998623
0.999396 1 1 0.999396
0.99944 1 1 0.99944
0.999994 1 1 0.999994
0.999483 1 1 0.999483
0.999991 1 1 0.999991
1 1 1 1
0.999987 1 1 0.999987
1 1 1 1
1 1 1 1
0.999728 1 1 0.999728
0.999994 1 1 0.999994
0.99997 1 1 0.99997
1 1 1 1
1.00033 1 1.00043 0.999895
1 1 1 1
1 1 1 1
1.06317 1.09113 0.977348 0.996958
1.0675 1.09104 0.981441 0.996917
1.06872 1.09014 0.983473 0.996824
1.0666 1.08178 0.989276 0.996654
1.07077 1.09169 0.98398 0.996809
1.06823 1.09694 0.976769 0.996981
1.06749 1.09953 0.973762 0.997021
1.06852 1.09811 0.97601 0.996973
1.08071 1.11548 0.971682 0.997071
1.09254 1.13201 0.967715 0.99733
1.07027 1.09032 0.984812 0.996747
1.06429 1.09454 0.975465 0.99682
1.05641 1.08631 0.975484 0.99692
1.01234 1.01674 1.00006 0.995613
1.01424 1.01797 1.00126 0.995079
1.03631 1.04089 1.00039 0.995212
1.05036 1.0798 0.975587 0.997073
1.0407 1.05486 0.99008 0.996464
1.0049 1.00383 1.00514 0.995946
1.02521 1.00695 1.02212 0.996097
1.01835 1.00706 1.01471 0.996548
1.00004 1 1.00054 0.999508
1.00949 1 1.01131 0.998206
1.01417 1.00378 1.01312 0.997264
1.06679 1.09705 0.975418 0.996915
0.999666 1 1 0.999666
0.999018 1 1 0.999018
1.05811 1.09904 0.965753 0.996895
1.04899 1.08508 0.969561 0.997085
1.00369 1.00624 1.00192 0.995554
1.01268 1.0146 1.00332 0.994812
1.02956 1.03666 0.997601 0.995536
1.03414 1.06305 0.975702 0.997027
1.00327 1 1.0045 0.998771
1.0085 1 1.0109 0.997628
1.00446 1.00216 1.00624 0.996076
1.03869 1.00531 1.03682 0.996506
1.02734 1.0062 1.02495 0.996155
1.01232 1.00108 1.01431 0.996966
1.07735 1.11816 0.966393 0.997011
1.04015 1.09825 0.949931 0.997011
1.03468 1.07499 0.965151 0.997259
1.0197 1.0409 0.982849 0.996732
1.00518 1.00284 1.00651 0.995856
1.01326 1.01344 1.00486 0.994988
0.99896 1 1 0.99896
0.999842 1 1.00081 0.999035
0.998898 1.00021 1.00002 0.998669
1.00368 1 1.00574 0.997951
1.01282 1 1.01553 0.997331
1.01015 1.0004 1.01313 0.996654
1.06911 1.00263 1.07022 0.996343
0.992108 1.00049 0.994318 0.997286
1.00701 1 1.00908 0.997946
1.01336 1.00033 1.01591 0.997166
1.06029 1.10814 0.95963 0.997069
1.06697 1.0841 0.987486 0.996677
1.02818 1.02971 1.00197 0.996554
1.03243 1.03188 1.00441 0.996142
1.04105 1.04635 0.999401 0.99553
1.02729 1.02892 1.00335 0.995082
1.00572 0.999626 1.00817 0.997937
1.07252 1.11959 0.960702 0.997141
1.01055 1.00106 1.01262 0.996897
1.02227 1.02378 1.00269 0.995851
1.04004 1.08805 0.958595 0.997164
1.03445 1.04231 0.996805 0.995647
1.01772 1.01938 1.00348 0.994902
1.0127 0.998315 1.01671 0.997735
1.00549 1.06723 0.944474 0.99753
1.00553 1.00067 1.00829 0.996604
1.00741 1.00834 1.00379 0.995306
1.01438 1.04092 0.977744 0.996684
1.00351 1.00613 1.00221 0.995192
0.943623 1.00186 0.945589 0.996064
0.997056 0.997539 1.00102 0.998498
0.999213 0.996392 1.00411 0.998728
1.0025 0.998645 1.0052 0.998668
0.99896 1 1.00024 0.99872
1.0048 1 1.00655 0.998257
1.00337 1 1.0052 0.998186
0.999412 1 1.00069 0.998721
0.998742 1 1.00012 0.998622
0.999551 1 1.00144 0.998111
0.998757 0.999976 1 0.998781
1.00724 1 1.00924 0.998019
1.00085 1 1.00243 0.998418
1.00054 0.999708 1.00206 0.99877
1.00286 1 1.005 0.997868
1.00691 1 1.00895 0.997979
0.998318 1 1.00034 0.997975
0.998439 1 1 0.998439
1.0016 1 1.00342 0.998182
0.998902 1 1.0005 0.998406
0.999376 1 1 0.999376
0.999392 1 1 0.999392
0.999997 1 1 0.999997
0.999435 1 1 0.999435
0.999995 1 1 0.999995
1 1 1 1
0.999992 1 1 0.999992
1 1 1 1
1 1 1 1
0.999789 1 1 0.999789
0.999731 1 1 0.999731
1 1 1 1
0.99999 1 1 0.99999
1 1 1 1
0.999962 1 1 0.999962
1 1 1 1
1 1 1 1
1.06421 1.09639 0.973554 0.997025
1.06817 1.09685 0.976804 0.996972
1.07056 1.09187 0.9836 0.996827
1.0683 1.09803 0.975881 0.996971
1.07736 1.11234 0.971407 0.997063
1.09303 1.13183 0.968389 0.997241
1.08697 1.12877 0.965734 0.997138
0.943765 1.01605 0.934691 0.993754
1.03876 1.08289 0.961163 0.998011
0.999166 1 1 0.999166
1.06628 1.09726 0.974762 0.996924
1.05948 1.09836 0.967601 0.996897
1.04687 1.08348 0.969061 0.997055
1.00093 1.0045 1.00082 0.995632
1.01196 1.01314 1.00402 0.994834
1.02695 1.03496 0.996721 0.99552
1.03387 1.06331 0.975237 0.996997
0.999147 1.00221 1.00099 0.995959
1.0311 1.00551 1.02898 0.996571
1.02535 1.00434 1.02485 0.996163
0.999769 1 1.00011 0.999659
1.01339 1.0019 1.01452 0.996987
1.0033 1 1.00444 0.998866
1.00878 1 1.01119 0.997615
0.999108 1 1.00014 0.99897
1.0756 1.1187 0.964349 0.997018
0.999023 1 1 0.999023
1.00025 1 1.00122 0.999039
0.998745 1.00057 0.999542 0.998629
1.0441 1.09885 0.953025 0.997009
1.03241 1.073 0.964859 0.997209
1.0017 1.0022 1.00361 0.995893
1.01767 1.01785 1.00471 0.995139
1.01864 1.03947 0.983192 0.996713
1.00334 1 1.00533 0.998017
1.01158 1 1.01433 0.997283
1.0034 1.00031 1.00604 0.997072
1.05877 1.00284 1.05965 0.99634
1.01019 1.00171 1.0118 0.996707
1.05112 1.11027 0.949465 0.997116
1.01323 1.08266 0.938515 0.997177
1.02434 1.05225 0.976516 0.996882
1.00106 1.02046 0.98445 0.996489
1.00058 1 1.00376 0.996828
0.998548 1 1 0.998548
1.0007 1.00038 1.00198 0.998345
1.00298 1 1.00456 0.998429
1.01475 1 1.01705 0.997738
1.01331 1 1.01603 0.997329
1.04607 0.999932 1.04936 0.996934
1.02659 1.00188 1.02739 0.997339
1.00591 0.999961 1.00805 0.997916
1.01102 1.00011 1.01398 0.996973
1.07374 1.12362 0.958269 0.997215
1.04161 1.08922 0.959034 0.99714
1.03157 1.04009 0.99604 0.995747
1.01714 1.01872 1.00268 0.99578
1.01859 1.02012 1.0036 0.994916
1.01361 0.999303 1.01651 0.997835
1.00803 1.06886 0.945367 0.997588
1.00254 1.00088 1.00507 0.99661
1.00553 1.00614 1.00411 0.995301
1.0117 1.03906 0.976769 0.996828
1.00437 1.00647 1.00273 0.995192
0.943038 1.0005 0.947532 0.994759
1.01333 0.996964 1.01875 0.997708
0.982886 1.02739 0.959057 0.997521
1.00079 1.00137 1.00312 0.996304
1.00422 1.00229 1.00614 0.99581
0.990222 1.00739 0.986307 0.996601
0.88171 0.971455 0.939508 0.966057
0.859206 0.953901 0.91707 0.982182
0.946247 0.976108 0.972805 0.996509
0.637855 0.788614 0.875772 0.923563
0.549309 0.722433 0.84671 0.898017
0.999095 0.994947 1.00544 0.998733
1.00349 0.996251 1.00856 0.998721
1.00469 0.998988 1.00701 0.998703
0.998622 1 1 0.998622
0.999335 1 1.00122 0.998121
1.00629 1 1.00829 0.998018
1.00074 1 1.00237 0.998379
0.99858 0.999833 1 0.998747
1.00719 1 1.00924 0.997968
0.998479 1 1 0.998479
0.998359 1 1.00037 0.997993
1.0001 0.999892 1.00151 0.998698
1.00337 1 1.00543 0.997948
1.00932 1 1.01136 0.997979
1.00703 0.998964 1.00981 0.998278
1.00643 1 1.0085 0.997944
0.999042 1 1.00119 0.997858
0.998474 1 1.00007 0.998404
0.999593 1 1.00158 0.998011
1.00182 1 1.00368 0.998148
1.00202 1 1.00373 0.99829
1.00133 1 1.00319 0.998149
0.999004 1 1.00046 0.998544
0.999249 1 1.00085 0.998403
0.999368 1 1 0.999368
0.999377 1 1 0.999377
1 1 1 1
0.999388 1 1 0.999388
0.999998 1 1 0.999998
1 1 1 1
0.999996 1 1 0.999996
1 1 1 1
1 1 1 1
0.999853 1 1 0.999853
0.999786 1 1 0.999786
1 1 1 1
0.999734 1 1 0.999734
0.999998 1 1 0.999998
1 1 1 1
0.999987 1 1 0.999987
1 1 1 1
1 1 1 1
1.07405 1.1092 0.971174 0.997056
1.06771 1.09753 0.975785 0.99697
1.09492 1.13244 0.969626 0.997154
0.946941 1.01578 0.938002 0.993843
1.08548 1.12765 0.965374 0.997135
1.04506 1.08519 0.965064 0.997881
1.06202 1.10341 0.965126 0.997264
0.898322 0.971768 0.941892 0.981451
0.976517 1.02285 0.959808 0.994682
0.999218 1 1 0.999218
0.999159 1 1 0.999159
0.998649 1 1 0.998649
0.998783 1 1 0.998783
1.07374 1.11882 0.962569 0.997025
1.04794 1.09924 0.956186 0.997006
1.03058 1.07109 0.964919 0.997158
1.00069 1.00171 1.00306 0.995931
1.02166 1.02257 1.00383 0.995293
1.0171 1.03737 0.983717 0.996694
1.01612 1 1.01933 0.996852
1.04996 1.00321 1.05045 0.996337
1.01131 1.00213 1.01244 0.99676
1.00082 1 1.00178 0.999043
1.01058 1.00061 1.01276 0.997238
1.00311 1 1.00503 0.998083
0.999086 1 1 0.999086
0.998885 1.00087 0.999428 0.998589
1.04976 1.11123 0.947401 0.99713
0.998576 1 1.00002 0.99856
1.00028 1.0006 1.00124 0.99844
1.00314 0.999382 1.00505 0.998714
1.02109 1.08646 0.942505 0.997164
1.02459 1.05196 0.97702 0.996881
0.997921 1.00097 1.00013 0.996816
1.00252 1.01904 0.987181 0.996561
1.01381 1 1.01623 0.997622
1.01337 1.00003 1.01624 0.997148
1.03287 1.00267 1.03289 0.99732
1.04616 1.00204 1.04737 0.99681
1.00146 1.06702 0.941104 0.99729
0.99773 1.05355 0.949698 0.99718
1.01049 1.02225 0.991941 0.996522
0.972217 1.00151 0.972976 0.997716
1.00777 1 1.00933 0.998455
1.00819 1 1.01032 0.997892
1.02158 0.999516 1.024 0.998122
1.06488 1.00118 1.06648 0.997327
0.868635 0.968292 0.93399 0.960481
1.01442 0.999171 1.01736 0.997936
1.00067 1.00091 1.00316 0.996614
1.00994 1.07023 0.94589 0.997652
1.00904 1.03684 0.976145 0.99697
1.00536 1.00691 1.0033 0.995187
1.00434 1.0045 1.00457 0.995294
0.94305 1.00071 0.948641 0.993404
1.01075 0.996683 1.01638 0.997767
0.981968 1.02781 0.957799 0.997494
1.00075 1.00149 1.00296 0.996315
1.00541 1.00374 1.00585 0.995828
0.993551 1.00851 0.988546 0.99658
0.871804 0.973819 0.931996 0.960565
0.856757 0.950201 0.921235 0.978751
0.94874 0.976278 0.975132 0.996575
0.632785 0.784031 0.87197 0.925595
0.540852 0.721339 0.840448 0.89213
1.0036 0.996924 1.00888 0.99784
0.670865 0.80607 0.895541 0.929345
0.585687 0.742094 0.879051 0.897826
0.983671 1.00558 0.980458 0.997709
1.00935 1.00167 1.01057 0.997129
1.01494 1.006 1.01179 0.997132
0.935829 0.962595 0.975045 0.997077
0.832967 0.942025 0.917297 0.963952
0.822099 0.918095 0.917144 0.976335
0.614867 0.768933 0.857868 0.932121
0.598342 0.791248 0.848126 0.891613
1.00403 0.993804 1.01153 0.998773
1.00321 0.996931 1.00763 0.998676
1.01415 0.997658 1.01771 0.998837
0.99852 1 1 0.99852
0.998597 1 1.00059 0.99801
1.00742 1 1.00948 0.997958
1.00425 1 1.00624 0.998027
0.999311 0.999941 1.00075 0.998625
0.998514 1 1.00011 0.998405
1.0098 1 1.01187 0.997953
1.00661 1 1.0087 0.997927
0.99861 1 1.0007 0.997909
1.00776 0.998823 1.01063 0.998332
1.00851 1 1.01033 0.998203
1.02663 0.998405 1.02982 0.998495
1.0035 1 1.00572 0.997793
0.998937 1 1.00099 0.997951
0.998959 1 1.00096 0.998004
1.0016 1 1.00342 0.998194
1.00044 1 1.0025 0.997944
1.00141 1 1.00315 0.998264
1.00964 0.999995 1.01127 0.998393
1.01319 0.999921 1.01523 0.998069
1.00395 1 1.00569 0.998279
1.00237 1 1.00408 0.998293
1.00148 1 1.00291 0.998575
1.0015 1 1.00339 0.998116
0.999181 1 1.00067 0.998508
0.999341 1 1 0.999341
0.999571 1 1.00117 0.998399
0.999371 1 1 0.999371
0.999994 1 1 0.999994
0.999377 1 1 0.999377
0.999999 1 1 0.999999
1 1 1 1
0.999999 1 1 0.999999
1 1 1 1
1 1 1 1
0.99915 1 1 0.99915
0.999873 1 1 0.999873
0.999849 1 1 0.999849
1 1 1 1
0.999784 1 1 0.999784
1 1 1 1
1 1 1 1
0.999997 1 1 0.999997
1 1 1 1
1 1 1 1
0.949599 1.01523 0.941064 0.993935
1.0844 1.12669 0.965231 0.997131
1.05252 1.08735 0.970146 0.997749
0.885416 0.969145 0.929675 0.982714
0.974055 1.02272 0.957279 0.994925
1.064 1.10629 0.964456 0.99722
0.985524 1.03988 0.951791 0.995727
0.903218 0.975533 0.940553 0.98439
0.879651 0.97595 0.935344 0.963633
0.644811 0.791725 0.873227 0.932676
0.5089 0.680387 0.833906 0.89693
0.998747 1 1 0.998747
0.999214 1 1 0.999214
0.999151 1 1 0.999151
0.998703 1 1.00003 0.99867
0.999236 1 1.00073 0.998512
0.998414 1 1 0.998414
0.998756 1 1.00019 0.998566
0.998734 1 1 0.998734
1.05065 1.11284 0.946822 0.997143
1.02929 1.09062 0.946455 0.997151
1.02454 1.05222 0.976747 0.99688
0.997018 1.00189 0.998328 0.996806
1.00431 1.01805 0.989829 0.996633
1.04133 1.00327 1.04074 0.997298
1.04631 1.00408 1.04552 0.996688
1.01144 1.00036 1.01415 0.996967
0.999454 1.00077 1.00015 0.998534
1.01442 1 1.01696 0.997499
0.998574 1 1 0.998574
1.00251 0.999201 1.00432 0.999002
0.999125 1.06729 0.938626 0.997341
1.00699 0.99976 1.00881 0.998431
1.01013 1 1.01209 0.998067
0.995845 1.05144 0.949832 0.997153
1.00904 1.02391 0.988753 0.996687
0.975924 1.0016 0.976743 0.997567
1.03215 1.00111 1.03332 0.997761
1.05763 1.0023 1.05798 0.997375
0.964272 1.03291 0.936251 0.997115
0.995701 1.01834 0.980543 0.997172
0.974345 1.00261 0.974464 0.997278
0.972746 0.997866 0.97682 0.997959
1.00946 1 1.01163 0.997859
1.02304 0.999997 1.02507 0.998025
1.05431 0.999445 1.05732 0.997704
0.690547 0.814497 0.909355 0.932331
0.881683 0.975157 0.934756 0.967252
1.00814 0.997541 1.01282 0.997827
1.00044 1.00132 1.0028 0.996329
0.982245 1.02831 0.957626 0.997467
0.996865 1.00993 0.990466 0.996561
1.00684 1.00529 1.00571 0.995851
0.874237 0.973005 0.932181 0.963859
0.862054 0.961547 0.915414 0.979369
0.948924 0.974862 0.976663 0.996652
0.647131 0.785433 0.88299 0.933098
0.532834 0.721362 0.833667 0.886026
1.00366 0.99826 1.00758 0.997847
0.682913 0.816732 0.898767 0.930333
0.559752 0.717771 0.872492 0.893817
0.983024 1.00669 0.978751 0.997688
1.00926 1.00233 1.0098 0.997131
1.0127 1.00387 1.01155 0.997275
0.931326 0.957192 0.975557 0.997356
0.840825 0.95355 0.918509 0.960016
0.819854 0.914099 0.916114 0.979025
0.628976 0.77396 0.873915 0.929921
0.603641 0.8034 0.843936 0.890303
1.00535 0.99786 1.00902 0.998501
0.600991 0.753604 0.889454 0.896606
0.66047 0.830251 0.880375 0.903599
0.983479 0.989376 0.995415 0.998618
1.01658 1.0024 1.01562 0.998539
0.94294 0.948678 0.997452 0.99649
0.839393 0.90667 0.943866 0.980858
0.779449 0.893386 0.911233 0.957456
0.649668 0.772074 0.90364 0.931189
0.672886 0.869373 0.863373 0.896472
1.00304 0.997164 1.00725 0.99865
1.01199 0.998874 1.01436 0.998787
1.0112 0.997067 1.01511 0.999074
0.998405 1 1 0.998405
0.998235 1 1.00028 0.99796
1.00744 1 1.00955 0.99791
1.01071 1 1.01281 0.997927
1.00809 0.998672 1.01106 0.998385
0.998597 1 1.00065 0.997946
1.00854 1 1.01041 0.998143
1.003 1 1.00522 0.997795
1.02365 0.996612 1.02861 0.998559
1.04287 0.994381 1.04971 0.999094
1.01643 1 1.01826 0.998203
1.00139 1 1.00364 0.997759
0.998492 1 1.0005 0.997997
1.00101 1 1.00278 0.998239
1.00097 1 1.00305 0.997933
1.00221 1.00006 1.00392 0.998243
1.00704 0.999868 1.00866 0.998519
1.00873 0.999758 1.01078 0.998211
1.01389 0.99985 1.01583 0.998238
1.0094 0.997754 1.01313 0.998566
1.00189 1 1.00372 0.998176
1.00148 1.0032 1.00093 0.997357
1.01051 1 1.01263 0.997908
1.01158 0.999879 1.01366 0.998071
1.01248 1 1.01443 0.998075
1.00538 1 1.00711 0.998281
1.00123 1 1.00271 0.99853
1.0023 1 1.00401 0.998295
1.0004 1 1.00182 0.998584
0.999297 1 1 0.999297
0.999033 1 1.00056 0.998472
0.999344 1 1 0.999344
0.999978 1 1 0.999978
0.999374 1 1 0.999374
0.999991 1 1 0.999991
1 1 1 1
0.999998 1 1 0.999998
1 1 1 1
1 1 1 1
0.999132 1 1 0.999132
0.999831 1 1 0.999831
0.999153 1 1 0.999153
1 1 1 1
0.999873 1 1 0.999873
0.999845 1 1 0.999845
1 1 1 1
1 1 1 1
1 1 1 1
1 1 1 1
1 1 1 1
0.670844 0.807187 0.899323 0.924128
0.568446 0.734272 0.865831 0.894127
0.884578 0.968047 0.929225 0.983375
0.973217 1.02268 0.956234 0.995187
1.06267 1.10901 0.960923 0.997178
0.894077 0.958529 0.94636 0.985628
0.984576 1.03817 0.952206 0.995978
0.889296 0.984244 0.937246 0.964028
0.630298 0.788717 0.863235 0.925754
0.520227 0.701295 0.832499 0.891064
0.913723 0.99335 0.929594 0.989506
0.857944 0.957897 0.928473 0.964653
0.62231 0.775742 0.861181 0.931526
0.601149 0.79379 0.84834 0.892702
1.00082 1 1.00255 0.998271
0.99879 1 1 0.99879
0.999212 1 1 0.999212
0.998812 1 1.00012 0.99869
0.999063 1 1.00043 0.998635
0.999506 1 1.00142 0.998087
0.998621 1 1.00022 0.998398
0.998602 1 1.00049 0.998117
0.998602 1 1.00009 0.998513
0.998684 1 1 0.998684
0.993563 1.067 0.933611 0.997389
0.993385 1.04887 0.949825 0.997128
1.00881 1.0256 0.986735 0.996853
0.978338 1.00177 0.979133 0.997418
1.04779 1.00373 1.0466 0.997422
1.04375 1.00248 1.04388 0.997405
1.01092 1 1.0127 0.998242
1.00617 0.999357 1.00843 0.998404
0.963892 1.03372 0.935016 0.997251
1.01225 1 1.01448 0.997802
1.02241 0.999592 1.02489 0.997992
0.986656 1.01464 0.975239 0.997109
0.972074 1.00205 0.972638 0.997374
0.974154 0.999108 0.977055 0.99792
1.04749 0.999562 1.05042 0.997645
0.95121 1.00241 0.951505 0.997281
0.965903 0.997121 0.970442 0.998197
1.01126 0.993707 1.01953 0.998168
1.01049 1 1.0128 0.997725
1.02194 0.999537 1.02473 0.997737
1.02997 1 1.0322 0.997838
0.628071 0.766117 0.901093 0.909797
0.689383 0.81255 0.909179 0.933171
0.872639 0.974602 0.932033 0.960673
1.00277 0.997462 1.00748 0.997851
1.00889 1.00252 1.00925 0.997127
0.984281 1.00793 0.978821 0.997665
1.01054 1.00224 1.01089 0.997413
0.688479 0.811505 0.907981 0.934379
0.842431 0.952754 0.920552 0.960517
0.816281 0.911373 0.917261 0.976452
0.932338 0.954655 0.978962 0.99761
0.626481 0.780806 0.86848 0.923858
0.551155 0.709975 0.866308 0.896104
0.609466 0.805657 0.843772 0.896549
1.00482 0.997535 1.00886 0.998456
0.603784 0.752905 0.889595 0.901465
0.676989 0.847337 0.884615 0.903174
0.981077 0.986738 0.995526 0.998731
1.01579 1.00111 1.0162 0.998485
0.940421 0.946983 0.995772 0.997288
0.827566 0.91176 0.928063 0.978012
0.810995 0.907294 0.928417 0.96278
0.654855 0.782126 0.905551 0.924604
0.666692 0.861564 0.858811 0.901032
1.00649 0.995488 1.01163 0.999431
0.702063 0.853201 0.902004 0.912256
0.684161 0.856924 0.880061 0.9072
0.973342 0.954054 1.02051 0.999715
0.876504 0.908379 0.978034 0.986581
0.81082 0.877716 0.961708 0.960567
0.742276 0.863231 0.933586 0.921052
0.719265 0.913292 0.871688 0.90348
1.00997 0.999357 1.0119 0.998736
1.01341 0.996747 1.01768 0.999059
1.0263 0.986805 1.04069 0.999354
0.998776 1 1.00084 0.997941
1.00266 1 1.00488 0.997798
1.0078 1 1.00973 0.998083
1.02121 0.995075 1.02768 0.998624
1.00193 1 1.00418 0.99776
1.01578 0.999816 1.0178 0.998193
1.04735 0.994046 1.05449 0.999173
1.04275 0.983698 1.06061 0.999446
1.04679 0.997451 1.05044 0.999068
1.01091 0.999987 1.01286 0.998096
1.00092 1 1.003 0.997921
1.00271 1 1.0045 0.998222
1.0046 0.999852 1.00612 0.998643
1.01361 0.999933 1.01544 0.998262
1.00673 0.999961 1.00858 0.998208
1.01158 0.998443 1.01457 0.998599
1.00956 0.99916 1.0121 0.998333
1.02091 0.996023 1.02606 0.998962
0.997049 1.00149 0.997212 0.99835
1.00174 1.00068 1.00288 0.998176
0.99889 1.00056 1.00069 0.997638
1.00762 1.00986 1.00153 0.996264
1.00592 1.00184 1.00642 0.997663
1.00038 1.00193 1.00075 0.997708
1.01057 1 1.01269 0.997902
1.01929 1 1.02148 0.997859
1.00929 1 1.01124 0.998074
1.01168 1 1.01363 0.998076
1.00323 1 1.00489 0.998352
1.00605 1 1.00779 0.998282
1.00177 1 1.00325 0.998526
1.00054 1 1.00131 0.999228
1.00023 1 1.00164 0.998592
0.99968 1 1.00038 0.999298
0.999953 1 1 0.999953
0.999348 1 1 0.999348
0.999971 1 1 0.999971
1 1 1 1
0.999987 1 1 0.999987
1 1 1 1
1 1 1 1
0.998788 1 1 0.998788
0.999755 1 1 0.999755
0.99904 1 1 0.99904
1 1 1 1
0.999837 1 1 0.999837
0.999155 1 1 0.999155
1 1 1 1
1 1 1 1
0.999873 1 1 0.999873
1 1 1 1
1 1 1 1
1 1 1 1
0.586638 0.744391 0.8762 0.899426
0.679483 0.813957 0.898845 0.928737
0.672922 0.847385 0.879793 0.902617
0.565697 0.735026 0.862116 0.89272
0.893001 0.964237 0.942272 0.98286
0.985944 1.03656 0.954758 0.996242
0.888135 0.984991 0.935331 0.96401
0.64606 0.787895 0.879256 0.932587
0.532944 0.726056 0.829299 0.885116
0.918708 0.988072 0.940707 0.988405
0.837795 0.949962 0.921205 0.95736
0.635569 0.782326 0.874221 0.929295
0.590059 0.785921 0.844751 0.888766
0.874848 0.9606 0.925075 0.984493
0.780444 0.882619 0.924532 0.956415
0.683919 0.820765 0.904758 0.920986
0.66569 0.86182 0.86402 0.893988
1.00357 1 1.00573 0.997852
1.00023 1 1.00191 0.99833
0.998833 1 1 0.998833
0.998759 1 1 0.998759
0.998523 1 1.00087 0.997659
0.998723 1 1.00057 0.998151
0.998717 1 1.00033 0.998383
0.998097 1 1 0.998094
0.998403 1 1.00025 0.998157
0.998461 1 1 0.998461
0.964943 1.03498 0.934776 0.997384
0.979546 1.01137 0.971395 0.997051
0.967947 1.00129 0.969154 0.997469
0.97613 1.00069 0.977529 0.997884
1.03896 1 1.04148 0.997584
1.02195 0.999879 1.02416 0.997961
1.01416 1 1.01645 0.997745
1.00991 1 1.01228 0.997663
0.952259 1.00261 0.952282 0.997373
1.01857 0.999845 1.02108 0.997696
1.02994 0.999922 1.03228 0.997816
0.965371 0.998532 0.968535 0.998199
1.00486 0.996258 1.01053 0.998124
0.942359 0.971827 0.972029 0.997581
0.959697 0.964042 0.996255 0.999235
1.04336 0.992481 1.05297 0.998377
1.00783 0.999868 1.01015 0.997827
1.03267 0.999511 1.03524 0.998004
0.716618 0.866573 0.901185 0.917633
0.622774 0.764797 0.896704 0.908103
0.680925 0.808748 0.908324 0.926928
1.00483 0.997981 1.00846 0.998416
1.01535 0.999444 1.01751 0.99843
0.976249 0.98427 0.992993 0.998849
0.597914 0.748447 0.885991 0.901672
0.785352 0.888865 0.923328 0.956913
0.832647 0.908962 0.93507 0.979651
0.929697 0.940795 0.990061 0.998124
0.666421 0.795517 0.899274 0.931552
0.688134 0.85739 0.888759 0.903047
0.665969 0.859123 0.859807 0.901567
1.00436 0.995462 1.00957 0.999376
0.70341 0.855216 0.899665 0.914221
0.681495 0.853169 0.880197 0.907502
0.975228 0.95861 1.01784 0.999504
0.889044 0.920651 0.978884 0.9865
0.782649 0.874814 0.937076 0.954721
0.713644 0.908662 0.869731 0.903013
0.759195 0.866651 0.947828 0.924228
0.99381 0.96123 1.03419 0.999711
0.693581 0.845756 0.893279 0.918048
0.724848 0.894899 0.888312 0.911817
0.663572 0.86021 0.862678 0.8942
0.932606 0.923587 1.01337 0.996445
0.870323 0.908907 0.99507 0.962292
0.818347 0.928064 0.949543 0.928635
1.01627 0.99666 1.02065 0.999043
1.02863 0.990493 1.03926 0.99927
1.03723 0.979834 1.05904 0.999566
1.00254 1 1.00479 0.997761
1.01404 0.999645 1.01624 0.998182
1.05177 0.992488 1.06052 0.999251
1.01213 0.999978 1.01407 0.998104
1.0465 0.997285 1.05032 0.999079
1.04895 0.983935 1.0667 0.999421
1.03713 0.978872 1.06006 0.999489
1.03079 0.99627 1.03563 0.999058
1.01277 0.999908 1.0146 0.998289
1.006 1.00011 1.0077 0.998205
1.01418 0.999055 1.01653 0.998633
1.01998 0.99703 1.02411 0.998933
1.01027 0.999442 1.01251 0.998346
1.00414 0.999359 1.00597 0.998827
0.997177 0.999946 0.998539 0.998689
1.00459 1.00052 1.00699 0.997093
1.00104 1.00148 1.00138 0.998187
1.00036 1.00234 1.00051 0.997515
1.00208 1.00396 1.00227 0.995866
1.02194 1.02507 1.00129 0.995664
1.00869 1.00875 1.00276 0.997194
1.0045 1.00682 1.00138 0.996328
1.01417 1.00026 1.01638 0.997565
1.00731 1.00271 1.00692 0.997688
0.999442 1.0008 1.00059 0.998055
1.01086 1 1.013 0.997896
1.01774 1 1.0199 0.997886
1.00999 1 1.01187 0.998139
1.01136 1 1.01331 0.998078
1.00331 1 1.00496 0.998352
1.00124 1 1.00215 0.999088
1.00119 1 1.00268 0.998522
1.00052 1 1.0013 0.999224
0.999929 1 1 0.999929
0.999895 1 1.0006 0.999299
0.999946 1 1 0.999946
1 1 1 1
0.999964 1 1 0.999964
1 1 1 1
1 1 1 1
0.998468 1 1.00001 0.998458
0.999481 1 1 0.999481
0.998787 1 1 0.998787
1 1 1 1
0.999689 1 1 0.999689
0.998948 1 1 0.998948
1 1 1 1
1 1 1 1
0.999843 1 1 0.999843
1 1 1 1
1 1 1 1
1 1 1 1
0.711832 0.871834 0.894981 0.912284
0.596308 0.746302 0.883051 0.904836
0.667886 0.806736 0.892385 0.927724
0.9984 1 1.00041 0.997988
0.684248 0.850666 0.883029 0.910919
0.673084 0.846889 0.880702 0.90243
0.580714 0.75265 0.859162 0.898036
0.927626 0.992572 0.94674 0.987143
0.835521 0.939653 0.92253 0.963851
0.63301 0.793358 0.864525 0.92292
0.578901 0.765517 0.84719 0.892624
0.871606 0.956394 0.929016 0.980981
0.805138 0.898909 0.930832 0.96224
0.671405 0.799844 0.910431 0.922002
0.666228 0.861015 0.86414 0.895423
0.813823 0.9018 0.92397 0.976702
0.787597 0.86631 0.948526 0.958476
0.770815 0.87393 0.953208 0.925307
0.718503 0.909649 0.874264 0.903466
1.00164 1 1.00391 0.997737
1.00452 1 1.00672 0.997818
1.00002 1 1.00163 0.998389
0.998351 1 1.00051 0.997838
0.998954 1 1.00122 0.997739
0.998714 1 1.0005 0.998215
0.998181 1 1.00009 0.998093
0.998387 1 1.00019 0.998196
0.953396 1.00337 0.952629 0.997442
0.965876 1.00115 0.9665 0.99821
1.00925 1 1.01168 0.9976
0.998399 0.998603 1.00172 0.998079
1.02974 0.998979 1.03307 0.997793
1.01816 1 1.02056 0.997655
1.01096 1 1.01318 0.997811
0.942656 0.969757 0.974253 0.997743
1.02867 0.999601 1.03114 0.998005
1.03334 0.995362 1.0398 0.998422
0.962647 0.968618 0.99455 0.999281
1.01335 1 1.01531 0.998065
0.926275 0.939431 0.988905 0.997057
0.992036 0.966092 1.02739 0.999476
1.06631 0.995791 1.07238 0.998536
1.05018 0.997812 1.05437 0.998211
0.695707 0.843081 0.89473 0.922285
0.71594 0.866259 0.901444 0.916834
0.618544 0.762488 0.895032 0.906356
1.00121 0.99551 1.00641 0.999322
0.978007 0.962111 1.01724 0.999295
0.708021 0.860387 0.898274 0.916101
0.802487 0.863109 0.966703 0.961788
0.877368 0.918619 0.972216 0.98239
0.75026 0.858503 0.947671 0.922173
0.681429 0.852851 0.880214 0.907735
0.711932 0.907219 0.869485 0.902535
1.00173 0.972217 1.0307 0.999669
0.694945 0.847573 0.8931 0.918064
0.728512 0.89422 0.891337 0.914008
0.948173 0.934534 1.01571 0.998901
0.66426 0.859493 0.862996 0.895544
0.837739 0.887148 0.985203 0.958488
0.816454 0.921629 0.954439 0.92817
0.993961 0.961213 1.03443 0.999656
0.732533 0.882562 0.899502 0.922741
0.684677 0.848288 0.885428 0.911568
0.598521 0.791546 0.846912 0.892821
0.765247 0.869942 0.951348 0.924638
0.928581 0.930127 1.00693 0.991464
0.882725 0.913477 1.01387 0.953115
1.02961 0.994969 1.03566 0.999188
1.03421 0.975792 1.06036 0.999534
1.01987 0.957276 1.06583 0.999582
1.01442 0.999891 1.01645 0.998111
1.04845 0.996312 1.05329 0.999091
1.05683 0.985134 1.07343 0.999396
1.0258 0.996543 1.03034 0.999045
1.03497 0.980973 1.05559 0.999488
1.00129 0.980232 1.02226 0.999235
1.01956 0.997933 1.02279 0.998903
1.01086 0.999344 1.01319 0.998359
1.00801 0.999402 1.00982 0.998802
1.01109 0.99781 1.01531 0.998036
0.997682 0.998653 1 0.999028
0.999673 1.00054 1.00181 0.997332
1.00698 1.00235 1.00945 0.995213
1.00669 1.00892 1.00283 0.994974
1.00182 1.00419 1.00026 0.997382
1.00231 1.00465 1.00205 0.995632
1.02168 1.02554 1.00053 0.995705
1.01884 1.01987 1.00261 0.996391
1.01907 1.02211 1.00125 0.995779
1.01229 1.00513 1.0098 0.997347
1.01155 1.01105 1.00335 0.997152
1.00034 1.00268 1.00128 0.996396
1.01655 1 1.01867 0.997915
1.01387 1.00039 1.01591 0.997597
1.0087 1.00354 1.00745 0.997711
1.01623 1 1.01835 0.997912
1.00989 1 1.01177 0.998141
1.00449 1 1.00562 0.99887
1.00401 1 1.00567 0.998351
1.00168 1 1.0026 0.999082
0.999899 1 1 0.999899
1.0009 1 1.00168 0.99922
0.999923 1 1 0.999923
1 1 1 1
0.999939 1 1 0.999939
1 1 1 1
1 1 1 1
0.998558 1 1.0002 0.998363
0.999253 1 1 0.999253
0.998534 1 1.00001 0.99852
0.999994 1 1 0.999994
0.999456 1 1 0.999456
0.998784 1 1 0.998784
1 1 1 1
1 1 1 1
0.999623 1 1 0.999623
1 1 1 1
1 1 1 1
1 1 1 1
0.699786 0.849191 0.894612 0.921139
0.712391 0.869854 0.897681 0.912326
0.59767 0.744812 0.886773 0.904904
0.998711 1 1.00068 0.998029
1.00373 1 1.00583 0.997913
0.998007 1 1 0.998007
0.728393 0.898168 0.88991 0.911302
0.682607 0.851797 0.879465 0.911206
0.671022 0.84762 0.877385 0.902287
0.877953 0.964145 0.926206 0.983154
0.772679 0.886359 0.911495 0.95639
0.678109 0.789308 0.922804 0.930987
0.67005 0.868095 0.864652 0.892685
0.819864 0.90792 0.921572 0.979863
0.804769 0.876976 0.957765 0.958131
0.759467 0.86452 0.94856 0.926124
0.714232 0.907728 0.871468 0.902884
0.836546 0.901738 0.949453 0.977093
0.841385 0.892117 0.9826 0.959834
0.818552 0.924366 0.953169 0.929035
0.677013 0.871767 0.865995 0.896771
0.999645 1 1.00168 0.997972
1.00163 1 1.00395 0.99769
1.00367 1 1.0059 0.997784
0.998103 1 1.00028 0.99782
0.998712 1 1.00089 0.997819
0.99812 1 1.00003 0.998093
0.93948 0.963153 0.977455 0.99792
0.963871 0.968812 0.995593 0.999303
1.01088 1 1.01311 0.997795
1.02692 0.998801 1.02973 0.998466
1.02514 1 1.02719 0.998005
1.01235 0.999389 1.01492 0.998083
1.03579 0.992886 1.04504 0.998248
0.931845 0.93792 0.996348 0.997165
1.06113 0.992352 1.07072 0.998678
0.993845 0.95687 1.0394 0.999266
1.02162 0.990104 1.03347 0.998418
0.955225 0.938948 1.02074 0.996665
1.01075 0.96272 1.05081 0.999125
1.02941 0.964721 1.06835 0.998792
0.750049 0.89426 0.907412 0.924318
0.70089 0.846091 0.897843 0.92264
0.714522 0.866077 0.900623 0.916043
1.01004 0.982756 1.02815 0.999627
0.936994 0.933161 1.00712 0.997004
0.695261 0.847818 0.89323 0.918083
0.834473 0.873246 0.992489 0.96283
0.809862 0.924745 0.948616 0.923205
0.730496 0.89487 0.89099 0.916189
0.670054 0.867128 0.86535 0.892966
0.987768 0.955911 1.0336 0.999736
0.730646 0.878617 0.900399 0.923576
0.687731 0.8553 0.881781 0.911883
0.923756 0.925903 1.01105 0.986779
0.587464 0.782127 0.844813 0.889085
0.758556 0.863619 0.949503 0.925058
0.877121 0.911777 1.00121 0.960824
1.00704 0.948682 1.06368 0.99797
0.701118 0.84752 0.897674 0.921558
0.684783 0.854849 0.886827 0.903285
0.511439 0.679406 0.838547 0.897711
0.671093 0.809633 0.900359 0.920617
0.849259 0.88997 0.994886 0.959161
0.894023 0.913224 0.995905 0.982999
1.02914 0.973365 1.05783 0.999501
1.02937 0.970475 1.06114 0.999578
1.00746 0.969528 1.0397 0.999451
1.01881 0.997382 1.02248 0.999032
1.03245 0.98357 1.05023 0.999487
1.00611 0.976155 1.03139 0.999319
1.01027 0.993795 1.01784 0.998759
1.0127 0.999748 1.01419 0.998776
1.00844 0.999155 1.01159 0.997731
1.0271 1.00084 1.03062 0.995744
0.994746 1.00012 0.99704 0.997575
1.00816 1.00203 1.01087 0.995293
1.00773 1.00356 1.00985 0.994361
1.01168 1.01521 1.00191 0.994625
1.0132 1.01683 1.00108 0.995362
1.00668 1.00868 1.00312 0.994916
1.00226 1.00519 1.00169 0.995401
1.0162 1.01912 1.0011 0.996038
1.02358 1.0274 1.00048 0.995801
1.01144 1.00993 1.00473 0.996772
1.02076 1.02158 1.00274 0.996479
1.0181 1.02111 1.00117 0.995894
1.01625 1.00255 1.01609 0.997617
1.01309 1.00595 1.00979 0.997335
1.01466 1.01372 1.00383 0.997107
1.01098 1 1.01237 0.998633
1.01506 1 1.01719 0.997913
1.01399 1.00069 1.0157 0.997629
1.00944 1 1.01131 0.998144
1.00425 1 1.00539 0.998867
1.00003 1 1.0002 0.999832
1.00151 1 1.00244 0.999076
0.99989 1 1 0.99989
1 1 1 1
0.999917 1 1 0.999917
1 1 1 1
1 1 1 1
0.998319 1 1.00003 0.998286
0.999387 1 1.00019 0.999195
0.998562 1 1.00017 0.998391
0.999973 1 1 0.999973
0.999304 1 1 0.999304
0.998583 1 1 0.998583
1 1 1 1
0.999996 1 1 0.999996
0.999431 1 1 0.999431
1 1 1 1
1 1 1 1
1 1 1 1
0.729777 0.880435 0.898849 0.92216
0.705588 0.850608 0.900497 0.92117
0.714647 0.868902 0.901429 0.912409
1.02047 1 1.02274 0.997782
1.0069 1.00064 1.00848 0.9978
0.998479 1 1.00041 0.998071
1.00386 1 1.00599 0.997891
0.998455 1 1.00042 0.998032
1.00489 1 1.00693 0.997972
0.997385 0.999215 1 0.998168
0.690157 0.864435 0.879991 0.907272
0.731729 0.896787 0.893182 0.913526
0.686987 0.850069 0.886626 0.911495
0.71269 0.907326 0.870528 0.902308
0.823065 0.912987 0.922663 0.977072
0.810148 0.874984 0.96705 0.957449
0.76599 0.878623 0.937414 0.930013
0.821664 0.903109 0.932207 0.975981
0.844457 0.885972 0.999491 0.953626
0.815055 0.919829 0.953962 0.928856
0.669615 0.864848 0.859056 0.901289
0.872338 0.912072 0.976589 0.979364
0.863107 0.897997 1.00805 0.953473
0.74607 0.866377 0.934367 0.921627
0.60232 0.79675 0.847837 0.891646
1.03976 0.998362 1.04316 0.998375
1.00109 0.999706 1.00338 0.998005
1.00253 1 1.00489 0.997642
0.997859 1 1.00005 0.997804
0.94157 0.941234 1.00307 0.997294
0.993773 0.95103 1.04594 0.999049
1.01031 0.99859 1.01366 0.998101
1.02634 0.992251 1.03613 0.998285
1.04776 0.982236 1.06797 0.998821
1.02352 0.995318 1.02996 0.99842
1.03855 0.965086 1.07744 0.998779
0.953583 0.937097 1.02291 0.994806
1.01074 0.954788 1.05936 0.99929
1.01158 0.97254 1.04128 0.998906
0.941545 0.917813 1.03231 0.993746
0.989885 0.938172 1.05591 0.999254
0.700369 0.84339 0.899926 0.922766
0.745956 0.889742 0.90486 0.926547
0.707707 0.849244 0.902873 0.922985
0.98063 0.947607 1.03505 0.999805
0.93044 0.929811 1.00877 0.991973
0.727196 0.874003 0.900051 0.924425
0.888174 0.920246 1.01156 0.954117
0.760743 0.873305 0.937598 0.929084
0.693995 0.856919 0.887865 0.912157
0.577581 0.761514 0.849494 0.892843
1.00727 0.950432 1.06167 0.998244
0.706199 0.853449 0.897855 0.921602
0.677734 0.847014 0.885984 0.903116
0.89586 0.913185 0.995111 0.985848
0.523505 0.70237 0.835656 0.891923
0.661714 0.790253 0.908889 0.921284
0.84569 0.889314 0.996506 0.954281
0.990541 0.95077 1.04633 0.995702
0.716894 0.877525 0.89516 0.912631
0.566031 0.728315 0.868341 0.895016
0.622372 0.775394 0.860992 0.932241
0.788093 0.853567 0.961818 0.959947
0.845239 0.886419 0.974884 0.978109
1.03786 0.976127 1.06368 0.99959
1.01135 0.966844 1.0466 0.999462
0.981121 0.96926 1.01303 0.999215
1.01101 0.97215 1.04059 0.999402
1.00973 0.983034 1.02831 0.998872
1.01246 1.0008 1.01409 0.997592
1.00499 1.0004 1.00718 0.997428
1.02685 1.00105 1.03034 0.995565
1.0149 1.00268 1.01766 0.994623
1.00982 1.00207 1.01242 0.995373
1.00882 1.00361 1.01099 0.994266
1.0036 1.00497 1.00448 0.994187
1.04456 1.04985 1 0.994956
1.02491 1.02929 1.00077 0.994985
1.01184 1.01515 1.00218 0.994567
1.01468 1.01896 1.00013 0.995672
1.01115 1.01504 1.00074 0.995426
1.00668 1.00828 1.00357 0.994857
1.01693 1.01948 1.00142 0.996082
1.01598 1.01894 1.00108 0.99601
1.02453 1.02831 1.00043 0.995898
1.01018 1.0044 1.00862 0.99717
1.0122 1.00977 1.00555 0.996881
1.02133 1.02191 1.00288 0.996568
1.01467 1.00153 1.01484 0.998305
1.01571 1.0032 1.01488 0.997625
1.0137 1.00703 1.00933 0.997323
1.00192 1 1.0022 0.999729
1.01055 1 1.01193 0.99863
1.0138 1 1.01592 0.997911
1.00444 1 1.00558 0.998864
1.00042 1 1.0006 0.999819
1 1 1 1
0.99988 1 1 0.99988
1 1 1 1
1 1 1 1
1.01509 1 1.01733 0.997802
1.00751 1 1.00947 0.998067
0.999193 1 1.0002 0.998993
0.999579 1 1.0013 0.998281
0.999939 1 1 0.999939
0.999316 1 1.00012 0.999197
0.998755 1 1.00034 0.99842
1 1 1 1
0.99998 1 1 0.99998
0.999354 1 1 0.999354
1 1 1 1
0.999999 1 1 0.999999
1 1 1 1
0.697817 0.848326 0.895849 0.918214
0.725051 0.876002 0.896708 0.923023
0.705771 0.85428 0.896837 0.921192
1.02266 1 1.02493 0.997783
1.00871 1.00059 1.01031 0.997827
0.999683 1.00131 1.00076 0.99762
1.02319 1 1.02543 0.997817
1.00643 1.00157 1.00703 0.997836
1.00578 1 1.00793 0.997868
0.999362 1 1.00131 0.998056
1.00545 0.999743 1.00775 0.997977
0.998415 1 1.0002 0.998218
1.02395 1 1.02575 0.998253
0.664214 0.836049 0.879317 0.903506
0.687479 0.858417 0.882366 0.907637
0.730979 0.896323 0.890569 0.91574
0.668085 0.86384 0.857593 0.901816
0.810783 0.922007 0.952049 0.923658
0.81703 0.896829 0.935055 0.974296
0.848434 0.887181 0.997032 0.959172
0.862516 0.914867 0.966624 0.97533
0.866187 0.910697 0.991323 0.959451
0.762883 0.866568 0.951296 0.925422
0.607177 0.80783 0.844267 0.890258
0.884452 0.90888 0.994879 0.978133
0.849596 0.880146 1.00525 0.960244
0.65869 0.777315 0.910178 0.931017
0.552027 0.725074 0.848204 0.89759
1.03246 0.999131 1.03447 0.998928
1.04123 0.998145 1.04485 0.998382
1.00506 1 1.00704 0.998041
0.952138 0.935444 1.02519 0.992841
1.0126 0.950149 1.06633 0.999436
1.02484 0.998124 1.02839 0.998422
1.05065 0.964034 1.0912 0.998767
1.01607 0.977402 1.0407 0.998912
0.996166 0.947741 1.05187 0.999263
0.941484 0.920301 1.02946 0.99374
1.00944 0.984188 1.02633 0.999345
0.958855 0.944511 1.02032 0.994969
0.722195 0.870662 0.904393 0.917165
0.709833 0.850925 0.903684 0.923099
0.740605 0.885096 0.900882 0.928814
1.01021 0.960776 1.05308 0.998456
0.891067 0.912562 0.995547 0.980813
0.714552 0.860742 0.900743 0.921637
0.850607 0.891563 0.997465 0.956487
0.664797 0.777802 0.919028 0.930018
0.667528 0.842163 0.877745 0.903036
0.534544 0.726092 0.830883 0.886037
0.987934 0.949839 1.04425 0.996036
0.714775 0.871057 0.899148 0.912624
0.565806 0.731843 0.865156 0.893624
0.859414 0.901282 0.97311 0.979895
0.634861 0.782119 0.872976 0.929831
0.785755 0.866236 0.948508 0.956335
0.937073 0.934984 1.00844 0.993842
0.588792 0.74502 0.87804 0.900076
0.647002 0.79318 0.873925 0.933383
0.781095 0.885407 0.922319 0.956489
0.819587 0.891526 0.93729 0.980815
1.01351 0.965907 1.04983 0.999476
0.984455 0.962369 1.02378 0.999186
0.993618 0.987075 1.00824 0.998397
1.00898 0.970694 1.0405 0.998979
1.0074 0.999071 1.01067 0.997688
0.994147 1.00381 0.993883 0.996466
1.02636 1.001 1.03009 0.995381
1.01335 1.00352 1.01526 0.994617
1.00218 1.00574 1.00137 0.995098
1.00921 1.00347 1.01161 0.994171
1.00336 1.00547 1.0037 0.994228
1.03921 1.04487 0.999348 0.995228
1.07109 1.07833 0.997516 0.995768
1.05731 1.06255 1.00002 0.995059
1.04512 1.05038 1 0.99499
1.03318 1.03808 1 0.995282
1.02375 1.02787 1.00107 0.994925
1.01282 1.01594 1.00244 0.99451
1.027 1.03137 1 0.995765
1.01298 1.01729 1.00002 0.995743
1.0089 1.01315 1.00032 0.995489
1.01129 1.01149 1.00326 0.99656
1.01371 1.01551 1.00208 0.996149
1.01664 1.01963 1.0011 0.995981
1.01509 1.00175 1.01552 0.997822
1.01306 1.00631 1.00956 0.997167
1.01287 1.0096 1.00627 0.99699
1.00395 1 1.00436 0.999598
1.01458 1.00179 1.0145 0.998303
1.01549 1.00384 1.014 0.997632
0.999937 1 1 0.999937
1.00289 1 1.00318 0.999715
1.0101 1 1.01149 0.998627
1.00086 1 1.00106 0.999806
1 1 1 1
1 1 1 1
1.01001 1.00267 1.00973 0.997612
1.01396 1 1.01614 0.997849
1.01788 1 1.02015 0.997773
1.002 1 1.00323 0.998775
1.00606 1 1.00802 0.998061
0.999892 1 1 0.999892
0.999594 1 1.0006 0.998998
1.00018 1 1.00191 0.998275
1 1 1 1
0.99995 1 1 0.99995
0.9992 1 1 0.9992
1 1 1 1
0.999987 1 1 0.999987
1 1 1 1
0.704937 0.857985 0.895981 0.917005
0.701808 0.852228 0.896811 0.918251
0.725989 0.869994 0.903235 0.923874
1.0039 1.00439 1.00207 0.997447
1.02019 1 1.02246 0.997783
1.00474 1 1.0069 0.997858
1.01622 1 1.0185 0.997765
1.00097 1.00277 1.00056 0.997648
1.0027 1.00043 1.00423 0.998044
1.01588 1.00193 1.01684 0.997121
1.01914 0.995988 1.02523 0.998073
1.00588 0.99954 1.00838 0.997984
0.998267 1 1 0.998267
1.0254 0.998953 1.02829 0.998238
1.04279 1.00172 1.04258 0.998474
0.585703 0.742969 0.878387 0.897472
0.679512 0.851795 0.88334 0.903095
0.687624 0.856298 0.884461 0.907919
0.612093 0.809982 0.843018 0.896406
0.755015 0.861351 0.948757 0.92389
0.867478 0.903005 1.00742 0.95358
0.86586 0.912777 0.971846 0.976081
0.88152 0.90737 0.990929 0.980405
0.543665 0.724088 0.841964 0.891757
0.840362 0.884654 0.994383 0.955298
0.663234 0.786727 0.912103 0.92427
0.880695 0.914493 0.980152 0.982543
0.812201 0.874761 0.965003 0.962156
0.622965 0.773333 0.865309 0.930949
0.988642 1.00147 0.987651 0.999532
1.03465 1.00016 1.03559 0.998934
1.04104 0.998649 1.04413 0.998386
0.944325 0.923931 1.02847 0.99378
1.00375 0.959276 1.04712 0.999273
1.02239 0.985731 1.03831 0.998919
1.00597 0.981608 1.02549 0.999345
0.954172 0.943304 1.01658 0.995025
0.980959 0.977684 1.00657 0.996802
0.625058 0.763483 0.904127 0.905506
0.717943 0.868192 0.89963 0.919201
0.713746 0.856367 0.902614 0.923384
0.988356 0.9495 1.04486 0.996235
0.853971 0.899705 0.967768 0.98078
0.711078 0.863938 0.901762 0.91273
0.801887 0.864612 0.969696 0.956438
0.634057 0.794836 0.863666 0.923645
0.58401 0.751958 0.864094 0.898806
0.934984 0.927691 1.01406 0.993883
0.598687 0.746954 0.885265 0.905385
0.632928 0.789187 0.865659 0.926462
0.816726 0.896342 0.933027 0.976581
0.807254 0.904376 0.927571 0.962308
0.928485 0.94715 0.983069 0.997176
0.67053 0.804825 0.901193 0.924484
0.860839 0.960912 0.928713 0.964621
0.814949 0.908925 0.918449 0.976219
0.988415 0.957045 1.03364 0.999161
0.98156 0.986398 0.996609 0.998481
0.991856 1.00044 0.994068 0.997336
1.0026 0.997729 1.00712 0.997785
0.996248 1.00377 0.996071 0.996426
0.999875 1.00819 0.995425 0.996315
1.01259 1.00489 1.01313 0.994611
1.00212 1.00538 1.00167 0.995097
1.03501 1.047 0.992304 0.996222
1.00329 1.00587 1.00319 0.994268
1.03756 1.04363 0.998952 0.995235
1.06825 1.08045 0.992247 0.99644
1.06511 1.07645 0.992873 0.996563
1.07339 1.0792 0.998933 0.995681
1.07279 1.08 0.997494 0.995819
1.0628 1.06783 1 0.995291
1.05514 1.06029 1 0.995137
1.04443 1.04965 1 0.995023
1.04807 1.05277 1 0.995534
1.0338 1.03854 1.00014 0.995302
1.02228 1.02604 1.00148 0.994864
1.02814 1.03221 1 0.996057
1.02449 1.02885 1 0.995763
1.01113 1.01539 1 0.995813
1.0089 1.00407 1.00751 0.997324
1.014 1.01397 1.00349 0.99655
1.01047 1.0113 1.00298 0.996216
1.00476 1 1.00545 0.999316
1.01325 1.00277 1.01266 0.997818
1.01521 1.00846 1.00956 0.997164
1 1 1 1
1.00448 1 1.00496 0.999524
1.01388 1.00189 1.01369 0.9983
1 1 1 1
1.00382 1 1.00413 0.999686
1 1 1 1
1.00584 1.00665 1.00185 0.99735
1.00807 1.00191 1.0086 0.997569
1.01417 1.00047 1.01605 0.997681
1.00785 1 1.0093 0.998563
1.01621 1 1.0184 0.997847
1.02369 1 1.026 0.997744
1.00009 1 1.00027 0.999822
1.00114 1 1.00236 0.998781
1.00585 1 1.0078 0.998056
1 1 1 1
0.999905 1 1 0.999905
0.999603 1 1.0006 0.999003
1 1 1 1
0.99996 1 1 0.99996
1 1 1 1
0.599743 0.752321 0.888112 0.897623
0.709567 0.863391 0.896138 0.917088
0.706042 0.856949 0.897201 0.918303
1.01003 1.00296 1.00967 0.997415
1.0193 1.00881 1.01345 0.996991
1.02509 1.00233 1.0255 0.997282
1.01578 1 1.01811 0.997712
1.00237 1.00497 0.999736 0.997677
1.00228 0.999375 1.00467 0.998246
1.01969 0.99836 1.02343 0.997983
1.01773 1.00256 1.01788 0.997294
1.0189 1.0005 1.02098 0.997452
0.973677 1.00186 0.972875 0.998965
1.0255 0.999589 1.02775 0.998221
1.03755 1.00052 1.03864 0.998437
0.642061 0.790596 0.880175 0.922682
0.561216 0.719746 0.872653 0.893529
0.690139 0.861255 0.887419 0.902976
0.536785 0.72442 0.836596 0.885715
0.675182 0.798061 0.908559 0.931176
0.828425 0.878515 0.985621 0.956739
0.879699 0.904604 0.995021 0.977334
0.866582 0.905333 0.977082 0.979648
0.63603 0.777321 0.880804 0.928962
0.792883 0.869241 0.953357 0.956782
0.844682 0.910452 0.945009 0.981748
0.77977 0.901974 0.903045 0.957333
0.995545 1 0.996493 0.999048
0.988079 1.00074 0.987864 0.999478
1.03548 0.999409 1.03719 0.99894
0.943433 0.93617 1.01272 0.9951
1.00032 0.976796 1.02475 0.999346
0.982657 0.980233 1.00573 0.996761
0.963531 0.986142 0.981449 0.995539
0.693174 0.816219 0.911232 0.93198
0.619879 0.761061 0.899612 0.905382
0.720722 0.870404 0.898924 0.921136
0.936581 0.934287 1.00839 0.994114
0.820453 0.894517 0.938857 0.976935
0.599965 0.746407 0.887814 0.905375
0.774615 0.891082 0.908459 0.956891
0.6475 0.787557 0.880894 0.933327
0.928108 0.951045 0.980198 0.995596
0.681968 0.814645 0.900972 0.929146
0.84046 0.952215 0.92161 0.957712
0.816689 0.908974 0.917629 0.979124
0.937501 0.974169 0.965389 0.996862
0.882366 0.976158 0.937876 0.963791
0.872578 0.959881 0.924948 0.98281
0.968734 0.984361 0.98556 0.998544
0.985893 1.00036 0.988203 0.997301
0.980389 1.00912 0.974369 0.997084
0.99761 1.00341 0.997827 0.996389
0.999316 1.00781 0.995251 0.996304
1.02127 1.05152 0.974152 0.997002
1.00166 1.00472 1.00186 0.995097
1.032 1.04536 0.990998 0.996196
1.04886 1.0798 0.974216 0.997059
1.03661 1.04306 0.998567 0.995242
1.06667 1.07988 0.991307 0.996428
1.05431 1.07709 0.98173 0.997069
1.05974 1.0761 0.987803 0.996953
1.06539 1.07747 0.992119 0.996641
1.06582 1.07361 0.996317 0.996413
1.07545 1.08021 0.999847 0.995743
1.07381 1.07931 0.99918 0.995712
1.07518 1.08242 0.997428 0.995871
1.06721 1.07205 1 0.995483
1.0642 1.06921 1 0.995316
1.05342 1.05849 1 0.995214
1.04962 1.05408 1 0.99577
1.04912 1.05383 1 0.995533
1.03459 1.03927 1.00017 0.995322
1.0094 1.01202 1.00052 0.996894
1.02828 1.03235 1 0.99606
1.02214 1.02649 1 0.995761
1.00411 1 1.00514 0.998975
1.01121 1.00629 1.00759 0.997319
1.01739 1.01656 1.00429 0.996542
1 1 1 1
1.00511 1 1.00583 0.999291
1.0132 1.00411 1.01126 0.997813
0.999951 1 1 0.999951
1.00536 1 1.00585 0.999515
1 1 1 1
1.01026 1.01117 1.00204 0.997064
1.0043 1.00327 1.00368 0.99736
1.00739 1.00187 1.00802 0.997513
1.00461 1.0007 1.0064 0.997525
1.01394 1.00061 1.01568 0.997685
1.01313 1 1.01481 0.998344
1.00124 1 1.00152 0.999716
1.00679 1 1.00824 0.998563
1.01628 1 1.01847 0.997844
1 1 1 1
0.999839 1 1 0.999839
1.00029 1 1.00151 0.998786
1 1 1 1
0.99992 1 1 0.99992
1 1 1 1
0.670272 0.806209 0.894971 0.928955
0.601947 0.752024 0.889795 0.899573
0.710916 0.865809 0.895238 0.917187
1.01425 1.00158 1.01531 0.997383
1.03149 1.00197 1.03254 0.997021
1.01618 1.00883 1.01027 0.997039
1.01099 1.01259 1.00242 0.996021
1.02694 1.00364 1.02591 0.997368
1.01806 1 1.0202 0.9979
1.01879 1.00321 1.01811 0.997467
1.01982 1.00129 1.02099 0.997572
0.99618 1.00689 0.992168 0.997171
0.962244 1.00158 0.962217 0.998454
0.968284 1.00038 0.970183 0.997666
0.97907 1.00189 0.978221 0.998984
1.03246 1.00035 1.03375 0.998402
0.837655 0.94458 0.921893 0.961936
0.634719 0.785154 0.874013 0.924929
0.55222 0.711133 0.866935 0.895725
0.634385 0.78647 0.873946 0.922966
0.797902 0.874511 0.951612 0.958792
0.874771 0.905013 0.983733 0.982567
0.843032 0.908324 0.943332 0.983872
0.815475 0.909531 0.930419 0.963639
0.860951 0.953141 0.918992 0.9829
0.99079 1.00124 0.991327 0.998222
0.996478 0.999888 0.997565 0.999022
0.988279 1.00037 0.988479 0.999424
0.986329 0.984808 1.00478 0.996784
0.97285 0.988889 0.987563 0.996171
0.869833 0.965801 0.937725 0.960446
0.692796 0.814686 0.911438 0.933014
0.613248 0.756277 0.895678 0.905323
0.931344 0.958669 0.977451 0.993908
0.823381 0.920416 0.916104 0.9765
0.672381 0.808992 0.895454 0.928171
0.840169 0.94422 0.923151 0.963875
0.94554 0.975739 0.971996 0.99697
0.891308 0.984607 0.939149 0.963897
0.869573 0.956601 0.927796 0.979767
0.943341 1.00103 0.945905 0.996261
0.911642 0.989466 0.932417 0.988128
0.98351 1.00215 0.984064 0.997296
0.974772 1.00902 0.96893 0.99704
0.981687 1.04302 0.943663 0.997391
0.998467 1.00736 0.99486 0.996291
1.02427 1.05326 0.97544 0.996967
1.04005 1.08491 0.961177 0.997373
1.02868 1.04345 0.989632 0.996169
1.04898 1.07974 0.97441 0.997031
1.04264 1.07842 0.969439 0.997296
1.06434 1.07857 0.99035 0.996417
1.05405 1.07646 0.982089 0.997046
1.05525 1.08023 0.979674 0.997144
1.05796 1.07529 0.986835 0.99701
1.06077 1.07533 0.989661 0.996762
1.06533 1.07809 0.991418 0.996718
1.06577 1.07353 0.996355 0.996405
1.06717 1.07288 0.998499 0.996169
1.07327 1.07791 1 0.995695
1.07548 1.08022 0.999884 0.99573
1.07411 1.0793 0.999445 0.995744
1.06322 1.06787 1 0.995642
1.0687 1.07356 1 0.995474
1.06569 1.07068 1 0.99534
1.0219 1.02543 1 0.996559
1.04846 1.0529 1 0.995775
1.04986 1.05457 1 0.995531
1.00088 1.00003 1.00226 0.998588
1.01319 1.01548 1.00086 0.996897
1.02824 1.03231 1 0.996064
1 1 1 1
1.00352 1 1.00458 0.998948
1.01225 1.00829 1.00663 0.997314
1 1 1 1
1.00489 1 1.00563 0.999266
1 1 1 1
1.02334 1.02657 1.00073 0.996125
1.01098 1.01319 1.00078 0.997053
1.00557 1.00436 1.00405 0.997166
1.004 1.00029 1.00635 0.99737
1.00666 1.00098 1.00822 0.997469
1.01215 1.00139 1.01273 0.998036
1.01653 1.00045 1.01843 0.997688
1.01423 1 1.01592 0.998339
1.00525 1 1.00569 0.99956
1 1 1 1
1.00125 1 1.00152 0.999731
1.00775 1 1.0092 0.998564
1 1 1 1
0.999853 1 1 0.999853
1 1 1 1
0.882089 0.973885 0.937715 0.965903
0.682422 0.816219 0.89896 0.930049
0.598147 0.750525 0.888672 0.896812
1.03875 1.00152 1.04054 0.996758
1.01354 1.01007 1.00637 0.997088
1.02216 1.00324 1.0217 0.997218
1.01031 1.01197 1.00224 0.996126
1.03247 1.03666 1.00016 0.995797
1.00096 1.00782 0.996328 0.996852
1.02294 1.00249 1.02276 0.997687
0.997734 1.00863 0.992209 0.996962
0.971604 1.00276 0.970443 0.998437
0.99615 1.00432 0.994642 0.997205
0.970601 1.00345 0.969589 0.997602
0.993393 1.00156 0.994685 0.997147
0.967654 1.00082 0.969028 0.997765
0.984902 1.00045 0.985436 0.999004
0.874847 0.965904 0.92161 0.982769
0.845327 0.955098 0.920842 0.961151
0.649858 0.785845 0.887164 0.932132
0.788695 0.897752 0.918329 0.956653
0.85566 0.910775 0.953814 0.984978
0.865304 0.942669 0.929635 0.987409
0.96025 1.00377 0.960015 0.996491
0.987646 1.00029 0.989224 0.998119
0.996662 0.999234 0.998428 0.998997
0.976165 0.989823 0.98938 0.996787
0.9019 0.973234 0.94231 0.983439
0.88172 0.972197 0.937762 0.967127
0.682459 0.810085 0.909096 0.926694
0.943161 0.971097 0.974064 0.997093
0.871593 0.960171 0.924803 0.981559
0.889268 0.984413 0.937299 0.963779
0.940007 0.99892 0.944435 0.996388
0.915111 0.986583 0.939641 0.987139
0.947633 1.02547 0.927186 0.996666
0.962024 1.02374 0.944395 0.995045
0.968123 1.00887 0.962514 0.996987
0.979032 1.04003 0.943814 0.997392
1.0074 1.08177 0.933733 0.997343
1.02829 1.05571 0.977027 0.996933
1.0396 1.08428 0.961339 0.997348
1.05088 1.08737 0.96911 0.997245
1.04971 1.08015 0.974742 0.997003
1.044 1.07817 0.970956 0.997276
1.06071 1.08837 0.977412 0.997101
1.05411 1.07615 0.982444 0.997023
1.05379 1.07803 0.980321 0.997138
1.06072 1.0813 0.98405 0.996868
1.05641 1.07472 0.985851 0.997067
1.06014 1.0751 0.989242 0.996808
1.06555 1.07522 0.994559 0.996431
1.06578 1.07354 0.996363 0.996397
1.06797 1.07341 0.998774 0.996159
1.07098 1.07569 0.999642 0.995973
1.06652 1.07114 1 0.99569
1.07371 1.07838 1 0.995668
1.07546 1.08016 0.999934 0.995718
1.03823 1.04203 1 0.996361
1.06224 1.06688 1 0.995649
1.07036 1.07523 1 0.995466
1.00064 1.00208 1.00027 0.998292
1.02254 1.02604 1.00003 0.996559
1.0471 1.05153 1 0.995779
1 1 1 1
1.0007 1.0005 1.00164 0.998565
1.01707 1.01895 1.00126 0.9969
1 1 1 1
1.00334 1 1.00442 0.998922
1 1 1 1
1.04119 1.04559 1 0.995797
1.02445 1.0279 1.00049 0.996156
1.02089 1.02295 1.00151 0.996485
1.01187 1.01427 1.00059 0.997042
1.00642 1.00579 1.00354 0.997094
1.01102 1.007 1.00638 0.997628
1.00489 1 1.00749 0.997426
1.01168 1.00098 1.01268 0.998038
1.00546 1 1.00612 0.999351
1.01276 1 1.01445 0.998336
1.00362 1 1.00405 0.999571
1 1 1 1
1 1 1 1
1.0004 1 1.00065 0.999747
1 1 1 1
0.895899 0.966315 0.942194 0.984011
0.871831 0.970356 0.936234 0.959658
0.686094 0.809246 0.907702 0.934027
1.05639 1.06078 1.00007 0.995792
1.01647 1.00237 1.01704 0.997072
1.01083 1.01255 1.00208 0.996231
1.00146 1.00808 0.996553 0.996865
1.03105 1.03498 1.00042 0.995779
1.01648 1.02051 0.999227 0.996822
1.00037 1.00997 0.993717 0.996754
0.978155 1.00287 0.976905 0.998419
0.994919 1.00583 0.991912 0.997219
0.963041 1.00248 0.963111 0.997456
1.02034 1.02151 1.00238 0.996475
0.983849 1.00765 0.979087 0.997236
0.991949 1.00219 0.992632 0.997131
0.968882 1.00134 0.969661 0.997863
0.948262 1.00562 0.94572 0.997086
0.864056 0.958356 0.918952 0.981121
0.84426 0.95815 0.917241 0.960636
0.865156 0.936384 0.93804 0.984961
0.96323 1.00395 0.961727 0.997621
0.987428 1.00001 0.989391 0.998003
0.967189 1.01047 0.96311 0.993826
0.894254 0.957607 0.948279 0.984776
0.870893 0.971578 0.933131 0.960603
0.94156 0.997342 0.947377 0.996509
0.922608 0.988953 0.946195 0.985964
0.950787 1.0274 0.928343 0.996859
0.968426 1.02439 0.949715 0.995423
0.990736 1.05544 0.941418 0.997109
1.05759 1.10327 0.961463 0.997022
0.975244 1.03637 0.94348 0.997392
1.01382 1.08344 0.938251 0.997324
1.04418 1.10286 0.949551 0.997096
1.0386 1.08316 0.961435 0.997323
1.0469 1.08504 0.967517 0.997242
1.0626 1.09774 0.970923 0.996982
1.04507 1.07768 0.972405 0.997256
1.05816 1.08635 0.976869 0.997115
1.06458 1.08638 0.983064 0.996819
1.05228 1.07575 0.980995 0.997132
1.06114 1.08168 0.984097 0.996866
1.06509 1.07989 0.989705 0.996559
1.05943 1.07478 0.988831 0.996854
1.06548 1.07545 0.994233 0.996477
1.07294 1.07821 0.998965 0.996144
1.06879 1.07394 0.999052 0.996149
1.071 1.07558 0.99978 0.995969
1.068 1.07251 1 0.995796
1.04554 1.04944 1 0.996292
1.0662 1.07083 1 0.995683
1.07414 1.07884 1 0.995641
1.00855 1.0104 1 0.99817
1.03604 1.03982 1 0.996361
1.06136 1.06599 1 0.995656
1 1 1 1
1.00311 1.00475 1.0001 0.998275
1.02353 1.02707 1 0.996559
1 1 1 1
1.00052 1.00116 1.00082 0.998543
1 1 1 1
1.05707 1.06171 1 0.995634
1.04105 1.04545 1 0.995788
1.04354 1.04768 1 0.996056
1.02524 1.02892 1.00024 0.996187
1.02499 1.02711 1.00149 0.996455
1.01795 1.01781 1.00291 0.997231
1.00697 1.00707 1.00289 0.997023
1.00895 1.00433 1.00698 0.997632
1.00295 1 1.00385 0.999106
1.01235 1.00023 1.01411 0.998037
1.00512 1 1.00576 0.999365
1 1 1 1
1.00306 1 1.00348 0.999582
1 1 1 1
1 1 1 1
0.955517 1.01057 0.948796 0.996554
0.887984 0.965683 0.937699 0.980634
0.870978 0.967837 0.931353 0.966253
1.05199 1.05581 1 0.996381
1.06599 1.07271 0.997665 0.996059
1.0551 1.05941 1.00004 0.995886
1.00176 1.00831 0.99662 0.996877
1.02898 1.0326 1.00073 0.99576
1.01956 1.02444 0.99842 0.996813
1.04418 1.05919 0.989396 0.996396
0.994343 1.0076 0.989585 0.997234
0.958029 1.00189 0.958801 0.997311
1.02298 1.02492 1.00149 0.996619
1.02567 1.05477 0.975937 0.996385
0.984391 1.03019 0.958063 0.997372
0.992768 1.0108 0.984955 0.997166
0.993205 1.00273 0.993369 0.997114
0.948906 1.007 0.944731 0.997442
0.87134 0.962651 0.924144 0.979443
0.963541 1.0032 0.961631 0.998791
1.0384 1.07644 0.96703 0.997548
0.963716 1.00929 0.960621 0.993988
0.897112 0.965422 0.945977 0.982311
0.953876 1.02972 0.929098 0.997038
0.973456 1.02467 0.953999 0.995824
0.984805 1.05564 0.935422 0.997307
1.05432 1.10203 0.95953 0.997052
1.05507 1.11531 0.948791 0.997047
1.10139 1.14168 0.967407 0.99721
1.02042 1.08614 0.94203 0.997306
1.05042 1.10589 0.952613 0.997096
1.06432 1.10733 0.964147 0.996906
1.04288 1.08281 0.965786 0.997238
1.06256 1.09714 0.971418 0.996983
1.06362 1.09152 0.977577 0.99679
1.05562 1.08435 0.976304 0.997129
1.06558 1.08732 0.983139 0.996815
1.06685 1.0836 0.987928 0.996572
1.06158 1.08209 0.98414 0.996863
1.0657 1.08045 0.989751 0.996556
1.07487 1.0828 0.996439 0.996224
1.06538 1.07568 0.993888 0.996523
1.07229 1.07774 0.998783 0.996155
1.07251 1.07697 1 0.995855
1.07104 1.07545 0.999932 0.995965
1.06769 1.07218 1 0.995807
1.04592 1.04983 1 0.996275
1.01468 1.01655 1 0.998165
1.0453 1.04918 1 0.996293
1.06601 1.07064 1 0.995677
1 1 1 1
1.01016 1.01203 1 0.998159
1.03334 1.03712 1 0.996361
1 1 1 1
1.00502 1.00677 1 0.998259
1 1 1 1
1.06697 1.07171 0.999797 0.995777
1.05626 1.06088 1 0.995649
1.05824 1.06267 1 0.995835
1.04027 1.04468 1 0.99578
1.04462 1.04876 1 0.996056
1.02414 1.02685 1.00049 0.996881
1.02875 1.03089 1.0015 0.996426
1.01398 1.01375 1.003 0.997234
1.00085 1.00041 1.00167 0.998777
1.00741 1.00233 1.00744 0.997639
1.00349 1 1.00437 0.999125
1 1 1 1
1.00448 1 1.00511 0.999379
1 1 1 1
1 1 1 1
0.992011 1.0545 0.942889 0.997718
0.952999 1.00913 0.94878 0.995359
0.890613 0.96848 0.936936 0.981496
1.05904 1.07014 0.993295 0.996305
1.05137 1.05526 0.99971 0.996602
1.07515 1.08686 0.992974 0.99623
1.06555 1.07344 0.996602 0.996038
1.05345 1.05774 0.99997 0.995982
1.06631 1.09274 0.979518 0.996211
1.02297 1.02863 0.997687 0.996804
1.04276 1.05677 0.990375 0.996334
1.04903 1.09701 0.959589 0.99653
1.0211 1.02799 0.996527 0.996763
1.02664 1.05581 0.975991 0.996293
0.982862 1.03519 0.951907 0.997417
0.99819 1.01223 0.989004 0.997093
0.949477 1.00769 0.944356 0.997745
1.08745 1.13213 0.963185 0.997247
1.0448 1.07964 0.970087 0.997575
0.962835 1.00773 0.961069 0.994156
0.979452 1.05538 0.930378 0.997501
1.05129 1.10105 0.957597 0.997083
1.04863 1.11198 0.945804 0.997069
1.1077 1.14711 0.968351 0.997207
1.08199 1.12239 0.966818 0.997092
1.05642 1.10839 0.955887 0.997096
1.06518 1.10632 0.965792 0.996916
1.06417 1.09578 0.97423 0.996839
1.06257 1.0965 0.971982 0.996985
1.06428 1.09172 0.978028 0.99677
1.06596 1.08494 0.985882 0.996567
1.0666 1.08827 0.983223 0.996812
1.06723 1.08397 0.987946 0.996567
1.07515 1.08618 0.99354 0.99628
1.0663 1.08101 0.989799 0.996554
1.07462 1.08256 0.99643 0.996224
1.0778 1.08224 0.999993 0.995904
1.07168 1.07732 0.998591 0.996166
1.07224 1.07669 1 0.995862
1.04658 1.05053 1 0.996245
1.06725 1.07173 1 0.995818
1.04685 1.05076 1 0.996276
1.01533 1.01683 1 0.998525
0.999368 1 1 0.999368
1.01496 1.01667 1 0.998315
1.04487 1.04876 1 0.996294
1 1 1 1
1.01229 1.01417 1 0.998148
1 1 1 1
1.07806 1.08876 0.993802 0.996351
1.07112 1.07709 0.99841 0.996045
1.06676 1.07196 0.999335 0.995804
1.05934 1.06381 1 0.995799
1.05624 1.06084 1 0.995665
1.05696 1.06139 1 0.995826
1.02765 1.03117 1 0.996588
1.04589 1.05003 1 0.996056
1.02239 1.02494 1.00064 0.99688
1.00276 1.00423 1.00012 0.998414
1.00958 1.00937 1.00298 0.997236
1.00138 1.00032 1.00226 0.998796
1 1 1 1
1.00382 1 1.00468 0.999145
1 1 1 1
1 1 1 1
1.07354 1.12396 0.958031 0.996984
1.00181 1.06512 0.942717 0.997717
0.949706 1.00934 0.946415 0.99419
1.0678 1.08766 0.985415 0.996271
1.05451 1.06615 0.992703 0.996348
1.0508 1.05471 0.999469 0.996821
1.07404 1.08476 0.993856 0.996244
1.06508 1.07404 0.995621 0.996017
1.07231 1.11073 0.96879 0.996508
1.06092 1.08804 0.978825 0.996169
1.04172 1.05479 0.991298 0.996271
1.04411 1.09153 0.95989 0.99653
1.03243 1.05959 0.978082 0.996201
0.984236 1.04457 0.944631 0.997472
1.0778 1.11233 0.971684 0.997201
1.08873 1.13299 0.963548 0.997286
1.05074 1.08347 0.972122 0.997602
1.04255 1.10914 0.942702 0.997088
1.11429 1.15266 0.969424 0.997205
1.08362 1.12448 0.966472 0.997096
1.07152 1.09685 0.979885 0.996964
1.06599 1.10526 0.967444 0.996926
1.06484 1.09564 0.974989 0.996822
1.06704 1.08607 0.985811 0.996618
1.06497 1.09194 0.978479 0.996751
1.06663 1.0856 0.985916 0.996566
1.07401 1.08661 0.992063 0.996312
1.06764 1.08437 0.987965 0.996563
1.07506 1.08607 0.993557 0.996278
1.08068 1.08555 0.999574 0.995939
1.07432 1.08227 0.996419 0.996224
1.07809 1.08256 0.999963 0.995909
1.04732 1.05132 1 0.996189
1.07197 1.07642 1 0.995869
1.04805 1.052 1 0.996247
1.01388 1.01535 1 0.998547
1.04802 1.05194 1 0.996277
1.01495 1.01645 1 0.998518
0.9994 1 1 0.9994
0.9997 1 1 0.9997
1.01532 1.01687 1 0.998481
1 1 1 1
1.06895 1.08575 0.988115 0.996367
1.07383 1.08033 0.997819 0.996155
1.07595 1.08724 0.993107 0.996482
1.06805 1.07249 1 0.995854
1.07355 1.0792 0.99872 0.996038
1.06651 1.07224 0.998819 0.995831
1.06 1.06449 1 0.995787
1.04057 1.04432 1 0.996413
1.05645 1.06089 1 0.995817
1.03139 1.03492 1 0.996589
1.01029 1.01209 1 0.998218
1.02119 1.02385 1.00052 0.99688
1.00184 1.00285 1.00056 0.998438
1 1 1 1
1.00171 1 1.00289 0.998817
1 1 1 1
1 1 1 1
1.07184 1.10814 0.970286 0.996867
1.06517 1.11453 0.958604 0.996986
1.01025 1.07279 0.943864 0.997709
1.06908 1.09541 0.979445 0.996443
1.06515 1.08522 0.985184 0.996266
1.04977 1.062 0.992061 0.996393
1.07271 1.08259 0.994595 0.996258
1.07195 1.1094 0.969658 0.996483
1.05485 1.0825 0.978253 0.996126
1.03485 1.08081 0.960808 0.996531
1.07496 1.09923 0.980829 0.99703
1.07662 1.11065 0.972125 0.997158
1.08976 1.13347 0.964017 0.997324
1.07045 1.08989 0.98524 0.996871
1.08503 1.12649 0.966001 0.997099
1.07114 1.09658 0.979785 0.996949
1.06918 1.08657 0.987228 0.996734
1.06551 1.09547 0.975767 0.996805
1.06731 1.08636 0.985794 0.996621
1.0735 1.08545 0.992615 0.996344
1.06727 1.08621 0.985952 0.996565
1.07411 1.08668 0.992091 0.996311
1.08133 1.0868 0.998986 0.995975
1.07491 1.0859 0.993576 0.996276
1.08085 1.08578 0.999514 0.995942
1.04613 1.05019 1 0.996134
1.07838 1.08287 0.999937 0.995913
1.04838 1.05239 1 0.996193
1.01175 1.01325 1 0.998523
1.04953 1.05348 1 0.99625
1.01322 1.01471 1 0.998532
0.999402 1 1 0.999402
1.01445 1.01596 1 0.998515
0.999417 1 1 0.999417
1 1 1 1
1.06753 1.08518 0.987412 0.996278
1.07424 1.08493 0.993959 0.996172
1.07088 1.08701 0.988753 0.996365
1.07639 1.08078 1 0.995939
1.07444 1.08215 0.996653 0.996208
1.07403 1.08586 0.992471 0.996612
1.05102 1.05491 1 0.996318
1.06823 1.07269 1 0.995842
1.0762 1.08145 0.999108 0.996031
1.06054 1.06504 1 0.995776
1.04131 1.04506 1 0.996412
1.01619 1.01804 1 0.998182
1.03372 1.03726 1 0.99659
1.00771 1.0095 1 0.998234
1 1 1 1
1.00094 1.00148 1.00101 0.998458
1 1 1 1
1 1 1 1
1.07058 1.095 0.980882 0.996756
1.07273 1.10974 0.969718 0.996844
1.05934 1.10834 0.958677 0.996989
1.06873 1.09493 0.979538 0.99646
1.06242 1.0827 0.984946 0.996261
1.07264 1.1093 0.970394 0.996457
1.07258 1.09131 0.985929 0.996869
1.07495 1.09905 0.980986 0.997025
1.07551 1.10902 0.972584 0.997115
1.07072 1.08988 0.98548 0.996892
1.06786 1.08277 0.989502 0.996698
1.07073 1.09632 0.979663 0.996935
1.06968 1.08649 0.987791 0.996696
1.07244 1.08401 0.992862 0.996437
1.06761 1.08668 0.985778 0.996624
1.07344 1.08542 0.992591 0.996346
1.08076 1.08644 0.998769 0.995999
1.07431 1.08686 0.992114 0.996311
1.08105 1.08659 0.998912 0.995976
1.04425 1.04834 1 0.996107
1.08114 1.08613 0.99945 0.995946
1.04691 1.05097 1 0.996138
1.00929 1.01083 1 0.998471
1.04948 1.05349 1 0.996196
1.01099 1.01251 1 0.998501
0.999376 1 1 0.999376
1.01256 1.01406 1 0.998521
0.999431 1 1 0.999431
0.999427 1 1 0.999427
1.06908 1.08631 0.987551 0.996548
1.07488 1.08611 0.993507 0.996133
1.06706 1.08602 0.986185 0.996303
1.07905 1.08496 0.998556 0.995986
1.07468 1.08464 0.99464 0.996157
1.07275 1.08823 0.989368 0.996364
1.05129 1.05524 1 0.996261
1.0756 1.0806 0.999424 0.995948
1.07492 1.08395 0.995389 0.996262
1.01601 1.01784 1 0.998203
1.0496 1.05348 1 0.996317
1.06844 1.07291 1 0.995831
1.0423 1.04606 1 0.996411
1.01489 1.01673 1 0.998192
1 1 1 1
1.00557 1.00733 1 0.998251
1 1 1 1
1 1 1 1
1.06927 1.08746 0.986466 0.996759
1.0708 1.09513 0.980983 0.996744
1.07297 1.11065 0.969151 0.99682
1.06868 1.09465 0.979733 0.996477
1.06882 1.08131 0.991765 0.996655
1.07264 1.09153 0.985765 0.99688
1.07495 1.09889 0.981144 0.99702
1.07105 1.08989 0.98575 0.996913
1.06795 1.08323 0.989153 0.996707
1.07315 1.08344 0.994057 0.996421
1.0702 1.08641 0.988383 0.996659
1.0734 1.08424 0.99359 0.996385
1.07889 1.08515 0.99815 0.996079
1.0734 1.0854 0.99257 0.996348
1.08013 1.08586 0.998721 0.996001
1.04262 1.04671 1 0.996092
1.08048 1.0861 0.998841 0.995977
1.04491 1.04899 1 0.996109
1.00658 1.00849 1 0.998111
1.04754 1.0516 1 0.996141
1.0084 1.01012 1 0.998301
1 1 1 1
1.01023 1.01177 1 0.998482
0.999411 1 1 0.999411
0.999452 1 1 0.999452
1.06861 1.08249 0.990486 0.996652
1.07404 1.08565 0.993012 0.996276
1.0695 1.08577 0.988436 0.996541
1.07884 1.08492 0.998436 0.995951
1.07435 1.08566 0.993421 0.996133
1.06665 1.08692 0.984971 0.996329
1.04743 1.05145 1 0.996176
1.07898 1.08465 0.998779 0.995986
1.07519 1.08439 0.995362 0.996142
1.01256 1.01436 1 0.998225
1.04972 1.05368 1 0.996242
1.07457 1.08008 0.998932 0.995957
1 1 1 1
1.01661 1.01843 1 0.998212
1.04806 1.05193 1 0.996316
1.01348 1.0153 1 0.998203
1 1 1 1
1 1 1 1
1.06746 1.07947 0.992187 0.996659
1.07005 1.08781 0.986867 0.996765
1.07088 1.09512 0.981076 0.996733
1.07412 1.08319 0.995249 0.996362
1.068 1.08101 0.991273 0.996666
1.0727 1.09178 0.985589 0.996892
1.06797 1.08367 0.988758 0.996717
1.07304 1.08345 0.993951 0.996422
1.07835 1.08442 0.998318 0.996082
1.07427 1.0844 0.994309 0.996333
1.07901 1.08496 0.99847 0.996038
1.04073 1.04481 1 0.996097
1.07958 1.08537 0.998656 0.996003
1.04321 1.04731 1 0.996093
1.00451 1.00643 1 0.998101
1.04582 1.04991 1 0.996111
1.00599 1.00789 1 0.99811
1 1 1 1
1.00756 1.00948 1 0.998103
0.999678 1 1 0.999678
0.999442 1 1 0.999442
1.065 1.07709 0.992129 0.996619
1.07473 1.08392 0.995136 0.996363
1.0681 1.08184 0.9906 0.99666
1.07857 1.08399 0.999045 0.995948
1.07464 1.08596 0.993289 0.996263
1.06984 1.08515 0.989317 0.996534
1.04418 1.04825 1 0.996116
1.079 1.08459 0.998904 0.995932
1.07375 1.08517 0.993315 0.996134
1.0091 1.01092 1 0.998202
1.04659 1.05061 1 0.996167
1.07882 1.08431 0.998944 0.995987
1 1 1 1
1.0137 1.01549 1 0.998233
1.04847 1.05244 1 0.996223
1 1 1 1
1.01725 1.01907 1 0.998222
1 1 1 1
1.07487 1.08353 0.995597 0.996397
1.06675 1.07884 0.99212 0.996646
1.07079 1.08809 0.987287 0.996771
1.07829 1.0842 0.998469 0.996075
1.07367 1.08311 0.994888 0.99638
1.06719 1.08071 0.990782 0.996676
1.07295 1.08345 0.993861 0.996422
1.07778 1.08391 0.998252 0.996083
1.03812 1.04218 1 0.996107
1.07917 1.08481 0.998796 0.995997
1.04138 1.04547 1 0.996086
1.00275 1.00468 1 0.998083
1.04368 1.04777 1 0.996093
1.00393 1.00584 1 0.998099
1 1 1 1
1.00528 1.00718 1 0.998108
1 1 1 1
0.999414 1 1 0.999414
1.07491 1.08336 0.995823 0.99637
1.06408 1.07698 0.991359 0.996635
1.07838 1.08359 0.99918 0.996008
1.07512 1.08434 0.995116 0.996362
1.0676 1.08123 0.990696 0.996668
1.04166 1.04573 1 0.996106
1.07883 1.08414 0.999154 0.995944
1.07535 1.08637 0.993581 0.996251
1.00621 1.00807 1 0.998149
1.0439 1.04798 1 0.996112
1.07919 1.08429 0.999382 0.995913
1 1 1 1
1.01003 1.01184 1 0.998208
1.04582 1.04985 1 0.996157
1 1 1 1
1.01479 1.01658 1 0.998241
1 1 1 1
1.07837 1.08401 0.998703 0.99609
1.07492 1.08343 0.995751 0.996386
1.06604 1.0782 0.992064 0.996632
1.03604 1.04007 1 0.996127
1.07774 1.08368 0.998442 0.996076
1.07318 1.08299 0.994526 0.996399
1.07723 1.0834 0.998214 0.996083
1.03887 1.04294 0.999993 0.996104
1.0014 1.00332 1 0.998085
1.04202 1.04612 1 0.996075
1.00234 1.00426 1 0.998081
1 1 1 1
1.00339 1.0053 1 0.998098
1 1 1 1
1 1 1 1
1.07896 1.084 0.999309 0.996041
1.07451 1.0834 0.995352 0.99642
1.06322 1.07693 0.990585 0.996651
1.03935 1.04339 1 0.996129
1.07867 1.08381 0.999251 0.996005
1.07548 1.08473 0.995098 0.996361
1.00365 1.00555 1 0.998113
1.04101 1.04508 1 0.996104
1.07903 1.08423 0.999262 0.995941
1 1 1 1
1.00698 1.00885 1 0.998152
1.0436 1.04768 1 0.996108
1 1 1 1
1.01091 1.01272 1 0.998213
1 1 1 1
1.03574 1.03976 1 0.996132
1.07787 1.08359 0.998628 0.996092
1.075 1.08336 0.995894 0.996376
1.00027 1.00215 1 0.998124
1.03669 1.04072 1 0.996123
1.07721 1.08317 0.998411 0.996077
1.0396 1.0437 0.999968 0.9961
1.00104 1.00296 1 0.998086
1 1 1 1
1.00194 1.00387 1 0.99808
1 1 1 1
1 1 1 1
1.03696 1.04098 1 0.996143
1.07844 1.08373 0.999044 0.996073
1.07406 1.0834 0.994887 0.996469
1.00174 1.00329 1 0.998455
1.03862 1.04266 1 0.996129
1.07886 1.08392 0.999323 0.996001
1 1 1 1
1.00436 1.00625 1 0.998114
1.04039 1.04446 1 0.996101
1 1 1 1
1.00776 1.00962 1 0.998156
1 1 1 1
0.999656 1.00156 1 0.998103
1.03578 1.0398 1 0.996136
1.07739 1.08318 0.998557 0.996093
1 1 1 1
1.00005 1.00193 1 0.998122
1.03735 1.04139 1 0.99612
1.00068 1.0026 1 0.998085
1 1 1 1
1 1 1 1
1.00034 1.00191 1 0.998436
1.03681 1.04082 1 0.996144
1.07801 1.08355 0.998778 0.996105
1 1 1 1
1.00209 1.00398 1 0.998116
1.03809 1.04213 1 0.996128
1 1 1 1
1.00504 1.00694 1 0.998115
1 1 1 1
0.999418 1 1 0.999418
0.99988 1.00159 1 0.998291
1.03579 1.0398 1 0.996141
1 1 1 1
0.99981 1.00169 1 0.998124
1 1 1 1
0.999424 1 1 0.999424
1.00055 1.00227 1 0.998288
1.03653 1.04054 1 0.996145
0.999703 1 1 0.999703
1.00268 1.00457 1 0.998119
1 1 1 1
1 1 1 1
0.999784 1.00164 1 0.998145
1 1 1 1
0.999713 1 1 0.999713
1.00081 1.00268 1 0.998142
1 1 1 1
1 1 1 1
1 1 1 1

VECTORS lamdaE float
1.00273 0.99983 0.992359
1.00219 1.00073 0.996148
1.00216 1.00001 0.992783
1.00242 1.00012 0.992434
1.00265 0.999867 0.99242
1.00278 0.999952 0.992225
1.00353 1.00072 0.989498
1.00225 1.00081 0.99608
1.00179 1.00005 0.99685
1.00148 1.00078 0.996846
1.00185 1.00128 0.99184
1.00348 1.00156 0.987427
1.00176 0.99996 0.993325
1.00143 1.00009 0.993556
1.00163 1.00022 0.99318
1.00199 1.00013 0.992879
1.0021 1.00031 0.992621
1.00217 0.999921 0.992852
1.00379 1.00063 0.989264
1.00183 1.00001 0.996456
1.00223 1.00015 0.992608
1.00253 1 0.992425
1.00344 1.00029 0.990118
1.00352 1.00047 0.989789
1.00267 1.00023 0.992053
1.00349 1.0012 0.989049
1.00538 1.00141 0.985145
1.00232 1.00085 0.996002
1.00208 0.999952 0.99478
1.00187 1.00047 0.994716
1.00222 1.00126 0.995928
1.00345 1.00164 0.987385
1.00227 0.999846 0.992709
1.00229 0.999922 0.992661
1.00382 1.00043 0.98994
1.00063 1.00271 0.996685
1.00374 1.00107 0.989565
1.00352 1.00223 0.98665
1.00529 1.00293 0.983227
1.00079 1.00108 0.996951
1.00179 0.999985 0.996477
1.00172 1.00004 0.994962
1.00171 0.999962 0.99654
1.00126 1.00008 0.993765
1.00341 0.999861 0.989472
1.00167 1 0.996848
1.00377 1.00019 0.990326
1.00158 1.00009 0.993323
1.0017 0.999961 0.993271
1.0015 1.00065 0.993001
1.00403 1.00052 0.989045
1.00161 1.00004 0.995061
1.0018 1.00019 0.993053
1.00207 1.00069 0.992391
1.0021 0.999996 0.992864
1.00366 1.00024 0.989876
1.0038 1.00103 0.988824
1.00376 1.0004 0.989551
1.00539 1.00136 0.985262
1.00172 0.999991 0.996511
1.00207 1.00009 0.992871
1.00318 0.999934 0.991255
1.00333 1.00019 0.990358
1.00348 1.00035 0.989995
1.00531 0.999804 0.98697
1.00537 1.00018 0.986344
1.00274 1.00071 0.991541
1.00339 1.00216 0.988222
1.00539 1.00224 0.984195
1.00537 0.998998 0.986854
1.00248 0.999921 0.99622
1.00212 1.00131 0.995972
1.0023 1.00041 0.996182
1.00342 1.00168 0.987342
1.00234 0.999911 0.996216
1.00243 1.00003 0.99623
1.00366 1.00043 0.988346
1.00097 1.00198 0.994425
1.00352 1.00101 0.987944
1.00353 1.0025 0.987645
1.00531 1.00286 0.983191
1.00119 1.00143 0.9965
1.00144 1.00306 0.989419
1.00377 1.00031 0.988377
1.0038 1.00047 0.988129
1.00533 1.00021 0.98598
1.00287 1.00342 0.988958
1.00536 1.0017 0.984334
1.00466 1.004 0.982849
1.00543 1.00131 0.98435
1.00047 1.00037 0.997411
1.00059 1.00091 0.997123
1.00212 1 0.996276
1.00186 0.999983 0.996444
1.00175 0.999966 0.996534
1.0016 1 0.995108
1.00344 0.99986 0.990204
1.00192 1 0.994834
1.00363 1.0002 0.989595
1.00173 0.999968 0.996548
1.00326 0.99972 0.989778
1.00366 1.00005 0.990614
1.00539 0.998235 0.988076
1.00376 1.00025 0.990196
1.00538 0.998749 0.987553
1.00178 0.999958 0.993302
1.00137 1.00022 0.9935
1.00142 1.00112 0.992718
1.00167 0.99997 0.993302
1.00386 1.00022 0.989637
1.00398 1.00035 0.989319
1.00406 1.00093 0.988607
1.0054 1.00132 0.985375
1.00177 0.999972 0.996528
1.00166 1.00009 0.993313
1.0034 0.999818 0.990094
1.00354 1.00016 0.990114
1.0023 1.00135 0.993699
1.00371 1.00193 0.988451
1.0037 1.0003 0.989755
1.00532 0.999513 0.987332
1.0054 1.00224 0.984334
1.00538 1.00046 0.986143
1.00536 0.999031 0.98687
1.00328 0.999758 0.989717
1.00324 0.999963 0.990683
1.0054 0.998021 0.988782
1.00534 0.9988 0.988011
1.00531 0.999633 0.987175
1.00535 0.996382 0.989831
1.0015 1.00171 0.996268
1.00538 0.997857 0.987947
1.00336 1.00312 0.986128
1.00544 1.00331 0.982344
1.00537 1.00021 0.9857
1.00534 0.996152 0.989528
1.00189 1.00365 0.987932
1.00329 1.00445 0.985536
1.00241 0.999906 0.996217
1.00248 1.00008 0.996216
1.00365 1.00045 0.988321
1.00136 1.0016 0.996422
1.00309 1.00275 0.986813
1.00358 1.00092 0.98792
1.00536 1.00282 0.983148
1.00101 1.00145 0.996695
1.0015 1.0032 0.989404
1.00378 1.00036 0.989203
1.00383 1.00056 0.988923
1.00533 1.00023 0.985943
1.0023 1.00349 0.987261
1.00535 1.00173 0.984294
1.00497 1.00365 0.982825
1.00541 1.00105 0.984643
1.00188 1.00332 0.988405
1.00115 1.00266 0.99058
1.00248 1.00357 0.986824
1.00529 0.999637 0.986667
1.00536 1.00089 0.985192
1.00537 0.997324 0.988679
1.00367 1.00409 0.984288
1.00531 0.999347 0.986676
1.00544 1.00318 0.982885
1.00548 0.998727 0.986531
1.00027 0.999619 0.997904
1.00029 1.00024 0.997627
1.00035 1.00083 0.997325
1.00144 1.0034 0.989166
1.00088 1.00151 0.996739
1.0023 0.999947 0.996221
1.00195 0.999995 0.996356
1.00343 1.00025 0.988925
1.00328 0.999867 0.989566
1.00174 0.999964 0.99652
1.0017 0.99996 0.99655
1.00324 0.99973 0.989777
1.00353 1.00003 0.989902
1.00537 0.998243 0.988088
1.00358 1.00032 0.988636
1.00536 0.998763 0.987546
1.00323 0.999688 0.989822
1.00538 0.998175 0.988152
1.00539 0.998411 0.987872
1.00528 0.994957 0.991715
1.00532 0.999168 0.987167
1.00522 0.995296 0.991307
1.00172 0.99997 0.996536
1.0012 1.00017 0.993754
1.00343 0.999764 0.989107
1.00376 1.00014 0.98987
1.00135 1.0022 0.996404
1.00405 1.00137 0.988685
1.00391 1.00027 0.989517
1.00533 0.999214 0.987694
1.00538 1.00073 0.98594
1.0054 1.00217 0.984481
1.00534 0.99906 0.986885
1.00326 0.999751 0.989721
1.00343 0.999986 0.990443
1.0054 0.997936 0.988623
1.00536 0.999115 0.987647
1.00178 1.00168 0.996086
1.00337 1.00285 0.987244
1.00531 1.00356 0.982792
1.00531 0.999658 0.98713
1.00531 0.996135 0.990211
1.00536 1.0001 0.985794
1.00539 0.998142 0.987794
1.00534 0.996197 0.989507
1.00201 1.0035 0.987916
1.00304 1.00432 0.985471
1.00539 0.998324 0.987989
1.00541 0.99837 0.988419
1.00529 0.995758 0.990825
1.00534 0.995494 0.990918
1.00537 0.997248 0.988802
1.00529 0.994943 0.991131
1.00273 1.00349 0.986735
1.00534 0.995268 0.990521
1.00544 1.00407 0.982114
1.00546 1.00128 0.984154
1.00537 0.997889 0.987861
1.00534 0.995313 0.99043
1.00394 1.00419 0.984078
1.00214 1.00393 0.987839
1.00462 1.00383 0.983825
1.0036 1.0004 0.988462
1.00078 1.00135 0.996846
1.00137 1.00332 0.989394
1.00365 1.00056 0.988158
1.00533 1.00024 0.985908
1.00244 1.00347 0.987332
1.00533 1.0033 0.982798
1.00533 1.00177 0.984253
1.00539 1.00077 0.984941
1.00176 1.00345 0.988433
1.00089 1.00281 0.99058
1.00256 1.00406 0.986839
1.00529 0.999655 0.986633
1.00535 1.00092 0.985156
1.00535 0.997285 0.98869
1.00412 1.00371 0.98424
1.00532 0.999456 0.986563
1.00545 1.00309 0.982798
1.00546 0.998353 0.986853
1.00067 1.00229 0.991627
1.0031 1.00372 0.985892
1.00196 1.00472 0.98715
1.00277 1.00134 0.987657
1.00534 0.996363 0.989766
1.00533 0.998435 0.987526
1.00532 0.995143 0.99057
1.00501 1.00446 0.982084
1.00537 0.996514 0.989262
1.00532 1.00109 0.985034
1.0055 0.996979 0.988212
1.00043 1.00389 0.990545
1.00027 1.00134 0.993216
1.00023 0.999099 0.998142
1.00021 0.999502 0.997998
1.0002 1 0.997809
1.001 1.00279 0.990502
1.0005 1.00108 0.997115
1.00151 1.00331 0.989095
1.00111 1.0016 0.996568
1.00354 1.00035 0.988647
1.00338 1.00002 0.989255
1.00533 0.998779 0.987546
1.00536 0.998256 0.988101
1.00324 0.999744 0.989781
1.00175 0.999949 0.996548
1.00325 0.999687 0.989829
1.00537 0.998185 0.988158
1.00538 0.998429 0.98788
1.00528 0.994958 0.991718
1.00531 0.999181 0.98715
1.00526 0.995229 0.991309
1.00538 0.998216 0.988108
1.0053 0.99496 0.991714
1.00526 0.995034 0.991627
1.00509 0.994974 0.991808
1.00524 0.995712 0.990682
1.00517 0.99495 0.991552
1.00327 0.99975 0.989731
1.00365 0.99995 0.990202
1.00541 0.997823 0.988474
1.00538 0.999419 0.987283
1.00195 1.00177 0.99592
1.00363 1.0028 0.988101
1.00512 1.00358 0.983229
1.00532 0.999669 0.987084
1.00528 0.995884 0.990591
1.00539 0.998429 0.987642
1.00537 1.00001 0.985885
1.00535 0.996253 0.989485
1.00214 1.00339 0.987902
1.0029 1.00418 0.985411
1.0054 0.997986 0.988336
1.00541 0.998347 0.988419
1.00529 0.995744 0.990817
1.0053 0.995867 0.990542
1.00269 1.00353 0.986683
1.00501 1.00407 0.982137
1.00551 1.00155 0.983905
1.00537 0.997287 0.988763
1.00531 0.994942 0.991135
1.00538 0.99765 0.988132
1.00533 0.995295 0.990485
1.00534 0.995298 0.99032
1.0039 1.00438 0.984055
1.00422 1.00401 0.983653
1.00187 1.00398 0.9878
1.00529 0.99567 0.990949
1.00531 0.99591 0.990525
1.00506 0.994993 0.991897
1.0052 0.994963 0.991405
1.00536 0.994956 0.99087
1.0053 0.994943 0.990973
1.00474 1.00396 0.982946
1.00533 0.994915 0.990708
1.00564 1.00318 0.982233
1.00546 0.999261 0.986066
1.00533 0.996524 0.989252
1.00539 0.995125 0.990414
1.00205 1.00308 0.988479
1.00533 1.00454 0.981749
1.00228 1.00402 0.98635
1.00515 1.00431 0.982064
1.0053 0.99967 0.9866
1.00072 1.00299 0.990579
1.00164 1.00365 0.988462
1.00255 1.00412 0.986843
1.00533 1.00094 0.98512
1.00534 0.997249 0.988701
1.00444 1.00326 0.984198
1.00544 1.0031 0.982702
1.00534 0.999571 0.986451
1.00543 0.997992 0.987178
1.00052 1.00239 0.991636
1.00332 1.00342 0.986043
1.00177 1.00481 0.987001
1.00338 1.00152 0.987745
1.00534 0.996311 0.989781
1.00534 0.998392 0.987524
1.00533 0.995126 0.990605
1.0052 1.00463 0.981924
1.00535 0.996791 0.98898
1.00531 1.0009 0.98503
1.00551 0.996814 0.988542
1.00042 1.002 0.992347
1.00182 1.00511 0.987336
1.00366 1.00384 0.98432
1.00335 1.00254 0.987163
1.003 1.00178 0.988385
1.00532 0.994883 0.990939
1.00533 0.995723 0.989908
1.00535 0.99486 0.99063
1.00516 1.00353 0.982918
1.00543 0.99546 0.989962
1.0052 0.999218 0.986687
1.00081 1.00447 0.989267
1.00028 1.00509 0.989635
1.00015 1.00317 0.991566
1.00022 1.00398 0.990551
1.00021 1.00038 0.994997
1.00023 1.00117 0.993769
1.00039 0.998248 0.9965
1.0002 0.999028 0.998222
1.00019 0.999471 0.998064
1.00048 1.00236 0.991675
1.00016 1.00048 0.997624
1.00109 1.00273 0.990415
1.00067 1.00118 0.996983
1.00156 1.00322 0.989029
1.00135 1.00161 0.99638
1.00529 0.999196 0.98713
1.00536 0.998445 0.987885
1.0053 0.995183 0.991311
1.00528 0.994959 0.99172
1.00537 0.998196 0.988164
1.00324 0.999678 0.989832
1.00538 0.998223 0.988107
1.0053 0.994958 0.991712
1.00526 0.995016 0.991635
1.00509 0.994975 0.991785
1.00529 0.995643 0.990686
1.00516 0.99495 0.991563
1.0053 0.99497 0.991711
1.00511 0.99496 0.991793
1.00509 0.994982 0.991757
1.00526 0.994953 0.991511
1.00528 0.99489 0.991227
1.00527 0.994946 0.991155
1.0054 0.997648 0.988681
1.0054 0.998341 0.988419
1.00529 0.995742 0.990808
1.00526 0.996245 0.990167
1.0027 1.00346 0.986626
1.00476 1.00445 0.982162
1.00554 1.00176 0.983662
1.00538 0.997318 0.988724
1.00532 0.994942 0.991139
1.00531 0.995316 0.990448
1.00538 0.997391 0.988402
1.00535 0.995271 0.990209
1.00374 1.00453 0.984036
1.00386 1.00456 0.983482
1.00176 1.00427 0.98776
1.00529 0.995333 0.991318
1.0053 0.995921 0.99053
1.00507 0.994991 0.991843
1.00521 0.994963 0.991422
1.00455 1.00419 0.983014
1.00562 1.0032 0.982323
1.00549 0.999425 0.985745
1.00535 0.995005 0.99078
1.0053 0.994949 0.990938
1.00532 0.996381 0.989256
1.00534 0.994914 0.990692
1.00538 0.995087 0.990444
1.00506 1.00466 0.98179
1.00506 1.00471 0.981901
1.00213 1.0031 0.988533
1.00238 1.00415 0.986822
1.00507 0.994993 0.991896
1.00512 0.994974 0.991603
1.00523 0.994979 0.991541
1.00528 0.994946 0.991049
1.00532 0.994924 0.990787
1.00533 0.994958 0.990766
1.00557 1.00451 0.981213
1.00539 0.994875 0.990524
1.00549 1.00147 0.98385
1.0054 0.998366 0.986873
1.0053 0.995907 0.9897
1.00539 0.99492 0.990512
1.00256 1.00383 0.987174
1.0024 1.00134 0.989137
1.00532 1.00487 0.981169
1.00285 1.00467 0.985836
1.00475 1.00527 0.981778
1.00035 1.00243 0.991649
1.00533 0.996259 0.989797
1.00199 1.00511 0.986852
1.00324 1.00337 0.986207
1.00373 1.00159 0.987834
1.00535 0.998349 0.987522
1.00534 0.995107 0.990639
1.00531 1.00447 0.981771
1.00532 1.00075 0.985022
1.00534 0.997063 0.988698
1.00552 0.996655 0.988869
1.00034 1.00197 0.992376
1.00155 1.00512 0.987343
1.00411 1.00363 0.984421
1.00311 1.00277 0.987043
1.00346 1.00139 0.987373
1.00532 0.994881 0.99097
1.00533 0.995687 0.989942
1.00534 0.994857 0.990639
1.00517 1.00356 0.98288
1.00545 0.995584 0.989791
1.0052 0.999279 0.986995
1.00128 1.00499 0.988122
1.00317 1.00506 0.986059
1.00369 1.00409 0.984292
1.00394 1.0023 0.986509
1.00459 1.0026 0.985815
1.00533 0.994846 0.990826
1.00536 0.994947 0.990376
1.00531 0.994842 0.990496
1.00503 1.0013 0.984849
1.00519 0.997694 0.988022
1.00067 1.00463 0.989274
1.00058 1.00513 0.988802
0.999626 1.00509 0.989727
1.00035 1.00459 0.990629
1.00023 1.00466 0.990566
1.00003 1.00274 0.992169
0.999988 1.00338 0.991584
1.00007 0.999986 0.995551
1.00006 1.00421 0.990556
1.00018 1.00035 0.995088
1.00029 0.997724 0.997014
1.0002 1.00109 0.994308
1.00021 0.99842 0.997516
1.00014 0.998837 0.998308
0.999842 1.0023 0.992692
1.00063 1.00205 0.991751
0.999988 0.999801 0.998122
1.00038 1.00052 0.997411
1.00122 1.00258 0.990335
1.00083 1.00129 0.99685
1.00533 0.995572 0.990689
1.00527 0.994979 0.991642
1.00514 0.994949 0.991574
1.0051 0.994976 0.991762
1.00531 0.994956 0.991709
1.00539 0.998226 0.988106
1.0053 0.994968 0.991706
1.00511 0.994962 0.991799
1.00509 0.994983 0.991757
1.00526 0.994952 0.991482
1.00526 0.994886 0.991249
1.00526 0.994943 0.991163
1.0051 0.994968 0.991836
1.00528 0.994957 0.991562
1.00524 0.99496 0.991373
1.0053 0.994937 0.991425
1.0053 0.994912 0.991005
1.00531 0.994938 0.991069
1.00529 0.994995 0.991689
1.0053 0.995935 0.990535
1.00508 0.99499 0.99179
1.00523 0.994963 0.991439
1.00423 1.00441 0.983083
1.0056 1.00326 0.982406
1.00553 0.999549 0.985429
1.00533 0.995061 0.99069
1.00531 0.994954 0.990902
1.00535 0.994913 0.990676
1.00532 0.996237 0.989259
1.00537 0.995051 0.990476
1.00468 1.00484 0.981829
1.00494 1.00499 0.981736
1.00217 1.0029 0.988573
1.00194 1.00342 0.987305
1.00507 0.994993 0.991897
1.00513 0.994975 0.991645
1.00522 0.994978 0.991504
1.00529 0.994946 0.991048
1.00551 1.00446 0.981304
1.00551 1.00162 0.983672
1.0054 0.99837 0.986849
1.00532 0.99492 0.990824
1.00532 0.994954 0.99077
1.0053 0.995861 0.989712
1.00539 0.994874 0.990512
1.00537 0.994876 0.990635
1.00527 1.00486 0.981252
1.00472 1.00537 0.981792
1.0027 1.00463 0.985804
1.00212 1.00377 0.987514
1.00213 1.00176 0.989055
1.00526 0.99497 0.991498
1.00528 0.994959 0.991304
1.00534 0.994923 0.99078
1.00535 0.994944 0.990604
1.00543 1.00375 0.982098
1.00535 0.994838 0.990485
1.00538 1.00068 0.984161
1.00533 0.99784 0.98744
1.00535 0.995274 0.989927
1.00085 1.00501 0.988457
1.00303 1.00365 0.987097
1.00382 1.00016 0.988179
1.00502 1.00486 0.98199
1.00323 1.00589 0.984004
1.00452 1.0055 0.982409
1.00028 1.00201 0.992403
1.00132 1.00515 0.987351
1.00533 0.99488 0.991
1.00261 1.00312 0.986921
1.00496 1.00367 0.984524
1.00399 1.00087 0.986374
1.00533 0.995655 0.989975
1.00533 0.994855 0.990648
1.00515 1.00355 0.98286
1.0052 0.99937 0.987307
1.00547 0.995685 0.989619
1.0012 1.00504 0.988126
1.00246 1.00508 0.986074
1.00423 1.00442 0.983308
1.00394 1.00174 0.986664
1.00434 1.00196 0.985681
1.00533 0.994849 0.990827
1.00538 0.994955 0.990369
1.00534 0.994831 0.990462
1.00502 1.00128 0.985121
1.00519 0.997808 0.9879
1.00219 1.00511 0.987132
1.00173 1.00513 0.986278
1.00454 1.00275 0.984801
1.00235 1.00183 0.986051
1.00521 1.00126 0.986378
1.00534 0.994816 0.990651
1.00541 0.995535 0.989461
1.00538 0.994878 0.9899
1.00504 0.999804 0.986621
1.0051 0.998628 0.987452
1.00056 1.00467 0.989283
1.00089 1.00512 0.988653
0.999324 1.00395 0.99147
0.999429 1.00509 0.989801
0.999766 1.00474 0.990543
0.999421 1.00473 0.990869
0.999726 1.00339 0.992064
0.9993 1.00506 0.990819
0.999724 1.00442 0.991081
1.00006 1.00253 0.992323
1.00004 1.00266 0.99216
1.00003 0.999648 0.995901
0.999887 1.00336 0.991595
1.00011 0.999845 0.995613
1.00021 0.997491 0.997362
1.00019 1.0002 0.995181
1.00025 0.997797 0.996985
0.999986 0.998554 0.998553
0.999859 1.00131 0.993703
1.00009 1.00199 0.992716
0.999789 0.999249 0.998474
1.00093 1.00178 0.991815
1.00015 0.999833 0.997943
1.00056 1.00074 0.997227
1.00524 0.994881 0.991271
1.0051 0.994984 0.991758
1.00526 0.994939 0.991172
1.00525 0.994949 0.991452
1.00511 0.994964 0.991805
1.00531 0.994965 0.991701
1.00509 0.994968 0.991869
1.00528 0.994958 0.991556
1.00524 0.994961 0.991389
1.0053 0.994933 0.991407
1.0053 0.994915 0.991008
1.00531 0.994933 0.991034
1.00527 0.994964 0.991532
1.00533 0.994942 0.991443
1.0053 0.994925 0.991334
1.00535 0.994876 0.990774
1.00507 0.994993 0.991897
1.00513 0.994975 0.991687
1.00522 0.994976 0.991467
1.00529 0.994947 0.991047
1.00548 1.00438 0.981398
1.00553 1.00177 0.98349
1.00539 0.998396 0.986824
1.00532 0.994916 0.99086
1.00531 0.994952 0.990774
1.00538 0.994873 0.9905
1.0053 0.995821 0.989723
1.00535 0.994834 0.990757
1.00536 1.00492 0.981332
1.00447 1.0053 0.981807
1.00332 1.00457 0.985767
1.0018 1.00366 0.987878
1.0023 1.00245 0.98896
1.00525 0.99497 0.991492
1.00528 0.994959 0.991318
1.00534 0.994932 0.990799
1.00545 1.00387 0.982108
1.00538 1.0009 0.984088
1.00532 0.997722 0.987449
1.00535 0.994946 0.990622
1.00534 0.995228 0.990086
1.00536 0.994831 0.990508
1.00048 1.00475 0.988753
1.00491 1.00472 0.982021
1.0044 1.00532 0.98218
1.00352 1.00537 0.983988
1.00363 1.00055 0.988699
1.00329 1.00317 0.986686
1.00532 0.994949 0.991389
1.00534 0.994928 0.991082
1.00535 0.99492 0.990611
1.00532 0.994915 0.990466
1.00519 1.00341 0.982957
1.00532 0.994764 0.990479
1.00521 1.00071 0.984839
1.00533 0.996844 0.987905
1.00012 1.00337 0.990529
1.00156 1.00541 0.987453
1.0045 1.00211 0.986721
1.00343 1.00392 0.985278
1.00443 1.00376 0.984009
1.00482 1.00548 0.981654
1.00105 1.0051 0.98813
1.00183 1.00509 0.986089
1.00533 0.994853 0.990828
1.00396 1.00127 0.986807
1.00494 1.00479 0.982309
1.00371 1.00235 0.98554
1.0054 0.99497 0.990361
1.00537 0.994819 0.990428
1.005 1.00133 0.985394
1.00518 0.997932 0.987779
1.0017 1.0051 0.987202
1.00252 1.00508 0.985871
1.00447 1.00297 0.984549
1.00353 1.00282 0.985666
1.00512 1.0015 0.985886
1.00535 0.99482 0.990647
1.00541 0.995408 0.989707
1.00536 0.995013 0.990084
1.00505 0.999706 0.986626
1.00502 0.998961 0.987184
0.999855 1.00486 0.98861
0.999586 1.00509 0.98803
1.00487 1.00034 0.98663
1.00406 1.00046 0.987384
1.00544 0.994759 0.990465
1.00534 0.994766 0.990415
1.00526 0.997389 0.987882
1.00519 0.999182 0.986664
1.00126 1.0051 0.988507
0.999526 1.00449 0.991094
0.997773 1.00431 0.994238
0.999419 1.00496 0.990527
0.998312 1.0051 0.991104
0.999798 1.00439 0.991027
0.999204 1.00391 0.992445
0.999414 1.00508 0.990909
0.998903 1.00095 0.995649
0.999294 1.0051 0.991132
0.999201 1.00501 0.990706
0.999965 1.0043 0.990839
0.999974 1.00263 0.992305
1.00001 1.00256 0.992303
0.999957 0.999487 0.996092
0.999982 1.00275 0.992154
1.00004 0.999579 0.995929
1.00011 0.997405 0.997546
1.00011 0.999747 0.995673
1.00017 0.997548 0.997336
1.00015 0.997914 0.996943
1.00016 1.00025 0.994388
0.99987 1.00146 0.993618
0.999794 0.998512 0.998675
1.00014 1.00185 0.992745
0.999906 0.999331 0.998361
1.00033 0.999796 0.997733
1.00531 0.994917 0.991011
1.00524 0.994962 0.991404
1.00532 0.994928 0.991
1.00529 0.994931 0.991388
1.00528 0.99496 0.99155
1.00509 0.994968 0.991903
1.00527 0.994962 0.991549
1.00532 0.99494 0.991437
1.0053 0.99493 0.991286
1.00534 0.994875 0.990807
1.00534 0.994944 0.991442
1.00531 0.994915 0.991412
1.00535 0.994883 0.991035
1.00525 0.994971 0.991485
1.00528 0.994959 0.991332
1.00534 0.994936 0.990818
1.00541 1.00391 0.982124
1.00538 1.00116 0.984018
1.00532 0.997597 0.987457
1.00535 0.994946 0.990641
1.00538 0.994838 0.990531
1.00534 0.995151 0.990247
1.00485 1.00463 0.98205
1.00473 1.0053 0.981966
1.00364 1.00542 0.983973
1.00053 1.00472 0.98905
1.00318 1.00099 0.98921
1.00309 1.00262 0.98627
1.00533 0.994954 0.991399
1.00534 0.994919 0.991046
1.00535 0.994919 0.99062
1.00521 1.00328 0.98291
1.00518 1.00061 0.984919
1.00534 0.996757 0.988209
1.00533 0.994917 0.990441
1.00534 0.994784 0.990439
1.00007 1.00373 0.990771
1.0014 1.00539 0.987404
1.00445 1.0034 0.983774
1.00457 1.00543 0.982037
1.00359 1.00422 0.985352
1.00406 1.00124 0.987099
1.00534 0.99492 0.991324
1.00539 0.994896 0.990706
1.00535 0.994885 0.990473
1.00529 0.994798 0.990333
1.00446 1.00208 0.98489
1.00534 0.994835 0.990102
1.00481 0.999992 0.986247
1.00012 1.00265 0.992084
1.0001 1.00318 0.991745
0.999812 1.00526 0.989235
1.00141 1.00519 0.987167
1.00267 1.00498 0.987092
1.00509 1.00329 0.983297
1.00359 1.00328 0.985682
1.00455 1.00249 0.986265
1.00136 1.00512 0.987278
1.0033 1.00513 0.985465
1.00535 0.994822 0.990643
1.00467 1.0029 0.985292
1.00442 1.0031 0.984299
1.00526 1.00167 0.985406
1.00541 0.99526 0.989953
1.00535 0.995147 0.990268
1.00507 0.999583 0.98663
1.00494 0.999247 0.986915
1.00078 1.00459 0.98818
1.00102 1.00517 0.987394
1.00489 1.00042 0.986334
1.00449 1.00108 0.986981
1.00542 0.99477 0.99047
1.00538 0.994787 0.990409
1.0052 0.997324 0.987971
1.00519 0.999315 0.986667
0.998389 1.00463 0.991716
1.00547 0.99475 0.990755
1.0023 1.00487 0.988362
1.00474 0.999378 0.987304
1.00536 0.994764 0.990697
1.00508 0.996936 0.987591
1.00508 1.00046 0.986042
0.999572 1.00455 0.990721
0.998071 1.0037 0.994353
0.99626 1.00382 0.996792
0.999644 1.00425 0.990972
0.999274 1.00509 0.990996
0.997813 1.00508 0.992855
0.999985 1.0041 0.990826
0.999353 1.005 0.990781
0.997334 1.00258 0.996232
0.999391 1.00499 0.991001
0.997204 1.00153 0.998358
0.997302 1.0043 0.994401
0.99921 1.00505 0.991201
1.00023 1.0048 0.989778
1.0003 1.00393 0.990506
1.00002 1.00253 0.992322
0.999981 1.00263 0.992285
0.999833 0.999563 0.996253
0.999951 1.00267 0.992284
0.999965 0.99953 0.996105
0.999985 0.997564 0.99767
1.00005 0.999505 0.995963
1.00011 0.997472 0.997534
1.00019 0.997606 0.997303
1.00015 1.00192 0.99278
1.00004 0.999745 0.994946
1.00009 1.00034 0.994345
0.999932 0.998158 0.99878
0.999879 1.00136 0.993535
0.999825 0.998828 0.998625
1.00006 0.999278 0.998235
1.00532 0.994873 0.99084
1.00531 0.994935 0.991238
1.00531 0.994938 0.99143
1.00527 0.994959 0.991566
1.00534 0.994943 0.991437
1.00531 0.994909 0.991407
1.00534 0.994885 0.990975
1.00534 0.994917 0.991375
1.00532 0.994877 0.991407
1.00561 0.994718 0.99124
1.00533 0.994957 0.99141
1.00534 0.994918 0.991011
1.00535 0.994922 0.990629
1.0053 1.00309 0.982866
1.00516 1.00053 0.98501
1.00533 0.996689 0.988504
1.00534 0.994911 0.990414
1.00535 0.994806 0.990399
1.00433 1.00384 0.983534
1.00421 1.00503 0.982394
1.00338 1.00546 0.985431
1.00024 1.00354 0.99102
1.00091 1.00539 0.987352
1.00388 1.00061 0.987472
1.00533 0.994923 0.991307
1.00022 1.0025 0.992044
0.999873 1.00349 0.991625
1.00539 0.994893 0.990712
1.00536 0.99489 0.99049
1.00467 1.00218 0.984849
1.00499 0.999466 0.986678
1.00528 0.994961 0.990058
1.00528 0.994829 0.990281
1.00033 1.00498 0.989406
1.00167 1.00518 0.987092
1.00325 1.00408 0.985338
1.00457 1.00255 0.984602
1.00474 1.00434 0.982882
1.0023 1.0035 0.98771
1.0054 0.994854 0.991184
1.0054 0.995068 0.990383
1.00534 0.994879 0.990462
1.00524 0.994879 0.989989
1.00338 1.00163 0.987456
1.00502 0.997064 0.989208
1.00021 1.00295 0.991564
0.999619 1.00402 0.991103
1.00103 1.00299 0.990957
1.00093 1.00521 0.988185
1.00137 1.00523 0.987734
1.00103 1.00262 0.989072
1.00294 1.00234 0.986947
1.00182 1.00007 0.992131
1.00102 1.00495 0.987761
1.00307 1.00512 0.986743
1.00539 0.994786 0.990476
1.00541 0.99481 0.990403
1.00492 1.00158 0.986564
1.00488 1.00055 0.98603
1.00513 0.997273 0.98806
1.00519 0.999448 0.986674
0.999148 1.00444 0.991674
1.00546 0.994729 0.990946
1.00135 1.00445 0.989196
1.0047 0.999703 0.987054
1.00538 0.994746 0.990787
1.00512 0.997131 0.987798
1.00511 1.00012 0.986007
0.998189 1.00466 0.994073
1.00505 0.994665 0.990384
1.00172 1.00352 0.989247
1.00433 1.00169 0.985131
1.00506 0.995364 0.990734
1.00352 1.00088 0.986904
0.999 0.994754 0.982348
0.998279 1.00333 0.994435
0.997064 1.00283 0.996734
0.995911 1.00303 0.998044
1.00002 1.00397 0.990809
0.999034 1.00504 0.990863
0.99993 1.00506 0.990872
0.996326 1.00294 0.99682
1.00028 1.00393 0.990506
0.99998 1.00477 0.990049
0.996044 1.00129 0.99965
0.999024 1.00507 0.991126
0.997954 1.00436 0.993827
0.995304 1.00451 0.997741
0.998644 1.00513 0.992005
0.999443 1.00492 0.991205
1.00057 1.00405 0.989994
1.00032 1.00405 0.990093
1.00016 1.00508 0.990098
1.00005 1.00445 0.990124
0.999928 1.00266 0.992285
0.99997 1.00261 0.992304
0.999716 0.999521 0.995752
0.999995 1.00254 0.992269
0.999822 0.99955 0.995931
0.999979 0.99754 0.999052
0.999964 0.999535 0.996123
1.00001 0.997511 0.99766
1.00012 0.997526 0.997515
0.999972 1.00145 0.993441
1.0002 1.00183 0.992811
1.0001 0.999101 0.995592
1.00007 0.999796 0.995301
0.999936 0.997753 0.998924
1 1.00058 0.994301
0.999896 0.998182 0.99876
0.999888 0.998961 0.998552
1.00533 0.994886 0.990916
1.00531 0.994902 0.991403
1.00534 0.994943 0.991433
1.00534 0.994917 0.991377
1.00534 0.994864 0.991347
1.00563 0.994742 0.991182
1.00542 0.994856 0.99142
1.00079 0.99466 0.979982
1.00549 0.994749 0.990029
1.00012 1.00272 0.991991
1.00533 0.994922 0.99129
1.00539 0.994891 0.990717
1.00536 0.994896 0.990507
1.00478 1.00187 0.984795
1.0051 0.998957 0.987091
1.00512 0.995128 0.98999
1.00528 0.994845 0.990228
1.00361 1.00398 0.985059
1.00488 1.00418 0.982994
1.00438 1.00475 0.982432
1.00021 1.00263 0.992006
1.00261 1.00257 0.988285
1.00067 1.00479 0.989569
1.0018 1.00515 0.987023
0.999705 1.00359 0.991501
1.0054 0.994876 0.991179
1.00022 1.00275 0.991739
0.999968 1.00394 0.991135
1.00018 1.0035 0.991307
1.0054 0.994919 0.9904
1.00531 0.994865 0.990429
1.0028 1.00233 0.987509
1.00495 0.996606 0.989379
1.00525 0.994876 0.989993
1.00085 1.00521 0.988143
1.00168 1.00517 0.987848
1.00278 1.00033 0.990864
1.00322 1.00388 0.986268
1.00304 1.00109 0.989064
1.00547 0.99483 0.99079
1.00536 0.994884 0.990477
1.00526 0.99486 0.990252
1.00467 0.997576 0.989945
1.00217 0.999753 0.990657
1.00023 1.00208 0.992225
1.00095 1.00398 0.98879
0.999633 1.00363 0.991655
1.00122 1.0051 0.988786
1.00095 1.00381 0.990303
1.00036 1.00061 0.99246
1.00162 0.998911 0.993965
1.00063 1.00375 0.991566
0.999704 1.00428 0.990052
1.00547 0.994691 0.991127
1.00541 0.994726 0.990864
1.00516 0.997339 0.988005
1.00461 1.00001 0.98681
1.00513 0.999777 0.985982
0.997829 1.00476 0.995155
1.00464 0.994661 0.990552
1.00157 1.00342 0.989166
1.00462 1.00174 0.984978
1.00485 0.995293 0.991035
1.00393 1.00081 0.986962
0.998843 0.994744 0.980692
0.997421 1.00469 0.994618
1.00363 0.994721 0.990483
1.00245 1.00256 0.987067
1.0032 1.00042 0.988023
1.00338 0.997433 0.991637
0.999975 0.994855 0.936391
0.994886 0.994708 0.958859
0.996588 0.995664 0.986074
0.995851 0.994761 0.844307
0.994699 0.996166 0.803741
0.998065 1.00219 0.996703
0.996126 1.00317 0.998238
0.994928 1.00477 0.998417
1.00036 1.00386 0.990511
0.999829 1.00488 0.99032
0.999294 1.00504 0.991045
0.998406 1.00453 0.993213
0.995206 1.00153 1.00092
0.999201 1.00487 0.99149
1.00047 1.00393 0.990148
1.00043 1.00442 0.989964
0.995831 1.00402 0.997591
0.998337 1.00505 0.992474
0.998774 1.00496 0.992718
0.996564 1.0052 0.995082
0.999228 1.00456 0.991861
1.00041 1.00453 0.989456
1.00026 1.0044 0.989909
0.99977 1.00467 0.990385
0.999327 1.0041 0.992102
0.999223 1.00509 0.991357
0.999875 1.00505 0.990253
1.00006 1.00422 0.990508
1.00003 1.00445 0.990097
0.999875 1.00285 0.992206
0.999924 1.00271 0.992294
0.999673 0.99955 0.995807
0.999932 1.00272 0.992283
0.999703 0.999558 0.995755
0.999939 0.997525 0.99909
0.9998 0.999567 0.995615
0.999934 0.997543 0.998409
1.00005 0.997471 0.997646
0.999922 1.00111 0.993872
1.00006 1.00137 0.993457
1.00009 0.998705 0.996064
1.00021 1.00177 0.992842
1.00008 0.999121 0.995934
0.99997 0.997328 0.999069
1.00012 0.999896 0.994801
0.999935 0.997971 0.998855
0.999886 0.998443 0.998738
1.00536 0.994851 0.991287
1.00533 0.994915 0.99138
1.00569 0.994788 0.991146
0.999815 0.994704 0.979911
1.00546 0.994839 0.991362
1.00548 0.994863 0.9901
1.00551 0.994801 0.991153
0.995414 0.99482 0.960967
1.00403 0.994815 0.977407
1.00033 1.00215 0.992279
1.00032 1.00252 0.991973
0.99976 1.00338 0.991806
1.00002 1.00308 0.991779
1.00541 0.994884 0.991173
1.00542 0.994882 0.990418
1.00528 0.994857 0.990397
1.0037 1.00263 0.987555
1.00506 0.995808 0.989596
1.0053 0.994801 0.990019
1.00281 0.99957 0.989521
1.00351 1.00442 0.985621
1.00393 0.998864 0.98913
1.0001 1.00398 0.991165
1.00141 1.00444 0.98799
1.00102 1.00521 0.988097
1.00032 1.00254 0.991914
0.999511 1.00414 0.991742
1.0055 0.994828 0.990772
1.00004 1.0028 0.991882
1.00109 1.00414 0.98903
0.997267 1.00394 0.994728
1.00537 0.994937 0.990452
1.00526 0.994847 0.990231
1.00344 0.998517 0.990798
1.00451 0.997382 0.989801
1.00148 1.00515 0.98835
1.00056 1.00352 0.989377
1.00143 0.998435 0.994092
1.00181 1.00069 0.991904
1.00402 0.996655 0.989966
1.00523 0.994794 0.990719
1.00418 0.998102 0.989673
1.00374 0.997322 0.991855
0.997183 1.00474 0.994581
1.00186 1.00492 0.987219
0.998732 1.00221 0.995098
0.997951 1.00264 0.995173
0.999921 0.99597 0.920546
0.997601 1.00462 0.99629
1.00112 1.00349 0.989074
1.0041 0.994697 0.99076
1.00459 0.995209 0.991327
1.00422 1.00064 0.98699
1.00479 1.00189 0.98481
0.998645 0.994737 0.978764
0.997586 1.00442 0.99491
1.00321 0.994717 0.990388
1.00262 1.00304 0.98703
1.00368 1.00025 0.988199
1.00348 0.997838 0.991486
0.999262 0.994862 0.921868
0.995315 0.994755 0.955632
0.996536 0.995976 0.986557
0.996712 0.9948 0.849889
0.994763 0.99574 0.799481
0.997878 1.00375 0.994042
0.998075 0.99483 0.854412
0.994797 0.99501 0.796184
1.00114 0.995546 0.993723
1.00162 1.00119 0.990793
1.00117 1.00092 0.992826
0.995021 0.996047 0.990017
0.997428 0.994707 0.935333
0.994908 0.994779 0.951213
0.994721 0.995775 0.866293
0.994773 0.994985 0.78045
0.996093 1.00308 0.998424
0.995128 1.00483 0.998228
0.995265 1.00505 0.998463
1.00064 1.00376 0.9902
1.00026 1.00452 0.989931
0.998621 1.00486 0.99178
0.998214 1.00509 0.992942
0.996352 1.00331 0.997464
1.00039 1.00424 0.989903
0.998166 1.00506 0.993123
0.999085 1.00472 0.991529
1.00064 1.00449 0.989573
0.996572 1.00503 0.995432
0.997411 1.00489 0.994254
0.995603 1.00503 0.996554
0.999161 1.00505 0.990832
1.00058 1.00455 0.989526
1.00012 1.00452 0.990344
0.998817 1.00399 0.992688
0.998768 1.00412 0.992771
0.99993 1.00306 0.992122
0.997162 1.0037 0.995809
0.997446 1.00469 0.993505
0.998226 1.00511 0.991988
0.999188 1.00515 0.991335
0.999484 1.0049 0.990568
0.999633 1.00516 0.99041
1.00013 1.0044 0.99041
0.999999 1.00292 0.99207
1.00012 1.00446 0.990068
0.999935 1.00276 0.99223
0.999854 0.999595 0.996234
0.999907 1.00274 0.992303
0.999737 0.999536 0.996064
0.999903 0.997483 0.997892
0.999686 0.999557 0.995754
0.999929 0.997544 0.9991
0.999938 0.997585 0.997763
1.00037 1.00246 0.991964
0.999913 1.00097 0.994028
0.999967 1.00109 0.993871
1.00004 0.998542 0.996279
1.0001 1.00135 0.993478
1.0001 0.998681 0.996062
0.999996 0.997077 0.999149
1.00006 0.999286 0.996165
0.999958 0.997503 0.998344
0.999929 0.99796 0.997341
0.999213 0.994708 0.979811
1.00547 0.994836 0.991307
1.00545 0.994812 0.990165
0.996278 0.994777 0.961055
1.00407 0.994723 0.977694
1.0055 0.99485 0.9912
1.0038 0.99463 0.985139
0.998954 0.994764 0.960429
0.998899 0.994868 0.935917
0.996616 0.994758 0.872065
0.994814 0.995751 0.803552
0.999426 1.00329 0.992226
1.00027 1.00226 0.992272
1.00044 1.0024 0.991947
0.999803 1.00308 0.992173
0.998096 1.00508 0.99319
0.999994 1.00365 0.991408
1.00019 1.00419 0.990581
1.00006 1.00306 0.991744
1.0055 0.994853 0.990748
1.00536 0.994876 0.990425
1.00527 0.994831 0.990211
1.00359 0.99809 0.990948
1.00439 0.997617 0.989637
1.00133 0.997969 0.994219
1.00376 1.00013 0.991332
1.00196 1.00402 0.988438
1.00101 1.00399 0.989231
1.00137 1.00516 0.987863
0.999897 1.00366 0.991535
0.995935 1.004 0.997489
1.00423 0.995689 0.990327
0.997306 1.00465 0.994516
1.00088 1.00442 0.989363
1.00501 0.994812 0.990689
1.00391 0.998486 0.989738
1.0033 0.997229 0.991882
0.999634 1.00184 0.993944
0.999099 1.00157 0.995241
1.00289 0.996412 0.988708
1.00296 0.999118 0.990739
1.00348 0.999585 0.990547
1.00124 0.997917 0.99484
0.998688 1.00471 0.992769
0.997298 1.00433 0.9942
0.997281 1.00236 0.996831
0.999848 0.997346 0.85204
1.00072 0.994885 0.936514
0.998041 1.00399 0.995207
1.00301 1.00332 0.987011
1.00282 0.994728 0.99028
1.00366 0.998091 0.991356
1.00407 1.00008 0.988419
0.999987 0.994832 0.934114
0.995796 0.994767 0.955112
0.99647 0.996562 0.987234
0.995527 0.994797 0.869486
0.994829 0.994903 0.794857
0.998357 1.00376 0.994069
0.999836 0.994888 0.851629
0.994742 0.994888 0.789964
1.001 0.996287 0.993519
1.00159 1.00128 0.99084
1.00118 1.00054 0.993567
0.995197 0.997141 0.990999
0.996507 0.994684 0.92836
0.994933 0.994785 0.951725
0.994787 0.995146 0.868202
0.994806 0.995308 0.77794
0.996894 1.00454 0.996468
0.994776 0.994804 0.782881
0.994738 0.994745 0.777076
0.996782 1.00131 0.997178
0.998913 1.00175 0.997407
0.994841 0.998609 0.987655
0.994912 0.994805 0.95616
0.994884 0.994644 0.921459
0.994815 0.994888 0.87149
0.994888 0.994894 0.793492
0.99549 1.00495 0.998058
0.995451 1.005 0.998342
0.994971 1.00425 0.999222
1.00052 1.00413 0.989892
1.00075 1.00453 0.989692
0.999127 1.00498 0.991198
0.99757 1.00496 0.993527
0.996456 1.00484 0.995783
1.00064 1.00463 0.989474
0.997519 1.00497 0.993952
0.999606 1.00496 0.990796
0.995501 1.00512 0.996774
0.995079 1.00493 0.998241
0.997201 1.0051 0.9944
1.0001 1.00472 0.991047
1.00065 1.00397 0.990303
0.998711 1.00375 0.993265
0.999021 1.00385 0.992737
1.00014 1.00282 0.991985
0.996729 1.00374 0.996374
0.998145 1.00425 0.992675
0.996225 1.00508 0.995406
0.99743 1.00212 0.996768
0.999833 1.00296 0.99251
1.00459 0.999767 0.989666
0.998061 1.00455 0.992274
0.997978 1.00456 0.99353
0.998583 1.00513 0.990537
0.998655 1.00508 0.992108
0.999971 1.00496 0.990213
0.999148 1.00512 0.99131
0.999734 1.0047 0.990673
0.999738 1.00337 0.991762
1.00023 1.00443 0.990311
0.999941 1.00287 0.992087
0.999977 0.999626 0.995988
0.999917 1.00276 0.992256
0.999841 0.999586 0.995866
1.00001 0.997413 0.997717
0.999723 0.99956 0.995761
0.999957 0.997446 0.999113
0.999926 0.997517 0.999111
1.00054 1.00287 0.991582
0.999964 1.00119 0.9938
1.00038 1.00237 0.991984
1.00004 0.998461 0.996351
0.999959 1.00094 0.994015
1.00002 1.00102 0.993864
1.00006 0.998531 0.99627
1.00001 0.996975 0.999186
1.00009 0.998717 0.99661
1.00001 0.997128 0.998534
0.999983 0.997442 0.997778
0.99917 0.995949 0.837984
0.994796 0.994876 0.781166
0.995859 0.994774 0.961844
1.00379 0.994686 0.978169
1.00554 0.994981 0.991238
1.00079 0.994783 0.957731
1.00336 0.994744 0.985837
0.999801 0.994864 0.931274
0.995525 0.994736 0.850447
0.994824 0.995356 0.799646
0.99819 0.994791 0.969369
0.996037 0.994717 0.936976
0.99474 0.994697 0.868241
0.994818 0.995937 0.79213
0.999526 1.00413 0.992173
0.999753 1.00297 0.992256
1.00023 1.00233 0.992274
0.999854 1.00266 0.992559
0.997786 1.00424 0.994205
1.00042 1.00417 0.990166
0.999452 1.00409 0.991757
1.00084 1.00437 0.989105
1.00023 1.00414 0.990449
0.999635 1.00362 0.991714
1.00425 0.994873 0.990662
1.0049 0.994821 0.990655
1.00337 0.998822 0.9898
1.00261 0.997166 0.99191
0.999675 1.00161 0.995314
0.999479 1.00174 0.992839
0.999744 1.00427 0.991743
0.997224 1.0046 0.994411
1.00219 0.995685 0.989335
0.998429 1.00501 0.992624
0.997197 1.00446 0.994594
1.0028 0.998965 0.990718
1.00314 1.00006 0.989857
1.00072 0.997765 0.99555
0.997584 1.00241 0.99724
0.99953 0.995447 0.987912
1.0007 1.00072 0.993758
0.996835 1.00257 0.997373
0.998428 1.00397 0.992985
0.996545 1.00523 0.994512
0.995948 1.00445 0.997261
0.994745 0.99479 0.800557
0.999845 0.99489 0.860374
0.999962 0.996017 0.920813
0.998634 1.00391 0.994078
1.00181 1.00143 0.990834
1.00081 0.996793 0.993301
1.00108 1.00007 0.994312
0.999788 0.995982 0.866874
0.996 0.994723 0.92172
0.994933 0.994738 0.951289
0.995332 0.998118 0.991755
0.994789 0.994824 0.851643
0.99469 0.994866 0.796448
0.994831 0.995932 0.793955
0.996891 1.00462 0.996174
0.99477 0.994816 0.791122
0.994766 0.994756 0.776555
0.997022 0.999663 0.997851
0.998632 1.0017 0.997328
0.994831 0.997289 0.989507
0.995033 0.994789 0.953497
0.994936 0.99466 0.933847
0.994787 0.995434 0.850958
0.995218 0.994889 0.802734
0.995751 1.00404 1.00057
0.994741 0.994789 0.784776
0.994818 0.994831 0.779367
0.994754 1.00225 1.00029
0.994862 0.996551 0.964351
0.994805 0.994788 0.931126
0.994909 0.994903 0.850209
0.995839 0.994903 0.821616
0.995653 1.00492 0.99821
0.99522 1.0046 0.999374
0.994867 1.00434 0.999851
1.00044 1.00472 0.989417
0.999976 1.00479 0.99076
0.997543 1.00519 0.993649
0.995452 1.00517 0.996996
0.999508 1.00484 0.991025
0.997051 1.00514 0.994444
0.995002 1.00495 0.998365
0.994799 1.005 0.999105
0.994933 1.00489 0.998558
0.997551 1.00515 0.994249
0.999133 1.00403 0.992693
1.00019 1.00256 0.991846
0.995939 1.00389 0.996929
0.99638 1.00491 0.995525
0.999234 1.00358 0.992596
0.996381 1.00327 0.996977
0.998001 1.00363 0.994207
0.994828 1.00506 0.998465
1.00189 0.99974 0.992947
0.999448 1.00247 0.993324
1.00253 1.00024 0.990454
1.00514 0.999081 0.987791
1.00329 1.00154 0.989087
1.00368 0.999384 0.990302
0.999026 1.00424 0.992132
0.999051 1.00524 0.989612
0.998578 1.00441 0.993562
0.999505 1.00516 0.990613
1.0006 1.00511 0.988748
0.999176 1.00513 0.992217
0.999764 1.00505 0.990226
0.999816 1.00406 0.990919
0.999889 1.00468 0.990779
0.999918 1.00335 0.991774
1.00014 0.999805 0.995624
0.999982 1.00283 0.992107
0.999956 0.999696 0.995563
1.0001 0.997533 0.997535
0.999841 0.999562 0.99556
1.00001 0.99742 0.998412
0.999973 0.997437 0.999091
1.00045 1.00397 0.990198
1.00006 1.00152 0.993359
1.00036 1.00304 0.991358
1.00006 0.998536 0.99625
0.99996 1.00114 0.99382
1.00032 1.00235 0.992002
1.00002 0.996944 0.999196
1.00003 0.998488 0.996349
0.999946 1.00101 0.994007
1.00008 0.998517 0.996261
1.00001 0.996997 0.999178
0.999994 0.997095 0.999139
0.994743 0.994802 0.778748
0.999057 0.994879 0.852086
0.994791 0.994767 0.778397
0.994822 0.994853 0.782848
0.999074 0.994858 0.958173
1.00268 0.994815 0.986551
0.999319 0.994786 0.925889
0.996149 0.994764 0.871434
0.994846 0.994882 0.795884
0.998236 0.99481 0.968114
0.99634 0.994687 0.921657
0.994748 0.995055 0.869011
0.99481 0.995344 0.784598
0.994926 0.994808 0.960556
0.99476 0.99467 0.919586
0.994804 0.994966 0.844863
0.994857 0.994888 0.798301
1.0003 1.00445 0.990951
0.998847 1.0042 0.992336
0.999843 1.00292 0.992279
0.997169 1.00357 0.995203
1.00088 1.00375 0.989637
0.999971 1.00461 0.990363
0.99883 1.00416 0.992101
1.00138 1.00415 0.988904
1.00101 1.0046 0.989034
1.0003 1.00403 0.990313
1.00216 0.994802 0.989907
1.00248 0.998825 0.990727
1.0031 1.00052 0.989172
1.00008 0.99764 0.996266
0.998319 1.00259 0.997629
0.997425 1.00437 0.994986
0.998406 1.00513 0.992494
0.999224 1.00347 0.992803
0.999385 0.996375 0.988596
0.997491 1.00515 0.993983
0.997181 1.00326 0.997403
1.00048 1.00044 0.993913
0.997829 1.00142 0.997334
0.996306 1.0007 0.987347
0.996681 1.00228 0.998689
0.99474 1.00509 0.9981
0.996295 1.00432 0.996553
0.995302 1.0052 0.996838
0.994759 0.994777 0.791231
0.994754 0.99475 0.7956
0.999835 0.997322 0.839733
0.996869 1.00466 0.995929
0.998706 1.0014 0.997268
0.997396 0.998783 0.99851
0.994747 0.994802 0.787428
0.994787 0.994653 0.920111
0.994919 0.994782 0.953769
0.994821 0.995748 0.991873
0.994773 0.995648 0.870209
0.994802 0.99477 0.777044
0.995652 0.994878 0.804843
0.995994 1.00369 1.00073
0.994758 0.994802 0.786163
0.9948 0.99483 0.780623
0.994788 1.00253 0.999119
0.994854 0.995708 0.966173
0.995053 0.994789 0.917626
0.995528 0.994899 0.816182
0.995266 0.996882 0.859498
0.994695 1.00496 1.00131
0.994777 0.994831 0.772611
0.994863 0.994846 0.796946
0.994858 0.994891 0.797818
0.994735 0.999689 0.987961
0.994822 0.995396 0.935689
0.997259 0.994875 0.872952
0.99557 1.00494 0.999533
0.995184 1.00453 0.999637
0.995151 1.00508 0.999406
0.999104 1.00481 0.991014
0.99699 1.00525 0.994488
0.994929 1.00492 0.998488
0.996928 1.00523 0.994356
0.995073 1.00472 0.998639
0.994804 1.00495 0.998916
0.994667 1.00469 1.00001
0.995004 1.00452 0.998982
0.996378 1.0047 0.995679
1.00012 1.00292 0.992511
0.99564 1.00413 0.99719
0.994888 1.0051 0.998302
0.997422 1.00408 0.994295
0.999699 1.00084 0.995349
0.998838 1.00068 0.996358
1.00281 1 0.989361
0.999217 1.0023 0.994045
1.00273 1.00024 0.99024
1.00474 1.00106 0.986295
1.00518 1.00078 0.985562
1.00477 0.999079 0.987836
1.00458 0.999169 0.98773
1.00191 1.00437 0.988142
1.00216 1.00207 0.989296
1.00252 0.999027 0.990919
0.999957 1.00392 0.991986
0.999807 1.00523 0.989404
1.00107 1.00512 0.987435
1.00033 1.00516 0.990697
1.00089 1.00503 0.988716
1.00048 1.00456 0.98936
0.999938 1.00506 0.99023
1.00009 1.00384 0.990893
1.00017 1.00016 0.995224
1.00004 1.00317 0.991782
1.00012 0.999846 0.995176
1.00027 0.997572 0.99722
0.999941 0.999752 0.995227
1.0001 0.997492 0.99829
1.00006 0.99741 0.999024
1.00085 1.00423 0.98907
1.00016 1.00205 0.992253
1.00055 1.00384 0.990211
1.0001 0.998739 0.995993
1.00012 1.00146 0.993149
1.00033 1.00304 0.991135
1.00003 0.99698 0.999168
1.00006 0.998522 0.996266
1.00002 1.001 0.993836
1.00001 0.99697 0.999195
1.00002 0.998503 0.996347
1.00001 0.997 0.99917
0.994807 0.994813 0.782782
0.994755 0.994836 0.794005
0.999187 0.994848 0.851
1.00097 1.00457 0.988916
0.994782 0.994801 0.783533
0.994787 0.994792 0.778298
0.994864 0.994856 0.797277
0.998173 0.994742 0.967852
0.996011 0.994726 0.936454
0.99467 0.995394 0.851747
0.994785 0.994925 0.796351
0.995502 0.994787 0.957992
0.994838 0.994673 0.933178
0.994779 0.995377 0.849369
0.994874 0.994889 0.799765
0.994931 0.994764 0.952289
0.994797 0.994803 0.929297
0.996319 0.994903 0.862941
0.995443 0.994901 0.821894
0.998726 1.0036 0.993249
0.999434 1.00439 0.991285
0.998946 1.00369 0.992506
1.00129 1.00248 0.990334
1.00103 1.00393 0.989587
0.999853 1.00484 0.990556
1.0015 1.0041 0.98888
1.00116 1.00452 0.988961
0.998573 0.99729 0.989106
0.999875 1.00012 0.993988
0.998759 1.00368 0.992595
0.998844 1.00021 0.997278
0.997926 1.0029 0.997525
0.998286 1.0051 0.993389
0.996804 1.00419 0.995455
0.995919 1.00034 0.987541
0.99643 1.0051 0.996588
0.995848 1.00361 0.998171
0.995988 1.00207 0.99878
0.995579 1.00528 0.996342
0.99502 1.00369 0.98446
0.994931 1.00368 0.999051
0.99542 1.00479 0.998238
0.995866 1.00563 0.996787
0.994743 0.99481 0.775338
0.994751 0.994781 0.787677
0.99476 0.994711 0.790413
0.995869 1.00382 1.00086
0.994814 1.00193 0.997893
0.994773 0.994816 0.787374
0.994761 0.99484 0.932588
0.994845 0.995576 0.962867
0.995549 0.995043 0.858227
0.994783 0.99483 0.781625
0.994892 0.994902 0.810613
0.994736 1.00492 1.00125
0.994776 0.994828 0.773042
0.994874 0.994856 0.795391
0.994775 1.00033 0.991665
0.994874 0.994938 0.799331
0.994833 0.996787 0.928632
0.996673 0.997319 0.874523
0.994983 1.00405 0.9973
0.994837 0.994844 0.786775
0.994794 0.994811 0.78553
0.994808 0.99601 0.791175
0.996482 0.995836 0.862754
0.994905 1.00126 0.97033
0.994921 0.99535 0.921425
0.995466 1.0048 0.999451
0.995015 1.00506 0.999435
0.994723 1.00509 0.998318
0.996438 1.0053 0.994457
0.994807 1.00434 0.998722
0.994823 1.00498 0.99877
0.994814 1.00429 0.998871
0.994617 1.00471 0.999834
0.997113 1.0022 1.00007
0.994906 1.00517 0.998128
0.996404 1.00484 0.994422
0.99859 1.00132 0.996345
0.999631 0.999491 0.993809
0.995806 1.00151 0.999435
1.00237 0.999775 0.990367
1.00432 1.00342 0.983678
1.00463 1.00259 0.984437
1.00304 1.00018 0.989949
1.00461 1.00118 0.985825
1.005 1.00171 0.984765
1.00489 1.00113 0.985866
1.00497 1.00091 0.985607
1.00399 1.00056 0.987984
1.00429 0.999844 0.987715
1.0044 0.999192 0.987692
1.00103 1.00519 0.987412
1.00121 1.00451 0.988217
1.00091 1.00268 0.989501
1.00062 1.00522 0.989198
1.00153 1.00515 0.98746
1.00093 1.0051 0.987843
1.00107 1.005 0.988682
1.00072 1.00445 0.989343
1.00022 1.00082 0.993669
1.00045 1.00379 0.990885
1.00025 1.00015 0.994347
1.00013 0.997689 0.998767
1.00012 0.999929 0.994811
1.0002 0.997554 0.998073
1.00014 0.997492 0.998921
1.00083 1.00456 0.9888
1.00037 1.00299 0.991075
1.00077 1.00438 0.989258
1.00016 0.999093 0.99557
1.00028 1.00208 0.99212
1.00064 1.00378 0.990217
1.00005 0.997096 0.999109
1.00013 0.998676 0.996015
1.00012 1.00143 0.992942
1.00003 0.996978 0.999179
1.00005 0.998516 0.996282
1.00001 0.996975 0.999194
0.994763 0.994817 0.781973
0.9948 0.994804 0.783165
0.99475 0.994849 0.792843
1.00104 1.0044 0.988984
1.00029 1.00515 0.988614
1.00171 1.00255 0.990684
0.994875 0.994861 0.795715
0.994795 0.994799 0.784717
0.994802 0.994777 0.77837
0.996245 0.994771 0.958368
0.994862 0.994653 0.920238
0.99478 0.995709 0.87028
0.994879 0.994865 0.794008
0.994912 0.994803 0.953807
0.994852 0.994778 0.924926
0.996102 0.995849 0.862083
0.995353 0.994898 0.816326
0.994898 0.994843 0.952923
0.994834 0.994863 0.931107
0.997166 0.994885 0.872656
0.994881 0.994904 0.795432
0.997901 1.0032 0.994492
0.99899 1.00353 0.993123
0.999233 1.00481 0.991623
1.00119 1.0027 0.990249
1.00067 1.00444 0.989547
1.0015 1.00414 0.988851
0.995668 0.99999 0.98809
0.995819 1.00232 0.998935
0.998161 1.0033 0.994405
0.997411 1.00257 0.998108
0.997715 1.00431 0.996367
0.995685 1.0051 0.996261
0.995661 1.00542 0.996503
0.994934 1.00325 0.984513
0.995149 1.00529 0.99842
0.994565 1.00434 0.997858
0.995326 1.00537 0.997871
0.994688 1.0013 0.983289
0.994881 1.00519 0.994678
0.99467 1.00265 0.999361
0.994868 0.994852 0.776415
0.994756 0.994818 0.774572
0.994745 0.994781 0.784128
0.99478 1.00473 1.00115
0.994806 1.00078 0.987128
0.994775 0.994826 0.773488
0.9948 0.996455 0.928787
0.996103 0.994873 0.860175
0.994888 0.994854 0.79381
0.994875 0.994872 0.793757
0.994926 1.00394 0.99782
0.99482 0.994845 0.785774
0.994812 0.9948 0.786887
0.99489 1.00168 0.967187
0.994793 0.995593 0.783827
0.996003 0.997199 0.861029
0.994863 0.996951 0.935323
0.99484 1.00509 0.988283
0.994769 0.994818 0.784091
0.994782 0.994785 0.77905
0.994803 0.995965 0.802886
0.994787 0.995207 0.842865
0.994806 0.994904 0.932629
0.994824 1.00139 0.960743
0.995069 1.00498 0.999403
0.994744 1.00507 0.998419
0.994869 1.00498 0.998432
0.995043 1.00428 0.998762
0.994552 1.0049 0.999576
0.996198 1.00207 1.00038
0.997879 1.00192 0.998855
0.997333 1.00176 0.997313
1.00183 0.999291 0.992959
1.00176 1.00468 0.986893
1.00184 0.999539 0.991813
1.0044 1.00342 0.98407
1.00428 1.00306 0.983643
1.00514 1.00032 0.985464
1.00509 1.00155 0.984811
1.00473 1.00236 0.984454
1.00467 1.00134 0.985365
1.00458 1.00296 0.984692
1.0051 1.00162 0.984754
1.00451 1.00091 0.986421
1.00474 1.0015 0.986001
1.00447 1.00109 0.985655
1.00237 1.00207 0.988402
1.00361 1.00099 0.98786
1.00387 1.00059 0.987572
1.00146 1.00523 0.98681
1.00154 1.00519 0.987399
1.00034 1.00447 0.988294
1.00193 1.00515 0.987495
1.00141 1.00497 0.987865
1.00031 1.00161 0.992673
1.00121 1.00421 0.989313
1.00028 1.00081 0.993619
1.00024 0.998005 0.998641
1.00037 1.00005 0.994322
1.00027 0.99772 0.997913
1.00022 0.997538 0.998809
1.00153 1.00438 0.988518
1.00063 1.00348 0.99044
1.00102 1.0045 0.988746
1.00021 0.999589 0.994983
1.00037 1.00299 0.991167
1.00065 1.00448 0.989456
1.00007 0.997248 0.999012
1.00018 0.998987 0.995599
1.00038 1.00207 0.991989
1.00005 0.997041 0.999128
1.00015 0.998624 0.996036
1.00002 0.996997 0.999189
0.994831 0.994844 0.784408
0.994767 0.994832 0.78244
0.994806 0.994797 0.783394
1.00014 1.00523 0.988712
1.0025 1.00146 0.992367
1.0008 1.00438 0.989064
1.00053 1.00498 0.988523
1.00064 1.00219 0.991337
1.00094 1.00261 0.990984
0.998858 1.00172 0.994719
0.994831 0.994832 0.781627
0.994874 0.99486 0.794086
0.994799 0.994828 0.785859
0.994889 0.994902 0.810611
0.995253 0.994801 0.952196
0.994828 0.994806 0.91959
0.996002 0.994905 0.874029
0.995003 0.995017 0.951797
0.994833 0.997601 0.917249
0.996478 0.996813 0.873721
0.995094 0.99493 0.804499
0.99481 0.995633 0.956049
0.994913 0.997607 0.918528
0.9949 0.99499 0.850804
0.994785 0.995367 0.7826
0.995601 1.00545 0.996716
0.997761 1.00361 0.995024
0.998637 1.00412 0.992995
1.00109 1.00327 0.990165
0.994935 1.0025 0.9844
0.994471 1.00464 0.996745
0.995989 1.00521 0.996189
0.996549 1.00534 0.9962
0.994706 1.0054 0.998814
0.995111 1.00534 0.997763
0.995895 1.0035 0.999542
0.995025 1.00192 0.980364
0.995078 1.00523 0.994723
0.995953 1.00273 0.999786
0.995927 1.00097 0.975899
0.994653 1.00287 0.999814
0.994749 0.994829 0.778298
0.994847 0.994851 0.781789
0.994766 0.994836 0.773792
0.994713 1.00408 0.998335
0.994881 1.00129 0.97124
0.994801 0.994845 0.784779
0.994914 0.996128 0.922651
0.99584 0.994973 0.873669
0.994802 0.994828 0.787995
0.994769 0.995142 0.795199
0.994876 1.00505 0.989311
0.994774 0.99483 0.784639
0.994771 0.994801 0.779008
0.994811 1.00146 0.960802
0.994819 0.995282 0.799099
0.994766 0.99552 0.847403
0.994848 0.995935 0.91906
0.995077 1.00403 0.982865
0.994826 0.994816 0.783305
0.994765 0.994878 0.78113
0.994732 0.994697 0.867016
0.994816 0.994878 0.93032
0.994806 0.999576 0.956325
0.994769 1.00497 0.999012
0.994776 1.0049 0.998457
0.995 1.00466 0.997986
0.995523 1.00167 1.0007
0.996652 1.00248 0.999312
1.00046 1.00089 0.994564
1.00399 0.999007 0.992126
1.00277 1.00475 0.986006
1.00428 1.00202 0.985231
1.00421 1.00333 0.984457
1.00451 1.00306 0.983587
1.00475 1.00127 0.985305
1.00528 0.997705 0.987628
1.0052 0.999864 0.98624
1.00512 1.00051 0.985475
1.00509 1.00149 0.98513
1.00506 1.00133 0.984851
1.00482 1.00214 0.984468
1.00423 1.00446 0.983671
1.00461 1.00271 0.984722
1.00513 1.00154 0.984754
1.00378 1.00168 0.987991
1.00368 1.00169 0.987099
1.00476 1.00184 0.986139
1.0029 1.0026 0.987128
1.00264 1.00206 0.988375
1.00314 1.00183 0.987734
1.00062 1.00207 0.991727
1.00186 1.00523 0.986893
1.00198 1.00518 0.987383
1.0016 1.00488 0.987885
1.00037 1.00162 0.992651
1.00025 0.998478 0.998409
1.00026 1.0009 0.993573
1.00025 0.998055 0.998572
1.00027 0.99762 0.998705
1.00209 1.00441 0.989115
1.00197 1.00515 0.988
1.00094 1.00402 0.989479
1.00129 1.00448 0.988515
1.00019 1.0002 0.99441
1.00057 1.00365 0.990433
1.001 1.00478 0.988687
1.00007 0.99761 0.998869
1.0002 0.999571 0.995011
1.00043 1.00304 0.991255
1.00006 0.997243 0.999042
1.0002 0.998951 0.995633
1.00005 0.997027 0.999147
0.994785 0.994845 0.774968
0.994823 0.994835 0.783453
0.994768 0.994825 0.782898
1.00083 1.00525 0.988327
1.00011 1.00129 0.993144
1.00208 0.999412 0.990071
0.998311 1.00363 0.991797
1.00178 0.998646 0.994213
1.00083 1.0051 0.988417
0.999877 1.00278 0.992015
1.00063 1.00343 0.990958
0.9989 1.00097 0.995979
0.998939 1.0031 0.995127
0.994764 0.994747 0.779466
0.994811 0.994839 0.783038
0.994872 0.994845 0.792507
0.99534 0.994881 0.806545
0.996071 0.994881 0.860084
0.994914 0.994865 0.950615
0.99482 0.995545 0.930147
0.994868 0.996372 0.951387
0.994889 0.997658 0.931052
0.995092 0.996891 0.860398
0.994811 0.995364 0.780225
0.99499 0.997974 0.952889
0.994765 0.996262 0.930725
0.994794 0.995081 0.872989
0.994716 0.996149 0.806401
0.998337 1.00021 0.997471
0.995356 1.00525 0.996996
0.997931 1.003 0.995571
0.994667 1.00274 0.976983
0.994787 1.0052 0.994091
0.995067 1.00531 0.99759
0.994695 1.0044 0.999764
0.995373 1.00341 0.99959
0.99469 1.0015 1.00035
0.994788 1.00184 0.976654
0.995822 1.00144 1.00212
0.994894 1.00002 0.98431
0.994785 0.994798 0.792522
0.994772 0.99484 0.777352
0.994829 0.994842 0.787396
0.994907 1.00507 0.989672
0.994839 0.999927 0.958685
0.994792 0.994838 0.78519
0.994834 0.994923 0.931439
0.994769 0.995869 0.86761
0.994787 0.994776 0.779333
0.994844 0.994888 0.795488
0.995199 1.00449 0.983703
0.994815 0.994809 0.783406
0.994794 0.994879 0.782615
0.994837 0.998462 0.957472
0.994737 0.995113 0.868125
0.994897 0.994815 0.922157
0.994767 1.00253 0.98152
0.994735 0.994806 0.778873
0.996366 0.99476 0.871862
0.99479 0.994679 0.919058
0.994908 0.994847 0.95704
0.9952 1.00483 0.998528
0.994896 1.00482 0.997802
0.997766 1.00024 0.997351
0.99547 1.00291 0.999761
0.999295 1.00158 0.995361
1.00431 0.995418 0.992543
1.00388 1.00489 0.985094
1.00424 1.00184 0.985144
1.00488 0.998186 0.988005
1.00481 1.00314 0.983528
1.00471 1.00115 0.985357
1.00492 0.997795 0.988319
1.0053 0.995308 0.989949
1.00531 0.997249 0.987765
1.00531 0.997585 0.987656
1.00526 0.999807 0.986351
1.00519 0.9999 0.986162
1.00502 1.00063 0.985488
1.00533 1.00248 0.983826
1.00496 1.00157 0.985096
1.00509 1.00105 0.98489
1.00448 1.00479 0.984503
1.00382 1.00408 0.984253
1.00472 1.00244 0.98475
1.00217 1.0033 0.987996
1.00283 1.00223 0.987909
1.00319 1.0022 0.987772
1.00115 1.00262 0.991915
1.00275 1.00301 0.987204
1.0029 1.00229 0.988345
1.00042 0.999421 0.995411
1.00072 1.00232 0.991966
1.00213 1.00523 0.986981
1.00049 1.00162 0.992617
1.0003 0.998581 0.998318
1.00027 0.99824 0.998499
1.00176 1.00213 0.988612
1.00236 1.00515 0.9873
1.00009 1.00477 0.989055
1.00108 1.00471 0.988657
1.00129 1.0049 0.987976
1.00005 1.00085 0.993912
1.00079 1.00421 0.989459
1.00116 1.00477 0.988505
1.00006 0.997941 0.998751
1.0002 1.0001 0.994445
1.00046 1.0037 0.990427
1.00005 0.997522 0.998913
1.00021 0.999447 0.995037
1.00006 0.997151 0.999073
0.994768 0.994819 0.791489
0.99479 0.994841 0.775489
0.994804 0.994854 0.782376
1.00293 1.00347 0.986188
1.00062 1.00504 0.987964
0.998919 1.00197 0.994154
0.999933 1.00484 0.991093
1.00349 0.999471 0.98986
1.00023 0.997469 0.997994
1.00371 1.00009 0.989244
0.995443 1.00529 0.995308
0.99946 1.00395 0.99092
0.998739 0.998906 0.997222
0.99732 1.00341 0.995161
0.997964 1.00212 0.996022
0.994805 0.995071 0.797695
0.994786 0.994759 0.77893
0.994796 0.994845 0.784133
0.994833 0.996928 0.796067
0.995267 0.995097 0.858921
0.994941 0.997409 0.918818
0.995567 0.994981 0.95143
0.995431 0.99852 0.953554
0.994775 0.996589 0.802027
0.994813 0.996501 0.922306
0.994787 0.995731 0.852583
0.994875 0.996448 0.959533
0.994799 0.994827 0.932428
0.99472 0.995981 0.869333
0.999787 0.995321 1.00165
0.998596 1.00023 0.997339
0.99491 1.00554 0.997261
0.994807 1.00246 0.976812
0.996019 1.00004 1.00081
0.995973 1.00272 0.999488
0.996495 0.999789 1.00249
0.994876 0.999154 0.984431
0.995676 0.998135 0.993433
0.994731 0.994772 0.79575
0.994776 0.994805 0.792445
0.994797 0.994836 0.776173
0.994791 1.0047 0.983826
0.994829 0.999799 0.956583
0.994796 0.99481 0.783803
0.994832 0.994823 0.917576
0.99466 0.995274 0.85086
0.994844 0.994908 0.796784
0.994797 1.00475 0.981169
0.994749 0.99484 0.793958
0.995645 0.994742 0.849876
0.994986 0.995037 0.952016
0.994867 0.994679 0.932803
0.995356 0.999488 0.989026
0.999226 0.995921 0.837346
0.995977 0.994742 0.937168
0.994938 0.994747 0.95022
0.994737 1.00535 0.997639
0.997393 1.00163 0.99704
1.00077 0.998115 0.99371
0.998278 1.0022 0.996162
1.00369 0.996365 0.992285
1.00499 0.994849 0.991434
1.00411 1.00172 0.98506
1.00482 0.998132 0.987887
1.005 0.996087 0.989868
1.00466 1.00091 0.985414
1.00488 0.997679 0.988252
1.00535 0.994786 0.990365
1.00527 0.994798 0.991077
1.00528 0.995313 0.989968
1.00533 0.995248 0.989979
1.00538 0.997157 0.987821
1.00529 0.997214 0.987951
1.00533 0.997453 0.987681
1.00542 1.00037 0.985306
1.00524 0.999688 0.986282
1.00518 0.999996 0.986081
1.00551 1.0035 0.982458
1.00523 1.00267 0.983809
1.00483 1.00165 0.985061
1.00299 1.00255 0.987076
1.00362 1.00463 0.984445
1.0032 1.00382 0.984846
1.00109 1.00301 0.990037
1.00273 1.00266 0.987916
1.00184 1.0025 0.987816
0.999953 1.00125 0.997562
1.00118 1.0027 0.990251
1.00307 1.00291 0.987268
1.00033 0.999067 0.998033
1.00086 1.00228 0.991307
1.00033 0.998592 0.99822
1.00491 1.00167 0.986213
1.00296 1.00155 0.98799
1.00237 1.00449 0.987221
1.00138 1.00507 0.988227
1.0018 1.00518 0.987309
0.999926 1.00511 0.988987
0.999986 1.00167 0.993331
1.00091 1.00482 0.988672
1.00123 1.00419 0.987942
1.00004 0.99835 0.998624
1.00005 1.00088 0.99392
1.00065 1.00453 0.989437
1.00003 0.997918 0.998783
1.00018 1.00012 0.994472
1.00004 0.997468 0.998958
0.994761 0.9948 0.784036
0.99478 0.994811 0.79176
0.994796 0.994836 0.776097
1.0032 1.00308 0.986183
1.00482 1.00477 0.985021
1.00159 1.00469 0.987848
0.999779 1.00532 0.990362
1.00507 0.998992 0.989676
0.996671 0.997363 1.00143
0.997599 1.00299 0.995412
1.00183 1.00088 0.99101
1.00067 1.00018 0.993645
0.998686 0.998885 0.997291
0.997584 1.00349 0.995159
0.998982 1.00216 0.995675
0.996257 0.994749 0.845177
0.994757 0.994885 0.791838
0.994811 0.994772 0.779331
0.99483 0.994958 0.797211
0.99477 0.995649 0.871897
0.994818 0.995409 0.918715
0.994783 0.998222 0.952881
0.994878 0.997316 0.956572
0.994788 0.995238 0.86959
0.994868 0.994807 0.919282
0.994908 0.996848 0.961085
0.994894 0.994629 0.921875
0.998935 0.995183 1.00552
0.999798 0.995176 1.00157
0.998267 1.00023 0.997342
0.994833 0.999098 0.98474
0.996228 0.999432 1.00283
0.995838 0.998248 0.993121
0.995021 0.995764 0.991336
0.99964 0.998588 0.850094
0.994743 0.994747 0.792206
0.994773 0.994819 0.792053
0.994839 1.00435 0.981702
0.99499 0.994835 0.950736
0.994746 0.994852 0.792572
0.994886 0.994655 0.920511
0.996168 0.994775 0.870944
0.995311 0.99835 0.985392
0.999114 0.994877 0.852082
0.996266 0.994691 0.921906
0.994951 0.994798 0.951431
0.996313 0.997005 0.985354
0.998915 0.994851 0.936245
0.99492 0.994794 0.958881
0.996828 1.0022 0.996748
1.00018 0.998494 0.993668
1.00328 0.997336 0.991921
1.00298 0.997336 0.992042
1.00482 0.99493 0.991361
1.00513 0.994614 0.991175
1.00478 0.998058 0.987771
1.00492 0.996187 0.989762
1.00532 0.994709 0.99043
1.00486 0.997603 0.988182
1.00535 0.994789 0.990314
1.00528 0.994768 0.990835
1.00531 0.994812 0.990897
1.00526 0.994795 0.991086
1.00529 0.994841 0.99108
1.00532 0.9956 0.990031
1.00528 0.995362 0.990129
1.00535 0.995182 0.990011
1.00546 0.997944 0.987315
1.00537 0.997195 0.987762
1.00529 0.997165 0.988137
1.00549 1.00198 0.983585
1.00547 1.00039 0.985293
1.00523 0.999586 0.986216
1.00475 1.00206 0.984815
1.00552 1.00313 0.982597
1.0051 1.00281 0.983792
1.00132 1.00404 0.988559
1.00292 1.00318 0.987004
1.00284 1.0041 0.984402
1.00047 1.00051 0.997381
1.00132 1.00278 0.990061
1.00278 1.00245 0.987836
1.0003 1.00054 0.996004
1.00122 1.00228 0.990491
1.0004 0.999767 0.997733
1.00532 1.00398 0.982742
1.00369 1.00273 0.986123
1.00325 1.00217 0.986994
1.00388 1.00214 0.987373
1.00227 1.00437 0.987272
1.00145 1.00517 0.987867
1.00035 1.00194 0.992595
1.00106 1.0051 0.988207
1.00035 1.00521 0.987331
1.00006 0.998627 0.998426
0.999949 1.00149 0.99334
1.00091 1.00487 0.988684
0.999995 0.998262 0.998666
1.00005 1.00069 0.993959
1.00002 0.997832 0.998817
0.998272 0.994833 0.85346
0.994763 0.994797 0.79
0.994785 0.994806 0.792196
1.00323 1.0033 0.98619
1.00243 1.00506 0.985974
1.00445 1.00433 0.984312
1.00524 1.00227 0.98434
1.00133 1.00065 0.992597
0.99886 1.0027 0.995555
1.00153 1.00038 0.99277
1.00082 1.00044 0.993799
1.00451 0.994836 0.992459
1.0019 0.997168 0.995944
1.00156 0.99806 0.995685
1.00034 0.997954 0.997075
0.999571 1.00143 0.995348
0.997426 0.994692 0.933451
0.996811 0.994836 0.850111
0.994712 0.994858 0.797897
0.994772 0.995174 0.854036
0.994792 0.994836 0.930378
0.994916 0.996846 0.958823
0.994953 0.996102 0.962963
0.994849 0.994672 0.935349
0.995774 0.994806 0.960136
0.997089 0.995876 1.00496
0.997672 0.995831 1.00558
1.00004 0.99491 1.00139
0.995654 0.997663 0.992968
0.996184 0.995192 0.992702
0.99992 0.996517 0.920123
0.999776 0.994899 0.858739
0.994753 0.994721 0.788705
0.995354 0.997674 0.981301
0.994914 0.994772 0.950755
0.99922 0.994837 0.851088
0.995974 0.994719 0.936596
0.996339 0.996742 0.985577
0.999707 0.994852 0.931347
0.995358 0.99479 0.956441
0.999654 0.994619 0.984509
0.997678 0.994813 0.968391
0.999765 0.998834 0.99361
1.00239 0.996696 0.99195
1.00499 0.994578 0.991757
1.00463 0.995061 0.99128
1.00507 0.994627 0.991109
1.00528 0.994616 0.990808
1.00482 0.996264 0.989654
1.00531 0.994715 0.990381
1.00533 0.994776 0.990527
1.00536 0.994792 0.990263
1.00527 0.994776 0.990831
1.00532 0.994823 0.99068
1.0053 0.994811 0.990891
1.00535 0.994821 0.990823
1.00525 0.994793 0.991093
1.00528 0.99483 0.991085
1.00526 0.995036 0.990892
1.00536 0.996488 0.989255
1.00532 0.995617 0.990036
1.00528 0.995419 0.990289
1.00541 1.00041 0.985147
1.00548 0.998059 0.987126
1.00536 0.997218 0.9877
1.00527 1.00344 0.98304
1.00551 1.00195 0.983693
1.00551 1.0004 0.985278
1.0025 1.00372 0.986978
1.0043 1.00258 0.98487
1.00553 1.00313 0.982727
1.00044 1.00131 0.997035
1.00152 1.00377 0.988504
1.00294 1.0038 0.986935
1.00043 1.00067 0.997322
1.0015 1.00253 0.990089
1.00049 1.00032 0.997472
1.00534 1.0038 0.982992
1.00535 1.00358 0.982816
1.00331 1.0043 0.984464
1.00276 1.00298 0.986019
1.00267 1.00326 0.986767
1.00182 1.0042 0.986883
1.00207 1.00347 0.987312
1.00122 1.00518 0.987773
1.00083 1.00261 0.991201
1.00009 0.999224 0.998129
1.00011 1.00217 0.992586
1.00062 1.00517 0.988192
1 0.998727 0.998498
0.999917 1.00166 0.993307
0.999962 0.998228 0.998702
0.999968 0.994834 0.93629
0.999849 0.994912 0.850594
0.99475 0.994772 0.7838
1.00301 1.00581 0.984051
1.00409 1.00418 0.983598
1.00265 1.00036 0.990774
1.00495 1.00253 0.98442
1.00527 0.999156 0.986508
1.00421 0.99551 0.991515
1.00115 0.999676 0.993925
1.00478 0.995223 0.991475
1.0018 0.996817 0.995922
1.00418 0.99767 0.991032
1.00207 0.998292 0.993737
1.00164 0.998797 0.994629
1.00138 0.998334 0.995807
1.00134 0.997302 0.996863
0.994957 0.994778 0.959114
0.996932 0.994669 0.928327
0.995751 0.9948 0.869011
0.994798 0.994642 0.92111
0.9949 0.996078 0.963558
0.99576 0.995239 0.966197
0.998704 0.994807 0.990542
0.998639 0.995456 1.00351
0.997172 0.99658 1.00566
0.997955 0.996238 0.994182
0.99894 0.994749 0.959698
1.00058 0.994873 0.936173
0.999635 0.998602 0.837868
0.996175 0.996829 0.986028
0.995934 0.994789 0.956494
0.999003 0.994794 0.926085
0.999249 0.995745 0.985106
0.99757 0.994816 0.967224
1.00221 0.996939 0.987342
1.0034 0.994713 0.984664
1.00141 0.996675 0.99198
1.00437 0.99459 0.991842
1.00521 0.994801 0.990892
1.005 0.994637 0.991045
1.00528 0.994635 0.990761
1.00539 0.994808 0.990481
1.0053 0.994716 0.990331
1.00534 0.994779 0.990528
1.00536 0.994842 0.990558
1.00527 0.99478 0.990827
1.00533 0.994823 0.990706
1.00534 0.994855 0.990749
1.00529 0.994811 0.990885
1.00535 0.994819 0.99082
1.00532 0.994851 0.990976
1.00528 0.99482 0.99109
1.00526 0.994981 0.990916
1.00527 0.995964 0.99006
1.00534 0.998913 0.986897
1.00537 0.996728 0.988918
1.00533 0.995638 0.990042
1.00533 1.0027 0.983229
1.00541 1.00059 0.985161
1.0055 0.998193 0.986937
1.00321 1.00284 0.986714
1.00472 1.00378 0.983077
1.00553 1.00201 0.983811
1.00134 1.00201 0.996189
1.00248 1.00364 0.98688
1.00375 1.0032 0.984942
1.00087 1.00154 0.996658
1.00176 1.00346 0.988459
1.00063 1.00057 0.997134
1.00535 1.00118 0.984741
1.00532 1.00345 0.982925
1.0047 1.00406 0.982976
1.00536 1.00269 0.982886
1.00437 1.00374 0.984134
1.00317 1.00332 0.985661
1.00274 1.00506 0.986553
1.00251 1.00424 0.986909
1.00132 1.00322 0.989443
1.00124 1.00514 0.987699
1.00053 1.0028 0.991209
1.00021 1.00036 0.997545
1.00004 0.999086 0.99825
0.999888 1.00217 0.992592
0.999939 0.99863 0.998563
0.995389 0.994841 0.963034
0.999246 0.994887 0.920025
0.999802 0.996558 0.86598
1.00531 0.996839 0.988435
1.004 1.0002 0.989001
1.00462 1.00273 0.984495
1.00459 0.995696 0.991444
1.00527 0.999235 0.9866
1.00524 0.995851 0.990077
1.00505 0.995511 0.990497
1.00128 0.996771 0.995925
1.00456 0.996019 0.991076
1.00183 0.998251 0.993712
1.00355 0.998444 0.990303
1.00321 0.994737 0.994592
1.00122 0.998452 0.994962
1.00116 0.998515 0.995931
0.998249 0.994701 0.988784
0.995513 0.994764 0.957536
0.996407 0.994711 0.921949
0.995352 0.994853 0.967778
0.998731 0.994824 0.992882
0.999202 0.995046 1.00203
1.00402 0.994948 0.976379
0.999815 0.994833 0.957503
1.0001 0.995941 0.920293
0.998478 0.996696 0.985664
0.997092 0.994797 0.966842
1.00151 0.995871 0.988032
1.00263 0.99472 0.985156
1.0033 0.997055 0.990109
1.00542 0.994641 0.990737
1.0038 0.994607 0.991933
1.00519 0.99478 0.990897
1.00539 0.994886 0.990499
1.00529 0.994663 0.990714
1.00538 0.99481 0.99049
1.00539 0.994846 0.990556
1.00534 0.994785 0.99053
1.00535 0.994842 0.990564
1.00533 0.994875 0.990798
1.00533 0.994824 0.990733
1.00535 0.994856 0.990743
1.00532 0.994865 0.990942
1.00535 0.994816 0.990818
1.00531 0.994841 0.990953
1.00531 0.995031 0.990978
1.00527 0.994928 0.99094
1.00528 0.995726 0.990241
1.00532 0.998225 0.98785
1.00531 1.00159 0.984447
1.00533 0.999205 0.986626
1.00537 0.996947 0.988581
1.00353 1.00158 0.987195
1.0053 1.00272 0.983242
1.0054 1.00071 0.985173
1.00213 1.00162 0.995929
1.00321 1.00261 0.986641
1.00438 1.00391 0.983095
1.00158 1.00202 0.996049
1.00244 1.00352 0.986767
1.00114 1.00196 0.996344
1.00536 0.998616 0.986763
1.00532 1.00123 0.984695
1.00543 1.00269 0.983312
1.0053 1.00337 0.982865
1.00496 1.00414 0.982714
1.00368 1.00378 0.984543
1.00534 1.00296 0.98381
1.00322 1.00366 0.985702
1.00177 1.00366 0.988166
1.00243 1.00433 0.986883
1.00127 1.00346 0.989481
1.0005 1.0015 0.996984
1.00034 1.00303 0.991219
1.00004 1.00012 0.997785
0.999969 0.999134 0.998346
0.999085 0.994666 0.985536
0.99644 0.994806 0.95796
0.999985 0.994824 0.936018
1.00538 0.995311 0.989802
1.00531 0.995137 0.990135
1.00532 0.99657 0.988654
1.00498 0.995794 0.991375
1.00528 0.99921 0.9867
1.00525 0.995715 0.990118
1.00538 0.994872 0.990025
1.00489 0.994987 0.991127
1.00215 0.998239 0.993709
1.00354 0.998085 0.991007
1.0052 0.994785 0.991127
1.00363 0.994731 0.993264
1.00255 0.994785 0.994475
1.00131 0.998201 0.995295
0.998883 0.994661 0.988652
0.996328 0.994799 0.95662
0.999119 0.994843 0.995356
1.00483 0.995779 0.989446
1.00379 0.995226 0.976465
0.998983 0.994852 0.957905
1.00148 0.994837 0.988612
1.00199 0.994719 0.985676
1.00358 0.995985 0.990461
1.00541 0.99464 0.990899
1.00545 0.99474 0.990968
1.0055 0.994783 0.991338
1.0052 0.994762 0.990898
1.0054 0.994869 0.990513
1.0054 0.994846 0.990841
1.00538 0.994806 0.990498
1.0054 0.994844 0.990579
1.00534 0.994858 0.990882
1.00535 0.994841 0.99057
1.00534 0.994875 0.990795
1.00529 0.994897 0.991027
1.00536 0.994857 0.990736
1.00531 0.994865 0.990941
1.00532 0.994873 0.99115
1.0053 0.994832 0.99093
1.0053 0.995043 0.990888
1.00533 0.997242 0.988801
1.00528 0.995499 0.990422
1.00531 0.998109 0.987985
1.00531 1.00086 0.985274
1.00364 1.00094 0.987795
1.00533 1.00155 0.984478
1.00533 0.999515 0.986355
1.00246 1.00086 0.996
1.0035 1.0017 0.987253
1.00521 1.00296 0.983253
1.00221 1.00147 0.995931
1.00325 1.00267 0.98658
1.0018 1.00207 0.995945
1.00532 0.996254 0.989095
1.00535 0.998431 0.987057
1.00544 1.00104 0.984861
1.0053 1.0013 0.984643
1.00544 1.00274 0.98319
1.00437 1.00385 0.983396
1.0054 1.00409 0.982447
1.00396 1.00362 0.98453
1.00228 1.00389 0.986975
1.00372 1.00372 0.985768
1.00166 1.00376 0.988194
1.00085 1.00208 0.996536
1.00095 1.0037 0.989516
1.00029 1.00127 0.997174
1 0.999762 0.997998
1.0037 0.994937 0.992253
0.998711 0.994849 0.982949
0.99619 0.994794 0.959069
1.00534 0.994855 0.99033
1.00536 0.995241 0.989904
1.00528 0.994844 0.990825
1.00531 0.99533 0.990085
1.00534 0.996363 0.988861
1.00542 0.994788 0.990426
1.00527 0.995565 0.990144
1.00535 0.994951 0.990025
1.00533 0.994723 0.990857
1.00358 0.997244 0.991703
1.00521 0.994768 0.990768
1.00298 0.994633 0.993496
1.00154 0.994811 0.994391
0.999462 0.994623 0.988269
1.00545 0.994782 0.991502
1.00527 0.994985 0.98945
1.00364 0.994987 0.976639
1.00371 0.994892 0.990793
1.00538 0.994641 0.991054
1.00542 0.994736 0.990927
1.00553 0.994791 0.99145
1.00541 0.994814 0.991374
1.00541 0.994846 0.99053
1.0054 0.994842 0.990839
1.00534 0.994869 0.991143
1.0054 0.994843 0.990603
1.00534 0.994861 0.990883
1.00528 0.994906 0.991168
1.00534 0.994876 0.990792
1.00529 0.994898 0.991024
1.00524 0.994899 0.991344
1.00531 0.994866 0.990941
1.00532 0.994874 0.991113
1.00533 0.9963 0.989867
1.0053 0.995055 0.990799
1.00534 0.997287 0.988788
1.00531 1.00025 0.985965
1.0053 0.997983 0.988119
1.00532 1.00083 0.985303
1.00356 1.00078 0.99001
1.00283 0.999874 0.992329
1.00364 1.00098 0.988754
1.00533 1.0015 0.984508
1.00238 1.00079 0.996065
1.00346 1.00154 0.98731
1.0022 1.00142 0.995963
1.00528 0.994873 0.991069
1.0053 0.995293 0.99044
1.00531 0.996283 0.989327
1.00529 0.999432 0.9865
1.00533 0.998197 0.987353
1.00539 1.00102 0.984797
1.00507 1.00311 0.983192
1.00545 1.00279 0.983068
1.00479 1.00348 0.98336
1.00301 1.00314 0.986324
1.00438 1.00352 0.984524
1.00228 1.00387 0.987012
1.00153 1.00237 0.996004
1.00175 1.00381 0.988235
1.00072 1.00191 0.996718
0.99999 1.00108 0.997405
1.00537 0.99482 0.991292
1.00347 0.994939 0.991697
0.998722 0.995156 0.980417
1.00531 0.99483 0.990768
1.00534 0.994957 0.990275
1.00533 0.995132 0.990021
1.00528 0.994856 0.990846
1.00531 0.995519 0.990036
1.00537 0.994855 0.990849
1.00539 0.994783 0.990375
1.00532 0.995064 0.990028
1.00528 0.994735 0.990899
1.0052 0.994775 0.990409
1.00263 0.994524 0.993685
1.00536 0.994846 0.991425
1.00543 0.994794 0.991503
1.00539 0.994759 0.989453
1.00538 0.994718 0.990879
1.00558 0.994799 0.99156
1.00542 0.994829 0.991351
1.00534 0.994893 0.991406
1.00539 0.994844 0.990837
1.00534 0.994872 0.991102
1.00528 0.994921 0.991328
1.00534 0.994864 0.990884
1.00528 0.994907 0.991167
1.00515 0.994931 0.991564
1.0053 0.994899 0.99102
1.00526 0.994901 0.991323
1.00533 0.995647 0.990713
1.00532 0.994876 0.991077
1.00533 0.996342 0.989854
1.00529 0.999772 0.986551
1.00536 0.99733 0.988776
1.00531 1.00023 0.986001
1.00355 1.00059 0.990181
1.00534 1.00079 0.985334
1.0038 1.00062 0.989848
1.00282 0.999623 0.992452
1.00247 1.00021 0.994343
1.00384 1.00099 0.989499
1.00236 1.00067 0.996114
1.00528 0.994881 0.99103
1.0053 0.995035 0.990838
1.00528 0.994878 0.991101
1.00532 0.997927 0.988049
1.00529 0.995227 0.990566
1.00531 0.996338 0.989558
1.0053 0.999374 0.986482
1.00535 1.00171 0.984221
1.00535 1.001 0.984736
1.00516 1.00304 0.983182
1.00342 1.002 0.986989
1.00502 1.00336 0.983329
1.00302 1.00326 0.986398
1.00202 1.00185 0.995878
1.00228 1.00382 0.987054
1.00131 1.00212 0.996215
1.0005 1.00187 0.99685
1.00534 0.994881 0.991122
1.00534 0.994817 0.991349
1.00281 0.9948 0.991166
1.0053 0.994906 0.990965
1.00531 0.99483 0.990726
1.00534 0.995041 0.990221
1.00529 0.994865 0.990866
1.00538 0.994866 0.990813
1.00536 0.994783 0.990323
1.00526 0.994756 0.990938
1.00536 0.994891 0.991412
1.00535 0.994849 0.991389
1.0054 0.994803 0.991501
1.00532 0.994911 0.991473
1.00543 0.994847 0.991328
1.00534 0.994891 0.991396
1.00528 0.994926 0.991455
1.00534 0.994873 0.991062
1.00528 0.994921 0.991333
1.00511 0.994959 0.991718
1.00528 0.994907 0.991167
1.00517 0.994932 0.991555
1.00532 0.995249 0.991266
1.00528 0.994902 0.991302
1.00529 0.995693 0.990711
1.0053 0.999377 0.986973
1.00533 0.996382 0.989841
1.00528 0.999758 0.986584
1.00351 1.00051 0.990282
1.00531 1.00021 0.986038
1.00377 1.00048 0.989997
1.00274 0.999702 0.992465
1.00404 1.00046 0.989693
1.00229 0.999774 0.992857
1.00171 1.00057 0.996782
1.00526 0.994932 0.991097
1.00528 0.99489 0.991135
1.00528 0.994885 0.991047
1.00534 0.997271 0.988716
1.00531 0.994936 0.990933
1.00527 0.994883 0.991135
1.00536 1.00057 0.985448
1.00532 0.997843 0.988059
1.00529 0.995148 0.990692
1.0053 0.999315 0.986463
1.00535 1.00176 0.984186
1.00345 1.00121 0.987834
1.00536 1.00292 0.983159
1.00336 1.00207 0.986966
1.00214 1.00112 0.996076
1.00298 1.00329 0.986451
1.00196 1.00188 0.995886
1.00115 1.00202 0.996448
1.00531 0.994915 0.991273
1.00537 0.994873 0.991055
1.0053 0.994802 0.991412
1.00529 0.994907 0.99097
1.00532 0.994827 0.990686
1.00539 0.994873 0.990777
1.00532 0.994921 0.991464
1.00536 0.994895 0.991419
1.00536 0.994854 0.991352
1.00532 0.994912 0.991486
1.00526 0.994935 0.991611
1.00534 0.994889 0.991387
1.00528 0.994929 0.991487
1.0051 0.994954 0.99176
1.00528 0.994921 0.991338
1.00512 0.994958 0.991718
1.00529 0.995012 0.991566
1.00519 0.994932 0.991546
1.00528 0.995291 0.991262
1.00535 0.999009 0.987308
1.00524 0.99574 0.990709
1.00532 0.999364 0.986991
1.00343 1.00045 0.990427
1.00528 0.999744 0.986619
1.00373 1.00042 0.990086
1.00261 0.999869 0.992456
1.00399 1.00037 0.98982
1.00226 0.999758 0.99289
1.00177 0.999955 0.993247
1.00524 0.994939 0.991307
1.00521 0.994945 0.991348
1.00526 0.994928 0.99107
1.00528 0.996438 0.989818
1.00529 0.9949 0.991105
1.00527 0.994889 0.991062
1.00529 0.999912 0.986315
1.00533 0.996913 0.989113
1.00531 0.994883 0.991028
1.00354 1.00062 0.988302
1.00534 1.00063 0.985404
1.00532 0.997764 0.98807
1.00534 1.00179 0.984153
1.00347 1.00117 0.987788
1.00219 1.00062 0.996215
1.00332 1.00225 0.986956
1.00219 1.00124 0.995999
1.00185 1.00183 0.995958
1.00528 0.994936 0.991473
1.00531 0.994912 0.991232
1.00539 0.994864 0.990987
1.00529 0.994912 0.990975
1.00523 0.99495 0.991644
1.00533 0.994919 0.991467
1.00536 0.994897 0.991425
1.00532 0.994913 0.9915
1.00526 0.994934 0.991616
1.00509 0.994952 0.991903
1.00528 0.994932 0.99152
1.0051 0.994956 0.991819
1.00528 0.994978 0.991613
1.00512 0.994957 0.991717
1.00528 0.995055 0.99156
1.00539 0.998673 0.987625
1.00524 0.995347 0.991258
1.00538 0.998989 0.987308
1.00345 1.00037 0.988794
1.00533 0.999353 0.987008
1.00364 1.00041 0.989341
1.00222 0.999958 0.996226
1.00394 1.00035 0.989888
1.00217 0.999883 0.992882
1.0018 0.999801 0.993298
1.00523 0.994955 0.991466
1.00516 0.994952 0.991507
1.00524 0.994943 0.991343
1.00526 0.995589 0.99088
1.0052 0.994945 0.991313
1.00525 0.994925 0.991042
1.00527 0.998921 0.987513
1.00528 0.996408 0.989816
1.00529 0.994911 0.991076
1.0036 1.00034 0.988516
1.00529 0.999628 0.98661
1.00532 0.996524 0.989508
1.00226 1.0002 0.996284
1.00357 1.00058 0.988264
1.00533 1.00068 0.985358
1.0035 1.00113 0.987745
1.00224 1.00065 0.996175
1.00222 1.00131 0.995909
1.00522 0.994959 0.991555
1.00528 0.994939 0.991458
1.00531 0.994912 0.991191
1.00507 0.994958 0.992005
1.00523 0.994947 0.991615
1.00533 0.994917 0.99147
1.00526 0.994931 0.99162
1.0051 0.994952 0.991901
1.00529 0.995696 0.990924
1.0051 0.994957 0.991878
1.00528 0.995347 0.991276
1.0054 0.997778 0.9886
1.00526 0.995101 0.991552
1.0054 0.998654 0.987619
1.0034 1.00014 0.98911
1.0054 0.998972 0.987311
1.00348 1.00033 0.988802
1.00211 1.00002 0.996259
1.00371 1.00038 0.988438
1.00203 1.00001 0.99466
1.00174 0.99988 0.993306
1.00519 0.994957 0.991626
1.00511 0.994959 0.991733
1.00522 0.994953 0.991479
1.00525 0.995537 0.991052
1.00516 0.994953 0.991542
1.00524 0.994946 0.991379
1.00533 0.998558 0.987788
1.00527 0.995863 0.990517
1.0052 0.994944 0.991278
1.0036 1.00029 0.988585
1.00526 0.99884 0.987554
1.00529 0.996372 0.989813
1.00229 0.999976 0.996278
1.0036 1.00035 0.988498
1.0053 0.999337 0.986907
1.00231 1.00022 0.996262
1.00359 1.00055 0.988227
1.00225 1.00071 0.996144
1.00508 0.99496 0.991893
1.00521 0.994958 0.991587
1.00529 0.994942 0.991443
1.0053 0.995715 0.990899
1.00507 0.994955 0.991967
1.00523 0.994943 0.991586
1.0051 0.994953 0.991898
1.00528 0.995691 0.990921
1.00539 0.997677 0.988712
1.00528 0.995691 0.990938
1.0054 0.9981 0.98822
1.00335 0.999933 0.98939
1.00542 0.998632 0.987612
1.00339 1.00015 0.989118
1.00197 1.00002 0.996327
1.0035 1.00031 0.988806
1.00205 1.00003 0.996279
1.00213 1.00001 0.99273
1.00508 0.994959 0.991859
1.00518 0.994956 0.991558
1.00525 0.995421 0.991222
1.00511 0.994961 0.991736
1.00522 0.994952 0.991492
1.00535 0.99902 0.987233
1.00527 0.995454 0.991051
1.00515 0.994953 0.991577
1.00354 1.00031 0.988697
1.00532 0.998875 0.987437
1.00528 0.996147 0.990156
1.00224 0.99995 0.996247
1.00359 1.00032 0.988582
1.00526 0.998761 0.987597
1.00233 0.999997 0.996284
1.0036 1.00037 0.988475
1.00238 1.00023 0.996234
1.0053 0.995795 0.990778
1.00508 0.994959 0.991927
1.0052 0.994957 0.991619
1.00539 0.99773 0.988661
1.00529 0.995716 0.990894
1.00508 0.994952 0.99193
1.00528 0.995678 0.990918
1.00539 0.997661 0.988702
1.00329 0.999815 0.989615
1.00541 0.998432 0.987839
1.00335 0.999934 0.989395
1.00189 1 0.996403
1.0034 1.00015 0.989129
1.00193 1.00004 0.996362
1.00201 1.00005 0.996307
1.00527 0.995316 0.991358
1.00508 0.994961 0.991826
1.00517 0.994955 0.99149
1.00536 0.998841 0.987426
1.00527 0.995354 0.991222
1.00511 0.994962 0.991739
1.00346 1.00026 0.988905
1.00534 0.99905 0.987237
1.00529 0.995371 0.99105
1.00211 1.00001 0.996243
1.00352 1.00034 0.988697
1.00531 0.999185 0.987086
1.00228 0.999953 0.996257
1.00356 1.00037 0.988575
1.00239 0.999988 0.996282
1.00539 0.998485 0.987794
1.00529 0.995482 0.991143
1.00508 0.994957 0.991961
1.00326 0.999755 0.989757
1.0054 0.997699 0.98867
1.00529 0.995714 0.990889
1.0054 0.99765 0.988693
1.00331 0.999789 0.989616
1.00182 0.999989 0.99645
1.00335 0.999936 0.9894
1.00186 1.00001 0.996416
1.00187 1.00006 0.996389
1.00538 0.998662 0.987629
1.00528 0.995281 0.991372
1.00509 0.994962 0.991793
1.00354 1.00013 0.990632
1.00535 0.99886 0.987433
1.00528 0.995286 0.991222
1.00199 1.00006 0.996285
1.00344 1.0003 0.988906
1.00533 0.999081 0.987242
1.00217 0.999998 0.996245
1.0035 1.00038 0.988697
1.00233 0.999944 0.996269
1.00339 0.99976 0.989594
1.00538 0.998164 0.988166
1.00529 0.995173 0.991509
1.00174 0.999976 0.996511
1.00326 0.999735 0.989746
1.0054 0.997672 0.98868
1.00332 0.999762 0.989613
1.00179 0.999981 0.996471
1.00182 1.00002 0.996434
1.0036 0.999941 0.9908
1.00537 0.998669 0.987636
1.00529 0.995244 0.991386
1.00132 1.0001 0.997017
1.00336 1.00015 0.989176
1.00535 0.998877 0.987443
1.00202 1.00005 0.996276
1.00341 1.00034 0.988906
1.00222 0.999983 0.996245
1.00174 0.999887 0.993435
1.00341 0.999786 0.990321
1.00538 0.997836 0.988534
1.00176 0.999974 0.996517
1.00328 0.999721 0.989742
1.0018 0.999973 0.996486
1.00113 1.00004 0.993965
1.00346 0.999901 0.990123
1.00536 0.998679 0.98764
1.00157 1.00007 0.995075
1.00333 1.00016 0.989199
1.00206 1.00004 0.99627
1.00176 0.99997 0.996505
1.00325 0.999786 0.989704
1.00173 0.999966 0.996513
1.0015 0.999959 0.99523
1.00332 0.999892 0.989505
1.00192 1.00006 0.996328
1.00177 0.999989 0.996496
1.00181 1.00001 0.99642

TENSORS stress float
0.00273249 -0.000193835 0.000316985
-0.000193835 0.00144479 -5.97296e-05
0.000316985 -5.97296e-05 0.00141646
0.00826944 0.000182434 0.000390476
0.000182434 0.00505243 5.10153e-05
0.000390476 5.10153e-05 0.00507028
0.0023153 -0.000123052 0.000124889
-0.000123052 0.00116729 -2.26262e-05
0.000124889 -2.26262e-05 0.00112341
0.00251432 -0.000107478 0.000295579
-0.000107478 0.00128845 -3.35787e-05
0.000295579 -3.35787e-05 0.00127253
0.00268716 -0.000167991 0.000306624
-0.000167991 0.00140921 -5.17942e-05
0.000306624 -5.17942e-05 0.00138489
0.00283419 -0.000203956 0.000331785
-0.000203956 0.00150909 -6.31391e-05
0.000331785 -6.31391e-05 0.00148131
0.00221103 -0.00023611 6.32678e-05
-0.00023611 0.000930956 -1.64664e-05
6.32678e-05 -1.64664e-05 0.000774728
0.00843242 0.000175631 -9.97041e-06
0.000175631 0.00514887 -3.55118e-06
-9.97041e-06 -3.55118e-06 0.00517079
0.00734317 0.000285835 0.000190673
0.000285835 0.00447408 2.23372e-05
0.000190673 2.23372e-05 0.00443869
0.00773449 0.000101975 0.000133432
0.000101975 0.00467922 9.78168e-06
0.000133432 9.78168e-06 0.00465787
0.00207469 0.000268527 0.000352091
0.000268527 0.00104676 5.61261e-05
0.000352091 5.61261e-05 0.00102318
0.000254587 0.000306064 2.57678e-05
0.000306064 -0.000263778 2.36271e-05
2.57678e-05 2.36271e-05 -0.000462276
0.00202379 -2.7772e-05 0.000282837
-2.7772e-05 0.000969043 5.78163e-06
0.000282837 5.78163e-06 0.000975618
0.00178211 9.30383e-06 8.11269e-05
9.30383e-06 0.000838737 3.54356e-06
8.11269e-05 3.54356e-06 0.000785565
0.00197238 -0.000120395 -7.89796e-05
-0.000120395 0.000959975 1.52323e-05
-7.89796e-05 1.52323e-05 0.00089058
0.00216208 -0.000104662 9.4774e-05
-0.000104662 0.00108015 -6.53368e-06
9.4774e-05 -6.53368e-06 0.00104023
0.00239051 -0.000116503 0.000137819
-0.000116503 0.00121748 -2.58356e-05
0.000137819 -2.58356e-05 0.0011714
0.00227164 -0.000123532 0.000111678
-0.000123532 0.00114129 -1.67164e-05
0.000111678 -1.67164e-05 0.00109928
0.00233613 -0.000272656 -4.90448e-05
-0.000272656 0.00101375 8.60197e-06
-4.90448e-05 8.60197e-06 0.000867774
0.00678151 -0.000175155 0.000377925
-0.000175155 0.0041133 -2.0169e-05
0.000377925 -2.0169e-05 0.00414174
0.00237184 -8.1095e-05 0.000287721
-8.1095e-05 0.00119808 -2.52622e-05
0.000287721 -2.52622e-05 0.00118625
0.0026116 -0.000137067 0.000300031
-0.000137067 0.00135475 -4.26844e-05
0.000300031 -4.26844e-05 0.00133492
0.00210982 -0.000180808 7.80258e-05
-0.000180808 0.000904729 -1.31028e-05
7.80258e-05 -1.31028e-05 0.000787063
0.00218543 -0.000224798 7.03756e-05
-0.000224798 0.000920906 -1.59755e-05
7.03756e-05 -1.59755e-05 0.000780597
0.00274141 -0.000186185 0.000338309
-0.000186185 0.00144391 -6.07818e-05
0.000338309 -6.07818e-05 0.00142013
0.00224543 -0.000246839 6.02076e-05
-0.000246839 0.000960719 -1.74721e-05
6.02076e-05 -1.74721e-05 0.000784185
0.00219932 -0.00048108 1.69393e-05
-0.00048108 0.000591 -6.48695e-06
1.69393e-05 -6.48695e-06 0.00029369
0.00852976 0.000176137 -0.000422836
0.000176137 0.00519999 -4.41656e-05
-0.000422836 -4.41656e-05 0.00522994
0.0048979 0.00020952 -0.000169888
0.00020952 0.0028643 -2.15623e-05
-0.000169888 -2.15623e-05 0.00283822
0.00508683 0.000153577 -0.000180146
0.000153577 0.0029809 -2.28322e-05
-0.000180146 -2.28322e-05 0.00295831
0.00880348 0.000118059 -3.81308e-06
0.000118059 0.00539077 -2.2707e-06
-3.81308e-06 -2.2707e-06 0.00541426
0.000256561 0.000292667 -1.41934e-06
0.000292667 -0.000254538 -1.11922e-06
-1.41934e-06 -1.11922e-06 -0.000450636
0.00218796 8.39361e-05 0.000297226
8.39361e-05 0.00107328 3.0994e-05
0.000297226 3.0994e-05 0.00106343
0.00229853 0.000176054 0.000310482
0.000176054 0.00117257 4.87575e-05
0.000310482 4.87575e-05 0.00114859
0.00304075 0.000276404 0.000180161
0.000276404 0.0014793 2.84689e-05
0.000180161 2.84689e-05 0.00136785
0.00835105 -0.000198372 6.76208e-05
-0.000198372 0.00514821 4.19655e-06
6.76208e-05 4.19655e-06 0.00510293
0.00323239 0.000382064 0.000197849
0.000382064 0.00165312 3.80197e-05
0.000197849 3.80197e-05 0.00150902
0.000194224 0.000278248 2.6386e-05
0.000278248 -0.000281701 3.28283e-05
2.6386e-05 3.28283e-05 -0.000481404
0.00140644 0.000507184 3.04515e-05
0.000507184 0.000210795 5.5031e-06
3.04515e-05 5.5031e-06 -0.000156758
0.00661893 -9.15515e-05 0.0002542
-9.15515e-05 0.00409075 3.36008e-05
0.0002542 3.36008e-05 0.00408322
0.00669656 9.29806e-05 2.8708e-06
9.29806e-05 0.00404186 -2.22339e-06
2.8708e-06 -2.22339e-06 0.00407999
0.004425 0.000107861 -0.000142506
0.000107861 0.00255805 -7.13341e-06
-0.000142506 -7.13341e-06 0.00254842
0.00656787 5.74552e-05 0.000365754
5.74552e-05 0.00396018 5.33189e-06
0.000365754 5.33189e-06 0.00399968
0.00167193 9.32427e-05 8.3053e-05
9.32427e-05 0.000771995 6.71353e-06
8.3053e-05 6.71353e-06 0.000722717
0.000415583 1.73549e-05 1.22834e-05
1.73549e-05 -0.000196763 2.83874e-06
1.22834e-05 2.83874e-06 -0.000295069
0.00694814 0.000256047 0.000213103
0.000256047 0.00424083 2.21379e-05
0.000213103 2.21379e-05 0.00421389
0.00298787 0.000105056 0.000164337
0.000105056 0.00145175 1.25058e-05
0.000164337 1.25058e-05 0.00138532
0.00179373 -0.000105482 -9.71145e-05
-0.000105482 0.000862206 1.37017e-05
-9.71145e-05 1.37017e-05 0.000797731
0.00185075 -0.000138286 -9.09829e-05
-0.000138286 0.000896018 1.7417e-05
-9.09829e-05 1.7417e-05 0.000824451
0.00205888 -8.55605e-05 -6.70641e-05
-8.55605e-05 0.00100432 1.28074e-05
-6.70641e-05 1.28074e-05 0.000937151
0.00241738 -0.00027382 -0.000168452
-0.00027382 0.00105503 3.36155e-05
-0.000168452 3.36155e-05 0.000924632
0.0042951 -4.50954e-05 -0.000145526
-4.50954e-05 0.00248128 -7.57862e-07
-0.000145526 -7.57862e-07 0.00247242
0.00207965 -8.29842e-05 9.74192e-05
-8.29842e-05 0.00102502 -5.04254e-06
9.74192e-05 -5.04254e-06 0.000990495
0.00255522 -9.20276e-05 0.000142284
-9.20276e-05 0.00132061 -2.45921e-05
0.000142284 -2.45921e-05 0.00127349
0.00221726 -0.000113813 0.000101627
-0.000113813 0.00111082 -1.08589e-05
0.000101627 -1.08589e-05 0.00107006
0.00219227 -0.000158311 -4.00375e-05
-0.000158311 0.00094357 3.60117e-06
-4.00375e-05 3.60117e-06 0.000841507
0.0023648 -0.000294663 -5.65991e-05
-0.000294663 0.00103782 1.00572e-05
-5.65991e-05 1.00572e-05 0.000873296
0.0022748 -0.000238775 -4.35863e-05
-0.000238775 0.000976212 6.40185e-06
-4.35863e-05 6.40185e-06 0.000847263
0.00233461 -0.000491895 -1.0364e-05
-0.000491895 0.000678271 2.79624e-06
-1.0364e-05 2.79624e-06 0.000381463
0.00659542 -2.10422e-05 0.000364426
-2.10422e-05 0.00397427 -5.51802e-06
0.000364426 -5.51802e-06 0.00401517
0.00228305 -5.42988e-05 0.000281443
-5.42988e-05 0.00114334 -1.78753e-05
0.000281443 -1.78753e-05 0.00113673
0.00253603 -3.22749e-05 6.09157e-05
-3.22749e-05 0.00120133 -1.40665e-06
6.09157e-05 -1.40665e-06 0.00112431
0.0020169 -0.000142137 6.99549e-05
-0.000142137 0.00085001 -8.74651e-06
6.99549e-05 -8.74651e-06 0.000745892
0.00213869 -0.000202688 7.52956e-05
-0.000202688 0.000907148 -1.50333e-05
7.52956e-05 -1.50333e-05 0.000779442
0.00203641 -0.000295546 1.91699e-06
-0.000295546 0.000415119 -1.76715e-06
1.91699e-06 -1.76715e-06 0.000222244
0.00211172 -0.000424559 1.20352e-05
-0.000424559 0.000481774 -3.57846e-06
1.20352e-05 -3.57846e-06 0.000231232
0.00286752 -0.000157137 0.000345506
-0.000157137 0.00151865 -5.60882e-05
0.000345506 -5.60882e-05 0.0014952
0.0022524 -0.0002047 5.16224e-05
-0.0002047 0.00100354 -1.60689e-05
5.16224e-05 -1.60689e-05 0.000820849
0.00215522 -0.000539394 1.99471e-05
-0.000539394 0.000596672 -6.44645e-06
1.99471e-05 -6.44645e-06 0.00025106
0.00215383 -0.000644533 1.06825e-06
-0.000644533 0.000303832 2.87601e-06
1.06825e-06 2.87601e-06 -3.13899e-05
0.00783931 0.000341005 -0.000426557
0.000341005 0.00478929 -5.52979e-05
-0.000426557 -5.52979e-05 0.00479989
0.00869044 7.902e-05 -0.000384012
7.902e-05 0.00532005 -3.73104e-05
-0.000384012 -3.73104e-05 0.00534325
0.00810841 0.000233966 -0.000407375
0.000233966 0.00493351 -4.7561e-05
-0.000407375 -4.7561e-05 0.00495806
0.000160997 0.000272678 -2.54686e-05
0.000272678 -0.0003079 -2.34403e-05
-2.54686e-05 -2.34403e-05 -0.000502625
0.00749621 0.000282163 -2.06476e-06
0.000282163 0.00456163 -2.82919e-06
-2.06476e-06 -2.82919e-06 0.00458011
0.00790005 0.00031161 -7.97824e-06
0.00031161 0.00481623 -4.049e-06
-7.97824e-06 -4.049e-06 0.00482933
0.000363885 0.000185577 1.37107e-07
0.000185577 -0.000270447 -2.96006e-07
1.37107e-07 -2.96006e-07 -0.000424386
0.00478016 -1.54306e-06 -0.000169507
-1.54306e-06 0.00282906 -1.25692e-05
-0.000169507 -1.25692e-05 0.00279568
0.00031907 0.000271121 1.91459e-06
0.000271121 -0.000247542 -4.08629e-07
1.91459e-06 -4.08629e-07 -0.00043432
0.00203813 0.000321828 8.61666e-05
0.000321828 0.000916253 5.97191e-06
8.61666e-05 5.97191e-06 0.000748531
0.00131124 0.000513776 1.00433e-06
0.000513776 0.000131331 3.33263e-07
1.00433e-06 3.33263e-07 -0.000242036
0.0074229 -4.60032e-05 0.000312687
-4.60032e-05 0.00458672 4.06301e-05
0.000312687 4.06301e-05 0.00458669
0.0004344 0.000198289 3.30111e-05
0.000198289 -8.50898e-05 1.75295e-05
3.30111e-05 1.75295e-05 -0.000202299
0.000457746 0.000146705 1.37667e-05
0.000146705 -0.000215923 1.22188e-05
1.37667e-05 1.22188e-05 -0.000355357
0.00045113 0.000220587 1.80911e-05
0.000220587 -0.000205206 2.0646e-05
1.80911e-05 2.0646e-05 -0.000372864
0.00158366 0.000407877 1.23429e-05
0.000407877 7.76971e-05 3.83333e-06
1.23429e-05 3.83333e-06 -0.000181725
0.00372949 0.000335271 0.00019942
0.000335271 0.0020458 3.61912e-05
0.00019942 3.61912e-05 0.00191629
0.00150501 0.000497366 2.53108e-05
0.000497366 0.000159039 5.9855e-06
2.53108e-05 5.9855e-06 -0.000176313
0.000765663 0.000449713 2.85396e-05
0.000449713 -9.47757e-05 5.06254e-06
2.85396e-05 5.06254e-06 -0.000470077
0.00193127 0.000745362 7.21061e-06
0.000745362 0.000332193 -6.23086e-06
7.21061e-06 -6.23086e-06 -0.000123895
0.00549948 -0.000148062 0.000180803
-0.000148062 0.00336423 2.13292e-05
0.000180803 2.13292e-05 0.00334865
0.0061515 -0.000150631 9.74191e-06
-0.000150631 0.00378942 3.88437e-06
9.74191e-06 3.88437e-06 0.00377244
0.0071929 8.82164e-05 -0.000387769
8.82164e-05 0.00434631 -2.23573e-05
-0.000387769 -2.23573e-05 0.00438268
0.00679793 8.5221e-05 -0.000377712
8.5221e-05 0.00410274 -1.37224e-05
-0.000377712 -1.37224e-05 0.00414232
0.00665372 8.38592e-05 -3.47078e-07
8.38592e-05 0.00401996 -4.59254e-06
-3.47078e-07 -4.59254e-06 0.00405716
0.00428449 4.98471e-05 -0.00015323
4.98471e-05 0.00246552 -9.07451e-06
-0.00015323 -9.07451e-06 0.00246206
0.00154137 4.6726e-05 7.27624e-05
4.6726e-05 0.000535935 2.39306e-06
7.27624e-05 2.39306e-06 0.000459534
0.00463984 0.000172306 -0.000147244
0.000172306 0.0027031 -9.71605e-06
-0.000147244 -9.71605e-06 0.00268405
0.00164963 0.00011773 7.41499e-05
0.00011773 0.000581322 4.309e-06
7.41499e-05 4.309e-06 0.000487718
0.00662577 0.000106495 0.000370363
0.000106495 0.00400879 7.27214e-06
0.000370363 7.27214e-06 0.00404209
0.000281994 1.06464e-05 1.57337e-05
1.06464e-05 -0.000275048 1.6479e-06
1.57337e-05 1.6479e-06 -0.00036894
0.00292859 5.8958e-05 0.000162578
5.8958e-05 0.00142632 8.71036e-06
0.000162578 8.71036e-06 0.00136941
0.00136659 9.74071e-05 3.21555e-06
9.74071e-05 -6.31715e-05 9.25855e-07
3.21555e-06 9.25855e-07 -0.000194317
0.00291297 0.000162151 0.000170808
0.000162151 0.00139331 1.62936e-05
0.000170808 1.62936e-05 0.00131369
0.00148902 0.000206943 1.81188e-06
0.000206943 -1.35054e-05 9.33489e-07
1.81188e-06 9.33489e-07 -0.0001758
0.00204688 3.46233e-05 -0.000283842
3.46233e-05 0.000978274 5.21796e-06
-0.000283842 5.21796e-06 0.000988132
0.00175245 -3.44367e-05 -8.29489e-05
-3.44367e-05 0.000824952 5.0948e-06
-8.29489e-05 5.0948e-06 0.000769674
0.00215158 -5.50201e-05 -6.13928e-05
-5.50201e-05 0.00105884 1.166e-05
-6.13928e-05 1.166e-05 0.000991694
0.00179568 -0.000123551 -9.85096e-05
-0.000123551 0.000863849 1.65645e-05
-9.85096e-05 1.65645e-05 0.000796281
0.00230043 -0.000135267 -0.000152955
-0.000135267 0.000999876 1.62497e-05
-0.000152955 1.62497e-05 0.000913434
0.00239097 -0.000224508 -0.000161205
-0.000224508 0.00103664 2.77501e-05
-0.000161205 2.77501e-05 0.000924676
0.00250987 -0.0003222 -0.000178578
-0.0003222 0.00113376 3.71017e-05
-0.000178578 3.71017e-05 0.000980577
0.00248222 -0.000505476 -3.45671e-05
-0.000505476 0.00077376 1.1001e-05
-3.45671e-05 1.1001e-05 0.00047664
0.00668291 -0.000126647 2.60654e-06
-0.000126647 0.00404716 -2.17982e-06
2.60654e-06 -2.17982e-06 0.00407884
0.00197254 1.04904e-05 0.000104026
1.04904e-05 0.000944024 -6.06908e-06
0.000104026 -6.06908e-06 0.000921827
0.00122077 -2.3378e-05 -7.65529e-05
-2.3378e-05 0.000329994 3.21047e-06
-7.65529e-05 3.21047e-06 0.000253817
0.00210854 -0.000107075 -4.18167e-05
-0.000107075 0.000898515 4.06607e-06
-4.18167e-05 4.06607e-06 0.000808387
0.00592606 -0.000142329 0.00034006
-0.000142329 0.00351701 -3.45554e-05
0.00034006 -3.45554e-05 0.00351511
0.00291493 -0.000298419 -5.32418e-05
-0.000298419 0.00143759 6.51612e-06
-5.32418e-05 6.51612e-06 0.00127114
0.00223422 -0.000197834 -4.02903e-05
-0.000197834 0.000959591 4.73773e-06
-4.02903e-05 4.73773e-06 0.000845843
0.00217532 -0.000300343 -8.81426e-06
-0.000300343 0.000505598 2.03481e-06
-8.81426e-06 2.03481e-06 0.000319646
0.00240439 -0.000565826 -8.53947e-06
-0.000565826 0.000772656 2.67449e-06
-8.53947e-06 2.67449e-06 0.000423048
0.00222391 -0.000431729 -1.05785e-05
-0.000431729 0.000559173 3.0921e-06
-1.05785e-05 3.0921e-06 0.000304322
0.00218275 -0.000646635 1.0575e-06
-0.000646635 0.000327627 -9.24442e-08
1.0575e-06 -9.24442e-08 -7.95768e-06
0.000300779 2.5035e-06 1.66389e-05
2.5035e-06 -0.000269032 -1.21289e-07
1.66389e-05 -1.21289e-07 -0.000360276
0.00193435 -3.09893e-05 6.17521e-05
-3.09893e-05 0.000792147 -3.31589e-06
6.17521e-05 -3.31589e-06 0.000707128
0.00208533 -0.000109744 6.48484e-07
-0.000109744 0.000439876 2.07551e-07
6.48484e-07 2.07551e-07 0.000323851
0.00207136 -0.000239803 -1.02417e-07
-0.000239803 0.000442242 -4.09903e-07
-1.02417e-07 -4.09903e-07 0.000285067
0.00223534 -0.000366205 7.13225e-06
-0.000366205 0.000544816 -1.76472e-06
7.13225e-06 -1.76472e-06 0.000333581
0.00211875 -0.000416765 9.42495e-07
-0.000416765 0.00010056 -2.59607e-07
9.42495e-07 -2.59607e-07 -7.33557e-05
0.00826283 -2.40952e-05 0.000331461
-2.40952e-05 0.00506894 -3.34833e-05
0.000331461 -3.34833e-05 0.00508082
0.00205102 -0.000580629 2.11325e-06
-0.000580629 0.000161964 1.83984e-06
2.11325e-06 1.83984e-06 -0.000119459
0.000449445 -0.000262052 2.279e-05
-0.000262052 -0.000151721 -2.93573e-05
2.279e-05 -2.93573e-05 -0.000335086
0.001193 -0.000534426 1.69771e-05
-0.000534426 4.74912e-05 -5.40571e-06
1.69771e-05 -5.40571e-06 -0.000354357
0.00233051 -0.000715804 -1.31519e-06
-0.000715804 0.000492148 4.04562e-06
-1.31519e-06 4.04562e-06 9.56249e-05
0.00222057 -0.000711328 1.11199e-06
-0.000711328 0.000255885 2.94083e-06
1.11199e-06 2.94083e-06 -5.16619e-05
0.000279589 -0.000210105 2.10276e-05
-0.000210105 -0.000190012 -2.53449e-05
2.10276e-05 -2.53449e-05 -0.000350079
0.00151944 -0.000239661 -1.51877e-06
-0.000239661 0.000644676 -3.96235e-06
-1.51877e-06 -3.96235e-06 0.000343751
0.00763427 0.000309996 -0.000424163
0.000309996 0.00465645 -4.93315e-05
-0.000424163 -4.93315e-05 0.00467171
0.00806175 0.00031155 -0.000425119
0.00031155 0.00491893 -5.46312e-05
-0.000425119 -5.46312e-05 0.00493619
0.000335246 0.000186275 -1.73689e-05
0.000186275 -0.000289986 -1.48992e-05
-1.73689e-05 -1.48992e-05 -0.000445633
0.00798278 -1.23802e-05 -0.000320155
-1.23802e-05 0.00490514 -2.99852e-05
-0.000320155 -2.99852e-05 0.00491789
0.000182935 0.000254543 -2.52359e-05
0.000254543 -0.000288854 -2.63773e-05
-2.52359e-05 -2.63773e-05 -0.000470536
0.000284318 0.0002617 -2.12963e-05
0.0002617 -0.000268863 -2.21792e-05
-2.12963e-05 -2.21792e-05 -0.000456363
0.00131741 0.000524703 -3.4093e-05
0.000524703 0.000121043 -6.16168e-06
-3.4093e-05 -6.16168e-06 -0.000258102
0.007324 -4.97766e-05 -1.09765e-05
-4.97766e-05 0.00451649 1.52848e-06
-1.09765e-05 1.52848e-06 0.00451891
0.000734831 0.00017266 2.23858e-06
0.00017266 0.000106445 3.82348e-07
2.23858e-06 3.82348e-07 -6.67214e-06
0.00175316 0.000196742 7.84234e-05
0.000196742 0.000630648 7.78297e-06
7.84234e-05 7.78297e-06 0.000509968
0.00180487 0.000279211 8.33386e-05
0.000279211 0.00068618 9.94606e-06
8.33386e-05 9.94606e-06 0.000535906
0.00154959 0.000405303 -1.70247e-07
0.000405303 6.29813e-05 -3.76662e-07
-1.70247e-07 -3.76662e-07 -0.000197462
4.47969e-05 0.000242779 -2.04206e-07
0.000242779 -0.000348858 -3.35557e-07
-2.04206e-07 -3.35557e-07 -0.000519726
0.00146556 0.00049331 5.17713e-07
0.00049331 0.000133978 -1.25428e-08
5.17713e-07 -1.25428e-08 -0.000201748
0.000943486 0.000451549 4.44853e-06
0.000451549 7.7394e-06 -1.73395e-06
4.44853e-06 -1.73395e-06 -0.00036187
0.00196621 0.000756012 -1.86216e-06
0.000756012 0.00035122 1.04352e-07
-1.86216e-06 1.04352e-07 -0.000103544
0.000437463 0.000229578 2.32076e-05
0.000229578 -9.69979e-05 2.37649e-05
2.32076e-05 2.37649e-05 -0.000238498
0.000783301 0.000108766 1.68503e-05
0.000108766 0.000181123 1.86068e-05
1.68503e-05 1.86068e-05 7.32981e-05
4.76552e-05 0.000330102 2.34529e-06
0.000330102 -0.000264296 -4.7428e-07
2.34529e-06 -4.7428e-07 -0.000547709
0.00153124 0.000340929 8.30212e-06
0.000340929 1.84127e-05 2.78767e-06
8.30212e-06 2.78767e-06 -0.000202853
0.00158283 0.000462288 1.85285e-05
0.000462288 0.000127787 5.30892e-06
1.85285e-05 5.30892e-06 -0.000171055
0.00233209 0.00061494 3.66899e-06
0.00061494 0.000323534 -1.92764e-06
3.66899e-06 -1.92764e-06 4.36712e-05
0.000375961 0.00035563 1.15855e-05
0.00035563 -0.000206882 5.52014e-06
1.15855e-05 5.52014e-06 -0.000546601
0.00230695 0.000759351 1.84736e-06
0.000759351 0.000480948 -5.46723e-06
1.84736e-06 -5.46723e-06 8.22262e-05
0.00220041 0.000858704 3.87558e-06
0.000858704 0.000684757 -9.32842e-06
3.87558e-06 -9.32842e-06 0.000125206
0.00193211 0.000784848 -1.11543e-05
0.000784848 0.000217612 -1.02234e-05
-1.11543e-05 -1.02234e-05 -0.000211116
0.0046969 -0.000154457 0.000113943
-0.000154457 0.00281989 1.20665e-05
0.000113943 1.20665e-05 0.0028053
0.00523295 -0.000183701 1.53378e-05
-0.000183701 0.00318433 3.61424e-07
1.53378e-05 3.61424e-07 0.00316118
0.00579588 -0.000194976 -0.000149868
-0.000194976 0.00355348 -1.36846e-05
-0.000149868 -1.36846e-05 0.00352765
0.000562635 -0.000218011 2.34169e-05
-0.000218011 1.71946e-05 -2.13911e-05
2.34169e-05 -2.13911e-05 -0.000118666
0.00719518 3.59425e-05 0.00027431
3.59425e-05 0.00442092 -3.01297e-05
0.00027431 -3.01297e-05 0.00442347
0.00744141 0.000250679 -0.000416341
0.000250679 0.00452433 -3.97306e-05
-0.000416341 -3.97306e-05 0.00454859
0.00690919 0.000116318 -0.000379687
0.000116318 0.00417167 -1.92936e-05
-0.000379687 -1.92936e-05 0.00420835
0.000292017 0.000119258 -1.57063e-05
0.000119258 -0.000303666 -7.36464e-06
-1.57063e-05 -7.36464e-06 -0.000420284
0.000249979 4.9278e-05 -1.5699e-05
4.9278e-05 -0.00030283 -3.72521e-06
-1.5699e-05 -3.72521e-06 -0.000402404
0.00659783 -7.99826e-07 -0.000363559
-7.99826e-07 0.00397532 -4.00091e-06
-0.000363559 -4.00091e-06 0.00401601
0.00655081 -5.3395e-06 1.06388e-07
-5.3395e-06 0.0039458 -1.36612e-06
1.06388e-07 -1.36612e-06 0.0039869
0.000254093 2.79236e-06 -1.86418e-07
2.79236e-06 -0.00029659 1.96743e-07
-1.86418e-07 1.96743e-07 -0.000388907
0.00157349 5.74197e-05 7.36515e-05
5.74197e-05 0.000543004 3.69969e-06
7.36515e-05 3.69969e-06 0.000461806
0.00136674 0.000100758 6.17485e-08
0.000100758 -5.80668e-05 8.29385e-09
6.17485e-08 8.29385e-09 -0.000190016
0.000352127 0.000119373 -9.01115e-07
0.000119373 -0.000274315 -4.36606e-07
-9.01115e-07 -4.36606e-07 -0.000402372
0.0014359 0.000206327 -2.18573e-07
0.000206327 -3.48369e-05 -1.37084e-07
-2.18573e-07 -1.37084e-07 -0.000198417
0.000246647 -3.34199e-05 1.65056e-05
-3.34199e-05 -0.000301954 -2.27403e-07
1.65056e-05 -2.27403e-07 -0.0003916
0.00132224 4.35546e-05 2.6049e-06
4.35546e-05 -7.51151e-05 6.52108e-07
2.6049e-06 6.52108e-07 -0.000199686
0.0014042 0.00015374 2.33711e-06
0.00015374 -5.43494e-05 1.01812e-06
2.33711e-06 1.01812e-06 -0.000198419
0.00220453 0.000154421 1.25426e-06
0.000154421 9.20424e-05 9.65008e-07
1.25426e-06 9.65008e-07 2.91938e-05
0.00151762 0.000272875 4.83123e-06
0.000272875 5.58275e-06 1.81676e-06
4.83123e-06 1.81676e-06 -0.000182991
0.00221134 0.000338561 2.51615e-06
0.000338561 0.000119586 3.65334e-07
2.51615e-06 3.65334e-07 6.33486e-06
0.00658839 -8.91642e-05 -0.000368053
-8.91642e-05 0.00398019 6.16515e-06
-0.000368053 6.16515e-06 0.00401553
0.00164586 -0.000169635 -8.27733e-05
-0.000169635 0.000780762 1.13424e-05
-8.27733e-05 1.13424e-05 0.000716692
-0.000207933 -1.2444e-05 -7.96939e-06
-1.2444e-05 -0.000596648 1.29331e-06
-7.96939e-06 1.29331e-06 -0.00070294
0.00222448 -9.70914e-05 -0.000148074
-9.70914e-05 0.000965249 1.14299e-05
-0.000148074 1.14299e-05 0.000888126
0.00888871 0.000141448 -8.81999e-05
0.000141448 0.00543077 4.20242e-06
-8.81999e-05 4.20242e-06 0.00539397
0.00315107 -0.000354582 -0.00018107
-0.000354582 0.00159978 3.80396e-05
-0.00018107 3.80396e-05 0.00144523
0.00235969 -0.000177703 -0.00015652
-0.000177703 0.00102511 2.16729e-05
-0.00015652 2.16729e-05 0.000927933
0.00230212 -0.000304133 -2.20714e-05
-0.000304133 0.0005884 4.50306e-06
-2.20714e-05 4.50306e-06 0.000409592
0.00230479 -0.000437004 -2.98383e-05
-0.000437004 0.000614113 9.63482e-06
-2.98383e-05 9.63482e-06 0.000355366
0.00252966 -0.000578701 -3.93635e-05
-0.000578701 0.00086506 1.22149e-05
-3.93635e-05 1.22149e-05 0.000515015
0.0021852 -0.000644866 3.30256e-07
-0.000644866 0.000337179 -2.86304e-06
3.30256e-07 -2.86304e-06 2.23412e-06
0.000252378 -8.34078e-07 5.04765e-08
-8.34078e-07 -0.000297984 3.86273e-07
5.04765e-08 3.86273e-07 -0.000389999
0.00205685 -0.0001087 -4.02494e-05
-0.0001087 0.000881831 9.08395e-07
-4.02494e-05 9.08395e-07 0.000798775
0.00176719 -0.000105799 -1.44302e-05
-0.000105799 0.000224215 1.00594e-06
-1.44302e-05 1.00594e-06 0.000105063
0.00204994 -0.000236723 -1.31422e-05
-0.000236723 0.000420744 2.16222e-06
-1.31422e-05 2.16222e-06 0.000258431
0.00861129 -3.54765e-05 5.23442e-06
-3.54765e-05 0.00529063 -6.22648e-07
5.23442e-06 -6.22648e-07 0.00530429
0.0016752 -0.000252862 1.00547e-05
-0.000252862 0.000664765 5.09778e-07
1.00547e-05 5.09778e-07 0.000477278
0.00188282 -0.000557244 1.79907e-06
-0.000557244 0.000507555 -1.8436e-06
1.79907e-06 -1.8436e-06 0.000118416
0.00222845 -0.000370064 -1.07603e-05
-0.000370064 0.000535012 3.0784e-06
-1.07603e-05 3.0784e-06 0.000322085
0.00225257 -0.000428359 2.64028e-06
-0.000428359 0.000189173 -1.02718e-06
2.64028e-06 -1.02718e-06 2.43832e-05
0.00227045 -0.000711269 1.65466e-06
-0.000711269 0.000452635 -1.43354e-07
1.65466e-06 -1.43354e-07 5.82375e-05
0.00220613 -0.000586417 2.28187e-07
-0.000586417 0.000274507 -1.47466e-07
2.28187e-07 -1.47466e-07 -9.82236e-06
0.00225199 -0.000713462 5.719e-07
-0.000713462 0.00028063 4.80045e-07
5.719e-07 4.80045e-07 -2.79018e-05
0.000345646 -0.000234195 2.2036e-06
-0.000234195 -0.000159695 6.70736e-07
2.2036e-06 6.70736e-07 -0.000317168
0.000629215 -0.000260054 -5.54048e-07
-0.000260054 0.000100696 4.43675e-08
-5.54048e-07 4.43675e-08 -0.000214883
0.00132059 -5.22906e-05 2.91189e-06
-5.22906e-05 -5.90456e-05 -1.24957e-08
2.91189e-06 -1.24957e-08 -0.000186289
0.00214278 -0.000173631 -7.14544e-07
-0.000173631 0.000479884 1.66531e-07
-7.14544e-07 1.66531e-07 0.000347604
0.00210971 -0.000170573 1.32719e-06
-0.000170573 4.40196e-05 -8.04763e-07
1.32719e-06 -8.04763e-07 -4.07311e-05
0.00226605 -0.000355736 -2.59688e-07
-0.000355736 0.000161098 4.28448e-07
-2.59688e-07 4.28448e-07 4.55122e-05
0.00218435 -0.00051299 -1.12354e-06
-0.00051299 0.000191846 7.42068e-07
-1.12354e-06 7.42068e-07 -3.09622e-05
0.00221206 -0.000459697 5.28833e-06
-0.000459697 5.75283e-05 -1.18265e-06
5.28833e-06 -1.18265e-06 -5.69574e-05
0.000374948 -0.000243858 1.83324e-05
-0.000243858 -0.000173391 -3.00144e-05
1.83324e-05 -3.00144e-05 -0.00035087
0.00228734 -0.000646192 8.35931e-07
-0.000646192 0.000242815 9.03602e-07
8.35931e-07 9.03602e-07 -1.60765e-06
0.00176041 -0.000492117 1.50864e-05
-0.000492117 0.000497726 -1.09892e-05
1.50864e-05 -1.09892e-05 0.000120587
0.00193364 -0.000794194 6.13952e-06
-0.000794194 0.000301115 4.83329e-06
6.13952e-06 4.83329e-06 -0.000185805
0.00249363 -0.000789851 -1.24003e-07
-0.000789851 0.000496576 2.79934e-06
-1.24003e-07 2.79934e-06 0.000113707
0.00243561 -0.000745552 3.40606e-07
-0.000745552 0.000365155 1.78893e-06
3.40606e-07 1.78893e-06 8.17261e-05
0.00070688 -0.000271166 2.00229e-06
-0.000271166 9.83568e-05 -2.87121e-06
2.00229e-06 -2.87121e-06 -0.00022947
0.00121506 -0.000263702 6.69758e-07
-0.000263702 0.000493284 -1.36076e-06
6.69758e-07 -1.36076e-06 0.000233485
0.00157294 -0.00039548 -1.59859e-06
-0.00039548 0.000657666 1.33697e-06
-1.59859e-06 1.33697e-06 0.000270476
0.000331809 0.000155581 -1.5866e-05
0.000155581 -0.000295949 -1.16557e-05
-1.5866e-05 -1.16557e-05 -0.000439141
0.0068572 -9.11211e-05 -0.000250788
-9.11211e-05 0.00421476 -2.16202e-05
-0.000250788 -2.16202e-05 0.00421505
0.000564424 0.000145211 -2.02556e-05
0.000145211 6.2684e-06 -1.93767e-05
-2.02556e-05 -1.93767e-05 -0.000104414
0.000282101 0.000220908 -1.87854e-05
0.000220908 -0.000306809 -1.8774e-05
-1.87854e-05 -1.8774e-05 -0.000477058
0.00150964 0.000402897 -1.408e-05
0.000402897 4.30308e-05 -4.3866e-06
-1.408e-05 -4.3866e-06 -0.000218521
0.000458645 0.000243855 -2.15481e-05
0.000243855 -0.000103519 -2.80812e-05
-2.15481e-05 -2.80812e-05 -0.000268703
0.00125679 0.000469931 -2.81834e-05
0.000469931 0.000185398 -1.1596e-05
-2.81834e-05 -1.1596e-05 -0.000181103
0.00139488 0.000486047 -2.67399e-05
0.000486047 8.92941e-05 -6.15179e-06
-2.67399e-05 -6.15179e-06 -0.000246136
0.00197268 0.000770297 -9.91921e-06
0.000770297 0.000340177 6.88458e-06
-9.91921e-06 6.88458e-06 -0.000115431
0.00037667 0.000225176 -7.90001e-06
0.000225176 -0.000138435 2.04421e-06
-7.90001e-06 2.04421e-06 -0.000274966
0.000378101 8.16028e-05 -7.54629e-07
8.16028e-05 -7.00261e-05 1.39259e-06
-7.54629e-07 1.39259e-06 -0.000173759
0.00097262 0.000293562 -4.85763e-07
0.000293562 0.000295149 7.9322e-09
-4.85763e-07 7.9322e-09 4.00416e-05
0.001522 0.000340849 -3.14965e-07
0.000340849 1.98432e-05 -1.66892e-07
-3.14965e-07 -1.66892e-07 -0.000202772
0.001523 0.00045516 2.91433e-08
0.00045516 9.68757e-05 -3.1634e-07
2.91433e-08 -3.1634e-07 -0.000201658
0.00227201 0.000609954 -8.16175e-07
0.000609954 0.000281048 -3.60781e-07
-8.16175e-07 -3.60781e-07 2.44453e-06
0.000778955 0.000356672 1.50862e-06
0.000356672 4.44645e-05 9.8044e-07
1.50862e-06 9.8044e-07 -0.000281428
0.00232824 0.000755905 -1.17557e-06
0.000755905 0.000493604 -4.31064e-07
-1.17557e-06 -4.31064e-07 9.48655e-05
0.00201529 0.000848066 -1.85193e-06
0.000848066 0.000526645 -2.99742e-06
-1.85193e-06 -2.99742e-06 -3.31967e-05
0.00187164 0.000789762 -1.12771e-06
0.000789762 0.000154536 4.01058e-06
-1.12771e-06 4.01058e-06 -0.000270453
0.000594622 6.02692e-05 1.08595e-05
6.02692e-05 8.52343e-05 1.64086e-05
1.08595e-05 1.64086e-05 -2.35607e-07
0.000484558 0.000342161 5.82105e-06
0.000342161 -2.65096e-05 1.11227e-07
5.82105e-06 1.11227e-07 -0.000327023
0.000841533 0.000184549 1.69908e-06
0.000184549 0.000291355 2.25311e-06
1.69908e-06 2.25311e-06 1.8681e-05
-0.00119014 0.000180477 -8.50527e-06
0.000180477 -0.00106576 6.05101e-06
-8.50527e-06 6.05101e-06 -0.00136565
0.002326 0.000527755 2.66777e-06
0.000527755 0.000248059 -2.12494e-06
2.66777e-06 -2.12494e-06 3.08563e-05
0.00225499 0.000686914 2.9297e-06
0.000686914 0.000360099 -2.96477e-06
2.9297e-06 -2.96477e-06 1.72483e-05
0.00224172 0.000663872 8.03839e-07
0.000663872 0.000184278 -1.88355e-06
8.03839e-07 -1.88355e-06 -7.08884e-05
0.00145242 0.000699559 -9.05153e-06
0.000699559 0.000361727 -8.36367e-06
-9.05153e-06 -8.36367e-06 -0.000167771
0.00262801 0.000862619 -6.44955e-06
0.000862619 0.000590209 -5.09525e-06
-6.44955e-06 -5.09525e-06 0.000205495
0.00241703 0.000992331 -1.85572e-05
0.000992331 0.000683428 -1.87777e-05
-1.85572e-05 -1.87777e-05 8.93851e-05
0.00214893 0.000821713 -6.1066e-06
0.000821713 0.00020286 -5.86746e-06
-6.1066e-06 -5.86746e-06 -0.000194127
0.000795633 0.000116278 -2.17705e-06
0.000116278 0.000277325 7.48083e-06
-2.17705e-06 7.48083e-06 0.000143586
0.000570445 3.52413e-05 3.71468e-06
3.52413e-05 8.26522e-05 1.40756e-05
3.71468e-06 1.40756e-05 2.59883e-05
0.00418886 -0.000133997 8.81634e-05
-0.000133997 0.00247308 8.54471e-06
8.81634e-05 8.54471e-06 0.00246382
0.00452328 -0.000179211 1.56924e-05
-0.000179211 0.00271354 -1.71737e-06
1.56924e-05 -1.71737e-06 0.00269161
0.00492696 -0.000235103 -9.05247e-05
-0.000235103 0.00300703 -1.26779e-05
-9.05247e-05 -1.26779e-05 0.00296696
0.000539235 -0.00021596 2.81496e-05
-0.00021596 2.44788e-05 -1.74039e-05
2.81496e-05 -1.74039e-05 -9.23316e-05
0.00621629 7.97364e-05 0.000213614
7.97364e-05 0.00380514 -2.54578e-05
0.000213614 -2.54578e-05 0.00379959
0.000508007 -0.000222883 2.81679e-06
-0.000222883 -2.63055e-05 8.05745e-07
2.81679e-06 8.05745e-07 -0.000164813
0.00760938 1.05107e-05 4.52389e-06
1.05107e-05 0.00468085 -1.03126e-07
4.52389e-06 -1.03126e-07 0.00468561
0.00032084 0.000142793 -1.61457e-05
0.000142793 -0.000294885 -9.50376e-06
-1.61457e-05 -9.50376e-06 -0.000426359
0.000270747 4.8067e-05 -1.43332e-05
4.8067e-05 -0.000305977 -4.6362e-06
-1.43332e-05 -4.6362e-06 -0.00041082
0.00140404 0.000206037 -2.57807e-06
0.000206037 -4.66971e-05 -1.07667e-06
-2.57807e-06 -1.07667e-06 -0.000211488
0.00137433 0.000103686 -3.1444e-06
0.000103686 -4.85869e-05 -7.71657e-07
-3.1444e-06 -7.71657e-07 -0.000181196
0.000295004 -4.10766e-06 -1.6136e-05
-4.10766e-06 -0.000273492 -1.58264e-06
-1.6136e-05 -1.58264e-06 -0.00036443
0.00664478 -0.000106228 -0.000375182
-0.000106228 0.00402071 7.03604e-06
-0.000375182 7.03604e-06 0.00405522
0.000292028 -3.92944e-06 -2.19933e-08
-3.92944e-06 -0.000273572 -6.79049e-07
-2.19933e-08 -6.79049e-07 -0.000362931
0.00133197 4.8929e-05 5.69985e-09
4.8929e-05 -6.63269e-05 7.57928e-08
5.69985e-09 7.57928e-08 -0.000191315
0.00141103 0.00015419 6.10165e-09
0.00015419 -4.3253e-05 9.69586e-08
6.10165e-09 9.69586e-08 -0.000188019
0.00220425 0.000152388 -4.13706e-08
0.000152388 9.29239e-05 1.38684e-07
-4.13706e-08 1.38684e-07 3.04402e-05
0.00147643 0.000271343 -3.27511e-07
0.000271343 -1.49145e-05 -1.59793e-07
-3.27511e-07 -1.59793e-07 -0.000204703
0.00221504 0.000340496 -4.44434e-07
0.000340496 0.000115178 1.72511e-07
-4.44434e-07 1.72511e-07 1.01828e-06
0.00130522 -6.89164e-06 2.34166e-06
-6.89164e-06 -7.31036e-05 2.31233e-07
2.34166e-06 2.31233e-07 -0.000197233
0.00218999 7.15753e-05 1.49162e-06
7.15753e-05 8.28647e-05 3.09243e-07
1.49162e-06 3.09243e-07 2.72602e-05
0.00221201 0.000243706 1.21454e-06
0.000243706 0.000106238 1.05638e-06
1.21454e-06 1.05638e-06 2.45124e-05
0.00214713 0.000163411 5.39465e-06
0.000163411 3.38931e-06 7.8194e-07
5.39465e-06 7.8194e-07 -1.04229e-05
0.00222437 0.000430266 3.20288e-06
0.000430266 0.000139919 -3.08252e-07
3.20288e-06 -3.08252e-07 -1.84043e-05
0.00229421 0.000349591 5.16503e-06
0.000349591 7.22113e-05 7.86938e-07
5.16503e-06 7.86938e-07 2.28349e-05
0.000292955 -7.10691e-06 -1.56729e-05
-7.10691e-06 -0.000267808 2.85008e-07
-1.56729e-05 2.85008e-07 -0.000361962
0.00216035 -6.43222e-05 -0.000145973
-6.43222e-05 0.000935852 7.84434e-06
-0.000145973 7.84434e-06 0.000867721
0.00142107 -0.000101586 -1.38921e-05
-0.000101586 -1.15055e-05 1.32638e-06
-1.38921e-05 1.32638e-06 -0.000134189
0.00202044 -0.000234378 -1.958e-05
-0.000234378 0.000392569 3.6505e-06
-1.958e-05 3.6505e-06 0.000224976
0.00892344 -5.97503e-05 -0.000384092
-5.97503e-05 0.00548451 4.45278e-05
-0.000384092 4.45278e-05 0.00549873
0.00343975 -0.000369842 -0.000208582
-0.000369842 0.00181904 3.79454e-05
-0.000208582 3.79454e-05 0.00166651
0.00202337 -0.000571293 -2.88849e-05
-0.000571293 0.000643969 9.83111e-06
-2.88849e-05 9.83111e-06 0.000257951
0.00220423 -0.000372894 -2.77157e-05
-0.000372894 0.000512728 7.42904e-06
-2.77157e-05 7.42904e-06 0.000298361
0.00238382 -0.000439986 -5.76928e-07
-0.000439986 0.000274432 -1.34284e-06
-5.76928e-07 -1.34284e-06 0.000119071
0.00236451 -0.000592379 -7.33712e-07
-0.000592379 0.000390928 -1.03495e-06
-7.33712e-07 -1.03495e-06 0.000103636
0.00229115 -0.0007155 2.61418e-06
-0.0007155 0.000461211 -4.36119e-06
2.61418e-06 -4.36119e-06 6.70602e-05
0.00231239 -0.000719287 1.25282e-07
-0.000719287 0.000322294 -1.97458e-06
1.25282e-07 -1.97458e-06 1.18002e-05
0.000470414 -0.000252456 -2.09453e-05
-0.000252456 -8.35159e-05 2.59786e-05
-2.09453e-05 2.59786e-05 -0.000243927
1.10693e-05 -0.000238922 -4.96952e-07
-0.000238922 -0.000271183 3.00772e-06
-4.96952e-07 3.00772e-06 -0.000599291
0.00135919 -4.87098e-05 8.7779e-07
-4.87098e-05 -3.71071e-05 -1.07402e-07
8.7779e-07 -1.07402e-07 -0.000157687
0.00210651 -0.000174127 -1.22933e-05
-0.000174127 0.000450686 1.56635e-06
-1.22933e-05 1.56635e-06 0.000318524
0.00209565 -0.000165925 2.59118e-06
-0.000165925 3.02712e-05 -3.43864e-07
2.59118e-06 -3.43864e-07 -4.98838e-05
0.00214291 -0.000349908 -1.8398e-06
-0.000349908 8.70714e-05 5.24322e-07
-1.8398e-06 5.24322e-07 -4.0547e-05
0.000262422 -0.000262752 -1.78211e-06
-0.000262752 -0.000233004 -1.59729e-07
-1.78211e-06 -1.59729e-07 -0.000415149
0.000774233 -0.000450089 -5.28035e-06
-0.000450089 -9.93688e-05 -5.08512e-07
-5.28035e-06 -5.08512e-07 -0.000483598
0.00207083 -0.000809659 -2.34164e-07
-0.000809659 0.000386253 1.51687e-06
-2.34164e-07 1.51687e-06 -0.000108501
0.00218866 -0.000511098 -1.11684e-06
-0.000511098 0.000198665 2.80614e-07
-1.11684e-06 2.80614e-07 -2.84347e-05
0.00229202 -0.000469051 7.96703e-07
-0.000469051 0.00010214 -7.01461e-07
7.96703e-07 -7.01461e-07 -6.35628e-06
0.00258205 -0.00079844 1.33519e-06
-0.00079844 0.000553897 -1.66721e-06
1.33519e-06 -1.66721e-06 0.000174045
0.0022375 -0.000641047 1.41903e-07
-0.000641047 0.000207971 7.39654e-07
1.41903e-07 7.39654e-07 -3.53639e-05
0.00231251 -0.000741982 1.81282e-07
-0.000741982 0.000275929 9.57837e-07
1.81282e-07 9.57837e-07 -9.97165e-06
0.00082551 -0.000295956 5.10753e-07
-0.000295956 0.000179748 -7.88424e-07
5.10753e-07 -7.88424e-07 -0.000158423
0.000612967 -0.000303618 1.20898e-06
-0.000303618 3.50729e-05 2.56658e-07
1.20898e-06 2.56658e-07 -0.000340698
0.000593391 -0.000221747 1.26462e-06
-0.000221747 0.000136318 1.22846e-06
1.26462e-06 1.22846e-06 -0.000145309
0.00207483 -8.3204e-05 1.53126e-06
-8.3204e-05 1.81173e-05 -7.76049e-07
1.53126e-06 -7.76049e-07 -5.50411e-05
0.00209437 -0.000252709 -6.64686e-07
-0.000252709 2.17398e-05 -3.75242e-07
-6.64686e-07 -3.75242e-07 -7.51353e-05
0.00222817 -0.000163642 7.35339e-06
-0.000163642 7.91865e-05 -9.09445e-07
7.35339e-06 -9.09445e-07 5.47172e-05
0.00228059 -0.000377402 3.91694e-06
-0.000377402 6.20275e-05 -3.88273e-07
3.91694e-06 -3.88273e-07 3.14583e-06
0.00229177 -0.000576523 8.60265e-07
-0.000576523 0.00017102 -4.53074e-07
8.60265e-07 -4.53074e-07 -2.74696e-06
0.00234507 -0.000489351 1.99028e-06
-0.000489351 7.45973e-05 -1.07533e-07
1.99028e-06 -1.07533e-07 1.64833e-05
0.000852345 -0.000340185 8.03224e-06
-0.000340185 8.15175e-05 -9.19653e-06
8.03224e-06 -9.19653e-06 -0.000249957
0.00230391 -0.000686052 1.43807e-06
-0.000686052 0.000169848 -4.47448e-07
1.43807e-06 -4.47448e-07 -2.38546e-05
0.00200057 -0.000867352 -4.85701e-07
-0.000867352 0.0005053 1.36927e-06
-4.85701e-07 1.36927e-06 -6.88971e-05
0.00242721 -0.000923958 1.15069e-05
-0.000923958 0.000511927 3.69218e-06
1.15069e-05 3.69218e-06 1.08047e-05
0.00264252 -0.000814712 4.41402e-06
-0.000814712 0.000577975 2.16975e-06
4.41402e-06 2.16975e-06 0.000216939
0.00251752 -0.000796773 1.55424e-06
-0.000796773 0.000375526 -9.02388e-07
1.55424e-06 -9.02388e-07 0.000113238
0.000521648 -0.000200191 4.32562e-06
-0.000200191 0.000124341 7.52317e-07
4.32562e-06 7.52317e-07 -0.000159066
0.00165039 -0.000520517 -9.13911e-06
-0.000520517 0.000578991 -2.57643e-06
-9.13911e-06 -2.57643e-06 0.000139133
-0.000445132 -0.000137171 -2.67731e-06
-0.000137171 -0.000473928 -1.73349e-06
-2.67731e-06 -1.73349e-06 -0.00082425
0.00128245 -0.000554725 7.35116e-06
-0.000554725 0.000449906 5.97759e-06
7.35116e-06 5.97759e-06 -6.37762e-05
0.00151248 0.000341082 -1.05053e-05
0.000341082 2.05489e-05 -3.13429e-06
-1.05053e-05 -3.13429e-06 -0.000203434
0.000225735 6.85139e-05 -1.05188e-05
6.85139e-05 -0.000162522 -1.83091e-05
-1.05188e-05 -1.83091e-05 -0.000263404
0.000409898 0.00018395 -2.8124e-05
0.00018395 -0.000108402 -2.07564e-05
-2.8124e-05 -2.07564e-05 -0.0002433
0.00103332 0.000243669 -7.47898e-06
0.000243669 0.000327103 4.5801e-06
-7.47898e-06 4.5801e-06 7.62331e-05
0.00145714 0.000448811 -1.98338e-05
0.000448811 6.02249e-05 -5.66255e-06
-1.98338e-05 -5.66255e-06 -0.00023834
0.00221618 0.000605051 -3.63416e-06
0.000605051 0.000242064 1.87668e-06
-3.63416e-06 1.87668e-06 -3.52524e-05
0.000783857 0.000318253 -1.40985e-05
0.000318253 5.49036e-05 -5.7674e-06
-1.40985e-05 -5.7674e-06 -0.00024812
0.0019041 0.000826197 -7.42103e-06
0.000826197 0.0004428 4.61406e-06
-7.42103e-06 4.61406e-06 -0.000109426
0.00235972 0.000753133 -1.43312e-06
0.000753133 0.000513088 4.94306e-06
-1.43312e-06 4.94306e-06 0.000114293
0.00180046 0.000786894 1.15174e-05
0.000786894 9.90681e-05 1.63201e-05
1.15174e-05 1.63201e-05 -0.00031909
0.000396451 4.4637e-05 -2.87074e-06
4.4637e-05 -3.59335e-05 3.13007e-07
-2.87074e-06 3.13007e-07 -0.000119877
0.000759209 0.000264086 -1.21551e-06
0.000264086 0.000158484 4.94773e-07
-1.21551e-06 4.94773e-07 -0.000133185
0.000302029 0.00018459 5.35487e-06
0.00018459 -5.30994e-05 -1.93648e-06
5.35487e-06 -1.93648e-06 -0.000331135
0.000655267 0.000275699 -5.90646e-06
0.000275699 9.468e-05 6.77473e-06
-5.90646e-06 6.77473e-06 -0.000211614
0.0022629 0.000522091 -1.8396e-06
0.000522091 0.000208324 -1.25754e-06
-1.8396e-06 -1.25754e-06 -8.09589e-06
0.00223087 0.000686253 -8.05389e-07
0.000686253 0.000340363 -3.26359e-07
-8.05389e-07 -3.26359e-07 -2.51555e-06
0.00229304 0.000667552 2.03168e-07
0.000667552 0.000223818 -1.24631e-07
2.03168e-07 -1.24631e-07 -3.19004e-05
0.00186201 0.000739389 2.37224e-06
0.000739389 0.000636799 -7.08556e-07
2.37224e-06 -7.08556e-07 9.79933e-05
0.00254276 0.000847327 1.52141e-06
0.000847327 0.000547536 1.05985e-06
1.52141e-06 1.05985e-06 0.000161931
0.00218931 0.000950198 -8.63231e-07
0.000950198 0.00055466 -2.03239e-06
-8.63231e-07 -2.03239e-06 -2.61056e-05
0.00233141 0.000813821 -7.8816e-06
0.000813821 0.000339815 3.24516e-06
-7.8816e-06 3.24516e-06 -4.24363e-05
0.00062455 4.08767e-05 6.87808e-06
4.08767e-05 0.000112142 1.52722e-05
6.87808e-06 1.52722e-05 4.48812e-05
0.00126236 0.000136076 -2.53457e-06
0.000136076 0.000577599 1.1379e-05
-2.53457e-06 1.1379e-05 0.000336378
7.26122e-05 0.000408302 -1.01892e-05
0.000408302 -0.000352194 -2.66882e-06
-1.01892e-05 -2.66882e-06 -0.000745463
0.00106605 0.000269843 1.10446e-05
0.000269843 0.000435643 -5.45189e-06
1.10446e-05 -5.45189e-06 8.70518e-05
0.00117323 0.000194852 -2.94048e-06
0.000194852 0.000325489 1.55645e-05
-2.94048e-06 1.55645e-05 4.58015e-05
0.0022991 0.00057234 2.66312e-07
0.00057234 0.000136233 -1.38749e-06
2.66312e-07 -1.38749e-06 -3.82332e-05
0.00232045 0.000769247 -1.41824e-06
0.000769247 0.000315997 -3.5272e-06
-1.41824e-06 -3.5272e-06 -1.19179e-05
0.00235812 0.000734603 -3.04928e-06
0.000734603 0.000219603 -8.80281e-07
-3.04928e-06 -8.80281e-07 -2.18296e-05
0.00210589 0.00100961 -6.97526e-06
0.00100961 0.000765481 -1.45601e-05
-6.97526e-06 -1.45601e-05 8.41898e-05
0.00268252 0.00090299 -7.11589e-06
0.00090299 0.000543048 -4.61503e-06
-7.11589e-06 -4.61503e-06 0.000163056
0.00198513 0.00100321 3.39959e-06
0.00100321 0.000318603 -1.01552e-05
3.39959e-06 -1.01552e-05 -0.000246556
0.000692127 0.000114822 -1.99694e-06
0.000114822 0.00020297 1.06875e-05
-1.99694e-06 1.06875e-05 4.77517e-05
0.000871152 0.000148488 -6.86203e-06
0.000148488 0.000441651 7.33098e-06
-6.86203e-06 7.33098e-06 0.00020158
0.000582623 8.4626e-05 -2.02852e-06
8.4626e-05 0.000132815 5.83394e-06
-2.02852e-06 5.83394e-06 2.67822e-05
0.000451018 3.80998e-05 -2.01307e-06
3.80998e-05 5.15771e-05 2.07187e-07
-2.01307e-06 2.07187e-07 -7.38362e-05
0.00157529 -1.42122e-07 1.54828e-06
-1.42122e-07 0.000742582 7.47659e-06
1.54828e-06 7.47659e-06 0.000701346
0.00100044 1.87171e-05 -4.81047e-07
1.87171e-05 0.000367114 -1.99908e-07
-4.81047e-07 -1.99908e-07 0.000314092
0.00099977 -2.07517e-05 7.16405e-05
-2.07517e-05 0.000360845 1.55303e-05
7.16405e-05 1.55303e-05 0.000353549
0.00412236 -0.000148272 1.4752e-05
-0.000148272 0.00243445 -1.47099e-06
1.4752e-05 -1.47099e-06 0.00242111
0.00450689 -0.000195433 -7.86806e-05
-0.000195433 0.00270775 -9.81752e-06
-7.86806e-05 -9.81752e-06 0.00268135
0.000328766 -0.000142308 2.34343e-05
-0.000142308 -7.7016e-05 -1.40183e-05
2.34343e-05 -1.40183e-05 -0.000172444
0.00528282 0.000126568 0.000152638
0.000126568 0.00321645 -1.88981e-05
0.000152638 -1.88981e-05 0.00320089
0.00052967 -0.000190598 2.48237e-06
-0.000190598 2.63665e-05 1.39927e-06
2.48237e-06 1.39927e-06 -9.86841e-05
0.00654292 5.70159e-05 -3.25021e-06
5.70159e-05 0.00402074 9.15871e-07
-3.25021e-06 9.15871e-07 0.00401709
0.000427743 -0.000225782 -2.38749e-05
-0.000225782 -8.1043e-05 2.23857e-05
-2.38749e-05 2.23857e-05 -0.000221593
0.00791399 -4.16473e-07 -0.00033396
-4.16473e-07 0.00487653 4.13566e-05
-0.00033396 4.13566e-05 0.0048829
0.00142695 0.000268755 -6.20286e-06
0.000268755 -3.83614e-05 -2.15262e-06
-6.20286e-06 -2.15262e-06 -0.00022913
0.00139606 0.000155244 -2.52097e-06
0.000155244 -4.36565e-05 -5.99955e-07
-2.52097e-06 -5.99955e-07 -0.000189395
0.00225139 0.000340105 -2.70242e-06
0.000340105 0.000134786 2.09665e-07
-2.70242e-06 2.09665e-07 2.05864e-05
0.00220294 0.000150258 -1.4867e-06
0.000150258 9.38738e-05 -7.13148e-07
-1.4867e-06 -7.13148e-07 3.17759e-05
0.00134529 5.43579e-05 -2.63931e-06
5.43579e-05 -5.49919e-05 -5.4216e-07
-2.63931e-06 -5.4216e-07 -0.00018037
0.000257182 2.78809e-05 -1.63811e-05
2.78809e-05 -0.000298904 -1.34879e-06
-1.63811e-05 -1.34879e-06 -0.000386259
0.00131202 -1.93049e-06 -4.37721e-08
-1.93049e-06 -6.75932e-05 2.24096e-08
-4.37721e-08 2.24096e-08 -0.000191724
0.00219314 7.05847e-05 -4.65973e-08
7.05847e-05 8.78429e-05 9.72997e-08
-4.65973e-08 9.72997e-08 3.23849e-05
0.00222212 0.000242579 -8.11818e-08
0.000242579 0.000109502 3.35302e-07
-8.11818e-08 3.35302e-07 2.82725e-05
0.00214192 0.000159334 -4.05258e-07
0.000159334 -9.23095e-06 -2.79546e-08
-4.05258e-07 -2.79546e-08 -1.65298e-05
0.00223122 0.000430419 -1.00744e-06
0.000430419 0.000147371 2.05711e-08
-1.00744e-06 2.05711e-08 -1.15775e-05
0.00227287 0.000348364 -1.64918e-08
0.000348364 5.89512e-05 2.84353e-07
-1.64918e-08 2.84353e-07 9.82346e-06
0.00218348 -7.78023e-06 1.11795e-06
-7.78023e-06 8.39794e-05 -4.43232e-07
1.11795e-06 -4.43232e-07 2.93185e-05
0.00208229 7.34976e-05 4.07576e-06
7.34976e-05 -4.84419e-05 6.73437e-08
4.07576e-06 6.73437e-08 -4.59483e-05
0.00219035 0.000240572 5.74156e-06
0.000240572 2.35602e-05 1.16966e-06
5.74156e-06 1.16966e-06 -2.17996e-06
0.00221853 0.000150301 3.07772e-06
0.000150301 -1.37654e-05 4.67144e-07
3.07772e-06 4.67144e-07 9.68272e-06
0.00240361 0.000481256 3.25493e-06
0.000481256 0.000149816 -1.35392e-08
3.25493e-06 -1.35392e-08 5.1521e-05
0.00231313 0.000358645 1.21668e-06
0.000358645 -3.21904e-05 -1.67951e-07
1.21668e-06 -1.67951e-07 -2.30681e-05
0.00139148 -4.54364e-05 -4.80611e-06
-4.54364e-05 -1.81299e-05 3.44012e-07
-4.80611e-06 3.44012e-07 -0.000132095
0.00208826 -0.000174356 -2.30434e-05
-0.000174356 0.000433892 2.77898e-06
-2.30434e-05 2.77898e-06 0.00030191
0.00210864 -0.000160103 3.51551e-06
-0.000160103 3.38152e-05 -2.60191e-07
3.51551e-06 -2.60191e-07 -4.13204e-05
0.00201926 -0.000343092 5.37237e-07
-0.000343092 1.38231e-05 6.22551e-07
5.37237e-07 6.22551e-07 -0.000125538
0.000100201 -0.000276078 -2.31144e-05
-0.000276078 -0.000329774 2.98651e-05
-2.31144e-05 2.98651e-05 -0.000513581
0.000793735 -0.000457286 -1.34352e-05
-0.000457286 -8.68145e-05 6.48073e-06
-1.34352e-05 6.48073e-06 -0.000475266
0.00211798 -0.000820802 4.09231e-06
-0.000820802 0.000406452 -3.56011e-06
4.09231e-06 -3.56011e-06 -9.62214e-05
0.00218393 -0.000508327 -1.40076e-06
-0.000508327 0.000199625 -6.69262e-07
-1.40076e-06 -6.69262e-07 -3.18885e-05
0.00236991 -0.000477941 -2.57155e-06
-0.000477941 0.000146125 -9.68048e-08
-2.57155e-06 -9.68048e-08 4.31977e-05
0.00218544 -0.000635668 -6.73919e-07
-0.000635668 0.000171247 4.29436e-07
-6.73919e-07 4.29436e-07 -7.09069e-05
0.00262891 -0.000802123 -8.35473e-08
-0.000802123 0.000586641 -6.02097e-06
-8.35473e-08 -6.02097e-06 0.00021105
0.00216184 -0.000734144 8.07119e-09
-0.000734144 0.00017031 3.59112e-07
8.07119e-09 3.59112e-07 -0.000116663
0.000633245 -0.000319712 -6.02199e-06
-0.000319712 6.42201e-05 4.80749e-06
-6.02199e-06 4.80749e-06 -0.000286811
0.000287744 -0.00026967 2.0377e-06
-0.00026967 -0.000160461 2.63614e-07
2.0377e-06 2.63614e-07 -0.000531038
0.000715198 -0.000272382 3.6946e-06
-0.000272382 0.000233322 3.15174e-06
3.6946e-06 3.15174e-06 -6.2997e-05
0.00213432 -7.97036e-05 3.77475e-06
-7.97036e-05 5.9057e-05 -2.51231e-07
3.77475e-06 -2.51231e-07 -6.92967e-06
0.00209279 -0.000258611 1.53456e-06
-0.000258611 2.6592e-05 -4.99124e-07
1.53456e-06 -4.99124e-07 -6.90399e-05
0.00220216 -0.000158305 4.56451e-07
-0.000158305 4.54265e-05 -3.5058e-08
4.56451e-07 -3.5058e-08 2.92019e-05
0.00229536 -0.000370932 -7.63544e-07
-0.000370932 8.24345e-05 2.4583e-07
-7.63544e-07 2.4583e-07 1.9571e-05
0.000882184 -0.000370117 -9.37757e-07
-0.000370117 8.73427e-05 6.09728e-07
-9.37757e-07 6.09728e-07 -0.000260388
0.00209557 -0.000889208 4.95605e-07
-0.000889208 0.000571862 -1.75574e-06
4.95605e-07 -1.75574e-06 -8.87131e-06
0.00226351 -0.000906158 7.52068e-07
-0.000906158 0.000409175 1.86044e-06
7.52068e-07 1.86044e-06 -9.43341e-05
0.00217424 -0.000561126 -8.57932e-07
-0.000561126 9.93243e-05 4.17348e-07
-8.57932e-07 4.17348e-07 -7.92424e-05
0.0023536 -0.000494007 1.1061e-07
-0.000494007 6.72478e-05 9.70339e-08
1.1061e-07 9.70339e-08 1.45191e-05
0.002477 -0.000802846 -5.83842e-07
-0.000802846 0.000457929 2.96683e-07
-5.83842e-07 2.96683e-07 9.88069e-05
0.00230919 -0.000686418 -7.09511e-07
-0.000686418 0.000169399 6.14484e-07
-7.09511e-07 6.14484e-07 -2.43604e-05
0.00243016 -0.000786387 1.2466e-06
-0.000786387 0.000317314 -4.83931e-07
1.2466e-06 -4.83931e-07 5.87193e-05
0.00123951 -0.000512114 -4.81209e-06
-0.000512114 0.000348262 -8.94734e-07
-4.81209e-06 -8.94734e-07 -0.000105968
0.00141675 -0.000556864 -2.49491e-06
-0.000556864 0.00055158 5.99071e-07
-2.49491e-06 5.99071e-07 4.11298e-05
0.00085919 -0.000228794 1.43043e-06
-0.000228794 0.000316136 -3.9335e-07
1.43043e-06 -3.9335e-07 5.0771e-05
0.000627557 -0.000203952 -1.58425e-06
-0.000203952 0.000183873 -9.64837e-07
-1.58425e-06 -9.64837e-07 -0.000145101
0.00217202 -8.84013e-05 6.24647e-06
-8.84013e-05 3.39942e-05 -5.62155e-07
6.24647e-06 -5.62155e-07 2.35933e-05
0.00213949 -0.000257836 4.3996e-06
-0.000257836 -3.027e-05 -1.18533e-06
4.3996e-06 -1.18533e-06 -6.39743e-05
0.0022077 -0.000155062 3.68943e-06
-0.000155062 1.6544e-05 -5.47523e-07
3.68943e-06 -5.47523e-07 4.19652e-05
0.00230225 -0.000389458 -5.86886e-07
-0.000389458 -1.61645e-05 1.99711e-07
-5.86886e-07 1.99711e-07 -4.98993e-06
0.00232706 -0.000603195 -2.42472e-07
-0.000603195 9.86334e-05 5.67604e-07
-2.42472e-07 5.67604e-07 -1.18552e-05
0.00240642 -0.000528769 1.1872e-06
-0.000528769 2.33394e-05 -4.89503e-08
1.1872e-06 -4.89503e-08 -1.07739e-05
0.00174118 -0.000777832 -8.32144e-06
-0.000777832 0.000552997 3.02079e-06
-8.32144e-06 3.02079e-06 -1.84869e-05
0.00244647 -0.000757199 -3.69247e-07
-0.000757199 0.000173479 -4.09014e-07
-3.69247e-07 -4.09014e-07 1.89778e-05
0.00217675 -0.00103708 3.24193e-06
-0.00103708 0.000558401 5.6111e-06
3.24193e-06 5.6111e-06 -7.60445e-05
0.00252036 -0.000952311 1.1499e-05
-0.000952311 0.00053608 1.87156e-06
1.1499e-05 1.87156e-06 4.06251e-05
0.00248511 -0.000814975 -1.46368e-06
-0.000814975 0.000447557 2.10507e-06
-1.46368e-06 2.10507e-06 9.57472e-05
0.00242163 -0.000854838 -3.65598e-06
-0.000854838 0.000238206 -3.18288e-06
-3.65598e-06 -3.18288e-06 -3.13017e-05
0.000896958 -0.000251543 1.88709e-06
-0.000251543 0.000329554 -9.63108e-06
1.88709e-06 -9.63108e-06 7.00689e-05
-8.92953e-05 -0.000136083 -1.16753e-06
-0.000136083 -0.00024371 1.19602e-05
-1.16753e-06 1.19602e-05 -0.000582907
0.0016166 -0.000767128 1.61611e-05
-0.000767128 0.000575006 3.15711e-06
1.61611e-05 3.15711e-06 -2.31086e-05
0.00128021 -0.000377532 5.57461e-06
-0.000377532 0.000584823 -2.91126e-07
5.57461e-06 -2.91126e-07 0.00019939
0.00148258 -0.000684889 -7.19541e-06
-0.000684889 0.000632476 1.1685e-05
-7.19541e-06 1.1685e-05 1.58148e-05
7.79585e-05 3.32304e-05 -8.15689e-06
3.32304e-05 -0.000238309 -1.61031e-05
-8.15689e-06 -1.61031e-05 -0.000316842
0.0022003 0.000516201 -4.36689e-06
0.000516201 0.000169319 4.57062e-07
-4.36689e-06 4.57062e-07 -4.62308e-05
0.00100508 8.14347e-05 3.52365e-06
8.14347e-05 0.00039855 -7.06092e-06
3.52365e-06 -7.06092e-06 0.000119603
0.000758749 0.000317736 -6.40105e-06
0.000317736 0.00013631 7.48969e-06
-6.40105e-06 7.48969e-06 -0.000132695
0.00169007 0.000332647 -3.9088e-06
0.000332647 0.000761996 1.0381e-05
-3.9088e-06 1.0381e-05 0.000447689
0.00220607 0.000685523 -2.84421e-06
0.000685523 0.000320606 2.86718e-06
-2.84421e-06 2.86718e-06 -2.23237e-05
0.0023381 0.000670598 -2.05552e-07
0.000670598 0.000259326 1.49771e-06
-2.05552e-07 1.49771e-06 3.19376e-06
0.00162192 0.000766071 8.2384e-06
0.000766071 0.000494863 4.6897e-06
8.2384e-06 4.6897e-06 -7.0218e-05
0.00205284 0.000935852 1.01001e-05
0.000935852 0.000465852 1.32063e-05
1.01001e-05 1.32063e-05 -0.000112871
0.00246398 0.000831118 5.34711e-06
0.000831118 0.000507511 7.53058e-06
5.34711e-06 7.53058e-06 0.000121633
0.00254802 0.000816613 1.57511e-05
0.000816613 0.000494604 1.93799e-05
1.57511e-05 1.93799e-05 0.000122714
0.000433892 4.59897e-05 -4.95497e-07
4.59897e-05 -8.05265e-06 1.48917e-07
-4.95497e-07 1.48917e-07 -7.37799e-05
0.000625343 0.000109708 -2.23937e-06
0.000109708 0.000182601 -7.10974e-09
-2.23937e-06 -7.10974e-09 -6.40251e-05
0.000942968 0.000484504 8.5728e-06
0.000484504 0.000226976 -8.90709e-07
8.5728e-06 -8.90709e-07 -0.000178484
0.000635721 0.000176149 1.87836e-06
0.000176149 0.000153983 -5.49543e-06
1.87836e-06 -5.49543e-06 -0.00018429
0.000288337 0.000187581 -2.07988e-06
0.000187581 -0.000243049 4.73762e-06
-2.07988e-06 4.73762e-06 -0.000543076
0.00235132 0.000577664 -1.25408e-06
0.000577664 0.000171845 -8.1096e-07
-1.25408e-06 -8.1096e-07 -4.03168e-06
0.00231615 0.00076646 2.30396e-07
0.00076646 0.00031828 -8.5376e-08
2.30396e-07 -8.5376e-08 -8.02773e-06
0.00234931 0.000734669 1.43288e-06
0.000734669 0.000217699 3.81736e-07
1.43288e-06 3.81736e-07 -2.345e-05
0.00208471 0.00100864 1.01477e-06
0.00100864 0.0007695 -2.88812e-06
1.01477e-06 -2.88812e-06 8.307e-05
0.00265437 0.00090049 3.57277e-06
0.00090049 0.000501689 1.94937e-07
3.57277e-06 1.94937e-07 0.000119993
0.00248223 0.00105462 -4.97768e-06
0.00105462 0.000661942 4.64651e-07
-4.97768e-06 4.64651e-07 9.04881e-05
0.000923229 0.000159389 6.39651e-07
0.000159389 0.000334995 1.08505e-05
6.39651e-07 1.08505e-05 0.000156338
0.00263571 0.000447176 -8.75044e-07
0.000447176 0.0015268 5.33571e-06
-8.75044e-07 5.33571e-06 0.00114439
0.000714749 0.00062848 -1.89609e-06
0.00062848 9.67027e-05 -1.29181e-06
-1.89609e-06 -1.29181e-06 -0.000413606
0.00149289 0.000259616 9.67922e-06
0.000259616 0.000484619 -2.95992e-06
9.67922e-06 -2.95992e-06 0.000188822
0.00294219 0.000718115 1.06148e-07
0.000718115 0.00131183 -3.34314e-06
1.06148e-07 -3.34314e-06 0.000871617
0.0023835 0.000617065 -3.39479e-06
0.000617065 0.000101678 -1.54545e-06
-3.39479e-06 -1.54545e-06 -2.54632e-05
0.00235634 0.0008327 -4.60284e-06
0.0008327 0.000303881 -1.85276e-06
-4.60284e-06 -1.85276e-06 -3.2603e-05
0.00238872 0.000811233 -8.27254e-08
0.000811233 0.000207446 -1.34447e-06
-8.27254e-08 -1.34447e-06 -3.68275e-05
0.0015598 0.00104547 7.1957e-06
0.00104547 0.000491309 -1.12632e-05
7.1957e-06 -1.12632e-05 -0.000208215
0.00221287 0.00102047 1.35133e-05
0.00102047 0.00036017 -4.9781e-06
1.35133e-05 -4.9781e-06 -0.000147423
0.000603733 9.95142e-05 -3.8981e-07
9.95142e-05 0.000146511 1.35127e-07
-3.8981e-07 1.35127e-07 -6.83931e-06
0.000466432 0.000231047 -2.40945e-06
0.000231047 0.000115793 1.4104e-06
-2.40945e-06 1.4104e-06 -0.000104793
-0.000505191 0.000100992 4.60153e-07
0.000100992 -0.000460743 -2.91087e-06
4.60153e-07 -2.91087e-06 -0.000684051
0.00178064 0.00030169 -6.9644e-06
0.00030169 0.00106323 -3.98956e-07
-6.9644e-06 -3.98956e-07 0.000791636
0.00147804 0.000245481 -3.09631e-06
0.000245481 0.000817325 2.87775e-06
-3.09631e-06 2.87775e-06 0.000608702
0.000529422 9.3675e-05 -1.97731e-07
9.3675e-05 0.000105677 3.99688e-06
-1.97731e-07 3.99688e-06 5.21242e-06
0.000540654 3.96636e-05 -1.25271e-06
3.96636e-05 0.000112473 -2.90977e-07
-1.25271e-06 -2.90977e-07 4.6273e-06
0.00148927 1.27356e-05 1.78526e-06
1.27356e-05 0.000689351 5.66639e-06
1.78526e-06 5.66639e-06 0.000655149
0.000424615 6.12598e-05 4.21907e-06
6.12598e-05 2.93097e-05 -7.28723e-06
4.21907e-06 -7.28723e-06 -9.01881e-05
0.00159038 -1.64028e-06 -1.51461e-05
-1.64028e-06 0.00075328 -2.19734e-06
-1.51461e-05 -2.19734e-06 0.000715637
0.000754822 -1.68439e-05 5.43487e-05
-1.68439e-05 0.000198924 1.20845e-05
5.43487e-05 1.20845e-05 0.00019698
0.00159575 2.0042e-05 -2.96461e-05
2.0042e-05 0.000760441 -1.04854e-05
-2.96461e-05 -1.04854e-05 0.000714587
0.00228735 -7.48665e-05 6.34864e-05
-7.48665e-05 0.00121644 1.29401e-06
6.34864e-05 1.29401e-06 0.00120796
0.00385129 -0.000148822 -6.21511e-05
-0.000148822 0.00225799 -8.32142e-06
-6.21511e-05 -8.32142e-06 0.00224389
0.000223479 1.69726e-05 2.65975e-06
1.69726e-05 -0.000116426 -1.00121e-05
2.65975e-06 -1.00121e-05 -0.000191556
0.000357489 -0.000121232 -1.20211e-06
-0.000121232 -5.73351e-05 5.93091e-07
-1.20211e-06 5.93091e-07 -0.000161452
0.00462284 0.000215122 4.3014e-05
0.000215122 0.00279997 -1.15448e-05
4.3014e-05 -1.15448e-05 0.00276045
0.00553969 0.000109376 -5.32703e-06
0.000109376 0.00339137 8.80199e-07
-5.32703e-06 8.80199e-07 0.00337599
0.000504447 -0.000188255 -2.08701e-05
-0.000188255 7.5857e-06 1.98776e-05
-2.08701e-05 1.98776e-05 -0.000123861
0.0068932 5.94406e-05 -0.000266862
5.94406e-05 0.00425662 3.80944e-05
-0.000266862 3.80944e-05 0.00424872
0.00223907 0.000431357 -3.08184e-06
0.000431357 0.000153857 1.00577e-06
-3.08184e-06 1.00577e-06 -5.94669e-06
0.00219928 0.000243112 -1.70779e-06
0.000243112 8.91397e-05 -3.51352e-07
-1.70779e-06 -3.51352e-07 7.71715e-06
0.00225142 0.000348021 -4.82112e-06
0.000348021 4.52955e-05 -1.51726e-07
-4.82112e-06 -1.51726e-07 -3.77483e-06
0.00213727 0.000155265 -4.70564e-06
0.000155265 -2.22366e-05 -5.9006e-07
-4.70564e-06 -5.9006e-07 -2.29793e-05
0.00219374 7.03834e-05 -1.65483e-06
7.03834e-05 9.11553e-05 -9.76859e-08
-1.65483e-06 -9.76859e-08 3.58062e-05
0.00132475 3.17103e-06 -2.18177e-06
3.17103e-06 -5.93349e-05 -2.70072e-07
-2.18177e-06 -2.70072e-07 -0.000183409
0.00218345 -6.21725e-06 2.50519e-08
-6.21725e-06 8.65197e-05 8.07226e-08
2.50519e-08 8.07226e-08 3.16072e-05
0.002089 6.58923e-05 -4.89956e-07
6.58923e-05 -4.07022e-05 -7.84627e-08
-4.89956e-07 -7.84627e-08 -4.03137e-05
0.00220193 0.000239814 -8.49463e-08
0.000239814 2.90784e-05 1.37077e-07
-8.49463e-08 1.37077e-07 3.96656e-06
0.00218918 0.000151522 -2.40058e-09
0.000151522 -4.17693e-05 4.26081e-08
-2.40058e-09 4.26081e-08 -1.15531e-05
0.00238431 0.000481776 2.04773e-07
0.000481776 0.00013074 -3.189e-08
2.04773e-07 -3.189e-08 3.33595e-05
0.00229136 0.000348461 2.12279e-07
0.000348461 -4.90894e-05 1.96824e-07
2.12279e-07 1.96824e-07 -3.65712e-05
0.00208334 -1.06785e-05 4.41037e-06
-1.06785e-05 -4.11681e-05 -2.88644e-07
4.41037e-06 -2.88644e-07 -4.04144e-05
0.00225244 6.37999e-05 2.6042e-06
6.37999e-05 5.65142e-06 -4.56406e-07
2.6042e-06 -4.56406e-07 4.88988e-05
0.00220176 0.000220989 3.60321e-07
0.000220989 -6.14586e-05 -3.35537e-08
3.60321e-07 -3.35537e-08 -4.02697e-05
0.00232764 0.000160661 1.03741e-06
0.000160661 -5.45154e-05 1.20739e-07
1.03741e-06 1.20739e-07 1.78275e-05
0.00238389 0.000482869 -8.36542e-08
0.000482869 3.445e-05 -4.473e-07
-8.36542e-08 -4.473e-07 -2.76511e-06
0.00243441 0.000343858 3.02804e-07
0.000343858 -5.16189e-05 1.57396e-07
3.02804e-07 1.57396e-07 -1.00259e-05
0.00219597 -7.63578e-05 1.71835e-06
-7.63578e-05 0.000101391 5.95905e-07
1.71835e-06 5.95905e-07 4.25885e-05
0.00210941 -0.000263915 3.76567e-06
-0.000263915 4.18434e-05 -5.09967e-07
3.76567e-06 -5.09967e-07 -5.24618e-05
0.00216914 -0.000153231 -4.02763e-06
-0.000153231 7.92765e-06 4.62224e-07
-4.02763e-06 4.62224e-07 -1.22734e-07
0.00231101 -0.000365153 -5.63742e-06
-0.000365153 0.000103876 1.19903e-06
-5.63742e-06 1.19903e-06 3.67999e-05
0.000534453 -0.000376332 -5.09471e-06
-0.000376332 -0.00012208 9.12942e-06
-5.09471e-06 9.12942e-06 -0.000485338
0.0022163 -0.000903201 -1.29856e-06
-0.000903201 0.000673 -3.14301e-06
-1.29856e-06 -3.14301e-06 8.9658e-05
0.00206968 -0.000883275 -1.24103e-06
-0.000883275 0.000290282 -2.36722e-06
-1.24103e-06 -2.36722e-06 -0.000214517
0.00205567 -0.000545714 -3.22814e-06
-0.000545714 2.68932e-05 8.81783e-07
-3.22814e-06 8.81783e-07 -0.000155937
0.0023584 -0.000498239 -1.21666e-07
-0.000498239 5.78219e-05 -5.69986e-07
-1.21666e-07 -5.69986e-07 1.03179e-05
0.00230661 -0.000686592 -1.47106e-06
-0.000686592 0.000163038 9.07888e-07
-1.47106e-06 9.07888e-07 -3.07448e-05
0.00233207 -0.0007972 -2.11849e-06
-0.0007972 0.000349221 -2.94267e-06
-2.11849e-06 -2.94267e-06 -1.03587e-05
0.00237089 -0.00078608 1.73074e-06
-0.00078608 0.000274912 2.64555e-07
1.73074e-06 2.64555e-07 1.7017e-05
0.000665247 -0.000480187 6.92038e-06
-0.000480187 -4.40852e-06 -4.41576e-06
6.92038e-06 -4.41576e-06 -0.000468969
0.00129551 -0.000506609 -1.38601e-05
-0.000506609 0.000445503 -5.59696e-07
-1.38601e-05 -5.59696e-07 -3.64516e-05
0.000733889 -0.00023441 -1.28856e-06
-0.00023441 0.000220017 2.74131e-06
-1.28856e-06 2.74131e-06 -3.53531e-05
-0.000780519 -0.000152903 -1.4014e-06
-0.000152903 -0.000739052 -3.8945e-06
-1.4014e-06 -3.8945e-06 -0.00103452
0.00216982 -8.80673e-05 -1.2056e-07
-8.80673e-05 3.04542e-05 3.77574e-08
-1.2056e-07 3.77574e-08 2.00837e-05
0.00221043 -0.000261987 1.68949e-06
-0.000261987 2.29816e-05 -4.14009e-07
1.68949e-06 -4.14009e-07 -1.15892e-05
0.00215518 -0.000152955 -1.9483e-08
-0.000152955 -2.39878e-05 -1.9316e-07
-1.9483e-08 -1.9316e-07 4.16011e-06
0.0022941 -0.00038805 -3.72051e-07
-0.00038805 -1.34282e-05 2.79717e-07
-3.72051e-07 2.79717e-07 -1.05687e-05
0.00168912 -0.000732329 -1.70541e-06
-0.000732329 0.000499361 -1.51919e-07
-1.70541e-06 -1.51919e-07 -4.85225e-05
0.00211269 -0.00103265 3.76429e-06
-0.00103265 0.000520832 -3.45837e-08
3.76429e-06 -3.45837e-08 -0.000116252
0.00250781 -0.000968664 -2.65149e-07
-0.000968664 0.000525814 7.87428e-07
-2.65149e-07 7.87428e-07 1.95947e-05
0.00233977 -0.000602947 -9.4383e-07
-0.000602947 0.000116024 1.33096e-07
-9.4383e-07 1.33096e-07 -1.09456e-06
0.00239209 -0.000526532 7.95145e-07
-0.000526532 1.51976e-05 -3.83752e-07
7.95145e-07 -3.83752e-07 -1.05356e-05
0.00248853 -0.000820618 -1.53083e-06
-0.000820618 0.000457139 1.02704e-06
-1.53083e-06 1.02704e-06 0.000102519
0.00241581 -0.00075942 -1.14022e-06
-0.00075942 0.000145751 6.32187e-07
-1.14022e-06 6.32187e-07 -9.25879e-06
0.00246206 -0.000854185 6.99092e-06
-0.000854185 0.000264005 -4.16489e-06
6.99092e-06 -4.16489e-06 9.49521e-07
0.00158933 -0.000773225 9.98475e-07
-0.000773225 0.000569881 -1.73194e-06
9.98475e-07 -1.73194e-06 -3.45389e-05
0.00159362 -0.000702267 2.21988e-07
-0.000702267 0.00068233 1.13602e-06
2.21988e-07 1.13602e-06 7.84196e-05
0.000781844 -0.000331319 1.97639e-06
-0.000331319 0.000286051 -1.77828e-06
1.97639e-06 -1.77828e-06 -0.000105177
0.000259197 -0.000149581 -6.26888e-06
-0.000149581 -6.36087e-05 7.39019e-07
-6.26888e-06 7.39019e-07 -0.000325585
-0.000275583 -9.7135e-05 3.21607e-07
-9.7135e-05 -0.000380477 1.13621e-06
3.21607e-07 1.13621e-06 -0.000693373
0.00215241 -9.62454e-05 1.61317e-06
-9.62454e-05 -5.58055e-05 3.08854e-09
1.61317e-06 3.08854e-09 -1.46485e-05
0.00223477 -0.000231059 1.33121e-07
-0.000231059 -5.4806e-05 -5.0979e-07
1.33121e-07 -5.0979e-07 -1.52541e-05
0.00243682 -0.000472112 -1.0541e-06
-0.000472112 -6.05669e-05 -5.94369e-07
-1.0541e-06 -5.94369e-07 -1.45121e-05
0.00241833 -0.000641605 4.18298e-07
-0.000641605 4.52368e-05 9.43026e-07
4.18298e-07 9.43026e-07 -1.16826e-05
0.00196477 -0.00100947 3.48573e-06
-0.00100947 0.000663824 1.53998e-06
3.48573e-06 1.53998e-06 -1.76853e-05
0.00263728 -0.000901281 -2.8165e-06
-0.000901281 0.000176489 -1.24065e-06
-2.8165e-06 -1.24065e-06 -8.63596e-06
0.00159963 -0.00104724 -5.48952e-06
-0.00104724 0.000210487 7.04616e-06
-5.48952e-06 7.04616e-06 -0.000442317
0.00275997 -0.00103479 8.20931e-07
-0.00103479 0.000662606 2.31745e-06
8.20931e-07 2.31745e-06 0.000143838
0.00218932 -0.000808725 -1.29353e-05
-0.000808725 0.000224519 -2.7977e-06
-1.29353e-05 -2.7977e-06 -0.000108492
0.000404782 -0.00011741 2.71323e-06
-0.00011741 6.44183e-05 -7.48289e-06
2.71323e-06 -7.48289e-06 -0.000151203
0.00170731 -0.00026506 4.89404e-07
-0.00026506 0.000954486 7.41768e-06
4.89404e-07 7.41768e-06 0.000575725
0.000297729 -0.000177832 -5.20031e-06
-0.000177832 -9.84374e-05 1.17833e-05
-5.20031e-06 1.17833e-05 -0.000416752
0.00225678 -0.000938962 -4.09223e-06
-0.000938962 0.000992096 5.79546e-06
-4.09223e-06 5.79546e-06 0.000325389
0.00164931 -0.000494464 4.1809e-06
-0.000494464 0.000808005 5.14854e-06
4.1809e-06 5.14854e-06 0.000305443
0.00237945 -0.000887368 -5.81275e-06
-0.000887368 0.0011518 1.39911e-05
-5.81275e-06 1.39911e-05 0.000486324
0.000378467 4.58068e-05 -6.2814e-06
4.58068e-05 -4.14926e-05 -1.5818e-05
-6.2814e-06 -1.5818e-05 -0.000107095
0.000115563 9.33769e-05 -3.3819e-07
9.33769e-05 -0.000131659 -1.07237e-05
-3.3819e-07 -1.07237e-05 -0.0003841
0.00240152 0.000582995 -3.7072e-06
0.000582995 0.000206401 -6.69044e-07
-3.7072e-06 -6.69044e-07 2.90329e-05
-0.000260424 2.91332e-05 -2.17005e-06
2.91332e-05 -0.000391621 -4.20182e-07
-2.17005e-06 -4.20182e-07 -0.000741191
0.00316562 0.000615699 1.67491e-05
0.000615699 0.00162851 -6.24505e-06
1.67491e-05 -6.24505e-06 0.00122411
-0.000569114 0.000202445 -1.41064e-05
0.000202445 -0.00081363 4.8545e-08
-1.41064e-05 4.8545e-08 -0.00113916
0.00230841 0.000762582 1.88861e-06
0.000762582 0.000319932 3.22579e-06
1.88861e-06 3.22579e-06 -4.40376e-06
0.00234147 0.000735395 3.09001e-06
0.000735395 0.000215081 1.01972e-06
3.09001e-06 1.01972e-06 -2.60023e-05
0.00197942 0.000989416 1.02635e-05
0.000989416 0.000722596 1.21204e-05
1.02635e-05 1.21204e-05 3.81611e-05
0.00300209 0.00110147 -2.5918e-06
0.00110147 0.00101918 1.02456e-05
-2.5918e-06 1.02456e-05 0.000445459
0.00259874 0.00089818 5.3608e-06
0.00089818 0.000438419 5.57144e-06
5.3608e-06 5.57144e-06 5.44919e-05
0.000807791 0.000156698 1.07677e-06
0.000156698 0.000261937 -1.48092e-07
1.07677e-06 -1.48092e-07 8.62352e-05
0.000946969 0.000242752 -3.10763e-06
0.000242752 0.000440509 4.85172e-07
-3.10763e-06 4.85172e-07 7.54758e-05
0.00112748 0.000697159 4.74464e-08
0.000697159 0.000338014 9.93853e-08
4.74464e-08 9.93853e-08 -0.000209363
0.000922724 0.000218953 3.67312e-07
0.000218953 0.000116213 -1.74682e-06
3.67312e-07 -1.74682e-06 -0.00017633
0.00129545 0.000468717 3.18678e-06
0.000468717 0.000183696 -5.37907e-06
3.18678e-06 -5.37907e-06 -0.000191009
0.00238777 0.000616882 -2.15806e-06
0.000616882 0.000117595 -9.97693e-07
-2.15806e-06 -9.97693e-07 -1.09979e-05
0.00241426 0.000842367 2.5712e-06
0.000842367 0.000322823 4.44145e-07
2.5712e-06 4.44145e-07 -1.61702e-05
0.00242251 0.00081861 1.13644e-06
0.00081861 0.000204604 7.0178e-07
1.13644e-06 7.0178e-07 -4.16619e-05
0.00191124 0.00111011 2.63021e-06
0.00111011 0.000676176 1.10923e-06
2.63021e-06 1.10923e-06 -3.33967e-05
0.00219861 0.0010324 -2.61373e-06
0.0010324 0.000384754 -3.15199e-06
-2.61373e-06 -3.15199e-06 -0.000135049
0.00183548 0.000400905 2.90681e-06
0.000400905 0.00098964 6.66163e-06
2.90681e-06 6.66163e-06 0.000703056
-0.000298075 0.0001997 6.92032e-07
0.0001997 -0.000349793 -2.98338e-06
6.92032e-07 -2.98338e-06 -0.000743645
0.00186103 0.000887807 4.82262e-06
0.000887807 0.000795713 -8.71002e-06
4.82262e-06 -8.71002e-06 0.000188
-0.00330543 0.000317538 8.40433e-06
0.000317538 -0.00263465 -5.0269e-06
8.40433e-06 -5.0269e-06 -0.00299781
0.00372144 0.000947389 6.21862e-06
0.000947389 0.00166649 -8.71216e-06
6.21862e-06 -8.71216e-06 0.00116672
0.00256301 0.000726181 -3.10575e-06
0.000726181 8.83048e-05 -7.35217e-07
-3.10575e-06 -7.35217e-07 1.19139e-05
0.00244225 0.000896036 9.06874e-06
0.000896036 0.000277308 -3.4706e-06
9.06874e-06 -3.4706e-06 -9.28699e-05
0.00222707 0.000801673 7.35618e-06
0.000801673 2.17093e-07 -4.11409e-07
7.35618e-06 -4.11409e-07 -0.000262124
0.0021461 0.00116791 1.77239e-05
0.00116791 0.000732064 -5.5416e-07
1.77239e-05 -5.5416e-07 3.81827e-05
0.00264147 0.00123379 7.98298e-06
0.00123379 0.000713916 -1.45301e-06
7.98298e-06 -1.45301e-06 9.96845e-05
0.000426284 8.27182e-05 4.95273e-06
8.27182e-05 2.81115e-05 -1.10398e-05
4.95273e-06 -1.10398e-05 -0.000118803
0.000948655 0.000192573 -8.68224e-08
0.000192573 0.000420441 -4.86029e-07
-8.68224e-08 -4.86029e-07 0.000202764
-0.00029211 0.000112705 -3.98303e-06
0.000112705 -0.000386595 -1.58592e-05
-3.98303e-06 -1.58592e-05 -0.000536471
-0.000846582 -1.91769e-05 6.92828e-06
-1.91769e-05 -0.000719707 -4.17184e-06
6.92828e-06 -4.17184e-06 -0.000905591
0.000511101 0.000112096 -1.80451e-06
0.000112096 0.000163669 2.16692e-07
-1.80451e-06 2.16692e-07 -1.5262e-05
0.000163281 0.000115601 3.64537e-06
0.000115601 -1.89184e-05 -1.68433e-07
3.64537e-06 -1.68433e-07 -0.000241265
0.000658697 0.00022467 -1.45675e-06
0.00022467 0.000298633 -6.14294e-06
-1.45675e-06 -6.14294e-06 8.94234e-05
0.000298179 4.68755e-06 -7.57289e-06
4.68755e-06 7.28203e-05 5.52997e-06
-7.57289e-06 5.52997e-06 -0.000149561
0.000729298 0.000132268 -1.49854e-06
0.000132268 0.000276972 -2.65245e-07
-1.49854e-06 -2.65245e-07 0.000128789
0.000527787 9.66195e-05 1.69776e-06
9.66195e-05 0.000103566 3.5482e-06
1.69776e-06 3.5482e-06 4.60288e-06
0.000436785 3.70522e-05 -3.02625e-06
3.70522e-05 3.80177e-05 1.28353e-07
-3.02625e-06 1.28353e-07 -5.79984e-05
0.0014103 6.76063e-06 1.92824e-06
6.76063e-06 0.000635807 5.06248e-06
1.92824e-06 5.06248e-06 0.000607641
0.000273105 -8.88589e-05 8.49818e-06
-8.88589e-05 -5.10012e-05 -4.70693e-06
8.49818e-06 -4.70693e-06 -0.000161858
0.00145852 4.18375e-06 -1.33417e-05
4.18375e-06 0.000665845 -2.03482e-06
-1.33417e-05 -2.03482e-06 0.00063556
0.000721974 -1.29444e-05 4.36007e-05
-1.29444e-05 0.000176691 1.12929e-05
4.36007e-05 1.12929e-05 0.000177908
0.00152914 1.20319e-06 -2.0008e-05
1.20319e-06 0.000710551 -1.03279e-05
-2.0008e-05 -1.03279e-05 0.000676459
0.000741633 -3.13235e-05 2.20606e-05
-3.13235e-05 0.000189954 4.45207e-06
2.20606e-05 4.45207e-06 0.000182435
0.00345104 -0.00015051 7.14589e-06
-0.00015051 0.00198772 -5.39207e-06
7.14589e-06 -5.39207e-06 0.00197237
0.000254286 8.65167e-05 -3.65176e-06
8.65167e-05 -6.98267e-05 -8.11591e-06
-3.65176e-06 -8.11591e-06 -0.000143515
0.00036344 -4.91446e-05 -5.68875e-06
-4.91446e-05 -3.03305e-05 2.97501e-07
-5.68875e-06 2.97501e-07 -0.000110415
0.00387707 0.000211487 -1.93302e-05
0.000211487 0.00230577 -1.11903e-05
-1.93302e-05 -1.11903e-05 0.00227264
0.000768697 -0.000163045 -1.89853e-05
-0.000163045 0.000199758 1.34574e-05
-1.89853e-05 1.34574e-05 9.2575e-05
0.00476502 0.000155883 -4.22982e-05
0.000155883 0.00288692 1.69542e-07
-4.22982e-05 1.69542e-07 0.00286224
0.00598228 0.000121216 -0.000208314
0.000121216 0.00370281 3.71403e-05
-0.000208314 3.71403e-05 0.00367756
0.00236372 0.000482053 -4.01639e-06
0.000482053 0.000110915 -4.10754e-07
-4.01639e-06 -4.10754e-07 1.45793e-05
0.00221552 0.000238292 -5.42159e-06
0.000238292 3.69164e-05 -8.09017e-07
-5.42159e-06 -8.09017e-07 1.25581e-05
0.00227214 0.000338497 4.37801e-07
0.000338497 -6.43368e-05 5.10349e-07
4.37801e-07 5.10349e-07 -4.85051e-05
0.00215976 0.000153189 -4.90348e-07
0.000153189 -6.97133e-05 -7.84747e-08
-4.90348e-07 -7.84747e-08 -3.26415e-05
0.00209684 5.919e-05 -4.86494e-06
5.919e-05 -3.18374e-05 1.97993e-07
-4.86494e-06 1.97993e-07 -3.37863e-05
0.00218167 -5.00582e-06 -1.07538e-06
-5.00582e-06 8.78841e-05 6.6737e-07
-1.07538e-06 6.6737e-07 3.27324e-05
0.00211895 -1.21813e-05 2.67487e-07
-1.21813e-05 -1.26319e-05 -2.18742e-08
2.67487e-07 -2.18742e-08 -1.42944e-05
0.00223458 6.65541e-05 5.69195e-07
6.65541e-05 -1.01906e-06 -1.22634e-08
5.69195e-07 -1.22634e-08 3.71145e-05
0.00222968 0.00022226 -5.32136e-07
0.00022226 -3.58762e-05 -6.32458e-08
-5.32136e-07 -6.32458e-08 -1.59015e-05
0.00229577 0.000161154 6.39232e-07
0.000161154 -7.99328e-05 1.12275e-07
6.39232e-07 1.12275e-07 1.37177e-06
0.00239083 0.000484021 -3.48334e-07
0.000484021 4.31834e-05 5.60494e-08
-3.48334e-07 5.60494e-08 3.82965e-06
0.0024184 0.000347062 2.05041e-06
0.000347062 -6.18725e-05 6.57975e-07
2.05041e-06 6.57975e-07 -1.13485e-05
0.00216491 -1.6857e-05 4.74343e-07
-1.6857e-05 -4.7205e-05 -1.77188e-07
4.74343e-07 -1.77188e-07 -1.13056e-05
0.00233154 8.1674e-05 1.0198e-06
8.1674e-05 -7.4328e-05 -6.93422e-07
1.0198e-06 -6.93422e-07 1.91314e-05
0.00240334 0.000231195 -9.14176e-07
0.000231195 -6.26939e-05 2.51885e-07
-9.14176e-07 2.51885e-07 2.11673e-05
0.00253132 0.000504381 -1.99675e-06
0.000504381 -3.97139e-05 1.63618e-07
-1.99675e-06 1.63618e-07 9.51703e-06
0.00216908 -8.7782e-05 -6.35277e-06
-8.7782e-05 2.75188e-05 6.75637e-07
-6.35277e-06 6.75637e-07 1.71586e-05
0.00227207 -0.000266628 -3.939e-06
-0.000266628 7.04949e-05 8.14633e-07
-3.939e-06 8.14633e-07 3.50528e-05
0.00210418 -0.000151725 -1.93928e-06
-0.000151725 -6.37831e-05 3.43961e-07
-1.93928e-06 3.43961e-07 -3.31869e-05
0.00229148 -0.000387395 -2.66986e-06
-0.000387395 -8.39847e-06 3.03148e-07
-2.66986e-06 3.03148e-07 -1.37315e-05
0.00165723 -0.000717671 9.58621e-06
-0.000717671 0.000470096 -3.45362e-06
9.58621e-06 -3.45362e-06 -6.95074e-05
0.00208065 -0.0010321 2.40173e-06
-0.0010321 0.000498853 -3.61299e-06
2.40173e-06 -3.61299e-06 -0.00014092
0.0025018 -0.000988299 -8.08383e-06
-0.000988299 0.000520294 -2.32283e-06
-8.08383e-06 -2.32283e-06 1.65661e-06
0.00236296 -0.000603117 -3.33783e-06
-0.000603117 0.00014096 9.82233e-07
-3.33783e-06 9.82233e-07 1.72564e-05
0.00238237 -0.00052506 2.25805e-06
-0.00052506 1.0095e-05 -7.33921e-07
2.25805e-06 -7.33921e-07 -7.14385e-06
0.00238817 -0.000759866 -2.69106e-06
-0.000759866 0.000122033 1.43401e-06
-2.69106e-06 1.43401e-06 -3.32162e-05
0.00245009 -0.000813714 -1.58321e-07
-0.000813714 0.00044145 -6.85482e-07
-1.58321e-07 -6.85482e-07 8.82212e-05
0.00248996 -0.000849693 8.01161e-06
-0.000849693 0.000279914 9.98853e-07
8.01161e-06 9.98853e-07 2.18678e-05
0.0019786 -0.000819235 -1.91336e-05
-0.000819235 0.000849119 -2.03753e-06
-1.91336e-05 -2.03753e-06 0.000232412
0.000945238 -0.000627276 1.07549e-05
-0.000627276 0.000265912 -1.33889e-05
1.07549e-05 -1.33889e-05 -0.000313768
0.00214129 -0.000403235 -2.2172e-06
-0.000403235 0.00113153 -5.58867e-06
-2.2172e-06 -5.58867e-06 0.000730678
-0.000117315 -4.60474e-05 -3.32263e-06
-4.60474e-05 -0.000296442 3.54222e-08
-3.32263e-06 3.54222e-08 -0.000551437
0.000952141 -4.15416e-05 1.05177e-05
-4.15416e-05 0.000404366 -1.08889e-05
1.05177e-05 -1.08889e-05 9.63815e-05
0.00214063 -0.000103701 1.50091e-07
-0.000103701 -6.20537e-05 -5.72557e-08
1.50091e-07 -5.72557e-08 -2.18909e-05
0.00225467 -0.000232886 1.84524e-06
-0.000232886 -4.44594e-05 -3.90402e-08
1.84524e-06 -3.90402e-08 -6.22311e-06
0.00243173 -0.000465671 -9.64216e-07
-0.000465671 -4.44021e-05 2.70567e-07
-9.64216e-07 2.70567e-07 -9.20201e-06
0.00223065 -0.00102094 -2.26075e-06
-0.00102094 0.000827875 -2.68858e-07
-2.26075e-06 -2.68858e-07 0.000149876
0.00174024 -0.00105208 6.66415e-06
-0.00105208 0.000298171 -1.1367e-06
6.66415e-06 -1.1367e-06 -0.000353356
0.00256806 -0.00103384 -1.55007e-06
-0.00103384 0.000545039 1.39376e-07
-1.55007e-06 1.39376e-07 1.93454e-05
0.00242763 -0.00063418 3.92875e-07
-0.00063418 5.80068e-05 -4.20839e-07
3.92875e-07 -4.20839e-07 -5.10989e-07
0.00235483 -0.000848141 3.96952e-06
-0.000848141 0.000292843 -4.43714e-06
3.96952e-06 -4.43714e-06 -4.30967e-05
0.00263721 -0.000890369 -1.1493e-06
-0.000890369 0.000206915 -6.84191e-07
-1.1493e-06 -6.84191e-07 2.58984e-05
-0.000408996 1.41224e-05 -1.40447e-06
1.41224e-05 -0.000483282 -3.28438e-07
-1.40447e-06 -3.28438e-07 -0.000672883
0.00177369 -0.000863648 8.41421e-07
-0.000863648 0.000712823 -2.51841e-07
8.41421e-07 -2.51841e-07 5.90521e-05
0.00153349 -0.000785137 -4.84023e-06
-0.000785137 0.000647436 1.44645e-08
-4.84023e-06 1.44645e-08 -2.4419e-05
0.00154663 -0.000483972 -8.73269e-07
-0.000483972 0.00073608 2.63579e-06
-8.73269e-07 2.63579e-06 0.000226436
0.00114849 -0.000273979 -3.69428e-07
-0.000273979 0.000452041 -2.54732e-06
-3.69428e-07 -2.54732e-06 0.000123694
0.0010549 -0.000156466 6.1812e-07
-0.000156466 0.00049534 1.74453e-06
6.1812e-07 1.74453e-06 0.000123317
0.00227639 -0.000133343 -1.28494e-07
-0.000133343 -9.02164e-05 1.32755e-08
-1.28494e-07 1.32755e-08 -1.00955e-05
0.00245484 -0.000309576 1.47501e-06
-0.000309576 -0.000105744 -3.77554e-07
1.47501e-06 -3.77554e-07 5.60852e-06
0.00253256 -0.000584828 -1.52783e-06
-0.000584828 -3.92844e-05 4.34417e-07
-1.52783e-06 4.34417e-07 8.56467e-06
0.00254656 -0.00076821 -2.1206e-06
-0.00076821 1.29851e-05 1.47014e-06
-2.1206e-06 1.47014e-06 -1.03245e-05
0.0024183 -0.00112687 -5.64006e-06
-0.00112687 0.00095154 3.83027e-06
-5.64006e-06 3.83027e-06 0.000237737
0.00260626 -0.00101632 -2.18302e-06
-0.00101632 0.000275078 -5.08557e-06
-2.18302e-06 -5.08557e-06 -2.92486e-05
0.00243697 -0.00125228 -5.30659e-05
-0.00125228 0.000720874 8.11177e-06
-5.30659e-05 8.11177e-06 -7.00747e-06
0.00223481 -0.00104802 -2.75606e-05
-0.00104802 0.000360454 1.59804e-06
-2.75606e-05 1.59804e-06 -0.000171909
-0.000707481 1.74401e-05 -2.34982e-06
1.74401e-05 -0.000704945 -4.18413e-06
-2.34982e-06 -4.18413e-06 -0.000825321
0.00123533 -0.000106329 5.9188e-07
-0.000106329 0.000681468 6.27892e-06
5.9188e-07 6.27892e-06 0.000350675
0.00254155 -0.000310165 -6.99452e-06
-0.000310165 0.00140035 1.01343e-05
-6.99452e-06 1.01343e-05 0.00101732
0.000753569 -0.000250438 -7.7179e-06
-0.000250438 0.000221687 -8.22743e-07
-7.7179e-06 -8.22743e-07 -0.000191037
0.00233423 -0.000957114 -1.58987e-06
-0.000957114 0.00104457 1.7943e-05
-1.58987e-06 1.7943e-05 0.000382015
0.00203294 -0.000836031 2.84726e-06
-0.000836031 0.000976831 1.62927e-05
2.84726e-06 1.62927e-05 0.000227389
0.000530162 0.000133409 2.01894e-06
0.000133409 8.42805e-05 -1.07555e-05
2.01894e-06 -1.07555e-05 -8.77431e-05
-0.000557713 9.5439e-05 3.24597e-07
9.5439e-05 -0.000537789 -3.40075e-06
3.24597e-07 -3.40075e-06 -0.00087978
0.00239143 0.000616715 -8.49558e-07
0.000616715 0.000132652 -3.21634e-07
-8.49558e-07 -3.21634e-07 2.60194e-06
0.000453446 0.000181541 -5.10222e-06
0.000181541 -0.000173542 6.0971e-06
-5.10222e-06 6.0971e-06 -0.000465337
0.001976 0.000820169 9.05278e-06
0.000820169 0.000868522 -1.43081e-06
9.05278e-06 -1.43081e-06 0.000270521
7.01484e-05 0.000242688 -1.14686e-05
0.000242688 -0.000574097 1.41753e-06
-1.14686e-05 1.41753e-06 -0.000877326
0.0024867 0.000853381 4.74557e-06
0.000853381 0.00035058 1.5178e-06
4.74557e-06 1.5178e-06 8.82304e-06
0.00245254 0.000824326 -3.22655e-06
0.000824326 0.000200806 6.40526e-07
-3.22655e-06 6.40526e-07 -4.61036e-05
0.00232138 0.00118086 -4.88154e-06
0.00118086 0.000900759 8.11062e-06
-4.88154e-06 8.11062e-06 0.000179347
0.00219072 0.0010432 -8.02817e-06
0.0010432 0.000421542 3.65878e-06
-8.02817e-06 3.65878e-06 -0.000111275
0.00075661 0.000280388 -2.79635e-07
0.000280388 0.00029374 -4.94995e-07
-2.79635e-07 -4.94995e-07 1.74741e-05
0.000961331 0.000333625 1.21961e-06
0.000333625 0.000435649 -3.50084e-06
1.21961e-06 -3.50084e-06 2.99527e-05
0.00160488 0.000839409 -2.87942e-06
0.000839409 0.000642124 1.04178e-07
-2.87942e-06 1.04178e-07 4.61909e-05
0.000479264 0.000398921 -3.84782e-06
0.000398921 -0.000277252 1.11143e-06
-3.84782e-06 1.11143e-06 -0.00061241
0.00314221 0.000849837 1.66106e-06
0.000849837 0.00129089 1.57482e-06
1.66106e-06 1.57482e-06 0.000815752
0.00260204 0.000734433 -2.51488e-06
0.000734433 9.50183e-05 -4.20222e-07
-2.51488e-06 -4.20222e-07 1.48118e-05
0.00258228 0.000880153 2.76759e-06
0.000880153 0.000373582 -7.44056e-07
2.76759e-06 -7.44056e-07 1.8647e-05
0.00261747 0.000838413 5.56259e-07
0.000838413 0.000256183 2.78499e-06
5.56259e-07 2.78499e-06 -1.63489e-05
0.00210489 0.00117597 4.85355e-06
0.00117597 0.000697253 1.35325e-06
4.85355e-06 1.35325e-06 -3.63132e-06
0.00250261 0.00127344 -5.50027e-06
0.00127344 0.000636766 8.06895e-07
-5.50027e-06 8.06895e-07 -6.39931e-06
-0.00184993 1.87926e-05 -1.08407e-05
1.87926e-05 -0.00135665 3.06241e-07
-1.08407e-05 3.06241e-07 -0.00159567
-0.003068 0.000401784 -1.93982e-06
0.000401784 -0.00182239 -3.14686e-06
-1.93982e-06 -3.14686e-06 -0.00236568
0.00209195 0.000957051 1.33596e-05
0.000957051 0.000808968 -5.78116e-06
1.33596e-05 -5.78116e-06 0.00020962
0.0011631 0.000493212 5.18061e-06
0.000493212 4.87151e-05 -1.17848e-05
5.18061e-06 -1.17848e-05 -0.000289135
0.00274755 0.000680614 3.42955e-07
0.000680614 -0.000162851 1.46652e-06
3.42955e-07 1.46652e-06 -2.30137e-05
0.00266131 0.000884334 6.96306e-06
0.000884334 0.000139342 -3.11466e-07
6.96306e-06 -3.11466e-07 -3.3766e-05
0.00274751 0.00110311 1.17371e-05
0.00110311 0.000480694 -4.53016e-06
1.17371e-05 -4.53016e-06 -2.60433e-05
0.00230795 0.00131754 6.04801e-06
0.00131754 0.000618283 -1.45852e-06
6.04801e-06 -1.45852e-06 -0.000119402
0.00154186 0.00024851 4.82681e-06
0.00024851 0.000842609 -1.28816e-06
4.82681e-06 -1.28816e-06 0.000592466
0.000384797 0.000216402 -5.11681e-06
0.000216402 9.28675e-05 1.25781e-06
-5.11681e-06 1.25781e-06 -9.47579e-05
0.00052356 0.000134052 -7.4925e-06
0.000134052 0.000198194 -5.8699e-06
-7.4925e-06 -5.8699e-06 7.02434e-05
1.33149e-05 4.45328e-05 3.18198e-06
4.45328e-05 -0.000182443 -3.01709e-06
3.18198e-06 -3.01709e-06 -0.000343166
-0.0015864 5.32511e-05 7.106e-07
5.32511e-05 -0.00109902 -1.78243e-06
7.106e-07 -1.78243e-06 -0.00133245
0.000767966 8.58582e-05 -1.11431e-06
8.58582e-05 0.00030537 -6.53094e-08
-1.11431e-06 -6.53094e-08 0.000153249
0.000714382 0.00024834 4.95907e-06
0.00024834 0.000375092 2.53183e-06
4.95907e-06 2.53183e-06 0.000159545
0.000706925 9.89238e-05 1.37994e-06
9.89238e-05 0.00037102 2.39027e-06
1.37994e-06 2.39027e-06 0.000118362
0.000401139 0.00012962 -4.48061e-06
0.00012962 3.71364e-05 -9.75228e-06
-4.48061e-06 -9.75228e-06 -5.50875e-05
0.000774345 6.52026e-05 -5.70515e-06
6.52026e-05 0.00042248 -1.50331e-06
-5.70515e-06 -1.50331e-06 0.000161244
-0.000156275 7.76185e-05 -3.16557e-06
7.76185e-05 -0.00025081 4.34606e-06
-3.16557e-06 4.34606e-06 -0.000444398
0.000750675 0.000145942 2.0924e-06
0.000145942 0.000289254 2.39656e-06
2.0924e-06 2.39656e-06 0.000136975
0.000442935 9.785e-05 2.36709e-06
9.785e-05 5.55084e-05 3.97616e-06
2.36709e-06 3.97616e-06 -4.70366e-05
0.000422664 2.09591e-05 -1.94491e-06
2.09591e-05 3.08123e-05 -4.12569e-07
-1.94491e-06 -4.12569e-07 -6.46104e-05
0.00127811 2.1293e-05 4.90866e-07
2.1293e-05 0.000554253 3.6955e-06
4.90866e-07 3.6955e-06 0.000527096
0.000426344 -5.15426e-05 3.58866e-06
-5.15426e-05 2.78956e-05 -3.6346e-06
3.58866e-06 -3.6346e-06 -6.4893e-05
0.00135873 5.96624e-06 -1.17205e-05
5.96624e-06 0.000604321 -1.94223e-06
-1.17205e-05 -1.94223e-06 0.000576857
0.000638298 -4.03035e-06 3.92951e-05
-4.03035e-06 0.000124028 1.0952e-05
3.92951e-05 1.0952e-05 0.000127057
0.00139733 -3.62234e-05 -1.23586e-05
-3.62234e-05 0.000628438 -9.29352e-06
-1.23586e-05 -9.29352e-06 0.000598782
0.000704465 -2.17188e-05 1.80872e-05
-2.17188e-05 0.0001643 4.11216e-06
1.80872e-05 4.11216e-06 0.000161944
0.000621317 -3.64887e-05 4.01073e-06
-3.64887e-05 0.000114123 -4.70785e-06
4.01073e-06 -4.70785e-06 0.000103697
0.000408296 3.78588e-05 6.5563e-07
3.78588e-05 -1.49579e-05 -6.96466e-06
6.5563e-07 -6.96466e-06 -5.98079e-05
0.000395731 4.02023e-05 -1.64554e-06
4.02023e-05 -3.98713e-06 2.14976e-08
-1.64554e-06 2.14976e-08 -6.55946e-05
0.00310932 0.000163461 -1.68864e-05
0.000163461 0.00178544 -9.93961e-06
-1.68864e-05 -9.93961e-06 0.00176686
0.000348124 -5.76838e-05 -1.60653e-05
-5.76838e-05 -4.14989e-05 9.82719e-06
-1.60653e-05 9.82719e-06 -0.000126705
0.00410697 0.000170581 -2.90606e-05
0.000170581 0.00244151 -2.16629e-06
-2.90606e-05 -2.16629e-06 0.00241729
0.00482801 7.62188e-05 -0.000171017
7.62188e-05 0.00292003 2.73657e-05
-0.000171017 2.73657e-05 0.0029141
0.002395 0.000484717 5.07919e-07
0.000484717 5.07601e-05 6.69443e-07
5.07919e-07 6.69443e-07 9.46283e-06
0.00225694 0.000223558 -1.4007e-06
0.000223558 -1.13696e-05 -4.86228e-07
-1.4007e-06 -4.86228e-07 7.42382e-06
0.00240078 0.000349474 1.97672e-06
0.000349474 -7.34357e-05 1.46934e-06
1.97672e-06 1.46934e-06 -1.38385e-05
0.00226794 0.000161767 5.14696e-07
0.000161767 -0.000102899 -3.90292e-08
5.14696e-07 -3.90292e-08 -1.26475e-05
0.0022154 6.93216e-05 -1.84419e-06
6.93216e-05 -8.51349e-06 4.92481e-07
-1.84419e-06 4.92481e-07 2.4568e-05
0.00215236 -1.48559e-05 -6.09744e-06
-1.48559e-05 1.40136e-05 3.43705e-07
-6.09744e-06 3.43705e-07 1.01238e-05
0.00217781 -1.62687e-05 7.60899e-07
-1.62687e-05 -3.70545e-05 1.04443e-08
7.60899e-07 1.04443e-08 4.70371e-07
0.00230062 8.63893e-05 4.19668e-07
8.63893e-05 -9.03875e-05 1.61362e-07
4.19668e-07 1.61362e-07 2.02038e-06
0.00239805 0.000236892 8.62755e-07
0.000236892 -6.76076e-05 1.3306e-07
8.62755e-07 1.3306e-07 1.78353e-05
0.00250941 0.000487606 5.56011e-07
0.000487606 -5.58232e-05 2.11507e-07
5.56011e-07 2.11507e-07 -1.46009e-06
0.00229999 -1.64614e-05 -5.5576e-07
-1.64614e-05 -8.43218e-05 -2.84238e-07
-5.5576e-07 -2.84238e-07 1.21793e-06
0.00244047 0.000138958 2.66063e-07
0.000138958 -0.000122272 5.88419e-07
2.66063e-07 5.88419e-07 2.93033e-05
0.00265907 0.000344752 -1.08142e-06
0.000344752 -7.69526e-05 3.6447e-07
-1.08142e-06 3.6447e-07 5.0801e-05
0.00212634 -0.00011095 -1.21845e-06
-0.00011095 -6.967e-05 -1.63092e-07
-1.21845e-06 -1.63092e-07 -3.03449e-05
0.00227422 -0.000233796 -1.86066e-06
-0.000233796 -3.34161e-05 3.97249e-08
-1.86066e-06 3.97249e-08 3.50804e-06
0.00241678 -0.000458239 1.49231e-07
-0.000458239 -3.48848e-05 3.13142e-07
1.49231e-07 3.13142e-07 -1.02019e-05
0.00227438 -0.00101285 -5.2305e-06
-0.00101285 0.000838443 -3.03315e-06
-5.2305e-06 -3.03315e-06 0.000167229
0.00193359 -0.00105452 1.01779e-05
-0.00105452 0.000422913 -5.44472e-06
1.01779e-05 -5.44472e-06 -0.000224368
0.00242836 -0.00103392 5.19793e-07
-0.00103392 0.000461994 -8.45306e-07
5.19793e-07 -8.45306e-07 -6.83675e-05
0.00243947 -0.000627937 -3.67663e-07
-0.000627937 7.03182e-05 -1.54243e-07
-3.67663e-07 -1.54243e-07 1.04128e-05
0.00266082 -0.000880971 2.41035e-06
-0.000880971 0.000250253 1.19377e-06
2.41035e-06 1.19377e-06 7.62747e-05
0.00251874 -0.000889477 1.18827e-05
-0.000889477 0.00036268 -4.92943e-06
1.18827e-05 -4.92943e-06 2.41704e-05
0.00150642 -0.00081877 -2.20071e-06
-0.00081877 0.000564699 -5.2443e-06
-2.20071e-06 -5.2443e-06 -8.1441e-05
0.00213176 -0.00088341 5.00917e-06
-0.00088341 0.00100935 -2.21025e-05
5.00917e-06 -2.21025e-05 0.000321961
0.00184545 -0.000590973 -6.66907e-06
-0.000590973 0.000969532 7.41236e-06
-6.66907e-06 7.41236e-06 0.000412785
9.44664e-05 4.03907e-05 6.44485e-06
4.03907e-05 -0.000147491 2.67515e-06
6.44485e-06 2.67515e-06 -0.000338228
0.00146634 -0.000291974 1.16472e-05
-0.000291974 0.000621668 -1.42222e-05
1.16472e-05 -1.42222e-05 0.000324245
-0.000792587 -7.91265e-05 1.09909e-06
-7.91265e-05 -0.000722211 -9.68211e-06
1.09909e-06 -9.68211e-06 -0.00109247
0.00230176 -0.000126038 -3.23719e-07
-0.000126038 -7.22014e-05 4.70873e-08
-3.23719e-07 4.70873e-08 4.94108e-06
0.00243358 -0.000322638 3.86877e-07
-0.000322638 -0.000129005 -6.90667e-08
3.86877e-07 -6.90667e-08 -1.23062e-05
0.00252509 -0.000572451 -4.85795e-07
-0.000572451 -3.99074e-05 -1.14264e-07
-4.85795e-07 -1.14264e-07 7.52725e-06
0.00225846 -0.00110489 -2.69362e-06
-0.00110489 0.000839675 9.08961e-07
-2.69362e-06 9.08961e-07 0.000134312
0.00226636 -0.00121547 9.71312e-06
-0.00121547 0.000630659 -1.71574e-06
9.71312e-06 -1.71574e-06 -8.14926e-05
0.00251313 -0.00106676 -1.86392e-06
-0.00106676 0.000519595 -2.63025e-06
-1.86392e-06 -2.63025e-06 -3.19923e-06
0.00258416 -0.00078345 6.63006e-07
-0.00078345 3.73434e-05 -4.24202e-07
6.63006e-07 -4.24202e-07 1.13325e-06
0.00260185 -0.000995705 2.38192e-06
-0.000995705 0.000296063 -1.49194e-06
2.38192e-06 -1.49194e-06 3.39984e-06
4.90396e-05 5.59539e-05 -2.83738e-06
5.59539e-05 -0.000205321 -3.2187e-06
-2.83738e-06 -3.2187e-06 -0.000325676
0.000780024 -0.000131131 -2.48744e-06
-0.000131131 0.000373454 1.76859e-06
-2.48744e-06 1.76859e-06 5.43491e-05
0.00147828 -0.000854794 -5.7063e-06
-0.000854794 0.000526023 7.89986e-07
-5.7063e-06 7.89986e-07 -9.97878e-05
0.00175342 -0.000758814 -6.12023e-06
-0.000758814 0.000836247 1.42632e-06
-6.12023e-06 1.42632e-06 0.00010598
0.00171868 -0.000209007 -4.01798e-06
-0.000209007 0.000823508 -1.03799e-05
-4.01798e-06 -1.03799e-05 0.000403137
0.000773462 -0.000311978 -3.07767e-06
-0.000311978 0.000257549 -6.44958e-07
-3.07767e-06 -6.44958e-07 -0.000110506
0.00240463 -0.000164133 1.26647e-06
-0.000164133 -0.000149433 -1.08489e-06
1.26647e-06 -1.08489e-06 4.09689e-06
0.00264539 -0.000477964 1.17234e-06
-0.000477964 -0.000165946 -1.08636e-06
1.17234e-06 -1.08636e-06 2.27253e-05
0.00259126 -0.000726633 -5.26557e-07
-0.000726633 -7.7162e-05 2.45832e-06
-5.26557e-07 2.45832e-06 -3.0168e-05
0.0027391 -0.000997872 -6.00668e-07
-0.000997872 0.000163218 -1.48102e-06
-6.00668e-07 -1.48102e-06 1.79555e-05
0.00152956 -0.00103713 -8.88863e-06
-0.00103713 0.00044482 -3.26272e-06
-8.88863e-06 -3.26272e-06 -0.000227361
0.00268712 -0.00118758 7.47132e-06
-0.00118758 0.000515777 -4.44272e-06
7.47132e-06 -4.44272e-06 2.26957e-05
0.00247768 -0.00135223 -6.24166e-05
-0.00135223 0.000703402 3.23781e-06
-6.24166e-05 3.23781e-06 -5.21148e-05
0.000473061 5.15047e-05 1.55863e-06
5.15047e-05 5.4625e-05 -3.11601e-06
1.55863e-06 -3.11601e-06 -3.43646e-05
0.000697889 -0.000161692 7.53066e-06
-0.000161692 0.000277195 -7.9031e-06
7.53066e-06 -7.9031e-06 0.000127725
-0.000502477 6.47682e-05 -4.94142e-06
6.47682e-05 -0.000487296 4.60749e-07
-4.94142e-06 4.60749e-07 -0.000695165
0.000210938 -0.000235187 -6.13302e-06
-0.000235187 2.90054e-05 1.40091e-05
-6.13302e-06 1.40091e-05 -0.000316406
0.00289326 -0.000219758 -9.66954e-06
-0.000219758 0.00163928 -1.01839e-05
-9.66954e-06 -1.01839e-05 0.0013011
0.00107215 -0.000359535 -1.40154e-05
-0.000359535 0.000456495 -2.0481e-06
-1.40154e-05 -2.0481e-06 -0.000119867
0.00171034 -0.000967003 -1.16632e-05
-0.000967003 0.00061954 3.92846e-05
-1.16632e-05 3.92846e-05 -2.39497e-05
0.00389453 -0.00111398 -2.82557e-05
-0.00111398 0.00212089 1.55368e-05
-2.82557e-05 1.55368e-05 0.00119524
7.90331e-05 0.000150993 4.87952e-06
0.000150993 -0.000173059 -3.92585e-06
4.87952e-06 -3.92585e-06 -0.00041993
0.00235707 0.00050935 2.778e-06
0.00050935 0.00128698 4.9991e-06
2.778e-06 4.9991e-06 0.0008766
0.00264144 0.000744225 -1.24347e-07
0.000744225 0.000100413 -6.86027e-07
-1.24347e-07 -6.86027e-07 1.53155e-05
0.00286895 0.00036361 1.84566e-06
0.00036361 0.0011565 4.0972e-06
1.84566e-06 4.0972e-06 0.000837485
0.00128395 0.000783188 4.64667e-07
0.000783188 0.000447435 1.32264e-06
4.64667e-07 1.32264e-06 -0.000137477
0.00307907 0.000826511 -4.05311e-06
0.000826511 0.00123587 1.1301e-05
-4.05311e-06 1.1301e-05 0.000764621
0.00268959 0.000859195 -5.08246e-06
0.000859195 0.000449143 2.95196e-07
-5.08246e-06 2.95196e-07 0.000111274
0.00301367 0.000876399 -4.45066e-06
0.000876399 0.000515598 7.20389e-06
-4.45066e-06 7.20389e-06 0.000231986
0.00205815 0.00118435 -6.29365e-06
0.00118435 0.00065622 3.87371e-06
-6.29365e-06 3.87371e-06 -5.0511e-05
0.0023085 0.00131055 -1.56553e-05
0.00131055 0.000522967 2.63806e-07
-1.56553e-05 2.63806e-07 -0.000147928
-0.000701767 0.000125066 1.71392e-06
0.000125066 -0.000579922 1.4324e-06
1.71392e-06 1.4324e-06 -0.00087617
-0.000393248 0.000472872 4.96654e-06
0.000472872 -0.000169769 -2.7263e-06
4.96654e-06 -2.7263e-06 -0.000691069
0.00189099 0.000960027 -2.48506e-07
0.000960027 0.00063659 -6.72357e-07
-2.48506e-07 -6.72357e-07 2.48381e-05
0.00249703 0.000648828 -6.46707e-06
0.000648828 0.000950396 -3.08961e-07
-6.46707e-06 -3.08961e-07 0.000565982
0.00268961 0.000649063 9.57272e-08
0.000649063 -0.000235934 -3.14027e-07
9.57272e-08 -3.14027e-07 -7.08686e-05
0.00282938 0.000897114 3.32646e-06
0.000897114 0.000236751 -7.54599e-07
3.32646e-06 -7.54599e-07 4.60402e-05
0.00253734 0.00105551 -4.15512e-06
0.00105551 0.000407271 -4.98559e-07
-4.15512e-06 -4.98559e-07 -8.18898e-05
0.00253902 0.00132358 1.64155e-06
0.00132358 0.000741926 7.00071e-07
1.64155e-06 7.00071e-07 1.51183e-05
-0.00126372 -4.43382e-06 -5.11658e-06
-4.43382e-06 -0.000903882 -2.75789e-06
-5.11658e-06 -2.75789e-06 -0.00112245
0.00265892 0.000447717 -1.64485e-06
0.000447717 -0.000276068 1.54529e-06
-1.64485e-06 1.54529e-06 -7.70231e-05
0.00390251 0.000900668 -7.41253e-06
0.000900668 0.00249865 8.94613e-06
-7.41253e-06 8.94613e-06 0.00189788
0.00174106 0.000868241 2.63184e-06
0.000868241 0.000432945 -3.73814e-06
2.63184e-06 -3.73814e-06 -9.75011e-05
0.00280333 0.000876001 -1.8788e-05
0.000876001 -1.29701e-05 -1.19273e-05
-1.8788e-05 -1.19273e-05 4.46478e-05
0.00158426 0.000977556 8.71295e-06
0.000977556 -0.000261932 -1.18444e-05
8.71295e-06 -1.18444e-05 -0.000704657
0.00340933 0.0014564 4.46663e-06
0.0014564 0.00119589 3.77597e-06
4.46663e-06 3.77597e-06 0.000432712
2.20627e-05 0.000150893 1.70416e-06
0.000150893 -0.000118353 5.69205e-06
1.70416e-06 5.69205e-06 -0.000323474
0.000492104 0.000161803 -1.54186e-06
0.000161803 0.000189608 -3.74948e-07
-1.54186e-06 -3.74948e-07 5.37467e-05
-0.000181715 7.88687e-05 -6.93004e-06
7.88687e-05 -0.000178477 -3.31927e-06
-6.93004e-06 -3.31927e-06 -0.000287875
0.000127267 -3.4135e-06 2.76216e-06
-3.4135e-06 -0.000122776 -1.54232e-06
2.76216e-06 -1.54232e-06 -0.00026153
0.000533836 0.000134568 4.29081e-06
0.000134568 0.000254748 -6.82459e-06
4.29081e-06 -6.82459e-06 6.94862e-06
-0.000274931 0.000180056 -6.08798e-06
0.000180056 -0.000229828 7.79674e-06
-6.08798e-06 7.79674e-06 -0.0004229
0.000486133 2.81007e-05 -1.70115e-06
2.81007e-05 0.000114508 -2.23449e-07
-1.70115e-06 -2.23449e-07 -3.44778e-05
0.000276579 3.41856e-06 1.07505e-08
3.41856e-06 5.47312e-05 -4.15944e-07
1.07505e-08 -4.15944e-07 -0.000159046
-0.000118158 9.29273e-05 -9.0237e-06
9.29273e-05 -0.00023284 4.14024e-06
-9.0237e-06 4.14024e-06 -0.000318416
0.000655546 0.000169866 2.64337e-06
0.000169866 0.000355342 -2.86467e-06
2.64337e-06 -2.86467e-06 8.97428e-05
0.00107368 0.000172851 4.31701e-07
0.000172851 0.000521188 -7.03829e-06
4.31701e-07 -7.03829e-06 0.00045481
-0.000347411 4.92157e-05 1.15081e-05
4.92157e-05 -0.000354396 -1.20094e-05
1.15081e-05 -1.20094e-05 -0.000481167
0.000601473 0.000131878 -4.49579e-06
0.000131878 0.000334179 5.99035e-06
-4.49579e-06 5.99035e-06 6.1465e-05
0.000571246 3.55648e-05 -3.60819e-06
3.55648e-05 0.000214391 4.64556e-06
-3.60819e-06 4.64556e-06 6.36599e-06
0.000503187 3.37128e-05 1.47811e-06
3.37128e-05 0.000101998 2.57416e-06
1.47811e-06 2.57416e-06 -4.26337e-05
0.00044169 -7.68105e-05 -1.92204e-06
-7.68105e-05 4.34587e-05 3.37576e-06
-1.92204e-06 3.37576e-06 -5.42548e-05
0.000443853 1.75571e-05 4.91932e-07
1.75571e-05 3.79092e-05 -4.28263e-07
4.91932e-07 -4.28263e-07 -5.44149e-05
0.00134003 2.74872e-05 3.81439e-06
2.74872e-05 0.000598952 4.09284e-06
3.81439e-06 4.09284e-06 0.000572446
0.000436003 1.62602e-05 2.37521e-06
1.62602e-05 2.19498e-05 -3.29255e-06
2.37521e-06 -3.29255e-06 -6.23412e-05
0.0013732 2.07157e-05 -1.16928e-05
2.07157e-05 0.000619146 -2.11041e-06
-1.16928e-05 -2.11041e-06 0.000591236
0.000769844 1.73606e-06 3.54102e-05
1.73606e-06 0.000214751 9.97259e-06
3.54102e-05 9.97259e-06 0.00021703
0.00131987 -1.79238e-05 -1.10593e-05
-1.79238e-05 0.000577568 -8.52137e-06
-1.10593e-05 -8.52137e-06 0.000552257
0.000746223 -1.29582e-05 1.50076e-05
-1.29582e-05 0.000191215 4.09888e-06
1.50076e-05 4.09888e-06 0.000191301
0.000814456 -2.98698e-05 3.01257e-06
-2.98698e-05 0.000231635 -3.84025e-06
3.01257e-06 -3.84025e-06 0.00022729
0.000503335 -1.66088e-05 1.24465e-06
-1.66088e-05 5.62534e-05 -4.73338e-06
1.24465e-06 -4.73338e-06 -1.46831e-05
0.000208488 2.99088e-05 4.71962e-07
2.99088e-05 -0.000145539 -6.61825e-06
4.71962e-07 -6.61825e-06 -0.000182058
0.000311123 3.68432e-05 1.88909e-06
3.68432e-05 -7.24584e-05 6.66156e-07
1.88909e-06 6.66156e-07 -0.000120153
0.00306685 0.000134101 -5.9387e-06
0.000134101 0.00174075 -8.08869e-06
-5.9387e-06 -8.08869e-06 0.00173143
0.000153863 8.68053e-06 -3.16678e-06
8.68053e-06 -0.000172168 9.32467e-06
-3.16678e-06 9.32467e-06 -0.000229999
0.00356828 0.0001786 -1.3527e-05
0.0001786 0.00208961 -1.67873e-06
-1.3527e-05 -1.67873e-06 0.00206744
0.00419108 0.000112783 -8.31632e-05
0.000112783 0.00248202 1.12365e-05
-8.31632e-05 1.12365e-05 0.00247087
0.0024824 0.000471451 1.97097e-06
0.000471451 -7.49295e-05 4.81522e-07
1.97097e-06 4.81522e-07 -1.56984e-05
0.00239073 0.000243551 1.81122e-07
0.000243551 -7.34787e-05 -8.46752e-08
1.81122e-07 -8.46752e-08 1.30961e-05
0.00226111 9.10467e-05 3.76888e-08
9.10467e-05 -0.00011204 1.81264e-07
3.76888e-08 1.81264e-07 -2.06558e-05
0.00219351 -1.56046e-05 -1.92376e-06
-1.56046e-05 -2.48041e-05 1.43653e-07
-1.92376e-06 1.43653e-07 1.40674e-05
0.00228913 -1.27803e-05 -4.73588e-07
-1.27803e-05 -9.73522e-05 6.95196e-08
-4.73588e-07 6.95196e-08 -7.95898e-06
0.00240217 0.000135697 9.94808e-07
0.000135697 -0.000143896 2.46306e-07
9.94808e-07 2.46306e-07 7.37311e-06
0.00255691 0.000358706 -6.67603e-07
0.000358706 -0.00012366 -2.43461e-07
-6.67603e-07 -2.43461e-07 3.74241e-06
0.00236944 -1.50889e-05 2.73625e-06
-1.50889e-05 -0.000183627 -6.12106e-07
2.73625e-06 -6.12106e-07 -1.74457e-05
0.00269772 0.000172386 1.11957e-06
0.000172386 -0.000150739 1.58063e-06
1.11957e-06 1.58063e-06 4.71349e-05
0.00239539 0.000165982 -2.47731e-06
0.000165982 -0.000420756 7.56204e-06
-2.47731e-06 7.56204e-06 -0.00020334
0.00232086 -0.000119057 -2.1307e-07
-0.000119057 -5.92525e-05 -5.4456e-08
-2.1307e-07 -5.4456e-08 1.49374e-05
0.00242452 -0.00033642 -2.57859e-06
-0.00033642 -0.000142909 9.95087e-08
-2.57859e-06 9.95087e-08 -2.22711e-05
0.00251892 -0.000559326 1.83479e-06
-0.000559326 -3.60637e-05 3.01019e-07
1.83479e-06 3.01019e-07 8.64534e-06
0.00220087 -0.00110154 -2.41189e-06
-0.00110154 0.000784996 -9.6279e-07
-2.41189e-06 -9.6279e-07 8.16271e-05
0.00219698 -0.00120735 3.36578e-05
-0.00120735 0.000585265 -3.60268e-06
3.36578e-05 -3.60268e-06 -0.000122105
0.002727 -0.00108292 1.7297e-05
-0.00108292 0.0006313 -2.95907e-06
1.7297e-05 -2.95907e-06 0.000117127
0.00257826 -0.000793557 3.48649e-06
-0.000793557 3.77896e-05 -1.51365e-06
3.48649e-06 -1.51365e-06 -1.08571e-05
0.00257741 -0.000969549 5.44546e-06
-0.000969549 0.000310524 8.75181e-07
5.44546e-06 8.75181e-07 2.93573e-05
0.00139461 -0.000844301 -6.20747e-06
-0.000844301 0.000495204 -2.0094e-05
-6.20747e-06 -2.0094e-05 -0.000152916
0.000576855 -0.000561604 7.80723e-06
-0.000561604 0.000170131 -1.74134e-05
7.80723e-06 -1.74134e-05 -0.000539022
0.00312656 -0.000285266 5.72802e-06
-0.000285266 0.00169856 6.32696e-06
5.72802e-06 6.32696e-06 0.00130293
0.000514497 -6.65105e-06 -1.60766e-06
-6.65105e-06 9.59104e-05 3.92968e-06
-1.60766e-06 3.92968e-06 -2.12806e-05
-0.000440053 -1.1456e-05 4.24908e-06
-1.1456e-05 -0.000428231 -5.27739e-06
4.24908e-06 -5.27739e-06 -0.000730774
-7.92769e-06 -0.00028732 -4.92572e-06
-0.00028732 -0.000261772 -8.62665e-06
-4.92572e-06 -8.62665e-06 -0.000612482
0.00239954 -0.000167134 1.98859e-07
-0.000167134 -0.000161857 -3.39448e-07
1.98859e-07 -3.39448e-07 -3.86849e-06
0.000421272 -1.72044e-05 1.7166e-06
-1.72044e-05 1.83301e-05 5.46656e-07
1.7166e-06 5.46656e-07 -7.12936e-05
0.000468292 -8.84872e-05 -3.45255e-06
-8.84872e-05 9.48227e-05 -8.83389e-07
-3.45255e-06 -8.83389e-07 -3.16845e-05
0.00260263 -0.00046587 -1.71697e-07
-0.00046587 -0.000168908 1.28614e-07
-1.71697e-07 1.28614e-07 3.83554e-06
0.00258859 -0.000712112 -1.67782e-06
-0.000712112 -6.03637e-05 1.50708e-07
-1.67782e-06 1.50708e-07 -9.36815e-06
0.00218557 -0.00116052 1.28492e-06
-0.00116052 0.000815065 2.85366e-06
1.28492e-06 2.85366e-06 0.000100359
0.0028314 -0.00141303 1.26096e-05
-0.00141303 0.000898818 -1.52374e-06
1.26096e-05 -1.52374e-06 0.00013134
0.00259646 -0.00116784 2.33402e-06
-0.00116784 0.000465898 -2.0406e-06
2.33402e-06 -2.0406e-06 -1.37716e-05
0.00268751 -0.000998226 2.2998e-06
-0.000998226 0.000132798 -1.60466e-06
2.2998e-06 -1.60466e-06 -9.92511e-06
0.000519139 -1.49735e-05 -2.92479e-06
-1.49735e-05 0.000184555 -1.53491e-06
-2.92479e-06 -1.53491e-06 -3.74072e-05
0.000677301 -0.000200021 -4.04026e-07
-0.000200021 0.000338359 1.66495e-06
-4.04026e-07 1.66495e-06 -1.98903e-05
0.00142245 -0.000883212 1.28017e-05
-0.000883212 0.000502531 1.01678e-05
1.28017e-05 1.01678e-05 -0.000128222
0.00145726 -0.000756986 2.62426e-05
-0.000756986 0.000728194 -1.70152e-05
2.62426e-05 -1.70152e-05 -0.000126775
0.00101634 -0.000372142 5.98719e-07
-0.000372142 0.000508937 1.49082e-06
5.98719e-07 1.49082e-06 -0.000103162
0.000715726 -0.000238396 5.4123e-06
-0.000238396 0.00025938 -5.34634e-06
5.4123e-06 -5.34634e-06 -8.08508e-05
0.00246122 -0.000191665 2.12371e-06
-0.000191665 -0.000372679 -1.43704e-06
2.12371e-06 -1.43704e-06 -0.000122514
0.00276257 -0.000622267 -2.5009e-06
-0.000622267 -0.000196425 2.42155e-06
-2.5009e-06 2.42155e-06 6.39061e-05
0.00305082 -0.00104546 -3.73498e-06
-0.00104546 0.000147396 3.20737e-06
-3.73498e-06 3.20737e-06 0.000103548
0.00266682 -0.00120844 1.61483e-06
-0.00120844 0.000254703 -6.80609e-06
1.61483e-06 -6.80609e-06 -6.63514e-05
0.00147171 -0.00114006 -6.10008e-07
-0.00114006 0.00046538 -6.33175e-06
-6.10008e-07 -6.33175e-06 -0.00026031
0.00352855 -0.0016332 8.51456e-07
-0.0016332 0.00113175 -2.3408e-06
8.51456e-07 -2.3408e-06 0.000346349
0.000373578 5.3484e-05 5.4167e-09
5.3484e-05 1.47523e-05 -9.7837e-06
5.4167e-09 -9.7837e-06 -0.000107192
-9.13843e-05 -4.39377e-05 8.16305e-06
-4.39377e-05 -0.000266947 -3.16059e-06
8.16305e-06 -3.16059e-06 -0.000397881
0.00154217 -0.000225914 -4.22452e-06
-0.000225914 0.000780646 8.44559e-06
-4.22452e-06 8.44559e-06 0.000609298
0.000533309 -3.82113e-07 -1.80901e-06
-3.82113e-07 0.000214248 1.57039e-05
-1.80901e-06 1.57039e-05 -6.79177e-05
0.00101951 -0.000317237 -1.01537e-05
-0.000317237 0.0005471 1.81894e-05
-1.01537e-05 1.81894e-05 0.000183082
-0.00162327 -0.000185806 -7.32678e-06
-0.000185806 -0.00123127 -3.27673e-05
-7.32678e-06 -3.27673e-05 -0.00152736
-0.000167961 -0.000337737 -3.05852e-05
-0.000337737 0.000186318 -2.10174e-06
-3.05852e-05 -2.10174e-06 -0.000828716
0.00130368 -0.001199 -5.20233e-05
-0.001199 0.000216964 2.7842e-05
-5.20233e-05 2.7842e-05 -0.000295006
-0.00028482 0.000308056 9.3274e-07
0.000308056 -0.000224253 -1.1511e-06
9.3274e-07 -1.1511e-06 -0.000596148
0.00358477 0.000661247 -1.16584e-05
0.000661247 0.00225921 -3.19262e-06
-1.16584e-05 -3.19262e-06 0.00178988
0.00260734 0.000615081 -2.52992e-06
0.000615081 -0.000317187 -1.9103e-06
-2.52992e-06 -1.9103e-06 -0.00012813
0.00299244 0.000908104 -5.71435e-06
0.000908104 0.000335028 -4.605e-08
-5.71435e-06 -4.605e-08 0.000127217
0.00365224 0.000737874 -9.09505e-06
0.000737874 0.00168867 3.74919e-06
-9.09505e-06 3.74919e-06 0.00129181
0.00166143 0.000960905 -1.43151e-05
0.000960905 0.000445256 6.43183e-07
-1.43151e-05 6.43183e-07 -0.000178586
0.002337 0.0010077 -6.76395e-06
0.0010077 0.000341071 3.41136e-06
-6.76395e-06 3.41136e-06 -0.0001312
0.00277836 0.00132518 -1.05395e-05
0.00132518 0.000869083 -5.78453e-07
-1.05395e-05 -5.78453e-07 0.000154309
0.000199535 0.000247688 3.6558e-06
0.000247688 0.00010029 5.06234e-07
3.6558e-06 5.06234e-07 -0.000198263
0.00262205 0.000436119 -2.58106e-06
0.000436119 -0.00030537 -2.9275e-06
-2.58106e-06 -2.9275e-06 -8.76394e-05
0.00211385 0.000639325 3.54206e-06
0.000639325 0.0013954 7.36135e-06
3.54206e-06 7.36135e-06 0.000879625
0.00167869 0.000839652 4.24125e-06
0.000839652 0.000455126 1.87084e-06
4.24125e-06 1.87084e-06 -7.38134e-05
0.00293861 0.000846825 2.14724e-07
0.000846825 0.000116834 3.9318e-07
2.14724e-07 3.9318e-07 0.000168157
0.00221113 0.00106817 -2.67355e-06
0.00106817 0.000109718 -6.15175e-06
-2.67355e-06 -6.15175e-06 -0.000349073
0.0029879 0.00136543 -2.44143e-06
0.00136543 0.000970126 -4.28193e-07
-2.44143e-06 -4.28193e-07 0.000235686
0.00170814 0.000480846 -6.76708e-06
0.000480846 0.0011703 -4.01413e-06
-6.76708e-06 -4.01413e-06 0.000767399
0.00440498 0.000862976 -0.000122313
0.000862976 0.000617433 -4.39739e-05
-0.000122313 -4.39739e-05 0.00100578
0.00204017 0.000760734 -4.2711e-06
0.000760734 0.00119559 9.58795e-06
-4.2711e-06 9.58795e-06 0.000640554
0.0013595 0.000905419 -3.82099e-06
0.000905419 0.000267494 -1.02794e-05
-3.82099e-06 -1.02794e-05 -0.000348011
0.00355311 0.00120811 -4.61835e-05
0.00120811 0.000715778 -2.57052e-05
-4.61835e-05 -2.57052e-05 0.000437125
0.00117492 0.00109288 -3.0418e-05
0.00109288 -4.88959e-05 -4.27091e-06
-3.0418e-05 -4.27091e-06 -0.000685182
0.00139743 0.00177276 5.73649e-06
0.00177276 -0.0028232 -7.42174e-05
5.73649e-06 -7.42174e-05 -0.00132786
0.000533638 0.000223068 9.30011e-06
0.000223068 0.000263277 1.0037e-05
9.30011e-06 1.0037e-05 0.000107145
0.000189928 0.00015082 5.10836e-07
0.00015082 8.60287e-05 -9.66206e-07
5.10836e-07 -9.66206e-07 -5.12763e-05
-0.000454754 7.66491e-05 2.44608e-06
7.66491e-05 -0.000313491 -2.59148e-06
2.44608e-06 -2.59148e-06 -0.000442742
0.000368445 -6.82039e-05 2.55504e-06
-6.82039e-05 4.06435e-05 -2.80026e-06
2.55504e-06 -2.80026e-06 -0.000111088
-0.000298897 2.32511e-06 2.58755e-06
2.32511e-06 -0.000316053 -4.27327e-06
2.58755e-06 -4.27327e-06 -0.000528135
0.00182707 0.000336451 3.45211e-08
0.000336451 0.00112957 -6.55786e-06
3.45211e-08 -6.55786e-06 0.000841904
-0.00115305 4.77867e-05 -7.78006e-06
4.77867e-05 -0.000850152 1.8179e-05
-7.78006e-06 1.8179e-05 -0.000925262
0.000468878 -9.70009e-06 -2.31367e-07
-9.70009e-06 9.70724e-05 -4.17526e-07
-2.31367e-07 -4.17526e-07 -5.82904e-05
0.000354324 9.26097e-05 5.1684e-07
9.26097e-05 3.44482e-05 -5.14475e-07
5.1684e-07 -5.14475e-07 -0.000141551
-0.000184925 0.000102499 2.27988e-06
0.000102499 -0.000237762 3.11272e-06
2.27988e-06 3.11272e-06 -0.000285029
0.000105904 0.000101792 1.03639e-06
0.000101792 -2.29369e-05 -3.41727e-07
1.03639e-06 -3.41727e-07 -0.000267999
0.000491713 0.000103194 3.1349e-07
0.000103194 0.000160931 -1.27748e-06
3.1349e-07 -1.27748e-06 2.5357e-05
-0.000113094 8.83994e-05 1.16207e-05
8.83994e-05 -0.00012481 -1.37929e-05
1.16207e-05 -1.37929e-05 -0.000223618
0.000581513 0.000175163 -6.00981e-06
0.000175163 0.000256292 3.00327e-06
-6.00981e-06 3.00327e-06 5.39448e-05
0.0010073 0.000146262 -2.45156e-06
0.000146262 0.000526463 4.57344e-06
-2.45156e-06 4.57344e-06 0.000293541
0.000592509 0.000127459 -5.43383e-06
0.000127459 0.000194957 -1.11671e-06
-5.43383e-06 -1.11671e-06 5.52798e-06
0.000159378 -9.46525e-06 -1.80707e-06
-9.46525e-06 -0.000134542 7.48155e-07
-1.80707e-06 7.48155e-07 -0.000277132
0.00126473 -0.000137837 2.98954e-06
-0.000137837 0.000733514 -4.25434e-06
2.98954e-06 -4.25434e-06 0.000474075
0.000145461 -5.60805e-05 -1.38644e-06
-5.60805e-05 -0.000125598 3.96367e-06
-1.38644e-06 3.96367e-06 -0.000277226
0.000361659 6.75801e-06 -1.95474e-06
6.75801e-06 9.78016e-07 3.4569e-06
-1.95474e-06 3.4569e-06 -0.000101762
0.000402639 4.88123e-05 2.26394e-06
4.88123e-05 2.41982e-05 -9.12951e-08
2.26394e-06 -9.12951e-08 -7.65304e-05
0.000304066 2.017e-05 -2.65583e-06
2.017e-05 -6.94448e-05 5.38026e-06
-2.65583e-06 5.38026e-06 -0.000101579
0.00031025 -3.54158e-06 -6.61946e-07
-3.54158e-06 -3.64996e-05 -4.14057e-06
-6.61946e-07 -4.14057e-06 -0.000136845
0.000834795 1.77746e-05 -4.78815e-06
1.77746e-05 0.000272666 -1.52414e-06
-4.78815e-06 -1.52414e-06 0.000243435
0.00267654 6.9947e-06 3.20613e-05
6.9947e-06 0.0014599 6.40133e-06
3.20613e-05 6.40133e-06 0.00147175
0.00139715 5.96989e-05 -1.95851e-05
5.96989e-05 0.000639211 -8.45582e-06
-1.95851e-05 -8.45582e-06 0.000609788
0.000759724 -3.78114e-06 1.44192e-05
-3.78114e-06 0.000203767 4.00253e-06
1.44192e-05 4.00253e-06 0.00020475
0.000827762 -1.87943e-05 2.40681e-06
-1.87943e-05 0.00024104 -3.54236e-06
2.40681e-06 -3.54236e-06 0.000239796
0.00035297 1.10725e-05 -9.9827e-07
1.10725e-05 -2.53385e-05 -5.94169e-06
-9.9827e-07 -5.94169e-06 -9.54089e-05
0.000517695 -4.25427e-05 5.30905e-07
-4.25427e-05 7.8418e-05 -2.12053e-07
5.30905e-07 -2.12053e-07 -3.96478e-07
0.000346161 2.77868e-05 5.13374e-07
2.77868e-05 -6.42273e-05 -5.52566e-06
5.13374e-07 -5.52566e-06 -9.10114e-05
0.000841638 4.81222e-05 2.0945e-09
4.81222e-05 0.00026905 2.80187e-07
2.0945e-09 2.80187e-07 0.000233307
0.00269812 9.86565e-05 -2.14488e-06
9.86565e-05 0.00148801 -6.70168e-06
-2.14488e-06 -6.70168e-06 0.00148782
0.000406576 4.61764e-05 1.67933e-06
4.61764e-05 -4.32553e-06 8.20777e-06
1.67933e-06 8.20777e-06 -5.4811e-05
0.00298604 0.000137432 -5.04608e-06
0.000137432 0.00169121 -5.05221e-07
-5.04608e-06 -5.05221e-07 0.00168082
0.0038099 0.000148278 -1.39519e-05
0.000148278 0.00223455 7.86597e-06
-1.39519e-05 7.86597e-06 0.00221815
0.00247019 0.000371715 5.448e-07
0.000371715 -0.000162668 -4.62355e-07
5.448e-07 -4.62355e-07 -3.50466e-05
0.00237427 0.00013335 -8.00271e-07
0.00013335 -0.000160498 -7.79021e-07
-8.00271e-07 -7.79021e-07 -8.5722e-06
0.00228773 -8.96933e-06 -2.29229e-07
-8.96933e-06 -0.000103467 2.45125e-07
-2.29229e-07 2.45125e-07 -1.02175e-05
0.00236642 -5.63624e-06 -2.36697e-08
-5.63624e-06 -0.000185845 9.91163e-08
-2.36697e-08 9.91163e-08 -1.80984e-05
0.00267405 0.000185402 1.70402e-06
0.000185402 -0.000144041 -3.12205e-07
1.70402e-06 -3.12205e-07 5.06801e-05
0.0025672 0.000142866 3.21611e-06
0.000142866 -0.000318594 -1.6799e-06
3.21611e-06 -1.6799e-06 -0.000108035
0.00280197 3.69632e-05 3.32381e-06
3.69632e-05 -0.000200878 5.01971e-06
3.32381e-06 5.01971e-06 5.93353e-05
0.0060969 0.00189597 5.50658e-05
0.00189597 -0.00130051 2.43896e-05
5.50658e-05 2.43896e-05 0.000535834
0.00273595 0.000160458 -5.89765e-05
0.000160458 -0.000193413 1.86216e-05
-5.89765e-05 1.86216e-05 0.000206194
0.000434504 0.000123599 -3.22217e-06
0.000123599 7.19888e-05 -5.21463e-06
-3.22217e-06 -5.21463e-06 -5.18854e-05
0.00240095 -0.000168611 -1.31134e-06
-0.000168611 -0.000171285 1.03237e-06
-1.31134e-06 1.03237e-06 -8.15873e-06
0.00254497 -0.000453915 -1.3095e-06
-0.000453915 -0.000186836 1.0368e-06
-1.3095e-06 1.0368e-06 -2.63556e-05
0.00259543 -0.000696771 2.72062e-06
-0.000696771 -4.07859e-05 -1.85632e-06
2.72062e-06 -1.85632e-06 1.79099e-05
0.0019263 -0.00115088 -8.10249e-06
-0.00115088 0.000661387 7.19157e-06
-8.10249e-06 7.19157e-06 -5.33178e-05
0.00301411 -0.00141398 3.12947e-05
-0.00141398 0.00101056 3.76506e-06
3.12947e-05 3.76506e-06 0.000255109
0.00227508 -0.00111261 -8.09209e-06
-0.00111261 0.000296587 2.74738e-06
-8.09209e-06 2.74738e-06 -0.000161901
0.00265605 -0.00100358 5.46187e-06
-0.00100358 0.000110906 3.82943e-07
5.46187e-06 3.82943e-07 -3.13382e-05
0.001898 -0.000912268 2.99321e-05
-0.000912268 0.000706453 -5.43336e-05
2.99321e-05 -5.43336e-05 0.000128634
0.00221809 -0.000877085 3.51801e-05
-0.000877085 0.00113872 -5.12861e-05
3.51801e-05 -5.12861e-05 0.000330386
0.000136805 -0.000296995 2.85048e-05
-0.000296995 -3.53286e-05 8.70122e-06
2.85048e-05 8.70122e-06 -0.000656911
0.000531965 2.74085e-06 1.37703e-06
2.74085e-06 9.54303e-05 4.62975e-06
1.37703e-06 4.62975e-06 1.72758e-06
0.00102691 -0.000242185 8.16009e-07
-0.000242185 0.000487586 1.61562e-05
8.16009e-07 1.61562e-05 0.000108596
0.0012385 -0.000105135 5.00982e-06
-0.000105135 0.000688068 -2.80336e-06
5.00982e-06 -2.80336e-06 0.000441279
0.000858765 -0.000184894 3.11009e-06
-0.000184894 0.000445233 -1.5038e-05
3.11009e-06 -1.5038e-05 8.72735e-05
4.85448e-05 -5.17611e-05 -8.43025e-06
-5.17611e-05 -0.000182379 7.19639e-06
-8.43025e-06 7.19639e-06 -0.000304319
0.00257883 -0.000216852 -1.62331e-06
-0.000216852 -0.000306634 -1.71315e-06
-1.62331e-06 -1.71315e-06 -4.80599e-05
0.000351814 5.00998e-05 1.06081e-06
5.00998e-05 1.70204e-05 -2.3239e-06
1.06081e-06 -2.3239e-06 -0.000112979
0.000618357 -0.000113345 2.90453e-06
-0.000113345 0.00024633 2.39913e-06
2.90453e-06 2.39913e-06 7.47069e-05
0.00084554 -0.000116101 9.40886e-06
-0.000116101 0.000322871 9.3167e-07
9.40886e-06 9.3167e-07 0.000176731
0.00264212 -0.000629833 2.32294e-06
-0.000629833 -0.000281008 -7.08627e-07
2.32294e-06 -7.08627e-07 -3.8714e-05
0.00290472 -0.00101521 -7.72397e-07
-0.00101521 8.02362e-05 -7.72686e-07
-7.72397e-07 -7.72686e-07 4.99993e-05
0.000928563 -0.000968517 5.61616e-06
-0.000968517 0.000126312 -8.50375e-07
5.61616e-06 -8.50375e-07 -0.000493597
0.00287082 -0.00153031 1.37103e-05
-0.00153031 0.000763579 1.157e-06
1.37103e-05 1.157e-06 1.25377e-05
0.00271464 -0.00122668 6.91123e-09
-0.00122668 0.000290012 4.79687e-07
6.91123e-09 4.79687e-07 -4.58601e-05
0.00027274 -5.83419e-05 -9.76426e-07
-5.83419e-05 3.43613e-05 -2.15671e-06
-9.76426e-07 -2.15671e-06 -0.000235481
0.00186293 -0.000368238 4.89012e-06
-0.000368238 0.00112144 1.15427e-07
4.89012e-06 1.15427e-07 0.000726179
0.00255403 -0.00136417 -3.61286e-06
-0.00136417 0.000981913 6.34001e-06
-3.61286e-06 6.34001e-06 0.000287964
0.00199804 -0.000517749 -8.27585e-07
-0.000517749 0.00118674 1.13423e-05
-8.27585e-07 1.13423e-05 0.000394987
0.000970668 -0.000265172 1.13299e-05
-0.000265172 0.000402151 8.55482e-06
1.13299e-05 8.55482e-06 7.16261e-05
0.00291223 -0.000433779 -1.82648e-05
-0.000433779 -0.000206798 3.81563e-06
-1.82648e-05 3.81563e-06 0.000110934
0.00248477 -0.000734289 -2.32235e-05
-0.000734289 -0.000372255 1.04032e-05
-2.32235e-05 1.04032e-05 -3.63557e-05
0.00292938 -0.00123133 -1.15877e-05
-0.00123133 0.000254633 -2.67594e-06
-1.15877e-05 -2.67594e-06 4.66561e-06
0.00430069 -0.00163389 5.428e-06
-0.00163389 0.00143911 4.89427e-07
5.428e-06 4.89427e-07 0.000838892
0.000224514 -0.0010842 -1.37319e-05
-0.0010842 -0.000407827 1.89352e-05
-1.37319e-05 1.89352e-05 -0.00103216
0.000126881 -3.89973e-05 2.8629e-06
-3.89973e-05 -0.000141741 -3.7595e-06
2.8629e-06 -3.7595e-06 -0.000268423
-0.000302162 -2.40175e-05 -1.87119e-06
-2.40175e-05 -0.000460692 1.18658e-05
-1.87119e-06 1.18658e-05 -0.000630638
0.00024136 -0.000188031 -7.70527e-06
-0.000188031 1.18594e-05 -4.96979e-06
-7.70527e-06 -4.96979e-06 -0.000186548
0.00205718 -0.000412996 -4.72729e-05
-0.000412996 0.00119507 4.39423e-05
-4.72729e-05 4.39423e-05 0.000828018
0.00165747 -0.000289984 -1.01345e-06
-0.000289984 0.000947323 1.93048e-05
-1.01345e-06 1.93048e-05 0.000625986
-0.00151402 -2.2664e-05 -8.6635e-06
-2.2664e-05 -0.000686184 -6.5704e-07
-8.6635e-06 -6.5704e-07 -0.00136335
0.00207048 -0.00143276 -3.61861e-06
-0.00143276 0.00101913 -1.77296e-05
-3.61861e-06 -1.77296e-05 0.000163495
0.00263496 0.000604484 6.131e-06
0.000604484 0.00164909 -6.66021e-07
6.131e-06 -6.66021e-07 0.00128814
-0.00107543 0.000214988 -3.56076e-06
0.000214988 -0.000560731 3.30366e-07
-3.56076e-06 3.30366e-07 -0.000971942
0.0025719 0.000418788 1.52908e-05
0.000418788 -0.000347084 3.13115e-06
1.52908e-05 3.13115e-06 -0.000103387
0.00308022 0.000819487 1.86363e-05
0.000819487 0.00024098 1.13219e-05
1.86363e-05 1.13219e-05 0.00029121
0.00283975 0.00115805 4.11094e-06
0.00115805 0.000480242 4.78699e-06
4.11094e-06 4.78699e-06 6.71519e-06
0.00148595 0.000792745 -5.43263e-06
0.000792745 0.000406455 2.58784e-06
-5.43263e-06 2.58784e-06 -0.000115746
0.00255711 0.00127739 3.07047e-06
0.00127739 0.000741463 6.01232e-06
3.07047e-06 6.01232e-06 3.51187e-05
0.00248006 0.000516834 -5.09575e-07
0.000516834 0.00162731 9.86667e-07
-5.09575e-07 9.86667e-07 0.00126088
0.00317179 0.000680206 1.49803e-05
0.000680206 -7.34136e-05 6.54508e-06
1.49803e-05 6.54508e-06 0.000399185
0.00138136 0.000616929 -6.82043e-06
0.000616929 0.000730644 4.17262e-06
-6.82043e-06 4.17262e-06 0.000256165
0.00198907 0.00101364 2.94883e-06
0.00101364 0.000668531 -1.76533e-06
2.94883e-06 -1.76533e-06 8.48098e-06
0.00302893 0.00112872 -2.41087e-06
0.00112872 0.00046582 -3.86904e-06
-2.41087e-06 -3.86904e-06 0.000235092
0.00240134 0.00127838 -5.96399e-06
0.00127838 0.000623869 8.32326e-06
-5.96399e-06 8.32326e-06 -6.21284e-05
0.00313026 0.00217181 6.06994e-05
0.00217181 -0.00220428 1.08252e-05
6.06994e-05 1.08252e-05 -0.000886012
0.000530324 0.000382843 4.77335e-06
0.000382843 0.000524217 -7.21445e-07
4.77335e-06 -7.21445e-07 6.44846e-05
0.00464601 0.00142346 -0.000131774
0.00142346 0.000822159 -5.85868e-05
-0.000131774 -5.85868e-05 0.000896473
-1.83233e-06 0.000576641 -1.97466e-05
0.000576641 -0.000371449 6.74311e-06
-1.97466e-05 6.74311e-06 -0.000849693
0.000656906 0.000933158 -4.54882e-06
0.000933158 -0.000144208 -2.19187e-05
-4.54882e-06 -2.19187e-05 -0.000768027
0.00266223 0.00144845 -5.22583e-05
0.00144845 0.000480333 -2.69256e-05
-5.22583e-05 -2.69256e-05 -8.21471e-06
0.0158013 0.00106641 -0.0008864
0.00106641 0.000175204 -9.14514e-05
-0.0008864 -9.14514e-05 0.00127765
0.00263767 0.003282 -0.000154897
0.003282 -0.00492185 -0.000146577
-0.000154897 -0.000146577 -0.00088681
0.000570292 0.00250742 3.0761e-05
0.00250742 -0.00154759 -1.00329e-05
3.0761e-05 -1.00329e-05 -0.00149785
0.00506638 -0.0059208 0.00341915
-0.0059208 0.00369476 4.26699e-05
0.00341915 4.26699e-05 -0.00349539
0.0339427 -0.0167614 -0.000142772
-0.0167614 0.0213379 9.29199e-06
-0.000142772 9.29199e-06 0.0089498
0.00160579 0.000261058 7.32909e-06
0.000261058 0.00098464 8.37503e-06
7.32909e-06 8.37503e-06 0.000821196
0.000547625 0.000131503 4.33066e-07
0.000131503 0.000360944 2.61573e-06
4.33066e-07 2.61573e-06 0.000201663
-0.000107289 0.000162527 1.42561e-05
0.000162527 -7.24289e-06 -2.6237e-06
1.42561e-05 -2.6237e-06 -0.000203507
0.000545986 -6.31329e-05 1.00707e-06
-6.31329e-05 0.000159064 -1.62415e-06
1.00707e-06 -1.62415e-06 -4.81222e-06
0.000547723 7.08497e-05 4.33861e-06
7.08497e-05 0.000181669 -4.93169e-06
4.33861e-06 -4.93169e-06 -1.86924e-07
0.000576186 -1.85035e-05 1.98835e-06
-1.85035e-05 0.000267156 -6.16173e-06
1.98835e-06 -6.16173e-06 2.79522e-05
0.000923193 0.000124481 6.00584e-06
0.000124481 0.000418119 8.62877e-06
6.00584e-06 8.62877e-06 0.000276256
4.26268e-06 9.92478e-05 1.72701e-06
9.92478e-05 -9.16537e-05 1.20558e-05
1.72701e-06 1.20558e-05 -0.000128831
0.000744242 0.000167003 -2.86172e-06
0.000167003 0.000404318 1.25393e-06
-2.86172e-06 1.25393e-06 0.000148301
0.000384086 -1.39543e-05 4.42337e-07
-1.39543e-05 2.27279e-05 8.00667e-07
4.42337e-07 8.00667e-07 -0.000129252
0.000761225 6.69136e-05 -1.14832e-06
6.69136e-05 0.000319348 2.21295e-07
-1.14832e-06 2.21295e-07 0.000123782
0.000252961 0.000109486 -2.25186e-06
0.000109486 7.79457e-05 -5.61579e-06
-2.25186e-06 -5.61579e-06 -1.45045e-05
0.0004249 0.000122192 1.34718e-06
0.000122192 0.000154256 1.77223e-06
1.34718e-06 1.77223e-06 -3.53829e-05
0.00164913 0.000223684 -1.283e-06
0.000223684 0.000996188 8.42416e-06
-1.283e-06 8.42416e-06 0.000737098
-4.80461e-05 6.85636e-05 2.63211e-06
6.85636e-05 -2.11335e-05 -3.27259e-06
2.63211e-06 -3.27259e-06 -0.000229909
0.000898828 0.000110097 1.44966e-06
0.000110097 0.000474271 4.95407e-07
1.44966e-06 4.95407e-07 0.000245009
0.000161108 2.80404e-05 -1.94917e-06
2.80404e-05 -0.000113704 -2.82562e-06
-1.94917e-06 -2.82562e-06 -0.000291082
0.000236231 -6.67593e-05 -3.39807e-07
-6.67593e-05 -6.98589e-05 7.79019e-07
-3.39807e-07 7.79019e-07 -0.000223623
0.000208753 -3.76454e-05 5.4169e-07
-3.76454e-05 -5.38699e-05 -3.64698e-06
5.4169e-07 -3.64698e-06 -0.000227038
0.000850495 -8.2542e-05 4.96498e-06
-8.2542e-05 0.00038875 -3.50006e-06
4.96498e-06 -3.50006e-06 0.000207537
0.000928127 -8.98603e-05 -1.04664e-06
-8.98603e-05 0.0004994 -4.03271e-07
-1.04664e-06 -4.03271e-07 0.000280395
0.00080726 -0.000128193 2.18793e-06
-0.000128193 0.000384513 5.69095e-08
2.18793e-06 5.69095e-08 0.000168018
0.000378051 -0.000127752 -2.43486e-06
-0.000127752 4.82515e-05 1.5678e-06
-2.43486e-06 1.5678e-06 -0.000112738
7.73695e-05 -3.76824e-05 -3.02944e-07
-3.76824e-05 -0.000161494 1.46183e-06
-3.02944e-07 1.46183e-06 -0.000319548
0.000413658 -7.4861e-05 -1.24789e-06
-7.4861e-05 2.44635e-05 4.02438e-06
-1.24789e-06 4.02438e-06 -7.21854e-05
0.000432818 -4.76298e-05 2.30874e-06
-4.76298e-05 4.53375e-05 1.08052e-07
2.30874e-06 1.08052e-07 -5.62379e-05
0.000319519 5.67796e-06 5.02176e-06
5.67796e-06 -5.52567e-05 7.4026e-06
5.02176e-06 7.4026e-06 -8.86867e-05
0.000455442 7.10826e-05 -1.7251e-06
7.10826e-05 4.89237e-05 -3.96386e-06
-1.7251e-06 -3.96386e-06 -4.57403e-05
0.000332157 2.89316e-05 5.81982e-07
2.89316e-05 -5.11677e-05 1.53465e-07
5.81982e-07 1.53465e-07 -8.31323e-05
0.00261887 1.43617e-05 1.83814e-05
1.43617e-05 0.00142357 5.99864e-06
1.83814e-05 5.99864e-06 0.00143451
0.000354676 7.10318e-05 -5.73197e-06
7.10318e-05 -3.32133e-05 -8.70981e-06
-5.73197e-06 -8.70981e-06 -7.02675e-05
0.00167608 6.68609e-07 -1.11962e-05
6.68609e-07 0.00080513 5.46999e-08
-1.11962e-05 5.46999e-08 0.00081089
0.00078983 -8.3365e-06 1.61902e-06
-8.3365e-06 0.00021751 -2.46922e-06
1.61902e-06 -2.46922e-06 0.000218126
0.000374198 2.09844e-05 6.98836e-08
2.09844e-05 -2.72868e-05 -4.25688e-06
6.98836e-08 -4.25688e-06 -8.17102e-05
0.000450436 -4.25964e-05 1.58537e-06
-4.25964e-05 3.63637e-05 3.21473e-08
1.58537e-06 3.21473e-08 -3.41521e-05
0.000432887 2.63864e-06 2.96824e-06
2.63864e-06 -1.44462e-05 -4.99189e-06
2.96824e-06 -4.99189e-06 -3.31263e-05
0.000495098 -6.39765e-05 -2.24093e-06
-6.39765e-05 6.92279e-05 3.06106e-06
-2.24093e-06 3.06106e-06 -1.25097e-05
0.000810293 3.24385e-05 5.60302e-07
3.24385e-05 0.000239622 -8.28963e-07
5.60302e-07 -8.28963e-07 0.000214982
0.00236713 6.94968e-05 -7.67287e-07
6.94968e-05 0.00126211 -5.91182e-06
-7.67287e-07 -5.91182e-06 0.00126946
0.000397601 2.90476e-05 -1.66985e-06
2.90476e-05 -2.54011e-05 6.56245e-06
-1.66985e-06 6.56245e-06 -6.35922e-05
0.00290499 0.000113306 3.60673e-07
0.000113306 0.00163119 2.03638e-06
3.60673e-07 2.03638e-06 0.00162735
0.00331258 0.00015187 2.50785e-05
0.00015187 0.00191123 1.0852e-05
2.50785e-05 1.0852e-05 0.00189741
0.00263142 0.000199994 -2.21308e-06
0.000199994 -0.00015087 -2.90855e-06
-2.21308e-06 -2.90855e-06 4.09101e-05
0.00234122 1.35517e-07 -2.45048e-06
1.35517e-07 -0.000200879 1.37093e-07
-2.45048e-06 1.37093e-07 -3.1414e-05
0.0028665 0.000114156 1.0547e-05
0.000114156 -0.000109243 -1.83491e-06
1.0547e-05 -1.83491e-06 7.98081e-05
0.0028537 0.00144111 0.000149664
0.00144111 -0.00296412 5.06738e-05
0.000149664 5.06738e-05 -0.00106042
0.00274746 1.81087e-07 -4.27941e-06
1.81087e-07 -0.000225742 -1.21402e-06
-4.27941e-06 -1.21402e-06 3.31044e-05
0.00290376 0.000130209 -3.82747e-07
0.000130209 -4.31147e-05 -2.94963e-06
-3.82747e-07 -2.94963e-06 0.000296005
0.00297461 -7.62792e-05 -4.61095e-05
-7.62792e-05 8.5475e-05 -7.9726e-06
-4.61095e-05 -7.9726e-06 0.000337064
0.00330789 0.00115315 -0.000187642
0.00115315 -0.00314162 -7.83333e-06
-0.000187642 -7.83333e-06 -0.000689832
0.00348416 0.000422063 0.000145775
0.000422063 -0.00144516 7.6877e-05
0.000145775 7.6877e-05 -0.000331264
0.000485947 9.33931e-05 1.06871e-06
9.33931e-05 0.00010415 -4.61389e-06
1.06871e-06 -4.61389e-06 -1.81425e-05
0.00056988 -2.18636e-05 -7.65727e-07
-2.18636e-05 0.000168498 -4.03521e-07
-7.65727e-07 -4.03521e-07 3.50906e-05
0.000354605 -0.000119112 -4.1157e-06
-0.000119112 2.45701e-05 -4.34771e-07
-4.1157e-06 -4.34771e-07 -0.000110567
0.000416143 -8.38746e-05 -1.79636e-06
-8.38746e-05 9.14866e-05 -1.24075e-06
-1.79636e-06 -1.24075e-06 -5.89169e-05
0.00270014 -0.000239527 -2.1312e-06
-0.000239527 -0.000233254 4.17601e-06
-2.1312e-06 4.17601e-06 3.11931e-05
0.00268748 -0.00063971 1.6063e-06
-0.00063971 -0.000231793 -4.40449e-07
1.6063e-06 -4.40449e-07 -2.57523e-05
0.00275449 -0.000987793 6.5076e-07
-0.000987793 8.98009e-06 -2.12425e-06
6.5076e-07 -2.12425e-06 -1.03735e-05
0.00403577 -0.00137534 2.88028e-05
-0.00137534 0.001887 -2.36965e-07
2.88028e-05 -2.36965e-07 0.00117418
0.00230658 -0.00150332 -1.77706e-05
-0.00150332 0.000410774 7.71142e-06
-1.77706e-05 7.71142e-06 -0.000326153
0.00278149 -0.00124958 3.34799e-06
-0.00124958 0.000335291 8.03347e-07
3.34799e-06 8.03347e-07 -1.46495e-05
-0.0003442 -0.000957057 2.82802e-06
-0.000957057 -0.000579416 -1.47961e-05
2.82802e-06 -1.47961e-05 -0.00134393
0.00269904 -0.000582378 2.7362e-05
-0.000582378 0.00140389 -8.99807e-06
2.7362e-05 -8.99807e-06 0.000763309
-6.26479e-05 -0.000292882 1.41651e-05
-0.000292882 -0.000246343 1.7674e-05
1.41651e-05 1.7674e-05 -0.000609972
0.00104737 -0.000115226 2.3786e-06
-0.000115226 0.000520453 2.2223e-06
2.3786e-06 2.2223e-06 0.000344349
0.000284579 -0.000148289 -1.30515e-05
-0.000148289 0.000169649 -1.22252e-05
-1.30515e-05 -1.22252e-05 -0.000250326
0.000595244 -4.27686e-05 -1.16055e-06
-4.27686e-05 0.000230732 -1.03885e-05
-1.16055e-06 -1.03885e-05 -3.29349e-05
0.000519209 -2.13337e-05 -1.01356e-06
-2.13337e-05 0.000146504 6.58608e-06
-1.01356e-06 6.58608e-06 3.3913e-06
0.000849358 -9.58756e-05 -1.06236e-05
-9.58756e-05 0.00033119 1.32361e-05
-1.06236e-05 1.32361e-05 0.000190995
0.00282519 -0.000417293 3.54849e-06
-0.000417293 -0.000265988 1.31189e-06
3.54849e-06 1.31189e-06 7.9844e-05
0.000251646 -5.67632e-05 -1.10099e-07
-5.67632e-05 -3.65094e-05 3.9732e-06
-1.10099e-07 3.9732e-06 -0.000177857
0.000609571 -0.000114827 4.80675e-06
-0.000114827 0.000161731 -5.07318e-06
4.80675e-06 -5.07318e-06 -3.55151e-05
-0.000488708 -8.17464e-05 1.40044e-05
-8.17464e-05 -0.000396775 -3.8159e-06
1.40044e-05 -3.8159e-06 -0.000544166
0.00254434 -0.00077303 9.8638e-07
-0.00077303 -0.000337279 -9.05415e-07
9.8638e-07 -9.05415e-07 -5.18919e-05
0.00285609 -0.00122225 1.96642e-06
-0.00122225 0.000208405 -1.64749e-06
1.96642e-06 -1.64749e-06 -3.81056e-05
0.00230628 -0.00146638 -1.59574e-05
-0.00146638 0.000721253 1.65469e-06
-1.59574e-05 1.65469e-06 1.15467e-05
0.00341797 -0.00156698 -5.66065e-06
-0.00156698 0.000920614 -9.87396e-07
-5.66065e-06 -9.87396e-07 0.000337856
0.0020653 -0.000282914 1.87478e-05
-0.000282914 0.00122759 -7.73425e-06
1.87478e-05 -7.73425e-06 0.00084985
-0.00104182 -0.000112864 8.80422e-06
-0.000112864 -0.000721647 2.65669e-06
8.80422e-06 2.65669e-06 -0.00110546
0.000911486 -0.00136448 5.2205e-07
-0.00136448 0.000500205 -3.35962e-07
5.2205e-07 -3.35962e-07 -0.000438527
0.00179631 -0.00054509 -1.23891e-05
-0.00054509 0.00101836 -1.82002e-06
-1.23891e-05 -1.82002e-06 0.000437258
0.00403653 -0.000637526 -7.31207e-05
-0.000637526 0.000503503 2.3143e-05
-7.31207e-05 2.3143e-05 0.000860657
0.00282258 -0.00104213 -4.52441e-05
-0.00104213 1.34466e-05 1.93779e-05
-4.52441e-05 1.93779e-05 0.000120954
0.00309397 -0.00138253 -3.05847e-06
-0.00138253 0.000716408 -1.66209e-05
-3.05847e-06 -1.66209e-05 0.000194795
0.00306147 -0.0016483 4.67763e-06
-0.0016483 0.000919001 3.19816e-05
4.67763e-06 3.19816e-05 0.000363719
0.000209054 -0.000234182 -2.03973e-06
-0.000234182 0.000155351 -2.11307e-05
-2.03973e-06 -2.11307e-05 -8.55584e-05
0.00107199 -0.000368532 -1.71373e-05
-0.000368532 0.000540212 9.29942e-06
-1.71373e-05 9.29942e-06 0.000175619
0.000784276 -0.000339772 -2.15009e-05
-0.000339772 0.000625837 7.36949e-05
-2.15009e-05 7.36949e-05 0.000204415
-0.000725596 -0.000934089 1.71462e-05
-0.000934089 0.000224969 -4.44239e-05
1.71462e-05 -4.44239e-05 -0.000860159
0.00646902 -0.000579321 4.52738e-05
-0.000579321 -0.0067617 2.41653e-05
4.52738e-05 2.41653e-05 -0.00725716
0.00333835 0.000478471 1.36697e-05
0.000478471 0.00215729 -4.90782e-06
1.36697e-05 -4.90782e-06 0.00180072
0.000134974 0.000436586 -3.62482e-06
0.000436586 -4.13938e-05 -1.5326e-06
-3.62482e-06 -1.5326e-06 -0.000466297
0.00177765 0.000525797 7.49917e-05
0.000525797 -0.000905354 2.86636e-05
7.49917e-05 2.86636e-05 -0.000334363
0.00234191 0.00103236 2.71797e-05
0.00103236 0.0001257 1.41703e-05
2.71797e-05 1.41703e-05 -4.92182e-05
0.00305186 0.00137528 1.21961e-05
0.00137528 0.000984483 1.61999e-05
1.21961e-05 1.61999e-05 0.000270263
0.00247566 0.00110175 1.5943e-05
0.00110175 0.000974256 1.35358e-05
1.5943e-05 1.35358e-05 0.000275163
0.00454405 0.00258015 0.000114138
0.00258015 -0.00183097 5.58122e-05
0.000114138 5.58122e-05 -0.000728554
0.000933427 0.000375849 2.62927e-06
0.000375849 0.000723781 -5.98983e-06
2.62927e-06 -5.98983e-06 0.000318754
0.00310922 0.00122496 -5.66389e-06
0.00122496 -5.35144e-05 4.36872e-06
-5.66389e-06 4.36872e-06 0.0001592
0.00104294 0.000729704 -9.46565e-06
0.000729704 0.000290454 8.22057e-06
-9.46565e-06 8.22057e-06 -0.000239479
0.00202283 0.00115831 1.50178e-06
0.00115831 0.000630686 -1.01872e-05
1.50178e-06 -1.01872e-05 -4.92824e-05
0.00332297 0.00147159 -1.41431e-05
0.00147159 0.000879286 -9.77726e-07
-1.41431e-05 -9.77726e-07 0.000363457
0.00489215 7.71643e-05 -0.000247083
7.71643e-05 -0.0079781 -0.000176454
-0.000247083 -0.000176454 -0.00757334
0.00675141 0.00362437 -0.000210766
0.00362437 -0.00224459 -0.000100288
-0.000210766 -0.000100288 0.000881488
0.00129795 0.00246108 -1.84635e-05
0.00246108 -0.00109973 -4.60208e-06
-1.84635e-05 -4.60208e-06 -0.00113694
0.0104145 -0.00446569 0.000964458
-0.00446569 0.00662219 0.000253534
0.000964458 0.000253534 0.00131714
0.0308996 -0.0191694 -0.000536007
-0.0191694 0.0203371 -0.000562145
-0.000536007 -0.000562145 0.00728608
-0.00037097 0.000299806 3.30503e-07
0.000299806 -0.000300445 -3.36884e-06
3.30503e-07 -3.36884e-06 -0.000630107
0.00208794 -0.000990948 0.00194003
-0.000990948 0.00446285 2.62435e-05
0.00194003 2.62435e-05 0.00161069
0.0107709 -0.00922407 0.000116851
-0.00922407 0.0129346 -0.000219859
0.000116851 -0.000219859 0.000806662
0.00353884 0.00206392 -8.36958e-05
0.00206392 0.000479188 -3.12146e-05
-8.36958e-05 -3.12146e-05 5.43906e-05
0.00114885 0.000770337 -3.56201e-05
0.000770337 0.00026407 -6.91982e-06
-3.56201e-05 -6.91982e-06 -0.00024001
0.00193766 0.00122964 -5.63108e-05
0.00122964 0.000575158 -4.64385e-05
-5.63108e-05 -4.64385e-05 -5.2837e-05
-0.000163939 0.00231503 0.000164665
0.00231503 -0.00122809 0.000134599
0.000164665 0.000134599 -0.00142363
0.0159567 0.00538457 0.000252717
0.00538457 -0.00130907 -3.37643e-06
0.000252717 -3.37643e-06 0.00109178
0.00697109 0.00550652 -0.000142209
0.00550652 -0.000982089 -0.000150204
-0.000142209 -0.000150204 0.00109629
0.0256359 -0.00979325 0.00134331
-0.00979325 0.0118479 0.000220496
0.00134331 0.000220496 0.00239373
0.0205548 -0.00304758 -0.000592791
-0.00304758 0.0103016 0.000796359
-0.000592791 0.000796359 0.0049624
0.000626583 0.000129706 2.47279e-06
0.000129706 0.000455184 4.68728e-06
2.47279e-06 4.68728e-06 0.000277899
0.000241129 0.00019738 1.73258e-06
0.00019738 0.000230644 5.3394e-07
1.73258e-06 5.3394e-07 2.59069e-05
0.00062839 0.000297642 8.26741e-06
0.000297642 0.000534248 -7.95836e-06
8.26741e-06 -7.95836e-06 0.000193765
0.000596199 3.83889e-06 2.25358e-06
3.83889e-06 0.000190817 1.1645e-06
2.25358e-06 1.1645e-06 1.76686e-05
0.000452017 0.000111723 3.08734e-06
0.000111723 9.64952e-05 -4.19365e-07
3.08734e-06 -4.19365e-07 -8.21636e-05
-0.00018404 3.18841e-05 2.83938e-06
3.18841e-05 -0.000228912 -3.02762e-06
2.83938e-06 -3.02762e-06 -0.000446649
0.000862495 0.000141152 -3.81033e-06
0.000141152 0.00044527 -2.29499e-06
-3.81033e-06 -2.29499e-06 0.000252125
0.000331738 0.000111165 -7.59185e-06
0.000111165 9.8975e-05 5.34907e-06
-7.59185e-06 5.34907e-06 1.77306e-05
0.000293414 2.01543e-06 -2.24061e-07
2.01543e-06 -2.56551e-05 7.30326e-07
-2.24061e-07 7.30326e-07 -0.000186543
0.000947089 0.000126298 1.86575e-06
0.000126298 0.000534635 3.01374e-06
1.86575e-06 3.01374e-06 0.000296503
0.00033052 6.23718e-05 -6.99281e-07
6.23718e-05 0.0001004 -1.93872e-06
-6.99281e-07 -1.93872e-06 -0.000125823
0.000774733 7.63066e-05 1.42727e-06
7.63066e-05 0.000338399 1.83736e-07
1.42727e-06 1.83736e-07 0.000124651
0.00026228 8.88614e-05 -1.27188e-06
8.88614e-05 0.000173023 -3.87465e-06
-1.27188e-06 -3.87465e-06 -3.96002e-05
0.00050951 6.26895e-05 3.62198e-06
6.26895e-05 0.000258177 5.38458e-06
3.62198e-06 5.38458e-06 5.59531e-05
-0.000725515 -1.71386e-06 4.12153e-06
-1.71386e-06 -0.00021406 -6.73915e-06
4.12153e-06 -6.73915e-06 -0.000605123
-3.08386e-05 -6.78548e-05 -1.16223e-06
-6.78548e-05 -0.00014827 1.57973e-06
-1.16223e-06 1.57973e-06 -0.000362968
0.000652273 -6.28615e-05 -5.56563e-06
-6.28615e-05 0.000252686 -2.46961e-06
-5.56563e-06 -2.46961e-06 4.37021e-05
0.000731031 -6.11633e-05 -4.04876e-07
-6.11633e-05 0.000315032 -3.19668e-06
-4.04876e-07 -3.19668e-06 0.000116706
0.000331257 -7.88893e-05 -5.26581e-06
-7.88893e-05 5.40202e-05 1.90484e-06
-5.26581e-06 1.90484e-06 -0.000106543
0.000483739 -2.14342e-05 -9.33649e-06
-2.14342e-05 0.000196952 -2.88647e-06
-9.33649e-06 -2.88647e-06 1.40416e-05
0.000812994 -0.000187456 1.00132e-05
-0.000187456 0.000298153 -5.20945e-06
1.00132e-05 -5.20945e-06 0.000146739
0.00043895 -5.77837e-05 -4.53311e-06
-5.77837e-05 0.000241332 5.47693e-07
-4.53311e-06 5.47693e-07 4.24102e-05
-0.000810225 -4.45195e-06 -1.03669e-06
-4.45195e-06 -0.000477951 -6.54893e-06
-1.03669e-06 -6.54893e-06 -0.000794564
-0.000459599 -3.36495e-05 -1.11878e-06
-3.36495e-05 -0.000410591 7.92323e-07
-1.11878e-06 7.92323e-07 -0.000596896
0.000914941 -0.000199819 -3.79904e-07
-0.000199819 0.000485593 1.31803e-06
-3.79904e-07 1.31803e-06 0.000267516
0.000137354 -6.47422e-05 -1.9589e-07
-6.47422e-05 -9.9146e-05 7.48338e-07
-1.9589e-07 7.48338e-07 -0.0002623
0.000647298 -0.000155422 1.81725e-06
-0.000155422 0.000243409 -2.16193e-06
1.81725e-06 -2.16193e-06 5.67256e-05
0.000675833 -0.000152812 5.00794e-07
-0.000152812 0.000247992 2.93352e-07
5.00794e-07 2.93352e-07 7.89059e-05
0.000596067 -7.52436e-05 -1.02464e-06
-7.52436e-05 0.000141444 4.48031e-06
-1.02464e-06 4.48031e-06 4.18052e-05
0.000240693 -1.41435e-06 6.24726e-07
-1.41435e-06 -2.94124e-05 -1.38119e-06
6.24726e-07 -1.38119e-06 -0.000207202
0.000445237 2.27837e-06 2.93797e-06
2.27837e-06 5.62547e-05 1.05517e-07
2.93797e-06 1.05517e-07 -4.80118e-05
0.00139552 -4.15959e-05 -1.69029e-05
-4.15959e-05 0.000638636 7.86963e-06
-1.69029e-05 7.86963e-06 0.000611314
0.000457326 9.52569e-05 -3.02501e-06
9.52569e-05 6.23803e-05 -3.41161e-06
-3.02501e-06 -3.41161e-06 -3.95176e-05
0.000806822 -2.8919e-05 -6.38647e-06
-2.8919e-05 0.000263256 7.48893e-07
-6.38647e-06 7.48893e-07 0.000231267
0.000805203 -2.41835e-06 -1.24286e-05
-2.41835e-06 0.000239383 5.06006e-06
-1.24286e-05 5.06006e-06 0.000242138
0.000290503 -4.81142e-05 6.17706e-06
-4.81142e-05 -7.73998e-05 -5.94192e-06
6.17706e-06 -5.94192e-06 -0.000109295
0.00263827 3.62138e-06 1.61037e-05
3.62138e-06 0.00143647 5.37702e-08
1.61037e-05 5.37702e-08 0.00144719
0.000845601 8.26933e-06 -1.67031e-05
8.26933e-06 0.000265392 -5.85632e-06
-1.67031e-05 -5.85632e-06 0.000266554
0.000579788 8.45528e-05 2.93913e-06
8.45528e-05 0.000180394 -3.79158e-06
2.93913e-06 -3.79158e-06 4.38455e-05
0.000367881 6.86053e-05 -1.98787e-06
6.86053e-05 -1.14167e-05 -4.99021e-06
-1.98787e-06 -4.99021e-06 -7.58887e-05
0.000434081 8.59069e-07 1.93218e-06
8.59069e-07 2.95025e-05 1.64633e-07
1.93218e-06 1.64633e-07 -3.66482e-05
0.000404155 6.35074e-06 2.37453e-06
6.35074e-06 -3.29673e-05 -4.53428e-06
2.37453e-06 -4.53428e-06 -4.87898e-05
0.000535993 -8.49332e-05 -2.97297e-06
-8.49332e-05 0.000105814 5.24932e-06
-2.97297e-06 5.24932e-06 2.63047e-05
0.000424668 6.45994e-06 8.13919e-07
6.45994e-06 -2.04436e-05 -8.73523e-07
8.13919e-07 -8.73523e-07 -3.90485e-05
0.00217758 4.62449e-05 -5.55698e-07
4.62449e-05 0.00113236 -5.5527e-06
-5.55698e-07 -5.5527e-06 0.00114434
0.00133904 4.76044e-05 1.34412e-06
4.76044e-05 0.000589159 3.7337e-06
1.34412e-06 3.7337e-06 0.00056326
0.00157011 5.63489e-05 -1.74722e-06
5.63489e-05 0.000742385 1.96671e-06
-1.74722e-06 1.96671e-06 0.000744052
0.000734689 6.02677e-05 1.2782e-05
6.02677e-05 0.000206876 1.37368e-05
1.2782e-05 1.37368e-05 0.000195697
0.000577853 0.00108838 0.000138602
0.00108838 -0.00413618 2.79239e-05
0.000138602 2.79239e-05 -0.00212237
0.00263815 -3.23892e-05 1.75122e-06
-3.23892e-05 -0.000291826 -2.81766e-06
1.75122e-06 -2.81766e-06 -3.24207e-05
0.00273973 0.00010273 5.7249e-05
0.00010273 -8.36351e-05 -1.46548e-05
5.7249e-05 -1.46548e-05 0.000168712
0.00516212 0.00116507 -0.000116115
0.00116507 -0.00301327 -4.78696e-05
-0.000116115 -4.78696e-05 0.000453058
0.00355058 0.000177632 0.00011213
0.000177632 -0.0014936 -9.33288e-06
0.00011213 -9.33288e-06 -0.000227355
0.00293927 -9.84339e-05 -4.19147e-06
-9.84339e-05 4.7873e-05 1.17463e-06
-4.19147e-06 1.17463e-06 0.0002832
0.00537653 -0.000829712 -8.33982e-05
-0.000829712 9.77569e-05 -4.84142e-05
-8.33982e-05 -4.84142e-05 0.00112114
0.00496876 -0.000914838 -5.34829e-05
-0.000914838 -0.00246471 -2.50614e-05
-5.34829e-05 -2.50614e-05 0.00036179
0.0201251 -0.00135842 9.83822e-05
-0.00135842 0.00099409 -0.000118768
9.83822e-05 -0.000118768 0.00159509
0.0232028 0.0107589 0.00253206
0.0107589 0.0104686 -0.000220297
0.00253206 -0.000220297 0.00233011
0.0392179 0.0140396 0.000203245
0.0140396 0.0252343 0.000174823
0.000203245 0.000174823 0.0139191
2.65717e-05 -0.000113707 3.36994e-06
-0.000113707 -0.000160245 -2.8083e-06
3.36994e-06 -2.8083e-06 -0.00029609
0.000511304 -1.70146e-05 2.50432e-06
-1.70146e-05 0.000126725 4.58202e-08
2.50432e-06 4.58202e-08 1.74317e-06
0.000622135 -0.000112759 -3.32587e-06
-0.000112759 0.000213706 6.95552e-06
-3.32587e-06 6.95552e-06 7.11581e-05
0.000545209 -7.64999e-05 2.76282e-06
-7.64999e-05 0.000139051 -5.81513e-07
2.76282e-06 -5.81513e-07 1.16812e-05
0.000943377 0.000156708 -6.24594e-06
0.000156708 0.000501874 -8.45043e-06
-6.24594e-06 -8.45043e-06 0.000339177
0.000674407 0.000164817 -1.17121e-06
0.000164817 0.000260398 1.18711e-06
-1.17121e-06 1.18711e-06 0.000100198
0.000740095 2.87984e-05 3.90108e-06
2.87984e-05 0.000302961 -3.78346e-06
3.90108e-06 -3.78346e-06 0.000128547
0.000459425 -1.67331e-05 -1.26382e-06
-1.67331e-05 0.000101944 7.71124e-07
-1.26382e-06 7.71124e-07 -4.09718e-05
0.00271212 -0.000411329 1.69299e-05
-0.000411329 -0.000340199 -6.44347e-06
1.69299e-05 -6.44347e-06 2.16603e-05
0.00245057 -0.000811773 2.17236e-05
-0.000811773 -0.000426334 -8.865e-06
2.17236e-05 -8.865e-06 -0.000176513
0.00283694 -0.00121726 4.51484e-06
-0.00121726 0.000187759 3.00477e-06
4.51484e-06 3.00477e-06 -4.9945e-05
0.00245743 -0.00150105 1.04335e-05
-0.00150105 0.000725393 -2.83566e-06
1.04335e-05 -2.83566e-06 5.74191e-05
0.0032102 -0.00154673 -2.46186e-05
-0.00154673 0.000815848 6.14575e-06
-2.46186e-05 6.14575e-06 0.000211032
1.63978e-05 -0.00134072 1.16651e-05
-0.00134072 7.29558e-05 2.39148e-05
1.16651e-05 2.39148e-05 -0.00095295
0.00523829 -0.00100847 1.3996e-05
-0.00100847 0.00288595 1.44315e-05
1.3996e-05 1.44315e-05 0.00233822
0.00178212 -0.000466465 2.8563e-05
-0.000466465 0.00110181 -4.27729e-05
2.8563e-05 -4.27729e-05 0.000621767
0.000518258 -4.48387e-05 -6.2609e-06
-4.48387e-05 9.19333e-05 6.89429e-06
-6.2609e-06 6.89429e-06 -8.93953e-05
0.00107272 -0.000125881 1.43365e-05
-0.000125881 0.000572497 -3.47427e-05
1.43365e-05 -3.47427e-05 0.000212129
0.000678965 -0.000113617 5.83661e-07
-0.000113617 0.000252909 8.97939e-06
5.83661e-07 8.97939e-06 9.87748e-05
0.00045692 2.64511e-05 -3.89115e-06
2.64511e-05 0.0002198 6.6928e-06
-3.89115e-06 6.6928e-06 0.000126646
0.00278051 -0.000559222 2.06474e-06
-0.000559222 -0.000272157 5.02652e-06
2.06474e-06 5.02652e-06 0.000191088
0.000289312 -0.000105793 -8.22735e-06
-0.000105793 0.000162309 3.46804e-06
-8.22735e-06 3.46804e-06 -5.1282e-05
0.00107604 -0.000280276 -2.81566e-06
-0.000280276 0.000553094 3.08063e-06
-2.81566e-06 3.08063e-06 0.000238862
0.00208835 -0.000980861 9.22722e-06
-0.000980861 -0.000412662 -5.38711e-06
9.22722e-06 -5.38711e-06 -0.000251568
0.00275499 -0.00131566 1.80091e-06
-0.00131566 0.000522506 5.34882e-06
1.80091e-06 5.34882e-06 5.75968e-05
0.00179012 -0.00145472 -5.81567e-09
-0.00145472 0.000171252 -1.71718e-05
-5.81567e-09 -1.71718e-05 -0.000327084
0.00101157 -0.00043424 1.45777e-06
-0.00043424 0.000680846 -2.66524e-05
1.45777e-06 -2.66524e-05 0.000153336
0.000847495 -0.00093929 1.48022e-05
-0.00093929 0.00103524 3.42628e-08
1.48022e-05 3.42628e-08 6.11324e-05
0.00647064 -0.00138735 -6.18681e-05
-0.00138735 0.00148358 4.15082e-05
-6.18681e-05 4.15082e-05 0.00191909
0.00293889 -0.00137977 -4.68291e-05
-0.00137977 0.000545776 2.00022e-05
-4.68291e-05 2.00022e-05 0.000175875
0.00331794 -0.00168966 -1.72419e-06
-0.00168966 0.000941301 1.72108e-05
-1.72419e-06 1.72108e-05 0.000379
0.000882809 -0.00101383 -2.67447e-05
-0.00101383 6.05129e-05 2.45781e-05
-2.67447e-05 2.45781e-05 -0.000173949
0.00106816 -0.000263348 3.87147e-06
-0.000263348 0.000737098 -2.64444e-06
3.87147e-06 -2.64444e-06 0.000394358
-0.000901635 -0.000135046 2.40136e-06
-0.000135046 -0.000420467 1.51714e-05
2.40136e-06 1.51714e-05 -0.000819498
-0.000489306 -0.000358092 -3.82678e-06
-0.000358092 0.000234398 -1.57582e-05
-3.82678e-06 -1.57582e-05 -0.000546866
-0.00787613 -0.000771301 0.00128712
-0.000771301 -0.00139597 -3.97949e-05
0.00128712 -3.97949e-05 -0.0055904
0.0135762 -0.000560964 4.11767e-05
-0.000560964 -0.00150938 5.36746e-05
4.11767e-05 5.36746e-05 0.000279387
0.00187372 0.000417558 3.38614e-06
0.000417558 0.00119621 -8.85764e-06
3.38614e-06 -8.85764e-06 0.000859563
0.00236675 0.000922809 -1.27866e-06
0.000922809 0.00112702 6.95323e-06
-1.27866e-06 6.95323e-06 0.000533312
0.00160557 0.00098734 0.000123054
0.00098734 -0.000875417 6.52244e-05
0.000123054 6.52244e-05 -0.000553404
0.00403236 0.00150904 3.6237e-05
0.00150904 0.00130028 2.0243e-05
3.6237e-05 2.0243e-05 0.000747944
0.00316595 0.00134876 2.50773e-05
0.00134876 0.00126466 6.73059e-06
2.50773e-05 6.73059e-06 0.000538348
0.0197895 0.000993037 9.97796e-05
0.000993037 0.000956486 -0.000211815
9.97796e-05 -0.000211815 0.00208121
0.00876386 0.00438825 -0.000331956
0.00438825 -0.0030923 -8.88617e-06
-0.000331956 -8.88617e-06 0.000726718
0.00251796 0.00254011 -1.59219e-05
0.00254011 -0.000327185 -3.92281e-05
-1.59219e-05 -3.92281e-05 -0.000518175
0.0180953 -0.00838764 -0.001285
-0.00838764 0.00922432 0.000253388
-0.001285 0.000253388 0.00177251
0.0256348 -0.0218494 -0.00308453
-0.0218494 0.0195225 -0.00177358
-0.00308453 -0.00177358 0.00595194
0.00069167 0.000459199 7.6243e-06
0.000459199 0.000409144 -5.86676e-06
7.6243e-06 -5.86676e-06 2.64599e-05
0.00247198 -0.00589112 0.00115313
-0.00589112 4.04228e-05 6.32518e-05
0.00115313 6.32518e-05 -0.00612058
0.00392729 -0.00714551 -0.00112715
-0.00714551 0.0137075 -5.71946e-05
-0.00112715 -5.71946e-05 0.00293532
0.00405479 0.00197298 -2.22889e-05
0.00197298 0.00068851 5.42216e-06
-2.22889e-05 5.42216e-06 0.000338809
0.00110768 0.00081669 -1.37246e-05
0.00081669 0.000307072 8.99741e-06
-1.37246e-05 8.99741e-06 -0.000241418
0.002576 0.00140152 -1.34049e-06
0.00140152 0.000895387 -2.93996e-07
-1.34049e-06 -2.93996e-07 0.000211584
0.00219648 0.00242141 9.30658e-05
0.00242141 0.000334774 6.32815e-05
9.30658e-05 6.32815e-05 7.84156e-05
0.014404 0.00585025 -0.000260584
0.00585025 -0.00313038 -0.000135617
-0.000260584 -0.000135617 -0.00181318
0.00301368 0.00508531 -3.95081e-05
0.00508531 -0.00170615 -7.09e-05
-3.95081e-05 -7.09e-05 0.000355662
0.0290742 -0.00866515 0.000977658
-0.00866515 0.0137577 -0.000186373
0.000977658 -0.000186373 0.00434933
0.0287657 -0.00662276 -0.000262766
-0.00662276 0.0108042 0.00100047
-0.000262766 0.00100047 0.00278583
0.000890119 0.000529809 -9.75889e-06
0.000529809 0.000447782 -1.61671e-05
-9.75889e-06 -1.61671e-05 8.9495e-05
-0.00416622 0.000432707 0.000143102
0.000432707 0.00721414 -0.00019007
0.000143102 -0.00019007 -0.00265411
0.00897615 0.00299899 -0.000896963
0.00299899 0.00692803 -0.000641021
-0.000896963 -0.000641021 0.0012248
0.00289796 0.00155052 -5.69749e-05
0.00155052 0.000574195 -3.33698e-05
-5.69749e-05 -3.33698e-05 0.000357555
0.00241706 0.00137747 -9.05385e-05
0.00137747 0.00104746 -3.96186e-05
-9.05385e-05 -3.96186e-05 0.000382671
0.00207642 0.0018915 -0.000121367
0.0018915 0.00133313 -4.95144e-05
-0.000121367 -4.95144e-05 0.000396112
-0.00240905 0.00385624 8.36174e-05
0.00385624 -0.000721781 -3.5656e-05
8.36174e-05 -3.5656e-05 -0.000810359
0.00589207 0.00863653 0.00109488
0.00863653 -0.0032172 0.00013058
0.00109488 0.00013058 -0.00305956
0.0303541 -0.0108337 -0.000745748
-0.0108337 0.0177958 0.00113599
-0.000745748 0.00113599 0.00697824
0.00985311 0.00100844 -0.000170073
0.00100844 -0.0015004 -0.000266638
-0.000170073 -0.000266638 -0.00252479
0.00105483 0.000292934 -9.05502e-06
0.000292934 0.000754757 3.80506e-06
-9.05502e-06 3.80506e-06 0.00052213
0.0008517 0.000334934 4.29178e-06
0.000334934 0.000634278 3.53191e-07
4.29178e-06 3.53191e-07 0.000315779
-0.000530525 0.000232109 3.80406e-06
0.000232109 -0.000144744 -1.11299e-06
3.80406e-06 -1.11299e-06 -0.000468564
0.000416344 8.25849e-05 3.34544e-06
8.25849e-05 5.94877e-05 1.58831e-06
3.34544e-06 1.58831e-06 -0.000107156
0.00123594 0.000131991 7.05422e-07
0.000131991 0.000662031 1.77416e-06
7.05422e-07 1.77416e-06 0.000433776
0.000328136 2.16476e-05 -6.62302e-08
2.16476e-05 0.000101885 6.13716e-07
-6.62302e-08 6.13716e-07 -0.000132735
-5.30408e-05 6.67856e-05 6.43786e-06
6.67856e-05 -6.85665e-05 -4.40276e-06
6.43786e-06 -4.40276e-06 -0.0003146
0.000212015 8.09821e-05 -6.0494e-06
8.09821e-05 0.000137268 3.29641e-06
-6.0494e-06 3.29641e-06 -6.78091e-05
0.000844001 4.56618e-05 -4.21257e-07
4.56618e-05 0.000387567 -1.03383e-06
-4.21257e-07 -1.03383e-06 0.000170116
0.000445893 4.54255e-05 6.09586e-07
4.54255e-05 0.000220876 -2.21328e-06
6.09586e-07 -2.21328e-06 1.16398e-05
0.000833042 -2.82223e-05 -2.78355e-07
-2.82223e-05 0.000424105 2.4201e-06
-2.78355e-07 2.4201e-06 0.000190415
-0.000534413 6.17031e-05 -1.53612e-06
6.17031e-05 -7.86297e-05 -5.11366e-07
-1.53612e-06 -5.11366e-07 -0.000464186
-1.59687e-05 1.75834e-05 1.3087e-06
1.75834e-05 0.000406904 1.14612e-06
1.3087e-06 1.14612e-06 -0.000118588
0.000482385 -4.89337e-05 1.30887e-06
-4.89337e-05 0.00037438 -2.65234e-06
1.30887e-06 -2.65234e-06 7.03123e-05
0.00195033 -7.94312e-05 -6.37075e-06
-7.94312e-05 0.00121356 3.27096e-06
-6.37075e-06 3.27096e-06 0.000931764
0.00110483 -0.00014542 -5.81088e-07
-0.00014542 0.000563878 -2.54045e-06
-5.81088e-07 -2.54045e-06 0.000350677
0.000571744 -0.000107633 -3.35025e-06
-0.000107633 0.000205766 7.17296e-06
-3.35025e-06 7.17296e-06 5.50697e-05
0.000635776 -0.00016744 5.09619e-07
-0.00016744 0.000285764 5.69049e-07
5.09619e-07 5.69049e-07 9.98697e-05
0.000779601 -0.0001827 4.93634e-07
-0.0001827 0.000271166 -2.22442e-06
4.93634e-07 -2.22442e-06 0.00011143
0.000267097 -7.78383e-05 -5.56752e-06
-7.78383e-05 0.000141812 6.73914e-06
-5.56752e-06 6.73914e-06 -3.53592e-05
-0.000967397 -3.96773e-05 1.09019e-06
-3.96773e-05 -0.000657149 -1.06956e-05
1.09019e-06 -1.06956e-05 -0.000910268
-0.000387358 -0.000111822 -1.02912e-05
-0.000111822 -0.000168095 4.46743e-06
-1.02912e-05 4.46743e-06 -0.000444535
-4.51735e-05 -0.000108856 4.34087e-06
-0.000108856 -6.21275e-05 -7.74654e-06
4.34087e-06 -7.74654e-06 -0.000262008
0.00113265 -0.000168069 2.53749e-05
-0.000168069 0.000471149 -1.35635e-05
2.53749e-05 -1.35635e-05 0.000314131
0.00438569 -0.000751444 -3.03067e-06
-0.000751444 0.00240707 2.8548e-06
-3.03067e-06 2.8548e-06 0.00204164
-0.00129963 -0.000207438 -6.69365e-07
-0.000207438 -0.000885905 -1.81307e-07
-6.69365e-07 -1.81307e-07 -0.00115778
0.000319032 -3.10077e-05 2.5694e-06
-3.10077e-05 0.000207143 8.88231e-07
2.5694e-06 8.88231e-07 -9.1141e-05
-0.00174867 4.6609e-05 8.75889e-06
4.6609e-05 -0.00115577 -3.34773e-06
8.75889e-06 -3.34773e-06 -0.00145764
0.00071178 -0.000240716 -3.76961e-06
-0.000240716 0.000355819 -1.54738e-06
-3.76961e-06 -1.54738e-06 0.000136359
0.000850885 -6.04668e-05 4.84294e-06
-6.04668e-05 0.000370329 7.88861e-07
4.84294e-06 7.88861e-07 0.000183448
0.000750516 -0.000206884 3.93489e-06
-0.000206884 0.00034867 -2.49493e-06
3.93489e-06 -2.49493e-06 0.000150006
0.000567812 -8.77658e-05 -8.14743e-07
-8.77658e-05 0.000191589 3.09829e-07
-8.14743e-07 3.09829e-07 2.00524e-05
0.000208183 4.57959e-05 3.03661e-06
4.57959e-05 -9.95297e-05 3.50669e-06
3.03661e-06 3.50669e-06 -0.000204533
0.000805327 -0.000162209 3.23737e-07
-0.000162209 0.000325449 2.95517e-07
3.23737e-07 2.95517e-07 0.000156596
0.000424613 -5.62962e-05 -6.71254e-07
-5.62962e-05 2.37539e-05 1.9484e-07
-6.71254e-07 1.9484e-07 -7.04494e-05
0.00136852 3.61362e-05 -9.69593e-06
3.61362e-05 0.000614304 8.45503e-06
-9.69593e-06 8.45503e-06 0.000586672
0.000441401 -8.54954e-05 1.03403e-06
-8.54954e-05 4.66778e-05 -3.16732e-06
1.03403e-06 -3.16732e-06 -5.26204e-05
0.00083638 -2.86934e-05 -1.26264e-05
-2.86934e-05 0.000274778 1.01092e-06
-1.26264e-05 1.01092e-06 0.000243923
0.000708467 9.11173e-06 2.11243e-06
9.11173e-06 0.000166189 2.22944e-06
2.11243e-06 2.22944e-06 0.000167708
0.000394071 -4.735e-05 4.80231e-06
-4.735e-05 -1.29971e-05 -5.50843e-06
4.80231e-06 -5.50843e-06 -4.41947e-05
0.00257939 4.02509e-06 6.67276e-06
4.02509e-06 0.00139608 -1.56531e-08
6.67276e-06 -1.56531e-08 0.00140779
0.00260799 -6.02196e-06 1.3481e-05
-6.02196e-06 0.0014161 -5.3492e-06
1.3481e-05 -5.3492e-06 0.00142701
0.00102565 7.74599e-05 -7.79506e-07
7.74599e-05 0.000463729 -4.81795e-06
-7.79506e-07 -4.81795e-06 0.000321901
0.000475851 7.9897e-05 -1.12477e-06
7.9897e-05 6.55015e-05 -6.16206e-06
-1.12477e-06 -6.16206e-06 -7.29528e-06
0.000505324 -2.35424e-05 -8.80337e-07
-2.35424e-05 0.000126771 9.49331e-07
-8.80337e-07 9.49331e-07 -6.88115e-06
0.000378108 1.40012e-05 1.79301e-06
1.40012e-05 -4.98275e-05 -4.74708e-06
1.79301e-06 -4.74708e-06 -6.49242e-05
0.000406335 -1.22356e-05 2.20226e-06
-1.22356e-05 1.02351e-05 -2.68802e-07
2.20226e-06 -2.68802e-07 -5.30809e-05
0.00044763 -7.70835e-05 -4.3805e-06
-7.70835e-05 4.22062e-05 5.00393e-06
-4.3805e-06 5.00393e-06 -2.73163e-05
0.000411125 9.73969e-07 -6.24734e-07
9.73969e-07 -2.91393e-05 2.605e-08
-6.24734e-07 2.605e-08 -4.49646e-05
0.0021065 2.98328e-05 -5.91595e-06
2.98328e-05 0.00108315 -5.51665e-06
-5.91595e-06 -5.51665e-06 0.00109741
0.00121586 2.04415e-05 -1.63623e-06
2.04415e-05 0.000498756 3.59525e-06
-1.63623e-06 3.59525e-06 0.000483156
0.00142562 3.56433e-05 -4.78427e-06
3.56433e-05 0.000637791 2.25537e-08
-4.78427e-06 2.25537e-08 0.000645607
0.000745754 4.23439e-05 3.14634e-07
4.23439e-05 0.000200706 1.03404e-05
3.14634e-07 1.03404e-05 0.000199483
-0.00386303 0.00400664 0.00134427
0.00400664 -1.4585e-05 -0.000108985
0.00134427 -0.000108985 -0.00674796
0.0049056 0.00423195 0.00277249
0.00423195 0.012427 -0.000245832
0.00277249 -0.000245832 0.00350574
0.00195403 0.00133066 -0.00010839
0.00133066 -0.00435009 -7.23058e-05
-0.00010839 -7.23058e-05 -0.000498552
0.0030676 -3.42638e-05 6.47777e-05
-3.42638e-05 -0.00189231 -2.2332e-05
6.47777e-05 -2.2332e-05 -0.000464145
0.00319405 -0.000111754 4.77792e-05
-0.000111754 0.000187878 7.21501e-06
4.77792e-05 7.21501e-06 0.000425296
0.00118918 -0.000149492 -0.000115746
-0.000149492 -0.00255703 -3.88441e-05
-0.000115746 -3.88441e-05 6.524e-05
0.00470715 -0.000812256 1.27929e-05
-0.000812256 -0.000159355 1.61991e-06
1.27929e-05 1.61991e-06 0.00069816
0.0130158 -0.00094904 0.000382755
-0.00094904 -0.00365328 -0.000150096
0.000382755 -0.000150096 -0.00308354
0.00872893 0.00713609 -3.08209e-05
0.00713609 0.0034034 -0.000104686
-3.08209e-05 -0.000104686 -0.00278037
0.0343119 0.0176564 -0.000861684
0.0176564 0.0228304 0.000312332
-0.000861684 0.000312332 0.0105789
0.00326235 -0.0019128 -4.67977e-05
-0.0019128 -0.00375939 -3.70944e-05
-4.67977e-05 -3.70944e-05 -0.00055692
0.0155209 -0.00529449 0.000443011
-0.00529449 -0.00182253 -8.25259e-05
0.000443011 -8.25259e-05 -0.00131747
0.0271212 0.00947667 0.000502017
0.00947667 0.0119312 -0.000473907
0.000502017 -0.000473907 0.00219521
0.0330053 0.00654883 -0.000454117
0.00654883 0.0141876 0.000436956
-0.000454117 0.000436956 0.00716868
0.00141872 0.000211217 -7.5648e-06
0.000211217 0.000837155 -1.96467e-06
-7.5648e-06 -1.96467e-06 0.000601602
0.000364266 2.93145e-05 1.32716e-06
2.93145e-05 3.19494e-05 -5.1662e-07
1.32716e-06 -5.1662e-07 -9.47044e-05
0.000523076 -0.000116327 2.33238e-06
-0.000116327 0.000146233 4.71073e-06
2.33238e-06 4.71073e-06 1.46824e-05
0.000598769 -2.5604e-05 3.49284e-06
-2.5604e-05 0.000178373 3.41569e-06
3.49284e-06 3.41569e-06 5.07228e-05
0.000474436 6.64182e-05 4.5133e-06
6.64182e-05 0.00017191 -1.86434e-07
4.5133e-06 -1.86434e-07 4.86602e-05
0.000671636 0.000108302 4.83698e-07
0.000108302 0.000270007 2.19337e-06
4.83698e-07 2.19337e-06 6.41184e-05
0.000586223 8.26364e-05 -1.436e-06
8.26364e-05 0.000223281 1.86174e-06
-1.436e-06 1.86174e-06 6.1925e-05
0.000409158 0.000128136 5.5696e-06
0.000128136 3.99114e-05 3.29782e-06
5.5696e-06 3.29782e-06 -0.000138981
0.000552144 2.4498e-05 1.33157e-06
2.4498e-05 0.000179895 -1.17189e-06
1.33157e-06 -1.17189e-06 4.56897e-06
0.000266381 -3.18282e-05 9.44162e-07
-3.18282e-05 -3.77954e-05 2.82664e-06
9.44162e-07 2.82664e-06 -0.000164106
0.00124453 -0.000463598 5.49728e-05
-0.000463598 -0.00129417 -2.25126e-05
5.49728e-05 -2.25126e-05 -0.000646245
0.00155867 -0.000919211 3.16227e-05
-0.000919211 -0.000684459 -1.4473e-05
3.16227e-05 -1.4473e-05 -0.000490239
0.00157045 -0.00114174 1.14037e-05
-0.00114174 -0.000144722 5.45502e-06
1.14037e-05 5.45502e-06 -0.000517471
-0.000246261 -0.0011364 -8.32805e-06
-0.0011364 -0.000953836 -1.16088e-05
-8.32805e-06 -1.16088e-05 -0.00138224
0.00262034 -0.000962109 -1.16171e-05
-0.000962109 0.00193589 5.41879e-05
-1.16171e-05 5.41879e-05 0.00108386
-0.00105566 -0.000709196 -6.75723e-06
-0.000709196 -0.000480476 -1.92563e-05
-6.75723e-06 -1.92563e-05 -0.00122239
0.00155247 -0.000340965 1.48281e-05
-0.000340965 0.000892168 -1.09041e-05
1.48281e-05 -1.09041e-05 0.00062036
-0.000130789 -2.85812e-05 2.27907e-06
-2.85812e-05 -0.000136707 8.14582e-06
2.27907e-06 8.14582e-06 -0.000322403
0.00314299 -0.00106389 1.24935e-05
-0.00106389 -0.000505609 -1.15058e-05
1.24935e-05 -1.15058e-05 0.000181037
0.000678295 -0.00014925 -1.87771e-07
-0.00014925 0.000479431 2.32286e-06
-1.87771e-07 2.32286e-06 0.000139275
-0.000359343 -0.000264164 -1.46444e-05
-0.000264164 -5.47043e-05 1.19174e-06
-1.46444e-05 1.19174e-06 -0.000468848
0.00203422 -0.00121721 2.05873e-05
-0.00121721 2.90552e-05 -2.0894e-06
2.05873e-05 -2.0894e-06 -0.000197752
0.00226327 -0.00150189 -1.09902e-06
-0.00150189 0.000348656 -5.6903e-06
-1.09902e-06 -5.6903e-06 -0.000124553
0.000165437 -0.000980861 1.88075e-05
-0.000980861 -0.00031215 -1.5932e-05
1.88075e-05 -1.5932e-05 -0.000605677
0.00116397 -0.000594831 3.09263e-05
-0.000594831 0.00117157 -2.91242e-05
3.09263e-05 -2.91242e-05 0.000450531
0.00198586 -0.00174013 -4.19706e-05
-0.00174013 -0.000774882 4.89275e-05
-4.19706e-05 4.89275e-05 -0.000608156
0.00232648 -0.00135503 -5.37286e-05
-0.00135503 0.000536484 3.01748e-05
-5.37286e-05 3.01748e-05 0.00023896
-0.000542387 -0.000590493 -4.82315e-05
-0.000590493 -0.000108478 2.94814e-05
-4.82315e-05 2.94814e-05 -0.000551954
-0.000284262 3.49352e-06 -6.03724e-06
3.49352e-06 -0.000190637 2.94428e-06
-6.03724e-06 2.94428e-06 -0.000479422
-0.000871236 -9.30036e-06 -5.74479e-06
-9.30036e-06 -0.00035038 2.01973e-05
-5.74479e-06 2.01973e-05 -0.000765524
0.000401149 -7.00473e-05 6.65967e-06
-7.00473e-05 0.000451462 8.74776e-06
6.65967e-06 8.74776e-06 5.98032e-05
-0.00264953 0.00154172 -0.000752507
0.00154172 0.00867943 9.0428e-06
-0.000752507 9.0428e-06 0.00116159
4.18519e-05 -0.00254294 -2.04638e-05
-0.00254294 0.00499968 -6.91608e-05
-2.04638e-05 -6.91608e-05 0.00177123
0.00661854 0.000473765 -0.000138676
0.000473765 -0.00748367 -3.98621e-05
-0.000138676 -3.98621e-05 -0.00751983
0.00147287 0.000559669 1.688e-05
0.000559669 0.000946557 -9.06674e-06
1.688e-05 -9.06674e-06 0.000531392
0.00186246 0.00098802 2.18474e-05
0.00098802 0.000802084 3.13154e-05
2.18474e-05 3.13154e-05 0.000175845
0.00413002 0.00176854 0.00010189
0.00176854 0.000679994 5.01731e-05
0.00010189 5.01731e-05 0.000437285
0.00267941 0.00148228 3.7369e-05
0.00148228 0.00096526 3.4817e-05
3.7369e-05 3.4817e-05 0.00024661
0.0171123 -0.00693783 0.000370467
-0.00693783 0.00998846 0.000120609
0.000370467 0.000120609 0.00302088
0.00301172 0.0042948 -0.000760692
0.0042948 -0.00947302 -0.000157174
-0.000760692 -0.000157174 -0.00851098
0.00653595 0.00547018 2.18498e-06
0.00547018 4.42236e-05 2.05457e-05
2.18498e-06 2.05457e-05 0.00158925
0.00404395 0.00238822 0.000112048
0.00238822 0.00159345 2.26381e-05
0.000112048 2.26381e-05 0.00128573
0.0198326 -0.00547821 -0.000782412
-0.00547821 0.00876833 -0.000197386
-0.000782412 -0.000197386 0.000503281
0.0048905 -0.00854036 -0.00174552
-0.00854036 0.0149629 -0.000183998
-0.00174552 -0.000183998 0.0045207
0.0407582 -0.0104292 0.00160812
-0.0104292 0.0149766 0.00051535
0.00160812 0.00051535 0.00548079
0.000552574 0.000513972 1.34103e-05
0.000513972 0.000312262 -5.28848e-06
1.34103e-05 -5.28848e-06 -7.43428e-05
-0.000310117 -0.000890963 -0.000128389
-0.000890963 0.00977156 -6.97473e-06
-0.000128389 -6.97473e-06 0.000608558
0.0091627 0.00355301 -0.000315882
0.00355301 0.00495469 -0.000212833
-0.000315882 -0.000212833 -0.00170684
0.00248848 0.0016366 1.3036e-05
0.0016366 0.000503352 4.71169e-06
1.3036e-05 4.71169e-06 0.000163385
0.00120129 0.00114711 9.49848e-06
0.00114711 0.000492833 8.01518e-06
9.49848e-06 8.01518e-06 -0.000145561
0.000927725 0.00187734 -0.000148933
0.00187734 0.000662266 -0.000103036
-0.000148933 -0.000103036 -7.1907e-05
0.00356153 0.0058643 9.57984e-05
0.0058643 0.000649657 5.65128e-05
9.57984e-05 5.65128e-05 0.000771097
0.0123273 0.00924055 -3.73229e-05
0.00924055 -0.000363774 -1.25514e-05
-3.73229e-05 -1.25514e-05 -0.00168105
0.0138864 -0.006206 0.000118259
-0.006206 0.0113427 -0.000175681
0.000118259 -0.000175681 0.000817339
0.0197655 -0.00224553 -9.82501e-05
-0.00224553 0.00362381 -4.89753e-05
-9.82501e-05 -4.89753e-05 0.00272094
0.00153302 0.00101767 -1.93517e-05
0.00101767 0.000887073 -1.49832e-05
-1.93517e-05 -1.49832e-05 0.000332963
0.00156911 0.00080782 -0.000662062
0.00080782 0.00403083 -0.000183591
-0.000662062 -0.000183591 -0.00324491
0.00328814 0.00171306 -0.000162709
0.00171306 0.000984132 -0.000222132
-0.000162709 -0.000222132 -0.00217141
-0.00104105 0.000664601 -6.39112e-06
0.000664601 -0.000126274 -3.22988e-05
-6.39112e-06 -3.22988e-05 -0.000619901
-0.00253783 0.00158491 -0.000141797
0.00158491 0.000659207 2.70979e-05
-0.000141797 2.70979e-05 -0.000236856
0.00846876 0.00844472 0.000376373
0.00844472 0.00401048 3.37519e-05
0.000376373 3.37519e-05 -0.00144124
0.0101237 -0.00678286 -7.97568e-06
-0.00678286 0.00356725 0.000231126
-7.97568e-06 0.000231126 -0.0049568
0.0177467 -0.000838627 9.94487e-05
-0.000838627 -0.000155694 -0.000350507
9.94487e-05 -0.000350507 0.000561631
0.00109132 0.000357246 8.90996e-07
0.000357246 0.000754318 2.34014e-05
8.90996e-07 2.34014e-05 0.000458013
0.000927006 0.000383513 -4.32185e-06
0.000383513 0.000750445 -4.81246e-06
-4.32185e-06 -4.81246e-06 0.000391367
-0.000260876 0.00027047 7.65212e-06
0.00027047 0.000210858 -3.50684e-06
7.65212e-06 -3.50684e-06 -0.000285544
0.000433942 9.51113e-05 7.64053e-07
9.51113e-05 8.92041e-05 1.35929e-07
7.64053e-07 1.35929e-07 -0.00010373
0.00137879 -1.78693e-05 -2.51477e-06
-1.78693e-05 0.000796881 3.96038e-06
-2.51477e-06 3.96038e-06 0.00054426
0.00039872 7.91792e-05 2.50637e-06
7.91792e-05 0.000191812 -2.16477e-06
2.50637e-06 -2.16477e-06 -2.48662e-05
-0.000276041 0.000120533 8.43942e-07
0.000120533 8.98085e-05 5.22937e-06
8.43942e-07 5.22937e-06 -0.000293133
0.000743293 -6.73713e-05 2.91684e-06
-6.73713e-05 0.000362979 7.08617e-07
2.91684e-06 7.08617e-07 0.000137971
0.000254463 2.9574e-05 3.95153e-09
2.9574e-05 0.000221078 -2.46763e-06
3.95153e-09 -2.46763e-06 -7.33808e-05
8.47103e-06 3.35694e-05 -1.25345e-06
3.35694e-05 0.000468693 1.49718e-06
-1.25345e-06 1.49718e-06 -9.3151e-05
-0.000328486 7.93048e-05 -3.31553e-08
7.93048e-05 0.000403266 5.83501e-06
-3.31553e-08 5.83501e-06 -0.000214781
0.000434931 -4.74761e-05 1.35277e-06
-4.74761e-05 0.000684861 -7.0791e-06
1.35277e-06 -7.0791e-06 0.000168192
0.00119623 -3.47189e-05 -9.83193e-06
-3.47189e-05 0.000836242 6.65908e-06
-9.83193e-06 6.65908e-06 0.000535
0.00109635 -0.0002084 5.35227e-06
-0.0002084 0.000598214 3.08517e-06
5.35227e-06 3.08517e-06 0.000399857
0.000328194 -0.000175983 -2.88092e-06
-0.000175983 -2.8578e-05 2.61512e-06
-2.88092e-06 2.61512e-06 -0.000187015
-0.000590161 -3.01444e-05 1.43121e-05
-3.01444e-05 -0.000403773 6.97301e-06
1.43121e-05 6.97301e-06 -0.000542434
-0.00010322 -3.49428e-05 2.47241e-06
-3.49428e-05 8.05516e-06 2.13477e-06
2.47241e-06 2.13477e-06 -0.000262211
0.000559547 -8.24127e-05 6.85629e-07
-8.24127e-05 0.000237645 2.12773e-06
6.85629e-07 2.12773e-06 1.53116e-05
-0.000523514 -8.85252e-05 -4.48299e-06
-8.85252e-05 -0.000325873 -6.04674e-07
-4.48299e-06 -6.04674e-07 -0.000528266
-2.18809e-05 -0.00012977 -6.94852e-06
-0.00012977 -9.65648e-05 -4.11635e-06
-6.94852e-06 -4.11635e-06 -0.000311829
0.000407122 -7.33278e-05 3.45058e-06
-7.33278e-05 0.000463294 -5.16059e-06
3.45058e-06 -5.16059e-06 0.000159238
0.0023163 -0.000540155 -1.41629e-06
-0.000540155 0.00112811 8.47079e-06
-1.41629e-06 8.47079e-06 0.000911955
0.000741177 -0.00017286 -2.13782e-05
-0.00017286 0.000234241 8.48158e-07
-2.13782e-05 8.48158e-07 7.78798e-05
0.00115849 -0.000448263 9.90589e-06
-0.000448263 0.000389615 7.05146e-06
9.90589e-06 7.05146e-06 0.000116961
0.00243303 -0.000901535 -1.0091e-05
-0.000901535 0.00111875 1.64682e-05
-1.0091e-05 1.64682e-05 0.000588019
0.00260351 -0.000354205 1.5644e-05
-0.000354205 0.00129231 -7.0574e-06
1.5644e-05 -7.0574e-06 0.00104723
0.00240176 -0.000552552 6.69239e-07
-0.000552552 0.00118948 -7.88858e-06
6.69239e-07 -7.88858e-06 0.000885917
0.000378343 -0.000217538 -2.99606e-07
-0.000217538 0.000148313 -6.28122e-07
-2.99606e-07 -6.28122e-07 -0.000128278
-0.00182442 -0.000141124 3.16589e-06
-0.000141124 -0.0011732 -5.71322e-06
3.16589e-06 -5.71322e-06 -0.00154918
0.00160827 -7.5306e-05 3.32158e-06
-7.5306e-05 0.000993874 2.88296e-06
3.32158e-06 2.88296e-06 0.00071377
0.000677323 -0.000247035 4.27055e-06
-0.000247035 0.000339129 -2.06809e-06
4.27055e-06 -2.06809e-06 4.99532e-05
0.00043703 -9.70966e-05 7.61855e-06
-9.70966e-05 7.04648e-05 1.03288e-06
7.61855e-06 1.03288e-06 -0.000136177
0.00218291 -0.000453589 -8.34998e-06
-0.000453589 0.00131644 1.82108e-06
-8.34998e-06 1.82108e-06 0.00106635
0.000512419 -0.000171896 -4.14494e-07
-0.000171896 0.000171153 -4.38052e-07
-4.14494e-07 -4.38052e-07 -2.70802e-05
0.000186511 -2.8733e-05 3.15283e-06
-2.8733e-05 -0.000116516 5.54409e-06
3.15283e-06 5.54409e-06 -0.000236381
0.00103521 -0.000193021 -2.30131e-06
-0.000193021 0.000515855 2.219e-06
-2.30131e-06 2.219e-06 0.000329585
0.000616466 -9.11148e-05 -2.33965e-07
-9.11148e-05 0.000165304 1.45794e-07
-2.33965e-07 1.45794e-07 5.54888e-05
0.00146755 -6.56315e-07 -1.59297e-05
-6.56315e-07 0.000675811 9.12283e-06
-1.59297e-05 9.12283e-06 0.00064352
0.00046889 -8.88177e-05 6.42597e-07
-8.88177e-05 6.82447e-05 -3.90326e-06
6.42597e-07 -3.90326e-06 -3.60062e-05
0.000821649 -1.96717e-05 -1.49385e-05
-1.96717e-05 0.000259025 9.27049e-07
-1.49385e-05 9.27049e-07 0.000226929
0.000819291 1.79129e-05 2.64933e-06
1.79129e-05 0.000236388 3.28998e-06
2.64933e-06 3.28998e-06 0.000235302
0.000379172 -5.16358e-05 4.17547e-06
-5.16358e-05 -2.64727e-05 -6.00249e-06
4.17547e-06 -6.00249e-06 -5.95204e-05
0.00169412 1.37805e-05 1.75428e-05
1.37805e-05 0.00081362 -1.75418e-06
1.75428e-05 -1.75418e-06 0.000820674
0.00257029 2.97422e-07 2.3685e-05
2.97422e-07 0.00138958 -5.59006e-06
2.3685e-05 -5.59006e-06 0.0014016
0.000457615 8.78627e-05 1.31077e-06
8.78627e-05 6.36867e-05 -4.30476e-06
1.31077e-06 -4.30476e-06 -7.71425e-05
0.000531766 8.18178e-05 -5.02164e-07
8.18178e-05 9.99211e-05 -6.58458e-06
-5.02164e-07 -6.58458e-06 2.1088e-05
0.000549146 2.20009e-05 7.01009e-07
2.20009e-05 0.000144529 6.06063e-07
7.01009e-07 6.06063e-07 8.83313e-06
0.00039541 7.79315e-06 3.6522e-06
7.79315e-06 -3.90428e-05 -5.50203e-06
3.6522e-06 -5.50203e-06 -5.51138e-05
0.000423467 6.62258e-05 3.21975e-07
6.62258e-05 2.28143e-05 -9.8912e-08
3.21975e-07 -9.8912e-08 -4.41519e-05
0.000363988 -0.000119642 -3.9146e-06
-0.000119642 1.62852e-05 5.77295e-06
-3.9146e-06 5.77295e-06 -0.000104627
0.00210387 1.47439e-05 -1.10297e-05
1.47439e-05 0.00107981 -5.58581e-06
-1.10297e-05 -5.58581e-06 0.00109525
0.000396485 8.15289e-06 -5.19809e-07
8.15289e-06 -3.78399e-05 5.59354e-09
-5.19809e-07 5.59354e-09 -5.2841e-05
0.00047556 6.94394e-07 -2.20097e-06
6.94394e-07 4.34528e-05 4.66899e-06
-2.20097e-06 4.66899e-06 -1.26699e-05
0.00041232 -1.59754e-06 -3.46725e-06
-1.59754e-06 -2.93727e-05 4.71713e-06
-3.46725e-06 4.71713e-06 -4.51606e-05
0.00212696 3.08907e-05 -6.19813e-06
3.08907e-05 0.00109684 -1.69742e-07
-6.19813e-06 -1.69742e-07 0.00111081
0.00218416 4.79718e-05 8.11343e-07
4.79718e-05 0.00113725 5.76382e-06
8.11343e-07 5.76382e-06 0.00114885
-8.70824e-05 -0.00181823 -0.000429821
-0.00181823 0.0103865 7.45501e-05
-0.000429821 7.45501e-05 0.00429954
0.00651275 0.00439908 -0.000509981
0.00439908 0.00407244 0.000166917
-0.000509981 0.000166917 -0.00207417
0.00414804 -0.00168106 -0.000596117
-0.00168106 0.00178795 0.000332741
-0.000596117 0.000332741 -0.00359523
0.00902356 0.00500908 0.001681
0.00500908 0.0123138 -0.000186012
0.001681 -0.000186012 0.00292101
0.00512832 0.00107085 1.29672e-05
0.00107085 -0.00121166 -7.56552e-06
1.29672e-05 -7.56552e-06 0.000880998
0.00337077 -0.000855534 0.000118315
-0.000855534 -0.00086687 2.42778e-05
0.000118315 2.42778e-05 -0.00011054
0.00282181 -0.000751106 0.000564756
-0.000751106 -0.00936896 -2.99249e-05
0.000564756 -2.99249e-05 -0.008298
0.0248147 0.00704908 -0.00219462
0.00704908 0.0134918 -0.000126075
-0.00219462 -0.000126075 0.00603856
0.026827 0.0213054 -0.00311064
0.0213054 0.0186984 0.00183543
-0.00311064 0.00183543 0.00566214
0.00550635 -0.00146603 7.88662e-05
-0.00146603 -0.00209467 9.98586e-10
7.88662e-05 9.98586e-10 0.000241278
0.00799767 -0.00530452 0.000306994
-0.00530452 -0.00643971 -0.000228982
0.000306994 -0.000228982 -0.00600532
0.0293021 0.00931439 -0.00054671
0.00931439 0.013116 -0.000259452
-0.00054671 -0.000259452 0.0032492
0.02424 0.00604936 0.000363572
0.00604936 0.010612 0.000558676
0.000363572 0.000558676 0.00378066
0.00255853 -0.0033929 -0.000111474
-0.0033929 -0.00456581 9.18397e-05
-0.000111474 9.18397e-05 -0.00135422
0.00349235 -0.0081694 0.000964149
-0.0081694 -0.00290752 -0.000296609
0.000964149 -0.000296609 -0.00425774
0.0166941 0.00443316 -0.000469262
0.00443316 0.00779105 -0.00124545
-0.000469262 -0.00124545 -0.00177864
0.0112839 -0.000963747 -0.000433699
-0.000963747 0.000760215 6.52107e-05
-0.000433699 6.52107e-05 -0.000788927
0.00196316 -5.29576e-05 -2.46454e-06
-5.29576e-05 0.00120952 1.55992e-05
-2.46454e-06 1.55992e-05 0.000902554
0.000182052 3.93515e-05 -8.65955e-07
3.93515e-05 -1.96543e-05 -1.84725e-06
-8.65955e-07 -1.84725e-06 -0.000187775
0.000534205 0.000122443 3.13994e-06
0.000122443 0.000136367 3.10925e-06
3.13994e-06 3.10925e-06 1.21819e-05
-0.000447592 -9.31551e-05 -1.55345e-06
-9.31551e-05 -0.000498248 2.95596e-06
-1.55345e-06 2.95596e-06 -0.000541912
0.000406463 0.000175809 4.36632e-06
0.000175809 6.67103e-05 1.30777e-05
4.36632e-06 1.30777e-05 -0.000140767
0.000546344 9.12274e-05 -9.81208e-07
9.12274e-05 0.000200243 -4.45149e-07
-9.81208e-07 -4.45149e-07 3.16507e-06
-0.000248521 -1.09974e-05 1.94057e-06
-1.09974e-05 -0.00033526 3.14426e-06
1.94057e-06 3.14426e-06 -0.000470048
0.00100406 0.000204418 9.49214e-06
0.000204418 0.000487772 1.01137e-05
9.49214e-06 1.01137e-05 0.00025756
0.0010099 0.000197576 -4.45069e-07
0.000197576 0.000496336 -6.73199e-07
-4.45069e-07 -6.73199e-07 0.00026909
0.000373903 2.19859e-05 -2.94617e-06
2.19859e-05 5.70253e-05 1.32734e-06
-2.94617e-06 1.32734e-06 -0.000116423
0.00127802 -0.0009188 0.000130182
-0.0009188 -0.00157926 -7.4829e-05
0.000130182 -7.4829e-05 -0.000815073
0.000743214 -0.00104698 1.04617e-05
-0.00104698 -0.000731718 -1.24173e-05
1.04617e-05 -1.24173e-05 -0.000811709
0.00196473 -0.00143274 1.20098e-05
-0.00143274 0.000190393 9.06236e-06
1.20098e-05 9.06236e-06 -0.000234052
-0.000828139 -0.000932127 5.53009e-06
-0.000932127 -0.000890728 -1.2391e-05
5.53009e-06 -1.2391e-05 -0.00120158
0.00402679 -0.000758246 -7.72182e-05
-0.000758246 0.0026944 6.87228e-05
-7.72182e-05 6.87228e-05 0.00217038
0.000665151 -0.000328668 -2.38936e-07
-0.000328668 0.00058616 -1.27395e-05
-2.38936e-07 -1.27395e-05 0.000159031
0.00062876 3.48047e-05 3.95318e-06
3.48047e-05 0.000425145 -9.35515e-06
3.95318e-06 -9.35515e-06 9.14934e-05
0.000674408 2.12534e-05 -5.82838e-06
2.12534e-05 0.000397902 2.71452e-06
-5.82838e-06 2.71452e-06 9.4376e-05
0.00314031 -0.00176162 -3.03266e-05
-0.00176162 -0.000162059 2.76644e-06
-3.03266e-05 2.76644e-06 0.000136764
0.000562565 -5.36764e-05 1.19875e-06
-5.36764e-05 0.000468064 4.18982e-06
1.19875e-06 4.18982e-06 9.06731e-05
0.00189319 -0.000472644 1.09861e-05
-0.000472644 0.00131897 -6.93509e-06
1.09861e-05 -6.93509e-06 0.000913766
0.00161938 -0.001282 2.15999e-05
-0.001282 0.000129969 -3.13364e-06
2.15999e-05 -3.13364e-06 -0.000155455
0.000292795 -0.000694436 -2.19753e-05
-0.000694436 0.000262528 7.08269e-06
-2.19753e-05 7.08269e-06 -0.000120649
0.00288268 -0.00285985 5.60019e-05
-0.00285985 0.00049969 -1.96641e-05
5.60019e-05 -1.96641e-05 -0.000191523
0.00131494 -0.000904516 -2.05822e-05
-0.000904516 0.000809859 2.50165e-05
-2.05822e-05 2.50165e-05 0.000440014
-0.00147034 -0.000172754 7.71981e-06
-0.000172754 -0.000392196 -8.49338e-09
7.71981e-06 -8.49338e-09 -0.000987483
0.000267571 0.000137902 6.91772e-06
0.000137902 0.000190318 1.15907e-06
6.91772e-06 1.15907e-06 -2.12135e-05
-0.000719112 -0.000263535 -1.00575e-05
-0.000263535 -0.000215061 3.39505e-05
-1.00575e-05 3.39505e-05 -0.000641906
0.00256084 0.000389683 -0.000168977
0.000389683 0.00264904 -5.82396e-05
-0.000168977 -5.82396e-05 -0.0027681
-0.00757051 0.000333149 -0.000849355
0.000333149 0.00773253 7.13513e-07
-0.000849355 7.13513e-07 0.00137512
-0.0118307 -0.00443568 -0.00157859
-0.00443568 -0.0020375 2.45037e-05
-0.00157859 2.45037e-05 -0.00683083
0.000124735 0.000497479 1.73268e-05
0.000497479 0.000131595 -3.52837e-06
1.73268e-05 -3.52837e-06 -0.000293452
0.000765531 0.00105518 5.56342e-06
0.00105518 0.000331069 1.23168e-05
5.56342e-06 1.23168e-05 -0.000305899
0.00365372 0.00197593 6.83803e-05
0.00197593 0.00114263 6.55794e-05
6.83803e-05 6.55794e-05 0.000651171
-0.00148664 0.0015844 0.000204553
0.0015844 0.0108826 8.31941e-05
0.000204553 8.31941e-05 0.00398233
0.0036944 0.00831427 -0.000887272
0.00831427 -0.00345245 -0.000231945
-0.000887272 -0.000231945 -0.00439771
0.000422656 0.00410001 0.000559936
0.00410001 -0.000669092 0.000256533
0.000559936 0.000256533 -0.000285585
0.000125797 0.00174736 -7.73075e-06
0.00174736 0.000218326 -4.89311e-05
-7.73075e-06 -4.89311e-05 -0.000120842
0.0334435 -0.00596095 0.000177157
-0.00596095 0.0144725 -0.000644691
0.000177157 -0.000644691 0.0056987
0.00981932 0.00436408 0.00125991
0.00436408 0.00437236 0.000387148
0.00125991 0.000387148 -0.00312055
0.0141993 -0.00100468 0.000120595
-0.00100468 0.00321905 8.71321e-05
0.000120595 8.71321e-05 0.00372739
0.00190416 0.00104656 1.04315e-05
0.00104656 0.00112923 -6.35087e-07
1.04315e-05 -6.35087e-07 0.000579574
0.00409569 0.00187366 -0.000115462
0.00187366 0.0050796 -2.00102e-05
-0.000115462 -2.00102e-05 -0.000978615
0.00324298 0.00130122 0.00016627
0.00130122 0.00154271 -2.20828e-05
0.00016627 -2.20828e-05 -0.00135656
4.34912e-05 0.00109854 -1.78167e-05
0.00109854 0.000338458 -8.54243e-06
-1.78167e-05 -8.54243e-06 -0.000315372
-0.00113265 0.00268241 -0.000164079
0.00268241 0.000378234 -0.00011047
-0.000164079 -0.00011047 -0.00110908
0.00287678 0.00894815 0.000513683
0.00894815 0.00191952 0.000174253
0.000513683 0.000174253 -0.00309437
0.0138698 -0.000692702 1.96589e-05
-0.000692702 -0.00231837 -0.000224901
1.96589e-05 -0.000224901 -0.00123406
0.0104232 -0.00343282 -0.000160634
-0.00343282 0.00629467 -0.000260017
-0.000160634 -0.000260017 -0.00187111
0.00140443 0.000897183 -4.23818e-06
0.000897183 0.00125016 -1.56149e-05
-4.23818e-06 -1.56149e-05 0.000575136
-0.00405508 0.00110541 8.56383e-05
0.00110541 0.00201576 8.74507e-05
8.56383e-05 8.74507e-05 -0.00113328
0.00858251 -0.00142581 0.00038672
-0.00142581 0.000674447 -8.00379e-05
0.00038672 -8.00379e-05 -0.00173443
0.0111997 -0.000901564 0.000400756
-0.000901564 0.000690942 -2.36486e-05
0.000400756 -2.36486e-05 -0.000633626
-0.00309162 0.000603618 7.43682e-05
0.000603618 0.000521056 -1.11409e-05
7.43682e-05 -1.11409e-05 -0.000773829
0.00752 0.00462772 0.000478421
0.00462772 0.00607908 0.000250999
0.000478421 0.000250999 -0.0014449
0.00952814 -0.000562714 -2.57081e-05
-0.000562714 0.00351772 0.000435707
-2.57081e-05 0.000435707 -0.00130309
0.00260951 0.000564255 2.02433e-05
0.000564255 0.00178081 1.44808e-05
2.02433e-05 1.44808e-05 0.00138091
0.000343483 0.000393081 -9.41373e-06
0.000393081 0.000552736 -3.18728e-06
-9.41373e-06 -3.18728e-06 7.84683e-06
0.000538509 0.000419895 2.55594e-06
0.000419895 0.000824881 -1.26729e-05
2.55594e-06 -1.26729e-05 7.72523e-05
-0.000247342 5.76317e-05 5.43249e-06
5.76317e-05 -0.00028824 -3.50719e-06
5.43249e-06 -3.50719e-06 -0.000495417
0.000346804 9.1577e-05 7.22138e-07
9.1577e-05 0.000265569 -2.40553e-06
7.22138e-07 -2.40553e-06 -1.07624e-05
6.80643e-05 3.38157e-05 3.42519e-06
3.38157e-05 0.00057704 8.36032e-08
3.42519e-06 8.36032e-08 -2.1558e-05
1.26208e-05 -1.44811e-05 -1.06959e-06
-1.44811e-05 5.90885e-05 -2.47411e-07
-1.06959e-06 -2.47411e-07 -0.000215903
0.000583682 -9.38245e-05 -5.05342e-07
-9.38245e-05 0.000797544 -2.68775e-06
-5.05342e-07 -2.68775e-06 0.00027064
-0.000238074 3.38542e-05 2.52702e-06
3.38542e-05 0.00051421 1.05067e-06
2.52702e-06 1.05067e-06 -0.000126786
0.000494029 -0.000126093 -8.51945e-06
-0.000126093 0.000840547 1.46683e-05
-8.51945e-06 1.46683e-05 0.000330672
0.000837726 -7.30045e-05 1.84039e-06
-7.30045e-05 0.000833181 -1.44874e-05
1.84039e-06 -1.44874e-05 0.000443519
-0.000178982 -2.38765e-05 9.93321e-06
-2.38765e-05 -7.53532e-05 5.95858e-07
9.93321e-06 5.95858e-07 -0.000317218
0.00166501 -0.000113177 1.73083e-07
-0.000113177 0.000868046 4.86942e-06
1.73083e-07 4.86942e-06 0.000672841
-0.000668119 -7.79517e-05 -3.24036e-06
-7.79517e-05 -0.000376439 4.76214e-06
-3.24036e-06 4.76214e-06 -0.00059168
0.000422606 -6.67908e-05 1.37713e-06
-6.67908e-05 0.000443908 1.81967e-06
1.37713e-06 1.81967e-06 0.000160831
-0.000696833 -2.88174e-05 -6.19919e-06
-2.88174e-05 -0.000458612 -1.4417e-06
-6.19919e-06 -1.4417e-06 -0.000697385
0.00186757 -0.000532869 1.06036e-06
-0.000532869 0.000988548 7.5456e-06
1.06036e-06 7.5456e-06 0.000729156
0.000941238 -0.000337241 -1.67877e-05
-0.000337241 0.000385221 -1.42486e-06
-1.67877e-05 -1.42486e-06 0.000248895
-8.48788e-05 -0.000431809 9.35396e-06
-0.000431809 -0.000243829 1.80567e-05
9.35396e-06 1.80567e-05 -0.000646366
0.000987359 -0.000157222 3.38948e-07
-0.000157222 0.000411362 3.67785e-07
3.38948e-07 3.67785e-07 0.000254899
0.00133712 -0.000461816 -6.01065e-06
-0.000461816 0.000499012 7.86542e-06
-6.01065e-06 7.86542e-06 0.000219884
0.00251759 -0.000926427 -1.09877e-05
-0.000926427 0.00113693 1.2157e-05
-1.09877e-05 1.2157e-05 0.000565044
0.00198984 -0.000975134 -2.99669e-06
-0.000975134 0.000717053 -1.5467e-06
-2.99669e-06 -1.5467e-06 9.94885e-05
0.00107236 -0.000467353 8.83188e-06
-0.000467353 0.000254939 -7.38504e-07
8.83188e-06 -7.38504e-07 -7.58867e-05
0.000996091 -0.000682083 6.98654e-06
-0.000682083 0.000232314 -2.31596e-06
6.98654e-06 -2.31596e-06 -0.000231786
0.0017815 -0.000306889 3.79324e-06
-0.000306889 0.000983344 -4.6833e-06
3.79324e-06 -4.6833e-06 0.000614972
0.000920211 -0.000262902 -7.47184e-06
-0.000262902 0.000297172 1.68113e-06
-7.47184e-06 1.68113e-06 2.94958e-05
-0.000148577 -0.000297165 1.88918e-05
-0.000297165 -0.000397158 -1.21897e-05
1.88918e-05 -1.21897e-05 -0.000625246
0.00195131 -0.000230539 -6.57925e-06
-0.000230539 0.00111471 3.84393e-06
-6.57925e-06 3.84393e-06 0.000832992
-0.0003009 -0.0002278 9.47891e-07
-0.0002278 -0.000247607 6.0366e-07
9.47891e-07 6.0366e-07 -0.000607655
-0.00036443 -4.25639e-05 5.84936e-06
-4.25639e-05 -0.000399725 2.00682e-06
5.84936e-06 2.00682e-06 -0.000693616
0.00282728 -0.000592746 -6.28327e-06
-0.000592746 0.00167124 3.49964e-06
-6.28327e-06 3.49964e-06 0.00138134
0.000955265 -0.00025109 -4.78706e-07
-0.00025109 0.000422547 -4.31843e-07
-4.78706e-07 -4.31843e-07 0.0001924
0.000182071 -5.63664e-05 6.74983e-06
-5.63664e-05 -0.000119949 9.90417e-06
6.74983e-06 9.90417e-06 -0.000274653
0.00093372 -0.000261141 -4.00535e-06
-0.000261141 0.000453298 -1.25849e-06
-4.00535e-06 -1.25849e-06 0.000246563
0.000440457 -2.47356e-05 -2.88049e-06
-2.47356e-05 6.37168e-05 -6.02033e-07
-2.88049e-06 -6.02033e-07 -7.09911e-05
0.00150742 -3.0859e-05 -2.56294e-05
-3.0859e-05 0.000700346 7.47145e-06
-2.56294e-05 7.47145e-06 0.000665025
0.000630584 -0.000101848 -2.11044e-07
-0.000101848 0.000179131 -4.18665e-06
-2.11044e-07 -4.18665e-06 6.37645e-05
0.000850396 -2.83692e-05 -1.35734e-05
-2.83692e-05 0.000271724 7.29643e-07
-1.35734e-05 7.29643e-07 0.000236933
0.000830466 2.82593e-05 2.32189e-06
2.82593e-05 0.000238027 3.58713e-06
2.32189e-06 3.58713e-06 0.000233501
0.000403886 -4.95458e-05 4.06175e-06
-4.95458e-05 -1.4561e-05 -7.05691e-06
4.06175e-06 -7.05691e-06 -5.05123e-05
0.00182181 2.59656e-05 2.08377e-05
2.59656e-05 0.000894557 -1.39221e-06
2.08377e-05 -1.39221e-06 0.000900044
0.00262306 1.25687e-05 2.89132e-05
1.25687e-05 0.00142077 -5.92889e-06
2.89132e-05 -5.92889e-06 0.00143291
0.000118641 4.34978e-05 2.42598e-06
4.34978e-05 -0.000143635 2.24313e-06
2.42598e-06 2.24313e-06 -0.000317021
-5.52427e-05 2.7163e-05 5.86955e-07
2.7163e-05 -0.000295342 -8.10668e-06
5.86955e-07 -8.10668e-06 -0.000383468
0.00050739 9.27694e-05 -5.32603e-07
9.27694e-05 0.000107822 8.71578e-07
-5.32603e-07 8.71578e-07 -4.21667e-05
0.000400636 1.44421e-05 2.70732e-06
1.44421e-05 -3.48427e-05 -6.01869e-06
2.70732e-06 -6.01869e-06 -5.44314e-05
0.0002793 5.93693e-06 1.72817e-06
5.93693e-06 -8.04048e-05 6.01419e-08
1.72817e-06 6.01419e-08 -0.000153341
0.000164206 -0.000107319 -3.14803e-07
-0.000107319 -0.000111418 6.29414e-06
-3.14803e-07 6.29414e-06 -0.000246324
0.00214916 -1.03528e-07 -1.50389e-05
-1.03528e-07 0.00110887 -5.76029e-06
-1.50389e-05 -5.76029e-06 0.00112428
0.000390587 8.89178e-06 7.24984e-07
8.89178e-06 -4.19925e-05 -7.06094e-08
7.24984e-07 -7.06094e-08 -5.80181e-05
0.000385658 -1.50901e-05 -5.05645e-06
-1.50901e-05 -9.60909e-06 5.50843e-06
-5.05645e-06 5.50843e-06 -7.21835e-05
0.00212785 1.57912e-05 -5.35605e-06
1.57912e-05 0.00109608 -2.17538e-08
-5.35605e-06 -2.17538e-08 0.00111119
0.00039691 3.06576e-06 -3.36121e-06
3.06576e-06 -3.72485e-05 4.71764e-06
-3.36121e-06 4.71764e-06 -5.23232e-05
0.00212141 3.20916e-05 6.31427e-06
3.20916e-05 0.00109346 5.82693e-06
6.31427e-06 5.82693e-06 0.00110716
-0.0011377 -0.00208248 -0.000388528
-0.00208248 -0.000147657 0.00016174
-0.000388528 0.00016174 -0.00505196
0.00584392 0.00307171 -0.000345988
0.00307171 0.0128944 8.15139e-05
-0.000345988 8.15139e-05 0.00473895
0.00730051 0.00169736 -0.00188334
0.00169736 0.00625347 0.000363115
-0.00188334 0.000363115 0.00296904
0.000691473 0.000134876 1.19316e-05
0.000134876 0.000277257 7.21002e-06
1.19316e-05 7.21002e-06 5.96102e-05
0.00741221 -0.00173809 -0.000241263
-0.00173809 0.00511133 0.0003691
-0.000241263 0.0003691 0.00160626
0.00474172 -0.00182393 -0.000331147
-0.00182393 0.00265595 3.91669e-05
-0.000331147 3.91669e-05 -0.00290101
0.0238692 0.0107116 0.000148028
0.0107116 0.0147223 -0.00064044
0.000148028 -0.00064044 0.00358486
0.00738621 -0.0022311 0.00018836
-0.0022311 -0.00140501 -2.45773e-05
0.00018836 -2.45773e-05 0.000498045
0.014215 -0.00481158 0.000413701
-0.00481158 -0.0019083 -0.000309767
0.000413701 -0.000309767 -0.000281818
0.0205836 0.00725454 -0.00115957
0.00725454 0.00770109 0.00029885
-0.00115957 0.00029885 -0.0014778
0.0179876 0.00532264 0.00041964
0.00532264 0.0119071 0.000329427
0.00041964 0.000329427 0.00671352
0.00762546 -0.00417976 -9.51518e-05
-0.00417976 -0.00145732 -3.27061e-06
-9.51518e-05 -3.27061e-06 0.0006521
0.01164 -0.00854415 1.19291e-05
-0.00854415 -8.02691e-06 -6.65558e-05
1.19291e-05 -6.65558e-05 -0.00158663
0.0140347 0.00247396 0.000108656
0.00247396 0.0096785 -0.000524361
0.000108656 -0.000524361 0.00104708
0.0171668 0.00139735 -2.76938e-05
0.00139735 0.00319971 8.54798e-05
-2.76938e-05 8.54798e-05 0.000130384
0.00447395 -0.00505223 4.40791e-07
-0.00505223 0.000620656 4.73999e-05
4.40791e-07 4.73999e-05 0.00158853
0.0100133 -0.00811641 0.000388651
-0.00811641 0.00472721 -0.000229419
0.000388651 -0.000229419 0.000706254
0.00717448 0.000538948 -7.69049e-05
0.000538948 0.00666365 -0.000522624
-7.69049e-05 -0.000522624 0.000738636
0.0168769 -0.000717129 -0.000275888
-0.000717129 0.000513719 0.000339809
-0.000275888 0.000339809 0.000656762
0.000324861 0.000205793 1.44237e-05
0.000205793 0.000116688 1.83145e-05
1.44237e-05 1.83145e-05 -9.80309e-05
0.000315139 -7.65502e-05 3.11213e-07
-7.65502e-05 0.000118803 -1.39307e-06
3.11213e-07 -1.39307e-06 -0.000136214
-8.41751e-05 2.38018e-05 6.16543e-06
2.38018e-05 -0.000218481 2.35028e-06
6.16543e-06 2.35028e-06 -0.000363032
0.000558515 0.000219132 1.178e-05
0.000219132 0.000108808 2.51805e-05
1.178e-05 2.51805e-05 -6.29914e-05
0.00094496 0.000278558 -1.94877e-06
0.000278558 0.000448965 -2.72233e-06
-1.94877e-06 -2.72233e-06 0.000212117
0.000889278 0.0001608 1.89177e-07
0.0001608 0.000437637 1.0612e-07
1.89177e-07 1.0612e-07 0.000235363
0.0011673 0.000228445 -2.16763e-06
0.000228445 0.00059373 9.99956e-09
-2.16763e-06 9.99956e-09 0.00035998
0.00112568 0.000274849 1.93908e-06
0.000274849 0.000586123 2.93114e-06
1.93908e-06 2.93114e-06 0.00034488
0.00213503 -0.00152543 0.000170329
-0.00152543 -0.000771554 -0.00010566
0.000170329 -0.00010566 -0.000202255
-0.000376841 -0.00104058 -1.41146e-05
-0.00104058 -0.0010214 -1.72956e-05
-1.41146e-05 -1.72956e-05 -0.00119231
-0.000447009 -3.1863e-05 -6.2151e-07
-3.1863e-05 -0.00035509 -2.01321e-05
-6.2151e-07 -2.01321e-05 -0.000610055
0.00102778 -0.000797792 2.49848e-05
-0.000797792 0.000605218 -2.21789e-05
2.49848e-05 -2.21789e-05 0.000254514
0.00349974 -0.000705808 -3.77415e-05
-0.000705808 0.0022258 8.57999e-06
-3.77415e-05 8.57999e-06 0.00182726
0.0015668 -0.000186012 1.69098e-05
-0.000186012 0.00109213 -2.97816e-05
1.69098e-05 -2.97816e-05 0.000682076
-0.000300776 0.000133712 2.05185e-06
0.000133712 -0.000172421 1.39076e-05
2.05185e-06 1.39076e-05 -0.000417759
0.00143514 -0.00249269 -1.70507e-05
-0.00249269 -0.000150388 -4.13057e-06
-1.70507e-05 -4.13057e-06 -0.000679236
0.00147724 -0.000201578 -4.45226e-06
-0.000201578 0.00114621 -1.53069e-06
-4.45226e-06 -1.53069e-06 0.000706019
-0.000613673 -0.000237797 -6.74521e-06
-0.000237797 -2.84958e-05 9.65906e-06
-6.74521e-06 9.65906e-06 -0.000555189
-0.000849744 -0.000712776 2.03884e-05
-0.000712776 -0.000538669 -2.09614e-06
2.03884e-05 -2.09614e-06 -0.000715762
-0.00034527 2.8517e-05 1.20526e-05
2.8517e-05 -0.000145276 -6.17408e-06
1.20526e-05 -6.17408e-06 -0.000385187
0.0019708 -0.00258439 -0.000106025
-0.00258439 0.00155622 -2.0884e-05
-0.000106025 -2.0884e-05 0.000433317
-0.000267434 -0.000713243 -1.9956e-05
-0.000713243 0.00020889 7.20751e-06
-1.9956e-05 7.20751e-06 -0.000336076
0.000263436 0.000138844 3.12973e-06
0.000138844 0.000617769 -9.32213e-06
3.12973e-06 -9.32213e-06 1.34131e-05
0.000906198 0.000137721 2.65744e-06
0.000137721 0.00107661 1.66984e-05
2.65744e-06 1.66984e-05 0.00041247
0.000169993 -3.39216e-05 0.000331186
-3.39216e-05 0.0049456 8.41445e-05
0.000331186 8.41445e-05 0.00156259
-0.000218292 9.09254e-05 0.000226667
9.09254e-05 0.00139375 -2.7864e-05
0.000226667 -2.7864e-05 -0.00433846
-0.0144288 -0.000657599 -0.000800165
-0.000657599 0.00648511 2.42604e-05
-0.000800165 2.42604e-05 0.000924644
0.00187198 0.000990267 2.11989e-05
0.000990267 0.00116503 5.37889e-06
2.11989e-05 5.37889e-06 0.000652199
-0.000401303 0.00137081 2.51746e-05
0.00137081 0.000112365 1.64817e-05
2.51746e-05 1.64817e-05 -0.000717325
0.00592432 0.00245574 0.000737512
0.00245574 0.00525946 0.000189617
0.000737512 0.000189617 0.000192315
0.00511511 0.00600281 0.000240621
0.00600281 0.00349853 0.000240364
0.000240621 0.000240364 -0.000511198
0.00164763 0.00414132 -0.000212108
0.00414132 0.00159604 -0.000202224
-0.000212108 -0.000202224 -0.000424161
0.00596529 -0.00206625 -0.000133699
-0.00206625 0.00632865 -0.000540628
-0.000133699 -0.000540628 0.000163544
0.00409773 0.000617591 0.00011283
0.000617591 0.00201203 0.000139716
0.00011283 0.000139716 -0.000815971
0.0107448 -0.000168869 -4.10059e-05
-0.000168869 -0.00428247 -0.000283324
-4.10059e-05 -0.000283324 -0.00328589
0.000685711 0.000950374 5.13892e-06
0.000950374 0.000763295 -1.00765e-06
5.13892e-06 -1.00765e-06 3.52658e-05
-0.00280748 0.000661916 7.87163e-06
0.000661916 0.00235694 8.0501e-06
7.87163e-06 8.0501e-06 -0.00100685
0.00718777 -0.000593799 0.000255732
-0.000593799 0.000561943 9.63697e-06
0.000255732 9.63697e-06 -0.00185467
-0.00199378 0.00111713 -3.03573e-05
0.00111713 0.000211206 -1.63621e-05
-3.03573e-05 -1.63621e-05 -0.0010406
0.0178787 0.00175904 3.25859e-05
0.00175904 0.00313316 -9.28067e-05
3.25859e-05 -9.28067e-05 4.13359e-05
0.00432207 0.00322302 0.000393256
0.00322302 0.00611842 0.000252883
0.000393256 0.000252883 -0.00101718
0.0150943 0.000662225 -0.000220054
0.000662225 0.00568062 -1.56404e-05
-0.000220054 -1.56404e-05 0.000242055
0.000697307 0.000945787 -3.19444e-06
0.000945787 0.000963844 -2.23898e-05
-3.19444e-06 -2.23898e-05 4.00755e-05
0.00399092 -2.04477e-05 6.27912e-05
-2.04477e-05 0.00263339 4.90916e-05
6.27912e-05 4.90916e-05 5.70365e-05
0.00392551 -0.00329373 0.00033925
-0.00329373 0.00450504 -0.000283046
0.00033925 -0.000283046 0.00152122
0.0345538 0.00777125 0.000548638
0.00777125 0.0145854 -0.000411094
0.000548638 -0.000411094 0.00679877
0.00993458 -0.00028564 -7.26211e-05
-0.00028564 0.00805115 0.000641019
-7.26211e-05 0.000641019 0.00206893
-0.00181495 0.0010444 -0.000194028
0.0010444 0.00110224 -0.000132168
-0.000194028 -0.000132168 -0.00026029
0.00111723 0.000383032 0.00018347
0.000383032 0.00581429 5.19966e-07
0.00018347 5.19966e-07 -0.00445733
0.000984254 0.000540068 4.84555e-06
0.000540068 0.000902548 1.42399e-05
4.84555e-06 1.42399e-05 0.000311934
0.000384253 0.000357268 7.32176e-06
0.000357268 0.00081523 6.7012e-06
7.32176e-06 6.7012e-06 0.000108597
0.000499017 -0.000132738 -9.35463e-06
-0.000132738 0.0012797 2.10013e-05
-9.35463e-06 2.10013e-05 0.000595653
-0.000910568 -3.11569e-05 9.29683e-06
-3.11569e-05 -0.000518442 -6.7792e-06
9.29683e-06 -6.7792e-06 -0.000799933
-0.000541295 7.65324e-06 5.83496e-06
7.65324e-06 0.000142423 6.17483e-06
5.83496e-06 6.17483e-06 -0.000414696
-0.000108605 2.00512e-05 -4.29483e-06
2.00512e-05 0.000636026 -5.68857e-06
-4.29483e-06 -5.68857e-06 -3.78662e-05
-0.000134311 -5.58369e-06 -9.12712e-08
-5.58369e-06 0.000190265 3.64474e-07
-9.12712e-08 3.64474e-07 -0.000161216
3.45608e-05 -9.20555e-05 2.44948e-06
-9.20555e-05 0.000586549 2.82898e-06
2.44948e-06 2.82898e-06 5.21895e-05
0.00322126 -0.000676704 1.47259e-05
-0.000676704 0.00209452 -1.33575e-05
1.47259e-05 -1.33575e-05 0.00170908
0.000386899 -7.51948e-05 -5.22594e-06
-7.51948e-05 0.000402149 6.44914e-06
-5.22594e-06 6.44914e-06 0.000133447
-0.0018578 2.84629e-05 6.58607e-06
2.84629e-05 -0.00112827 9.79218e-08
6.58607e-06 9.79218e-08 -0.00137956
0.00121007 -0.0004813 -3.60817e-06
-0.0004813 0.000637249 3.75038e-06
-3.60817e-06 3.75038e-06 0.00033033
-0.00337938 -5.35337e-05 2.46695e-05
-5.35337e-05 -0.00196482 1.88708e-05
2.46695e-05 1.88708e-05 -0.002384
-0.00102925 -0.00014103 3.65838e-05
-0.00014103 -0.000738146 -1.30159e-05
3.65838e-05 -1.30159e-05 -0.000814143
6.72969e-05 -0.000480055 -1.71596e-05
-0.000480055 -0.000200249 -2.68049e-06
-1.71596e-05 -2.68049e-06 -0.000572235
0.00165821 -0.000897419 -4.1293e-06
-0.000897419 0.000619311 -3.29849e-07
-4.1293e-06 -3.29849e-07 -8.66715e-05
0.00228231 -0.00113666 -1.47175e-05
-0.00113666 0.000829369 2.81783e-06
-1.47175e-05 2.81783e-06 0.000117815
0.00163363 -0.000486329 3.91472e-06
-0.000486329 0.000668599 -7.60277e-06
3.91472e-06 -7.60277e-06 0.000383597
0.00170937 -0.000819678 9.54561e-08
-0.000819678 0.000637302 1.26936e-06
9.54561e-08 1.26936e-06 8.59343e-05
0.00169339 -0.000985278 7.22702e-06
-0.000985278 0.000475484 -8.37558e-06
7.22702e-06 -8.37558e-06 -0.000152112
0.00168598 -0.000735079 5.28761e-06
-0.000735079 0.000636371 1.57272e-06
5.28761e-06 1.57272e-06 0.000129027
0.00164628 -0.000922076 3.69762e-06
-0.000922076 0.000522489 -5.21683e-06
3.69762e-06 -5.21683e-06 -7.90842e-05
0.0011267 -0.000285276 -1.73252e-06
-0.000285276 0.000346361 -4.07962e-06
-1.73252e-06 -4.07962e-06 5.21496e-05
0.000878782 -0.000451089 5.79897e-07
-0.000451089 0.000128386 9.0113e-08
5.79897e-07 9.0113e-08 -0.000213201
0.000469228 -0.000584951 2.00027e-06
-0.000584951 -6.77744e-05 -7.59426e-06
2.00027e-06 -7.59426e-06 -0.000499804
-0.000360722 -0.000126877 3.45674e-06
-0.000126877 -0.000349844 -2.34571e-06
3.45674e-06 -2.34571e-06 -0.000711226
0.000340166 -0.000248565 -9.01299e-07
-0.000248565 0.000122467 -6.77019e-07
-9.01299e-07 -6.77019e-07 -0.000261882
-0.000960327 -0.000160372 3.11114e-06
-0.000160372 -0.000808457 3.51376e-07
3.11114e-06 3.51376e-07 -0.00110142
0.00138207 -0.000311406 -4.05693e-06
-0.000311406 0.00077263 6.64284e-06
-4.05693e-06 6.64284e-06 0.000433745
0.000830303 -0.000226951 1.37033e-06
-0.000226951 0.000360331 7.42475e-07
1.37033e-06 7.42475e-07 5.83819e-05
-0.000169018 -6.07524e-05 3.55146e-06
-6.07524e-05 -0.000348732 1.10572e-05
3.55146e-06 1.10572e-05 -0.000547361
0.00130688 -0.000405253 -7.41251e-06
-0.000405253 0.000677233 -8.49442e-07
-7.41251e-06 -8.49442e-07 0.000415175
0.000585059 -7.78148e-05 -1.35605e-06
-7.78148e-05 0.000125253 -1.29309e-07
-1.35605e-06 -1.29309e-07 -2.67792e-05
0.000338324 3.95228e-05 3.18293e-06
3.95228e-05 -5.71344e-05 1.1611e-05
3.18293e-06 1.1611e-05 -0.000113721
0.0012137 -0.000142 -3.2338e-06
-0.000142 0.000556826 -5.80612e-06
-3.2338e-06 -5.80612e-06 0.000418235
0.000435593 -3.77845e-05 -2.09079e-06
-3.77845e-05 -5.5316e-06 1.00742e-07
-2.09079e-06 1.00742e-07 -4.87672e-05
0.00284427 9.72507e-05 2.37884e-06
9.72507e-05 0.00156764 3.53941e-06
2.37884e-06 3.53941e-06 0.00156741
0.000481719 -5.22884e-05 3.80206e-06
-5.22884e-05 2.98311e-05 -7.73542e-06
3.80206e-06 -7.73542e-06 -1.04087e-05
0.00182397 3.84009e-05 2.50025e-05
3.84009e-05 0.000895484 -1.27569e-06
2.50025e-05 -1.27569e-06 0.000898543
0.00278619 2.83273e-05 3.65649e-05
2.83273e-05 0.00152559 -6.45533e-06
3.65649e-05 -6.45533e-06 0.0015367
0.000183902 6.6817e-05 4.37079e-06
6.6817e-05 -0.000113656 1.24758e-06
4.37079e-06 1.24758e-06 -0.000284439
0.000102374 2.07618e-05 2.8182e-06
2.07618e-05 -0.000188439 -6.06209e-06
2.8182e-06 -6.06209e-06 -0.000298889
0.000432958 5.77971e-05 1.23773e-07
5.77971e-05 6.74209e-05 -9.37058e-07
1.23773e-07 -9.37058e-07 -0.000105455
0.000442144 1.29728e-05 3.42722e-06
1.29728e-05 -7.47299e-06 -6.70222e-06
3.42722e-06 -6.70222e-06 -3.24373e-05
5.26011e-05 3.03737e-05 -1.06753e-06
3.03737e-05 -0.000223769 -2.39016e-06
-1.06753e-06 -2.39016e-06 -0.000316198
0.00063688 8.71076e-05 8.70599e-07
8.71076e-05 0.000217185 5.33261e-06
8.70599e-07 5.33261e-06 4.97269e-05
0.00227064 -1.49398e-05 -2.09965e-05
-1.49398e-05 0.00118868 -5.80914e-06
-2.09965e-05 -5.80914e-06 0.00120308
0.000406584 8.98508e-06 -1.21477e-06
8.98508e-06 -3.28254e-05 -1.60326e-07
-1.21477e-06 -1.60326e-07 -5.15989e-05
-5.36796e-05 1.3921e-05 8.05783e-07
1.3921e-05 -0.000297289 6.12396e-06
8.05783e-07 6.12396e-06 -0.000373067
0.00215296 4.72426e-07 -4.20849e-06
4.72426e-07 0.00111154 9.78511e-08
-4.20849e-06 9.78511e-08 0.00112692
0.000391672 9.91208e-06 -2.99924e-06
9.91208e-06 -4.13228e-05 5.1385e-06
-2.99924e-06 5.1385e-06 -5.70298e-05
0.00212333 1.67431e-05 1.12935e-05
1.67431e-05 0.00109353 5.76224e-06
1.12935e-05 5.76224e-06 0.00110842
0.00105164 -0.000190093 0.000314442
-0.000190093 0.00540515 0.00018668
0.000314442 0.00018668 0.00289369
-0.000972971 -0.000746742 -7.58602e-05
-0.000746742 0.000495815 8.14331e-06
-7.58602e-05 8.14331e-06 -0.00508491
0.002102 0.00304356 -0.000511318
0.00304356 0.0120136 -0.000141033
-0.000511318 -0.000141033 0.0035013
0.000714693 0.000169804 -3.33007e-07
0.000169804 0.000260954 7.93396e-07
-3.33007e-07 7.93396e-07 6.11834e-05
-0.000466409 0.000125444 9.21212e-06
0.000125444 -0.000450581 4.40881e-06
9.21212e-06 4.40881e-06 -0.000691928
0.00205256 0.000325424 2.33213e-05
0.000325424 0.00113745 1.90679e-05
2.33213e-05 1.90679e-05 0.000928772
0.00958577 -0.00124597 -0.0003868
-0.00124597 0.00060022 0.000122139
-0.0003868 0.000122139 -0.00240818
0.00814084 -0.00301607 0.000196095
-0.00301607 0.00462245 4.6732e-05
0.000196095 4.6732e-05 0.00210745
0.00481006 -0.00436906 0.00036461
-0.00436906 0.00209846 -0.000363043
0.00036461 -0.000363043 -0.00310668
0.00896757 -0.00487289 -1.22641e-06
-0.00487289 -0.00159092 -7.35521e-05
-1.22641e-06 -7.35521e-05 0.00073591
0.00416102 -0.00814984 -0.0010662
-0.00814984 -0.0032267 5.13298e-05
-0.0010662 5.13298e-05 -0.00326389
0.031414 0.00750295 0.000818504
0.00750295 0.0170264 0.000342442
0.000818504 0.000342442 0.00613647
0.00928289 -0.00145701 0.000495219
-0.00145701 -0.0010256 -0.000343487
0.000495219 -0.000343487 -0.0035328
0.00286398 -0.00485967 6.51854e-06
-0.00485967 -0.000825316 1.35807e-05
6.51854e-06 1.35807e-05 0.000735941
0.00484199 -0.00831234 -0.000311598
-0.00831234 0.00266935 6.91439e-06
-0.000311598 6.91439e-06 -0.00272956
0.00851391 0.00478495 -0.000156745
0.00478495 0.00796099 -0.000424602
-0.000156745 -0.000424602 0.000600053
0.0139463 -0.000460042 -0.000174578
-0.000460042 -0.00171367 0.00018724
-0.000174578 0.00018724 -0.00112893
-0.000214976 -0.00390363 -0.000186516
-0.00390363 0.00117734 0.000102668
-0.000186516 0.000102668 0.000165976
0.00828962 -0.00436066 -0.000460502
-0.00436066 0.0062078 0.000299336
-0.000460502 0.000299336 -0.000141064
0.0089429 -0.000206363 5.06554e-05
-0.000206363 0.00411623 -0.000410789
5.06554e-05 -0.000410789 -0.00102435
0.0101469 0.000912765 2.30228e-05
0.000912765 -0.000966464 0.000209823
2.30228e-05 0.000209823 -0.00249232
-0.000438578 9.14134e-05 8.58301e-06
9.14134e-05 -0.000376994 2.66628e-05
8.58301e-06 2.66628e-05 -0.000531704
0.000666781 1.09022e-05 -1.72864e-06
1.09022e-05 0.000336572 6.60583e-07
-1.72864e-06 6.60583e-07 0.00011572
0.000951215 -0.000288859 1.30178e-05
-0.000288859 0.000515454 -1.09528e-05
1.30178e-05 -1.09528e-05 0.000265044
0.00051179 0.000197129 -7.39028e-07
0.000197129 8.78471e-05 2.9356e-06
-7.39028e-07 2.9356e-06 -8.60812e-05
0.000774253 0.000254409 -1.42694e-06
0.000254409 0.000349513 -1.04035e-05
-1.42694e-06 -1.04035e-05 0.000117349
0.00120636 0.000255617 -8.39733e-06
0.000255617 0.000615839 -6.61956e-06
-8.39733e-06 -6.61956e-06 0.000383133
0.000884586 -0.00211451 8.22975e-05
-0.00211451 -0.000182316 -3.38762e-05
8.22975e-05 -3.38762e-05 -0.000567086
-0.000542644 -0.000657555 1.2558e-05
-0.000657555 -0.000465652 -2.87388e-05
1.2558e-05 -2.87388e-05 -0.000564651
0.000137194 0.000261209 -7.95812e-06
0.000261209 9.46598e-05 -2.83458e-05
-7.95812e-06 -2.83458e-05 -0.000192552
0.00191418 -0.000527971 5.47381e-05
-0.000527971 0.00129332 -3.11509e-05
5.47381e-05 -3.11509e-05 0.000835326
0.00317073 -0.00015705 9.51308e-06
-0.00015705 0.00211967 -3.0075e-05
9.51308e-06 -3.0075e-05 0.00171458
-0.000525577 7.53743e-05 1.06822e-05
7.53743e-05 -0.000230093 3.12856e-06
1.06822e-05 3.12856e-06 -0.000488651
-0.000332945 2.26306e-05 3.25457e-06
2.26306e-05 0.000264158 1.23281e-05
3.25457e-06 1.23281e-05 -0.000323158
0.00166959 -0.00236692 -6.33011e-05
-0.00236692 0.00141904 -9.36634e-07
-6.33011e-05 -9.36634e-07 0.000273316
0.000375609 -7.3342e-05 -5.36204e-06
-7.3342e-05 0.000786285 -1.48462e-06
-5.36204e-06 -1.48462e-06 0.000105975
4.1157e-05 -0.000542478 -3.51529e-06
-0.000542478 0.000680468 3.09275e-06
-3.51529e-06 3.09275e-06 -5.59584e-05
0.00058635 0.000260566 2.40216e-05
0.000260566 0.00072695 -4.33947e-05
2.40216e-05 -4.33947e-05 0.000253934
-0.00392291 -0.000277991 -0.000171097
-0.000277991 -0.000380314 1.36655e-05
-0.000171097 1.36655e-05 -0.00156195
-0.000299442 -0.000252758 -2.83381e-05
-0.000252758 0.00108234 -1.94792e-05
-2.83381e-05 -1.94792e-05 0.000226801
-0.00391646 -0.000130377 -2.83045e-05
-0.000130377 -0.00132259 -1.32712e-05
-2.83045e-05 -1.32712e-05 -0.00210259
0.0014278 0.000721896 4.34667e-07
0.000721896 1.66327e-05 -6.52851e-06
4.34667e-07 -6.52851e-06 -0.00465186
-0.00157518 0.00105063 0.000208539
0.00105063 0.00459877 1.32641e-05
0.000208539 1.32641e-05 0.00130583
-0.00209808 0.000150805 0.000500666
0.000150805 0.000504938 4.99752e-05
0.000500666 4.99752e-05 -0.00504336
-0.000305155 0.000955848 9.82777e-06
0.000955848 0.000124724 2.55862e-05
9.82777e-06 2.55862e-05 -0.000651659
0.000928197 0.00168844 -1.01743e-05
0.00168844 0.00123224 -3.78482e-05
-1.01743e-05 -3.78482e-05 1.30435e-06
-0.00215252 0.000689876 -0.000252304
0.000689876 0.00278528 -7.46785e-05
-0.000252304 -7.46785e-05 -0.00071353
-0.00391627 0.00130449 0.000245833
0.00130449 0.00451804 0.000268144
0.000245833 0.000268144 -0.00207462
0.0057461 0.000600682 -0.000220895
0.000600682 -0.000922055 -0.000530995
-0.000220895 -0.000530995 -0.00719809
0.00690763 0.000165619 0.000122471
0.000165619 0.000128607 1.30056e-05
0.000122471 1.30056e-05 -0.00162293
0.00836494 -0.00125414 -0.000488375
-0.00125414 -0.00134186 0.00031671
-0.000488375 0.00031671 -0.00369472
0.000704271 0.000806165 -1.16523e-05
0.000806165 0.00102062 -1.39482e-06
-1.16523e-05 -1.39482e-06 0.000210853
0.0021809 0.000545708 7.91068e-05
0.000545708 0.00259028 4.767e-05
7.91068e-05 4.767e-05 7.52974e-05
0.00718035 -0.0021295 -0.000185807
-0.0021295 0.00428488 -3.28707e-05
-0.000185807 -3.28707e-05 0.00196434
-6.10373e-05 0.0011517 -0.000166995
0.0011517 0.00286119 -2.62284e-05
-0.000166995 -2.62284e-05 0.000384809
0.0243892 0.00742926 -0.000383844
0.00742926 0.0112499 -0.000555684
-0.000383844 -0.000555684 0.00387314
0.0119759 0.00387286 0.000110328
0.00387286 0.00899179 0.000469391
0.000110328 0.000469391 0.000696568
0.00738593 0.00227768 0.000100632
0.00227768 0.00796642 9.66732e-07
0.000100632 9.66732e-07 0.000165615
-0.000151999 6.87791e-05 2.82485e-05
6.87791e-05 0.00167063 -1.36014e-05
2.82485e-05 -1.36014e-05 -2.73825e-05
0.00125161 0.00013341 -0.0003158
0.00013341 0.00658955 -7.46115e-06
-0.0003158 -7.46115e-06 0.00377947
0.000601032 -0.00103614 0.000855544
-0.00103614 0.000674533 -0.000284162
0.000855544 -0.000284162 -0.00547288
0.0372878 0.0149745 -9.25223e-05
0.0149745 0.0256379 -0.000156947
-9.25223e-05 -0.000156947 0.0136048
0.0169201 0.00592846 0.000620865
0.00592846 0.00830558 0.00126783
0.000620865 0.00126783 -0.00143973
0.011555 -0.00603877 0.000639827
-0.00603877 0.00786556 -0.000397638
0.000639827 -0.000397638 -0.000535771
0.000361689 -0.000804183 -9.78258e-05
-0.000804183 0.0035701 5.53719e-05
-9.78258e-05 5.53719e-05 0.00188936
0.000721713 0.000342501 -7.6242e-06
0.000342501 0.00102291 2.36758e-06
-7.6242e-06 2.36758e-06 0.000385207
-0.000202561 -0.000107524 -2.12042e-06
-0.000107524 0.000689983 -7.27423e-06
-2.12042e-06 -7.27423e-06 -7.57117e-05
0.000847659 -0.000763693 6.4926e-05
-0.000763693 0.000983915 -2.27078e-05
6.4926e-05 -2.27078e-05 0.000126544
0.000221547 -6.5421e-05 -1.97227e-06
-6.5421e-05 0.000347226 1.2364e-05
-1.97227e-06 1.2364e-05 5.61631e-05
-0.000304985 -8.35656e-05 9.51246e-06
-8.35656e-05 0.000363802 -1.87849e-05
9.51246e-06 -1.87849e-05 -0.00016555
0.0010782 -0.000442082 -6.14766e-06
-0.000442082 0.000962311 -2.90865e-07
-6.14766e-06 -2.90865e-07 0.000577694
0.00170926 -0.000982397 3.15079e-05
-0.000982397 0.00101148 -1.66015e-05
3.15079e-05 -1.66015e-05 0.000395661
9.23609e-05 -0.000396537 6.93915e-06
-0.000396537 2.88363e-05 -1.45222e-06
6.93915e-06 -1.45222e-06 -0.000355844
0.00147406 -0.000811804 2.01175e-05
-0.000811804 0.000672283 -7.18757e-06
2.01175e-05 -7.18757e-06 0.00012809
0.000677429 -0.000826033 5.03892e-06
-0.000826033 0.000262535 -5.37041e-06
5.03892e-06 -5.37041e-06 -0.000655478
0.000608736 -0.000523883 -5.18429e-06
-0.000523883 9.09844e-05 -2.70498e-07
-5.18429e-06 -2.70498e-07 -0.000234509
0.0024642 -0.00102155 -2.00169e-06
-0.00102155 0.00104825 -2.85889e-07
-2.00169e-06 -2.85889e-07 0.000331277
0.00171786 -0.0011585 -2.05962e-05
-0.0011585 0.00044017 -1.20913e-06
-2.05962e-05 -1.20913e-06 -0.000385937
0.00273726 -0.00138359 -1.61002e-05
-0.00138359 0.000812065 -9.68203e-07
-1.61002e-05 -9.68203e-07 5.92744e-05
0.00235449 -0.00125675 -6.30216e-06
-0.00125675 0.000796677 -1.53553e-06
-6.30216e-06 -1.53553e-06 6.2095e-05
0.00227024 -0.00113256 -5.12061e-06
-0.00113256 0.000811928 4.99611e-07
-5.12061e-06 4.99611e-07 0.00010238
0.00150978 -0.000804921 2.32631e-06
-0.000804921 0.000490997 -6.21539e-06
2.32631e-06 -6.21539e-06 -6.20849e-05
0.0020801 -0.000993561 1.26771e-05
-0.000993561 0.000818126 -1.06882e-05
1.26771e-05 -1.06882e-05 0.000182556
0.00182503 -0.00101738 1.01583e-05
-0.00101738 0.000549541 -3.41434e-06
1.01583e-05 -3.41434e-06 -8.83887e-05
0.000821009 -0.000397639 -1.87692e-06
-0.000397639 8.92058e-05 -3.2093e-06
-1.87692e-06 -3.2093e-06 -0.000268732
0.00204863 -0.000769718 4.02118e-06
-0.000769718 0.000849624 -3.9638e-06
4.02118e-06 -3.9638e-06 0.000338819
0.00064354 -0.000779932 -6.58361e-06
-0.000779932 -9.24747e-05 -1.24583e-06
-6.58361e-06 -1.24583e-06 -0.000654421
-0.000180774 5.44817e-06 -1.20213e-06
5.44817e-06 -0.000342158 -3.39738e-06
-1.20213e-06 -3.39738e-06 -0.000666882
0.000661662 -0.000266637 8.26719e-07
-0.000266637 5.292e-05 2.59863e-07
8.26719e-07 2.59863e-07 -0.000245901
0.000779054 -0.000451909 -9.47e-06
-0.000451909 5.29315e-05 1.13958e-06
-9.47e-06 1.13958e-06 -0.00030166
-0.000184652 -0.000167206 7.92549e-07
-0.000167206 -0.000332919 1.06856e-05
7.92549e-07 1.06856e-05 -0.000607129
0.000870202 -0.00026323 -1.32884e-07
-0.00026323 0.000418219 4.06076e-07
-1.32884e-07 4.06076e-07 6.17208e-05
-0.00170649 -0.000306715 -1.67537e-06
-0.000306715 -0.00116382 4.02402e-06
-1.67537e-06 4.02402e-06 -0.00154167
0.00186776 -0.000361202 -3.32814e-06
-0.000361202 0.00102191 -5.19844e-07
-3.32814e-06 -5.19844e-07 0.000716095
0.00080805 -0.000143661 -2.80498e-07
-0.000143661 0.000268474 3.19313e-07
-2.80498e-07 3.19313e-07 7.14355e-05
0.000265462 -7.28932e-06 1.28844e-06
-7.28932e-06 -0.000102534 1.5594e-05
1.28844e-06 1.5594e-05 -0.000174248
0.00132329 -0.000143133 -9.22035e-07
-0.000143133 0.000596647 -1.00115e-05
-9.22035e-07 -1.00115e-05 0.000439756
0.000392766 -1.40285e-05 -5.97152e-06
-1.40285e-05 -2.59088e-05 -7.00227e-07
-5.97152e-06 -7.00227e-07 -8.25572e-05
0.00335592 0.000103865 -5.09312e-05
0.000103865 0.00191078 6.75523e-06
-5.09312e-05 6.75523e-06 0.00191012
0.00051234 -4.67304e-05 3.25431e-06
-4.67304e-05 3.90723e-05 -9.96476e-06
3.25431e-06 -9.96476e-06 -4.31864e-06
0.00199731 6.15445e-05 3.04417e-05
6.15445e-05 0.00101018 -5.92215e-07
3.04417e-05 -5.92215e-07 0.0010088
0.00287351 4.74763e-05 4.38611e-05
4.74763e-05 0.00158197 -6.26068e-06
4.38611e-05 -6.26068e-06 0.00159158
0.00114119 0.00017323 3.03897e-06
0.00017323 0.000529113 -1.1743e-05
3.03897e-06 -1.1743e-05 0.000324024
0.000494809 8.44452e-05 4.16452e-06
8.44452e-05 7.21145e-05 -5.4092e-06
4.16452e-06 -5.4092e-06 -5.43153e-05
0.000437928 7.80304e-05 -4.66995e-07
7.80304e-05 7.99729e-05 -4.10827e-07
-4.66995e-07 -4.10827e-07 -0.000111534
0.000426971 3.11112e-05 2.24197e-07
3.11112e-05 -1.10313e-05 -8.65371e-06
2.24197e-07 -8.65371e-06 -4.59668e-05
0.000219458 5.29959e-05 -2.59587e-06
5.29959e-05 -0.000108891 -2.78811e-06
-2.59587e-06 -2.78811e-06 -0.000219432
0.000576378 9.83797e-05 -2.76547e-06
9.83797e-05 0.000169453 -2.39588e-06
-2.76547e-06 -2.39588e-06 -3.77973e-06
0.00238983 -3.18986e-05 -2.44668e-05
-3.18986e-05 0.00126814 -6.13968e-06
-2.44668e-05 -6.13968e-06 0.00128042
0.000382887 2.41254e-06 1.1373e-06
2.41254e-06 -4.60193e-05 -3.61458e-07
1.1373e-06 -3.61458e-07 -7.05136e-05
8.92612e-05 2.32076e-05 -2.17719e-06
2.32076e-05 -0.000198245 2.93535e-06
-2.17719e-06 2.93535e-06 -0.000295001
0.00221557 -1.46748e-05 -6.25004e-06
-1.46748e-05 0.00115239 1.32048e-07
-6.25004e-06 1.32048e-07 0.00116712
0.000410012 2.54218e-06 -5.22659e-06
2.54218e-06 -3.15027e-05 5.70268e-06
-5.22659e-06 5.70268e-06 -4.9679e-05
0.00218718 1.87236e-06 1.61676e-05
1.87236e-06 0.00113439 5.74859e-06
1.61676e-05 5.74859e-06 0.00114956
0.00304222 -0.000270022 -0.000212338
-0.000270022 0.00220059 6.68531e-06
-0.000212338 6.68531e-06 -0.000434518
-0.00196694 6.68436e-05 0.000189054
6.68436e-05 0.0049278 -4.37813e-06
0.000189054 -4.37813e-06 0.00161708
-0.000376982 -0.000456402 0.00012889
-0.000456402 0.00155372 -0.000296911
0.00012889 -0.000296911 -0.00484433
-0.000585288 -4.49037e-05 4.62753e-06
-4.49037e-05 -0.000420049 -6.72808e-06
4.62753e-06 -6.72808e-06 -0.000804947
0.00494252 0.000528649 1.72182e-05
0.000528649 0.00297023 1.63763e-05
1.72182e-05 1.63763e-05 0.00268309
0.000244629 0.000154041 -6.97118e-06
0.000154041 -3.7362e-05 -7.59019e-06
-6.97118e-06 -7.59019e-06 -0.000233393
-0.000267831 7.685e-05 8.20021e-07
7.685e-05 -0.000344192 -3.87387e-06
8.20021e-07 -3.87387e-06 -0.000585729
4.32689e-05 9.86791e-05 1.66925e-07
9.86791e-05 -0.000215864 -3.28736e-06
1.66925e-07 -3.28736e-06 -0.000359534
0.000835953 0.000161815 8.2189e-06
0.000161815 0.000348124 1.23447e-05
8.2189e-06 1.23447e-05 0.000133255
2.46526e-05 0.000111253 1.80273e-05
0.000111253 -0.000140375 6.01699e-06
1.80273e-05 6.01699e-06 -0.000260691
0.00515627 0.00208173 0.000273585
0.00208173 0.000488373 0.000243459
0.000273585 0.000243459 -0.00232457
0.00806967 -0.000440607 -0.000144681
-0.000440607 0.00070503 3.87406e-05
-0.000144681 3.87406e-05 -0.00241919
0.00600287 -0.00104132 0.000520452
-0.00104132 0.00530174 -0.000133201
0.000520452 -0.000133201 0.00198832
0.0111587 0.000145187 -3.98761e-05
0.000145187 -0.00391946 0.000212385
-3.98761e-05 0.000212385 -0.00320605
0.00687346 -0.00614739 -0.000167411
-0.00614739 0.000668174 3.63381e-05
-0.000167411 3.63381e-05 0.00145547
-0.000137533 -0.00692499 -0.000487822
-0.00692499 0.00226883 0.000194172
-0.000487822 0.000194172 -0.00488983
0.0258285 0.00462379 0.000324995
0.00462379 0.0102431 -0.000310392
0.000324995 -0.000310392 0.00304481
0.00306549 -0.00526678 -0.000104061
-0.00526678 0.00102133 6.35431e-05
-0.000104061 6.35431e-05 0.000925635
0.000136271 -0.00192613 -0.000116986
-0.00192613 0.00615151 7.31923e-05
-0.000116986 7.31923e-05 -0.00277794
0.0153889 0.000230906 0.000396815
0.000230906 0.00591521 -4.2002e-05
0.000396815 -4.2002e-05 0.00013747
0.0199091 -0.00199274 -7.54614e-05
-0.00199274 0.00335933 9.17392e-08
-7.54614e-05 9.17392e-08 0.00267175
-0.00592429 -0.000693359 -0.000232513
-0.000693359 -0.000586322 0.000245999
-0.000232513 0.000245999 -0.00145834
0.000850353 0.000723021 -0.000246689
0.000723021 0.00606067 -0.000215729
-0.000246689 -0.000215729 -0.00287581
0.0104631 -0.00637757 -5.8977e-05
-0.00637757 0.00359669 -0.000271519
-5.8977e-05 -0.000271519 -0.00486024
0.0214577 -0.00271538 0.000560866
-0.00271538 0.0100156 -0.000801691
0.000560866 -0.000801691 0.00493769
0.000341385 7.2553e-05 3.81034e-05
7.2553e-05 0.00053829 -1.1015e-05
3.81034e-05 -1.1015e-05 5.20707e-05
0.000607299 0.0002073 -1.57945e-06
0.0002073 0.000315691 -3.8869e-06
-1.57945e-06 -3.8869e-06 0.000138275
0.000488282 -1.74643e-05 8.29689e-07
-1.74643e-05 0.000241155 -1.10936e-05
8.29689e-07 -1.10936e-05 7.436e-06
0.000971882 0.000186456 -6.70091e-06
0.000186456 0.000412855 -1.53554e-05
-6.70091e-06 -1.53554e-05 0.000220545
0.000767185 -0.00211339 7.40029e-05
-0.00211339 0.000866489 2.61218e-05
7.40029e-05 2.61218e-05 -0.000276598
0.000680741 -0.000545936 -7.40982e-06
-0.000545936 0.00122985 -8.98731e-06
-7.40982e-06 -8.98731e-06 0.000361586
0.000279566 8.92052e-05 -4.01397e-05
8.92052e-05 0.000246192 -7.48579e-06
-4.01397e-05 -7.48579e-06 9.98866e-06
0.00127896 -0.000273514 1.65849e-05
-0.000273514 0.00102875 -4.97003e-05
1.65849e-05 -4.97003e-05 0.000609685
7.77963e-05 -6.92456e-05 -1.60276e-05
-6.92456e-05 0.000667482 1.11962e-05
-1.60276e-05 1.11962e-05 6.77883e-05
0.000142998 0.000147289 -4.09704e-07
0.000147289 0.000350931 1.1118e-05
-4.09704e-07 1.1118e-05 -5.42864e-05
0.00102435 -0.000156636 1.8712e-06
-0.000156636 0.00126674 -2.22357e-08
1.8712e-06 -2.22357e-08 0.000633728
0.00067732 -0.00133704 4.54674e-05
-0.00133704 0.00189818 -1.65401e-05
4.54674e-05 -1.65401e-05 7.04762e-05
0.000553772 -0.000173178 -7.02797e-06
-0.000173178 0.00156875 -1.85124e-05
-7.02797e-06 -1.85124e-05 0.000780733
0.000523753 0.000139632 1.32515e-05
0.000139632 0.000586845 -2.17441e-05
1.32515e-05 -2.17441e-05 0.000196263
-0.00153724 8.55396e-05 -0.000251382
8.55396e-05 0.00240417 2.35689e-06
-0.000251382 2.35689e-06 -0.000121074
0.000921342 0.000528001 1.72346e-05
0.000528001 0.00144045 -7.27763e-06
1.72346e-05 -7.27763e-06 0.000738096
-0.00399572 -0.000206047 -7.03672e-05
-0.000206047 0.00459665 -0.000118088
-7.03672e-05 -0.000118088 0.00159075
0.00264476 0.000207699 4.27462e-05
0.000207699 0.0014951 2.28318e-05
4.27462e-05 2.28318e-05 -0.00160974
-0.00451036 0.00174199 -0.000130769
0.00174199 0.00396295 -0.000109175
-0.000130769 -0.000109175 0.000140465
0.000538781 0.000610645 -1.25058e-05
0.000610645 0.00108011 1.93172e-06
-1.25058e-05 1.93172e-06 0.000392058
-0.00129013 0.00144552 0.000308211
0.00144552 0.00136747 0.000121195
0.000308211 0.000121195 -9.27557e-05
0.00110514 6.35363e-05 0.000105898
6.35363e-05 0.00291162 -1.24842e-05
0.000105898 -1.24842e-05 0.00061111
0.00624688 -0.00200462 0.000415848
-0.00200462 0.00665377 -0.000241326
0.000415848 -0.000241326 -0.00344543
0.0272782 0.00434402 -0.000418317
0.00434402 0.0105906 0.000294356
-0.000418317 0.000294356 0.00260518
0.00332634 -0.00100977 -0.000505862
-0.00100977 0.00362419 6.00375e-05
-0.000505862 6.00375e-05 0.000588081
0.0173586 0.00617517 -0.000453016
0.00617517 0.0127924 -0.000337912
-0.000453016 -0.000337912 0.00675558
0.000693824 0.000251617 -6.04694e-05
0.000251617 0.00189755 5.45323e-06
-6.04694e-05 5.45323e-06 0.000256673
-0.000803666 -0.00073762 -0.000172758
-0.00073762 0.00481477 4.35731e-06
-0.000172758 4.35731e-06 0.00226324
0.00193985 -0.00237188 0.000302148
-0.00237188 0.00245026 -6.79374e-05
0.000302148 -6.79374e-05 -0.00357989
-0.00395235 7.14888e-05 9.70165e-05
7.14888e-05 0.000903821 4.5748e-05
9.70165e-05 4.5748e-05 -0.000179747
0.0329874 0.0181922 0.000925799
0.0181922 0.0230856 -0.000285839
0.000925799 -0.000285839 0.0101004
0.0144414 0.00367175 -0.000118936
0.00367175 0.0102762 0.00051689
-0.000118936 0.00051689 0.0011909
-0.00081207 -0.00208049 0.000348037
-0.00208049 0.00474614 -0.000229119
0.000348037 -0.000229119 -0.00462459
-0.0023028 -0.000889888 -4.24894e-05
-0.000889888 0.000686853 -5.23271e-05
-4.24894e-05 -5.23271e-05 -0.00108346
0.0018436 -0.00147591 0.000465162
-0.00147591 0.000239688 -0.000118445
0.000465162 -0.000118445 -0.00493039
0.00442308 0.00463413 -0.00268601
0.00463413 0.0136343 0.000253388
-0.00268601 0.000253388 0.00441359
0.026463 0.0101189 -0.000556639
0.0101189 0.0119548 0.000448784
-0.000556639 0.000448784 0.00215496
0.00646243 -0.00617896 -0.000342697
-0.00617896 0.00418704 0.000176178
-0.000342697 0.000176178 0.000181588
0.00358482 -0.00322643 9.94602e-05
-0.00322643 0.00482041 4.37755e-05
9.94602e-05 4.37755e-05 0.00274915
-0.00012143 -0.000110287 1.2086e-05
-0.000110287 0.000666676 -2.16932e-05
1.2086e-05 -2.16932e-05 -0.000169474
0.000361877 -0.000573151 -7.27192e-06
-0.000573151 0.000846972 3.14913e-07
-7.27192e-06 3.14913e-07 -7.4091e-05
0.000103753 -0.00133122 -1.11657e-06
-0.00133122 0.000345699 1.22064e-05
-1.11657e-06 1.22064e-05 -0.000500654
-0.000828911 -0.000232003 2.00753e-06
-0.000232003 -4.13417e-06 9.62412e-06
2.00753e-06 9.62412e-06 -0.000399768
-4.3452e-05 -0.000654087 -6.92313e-06
-0.000654087 0.000210251 3.96515e-06
-6.92313e-06 3.96515e-06 -0.000339957
0.00202075 -0.00112015 3.52489e-05
-0.00112015 0.000826315 -2.24712e-05
3.52489e-05 -2.24712e-05 0.000175325
0.00609467 -0.00155108 -9.52214e-06
-0.00155108 0.00317119 7.37376e-06
-9.52214e-06 7.37376e-06 0.0025119
0.00260291 -0.00114673 1.25891e-05
-0.00114673 0.0012261 -4.49638e-06
1.25891e-05 -4.49638e-06 0.000299503
0.00271847 -0.0014749 2.10623e-06
-0.0014749 0.000889239 -2.13571e-05
2.10623e-06 -2.13571e-05 -5.89951e-05
0.0024131 -0.00101586 -4.75409e-06
-0.00101586 0.000979365 -7.28639e-06
-4.75409e-06 -7.28639e-06 0.000278143
0.00233248 -0.00126042 9.77308e-07
-0.00126042 0.00076607 -2.8129e-06
9.77308e-07 -2.8129e-06 -8.79646e-05
0.00312572 -0.00150121 -8.46708e-06
-0.00150121 0.00102588 -1.13977e-05
-8.46708e-06 -1.13977e-05 0.000198017
0.00260916 -0.0010495 -2.17713e-06
-0.0010495 0.000488622 -7.00068e-06
-2.17713e-06 -7.00068e-06 -2.24535e-05
0.00322463 -0.00140842 -9.71781e-06
-0.00140842 0.001056 -2.33275e-06
-9.71781e-06 -2.33275e-06 0.000332724
0.00303872 -0.00142543 -4.84184e-06
-0.00142543 0.000974845 -4.5806e-07
-4.84184e-06 -4.5806e-07 0.000209093
0.00248585 -0.00125528 9.38521e-06
-0.00125528 0.000894002 -8.79614e-06
9.38521e-06 -8.79614e-06 0.00017865
0.00198429 -0.00117681 3.82093e-06
-0.00117681 0.000588637 -1.22336e-06
3.82093e-06 -1.22336e-06 -0.000112579
0.00228608 -0.00112945 1.09669e-05
-0.00112945 0.000799504 -3.44335e-06
1.09669e-05 -3.44335e-06 9.29369e-05
0.00173341 -0.000824239 1.74056e-05
-0.000824239 0.000676828 -2.70418e-06
1.74056e-05 -2.70418e-06 8.5532e-05
0.00185935 -0.000968941 -1.61937e-06
-0.000968941 0.000676989 -1.60896e-06
-1.61937e-06 -1.60896e-06 4.81981e-05
0.00179671 -0.00102792 -1.94366e-06
-0.00102792 0.00053029 6.54214e-06
-1.94366e-06 6.54214e-06 -0.000112041
0.00211147 -0.000300747 2.18509e-06
-0.000300747 0.00107382 -2.9304e-06
2.18509e-06 -2.9304e-06 0.000725174
0.000837317 -0.000309545 -7.50587e-06
-0.000309545 0.000162934 3.98548e-06
-7.50587e-06 3.98548e-06 -0.00019456
0.00278776 -0.000833536 -9.42919e-06
-0.000833536 0.0013039 -5.03447e-06
-9.42919e-06 -5.03447e-06 0.000785593
-9.25628e-05 -0.000145703 -7.5361e-07
-0.000145703 -0.000347014 1.452e-06
-7.5361e-07 1.452e-06 -0.000635136
0.000426527 -0.000116876 -1.10176e-06
-0.000116876 2.57491e-05 9.50198e-07
-1.10176e-06 9.50198e-07 -0.000296017
0.000545562 -0.000151397 5.84209e-06
-0.000151397 3.70001e-05 2.311e-06
5.84209e-06 2.311e-06 -0.000295365
0.000272713 -7.71739e-05 -1.54053e-05
-7.71739e-05 -0.000119441 2.10248e-05
-1.54053e-05 2.10248e-05 -0.000205099
0.000912588 -0.000175591 1.22318e-06
-0.000175591 0.000338539 9.61195e-07
1.22318e-06 9.61195e-07 8.42805e-05
0.00190127 -0.000405799 -2.79137e-06
-0.000405799 0.0010613 4.09814e-07
-2.79137e-06 4.09814e-07 0.000707176
0.00117907 -0.000157448 -9.99584e-07
-0.000157448 0.000497935 -1.03328e-05
-9.99584e-07 -1.03328e-05 0.000302987
0.000399715 -3.66405e-05 -1.36937e-07
-3.66405e-05 -2.80434e-05 -4.4384e-07
-1.36937e-07 -4.4384e-07 -9.61182e-05
0.00371915 0.000140976 -5.53357e-05
0.000140976 0.00216137 7.52926e-06
-5.53357e-05 7.52926e-06 0.00215104
0.000420957 -4.4327e-05 4.54326e-06
-4.4327e-05 -1.53618e-05 -1.28433e-05
4.54326e-06 -1.28433e-05 -6.79038e-05
0.003342 0.00010386 9.04621e-06
0.00010386 0.00190163 9.74808e-07
9.04621e-06 9.74808e-07 0.00190084
0.00295356 6.97215e-05 4.90087e-05
6.97215e-05 0.00163653 -6.43151e-06
4.90087e-05 -6.43151e-06 0.00164354
0.00347408 0.00012193 1.2802e-05
0.00012193 0.00221369 -6.94558e-06
1.2802e-05 -6.94558e-06 0.00178012
0.00255583 0.000238735 1.22724e-05
0.000238735 0.00160042 -2.4632e-05
1.22724e-05 -2.4632e-05 0.00124377
0.000609514 8.81417e-05 6.04251e-06
8.81417e-05 0.000140864 -9.17014e-06
6.04251e-06 -9.17014e-06 -1.18975e-06
0.000710081 0.000177496 2.26865e-07
0.000177496 0.000270496 1.61153e-06
2.26865e-07 1.61153e-06 5.32691e-05
0.000443993 -2.06725e-05 6.37641e-06
-2.06725e-05 3.30313e-06 -1.03273e-05
6.37641e-06 -1.03273e-05 -3.87081e-05
0.000593561 9.29629e-05 -1.46746e-07
9.29629e-05 0.000140993 -3.03356e-07
-1.46746e-07 -3.03356e-07 1.31605e-05
0.000710139 9.46204e-05 -7.39481e-06
9.46204e-05 0.000250177 -2.4198e-06
-7.39481e-06 -2.4198e-06 6.25587e-05
0.00272043 -5.03803e-05 -3.43627e-05
-5.03803e-05 0.00148895 -6.71888e-06
-3.43627e-05 -6.71888e-06 0.00149765
0.000425938 3.61179e-06 -2.48372e-06
3.61179e-06 -1.23711e-05 -3.30742e-07
-2.48372e-06 -3.30742e-07 -4.58871e-05
0.000549971 8.30079e-05 -6.11878e-06
8.30079e-05 0.000112096 2.55951e-06
-6.11878e-06 2.55951e-06 -9.56612e-07
0.00241209 -3.32071e-05 -5.92255e-06
-3.32071e-05 0.00128281 3.44552e-07
-5.92255e-06 3.44552e-07 0.00129497
0.000419612 1.4895e-06 -4.67729e-06
1.4895e-06 -2.38454e-05 6.28093e-06
-4.67729e-06 6.28093e-06 -4.73408e-05
0.00223314 -1.47161e-05 1.91174e-05
-1.47161e-05 0.00116364 5.75979e-06
1.91174e-05 5.75979e-06 0.00117829
-0.00219852 0.00121318 -5.07486e-05
0.00121318 0.00320722 -0.000155014
-5.07486e-05 -0.000155014 -0.000236544
0.00479974 -0.00042317 -4.06098e-05
-0.00042317 0.00337761 -7.69859e-05
-4.06098e-05 -7.69859e-05 0.000954874
0.000320428 -0.00053387 8.03214e-05
-0.00053387 0.00490777 -8.08923e-05
8.03214e-05 -8.08923e-05 0.00206314
0.000494116 2.14349e-06 2.54406e-06
2.14349e-06 0.000373858 -8.6292e-06
2.54406e-06 -8.6292e-06 -0.000108131
5.78554e-05 0.000322725 1.31457e-05
0.000322725 -8.62885e-05 -9.20941e-06
1.31457e-05 -9.20941e-06 -0.000357089
-0.00235297 8.86802e-05 3.50151e-05
8.86802e-05 -0.0018523 -2.51116e-05
3.50151e-05 -2.51116e-05 -0.00201091
-0.0028839 -3.12958e-05 -3.20713e-06
-3.12958e-05 -0.00170962 2.76758e-05
-3.20713e-06 2.76758e-05 -0.00219192
0.00204397 0.000492045 1.18807e-05
0.000492045 0.00109115 -5.31764e-06
1.18807e-05 -5.31764e-06 0.000768463
0.000446449 6.9839e-05 -8.64919e-06
6.9839e-05 0.000114669 1.43024e-06
-8.64919e-06 1.43024e-06 -0.00014491
9.10526e-05 0.000112613 -1.31657e-05
0.000112613 -0.000151489 -1.4456e-05
-1.31657e-05 -1.4456e-05 -0.000298876
0.00124453 -5.06966e-06 8.51423e-06
-5.06966e-06 0.000605957 2.40515e-06
8.51423e-06 2.40515e-06 0.000392861
0.000878511 0.000188729 -4.01062e-06
0.000188729 0.000401652 -7.77027e-06
-4.01062e-06 -7.77027e-06 0.000288462
0.00267599 0.000214412 -3.00448e-06
0.000214412 0.00177293 -1.69671e-05
-3.00448e-06 -1.69671e-05 0.00139568
0.0102581 0.00332265 0.000912018
0.00332265 0.00656156 0.000631319
0.000912018 0.000631319 0.00116923
0.00454191 0.00168899 2.63094e-05
0.00168899 0.00178856 7.66282e-05
2.63094e-05 7.66282e-05 -0.00136392
0.00821385 -0.000373379 0.000192613
-0.000373379 0.000414698 4.21654e-07
0.000192613 4.21654e-07 -0.0017574
0.0152417 -0.000650635 -0.000287947
-0.000650635 0.002479 -0.000134397
-0.000287947 -0.000134397 0.00369181
0.00505168 0.000790535 0.000166627
0.000790535 -0.000578226 0.000484194
0.000166627 0.000484194 -0.00695812
0.00324435 -0.00527902 -0.000122545
-0.00527902 0.00175831 3.14734e-05
-0.000122545 3.14734e-05 0.00129275
0.00407508 -0.00243725 -0.000446605
-0.00243725 0.00598877 0.000139598
-0.000446605 0.000139598 -0.000732229
-0.000963079 -0.00195277 -0.000114777
-0.00195277 0.0011977 0.000148453
-0.000114777 0.000148453 -2.00978e-07
0.0123319 -0.000356814 -0.000391002
-0.000356814 0.00913432 -2.35374e-06
-0.000391002 -2.35374e-06 0.00100899
0.00991579 -0.0034057 0.000181081
-0.0034057 0.00638412 0.000285108
0.000181081 0.000285108 -0.00144732
0.0291892 -0.0062623 0.000250203
-0.0062623 0.010592 -0.00100894
0.000250203 -0.00100894 0.00282657
-0.00125407 0.000489176 -0.000240109
0.000489176 0.00260581 0.000136439
-0.000240109 0.000136439 0.00033005
0.00490301 0.00223244 -0.000352388
0.00223244 0.0070856 -0.000130554
-0.000352388 -0.000130554 1.50254e-05
0.0303091 -0.01088 0.000776263
-0.01088 0.0176288 -0.00115296
0.000776263 -0.00115296 0.00660772
0.0345129 -0.0165655 9.83519e-05
-0.0165655 0.0213868 -7.07438e-05
9.83519e-05 -7.07438e-05 0.00913668
0.00028756 0.000436728 4.20501e-05
0.000436728 0.000357469 1.90948e-05
4.20501e-05 1.90948e-05 -0.000172854
-0.000262438 7.27027e-05 1.39885e-05
7.27027e-05 0.00024898 3.66804e-06
1.39885e-05 3.66804e-06 -0.00030797
0.000916388 0.000187765 -3.1192e-05
0.000187765 0.000513907 -1.51909e-05
-3.1192e-05 -1.51909e-05 0.000328562
0.00264677 -0.00174304 9.19561e-05
-0.00174304 0.00269423 9.86701e-07
9.19561e-05 9.86701e-07 0.000447371
-0.0015923 -0.000186169 0.000127181
-0.000186169 0.000604145 1.68656e-05
0.000127181 1.68656e-05 -0.000316371
-9.30039e-05 0.000137186 -2.08289e-05
0.000137186 0.000177758 1.69462e-05
-2.08289e-05 1.69462e-05 -0.000214328
-0.000216865 -0.000275244 8.53503e-06
-0.000275244 0.000686085 -3.14689e-07
8.53503e-06 -3.14689e-07 -0.000127635
-0.000305139 0.000186768 -1.08339e-05
0.000186768 0.000136082 2.68124e-06
-1.08339e-05 2.68124e-06 -0.000268776
-0.000390594 0.000380645 3.02016e-05
0.000380645 0.000501704 7.73384e-06
3.02016e-05 7.73384e-06 -0.00022878
-0.0029181 0.000117001 0.000192782
0.000117001 0.00152169 -9.62845e-05
0.000192782 -9.62845e-05 -0.000797854
0.00198854 0.00102931 6.43854e-05
0.00102931 0.0010822 6.00148e-05
6.43854e-05 6.00148e-05 0.000516922
0.00151834 0.00125184 -0.00011978
0.00125184 0.00206695 -0.000139509
-0.00011978 -0.000139509 3.34698e-05
-3.88797e-05 -0.000630539 0.000338863
-0.000630539 0.00167235 0.000130251
0.000338863 0.000130251 -0.00406894
-0.00343596 0.000740196 -0.000220517
0.000740196 0.00442514 -8.97742e-06
-0.000220517 -8.97742e-06 0.000617434
0.00542153 -0.000569815 -0.000152444
-0.000569815 0.00353119 7.3072e-06
-0.000152444 7.3072e-06 0.00203264
0.000577619 0.000732628 7.8068e-05
0.000732628 0.00147482 2.38499e-05
7.8068e-05 2.38499e-05 -0.000250285
5.27078e-05 0.000401732 -9.04634e-05
0.000401732 0.00327288 0.000117663
-9.04634e-05 0.000117663 0.00100585
-0.00145006 -0.000200011 -5.13609e-05
-0.000200011 0.00373184 -8.13314e-05
-5.13609e-05 -8.13314e-05 0.000694761
0.014134 -0.00651347 0.000458458
-0.00651347 0.00970436 -0.000287432
0.000458458 -0.000287432 0.00053285
0.0304553 0.00904513 -0.000825754
0.00904513 0.017303 -0.000375808
-0.000825754 -0.000375808 0.00616878
0.00715847 -0.00313224 -0.000576573
-0.00313224 0.00403953 0.000362663
-0.000576573 0.000362663 -0.000918695
0.0259806 0.0218427 0.0029714
0.0218427 0.0189073 -0.00183132
0.0029714 -0.00183132 0.00541513
-0.000224107 -0.000873825 3.73113e-05
-0.000873825 0.00160472 -8.30791e-06
3.73113e-05 -8.30791e-06 -0.00021936
0.000270253 -0.00098877 0.000104267
-0.00098877 0.00127386 5.72242e-06
0.000104267 5.72242e-06 -0.00452342
0.00823368 0.00528689 -0.00169238
0.00528689 0.0129196 0.000164197
-0.00169238 0.000164197 0.00322415
0.000185306 -0.00188602 5.52057e-05
-0.00188602 0.00233282 3.21601e-05
5.52057e-05 3.21601e-05 0.000802618
0.0294957 0.0100367 0.000562207
0.0100367 0.0132132 0.000259836
0.000562207 0.000259836 0.00336103
0.00528532 -0.00895463 0.00045621
-0.00895463 0.00305459 -0.000131934
0.00045621 -0.000131934 -0.00204529
-0.000603021 -0.00233176 2.61967e-05
-0.00233176 0.000608413 5.18434e-05
2.61967e-05 5.18434e-05 -0.00106591
-0.000254226 -0.00142318 0.000210996
-0.00142318 0.0105926 -0.00013793
0.000210996 -0.00013793 0.00437046
0.022849 0.0108982 -0.00247668
0.0108982 0.0104216 0.000274144
-0.00247668 0.000274144 0.00218058
0.00391096 -0.00787427 -0.000932854
-0.00787427 -0.00323738 0.00027508
-0.000932854 0.00027508 -0.00415628
-0.000654142 -0.00331706 0.000221136
-0.00331706 -6.95441e-05 -0.000182975
0.000221136 -0.000182975 0.000719701
0.00142872 -0.000680896 -0.000121309
-0.000680896 0.0012939 4.6869e-05
-0.000121309 4.6869e-05 0.000398722
6.18412e-05 -0.00108326 -1.49592e-05
-0.00108326 0.000422602 1.26117e-05
-1.49592e-05 1.26117e-05 -0.000408947
8.53969e-05 -0.00112907 5.28143e-06
-0.00112907 -0.000129904 -2.17361e-05
5.28143e-06 -2.17361e-05 -0.000783322
-0.00186307 -0.000321183 1.42217e-05
-0.000321183 -0.000613344 4.81455e-06
1.42217e-05 4.81455e-06 -0.00110688
0.00063709 -0.000936827 5.37439e-06
-0.000936827 0.000111112 -2.82668e-06
5.37439e-06 -2.82668e-06 -0.000484455
0.00325324 -0.00159785 3.47283e-06
-0.00159785 0.000907765 -1.03945e-05
3.47283e-06 -1.03945e-05 0.000301312
0.0048695 -0.001519 -3.21274e-05
-0.001519 0.00238217 8.73352e-06
-3.21274e-05 8.73352e-06 0.00143878
0.00226304 -0.00136822 -3.96394e-06
-0.00136822 0.00062549 -1.51516e-06
-3.96394e-06 -1.51516e-06 -0.000274271
0.00329304 -0.0016391 4.65904e-06
-0.0016391 0.000865546 -1.00294e-05
4.65904e-06 -1.00294e-05 0.000118925
0.00326174 -0.00140438 1.02529e-05
-0.00140438 0.00127089 4.19472e-06
1.02529e-05 4.19472e-06 0.000385844
0.00285893 -0.00144846 3.74552e-06
-0.00144846 0.000877214 -3.76322e-06
3.74552e-06 -3.76322e-06 7.52391e-05
0.0029332 -0.00114371 -1.37273e-06
-0.00114371 0.000630234 -6.84103e-06
-1.37273e-06 -6.84103e-06 0.000113307
0.00216097 -0.000682631 -3.81913e-07
-0.000682631 5.65785e-05 -2.35269e-06
-3.81913e-07 -2.35269e-06 -0.000200539
0.0022071 -0.00101166 6.54297e-07
-0.00101166 0.000181522 -4.27773e-06
6.54297e-07 -4.27773e-06 -0.000318439
0.00258937 -0.001061 4.07299e-06
-0.001061 0.000454973 -1.89023e-06
4.07299e-06 -1.89023e-06 -5.88834e-05
0.00306892 -0.0012602 -1.23974e-06
-0.0012602 0.00101837 -4.07657e-06
-1.23974e-06 -4.07657e-06 0.000364999
0.00316554 -0.00140286 -4.66928e-06
-0.00140286 0.00102616 -4.6753e-07
-4.66928e-06 -4.6753e-07 0.000297698
0.00295234 -0.0014148 1.14596e-05
-0.0014148 0.000918128 -3.20829e-06
1.14596e-05 -3.20829e-06 0.000150733
0.0023655 -0.00113085 7.01963e-06
-0.00113085 0.000858456 -1.21719e-05
7.01963e-06 -1.21719e-05 0.000171906
0.00217947 -0.00120953 1.6616e-06
-0.00120953 0.000728 -9.96343e-07
1.6616e-06 -9.96343e-07 2.47256e-05
0.00165908 -0.00111007 4.43046e-06
-0.00111007 0.000407064 2.3026e-06
4.43046e-06 2.3026e-06 -0.00026519
0.00371079 -0.00069841 6.7189e-06
-0.00069841 0.00203152 8.02556e-06
6.7189e-06 8.02556e-06 0.00157544
0.00100839 -0.000731212 1.12495e-06
-0.000731212 0.000256541 3.89036e-06
1.12495e-06 3.89036e-06 -0.000307618
0.00182 -0.000958428 -1.1052e-05
-0.000958428 0.000647232 1.0782e-05
-1.1052e-05 1.0782e-05 2.43854e-05
0.000592852 -0.000281746 6.27949e-07
-0.000281746 5.03911e-05 -5.7944e-06
6.27949e-07 -5.7944e-06 -0.00021501
0.000551657 -0.000246916 -3.99215e-07
-0.000246916 9.08104e-05 -5.35167e-06
-3.99215e-07 -5.35167e-06 -0.000251936
0.00132095 -0.000213093 -2.24369e-06
-0.000213093 0.000504294 -4.81195e-07
-2.24369e-06 -4.81195e-07 0.000155529
0.00260473 -8.681e-05 -9.29182e-05
-8.681e-05 0.00137845 1.35268e-05
-9.29182e-05 1.35268e-05 0.00129855
0.000318476 -0.000160727 -6.43363e-07
-0.000160727 -8.65584e-05 1.64963e-06
-6.43363e-07 1.64963e-06 -0.000367504
0.0013953 -0.000240547 -3.00655e-06
-0.000240547 0.000639556 2.4646e-06
-3.00655e-06 2.4646e-06 0.000309584
0.00119077 1.46363e-05 -9.04674e-05
1.46363e-05 0.000492794 9.85434e-06
-9.04674e-05 9.85434e-06 0.000472078
0.0012274 -6.01931e-05 -2.73981e-05
-6.01931e-05 0.000512396 -9.47271e-07
-2.73981e-05 -9.47271e-07 0.000421056
0.00171122 -0.000200038 1.19418e-06
-0.000200038 0.00082686 -9.1118e-06
1.19418e-06 -9.1118e-06 0.000587558
0.000648366 -5.64253e-05 1.07402e-05
-5.64253e-05 0.000124939 -1.49973e-05
1.07402e-05 -1.49973e-05 5.6189e-05
0.00385346 0.000132045 1.30503e-05
0.000132045 0.00224778 1.04994e-06
1.30503e-05 1.04994e-06 0.00224015
0.00356062 0.000100184 6.501e-05
0.000100184 0.00204438 -7.0504e-06
6.501e-05 -7.0504e-06 0.00204446
-0.00123785 0.000105033 1.75759e-06
0.000105033 -0.00100877 1.38853e-05
1.75759e-06 1.38853e-05 -0.0013093
0.00249739 0.000311566 6.66185e-06
0.000311566 0.0015784 -2.09771e-05
6.66185e-06 -2.09771e-05 0.001157
-0.000879574 7.53854e-05 5.18817e-06
7.53854e-05 -0.000556988 -1.20955e-06
5.18817e-06 -1.20955e-06 -0.000977285
0.000795462 0.000120394 5.1111e-07
0.000120394 0.000268235 -1.19395e-05
5.1111e-07 -1.19395e-05 9.28933e-05
0.000561558 0.000175962 5.12921e-06
0.000175962 0.000249545 -9.45664e-07
5.12921e-06 -9.45664e-07 -5.83731e-05
0.000337538 1.70198e-05 -2.03543e-06
1.70198e-05 -5.20543e-05 -1.38305e-05
-2.03543e-06 -1.38305e-05 -0.000105626
0.000511286 9.08655e-05 1.61556e-07
9.08655e-05 8.65646e-05 1.14993e-07
1.61556e-07 1.14993e-07 -6.06118e-05
0.000792041 0.000102244 -5.68663e-06
0.000102244 0.000350384 8.9942e-06
-5.68663e-06 8.9942e-06 0.000118483
0.00299543 -7.01841e-05 -4.5635e-05
-7.01841e-05 0.00167522 -6.95781e-06
-4.5635e-05 -6.95781e-06 0.00168059
0.000362113 1.2082e-05 -8.54041e-07
1.2082e-05 -4.65531e-05 3.1876e-08
-8.54041e-07 3.1876e-08 -8.94421e-05
0.000406857 9.09735e-05 -3.58868e-06
9.09735e-05 1.9974e-05 6.12298e-06
-3.58868e-06 6.12298e-06 -0.000105811
0.00262074 -5.32692e-05 -8.47379e-06
-5.32692e-05 0.00142363 5.58966e-07
-8.47379e-06 5.58966e-07 0.00143203
0.000294567 -2.02618e-05 -8.5248e-06
-2.02618e-05 -9.79844e-05 7.85677e-06
-8.5248e-06 7.85677e-06 -0.000130306
0.00231958 -3.14073e-05 2.37363e-05
-3.14073e-05 0.00122179 5.922e-06
2.37363e-05 5.922e-06 0.00123475
0.0067954 0.00170506 0.000672429
0.00170506 0.00569113 0.00016573
0.000672429 0.00016573 0.00160009
-0.00207724 0.00111611 -2.70157e-05
0.00111611 0.00274567 -1.39408e-05
-2.70157e-05 -1.39408e-05 -0.000983702
0.000564783 0.00139225 -4.62756e-06
0.00139225 0.00347372 -2.52214e-05
-4.62756e-06 -2.52214e-05 0.000282554
0.000176924 0.000412958 -1.52752e-05
0.000412958 -0.000144841 9.82057e-06
-1.52752e-05 9.82057e-06 -0.000504939
-0.000826258 3.4742e-05 -1.6766e-05
3.4742e-05 -0.000561944 3.13022e-05
-1.6766e-05 3.13022e-05 -0.000981854
-0.000316678 0.000130399 -2.39978e-05
0.000130399 -0.00034487 -1.38711e-05
-2.39978e-05 -1.38711e-05 -0.000532666
0.00187257 0.000165825 1.08272e-05
0.000165825 0.00111969 9.91858e-08
1.08272e-05 9.91858e-08 0.000795065
0.000932938 0.000332903 7.01955e-07
0.000332903 0.000205416 -1.1113e-05
7.01955e-07 -1.1113e-05 1.24306e-05
0.00184748 0.000514204 -2.19364e-05
0.000514204 0.000967884 -8.52511e-06
-2.19364e-05 -8.52511e-06 0.000758481
0.00157108 0.000485331 2.37735e-05
0.000485331 0.000683384 -3.37683e-05
2.37735e-05 -3.37683e-05 0.000299332
-0.00240793 0.000158988 -1.96953e-05
0.000158988 -0.00119273 4.52884e-06
-1.96953e-05 4.52884e-06 -0.00163061
-0.000838849 -1.82197e-06 -4.9954e-06
-1.82197e-06 -0.000653154 -1.74011e-05
-4.9954e-06 -1.74011e-05 -0.000892209
-0.000692919 5.10824e-05 -1.33941e-05
5.10824e-05 -0.000685624 -1.16397e-05
-1.33941e-05 -1.16397e-05 -0.0007295
-0.000749333 6.13647e-05 -8.23998e-06
6.13647e-05 -0.00031778 2.76795e-06
-8.23998e-06 2.76795e-06 -0.000708268
3.59043e-05 0.000395713 -3.42926e-06
0.000395713 0.000303687 1.99983e-05
-3.42926e-06 1.99983e-05 -0.00036318
0.0117658 -0.0093279 -0.000203197
-0.0093279 0.0129636 0.000205897
-0.000203197 0.000205897 0.000925941
0.0103159 0.00385646 0.000308717
0.00385646 0.00468935 0.000209515
0.000308717 0.000209515 -0.0015817
0.00487442 0.000983179 0.000102776
0.000983179 0.00273631 -6.7752e-05
0.000102776 -6.7752e-05 -0.000796599
0.0415109 -0.0102362 -0.00152623
-0.0102362 0.014882 -0.000502872
-0.00152623 -0.000502872 0.00566491
0.00627334 -0.00132083 0.000341653
-0.00132083 0.00562734 0.000638411
0.000341653 0.000638411 -0.000126383
0.00132688 -0.000773004 -0.000233052
-0.000773004 0.00597467 0.000192627
-0.000233052 0.000192627 -0.00303048
-2.44064e-05 -0.00250825 -2.29406e-06
-0.00250825 0.00230809 9.7778e-05
-2.29406e-06 9.7778e-05 0.000246099
-0.00105572 -0.000209076 0.000204243
-0.000209076 0.00233403 3.89717e-05
0.000204243 3.89717e-05 0.000713778
0.0324876 -0.0191519 0.000482039
-0.0191519 0.0206853 0.000562107
0.000482039 0.000562107 0.00755367
0.00388571 0.00273816 -0.000242426
0.00273816 0.00630694 -0.000148793
-0.000242426 -0.000148793 -0.0018195
0.0138403 -0.00595686 -0.00015831
-0.00595686 0.0114035 0.000199586
-0.00015831 0.000199586 0.000513905
-0.000507134 0.00127694 9.10698e-06
0.00127694 0.00183758 -1.07039e-06
9.10698e-06 -1.07039e-06 0.000514264
0.0058634 0.00677625 -0.000269246
0.00677625 0.00310676 4.63603e-06
-0.000269246 4.63603e-06 -0.00128757
0.0276186 -0.00958452 -0.0012121
-0.00958452 0.0124471 -0.00029624
-0.0012121 -0.00029624 0.00215951
0.00163642 0.000973139 2.08063e-05
0.000973139 0.000659953 3.05468e-05
2.08063e-05 3.05468e-05 0.000380484
0.00068846 0.000439073 7.14187e-06
0.000439073 0.000642853 3.43885e-06
7.14187e-06 3.43885e-06 5.04451e-05
-0.000658352 3.95707e-05 -4.8977e-05
3.95707e-05 2.41563e-05 5.62391e-06
-4.8977e-05 5.62391e-06 -0.000557062
-0.0019095 -0.000297092 -0.000133356
-0.000297092 0.0019622 -2.5253e-05
-0.000133356 -2.5253e-05 -0.000189017
0.00173543 0.000509902 -5.22911e-05
0.000509902 0.00116166 -2.89754e-06
-5.22911e-05 -2.89754e-06 0.00061344
5.79998e-06 0.000269865 -1.04146e-05
0.000269865 0.000309944 1.06695e-05
-1.04146e-05 1.06695e-05 -0.000140845
0.0015349 0.000945126 5.2088e-06
0.000945126 0.000815209 -7.60515e-07
5.2088e-06 -7.60515e-07 0.000273312
-2.93641e-05 0.00109157 -1.70382e-05
0.00109157 0.00133638 -5.80398e-05
-1.70382e-05 -5.80398e-05 -0.000436727
0.00281199 0.00280324 0.000121935
0.00280324 0.00126082 3.77859e-05
0.000121935 3.77859e-05 -0.000293722
-0.00686452 0.00116839 0.000640518
0.00116839 0.00664743 -5.20634e-05
0.000640518 -5.20634e-05 -0.00296619
0.00172667 -0.00091668 -4.21107e-05
-0.00091668 0.0027041 0.000103121
-4.21107e-05 0.000103121 -0.00129958
-0.00293914 0.000179549 -5.47415e-05
0.000179549 0.00352682 0.000121358
-5.47415e-05 0.000121358 -0.000103868
-0.00156092 -0.000518065 -6.01518e-05
-0.000518065 0.000886411 1.1433e-05
-6.01518e-05 1.1433e-05 -0.000953857
-0.00173 -0.00124479 -4.78883e-05
-0.00124479 0.000761652 3.00233e-05
-4.78883e-05 3.00233e-05 0.000332306
-0.00218535 -0.00149076 -0.000302225
-0.00149076 0.00152012 0.00020829
-0.000302225 0.00020829 -0.00463248
-0.00166523 -0.00683414 0.000369478
-0.00683414 0.00299161 -0.000226252
0.000369478 -0.000226252 -0.00482666
0.0209732 0.00809533 0.00103835
0.00809533 0.00768599 -0.000348583
0.00103835 -0.000348583 -0.001559
0.0229896 0.0105035 -0.000387729
0.0105035 0.0152066 0.000620846
-0.000387729 0.000620846 0.00329663
0.000539412 -0.00174454 -4.80073e-05
-0.00174454 0.00179966 1.34087e-05
-4.80073e-05 1.34087e-05 0.000215385
0.00630278 0.00280711 0.000417551
0.00280711 0.0130614 -7.70341e-05
0.000417551 -7.70341e-05 0.00457414
0.00852405 0.00742972 4.61617e-05
0.00742972 0.003809 0.000117015
4.61617e-05 0.000117015 -0.00273159
0.00238261 -0.0053052 7.71624e-05
-0.0053052 0.00101335 -6.03519e-05
7.71624e-05 -6.03519e-05 0.000805907
0.0123422 -0.00848259 6.94101e-07
-0.00848259 -0.000618344 1.96073e-05
6.94101e-07 1.96073e-05 -0.0015708
0.00296699 -0.00292675 2.8618e-05
-0.00292675 0.0013967 1.52312e-05
2.8618e-05 1.52312e-05 0.000592833
-0.00369356 0.00370551 -0.00147924
0.00370551 0.000823825 0.000170582
-0.00147924 0.000170582 -0.00611722
0.0157133 -0.00547966 -0.000413185
-0.00547966 -0.00164573 7.93536e-05
-0.000413185 7.93536e-05 -0.0011713
0.00479014 -0.00519688 0.000121317
-0.00519688 -0.000463826 -9.98267e-05
0.000121317 -9.98267e-05 0.00114038
0.000463035 -0.000880304 -3.67424e-06
-0.000880304 0.000771901 -3.95049e-06
-3.67424e-06 -3.95049e-06 -8.1221e-05
0.00226378 -0.00165357 3.51572e-05
-0.00165357 0.000837099 -1.46824e-05
3.51572e-05 -1.46824e-05 0.000182541
0.00193425 -0.00136326 4.14677e-06
-0.00136326 0.00021217 -1.25423e-05
4.14677e-06 -1.25423e-05 -0.000290773
-0.000373439 -0.000820894 -2.04713e-06
-0.000820894 -0.000419975 1.18937e-05
-2.04713e-06 1.18937e-05 -0.000972651
0.00226972 -0.00149748 -7.05545e-06
-0.00149748 0.000399897 3.29212e-07
-7.05545e-06 3.29212e-07 -0.000203947
0.00359086 -0.00162561 1.46123e-06
-0.00162561 0.000851103 -4.23502e-06
1.46123e-06 -4.23502e-06 0.000283374
0.00164203 -0.00124104 -5.51351e-06
-0.00124104 0.000265571 1.05327e-05
-5.51351e-06 1.05327e-05 -0.000587743
0.00288976 -0.00157621 -6.23854e-07
-0.00157621 0.000654359 3.98171e-06
-6.23854e-07 3.98171e-06 -8.3076e-05
0.0029621 -0.00122028 9.1622e-07
-0.00122028 0.000432091 -3.14467e-06
9.1622e-07 -3.14467e-06 2.2102e-05
0.0024006 -0.00137209 1.00799e-05
-0.00137209 0.000618444 5.08103e-06
1.00799e-05 5.08103e-06 -0.000153905
0.00253216 -0.00108267 -2.37732e-06
-0.00108267 0.000399386 2.68245e-06
-2.37732e-06 2.68245e-06 -9.69153e-05
0.0024286 -0.000765655 1.61174e-06
-0.000765655 9.7248e-05 -1.01654e-06
1.61174e-06 -1.01654e-06 -0.000112791
0.00244776 -0.000717462 -2.0073e-06
-0.000717462 0.000227324 3.10801e-07
-2.0073e-06 3.10801e-07 4.02378e-05
0.00198612 -0.000677136 -3.43725e-06
-0.000677136 -1.91648e-05 -1.87144e-06
-3.43725e-06 -1.87144e-06 -0.000297135
0.00214453 -0.000676623 1.06543e-06
-0.000676623 3.31442e-05 2.98813e-06
1.06543e-06 2.98813e-06 -0.000219858
0.00206281 -0.000876771 -3.59067e-06
-0.000876771 0.000158516 -5.86148e-06
-3.59067e-06 -5.86148e-06 -0.000281577
0.00234833 -0.00101447 3.88562e-06
-0.00101447 0.00029765 6.31369e-07
3.88562e-06 6.31369e-07 -0.00019733
0.0025344 -0.00106063 3.32819e-06
-0.00106063 0.000410853 5.05815e-06
3.32819e-06 5.05815e-06 -0.000101561
0.00241869 -0.00110267 -1.44613e-06
-0.00110267 0.000641746 -7.01961e-06
-1.44613e-06 -7.01961e-06 2.42991e-05
0.00277115 -0.0012313 1.51075e-06
-0.0012313 0.000829401 -9.94446e-07
1.51075e-06 -9.94446e-07 0.000178919
0.00316161 -0.00140031 2.68031e-06
-0.00140031 0.0010329 8.31416e-08
2.68031e-06 8.31416e-08 0.00029884
0.00200488 -0.000813631 -6.43207e-06
-0.000813631 0.000662817 -2.02856e-06
-6.43207e-06 -2.02856e-06 0.000117206
0.00233877 -0.0011137 1.33284e-06
-0.0011137 0.000850264 2.01692e-07
1.33284e-06 2.01692e-07 0.000171413
0.0018205 -0.00115629 -5.6314e-08
-0.00115629 0.000533148 5.34163e-06
-5.6314e-08 5.34163e-06 -0.000156504
0.000388423 -0.00035992 -1.2856e-05
-0.00035992 -0.000190024 -8.34658e-07
-1.2856e-05 -8.34658e-07 -0.000419268
0.00137784 -0.000658356 2.76398e-06
-0.000658356 0.000521193 2.30264e-07
2.76398e-06 2.30264e-07 8.09602e-05
-7.30615e-05 -0.000615287 -7.78948e-06
-0.000615287 -0.000377865 1.05456e-05
-7.78948e-06 1.05456e-05 -0.000916844
0.000405838 -0.000143421 -2.67183e-05
-0.000143421 -7.74638e-05 1.31933e-05
-2.67183e-05 1.31933e-05 -0.000192386
0.000860129 -0.000381043 3.91251e-06
-0.000381043 0.000272005 -2.09841e-07
3.91251e-06 -2.09841e-07 -3.16334e-05
-0.00151314 -0.000214023 -1.15131e-06
-0.000214023 -0.00124611 -3.3551e-06
-1.15131e-06 -3.3551e-06 -0.00156411
0.00583964 0.00039133 3.86307e-05
0.00039133 0.00364895 1.3578e-05
3.86307e-05 1.3578e-05 0.00355945
0.000420003 -0.000130991 4.74032e-06
-0.000130991 -5.62478e-05 1.67708e-06
4.74032e-06 1.67708e-06 -0.000167224
0.00109168 -0.000149792 -2.26013e-06
-0.000149792 0.000385815 -4.02294e-08
-2.26013e-06 -4.02294e-08 0.000120213
0.00421238 0.000154279 1.7095e-05
0.000154279 0.00249494 8.7301e-07
1.7095e-05 8.7301e-07 0.00248078
0.000573806 -8.10462e-05 1.01204e-05
-8.10462e-05 8.26073e-05 -1.7115e-05
1.01204e-05 -1.7115e-05 -2.43167e-05
0.00379917 0.000116994 7.86419e-05
0.000116994 0.00220726 -9.17728e-06
7.86419e-05 -9.17728e-06 0.00220315
0.00237909 0.000480481 -2.35598e-07
0.000480481 0.00112197 9.16071e-06
-2.35598e-07 9.16071e-06 0.000803297
-0.000104126 0.000199402 3.46881e-06
0.000199402 -0.000319513 2.21164e-06
3.46881e-06 2.21164e-06 -0.000622747
0.00156604 0.000731755 -6.9105e-06
0.000731755 0.000888986 -4.07276e-06
-6.9105e-06 -4.07276e-06 0.000478329
0.00148664 0.000266853 -2.65929e-06
0.000266853 0.000698735 -1.32465e-05
-2.65929e-06 -1.32465e-05 0.000490427
0.00121534 0.00018346 -3.31749e-07
0.00018346 0.000777075 5.22146e-07
-3.31749e-07 5.22146e-07 0.000332664
-0.000895712 9.31139e-05 -2.27706e-06
9.31139e-05 -0.000519941 6.1638e-06
-2.27706e-06 6.1638e-06 -0.000967915
0.000563729 1.41294e-05 -4.77006e-06
1.41294e-05 0.000102346 -1.58813e-05
-4.77006e-06 -1.58813e-05 3.54975e-05
0.000594066 0.00010222 7.21015e-07
0.00010222 0.000137363 7.00133e-07
7.21015e-07 7.00133e-07 -3.08349e-05
-0.000673346 5.54235e-05 -7.87752e-06
5.54235e-05 -0.000597736 2.52373e-05
-7.87752e-06 2.52373e-05 -0.000873853
0.00336473 -9.02431e-05 -6.1624e-05
-9.02431e-05 0.00192571 -7.87609e-06
-6.1624e-05 -7.87609e-06 0.00192761
0.000402562 -3.10675e-05 1.58985e-06
-3.10675e-05 -7.69874e-06 -5.11044e-07
1.58985e-06 -5.11044e-07 -6.19488e-05
0.000617652 7.24383e-05 -4.90807e-06
7.24383e-05 0.000167532 9.31828e-06
-4.90807e-06 9.31828e-06 1.56812e-05
0.00296216 -7.46605e-05 -1.00467e-05
-7.46605e-05 0.00165436 7.96096e-07
-1.00467e-05 7.96096e-07 0.00165832
0.000397257 2.79469e-05 -5.93165e-07
2.79469e-05 -2.49683e-05 9.93583e-06
-5.93165e-07 9.93583e-06 -6.65151e-05
0.00257565 -5.40349e-05 2.45777e-05
-5.40349e-05 0.00139405 6.26202e-06
2.45777e-05 6.26202e-06 0.00140251
-0.00436621 -6.14172e-05 -0.000526802
-6.14172e-05 0.00657325 8.33435e-05
-0.000526802 8.33435e-05 -0.00270547
0.00670557 0.00147714 8.87909e-05
0.00147714 0.00474345 4.14341e-06
8.87909e-05 4.14341e-06 0.000895062
-0.00100479 0.00119565 0.000247161
0.00119565 0.00274056 0.000111199
0.000247161 0.000111199 -0.00111231
0.000188872 0.000341022 -1.37434e-05
0.000341022 -9.22366e-05 1.25897e-05
-1.37434e-05 1.25897e-05 -0.000519219
0.0055667 0.00137349 2.77467e-05
0.00137349 0.0031487 3.66426e-05
2.77467e-05 3.66426e-05 0.00247113
0.000729275 0.000340743 -1.49672e-05
0.000340743 0.000633444 7.4808e-06
-1.49672e-05 7.4808e-06 -3.07638e-05
0.00108525 0.000251491 -1.6361e-05
0.000251491 0.000662762 -1.32003e-05
-1.6361e-05 -1.32003e-05 0.000316772
0.00384097 0.000594117 -7.33481e-06
0.000594117 0.00200363 -8.13343e-06
-7.33481e-06 -8.13343e-06 0.00175921
-0.00210481 9.44175e-05 -1.01776e-05
9.44175e-05 -0.00150879 1.88042e-05
-1.01776e-05 1.88042e-05 -0.00155694
-0.00028145 0.000358472 -1.02461e-07
0.000358472 -5.3041e-05 1.0287e-05
-1.02461e-07 1.0287e-05 -0.000443432
0.000480253 0.00027415 -1.66498e-05
0.00027415 0.000176703 -5.76017e-06
-1.66498e-05 -5.76017e-06 -0.000235184
0.000977318 0.000968037 -1.74823e-05
0.000968037 0.000570374 -1.18033e-05
-1.74823e-05 -1.18033e-05 -8.98842e-05
-0.00159068 0.00070365 -4.62362e-05
0.00070365 -0.00124724 7.50512e-05
-4.62362e-05 7.50512e-05 -0.00150065
-1.96823e-05 3.81337e-05 -1.648e-05
3.81337e-05 3.95107e-05 9.34204e-06
-1.648e-05 9.34204e-06 -0.000297077
0.00205814 0.000667952 2.43456e-05
0.000667952 0.00140309 -4.03325e-06
2.43456e-05 -4.03325e-06 0.00081431
0.00706422 -0.00571743 -0.00337261
-0.00571743 0.00463341 -2.45505e-05
-0.00337261 -2.45505e-05 -0.0034139
0.00533938 -0.00733569 0.00108315
-0.00733569 0.0136399 5.48426e-05
0.00108315 5.48426e-05 0.00281344
0.0107186 0.00453561 -0.001247
0.00453561 0.00401963 -0.000369461
-0.001247 -0.000369461 -0.00300992
0.0270215 -0.0215612 0.00303282
-0.0215612 0.019722 0.00177603
0.00303282 0.00177603 0.00594243
0.0325053 -0.005667 -0.000213023
-0.005667 0.0145495 0.000592215
-0.000213023 0.000592215 0.00561754
-0.00169142 0.00188224 -0.000167841
0.00188224 0.00439345 -0.000240861
-0.000167841 -0.000240861 -0.00271307
-0.000705083 1.87823e-05 -0.000187486
1.87823e-05 0.00353537 1.94403e-05
-0.000187486 1.94403e-05 0.0011634
0.000486984 0.00141511 7.91267e-05
0.00141511 0.00265013 6.07683e-05
7.91267e-05 6.07683e-05 0.00138094
0.0294341 -0.00848152 -0.00100366
-0.00848152 0.0138973 0.00018988
-0.00100366 0.00018988 0.00392097
-0.00119254 0.00660624 -0.000353894
0.00660624 0.00121277 -4.48588e-05
-0.000353894 -4.48588e-05 -0.00387286
0.00312291 0.00422133 5.77348e-05
0.00422133 0.0013991 -0.000106962
5.77348e-05 -0.000106962 0.00171501
0.0075388 0.0111309 -0.00107933
0.0111309 -0.00261753 -0.000104616
-0.00107933 -0.000104616 -0.00372704
0.00459834 0.00198093 4.278e-05
0.00198093 0.00199118 1.28604e-06
4.278e-05 1.28604e-06 0.00135897
0.00153726 0.000928813 -7.55899e-06
0.000928813 0.000541486 -5.43318e-06
-7.55899e-06 -5.43318e-06 0.000308966
-0.000158185 0.000339532 -4.61867e-05
0.000339532 0.000159479 -1.52487e-05
-4.61867e-05 -1.52487e-05 -0.000444525
-0.000422201 0.0010828 -0.00016182
0.0010828 0.00129024 -8.11014e-05
-0.00016182 -8.11014e-05 -0.000260796
0.000569385 0.000902326 -7.57889e-05
0.000902326 0.000264439 -6.20051e-05
-7.57889e-05 -6.20051e-05 -0.000223249
0.00308582 0.00284998 3.74104e-06
0.00284998 0.00124472 -1.43414e-05
3.74104e-06 -1.43414e-05 -0.000225273
-0.00138992 0.00281394 0.000152619
0.00281394 -0.00217877 9.3806e-05
0.000152619 9.3806e-05 -0.0027311
-0.00694838 -0.000819361 -0.00127824
-0.000819361 -0.000792734 7.42744e-05
-0.00127824 7.42744e-05 -0.00548179
-0.0105456 0.000539595 0.000892544
0.000539595 0.00710576 -7.97477e-06
0.000892544 -7.97477e-06 -0.000683606
0.00197093 0.000370715 -0.000259987
0.000370715 0.00259062 3.97168e-05
-0.000259987 3.97168e-05 -0.000141252
0.00116352 -0.00194768 -0.000101838
-0.00194768 0.00152903 -6.80918e-05
-0.000101838 -6.80918e-05 -2.49453e-05
-2.91467e-05 -0.00419612 0.000228059
-0.00419612 0.000406694 2.50754e-05
0.000228059 2.50754e-05 5.96625e-05
0.00319491 0.00297122 0.000612285
0.00297122 0.01233 0.000155395
0.000612285 0.000155395 0.00366443
0.00595498 -0.00840039 0.00110353
-0.00840039 -0.00332717 -0.000118799
0.00110353 -0.000118799 -0.00299731
0.0243569 0.0072171 0.00211597
0.0072171 0.013681 8.53019e-05
0.00211597 8.53019e-05 0.00613934
0.00293021 -0.00353771 -2.34225e-05
-0.00353771 0.00105046 -2.88864e-06
-2.34225e-05 -2.88864e-06 -0.000101886
0.00681817 0.00454759 0.000531135
0.00454759 0.00432026 -0.000160284
0.000531135 -0.000160284 -0.00218675
0.00812648 -0.00528188 -0.000312228
-0.00528188 -0.00637804 0.000224112
-0.000312228 0.000224112 -0.0059173
0.00269412 -0.00463678 -3.88654e-05
-0.00463678 -0.00154839 5.03698e-05
-3.88654e-05 5.03698e-05 0.000642248
0.00229485 -0.00262491 4.21771e-05
-0.00262491 -0.000350671 -1.68116e-05
4.21771e-05 -1.68116e-05 -0.000418088
0.0195232 -0.00143664 -0.000138979
-0.00143664 0.00118941 0.000136044
-0.000138979 0.000136044 0.00164381
0.00316009 -0.00338253 0.00013972
-0.00338253 -0.00466342 -0.000153079
0.00013972 -0.000153079 -0.00127743
0.0026537 -0.00188285 -7.42707e-05
-0.00188285 0.000937608 4.83921e-05
-7.42707e-05 4.83921e-05 0.000366696
0.000617023 -0.00116367 -1.55806e-05
-0.00116367 -0.000488603 1.6199e-06
-1.55806e-05 1.6199e-06 -0.000825828
0.00539078 -0.00161384 5.08055e-05
-0.00161384 0.00170531 -2.65088e-05
5.08055e-05 -2.65088e-05 0.00136526
0.00105076 -0.00134795 -1.22066e-05
-0.00134795 -0.000220289 8.72351e-06
-1.22066e-05 8.72351e-06 -0.000807767
0.00300762 -0.00154161 7.95782e-07
-0.00154161 0.000564626 -1.27541e-06
7.95782e-07 -1.27541e-06 2.16758e-05
0.00322638 -0.0012262 1.1713e-06
-0.0012262 0.000386961 -2.15466e-06
1.1713e-06 -2.15466e-06 0.000187777
0.00250981 -0.00151279 8.06881e-06
-0.00151279 0.000456842 1.12354e-05
8.06881e-06 1.12354e-05 -0.0002691
0.00276724 -0.00118429 -4.34087e-06
-0.00118429 0.000323313 1.71565e-06
-4.34087e-06 1.71565e-06 -6.73216e-05
0.00258645 -0.000822464 1.17025e-06
-0.000822464 4.68128e-06 1.05148e-07
1.17025e-06 1.05148e-07 -4.53793e-05
0.00222473 -0.00103846 6.82376e-06
-0.00103846 0.000216429 6.9005e-06
6.82376e-06 6.9005e-06 -0.000264332
0.0023434 -0.000750511 -1.12648e-07
-0.000750511 4.14995e-05 2.36927e-06
-1.12648e-07 2.36927e-06 -0.000156975
0.00250998 -0.000792991 -8.36311e-07
-0.000792991 8.74007e-05 1.36894e-06
-8.36311e-07 1.36894e-06 -1.30443e-05
0.00243498 -0.00076126 -3.33829e-06
-0.00076126 0.000130971 2.35379e-07
-3.33829e-06 2.35379e-07 -1.53894e-05
0.00241433 -0.000717034 -3.62718e-06
-0.000717034 0.000191717 2.20749e-06
-3.62718e-06 2.20749e-06 1.33746e-05
0.0024281 -0.000692515 -2.57849e-07
-0.000692515 0.000294041 -2.0029e-06
-2.57849e-07 -2.0029e-06 7.68922e-05
0.00241582 -0.000733454 -5.67677e-06
-0.000733454 0.000301416 -3.23892e-06
-5.67677e-06 -3.23892e-06 -4.05242e-06
0.00224383 -0.000694091 1.32979e-06
-0.000694091 0.000159282 1.45569e-06
1.32979e-06 1.45569e-06 -0.000121251
0.00211908 -0.000673308 2.05574e-06
-0.000673308 -3.46763e-06 7.87446e-06
2.05574e-06 7.87446e-06 -0.000253066
0.00233825 -0.000878212 -6.08587e-06
-0.000878212 0.000381194 -7.31387e-06
-6.08587e-06 -7.31387e-06 -6.57516e-05
0.00201353 -0.000885596 -5.47138e-07
-0.000885596 0.000109766 9.57649e-08
-5.47138e-07 9.57649e-08 -0.000335996
0.00250732 -0.00102395 7.80586e-06
-0.00102395 0.000417565 5.6554e-06
7.80586e-06 5.6554e-06 -7.4716e-05
0.00187388 -0.00091731 -7.58781e-06
-0.00091731 0.000342987 -6.24805e-06
-7.58781e-06 -6.24805e-06 -0.000223187
0.00258935 -0.00112848 -4.69481e-07
-0.00112848 0.000728696 6.40441e-07
-4.69481e-07 6.40441e-07 0.000104324
0.0025224 -0.00121005 3.93082e-06
-0.00121005 0.000667483 3.72913e-06
3.93082e-06 3.72913e-06 1.79873e-05
0.00084384 -0.000335427 -9.74845e-06
-0.000335427 2.50044e-05 8.37115e-06
-9.74845e-06 8.37115e-06 -0.000261864
0.00169237 -0.000784412 7.00616e-07
-0.000784412 0.000451127 2.44401e-06
7.00616e-07 2.44401e-06 -8.4992e-05
0.00218284 -0.00108221 -1.7703e-06
-0.00108221 0.000756339 1.05645e-05
-1.7703e-06 1.05645e-05 8.88245e-05
0.000405221 -0.000206378 -2.14275e-05
-0.000206378 -9.21017e-05 2.23554e-05
-2.14275e-05 2.23554e-05 -0.00024696
0.00102061 -0.000386021 -7.51169e-06
-0.000386021 0.000266505 1.4641e-06
-7.51169e-06 1.4641e-06 -8.10345e-06
-0.00127114 -0.000565222 -2.5881e-07
-0.000565222 -0.00118158 1.23025e-07
-2.5881e-07 1.23025e-07 -0.00160685
0.0057019 0.000176471 -0.000162338
0.000176471 0.00348161 1.29431e-05
-0.000162338 1.29431e-05 0.00346153
0.000655601 -0.000171317 -3.51884e-06
-0.000171317 7.0503e-05 -1.71849e-06
-3.51884e-06 -1.71849e-06 -4.8155e-05
0.000588014 -0.000357331 1.27993e-05
-0.000357331 0.000134729 -1.50444e-06
1.27993e-05 -1.50444e-06 -0.000188911
0.0033784 0.000147977 8.67972e-05
0.000147977 0.00196671 -3.88499e-07
8.67972e-05 -3.88499e-07 0.00192248
0.000261907 -0.000144114 2.66904e-05
-0.000144114 -0.000159853 -1.39479e-05
2.66904e-05 -1.39479e-05 -0.000275814
0.00496397 0.000127505 0.000148394
0.000127505 0.0029857 -1.25838e-05
0.000148394 -1.25838e-05 0.0029784
0.00207386 0.00061402 -6.9772e-06
0.00061402 0.000826116 9.28394e-06
-6.9772e-06 9.28394e-06 0.000388704
0.000788374 0.000321816 -4.54e-06
0.000321816 0.000166985 6.63212e-07
-4.54e-06 6.63212e-07 -0.000131578
0.000109884 0.00021055 7.07381e-06
0.00021055 -0.000241026 4.52668e-06
7.07381e-06 4.52668e-06 -0.00052294
0.00201329 0.000405338 2.33837e-06
0.000405338 0.00105847 -5.80932e-06
2.33837e-06 -5.80932e-06 0.000719083
0.00120623 0.000166091 -4.90627e-07
0.000166091 0.000631288 2.07921e-07
-4.90627e-07 2.07921e-07 0.000261258
0.00130603 0.000158258 8.8113e-07
0.000158258 0.000646962 -1.83316e-05
8.8113e-07 -1.83316e-05 0.000356633
0.000730946 0.000102518 -1.57112e-05
0.000102518 0.000193645 -2.03462e-05
-1.57112e-05 -2.03462e-05 0.000113469
0.000696045 0.00014708 -1.63675e-06
0.00014708 0.000237996 4.54373e-07
-1.63675e-06 4.54373e-07 9.02416e-06
-0.0021331 -4.42576e-05 -1.47219e-05
-4.42576e-05 -0.00141244 2.47437e-05
-1.47219e-05 2.47437e-05 -0.00181737
0.00352204 -9.92114e-05 -8.15971e-05
-9.92114e-05 0.00203715 -1.04288e-05
-8.15971e-05 -1.04288e-05 0.00203781
0.000214953 5.21295e-05 8.1038e-07
5.21295e-05 -0.000123599 -3.2592e-07
8.1038e-07 -3.2592e-07 -0.000187795
0.000651539 0.000137091 -3.42591e-06
0.000137091 0.000181641 1.14325e-05
-3.42591e-06 1.14325e-05 1.31904e-05
0.00319704 -9.53732e-05 -1.09602e-05
-9.53732e-05 0.00181751 9.65718e-07
-1.09602e-05 9.65718e-07 0.00181726
0.000176844 -3.48605e-06 3.8214e-07
-3.48605e-06 -0.000151081 1.2377e-05
3.8214e-07 1.2377e-05 -0.00020527
0.00284287 -7.62578e-05 3.1341e-05
-7.62578e-05 0.00157604 6.97273e-06
3.1341e-05 6.97273e-06 0.00157941
0.00287872 -0.00158848 -0.0020707
-0.00158848 0.00456285 -3.2767e-05
-0.0020707 -3.2767e-05 0.00144259
-0.00241294 -0.00135896 -8.42582e-05
-0.00135896 0.00826754 -6.44e-05
-8.42582e-05 -6.44e-05 -0.00153966
0.00706958 0.00097258 -0.000640297
0.00097258 0.00441711 -0.000167413
-0.000640297 -0.000167413 0.000760615
0.000547273 0.000233195 -1.5984e-06
0.000233195 0.000131115 7.0759e-06
-1.5984e-06 7.0759e-06 -0.000288182
0.000756335 0.000280325 1.49758e-05
0.000280325 0.000499903 3.72021e-06
1.49758e-05 3.72021e-06 -0.000133451
0.00291247 0.00100622 -6.67958e-06
0.00100622 0.00147586 7.51649e-07
-6.67958e-06 7.51649e-07 0.000843653
0.00274096 0.00122881 2.55799e-05
0.00122881 0.00119636 1.88515e-05
2.55799e-05 1.88515e-05 0.000444103
0.00158479 0.00094789 -4.30651e-06
0.00094789 0.00101534 2.10103e-05
-4.30651e-06 2.10103e-05 0.000338161
0.00252189 0.000437473 6.30113e-07
0.000437473 0.00158693 1.56556e-06
6.30113e-07 1.56556e-06 0.00127087
0.00144034 0.000414055 1.53932e-05
0.000414055 0.000886822 1.26095e-05
1.53932e-05 1.26095e-05 0.000430826
0.00188583 0.000916589 -6.366e-06
0.000916589 0.00111387 7.68955e-07
-6.366e-06 7.68955e-07 0.000475468
0.00171057 0.00127134 -5.08724e-07
0.00127134 0.00047042 5.73853e-06
-5.08724e-07 5.73853e-06 -8.3316e-05
0.00314156 0.0013725 6.28771e-06
0.0013725 0.00124853 5.142e-05
6.28771e-06 5.142e-05 0.00091239
0.00216108 0.00166042 4.75452e-05
0.00166042 0.000313608 -7.33161e-06
4.75452e-05 -7.33161e-06 -6.67091e-05
0.0013985 0.00103536 1.4907e-05
0.00103536 0.000491164 7.08635e-06
1.4907e-05 7.08635e-06 0.000100214
0.0022632 0.000891061 -7.03636e-08
0.000891061 0.00151288 4.88666e-06
-7.03636e-08 4.88666e-06 0.000810576
0.0178461 0.00591743 -0.00016676
0.00591743 0.000481824 7.47681e-05
-0.00016676 7.47681e-05 0.00106377
0.011478 -0.00471029 -0.000938474
-0.00471029 0.0068957 -0.000251984
-0.000938474 -0.000251984 0.00106028
0.00597937 -0.00873786 0.00180487
-0.00873786 0.0150273 0.000207452
0.00180487 0.000207452 0.00438158
0.0215422 -0.00486308 0.00079525
-0.00486308 0.00914213 0.000179495
0.00079525 0.000179495 0.000306618
0.0107318 0.0087392 -0.000242332
0.0087392 0.00460102 -9.42526e-05
-0.000242332 -9.42526e-05 5.19598e-05
-0.00167148 0.00115729 -1.01256e-05
0.00115729 0.00182949 1.67372e-05
-1.01256e-05 1.67372e-05 0.000450615
0.00180828 0.00376067 -0.000140949
0.00376067 0.000693991 -7.0288e-05
-0.000140949 -7.0288e-05 0.0014406
0.0114493 0.00933019 4.46482e-05
0.00933019 -0.000426517 6.85858e-05
4.46482e-05 6.85858e-05 -0.0022315
0.00804448 0.00668073 -0.000208325
0.00668073 -0.000776707 -0.000156275
-0.000208325 -0.000156275 0.000510332
0.001361 0.00181136 2.33631e-05
0.00181136 -1.33943e-06 -2.40713e-05
2.33631e-05 -2.40713e-05 -0.000444787
0.00159948 0.00144003 1.73968e-05
0.00144003 0.000469075 2.06306e-06
1.73968e-05 2.06306e-06 3.68096e-06
0.00149177 0.000857122 -3.3148e-05
0.000857122 0.000592018 -3.37725e-05
-3.3148e-05 -3.37725e-05 0.000396708
0.00174264 0.00271509 -9.72243e-05
0.00271509 0.000367305 -5.2541e-05
-9.72243e-05 -5.2541e-05 -0.00099915
0.00195315 0.00320897 0.000125148
0.00320897 -0.000612453 6.77087e-05
0.000125148 6.77087e-05 -0.00146986
0.00678541 -0.000440761 -9.83712e-05
-0.000440761 -0.00596144 2.32797e-05
-9.83712e-05 2.32797e-05 -0.00663741
-0.000311073 -0.00277343 -7.64979e-06
-0.00277343 0.00468088 0.000101021
-7.64979e-06 0.000101021 0.000956491
-0.0143346 -0.000321355 0.000955847
-0.000321355 0.00827759 7.62909e-06
0.000955847 7.62909e-06 0.0024155
0.00268459 -0.00420163 -0.000135062
-0.00420163 0.000462894 7.48578e-05
-0.000135062 7.48578e-05 -0.000973064
0.00680005 -0.00618113 1.45624e-05
-0.00618113 -0.000574371 0.000103785
1.45624e-05 0.000103785 0.0010289
0.00756276 0.00181978 0.00210339
0.00181978 0.0064895 -0.000401133
0.00210339 -0.000401133 0.0028292
0.0144715 -0.00507059 -0.000453654
-0.00507059 -0.00211783 0.000316277
-0.000453654 0.000316277 -0.000484368
0.00232121 -0.00264555 -2.57756e-05
-0.00264555 -0.000351899 1.21221e-05
-2.57756e-05 1.21221e-05 -0.00057005
0.0131676 -0.000874053 -0.000388295
-0.000874053 -0.00339592 0.000126525
-0.000388295 0.000126525 -0.00301609
0.00752863 -0.00395068 0.000109665
-0.00395068 -0.00195595 3.54179e-06
0.000109665 3.54179e-06 0.000526194
0.00303787 -0.00205451 4.82298e-05
-0.00205451 -0.000952703 -6.08836e-05
4.82298e-05 -6.08836e-05 -0.000475025
0.00333309 -0.00157808 9.76064e-05
-0.00157808 -0.0038499 -2.22042e-05
9.76064e-05 -2.22042e-05 -0.000585886
-0.00023663 -0.00107331 -9.9639e-06
-0.00107331 -0.00100621 2.06788e-05
-9.9639e-06 2.06788e-05 -0.00121762
0.00169384 -0.00119214 -2.48502e-05
-0.00119214 -0.000422961 6.48584e-06
-2.48502e-05 6.48584e-06 -0.00043087
0.00423974 -0.00118085 4.62323e-05
-0.00118085 0.000760746 -2.29091e-05
4.62323e-05 -2.29091e-05 0.000875507
0.00239792 -0.00145161 -9.47036e-06
-0.00145161 0.000265154 9.70556e-06
-9.47036e-06 9.70556e-06 -0.000248839
0.00292367 -0.00120937 -4.24395e-06
-0.00120937 0.000213149 1.82015e-06
-4.24395e-06 1.82015e-06 1.269e-05
0.00294272 -0.000921728 5.19128e-06
-0.000921728 1.43889e-05 -1.47953e-06
5.19128e-06 -1.47953e-06 7.30342e-05
0.00245973 -0.00112939 -1.11263e-05
-0.00112939 0.000158378 8.64329e-06
-1.11263e-05 8.64329e-06 -0.000207262
0.00247849 -0.000813166 1.9723e-08
-0.000813166 -6.57457e-05 1.67624e-06
1.9723e-08 1.67624e-06 -0.000113265
0.00267725 -0.000807494 -3.49691e-07
-0.000807494 2.57021e-05 -1.45687e-07
-3.49691e-07 -1.45687e-07 3.60992e-05
0.00226038 -0.000731446 7.57977e-07
-0.000731446 -6.99526e-06 4.96061e-06
7.57977e-07 4.96061e-06 -0.000192308
0.0024858 -0.000784217 -9.11196e-08
-0.000784217 8.56785e-05 7.46351e-07
-9.11196e-08 7.46351e-07 -1.61418e-05
0.00261509 -0.000787312 -1.48366e-06
-0.000787312 9.84939e-05 1.16869e-07
-1.48366e-06 1.16869e-07 2.03344e-05
0.00241364 -0.00076546 -5.14892e-06
-0.00076546 0.000111474 5.88772e-07
-5.14892e-06 5.88772e-07 -2.72601e-05
0.00238501 -0.000717719 -6.98812e-07
-0.000717719 0.000148341 -6.62972e-07
-6.98812e-07 -6.62972e-07 -8.8087e-06
0.00238559 -0.000716702 -3.58723e-07
-0.000716702 0.00016297 3.67633e-06
-3.58723e-07 3.67633e-06 -7.31573e-06
0.00242357 -0.000688398 9.23785e-07
-0.000688398 0.00029112 -5.50626e-07
9.23785e-07 -5.50626e-07 7.47807e-05
0.00237222 -0.000694088 -2.27906e-06
-0.000694088 0.000297804 -9.80773e-07
-2.27906e-06 -9.80773e-07 4.88627e-05
0.00243794 -0.000741474 -1.8076e-06
-0.000741474 0.000381456 -6.83926e-06
-1.8076e-06 -6.83926e-06 5.22656e-05
0.00248103 -0.000741799 -5.15843e-07
-0.000741799 0.000345113 1.55961e-07
-5.15843e-07 1.55961e-07 3.67853e-05
0.00250965 -0.000709862 7.26881e-06
-0.000709862 0.000346837 4.77e-06
7.26881e-06 4.77e-06 6.41058e-05
0.00203435 -0.000826267 -8.2062e-06
-0.000826267 0.000281891 -3.80617e-06
-8.2062e-06 -3.80617e-06 -0.000191207
0.00225504 -0.000881377 -2.65227e-06
-0.000881377 0.000312257 -1.027e-06
-2.65227e-06 -1.027e-06 -0.000141551
0.001932 -0.000889836 4.50479e-06
-0.000889836 4.03106e-05 5.48109e-06
4.50479e-06 5.48109e-06 -0.000409814
0.00177463 -0.000554186 -1.65978e-05
-0.000554186 0.000512734 1.39243e-05
-1.65978e-05 1.39243e-05 0.000125311
0.00204895 -0.000931515 -1.38799e-06
-0.000931515 0.000465942 1.33108e-06
-1.38799e-06 1.33108e-06 -0.000100634
0.00270382 -0.00114561 1.93228e-06
-0.00114561 0.000781348 7.80759e-06
1.93228e-06 7.80759e-06 0.000152909
0.000494289 -0.000262011 -1.99853e-05
-0.000262011 -7.15568e-05 2.59017e-05
-1.99853e-05 2.59017e-05 -0.000257046
0.000629841 -0.000329925 2.41473e-06
-0.000329925 -0.00012569 -3.03374e-06
2.41473e-06 -3.03374e-06 -0.000422015
0.00190398 -0.000799257 7.69041e-06
-0.000799257 0.000574526 4.40416e-06
7.69041e-06 4.40416e-06 4.28482e-05
0.00632103 7.43551e-05 -0.000214196
7.43551e-05 0.00385634 1.75645e-05
-0.000214196 1.75645e-05 0.00385436
0.00040292 -0.000214946 -4.5089e-06
-0.000214946 -8.66522e-05 -5.32404e-07
-4.5089e-06 -5.32404e-07 -0.000250094
0.00185012 -0.000544497 1.01907e-05
-0.000544497 0.000878903 -3.95823e-06
1.01907e-05 -3.95823e-06 0.000539655
0.00575624 0.000151879 8.58193e-06
0.000151879 0.00351952 -3.32087e-06
8.58193e-06 -3.32087e-06 0.00350128
0.00078621 -0.00019744 2.41171e-05
-0.00019744 0.000151799 -1.79473e-05
2.41171e-05 -1.79473e-05 2.74937e-05
0.00557919 0.000188835 0.000139585
0.000188835 0.00341621 -1.79079e-05
0.000139585 -1.79079e-05 0.00338993
0.00290889 0.00111823 -7.22301e-06
0.00111823 0.001301 1.21505e-05
-7.22301e-06 1.21505e-05 0.00060342
0.00168037 0.000662453 -2.03791e-06
0.000662453 0.000620632 1.07824e-06
-2.03791e-06 1.07824e-06 0.00013849
-0.000118062 0.000339528 1.0689e-06
0.000339528 -0.000398461 1.08001e-06
1.0689e-06 1.08001e-06 -0.00074436
-0.00131729 0.000127149 2.96007e-06
0.000127149 -0.00111467 -1.45472e-05
2.96007e-06 -1.45472e-05 -0.00140098
1.14148e-05 0.000368086 5.22274e-06
0.000368086 -0.000304781 -3.11332e-06
5.22274e-06 -3.11332e-06 -0.000580677
-0.00051906 0.000431111 -1.07806e-05
0.000431111 -0.000642842 -8.67717e-06
-1.07806e-05 -8.67717e-06 -0.000911474
-0.000510425 8.9711e-05 -7.98373e-06
8.9711e-05 -0.000460073 2.92048e-06
-7.98373e-06 2.92048e-06 -0.000848771
0.000660272 0.000263543 3.43544e-06
0.000263543 0.000216717 4.96847e-07
3.43544e-06 4.96847e-07 -7.11796e-05
0.000862512 0.000146575 -2.09378e-05
0.000146575 0.000262809 -2.32226e-05
-2.09378e-05 -2.32226e-05 0.000148455
0.00401887 -0.00012004 -0.000103604
-0.00012004 0.00237766 -1.55976e-05
-0.000103604 -1.55976e-05 0.00237226
0.00049902 6.34034e-05 4.78278e-06
6.34034e-05 5.94494e-05 -2.28225e-07
4.78278e-06 -2.28225e-07 -2.43616e-05
-0.000278108 2.57064e-05 -5.62796e-06
2.57064e-05 -0.000348917 1.5002e-05
-5.62796e-06 1.5002e-05 -0.000601156
0.00364052 -0.000123439 -1.30825e-05
-0.000123439 0.00212026 1.47546e-06
-1.30825e-05 1.47546e-06 0.00211387
0.00033575 -7.88597e-05 -1.27636e-05
-7.88597e-05 -2.69879e-05 1.67212e-05
-1.27636e-05 1.67212e-05 -0.000101382
0.0031277 -9.85036e-05 4.23946e-05
-9.85036e-05 0.001773 7.68373e-06
4.23946e-05 7.68373e-06 0.00177137
0.0162841 0.00101854 0.000794153
0.00101854 -0.000105975 0.000171082
0.000794153 0.000171082 0.00123014
0.00298763 -0.0061817 -0.00119246
-0.0061817 0.000396284 -5.91826e-05
-0.00119246 -5.91826e-05 -0.00614977
-0.00589117 0.00101915 -0.000294883
0.00101915 0.00780206 -9.40271e-05
-0.000294883 -9.40271e-05 -0.00122584
0.000523008 0.000152955 7.33128e-06
0.000152955 0.000271353 -3.0225e-05
7.33128e-06 -3.0225e-05 -0.000373122
0.000634857 0.000721159 -7.6792e-06
0.000721159 8.9784e-05 -1.55228e-05
-7.6792e-06 -1.55228e-05 -0.000537879
0.00195859 0.000906355 -1.71019e-05
0.000906355 0.00108523 -9.94085e-06
-1.71019e-05 -9.94085e-06 0.000439307
0.00235446 0.00117727 1.85059e-06
0.00117727 0.000991191 -9.45717e-08
1.85059e-06 -9.45717e-08 0.000247747
0.00195575 0.00108577 2.51802e-05
0.00108577 0.000453498 2.95867e-05
2.51802e-05 2.95867e-05 -0.000165402
0.000479846 0.00106691 3.09119e-05
0.00106691 -0.000253238 1.4645e-05
3.09119e-05 1.4645e-05 -0.000791838
0.00157613 0.00080708 -1.33176e-05
0.00080708 0.000903867 -9.84797e-06
-1.33176e-05 -9.84797e-06 0.000290427
0.00163115 0.00126598 2.52221e-06
0.00126598 0.000384969 5.75969e-06
2.52221e-06 5.75969e-06 -0.000167547
0.00227067 0.00123986 2.95863e-05
0.00123986 0.000847457 4.75572e-06
2.95863e-05 4.75572e-06 0.000421796
0.00344987 0.0013688 1.55796e-05
0.0013688 0.00138193 1.11622e-05
1.55796e-05 1.11622e-05 0.000798788
0.00181352 0.00135086 1.25788e-05
0.00135086 0.000231501 6.49272e-06
1.25788e-05 6.49272e-06 -9.75339e-05
0.00244206 0.00163136 3.0012e-05
0.00163136 0.000531936 1.15824e-05
3.0012e-05 1.15824e-05 -6.71296e-05
0.0020852 0.0016157 1.41967e-05
0.0016157 0.000323654 1.21449e-06
1.41967e-05 1.21449e-06 -4.13795e-05
0.00293027 0.0011571 -4.13824e-05
0.0011571 0.00133581 -0.000101909
-4.13824e-05 -0.000101909 0.00091152
0.00401404 0.00321255 3.14557e-05
0.00321255 -0.00456429 6.19362e-05
3.14557e-05 6.19362e-05 -0.000704748
0.0136531 0.00680115 0.000492232
0.00680115 -0.00285388 0.000272126
0.000492232 0.000272126 -0.00240654
0.0182974 -0.00840842 0.00129674
-0.00840842 0.00958803 -0.000257754
0.00129674 -0.000257754 0.00150579
0.00625311 0.0108277 0.00122859
0.0108277 -0.0022834 0.000487621
0.00122859 0.000487621 -0.00483355
-0.000976013 0.00267049 -2.7417e-05
0.00267049 0.000126651 3.696e-05
-2.7417e-05 3.696e-05 0.000545298
0.0036126 0.00399047 -0.000104894
0.00399047 -0.00146746 -7.97966e-05
-0.000104894 -7.97966e-05 0.000489548
0.00736256 0.00353957 5.51572e-05
0.00353957 0.00098508 2.92588e-05
5.51572e-05 2.92588e-05 0.000819866
0.00626747 0.00273856 2.57056e-05
0.00273856 0.00220696 1.27418e-05
2.57056e-05 1.27418e-05 0.00151472
0.00122408 0.00132898 -4.49193e-05
0.00132898 0.000250315 -1.02768e-06
-4.49193e-05 -1.02768e-06 -0.000167746
0.010034 0.00444804 -0.000218922
0.00444804 0.00317995 1.86855e-06
-0.000218922 1.86855e-06 0.00184637
0.00624443 -0.00120022 6.59771e-05
-0.00120022 -0.00208265 5.52522e-05
6.59771e-05 5.52522e-05 0.000637009
0.0132071 -0.000524984 -4.91043e-05
-0.000524984 -0.00128602 -5.01718e-05
-4.91043e-05 -5.01718e-05 0.000203521
-0.0109503 -0.00472399 0.00161853
-0.00472399 -0.00137791 -5.04408e-05
0.00161853 -5.04408e-05 -0.00671929
0.00247364 -0.00251801 -0.000142883
-0.00251801 -0.000179736 6.26718e-05
-0.000142883 6.26718e-05 -0.000303228
0.00806084 -0.00446351 -0.000103712
-0.00446351 -0.00229726 0.000160992
-0.000103712 0.000160992 0.000469152
0.00281203 -0.000603905 -0.000518147
-0.000603905 -0.00896145 1.35367e-05
-0.000518147 1.35367e-05 -0.00817332
0.0036068 -0.00195841 5.51594e-05
-0.00195841 -0.000626697 -1.33462e-06
5.51594e-05 -1.33462e-06 9.25341e-05
0.00510822 -0.0016467 -0.000102122
-0.0016467 -0.00254418 2.67234e-06
-0.000102122 2.67234e-06 1.20129e-05
0.00728221 -0.0015376 7.39237e-05
-0.0015376 0.00145292 -5.41321e-05
7.39237e-05 -5.41321e-05 0.00218573
0.00764191 -0.00104017 0.000170531
-0.00104017 0.00106416 1.32836e-05
0.000170531 1.32836e-05 0.00228795
-0.00122228 -0.000899475 2.34038e-05
-0.000899475 -0.00223129 1.27657e-05
2.34038e-05 1.27657e-05 -0.00187714
0.00240681 -0.00100994 -1.29852e-05
-0.00100994 -0.000352784 3.77947e-06
-1.29852e-05 3.77947e-06 -3.84087e-05
0.00275494 -0.000731312 2.99319e-05
-0.000731312 -0.000306028 -1.34216e-05
2.99319e-05 -1.34216e-05 9.03902e-05
0.0026037 -0.00119826 -3.52017e-06
-0.00119826 2.47533e-05 4.6319e-06
-3.52017e-06 4.6319e-06 -0.000181799
0.00291175 -0.000918374 7.30387e-07
-0.000918374 7.79179e-06 1.1852e-06
7.30387e-07 1.1852e-06 6.43349e-05
0.0028195 -0.00076211 5.96591e-08
-0.00076211 -3.94842e-05 -1.5016e-06
5.96591e-08 -1.5016e-06 1.3356e-05
0.00237487 -0.000808513 5.48964e-07
-0.000808513 -0.000138481 3.03571e-06
5.48964e-07 3.03571e-06 -0.000185777
0.00264401 -0.000804279 8.95716e-08
-0.000804279 1.87667e-05 3.47256e-07
8.95716e-08 3.47256e-07 1.82112e-05
0.00258087 -0.000678322 -1.45236e-06
-0.000678322 -1.51692e-05 -9.48938e-07
-1.45236e-06 -9.48938e-07 -2.68091e-05
0.00246264 -0.000777957 7.57897e-07
-0.000777957 8.01977e-05 8.1292e-07
7.57897e-07 8.1292e-07 -2.33682e-05
0.00261283 -0.000785486 -7.65424e-08
-0.000785486 0.000124635 -1.94981e-07
-7.65424e-08 -1.94981e-07 4.00905e-05
0.00249768 -0.00068041 1.41774e-06
-0.00068041 0.000106717 -8.94276e-07
1.41774e-06 -8.94276e-07 2.03891e-05
0.00239247 -0.000769902 -3.28888e-06
-0.000769902 9.0269e-05 6.73299e-07
-3.28888e-06 6.73299e-07 -4.06895e-05
0.00235988 -0.000720064 -1.55429e-06
-0.000720064 0.000126397 1.59455e-07
-1.55429e-06 1.59455e-07 -2.59418e-05
0.00239417 -0.000673298 -2.00109e-06
-0.000673298 0.000231933 2.53178e-07
-2.00109e-06 2.53178e-07 4.02744e-05
0.00240922 -0.000682174 2.66291e-06
-0.000682174 0.000281766 1.24832e-06
2.66291e-06 1.24832e-06 6.71471e-05
0.002348 -0.000685359 1.33229e-07
-0.000685359 0.000278716 6.78826e-08
1.33229e-07 6.78826e-08 3.05156e-05
0.00241216 -0.000690933 -9.21442e-07
-0.000690933 0.000349971 -2.21179e-06
-9.21442e-07 -2.21179e-06 7.18337e-05
0.00213747 -0.000689294 -4.81939e-06
-0.000689294 0.000288046 -5.25757e-06
-4.81939e-06 -5.25757e-06 -7.29263e-05
0.00235513 -0.000740568 -7.83671e-07
-0.000740568 0.00032232 -1.70901e-06
-7.83671e-07 -1.70901e-06 -1.47407e-05
0.00255148 -0.00075144 4.10653e-06
-0.00075144 0.000392985 4.0237e-06
4.10653e-06 4.0237e-06 8.11895e-05
0.00136441 -0.000559808 -2.24373e-05
-0.000559808 9.25396e-05 4.53804e-06
-2.24373e-05 4.53804e-06 -0.000298152
0.00226461 -0.000844507 -8.60676e-07
-0.000844507 0.000446448 3.89282e-07
-8.60676e-07 3.89282e-07 -2.98762e-05
0.00221749 -0.00088982 1.29965e-06
-0.00088982 0.000273136 5.3186e-06
1.29965e-06 5.3186e-06 -0.000188985
0.000517325 -0.000284327 -2.06594e-05
-0.000284327 -8.7778e-05 2.6054e-05
-2.06594e-05 2.6054e-05 -0.000276953
0.00100329 -0.000499037 8.64809e-06
-0.000499037 3.95929e-05 1.3463e-06
8.64809e-06 1.3463e-06 -0.000344698
0.00231475 -0.000954559 6.80284e-06
-0.000954559 0.000651771 5.91943e-06
6.80284e-06 5.91943e-06 8.24132e-05
0.00821609 -2.31922e-05 -0.000320843
-2.31922e-05 0.00504383 2.88195e-05
-0.000320843 2.88195e-05 0.00505302
0.000190675 -0.000274016 3.57455e-06
-0.000274016 -0.000260894 -2.87298e-08
3.57455e-06 -2.87298e-08 -0.000448388
0.000333366 -0.000306574 -7.77052e-07
-0.000306574 -0.000322181 -8.28387e-06
-7.77052e-07 -8.28387e-06 -0.000627805
0.00709853 3.33977e-05 -1.29894e-05
3.33977e-05 0.00436143 -1.81737e-06
-1.29894e-05 -1.81737e-06 0.00436068
0.00045921 -0.000195422 1.15099e-05
-0.000195422 -5.013e-05 -2.33099e-05
1.15099e-05 -2.33099e-05 -0.000219291
0.00577631 8.45888e-05 0.000230339
8.45888e-05 0.00353843 -3.20031e-05
0.000230339 -3.20031e-05 0.0035282
0.00227419 0.00103108 -1.7328e-05
0.00103108 0.000664554 1.48995e-05
-1.7328e-05 1.48995e-05 5.16421e-05
0.00222241 0.00102009 -1.54624e-06
0.00102009 0.000853679 -4.89554e-07
-1.54624e-06 -4.89554e-07 0.000189468
0.00120033 0.000695936 -1.07785e-05
0.000695936 0.000260728 7.55431e-06
-1.07785e-05 7.55431e-06 -0.000257998
0.000520797 0.000590463 1.21364e-05
0.000590463 -0.000118819 -6.79812e-06
1.21364e-05 -6.79812e-06 -0.000604114
0.00121843 0.000381692 -4.04599e-06
0.000381692 0.000354351 -3.0878e-06
-4.04599e-06 -3.0878e-06 1.20007e-05
-0.000281515 0.000245088 -6.3405e-06
0.000245088 -0.000508139 -2.4258e-06
-6.3405e-06 -2.4258e-06 -0.000817966
0.00249377 0.000260322 1.1105e-06
0.000260322 0.00127387 -4.32863e-06
1.1105e-06 -4.32863e-06 0.00101011
0.00118734 0.00021902 3.20137e-06
0.00021902 0.000481699 -1.30156e-06
3.20137e-06 -1.30156e-06 0.000194502
0.000410962 0.000204779 -3.17727e-05
0.000204779 -8.3222e-05 -2.29956e-05
-3.17727e-05 -2.29956e-05 -0.000212737
0.00049329 0.00020851 -2.71436e-07
0.00020851 0.000120971 2.0224e-05
-2.71436e-07 2.0224e-05 -0.000167894
0.00042242 0.000135206 -8.56818e-07
0.000135206 -1.23973e-05 -5.06584e-07
-8.56818e-07 -5.06584e-07 -0.000120736
0.00510123 -0.000130476 -0.000166254
-0.000130476 0.00310518 -2.30063e-05
-0.000166254 -2.30063e-05 0.00309181
0.00387956 -0.000141391 -1.40241e-05
-0.000141391 0.00229097 1.54008e-06
-1.40241e-05 1.54008e-06 0.00227937
-1.36541e-05 0.000112354 1.72598e-05
0.000112354 -0.00027304 1.93704e-05
1.72598e-05 1.93704e-05 -0.000347882
0.00345346 -0.00012661 5.20099e-05
-0.00012661 0.0019988 8.76292e-06
5.20099e-05 8.76292e-06 0.00199055
0.00140759 0.000741454 0.000148645
0.000741454 -0.00357802 3.50962e-05
0.000148645 3.50962e-05 -0.000646065
0.00510203 -0.00016571 0.000295716
-0.00016571 -0.00734899 0.000177725
0.000295716 0.000177725 -0.00759018
0.0181908 -0.0070267 -0.00037697
-0.0070267 0.0109655 -0.000145207
-0.00037697 -0.000145207 0.00374589
0.00190743 0.00091852 1.41907e-05
0.00091852 0.000186505 1.49027e-05
1.41907e-05 1.49027e-05 -0.000277284
0.0027358 0.000960651 -2.18431e-05
0.000960651 0.00139129 -1.91581e-05
-2.18431e-05 -1.91581e-05 0.000759609
0.00178006 0.00110729 -1.18417e-05
0.00110729 0.000661098 -2.33592e-05
-1.18417e-05 -2.33592e-05 -7.02378e-05
0.00172012 0.00121794 1.81416e-06
0.00121794 0.000503223 2.41893e-06
1.81416e-06 2.41893e-06 -8.73403e-05
0.00221 0.00111747 8.12128e-07
0.00111747 0.000636509 6.25039e-06
8.12128e-07 6.25039e-06 5.00535e-06
0.00267492 0.00127575 2.48206e-05
0.00127575 0.000819301 2.05306e-05
2.48206e-05 2.05306e-05 0.000237349
0.0014562 0.00122775 -2.29479e-05
0.00122775 0.000259131 -8.52332e-06
-2.29479e-05 -8.52332e-06 -0.000299408
0.00081992 0.000991752 6.43778e-06
0.000991752 6.80227e-05 -5.02811e-05
6.43778e-06 -5.02811e-05 -0.00031472
0.00215751 0.00133107 2.85111e-06
0.00133107 0.000524919 -1.03551e-06
2.85111e-06 -1.03551e-06 -3.94719e-06
0.000904824 0.00127342 1.4964e-05
0.00127342 -0.000354658 -3.59957e-05
1.4964e-05 -3.59957e-05 -0.000553377
0.00257492 0.00128046 2.94239e-05
0.00128046 0.000608356 7.39249e-07
2.94239e-05 7.39249e-07 4.9657e-06
0.0026253 0.00115357 4.30646e-05
0.00115357 0.000498834 4.98411e-05
4.30646e-05 4.98411e-05 0.000284081
0.00119559 0.00137681 -1.19082e-05
0.00137681 -0.000110851 -1.24065e-05
-1.19082e-05 -1.24065e-05 -0.000574539
0.00196813 0.00153661 -4.77643e-05
0.00153661 0.000284566 -8.0649e-06
-4.77643e-05 -8.0649e-06 -1.52502e-05
0.00293469 0.00154446 2.19671e-05
0.00154446 -0.00159805 4.85166e-05
2.19671e-05 4.85166e-05 -0.000208808
0.00639937 0.00354698 -0.000142598
0.00354698 -0.00319573 -6.0762e-05
-0.000142598 -6.0762e-05 0.000500438
0.00389993 0.00485873 0.000958222
0.00485873 -0.00913344 0.000280106
0.000958222 0.000280106 -0.00842283
0.00298089 0.00359547 -0.000296943
0.00359547 -0.000632388 -0.000143681
-0.000296943 -0.000143681 0.000726006
0.00614445 0.00295856 -3.65213e-05
0.00295856 0.00087953 -1.14004e-05
-3.65213e-05 -1.14004e-05 0.000854729
0.00792699 0.00308907 -0.000238955
0.00308907 0.00286001 -6.89289e-05
-0.000238955 -6.89289e-05 0.00208589
0.00448455 -0.000207344 -4.02368e-05
-0.000207344 -0.000674146 -2.32487e-05
-4.02368e-05 -2.32487e-05 0.00023804
0.000853646 -0.000723396 0.000137931
-0.000723396 -0.002668 3.46329e-05
0.000137931 3.46329e-05 -0.000232031
0.00805099 -2.2682e-05 0.000283414
-2.2682e-05 -0.00648234 -2.66071e-05
0.000283414 -2.66071e-05 -0.00674618
0.0028817 -0.00173375 -8.95926e-05
-0.00173375 -0.000918526 0.000111945
-8.95926e-05 0.000111945 -5.92251e-05
0.00591655 -0.00164649 -0.000241493
-0.00164649 -0.00246892 7.13633e-05
-0.000241493 7.13633e-05 -0.000277674
0.00358845 -0.00122538 -2.57497e-05
-0.00122538 -0.000725315 1.23758e-05
-2.57497e-05 1.23758e-05 0.000238923
0.00479409 -0.00088642 -4.6615e-05
-0.00088642 -0.000354855 7.9564e-07
-4.6615e-05 7.9564e-07 0.000675518
0.00483699 -0.000628718 0.000116945
-0.000628718 0.000883174 -2.21439e-05
0.000116945 -2.21439e-05 0.00129
0.00293971 -0.000127482 5.3073e-05
-0.000127482 -5.29786e-05 4.42019e-06
5.3073e-05 4.42019e-06 0.000234396
0.00069199 -0.000816469 -1.65977e-05
-0.000816469 -0.00132359 1.69111e-05
-1.65977e-05 1.69111e-05 -0.000837822
0.00270807 -0.000760409 -4.41335e-06
-0.000760409 -0.000318957 5.70778e-07
-4.41335e-06 5.70778e-07 3.53555e-05
0.00275027 -0.000558102 4.28856e-06
-0.000558102 -0.000279547 -2.53698e-06
4.28856e-06 -2.53698e-06 1.90443e-05
0.00287996 -0.000909825 -3.94994e-06
-0.000909825 8.6489e-06 3.04918e-06
-3.94994e-06 3.04918e-06 6.41968e-05
0.00282568 -0.000736689 -2.73523e-07
-0.000736689 -3.54385e-07 -4.06386e-07
-2.73523e-07 -4.06386e-07 6.54063e-05
0.00259884 -0.00054657 -1.21398e-06
-0.00054657 -0.00013157 -8.54925e-07
-1.21398e-06 -8.54925e-07 -3.34377e-05
0.00261078 -0.000798761 -8.44963e-07
-0.000798761 1.55601e-05 6.0219e-07
-8.44963e-07 6.0219e-07 4.73026e-06
0.00257562 -0.00068034 -6.32658e-07
-0.00068034 -1.70283e-06 -5.50574e-08
-6.32658e-07 -5.50574e-08 -1.13715e-05
0.00245665 -0.000558968 6.42606e-07
-0.000558968 2.33025e-05 -6.66278e-07
6.42606e-07 -6.66278e-07 -5.6921e-06
0.00260962 -0.000782382 -3.02589e-07
-0.000782382 0.000151694 -1.3931e-07
-3.02589e-07 -1.3931e-07 6.07594e-05
0.00250815 -0.000681963 1.01915e-06
-0.000681963 0.00011131 -1.99327e-07
1.01915e-06 -1.99327e-07 2.4061e-05
0.00237667 -0.00060556 -2.91593e-07
-0.00060556 0.000128426 -8.80994e-08
-2.91593e-07 -8.80994e-08 1.2255e-05
0.0023347 -0.000722915 -1.92486e-06
-0.000722915 0.00010474 1.25756e-06
-1.92486e-06 1.25756e-06 -4.29997e-05
0.00232733 -0.000672267 -1.05289e-06
-0.000672267 0.000179036 4.53755e-07
-1.05289e-06 4.53755e-07 -8.50005e-06
0.00243838 -0.000652898 -1.32546e-06
-0.000652898 0.000308046 -1.31971e-06
-1.32546e-06 -1.31971e-06 7.83449e-05
0.00233113 -0.000677289 2.76809e-06
-0.000677289 0.000264138 1.53001e-06
2.76809e-06 1.53001e-06 1.65091e-05
0.00235479 -0.00068651 -4.46899e-07
-0.00068651 0.000310053 4.43216e-07
-4.46899e-07 4.43216e-07 3.48041e-05
0.00226365 -0.000630953 -3.14096e-06
-0.000630953 0.00033721 -2.78549e-06
-3.14096e-06 -2.78549e-06 3.1694e-05
0.00149301 -0.000492389 -2.02312e-05
-0.000492389 9.2168e-05 5.78849e-06
-2.02312e-05 5.78849e-06 -0.000238261
0.00211556 -0.000686722 -2.52047e-07
-0.000686722 0.000280677 -1.55933e-06
-2.52047e-07 -1.55933e-06 -8.53369e-05
0.00223303 -0.000736281 8.63958e-07
-0.000736281 0.000235783 3.67475e-06
8.63958e-07 3.67475e-06 -0.000108404
0.000127479 -0.000283525 -2.14648e-05
-0.000283525 -0.000358346 2.32626e-05
-2.14648e-05 2.32626e-05 -0.0005584
0.00135379 -0.000549399 -1.74531e-07
-0.000549399 9.83819e-05 -9.47641e-08
-1.74531e-07 -9.47641e-08 -0.00028656
0.00242314 -0.000856285 5.23578e-06
-0.000856285 0.000560745 5.07625e-06
5.23578e-06 5.07625e-06 8.27926e-05
0.00911803 -9.36965e-05 -0.000398735
-9.36965e-05 0.00558996 3.77103e-05
-0.000398735 3.77103e-05 0.00561131
5.47613e-05 -0.000294719 1.12625e-06
-0.000294719 -0.00037114 2.1414e-06
1.12625e-06 2.1414e-06 -0.000573241
0.000438376 -0.00046585 1.486e-05
-0.00046585 -0.000316057 -4.95658e-06
1.486e-05 -4.95658e-06 -0.000699411
0.00859924 -6.2127e-05 -8.95078e-06
-6.2127e-05 0.00529282 1.16613e-06
-8.95078e-06 1.16613e-06 0.0053064
-0.000267646 -0.000309597 2.24283e-05
-0.000309597 -0.000545251 -2.78436e-05
2.24283e-05 -2.78436e-05 -0.000735175
0.00786339 1.24247e-05 0.000331507
1.24247e-05 0.00486723 -4.23134e-05
0.000331507 -4.23134e-05 0.00486629
0.00190016 0.000854849 -7.85287e-06
0.000854849 0.000228829 1.39501e-05
-7.85287e-06 1.39501e-05 -0.000241784
0.00220575 0.00101282 -1.7849e-06
0.00101282 0.000629196 1.7807e-06
-1.7849e-06 1.7807e-06 2.20316e-05
0.00203955 0.000866574 -6.97695e-06
0.000866574 0.00056451 1.18031e-05
-6.97695e-06 1.18031e-05 1.24736e-05
0.00192066 0.000962243 5.981e-06
0.000962243 0.000657938 -1.11827e-05
5.981e-06 -1.11827e-05 1.74037e-05
0.00160336 0.000726161 -2.53712e-06
0.000726161 0.000482321 -1.06786e-06
-2.53712e-06 -1.06786e-06 -3.95472e-05
0.00021492 0.000346045 -1.34522e-05
0.000346045 -0.00029921 -1.21739e-06
-1.34522e-05 -1.21739e-06 -0.000636431
0.0020237 0.000439585 4.32006e-06
0.000439585 0.000806156 -7.74505e-06
4.32006e-06 -7.74505e-06 0.000453351
0.000397714 0.000297971 3.37589e-06
0.000297971 -0.000114703 -1.09428e-06
3.37589e-06 -1.09428e-06 -0.000391488
0.000348725 0.000244293 -3.42938e-05
0.000244293 -0.000170001 -2.43252e-05
-3.42938e-05 -2.43252e-05 -0.000302657
0.00111637 0.000259094 3.02357e-06
0.000259094 0.000422679 9.36723e-06
3.02357e-06 9.36723e-06 0.000138464
0.000683919 0.000202661 -1.19881e-06
0.000202661 9.308e-05 -1.23403e-06
-1.19881e-06 -1.23403e-06 -2.89476e-05
0.00659647 -0.000199273 -0.000200771
-0.000199273 0.00411145 -3.07461e-05
-0.000200771 -3.07461e-05 0.00407304
0.000322184 0.000136165 2.06922e-05
0.000136165 -6.88878e-05 2.33854e-05
2.06922e-05 2.33854e-05 -0.000174561
0.00470274 -0.000188878 -1.97784e-05
-0.000188878 0.00286063 2.13199e-06
-1.97784e-05 2.13199e-06 0.00283123
0.00393149 -0.000162134 6.81514e-05
-0.000162134 0.00232907 1.10092e-05
6.81514e-05 1.10092e-05 0.00231138
0.00052033 0.000592478 2.97748e-05
0.000592478 -0.00314945 2.21522e-05
2.97748e-05 2.21522e-05 -0.00141148
0.00551405 0.000604756 7.57684e-05
0.000604756 -0.00226864 3.37353e-05
7.57684e-05 3.37353e-05 0.000756857
0.0176363 0.000974554 3.29022e-05
0.000974554 0.00012245 0.000144357
3.29022e-05 0.000144357 0.00185213
0.00233519 0.00105861 2.07677e-06
0.00105861 0.000369209 8.17656e-06
2.07677e-06 8.17656e-06 -0.000103739
0.00237882 0.00096287 2.00232e-06
0.00096287 0.000248585 8.22321e-06
2.00232e-06 8.22321e-06 -0.000134172
0.00193147 0.000926802 -7.82871e-07
0.000926802 0.000203875 -4.84327e-06
-7.82871e-07 -4.84327e-06 -0.000258235
0.00288046 0.00135231 -7.62194e-06
0.00135231 0.00120563 -3.88592e-06
-7.62194e-06 -3.88592e-06 0.000573023
0.0023612 0.00113154 -1.70985e-05
0.00113154 0.000754021 -1.66755e-05
-1.70985e-05 -1.66755e-05 0.000116039
0.00259422 0.00130874 7.00599e-06
0.00130874 0.000717989 1.82596e-06
7.00599e-06 1.82596e-06 0.000133959
0.00278774 0.00123101 -8.68897e-06
0.00123101 0.000353573 4.03176e-07
-8.68897e-06 4.03176e-07 -4.9446e-05
0.00162075 0.00136792 -7.33195e-06
0.00136792 0.000129658 -1.0738e-05
-7.33195e-06 -1.0738e-05 -0.000384775
0.00138687 0.00138427 -3.13366e-05
0.00138427 -6.92204e-05 0.000105862
-3.13366e-05 0.000105862 -0.000345486
0.00283925 0.00137749 3.8024e-06
0.00137749 0.000715478 -5.89267e-06
3.8024e-06 -5.89267e-06 9.95224e-05
0.00335872 0.00120123 2.96592e-06
0.00120123 0.000547239 1.62886e-05
2.96592e-06 1.62886e-05 0.000311359
0.00242117 0.000586255 7.39608e-05
0.000586255 0.00016335 7.78767e-06
7.39608e-05 7.78767e-06 0.00038756
0.000336305 0.000891619 4.49818e-06
0.000891619 -0.000698696 -1.70913e-05
4.49818e-06 -1.70913e-05 -0.000863193
0.00149611 0.00135745 -5.693e-05
0.00135745 9.66593e-05 -8.18053e-07
-5.693e-05 -8.18053e-07 -0.000364508
0.00430662 0.00168996 3.68515e-05
0.00168996 -0.000819512 1.6147e-05
3.68515e-05 1.6147e-05 0.000449087
0.0107049 0.00366945 -9.66122e-05
0.00366945 -0.000676241 -6.14724e-05
-9.66122e-05 -6.14724e-05 0.00212915
0.0061302 0.00251293 -9.24856e-05
0.00251293 0.00141815 -0.000110435
-9.24856e-05 -0.000110435 0.00149046
0.00364828 -3.35622e-05 8.39717e-05
-3.35622e-05 0.000419167 6.96211e-06
8.39717e-05 6.96211e-06 0.000759326
0.00401671 -0.000267292 -0.000125739
-0.000267292 -0.00119679 1.08571e-05
-0.000125739 1.08571e-05 5.72886e-05
0.00536142 0.000566658 -4.89269e-05
0.000566658 -0.000901846 -2.90861e-05
-4.89269e-05 -2.90861e-05 0.00101467
0.00152071 -0.00110371 -0.000116369
-0.00110371 -0.00194693 8.45019e-05
-0.000116369 8.45019e-05 -0.000900214
0.00230327 -0.000841241 -0.000111777
-0.000841241 -0.00162714 8.48788e-06
-0.000111777 8.48788e-06 -0.000733889
0.00348175 -0.000569589 1.10103e-06
-0.000569589 -5.81895e-06 -6.79964e-06
1.10103e-06 -6.79964e-06 0.000561666
0.00259737 -0.000126878 -1.73566e-05
-0.000126878 -0.000256779 -2.8967e-06
-1.73566e-05 -2.8967e-06 5.2732e-05
0.00271606 -0.000335567 8.98014e-06
-0.000335567 -0.000340716 -7.20797e-07
8.98014e-06 -7.20797e-07 5.28544e-06
0.00251926 0.000104794 2.24307e-06
0.000104794 -0.000435936 8.93628e-07
2.24307e-06 8.93628e-07 -0.000194272
0.00275034 -0.000799556 -2.1339e-05
-0.000799556 -0.000286658 1.03884e-05
-2.1339e-05 1.03884e-05 2.28585e-05
0.00281205 -0.000588543 -3.19054e-06
-0.000588543 -0.000257103 6.85188e-07
-3.19054e-06 6.85188e-07 3.08348e-06
0.00268079 -0.000401689 -4.81956e-07
-0.000401689 -0.000195362 -2.60612e-07
-4.81956e-07 -2.60612e-07 1.52701e-05
0.0028254 -0.000711378 -3.09699e-06
-0.000711378 2.93563e-05 1.24585e-06
-3.09699e-06 1.24585e-06 0.000110476
0.00261649 -0.000550721 2.6652e-07
-0.000550721 -0.000110551 -2.2622e-07
2.6652e-07 -2.2622e-07 -1.90897e-05
0.00248841 -0.000446479 1.027e-06
-0.000446479 -6.62781e-05 -3.95105e-07
1.027e-06 -3.95105e-07 -1.28094e-06
0.00256973 -0.000682845 -9.33688e-07
-0.000682845 9.89862e-06 8.38047e-07
-9.33688e-07 8.38047e-07 2.4769e-06
0.00246847 -0.000557935 4.13615e-07
-0.000557935 2.41817e-05 -1.15367e-07
4.13615e-07 -1.15367e-07 -4.78384e-06
0.00234513 -0.000496469 -1.75721e-07
-0.000496469 4.84927e-05 -2.15711e-07
-1.75721e-07 -2.15711e-07 -7.18283e-06
0.00252042 -0.000683895 1.39054e-06
-0.000683895 0.000116697 4.11524e-07
1.39054e-06 4.11524e-07 2.84703e-05
0.0023705 -0.000606287 5.64798e-07
-0.000606287 0.000120359 -8.00542e-08
5.64798e-07 -8.00542e-08 3.76937e-06
0.00238973 -0.000572904 -2.59634e-06
-0.000572904 0.000210427 4.72062e-07
-2.59634e-06 4.72062e-07 4.15574e-05
0.00226094 -0.000671401 4.27823e-07
-0.000671401 0.000126211 3.24258e-07
4.27823e-07 3.24258e-07 -5.70786e-05
0.00232338 -0.000645633 2.75544e-07
-0.000645633 0.000230377 -5.50934e-07
2.75544e-07 -5.50934e-07 2.16682e-06
0.00218902 -0.000580611 -2.41113e-06
-0.000580611 0.00021979 -2.26421e-06
-2.41113e-06 -2.26421e-06 -4.1668e-05
0.00231104 -0.00068314 -1.78005e-07
-0.00068314 0.000280044 3.76226e-06
-1.78005e-07 3.76226e-06 7.33366e-06
0.00227828 -0.000634661 -5.94437e-07
-0.000634661 0.000348766 -1.16568e-07
-5.94437e-07 -1.16568e-07 4.42163e-05
0.00148184 -0.000426307 -1.44025e-05
-0.000426307 5.97822e-05 5.06419e-06
-1.44025e-05 5.06419e-06 -0.000223544
0.000335014 -0.000271806 -1.86728e-05
-0.000271806 -0.000264318 2.14373e-05
-1.86728e-05 2.14373e-05 -0.00045456
0.00152243 -0.000494061 4.37346e-08
-0.000494061 0.000112531 1.67346e-07
4.37346e-08 1.67346e-07 -0.000216814
0.00215587 -0.000690087 3.81213e-06
-0.000690087 0.000314942 2.45828e-06
3.81213e-06 2.45828e-06 -5.73544e-05
0.00889718 -0.000174048 -0.000420112
-0.000174048 0.00542554 4.18113e-05
-0.000420112 4.18113e-05 0.00545284
0.000321571 -0.000297835 -1.27309e-06
-0.000297835 -0.000245282 9.95033e-07
-1.27309e-06 9.95033e-07 -0.000443462
0.00151511 -0.000543611 2.10936e-05
-0.000543611 0.000218293 -5.37352e-06
2.10936e-05 -5.37352e-06 -0.000159913
0.00909852 -0.000122052 -1.51075e-06
-0.000122052 0.0055748 2.21182e-06
-1.51075e-06 2.21182e-06 0.00559577
0.000144998 -0.00030775 2.469e-05
-0.00030775 -0.000316627 -2.61838e-05
2.469e-05 -2.61838e-05 -0.000522924
0.00904799 -9.65352e-05 0.000394126
-9.65352e-05 0.00557113 -4.3889e-05
0.000394126 -4.3889e-05 0.00558589
0.00207415 0.000873513 2.37028e-06
0.000873513 0.000176592 1.30026e-05
2.37028e-06 1.30026e-05 -0.000229224
0.0020436 0.00087621 2.54534e-06
0.00087621 0.000335171 2.28405e-08
2.54534e-06 2.28405e-08 -0.000137453
0.00235083 0.000848909 3.25736e-07
0.000848909 0.000586039 1.29166e-05
3.25736e-07 1.29166e-05 9.78137e-05
0.00217406 0.000994884 1.45093e-05
0.000994884 0.000630061 -1.07074e-05
1.45093e-05 -1.07074e-05 2.85699e-05
0.00198145 0.00085885 -1.78306e-07
0.00085885 0.000521699 1.70484e-06
-1.78306e-07 1.70484e-06 -2.99442e-05
0.000624245 0.000423862 -2.60612e-05
0.000423862 -0.00018764 -6.60548e-08
-2.60612e-05 -6.60548e-08 -0.00054754
0.00223233 0.000747967 2.12186e-06
0.000747967 0.000822401 -7.34064e-06
2.12186e-06 -7.34064e-06 0.000308556
0.000597472 0.000325532 3.4128e-07
0.000325532 -6.2137e-05 -7.39677e-07
3.4128e-07 -7.39677e-07 -0.000378681
0.000236809 0.00029094 -3.36546e-05
0.00029094 -0.000241771 -2.85353e-05
-3.36546e-05 -2.85353e-05 -0.000407898
0.00178057 0.000221668 3.1837e-06
0.000221668 0.000743908 2.24606e-06
3.1837e-06 2.24606e-06 0.000486884
0.000270173 0.00022797 4.57309e-06
0.00022797 -0.000213038 -1.35117e-06
4.57309e-06 -1.35117e-06 -0.000347158
0.00764546 -0.000148949 -0.000264927
-0.000148949 0.00475967 -3.48072e-05
-0.000264927 -3.48072e-05 0.00473425
0.00032492 0.000187846 2.80167e-05
0.000187846 -0.000119385 2.50406e-05
2.80167e-05 2.50406e-05 -0.00024231
0.00608667 -0.000187346 -7.20442e-06
-0.000187346 0.00376202 -4.82776e-07
-7.20442e-06 -4.82776e-07 0.00373205
0.00440288 -0.000201207 8.72362e-05
-0.000201207 0.00266412 1.58875e-05
8.72362e-05 1.58875e-05 0.00263249
0.00148767 0.000386211 5.43609e-05
0.000386211 -0.000744043 1.92677e-05
5.43609e-05 1.92677e-05 -0.000234991
0.00158198 0.000694899 1.58963e-05
0.000694899 -0.00293651 -7.48605e-06
1.58963e-05 -7.48605e-06 -0.00117237
0.00563786 0.00129107 0.000295263
0.00129107 -0.0024064 0.000117979
0.000295263 0.000117979 0.000984606
0.00271628 0.00102056 -8.00692e-06
0.00102056 0.000363684 1.72231e-06
-8.00692e-06 1.72231e-06 1.79751e-05
0.0023795 0.00108279 -1.01119e-05
0.00108279 0.000386497 -5.31946e-06
-1.01119e-05 -5.31946e-06 -8.89067e-05
0.00247502 0.000770661 6.05595e-06
0.000770661 0.000182433 4.72138e-06
6.05595e-06 4.72138e-06 -4.86845e-05
0.00254886 0.000969236 1.45037e-06
0.000969236 0.000357934 3.43573e-07
1.45037e-06 3.43573e-07 -1.61339e-05
0.00202505 0.000936479 -7.11332e-06
0.000936479 0.000273788 -1.80244e-05
-7.11332e-06 -1.80244e-05 -0.000186253
0.0029182 0.000929334 -5.33539e-06
0.000929334 0.000197994 1.96816e-06
-5.33539e-06 1.96816e-06 3.85039e-05
0.00246973 0.00133785 -4.00555e-06
0.00133785 0.000590351 -9.31431e-06
-4.00555e-06 -9.31431e-06 3.95023e-06
0.00283184 0.00118798 -1.3595e-06
0.00118798 0.000412439 -1.29274e-06
-1.3595e-06 -1.29274e-06 1.7388e-05
0.00237768 0.000570643 -9.57367e-06
0.000570643 -0.000340069 -9.51342e-07
-9.57367e-06 -9.51342e-07 -0.000168408
0.00255646 0.00142267 -1.79244e-05
0.00142267 0.000465548 2.00564e-05
-1.79244e-05 2.00564e-05 -9.69295e-05
0.00293812 0.001152 1.95496e-06
0.001152 0.000311895 -4.89144e-06
1.95496e-06 -4.89144e-06 8.3267e-05
0.000626949 0.000554587 -2.5466e-05
0.000554587 -0.00104389 -2.14523e-07
-2.5466e-05 -2.14523e-07 -0.000655784
-0.00296674 0.000545143 -2.68435e-05
0.000545143 -0.00245952 -1.49718e-05
-2.68435e-05 -1.49718e-05 -0.00253375
0.00529816 0.00184078 -0.000198984
0.00184078 -0.000261693 -7.80216e-05
-0.000198984 -7.80216e-05 0.000877017
0.00275676 0.000206857 -6.72482e-07
0.000206857 -0.000221428 -2.49643e-06
-6.72482e-07 -2.49643e-06 3.64531e-05
0.00329027 -4.85487e-06 -6.47542e-06
-4.85487e-06 0.000193229 1.63877e-06
-6.47542e-06 1.63877e-06 0.000484751
0.00307633 -0.000363643 -0.000154999
-0.000363643 -0.00181933 -1.50237e-05
-0.000154999 -1.50237e-05 -0.000401272
0.00173814 -0.000482996 -0.000104028
-0.000482996 -0.00113336 2.47611e-05
-0.000104028 2.47611e-05 -0.000390885
0.00223983 -0.000136681 -1.69748e-05
-0.000136681 -0.000470691 -3.26912e-06
-1.69748e-05 -3.26912e-06 -0.000142418
0.00260653 -0.000351431 5.67234e-06
-0.000351431 -0.000437495 -7.87781e-07
5.67234e-06 -7.87781e-07 -4.53278e-05
0.00279202 0.000122361 -2.89725e-06
0.000122361 -0.000258188 2.31031e-07
-2.89725e-06 2.31031e-07 -3.26779e-05
0.00267155 -6.79865e-05 -2.38461e-06
-6.79865e-05 -0.000247776 -3.80058e-08
-2.38461e-06 -3.80058e-08 3.29499e-06
0.00284818 -0.000613668 -3.7581e-06
-0.000613668 -0.000244134 1.9568e-06
-3.7581e-06 1.9568e-06 -2.16236e-05
0.00260752 -0.000384868 3.18585e-07
-0.000384868 -0.000225293 -3.14302e-07
3.18585e-07 -3.14302e-07 -2.41483e-05
0.00251141 -0.000288245 1.44103e-06
-0.000288245 -0.000110987 -1.27258e-07
1.44103e-06 -1.27258e-07 3.25406e-05
0.00263541 -0.000555163 4.67525e-08
-0.000555163 -8.72537e-05 1.0236e-06
4.67525e-08 1.0236e-06 -3.39091e-06
0.00248357 -0.000445118 2.90389e-07
-0.000445118 -6.62131e-05 1.09783e-07
2.90389e-07 1.09783e-07 -4.93402e-06
0.00232391 -0.000375031 1.54072e-07
-0.000375031 -1.28775e-05 -2.96028e-08
1.54072e-07 -2.96028e-08 -6.70172e-06
0.00248074 -0.000556639 1.53789e-07
-0.000556639 2.53337e-05 4.66342e-07
1.53789e-07 4.66342e-07 -3.60085e-06
0.00235948 -0.000497683 3.99665e-07
-0.000497683 5.45373e-05 -9.0117e-08
3.99665e-07 -9.0117e-08 -1.59023e-06
0.00233562 -0.00046994 -3.93269e-06
-0.00046994 0.000115129 4.85999e-07
-3.93269e-06 4.85999e-07 1.53236e-05
0.00236622 -0.000607225 1.3764e-06
-0.000607225 0.000113635 -1.10554e-07
1.3764e-06 -1.10554e-07 -3.45064e-06
0.00234519 -0.000568441 6.69617e-07
-0.000568441 0.000180978 -1.92397e-07
6.69617e-07 -1.92397e-07 1.27549e-05
0.00221007 -0.000505176 -1.76647e-06
-0.000505176 0.00017798 -1.88194e-06
-1.76647e-06 -1.88194e-06 -3.08243e-05
0.00220817 -0.000638393 6.40697e-07
-0.000638393 0.000151969 3.39544e-07
6.40697e-07 3.39544e-07 -7.4634e-05
0.00226484 -0.000585704 -7.77396e-07
-0.000585704 0.00027441 1.69171e-07
-7.77396e-07 1.69171e-07 1.19689e-05
0.00148584 -0.000372916 -1.07946e-05
-0.000372916 3.9146e-05 4.03671e-06
-1.07946e-05 4.03671e-06 -0.000208238
0.00226981 -0.000636006 2.18882e-06
-0.000636006 0.00034521 2.8529e-06
2.18882e-06 2.8529e-06 4.2199e-05
0.00151227 -0.000429459 -1.25727e-08
-0.000429459 7.20569e-05 2.37184e-07
-1.25727e-08 2.37184e-07 -0.000210704
0.00306192 -0.000279848 -6.18371e-05
-0.000279848 0.00149439 1.58018e-05
-6.18371e-05 1.58018e-05 0.00134422
0.00301021 -0.000157205 -0.000332136
-0.000157205 0.00159995 5.26666e-05
-0.000332136 5.26666e-05 0.00158304
0.00176005 -0.000296421 -1.93073e-05
-0.000296421 0.000659128 4.78139e-07
-1.93073e-05 4.78139e-07 0.000481542
0.00151559 -0.000492142 1.82453e-05
-0.000492142 0.000109578 -5.43275e-06
1.82453e-05 -5.43275e-06 -0.000217956
0.00869004 -0.000176616 -9.46379e-06
-0.000176616 0.00530294 3.04324e-06
-9.46379e-06 3.04324e-06 0.0053243
9.4883e-05 -0.000315654 2.31513e-05
-0.000315654 -0.000392911 -2.34671e-05
2.31513e-05 -2.34671e-05 -0.000596524
0.00904017 -0.000131978 0.000395839
-0.000131978 0.00554248 -4.57714e-05
0.000395839 -4.57714e-05 0.0055585
0.0023381 0.000602708 3.43791e-06
0.000602708 0.000112036 1.95042e-06
3.43791e-06 1.95042e-06 -4.57937e-05
0.00238227 0.000779442 6.82784e-06
0.000779442 0.000298909 8.7529e-06
6.82784e-06 8.7529e-06 -7.63201e-06
0.00241422 0.000898284 8.94924e-07
0.000898284 0.000399374 7.71631e-08
8.94924e-07 7.71631e-08 -2.16193e-06
0.00226003 0.000783174 2.79433e-06
0.000783174 0.000442349 1.1674e-05
2.79433e-06 1.1674e-05 2.58667e-05
0.00209383 0.000893502 7.74219e-06
0.000893502 0.000369751 -1.31873e-05
7.74219e-06 -1.31873e-05 -0.000104853
0.00212111 0.000823183 6.30603e-07
0.000823183 0.00043665 3.70638e-07
6.30603e-07 3.70638e-07 -4.6312e-05
0.0011766 0.000512745 -3.71342e-05
0.000512745 7.10153e-05 -1.93438e-06
-3.71342e-05 -1.93438e-06 -0.000304842
0.0018902 0.000850015 8.59243e-06
0.000850015 0.000450777 -9.43765e-06
8.59243e-06 -9.43765e-06 -0.000100512
0.000976071 0.000443262 -4.42613e-06
0.000443262 3.80439e-05 3.81141e-07
-4.42613e-06 3.81141e-07 -0.000320577
-6.91763e-05 0.000323961 -3.17132e-05
0.000323961 -0.00044711 -2.55119e-05
-3.17132e-05 -2.55119e-05 -0.000642343
0.00143359 0.000322832 1.54995e-05
0.000322832 0.000468062 -1.52386e-06
1.54995e-05 -1.52386e-06 0.000171184
0.000252388 0.000253476 2.43333e-06
0.000253476 -0.00023578 -9.29981e-07
2.43333e-06 -9.29981e-07 -0.000398225
0.00892623 -1.50767e-05 -0.000354759
-1.50767e-05 0.00551944 -4.10016e-05
-0.000354759 -4.10016e-05 0.00551852
0.000605651 0.000219094 3.41258e-05
0.000219094 -3.42417e-06 2.44964e-05
3.41258e-05 2.44964e-05 -0.000131438
0.00735664 -0.000150561 8.44572e-06
-0.000150561 0.0045584 -3.74499e-06
8.44572e-06 -3.74499e-06 0.00453779
0.00543021 -0.000233748 0.000120906
-0.000233748 0.00335515 2.05363e-05
0.000120906 2.05363e-05 0.00331002
0.00253236 0.000257175 -4.46373e-06
0.000257175 -0.000386906 8.90905e-07
-4.46373e-06 8.90905e-07 -8.83005e-05
0.00172766 0.000317005 6.78466e-06
0.000317005 -0.000899614 -4.2814e-06
6.78466e-06 -4.2814e-06 -0.000243718
0.00375917 0.000832985 -0.000179848
0.000832985 -0.0020923 -2.59004e-05
-0.000179848 -2.59004e-05 -0.000238354
0.00257319 0.000722105 6.44822e-08
0.000722105 0.000128637 1.06906e-06
6.44822e-08 1.06906e-06 -1.36947e-06
0.00267592 0.00100735 -4.54033e-06
0.00100735 0.00037722 -7.5054e-07
-4.54033e-06 -7.5054e-07 3.91984e-05
0.00238257 0.00110329 -2.08384e-06
0.00110329 0.00037707 -1.01953e-05
-2.08384e-06 -1.01953e-05 -9.92669e-05
0.00248549 0.000754002 1.39232e-06
0.000754002 0.000209698 1.27812e-06
1.39232e-06 1.27812e-06 -2.1526e-05
0.00269909 0.000976207 -2.28494e-06
0.000976207 0.000455277 -9.71167e-06
-2.28494e-06 -9.71167e-06 8.83854e-05
0.00280389 0.000566952 5.3973e-06
0.000566952 -4.25498e-05 9.28927e-07
5.3973e-06 9.28927e-07 6.22325e-05
0.00282275 0.000921412 -1.95351e-06
0.000921412 0.000157594 8.08375e-07
-1.95351e-06 8.08375e-07 5.74494e-06
0.00293871 0.00115772 4.34383e-06
0.00115772 0.000503909 -4.09497e-06
4.34383e-06 -4.09497e-06 0.000113412
0.00228275 0.00053058 -4.05997e-08
0.00053058 -0.000327754 5.85162e-07
-4.05997e-08 5.85162e-07 -0.000147386
0.00253033 0.00108258 7.47892e-06
0.00108258 7.27357e-05 -2.88641e-07
7.47892e-06 -2.88641e-07 -0.000144873
-0.000499229 0.000500852 -4.19425e-05
0.000500852 -0.00184616 -8.66982e-06
-4.19425e-05 -8.66982e-06 -0.00127883
0.00261012 0.000115825 -1.37324e-06
0.000115825 -0.000171652 2.96742e-07
-1.37324e-06 2.96742e-07 3.20987e-05
0.00266448 0.000195478 -2.03408e-08
0.000195478 -0.000287557 1.13773e-06
-2.03408e-08 1.13773e-06 -2.71391e-05
0.00294334 1.58538e-05 -5.81701e-05
1.58538e-05 -1.83442e-05 -5.35231e-06
-5.81701e-05 -5.35231e-06 0.000229273
0.00247403 -0.000370416 -2.47652e-05
-0.000370416 -0.000558503 3.36168e-06
-2.47652e-05 3.36168e-06 -0.00011665
0.00309639 0.000145527 5.05454e-06
0.000145527 -5.51078e-05 1.62172e-06
5.05454e-06 1.62172e-06 0.000152179
0.00269352 -7.36598e-05 -1.08003e-06
-7.36598e-05 -0.000240618 -7.38413e-07
-1.08003e-06 -7.38413e-07 8.47068e-06
0.00237417 -8.29954e-05 9.42075e-07
-8.29954e-05 -0.000131856 4.41004e-07
9.42075e-07 4.41004e-07 -5.65168e-06
0.00253335 -0.000367283 7.42344e-07
-0.000367283 -0.000254863 -6.30196e-07
7.42344e-07 -6.30196e-07 -6.31335e-05
0.00247174 -0.000297106 -2.17189e-08
-0.000297106 -0.000130943 -3.57825e-08
-2.17189e-08 -3.57825e-08 3.18451e-06
0.00226857 -0.000246381 1.28934e-06
-0.000246381 -6.08625e-05 -5.26711e-07
1.28934e-06 -5.26711e-07 -1.85421e-05
0.00247678 -0.000443624 -1.33156e-06
-0.000443624 -6.74779e-05 8.57776e-07
-1.33156e-06 8.57776e-07 -9.85834e-06
0.00232904 -0.000374384 9.83978e-08
-0.000374384 -1.39641e-05 6.69262e-08
9.83978e-08 6.69262e-08 -7.83322e-06
0.002285 -0.000358476 -4.61433e-06
-0.000358476 4.89024e-05 6.21604e-07
-4.61433e-06 6.21604e-07 1.85301e-06
0.00237427 -0.000498908 8.96025e-07
-0.000498908 6.05287e-05 2.48196e-10
8.96025e-07 2.48196e-10 3.95735e-06
0.00235625 -0.000471362 4.00863e-07
-0.000471362 0.000129869 -9.09221e-08
4.00863e-07 -9.09221e-08 2.92877e-05
0.00226671 -0.000425544 -2.05331e-06
-0.000425544 0.000179322 -8.86352e-07
-2.05331e-06 -8.86352e-07 2.07655e-05
0.00229663 -0.000563607 2.73303e-06
-0.000563607 0.000149244 -4.40571e-07
2.73303e-06 -4.40571e-07 -1.82367e-05
0.00225692 -0.000509186 -8.48621e-07
-0.000509186 0.000207681 -5.98309e-08
-8.48621e-07 -5.98309e-08 -1.81255e-06
0.00145991 -0.000318454 -8.38431e-06
-0.000318454 3.02955e-06 3.04666e-06
-8.38431e-06 3.04666e-06 -0.000213795
0.00234198 -0.000590923 2.39746e-06
-0.000590923 0.00032996 1.88016e-06
2.39746e-06 1.88016e-06 6.65168e-05
0.0015119 -0.000376885 -7.33206e-08
-0.000376885 4.44824e-05 2.44176e-07
-7.33206e-08 2.44176e-07 -0.000202613
0.00297505 -0.000254425 -6.79283e-05
-0.000254425 0.00144041 1.4897e-05
-6.79283e-05 1.4897e-05 0.00130588
0.00154893 -0.000434307 1.31392e-05
-0.000434307 8.67305e-05 -4.74238e-06
1.31392e-05 -4.74238e-06 -0.000195959
0.00315644 -0.000310977 5.8751e-05
-0.000310977 0.00155955 -1.03412e-05
5.8751e-05 -1.03412e-05 0.00142102
0.00278303 -0.000176073 -0.000316968
-0.000176073 0.00146453 5.52078e-05
-0.000316968 5.52078e-05 0.0014432
0.00555218 -0.000198302 -0.000308584
-0.000198302 0.00327292 3.9978e-05
-0.000308584 3.9978e-05 0.00327316
0.00330663 -0.00037601 0.000195637
-0.00037601 0.00167339 -3.57461e-05
0.000195637 -3.57461e-05 0.00153005
0.00854368 -0.000186301 0.000392604
-0.000186301 0.00521653 -4.93989e-05
0.000392604 -4.93989e-05 0.00523414
0.00243583 0.000577159 4.0213e-07
0.000577159 0.000117328 -7.30203e-07
4.0213e-07 -7.30203e-07 2.67516e-05
0.0021728 0.000617797 1.58391e-06
0.000617797 0.000126276 3.65014e-06
1.58391e-06 3.65014e-06 -9.05987e-05
0.00234161 0.000592448 6.86167e-07
0.000592448 0.00012113 1.47052e-07
6.86167e-07 1.47052e-07 -2.51895e-05
0.00227896 0.000685085 3.54891e-07
0.000685085 0.00035504 8.77424e-06
3.54891e-07 8.77424e-06 2.32282e-05
0.00245109 0.000786014 3.22542e-08
0.000786014 0.000331802 -4.63317e-07
3.22542e-08 -4.63317e-07 2.46596e-05
0.0028081 0.000928595 -2.11806e-06
0.000928595 0.000657364 -1.21355e-05
-2.11806e-06 -1.21355e-05 0.00025923
0.0021745 0.000777742 9.77099e-07
0.000777742 0.000378872 3.04746e-07
9.77099e-07 3.04746e-07 -3.72696e-05
0.00152611 0.000538983 -3.39703e-05
0.000538983 0.000156705 -3.48988e-06
-3.39703e-05 -3.48988e-06 -0.000197793
0.00193691 0.000804545 3.33564e-06
0.000804545 0.000314834 -1.17908e-05
3.33564e-06 -1.17908e-05 -0.000165008
0.00127828 0.000535946 -3.57819e-06
0.000535946 0.000109833 -9.21477e-08
-3.57819e-06 -9.21477e-08 -0.000273221
0.000196804 0.000319879 -2.81651e-05
0.000319879 -0.000311588 -2.269e-05
-2.81651e-05 -2.269e-05 -0.000517134
0.00129036 0.000455921 2.77426e-05
0.000455921 0.000240636 4.38688e-06
2.77426e-05 4.38688e-06 -0.000113921
0.000228025 0.000292199 1.97934e-06
0.000292199 -0.000269917 2.31174e-06
1.97934e-06 2.31174e-06 -0.000456226
0.0091526 8.61052e-05 -0.000379878
8.61052e-05 0.00562551 -4.60899e-05
-0.000379878 -4.60899e-05 0.00563214
0.000200756 0.00021431 2.68382e-05
0.00021431 -0.000281316 2.70654e-05
2.68382e-05 2.70654e-05 -0.00043517
0.0083288 -6.00519e-05 1.2168e-05
-6.00519e-05 0.00513498 -1.97738e-06
1.2168e-05 -1.97738e-06 0.00513245
0.00698644 -0.000173568 0.000208566
-0.000173568 0.00431613 1.9813e-05
0.000208566 1.9813e-05 0.00429441
0.00263192 0.000328056 2.32314e-06
0.000328056 -0.000153136 -3.24906e-07
2.32314e-06 -3.24906e-07 1.76873e-05
0.00243876 0.00026091 2.43336e-06
0.00026091 -0.000367185 -1.4931e-06
2.43336e-06 -1.4931e-06 -7.3061e-05
0.000754335 0.000259989 -5.95058e-05
0.000259989 -0.00182422 -2.83368e-06
-5.95058e-05 -2.83368e-06 -0.000976636
0.00250568 0.000498389 4.0199e-06
0.000498389 -2.65992e-05 8.10849e-07
4.0199e-06 8.10849e-07 -1.60941e-06
0.00253471 0.000715881 -1.41201e-06
0.000715881 0.000117427 4.0894e-07
-1.41201e-06 4.0894e-07 -8.56825e-06
0.00261389 0.000989345 6.92215e-06
0.000989345 0.000376938 -3.93939e-06
6.92215e-06 -3.93939e-06 4.88737e-05
0.00249114 0.000736948 -4.53544e-06
0.000736948 0.000231726 -4.19693e-06
-4.53544e-06 -4.19693e-06 1.95299e-06
0.00274336 0.000552135 -2.43778e-06
0.000552135 -6.83535e-05 -2.32788e-07
-2.43778e-06 -2.32788e-07 3.351e-05
0.00272159 0.000908348 1.45317e-06
0.000908348 0.000123732 -3.21475e-06
1.45317e-06 -3.21475e-06 -2.05079e-05
0.00219325 0.000517069 7.65488e-06
0.000517069 -0.000268053 -1.36421e-06
7.65488e-06 -1.36421e-06 -9.34914e-05
0.0024384 9.04241e-05 8.31152e-07
9.04241e-05 -9.77022e-05 5.35941e-07
8.31152e-07 5.35941e-07 1.87716e-05
0.00253324 0.000116983 3.96713e-07
0.000116983 -0.000210531 -3.30276e-07
3.96713e-07 -3.30276e-07 -1.09799e-05
0.00254562 0.000189637 -7.4347e-06
0.000189637 -0.000368408 -5.2622e-07
-7.4347e-06 -5.2622e-07 -0.000107045
0.00225571 -1.55451e-05 -6.22249e-08
-1.55451e-05 -9.93316e-05 4.40716e-07
-6.22249e-08 4.40716e-07 -1.94742e-05
0.00270257 -8.4115e-05 3.64862e-06
-8.4115e-05 -0.000245144 -5.59298e-07
3.64862e-06 -5.59298e-07 3.94258e-06
0.00238336 -8.74942e-05 -4.98147e-07
-8.74942e-05 -0.000126201 3.02921e-07
-4.98147e-07 3.02921e-07 -8.36917e-07
0.00222064 -0.000129136 3.90632e-07
-0.000129136 -7.7321e-05 1.94803e-08
3.90632e-07 1.94803e-08 -2.64947e-05
0.00243278 -0.000306018 -1.25992e-06
-0.000306018 -0.000150207 3.28945e-07
-1.25992e-06 3.28945e-07 -2.5671e-05
0.00227208 -0.000242828 6.48944e-07
-0.000242828 -6.00117e-05 -3.53009e-07
6.48944e-07 -3.53009e-07 -1.6869e-05
0.002244 -0.000244822 -3.88595e-06
-0.000244822 2.49559e-05 6.41079e-07
-3.88595e-06 6.41079e-07 3.42414e-06
0.00233559 -0.000373417 1.9073e-07
-0.000373417 -1.42083e-05 6.82764e-08
1.9073e-07 6.82764e-08 -8.06555e-06
0.00231564 -0.000359368 2.08419e-07
-0.000359368 6.95585e-05 -1.88281e-07
2.08419e-07 -1.88281e-07 2.18451e-05
0.00225331 -0.000339052 -1.99947e-06
-0.000339052 0.000140911 -1.092e-07
-1.99947e-06 -1.092e-07 2.54991e-05
0.00237974 -0.000472843 4.26994e-06
-0.000472843 0.000147125 -5.76484e-07
4.26994e-06 -5.76484e-07 4.57512e-05
0.00222164 -0.00042245 -8.04943e-07
-0.00042245 0.000146889 -1.24154e-07
-8.04943e-07 -1.24154e-07 -1.10733e-05
0.00139698 -0.000261089 -5.29334e-06
-0.000261089 -4.44066e-05 2.35637e-06
-5.29334e-06 2.35637e-06 -0.000235245
0.00230405 -0.000513119 2.25641e-06
-0.000513119 0.000237578 9.63115e-07
2.25641e-06 9.63115e-07 2.7418e-05
0.00147919 -0.000319437 -3.1247e-07
-0.000319437 6.49758e-06 4.26243e-08
-3.1247e-07 4.26243e-08 -0.000209212
0.00284148 -0.000226286 -7.27772e-05
-0.000226286 0.00136292 1.38683e-05
-7.27772e-05 1.38683e-05 0.00124057
0.00152927 -0.000380396 9.39734e-06
-0.000380396 4.38406e-05 -3.65623e-06
9.39734e-06 -3.65623e-06 -0.00020287
0.00304994 -0.000269822 5.33751e-05
-0.000269822 0.0014895 -8.02762e-06
5.33751e-05 -8.02762e-06 0.00136734
0.00271554 -0.0001473 -0.000306147
-0.0001473 0.001416 4.72478e-05
-0.000306147 4.72478e-05 0.00139765
0.00323387 -0.000312386 0.000183102
-0.000312386 0.00160476 -3.49666e-05
0.000183102 -3.49666e-05 0.00148194
0.00236072 -0.000111202 -0.000120831
-0.000111202 0.00118899 1.99702e-05
-0.000120831 1.99702e-05 0.00115015
0.007883 -0.000121152 0.000143179
-0.000121152 0.0047722 -1.07883e-05
0.000143179 -1.07883e-05 0.0047511
0.0024146 0.000481594 -1.477e-08
0.000481594 8.02813e-05 3.35273e-08
-1.477e-08 3.35273e-08 3.24193e-05
0.00235173 0.000556408 -2.76401e-06
0.000556408 0.000145058 -8.29333e-07
-2.76401e-06 -8.29333e-07 3.14119e-06
0.00242711 0.000572742 -2.80216e-06
0.000572742 0.000111806 1.86604e-07
-2.80216e-06 1.86604e-07 1.70287e-05
0.00210561 0.000573185 -2.26848e-06
0.000573185 0.000156555 3.36058e-06
-2.26848e-06 3.36058e-06 -0.000107559
0.00224427 0.000636758 -1.1034e-06
0.000636758 0.000148876 -2.05519e-06
-1.1034e-06 -2.05519e-06 -6.0512e-05
0.00234112 0.000580529 -6.67739e-06
0.000580529 0.00012866 -3.85546e-06
-6.67739e-06 -3.85546e-06 -5.90852e-06
0.00158548 0.00047003 -2.47694e-05
0.00047003 8.71012e-05 -3.38344e-06
-2.47694e-05 -3.38344e-06 -0.000209278
0.00220385 0.000680027 1.48779e-06
0.000680027 0.000300954 4.28645e-07
1.48779e-06 4.28645e-07 -2.97261e-05
0.00251999 0.000793048 -7.35133e-07
0.000793048 0.000364311 -8.67125e-06
-7.35133e-07 -8.67125e-06 5.56708e-05
0.00208364 0.000770865 -1.12964e-06
0.000770865 0.000313517 -1.09054e-05
-1.12964e-06 -1.09054e-05 -0.000101816
0.00152376 0.000541602 -6.70732e-07
0.000541602 0.00015274 1.79778e-07
-6.70732e-07 1.79778e-07 -0.000204248
0.000365955 0.000312073 -2.5802e-05
0.000312073 -0.000231898 -2.02737e-05
-2.5802e-05 -2.02737e-05 -0.000430898
0.00153591 0.000565167 3.99069e-05
0.000565167 0.000254831 4.32306e-06
3.99069e-05 4.32306e-06 -0.000134441
0.000134346 0.000303534 9.63813e-07
0.000303534 -0.000340329 1.24361e-06
9.63813e-07 1.24361e-06 -0.000542823
0.00864125 0.000174932 -0.000378006
0.000174932 0.00528985 -5.24395e-05
-0.000378006 -5.24395e-05 0.00529527
0.000256011 0.000256865 2.67415e-05
0.000256865 -0.000254278 2.54292e-05
2.67415e-05 2.54292e-05 -0.000434935
0.00903274 4.77515e-05 7.38569e-06
4.77515e-05 0.00554433 1.07871e-06
7.38569e-06 1.07871e-06 0.00555577
0.00816059 -9.36472e-05 0.000283965
-9.36472e-05 0.0050235 2.19403e-05
0.000283965 2.19403e-05 0.00502219
0.00241982 0.000267455 1.43549e-06
0.000267455 -7.88901e-05 -1.76464e-08
1.43549e-06 -1.76464e-08 4.6505e-06
0.00260963 0.000335663 -7.62687e-07
0.000335663 -0.000189415 2.5199e-07
-7.62687e-07 2.5199e-07 -1.24205e-05
0.0023533 0.000251888 -1.38837e-06
0.000251888 -0.000379412 4.95855e-07
-1.38837e-06 4.95855e-07 -8.19256e-05
0.00249189 0.000493167 -2.71087e-07
0.000493167 -3.33493e-05 2.77822e-09
-2.71087e-07 2.77822e-09 -6.40945e-06
0.00250195 0.000711647 -1.30066e-06
0.000711647 0.000110132 -2.19933e-06
-1.30066e-06 -2.19933e-06 -1.25666e-05
0.0026652 0.000535734 -4.57795e-07
0.000535734 -0.000117853 -6.08444e-07
-4.57795e-07 -6.08444e-07 -1.59457e-05
0.00231861 8.58223e-05 6.82777e-07
8.58223e-05 -6.0916e-05 3.11778e-07
6.82777e-07 3.11778e-07 7.07849e-06
0.00242535 9.02691e-05 9.44354e-08
9.02691e-05 -0.000100982 -2.17644e-07
9.44354e-08 -2.17644e-07 1.46334e-05
0.00249841 0.000118638 5.39613e-07
0.000118638 -0.000217589 1.13544e-07
5.39613e-07 1.13544e-07 -2.39329e-05
0.00227449 -1.18113e-05 -5.42762e-07
-1.18113e-05 -8.39819e-05 8.80279e-08
-5.42762e-07 8.80279e-08 -6.30118e-06
0.00224175 -3.33291e-05 -1.49082e-06
-3.33291e-05 -1.20556e-06 4.23349e-07
-1.49082e-06 4.23349e-07 3.64124e-05
0.00239654 -9.16849e-05 -9.84153e-07
-9.16849e-05 -0.00011786 -4.92469e-08
-9.84153e-07 -4.92469e-08 6.72935e-06
0.00224544 -0.000131001 -1.04914e-06
-0.000131001 -5.14302e-05 1.84402e-07
-1.04914e-06 1.84402e-07 -6.17625e-06
0.00211708 -0.000149956 -4.33997e-06
-0.000149956 -5.30931e-05 7.20687e-07
-4.33997e-06 7.20687e-07 -5.82716e-05
0.00227253 -0.000239606 2.97943e-07
-0.000239606 -6.09091e-05 -2.68869e-07
2.97943e-07 -2.68869e-07 -1.70032e-05
0.00224725 -0.000244843 1.24265e-06
-0.000244843 2.86082e-05 -3.20729e-07
1.24265e-06 -3.20729e-07 7.00907e-06
0.00221168 -0.000248251 -1.25006e-06
-0.000248251 8.88236e-05 1.90766e-07
-1.25006e-06 1.90766e-07 3.53231e-06
0.00234383 -0.000361157 4.75824e-06
-0.000361157 8.87797e-05 -9.98212e-07
4.75824e-06 -9.98212e-07 4.02018e-05
0.00221515 -0.000336531 -3.74357e-07
-0.000336531 0.000115898 -1.30524e-07
-3.74357e-07 -1.30524e-07 9.79583e-07
0.00140454 -0.000208374 -3.19286e-06
-0.000208374 -4.09032e-05 1.44027e-06
-3.19286e-06 1.44027e-06 -0.000209738
0.0021766 -0.000419573 2.07261e-06
-0.000419573 0.000113386 1.65992e-07
2.07261e-06 1.65992e-07 -4.40148e-05
0.00144816 -0.000262532 -2.97952e-07
-0.000262532 -1.73074e-05 1.51178e-07
-2.97952e-07 1.51178e-07 -0.000206974
0.00272847 -0.000207594 -7.35383e-05
-0.000207594 0.00130043 1.18452e-05
-7.35383e-05 1.18452e-05 0.00118891
0.00150012 -0.000320706 6.68352e-06
-0.000320706 1.07061e-05 -2.9523e-06
6.68352e-06 -2.9523e-06 -0.00020388
0.00294551 -0.000223877 5.03901e-05
-0.000223877 0.00142516 -6.15439e-06
5.03901e-05 -6.15439e-06 0.00131684
0.00264311 -0.000119831 -0.000299173
-0.000119831 0.00136626 3.89168e-05
-0.000299173 3.89168e-05 0.00135021
0.00313481 -0.000258407 0.000176866
-0.000258407 0.00153537 -2.90109e-05
0.000176866 -2.90109e-05 0.00142971
0.00230421 -0.000104594 -0.000109987
-0.000104594 0.00115402 1.53508e-05
-0.000109987 1.53508e-05 0.00111703
0.00198537 -0.000104067 8.3169e-05
-0.000104067 0.000961728 -1.4465e-05
8.3169e-05 -1.4465e-05 0.000898031
0.00228812 0.000299958 9.70233e-07
0.000299958 -3.11232e-05 2.77301e-07
9.70233e-07 2.77301e-07 -2.06167e-05
0.00235127 0.000445626 -4.30565e-06
0.000445626 0.000115074 -4.08105e-07
-4.30565e-06 -4.08105e-07 2.27145e-05
0.00239242 0.000482291 -4.89233e-07
0.000482291 4.54318e-05 -2.55811e-07
-4.89233e-07 -2.55811e-07 9.22151e-06
0.00229696 0.000523301 -1.18519e-06
0.000523301 0.00020995 8.49381e-07
-1.18519e-06 8.49381e-07 7.75156e-06
0.00231976 0.00055068 -7.16903e-07
0.00055068 0.000130698 -2.95231e-07
-7.16903e-07 -2.95231e-07 -1.62505e-05
0.00242464 0.000570251 -4.32539e-07
0.000570251 0.000110499 2.7132e-07
-4.32539e-07 2.7132e-07 1.09532e-05
0.001517 0.000389155 -1.70782e-05
0.000389155 2.63395e-05 -3.43883e-06
-1.70782e-05 -3.43883e-06 -0.000220899
0.00218511 0.000584028 4.23645e-07
0.000584028 0.000201995 -1.45311e-06
4.23645e-07 -1.45311e-06 -5.26067e-05
0.00237943 0.000661456 -3.99045e-06
0.000661456 0.000214893 -5.52879e-06
-3.99045e-06 -5.52879e-06 1.21721e-05
0.000388517 0.000247027 -2.21845e-05
0.000247027 -0.00024125 -1.66538e-05
-2.21845e-05 -1.66538e-05 -0.00041505
0.00155345 0.0004618 -6.43147e-08
0.0004618 7.92085e-05 2.72068e-07
-6.43147e-08 2.72068e-07 -0.000216136
0.00211698 0.000673723 9.88095e-07
0.000673723 0.000239086 -8.70807e-06
9.88095e-07 -8.70807e-06 -9.01767e-05
0.00148383 0.00054322 3.60865e-05
0.00054322 0.000120826 3.94239e-06
3.60865e-05 3.94239e-06 -0.000238983
0.000302204 0.00029788 -7.58818e-09
0.00029788 -0.000269897 9.83718e-07
-7.58818e-09 9.83718e-07 -0.000468285
0.00823475 0.000263969 -0.000376472
0.000263969 0.00502626 -5.63883e-05
-0.000376472 -5.63883e-05 0.00502852
0.000280814 0.000292328 2.63887e-05
0.000292328 -0.000242079 2.10848e-05
2.63887e-05 2.10848e-05 -0.000440878
0.00882437 0.00015314 1.00082e-05
0.00015314 0.00539399 2.14783e-06
1.00082e-05 2.14783e-06 0.00540816
0.00882634 9.31479e-06 0.000344754
9.31479e-06 0.00540546 2.91039e-05
0.000344754 2.91039e-05 0.00541711
0.00231688 0.000163972 7.82541e-07
0.000163972 -2.80847e-05 -2.26527e-07
7.82541e-07 -2.26527e-07 2.614e-05
0.00238322 0.000271507 5.29797e-07
0.000271507 -0.000109653 3.18779e-07
5.29797e-07 3.18779e-07 -2.72091e-05
0.00256974 0.000344215 -8.82138e-07
0.000344215 -0.000233619 1.15186e-06
-8.82138e-07 1.15186e-06 -5.04648e-05
0.00248173 0.000486862 -1.10556e-06
0.000486862 -3.80876e-05 -5.27078e-07
-1.10556e-06 -5.27078e-07 -9.68724e-06
0.00220702 3.81715e-05 -2.03875e-06
3.81715e-05 9.47724e-06 3.95438e-07
-2.03875e-06 3.95438e-07 2.53205e-05
0.00231543 7.57766e-05 2.16269e-08
7.57766e-05 -6.60928e-05 -1.76325e-08
2.16269e-08 -1.76325e-08 4.61665e-06
0.00240218 8.97353e-05 2.33324e-08
8.97353e-05 -0.000111881 -3.62497e-07
2.33324e-08 -3.62497e-07 3.12473e-06
0.00229651 -7.54167e-06 -2.70247e-06
-7.54167e-06 -6.60188e-05 -6.20727e-07
-2.70247e-06 -6.20727e-07 9.15313e-06
0.00224976 -2.70701e-05 -6.38942e-07
-2.70701e-05 -2.65121e-06 -1.25896e-07
-6.38942e-07 -1.25896e-07 3.8563e-05
0.00215851 -5.92763e-05 -4.82426e-06
-5.92763e-05 -1.2588e-06 6.36153e-07
-4.82426e-06 6.36153e-07 -7.91544e-06
0.00227276 -0.000132814 4.29564e-08
-0.000132814 -2.351e-05 2.60119e-07
4.29564e-08 2.60119e-07 1.58606e-05
0.0021867 -0.00015152 -1.66728e-06
-0.00015152 4.41013e-06 2.98098e-07
-1.66728e-06 2.98098e-07 -8.12209e-06
0.00217011 -0.000161778 -1.59472e-06
-0.000161778 4.51463e-05 3.7253e-07
-1.59472e-06 3.7253e-07 -1.64147e-05
0.00225295 -0.000244069 6.21152e-06
-0.000244069 3.25663e-05 -1.25577e-06
6.21152e-06 -1.25577e-06 1.10932e-05
0.00222716 -0.000245782 6.50359e-07
-0.000245782 0.000104158 -2.82515e-07
6.50359e-07 -2.82515e-07 1.97285e-05
0.00142498 -0.00015718 -3.20727e-06
-0.00015718 -2.8147e-05 8.39354e-07
-3.20727e-06 8.39354e-07 -0.000178501
0.00219976 -0.000332844 2.21091e-06
-0.000332844 0.000107797 -4.1677e-07
2.21091e-06 -4.1677e-07 -6.12774e-06
0.0014276 -0.000208475 -1.47827e-07
-0.000208475 -3.0787e-05 1.31023e-07
-1.47827e-07 1.31023e-07 -0.000198671
0.000289018 -0.000110396 -1.66763e-05
-0.000110396 -0.000301289 6.89132e-06
-1.66763e-05 6.89132e-06 -0.00041894
0.00149631 -0.000263624 4.35829e-06
-0.000263624 9.10079e-06 -2.09689e-06
4.35829e-06 -2.09689e-06 -0.000179302
0.00160858 -0.000148264 7.50888e-05
-0.000148264 0.00055467 -6.35936e-06
7.50888e-05 -6.35936e-06 0.000449112
0.00729677 -0.000194551 -0.000396167
-0.000194551 0.00442286 3.31695e-05
-0.000396167 3.31695e-05 0.00445211
0.00305657 -0.000205453 0.000171815
-0.000205453 0.00148641 -2.27403e-05
0.000171815 -2.27403e-05 0.00139441
0.00225284 -9.50235e-05 -0.000100292
-9.50235e-05 0.00112534 9.99299e-06
-0.000100292 9.99299e-06 0.00108877
0.00188686 -0.00011623 9.36909e-05
-0.00011623 0.000907976 -1.57638e-05
9.36909e-05 -1.57638e-05 0.000843773
0.00222598 0.00019849 -1.19777e-07
0.00019849 -1.23912e-05 -5.79484e-07
-1.19777e-07 -5.79484e-07 -3.50624e-06
0.00230585 0.000337826 -2.95143e-06
0.000337826 6.31463e-05 -4.77612e-08
-2.95143e-06 -4.77612e-08 1.21695e-05
0.00230714 0.000292126 -4.92428e-07
0.000292126 -4.04657e-06 -1.27574e-07
-4.92428e-07 -1.27574e-07 -3.23034e-08
0.00231847 0.000420851 -7.78582e-07
0.000420851 0.000199806 1.07179e-06
-7.78582e-07 1.07179e-06 5.67514e-05
0.00229357 0.000442869 5.6783e-07
0.000442869 7.6819e-05 9.592e-08
5.6783e-07 9.592e-08 -1.45432e-05
0.0023671 0.000482477 -7.0817e-07
0.000482477 8.19222e-06 -3.43569e-07
-7.0817e-07 -3.43569e-07 -1.63471e-05
0.00165482 0.000341171 -9.55926e-06
0.000341171 0.000124142 -1.07318e-06
-9.55926e-06 -1.07318e-06 -8.11666e-05
0.00224123 0.000514462 -5.48588e-07
0.000514462 0.00017499 -4.41837e-07
-5.48588e-07 -4.41837e-07 -2.66153e-05
0.00228288 0.000543161 1.99405e-06
0.000543161 0.000114053 -1.04483e-06
1.99405e-06 -1.04483e-06 -3.76818e-05
0.00036469 0.000180207 -1.87173e-05
0.000180207 -0.00026356 -1.26395e-05
-1.87173e-05 -1.26395e-05 -0.00041302
0.00154008 0.00038725 5.49468e-07
0.00038725 5.10593e-05 3.76106e-07
5.49468e-07 3.76106e-07 -0.000190525
0.002218 0.000589691 1.75886e-06
0.000589691 0.000217247 -7.50581e-06
1.75886e-06 -7.50581e-06 -2.71003e-05
0.00787599 0.000316371 -0.00037892
0.000316371 0.0047958 -5.47881e-05
-0.00037892 -5.47881e-05 0.00479862
0.000340343 0.000244582 4.26391e-07
0.000244582 -0.000277216 7.22209e-07
4.26391e-07 7.22209e-07 -0.000452956
0.00150382 0.000452355 2.67665e-05
0.000452355 6.01715e-05 3.78689e-06
2.67665e-05 3.78689e-06 -0.000233953
0.000242183 0.000285217 2.33101e-05
0.000285217 -0.000305016 2.06157e-05
2.33101e-05 2.06157e-05 -0.00050302
0.00831887 0.000261974 9.55146e-06
0.000261974 0.00507696 2.96162e-06
9.55146e-06 2.96162e-06 0.00508525
0.00886612 0.000129441 0.000399567
0.000129441 0.00540559 3.7803e-05
0.000399567 3.7803e-05 0.00542859
0.00215181 0.000102904 -2.92308e-06
0.000102904 -1.90908e-05 -1.36201e-08
-2.92308e-06 -1.36201e-08 -1.21921e-05
0.00231082 0.000158359 -1.54714e-07
0.000158359 -3.21654e-05 1.00298e-07
-1.54714e-07 1.00298e-07 1.90797e-05
0.00234945 0.000275168 -9.68637e-07
0.000275168 -0.000137385 3.70216e-07
-9.68637e-07 3.70216e-07 -5.60941e-05
0.00220602 1.95247e-05 -6.70503e-06
1.95247e-05 4.98228e-05 2.4886e-07
-6.70503e-06 2.4886e-07 3.35227e-05
0.00217357 4.48491e-05 7.35794e-07
4.48491e-05 -1.7756e-05 2.88054e-08
7.35794e-07 2.88054e-08 2.4031e-06
0.0023142 6.48804e-05 -1.04823e-06
6.48804e-05 -7.01788e-05 -3.21924e-07
-1.04823e-06 -3.21924e-07 3.37733e-06
0.00225559 -2.10651e-05 5.60014e-07
-2.10651e-05 -6.09415e-06 -3.80856e-07
5.60014e-07 -3.80856e-07 3.91794e-05
0.00216036 -5.79373e-05 -4.9323e-07
-5.79373e-05 -8.84107e-07 5.74018e-09
-4.9323e-07 5.74018e-09 -6.39945e-06
0.00210281 -7.5227e-05 -1.36786e-06
-7.5227e-05 1.32907e-05 3.85594e-07
-1.36786e-06 3.85594e-07 -5.31999e-05
0.00225697 -0.000153272 4.4973e-06
-0.000153272 6.30087e-05 -6.13868e-07
4.4973e-06 -6.13868e-07 4.32389e-05
0.00218763 -0.000164151 8.2387e-07
-0.000164151 6.92092e-05 -3.9701e-08
8.2387e-07 -3.9701e-08 -2.36065e-06
0.00152626 -9.92034e-05 -3.61955e-06
-9.92034e-05 4.13936e-05 2.28977e-07
-3.61955e-06 2.28977e-07 -8.12071e-05
0.00223711 -0.000244683 2.5618e-06
-0.000244683 0.00011665 -8.26964e-07
2.5618e-06 -8.26964e-07 3.27317e-05
0.00141183 -0.000153383 7.44499e-08
-0.000153383 -4.36644e-05 2.43296e-08
7.44499e-08 2.43296e-08 -0.000192987
0.000275289 -3.96085e-05 -1.52418e-05
-3.96085e-05 -0.00030748 3.87785e-06
-1.52418e-05 3.87785e-06 -0.000413188
0.00146369 -0.000207757 2.43344e-06
-0.000207757 -1.50653e-05 -1.25887e-06
2.43344e-06 -1.25887e-06 -0.000181752
0.000318535 -9.52725e-05 -4.78245e-07
-9.52725e-05 -0.00027918 5.03484e-07
-4.78245e-07 5.03484e-07 -0.000396102
0.00717905 -8.55455e-05 -0.000384057
-8.55455e-05 0.0043388 2.13329e-05
-0.000384057 2.13329e-05 0.00437498
0.000423807 -0.000107266 1.25904e-05
-0.000107266 -0.000219954 -9.16311e-06
1.25904e-05 -9.16311e-06 -0.000347138
0.00466484 -0.000128263 0.00016343
-0.000128263 0.00271013 -9.93253e-06
0.00016343 -9.93253e-06 0.00269469
0.00184109 -0.000102295 9.82415e-05
-0.000102295 0.000881999 -1.46096e-05
9.82415e-05 -1.46096e-05 0.000820047
0.00224589 0.000166464 -5.0212e-06
0.000166464 6.69845e-05 -6.85215e-07
-5.0212e-06 -6.85215e-07 6.63991e-05
0.00228179 0.000241358 -5.32824e-06
0.000241358 7.92245e-05 -4.6659e-07
-5.32824e-06 -4.6659e-07 3.55413e-05
0.00221922 0.000190933 -7.16215e-07
0.000190933 -1.11469e-05 -3.09619e-07
-7.16215e-07 -3.09619e-07 -1.62075e-06
0.00231416 0.000334722 -8.58762e-07
0.000334722 0.000189763 5.9692e-07
-8.58762e-07 5.9692e-07 7.16218e-05
0.00232394 0.000334862 -1.09658e-07
0.000334862 7.642e-05 -1.01582e-07
-1.09658e-07 -1.01582e-07 2.4182e-05
0.00232853 0.000284784 4.85947e-07
0.000284784 2.52072e-05 -6.49241e-08
4.85947e-07 -6.49241e-08 2.2667e-05
0.00154898 0.000270941 -4.22635e-06
0.000270941 5.62172e-05 -6.53479e-07
-4.22635e-06 -6.53479e-07 -0.000120315
0.00219389 0.000413216 1.75936e-06
0.000413216 0.000123002 3.41622e-07
1.75936e-06 3.41622e-07 -2.99781e-05
0.00223191 0.000440229 3.7138e-06
0.000440229 3.5884e-05 -9.61484e-08
3.7138e-06 -9.61484e-08 -5.42973e-05
0.000335295 0.00013151 -1.64642e-05
0.00013151 -0.000279903 -9.26784e-06
-1.64642e-05 -9.26784e-06 -0.000413403
0.00156613 0.000331006 1.79719e-06
0.000331006 7.13768e-05 1.10749e-06
1.79719e-06 1.10749e-06 -0.000131147
0.00218145 0.000506327 6.88405e-07
0.000506327 0.000136909 -2.02665e-06
6.88405e-07 -2.02665e-06 -6.39104e-05
0.00758516 0.000341595 -0.000390678
0.000341595 0.00462136 -5.15006e-05
-0.000390678 -5.15006e-05 0.00462454
0.000349644 0.000184337 5.52e-07
0.000184337 -0.000278357 4.34294e-07
5.52e-07 4.34294e-07 -0.000430532
0.00156355 0.000387491 1.78623e-05
0.000387491 7.36824e-05 2.5144e-06
1.78623e-05 2.5144e-06 -0.000162936
0.00798479 0.000338715 1.13954e-05
0.000338715 0.00487635 5.35348e-06
1.13954e-05 5.35348e-06 0.00487598
0.000307434 0.00024233 1.9866e-05
0.00024233 -0.000303713 1.71326e-05
1.9866e-05 1.71326e-05 -0.000481494
0.00839468 0.000237115 0.000398331
0.000237115 0.0051091 4.66229e-05
0.000398331 4.66229e-05 0.00512739
0.00214438 8.37688e-05 -6.42681e-06
8.37688e-05 -3.80664e-09 3.2905e-08
-6.42681e-06 3.2905e-08 -2.29942e-05
0.00216838 0.000110689 -8.15763e-07
0.000110689 -2.34534e-07 -2.56975e-07
-8.15763e-07 -2.56975e-07 6.59224e-06
0.00230366 0.000153165 -4.16381e-07
0.000153165 -3.62983e-05 1.90201e-07
-4.16381e-07 1.90201e-07 1.1772e-05
0.00209464 -1.4647e-06 -4.72444e-07
-1.4647e-06 1.07178e-05 1.93028e-07
-4.72444e-07 1.93028e-07 -5.47496e-05
0.00217109 2.14001e-05 -5.84717e-07
2.14001e-05 2.07259e-05 5.52366e-09
-5.84717e-07 5.52366e-09 7.78416e-06
0.00213971 5.2262e-05 1.98466e-06
5.2262e-05 -4.52692e-05 -1.2965e-07
1.98466e-06 -1.2965e-07 -2.08249e-05
0.00216229 -5.67188e-05 3.56851e-06
-5.67188e-05 -2.1003e-07 -5.15584e-07
3.56851e-06 -5.15584e-07 -4.76537e-06
0.0020813 -7.39058e-05 -1.4768e-06
-7.39058e-05 1.48436e-06 2.6349e-07
-1.4768e-06 2.6349e-07 -6.41462e-05
0.00145755 -4.02411e-05 -2.9846e-06
-4.02411e-05 1.57783e-05 -5.72788e-08
-2.9846e-06 -5.72788e-08 -9.88115e-05
0.00217214 -0.000165953 3.13365e-07
-0.000165953 6.88969e-05 -5.26717e-07
3.13365e-07 -5.26717e-07 -1.27204e-05
0.00144847 -0.000100262 3.55991e-06
-0.000100262 -1.60965e-05 -3.91792e-07
3.55991e-06 -3.91792e-07 -0.0001455
0.000262091 -1.73613e-05 -1.56314e-05
-1.73613e-05 -0.000308031 2.34465e-06
-1.56314e-05 2.34465e-06 -0.000407498
0.00139371 -0.000151161 2.61714e-06
-0.000151161 -6.06318e-05 -8.88391e-07
2.61714e-06 -8.88391e-07 -0.00020918
0.000286729 -5.0388e-05 3.76491e-07
-5.0388e-05 -0.000296715 -3.43182e-07
3.76491e-07 -3.43182e-07 -0.000401608
0.00693948 -0.000176469 -0.000381834
-0.000176469 0.00420484 2.30275e-05
-0.000381834 2.30275e-05 0.00423315
0.000327162 -7.98907e-05 1.52267e-05
-7.98907e-05 -0.000271176 -5.44168e-06
1.52267e-05 -5.44168e-06 -0.000386485
0.00709103 -0.000120928 6.78843e-06
-0.000120928 0.00428741 2.32839e-07
6.78843e-06 2.32839e-07 0.00432189
0.00211962 -5.25572e-05 0.000291352
-5.25572e-05 0.00103054 -2.26488e-05
0.000291352 -2.26488e-05 0.00102304
0.00218637 0.000166397 -7.71297e-06
0.000166397 3.19666e-05 -7.75349e-07
-7.71297e-06 -7.75349e-07 -3.9052e-06
0.00216304 0.000167374 -9.16287e-07
0.000167374 -1.16163e-06 -9.4748e-08
-9.16287e-07 -9.4748e-08 5.3352e-06
0.0023047 0.000247351 6.76744e-07
0.000247351 0.000167446 4.81219e-07
6.76744e-07 4.81219e-07 7.35142e-05
0.00228618 0.000240974 7.35974e-07
0.000240974 7.853e-05 3.62858e-08
7.35974e-07 3.62858e-08 3.54113e-05
0.00220969 0.000183175 8.58138e-07
0.000183175 -1.23228e-05 8.79264e-08
8.58138e-07 8.79264e-08 -1.96184e-06
0.00135865 0.00019843 -1.27714e-06
0.00019843 -6.37351e-05 -7.94525e-07
-1.27714e-06 -7.94525e-07 -0.000230639
0.00224431 0.000332208 3.57509e-07
0.000332208 0.000137415 2.76813e-08
3.57509e-07 2.76813e-08 1.87013e-05
0.00234072 0.000331794 4.31562e-06
0.000331794 8.82749e-05 3.82492e-07
4.31562e-06 3.82492e-07 3.46628e-05
0.000328716 9.72046e-05 -1.54435e-05
9.72046e-05 -0.000274917 -6.95084e-06
-1.54435e-05 -6.95084e-06 -0.000397495
0.00147126 0.000265149 3.11259e-06
0.000265149 1.12607e-05 1.04141e-06
3.11259e-06 1.04141e-06 -0.000171018
0.00208843 0.00040662 7.96462e-07
0.00040662 5.96657e-05 -4.41157e-07
7.96462e-07 -4.41157e-07 -0.000103462
0.00734336 0.000325844 -0.000400862
0.000325844 0.00447842 -4.60108e-05
-0.000400862 -4.60108e-05 0.00448427
0.000346761 0.000138468 6.53809e-07
0.000138468 -0.000275328 3.17726e-07
6.53809e-07 3.17726e-07 -0.00041138
0.0014881 0.000321155 9.80243e-06
0.000321155 2.51456e-05 2.97338e-06
9.80243e-06 2.97338e-06 -0.000174413
0.00769642 0.0003695 8.16129e-06
0.0003695 0.00470503 5.66666e-06
8.16129e-06 5.66666e-06 0.00470253
0.000345179 0.000187806 1.72768e-05
0.000187806 -0.000286304 1.33435e-05
1.72768e-05 1.33435e-05 -0.000441111
0.0081203 0.000354012 0.000411204
0.000354012 0.00495987 5.76724e-05
0.000411204 5.76724e-05 0.00496362
0.00204834 8.02093e-05 1.01767e-06
8.02093e-05 -1.66339e-05 -6.51988e-08
1.01767e-06 -6.51988e-08 -8.93852e-05
0.0021771 8.43635e-05 -2.44012e-06
8.43635e-05 2.76709e-05 -1.59903e-07
-2.44012e-06 -1.59903e-07 3.31704e-06
0.00218566 0.000118192 3.7291e-06
0.000118192 1.92793e-05 7.09437e-08
3.7291e-06 7.09437e-08 2.59622e-05
0.00142851 -5.72153e-06 -3.03021e-06
-5.72153e-06 1.59711e-05 8.07914e-09
-3.03021e-06 8.07914e-09 -9.76417e-05
0.00206521 1.26344e-06 -1.20476e-06
1.26344e-06 -5.35199e-06 9.16049e-08
-1.20476e-06 9.16049e-08 -7.06722e-05
0.002135 2.27322e-05 3.9486e-06
2.27322e-05 -8.95397e-06 -1.57809e-07
3.9486e-06 -1.57809e-07 -1.8522e-05
0.002049 -7.28092e-05 -2.04085e-06
-7.28092e-05 -1.77059e-05 8.14676e-08
-2.04085e-06 8.14676e-08 -8.2758e-05
0.00144173 -4.29861e-05 2.76125e-06
-4.29861e-05 -5.02782e-06 -1.56119e-07
2.76125e-06 -1.56119e-07 -0.000119688
0.000273005 -3.44261e-05 -1.63691e-05
-3.44261e-05 -0.000293767 1.37103e-06
-1.63691e-05 1.37103e-06 -0.000388625
0.00138341 -0.000100689 6.47452e-06
-0.000100689 -6.46e-05 -1.09243e-06
6.47452e-06 -1.09243e-06 -0.000200729
0.000278601 -6.20893e-06 -3.50174e-08
-6.20893e-06 -0.000297213 5.36996e-08
-3.50174e-08 5.36996e-08 -0.000394975
0.00682995 -0.000142772 -0.00038129
-0.000142772 0.00413239 1.76063e-05
-0.00038129 1.76063e-05 0.00416491
0.000334833 -5.74704e-05 1.62549e-05
-5.74704e-05 -0.000260567 -3.79601e-06
1.62549e-05 -3.79601e-06 -0.000365909
0.00693004 -7.41404e-05 -2.75075e-06
-7.41404e-05 0.00418398 3.69552e-06
-2.75075e-06 3.69552e-06 0.00422153
0.00705423 -0.000134545 0.000381136
-0.000134545 0.00426651 -2.09749e-05
0.000381136 -2.09749e-05 0.00430061
0.00221498 0.000159998 1.22148e-06
0.000159998 0.00010286 3.27244e-08
1.22148e-06 3.27244e-08 2.55342e-05
0.00218591 0.000166604 -1.35949e-06
0.000166604 2.25197e-05 -1.71018e-07
-1.35949e-06 -1.71018e-07 -8.34581e-06
0.0020818 0.000168499 3.35645e-06
0.000168499 -6.87153e-05 5.68948e-07
3.35645e-06 5.68948e-07 -5.51267e-05
0.00133131 0.00013477 -1.01642e-06
0.00013477 -7.31768e-05 -4.27522e-07
-1.01642e-06 -4.27522e-07 -0.000222371
0.00224537 0.000244518 2.59683e-07
0.000244518 0.000122193 -9.87947e-08
2.59683e-07 -9.87947e-08 2.80226e-05
0.00229352 0.000240574 5.00306e-06
0.000240574 8.01257e-05 2.07444e-07
5.00306e-06 2.07444e-07 3.75681e-05
0.000320831 6.68751e-05 -1.47209e-05
6.68751e-05 -0.000268701 -5.11429e-06
-1.47209e-05 -5.11429e-06 -0.000381917
0.00138938 0.000200341 1.12019e-07
0.000200341 -3.31156e-05 2.36709e-07
1.12019e-07 2.36709e-07 -0.000201079
0.00217685 0.000329519 1.05752e-06
0.000329519 8.70065e-05 -6.85705e-07
1.05752e-06 -6.85705e-07 -3.22054e-05
0.00711815 0.000263865 -0.000405115
0.000263865 0.00433068 -3.69315e-05
-0.000405115 -3.69315e-05 0.00434813
0.000334927 0.000105662 7.72564e-07
0.000105662 -0.000272559 2.01716e-07
7.72564e-07 2.01716e-07 -0.000397712
0.00137688 0.000257963 4.71498e-06
0.000257963 -4.54157e-05 2.43351e-06
4.71498e-06 2.43351e-06 -0.000233169
0.00746126 0.000346104 4.55441e-06
0.000346104 0.00455881 3.64174e-06
4.55441e-06 3.64174e-06 0.00456256
0.000354271 0.000146606 1.57375e-05
0.000146606 -0.000272025 1.02762e-05
1.57375e-05 1.02762e-05 -0.000411227
0.00781791 0.000410395 0.000416065
0.000410395 0.00479703 6.23401e-05
0.000416065 6.23401e-05 0.00478801
0.00126034 4.34977e-05 -4.35466e-06
4.34977e-05 -9.05045e-05 -2.16677e-07
-4.35466e-06 -2.16677e-07 -0.000221065
0.00212266 7.74853e-05 -1.9023e-06
7.74853e-05 3.46564e-05 -7.89315e-08
-1.9023e-06 -7.89315e-08 -3.04456e-05
0.00221091 8.53294e-05 4.27709e-06
8.53294e-05 5.55678e-05 1.0776e-07
4.27709e-06 1.0776e-07 2.99249e-05
0.000312163 3.27117e-05 -1.70471e-05
3.27117e-05 -0.000270207 -7.88372e-07
-1.70471e-05 -7.88372e-07 -0.000356591
0.00142039 -2.02174e-06 2.73666e-06
-2.02174e-06 1.67223e-06 1.2944e-08
2.73666e-06 1.2944e-08 -0.00011175
0.0020331 5.58412e-06 -2.18068e-06
5.58412e-06 -2.35323e-05 -5.5763e-08
-2.18068e-06 -5.5763e-08 -8.86912e-05
0.00143167 -4.53049e-05 8.77508e-06
-4.53049e-05 -2.14759e-05 -7.15072e-07
8.77508e-06 -7.15072e-07 -0.000136046
0.000281541 -8.00536e-06 2.19807e-07
-8.00536e-06 -0.00028692 4.18155e-07
2.19807e-07 4.18155e-07 -0.000381484
0.00672989 -2.3075e-06 -0.00038286
-2.3075e-06 0.00405747 4.12883e-06
-0.00038286 4.12883e-06 0.00409924
0.000285233 5.19603e-06 1.58322e-05
5.19603e-06 -0.000293174 -1.38347e-06
1.58322e-05 -1.38347e-06 -0.000389155
0.0067886 -0.000140094 -7.45356e-06
-0.000140094 0.00410785 2.37345e-06
-7.45356e-06 2.37345e-06 0.00413977
0.00686019 -5.72583e-05 0.000366984
-5.72583e-05 0.00413884 -1.23218e-05
0.000366984 -1.23218e-05 0.00417669
0.00131535 8.50972e-05 -3.08949e-06
8.50972e-05 -6.33739e-05 -5.62148e-07
-3.08949e-06 -5.62148e-07 -0.000200563
0.00222676 0.000155756 -2.27253e-07
0.000155756 0.000107398 -2.7326e-07
-2.27253e-07 -2.7326e-07 3.38344e-05
0.00218467 0.000166585 2.53145e-06
0.000166585 1.30183e-05 -7.89729e-08
2.53145e-06 -7.89729e-08 -1.29035e-05
0.00277825 8.10335e-05 -0.000168328
8.10335e-05 0.00134081 -7.35724e-06
-0.000168328 -7.35724e-06 0.00128226
0.00134683 0.000136102 3.95511e-08
0.000136102 -5.32876e-05 9.37511e-08
3.95511e-08 9.37511e-08 -0.000203252
0.00218237 0.000241329 4.35069e-07
0.000241329 7.5157e-05 -6.61323e-07
4.35069e-07 -6.61323e-07 -1.92321e-05
0.00696037 0.000194126 -0.000402849
0.000194126 0.00422139 -2.67973e-05
-0.000402849 -2.67973e-05 0.00425027
0.000326825 8.66683e-05 1.04537e-06
8.66683e-05 -0.000264753 5.04282e-07
1.04537e-06 5.04282e-07 -0.000380881
0.00141663 0.000201744 1.76706e-06
0.000201744 -5.0823e-06 1.06396e-06
1.76706e-06 1.06396e-06 -0.000174102
0.0072384 0.000281662 1.67521e-06
0.000281662 0.00440915 1.84116e-06
1.67521e-06 1.84116e-06 0.00442485
0.000349446 0.000116296 1.55031e-05
0.000116296 -0.000263792 8.04143e-06
1.55031e-05 8.04143e-06 -0.000392091
0.00756967 0.000381943 0.000418543
0.000381943 0.0046421 5.78887e-05
0.000418543 5.78887e-05 0.00463937
0.0004002 1.70127e-05 -1.26959e-05
1.70127e-05 -0.000198912 -1.92958e-06
-1.26959e-05 -1.92958e-06 -0.00029508
0.0013275 4.34543e-05 -6.48815e-07
4.34543e-05 -4.86747e-05 7.68309e-08
-6.48815e-07 7.68309e-08 -0.000172861
0.00219924 7.3439e-05 -1.30968e-06
7.3439e-05 8.74603e-05 -1.83188e-07
-1.30968e-06 -1.83188e-07 3.00041e-05
0.0065907 -0.000106322 -0.000366654
-0.000106322 0.00398591 6.491e-06
-0.000366654 6.491e-06 0.00401678
0.000268422 1.21877e-05 -7.23164e-07
1.21877e-05 -0.000293335 -2.37925e-07
-7.23164e-07 -2.37925e-07 -0.000382361
0.00142243 3.58166e-07 8.66606e-06
3.58166e-07 -5.95894e-06 -2.70909e-07
8.66606e-06 -2.70909e-07 -0.000119167
0.000261908 1.80501e-05 1.60693e-05
1.80501e-05 -0.000300118 7.33841e-08
1.60693e-05 7.33841e-08 -0.000393193
0.00667344 -3.60904e-05 1.61107e-06
-3.60904e-05 0.00402823 -2.04006e-06
1.61107e-06 -2.04006e-06 0.00406461
0.00676357 -6.6711e-05 0.00037127
-6.6711e-05 0.00407806 -9.26581e-06
0.00037127 -9.26581e-06 0.00411676
0.00287216 2.91255e-05 -0.000163059
2.91255e-05 0.00140477 -3.92569e-06
-0.000163059 -3.92569e-06 0.00135238
0.00130561 8.76842e-05 -1.07804e-07
8.76842e-05 -6.77137e-05 -7.6954e-08
-1.07804e-07 -7.6954e-08 -0.000205688
0.00223575 0.000151669 1.2155e-07
0.000151669 0.000109475 -5.57534e-07
1.2155e-07 -5.57534e-07 3.9657e-05
0.00652003 -6.33616e-06 -0.000175967
-6.33616e-06 0.00394812 -1.16567e-06
-0.000175967 -1.16567e-06 0.00393927
0.000299792 7.02144e-05 7.06695e-07
7.02144e-05 -0.000273197 2.34988e-07
7.06695e-07 2.34988e-07 -0.000379402
0.00136683 0.000138531 1.5554e-06
0.000138531 -3.23563e-05 4.60091e-07
1.5554e-06 4.60091e-07 -0.000183193
0.00702942 0.000171667 -8.54717e-06
0.000171667 0.00425908 -1.7814e-06
-8.54717e-06 -1.7814e-06 0.00428919
0.000328072 0.000108491 1.65304e-05
0.000108491 -0.000265006 6.88883e-06
1.65304e-05 6.88883e-06 -0.000383255
0.00733339 0.00030397 0.000417933
0.00030397 0.00447466 4.71277e-05
0.000417933 4.71277e-05 0.00448893
0.0020266 -5.13478e-05 -0.000282768
-5.13478e-05 0.000973134 1.84653e-06
-0.000282768 1.84653e-06 0.000979395
0.00153343 3.85896e-05 -7.22317e-05
3.85896e-05 0.000532287 -2.49936e-07
-7.22317e-05 -2.49936e-07 0.000463664
0.00138627 4.60049e-05 6.13159e-06
4.60049e-05 -1.21595e-05 2.25429e-07
6.13159e-06 2.25429e-07 -0.000130017
0.00665552 -5.19852e-05 6.55304e-06
-5.19852e-05 0.00402108 3.59635e-06
6.55304e-06 3.59635e-06 0.00405813
0.00028064 -6.76295e-06 1.66516e-05
-6.76295e-06 -0.000277692 6.60478e-07
1.66516e-05 6.60478e-07 -0.000370572
0.006704 -9.63162e-05 0.000383961
-9.63162e-05 0.0040536 -7.77896e-06
0.000383961 -7.77896e-06 0.00408934
0.00160485 3.01303e-05 -8.24034e-05
3.01303e-05 0.000732859 -2.01276e-06
-8.24034e-05 -2.01276e-06 0.000687059
0.00152781 3.04005e-05 -7.29954e-05
3.04005e-05 0.000528808 -2.13299e-06
-7.29954e-05 -2.13299e-06 0.000454045
0.00130067 8.8604e-05 3.32312e-06
8.8604e-05 -6.78592e-05 2.98313e-07
3.32312e-06 2.98313e-07 -0.000206497
0.0042775 8.5796e-05 0.000143457
8.5796e-05 0.00246509 5.24364e-06
0.000143457 5.24364e-06 0.00246007
0.000277719 8.13143e-05 1.6733e-05
8.13143e-05 -0.000289722 5.22222e-06
1.6733e-05 5.22222e-06 -0.00039639
0.00710885 0.000159601 0.000397012
0.000159601 0.00430148 2.89441e-05
0.000397012 2.89441e-05 0.00433536
0.00661932 -1.34355e-05 -8.29951e-06
-1.34355e-05 0.00400245 -4.06482e-06
-8.29951e-06 -4.06482e-06 0.00403755
0.000265398 5.6111e-05 1.83591e-05
5.6111e-05 -0.000296822 2.67286e-06
1.83591e-05 2.67286e-06 -0.000383669
0.00657378 3.19923e-05 0.000372759
3.19923e-05 0.00396348 3.72149e-07
0.000372759 3.72149e-07 0.00400411
0.00417666 4.5602e-05 0.000154586
4.5602e-05 0.00240212 7.0529e-06
0.000154586 7.0529e-06 0.00240097
0.000288445 1.91857e-05 1.62925e-05
1.91857e-05 -0.000277506 2.8502e-06
1.62925e-05 2.8502e-06 -0.000374824
0.00688552 2.82535e-05 0.000382651
2.82535e-05 0.00415563 1.40103e-05
0.000382651 1.40103e-05 0.00419375
0.00666017 -0.000105788 0.000372558
-0.000105788 0.00403115 -4.34156e-06
0.000372558 -4.34156e-06 0.00406281
0.00668827 3.02736e-05 0.000375087
3.02736e-05 0.00402902 8.81942e-06
0.000375087 8.81942e-06 0.00407033
