# vtk DataFile Version 2.0
Wound Healing Simulation
ASCII
DATASET UNSTRUCTURED_GRID
POINTS 3012 float
69.9759 18.75 4
67.2507 60.3285 4
69.976 18.75 2
73.0099 25.446 4
71.1327 20.9142 4
68.6801 16.6661 4
67.8253 19.9261 3.98218
67.2507 60.3286 2
71.1327 54.0858 4
68.6801 58.3339 4
65.6939 62.2254 4
65.3118 59.0009 3.98105
74.6784 42.3946 4
73.7221 47.2057 4
69.9759 18.75 0
73.0099 25.446 2
68.6801 16.6661 2
71.1327 20.9142 2
67.8258 19.9291 2
74.6792 32.6053 4
73.7222 27.7943 4
72.1454 23.1494 4
70.6139 26.2209 3.98162
68.8855 21.958 3.98252
67.2507 14.6715 4
66.6367 17.9722 3.98112
65.7958 21.0259 3.97231
67.2507 60.3285 0
71.1327 54.0858 2
68.6801 58.3339 2
65.694 62.2255 2
65.3129 58.9974 2
72.1454 51.8506 4
69.9759 56.25 4
68.8361 53.1129 3.98155
64.0165 64.0165 4
66.6104 57.1335 3.98162
63.8853 60.7657 3.98265
63.4987 57.7692 3.97253
60.3285 67.2507 4
74.6792 42.3947 2
73.7222 47.2057 2
74.9194 39.9526 4
74.2788 44.8158 4
72.168 42.0855 3.98074
73.0099 49.554 4
71.2491 46.598 3.98066
73.0099 25.446 0
71.1327 20.9142 0
68.6801 16.6661 0
67.8253 19.9261 0.0178193
74.6792 32.6053 2
73.7222 27.7943 2
67.2508 14.6715 2
72.1455 23.1494 2
70.6139 26.2213 2
66.6375 17.9759 2
68.8858 21.96 2
65.7953 21.0266 2
74.9197 35.0474 4
74.2794 30.1841 4
72.1847 32.9432 3.9812
71.278 28.4313 3.98103
69.8153 24.0595 3.98227
68.3457 26.9517 3.97088
66.7613 22.9337 3.97165
65.694 12.7746 4
65.323 16.104 3.98092
64.712 19.1966 3.97296
63.8834 22.0384 3.96824
71.1327 54.0858 0
65.6939 62.2254 0
68.6801 58.3339 0
65.3118 59.0009 0.0189458
72.1455 51.8506 2
69.9759 56.25 2
68.8363 53.111 2
64.0165 64.0165 2
66.6113 57.1301 2
63.8869 60.7627 2
63.4981 57.7691 2
62.2254 65.694 4
58.8945 65.4141 3.99065
69.7687 50.9888 3.98135
67.7835 55.1671 3.98158
66.6481 52.2083 3.97068
62.3359 62.4274 3.98616
64.6594 56.0301 3.97273
62.201 59.4011 3.97296
61.8183 56.6754 3.96853
58.3339 68.6801 4
60.3285 67.2508 2
73.7221 47.2057 0
74.6784 42.3946 0
74.9197 39.9526 2
74.2794 44.8159 2
72.1676 42.0855 2
73.0099 49.554 2
71.249 46.5978 2
75 37.5 4
72.4053 39.8021 3.98129
71.7824 44.3528 3.98082
69.8029 41.7891 3.9704
70.5749 48.8134 3.98096
68.911 46.0141 3.97011
74.6792 32.6053 0
73.7222 27.7943 0
67.2507 14.6715 0
72.1454 23.1494 0
70.6139 26.2209 0.0183833
68.8855 21.958 0.0174755
66.6367 17.9722 0.0188831
65.7958 21.0259 0.0276933
74.9197 35.0474 2
74.2794 30.1841 2
72.1843 32.9435 2
71.2779 28.4317 2
65.694 12.7745 2
65.3244 16.1077 2
69.8154 24.0606 2
68.3456 26.9522 2
64.7114 19.1972 2
66.7609 22.9343 2
63.8828 22.0386 2
72.4131 35.224 3.98132
71.8037 30.6762 3.98123
69.839 33.2683 3.97091
68.9649 29.0384 3.97069
67.6101 24.9124 3.97116
66.1914 27.636 3.96784
64.0165 10.9835 4
64.7533 23.8322 3.96821
63.8897 14.3276 3.98374
63.5109 17.4506 3.9725
62.9024 20.3248 3.96806
62.0789 22.9507 3.9672
60.6838 11.0981 3.98721
57.6117 11.4506 3.97909
72.1454 51.8506 0
69.9759 56.25 0
68.8361 53.1129 0.0184496
64.0165 64.0165 0
63.8853 60.7657 0.0173536
66.6104 57.1335 0.0183814
63.4987 57.7692 0.0274688
62.2255 65.694 2
58.8956 65.4136 2
69.7687 50.9879 2
67.7839 55.1642 2
66.6477 52.2077 2
62.3376 62.4254 2
64.6589 56.0298 2
62.2006 59.4016 2
61.8178 56.6756 2
60.6686 63.9769 3.9884
57.0256 66.7348 3.9916
57.5576 63.6903 3.9817
67.5062 50.1759 3.97009
65.7005 54.1722 3.97138
64.5341 51.3824 3.96709
60.7722 60.9354 3.97716
62.816 55.0635 3.96808
60.6534 58.1513 3.96673
60.3203 55.7749 3.9682
56.25 69.9759 4
58.3339 68.6801 2
60.3285 67.2507 0
58.9211 9.65639 3.98843
62.2254 9.30607 4
73.0099 49.554 0
74.2788 44.8158 0
71.2491 46.598 0.019342
72.168 42.0855 0.019259
74.9194 39.9526 0
75 37.5 2
72.4053 39.8023 2
71.7823 44.3525 2
69.8025 41.7889 2
70.5748 48.8132 2
68.911 46.0136 2
72.4887 37.5119 3.98106
70.0403 39.657 3.97061
69.4292 43.9068 3.97027
67.5944 41.4964 3.96814
68.2647 48.1063 3.97
66.7058 45.4379 3.96751
74.9197 35.0474 0
74.2794 30.1841 0
72.1847 32.9432 0.0188032
71.278 28.4313 0.0189652
65.694 12.7746 0
65.323 16.104 0.0190759
69.8153 24.0595 0.0177318
68.3457 26.9517 0.0291197
66.7613 22.9337 0.0283487
64.712 19.1966 0.0270373
63.8834 22.0384 0.0317613
72.4131 35.2242 2
71.8037 30.6766 2
69.8387 33.2687 2
68.965 29.0388 2
64.0165 10.9835 2
63.8915 14.3306 2
63.5104 17.4509 2
67.6099 24.9129 2
66.1914 27.6362 2
62.9018 20.3251 2
64.7528 23.8325 2
62.0781 22.9509 2
60.6856 11.1001 2
57.6124 11.4495 2
70.057 35.3918 3.9708
69.466 31.1496 3.97066
67.653 33.5913 3.96833
66.7691 29.6238 3.96784
65.5209 25.7009 3.96802
64.1173 28.262 3.96933
62.3415 12.6553 3.98598
62.8386 24.6444 3.96799
62.1975 15.7886 3.97477
61.8067 18.6921 3.96679
61.206 21.3503 3.96584
60.3875 23.7421 3.96856
59.2456 12.7823 3.97767
55.8741 10.236 3.98171
56.4039 13.1218 3.97502
69.7687 50.9888 0.0186476
62.2254 65.694 0
58.8945 65.4141 0.0093541
67.7835 55.1671 0.0184233
66.6481 52.2083 0.029316
62.3359 62.4274 0.0138353
62.201 59.4011 0.0270444
64.6594 56.0301 0.0272748
61.8183 56.6754 0.0314658
60.67 63.9757 2
57.0263 66.7345 2
57.5577 63.6918 2
67.5059 50.1753 2
65.6999 54.1716 2
64.5337 51.3822 2
60.7722 60.9366 2
62.8155 55.0636 2
60.653 58.1518 2
60.3199 55.7748 2
55.0713 67.9316 3.99207
59.2185 62.3639 3.97855
55.8046 64.9092 3.98517
56.3255 62.0854 3.97671
65.3283 49.4058 3.96699
63.702 53.2888 3.96733
62.4165 50.6419 3.96703
59.3304 59.5513 3.9717
61.0694 54.2998 3.96729
59.2797 56.9965 3.96419
59.2314 55.1689 3.96662
48.1025 68.5779 3.98772
50.9491 69.9313 3.99229
54.0858 71.1327 4
56.25 69.976 2
58.3339 68.6801 0
57.0585 8.33623 3.98962
60.3285 7.74928 4
58.9228 9.65758 2
62.2255 9.30602 2
70.5749 48.8134 0.0190434
71.7824 44.3528 0.0191768
68.911 46.0141 0.0298924
69.8029 41.7891 0.0295961
72.4053 39.8021 0.0187114
75 37.5 0
72.4883 37.5121 2
70.0403 39.6569 2
69.4291 43.9065 2
67.5941 41.4963 2
68.2646 48.1058 2
66.7056 45.4377 2
70.1284 37.5212 3.97082
67.8324 39.5116 3.96836
67.2194 43.4683 3.96773
65.5151 41.2053 3.97089
66.065 47.4158 3.96727
64.6126 44.8406 3.96954
72.4131 35.224 0.0186775
71.8037 30.6762 0.0187719
69.839 33.2683 0.0290943
68.9649 29.0384 0.0293074
64.0165 10.9835 0
63.8897 14.3276 0.0162605
63.5109 17.4506 0.0274995
67.6101 24.9124 0.0288397
66.1914 27.636 0.0321635
64.7533 23.8322 0.0317902
62.9024 20.3248 0.0319394
62.0789 22.9507 0.0328015
60.6838 11.0981 0.0127866
57.6117 11.4506 0.020911
70.057 35.392 2
69.466 31.1499 2
67.6527 33.5914 2
66.7692 29.624 2
62.3433 12.658 2
62.1972 15.7883 2
61.8062 18.6921 2
65.5206 25.7012 2
64.1166 28.2623 2
61.2052 21.3504 2
62.8381 24.6446 2
60.3874 23.7426 2
59.2461 12.7819 2
56.4044 13.1205 2
55.8747 10.2347 2
67.8684 35.5475 3.96845
67.2626 31.6231 3.9681
65.667 33.9295 3.97104
64.6301 30.1976 3.96974
63.5149 26.4211 3.9688
62.1933 28.7901 3.97284
60.7747 14.2267 3.97748
60.9993 25.352 3.97026
60.6071 17.1366 3.96971
60.2074 19.8279 3.96514
59.6221 22.2748 3.96592
58.9174 24.3412 3.97079
54.0375 9.1378 3.98332
57.9086 14.3398 3.97618
54.786 12.0186 3.97657
55.3097 14.6598 3.97422
67.5062 50.1759 0.029913
57.0256 66.7348 0.00839953
60.6686 63.9769 0.0115969
57.5576 63.6903 0.0182999
65.7005 54.1722 0.0286156
64.5341 51.3824 0.0329069
60.7722 60.9354 0.0228395
60.6534 58.1513 0.0332675
62.816 55.0635 0.0319218
60.3203 55.7749 0.0317986
55.0719 67.9316 2
59.2186 62.3652 2
55.8045 64.9101 2
56.3253 62.0869 2
65.328 49.4056 2
63.7013 53.2887 2
62.4167 50.6418 2
59.3302 59.5529 2
61.069 54.2997 2
59.2794 56.9963 2
59.2312 55.1686 2
53.0432 68.9994 3.99217
53.9671 66.0122 3.98667
57.8786 60.8648 3.97588
54.6835 63.2047 3.9808
55.209 60.6067 3.97594
63.1612 48.651 3.96787
61.7258 52.5656 3.9668
60.2128 49.9998 3.9688
58.011 58.2512 3.96846
59.3122 53.9322 3.96725
58.1072 55.7936 3.96492
50.1092 67.8561 3.98753
47.4631 66.579 3.98451
46.0561 69.157 3.98784
48.1025 68.5785 2
48.8032 70.7226 3.99239
50.9495 69.9313 2
51.8506 72.1454 4
54.0858 71.1327 2
56.25 69.9759 0
55.1032 7.14064 3.9908
58.3339 6.31992 4
57.0599 8.33677 2
60.3286 7.74926 2
58.9211 9.65639 0.0115693
62.2254 9.30607 0
68.2647 48.1063 0.0299952
69.4292 43.9068 0.0297292
66.7058 45.4379 0.0324895
67.5944 41.4964 0.0318562
70.0403 39.657 0.0293949
72.4887 37.5119 0.0189425
70.1281 37.5213 2
67.8323 39.5116 2
67.2196 43.4681 2
65.5144 41.2051 2
66.065 47.4156 2
64.6118 44.8403 2
67.9287 37.5216 3.96849
65.7501 39.3675 3.97122
65.1368 43.0191 3.97027
63.6688 40.9218 3.97439
63.9258 46.7074 3.9687
62.7256 44.2029 3.97337
70.057 35.3918 0.0291957
69.466 31.1496 0.0293362
67.653 33.5913 0.0316723
66.7691 29.6238 0.0321622
62.3415 12.6553 0.0140162
62.1975 15.7886 0.0252309
61.8067 18.6921 0.0332106
65.5209 25.7009 0.031978
64.1173 28.262 0.0306725
62.8386 24.6444 0.0320063
61.206 21.3503 0.0341622
60.3875 23.7421 0.0314429
59.2456 12.7823 0.0223315
56.4039 13.1218 0.0249818
55.8741 10.236 0.0182918
67.8683 35.5476 2
67.2625 31.6232 2
65.6665 33.9296 2
64.6296 30.1978 2
60.7746 14.2266 2
60.6068 17.1356 2
60.2072 19.8279 2
63.5144 26.4213 2
62.192 28.7905 2
59.6241 22.2751 2
60.999 25.3524 2
58.9165 24.3421 2
57.9083 14.3391 2
55.3097 14.6595 2
54.0378 9.13664 2
54.7864 12.0166 2
65.8407 35.6675 3.971
65.1495 32.1584 3.97034
64.2193 34.2529 3.97473
62.5092 30.6469 3.97353
61.5923 27.0862 3.9713
60.7557 29.1567 3.97647
59.308 15.676 3.97435
59.2509 25.818 3.97389
59.1111 18.3701 3.96671
58.7133 20.8712 3.96373
58.2231 23.1153 3.96629
57.8893 24.6905 3.97273
52.1122 8.15514 3.98502
53.0578 11.0224 3.97913
56.6725 15.7542 3.97561
53.8076 13.6926 3.97571
54.3706 16.0155 3.97567
55.0713 67.9316 0.00793122
65.3283 49.4058 0.0330122
55.8046 64.9092 0.0148325
59.2185 62.3639 0.0214533
56.3255 62.0854 0.0232932
63.702 53.2888 0.0326736
62.4165 50.6419 0.0329661
59.3304 59.5513 0.0282999
59.2797 56.9965 0.035813
61.0694 54.2998 0.0327107
59.2314 55.1689 0.0333758
53.0437 68.9995 2
53.967 66.013 2
57.8782 60.8662 2
54.6832 63.2057 2
55.2089 60.6082 2
63.1609 48.6508 2
61.7269 52.5657 2
60.2123 49.9993 2
58.0105 58.2528 2
59.3132 53.9319 2
58.1062 55.793 2
52.0704 66.999 3.98725
52.9535 64.2167 3.98311
56.6441 59.4804 3.97441
53.6798 61.6175 3.97779
54.255 59.3084 3.97467
60.9117 47.8612 3.96943
59.6641 52.0863 3.96787
57.9303 49.5891 3.97031
56.7635 56.9678 3.96728
57.0874 54.1004 3.96569
50.1092 67.8565 2
49.3371 65.9195 3.98436
47.4631 66.5796 2
46.8925 64.7329 3.98282
45.5582 67.096 3.98464
43.9731 69.5892 3.98795
46.0561 69.1576 2
46.6097 71.367 3.99238
48.1025 68.5779 0.0122836
48.8035 70.7228 2
49.554 73.0099 4
50.9491 69.9313 0.00771458
51.8506 72.1455 2
54.0858 71.1327 0
53.0647 6.07207 3.99146
55.1042 7.14074 2
56.25 5.02411 4
58.3339 6.3199 2
57.0585 8.33623 0.0103835
60.3285 7.74928 0
66.065 47.4158 0.0327334
67.2194 43.4683 0.0322717
64.6126 44.8406 0.0304585
65.5151 41.2053 0.0291077
67.8324 39.5116 0.0316406
70.1284 37.5212 0.0291825
67.9285 37.5217 2
65.7492 39.3674 2
65.1362 43.0189 2
63.6676 40.9216 2
63.9251 46.7071 2
62.7241 44.2025 2
65.8537 37.5008 3.971
63.8128 39.2618 3.97397
63.2375 42.5391 3.97377
62.3091 40.6874 3.97718
61.886 45.9027 3.97138
61.3327 43.6659 3.97698
67.8684 35.5475 0.0315504
67.2626 31.6231 0.0319018
65.667 33.9295 0.0289601
64.6301 30.1976 0.0302631
60.7747 14.2267 0.0225245
60.6071 17.1366 0.0302893
60.2074 19.8279 0.0348599
63.5149 26.4211 0.0311999
62.1933 28.7901 0.0271574
60.9993 25.352 0.0297449
59.6221 22.2748 0.0340818
58.9174 24.3412 0.0292076
57.9086 14.3398 0.0238203
55.3097 14.6598 0.0257808
54.0375 9.1378 0.0166769
54.786 12.0186 0.0234258
65.8398 35.6676 2
65.1493 32.1586 2
64.2188 34.253 2
62.5079 30.6473 2
59.3073 15.6757 2
59.1113 18.3693 2
58.7146 20.8715 2
61.5915 27.0866 2
60.755 29.1571 2
58.2227 23.1162 2
59.2501 25.8188 2
57.8888 24.6916 2
56.672 15.7534 2
54.3701 16.0156 2
53.8076 13.6899 2
52.1124 8.15421 2
53.0579 11.021 2
64.0145 35.6333 3.97401
62.8367 33.0536 3.97451
60.498 30.6278 3.97658
59.4693 27.9313 3.97493
57.9323 16.9951 3.97192
57.6459 25.7536 3.97534
57.6927 19.4955 3.96329
57.3173 21.8654 3.9628
57.0979 23.9767 3.96799
50.1126 7.28588 3.9869
51.2327 10.1286 3.98106
52.1709 12.8053 3.97727
55.5293 16.9877 3.97474
52.974 15.2819 3.97347
53.7495 17.0002 3.97912
53.0432 68.9994 0.00782859
53.9671 66.0122 0.0133264
63.1612 48.651 0.0321295
54.6835 63.2047 0.0191983
57.8786 60.8648 0.0241228
55.209 60.6067 0.024064
61.7258 52.5656 0.0331984
60.2128 49.9998 0.0312027
58.011 58.2512 0.0315424
58.1072 55.7936 0.0350831
59.3122 53.9322 0.0327536
52.0704 66.9996 2
52.9532 64.2175 2
56.6437 59.4813 2
53.6795 61.6183 2
54.2549 59.31 2
60.9106 47.8606 2
59.6647 52.086 2
57.9272 49.5881 2
56.7623 56.9722 2
57.0859 54.0998 2
51.1682 65.1264 3.98437
52.0457 62.535 3.9803
55.4726 58.2381 3.97495
52.8307 60.1257 3.97738
53.6312 58.4584 3.97909
58.1775 46.8193 3.97384
57.4982 51.7614 3.96739
56.1248 49.521 3.97065
55.4474 55.7678 3.96276
55.3057 53.3552 3.96367
50.1092 67.8561 0.0124745
49.337 65.92 2
48.6182 64.1197 3.98309
47.4631 66.579 0.0154875
45.5582 67.0966 2
46.8925 64.7334 2
46.3822 63.0486 3.98232
45.1327 65.1938 3.98287
43.6314 67.4666 3.98471
41.8604 69.8766 3.98783
43.9731 69.5897 2
44.377 71.8619 3.99232
46.0561 69.157 0.0121612
46.61 71.3673 2
47.2057 73.7222 4
48.8032 70.7226 0.00760952
49.554 73.0099 2
51.8506 72.1454 0
50.9547 5.13229 3.99209
53.0653 6.07202 2
54.0858 3.86728 4
55.1032 7.14064 0.00919816
56.25 5.02406 2
58.3339 6.31992 0
63.9258 46.7074 0.031302
65.1368 43.0191 0.0297334
62.7256 44.2029 0.0266292
63.6688 40.9218 0.0256124
65.7501 39.3675 0.0287764
67.9287 37.5216 0.0315139
65.8529 37.5008 2
63.8116 39.2616 2
63.2362 42.5387 2
62.3074 40.687 2
61.8845 45.9022 2
61.3312 43.6654 2
63.8751 37.455 3.97359
62.0301 39.3486 3.97703
61.079 41.9423 3.97682
60.1294 44.7483 3.97577
65.8407 35.6675 0.0289972
65.1495 32.1584 0.0296644
64.2193 34.2529 0.0252657
62.5092 30.6469 0.0264743
59.308 15.676 0.0256548
59.1111 18.3701 0.0332948
58.7133 20.8712 0.0362665
61.5923 27.0862 0.0287013
60.7557 29.1567 0.023528
59.2509 25.818 0.0261053
58.2231 23.1153 0.0337143
57.8893 24.6905 0.0272719
56.6725 15.7542 0.0243933
54.3706 16.0155 0.0243287
53.8076 13.6926 0.0242912
52.1122 8.15514 0.0149786
53.0578 11.0224 0.0208662
64.0136 35.6333 2
62.8356 33.0538 2
60.4967 30.6282 2
57.9316 16.9948 2
57.6934 19.4941 2
57.3186 21.866 2
59.4682 27.932 2
57.0969 23.978 2
57.6453 25.7546 2
50.1127 7.28474 2
55.5289 16.9872 2
53.7489 16.9999 2
52.9739 15.2814 2
52.1711 12.8043 2
51.2328 10.1275 2
62.0669 35.3637 3.97611
60.1407 32.7595 3.97668
58.476 30.1008 3.97696
57.1632 27.4128 3.97628
56.6225 18.1729 3.97117
56.1862 25.1371 3.9727
56.3217 20.546 3.96171
56.0265 22.9023 3.96286
48.0567 6.52797 3.98842
49.3249 9.3342 3.98255
50.4327 12.0007 3.97861
51.3743 14.5096 3.97422
54.4012 17.9396 3.97587
52.3527 17.0616 3.97153
52.0704 66.999 0.0127497
52.9535 64.2167 0.0168908
60.9117 47.8612 0.0305745
53.6798 61.6175 0.0222078
56.6441 59.4804 0.0255872
54.255 59.3084 0.0253337
59.6641 52.0863 0.0321251
57.9303 49.5891 0.0296933
56.7635 56.9678 0.0327209
57.0874 54.1004 0.0343053
51.1679 65.1269 2
52.0454 62.5357 2
55.4721 58.2392 2
52.8306 60.1286 2
53.6308 58.4594 2
58.176 46.8184 2
57.4972 51.7607 2
56.1215 49.52 2
55.4472 55.7682 2
55.3076 53.3556 2
50.3464 63.3784 3.98276
51.2423 60.9292 3.97751
54.2042 57.2543 3.975
52.305 58.6182 3.97569
56.5127 44.1439 3.97776
55.333 47.8565 3.9722
54.9838 51.358 3.96642
53.963 54.5148 3.96375
49.3371 65.9195 0.0156389
48.6182 64.1202 2
47.9621 62.4701 3.98181
45.5582 67.096 0.0153637
46.8925 64.7329 0.0171762
43.6313 67.4672 2
46.3823 63.049 2
45.1327 65.1944 2
45.9877 61.5797 3.98276
44.7675 63.4487 3.98152
43.3569 65.503 3.98267
41.6635 67.6853 3.98455
39.7022 70.0235 3.98804
41.8604 69.877 2
42.1113 72.2068 3.99229
43.9731 69.5892 0.0120466
44.3773 71.8622 2
44.8159 74.2794 4
46.6097 71.367 0.00761711
47.2057 73.7222 2
49.554 73.0099 0
48.7853 4.32292 3.99261
50.9552 5.13189 2
51.8506 2.85458 4
53.0647 6.07207 0.00853735
54.0858 3.86728 2
56.25 5.02411 0
61.886 45.9027 0.0286199
63.2375 42.5391 0.0262345
61.3327 43.6659 0.0230226
62.3091 40.6874 0.0228228
63.8128 39.2618 0.0260303
65.8537 37.5008 0.0290038
63.8739 37.455 2
62.0283 39.3487 2
61.0774 41.9418 2
60.1279 44.7476 2
61.8702 37.4438 3.97735
60.0749 39.8311 3.9774
58.8087 42.89 3.97743
64.0145 35.6333 0.0259901
62.8367 33.0536 0.0254946
60.498 30.6278 0.0234248
57.9323 16.9951 0.0280822
57.6927 19.4955 0.0367143
57.3173 21.8654 0.0371983
59.4693 27.9313 0.0250737
57.6459 25.7536 0.0246554
57.0979 23.9767 0.0320102
55.5293 16.9877 0.0252601
53.7495 17.0002 0.0208781
52.974 15.2819 0.0265305
50.1126 7.28588 0.0131002
52.1709 12.8053 0.0227254
51.2327 10.1286 0.0189369
62.0657 35.364 2
60.1383 32.7598 2
58.4752 30.1016 2
56.6217 18.1725 2
56.3231 20.5431 2
56.0281 22.9033 2
57.164 27.4137 2
56.187 25.1382 2
48.0567 6.5269 2
49.3251 9.33291 2
54.4009 17.9393 2
52.352 17.0615 2
51.374 14.5076 2
50.4329 11.9997 2
59.7204 35.1298 3.97723
57.7921 32.2981 3.97718
56.3823 29.376 3.97739
55.2904 26.6434 3.97636
55.3188 19.2089 3.96979
54.8235 24.0992 3.96424
54.9453 21.5934 3.95916
45.9628 5.88269 3.98901
43.3743 7.47383 3.986
47.3556 8.62576 3.98437
48.6 11.2991 3.97988
49.7111 13.7524 3.97807
50.6275 16.1534 3.9773
53.1063 18.6857 3.97143
51.2872 18.0776 3.97958
51.1682 65.1264 0.0156307
52.0457 62.535 0.0196993
58.1775 46.8193 0.0261631
52.8307 60.1257 0.0226203
55.4726 58.2381 0.0250489
53.6312 58.4584 0.0209087
57.4982 51.7614 0.0326055
56.1248 49.521 0.0293498
55.4474 55.7678 0.0372437
55.3057 53.3552 0.0363289
50.3461 63.3785 2
51.242 60.9295 2
54.2039 57.2555 2
52.3045 58.619 2
56.5118 44.143 2
55.3323 47.8555 2
54.9846 51.3578 2
53.9635 54.5159 2
49.5917 61.7408 3.98143
55.3506 41.6723 3.97614
50.5613 59.3189 3.9746
52.1638 56.4724 3.96916
53.9589 45.5123 3.97508
53.1895 49.2882 3.97034
52.5991 52.8199 3.96393
48.6182 64.1197 0.016912
47.9622 62.4703 2
47.3284 61.0027 3.98343
43.6314 67.4666 0.0152915
45.1327 65.1938 0.0171291
46.3822 63.0486 0.0176841
41.6636 67.6855 2
43.3568 65.5038 2
45.9879 61.5803 2
44.7676 63.4494 2
45.7653 60.6232 3.98133
44.4839 61.828 3.98132
43.1467 63.7207 3.98104
41.5464 65.6407 3.98197
39.6328 67.7648 3.98422
37.526 70.0483 3.98771
39.7022 70.0241 2
39.8179 72.4038 3.99213
41.8604 69.8766 0.0121732
42.1115 72.2071 2
42.3947 74.6792 4
44.377 71.8619 0.007678
44.8159 74.2794 2
47.2057 73.7222 0
43.8521 5.35949 3.98904
46.5713 3.64733 3.99279
48.7855 4.32249 2
49.554 1.99015 4
50.9547 5.13229 0.00790541
51.8506 2.85453 2
54.0858 3.86728 0
60.1294 44.7483 0.0242298
61.079 41.9423 0.0231755
62.0301 39.3486 0.0229651
63.8751 37.455 0.026407
61.8686 37.444 2
60.0737 39.8308 2
58.8075 42.8893 2
59.5765 37.5647 3.97765
57.767 40.6325 3.97773
54.7874 39.6851 3.9761
62.0669 35.3637 0.0238876
60.1407 32.7595 0.0233197
58.476 30.1008 0.0230355
56.6225 18.1729 0.0288349
56.3217 20.546 0.0382854
56.0265 22.9023 0.0371411
57.1632 27.4128 0.0237216
56.1862 25.1371 0.0273016
54.4012 17.9396 0.0241292
52.3527 17.0616 0.0284711
51.3743 14.5096 0.0257833
48.0567 6.52797 0.0115833
49.3249 9.3342 0.0174546
50.4327 12.0007 0.0213875
59.7191 35.13 2
45.9626 5.8821 2
43.3741 7.4733 2
57.7912 32.299 2
56.3818 29.3768 2
55.3181 19.2091 2
54.9487 21.5928 2
54.8225 24.1007 2
55.2861 26.6451 2
47.3557 8.62399 2
48.6003 11.2977 2
53.1063 18.6852 2
51.287 18.0789 2
50.6273 16.1533 2
49.7108 13.7515 2
57.156 34.7742 3.97742
55.5175 31.5546 3.97759
54.307 28.4602 3.97811
53.6434 25.5504 3.97421
53.9359 20.1638 3.97058
53.503 22.754 3.95617
41.3994 7.07938 3.9864
45.3605 7.99543 3.98637
42.8663 9.4171 3.98313
46.667 10.657 3.98162
47.7437 13.1095 3.98005
48.9273 15.4143 3.97568
49.9946 17.7202 3.97585
51.625 19.3549 3.97823
50.3464 63.3784 0.017236
51.2423 60.9292 0.0224874
56.5127 44.1439 0.0222352
55.333 47.8565 0.0277982
52.305 58.6182 0.0243084
54.2042 57.2543 0.0250004
54.9838 51.358 0.0335794
53.963 54.5148 0.0362458
49.5913 61.7405 2
55.3505 41.6722 2
50.561 59.3199 2
52.1635 56.4734 2
53.9638 45.5115 2
53.1933 49.2884 2
52.6 52.8191 2
48.8461 60.1972 3.97921
52.2127 42.5872 3.98142
49.7769 57.6105 3.97402
50.5469 54.4044 3.96605
51.6107 47.221 3.97617
51.1059 50.9109 3.96063
47.864 43.7285 3.99
47.9621 62.4701 0.0181949
47.3287 61.0031 2
46.6165 59.7881 3.98273
41.6635 67.6853 0.0154539
43.3569 65.503 0.0173293
44.7675 63.4487 0.0184794
45.9877 61.5797 0.0172402
39.633 67.7655 2
41.5462 65.6405 2
45.7654 60.624 2
43.1468 63.7214 2
44.4841 61.8287 2
44.6222 60.2846 3.9825
42.951 62.0756 3.97959
41.6002 63.814 3.98118
39.6477 65.6081 3.98104
37.5635 67.7465 3.98372
31.6969 65.127 3.98187
33.3924 67.4842 3.98339
35.3337 69.9583 3.98776
37.526 70.049 2
37.5095 72.4583 3.99202
39.7022 70.0235 0.0119587
39.8181 72.4041 2
39.9526 74.9197 4
42.1113 72.2068 0.00771126
42.3947 74.6792 2
44.8159 74.2794 0
41.7366 4.96872 3.98927
43.852 5.35891 2
44.3265 3.11041 3.99313
46.5714 3.64702 2
47.2057 1.27793 4
48.7853 4.32292 0.00739334
49.554 1.99013 2
51.8506 2.85458 0
58.8087 42.89 0.0225699
60.0749 39.8311 0.0225959
61.8702 37.4438 0.0226501
59.5754 37.565 2
57.7673 40.6324 2
54.7882 39.6846 2
56.556 37.884 3.97753
49.2459 41.2978 3.99004
52.8088 39.301 3.98416
39.4429 6.80323 3.98626
59.7204 35.1298 0.0227716
57.7921 32.2981 0.0228188
56.3823 29.376 0.0226112
55.3188 19.2089 0.0302123
54.9453 21.5934 0.0408422
54.8235 24.0992 0.0357576
55.2904 26.6434 0.0236355
53.1063 18.6857 0.028567
51.2872 18.0776 0.0204226
50.6275 16.1534 0.0227033
45.9628 5.88269 0.0109914
49.7111 13.7524 0.0219314
47.3556 8.62576 0.0156286
48.6 11.2991 0.0201188
43.3743 7.47383 0.0140049
57.1543 34.7735 2
41.3994 7.07861 2
45.3602 7.99488 2
42.8661 9.4167 2
55.5198 31.5547 2
54.3056 28.4616 2
53.9359 20.1649 2
53.5029 22.7518 2
53.6409 25.5521 2
46.6672 10.6542 2
47.7437 13.1076 2
51.6252 19.3556 2
49.9938 17.7189 2
48.9266 15.4139 2
54.5835 33.9731 3.97627
53.2607 30.548 3.97765
52.4053 27.2671 3.9751
52.0418 24.1565 3.9769
52.3436 21.0912 3.97644
41.014 9.05038 3.98318
44.7252 9.99586 3.98421
42.4688 10.9041 3.98478
46.0043 12.7356 3.97829
47.6775 14.594 3.9745
48.102 16.9993 3.97464
49.8016 19.6859 3.97675
49.5917 61.7408 0.0185676
50.5613 59.3189 0.0254047
55.3506 41.6723 0.0238617
53.9589 45.5123 0.0249158
53.1895 49.2882 0.0296629
52.1638 56.4724 0.0308386
52.5991 52.8199 0.0360717
48.8459 60.1959 2
52.2216 42.5894 2
49.7764 57.6111 2
50.5468 54.4057 2
51.6144 47.222 2
51.1072 50.9095 2
47.8728 43.7489 2
47.9798 58.7317 3.97915
49.8161 45.2261 3.98059
48.5708 55.9025 3.97658
49.0578 52.5658 3.97372
49.5237 49.0064 3.97099
45.6477 39.852 3.88388
46.0987 42.605 3.91948
46.2509 45.7685 3.98753
43.4655 41.1135 3.79772
41.8605 41.9939 3.66167
47.3284 61.0027 0.016569
46.6163 59.7889 2
45.4639 58.7844 3.9819
39.6328 67.7648 0.0157825
41.5464 65.6407 0.0180309
43.1467 63.7207 0.0189556
44.4839 61.828 0.0186772
45.7653 60.6232 0.018665
41.6002 63.814 2
37.5636 67.7473 2
39.6477 65.6087 2
44.6223 60.2852 2
42.9511 62.0761 2
41.7539 62.4868 3.98026
42.48 59.9732 3.98202
39.8939 63.5473 3.97965
37.6423 65.5066 3.98155
35.4636 67.6557 3.98357
33.5754 65.3393 3.98104
31.9589 63.2968 3.98154
29.883 64.7188 3.98298
31.697 65.1277 2
31.377 67.1944 3.98395
33.3924 67.4848 2
33.1568 69.752 3.98757
35.3336 69.9592 2
35.1948 72.3726 3.99196
37.526 70.0483 0.0122912
37.5096 72.4587 2
37.5 75 4
39.8179 72.4038 0.0078687
39.9526 74.9197 2
42.3947 74.6792 0
39.6242 4.71614 3.98954
41.7366 4.96802 2
42.0628 2.71794 3.99329
43.8521 5.35949 0.0109571
44.3266 3.11002 2
44.8158 0.721173 4
46.5713 3.64733 0.0072071
47.2057 1.27779 2
49.554 1.99015 0
57.767 40.6325 0.0222662
59.5765 37.5647 0.0223539
54.7874 39.6851 0.0239012
49.2646 41.3033 2
56.5548 37.8838 2
52.8101 39.2939 2
53.6529 36.6292 3.97725
47.1708 40.3693 3.92772
50.1851 38.5124 3.99263
37.5168 6.67458 3.98625
39.4429 6.80226 2
39.2114 8.69366 3.98387
35.9427 8.49423 3.98384
57.156 34.7742 0.0225794
55.5175 31.5546 0.0224138
54.307 28.4602 0.0218914
53.9359 20.1638 0.029418
53.503 22.754 0.0438335
53.6434 25.5504 0.0257891
51.625 19.3549 0.0217688
49.9946 17.7202 0.0241534
48.9273 15.4143 0.0243177
45.3605 7.99543 0.0136339
47.7437 13.1095 0.0199462
46.667 10.657 0.0183795
41.3994 7.07938 0.0135971
42.8663 9.4171 0.0168745
54.5797 33.975 2
41.0139 9.04986 2
44.7246 9.99555 2
42.4684 10.9041 2
53.2577 30.547 2
52.4111 27.2689 2
52.3447 21.0917 2
52.0427 24.1577 2
46.0043 12.7315 2
47.677 14.5919 2
49.8019 19.6864 2
48.1007 16.9978 2
52.1384 32.8871 3.98028
51.0714 29.2276 3.9754
50.6354 25.7967 3.97231
49.895 22.27 3.98138
40.5697 11.61 3.98067
43.8585 11.9175 3.98005
45.7971 15.4306 3.9815
47.4925 19.2994 3.97743
46.0095 37.4825 3.88776
48.8461 60.1972 0.0207874
49.7769 57.6105 0.0259756
52.2127 42.5872 0.0185756
51.6107 47.221 0.0238346
51.1059 50.9109 0.0393725
50.5469 54.4044 0.0339533
47.864 43.7285 0.00999964
47.9791 58.7322 2
49.8271 45.2344 2
48.5696 55.9043 2
49.0575 52.5691 2
49.5265 49.0055 2
45.6821 39.858 2
46.1215 42.626 2
46.2521 45.7693 2
43.4892 41.1381 2
41.8749 42.0083 2
46.8261 57.3338 3.98243
44.2138 39.3973 3.79831
42.2124 40.8613 3.71198
47.8704 47.1965 3.97762
47.1262 54.2192 3.97359
47.4885 50.7185 3.96996
44.6243 47.3626 3.97761
44.7538 41.9281 3.87092
44.7208 44.5026 3.9364
42.3418 42.6214 3.80709
40.7823 42.3266 3.69658
46.6165 59.7881 0.0172673
45.4639 58.7849 2
43.8695 57.706 3.98421
37.5635 67.7465 0.0162756
39.6477 65.6081 0.0189555
41.6002 63.814 0.0188218
42.951 62.0756 0.0204129
44.6222 60.2846 0.0175039
35.4637 67.6568 2
41.754 62.4871 2
39.8938 63.5477 2
37.6424 65.5072 2
42.4802 59.9736 2
40.6238 61.6428 3.98089
40.4422 58.2002 3.98098
37.837 63.2084 3.9798
35.573 65.4281 3.98093
33.5755 65.3398 2
31.9587 63.2975 2
33.6284 63.3352 3.9803
30.3779 62.8564 3.98206
32.1231 62.0019 3.98284
26.8691 61.4983 3.98051
28.0618 64.1471 3.9826
29.883 64.7195 2
29.4063 66.7587 3.98447
31.6969 65.127 0.018133
31.377 67.1952 2
31.0142 69.4171 3.98758
33.3924 67.4842 0.0166054
33.1568 69.7527 2
32.8918 72.147 3.99208
35.3337 69.9583 0.0122377
35.1948 72.3731 2
35.0474 74.9194 4
37.5095 72.4583 0.00797572
37.5 75 2
39.9526 74.9197 0
35.6214 6.72577 3.98572
37.5237 4.61572 3.98962
39.6242 4.71528 2
39.7892 2.47443 3.99328
41.7366 4.96872 0.0107264
42.0628 2.71751 2
42.3946 0.32156 4
44.3265 3.11041 0.00686539
44.8159 0.72056 2
47.2057 1.27793 0
49.2459 41.2978 0.00996452
56.556 37.884 0.0224691
52.8088 39.301 0.0158366
47.1893 40.3793 2
50.1963 38.5064 2
53.6605 36.6321 2
50.9736 35.5715 3.97718
47.8322 37.7481 3.93969
45.6465 35.1342 3.88359
43.4716 33.8716 3.79211
41.8665 33.0004 3.65807
37.4585 8.53558 3.98441
37.5167 6.67352 2
39.4429 6.80323 0.0137444
39.2115 8.69252 2
38.9767 10.1282 3.98351
35.8993 9.77557 3.98232
34.1514 8.82404 3.98323
35.9423 8.49295 2
54.5835 33.9731 0.0237321
53.2607 30.548 0.0223471
52.4053 27.2671 0.0248998
52.3436 21.0912 0.0235637
52.0418 24.1565 0.0230966
49.8016 19.6859 0.0232509
48.102 16.9993 0.0253595
47.6775 14.594 0.0255014
44.7252 9.99586 0.0157868
46.0043 12.7356 0.0217053
41.014 9.05038 0.016818
42.4688 10.9041 0.0152206
52.1438 32.8869 2
40.5699 11.6103 2
43.8575 11.9178 2
51.0852 29.2284 2
50.6397 25.7987 2
49.8945 22.2682 2
45.7959 15.4251 2
47.4922 19.3054 2
49.6796 31.4607 3.9849
49.0823 27.5689 3.9734
49.2984 24.4827 3.98192
47.1609 22.0455 3.97593
38.3029 12.74 3.97869
42.1013 14.3077 3.97846
44.7931 18.4931 3.97672
44.5385 37.4903 3.8055
46.0624 37.4902 2
47.9798 58.7317 0.0208521
48.5708 55.9025 0.0234249
49.8161 45.2261 0.0194124
49.5237 49.0064 0.0290079
49.0578 52.5658 0.0262845
45.6477 39.852 0.116123
46.0987 42.605 0.0805196
46.2509 45.7685 0.0124749
43.4655 41.1135 0.202281
41.8605 41.9939 0.338329
46.8248 57.3342 2
44.2429 39.4169 2
42.2029 40.8678 2
47.8714 47.1984 2
47.1244 54.2234 2
47.4899 50.7219 2
44.6319 47.3399 2
44.7772 41.946 2
44.7375 44.5199 2
42.3865 42.6497 2
40.7867 42.3239 2
45.3774 55.9239 3.98937
42.5319 39.2673 3.72354
40.6726 40.7664 3.80277
45.9515 48.8831 3.98571
45.4728 52.5076 3.97917
43.3128 48.378 4.00021
43.2613 46.0469 3.91841
43.4538 43.7113 3.86922
40.9568 43.7523 3.79784
39.2651 42.6477 3.71643
45.4639 58.7844 0.0181031
43.8695 57.7066 2
42.0977 56.3254 3.98646
35.4636 67.6557 0.0164262
37.6423 65.5066 0.0184502
39.8939 63.5473 0.0203453
41.7539 62.4868 0.0197372
42.48 59.9732 0.0179848
35.5732 65.4295 2
40.6238 61.6432 2
37.8368 63.2088 2
40.4423 58.2008 2
38.9215 56.4912 3.98866
38.2508 60.3249 3.97965
35.6067 63.2004 3.97818
33.5754 65.3393 0.0189638
31.9589 63.2968 0.0184635
33.6284 63.3359 2
30.3779 62.8569 2
32.1232 62.0026 2
28.6808 62.2015 3.98168
33.3456 61.5124 3.98183
31.067 61.2193 3.98128
27.5711 59.5929 3.98097
23.7963 59.0798 3.9796
25.0352 60.8713 3.98044
26.8693 61.499 2
26.2287 63.4784 3.98205
28.062 64.1475 2
27.4629 66.1828 3.98467
29.883 64.7188 0.0170194
29.4064 66.7592 2
28.9065 68.9431 3.9875
31.377 67.1944 0.0160526
31.0142 69.4178 2
30.6141 71.7779 3.99204
33.1568 69.752 0.0124284
32.8916 72.1474 2
32.6054 74.6784 4
35.1948 72.3726 0.00804437
35.0474 74.9197 2
37.5 75 0
33.7242 6.98068 3.98528
35.4355 4.68597 3.98943
35.6212 6.72485 2
37.5147 2.387 3.99326
37.5236 4.61498 2
39.6242 4.71614 0.0104578
39.7891 2.47394 2
39.9526 0.0806499 4
42.0628 2.71794 0.00671045
42.3947 0.320817 2
44.8158 0.721173 0
44.2283 35.5823 3.79329
42.2216 34.1237 3.70907
47.1708 40.3693 0.0722766
50.1851 38.5124 0.00737229
53.6529 36.6292 0.0227544
47.8403 37.7516 2
50.9867 35.5701 2
45.6755 35.1168 2
43.4985 33.8463 2
41.8811 32.9859 2
48.0025 34.3051 3.96664
44.7556 33.0494 3.86396
42.3499 32.3742 3.80309
40.7889 32.6725 3.69406
37.3112 10.6329 3.9815
37.4584 8.53398 2
37.5168 6.67458 0.0137537
39.2114 8.69366 0.0161273
38.9772 10.127 2
34.7546 10.3823 3.98111
35.8992 9.77396 2
32.3782 9.3715 3.98179
34.1508 8.82292 2
35.9427 8.49423 0.0161577
52.1384 32.8871 0.0197213
51.0714 29.2276 0.0245954
50.6354 25.7967 0.0276901
49.895 22.27 0.0186151
47.4925 19.2994 0.022566
45.7971 15.4306 0.018502
43.8585 11.9175 0.0199512
40.5697 11.61 0.0193267
49.691 31.4571 2
38.3025 12.7379 2
42.1012 14.3097 2
49.0879 27.5687 2
49.301 24.4786 2
47.1566 22.0431 2
44.7928 18.5054 2
47.5162 29.5652 3.98538
46.9901 25.2318 3.9842
44.2714 21.426 3.97523
36.5831 12.9378 3.97751
38.6826 14.815 3.97697
41.7467 17.8628 3.97842
42.6505 37.4841 3.73594
44.5605 37.4907 2
46.0095 37.4825 0.112242
46.8261 57.3338 0.0175712
47.1262 54.2192 0.0264079
47.8704 47.1965 0.0223781
47.4885 50.7185 0.0300367
44.2138 39.3973 0.20169
44.7538 41.9281 0.129078
44.7208 44.5026 0.0635981
44.6243 47.3626 0.0223927
42.3418 42.6214 0.192915
42.2124 40.8613 0.288018
40.7823 42.3266 0.303417
45.3758 55.9232 2
42.5224 39.2652 2
40.6607 40.7519 2
45.9519 48.8888 2
45.472 52.5139 2
43.3165 48.3971 2
43.2915 46.0737 2
43.4822 43.7394 2
40.9869 43.7891 2
39.2599 42.6394 2
43.7101 54.4284 3.9963
40.7689 39.1552 3.83154
39.1288 40.8348 3.82146
43.5985 50.4362 4.00385
41.8884 47.5907 3.95392
41.8105 45.1327 3.88076
39.3387 44.4496 3.80436
37.5028 42.745 3.73868
43.8695 57.706 0.0157939
42.0976 56.3258 2
40.4089 54.9243 3.98287
35.573 65.4281 0.0190747
37.837 63.2084 0.0202009
40.6238 61.6428 0.0191105
40.4422 58.2002 0.0190191
35.6067 63.2016 2
38.251 60.3252 2
38.9217 56.4913 2
37.9986 55.2396 3.99399
36.9345 57.6216 3.98275
35.3633 60.9077 3.97862
33.6284 63.3352 0.0197044
30.3779 62.8564 0.0179401
32.1231 62.0019 0.0171563
33.3459 61.5133 2
28.681 62.2018 2
31.0674 61.2198 2
29.4044 60.2883 3.98015
32.3593 59.7445 3.98572
28.0298 58.3735 3.98825
27.5716 59.5936 2
25.3841 58.5929 3.97811
22.7641 58.2347 3.97079
23.4023 60.3494 3.97894
23.7965 59.0809 2
25.0355 60.8723 2
24.4317 62.7704 3.98203
26.8691 61.4983 0.0194885
26.229 63.4791 2
25.547 65.4925 3.98402
28.0618 64.1471 0.0173989
27.4629 66.1833 2
26.836 68.3315 3.98753
29.4063 66.7587 0.0155334
28.9065 68.9434 2
28.3691 71.2632 3.99214
31.0142 69.4171 0.0124214
30.6138 71.7783 2
30.1842 74.2788 4
32.8918 72.147 0.00791766
32.6053 74.6792 2
35.0474 74.9194 0
31.7886 7.4209 3.98436
33.3477 4.92534 3.989
33.7239 6.97972 2
35.2448 2.46306 3.99321
35.4353 4.68535 2
35.6214 6.72577 0.0142789
37.5 0 4
37.5145 2.3866 2
37.5237 4.61572 0.0103844
39.7892 2.47443 0.00671597
39.9526 0.0802889 2
42.3946 0.32156 0
42.5332 35.7083 3.72763
44.2534 35.5643 2
40.6804 34.2283 3.80208
42.2103 34.1193 2
47.8322 37.7481 0.0603115
50.9736 35.5715 0.022823
45.6465 35.1342 0.116414
43.4716 33.8716 0.207887
41.8665 33.0004 0.341934
48.0195 34.2921 2
44.7809 33.0324 2
42.3916 32.3446 2
40.7943 32.674 2
46.0274 31.6025 3.94138
43.4453 31.286 3.8724
40.958 31.2428 3.7985
39.2704 32.3607 3.71574
35.6934 11.7798 3.97946
37.3117 10.6305 2
37.4585 8.53558 0.0155866
38.9767 10.1282 0.016492
33.0988 11.2206 3.97897
34.7544 10.3807 2
35.8993 9.77557 0.0176761
30.4831 10.0209 3.98106
32.3777 9.37095 2
34.1514 8.82404 0.0167744
49.6796 31.4607 0.0151015
49.0823 27.5689 0.0266038
49.2984 24.4827 0.018076
47.1609 22.0455 0.0240716
44.7931 18.4931 0.02328
42.1013 14.3077 0.0215372
38.3029 12.74 0.0213134
36.5829 12.9355 2
47.5243 29.5459 2
38.6818 14.8123 2
41.7455 17.8692 2
46.9955 25.2283 2
44.2686 21.407 2
45.3597 27.6886 4.0004
43.7344 24.1495 4.00617
41.3297 20.8003 3.97949
35.7734 14.7672 3.97711
38.6821 17.6092 3.97848
40.819 37.4771 3.84097
42.6449 37.4853 2
44.5385 37.4903 0.1945
45.3774 55.9239 0.0106321
45.4728 52.5076 0.0208307
45.9515 48.8831 0.0142912
42.5319 39.2673 0.276465
43.4538 43.7113 0.130779
43.2613 46.0469 0.0815901
43.3128 48.378 -0.000205251
40.9568 43.7523 0.202165
40.6726 40.7664 0.197233
39.2651 42.6477 0.283567
43.7076 54.4276 2
40.7508 39.1458 2
39.1252 40.82 2
43.5979 50.4526 2
41.882 47.6119 2
41.8314 45.1594 2
37.5025 42.7402 2
39.3555 44.4768 2
41.856 52.9853 3.99328
39.1448 39.1635 3.84696
37.5004 40.8793 3.83692
35.7419 42.6533 3.71692
40.8652 49.6444 3.99899
39.806 45.999 3.86014
37.5009 44.6753 3.79346
42.0977 56.3254 0.0135429
40.4082 54.925 2
38.725 53.8232 3.99384
35.6067 63.2004 0.0218214
38.2508 60.3249 0.0203516
38.9215 56.4912 0.0113369
35.3635 60.9084 2
36.9351 57.6218 2
37.9986 55.2376 2
36.3235 55.3346 3.99452
34.4897 58.5147 3.98544
33.3456 61.5124 0.0181734
28.6808 62.2015 0.0183227
31.067 61.2193 0.0187205
32.3599 59.7453 2
29.405 60.2884 2
30.3071 57.8183 3.98375
28.0301 58.3745 2
26.9611 56.8251 3.97632
27.5711 59.5929 0.0190302
25.3842 58.5943 2
23.8551 56.7932 3.96544
21.3452 57.3871 3.97002
21.9973 59.6199 3.9774
22.7642 58.2364 2
22.7362 62.0206 3.98009
23.4025 60.3505 2
23.7963 59.0798 0.0204002
25.0352 60.8713 0.019556
24.432 62.7713 2
23.6811 64.7101 3.98366
26.2287 63.4784 0.0179494
25.547 65.4933 2
24.8081 67.5927 3.98734
27.4629 66.1828 0.0153337
26.836 68.3322 2
26.1642 70.6039 3.9922
28.9065 68.9431 0.0124961
28.3688 71.2633 2
27.7943 73.7221 4
30.6141 71.7779 0.00796159
30.1841 74.2794 2
32.6054 74.6784 0
29.8112 7.99505 3.98346
31.2531 5.33248 3.98818
31.7883 7.42011 2
32.9805 2.70132 3.9929
33.3474 4.9246 2
33.7242 6.98068 0.0147225
35.0474 0.080333 4
35.2446 2.46274 2
35.4355 4.68597 0.0105735
37.5 0 2
37.5147 2.387 0.0067446
39.9526 0.0806499 0
40.7712 35.8179 3.83153
42.5225 35.7108 2
44.2283 35.5823 0.206715
28.5439 10.6968 3.9801
39.1327 34.1723 3.82065
40.6666 34.2424 2
42.2216 34.1237 0.29093
48.0025 34.3051 0.033357
44.7556 33.0494 0.136038
42.3499 32.3742 0.196907
40.7889 32.6725 0.305944
46.0539 31.5898 2
43.4722 31.258 2
40.9898 31.2095 2
39.2664 32.3692 2
44.2606 29.7968 3.93193
41.8097 29.8642 3.87997
39.3463 30.5544 3.80323
37.51 32.2711 3.73793
34.0939 12.9404 3.97748
35.6934 11.7773 2
37.3112 10.6329 0.0184993
31.1872 11.9906 3.97906
33.099 11.22 2
34.7546 10.3823 0.0188877
30.4824 10.0192 2
32.3782 9.3715 0.0182148
47.5162 29.5652 0.0146194
46.9901 25.2318 0.0157998
36.5831 12.9378 0.0224904
44.2714 21.426 0.0247691
41.7467 17.8628 0.0215821
38.6826 14.815 0.0230345
35.7735 14.7693 2
45.3645 27.6883 2
38.6805 17.6134 2
41.3264 20.7862 2
43.7368 24.1362 2
33.61 15.8876 3.97659
42.9385 26.5359 3.99703
40.8797 23.3644 4.01058
38.4149 20.3909 3.97949
35.8512 17.5228 3.97879
39.1553 37.4867 3.86687
40.8008 37.4771 2
42.6505 37.4841 0.264061
43.7101 54.4284 0.00370297
43.5985 50.4362 -0.00384956
40.7689 39.1552 0.16846
41.8105 45.1327 0.119239
41.8884 47.5907 0.0460788
39.3387 44.4496 0.19564
39.1288 40.8348 0.178536
37.5028 42.745 0.261324
41.8541 52.9827 2
39.1336 39.1532 2
37.5001 40.8574 2
40.874 49.66 2
35.7438 42.6447 2
39.8291 46.0322 2
37.4968 44.699 2
39.7983 51.8609 4.00154
37.4983 39.1783 3.86885
35.8706 40.8492 3.82042
34.2225 42.3327 3.69466
35.661 44.4627 3.80122
38.6726 48.6457 3.96977
37.5101 46.3009 3.87164
40.4089 54.9243 0.0171289
38.7246 53.8171 2
36.7388 53.1543 3.99988
35.3633 60.9077 0.021377
36.9345 57.6216 0.0172502
37.9986 55.2396 0.0060099
34.4905 58.5155 2
36.3246 55.3397 2
33.2435 55.4999 3.9957
32.3593 59.7445 0.014277
29.4044 60.2883 0.0198479
30.3079 57.8187 2
28.7186 55.3135 3.97851
28.0298 58.3735 0.0117455
26.9606 56.8263 2
25.341 55.1325 3.97356
21.8331 55.334 3.9658
25.3841 58.5929 0.02189
23.8548 56.7954 2
20.2313 57.0156 3.97391
20.6508 58.7711 3.97414
21.3449 57.3889 2
21.1675 61.1688 3.97827
21.9974 59.6209 2
22.7641 58.2347 0.0292136
21.8948 63.8374 3.98258
22.7365 62.0217 2
23.4023 60.3494 0.021061
24.4317 62.7704 0.0179739
23.6811 64.7109 2
22.8364 66.736 3.98681
25.547 65.4925 0.0159813
24.8082 67.5936 2
24.0084 69.805 3.99229
26.836 68.3315 0.0124659
26.1639 70.6042 2
25.446 73.0099 4
28.3691 71.2632 0.0078585
27.7943 73.7222 2
30.1842 74.2788 0
27.8212 8.65495 3.98296
29.1552 5.87856 3.98729
29.8107 7.99359 2
30.7257 3.09846 3.9926
31.2528 5.33179 2
31.7886 7.4209 0.0156424
32.6053 0.320823 4
32.9802 2.70093 2
33.3477 4.92534 0.0110012
35.0474 0.0802903 2
35.2448 2.46306 0.00679468
37.5 0 0
39.1502 35.8204 3.84618
40.7526 35.8271 2
42.5332 35.7083 0.272372
28.5433 10.6959 2
26.6226 11.3929 3.98005
29.2262 12.6477 3.9795
37.5026 34.1384 3.83591
39.1272 34.188 2
40.6804 34.2283 0.197922
46.0274 31.6025 0.0586238
43.4453 31.286 0.127597
40.958 31.2428 0.201497
39.2704 32.3607 0.284258
44.2678 29.7843 2
41.8272 29.8452 2
39.3632 30.5211 2
37.5104 32.275 2
42.2738 28.4505 3.90906
39.8267 28.9961 3.87995
37.514 30.336 3.79411
35.7517 32.3601 3.71594
31.9161 14.4896 3.97755
34.0946 12.9398 2
35.6934 11.7798 0.020538
31.1868 11.9882 2
33.0988 11.2206 0.0210278
30.4831 10.0209 0.0189376
45.3597 27.6886 -0.000400043
43.7344 24.1495 -0.0061716
35.7734 14.7672 0.0228891
41.3297 20.8003 0.0205148
38.6821 17.6092 0.0215243
33.6089 15.8855 2
35.8488 17.5233 2
42.9477 26.5353 2
38.4149 20.3896 2
40.8777 23.3498 2
33.554 17.3982 3.97811
40.3377 25.714 3.99501
38.0683 22.9973 3.99763
35.5829 20.1059 3.98057
37.4976 37.4975 3.8891
39.1432 37.4867 2
40.819 37.4771 0.159029
41.856 52.9853 0.00672182
40.8652 49.6444 0.0010127
39.1448 39.1635 0.153038
39.806 45.999 0.139861
37.5009 44.6753 0.206544
37.5004 40.8793 0.163082
35.7419 42.6533 0.283084
39.799 51.8634 2
37.4987 39.1658 2
35.8765 40.834 2
38.6841 48.6828 2
34.2167 42.331 2
35.6449 44.4926 2
37.5084 46.3338 2
37.6516 50.9345 4.00565
35.8535 39.1817 3.847
34.3299 40.7837 3.8024
33.138 42.0019 3.66105
34.0381 43.7508 3.7977
35.174 45.9906 3.87202
36.8921 48.2786 3.93815
38.725 53.8232 0.00615994
36.7379 53.1619 2
34.3866 52.4504 3.99717
34.4897 58.5147 0.0145629
36.3235 55.3346 0.00548121
33.2438 55.5018 2
30.5503 53.3481 3.97679
30.3071 57.8183 0.0162504
28.718 55.3163 2
26.9287 53.4271 3.97186
26.9611 56.8251 0.0236845
25.3406 55.1359 2
23.6251 53.4675 3.95996
20.523 53.2033 3.96191
19.9515 55.8171 3.96752
21.8318 55.3356 2
23.8551 56.7932 0.0345588
19.4463 57.8773 3.97294
20.2308 57.0171 2
19.709 60.1967 3.97699
20.6507 58.7721 2
21.3452 57.3871 0.0299818
20.2076 62.8574 3.98034
21.1678 61.1701 2
21.9973 59.6199 0.0226028
20.9378 65.7646 3.98611
21.8948 63.8383 2
22.7362 62.0206 0.0199118
23.6811 64.7101 0.0163363
22.8365 66.7366 2
21.9109 68.8719 3.99202
24.8081 67.5927 0.0126626
24.008 69.8052 2
23.1494 72.1454 4
26.1642 70.6039 0.00780016
25.446 73.0099 2
27.7943 73.7221 0
25.8604 9.38381 3.98214
27.0699 6.54273 3.98635
27.8206 8.65416 2
28.4879 3.64451 3.99217
29.1547 5.87757 2
29.8112 7.99505 0.0165429
30.1841 0.720592 4
30.7253 3.09813 2
31.2531 5.33248 0.0118184
32.6053 0.320817 2
32.9805 2.70132 0.00710466
35.0474 0.080333 0
37.4997 35.8237 3.86824
39.1384 35.8303 2
40.7712 35.8179 0.168472
24.7774 12.077 3.98028
23.7528 14.3654 3.97932
28.5439 10.6968 0.0199024
26.6221 11.3924 2
29.2258 12.6466 2
27.2925 13.3811 3.97955
29.7821 14.2096 3.97928
35.8759 34.1693 3.82015
37.5025 34.1593 2
39.1327 34.1723 0.179351
37.51 32.2711 0.262071
44.2606 29.7968 0.0680656
41.8097 29.8642 0.120026
39.3463 30.5544 0.196765
42.3 28.4232 2
39.838 28.9608 2
37.5168 30.3143 2
35.7544 32.3697 2
40.0155 27.6298 3.90838
37.5164 28.7047 3.87499
35.6772 30.5633 3.80577
34.2363 32.6793 3.69483
30.9287 16.8516 3.97731
31.9161 14.4857 2
34.0939 12.9404 0.0225211
31.1872 11.9906 0.020936
42.9385 26.5359 0.00297034
40.8797 23.3644 -0.0105813
33.61 15.8876 0.0234118
35.8512 17.5228 0.0212134
38.4149 20.3909 0.0205077
33.5509 17.4067 2
35.5853 20.1103 2
40.3418 25.6983 2
38.0609 22.9805 2
32.8665 19.8069 3.98346
37.7887 25.3058 4.0031
35.1951 22.7303 3.99249
35.8422 37.5025 3.86714
37.4974 37.4975 2
39.1553 37.4867 0.133128
39.7983 51.8609 -0.00153635
38.6726 48.6457 0.0302254
37.4983 39.1783 0.131152
37.5101 46.3009 0.128359
35.661 44.4627 0.198779
35.8706 40.8492 0.179578
34.2225 42.3327 0.30534
37.6398 50.954 2
35.8663 39.1709 2
34.3418 40.7698 2
36.8828 48.3136 2
33.1223 42.0169 2
34.0108 43.7842 2
35.159 46.02 2
35.5063 50.0873 3.99485
34.2376 39.1774 3.83327
32.7783 40.8756 3.71035
32.6575 42.6299 3.80544
33.1953 45.1318 3.87798
34.32 47.3621 3.91383
36.7388 53.1543 0.000118387
34.3829 52.4579 2
32.0602 51.1571 4.00257
33.2435 55.4999 0.00430484
30.5495 53.3542 2
28.4836 51.5644 3.97809
28.7186 55.3135 0.0214876
26.9279 53.43 2
25.1486 51.7211 3.9592
25.341 55.1325 0.0264352
23.6242 53.4695 2
22.0461 51.78 3.95609
19.2861 51.613 3.96345
18.9542 54.2921 3.96246
20.5223 53.2027 2
18.4602 56.7091 3.97063
19.9506 55.8183 2
21.8331 55.334 0.0341951
18.3733 59.0993 3.97218
19.4459 57.8783 2
20.2313 57.0156 0.0260874
18.6199 61.7613 3.97569
19.7093 60.1984 2
20.6508 58.7711 0.0258626
19.1268 64.6748 3.98469
20.2076 62.8586 2
21.1675 61.1688 0.0217287
19.8851 67.8085 3.99189
20.9378 65.7654 2
21.8948 63.8374 0.0174172
22.8364 66.736 0.0131943
21.9105 68.872 2
20.9142 71.1327 4
24.0084 69.805 0.00771233
23.1494 72.1455 2
25.446 73.0099 0
23.0969 12.7925 3.97989
23.9729 10.1714 3.9816
25.0236 7.31337 3.98545
25.8599 9.38325 2
26.2796 4.32875 3.99171
27.0694 6.54212 2
27.8212 8.65495 0.0170353
27.7943 1.27781 4
28.4873 3.64414 2
29.1552 5.87856 0.0127063
30.1841 0.720551 2
30.7257 3.09846 0.00740341
32.6053 0.320823 0
35.8519 35.8271 3.84637
37.4991 35.8367 2
39.1502 35.8204 0.153823
24.7771 12.0765 2
23.753 14.3653 2
22.482 15.0427 3.97923
25.3587 13.914 3.97896
24.0279 15.6291 3.97935
26.6226 11.3929 0.0199455
29.2262 12.6477 0.0204955
27.2924 13.3807 2
29.7814 14.2079 2
28.3596 15.9857 3.97883
34.3364 34.2354 3.80033
35.8808 34.1849 2
37.5026 34.1384 0.164086
35.7517 32.3601 0.284063
37.514 30.336 0.205894
42.2738 28.4505 0.0909405
39.8267 28.9961 0.120047
40.0282 27.6065 2
37.5134 28.6784 2
35.6591 30.5288 2
34.2272 32.6815 2
37.5935 27.34 3.92284
35.1903 29.0098 3.87928
34.0549 31.2595 3.79816
33.1589 33.0093 3.66066
30.2135 19.36 3.98191
30.9278 16.8469 2
31.9161 14.4896 0.0224544
40.3377 25.714 0.00499431
38.0683 22.9973 0.00236594
33.554 17.3982 0.0218925
35.5829 20.1059 0.0194313
32.8668 19.816 2
35.1922 22.7223 2
37.7805 25.287 2
32.3141 22.4694 3.99606
35.0108 25.2766 4.00219
34.1818 37.5081 3.84196
35.8546 37.5031 2
37.4976 37.4975 0.1109
37.6516 50.9345 -0.00565224
36.8921 48.2786 0.0618549
35.8535 39.1817 0.153
35.174 45.9906 0.127981
34.0381 43.7508 0.202301
34.3299 40.7837 0.197603
33.138 42.0019 0.338951
35.4979 50.1003 2
34.2613 39.1684 2
32.7865 40.8821 2
34.3042 47.4012 2
32.6191 42.6569 2
33.1782 45.1564 2
33.3151 49.0814 3.99005
32.4615 39.2887 3.72939
31.5208 41.1256 3.79635
31.5516 43.7168 3.87145
32.3533 46.2937 3.91188
34.3866 52.4504 0.0028273
32.0585 51.1665 2
29.948 49.6767 3.98723
30.5503 53.3481 0.0232089
28.4822 51.5627 2
26.6003 49.9502 3.97024
26.9287 53.4271 0.0281421
25.1474 51.7191 2
23.4439 50.159 3.96497
23.6251 53.4675 0.0400434
22.0453 51.7789 2
20.5686 50.287 3.96535
18.0846 50.308 3.96795
17.9 52.7728 3.96388
19.2847 51.6125 2
17.4562 55.3269 3.96421
18.9515 54.2923 2
20.523 53.2033 0.038086
17.143 57.8611 3.97005
18.4595 56.7098 2
19.9515 55.8171 0.032478
17.1387 60.5396 3.9748
18.3733 59.1004 2
19.4463 57.8773 0.0270566
17.4078 63.4655 3.98121
18.62 61.7627 2
19.709 60.1967 0.023007
17.9416 66.6172 3.99163
19.1267 64.6759 2
20.2076 62.8574 0.0196647
18.75 69.9759 4
19.8845 67.8085 2
20.9378 65.7646 0.0138926
21.9109 68.8719 0.00798078
20.9142 71.1327 2
23.1494 72.1454 0
21.5881 13.6135 3.97944
22.191 11.0314 3.98089
23.0969 12.7925 2
23.0414 8.17947 3.98473
23.9725 10.1708 2
24.1172 5.14358 3.99127
25.0231 7.31276 2
25.8604 9.38381 0.0178582
25.446 1.99014 4
26.2789 4.32863 2
27.0699 6.54273 0.0136539
27.7943 1.27778 2
28.4879 3.64451 0.00783161
30.1841 0.720592 0
34.2317 35.834 3.82981
35.8627 35.8372 2
37.4997 35.8237 0.131761
21.3084 15.8392 3.98015
24.7774 12.077 0.0197168
23.7528 14.3654 0.0206819
25.3588 13.9136 2
22.4825 15.0428 2
24.0279 15.6296 2
23.2682 16.2611 3.97733
25.3837 16.0985 3.97917
27.2925 13.3811 0.0204547
29.7821 14.2096 0.0207196
28.3585 15.9863 2
27.4453 18.8133 3.98051
32.7946 34.1364 3.70896
34.3521 34.2497 2
35.8759 34.1693 0.179854
34.2363 32.6793 0.305173
35.6772 30.5633 0.194234
37.5164 28.7047 0.125007
40.0155 27.6298 0.0916151
37.5961 27.3081 2
33.1426 32.9966 2
35.186 28.9737 2
34.0174 31.2187 2
35.0878 27.4685 3.92254
33.2043 29.8808 3.87388
32.6749 32.3753 3.79295
29.5959 21.956 3.99515
30.2141 19.3682 2
30.9287 16.8516 0.0226852
37.7887 25.3058 -0.00310266
35.1951 22.7303 0.00751355
32.8665 19.8069 0.0165437
32.3136 22.4647 2
35.0279 25.2673 2
31.7764 25.6906 4.00805
32.3365 37.5094 3.73877
34.2044 37.5091 2
35.8422 37.5025 0.132859
35.5063 50.0873 0.00515056
34.32 47.3621 0.0861731
34.2376 39.1774 0.166727
33.1953 45.1318 0.122023
32.6575 42.6299 0.194556
32.7783 40.8756 0.289652
33.3109 49.0758 2
32.4757 39.2861 2
31.4968 41.1481 2
32.3194 46.3219 2
31.5221 43.7448 2
31.2638 47.9169 3.98825
30.7716 39.4142 3.79551
30.2404 41.9468 3.8645
30.5771 44.8879 3.93295
32.0602 51.1571 -0.00257104
29.9456 49.6758 2
28.0089 48.1368 3.9662
28.4836 51.5644 0.0219093
26.5993 49.9488 2
24.7846 48.4277 3.9728
25.1486 51.7211 0.0407993
23.4434 50.1566 2
21.8032 48.7522 3.96938
22.0461 51.78 0.0439068
20.5672 50.2861 2
19.1554 49.0653 3.97202
16.9873 49.3111 3.97239
16.8439 51.3889 3.96661
18.0859 50.307 2
16.4193 53.8572 3.96444
17.8974 52.7726 2
19.2861 51.613 0.0365501
15.9888 56.4633 3.9665
17.4552 55.327 2
18.9542 54.2921 0.0375381
15.7542 59.2011 3.97153
17.1428 57.8622 2
18.4602 56.7091 0.0293662
15.7897 62.1329 3.97656
17.1389 60.5414 2
18.3733 59.0993 0.0278208
16.0888 65.2997 3.99036
17.4076 63.4669 2
18.6199 61.7613 0.0243074
16.6661 68.6801 4
17.9408 66.6169 2
19.1268 64.6748 0.0153099
18.75 69.9759 2
19.8851 67.8085 0.00811066
20.9142 71.1327 0
20.221 14.6034 3.97833
21.5883 13.6135 2
20.5303 12.0019 3.98019
21.1442 9.14969 3.9842
22.1908 11.0312 2
23.0969 12.7925 0.0201111
22.0163 6.08274 3.99084
23.0409 8.1788 2
23.9729 10.1714 0.0183958
23.1494 2.85457 4
24.1163 5.14358 2
25.0236 7.31337 0.0145547
25.446 1.99012 2
26.2796 4.32875 0.00829132
27.7943 1.27781 0
32.4619 35.7266 3.72118
34.2505 35.8473 2
35.8519 35.8271 0.153629
21.3089 15.8388 2
20.3074 16.9715 3.98157
22.1014 16.6459 3.9772
25.3587 13.914 0.0210352
22.482 15.0427 0.0207725
24.0279 15.6291 0.0206544
25.3834 16.0988 2
23.2684 16.2619 2
24.21 18.4673 3.97436
27.0356 21.4783 3.99112
28.3596 15.9857 0.0211739
27.447 18.8134 2
31.5445 33.8926 3.79529
32.8055 34.1306 2
34.3364 34.2354 0.19967
33.1589 33.0093 0.339343
34.0549 31.2595 0.201836
35.1903 29.0098 0.120722
37.5935 27.34 0.0771567
35.0707 27.4279 2
32.6086 32.3474 2
33.1892 29.8596 2
32.6371 28.1802 3.93381
31.5572 31.301 3.87312
28.8814 24.4359 3.98066
29.5917 21.9655 2
30.2135 19.36 0.0180865
35.0108 25.2766 -0.00218663
32.3141 22.4694 0.00394001
31.7779 25.6712 2
29.7634 27.356 3.96662
30.4432 37.5013 3.80425
32.35 37.5068 2
34.1818 37.5081 0.158042
33.3151 49.0814 0.00995076
32.3533 46.2937 0.0881165
32.4615 39.2887 0.270608
31.5516 43.7168 0.128554
31.5208 41.1256 0.203646
31.2615 47.9201 2
30.7392 39.4331 2
30.2161 41.9632 2
30.5649 44.9051 2
29.3594 46.5198 4.00149
29.3383 39.853 3.88406
28.9509 43.1156 3.93342
29.948 49.6767 0.0127727
28.0072 48.1327 2
26.126 46.6077 3.97673
26.6003 49.9502 0.0297597
24.7845 48.4255 2
22.9914 47.0315 3.97353
23.4439 50.159 0.0350319
21.8027 48.751 2
20.1315 47.5858 3.97685
20.5686 50.287 0.0346505
19.157 49.0641 2
17.7809 48.1555 3.97603
16.2273 48.665 3.97553
16.9887 49.3102 2
15.9211 50.153 3.96988
15.4219 52.402 3.96635
16.8439 51.3884 2
18.0846 50.308 0.0320549
14.8824 54.9678 3.96562
16.4188 53.8572 2
17.9 52.7728 0.0361153
14.4665 57.7295 3.9684
15.9886 56.4637 2
17.4562 55.3269 0.0357943
14.2684 60.6868 3.97553
15.7545 59.2024 2
17.143 57.8611 0.0299546
14.3338 63.8583 3.98729
15.7895 62.1342 2
17.1387 60.5396 0.0252
14.6715 67.2507 4
16.0876 65.2992 2
17.4078 63.4655 0.0187891
16.6661 68.6801 2
17.9416 66.6172 0.00837439
18.75 69.9759 0
18.9356 15.7898 3.97914
20.2213 14.6032 2
18.9804 13.1135 3.97905
21.5881 13.6135 0.0205571
20.5304 12.0018 2
19.3434 10.238 3.9836
19.9909 7.14741 3.99055
21.1439 9.14934 2
22.191 11.0314 0.0191083
20.9142 3.86727 4
22.0152 6.0829 2
23.0414 8.17947 0.0152717
23.1494 2.85451 2
24.1172 5.14358 0.00872514
25.446 1.99014 0
30.7896 35.6079 3.79884
32.4745 35.7276 2
34.2317 35.834 0.170187
21.3084 15.8392 0.0198542
22.1019 16.6459 2
20.3082 16.9707 2
19.2547 18.4201 3.97553
21.7874 17.8629 3.97967
25.3837 16.0985 0.0208338
23.2682 16.2611 0.0226681
24.211 18.4678 2
22.2976 19.9114 3.97069
24.6179 21.348 3.98967
26.4902 23.7446 3.97015
27.0353 21.477 2
27.4453 18.8133 0.0194909
30.2704 33.0726 3.87648
31.525 33.8578 2
32.7946 34.1364 0.291037
32.6749 32.3753 0.207054
33.2043 29.8808 0.126118
35.0878 27.4685 0.0774566
32.6092 28.1596 2
31.5238 31.2684 2
30.2693 29.6083 3.95105
28.008 26.5739 3.98447
28.8768 24.451 2
29.5959 21.956 0.00485287
31.7764 25.6906 -0.00805436
29.7608 27.326 2
28.9706 37.5136 3.88827
30.4287 37.5021 2
32.3365 37.5094 0.261226
31.2638 47.9169 0.0117515
30.5771 44.8879 0.0670493
30.7716 39.4142 0.204493
30.2404 41.9468 0.135503
29.3591 46.5318 2
29.3099 39.8713 2
28.9235 43.1389 2
27.5263 44.8181 3.97663
27.1101 40.5886 3.95648
28.0089 48.1368 0.0337983
26.1225 46.6101 2
24.235 45.1555 3.97583
24.7846 48.4277 0.0271976
22.9913 47.0303 2
21.1056 45.8547 3.9784
21.8032 48.7522 0.0306223
20.1315 47.5847 2
18.4603 46.7101 3.97817
19.1554 49.0653 0.0279844
17.7823 48.1545 2
16.431 47.6945 3.9767
16.2284 48.6644 2
15.2658 48.9996 3.97302
16.9873 49.3111 0.0276088
15.9224 50.1523 2
14.5367 50.972 3.96806
13.848 53.4259 3.96611
15.4228 52.4016 2
16.8439 51.3889 0.03339
13.2632 56.1595 3.96735
14.8825 54.9676 2
16.4193 53.8572 0.0355553
12.8522 59.12 3.97339
14.4668 57.7301 2
15.9888 56.4633 0.0334991
12.6797 62.3006 3.98481
14.2684 60.6876 2
15.7542 59.2011 0.0284744
12.7746 65.6939 4
14.3323 63.8571 2
15.7897 62.1329 0.0234433
14.6714 67.2507 2
16.0888 65.2997 0.00963917
16.6661 68.6801 0
17.6735 17.1664 3.9741
18.936 15.7895 2
17.5123 14.3783 3.97818
20.221 14.6034 0.0216726
18.9806 13.1132 2
17.639 11.4574 3.98248
20.5303 12.0019 0.0198061
19.3433 10.2377 2
18.0511 8.34023 3.99035
18.75 5.0241 4
19.9897 7.148 2
21.1442 9.14969 0.0158017
20.9142 3.86727 2
22.0163 6.08274 0.00915926
23.1494 2.85457 0
29.3569 35.1468 3.88634
30.7515 35.5838 2
32.4619 35.7266 0.278817
22.1014 16.6459 0.0228019
20.3074 16.9715 0.0184256
21.7882 17.8627 2
19.2553 18.419 2
18.0041 19.9554 3.96814
20.8928 19.3937 3.9758
24.21 18.4673 0.0256428
22.298 19.9111 2
24.6178 21.3485 2
22.3965 21.7414 3.97706
24.7594 23.1886 3.9755
25.5938 25.9733 3.97486
26.4917 23.744 2
27.0356 21.4783 0.00887892
28.6504 32.3833 3.93469
30.242 33.054 2
31.5445 33.8926 0.204712
31.5572 31.301 0.12688
32.6371 28.1802 0.066189
30.2646 29.6077 2
27.2122 29.1601 4.00519
28.0021 26.5859 2
28.8814 24.4359 0.019336
29.7634 27.356 0.0333844
27.2256 37.3664 3.93727
28.9252 37.5061 2
30.4432 37.5013 0.195748
29.3594 46.5198 -0.00148925
28.9509 43.1156 0.0665839
29.3383 39.853 0.115942
27.5198 44.8413 2
27.0927 40.5995 2
25.5474 43.1305 3.98772
24.3645 39.4493 3.97679
26.126 46.6077 0.0232716
24.2285 45.1556 2
22.1231 43.9061 3.97832
22.9914 47.0315 0.0264668
21.1042 45.8537 2
19.1565 44.9406 3.9781
20.1315 47.5858 0.0231533
18.4612 46.7091 2
16.7453 46.1925 3.97727
17.7809 48.1555 0.0239701
16.432 47.6939 2
15.0098 47.6545 3.97464
16.2273 48.665 0.0244654
15.267 48.999 2
13.8364 49.5341 3.96998
15.9211 50.153 0.0301169
14.5377 50.9716 2
12.9178 51.8664 3.9671
12.1495 54.5216 3.96787
13.8477 53.4258 2
15.4219 52.402 0.0336496
11.5381 57.453 3.97191
13.2636 56.1597 2
14.8824 54.9678 0.0343822
11.1346 60.6262 3.98248
12.8525 59.1202 2
14.4665 57.7295 0.0315951
10.9835 64.0165 4
12.6781 62.2984 2
14.2684 60.6868 0.0244681
12.7745 65.694 2
14.3338 63.8583 0.0127076
14.6715 67.2507 0
16.4134 18.6651 3.96725
17.6738 17.1656 2
16.1046 15.7883 3.97662
18.9356 15.7898 0.0208622
17.5127 14.3777 2
16.0208 12.8115 3.98061
18.9804 13.1135 0.0209476
17.639 11.4569 2
16.2022 9.66326 3.98999
19.3434 10.238 0.0163976
18.0499 8.34116 2
16.6661 6.31991 4
18.75 5.02404 2
19.9909 7.14741 0.00944759
20.9142 3.86727 0
27.7534 34.7924 3.92999
29.3278 35.126 2
30.7896 35.6079 0.201161
16.7194 21.3919 3.9626
21.7874 17.8629 0.0203307
19.2547 18.4201 0.0244711
20.8933 19.393 2
18.0047 19.9542 2
19.7645 21.592 3.97318
22.2976 19.9114 0.0293071
24.6179 21.348 0.0103342
22.3964 21.7414 2
24.7598 23.1884 2
22.9434 24.6236 3.97206
24.7531 28.5534 3.97783
25.5921 25.9721 2
26.4902 23.7446 0.0298474
26.4968 31.7406 3.98473
28.6223 32.3604 2
30.2704 33.0726 0.123518
30.2693 29.6083 0.0489545
27.2338 29.1454 2
28.008 26.5739 0.0155255
25.0544 36.8601 3.98463
27.2051 37.3588 2
28.9706 37.5136 0.111731
27.5263 44.8181 0.023374
27.1101 40.5886 0.0435159
25.5318 43.1411 2
24.3487 39.4479 2
23.2603 41.8104 3.97975
22.0827 38.5183 3.97785
24.235 45.1555 0.0241687
22.1209 43.9066 2
19.9702 42.8705 3.97713
21.1056 45.8547 0.0216003
19.1562 44.9404 2
17.1109 44.3589 3.97701
18.4603 46.7101 0.0218261
16.7467 46.192 2
14.9499 46.0752 3.97509
16.431 47.6945 0.0232961
15.0109 47.654 2
13.3514 47.9972 3.97138
15.2658 48.9996 0.0269799
13.8374 49.5338 2
12.1378 50.246 3.9678
14.5367 50.972 0.031942
12.9181 51.8662 2
11.1447 52.8327 3.96791
10.3285 55.7077 3.97238
12.15 54.5215 2
13.848 53.4259 0.0338925
9.70147 58.8483 3.98056
11.5383 57.4528 2
13.2632 56.1595 0.0326516
9.30605 62.2254 4
11.133 60.6235 2
12.8522 59.12 0.0266143
10.9835 64.0165 2
12.6797 62.3006 0.0151938
12.7746 65.6939 0
15.1628 20.1983 3.96716
16.4137 18.6645 2
14.7542 17.3137 3.97057
17.6735 17.1664 0.0259047
16.1049 15.7872 2
14.4838 14.2944 3.97874
17.5123 14.3783 0.0218189
16.0209 12.8108 2
14.445 11.1145 3.98915
17.639 11.4574 0.0175174
16.201 9.66447 2
14.6715 7.74927 4
18.0511 8.34023 0.00965485
16.6661 6.31988 2
18.75 5.0241 0
25.7116 34.2806 3.99141
27.7317 34.7969 2
29.3569 35.1468 0.113659
17.9092 22.342 3.96996
15.5597 22.9323 3.96736
16.7201 21.3916 2
20.8928 19.3937 0.0241981
18.0041 19.9554 0.0318638
19.7648 21.5915 2
19.7665 24.4038 3.96986
22.3965 21.7414 0.0229432
24.7594 23.1886 0.0245034
22.9431 24.6235 2
22.1214 27.8538 3.97234
24.0536 31.223 3.97626
24.768 28.5537 2
25.5938 25.9733 0.0251361
26.4814 31.7174 2
28.6504 32.3833 0.0653057
27.2122 29.1601 -0.00519416
22.8065 36.2869 3.98206
25.0342 36.8569 2
27.2256 37.3664 0.0627268
25.5474 43.1305 0.0122781
24.3645 39.4493 0.0232091
23.2508 41.8086 2
22.0749 38.5161 2
20.9912 40.6385 3.97596
20.3888 37.8018 3.97712
22.1231 43.9061 0.0216813
19.9688 42.8707 2
17.5666 42.0788 3.97696
19.1565 44.9406 0.0219003
17.1122 44.3586 2
14.9778 44.1862 3.97584
16.7453 46.1925 0.0227283
14.9509 46.0747 2
13.0371 46.2848 3.97221
15.0098 47.6545 0.0253605
13.3523 47.9969 2
11.5126 48.5435 3.96831
13.8364 49.5341 0.0300212
12.1383 50.2457 2
10.2701 51.0777 3.96786
12.9178 51.8664 0.0328976
11.1452 52.8325 2
9.23718 53.8877 3.97194
8.38487 56.9815 3.98101
10.3289 55.7072 2
12.1495 54.5216 0.0321302
7.74927 60.3285 4
9.70027 58.845 2
11.5381 57.453 0.0280882
9.306 62.2255 2
11.1346 60.6262 0.0175207
10.9835 64.0165 0
13.9777 21.7617 3.96608
15.1635 20.1981 2
13.4588 18.9122 3.96751
16.4134 18.6651 0.0327471
14.7547 17.3126 2
13.0306 15.8889 3.97582
16.1046 15.7883 0.0233757
14.4838 14.2934 2
12.7826 12.6881 3.9875
16.0208 12.8115 0.0193928
14.4437 11.116 2
12.7746 9.30605 4
16.2022 9.66326 0.0100087
14.6715 7.74924 2
16.6661 6.31991 0
23.3884 33.8227 3.98341
25.6899 34.271 2
27.7534 34.7924 0.0700103
17.7064 24.0617 3.97077
17.9096 22.3418 2
14.3743 24.4646 3.9696
15.5604 22.9322 2
16.7194 21.3919 0.0373965
19.2111 27.2301 3.97142
19.7645 21.592 0.0268235
19.7648 24.4035 2
21.4339 30.6945 3.97468
22.9434 24.6236 0.027938
22.1307 27.8548 2
24.0371 31.2204 2
24.7531 28.5534 0.0221669
26.4968 31.7406 0.0152675
20.5111 35.9478 3.97727
22.8036 36.2808 2
25.0544 36.8601 0.0153702
23.2603 41.8104 0.0202519
22.0827 38.5183 0.0221487
20.9972 40.6383 2
20.3931 37.8015 2
18.3073 39.007 3.97743
19.9702 42.8705 0.0228667
17.5682 42.0783 2
14.9596 41.907 3.97696
17.1109 44.3589 0.0229946
14.9793 44.1858 2
12.794 44.3823 3.97277
14.9499 46.0752 0.0249051
13.038 46.2845 2
11.0187 46.7278 3.96876
13.3514 47.9972 0.0286161
11.5132 48.5433 2
9.53316 49.2382 3.96757
12.1378 50.246 0.0322018
10.2705 51.0774 2
8.27004 52.0015 3.97156
11.1447 52.8327 0.0320872
9.23762 53.887 2
7.19378 55.0323 3.9819
6.31991 58.3339 4
8.38399 56.9781 2
10.3285 55.7077 0.0276175
7.74924 60.3285 2
9.70147 58.8483 0.0194405
9.30605 62.2254 0
13.2748 25.3734 3.9718
12.8546 23.2898 3.96693
13.9779 21.7615 2
12.2449 20.5583 3.96807
15.1628 20.1983 0.0328425
13.4597 18.9118 2
11.6626 17.571 3.97268
14.7542 17.3137 0.0294297
13.0309 15.888 2
11.2205 14.3737 3.98457
14.4838 14.2944 0.0212592
12.7811 12.69 2
10.9835 10.9835 4
14.445 11.1145 0.0108475
12.7745 9.306 2
14.6715 7.74927 0
20.8679 33.4243 3.97577
23.3926 33.8332 2
25.7116 34.2806 0.0085883
16.0245 26.4211 3.97178
17.7065 24.0616 2
17.9092 22.342 0.0300404
14.3742 24.4646 2
15.5597 22.9323 0.0326386
18.5817 30.1986 3.97488
19.2111 27.2303 2
19.7665 24.4038 0.0301407
21.4389 30.6951 2
22.1214 27.8538 0.0276646
24.0536 31.223 0.0237449
17.9193 35.981 3.97805
20.5091 35.9498 2
22.8065 36.2869 0.0179445
20.9912 40.6385 0.0240379
20.3888 37.8018 0.0228826
18.308 39.0069 2
14.4655 39.1722 3.97758
17.5666 42.0788 0.0230385
14.9612 41.9066 2
12.4968 42.2693 3.97279
14.9778 44.1862 0.024163
12.7949 44.382 2
10.6041 44.797 3.9693
13.0371 46.2848 0.0277932
11.0192 46.7276 2
8.91531 47.3177 3.96738
11.5126 48.5435 0.0316924
9.53337 49.238 2
7.43698 50.035 3.97098
10.2701 51.0777 0.0321401
8.27039 52.0008 2
6.13443 53.0074 3.98227
9.23718 53.8877 0.0280646
7.19324 55.0294 2
5.0241 56.25 4
6.31988 58.3339 2
8.38487 56.9815 0.0189898
7.74927 60.3285 0
13.5384 26.8272 3.97127
11.9602 24.7948 3.96865
13.2741 25.3734 2
11.1469 22.2395 3.96797
12.8546 23.2898 2
13.9777 21.7617 0.033924
12.2459 20.5582 2
10.3938 19.3243 3.97205
13.4588 18.9122 0.0324907
11.6634 17.5708 2
9.76188 16.1581 3.98136
13.0306 15.8889 0.0241831
11.2188 14.3763 2
9.30607 12.7746 4
12.7826 12.6881 0.0125037
10.9835 10.9835 2
12.7746 9.30605 0
18.0933 33.1335 3.97716
20.8726 33.4246 2
23.3884 33.8227 0.0165921
15.6455 29.6559 3.97393
16.0243 26.4213 2
17.7064 24.0617 0.0292311
14.3743 24.4646 0.0303977
18.5792 30.1987 2
19.2111 27.2301 0.0285848
21.4339 30.6945 0.0253242
15.0842 36.0272 3.97775
17.9222 35.9812 2
20.5111 35.9478 0.0227273
12.7149 37.8294 3.97747
18.3073 39.007 0.022569
14.4665 39.1721 2
12.0079 40.1364 3.97371
14.9596 41.907 0.0230422
12.4975 42.2691 2
10.2126 42.7733 3.96961
12.794 44.3823 0.0272265
10.6044 44.7968 2
8.39335 45.3198 3.96718
11.0187 46.7278 0.0312381
8.91541 47.3175 2
6.72829 48.0003 3.97052
9.53316 49.2382 0.0324262
7.43715 50.0345 2
5.21127 50.9108 3.98201
8.27004 52.0015 0.028441
6.13416 53.0055 2
3.86727 54.0858 4
7.19378 55.0323 0.0181033
5.02404 56.25 2
6.31991 58.3339 0
13.0119 29.0453 3.9709
11.4012 26.4946 3.96879
13.5377 26.8272 2
10.2049 23.9707 3.96806
11.9608 24.7949 2
13.2748 25.3734 0.0282024
9.24591 21.141 3.97182
11.1478 22.2395 2
12.8546 23.2898 0.0330688
12.2449 20.5583 0.0319299
10.3947 19.3246 2
8.41783 18.0295 3.9806
11.6626 17.571 0.027324
9.76061 16.1616 2
7.74928 14.6715 4
11.2205 14.3737 0.0154343
9.30602 12.7745 2
10.9835 10.9835 0
14.6432 32.876 3.97607
18.0926 33.1339 2
20.8679 33.4243 0.02423
15.6459 29.6563 2
16.0245 26.4211 0.0282222
18.5817 30.1986 0.0251192
13.0117 36.2126 3.97621
15.0856 36.0277 2
17.9193 35.981 0.0219489
12.7158 37.8293 2
11.3495 38.3089 3.97444
14.4655 39.1722 0.0224239
12.0093 40.1362 2
9.8002 40.7513 3.97028
12.4968 42.2693 0.027211
10.2133 42.7731 2
7.94238 43.2689 3.96744
10.6041 44.797 0.0307018
8.39341 45.3196 2
6.13452 45.9054 3.97007
8.91531 47.3177 0.0326229
6.72836 47.9998 2
4.42283 48.7515 3.98134
7.43698 50.035 0.0290214
5.21115 50.9098 2
2.85457 51.8506 4
6.13443 53.0074 0.0177263
3.86727 54.0858 2
5.0241 56.25 0
12.1585 31.2666 3.97215
10.8232 28.4222 3.96896
13.0128 29.0455 2
9.41932 25.8 3.96797
11.4013 26.4947 2
13.5384 26.8272 0.0287318
8.23264 23.0245 3.97151
10.2055 23.9707 2
11.9602 24.7948 0.0313505
7.19984 19.9792 3.98129
9.24679 21.1415 2
11.1469 22.2395 0.0320304
10.3938 19.3243 0.0279476
8.41714 18.0331 2
6.31992 16.6661 4
9.76188 16.1581 0.0186404
7.74926 14.6714 2
9.30607 12.7746 0
12.1842 34.3008 3.9759
14.6437 32.8763 2
18.0933 33.1335 0.0228354
15.6455 29.6559 0.026073
10.9099 36.6126 3.97372
13.0123 36.2127 2
15.0842 36.0272 0.0222487
12.7149 37.8294 0.0225304
11.3505 38.3088 2
9.39096 38.8222 3.97056
12.0079 40.1364 0.0262921
9.80077 40.7512 2
7.55344 41.2107 3.96783
10.2126 42.7733 0.0303889
7.94215 43.2687 2
5.64635 43.7683 3.97002
8.39335 45.3198 0.0328214
6.13462 45.905 2
3.76846 46.5371 3.98078
6.72829 48.0003 0.0294819
4.42286 48.7511 2
1.99014 49.554 4
5.21127 50.9108 0.0179863
2.85451 51.8506 2
3.86727 54.0858 0
10.9919 32.9256 3.97399
10.1424 30.3885 3.9694
12.1594 31.2668 2
8.728 27.7334 3.96763
10.8236 28.4223 2
13.0119 29.0453 0.0290982
7.35811 24.9832 3.97098
9.41959 25.8001 2
11.4012 26.4946 0.031206
6.11673 22.0024 3.98211
8.23325 23.025 2
10.2049 23.9707 0.0319382
5.02411 18.75 4
7.19953 19.9821 2
9.24591 21.141 0.0281768
8.41783 18.0295 0.0193952
6.3199 16.6661 2
7.74928 14.6715 0
10.5121 35.0033 3.97336
12.1852 34.3009 2
14.6432 32.876 0.0239251
9.05654 36.9853 3.97097
10.9113 36.6126 2
13.0117 36.2126 0.0237863
11.3495 38.3089 0.025563
9.39191 38.8221 2
7.23403 39.182 3.96805
9.8002 40.7513 0.0297227
7.55362 41.2105 2
5.26156 41.614 3.96984
7.94238 43.2689 0.0325643
5.6464 43.768 2
3.24617 44.2819 3.98075
6.13452 45.9054 0.0299318
3.7686 46.5368 2
1.27781 47.2057 4
4.42283 48.7515 0.0186557
1.99012 49.554 2
2.85457 51.8506 0
10.1476 33.8857 3.97386
9.42684 32.159 3.97014
10.9927 32.9257 2
8.0771 29.6968 3.96774
10.1429 30.3886 2
12.1585 31.2666 0.0278475
6.60188 27.0089 3.97052
8.72791 27.7335 2
10.8232 28.4222 0.0310352
5.17211 24.0951 3.98207
7.35841 24.9835 2
9.41932 25.8 0.0320333
3.86728 20.9142 4
6.11663 22.0042 2
8.23264 23.0245 0.028488
5.02406 18.75 2
7.19984 19.9792 0.0187057
6.31992 16.6661 0
8.87837 35.2812 3.97125
10.513 35.0033 2
12.1842 34.3008 0.0240974
7.0168 37.2062 3.96801
9.0571 36.9852 2
10.9099 36.6126 0.0262822
9.39096 38.8222 0.029438
7.2344 39.1819 2
4.98926 39.4673 3.9699
7.55344 41.2107 0.0321731
5.26188 41.6137 2
2.85665 42.0022 3.98065
5.64635 43.7683 0.0299802
3.24623 44.2818 2
0.720592 44.8159 4
3.76846 46.5371 0.0192201
1.27778 47.2057 2
1.99014 49.554 0
8.91656 33.7007 3.97106
10.1485 33.8857 2
7.51399 31.6101 3.96797
9.42745 32.1591 2
10.9919 32.9256 0.026009
5.94687 29.0699 3.97051
8.07683 29.6969 2
10.1424 30.3885 0.0306015
4.35986 26.2475 3.98143
6.60197 27.0092 2
8.728 27.7334 0.032372
2.85458 23.1494 4
5.17211 24.0958 2
7.35811 24.9832 0.0290188
3.86728 20.9142 2
6.11673 22.0024 0.0178881
5.02411 18.75 0
6.96653 35.3065 3.9683
8.87918 35.2811 2
10.5121 35.0033 0.0266359
4.83936 37.3397 3.97036
7.0169 37.2061 2
9.05654 36.9853 0.0290342
7.23403 39.182 0.0319542
4.9896 39.4672 2
2.60473 39.7139 3.98049
5.26156 41.614 0.0301559
2.85693 42.0023 2
0.320823 42.3947 4
3.24617 44.2819 0.0192461
0.720551 44.8159 2
1.27781 47.2057 0
7.12662 33.4615 3.96821
8.91705 33.7007 2
10.1476 33.8857 0.0261404
5.41764 31.1337 3.97064
7.5139 31.6102 2
9.42684 32.159 0.0298575
3.68153 28.4434 3.98103
5.9469 29.0701 2
8.0771 29.6968 0.0322639
1.99015 25.446 4
4.35991 26.2477 2
6.60188 27.0089 0.0294814
2.85453 23.1494 2
5.17211 24.0951 0.0179311
3.86728 20.9142 0
4.8534 35.2515 3.97087
6.9669 35.3065 2
8.87837 35.2812 0.02875
2.49614 37.4285 3.98109
4.83939 37.3398 2
7.0168 37.2062 0.031989
4.98926 39.4673 0.030097
2.60508 39.7142 2
0.080333 39.9526 4
2.85665 42.0022 0.0193495
0.320817 42.3947 2
0.720592 44.8159 0
5.04687 33.1902 3.97082
7.12674 33.4616 2
8.91656 33.7007 0.0289388
3.14581 30.6661 3.98083
5.41772 31.134 2
7.51399 31.6101 0.0320266
1.27793 27.7943 4
3.68166 28.4435 2
5.94687 29.0699 0.0294945
1.99013 25.446 2
4.35986 26.2475 0.0185669
2.85458 23.1494 0
2.54817 35.159 3.98119
4.85378 35.2518 2
6.96653 35.3065 0.0317027
0 37.5 4
2.49619 37.4289 2
4.83936 37.3397 0.0296372
2.60473 39.7139 0.0195133
0.0802903 39.9526 2
0.320823 42.3947 0
2.7658 32.9057 3.98124
5.04698 33.1905 2
7.12662 33.4615 0.0317946
0.721173 30.1842 4
3.14598 30.6665 2
5.41764 31.1337 0.0293621
1.27779 27.7943 2
3.68153 28.4434 0.0189673
1.99015 25.446 0
0.0806499 35.0474 4
2.54858 35.1594 2
4.8534 35.2515 0.0291278
0 37.5 2
2.49614 37.4285 0.0189146
0.080333 39.9526 0
0.32156 32.6054 4
2.7659 32.9062 2
5.04687 33.1902 0.0291813
0.72056 30.1841 2
3.14581 30.6661 0.0191676
1.27793 27.7943 0
0.0802889 35.0474 2
2.54817 35.159 0.0188109
0 37.5 0
0.320817 32.6053 2
2.7658 32.9057 0.0187629
0.721173 30.1842 0
0.0806499 35.0474 0
0.32156 32.6054 0
CELLS 1910 17190
8 18 6 25 56 2 0 5 16
8 57 23 6 18 17 4 0 2
8 78 36 9 29 31 11 1 7
8 31 11 1 7 79 37 10 30
8 110 57 18 50 48 17 2 14
8 50 18 56 111 14 2 16 49
8 116 62 22 55 52 20 3 15
8 56 25 67 118 16 5 24 53
8 119 63 23 57 54 21 4 17
8 55 22 63 119 15 3 21 54
8 58 26 68 121 18 6 25 56
8 122 65 26 58 57 23 6 18
8 73 31 7 27 142 79 30 71
8 143 78 29 72 73 31 7 27
8 83 147 76 34 32 74 28 8
8 84 148 78 36 33 75 29 9
8 76 34 8 28 148 84 33 75
8 37 79 150 86 10 30 77 35
8 151 87 36 78 80 38 11 31
8 80 38 11 31 152 88 37 79
8 175 100 42 94 96 44 12 40
8 44 96 176 101 12 40 95 43
8 101 176 98 46 43 95 41 13
8 46 98 178 103 13 41 97 45
8 178 103 45 97 147 83 32 74
8 189 116 55 109 106 52 15 47
8 111 56 118 191 49 16 53 107
8 192 119 57 110 108 54 17 48
8 109 55 119 192 47 15 54 108
8 194 122 58 112 110 57 18 50
8 112 58 121 195 50 18 56 111
8 115 61 19 51 197 124 59 113
8 115 61 125 198 51 19 60 114
8 198 125 62 116 114 60 20 52
8 200 127 64 120 116 62 22 55
8 118 67 132 202 53 24 66 117
8 121 68 133 203 56 25 67 118
8 120 64 128 204 55 22 63 119
8 204 128 65 122 119 63 23 57
8 206 134 68 121 123 69 26 58
8 123 69 26 58 207 131 65 122
8 226 147 74 138 140 76 28 70
8 229 148 75 139 143 78 29 72
8 140 76 28 70 229 148 75 139
8 142 79 30 71 231 150 77 141
8 144 80 31 73 232 152 79 142
8 233 151 78 143 144 80 31 73
8 150 86 35 77 235 154 81 145
8 235 154 81 145 146 82 39 91
8 146 82 39 91 236 155 90 165
8 238 157 83 147 149 85 34 76
8 239 158 84 148 151 87 36 78
8 149 85 34 76 239 158 84 148
8 152 88 37 79 241 160 86 150
8 242 161 87 151 153 89 38 80
8 153 89 38 80 243 162 88 152
8 171 98 41 92 265 178 97 169
8 265 178 97 169 226 147 74 138
8 172 96 40 93 266 176 95 170
8 266 176 95 170 171 98 41 92
8 269 175 94 173 172 96 40 93
8 271 180 99 174 175 100 42 94
8 197 124 59 113 271 180 99 174
8 272 181 100 175 177 102 44 96
8 273 182 101 176 179 104 46 98
8 177 102 44 96 273 182 101 176
8 179 104 46 98 275 184 103 178
8 275 184 103 178 238 157 83 147
8 188 115 51 105 283 197 113 186
8 188 115 198 284 105 51 114 187
8 284 198 116 189 187 114 52 106
8 286 200 120 193 189 116 55 109
8 191 118 202 288 107 53 117 190
8 195 121 203 289 111 56 118 191
8 193 120 204 290 109 55 119 192
8 290 204 122 194 192 119 57 110
8 196 123 58 112 292 207 122 194
8 293 206 121 195 196 123 58 112
8 199 126 61 115 297 211 124 197
8 298 212 127 200 198 125 62 116
8 199 126 212 298 115 61 125 198
8 205 129 64 120 300 214 127 200
8 301 217 130 201 202 132 66 117
8 209 136 168 264 301 217 130 201
8 302 219 132 202 203 133 67 118
8 303 220 133 203 206 134 68 121
8 205 129 215 304 120 64 128 204
8 304 215 131 207 204 128 65 122
8 306 221 134 206 208 135 69 123
8 208 135 69 123 307 218 131 207
8 210 137 167 263 309 223 136 209
8 328 238 147 226 230 149 76 140
8 228 146 91 166 329 236 165 260
8 231 150 77 141 330 235 145 227
8 330 235 145 227 228 146 91 166
8 332 239 148 229 233 151 78 143
8 230 149 76 140 332 239 148 229
8 232 152 79 142 334 241 150 231
8 234 153 80 144 335 243 152 232
8 336 242 151 233 234 153 80 144
8 236 155 90 165 338 245 164 259
8 241 160 86 150 339 246 154 235
8 339 246 154 235 237 156 82 146
8 237 156 82 146 340 247 155 236
8 342 249 157 238 240 159 85 149
8 343 250 158 239 242 161 87 151
8 240 159 85 149 343 250 158 239
8 243 162 88 152 345 252 160 241
8 244 163 253 346 153 89 161 242
8 244 163 89 153 347 254 162 243
8 311 224 261 371 210 137 167 263
8 263 167 262 372 209 136 168 264
8 267 179 98 171 375 275 178 265
8 375 275 178 265 328 238 147 226
8 376 273 176 266 267 179 98 171
8 268 177 96 172 376 273 176 266
8 379 272 175 269 268 177 96 172
8 380 271 174 270 269 175 94 173
8 283 197 113 186 380 271 174 270
8 381 277 180 271 272 181 100 175
8 297 211 124 197 381 277 180 271
8 382 278 181 272 274 183 102 177
8 274 183 102 177 383 279 182 273
8 383 279 182 273 276 185 104 179
8 385 281 184 275 342 249 157 238
8 276 185 104 179 385 281 184 275
8 285 199 115 188 393 297 197 283
8 394 298 200 286 284 198 116 189
8 285 199 298 394 188 115 198 284
8 291 205 120 193 396 300 200 286
8 397 301 201 287 288 202 117 190
8 295 209 264 374 397 301 201 287
8 398 302 202 288 289 203 118 191
8 399 303 203 289 293 206 121 195
8 291 205 304 400 193 120 204 290
8 400 304 207 292 290 204 122 194
8 294 208 123 196 402 307 207 292
8 403 306 206 293 294 208 123 196
8 296 210 263 373 405 309 209 295
8 408 312 213 299 297 211 126 199
8 299 213 313 409 199 126 212 298
8 409 313 214 300 298 212 127 200
8 305 216 129 205 411 315 214 300
8 412 318 217 301 302 219 132 202
8 309 223 136 209 412 318 217 301
8 413 320 219 302 303 220 133 203
8 306 221 321 414 206 134 220 303
8 307 218 131 207 415 316 215 304
8 305 216 316 415 205 129 215 304
8 417 322 221 306 308 222 135 208
8 308 222 135 208 418 319 218 307
8 310 225 137 210 420 325 223 309
8 423 326 224 311 310 225 137 210
8 329 236 165 260 441 338 259 368
8 442 342 238 328 333 240 149 230
8 331 237 146 228 443 340 236 329
8 334 241 150 231 444 339 235 330
8 444 339 235 330 331 237 146 228
8 446 343 239 332 336 242 151 233
8 333 240 149 230 446 343 239 332
8 335 243 152 232 448 345 241 334
8 337 244 153 234 449 347 243 335
8 337 244 346 450 234 153 242 336
8 338 245 164 259 452 349 258 367
8 340 247 155 236 453 350 245 338
8 345 252 160 241 454 351 246 339
8 454 351 246 339 341 248 156 237
8 341 248 156 237 455 352 247 340
8 240 159 251 344 342 249 354 457
8 242 161 253 346 343 250 355 458
8 343 250 355 458 240 159 251 344
8 347 254 162 243 460 357 252 345
8 348 255 358 461 244 163 253 346
8 348 255 163 244 462 359 254 347
8 473 360 257 365 363 256 364 482
8 452 349 258 367 365 257 366 485
8 422 324 369 488 311 224 261 371
8 371 261 370 490 263 167 262 372
8 407 311 371 491 296 210 263 373
8 373 263 372 492 295 209 264 374
8 493 385 275 375 442 342 238 328
8 377 276 179 267 493 385 275 375
8 378 274 177 268 494 383 273 376
8 494 383 273 376 377 276 179 267
8 497 382 272 379 378 274 177 268
8 498 381 271 380 379 272 175 269
8 393 297 197 283 498 381 271 380
8 499 387 277 381 382 278 181 272
8 408 312 211 297 499 387 277 381
8 500 388 278 382 384 280 183 274
8 501 389 279 383 386 282 185 276
8 384 280 183 274 501 389 279 383
8 386 282 185 276 503 391 281 385
8 503 391 281 385 457 354 249 342
8 511 408 299 395 393 297 199 285
8 395 299 409 512 285 199 298 394
8 512 409 300 396 394 298 200 286
8 401 305 205 291 514 411 300 396
8 515 412 301 397 398 302 202 288
8 405 309 209 295 515 412 301 397
8 516 413 302 398 399 303 203 289
8 403 306 414 517 293 206 303 399
8 402 307 207 292 518 415 304 400
8 401 305 415 518 291 205 304 400
8 404 308 208 294 520 418 307 402
8 521 417 306 403 404 308 208 294
8 406 310 210 296 523 420 309 405
8 526 423 311 407 406 310 210 296
8 410 314 213 299 527 424 312 408
8 528 425 315 411 409 313 214 300
8 410 314 425 528 299 213 313 409
8 416 317 216 305 530 427 315 411
8 531 430 318 412 413 320 219 302
8 420 325 223 309 531 430 318 412
8 532 432 320 413 414 321 220 303
8 417 322 433 533 306 221 321 414
8 418 319 218 307 534 428 316 415
8 416 317 428 534 305 216 316 415
8 419 323 434 536 308 222 322 417
8 419 323 222 308 537 431 319 418
8 421 327 225 310 539 438 325 420
8 421 327 439 541 310 225 326 423
8 543 437 324 422 423 326 224 311
8 441 338 259 368 559 452 367 486
8 443 340 236 329 560 453 338 441
8 333 240 344 447 442 342 457 561
8 445 341 237 331 562 455 340 443
8 448 345 241 334 563 454 339 444
8 563 454 339 444 445 341 237 331
8 336 242 346 450 446 343 458 565
8 446 343 458 565 333 240 344 447
8 449 347 243 335 567 460 345 448
8 451 348 244 337 568 462 347 449
8 451 348 461 569 337 244 346 450
8 570 463 349 452 473 360 257 365
8 453 350 245 338 570 463 349 452
8 455 352 247 340 571 464 350 453
8 460 357 252 345 572 465 351 454
8 572 465 351 454 456 353 248 341
8 456 353 248 341 573 466 352 455
8 344 251 356 459 457 354 468 575
8 458 355 469 576 344 251 356 459
8 346 253 358 461 458 355 469 576
8 462 359 254 347 578 471 357 460
8 348 255 359 462 461 358 472 579
8 591 474 360 473 475 361 256 363
8 475 361 256 363 594 477 362 479
8 363 256 364 482 479 362 480 603
8 590 473 365 484 481 363 482 605
8 482 364 257 365 606 483 366 485
8 559 452 367 486 484 365 485 607
8 542 436 487 609 422 324 369 488
8 525 422 488 611 407 311 371 491
8 488 369 489 612 371 261 370 490
8 491 371 490 613 373 263 372 492
8 495 386 276 377 614 503 385 493
8 614 503 385 493 561 457 342 442
8 615 501 383 494 495 386 276 377
8 496 384 274 378 615 501 383 494
8 618 500 382 497 496 384 274 378
8 619 499 381 498 497 382 272 379
8 511 408 297 393 619 499 381 498
8 620 505 387 499 500 388 278 382
8 527 424 312 408 620 505 387 499
8 502 390 506 621 384 280 388 500
8 622 507 389 501 504 392 282 386
8 502 390 280 384 622 507 389 501
8 504 392 282 386 624 509 391 503
8 624 509 391 503 575 468 354 457
8 513 410 299 395 630 527 408 511
8 631 528 411 514 512 409 300 396
8 513 410 528 631 395 299 409 512
8 519 416 305 401 633 530 411 514
8 634 531 412 515 516 413 302 398
8 523 420 309 405 634 531 412 515
8 635 532 413 516 517 414 303 399
8 521 417 533 636 403 306 414 517
8 520 418 307 402 637 534 415 518
8 519 416 534 637 401 305 415 518
8 522 419 308 404 639 537 418 520
8 522 419 536 640 404 308 417 521
8 524 421 310 406 642 539 420 523
8 524 421 541 644 406 310 423 526
8 646 543 422 525 526 423 311 407
8 529 426 314 410 647 544 424 527
8 528 425 545 648 411 315 427 530
8 529 426 545 648 410 314 425 528
8 535 429 317 416 649 546 427 530
8 650 548 430 531 532 432 320 413
8 539 438 325 420 650 548 430 531
8 533 433 550 651 414 321 432 532
8 536 434 551 652 417 322 433 533
8 537 431 319 418 653 547 428 534
8 535 429 547 653 416 317 428 534
8 538 435 552 654 419 323 434 536
8 538 435 323 419 655 549 431 537
8 540 440 327 421 657 556 438 539
8 540 440 557 659 421 327 439 541
8 541 439 555 660 423 326 437 543
8 661 554 436 542 543 437 324 422
8 676 570 452 559 590 473 365 484
8 560 453 338 441 676 570 452 559
8 562 455 340 443 677 571 453 560
8 447 344 459 566 561 457 575 678
8 564 456 341 445 679 573 455 562
8 567 460 345 448 680 572 454 563
8 680 572 454 563 564 456 341 445
8 565 458 576 682 447 344 459 566
8 450 346 461 569 565 458 576 682
8 568 462 347 449 684 578 460 567
8 451 348 462 568 569 461 579 685
8 686 580 463 570 591 474 360 473
8 571 464 350 453 686 580 463 570
8 573 466 352 455 687 581 464 571
8 572 465 582 688 460 357 471 578
8 574 467 582 688 456 353 465 572
8 574 467 353 456 689 583 466 573
8 459 356 470 577 575 468 585 691
8 576 469 586 692 459 356 470 577
8 461 358 472 579 576 469 586 692
8 462 359 471 578 579 472 588 694
8 704 591 473 590 593 475 363 481
8 595 476 592 705 475 361 474 591
8 593 475 363 481 707 594 479 602
8 594 477 362 479 709 598 478 600
8 595 476 361 475 711 597 477 594
8 479 362 480 603 600 478 601 720
8 481 363 482 605 602 479 603 722
8 603 480 364 482 723 604 483 606
8 605 482 365 484 724 606 485 607
8 656 553 608 726 542 436 487 609
8 645 542 609 728 525 422 488 611
8 609 487 610 729 488 369 489 612
8 611 488 612 730 491 371 490 613
8 616 504 386 495 731 624 503 614
8 731 624 503 614 678 575 457 561
8 732 622 501 615 616 504 386 495
8 617 502 384 496 732 622 501 615
8 617 502 621 735 496 384 500 618
8 736 620 499 619 618 500 382 497
8 630 527 408 511 736 620 499 619
8 621 506 626 737 500 388 505 620
8 647 544 424 527 737 626 505 620
8 623 508 627 738 502 390 506 621
8 623 508 390 502 739 628 507 622
8 625 510 628 739 504 392 507 622
8 740 629 509 624 691 585 468 575
8 625 510 392 504 740 629 509 624
8 632 529 410 513 744 647 527 630
8 631 528 648 745 514 411 530 633
8 632 529 648 745 513 410 528 631
8 638 535 416 519 746 649 530 633
8 747 650 531 634 635 532 413 516
8 642 539 420 523 747 650 531 634
8 636 533 651 748 517 414 532 635
8 640 536 652 749 521 417 533 636
8 639 537 418 520 750 653 534 637
8 638 535 653 750 519 416 534 637
8 641 538 419 522 751 655 537 639
8 641 538 654 752 522 419 536 640
8 643 540 421 524 753 657 539 642
8 643 540 659 755 524 421 541 644
8 644 541 660 757 526 423 543 646
8 758 661 542 645 646 543 422 525
8 529 426 544 647 648 545 662 759
8 530 427 545 648 649 546 663 760
8 535 429 546 649 653 547 664 761
8 762 666 548 650 651 550 432 532
8 657 556 438 539 762 666 548 650
8 652 551 668 763 533 433 550 651
8 654 552 669 764 536 434 551 652
8 655 549 431 537 765 665 547 653
8 538 435 549 655 654 552 667 766
8 661 554 671 768 542 436 553 656
8 658 558 440 540 769 674 556 657
8 658 558 675 770 540 440 557 659
8 659 557 673 771 541 439 555 660
8 660 555 672 772 543 437 554 661
8 788 686 570 676 704 591 473 590
8 677 571 453 560 788 686 570 676
8 679 573 455 562 789 687 571 677
8 566 459 577 683 678 575 691 790
8 681 574 456 564 791 689 573 679
8 680 572 688 792 567 460 578 684
8 681 574 688 792 564 456 572 680
8 682 576 692 794 566 459 577 683
8 569 461 579 685 682 576 692 794
8 568 462 578 684 685 579 694 796
8 687 581 464 571 798 696 580 686
8 798 696 580 686 705 592 474 591
8 689 583 466 573 799 697 581 687
8 688 582 698 800 578 471 588 694
8 690 584 698 800 574 467 582 688
8 690 584 467 574 801 699 583 689
8 693 587 701 803 577 470 585 691
8 693 587 470 577 804 702 586 692
8 695 589 702 804 579 472 586 692
8 695 589 472 579 805 703 588 694
8 708 595 705 813 593 475 591 704
8 710 596 706 814 595 476 592 705
8 707 594 479 602 816 709 600 719
8 708 595 475 593 817 711 594 707
8 709 598 478 600 819 715 599 717
8 711 597 477 594 820 714 598 709
8 710 596 476 595 822 713 597 711
8 600 478 601 720 717 599 718 832
8 602 479 603 722 719 600 720 834
8 720 601 480 603 835 721 604 723
8 722 603 482 605 836 723 606 724
8 767 670 725 839 656 553 608 726
8 756 656 726 841 645 542 609 728
8 726 608 727 842 609 487 610 729
8 728 609 729 843 611 488 612 730
8 844 740 624 731 790 691 575 678
8 733 625 504 616 844 740 624 731
8 734 623 502 617 845 739 622 732
8 733 625 739 845 616 504 622 732
8 734 623 738 846 617 502 621 735
8 735 621 737 847 618 500 620 736
8 744 647 527 630 847 737 620 736
8 621 506 627 738 737 626 741 848
8 647 544 626 737 759 662 741 848
8 623 508 628 739 738 627 742 849
8 740 629 585 691 850 743 700 802
8 625 510 629 740 739 628 743 850
8 632 529 647 744 745 648 759 854
8 633 530 648 745 746 649 760 855
8 638 535 649 746 750 653 761 856
8 857 762 650 747 748 651 532 635
8 753 657 539 642 857 762 650 747
8 749 652 763 858 636 533 651 748
8 752 654 764 859 640 536 652 749
8 751 655 537 639 860 765 653 750
8 641 538 655 751 752 654 766 861
8 754 658 540 643 862 769 657 753
8 754 658 770 863 643 540 659 755
8 755 659 771 864 644 541 660 757
8 758 661 768 866 645 542 656 756
8 757 660 772 867 646 543 661 758
8 759 662 773 868 648 545 663 760
8 649 546 663 760 761 664 774 871
8 765 665 547 653 872 775 664 761
8 873 777 666 762 763 668 550 651
8 769 674 556 657 873 777 666 762
8 764 669 779 874 652 551 668 763
8 654 552 667 766 764 669 778 875
8 655 549 665 765 766 667 776 876
8 768 671 782 877 656 553 670 767
8 772 672 783 878 661 554 671 768
8 658 558 674 769 770 675 786 879
8 659 557 675 770 771 673 785 881
8 882 784 672 772 771 673 555 660
8 789 687 571 677 897 798 686 788
8 897 798 686 788 813 705 591 704
8 791 689 573 679 898 799 687 789
8 795 693 803 900 683 577 691 790
8 793 690 574 681 901 801 689 791
8 792 688 800 902 684 578 694 796
8 793 690 800 902 681 574 688 792
8 795 693 577 683 903 804 692 794
8 797 695 804 903 685 579 692 794
8 797 695 579 685 904 805 694 796
8 905 806 697 799 798 696 581 687
8 814 706 806 905 705 592 696 798
8 689 583 697 799 801 699 808 907
8 800 698 809 908 694 588 703 805
8 690 584 699 801 800 698 809 908
8 803 701 810 909 691 585 700 802
8 693 587 702 804 803 701 811 910
8 695 589 703 805 804 702 812 911
8 818 710 814 919 708 595 705 813
8 821 712 815 920 710 596 706 814
8 816 709 600 719 922 819 717 831
8 817 711 594 707 923 820 709 816
8 818 710 595 708 924 822 711 817
8 819 715 599 717 926 827 716 829
8 820 714 598 709 927 826 715 819
8 929 825 713 822 820 714 597 711
8 821 712 596 710 930 824 713 822
8 717 599 718 832 829 716 830 942
8 719 600 720 834 831 717 832 944
8 832 718 601 720 945 833 721 835
8 834 720 603 722 946 835 723 836
8 869 780 838 950 767 670 725 839
8 865 767 839 952 756 656 726 841
8 839 725 840 953 726 608 727 842
8 841 726 842 954 728 609 729 843
8 844 740 691 790 955 850 802 899
8 733 625 740 844 845 739 850 955
8 734 623 739 845 846 738 849 956
8 735 621 738 846 847 737 848 957
8 744 647 737 847 854 759 848 957
8 738 627 742 849 848 741 851 958
8 848 741 851 958 759 662 773 868
8 850 743 700 802 959 852 807 906
8 849 742 628 739 959 852 743 850
8 854 759 868 965 745 648 760 855
8 746 649 760 855 856 761 871 966
8 860 765 653 750 967 872 761 856
8 968 873 762 857 858 763 651 748
8 862 769 657 753 968 873 762 857
8 859 764 874 969 749 652 763 858
8 752 654 766 861 859 764 875 970
8 751 655 765 860 861 766 876 971
8 754 658 769 862 863 770 879 972
8 755 659 770 863 864 771 881 974
8 976 882 772 867 864 771 660 757
8 866 768 877 977 756 656 767 865
8 867 772 878 978 758 661 768 866
8 760 663 773 868 871 774 883 980
8 870 781 837 948 982 890 780 869
8 982 890 780 869 877 782 670 767
8 761 664 774 871 872 775 884 984
8 876 776 665 765 985 885 775 872
8 873 777 668 763 986 887 779 874
8 769 674 777 873 879 786 887 986
8 764 669 778 875 874 779 888 987
8 766 667 776 876 875 778 886 988
8 878 783 892 989 768 671 782 877
8 878 783 672 772 990 893 784 882
8 880 787 675 770 991 896 786 879
8 880 787 895 992 770 675 785 881
8 881 785 894 993 771 673 784 882
8 1006 905 799 898 897 798 687 789
8 919 814 905 1006 813 705 798 897
8 791 689 799 898 901 801 907 1007
8 900 803 909 1009 790 691 802 899
8 795 693 804 903 900 803 910 1010
8 902 800 908 1011 796 694 805 904
8 793 690 801 901 902 800 908 1011
8 797 695 805 904 903 804 911 1012
8 799 697 806 905 907 808 912 1013
8 920 815 912 1013 814 706 806 905
8 802 700 810 909 906 807 913 1014
8 801 699 808 907 908 809 914 1015
8 805 703 809 908 911 812 915 1016
8 803 701 811 910 909 810 916 1017
8 911 812 917 1018 804 702 811 910
8 925 821 920 1030 818 710 814 919
8 928 823 921 1031 821 712 815 920
8 922 819 717 831 1033 926 829 941
8 923 820 709 816 1034 927 819 922
8 1035 929 822 924 923 820 711 817
8 925 821 710 818 1036 930 822 924
8 1038 933 825 929 927 826 714 820
8 926 827 716 829 1039 935 828 939
8 927 826 715 819 1040 934 827 926
8 928 823 712 821 1041 931 824 930
8 1042 932 824 930 929 825 713 822
8 829 716 830 942 939 828 940 1058
8 831 717 832 944 941 829 942 1060
8 942 830 718 832 1061 943 833 945
8 944 832 720 834 1062 945 835 946
8 981 889 947 1064 870 781 837 948
8 948 837 949 1067 869 780 838 950
8 975 869 950 1069 865 767 839 952
8 950 838 951 1070 839 725 840 953
8 952 839 953 1071 841 726 842 954
8 955 850 802 899 1072 959 906 1008
8 956 849 739 845 1072 959 850 955
8 846 738 849 956 957 848 958 1073
8 957 848 958 1073 854 759 868 965
8 849 742 852 959 958 851 961 1076
8 960 853 961 1076 906 807 852 959
8 958 851 961 1076 868 773 883 980
8 960 853 807 906 1077 963 913 1014
8 855 760 868 965 966 871 980 1085
8 856 761 871 966 967 872 984 1086
8 971 876 765 860 1087 985 872 967
8 968 873 763 858 1088 986 874 969
8 862 769 873 968 972 879 986 1088
8 859 764 875 970 969 874 987 1089
8 861 766 876 971 970 875 988 1090
8 973 880 770 863 1091 991 879 972
8 973 880 992 1092 863 770 881 974
8 974 881 993 1093 864 771 882 976
8 979 870 948 1066 1094 982 869 975
8 1094 982 869 975 977 877 767 865
8 978 878 772 867 1095 990 882 976
8 978 878 989 1096 866 768 877 977
8 871 774 883 980 984 884 994 1099
8 983 891 999 1100 870 781 889 981
8 1101 1000 890 982 989 892 782 877
8 983 891 781 870 1101 1000 890 982
8 872 775 884 984 985 885 995 1103
8 876 776 885 985 988 886 996 1104
8 986 887 779 874 1105 998 888 987
8 879 786 887 986 991 896 998 1105
8 875 778 886 988 987 888 997 1106
8 990 893 1002 1107 878 783 892 989
8 1108 1003 893 990 993 894 784 882
8 880 787 896 991 992 895 1005 1109
8 993 894 785 881 1110 1004 895 992
8 898 799 905 1006 1007 907 1013 1120
8 1030 920 1013 1120 919 814 905 1006
8 901 801 907 1007 1011 908 1015 1121
8 899 802 909 1009 1008 906 1014 1122
8 900 803 910 1010 1009 909 1017 1123
8 1012 911 1018 1124 903 804 910 1010
8 904 805 908 1011 1012 911 1016 1125
8 1013 912 1020 1127 907 808 914 1015
8 1031 921 1020 1127 920 815 912 1013
8 1019 918 962 1075 1128 1021 913 1014
8 1128 1021 913 1014 1017 916 810 909
8 1015 914 1022 1129 908 809 915 1016
8 1016 915 1023 1130 911 812 917 1018
8 1018 917 1024 1131 910 811 916 1017
8 1037 928 1031 1148 925 821 920 1030
8 928 823 931 1041 1031 921 1032 1149
8 1033 926 829 941 1151 1039 939 1057
8 1034 927 819 922 1152 1040 926 1033
8 1153 1038 929 1035 1034 927 820 923
8 1154 1042 930 1036 1035 929 822 924
8 1037 928 821 925 1155 1041 930 1036
8 1039 935 828 939 1156 1047 938 1055
8 1157 1043 932 1042 1038 933 825 929
8 1038 933 826 927 1158 1045 934 1040
8 1040 934 827 926 1159 1046 935 1039
8 930 824 932 1042 1041 931 1044 1160
8 1051 936 1048 1165 1175 1052 937 1053
8 1156 1047 938 1055 1053 937 1054 1178
8 939 828 940 1058 1055 938 1056 1181
8 941 829 942 1060 1057 939 1058 1183
8 942 830 943 1061 1058 940 1059 1184
8 1060 942 832 944 1185 1061 945 1062
8 1082 964 1063 1188 981 889 947 1064
8 1097 981 1064 1190 979 870 948 1066
8 1064 947 1065 1191 948 837 949 1067
8 1066 948 1067 1193 975 869 950 1069
8 1067 949 1068 1194 950 838 951 1070
8 1069 950 1070 1195 952 839 953 1071
8 956 849 959 1072 1073 958 1076 1197
8 1074 960 1076 1197 1008 906 959 1072
8 1073 958 1076 1197 965 868 980 1085
8 1074 960 906 1008 1198 1077 1014 1122
8 1133 1026 1079 1199 1019 918 962 1075
8 1077 963 913 1014 1200 1080 962 1075
8 960 853 963 1077 1076 961 1078 1201
8 980 883 961 1076 1099 994 1078 1201
8 1210 1083 964 1082 1100 999 889 981
8 966 871 980 1085 1086 984 1099 1215
8 967 872 984 1086 1087 985 1103 1216
8 971 876 985 1087 1090 988 1104 1217
8 1088 986 874 969 1218 1105 987 1089
8 972 879 986 1088 1091 991 1105 1218
8 970 875 988 1090 1089 987 1106 1219
8 973 880 991 1091 1092 992 1109 1220
8 1093 993 881 974 1221 1110 992 1092
8 1222 1108 990 1095 1093 993 882 976
8 1223 1101 982 1094 1096 989 877 977
8 1098 983 870 979 1223 1101 982 1094
8 1095 990 1107 1224 978 878 989 1096
8 1098 983 1100 1225 979 870 981 1097
8 984 884 994 1099 1103 995 1111 1227
8 1102 1001 1115 1228 983 891 999 1100
8 1101 1000 892 989 1229 1116 1002 1107
8 1102 1001 891 983 1229 1116 1000 1101
8 985 885 995 1103 1104 996 1112 1230
8 988 886 996 1104 1106 997 1113 1231
8 1105 998 888 987 1232 1114 997 1106
8 991 896 998 1105 1109 1005 1114 1232
8 1108 1003 1117 1233 990 893 1002 1107
8 1108 1003 894 993 1233 1117 1004 1110
8 992 895 1005 1109 1110 1004 1118 1234
8 1120 1013 1127 1244 1007 907 1015 1121
8 1148 1031 1127 1244 1030 920 1013 1120
8 1121 1015 1129 1245 1011 908 1016 1125
8 1126 1019 1075 1196 1246 1128 1014 1122
8 1246 1128 1014 1122 1123 1017 909 1009
8 1124 1018 1131 1247 1010 910 1017 1123
8 1125 1016 1130 1248 1012 911 1018 1124
8 1127 1020 1137 1254 1015 914 1022 1129
8 1031 921 1032 1149 1127 1020 1137 1254
8 1134 1027 918 1019 1257 1140 1021 1128
8 1257 1140 1021 1128 1131 1024 916 1017
8 1129 1022 1141 1258 1016 915 1023 1130
8 1130 1023 1142 1259 1018 917 1024 1131
8 1261 1144 1025 1132 1133 1026 1079 1199
8 1255 1138 1025 1132 1135 1028 1144 1261
8 1133 1026 918 1019 1262 1145 1027 1134
8 1136 1029 1139 1256 1263 1146 1028 1135
8 1037 928 1041 1155 1148 1031 1149 1275
8 1041 931 1044 1160 1149 1032 1150 1276
8 1151 1039 939 1057 1278 1156 1055 1180
8 1152 1040 926 1033 1279 1159 1039 1151
8 1153 1038 927 1034 1280 1158 1040 1152
8 1281 1157 1042 1154 1153 1038 929 1035
8 1036 930 1042 1154 1155 1041 1160 1282
8 1283 1164 1046 1159 1156 1047 935 1039
8 1165 1048 1164 1283 1053 937 1047 1156
8 1157 1043 933 1038 1284 1161 1045 1158
8 1157 1043 1161 1284 1042 932 1044 1160
8 1040 934 1046 1159 1158 1045 1163 1285
8 1166 1049 1167 1292 1051 936 1048 1165
8 1166 1049 936 1051 1293 1168 1050 1172
8 1051 936 1052 1175 1172 1050 1173 1306
8 1174 1051 1165 1290 1308 1175 1053 1177
8 1053 937 1054 1178 1175 1052 1176 1309
8 1278 1156 1055 1180 1177 1053 1178 1311
8 1055 938 1056 1181 1178 1054 1179 1312
8 1057 939 1058 1183 1180 1055 1181 1314
8 1058 940 1059 1184 1181 1056 1182 1315
8 1060 942 1061 1185 1183 1058 1184 1316
8 1208 1081 1187 1321 1082 964 1063 1188
8 1209 1082 1188 1322 1097 981 1064 1190
8 1188 1063 1189 1323 1064 947 1065 1191
8 1190 1064 1191 1325 1066 948 1067 1193
8 1191 1065 1192 1326 1067 949 1068 1194
8 1067 1193 1069 950 1194 1327 1195 1070
8 1250 1133 1199 1330 1126 1019 1075 1196
8 1198 1077 1014 1122 1331 1200 1075 1196
8 1074 960 1077 1198 1197 1076 1201 1332
8 1085 980 1076 1197 1215 1099 1201 1332
8 1199 1079 1203 1333 1075 962 1080 1200
8 1132 1025 1119 1243 1199 1079 1203 1333
8 1201 1078 963 1077 1334 1202 1080 1200
8 1099 994 1078 1201 1227 1111 1202 1334
8 1343 1207 1081 1208 1210 1083 964 1082
8 1214 1084 1186 1319 1343 1207 1081 1208
8 1345 1210 1082 1209 1225 1100 981 1097
8 1346 1211 1083 1210 1228 1115 999 1100
8 1086 984 1099 1215 1216 1103 1227 1352
8 1087 985 1103 1216 1217 1104 1230 1353
8 1090 988 1104 1217 1219 1106 1231 1354
8 1218 1105 987 1089 1355 1232 1106 1219
8 1091 991 1105 1218 1220 1109 1232 1355
8 1092 992 1109 1220 1221 1110 1234 1356
8 1222 1108 1233 1357 1095 990 1107 1224
8 1222 1108 993 1093 1357 1233 1110 1221
8 1223 1101 989 1096 1358 1229 1107 1224
8 1226 1102 983 1098 1358 1229 1101 1223
8 1226 1102 1228 1359 1098 983 1100 1225
8 1103 995 1111 1227 1230 1112 1235 1360
8 1107 1002 1117 1233 1229 1116 1240 1362
8 1102 1001 1116 1229 1228 1115 1240 1362
8 1104 996 1112 1230 1231 1113 1236 1363
8 1364 1237 1114 1232 1231 1113 997 1106
8 1109 1005 1114 1232 1234 1118 1238 1365
8 1110 1004 1118 1234 1233 1117 1241 1366
8 1242 1374 1255 1138 1119 1243 1132 1025
8 1244 1127 1254 1376 1121 1015 1129 1245
8 1148 1031 1149 1275 1244 1127 1254 1376
8 1245 1129 1258 1377 1125 1016 1130 1248
8 1251 1134 1019 1126 1378 1257 1128 1246
8 1378 1257 1128 1246 1247 1131 1017 1123
8 1248 1130 1259 1379 1124 1018 1131 1247
8 1261 1381 1250 1133 1132 1249 1330 1199
8 1255 1380 1252 1135 1132 1249 1381 1261
8 1250 1133 1019 1126 1382 1262 1134 1251
8 1253 1136 1256 1385 1384 1263 1135 1252
8 1254 1137 1265 1387 1129 1022 1141 1258
8 1149 1032 1150 1276 1254 1137 1265 1387
8 1028 1135 1255 1138 1139 1256 1388 1266
8 1136 1029 1147 1264 1256 1139 1267 1389
8 1390 1268 1140 1257 1259 1142 1024 1131
8 1260 1143 1027 1134 1390 1268 1140 1257
8 1258 1141 1269 1391 1130 1023 1142 1259
8 1262 1145 1027 1134 1393 1271 1143 1260
8 1261 1144 1026 1133 1394 1272 1145 1262
8 1135 1028 1144 1261 1263 1146 1272 1394
8 1136 1029 1146 1263 1264 1147 1273 1395
8 1155 1041 1160 1282 1275 1149 1276 1405
8 1276 1150 1044 1160 1406 1277 1162 1286
8 1408 1283 1159 1279 1278 1156 1039 1151
8 1290 1165 1283 1408 1177 1053 1156 1278
8 1152 1040 1159 1279 1280 1158 1285 1409
8 1281 1157 1038 1153 1410 1284 1158 1280
8 1281 1157 1284 1410 1154 1042 1160 1282
8 1159 1046 1164 1283 1285 1163 1289 1412
8 1292 1167 1289 1412 1165 1048 1164 1283
8 1158 1045 1163 1285 1284 1161 1288 1413
8 1284 1161 1288 1413 1160 1044 1162 1286
8 1291 1166 1292 1418 1174 1051 1165 1290
8 1291 1166 1051 1174 1419 1293 1172 1305
8 1294 1169 1296 1421 1166 1049 1167 1292
8 1293 1168 1050 1172 1422 1295 1171 1303
8 1294 1169 1049 1166 1423 1297 1168 1293
8 1422 1295 1171 1303 1301 1170 1302 1435
8 1172 1050 1173 1306 1303 1171 1304 1438
8 1174 1051 1175 1308 1305 1172 1306 1440
8 1175 1052 1176 1309 1306 1173 1307 1441
8 1177 1053 1178 1311 1308 1175 1309 1443
8 1178 1054 1179 1312 1309 1176 1310 1444
8 1180 1055 1181 1314 1311 1178 1312 1446
8 1056 1181 1312 1179 1182 1315 1447 1313
8 1183 1058 1184 1316 1314 1181 1315 1448
8 1319 1186 1084 1214 1451 1317 1213 1350
8 1319 1186 1318 1453 1208 1081 1187 1321
8 1321 1187 1320 1456 1188 1063 1189 1323
8 1344 1208 1321 1457 1209 1082 1188 1322
8 1322 1188 1323 1458 1190 1064 1191 1325
8 1323 1189 1324 1459 1191 1065 1192 1326
8 1191 1325 1193 1067 1326 1460 1327 1194
8 1242 1374 1243 1119 1328 1462 1335 1204
8 1330 1199 1333 1465 1196 1075 1200 1331
8 1132 1249 1330 1199 1243 1375 1465 1333
8 1332 1201 1077 1198 1466 1334 1200 1331
8 1215 1099 1201 1332 1352 1227 1334 1466
8 1119 1243 1333 1203 1204 1335 1470 1338
8 1333 1203 1338 1470 1200 1080 1202 1334
8 1227 1111 1202 1334 1360 1235 1338 1470
8 1328 1462 1335 1204 1205 1336 1471 1339
8 1337 1206 1340 1472 1464 1329 1205 1336
8 1346 1211 1342 1479 1210 1083 1207 1343
8 1346 1211 1115 1228 1479 1342 1239 1361
8 1348 1212 1084 1214 1479 1342 1207 1343
8 1480 1343 1208 1344 1345 1210 1082 1209
8 1351 1214 1319 1454 1480 1343 1208 1344
8 1481 1346 1210 1345 1359 1228 1100 1225
8 1348 1212 1347 1483 1214 1084 1213 1350
8 1216 1103 1227 1352 1353 1230 1360 1488
8 1217 1104 1230 1353 1354 1231 1363 1489
8 1490 1364 1232 1355 1354 1231 1106 1219
8 1220 1109 1232 1355 1356 1234 1365 1491
8 1221 1110 1234 1356 1357 1233 1366 1492
8 1224 1107 1233 1357 1358 1229 1362 1493
8 1226 1102 1229 1358 1359 1228 1362 1493
8 1230 1112 1235 1360 1363 1236 1367 1496
8 1361 1239 1115 1228 1497 1371 1240 1362
8 1366 1241 1372 1498 1233 1117 1240 1362
8 1364 1237 1113 1231 1499 1368 1236 1363
8 1364 1237 1368 1499 1232 1114 1238 1365
8 1234 1118 1238 1365 1366 1241 1369 1500
8 1507 1373 1242 1374 1388 1266 1138 1255
8 1508 1374 1243 1375 1380 1255 1132 1249
8 1376 1254 1387 1509 1245 1129 1258 1377
8 1275 1149 1276 1405 1376 1254 1387 1509
8 1377 1258 1391 1510 1248 1130 1259 1379
8 1511 1390 1257 1378 1379 1259 1131 1247
8 1383 1260 1134 1251 1511 1390 1257 1378
8 1252 1135 1256 1385 1380 1255 1388 1512
8 1261 1381 1513 1394 1133 1250 1382 1262
8 1135 1252 1384 1263 1261 1381 1513 1394
8 1382 1262 1134 1251 1514 1393 1260 1383
8 1253 1136 1263 1384 1386 1264 1395 1516
8 1253 1136 1264 1386 1385 1256 1389 1517
8 1387 1265 1397 1519 1258 1141 1269 1391
8 1276 1150 1277 1406 1387 1265 1397 1519
8 1256 1139 1267 1389 1388 1266 1398 1520
8 1264 1147 1274 1396 1389 1267 1399 1521
8 1392 1270 1143 1260 1522 1400 1268 1390
8 1390 1268 1142 1259 1522 1400 1269 1391
8 1392 1270 1401 1523 1260 1143 1271 1393
8 1272 1394 1524 1402 1145 1262 1393 1271
8 1395 1273 1146 1263 1524 1402 1272 1394
8 1273 1395 1264 1147 1403 1526 1396 1274
8 1405 1276 1160 1282 1534 1406 1286 1411
8 1414 1287 1407 1535 1286 1162 1277 1406
8 1279 1159 1283 1408 1409 1285 1412 1537
8 1418 1292 1412 1537 1290 1165 1283 1408
8 1280 1158 1285 1409 1410 1284 1413 1538
8 1410 1284 1413 1538 1282 1160 1286 1411
8 1285 1163 1289 1412 1413 1288 1417 1540
8 1421 1296 1417 1540 1292 1167 1289 1412
8 1414 1287 1162 1286 1541 1416 1288 1413
8 1420 1294 1421 1545 1291 1166 1292 1418
8 1419 1293 1172 1305 1546 1422 1303 1437
8 1420 1294 1166 1291 1547 1423 1293 1419
8 1294 1169 1297 1423 1421 1296 1425 1548
8 1423 1297 1168 1293 1549 1424 1295 1422
8 1301 1170 1298 1427 1422 1295 1424 1549
8 1432 1300 1428 1554 1301 1170 1298 1427
8 1431 1299 1428 1554 1560 1430 1300 1432
8 1563 1433 1300 1432 1435 1302 1170 1301
8 1546 1422 1303 1437 1434 1301 1435 1565
8 1303 1171 1304 1438 1435 1302 1436 1566
8 1305 1172 1306 1440 1437 1303 1438 1568
8 1306 1173 1307 1441 1438 1304 1439 1569
8 1308 1175 1309 1443 1440 1306 1441 1571
8 1309 1176 1310 1444 1441 1307 1442 1572
8 1311 1178 1312 1446 1443 1309 1444 1574
8 1179 1312 1444 1310 1313 1447 1575 1445
8 1314 1181 1315 1448 1446 1312 1447 1576
8 1350 1213 1349 1486 1451 1317 1449 1579
8 1451 1317 1450 1581 1319 1186 1318 1453
8 1454 1319 1214 1351 1582 1451 1350 1487
8 1453 1318 1452 1584 1321 1187 1320 1456
8 1454 1319 1453 1585 1344 1208 1321 1457
8 1456 1320 1455 1586 1323 1189 1324 1459
8 1457 1321 1456 1587 1322 1188 1323 1458
8 1458 1323 1459 1588 1325 1191 1326 1460
8 1205 1336 1464 1329 1328 1462 1590 1461
8 1507 1373 1461 1590 1374 1242 1328 1462
8 1508 1374 1462 1591 1375 1243 1335 1467
8 1337 1206 1329 1464 1473 1341 1463 1594
8 1375 1243 1335 1467 1465 1333 1470 1596
8 1465 1333 1470 1596 1331 1200 1334 1466
8 1352 1227 1334 1466 1488 1360 1470 1596
8 1591 1462 1336 1468 1467 1335 1471 1597
8 1469 1337 1472 1598 1595 1464 1336 1468
8 1471 1339 1474 1600 1335 1204 1338 1470
8 1600 1474 1367 1496 1470 1338 1235 1360
8 1336 1205 1340 1472 1471 1339 1475 1601
8 1337 1206 1341 1473 1472 1340 1476 1602
8 1495 1370 1478 1609 1361 1239 1342 1479
8 1348 1212 1342 1479 1483 1347 1478 1609
8 1481 1346 1479 1610 1345 1210 1343 1480
8 1481 1346 1228 1359 1610 1479 1361 1494
8 1484 1348 1214 1351 1610 1479 1343 1480
8 1483 1347 1482 1612 1350 1213 1349 1486
8 1484 1348 1483 1613 1351 1214 1350 1487
8 1353 1230 1360 1488 1489 1363 1496 1616
8 1490 1364 1231 1354 1617 1499 1363 1489
8 1490 1364 1499 1617 1355 1232 1365 1491
8 1356 1234 1365 1491 1492 1366 1500 1619
8 1492 1366 1498 1620 1357 1233 1362 1493
8 1494 1361 1228 1359 1621 1497 1362 1493
8 1495 1370 1239 1361 1622 1504 1371 1497
8 1363 1236 1367 1496 1499 1368 1501 1623
8 1497 1371 1240 1362 1624 1505 1372 1498
8 1625 1503 1372 1498 1500 1369 1241 1366
8 1365 1238 1368 1499 1500 1369 1502 1626
8 1520 1398 1506 1633 1388 1266 1373 1507
8 1634 1507 1374 1508 1512 1388 1255 1380
8 1509 1387 1519 1635 1377 1258 1391 1510
8 1405 1276 1406 1534 1509 1387 1519 1635
8 1515 1392 1260 1383 1636 1522 1390 1511
8 1511 1390 1259 1379 1636 1522 1391 1510
8 1385 1256 1389 1517 1512 1388 1520 1637
8 1513 1394 1262 1382 1638 1524 1393 1514
8 1395 1516 1638 1524 1263 1384 1513 1394
8 1515 1392 1523 1639 1383 1260 1393 1514
8 1516 1395 1526 1640 1386 1264 1396 1518
8 1386 1264 1396 1518 1517 1389 1521 1641
8 1519 1397 1527 1643 1391 1269 1400 1522
8 1535 1407 1527 1643 1406 1277 1397 1519
8 1389 1267 1399 1521 1520 1398 1528 1644
8 1645 1529 1399 1521 1525 1404 1274 1396
8 1392 1270 1400 1522 1523 1401 1531 1646
8 1524 1402 1271 1393 1648 1532 1401 1523
8 1403 1526 1648 1532 1273 1395 1524 1402
8 1525 1404 1274 1396 1649 1533 1403 1526
8 1539 1414 1535 1657 1411 1286 1406 1534
8 1542 1415 1536 1658 1414 1287 1407 1535
8 1409 1285 1412 1537 1538 1413 1540 1660
8 1545 1421 1540 1660 1418 1292 1412 1537
8 1539 1414 1286 1411 1661 1541 1413 1538
8 1540 1417 1544 1663 1413 1288 1416 1541
8 1421 1296 1425 1548 1540 1417 1544 1663
8 1542 1415 1287 1414 1664 1543 1416 1541
8 1420 1294 1423 1547 1545 1421 1548 1666
8 1547 1423 1293 1419 1667 1549 1422 1546
8 1434 1301 1427 1553 1546 1422 1549 1667
8 1423 1297 1424 1549 1548 1425 1550 1668
8 1551 1426 1550 1668 1427 1298 1424 1549
8 1551 1426 1298 1427 1671 1552 1428 1554
8 1562 1432 1554 1674 1434 1301 1427 1553
8 1431 1299 1429 1558 1554 1428 1555 1675
8 1431 1299 1430 1560 1558 1429 1557 1680
8 1560 1430 1300 1432 1683 1559 1433 1563
8 1561 1431 1554 1674 1684 1560 1432 1562
8 1685 1563 1432 1562 1565 1435 1301 1434
8 1435 1302 1436 1566 1563 1433 1564 1686
8 1437 1303 1438 1568 1565 1435 1566 1688
8 1438 1304 1439 1569 1566 1436 1567 1689
8 1440 1306 1441 1571 1568 1438 1569 1691
8 1441 1307 1442 1572 1569 1439 1570 1692
8 1443 1309 1444 1574 1571 1441 1572 1694
8 1310 1444 1572 1442 1445 1575 1695 1573
8 1446 1312 1447 1576 1574 1444 1575 1696
8 1486 1349 1485 1614 1579 1449 1577 1699
8 1451 1317 1449 1579 1581 1450 1578 1701
8 1487 1350 1486 1615 1582 1451 1579 1702
8 1581 1450 1580 1704 1453 1318 1452 1584
8 1582 1451 1581 1705 1454 1319 1453 1585
8 1584 1452 1583 1706 1456 1320 1455 1586
8 1585 1453 1584 1707 1457 1321 1456 1587
8 1587 1456 1586 1708 1458 1323 1459 1588
8 1633 1506 1589 1710 1507 1373 1461 1590
8 1464 1329 1461 1590 1594 1463 1589 1710
8 1468 1336 1462 1591 1595 1464 1590 1711
8 1634 1507 1590 1711 1508 1374 1462 1591
8 1473 1341 1463 1594 1603 1477 1593 1716
8 1469 1337 1464 1595 1599 1473 1594 1717
8 1471 1597 1467 1335 1600 1718 1596 1470
8 1718 1600 1496 1616 1596 1470 1360 1488
8 1336 1468 1597 1471 1472 1598 1719 1601
8 1469 1337 1473 1599 1598 1472 1602 1720
8 1722 1604 1501 1623 1600 1474 1367 1496
8 1475 1601 1471 1339 1604 1722 1600 1474
8 1602 1476 1605 1723 1472 1340 1475 1601
8 1476 1602 1724 1606 1341 1473 1603 1477
8 1483 1347 1478 1609 1612 1482 1608 1731
8 1495 1370 1504 1622 1609 1478 1608 1731
8 1618 1495 1609 1732 1494 1361 1479 1610
8 1484 1348 1479 1610 1613 1483 1609 1732
8 1486 1349 1482 1612 1614 1485 1611 1733
8 1613 1483 1612 1734 1487 1350 1486 1615
8 1489 1363 1496 1616 1617 1499 1623 1736
8 1491 1365 1499 1617 1619 1500 1626 1737
8 1618 1495 1361 1494 1738 1622 1497 1621
8 1739 1625 1498 1620 1619 1500 1366 1492
8 1621 1497 1362 1493 1740 1624 1498 1620
8 1742 1631 1504 1622 1624 1505 1371 1497
8 1743 1628 1502 1626 1623 1501 1368 1499
8 1744 1630 1505 1624 1625 1503 1372 1498
8 1745 1629 1503 1625 1626 1502 1369 1500
8 1520 1398 1528 1644 1633 1506 1632 1751
8 1637 1520 1633 1752 1512 1388 1507 1634
8 1635 1519 1643 1753 1510 1391 1522 1636
8 1657 1535 1643 1753 1534 1406 1519 1635
8 1515 1392 1522 1636 1639 1523 1646 1754
8 1517 1389 1521 1641 1637 1520 1644 1755
8 1524 1638 1756 1648 1393 1514 1639 1523
8 1640 1526 1395 1516 1756 1648 1524 1638
8 1642 1525 1396 1518 1757 1649 1526 1640
8 1758 1645 1521 1641 1642 1525 1396 1518
8 1646 1531 1400 1522 1760 1650 1527 1643
8 1535 1407 1536 1658 1643 1527 1650 1760
8 1521 1399 1529 1645 1644 1528 1651 1761
8 1647 1530 1652 1762 1525 1404 1529 1645
8 1401 1523 1648 1532 1531 1646 1763 1655
8 1525 1404 1533 1649 1647 1530 1654 1765
8 1533 1649 1766 1656 1403 1526 1648 1532
8 1662 1542 1658 1774 1539 1414 1535 1657
8 1542 1415 1543 1664 1658 1536 1659 1775
8 1660 1540 1663 1777 1538 1413 1541 1661
8 1545 1421 1548 1666 1660 1540 1663 1777
8 1662 1542 1414 1539 1778 1664 1541 1661
8 1664 1543 1416 1541 1779 1665 1544 1663
8 1548 1425 1550 1668 1663 1544 1665 1779
8 1547 1423 1549 1667 1666 1548 1668 1781
8 1670 1551 1668 1781 1553 1427 1549 1667
8 1551 1426 1552 1671 1668 1550 1669 1782
8 1670 1551 1427 1553 1784 1671 1554 1674
8 1675 1555 1672 1785 1554 1428 1552 1671
8 1678 1556 1673 1789 1558 1429 1555 1675
8 1561 1431 1558 1681 1674 1554 1675 1790
8 1794 1677 1556 1678 1680 1557 1429 1558
8 1560 1430 1559 1683 1680 1557 1679 1797
8 1561 1431 1560 1684 1681 1558 1680 1798
8 1563 1433 1564 1686 1683 1559 1682 1800
8 1684 1560 1432 1562 1801 1683 1563 1685
8 1565 1435 1566 1688 1685 1563 1686 1802
8 1566 1436 1567 1689 1686 1564 1687 1803
8 1568 1438 1569 1691 1688 1566 1689 1805
8 1569 1439 1570 1692 1689 1567 1690 1806
8 1571 1441 1572 1694 1691 1569 1692 1808
8 1442 1572 1692 1570 1573 1695 1809 1693
8 1574 1444 1575 1696 1694 1572 1695 1810
8 1614 1485 1592 1712 1699 1577 1697 1813
8 1579 1449 1577 1699 1701 1578 1698 1815
8 1615 1486 1614 1735 1702 1579 1699 1816
8 1701 1578 1700 1818 1581 1450 1580 1704
8 1582 1451 1579 1702 1705 1581 1701 1819
8 1704 1580 1703 1820 1584 1452 1583 1706
8 1705 1581 1704 1821 1585 1453 1584 1707
8 1707 1584 1706 1822 1587 1456 1586 1708
8 1710 1589 1506 1633 1824 1709 1632 1751
8 1594 1463 1589 1710 1716 1593 1709 1824
8 1752 1633 1710 1825 1634 1507 1590 1711
8 1595 1464 1590 1711 1717 1594 1710 1825
8 1830 1714 1592 1712 1733 1611 1485 1614
8 1603 1477 1593 1716 1725 1607 1715 1834
8 1599 1473 1594 1717 1721 1603 1716 1835
8 1837 1722 1623 1736 1718 1600 1496 1616
8 1719 1601 1722 1837 1597 1471 1600 1718
8 1602 1720 1598 1472 1723 1838 1719 1601
8 1720 1602 1473 1599 1839 1724 1603 1721
8 1723 1605 1726 1840 1601 1475 1604 1722
8 1840 1726 1628 1743 1722 1604 1501 1623
8 1724 1606 1727 1841 1602 1476 1605 1723
8 1725 1607 1728 1842 1603 1477 1606 1724
8 1612 1482 1608 1731 1733 1611 1730 1849
8 1741 1627 1730 1849 1622 1504 1608 1731
8 1613 1483 1609 1732 1734 1612 1731 1850
8 1618 1495 1622 1738 1732 1609 1731 1850
8 1615 1486 1612 1734 1735 1614 1733 1851
8 1852 1743 1626 1737 1736 1623 1499 1617
8 1853 1745 1625 1739 1737 1626 1500 1619
8 1855 1742 1622 1738 1740 1624 1497 1621
8 1856 1744 1624 1740 1739 1625 1498 1620
8 1741 1627 1504 1622 1857 1746 1631 1742
8 1742 1631 1505 1624 1858 1749 1630 1744
8 1859 1747 1629 1745 1743 1628 1502 1626
8 1860 1748 1630 1744 1745 1629 1503 1625
8 1644 1528 1651 1761 1751 1632 1750 1865
8 1637 1520 1644 1755 1752 1633 1751 1866
8 1754 1646 1522 1636 1867 1760 1643 1753
8 1657 1535 1658 1774 1753 1643 1760 1867
8 1639 1523 1646 1754 1756 1648 1763 1868
8 1641 1521 1645 1758 1755 1644 1761 1869
8 1757 1649 1526 1640 1870 1766 1648 1756
8 1642 1525 1649 1757 1759 1647 1765 1871
8 1759 1647 1762 1872 1642 1525 1645 1758
8 1760 1650 1767 1874 1646 1531 1655 1763
8 1658 1536 1659 1775 1760 1650 1767 1874
8 1762 1652 1768 1875 1645 1529 1651 1761
8 1764 1653 1769 1876 1647 1530 1652 1762
8 1656 1766 1877 1773 1532 1648 1763 1655
8 1771 1879 1765 1654 1653 1764 1647 1530
8 1533 1649 1765 1654 1656 1766 1880 1772
8 1662 1542 1664 1778 1774 1658 1775 1887
8 1664 1543 1665 1779 1775 1659 1776 1888
8 1778 1664 1541 1661 1890 1779 1663 1777
8 1666 1548 1668 1781 1777 1663 1779 1890
8 1782 1669 1780 1891 1668 1550 1665 1779
8 1670 1551 1671 1784 1781 1668 1782 1893
8 1671 1552 1672 1785 1782 1669 1783 1894
8 1790 1675 1785 1896 1674 1554 1671 1784
8 1675 1555 1673 1789 1785 1672 1786 1897
8 1792 1676 1788 1903 1678 1556 1673 1789
8 1795 1678 1789 1904 1681 1558 1675 1790
8 1792 1676 1556 1678 1906 1791 1677 1794
8 1680 1557 1679 1797 1794 1677 1793 1909
8 1910 1794 1678 1795 1798 1680 1558 1681
8 1683 1559 1682 1800 1797 1679 1796 1912
8 1684 1560 1683 1801 1798 1680 1797 1913
8 1686 1564 1687 1803 1800 1682 1799 1915
8 1685 1563 1686 1802 1801 1683 1800 1916
8 1688 1566 1689 1805 1802 1686 1803 1917
8 1689 1567 1690 1806 1803 1687 1804 1918
8 1691 1569 1692 1808 1805 1689 1806 1920
8 1692 1570 1693 1809 1806 1690 1807 1921
8 1694 1572 1695 1810 1808 1692 1809 1922
8 1829 1713 1811 1926 1712 1592 1697 1813
8 1813 1697 1812 1928 1699 1577 1698 1815
8 1735 1614 1712 1828 1816 1699 1813 1929
8 1815 1698 1814 1931 1701 1578 1700 1818
8 1702 1579 1699 1816 1819 1701 1815 1932
8 1818 1700 1817 1933 1704 1580 1703 1820
8 1819 1701 1818 1934 1705 1581 1704 1821
8 1821 1704 1820 1935 1707 1584 1706 1822
8 1824 1709 1632 1751 1937 1823 1750 1865
8 1716 1593 1709 1824 1834 1715 1823 1937
8 1825 1710 1633 1752 1938 1824 1751 1866
8 1717 1594 1710 1825 1835 1716 1824 1938
8 1945 1830 1712 1828 1851 1733 1614 1735
8 1830 1714 1831 1946 1712 1592 1713 1829
8 1947 1832 1714 1830 1849 1730 1611 1733
8 1843 1729 1607 1725 1950 1833 1715 1834
8 1721 1603 1716 1835 1836 1725 1834 1951
8 1836 1725 1842 1953 1721 1603 1724 1839
8 1723 1838 1719 1601 1840 1954 1837 1722
8 1954 1840 1743 1852 1837 1722 1623 1736
8 1724 1839 1720 1602 1841 1955 1838 1723
8 1841 1727 1844 1956 1723 1605 1726 1840
8 1956 1844 1747 1859 1840 1726 1628 1743
8 1728 1842 1724 1606 1845 1957 1841 1727
8 1725 1607 1729 1843 1842 1728 1846 1958
8 1741 1627 1746 1857 1849 1730 1848 1965
8 1734 1612 1731 1850 1851 1733 1849 1966
8 1854 1741 1849 1966 1738 1622 1731 1850
8 1967 1859 1745 1853 1852 1743 1626 1737
8 1968 1860 1744 1856 1853 1745 1625 1739
8 1854 1741 1622 1738 1969 1857 1742 1855
8 1855 1742 1624 1740 1970 1858 1744 1856
8 1857 1746 1631 1742 1971 1861 1749 1858
8 1858 1749 1630 1744 1972 1863 1748 1860
8 1859 1747 1862 1973 1745 1629 1748 1860
8 1875 1768 1864 1977 1761 1651 1750 1865
8 1755 1644 1761 1869 1866 1751 1865 1978
8 1867 1760 1874 1979 1754 1646 1763 1868
8 1774 1658 1775 1887 1867 1760 1874 1979
8 1870 1766 1648 1756 1980 1877 1763 1868
8 1872 1762 1875 1981 1758 1645 1761 1869
8 1757 1649 1766 1870 1871 1765 1880 1982
8 1983 1879 1764 1873 1871 1765 1647 1759
8 1873 1764 1876 1984 1759 1647 1762 1872
8 1877 1773 1655 1763 1986 1881 1767 1874
8 1775 1659 1776 1888 1874 1767 1881 1986
8 1876 1769 1882 1987 1762 1652 1768 1875
8 1878 1770 1883 1988 1764 1653 1769 1876
8 1880 1772 1656 1766 1989 1886 1773 1877
8 1878 1770 1653 1764 1990 1884 1771 1879
8 1765 1654 1772 1880 1879 1771 1885 1991
8 1778 1664 1779 1890 1887 1775 1888 1997
8 1998 1889 1776 1888 1891 1780 1665 1779
8 1893 1782 1891 2000 1781 1668 1779 1890
8 1894 1783 1892 2001 1782 1669 1780 1891
8 1784 1671 1785 1896 1893 1782 1894 2003
8 1897 1786 1895 2004 1785 1672 1783 1894
8 1790 1675 1789 1904 1896 1785 1897 2006
8 1901 1787 1898 2007 1789 1673 1786 1897
8 1903 1788 1900 2013 1789 1673 1787 1901
8 1792 1676 1791 1906 1903 1788 1902 2016
8 1907 1792 1903 2017 1795 1678 1789 1904
8 1906 1791 1677 1794 2019 1905 1793 1909
8 1907 1792 1678 1795 2020 1906 1794 1910
8 1797 1679 1796 1912 1909 1793 1908 2022
8 1798 1680 1797 1913 1910 1794 1909 2023
8 1800 1682 1799 1915 1912 1796 1911 2025
8 1801 1683 1800 1916 1913 1797 1912 2026
8 1803 1687 1804 1918 1915 1799 1914 2028
8 1802 1686 1803 1917 1916 1800 1915 2029
8 1805 1689 1806 1920 1917 1803 1918 2030
8 1806 1690 1807 1921 1918 1804 1919 2031
8 1808 1692 1809 1922 1920 1806 1921 2032
8 1939 1826 1924 2037 1829 1713 1811 1926
8 1926 1811 1925 2039 1813 1697 1812 1928
8 1944 1829 1926 2040 1828 1712 1813 1929
8 1928 1812 1927 2042 1815 1698 1814 1931
8 1929 1813 1928 2043 1816 1699 1815 1932
8 1931 1814 1930 2044 1818 1700 1817 1933
8 1932 1815 1931 2045 1819 1701 1818 1934
8 1934 1818 1933 2046 1821 1704 1820 1935
8 2048 1936 1823 1937 1977 1864 1750 1865
8 1950 1833 1715 1834 2048 1936 1823 1937
8 1938 1824 1751 1866 2049 1937 1865 1978
8 1835 1716 1824 1938 1951 1834 1937 2049
8 1939 1826 1713 1829 2053 1942 1831 1946
8 1940 1827 1923 2035 2053 1942 1826 1939
8 1945 1830 1946 2058 1828 1712 1829 1944
8 2059 1947 1830 1945 1966 1849 1733 1851
8 1947 1832 1730 1849 2060 1948 1848 1965
8 1947 1832 1948 2060 1830 1714 1831 1946
8 1959 1847 1729 1843 2063 1949 1833 1950
8 1952 1843 1725 1836 2064 1950 1834 1951
8 1836 1725 1843 1952 1953 1842 1958 2066
8 1953 1842 1957 2067 1839 1724 1841 1955
8 1841 1955 1838 1723 1956 2068 1954 1840
8 2068 1956 1859 1967 1954 1840 1743 1852
8 1956 1844 1960 2069 1859 1747 1862 1973
8 1845 1957 1841 1727 1960 2069 1956 1844
8 1728 1842 1957 1845 1846 1958 2071 1961
8 1962 2072 1959 1847 1846 1958 1843 1729
8 1971 1861 1964 2077 1857 1746 1848 1965
8 1854 1741 1857 1969 1966 1849 1965 2078
8 1967 1859 1973 2079 1853 1745 1860 1968
8 1970 1858 1744 1856 2080 1972 1860 1968
8 1969 1857 1742 1855 2081 1971 1858 1970
8 1971 1861 1749 1858 2082 1974 1863 1972
8 1973 1862 1975 2083 1860 1748 1863 1972
8 1987 1882 1976 2086 1875 1768 1864 1977
8 1981 1875 1977 2087 1869 1761 1865 1978
8 1980 1877 1763 1868 2088 1986 1874 1979
8 1887 1775 1888 1997 1979 1874 1986 2088
8 1880 1982 2089 1989 1766 1870 1980 1877
8 1984 1876 1987 2090 1872 1762 1875 1981
8 1765 1871 1983 1879 1880 1982 2091 1991
8 1985 1878 1764 1873 2092 1990 1879 1983
8 1985 1878 1988 2093 1873 1764 1876 1984
8 2094 1992 1881 1986 1998 1889 1776 1888
8 1986 1881 1992 2094 1877 1773 1886 1989
8 1988 1883 1993 2095 1876 1769 1882 1987
8 1878 1770 1884 1990 1988 1883 1994 2096
8 1991 1885 1772 1880 2097 1996 1886 1989
8 1879 1771 1885 1991 1990 1884 1995 2098
8 2103 1998 1888 1997 2000 1891 1779 1890
8 2104 1999 1889 1998 2001 1892 1780 1891
8 2003 1894 2001 2106 1893 1782 1891 2000
8 2004 1895 2002 2107 1894 1783 1892 2001
8 2006 1897 2004 2109 1896 1785 1894 2003
8 2007 1898 2005 2110 1897 1786 1895 2004
8 2014 1901 2007 2112 1904 1789 1897 2006
8 2011 1899 2008 2113 1901 1787 1898 2007
8 2119 2010 1899 2011 2013 1900 1787 1901
8 2016 1902 2012 2122 1903 1788 1900 2013
8 2017 1903 2013 2123 1904 1789 1901 2014
8 1906 1791 1905 2019 2016 1902 2015 2125
8 1907 1792 1906 2020 2017 1903 2016 2126
8 1909 1793 1908 2022 2019 1905 2018 2128
8 2020 1906 1794 1910 2129 2019 1909 2023
8 1912 1796 1911 2025 2022 1908 2021 2131
8 1913 1797 1912 2026 2023 1909 2022 2132
8 1915 1799 1914 2028 2025 1911 2024 2134
8 1916 1800 1915 2029 2026 1912 2025 2135
8 1918 1804 1919 2031 2028 1914 2027 2136
8 1917 1803 1918 2030 2029 1915 2028 2137
8 1920 1806 1921 2032 2030 1918 2031 2138
8 1940 1827 1941 2054 2035 1923 2033 2140
8 2035 1923 2034 2143 1939 1826 1924 2037
8 2037 1924 2036 2146 1926 1811 1925 2039
8 2051 1939 2037 2147 1944 1829 1926 2040
8 2039 1925 2038 2149 1928 1812 1927 2042
8 2040 1926 2039 2150 1929 1813 1928 2043
8 2042 1927 2041 2151 1931 1814 1930 2044
8 2043 1928 2042 2152 1932 1815 1931 2045
8 2045 1931 2044 2153 1934 1818 1933 2046
8 2155 2047 1936 2048 2086 1976 1864 1977
8 2063 1949 1833 1950 2155 2047 1936 2048
8 2156 2048 1937 2049 2087 1977 1865 1978
8 2064 1950 1834 1951 2156 2048 1937 2049
8 2051 1939 1829 1944 2160 2053 1946 2058
8 2052 1940 2035 2144 2160 2053 1939 2051
8 2053 1942 1831 1946 2163 2057 1948 2060
8 2055 1943 1827 1940 2163 2057 1942 2053
8 2055 1943 2056 2164 1940 1827 1941 2054
8 2059 1947 1849 1966 2167 2060 1965 2078
8 2059 1947 2060 2167 1945 1830 1946 2058
8 2077 1964 2061 2168 1965 1848 1948 2060
8 2070 1963 1847 1959 2170 2062 1949 2063
8 2065 1959 1843 1952 2171 2063 1950 2064
8 2173 2072 1958 2066 2065 1959 1843 1952
8 1953 1842 1958 2066 2067 1957 2071 2174
8 2068 1956 2069 2175 1967 1859 1973 2079
8 2067 1957 2069 2175 1955 1841 1956 2068
8 1845 1957 2069 1960 1961 2071 2176 2073
8 2069 1960 2073 2176 1973 1862 1975 2083
8 2070 1963 2075 2177 1959 1847 1962 2072
8 1846 1958 2071 1961 1962 2072 2178 2074
8 2077 1964 1861 1971 2182 2076 1974 2082
8 2081 1971 2077 2183 1969 1857 1965 2078
8 2079 1973 2083 2184 1968 1860 1972 2080
8 2081 1971 1858 1970 2185 2082 1972 2080
8 2083 1975 2084 2186 1972 1863 1974 2082
8 2086 1976 1882 1987 2189 2085 1993 2095
8 2090 1987 2086 2190 1981 1875 1977 2087
8 2191 2094 1986 2088 2103 1998 1888 1997
8 2088 1986 2094 2191 1980 1877 1989 2089
8 1991 2091 2192 2097 1880 1982 2089 1989
8 2093 1988 2095 2193 1984 1876 1987 2090
8 1879 1983 2092 1990 1991 2091 2194 2098
8 1985 1878 1990 2092 2093 1988 2096 2195
8 2097 1996 1886 1989 2196 2099 1992 2094
8 2196 2099 1992 2094 2104 1999 1889 1998
8 1994 2096 1988 1883 2100 2197 2095 1993
8 2096 1994 1884 1990 2198 2101 1995 2098
8 1995 2098 2199 2102 1885 1991 2097 1996
8 2203 2104 1998 2103 2106 2001 1891 2000
8 2107 2002 2105 2204 2001 1892 1999 2104
8 2109 2004 2107 2206 2003 1894 2001 2106
8 2110 2005 2108 2207 2004 1895 2002 2107
8 2112 2007 2110 2209 2006 1897 2004 2109
8 2113 2008 2111 2210 2007 1898 2005 2110
8 2120 2011 2113 2212 2014 1901 2007 2112
8 2117 2009 2114 2213 2011 1899 2008 2113
8 2219 2116 2009 2117 2119 2010 1899 2011
8 2222 2118 2010 2119 2122 2012 1900 2013
8 2223 2119 2011 2120 2123 2013 1901 2014
8 2016 1902 2015 2125 2122 2012 2121 2225
8 2126 2016 2122 2226 2017 1903 2013 2123
8 2019 1905 2018 2128 2125 2015 2124 2228
8 2020 1906 2019 2129 2126 2016 2125 2229
8 2022 1908 2021 2131 2128 2018 2127 2231
8 2023 1909 2022 2132 2129 2019 2128 2232
8 2025 1911 2024 2134 2131 2021 2130 2234
8 2026 1912 2025 2135 2132 2022 2131 2235
8 1914 2028 2134 2024 2027 2136 2236 2133
8 2029 1915 2028 2137 2135 2025 2134 2237
8 2030 1918 2031 2138 2137 2028 2136 2238
8 2157 2050 2139 2240 2054 1941 2033 2140
8 2052 1940 2054 2161 2144 2035 2140 2242
8 2140 2033 2141 2243 2035 1923 2034 2143
8 2143 2034 2142 2246 2037 1924 2036 2146
8 2144 2035 2143 2247 2051 1939 2037 2147
8 2146 2036 2145 2249 2039 1925 2038 2149
8 2147 2037 2146 2250 2040 1926 2039 2150
8 2149 2038 2148 2251 2042 1927 2041 2151
8 2150 2039 2149 2252 2043 1928 2042 2152
8 2152 2042 2151 2253 2045 1931 2044 2153
8 2255 2154 2047 2155 2189 2085 1976 2086
8 2170 2062 1949 2063 2255 2154 2047 2155
8 2256 2155 2048 2156 2190 2086 1977 2087
8 2171 2063 1950 2064 2256 2155 2048 2156
8 2258 2159 2050 2157 2164 2056 1941 2054
8 2160 2053 1946 2058 2262 2163 2060 2167
8 2162 2055 1940 2052 2262 2163 2053 2160
8 2162 2055 2164 2263 2052 1940 2054 2161
8 2163 2057 1948 2060 2264 2165 2061 2168
8 2055 1943 2057 2163 2164 2056 2165 2264
8 2182 2076 2166 2268 2077 1964 2061 2168
8 2183 2077 2168 2269 2078 1965 2060 2167
8 2070 1963 2062 2170 2177 2075 2169 2271
8 2172 2070 1959 2065 2272 2170 2063 2171
8 2172 2070 2177 2273 2065 1959 2072 2173
8 2066 1958 2072 2173 2174 2071 2178 2274
8 2067 1957 2071 2174 2175 2069 2176 2275
8 2175 2069 2176 2275 2079 1973 2083 2184
8 2071 1961 2074 2178 2176 2073 2179 2276
8 2176 2073 2179 2276 2083 1975 2084 2186
8 2072 1962 2075 2177 2178 2074 2180 2277
8 2182 2076 1974 2082 2280 2181 2084 2186
8 2183 2077 1971 2081 2281 2182 2082 2185
8 2184 2083 2186 2282 2080 1972 2082 2185
8 2189 2085 1993 2095 2285 2188 2100 2197
8 2190 2086 1987 2090 2286 2189 2095 2193
8 2192 2097 1989 2089 2287 2196 2094 2191
8 2287 2196 2094 2191 2203 2104 1998 2103
8 2194 2098 1991 2091 2288 2199 2097 2192
8 2195 2096 2197 2289 2093 1988 2095 2193
8 2096 2195 2290 2198 1990 2092 2194 2098
8 2097 1996 2099 2196 2199 2102 2200 2291
8 2196 2099 1999 2104 2291 2200 2105 2204
8 2100 2197 2292 2201 1994 2096 2198 2101
8 1995 2098 2198 2101 2102 2199 2293 2202
8 2206 2107 2204 2296 2106 2001 2104 2203
8 2207 2108 2205 2297 2107 2002 2105 2204
8 2209 2110 2207 2299 2109 2004 2107 2206
8 2210 2111 2208 2300 2110 2005 2108 2207
8 2212 2113 2210 2302 2112 2007 2110 2209
8 2213 2114 2211 2303 2113 2008 2111 2210
8 2220 2117 2213 2305 2120 2011 2113 2212
8 2216 2115 2214 2306 2117 2009 2114 2213
8 2216 2115 2009 2117 2311 2217 2116 2219
8 2219 2116 2010 2119 2314 2218 2118 2222
8 2315 2219 2117 2220 2223 2119 2011 2120
8 2122 2012 2121 2225 2222 2118 2221 2317
8 2318 2222 2119 2223 2226 2122 2013 2123
8 2125 2015 2124 2228 2225 2121 2224 2320
8 2126 2016 2125 2229 2226 2122 2225 2321
8 2128 2018 2127 2231 2228 2124 2227 2323
8 2129 2019 2128 2232 2229 2125 2228 2324
8 2131 2021 2130 2234 2231 2127 2230 2326
8 2132 2022 2131 2235 2232 2128 2231 2327
8 2134 2024 2133 2236 2234 2130 2233 2328
8 2135 2025 2134 2237 2235 2131 2234 2329
8 2137 2028 2136 2238 2237 2134 2236 2330
8 2157 2050 2158 2259 2240 2139 2239 2332
8 2257 2157 2240 2334 2161 2054 2140 2242
8 2240 2139 2241 2335 2140 2033 2141 2243
8 2242 2140 2243 2337 2144 2035 2143 2247
8 2243 2141 2244 2338 2143 2034 2142 2246
8 2246 2142 2245 2341 2146 2036 2145 2249
8 2247 2143 2246 2342 2147 2037 2146 2250
8 2249 2145 2248 2343 2149 2038 2148 2251
8 2250 2146 2249 2344 2150 2039 2149 2252
8 2252 2149 2251 2345 2152 2042 2151 2253
8 2169 2271 2347 2254 2062 2170 2255 2154
8 2189 2085 2188 2285 2255 2154 2254 2347
8 2348 2255 2155 2256 2286 2189 2086 2190
8 2272 2170 2063 2171 2348 2255 2155 2256
8 2349 2258 2157 2257 2263 2164 2054 2161
8 2258 2159 2261 2351 2157 2050 2158 2259
8 2258 2159 2056 2164 2351 2261 2165 2264
8 2262 2163 2060 2167 2355 2264 2168 2269
8 2162 2055 2163 2262 2263 2164 2264 2355
8 2357 2266 2165 2264 2268 2166 2061 2168
8 2268 2166 2076 2182 2361 2267 2181 2280
8 2281 2182 2268 2362 2183 2077 2168 2269
8 2271 2169 2270 2364 2177 2075 2180 2277
8 2172 2070 2170 2272 2273 2177 2271 2365
8 2072 2173 2274 2178 2177 2273 2366 2277
8 2071 2174 2275 2176 2178 2274 2367 2276
8 2275 2176 2276 2367 2184 2083 2186 2282
8 2283 2187 2084 2186 2368 2278 2179 2276
8 2178 2074 2180 2277 2276 2179 2278 2368
8 2283 2187 2279 2370 2186 2084 2181 2280
8 2281 2182 2082 2185 2371 2280 2186 2282
8 2188 2285 2374 2284 2100 2197 2292 2201
8 2286 2189 2095 2193 2375 2285 2197 2289
8 2192 2097 2196 2287 2288 2199 2291 2376
8 2287 2196 2104 2203 2376 2291 2204 2296
8 2194 2098 2199 2288 2290 2198 2293 2377
8 2289 2197 2096 2195 2378 2292 2198 2290
8 2291 2200 2105 2204 2379 2294 2205 2297
8 2199 2102 2200 2291 2293 2202 2294 2379
8 2198 2101 2202 2293 2292 2201 2295 2380
8 2299 2207 2297 2383 2206 2107 2204 2296
8 2300 2208 2298 2384 2207 2108 2205 2297
8 2302 2210 2300 2386 2209 2110 2207 2299
8 2303 2211 2301 2387 2210 2111 2208 2300
8 2305 2213 2303 2389 2212 2113 2210 2302
8 2306 2214 2304 2390 2213 2114 2211 2303
8 2310 2216 2306 2392 2220 2117 2213 2305
8 2308 2215 2307 2393 2216 2115 2214 2306
8 2308 2215 2115 2216 2396 2309 2217 2311
8 2310 2216 2117 2220 2398 2311 2219 2315
8 2311 2217 2116 2219 2399 2312 2218 2314
8 2314 2218 2118 2222 2402 2313 2221 2317
8 2315 2219 2119 2223 2403 2314 2222 2318
8 2225 2121 2224 2320 2317 2221 2316 2405
8 2226 2122 2225 2321 2318 2222 2317 2406
8 2228 2124 2227 2323 2320 2224 2319 2408
8 2229 2125 2228 2324 2321 2225 2320 2409
8 2231 2127 2230 2326 2323 2227 2322 2411
8 2232 2128 2231 2327 2324 2228 2323 2412
8 2234 2130 2233 2328 2326 2230 2325 2413
8 2235 2131 2234 2329 2327 2231 2326 2414
8 2237 2134 2236 2330 2329 2234 2328 2415
8 2259 2158 2260 2352 2332 2239 2331 2417
8 2257 2157 2259 2350 2334 2240 2332 2419
8 2240 2139 2239 2332 2335 2241 2333 2420
8 2334 2240 2335 2422 2242 2140 2243 2337
8 2335 2241 2336 2423 2243 2141 2244 2338
8 2337 2243 2338 2425 2247 2143 2246 2342
8 2338 2244 2339 2426 2246 2142 2245 2341
8 2341 2245 2340 2428 2249 2145 2248 2343
8 2342 2246 2341 2429 2250 2146 2249 2344
8 2344 2249 2343 2430 2252 2149 2251 2345
8 2188 2285 2347 2254 2284 2374 2432 2346
8 2347 2254 2346 2432 2271 2169 2270 2364
8 2365 2271 2170 2272 2433 2347 2255 2348
8 2286 2189 2285 2375 2348 2255 2347 2433
8 2349 2258 2351 2435 2257 2157 2259 2350
8 2349 2258 2164 2263 2435 2351 2264 2355
8 2259 2158 2261 2351 2352 2260 2354 2437
8 2356 2265 2354 2437 2264 2165 2261 2351
8 2441 2357 2264 2355 2362 2268 2168 2269
8 2356 2265 2165 2264 2442 2358 2266 2357
8 2443 2359 2266 2357 2361 2267 2166 2268
8 2370 2279 2360 2446 2280 2181 2267 2361
8 2362 2268 2182 2281 2447 2361 2280 2371
8 2180 2277 2368 2278 2270 2364 2449 2363
8 2271 2365 2273 2177 2364 2450 2366 2277
8 2372 2283 2186 2282 2451 2368 2276 2367
8 2178 2274 2367 2276 2277 2366 2451 2368
8 2283 2187 2278 2368 2370 2279 2369 2452
8 2372 2283 2370 2453 2282 2186 2280 2371
8 2284 2374 2455 2373 2201 2292 2380 2295
8 2375 2285 2197 2289 2456 2374 2292 2378
8 2376 2291 2204 2296 2457 2379 2297 2383
8 2288 2199 2291 2376 2377 2293 2379 2457
8 2198 2290 2378 2292 2293 2377 2458 2380
8 2293 2202 2294 2379 2380 2295 2381 2459
8 2384 2298 2381 2459 2297 2205 2294 2379
8 2386 2300 2384 2463 2299 2207 2297 2383
8 2387 2301 2385 2464 2300 2208 2298 2384
8 2389 2303 2387 2466 2302 2210 2300 2386
8 2390 2304 2388 2467 2303 2211 2301 2387
8 2392 2306 2390 2469 2305 2213 2303 2389
8 2393 2307 2391 2470 2306 2214 2304 2390
8 2395 2308 2393 2472 2310 2216 2306 2392
8 2308 2215 2309 2396 2393 2307 2394 2473
8 2395 2308 2216 2310 2475 2396 2311 2398
8 2396 2309 2217 2311 2476 2397 2312 2399
8 2398 2311 2219 2315 2478 2399 2314 2403
8 2399 2312 2218 2314 2479 2400 2313 2402
8 2317 2221 2316 2405 2402 2313 2401 2482
8 2403 2314 2222 2318 2483 2402 2317 2406
8 2320 2224 2319 2408 2405 2316 2404 2485
8 2321 2225 2320 2409 2406 2317 2405 2486
8 2323 2227 2322 2411 2408 2319 2407 2488
8 2324 2228 2323 2412 2409 2320 2408 2489
8 2326 2230 2325 2413 2411 2322 2410 2490
8 2327 2231 2326 2414 2412 2323 2411 2491
8 2329 2234 2328 2415 2414 2326 2413 2492
8 2417 2331 2260 2352 2494 2416 2353 2438
8 2350 2259 2352 2436 2419 2332 2417 2496
8 2332 2239 2331 2417 2420 2333 2418 2497
8 2334 2240 2332 2419 2422 2335 2420 2499
8 2420 2333 2421 2500 2335 2241 2336 2423
8 2422 2335 2423 2502 2337 2243 2338 2425
8 2423 2336 2424 2503 2338 2244 2339 2426
8 2425 2338 2426 2505 2342 2246 2341 2429
8 2426 2339 2427 2506 2341 2245 2340 2428
8 2429 2341 2428 2507 2344 2249 2343 2430
8 2432 2346 2284 2374 2509 2431 2373 2455
8 2432 2346 2431 2509 2364 2270 2363 2449
8 2375 2285 2374 2456 2433 2347 2432 2510
8 2347 2433 2365 2271 2432 2510 2450 2364
8 2350 2259 2351 2435 2436 2352 2437 2514
8 2440 2356 2437 2514 2355 2264 2351 2435
8 2352 2260 2354 2437 2438 2353 2439 2516
8 2356 2265 2358 2442 2437 2354 2439 2516
8 2440 2356 2264 2355 2518 2442 2357 2441
8 2519 2443 2357 2441 2447 2361 2268 2362
8 2443 2359 2444 2520 2357 2266 2358 2442
8 2443 2359 2267 2361 2520 2444 2360 2446
8 2446 2360 2279 2370 2523 2445 2369 2452
8 2453 2370 2446 2524 2371 2280 2361 2447
8 2449 2363 2448 2525 2368 2278 2369 2452
8 2366 2277 2364 2450 2451 2368 2449 2526
8 2372 2283 2368 2451 2453 2370 2452 2527
8 2455 2373 2295 2380 2529 2454 2382 2460
8 2456 2374 2292 2378 2530 2455 2380 2458
8 2377 2293 2379 2457 2458 2380 2459 2531
8 2463 2384 2459 2531 2383 2297 2379 2457
8 2533 2461 2382 2460 2459 2381 2295 2380
8 2464 2385 2461 2533 2384 2298 2381 2459
8 2466 2387 2464 2537 2386 2300 2384 2463
8 2467 2388 2465 2538 2387 2301 2385 2464
8 2469 2390 2467 2540 2389 2303 2387 2466
8 2470 2391 2468 2541 2390 2304 2388 2467
8 2472 2393 2470 2543 2392 2306 2390 2469
8 2393 2307 2394 2473 2470 2391 2471 2544
8 2395 2308 2396 2475 2472 2393 2473 2546
8 2396 2309 2397 2476 2473 2394 2474 2547
8 2475 2396 2311 2398 2549 2476 2399 2478
8 2476 2397 2312 2399 2550 2477 2400 2479
8 2478 2399 2314 2403 2552 2479 2402 2483
8 2479 2400 2313 2402 2553 2480 2401 2482
8 2405 2316 2404 2485 2482 2401 2481 2556
8 2406 2317 2405 2486 2483 2402 2482 2557
8 2408 2319 2407 2488 2485 2404 2484 2559
8 2409 2320 2408 2489 2486 2405 2485 2560
8 2411 2322 2410 2490 2488 2407 2487 2561
8 2412 2323 2411 2491 2489 2408 2488 2562
8 2414 2326 2413 2492 2491 2411 2490 2563
8 2513 2434 2493 2565 2438 2353 2416 2494
8 2496 2417 2352 2436 2567 2494 2438 2515
8 2494 2416 2495 2568 2417 2331 2418 2497
8 2419 2332 2417 2496 2499 2420 2497 2570
8 2497 2418 2498 2571 2420 2333 2421 2500
8 2499 2420 2500 2573 2422 2335 2423 2502
8 2500 2421 2501 2574 2423 2336 2424 2503
8 2502 2423 2503 2576 2425 2338 2426 2505
8 2503 2424 2504 2577 2426 2339 2427 2506
8 2505 2426 2506 2578 2429 2341 2428 2507
8 2509 2431 2373 2455 2580 2508 2454 2529
8 2509 2431 2508 2580 2449 2363 2448 2525
8 2432 2510 2581 2509 2374 2456 2530 2455
8 2432 2510 2450 2364 2509 2581 2526 2449
8 2583 2511 2434 2513 2516 2439 2353 2438
8 2436 2352 2437 2514 2515 2438 2516 2588
8 2440 2356 2442 2518 2514 2437 2516 2588
8 2442 2358 2444 2520 2516 2439 2517 2589
8 2519 2443 2520 2591 2441 2357 2442 2518
8 2519 2443 2361 2447 2591 2520 2446 2524
8 2446 2360 2445 2523 2520 2444 2521 2592
8 2525 2448 2522 2593 2452 2369 2445 2523
8 2524 2446 2370 2453 2594 2523 2452 2527
8 2526 2449 2525 2595 2451 2368 2452 2527
8 2534 2462 2528 2597 2460 2382 2454 2529
8 2530 2455 2380 2458 2598 2529 2460 2532
8 2599 2533 2460 2532 2531 2459 2380 2458
8 2537 2464 2533 2599 2463 2384 2459 2531
8 2534 2462 2382 2460 2601 2535 2461 2533
8 2538 2465 2535 2601 2464 2385 2461 2533
8 2540 2467 2538 2604 2466 2387 2464 2537
8 2541 2468 2539 2605 2467 2388 2465 2538
8 2543 2470 2541 2607 2469 2390 2467 2540
8 2470 2391 2471 2544 2541 2468 2542 2608
8 2472 2393 2473 2546 2543 2470 2544 2610
8 2473 2394 2474 2547 2544 2471 2545 2611
8 2475 2396 2476 2549 2546 2473 2547 2613
8 2476 2397 2477 2550 2547 2474 2548 2614
8 2549 2476 2399 2478 2616 2550 2479 2552
8 2479 2400 2480 2553 2550 2477 2551 2617
8 2552 2479 2402 2483 2619 2553 2482 2557
8 2482 2401 2481 2556 2553 2480 2554 2620
8 2485 2404 2484 2559 2556 2481 2555 2623
8 2486 2405 2485 2560 2557 2482 2556 2624
8 2488 2407 2487 2561 2559 2484 2558 2625
8 2489 2408 2488 2562 2560 2485 2559 2626
8 2491 2411 2490 2563 2562 2488 2561 2627
8 2513 2434 2512 2585 2565 2493 2564 2630
8 2586 2513 2565 2632 2515 2438 2494 2567
8 2565 2493 2566 2633 2494 2416 2495 2568
8 2567 2494 2568 2635 2496 2417 2497 2570
8 2568 2495 2569 2636 2497 2418 2498 2571
8 2570 2497 2571 2638 2499 2420 2500 2573
8 2571 2498 2572 2639 2500 2421 2501 2574
8 2573 2500 2574 2641 2502 2423 2503 2576
8 2574 2501 2575 2642 2503 2424 2504 2577
8 2576 2503 2577 2643 2505 2426 2506 2578
8 2597 2528 2579 2645 2529 2454 2508 2580
8 2580 2508 2579 2645 2525 2448 2522 2593
8 2581 2509 2455 2530 2646 2580 2529 2598
8 2581 2509 2580 2646 2526 2449 2525 2595
8 2583 2511 2582 2648 2513 2434 2512 2585
8 2583 2511 2439 2516 2648 2582 2517 2589
8 2649 2583 2513 2586 2588 2516 2438 2515
8 2589 2517 2444 2520 2653 2587 2521 2592
8 2518 2442 2520 2591 2588 2516 2589 2654
8 2593 2522 2590 2655 2523 2445 2521 2592
8 2524 2446 2523 2594 2591 2520 2592 2656
8 2595 2525 2593 2657 2527 2452 2523 2594
8 2602 2536 2596 2659 2534 2462 2528 2597
8 2600 2534 2597 2660 2532 2460 2529 2598
8 2600 2534 2460 2532 2661 2601 2533 2599
8 2604 2538 2601 2661 2537 2464 2533 2599
8 2602 2536 2462 2534 2663 2603 2535 2601
8 2601 2535 2465 2538 2663 2603 2539 2605
8 2607 2541 2605 2665 2540 2467 2538 2604
8 2608 2542 2606 2666 2541 2468 2539 2605
8 2543 2470 2544 2610 2607 2541 2608 2668
8 2544 2471 2545 2611 2608 2542 2609 2669
8 2546 2473 2547 2613 2610 2544 2611 2671
8 2547 2474 2548 2614 2611 2545 2612 2672
8 2549 2476 2550 2616 2613 2547 2614 2674
8 2550 2477 2551 2617 2614 2548 2615 2675
8 2552 2479 2553 2619 2616 2550 2617 2677
8 2553 2480 2554 2620 2617 2551 2618 2678
8 2557 2482 2556 2624 2619 2553 2620 2680
8 2556 2481 2555 2623 2620 2554 2621 2681
8 2559 2484 2558 2625 2623 2555 2622 2683
8 2560 2485 2559 2626 2624 2556 2623 2684
8 2562 2488 2561 2627 2626 2559 2625 2685
8 2690 2629 2564 2630 2650 2584 2512 2585
8 2586 2513 2585 2651 2632 2565 2630 2691
8 2630 2564 2631 2692 2565 2493 2566 2633
8 2632 2565 2633 2694 2567 2494 2568 2635
8 2633 2566 2634 2695 2568 2495 2569 2636
8 2635 2568 2636 2697 2570 2497 2571 2638
8 2636 2569 2637 2698 2571 2498 2572 2639
8 2638 2571 2639 2700 2573 2500 2574 2641
8 2639 2572 2640 2701 2574 2501 2575 2642
8 2641 2574 2642 2702 2576 2503 2577 2643
8 2597 2528 2596 2659 2645 2579 2644 2704
8 2645 2579 2644 2704 2593 2522 2590 2655
8 2660 2597 2645 2705 2598 2529 2580 2646
8 2646 2580 2645 2705 2595 2525 2593 2657
8 2650 2584 2512 2585 2707 2647 2582 2648
8 2648 2582 2517 2589 2707 2647 2587 2653
8 2649 2583 2648 2708 2586 2513 2585 2651
8 2649 2583 2516 2588 2708 2648 2589 2654
8 2655 2590 2652 2710 2592 2521 2587 2653
8 2654 2589 2520 2591 2711 2653 2592 2656
8 2657 2593 2655 2712 2594 2523 2592 2656
8 2602 2536 2603 2663 2659 2596 2658 2714
8 2662 2602 2659 2715 2600 2534 2597 2660
8 2662 2602 2534 2600 2717 2663 2601 2661
8 2661 2601 2538 2604 2717 2663 2605 2665
8 2666 2606 2664 2718 2605 2539 2603 2663
8 2668 2608 2666 2720 2607 2541 2605 2665
8 2608 2542 2609 2669 2666 2606 2667 2721
8 2610 2544 2611 2671 2668 2608 2669 2723
8 2611 2545 2612 2672 2669 2609 2670 2724
8 2613 2547 2614 2674 2671 2611 2672 2726
8 2614 2548 2615 2675 2672 2612 2673 2727
8 2616 2550 2617 2677 2674 2614 2675 2729
8 2617 2551 2618 2678 2675 2615 2676 2730
8 2619 2553 2620 2680 2677 2617 2678 2732
8 2620 2554 2621 2681 2678 2618 2679 2733
8 2624 2556 2623 2684 2680 2620 2681 2735
8 2681 2621 2555 2623 2736 2682 2622 2683
8 2626 2559 2625 2685 2684 2623 2683 2737
8 2688 2628 2584 2650 2740 2686 2647 2707
8 2688 2628 2687 2742 2650 2584 2629 2690
8 2690 2629 2689 2745 2630 2564 2631 2692
8 2746 2690 2630 2691 2709 2650 2585 2651
8 2691 2630 2692 2747 2632 2565 2633 2694
8 2692 2631 2693 2748 2633 2566 2634 2695
8 2694 2633 2695 2750 2635 2568 2636 2697
8 2695 2634 2696 2751 2636 2569 2637 2698
8 2697 2636 2698 2753 2638 2571 2639 2700
8 2698 2637 2699 2754 2639 2572 2640 2701
8 2700 2639 2701 2755 2641 2574 2642 2702
8 2659 2596 2658 2714 2704 2644 2703 2757
8 2704 2644 2703 2757 2655 2590 2652 2710
8 2660 2597 2659 2715 2705 2645 2704 2758
8 2705 2645 2704 2758 2657 2593 2655 2712
8 2759 2706 2647 2707 2710 2652 2587 2653
8 2709 2650 2585 2651 2760 2707 2648 2708
8 2708 2648 2589 2654 2760 2707 2653 2711
8 2712 2655 2710 2761 2656 2592 2653 2711
8 2763 2713 2658 2714 2718 2664 2603 2663
8 2662 2602 2663 2717 2715 2659 2714 2764
8 2720 2666 2718 2767 2665 2605 2663 2717
8 2768 2719 2664 2718 2721 2667 2606 2666
8 2668 2608 2669 2723 2720 2666 2721 2770
8 2669 2609 2670 2724 2721 2667 2722 2771
8 2671 2611 2672 2726 2723 2669 2724 2773
8 2672 2612 2673 2727 2724 2670 2725 2774
8 2674 2614 2675 2729 2726 2672 2727 2776
8 2675 2615 2676 2730 2727 2673 2728 2777
8 2677 2617 2678 2732 2729 2675 2730 2779
8 2678 2618 2679 2733 2730 2676 2731 2780
8 2680 2620 2681 2735 2732 2678 2733 2782
8 2733 2679 2621 2681 2783 2734 2682 2736
8 2735 2681 2623 2684 2784 2736 2683 2737
8 2740 2686 2647 2707 2787 2738 2706 2759
8 2688 2628 2686 2740 2742 2687 2739 2789
8 2743 2688 2650 2709 2790 2740 2707 2760
8 2742 2687 2741 2792 2690 2629 2689 2745
8 2743 2688 2742 2793 2709 2650 2690 2746
8 2745 2689 2744 2795 2692 2631 2693 2748
8 2746 2690 2745 2796 2691 2630 2692 2747
8 2747 2692 2748 2797 2694 2633 2695 2750
8 2748 2693 2749 2798 2695 2634 2696 2751
8 2750 2695 2751 2800 2697 2636 2698 2753
8 2751 2696 2752 2801 2698 2637 2699 2754
8 2753 2698 2754 2802 2700 2639 2701 2755
8 2763 2713 2756 2804 2714 2658 2703 2757
8 2759 2706 2652 2710 2804 2756 2703 2757
8 2715 2659 2714 2764 2758 2704 2757 2805
8 2758 2704 2757 2805 2712 2655 2710 2761
8 2806 2759 2707 2760 2761 2710 2653 2711
8 2765 2716 2762 2808 2718 2664 2713 2763
8 2809 2763 2714 2764 2767 2718 2663 2717
8 2765 2716 2664 2718 2811 2766 2719 2768
8 2813 2768 2718 2767 2770 2721 2666 2720
8 2814 2769 2719 2768 2771 2722 2667 2721
8 2723 2669 2724 2773 2770 2721 2771 2816
8 2724 2670 2725 2774 2771 2722 2772 2817
8 2726 2672 2727 2776 2773 2724 2774 2819
8 2727 2673 2728 2777 2774 2725 2775 2820
8 2729 2675 2730 2779 2776 2727 2777 2822
8 2730 2676 2731 2780 2777 2728 2778 2823
8 2732 2678 2733 2782 2779 2730 2780 2825
8 2780 2731 2679 2733 2826 2781 2734 2783
8 2782 2733 2681 2735 2827 2783 2736 2784
8 2830 2785 2738 2787 2804 2756 2706 2759
8 2789 2739 2686 2740 2832 2786 2738 2787
8 2790 2740 2707 2760 2833 2787 2759 2806
8 2742 2687 2739 2789 2792 2741 2788 2835
8 2743 2688 2740 2790 2793 2742 2789 2836
8 2792 2741 2791 2838 2745 2689 2744 2795
8 2793 2742 2792 2839 2746 2690 2745 2796
8 2795 2744 2794 2841 2748 2693 2749 2798
8 2796 2745 2795 2842 2747 2692 2748 2797
8 2797 2748 2798 2843 2750 2695 2751 2800
8 2798 2749 2799 2844 2751 2696 2752 2801
8 2800 2751 2801 2845 2753 2698 2754 2802
8 2808 2762 2803 2847 2763 2713 2756 2804
8 2809 2763 2804 2848 2764 2714 2757 2805
8 2806 2759 2710 2761 2848 2804 2757 2805
8 2765 2716 2766 2811 2808 2762 2807 2850
8 2810 2765 2808 2851 2767 2718 2763 2809
8 2810 2765 2718 2767 2852 2811 2768 2813
8 2811 2766 2719 2768 2853 2812 2769 2814
8 2855 2814 2768 2813 2816 2771 2721 2770
8 2856 2815 2769 2814 2817 2772 2722 2771
8 2773 2724 2774 2819 2816 2771 2817 2858
8 2774 2725 2775 2820 2817 2772 2818 2859
8 2776 2727 2777 2822 2819 2774 2820 2861
8 2777 2728 2778 2823 2820 2775 2821 2862
8 2779 2730 2780 2825 2822 2777 2823 2864
8 2823 2778 2731 2780 2865 2824 2781 2826
8 2825 2780 2733 2782 2866 2826 2783 2827
8 2869 2828 2785 2830 2847 2803 2756 2804
8 2871 2829 2786 2832 2830 2785 2738 2787
8 2872 2830 2787 2833 2848 2804 2759 2806
8 2789 2739 2786 2832 2835 2788 2831 2874
8 2836 2789 2740 2790 2875 2832 2787 2833
8 2792 2741 2788 2835 2838 2791 2834 2877
8 2793 2742 2789 2836 2839 2792 2835 2878
8 2838 2791 2837 2880 2795 2744 2794 2841
8 2839 2792 2838 2881 2796 2745 2795 2842
8 2841 2794 2840 2882 2798 2749 2799 2844
8 2842 2795 2841 2883 2797 2748 2798 2843
8 2843 2798 2844 2884 2800 2751 2801 2845
8 2886 2846 2803 2847 2850 2807 2762 2808
8 2851 2808 2847 2887 2809 2763 2804 2848
8 2850 2807 2766 2811 2889 2849 2812 2853
8 2810 2765 2811 2852 2851 2808 2850 2890
8 2852 2811 2768 2813 2891 2853 2814 2855
8 2853 2812 2769 2814 2892 2854 2815 2856
8 2894 2856 2814 2855 2858 2817 2771 2816
8 2817 2772 2818 2859 2856 2815 2857 2895
8 2819 2774 2820 2861 2858 2817 2859 2897
8 2820 2775 2821 2862 2859 2818 2860 2898
8 2822 2777 2823 2864 2861 2820 2862 2900
8 2823 2778 2824 2865 2862 2821 2863 2901
8 2864 2823 2780 2825 2902 2865 2826 2866
8 2904 2867 2828 2869 2886 2846 2803 2847
8 2869 2828 2868 2906 2830 2785 2829 2871
8 2907 2869 2830 2872 2887 2847 2804 2848
8 2871 2829 2870 2909 2832 2786 2831 2874
8 2910 2871 2832 2875 2872 2830 2787 2833
8 2835 2788 2831 2874 2877 2834 2873 2912
8 2836 2789 2832 2875 2878 2835 2874 2913
8 2877 2834 2876 2915 2838 2791 2837 2880
8 2839 2792 2835 2878 2881 2838 2877 2916
8 2880 2837 2879 2917 2841 2794 2840 2882
8 2881 2838 2880 2918 2842 2795 2841 2883
8 2883 2841 2882 2919 2843 2798 2844 2884
8 2921 2885 2846 2886 2889 2849 2807 2850
8 2922 2886 2847 2887 2890 2850 2808 2851
8 2889 2849 2812 2853 2924 2888 2854 2892
8 2890 2850 2811 2852 2925 2889 2853 2891
8 2891 2853 2814 2855 2926 2892 2856 2894
8 2892 2854 2815 2856 2927 2893 2857 2895
8 2858 2817 2859 2897 2894 2856 2895 2929
8 2859 2818 2860 2898 2895 2857 2896 2930
8 2861 2820 2862 2900 2897 2859 2898 2932
8 2862 2821 2863 2901 2898 2860 2899 2933
8 2864 2823 2865 2902 2900 2862 2901 2934
8 2904 2867 2846 2886 2936 2903 2885 2921
8 2904 2867 2903 2936 2869 2828 2868 2906
8 2937 2904 2869 2907 2922 2886 2847 2887
8 2906 2868 2905 2939 2871 2829 2870 2909
8 2907 2869 2906 2940 2872 2830 2871 2910
8 2909 2870 2908 2942 2874 2831 2873 2912
8 2910 2871 2909 2943 2875 2832 2874 2913
8 2912 2873 2911 2945 2877 2834 2876 2915
8 2878 2835 2874 2913 2916 2877 2912 2946
8 2915 2876 2914 2947 2880 2837 2879 2917
8 2916 2877 2915 2948 2881 2838 2880 2918
8 2918 2880 2917 2949 2883 2841 2882 2919
8 2921 2885 2849 2889 2951 2920 2888 2924
8 2952 2921 2886 2922 2925 2889 2850 2890
8 2924 2888 2854 2892 2954 2923 2893 2927
8 2925 2889 2853 2891 2955 2924 2892 2926
8 2926 2892 2856 2894 2956 2927 2895 2929
8 2895 2857 2896 2930 2927 2893 2928 2957
8 2897 2859 2898 2932 2929 2895 2930 2959
8 2898 2860 2899 2933 2930 2896 2931 2960
8 2900 2862 2901 2934 2932 2898 2933 2961
8 2936 2903 2885 2921 2963 2935 2920 2951
8 2936 2903 2935 2963 2906 2868 2905 2939
8 2937 2904 2886 2922 2964 2936 2921 2952
8 2937 2904 2936 2964 2907 2869 2906 2940
8 2939 2905 2938 2966 2909 2870 2908 2942
8 2940 2906 2939 2967 2910 2871 2909 2943
8 2942 2908 2941 2969 2912 2873 2911 2945
8 2943 2909 2942 2970 2913 2874 2912 2946
8 2945 2911 2944 2971 2915 2876 2914 2947
8 2946 2912 2945 2972 2916 2877 2915 2948
8 2948 2915 2947 2973 2918 2880 2917 2949
8 2951 2920 2888 2924 2975 2950 2923 2954
8 2952 2921 2889 2925 2976 2951 2924 2955
8 2927 2893 2928 2957 2954 2923 2953 2978
8 2955 2924 2892 2926 2979 2954 2927 2956
8 2929 2895 2930 2959 2956 2927 2957 2980
8 2930 2896 2931 2960 2957 2928 2958 2981
8 2932 2898 2933 2961 2959 2930 2960 2982
8 2951 2920 2950 2975 2963 2935 2962 2984
8 2963 2935 2962 2984 2939 2905 2938 2966
8 2964 2936 2921 2952 2985 2963 2951 2976
8 2964 2936 2963 2985 2940 2906 2939 2967
8 2966 2938 2965 2987 2942 2908 2941 2969
8 2967 2939 2966 2988 2943 2909 2942 2970
8 2969 2941 2968 2989 2945 2911 2944 2971
8 2970 2942 2969 2990 2946 2912 2945 2972
8 2972 2945 2971 2991 2948 2915 2947 2973
8 2954 2923 2953 2978 2975 2950 2974 2993
8 2976 2951 2924 2955 2994 2975 2954 2979
8 2957 2928 2958 2981 2978 2953 2977 2995
8 2956 2927 2957 2980 2979 2954 2978 2996
8 2959 2930 2960 2982 2980 2957 2981 2997
8 2984 2962 2983 2999 2966 2938 2965 2987
8 2975 2950 2974 2993 2984 2962 2983 2999
8 2976 2951 2975 2994 2985 2963 2984 3000
8 2985 2963 2984 3000 2967 2939 2966 2988
8 2987 2965 2986 3001 2969 2941 2968 2989
8 2988 2966 2987 3002 2970 2942 2969 2990
8 2990 2969 2989 3003 2972 2945 2971 2991
8 2978 2953 2977 2995 2993 2974 2992 3004
8 2979 2954 2978 2996 2994 2975 2993 3005
8 2980 2957 2981 2997 2996 2978 2995 3006
8 2974 2993 2999 2983 2992 3004 3007 2998
8 2983 2999 2987 2965 2998 3007 3001 2986
8 3000 2984 2999 3008 2988 2966 2987 3002
8 2994 2975 2993 3005 3000 2984 2999 3008
8 3002 2987 3001 3009 2990 2969 2989 3003
8 2996 2978 2995 3006 3005 2993 3004 3010
8 3005 2993 3004 3010 3008 2999 3007 3011
8 3008 2999 3007 3011 3002 2987 3001 3009

CELL_TYPES 1910
12
12
12
12
12
12
12
12
12
12
12
12
12
12
12
12
12
12
12
12
12
12
12
12
12
12
12
12
12
12
12
12
12
12
12
12
12
12
12
12
12
12
12
12
12
12
12
12
12
12
12
12
12
12
12
12
12
12
12
12
12
12
12
12
12
12
12
12
12
12
12
12
12
12
12
12
12
12
12
12
12
12
12
12
12
12
12
12
12
12
12
12
12
12
12
12
12
12
12
12
12
12
12
12
12
12
12
12
12
12
12
12
12
12
12
12
12
12
12
12
12
12
12
12
12
12
12
12
12
12
12
12
12
12
12
12
12
12
12
12
12
12
12
12
12
12
12
12
12
12
12
12
12
12
12
12
12
12
12
12
12
12
12
12
12
12
12
12
12
12
12
12
12
12
12
12
12
12
12
12
12
12
12
12
12
12
12
12
12
12
12
12
12
12
12
12
12
12
12
12
12
12
12
12
12
12
12
12
12
12
12
12
12
12
12
12
12
12
12
12
12
12
12
12
12
12
12
12
12
12
12
12
12
12
12
12
12
12
12
12
12
12
12
12
12
12
12
12
12
12
12
12
12
12
12
12
12
12
12
12
12
12
12
12
12
12
12
12
12
12
12
12
12
12
12
12
12
12
12
12
12
12
12
12
12
12
12
12
12
12
12
12
12
12
12
12
12
12
12
12
12
12
12
12
12
12
12
12
12
12
12
12
12
12
12
12
12
12
12
12
12
12
12
12
12
12
12
12
12
12
12
12
12
12
12
12
12
12
12
12
12
12
12
12
12
12
12
12
12
12
12
12
12
12
12
12
12
12
12
12
12
12
12
12
12
12
12
12
12
12
12
12
12
12
12
12
12
12
12
12
12
12
12
12
12
12
12
12
12
12
12
12
12
12
12
12
12
12
12
12
12
12
12
12
12
12
12
12
12
12
12
12
12
12
12
12
12
12
12
12
12
12
12
12
12
12
12
12
12
12
12
12
12
12
12
12
12
12
12
12
12
12
12
12
12
12
12
12
12
12
12
12
12
12
12
12
12
12
12
12
12
12
12
12
12
12
12
12
12
12
12
12
12
12
12
12
12
12
12
12
12
12
12
12
12
12
12
12
12
12
12
12
12
12
12
12
12
12
12
12
12
12
12
12
12
12
12
12
12
12
12
12
12
12
12
12
12
12
12
12
12
12
12
12
12
12
12
12
12
12
12
12
12
12
12
12
12
12
12
12
12
12
12
12
12
12
12
12
12
12
12
12
12
12
12
12
12
12
12
12
12
12
12
12
12
12
12
12
12
12
12
12
12
12
12
12
12
12
12
12
12
12
12
12
12
12
12
12
12
12
12
12
12
12
12
12
12
12
12
12
12
12
12
12
12
12
12
12
12
12
12
12
12
12
12
12
12
12
12
12
12
12
12
12
12
12
12
12
12
12
12
12
12
12
12
12
12
12
12
12
12
12
12
12
12
12
12
12
12
12
12
12
12
12
12
12
12
12
12
12
12
12
12
12
12
12
12
12
12
12
12
12
12
12
12
12
12
12
12
12
12
12
12
12
12
12
12
12
12
12
12
12
12
12
12
12
12
12
12
12
12
12
12
12
12
12
12
12
12
12
12
12
12
12
12
12
12
12
12
12
12
12
12
12
12
12
12
12
12
12
12
12
12
12
12
12
12
12
12
12
12
12
12
12
12
12
12
12
12
12
12
12
12
12
12
12
12
12
12
12
12
12
12
12
12
12
12
12
12
12
12
12
12
12
12
12
12
12
12
12
12
12
12
12
12
12
12
12
12
12
12
12
12
12
12
12
12
12
12
12
12
12
12
12
12
12
12
12
12
12
12
12
12
12
12
12
12
12
12
12
12
12
12
12
12
12
12
12
12
12
12
12
12
12
12
12
12
12
12
12
12
12
12
12
12
12
12
12
12
12
12
12
12
12
12
12
12
12
12
12
12
12
12
12
12
12
12
12
12
12
12
12
12
12
12
12
12
12
12
12
12
12
12
12
12
12
12
12
12
12
12
12
12
12
12
12
12
12
12
12
12
12
12
12
12
12
12
12
12
12
12
12
12
12
12
12
12
12
12
12
12
12
12
12
12
12
12
12
12
12
12
12
12
12
12
12
12
12
12
12
12
12
12
12
12
12
12
12
12
12
12
12
12
12
12
12
12
12
12
12
12
12
12
12
12
12
12
12
12
12
12
12
12
12
12
12
12
12
12
12
12
12
12
12
12
12
12
12
12
12
12
12
12
12
12
12
12
12
12
12
12
12
12
12
12
12
12
12
12
12
12
12
12
12
12
12
12
12
12
12
12
12
12
12
12
12
12
12
12
12
12
12
12
12
12
12
12
12
12
12
12
12
12
12
12
12
12
12
12
12
12
12
12
12
12
12
12
12
12
12
12
12
12
12
12
12
12
12
12
12
12
12
12
12
12
12
12
12
12
12
12
12
12
12
12
12
12
12
12
12
12
12
12
12
12
12
12
12
12
12
12
12
12
12
12
12
12
12
12
12
12
12
12
12
12
12
12
12
12
12
12
12
12
12
12
12
12
12
12
12
12
12
12
12
12
12
12
12
12
12
12
12
12
12
12
12
12
12
12
12
12
12
12
12
12
12
12
12
12
12
12
12
12
12
12
12
12
12
12
12
12
12
12
12
12
12
12
12
12
12
12
12
12
12
12
12
12
12
12
12
12
12
12
12
12
12
12
12
12
12
12
12
12
12
12
12
12
12
12
12
12
12
12
12
12
12
12
12
12
12
12
12
12
12
12
12
12
12
12
12
12
12
12
12
12
12
12
12
12
12
12
12
12
12
12
12
12
12
12
12
12
12
12
12
12
12
12
12
12
12
12
12
12
12
12
12
12
12
12
12
12
12
12
12
12
12
12
12
12
12
12
12
12
12
12
12
12
12
12
12
12
12
12
12
12
12
12
12
12
12
12
12
12
12
12
12
12
12
12
12
12
12
12
12
12
12
12
12
12
12
12
12
12
12
12
12
12
12
12
12
12
12
12
12
12
12
12
12
12
12
12
12
12
12
12
12
12
12
12
12
12
12
12
12
12
12
12
12
12
12
12
12
12
12
12
12
12
12
12
12
12
12
12
12
12
12
12
12
12
12
12
12
12
12
12
12
12
12
12
12
12
12
12
12
12
12
12
12
12
12
12
12
12
12
12
12
12
12
12
12
12
12
12
12
12
12
12
12
12
12
12
12
12
12
12
12
12
12
12
12
12
12
12
12
12
12
12
12
12
12
12
12
12
12
12
12
12
12
12
12
12
12
12
12
12
12
12
12
12
12
12
12
12
12
12
12
12
12
12
12
12
12
12
12
12
12
12
12
12
12
12
12
12
12
12
12
12
12
12
12
12
12
12
12
12
12
12
12
12
12
12
12
12
12
12
12
12
12
12
12
12
12
12
12
12
12
12
12
12
12
12
12
12
12
12
12
12
12
12
12
12
12
12
12
12
12
12
12
12
12
12
12
12
12
12
12
12
12
12
12
12
12
12
12
12
12
12
12
12
12
12
12
12
12
12
12
12
12
12
12
12
12
12
12
12
12
12
12
12
12
12
12
12
12
12
12
12
12
12
12
12
12
12
12
12
12
12
12
12
12
12
12
12
12
12
12
12
12
12
12
12
12
12
12
12
12
12
12
12
12
12
12
12
12
12
12
12
12
12
12
12
12
12
12
12
12
12
12
12
12
12
12
12
12
12
12
12
12
12
12
12
12
12
12
12
12
12
12
12
12
12
12
12
12
12
12
12
12
12
12
12
12
12
12
12
12
12
12
12
12
12
12
12
12
12
12
12
12
12
12
12
12
12
12
12
12
12
12
12
12
12
12
12
12
12
12
12
12
12
12
12
12
12
12
12
12
12
12
12
12
12
12
12
12
12
12
12
12
12
12
12
12
12
12
12
12
12
12
12
12
12
12
12
12
12
12
12
12
12
12
12
12
12
12
12
12
12
12
12
12
12
12
12
12
12
12
12
12
12
12
12
12
12
12
12
12
12
12
12
12
12
12
12
12
12
12
12
12
12
12
12
12
12
12
12
12
12
12
12
12
12
12
12
12
12
12
12
12
12
12
12
12
12
12
12
12
12
12
12
12
12
12
12
12
12
12
12
12
12
12
12
12
12
12
12
12
12
12
12
12
12
12
12
12
12
12
12
12
12
12
12
12
12
12
12
12
12
12
12
12
12
12
12
12
12
12
12
12
12
12
12
12
12
12
12
12
12
12
12
12
12
12
12
12
12
12
12
12
12
12
12
12
12
12
12
12
12
12
12
12
12
12
12
12
12
12
12
12
12
12

POINT_DATA 3012
SCALARS Jp_lamdaP float 4
LOOKUP_TABLE default
0.999905 1 1 0.999905
1 1 1 1
0.999908 1 1 0.999908
0.999869 1 1 0.999869
0.999903 1 1 0.999903
0.999904 1 1 0.999904
0.999478 1 1 0.999478
1 1 1 1
1 1 1 1
1 1 1 1
0.999972 1 1 0.999972
0.999648 1 1 0.999648
0.999829 1 1 0.999829
0.99986 1 1 0.99986
0.999908 1 1 0.999908
0.999881 1 1 0.999881
0.999909 1 1 0.999909
0.999909 1 1 0.999909
0.999481 1 1 0.999481
1 1 1 1
0.999852 1 1 0.999852
0.999889 1 1 0.999889
0.999354 1 1 0.999354
0.999446 1 1 0.999446
0.999929 1 1 0.999929
0.999517 1 1 0.999517
0.998795 1 1 0.998795
1 1 1 1
0.999942 1 1 0.999942
0.999955 1 1 0.999955
1 1 1 1
0.999656 1 1 0.999656
0.999879 1 1 0.999879
0.999901 1 1 0.999901
0.999544 1 1 0.999544
1 1 1 1
0.999634 1 1 0.999634
0.999736 1 1 0.999736
0.99887 1 1 0.99887
1 1 1 1
1 1 1 1
0.999928 1 1 0.999928
1 1 1 1
0.99985 1 1 0.99985
0.999288 1 1 0.999288
1 1 1 1
0.999458 1 1 0.999458
0.999891 1 1 0.999891
0.999913 1 1 0.999913
0.999911 1 1 0.999911
0.999486 1 1 0.999486
0.999913 1 1 0.999913
0.999864 1 1 0.999864
0.999936 1 1 0.999936
0.999899 1 1 0.999899
0.999355 1 1 0.999355
0.999521 1 1 0.999521
0.999449 1 1 0.999449
0.998781 1 1 0.998781
1 1 1 1
0.999838 1 1 0.999838
0.99942 1 1 0.99942
0.999321 1 1 0.999321
0.9994 1 1 0.9994
0.998504 1 1 0.998504
0.998639 1 1 0.998639
0.99997 1 1 0.99997
0.999632 1 1 0.999632
0.998903 1 1 0.998903
0.999717 1.00157 1 0.998151
1 1 1 1
1 1 1 1
1 1 1 1
0.999665 1 1 0.999665
1 1 1 1
1 1 1 1
0.999491 1 1 0.999491
0.999996 1 1 0.999996
0.999598 1 1 0.999598
0.999769 1 1 0.999769
0.998867 1 1 0.998867
1 1 1 1
0.99998 1 1 0.99998
0.999437 1 1 0.999437
0.999528 1 1 0.999528
0.998465 1 1 0.998465
0.999864 1 1 0.999864
0.998768 1 1 0.998768
0.998996 1 1 0.998996
0.9984 1 1 0.9984
1 1 1 1
1 1 1 1
1 1 1 1
1 1 1 1
1 1 1 1
0.999921 1 1 0.999921
0.999351 1 1 0.999351
0.999933 1 1 0.999933
0.999427 1 1 0.999427
1 1 1 1
0.999267 1 1 0.999267
0.999428 1 1 0.999428
0.998196 1.00004 1 0.998152
0.99949 1 1 0.99949
0.998477 1.00023 1 0.998251
0.999844 1 1 0.999844
0.999875 1 1 0.999875
0.999944 1 1 0.999944
0.999906 1 1 0.999906
0.999357 1 1 0.999357
0.999453 1 1 0.999453
0.999527 1 1 0.999527
0.998766 1 1 0.998766
1 1 1 1
0.99985 1 1 0.99985
0.999292 1 1 0.999292
0.999321 1 1 0.999321
0.999985 1 1 0.999985
0.999676 1 1 0.999676
0.999403 1 1 0.999403
0.998467 1 1 0.998467
0.998884 1 1 0.998884
0.998665 1 1 0.998665
1.00001 1.00186 1 0.998154
0.999287 1 1 0.999287
0.999296 1 1 0.999296
0.99829 1 1 0.99829
0.998395 1 1 0.998393
0.998524 1 1 0.998524
1.00352 1.00561 1 0.997923
1 1 1 1
1.00076 1.00269 1 0.998075
0.999826 1 1 0.999826
0.998964 1 1 0.998964
0.999177 1.00095 1 0.998227
1.00555 1.00765 1 0.997912
0.999934 1 1 0.999934
0.999388 1 1 0.999388
1 1 1 1
1 1 1 1
0.999497 1 1 0.999497
1 1 1 1
0.999778 1 1 0.999778
0.999602 1 1 0.999602
0.998865 1 1 0.998865
1 1 1 1
0.999987 1 1 0.999987
0.999479 1 1 0.999479
0.999568 1 1 0.999568
0.998467 1 1 0.998467
0.999883 1 1 0.999883
0.99877 1 1 0.99877
0.998996 1 1 0.998996
0.998386 1 1 0.998386
0.999937 1 1 0.999937
0.999998 1 1 0.999998
0.999534 1 1 0.999534
0.998394 1.00004 1 0.998354
0.99862 1 1 0.99862
1.00266 1.00472 1 0.997953
0.99917 1 1 0.99917
0.998942 1.00066 1 0.998286
0.999019 1 1.00052 0.998496
0.998515 1.00028 1 0.998239
1 1 1 1
1 1 1 1
1 1 1 1
0.999963 1 1 0.999963
1 1 1 1
1 1 1 1
1 1 1 1
0.999392 1 1 0.999392
0.999311 1 1 0.999311
1 1 1 1
1 1 1 1
0.999269 1 1 0.999269
0.999396 1 1 0.999396
0.998251 1.0001 1 0.998152
0.999419 1 1 0.999419
0.998445 1.00019 1 0.998251
0.999258 1 1 0.999258
0.998099 1 1 0.998098
0.998386 1.00018 1 0.998211
1.0066 1.00892 1 0.997705
0.998416 1.00013 1 0.998289
1.00595 1.00818 1 0.997795
1 1 1 1
0.999862 1 1 0.999862
0.999155 1 1 0.999155
0.999321 1 1 0.999321
1 1 1 1
0.999721 1 1 0.999721
0.999406 1 1 0.999406
0.998431 1 1 0.998431
0.998691 1 1 0.998691
0.998865 1 1 0.998865
1.00032 1.00217 1 0.998157
0.999285 1 1 0.999285
0.999295 1 1 0.999295
0.998212 1 1 0.998212
0.998421 1 1 0.99842
1 1 1 1
0.999815 1 1 0.999815
0.999003 1 1 0.999003
0.998524 1 1 0.998524
1.00354 1.00567 1 0.997884
0.999293 1.00108 1 0.998217
1.00112 1.00303 1 0.998101
1.00521 1.00731 1 0.997917
0.999925 1 1 0.999925
0.999388 1 1 0.999388
0.998116 1 1 0.998116
0.998347 1 1 0.998347
1.00495 1.00716 1 0.9978
1.00397 1.00619 1 0.9978
1.00183 1.00382 1 0.998017
1.01242 1.01468 1 0.99777
0.99989 1 1 0.99989
1.00711 1.00926 1 0.997875
0.999103 1 1 0.999103
0.99874 1.00037 1 0.998372
1.00429 1.00633 1 0.997975
1.01016 1.0123 1 0.997883
0.999269 1 1 0.999269
0.999538 1 1 0.999538
0.99911 1 1.0002 0.998906
0.999454 1 1 0.999454
1 1 1 1
0.999994 1 1 0.999994
0.999553 1 1 0.999553
0.99847 1 1 0.99847
0.999896 1 1 0.999896
0.998995 1 1 0.998995
0.998773 1 1 0.998773
0.998371 1 1 0.998371
0.999951 1 1 0.999951
0.999999 1 1 0.999999
0.999536 1 1 0.999536
0.998386 1.00003 1 0.998354
0.998625 1 1 0.998625
1.00204 1.0041 1 0.997951
0.999172 1 1 0.999172
0.998734 1.00044 1 0.998297
0.998876 1 1.00038 0.998492
0.998662 1.00044 1 0.998226
1 1 1 1
0.999344 1 1 0.999344
0.999716 1 1 0.999716
0.999113 1 1.00006 0.999056
1.00432 1.00648 1 0.997859
1.00071 1.00259 1 0.998126
1.00906 1.01134 1 0.997745
0.999131 1 1.00044 0.998694
1.00105 1.00294 1 0.998116
0.999993 1.00021 1.00158 0.998207
1.0016 1.00351 1 0.998099
0.999909 1 1 0.999909
1 1 1 1
1 1 1 1
1 1 1 1
1 1 1 1
0.999983 1 1 0.999983
1 1 1 1
0.999955 1 1 0.999955
1 1 1 1
0.99942 1 1 0.99942
0.999357 1 1 0.999357
0.998437 1.00019 1 0.99825
0.998308 1.00016 1 0.998153
0.999271 1 1 0.999271
1 1 1 1
0.999257 1 1 0.999257
0.998113 1.00002 1 0.998098
0.998421 1.00021 1 0.998211
1.00654 1.00885 1 0.997704
0.998401 1.00011 1 0.998289
1.00597 1.0082 1 0.997794
0.998088 1 1 0.998088
1.00628 1.00865 1 0.997654
1.00648 1.00875 1 0.997757
1.01921 1.02159 1 0.997668
1.0055 1.00769 1 0.997821
1.01714 1.01946 1 0.997717
0.999281 1 1 0.999281
0.999294 1 1 0.999294
0.998134 1 1 0.998134
0.998447 1 1 0.998446
1 1 1 1
0.999804 1 1 0.999804
0.999042 1 1 0.999042
0.998524 1 1 0.998524
1.00356 1.00573 1 0.997846
1.00147 1.00335 1 0.998127
0.999397 1.00119 1 0.998208
1.00492 1.00701 1 0.997922
0.999916 1 1 0.999916
0.999389 1 1 0.999389
0.998093 1 1 0.998093
0.998345 1 1 0.998345
1.00515 1.00738 1 0.997791
1.00419 1.00637 1 0.997839
0.99988 1 1 0.99988
0.9991 1 1 0.9991
0.998771 1.00037 1 0.998404
1.00206 1.00405 1 0.998017
1.01274 1.015 1 0.997771
1.00379 1.00586 1 0.997941
1.00715 1.0093 1 0.997878
1.01045 1.01259 1 0.997882
0.999272 1 1 0.999272
0.999245 1 1.00034 0.998907
0.999535 1 1 0.999535
1.00554 1.00782 1 0.99774
1.00525 1.00744 1 0.997823
1.01688 1.01926 1 0.997665
1.0147 1.01703 1 0.997707
1.00934 1.01153 1 0.997831
1.01716 1.01935 1 0.997857
0.9992 1 1 0.9992
1.01229 1.01444 1 0.997886
0.998658 1 1 0.998658
0.999315 1.0013 1 0.998013
1.00788 1.0101 1 0.9978
1.0122 1.01423 1 0.997992
0.999661 1 1 0.999661
0.998889 1 1 0.998889
0.999315 1 1.00034 0.99898
0.999099 1 1.00035 0.998747
0.998377 1.00002 1 0.998355
1 1 1 1
0.999965 1 1 0.999965
0.999538 1 1 0.999538
0.99863 1 1 0.99863
1.00141 1.00346 1 0.997949
0.999174 1 1 0.999174
0.998677 1 1.00019 0.998489
0.998464 1.00016 1 0.998307
0.998806 1.00059 1 0.998214
1 1 1 1
0.999344 1 1 0.999344
0.999721 1 1 0.999721
0.999095 1 1.00004 0.999053
1.00387 1.00603 1 0.997856
1.00005 1.00192 1 0.998128
1.00914 1.01142 1 0.997743
0.999054 1 1.00036 0.998698
1.00045 1.00233 1 0.99813
1.00033 1.00041 1.00173 0.998195
1.00121 1.00305 1 0.998168
1 1 1 1
0.999825 1 1 0.999825
0.998891 1 1 0.998891
0.999323 1 1.00008 0.999239
0.999247 1 1.00045 0.998797
1.01205 1.01438 1 0.9977
1.00501 1.00711 1 0.997915
1.0114 1.0137 1 0.997727
1.00035 1 1.00199 0.998357
1.00253 1.00451 1 0.998036
1.00132 1.00253 1.00086 0.997932
0.999895 1 1 0.999895
0.999576 1 1 0.999576
0.999917 1 1 0.999917
0.999911 1 1 0.999911
1 1 1 1
1 1 1 1
1 1 1 1
1 1 1 1
1 1 1 1
0.999996 1 1 0.999996
1 1 1 1
0.999978 1 1 0.999978
1 1 1 1
0.999947 1 1 0.999947
1 1 1 1
0.998377 1.00009 1 0.998288
0.998432 1.00022 1 0.99821
1.00595 1.00817 1 0.997793
1.00645 1.00876 1 0.997703
0.998131 1.00003 1 0.998098
0.999256 1 1 0.999256
0.998087 1 1 0.998087
1.00636 1.00872 1 0.997654
1.00629 1.00856 1 0.997756
1.01939 1.02177 1 0.997674
1.00525 1.00745 1 0.997819
1.0166 1.01893 1 0.997717
1.00606 1.00843 1 0.997643
1.01954 1.02195 1 0.997641
1.01872 1.02107 1 0.997695
1.02417 1.02646 1 0.997767
1.01428 1.0166 1 0.997714
1.01939 1.02156 1 0.997879
0.99807 1 1 0.99807
0.998343 1 1 0.998343
1.00532 1.00756 1 0.997783
1.0044 1.00654 1 0.997877
0.999871 1 1 0.999871
0.999097 1 1 0.999097
0.998806 1.00037 1 0.998437
1.0023 1.00429 1 0.998017
1.01306 1.01532 1 0.997773
1.00721 1.00935 1 0.99788
1.00324 1.00534 1 0.997908
1.01072 1.01286 1 0.997882
0.999275 1 1 0.999275
0.999349 1 1.00044 0.998907
0.999532 1 1 0.999532
1.0057 1.00801 1 0.997706
1.00521 1.0074 1 0.997821
1.01668 1.01905 1 0.997668
1.01509 1.01742 1 0.997712
0.9992 1 1 0.9992
0.998652 1 1 0.998652
0.999564 1.00147 1.00003 0.998061
1.00953 1.01172 1 0.997837
1.01643 1.01859 1 0.997883
1.00796 1.01021 1 0.997772
1.01228 1.01442 1 0.997889
1.01158 1.0136 1 0.998011
0.998891 1 1 0.998891
0.999119 1 1.00039 0.99873
0.999657 1 1 0.999657
0.999391 1 1.00039 0.999001
1.01741 1.01984 1 0.997618
1.01728 1.01962 1 0.9977
1.02213 1.02449 1 0.997698
1.01866 1.02086 1 0.997844
1.01476 1.0169 1 0.997901
1.0171 1.01914 1 0.997996
0.998833 1 1 0.998833
1.01252 1.01447 1 0.99808
0.99834 1 1 0.99834
1.00265 1.00471 1.00018 0.997783
1.01028 1.01259 1 0.997723
1.01143 1.01342 1 0.998037
0.999736 1 1 0.999736
0.999169 1 1.00004 0.999128
0.998732 1 1 0.998732
0.999732 1 1.00096 0.998774
0.99892 1 1.00023 0.998692
1 1 1 1
1.00336 1.00552 1 0.997853
0.999727 1 1 0.999727
0.999344 1 1 0.999344
0.99905 1 1 0.99905
0.999485 1.00136 1 0.99813
1.00922 1.0115 1 0.997742
0.999032 1 1.00033 0.998702
1.00075 1.00064 1.00193 0.998184
1.00001 1.00187 1 0.998144
1.00091 1.00268 1 0.998237
1 1 1 1
0.99983 1 1 0.99983
0.998892 1 1 0.998892
0.999269 1 1.00003 0.99924
0.999383 1 1.00061 0.998776
1.0123 1.01464 1 0.997695
1.0048 1.0069 1 0.997915
1.01136 1.01368 1 0.997719
1.00049 1 1.00213 0.998362
1.00376 1.00572 1 0.998051
1.00124 1.00233 1.00096 0.997952
0.999872 1 1 0.999872
0.999399 1 1 0.999399
0.999071 1 1.00048 0.998595
0.999466 1 1.00052 0.998945
0.999449 1 1.0008 0.99865
1.01404 1.01634 1 0.997738
1.00709 1.00926 1 0.997858
1.01103 1.01318 1 0.997878
1.0019 1 1.00379 0.998116
1.00228 1.00448 1 0.997805
0.999898 1 1 0.999898
0.999512 1 1 0.999512
0.999557 1 1 0.999557
0.999368 1 1 0.999368
0.999583 1 1 0.999583
0.99992 1 1 0.99992
0.999919 1 1 0.999919
1 1 1 1
0.999913 1 1 0.999913
1 1 1 1
1 1 1 1
1 1 1 1
1 1 1 1
1 1 1 1
1 1 1 1
0.999993 1 1 0.999993
1 1 1 1
1 1 1 1
0.999972 1 1 0.999972
1 1 1 1
1.00504 1.00724 1 0.997816
1.00616 1.00842 1 0.997756
1.01609 1.01842 1 0.997716
1.01959 1.02196 1 0.997679
1.00645 1.00881 1 0.997655
0.998087 1 1 0.998087
1.00611 1.00849 1 0.997643
1.01947 1.02189 1 0.997634
1.01857 1.02092 1 0.997695
1.02368 1.026 0.999948 0.997787
1.01455 1.01688 1 0.99771
1.01964 1.0218 1 0.997891
1.01831 1.02075 1 0.997609
1.02285 1.02524 0.999948 0.997721
1.02192 1.02412 1 0.997854
1.02262 1.02522 0.999585 0.99788
1.01729 1.01951 1 0.997828
1.02058 1.0226 1 0.99803
1.00589 1.00823 1 0.997672
1.00517 1.00737 1 0.99782
1.01651 1.01888 1 0.99767
1.01551 1.01783 1 0.997717
0.9992 1 1 0.9992
0.998647 1 1 0.998646
0.999893 1.00161 1.00018 0.99811
1.00973 1.01191 1 0.997842
1.01569 1.01782 1 0.997909
1.01225 1.01439 1 0.997892
1.00803 1.01031 1 0.997743
1.01093 1.01292 1 0.99803
0.998894 1 1 0.998894
0.999089 1 1.00038 0.998712
0.999653 1 1 0.999653
0.999339 1 1.00032 0.999022
1.01737 1.01979 1 0.997619
1.01707 1.01943 1 0.99769
1.02211 1.02445 1 0.99771
1.01803 1.02024 1 0.997833
0.998829 1 1 0.998829
0.998451 1.00004 1.00003 0.998382
1.00288 1.00472 1.00039 0.997776
1.01448 1.01664 1 0.99788
1.01727 1.01927 1 0.99804
1.00998 1.0123 1 0.997712
1.01235 1.0143 1 0.998082
1.01234 1.01429 1 0.998074
0.998732 1 1 0.998732
0.998768 1 1.00008 0.998693
1.00002 1 1.00125 0.998769
0.999706 1 1 0.999706
0.99915 1 1 0.999147
1.02261 1.02498 1 0.997695
1.02196 1.02426 1 0.997755
1.01829 1.0204 0.99993 0.998001
1.01487 1.01682 1 0.998078
0.998644 1 1 0.998644
1.01424 1.01606 1 0.998209
0.998441 1.00001 1.00029 0.998144
1.006 1.00796 1.00051 0.997549
1.01053 1.01288 1 0.997683
0.999745 1 1 0.999745
0.999313 1 1 0.999313
0.999316 1 1.00039 0.998927
0.998694 1 1 0.998694
1.00078 1 1.00217 0.998613
0.998638 1 1 0.998638
1 1 1 1
0.999836 1 1 0.999836
1.01261 1.01495 1 0.99769
0.999241 1 1 0.999241
0.998893 1 1 0.998893
0.999609 1 1.00085 0.998756
1.00439 1.00648 1 0.997915
1.01122 1.01354 1 0.997711
1.00065 1 1.00229 0.998366
1.0008 1.00206 1.00077 0.997972
1.00481 1.00675 1 0.998067
0.999876 1 1 0.999876
0.999401 1 1 0.999401
0.999015 1 1.00041 0.998601
0.999671 1 1.00073 0.998943
0.999714 1 1.00108 0.998639
1.0142 1.01651 1 0.997733
1.00757 1.00974 1 0.99785
1.01091 1.01304 1 0.9979
1.00133 1 1.00324 0.998094
1.00194 1.00412 1.00006 0.997775
0.999495 1 1 0.999495
0.99922 1 1.00015 0.999068
1.00042 1 1.002 0.998427
1.00029 1 1.00161 0.998687
0.999519 1 1.00099 0.998536
1.01677 1.01872 1 0.998082
1.00716 1.0094 1 0.997776
1.00914 1.01124 1 0.997925
1.00311 1.00084 1.00433 0.997942
1.00003 1.00247 1 0.997569
0.999901 1 1 0.999901
0.999528 1 1 0.999528
0.999279 1 1 0.999279
0.999538 1 1 0.999538
0.999583 1 1 0.999583
0.99934 1 1 0.99934
0.999201 1 1 0.999201
0.999322 1 1 0.999322
0.999587 1 1 0.999587
0.999917 1 1 0.999917
0.99992 1 1 0.99992
1 1 1 1
0.99992 1 1 0.99992
1 1 1 1
1 1 1 1
1 1 1 1
1 1 1 1
1 1 1 1
1 1 1 1
0.999999 1 1 0.999999
1 1 1 1
0.99999 1 1 0.99999
1 1 1 1
1 1 1 1
1.01478 1.01711 1 0.997706
1.0184 1.02075 1 0.997695
1.01988 1.02203 1 0.997904
1.02317 1.02557 0.999854 0.997807
1.01938 1.02181 1 0.997627
1.00614 1.00852 1 0.997644
1.01844 1.02089 1 0.997598
1.02301 1.0254 0.999955 0.997714
1.02188 1.0241 1 0.997835
1.02222 1.02482 0.999574 0.997892
1.01672 1.01893 1 0.997828
1.02013 1.02211 1 0.998062
1.02175 1.02412 1 0.997682
1.02341 1.02631 0.999307 0.997861
1.02251 1.02481 0.999763 0.997998
1.01864 1.02055 1 0.998131
1.01728 1.0197 1 0.99762
1.01686 1.01922 1 0.99768
1.02207 1.0244 1 0.997723
1.01742 1.01964 1 0.997821
0.998824 1 1 0.998824
0.99844 1.00002 1 0.998424
1.00314 1.0048 1.00058 0.99777
1.01416 1.01634 1 0.997858
1.01744 1.01939 1 0.998083
1.01227 1.01422 1 0.998085
1.0097 1.01203 1 0.9977
1.01315 1.01507 1 0.998111
0.998731 1 1 0.998731
0.998693 1 1 0.998693
1.00058 1 1.00182 0.998764
0.999676 1 1 0.999676
0.999166 1 1 0.999166
1.02245 1.02481 1 0.997699
1.02215 1.02444 1 0.99776
1.01819 1.02036 0.999886 0.997995
0.998638 1 1 0.998638
0.998752 1.00031 1.00026 0.998183
1.00571 1.00742 1.00076 0.997539
1.01529 1.01726 1 0.998068
1.01033 1.01262 1 0.997743
1.01339 1.01523 1 0.998195
0.999753 1 1 0.999753
0.99869 1 1 0.99869
0.998683 1 1 0.998683
1.00067 1 1.00207 0.998602
0.999282 1 1.00035 0.998937
0.999289 1 1 0.999289
1.02292 1.02537 0.999853 0.997763
1.02221 1.02594 0.998445 0.997909
1.01716 1.01969 0.999429 0.998089
1.01924 1.02121 0.999829 0.998242
0.998523 1 1 0.998523
1.0115 1.01358 1 0.997947
1.00012 1.00072 1.00165 0.997761
1.00466 1.00622 1.00104 0.99741
0.99982 1 1 0.99982
0.999416 1 1 0.999416
0.999061 1 1 0.999061
1.00095 1 1.00228 0.99868
0.998615 1 1 0.998615
0.999229 1 1.00071 0.998521
0.999881 1 1 0.999881
0.999404 1 1 0.999404
1.01446 1.01677 1 0.997728
0.999643 1 1.0007 0.998941
0.998877 1 1.00027 0.998608
0.99995 1 1.00132 0.998628
1.00818 1.01036 1 0.997842
1.01096 1.01307 1 0.997923
1.0008 1 1.00273 0.998072
1.00173 1.00372 1.00027 0.997744
0.999497 1 1 0.999497
0.999084 1 1.00001 0.999079
1.00042 1 1.00198 0.998444
1.00061 1 1.00192 0.998691
0.999056 1 1.00048 0.998581
1.01677 1.01869 1 0.998106
1.0068 1.00904 1 0.997777
1.01 1.01202 1 0.998
1.00305 1.00055 1.00458 0.997916
1.00063 1.00308 1.00003 0.997529
0.999219 1 1 0.999219
0.999083 1 1.0003 0.998787
1.00207 1 1.00378 0.99829
0.999848 1 1.00141 0.998437
1.02076 1.02504 0.997553 0.998272
1.01426 1.01622 0.999872 0.998194
1.00492 1.00734 1 0.997594
1.00296 1.00114 1.00426 0.997575
0.999544 1 1 0.999544
0.999292 1 1 0.999292
0.999146 1 1 0.999146
0.999583 1 1 0.999583
0.999312 1 1 0.999312
0.999587 1 1 0.999587
0.999183 1 1 0.999183
0.999333 1 1 0.999333
0.999076 1 1 0.999076
0.999166 1 1 0.999166
0.999315 1 1 0.999315
0.999578 1 1 0.999578
0.999912 1 1 0.999912
0.999916 1 1 0.999916
1 1 1 1
0.99992 1 1 0.99992
1 1 1 1
1 1 1 1
1 1 1 1
1 1 1 1
1 1 1 1
1 1 1 1
1 1 1 1
1 1 1 1
0.999998 1 1 0.999998
1 1 1 1
1 1 1 1
1.01614 1.01835 1 0.997829
1.02183 1.02406 1 0.997816
1.01967 1.02161 1 0.998094
1.02182 1.02437 0.99961 0.997903
1.02321 1.02556 1 0.997706
1.0186 1.02107 1 0.997588
1.02174 1.02411 1 0.997689
1.0223 1.02516 0.999348 0.997854
1.02234 1.02477 0.999631 0.997999
1.02002 1.02193 1 0.99813
1.02303 1.02576 0.999529 0.997806
1.02465 1.02953 0.997231 0.998031
1.02424 1.02708 0.999091 0.998139
1.02229 1.02465 1 0.997702
1.02232 1.02461 1 0.997764
1.01807 1.02027 0.999851 0.997988
0.998632 1 1 0.998632
0.999047 1.00065 1.00018 0.998222
1.00522 1.00686 1.00085 0.997529
1.01567 1.01765 1 0.998058
1.01267 1.01452 1 0.998181
1.01045 1.01268 1 0.997803
0.998685 1 1 0.998685
0.998727 1 1 0.998727
1.00042 1 1.00183 0.99859
0.999761 1 1 0.999761
0.999153 1 1.00021 0.998946
0.999265 1 1 0.999265
1.02359 1.02601 0.999874 0.997768
1.02282 1.02604 0.998948 0.997915
1.01724 1.01966 0.999542 0.998079
0.998514 1 1 0.998514
1.00018 1.00095 1.0014 0.997841
1.00434 1.00602 1.0009 0.997436
1.01914 1.02114 0.999795 0.998254
1.01205 1.01414 1 0.997937
0.999852 1 1 0.999852
0.999416 1 1 0.999416
0.998628 1 1 0.998628
0.999639 1 1.00107 0.998575
1.00093 1 1.00225 0.99869
0.999042 1 1 0.999042
1.0255 1.02959 0.998076 0.997947
1.01751 1.02408 0.995521 0.998046
1.01828 1.02167 0.998409 0.998275
1.01622 1.01801 0.999951 0.998285
0.999214 1 1.00088 0.998332
1.0039 1.00502 1.0014 0.99749
1.00157 1.00136 1.00264 0.997573
0.999925 1 1 0.999925
0.999614 1 1 0.999614
0.999453 1 1 0.999453
0.999121 1 1 0.999121
0.999365 1 1.00054 0.998822
1.00012 1 1.00156 0.99856
0.99865 1 1 0.99865
1.00779 1 1.00911 0.998687
0.999499 1 1 0.999499
0.999089 1 1 0.999089
1.01665 1.01855 1 0.99813
1.00105 1 1.00236 0.998694
1.00061 1 1.00215 0.998462
0.998661 1 1.00004 0.998626
1.0063 1.00854 1 0.997778
1.01084 1.01279 1 0.998074
1.00306 1.00037 1.00482 0.997891
1.00126 1.00378 1 0.997489
0.999205 1 1 0.999205
0.999388 1 1.00059 0.998797
1.00246 1 1.00415 0.998311
0.999616 1 1.00116 0.998461
1.02162 1.02572 0.997719 0.998279
1.01371 1.01562 0.999949 0.998166
1.0058 1.00819 1 0.997632
1.00254 1.00123 1.00377 0.99754
0.999035 1 1 0.999035
1.02011 1.02603 0.99596 0.998264
1.00018 1 1.00161 0.998572
1.00076 1 1.00268 0.998083
1.0189 1.02192 0.99867 0.99837
1.00624 1.00855 1 0.997703
1.00415 1.00351 1.00323 0.997411
0.999304 1 1 0.999304
0.999144 1 1 0.999144
0.999023 1 1 0.999023
0.999586 1 1 0.999586
0.999344 1 1 0.999344
0.999164 1 1 0.999164
0.999576 1 1 0.999576
0.999317 1 1 0.999317
0.999059 1 1 0.999059
0.999187 1 1 0.999187
0.998977 1 1 0.998977
0.999044 1 1 0.999044
0.999174 1 1 0.999174
0.99931 1 1 0.99931
0.999557 1 1 0.999557
0.999905 1 1 0.999905
0.999911 1 1 0.999911
1 1 1 1
0.999915 1 1 0.999915
1 1 1 1
1 1 1 1
1 1 1 1
1 1 1 1
1 1 1 1
0.99995 1 1 0.99995
1 1 1 1
1 1 1 1
1 1 1 1
1 1 1 1
1 1 1 1
1 1 1 1
1.02141 1.02332 1 0.998129
1.02223 1.02477 0.999516 0.998001
1.0212 1.02406 0.999361 0.997846
1.02173 1.02409 1 0.997695
1.02296 1.0257 0.999499 0.997822
1.0252 1.02987 0.997439 0.99802
1.02416 1.02721 0.998877 0.998153
1.0248 1.03082 0.996146 0.998002
1.02753 1.03308 0.996471 0.998151
1.01265 1.02366 0.990875 0.998353
1.02425 1.02665 0.999895 0.997773
1.02345 1.0262 0.999391 0.997922
1.0173 1.01965 0.999621 0.99807
0.99856 1 1.00006 0.998504
1.00037 1.00119 1.00126 0.99792
1.00382 1.00559 1.00078 0.997462
1.01917 1.02118 0.999765 0.998265
1.0121 1.0142 1 0.997928
0.998641 1 1 0.998641
1.00013 1 1.0015 0.998628
1.00112 1 1.00242 0.9987
0.999884 1 1 0.999884
0.999416 1 1 0.999416
0.999022 1 1 0.999022
1.02475 1.02922 0.997691 0.997961
0.999921 1 1 0.999921
0.999596 1 1 0.999596
1.01762 1.02344 0.996261 0.998045
1.01904 1.0224 0.998474 0.998243
0.999237 1 1.00084 0.998398
1.00209 1.00126 1.0033 0.997543
1.00415 1.00583 1.00084 0.997495
1.01536 1.01714 0.999982 0.998271
0.999505 1 1 0.999505
0.999119 1 1 0.999119
0.998597 1 1 0.998597
1.00468 1 1.00591 0.998778
1.00041 1 1.00187 0.998546
0.999406 1 1.00058 0.998831
1.02643 1.03227 0.996219 0.998115
1.01106 1.02209 0.991011 0.998183
1.01666 1.02081 0.997472 0.998466
1.00518 1.00734 0.999845 0.998006
1.00072 1 1.00234 0.998378
1.004 1.00115 1.00547 0.99739
0.999615 1 1 0.999615
0.999565 1 1 0.999565
0.999366 1 1 0.999366
0.999131 1 1 0.999131
0.998944 1 1 0.998944
0.99945 1 1.00084 0.998615
1.01283 1 1.01436 0.998498
1.00003 1 1.00122 0.99881
0.999191 1 1 0.999191
0.999411 1 1.00061 0.998807
1.02251 1.02642 0.997901 0.998286
1.01327 1.01516 1 0.998139
0.999359 1 1.00088 0.998485
1.00274 1 1.00441 0.998331
1.00684 1.00915 1.00004 0.997671
1.0021 1.00125 1.00335 0.997504
0.999029 1 1 0.999029
1.02071 1.02757 0.995017 0.998289
1.00006 1 1.00148 0.998587
1.00074 1 1.00269 0.998057
1.01814 1.02126 0.998605 0.998345
1.00686 1.00914 1 0.997742
1.00382 1.00292 1.00348 0.997423
0.999807 1 1.00102 0.998787
1.01648 1.02578 0.992347 0.998579
0.999899 1 1.00151 0.99839
1.00218 1.00058 1.00379 0.997813
1.009 1.01389 0.997124 0.998046
1.00166 1.00194 1.00221 0.99751
1.00466 1.00805 0.997971 0.998664
0.999142 1 1 0.999142
0.999048 1 1.00003 0.999021
0.998906 1 1 0.998906
0.999575 1 1 0.999575
0.999319 1 1 0.999319
0.999208 1 1 0.999208
0.999041 1 1 0.999041
0.999556 1 1 0.999556
0.9993 1 1 0.9993
0.998962 1 1 0.998962
0.999173 1 1 0.999173
0.99906 1 1 0.99906
0.998953 1 1 0.998953
0.999058 1 1 0.999058
0.999169 1 1 0.999169
0.999252 1 1 0.999252
0.999499 1 1 0.999499
0.999347 1 1 0.999347
0.999498 1 1 0.999498
0.999899 1 1 0.999899
0.999905 1 1 0.999905
1 1 1 1
0.99991 1 1 0.99991
1 1 1 1
1 1 1 1
1 1 1 1
1 1 1 1
1 1 1 1
0.999964 1 1 0.999964
0.999947 1 1 0.999947
1 1 1 1
1 1 1 1
1 1 1 1
1 1 1 1
1 1 1 1
1 1 1 1
1.02408 1.02734 0.998657 0.998166
1.02572 1.03023 0.997618 0.998008
1.02289 1.02566 0.999467 0.997838
1.02461 1.03058 0.996199 0.998
1.02612 1.0315 0.996622 0.998148
1.0132 1.02352 0.991563 0.998337
1.02322 1.03233 0.992947 0.998218
1.00279 1.01596 0.988991 0.998021
1.01198 1.02471 0.988812 0.998755
0.999686 1 1 0.999686
1.02401 1.02881 0.997355 0.997975
1.01798 1.02285 0.997191 0.998045
1.01967 1.02303 0.998498 0.998212
0.999283 1 1.00082 0.998464
1.0028 1.00128 1.00402 0.997512
1.00473 1.0068 1.00045 0.997499
1.01448 1.01625 1 0.998257
0.998544 1 1 0.998544
1.00158 1 1.00272 0.99887
1.00055 1 1.00202 0.998531
0.999918 1 1 0.999918
0.999424 1 1.00058 0.998841
0.999557 1 1 0.999557
0.999116 1 1 0.999116
0.999578 1 1 0.999578
1.02558 1.03291 0.994772 0.998123
0.99964 1 1 0.99964
0.999564 1 1 0.999564
0.99933 1 1 0.99933
1.01168 1.02187 0.991822 0.998186
1.01628 1.02032 0.997617 0.998418
1.00004 1 1.00164 0.998396
1.00371 1.00076 1.00555 0.997415
1.00459 1.00652 1.00007 0.998006
0.999158 1 1 0.999158
0.998982 1 1.00006 0.998924
1.00212 1 1.00338 0.998749
1.0104 1 1.01189 0.998534
0.999285 1 1.00065 0.998637
1.01607 1.02619 0.991925 0.998201
1.01109 1.02477 0.988327 0.998302
1.00992 1.01332 0.998437 0.998199
1.00481 1.00379 1.00317 0.997853
1.00324 1 1.00484 0.998403
0.999321 1 1 0.999321
0.999222 1 1 0.999222
0.999118 1 1 0.999118
0.998946 1 1 0.998946
0.999152 1 1.00038 0.99877
1.00921 1 1.01069 0.998531
1.01204 1 1.0136 0.998455
0.999022 1 1 0.999022
1.00004 1 1.00144 0.998601
1.02098 1.02906 0.993823 0.998315
1.01723 1.0205 0.998481 0.998319
1.00726 1.0095 1 0.997782
1.0007 1 1.00268 0.998031
1.00327 1.00225 1.0036 0.997434
0.99973 1 1.00091 0.99882
1.01553 1.02549 0.991681 0.998588
0.999629 1 1.00122 0.998414
1.00218 1.00028 1.00408 0.997823
1.01021 1.01447 0.997685 0.998116
1.00214 1.00196 1.00269 0.997496
1.00449 1.00828 0.997979 0.998266
0.999853 1 1.00119 0.998663
1.0051 1.01656 0.990145 0.998572
1.00032 1 1.00194 0.998376
1.00417 1.00004 1.00636 0.997785
1.00362 1.00478 1.00104 0.99781
0.955447 0.978659 0.988018 0.988121
0.979462 0.988084 0.996871 0.994386
0.981131 0.999795 0.98256 0.998749
0.873001 0.911706 0.970818 0.98633
0.840448 0.913192 0.934802 0.984531
0.999039 1 1.00002 0.999019
0.99893 1 1.00001 0.99892
0.998931 1 1 0.998931
0.999556 1 1 0.999556
0.999291 1 1 0.999291
0.999172 1 1 0.999172
0.999076 1 1 0.999076
0.998946 1 1 0.998946
0.99915 1 1 0.99915
0.99952 1 1 0.99952
0.999266 1 1 0.999266
0.998957 1 1 0.998957
0.999059 1 1 0.999059
0.999067 1 1 0.999067
0.999014 1 1 0.999014
0.999098 1 1 0.999098
0.999225 1 1 0.999225
0.99949 1 1 0.99949
0.999286 1 1 0.999286
0.999188 1 1 0.999188
0.999323 1 1 0.999323
0.999319 1 1 0.999319
0.999549 1 1 0.999549
0.999496 1 1 0.999496
0.999895 1 1 0.999895
0.999899 1 1 0.999899
1 1 1 1
0.999904 1 1 0.999904
1 1 1 1
1 1 1 1
1 1 1 1
1 1 1 1
1 1 1 1
0.999971 1 1 0.999971
0.999961 1 1 0.999961
1 1 1 1
0.999944 1 1 0.999944
1 1 1 1
1 1 1 1
1 1 1 1
1 1 1 1
1 1 1 1
1.02474 1.02995 0.996794 0.998145
1.02438 1.03028 0.996263 0.997999
1.01381 1.02327 0.992425 0.998321
1.00345 1.01572 0.989837 0.998059
1.02187 1.031 0.992917 0.998216
1.01616 1.02652 0.991218 0.998684
1.02299 1.02937 0.995544 0.998249
0.966034 0.984914 0.987153 0.993596
1.00919 1.01935 0.99162 0.998399
0.999695 1 1 0.999695
0.999685 1 1 0.999685
0.999403 1 1 0.999403
0.999431 1 1 0.999431
1.02444 1.03339 0.993196 0.998131
1.01184 1.02129 0.992541 0.998189
1.01604 1.01983 0.997909 0.998371
0.999186 1 1.00077 0.998415
1.0032 1.00042 1.00536 0.99744
1.00406 1.00594 1.00013 0.998006
1.00408 1 1.0054 0.998687
1.00805 1 1.0095 0.99857
0.999107 1 1.00045 0.998659
0.999563 1 1 0.999563
0.998962 1 1.00006 0.998903
0.999186 1 1 0.999186
0.999666 1 1 0.999666
0.999293 1 1 0.999293
1.01418 1.02506 0.991152 0.998216
0.99936 1 1 0.99936
0.999249 1 1 0.999249
0.999135 1 1 0.999135
1.01325 1.02645 0.988815 0.99831
1.00873 1.01248 0.998102 0.998195
1.00308 1 1.0047 0.998394
1.00477 1.00416 1.00275 0.997855
0.99901 1 1.00006 0.998946
0.9989 1 1.00014 0.998759
1.01248 1 1.01405 0.998455
1.01027 1 1.01177 0.998508
1.01017 1.02674 0.985581 0.998258
1.00198 1.02017 0.983853 0.998284
1.00531 1.00695 1.00046 0.997911
1.00131 1.00026 1.00268 0.998377
0.999038 1 1 0.999038
0.999126 1 1.00013 0.998997
1.00202 1 1.00328 0.998745
1.02202 1 1.02376 0.998308
0.941285 0.972849 0.979746 0.987557
0.999766 1 1.00091 0.998853
0.999519 1 1.00108 0.998438
1.01429 1.025 0.990936 0.998596
1.0114 1.01495 0.998313 0.998185
1.00289 1.00212 1.0033 0.997483
1.00229 1 1.00447 0.997833
1.00361 1.00826 0.997521 0.99786
0.999832 1 1.00115 0.998688
1.00432 1.01657 0.989381 0.998558
0.999822 1 1.00144 0.998387
1.00392 1.00003 1.00611 0.997786
1.00362 1.00578 1.00001 0.997834
0.953795 0.979726 0.985515 0.987841
0.974233 0.986045 0.995176 0.99281
0.98334 0.997995 0.986514 0.998786
0.875848 0.911354 0.974533 0.986154
0.824612 0.901225 0.930595 0.983233
0.999476 1 1.00067 0.998811
0.893669 0.927647 0.97674 0.986314
0.878446 0.917607 0.971383 0.985525
0.983009 1.00643 0.978222 0.998477
1.00492 1 1.00646 0.998465
1.01048 1.00231 1.01019 0.997985
0.980612 0.993673 0.987922 0.99892
0.955068 0.972343 0.994707 0.98746
0.962257 0.970081 0.999722 0.992209
0.85418 0.912023 0.949421 0.986472
0.882586 0.945358 0.946515 0.986355
0.998988 1 1.00005 0.998934
0.998924 1 1 0.998924
0.999121 1 1 0.999121
0.999541 1 1 0.999541
0.999279 1 1 0.999279
0.99913 1 1 0.99913
0.99906 1 1 0.99906
0.99896 1 1 0.99896
0.999491 1 1 0.999491
0.999063 1 1 0.999063
0.999116 1 1 0.999116
0.999247 1 1 0.999247
0.999011 1 1 0.999011
0.999023 1 1 0.999023
0.999229 1 1.0002 0.999032
0.999084 1 1 0.999084
0.999258 1 1 0.999258
0.999285 1 1 0.999285
0.999173 1 1 0.999173
0.999134 1 1 0.999134
0.999167 1 1 0.999167
0.99911 1 1 0.99911
0.999046 1 1 0.999046
0.999303 1 1 0.999303
0.999323 1 1 0.999323
0.999556 1 1 0.999556
0.999292 1 1 0.999292
0.999532 1 1 0.999532
0.999894 1 1 0.999894
0.999495 1 1 0.999495
0.999895 1 1 0.999895
1 1 1 1
0.999899 1 1 0.999899
1 1 1 1
1 1 1 1
1 1 1 1
1 1 1 1
1 1 1 1
0.999679 1 1 0.999679
0.999971 1 1 0.999971
0.999969 1 1 0.999969
1 1 1 1
0.999958 1 1 0.999958
1 1 1 1
1 1 1 1
1 1 1 1
1 1 1 1
1 1 1 1
1.00461 1.01579 0.990877 0.9981
1.02088 1.02988 0.993036 0.998214
1.02004 1.02857 0.993083 0.998613
0.96532 0.982068 0.988466 0.994415
1.00949 1.01907 0.992116 0.998475
1.02479 1.03187 0.994905 0.998218
1.01669 1.02351 0.995093 0.998237
0.971757 0.984431 0.992138 0.994947
0.955547 0.977545 0.990544 0.986828
0.853329 0.90333 0.95863 0.985415
0.823609 0.88996 0.940297 0.984204
0.999391 1 1 0.999391
0.999695 1 1 0.999695
0.999684 1 1 0.999684
0.999391 1 1 0.999391
0.99921 1 1 0.99921
0.999247 1 1 0.999247
0.999392 1 1 0.999392
0.999412 1 1 0.999412
1.01279 1.02436 0.990464 0.99823
1.01581 1.02881 0.989034 0.998318
1.00754 1.01163 0.997761 0.998192
1.00326 1 1.00488 0.998386
1.00488 1.00431 1.00272 0.997858
1.01272 1 1.01428 0.998456
1.01138 1 1.01291 0.998486
0.998749 1 1 0.998749
0.999275 1 1 0.999275
0.998946 1 1 0.998946
0.9994 1 1 0.9994
0.999152 1 1 0.999152
1.01097 1.02689 0.986236 0.99824
0.999061 1 1 0.999061
0.999009 1 1 0.999009
1.00318 1.01944 0.985761 0.998264
1.00457 1.00682 0.999758 0.998011
1.00317 1.00056 1.00429 0.998322
1.00337 1 1.00467 0.998713
1.01943 1 1.02115 0.998315
1.00987 1.02419 0.987779 0.998224
0.984941 1.0062 0.980542 0.9983
0.998793 1.00043 1.00008 0.998279
1.0072 1 1.00882 0.998402
0.998906 1 1 0.998906
1.00104 1 1.00225 0.9988
1.01743 1 1.01895 0.998505
0.881936 0.930877 0.960187 0.986709
0.951342 0.975278 0.986598 0.988707
0.999611 1 1.0009 0.998714
0.999463 1 1.00107 0.998398
1.00478 1.01707 0.989362 0.998546
1.00372 1.00699 0.998899 0.997858
1.00349 1 1.00571 0.997787
0.952959 0.976869 0.988543 0.98683
0.976548 0.989327 0.993539 0.993503
0.985582 0.996715 0.989998 0.99882
0.869886 0.91208 0.967151 0.986132
0.8102 0.888544 0.928617 0.981922
0.999214 1 1.0004 0.998812
0.886617 0.930398 0.965786 0.986702
0.874733 0.912844 0.97285 0.984993
0.984921 1.00721 0.979375 0.998467
1.00446 1 1.00598 0.998485
1.00957 1.00117 1.01032 0.998089
0.972669 0.9894 0.984087 0.998986
0.959264 0.978187 0.994013 0.986562
0.964716 0.973874 0.99684 0.993736
0.856086 0.906483 0.9585 0.985294
0.882251 0.94637 0.945665 0.985811
1.00106 1 1.00206 0.999003
0.901577 0.924085 0.988528 0.986964
0.958498 0.971833 0.995629 0.990609
0.989223 1.00069 0.989627 0.998906
1.01187 1.00109 1.01189 0.99889
0.989986 0.983155 1.00772 0.999236
0.950732 0.964017 0.991352 0.994823
0.949285 0.960596 1.00179 0.986459
0.874426 0.925462 0.958718 0.985538
0.910925 0.964758 0.955335 0.988345
0.998917 1 1 0.998917
0.9991 1 1 0.9991
0.999715 1 1.00042 0.999294
0.999491 1 1 0.999491
0.999269 1 1 0.999269
0.999134 1 1 0.999134
0.99906 1 1 0.99906
0.999008 1 1 0.999008
0.999257 1 1 0.999257
0.999031 1 1 0.999031
0.999084 1 1 0.999084
0.999295 1 1.00024 0.999051
1.00188 1 1.00266 0.999224
0.999094 1 1.00009 0.999007
0.999082 1 1 0.999082
0.999283 1 1 0.999283
0.999159 1 1 0.999159
0.999134 1 1 0.999134
0.999165 1 1 0.999165
0.999113 1 1 0.999113
0.999125 1 1 0.999125
0.99908 1 1 0.99908
0.999092 1 1 0.999092
0.998895 1 1 0.998895
0.999441 1 1.00082 0.998617
0.998935 1 1 0.998935
0.999043 1 1 0.999043
0.999255 1 1 0.999255
0.999302 1 1 0.999302
0.99955 1 1 0.99955
0.999323 1 1 0.999323
0.999556 1 1 0.999556
0.999894 1 1 0.999894
0.999514 1 1 0.999514
0.999894 1 1 0.999894
1 1 1 1
0.999895 1 1 0.999895
1 1 1 1
1 1 1 1
1 1 1 1
1 1 1 1
1 1 1 1
0.999698 1 1 0.999698
0.999964 1 1 0.999964
0.999679 1 1 0.999679
1 1 1 1
0.999971 1 1 0.999971
0.999968 1 1 0.999968
1 1 1 1
1 1 1 1
1 1 1 1
1 1 1 1
1 1 1 1
0.882466 0.920936 0.971349 0.986491
0.883691 0.919457 0.974645 0.986104
0.967164 0.984421 0.987486 0.99492
1.01104 1.01871 0.993902 0.998552
1.02651 1.03399 0.994576 0.998187
0.967269 0.979376 0.991441 0.996164
1.01656 1.02321 0.995211 0.998275
0.958663 0.98059 0.98941 0.988104
0.867541 0.90935 0.967465 0.986107
0.814253 0.88789 0.933043 0.982876
0.990579 0.999188 0.99414 0.997227
0.95512 0.972418 0.994266 0.987877
0.846361 0.906306 0.946946 0.986178
0.880011 0.939143 0.951053 0.985261
0.999138 1 1 0.999138
0.999409 1 1 0.999409
0.999694 1 1 0.999694
0.999379 1 1 0.999379
0.999234 1 1 0.999234
0.999165 1 1 0.999165
0.999246 1 1 0.999246
0.999279 1 1 0.999279
0.999369 1 1 0.999369
0.999393 1 1 0.999393
1.01137 1.02661 0.986904 0.998222
1.00345 1.01783 0.987595 0.998246
1.00389 1.00683 0.998958 0.998112
1.00469 1.00087 1.00556 0.998266
1.01637 1 1.01807 0.998323
1.00476 1 1.00609 0.998681
0.999021 1 1 0.999021
0.999083 1 1 0.999083
1.009 1.02442 0.986703 0.998225
0.998895 1 1 0.998895
1.00101 1 1.00224 0.998773
0.986007 1.00514 0.982706 0.998231
0.998961 1.00031 1.00025 0.9984
1.00766 1.00007 1.0093 0.998308
1.01515 1 1.01669 0.998481
1.00033 1.00584 0.996002 0.998511
0.989028 1 0.990142 0.998875
1.01323 1 1.01477 0.998479
0.999312 1 1.00043 0.99888
0.999646 1 1.00091 0.99874
1.0092 1 1.01063 0.998591
0.906677 0.92937 0.986823 0.988609
0.889954 0.930396 0.969778 0.986341
0.946775 0.976516 0.981766 0.987551
0.998813 1 1 0.998813
1.00404 1 1.00554 0.998506
0.987596 1.00772 0.981541 0.998458
1.00873 1 1.01056 0.998193
0.881386 0.926341 0.964775 0.98621
0.958037 0.975893 0.993407 0.988218
0.961131 0.974444 0.994013 0.992278
0.96897 0.985834 0.983825 0.999054
0.857823 0.907131 0.959313 0.985751
0.876569 0.916897 0.970701 0.984873
0.875317 0.942449 0.942207 0.985737
1.00165 1 1.00265 0.999008
0.902708 0.927279 0.985956 0.987368
0.961879 0.97454 0.996422 0.990553
0.991404 1.00038 0.99205 0.998965
1.01126 1.00021 1.01219 0.998873
0.988666 0.983361 1.00636 0.999045
0.951814 0.964787 0.993436 0.993072
0.951143 0.965576 0.998018 0.987008
0.881651 0.933759 0.957252 0.986361
0.902264 0.957289 0.953716 0.988261
1.00239 0.999757 1.00316 0.999478
0.960792 0.974462 0.993218 0.992704
0.952629 0.965899 0.992862 0.993351
1.00644 0.993406 1.01341 0.999715
0.969094 0.968327 1.00391 0.996894
0.957081 0.962349 1.00826 0.986383
0.916544 0.951288 0.976613 0.98655
0.918339 0.976432 0.95213 0.98779
0.99908 1 1 0.99908
0.999649 1 1.00036 0.999294
1.00628 1 1.00685 0.999437
0.999256 1 1 0.999256
0.999084 1 1 0.999084
0.99904 1 1 0.99904
0.999351 1 1.00028 0.99907
0.999081 1 1 0.999081
0.999036 1 1.00003 0.999005
1.00381 1 1.00456 0.999258
1.00789 0.998587 1.00987 0.999446
1.00263 1 1.00347 0.99916
0.999023 1 1 0.999023
0.999133 1 1 0.999133
0.999162 1 1 0.999162
0.999116 1 1 0.999116
0.999085 1 1 0.999085
0.999124 1 1 0.999124
0.999097 1 1 0.999097
0.999031 1 1 0.999031
0.999162 1 1 0.999162
0.998911 1 1 0.998911
0.998916 1 1 0.998916
0.999402 1 1.00069 0.998708
0.999802 1 1.00151 0.998296
0.998906 1 1.00005 0.998861
0.99939 1 1.0007 0.998692
0.998964 1 1 0.998964
0.999142 1 1 0.999142
0.999041 1 1 0.999041
0.999254 1 1 0.999254
0.999521 1 1 0.999521
0.9993 1 1 0.9993
0.999549 1 1 0.999549
0.999893 1 1 0.999893
0.999556 1 1 0.999556
0.999894 1 1 0.999894
1 1 1 1
0.999894 1 1 0.999894
1 1 1 1
1 1 1 1
1 1 1 1
1 1 1 1
1 1 1 1
0.999596 1 1 0.999596
0.999954 1 1 0.999954
0.999655 1 1 0.999655
1 1 1 1
0.999966 1 1 0.999966
0.999679 1 1 0.999679
1 1 1 1
1 1 1 1
0.999971 1 1 0.999971
1 1 1 1
1 1 1 1
1 1 1 1
0.907254 0.928624 0.988705 0.988149
0.884947 0.92546 0.969706 0.986097
0.960487 0.976285 0.993317 0.990437
0.874597 0.91251 0.972507 0.985547
0.964306 0.980722 0.988754 0.994444
1.01527 1.02305 0.994072 0.998313
0.961093 0.981094 0.990157 0.989353
0.868583 0.912862 0.96537 0.985626
0.807303 0.887676 0.926558 0.981543
0.986962 0.997419 0.992909 0.996583
0.956138 0.973673 0.995344 0.986584
0.855304 0.912195 0.951906 0.985005
0.877415 0.939203 0.948738 0.98469
0.974941 0.987737 0.991079 0.99593
0.962433 0.967461 1.00875 0.986176
0.881365 0.935733 0.955293 0.985979
0.908403 0.965967 0.952552 0.98725
0.999 1 1 0.999
0.999164 1 1 0.999164
0.999426 1 1 0.999426
0.999259 1 1 0.999259
0.999022 1 1 0.999022
0.999182 1 1 0.999182
0.999246 1 1 0.999246
0.999254 1 1 0.999254
0.999304 1 1 0.999304
0.999347 1 1 0.999347
1.00827 1.02524 0.985197 0.998226
0.988348 1.00472 0.985514 0.998162
0.999055 1 1.00054 0.998519
1.00925 1.00044 1.01062 0.998215
1.01331 1 1.01488 0.998457
1.00077 1 1.00203 0.998747
0.998885 1 1 0.998885
0.999075 1 1.0002 0.99888
0.995473 1.00614 0.990856 0.998526
0.999445 1 1.0007 0.998751
1.00955 1 1.01098 0.998585
0.987749 1.00005 0.98889 0.998799
1.01237 1.00022 1.01371 0.998462
0.969736 0.993222 0.977334 0.998997
1.00562 0.999507 1.00684 0.999276
1.0123 1 1.01364 0.998679
0.999025 1 1.00026 0.998766
1.00622 1 1.00764 0.998591
0.959925 0.970321 0.995474 0.993784
0.909784 0.929231 0.990219 0.988744
0.884067 0.927165 0.966201 0.986871
1.00223 1 1.00322 0.999013
1.0106 0.999333 1.01243 0.998855
0.991603 1 0.992576 0.99902
0.912213 0.932588 0.990022 0.98801
0.959988 0.965337 1.00839 0.986186
0.954739 0.966136 0.993873 0.994296
0.980282 0.981231 1.00021 0.998827
0.883006 0.932936 0.960356 0.985551
0.964961 0.976858 0.997297 0.990499
0.900132 0.95595 0.952721 0.988338
1.00229 0.999527 1.0033 0.99946
0.959655 0.972804 0.993145 0.993293
0.955661 0.96873 0.993101 0.993363
1.00749 0.99478 1.01321 0.99957
0.970623 0.969673 1.00454 0.996458
0.952454 0.962858 1.00358 0.98567
0.920567 0.978824 0.951448 0.988475
0.908927 0.947163 0.973089 0.98617
1.00419 0.995559 1.00896 0.999711
0.947881 0.964991 0.985527 0.996694
0.963197 0.979173 0.989725 0.993896
0.91061 0.967174 0.953647 0.987279
0.993293 0.979521 1.01493 0.999146
0.971518 0.970349 1.01444 0.98695
0.90826 0.936627 0.982949 0.986536
0.999562 1 1.00027 0.999294
1.00522 1 1.00584 0.999388
1.01097 0.998764 1.01266 0.999566
0.99908 1 1 0.99908
0.999002 1 1 0.999002
1.00624 1 1.00696 0.999291
0.999031 1 1 0.999031
1.00266 1 1.0035 0.999163
1.00973 0.998877 1.01145 0.999421
1.00386 0.999099 1.00528 0.999489
1.00194 1 1.00279 0.999158
0.99909 1 1 0.99909
0.999122 1 1 0.999122
0.999102 1 1 0.999102
0.999152 1 1 0.999152
0.99904 1 1 0.99904
0.99944 1 1.00033 0.999111
0.999 1 1 0.999
1.00108 1 1.00259 0.998496
0.998936 1 1 0.998936
0.999246 1 1.00056 0.998684
0.999154 1 1.00101 0.998143
0.99953 1 1.00129 0.998244
0.999857 1 1.00115 0.998708
0.999659 1 1.00135 0.998314
0.999045 1 1 0.999045
0.998921 1 1.00009 0.998835
0.999289 1 1.00052 0.998767
0.998993 1 1 0.998993
0.999169 1 1 0.999169
0.999466 1 1 0.999466
0.999252 1 1 0.999252
0.99952 1 1 0.99952
0.999884 1 1 0.999884
0.999548 1 1 0.999548
0.999891 1 1 0.999891
1 1 1 1
0.999894 1 1 0.999894
1 1 1 1
1 1 1 1
1 1 1 1
1 1 1 1
1 1 1 1
0.999466 1 1 0.999466
0.999872 1 1 0.999872
0.999594 1 1 0.999594
1 1 1 1
0.999928 1 1 0.999928
0.999611 1 1 0.999611
1 1 1 1
1 1 1 1
0.999968 1 1 0.999968
1 1 1 1
1 1 1 1
1 1 1 1
0.957569 0.971029 0.992785 0.993305
0.896622 0.926541 0.979582 0.987879
0.886157 0.922996 0.973808 0.98591
0.999177 1 1 0.999177
0.950065 0.964194 0.991339 0.993954
0.964155 0.977074 0.996349 0.990394
0.869262 0.91292 0.966263 0.985422
0.98743 0.997957 0.993597 0.995828
0.959835 0.974426 0.997322 0.987671
0.86162 0.922136 0.948166 0.985454
0.86985 0.933764 0.946109 0.984614
0.976733 0.989033 0.993525 0.994001
0.949574 0.961376 1.0007 0.987034
0.889726 0.938253 0.961956 0.985783
0.906373 0.96348 0.953162 0.986956
0.961626 0.973221 0.9955 0.992553
0.960827 0.959093 1.01675 0.9853
0.909997 0.95003 0.971602 0.985857
0.916315 0.974275 0.952141 0.987784
0.99891 1 1.00004 0.998867
0.999049 1 1.00007 0.998983
0.99919 1 1 0.99919
0.999019 1 1 0.999019
0.999053 1 1 0.999053
0.9992 1 1 0.9992
0.99926 1 1 0.99926
0.999328 1 1 0.999328
0.990089 1.00576 0.985857 0.998539
0.985726 1 0.986986 0.998724
0.998879 1 1 0.998879
1.01085 1.00013 1.01229 0.998444
1.00985 1 1.01129 0.99858
0.99957 1 1.00081 0.998762
0.99913 1 1.00036 0.998774
0.974729 0.995105 0.980489 0.999016
1.00641 1 1.00781 0.998616
1.01045 1 1.01178 0.99868
0.999701 0.999542 1.00086 0.999301
0.999759 1 1.00096 0.998804
0.967127 0.986853 0.980642 0.999357
1.01053 0.99754 1.01358 0.999454
1.01433 1 1.0156 0.998749
1.0015 1 1.00277 0.998736
0.95926 0.967071 0.994695 0.997213
0.959613 0.969609 0.995791 0.993875
0.914006 0.929464 0.994424 0.988884
1.0019 0.999278 1.00318 0.999444
1.00975 0.99625 1.01413 0.999429
0.959208 0.971426 0.993504 0.993879
0.963926 0.962508 1.01487 0.986802
0.966311 0.967071 1.0049 0.994338
0.913042 0.950024 0.975321 0.985391
0.957198 0.970281 0.993096 0.993375
0.923801 0.982497 0.950564 0.989158
1.00499 0.9966 1.00875 0.999677
0.947813 0.964475 0.98597 0.996707
0.961053 0.977129 0.988823 0.994665
1.00199 0.986273 1.01607 0.999868
0.907946 0.965096 0.953207 0.986966
0.963346 0.964579 1.01234 0.986546
0.918562 0.950816 0.980187 0.985605
1.00811 0.993787 1.01464 0.999771
0.959434 0.976797 0.984855 0.997329
0.950814 0.965394 0.990859 0.993984
0.880407 0.941471 0.94907 0.985322
0.910132 0.952154 0.969823 0.985609
0.978006 0.974204 1.00519 0.998722
0.973121 0.962886 1.02598 0.985036
1.00365 1 1.00431 0.99934
1.00997 0.997998 1.01245 0.999547
1.00308 0.987976 1.01571 0.999582
0.99904 1 1 0.99904
1.00221 1 1.00305 0.999166
1.01112 0.999648 1.01208 0.999396
1.00045 1 1.0013 0.99915
1.00369 0.99913 1.00508 0.999488
1.00641 0.998327 1.00882 0.999283
0.999142 1 1 0.999142
0.999049 1 1 0.999049
1.00008 1 1.00099 0.999082
1.00651 1 1.00787 0.998656
0.999088 1 1 0.999088
1.00056 1 1.00198 0.998577
1.00216 1 1.00413 0.998039
1.00014 1.0005 1.00188 0.997768
0.999063 1 1.0004 0.998659
0.999174 1 1.00109 0.998081
0.998861 1 1.00053 0.998336
1.00075 1 1.0022 0.998546
0.999534 1 1.00124 0.998292
0.99971 1 1.00078 0.998931
0.999774 1 1.00107 0.998702
0.999577 1 1.00125 0.998332
0.999373 1 1 0.999373
0.999038 1 1 0.999038
0.998982 1 1.00017 0.998809
0.999195 1 1 0.999195
0.999464 1 1 0.999464
0.999864 1 1 0.999864
0.999519 1 1 0.999519
0.999881 1 1 0.999881
1 1 1 1
0.99989 1 1 0.99989
1 1 1 1
1 1 1 1
1 1 1 1
1 1 1 1
1 1 1 1
0.999414 1 1 0.999414
0.999817 1 1 0.999817
0.999491 1 1 0.999491
1 1 1 1
0.999867 1 1 0.999867
0.999593 1 1 0.999593
1 1 1 1
1 1 1 1
0.999901 1 1 0.999901
1 1 1 1
1 1 1 1
1 1 1 1
0.949263 0.964175 0.987784 0.99671
0.958131 0.971549 0.992836 0.993306
0.896675 0.927655 0.978392 0.987952
0.99919 1 1 0.99919
0.999151 1 1 0.999151
0.999052 1 1 0.999052
0.960813 0.977814 0.988677 0.993867
0.951405 0.964017 0.992899 0.993976
0.968057 0.977866 0.999614 0.990351
0.983023 0.989812 0.997682 0.995448
0.950073 0.962183 1.00122 0.986209
0.881134 0.929143 0.962192 0.985593
0.911787 0.967777 0.95472 0.986829
0.961526 0.971331 0.995659 0.994222
0.955714 0.958721 1.01073 0.986279
0.903927 0.939414 0.974898 0.987
0.91825 0.977181 0.950663 0.988461
0.948921 0.961937 0.993149 0.993274
0.973743 0.968106 1.01954 0.986547
0.908808 0.935174 0.984944 0.986662
0.910168 0.963812 0.955548 0.988273
0.998859 1 1 0.998859
0.999003 1 1.00014 0.998865
0.999088 1 1.00012 0.998967
0.999016 1 1 0.999016
0.999083 1 1 0.999083
0.999267 1 1 0.999267
0.981386 0.997749 0.984554 0.999031
0.994613 0.999581 0.995703 0.999324
0.999077 1 1.0003 0.998782
1.00946 1 1.0108 0.998683
1.00698 1 1.00835 0.998641
0.999621 1 1.00084 0.998782
1.00147 1 1.00273 0.998746
0.979165 0.990657 0.989024 0.999369
1.01436 1 1.01554 0.998838
1.00611 0.993354 1.01337 0.99948
0.999655 1 1.0008 0.998859
0.994374 0.980359 1.0147 0.999599
0.99573 0.989314 1.00695 0.999534
1.01106 1 1.01211 0.998965
0.974302 0.98041 0.99578 0.997981
0.958286 0.96662 0.993934 0.997429
0.959417 0.968798 0.996332 0.993963
1.00654 0.998023 1.00889 0.999642
0.997523 0.988608 1.00952 0.999498
0.948122 0.964331 0.986426 0.99672
0.965675 0.960939 1.01533 0.989759
0.919455 0.947914 0.982984 0.986768
0.960199 0.975303 0.989029 0.995435
0.913111 0.968701 0.955161 0.986864
1.0071 0.993984 1.01341 0.999788
0.959084 0.97686 0.984231 0.997533
0.952571 0.96538 0.992682 0.994006
0.976884 0.970743 1.01009 0.996273
0.876553 0.940108 0.946805 0.984781
0.902007 0.94285 0.969519 0.986758
0.983095 0.969135 1.02839 0.986403
1.00404 0.97795 1.02694 0.999738
0.950063 0.96488 0.987852 0.996753
0.961293 0.977453 0.992874 0.990526
0.822108 0.889101 0.939316 0.984387
0.883649 0.938039 0.955381 0.986012
0.97342 0.969238 1.01824 0.986329
0.952777 0.965118 0.992158 0.995016
1.00957 0.99728 1.0128 0.999529
1.00754 0.992272 1.01581 0.999586
1.0185 0.997259 1.02178 0.999529
0.999142 1 1 0.999142
1.00376 0.998922 1.00536 0.999487
1.00728 0.998877 1.00908 0.999342
1.01735 1 1.01847 0.998902
1.00066 1 1.0016 0.999053
1.00681 1 1.00825 0.998569
1.01467 1 1.01678 0.997923
1.0001 1 1.00145 0.998658
1.00303 1 1.00504 0.998008
1.00417 1.00083 1.00586 0.997484
1.00164 1.00235 1.00191 0.997386
0.999134 1 1.00108 0.998058
1.00015 1.00053 1.00189 0.997738
0.999243 1 1.00123 0.998019
0.999598 1 1.0011 0.998502
0.998896 1 1.00048 0.998417
1.0007 1 1.00198 0.998722
1.00077 1 1.0022 0.998578
0.999503 1 1.00116 0.998341
0.999245 1 1.00002 0.999221
0.999607 1 1.00067 0.998933
0.999667 1 1.00097 0.998697
0.99982 1 1 0.99982
0.999372 1 1 0.999372
0.99903 1 1 0.99903
0.999462 1 1 0.999462
0.99986 1 1 0.99986
1 1 1 1
0.999879 1 1 0.999879
1 1 1 1
1 1 1 1
1 1 1 1
1 1 1 1
1 1 1 1
0.99941 1 1 0.99941
0.99983 1 1 0.99983
0.99943 1 1 0.99943
1 1 1 1
0.999845 1 1 0.999845
0.999515 1 1 0.999515
1 1 1 1
1 1 1 1
0.999863 1 1 0.999863
1 1 1 1
1 1 1 1
1 1 1 1
0.958426 0.976159 0.984482 0.99731
0.948454 0.964546 0.986548 0.996725
0.957504 0.972006 0.991711 0.993314
0.999132 1 1 0.999132
0.999025 1 1 0.999025
0.999203 1 1 0.999203
0.999149 1 1 0.999149
0.999035 1 1 0.999035
0.999046 1 1 0.999046
0.99895 1 1 0.99895
0.951356 0.965527 0.991976 0.993293
0.959368 0.975532 0.988729 0.994641
0.951674 0.963743 0.993439 0.993998
0.921453 0.98111 0.949508 0.989138
0.950665 0.961949 0.995519 0.992718
0.96061 0.961165 1.0122 0.987378
0.908609 0.93887 0.981671 0.985839
0.946056 0.96155 0.99121 0.992612
0.963095 0.961379 1.01614 0.985869
0.920883 0.952104 0.98094 0.986002
0.901722 0.956892 0.953605 0.988191
0.945569 0.961453 0.989145 0.994272
0.96696 0.965586 1.01612 0.985539
0.918619 0.953093 0.976865 0.986656
0.880322 0.94387 0.945736 0.986188
0.999008 1 1.00008 0.998929
0.998897 1 1.00004 0.998858
0.999025 1 1.00016 0.998862
0.999012 1 1 0.999012
0.988521 0.993693 0.995411 0.999382
1.00102 0.989859 1.01177 0.999505
0.998775 1 1.00001 0.99876
1.00121 1 1.00245 0.998756
1.01284 1 1.01393 0.998926
0.99928 1 1.00043 0.998854
1.01187 1 1.01293 0.998951
0.990412 0.97867 1.01296 0.999049
0.997683 0.990175 1.00795 0.999639
1.00485 0.999873 1.00594 0.999041
0.994677 0.975824 1.02036 0.998977
1.01133 0.995073 1.01704 0.999313
0.959459 0.967428 0.994504 0.997243
0.970203 0.978554 0.993272 0.998182
0.957486 0.966242 0.993278 0.997645
1.00499 0.993017 1.01225 0.999805
0.979007 0.971421 1.00903 0.998793
0.958186 0.976566 0.983404 0.997737
0.973238 0.965168 1.0234 0.985308
0.906529 0.941059 0.977421 0.985561
0.953032 0.96534 0.993181 0.994028
0.869615 0.933985 0.945542 0.984705
1.00847 0.980183 1.02908 0.999783
0.948886 0.965028 0.986461 0.996768
0.964605 0.978279 0.995499 0.990481
0.956111 0.966241 0.992447 0.997047
0.814599 0.887973 0.933169 0.983069
0.88775 0.937805 0.960335 0.985725
0.971387 0.964767 1.02084 0.986312
0.999344 0.981149 1.01932 0.999244
0.957837 0.971878 0.992098 0.993402
0.884541 0.92032 0.974486 0.986288
0.848655 0.906878 0.948716 0.986384
0.957473 0.957493 1.01356 0.986603
0.939733 0.96061 0.984842 0.993325
1.01106 0.995961 1.01558 0.99959
1.01868 0.99553 1.02374 0.999522
1.01346 1 1.01411 0.999368
1.00806 0.999382 1.00928 0.999402
1.01691 0.999344 1.01863 0.998969
1.01058 1.0005 1.01188 0.998213
1.00731 1 1.00884 0.998482
1.01375 1 1.0159 0.997875
1.00809 1.00017 1.01051 0.997435
1.00388 1 1.00591 0.997978
1.00401 1.00043 1.00616 0.997431
1.0034 1.00205 1.00412 0.997238
1.00292 1.00553 1 0.997404
1.0026 1.00428 1.00077 0.99757
1.00217 1.00266 1.00218 0.997335
0.998402 1 1.00013 0.998276
0.99885 1 1.00074 0.998106
1.00019 1.00059 1.0019 0.997708
0.999646 1 1.00112 0.998533
0.999577 1 1.00108 0.998496
0.998922 1 1.00043 0.998497
0.999639 1 1.00063 0.999009
1.00052 1 1.00177 0.998755
1.00077 1 1.00216 0.99861
0.999713 1 1 0.999713
0.999284 1 1.00006 0.999221
0.999489 1 1.00055 0.998935
1 1 1 1
0.999814 1 1 0.999814
0.99937 1 1 0.99937
0.999856 1 1 0.999856
1 1 1 1
1 1 1 1
1 1 1 1
1 1 1 1
1 1 1 1
0.999127 1 1 0.999127
0.999367 1 1 0.999367
0.999792 1 1 0.999792
0.999409 1 1 0.999409
1 1 1 1
0.999834 1 1 0.999834
0.999447 1 1 0.999447
1 1 1 1
1 1 1 1
0.999874 1 1 0.999874
1 1 1 1
1 1 1 1
1 1 1 1
0.947686 0.965195 0.98512 0.99669
0.95832 0.976395 0.983931 0.997516
0.947632 0.964937 0.985278 0.99674
0.999142 1 1 0.999142
0.999011 1 1 0.999011
0.998946 1 1 0.998946
0.999013 1 1 0.999013
0.998927 1 1 0.998927
0.999147 1 1 0.999147
0.999018 1 1 0.999018
0.999047 1 1 0.999047
0.998948 1 1 0.998948
0.999008 1 1.00001 0.998995
0.957194 0.970641 0.995619 0.990485
0.954256 0.96819 0.992246 0.993311
0.958825 0.973451 0.989514 0.995413
0.899203 0.955756 0.951987 0.988279
0.919372 0.946266 0.98445 0.986926
0.939065 0.95751 0.988874 0.99177
0.971169 0.968607 1.0165 0.986365
0.947283 0.962997 0.991217 0.992399
0.978215 0.97389 1.01841 0.986281
0.910303 0.947838 0.973571 0.986471
0.881297 0.945603 0.945603 0.985609
0.966747 0.970844 1.00223 0.993569
0.967281 0.96677 1.01401 0.986705
0.872364 0.925201 0.956864 0.985397
0.841114 0.913229 0.935858 0.984159
1.00032 1 1.00106 0.999265
0.999874 1 1.00094 0.998931
0.999352 1 1.00049 0.998858
0.987939 0.976986 1.01274 0.998495
0.999375 0.99004 1.00968 0.999748
0.999489 1 1.00064 0.998849
1.01326 1 1.01433 0.998937
1.00544 0.999936 1.00647 0.999048
1.012 0.996493 1.01627 0.999303
0.992061 0.973399 1.02018 0.999014
1.01075 0.999711 1.0117 0.99935
0.996962 0.98328 1.01513 0.9988
0.961742 0.972031 0.995677 0.993711
0.958373 0.966763 0.993849 0.997457
0.965815 0.976594 0.990564 0.998383
1.01372 0.983121 1.03131 0.999824
0.956301 0.96805 0.993626 0.9942
0.947961 0.96519 0.98532 0.996782
0.970016 0.968772 1.01706 0.984488
0.88224 0.929882 0.962659 0.985568
0.968469 0.979056 0.998736 0.990438
0.809507 0.888748 0.927777 0.981745
0.997758 0.979382 1.01944 0.999338
0.959391 0.972918 0.992645 0.993403
0.875486 0.913445 0.972316 0.985734
0.94178 0.963016 0.983529 0.994326
0.85759 0.912893 0.953539 0.985193
0.947618 0.955712 1.00603 0.985584
0.976297 0.981214 0.996416 0.998568
0.907554 0.929222 0.98822 0.988324
0.856115 0.904595 0.960219 0.985615
0.961278 0.967894 1.007 0.986263
0.945125 0.961006 0.988797 0.994618
1.01847 0.994324 1.02478 0.999515
1.01483 0.999106 1.01641 0.999344
0.993688 1.0006 0.994269 0.998811
1.01613 0.998606 1.01853 0.999035
1.01111 1.00066 1.01216 0.998302
1.00237 1.0018 1.00272 0.997859
1.01256 1 1.01476 0.997827
1.00677 1.00031 1.00903 0.997448
0.999452 1.00147 1.00046 0.997535
1.00372 1.00003 1.00634 0.997379
1.00361 1.00299 1.00338 0.997255
1.00502 1.00749 1 0.99755
1.00983 1.01217 1 0.997688
1.00589 1.00846 1.00002 0.99744
1.00275 1.00534 1 0.997418
1.00008 1.00224 1 0.99785
1.00144 1.00285 1.00107 0.997525
1.00266 1.00295 1.00244 0.997284
0.998428 1 1 0.998428
0.998357 1 1.00002 0.998333
0.99847 1 1.00032 0.998153
0.999431 1 1.00063 0.998802
0.999782 1 1.00123 0.998552
0.999582 1 1.0011 0.998488
0.999522 1 1.00001 0.999515
0.999631 1 1.00062 0.99901
1.00038 1 1.00159 0.998787
1 1 1 1
0.999708 1 1 0.999708
0.999338 1 1.00012 0.999222
1 1 1 1
1 1 1 1
0.999809 1 1 0.999809
1 1 1 1
1 1 1 1
1 1 1 1
0.999048 1 1 0.999048
0.999314 1 1 0.999314
0.999115 1 1 0.999115
0.999762 1 1 0.999762
0.999367 1 1 0.999367
1 1 1 1
0.999795 1 1 0.999795
0.999407 1 1 0.999407
1 1 1 1
1 1 1 1
0.999837 1 1 0.999837
1 1 1 1
1 1 1 1
1 1 1 1
0.959824 0.974347 0.991096 0.993945
0.947489 0.96456 0.985549 0.996706
0.958008 0.976381 0.983422 0.997724
0.998943 1 1 0.998943
0.999151 1 1 0.999151
0.998997 1 1 0.998997
0.999027 1 1 0.999027
0.998961 1 1 0.998961
0.998925 1 1 0.998925
0.998876 1 1.00003 0.998843
0.998978 1 1.00007 0.998904
0.999047 1 1 0.999047
0.998947 1 1 0.998947
0.999058 1 1.00007 0.998986
0.999265 1 1.00018 0.999085
0.877222 0.916798 0.971106 0.985301
0.960188 0.973268 0.996096 0.990428
0.955912 0.969291 0.992821 0.993329
0.876164 0.942766 0.943004 0.985526
0.917532 0.954368 0.975124 0.985929
0.966986 0.964763 1.01696 0.985589
0.949909 0.962461 0.993665 0.99325
0.966628 0.969105 1.0023 0.995153
0.825784 0.901825 0.93161 0.982901
0.966227 0.964466 1.01662 0.985444
0.878926 0.933231 0.955066 0.98612
0.957708 0.968518 0.99328 0.995528
0.957899 0.959053 1.01167 0.987278
0.853359 0.912044 0.949042 0.985895
1.00002 1 1.00041 0.999615
0.999995 1 1.00073 0.999267
1.00054 1 1.00161 0.998932
0.991446 0.973334 1.01958 0.999043
1.01373 0.99895 1.01551 0.999293
1.00592 1 1.00687 0.999055
1.0103 0.999937 1.01103 0.999349
0.996803 0.984593 1.01357 0.998846
1.00239 0.993921 1.00939 0.999146
0.907083 0.930265 0.987522 0.9874
0.960761 0.971266 0.994647 0.994507
0.957258 0.96604 0.993223 0.99767
0.997017 0.977678 1.02036 0.999429
0.939917 0.964733 0.979126 0.995047
0.959304 0.973776 0.991675 0.993409
0.955704 0.95742 1.01105 0.987299
0.866452 0.924978 0.950357 0.985658
0.869033 0.913277 0.965447 0.985611
0.976285 0.981612 0.995945 0.998623
0.896738 0.926906 0.979154 0.988051
0.870488 0.910363 0.969454 0.986327
0.945604 0.959852 0.99241 0.99269
0.949926 0.964139 0.998172 0.987064
0.965998 0.988176 0.97836 0.999178
0.883148 0.921922 0.970901 0.986653
0.95767 0.974772 0.994754 0.987638
0.958734 0.97349 0.992297 0.992487
1.01685 0.997986 1.0196 0.999321
0.98986 1.00031 0.990637 0.998903
0.98247 1.00241 0.981634 0.998449
1.01212 1.00091 1.01283 0.998391
1.00325 1.00223 1.00317 0.997851
1.00067 1.00323 0.999428 0.998025
1.00575 1.00049 1.00781 0.997462
0.99957 1.00108 1.00094 0.997549
1.00857 1.0106 1 0.997988
1.00391 1.00395 1.00269 0.997273
1.00485 1.00731 1 0.997555
1.0124 1.01441 1 0.998024
1.01555 1.01757 1 0.998016
1.0104 1.01279 1 0.997635
1.00957 1.01189 1 0.99771
1.00449 1.00685 1 0.997656
1.00526 1.0078 1 0.997479
1.00254 1.00513 1 0.997432
0.998585 1.0004 1 0.99819
1.00061 1.00261 1.00014 0.997867
1.00043 1.00148 1.00148 0.997479
0.998649 1 1 0.998649
0.998423 1 1 0.998423
0.998391 1 1 0.998391
0.999283 1 1 0.999283
0.999332 1 1.00053 0.998805
0.999893 1 1.00132 0.99857
0.99999 1 1 0.99999
0.999511 1 1 0.999511
0.99956 1 1.00055 0.999011
1 1 1 1
0.999998 1 1 0.999998
0.999702 1 1 0.999702
1 1 1 1
1 1 1 1
1 1 1 1
0.999019 1 1 0.999019
0.999049 1 1 0.999049
0.999242 1 1 0.999242
0.999731 1 1 0.999731
0.999314 1 1 0.999314
0.999103 1 1 0.999103
0.999998 1 1 0.999998
0.999765 1 1 0.999765
0.999366 1 1 0.999366
1 1 1 1
1 1 1 1
0.999798 1 1 0.999798
1 1 1 1
1 1 1 1
1 1 1 1
0.900244 0.923281 0.987852 0.987039
0.959482 0.973017 0.992085 0.993957
0.947775 0.964429 0.985965 0.99672
0.998929 1 1 0.998929
0.998878 1 1 0.998878
0.998856 1 1 0.998856
0.999041 1 1 0.999041
0.998976 1 1 0.998976
0.998923 1 1 0.998923
0.998949 1 1.00005 0.998901
0.998908 1 1.00006 0.998843
0.998901 1 1.00014 0.998762
0.999111 1 1 0.999111
0.998978 1 1 0.998978
0.999085 1 1.00001 0.999076
0.867901 0.908322 0.969073 0.985993
0.872546 0.911225 0.972382 0.98475
0.963944 0.976582 0.996651 0.990376
0.810261 0.888141 0.929379 0.981635
0.879954 0.930619 0.959597 0.985369
0.969617 0.9679 1.01419 0.987759
0.966792 0.966086 1.00745 0.993334
0.955808 0.966189 0.995328 0.993899
0.85365 0.90539 0.957286 0.984923
0.950059 0.956344 1.00641 0.987097
0.954736 0.967868 0.991968 0.994419
0.949615 0.966537 0.995845 0.986593
1.00727 1 1.00819 0.999089
0.999831 1 1.00027 0.999565
0.999396 1 1.00013 0.999269
0.993774 0.983011 1.01207 0.99889
1.00971 1 1.01037 0.999348
1.0028 0.994632 1.00918 0.999042
0.994645 0.998204 0.998089 0.998342
0.881429 0.93184 0.958579 0.986775
0.910717 0.930368 0.990649 0.988118
0.960815 0.970807 0.994383 0.995298
0.974897 0.982383 0.993666 0.998705
0.945399 0.959688 0.991506 0.993549
0.897236 0.928105 0.978363 0.98812
0.94836 0.961294 1.00022 0.98633
0.872951 0.915922 0.966791 0.985823
0.969552 0.989038 0.981516 0.998759
0.886615 0.926681 0.970113 0.98624
0.959305 0.976422 0.99587 0.986544
0.963372 0.973549 0.995417 0.994102
0.982652 0.996232 0.987368 0.998988
0.957283 0.979785 0.990192 0.986711
0.972451 0.987374 0.989684 0.995152
0.985954 1 0.986946 0.998994
0.98341 1.00305 0.981961 0.998427
0.984136 1.00595 0.979954 0.998331
1.00371 1.00257 1.0033 0.997842
1.00005 1.00339 0.998648 0.99802
1.01089 1.01529 0.997227 0.998433
0.999551 1.00063 1.00137 0.997563
1.00838 1.01042 1 0.997981
1.01727 1.01899 0.999918 0.998391
1.00455 1.007 1 0.997561
1.01189 1.01389 1 0.998024
1.01653 1.01825 1 0.998316
1.01412 1.01594 1 0.998214
1.01542 1.0174 1 0.998055
1.01479 1.0169 1 0.997927
1.0103 1.01261 1 0.997722
1.01111 1.0135 1 0.997639
1.00932 1.01161 1 0.997733
1.00024 1.00233 1 0.997917
1.00508 1.0074 1 0.997692
1.00462 1.00712 1 0.997518
0.998471 1 1 0.998471
0.998987 1.0008 1 0.998184
1.001 1.00295 1.00017 0.997883
0.99911 1 1 0.99911
0.998648 1 1 0.998648
0.998418 1 1 0.998418
0.999946 1 1 0.999946
0.999289 1 1.00001 0.999283
0.99928 1 1.00047 0.998808
1 1 1 1
0.999981 1 1 0.999981
0.999512 1 1 0.999507
1 1 1 1
0.999997 1 1 0.999997
1 1 1 1
0.998949 1 1 0.998949
0.999008 1 1 0.999008
0.999163 1 1 0.999163
0.99905 1 1 0.99905
0.999242 1 1 0.999242
0.999676 1 1 0.999676
0.999996 1 1 0.999996
0.999733 1 1 0.999733
0.999315 1 1 0.999315
1 1 1 1
0.999999 1 1 0.999999
0.999767 1 1 0.999767
1 1 1 1
1 1 1 1
1 1 1 1
0.891197 0.925883 0.9759 0.986307
0.901496 0.926476 0.986125 0.986729
0.958652 0.971255 0.993014 0.993967
0.998916 1 1 0.998916
0.99883 1 1 0.99883
0.998909 1 1 0.998909
0.9987 1 1 0.9987
0.998788 1 1 0.998788
0.998916 1 1.00002 0.998898
0.998925 1 1.00008 0.998844
0.998852 1 1.00007 0.998784
0.99866 1 1 0.99866
0.998937 1 1 0.998937
0.998832 1.00034 1.00026 0.99824
0.999446 1 1.00029 0.999157
0.999068 1 1 0.999068
0.954388 0.976592 0.990864 0.986274
0.871571 0.90808 0.97353 0.985892
0.874037 0.914273 0.970903 0.984641
0.852877 0.905843 0.95556 0.985316
0.954571 0.958504 1.0107 0.985353
0.958468 0.965626 0.996916 0.995658
0.955966 0.968197 0.991855 0.995476
0.95376 0.967818 0.997841 0.987606
0.973001 0.989729 0.988559 0.994476
1.00146 1.00132 1.00186 0.998289
1.00572 1 1.00666 0.999069
0.999513 1 1 0.999513
1.00332 0.996362 1.00804 0.998952
0.998104 1.0005 0.999366 0.998236
0.94294 0.974572 0.979743 0.987547
0.88951 0.931447 0.968088 0.986457
0.915055 0.930828 0.994143 0.988845
0.972734 0.989792 0.984416 0.998324
0.95764 0.968109 0.996587 0.992573
0.887616 0.924884 0.973307 0.986025
0.958524 0.973755 0.996805 0.987513
0.981562 0.996172 0.986326 0.998993
0.959545 0.982076 0.989026 0.987899
0.973977 0.988142 0.992116 0.993497
1.00005 1.0053 0.996302 0.998468
0.984947 0.996601 0.991613 0.996665
0.98439 1.00382 0.982202 0.998409
0.986105 1.00554 0.982356 0.998284
1.00476 1.02316 0.98357 0.998419
0.999709 1.00358 0.998123 0.998015
1.01004 1.01453 0.997145 0.998422
1.01736 1.02361 0.995301 0.998583
1.00825 1.0103 1 0.997973
1.01716 1.01912 0.999694 0.998376
1.01806 1.02016 0.999461 0.99848
1.01151 1.01352 1 0.998024
1.01682 1.01856 0.999994 0.998301
1.01441 1.01612 1 0.998324
1.01481 1.01659 1 0.998252
1.01389 1.01584 1 0.998077
1.01528 1.01722 1 0.998093
1.01455 1.01667 1 0.997921
1.01217 1.01434 1 0.997853
1.00492 1.00709 1 0.997846
1.01005 1.01236 1 0.997714
1.01178 1.01417 1 0.997643
0.998626 1.00035 1 0.998273
1.00062 1.00269 1 0.997939
1.00566 1.00795 1 0.997727
0.998967 1 1 0.998967
0.998477 1.00001 1 0.998466
0.999386 1.00121 1 0.998177
0.999859 1 1 0.999859
0.999111 1 1 0.999111
0.998647 1 1 0.998647
1 1 1 1
0.999928 1 1 0.999928
0.999284 1 1 0.999284
1 1 1 1
0.999971 1 1 0.999971
1 1 1 1
0.998716 1 1 0.998716
0.998949 1 1 0.998949
0.999042 1 1 0.999042
0.998997 1 1 0.998997
0.999144 1 1 0.999144
0.99957 1 1 0.99957
0.999242 1 1 0.999242
0.999678 1 1 0.999678
0.999993 1 1 0.999993
1 1 1 1
0.999997 1 1 0.999997
0.999735 1 1 0.999735
1 1 1 1
0.999999 1 1 0.999999
1 1 1 1
0.958923 0.980788 0.989518 0.988063
0.883837 0.927911 0.965285 0.986758
0.910945 0.93203 0.990595 0.986657
0.998804 1 1 0.998804
0.998939 1 1 0.998939
0.998798 1 1 0.998798
0.998711 1 1 0.998711
0.998726 1.00028 1.00002 0.998425
0.998713 1 1 0.998713
0.998815 1 1.00001 0.998806
0.998584 1 1 0.998584
0.999186 1 1.00028 0.998901
0.998491 1 1 0.998491
1.0005 1.00213 1 0.998374
0.998492 1.00129 0.999396 0.997809
0.999198 1.00081 1.00006 0.998336
0.999771 1 1.00057 0.999202
0.970994 0.988893 0.987185 0.994647
0.956335 0.977 0.991616 0.987125
0.866072 0.908848 0.966665 0.985796
0.965522 0.974041 1.005 0.986318
0.954018 0.967645 0.989592 0.996288
0.977461 0.991102 0.989819 0.996382
0.993862 1.0039 0.9916 0.998387
0.999119 1.00067 1.00009 0.998358
1.00467 1 1.00563 0.999049
0.997649 1.00112 0.998415 0.998114
0.971685 0.983793 0.993064 0.994591
0.952515 0.976518 0.986594 0.988674
0.882355 0.927562 0.963832 0.986959
0.982145 0.997636 0.985462 0.998997
0.979759 0.990369 0.99453 0.994728
0.962195 0.982684 0.989931 0.989109
0.993895 1.00461 0.990845 0.998478
0.982968 0.995137 0.99168 0.99606
1.00285 1.0224 0.982619 0.998227
1.00635 1.01469 0.993747 0.998017
0.987735 1.00494 0.984613 0.998235
1.00521 1.02287 0.984294 0.99841
1.00851 1.02766 0.982898 0.99844
1.0093 1.01401 0.996936 0.998412
1.01705 1.02327 0.995344 0.998571
1.01383 1.02013 0.995395 0.998419
1.01697 1.0192 0.999448 0.998361
1.01768 1.01997 0.99928 0.998466
1.01589 1.01816 0.999492 0.998273
1.01707 1.01884 0.999973 0.998286
1.01412 1.01584 0.999986 0.998323
1.01403 1.01597 1 0.998092
1.01549 1.01723 1 0.99829
1.01365 1.01558 1 0.998107
1.01285 1.01496 1 0.997914
1.01437 1.01649 1 0.997915
1.0121 1.01429 1 0.997846
1.00698 1.00909 1 0.99791
0.999369 1.00125 1 0.998119
1.00469 1.00684 1 0.997866
1.00984 1.01217 1 0.997706
0.998804 1 1 0.998804
0.998834 1.00056 1 0.998274
1.00103 1.00307 1 0.997961
0.999749 1 1 0.999749
0.998965 1 1 0.998965
0.998505 1.00004 1 0.998462
1 1 1 1
0.999844 1 1 0.999844
0.999112 1 1 0.999112
1 1 1 1
0.99991 1 1 0.99991
1 1 1 1
0.999596 1.00113 1 0.998468
0.998727 1 1 0.998727
0.998877 1 1 0.998877
0.998948 1 1 0.998948
0.999025 1 1 0.999025
0.999423 1 1 0.999423
0.999124 1 1 0.999124
0.999572 1 1 0.999572
0.999984 1 1 0.999984
0.99968 1 1 0.99968
0.999994 1 1 0.999994
1 1 1 1
1 1 1 1
0.999998 1 1 0.999998
1 1 1 1
0.971186 0.986051 0.98994 0.994934
0.954599 0.980333 0.986264 0.987311
0.878539 0.924438 0.963629 0.986218
1.00276 1.00459 1.00007 0.998117
0.998809 1 1 0.998809
0.998722 1 1 0.998722
0.998694 1 1 0.998694
0.998992 1.00046 1.00012 0.998415
0.999441 1.00081 1 0.998631
0.998509 1 1 0.998509
0.999444 1 1.00058 0.998865
0.998535 1 1 0.998535
0.999856 1.0015 1 0.998353
1.00119 1.00336 1 0.997832
1.00322 1.0058 0.999717 0.997723
0.999567 1.00195 0.999851 0.997766
0.999767 1.00134 1 0.998433
0.997702 1.00621 0.992693 0.998845
0.971 0.989473 0.987386 0.993867
0.959678 0.97796 0.993009 0.988214
0.972567 0.987415 0.98997 0.994941
0.998105 1.00593 0.993546 0.998665
0.999482 1.0002 1.00086 0.998427
1.00084 1.00668 0.996061 0.998132
0.969377 0.979582 0.993789 0.995767
0.947364 0.976517 0.982299 0.987628
0.987121 1.00294 0.985718 0.998484
0.984814 0.995869 0.993534 0.995335
1.00378 1.02322 0.982727 0.998248
1.00538 1.01298 0.994347 0.998133
1.00978 1.02798 0.984048 0.998212
1.01708 1.02185 0.997193 0.998137
1.00578 1.0225 0.985222 0.998402
1.01082 1.02874 0.984108 0.998443
1.00677 1.02069 0.988063 0.998286
1.01663 1.02275 0.995456 0.998558
1.01473 1.0206 0.99582 0.998416
1.01576 1.01966 0.998006 0.998159
1.0174 1.01983 0.999161 0.998452
1.01594 1.01808 0.999618 0.998288
1.01546 1.01749 1 0.998
1.01384 1.01556 0.999989 0.998323
1.01361 1.01555 1 0.998093
1.01479 1.01694 1 0.997889
1.01342 1.01532 1 0.998136
1.01289 1.01499 1 0.99793
1.00826 1.01041 1 0.997874
1.012 1.0142 1 0.997838
1.00693 1.00906 1 0.99789
1.00088 1.00279 1 0.998096
0.998677 1 1 0.998677
0.999606 1.00147 1 0.998143
1.00443 1.00656 1 0.997886
0.999635 1 1 0.999635
0.998803 1 1 0.998803
0.999041 1.00077 1 0.998274
1 1 1 1
0.999737 1 1 0.999737
0.998963 1 1 0.998963
1 1 1 1
0.999828 1 1 0.999828
1 1 1 1
1.00103 1.00286 1 0.998178
0.999149 1.00067 1 0.998473
0.998678 1 1 0.998678
0.998746 1 1.00001 0.998739
0.998884 1 1 0.998884
0.999268 1 1 0.999268
0.999009 1 1 0.999009
0.999422 1 1 0.999422
0.999957 1 1 0.999957
0.999574 1 1 0.999574
0.999987 1 1 0.999987
1 1 1 1
0.999995 1 1 0.999995
1 1 1 1
1 1 1 1
1.00265 1.01047 0.993425 0.998826
0.967628 0.985241 0.988645 0.993404
0.956529 0.976155 0.991487 0.988308
1.00444 1.00617 1.00001 0.998271
1.00691 1.00904 1 0.997888
1.00265 1.00437 1.00013 0.998153
0.998674 1 1 0.998674
0.999294 1.00065 1.00024 0.998403
0.999894 1.00131 1 0.998578
1.00561 1.00768 1 0.997949
0.998579 1 1 0.998579
0.9991 1.00077 1 0.998332
1.00151 1.00363 1 0.997885
1.0083 1.01077 1 0.99755
1.01174 1.01661 0.99717 0.998042
1.00303 1.00578 0.999558 0.997703
1.00033 1.00262 0.999988 0.997724
1.00111 1.00862 0.99361 0.99894
0.971627 0.989256 0.989166 0.992936
0.99909 1.00731 0.992887 0.998949
1.01348 1.0192 0.995738 0.998647
0.999585 1.00539 0.996012 0.998205
0.968357 0.982425 0.991438 0.994192
1.00496 1.02414 0.982979 0.99827
1.00378 1.01152 0.994082 0.998253
1.00852 1.02785 0.982901 0.998265
1.01933 1.0241 0.99719 0.998148
1.0143 1.02487 0.991507 0.998159
1.02683 1.03194 0.996783 0.998262
1.01297 1.03016 0.984842 0.998445
1.00719 1.02024 0.9889 0.99829
1.01813 1.02491 0.995301 0.99807
1.01556 1.02106 0.996198 0.998413
1.01599 1.01935 0.998543 0.998158
1.01862 1.02081 0.999915 0.997941
1.0159 1.01793 0.999702 0.998302
1.01541 1.01744 1 0.997999
1.01761 1.01984 1 0.997808
1.01317 1.0151 1 0.998093
1.01471 1.01685 1 0.997889
1.00995 1.01216 1 0.997815
1.01293 1.01501 1 0.997946
1.00821 1.01036 1 0.997877
1.00133 1.0033 1 0.998041
1.00691 1.00906 1 0.997871
1.00085 1.00277 1 0.998085
0.998603 1 1 0.998603
0.999555 1 1 0.999555
0.998677 1 1 0.998677
0.999833 1.00167 1 0.998168
1 1 1 1
0.999624 1 1 0.999624
0.998802 1 1 0.998802
1 1 1 1
0.999724 1 1 0.999724
1 1 1 1
1.00088 1.00296 1 0.99793
1.00076 1.00261 1 0.998152
0.998718 1.0003 1 0.998418
0.998705 1.00023 1 0.998479
0.998683 1 1 0.998683
0.999103 1 1 0.999103
0.998892 1 1 0.998892
0.999268 1 1 0.999268
0.999901 1 1 0.999901
0.999422 1 1 0.999422
0.999967 1 1 0.999967
1 1 1 1
0.99999 1 1 0.99999
1 1 1 1
1 1 1 1
1.01231 1.0201 0.993901 0.998456
0.999809 1.00951 0.991833 0.998548
0.96544 0.985206 0.985638 0.994216
1.01081 1.01292 1 0.997915
1.00295 1.00452 1 0.998433
1.01473 1.01701 1 0.997761
1.00672 1.00886 1 0.997873
1.00252 1.00416 1.00018 0.998191
1.01657 1.01902 1 0.997595
1.00037 1.00185 1 0.998527
1.00549 1.00761 1 0.997892
1.02145 1.02397 0.999812 0.997722
1.00168 1.00375 1 0.997938
1.00894 1.01145 1 0.997522
1.01154 1.01571 0.997842 0.998053
1.00246 1.0051 0.999693 0.997681
1.00367 1.01049 0.994206 0.999037
1.02485 1.02951 0.997128 0.99834
1.01317 1.01901 0.995617 0.998649
0.998834 1.00409 0.996485 0.998274
1.0074 1.0274 0.982184 0.998319
1.02031 1.02533 0.996937 0.998159
1.01383 1.02516 0.990754 0.998173
1.02717 1.03302 0.996068 0.998267
1.02691 1.0334 0.995548 0.998161
1.00757 1.01966 0.989833 0.998294
1.0181 1.02451 0.995653 0.998077
1.02195 1.02602 0.998088 0.997938
1.01625 1.01908 0.999064 0.998156
1.0183 1.02047 0.999947 0.997925
1.01994 1.02226 1 0.997735
1.01543 1.01746 1 0.997997
1.01744 1.01968 1 0.997807
1.01268 1.01499 1 0.997731
1.01464 1.01679 1 0.99789
1.0101 1.01232 1 0.997816
1.002 1.00405 1 0.997952
1.00816 1.0103 1 0.997881
1.00149 1.00346 1 0.998043
0.998529 1 1 0.998529
1.0008 1.00273 1 0.998074
0.998601 1 1 0.998601
0.999587 1 1 0.999587
0.999888 1 1 0.999888
0.999577 1 1 0.999577
0.998677 1 1 0.998677
1 1 1 1
0.999613 1 1 0.999613
1 1 1 1
1.01968 1.02192 1 0.997804
1.00681 1.00897 1 0.997863
1.00086 1.00295 1 0.997913
1.00002 1.0018 1 0.998227
1.00043 1.00231 1 0.998125
0.998593 1.00017 1 0.998422
0.998924 1 1 0.998924
0.998687 1 1 0.998687
0.999106 1 1 0.999106
0.999806 1 1 0.999806
0.999269 1 1 0.999269
0.999917 1 1 0.999917
1 1 1 1
0.999976 1 1 0.999976
1 1 1 1
1 1 1 1
1.02595 1.02894 0.998994 0.998098
1.0159 1.02321 0.994301 0.998541
0.998554 1.00962 0.990757 0.998269
1.01898 1.02137 1 0.99766
1.00973 1.01176 1 0.99799
1.00139 1.0028 1 0.998591
1.0149 1.01716 1 0.997782
1.00654 1.0087 1 0.997858
1.02435 1.02671 1 0.997703
1.01516 1.01764 1 0.997558
1.00548 1.00766 1 0.997836
1.02105 1.02345 0.999945 0.997715
1.01061 1.01315 1 0.997494
1.01352 1.017 0.998509 0.998068
1.03066 1.0344 0.998133 0.998247
1.02654 1.03068 0.997639 0.998347
1.01406 1.01895 0.996538 0.998651
1.0142 1.0263 0.990003 0.998186
1.02813 1.03439 0.995668 0.998272
1.02689 1.03408 0.994863 0.998175
1.02691 1.03024 0.998772 0.997993
1.01799 1.02402 0.996017 0.998084
1.02235 1.02578 0.998727 0.997931
1.02215 1.02448 1 0.997727
1.01796 1.0201 0.999992 0.997908
1.02016 1.02248 1 0.997735
1.01582 1.01821 1 0.997659
1.01726 1.01949 1 0.997805
1.01277 1.01507 1 0.997731
1.00296 1.00512 1 0.997855
1.01025 1.01246 1 0.997817
1.00226 1.00432 1 0.997953
0.998435 1 1 0.998435
1.00166 1.00363 1 0.998045
0.998527 1 1 0.998527
0.999582 1 1 0.999582
0.998599 1 1 0.998599
0.999583 1 1 0.999583
0.999893 1 1 0.999893
0.999945 1 1 0.999945
0.999599 1 1 0.999599
1 1 1 1
1.02115 1.02354 1 0.997664
1.01068 1.01283 1 0.997878
1.01957 1.02172 1 0.997898
1.00128 1.00319 1 0.998097
1.00756 1.00973 1 0.997857
1.00086 1.00297 1 0.997895
0.9995 1.00128 1 0.998226
0.998754 1 1 0.998754
0.998494 1.00007 1 0.998427
0.998926 1 1 0.998926
0.999686 1 1 0.999686
0.999109 1 1 0.999109
0.999823 1 1 0.999823
1 1 1 1
0.999933 1 1 0.999933
1 1 1 1
1 1 1 1
1.02817 1.03049 0.999769 0.997978
1.0258 1.02887 0.998917 0.998095
1.0171 1.02488 0.993783 0.998621
1.0246 1.02701 1 0.997657
1.01839 1.02077 1 0.997663
1.00876 1.01071 1 0.998066
1.01498 1.01722 1 0.997804
1.0243 1.02667 1 0.997687
1.01365 1.01617 1 0.997521
1.01899 1.02133 1 0.997709
1.02984 1.0325 0.999366 0.998053
1.03019 1.03393 0.998161 0.99821
1.02858 1.03247 0.997883 0.998354
1.02528 1.02799 0.99947 0.99789
1.02678 1.03471 0.994136 0.99819
1.02655 1.03017 0.998497 0.997985
1.02382 1.02608 1 0.997797
1.02277 1.02557 0.999352 0.997923
1.02249 1.02481 1 0.997729
1.01828 1.02071 1 0.99762
1.02035 1.02267 1 0.997735
1.01555 1.01794 1 0.99766
1.00439 1.00663 1 0.997773
1.01284 1.01515 1 0.997731
1.00335 1.0055 1 0.997856
0.998338 1 1 0.998338
1.00253 1.00458 1 0.997954
0.998433 1 1 0.998433
0.999562 1 1 0.999562
0.998525 1 1 0.998525
0.999576 1 1 0.999576
0.999896 1 1 0.999896
0.99958 1 1 0.99958
0.999895 1 1 0.999895
1 1 1 1
1.02173 1.02422 1 0.997566
1.01325 1.01558 1 0.997707
1.02165 1.02402 1 0.997687
1.00152 1.00346 1 0.998065
1.01053 1.01268 1 0.997879
1.01954 1.0216 1 0.997992
0.9986 1 1 0.9986
1.00104 1.00296 1 0.998093
1.00843 1.0106 1 0.997851
0.998953 1.00073 1 0.998225
0.998755 1 1 0.998755
0.999582 1 1 0.999582
0.998929 1 1 0.998929
0.999699 1 1 0.999699
1 1 1 1
0.99984 1 1 0.99984
1 1 1 1
1 1 1 1
1.02775 1.03001 0.999961 0.997846
1.02831 1.03069 0.999724 0.997962
1.02627 1.02924 0.999014 0.998092
1.024 1.0264 1 0.997662
1.01778 1.02016 1 0.997666
1.0242 1.0266 1 0.99767
1.0257 1.02787 0.999999 0.997891
1.02971 1.03244 0.999302 0.998046
1.02915 1.0329 0.998203 0.998172
1.02583 1.0283 0.999696 0.997904
1.02266 1.02496 1 0.997756
1.02619 1.0301 0.998231 0.997976
1.0237 1.02598 1 0.997772
1.01945 1.02186 1 0.997648
1.02279 1.02511 1 0.997732
1.01798 1.0204 1 0.997623
1.00614 1.00845 1 0.997706
1.01535 1.01773 1 0.997661
1.00493 1.00718 1 0.997773
0.998294 1.00003 1 0.998261
1.00373 1.00589 1 0.997856
0.998342 1.00001 1 0.998337
0.999523 1 1 0.999523
0.998431 1 1 0.998431
0.999553 1 1 0.999553
0.999885 1 1 0.999885
0.999571 1 1 0.999571
0.999902 1 1 0.999902
0.999895 1 1 0.999895
1.02342 1.02575 1 0.997724
1.01603 1.01851 1 0.997572
1.02202 1.0245 1 0.997575
1.00327 1.00538 1 0.997905
1.01304 1.01536 1 0.997713
1.02206 1.0244 1 0.99771
0.998484 1 1 0.998484
1.00151 1.0035 1 0.998021
1.01027 1.01242 1 0.99788
0.999517 1 1 0.999517
0.998603 1 1 0.998603
1.00077 1.00269 1 0.998089
0.998756 1 1 0.998756
0.999592 1 1 0.999592
1 1 1 1
0.999712 1 1 0.999712
1 1 1 1
1 1 1 1
1.02404 1.02629 1 0.997808
1.02713 1.02943 0.999919 0.997844
1.02875 1.03122 0.999661 0.997947
1.02342 1.02581 1 0.997667
1.02326 1.02559 1 0.997722
1.02611 1.02844 0.999835 0.997899
1.02948 1.03233 0.999202 0.998038
1.02635 1.02858 0.999909 0.997919
1.0225 1.02479 1 0.997765
1.01817 1.02056 1 0.997661
1.02367 1.02598 1 0.997746
1.0192 1.02162 1 0.997638
1.00738 1.00973 1 0.997669
1.01766 1.02008 1 0.997626
1.00655 1.00887 1 0.997708
0.998264 1.00007 1 0.998192
1.00544 1.00768 1 0.997773
0.998304 1.00004 1 0.998261
0.999415 1 1 0.999415
0.998351 1.00002 1 0.998336
0.999485 1 1 0.999485
1 1 1 1
0.999544 1 1 0.999544
0.999894 1 1 0.999894
0.999904 1 1 0.999904
1.02205 1.02434 1 0.997767
1.01726 1.01968 1 0.997627
1.02307 1.0254 1 0.997721
1.00578 1.00808 1 0.997723
1.01614 1.01859 1 0.997594
1.02241 1.02489 1 0.997584
0.998307 1.00001 1 0.998301
1.0033 1.00541 1 0.997904
1.01289 1.0152 1 0.99772
0.999486 1 1 0.999486
0.998445 1 1 0.998445
1.00154 1.00357 1 0.997977
1 1 1 1
0.999527 1 1 0.999527
0.998605 1 1 0.998605
0.999602 1 1 0.999602
1 1 1 1
1 1 1 1
1.02258 1.0249 1 0.997731
1.02442 1.02666 1 0.997817
1.02649 1.02882 0.999889 0.997843
1.01921 1.02165 1 0.997611
1.02243 1.02476 1 0.997727
1.02655 1.02902 0.999691 0.997908
1.02235 1.02464 1 0.997773
1.01826 1.02065 1 0.997661
1.00742 1.00973 1 0.997713
1.0189 1.02132 1 0.997628
1.00747 1.00979 1 0.9977
0.998187 1.00013 1 0.998062
1.00699 1.0093 1 0.99771
0.998281 1.00009 1 0.998192
0.999363 1 1 0.999363
0.998317 1.00006 1 0.99826
0.999412 1 1 0.999412
1 1 1 1
0.999442 1 1 0.999442
0.999938 1 1 0.999938
0.999901 1 1 0.999901
1.01986 1.02218 1 0.997737
1.01755 1.01992 1 0.997669
1.0219 1.02419 1 0.997769
1.00673 1.00902 1 0.997728
1.01768 1.0201 1 0.997622
1.02271 1.02505 1 0.997719
0.998358 1.00016 1 0.998194
1.00571 1.00796 1 0.997767
1.0162 1.01863 1 0.997615
0.999458 1 1 0.999458
0.998288 1 1 0.998286
1.00332 1.00542 1 0.997902
1 1 1 1
0.999495 1 1 0.999495
0.998406 1 1 0.998406
1 1 1 1
0.999537 1 1 0.999537
1 1 1 1
1.01936 1.02176 1 0.997648
1.02214 1.02447 1 0.997725
1.02483 1.02706 1 0.997825
1.00665 1.00898 1 0.997696
1.01921 1.02163 1 0.997624
1.02166 1.02398 1 0.997732
1.01837 1.02076 1 0.997661
1.00744 1.00975 1 0.997713
0.998211 1.00019 1 0.998018
1.00757 1.00986 1 0.997731
0.998212 1.00012 1 0.998096
0.999297 1 1 0.999297
0.998285 1.00009 1 0.998192
0.99936 1 1 0.99936
1 1 1 1
0.999409 1 1 0.999409
1 1 1 1
0.999888 1 1 0.999888
1.01753 1.01989 1 0.997688
1.02017 1.02247 1 0.997745
1.00623 1.00851 1 0.997735
1.01742 1.0198 1 0.997668
1.02176 1.02405 1 0.997771
0.998409 1.0002 1 0.99821
1.00665 1.00894 1 0.997725
1.01809 1.02052 1 0.997616
0.999418 1 1 0.999418
0.998373 1.00015 1 0.998221
1.00562 1.00782 1 0.99781
1 1 1 1
0.999464 1 1 0.999464
0.998272 1 1 0.998272
1 1 1 1
0.999503 1 1 0.999503
1 1 1 1
1.0062 1.00849 1 0.997732
1.01926 1.02166 1 0.997644
1.02161 1.02395 1 0.997719
0.998042 1.00003 1 0.998016
1.0067 1.00902 1 0.997696
1.01916 1.02157 1 0.997637
1.00747 1.00978 1 0.997712
0.998209 1.00019 1 0.998022
0.999246 1 1 0.999246
0.998243 1.00011 1 0.99813
0.999294 1 1 0.999294
1 1 1 1
0.999357 1 1 0.999357
1 1 1 1
1 1 1 1
1.00581 1.0081 1 0.997729
1.01715 1.0195 1 0.997695
1.02046 1.02276 1 0.997752
0.998275 1.00009 1 0.998185
1.00645 1.00874 1 0.997732
1.01727 1.01965 1 0.997668
0.999372 1 1 0.999372
0.99842 1.00021 1 0.998209
1.00659 1.00889 1 0.997722
1 1 1 1
0.999421 1 1 0.999421
0.998391 1.00014 1 0.998248
1 1 1 1
0.99947 1 1 0.99947
1 1 1 1
0.998101 1 1 0.998101
1.0062 1.00852 1 0.997697
1.01919 1.0216 1 0.997641
0.999239 1 1 0.999239
0.998046 1.00003 1 0.998015
1.00674 1.00906 1 0.997696
0.998207 1.00018 1 0.998025
0.999245 1 1 0.999245
1 1 1 1
0.99929 1 1 0.99929
1 1 1 1
1 1 1 1
0.998154 1.00001 1 0.998148
1.00587 1.00817 1 0.997722
1.0168 1.01914 1 0.997701
0.999424 1 1 0.999424
0.998329 1.00015 1 0.998183
1.00669 1.00898 1 0.99773
1 1 1 1
0.999374 1 1 0.999374
0.998422 1.00022 1 0.998207
1 1 1 1
0.999425 1 1 0.999425
1 1 1 1
0.999241 1 1 0.999241
0.998072 1 1 0.998072
1.0062 1.00856 1 0.997662
1 1 1 1
0.999239 1 1 0.999239
0.99805 1.00004 1 0.998014
0.999243 1 1 0.999243
1 1 1 1
1 1 1 1
0.999376 1 1 0.999376
0.998188 1.00004 1 0.998148
1.00592 1.00822 1 0.997716
1 1 1 1
0.999332 1 1 0.999332
0.998379 1.0002 1 0.998182
1 1 1 1
0.999375 1 1 0.999375
1 1 1 1
0.999805 1 1 0.999805
0.999306 1 1 0.999306
0.998043 1 1 0.998043
1 1 1 1
0.999239 1 1 0.999239
1 1 1 1
0.999823 1 1 0.999823
0.999337 1 1 0.999337
0.998229 1.00008 1 0.998148
0.999915 1 1 0.999915
0.999331 1 1 0.999331
1 1 1 1
1 1 1 1
0.999259 1 1 0.999259
1 1 1 1
0.999908 1 1 0.999908
0.999292 1 1 0.999292
1 1 1 1
1 1 1 1
1 1 1 1

VECTORS lamdaE float
1.00004 1.00015 0.995292
0.999928 1.00035 0.997763
0.99976 1.00034 0.995452
1.00033 0.999929 0.995074
1.00014 0.999967 0.995333
1.00004 1.00029 0.995107
1.00126 1.00048 0.992539
0.999929 1.00024 0.997788
0.999843 1.00023 0.998014
0.99949 1.00067 0.998048
0.999913 1.00015 0.995512
1.00105 1.00124 0.991623
1.00024 1.00001 0.995029
0.999971 0.999982 0.995298
0.999512 1.00055 0.995586
1.00012 0.999906 0.995286
0.999747 1.00058 0.995247
0.999903 1.00004 0.995512
1.00142 1.00032 0.992473
1.00022 1 0.997652
1.00037 0.999984 0.994944
1.00026 0.999887 0.995244
1.00165 0.999992 0.992352
1.00145 1.00013 0.992569
1.00003 1.00021 0.995106
1.00108 1.00098 0.992365
1.00381 1.00034 0.98836
0.999891 1.00017 0.997841
0.999981 1.00011 0.996603
0.999707 1.00051 0.996617
0.99987 0.999929 0.997952
1.00095 1.00136 0.991629
1.00025 0.999849 0.995129
0.999977 1.00038 0.995202
1.00174 1.00018 0.992765
0.999498 0.999316 0.998522
1.0014 1.00083 0.992754
1.0007 1.00148 0.991999
1.00287 1.00199 0.987686
0.999585 0.998355 0.998836
1.00026 1.00001 0.997612
1.00012 1.00001 0.996459
1.00021 0.999998 0.997638
0.99993 1.00004 0.99533
1.00183 1.00004 0.991431
1.00002 0.999959 0.997933
1.00195 1.00011 0.992497
0.999907 0.999845 0.995499
0.999678 1.00011 0.995678
0.999461 1.00091 0.995372
1.00156 1.00014 0.99242
1.00011 1.00001 0.99648
1.00015 0.999985 0.995164
0.999741 1.00052 0.995251
1.00005 0.999875 0.99544
1.00174 0.999957 0.992267
1.00126 1.00078 0.992293
1.00156 1.00004 0.9925
1.0038 1.00036 0.988347
1.00019 1 0.997658
1.00033 1.00001 0.994977
1.00165 1 0.992964
1.0017 1.00002 0.992243
1.00158 0.999974 0.992491
1.00413 0.999953 0.988106
1.00397 1.00002 0.98812
0.999822 0.999643 0.995798
1.00056 1.00162 0.992445
1.00363 1.0008 0.98823
1.00485 1.00009 0.986044
1.00014 1.00014 0.997736
0.999771 0.999696 0.998137
0.99992 1.00035 0.997751
1.00088 1.00145 0.991632
1.00027 0.999979 0.997693
1.00003 1.00032 0.997752
1.00163 1.00013 0.991603
0.999598 0.999397 0.997387
1.0012 1.00092 0.991604
1.00056 1.00153 0.992744
1.00291 1.00193 0.987671
0.999694 0.998786 0.998568
0.999687 1.0001 0.99519
1.00184 0.99998 0.991455
1.00154 1.00042 0.991602
1.00412 1.00019 0.987232
1.00022 1.00121 0.994234
1.00345 1.00101 0.987613
1.00183 1.00344 0.988145
1.00398 1.00176 0.985821
0.999542 0.997976 0.999035
0.999523 0.998279 0.998923
1.00029 0.999987 0.997633
1.00027 1.00001 0.997612
1.00024 1 0.997634
1.0001 1.00001 0.996474
1.00186 1.00002 0.992059
1.00015 0.999968 0.996495
1.00189 1.00013 0.991925
1.00022 0.999994 0.997646
1.00174 0.99996 0.991623
1.00194 1.00011 0.992541
1.00428 0.999719 0.987449
1.00191 1.00002 0.992617
1.0043 0.999938 0.9872
1.0002 1.00001 0.995111
0.999914 0.999978 0.99539
0.999428 1.00089 0.995409
0.999838 0.999841 0.995631
1.00183 0.99996 0.992182
1.00167 0.999953 0.992438
1.00143 1.00055 0.992229
1.0038 1.00038 0.988333
1.00022 0.999998 0.997649
1.0001 1.00001 0.995197
1.00176 0.999977 0.99192
1.00179 1.00001 0.992148
0.999702 0.999878 0.99692
1.00081 1.00153 0.99257
1.00168 0.999924 0.992416
1.00415 0.999927 0.988004
1.00358 1.00084 0.988257
1.00396 1.0001 0.988194
1.00483 1.0001 0.986068
1.00172 0.999982 0.991663
1.00167 1 0.992295
1.00417 0.999676 0.988089
1.00419 0.999854 0.987897
1.00408 0.999885 0.988031
1.00509 0.999567 0.986433
0.999642 0.999277 0.998422
1.00495 0.999816 0.986154
1.00008 1.00183 0.992574
1.0028 1.00201 0.987736
1.00477 1.0005 0.985866
1.00518 0.999851 0.98568
0.999843 1.00102 0.993869
1.00019 1.00379 0.990569
1.00025 1.00001 0.997709
0.999989 1.0003 0.997755
1.00164 1.00011 0.991603
0.999657 0.99912 0.998476
1.00034 1.00176 0.992228
1.00115 1.00096 0.991611
1.00294 1.00188 0.987655
0.999614 0.998712 0.99867
0.999683 1.00001 0.995235
1.00185 1.00001 0.992084
1.00152 1.00044 0.992205
1.00412 1.0002 0.98723
1.00003 1.00127 0.993389
1.00346 1.00099 0.987624
1.00182 1.00339 0.988133
1.00405 1.0017 0.985774
0.999819 1.00073 0.994341
0.999729 0.999419 0.995795
1.00027 1.00274 0.991568
1.00425 1.00007 0.98714
1.00382 1.00053 0.987424
1.00502 1.00006 0.985789
1.00103 1.00377 0.989255
1.00452 1.00075 0.985834
1.00293 1.00358 0.985899
1.00479 1.00114 0.985322
0.999577 0.997695 0.999117
0.999516 0.997921 0.999067
0.999474 0.998191 0.998989
0.999792 1.00058 0.994412
0.999612 0.998932 0.998592
1.0003 0.999974 0.997666
1.00027 1 0.997613
1.00181 1.00014 0.991349
1.00178 1.00003 0.991486
1.00022 1 0.997633
1.0002 0.999998 0.997646
1.00174 0.999969 0.991617
1.00187 1.0001 0.991957
1.00428 0.999717 0.987447
1.00181 1.00004 0.991411
1.0043 0.999938 0.987195
1.00171 0.999956 0.991673
1.00423 0.999659 0.987599
1.0043 0.99982 0.987308
1.00515 0.99909 0.986581
1.00429 1.00002 0.987135
1.00516 0.999479 0.98618
1.0002 0.999996 0.997645
0.999875 1.00002 0.995418
1.00178 0.999968 0.99097
1.00188 1.00001 0.99205
0.999406 1.00006 0.998276
1.00112 1.00134 0.992689
1.00177 0.999898 0.992342
1.00416 0.999886 0.987903
1.00396 1.00016 0.988268
1.00354 1.0009 0.988283
1.00482 1.00011 0.986092
1.00171 0.999969 0.991664
1.00177 1 0.992191
1.00419 0.999659 0.987779
1.00421 0.999892 0.987951
0.999675 0.999358 0.998347
1.00031 1.00164 0.993074
1.00273 1.00218 0.98802
1.00408 0.999916 0.988013
1.00509 0.999451 0.986412
1.00476 1.00053 0.985776
1.00494 0.999869 0.986263
1.00518 0.999846 0.985707
0.999866 1.00103 0.993864
1.00027 1.00365 0.990584
1.00418 0.999653 0.987675
1.00419 0.999783 0.987965
1.0051 0.999189 0.986789
1.00512 0.999224 0.986488
1.00503 0.99959 0.98647
1.00524 0.998673 0.98689
0.999928 1.00142 0.993277
1.0052 0.999333 0.98619
1.00149 1.00347 0.988553
1.00422 1.00155 0.985554
1.00515 1.00054 0.985292
1.00518 0.999188 0.986472
1.00056 1.00372 0.990052
1.0001 1.00311 0.991387
1.00076 1.00463 0.988945
1.00177 0.999991 0.991519
0.99954 0.998619 0.998777
0.999681 0.999916 0.995279
1.00139 1.00049 0.991651
1.00411 1.00021 0.987228
0.999942 1.00135 0.993318
1.0018 1.00337 0.988122
1.00346 1.00098 0.987635
1.00412 1.00165 0.985726
0.999791 1.00068 0.994364
0.999742 0.999319 0.995832
1.00014 1.0029 0.991578
1.00424 1.00009 0.987133
1.00383 1.00052 0.987427
1.00503 1.00005 0.985772
1.00095 1.00382 0.98928
1.00456 1.00079 0.98583
1.00299 1.00362 0.985871
1.00473 1.00099 0.985274
0.999846 0.998887 0.996104
1.00058 1.00331 0.990429
1.00008 1.00191 0.992715
1.00037 1.0043 0.989866
1.00509 0.999856 0.985876
1.00483 1.00038 0.985777
1.00518 0.999667 0.985909
1.00182 1.00451 0.987127
1.00497 1.0004 0.985512
1.00398 1.00291 0.985013
1.00513 1.00063 0.985165
1.00027 1.00026 0.994016
1.00004 0.998348 0.996287
0.999655 0.997457 0.999149
0.999574 0.997653 0.999128
0.9995 0.997868 0.999093
0.999793 1.00003 0.994973
0.999589 0.998584 0.998746
0.99981 1.00063 0.994388
0.999653 0.998981 0.998534
1.00181 1.00007 0.991404
1.00182 1.00009 0.991381
1.00429 0.999939 0.987191
1.00427 0.999715 0.987446
1.00175 0.999977 0.991614
1.00023 0.999999 0.997639
1.00172 0.999958 0.991672
1.00422 0.999664 0.987598
1.0043 0.999826 0.987304
1.00515 0.999098 0.986578
1.00428 1.00003 0.987126
1.00516 0.999479 0.986171
1.00418 0.999656 0.98768
1.00512 0.998995 0.986745
1.00517 0.999268 0.98637
1.00524 0.99785 0.987728
1.00514 0.999671 0.986013
1.00523 0.998475 0.987101
1.00172 0.999957 0.991667
1.00187 0.999984 0.992087
1.0042 0.999628 0.987471
1.00423 0.999926 0.988005
0.999724 0.999454 0.998263
1.00054 1.00156 0.993472
1.00274 1.00231 0.988302
1.00408 0.999936 0.987994
1.00509 0.999331 0.986391
1.00494 0.999925 0.986372
1.00475 1.00056 0.985685
1.00517 0.999839 0.985735
0.999898 1.00104 0.993859
1.00035 1.00354 0.990598
1.00419 0.999608 0.987615
1.00421 0.999764 0.98795
1.0051 0.999088 0.986893
1.00512 0.999344 0.986484
0.999995 1.00141 0.993265
1.00162 1.00338 0.988534
1.00424 1.00159 0.985552
1.00503 0.999652 0.986433
1.00524 0.998521 0.987061
1.00514 1.00053 0.985258
1.0052 0.999325 0.986211
1.00518 0.999156 0.986471
1.00061 1.00361 0.990062
1.00063 1.00454 0.989
1.00014 1.00311 0.991376
1.0051 0.99909 0.986881
1.00511 0.99915 0.986811
1.00522 0.997956 0.987652
1.00525 0.998292 0.987209
1.00521 0.998758 0.986756
1.00518 0.997265 0.988306
1.00087 1.00363 0.989537
1.00518 0.998317 0.987176
1.00282 1.00325 0.986523
1.00494 1.00129 0.984587
1.00515 1.00032 0.985413
1.00511 0.998354 0.987358
1.00014 1.00227 0.992185
1.00119 1.00378 0.988896
1.00024 1.00485 0.98937
1.00132 1.00396 0.98874
1.00423 1.0001 0.987126
0.999752 0.999231 0.995868
0.999759 1.00065 0.994387
1.00004 1.00302 0.991589
1.00384 1.00051 0.987429
1.00504 1.00005 0.985756
1.00085 1.00387 0.989305
1.00307 1.00372 0.985842
1.00461 1.00083 0.985827
1.00465 1.00086 0.985225
0.999851 0.998842 0.99612
1.00053 1.0034 0.990434
1.00005 1.00189 0.992747
1.00026 1.00447 0.989844
1.0051 0.999859 0.985861
1.00486 1.00037 0.985761
1.00518 0.999674 0.985896
1.00175 1.0046 0.987159
1.00501 1.00046 0.985526
1.00389 1.00281 0.985005
1.00509 1.00061 0.98511
0.999959 0.998546 0.996229
1.00016 1.00102 0.993475
1.00103 1.00435 0.988712
1.00009 1.00362 0.991038
1.00058 1.00458 0.989349
1.0052 0.999282 0.98628
1.00512 1 0.985641
1.00514 0.998939 0.986656
1.00243 1.0045 0.98618
1.00512 1.00015 0.985548
1.00424 1.00191 0.984882
1.00027 1.00033 0.993945
1.00024 1.00161 0.992767
1.00025 1.00025 0.994068
1.00026 1.00026 0.994016
1.00007 0.998169 0.996887
1.00003 0.998336 0.996571
0.999809 0.997264 0.998055
0.999663 0.997413 0.999154
0.999575 0.997602 0.999138
0.999828 0.999494 0.99547
0.999595 0.998211 0.998901
0.999801 1.00009 0.994946
0.999631 0.998646 0.998691
0.999829 1.00066 0.994365
0.999689 0.999038 0.998474
1.00427 1.00004 0.987117
1.00429 0.99983 0.9873
1.00516 0.999493 0.986161
1.00515 0.999105 0.986574
1.00421 0.999669 0.987598
1.00171 0.99996 0.991671
1.00418 0.999654 0.98768
1.00512 0.998998 0.986747
1.00517 0.999282 0.986362
1.00524 0.997738 0.987852
1.00514 0.999678 0.986002
1.00523 0.998491 0.987087
1.0051 0.998974 0.986805
1.00522 0.997549 0.988101
1.00525 0.998083 0.987459
1.00524 0.996503 0.989031
1.00521 0.998901 0.986698
1.00517 0.996959 0.988568
1.00419 0.999565 0.987556
1.00423 0.999757 0.987936
1.0051 0.998996 0.986996
1.00512 0.999463 0.98648
1.00008 1.00138 0.993251
1.00165 1.00335 0.988516
1.00427 1.00163 0.985549
1.00504 0.999714 0.986395
1.00524 0.998367 0.987232
1.00519 0.999317 0.986231
1.00513 1.00053 0.985224
1.00518 0.999125 0.986469
1.00066 1.00351 0.990072
1.00061 1.00445 0.989056
1.00018 1.00308 0.991366
1.0051 0.999047 0.98683
1.00512 0.999146 0.986802
1.00521 0.997753 0.987875
1.00525 0.99836 0.987163
1.00093 1.0036 0.989513
1.00292 1.00315 0.986515
1.00481 1.0014 0.984643
1.0052 0.998912 0.986629
1.00518 0.997069 0.988529
1.00515 1.00034 0.985323
1.00518 0.998322 0.987192
1.00511 0.998256 0.98748
1.00126 1.00376 0.988888
1.00126 1.00398 0.988737
1.00016 1.00228 0.99217
1.0002 1.00471 0.989489
1.00521 0.997753 0.987894
1.00523 0.998057 0.98763
1.00517 0.996632 0.98894
1.0052 0.996386 0.9891
1.00516 0.997572 0.987991
1.00514 0.996242 0.989443
1.00182 1.0035 0.988079
1.00511 0.996975 0.988487
1.00353 1.0031 0.985241
1.00511 1.00145 0.984257
1.00513 0.99993 0.985622
1.00509 0.997987 0.987705
1.00013 1.00166 0.992802
1.00015 1.00413 0.990237
1.00173 1.00323 0.988495
1.00046 1.00498 0.988992
1.0016 1.00331 0.98898
0.999853 0.998808 0.996135
1.00511 0.999861 0.985846
1.00002 1.00185 0.992779
1.00044 1.00354 0.990441
1.00015 1.00465 0.989822
1.00488 1.00036 0.985745
1.00519 0.999681 0.985883
1.00177 1.00453 0.987191
1.00382 1.00272 0.984998
1.00503 1.0005 0.98554
1.00508 1.00059 0.985057
0.999963 0.998532 0.996236
1.00014 1.00101 0.993492
1.00103 1.0043 0.988733
0.999993 1.00375 0.991032
1.00047 1.00457 0.989277
1.0052 0.999289 0.986266
1.00513 1 0.985622
1.00514 0.998914 0.986623
1.00235 1.00452 0.986181
1.00515 1.00015 0.985506
1.00443 1.00181 0.984881
1.00024 1.00054 0.993806
1.00014 1.00252 0.992053
1.00137 1.0043 0.988109
1.0001 1.0047 0.990112
1.00098 1.00402 0.989298
1.00516 0.998349 0.987235
1.00513 0.999495 0.98606
1.00511 0.998287 0.987018
1.00269 1.00368 0.986169
1.00496 1.00086 0.984897
1.00027 1.00034 0.993941
1.00024 1.00159 0.992676
1.00019 1.00165 0.992721
1.00019 1.00236 0.992227
1.0002 1.00164 0.992802
1.0002 1.0003 0.994089
1.00024 1.00025 0.994069
1.00011 0.998087 0.9969
1.00026 1.00027 0.994015
1.00008 0.998183 0.996888
0.999907 0.997038 0.998084
1.00002 0.998334 0.99685
0.999776 0.997224 0.998614
0.999674 0.997365 0.999159
0.999882 0.999006 0.995869
0.999824 0.999547 0.995447
0.999617 0.997877 0.999017
0.999623 0.99829 0.998844
0.999807 1.00016 0.994919
0.999671 0.998697 0.998634
1.00514 0.999683 0.985992
1.00517 0.999284 0.986355
1.00523 0.998501 0.987073
1.00524 0.997627 0.987977
1.00511 0.999 0.986749
1.00418 0.999654 0.98768
1.0051 0.998974 0.986808
1.00521 0.997553 0.988107
1.00525 0.998093 0.987456
1.00523 0.996287 0.989237
1.00521 0.9989 0.986676
1.00517 0.996841 0.988697
1.00521 0.997581 0.988086
1.00523 0.996264 0.989262
1.00521 0.996341 0.98923
1.00522 0.995404 0.990145
1.00517 0.997625 0.987931
1.00516 0.995851 0.989654
1.0051 0.999001 0.986779
1.00513 0.999152 0.986794
1.00521 0.997543 0.988098
1.00524 0.998425 0.987116
1.001 1.00358 0.98949
1.00301 1.00307 0.986507
1.00468 1.00143 0.984699
1.0052 0.999068 0.986501
1.00518 0.996872 0.988752
1.00518 0.998328 0.987209
1.00515 1.00035 0.985233
1.00511 0.998157 0.987603
1.00122 1.00381 0.98888
1.00107 1.00406 0.988733
1.00019 1.00229 0.992154
1.00016 1.00464 0.98961
1.00522 0.997758 0.987884
1.00522 0.998135 0.987511
1.00517 0.996497 0.989125
1.0052 0.996494 0.988974
1.00177 1.00369 0.988037
1.0035 1.00304 0.98535
1.00512 1.00144 0.984222
1.00517 0.997746 0.987785
1.00514 0.995981 0.989618
1.00512 0.999965 0.985594
1.00511 0.996997 0.988492
1.00509 0.997759 0.987835
1.00181 1.00321 0.988467
1.00155 1.00321 0.989053
1.00045 1.00502 0.988955
1.00014 1.00166 0.992735
1.0001 1.00405 0.990359
1.00518 0.996245 0.989401
1.0052 0.99616 0.989418
1.00515 0.995363 0.990147
1.00512 0.99613 0.989305
1.00219 1.00379 0.98718
1.00513 0.996579 0.989059
1.00394 1.00287 0.984457
1.0051 1.00153 0.98409
1.0051 0.999523 0.985876
1.00008 1.00106 0.993309
1.00011 1.00336 0.991263
1.00036 1.00456 0.98971
1.00204 1.00287 0.988452
1.00071 1.00478 0.988568
1.00189 1.00239 0.988827
0.999964 0.998525 0.996242
1.00012 1.00098 0.993509
1.0052 0.999295 0.986252
0.99989 1.00387 0.991027
1.00093 1.00436 0.988755
1.00036 1.00459 0.989205
1.00514 1 0.985603
1.00514 0.99889 0.98659
1.00224 1.00454 0.986183
1.00458 1.00175 0.984879
1.00518 1.00016 0.985464
1.00023 1.00053 0.993809
1.00008 1.00257 0.992073
1.00139 1.00433 0.988074
0.999969 1.00475 0.990086
1.00088 1.00391 0.989363
1.00515 0.998359 0.987211
1.00513 0.999496 0.98603
1.00511 0.998325 0.987073
1.00278 1.00355 0.986014
1.00495 1.00098 0.984883
1.00022 1.00187 0.992581
0.99983 1.00396 0.990923
1.00196 1.0033 0.988049
1.00011 1.00495 0.989631
1.00144 1.00295 0.989231
1.00511 0.996924 0.988427
1.00511 0.999569 0.985963
1.00509 0.99821 0.987027
1.0038 1.0026 0.985622
1.00501 1.00085 0.984854
1.00026 1.00034 0.993938
1.00024 1.00161 0.992704
1.00007 1.0024 0.992155
1.00016 1.00168 0.992676
1.00017 1.00167 0.992799
1.00011 1.00242 0.992165
1.00003 1.00284 0.991947
1.0001 1.00249 0.992019
1.00014 1.00174 0.992802
1.00015 1.0004 0.99409
1.0002 1.0003 0.994089
1.00013 0.998065 0.996891
1.00024 1.00024 0.99407
1.00011 0.998108 0.996898
0.999976 0.996916 0.998085
1.00008 0.99819 0.996892
0.999895 0.997011 0.998091
0.999739 0.997173 0.999184
0.999936 0.998597 0.9962
0.999873 0.999066 0.995842
0.999658 0.997589 0.999101
0.999817 0.999614 0.995425
0.999635 0.997946 0.998983
0.999657 0.998351 0.99879
1.00522 0.998901 0.986654
1.00525 0.998108 0.987453
1.00518 0.996721 0.988826
1.00522 0.996083 0.989443
1.00521 0.997554 0.988112
1.00509 0.998975 0.98681
1.00522 0.997659 0.987993
1.00523 0.996408 0.989162
1.0052 0.996413 0.989153
1.00523 0.995194 0.99029
1.00517 0.997661 0.98792
1.00516 0.995623 0.989846
1.00521 0.996474 0.989176
1.00523 0.99496 0.990532
1.00517 0.9952 0.990323
1.00514 0.995943 0.989574
1.00522 0.997764 0.987873
1.00522 0.99821 0.987392
1.00517 0.996373 0.989311
1.0052 0.996599 0.988846
1.00179 1.00378 0.987996
1.00352 1.00297 0.985458
1.00511 1.00147 0.984186
1.00517 0.99792 0.987579
1.00513 0.995729 0.989792
1.00512 0.997019 0.988496
1.00512 0.999997 0.985566
1.0051 0.997535 0.987965
1.00189 1.00323 0.988438
1.00159 1.00297 0.989123
1.00043 1.00504 0.988917
1.00015 1.00164 0.992668
1.00008 1.00394 0.990481
1.00518 0.996304 0.989401
1.0052 0.996203 0.989371
1.00515 0.995485 0.990026
1.0022 1.00383 0.987148
1.00408 1.00282 0.984556
1.0051 1.00151 0.984052
1.00513 0.996154 0.989295
1.00508 0.999327 0.986169
1.00512 0.996539 0.988903
1.00009 1.00097 0.993406
1.00215 1.00274 0.988405
1.00171 1.00225 0.989357
1.00083 1.00485 0.988508
1.00036 1.00458 0.989726
1.00011 1.00333 0.991202
1.0052 0.99542 0.989989
1.00519 0.995251 0.990261
1.00513 0.995119 0.990194
1.00517 0.995487 0.989909
1.00275 1.00338 0.986575
1.00512 0.997604 0.987774
1.00473 1.00267 0.983379
1.00502 1.0018 0.983825
1.00014 1.00027 0.994029
1.00009 1.00257 0.992077
1.00025 1.00398 0.990501
1.00055 1.00503 0.988825
1.0023 1.00228 0.98823
1.00181 1.00351 0.988087
1.00022 1.00053 0.993813
1.00002 1.00259 0.992092
1.00515 0.998369 0.987187
0.999841 1.00481 0.990061
1.00141 1.00434 0.988039
1.00065 1.0038 0.989431
1.00514 0.999496 0.986001
1.00511 0.998371 0.987127
1.00291 1.00346 0.985856
1.00495 1.00109 0.984869
1.00019 1.00186 0.992594
0.999894 1.004 0.990907
1.00201 1.00336 0.988041
0.999974 1.00501 0.989637
1.00126 1.00271 0.989675
1.00511 0.996913 0.988624
1.0051 0.999561 0.986032
1.0051 0.998271 0.987043
1.0037 1.00274 0.985418
1.00502 1.00088 0.984727
0.999935 1.00273 0.991978
0.999766 1.00491 0.98994
1.0027 1.00239 0.987717
1.0005 1.00404 0.988897
1.00512 0.995503 0.989791
1.00493 0.99754 0.988328
1.00502 0.999787 0.985714
1.00414 1.00139 0.98501
1.00026 1.0016 0.992732
1.00008 1.0024 0.992176
0.999848 1.00308 0.992071
1.00014 1.00172 0.992796
1.00004 1.00246 0.992105
1.00014 1.00175 0.992795
0.999979 1.00283 0.991955
1.00011 1.00249 0.992057
0.999906 1.00293 0.992029
1.00008 1.00294 0.991693
1.00013 1.00259 0.99187
1.00012 1.00183 0.992728
1.0001 1.00048 0.994071
1.00015 1.00038 0.994089
1.00013 0.998077 0.996873
1.0002 1.00028 0.994089
1.00013 0.998093 0.996887
1.00003 0.996836 0.998074
1.00012 0.998129 0.996898
0.999969 0.996882 0.998092
0.999882 0.996989 0.998093
1.00002 0.998212 0.996444
0.999942 0.998624 0.996174
0.999723 0.99727 0.999168
0.999863 0.999129 0.995815
0.999667 0.99764 0.999078
0.999658 0.998007 0.998937
1.00517 0.997696 0.987909
1.00519 0.996485 0.989076
1.00516 0.995395 0.990036
1.00524 0.994965 0.990435
1.00524 0.996544 0.989062
1.00523 0.997741 0.987899
1.00521 0.996461 0.989218
1.00523 0.995085 0.990426
1.00517 0.995226 0.990263
1.00514 0.995876 0.989663
1.00521 0.995292 0.990266
1.00516 0.994944 0.990644
1.00515 0.995092 0.990321
1.00518 0.996363 0.9894
1.00521 0.996245 0.989323
1.00515 0.99561 0.989906
1.00223 1.00388 0.987116
1.00422 1.00275 0.984653
1.00508 1.00151 0.984014
1.00513 0.996171 0.989286
1.0051 0.996496 0.988747
1.00507 0.999128 0.986463
1.00226 1.00261 0.988356
1.00148 1.00216 0.989886
1.001 1.00495 0.988448
1.0001 1.00089 0.993503
1.0003 1.00459 0.98974
1.00011 1.0033 0.991141
1.00519 0.995503 0.990042
1.0052 0.995173 0.990314
1.00513 0.995165 0.990239
1.00274 1.00347 0.986547
1.00457 1.00261 0.983648
1.00493 1.00161 0.984145
1.00516 0.995542 0.989843
1.00512 0.997529 0.987724
1.00013 1.00023 0.994179
1.00009 1.00258 0.992073
1.00207 1.00224 0.988451
1.00169 1.00357 0.988561
1.00049 1.00494 0.989043
1.00023 1.00401 0.990433
1.00516 0.994962 0.990634
1.00514 0.994931 0.990487
1.00512 0.9951 0.99031
1.00513 0.995553 0.989614
1.00309 1.00271 0.985914
1.0048 1.00058 0.985239
1.00498 1.00302 0.982918
1.0002 0.999839 0.994563
1.0002 1.00099 0.99345
1.0001 1.00171 0.992759
1.00003 1.00356 0.991158
1.0001 1.00467 0.989822
1.00022 1.00484 0.98912
1.00252 1.00126 0.988445
1.00177 1.00346 0.989257
1.00015 1.00187 0.992607
0.999954 1.00402 0.99089
1.00512 0.996905 0.988821
1.00004 1.00503 0.989642
1.00204 1.00347 0.988034
1.00105 1.00252 0.990117
1.00509 0.999535 0.986103
1.00511 0.998325 0.98706
1.0036 1.00285 0.985219
1.00504 1.0009 0.9846
0.999951 1.00281 0.991891
0.999842 1.00479 0.99
1.00262 1.00244 0.987815
1.00085 1.0041 0.988991
1.00513 0.995392 0.989952
1.00501 0.997535 0.988131
1.00502 0.999748 0.985744
1.00445 1.00155 0.984864
0.99979 1.00352 0.991481
1.00513 0.995016 0.990283
1.00053 1.00499 0.989286
1.00269 1.00283 0.987157
1.00497 0.996023 0.989884
1.00485 0.998739 0.986345
1.00483 1.00112 0.984919
1.00008 1.00244 0.992198
0.999836 1.00303 0.992046
0.999561 1.00347 0.992212
1.00014 1.00172 0.992789
1.00011 1.00248 0.992095
0.999865 1.00286 0.991963
1.00013 1.00181 0.992716
1.00011 1.00259 0.991891
0.999797 1.003 0.99204
1.00013 1.00287 0.991728
0.999987 1.00275 0.992199
0.99997 1.003 0.99183
1.00018 1.0031 0.991403
1.00026 1.00261 0.991685
1.00015 1.00193 0.99258
1.00006 1.0006 0.994013
1.00009 1.0005 0.994068
1.00013 0.998127 0.996829
1.00015 1.00039 0.994087
1.00013 0.99811 0.996869
1.00006 0.996781 0.998063
1.00013 0.998122 0.996885
1.00002 0.9968 0.99808
0.999964 0.99685 0.998095
1.00019 0.999784 0.99465
1.00008 0.997966 0.99659
1.00002 0.998235 0.996428
0.999813 0.996987 0.999213
0.999945 0.998661 0.996148
0.999726 0.997348 0.999149
0.99968 0.997705 0.999053
1.00514 0.995808 0.989752
1.00518 0.995252 0.990203
1.00522 0.995224 0.99032
1.00522 0.996441 0.989261
1.0052 0.995199 0.990407
1.00515 0.994942 0.990661
1.00514 0.995127 0.9903
1.00514 0.994939 0.990701
1.00515 0.994942 0.99057
1.00494 0.99504 0.990965
1.00519 0.995585 0.990094
1.0052 0.995091 0.990367
1.00513 0.995215 0.990285
1.00273 1.00355 0.986519
1.00442 1.00258 0.98392
1.0049 1.00146 0.984464
1.00515 0.995605 0.989778
1.00513 0.997463 0.987675
1.00186 1.00226 0.988674
1.00162 1.00361 0.989032
1.00032 1.00489 0.989261
1.00012 1.00018 0.994329
1.00012 1.00256 0.992071
1.00021 1.00408 0.990365
1.00517 0.994952 0.990592
1.00018 0.999861 0.994559
1.00017 1.00103 0.993384
1.00513 0.994931 0.990501
1.00512 0.995099 0.990303
1.00284 1.00294 0.98633
1.00498 1.00285 0.983084
1.00485 1.00046 0.985159
1.00513 0.995714 0.989511
1.0001 1.00169 0.99294
1.00008 1.00353 0.991137
1.00275 1.00168 0.988185
1.00118 1.00347 0.989648
1.00029 1.00474 0.989303
1.00006 1.00471 0.989915
1.00518 0.994954 0.990437
1.00511 0.994878 0.990564
1.00512 0.995045 0.990072
1.00476 0.996485 0.989167
1.00284 1.00249 0.98692
1.00448 1.00312 0.983774
1.00012 1.00112 0.993295
1.00018 1.00112 0.993357
1.00029 1.00172 0.992713
1.0001 1.00291 0.991511
0.99996 1.00426 0.990703
1.00069 1.00441 0.989253
0.999666 1.005 0.989648
1.00194 1.00096 0.989809
0.999971 1.00287 0.991805
0.999965 1.00472 0.990063
1.00514 0.995274 0.990112
1.00507 0.997563 0.987936
1.00116 1.00416 0.989085
1.00253 1.00244 0.98791
1.00504 0.99972 0.985772
1.00474 1.00172 0.984716
0.999837 1.00354 0.991441
1.00514 0.994946 0.990419
1.00031 1.00494 0.989382
1.00269 1.0027 0.987069
1.005 0.995927 0.989826
1.00478 0.998803 0.986597
1.00482 1.00128 0.984966
0.999884 1.00452 0.990693
1.00451 0.994947 0.991959
1.00167 1.00397 0.988841
1.00332 1.00278 0.986551
1.00487 0.99664 0.989156
1.00413 1.0007 0.985894
0.999261 0.996977 0.991347
0.99979 1.00302 0.992022
0.999443 1.00354 0.992203
0.999717 1.00354 0.992061
1.00013 1.00183 0.992704
1.00009 1.00262 0.991911
1.00018 1.00281 0.991763
0.999728 1.003 0.992052
1.00015 1.00193 0.992579
1.00022 1.00267 0.991673
0.999943 1.00284 0.992076
1.00014 1.00315 0.991405
1.00005 1.00293 0.991794
1.00003 1.00265 0.99214
1.00026 1.00324 0.991118
1.00021 1.00316 0.991305
1.00036 1.00273 0.991417
1.00019 1.00203 0.992313
1.00027 1.00253 0.991907
1.00018 1.00211 0.992193
1.00006 1.00064 0.993962
1.00006 1.0006 0.99401
1.00015 0.998216 0.996217
1.0001 1.00049 0.994065
1.00014 0.99817 0.996541
1.00003 0.996744 0.999168
1.00013 0.998146 0.996866
1.00006 0.996744 0.998068
1.00002 0.996766 0.998083
1.00015 0.999756 0.994729
1.00019 0.999756 0.994657
1.0001 0.997832 0.9967
1.00007 0.997973 0.996843
0.999888 0.996788 0.999246
1.00003 0.998255 0.996412
0.999804 0.997055 0.999202
0.999729 0.997406 0.99913
1.00513 0.995162 0.990279
1.00514 0.994944 0.990678
1.00519 0.995107 0.990548
1.00515 0.994938 0.990698
1.00514 0.994941 0.990565
1.00497 0.995134 0.990629
1.00517 0.994972 0.990502
1.00099 0.994845 0.987996
1.00418 0.994921 0.993424
1.00005 1.00117 0.993503
1.00518 0.99494 0.990551
1.00513 0.994934 0.990516
1.00513 0.995094 0.990296
1.00256 1.00312 0.986743
1.00491 1.0027 0.98325
1.00497 1.00032 0.985082
1.00512 0.995902 0.989406
1.00309 1.00185 0.987926
1.00055 1.00348 0.990043
1.00041 1.00463 0.989488
1.00016 0.999903 0.994554
1.00004 1.00471 0.990009
1.0001 1.00167 0.99312
1.00012 1.00349 0.991115
1.00015 1.00102 0.993318
1.00518 0.994951 0.990438
1.00012 1.00109 0.993393
1.00015 1.00116 0.993353
1.00028 1.00172 0.992634
1.0051 0.994892 0.990548
1.00512 0.995093 0.99004
1.00302 1.00242 0.986961
1.00439 1.0026 0.98429
1.00466 0.996894 0.98908
1.00004 1.00295 0.991639
1.00003 1.00424 0.990522
1.00183 1.00168 0.989621
1.00005 1.0048 0.989692
1.00059 1.00432 0.989323
1.00514 0.995064 0.990539
1.00513 0.994875 0.99048
1.00504 0.995993 0.989356
1.00451 0.998317 0.98864
1.00176 1.00269 0.989038
1.00012 1.00207 0.992332
1.00031 1.00191 0.992168
1.00012 1.00258 0.991864
0.999897 1.00425 0.991036
0.999999 1.00442 0.990204
1.00009 1.00454 0.98964
1.00037 1.00355 0.990244
0.999927 1.00354 0.991398
1.00002 1.00484 0.989476
1.00516 0.994899 0.990552
1.00504 0.995792 0.989767
1.00475 0.998847 0.986848
1.00271 1.00256 0.986984
1.0048 1.00141 0.985014
0.999914 1.00446 0.990803
1.00443 0.99493 0.992076
1.0013 1.00389 0.988981
1.00307 1.00283 0.986577
1.00481 0.996371 0.989495
1.00424 1.00079 0.985867
0.999289 0.996781 0.989306
1.00003 1.0044 0.990592
1.0032 0.996694 0.992111
1.00122 1.0034 0.989309
1.00271 1.00194 0.987419
1.00397 0.997523 0.988575
1.0003 0.995509 0.954116
0.996967 0.994933 0.973208
0.996955 1.00261 0.990396
0.99977 0.996871 0.904277
0.994729 0.997588 0.881652
0.99935 1.0036 0.992194
0.999421 1.00379 0.99212
0.999778 1.00296 0.992333
1.00014 1.00192 0.992577
1.00027 1.00259 0.991659
1.00013 1.00318 0.991407
1.00013 1.00287 0.991758
0.999892 1.00297 0.991954
1.00024 1.0031 0.991263
1.00018 1.002 0.992385
1.00035 1.00272 0.991437
1.00005 1.00265 0.992056
1.00019 1.00328 0.991212
1.00025 1.00329 0.991206
0.999922 1.00298 0.991751
1.00034 1.00318 0.991072
1.00035 1.00272 0.99137
1.00021 1.00211 0.992176
1.00034 1.00277 0.991468
1.00023 1.00273 0.991695
1.00012 1.00251 0.992033
1.00025 1.00256 0.991842
1.00023 1.00185 0.99253
1.0002 1.00212 0.992181
1.00011 1.00061 0.993932
1.00006 1.00066 0.99396
1.00014 0.998284 0.996191
1.00005 1.00062 0.994007
1.00015 0.998229 0.996214
1.00004 0.99675 0.999161
1.00015 0.998211 0.996253
1.00006 0.996745 0.998602
1.00006 0.996708 0.998072
1.00009 0.999771 0.994806
1.00015 0.999744 0.99473
1.00012 0.997736 0.996776
1.0002 0.999728 0.994663
1.0001 0.997795 0.996954
0.999942 0.996622 0.999275
1.00008 0.998013 0.996561
0.999876 0.996871 0.99923
0.999799 0.997113 0.99919
1.00514 0.994942 0.99056
1.00515 0.994937 0.990695
1.00499 0.995145 0.990294
1.00084 0.994941 0.988105
1.00516 0.994969 0.990496
1.00407 0.995374 0.992963
1.0049 0.996368 0.99122
0.997159 0.995009 0.971998
1.00081 0.996569 0.989436
1.00007 1.00121 0.993439
1.0001 1.00111 0.993497
1.00002 1.00215 0.992566
1.00007 1.00212 0.992533
1.00517 0.994945 0.990438
1.00509 0.994899 0.990532
1.00513 0.995108 0.990007
1.00342 1.00217 0.987003
1.00422 1.00195 0.984801
1.00457 0.997345 0.98899
1.00158 1.00255 0.989432
1.00048 1.0046 0.989733
1.00047 1.00421 0.989391
1.00012 1.00123 0.993348
1.00007 1.00425 0.99034
1.00007 1.00295 0.991767
1.00012 1.00108 0.993492
1.00023 1.00174 0.992552
1.00515 0.995019 0.990531
1.00012 1.00212 0.99244
1.00029 1.00193 0.992334
0.999959 1.00248 0.992225
1.00513 0.994885 0.990391
1.00493 0.995857 0.989395
1.00221 1.00203 0.988949
1.00416 0.998245 0.98903
0.999978 1.00408 0.990928
1.00016 1.0046 0.989754
1.0004 1.00387 0.990211
1.00055 1.00439 0.989565
1.00469 0.994988 0.991381
1.00511 0.995777 0.989937
1.00501 0.996453 0.989242
1.00224 0.999604 0.991292
0.999982 1.00324 0.991475
1.00012 1.00315 0.991288
0.999434 1.00457 0.991093
0.999632 1.00506 0.990109
1.00002 0.994899 0.947541
0.999903 1.00443 0.990914
1.00083 1.00389 0.989119
1.00438 0.994913 0.99219
1.00475 0.996197 0.989834
1.0043 1.00082 0.985835
1.00278 1.00289 0.9866
0.999471 0.996583 0.987208
0.999902 1.0046 0.990681
1.00342 0.996442 0.992128
1.00112 1.00346 0.989342
1.00302 1.00161 0.987381
1.00422 0.997798 0.988619
1.00141 0.995774 0.945949
0.996769 0.995221 0.968995
0.996843 1.0023 0.990148
0.999786 0.997404 0.907508
0.994718 0.997548 0.871859
0.999774 1.00373 0.991644
0.999879 0.995203 0.913587
0.995318 0.996894 0.883084
1.00188 1.0003 0.990911
1.00059 1.00328 0.990299
1.00222 1.00052 0.988918
0.9967 1.00352 0.989898
1.00033 0.99717 0.951288
0.994939 0.99658 0.966872
0.998198 0.998796 0.911464
0.994791 0.998789 0.879138
0.999187 1.00399 0.992179
0.999648 1.00319 0.992266
0.999567 1.00246 0.99357
1.00019 1.00196 0.992457
1.00034 1.00275 0.991457
1.00015 1.00318 0.991223
1.00012 1.0033 0.991306
1.00008 1.00262 0.991973
1.00022 1.00208 0.992187
1.00018 1.00336 0.991166
1.00033 1.00317 0.991085
1.00038 1.00269 0.991429
0.99992 1.00294 0.991841
1.00012 1.00337 0.991405
0.999554 1.00322 0.991954
1.00043 1.00312 0.990932
1.00043 1.00282 0.99126
1.00038 1.00275 0.991447
1.00023 1.00273 0.991723
1.00045 1.00282 0.991272
1.00008 1.00287 0.991786
1 1.00262 0.99186
0.999729 1.00378 0.991385
0.999972 1.00277 0.992022
1.00014 1.00252 0.992029
1.00017 1.00177 0.9927
1.00025 1.00258 0.991777
1.00024 1.00185 0.992464
1.00017 1.00052 0.993924
1.00021 1.00214 0.992169
1.0001 1.00062 0.993934
1.00012 0.998266 0.996784
1.00006 1.00067 0.993957
1.00013 0.998263 0.996486
1.00009 0.996776 0.997997
1.00014 0.998242 0.996212
1.00003 0.99676 0.999158
1.00009 0.996753 0.998035
1.0001 1.00132 0.993275
1.00005 0.999827 0.994815
1.0001 0.999757 0.994808
1.00013 0.997704 0.996797
1.00016 0.999731 0.994732
1.00013 0.997704 0.996776
0.999984 0.996518 0.999288
1.00008 0.997801 0.997188
0.999958 0.996697 0.998765
0.99992 0.996926 0.998199
1.00052 0.995253 0.98824
1.00514 0.994964 0.990491
1.00394 0.996125 0.992498
0.996759 0.995039 0.973378
1.00065 0.996417 0.989692
1.00494 0.995857 0.991025
1.00326 0.99709 0.989065
0.996859 0.996898 0.975912
1.00009 0.995634 0.951808
0.999324 0.998331 0.914764
0.994669 0.997607 0.880398
0.999953 1.00218 0.992498
1.00008 1.0012 0.993439
1.00015 1.00105 0.993491
1.00003 1.00215 0.992538
0.9999 1.00302 0.991923
1.00018 1.00266 0.991856
1.00006 1.00251 0.992225
1.00001 1.00224 0.99246
1.00517 0.99494 0.99052
1.00514 0.994904 0.990299
1.0049 0.995644 0.989436
1.00243 1.00161 0.988864
1.00384 0.998216 0.989423
1.00045 1.00422 0.990177
1.00093 1.00427 0.989492
1.00037 1.00475 0.989306
1.00019 1.00194 0.992502
0.99998 1.0041 0.99082
1.00013 1.00217 0.992551
0.9999 1.00236 0.992586
1.00469 0.99494 0.991464
0.999966 1.00326 0.991554
1.00009 1.00323 0.991443
1.00505 0.995478 0.989871
1.00472 0.996038 0.989531
1.00223 0.999593 0.990992
0.999696 1.00479 0.990614
1.00001 1.00473 0.990192
1.00343 0.996273 0.991908
1.00468 0.996158 0.990527
1.00427 0.995365 0.991252
1.00138 1.00034 0.991443
1.00001 1.00415 0.99054
0.999638 1.00436 0.99092
0.999648 1.00515 0.99046
0.999908 0.994839 0.914859
1.00052 0.995018 0.956422
0.999838 1.00476 0.990771
1.00104 1.00344 0.989377
1.00353 0.995988 0.992149
1.00444 0.998097 0.988664
1.00338 1.00133 0.98735
1.00052 0.995056 0.952528
0.997167 0.995633 0.968236
0.996675 1.00247 0.989868
0.999155 0.9973 0.916393
0.994702 0.997581 0.861828
0.999742 1.00368 0.991658
0.999881 0.995839 0.912528
0.995283 0.996954 0.878135
1.00184 1.00042 0.990968
1.00061 1.00314 0.990356
1.00234 1.0006 0.989381
0.997043 1.0033 0.990515
1.00146 0.997011 0.945194
0.994922 0.996052 0.970763
0.998544 0.999438 0.9119
0.994901 0.998575 0.876947
0.999311 1.00334 0.993154
0.995395 0.996775 0.882691
0.995072 0.998425 0.897067
0.999591 1.00189 0.992991
0.999588 1.00332 0.992303
0.996139 1.00278 0.990953
0.994829 0.99897 0.970068
0.998409 0.999216 0.943138
0.995117 0.999868 0.917593
0.994793 0.995509 0.886146
0.999641 1.00329 0.9922
0.999672 1.00218 0.993521
0.998703 1.00287 0.993837
1.00022 1.00206 0.992198
1.00038 1.00265 0.991489
1.00032 1.00314 0.991098
1.00014 1.00344 0.991125
0.999875 1.00295 0.991931
1.00042 1.00283 0.991255
1.00014 1.00328 0.99134
1.00044 1.00309 0.990949
0.999344 1.00349 0.992076
0.997714 1.00441 0.99377
1.00017 1.00344 0.991161
1.00063 1.00322 0.990582
1.0004 1.00272 0.991426
1.00026 1.00268 0.99175
1.00043 1.00285 0.991249
1.0001 1.00287 0.991762
1.00005 1.00258 0.991971
0.999849 1.00337 0.991616
1.00003 1.00301 0.991549
0.999945 1.00269 0.992034
1.00022 1.00286 0.991538
0.999905 1.00496 0.98952
0.999552 1.00416 0.991116
0.999783 1.00376 0.991376
0.999849 1.00314 0.991859
0.999996 1.00278 0.992015
1.00008 1.00184 0.99274
1.00014 1.00256 0.992024
1.00018 1.00176 0.992706
1.00023 1.00038 0.993943
1.00025 1.00186 0.992398
1.00017 1.0005 0.993932
1.00013 0.99825 0.996785
1.0001 1.00062 0.993936
1.00014 0.99824 0.996496
1.00006 0.996753 0.998017
1.00015 0.998238 0.996196
1.00003 0.996781 0.999153
1.00003 0.996768 0.999156
1.00013 1.00147 0.993303
1.00005 0.999927 0.994723
1.00009 1.00133 0.99328
1.00013 0.997702 0.996785
1.00006 0.99982 0.994818
1.0001 0.999754 0.994811
1.00013 0.997693 0.996794
1.00001 0.996461 0.999289
1.00011 0.997683 0.997255
1 0.996533 0.9988
0.999984 0.996697 0.998282
0.99985 0.996029 0.906255
0.994842 0.996909 0.882137
0.997964 0.994854 0.973627
1.00054 0.995723 0.989968
1.005 0.995143 0.990831
0.996453 0.995897 0.977163
1.00344 0.996326 0.989396
1.00118 0.995997 0.950981
0.999806 0.997611 0.905915
0.994683 0.997485 0.870511
0.998679 0.995101 0.980726
1.00001 0.997912 0.951838
0.998311 0.999077 0.910258
0.994766 0.997463 0.878895
1.00003 1.00319 0.991526
0.999959 1.00218 0.992572
1.00012 1.00115 0.993439
1.00003 1.00213 0.99251
0.999879 1.00291 0.992066
1.00015 1.00323 0.991378
1.00013 1.00271 0.99187
1.00021 1.00279 0.991587
1.00009 1.00246 0.992139
0.999958 1.00236 0.99239
1.00468 0.994937 0.991552
1.00511 0.995214 0.989821
1.00428 0.995755 0.989823
1.00209 0.999746 0.99069
1.00038 1.00443 0.990274
0.999925 1.00497 0.990135
1.00007 1.00318 0.991598
0.999902 1.00331 0.991631
1.00346 0.995646 0.992133
0.999959 1.00434 0.990443
0.999616 1.00444 0.990803
1.00486 0.995883 0.990188
1.00394 0.995375 0.99155
1.00178 1.00029 0.990963
0.999875 1.00514 0.990324
1.00066 0.997508 0.992636
1.00251 0.995705 0.994638
1.0002 1.00249 0.991292
0.999701 1.00472 0.990263
0.99974 1.00486 0.990179
0.999473 1.00512 0.990565
0.994761 0.996601 0.89787
0.999895 0.994867 0.917895
1.00003 0.994912 0.947588
0.999568 1.00384 0.991671
1.00063 1.00296 0.990412
1.00187 1.00005 0.991032
1.00251 1.00078 0.989839
0.999852 0.995452 0.918952
1.00021 0.99695 0.945342
0.994905 0.995502 0.967002
0.997365 1.00218 0.991086
0.998334 0.999081 0.902359
0.995272 0.996979 0.879736
0.994878 0.998325 0.882759
0.999036 1.00329 0.993161
0.995338 0.995787 0.888657
0.995192 0.998607 0.896624
0.999899 1.00171 0.992923
0.999353 1.00347 0.9923
0.995953 1.00008 0.993881
0.994864 0.998241 0.968992
0.99744 0.999182 0.952044
0.997289 0.999886 0.907687
0.994798 0.995513 0.891944
0.99775 1.00395 0.99525
0.995057 0.996666 0.907793
0.994769 0.995285 0.906731
0.995909 1.00219 0.999265
0.994797 0.999917 0.976685
0.995196 0.999976 0.95257
0.994802 0.999917 0.905251
0.994855 0.994782 0.889658
0.999758 1.00192 0.993471
0.998875 1.0029 0.994018
0.997234 1.0043 0.995167
1.00041 1.00287 0.99125
1.00046 1.00308 0.990965
1.00017 1.00316 0.991276
0.999151 1.00373 0.992203
1.00055 1.00331 0.990563
1.00013 1.0035 0.991134
0.997764 1.00433 0.994184
0.99584 1.00522 0.99654
0.998286 1.00446 0.993499
1.00036 1.0035 0.990797
1.00044 1.00287 0.991224
1.00011 1.00288 0.991739
1.00005 1.00258 0.992079
1.00005 1.00295 0.991627
0.999874 1.00337 0.991622
0.999942 1.00275 0.992068
1.00008 1.00298 0.991767
0.999206 1.00268 0.993147
1.00119 1.00055 0.991793
1.00027 1.00273 0.991647
1.00017 1.00388 0.990358
1.00143 1.0049 0.987451
0.99983 1.00477 0.990609
0.999776 1.00493 0.989913
0.999654 1.00412 0.991181
0.999703 1.00352 0.991543
0.999839 1.00375 0.991368
0.999923 1.00307 0.991858
1.00003 1.0021 0.992586
1.00006 1.00274 0.992008
1.00012 1.00183 0.992735
1.00024 1.00037 0.99394
1.0002 1.00174 0.992712
1.00023 1.0004 0.993947
1.00013 0.998232 0.996801
1.00018 1.00049 0.993939
1.00014 0.998229 0.996501
1.00002 0.996836 0.998014
1.00015 0.998214 0.996205
1.00004 0.996774 0.998585
1.00003 0.996777 0.999156
1.00015 1.0018 0.992749
1.00009 1.00003 0.994565
1.00009 1.00151 0.993133
1.00014 0.997745 0.996729
1.00005 0.999918 0.994725
1.00007 1.00138 0.993284
1.00003 0.996439 0.999286
1.00013 0.997699 0.996786
1.00006 0.999802 0.994821
1.00013 0.997683 0.996792
1.00001 0.996474 0.999289
0.999984 0.996523 0.999287
0.994707 0.994937 0.890176
0.99987 0.995643 0.911661
0.99507 0.998704 0.896897
0.995012 0.997031 0.87948
0.996503 0.995392 0.974511
1.00349 0.996251 0.989756
1.00029 0.996537 0.949548
0.999802 0.997293 0.915528
0.994706 0.997587 0.86048
0.998492 0.995651 0.979781
1.00127 0.99769 0.941924
0.998478 0.999377 0.911017
0.994801 0.99808 0.873713
0.995616 0.996229 0.975254
0.997819 0.998926 0.943921
0.995747 0.999855 0.90308
0.994844 0.995245 0.880643
1.00001 1.00399 0.990843
0.999989 1.00315 0.991642
0.99993 1.00223 0.992645
0.999851 1.0028 0.992208
1.00035 1.00347 0.990639
1.00014 1.00312 0.991476
1.00005 1.00277 0.991882
1.00036 1.00285 0.991418
1.00023 1.00279 0.991677
1.00011 1.00244 0.992051
1.0036 0.995367 0.992342
1.00484 0.995501 0.989856
1.00395 0.995267 0.99184
1.00201 1.00009 0.990498
1.00002 1.00511 0.99019
0.999704 1.00456 0.990687
0.99989 1.00451 0.990346
0.999929 1.00474 0.990152
1.00087 0.997381 0.992957
0.999873 1.00488 0.990133
0.999722 1.00512 0.990536
1.00273 0.995695 0.994152
1.00066 1.00238 0.991139
0.998576 0.99705 0.994206
0.998462 0.998164 0.999967
0.998758 1.00438 0.99191
0.99995 1.00492 0.989867
0.999423 1.00506 0.990635
0.994811 0.996461 0.913273
0.994753 0.99664 0.89574
0.99988 0.994849 0.909065
0.998774 1.00325 0.993169
0.999175 1.00352 0.992279
1.00023 1.00157 0.992872
0.995329 0.994895 0.889494
0.99772 0.998937 0.944199
0.994865 0.997419 0.969299
0.996089 0.998762 0.997029
0.995692 0.999895 0.917706
0.995484 0.998826 0.896205
0.994849 0.995302 0.892207
0.997637 1.00382 0.995471
0.995171 0.995793 0.910672
0.994748 0.995313 0.906783
0.996149 1.00242 0.998356
0.994828 0.999648 0.978117
0.996139 0.99994 0.944298
0.994855 0.994823 0.890259
0.994852 0.999955 0.911954
0.995687 1.00509 0.997897
0.994666 0.994725 0.926057
0.994776 0.994794 0.91019
0.994831 0.995527 0.880943
0.995043 1.0005 0.993547
0.995035 0.999848 0.955739
0.994939 0.999992 0.910765
0.999109 1.00299 0.994197
0.9977 1.00444 0.994433
0.995502 1.00515 0.99805
1.00054 1.00333 0.990543
1.00006 1.00354 0.991105
0.997756 1.00426 0.994585
1.00026 1.00344 0.990859
0.998306 1.00432 0.993526
0.995972 1.0048 0.996871
0.995577 1.0051 0.997894
0.99848 1.00363 0.993487
1.00005 1.00291 0.991705
0.999895 1.00337 0.991628
0.999966 1.00279 0.992104
0.999376 1.00288 0.99301
1.00004 1.0029 0.991756
0.999873 1.00225 0.992778
1.0005 1.00104 0.992649
1.00111 1.00241 0.989927
1.00035 1.00256 0.991758
1.00057 1.0038 0.990121
1.00194 1.00359 0.987268
1.00193 1.0042 0.986986
1.00016 1.00493 0.989666
1.00116 1.00485 0.987559
0.99988 1.00412 0.990922
0.99975 1.00485 0.990538
0.999634 1.00494 0.990306
0.99976 1.00408 0.991246
0.99976 1.00342 0.991636
1 1.00238 0.992347
0.999985 1.003 0.991859
1.00007 1.00207 0.992589
1.00021 1.00053 0.993843
1.00015 1.00182 0.99273
1.00025 1.00037 0.993937
1.00009 0.998243 0.996827
1.00024 1.00039 0.993952
1.00013 0.998212 0.996522
0.99997 0.996917 0.998037
1.00016 0.998182 0.996217
1 0.996844 0.998585
1 0.996814 0.999159
1.00026 1.002 0.992175
1.00014 1.00029 0.994022
1.00016 1.0018 0.992747
1.00015 0.997843 0.996604
1.00009 1.00005 0.994431
1.00009 1.00151 0.992965
1.00003 0.996484 0.999269
1.00014 0.997741 0.996733
1.00005 0.999906 0.994727
1.00003 0.996448 0.999287
1.00013 0.997695 0.996787
1.00001 0.996477 0.99929
0.99479 0.99484 0.909981
0.994719 0.995682 0.894843
0.999857 0.996018 0.912738
1.00046 1.00297 0.991019
0.994803 0.996582 0.911365
0.995104 0.997989 0.896614
0.995136 0.99677 0.883552
0.998597 0.996153 0.978425
0.999547 0.998255 0.951413
0.998304 0.998785 0.900908
0.994804 0.998552 0.876793
0.996476 0.996055 0.971286
0.997483 0.998832 0.95186
0.997152 0.999903 0.906939
0.994815 0.995995 0.882642
0.994869 0.997204 0.967468
0.995379 0.999956 0.951183
0.994889 0.999969 0.912016
0.994874 0.994809 0.889512
1.0002 1.00428 0.990109
1.00002 1.00402 0.990727
0.999991 1.00311 0.991757
1.00031 1.00362 0.990609
1.00031 1.00352 0.990775
1.00013 1.00306 0.991575
1.00039 1.00282 0.991453
1.00024 1.00278 0.991767
1.00087 0.997085 0.993239
1.0029 0.995747 0.993635
1.00003 1.00467 0.990042
1.00135 1.00227 0.990973
0.999988 1.00513 0.990506
0.999942 1.0049 0.990086
0.999937 1.00494 0.98993
0.998095 0.997506 0.994775
0.999637 1.00505 0.990618
0.999422 1.00403 0.99197
0.998539 0.997741 0.999975
0.999949 1.00494 0.98992
0.996603 0.998357 0.994776
0.996011 0.999924 1.00242
0.998589 1.0053 0.991902
0.999772 1.00495 0.990595
0.994649 0.994827 0.930857
0.994797 0.99664 0.913461
0.994745 0.996729 0.893608
0.997477 1.00381 0.995718
0.996098 1.00227 0.997426
0.995186 0.994831 0.913491
0.995282 0.999986 0.952899
0.994839 0.999024 0.975072
0.994861 0.999945 0.911243
0.994686 0.995559 0.906822
0.99485 0.994952 0.890849
0.996 1.00488 0.997572
0.994646 0.994727 0.925936
0.994759 0.99489 0.914215
0.994896 1.00129 0.996889
0.994807 0.996243 0.882829
0.994912 0.999258 0.950688
0.995015 0.999998 0.915409
0.995094 1.00432 0.998798
0.994684 0.994716 0.930358
0.994782 0.996811 0.911514
0.994752 0.997831 0.879088
0.995919 0.999972 0.91132
0.994915 0.998985 0.984791
0.99528 1.00071 0.943173
0.998215 1.00448 0.993696
0.995665 1.00513 0.997693
0.994935 1.00507 0.999953
1.00015 1.0034 0.990922
0.998305 1.00428 0.993554
0.996134 1.00411 0.997201
0.998658 1.00376 0.993393
0.995747 1.00423 0.997856
0.997662 1.00346 0.995991
0.999579 1.00303 0.99287
0.99992 1.00289 0.991744
0.999965 1.00234 0.992915
0.999627 1.00384 0.991016
0.999762 1.00149 0.993495
1.00092 1.00227 0.990357
1.00215 1.00303 0.987787
1.0041 1.00218 0.985123
1.00097 1.00371 0.989881
1.00233 1.00376 0.98659
1.00285 1.00329 0.987038
1.00064 1.00466 0.988509
1.00191 1.00413 0.987198
0.999828 1.0047 0.990241
1.00019 1.00496 0.989623
1.00089 1.00478 0.987668
0.99999 1.00288 0.991858
0.999833 1.0041 0.990953
0.999674 1.00493 0.990465
0.999819 1.00334 0.991729
1.00005 1.00235 0.992344
1.00017 1.0008 0.993631
1.00011 1.00204 0.992591
1.00021 1.00053 0.993839
1.00005 0.998372 0.996255
1.00026 1.00039 0.993933
1.00011 0.998237 0.996267
0.999844 0.996998 0.999176
1.00015 0.998189 0.996237
0.999949 0.996924 0.998595
0.999966 0.996876 0.99916
1.00028 1.00223 0.991878
1.00021 1.00058 0.993602
1.00024 1.00203 0.992265
1.00016 0.997999 0.996429
1.00015 1.0003 0.993972
1.00016 1.00181 0.992745
1.00003 0.996574 0.999238
1.00015 0.997836 0.996613
1.00009 1.00006 0.994298
1.00004 0.996468 0.999275
1.00014 0.997736 0.996738
1.00003 0.996457 0.999288
0.994672 0.994739 0.926651
0.994794 0.995647 0.9098
0.994721 0.996426 0.895084
1.0004 1.003 0.991101
1.0004 1.00305 0.990939
1.00044 1.0034 0.990718
0.99473 0.994759 0.90983
0.994737 0.995918 0.911401
0.995221 0.997674 0.896326
0.996221 0.99549 0.973683
0.998446 0.999367 0.942737
0.995256 0.999915 0.917381
0.994814 0.996733 0.879121
0.994909 0.997087 0.970585
0.996214 0.999974 0.948212
0.994827 0.99996 0.912329
0.99486 0.994828 0.889998
0.994871 0.997465 0.966418
0.995142 0.999961 0.952598
0.994941 0.999994 0.911226
0.994821 0.995842 0.885912
1.00035 1.00415 0.989988
1.00019 1.00429 0.990068
1.00008 1.00403 0.990612
1.00038 1.00352 0.990586
1.00023 1.00355 0.990912
1.00041 1.00281 0.991488
0.997617 0.997957 0.995333
0.998258 0.997571 1.00001
0.999979 1.00488 0.989992
1.00003 1.00324 0.992035
0.999758 1.00503 0.990601
1.00002 1.00485 0.989817
0.99943 1.00495 0.990688
0.996263 0.998051 0.995104
0.99861 1.00487 0.992562
0.995914 1.00066 1.00166
0.999761 1.00453 0.990701
0.995263 0.997705 0.995216
0.996384 1.0022 0.998288
0.998576 1.00523 0.992736
0.994673 0.994768 0.935794
0.994663 0.994814 0.932218
0.994791 0.996784 0.913634
0.9963 1.00468 0.997228
0.995018 1.00122 0.994067
0.994686 0.994731 0.925817
0.994862 0.999184 0.953356
0.994937 0.999971 0.906134
0.994759 0.994703 0.918238
0.994806 0.996893 0.879389
0.995208 1.00405 0.999199
0.994705 0.994745 0.931951
0.99473 0.99612 0.91156
0.994945 0.999251 0.981013
0.994781 0.998376 0.874027
0.99482 0.99996 0.911573
0.995007 1.00051 0.952661
0.995024 1.00442 0.996554
0.994676 0.994737 0.927031
0.995069 0.998991 0.897145
0.994651 0.997717 0.881063
0.996047 0.999213 0.903002
0.995949 0.999971 0.951276
0.995235 1.00028 0.974692
0.995959 1.00515 0.997358
0.995183 1.00386 0.999871
0.996502 1.00348 0.998574
0.998783 1.00391 0.993301
0.995898 1.00366 0.997822
0.996752 1.0039 0.996496
0.999714 1.00274 0.993133
1.00007 1.0025 0.993051
1.00067 1.00356 0.990608
1.0015 1.00456 0.987531
1.00072 1.00218 0.990799
1.00241 1.0032 0.987288
1.00392 1.00379 0.984105
1.00502 1.00166 0.984036
1.00366 1.00215 0.98568
1.00411 1.00239 0.984932
1.00272 1.00392 0.985912
1.00234 1.00342 0.987708
1.00255 1.00308 0.987383
1.00018 1.00485 0.98911
1.00079 1.00464 0.988666
1.00189 1.00406 0.987413
0.999905 1.00406 0.990791
0.999965 1.00465 0.990254
1.00021 1.005 0.98958
1.00014 1.00119 0.993286
1.00005 1.00284 0.991846
0.999789 1.00408 0.990985
1.00008 1.00233 0.99234
1.00018 1.0008 0.993627
0.999959 0.998598 0.996176
1.00022 1.00053 0.993835
1.00005 0.998371 0.99625
0.999778 0.99716 0.999166
1.00012 0.998226 0.996264
0.999876 0.997027 0.998607
0.999911 0.996966 0.999164
1.00034 1.00242 0.991768
1.00028 1.0008 0.993444
1.00031 1.00222 0.991934
1.00017 0.998184 0.996222
1.00021 1.00057 0.993684
1.00026 1.00204 0.992355
1.00001 0.996709 0.999199
1.00016 0.997981 0.996442
1.00016 1.0003 0.993921
1.00003 0.996555 0.999248
1.00015 0.997831 0.996623
1.00004 0.996462 0.999281
0.994685 0.994727 0.930063
0.994673 0.994748 0.92653
0.994801 0.996452 0.909726
1.00029 1.00329 0.990875
1.00032 1.00364 0.990647
1.00036 1.00302 0.991185
1.00037 1.00312 0.99093
1.00034 1.00349 0.990682
1.00029 1.00357 0.990691
1.00045 1.00358 0.990409
0.994744 0.995106 0.906217
0.994754 0.994841 0.91391
0.994669 0.995429 0.911446
0.994826 0.994859 0.890494
0.994878 0.99695 0.967893
0.99522 0.999963 0.945856
0.994862 0.999914 0.917981
0.994863 0.997873 0.965717
0.994911 0.999983 0.944908
0.994978 0.999999 0.916196
0.994794 0.9955 0.891779
0.995328 0.996491 0.969708
0.994926 1.00033 0.944561
0.994786 0.999892 0.905914
0.994789 0.99882 0.878512
0.999745 1.00477 0.990471
1.00027 1.00422 0.990009
1.00021 1.0044 0.990028
1.00047 1.00341 0.990563
0.996124 0.99781 0.99549
0.995823 1.0016 1.00089
1.00002 1.00492 0.989717
0.999393 1.00501 0.990782
0.998933 1.0048 0.993222
0.9997 1.00468 0.990657
0.998337 1.00523 0.992739
0.995161 0.99894 0.992456
0.995778 1.00341 0.998652
0.997871 1.00502 0.993382
0.995167 0.998602 0.990995
0.997446 1.00431 0.996995
0.99466 0.994825 0.930934
0.99466 0.994725 0.938681
0.994659 0.994788 0.933576
0.995058 1.00377 0.999558
0.994938 0.998025 0.985498
0.994691 0.994756 0.933571
0.996319 1.0007 0.943776
0.994853 0.999916 0.91708
0.994679 0.995681 0.911611
0.994787 0.998762 0.877139
0.994979 1.00292 0.997217
0.994679 0.994741 0.926925
0.995177 0.998261 0.896845
0.994919 1.00061 0.975798
0.994674 0.997586 0.871373
0.99722 0.999897 0.906585
0.994901 0.999981 0.944261
0.995477 1.00466 0.991078
0.994881 0.994851 0.9106
0.994947 0.996966 0.882754
0.99869 0.998162 0.911017
0.995287 0.99996 0.951257
0.994889 1.00002 0.968662
0.995398 1.00292 0.999987
0.995762 1.00411 0.99853
0.997727 1.00147 0.996959
0.995917 1.0043 0.997001
0.998521 1.00299 0.993691
1.00293 1.0005 0.989863
1.00174 1.00318 0.990198
1.00188 1.00446 0.98741
1.00288 1.0043 0.984737
1.00271 1.00338 0.986791
1.00424 1.00378 0.983642
1.00446 1.00391 0.982789
1.00502 1.0011 0.98459
1.00511 1.00153 0.98426
1.00495 1.00181 0.983975
1.00326 1.00218 0.986254
1.00373 1.0021 0.985908
1.0041 1.00262 0.984742
1.00174 1.00423 0.98764
1.00221 1.00338 0.987679
1.00224 1.00288 0.987724
1.00012 1.00494 0.989478
1.00022 1.00488 0.989309
1.00094 1.00461 0.988825
1.00004 1.00205 0.99256
1.00004 1.00389 0.990803
1.00009 1.00462 0.990267
0.999868 0.998839 0.996075
1.00015 1.0012 0.99327
1.00012 1.00279 0.991835
1.00019 1.0008 0.993623
0.999957 0.998612 0.996167
0.999686 0.997369 0.999151
1.00006 0.998365 0.996244
0.999769 0.997198 0.999163
0.999843 0.997058 0.999169
1.0003 1.00338 0.990861
1.00041 1.00259 0.99151
1.00033 1.00108 0.99308
1.00035 1.00243 0.991756
1.00015 0.998433 0.995998
1.00028 1.00081 0.993444
1.00028 1.00227 0.99199
0.999977 0.996875 0.999151
1.00016 0.998182 0.996236
1.00021 1.00057 0.993766
1.00001 0.996677 0.999211
1.00016 0.99797 0.996455
1.00003 0.996527 0.999258
0.994678 0.994721 0.925728
0.994692 0.994744 0.931681
0.994674 0.994778 0.926392
1.00036 1.00324 0.990901
1.00022 1.00371 0.990625
1.00012 1.00383 0.99056
1.00016 1.00373 0.990598
1.00032 1.00408 0.990336
1.00035 1.00318 0.990921
1.00028 1.00359 0.990646
1.00032 1.00353 0.990689
1.00039 1.00371 0.990485
1.00012 1.00412 0.99062
0.995107 0.998441 0.896192
0.994755 0.995512 0.9063
0.994796 0.994734 0.917979
0.994815 0.995384 0.892032
0.994944 0.999971 0.906532
0.994875 0.998653 0.964292
0.994912 1.00006 0.952351
0.994889 0.9969 0.966519
0.994982 1.00003 0.95281
0.994846 0.999958 0.913082
0.994931 0.998572 0.876166
0.995017 0.995008 0.971401
0.994931 1.00007 0.953109
0.995651 0.999878 0.91658
0.994741 0.997601 0.879699
0.998777 1.00377 0.992807
0.999825 1.00481 0.990415
1.00026 1.00424 0.99003
0.99497 0.9999 0.989595
0.995454 1.00412 0.999002
0.999703 1.00464 0.990612
0.997742 1.00522 0.992742
0.998056 1.00477 0.993408
0.99667 1.00388 0.997017
0.994926 0.998871 0.991164
0.996197 1.00226 0.998179
0.995996 1.00007 0.991371
0.995031 0.996145 0.912813
0.994669 0.994827 0.932273
0.994667 0.994695 0.941572
0.995001 1.00126 0.997562
0.994891 1.0011 0.9721
0.99468 0.994784 0.926797
0.996319 0.999986 0.949959
0.995176 0.999905 0.916959
0.995387 0.99774 0.896556
0.994706 0.99769 0.861535
0.995294 1.00493 0.991518
0.9948 0.995412 0.910442
0.995114 0.997007 0.880118
0.994894 1.00001 0.969676
0.998509 0.999281 0.911611
0.996125 0.999956 0.94703
0.995335 1.00356 0.988459
0.994729 0.99487 0.89095
0.999502 0.997959 0.915744
0.997758 0.998732 0.943761
0.994867 0.997379 0.971416
0.995214 1.00481 0.99847
0.997744 1.00175 0.996852
1.00247 1.00032 0.991905
0.997403 1.00325 0.99417
1.00191 1.00077 0.990187
1.00397 0.999249 0.988154
1.00222 1.00433 0.987288
1.00297 1.00412 0.984819
1.00442 1.00162 0.984888
1.00454 1.00374 0.98318
1.00445 1.00356 0.982867
1.00489 1.00082 0.984981
1.00514 0.99937 0.986026
1.00513 1.00102 0.984446
1.00497 1.00104 0.984666
1.00487 1.00161 0.98458
1.00508 1.00154 0.984212
1.0049 1.00197 0.983915
1.00283 1.00329 0.986508
1.00324 1.00222 0.986479
1.00377 1.00212 0.986138
1.00107 1.0044 0.988398
1.00155 1.00423 0.987771
1.00206 1.00335 0.98765
0.999939 1.00354 0.991198
1.00026 1.00483 0.989494
1.00028 1.00491 0.989507
0.999773 0.999275 0.996388
1.00009 1.00205 0.992524
1.00017 1.00374 0.990817
0.999608 0.997619 0.997947
0.999865 0.998905 0.996333
1.00017 1.00121 0.993253
0.999955 0.998632 0.996158
0.999681 0.997417 0.999143
0.99976 0.99723 0.999159
1.00021 1.00372 0.990634
1.00041 1.00287 0.99125
1.00024 1.00347 0.990829
1.00035 1.00137 0.992772
1.00036 1.00266 0.991502
1.00012 0.998708 0.99578
1.00032 1.00109 0.993082
1.00038 1.0024 0.991744
0.999937 0.997085 0.999099
1.00015 0.998417 0.996012
1.00027 1.00082 0.993443
0.999981 0.996849 0.999165
1.00016 0.998174 0.99625
1.00001 0.996651 0.999222
0.995559 0.99484 0.913911
0.994662 0.994721 0.925624
0.994672 0.994745 0.933317
1.00047 1.00317 0.990738
1.00035 1.00329 0.990928
1.00015 1.00379 0.990603
1.00024 1.00376 0.990621
1.00028 1.00376 0.990602
1.00023 1.00398 0.990456
1.00034 1.0043 0.989895
0.999878 1.00444 0.990205
1.0004 1.00344 0.990686
1.00015 1.00384 0.990561
1 1.00415 0.990585
0.99946 1.0045 0.991851
0.9953 0.997229 0.882032
0.995489 0.998586 0.89574
0.994731 0.995695 0.90637
0.995164 0.998267 0.882054
0.994849 0.999944 0.912846
0.994942 1.00031 0.944571
0.995371 0.997012 0.96451
0.995028 0.995127 0.973035
0.994716 0.997658 0.870308
0.994903 0.99995 0.948625
0.997169 0.999883 0.90685
0.994877 0.996275 0.973645
0.995489 0.999971 0.95315
0.999305 0.998234 0.907718
0.998976 1.00194 0.994912
0.998972 1.00382 0.992755
0.999741 1.00483 0.990359
0.994829 0.999284 0.991397
0.99602 1.00344 0.997033
0.998125 1.0046 0.993433
0.997447 1.00208 0.997992
0.995512 0.999982 0.991472
0.997005 0.999258 0.99392
0.994762 0.99795 0.891785
0.994926 0.995593 0.91668
0.994668 0.994806 0.933612
0.994957 1.00511 0.991836
0.994866 0.999986 0.969916
0.994795 0.996104 0.910368
0.995193 0.999993 0.945158
0.998582 0.997963 0.901821
0.995205 0.996866 0.884358
0.995712 1.00381 0.988423
0.99477 0.995514 0.895628
0.999818 0.996876 0.907144
0.994903 0.997598 0.967469
0.99749 0.998839 0.951579
0.99745 1.00064 0.992005
0.999839 0.995794 0.907024
1.00003 0.998035 0.951579
0.994866 0.996139 0.967044
0.997796 1.00197 0.996848
1.00182 0.999368 0.992354
1.00366 0.999674 0.989465
1.00083 1.00107 0.990517
1.00343 0.999827 0.988131
1.00458 0.998303 0.987801
1.00305 1.00395 0.984899
1.00427 1.00161 0.984857
1.005 0.998206 0.987083
1.00443 1.00323 0.982944
1.00486 1.00063 0.985019
1.00508 0.997694 0.987659
1.00514 0.99771 0.987664
1.00517 0.99975 0.985599
1.00512 0.999247 0.986134
1.00511 1.00092 0.984584
1.00509 1.00097 0.984543
1.00492 1.00097 0.984742
1.00426 1.00177 0.985407
1.00469 1.00157 0.984719
1.00502 1.00147 0.984163
1.00227 1.00358 0.987231
1.00289 1.00321 0.986496
1.00323 1.00219 0.986704
1.00044 1.00414 0.989788
1.00114 1.00442 0.988385
1.00135 1.00421 0.987903
0.999695 1.00006 0.995084
1.0001 1.00338 0.991193
1.00042 1.00471 0.98951
0.999514 0.997855 0.999102
0.999755 0.999374 0.995757
1.00015 1.00204 0.992489
0.999608 0.997622 0.99912
0.999845 0.998958 0.996029
0.999677 0.99747 0.999135
1.00057 1.0034 0.990462
1.00027 1.0037 0.99061
1.0004 1.00319 0.990931
1.00032 1.00168 0.992516
1.00036 1.00291 0.991247
1.00024 1.00348 0.990797
1.00008 0.998973 0.995589
1.00034 1.00138 0.992774
1.00033 1.00272 0.991495
0.99989 0.997303 0.999046
1.00012 0.998684 0.995792
1.00032 1.0011 0.993083
0.999941 0.997043 0.999114
1.00015 0.998406 0.996026
0.999984 0.996806 0.99918
0.995383 0.996393 0.883107
0.995353 0.994842 0.913774
0.994685 0.994722 0.925522
1.0003 1.0034 0.990716
1.00108 1.00288 0.990573
1.00033 1.00364 0.990448
1.00027 1.00381 0.990644
1.00043 1.00367 0.990644
1.00005 1.00396 0.990576
1.00006 1.00437 0.990187
1.00028 1.0043 0.98998
1.00024 1.00468 0.989674
0.999841 1.00111 0.993528
1.00016 1.00401 0.990551
0.999532 1.00422 0.991575
0.999811 0.997393 0.902925
0.995227 0.997296 0.877006
0.995706 0.998791 0.895333
0.994702 0.997796 0.860723
0.996789 0.998893 0.916472
0.994881 0.999982 0.947104
0.995096 0.99503 0.970742
0.994956 0.996376 0.972223
0.998508 0.999377 0.9104
0.996152 0.999969 0.945513
0.994895 0.997795 0.973192
0.998741 0.998848 0.943774
1.00205 0.99816 0.993495
0.999077 1.00191 0.994701
0.999161 1.00393 0.992716
0.995022 1.00009 0.991532
0.998481 1.00192 0.997794
0.997636 0.999414 0.99332
0.999467 0.998879 0.990329
0.999908 0.994839 0.914606
0.994876 0.997064 0.892441
0.994787 0.994876 0.920462
0.995976 1.00408 0.988544
0.994882 0.997625 0.965497
0.994732 0.996006 0.895825
0.998811 0.998579 0.94272
0.999811 0.997415 0.916606
0.997249 0.99998 0.989955
0.999869 0.995464 0.912508
1.00138 0.997448 0.942104
0.994897 0.995993 0.970523
0.998762 0.996501 0.992213
1.00004 0.996093 0.951942
0.996387 0.996033 0.972886
1.00126 0.998212 0.992756
1.00347 0.998673 0.98942
1.00489 0.997441 0.989226
1.00283 1.00034 0.988112
1.00432 0.998481 0.987803
1.00481 0.996809 0.98879
1.00417 1.00163 0.984827
1.00489 0.998445 0.98701
1.00509 0.995962 0.98918
1.00484 1.00046 0.985057
1.00507 0.997677 0.987657
1.00512 0.9961 0.989281
1.00511 0.996772 0.988867
1.00515 0.997537 0.987869
1.00516 0.998453 0.987087
1.00515 1.00012 0.985464
1.00517 0.999797 0.985631
1.00511 0.999125 0.986242
1.00506 1.00074 0.984984
1.00511 1.00093 0.984611
1.00508 1.00092 0.984641
1.0035 1.00251 0.986125
1.00424 1.00185 0.985397
1.00453 1.00161 0.984857
1.00124 1.00368 0.988829
1.00232 1.00355 0.987212
1.00296 1.00315 0.986484
0.999848 1.00091 0.993954
1.00056 1.00398 0.989797
1.00126 1.00439 0.988372
0.999549 0.998148 0.998964
0.999712 1.00017 0.995032
1.00023 1.00327 0.991189
0.999551 0.997881 0.99847
0.999741 0.999465 0.995728
0.999617 0.997679 0.999107
1.00078 1.00294 0.990549
1.00037 1.00352 0.990514
1.00035 1.00352 0.990599
1.00035 1.00368 0.990585
1.00033 1.00326 0.99093
1.00028 1.00203 0.992231
1.00001 0.999242 0.99544
1.00031 1.00167 0.99252
1.00028 1.00299 0.991245
0.999835 0.997508 0.998997
1.00007 0.998956 0.995598
1.00032 1.00139 0.992776
0.999893 0.997263 0.999062
1.00012 0.998664 0.995805
0.999946 0.99701 0.99913
0.999843 0.995232 0.913465
0.995426 0.996531 0.885327
0.995228 0.994842 0.913627
1.00015 1.00362 0.990694
1.00026 1.00392 0.990282
1.00078 1.0029 0.990818
1.00199 1.0032 0.988468
1.00042 1.00395 0.990266
1.0002 1.00438 0.99017
1.00026 1.00424 0.990064
1.00011 1.00455 0.989946
1.00058 1.00346 0.989198
1.00092 1.00012 0.993037
1.00422 0.99799 0.989211
0.999909 1.00099 0.993699
0.999801 1.00372 0.991295
0.999046 0.997611 0.95127
0.999783 0.99784 0.907021
0.99526 0.996983 0.878639
0.999157 0.999603 0.899982
0.995832 0.999954 0.950608
0.994887 0.996306 0.973649
0.994872 0.9978 0.975147
0.997431 0.998656 0.953301
0.995941 0.99817 0.974341
1.00305 0.996142 0.993079
1.00138 0.998791 0.993609
0.999199 1.00197 0.994481
0.998405 0.999344 0.992791
1.00039 0.999057 0.989076
1.00001 0.994892 0.947587
0.999893 0.994868 0.918049
0.994992 0.996368 0.893198
0.996901 0.999658 0.987836
0.994933 0.995854 0.967321
0.999853 0.995791 0.913491
1.00017 0.998255 0.950931
0.998057 0.99775 0.992574
1.00129 0.99613 0.950707
0.996646 0.995442 0.969699
1.00141 0.99628 0.991072
0.999213 0.995821 0.978338
1.00331 0.997821 0.989428
1.00482 0.996684 0.989171
1.00496 0.995926 0.990141
1.00408 0.99867 0.987803
1.00471 0.996912 0.988722
1.00513 0.995253 0.989935
1.00477 0.998663 0.986937
1.00509 0.996045 0.989148
1.00508 0.995036 0.990247
1.00507 0.997665 0.987656
1.00513 0.996101 0.989241
1.00513 0.995774 0.989841
1.00512 0.996539 0.989015
1.00513 0.997437 0.988218
1.00515 0.997362 0.988075
1.00516 0.998472 0.987062
1.0052 0.999239 0.986291
1.00513 1.00032 0.985326
1.00515 1.00016 0.985438
1.00517 0.999844 0.985664
1.00451 1.00101 0.985717
1.00499 1.00082 0.984986
1.0051 1.00096 0.98464
1.00213 1.00292 0.988025
1.0035 1.00249 0.986123
1.00421 1.00193 0.985387
1.00019 1.00137 0.99288
1.00131 1.00361 0.988815
1.0023 1.00359 0.987194
0.999648 0.998643 0.998699
0.999906 1.00092 0.993926
1.0007 1.00379 0.989806
0.999605 0.998249 0.998884
0.999735 1.00026 0.994979
0.999604 0.997915 0.999023
1.00189 1.00344 0.988035
1.00083 1.00281 0.990533
1.00044 1.00353 0.990278
1.00019 1.00358 0.990567
1.00029 1.00358 0.990565
1.00027 1.00246 0.991802
1.00027 1.0033 0.990929
1.00026 1.00202 0.992239
0.999928 0.999536 0.995297
0.999768 0.997718 0.998959
1.00001 0.999217 0.995448
1.0003 1.00166 0.992525
0.999838 0.997486 0.999012
1.00007 0.998944 0.995608
0.999897 0.997219 0.999078
1.00029 0.995245 0.95484
0.999855 0.995407 0.912544
0.995372 0.997005 0.882216
1.00019 1.00423 0.990117
1.00053 1.00284 0.991064
1.00055 1.00384 0.990269
1.00183 1.00318 0.988566
1.00351 1.00266 0.986102
1.00087 1.00347 0.989302
0.99995 1.00446 0.990218
1.00125 1.00351 0.988534
1.00066 1.00045 0.993025
1.00262 1.00031 0.989076
1.00455 0.99695 0.990417
1.00436 0.996777 0.99003
1.00373 0.997818 0.989911
0.999607 1.00124 0.993874
0.996019 0.996293 0.973858
1.00019 0.997166 0.948918
0.998316 0.997742 0.916257
0.998012 0.999346 0.943691
0.994863 0.998141 0.976142
0.996082 0.998117 0.978856
0.999915 0.998148 0.992233
1.00329 0.995846 0.993058
1.00099 0.999295 0.993725
1.00202 0.999279 0.98777
0.996673 0.99749 0.974498
1.00034 0.995173 0.956436
0.999879 0.994844 0.909071
0.997428 0.998806 0.992808
0.996717 0.994861 0.971902
1.00026 0.996649 0.949205
1.00108 0.996432 0.991194
0.998704 0.995722 0.977595
1.00377 0.995776 0.991148
1.00299 0.998061 0.987969
1.00472 0.995977 0.989089
1.00487 0.995748 0.990132
1.00514 0.994875 0.990528
1.00462 0.997024 0.988655
1.00514 0.995216 0.98989
1.00508 0.994958 0.990489
1.00509 0.996115 0.989115
1.00508 0.995168 0.990215
1.00513 0.995255 0.990297
1.00513 0.996104 0.989201
1.00513 0.995741 0.989745
1.00512 0.996499 0.989015
1.00512 0.996316 0.989162
1.00513 0.997292 0.988378
1.00519 0.998602 0.987012
1.00517 0.998491 0.987037
1.00519 0.999305 0.986262
1.00519 0.999791 0.985893
1.00482 1.00027 0.985753
1.00513 1.00035 0.985329
1.00515 1.0002 0.985412
1.00318 1.00156 0.98758
1.00449 1.00106 0.985721
1.00492 1.00089 0.984988
1.0005 1.00167 0.992011
1.00215 1.00293 0.988025
1.0035 1.00248 0.98612
0.999812 0.999169 0.998358
1.00027 1.00134 0.99287
1.0014 1.00355 0.9888
0.999735 0.998761 0.998573
0.999955 1.00095 0.993899
0.999677 0.998337 0.998781
1.00323 1.00299 0.986057
1.00198 1.00352 0.988039
1.00123 1.00377 0.988737
1.00081 1.00276 0.990517
1.00053 1.0035 0.990184
1.00046 1.0028 0.991185
1.00023 1.00365 0.990532
1.00025 1.00247 0.991807
0.99985 0.999912 0.995062
1.00025 1.00202 0.992246
0.999931 0.999497 0.995309
0.999701 0.997936 0.998918
0.999774 0.997691 0.998971
1.00001 0.999194 0.995457
0.999839 0.997447 0.999027
0.996648 0.995268 0.975495
1.00054 0.995373 0.946366
0.999836 0.995169 0.918939
1.00486 1.0013 0.984782
1.00068 1.00372 0.99027
1.00169 1.00316 0.988667
1.00119 1.00347 0.989055
1.0034 1.00264 0.986114
1.00291 1.00104 0.98803
1.00189 1.00357 0.987873
1.00039 1.00071 0.993019
1.00304 1.00016 0.989048
1.00452 0.996667 0.99012
1.00482 0.996975 0.988583
1.00421 0.995769 0.991478
1.00425 0.996444 0.989897
1.00317 0.997565 0.990611
1.00004 0.997185 0.993064
0.995911 0.996202 0.972188
0.999745 0.996633 0.947202
0.996022 0.997522 0.977053
1.00014 0.997131 0.994305
1.00297 0.99553 0.993021
1.00089 0.99719 0.987724
0.996504 0.996202 0.976174
1.00002 0.99491 0.947655
1.00047 0.996945 0.991372
0.998539 0.996146 0.976391
1.00344 0.995528 0.991448
1.00293 0.997629 0.988338
1.00457 0.994944 0.99122
1.00447 0.997419 0.990733
1.00479 0.995558 0.990125
1.00515 0.99488 0.990405
1.00515 0.994886 0.990419
1.00513 0.995186 0.989846
1.00507 0.994956 0.990477
1.00514 0.995057 0.990393
1.00508 0.995293 0.990182
1.00512 0.995238 0.990252
1.00513 0.996 0.989511
1.00513 0.995701 0.98965
1.00512 0.996514 0.989012
1.00519 0.99783 0.987704
1.00513 0.997145 0.988538
1.00518 0.998477 0.987175
1.00521 0.999451 0.986127
1.00519 0.999369 0.986233
1.00519 0.999799 0.985841
1.00491 1.00007 0.985985
1.00371 1.00055 0.987616
1.00482 1.00034 0.985789
1.00512 1.00039 0.985332
1.00102 1.00135 0.991477
1.00312 1.00161 0.987587
1.00451 1.00111 0.985725
0.999911 0.999653 0.998063
1.00068 1.00148 0.991991
1.00216 1.00291 0.988026
0.999879 0.999261 0.998247
1.00037 1.00126 0.992857
0.999821 0.998857 0.998447
1.00455 1.0013 0.985239
1.00323 1.00301 0.986083
1.00238 1.00356 0.987065
1.00207 1.00358 0.988043
1.00129 1.00374 0.988765
1.00073 1.00331 0.990242
1.00063 1.00345 0.990089
1.00033 1.00296 0.991183
0.999816 1.0004 0.994629
1.0002 1.00252 0.991811
0.99985 0.99986 0.995081
0.99965 0.998195 0.998845
0.999934 0.99946 0.995321
0.999703 0.997903 0.998933
0.999778 0.997671 0.998983
1.00091 0.99545 0.991581
0.996851 0.995038 0.971866
1 0.995083 0.955566
1.00401 1.00061 0.986188
1.00511 0.999677 0.985974
1.00478 1.00111 0.984881
1.00149 1.00346 0.988806
1.00328 1.00262 0.986119
1.00331 1.00094 0.987842
1.00508 0.99768 0.987811
1.00346 1 0.989015
1.00449 0.9964 0.989814
1.00485 0.997007 0.988819
1.005 0.99611 0.989329
1.00427 0.995421 0.991468
1.00407 0.995917 0.991278
1.0044 0.996226 0.989757
1.00018 0.997314 0.993203
0.995913 0.996327 0.970284
1.00047 0.996757 0.996441
1.00413 0.995688 0.992116
1.00064 0.997574 0.98789
0.996521 0.995628 0.973839
1.00345 0.99488 0.991717
1.00288 0.997725 0.988735
1.00462 0.995086 0.991488
1.00456 0.996678 0.990659
1.00517 0.994933 0.990365
1.00523 0.995041 0.990542
1.00516 0.994899 0.990281
1.00514 0.994902 0.990407
1.00514 0.994973 0.990388
1.00507 0.994956 0.990466
1.00514 0.995026 0.990369
1.00516 0.995537 0.989963
1.00511 0.995231 0.990206
1.00514 0.996012 0.989504
1.00518 0.997331 0.988218
1.00513 0.99653 0.989008
1.00519 0.997844 0.987712
1.00523 0.999119 0.9864
1.00518 0.998349 0.987337
1.00521 0.9994 0.986186
1.00498 0.999913 0.986006
1.00519 0.999809 0.985789
1.0049 1.00007 0.98597
1.00387 1.00024 0.987654
1.00132 1.00078 0.991453
1.00368 1.00059 0.98761
1.00483 1.00041 0.985824
0.999993 1.00008 0.99782
1.00108 1.00128 0.991473
1.00305 1.0017 0.987593
0.999972 0.99977 0.997962
1.0008 1.00138 0.991978
0.999945 0.999368 0.998138
1.00504 1.00045 0.98537
1.00465 1.00124 0.985137
1.00373 1.00214 0.985962
1.00324 1.00303 0.986107
1.00234 1.00362 0.987068
1.00132 1.00354 0.988968
1.00133 1.00371 0.988793
1.0006 1.00343 0.990267
0.999956 1.00097 0.993865
1.00023 1.00308 0.991185
0.999807 1.00036 0.994649
0.999631 0.99856 0.998697
0.999851 0.999811 0.995101
0.999642 0.998149 0.998875
0.999707 0.997875 0.998946
1.00416 0.9949 0.992393
1.00099 0.995285 0.990032
0.996647 0.994885 0.97181
1.00511 0.998512 0.98709
1.0044 1.00021 0.986162
1.00516 0.998426 0.987156
1.00512 0.999651 0.986005
1.00471 1.00091 0.984987
1.00512 0.996906 0.988385
1.0037 1.00083 0.987659
1.00507 0.997841 0.98769
1.00514 0.995528 0.989661
1.00488 0.99703 0.98906
1.00497 0.996172 0.989236
1.00425 0.995545 0.991577
1.00373 0.995946 0.991066
1.00027 0.997385 0.993285
1.00517 0.994907 0.990381
1.00415 0.996212 0.992151
1.00043 0.997577 0.988035
1.00464 0.995217 0.991755
1.00459 0.995828 0.990593
1.00517 0.994913 0.990407
1.00522 0.994972 0.990457
1.0052 0.994935 0.990523
1.00514 0.994914 0.990396
1.00514 0.994963 0.990411
1.00518 0.995135 0.990335
1.00513 0.994993 0.990345
1.00516 0.995536 0.989908
1.00518 0.996991 0.988544
1.00515 0.996026 0.989497
1.00518 0.997351 0.988221
1.00525 0.9988 0.98672
1.00519 0.997858 0.987721
1.00523 0.999114 0.98642
1.00505 0.999806 0.986017
1.0052 0.999348 0.986245
1.00498 0.99992 0.986021
1.004 1.00013 0.987556
1.00489 1.00006 0.985955
1.00387 1.00025 0.987646
1.00138 1.0004 0.993025
1.00021 1.00003 0.995075
1.00137 1.00073 0.992129
1.00365 1.00064 0.987605
1.00004 1.00014 0.997759
1.00119 1.00112 0.991468
1.00003 0.999872 0.997858
1.00521 0.998355 0.987195
1.00518 0.999507 0.98606
1.00508 1.00036 0.98544
1.00464 1.00067 0.985855
1.00474 1.00119 0.985037
1.00377 1.00215 0.985939
1.00234 1.00268 0.987916
1.0023 1.00369 0.987071
1.00124 1.00359 0.988989
1.00031 1.00151 0.992751
1.00047 1.00357 0.99029
0.999879 1.00099 0.993888
0.999656 0.999083 0.998429
0.999799 1.0003 0.994669
0.999606 0.998476 0.998759
0.99964 0.998103 0.9989
1.00515 0.99505 0.990172
1.00448 0.994898 0.992449
1.00131 0.994893 0.988517
1.00513 0.997341 0.988027
1.00512 0.998537 0.98694
1.00481 0.999836 0.986131
1.00516 0.99854 0.987094
1.00512 0.999637 0.986035
1.00515 0.995829 0.989743
1.0051 0.996914 0.988308
1.00506 0.99801 0.98757
1.00512 0.995527 0.989668
1.00498 0.996263 0.989143
1.00429 0.995768 0.991712
1.00521 0.994927 0.990584
1.00518 0.994913 0.990522
1.0042 0.996771 0.99219
1.00518 0.994896 0.990444
1.00521 0.994945 0.990371
1.0052 0.994935 0.990477
1.00519 0.995052 0.990582
1.00513 0.994952 0.990433
1.00517 0.995121 0.990296
1.0052 0.996768 0.988775
1.00516 0.995534 0.989852
1.00519 0.997 0.988552
1.00525 0.998524 0.987005
1.00518 0.997371 0.988224
1.00524 0.998799 0.986734
1.00511 0.999708 0.986027
1.00523 0.99911 0.98644
1.00505 0.999805 0.986031
1.00409 1.0001 0.987423
1.00498 0.999926 0.986036
1.004 1.00011 0.987555
1.0015 1.00011 0.993136
1.00387 1.00025 0.987637
1.00153 1.00032 0.992962
1.00016 0.999998 0.995238
1.00003 1.00026 0.996414
1.00153 1.00065 0.992685
1.00005 1.00024 0.997719
1.00517 0.997783 0.987858
1.00523 0.999127 0.986324
1.00522 0.998162 0.987345
1.00492 0.999993 0.98606
1.00519 0.999581 0.985988
1.00511 1.00026 0.985509
1.00466 1.00062 0.98585
1.00333 1.00125 0.987538
1.00382 1.00217 0.985915
1.00237 1.00263 0.987905
1.00076 1.00164 0.99176
1.00114 1.00364 0.989012
1.00014 1.00164 0.992783
0.999737 0.999804 0.998055
0.999793 1.00103 0.993909
0.999606 0.998972 0.998539
0.999593 0.998399 0.99881
1.00518 0.995093 0.990239
1.00516 0.995076 0.990158
1.00467 0.994886 0.99247
1.00515 0.996537 0.989031
1.00512 0.997389 0.988012
1.00513 0.99856 0.986785
1.00515 0.998653 0.987033
1.00515 0.995816 0.989627
1.00509 0.996927 0.98823
1.00513 0.995529 0.989677
1.00519 0.995006 0.990583
1.0052 0.994933 0.990568
1.00518 0.994919 0.990665
1.00513 0.995503 0.990159
1.0052 0.994936 0.990432
1.00518 0.995113 0.990456
1.0052 0.996492 0.989247
1.00516 0.995103 0.990257
1.00521 0.99675 0.988779
1.00523 0.99832 0.987255
1.00519 0.997014 0.988559
1.00525 0.998527 0.987008
1.00515 0.9996 0.986086
1.00524 0.998798 0.986747
1.00511 0.999704 0.986042
1.00418 1.00007 0.987283
1.00505 0.999804 0.986046
1.00409 1.00008 0.987428
1.0016 1.00003 0.993075
1.00401 1.0001 0.987553
1.00162 1.00006 0.993045
1.00021 0.999903 0.995278
1.00167 1.00022 0.992907
0.999906 1.00015 0.995395
0.999643 1.00053 0.997992
1.00517 0.997677 0.987848
1.00521 0.998713 0.986874
1.00518 0.997823 0.987724
1.00503 0.999722 0.986376
1.00523 0.998978 0.986439
1.00522 0.997973 0.987494
1.00383 1.00035 0.987558
1.00492 0.999953 0.98604
1.0052 0.999653 0.985916
1.00468 1.00057 0.985847
1.00337 1.00121 0.987533
1.00115 1.00122 0.99141
1.0024 1.00258 0.987894
1.00064 1.00176 0.991777
0.999814 1.00046 0.997773
0.999998 1.00175 0.992811
0.999652 0.999655 0.998203
0.99957 0.998834 0.998636
1.00518 0.995668 0.989797
1.00518 0.995064 0.990259
1.00517 0.995095 0.990141
1.00516 0.996442 0.989098
1.00511 0.997433 0.987996
1.00514 0.995802 0.98951
1.00515 0.995485 0.990243
1.0052 0.994998 0.990583
1.00519 0.994938 0.990552
1.00514 0.995374 0.990334
1.00514 0.996678 0.989054
1.00518 0.995174 0.990331
1.0052 0.996644 0.989011
1.0052 0.997998 0.987698
1.00522 0.996727 0.988783
1.00523 0.998303 0.987254
1.00515 0.999453 0.986238
1.00525 0.998519 0.987011
1.00515 0.999593 0.986096
1.00426 1.00002 0.987194
1.0051 0.999699 0.986056
1.00418 1.00006 0.987291
1.00167 1.0001 0.992879
1.0041 1.00006 0.987434
1.00171 0.999994 0.992963
1.00029 0.999889 0.995188
1.00174 1.00002 0.992964
0.999983 0.999956 0.995458
0.999661 1.00033 0.995535
1.00517 0.996977 0.988671
1.00521 0.998619 0.986933
1.00518 0.997501 0.988016
1.0051 0.999406 0.986515
1.00521 0.998793 0.986776
1.00518 0.997862 0.98759
1.00404 0.99996 0.987601
1.00503 0.999617 0.986303
1.00524 0.998829 0.986555
1.00136 1.00065 0.991572
1.00385 1.00033 0.987568
1.00493 0.999915 0.98602
1.00341 1.00117 0.987529
1.00109 1.00131 0.991413
0.99984 1.00073 0.997707
1.00051 1.00188 0.991801
0.999752 1.0003 0.997867
0.999584 0.999474 0.998342
1.00515 0.99576 0.98982
1.00517 0.99571 0.989769
1.00518 0.995035 0.990279
1.00515 0.996352 0.989164
1.00512 0.996836 0.988946
1.00515 0.995492 0.990287
1.0052 0.994994 0.990584
1.00515 0.99525 0.990509
1.00514 0.996559 0.989136
1.0052 0.998006 0.98774
1.0052 0.9968 0.988775
1.0052 0.998168 0.987495
1.00514 0.999156 0.986586
1.00524 0.998297 0.987253
1.00515 0.99945 0.986245
1.00429 0.999951 0.98719
1.00513 0.999591 0.986106
1.00425 1.00001 0.987199
1.00177 1.00015 0.991393
1.00418 1.00005 0.987299
1.00177 1.00007 0.992123
1.00023 0.999939 0.997708
1.00182 0.999969 0.992852
1.00008 0.999878 0.995382
0.999766 1.00001 0.995622
1.00516 0.996676 0.989059
1.0052 0.998312 0.987347
1.00517 0.997057 0.98863
1.00514 0.999232 0.986407
1.0052 0.998612 0.986955
1.00518 0.997321 0.988184
1.00417 0.999717 0.987378
1.00509 0.999416 0.986525
1.00521 0.998871 0.986679
1.00151 1.00016 0.991782
1.00404 0.999916 0.987509
1.00503 0.999505 0.98623
0.999895 1.00061 0.997761
1.00134 1.00066 0.991576
1.00386 1.00032 0.987578
1.00102 1.00137 0.991419
0.999838 1.00061 0.997714
0.999658 1.00017 0.997986
1.00512 0.996747 0.988998
1.00514 0.995843 0.989806
1.00517 0.995752 0.98974
1.0052 0.998025 0.987624
1.00512 0.99674 0.989015
1.00515 0.995496 0.990331
1.00514 0.996434 0.989219
1.00519 0.997986 0.987742
1.00514 0.999089 0.986828
1.00519 0.998339 0.987293
1.00513 0.999277 0.986544
1.0043 0.999785 0.987151
1.00514 0.999441 0.986252
1.00429 0.999949 0.987196
1.0018 1.00013 0.991358
1.00426 1.00002 0.987205
1.00178 1.00014 0.991391
1.00025 0.999975 0.997666
1.0018 1.00005 0.991456
1.00015 0.999931 0.996508
0.999871 0.999844 0.995573
1.00514 0.997025 0.988697
1.00519 0.998157 0.987462
1.00515 0.996669 0.989085
1.00515 0.999274 0.986369
1.0052 0.998364 0.98726
1.00517 0.997141 0.988588
1.00427 0.99963 0.987294
1.00514 0.999328 0.986421
1.0052 0.998607 0.986977
1.00166 0.999898 0.99178
1.00416 0.999719 0.987365
1.00509 0.999427 0.986534
1.00003 1.0003 0.997794
1.00152 1.00014 0.991788
1.00404 0.999873 0.987416
0.999905 1.00056 0.997733
1.00133 1.00067 0.991579
0.999791 1.00056 0.997743
1.00519 0.997877 0.987826
1.00513 0.996799 0.988917
1.00513 0.99592 0.989792
1.00513 0.99898 0.986948
1.0052 0.997944 0.987721
1.00512 0.996649 0.989084
1.00519 0.997968 0.987743
1.00514 0.999095 0.986826
1.00429 0.999697 0.987264
1.00513 0.9994 0.986502
1.0043 0.99983 0.987194
1.00183 1.00006 0.991376
1.00429 0.999944 0.987202
1.00179 1.00013 0.991359
1.00026 1.00001 0.997619
1.00177 1.00014 0.991387
1.00025 0.999987 0.997643
1.00023 0.999886 0.995125
1.0052 0.998105 0.987513
1.00514 0.996858 0.98882
1.00515 0.999179 0.986488
1.0052 0.998166 0.987453
1.00514 0.996657 0.989112
1.0043 0.999688 0.987437
1.00515 0.99928 0.986364
1.0052 0.998415 0.987173
1.00178 0.999858 0.991625
1.00427 0.999674 0.987353
1.00515 0.999428 0.986435
1.00019 1.00005 0.997747
1.00167 0.99989 0.991785
1.00416 0.999715 0.987352
1.00001 1.00031 0.997784
1.00152 1.00013 0.991793
0.999904 1.00053 0.99771
1.00508 0.998956 0.987045
1.00519 0.997941 0.987754
1.00514 0.996852 0.988836
1.00423 0.999643 0.987422
1.00513 0.99899 0.986949
1.0052 0.997861 0.987819
1.00514 0.999103 0.986824
1.0043 0.999687 0.987246
1.00181 1.00002 0.99144
1.0043 0.999874 0.987236
1.00181 1.00007 0.991377
1.00028 1.00001 0.9976
1.00179 1.00013 0.991361
1.00026 1.00001 0.997616
1.00026 0.999997 0.997627
1.00512 0.999125 0.986605
1.0052 0.997921 0.98771
1.00515 0.996693 0.988944
1.00427 0.999675 0.987506
1.00514 0.999186 0.98648
1.0052 0.998174 0.987445
1.00181 0.999941 0.991502
1.00429 0.999693 0.987432
1.00515 0.999285 0.986359
1.00028 0.999945 0.997669
1.00178 0.999873 0.991628
1.00427 0.999712 0.987411
1.00015 1.00009 0.997769
1.00167 0.999898 0.991791
1.00001 1.00031 0.997766
1.00417 0.999695 0.987673
1.00508 0.998921 0.986991
1.00519 0.998002 0.987683
1.00177 0.999971 0.991579
1.00425 0.999623 0.987396
1.00513 0.998995 0.98695
1.00431 0.999674 0.987228
1.00181 1.00001 0.991446
1.00029 1.00001 0.99758
1.0018 1.00008 0.991379
1.00028 1.00002 0.997588
1.00025 1.00002 0.997611
1.00422 0.999674 0.987612
1.00511 0.999021 0.986712
1.00519 0.997741 0.987907
1.00187 1 0.992703
1.00426 0.999673 0.987505
1.00514 0.999194 0.986472
1.0003 0.99995 0.997615
1.00181 0.99996 0.991503
1.00428 0.999699 0.987426
1.00026 0.999976 0.997699
1.00177 0.999898 0.991632
1.00012 1.0001 0.997784
1.00178 0.999969 0.991595
1.00417 0.999649 0.987594
1.00508 0.998885 0.986936
1.00025 0.999999 0.997608
1.00176 0.999969 0.991582
1.00427 0.999608 0.987371
1.0018 0.999996 0.991449
1.00028 1.00001 0.997585
1.00028 1.00002 0.997582
1.00188 0.999985 0.992733
1.00421 0.999672 0.987612
1.0051 0.998914 0.98682
0.99995 0.999989 0.997944
1.00179 1.00001 0.991498
1.00426 0.999669 0.987505
1.00029 0.999961 0.99764
1.00181 0.99998 0.991504
1.00023 0.999996 0.997728
1.00021 0.999993 0.995131
1.0018 0.999968 0.992208
1.00418 0.999605 0.987515
1.00026 0.999998 0.997614
1.00176 0.999968 0.99159
1.00029 1 0.997586
0.999874 1 0.99545
1.00182 0.999983 0.992161
1.0042 0.999672 0.987613
1.0001 0.999988 0.996503
1.00179 1.00001 0.991508
1.00028 0.999973 0.997664
1.00022 0.999992 0.997632
1.00171 0.999969 0.991666
1.00022 0.999996 0.997623
1.00005 0.999992 0.996549
1.00175 0.999985 0.991609
1.00027 0.999976 0.997629
1.00022 0.999989 0.997644
1.00023 0.999985 0.997632

TENSORS stress float
0.00167796 -8.77229e-05 0.000169528
-8.77229e-05 0.000641845 -2.25194e-05
0.000169528 -2.25194e-05 0.000620888
0.00527363 -0.000127429 0.00015855
-0.000127429 0.00278651 1.73867e-05
0.00015855 1.73867e-05 0.00276097
0.00148374 -1.70002e-05 7.98616e-05
-1.70002e-05 0.000536393 -8.58568e-06
7.98616e-05 -8.58568e-06 0.000506116
0.00181293 -5.33695e-05 0.00017048
-5.33695e-05 0.000696397 -1.44463e-05
0.00017048 -1.44463e-05 0.000678325
0.00174241 -7.91912e-05 0.000166306
-7.91912e-05 0.000671355 -2.04549e-05
0.000166306 -2.04549e-05 0.000651581
0.00162765 -8.38255e-05 0.000174753
-8.38255e-05 0.000608856 -2.21552e-05
0.000174753 -2.21552e-05 0.000589468
0.00144998 -5.98334e-05 2.5044e-05
-5.98334e-05 0.000437955 -9.01136e-06
2.5044e-05 -9.01136e-06 0.000358378
0.00515088 -0.000118377 -1.10007e-06
-0.000118377 0.00269714 -7.4091e-08
-1.10007e-06 -7.4091e-08 0.00268187
0.00529069 3.85233e-05 7.06648e-05
3.85233e-05 0.00274093 3.88188e-06
7.06648e-05 3.88188e-06 0.00272787
0.0050495 -0.000236236 8.35067e-06
-0.000236236 0.00265408 3.56296e-06
8.35067e-06 3.56296e-06 0.00261435
0.0016894 6.5761e-05 0.000165172
6.5761e-05 0.000646136 1.49882e-05
0.000165172 1.49882e-05 0.00063581
0.000661739 0.000171378 2.13015e-05
0.000171378 -8.11026e-06 1.32941e-05
2.13015e-05 1.32941e-05 -9.53173e-05
0.00163413 -3.16274e-05 0.00018181
-3.16274e-05 0.000586165 2.22841e-06
0.00018181 2.22841e-06 0.000575752
0.00127367 -1.5086e-05 2.98044e-05
-1.5086e-05 0.000396272 1.0807e-06
2.98044e-05 1.0807e-06 0.000360123
0.00135786 -4.42538e-06 -2.55586e-05
-4.42538e-06 0.000463241 4.8857e-06
-2.55586e-05 4.8857e-06 0.000428793
0.00153747 -5.67379e-05 6.14439e-05
-5.67379e-05 0.000547394 -3.49726e-06
6.14439e-05 -3.49726e-06 0.000520256
0.00149485 2.03996e-06 8.68121e-05
2.03996e-06 0.000548918 -8.02684e-06
8.68121e-05 -8.02684e-06 0.000513999
0.00150376 -3.48342e-05 7.12615e-05
-3.48342e-05 0.000535687 -7.82855e-06
7.12615e-05 -7.82855e-06 0.000509931
0.00151878 -0.000102533 -2.98629e-05
-0.000102533 0.000467795 2.77867e-06
-2.98629e-05 2.77867e-06 0.000396938
0.00537758 -0.000107812 0.000212392
-0.000107812 0.00279847 -5.93561e-06
0.000212392 -5.93561e-06 0.00280032
0.00179679 -3.64348e-05 0.000173648
-3.64348e-05 0.000683691 -1.0842e-05
0.000173648 -1.0842e-05 0.000666184
0.00180398 -6.83459e-05 0.000167744
-6.83459e-05 0.000697603 -1.76893e-05
0.000167744 -1.76893e-05 0.000679149
0.00149348 -9.68837e-05 4.57272e-05
-9.68837e-05 0.000430854 -6.92149e-06
4.57272e-05 -6.92149e-06 0.000358955
0.00147435 -7.66721e-05 3.39813e-05
-7.66721e-05 0.000432659 -8.15239e-06
3.39813e-05 -8.15239e-06 0.000360303
0.00147178 -5.43687e-05 0.000163178
-5.43687e-05 0.000511305 -1.8605e-05
0.000163178 -1.8605e-05 0.000494951
0.00145119 -4.52582e-05 1.80115e-05
-4.52582e-05 0.000457993 -9.87661e-06
1.80115e-05 -9.87661e-06 0.000369484
0.0020026 -0.000208081 1.30071e-05
-0.000208081 0.00061815 -5.70449e-06
1.30071e-05 -5.70449e-06 0.000483147
0.00502727 -0.000149227 -0.000146332
-0.000149227 0.00262536 -9.46378e-06
-0.000146332 -9.46378e-06 0.00260902
0.00340395 5.40124e-05 -9.84602e-05
5.40124e-05 0.001644 -7.41856e-06
-9.84602e-05 -7.41856e-06 0.0016257
0.00329268 -6.0467e-05 -9.19427e-05
-6.0467e-05 0.00160652 -3.73194e-06
-9.19427e-05 -3.73194e-06 0.00157938
0.00477721 -0.000161862 9.81427e-06
-0.000161862 0.0024879 -1.01455e-06
9.81427e-06 -1.01455e-06 0.00246837
0.000608211 0.000161028 -2.26697e-06
0.000161028 -3.9809e-05 -5.3043e-07
-2.26697e-06 -5.3043e-07 -0.000123922
0.00156322 5.16548e-05 0.00017391
5.16548e-05 0.000555966 1.2955e-05
0.00017391 1.2955e-05 0.000538788
0.0017365 0.000118988 0.000175931
0.000118988 0.000677096 1.90014e-05
0.000175931 1.90014e-05 0.000656432
0.00258959 0.000165523 0.000107504
0.000165523 0.00107618 1.33046e-05
0.000107504 1.33046e-05 0.00101383
0.00374743 -0.000228804 5.34556e-06
-0.000228804 0.00189819 3.36355e-06
5.34556e-06 3.36355e-06 0.00186517
0.00263365 0.000198394 0.000105955
0.000198394 0.00112793 1.478e-05
0.000105955 1.478e-05 0.00106187
0.000652203 0.000130371 2.38148e-05
0.000130371 -6.9646e-06 1.66816e-05
2.38148e-05 1.66816e-05 -8.39541e-05
0.000911705 0.000169374 9.49604e-06
0.000169374 5.41478e-05 4.62585e-06
9.49604e-06 4.62585e-06 -9.86135e-05
0.00301951 -0.000103766 8.91089e-05
-0.000103766 0.00144292 3.35248e-06
8.91089e-05 3.35248e-06 0.0014462
0.00542883 6.11722e-05 3.78178e-06
6.11722e-05 0.00281813 -1.22949e-06
3.78178e-06 -1.22949e-06 0.00282523
0.00339604 5.08335e-05 -8.09561e-05
5.08335e-05 0.0016318 -2.82368e-06
-8.09561e-05 -2.82368e-06 0.00161694
0.0053273 5.78014e-05 0.000208649
5.78014e-05 0.00276204 2.07418e-06
0.000208649 2.07418e-06 0.00276882
0.0012994 5.80781e-05 3.29432e-05
5.80781e-05 0.000409043 1.79243e-06
3.29432e-05 1.79243e-06 0.000376202
0.000690624 6.94759e-06 1.61602e-05
6.94759e-06 -6.68836e-05 1.55983e-06
1.61602e-05 1.55983e-06 -0.000137346
0.00521358 0.000178511 0.000103156
0.000178511 0.00271569 8.71423e-06
0.000103156 8.71423e-06 0.0026944
0.00266337 5.09127e-05 0.000106221
5.09127e-05 0.00108578 6.10895e-06
0.000106221 6.10895e-06 0.00103506
0.00119743 -7.38956e-05 -4.37368e-05
-7.38956e-05 0.000364109 5.54426e-06
-4.37368e-05 5.54426e-06 0.000325631
0.00127237 -5.14322e-05 -3.73184e-05
-5.14322e-05 0.000409683 5.56345e-06
-3.73184e-05 5.56345e-06 0.000375651
0.00144239 5.15072e-05 -1.39303e-05
5.15072e-05 0.000521547 5.38954e-06
-1.39303e-05 5.38954e-06 0.000480137
0.00154403 -0.000115295 -9.18044e-05
-0.000115295 0.000475511 1.40301e-05
-9.18044e-05 1.40301e-05 0.000410888
0.0033962 1.40199e-05 -8.62518e-05
1.40199e-05 0.00163858 -1.63316e-06
-8.62518e-05 -1.63316e-06 0.00162097
0.00153648 -4.16556e-05 6.86424e-05
-4.16556e-05 0.000541971 -2.93009e-06
6.86424e-05 -2.93009e-06 0.000515992
0.00140515 2.55384e-05 8.77476e-05
2.55384e-05 0.000499556 -5.94727e-06
8.77476e-05 -5.94727e-06 0.000463899
0.0015287 -4.73365e-05 6.51067e-05
-4.73365e-05 0.000542509 -5.79192e-06
6.51067e-05 -5.79192e-06 0.000517704
0.00154474 -8.22277e-05 -2.40884e-05
-8.22277e-05 0.000454707 9.61959e-07
-2.40884e-05 9.61959e-07 0.000388888
0.00151983 -9.25433e-05 -3.48742e-05
-9.25433e-05 0.00048166 2.80221e-06
-3.48742e-05 2.80221e-06 0.00040535
0.00153343 -0.000103039 -2.52458e-05
-0.000103039 0.000463893 2.06207e-06
-2.52458e-05 2.06207e-06 0.000396446
0.00200384 -0.000206616 -6.42276e-06
-0.000206616 0.000617141 1.70446e-06
-6.42276e-06 1.70446e-06 0.000482354
0.00529805 4.58215e-05 0.000202645
4.58215e-05 0.00274513 -1.02181e-07
0.000202645 -1.02181e-07 0.00275231
0.00177936 -1.88171e-05 0.000174641
-1.88171e-05 0.000674875 -7.38312e-06
0.000174641 -7.38312e-06 0.000658666
0.00239602 2.67015e-05 3.04123e-05
2.67015e-05 0.000946247 -9.85912e-07
3.04123e-05 -9.85912e-07 0.000887382
0.00150038 -7.79825e-05 3.94145e-05
-7.79825e-05 0.000426185 -4.78567e-06
3.94145e-05 -4.78567e-06 0.000356982
0.00148806 -8.83457e-05 4.11652e-05
-8.83457e-05 0.000430176 -7.51918e-06
4.11652e-05 -7.51918e-06 0.000359737
0.00193644 -0.000127521 1.11676e-05
-0.000127521 0.000528832 -2.76136e-06
1.11676e-05 -2.76136e-06 0.000410071
0.00162246 -0.000165944 1.48166e-05
-0.000165944 0.000373638 -5.25986e-06
1.48166e-05 -5.25986e-06 0.000244445
0.00111896 -7.93864e-06 0.000122749
-7.93864e-06 0.000310481 -1.31799e-05
0.000122749 -1.31799e-05 0.000297691
0.00116982 3.6038e-06 9.13182e-06
3.6038e-06 0.000321965 -1.01444e-05
9.13182e-06 -1.01444e-05 0.000234683
0.00198997 -0.000225726 1.24049e-05
-0.000225726 0.000634086 -5.76576e-06
1.24049e-05 -5.76576e-06 0.000489908
0.00123377 -0.000193957 7.89405e-06
-0.000193957 7.61056e-05 -2.4072e-06
7.89405e-06 -2.4072e-06 -8.88582e-05
0.0055105 0.000115351 -0.000212257
0.000115351 0.00286892 -1.6271e-05
-0.000212257 -1.6271e-05 0.00287091
0.00444509 -0.000183346 -0.000114886
-0.000183346 0.002298 -7.28344e-06
-0.000114886 -7.28344e-06 0.002277
0.00525634 -7.28234e-05 -0.000173811
-7.28234e-05 0.00274086 -1.11061e-05
-0.000173811 -1.11061e-05 0.00273582
0.000534241 0.000159009 -2.20874e-05
0.000159009 -8.10238e-05 -1.35971e-05
-2.20874e-05 -1.35971e-05 -0.000164078
0.00555479 0.000144254 -2.94562e-06
0.000144254 0.00289296 -1.74101e-06
-2.94562e-06 -1.74101e-06 0.00289408
0.00552252 4.3689e-05 -8.52602e-06
4.3689e-05 0.00288274 -8.42126e-07
-8.52602e-06 -8.42126e-07 0.00288206
0.000551521 0.000117575 -2.68883e-07
0.000117575 -0.000113066 -2.32919e-07
-2.68883e-07 -2.32919e-07 -0.000194782
0.00248396 -0.000118733 -5.10583e-05
-0.000118733 0.00114138 -1.01848e-06
-5.10583e-05 -1.01848e-06 0.00111892
0.000548028 0.000168734 -7.1799e-07
0.000168734 -8.38907e-05 -3.06113e-07
-7.1799e-07 -3.06113e-07 -0.000170053
0.0014508 0.000104514 3.38246e-05
0.000104514 0.000471313 5.78359e-07
3.38246e-05 5.78359e-07 0.000404393
0.000903399 0.00016568 2.66652e-07
0.00016568 4.68126e-05 -2.94716e-07
2.66652e-07 -2.94716e-07 -0.000105213
0.00354466 -0.000107118 0.000113857
-0.000107118 0.00174968 5.34085e-06
0.000113857 5.34085e-06 0.00175069
0.000614394 -4.62422e-05 2.12667e-06
-4.62422e-05 2.52498e-05 7.49393e-06
2.12667e-06 7.49393e-06 -1.34725e-05
0.000667448 8.71058e-05 1.71437e-05
8.71058e-05 -6.61931e-05 8.281e-06
1.71437e-05 8.281e-06 -0.000143975
0.000702988 0.000139917 2.18506e-05
0.000139917 -1.1885e-05 1.39617e-05
2.18506e-05 1.39617e-05 -9.80777e-05
0.000998603 0.000137779 1.30139e-05
0.000137779 -4.04169e-06 5.17756e-06
1.30139e-05 5.17756e-06 -0.000141906
0.00225606 3.71478e-05 7.09953e-05
3.71478e-05 0.000959088 9.21288e-06
7.09953e-05 9.21288e-06 0.000912058
0.000947638 0.000164905 1.09305e-05
0.000164905 2.89622e-05 5.75375e-06
1.09305e-05 5.75375e-06 -0.000117047
0.000944836 0.000172174 8.44752e-06
0.000172174 0.000145186 5.14849e-06
8.44752e-06 5.14849e-06 -1.14768e-05
0.000910004 0.000200537 4.42987e-06
0.000200537 -1.08063e-05 1.08663e-06
4.42987e-06 1.08663e-06 -0.000196369
0.00264471 -0.00011755 4.77099e-05
-0.00011755 0.00122287 2.31386e-06
4.77099e-05 2.31386e-06 0.00122283
0.00287454 -0.000130171 9.77811e-06
-0.000130171 0.00136316 -4.30312e-07
9.77811e-06 -4.30312e-07 0.00135963
0.00552092 1.38552e-05 -0.00020708
1.38552e-05 0.00286738 -8.36724e-06
-0.00020708 -8.36724e-06 0.00287304
0.00547014 5.20318e-05 -0.00021369
5.20318e-05 0.00284009 -4.78613e-06
-0.00021369 -4.78613e-06 0.00284785
0.00539189 8.05758e-05 -1.90942e-07
8.05758e-05 0.0028056 -2.2749e-06
-1.90942e-07 -2.2749e-06 0.00280829
0.00338041 7.55359e-06 -9.55539e-05
7.55359e-06 0.00162072 -3.38864e-06
-9.55539e-05 -3.38864e-06 0.0016086
0.00166031 2.92976e-05 4.54159e-05
2.92976e-05 0.000500694 7.72505e-07
4.54159e-05 7.72505e-07 0.000441244
0.00345419 9.64743e-05 -8.21993e-05
9.64743e-05 0.00166844 -3.99553e-06
-8.21993e-05 -3.99553e-06 0.00165061
0.0016884 6.94514e-05 4.41564e-05
6.94514e-05 0.000520695 1.57591e-06
4.41564e-05 1.57591e-06 0.000457318
0.0053593 0.000140947 0.000212032
0.000140947 0.00279692 4.9693e-06
0.000212032 4.9693e-06 0.00279337
0.000618946 8.60048e-06 1.80346e-05
8.60048e-06 -0.00010488 3.36282e-07
1.80346e-05 3.36282e-07 -0.000173633
0.00268875 1.95905e-05 0.000106879
1.95905e-05 0.00109869 4.01585e-06
0.000106879 4.01585e-06 0.00105011
0.00105035 3.22357e-05 1.23735e-05
3.22357e-05 -1.03028e-05 1.06717e-06
1.23735e-05 1.06717e-06 -0.000128639
0.00257971 9.30595e-05 0.000107396
9.30595e-05 0.00104565 7.67733e-06
0.000107396 7.67733e-06 0.000991819
0.00105843 7.65182e-05 1.20451e-05
7.65182e-05 7.90702e-07 2.49956e-06
1.20451e-05 2.49956e-06 -0.0001249
0.00164446 3.89181e-05 -0.000179952
3.89181e-05 0.000594558 1.46013e-06
-0.000179952 1.46013e-06 0.000584521
0.00125403 4.46929e-06 -3.0429e-05
4.46929e-06 0.000387445 1.62484e-06
-3.0429e-05 1.62484e-06 0.000352428
0.00136767 0.000111468 -1.59883e-06
0.000111468 0.000503067 7.16011e-06
-1.59883e-06 7.16011e-06 0.000448552
0.00121486 -6.85331e-05 -4.44726e-05
-6.85331e-05 0.000374168 5.97487e-06
-4.44726e-05 5.97487e-06 0.000338374
0.00165858 -6.19088e-05 -9.18699e-05
-6.19088e-05 0.000513653 7.65518e-06
-9.18699e-05 7.65518e-06 0.000454807
0.00159633 -9.91699e-05 -9.06225e-05
-9.91699e-05 0.00049455 1.23864e-05
-9.06225e-05 1.23864e-05 0.000433022
0.00152476 -0.000120312 -9.35579e-05
-0.000120312 0.000474621 1.44267e-05
-9.35579e-05 1.44267e-05 0.000406222
0.00200309 -0.000205288 -2.47095e-05
-0.000205288 0.00061567 8.65789e-06
-2.47095e-05 8.65789e-06 0.000481092
0.0053669 -8.32502e-05 2.04316e-06
-8.32502e-05 0.00279181 -1.36002e-06
2.04316e-06 -1.36002e-06 0.00279417
0.00149706 4.45294e-05 7.73694e-05
4.45294e-05 0.000518257 -2.52506e-06
7.73694e-05 -2.52506e-06 0.000494297
0.00113029 2.84998e-07 -4.79731e-05
2.84998e-07 0.000196691 8.25177e-07
-4.79731e-05 8.25177e-07 0.000136083
0.00156263 -4.69635e-05 -2.82834e-05
-4.69635e-05 0.000457784 1.38741e-06
-2.82834e-05 1.38741e-06 0.000393872
0.00278067 5.1951e-05 0.000127632
5.1951e-05 0.00130335 -2.24903e-06
0.000127632 -2.24903e-06 0.0012922
0.00185339 -6.04596e-05 -3.08626e-05
-6.04596e-05 0.000703489 -2.20895e-07
-3.08626e-05 -2.20895e-07 0.00062635
0.00154514 -9.48584e-05 -2.33183e-05
-9.48584e-05 0.000460967 1.39856e-06
-2.33183e-05 1.39856e-06 0.000394988
0.00180382 -0.000119955 -8.3132e-06
-0.000119955 0.000450228 1.43534e-06
-8.3132e-06 1.43534e-06 0.000330822
0.00197924 -0.000225225 -5.21629e-06
-0.000225225 0.000628851 1.70264e-06
-5.21629e-06 1.70264e-06 0.000484703
0.00183168 -0.000174557 -3.77704e-06
-0.000174557 0.000495264 9.16536e-07
-3.77704e-06 9.16536e-07 0.000366632
0.00123957 -0.000194234 2.77018e-07
-0.000194234 7.80053e-05 -1.19916e-07
2.77018e-07 -1.19916e-07 -8.67364e-05
0.00065985 1.22929e-05 1.84683e-05
1.22929e-05 -8.26724e-05 -1.2475e-06
1.84683e-05 -1.2475e-06 -0.000148602
0.00146642 1.65058e-05 3.07444e-05
1.65058e-05 0.000402078 -2.48991e-06
3.07444e-05 -2.48991e-06 0.000336768
0.00162618 -2.92835e-05 1.27318e-05
-2.92835e-05 0.000331209 -1.12525e-06
1.27318e-05 -1.12525e-06 0.000221694
0.00163862 -9.4275e-05 1.2463e-05
-9.4275e-05 0.000347432 -2.29154e-06
1.2463e-05 -2.29154e-06 0.000229759
0.00159444 -0.000139938 1.38247e-05
-0.000139938 0.000339997 -4.04536e-06
1.38247e-05 -4.04536e-06 0.000215932
0.00171428 -0.000145637 2.42959e-06
-0.000145637 0.000277816 -7.89271e-07
2.42959e-06 -7.89271e-07 0.000135663
0.00391724 0.000151445 0.000105271
0.000151445 0.00197956 -4.37564e-06
0.000105271 -4.37564e-06 0.00196849
0.00127051 -0.000177241 6.665e-06
-0.000177241 7.04085e-05 -2.00146e-06
6.665e-06 -2.00146e-06 -8.65028e-05
0.000379657 -5.68789e-05 1.13808e-05
-5.68789e-05 -0.000141018 -1.20636e-05
1.13808e-05 -1.20636e-05 -0.000204838
0.000842388 -0.000165201 8.37627e-06
-0.000165201 1.86836e-05 -6.61258e-06
8.37627e-06 -6.61258e-06 -0.000133411
0.00132988 -0.000220907 9.2427e-06
-0.000220907 0.000159094 -2.26185e-06
9.2427e-06 -2.26185e-06 -1.77764e-05
0.00145735 -0.00023924 4.14512e-06
-0.00023924 0.000119363 4.2055e-07
4.14512e-06 4.2055e-07 -5.91082e-05
0.000444884 -2.98429e-06 6.01291e-06
-2.98429e-06 -8.5307e-05 -9.75051e-06
6.01291e-06 -9.75051e-06 -0.00013504
0.000629628 -2.20172e-05 1.07477e-06
-2.20172e-05 2.23592e-05 -4.3241e-06
1.07477e-06 -4.3241e-06 -8.12883e-05
0.00555978 0.000157604 -0.000224206
0.000157604 0.00289944 -1.71207e-05
-0.000224206 -1.71207e-05 0.00289899
0.00538117 2.55928e-05 -0.000192911
2.55928e-05 0.00279935 -1.35806e-05
-0.000192911 -1.35806e-05 0.00280154
0.000543831 0.000109721 -1.7689e-05
0.000109721 -0.000118878 -9.7107e-06
-1.7689e-05 -9.7107e-06 -0.000200423
0.00380362 -0.00015567 -0.000100088
-0.00015567 0.00191344 -4.07651e-06
-0.000100088 -4.07651e-06 0.00190272
0.000442651 9.16027e-05 -1.49295e-05
9.16027e-05 -0.000117499 -1.28378e-05
-1.49295e-05 -1.28378e-05 -0.000185927
0.000500356 0.000153339 -1.98713e-05
0.000153339 -0.000106706 -1.27452e-05
-1.98713e-05 -1.27452e-05 -0.000194614
0.000899391 0.000163306 -1.0364e-05
0.000163306 4.2033e-05 -5.47845e-06
-1.0364e-05 -5.47845e-06 -0.000109452
0.00337594 -0.000125406 6.50308e-06
-0.000125406 0.00165636 -3.55979e-07
6.50308e-06 -3.55979e-07 0.00165379
0.00053287 -5.70871e-05 1.86327e-07
-5.70871e-05 -1.86822e-05 4.0883e-07
1.86327e-07 4.0883e-07 -5.83441e-05
0.00164349 0.000111945 4.40579e-05
0.000111945 0.000506959 2.63943e-06
4.40579e-05 2.63943e-06 0.000438369
0.00157264 0.000157676 4.20338e-05
0.000157676 0.000499324 2.32873e-06
4.20338e-05 2.32873e-06 0.000423151
0.00100455 0.000140221 1.60262e-07
0.000140221 8.39984e-07 -1.55149e-07
1.60262e-07 -1.55149e-07 -0.000137794
0.000619938 3.56336e-05 -6.52174e-07
3.56336e-05 4.85576e-06 1.60027e-07
-6.52174e-07 1.60027e-07 -5.13821e-05
0.000945318 0.000164925 4.70951e-07
0.000164925 2.81977e-05 2.98355e-07
4.70951e-07 2.98355e-07 -0.000117779
0.000846036 0.00015686 5.52765e-07
0.00015686 8.50287e-05 -9.27644e-07
5.52765e-07 -9.27644e-07 -6.90337e-05
0.000979831 0.000207796 -3.85568e-07
0.000207796 2.62395e-05 5.45925e-07
-3.85568e-07 5.45925e-07 -0.000160938
0.000651862 -1.75074e-06 7.80289e-06
-1.75074e-06 3.69968e-05 8.90142e-06
7.80289e-06 8.90142e-06 -9.73443e-06
0.000600343 -6.62323e-05 -7.52938e-07
-6.62323e-05 1.58649e-05 6.21558e-06
-7.52938e-07 6.21558e-06 -1.66769e-05
0.000733443 4.2674e-05 3.11238e-06
4.2674e-05 9.21336e-05 4.22654e-06
3.11238e-06 4.22654e-06 -7.04518e-06
0.00104143 0.000117792 1.27286e-05
0.000117792 5.00748e-06 4.18922e-06
1.27286e-05 4.18922e-06 -0.000128731
0.00097039 0.000155321 1.24586e-05
0.000155321 8.45673e-06 5.69903e-06
1.24586e-05 5.69903e-06 -0.000133844
0.00133018 0.000190111 6.51696e-06
0.000190111 8.66708e-05 1.75803e-06
6.51696e-06 1.75803e-06 -7.95442e-05
0.00090944 0.000149562 6.36389e-06
0.000149562 0.000173027 6.29543e-06
6.36389e-06 6.29543e-06 2.96782e-05
0.00096373 0.000194992 4.93492e-06
0.000194992 -3.63538e-05 2.28572e-06
4.93492e-06 2.28572e-06 -0.00021182
0.000906557 0.000201226 4.85825e-06
0.000201226 6.89537e-05 6.89809e-07
4.85825e-06 6.89809e-07 -0.000132718
0.00163922 0.00027488 3.85483e-07
0.00027488 0.000353414 -1.47631e-07
3.85483e-07 -1.47631e-07 0.000152168
0.00244522 -0.000106741 3.36803e-05
-0.000106741 0.00109969 2.88502e-06
3.36803e-05 2.88502e-06 0.00110223
0.00254234 -0.000119412 4.08815e-06
-0.000119412 0.00116407 -3.88867e-07
4.08815e-06 -3.88867e-07 0.00116311
0.00271465 -0.000135214 -4.20178e-05
-0.000135214 0.00127219 -2.42736e-06
-4.20178e-05 -2.42736e-06 0.00126674
0.000453757 1.15008e-05 4.2529e-06
1.15008e-05 -7.64189e-05 -8.27731e-06
4.2529e-06 -8.27731e-06 -0.00012018
0.00358213 0.000136078 9.13852e-05
0.000136078 0.00177841 -3.74129e-06
9.13852e-05 -3.74129e-06 0.00177167
0.00556384 0.000159297 -0.000227279
0.000159297 0.00290299 -1.55256e-05
-0.000227279 -1.55256e-05 0.00290225
0.00545644 5.18181e-05 -0.000209664
5.18181e-05 0.00283045 -6.75841e-06
-0.000209664 -6.75841e-06 0.00283787
0.000644926 8.01901e-05 -1.9004e-05
8.01901e-05 -8.72669e-05 -4.48445e-06
-1.9004e-05 -4.48445e-06 -0.000160692
0.000629481 3.56617e-05 -1.87934e-05
3.56617e-05 -9.76378e-05 -2.10826e-06
-1.87934e-05 -2.10826e-06 -0.000168995
0.00534477 -2.23713e-05 -0.000204376
-2.23713e-05 0.00276923 -1.03032e-06
-0.000204376 -1.03032e-06 0.00277759
0.00531093 1.76856e-05 -6.40585e-07
1.76856e-05 0.00275112 -1.72886e-07
-6.40585e-07 -1.72886e-07 0.00275898
0.000608285 1.60577e-07 -1.02387e-07
1.60577e-07 -0.000112753 -9.75074e-08
-1.02387e-07 -9.75074e-08 -0.000180308
0.00164445 2.79481e-05 4.50953e-05
2.79481e-05 0.000491026 1.39836e-06
4.50953e-05 1.39836e-06 0.000431174
0.00103252 3.60607e-05 3.55833e-08
3.60607e-05 -2.01993e-05 -1.61574e-07
3.55833e-08 -1.61574e-07 -0.000138875
0.000618995 6.90908e-05 -3.68878e-07
6.90908e-05 -9.78458e-05 -2.46059e-07
-3.68878e-07 -2.46059e-07 -0.000173363
0.00103048 7.83453e-05 -7.4557e-08
7.83453e-05 -1.42758e-05 -1.59768e-07
-7.4557e-08 -1.59768e-07 -0.000140462
0.000601119 -2.42983e-05 1.84708e-05
-2.42983e-05 -0.00011798 -7.36533e-07
1.84708e-05 -7.36533e-07 -0.000183505
0.00104365 1.40927e-05 1.21774e-05
1.40927e-05 -1.28158e-05 3.44734e-07
1.21774e-05 3.44734e-07 -0.000129039
0.0010383 5.47557e-05 1.21719e-05
5.47557e-05 -1.50288e-05 1.83131e-06
1.21719e-05 1.83131e-06 -0.000136787
0.00141036 5.27249e-05 3.00807e-06
5.27249e-05 5.3114e-05 8.25583e-08
3.00807e-06 8.25583e-08 -7.56281e-05
0.00105681 9.63584e-05 1.22275e-05
9.63584e-05 5.48595e-06 3.26747e-06
1.22275e-05 3.26747e-06 -0.000124155
0.00141863 0.000111079 3.30466e-06
0.000111079 7.4601e-05 4.63081e-07
3.30466e-06 4.63081e-07 -6.66763e-05
0.00531212 -4.47095e-05 -0.000210294
-4.47095e-05 0.00275435 1.8668e-07
-0.000210294 1.8668e-07 0.00276058
0.00125417 -0.000118556 -3.22815e-05
-0.000118556 0.000393075 3.36642e-06
-3.22815e-05 3.36642e-06 0.000356276
-0.000238767 -1.23906e-06 -1.31347e-05
-1.23906e-06 -0.000601509 2.15851e-06
-1.31347e-05 2.15851e-06 -0.000679371
0.00164737 -4.25431e-05 -9.27302e-05
-4.25431e-05 0.000502665 5.58081e-06
-9.27302e-05 5.58081e-06 0.000444186
0.00423303 0.000284198 1.22229e-06
0.000284198 0.00220673 4.71313e-06
1.22229e-06 4.71313e-06 0.00215626
0.0025445 -0.000151552 -9.21314e-05
-0.000151552 0.0010889 1.42613e-05
-9.21314e-05 1.42613e-05 0.00102192
0.00164142 -8.13764e-05 -9.10052e-05
-8.13764e-05 0.000510229 1.00468e-05
-9.10052e-05 1.00468e-05 0.00045076
0.00164538 -0.000111612 -2.57861e-05
-0.000111612 0.000356293 5.03024e-06
-2.57861e-05 5.03024e-06 0.000236434
0.00202798 -0.00018249 -2.34304e-05
-0.00018249 0.000609513 7.20473e-06
-2.34304e-05 7.20473e-06 0.000481635
0.00201343 -0.000227532 -2.23941e-05
-0.000227532 0.000650151 8.48417e-06
-2.23941e-05 8.48417e-06 0.000505625
0.00125923 -0.000195496 -6.73316e-06
-0.000195496 8.77219e-05 2.02999e-06
-6.73316e-06 2.02999e-06 -7.69261e-05
0.000603504 8.11358e-06 -6.24406e-08
8.11358e-06 -0.000113618 -2.31745e-08
-6.24406e-08 -2.31745e-08 -0.000180408
0.00157596 -5.90257e-05 -2.80761e-05
-5.90257e-05 0.000464586 3.13999e-07
-2.80761e-05 3.13999e-07 0.000402325
0.00118811 -2.50609e-05 -6.37696e-06
-2.50609e-05 7.62433e-05 3.01568e-07
-6.37696e-06 3.01568e-07 -3.74744e-05
0.00182844 -9.6267e-05 -4.72793e-06
-9.6267e-05 0.000455917 6.97567e-07
-4.72793e-06 6.97567e-07 0.000339739
0.00401349 0.000142107 -4.64686e-06
0.000142107 0.00203396 -6.6523e-07
-4.64686e-06 -6.6523e-07 0.00202444
0.001437 -5.56636e-05 -1.11738e-06
-5.56636e-05 0.000480485 2.94898e-07
-1.11738e-06 2.94898e-07 0.000408251
0.00132084 -0.000191371 6.91014e-07
-0.000191371 0.000304297 -1.38593e-06
6.91014e-07 -1.38593e-06 0.000152485
0.00162072 -0.000139497 -5.07773e-06
-0.000139497 0.000354944 1.09446e-06
-5.07773e-06 1.09446e-06 0.00023091
0.00152146 -0.000139817 -2.51965e-06
-0.000139817 0.000163629 5.3887e-07
-2.51965e-06 5.3887e-07 2.14517e-05
0.00123935 -0.000215342 3.69482e-07
-0.000215342 0.00010496 -2.94366e-09
3.69482e-07 -2.94366e-09 -7.26826e-05
0.00150323 -0.000187828 3.28917e-07
-0.000187828 0.00020344 -1.46472e-07
3.28917e-07 -1.46472e-07 4.72122e-05
0.00147011 -0.000238878 5.86855e-07
-0.000238878 0.000130658 -8.71274e-10
5.86855e-07 -8.71274e-10 -4.71958e-05
0.000518872 -8.61626e-06 -7.1129e-07
-8.61626e-06 -4.43323e-05 1.44462e-07
-7.1129e-07 1.44462e-07 -9.43937e-05
0.000658014 -3.9588e-05 -5.52396e-07
-3.9588e-05 3.76167e-05 -5.96883e-08
-5.52396e-07 -5.96883e-08 -6.78318e-05
0.00102163 -1.20115e-05 1.19847e-05
-1.20115e-05 -2.26371e-05 -9.6806e-07
1.19847e-05 -9.6806e-07 -0.000137786
0.00164765 -5.65847e-05 1.21375e-05
-5.65847e-05 0.000346244 -1.59292e-06
1.21375e-05 -1.59292e-06 0.000233645
0.00168413 -4.40051e-05 1.99462e-06
-4.40051e-05 0.000229951 -1.45429e-07
1.99462e-06 -1.45429e-07 0.000105484
0.00138848 -0.000109613 3.96411e-06
-0.000109613 7.21058e-05 -4.82723e-07
3.96411e-06 -4.82723e-07 -6.40247e-05
0.00164485 -0.000175559 4.38047e-06
-0.000175559 0.000262686 -1.05536e-06
4.38047e-06 -1.05536e-06 0.000114595
0.00168749 -0.000171795 -5.61997e-07
-0.000171795 0.000152631 4.8791e-07
-5.61997e-07 4.8791e-07 1.48569e-05
0.000393599 -3.16694e-05 8.94382e-06
-3.16694e-05 -0.000122373 -1.0907e-05
8.94382e-06 -1.0907e-05 -0.000178196
0.00152299 -0.000221585 2.33825e-06
-0.000221585 0.000125554 4.16148e-07
2.33825e-06 4.16148e-07 -3.73803e-05
0.0006621 -0.000134231 4.5095e-06
-0.000134231 -4.25116e-06 -6.10318e-06
4.5095e-06 -6.10318e-06 -0.000150323
0.00089794 -0.000208092 7.89309e-06
-0.000208092 -3.33888e-05 -4.51713e-06
7.89309e-06 -4.51713e-06 -0.000223759
0.00177346 -0.000283815 3.39881e-06
-0.000283815 0.000341881 -1.64186e-08
3.39881e-06 -1.64186e-08 0.000143975
0.00180589 -0.000275783 -1.24023e-06
-0.000275783 0.000261326 2.9037e-06
-1.24023e-06 2.9037e-06 9.04526e-05
0.000728925 -7.91423e-05 2.86097e-06
-7.91423e-05 7.71524e-05 -4.18782e-06
2.86097e-06 -4.18782e-06 -4.38197e-05
0.00057762 -1.13291e-05 7.45244e-07
-1.13291e-05 -3.05311e-06 -3.47216e-06
7.45244e-07 -3.47216e-06 -9.50042e-05
0.00101165 -0.00013314 2.88336e-07
-0.00013314 0.000255993 -2.68221e-07
2.88336e-07 -2.68221e-07 9.99569e-05
0.000584225 8.90503e-05 -1.72024e-05
8.90503e-05 -0.00010999 -7.47663e-06
-1.72024e-05 -7.47663e-06 -0.000188144
0.00320367 -0.000147972 -6.75439e-05
-0.000147972 0.00156063 -2.24551e-06
-6.75439e-05 -2.24551e-06 0.00155239
0.000445336 -6.99743e-05 2.4091e-06
-6.99743e-05 -6.3857e-05 -7.30781e-06
2.4091e-06 -7.30781e-06 -0.000105923
0.000506214 0.000134225 -1.85476e-05
0.000134225 -0.000119772 -1.18265e-05
-1.85476e-05 -1.18265e-05 -0.000205247
0.00100208 0.000142445 -1.35041e-05
0.000142445 9.17719e-07 -5.49765e-06
-1.35041e-05 -5.49765e-06 -0.000138475
0.000393806 2.74195e-05 -9.53188e-06
2.74195e-05 -0.000123711 -1.07206e-05
-9.53188e-06 -1.07206e-05 -0.00017851
0.000725634 0.000141071 -6.37051e-06
0.000141071 1.32915e-05 -6.89874e-06
-6.37051e-06 -6.89874e-06 -0.00013812
0.000948974 0.000165233 -1.06618e-05
0.000165233 3.10944e-05 -5.25012e-06
-1.06618e-05 -5.25012e-06 -0.000114898
0.00101504 0.000212087 -7.07613e-06
0.000212087 4.33967e-05 -1.00889e-06
-7.07613e-06 -1.00889e-06 -0.000144891
0.000536155 -1.25729e-05 1.55593e-06
-1.25729e-05 -2.82855e-05 3.90052e-07
1.55593e-06 3.90052e-07 -7.41831e-05
0.00053888 -7.20974e-05 -4.80292e-07
-7.20974e-05 -1.8086e-05 3.02391e-07
-4.80292e-07 3.02391e-07 -5.16246e-05
0.000638152 2.5616e-06 6.3382e-07
2.5616e-06 3.12524e-05 3.32582e-07
6.3382e-07 3.32582e-07 -6.00119e-05
0.00102079 0.000119142 3.63885e-08
0.000119142 -5.39968e-06 -2.72741e-07
3.63885e-08 -2.72741e-07 -0.000139849
0.000982989 0.000157473 4.22968e-07
0.000157473 1.67239e-05 -2.04685e-07
4.22968e-07 -2.04685e-07 -0.000126095
0.00131729 0.000188434 1.95556e-07
0.000188434 8.3577e-05 1.94104e-08
1.95556e-07 1.94104e-08 -8.25429e-05
0.000796389 0.000133032 -4.24793e-07
0.000133032 0.000109158 3.70937e-07
-4.24793e-07 3.70937e-07 -3.16851e-05
0.00113063 0.000206563 -1.60142e-07
0.000206563 6.17875e-05 -1.07008e-08
-1.60142e-07 -1.07008e-08 -0.000115178
0.00108666 0.000215725 1.24303e-06
0.000215725 0.000173166 -1.6896e-06
1.24303e-06 -1.6896e-06 -3.03091e-05
0.00117963 0.000242036 -8.5875e-07
0.000242036 8.40538e-05 5.20365e-07
-8.5875e-07 5.20365e-07 -0.000112974
0.000580949 -6.64135e-05 -9.68314e-07
-6.64135e-05 -5.70491e-06 5.1722e-06
-9.68314e-07 5.1722e-06 -3.26798e-05
0.000742728 9.22502e-05 4.65413e-06
9.22502e-05 8.67823e-05 4.12343e-06
4.65413e-06 4.12343e-06 -3.11721e-05
0.000692562 -1.58272e-05 7.92798e-07
-1.58272e-05 5.83265e-05 3.82671e-06
7.92798e-07 3.82671e-06 -1.26675e-05
0.000838397 9.49377e-05 1.12771e-06
9.49377e-05 0.000173962 7.0961e-07
1.12771e-06 7.0961e-07 3.12438e-05
0.00136147 0.000165222 5.42844e-06
0.000165222 7.39176e-05 9.81231e-07
5.42844e-06 9.81231e-07 -8.36775e-05
0.00123612 0.000204683 6.97514e-06
0.000204683 7.47919e-05 2.26344e-06
6.97514e-06 2.26344e-06 -9.83444e-05
0.00160188 0.000246838 1.38543e-06
0.000246838 0.000158579 5.51199e-08
1.38543e-06 5.51199e-08 -1.68489e-05
0.00105364 0.000185772 2.79013e-06
0.000185772 0.00022658 4.28094e-06
2.79013e-06 4.28094e-06 3.8906e-05
0.00141142 0.000256147 7.23644e-07
0.000256147 0.000162456 3.75725e-07
7.23644e-07 3.75725e-07 -2.74565e-05
0.00156934 0.000278084 3.06189e-06
0.000278084 0.000393087 -1.79509e-06
3.06189e-06 -1.79509e-06 0.000159799
0.00172736 0.000283642 7.30202e-07
0.000283642 0.000333366 1.44922e-07
7.30202e-07 1.44922e-07 0.000132673
0.000652392 -4.2911e-06 2.04658e-06
-4.2911e-06 1.39354e-05 2.18545e-06
2.04658e-06 2.18545e-06 -3.26414e-05
0.000573985 -4.48227e-05 6.944e-07
-4.48227e-05 -3.25223e-05 4.39751e-06
6.944e-07 4.39751e-06 -5.0348e-05
0.00234855 -9.30179e-05 2.87829e-05
-9.30179e-05 0.00103449 3.30656e-06
2.87829e-05 3.30656e-06 0.00104046
0.00239212 -0.000104646 2.82793e-06
-0.000104646 0.00106806 -2.82386e-07
2.82793e-06 -2.82386e-07 0.00107101
0.00246138 -0.000117078 -3.57449e-05
-0.000117078 0.00111676 -2.6713e-06
-3.57449e-05 -2.6713e-06 0.00111621
0.000474644 1.80446e-05 3.24935e-06
1.80446e-05 -6.6207e-05 -6.89542e-06
3.24935e-06 -6.89542e-06 -0.000102702
0.00323757 0.000125402 7.4485e-05
0.000125402 0.00157287 -3.30584e-06
7.4485e-05 -3.30584e-06 0.00156898
0.00053698 9.43918e-06 -3.16424e-07
9.43918e-06 -2.9733e-05 1.49834e-07
-3.16424e-07 1.49834e-07 -7.37861e-05
0.00367746 0.000126778 -3.40497e-06
0.000126778 0.0018315 -4.71672e-07
-3.40497e-06 -4.71672e-07 0.00182692
0.000640032 9.16737e-05 -1.87449e-05
9.16737e-05 -8.42054e-05 -5.89763e-06
-1.87449e-05 -5.89763e-06 -0.00016094
0.0006417 3.16854e-05 -1.81466e-05
3.16854e-05 -9.28337e-05 -3.12602e-06
-1.81466e-05 -3.12602e-06 -0.00016411
0.00101547 7.98163e-05 -1.18758e-05
7.98163e-05 -2.23862e-05 -2.8006e-06
-1.18758e-05 -2.8006e-06 -0.000148958
0.00101339 3.8037e-05 -1.23557e-05
3.8037e-05 -3.10121e-05 -1.37216e-06
-1.23557e-05 -1.37216e-06 -0.000149905
0.000657549 -5.65859e-06 -1.87877e-05
-5.65859e-06 -8.77583e-05 -6.56556e-07
-1.87877e-05 -6.56556e-07 -0.000153394
0.00536931 -9.56152e-05 -0.000217617
-9.56152e-05 0.00279315 3.1752e-06
-0.000217617 3.1752e-06 0.00279639
0.000639354 -5.05241e-07 1.3655e-07
-5.05241e-07 -9.68304e-05 -3.65384e-07
1.3655e-07 -3.65384e-07 -0.000162124
0.00102899 1.86535e-05 -5.58845e-08
1.86535e-05 -2.06812e-05 -9.97486e-08
-5.58845e-08 -9.97486e-08 -0.000137081
0.00103611 5.63108e-05 -4.6906e-08
5.63108e-05 -1.61289e-05 -1.36228e-07
-4.6906e-08 -1.36228e-07 -0.000138165
0.00141185 5.20311e-05 -4.43914e-08
5.20311e-05 5.43191e-05 3.42086e-08
-4.43914e-08 3.42086e-08 -7.45123e-05
0.00102958 9.83063e-05 -1.00926e-07
9.83063e-05 -8.87468e-06 -2.01956e-07
-1.00926e-07 -2.01956e-07 -0.00013927
0.00140965 0.000112509 -6.91513e-09
0.000112509 6.93717e-05 -3.4507e-08
-6.91513e-09 -3.4507e-08 -7.24146e-05
0.0010347 -1.94118e-07 1.20583e-05
-1.94118e-07 -1.55485e-05 -3.02453e-07
1.20583e-05 -3.02453e-07 -0.000130833
0.00140734 2.9734e-05 3.03031e-06
2.9734e-05 5.3815e-05 4.48074e-08
3.03031e-06 4.48074e-08 -7.16576e-05
0.00141642 8.29807e-05 3.05695e-06
8.29807e-05 6.19407e-05 1.67318e-07
3.05695e-06 1.67318e-07 -7.25838e-05
0.00172345 7.61088e-05 -1.27943e-06
7.61088e-05 9.56499e-05 -4.28011e-07
-1.27943e-06 -4.28011e-07 -1.53327e-05
0.00140845 0.000139922 3.9435e-06
0.000139922 8.04689e-05 6.74247e-07
3.9435e-06 6.74247e-07 -6.87213e-05
0.00169751 0.000149064 -6.32266e-07
0.000149064 0.000112547 -9.74722e-07
-6.32266e-07 -9.74722e-07 -1.78315e-05
0.000621689 3.13171e-06 -1.78739e-05
3.13171e-06 -0.000101776 1.00431e-06
-1.78739e-05 1.00431e-06 -0.00016983
0.00164459 -2.10548e-05 -9.28157e-05
-2.10548e-05 0.000499139 3.62795e-06
-9.28157e-05 3.62795e-06 0.000442434
0.000734384 -1.96781e-05 -1.38632e-05
-1.96781e-05 -0.000187648 1.70865e-06
-1.38632e-05 1.70865e-06 -0.000305698
0.00200756 -9.70179e-05 -2.27955e-05
-9.70179e-05 0.000557862 3.56437e-06
-2.27955e-05 3.56437e-06 0.000443354
0.00415855 0.000122494 -0.000130386
0.000122494 0.00211424 6.67412e-06
-0.000130386 6.67412e-06 0.00210816
0.00248908 -8.96676e-05 -8.02758e-05
-8.96676e-05 0.00108417 1.09436e-05
-8.02758e-05 1.09436e-05 0.00102488
0.00194166 -0.000231902 -1.78321e-05
-0.000231902 0.000669658 7.27647e-06
-1.78321e-05 7.27647e-06 0.000516061
0.00162851 -0.000138009 -2.3561e-05
-0.000138009 0.000358842 5.91825e-06
-2.3561e-05 5.91825e-06 0.000235101
0.00132479 -0.000133759 -6.24856e-06
-0.000133759 4.71627e-05 1.36525e-06
-6.24856e-06 1.36525e-06 -9.50171e-05
0.00174015 -0.00019876 -7.39232e-06
-0.00019876 0.000338979 2.05358e-06
-7.39232e-06 2.05358e-06 0.000183392
0.00111581 -0.000207381 -7.54144e-06
-0.000207381 3.17355e-05 2.1307e-06
-7.54144e-06 2.1307e-06 -0.000146331
0.00147934 -0.000238445 -2.74545e-06
-0.000238445 0.000139346 -4.90377e-07
-2.74545e-06 -4.90377e-07 -3.78915e-05
0.000609131 -1.7763e-05 -8.23443e-06
-1.7763e-05 6.89463e-06 9.67589e-06
-8.23443e-06 9.67589e-06 -4.41452e-05
0.000721109 -5.85028e-05 -2.46465e-06
-5.85028e-05 7.52496e-05 3.38903e-06
-2.46465e-06 3.38903e-06 -3.33072e-05
0.000878343 -7.58428e-06 -3.50889e-07
-7.58428e-06 -0.000105625 -1.08355e-07
-3.50889e-07 -1.08355e-07 -0.000221737
0.00165332 -5.75534e-05 -5.29279e-06
-5.75534e-05 0.0003482 5.44279e-07
-5.29279e-06 5.44279e-07 0.000235675
0.00170059 -4.04283e-05 -2.30559e-06
-4.04283e-05 0.000235896 2.82515e-07
-2.30559e-06 2.82515e-07 0.000113356
0.00154658 -0.000112418 6.4737e-08
-0.000112418 0.000163784 3.60346e-08
6.4737e-08 3.60346e-08 2.76167e-05
0.000539099 -4.28643e-05 -1.58925e-08
-4.28643e-05 -4.05802e-05 3.08452e-07
-1.58925e-08 3.08452e-07 -9.78586e-05
0.000857135 -0.000157447 -5.40532e-07
-0.000157447 0.000105828 -6.65197e-08
-5.40532e-07 -6.65197e-08 -4.36616e-05
0.000997925 -0.000215445 1.54964e-06
-0.000215445 2.4629e-05 -1.23526e-06
1.54964e-06 -1.23526e-06 -0.000166393
0.00168379 -0.00017495 -2.28292e-06
-0.00017495 0.000283893 5.81861e-07
-2.28292e-06 5.81861e-07 0.000135482
0.00172872 -0.000173934 2.12298e-07
-0.000173934 0.000171244 8.37263e-08
2.12298e-07 8.37263e-08 3.62447e-05
0.00168499 -0.000279946 -2.02543e-06
-0.000279946 0.000292995 1.4656e-07
-2.02543e-06 1.4656e-07 9.44814e-05
0.00152624 -0.000221472 4.09105e-07
-0.000221472 0.000127626 -8.14028e-08
4.09105e-07 -8.14028e-08 -3.49454e-05
0.00176953 -0.000275618 6.12642e-07
-0.000275618 0.000235903 5.4503e-07
6.12642e-07 5.4503e-07 6.48004e-05
0.000723596 -9.05949e-05 -1.50375e-07
-9.05949e-05 7.42142e-05 -1.91626e-07
-1.50375e-07 -1.91626e-07 -4.83268e-05
0.000618079 -8.18621e-05 -6.9689e-07
-8.18621e-05 1.689e-05 -7.12708e-07
-6.9689e-07 -7.12708e-07 -0.000127637
0.000666697 -2.25517e-05 1.45998e-07
-2.25517e-05 4.7026e-05 2.28588e-07
1.45998e-07 2.28588e-07 -4.55795e-05
0.00167607 -1.64998e-05 1.6057e-06
-1.64998e-05 0.000217319 -1.51601e-07
1.6057e-06 -1.51601e-07 9.48667e-05
0.00170027 -7.36673e-05 1.73468e-06
-7.36673e-05 0.000237511 2.03083e-07
1.73468e-06 2.03083e-07 0.000111305
0.00165442 -5.85819e-05 -1.48084e-06
-5.85819e-05 7.94872e-05 8.84456e-07
-1.48084e-06 8.84456e-07 -3.13849e-05
0.00166242 -0.000141386 -1.99093e-06
-0.000141386 0.00010424 1.06389e-06
-1.99093e-06 1.06389e-06 -2.27295e-05
0.00154235 -0.000201005 7.2732e-07
-0.000201005 0.000102558 1.28086e-06
7.2732e-07 1.28086e-06 -4.47001e-05
0.00176031 -0.000195996 -2.00347e-06
-0.000195996 0.000123628 1.32304e-06
-2.00347e-06 1.32304e-06 7.97161e-06
0.000671264 -0.000113939 3.77589e-06
-0.000113939 3.74647e-05 -4.24654e-06
3.77589e-06 -4.24654e-06 -9.68216e-05
0.00164019 -0.00025569 -1.62954e-06
-0.00025569 0.000120886 1.85841e-06
-1.62954e-06 1.85841e-06 -3.1101e-05
0.000983633 -0.000206317 2.272e-06
-0.000206317 0.000125349 -4.66015e-06
2.272e-06 -4.66015e-06 -6.41084e-05
0.00123403 -0.000267549 6.21557e-06
-0.000267549 0.000102075 -2.45489e-06
6.21557e-06 -2.45489e-06 -0.000113966
0.00182298 -0.000312249 1.26641e-06
-0.000312249 0.000318311 2.79371e-06
1.26641e-06 2.79371e-06 0.000114401
0.00192288 -0.000302515 -3.00505e-06
-0.000302515 0.00028513 3.73976e-06
-3.00505e-06 3.73976e-06 0.000125333
0.000612466 -1.44382e-05 9.38836e-07
-1.44382e-05 1.42229e-05 -3.06014e-06
9.38836e-07 -3.06014e-06 -6.58635e-05
0.000805434 -0.000132903 1.49628e-06
-0.000132903 0.000104385 4.99326e-07
1.49628e-06 4.99326e-07 -4.44653e-05
0.000580881 -6.55326e-05 -7.39387e-08
-6.55326e-05 1.87961e-05 -6.82853e-07
-7.39387e-08 -6.82853e-07 -0.000122578
0.00120792 -0.000193394 -1.57297e-06
-0.000193394 0.000351031 1.77821e-06
-1.57297e-06 1.77821e-06 0.000181859
0.000998023 0.000120675 -1.31298e-05
0.000120675 -1.71259e-05 -4.66355e-06
-1.31298e-05 -4.66355e-06 -0.000152294
0.000486645 -7.22511e-05 7.9645e-07
-7.22511e-05 -4.917e-05 -5.55037e-06
7.9645e-07 -5.55037e-06 -8.21667e-05
0.000424836 -3.00528e-05 -1.94144e-06
-3.00528e-05 -8.85581e-05 -8.98533e-06
-1.94144e-06 -8.98533e-06 -0.000134851
0.000592589 -3.0204e-05 8.09606e-07
-3.0204e-05 8.56409e-06 -4.35625e-06
8.09606e-07 -4.35625e-06 -8.17548e-05
0.000998112 0.000160113 -1.23288e-05
0.000160113 2.6387e-05 -6.25462e-06
-1.23288e-05 -6.25462e-06 -0.000117043
0.00130908 0.000186965 -6.22664e-06
0.000186965 8.31934e-05 -1.72583e-06
-6.22664e-06 -1.72583e-06 -8.28373e-05
0.000659874 0.0001123 -4.19866e-06
0.0001123 3.0855e-05 -4.47355e-06
-4.19866e-06 -4.47355e-06 -0.000106737
0.0013871 0.000239777 -5.44779e-06
0.000239777 0.000347823 -4.83201e-06
-5.44779e-06 -4.83201e-06 0.000141454
0.00131504 0.000219181 -5.78186e-06
0.000219181 0.000170591 -2.27545e-06
-5.78186e-06 -2.27545e-06 -7.99667e-06
0.000724488 0.000209378 -3.98474e-06
0.000209378 -0.000181978 1.99172e-06
-3.98474e-06 1.99172e-06 -0.000374921
0.000552886 -6.24999e-05 -1.64504e-07
-6.24999e-05 -2.41326e-05 1.04382e-07
-1.64504e-07 1.04382e-07 -4.99158e-05
0.000740424 8.07925e-05 3.26137e-07
8.07925e-05 9.12472e-05 -2.34039e-07
3.26137e-07 -2.34039e-07 -2.83857e-05
0.000619925 -3.15292e-05 -6.23726e-07
-3.15292e-05 1.92236e-05 6.86321e-07
-6.23726e-07 6.86321e-07 -5.21127e-05
0.00077526 6.22399e-05 9.95887e-07
6.22399e-05 0.000134011 -6.42562e-07
9.95887e-07 -6.42562e-07 -3.29112e-06
0.00136702 0.000164905 4.28981e-07
0.000164905 8.02279e-05 -1.73341e-07
4.28981e-07 -1.73341e-07 -7.74885e-05
0.00126482 0.000206275 2.52615e-07
0.000206275 9.57843e-05 -4.63187e-09
2.52615e-07 -4.63187e-09 -7.76528e-05
0.00160299 0.000247241 2.4571e-07
0.000247241 0.000158227 1.87676e-07
2.4571e-07 1.87676e-07 -1.75219e-05
0.001019 0.000184633 9.17477e-07
0.000184633 0.000210975 6.70392e-07
9.17477e-07 6.70392e-07 2.42463e-05
0.001587 0.000266347 -9.36042e-07
0.000266347 0.000269601 -3.46248e-07
-9.36042e-07 -3.46248e-07 7.88482e-05
0.00118802 0.000247525 4.46429e-07
0.000247525 0.000173629 -2.61904e-06
4.46429e-07 -2.61904e-06 -5.80918e-05
0.00151966 0.000268529 -2.29934e-06
0.000268529 0.000218703 2.5383e-07
-2.29934e-06 2.5383e-07 2.00294e-05
0.000566689 -5.3924e-05 5.00894e-07
-5.3924e-05 -2.76985e-05 4.53309e-06
5.00894e-07 4.53309e-06 -4.88527e-05
0.000684882 -1.97091e-05 1.30633e-06
-1.97091e-05 4.59544e-05 2.80708e-06
1.30633e-06 2.80708e-06 -1.17605e-05
0.000979847 0.000142112 1.97985e-06
0.000142112 0.000221312 2.06171e-06
1.97985e-06 2.06171e-06 6.3113e-05
0.000790927 5.64017e-05 -4.31995e-07
5.64017e-05 0.00015188 2.46172e-06
-4.31995e-07 2.46172e-06 3.14213e-05
0.00106985 0.000138365 6.44397e-08
0.000138365 0.000308575 -7.31728e-07
6.44397e-08 -7.31728e-07 0.000144571
0.00165932 0.00021639 1.22132e-06
0.00021639 0.000148879 -1.18543e-06
1.22132e-06 -1.18543e-06 -1.05344e-05
0.00150662 0.000264093 1.37504e-06
0.000264093 0.000158538 7.3803e-07
1.37504e-06 7.3803e-07 -2.84897e-05
0.00176095 0.00028567 2.72052e-07
0.00028567 0.000201553 -3.41099e-07
2.72052e-07 -3.41099e-07 3.08187e-05
0.00137689 0.000247975 2.78719e-06
0.000247975 0.000391514 4.86257e-06
2.78719e-06 4.86257e-06 0.000163133
0.0017364 0.000310079 2.14028e-06
0.000310079 0.000301953 3.47202e-07
2.14028e-06 3.47202e-07 0.000102507
0.000804605 0.000226796 2.84842e-06
0.000226796 -0.000121561 -2.03186e-06
2.84842e-06 -2.03186e-06 -0.000343251
0.000648335 -8.31004e-06 2.39363e-06
-8.31004e-06 1.30595e-05 2.19424e-06
2.39363e-06 2.19424e-06 -3.50222e-05
0.000698759 3.75179e-05 2.34959e-07
3.75179e-05 6.83445e-05 1.01146e-06
2.34959e-07 1.01146e-06 -1.00149e-05
0.000667548 5.48875e-06 1.77629e-06
5.48875e-06 2.36639e-05 2.14913e-06
1.77629e-06 2.14913e-06 -2.24156e-05
0.000644824 -2.20039e-05 -4.69727e-07
-2.20039e-05 1.14493e-05 1.50599e-08
-4.69727e-07 1.50599e-08 -3.61515e-05
0.00125785 -5.15397e-05 1.02977e-06
-5.15397e-05 0.00036442 2.57761e-06
1.02977e-06 2.57761e-06 0.000352297
0.000933349 -5.16415e-05 6.44614e-07
-5.16415e-05 0.000178994 -7.46118e-08
6.44614e-07 -7.46118e-08 0.000162946
0.000906728 -4.79235e-05 2.39316e-05
-4.79235e-05 0.000174264 7.16906e-06
2.39316e-05 7.16906e-06 0.000177282
0.00231084 -9.0932e-05 2.87571e-06
-9.0932e-05 0.00101134 -2.50175e-07
2.87571e-06 -2.50175e-07 0.00101778
0.00233305 -0.000101828 -3.23506e-05
-0.000101828 0.00103268 -3.05062e-06
-3.23506e-05 -3.05062e-06 0.00103624
0.000498907 3.85393e-05 -1.46623e-07
3.85393e-05 -5.34717e-05 -5.87718e-06
-1.46623e-07 -5.87718e-06 -8.51603e-05
0.00293505 0.000123039 4.94038e-05
0.000123039 0.0013911 -3.06963e-06
4.94038e-05 -3.06963e-06 0.00138818
0.000545948 1.70262e-05 -2.71655e-07
1.70262e-05 -2.5346e-05 2.15877e-07
-2.71655e-07 2.15877e-07 -6.22759e-05
0.00335764 0.000117217 -4.24595e-06
0.000117217 0.00164053 -3.73547e-07
-4.24595e-06 -3.73547e-07 0.00163871
0.000608013 6.70536e-06 -4.9634e-06
6.70536e-06 9.78099e-06 8.47568e-06
-4.9634e-06 8.47568e-06 -3.46553e-05
0.00376649 0.000115702 -0.000112959
0.000115702 0.0018807 5.29932e-06
-0.000112959 5.29932e-06 0.00187842
0.00100905 0.000100332 -1.23885e-05
0.000100332 -1.96625e-05 -3.60195e-06
-1.23885e-05 -3.60195e-06 -0.000150735
0.00102263 6.00314e-05 -1.20805e-05
6.00314e-05 -2.30794e-05 -2.0848e-06
-1.20805e-05 -2.0848e-06 -0.000145608
0.00141133 0.000110728 -3.85216e-06
0.000110728 7.02741e-05 -5.80197e-07
-3.85216e-06 -5.80197e-07 -7.16249e-05
0.0014133 5.15252e-05 -3.30686e-06
5.15252e-05 5.57178e-05 1.96787e-08
-3.30686e-06 1.96787e-08 -7.32107e-05
0.00101853 2.20522e-05 -1.22324e-05
2.20522e-05 -2.6258e-05 -5.92306e-07
-1.22324e-05 -5.92306e-07 -0.000142835
0.000607435 2.40073e-05 -1.84185e-05
2.40073e-05 -0.000114586 6.84734e-09
-1.84185e-05 6.84734e-09 -0.000179985
0.00102812 2.10567e-06 7.33013e-09
2.10567e-06 -1.92693e-05 -7.37782e-08
7.33013e-09 -7.37782e-08 -0.000134603
0.00140606 3.15559e-05 -6.35371e-08
3.15559e-05 5.26008e-05 3.83189e-08
-6.35371e-08 3.83189e-08 -7.29741e-05
0.00141617 8.04568e-05 3.26745e-08
8.04568e-05 6.28934e-05 -7.22751e-08
3.26745e-08 -7.22751e-08 -7.1598e-05
0.00175313 7.64425e-05 -4.52725e-08
7.64425e-05 0.000109135 3.09523e-07
-4.52725e-08 3.09523e-07 2.86248e-07
0.00140029 0.000139472 -1.74876e-07
0.000139472 7.75228e-05 -6.33057e-08
-1.74876e-07 -6.33057e-08 -7.18611e-05
0.00170092 0.000147136 -2.37128e-07
0.000147136 0.000118818 7.98937e-08
-2.37128e-07 7.98937e-08 -1.1522e-05
0.00140185 7.15764e-06 3.24446e-06
7.15764e-06 5.33055e-05 -4.33165e-08
3.24446e-06 -4.33165e-08 -7.09779e-05
0.00174309 4.42119e-05 -1.99553e-06
4.42119e-05 0.000104486 2.14467e-07
-1.99553e-06 2.14467e-07 1.43168e-06
0.00171669 0.00011855 -1.15137e-06
0.00011855 9.93195e-05 -8.80773e-07
-1.15137e-06 -8.80773e-07 -2.04294e-05
0.00182751 8.14649e-05 -5.96829e-07
8.14649e-05 8.90725e-05 1.39954e-07
-5.96829e-07 1.39954e-07 1.22731e-06
0.00168744 0.000177967 -1.95573e-07
0.000177967 0.000138083 -1.12915e-06
-1.95573e-07 -1.12915e-06 -4.84235e-06
0.00171349 0.000170273 -2.44215e-06
0.000170273 6.32245e-05 -1.13114e-06
-2.44215e-06 -1.13114e-06 -4.24696e-05
0.000730531 -4.61558e-06 -1.19005e-05
-4.61558e-06 -0.000190968 6.62562e-07
-1.19005e-05 6.62562e-07 -0.000308105
0.00168574 -6.00174e-05 -2.25223e-05
-6.00174e-05 0.000365571 2.61261e-06
-2.25223e-05 2.61261e-06 0.000253096
0.00172361 -3.41811e-05 -6.53686e-06
-3.41811e-05 0.00024577 3.97689e-07
-6.53686e-06 3.97689e-07 0.000125336
0.00170362 -0.000115475 -4.83611e-06
-0.000115475 0.000254907 9.2202e-07
-4.83611e-06 9.2202e-07 0.000118683
0.000706245 -5.63584e-05 -1.15788e-05
-5.63584e-05 5.49952e-05 1.14588e-05
-1.15788e-05 1.14588e-05 -5.06102e-06
0.000869708 -0.000167127 -7.19566e-06
-0.000167127 0.000113179 6.64588e-06
-7.19566e-06 6.64588e-06 -3.80145e-05
0.00113047 -0.000225618 -4.98029e-06
-0.000225618 0.000101365 1.63964e-06
-4.98029e-06 1.63964e-06 -9.07574e-05
0.00172118 -0.000174182 -8.11247e-06
-0.000174182 0.000304183 2.21118e-06
-8.11247e-06 2.21118e-06 0.000155478
0.00176653 -0.000175829 3.6907e-08
-0.000175829 0.00018787 -7.50007e-07
3.6907e-08 -7.50007e-07 5.56836e-05
0.00153152 -0.000221493 -1.8507e-06
-0.000221493 0.00013067 -4.91864e-07
-1.8507e-06 -4.91864e-07 -3.15472e-05
0.00160907 -0.000276405 -5.41052e-06
-0.000276405 0.000252286 -9.33063e-08
-5.41052e-06 -9.33063e-08 5.31304e-05
0.0017364 -0.000275084 2.8721e-06
-0.000275084 0.000212506 -2.48405e-06
2.8721e-06 -2.48405e-06 4.13029e-05
0.000728149 -9.80309e-05 -3.96099e-06
-9.80309e-05 7.37506e-05 3.88119e-06
-3.96099e-06 3.88119e-06 -4.8449e-05
0.000503346 -7.14134e-05 -1.48056e-06
-7.14134e-05 -4.8362e-05 -7.71148e-07
-1.48056e-06 -7.71148e-07 -0.000192448
0.000706293 -3.01444e-05 -1.09401e-06
-3.01444e-05 6.90736e-05 3.57005e-06
-1.09401e-06 3.57005e-06 -2.45443e-05
0.00154748 -1.436e-05 -2.36333e-06
-1.436e-05 0.000141199 1.29747e-07
-2.36333e-06 1.29747e-07 1.77959e-05
0.00171116 -8.08957e-05 -2.46057e-06
-8.08957e-05 0.000243609 4.17342e-07
-2.46057e-06 4.17342e-07 0.000116787
0.00167935 -5.50962e-05 7.60029e-07
-5.50962e-05 9.32951e-05 5.15487e-07
7.60029e-07 5.15487e-07 -1.34873e-05
0.00167957 -0.00013865 -1.36986e-06
-0.00013865 0.000112174 3.7344e-07
-1.36986e-06 3.7344e-07 -1.52194e-05
0.000753466 -0.00013003 4.27518e-07
-0.00013003 8.52646e-05 3.19561e-07
4.27518e-07 3.19561e-07 -5.14624e-05
0.00108941 -0.000215943 -1.22402e-06
-0.000215943 0.000180719 -2.26547e-08
-1.22402e-06 -2.26547e-08 -9.4691e-06
0.0011036 -0.000252802 1.69285e-06
-0.000252802 3.20334e-05 -6.75685e-07
1.69285e-06 -6.75685e-07 -0.00018125
0.00157093 -0.000201748 -5.26353e-07
-0.000201748 0.000120393 4.38287e-07
-5.26353e-07 4.38287e-07 -2.91874e-05
0.00180219 -0.000196875 1.46688e-06
-0.000196875 0.000150646 1.80731e-07
1.46688e-06 1.80731e-07 3.90909e-05
0.00173637 -0.000311664 -7.36139e-07
-0.000311664 0.000265986 5.78502e-07
-7.36139e-07 5.78502e-07 5.9619e-05
0.00167188 -0.000256179 1.28286e-07
-0.000256179 0.000139462 2.96979e-07
1.28286e-07 2.96979e-07 -1.2168e-05
0.00196507 -0.000302521 1.6081e-06
-0.000302521 0.000310761 -4.2016e-07
1.6081e-06 -4.2016e-07 0.000153582
0.000958036 -0.000155657 2.88382e-07
-0.000155657 0.000196947 5.03636e-07
2.88382e-07 5.03636e-07 4.28319e-05
0.00109222 -0.000190823 -3.09319e-07
-0.000190823 0.000289745 1.23883e-07
-3.09319e-07 1.23883e-07 0.000118341
0.000650925 -2.08032e-05 1.03543e-07
-2.08032e-05 3.61539e-05 1.88174e-07
1.03543e-07 1.88174e-07 -4.47273e-05
0.000433145 -2.92011e-05 -2.33579e-07
-2.92011e-05 -7.59545e-05 -5.54329e-07
-2.33579e-07 -5.54329e-07 -0.000208654
0.0017012 -3.27357e-05 -1.48906e-06
-3.27357e-05 0.00010042 -2.74044e-08
-1.48906e-06 -2.74044e-08 -5.85471e-06
0.00183791 -9.44021e-05 -7.3167e-07
-9.44021e-05 0.000185323 1.19575e-06
-7.3167e-07 1.19575e-06 7.10251e-05
0.00163228 -6.72701e-05 7.36232e-07
-6.72701e-05 -2.8825e-07 -2.47469e-09
7.36232e-07 -2.47469e-09 -8.98021e-05
0.00175547 -0.000166618 -3.7301e-06
-0.000166618 8.28573e-05 9.05822e-07
-3.7301e-06 9.05822e-07 -1.30841e-05
0.00170912 -0.000227402 -3.41172e-06
-0.000227402 0.000125408 2.75821e-06
-3.41172e-06 2.75821e-06 -4.05969e-06
0.00191458 -0.000198396 1.61847e-06
-0.000198396 0.000191215 -3.01107e-07
1.61847e-06 -3.01107e-07 9.66447e-05
0.000887005 -0.000181165 1.15322e-06
-0.000181165 0.000131253 -2.19262e-06
1.15322e-06 -2.19262e-06 -3.72476e-05
0.00161818 -0.000271549 -4.09142e-06
-0.000271549 7.31633e-05 2.84031e-06
-4.09142e-06 2.84031e-06 -5.71895e-05
0.000953697 -0.000232458 2.22243e-06
-0.000232458 5.9457e-05 -5.04065e-06
2.22243e-06 -5.04065e-06 -0.000154784
0.0016446 -0.000332796 3.5701e-06
-0.000332796 0.000290293 1.01058e-07
3.5701e-06 1.01058e-07 5.19017e-05
0.00169215 -0.000324163 6.08974e-07
-0.000324163 0.000196565 5.21531e-06
6.08974e-07 5.21531e-06 -7.84246e-06
0.00193029 -0.000293991 1.46671e-07
-0.000293991 0.000275083 1.22438e-06
1.46671e-07 1.22438e-06 0.000124096
0.000585 -2.16464e-05 1.26595e-06
-2.16464e-05 -3.36833e-06 -2.91695e-06
1.26595e-06 -2.91695e-06 -7.43297e-05
0.00052295 -2.6688e-05 -7.26903e-07
-2.6688e-05 -1.34206e-05 -1.56952e-06
-7.26903e-07 -1.56952e-06 -0.000138747
0.000860748 -0.000188458 -3.29244e-07
-0.000188458 0.000124144 1.2585e-06
-3.29244e-07 1.2585e-06 -4.38954e-05
0.000819831 -0.000134214 9.28229e-07
-0.000134214 0.000165526 1.32861e-06
9.28229e-07 1.32861e-06 3.87027e-07
0.00134473 -0.000232083 -2.4878e-06
-0.000232083 0.00042483 3.47619e-06
-2.4878e-06 3.47619e-06 0.000250642
0.000531745 -5.82297e-05 -8.18976e-07
-5.82297e-05 -3.83513e-05 -4.63737e-06
-8.18976e-07 -4.63737e-06 -6.30123e-05
0.00137068 0.000164426 -4.74695e-06
0.000164426 8.58946e-05 -1.35993e-06
-4.74695e-06 -1.35993e-06 -7.19293e-05
0.000535319 -4.75748e-05 -1.95145e-07
-4.75748e-05 -2.58053e-05 -3.10944e-06
-1.95145e-07 -3.10944e-06 -9.82634e-05
0.00073805 5.82335e-05 -1.63918e-06
5.82335e-05 8.68399e-05 -4.16835e-06
-1.63918e-06 -4.16835e-06 -2.79319e-05
0.000719668 2.91765e-05 1.53711e-06
2.91765e-05 9.74318e-05 -1.77831e-06
1.53711e-06 -1.77831e-06 -3.37242e-05
0.00128617 0.00020773 -6.57528e-06
0.00020773 0.000111885 -2.25964e-06
-6.57528e-06 -2.25964e-06 -6.1922e-05
0.00160909 0.000247996 -1.77214e-07
0.000247996 0.000160637 4.73541e-07
-1.77214e-07 4.73541e-07 -1.54734e-05
0.00100967 0.00019002 -1.95315e-06
0.00019002 0.000209431 -3.43495e-06
-1.95315e-06 -3.43495e-06 2.12678e-05
0.00086503 0.000222847 -2.26167e-06
0.000222847 -1.31525e-05 -2.55048e-06
-2.26167e-06 -2.55048e-06 -0.000244079
0.00172897 0.000274709 -3.21962e-06
0.000274709 0.000356488 -1.38586e-06
-3.21962e-06 -1.38586e-06 0.000165053
0.00136933 0.000258214 -5.81163e-06
0.000258214 0.000135949 7.56691e-07
-5.81163e-06 7.56691e-07 -6.13248e-05
0.000566385 -5.1465e-05 5.04991e-08
-5.1465e-05 -2.91354e-05 2.39779e-09
5.04991e-08 2.39779e-09 -4.97157e-05
0.000637653 -2.81334e-05 -6.3092e-07
-2.81334e-05 2.05393e-05 3.03927e-07
-6.3092e-07 3.03927e-07 -3.75532e-05
0.000927439 0.000138166 1.67839e-07
0.000138166 0.000190602 7.03434e-07
1.67839e-07 7.03434e-07 3.369e-05
0.000720005 6.16584e-06 -4.30988e-07
6.16584e-06 0.000104879 3.65173e-07
-4.30988e-07 3.65173e-07 -8.52517e-06
0.000668166 9.61104e-05 7.287e-07
9.61104e-05 6.76897e-05 -4.98479e-07
7.287e-07 -4.98479e-07 -8.86792e-05
0.00165298 0.000217416 1.28624e-07
0.000217416 0.000142735 -6.34703e-07
1.28624e-07 -6.34703e-07 -1.72063e-05
0.00149936 0.000262972 6.35377e-07
0.000262972 0.000155282 3.68159e-07
6.35377e-07 3.68159e-07 -3.17426e-05
0.0016886 0.000283205 1.65769e-06
0.000283205 0.000159954 2.37685e-07
1.65769e-06 2.37685e-07 -1.12866e-05
0.00118092 0.00023074 9.23322e-07
0.00023074 0.000286119 1.59785e-06
9.23322e-07 1.59785e-06 5.73727e-05
0.00175933 0.000312533 3.68526e-07
0.000312533 0.000305844 9.0794e-08
3.68526e-07 9.0794e-08 0.000105665
0.00114904 0.00025423 -2.02425e-06
0.00025423 7.2204e-05 -6.04799e-09
-2.02425e-06 -6.04799e-09 -0.000152198
0.000683928 -1.47595e-05 2.22551e-06
-1.47595e-05 3.73974e-05 2.33899e-06
2.22551e-06 2.33899e-06 -1.37356e-05
0.000779752 3.65567e-05 5.3057e-07
3.65567e-05 0.000127349 2.37146e-06
5.3057e-07 2.37146e-06 3.2213e-05
0.000987339 0.00019837 -1.75428e-06
0.00019837 0.000218177 -8.77136e-08
-1.75428e-06 -8.77136e-08 3.38342e-05
0.00109169 5.75703e-05 1.25689e-07
5.75703e-05 0.000323902 9.79436e-07
1.25689e-07 9.79436e-07 0.000185205
0.0012582 0.000118727 -4.52718e-06
0.000118727 0.000376419 -5.05222e-06
-4.52718e-06 -5.05222e-06 0.000220168
0.00171132 0.000229615 -2.73491e-06
0.000229615 0.000138204 -2.61452e-06
-2.73491e-06 -2.61452e-06 -6.70884e-06
0.00170405 0.000318917 1.75575e-06
0.000318917 0.000218235 2.89895e-07
1.75575e-06 2.89895e-07 2.58516e-05
0.00151695 0.000303162 3.39395e-06
0.000303162 2.98937e-05 -9.61078e-07
3.39395e-06 -9.61078e-07 -0.000138542
0.000967776 0.00022679 -1.26352e-07
0.00022679 0.000133078 2.5969e-06
-1.26352e-07 2.5969e-06 -0.000108987
0.00145945 0.000308652 6.0727e-06
0.000308652 0.000158225 -3.51502e-07
6.0727e-06 -3.51502e-07 -6.08843e-05
0.000650437 -1.66502e-05 -1.80134e-07
-1.66502e-05 1.46655e-05 1.14498e-08
-1.80134e-07 1.14498e-08 -3.35834e-05
0.000564718 1.51839e-05 1.49366e-06
1.51839e-05 -1.94456e-05 1.46761e-06
1.49366e-06 1.46761e-06 -9.37769e-05
0.000580017 2.09895e-06 -5.87547e-07
2.09895e-06 -5.765e-06 -7.67689e-08
-5.87547e-07 -7.67689e-08 -8.04664e-05
0.000925265 7.592e-05 5.57651e-07
7.592e-05 0.000209044 -2.58478e-07
5.57651e-07 -2.58478e-07 0.000116145
0.000701642 5.79115e-05 1.80318e-06
5.79115e-05 7.00828e-05 1.25553e-06
1.80318e-06 1.25553e-06 -6.8408e-06
0.000649891 1.78848e-05 1.76851e-06
1.78848e-05 1.67886e-05 2.1985e-06
1.76851e-06 2.1985e-06 -2.99262e-05
0.000648095 -1.55496e-05 -6.46327e-07
-1.55496e-05 1.39311e-05 2.26114e-08
-6.46327e-07 2.26114e-08 -3.29222e-05
0.00125491 -3.98931e-05 7.69518e-07
-3.98931e-05 0.000357944 2.47341e-06
7.69518e-07 2.47341e-06 0.000347672
0.000646553 -2.89667e-05 -9.24875e-07
-2.89667e-05 1.2727e-05 -2.21591e-06
-9.24875e-07 -2.21591e-06 -3.48638e-05
0.00129322 -4.83509e-05 -5.13888e-06
-4.83509e-05 0.000384757 -1.35686e-06
-5.13888e-06 -1.35686e-06 0.000373115
0.000874094 -3.847e-05 2.25525e-05
-3.847e-05 0.000146541 7.33865e-06
2.25525e-05 7.33865e-06 0.000152404
0.00130606 -5.61902e-05 -9.53798e-06
-5.61902e-05 0.000398787 -3.75677e-06
-9.53798e-06 -3.75677e-06 0.000384934
0.0015638 -6.27117e-05 2.05006e-05
-6.27117e-05 0.000562201 1.9306e-06
2.05006e-05 1.9306e-06 0.000568445
0.00227463 -8.87753e-05 -2.86073e-05
-8.87753e-05 0.000988957 -3.5283e-06
-2.86073e-05 -3.5283e-06 0.000995892
0.00050596 5.6359e-05 -9.57904e-07
5.6359e-05 -5.27242e-05 -4.94492e-06
-9.57904e-07 -4.94492e-06 -8.03375e-05
0.000534096 3.08755e-05 1.92142e-07
3.08755e-05 -3.43497e-05 2.3653e-07
1.92142e-07 2.3653e-07 -6.54887e-05
0.00267246 0.00010846 3.69424e-05
0.00010846 0.0012311 -3.36312e-06
3.69424e-05 -3.36312e-06 0.00123194
0.00304068 0.000110134 -6.03942e-06
0.000110134 0.00145076 -3.33498e-07
-6.03942e-06 -3.33498e-07 0.00145105
0.00061783 1.56257e-05 -3.84708e-06
1.56257e-05 1.57519e-05 7.17305e-06
-3.84708e-06 7.17305e-06 -2.16388e-05
0.00345444 0.000106372 -9.89451e-05
0.000106372 0.00169438 4.62098e-06
-9.89451e-05 4.62098e-06 0.00169505
0.00139575 0.000139365 -4.49182e-06
0.000139365 7.62998e-05 -8.34736e-07
-4.49182e-06 -8.34736e-07 -7.33131e-05
0.00140562 8.08374e-05 -3.4609e-06
8.08374e-05 5.78527e-05 -3.05798e-07
-3.4609e-06 -3.05798e-07 -7.69676e-05
0.00169777 0.000146243 9.48491e-08
0.000146243 0.000121295 1.09493e-06
9.48491e-08 1.09493e-06 -9.15359e-06
0.0017854 7.67975e-05 1.00912e-06
7.67975e-05 0.00012401 7.8395e-07
1.00912e-06 7.8395e-07 1.73094e-05
0.00140141 3.4742e-05 -3.06461e-06
3.4742e-05 4.9452e-05 5.84482e-08
-3.06461e-06 5.84482e-08 -7.62856e-05
0.00102848 6.70511e-06 -1.19865e-05
6.70511e-06 -1.91683e-05 4.98053e-08
-1.19865e-05 4.98053e-08 -0.000134489
0.00139993 1.05901e-05 7.93044e-08
1.05901e-05 5.20707e-05 2.19146e-08
7.93044e-08 2.19146e-08 -7.23151e-05
0.0017459 3.43231e-05 -1.19376e-06
3.43231e-05 0.000107267 1.6098e-09
-1.19376e-06 1.6098e-09 4.53981e-06
0.00172968 0.000117343 -1.48139e-07
0.000117343 0.000107819 3.82012e-08
-1.48139e-07 3.82012e-08 -1.17571e-05
0.0017956 8.02909e-05 1.69124e-06
8.02909e-05 6.98914e-05 9.02396e-07
1.69124e-06 9.02396e-07 -1.36279e-05
0.00167307 0.000178707 -2.7042e-07
0.000178707 0.000126992 -7.55866e-08
-2.7042e-07 -7.55866e-08 -1.65114e-05
0.00173776 0.000167916 -3.80451e-07
0.000167916 7.42621e-05 1.00379e-06
-3.80451e-07 1.00379e-06 -2.86506e-05
0.00172066 7.68416e-07 -1.32653e-06
7.68416e-07 0.000104669 1.02949e-07
-1.32653e-06 1.02949e-07 2.15726e-06
0.00170163 4.04024e-05 3.25897e-07
4.04024e-05 2.90852e-05 5.02612e-07
3.25897e-07 5.02612e-07 -5.23723e-05
0.00187348 0.000130781 -3.26229e-06
0.000130781 0.000126117 -9.13734e-07
-3.26229e-06 -9.13734e-07 3.71782e-05
0.00189386 8.70922e-05 2.80485e-06
8.70922e-05 0.000111443 2.21476e-07
2.80485e-06 2.21476e-07 4.73226e-05
0.00168084 0.000182335 -1.37502e-06
0.000182335 8.02537e-05 -2.66973e-06
-1.37502e-06 -2.66973e-06 -4.01365e-05
0.00182981 0.000178379 2.43241e-06
0.000178379 8.87438e-05 2.92142e-07
2.43241e-06 2.92142e-07 3.40347e-06
0.0014148 -1.26508e-05 -5.09276e-06
-1.26508e-05 6.24362e-05 2.31179e-07
-5.09276e-06 2.31179e-07 -6.19271e-05
0.00172974 -8.50688e-05 -6.77683e-06
-8.50688e-05 0.000254099 6.92928e-07
-6.77683e-06 6.92928e-07 0.000126877
0.00169246 -5.28119e-05 1.85255e-06
-5.28119e-05 0.000100082 -7.96889e-07
1.85255e-06 -7.96889e-07 -2.71344e-06
0.00169088 -0.000136237 -3.64873e-07
-0.000136237 0.000116726 -1.80002e-07
-3.64873e-07 -1.80002e-07 -1.11526e-05
0.000889426 -0.000153131 -4.93749e-06
-0.000153131 0.000164863 5.78832e-06
-4.93749e-06 5.78832e-06 2.47496e-05
0.00121984 -0.000227234 -4.24888e-06
-0.000227234 0.000251114 4.0713e-06
-4.24888e-06 4.0713e-06 5.98536e-05
0.000895145 -0.00023136 -2.68672e-06
-0.00023136 -8.45073e-05 3.99996e-07
-2.68672e-06 3.99996e-07 -0.000294481
0.00160278 -0.000202626 -1.51057e-06
-0.000202626 0.000140065 1.42812e-07
-1.51057e-06 1.42812e-07 -1.18564e-05
0.00183931 -0.000197379 3.50419e-06
-0.000197379 0.000175119 -1.8181e-06
3.50419e-06 -1.8181e-06 6.77096e-05
0.00170254 -0.000256585 2.23336e-06
-0.000256585 0.000157715 -1.29191e-06
2.23336e-06 -1.29191e-06 6.44669e-06
0.00164016 -0.000311874 -5.64758e-07
-0.000311874 0.000207828 -1.49136e-06
-5.64758e-07 -1.49136e-06 -1.30471e-06
0.00200411 -0.000302056 4.79936e-06
-0.000302056 0.000335099 -6.24994e-06
4.79936e-06 -6.24994e-06 0.000180633
0.000907343 -0.000155715 -8.21793e-07
-0.000155715 0.00016921 7.85954e-07
-8.21793e-07 7.85954e-07 1.5003e-05
0.000704493 -0.000140036 -3.56637e-07
-0.000140036 5.66095e-05 -1.01382e-06
-3.56637e-07 -1.01382e-06 -0.000103288
0.000714678 -2.59504e-05 -1.43961e-06
-2.59504e-05 7.16798e-05 3.25545e-06
-1.43961e-06 3.25545e-06 -9.51106e-06
0.000403518 -5.28397e-06 5.58185e-07
-5.28397e-06 -9.62574e-05 -8.4507e-07
5.58185e-07 -8.4507e-07 -0.000223748
0.00170067 -3.25632e-05 -1.89794e-08
-3.25632e-05 0.000100499 4.83089e-08
-1.89794e-08 4.83089e-08 -5.90916e-06
0.00176584 -9.3662e-05 5.175e-08
-9.3662e-05 0.000144415 -2.38448e-07
5.175e-08 -2.38448e-07 2.81655e-05
0.00170213 -6.72754e-05 1.73574e-06
-6.72754e-05 4.02999e-05 -4.13141e-07
1.73574e-06 -4.13141e-07 -4.60134e-05
0.00171417 -0.000163365 -1.48823e-06
-0.000163365 6.66984e-05 6.32645e-07
-1.48823e-06 6.32645e-07 -3.12679e-05
0.00097487 -0.000180439 -5.10111e-07
-0.000180439 0.00018223 9.83771e-07
-5.10111e-07 9.83771e-07 1.39827e-05
0.00092125 -0.000226705 1.45097e-06
-0.000226705 4.08275e-05 -2.20265e-06
1.45097e-06 -2.20265e-06 -0.000170074
0.00161431 -0.000331119 -4.62413e-08
-0.000331119 0.000271347 5.97467e-07
-4.62413e-08 5.97467e-07 3.08195e-05
0.00165677 -0.000224383 -1.49646e-06
-0.000224383 9.98492e-05 7.22306e-07
-1.49646e-06 7.22306e-07 -3.29759e-05
0.00178584 -0.00019601 2.12493e-06
-0.00019601 0.0001125 -1.10644e-06
2.12493e-06 -1.10644e-06 2.16712e-05
0.00169422 -0.000325636 -8.37643e-07
-0.000325636 0.000199819 8.99944e-07
-8.37643e-07 8.99944e-07 -5.64213e-06
0.00167439 -0.00027423 -4.20221e-07
-0.00027423 0.000105439 1.04336e-06
-4.20221e-07 1.04336e-06 -2.52085e-05
0.00181757 -0.00028807 3.15393e-06
-0.00028807 0.000199664 -4.86039e-06
3.15393e-06 -4.86039e-06 5.27091e-05
0.00100545 -0.000201699 4.31444e-07
-0.000201699 0.000206312 1.2496e-06
4.31444e-07 1.2496e-06 3.5901e-05
0.00119733 -0.000212291 2.53448e-06
-0.000212291 0.000331604 1.00241e-06
2.53448e-06 1.00241e-06 0.000164982
0.000810551 -0.000103726 -2.35869e-07
-0.000103726 0.00015606 -6.19728e-08
-2.35869e-07 -6.19728e-08 -7.92384e-06
0.000497378 -5.41577e-07 -1.08015e-06
-5.41577e-07 -5.45739e-05 2.8989e-07
-1.08015e-06 2.8989e-07 -0.00012697
0.00045345 3.98289e-06 -3.18439e-07
3.98289e-06 -5.64637e-05 -7.00618e-07
-3.18439e-07 -7.00618e-07 -0.000176772
0.00175534 -4.39843e-05 3.6468e-07
-4.39843e-05 6.56608e-05 -7.04955e-07
3.6468e-07 -7.04955e-07 -1.49194e-05
0.00181631 -9.57687e-05 1.2433e-06
-9.57687e-05 9.39951e-05 3.82074e-07
1.2433e-06 3.82074e-07 1.14946e-05
0.00181234 -0.000191677 -2.29671e-07
-0.000191677 9.1818e-05 -1.01217e-06
-2.29671e-07 -1.01217e-06 1.34461e-05
0.00158461 -0.000223699 -6.40077e-07
-0.000223699 1.68283e-05 4.98453e-07
-6.40077e-07 4.98453e-07 -8.57999e-05
0.00105739 -0.000216553 -1.54951e-06
-0.000216553 0.000215136 -2.91258e-06
-1.54951e-06 -2.91258e-06 2.40177e-05
0.00219148 -0.000324633 -2.39981e-06
-0.000324633 0.000347858 1.19183e-06
-2.39981e-06 1.19183e-06 0.00022093
0.000720123 -0.000236745 1.34986e-06
-0.000236745 -0.000112041 -5.30607e-06
1.34986e-06 -5.30607e-06 -0.000342997
0.00173048 -0.000372344 2.95766e-06
-0.000372344 0.000289744 1.6869e-06
2.95766e-06 1.6869e-06 3.39072e-05
0.00157731 -0.000317904 1.96527e-06
-0.000317904 9.87782e-05 3.96173e-06
1.96527e-06 3.96173e-06 -9.91359e-05
0.000303959 1.41076e-05 6.0222e-07
1.41076e-05 -0.00016756 -3.4164e-06
6.0222e-07 -3.4164e-06 -0.000231371
0.000765176 -2.9766e-05 6.85155e-07
-2.9766e-05 0.00013305 -1.03947e-06
6.85155e-07 -1.03947e-06 2.03524e-05
0.000978267 -6.30255e-05 -9.86101e-07
-6.30255e-05 0.000246721 1.17872e-07
-9.86101e-07 1.17872e-07 0.000105072
0.00111919 -0.00021893 -4.43794e-06
-0.00021893 0.00025795 1.16737e-06
-4.43794e-06 1.16737e-06 8.51584e-05
0.000577933 -0.000119186 2.81074e-06
-0.000119186 1.24243e-05 2.85461e-06
2.81074e-06 2.85461e-06 -0.000166104
0.000563156 -0.000176202 -1.72346e-07
-0.000176202 -6.90019e-05 4.74082e-07
-1.72346e-07 4.74082e-07 -0.000229943
0.000568014 -4.9932e-05 -1.07057e-06
-4.9932e-05 -2.89427e-05 -4.41213e-06
-1.07057e-06 -4.41213e-06 -4.91812e-05
0.000589427 -3.11842e-05 -1.86641e-06
-3.11842e-05 -6.49585e-06 -2.30464e-06
-1.86641e-06 -2.30464e-06 -6.44835e-05
0.00164721 0.000218589 -9.49443e-07
0.000218589 0.000136433 -5.6435e-08
-9.49443e-07 -5.6435e-08 -2.40721e-05
0.000622587 -6.40667e-05 1.50114e-06
-6.40667e-05 4.66192e-05 -2.3459e-06
1.50114e-06 -2.3459e-06 -6.22507e-05
0.000769896 0.000123804 -1.01545e-06
0.000123804 9.9358e-05 -1.6803e-07
-1.01545e-06 -1.6803e-07 -5.36994e-05
0.00029787 5.72723e-05 1.48781e-06
5.72723e-05 -0.000154007 7.58597e-07
1.48781e-06 7.58597e-07 -0.000303662
0.00150919 0.000262651 -7.66281e-07
0.000262651 0.00016304 -1.6875e-07
-7.66281e-07 -1.6875e-07 -2.39975e-05
0.00161071 0.000280066 4.6721e-07
0.000280066 0.000116166 3.88497e-07
4.6721e-07 3.88497e-07 -5.54659e-05
0.000897174 0.000205506 5.31633e-07
0.000205506 0.000130961 -1.72111e-06
5.31633e-07 -1.72111e-06 -9.75824e-05
0.00147185 0.000279447 -1.67809e-06
0.000279447 0.000252762 -4.7219e-07
-1.67809e-06 -4.7219e-07 2.78115e-05
0.0017622 0.000313508 -3.64515e-06
0.000313508 0.000299582 -8.1725e-07
-3.64515e-06 -8.1725e-07 9.88237e-05
0.000648806 -1.56264e-05 -2.69213e-07
-1.56264e-05 1.76716e-05 1.0218e-07
-2.69213e-07 1.0218e-07 -3.34716e-05
0.000705862 -1.34572e-05 -9.70533e-07
-1.34572e-05 8.30843e-05 3.8197e-07
-9.70533e-07 3.8197e-07 -8.76728e-06
0.00101665 0.000201087 -6.66554e-07
0.000201087 0.000237115 9.3632e-08
-6.66554e-07 9.3632e-08 5.1882e-05
0.000782354 1.74678e-05 2.18462e-07
1.74678e-05 0.000140731 -1.39464e-07
2.18462e-07 -1.39464e-07 8.12593e-06
0.000911534 0.000130068 7.48467e-07
0.000130068 0.000191268 6.14271e-07
7.48467e-07 6.14271e-07 2.80066e-05
0.00169652 0.000231721 -1.80106e-06
0.000231721 0.000129245 -1.31603e-06
-1.80106e-06 -1.31603e-06 -1.68487e-05
0.00166909 0.000315822 1.36621e-06
0.000315822 0.000194884 3.47301e-07
1.36621e-06 3.47301e-07 2.61204e-06
0.00165631 0.000307925 4.98878e-07
0.000307925 0.000110784 2.32747e-07
4.98878e-07 2.32747e-07 -5.67308e-05
0.00080736 0.000217639 7.09802e-08
0.000217639 3.27721e-05 3.01735e-06
7.09802e-08 3.01735e-06 -0.000206939
0.00158962 0.000319687 -1.60697e-06
0.000319687 0.000240275 -6.81697e-07
-1.60697e-06 -6.81697e-07 1.76009e-05
0.000775488 2.81985e-05 8.69525e-07
2.81985e-05 0.000112988 1.73024e-06
8.69525e-07 1.73024e-06 3.1403e-05
0.000466996 -1.39035e-05 -1.34336e-06
-1.39035e-05 -4.9278e-05 2.78538e-06
-1.34336e-06 2.78538e-06 -0.000158002
0.00104864 0.000215845 -3.11846e-06
0.000215845 0.000219221 -1.06523e-06
-3.11846e-06 -1.06523e-06 2.24226e-05
0.000785126 8.6392e-05 -3.69594e-06
8.6392e-05 0.000161731 -3.26373e-06
-3.69594e-06 -3.26373e-06 -2.11732e-06
0.000828691 0.000189317 -9.89156e-07
0.000189317 0.000116458 -2.31521e-06
-9.89156e-07 -2.31521e-06 -5.34748e-05
0.0015725 0.000245831 3.08089e-07
0.000245831 -1.39322e-05 -2.34596e-06
3.08089e-07 -2.34596e-06 -0.00013593
0.00186872 0.000357316 3.17006e-06
0.000357316 0.000284879 -1.84138e-06
3.17006e-06 -1.84138e-06 8.10211e-05
0.00150838 0.000315638 3.24102e-06
0.000315638 1.403e-05 2.84233e-07
3.24102e-06 2.84233e-07 -0.000155549
0.00169858 0.000304303 3.83601e-06
0.000304303 0.000473363 7.28387e-06
3.83601e-06 7.28387e-06 0.000214599
0.00171592 0.000351368 -5.69366e-07
0.000351368 0.000299478 -9.08868e-07
-5.69366e-07 -9.08868e-07 6.78879e-05
0.000635348 -2.56895e-05 -1.38583e-06
-2.56895e-05 7.52001e-06 -2.29586e-06
-1.38583e-06 -2.29586e-06 -4.16306e-05
0.000638448 1.94059e-05 8.41716e-07
1.94059e-05 2.5493e-05 3.66572e-07
8.41716e-07 3.66572e-07 -4.95689e-05
0.000558245 -5.93838e-06 -2.20382e-07
-5.93838e-06 -1.58408e-05 9.37769e-07
-2.20382e-07 9.37769e-07 -9.99292e-05
0.000478835 -3.29541e-05 -7.18747e-07
-3.29541e-05 -6.62958e-05 -1.18741e-06
-7.18747e-07 -1.18741e-06 -0.000139888
0.000683383 2.68752e-05 -2.06785e-07
2.68752e-05 5.81944e-05 3.41096e-08
-2.06785e-07 3.41096e-08 -1.72598e-05
0.000708051 3.43138e-05 -2.01972e-07
3.43138e-05 7.28722e-05 -3.57278e-07
-2.01972e-07 -3.57278e-07 -1.2307e-05
0.000835432 6.33718e-05 -9.39102e-07
6.33718e-05 0.000156314 -1.1565e-06
-9.39102e-07 -1.1565e-06 6.10691e-05
0.000571623 -1.95812e-05 6.4685e-07
-1.95812e-05 4.74846e-06 4.84446e-07
6.4685e-07 4.84446e-07 -8.9093e-05
0.000705864 4.71377e-05 8.38198e-07
4.71377e-05 6.79896e-05 1.31081e-06
8.38198e-07 1.31081e-06 -4.42817e-06
0.0006542 2.44376e-05 1.75464e-06
2.44376e-05 2.32647e-05 2.22933e-06
1.75464e-06 2.22933e-06 -2.43767e-05
0.000650028 -4.59914e-06 -9.00297e-07
-4.59914e-06 1.71667e-05 1.55864e-08
-9.00297e-07 1.55864e-08 -2.96897e-05
0.00125998 -2.83594e-05 8.3871e-07
-2.83594e-05 0.000358226 2.40986e-06
8.3871e-07 2.40986e-06 0.00034893
0.000628765 -3.89964e-05 -3.8132e-07
-3.89964e-05 4.60271e-06 -2.17463e-06
-3.8132e-07 -2.17463e-06 -4.3257e-05
0.00129616 -3.69267e-05 -4.41413e-06
-3.69267e-05 0.000381946 -1.42061e-06
-4.41413e-06 -1.42061e-06 0.000371917
0.000880276 -3.15944e-05 1.88145e-05
-3.15944e-05 0.000144462 7.66072e-06
1.88145e-05 7.66072e-06 0.000151659
0.00132641 -4.60668e-05 -8.29761e-06
-4.60668e-05 0.000403814 -5.32914e-06
-8.29761e-06 -5.32914e-06 0.000392396
0.000821022 -3.94151e-05 7.00903e-06
-3.94151e-05 0.000115076 2.86659e-06
7.00903e-06 2.86659e-06 0.000120431
0.00220612 -8.33069e-05 -5.13216e-06
-8.33069e-05 0.000940865 -1.85482e-06
-5.13216e-06 -1.85482e-06 0.000949146
0.000538289 4.29517e-05 -1.4763e-07
4.29517e-05 -4.49815e-05 -3.96414e-06
-1.4763e-07 -3.96414e-06 -6.502e-05
0.000535498 4.7027e-05 -2.28161e-07
4.7027e-05 -3.68644e-05 8.28818e-08
-2.28161e-07 8.28818e-08 -6.37493e-05
0.00248003 9.4309e-05 2.78266e-05
9.4309e-05 0.00111162 -3.63885e-06
2.78266e-05 -3.63885e-06 0.00111613
0.000584464 2.14576e-05 -3.14745e-06
2.14576e-05 -6.56164e-06 5.95287e-06
-3.14745e-06 5.95287e-06 -3.69658e-05
0.00277071 0.000109095 -6.48593e-06
0.000109095 0.00128829 -4.19523e-07
-6.48593e-06 -4.19523e-07 0.00128912
0.00313896 9.96682e-05 -8.18484e-05
9.96682e-05 0.00150603 3.91086e-06
-8.18484e-05 3.91086e-06 0.00150879
0.00165721 0.000179266 -1.34121e-06
0.000179266 0.000115375 7.59342e-07
-1.34121e-06 7.59342e-07 -2.86833e-05
0.00174664 0.000115258 1.24525e-06
0.000115258 0.00011857 1.03358e-06
1.24525e-06 1.03358e-06 -7.13982e-07
0.00176318 0.000165672 2.09582e-06
0.000165672 8.59236e-05 2.30414e-06
2.09582e-06 2.30414e-06 -1.42093e-05
0.00178367 7.93958e-05 2.83067e-06
7.93958e-05 6.20149e-05 8.36249e-07
2.83067e-06 8.36249e-07 -1.6847e-05
0.00174251 2.68344e-05 -6.37375e-07
2.68344e-05 0.00010669 1.31092e-07
-6.37375e-07 1.31092e-07 4.23151e-06
0.00139968 1.33628e-05 -2.93695e-06
1.33628e-05 5.18173e-05 1.14365e-07
-2.93695e-06 1.14365e-07 -7.26037e-05
0.00171056 2.98901e-06 -1.0579e-06
2.98901e-06 9.83851e-05 -2.5709e-08
-1.0579e-06 -2.5709e-08 -5.81416e-06
0.00177097 3.74547e-05 1.26815e-06
3.74547e-05 7.16143e-05 -1.5105e-08
1.26815e-06 -1.5105e-08 -1.17214e-05
0.00184004 0.000129046 -1.45144e-06
0.000129046 0.000107708 -5.22803e-07
-1.45144e-06 -5.22803e-07 1.74819e-05
0.00183734 8.56718e-05 2.29775e-06
8.56718e-05 7.67876e-05 5.39621e-07
2.29775e-06 5.39621e-07 1.58547e-05
0.00169961 0.000181134 -7.37569e-07
0.000181134 9.80008e-05 -2.51064e-07
-7.37569e-07 -2.51064e-07 -2.24006e-05
0.0017993 0.000180253 3.46097e-06
0.000180253 6.9639e-05 1.37392e-06
3.46097e-06 1.37392e-06 -1.22202e-05
0.00175301 -6.96331e-06 -9.50067e-07
-6.96331e-06 7.97367e-05 -1.12458e-07
-9.50067e-07 -1.12458e-07 -3.64289e-06
0.00177344 4.0384e-05 3.16691e-06
4.0384e-05 3.39352e-05 1.15696e-08
3.16691e-06 1.15696e-08 -1.86993e-05
0.00184134 0.000131326 2.11311e-06
0.000131326 7.1932e-05 1.18996e-07
2.11311e-06 1.18996e-07 6.22293e-06
0.00186739 0.000219964 6.08581e-07
0.000219964 0.00012119 -1.21837e-06
6.08581e-07 -1.21837e-06 2.87516e-05
0.00169927 -3.23656e-05 6.7631e-07
-3.23656e-05 0.000100449 1.54038e-07
6.7631e-07 1.54038e-07 -6.08584e-06
0.00169051 -9.47483e-05 1.49725e-06
-9.47483e-05 0.000101808 -1.13173e-06
1.49725e-06 -1.13173e-06 -1.65276e-05
0.00178817 -6.76797e-05 3.59186e-06
-6.76797e-05 9.07356e-05 -9.85687e-07
3.59186e-06 -9.85687e-07 7.57847e-06
0.00167469 -0.000159894 -4.14134e-08
-0.000159894 5.09873e-05 -5.5671e-08
-4.14134e-08 -5.5671e-08 -4.89356e-05
0.00111327 -0.00019248 -1.35149e-06
-0.00019248 0.000263924 3.88472e-06
-1.35149e-06 3.88472e-06 9.26532e-05
0.000999043 -0.00023111 -1.40354e-07
-0.00023111 8.49177e-05 1.6184e-06
-1.40354e-07 1.6184e-06 -0.000123652
0.00159964 -0.000330259 -3.51236e-06
-0.000330259 0.000262642 9.50776e-07
-3.51236e-06 9.50776e-07 1.96886e-05
0.00160362 -0.00022143 3.44256e-07
-0.00022143 7.41607e-05 -5.38627e-07
3.44256e-07 -5.38627e-07 -6.20343e-05
0.00167008 -0.000194266 3.64364e-06
-0.000194266 4.14192e-05 -2.32448e-06
3.64364e-06 -2.32448e-06 -4.57875e-05
0.00172953 -0.000276943 3.11363e-06
-0.000276943 0.000136444 -6.59823e-07
3.11363e-06 -6.59823e-07 5.48251e-06
0.00170559 -0.00032754 -1.74593e-06
-0.00032754 0.000207658 -2.74608e-06
-1.74593e-06 -2.74608e-06 1.17041e-06
0.00170744 -0.000282357 2.01104e-06
-0.000282357 0.000126846 -1.07749e-05
2.01104e-06 -1.07749e-05 -1.61583e-05
0.00120599 -0.00021984 1.92128e-06
-0.00021984 0.000322322 1.1496e-06
1.92128e-06 1.1496e-06 0.000148454
0.00104814 -0.000198786 2.40833e-06
-0.000198786 0.00023614 -2.76868e-06
2.40833e-06 -2.76868e-06 7.50916e-05
0.000719158 -8.27085e-05 1.02814e-06
-8.27085e-05 9.89117e-05 -1.63808e-06
1.02814e-06 -1.63808e-06 -6.4438e-05
0.000393274 1.26893e-05 -1.37535e-06
1.26893e-05 -0.000114624 2.75231e-06
-1.37535e-06 2.75231e-06 -0.000188947
0.000422862 3.10034e-05 1.15876e-06
3.10034e-05 -7.60394e-05 2.39144e-07
1.15876e-06 2.39144e-07 -0.000193068
0.00183516 -4.845e-05 2.27485e-07
-4.845e-05 0.000114887 -1.25309e-07
2.27485e-07 -1.25309e-07 3.39803e-05
0.00182611 -9.97239e-05 1.09632e-06
-9.97239e-05 9.74998e-05 -6.60708e-07
1.09632e-06 -6.60708e-07 1.37802e-05
0.00179491 -0.000186819 -1.99177e-06
-0.000186819 8.56504e-05 1.80618e-07
-1.99177e-06 1.80618e-07 5.77522e-06
0.00110436 -0.00021913 -6.47633e-07
-0.00021913 0.000240334 8.81627e-07
-6.47633e-07 8.81627e-07 4.88126e-05
0.00113526 -0.000267276 1.19882e-06
-0.000267276 0.000119823 -2.69246e-06
1.19882e-06 -2.69246e-06 -0.000111911
0.00165956 -0.000370689 -4.11876e-07
-0.000370689 0.000252933 6.89503e-07
-4.11876e-07 6.89503e-07 -6.30654e-06
0.00161483 -0.000224695 3.58184e-07
-0.000224695 2.9883e-05 -2.73874e-07
3.58184e-07 -2.73874e-07 -7.31087e-05
0.00165923 -0.000319069 7.55647e-07
-0.000319069 0.000148136 -2.36073e-06
7.55647e-07 -2.36073e-06 -4.37815e-05
0.00185405 -0.000304538 -4.65795e-07
-0.000304538 0.000166042 -1.11757e-06
-4.65795e-07 -1.11757e-06 3.92222e-05
0.000335442 2.85892e-05 -4.43053e-08
2.85892e-05 -0.000152734 -8.29132e-07
-4.43053e-08 -8.29132e-07 -0.000213578
0.00114327 -0.000219658 -1.59492e-07
-0.000219658 0.000264004 1.09217e-06
-1.59492e-07 1.09217e-06 9.20293e-05
0.000659969 -0.00018163 -3.16966e-07
-0.00018163 -3.98922e-06 4.30428e-07
-3.16966e-07 4.30428e-07 -0.000159137
0.000933788 -0.000148345 -6.00232e-07
-0.000148345 0.000221221 2.56754e-07
-6.00232e-07 2.56754e-07 3.59683e-05
0.00103964 -6.59002e-05 8.28899e-09
-6.59002e-05 0.000282894 -3.6527e-07
8.28899e-09 -3.6527e-07 0.000141178
0.000640432 4.31385e-06 -3.75566e-07
4.31385e-06 5.45593e-05 4.15832e-07
-3.75566e-07 4.15832e-07 -5.53744e-05
0.00155825 -5.25735e-05 3.02492e-07
-5.25735e-05 -7.41007e-05 3.10867e-08
3.02492e-07 3.10867e-08 -0.000142127
0.00198302 -0.000140287 1.86259e-06
-0.000140287 0.000122727 -2.63842e-07
1.86259e-06 -2.63842e-07 6.64718e-05
0.00157012 -0.000214562 1.32041e-06
-0.000214562 -5.83814e-05 -7.26487e-07
1.32041e-06 -7.26487e-07 -0.0001344
0.00199574 -0.000282878 -4.86062e-07
-0.000282878 0.000166714 -1.28894e-06
-4.86062e-07 -1.28894e-06 6.90444e-05
0.00112349 -0.000236917 -3.33823e-06
-0.000236917 0.000214884 -3.08255e-06
-3.33823e-06 -3.08255e-06 1.35845e-05
0.0018453 -0.000340026 2.25726e-06
-0.000340026 0.000182227 4.39568e-06
2.25726e-06 4.39568e-06 2.21882e-05
0.00121982 -0.000318715 -1.04054e-06
-0.000318715 0.000113961 -1.02672e-06
-1.04054e-06 -1.02672e-06 -0.000160959
0.00173154 -0.000389754 -5.50783e-07
-0.000389754 0.000283951 3.15537e-06
-5.50783e-07 3.15537e-06 1.27203e-05
0.000326087 4.77457e-05 -1.4693e-06
4.77457e-05 -0.000162656 -2.41506e-06
-1.4693e-06 -2.41506e-06 -0.000214666
0.000756823 -3.64732e-06 2.84163e-07
-3.64732e-06 0.000119509 -8.81217e-07
2.84163e-07 -8.81217e-07 2.34131e-05
0.000966494 -9.24877e-05 -1.18218e-06
-9.24877e-05 0.000246445 1.3451e-06
-1.18218e-06 1.3451e-06 0.000117141
0.000901617 -2.11883e-05 -1.99344e-06
-2.11883e-05 0.000205529 1.62027e-06
-1.99344e-06 1.62027e-06 3.32815e-05
0.000691552 -0.000198645 -2.11923e-06
-0.000198645 -1.99819e-05 -1.8774e-06
-2.11923e-06 -1.8774e-06 -0.000191296
0.000952542 -0.000206381 -5.51538e-06
-0.000206381 0.000177344 1.55436e-06
-5.51538e-06 1.55436e-06 -8.60814e-06
0.000620211 -2.38213e-05 -2.09879e-06
-2.38213e-05 1.76121e-06 -2.20604e-06
-2.09879e-06 -2.20604e-06 -4.94601e-05
0.000619456 -5.06243e-05 1.59881e-07
-5.06243e-05 2.99362e-05 -1.63938e-06
1.59881e-07 -1.63938e-06 -5.78475e-05
0.0016846 0.000234201 -1.86683e-06
0.000234201 0.000121066 -2.11326e-07
-1.86683e-06 -2.11326e-07 -2.62663e-05
0.000504899 -1.93668e-05 6.67084e-07
-1.93668e-05 -2.47421e-05 -1.09267e-06
6.67084e-07 -1.09267e-06 -0.000150127
0.00102882 0.000202165 1.25494e-06
0.000202165 0.000245226 -9.30009e-07
1.25494e-06 -9.30009e-07 6.00241e-05
0.000266058 6.87232e-05 2.37883e-06
6.87232e-05 -0.000190294 1.44651e-06
2.37883e-06 1.44651e-06 -0.000340591
0.00165059 0.000314062 -4.1417e-07
0.000314062 0.000179644 1.97093e-07
-4.1417e-07 1.97093e-07 -1.26858e-05
0.00181859 0.000314246 -2.3291e-06
0.000314246 0.000202626 1.12495e-06
-2.3291e-06 1.12495e-06 3.57885e-05
0.000791664 0.000220033 -1.60095e-06
0.000220033 1.66488e-05 7.93888e-07
-1.60095e-06 7.93888e-07 -0.000222263
0.00172694 0.000330553 -2.49857e-06
0.000330553 0.000327287 1.05521e-06
-2.49857e-06 1.05521e-06 0.000100156
0.000700203 4.90687e-06 -7.89724e-07
4.90687e-06 6.64475e-05 1.92199e-07
-7.89724e-07 1.92199e-07 -1.21849e-05
0.000662549 8.5238e-06 5.22782e-07
8.5238e-06 6.32481e-05 1.19047e-06
5.22782e-07 1.19047e-06 -4.63941e-05
0.00124761 0.000233324 -7.35067e-07
0.000233324 0.000344663 -2.73662e-06
-7.35067e-07 -2.73662e-06 0.000142528
0.000559805 1.78429e-05 -7.20606e-07
1.78429e-05 8.7741e-06 -3.06141e-07
-7.20606e-07 -3.06141e-07 -0.00013655
0.000645719 0.00015602 -1.7075e-06
0.00015602 3.19509e-06 -7.79306e-07
-1.7075e-06 -7.79306e-07 -0.000148208
0.00185049 0.000256842 -2.63753e-06
0.000256842 0.000145365 -1.34209e-06
-2.63753e-06 -1.34209e-06 2.54387e-05
0.00193725 0.000357994 1.52588e-06
0.000357994 0.000327014 -2.31363e-07
1.52588e-06 -2.31363e-07 0.000124907
0.00167521 0.000333279 1.62611e-06
0.000333279 0.000100962 2.02233e-06
1.62611e-06 2.02233e-06 -7.08365e-05
0.00134052 0.00027724 3.23494e-06
0.00027724 0.000278419 4.34201e-06
3.23494e-06 4.34201e-06 1.50667e-05
0.00159838 0.000346713 -3.04183e-06
0.000346713 0.000229623 4.85985e-07
-3.04183e-06 4.85985e-07 -4.71111e-06
0.000444571 -2.4682e-05 -6.84152e-07
-2.4682e-05 -7.10478e-05 2.35571e-06
-6.84152e-07 2.35571e-06 -0.000161511
0.000274127 7.24419e-05 -3.8578e-08
7.24419e-05 -0.000135169 9.29977e-07
-3.8578e-08 9.29977e-07 -0.000275985
0.00124149 0.000241082 1.83998e-06
0.000241082 0.000301289 3.38826e-06
1.83998e-06 3.38826e-06 8.35127e-05
-0.000532067 5.61362e-05 3.03562e-06
5.61362e-05 -0.000642818 -3.33454e-07
3.03562e-06 -3.33454e-07 -0.000804015
0.00188517 0.00026808 -2.67323e-06
0.00026808 2.50857e-05 -9.383e-07
-2.67323e-06 -9.383e-07 -4.66736e-05
0.00214053 0.000318216 5.76489e-07
0.000318216 0.000306599 -1.53574e-07
5.76489e-07 -1.53574e-07 0.000169018
0.00179326 0.000386871 -1.65878e-06
0.000386871 0.000236849 -3.39944e-06
-1.65878e-06 -3.39944e-06 1.77306e-05
0.000185913 0.000208348 -6.48939e-07
0.000208348 -0.000450008 1.84919e-06
-6.48939e-07 1.84919e-06 -0.000712231
0.000698688 4.56849e-05 -9.02731e-07
4.56849e-05 6.56409e-05 -6.09298e-07
-9.02731e-07 -6.09298e-07 -1.23533e-05
0.000637864 2.47103e-05 -5.73003e-08
2.47103e-05 3.60757e-05 4.37717e-07
-5.73003e-08 4.37717e-07 -5.16871e-05
0.000891758 1.2453e-05 -1.4268e-06
1.2453e-05 0.0001843 -1.01812e-06
-1.4268e-06 -1.01812e-06 9.73579e-05
0.000669946 -5.45717e-06 -1.40289e-06
-5.45717e-06 4.3179e-05 -1.15591e-06
-1.40289e-06 -1.15591e-06 -2.6826e-05
0.000494774 -1.33537e-05 -1.39954e-07
-1.33537e-05 -4.8953e-05 -8.22813e-07
-1.39954e-07 -8.22813e-07 -0.000134373
0.000689365 1.73873e-05 2.35938e-08
1.73873e-05 6.02282e-05 -2.9154e-09
2.35938e-08 -2.9154e-09 -1.323e-05
0.000674038 6.26904e-05 -5.55878e-07
6.26904e-05 7.16391e-05 -3.57048e-07
-5.55878e-07 -3.57048e-07 -2.77516e-05
0.000643286 1.22495e-05 6.42993e-07
1.22495e-05 4.89635e-05 4.05685e-07
6.42993e-07 4.05685e-07 -4.62448e-05
0.000759378 3.3666e-05 7.02538e-07
3.3666e-05 0.000109759 -4.29975e-07
7.02538e-07 -4.29975e-07 1.76808e-05
0.000730287 -2.8525e-05 1.0047e-06
-2.8525e-05 9.89493e-05 -6.81001e-07
1.0047e-06 -6.81001e-07 -2.83374e-06
0.000565104 3.64208e-05 5.39227e-07
3.64208e-05 3.48601e-07 1.25641e-06
5.39227e-07 1.25641e-06 -9.55617e-05
0.000677397 5.92314e-05 1.09638e-06
5.92314e-05 5.60734e-05 1.67719e-06
1.09638e-06 1.67719e-06 -1.9627e-05
0.000613477 3.45019e-05 1.27493e-06
3.45019e-05 4.92039e-06 2.05834e-06
1.27493e-06 2.05834e-06 -4.46783e-05
0.000627956 -4.08402e-06 -7.86139e-07
-4.08402e-06 8.77425e-06 1.49693e-08
-7.86139e-07 1.49693e-08 -3.94145e-05
0.00126848 -1.74958e-05 6.58761e-07
-1.74958e-05 0.0003621 2.34848e-06
6.58761e-07 2.34848e-06 0.000353163
0.000628171 -3.55872e-05 -1.3442e-07
-3.55872e-05 5.78836e-06 -2.20759e-06
-1.3442e-07 -2.20759e-06 -4.19085e-05
0.00130282 -2.5643e-05 -3.68445e-06
-2.5643e-05 0.000383498 -1.48851e-06
-3.68445e-06 -1.48851e-06 0.000374254
0.000883339 -2.4066e-05 1.5732e-05
-2.4066e-05 0.000142052 7.96677e-06
1.5732e-05 7.96677e-06 0.000150165
0.00133409 -3.47648e-05 -6.8903e-06
-3.47648e-05 0.00040417 -5.34356e-06
-6.8903e-06 -5.34356e-06 0.000394169
0.000827039 -3.1986e-05 5.66705e-06
-3.1986e-05 0.000112557 2.97441e-06
5.66705e-06 2.97441e-06 0.000119554
0.000763351 -3.84622e-05 -1.48357e-06
-3.84622e-05 8.08883e-05 -2.06429e-06
-1.48357e-06 -2.06429e-06 8.6274e-05
0.00055948 3.56594e-05 3.74837e-07
3.56594e-05 -4.30029e-05 -3.46436e-06
3.74837e-07 -3.46436e-06 -5.7566e-05
0.000554712 4.75535e-05 -4.56834e-08
4.75535e-05 -3.42082e-05 1.16337e-07
-4.56834e-08 1.16337e-07 -5.52295e-05
0.00228049 7.85895e-05 2.21905e-05
7.85895e-05 0.000986668 -3.79985e-06
2.21905e-05 -3.79985e-06 0.000995325
0.000562784 3.83587e-05 -1.99565e-06
3.83587e-05 -2.21754e-05 5.17323e-06
-1.99565e-06 5.17323e-06 -4.82773e-05
0.00254356 9.5574e-05 -5.44033e-06
9.5574e-05 0.00114903 -3.71166e-07
-5.44033e-06 -3.71166e-07 0.00115326
0.00285077 9.56982e-05 -6.15668e-05
9.56982e-05 0.00133318 3.39876e-06
-6.15668e-05 3.39876e-06 0.00133724
0.00171465 0.000179876 6.12937e-07
0.000179876 0.000113684 2.22411e-06
6.12937e-07 2.22411e-06 -6.73634e-06
0.00180351 0.000127091 -9.24885e-08
0.000127091 8.77213e-05 4.75224e-07
-9.24885e-08 4.75224e-07 -3.7767e-06
0.00177065 0.000182057 3.53808e-06
0.000182057 5.16434e-05 1.91967e-06
3.53808e-06 1.91967e-06 -2.67288e-05
0.00174933 8.39821e-05 1.58127e-06
8.39821e-05 2.42105e-05 6.52804e-07
1.58127e-06 6.52804e-07 -3.3903e-05
0.0018272 3.50841e-05 2.69086e-06
3.50841e-05 0.000106772 -2.0938e-07
2.69086e-06 -2.0938e-07 2.12419e-05
0.0017079 1.74212e-06 -6.78609e-07
1.74212e-06 9.60417e-05 -1.75843e-09
-6.78609e-07 -1.75843e-09 -9.76888e-06
0.0018095 -3.34475e-06 -2.06043e-07
-3.34475e-06 0.000112899 -4.54486e-08
-2.06043e-07 -4.54486e-08 3.01853e-05
0.00177372 4.04418e-05 1.72e-06
4.04418e-05 4.59421e-05 -1.14835e-08
1.72e-06 -1.14835e-08 -9.12636e-06
0.00182746 0.000135497 4.85199e-07
0.000135497 6.10652e-05 -5.05603e-07
4.85199e-07 -5.05603e-07 -4.88266e-06
0.00190929 0.000217037 1.64993e-07
0.000217037 0.000133037 1.94788e-07
1.64993e-07 1.94788e-07 4.27977e-05
0.00170561 -9.0675e-06 -7.50224e-07
-9.0675e-06 1.55897e-05 -4.28765e-07
-7.50224e-07 -4.28765e-07 -4.3514e-05
0.00190215 8.70636e-05 3.14809e-06
8.70636e-05 4.89594e-05 1.91314e-07
3.14809e-06 1.91314e-07 1.48018e-05
0.00188664 0.000197502 2.17959e-06
0.000197502 4.54047e-05 -2.34391e-07
2.17959e-06 -2.34391e-07 -2.13619e-05
0.0019138 -5.2817e-05 1.658e-06
-5.2817e-05 0.000163297 5.02872e-07
1.658e-06 5.02872e-07 8.20718e-05
0.00183125 -0.000103459 5.12123e-07
-0.000103459 9.85231e-05 -6.84709e-07
5.12123e-07 -6.84709e-07 1.3593e-05
0.00177547 -0.000181486 -1.47843e-06
-0.000181486 7.91894e-05 3.76256e-07
-1.47843e-06 3.76256e-07 -2.20459e-06
0.00119212 -0.000225277 -7.77366e-08
-0.000225277 0.00028898 4.66348e-06
-7.77366e-08 4.66348e-06 9.64959e-05
0.00153444 -0.000296111 -1.3296e-06
-0.000296111 0.000341642 1.22343e-06
-1.3296e-06 1.22343e-06 0.000109921
0.00156675 -0.000368259 -2.93368e-06
-0.000368259 0.000203716 -1.8843e-07
-2.93368e-06 -1.8843e-07 -5.78315e-05
0.00164093 -0.000225535 3.55558e-07
-0.000225535 4.06353e-05 -4.54464e-07
3.55558e-07 -4.54464e-07 -6.26514e-05
0.00152142 -0.000286875 -4.21592e-07
-0.000286875 -1.60251e-05 -3.02334e-06
-4.21592e-07 -3.02334e-06 -0.00014319
0.0017228 -0.000319944 -2.28311e-06
-0.000319944 0.000184989 -7.9859e-06
-2.28311e-06 -7.9859e-06 -1.0904e-06
0.00117942 -0.000221646 2.63361e-06
-0.000221646 0.000277773 2.18787e-06
2.63361e-06 2.18787e-06 0.000106249
0.000697902 -0.000181349 -6.85437e-06
-0.000181349 2.79618e-05 2.9068e-07
-6.85437e-06 2.9068e-07 -0.000120649
0.00141463 -0.000183065 4.75738e-07
-0.000183065 0.000509612 3.31575e-07
4.75738e-07 3.31575e-07 0.000312118
0.000385283 1.82117e-05 1.5192e-07
1.82117e-05 -0.000123865 9.90652e-07
1.5192e-07 9.90652e-07 -0.000183928
0.000911349 -6.62375e-05 1.35447e-06
-6.62375e-05 0.000204736 2.54609e-08
1.35447e-06 2.54609e-08 6.80542e-05
0.000517732 3.46864e-05 1.8512e-06
3.46864e-05 -2.3309e-05 1.59828e-06
1.8512e-06 1.59828e-06 -0.000130241
0.00172661 -5.35774e-05 -6.95144e-07
-5.35774e-05 2.22551e-05 1.00733e-07
-6.95144e-07 1.00733e-07 -4.55792e-05
0.00194874 -0.000144459 1.63118e-07
-0.000144459 0.000105392 -8.5787e-08
1.63118e-07 -8.5787e-08 4.53053e-05
0.00169462 -0.00021713 -1.59975e-07
-0.00021713 1.50007e-05 4.70564e-07
-1.59975e-07 4.70564e-07 -6.15651e-05
0.0011868 -0.000239605 -5.00381e-07
-0.000239605 0.000249096 1.51297e-06
-5.00381e-07 1.51297e-06 4.75662e-05
0.00109439 -0.000303935 -1.14668e-06
-0.000303935 4.42043e-05 -2.80786e-07
-1.14668e-06 -2.80786e-07 -0.000221548
0.00166485 -0.000380836 -3.23189e-06
-0.000380836 0.000249505 6.00459e-08
-3.23189e-06 6.00459e-08 -1.38738e-05
0.00195347 -0.000286862 9.77903e-07
-0.000286862 0.00014518 -5.48899e-07
9.77903e-07 -5.48899e-07 4.54804e-05
0.00168978 -0.000333565 1.10385e-06
-0.000333565 8.5968e-05 -2.34389e-06
1.10385e-06 -2.34389e-06 -7.38999e-05
0.000483026 3.79259e-05 -9.86148e-08
3.79259e-05 -7.34178e-05 -8.82999e-07
-9.86148e-08 -8.82999e-07 -0.000121901
0.000766136 -9.05256e-06 -5.38409e-07
-9.05256e-06 0.000124253 3.12814e-07
-5.38409e-07 3.12814e-07 2.85663e-05
0.000347565 -0.000167103 -2.91e-06
-0.000167103 -0.000215323 3.01265e-06
-2.91e-06 3.01265e-06 -0.000378578
0.0013874 -0.000228968 2.11099e-07
-0.000228968 0.000441144 -2.67396e-07
2.11099e-07 -2.67396e-07 0.000256169
0.000935621 -5.71969e-05 -1.63766e-07
-5.71969e-05 0.000232253 -4.46107e-07
-1.63766e-07 -4.46107e-07 6.02114e-05
0.00085561 -6.76364e-05 -4.31015e-07
-6.76364e-05 0.000182031 1.32963e-06
-4.31015e-07 1.32963e-06 5.23811e-05
0.00189125 -7.6821e-05 2.88953e-06
-7.6821e-05 5.12978e-05 5.32176e-08
2.88953e-06 5.32176e-08 9.80051e-06
0.00192293 -0.000204194 8.93178e-07
-0.000204194 4.50145e-05 -1.16618e-06
8.93178e-07 -1.16618e-06 1.2691e-05
0.00186253 -0.00023977 1.04692e-06
-0.00023977 6.88325e-05 -1.12824e-06
1.04692e-06 -1.12824e-06 1.1426e-06
0.00193646 -0.000378353 5.96312e-06
-0.000378353 0.000106658 -1.50007e-06
5.96312e-06 -1.50007e-06 -1.85054e-05
0.000237105 -0.000186236 -4.18e-06
-0.000186236 -0.000329087 -4.1402e-06
-4.18e-06 -4.1402e-06 -0.000542089
0.00164758 -0.000385958 -6.65639e-07
-0.000385958 0.00020582 1.12647e-05
-6.65639e-07 1.12647e-05 -4.21091e-05
0.00197432 -0.000414929 3.61199e-07
-0.000414929 0.000513482 -2.94709e-06
3.61199e-07 -2.94709e-06 0.000204048
0.000646796 3.84496e-05 3.30085e-07
3.84496e-05 1.468e-05 -1.50342e-06
3.30085e-07 -1.50342e-06 -2.64947e-05
0.00070177 -9.65953e-05 2.42732e-06
-9.65953e-05 8.25212e-05 -1.86944e-06
2.42732e-06 -1.86944e-06 4.60362e-06
0.000478775 3.58741e-05 -1.34915e-06
3.58741e-05 -4.76445e-05 -1.34871e-06
-1.34915e-06 -1.34871e-06 -0.000132335
0.000729796 -4.08248e-05 -2.42997e-07
-4.08248e-05 0.000120015 1.7602e-06
-2.42997e-07 1.7602e-06 -8.19376e-07
0.000632178 -1.63367e-05 1.15493e-06
-1.63367e-05 4.50639e-05 -1.13328e-06
1.15493e-06 -1.13328e-06 -8.99496e-05
0.000174988 -0.000100626 4.20889e-07
-0.000100626 -0.000196357 8.58662e-07
4.20889e-07 8.58662e-07 -0.000365336
0.000110975 -0.000161278 -1.46848e-06
-0.000161278 -0.000388089 -2.87547e-06
-1.46848e-06 -2.87547e-06 -0.000542839
0.0024971 -0.000326783 -9.44303e-06
-0.000326783 0.00113893 2.29433e-06
-9.44303e-06 2.29433e-06 0.000880324
0.00065633 -1.48057e-05 -1.11104e-06
-1.48057e-05 3.58831e-05 -9.40183e-07
-1.11104e-06 -9.40183e-07 -3.81423e-05
0.000822903 1.33794e-05 4.31315e-07
1.33794e-05 0.000159781 -1.09697e-06
4.31315e-07 -1.09697e-06 4.61898e-05
0.00212837 0.000267021 -1.38371e-06
0.000267021 0.000306131 -8.61799e-11
-1.38371e-06 -8.61799e-11 0.000188433
0.000766309 5.3353e-05 -9.40428e-07
5.3353e-05 0.000137428 1.96669e-06
-9.40428e-07 1.96669e-06 -1.77494e-05
0.00145424 0.00025241 1.16826e-06
0.00025241 0.000476232 -2.66152e-06
1.16826e-06 -2.66152e-06 0.0002666
0.000442296 0.000121285 1.783e-08
0.000121285 -0.000118743 1.21057e-06
1.783e-08 1.21057e-06 -0.00025269
0.00196659 0.000354981 -2.52984e-06
0.000354981 0.000348467 2.72677e-07
-2.52984e-06 2.72677e-07 0.000148798
0.00183104 0.000349823 -2.43894e-06
0.000349823 0.000181717 3.87057e-06
-2.43894e-06 3.87057e-06 7.99202e-06
0.000965124 0.000250611 -4.58192e-07
0.000250611 7.15686e-05 -6.70024e-07
-4.58192e-07 -6.70024e-07 -0.000196214
0.00150449 0.000344657 -1.99544e-06
0.000344657 0.000170664 2.42281e-06
-1.99544e-06 2.42281e-06 -6.62305e-05
0.00047943 -5.35162e-07 -1.51623e-07
-5.35162e-07 -4.28733e-05 1.06518e-06
-1.51623e-07 1.06518e-06 -0.000139895
0.000377452 8.2675e-05 -5.5206e-07
8.2675e-05 -7.41615e-05 -1.96064e-06
-5.5206e-07 -1.96064e-06 -0.000217996
0.00122716 0.000241939 2.52523e-06
0.000241939 0.000304198 -2.07727e-06
2.52523e-06 -2.07727e-06 8.15359e-05
0.000615436 0.000140652 -1.22696e-06
0.000140652 1.44744e-05 -2.91138e-06
-1.22696e-06 -2.91138e-06 -0.000154685
0.00198025 0.000265194 9.1551e-07
0.000265194 7.56912e-05 -1.07428e-06
9.1551e-07 -1.07428e-06 6.07719e-06
0.00203802 0.000319862 3.00276e-06
0.000319862 0.000252657 7.80162e-07
3.00276e-06 7.80162e-07 0.000110581
0.00179139 0.000380305 -1.23723e-06
0.000380305 0.000229558 5.664e-08
-1.23723e-06 5.664e-08 1.3223e-05
0.0010492 0.000283932 5.02355e-07
0.000283932 2.25129e-05 8.92066e-07
5.02355e-07 8.92066e-07 -0.000243435
0.000531589 2.53011e-05 -6.72871e-07
2.53011e-05 -2.05919e-05 2.48057e-06
-6.72871e-07 2.48057e-06 -0.000117099
0.00191303 0.000210294 -1.96303e-06
0.000210294 1.46855e-05 1.0793e-06
-1.96303e-06 1.0793e-06 -2.36014e-05
0.00148261 0.000233168 5.14311e-07
0.000233168 0.000569882 2.90794e-06
5.14311e-07 2.90794e-06 0.000378557
0.00114717 0.000244935 2.87162e-06
0.000244935 0.000230797 4.27159e-06
2.87162e-06 4.27159e-06 5.1842e-06
0.00235186 0.000314092 -1.587e-05
0.000314092 0.00033064 -3.5338e-06
-1.587e-05 -3.5338e-06 0.000238822
0.00110428 0.000351208 -2.64598e-06
0.000351208 -0.000223152 -6.36644e-06
-2.64598e-06 -6.36644e-06 -0.00042136
0.00179822 0.000376332 -2.29716e-06
0.000376332 0.000364611 1.25923e-06
-2.29716e-06 1.25923e-06 9.5977e-05
0.000718092 3.78183e-05 -1.31647e-06
3.78183e-05 8.30039e-05 -3.79033e-07
-1.31647e-06 -3.79033e-07 -4.29409e-06
0.000748044 2.92657e-05 -9.08637e-07
2.92657e-05 0.000104969 -3.71743e-07
-9.08637e-07 -3.71743e-07 1.57039e-05
0.000931908 1.57737e-05 -9.75207e-07
1.57737e-05 0.000222498 2.966e-07
-9.75207e-07 2.966e-07 0.000132628
0.000655014 -1.07931e-05 -1.67265e-07
-1.07931e-05 4.22346e-05 -1.675e-06
-1.67265e-07 -1.675e-06 -3.27011e-05
0.000689929 3.45685e-05 6.59717e-07
3.45685e-05 7.76669e-05 9.07769e-09
6.59717e-07 9.07769e-09 -1.80374e-05
0.000437925 2.41722e-06 -6.64506e-07
2.41722e-06 -5.54423e-05 4.33579e-07
-6.64506e-07 4.33579e-07 -0.000157723
0.000663324 -1.1314e-06 -4.47997e-07
-1.1314e-06 5.35548e-05 -2.59166e-08
-4.47997e-07 -2.59166e-08 -2.62134e-05
0.000547102 -2.47141e-05 -6.55693e-07
-2.47141e-05 -3.13438e-06 3.81861e-07
-6.55693e-07 3.81861e-07 -0.000102707
0.000597395 -1.35272e-05 6.25981e-07
-1.35272e-05 1.95802e-05 -1.33607e-07
6.25981e-07 -1.33607e-07 -7.14632e-05
0.000793147 2.80024e-05 3.92544e-07
2.80024e-05 0.000145369 -2.86694e-09
3.92544e-07 -2.86694e-09 3.65432e-05
0.000963309 2.17866e-05 2.3643e-07
2.17866e-05 0.000213341 -1.18706e-06
2.3643e-07 -1.18706e-06 0.000128292
0.000737873 -3.54813e-05 1.23269e-06
-3.54813e-05 9.57642e-05 -9.17867e-07
1.23269e-06 -9.17867e-07 8.40058e-07
0.000778022 2.50666e-05 1.41584e-07
2.50666e-05 0.000133197 2.4138e-07
1.41584e-07 2.4138e-07 2.14843e-05
0.000658178 2.90051e-05 1.89418e-06
2.90051e-05 6.28926e-05 1.4253e-06
1.89418e-06 1.4253e-06 -4.39846e-05
0.000686757 1.82264e-05 1.31244e-06
1.82264e-05 6.09906e-05 1.73757e-06
1.31244e-06 1.73757e-06 -1.69526e-05
0.000610564 -1.93978e-05 -1.85051e-07
-1.93978e-05 3.23949e-06 1.87756e-06
-1.85051e-07 1.87756e-06 -4.59041e-05
0.000624437 -9.09614e-06 -2.88417e-07
-9.09614e-06 9.45452e-06 4.22078e-08
-2.88417e-07 4.22078e-08 -3.88724e-05
0.00127552 -7.14712e-06 5.51329e-07
-7.14712e-06 0.000366378 2.23663e-06
5.51329e-07 2.23663e-06 0.000357088
0.000636692 -2.5969e-05 5.88654e-07
-2.5969e-05 1.31604e-05 -2.33899e-06
5.88654e-07 -2.33899e-06 -3.45033e-05
0.00130739 -1.50304e-05 -2.76733e-06
-1.50304e-05 0.000385488 -1.54684e-06
-2.76733e-06 -1.54684e-06 0.000376447
0.000876796 -1.64444e-05 1.17548e-05
-1.64444e-05 0.000135324 8.16344e-06
1.17548e-05 8.16344e-06 0.000144005
0.00134559 -2.38285e-05 -4.92714e-06
-2.38285e-05 0.000408866 -5.45037e-06
-4.92714e-06 -5.45037e-06 0.000399479
0.000836185 -2.44093e-05 3.8065e-06
-2.44093e-05 0.000113406 3.08412e-06
3.8065e-06 3.08412e-06 0.000121449
0.000778979 -3.09269e-05 -1.01233e-06
-3.09269e-05 8.34132e-05 -2.04104e-06
-1.01233e-06 -2.04104e-06 9.06063e-05
0.000674696 1.1112e-05 8.62157e-07
1.1112e-05 2.74608e-05 -1.72602e-06
8.62157e-07 -1.72602e-06 -1.04027e-05
0.000574406 2.80001e-05 4.56068e-07
2.80001e-05 -4.15012e-05 -3.52622e-06
4.56068e-07 -3.52622e-06 -5.24348e-05
0.000580271 3.65786e-05 3.28114e-08
3.65786e-05 -3.0507e-05 9.29052e-08
3.28114e-08 9.29052e-08 -4.53908e-05
0.00216504 6.39293e-05 1.8993e-05
6.39293e-05 0.000910355 -4.0076e-06
1.8993e-05 -4.0076e-06 0.000922695
0.000579329 5.20988e-05 1.62598e-06
5.20988e-05 -1.84349e-05 4.60133e-06
1.62598e-06 4.60133e-06 -4.06572e-05
0.00237312 8.15495e-05 -3.67619e-06
8.15495e-05 0.00104173 -2.62758e-07
-3.67619e-06 -2.62758e-07 0.0010496
0.00263835 9.6842e-05 -3.50607e-05
9.6842e-05 0.00120452 3.56185e-06
-3.50607e-05 3.56185e-06 0.0012085
0.00195037 0.000214099 8.41273e-08
0.000214099 0.000144428 2.11079e-06
8.41273e-08 2.11079e-06 5.63896e-05
0.00181309 0.000139705 -1.13723e-06
0.000139705 4.98023e-05 -1.53608e-07
-1.13723e-06 -1.53608e-07 -1.65269e-05
0.00179449 4.29524e-05 4.02343e-07
4.29524e-05 6.96102e-05 -1.68807e-07
4.02343e-07 -1.68807e-07 1.23365e-05
0.0018582 3.79534e-07 1.07469e-06
3.79534e-07 0.000141402 -1.99529e-07
1.07469e-06 -1.99529e-07 5.93588e-05
0.0017501 -4.26525e-06 -1.31224e-06
-4.26525e-06 4.10222e-05 -5.7388e-08
-1.31224e-06 -5.7388e-08 -1.54314e-05
0.00189242 8.19544e-05 2.83721e-07
8.19544e-05 4.44032e-05 -4.60483e-09
2.83721e-07 -4.60483e-09 8.95513e-06
0.00188429 0.000200754 -6.75378e-07
0.000200754 4.21845e-05 -2.85289e-07
-6.75378e-07 -2.85289e-07 -2.34258e-05
0.00188584 2.02889e-06 3.08933e-06
2.02889e-06 2.80979e-05 -1.71521e-07
3.08933e-06 -1.71521e-07 6.39725e-06
0.0019641 0.000121649 2.09876e-06
0.000121649 3.13607e-05 1.1616e-07
2.09876e-06 1.1616e-07 1.15546e-06
0.00193465 6.62591e-05 -4.31757e-06
6.62591e-05 6.72257e-05 2.48589e-06
-4.31757e-06 2.48589e-06 9.24505e-05
0.00189821 -5.46479e-05 -1.93073e-06
-5.46479e-05 0.000120325 -7.24234e-08
-1.93073e-06 -7.24234e-08 5.26927e-05
0.00191806 -0.000149673 -2.95044e-06
-0.000149673 8.83963e-05 7.22325e-07
-2.95044e-06 7.22325e-07 2.48969e-05
0.00182569 -0.000220013 -2.59783e-06
-0.000220013 9.1603e-05 1.21282e-06
-2.59783e-06 1.21282e-06 1.46575e-05
0.00126987 -0.00024433 -3.93869e-08
-0.00024433 0.000293879 6.25801e-06
-3.93869e-08 6.25801e-06 9.15301e-05
0.0010202 -0.000294015 1.05959e-07
-0.000294015 5.20219e-06 4.2683e-06
1.05959e-07 4.2683e-06 -0.000253416
0.00178001 -0.000384988 -4.95596e-06
-0.000384988 0.000317859 -3.32815e-06
-4.95596e-06 -3.32815e-06 6.12092e-05
0.0019129 -0.000288669 2.2079e-06
-0.000288669 0.00012535 -2.62888e-07
2.2079e-06 -2.62888e-07 2.40028e-05
0.00153505 -0.000322857 -3.68215e-06
-0.000322857 -3.11985e-06 -6.0865e-06
-3.68215e-06 -6.0865e-06 -0.000161865
0.000136064 -0.000146699 -2.76357e-06
-0.000146699 -0.000332702 6.29288e-06
-2.76357e-06 6.29288e-06 -0.000489977
0.0019476 -0.000265528 1.1483e-05
-0.000265528 0.000779482 -3.10565e-06
1.1483e-05 -3.10565e-06 0.000592044
0.000718264 -2.0023e-05 2.68342e-08
-2.0023e-05 9.63257e-05 -4.03258e-07
2.68342e-08 -4.03258e-07 -6.12812e-05
0.000601936 1.5166e-05 -2.321e-07
1.5166e-05 -5.6916e-06 7.0251e-07
-2.321e-07 7.0251e-07 -5.10625e-05
0.000811706 1.94869e-05 3.83624e-07
1.94869e-05 0.000148179 1.18935e-06
3.83624e-07 1.18935e-06 5.31749e-05
0.000817171 -3.74946e-05 6.03381e-07
-3.74946e-05 0.000159931 1.81103e-06
6.03381e-07 1.81103e-06 2.96259e-05
0.00186777 -7.78709e-05 2.1587e-07
-7.78709e-05 3.43769e-05 3.12292e-08
2.1587e-07 3.12292e-08 -4.20534e-06
0.000625874 1.46148e-05 1.04198e-06
1.46148e-05 2.64418e-06 1.03972e-07
1.04198e-06 1.03972e-07 -3.82447e-05
0.000571411 -2.93987e-05 -1.60317e-06
-2.93987e-05 -8.73131e-06 -4.54256e-08
-1.60317e-06 -4.54256e-08 -7.68999e-05
0.00190743 -0.000196452 -3.16461e-07
-0.000196452 5.19141e-05 2.57318e-07
-3.16461e-07 2.57318e-07 1.38601e-05
0.0018231 -0.000240251 -1.61467e-06
-0.000240251 4.42116e-05 4.60045e-07
-1.61467e-06 4.60045e-07 -2.44252e-05
0.000494407 -0.000205699 1.32185e-06
-0.000205699 -0.00016919 3.10862e-06
1.32185e-06 3.10862e-06 -0.00037962
0.00194026 -0.000411262 -7.77824e-07
-0.000411262 0.000496486 3.8714e-07
-7.77824e-07 3.8714e-07 0.000184277
0.00150384 -0.000376492 2.50089e-06
-0.000376492 0.000107229 -1.49165e-06
2.50089e-06 -1.49165e-06 -0.000134317
0.00200893 -0.000379963 2.42931e-06
-0.000379963 0.000159929 -1.01324e-06
2.42931e-06 -1.01324e-06 3.20918e-05
0.00074047 -1.70782e-05 9.77976e-07
-1.70782e-05 0.000108213 -1.03702e-06
9.77976e-07 -1.03702e-06 2.37088e-05
0.000756533 -2.66879e-05 2.1287e-07
-2.66879e-05 0.000135878 1.15618e-06
2.1287e-07 1.15618e-06 1.32832e-05
0.000933884 -0.000211259 -2.84253e-06
-0.000211259 8.63299e-05 -6.74001e-07
-2.84253e-06 -6.74001e-07 -7.84965e-05
0.00151392 -0.00024591 1.23048e-05
-0.00024591 0.000564473 -3.34511e-06
1.23048e-05 -3.34511e-06 0.000349492
0.000488953 -8.11403e-05 -2.32211e-06
-8.11403e-05 -2.65401e-05 2.6259e-08
-2.32211e-06 2.6259e-08 -0.000191009
0.000714841 -1.58572e-05 3.671e-07
-1.58572e-05 0.000101475 -5.26335e-07
3.671e-07 -5.26335e-07 -3.64972e-05
0.00191031 -8.60986e-05 2.93164e-06
-8.60986e-05 -3.79286e-06 -5.2839e-07
2.93164e-06 -5.2839e-07 -3.0691e-05
0.00183903 -0.000215011 8.59372e-07
-0.000215011 -2.32328e-05 -6.8468e-07
8.59372e-07 -6.8468e-07 -1.27777e-05
0.00201545 -0.000346115 -1.143e-06
-0.000346115 7.6624e-05 -2.15492e-06
-1.143e-06 -2.15492e-06 -5.63647e-06
0.00162413 -0.000424769 2.75516e-06
-0.000424769 4.85739e-05 1.0128e-06
2.75516e-06 1.0128e-06 -0.000109481
0.000681403 -0.000186052 -8.82538e-06
-0.000186052 -5.42214e-05 -7.84021e-06
-8.82538e-06 -7.84021e-06 -0.000262748
0.00231232 -0.000478506 -7.64184e-06
-0.000478506 0.00067793 5.4335e-06
-7.64184e-06 5.4335e-06 0.000346526
0.000437102 5.72351e-05 -1.15579e-06
5.72351e-05 -7.82439e-05 -2.45704e-06
-1.15579e-06 -2.45704e-06 -0.000151062
0.000688268 -5.81901e-05 2.78412e-06
-5.81901e-05 6.28777e-05 -1.03174e-06
2.78412e-06 -1.03174e-06 -8.5505e-06
0.00092582 -7.79109e-05 1.58291e-06
-7.79109e-05 0.000213256 5.61974e-07
1.58291e-06 5.61974e-07 0.000119419
0.000472331 1.97582e-05 -1.2412e-06
1.97582e-05 -3.31656e-05 2.03397e-06
-1.2412e-06 2.03397e-06 -0.000149702
0.000941741 -5.52457e-05 -8.47197e-07
-5.52457e-05 0.000231421 9.41498e-07
-8.47197e-07 9.41498e-07 0.000109852
0.00101248 -4.63603e-05 2.62399e-06
-4.63603e-05 0.000238491 6.15205e-07
2.62399e-06 6.15205e-07 8.86006e-05
-0.000287743 -8.87075e-05 6.31768e-06
-8.87075e-05 -0.000340951 6.15543e-07
6.31768e-06 6.15543e-07 -0.000624542
0.000220343 -0.000215822 -1.67372e-05
-0.000215822 -0.000309103 1.92186e-06
-1.67372e-05 1.92186e-06 -0.000471528
0.000487419 3.40039e-05 -6.01859e-08
3.40039e-05 -3.42054e-05 -9.05186e-07
-6.01859e-08 -9.05186e-07 -0.000135531
0.000693976 0.000110845 -3.51418e-06
0.000110845 0.000109528 -3.0083e-06
-3.51418e-06 -3.0083e-06 -3.77651e-05
0.00205007 0.000262474 -2.20183e-06
0.000262474 0.000111554 -9.45061e-07
-2.20183e-06 -9.45061e-07 4.3869e-05
0.00196425 0.000323206 -4.78156e-07
0.000323206 0.000214652 2.02888e-06
-4.78156e-07 2.02888e-06 6.78158e-05
0.00168277 0.000199358 -6.30279e-06
0.000199358 0.000616212 -2.10593e-06
-6.30279e-06 -2.10593e-06 0.000446052
0.00111105 0.000232859 -2.32706e-06
0.000232859 0.000247272 -8.74777e-06
-2.32706e-06 -8.74777e-06 2.20549e-05
0.00182857 0.000377187 7.7514e-07
0.000377187 0.000243324 1.5401e-06
7.7514e-07 1.5401e-06 2.89273e-05
0.00189205 0.000356084 4.44694e-07
0.000356084 0.000486674 -4.22512e-07
4.44694e-07 -4.22512e-07 0.000216475
0.00062498 4.84758e-05 7.68076e-07
4.84758e-05 4.46747e-05 -8.58809e-07
7.68076e-07 -8.58809e-07 -6.07325e-05
0.00197877 0.0002033 -1.3726e-07
0.0002033 3.77316e-05 -1.81323e-07
-1.3726e-07 -1.81323e-07 8.21403e-06
0.000967816 0.000169543 8.70705e-07
0.000169543 0.00026856 1.67675e-06
8.70705e-07 1.67675e-06 9.06008e-05
0.000818193 0.000217717 1.48844e-06
0.000217717 4.63584e-05 5.05913e-08
1.48844e-06 5.05913e-08 -0.000178522
0.00220464 0.000308151 2.69068e-06
0.000308151 0.000250881 5.25465e-07
2.69068e-06 5.25465e-07 0.000159204
0.00141299 0.000370908 -7.75499e-07
0.000370908 -5.33425e-05 -2.7652e-06
-7.75499e-07 -2.7652e-06 -0.000250605
0.00206777 0.000398444 -9.72917e-08
0.000398444 0.000530935 3.77016e-07
-9.72917e-08 3.77016e-07 0.000259116
0.00113013 0.000117122 -2.87358e-06
0.000117122 0.00035671 2.90661e-06
-2.87358e-06 2.90661e-06 0.000215319
0.00239123 0.000221526 -3.72152e-05
0.000221526 0.000319921 -8.23218e-06
-3.72152e-05 -8.23218e-06 0.000323578
0.00244593 0.000358197 -4.817e-06
0.000358197 0.00106614 3.39153e-07
-4.817e-06 3.39153e-07 0.000853016
0.00213634 0.000362372 -7.05562e-06
0.000362372 0.00071705 1.15913e-06
-7.05562e-06 1.15913e-06 0.000466714
0.0020419 0.000424104 -1.61995e-05
0.000424104 0.000176894 -1.25405e-05
-1.61995e-05 -1.25405e-05 4.62418e-05
0.00121772 0.000361559 -1.1805e-05
0.000361559 -1.21383e-05 -1.11173e-06
-1.1805e-05 -1.11173e-06 -0.000261028
0.000795919 0.000284447 2.49575e-05
0.000284447 -0.000500905 -1.49905e-05
2.49575e-05 -1.49905e-05 -0.000715786
0.000578501 4.33464e-05 6.01625e-07
4.33464e-05 1.42326e-05 -3.86353e-07
6.01625e-07 -3.86353e-07 -7.84366e-05
0.000706656 2.40414e-05 -5.09121e-08
2.40414e-05 0.000101622 7.60899e-07
-5.09121e-08 7.60899e-07 9.54975e-06
0.00122836 4.57378e-05 -3.73924e-08
4.57378e-05 0.00038772 -9.84634e-07
-3.73924e-08 -9.84634e-07 0.000293299
0.000643337 -5.71928e-05 -2.20215e-08
-5.71928e-05 4.75014e-05 -2.1301e-06
-2.20215e-08 -2.1301e-06 -3.57631e-05
0.00059317 -4.33914e-05 -1.16861e-06
-4.33914e-05 2.00311e-05 -3.37661e-08
-1.16861e-06 -3.37661e-08 -7.64703e-05
0.00089568 0.000110098 -2.48927e-07
0.000110098 0.000205865 4.93145e-07
-2.48927e-07 4.93145e-07 9.54192e-05
0.000429919 -2.61962e-05 -8.93718e-07
-2.61962e-05 -7.00323e-05 1.91217e-06
-8.93718e-07 1.91217e-06 -0.000163624
0.000659023 -2.3241e-05 -5.77854e-08
-2.3241e-05 5.54112e-05 -2.77832e-08
-5.77854e-08 -2.77832e-08 -2.91754e-05
0.00065295 3.3921e-05 -8.20069e-08
3.3921e-05 4.73479e-05 -3.4332e-07
-8.20069e-08 -3.4332e-07 -5.08249e-05
0.000801163 1.63353e-05 -6.0019e-07
1.63353e-05 0.000122348 -3.04788e-08
-6.0019e-07 -3.04788e-08 3.53745e-05
0.000769626 1.11846e-05 3.42668e-07
1.11846e-05 0.000117881 -5.63817e-08
3.42668e-07 -5.63817e-08 1.39344e-05
0.00080012 -1.40581e-05 -3.99704e-08
-1.40581e-05 0.000130369 -1.8935e-07
-3.99704e-08 -1.8935e-07 3.37126e-05
0.000856669 1.47226e-05 -6.63781e-07
1.47226e-05 0.000149154 -2.17485e-06
-6.63781e-07 -2.17485e-06 6.3805e-05
0.000821928 2.55162e-05 -1.03608e-06
2.55162e-05 0.000136828 -1.67349e-06
-1.03608e-06 -1.67349e-06 3.07951e-05
0.000813087 6.15032e-05 4.5848e-07
6.15032e-05 0.000134332 4.92592e-07
4.5848e-07 4.92592e-07 3.31481e-05
0.000698279 3.77243e-05 2.47254e-07
3.77243e-05 8.54164e-05 1.19149e-06
2.47254e-07 1.19149e-06 -2.71423e-05
0.000525079 -1.81065e-05 -1.53595e-07
-1.81065e-05 -3.62025e-05 1.94138e-06
-1.53595e-07 1.94138e-06 -0.000116791
0.000889197 -2.087e-05 9.93019e-08
-2.087e-05 0.000213424 -8.98415e-07
9.93019e-08 -8.98415e-07 9.90816e-05
0.000468119 -6.0215e-06 -5.93346e-07
-6.0215e-06 -6.44581e-05 2.04891e-06
-5.93346e-07 2.04891e-06 -0.000149558
0.000586361 8.12493e-06 -9.28337e-07
8.12493e-06 -8.28193e-06 1.84361e-06
-9.28337e-07 1.84361e-06 -5.944e-05
0.000602523 1.73868e-05 8.99673e-07
1.73868e-05 1.36196e-07 -3.67948e-09
8.99673e-07 -3.67948e-09 -4.99624e-05
0.000574624 2.61993e-06 2.06821e-07
2.61993e-06 -4.49913e-05 3.68757e-06
2.06821e-07 3.68757e-06 -5.90173e-05
0.000613103 -2.43763e-06 -1.14639e-06
-2.43763e-06 4.07081e-06 -2.1338e-06
-1.14639e-06 -2.1338e-06 -4.51707e-05
0.000952438 -4.30989e-06 -1.84841e-06
-4.30989e-06 0.000176921 -1.6285e-06
-1.84841e-06 -1.6285e-06 0.000165438
0.00231557 -1.26033e-05 7.56827e-06
-1.26033e-05 0.000980412 5.10054e-06
7.56827e-06 5.10054e-06 0.000997003
0.00135161 -1.34682e-05 -2.87953e-06
-1.34682e-05 0.00041201 -5.39595e-06
-2.87953e-06 -5.39595e-06 0.000402717
0.000835807 -1.64323e-05 2.01829e-06
-1.64323e-05 0.000110036 3.15397e-06
2.01829e-06 3.15397e-06 0.000118818
0.000792114 -2.29965e-05 -4.58062e-07
-2.29965e-05 8.6335e-05 -2.06364e-06
-4.58062e-07 -2.06364e-06 9.46688e-05
0.000637415 7.86336e-06 -3.29102e-07
7.86336e-06 8.16883e-06 -1.70235e-06
-3.29102e-07 -1.70235e-06 -2.91286e-05
0.000652707 -1.80299e-06 8.25545e-07
-1.80299e-06 1.5704e-05 -8.79172e-08
8.25545e-07 -8.79172e-08 -2.29183e-05
0.000600371 2.12876e-05 3.78123e-07
2.12876e-05 -3.00069e-05 -3.47033e-06
3.78123e-07 -3.47033e-06 -3.86251e-05
0.000906756 3.35106e-05 -3.95498e-07
3.35106e-05 0.000154941 5.31001e-08
-3.95498e-07 5.31001e-08 0.000145453
0.00211818 5.09617e-05 1.50567e-05
5.09617e-05 0.000875914 -4.19996e-06
1.50567e-05 -4.19996e-06 0.000890915
0.000588369 3.82631e-05 1.91691e-07
3.82631e-05 -2.51103e-05 3.77898e-06
1.91691e-07 3.77898e-06 -4.04319e-05
0.00222616 6.65462e-05 -2.82425e-06
6.65462e-05 0.000947323 -1.71744e-07
-2.82425e-06 -1.71744e-07 0.000958944
0.00244013 8.38199e-05 -2.41472e-05
8.38199e-05 0.0010816 3.9206e-06
-2.41472e-05 3.9206e-06 0.00108885
0.00189009 0.000204107 -3.85433e-06
0.000204107 4.32126e-05 -1.15017e-06
-3.85433e-06 -1.15017e-06 -2.11956e-05
0.00188904 7.74824e-05 -2.16821e-06
7.74824e-05 4.33096e-05 -7.75785e-08
-2.16821e-06 -7.75785e-08 6.79094e-06
0.00179538 -1.72745e-06 -2.65341e-06
-1.72745e-06 6.69335e-05 -1.30941e-07
-2.65341e-06 -1.30941e-07 1.31427e-05
0.00187854 2.70801e-06 6.40397e-08
2.70801e-06 2.72323e-05 -1.91768e-07
6.40397e-08 -1.91768e-07 5.14565e-06
0.00192626 0.000119952 2.51678e-07
0.000119952 2.44508e-05 -3.17315e-08
2.51678e-07 -3.17315e-08 -7.33575e-06
0.00182891 5.94374e-05 3.40546e-06
5.94374e-05 -3.13818e-06 3.10065e-07
3.40546e-06 3.10065e-07 1.34e-05
0.00191469 1.18168e-05 5.25505e-07
1.18168e-05 -1.59088e-05 -5.29308e-08
5.25505e-07 -5.29308e-08 -8.99965e-06
0.0026824 0.000260647 2.88533e-05
0.000260647 -0.000165477 1.88675e-06
2.88533e-05 1.88675e-06 -0.000139453
0.00206186 3.17218e-05 -2.83728e-05
3.17218e-05 0.000275426 7.77888e-06
-2.83728e-05 7.77888e-06 0.000328068
0.000640133 7.35164e-05 -8.31734e-07
7.35164e-05 4.06034e-05 -7.24025e-07
-8.31734e-07 -7.24025e-07 -2.75452e-05
0.00183571 -7.86016e-05 -2.70462e-06
-7.86016e-05 1.3456e-05 -1.00755e-07
-2.70462e-06 -1.00755e-07 -2.26293e-05
0.00189116 -0.000188733 -1.23869e-06
-0.000188733 5.97975e-05 1.07962e-06
-1.23869e-06 1.07962e-06 1.45013e-05
0.00178367 -0.000242015 1.91098e-07
-0.000242015 1.96327e-05 1.65652e-06
1.91098e-07 1.65652e-06 -4.97252e-05
0.000613305 -0.000212393 2.30032e-06
-0.000212393 -9.04919e-05 8.30727e-06
2.30032e-06 8.30727e-06 -0.000295873
0.00177239 -0.000396014 1.44014e-06
-0.000396014 0.000407469 6.50841e-06
1.44014e-06 6.50841e-06 9.4081e-05
0.00151427 -0.000382285 -3.57753e-07
-0.000382285 8.9528e-05 -8.44469e-06
-3.57753e-07 -8.44469e-06 -0.00014913
0.00212586 -0.000386218 -5.37412e-06
-0.000386218 0.000236378 -2.86873e-06
-5.37412e-06 -2.86873e-06 0.000105064
0.00167354 -0.000258139 1.10897e-05
-0.000258139 0.000505397 -1.80559e-06
1.10897e-05 -1.80559e-06 0.000331633
0.000454632 -0.000161398 9.44552e-06
-0.000161398 -5.08371e-05 -4.59803e-06
9.44552e-06 -4.59803e-06 -0.000223246
0.000925705 -9.57057e-05 7.01718e-07
-9.57057e-05 0.000220499 -1.46568e-06
7.01718e-07 -1.46568e-06 5.58036e-05
0.000627495 3.2748e-06 -1.00376e-06
3.2748e-06 3.14095e-06 1.70359e-06
-1.00376e-06 1.70359e-06 -3.69217e-05
0.000803487 -1.69367e-05 1.49106e-06
-1.69367e-05 0.000161959 -4.58055e-07
1.49106e-06 -4.58055e-07 1.99619e-05
0.00094447 -4.26075e-05 1.31111e-06
-4.26075e-05 0.000232443 -2.59489e-07
1.31111e-06 -2.59489e-07 0.000147408
0.000799346 -2.09234e-05 2.98907e-07
-2.09234e-05 0.000157947 -2.51201e-07
2.98907e-07 -2.51201e-07 3.53068e-05
0.000436587 -2.15935e-05 -1.73609e-06
-2.15935e-05 -9.31083e-05 1.26889e-06
-1.73609e-06 1.26889e-06 -0.000158216
0.00193512 -9.76539e-05 -1.99097e-07
-9.76539e-05 -9.77547e-06 1.55498e-07
-1.99097e-07 1.55498e-07 -2.45463e-05
0.000539032 3.63333e-05 5.48477e-08
3.63333e-05 -1.56996e-05 -1.13853e-06
5.48477e-08 -1.13853e-06 -8.92397e-05
0.000677897 -5.33602e-05 5.31108e-07
-5.33602e-05 6.29802e-05 3.83012e-07
5.31108e-07 3.83012e-07 -1.18454e-05
0.000789767 -4.52364e-05 -2.59157e-07
-4.52364e-05 0.000135886 7.82943e-07
-2.59157e-07 7.82943e-07 3.99182e-05
0.00185126 -0.000219201 1.1309e-06
-0.000219201 -1.15175e-05 -2.63441e-07
1.1309e-06 -2.63441e-07 -9.3796e-06
0.00201607 -0.000343652 -8.80054e-07
-0.000343652 8.98344e-05 -3.63837e-07
-8.80054e-07 -3.63837e-07 5.08255e-06
0.00111585 -0.000240365 4.36284e-06
-0.000240365 0.000178795 1.19172e-07
4.36284e-06 1.19172e-07 -2.93225e-05
0.00199024 -0.000449763 4.92679e-06
-0.000449763 0.000514502 1.29965e-07
4.92679e-06 1.29965e-07 0.000191058
0.00181251 -0.000435467 -1.34927e-07
-0.000435467 0.000167197 1.85234e-06
-1.34927e-07 1.85234e-06 2.38747e-06
0.0005386 -8.65692e-06 -3.51981e-07
-8.65692e-06 8.02249e-06 -1.6748e-07
-3.51981e-07 -1.6748e-07 -0.000106623
0.000830648 -6.64553e-05 -1.5798e-06
-6.64553e-05 0.000173202 4.11629e-07
-1.5798e-06 4.11629e-07 4.31717e-05
0.000695114 -0.00025427 -4.59467e-06
-0.00025427 -2.3909e-05 7.7141e-07
-4.59467e-06 7.7141e-07 -0.000213493
0.000524861 -9.55964e-05 -2.77104e-07
-9.55964e-05 6.91746e-05 -1.3059e-06
-2.77104e-07 -1.3059e-06 -0.000176638
0.00070525 -6.39671e-05 1.86423e-08
-6.39671e-05 6.40787e-05 -3.54068e-07
1.86423e-08 -3.54068e-07 -8.22974e-05
0.00224414 -0.000197524 -2.24869e-06
-0.000197524 0.000152911 -1.49521e-06
-2.24869e-06 -1.49521e-06 0.000150628
0.00174257 -0.000233575 -7.56782e-06
-0.000233575 -0.000113512 1.67799e-06
-7.56782e-06 1.67799e-06 -8.60809e-05
0.00246454 -0.000479934 -5.01718e-06
-0.000479934 0.000362307 -1.60961e-06
-5.01718e-06 -1.60961e-06 0.000224026
0.00270261 -0.000536255 -2.08065e-05
-0.000536255 0.000762577 1.7725e-06
-2.08065e-05 1.7725e-06 0.000536232
0.00121294 -0.00027281 -1.15831e-05
-0.00027281 0.000271905 -4.12305e-06
-1.15831e-05 -4.12305e-06 3.8513e-05
0.000467776 1.208e-05 1.34127e-06
1.208e-05 -5.30134e-05 -1.46108e-06
1.34127e-06 -1.46108e-06 -0.000146231
0.000492694 4.74228e-05 5.76904e-07
4.74228e-05 -4.46013e-05 1.14676e-07
5.76904e-07 1.14676e-07 -0.000143592
0.000541169 4.63234e-06 5.51825e-07
4.63234e-06 -6.75826e-06 -1.08251e-06
5.51825e-07 -1.08251e-06 -0.000112904
0.00123402 -0.000137312 -1.27217e-06
-0.000137312 0.000421663 3.34665e-06
-1.27217e-06 3.34665e-06 0.000290905
0.000566948 -5.31152e-05 1.88288e-08
-5.31152e-05 -1.01754e-06 3.75821e-06
1.88288e-08 3.75821e-06 -0.000124429
0.000116408 -6.35296e-05 2.29636e-06
-6.35296e-05 -0.000141889 1.95832e-06
2.29636e-06 1.95832e-06 -0.000396483
0.000481344 -0.000290877 3.39897e-06
-0.000290877 4.75228e-05 -2.15045e-06
3.39897e-06 -2.15045e-06 -0.000259632
0.000784368 7.98169e-05 1.30812e-06
7.98169e-05 0.000150013 -4.25931e-06
1.30812e-06 -4.25931e-06 3.29472e-05
0.000184938 7.73117e-05 4.25737e-07
7.73117e-05 -0.00019154 -1.27811e-06
4.25737e-07 -1.27811e-06 -0.000350849
0.00208828 0.000196024 7.30363e-06
0.000196024 8.58013e-05 2.90945e-07
7.30363e-06 2.90945e-07 6.64393e-05
0.00203022 0.000300791 1.16082e-05
0.000300791 0.000156262 2.87922e-06
1.16082e-05 2.87922e-06 6.57367e-05
0.00179487 0.000394598 8.14276e-06
0.000394598 0.000155356 3.29761e-06
8.14276e-06 3.29761e-06 -4.10113e-05
0.000513817 0.000193594 1.1155e-06
0.000193594 -0.000126044 -1.58268e-06
1.1155e-06 -1.58268e-06 -0.000349783
0.00226182 0.000415104 2.82148e-06
0.000415104 0.000653887 1.10186e-06
2.82148e-06 1.10186e-06 0.000380869
0.00128567 9.83898e-05 -1.80043e-07
9.83898e-05 0.000434577 5.19069e-07
-1.80043e-07 5.19069e-07 0.000303251
0.00213648 0.000190407 -2.42873e-06
0.000190407 0.000195614 2.6197e-07
-2.42873e-06 2.6197e-07 0.000207882
0.0015174 0.000255561 -1.67209e-06
0.000255561 0.000531377 1.42405e-08
-1.67209e-06 1.42405e-08 0.000339424
0.00152272 0.000309217 -6.36223e-07
0.000309217 0.00039475 1.23061e-06
-6.36223e-07 1.23061e-06 0.000142317
0.0020114 0.00040825 -1.49119e-06
0.00040825 0.00016561 -3.04506e-06
-1.49119e-06 -3.04506e-06 4.22175e-05
0.00159576 0.000396954 -2.36515e-06
0.000396954 0.000199533 3.66193e-06
-2.36515e-06 3.66193e-06 -5.85001e-05
0.00169416 0.000356674 3.02582e-05
0.000356674 -0.000279364 2.00494e-06
3.02582e-05 2.00494e-06 -0.000580023
0.00118909 0.000168293 -3.85562e-06
0.000168293 0.000398284 -7.60757e-07
-3.85562e-06 -7.60757e-07 0.000245056
0.00224317 0.000314913 -4.24431e-05
0.000314913 0.00031527 -2.27579e-05
-4.24431e-05 -2.27579e-05 0.000312264
0.00123306 0.000250443 -5.04045e-06
0.000250443 0.000320163 -5.95686e-07
-5.04045e-06 -5.95686e-07 0.000132061
0.000980669 0.000295183 -3.55527e-06
0.000295183 2.04277e-05 -3.05129e-06
-3.55527e-06 -3.05129e-06 -0.000237082
0.000138928 0.000372652 -1.33024e-05
0.000372652 -0.000713021 -7.03628e-06
-1.33024e-05 -7.03628e-06 -0.00090957
0.00970142 0.000322272 -0.000163826
0.000322272 0.00223871 -3.73705e-05
-0.000163826 -3.73705e-05 0.00132835
0.0051089 0.0006765 0.000129483
0.0006765 0.000619629 -1.61628e-05
0.000129483 -1.61628e-05 0.000175531
0.0015995 0.000507434 2.12231e-05
0.000507434 7.02346e-05 1.22588e-05
2.12231e-05 1.22588e-05 -0.000133971
-0.00483965 -0.000621185 0.000298437
-0.000621185 -0.00136658 1.28793e-05
0.000298437 1.28793e-05 -0.00245054
0.00705103 -0.00192117 -1.46397e-05
-0.00192117 0.00132692 9.60718e-06
-1.46397e-05 9.60718e-06 0.00283904
0.000530932 3.35187e-05 2.4205e-06
3.35187e-05 7.07949e-06 5.7609e-07
2.4205e-06 5.7609e-07 -8.63713e-05
0.000899816 2.58477e-05 7.53845e-07
2.58477e-05 0.000212652 -6.71909e-07
7.53845e-07 -6.71909e-07 0.000118901
0.000918344 7.24053e-05 -2.18277e-06
7.24053e-05 0.000217116 -2.00569e-06
-2.18277e-06 -2.00569e-06 0.000119565
0.000643126 -5.89702e-05 1.76893e-08
-5.89702e-05 5.32081e-05 -1.70609e-06
1.76893e-08 -1.70609e-06 -3.58719e-05
0.000634005 5.62835e-05 -1.13792e-06
5.62835e-05 3.94576e-05 -1.33228e-06
-1.13792e-06 -1.33228e-06 -6.22054e-05
0.000775332 -3.29744e-05 2.50856e-07
-3.29744e-05 0.000122797 -4.13956e-07
2.50856e-07 -4.13956e-07 1.82923e-05
0.000858881 9.64604e-06 -1.19273e-06
9.64604e-06 0.000161964 1.82424e-06
-1.19273e-06 1.82424e-06 6.42136e-05
0.000679273 7.18636e-06 -5.07158e-07
7.18636e-06 5.48e-05 9.37662e-07
-5.07158e-07 9.37662e-07 -3.39734e-05
0.000755843 6.98167e-05 -1.32947e-06
6.98167e-05 0.00011246 -4.41568e-07
-1.32947e-06 -4.41568e-07 2.29268e-06
0.000588673 -7.83188e-06 -3.17425e-08
-7.83188e-06 6.59149e-06 7.03533e-07
-3.17425e-08 7.03533e-07 -7.66176e-05
0.000691044 2.13976e-05 9.42306e-08
2.13976e-05 7.83891e-05 4.79386e-08
9.42306e-08 4.79386e-08 -3.17078e-05
0.000777596 1.6687e-05 6.40868e-07
1.6687e-05 0.000102173 3.6795e-07
6.40868e-07 3.6795e-07 1.6086e-05
0.000824552 3.19486e-05 -4.79803e-07
3.19486e-05 0.000137496 -1.57856e-07
-4.79803e-07 -1.57856e-07 3.51854e-05
0.000974933 7.41619e-05 -9.53707e-07
7.41619e-05 0.000225214 -8.44373e-07
-9.53707e-07 -8.44373e-07 0.000121463
0.000471875 3.47662e-05 2.06824e-07
3.47662e-05 -6.21887e-05 -2.25811e-06
2.06824e-07 -2.25811e-06 -0.000154744
0.000852168 7.04687e-05 1.4888e-06
7.04687e-05 0.00015336 7.51602e-07
1.4888e-06 7.51602e-07 4.75786e-05
0.00061284 -1.64165e-05 1.02163e-06
-1.64165e-05 2.02165e-05 2.07433e-07
1.02163e-06 2.07433e-07 -8.29825e-05
0.000501626 -4.79863e-05 -1.15721e-06
-4.79863e-05 -4.37195e-05 1.67661e-06
-1.15721e-06 1.67661e-06 -0.000130545
0.000798027 4.61289e-06 -8.67205e-07
4.61289e-06 0.00013928 -7.58699e-08
-8.67205e-07 -7.58699e-08 3.09455e-05
0.000801285 4.09134e-05 -9.6551e-08
4.09134e-05 0.000140462 -2.12658e-06
-9.6551e-08 -2.12658e-06 3.53641e-05
0.000674678 -1.34907e-05 -9.78552e-07
-1.34907e-05 7.67859e-05 -1.11497e-07
-9.78552e-07 -1.11497e-07 -2.53998e-05
0.000807579 -1.43584e-05 1.06794e-06
-1.43584e-05 0.00015013 -5.48028e-07
1.06794e-06 -5.48028e-07 4.51366e-05
0.000686099 -7.41864e-05 -2.13378e-06
-7.41864e-05 6.27387e-05 1.23994e-06
-2.13378e-06 1.23994e-06 -1.95296e-05
0.000508207 -4.77491e-06 1.22395e-07
-4.77491e-06 -3.85704e-05 7.50657e-07
1.22395e-07 7.50657e-07 -0.000125881
0.000620519 -8.89255e-06 -1.20302e-06
-8.89255e-06 6.44157e-06 2.0946e-06
-1.20302e-06 2.0946e-06 -4.32294e-05
0.000610767 -1.26623e-05 7.68419e-07
-1.26623e-05 4.88465e-06 -2.40515e-08
7.68419e-07 -2.40515e-08 -4.57661e-05
0.000605429 6.79051e-06 -3.63824e-07
6.79051e-06 -2.5579e-05 5.34172e-06
-3.63824e-07 5.34172e-06 -4.0325e-05
0.000608202 9.94338e-06 -5.66262e-07
9.94338e-06 2.39546e-06 -1.94646e-06
-5.66262e-07 -1.94646e-06 -4.6876e-05
0.000584464 2.42947e-06 3.31937e-07
2.42947e-06 -3.9024e-05 -1.52672e-08
3.31937e-07 -1.52672e-08 -5.31405e-05
0.00232568 -1.46615e-06 -4.29227e-07
-1.46615e-06 0.00098589 5.18973e-06
-4.29227e-07 5.18973e-06 0.00100239
0.00062072 -2.50212e-06 -5.15503e-07
-2.50212e-06 -1.81941e-05 -5.4524e-06
-5.15503e-07 -5.4524e-06 -3.19358e-05
0.00157859 -9.49807e-06 -1.16668e-07
-9.49807e-06 0.00054576 7.83032e-08
-1.16668e-07 7.83032e-08 0.000558404
0.000792323 -1.46721e-05 1.71589e-08
-1.46721e-05 8.3245e-05 -2.05671e-06
1.71589e-08 -2.05671e-06 9.23723e-05
0.000635278 -5.09548e-06 6.55891e-07
-5.09548e-06 8.75722e-06 -1.56721e-06
6.55891e-07 -1.56721e-06 -2.74054e-05
0.000646381 -1.20414e-05 4.53427e-07
-1.20414e-05 1.32989e-05 -2.09663e-08
4.53427e-07 -2.09663e-08 -2.42818e-05
0.000613165 1.42302e-05 3.12276e-07
1.42302e-05 -2.50938e-05 -3.29541e-06
3.12276e-07 -3.29541e-06 -3.20501e-05
0.000630883 -1.41075e-05 -1.60485e-06
-1.41075e-05 2.62168e-06 1.64982e-06
-1.60485e-06 1.64982e-06 -3.5844e-05
0.000890288 2.47179e-05 -8.13237e-08
2.47179e-05 0.000140733 -7.15932e-07
-8.13237e-08 -7.15932e-07 0.000134008
0.00205793 3.77571e-05 1.15474e-05
3.77571e-05 0.000835418 -4.33889e-06
1.15474e-05 -4.33889e-06 0.000852633
0.000587814 2.96055e-05 -4.38405e-07
2.96055e-05 -3.24944e-05 3.50794e-06
-4.38405e-07 3.50794e-06 -4.40712e-05
0.00218378 5.26576e-05 -7.33669e-06
5.26576e-05 0.000916547 1.13774e-06
-7.33669e-06 1.13774e-06 0.000930872
0.00227997 6.89224e-05 -1.86222e-05
6.89224e-05 0.00097989 4.04328e-06
-1.86222e-05 4.04328e-06 0.000990869
0.00188501 0.000118284 -2.6926e-06
0.000118284 1.5938e-05 -6.18321e-07
-2.6926e-06 -6.18321e-07 -1.76172e-05
0.00186804 2.82837e-06 -2.5395e-06
2.82837e-06 2.49198e-05 -1.18918e-07
-2.5395e-06 -1.18918e-07 2.39093e-06
0.00157872 4.96003e-05 1.19888e-05
4.96003e-05 -0.000156542 -3.21271e-07
1.19888e-05 -3.21271e-07 -0.000147735
0.00222153 0.000187364 3.14064e-05
0.000187364 -0.000305062 7.53483e-06
3.14064e-05 7.53483e-06 -0.000287084
0.00189162 3.1814e-07 -2.9243e-06
3.1814e-07 -2.25061e-05 -5.88921e-07
-2.9243e-06 -5.88921e-07 -1.52575e-05
0.00181237 4.19393e-05 4.24145e-06
4.19393e-05 0.00014183 -1.75425e-06
4.24145e-06 -1.75425e-06 0.00017789
0.00297002 -7.21258e-06 -2.59924e-05
-7.21258e-06 0.000791529 2.67266e-06
-2.59924e-05 2.67266e-06 0.000770733
0.00232211 -5.24159e-05 9.51742e-05
-5.24159e-05 -0.000851478 -1.95514e-05
9.51742e-05 -1.95514e-05 -0.000840305
0.00259118 4.67088e-05 1.13755e-05
4.67088e-05 0.000118617 1.18732e-05
1.13755e-05 1.18732e-05 0.000185435
0.000662493 6.54026e-05 -7.93984e-08
6.54026e-05 5.68482e-05 -8.68477e-07
-7.93984e-08 -8.68477e-07 -1.44941e-05
0.000680465 -7.77709e-06 6.86122e-07
-7.77709e-06 6.91621e-05 -1.6848e-07
6.86122e-07 -1.6848e-07 -3.75707e-06
0.000651498 -8.50025e-05 -7.92325e-08
-8.50025e-05 5.35001e-05 1.66753e-07
-7.92325e-08 1.66753e-07 -3.30595e-05
0.000686874 -3.51786e-05 -9.77257e-07
-3.51786e-05 9.14593e-05 7.83793e-07
-9.77257e-07 7.83793e-07 -7.28644e-06
0.00195405 -0.000107344 -4.87462e-06
-0.000107344 -1.92945e-05 2.88286e-07
-4.87462e-06 2.88286e-07 -2.06582e-05
0.00184177 -0.000219704 -7.10074e-07
-0.000219704 -8.58286e-06 8.85496e-07
-7.10074e-07 8.85496e-07 -1.37931e-05
0.00196247 -0.000336807 -4.97035e-06
-0.000336807 7.34401e-05 1.53128e-06
-4.97035e-06 1.53128e-06 -1.39993e-05
0.0019253 -0.000334665 5.49311e-06
-0.000334665 0.00062032 5.8429e-06
5.49311e-06 5.8429e-06 0.000407203
0.0012298 -0.000386022 9.17932e-06
-0.000386022 0.000108373 -4.23107e-06
9.17932e-06 -4.23107e-06 -0.000203724
0.00208842 -0.000453337 4.86136e-06
-0.000453337 0.000332042 -3.61845e-06
4.86136e-06 -3.61845e-06 0.000160382
0.00101434 -0.000269166 -4.675e-06
-0.000269166 0.000173922 1.50733e-06
-4.675e-06 1.50733e-06 -3.65215e-05
0.00147802 -0.000107893 -1.57084e-07
-0.000107893 0.000558419 -4.62868e-07
-1.57084e-07 -4.62868e-07 0.000349143
0.000334543 -7.59596e-05 -1.11771e-06
-7.59596e-05 -0.000148899 -4.70485e-08
-1.11771e-06 -4.70485e-08 -0.000289936
0.00070109 -3.24761e-05 -5.65689e-07
-3.24761e-05 7.37704e-05 1.344e-06
-5.65689e-07 1.344e-06 1.36644e-06
0.000667232 -7.85555e-05 -8.23838e-08
-7.85555e-05 8.68109e-05 -1.34567e-06
-8.23838e-08 -1.34567e-06 -5.17267e-05
0.000809448 -6.89321e-06 6.90193e-08
-6.89321e-06 0.000165332 -5.78986e-07
6.90193e-08 -5.78986e-07 5.14739e-05
0.000675861 7.97887e-06 2.1737e-07
7.97887e-06 6.96317e-05 4.59757e-07
2.1737e-07 4.59757e-07 -6.1509e-06
0.000593386 1.46153e-05 -2.21944e-06
1.46153e-05 2.35039e-05 2.76789e-06
-2.21944e-06 2.76789e-06 -7.36e-05
0.00219432 -0.000178376 1.11459e-06
-0.000178376 0.00013846 6.66755e-07
1.11459e-06 6.66755e-07 0.000145788
0.000677549 -6.56694e-06 1.04382e-06
-6.56694e-06 7.74469e-05 -4.4528e-07
1.04382e-06 -4.4528e-07 -1.94978e-05
0.000693107 9.94419e-06 1.81174e-06
9.94419e-06 8.00309e-05 -2.46416e-07
1.81174e-06 -2.46416e-07 -2.13956e-05
0.000508979 5.51505e-05 -5.0649e-08
5.51505e-05 -1.85377e-05 1.53213e-06
-5.0649e-08 1.53213e-06 -0.000119738
0.00175528 -0.00023678 -1.26275e-06
-0.00023678 -0.000127003 -1.46999e-06
-1.26275e-06 -1.46999e-06 -0.000105151
0.00196618 -0.000442736 1.50219e-06
-0.000442736 0.000104492 -1.92001e-07
1.50219e-06 -1.92001e-07 -2.43725e-05
0.00137028 -0.000320651 -9.97673e-07
-0.000320651 0.000345297 -1.48503e-06
-9.97673e-07 -1.48503e-06 0.000105836
0.00220146 -0.000500703 -5.16533e-06
-0.000500703 0.000497027 1.97536e-06
-5.16533e-06 1.97536e-06 0.000275312
0.00104876 -6.26128e-05 -8.65784e-07
-6.26128e-05 0.000299152 5.89839e-07
-8.65784e-07 5.89839e-07 0.000174903
0.000619005 -7.40476e-05 -3.21065e-07
-7.40476e-05 2.84584e-05 9.92962e-07
-3.21065e-07 9.92962e-07 -0.000104271
0.000981615 -0.000329413 2.35931e-06
-0.000329413 0.000329828 -5.59371e-07
2.35931e-06 -5.59371e-07 1.44417e-05
0.00104901 -0.000149706 3.24951e-07
-0.000149706 0.000353873 1.63933e-07
3.24951e-07 1.63933e-07 0.000106157
0.00228437 -0.000197373 -1.83628e-05
-0.000197373 0.000131987 8.0408e-08
-1.83628e-05 8.0408e-08 0.000196616
0.0023675 -0.00037014 -1.91488e-05
-0.00037014 0.000208395 5.73467e-06
-1.91488e-05 5.73467e-06 0.000215956
0.0028159 -0.000585131 -1.08433e-05
-0.000585131 0.000637775 -5.26783e-06
-1.08433e-05 -5.26783e-06 0.00044147
0.00183292 -0.000449507 -2.98161e-06
-0.000449507 0.00048747 3.33852e-06
-2.98161e-06 3.33852e-06 0.000273352
0.000591949 5.0609e-06 -8.67749e-07
5.0609e-06 4.10123e-05 -2.38519e-06
-8.67749e-07 -2.38519e-06 -7.83031e-05
0.00056112 -7.14713e-05 2.87653e-07
-7.14713e-05 1.87306e-05 -3.77552e-06
2.87653e-07 -3.77552e-06 -0.000106467
0.00056875 -9.63658e-05 -1.23721e-06
-9.63658e-05 7.75848e-05 4.36473e-06
-1.23721e-06 4.36473e-06 -7.98107e-05
0.000362418 -0.000128407 1.45246e-06
-0.000128407 0.000132779 -6.56677e-06
1.45246e-06 -6.56677e-06 -0.000256686
0.000733183 -0.000324524 2.9974e-05
-0.000324524 -0.00267794 -5.19893e-06
2.9974e-05 -5.19893e-06 -0.00311049
0.00137295 9.00597e-05 7.03933e-07
9.00597e-05 0.000477727 -3.42067e-06
7.03933e-07 -3.42067e-06 0.000354244
0.000462908 0.000147733 2.98439e-06
0.000147733 -6.89475e-05 4.32713e-07
2.98439e-06 4.32713e-07 -0.000241576
0.00197414 0.000168827 4.08514e-05
0.000168827 0.000123494 6.70948e-06
4.08514e-05 6.70948e-06 0.000140296
0.00208398 0.000397778 1.43922e-05
0.000397778 0.000211204 6.902e-06
1.43922e-05 6.902e-06 9.30461e-05
0.00174573 0.00041408 5.21805e-06
0.00041408 0.000291969 6.25536e-06
5.21805e-06 6.25536e-06 2.48356e-05
0.000841047 0.000249587 4.98456e-06
0.000249587 3.33589e-05 2.3533e-06
4.98456e-06 2.3533e-06 -0.000221093
0.0029274 0.000444138 5.78124e-05
0.000444138 0.000156493 1.99265e-05
5.78124e-05 1.99265e-05 -0.000261318
0.00127524 0.000149288 2.05507e-06
0.000149288 0.000449073 -9.75974e-08
2.05507e-06 -9.75974e-08 0.000299885
0.00241652 0.00032032 -1.07169e-05
0.00032032 0.000393776 -1.06378e-06
-1.07169e-05 -1.06378e-06 0.000403379
0.00106914 0.000236331 1.09456e-06
0.000236331 0.000243349 1.16434e-07
1.09456e-06 1.16434e-07 5.66712e-05
0.00124141 0.000330764 1.46965e-06
0.000330764 0.000175689 -9.4938e-07
1.46965e-06 -9.4938e-07 -8.92082e-05
0.00133862 0.000462651 -5.43557e-06
0.000462651 -0.00010204 -1.39565e-06
-5.43557e-06 -1.39565e-06 -0.000298663
0.00314598 -0.000222682 -9.80838e-05
-0.000222682 -0.00144972 -3.10312e-05
-9.80838e-05 -3.10312e-05 -0.00241218
0.00523952 0.000554075 -1.33008e-05
0.000554075 0.000460138 -3.21149e-05
-1.33008e-05 -3.21149e-05 -9.9815e-05
0.000269298 0.000366057 -5.63233e-06
0.000366057 -0.000521981 8.21239e-06
-5.63233e-06 8.21239e-06 -0.000751867
-0.00119603 -0.000457149 0.000137149
-0.000457149 0.000921379 5.51381e-05
0.000137149 5.51381e-05 -0.000330951
0.000127763 -0.0019074 -8.83327e-05
-0.0019074 -0.00111586 -0.000106289
-8.83327e-05 -0.000106289 0.000594164
0.00108782 0.000171513 -4.60521e-06
0.000171513 0.000331114 -3.24275e-06
-4.60521e-06 -3.24275e-06 0.000195924
0.000437612 0.000358796 0.000137064
0.000358796 0.00144649 -2.1177e-05
0.000137064 -2.1177e-05 0.00042988
0.00119189 -0.000621385 -8.54009e-05
-0.000621385 0.00209601 -0.000146255
-8.54009e-05 -0.000146255 0.000757823
0.00257155 0.00046244 -2.65082e-05
0.00046244 0.000519717 -1.02313e-05
-2.65082e-05 -1.02313e-05 0.000544481
0.0009964 0.000161364 -1.15352e-05
0.000161364 0.000193956 -2.02378e-06
-1.15352e-05 -2.02378e-06 5.52211e-06
-8.28817e-05 0.000380582 -1.72226e-05
0.000380582 -0.000551024 -1.38245e-05
-1.72226e-05 -1.38245e-05 -0.000830633
0.000170791 0.000417332 3.0854e-05
0.000417332 -0.000604386 6.27757e-05
3.0854e-05 6.27757e-05 -0.000729482
0.0110148 0.000575723 -2.50355e-05
0.000575723 0.00348448 -3.16339e-05
-2.50355e-05 -3.16339e-05 0.00199422
0.00314959 0.000884995 1.09133e-05
0.000884995 0.000648051 9.53564e-06
1.09133e-05 9.53564e-06 -0.00048885
0.00227539 -0.00167494 0.000211159
-0.00167494 -0.000289061 0.000162012
0.000211159 0.000162012 1.27255e-05
0.00439579 -0.000935669 -4.30082e-06
-0.000935669 -0.00102083 0.000208826
-4.30082e-06 0.000208826 0.000298409
0.000661056 1.33355e-05 1.2381e-06
1.33355e-05 8.7565e-05 -6.49413e-07
1.2381e-06 -6.49413e-07 -6.41479e-06
0.000811007 7.19791e-05 1.4814e-06
7.19791e-05 0.000161445 7.93286e-07
1.4814e-06 7.93286e-07 6.24752e-05
0.00143391 0.000130609 -2.59926e-06
0.000130609 0.000532235 -2.8416e-06
-2.59926e-06 -2.8416e-06 0.000441995
0.000650221 4.54349e-06 5.58134e-07
4.54349e-06 5.83842e-05 -4.72473e-07
5.58134e-07 -4.72473e-07 -3.41577e-05
0.000748965 3.19688e-05 -1.56262e-08
3.19688e-05 0.000110515 -1.33381e-06
-1.56262e-08 -1.33381e-06 2.00307e-06
0.000568788 -1.04509e-05 -1.05937e-06
-1.04509e-05 -8.36261e-06 -3.43314e-07
-1.05937e-06 -3.43314e-07 -0.000108482
0.000807842 3.89426e-05 -5.08751e-07
3.89426e-05 0.000127834 7.78953e-07
-5.08751e-07 7.78953e-07 2.87579e-05
0.000705791 1.79397e-05 -4.48024e-08
1.79397e-05 5.84841e-05 9.97901e-07
-4.48024e-08 9.97901e-07 -2.82561e-05
0.000492777 -8.72817e-07 3.02132e-07
-8.72817e-07 -4.55422e-05 7.49287e-07
3.02132e-07 7.49287e-07 -0.000134607
0.00083318 2.92608e-05 1.80761e-07
2.92608e-05 0.000144401 3.42433e-07
1.80761e-07 3.42433e-07 4.14205e-05
0.000823547 2.66233e-05 1.28749e-07
2.66233e-05 0.00013832 3.1653e-07
1.28749e-07 3.1653e-07 3.2279e-05
0.000713998 1.95542e-05 5.57172e-07
1.95542e-05 9.30529e-05 -3.43941e-07
5.57172e-07 -3.43941e-07 -1.8928e-05
0.000538666 3.82407e-05 -2.06455e-07
3.82407e-05 -2.27554e-05 -2.50242e-07
-2.06455e-07 -2.50242e-07 -0.000114633
0.00107053 4.24664e-05 -2.42221e-07
4.24664e-05 0.000278281 -1.40563e-06
-2.42221e-07 -1.40563e-06 0.000181599
0.00015194 3.99819e-05 -1.32297e-06
3.99819e-05 -0.000220866 -3.73162e-06
-1.32297e-06 -3.73162e-06 -0.00031782
0.000773905 -7.3009e-05 -8.53191e-08
-7.3009e-05 0.000110345 3.12622e-07
-8.53191e-08 3.12622e-07 -7.3863e-07
0.000794307 -5.55524e-05 -9.66486e-07
-5.55524e-05 0.000143393 -8.01647e-07
-9.66486e-07 -8.01647e-07 2.58119e-05
0.000816845 -2.31645e-05 -5.53208e-07
-2.31645e-05 0.000156185 -3.58455e-07
-5.53208e-07 -3.58455e-07 4.28578e-05
0.000822784 1.55881e-05 -5.29968e-07
1.55881e-05 0.000145013 -2.84144e-07
-5.29968e-07 -2.84144e-07 4.53845e-05
0.000867564 8.08838e-06 -1.94401e-06
8.08838e-06 0.000189752 -2.26178e-06
-1.94401e-06 -2.26178e-06 6.69295e-05
0.000743769 2.30883e-05 6.5094e-07
2.30883e-05 0.000106232 -9.2956e-07
6.5094e-07 -9.2956e-07 6.1628e-06
0.000291803 -1.06839e-05 2.77083e-07
-1.06839e-05 -0.000172472 -1.74702e-06
2.77083e-07 -1.74702e-06 -0.000259744
0.000628372 1.56551e-05 8.42003e-07
1.56551e-05 3.85129e-05 1.40514e-07
8.42003e-07 1.40514e-07 -5.95434e-05
0.000671758 -3.35246e-05 -7.05193e-08
-3.35246e-05 5.71318e-05 2.76595e-07
-7.05193e-08 2.76595e-07 -3.03358e-05
0.000723182 -3.23159e-05 -2.2359e-07
-3.23159e-05 9.95604e-05 -1.50998e-08
-2.2359e-07 -1.50998e-08 8.53072e-08
0.000682186 -3.98182e-05 -1.74851e-06
-3.98182e-05 5.09263e-05 9.80269e-07
-1.74851e-06 9.80269e-07 -2.18504e-05
0.000722441 -2.44897e-05 1.48629e-06
-2.44897e-05 8.35548e-05 -3.78614e-07
1.48629e-06 -3.78614e-07 -1.145e-05
0.000636079 -6.86336e-05 -1.21122e-08
-6.86336e-05 3.15919e-05 1.68854e-07
-1.21122e-08 1.68854e-07 -5.07222e-05
0.000652589 -7.36372e-06 -1.73199e-06
-7.36372e-06 2.07967e-05 2.25402e-06
-1.73199e-06 2.25402e-06 -2.837e-05
0.000525614 -4.66862e-06 1.09902e-06
-4.66862e-06 -2.08213e-05 -5.55798e-07
1.09902e-06 -5.55798e-07 -0.000113352
0.000619712 5.33845e-06 9.50576e-07
5.33845e-06 8.27268e-06 -1.97114e-08
9.50576e-07 -1.97114e-08 -4.27705e-05
0.0013749 1.5611e-05 -2.72666e-06
1.5611e-05 0.000427713 5.2586e-06
-2.72666e-06 5.2586e-06 0.000416958
0.000613763 2.6504e-05 -2.97448e-07
2.6504e-05 6.61174e-06 -1.90224e-06
-2.97448e-07 -1.90224e-06 -4.39592e-05
0.000977427 7.94414e-06 -1.58622e-06
7.94414e-06 0.000193244 8.09595e-07
-1.58622e-06 8.09595e-07 0.000180693
0.000848808 3.66811e-06 -3.79408e-06
3.66811e-06 0.000116806 5.02335e-06
-3.79408e-06 5.02335e-06 0.000125174
0.000594987 2.0692e-06 1.04641e-07
2.0692e-06 -3.26377e-05 -3.68324e-06
1.04641e-07 -3.68324e-06 -4.6855e-05
0.00233483 2.04428e-07 4.12553e-06
2.04428e-07 0.000991364 -5.8826e-09
4.12553e-06 -5.8826e-09 0.00100779
0.00086426 -3.37172e-06 -3.97011e-06
-3.37172e-06 0.000125715 -5.0952e-06
-3.97011e-06 -5.0952e-06 0.00013454
0.000662708 6.62015e-05 1.59487e-06
6.62015e-05 6.38484e-05 -1.93878e-07
1.59487e-06 -1.93878e-07 -1.4815e-05
0.000627803 1.86577e-05 -9.75401e-07
1.86577e-05 8.03836e-06 -1.80467e-06
-9.75401e-07 -1.80467e-06 -2.92657e-05
0.000627823 -5.79588e-06 8.17093e-07
-5.79588e-06 5.63182e-06 7.46112e-09
8.17093e-07 7.46112e-09 -3.14494e-05
0.000615847 8.16621e-06 1.57448e-07
8.16621e-06 -2.46706e-05 -3.24183e-06
1.57448e-07 -3.24183e-06 -3.10051e-05
0.000650302 -2.57605e-05 -1.59821e-06
-2.57605e-05 1.65023e-05 1.69194e-06
-1.59821e-06 1.69194e-06 -2.1993e-05
0.000588872 1.41369e-05 1.25333e-08
1.41369e-05 -3.98968e-05 -7.57668e-07
1.25333e-08 -7.57668e-07 -4.66075e-05
0.00203532 2.51751e-05 7.73477e-06
2.51751e-05 0.000818389 -4.50333e-06
7.73477e-06 -4.50333e-06 0.000837006
0.00119483 3.06542e-05 -7.64098e-07
3.06542e-05 0.000320831 1.96263e-06
-7.64098e-07 1.96263e-06 0.000315385
0.00148534 3.24702e-05 1.73965e-07
3.24702e-05 0.000498488 1.42559e-06
1.73965e-07 1.42559e-06 0.000511748
0.000915275 3.58273e-05 -1.45013e-05
3.58273e-05 0.000168138 7.19348e-06
-1.45013e-05 7.19348e-06 0.000175563
0.00168493 0.000114154 6.19356e-05
0.000114154 -0.000506869 1.4317e-05
6.19356e-05 1.4317e-05 -0.000484031
0.00187286 -1.08164e-05 2.09309e-06
-1.08164e-05 -2.70469e-05 2.2804e-07
2.09309e-06 2.2804e-07 -2.09726e-05
0.00194823 5.457e-05 3.31553e-05
5.457e-05 0.000236913 -7.5102e-06
3.31553e-05 -7.5102e-06 0.000259553
0.00120412 8.64136e-05 -9.84054e-06
8.64136e-05 -0.00102592 -7.19552e-06
-9.84054e-06 -7.19552e-06 -0.000992396
0.00183451 3.94272e-05 1.64559e-05
3.94272e-05 -0.000208107 1.02005e-06
1.64559e-05 1.02005e-06 -0.000153553
0.00233318 -1.44898e-05 -3.82887e-07
-1.44898e-05 0.000363879 -1.77694e-06
-3.82887e-07 -1.77694e-06 0.000346748
0.00331128 -6.18718e-05 -5.91838e-05
-6.18718e-05 0.000742059 4.26213e-06
-5.91838e-05 4.26213e-06 0.000724237
0.003178 -7.28276e-05 0.000109645
-7.28276e-05 0.00046691 -4.2659e-06
0.000109645 -4.2659e-06 0.00029028
0.0092294 -0.000363824 9.04843e-06
-0.000363824 0.00222162 2.61515e-05
9.04843e-06 2.61515e-05 0.000869289
0.00797902 0.0015093 0.000293742
0.0015093 0.003858 -0.000129036
0.000293742 -0.000129036 0.00385725
0.00426541 0.00159146 -4.94464e-06
0.00159146 0.00298613 1.74012e-05
-4.94464e-06 1.74012e-05 0.0036988
0.00042883 -7.85834e-05 2.34951e-06
-7.85834e-05 -6.82568e-05 -2.01458e-07
2.34951e-06 -2.01458e-07 -0.0001583
0.00067902 -1.00345e-05 1.2999e-06
-1.00345e-05 6.84127e-05 -1.53168e-07
1.2999e-06 -1.53168e-07 -4.59882e-06
0.000707185 -7.32987e-05 -1.57195e-06
-7.32987e-05 8.96832e-05 1.37278e-06
-1.57195e-06 1.37278e-06 1.21209e-05
0.000636769 -3.35639e-05 -3.42741e-07
-3.35639e-05 4.69185e-05 2.41341e-07
-3.42741e-07 2.41341e-07 -4.15212e-05
0.000704692 6.93307e-05 -2.42669e-07
6.93307e-05 0.000104343 1.32352e-06
-2.42669e-07 1.32352e-06 -2.90578e-06
0.000783598 0.000120973 1.35791e-06
0.000120973 0.000139765 2.28903e-06
1.35791e-06 2.28903e-06 3.1957e-05
0.000778937 -6.87731e-06 2.02731e-06
-6.87731e-06 0.000140389 -1.43197e-06
2.02731e-06 -1.43197e-06 4.12223e-05
0.000614277 -2.89372e-05 -7.24532e-07
-2.89372e-05 4.13711e-05 7.27669e-07
-7.24532e-07 7.27669e-07 -5.16727e-05
0.0021018 -0.000162992 3.85624e-06
-0.000162992 9.53866e-05 1.59824e-06
3.85624e-06 1.59824e-06 0.000111861
0.00181009 -0.000246637 5.366e-06
-0.000246637 -0.000127256 -1.82105e-06
5.366e-06 -1.82105e-06 -0.000109733
0.00160268 -0.000414471 2.13055e-06
-0.000414471 -8.50673e-05 3.46319e-06
2.13055e-06 3.46319e-06 -0.000205591
0.00124927 -0.000334955 8.43642e-06
-0.000334955 0.000267695 3.7024e-06
8.43642e-06 3.7024e-06 2.34225e-05
0.00182287 -0.00047469 4.80631e-06
-0.00047469 0.000301166 1.17344e-07
4.80631e-06 1.17344e-07 8.2995e-05
0.00157419 -0.000374927 9.26021e-07
-0.000374927 0.000662477 5.37811e-07
9.26021e-07 5.37811e-07 0.000338203
0.0018093 -0.000224975 -5.52074e-07
-0.000224975 0.000762232 -1.44814e-06
-5.52074e-07 -1.44814e-06 0.000515894
0.000743452 -0.000111209 1.1177e-06
-0.000111209 0.000102361 -1.09491e-06
1.1177e-06 -1.09491e-06 -4.35218e-05
0.000718563 -2.28964e-05 -1.70398e-09
-2.28964e-05 0.000100008 2.32789e-06
-1.70398e-09 2.32789e-06 7.39179e-09
0.000923056 -2.80311e-05 1.83349e-07
-2.80311e-05 0.000214527 -5.10087e-06
1.83349e-07 -5.10087e-06 9.7037e-05
0.000942011 -1.87895e-05 1.21151e-06
-1.87895e-05 0.000234007 6.90672e-07
1.21151e-06 6.90672e-07 0.000136461
0.00069322 0.00011541 2.4935e-06
0.00011541 9.58123e-05 3.13731e-06
2.4935e-06 3.13731e-06 -3.87651e-06
0.00186724 -0.000190589 -2.04182e-07
-0.000190589 -5.3307e-05 9.75493e-07
-2.04182e-07 9.75493e-07 3.79973e-06
0.000699401 2.13242e-05 -1.5466e-06
2.13242e-05 0.000104719 2.69559e-07
-1.5466e-06 2.69559e-07 -1.37251e-05
0.000832792 -7.59936e-05 -1.546e-06
-7.59936e-05 0.000170896 9.039e-07
-1.546e-06 9.039e-07 5.23862e-05
0.00172012 -0.000349136 1.31799e-06
-0.000349136 -0.000136789 -1.64738e-06
1.31799e-06 -1.64738e-06 -0.000132975
0.00164919 -0.000496155 3.31301e-07
-0.000496155 2.64945e-05 1.64268e-06
3.31301e-07 1.64268e-06 -0.000145782
0.00137806 -0.000411733 -4.92681e-07
-0.000411733 0.000243929 -1.68417e-06
-4.92681e-07 -1.68417e-06 1.52155e-05
0.0008958 -0.000122539 5.2678e-07
-0.000122539 0.000259751 -2.94272e-06
5.2678e-07 -2.94272e-06 8.51319e-05
0.0010232 -0.000179094 -4.44448e-07
-0.000179094 0.000466927 5.31854e-07
-4.44448e-07 5.31854e-07 0.000106322
0.00330178 -0.000308057 -2.6791e-05
-0.000308057 0.00073826 4.86888e-06
-2.6791e-05 4.86888e-06 0.000730275
0.00269923 -0.000491945 -2.91959e-05
-0.000491945 0.000476837 5.29569e-06
-2.91959e-05 5.29569e-06 0.000474387
0.00155476 -0.000531834 -8.62353e-06
-0.000531834 8.44802e-05 1.78098e-06
-8.62353e-06 1.78098e-06 -8.88828e-05
0.000433613 -0.00029616 -6.62358e-06
-0.00029616 -0.000127032 1.69608e-05
-6.62358e-06 1.69608e-05 -0.000363468
0.00066112 -0.000122818 1.70554e-06
-0.000122818 8.20039e-05 -2.48618e-08
1.70554e-06 -2.48618e-08 -5.15736e-05
0.000537869 -9.19507e-05 2.26857e-06
-9.19507e-05 3.86404e-05 -3.53634e-06
2.26857e-06 -3.53634e-06 -0.000107597
0.00105743 -6.69139e-05 3.18873e-07
-6.69139e-05 0.000477922 -6.13816e-06
3.18873e-07 -6.13816e-06 0.000169275
-0.00458636 -5.75792e-05 0.000248445
-5.75792e-05 -0.00299047 9.6892e-07
0.000248445 9.6892e-07 -0.00220175
0.0097409 -0.000125922 -7.13806e-06
-0.000125922 0.00285983 -4.97946e-07
-7.13806e-06 -4.97946e-07 0.00219982
0.00148415 0.000130316 4.06517e-06
0.000130316 0.000561558 -1.40985e-06
4.06517e-06 -1.40985e-06 0.000420467
0.000828797 0.000215338 3.3338e-06
0.000215338 0.00012084 -1.69202e-06
3.3338e-06 -1.69202e-06 -6.32867e-05
0.00201145 0.000290833 3.44674e-05
0.000290833 0.000156929 2.16149e-05
3.44674e-05 2.16149e-05 0.000187157
0.00248282 0.00054873 1.00418e-05
0.00054873 0.000483365 6.75955e-06
1.00418e-05 6.75955e-06 0.000288658
0.00172649 0.000385153 8.32722e-06
0.000385153 0.000449793 1.12728e-06
8.32722e-06 1.12728e-06 0.000177573
0.00983623 0.00046509 4.19052e-05
0.00046509 0.002497 9.97252e-06
4.19052e-05 9.97252e-06 0.00139432
0.00736134 0.000835648 -0.000146064
0.000835648 0.00115302 -2.93865e-05
-0.000146064 -2.93865e-05 0.000677497
-0.000572221 0.000235008 1.33042e-06
0.000235008 -0.000821394 -1.78813e-05
1.33042e-06 -1.78813e-05 -0.00110096
0.00736921 -0.00122243 -6.65164e-05
-0.00122243 0.00357752 2.49996e-05
-6.65164e-05 2.49996e-05 0.00303786
-0.00749533 -0.00193429 -0.000492268
-0.00193429 -0.00360439 -0.00037532
-0.000492268 -0.00037532 -0.00188319
0.000932319 0.000164233 -3.64567e-07
0.000164233 0.000251748 -1.70795e-06
-3.64567e-07 -1.70795e-06 0.000116051
-0.00238837 -0.000571121 0.000106807
-0.000571121 -0.00195804 1.22075e-05
0.000106807 1.22075e-05 -0.00214279
-0.00230629 -0.00046688 -0.000123089
-0.00046688 0.0010427 -6.10267e-05
-0.000123089 -6.10267e-05 -0.000610823
0.00277241 0.000431254 -7.1621e-06
0.000431254 0.000627358 -8.40206e-07
-7.1621e-06 -8.40206e-07 0.000657069
0.000852653 0.000192678 -2.08435e-06
0.000192678 0.000143104 9.33922e-07
-2.08435e-06 9.33922e-07 -5.99557e-05
0.000872939 0.000398154 3.15794e-06
0.000398154 -2.91012e-05 1.7275e-06
3.15794e-06 1.7275e-06 -0.000301658
0.00108252 0.000355484 1.33364e-05
0.000355484 -7.29949e-06 1.26009e-05
1.33364e-05 1.26009e-05 -3.48222e-05
0.00793074 0.000433052 -4.66645e-05
0.000433052 0.0013314 -2.58023e-05
-4.66645e-05 -2.58023e-05 -0.000413495
0.00636289 0.00120455 -5.2501e-05
0.00120455 0.00165306 -2.11657e-05
-5.2501e-05 -2.11657e-05 0.00087398
0.00916544 -0.00143773 0.000106147
-0.00143773 0.00428428 -4.46227e-05
0.000106147 -4.46227e-05 0.00419821
0.00365707 -0.00113199 0.000123351
-0.00113199 -0.00160533 0.000258902
0.000123351 0.000258902 -0.000289562
0.00145815 0.000147601 -1.38661e-05
0.000147601 0.000571257 -7.06793e-06
-1.38661e-05 -7.06793e-06 0.000452145
-0.00498978 0.000190878 -8.16633e-05
0.000190878 0.000688946 -4.62555e-05
-8.16633e-05 -4.62555e-05 -0.00157897
0.00284784 0.000232539 -0.000135124
0.000232539 0.00131367 -0.000189997
-0.000135124 -0.000189997 -0.000924715
0.000866049 0.000361713 -1.59231e-05
0.000361713 -0.000117516 5.07554e-06
-1.59231e-05 5.07554e-06 -0.000124505
0.0011002 0.000389172 -4.19898e-05
0.000389172 0.00035221 -1.45891e-05
-4.19898e-05 -1.45891e-05 0.00010869
0.00238393 0.000323248 -6.66114e-05
0.000323248 0.00117923 -6.12815e-06
-6.66114e-05 -6.12815e-06 0.000832679
0.00271986 0.000904607 -4.60085e-05
0.000904607 0.000291967 -1.52647e-05
-4.60085e-05 -1.52647e-05 -2.20606e-05
0.00124069 0.00059175 0.000134297
0.00059175 2.16559e-05 0.000100279
0.000134297 0.000100279 -0.00249814
0.00946255 -0.00159829 4.84792e-05
-0.00159829 0.00307722 0.00022233
4.84792e-05 0.00022233 0.00269151
0.00366961 -0.000726912 -3.30515e-05
-0.000726912 -0.00201883 -3.28524e-05
-3.30515e-05 -3.28524e-05 -0.000771086
0.000851644 8.88498e-05 3.1531e-06
8.88498e-05 0.000191372 3.16644e-06
3.1531e-06 3.16644e-06 8.64269e-05
0.00122402 0.000117352 5.04568e-06
0.000117352 0.000403687 2.63277e-06
5.04568e-06 2.63277e-06 0.0003152
0.000133092 4.58562e-05 2.57298e-06
4.58562e-05 -0.000181674 -2.99734e-06
2.57298e-06 -2.99734e-06 -0.00026338
0.000497328 4.45582e-05 1.16192e-06
4.45582e-05 -4.38958e-05 -1.4086e-07
1.16192e-06 -1.4086e-07 -0.000132377
0.000761429 4.89944e-05 -6.67337e-07
4.89944e-05 0.000126563 -1.18776e-06
-6.67337e-07 -1.18776e-06 1.16523e-05
0.000772147 -6.148e-06 -2.99923e-07
-6.148e-06 0.000108612 7.41212e-07
-2.99923e-07 7.41212e-07 3.09301e-06
0.000784459 -8.21886e-07 1.68549e-06
-8.21886e-07 0.000121909 6.44935e-08
1.68549e-06 6.44935e-08 1.60289e-05
0.000560766 3.13633e-05 2.71297e-07
3.13633e-05 -8.58612e-06 2.6015e-06
2.71297e-07 2.6015e-06 -9.88613e-05
0.000788599 4.17594e-05 -1.15629e-08
4.17594e-05 0.000140742 -7.63633e-07
-1.15629e-08 -7.63633e-07 2.29063e-05
0.000883963 3.5206e-05 -8.93216e-08
3.5206e-05 0.000168992 2.47756e-07
-8.93216e-08 2.47756e-07 7.18722e-05
0.000799166 -3.27717e-05 -3.24533e-07
-3.27717e-05 0.000127211 4.78736e-07
-3.24533e-07 4.78736e-07 1.44622e-05
0.000170052 3.4644e-05 4.85932e-08
3.4644e-05 -0.000199489 4.1306e-07
4.85932e-08 4.1306e-07 -0.000295643
-0.000313864 2.03538e-05 -2.37979e-06
2.03538e-05 -0.000364127 -2.53855e-06
-2.37979e-06 -2.53855e-06 -0.000473633
0.000920293 -3.23043e-06 -2.40957e-06
-3.23043e-06 0.000200254 -2.97759e-06
-2.40957e-06 -2.97759e-06 9.34303e-05
0.000933495 9.41249e-06 -5.55272e-07
9.41249e-06 0.000224158 -1.11029e-06
-5.55272e-07 -1.11029e-06 8.98701e-05
0.00082189 -5.29755e-05 5.03015e-08
-5.29755e-05 0.000162572 -7.09655e-07
5.03015e-08 -7.09655e-07 4.60373e-05
0.000879842 -2.18348e-05 -2.10727e-07
-2.18348e-05 0.000172176 1.10396e-06
-2.10727e-07 1.10396e-06 7.55402e-05
0.000847574 -4.53875e-05 2.16503e-07
-4.53875e-05 0.000168176 -5.74067e-07
2.16503e-07 -5.74067e-07 5.17876e-05
0.000773947 1.72463e-05 -2.57435e-07
1.72463e-05 0.000120434 -1.0323e-07
-2.57435e-07 -1.0323e-07 2.1386e-05
0.000512719 -3.73232e-05 3.72384e-08
-3.73232e-05 -4.22843e-05 7.17596e-07
3.72384e-08 7.17596e-07 -0.000130791
0.000654949 2.43883e-05 7.4361e-07
2.43883e-05 5.43925e-05 6.14158e-07
7.4361e-07 6.14158e-07 -4.2198e-05
0.000473313 -1.31052e-05 -9.58801e-07
-1.31052e-05 -4.01329e-05 -3.19891e-06
-9.58801e-07 -3.19891e-06 -0.000148697
0.000515299 -2.88028e-05 1.5161e-06
-2.88028e-05 -3.92234e-05 -9.0691e-07
1.5161e-06 -9.0691e-07 -0.00012616
0.000794452 -1.62693e-05 3.38222e-06
-1.62693e-05 0.000103626 -4.50283e-06
3.38222e-06 -4.50283e-06 8.62112e-06
0.000151446 -4.2469e-05 9.99151e-07
-4.2469e-05 -0.000224694 5.65054e-07
9.99151e-07 5.65054e-07 -0.000371426
0.000324539 1.79348e-05 -3.50079e-07
1.79348e-05 -0.000125824 -9.14674e-07
-3.50079e-07 -9.14674e-07 -0.000231043
0.000728162 8.70479e-06 2.49488e-07
8.70479e-06 9.48317e-05 3.87518e-07
2.49488e-07 3.87518e-07 -4.64398e-06
0.000659164 1.22449e-06 -1.05587e-07
1.22449e-06 5.09045e-05 4.29206e-07
-1.05587e-07 4.29206e-07 -3.68911e-05
0.000727908 -1.70329e-05 -1.15305e-07
-1.70329e-05 0.00010099 -3.84614e-08
-1.15305e-07 -3.84614e-08 5.37757e-06
0.000616744 6.65936e-06 -6.49582e-07
6.65936e-06 1.95868e-05 8.39536e-07
-6.49582e-07 8.39536e-07 -5.48655e-05
0.000770499 -1.43329e-05 3.38857e-07
-1.43329e-05 0.000125069 -4.84939e-08
3.38857e-07 -4.84939e-08 2.682e-05
0.000692741 -3.68138e-05 -3.62567e-07
-3.68138e-05 6.40427e-05 7.34217e-08
-3.62567e-07 7.34217e-08 -1.33483e-05
0.000603935 4.0479e-05 -7.51185e-07
4.0479e-05 -7.76296e-06 2.17865e-06
-7.51185e-07 2.17865e-06 -5.81252e-05
0.000583556 -5.98958e-05 1.49032e-06
-5.98958e-05 -3.57408e-06 -9.03957e-07
1.49032e-06 -9.03957e-07 -8.42587e-05
0.000628773 6.59441e-06 -2.54526e-07
6.59441e-06 7.19555e-06 -2.1712e-08
-2.54526e-07 -2.1712e-08 -4.2005e-05
0.00137306 2.48853e-05 -4.68898e-06
2.48853e-05 0.000426735 5.34028e-06
-4.68898e-06 5.34028e-06 0.000415691
0.000619273 -1.39819e-05 8.20246e-07
-1.39819e-05 6.93825e-06 -1.93408e-06
8.20246e-07 -1.93408e-06 -4.33602e-05
0.000969614 1.44618e-05 -2.5345e-06
1.44618e-05 0.00018859 7.53191e-07
-2.5345e-06 7.53191e-07 0.00017606
0.000785441 1.45932e-05 -2.62134e-07
1.45932e-05 7.94291e-05 1.97738e-06
-2.62134e-07 1.97738e-06 8.78214e-05
0.000579478 5.62876e-06 5.06758e-07
5.62876e-06 -4.18533e-05 -3.70939e-06
5.06758e-07 -3.70939e-06 -5.62146e-05
0.00234453 1.31357e-05 3.79298e-06
1.31357e-05 0.000997601 4.6059e-08
3.79298e-06 4.6059e-08 0.00101375
0.00234114 1.90569e-06 -4.80078e-07
1.90569e-06 0.000995152 -5.20637e-06
-4.80078e-07 -5.20637e-06 0.00101147
0.000998187 7.12749e-05 -1.26543e-06
7.12749e-05 0.000254017 -1.08988e-06
-1.26543e-06 -1.08988e-06 0.000178268
0.000637356 2.87423e-05 -1.04613e-06
2.87423e-05 1.55807e-05 -2.01981e-06
-1.04613e-06 -2.01981e-06 -2.40087e-05
0.000663859 -5.77546e-06 6.86896e-07
-5.77546e-06 6.29917e-05 8.68042e-07
6.86896e-07 8.68042e-07 -1.44544e-05
0.000617389 2.63168e-06 5.35277e-08
2.63168e-06 -2.44212e-05 -3.37414e-06
5.35277e-08 -3.37414e-06 -3.07146e-05
0.000628134 -8.27861e-06 2.34234e-07
-8.27861e-06 8.27526e-06 -3.02287e-08
2.34234e-07 -3.02287e-08 -2.90997e-05
0.000637723 -2.51596e-05 -1.3655e-06
-2.51596e-05 1.18728e-05 1.5025e-06
-1.3655e-06 1.5025e-06 -2.57017e-05
0.000602825 8.00278e-06 -1.89295e-07
8.00278e-06 -3.23915e-05 -2.35349e-08
-1.89295e-07 -2.35349e-08 -3.86634e-05
0.00203064 1.29726e-05 3.33259e-06
1.29726e-05 0.000813178 -4.65578e-06
3.33259e-06 -4.65578e-06 0.000832548
0.00117947 2.03169e-05 -6.78335e-07
2.03169e-05 0.000308552 1.95542e-06
-6.78335e-07 1.95542e-06 0.000305033
0.00141816 2.16605e-05 1.22075e-06
2.16605e-05 0.000453968 3.69248e-08
1.22075e-06 3.69248e-08 0.000469206
0.000870901 2.57145e-05 -1.3328e-05
2.57145e-05 0.000135777 7.08201e-06
-1.3328e-05 7.08201e-06 0.000146235
-0.00780453 0.000305974 0.00018563
0.000305974 -0.0034618 1.56268e-06
0.00018563 1.56268e-06 -0.00419946
-0.00193929 9.74366e-05 0.000205869
9.74366e-05 0.00145008 1.33222e-05
0.000205869 1.33222e-05 0.000143641
0.0040654 0.000212026 -0.000203226
0.000212026 0.00027851 -8.07683e-06
-0.000203226 -8.07683e-06 0.000412434
0.000479797 3.52228e-05 3.36091e-05
3.52228e-05 -0.000866418 -7.16909e-06
3.36091e-05 -7.16909e-06 -0.000863374
0.00142016 -2.34563e-05 1.86093e-05
-2.34563e-05 -0.000229002 -5.31489e-07
1.86093e-05 -5.31489e-07 -0.000243607
0.000491974 4.90825e-05 1.89435e-06
4.90825e-05 -0.000704594 -5.18785e-06
1.89435e-06 -5.18785e-06 -0.000701117
0.00249759 -9.892e-05 1.89357e-07
-9.892e-05 0.000240473 3.54759e-06
1.89357e-07 3.54759e-06 0.000205539
0.00843763 0.000131211 4.07154e-05
0.000131211 0.00147703 -2.95818e-05
4.07154e-05 -2.95818e-05 0.000464013
-0.00340663 0.000876473 -3.10866e-05
0.000876473 -0.000941412 -9.34443e-06
-3.10866e-05 -9.34443e-06 -0.0019152
-0.00156368 0.00170742 -9.94986e-05
0.00170742 -0.000280047 4.72322e-05
-9.94986e-05 4.72322e-05 0.0010243
0.00158965 -0.000209549 5.57632e-05
-0.000209549 -0.000639408 3.57543e-06
5.57632e-05 3.57543e-06 -0.00080585
0.011542 -0.000203049 7.77947e-05
-0.000203049 0.00339494 -2.98035e-05
7.77947e-05 -2.98035e-05 0.00197
0.00216315 0.00163573 0.000115792
0.00163573 -6.9256e-05 -0.000217425
0.000115792 -0.000217425 0.000448913
0.00566515 0.00122419 -0.000156536
0.00122419 0.000472546 0.00010434
-0.000156536 0.00010434 0.000784551
0.000701798 7.1503e-05 -1.31338e-06
7.1503e-05 0.000110986 5.67294e-07
-1.31338e-06 5.67294e-07 -1.05382e-05
0.000550608 1.29033e-05 -2.25465e-07
1.29033e-05 -1.08811e-06 -7.36497e-07
-2.25465e-07 -7.36497e-07 -8.80985e-05
0.000691835 -8.26231e-05 -1.13183e-06
-8.26231e-05 8.02794e-05 1.00103e-06
-1.13183e-06 1.00103e-06 3.52838e-06
0.000571551 -2.55986e-06 2.39894e-07
-2.55986e-06 1.49023e-05 2.45068e-07
2.39894e-07 2.45068e-07 -7.7827e-05
0.000684205 6.39738e-05 9.20325e-07
6.39738e-05 9.7394e-05 1.47909e-06
9.20325e-07 1.47909e-06 -1.03312e-05
0.000862074 7.48502e-05 -5.80941e-09
7.48502e-05 0.000197708 5.07216e-07
-5.80941e-09 5.07216e-07 7.57304e-05
0.000762784 8.69567e-05 1.65887e-06
8.69567e-05 0.000134867 1.77503e-06
1.65887e-06 1.77503e-06 2.4121e-05
0.000683665 7.73917e-06 1.96756e-06
7.73917e-06 7.40689e-05 -1.87512e-07
1.96756e-06 -1.87512e-07 -3.16001e-05
0.00067356 -1.72019e-05 6.96667e-07
-1.72019e-05 8.09979e-05 -9.80266e-07
6.96667e-07 -9.80266e-07 -2.1622e-05
0.00054311 -8.87453e-06 -6.59263e-07
-8.87453e-06 -8.00933e-06 3.58306e-07
-6.59263e-07 3.58306e-07 -9.54899e-05
0.0014889 -0.000178121 1.55569e-05
-0.000178121 -0.000213628 -9.39533e-07
1.55569e-05 -9.39533e-07 -0.000163263
0.00147402 -0.000342954 1.81978e-05
-0.000342954 -0.00025659 -4.39733e-06
1.81978e-05 -4.39733e-06 -0.000265719
0.00026027 -0.000387697 1.35735e-05
-0.000387697 -0.000705577 2.82648e-06
1.35735e-05 2.82648e-06 -0.000849662
0.000806572 -0.000367381 2.47424e-06
-0.000367381 -5.33302e-05 -1.80421e-07
2.47424e-06 -1.80421e-07 -0.000289817
0.00171435 -0.00021778 3.89573e-07
-0.00021778 0.000816702 8.34485e-06
3.89573e-07 8.34485e-06 0.000486865
0.00108042 -0.000166421 9.39468e-07
-0.000166421 0.000369106 -1.21076e-07
9.39468e-07 -1.21076e-07 0.00017247
0.000951344 -7.38928e-05 -6.19342e-07
-7.38928e-05 0.000228346 5.09253e-08
-6.19342e-07 5.09253e-08 0.000119751
0.000712608 3.17399e-05 -1.47272e-06
3.17399e-05 0.000113598 1.88615e-06
-1.47272e-06 1.88615e-06 -2.32644e-06
0.00174864 -0.000227458 2.8464e-06
-0.000227458 -6.38572e-05 -2.07205e-06
2.8464e-06 -2.07205e-06 -4.70295e-05
0.000658939 -5.53928e-05 -2.89821e-07
-5.53928e-05 8.41297e-05 -2.22842e-07
-2.89821e-07 -2.22842e-07 -5.13278e-05
0.000435692 -7.50493e-05 8.07817e-07
-7.50493e-05 -1.62015e-05 -1.3514e-06
8.07817e-07 -1.3514e-06 -0.000166174
0.0021441 -0.00046547 5.28767e-06
-0.00046547 0.000191087 -6.07956e-07
5.28767e-06 -6.07956e-07 0.000176291
0.00116083 -0.00049983 8.24082e-07
-0.00049983 -0.000121195 4.02929e-06
8.24082e-07 4.02929e-06 -0.000284852
0.000873476 -0.000367595 9.7836e-06
-0.000367595 0.00011237 -4.33201e-06
9.7836e-06 -4.33201e-06 -0.000146915
0.00145957 -0.000117906 -5.10531e-07
-0.000117906 0.000677728 -3.34912e-06
-5.10531e-07 -3.34912e-06 0.000387262
0.00125515 -0.000320597 -2.02581e-05
-0.000320597 2.50979e-05 2.01965e-06
-2.02581e-05 2.01965e-06 -0.000223648
0.00120945 -0.000373471 -3.2306e-05
-0.000373471 -5.86676e-06 9.58781e-06
-3.2306e-05 9.58781e-06 -5.30611e-05
-4.20395e-05 -0.000219823 -2.22313e-05
-0.000219823 -0.000215992 3.85563e-05
-2.22313e-05 3.85563e-05 -0.000507169
0.000292998 2.52131e-05 1.45342e-07
2.52131e-05 -0.000123516 1.54579e-06
1.45342e-07 1.54579e-06 -0.000257347
0.000456867 -0.000105992 2.26966e-06
-0.000105992 -1.26099e-05 -1.15041e-06
2.26966e-06 -1.15041e-06 -0.000162696
0.000723598 -8.02639e-05 2.40672e-06
-8.02639e-05 0.000208149 -6.05927e-06
2.40672e-06 -6.05927e-06 -8.87311e-06
0.000283082 0.000182226 -0.000135705
0.000182226 0.00320643 1.93678e-06
-0.000135705 1.93678e-06 0.00171398
0.00193469 -0.000335296 1.78715e-05
-0.000335296 0.00144106 2.01093e-05
1.78715e-05 2.01093e-05 0.00133726
0.000572966 0.000618273 -6.20072e-05
0.000618273 -0.00286093 1.58463e-05
-6.20072e-05 1.58463e-05 -0.00343986
0.000707174 0.000148798 5.05312e-06
0.000148798 0.00013559 1.28733e-06
5.05312e-06 1.28733e-06 2.0406e-06
0.000700938 0.000223356 5.47013e-06
0.000223356 8.50971e-05 5.96011e-06
5.47013e-06 5.96011e-06 -0.000131079
0.0024566 0.00038811 2.04927e-05
0.00038811 0.000430811 1.08113e-05
2.04927e-05 1.08113e-05 0.000478296
0.00209161 0.000424537 1.77423e-05
0.000424537 0.000627249 1.22796e-05
1.77423e-05 1.22796e-05 0.000360263
0.0064764 -0.00067075 5.58264e-05
-0.00067075 0.00246726 3.45594e-05
5.58264e-05 3.45594e-05 0.00263449
0.00231362 -2.94112e-05 -0.000128285
-2.94112e-05 -0.00149297 -1.00387e-05
-0.000128285 -1.00387e-05 -0.00308588
0.00297385 0.00108727 -8.12108e-05
0.00108727 -0.000342208 -1.72584e-05
-8.12108e-05 -1.72584e-05 -0.0010625
0.000475717 0.000212758 2.62416e-05
0.000212758 -0.000153484 -2.15925e-05
2.62416e-05 -2.15925e-05 -0.000142692
-0.00361979 -0.000757323 -7.57025e-05
-0.000757323 -0.00108412 -0.000105909
-7.57025e-05 -0.000105909 -0.00144387
-0.000380481 -0.000712832 -6.80738e-05
-0.000712832 0.0011442 4.55142e-06
-6.80738e-05 4.55142e-06 -0.000520417
0.00830762 -0.00150416 0.000179016
-0.00150416 0.000821024 0.000139909
0.000179016 0.000139909 0.00220417
0.000651085 0.000110755 5.20903e-06
0.000110755 0.000129739 -2.4583e-06
5.20903e-06 -2.4583e-06 4.0875e-06
-0.00171468 1.34643e-05 -7.03827e-05
1.34643e-05 0.00170555 -2.17265e-05
-7.03827e-05 -2.17265e-05 -0.000221441
0.00320714 0.000262505 -1.56913e-05
0.000262505 0.00143449 -5.90317e-05
-1.56913e-05 -5.90317e-05 -0.000874176
0.00122124 0.000354893 -7.1446e-06
0.000354893 0.000111934 4.16215e-06
-7.1446e-06 4.16215e-06 5.87813e-05
0.000631271 0.000254454 -4.3337e-07
0.000254454 0.000125594 2.10863e-06
-4.3337e-07 2.10863e-06 -0.000111679
-0.000320813 0.000234781 2.84586e-05
0.000234781 -0.00031008 -3.41737e-05
2.84586e-05 -3.41737e-05 -0.000559802
0.00549624 0.00130719 -8.32048e-06
0.00130719 0.00181851 4.07856e-06
-8.32048e-06 4.07856e-06 0.00114936
0.0105163 0.000611699 5.30237e-05
0.000611699 0.00372208 2.01237e-05
5.30237e-05 2.01237e-05 0.00182645
0.00322811 -0.00102936 1.81986e-05
-0.00102936 -0.000667408 -3.4353e-05
1.81986e-05 -3.4353e-05 -0.000933323
0.00834434 -0.000989592 9.29591e-06
-0.000989592 0.00105544 -2.79512e-05
9.29591e-06 -2.79512e-05 0.00223266
0.00120727 0.000207853 -1.43433e-05
0.000207853 0.00050238 -9.33783e-06
-1.43433e-05 -9.33783e-06 0.00037647
0.00255082 3.15698e-05 -9.54636e-05
3.15698e-05 0.000837435 -3.42761e-05
-9.54636e-05 -3.42761e-05 -0.000637118
5.95503e-05 7.31597e-05 -2.8198e-05
7.31597e-05 0.000196373 -8.52813e-05
-2.8198e-05 -8.52813e-05 -0.00133398
-0.00100353 4.90715e-05 -1.57471e-05
4.90715e-05 -0.000488997 -1.76622e-05
-1.57471e-05 -1.76622e-05 -0.000641394
0.0018502 0.000362809 -3.47455e-05
0.000362809 0.000798465 4.32196e-05
-3.47455e-05 4.32196e-05 0.000124796
0.0094797 0.000938302 3.56991e-05
0.000938302 0.00389289 -4.08215e-07
3.56991e-05 -4.08215e-07 0.00107041
-0.0068175 -0.00152564 -3.99983e-05
-0.00152564 -0.00386719 0.000104585
-3.99983e-05 0.000104585 -0.00571385
0.00675812 0.000352686 9.58532e-06
0.000352686 -0.000801342 -0.000145119
9.58532e-06 -0.000145119 0.000853482
0.000988617 9.56289e-05 2.52041e-06
9.56289e-05 0.000256137 6.38458e-06
2.52041e-06 6.38458e-06 0.000172862
0.000898478 0.000107459 -4.05957e-06
0.000107459 0.000266186 -1.02394e-06
-4.05957e-06 -1.02394e-06 0.000175761
0.000176602 5.96631e-05 -3.35527e-06
5.96631e-05 -1.39489e-05 -6.57402e-07
-3.35527e-06 -6.57402e-07 -0.000147462
0.000793943 7.8388e-05 -2.28003e-06
7.8388e-05 0.000134133 -8.91462e-07
-2.28003e-06 -8.91462e-07 2.29643e-05
0.00085432 -2.95644e-05 -6.85238e-07
-2.95644e-05 0.000169023 6.65312e-07
-6.85238e-07 6.65312e-07 4.96273e-05
0.000678268 3.64745e-05 6.3623e-07
3.64745e-05 4.91675e-05 1.47452e-06
6.3623e-07 1.47452e-06 -4.91801e-05
0.000207816 3.02768e-05 1.44821e-06
3.02768e-05 -0.000166542 2.18674e-06
1.44821e-06 2.18674e-06 -0.000262268
0.000840297 -1.84119e-06 9.85516e-07
-1.84119e-06 0.0001539 1.20451e-07
9.85516e-07 1.20451e-07 3.18477e-05
0.000867568 1.89959e-05 1.06158e-07
1.89959e-05 0.000174274 -7.61997e-07
1.06158e-07 -7.61997e-07 6.56832e-05
0.000311158 -1.00375e-06 -3.30543e-07
-1.00375e-06 6.28883e-06 2.01147e-06
-3.30543e-07 2.01147e-06 -0.000112845
-0.000122187 1.93352e-05 -5.52024e-06
1.93352e-05 -7.37338e-05 -1.41947e-06
-5.52024e-06 -1.41947e-06 -0.000226786
0.000879975 -1.09542e-05 -2.21576e-06
-1.09542e-05 0.000294462 -7.34486e-06
-2.21576e-06 -7.34486e-06 0.000181747
0.000953156 4.32227e-05 -1.26707e-06
4.32227e-05 0.000232559 -3.27315e-06
-1.26707e-06 -3.27315e-06 0.000109038
0.000867508 -9.50601e-05 1.56112e-06
-9.50601e-05 0.000168634 8.82201e-07
1.56112e-06 8.82201e-07 5.88091e-05
0.000770924 1.92279e-05 -3.4906e-07
1.92279e-05 0.000115486 -5.36005e-08
-3.4906e-07 -5.36005e-08 1.79144e-05
0.000687905 -4.49914e-05 -2.00592e-06
-4.49914e-05 6.07137e-05 2.55463e-06
-2.00592e-06 2.55463e-06 -2.73151e-05
0.000552485 -2.51626e-05 1.35048e-06
-2.51626e-05 -4.88562e-06 1.09583e-06
1.35048e-06 1.09583e-06 -0.000106214
0.000732568 2.05255e-05 3.01706e-07
2.05255e-05 0.000100075 1.12599e-07
3.01706e-07 1.12599e-07 1.91369e-06
0.000642385 -1.22378e-05 -7.36142e-07
-1.22378e-05 3.46316e-05 1.38852e-08
-7.36142e-07 1.38852e-08 -5.17863e-05
0.000913107 -5.77839e-06 -3.04897e-07
-5.77839e-06 0.000183463 -2.26373e-06
-3.04897e-07 -2.26373e-06 9.24353e-05
0.000171802 -3.19326e-05 2.86804e-06
-3.19326e-05 -0.000197964 -3.83692e-06
2.86804e-06 -3.83692e-06 -0.000275133
0.000343377 -8.55245e-05 1.52809e-06
-8.55245e-05 -0.000204794 -1.17119e-06
1.52809e-06 -1.17119e-06 -0.000299828
0.000883962 -4.26731e-05 -2.14274e-06
-4.26731e-05 0.000160835 -3.57144e-07
-2.14274e-06 -3.57144e-07 6.11897e-05
0.000480378 -8.43689e-05 4.39009e-06
-8.43689e-05 -4.79635e-05 2.27188e-06
4.39009e-06 2.27188e-06 -0.000184459
0.00115559 -0.000219773 -9.18761e-07
-0.000219773 0.000309093 6.38579e-06
-9.18761e-07 6.38579e-06 9.84219e-05
0.00123872 -9.55253e-05 1.73174e-06
-9.55253e-05 0.000407455 -1.4434e-06
1.73174e-06 -1.4434e-06 0.000280209
0.000332737 -6.4475e-05 -1.84995e-06
-6.4475e-05 -0.000107995 -4.22297e-06
-1.84995e-06 -4.22297e-06 -0.000253483
0.000639362 4.17001e-06 -3.06826e-07
4.17001e-06 4.90412e-05 -2.04623e-07
-3.06826e-07 -2.04623e-07 -5.43037e-05
0.000376633 7.30646e-06 4.88793e-07
7.30646e-06 -0.000102415 2.41596e-09
4.88793e-07 2.41596e-09 -0.000198026
0.000850065 -3.18114e-06 -2.77906e-07
-3.18114e-06 0.000164243 8.05382e-07
-2.77906e-07 8.05382e-07 6.30977e-05
0.000748383 -2.5957e-05 -5.65946e-07
-2.5957e-05 0.000111201 5.47356e-07
-5.65946e-07 5.47356e-07 1.54609e-05
0.000647052 -8.08324e-06 -6.87601e-07
-8.08324e-06 3.38221e-05 8.72947e-07
-6.87601e-07 8.72947e-07 -3.9291e-05
0.000827022 -4.48455e-05 2.13421e-07
-4.48455e-05 0.000169654 -4.88261e-07
2.13421e-07 -4.88261e-07 6.46537e-05
0.000694381 -4.15813e-05 -5.31504e-07
-4.15813e-05 6.60657e-05 -8.88992e-09
-5.31504e-07 -8.88992e-09 -1.04657e-05
0.000622254 3.18186e-05 -1.79941e-06
3.18186e-05 1.41212e-06 1.81324e-06
-1.79941e-06 1.81324e-06 -4.84163e-05
0.000729038 -7.17807e-05 1.6632e-06
-7.17807e-05 8.82213e-05 -1.04602e-06
1.6632e-06 -1.04602e-06 8.33683e-06
0.000663108 -2.28393e-06 -2.76221e-07
-2.28393e-06 2.29464e-05 2.4542e-08
-2.76221e-07 2.4542e-08 -2.5292e-05
0.00136263 3.43278e-05 -7.06371e-06
3.43278e-05 0.000421604 5.29187e-06
-7.06371e-06 5.29187e-06 0.000410233
0.00063993 -2.18087e-05 1.86547e-06
-2.18087e-05 1.44184e-05 -1.99421e-06
1.86547e-06 -1.99421e-06 -3.53345e-05
0.000972451 2.24968e-05 -3.41753e-06
2.24968e-05 0.000190548 7.14368e-07
-3.41753e-06 7.14368e-07 0.000177757
0.000792089 2.28941e-05 -6.2161e-07
2.28941e-05 8.6872e-05 2.01947e-06
-6.2161e-07 2.01947e-06 9.41962e-05
0.000572519 1.16103e-05 4.73209e-07
1.16103e-05 -4.60722e-05 -3.78217e-06
4.73209e-07 -3.78217e-06 -6.04092e-05
0.0015565 2.22383e-05 5.41277e-06
2.22383e-05 0.000534335 -1.4798e-06
5.41277e-06 -1.4798e-06 0.000546367
0.00233411 1.55163e-05 4.07514e-06
1.55163e-05 0.000991733 -5.09624e-06
4.07514e-06 -5.09624e-06 0.00100785
0.000731696 1.94457e-06 1.02736e-06
1.94457e-06 9.02924e-05 -1.36147e-06
1.02736e-06 -1.36147e-06 1.22203e-05
0.000665173 2.34183e-05 -6.06354e-07
2.34183e-05 2.98976e-05 -2.04287e-06
-6.06354e-07 -2.04287e-06 -1.13337e-05
0.00072549 -2.46136e-06 1.01381e-06
-2.46136e-06 9.28247e-05 2.39237e-07
1.01381e-06 2.39237e-07 1.72718e-05
0.000609581 -3.34804e-06 1.25501e-07
-3.34804e-06 -2.87511e-05 -3.51694e-06
1.25501e-07 -3.51694e-06 -3.57648e-05
0.000629067 1.85454e-05 5.33804e-08
1.85454e-05 9.84875e-06 -1.42312e-08
5.33804e-08 -1.42312e-08 -2.91011e-05
0.00067124 -8.10234e-05 -3.31153e-06
-8.10234e-05 6.20949e-05 1.69458e-06
-3.31153e-06 1.69458e-06 -1.1204e-05
0.0020384 8.10615e-07 -1.29764e-06
8.10615e-07 0.000816461 -4.7367e-06
-1.29764e-06 -4.7367e-06 0.000836108
0.000605869 2.43085e-06 -1.65234e-07
2.43085e-06 -3.09496e-05 -8.61592e-09
-1.65234e-07 -8.61592e-09 -3.72143e-05
0.000615769 -1.7737e-05 -1.25258e-06
-1.7737e-05 4.35251e-07 1.67321e-06
-1.25258e-06 1.67321e-06 -3.66047e-05
0.000589781 7.86417e-06 -3.56581e-07
7.86417e-06 -4.01115e-05 3.30329e-06
-3.56581e-07 3.30329e-06 -4.63348e-05
0.0020457 1.43481e-05 -3.6083e-06
1.43481e-05 0.000822204 -4.33175e-08
-3.6083e-06 -4.33175e-08 0.000841479
0.00203806 2.58732e-05 -1.00511e-05
2.58732e-05 0.000820072 4.37829e-06
-1.00511e-05 4.37829e-06 0.000838756
-0.00366331 -0.000259866 -4.05186e-05
-0.000259866 0.00109607 1.45341e-05
-4.05186e-05 1.45341e-05 -0.000821969
-0.000989725 0.000427418 -6.14753e-05
0.000427418 -0.000469655 1.49637e-05
-6.14753e-05 1.49637e-05 -0.000933399
0.00354921 -0.000291206 -0.000198704
-0.000291206 0.00107816 0.000149272
-0.000198704 0.000149272 -0.000967767
-0.00281452 0.00013685 0.000282979
0.00013685 0.00150684 -0.000124746
0.000282979 -0.000124746 0.000269668
0.000801045 0.000210284 -4.50748e-05
0.000210284 -0.000918217 9.80017e-06
-4.50748e-05 9.80017e-06 -0.00100488
0.00234425 -0.000148011 9.79941e-05
-0.000148011 9.57978e-05 -9.80752e-06
9.79941e-05 -9.80752e-06 7.68518e-05
0.00146835 -0.000409502 -5.14385e-05
-0.000409502 -0.00174333 -5.54684e-05
-5.14385e-05 -5.54684e-05 -0.0030042
0.00912891 0.000900686 -8.48071e-05
0.000900686 0.00448575 -1.99549e-05
-8.48071e-05 -1.99549e-05 0.00399912
-0.00759013 0.00189306 -0.000480737
0.00189306 -0.00375999 0.000372949
-0.000480737 0.000372949 -0.00188127
0.00256219 -7.76807e-05 -8.69317e-06
-7.76807e-05 -0.000230034 -4.96741e-06
-8.69317e-06 -4.96741e-06 -0.0003889
0.00439408 -0.000321756 4.10472e-05
-0.000321756 -7.048e-05 -5.31737e-05
4.10472e-05 -5.31737e-05 -0.00209501
0.00971324 0.00167578 -6.21101e-05
0.00167578 0.00307315 -6.89447e-05
-6.21101e-05 -6.89447e-05 0.00366226
0.00284843 0.00116882 -6.05872e-05
0.00116882 -0.00132326 0.000145365
-6.05872e-05 0.000145365 -0.000895048
0.00270393 -0.000596221 -6.09844e-05
-0.000596221 -0.000526451 1.78413e-05
-6.09844e-05 1.78413e-05 -0.00069044
0.00269403 -0.000746622 0.000173123
-0.000746622 0.000251631 -0.000117909
0.000173123 -0.000117909 -0.00287358
-0.00494845 0.000826473 -5.88862e-05
0.000826473 -0.00438796 -0.000279691
-5.88862e-05 -0.000279691 -0.00441087
0.00277406 0.00071847 -6.12754e-05
0.00071847 -0.0029103 5.62697e-07
-6.12754e-05 5.62697e-07 -0.00175157
0.000862285 -1.45815e-05 6.91012e-07
-1.45815e-05 0.000207116 1.38888e-06
6.91012e-07 1.38888e-06 7.35262e-05
0.0007163 6.04886e-05 -1.79988e-06
6.04886e-05 0.00011493 -9.80005e-07
-1.79988e-06 -9.80005e-07 -9.65634e-07
0.000664407 5.70455e-05 8.70572e-08
5.70455e-05 6.21404e-05 -1.14053e-06
8.70572e-08 -1.14053e-06 -2.12474e-05
0.000654963 6.64221e-05 2.80643e-06
6.64221e-05 8.31503e-05 1.42171e-06
2.80643e-06 1.42171e-06 -2.32814e-05
0.000674576 3.89842e-05 8.83484e-08
3.89842e-05 8.33464e-05 7.19128e-07
8.83484e-08 7.19128e-07 -5.16813e-05
0.00080692 7.46997e-05 1.29471e-07
7.46997e-05 0.00016572 1.11041e-06
1.29471e-07 1.11041e-06 4.56061e-05
0.000657805 2.13925e-05 -8.04974e-07
2.13925e-05 7.21292e-05 1.18442e-06
-8.04974e-07 1.18442e-06 -3.48485e-05
0.00088949 0.00011638 5.01377e-07
0.00011638 0.000215612 8.39275e-07
5.01377e-07 8.39275e-07 8.94997e-05
0.000842155 6.77266e-05 -1.5293e-07
6.77266e-05 0.00018627 4.51922e-07
-1.5293e-07 4.51922e-07 6.84976e-05
0.000562202 -5.04532e-06 -2.22104e-06
-5.04532e-06 1.75369e-05 -3.88409e-07
-2.22104e-06 -3.88409e-07 -8.78681e-05
0.00100068 -0.000204992 3.50918e-05
-0.000204992 -0.000435073 -1.58886e-05
3.50918e-05 -1.58886e-05 -0.000401686
0.000878365 -0.000402274 2.87482e-05
-0.000402274 -0.000472829 -5.02915e-06
2.87482e-05 -5.02915e-06 -0.00049252
0.00159735 -0.000538384 1.61357e-05
-0.000538384 0.000108857 -1.35906e-06
1.61357e-05 -1.35906e-06 -5.75221e-05
0.000692687 -0.000384426 8.02361e-06
-0.000384426 3.35296e-06 -1.48427e-05
8.02361e-06 -1.48427e-05 -0.000285942
0.00164621 -0.000145363 -1.35225e-06
-0.000145363 0.000747665 1.25442e-05
-1.35225e-06 1.25442e-05 0.000481788
0.000663468 -8.77057e-05 -1.05439e-06
-8.77057e-05 0.000120686 3.77569e-06
-1.05439e-06 3.77569e-06 -3.67735e-05
0.000590347 7.07621e-05 -3.97911e-07
7.07621e-05 5.05624e-05 -1.51153e-06
-3.97911e-07 -1.51153e-06 -8.78714e-05
0.000760901 -5.02959e-05 -4.93859e-07
-5.02959e-05 0.0001511 1.86741e-06
-4.93859e-07 1.86741e-06 6.8743e-06
0.00153464 -0.000297779 -1.21804e-06
-0.000297779 0.000124292 -4.30724e-07
-1.21804e-06 -4.30724e-07 -3.2927e-05
0.000781911 -1.05462e-05 1.73272e-07
-1.05462e-05 0.000171399 6.6505e-07
1.73272e-07 6.6505e-07 1.93873e-05
0.00134559 -0.000121835 -6.95247e-08
-0.000121835 0.00056856 9.07006e-08
-6.95247e-08 9.07006e-08 0.000340801
0.00122512 -0.000382361 -1.20769e-06
-0.000382361 -2.60086e-05 -8.24266e-07
-1.20769e-06 -8.24266e-07 -6.73809e-05
0.000846352 -0.00025915 -1.511e-05
-0.00025915 0.000247832 4.94434e-06
-1.511e-05 4.94434e-06 -3.04739e-05
0.000304964 -0.000420301 -1.39274e-05
-0.000420301 -0.000561684 -2.19832e-05
-1.39274e-05 -2.19832e-05 -0.000539095
0.000978287 -0.00019886 -2.06593e-05
-0.00019886 0.00030455 2.26547e-05
-2.06593e-05 2.26547e-05 0.000207269
-0.000338405 -4.51931e-05 -3.01757e-06
-4.51931e-05 -0.00033157 2.67132e-05
-3.01757e-06 2.67132e-05 -0.000574507
0.000670436 5.87075e-06 -2.09435e-07
5.87075e-06 8.02601e-05 -1.85071e-06
-2.09435e-07 -1.85071e-06 -5.72463e-05
0.000598194 2.93633e-05 1.43687e-06
2.93633e-05 0.000138297 -4.38374e-06
1.43687e-06 -4.38374e-06 -6.80886e-05
0.00169749 -4.40685e-05 -1.55202e-05
-4.40685e-05 0.000912431 -5.46399e-06
-1.55202e-05 -5.46399e-06 -0.000461912
-0.00207313 6.92738e-05 -0.000107752
6.92738e-05 0.00232249 -5.0508e-06
-0.000107752 -5.0508e-06 0.000517605
-0.00905241 -0.00045567 -0.000280307
-0.00045567 -0.00475009 5.3617e-06
-0.000280307 5.3617e-06 -0.00462437
-0.000107228 8.58741e-05 5.74067e-06
8.58741e-05 -0.000278825 -1.9673e-06
5.74067e-06 -1.9673e-06 -0.00041625
0.000161711 0.000139831 2.72696e-06
0.000139831 -0.000111505 5.15395e-06
2.72696e-06 5.15395e-06 -0.000342026
0.00176784 0.000347084 1.73235e-05
0.000347084 0.000397911 3.91095e-06
1.73235e-05 3.91095e-06 0.000342923
-0.00352816 0.000316189 -2.45804e-05
0.000316189 0.00095919 1.10019e-05
-2.45804e-05 1.10019e-05 -0.00112898
0.0016983 0.000578224 -7.76443e-05
0.000578224 0.000137704 -7.375e-05
-7.76443e-05 -7.375e-05 -0.00293847
0.0029432 0.000980104 0.000123872
0.000980104 0.000381827 2.57648e-05
0.000123872 2.57648e-05 -0.000122663
0.000423453 0.000293277 7.68677e-06
0.000293277 -3.96984e-05 -2.24121e-05
7.68677e-06 -2.24121e-05 -9.14875e-05
0.0116403 -0.00119897 1.44307e-05
-0.00119897 0.00343042 -9.04333e-05
1.44307e-05 -9.04333e-05 0.00323142
0.0037636 0.000286295 0.000119118
0.000286295 0.0017073 7.05228e-05
0.000119118 7.05228e-05 -0.000670218
0.00832672 -0.000877262 5.00641e-05
-0.000877262 0.00124376 8.44956e-06
5.00641e-05 8.44956e-06 0.00248814
0.0010214 0.000188087 3.26261e-06
0.000188087 0.000435529 -1.67093e-06
3.26261e-06 -1.67093e-06 0.000305792
0.00298613 3.87541e-05 6.78386e-06
3.87541e-05 0.00128241 -5.07122e-06
6.78386e-06 -5.07122e-06 3.54354e-06
0.000590475 9.95086e-05 1.15405e-05
9.95086e-05 0.000186799 1.24276e-05
1.15405e-05 1.24276e-05 -0.00135631
-0.000239495 0.000179709 -7.569e-06
0.000179709 -0.000142317 -1.3869e-06
-7.569e-06 -1.3869e-06 -0.000331514
0.00245038 0.000555933 -6.76415e-05
0.000555933 0.000924148 -3.70265e-05
-6.76415e-05 -3.70265e-05 0.000189713
0.00256537 0.00136738 6.42725e-05
0.00136738 0.000768969 5.12224e-05
6.42725e-05 5.12224e-05 -0.00228607
0.00523684 0.000142585 -9.66388e-06
0.000142585 -0.00222184 -9.7039e-05
-9.66388e-06 -9.7039e-05 -0.000167121
0.00174101 -0.00094405 -2.6376e-05
-0.00094405 0.000186674 -3.37137e-05
-2.6376e-05 -3.37137e-05 -0.00115015
0.000764549 0.000131514 -7.9469e-06
0.000131514 0.000481159 -1.09115e-05
-7.9469e-06 -1.09115e-05 0.000334252
0.00078154 -6.04481e-05 -6.67334e-06
-6.04481e-05 0.000113705 -1.55903e-05
-6.67334e-06 -1.55903e-05 2.81511e-05
0.00255542 4.18433e-06 2.26426e-05
4.18433e-06 0.000322498 -7.29645e-05
2.26426e-05 -7.29645e-05 -0.000810028
0.00296968 0.000756622 6.78536e-05
0.000756622 -0.00276577 1.59585e-07
6.78536e-05 1.59585e-07 -0.00171795
-0.000758121 8.31703e-05 -5.30455e-06
8.31703e-05 -8.38975e-05 -1.82374e-05
-5.30455e-06 -1.82374e-05 -0.000547059
0.0101742 0.00103889 0.000114762
0.00103889 0.00486865 4.74007e-05
0.000114762 4.74007e-05 0.00146117
-0.00909758 -0.000303549 6.39169e-05
-0.000303549 -0.000868835 0.000163679
6.39169e-05 0.000163679 -0.00262315
0.00190409 0.000195557 1.59013e-05
0.000195557 0.000855083 7.24192e-06
1.59013e-05 7.24192e-06 0.000752103
0.000569402 0.000107861 -4.07856e-06
0.000107861 0.000192815 -1.84105e-07
-4.07856e-06 -1.84105e-07 5.02243e-05
0.000341534 8.007e-05 -5.71001e-06
8.007e-05 0.000259023 -7.77587e-07
-5.71001e-06 -7.77587e-07 9.20604e-05
0.000792609 0.000129494 9.57325e-07
0.000129494 0.000135376 1.12316e-06
9.57325e-07 1.12316e-06 7.77398e-06
0.000723147 5.32667e-05 8.43647e-07
5.32667e-05 8.67205e-05 1.47837e-06
8.43647e-07 1.47837e-06 -1.77622e-05
0.000783332 2.95878e-07 5.82246e-06
2.95878e-07 0.000294157 6.25356e-06
5.82246e-06 6.25356e-06 0.000162251
0.000693925 4.27232e-05 -1.79653e-07
4.27232e-05 7.58399e-05 -1.81117e-07
-1.79653e-07 -1.81117e-07 -3.99335e-05
0.000762518 -2.52377e-05 -7.44937e-07
-2.52377e-05 0.000231271 -1.4332e-06
-7.44937e-07 -1.4332e-06 0.000115146
0.000143195 2.33338e-05 7.40818e-06
2.33338e-05 7.31337e-05 3.10927e-06
7.40818e-06 3.10927e-06 -8.46978e-05
0.00104802 1.50712e-05 -1.05082e-05
1.50712e-05 0.000542368 -1.03333e-05
-1.05082e-05 -1.03333e-05 0.000455704
0.000138307 -3.39398e-05 -2.80116e-06
-3.39398e-05 -0.000147829 -7.6008e-06
-2.80116e-06 -7.6008e-06 -0.000253629
0.000614456 -3.53553e-05 1.66528e-06
-3.53553e-05 1.92713e-05 3.33466e-06
1.66528e-06 3.33466e-06 -7.38058e-05
0.00078663 2.08124e-05 -3.9231e-07
2.08124e-05 0.000131887 8.11449e-08
-3.9231e-07 8.11449e-08 3.24731e-05
0.000817166 -3.21768e-06 -4.61006e-06
-3.21768e-06 0.000135555 3.08214e-06
-4.61006e-06 3.08214e-06 4.92475e-05
0.000721051 -3.63819e-05 2.37833e-06
-3.63819e-05 0.000112386 2.61868e-07
2.37833e-06 2.61868e-07 3.34193e-05
0.000658341 2.64168e-06 -3.70351e-07
2.64168e-06 4.07166e-05 1.93021e-07
-3.70351e-07 1.93021e-07 -5.18775e-05
0.000755001 -8.15137e-05 2.8176e-06
-8.15137e-05 0.000116482 -4.01046e-07
2.8176e-06 -4.01046e-07 2.17164e-05
0.000477028 -7.37874e-05 -1.9902e-06
-7.37874e-05 -9.56197e-05 -1.09428e-06
-1.9902e-06 -1.09428e-06 -0.000179643
0.000190952 -0.000152005 7.35217e-06
-0.000152005 -0.000235223 -6.58722e-07
7.35217e-06 -6.58722e-07 -0.00040477
0.00101745 -6.83591e-05 -9.46033e-07
-6.83591e-05 0.000242416 1.04886e-06
-9.46033e-07 1.04886e-06 0.000137848
0.00107466 -0.000139795 -4.77828e-07
-0.000139795 0.000282963 2.27056e-06
-4.77828e-07 2.27056e-06 0.000136433
0.000409922 -0.000180777 -1.61722e-06
-0.000180777 -0.0001613 3.9756e-06
-1.61722e-06 3.9756e-06 -0.000362943
0.000794857 -0.000194257 -4.74393e-06
-0.000194257 6.58232e-05 -7.19238e-08
-4.74393e-06 -7.19238e-08 -0.000141866
0.000956047 -0.000161872 -1.8627e-06
-0.000161872 0.000262549 3.40954e-06
-1.8627e-06 3.40954e-06 9.47763e-05
0.000521837 -0.000157937 1.40092e-06
-0.000157937 -5.273e-05 1.95201e-08
1.40092e-06 1.95201e-08 -0.000251308
0.000844417 -5.60749e-05 8.95995e-07
-5.60749e-05 0.000168252 1.02101e-07
8.95995e-07 1.02101e-07 5.69632e-05
0.00103866 -9.07314e-05 -1.26833e-06
-9.07314e-05 0.00030061 -6.313e-07
-1.26833e-06 -6.313e-07 0.000168759
0.000531516 -8.71317e-05 1.49012e-06
-8.71317e-05 1.87096e-05 -8.33605e-06
1.49012e-06 -8.33605e-06 -0.000124943
0.000964056 -9.5579e-06 -7.58914e-07
-9.5579e-06 0.000229221 -2.17689e-07
-7.58914e-07 -2.17689e-07 0.000127873
0.000524135 1.22426e-07 2.62151e-07
1.22426e-07 -1.53504e-05 -6.11177e-08
2.62151e-07 -6.11177e-08 -0.000112648
0.000641649 4.40823e-06 -3.54695e-07
4.40823e-06 3.30207e-05 6.38791e-07
-3.54695e-07 6.38791e-07 -4.45242e-05
0.000800211 -4.19963e-05 8.49111e-09
-4.19963e-05 0.000149656 2.92709e-07
8.49111e-09 2.92709e-07 4.64054e-05
0.000693622 -2.42882e-05 -2.1537e-07
-2.42882e-05 6.74999e-05 2.61782e-08
-2.1537e-07 2.61782e-08 -1.09658e-05
0.000623916 3.16374e-05 -8.12909e-07
3.16374e-05 6.7271e-06 1.81233e-06
-8.12909e-07 1.81233e-06 -4.5831e-05
0.000743791 -5.79661e-05 7.30046e-07
-5.79661e-05 0.000100784 -1.10783e-06
7.30046e-07 -1.10783e-06 1.95131e-05
0.000643365 2.31497e-05 -7.80577e-07
2.31497e-05 1.37556e-05 -4.1808e-08
-7.80577e-07 -4.1808e-08 -3.64479e-05
0.00132853 4.5762e-05 -8.09204e-06
4.5762e-05 0.000405266 3.54081e-06
-8.09204e-06 3.54081e-06 0.000393015
0.000668737 -1.46405e-05 2.13834e-06
-1.46405e-05 2.66951e-05 -2.02795e-06
2.13834e-06 -2.02795e-06 -2.20057e-05
0.000954443 3.1281e-05 -4.31623e-06
3.1281e-05 0.000181358 6.30048e-07
-4.31623e-06 6.30048e-07 0.000168216
0.000807795 3.11657e-05 -1.18614e-06
3.11657e-05 0.000100267 2.05639e-06
-1.18614e-06 2.05639e-06 0.00010654
0.000556889 1.82906e-05 7.76778e-07
1.82906e-05 -5.52175e-05 -3.93362e-06
7.76778e-07 -3.93362e-06 -6.96199e-05
0.00155939 3.31291e-05 7.33082e-06
3.31291e-05 0.00053944 -1.35152e-06
7.33082e-06 -1.35152e-06 0.000550459
0.00233235 2.93557e-05 7.93883e-06
2.93557e-05 0.000992921 -4.96751e-06
7.93883e-06 -4.96751e-06 0.00100841
0.00046703 3.08498e-06 5.54406e-07
3.08498e-06 -5.40811e-05 -1.30688e-06
5.54406e-07 -1.30688e-06 -0.000149245
0.000365899 3.67858e-07 -1.65293e-07
3.67858e-07 -0.00014526 -3.15223e-06
-1.65293e-07 -3.15223e-06 -0.000193753
0.000765185 1.30747e-05 8.66053e-08
1.30747e-05 0.000115121 9.7038e-08
8.66053e-08 9.7038e-08 3.3215e-05
0.000604417 -9.22151e-06 1.2324e-07
-9.22151e-06 -3.12017e-05 -3.69977e-06
1.2324e-07 -3.69977e-06 -3.99441e-05
0.000486688 5.26932e-06 9.45544e-07
5.26932e-06 -7.47484e-05 -5.1161e-08
9.45544e-07 -5.1161e-08 -0.000117184
0.000458135 -7.3645e-05 -9.41032e-07
-7.3645e-05 -6.1797e-05 1.30274e-06
-9.41032e-07 1.30274e-06 -0.000140112
0.0020867 -1.1731e-05 -5.66265e-06
-1.1731e-05 0.000845083 -4.79172e-06
-5.66265e-06 -4.79172e-06 0.000864223
0.000607481 -3.34036e-06 -1.17872e-07
-3.34036e-06 -2.99416e-05 -3.41645e-08
-1.17872e-07 -3.41645e-08 -3.69068e-05
0.00061214 -6.57659e-06 -1.25976e-06
-6.57659e-06 -6.15056e-07 1.88779e-06
-1.25976e-06 1.88779e-06 -3.90509e-05
0.00205033 2.10895e-06 -3.65612e-06
2.10895e-06 0.000823565 7.22861e-09
-3.65612e-06 7.22861e-09 0.000843164
0.000593548 2.30626e-06 -2.05491e-07
2.30626e-06 -3.79475e-05 3.34977e-06
-2.05491e-07 3.34977e-06 -4.41825e-05
0.00204582 1.5672e-05 -3.12465e-06
1.5672e-05 0.000822411 4.56138e-06
-3.12465e-06 4.56138e-06 0.00084163
0.000586502 -0.000134466 -8.14948e-05
-0.000134466 -0.000166284 2.66586e-05
-8.14948e-05 2.66586e-05 -0.00150791
0.0015169 0.000145738 -2.12672e-05
0.000145738 0.00299534 -1.00362e-05
-2.12672e-05 -1.00362e-05 0.00181943
0.00126816 -0.00032469 -0.000212661
-0.00032469 0.001892 -4.04146e-06
-0.000212661 -4.04146e-06 0.00105309
0.000753855 7.0371e-05 9.84918e-07
7.0371e-05 0.000118025 3.92856e-07
9.84918e-07 3.92856e-07 -4.27235e-06
0.00368283 -0.0002082 -3.00115e-05
-0.0002082 0.00217986 8.62747e-05
-3.00115e-05 8.62747e-05 0.00110189
0.00340295 -0.000332112 -7.04136e-05
-0.000332112 0.00112718 7.90636e-06
-7.04136e-05 7.90636e-06 -0.00116879
0.00176676 0.000577749 0.000142359
0.000577749 0.00276467 -0.000141049
0.000142359 -0.000141049 0.00196018
0.00394786 -0.000203566 1.86301e-05
-0.000203566 0.00028353 -3.1254e-05
1.86301e-05 -3.1254e-05 2.22036e-05
0.0109027 -0.000239493 9.83499e-05
-0.000239493 0.00316536 -5.30655e-05
9.83499e-05 -5.30655e-05 0.00149586
-0.0028718 0.00128118 -0.00010593
0.00128118 -0.00374242 0.000125206
-0.00010593 0.000125206 -0.002937
0.00501124 0.00129211 2.77506e-05
0.00129211 1.19477e-05 4.29748e-05
2.77506e-05 4.29748e-05 0.000392349
0.00477457 -0.000725726 -8.33654e-05
-0.000725726 0.00032054 5.89546e-09
-8.33654e-05 5.89546e-09 -0.000198148
0.00992164 -0.000582284 5.4417e-05
-0.000582284 0.00377741 -1.42711e-05
5.4417e-05 -1.42711e-05 0.00169032
0.00597963 0.000872452 5.45302e-05
0.000872452 0.000380089 -0.000100293
5.45302e-05 -0.000100293 0.000152624
0.00485414 0.000664991 -1.24909e-05
0.000664991 -0.00156958 1.10194e-05
-1.24909e-05 1.10194e-05 -0.000544119
0.00452148 -0.00119964 9.46392e-06
-0.00119964 0.000634626 -2.87359e-06
9.46392e-06 -2.87359e-06 -0.000290167
0.0108451 -0.0011179 7.41801e-05
-0.0011179 0.00525594 -4.24706e-05
7.41801e-05 -4.24706e-05 0.00166156
0.00297485 -0.000173526 5.79419e-05
-0.000173526 0.000108818 -0.000153532
5.79419e-05 -0.000153532 -0.000194644
0.00655253 0.000296849 -2.91844e-05
0.000296849 -0.000771348 7.9564e-05
-2.91844e-05 7.9564e-05 0.000866928
0.000712033 -2.9812e-05 -1.41804e-09
-2.9812e-05 0.000109131 7.47073e-07
-1.41804e-09 7.47073e-07 -3.29282e-05
0.000744491 -4.57604e-05 2.46473e-07
-4.57604e-05 0.000142026 1.00336e-08
2.46473e-07 1.00336e-08 4.60941e-06
0.000825115 8.58723e-05 -9.33588e-07
8.58723e-05 0.000183823 -1.07268e-06
-9.33588e-07 -1.07268e-06 6.58759e-05
0.000739552 3.29368e-05 2.43562e-07
3.29368e-05 0.000100222 1.05062e-06
2.43562e-07 1.05062e-06 -1.99497e-05
0.000829629 8.49207e-05 -7.10835e-07
8.49207e-05 0.000179115 6.96192e-07
-7.10835e-07 6.96192e-07 4.36751e-05
0.000854973 6.26807e-05 -9.52656e-08
6.26807e-05 0.000192727 1.37945e-06
-9.52656e-08 1.37945e-06 7.46441e-05
0.000967662 0.000108455 -8.23985e-07
0.000108455 0.000258392 -2.7817e-08
-8.23985e-07 -2.7817e-08 0.000133692
0.000969141 0.000113901 7.82328e-07
0.000113901 0.000269532 2.34719e-06
7.82328e-07 2.34719e-06 0.000146852
0.000872904 -0.000219948 4.98329e-05
-0.000219948 -0.000296557 -1.78636e-05
4.98329e-05 -1.78636e-05 -0.000336997
0.00113325 -0.000376275 7.8712e-06
-0.000376275 -0.000102147 -1.55325e-05
7.8712e-06 -1.55325e-05 -0.000135385
0.000750743 -0.000151958 -1.22046e-06
-0.000151958 0.000151438 -4.27873e-07
-1.22046e-06 -4.27873e-07 -3.58287e-07
0.00237427 -0.000341293 1.27712e-05
-0.000341293 0.00106952 -2.49567e-05
1.27712e-05 -2.49567e-05 0.000801785
0.00203543 -0.00016189 -2.89416e-06
-0.00016189 0.000957611 6.92314e-06
-2.89416e-06 6.92314e-06 0.000725521
0.000934037 -6.16446e-05 -1.75859e-06
-6.16446e-05 0.000249774 -2.02093e-06
-1.75859e-06 -2.02093e-06 0.000100367
0.000743425 1.0116e-05 4.2363e-07
1.0116e-05 0.000133552 8.69975e-07
4.2363e-07 8.69975e-07 -1.0161e-05
0.000237269 -0.000422947 -9.87263e-06
-0.000422947 -0.00063105 -7.03702e-07
-9.87263e-06 -7.03702e-07 -0.000604205
0.0011428 4.52145e-05 1.41906e-07
4.52145e-05 0.000452767 1.71239e-06
1.41906e-07 1.71239e-06 0.000238623
0.00104962 -0.0001421 -9.58082e-06
-0.0001421 0.000412504 1.93811e-06
-9.58082e-06 1.93811e-06 0.000179768
0.00045121 -0.000160288 4.77729e-06
-0.000160288 -1.89004e-05 4.0407e-06
4.77729e-06 4.0407e-06 -7.01429e-05
0.000762085 3.92343e-05 1.57257e-06
3.92343e-05 0.000121664 -1.45991e-06
1.57257e-06 -1.45991e-06 -8.49534e-06
0.00138709 -0.000354771 1.42189e-05
-0.000354771 3.58643e-05 -3.37922e-05
1.42189e-05 -3.37922e-05 0.000212408
0.000162073 -0.000114061 -5.43518e-06
-0.000114061 7.92637e-05 2.8302e-05
-5.43518e-06 2.8302e-05 -2.2831e-05
0.000509653 8.63908e-06 -8.4936e-07
8.63908e-06 0.0002021 9.9567e-06
-8.4936e-07 9.9567e-06 -6.72064e-05
0.00137114 0.000184803 1.63536e-06
0.000184803 0.000540173 -3.2729e-06
1.63536e-06 -3.2729e-06 0.000366929
0.00082507 -3.36394e-05 -9.45571e-06
-3.36394e-05 0.000622369 -7.38674e-06
-9.45571e-06 -7.38674e-06 5.69099e-05
0.00137678 -5.51317e-05 6.86591e-05
-5.51317e-05 0.00078741 -6.0343e-06
6.86591e-05 -6.0343e-06 -0.000605805
-0.00445177 -5.85874e-05 -0.000122615
-5.85874e-05 0.00149656 6.2102e-06
-0.000122615 6.2102e-06 -0.000680135
0.000907484 0.000164457 1.3599e-05
0.000164457 0.00042256 1.23452e-06
1.3599e-05 1.23452e-06 0.000286598
-0.000917129 0.000235434 1.12663e-05
0.000235434 -0.000531754 1.1431e-05
1.12663e-05 1.1431e-05 -0.000778394
0.00323522 2.66655e-05 7.91144e-05
2.66655e-05 0.0016213 8.56933e-07
7.91144e-05 8.56933e-07 0.000509739
0.00777477 0.000549184 0.000130108
0.000549184 0.00350499 7.05461e-05
0.000130108 7.05461e-05 0.000329097
0.003032 0.000694086 -9.19358e-05
0.000694086 0.00131243 -8.23885e-05
-9.19358e-05 -8.23885e-05 0.000290491
0.00401937 -0.000581803 -1.20301e-06
-0.000581803 0.00107344 -0.000167778
-1.20301e-06 -0.000167778 -0.000177317
0.00109186 0.000123075 4.21457e-05
0.000123075 0.000232771 0.000111816
4.21457e-05 0.000111816 -0.00129338
0.00392903 -1.30387e-05 -3.80558e-06
-1.30387e-05 -0.00369584 -9.38435e-05
-3.80558e-06 -9.38435e-05 -0.00115763
0.000707784 0.000155603 1.20416e-06
0.000155603 0.000444517 -1.65254e-06
1.20416e-06 -1.65254e-06 0.000281642
0.000736507 -5.91714e-05 8.68871e-07
-5.91714e-05 0.000125571 -4.8436e-06
8.68871e-07 -4.8436e-06 2.28616e-05
0.00273125 2.34141e-05 3.44902e-05
2.34141e-05 0.000565358 1.1363e-05
3.44902e-05 1.1363e-05 -0.000271742
-0.000956234 0.00012242 -8.0738e-06
0.00012242 -0.000367054 -5.2087e-06
-8.0738e-06 -5.2087e-06 -0.000742045
0.00513503 0.000761926 9.71853e-06
0.000761926 -0.00152891 -1.0886e-05
9.71853e-06 -1.0886e-05 -0.000522156
0.00516747 0.00087956 0.000103161
0.00087956 0.0028477 4.72521e-05
0.000103161 4.72521e-05 -0.00068813
0.00321197 0.000262788 -5.77068e-05
0.000262788 0.00221786 6.5117e-06
-5.77068e-05 6.5117e-06 0.0011649
0.000380206 0.000168838 -1.55635e-05
0.000168838 0.000308138 -1.62271e-05
-1.55635e-05 -1.62271e-05 7.74239e-05
0.00174215 4.84878e-05 2.87673e-06
4.84878e-05 -7.79125e-05 -1.77053e-05
2.87673e-06 -1.77053e-05 -1.72575e-05
0.00369719 -0.000166584 3.20834e-05
-0.000166584 0.00212264 -8.60183e-05
3.20834e-05 -8.60183e-05 0.00108462
0.00605134 0.00132511 0.000150467
0.00132511 0.000282777 -0.00010401
0.000150467 -0.00010401 0.000795186
0.00613749 -0.000138175 -7.79617e-05
-0.000138175 0.0011798 0.000146654
-7.79617e-05 0.000146654 0.00109124
0.000861648 0.000186207 -1.64389e-05
0.000186207 -3.74406e-05 -5.10726e-05
-1.64389e-05 -5.10726e-05 -8.06428e-05
-0.000561318 0.000853991 0.000116626
0.000853991 0.00242789 3.71928e-05
0.000116626 3.71928e-05 -0.00289501
0.000934162 0.000153301 2.27034e-06
0.000153301 0.000373385 6.81787e-06
2.27034e-06 6.81787e-06 0.000227885
0.000333238 9.04526e-05 4.06986e-06
9.04526e-05 0.000251955 1.97888e-06
4.06986e-06 1.97888e-06 8.2336e-05
0.00126819 3.7304e-05 -2.68563e-05
3.7304e-05 0.000835744 -1.77509e-05
-2.68563e-05 -1.77509e-05 0.000725139
0.000448704 -2.03366e-05 1.03789e-06
-2.03366e-05 -7.8218e-05 3.56015e-06
1.03789e-06 3.56015e-06 -0.00018255
0.000747757 -3.45164e-05 2.01279e-06
-3.45164e-05 0.000223003 4.77905e-06
2.01279e-06 4.77905e-06 0.000108188
7.13381e-05 -2.53569e-06 1.86776e-06
-2.53569e-06 1.9984e-05 4.35654e-06
1.86776e-06 4.35654e-06 -0.000139275
0.000663393 -6.06669e-05 8.10183e-07
-6.06669e-05 0.000138784 -5.56145e-07
8.10183e-07 -5.56145e-07 4.23588e-05
0.000143179 -1.02028e-05 2.33774e-06
-1.02028e-05 2.10949e-05 4.53489e-07
2.33774e-06 4.53489e-07 -7.01856e-05
0.0011775 -0.000182132 8.70555e-06
-0.000182132 0.00059178 -8.35908e-06
8.70555e-06 -8.35908e-06 0.000422589
0.00126814 -5.27862e-05 -1.99446e-06
-5.27862e-05 0.000422328 4.02642e-06
-1.99446e-06 4.02642e-06 0.000340173
0.000309926 1.8216e-05 -8.42573e-07
1.8216e-05 -0.000154452 1.49165e-06
-8.42573e-07 1.49165e-06 -0.000247579
0.00137311 -0.000129857 1.09807e-06
-0.000129857 0.000461291 2.05203e-06
1.09807e-06 2.05203e-06 0.00035764
-0.000114661 -0.000140219 5.01442e-06
-0.000140219 -0.000284066 9.3751e-07
5.01442e-06 9.3751e-07 -0.000504047
0.000428186 -5.39287e-05 -4.63775e-06
-5.39287e-05 -9.07972e-05 1.06371e-06
-4.63775e-06 1.06371e-06 -0.000163112
0.000102895 -0.000138444 1.78859e-06
-0.000138444 -0.000287588 -1.21251e-06
1.78859e-06 -1.21251e-06 -0.000443503
0.00101732 -0.000253375 1.03324e-05
-0.000253375 0.000175879 -1.41674e-06
1.03324e-05 -1.41674e-06 -5.54841e-05
0.00125066 -0.000287853 -3.24797e-06
-0.000287853 0.000168229 4.20396e-06
-3.24797e-06 4.20396e-06 -7.54212e-05
0.00165772 -0.000195318 -2.86013e-06
-0.000195318 0.000608065 3.35429e-07
-2.86013e-06 3.35429e-07 0.000451264
0.000748913 -0.00021162 -7.50719e-07
-0.00021162 1.20325e-05 1.93043e-07
-7.50719e-07 1.93043e-07 -0.000203615
0.00195645 -0.000308866 2.37386e-06
-0.000308866 0.000704239 -1.20705e-06
2.37386e-06 -1.20705e-06 0.000491504
0.000179319 -0.000111318 -1.9863e-06
-0.000111318 -0.000213707 9.74657e-07
-1.9863e-06 9.74657e-07 -0.000398515
0.000917805 -0.000202222 -2.54845e-07
-0.000202222 0.000141682 3.06804e-07
-2.54845e-07 3.06804e-07 -6.37471e-05
0.000569196 -5.17481e-05 1.32197e-07
-5.17481e-05 2.18247e-05 -2.4075e-07
1.32197e-07 -2.4075e-07 -0.000108768
0.00103724 -0.000177074 -3.56345e-06
-0.000177074 0.000310987 2.34961e-06
-3.56345e-06 2.34961e-06 0.000140196
-0.0001335 -9.43917e-05 -2.3205e-06
-9.43917e-05 -0.000426585 -2.84825e-06
-2.3205e-06 -2.84825e-06 -0.000613758
0.000637678 2.76627e-05 6.73761e-07
2.76627e-05 4.1198e-05 1.01051e-06
6.73761e-07 1.01051e-06 -5.01102e-05
0.000733129 -4.14399e-05 8.8405e-07
-4.14399e-05 0.000109194 -1.31283e-07
8.8405e-07 -1.31283e-07 -3.76824e-06
0.000842591 -8.5865e-05 2.59354e-06
-8.5865e-05 0.000195896 -2.7457e-06
2.59354e-06 -2.7457e-06 5.91236e-05
0.000689979 -9.68008e-06 2.81316e-07
-9.68008e-06 8.23699e-05 -1.20179e-07
2.81316e-07 -1.20179e-07 -1.66947e-05
0.000705811 -9.75427e-06 -6.02859e-07
-9.75427e-06 7.71598e-05 -1.31798e-07
-6.02859e-07 -1.31798e-07 -6.28997e-06
0.000619982 3.58357e-05 -9.38169e-07
3.58357e-05 7.86885e-06 2.03191e-06
-9.38169e-07 2.03191e-06 -4.80759e-05
0.000754144 -3.82509e-05 6.56471e-07
-3.82509e-05 0.000108403 -7.82784e-07
6.56471e-07 -7.82784e-07 2.51179e-05
0.000642681 2.76601e-05 -6.1269e-07
2.76601e-05 1.63353e-05 -8.34355e-08
-6.1269e-07 -8.34355e-08 -3.56881e-05
0.000582862 4.31085e-05 -1.08693e-06
4.31085e-05 -2.80353e-05 3.94625e-06
-1.08693e-06 3.94625e-06 -4.60127e-05
0.000693043 -5.08762e-06 2.07797e-06
-5.08762e-06 3.95515e-05 -1.9215e-06
2.07797e-06 -1.9215e-06 -8.9994e-06
0.000584341 3.47251e-05 1.45906e-07
3.47251e-05 -3.38546e-05 1.00641e-08
1.45906e-07 1.00641e-08 -4.97169e-05
0.00221203 7.02455e-05 -4.17941e-06
7.02455e-05 0.000935147 1.8354e-06
-4.17941e-06 1.8354e-06 0.000946199
0.000556469 2.66759e-05 9.02084e-07
2.66759e-05 -5.34825e-05 -3.98656e-06
9.02084e-07 -3.98656e-06 -6.84386e-05
0.00155251 4.36609e-05 8.78715e-06
4.36609e-05 0.000539974 -1.1677e-06
8.78715e-06 -1.1677e-06 0.000549778
0.00232519 4.25595e-05 1.23167e-05
4.25595e-05 0.000992259 -4.73722e-06
1.23167e-05 -4.73722e-06 0.00100673
0.000441451 -1.39387e-06 3.75834e-07
-1.39387e-06 -8.04003e-05 -1.77495e-06
3.75834e-07 -1.77495e-06 -0.000172916
0.000360751 -2.42813e-06 5.21643e-09
-2.42813e-06 -0.000149493 -2.89884e-06
5.21643e-09 -2.89884e-06 -0.000204016
0.00060771 1.36418e-05 -4.35013e-07
1.36418e-05 2.67932e-05 -9.53315e-07
-4.35013e-07 -9.53315e-07 -6.59734e-05
0.000602288 -1.53271e-05 1.50178e-07
-1.53271e-05 -3.08086e-05 -3.90293e-06
1.50178e-07 -3.90293e-06 -4.21675e-05
0.000340466 -3.10187e-07 -3.4609e-07
-3.10187e-07 -0.000160213 -1.08153e-06
-3.4609e-07 -1.08153e-06 -0.000209499
0.000776377 2.31856e-05 -1.58501e-07
2.31856e-05 0.000129744 1.64074e-06
-1.58501e-07 1.64074e-06 4.2687e-05
0.00215112 -2.44575e-05 -1.00927e-05
-2.44575e-05 0.000884307 -4.77089e-06
-1.00927e-05 -4.77089e-06 0.000902321
0.000600686 -9.30154e-06 -1.76767e-07
-9.30154e-06 -3.33433e-05 -4.64179e-08
-1.76767e-07 -4.64179e-08 -4.19778e-05
0.000318371 5.8627e-07 5.77201e-07
5.8627e-07 -0.000172344 1.99736e-06
5.77201e-07 1.99736e-06 -0.000216741
0.00207521 -1.03588e-05 -3.48392e-06
-1.03588e-05 0.000838095 4.24503e-08
-3.48392e-06 4.24503e-08 0.000857415
0.00060158 -3.34057e-06 -1.35526e-07
-3.34057e-06 -3.33443e-05 3.46645e-06
-1.35526e-07 3.46645e-06 -4.02381e-05
0.002063 3.42853e-06 1.37413e-06
3.42853e-06 0.000831108 4.68141e-06
1.37413e-06 4.68141e-06 0.000850613
0.000968552 4.19906e-06 2.58497e-06
4.19906e-06 0.0004496 1.2267e-05
2.58497e-06 1.2267e-05 0.000216212
0.00110689 -0.000102061 6.31509e-06
-0.000102061 0.00015637 -8.045e-06
6.31509e-06 -8.045e-06 -0.00119459
0.00182381 7.38852e-05 2.6799e-05
7.38852e-05 0.00313197 -3.36143e-05
2.6799e-05 -3.36143e-05 0.00212033
0.000769488 7.69617e-05 -1.84015e-07
7.69617e-05 0.000120783 3.31118e-07
-1.84015e-07 3.31118e-07 5.21116e-06
0.000604252 4.94941e-05 8.9181e-07
4.94941e-05 8.89604e-06 4.71646e-08
8.9181e-07 4.71646e-08 -9.85486e-05
0.000936472 0.000107615 1.24957e-06
0.000107615 0.000216249 2.20706e-06
1.24957e-06 2.20706e-06 9.26437e-05
0.00243452 -5.28483e-05 8.55632e-06
-5.28483e-05 0.000218386 0.000141615
8.55632e-06 0.000141615 -0.000825155
0.00322805 -0.000175461 2.92057e-07
-0.000175461 0.00206015 4.59212e-08
2.92057e-07 4.59212e-08 0.000903544
0.00350458 -0.000371083 5.54525e-05
-0.000371083 0.00133925 -0.000108946
5.54525e-05 -0.000108946 -0.00121011
0.0053826 -0.000815749 -7.09457e-05
-0.000815749 0.00081798 2.31571e-07
-7.09457e-05 2.31571e-07 0.000266466
0.0022379 -0.000682051 -0.000102275
-0.000682051 0.000208826 7.29249e-05
-0.000102275 7.29249e-05 -0.00234151
0.00984214 0.00123151 8.93746e-05
0.00123151 0.00327516 4.89072e-05
8.93746e-05 4.89072e-05 0.00280926
0.00242162 0.000214046 4.50187e-05
0.000214046 -0.00300082 -7.31475e-05
4.50187e-05 -7.31475e-05 -0.00198161
0.00528182 -0.00124513 -1.62669e-05
-0.00124513 0.00126288 3.21567e-06
-1.62669e-05 3.21567e-06 0.000520194
0.00666168 -0.000945162 -7.22625e-06
-0.000945162 0.0030495 1.86537e-05
-7.22625e-06 1.86537e-05 -0.000109896
-0.00259921 0.000791135 -2.4126e-05
0.000791135 -0.000274692 -9.8337e-05
-2.4126e-05 -9.8337e-05 -0.00182098
0.00513881 5.0979e-05 -1.36386e-05
5.0979e-05 -0.00226746 3.93871e-05
-1.36386e-05 3.93871e-05 -0.000155262
0.00218274 -0.000813997 -4.06191e-05
-0.000813997 0.000322413 -1.9363e-05
-4.06191e-05 -1.9363e-05 -0.000327197
0.0110805 -0.00120847 -4.13865e-05
-0.00120847 0.0050221 4.68793e-05
-4.13865e-05 4.68793e-05 0.00131571
-0.00925258 -9.45747e-05 4.49732e-05
-9.45747e-05 -0.000714755 -0.000178787
4.49732e-05 -0.000178787 -0.00269325
0.00362335 -0.000731612 2.20689e-05
-0.000731612 -0.00190894 -2.51819e-05
2.20689e-05 -2.51819e-05 -0.000683631
0.000743384 4.05441e-05 -4.54066e-07
4.05441e-05 0.000103095 4.50214e-06
-4.54066e-07 4.50214e-06 -2.90298e-05
0.000642491 6.27608e-06 2.3037e-07
6.27608e-06 6.83061e-05 -5.00919e-07
2.3037e-07 -5.00919e-07 -7.42265e-05
0.000754402 -6.45555e-05 6.4997e-07
-6.45555e-05 0.000147244 -8.44337e-07
6.4997e-07 -8.44337e-07 6.12078e-06
0.000743716 5.49194e-05 -5.36417e-07
5.49194e-05 0.000102767 -7.07556e-07
-5.36417e-07 -7.07556e-07 -2.00967e-05
0.000865731 0.000117987 1.02823e-06
0.000117987 0.00020209 4.80614e-07
1.02823e-06 4.80614e-07 6.96374e-05
0.00105133 0.000121035 -1.30658e-06
0.000121035 0.000309543 -3.20124e-08
-1.30658e-06 -3.20124e-08 0.000183036
0.000213282 -0.000421969 1.90529e-05
-0.000421969 -0.000657258 7.80641e-06
1.90529e-05 7.80641e-06 -0.000668159
-0.000654468 -0.000107016 1.91965e-05
-0.000107016 -0.000638354 -2.10135e-05
1.91965e-05 -2.10135e-05 -0.000650318
0.000849822 5.97869e-05 -1.09617e-06
5.97869e-05 0.000203332 -1.00894e-06
-1.09617e-06 -1.00894e-06 5.38757e-05
0.0016514 -0.000195757 2.81798e-05
-0.000195757 0.000704562 -3.25486e-05
2.81798e-05 -3.25486e-05 0.000482117
0.00144043 1.93319e-05 -2.33442e-06
1.93319e-05 0.000615343 7.2516e-07
-2.33442e-06 7.2516e-07 0.00040029
0.000662855 2.56042e-05 -2.11504e-07
2.56042e-05 6.69493e-05 1.22705e-06
-2.11504e-07 1.22705e-06 -6.79415e-05
0.000595304 9.69754e-05 3.99396e-07
9.69754e-05 9.15124e-05 -4.00004e-07
3.99396e-07 -4.00004e-07 -6.76028e-05
0.000273388 -0.000372249 -2.33323e-06
-0.000372249 -0.000524986 -2.97303e-06
-2.33323e-06 -2.97303e-06 -0.000507937
0.000758388 -1.92969e-05 2.5913e-06
-1.92969e-05 0.000325425 -1.16933e-06
2.5913e-06 -1.16933e-06 8.2628e-05
0.000598518 -7.62589e-05 2.03484e-05
-7.62589e-05 0.000343638 -6.50878e-07
2.03484e-05 -6.50878e-07 0.000228932
0.000839581 6.9237e-05 3.15808e-06
6.9237e-05 0.000180574 -7.85023e-06
3.15808e-06 -7.85023e-06 5.48717e-05
-0.00255561 0.00014522 -7.43098e-05
0.00014522 -0.00110448 -1.30706e-05
-7.43098e-05 -1.30706e-05 -0.00148988
-5.46766e-05 1.12477e-05 9.05007e-06
1.12477e-05 -1.35416e-05 3.27971e-05
9.05007e-06 3.27971e-05 -0.000134814
0.0013521 3.23865e-06 3.68746e-06
3.23865e-06 0.000642044 1.84842e-06
3.68746e-06 1.84842e-06 0.000446724
0.00095616 -2.95035e-05 -3.18133e-07
-2.95035e-05 -5.53274e-05 4.46461e-07
-3.18133e-07 4.46461e-07 -0.000552533
0.00065039 -2.69657e-05 -1.56707e-05
-2.69657e-05 0.000478076 -8.7914e-06
-1.56707e-05 -8.7914e-06 -5.24628e-06
0.00100057 -3.64059e-05 0.000155763
-3.64059e-05 0.000649144 -6.54148e-06
0.000155763 -6.54148e-06 -0.000773778
0.0005862 0.000172459 1.23604e-05
0.000172459 0.000352887 1.32496e-05
1.23604e-05 1.32496e-05 0.000179973
0.00151413 0.000402092 8.8419e-06
0.000402092 0.000458884 -1.29675e-05
8.8419e-06 -1.29675e-05 0.000207881
0.000784123 -5.9241e-05 7.74293e-06
-5.9241e-05 0.000164778 4.85871e-06
7.74293e-06 4.85871e-06 4.28036e-05
-0.00232603 0.000483006 4.07702e-05
0.000483006 0.000106603 4.86363e-05
4.07702e-05 4.86363e-05 -0.00347414
-0.010473 0.000355204 -6.81366e-05
0.000355204 -0.00369589 -0.000199729
-6.81366e-05 -0.000199729 -0.00564026
0.00268453 3.23115e-05 3.52585e-05
3.23115e-05 0.000771972 5.91887e-05
3.52585e-05 5.91887e-05 0.000136481
0.00254099 0.000336285 -5.1322e-05
0.000336285 -0.00292682 7.14093e-05
-5.1322e-05 7.14093e-05 -0.0019645
0.00050039 0.000156971 7.06992e-06
0.000156971 0.000366454 -2.08361e-06
7.06992e-06 -2.08361e-06 0.000165753
0.00159479 -4.16402e-06 1.11323e-05
-4.16402e-06 -0.00017714 -1.88009e-05
1.11323e-05 -1.88009e-05 -6.01379e-05
0.00327114 -0.000126476 -1.1416e-06
-0.000126476 0.00201577 -2.29105e-07
-1.1416e-06 -2.29105e-07 0.000880225
0.00135763 0.000206708 -2.96157e-05
0.000206708 0.00040839 -3.20899e-06
-2.96157e-05 -3.20899e-06 -8.43521e-05
0.00302605 0.0012215 5.66615e-05
0.0012215 -0.00146928 -0.000143495
5.66615e-05 -0.000143495 -0.000839938
-0.00239679 0.000748562 2.10222e-05
0.000748562 -0.000963764 9.6878e-05
2.10222e-05 9.6878e-05 -0.00204799
0.00675277 1.22879e-05 6.18954e-05
1.22879e-05 0.00511692 -2.47111e-05
6.18954e-05 -2.47111e-05 0.00015942
0.00184662 -4.67935e-05 4.45622e-05
-4.67935e-05 0.00137922 -1.96766e-05
4.45622e-05 -1.96766e-05 0.000995143
0.00106866 3.56851e-05 -8.0194e-06
3.56851e-05 0.000463206 -1.20946e-05
-8.0194e-06 -1.20946e-05 0.000232426
0.0035377 -0.000242894 0.000200914
-0.000242894 0.000999461 -0.000150496
0.000200914 -0.000150496 -0.000994995
0.00433755 0.00164866 -5.36372e-08
0.00164866 0.00296765 -1.59309e-05
-5.36372e-08 -1.59309e-05 0.00375804
-0.00458995 0.000823794 4.08346e-05
0.000823794 -0.00445447 0.000271961
4.08346e-05 0.000271961 -0.00445225
0.0126253 -0.0011164 0.000108711
-0.0011164 0.00519635 -9.86946e-05
0.000108711 -9.86946e-05 0.00157945
0.00376007 -0.000395475 -7.83475e-05
-0.000395475 0.00127363 8.70587e-05
-7.83475e-05 8.70587e-05 0.00108565
0.000805222 0.000123786 6.88262e-06
0.000123786 0.000515226 6.03411e-06
6.88262e-06 6.03411e-06 0.000339018
-7.87768e-05 7.56316e-06 -1.36064e-05
7.56316e-06 7.77334e-05 2.03492e-06
-1.36064e-05 2.03492e-06 -6.53036e-05
0.00129156 -0.000257448 1.57301e-05
-0.000257448 0.00083509 -1.21131e-05
1.57301e-05 -1.21131e-05 0.000569794
0.0010886 -7.57315e-05 1.09612e-06
-7.57315e-05 0.000371334 3.03884e-06
1.09612e-06 3.03884e-06 0.000282809
-0.00036528 -2.84397e-05 5.26761e-06
-2.84397e-05 -0.000267984 1.11284e-05
5.26761e-06 1.11284e-05 -0.000367369
0.000161984 -0.000162468 -1.23703e-06
-0.000162468 5.45577e-05 -4.30322e-07
-1.23703e-06 -4.30322e-07 -0.000106489
0.00138086 -0.000281115 2.50206e-05
-0.000281115 0.000633846 -1.59896e-05
2.50206e-05 -1.59896e-05 0.000351843
0.00215221 -0.000181997 -5.08782e-06
-0.000181997 0.000898674 4.33574e-06
-5.08782e-06 4.33574e-06 0.000785229
0.00180577 -0.000315416 2.12027e-06
-0.000315416 0.000727243 -1.06797e-07
2.12027e-06 -1.06797e-07 0.000494031
0.00125253 -0.000296799 9.24115e-06
-0.000296799 0.000447194 1.8462e-06
9.24115e-06 1.8462e-06 6.76554e-05
9.70314e-05 -0.000120955 -2.09052e-06
-0.000120955 -0.000294986 4.93031e-07
-2.09052e-06 4.93031e-07 -0.000435008
0.00134796 -0.000280987 -2.25016e-07
-0.000280987 0.000329857 1.34332e-06
-2.25016e-07 1.34332e-06 8.54826e-05
0.002006 -0.000393759 6.93781e-07
-0.000393759 0.000609891 2.5796e-06
6.93781e-07 2.5796e-06 0.000284762
0.00174659 -0.000383653 -2.87551e-06
-0.000383653 0.000340495 2.80769e-06
-2.87551e-06 2.80769e-06 6.53796e-05
0.000661518 -0.000223452 3.40479e-07
-0.000223452 -0.000130198 5.71908e-06
3.40479e-07 5.71908e-06 -0.000348312
0.00132421 -0.000296868 -2.94089e-06
-0.000296868 0.000209729 1.83718e-06
-2.94089e-06 1.83718e-06 -3.92045e-05
0.00105251 -0.000239421 -7.39212e-06
-0.000239421 0.000164314 2.65434e-06
-7.39212e-06 2.65434e-06 -6.47865e-05
0.00173067 -0.0002801 5.0015e-06
-0.0002801 0.000607014 -1.84411e-06
5.0015e-06 -1.84411e-06 0.000402979
0.00134899 -0.000252527 2.61875e-06
-0.000252527 0.000357564 -2.81947e-06
2.61875e-06 -2.81947e-06 0.000159704
9.15693e-05 -5.30454e-05 1.45923e-06
-5.30454e-05 -0.000258904 2.74403e-07
1.45923e-06 2.74403e-07 -0.000419063
0.000763545 -0.000166806 1.6369e-06
-0.000166806 0.000127732 -8.58916e-07
1.6369e-06 -8.58916e-07 -6.31674e-05
0.0010791 -0.000213638 5.74011e-06
-0.000213638 0.000239874 -4.30586e-06
5.74011e-06 -4.30586e-06 3.64129e-05
0.000602859 3.02099e-05 1.52597e-06
3.02099e-05 2.94535e-05 1.69093e-06
1.52597e-06 1.69093e-06 -8.00085e-05
0.000880052 -8.25327e-05 -3.80336e-07
-8.25327e-05 0.000207484 4.29413e-07
-3.80336e-07 4.29413e-07 6.89282e-05
0.00107451 -0.000189072 -7.37897e-07
-0.000189072 0.000334718 -5.14979e-07
-7.37897e-07 -5.14979e-07 0.000161367
0.000603479 2.72859e-05 -1.11051e-06
2.72859e-05 1.45577e-06 2.19872e-06
-1.11051e-06 2.19872e-06 -5.9578e-05
0.000720716 -4.23956e-06 -6.90146e-07
-4.23956e-06 8.70634e-05 -2.71533e-07
-6.90146e-07 -2.71533e-07 -5.00601e-06
0.000623688 -2.52017e-05 -4.61507e-08
-2.52017e-05 5.17304e-05 -2.98092e-07
-4.61507e-08 -2.98092e-07 -6.33568e-05
0.000764727 -2.89434e-05 4.88479e-07
-2.89434e-05 0.000113824 -1.051e-06
4.88479e-07 -1.051e-06 2.74889e-05
0.000653475 1.43689e-05 -2.79199e-07
1.43689e-05 2.45376e-05 -1.16001e-07
-2.79199e-07 -1.16001e-07 -3.0008e-05
0.000564841 5.17763e-05 -7.19331e-07
5.17763e-05 -2.92553e-05 4.30365e-06
-7.19331e-07 4.30365e-06 -5.07743e-05
0.000669957 4.31434e-06 1.90532e-06
4.31434e-06 2.92256e-05 -1.83492e-06
1.90532e-06 -1.83492e-06 -2.11843e-05
0.000585301 4.45319e-05 -7.33856e-08
4.45319e-05 -2.64118e-05 -2.47974e-08
-7.33856e-08 -2.47974e-08 -4.45934e-05
0.00225911 7.70717e-05 -2.38333e-05
7.70717e-05 0.000970489 3.78971e-06
-2.38333e-05 3.78971e-06 0.000980148
0.000572563 3.54997e-05 9.71716e-07
3.54997e-05 -4.0698e-05 -3.92567e-06
9.71716e-07 -3.92567e-06 -5.66089e-05
0.00153019 5.43456e-05 1.05146e-05
5.43456e-05 0.000533186 -1.0191e-06
1.05146e-05 -1.0191e-06 0.000541354
0.00232024 5.57093e-05 1.62071e-05
5.57093e-05 0.000994374 -4.40251e-06
1.62071e-05 -4.40251e-06 0.00100741
0.000706175 5.78424e-05 -4.6862e-08
5.78424e-05 7.61179e-05 -9.33219e-07
-4.6862e-08 -9.33219e-07 -2.06847e-05
0.000646955 1.74878e-05 -5.19399e-07
1.74878e-05 1.58496e-05 -2.33764e-06
-5.19399e-07 -2.33764e-06 -4.09168e-05
0.000583948 3.52459e-05 -1.10644e-06
3.52459e-05 1.22018e-05 -9.74972e-07
-1.10644e-06 -9.74972e-07 -8.64999e-05
0.000588641 -2.18079e-05 3.24066e-07
-2.18079e-05 -3.63324e-05 -4.23281e-06
3.24066e-07 -4.23281e-06 -5.09231e-05
0.000474619 1.0811e-05 -1.21834e-06
1.0811e-05 -8.29626e-05 -1.09235e-06
-1.21834e-06 -1.09235e-06 -0.000136254
0.000794452 3.55821e-05 5.62981e-08
3.55821e-05 0.000135757 -1.76994e-07
5.62981e-08 -1.76994e-07 4.37269e-05
0.00224226 -3.77076e-05 -1.47856e-05
-3.77076e-05 0.000940413 -4.70236e-06
-1.47856e-05 -4.70236e-06 0.000956711
0.000594173 -1.51662e-05 -2.21918e-07
-1.51662e-05 -3.57706e-05 -5.59025e-08
-2.21918e-07 -5.59025e-08 -4.69313e-05
0.000294296 -8.09185e-07 -6.24057e-07
-8.09185e-07 -0.00018729 1.09979e-06
-6.24057e-07 1.09979e-06 -0.000237236
0.00214542 -2.32117e-05 -3.67539e-06
-2.32117e-05 0.000880599 8.81147e-08
-3.67539e-06 8.81147e-08 0.000898842
0.000599138 -9.45014e-06 -2.17148e-07
-9.45014e-06 -3.41546e-05 3.59951e-06
-2.17148e-07 3.59951e-06 -4.27091e-05
0.00208024 -8.97918e-06 5.97245e-06
-8.97918e-06 0.000840891 4.7261e-06
5.97245e-06 4.7261e-06 0.00086027
0.00166681 -3.9565e-05 -6.89014e-06
-3.9565e-05 -0.000106396 1.86622e-05
-6.89014e-06 1.86622e-05 -2.5465e-05
0.00104182 -1.21398e-05 1.13601e-06
-1.21398e-05 0.000400379 -2.2363e-06
1.13601e-06 -2.2363e-06 0.000242345
0.00169867 -9.36432e-05 9.73028e-05
-9.36432e-05 0.000447045 -2.16065e-05
9.73028e-05 -2.16065e-05 -0.00082073
0.000592191 1.05499e-05 3.88036e-07
1.05499e-05 -7.7091e-06 -4.51774e-07
3.88036e-07 -4.51774e-07 -0.00010705
0.00087695 3.69856e-05 -4.38939e-07
3.69856e-05 0.000163342 -3.51039e-07
-4.38939e-07 -3.51039e-07 5.29326e-05
0.000811824 8.1411e-05 4.89174e-07
8.1411e-05 0.000142789 1.66482e-07
4.89174e-07 1.66482e-07 3.13273e-05
0.000631435 3.44633e-05 2.13275e-07
3.44633e-05 1.84191e-05 1.56891e-07
2.13275e-07 1.56891e-07 -8.42888e-05
0.000749428 5.32929e-05 5.14116e-08
5.32929e-05 0.000105262 4.10293e-07
5.14116e-08 4.10293e-07 -1.42981e-05
0.00073367 4.43565e-05 3.85191e-07
4.43565e-05 8.75188e-05 3.02098e-08
3.85191e-07 3.02098e-08 -2.45885e-05
0.000759772 0.000150238 1.81038e-06
0.000150238 0.000129536 3.06115e-06
1.81038e-06 3.06115e-06 -1.01416e-05
-0.000113471 2.11392e-05 4.77903e-05
2.11392e-05 5.64832e-05 0.000139662
4.77903e-05 0.000139662 -0.00143438
0.00256551 -4.61344e-05 -8.33685e-06
-4.61344e-05 0.000571456 4.72251e-05
-8.33685e-06 4.72251e-05 -0.000274058
0.00289414 -0.000138761 1.94954e-05
-0.000138761 0.00194955 -6.47402e-05
1.94954e-05 -6.47402e-05 0.000791559
0.00371765 -0.000128394 -2.07447e-05
-0.000128394 -0.00380934 4.24658e-05
-2.07447e-05 4.24658e-05 -0.00120053
0.00332373 -0.00104263 -6.83368e-05
-0.00104263 0.00114069 5.7914e-05
-6.83368e-05 5.7914e-05 0.000172349
-0.00181595 -0.0011415 5.89065e-06
-0.0011415 -0.000461778 7.23777e-05
5.89065e-06 7.23777e-05 -0.00409632
0.00771218 0.00144544 6.7277e-05
0.00144544 0.00427861 -3.74958e-05
6.7277e-05 -3.74958e-05 0.00246033
0.00377675 -0.000965227 -2.23148e-05
-0.000965227 0.00101596 4.50032e-06
-2.23148e-05 4.50032e-06 0.000345445
-9.16351e-05 -0.000439772 3.089e-05
-0.000439772 0.00118205 1.74414e-05
3.089e-05 1.74414e-05 -0.00290656
0.00439073 2.13354e-05 -3.63927e-06
2.13354e-05 0.0023903 -7.23993e-06
-3.63927e-06 -7.23993e-06 0.0013313
0.00811066 -0.00100257 -2.96952e-05
-0.00100257 0.00099447 -3.61553e-05
-2.96952e-05 -3.61553e-05 0.00218247
-0.000205861 1.73603e-05 -0.000127303
1.73603e-05 -0.00102514 6.36974e-05
-0.000127303 6.36974e-05 -0.00087768
0.000776001 0.00103273 -2.59593e-05
0.00103273 0.00149163 -9.48267e-05
-2.59593e-05 -9.48267e-05 -0.00257159
-0.00689402 -0.00152591 5.11346e-05
-0.00152591 -0.0040313 -0.000115064
5.11346e-05 -0.000115064 -0.00583813
0.00407523 -0.0009373 2.12603e-05
-0.0009373 -0.00109344 -0.000207939
2.12603e-05 -0.000207939 0.000302297
0.000796246 1.44135e-05 5.79313e-07
1.44135e-05 0.0001411 1.12962e-07
5.79313e-07 1.12962e-07 2.82441e-05
0.000672033 4.2957e-05 3.9689e-07
4.2957e-05 6.80063e-05 -4.26733e-07
3.9689e-07 -4.26733e-07 -6.54958e-05
0.000793378 1.08743e-05 3.3061e-07
1.08743e-05 0.000168096 -1.82793e-06
3.3061e-07 -1.82793e-06 1.65346e-05
0.000776454 4.56273e-05 -6.00553e-07
4.56273e-05 0.000129812 -2.88194e-06
-6.00553e-07 -2.88194e-06 -1.31968e-06
-5.48815e-05 -0.000375458 -1.77115e-06
-0.000375458 -0.000728759 2.53035e-05
-1.77115e-06 2.53035e-05 -0.000793241
0.0014106 -5.94391e-05 -1.12802e-05
-5.94391e-05 0.000809184 -2.7137e-05
-1.12802e-05 -2.7137e-05 0.000701469
0.000622166 2.44125e-05 -1.77217e-06
2.44125e-05 2.72173e-05 -2.10915e-06
-1.77217e-06 -2.10915e-06 -9.56077e-05
0.000705391 0.000110266 -1.34389e-06
0.000110266 0.000163321 2.61497e-06
-1.34389e-06 2.61497e-06 2.53938e-06
0.00236562 -5.74822e-05 1.17337e-05
-5.74822e-05 0.00121372 -2.3754e-05
1.17337e-05 -2.3754e-05 0.00100348
0.000835798 5.40929e-05 1.62701e-07
5.40929e-05 0.000176258 2.31249e-06
1.62701e-07 2.31249e-06 5.47279e-05
0.000733395 7.95538e-05 -2.01038e-06
7.95538e-05 0.000309799 -2.05508e-06
-2.01038e-06 -2.05508e-06 9.7955e-05
-0.000138717 3.08069e-05 3.87167e-05
3.08069e-05 5.3383e-05 -1.50597e-05
3.87167e-05 -1.50597e-05 -0.000430934
0.000480597 1.08376e-06 3.17988e-05
1.08376e-06 0.000296881 -5.32746e-08
3.17988e-05 -5.32746e-08 0.000202756
0.000387898 0.000123136 -2.511e-07
0.000123136 7.07955e-05 -5.09342e-06
-2.511e-07 -5.09342e-06 -7.86347e-05
0.000137793 -8.95368e-05 -2.67617e-05
-8.95368e-05 0.000640206 -4.12095e-05
-2.67617e-05 -4.12095e-05 -0.000490291
0.00357528 0.000107194 1.86762e-05
0.000107194 0.00192576 2.11767e-05
1.86762e-05 2.11767e-05 0.0017417
0.000855153 -1.41422e-05 5.70944e-06
-1.41422e-05 0.000604782 7.9518e-06
5.70944e-06 7.9518e-06 5.39849e-05
0.00135246 -3.41169e-05 -6.62422e-09
-3.41169e-05 0.000172918 3.22063e-07
-6.62422e-09 3.22063e-07 -0.000130872
0.000457196 -2.75933e-05 -1.2036e-06
-2.75933e-05 0.000325461 -1.2992e-05
-1.2036e-06 -1.2992e-05 -8.10055e-05
-0.000244937 8.53149e-05 -3.06019e-07
8.53149e-05 4.68866e-06 6.67865e-06
-3.06019e-07 6.67865e-06 -0.000168378
-0.000541452 0.000252098 3.7702e-05
0.000252098 -0.000697468 3.97223e-05
3.7702e-05 3.97223e-05 -0.000864559
0.00141084 -2.92328e-05 1.48416e-05
-2.92328e-05 -0.000289407 -2.77131e-06
1.48416e-05 -2.77131e-06 -0.000101872
0.00383035 -0.000890268 0.000120694
-0.000890268 0.00365787 -0.000126122
0.000120694 -0.000126122 -0.00118578
0.0076124 0.00150252 -6.18371e-05
0.00150252 0.00370444 3.76364e-05
-6.18371e-05 3.76364e-05 0.00213196
0.00301809 -8.94793e-05 -2.37612e-05
-8.94793e-05 0.00192594 6.5116e-05
-2.37612e-05 6.5116e-05 0.000791157
0.00501383 0.00130634 -2.73101e-05
0.00130634 -1.127e-05 -3.97124e-05
-2.73101e-05 -3.97124e-05 0.000429267
-0.000117829 0.000127802 -1.12587e-05
0.000127802 0.000372326 7.23408e-06
-1.12587e-05 7.23408e-06 -9.43388e-05
0.00111283 1.90341e-05 -1.57469e-06
1.90341e-05 0.000408943 2.34582e-06
-1.57469e-06 2.34582e-06 0.000264025
0.00347367 -0.000293733 6.94807e-05
-0.000293733 0.00105651 -8.41316e-06
6.94807e-05 -8.41316e-06 -0.00115199
0.000277196 -0.000149384 2.94635e-06
-0.000149384 -0.000580865 2.41674e-05
2.94635e-06 2.41674e-05 -0.000528901
-0.00144183 0.00176524 0.000105641
0.00176524 -0.000239622 -4.65024e-05
0.000105641 -4.65024e-05 0.00107001
0.00628435 0.000876216 -4.9465e-05
0.000876216 0.000290794 0.000100486
-4.9465e-05 0.000100486 0.000236154
-0.00254433 -0.000775629 6.85016e-05
-0.000775629 0.000248003 -6.28286e-05
6.85016e-05 -6.28286e-05 -0.00446053
0.00100601 -9.57165e-05 4.45137e-05
-9.57165e-05 0.000558791 -1.08677e-05
4.45137e-05 -1.08677e-05 0.000310749
0.000795398 -0.000116751 6.72779e-05
-0.000116751 -0.000158053 -2.77737e-05
6.72779e-05 -2.77737e-05 -0.00141657
-0.00179579 0.000146314 -0.0002071
0.000146314 0.00143259 -1.29092e-05
-0.0002071 -1.29092e-05 0.000165193
0.00253678 0.0016111 -0.000134903
0.0016111 9.03648e-05 0.000215543
-0.000134903 0.000215543 0.000491698
0.00790453 -0.000622773 1.6252e-05
-0.000622773 0.0035955 -1.38243e-05
1.6252e-05 -1.38243e-05 0.000448192
0.00333641 -0.000422277 -6.26837e-05
-0.000422277 0.000919658 5.45334e-05
-6.26837e-05 5.45334e-05 0.000619579
-0.000837936 4.29896e-05 2.71351e-05
4.29896e-05 -0.000356187 1.36494e-05
2.71351e-05 1.36494e-05 -0.000518634
7.51899e-05 -0.000166074 -1.11733e-05
-0.000166074 0.000206494 1.43308e-06
-1.11733e-05 1.43308e-06 -6.27193e-05
7.46344e-05 -0.000219052 1.94823e-05
-0.000219052 -8.28026e-05 -5.81058e-06
1.94823e-05 -5.81058e-06 -0.000239662
-0.000716124 -0.000135709 -4.36689e-06
-0.000135709 -0.000409444 6.78195e-06
-4.36689e-06 6.78195e-06 -0.000558409
-0.000686769 -0.000148542 1.1055e-06
-0.000148542 -0.000450099 -4.38026e-06
1.1055e-06 -4.38026e-06 -0.000734444
0.00303632 -0.00051413 2.72069e-05
-0.00051413 0.00116819 -4.08726e-06
2.72069e-05 -4.08726e-06 0.000884221
0.00363435 -0.000493603 -7.72899e-06
-0.000493603 0.00168137 3.27552e-06
-7.72899e-06 3.27552e-06 0.0014345
0.0020545 -0.000365319 4.24625e-06
-0.000365319 0.000826314 1.03947e-06
4.24625e-06 1.03947e-06 0.000469198
0.00115439 -0.00034796 8.0577e-06
-0.00034796 0.00016521 -4.45038e-06
8.0577e-06 -4.45038e-06 -0.000202485
0.00179347 -0.000320052 -6.70047e-06
-0.000320052 0.000544989 1.5654e-06
-6.70047e-06 1.5654e-06 0.000287458
0.00223362 -0.000420434 1.53139e-06
-0.000420434 0.00070144 3.6874e-07
1.53139e-06 3.6874e-07 0.000371792
0.00196351 -0.000415889 1.12252e-06
-0.000415889 0.000488735 -5.14353e-06
1.12252e-06 -5.14353e-06 0.0001589
0.00183182 -0.000376203 -5.06723e-07
-0.000376203 0.000322401 -2.85165e-06
-5.06723e-07 -2.85165e-06 8.11887e-05
0.00199457 -0.000397171 -3.31692e-06
-0.000397171 0.00047667 3.98616e-06
-3.31692e-06 3.98616e-06 0.000215053
0.00172392 -0.000384085 -9.50027e-07
-0.000384085 0.000329886 -3.65117e-07
-9.50027e-07 -3.65117e-07 4.94939e-05
0.000395073 -0.0001865 5.19684e-06
-0.0001865 -0.000265797 1.50537e-06
5.19684e-06 1.50537e-06 -0.000459242
0.00111434 -0.000257641 1.66826e-06
-0.000257641 0.000125217 1.28986e-08
1.66826e-06 1.28986e-08 -9.01021e-05
0.00138341 -0.000304304 -6.88458e-07
-0.000304304 0.000243904 -2.93325e-06
-6.88458e-07 -2.93325e-06 -1.01242e-05
0.001205 -0.000220488 2.65335e-06
-0.000220488 0.000330803 8.04477e-07
2.65335e-06 8.04477e-07 0.000132013
0.00127435 -0.000237397 -1.97719e-06
-0.000237397 0.000339639 -1.68117e-06
-1.97719e-06 -1.68117e-06 0.000141997
0.000720006 -0.00019427 4.44083e-06
-0.00019427 -1.27006e-06 -4.82325e-06
4.44083e-06 -4.82325e-06 -0.000183992
0.000561534 -4.78859e-05 2.3271e-06
-4.78859e-05 1.44726e-05 1.44349e-06
2.3271e-06 1.44349e-06 -0.000129322
0.000525075 -8.96915e-05 -3.50622e-07
-8.96915e-05 2.3124e-06 9.39332e-07
-3.50622e-07 9.39332e-07 -0.00016296
0.00136701 -0.000223991 2.83798e-06
-0.000223991 0.000479949 -3.18683e-06
2.83798e-06 -3.18683e-06 0.000282845
0.000551033 3.98723e-05 -2.56347e-08
3.98723e-05 -1.78907e-05 2.9174e-06
-2.56347e-08 2.9174e-06 -9.28554e-05
0.000736894 -1.60473e-05 -3.7923e-07
-1.60473e-05 0.000111643 -5.58481e-07
-3.7923e-07 -5.58481e-07 -5.13948e-06
0.00117662 -0.000112552 1.69503e-07
-0.000112552 0.000383668 -4.13801e-07
1.69503e-07 -4.13801e-07 0.000238366
0.000523584 6.10782e-05 -1.16099e-06
6.10782e-05 -4.23053e-05 6.13584e-06
-1.16099e-06 6.13584e-06 -6.8145e-05
0.000644284 2.41969e-05 -2.69272e-07
2.41969e-05 2.36484e-05 -2.83556e-07
-2.69272e-07 -2.83556e-07 -3.73454e-05
0.000799385 -2.58555e-05 -3.06078e-07
-2.58555e-05 0.000134447 -1.45808e-06
-3.06078e-07 -1.45808e-06 3.90258e-05
0.00066481 1.26887e-05 1.49667e-06
1.26887e-05 3.02347e-05 -2.07307e-06
1.49667e-06 -2.07307e-06 -2.41813e-05
0.000568886 5.41612e-05 2.35288e-08
5.41612e-05 -2.58182e-05 -1.7211e-08
2.35288e-08 -1.7211e-08 -4.78876e-05
0.00230353 9.07135e-05 -2.63468e-05
9.07135e-05 0.00100525 3.43161e-06
-2.63468e-05 3.43161e-06 0.00101176
0.000583497 4.61904e-05 4.63116e-07
4.61904e-05 -2.72881e-05 -4.10477e-06
4.63116e-07 -4.10477e-06 -4.57088e-05
0.00228671 7.9406e-05 2.4696e-06
7.9406e-05 0.000987647 2.06003e-07
2.4696e-06 2.06003e-07 0.000996821
0.002283 6.79553e-05 1.96051e-05
6.79553e-05 0.000978676 -3.98754e-06
1.96051e-05 -3.98754e-06 0.000990069
0.000721886 4.56135e-05 -3.00173e-08
4.56135e-05 9.21787e-05 -6.5036e-07
-3.00173e-08 -6.5036e-07 -2.38395e-05
0.000772557 7.57262e-05 -3.84474e-08
7.57262e-05 0.000124446 -1.29649e-06
-3.84474e-08 -1.29649e-06 1.58377e-05
0.000656032 9.28709e-06 -6.18312e-07
9.28709e-06 2.04161e-05 -2.53211e-06
-6.18312e-07 -2.53211e-06 -4.12187e-05
0.000723968 6.90448e-05 -1.08131e-07
6.90448e-05 8.6214e-05 2.37892e-08
-1.08131e-07 2.37892e-08 -1.07755e-05
0.000577551 -2.84324e-05 1.70578e-07
-2.84324e-05 -3.8193e-05 -4.69537e-06
1.70578e-07 -4.69537e-06 -5.67076e-05
0.000646789 1.73228e-05 -1.01287e-07
1.73228e-05 1.6232e-05 -8.42168e-08
-1.01287e-07 -8.42168e-08 -4.05026e-05
0.000667962 3.76481e-05 -1.40845e-06
3.76481e-05 5.07592e-05 4.21129e-07
-1.40845e-06 4.21129e-07 -3.96943e-05
0.00233925 -5.13434e-05 -1.9403e-05
-5.13434e-05 0.00100105 -4.62103e-06
-1.9403e-05 -4.62103e-06 0.00101515
0.000589899 -2.16242e-05 -2.21177e-07
-2.16242e-05 -3.54382e-05 -5.75597e-08
-2.21177e-07 -5.75597e-08 -4.99124e-05
0.000599366 2.0653e-05 -8.27429e-07
2.0653e-05 -1.01948e-05 1.0842e-06
-8.27429e-07 1.0842e-06 -6.22786e-05
0.0022216 -3.6365e-05 -3.79686e-06
-3.6365e-05 0.000927769 1.34861e-07
-3.79686e-06 1.34861e-07 0.000944407
0.000594055 -1.50351e-05 -2.62594e-07
-1.50351e-05 -3.599e-05 3.75307e-06
-2.62594e-07 3.75307e-06 -4.69843e-05
0.00212787 -2.18854e-05 1.01221e-05
-2.18854e-05 0.000869888 4.69194e-06
1.01221e-05 4.69194e-06 0.000888388
0.000874109 -7.85828e-05 6.36786e-06
-7.85828e-05 0.000104433 1.62324e-05
6.36786e-06 1.62324e-05 3.88327e-05
0.00156183 -6.10628e-05 -1.27344e-05
-6.10628e-05 -0.000194663 1.89918e-05
-1.27344e-05 1.89918e-05 -6.48895e-05
0.00112235 -2.48832e-05 4.84033e-06
-2.48832e-05 0.000352082 -9.51724e-06
4.84033e-06 -9.51724e-06 0.000270146
0.000737117 4.61234e-05 -1.76276e-07
4.61234e-05 9.22464e-05 1.15375e-08
-1.76276e-07 1.15375e-08 -1.8827e-05
0.000701116 2.37635e-05 5.54878e-07
2.37635e-05 6.20217e-05 -2.96861e-08
5.54878e-07 -2.96861e-08 -4.62024e-05
0.00051848 2.53293e-05 -1.84596e-06
2.53293e-05 -4.37219e-05 -2.34091e-06
-1.84596e-06 -2.34091e-06 -0.000151483
0.000497159 3.11692e-07 -6.50834e-08
3.11692e-07 -5.34929e-05 -6.34603e-07
-6.50834e-08 -6.34603e-07 -0.000161241
0.00107259 0.000113183 -5.22847e-07
0.000113183 0.000295812 -1.23508e-06
-5.22847e-07 -1.23508e-06 0.00016634
0.0006672 1.60167e-05 -8.10291e-07
1.60167e-05 3.42864e-05 2.53499e-07
-8.10291e-07 2.53499e-07 -6.49178e-05
0.000679902 4.06518e-05 -6.07767e-07
4.06518e-05 5.65027e-05 -1.86497e-06
-6.07767e-07 -1.86497e-06 -5.65127e-05
0.000772065 5.12801e-05 -9.44476e-08
5.12801e-05 0.000111776 -1.10492e-07
-9.44476e-08 -1.10492e-07 -2.77209e-06
0.000915469 8.43183e-05 4.44102e-07
8.43183e-05 0.000201118 3.441e-07
4.44102e-07 3.441e-07 7.64253e-05
0.00102182 5.72732e-05 5.26523e-07
5.72732e-05 0.000274046 -2.34439e-07
5.26523e-07 -2.34439e-07 0.000150792
0.00249526 0.000147956 0.000130669
0.000147956 0.0012474 0.000187415
0.000130669 0.000187415 -0.00103017
0.000637858 6.6424e-05 9.85884e-06
6.6424e-05 0.000197481 5.13404e-05
9.85884e-06 5.13404e-05 -0.00129887
0.00257397 -3.2514e-05 -1.37922e-05
-3.2514e-05 0.000874987 -8.56476e-06
-1.37922e-05 -8.56476e-06 0.000196653
0.00820558 -0.000882162 -7.47566e-05
-0.000882162 0.00113486 -8.34209e-05
-7.47566e-05 -8.34209e-05 0.00242931
-0.01069 0.000638899 -3.87305e-05
0.000638899 -0.00355522 0.000213037
-3.87305e-05 0.000213037 -0.00564746
0.00551274 -0.00099967 -0.000111995
-0.00099967 0.00203242 5.48829e-05
-0.000111995 5.48829e-05 0.00137132
0.0101393 -0.000715666 -5.28111e-05
-0.000715666 0.00426333 -1.57298e-05
-5.28111e-05 -1.57298e-05 0.000972648
0.00232157 -0.000112563 -1.12917e-05
-0.000112563 0.000345729 5.36024e-05
-1.12917e-05 5.36024e-05 2.69527e-05
0.01129 -0.000135374 1.53281e-05
-0.000135374 0.00549882 -1.59744e-05
1.53281e-05 -1.59744e-05 0.00154791
0.00189619 -0.000924167 4.8279e-05
-0.000924167 0.000201092 5.43121e-05
4.8279e-05 5.43121e-05 -0.00102121
0.00330416 -0.00111201 -0.000112735
-0.00111201 -0.00168466 -0.000248908
-0.000112735 -0.000248908 -0.00036211
0.00340205 0.000129219 -0.000100262
0.000129219 0.000722751 2.70169e-05
-0.000100262 2.70169e-05 0.000219334
0.00931063 0.000743213 -1.56039e-05
0.000743213 0.00426233 1.93084e-05
-1.56039e-05 1.93084e-05 0.00112033
0.0103764 -0.0017217 -2.8792e-05
-0.0017217 0.00331654 -0.000200689
-2.8792e-05 -0.000200689 0.00321286
0.00625948 -0.00176192 5.65031e-05
-0.00176192 0.00112399 3.73429e-06
5.65031e-05 3.73429e-06 0.00258009
0.000164893 5.32537e-05 6.80921e-07
5.32537e-05 -0.000152615 -3.05939e-06
6.80921e-07 -3.05939e-06 -0.000261853
0.00097603 1.18116e-05 4.38023e-07
1.18116e-05 0.000255369 2.20242e-06
4.38023e-07 2.20242e-06 0.000129555
0.00069508 4.78958e-05 -3.13042e-07
4.78958e-05 8.31998e-05 -3.43919e-06
-3.13042e-07 -3.43919e-06 -5.22672e-05
0.00121648 -1.85509e-05 -4.07963e-05
-1.85509e-05 0.00071022 2.00205e-05
-4.07963e-05 2.00205e-05 9.58916e-05
0.0010055 -4.15038e-05 -7.15063e-05
-4.15038e-05 0.000614945 -2.92096e-05
-7.15063e-05 -2.92096e-05 0.000537123
0.000725039 5.74322e-07 -1.89613e-06
5.74322e-07 0.000113973 4.0954e-06
-1.89613e-06 4.0954e-06 -9.48777e-06
-0.000844733 7.17646e-05 -2.79762e-06
7.17646e-05 -0.000552936 -4.41324e-06
-2.79762e-06 -4.41324e-06 -0.000787435
0.000560401 7.65221e-05 1.77331e-07
7.65221e-05 0.000171933 -2.97696e-06
1.77331e-07 -2.97696e-06 1.11717e-05
0.000627019 9.03076e-05 -3.76873e-06
9.03076e-05 0.000349486 3.7398e-06
-3.76873e-06 3.7398e-06 0.000139794
-0.000320107 -3.53493e-05 0.000112703
-3.53493e-05 0.000625419 -3.93609e-05
0.000112703 -3.93609e-05 -0.00051931
-0.00239303 -3.55467e-06 -2.20992e-05
-3.55467e-06 -0.00131893 1.18092e-05
-2.20992e-05 1.18092e-05 -0.00148363
0.00230027 0.000251315 -2.63809e-05
0.000251315 0.00134721 -3.91764e-05
-2.63809e-05 -3.91764e-05 0.000597786
0.00186436 2.75876e-06 6.96843e-05
2.75876e-06 0.000875962 1.00836e-05
6.96843e-05 1.00836e-05 -0.000549799
0.00066539 -1.69063e-05 1.63098e-05
-1.69063e-05 0.000472898 9.50235e-06
1.63098e-05 9.50235e-06 -2.27794e-06
0.00179172 -4.97661e-05 -1.16212e-07
-4.97661e-05 0.00042197 7.82713e-08
-1.16212e-07 7.82713e-08 0.000303973
-0.00265765 0.000166511 5.65439e-05
0.000166511 -0.000937922 7.6689e-06
5.65439e-05 7.6689e-06 -0.00153718
0.0034443 0.000106317 -2.04426e-05
0.000106317 0.00115556 -3.80635e-06
-2.04426e-05 -3.80635e-06 0.000652306
0.00117268 -4.05237e-06 1.57991e-07
-4.05237e-06 0.0003747 8.49319e-06
1.57991e-07 8.49319e-06 0.000298834
0.0156857 -0.00121586 0.000115401
-0.00121586 0.00687783 -2.45574e-05
0.000115401 -2.45574e-05 0.00315515
0.00946528 0.00128318 -7.02558e-05
0.00128318 0.00305304 -4.058e-05
-7.02558e-05 -4.058e-05 0.00251217
0.00358794 -0.000332731 -6.0334e-05
-0.000332731 0.0012652 0.000111434
-6.0334e-05 0.000111434 -0.00119953
-0.00732076 0.00196583 0.000491887
0.00196583 -0.00363035 -0.000374553
0.000491887 -0.000374553 -0.00183189
0.000944802 -0.000118332 1.12322e-06
-0.000118332 0.000671856 -2.22715e-06
1.12322e-06 -2.22715e-06 0.000354933
0.00114999 -9.55643e-05 -6.6337e-06
-9.55643e-05 5.95854e-05 7.9969e-06
-6.6337e-06 7.9969e-06 -0.0012591
-0.00270081 0.00020142 -0.000283901
0.00020142 0.00145528 0.00012563
-0.000283901 0.00012563 0.000258295
0.0018658 -0.00030678 -2.52248e-05
-0.00030678 0.00023104 3.40613e-05
-2.52248e-05 3.40613e-05 -4.84404e-05
0.00994993 0.00175434 6.52153e-05
0.00175434 0.00316851 6.46673e-05
6.52153e-05 6.46673e-05 0.00364701
0.00745836 -0.00115968 7.22665e-05
-0.00115968 0.00312406 -4.80372e-05
7.22665e-05 -4.80372e-05 0.000225865
0.000988843 -0.000239021 1.12104e-05
-0.000239021 0.000192153 2.432e-05
1.12104e-05 2.432e-05 0.000254236
-0.00355719 -0.00023821 2.77476e-05
-0.00023821 0.00106459 -1.51715e-05
2.77476e-05 -1.51715e-05 -0.00077398
0.00826382 0.00158739 -0.000297403
0.00158739 0.00397096 0.00013835
-0.000297403 0.00013835 0.0039018
0.00237502 -0.000625029 -0.000161674
-0.000625029 -0.000144945 0.000113126
-0.000161674 0.000113126 -0.00309897
0.00225143 -0.000815653 7.57876e-05
-0.000815653 0.000320665 -2.85259e-05
7.57876e-05 -2.85259e-05 2.41305e-05
-0.000575165 -0.000135071 -2.7585e-05
-0.000135071 -0.000154104 1.31063e-05
-2.7585e-05 1.31063e-05 -0.000407155
0.000424521 -0.000234197 -2.09814e-06
-0.000234197 0.000138926 4.14567e-06
-2.09814e-06 4.14567e-06 -8.14594e-05
0.00395468 -0.000556381 3.15181e-05
-0.000556381 0.0015629 3.73021e-06
3.15181e-05 3.73021e-06 0.00145577
-0.00262675 -3.50285e-05 -5.37522e-06
-3.50285e-05 -0.00146399 9.54996e-06
-5.37522e-06 9.54996e-06 -0.0017484
0.000762262 -0.000306331 2.9641e-06
-0.000306331 1.35888e-05 6.57248e-07
2.9641e-06 6.57248e-07 -0.000276724
0.00215342 -0.000500691 4.95375e-06
-0.000500691 0.000448553 1.03344e-07
4.95375e-06 1.03344e-07 0.000211458
0.0026686 -0.000414149 -1.03316e-05
-0.000414149 0.00110436 2.63084e-06
-1.03316e-05 2.63084e-06 0.00077238
0.0012885 -0.000353549 -2.20277e-06
-0.000353549 0.000212896 -3.24866e-06
-2.20277e-06 -3.24866e-06 -0.000132871
0.00206406 -0.000477126 4.71184e-06
-0.000477126 0.000403439 -4.13932e-06
4.71184e-06 -4.13932e-06 0.00013712
0.00237845 -0.000438986 -4.19273e-06
-0.000438986 0.000749472 -2.24056e-06
-4.19273e-06 -2.24056e-06 0.000416053
0.00154327 -0.000381752 -9.06289e-08
-0.000381752 0.000232758 -3.00103e-06
-9.06289e-08 -3.00103e-06 -8.32296e-05
0.00192824 -0.000399593 -2.12711e-07
-0.000399593 0.000311045 -6.27754e-06
-2.12711e-07 -6.27754e-06 7.66053e-05
0.00169105 -0.000317139 -1.87686e-06
-0.000317139 0.000156007 -3.19603e-06
-1.87686e-06 -3.19603e-06 -3.53094e-05
0.00164422 -0.00036595 2.2334e-06
-0.00036595 0.000212937 -9.97499e-07
2.2334e-06 -9.97499e-07 -3.04446e-05
0.00170265 -0.000366217 1.71677e-06
-0.000366217 0.000251698 -1.85449e-06
1.71677e-06 -1.85449e-06 1.31405e-05
0.00165021 -0.000321473 -1.36939e-06
-0.000321473 0.000331095 4.03915e-06
-1.36939e-06 4.03915e-06 9.99809e-05
0.00183985 -0.00038468 -1.78797e-06
-0.00038468 0.000402823 2.23472e-07
-1.78797e-06 2.23472e-07 0.000138598
0.00173845 -0.00038826 5.83735e-07
-0.00038826 0.000340044 -3.29016e-06
5.83735e-07 -3.29016e-06 5.41012e-05
0.0011112 -0.000230515 3.26001e-06
-0.000230515 0.000196733 2.7774e-07
3.26001e-06 2.7774e-07 -2.37497e-06
0.000690323 -0.00020863 -2.46032e-07
-0.00020863 -9.2161e-05 -9.9581e-07
-2.46032e-07 -9.9581e-07 -0.000284509
0.00157023 -0.000292769 5.29293e-06
-0.000292769 0.000383643 -4.7959e-06
5.29293e-06 -4.7959e-06 0.000171269
0.000721364 -0.00014869 -1.22439e-07
-0.00014869 7.19305e-05 -4.51237e-07
-1.22439e-07 -4.51237e-07 -9.73927e-05
0.000886134 -0.000186777 1.52944e-07
-0.000186777 0.00014893 -1.90552e-07
1.52944e-07 -1.90552e-07 -4.33521e-05
0.000822296 -0.000194914 -2.39755e-06
-0.000194914 7.47176e-05 -7.45557e-07
-2.39755e-06 -7.45557e-07 -0.000116672
0.000522931 3.88512e-05 1.15078e-06
3.88512e-05 -2.48576e-05 4.41834e-06
1.15078e-06 4.41834e-06 -0.00012175
0.000782636 -7.20869e-05 1.01286e-06
-7.20869e-05 0.000148709 6.51174e-07
1.01286e-06 6.51174e-07 -3.59356e-06
0.000999641 -0.000131188 -2.1864e-06
-0.000131188 0.000287775 1.0473e-06
-2.1864e-06 1.0473e-06 0.000116494
0.00134928 0.000100338 -1.3561e-05
0.000100338 0.000460427 4.24777e-06
-1.3561e-05 4.24777e-06 0.000429018
0.000648057 1.71823e-05 -5.09014e-07
1.71823e-05 3.4105e-05 -6.38445e-07
-5.09014e-07 -6.38445e-07 -4.05445e-05
0.000863899 -5.30195e-05 -1.70746e-06
-5.30195e-05 0.000189726 -1.76894e-06
-1.70746e-06 -1.76894e-06 6.58135e-05
0.000747436 4.77816e-05 -2.6964e-05
4.77816e-05 9.61804e-05 3.46349e-06
-2.6964e-05 3.46349e-06 9.55781e-05
0.000980637 7.80348e-05 -8.11684e-06
7.80348e-05 0.000229384 6.82537e-08
-8.11684e-06 6.82537e-08 0.000203492
0.000681814 2.0138e-05 7.93077e-07
2.0138e-05 4.37359e-05 -2.59412e-06
7.93077e-07 -2.59412e-06 -1.71698e-05
0.000576444 5.83625e-05 -3.25931e-07
5.83625e-05 -1.95864e-05 -4.53909e-06
-3.25931e-07 -4.53909e-06 -4.26362e-05
0.00234712 9.29099e-05 2.89303e-06
9.29099e-05 0.00103174 2.57389e-07
2.89303e-06 2.57389e-07 0.00103776
0.00230545 8.12392e-05 2.28079e-05
8.12392e-05 0.000999652 -3.69004e-06
2.28079e-05 -3.69004e-06 0.00100843
0.000689652 4.19787e-05 2.57643e-07
4.19787e-05 6.1473e-05 -3.74172e-07
2.57643e-07 -3.74172e-07 -4.9197e-05
0.000791044 6.13502e-05 3.7216e-08
6.13502e-05 0.000131972 -1.6793e-06
3.7216e-08 -1.6793e-06 2.14174e-05
0.000671037 3.19645e-05 4.54108e-08
3.19645e-05 5.03376e-05 7.5999e-08
4.54108e-08 7.5999e-08 -5.6797e-05
0.000658985 -1.9101e-06 -8.35683e-07
-1.9101e-06 2.29348e-05 -2.70933e-06
-8.35683e-07 -2.70933e-06 -4.30862e-05
0.000733957 5.03844e-05 6.42204e-07
5.03844e-05 9.05137e-05 3.12731e-08
6.42204e-07 3.12731e-08 -9.28133e-06
0.000568187 -3.13342e-05 -4.79602e-07
-3.13342e-05 -3.83651e-05 -5.08057e-06
-4.79602e-07 -5.08057e-06 -6.07106e-05
0.000642208 1.26858e-05 -9.57242e-08
1.26858e-05 1.36834e-05 -7.97217e-08
-9.57242e-08 -7.97217e-08 -4.83965e-05
0.000749715 6.1052e-05 -1.47388e-08
6.1052e-05 0.000115821 1.55809e-06
-1.47388e-08 1.55809e-06 8.47359e-06
0.00246765 -6.53142e-05 -2.5361e-05
-6.53142e-05 0.00108133 -4.45068e-06
-2.5361e-05 -4.45068e-06 0.00109279
0.000572834 -2.79961e-05 -3.67991e-07
-2.79961e-05 -4.12011e-05 -3.92975e-08
-3.67991e-07 -3.92975e-08 -5.95114e-05
0.000633428 1.85122e-05 4.70649e-07
1.85122e-05 9.04709e-06 2.45959e-06
4.70649e-07 2.45959e-06 -4.76781e-05
0.00233238 -5.03128e-05 -3.77199e-06
-5.03128e-05 0.000996508 1.89129e-07
-3.77199e-06 1.89129e-07 0.00101089
0.000581882 -2.14429e-05 -3.11037e-07
-2.14429e-05 -3.99858e-05 4.0839e-06
-3.11037e-07 4.0839e-06 -5.43311e-05
0.00221355 -3.50838e-05 1.45626e-05
-3.50838e-05 0.000922514 4.64468e-06
1.45626e-05 4.64468e-06 0.000939412
0.00374016 1.66195e-05 7.93577e-05
1.66195e-05 0.00144321 2.74363e-05
7.93577e-05 2.74363e-05 0.000483363
0.000820471 -7.55854e-05 -6.47755e-07
-7.55854e-05 0.000120705 4.93954e-06
-6.47755e-07 4.93954e-06 3.87121e-05
0.0014148 -7.12141e-05 -1.44208e-05
-7.12141e-05 -0.000290167 2.15136e-06
-1.44208e-05 2.15136e-06 -0.000110787
0.000735596 0.000100821 -3.37353e-06
0.000100821 8.35788e-05 6.32806e-08
-3.37353e-06 6.32806e-08 -3.5493e-05
0.00081661 4.88761e-05 -1.70288e-07
4.88761e-05 0.000134701 4.41617e-07
-1.70288e-07 4.41617e-07 2.6749e-05
0.000589065 1.6555e-05 1.94384e-07
1.6555e-05 -2.79879e-06 6.18551e-07
1.94384e-07 6.18551e-07 -0.000109123
0.000802672 2.18534e-05 -1.04336e-07
2.18534e-05 0.000118408 -8.38902e-08
-1.04336e-07 -8.38902e-08 1.18259e-05
0.000895267 6.43022e-05 -4.18044e-07
6.43022e-05 0.000177116 -5.18641e-08
-4.18044e-07 -5.18641e-08 6.35997e-05
0.000867337 9.04661e-05 6.31569e-07
9.04661e-05 0.000174435 7.5362e-07
6.31569e-07 7.5362e-07 5.0971e-05
0.000828621 7.60709e-05 -1.49368e-06
7.60709e-05 0.000143277 -4.0674e-06
-1.49368e-06 -4.0674e-06 1.34112e-05
0.000265359 1.3634e-05 2.26714e-08
1.3634e-05 -0.000174149 -9.80101e-07
2.26714e-08 -9.80101e-07 -0.000289736
0.000821536 0.000104834 -8.6499e-07
0.000104834 0.000148566 -8.07924e-08
-8.6499e-07 -8.07924e-08 2.64501e-05
0.000608414 7.16846e-06 -2.61173e-08
7.16846e-06 7.45346e-06 -2.15376e-06
-2.61173e-08 -2.15376e-06 -9.89818e-05
0.000710457 5.19827e-05 -4.03749e-07
5.19827e-05 9.22387e-05 3.96373e-07
-4.03749e-07 3.96373e-07 -2.6954e-05
0.00167507 0.00013017 6.19402e-06
0.00013017 0.000687246 5.52316e-06
6.19402e-06 5.52316e-06 0.000565284
0.000973219 -0.00066404 7.76554e-05
-0.00066404 0.0020629 0.000154691
7.76554e-05 0.000154691 0.00071406
0.00315188 0.000202613 1.77003e-05
0.000202613 0.00150767 5.82584e-05
1.77003e-05 5.82584e-05 -0.000811381
0.0010605 8.43613e-05 -1.74468e-05
8.43613e-05 0.000312661 -3.82279e-05
-1.74468e-05 -3.82279e-05 -0.00121506
0.00824122 -0.00145892 -0.000198004
-0.00145892 0.000926391 -0.000149776
-0.000198004 -0.000149776 0.00223187
0.0050183 -0.00047104 4.02605e-05
-0.00047104 0.000960902 0.000189135
4.02605e-05 0.000189135 -3.24859e-05
0.000629433 -0.00063049 -9.74866e-05
-0.00063049 0.00141988 9.62391e-05
-9.74866e-05 9.62391e-05 -0.00271326
0.00190629 -0.000233365 -3.06839e-05
-0.000233365 0.000416344 7.89647e-05
-3.06839e-05 7.89647e-05 -0.000124615
0.00314219 -0.000130307 1.71251e-05
-0.000130307 0.000660981 4.88788e-05
1.71251e-05 4.88788e-05 0.000344419
-0.000301662 -0.00180597 7.85668e-05
-0.00180597 -0.00122454 9.53829e-05
7.85668e-05 9.53829e-05 0.000422749
0.00514522 0.00072221 4.48168e-06
0.00072221 0.00332615 -1.38484e-05
4.48168e-06 -1.38484e-05 -0.000542071
0.00221367 -0.000957232 -2.91532e-05
-0.000957232 -0.00118455 3.82802e-05
-2.91532e-05 3.82802e-05 -0.00125232
0.00114793 0.000327293 9.94908e-07
0.000327293 -0.000219239 3.48208e-05
9.94908e-07 3.48208e-05 -0.000298479
0.00809516 0.000562579 -3.10485e-05
0.000562579 0.00394918 2.03642e-07
-3.10485e-05 2.03642e-07 0.00102224
0.00197427 -0.00154727 -0.000119945
-0.00154727 -0.000511462 -0.000140569
-0.000119945 -0.000140569 -0.000159318
0.000814253 0.000267499 4.79271e-06
0.000267499 0.000163162 -1.07269e-05
4.79271e-06 -1.07269e-05 4.16882e-05
0.000690847 7.95751e-05 3.90835e-06
7.95751e-05 0.000141382 -5.57424e-07
3.90835e-06 -5.57424e-07 3.36824e-05
0.000703 3.4076e-05 -9.06647e-07
3.4076e-05 0.000104941 -1.22027e-06
-9.06647e-07 -1.22027e-06 -2.67638e-05
0.000209952 -2.62414e-05 -0.000157533
-2.62414e-05 0.000943339 -4.4522e-05
-0.000157533 -4.4522e-05 -0.000166926
-0.00199336 0.000105278 7.52827e-06
0.000105278 -0.00108414 -1.30465e-05
7.52827e-06 -1.30465e-05 -0.00130831
0.000544648 0.000114138 -6.24706e-07
0.000114138 0.000166172 1.57215e-06
-6.24706e-07 1.57215e-06 -4.24088e-06
0.000570475 0.000260996 9.51338e-06
0.000260996 0.000221189 3.49182e-06
9.51338e-06 3.49182e-06 4.618e-05
0.000662219 0.000224379 -3.81108e-06
0.000224379 0.000411884 -3.09144e-05
-3.81108e-06 -3.09144e-05 -0.000221925
-0.000149589 0.000404349 2.32046e-05
0.000404349 -0.000493703 1.25314e-06
2.32046e-05 1.25314e-06 -0.000770664
-0.000425535 0.000186973 0.000127331
0.000186973 0.00273713 1.20024e-05
0.000127331 1.20024e-05 0.000844833
0.00194632 -2.58429e-05 -4.70298e-06
-2.58429e-05 0.000932929 1.59196e-05
-4.70298e-06 1.59196e-05 -0.000208751
0.000441127 -2.19934e-05 2.73928e-06
-2.19934e-05 0.000328617 1.3033e-05
2.73928e-06 1.3033e-05 -7.1584e-05
0.000154091 -7.96963e-05 -3.19127e-05
-7.96963e-05 0.000372429 6.7287e-06
-3.19127e-05 6.7287e-06 3.64935e-05
0.000652426 -0.000122742 -4.46861e-05
-0.000122742 -0.0009056 5.43451e-06
-4.46861e-05 5.43451e-06 -0.00071522
0.00170124 -8.71425e-05 -8.03868e-05
-8.71425e-05 0.000310332 2.28215e-05
-8.03868e-05 2.28215e-05 -0.000939666
-0.00146541 -0.00113045 4.91584e-05
-0.00113045 -0.000220018 -7.85315e-05
4.91584e-05 -7.85315e-05 -0.00380328
-0.00241817 0.00131077 0.000117916
0.00131077 -0.00368647 -0.000128385
0.000117916 -0.000128385 -0.00303058
0.00193186 0.000650793 -0.000143325
0.000650793 0.00274601 0.000140884
-0.000143325 0.000140884 0.00203537
0.00208868 -0.000135619 -1.11689e-05
-0.000135619 0.00058683 2.14353e-07
-1.11689e-05 2.14353e-07 0.000785584
0.00159194 0.000159955 2.08991e-05
0.000159955 0.00296462 8.94386e-06
2.08991e-05 8.94386e-06 0.00185729
-0.00367369 0.00094649 2.93128e-05
0.00094649 -0.00101495 1.08182e-05
2.93128e-05 1.08182e-05 -0.0021188
0.00374384 -0.000954504 2.26486e-05
-0.000954504 0.0013116 -5.51916e-06
2.26486e-05 -5.51916e-06 0.000574349
0.0102421 -0.000486919 1.05646e-05
-0.000486919 0.00352979 -9.20391e-06
1.05646e-05 -9.20391e-06 0.00165684
0.002406 -0.000508121 -3.93806e-06
-0.000508121 0.00063841 2.38185e-05
-3.93806e-06 2.38185e-05 0.000710987
-0.00768107 0.000363617 -0.000182675
0.000363617 -0.00358423 1.89976e-06
-0.000182675 1.89976e-06 -0.00427
0.011394 -0.000224976 -7.11521e-05
-0.000224976 0.00337395 2.37354e-05
-7.11521e-05 2.37354e-05 0.00187605
0.00402048 -0.00107749 7.4535e-06
-0.00107749 0.000168688 -1.32537e-05
7.4535e-06 -1.32537e-05 -0.000453057
0.000956999 -0.000254289 -2.24277e-05
-0.000254289 0.00045677 1.59678e-05
-2.24277e-05 1.59678e-05 0.000172354
0.00175102 -0.000409516 -3.1505e-06
-0.000409516 0.000316754 1.30218e-06
-3.1505e-06 1.30218e-06 0.000291242
0.00284507 -0.000464136 1.31746e-05
-0.000464136 0.000706966 -2.88116e-06
1.31746e-05 -2.88116e-06 0.000675431
-0.00162079 -9.06515e-05 -3.99264e-06
-9.06515e-05 -0.0011963 1.87659e-07
-3.99264e-06 1.87659e-07 -0.00149676
0.00136249 -0.000426848 -4.11616e-06
-0.000426848 6.70675e-05 -1.79449e-06
-4.11616e-06 -1.79449e-06 -0.000177234
0.00219955 -0.000509579 2.76167e-06
-0.000509579 0.00034074 -3.76378e-07
2.76167e-06 -3.76378e-07 0.000143883
0.00140248 -0.000359076 -1.12856e-05
-0.000359076 0.00025439 -2.83147e-06
-1.12856e-05 -2.83147e-06 -7.24973e-05
0.00157195 -0.000431999 4.78239e-08
-0.000431999 0.000151838 2.859e-07
4.78239e-08 2.859e-07 -0.000115506
0.0018334 -0.000404944 -1.18883e-06
-0.000404944 0.00013935 -4.88271e-06
-1.18883e-06 -4.88271e-06 -4.79621e-05
0.00111583 -0.00034797 -3.95933e-06
-0.00034797 -2.5837e-05 -3.10966e-07
-3.95933e-06 -3.10966e-07 -0.000328579
0.00161578 -0.000372277 -4.19089e-07
-0.000372277 0.0001359 4.53327e-07
-4.19089e-07 4.53327e-07 -9.34578e-05
0.00174468 -0.000319513 -1.67351e-06
-0.000319513 0.0001059 -5.35154e-06
-1.67351e-06 -5.35154e-06 -5.0027e-05
0.00159718 -0.000253765 -3.5441e-06
-0.000253765 4.15349e-05 -3.37478e-06
-3.5441e-06 -3.37478e-06 -0.000100116
0.00151396 -0.000299447 -1.73115e-06
-0.000299447 8.13359e-05 -2.20943e-06
-1.73115e-06 -2.20943e-06 -0.000116438
0.00159048 -0.000303224 8.26615e-07
-0.000303224 0.000103063 1.30417e-06
8.26615e-07 1.30417e-06 -8.35934e-05
0.00140558 -0.000311286 -2.74548e-06
-0.000311286 0.000115652 4.21389e-08
-2.74548e-06 4.21389e-08 -0.000110255
0.00158744 -0.000357284 1.77759e-06
-0.000357284 0.000189448 -2.5582e-07
1.77759e-06 -2.5582e-07 -5.01407e-05
0.00157784 -0.000356415 1.35826e-06
-0.000356415 0.000183455 9.28363e-07
1.35826e-06 9.28363e-07 -5.23683e-05
0.00120314 -0.000251981 -2.9855e-08
-0.000251981 0.000143465 2.85623e-06
-2.9855e-08 2.85623e-06 -6.24671e-05
0.00133796 -0.000297872 2.23008e-06
-0.000297872 0.000155282 -9.4918e-07
2.23008e-06 -9.4918e-07 -7.24754e-05
0.00150585 -0.000356831 -1.63294e-06
-0.000356831 0.00022598 -2.50263e-06
-1.63294e-06 -2.50263e-06 -3.90576e-05
0.000991834 -0.000194929 -9.14526e-07
-0.000194929 0.000161502 1.8785e-06
-9.14526e-07 1.8785e-06 -1.92712e-05
0.00114453 -0.00023172 4.51497e-07
-0.00023172 0.000209698 -4.84599e-07
4.51497e-07 -4.84599e-07 1.14931e-05
0.000947263 -0.000227168 -4.89853e-07
-0.000227168 5.85178e-05 -4.92337e-06
-4.89853e-07 -4.92337e-06 -0.000132608
0.000668319 -6.07936e-05 -9.60111e-07
-6.07936e-05 4.45733e-05 4.75561e-06
-9.60111e-07 4.75561e-06 -7.84508e-05
0.000924225 -0.000151408 9.75734e-08
-0.000151408 0.000188519 -8.22187e-09
9.75734e-08 -8.22187e-09 1.73114e-05
0.000512934 -0.00014868 -2.97444e-06
-0.00014868 -6.50837e-05 3.75115e-07
-2.97444e-06 3.75115e-07 -0.000249954
0.000420641 6.04429e-05 1.72908e-06
6.04429e-05 -8.19382e-05 7.2875e-06
1.72908e-06 7.2875e-06 -0.000124222
0.00069491 -3.00042e-05 -3.24693e-07
-3.00042e-05 7.4088e-05 -4.14268e-07
-3.24693e-07 -4.14268e-07 -2.76539e-05
0.00105526 -0.000104958 7.20081e-07
-0.000104958 0.000311454 -1.19763e-06
7.20081e-07 -1.19763e-06 0.000150941
0.00249656 0.00012904 -7.77055e-06
0.00012904 0.00113635 1.56667e-06
-7.77055e-06 1.56667e-06 0.00113266
0.000547807 6.65465e-05 -3.50535e-07
6.65465e-05 -1.54556e-05 -2.56169e-07
-3.50535e-07 -2.56169e-07 -4.84723e-05
0.000728987 -3.51772e-06 1.67032e-06
-3.51772e-06 7.88137e-05 -3.91644e-06
1.67032e-06 -3.91644e-06 3.21005e-06
0.00242339 0.000104788 3.08883e-06
0.000104788 0.00108416 2.64413e-07
3.08883e-06 2.64413e-07 0.00108732
0.000572961 6.47568e-05 -8.90007e-07
6.47568e-05 -1.01895e-05 -5.08268e-06
-8.90007e-07 -5.08268e-06 -3.77226e-05
0.00240518 9.51795e-05 2.78682e-05
9.51795e-05 0.00106666 -3.24501e-06
2.78682e-05 -3.24501e-06 0.00107217
0.000900046 0.000106198 -7.71888e-08
0.000106198 0.000180314 1.19933e-06
-7.71888e-08 1.19933e-06 5.71082e-05
0.000763303 5.4476e-05 -1.16526e-07
5.4476e-05 0.000105938 -2.37824e-07
-1.16526e-07 -2.37824e-07 -7.58542e-06
0.000801486 4.3472e-05 1.94329e-08
4.3472e-05 0.000143349 -2.10278e-06
1.94329e-08 -2.10278e-06 2.36524e-05
0.000665823 -5.94954e-06 -1.07189e-06
-5.94954e-06 3.0436e-05 -3.16074e-06
-1.07189e-06 -3.16074e-06 -4.02784e-05
0.00072688 3.22778e-05 4.12364e-07
3.22778e-05 8.94905e-05 1.38765e-07
4.12364e-07 1.38765e-07 -1.63024e-05
0.000627986 4.32442e-05 6.71375e-07
4.32442e-05 3.16814e-05 9.57365e-07
6.71375e-07 9.57365e-07 -7.98495e-05
0.000567381 -3.76418e-05 -6.98394e-07
-3.76418e-05 -3.29159e-05 -5.49553e-06
-6.98394e-07 -5.49553e-06 -5.92191e-05
0.000644312 4.54568e-06 -3.56537e-08
4.54568e-06 1.6213e-05 -6.44254e-08
-3.56537e-08 -6.44254e-08 -5.04664e-05
0.000720041 4.86115e-05 9.21416e-07
4.86115e-05 7.88097e-05 1.35173e-06
9.21416e-07 1.35173e-06 -1.76926e-05
0.00258628 -7.8869e-05 -3.2233e-05
-7.8869e-05 0.00115668 -4.16792e-06
-3.2233e-05 -4.16792e-06 0.00116542
0.000558891 -3.27891e-05 -4.91047e-07
-3.27891e-05 -4.38886e-05 -4.01202e-08
-4.91047e-07 -4.01202e-08 -6.61815e-05
0.000642028 1.53958e-05 7.3308e-07
1.53958e-05 1.43772e-05 2.67346e-06
7.3308e-07 2.67346e-06 -4.78595e-05
0.00243775 -6.41973e-05 -4.25159e-06
-6.41973e-05 0.00106316 2.4906e-07
-4.25159e-06 2.4906e-07 0.00107497
0.000570615 -2.73275e-05 -3.72907e-07
-2.73275e-05 -4.26616e-05 4.54812e-06
-3.72907e-07 4.54812e-06 -6.07613e-05
0.0022986 -4.87551e-05 1.88883e-05
-4.87551e-05 0.000976101 4.53848e-06
1.88883e-05 4.53848e-06 0.000990902
-0.00499837 0.000109362 -8.27784e-06
0.000109362 0.000661854 4.70351e-05
-8.27784e-06 4.70351e-05 -0.00151888
0.0034534 -2.99875e-05 3.57483e-07
-2.99875e-05 0.00147414 1.04947e-05
3.57483e-07 1.04947e-05 0.000460114
0.000853688 -7.67173e-05 -6.29421e-06
-7.67173e-05 0.000148866 -5.259e-06
-6.29421e-06 -5.259e-06 5.02382e-05
0.000589984 6.37818e-05 -6.03227e-07
6.37818e-05 -3.80211e-06 3.55745e-07
-6.03227e-07 3.55745e-07 -0.000115856
0.00167445 0.000244515 -5.66882e-07
0.000244515 0.000635009 1.54688e-06
-5.66882e-07 1.54688e-06 0.000481826
0.000637262 6.47292e-05 -2.53856e-06
6.47292e-05 2.6557e-05 -2.92029e-07
-2.53856e-06 -2.92029e-07 -9.33823e-05
0.00100196 2.25759e-05 -1.76533e-07
2.25759e-05 0.000230073 -2.33804e-07
-1.76533e-07 -2.33804e-07 0.000125535
0.00121478 0.000105713 1.57868e-06
0.000105713 0.000361953 5.27951e-07
1.57868e-06 5.27951e-07 0.000244772
0.000562262 3.51734e-05 -1.141e-06
3.51734e-05 -1.36826e-05 3.23758e-06
-1.141e-06 3.23758e-06 -0.000122753
0.000613407 5.27163e-05 -1.19047e-06
5.27163e-05 3.42227e-05 6.21066e-07
-1.19047e-06 6.21066e-07 -9.19074e-05
0.00077536 6.10552e-05 -5.21579e-07
6.10552e-05 0.000110507 -2.06143e-07
-5.21579e-07 -2.06143e-07 -1.49279e-05
0.000844868 0.000110871 1.11989e-07
0.000110871 0.000173505 -3.03672e-06
1.11989e-07 -3.03672e-06 1.99114e-05
0.00044977 0.000165831 2.26975e-06
0.000165831 -0.000105548 -6.06138e-06
2.26975e-06 -6.06138e-06 -0.000207231
0.000864808 7.67707e-05 -8.72631e-07
7.67707e-05 0.000186213 -8.28854e-07
-8.72631e-07 -8.28854e-07 5.88855e-05
0.00101588 0.000115651 4.87736e-07
0.000115651 0.000308975 2.49053e-06
4.87736e-07 2.49053e-06 0.000184162
-0.00534083 -0.000745198 -0.000313726
-0.000745198 -0.00146605 1.19175e-05
-0.000313726 1.19175e-05 -0.00248543
-0.00261222 -0.000515358 0.000128595
-0.000515358 0.00102542 6.26249e-05
0.000128595 6.26249e-05 -0.000620039
0.00375285 0.00022763 -0.000115359
0.00022763 0.00167765 -6.9755e-05
-0.000115359 -6.9755e-05 -0.000690909
-0.00773829 -0.00186273 0.000396447
-0.00186273 -0.00355222 0.000327984
0.000396447 0.000327984 -0.0018793
0.0116046 -0.00120637 -7.25297e-05
-0.00120637 0.00354887 9.7996e-05
-7.25297e-05 9.7996e-05 0.00345866
-0.000825425 0.000893683 3.07134e-06
0.000893683 0.000123158 -5.39578e-05
3.07134e-06 -5.39578e-05 -0.00365853
0.00281888 -3.34124e-05 -0.000147893
-3.34124e-05 0.000862784 4.76031e-05
-0.000147893 4.76031e-05 3.52464e-05
0.00274704 0.000345389 -1.01081e-05
0.000345389 0.000743358 1.93764e-05
-1.01081e-05 1.93764e-05 0.000478189
0.00834034 -0.00134198 -0.000135997
-0.00134198 0.00404638 4.89961e-05
-0.000135997 4.89961e-05 0.00405988
0.000147406 0.000785648 -6.28043e-06
0.000785648 0.000485382 -2.05302e-05
-6.28043e-06 -2.05302e-05 -0.00251886
0.00135343 0.000600578 -5.95074e-05
0.000600578 0.000197029 -6.77326e-05
-5.95074e-05 -6.77326e-05 -0.000159164
0.00411335 0.00123618 -0.000148246
0.00123618 0.000414762 -9.02001e-05
-0.000148246 -9.02001e-05 -0.00176273
0.00211521 0.000555009 1.61874e-05
0.000555009 0.000536373 -2.21462e-05
1.61874e-05 -2.21462e-05 0.000324695
0.000792183 0.000250333 -4.57786e-06
0.000250333 0.000144824 1.00436e-06
-4.57786e-06 1.00436e-06 2.88584e-05
0.00131398 8.7102e-05 -2.72926e-06
8.7102e-05 0.000487062 1.66956e-06
-2.72926e-06 1.66956e-06 0.000385607
-0.000813959 0.000178197 -4.00604e-05
0.000178197 -0.000335563 -4.00139e-05
-4.00604e-05 -4.00139e-05 -0.000866095
0.00289204 0.000385627 -1.6671e-05
0.000385627 0.00143562 -1.15241e-05
-1.6671e-05 -1.15241e-05 0.0012506
0.00116153 0.000515901 1.37489e-05
0.000515901 0.000115821 -3.89446e-06
1.37489e-05 -3.89446e-06 -0.000170472
0.00324245 0.000839648 8.94063e-05
0.000839648 0.000541467 2.79973e-05
8.94063e-05 2.79973e-05 0.000460309
-0.00441669 -5.21638e-05 -0.000266257
-5.21638e-05 -0.00319918 -5.62055e-08
-0.000266257 -5.62055e-08 -0.00227913
-0.00231167 0.000110946 0.000106974
0.000110946 0.00204093 1.88454e-06
0.000106974 1.88454e-06 7.96355e-06
0.00187224 -5.14295e-05 -6.15674e-05
-5.14295e-05 0.000910857 2.28758e-05
-6.15674e-05 2.28758e-05 2.77393e-06
0.00337031 -0.000272791 -6.30816e-05
-0.000272791 0.00116679 -3.44746e-05
-6.30816e-05 -3.44746e-05 0.00133531
0.001901 -0.000845633 -3.94055e-05
-0.000845633 0.000142526 6.66346e-06
-3.94055e-05 6.66346e-06 -0.000421387
0.00179734 0.000108364 -1.80334e-05
0.000108364 0.00301541 3.35127e-05
-1.80334e-05 3.35127e-05 0.00201437
0.00216892 -0.000652424 0.000131959
-0.000652424 0.000131198 -0.00010832
0.000131959 -0.00010832 -0.00226874
0.00984458 0.000937459 7.48295e-05
0.000937459 0.00473594 1.18426e-05
7.48295e-05 1.18426e-05 0.00414194
0.00259158 -0.000647779 -1.89953e-05
-0.000647779 0.000578581 6.81786e-06
-1.89953e-05 6.81786e-06 0.000511776
-0.000943688 0.000482862 5.17859e-05
0.000482862 -0.000514926 -1.49595e-05
5.17859e-05 -1.49595e-05 -0.000989759
0.00405637 -0.000225239 -4.16469e-05
-0.000225239 -0.000291925 5.0629e-05
-4.16469e-05 5.0629e-05 -0.00234533
0.00589136 -0.00114202 -3.09682e-05
-0.00114202 0.00134457 1.34808e-05
-3.09682e-05 1.34808e-05 0.000705641
0.000434282 -0.000381867 3.61667e-05
-0.000381867 -0.000440354 -7.94893e-06
3.61667e-05 -7.94893e-06 -0.000653839
0.00944774 -0.000370929 1.99181e-05
-0.000370929 0.00227481 -3.05601e-05
1.99181e-05 -3.05601e-05 0.000945729
0.00415335 -0.000574124 5.7356e-05
-0.000574124 -2.1774e-05 -3.40712e-05
5.7356e-05 -3.40712e-05 -0.000121215
-0.000476175 -0.000265741 -1.94094e-05
-0.000265741 -0.000945479 5.9634e-06
-1.94094e-05 5.9634e-06 -0.000885108
0.000701108 -0.000338396 -7.46767e-06
-0.000338396 -0.000451546 -1.02745e-06
-7.46767e-06 -1.02745e-06 -0.000437946
0.00306376 -0.000487633 2.32161e-05
-0.000487633 0.000661155 -1.61159e-05
2.32161e-05 -1.61159e-05 0.000640032
0.000337946 -0.00033295 -1.02019e-05
-0.00033295 -0.00043702 -4.22061e-06
-1.02019e-05 -4.22061e-06 -0.000682185
0.00169802 -0.000464878 -7.23433e-08
-0.000464878 8.78685e-05 -2.16116e-07
-7.23433e-08 -2.16116e-07 -9.81142e-05
0.00211434 -0.000422618 -3.80498e-06
-0.000422618 0.000170983 -1.27143e-06
-3.80498e-06 -1.27143e-06 4.56654e-05
0.00127372 -0.000402071 -2.53877e-06
-0.000402071 1.73432e-06 2.79205e-06
-2.53877e-06 2.79205e-06 -0.000267277
0.00179966 -0.000399801 -2.4417e-06
-0.000399801 0.000124634 2.9982e-07
-2.4417e-06 2.9982e-07 -6.39982e-05
0.00180088 -0.000317652 -1.93943e-06
-0.000317652 3.56361e-05 -1.51453e-06
-1.93943e-06 -1.51453e-06 -8.19843e-05
0.00135874 -0.000348721 3.54293e-06
-0.000348721 -7.88978e-06 4.24281e-06
3.54293e-06 4.24281e-06 -0.0002326
0.00169103 -0.000311088 5.1897e-09
-0.000311088 8.21398e-05 7.16697e-07
5.1897e-09 7.16697e-07 -7.18983e-05
0.00180345 -0.000261976 -2.84545e-06
-0.000261976 0.000100345 -2.07081e-06
-2.84545e-06 -2.07081e-06 -7.65186e-06
0.00186102 -0.000238173 -1.96615e-06
-0.000238173 0.000194805 -9.11012e-07
-1.96615e-06 -9.11012e-07 8.14001e-05
0.00165121 -0.000254253 -2.43484e-06
-0.000254253 7.17428e-05 2.92863e-06
-2.43484e-06 2.92863e-06 -6.55334e-05
0.00172292 -0.000262788 -1.01462e-06
-0.000262788 0.000149931 -5.41945e-06
-1.01462e-06 -5.41945e-06 -5.47911e-06
0.0016408 -0.000297191 -3.59408e-06
-0.000297191 0.000182638 -1.65969e-06
-3.59408e-06 -1.65969e-06 -1.65851e-05
0.00162377 -0.000305094 1.20518e-06
-0.000305094 0.000141657 4.67209e-07
1.20518e-06 4.67209e-07 -5.62336e-05
0.00150162 -0.000289875 1.99032e-06
-0.000289875 5.62281e-05 5.71434e-06
1.99032e-06 5.71434e-06 -0.00012578
0.00134068 -0.000267588 -6.23714e-06
-0.000267588 0.000137259 1.95858e-06
-6.23714e-06 1.95858e-06 -6.86223e-05
0.00145322 -0.000315151 -6.37848e-08
-0.000315151 0.000140356 5.0508e-09
-6.37848e-08 5.0508e-09 -8.55083e-05
0.0015821 -0.000353262 2.31444e-06
-0.000353262 0.00019418 5.3723e-07
2.31444e-06 5.3723e-07 -4.23259e-05
0.00114523 -0.000221002 -2.77942e-06
-0.000221002 0.000171382 3.02194e-06
-2.77942e-06 3.02194e-06 -2.00353e-05
0.00126045 -0.000256178 6.12267e-07
-0.000256178 0.000173885 7.21389e-07
6.12267e-07 7.21389e-07 -3.2946e-05
0.00117722 -0.000286819 2.64497e-06
-0.000286819 6.71763e-05 -4.01242e-06
2.64497e-06 -4.01242e-06 -0.00015856
0.000721205 -0.000123287 -4.62044e-06
-0.000123287 4.30055e-05 4.06053e-06
-4.62044e-06 4.06053e-06 -9.89032e-05
0.00108329 -0.000203742 7.06821e-07
-0.000203742 0.000212667 -4.13298e-07
7.06821e-07 -4.13298e-07 3.03946e-05
0.00125116 -0.00023925 -3.2483e-08
-0.00023925 0.000265702 -2.27418e-06
-3.2483e-08 -2.27418e-06 6.72356e-05
0.000424158 1.19285e-05 -2.47571e-06
1.19285e-05 -9.64879e-05 9.49741e-06
-2.47571e-06 9.49741e-06 -0.000146133
0.000747252 -8.7994e-05 1.57681e-07
-8.7994e-05 9.42898e-05 5.1168e-07
1.57681e-07 5.1168e-07 -3.51311e-05
0.00116968 -0.000164176 1.82881e-07
-0.000164176 0.000330998 -5.80306e-07
1.82881e-07 -5.80306e-07 0.000155273
0.00281153 0.000136822 -4.34412e-05
0.000136822 0.00132426 2.28579e-06
-4.34412e-05 2.28579e-06 0.0013191
0.000544258 4.63371e-05 -3.86276e-07
4.63371e-05 -1.56803e-05 -6.20324e-07
-3.86276e-07 -6.20324e-07 -5.63675e-05
0.000862239 -7.67726e-05 3.08886e-06
-7.67726e-05 0.000172168 -4.58997e-06
3.08886e-06 -4.58997e-06 6.53005e-05
0.00172765 9.47557e-05 1.97434e-05
9.47557e-05 0.000680787 8.36265e-08
1.97434e-05 8.36265e-08 0.000677081
0.000605217 6.09032e-05 3.1402e-08
6.09032e-05 1.67169e-05 -6.03145e-06
3.1402e-08 -6.03145e-06 -1.55915e-05
0.00251145 0.000107466 3.53404e-05
0.000107466 0.00113607 -2.64673e-06
3.53404e-05 -2.64673e-06 0.00113883
0.000925293 0.000116477 2.23341e-06
0.000116477 0.000180594 1.04559e-06
2.23341e-06 1.04559e-06 5.83089e-05
0.000636252 5.89914e-05 -2.76058e-07
5.89914e-05 2.0664e-05 5.42106e-07
-2.76058e-07 5.42106e-07 -9.15712e-05
0.000695849 2.71767e-05 -2.2726e-07
2.71767e-05 6.39923e-05 -1.33978e-06
-2.2726e-07 -1.33978e-06 -4.87938e-05
0.000897567 7.62077e-05 4.19079e-07
7.62077e-05 0.000186114 5.21375e-07
4.19079e-07 5.21375e-07 6.85659e-05
0.000720546 2.10946e-05 1.86208e-07
2.10946e-05 7.94729e-05 4.79874e-08
1.86208e-07 4.79874e-08 -2.71634e-05
0.000670476 -4.91895e-06 -1.25448e-06
-4.91895e-06 3.65144e-05 -3.63553e-06
-1.25448e-06 -3.63553e-06 -3.98839e-05
0.000569345 -4.00507e-05 -1.09224e-06
-4.00507e-05 -2.52272e-05 -6.04297e-06
-1.09224e-06 -6.04297e-06 -5.48587e-05
0.000640647 -3.78042e-06 2.2216e-07
-3.78042e-06 1.69896e-05 -7.77231e-08
2.2216e-07 -7.77231e-08 -5.41291e-05
0.000654415 3.66415e-06 -6.18503e-08
3.66415e-06 3.12472e-05 1.47697e-06
-6.18503e-08 1.47697e-06 -6.2123e-05
0.00267144 -9.15552e-05 -3.95273e-05
-9.15552e-05 0.00121301 -3.77888e-06
-3.95273e-05 -3.77888e-06 0.00121919
0.000548039 -3.3063e-05 -3.05562e-07
-3.3063e-05 -4.47057e-05 -1.88698e-08
-3.05562e-07 -1.88698e-08 -7.04099e-05
0.000632407 1.08534e-05 1.34339e-06
1.08534e-05 1.14118e-05 2.85125e-06
1.34339e-06 2.85125e-06 -5.61812e-05
0.00255757 -7.80755e-05 -4.4323e-06
-7.80755e-05 0.0011393 2.88945e-07
-4.4323e-06 2.88945e-07 0.00114826
0.000550425 -3.30269e-05 -1.11654e-07
-3.30269e-05 -4.90248e-05 5.01827e-06
-1.11654e-07 5.01827e-06 -7.11689e-05
0.00242463 -6.32387e-05 2.33699e-05
-6.32387e-05 0.00105484 4.42608e-06
2.33699e-05 4.42608e-06 0.0010669
0.000350983 0.000308763 -0.000155604
0.000308763 0.00141495 4.70386e-05
-0.000155604 4.70386e-05 0.000436457
-0.00208795 -6.0357e-05 8.25476e-06
-6.0357e-05 0.0015056 1.34649e-05
8.25476e-06 1.34649e-05 -0.000625058
0.00319594 -6.23973e-05 -6.30399e-05
-6.23973e-05 0.00156029 -3.83038e-06
-6.30399e-05 -3.83038e-06 0.000499445
0.000496018 3.14153e-05 1.79932e-06
3.14153e-05 -6.04961e-05 -1.38884e-06
1.79932e-06 -1.38884e-06 -0.000166793
0.000618649 4.14468e-05 1.97114e-06
4.14468e-05 1.27171e-05 4.22425e-07
1.97114e-06 4.22425e-07 -0.000105128
0.00126258 0.000202472 -1.29434e-06
0.000202472 0.000404576 6.98997e-07
-1.29434e-06 6.98997e-07 0.000260569
0.0015681 0.000269658 2.33068e-06
0.000269658 0.000519363 -1.0685e-06
2.33068e-06 -1.0685e-06 0.000333772
0.00108109 0.000160276 -6.43019e-06
0.000160276 0.000311852 -2.32694e-06
-6.43019e-06 -2.32694e-06 0.000160791
0.000977018 0.000104992 1.09444e-06
0.000104992 0.000245622 2.86647e-06
1.09444e-06 2.86647e-06 0.000114129
0.000766179 7.23614e-05 3.05504e-06
7.23614e-05 0.000107032 2.37148e-06
3.05504e-06 2.37148e-06 -1.78538e-05
0.000669617 0.000124609 -3.58456e-06
0.000124609 7.84011e-05 -3.34026e-06
-3.58456e-06 -3.34026e-06 -6.91833e-05
-0.000717028 7.70096e-05 -6.29942e-07
7.70096e-05 -0.000755949 -2.92457e-07
-6.29942e-07 -2.92457e-07 -0.000907536
0.00118533 0.000250249 2.01302e-06
0.000250249 0.000250305 -3.32774e-06
2.01302e-06 -3.32774e-06 0.000134312
0.00220106 0.000492312 3.3531e-06
0.000492312 0.000515252 -1.22813e-05
3.3531e-06 -1.22813e-05 0.000319569
0.000603737 0.00018849 -5.36607e-06
0.00018849 -2.43983e-06 -2.64739e-07
-5.36607e-06 -2.64739e-07 -0.000109542
0.000582968 6.59799e-05 7.51152e-07
6.59799e-05 2.68493e-05 -1.35795e-06
7.51152e-07 -1.35795e-06 -8.69748e-05
0.0109361 0.000653236 -7.37685e-05
0.000653236 0.00293282 3.66642e-05
-7.37685e-05 3.66642e-05 0.00156926
-0.000682193 -0.000592362 -0.000153412
-0.000592362 0.00138349 -4.66883e-05
-0.000153412 -4.66883e-05 0.000210489
-0.000888928 -0.000795782 7.59378e-05
-0.000795782 0.00113857 -2.04493e-05
7.59378e-05 -2.04493e-05 -0.000564804
-0.0024002 -0.000688543 -4.58856e-06
-0.000688543 -0.000802252 0.000118887
-4.58856e-06 0.000118887 -0.000881094
0.010784 0.000717406 3.81353e-06
0.000717406 0.00501497 -5.34367e-06
3.81353e-06 -5.34367e-06 0.00191268
0.000790858 0.000319662 -5.06518e-05
0.000319662 -0.000291039 -2.01493e-05
-5.06518e-05 -2.01493e-05 -0.000404957
0.00146467 0.000618714 -2.07079e-05
0.000618714 0.000207078 -1.09261e-05
-2.07079e-05 -1.09261e-05 -6.62154e-05
0.00947103 0.000669131 3.14878e-05
0.000669131 0.00316225 2.00723e-05
3.14878e-05 2.00723e-05 0.00132117
0.00550612 0.00124171 -3.30519e-05
0.00124171 0.000926153 -3.98887e-05
-3.30519e-05 -3.98887e-05 0.000458165
0.00184672 0.000596166 8.03753e-07
0.000596166 0.000222678 -5.19257e-06
8.03753e-07 -5.19257e-06 5.84701e-05
0.0010063 0.000416779 5.64177e-06
0.000416779 7.78895e-05 -1.72182e-06
5.64177e-06 -1.72182e-06 -0.000123951
0.000901571 0.000234776 -1.66337e-05
0.000234776 0.000215963 1.5728e-05
-1.66337e-05 1.5728e-05 0.00010605
0.00264923 0.000667457 -4.00595e-05
0.000667457 0.000750931 -1.41891e-05
-4.00595e-05 -1.41891e-05 0.000476551
0.00228393 0.000765334 -2.72428e-06
0.000765334 -3.15262e-06 1.73607e-05
-2.72428e-06 1.73607e-05 -0.000111847
0.000651078 -0.000308228 -3.07939e-05
-0.000308228 -0.00283584 5.63478e-06
-3.07939e-05 5.63478e-06 -0.00322564
0.00236596 -0.000353572 -1.20723e-06
-0.000353572 0.0013395 -1.88045e-05
-1.20723e-06 -1.88045e-05 0.00138804
-0.00419928 1.67799e-05 0.000132655
1.67799e-05 0.00144452 -9.88144e-06
0.000132655 -9.88144e-06 -0.000741287
0.00226661 -0.000698808 -3.40104e-05
-0.000698808 0.000336343 4.87033e-06
-3.40104e-05 4.87033e-06 0.000190424
0.00334385 -0.00101461 3.3994e-05
-0.00101461 0.000679355 -1.23815e-05
3.3994e-05 -1.23815e-05 -0.000254177
0.00123082 -0.000271956 0.000187015
-0.000271956 0.00169879 4.18916e-06
0.000187015 4.18916e-06 0.000947166
0.0116865 -0.000263824 -0.000113478
-0.000263824 0.00375948 6.07561e-05
-0.000113478 6.07561e-05 0.00213477
0.00074221 -0.000414461 -2.39316e-05
-0.000414461 -0.000356626 -2.8584e-06
-2.39316e-05 -2.8584e-06 -0.00048601
0.00818903 6.67157e-05 -4.04331e-05
6.67157e-05 0.00134163 2.64829e-05
-4.04331e-05 2.64829e-05 0.000349416
0.00441333 -0.000638407 6.7826e-05
-0.000638407 -2.78358e-05 2.05171e-06
6.7826e-05 2.05171e-06 -0.000474257
0.00262247 -0.000414467 3.91982e-05
-0.000414467 0.000584758 -1.07716e-05
3.91982e-05 -1.07716e-05 0.000280312
0.00336187 -0.000220015 -8.60196e-05
-0.000220015 0.000163867 -1.31324e-06
-8.60196e-05 -1.31324e-06 6.34217e-05
-0.00101734 -0.000241832 -1.50706e-05
-0.000241832 -0.00139143 3.50693e-06
-1.50706e-05 3.50693e-06 -0.00133853
0.00155904 -0.000407979 4.61857e-07
-0.000407979 -0.000129699 -7.4171e-07
4.61857e-07 -7.4171e-07 -0.000140406
0.00228032 -0.000340513 1.26377e-05
-0.000340513 0.000140175 -8.68638e-06
1.26377e-05 -8.68638e-06 0.000165028
0.00128748 -0.000429953 -1.61095e-06
-0.000429953 -0.000117109 2.67786e-06
-1.61095e-06 2.67786e-06 -0.000295682
0.0018012 -0.000393424 -2.21088e-06
-0.000393424 2.27715e-05 -2.02553e-08
-2.21088e-06 -2.02553e-08 -0.000100031
0.00206674 -0.000305649 -1.50249e-07
-0.000305649 8.11834e-05 1.13403e-06
-1.50249e-07 1.13403e-06 2.73147e-05
0.00166621 -0.000386606 -2.3921e-06
-0.000386606 5.70393e-05 4.84108e-06
-2.3921e-06 4.84108e-06 -0.000131872
0.00184662 -0.000318414 4.86459e-07
-0.000318414 6.24407e-05 1.51657e-06
4.86459e-07 1.51657e-06 -5.44379e-05
0.00173922 -0.000268977 -7.46674e-07
-0.000268977 2.30765e-06 1.10716e-06
-7.46674e-07 1.10716e-06 -8.07982e-05
0.00165557 -0.000304546 3.8134e-06
-0.000304546 6.71967e-05 5.45564e-06
3.8134e-06 5.45564e-06 -8.52542e-05
0.00174826 -0.000261639 -2.43115e-07
-0.000261639 6.75923e-05 1.15876e-06
-2.43115e-07 1.15876e-06 -4.13476e-05
0.00204769 -0.000259971 -1.86832e-07
-0.000259971 0.000260937 -1.88534e-07
-1.86832e-07 -1.88534e-07 0.000164117
0.00176643 -0.000235603 -3.81466e-06
-0.000235603 0.000131157 3.56442e-06
-3.81466e-06 3.56442e-06 2.11639e-05
0.001818 -0.000246647 2.07771e-06
-0.000246647 0.000193181 -3.28735e-06
2.07771e-06 -3.28735e-06 6.47783e-05
0.00170295 -0.000255124 1.96442e-06
-0.000255124 0.000100647 7.64213e-06
1.96442e-06 7.64213e-06 -3.23643e-05
0.00172785 -0.00026493 4.36856e-07
-0.00026493 0.00015314 -8.07373e-07
4.36856e-07 -8.07373e-07 -3.08303e-06
0.00165998 -0.000256811 -1.51337e-06
-0.000256811 0.000156647 -2.9605e-06
-1.51337e-06 -2.9605e-06 -1.27828e-05
0.00147568 -0.000259809 -5.38657e-06
-0.000259809 0.000152603 1.04983e-07
-5.38657e-06 1.04983e-07 -4.03115e-05
0.00166838 -0.000300273 3.72948e-07
-0.000300273 0.000200745 -4.31165e-07
3.72948e-07 -4.31165e-07 2.81145e-07
0.00173497 -0.000311027 2.90079e-06
-0.000311027 0.000203401 2.78188e-06
2.90079e-06 2.78188e-06 5.30672e-06
0.0011155 -0.000218676 -6.3328e-06
-0.000218676 6.97481e-05 2.84312e-06
-6.3328e-06 2.84312e-06 -0.00011551
0.00127463 -0.000261613 -1.40621e-06
-0.000261613 0.000100599 6.22514e-07
-1.40621e-06 6.22514e-07 -0.000104819
0.00150726 -0.000319565 3.27002e-06
-0.000319565 0.00016907 -5.2039e-07
3.27002e-06 -5.2039e-07 -5.69314e-05
0.00079186 -0.000146769 -6.0029e-06
-0.000146769 3.11622e-05 5.7172e-06
-6.0029e-06 5.7172e-06 -0.000119014
0.00113613 -0.000219921 8.28213e-07
-0.000219921 0.000163691 3.48149e-07
8.28213e-07 3.48149e-07 -2.71553e-05
0.00128999 -0.000258298 2.75773e-06
-0.000258298 0.000188475 -1.84217e-06
2.75773e-06 -1.84217e-06 -1.89908e-05
0.000429311 -5.36035e-05 -1.10325e-05
-5.36035e-05 -0.000117172 1.10153e-05
-1.10325e-05 1.10153e-05 -0.000176034
0.000788995 -0.000138781 -4.33509e-07
-0.000138781 8.14916e-05 9.14772e-08
-4.33509e-07 9.14772e-08 -6.26463e-05
0.00106406 -0.000199497 1.26742e-06
-0.000199497 0.000199475 -1.88786e-06
1.26742e-06 -1.88786e-06 1.83904e-05
0.00340763 0.00015881 -6.44171e-05
0.00015881 0.00167492 2.27907e-06
-6.44171e-05 2.27907e-06 0.00166431
0.000559089 -7.37553e-06 8.20555e-07
-7.37553e-06 -2.26671e-05 -3.48225e-07
8.20555e-07 -3.48225e-07 -7.26494e-05
0.000876381 -0.000137012 4.58069e-06
-0.000137012 0.000170151 -3.93473e-06
4.58069e-06 -3.93473e-06 3.52932e-05
0.00298818 0.000134334 6.79747e-06
0.000134334 0.00142498 4.17103e-07
6.79747e-06 4.17103e-07 0.00142088
0.000675865 2.90465e-05 3.96562e-06
2.90465e-05 5.56483e-05 -7.80579e-06
3.96562e-06 -7.80579e-06 1.61248e-05
0.00270028 0.000117224 4.96494e-05
0.000117224 0.00125124 -2.18063e-06
4.96494e-05 -2.18063e-06 0.00125191
0.000948709 0.00019487 3.28424e-06
0.00019487 0.000161932 -3.33909e-06
3.28424e-06 -3.33909e-06 -1.18825e-05
0.000822577 0.000140606 1.07266e-06
0.000140606 0.000130124 -1.34695e-07
1.07266e-06 -1.34695e-07 7.23774e-07
0.000494546 3.75584e-05 -3.3742e-07
3.75584e-05 -5.94304e-05 -6.10258e-07
-3.3742e-07 -6.10258e-07 -0.000177148
0.00035191 2.18084e-05 2.54888e-07
2.18084e-05 -0.000144749 -1.48107e-07
2.54888e-07 -1.48107e-07 -0.000250642
0.000581912 6.4027e-06 -2.4821e-07
6.4027e-06 -5.18677e-06 4.90718e-07
-2.4821e-07 4.90718e-07 -0.000114852
0.000659423 -1.35677e-06 -1.39753e-06
-1.35677e-06 3.17292e-05 -3.74913e-06
-1.39753e-06 -3.74913e-06 -5.26915e-05
0.000640192 2.08623e-06 1.58065e-07
2.08623e-06 2.5004e-05 1.6944e-06
1.58065e-07 1.6944e-06 -7.48127e-05
0.000629837 -1.03891e-05 3.25289e-07
-1.03891e-05 1.44185e-05 -1.88734e-07
3.25289e-07 -1.88734e-07 -6.21047e-05
0.000572422 -4.3936e-05 -1.30883e-06
-4.3936e-05 -1.58785e-05 -6.67298e-06
-1.30883e-06 -6.67298e-06 -4.91288e-05
0.00274824 -0.000104202 -4.63181e-05
-0.000104202 0.00126538 -3.27858e-06
-4.63181e-05 -3.27858e-06 0.00126888
0.000543186 -3.8153e-05 8.76065e-08
-3.8153e-05 -4.07913e-05 -4.29855e-09
8.76065e-08 -4.29855e-09 -7.00291e-05
0.000607318 -2.47294e-06 1.59301e-06
-2.47294e-06 -1.15121e-06 3.18308e-06
1.59301e-06 3.18308e-06 -7.25906e-05
0.00266913 -9.14981e-05 -4.46912e-06
-9.14981e-05 0.00121129 3.38903e-07
-4.46912e-06 3.38903e-07 0.0012174
0.000533899 -3.42715e-05 6.33704e-07
-3.42715e-05 -5.25544e-05 5.47119e-06
6.33704e-07 5.47119e-06 -7.8309e-05
0.00252898 -7.71074e-05 2.90648e-05
-7.71074e-05 0.00112184 4.23979e-06
2.90648e-05 4.23979e-06 0.00113106
0.0106711 0.000461508 0.000171967
0.000461508 0.00260545 6.67073e-05
0.000171967 6.67073e-05 0.0016573
-0.00272511 -0.000673218 -0.00010533
-0.000673218 -0.00201988 -1.22918e-05
-0.00010533 -1.22918e-05 -0.00219619
-0.0042501 0.000244591 -4.94679e-05
0.000244591 0.000533153 -3.49515e-05
-4.94679e-05 -3.49515e-05 -0.002003
0.00068318 1.54478e-05 6.00395e-06
1.54478e-05 4.396e-05 7.68858e-07
6.00395e-06 7.68858e-07 -7.03147e-05
0.000879279 0.000172508 -2.03055e-06
0.000172508 0.000189852 1.33431e-06
-2.03055e-06 1.33431e-06 5.40644e-05
0.00127591 0.000182711 -2.25929e-07
0.000182711 0.000419137 -3.67811e-07
-2.25929e-07 -3.67811e-07 0.000266181
0.00124954 0.000239645 -3.36803e-06
0.000239645 0.000341025 3.70557e-07
-3.36803e-06 3.70557e-07 0.000161561
0.00153397 0.000297346 1.77329e-05
0.000297346 0.000390299 -7.9945e-08
1.77329e-05 -7.9945e-08 0.000175271
0.000219912 0.000156403 -1.90949e-06
0.000156403 -0.000217702 -2.45992e-06
-1.90949e-06 -2.45992e-06 -0.000380523
0.000508427 0.000125275 -2.34964e-06
0.000125275 -2.34395e-06 -2.51765e-06
-2.34964e-06 -2.51765e-06 -0.000147524
0.000190763 0.000164791 6.54664e-07
0.000164791 -0.000256219 1.43059e-06
6.54664e-07 1.43059e-06 -0.000430756
0.000985237 0.000237476 2.59651e-09
0.000237476 0.000152458 6.69203e-07
2.59651e-09 6.69203e-07 3.26028e-05
0.000418662 0.000242266 4.75918e-06
0.000242266 -0.000275294 5.37184e-07
4.75918e-06 5.37184e-07 -0.000438618
0.00331321 0.000541032 -3.22047e-06
0.000541032 0.00111312 -4.64358e-06
-3.22047e-06 -4.64358e-06 0.000937559
0.00208277 0.000508944 -5.69044e-06
0.000508944 0.000352483 2.82825e-06
-5.69044e-06 2.82825e-06 0.000177666
0.00156635 0.000438458 3.56737e-06
0.000438458 0.000191153 -3.34791e-06
3.56737e-06 -3.34791e-06 1.24227e-05
0.000360002 0.000188228 -1.94607e-06
0.000188228 -0.000125772 4.90816e-06
-1.94607e-06 4.90816e-06 -0.000234955
0.00528168 0.000530892 -2.20708e-05
0.000530892 0.000365427 1.02087e-05
-2.20708e-05 1.02087e-05 0.000466403
0.00855242 0.000469937 7.10078e-05
0.000469937 0.00174022 4.08294e-05
7.10078e-05 4.08294e-05 0.000279348
0.00542779 -0.0011444 7.52251e-05
-0.0011444 0.00306757 -5.98524e-05
7.52251e-05 -5.98524e-05 0.00249272
0.00407053 0.00109635 0.000304111
0.00109635 0.000224976 0.000128029
0.000304111 0.000128029 -0.00277905
0.00151341 0.000565352 -2.08924e-05
0.000565352 0.000185629 1.02397e-05
-2.08924e-05 1.02397e-05 0.000215909
0.00332835 0.000962554 -7.61618e-05
0.000962554 -1.27773e-05 -2.43708e-05
-7.61618e-05 -2.43708e-05 -0.000243554
0.00354541 0.000785863 4.04741e-05
0.000785863 0.000593321 2.115e-05
4.04741e-05 2.115e-05 0.000581083
0.00292218 0.00068244 5.71892e-06
0.00068244 0.000694911 7.9197e-06
5.71892e-06 7.9197e-06 0.000535205
0.000681447 0.000364206 -8.62123e-06
0.000364206 -3.83647e-05 1.81854e-05
-8.62123e-06 1.81854e-05 -0.000228356
0.00367967 0.000881282 -0.000115339
0.000881282 0.000663031 -2.94573e-05
-0.000115339 -2.94573e-05 0.000472859
0.00291697 -0.00020882 -8.01725e-05
-0.00020882 0.000402241 8.51797e-06
-8.01725e-05 8.51797e-06 0.00011192
0.0099606 -0.000248229 -1.75614e-06
-0.000248229 0.00283693 1.41827e-07
-1.75614e-06 1.41827e-07 0.00217805
-0.00869834 -0.000488358 0.000291452
-0.000488358 -0.00488105 -8.09808e-06
0.000291452 -8.09808e-06 -0.00456727
0.000860068 -0.000436126 -4.1127e-05
-0.000436126 -0.000412992 8.48759e-06
-4.1127e-05 8.48759e-06 -0.000471585
0.00634356 -0.000803508 0.000118433
-0.000803508 0.000936913 1.95909e-05
0.000118433 1.95909e-05 0.00054052
0.00128114 -0.000393241 1.99251e-05
-0.000393241 -0.00199845 5.75304e-05
1.99251e-05 5.75304e-05 -0.00325197
0.00145075 -0.000323759 1.99296e-05
-0.000323759 -9.13357e-05 1.76378e-07
1.99296e-05 1.76378e-07 -0.000251265
0.00255896 -0.000102091 -4.18907e-06
-0.000102091 -0.000352475 6.30285e-06
-4.18907e-06 6.30285e-06 -0.000492531
0.00404277 -0.000338657 1.89463e-05
-0.000338657 0.000985425 -8.24492e-06
1.89463e-05 -8.24492e-06 0.00102947
0.00348394 -8.63085e-05 7.19554e-05
-8.63085e-05 0.0008099 5.73699e-07
7.19554e-05 5.73699e-07 0.000777584
3.82961e-06 -0.000331305 -7.61025e-06
-0.000331305 -0.000947844 7.30662e-06
-7.61025e-06 7.30662e-06 -0.000942931
0.00175373 -0.000321944 -3.25185e-07
-0.000321944 -0.000143006 4.85984e-07
-3.25185e-07 4.85984e-07 -0.000114859
0.0017795 -0.00021319 1.25458e-05
-0.00021319 -0.000164221 -1.79408e-06
1.25458e-05 -1.79408e-06 -8.1555e-05
0.00157075 -0.000371159 1.2406e-06
-0.000371159 -8.77311e-05 1.16778e-06
1.2406e-06 1.16778e-06 -0.000207967
0.00194138 -0.00030104 2.10464e-06
-0.00030104 1.6928e-05 1.05932e-06
2.10464e-06 1.05932e-06 -3.76515e-05
0.00185187 -0.000237477 1.33014e-06
-0.000237477 3.16283e-05 1.54893e-06
1.33014e-06 1.54893e-06 -1.95731e-06
0.00187116 -0.000317664 5.68925e-06
-0.000317664 7.66691e-05 3.83904e-06
5.68925e-06 3.83904e-06 -3.90361e-05
0.00184441 -0.000271677 8.70629e-07
-0.000271677 6.79641e-05 4.88665e-07
8.70629e-07 4.88665e-07 -1.49096e-05
0.00197202 -0.000240982 -1.36268e-06
-0.000240982 0.000181656 1.10827e-06
-1.36268e-06 1.10827e-06 0.000103127
0.00169513 -0.000260938 3.4562e-06
-0.000260938 3.63748e-05 4.02332e-06
3.4562e-06 4.02332e-06 -7.32762e-05
0.00184806 -0.00025227 1.30606e-07
-0.00025227 0.000151741 6.52826e-07
1.30606e-07 6.52826e-07 5.42852e-05
0.00167488 -0.00023762 3.79418e-06
-0.00023762 8.56309e-05 -1.80056e-06
3.79418e-06 -1.80056e-06 -2.55816e-05
0.00168708 -0.000233813 -2.6017e-06
-0.000233813 7.65814e-05 7.6784e-06
-2.6017e-06 7.6784e-06 -3.01251e-05
0.00185061 -0.000245284 -2.11445e-06
-0.000245284 0.000210582 7.60175e-08
-2.11445e-06 7.60175e-08 8.57058e-05
0.00175064 -0.000235776 7.10763e-07
-0.000235776 0.000190343 -1.90075e-06
7.10763e-07 -1.90075e-06 4.11214e-05
0.00173216 -0.000266583 2.04337e-06
-0.000266583 0.000155802 3.48294e-06
2.04337e-06 3.48294e-06 -1.11355e-06
0.00170248 -0.000259137 6.96809e-07
-0.000259137 0.000182701 -6.6518e-07
6.96809e-07 -6.6518e-07 1.23284e-05
0.00168996 -0.000239707 -2.75173e-06
-0.000239707 0.000239578 -9.40319e-07
-2.75173e-06 -9.40319e-07 6.69989e-05
0.000964027 -0.000192286 -8.92616e-06
-0.000192286 -6.62799e-05 2.24536e-06
-8.92616e-06 2.24536e-06 -0.000239504
0.0015147 -0.000263378 -1.03375e-06
-0.000263378 0.00017846 -2.3263e-07
-1.03375e-06 -2.3263e-07 -1.51776e-05
0.00168729 -0.000302296 3.64513e-06
-0.000302296 0.000213445 6.82302e-07
3.64513e-06 6.82302e-07 1.19853e-05
0.000965296 -0.000168918 -9.28971e-06
-0.000168918 6.29485e-05 6.04296e-06
-9.28971e-06 6.04296e-06 -8.82906e-05
0.00117052 -0.000221302 1.35476e-07
-0.000221302 0.000100266 4.99057e-07
1.35476e-07 4.99057e-07 -8.5094e-05
0.00118624 -0.000253301 2.45108e-06
-0.000253301 5.06931e-05 -7.53966e-07
2.45108e-06 -7.53966e-07 -0.000153754
0.000438813 -8.88738e-05 -1.53097e-05
-8.88738e-05 -0.000130296 1.22304e-05
-1.53097e-05 1.22304e-05 -0.000199424
0.000864645 -0.000157142 4.54904e-07
-0.000157142 7.3933e-05 2.33708e-07
4.54904e-07 2.33708e-07 -7.79843e-05
0.00109533 -0.000216308 4.69503e-06
-0.000216308 0.00013826 -2.38231e-06
4.69503e-06 -2.38231e-06 -5.17515e-05
0.00410974 0.000166673 -0.00010224
0.000166673 0.00208455 3.69153e-06
-0.00010224 3.69153e-06 0.00207152
0.00058143 -6.13668e-05 6.72125e-07
-6.13668e-05 -3.07839e-05 -2.62158e-07
6.72125e-07 -2.62158e-07 -9.19458e-05
0.000886795 -0.000154793 5.91526e-06
-0.000154793 0.000136235 -4.98944e-06
5.91526e-06 -4.98944e-06 -9.83228e-06
0.00362386 0.000136135 7.17785e-06
0.000136135 0.00179546 3.31854e-07
7.17785e-06 3.31854e-07 0.0017904
0.000696123 -1.70277e-05 8.7504e-06
-1.70277e-05 5.32425e-05 -9.33338e-06
8.7504e-06 -9.33338e-06 2.77139e-06
0.00315581 0.000110599 8.70124e-05
0.000110599 0.00151746 -3.16519e-06
8.70124e-05 -3.16519e-06 0.00151929
0.00109717 0.000232262 -2.75105e-06
0.000232262 0.000155625 -3.96601e-06
-2.75105e-06 -3.96601e-06 -4.56075e-05
0.00130813 0.000225954 3.70597e-07
0.000225954 0.000375459 4.47137e-08
3.70597e-07 4.47137e-08 0.000195913
0.000706626 0.000129599 -4.50854e-07
0.000129599 4.16128e-05 -5.13851e-06
-4.50854e-07 -5.13851e-06 -0.000110254
0.000674493 0.00015235 -1.17098e-06
0.00015235 5.44949e-05 2.65516e-07
-1.17098e-06 2.65516e-07 -8.07568e-05
0.000533341 5.31137e-05 -9.22818e-08
5.31137e-05 -3.62372e-05 -4.01268e-07
-9.22818e-08 -4.01268e-07 -0.000158483
0.000758524 6.58147e-05 -2.47507e-06
6.58147e-05 9.94326e-05 -3.6653e-06
-2.47507e-06 -3.6653e-06 -6.85508e-06
0.000472969 -1.0255e-05 3.24069e-07
-1.0255e-05 -7.13871e-05 1.39514e-06
3.24069e-07 1.39514e-06 -0.000177905
0.000643073 -3.22504e-06 2.48926e-07
-3.22504e-06 2.49642e-05 -2.63963e-07
2.48926e-07 -2.63963e-07 -6.03173e-05
0.000575418 -4.09833e-05 -1.8193e-06
-4.09833e-05 -8.67851e-06 -7.38222e-06
-1.8193e-06 -7.38222e-06 -4.58442e-05
0.000594649 -1.33075e-05 1.25027e-06
-1.33075e-05 -5.26495e-06 3.55611e-06
1.25027e-06 3.55611e-06 -8.15266e-05
0.000537849 -4.19666e-05 2.39463e-07
-4.19666e-05 -3.65017e-05 -4.52724e-08
2.39463e-07 -4.52724e-08 -6.92677e-05
0.00283149 -0.000115792 -5.42786e-05
-0.000115792 0.00132171 -2.67453e-06
-5.42786e-05 -2.67453e-06 0.00132264
0.00274106 -0.00010415 -3.41743e-06
-0.00010415 0.00126068 3.36865e-07
-3.41743e-06 3.36865e-07 0.00126405
0.00052347 -3.23227e-05 2.02691e-06
-3.23227e-05 -5.32871e-05 5.96784e-06
2.02691e-06 5.96784e-06 -8.17384e-05
0.00263656 -9.06983e-05 3.55714e-05
-9.06983e-05 0.00119175 3.93635e-06
3.55714e-05 3.93635e-06 0.00119796
0.00297206 -1.20443e-07 7.5888e-06
-1.20443e-07 -0.000308025 1.56428e-05
7.5888e-06 1.56428e-05 -0.000262101
0.00251932 -0.000538631 5.18132e-05
-0.000538631 -0.00179427 2.39913e-05
5.18132e-05 2.39913e-05 -0.00286973
0.00644424 -0.000752608 -5.50479e-05
-0.000752608 0.00245778 -5.88859e-05
-5.50479e-05 -5.88859e-05 0.00273078
0.00141862 0.000299762 7.82117e-06
0.000299762 0.000180863 4.87813e-06
7.82117e-06 4.87813e-06 -4.07588e-05
0.00145616 0.000208529 2.57195e-06
0.000208529 0.000519571 1.44953e-06
2.57195e-06 1.44953e-06 0.000363356
0.000993207 0.000215681 -4.69489e-06
0.000215681 0.000199393 3.72979e-06
-4.69489e-06 3.72979e-06 2.48141e-05
0.000728081 0.000205813 1.21561e-06
0.000205813 6.52836e-05 1.98971e-06
1.21561e-06 1.98971e-06 -0.000109083
0.00124376 0.000274609 -4.8795e-07
0.000274609 0.000227814 -3.08481e-06
-4.8795e-07 -3.08481e-06 1.42962e-05
0.000645424 0.000250093 3.10003e-06
0.000250093 -0.000152644 1.14645e-06
3.10003e-06 1.14645e-06 -0.000330333
0.00104485 0.000248636 -2.81616e-06
0.000248636 0.000214274 -2.25931e-06
-2.81616e-06 -2.25931e-06 1.72194e-05
0.000642916 0.00022292 2.4818e-06
0.00022292 -2.4032e-05 4.29855e-06
2.4818e-06 4.29855e-06 -0.000147039
0.00129108 0.000319323 2.46571e-06
0.000319323 0.000203031 -4.53664e-07
2.46571e-06 -4.53664e-07 2.8876e-05
0.00231195 0.000461488 2.88455e-06
0.000461488 0.000569225 6.78462e-06
2.88455e-06 6.78462e-06 0.000404342
0.00166459 0.000441101 7.01835e-08
0.000441101 0.000117156 -5.64193e-07
7.01835e-08 -5.64193e-07 -6.4197e-05
0.00158291 0.000408915 3.26631e-06
0.000408915 8.55188e-05 8.79454e-06
3.26631e-06 8.79454e-06 -3.59485e-05
0.00115841 0.000440953 -2.33698e-06
0.000440953 -0.000139074 -3.06892e-06
-2.33698e-06 -3.06892e-06 -0.000307391
0.000575712 0.000351803 2.43491e-07
0.000351803 -0.000319451 3.21377e-06
2.43491e-07 3.21377e-06 -0.00047566
0.00118604 0.000306479 2.24606e-05
0.000306479 -0.000271209 2.56332e-05
2.24606e-05 2.56332e-05 -0.000242276
0.00510865 0.000651892 -4.31514e-05
0.000651892 0.000117071 -1.03483e-05
-4.31514e-05 -1.03483e-05 0.000120967
0.00203092 0.000254379 0.000232772
0.000254379 -0.00159601 2.5238e-05
0.000232772 2.5238e-05 -0.00316832
0.000752235 0.000730562 1.23497e-06
0.000730562 -0.00107441 -1.5407e-05
1.23497e-06 -1.5407e-05 -0.00133163
0.00234208 0.000626495 -2.51842e-05
0.000626495 0.000246289 -2.12816e-06
-2.51842e-05 -2.12816e-06 0.000208043
0.00207034 0.000595293 -5.21133e-05
0.000595293 0.000283513 -2.06405e-05
-5.21133e-05 -2.06405e-05 0.000123499
0.00236149 -0.000172555 4.23034e-06
-0.000172555 0.000135925 -2.92962e-07
4.23034e-06 -2.92962e-07 9.33148e-05
0.00116579 -2.61675e-05 -9.316e-08
-2.61675e-05 -0.000252076 5.07098e-06
-9.316e-08 5.07098e-06 -0.000439764
0.000884076 0.000616189 8.397e-05
0.000616189 -0.00272594 -2.56774e-05
8.397e-05 -2.56774e-05 -0.00333299
8.77797e-05 -0.000216598 -1.32893e-05
-0.000216598 -0.00082767 2.65708e-05
-1.32893e-05 2.65708e-05 -0.000841907
0.00308031 -9.82951e-05 -2.57738e-05
-9.82951e-05 -0.000200462 3.42849e-05
-2.57738e-05 3.42849e-05 -0.000515288
0.002085 -0.000240345 -1.20619e-05
-0.000240345 -8.81336e-06 4.37301e-06
-1.20619e-05 4.37301e-06 5.8458e-05
0.00287289 -0.000117218 -5.33773e-06
-0.000117218 0.000455501 -2.85942e-06
-5.33773e-06 -2.85942e-06 0.000408497
0.00157818 -0.000138217 2.77826e-05
-0.000138217 -0.000272811 -6.95078e-07
2.77826e-05 -6.95078e-07 -0.000182399
0.00298001 -6.16785e-05 2.34333e-05
-6.16785e-05 0.000825043 1.90627e-06
2.34333e-05 1.90627e-06 0.000783737
0.00124681 -0.000303456 -1.44899e-05
-0.000303456 -0.000411709 7.26926e-06
-1.44899e-05 7.26926e-06 -0.000383426
0.00174581 -0.000222939 9.57088e-07
-0.000222939 -0.000199047 2.1296e-06
9.57088e-07 2.1296e-06 -0.000128073
0.00191736 -0.000226351 1.90093e-06
-0.000226351 -2.37297e-05 4.23523e-07
1.90093e-06 4.23523e-07 1.15368e-05
0.00179525 -0.000294735 2.23421e-06
-0.000294735 -5.57525e-05 1.64347e-06
2.23421e-06 1.64347e-06 -0.00011141
0.00184794 -0.00024674 4.38374e-07
-0.00024674 2.56095e-05 9.33899e-08
4.38374e-07 9.33899e-08 -1.37023e-05
0.00190471 -0.000228745 -4.53953e-07
-0.000228745 9.95936e-05 9.50756e-07
-4.53953e-07 9.50756e-07 4.03884e-05
0.00193951 -0.000274759 1.19443e-06
-0.000274759 0.000128189 9.00541e-07
1.19443e-06 9.00541e-07 4.48853e-05
0.00186147 -0.000243958 -6.59383e-07
-0.000243958 0.000121036 5.04642e-08
-6.59383e-07 5.04642e-08 3.97131e-05
0.0016956 -0.00021533 1.25746e-06
-0.00021533 7.16856e-05 1.61758e-07
1.25746e-06 1.61758e-07 -2.53194e-05
0.00163505 -0.000243893 -8.46148e-07
-0.000243893 3.49838e-05 1.82317e-06
-8.46148e-07 1.82317e-06 -6.31726e-05
0.00169689 -0.000238621 5.86989e-07
-0.000238621 0.000100739 -7.29382e-07
5.86989e-07 -7.29382e-07 -1.06959e-05
0.00168632 -0.000223709 2.02224e-06
-0.000223709 0.000119068 -1.86757e-06
2.02224e-06 -1.86757e-06 -1.46569e-05
0.00187831 -0.000243553 -4.98672e-06
-0.000243553 0.000225173 4.97418e-06
-4.98672e-06 4.97418e-06 0.000103874
0.0018073 -0.000236997 -1.06746e-06
-0.000236997 0.000220486 1.79241e-07
-1.06746e-06 1.79241e-07 7.42836e-05
0.00158814 -0.000209678 -1.93739e-06
-0.000209678 0.000156143 -5.13347e-07
-1.93739e-06 -5.13347e-07 -4.31782e-06
0.00174371 -0.00026171 2.75759e-06
-0.00026171 0.000208119 1.35936e-06
2.75759e-06 1.35936e-06 3.67309e-05
0.00162265 -0.000237142 1.0153e-06
-0.000237142 0.000200461 -6.07879e-07
1.0153e-06 -6.07879e-07 2.70163e-05
0.00126827 -0.000188009 -7.24644e-06
-0.000188009 8.10799e-05 2.19074e-06
-7.24644e-06 2.19074e-06 -8.24374e-05
0.000980198 -0.000163837 -1.13721e-05
-0.000163837 2.74552e-05 5.35727e-06
-1.13721e-05 5.35727e-06 -0.000115564
0.00113263 -0.000203345 -2.21103e-06
-0.000203345 3.16945e-05 4.17685e-07
-2.21103e-06 4.17685e-07 -0.000142513
0.00155642 -0.000267632 3.59433e-06
-0.000267632 0.000206205 -6.07265e-07
3.59433e-06 -6.07265e-07 1.16466e-05
0.000540164 -0.000159759 -2.03721e-05
-0.000159759 -8.69636e-05 1.32541e-05
-2.03721e-05 1.32541e-05 -0.000170661
0.000899576 -0.000165961 6.70922e-07
-0.000165961 2.73997e-05 5.0494e-07
6.70922e-07 5.0494e-07 -0.000123723
0.0012817 -0.00022861 7.02272e-06
-0.00022861 0.000162608 -1.9111e-06
7.02272e-06 -1.9111e-06 -2.34831e-05
0.00464429 0.000186431 -0.00012021
0.000186431 0.00240533 6.64935e-06
-0.00012021 6.64935e-06 0.00238438
0.000597036 -0.000125246 4.6863e-09
-0.000125246 -3.64386e-05 5.52339e-10
4.6863e-09 5.52339e-10 -0.000112934
0.000873481 -0.000164023 7.72973e-06
-0.000164023 7.97802e-05 -5.65756e-06
7.72973e-06 -5.65756e-06 -7.34937e-05
0.00425673 0.000144274 6.68318e-06
0.000144274 0.00216603 7.47948e-07
6.68318e-06 7.47948e-07 0.0021567
0.000727538 -8.03875e-05 1.40926e-05
-8.03875e-05 5.26725e-05 -1.14548e-05
1.40926e-05 -1.14548e-05 -1.1832e-05
0.0038067 0.000109374 0.00011823
0.000109374 0.00189605 -5.68967e-06
0.00011823 -5.68967e-06 0.00189575
0.00109064 0.000245786 -4.87056e-06
0.000245786 3.39502e-05 -1.38463e-06
-4.87056e-06 -1.38463e-06 -0.000169327
0.00117249 0.0002376 -7.80425e-07
0.0002376 0.000204703 -1.5912e-07
-7.80425e-07 -1.5912e-07 2.73747e-06
0.00106379 0.000199365 -2.28264e-06
0.000199365 0.000194243 -2.71937e-06
-2.28264e-06 -2.71937e-06 1.23672e-05
0.00164961 0.00025534 -2.18541e-06
0.00025534 0.000578209 2.33439e-06
-2.18541e-06 2.33439e-06 0.000393247
0.000843125 0.000141558 -1.1261e-06
0.000141558 0.000120929 -1.93971e-06
-1.1261e-06 -1.93971e-06 -3.18579e-05
0.000875356 0.000112103 -3.64277e-06
0.000112103 0.000162026 -4.44509e-06
-3.64277e-06 -4.44509e-06 3.69966e-05
0.000581779 7.234e-05 -9.53731e-08
7.234e-05 -1.01094e-05 3.02033e-07
-9.53731e-08 3.02033e-07 -0.000135605
0.000660563 2.18363e-05 -5.99948e-07
2.18363e-05 3.59339e-05 -1.1846e-07
-5.99948e-07 -1.1846e-07 -6.21186e-05
0.000584084 -2.65177e-05 -3.88044e-06
-2.65177e-05 -2.85033e-06 -8.10128e-06
-3.88044e-06 -8.10128e-06 -4.53614e-05
0.000578874 -1.85883e-05 1.08619e-06
-1.85883e-05 -1.10398e-05 3.83809e-06
1.08619e-06 3.83809e-06 -9.52992e-05
0.00052521 -4.46083e-05 3.93164e-07
-4.46083e-05 -3.66286e-05 -1.55083e-07
3.93164e-07 -1.55083e-07 -7.4009e-05
0.00296929 -0.000124715 -6.64756e-05
-0.000124715 0.00140909 -2.15436e-06
-6.64756e-05 -2.15436e-06 0.00140788
0.000507284 -4.00505e-05 1.91183e-06
-4.00505e-05 -5.48086e-05 6.51026e-06
1.91183e-06 6.51026e-06 -8.70574e-05
0.00281176 -0.000116688 -2.62881e-06
-0.000116688 0.00130988 3.10875e-07
-2.62881e-06 3.10875e-07 0.00131038
0.00273867 -0.000103801 4.30283e-05
-0.000103801 0.00125888 3.53361e-06
4.30283e-05 3.53361e-06 0.00126219
0.000314596 4.34794e-05 1.40307e-05
4.34794e-05 -0.000843278 7.80083e-06
1.40307e-05 7.80083e-06 -0.000810986
0.00431677 1.88143e-05 4.78383e-05
1.88143e-05 0.000261033 3.91148e-06
4.78383e-05 3.91148e-06 0.000165745
0.00985112 0.000554065 -8.18436e-05
0.000554065 0.00282714 -3.42223e-05
-8.18436e-05 -3.42223e-05 0.00170255
0.000367699 0.000213413 1.75041e-06
0.000213413 -0.00043426 2.23805e-06
1.75041e-06 2.23805e-06 -0.000620473
0.00170945 0.000325011 1.98725e-06
0.000325011 0.000242114 3.13258e-06
1.98725e-06 3.13258e-06 4.55644e-05
0.00110588 0.000280361 -2.50137e-06
0.000280361 1.29522e-06 4.00951e-07
-2.50137e-06 4.00951e-07 -0.000217002
0.001175 0.000249386 -8.24031e-07
0.000249386 0.000312836 1.65174e-06
-8.24031e-07 1.65174e-06 0.000128029
0.000886512 0.000245158 -1.49087e-06
0.000245158 2.62997e-05 -2.93147e-07
-1.49087e-06 -2.93147e-07 -0.000184644
0.00134233 0.000314333 7.7842e-06
0.000314333 0.000221881 1.16663e-06
7.7842e-06 1.16663e-06 3.26101e-05
0.00209687 0.000439175 -5.62207e-06
0.000439175 0.000352063 -2.96843e-06
-5.62207e-06 -2.96843e-06 0.000164168
0.00216857 0.000396871 -3.34766e-06
0.000396871 0.000683969 1.236e-06
-3.34766e-06 1.236e-06 0.000498867
0.0013258 0.000383853 1.0553e-05
0.000383853 2.99991e-05 1.89284e-05
1.0553e-05 1.89284e-05 -0.000124731
0.00211219 0.000469695 -2.60112e-06
0.000469695 0.000364875 5.79511e-07
-2.60112e-06 5.79511e-07 0.000183166
0.00199279 0.000422851 -1.30432e-05
0.000422851 0.000200652 1.58753e-06
-1.30432e-05 1.58753e-06 4.69243e-05
0.000706097 0.000202271 1.3179e-05
0.000202271 -0.000466349 6.23099e-06
1.3179e-05 6.23099e-06 -0.00051254
0.00114782 0.000376129 9.34033e-06
0.000376129 -0.000135675 1.36686e-07
9.34033e-06 1.36686e-07 -0.000256261
0.0011146 0.000431651 -6.74e-06
0.000431651 -0.000170816 -6.93147e-06
-6.74e-06 -6.93147e-06 -0.000339032
0.00161596 0.000311298 2.9157e-06
0.000311298 -5.40816e-05 5.26844e-06
2.9157e-06 5.26844e-06 -5.22554e-05
0.00517024 0.000426717 3.06681e-05
0.000426717 0.000114778 -1.5302e-05
3.06681e-05 -1.5302e-05 -6.51583e-05
0.00247555 0.000553805 1.16853e-05
0.000553805 0.00055627 -2.40733e-05
1.16853e-05 -2.40733e-05 0.000518843
0.00149223 -4.01979e-05 2.3863e-05
-4.01979e-05 1.49673e-05 1.19962e-07
2.3863e-05 1.19962e-07 7.21555e-07
0.00212477 -0.000107035 -2.20213e-05
-0.000107035 6.021e-05 -6.92558e-07
-2.20213e-05 -6.92558e-07 1.69119e-05
0.00132644 0.000159931 2.68774e-05
0.000159931 -0.000663803 -6.36296e-06
2.68774e-05 -6.36296e-06 -0.000899063
0.000412942 -0.000176662 -2.78312e-05
-0.000176662 -0.000864488 2.14266e-05
-2.78312e-05 2.14266e-05 -0.000786617
0.00310059 -0.00017283 -8.95522e-05
-0.00017283 0.00053378 -4.56465e-07
-8.95522e-05 -4.56465e-07 0.00050601
0.00189473 -0.000168563 2.3867e-06
-0.000168563 -6.80711e-05 -2.13663e-06
2.3867e-06 -2.13663e-06 1.75831e-05
0.0022823 -6.6064e-05 -8.5332e-06
-6.6064e-05 0.000377471 2.17665e-07
-8.5332e-06 2.17665e-07 0.000337409
0.00197693 -0.000171398 2.36177e-06
-0.000171398 3.09986e-06 1.38362e-06
2.36177e-06 1.38362e-06 1.16284e-05
0.00217373 -2.8372e-05 4.40327e-06
-2.8372e-05 0.000165414 3.87044e-07
4.40327e-06 3.87044e-07 0.000139165
0.0017507 -0.000235337 -6.08201e-06
-0.000235337 -0.00021921 2.44585e-06
-6.08201e-06 2.44585e-06 -0.000156556
0.00192895 -0.000221886 -1.83991e-06
-0.000221886 -8.79916e-06 -5.83071e-08
-1.83991e-06 -5.83071e-08 1.96012e-05
0.00194748 -0.000184721 -2.14168e-06
-0.000184721 3.78473e-05 3.7273e-07
-2.14168e-06 3.7273e-07 9.85719e-06
0.00186333 -0.000255773 -1.78371e-06
-0.000255773 3.00884e-05 -9.34501e-07
-1.78371e-06 -9.34501e-07 -1.43781e-05
0.0018075 -0.000223644 1.26028e-07
-0.000223644 5.18314e-05 -2.56959e-07
1.26028e-07 -2.56959e-07 -1.19201e-05
0.00187272 -0.000197943 -7.66335e-08
-0.000197943 0.00011661 1.81492e-07
-7.66335e-08 1.81492e-07 3.44375e-05
0.00176579 -0.00024715 -2.21498e-06
-0.00024715 6.91603e-05 -6.38167e-07
-2.21498e-06 -6.38167e-07 -1.46086e-05
0.00173414 -0.000216497 3.17422e-07
-0.000216497 9.20681e-05 -7.52736e-08
3.17422e-07 -7.52736e-08 -5.03012e-06
0.00172755 -0.000202127 1.86992e-06
-0.000202127 0.000104767 -8.30694e-07
1.86992e-06 -8.30694e-07 -1.4927e-05
0.0017201 -0.000239679 -2.1637e-06
-0.000239679 0.000116684 3.01186e-07
-2.1637e-06 3.01186e-07 5.03181e-06
0.00171391 -0.000224146 -5.84999e-08
-0.000224146 0.000135879 -3.43701e-07
-5.84999e-08 -3.43701e-07 2.28074e-06
0.00157371 -0.000193993 -8.77005e-07
-0.000193993 0.000122611 -4.72624e-07
-8.77005e-07 -4.72624e-07 -2.92445e-05
0.00186018 -0.00023811 -1.63618e-06
-0.00023811 0.000248448 3.11423e-06
-1.63618e-06 3.11423e-06 0.000105266
0.00159051 -0.000210321 -5.62416e-07
-0.000210321 0.000157445 -1.34926e-07
-5.62416e-07 -1.34926e-07 -2.1386e-06
0.00127055 -0.000167975 -6.58105e-06
-0.000167975 6.43821e-05 1.94863e-06
-6.58105e-06 1.94863e-06 -9.25465e-05
0.00156152 -0.000234903 4.69211e-06
-0.000234903 0.000164703 -2.86676e-07
4.69211e-06 -2.86676e-07 -9.63641e-06
0.00121605 -0.000185883 -7.30285e-08
-0.000185883 5.06464e-05 -2.34054e-08
-7.30285e-08 -2.34054e-08 -0.000113102
0.000996383 -0.000147684 -1.21492e-05
-0.000147684 1.71263e-05 5.78035e-06
-1.21492e-05 5.78035e-06 -0.000118755
0.000470787 -0.000156196 -1.97572e-05
-0.000156196 -0.000138167 1.25691e-05
-1.97572e-05 1.25691e-05 -0.000225085
0.000949711 -0.000161201 1.33755e-07
-0.000161201 1.09725e-05 -1.0725e-07
1.33755e-07 -1.0725e-07 -0.000131881
0.00129619 -0.000213973 5.36315e-06
-0.000213973 0.000126941 -1.72422e-06
5.36315e-06 -1.72422e-06 -4.81985e-05
0.00513364 0.000155653 -0.000143511
0.000155653 0.00267937 7.96152e-06
-0.000143511 7.96152e-06 0.00266311
0.000583046 -0.000151098 -1.97658e-06
-0.000151098 -6.5409e-05 5.23528e-07
-1.97658e-06 5.23528e-07 -0.000148593
0.000849442 -0.000165243 9.73143e-06
-0.000165243 1.95157e-06 -4.98329e-06
9.73143e-06 -4.98329e-06 -0.000149425
0.00482971 0.000160803 1.07715e-05
0.000160803 0.00250718 1.25188e-06
1.07715e-05 1.25188e-06 0.00249015
0.000737158 -0.000129612 1.88579e-05
-0.000129612 3.91262e-05 -1.28387e-05
1.88579e-05 -1.28387e-05 -3.81509e-05
0.00442994 0.000121155 0.000138894
0.000121155 0.00226098 -7.58429e-06
0.000138894 -7.58429e-06 0.00225518
0.00146808 0.000270571 -4.33629e-06
0.000270571 0.000197639 1.24231e-06
-4.33629e-06 1.24231e-06 -2.61583e-07
0.00111031 0.000246954 -1.28669e-07
0.000246954 4.12283e-05 1.05586e-06
-1.28669e-07 1.05586e-06 -0.000163157
0.00100869 0.000205 -5.87587e-06
0.000205 6.36388e-05 -1.40344e-06
-5.87587e-06 -1.40344e-06 -0.000123026
0.00124534 0.000242953 -6.46462e-07
0.000242953 0.000252202 2.12549e-06
-6.46462e-07 2.12549e-06 4.95404e-05
0.00102551 0.000195107 -1.4362e-06
0.000195107 0.000174945 2.27765e-07
-1.4362e-06 2.27765e-07 -6.5579e-06
0.000922327 0.000153015 -5.62997e-06
0.000153015 0.000161789 -5.33014e-06
-5.62997e-06 -5.33014e-06 1.63286e-05
0.000944238 0.000150047 -3.0444e-07
0.000150047 0.000179752 4.7555e-07
-3.0444e-07 4.7555e-07 2.65436e-05
0.000739276 8.73084e-05 -2.69114e-07
8.73084e-05 8.53543e-05 -2.24142e-07
-2.69114e-07 -2.24142e-07 -3.66005e-05
0.000677933 1.83246e-05 -8.56553e-06
1.83246e-05 4.47119e-05 -9.75465e-06
-8.56553e-06 -9.75465e-06 -7.96674e-06
0.000602686 -9.08054e-06 9.91117e-07
-9.08054e-06 2.20877e-06 3.78188e-06
9.91117e-07 3.78188e-06 -9.273e-05
0.000516187 -3.47143e-05 -7.14865e-08
-3.47143e-05 -4.00244e-05 -2.49632e-07
-7.14865e-08 -2.49632e-07 -8.27957e-05
0.0032411 -0.00012763 -8.69548e-05
-0.00012763 0.00157316 -2.28749e-06
-8.69548e-05 -2.28749e-06 0.00157071
0.000484058 -4.57042e-05 1.59917e-06
-4.57042e-05 -6.0091e-05 7.14461e-06
1.59917e-06 7.14461e-06 -9.73096e-05
0.00292712 -0.000129144 -2.50025e-06
-0.000129144 0.00138501 3.06042e-07
-2.50025e-06 3.06042e-07 0.00138243
0.00280095 -0.000116455 4.90883e-05
-0.000116455 0.00130316 3.02974e-06
4.90883e-05 3.02974e-06 0.00130356
0.000697424 5.07002e-05 1.43537e-05
5.07002e-05 -0.000475477 -5.17703e-06
1.43537e-05 -5.17703e-06 -0.000461107
0.00191201 8.91293e-06 -6.69999e-06
8.91293e-06 -0.000161619 -2.33444e-07
-6.69999e-06 -2.33444e-07 -0.000124394
0.00422543 1.61667e-05 0.00012915
1.61667e-05 -5.27294e-05 2.60358e-05
0.00012915 2.60358e-05 0.000161432
0.00194754 0.000373223 -1.64814e-06
0.000373223 0.000288885 1.50977e-06
-1.64814e-06 1.50977e-06 0.000104745
0.000853576 0.000272297 1.38461e-06
0.000272297 -0.000166294 -1.53208e-06
1.38461e-06 -1.53208e-06 -0.00035997
0.0019221 0.000323714 -2.71116e-07
0.000323714 0.000253382 3.40622e-06
-2.71116e-07 3.40622e-06 8.21778e-05
0.00172854 0.000325965 1.12126e-06
0.000325965 0.000253848 4.53544e-07
1.12126e-06 4.53544e-07 5.75077e-05
0.000836319 0.000266105 1.65129e-07
0.000266105 -0.000155534 8.7027e-07
1.65129e-07 8.7027e-07 -0.000371285
0.00186298 0.000352136 -3.86943e-06
0.000352136 0.000116358 1.5734e-06
-3.86943e-06 1.5734e-06 -3.76138e-05
0.00200736 0.000376217 -3.1099e-06
0.000376217 0.000579438 -5.28851e-07
-3.1099e-06 -5.28851e-07 0.000378875
0.00209663 0.000433924 -3.31226e-09
0.000433924 0.000358578 -1.05236e-06
-3.31226e-09 -1.05236e-06 0.00016959
0.00181002 0.000248416 -8.8913e-06
0.000248416 1.3302e-05 -7.47346e-08
-8.8913e-06 -7.47346e-08 -8.6332e-05
0.00254439 0.000498278 4.96543e-06
0.000498278 0.000604837 3.6628e-06
4.96543e-06 3.6628e-06 0.000422742
0.00194425 0.000421573 -1.46022e-06
0.000421573 0.000167638 2.96264e-07
-1.46022e-06 2.96264e-07 1.20692e-05
0.000886989 0.00021608 2.87871e-06
0.00021608 -0.000334631 2.54091e-06
2.87871e-06 2.54091e-06 -0.000390257
-8.1437e-05 0.000296062 9.43085e-07
0.000296062 -0.00076738 -3.82071e-06
9.43085e-07 -3.82071e-06 -0.000883281
0.00168689 0.000311972 -4.16442e-05
0.000311972 -3.20496e-05 -1.95702e-05
-4.16442e-05 -1.95702e-05 -4.60149e-05
0.00177908 3.35635e-05 1.62915e-06
3.35635e-05 -5.8096e-05 -1.35449e-06
1.62915e-06 -1.35449e-06 -8.90203e-05
0.00209216 -2.77726e-05 4.58655e-07
-2.77726e-05 0.00037354 2.96947e-06
4.58655e-07 2.96947e-06 0.000363962
0.00143203 -1.84452e-05 -5.96083e-05
-1.84452e-05 -0.000237726 -8.10981e-06
-5.96083e-05 -8.10981e-06 -0.000338464
0.00219067 -0.000196718 -2.88413e-05
-0.000196718 0.000122292 9.37145e-07
-2.88413e-05 9.37145e-07 0.000200572
0.00128521 -7.12661e-05 -7.66168e-06
-7.12661e-05 -0.000237288 -3.14476e-07
-7.66168e-06 -3.14476e-07 -0.000273981
0.00191226 -0.000164146 3.27693e-07
-0.000164146 -3.16079e-05 -4.50279e-07
3.27693e-07 -4.50279e-07 -1.68466e-05
0.00202181 -2.88573e-05 -3.56969e-06
-2.88573e-05 5.61089e-05 7.15507e-07
-3.56969e-06 7.15507e-07 3.57218e-05
0.00203561 -6.03745e-05 -5.55094e-06
-6.03745e-05 5.67848e-05 -4.91751e-07
-5.55094e-06 -4.91751e-07 3.84168e-05
0.0019333 -0.00021655 -3.61648e-06
-0.00021655 4.85178e-06 -7.42089e-07
-3.61648e-06 -7.42089e-07 2.56849e-05
0.00191684 -0.000176874 4.74548e-07
-0.000176874 3.11317e-05 -1.45719e-07
4.74548e-07 -1.45719e-07 9.59389e-07
0.00197962 -0.000143789 -5.21851e-07
-0.000143789 0.000101413 -2.94609e-07
-5.21851e-07 -2.94609e-07 5.01262e-05
0.00171231 -0.000219058 -2.01363e-07
-0.000219058 4.66039e-06 -1.10226e-06
-2.01363e-07 -1.10226e-06 -6.36236e-05
0.00178732 -0.00019438 -3.06098e-08
-0.00019438 7.03103e-05 -7.86167e-08
-3.06098e-08 -7.86167e-08 -1.27959e-05
0.0017524 -0.000165061 1.38509e-06
-0.000165061 8.04531e-05 -4.04531e-07
1.38509e-06 -4.04531e-07 -2.6243e-05
0.00177974 -0.000217858 -5.31507e-07
-0.000217858 0.000115777 -2.23409e-07
-5.31507e-07 -2.23409e-07 1.85931e-05
0.00175418 -0.000201937 2.94711e-08
-0.000201937 0.000121609 -1.37697e-07
2.94711e-08 -1.37697e-07 2.03082e-06
0.00163707 -0.000175306 9.34893e-08
-0.000175306 0.000123903 -4.81583e-07
9.34893e-08 -4.81583e-07 -1.81166e-05
0.00174189 -0.000224673 -1.6236e-06
-0.000224673 0.00015274 1.0508e-06
-1.6236e-06 1.0508e-06 1.92546e-05
0.00158855 -0.000194334 -2.097e-07
-0.000194334 0.00013029 -2.25339e-08
-2.097e-07 -2.25339e-08 -2.12446e-05
0.00131329 -0.000151573 -5.46848e-06
-0.000151573 7.21274e-05 1.67099e-06
-5.46848e-06 1.67099e-06 -8.02526e-05
0.00159335 -0.000210894 1.55572e-06
-0.000210894 0.000158908 5.12287e-07
1.55572e-06 5.12287e-07 2.23477e-07
0.00130504 -0.000169503 -2.20166e-07
-0.000169503 8.30198e-05 4.44364e-08
-2.20166e-07 4.44364e-08 -7.3775e-05
0.00102455 -0.000131714 -1.28848e-05
-0.000131714 1.85818e-05 5.32128e-06
-1.28848e-05 5.32128e-06 -0.000113424
0.00116518 -0.000183901 6.55885e-06
-0.000183901 2.10624e-05 -1.85016e-06
6.55885e-06 -1.85016e-06 -0.000142937
0.000997352 -0.000146362 2.43453e-07
-0.000146362 1.7191e-05 5.35574e-08
2.43453e-07 5.35574e-08 -0.000118423
0.00235336 -9.47555e-05 -2.47002e-05
-9.47555e-05 0.000957365 7.82804e-06
-2.47002e-05 7.82804e-06 0.000884116
0.00163889 -3.7751e-05 -0.000165816
-3.7751e-05 0.0006015 1.71251e-05
-0.000165816 1.71251e-05 0.000583411
0.00151133 -0.000132359 -3.56752e-06
-0.000132359 0.000467476 -2.69831e-07
-3.56752e-06 -2.69831e-07 0.000385236
0.000929944 -0.000159442 1.10416e-05
-0.000159442 7.02156e-07 -5.4013e-06
1.10416e-05 -5.4013e-06 -0.000142117
0.0052653 0.000123932 -6.78585e-07
0.000123932 0.0027541 -2.72456e-07
-6.78585e-07 -2.72456e-07 0.00273968
0.00065007 -0.000169765 2.10526e-05
-0.000169765 -2.58278e-05 -1.29377e-05
2.10526e-05 -1.29377e-05 -0.000112897
0.00499097 0.000123672 0.000157783
0.000123672 0.00259546 -1.12065e-05
0.000157783 -1.12065e-05 0.00258223
0.00189144 0.000260786 1.11784e-06
0.000260786 0.000203232 7.27444e-07
1.11784e-06 7.27444e-07 5.15124e-05
0.00157766 0.00027149 5.67658e-07
0.00027149 0.000172382 2.63984e-06
5.67658e-07 2.63984e-06 -9.14668e-06
0.00154211 0.000280592 -4.28812e-07
0.000280592 0.000236759 -3.53831e-07
-4.28812e-07 -3.53831e-07 3.8183e-05
0.00120546 0.000219093 -7.0074e-06
0.000219093 9.23165e-05 -1.5558e-06
-7.0074e-06 -1.5558e-06 -8.72791e-05
0.00115758 0.00025031 4.07282e-06
0.00025031 6.54693e-05 6.82435e-07
4.07282e-06 6.82435e-07 -0.000140413
0.00111954 0.000213581 -7.43371e-07
0.000213581 0.000129108 7.17111e-07
-7.43371e-07 7.17111e-07 -5.9167e-05
0.000873087 0.000163842 -8.2937e-06
0.000163842 6.49658e-05 -4.72586e-06
-8.2937e-06 -4.72586e-06 -8.81024e-05
0.00101516 0.000192983 1.41478e-06
0.000192983 0.000171999 4.26783e-06
1.41478e-06 4.26783e-06 -9.47488e-06
0.000803569 0.000137909 -1.99882e-07
0.000137909 9.42845e-05 1.4881e-08
-1.99882e-07 1.4881e-08 -4.86473e-05
0.000783204 9.26722e-05 -1.43757e-05
9.26722e-05 9.20757e-05 -1.20907e-05
-1.43757e-05 -1.20907e-05 2.25986e-05
0.000633751 6.26983e-05 1.75602e-06
6.26983e-05 2.2144e-05 3.35652e-06
1.75602e-06 3.35652e-06 -9.42087e-05
0.000533454 6.191e-06 -7.40157e-07
6.191e-06 -3.64255e-05 -4.59888e-07
-7.40157e-07 -4.59888e-07 -8.72279e-05
0.00367996 -0.000122899 -0.00011425
-0.000122899 0.00183379 -4.2617e-06
-0.00011425 -4.2617e-06 0.00182963
0.000440455 -4.28802e-05 1.46071e-06
-4.28802e-05 -8.07301e-05 8.05852e-06
1.46071e-06 8.05852e-06 -0.000124288
0.00314064 -0.000141077 -3.39806e-06
-0.000141077 0.00151681 3.39071e-07
-3.39806e-06 3.39071e-07 0.00151095
0.00288998 -0.000129751 5.50277e-05
-0.000129751 0.00136324 2.42965e-06
5.50277e-05 2.42965e-06 0.00136035
0.0017873 0.000136967 -2.386e-06
0.000136967 -4.8092e-05 -6.37172e-07
-2.386e-06 -6.37172e-07 -0.000107558
0.00193628 4.23672e-05 1.40072e-05
4.23672e-05 0.000176384 2.34451e-06
1.40072e-05 2.34451e-06 0.000181636
0.00394443 -1.6449e-05 -8.54306e-05
-1.6449e-05 0.000731965 -1.37364e-05
-8.54306e-05 -1.37364e-05 0.000776884
0.00172924 0.000304415 -2.8789e-06
0.000304415 5.86866e-05 1.18857e-06
-2.8789e-06 1.18857e-06 -9.02628e-05
0.00173778 0.000355126 -9.01214e-07
0.000355126 0.000186594 -1.41824e-07
-9.01214e-07 -1.41824e-07 3.34518e-06
0.00139333 0.000334971 -1.80279e-05
0.000334971 0.000133068 -7.07693e-06
-1.80279e-05 -7.07693e-06 -6.84013e-05
0.00193895 0.000313945 2.41986e-06
0.000313945 0.000268221 7.98324e-07
2.41986e-06 7.98324e-07 9.88041e-05
0.00175987 0.00032733 -1.27608e-06
0.00032733 0.000273743 -2.45138e-06
-1.27608e-06 -2.45138e-06 7.75315e-05
0.002164 0.000245499 8.06792e-08
0.000245499 0.000229672 1.25352e-06
8.06792e-08 1.25352e-06 0.000131146
0.00171696 0.000345803 -1.51268e-06
0.000345803 4.46699e-05 8.25718e-07
-1.51268e-06 8.25718e-07 -0.000110484
0.00211458 0.000430101 1.20603e-06
0.000430101 0.000374308 -2.30848e-07
1.20603e-06 -2.30848e-07 0.000183989
0.00178958 0.000251655 -9.4558e-07
0.000251655 7.84878e-06 1.88452e-07
-9.4558e-07 1.88452e-07 -9.35402e-05
0.00204591 0.00043049 1.8496e-05
0.00043049 0.00020555 1.37989e-06
1.8496e-05 1.37989e-06 4.71525e-05
0.00141185 0.00023623 -2.02864e-05
0.00023623 -3.09398e-05 -3.81013e-06
-2.02864e-05 -3.81013e-06 -9.54818e-05
0.00199159 4.52553e-05 -5.40184e-06
4.52553e-05 6.02524e-05 -3.73324e-07
-5.40184e-06 -3.73324e-07 2.20657e-05
0.00188659 4.54344e-05 -2.49383e-06
4.54344e-05 7.63127e-06 3.71373e-07
-2.49383e-06 3.71373e-07 -2.62996e-05
0.00284623 -1.3999e-05 -3.97086e-05
-1.3999e-05 0.000827588 -3.71074e-06
-3.97086e-05 -3.71074e-06 0.000811848
0.00184969 -0.000155643 -7.65508e-06
-0.000155643 -7.12375e-05 -1.80519e-06
-7.65508e-06 -1.80519e-06 -5.03384e-05
0.00193376 -2.88582e-05 4.41005e-06
-2.88582e-05 -1.54972e-05 -1.0562e-07
4.41005e-06 -1.0562e-07 -3.2671e-05
0.00200619 -6.52112e-05 -1.9827e-07
-6.52112e-05 2.476e-05 1.0313e-07
-1.9827e-07 1.0313e-07 1.19669e-05
0.00195368 -4.45113e-05 -2.11638e-06
-4.45113e-05 9.65095e-05 -1.7915e-07
-2.11638e-06 -1.7915e-07 4.98057e-05
0.00188031 -0.000168079 2.69392e-06
-0.000168079 2.23084e-05 -8.47743e-07
2.69392e-06 -8.47743e-07 -1.01017e-05
0.00185212 -0.000142546 6.78099e-07
-0.000142546 3.75684e-05 -6.06396e-08
6.78099e-07 -6.06396e-08 -2.01772e-05
0.00182455 -0.00011604 3.50863e-06
-0.00011604 9.45923e-05 -1.22516e-06
3.50863e-06 -1.22516e-06 -1.21212e-06
0.0016952 -0.000190649 4.19355e-07
-0.000190649 2.06014e-05 -2.76927e-08
4.19355e-07 -2.76927e-08 -6.35516e-05
0.00179334 -0.000166174 -4.47221e-09
-0.000166174 0.000102471 -1.49637e-07
-4.47221e-09 -1.49637e-07 -4.16801e-06
0.00170431 -0.000148271 5.13701e-07
-0.000148271 0.000121392 -4.57407e-07
5.13701e-07 -4.57407e-07 -1.05097e-05
0.00178135 -0.000201662 -1.34836e-06
-0.000201662 0.000138942 4.98035e-07
-1.34836e-06 4.98035e-07 1.94999e-05
0.0016438 -0.000175069 -2.53991e-07
-0.000175069 0.000127587 2.09975e-08
-2.53991e-07 2.09975e-08 -1.41698e-05
0.00136044 -0.000132112 -4.67172e-06
-0.000132112 7.96667e-05 1.27722e-06
-4.67172e-06 1.27722e-06 -6.82737e-05
0.00160276 -0.000194652 4.9121e-07
-0.000194652 0.000137781 4.09736e-07
4.9121e-07 4.09736e-07 -1.34313e-05
0.00133551 -0.000152361 -1.34849e-07
-0.000152361 8.26647e-05 1.01214e-07
-1.34849e-07 1.01214e-07 -6.94834e-05
0.00102907 -0.000115696 -1.2741e-05
-0.000115696 1.07292e-05 4.66135e-06
-1.2741e-05 4.66135e-06 -0.000119415
0.00134075 -0.000171145 5.96563e-06
-0.000171145 0.000102296 -1.77475e-06
5.96563e-06 -1.77475e-06 -5.4379e-05
0.00101498 -0.000129322 2.16446e-07
-0.000129322 1.22096e-05 7.3723e-08
2.16446e-07 7.3723e-08 -0.000119225
0.00240764 -0.000104274 -3.21734e-05
-0.000104274 0.000974785 7.02054e-06
-3.21734e-05 7.02054e-06 0.000908753
0.000989253 -0.000144688 1.21672e-05
-0.000144688 1.21898e-05 -5.52024e-06
1.21672e-05 -5.52024e-06 -0.000123155
0.00252037 -0.000141661 3.53592e-05
-0.000141661 0.001048 -4.18175e-06
3.53592e-05 -4.18175e-06 0.000981139
0.0017115 -7.80541e-05 -0.000170023
-7.80541e-05 0.000651267 2.11227e-05
-0.000170023 2.11227e-05 0.000632076
0.00346077 1.00249e-06 -0.000168146
1.00249e-06 0.00168966 8.98058e-06
-0.000168146 8.98058e-06 0.00167377
0.0026133 -0.000191569 0.000105417
-0.000191569 0.00110506 -1.37951e-05
0.000105417 -1.37951e-05 0.00104065
0.0053796 0.000124499 0.000161137
0.000124499 0.0028371 -1.62434e-05
0.000161137 -1.62434e-05 0.00281353
0.00200807 0.000260858 -1.41491e-06
0.000260858 0.000236493 -4.56154e-07
-1.41491e-06 -4.56154e-07 9.71722e-05
0.00155727 0.000228569 2.73939e-06
0.000228569 0.000111319 1.07392e-06
2.73939e-06 1.07392e-06 -5.06315e-05
0.0018612 0.00026121 3.45847e-07
0.00026121 0.0001822 -9.92039e-07
3.45847e-07 -9.92039e-07 3.39199e-05
0.00133119 0.000213425 -6.61673e-06
0.000213425 0.000118461 -1.25298e-06
-6.61673e-06 -1.25298e-06 -5.10398e-05
0.00161098 0.000271055 5.69622e-07
0.000271055 0.000186444 3.78838e-07
5.69622e-07 3.78838e-07 4.32044e-06
0.00161248 0.000290516 3.01502e-06
0.000290516 0.0002736 -4.89615e-07
3.01502e-06 -4.89615e-07 7.43599e-05
0.00118937 0.000217386 -1.46107e-08
0.000217386 8.58462e-05 4.47441e-08
-1.46107e-08 4.47441e-08 -9.3322e-05
0.000878754 0.000161829 -1.04888e-05
0.000161829 -4.34782e-06 -4.81824e-06
-1.04888e-05 -4.81824e-06 -0.000152756
0.00122987 0.000222247 5.09592e-06
0.000222247 0.000193968 3.05917e-06
5.09592e-06 3.05917e-06 4.05473e-06
0.000852014 0.000157612 -7.55449e-07
0.000157612 5.07123e-05 5.55244e-07
-7.55449e-07 5.55244e-07 -0.000101284
0.000710234 0.000152261 -2.00955e-05
0.000152261 2.96746e-05 -1.28197e-05
-2.00955e-05 -1.28197e-05 -5.34572e-05
0.000664993 0.000120083 3.16526e-06
0.000120083 1.56202e-05 4.66038e-06
3.16526e-06 4.66038e-06 -0.000124493
0.000561913 6.75677e-05 -4.81968e-07
6.75677e-05 -3.20164e-05 -2.11723e-07
-4.81968e-07 -2.11723e-07 -9.75051e-05
0.00440106 -0.000114079 -0.00014586
-0.000114079 0.0022618 -8.90254e-06
-0.00014586 -8.90254e-06 0.00225185
0.00038443 -1.84478e-05 3.38264e-06
-1.84478e-05 -0.000116356 9.24436e-06
3.38264e-06 9.24436e-06 -0.000167439
0.0035466 -0.000152101 -5.96808e-06
-0.000152101 0.00176121 4.23329e-07
-5.96808e-06 4.23329e-07 0.00175142
0.00307087 -0.000145192 6.25876e-05
-0.000145192 0.00147666 1.90344e-06
6.25876e-05 1.90344e-06 0.00146966
0.00185608 0.000143431 -1.48733e-06
0.000143431 1.82823e-06 6.5297e-07
-1.48733e-06 6.5297e-07 -6.58569e-05
0.00183061 0.000135605 6.81132e-07
0.000135605 -2.26685e-05 -3.03835e-07
6.81132e-07 -3.03835e-07 -8.14698e-05
0.0027598 3.55485e-05 -5.53019e-05
3.55485e-05 0.000610731 -5.69884e-06
-5.53019e-05 -5.69884e-06 0.000618036
0.00199199 0.000218045 1.68762e-06
0.000218045 0.00015848 1.2194e-06
1.68762e-06 1.2194e-06 4.97145e-05
0.00172014 0.000298949 -5.97018e-07
0.000298949 6.63095e-05 2.0705e-07
-5.97018e-07 2.0705e-07 -8.19409e-05
0.00152777 0.000337502 -1.05303e-06
0.000337502 8.251e-05 -3.26921e-06
-1.05303e-06 -3.26921e-06 -9.99698e-05
0.00195274 0.000303585 -5.40012e-07
0.000303585 0.000281718 -2.48495e-06
-5.40012e-07 -2.48495e-06 0.000114223
0.00197989 0.000235987 -1.01043e-06
0.000235987 0.000123216 -2.56289e-07
-1.01043e-06 -2.56289e-07 2.39829e-05
0.00159333 0.000340092 9.23232e-07
0.000340092 -1.43003e-05 -3.53276e-07
9.23232e-07 -3.53276e-07 -0.000170581
0.00180721 0.0002522 1.08915e-05
0.0002522 3.73583e-05 -4.8789e-07
1.08915e-05 -4.8789e-07 -6.46222e-05
0.00189146 3.73031e-05 -1.09349e-06
3.73031e-05 4.78733e-05 4.61512e-07
-1.09349e-06 4.61512e-07 -3.4389e-06
0.00194458 4.47751e-05 4.68635e-07
4.47751e-05 3.80601e-05 -1.20983e-08
4.68635e-07 -1.20983e-08 -1.08526e-06
0.00198402 5.64531e-05 -5.79696e-06
5.64531e-05 6.18203e-05 -4.04661e-07
-5.79696e-06 -4.04661e-07 2.72577e-05
0.00166428 -1.43382e-05 -1.59702e-06
-1.43382e-05 -2.40647e-05 9.22659e-10
-1.59702e-06 9.22659e-10 -8.47386e-05
0.00197754 -7.38041e-05 5.4006e-06
-7.38041e-05 -7.30708e-06 -4.97398e-08
5.4006e-06 -4.97398e-08 -1.4294e-05
0.00187647 -4.66269e-05 -1.17212e-06
-4.66269e-05 4.73579e-05 6.28885e-07
-1.17212e-06 6.28885e-07 7.65009e-07
0.00199893 -5.82646e-05 1.50852e-07
-5.82646e-05 0.000194917 -1.22099e-06
1.50852e-07 -1.22099e-06 0.000111553
0.00172362 -0.000141306 2.19542e-06
-0.000141306 -2.75041e-05 -2.64989e-07
2.19542e-06 -2.64989e-07 -9.15651e-05
0.00184391 -0.000116571 2.21548e-06
-0.000116571 0.000102397 -6.20427e-07
2.21548e-06 -6.20427e-07 6.7793e-06
0.00175142 -0.000106276 1.57712e-06
-0.000106276 0.000118214 -1.0475e-06
1.57712e-06 -1.0475e-06 -3.93994e-06
0.00184168 -0.000166908 -1.35536e-06
-0.000166908 0.000128873 1.46835e-07
-1.35536e-06 1.46835e-07 2.23756e-05
0.00170706 -0.000146632 -1.56325e-07
-0.000146632 0.000125297 -4.42657e-08
-1.56325e-07 -4.42657e-08 -6.28965e-06
0.00140585 -0.000107742 -3.95701e-06
-0.000107742 8.3041e-05 9.43727e-07
-3.95701e-06 9.43727e-07 -5.97635e-05
0.00164951 -0.000174722 -8.40455e-08
-0.000174722 0.000130726 4.27803e-07
-8.40455e-08 4.27803e-07 -1.07538e-05
0.00136045 -0.000132018 -1.40339e-07
-0.000132018 7.67276e-05 6.7557e-08
-1.40339e-07 6.7557e-08 -7.09875e-05
0.00103144 -9.81666e-05 -1.24111e-05
-9.81666e-05 1.85786e-06 3.83724e-06
-1.24111e-05 3.83724e-06 -0.000126829
0.00135844 -0.000153136 5.1289e-06
-0.000153136 9.35189e-05 -1.43522e-06
5.1289e-06 -1.43522e-06 -5.8385e-05
0.00102643 -0.000113086 1.03018e-07
-0.000113086 8.16444e-06 1.83156e-07
1.03018e-07 1.83156e-07 -0.000121252
0.0024522 -0.000116284 -3.97896e-05
-0.000116284 0.000992995 6.66198e-06
-3.97896e-05 6.66198e-06 0.000929287
0.00100009 -0.000126734 1.27133e-05
-0.000126734 2.69103e-06 -5.1807e-06
1.27133e-05 -5.1807e-06 -0.00012813
0.00251681 -0.000137431 3.2069e-05
-0.000137431 0.00103583 -3.58893e-06
3.2069e-05 -3.58893e-06 0.000973797
0.00175678 -6.83082e-05 -0.000166256
-6.83082e-05 0.000673542 1.90287e-05
-0.000166256 1.90287e-05 0.000654976
0.00266132 -0.000161298 0.00010518
-0.000161298 0.00112589 -1.58869e-05
0.00010518 -1.58869e-05 0.00106353
0.00150279 -1.33254e-05 -7.79506e-05
-1.33254e-05 0.000537749 8.04482e-06
-7.79506e-05 8.04482e-06 0.000509033
0.00515625 0.00021353 1.69783e-05
0.00021353 0.00270136 -2.83291e-06
1.69783e-05 -2.83291e-06 0.00266683
0.00180876 0.000208695 1.30616e-06
0.000208695 0.000105916 6.50536e-07
1.30616e-06 6.50536e-07 -2.33319e-05
0.00178981 0.000227503 -3.33688e-09
0.000227503 0.000201987 -5.1688e-07
-3.33688e-09 -5.1688e-07 5.14073e-05
0.00187594 0.000255557 -3.04926e-06
0.000255557 0.00015761 3.89169e-08
-3.04926e-06 3.89169e-08 1.66385e-05
0.00170214 0.000207979 -3.99128e-06
0.000207979 0.000309595 -8.12056e-07
-3.99128e-06 -8.12056e-07 0.000151727
0.00154761 0.000233241 8.08087e-07
0.000233241 0.000101406 -1.01753e-06
8.08087e-07 -1.01753e-06 -5.94978e-05
0.00183384 0.000261851 -2.32531e-06
0.000261851 0.000162672 -2.98769e-06
-2.32531e-06 -2.98769e-06 1.78522e-05
0.000935087 0.000156454 -1.21452e-05
0.000156454 -1.46535e-05 -4.99147e-06
-1.21452e-05 -4.99147e-06 -0.000155458
0.00125121 0.000207999 1.07788e-07
0.000207999 7.28697e-05 1.79507e-07
1.07788e-07 1.79507e-07 -9.60738e-05
0.00164396 0.000270927 2.6376e-06
0.000270927 0.000199316 -1.22562e-06
2.6376e-06 -1.22562e-06 1.64921e-05
0.00115407 0.000214287 6.8239e-06
0.000214287 6.85991e-05 1.41109e-06
6.8239e-06 1.41109e-06 -0.000109963
0.000909006 0.0001634 -6.0345e-07
0.0001634 1.21777e-05 9.38715e-08
-6.0345e-07 9.38715e-08 -0.000136312
0.000613568 0.000188951 -2.31919e-05
0.000188951 -4.27494e-05 -1.26415e-05
-2.31919e-05 -1.26415e-05 -0.000132227
0.000823249 0.00015195 6.88497e-06
0.00015195 3.23461e-05 5.91109e-06
6.88497e-06 5.91109e-06 -0.000118613
0.000592416 0.000142862 4.05767e-07
0.000142862 -3.30792e-05 3.92344e-07
4.05767e-07 3.92344e-07 -0.000115423
0.00514785 -0.000115616 -0.000160148
-0.000115616 0.00271471 -1.54523e-05
-0.000160148 -1.54523e-05 0.00269022
0.000394858 5.30133e-05 9.62776e-06
5.30133e-05 -0.000126263 1.11697e-05
9.62776e-06 1.11697e-05 -0.000188022
0.00417702 -0.000165418 -1.09095e-05
-0.000165418 0.00213998 9.21854e-07
-1.09095e-05 9.21854e-07 0.00212293
0.00339299 -0.000163948 7.45158e-05
-0.000163948 0.00167336 1.73425e-06
7.45158e-05 1.73425e-06 0.00166085
0.00179607 0.000116298 4.54742e-07
0.000116298 9.09439e-06 1.72617e-06
4.54742e-07 1.72617e-06 -6.78333e-05
0.00183773 0.000145306 2.60056e-07
0.000145306 -1.10742e-05 2.58343e-07
2.60056e-07 2.58343e-07 -7.84383e-05
0.00186064 0.000140174 3.30685e-06
0.000140174 -9.68274e-06 7.36109e-07
3.30685e-06 7.36109e-07 -6.97537e-05
0.00195171 0.0002141 6.6862e-07
0.0002141 0.000138848 -9.83272e-08
6.6862e-07 -9.83272e-08 3.21518e-05
0.00170018 0.000292895 -5.94881e-07
0.000292895 6.81996e-05 -1.28749e-06
-5.94881e-07 -1.28749e-06 -7.93034e-05
0.00176549 0.000225437 6.58918e-07
0.000225437 5.33612e-07 -1.2601e-06
6.58918e-07 -1.2601e-06 -9.9421e-05
0.00187275 3.71145e-05 4.77387e-07
3.71145e-05 9.67625e-05 2.90643e-07
4.77387e-07 2.90643e-07 3.17018e-05
0.00188324 3.7151e-05 6.48604e-07
3.7151e-05 4.42448e-05 -1.92212e-07
6.48604e-07 -1.92212e-07 -6.54026e-06
0.00190478 4.50427e-05 4.68346e-06
4.50427e-05 2.44213e-05 5.31434e-07
4.68346e-06 5.31434e-07 -1.57887e-05
0.00175668 -2.05117e-05 -2.20905e-06
-2.05117e-05 2.94282e-05 1.40313e-07
-2.20905e-06 1.40313e-07 -3.02899e-05
0.00172036 -3.19633e-05 9.82522e-07
-3.19633e-05 5.64889e-05 -8.65022e-07
9.82522e-07 -8.65022e-07 -2.95833e-05
0.00179921 -4.86428e-05 6.89078e-07
-4.86428e-05 -1.60532e-06 9.85458e-07
6.89078e-07 9.85458e-07 -4.81885e-05
0.00187925 -5.81591e-05 -1.08453e-06
-5.81591e-05 0.000126487 4.62073e-07
-1.08453e-06 4.62073e-07 3.91022e-05
0.00179175 -5.90802e-05 3.39735e-07
-5.90802e-05 0.000135122 -5.96568e-07
3.39735e-07 -5.96568e-07 2.40704e-05
0.00185301 -0.00011736 1.1235e-06
-0.00011736 0.000104737 -2.44242e-09
1.1235e-06 -2.44242e-09 9.23001e-06
0.00173348 -0.000107404 1.13936e-06
-0.000107404 0.000110537 -5.38044e-07
1.13936e-06 -5.38044e-07 -1.17434e-05
0.00143072 -7.41333e-05 -3.49724e-06
-7.41333e-05 7.37979e-05 1.9236e-07
-3.49724e-06 1.9236e-07 -6.29073e-05
0.00169882 -0.000146439 -5.12935e-07
-0.000146439 0.000122514 2.93091e-07
-5.12935e-07 2.93091e-07 -8.97955e-06
0.001392 -0.000107036 -1.03131e-08
-0.000107036 7.08797e-05 1.53025e-07
-1.03131e-08 1.53025e-07 -7.17581e-05
0.00102176 -7.63116e-05 -1.21211e-05
-7.63116e-05 -1.39298e-05 3.08967e-06
-1.21211e-05 3.08967e-06 -0.000140343
0.0013649 -0.000131987 4.18253e-06
-0.000131987 7.62394e-05 -1.11371e-06
4.18253e-06 -1.11371e-06 -7.12289e-05
0.00103159 -9.54048e-05 -4.12308e-08
-9.54048e-05 1.17153e-06 1.68327e-07
-4.12308e-08 1.68327e-07 -0.000126851
0.00244502 -0.000131995 -4.3644e-05
-0.000131995 0.000984859 6.11037e-06
-4.3644e-05 6.11037e-06 0.00091962
0.00102125 -0.000110423 1.26378e-05
-0.000110423 4.02195e-06 -4.36728e-06
1.26378e-05 -4.36728e-06 -0.000124642
0.00252014 -0.000126528 3.09311e-05
-0.000126528 0.00102955 -2.74231e-06
3.09311e-05 -2.74231e-06 0.00096932
0.00179767 -5.89037e-05 -0.000166509
-5.89037e-05 0.000691137 1.64324e-05
-0.000166509 1.64324e-05 0.000672889
0.0026252 -0.000140014 0.000104117
-0.000140014 0.00109455 -1.39461e-05
0.000104117 -1.39461e-05 0.00103714
0.00150993 -2.73587e-05 -7.08223e-05
-2.73587e-05 0.000534466 7.30939e-06
-7.08223e-05 7.30939e-06 0.000509152
0.00135235 -1.36981e-06 2.7413e-05
-1.36981e-06 0.000452557 -4.64936e-06
2.7413e-05 -4.64936e-06 0.000418599
0.00191586 0.000122672 5.0184e-07
0.000122672 0.000143443 2.02709e-06
5.0184e-07 2.02709e-06 4.40341e-05
0.00173253 0.000190063 -8.84934e-07
0.000190063 0.000134513 3.27086e-07
-8.84934e-07 3.27086e-07 -7.47141e-06
0.00182179 0.000209241 -7.44776e-07
0.000209241 0.000107229 -8.32265e-08
-7.44776e-07 -8.32265e-08 -1.90711e-05
0.00169333 0.000187018 -3.59811e-06
0.000187018 0.000266188 -7.6923e-07
-3.59811e-06 -7.6923e-07 0.000116491
0.00174056 0.000223185 7.60832e-07
0.000223185 0.0001777 1.29942e-07
7.60832e-07 1.29942e-07 2.61831e-05
0.00174099 0.000250247 2.59399e-07
0.000250247 7.78993e-05 -9.14831e-08
2.59399e-07 -9.14831e-08 -6.47814e-05
0.00101645 0.000145418 -1.29948e-05
0.000145418 9.40864e-06 -4.83425e-06
-1.29948e-05 -4.83425e-06 -0.000125061
0.0014705 0.000200013 3.27828e-06
0.000200013 0.00017223 7.99451e-07
3.27828e-06 7.99451e-07 1.36269e-05
0.00154084 0.00023806 8.71173e-07
0.00023806 9.35528e-05 -1.86186e-06
8.71173e-07 -1.86186e-06 -6.62973e-05
0.000559068 0.000169074 -2.21819e-05
0.000169074 -8.69717e-05 -1.13068e-05
-2.21819e-05 -1.13068e-05 -0.000173593
0.000968846 0.000158851 -5.63468e-07
0.000158851 4.99524e-06 1.16279e-08
-5.63468e-07 1.16279e-08 -0.000136019
0.00118794 0.000203627 7.55324e-06
0.000203627 3.71355e-05 1.96417e-06
7.55324e-06 1.96417e-06 -0.000131368
0.000953328 0.000166131 1.05874e-05
0.000166131 3.68381e-05 5.26613e-06
1.05874e-05 5.26613e-06 -0.000111929
0.000572358 0.000175106 1.67023e-06
0.000175106 -6.45481e-05 5.07699e-07
1.67023e-06 5.07699e-07 -0.000153736
0.0055267 -6.37961e-05 -0.000169105
-6.37961e-05 0.00292895 -1.88637e-05
-0.000169105 -1.88637e-05 0.00290476
0.000457613 0.000132935 1.67596e-05
0.000132935 -0.000111513 1.27366e-05
1.67596e-05 1.27366e-05 -0.000189359
0.0048961 -0.000139188 -6.51579e-06
-0.000139188 0.00255806 2.31967e-07
-6.51579e-06 2.31967e-07 0.00253996
0.00393415 -0.000188174 9.26553e-05
-0.000188174 0.00200168 2.99712e-06
9.26553e-05 2.99712e-06 0.00198097
0.00174067 8.35591e-05 -3.17164e-07
8.35591e-05 2.47958e-05 8.49853e-07
-3.17164e-07 8.49853e-07 -4.9726e-05
0.00180627 0.000115651 9.05409e-07
0.000115651 2.07805e-05 6.85859e-07
9.05409e-07 6.85859e-07 -5.62788e-05
0.00182333 0.000147252 1.68456e-06
0.000147252 -2.41949e-05 -4.23909e-08
1.68456e-06 -4.23909e-08 -9.10509e-05
0.00191608 0.000209898 1.29576e-07
0.000209898 0.000121562 -1.005e-06
1.29576e-07 -1.005e-06 1.7013e-05
0.00173093 -5.59474e-06 2.57519e-06
-5.59474e-06 6.19035e-05 -1.25382e-07
2.57519e-06 -1.25382e-07 -2.66973e-05
0.0019455 3.11156e-05 5.9929e-07
3.11156e-05 0.000135558 -1.71207e-07
5.9929e-07 -1.71207e-07 7.27029e-05
0.00187537 3.65688e-05 2.38007e-06
3.65688e-05 4.13332e-05 2.61315e-07
2.38007e-06 2.61315e-07 -8.58854e-06
0.00185839 -2.44769e-05 -4.00445e-06
-2.44769e-05 8.82953e-05 1.47478e-07
-4.00445e-06 1.47478e-07 2.96572e-05
0.0016633 -2.33871e-05 -1.95314e-06
-2.33871e-05 2.26235e-05 -4.06307e-07
-1.95314e-06 -4.06307e-07 -6.16057e-05
0.00179017 -2.52666e-05 2.2458e-06
-2.52666e-05 0.000151518 -5.24623e-07
2.2458e-06 -5.24623e-07 4.29755e-05
0.00176602 -5.80399e-05 -2.21934e-06
-5.80399e-05 6.10931e-05 1.50442e-06
-2.21934e-06 1.50442e-06 -3.0326e-05
0.00173707 -6.0062e-05 4.26389e-10
-6.0062e-05 0.000106901 3.09105e-07
4.26389e-10 3.09105e-07 -7.67799e-06
0.00147448 -4.11871e-05 -3.43894e-06
-4.11871e-05 8.26914e-05 1.43824e-07
-3.43894e-06 1.43824e-07 -4.5825e-05
0.00172856 -0.000107208 8.01436e-07
-0.000107208 0.000110248 -5.95551e-08
8.01436e-07 -5.95551e-08 -1.19473e-05
0.00142129 -7.2269e-05 2.03773e-07
-7.2269e-05 6.51269e-05 -1.43179e-07
2.03773e-07 -1.43179e-07 -7.1269e-05
0.0010158 -5.10445e-05 -1.21499e-05
-5.10445e-05 -2.50332e-05 2.21626e-06
-1.21499e-05 2.21626e-06 -0.000148839
0.0013781 -0.000104281 3.63054e-06
-0.000104281 5.87834e-05 -6.28058e-07
3.63054e-06 -6.28058e-07 -8.34581e-05
0.00102577 -7.52828e-05 -5.92276e-09
-7.52828e-05 -1.19101e-05 2.35336e-07
-5.92276e-09 2.35336e-07 -0.000138051
0.000622213 -7.31242e-05 -1.88917e-05
-7.31242e-05 -9.8749e-05 4.60125e-06
-1.88917e-05 4.60125e-06 -0.0001706
0.00103398 -9.28029e-05 1.22533e-05
-9.28029e-05 1.65646e-06 -3.54099e-06
1.22533e-05 -3.54099e-06 -0.000125697
0.00157806 -8.33451e-05 4.23913e-05
-8.33451e-05 0.000468091 -2.68303e-06
4.23913e-05 -2.68303e-06 0.000404146
0.00540991 -0.000112758 -0.000209337
-0.000112758 0.00280817 1.26241e-05
-0.000209337 1.26241e-05 0.00281158
0.0026092 -0.000114698 0.000103669
-0.000114698 0.00107413 -1.13583e-05
0.000103669 -1.13583e-05 0.00101965
0.00152663 -4.13597e-05 -6.38862e-05
-4.13597e-05 0.000539408 5.24874e-06
-6.38862e-05 5.24874e-06 0.000514467
0.00127258 -4.70152e-05 3.83026e-05
-4.70152e-05 0.000404498 -5.27666e-06
3.83026e-05 -5.27666e-06 0.000371222
0.00191258 8.75496e-05 1.04339e-06
8.75496e-05 0.000158645 1.51727e-06
1.04339e-06 1.51727e-06 7.00523e-05
0.00181627 0.000129491 6.57315e-07
0.000129491 0.000165989 1.53219e-06
6.57315e-07 1.53219e-06 4.17146e-05
0.00194871 0.000120071 4.35281e-07
0.000120071 0.000169111 2.70003e-08
4.35281e-07 2.70003e-08 6.89383e-05
0.00142126 0.000147809 -4.23076e-06
0.000147809 7.23032e-05 -5.96301e-07
-4.23076e-06 -5.96301e-07 -7.23307e-05
0.00174634 0.000187745 2.51153e-07
0.000187745 0.000142038 9.57441e-10
2.51153e-07 9.57441e-10 1.08082e-06
0.00183296 0.000210072 -7.71665e-07
0.000210072 0.000106575 -6.44068e-07
-7.71665e-07 -6.44068e-07 -1.68488e-05
0.000677184 0.000108786 -1.47486e-05
0.000108786 -0.000205987 -4.54904e-06
-1.47486e-05 -4.54904e-06 -0.000336731
0.00170998 0.000188653 2.11739e-06
0.000188653 0.000276442 5.81569e-07
2.11739e-06 5.81569e-07 0.000126632
0.00169085 0.000218802 8.57014e-07
0.000218802 0.000153001 -1.45724e-07
8.57014e-07 -1.45724e-07 5.3844e-07
0.000539532 0.000126725 -1.92183e-05
0.000126725 -0.000113315 -9.11998e-06
-1.92183e-05 -9.11998e-06 -0.000193817
0.00081784 0.00013597 4.43006e-07
0.00013597 -0.000106318 2.33372e-07
4.43006e-07 2.33372e-07 -0.000241506
0.00122985 0.00019148 9.11126e-06
0.00019148 2.92911e-05 2.0371e-06
9.11126e-06 2.0371e-06 -0.000129965
0.00558612 2.20858e-05 -0.000182181
2.20858e-05 0.00293574 -1.78379e-05
-0.000182181 -1.78379e-05 0.00292566
0.00053894 0.000155787 1.37327e-06
0.000155787 -9.71947e-05 5.4873e-07
1.37327e-06 5.4873e-07 -0.00018484
0.000989061 0.000160589 1.22985e-05
0.000160589 1.69959e-05 5.16049e-06
1.22985e-05 5.16049e-06 -0.000124193
0.000488007 0.000161004 1.99452e-05
0.000161004 -0.000109213 1.27551e-05
1.99452e-05 1.27551e-05 -0.000199214
0.00536354 -7.16818e-05 7.45552e-06
-7.16818e-05 0.00282308 -1.12805e-06
7.45552e-06 -1.12805e-06 0.00280672
0.00462275 -0.000200933 0.000114667
-0.000200933 0.00241354 6.4847e-06
0.000114667 6.4847e-06 0.0023853
0.00179099 5.60818e-05 -9.70051e-07
5.60818e-05 8.85832e-05 -6.62695e-07
-9.70051e-07 -6.62695e-07 -2.3099e-07
0.00181811 8.3694e-05 1.81352e-08
8.3694e-05 6.82785e-05 4.25656e-07
1.81352e-08 4.25656e-07 -6.68813e-06
0.00182053 0.000115103 8.46447e-07
0.000115103 3.51933e-05 -1.74333e-07
8.46447e-07 -1.74333e-07 -4.21261e-05
0.00166868 2.41497e-06 2.26813e-06
2.41497e-06 7.1145e-05 -5.05609e-07
2.26813e-06 -5.05609e-07 -3.94282e-05
0.00170432 -3.70537e-06 5.77648e-07
-3.70537e-06 5.062e-05 1.00318e-07
5.77648e-07 1.00318e-07 -3.6496e-05
0.00201483 2.39381e-05 -4.68743e-07
2.39381e-05 0.000172363 -8.58668e-08
-4.68743e-07 -8.58668e-08 0.0001115
0.00159677 -1.60655e-05 -3.2817e-06
-1.60655e-05 -1.69634e-05 1.04442e-06
-3.2817e-06 1.04442e-06 -9.93502e-05
0.00176028 -2.0194e-05 1.05888e-06
-2.0194e-05 0.000133082 -2.52703e-07
1.05888e-06 -2.52703e-07 2.46923e-05
0.00172865 -1.57106e-05 -1.32334e-06
-1.57106e-05 0.000227908 -2.2326e-07
-1.32334e-06 -2.2326e-07 0.000104753
0.00168155 -6.11607e-05 -9.33015e-07
-6.11607e-05 7.86888e-05 8.71634e-07
-9.33015e-07 8.71634e-07 -3.94169e-05
0.00157476 -4.12963e-05 -1.0105e-08
-4.12963e-05 0.000141204 6.89286e-08
-1.0105e-08 6.89286e-08 1.21391e-05
0.000763058 -2.40841e-05 -1.38061e-05
-2.40841e-05 -0.0001773 1.58266e-06
-1.38061e-05 1.58266e-06 -0.000300542
0.00140721 -7.24324e-05 3.66674e-06
-7.24324e-05 5.38695e-05 -5.11522e-07
3.66674e-06 -5.11522e-07 -8.24598e-05
0.00101923 -4.80702e-05 -4.58991e-08
-4.80702e-05 -2.37192e-05 1.12994e-07
-4.58991e-08 1.12994e-07 -0.000147129
0.000625027 -2.03072e-05 -1.80941e-05
-2.03072e-05 -0.000101658 2.96765e-06
-1.80941e-05 2.96765e-06 -0.000172843
0.00104229 -7.35881e-05 1.21962e-05
-7.35881e-05 -3.0653e-06 -2.62274e-06
1.21962e-05 -2.62274e-06 -0.000128789
0.000627425 -5.75077e-05 -1.66393e-07
-5.75077e-05 -9.41469e-05 3.55557e-07
-1.66393e-07 3.55557e-07 -0.000167175
0.00544955 -7.27069e-06 -0.000200881
-7.27069e-06 0.00282746 7.77835e-06
-0.000200881 7.77835e-06 0.0028329
0.000659208 -6.36731e-05 1.61484e-05
-6.36731e-05 -7.28139e-05 -6.48883e-06
1.61484e-05 -6.48883e-06 -0.000147069
0.00342858 -7.4515e-05 9.56083e-05
-7.4515e-05 0.00165184 -3.08957e-06
9.56083e-05 -3.08957e-06 0.00163538
0.00121793 -6.78394e-05 4.41339e-05
-6.78394e-05 0.000374436 -5.84282e-06
4.41339e-05 -5.84282e-06 0.000338202
0.00181657 8.28923e-05 -1.23347e-07
8.28923e-05 0.000125281 1.27698e-07
-1.23347e-07 1.27698e-07 3.05457e-05
0.00167146 7.61282e-05 2.15297e-06
7.61282e-05 8.20191e-05 1.98966e-06
2.15297e-06 1.98966e-06 -3.37297e-05
0.00191608 8.48136e-05 -2.15604e-07
8.48136e-05 0.000161832 -3.84978e-07
-2.15604e-07 -3.84978e-07 7.37889e-05
0.00141875 0.000104666 -3.04251e-06
0.000104666 5.7593e-05 -1.96404e-07
-3.04251e-06 -1.96404e-07 -8.03267e-05
0.00177396 0.000128008 5.29133e-07
0.000128008 0.000138082 1.61109e-07
5.29133e-07 1.61109e-07 1.2511e-05
0.00198823 0.000117341 -1.02093e-06
0.000117341 0.000198791 -1.96286e-06
-1.02093e-06 -1.96286e-06 9.78782e-05
0.000721317 8.86882e-05 -1.43545e-05
8.86882e-05 -0.000195152 -3.49792e-06
-1.43545e-05 -3.49792e-06 -0.000322585
0.00157638 0.000151684 -5.11882e-07
0.000151684 0.000164799 8.43475e-08
-5.11882e-07 8.43475e-08 2.04506e-05
0.00176024 0.000185356 7.93425e-07
0.000185356 0.000149925 -4.65288e-07
7.93425e-07 -4.65288e-07 1.00105e-05
0.000553465 9.04037e-05 -1.77102e-05
9.04037e-05 -0.000123025 -6.8893e-06
-1.77102e-05 -6.8893e-06 -0.000198097
0.000652124 0.000108286 -2.77924e-06
0.000108286 -0.000219815 -5.14118e-07
-2.77924e-06 -5.14118e-07 -0.00035099
0.00173148 0.000190722 7.94596e-06
0.000190722 0.000289494 1.99808e-06
7.94596e-06 1.99808e-06 0.000139519
0.00554337 0.000103185 -0.000200256
0.000103185 0.00289193 -1.66976e-05
-0.000200256 -1.66976e-05 0.00289143
0.000536598 0.000120001 5.47555e-07
0.000120001 -0.000115132 3.45769e-07
5.47555e-07 3.45769e-07 -0.00019611
0.000623143 0.000126985 1.27728e-05
0.000126985 -0.000219887 4.74294e-06
1.27728e-05 4.74294e-06 -0.000355853
0.00549662 3.54255e-05 1.23299e-05
3.54255e-05 0.00288302 5.85506e-07
1.23299e-05 5.85506e-07 0.00287465
0.000502227 0.00014212 1.88591e-05
0.00014212 -0.000116914 1.12027e-05
1.88591e-05 1.12027e-05 -0.00020547
0.00520787 -0.000106158 0.000157045
-0.000106158 0.00272478 9.11863e-06
0.000157045 9.11863e-06 0.00271321
0.00177141 3.95927e-05 4.22262e-07
3.95927e-05 0.000123467 -5.47459e-07
4.22262e-07 -5.47459e-07 1.55599e-05
0.00175701 5.39504e-05 -1.2515e-06
5.39504e-05 7.37845e-05 3.10031e-07
-1.2515e-06 3.10031e-07 -1.62199e-05
0.00189034 8.33507e-05 4.26623e-08
8.33507e-05 0.000108513 -4.86877e-08
4.26623e-08 -4.86877e-08 3.31466e-05
0.00172446 -3.43912e-06 -5.54252e-07
-3.43912e-06 0.000230691 -3.67633e-07
-5.54252e-07 -3.67633e-07 0.00010949
0.00169431 4.00069e-07 3.01847e-07
4.00069e-07 8.54263e-05 3.78747e-08
3.01847e-07 3.78747e-08 -2.34562e-05
0.00168481 -2.81603e-07 5.7198e-07
-2.81603e-07 4.31483e-05 6.85924e-08
5.7198e-07 6.85924e-08 -4.24696e-05
0.00173047 -1.53789e-05 -3.13554e-07
-1.53789e-05 0.000114759 4.54805e-07
-3.13554e-07 4.54805e-07 6.49244e-06
0.00173383 -1.54915e-05 2.51687e-06
-1.54915e-05 0.000230674 -2.20658e-07
2.51687e-06 -2.20658e-07 0.000107502
0.000782182 -8.70023e-06 -1.32494e-05
-8.70023e-06 -0.0001687 7.26304e-07
-1.32494e-05 7.26304e-07 -0.000290022
0.00167674 -4.15228e-05 4.08461e-06
-4.15228e-05 0.000200669 -1.65298e-07
4.08461e-06 -1.65298e-07 7.10547e-05
0.000889422 -2.3158e-05 -2.42843e-06
-2.3158e-05 -0.000104116 2.56706e-07
-2.42843e-06 2.56706e-07 -0.000226372
0.000628403 -5.82572e-06 -1.83112e-05
-5.82572e-06 -0.000104359 1.98378e-06
-1.83112e-05 1.98378e-06 -0.000174552
0.00102723 -4.62907e-05 1.18055e-05
-4.62907e-05 -1.9628e-05 -1.97168e-06
1.18055e-05 -1.97168e-06 -0.000142746
0.000610898 -2.8101e-05 6.81857e-07
-2.8101e-05 -0.000111245 -4.07962e-08
6.81857e-07 -4.07962e-08 -0.000181406
0.00543113 -0.000103755 -0.000210996
-0.000103755 0.00282327 7.75802e-06
-0.000210996 7.75802e-06 0.002826
0.000609088 -4.16737e-05 1.73442e-05
-4.16737e-05 -0.000105274 -3.56249e-06
1.73442e-05 -3.56249e-06 -0.000177959
0.00543604 -4.27881e-05 7.91987e-06
-4.27881e-05 0.00282043 1.08352e-08
7.91987e-06 1.08352e-08 0.00282595
0.00154693 -1.5957e-05 0.00017341
-1.5957e-05 0.000543424 -9.03086e-06
0.00017341 -9.03086e-06 0.000529179
0.00166207 5.93923e-05 1.84208e-06
5.93923e-05 7.69012e-05 3.92895e-07
1.84208e-06 3.92895e-07 -3.64001e-05
0.00179365 8.71251e-05 -2.8361e-06
8.71251e-05 0.000104271 -4.05168e-07
-2.8361e-06 -4.05168e-07 1.15987e-05
0.0014259 6.27374e-05 -2.36514e-06
6.27374e-05 6.19955e-05 1.28096e-07
-2.36514e-06 1.28096e-07 -6.87227e-05
0.00167787 7.50494e-05 5.62795e-07
7.50494e-05 8.65096e-05 7.17112e-08
5.62795e-07 7.17112e-08 -2.92836e-05
0.00191484 8.22327e-05 -1.68164e-06
8.22327e-05 0.000162006 -2.65049e-06
-1.68164e-06 -2.65049e-06 7.45111e-05
0.00106278 7.1432e-05 -1.21931e-05
7.1432e-05 -3.68009e-06 -2.26187e-06
-1.21931e-05 -2.26187e-06 -0.000125214
0.0014213 0.000104646 4.62667e-08
0.000104646 5.96716e-05 9.71243e-08
4.62667e-08 9.71243e-08 -7.83823e-05
0.0017284 0.000126448 -1.85261e-07
0.000126448 0.000108322 -9.4882e-07
-1.85261e-07 -9.4882e-07 -1.8553e-05
0.000575395 6.3543e-05 -1.7218e-05
6.3543e-05 -0.000124594 -4.94973e-06
-1.7218e-05 -4.94973e-06 -0.000196808
0.000851224 9.43404e-05 -3.21181e-06
9.43404e-05 -0.000118755 -3.65676e-07
-3.21181e-06 -3.65676e-07 -0.000245768
0.00173657 0.000155598 4.86953e-06
0.000155598 0.000260327 1.18638e-06
4.86953e-06 1.18638e-06 0.000116273
0.00552483 0.000154457 -0.000219559
0.000154457 0.00287826 -1.61562e-05
-0.000219559 -1.61562e-05 0.00287841
0.000564664 8.86481e-05 5.42581e-08
8.86481e-05 -0.000117029 1.33124e-07
5.42581e-08 1.33124e-07 -0.000192214
0.000622242 0.00010766 8.97074e-06
0.00010766 -0.000236589 3.40098e-06
8.97074e-06 3.40098e-06 -0.000368153
0.00548081 0.000122468 1.0457e-05
0.000122468 0.00286335 2.25577e-06
1.0457e-05 2.25577e-06 0.00285946
0.000537657 0.000111886 1.77131e-05
0.000111886 -0.000115222 9.01125e-06
1.77131e-05 9.01125e-06 -0.000196231
0.00543254 3.09658e-05 0.00018926
3.09658e-05 0.00283424 1.36607e-05
0.00018926 1.36607e-05 0.00283386
0.00170333 2.72656e-05 -4.9376e-07
2.72656e-05 0.000224271 -2.44241e-07
-4.9376e-07 -2.44241e-07 0.000104139
0.00174127 3.53323e-05 -9.85916e-07
3.53323e-05 0.00010906 1.61114e-07
-9.85916e-07 1.61114e-07 8.32142e-08
0.00172517 5.15996e-05 -1.62875e-06
5.15996e-05 6.08553e-05 3.91955e-07
-1.62875e-06 3.91955e-07 -3.02949e-05
0.000770094 -8.78504e-06 -1.37522e-05
-8.78504e-06 -0.00017129 -2.98962e-07
-1.37522e-05 -2.98962e-07 -0.000290758
0.00173772 2.7906e-06 2.85376e-06
2.7906e-06 0.000238348 -1.45497e-07
2.85376e-06 -1.45497e-07 0.000117147
0.00171719 -1.69776e-06 -6.44099e-07
-1.69776e-06 9.83154e-05 4.56535e-07
-6.44099e-07 4.56535e-07 -8.86608e-06
0.00174405 -1.56068e-05 6.1674e-06
-1.56068e-05 0.00023638 -1.22871e-07
6.1674e-06 -1.22871e-07 0.00011319
0.000770854 -8.63868e-06 -1.85057e-06
-8.63868e-06 -0.000175847 1.57084e-07
-1.85057e-06 1.57084e-07 -0.000297326
0.00063071 -2.53877e-05 -1.85738e-05
-2.53877e-05 -0.000105069 7.62543e-07
-1.85738e-05 7.62543e-07 -0.00017404
0.00100258 -2.14614e-05 9.75929e-06
-2.14614e-05 -3.85009e-05 -1.25851e-06
9.75929e-06 -1.25851e-06 -0.000159775
0.000611964 4.35648e-06 2.40431e-07
4.35648e-06 -0.000114125 6.64263e-08
2.40431e-07 6.64263e-08 -0.000183905
0.00547157 -8.17762e-05 -0.00021819
-8.17762e-05 0.00284464 5.34513e-06
-0.00021819 5.34513e-06 0.00284924
0.000615791 -2.83306e-05 1.80913e-05
-2.83306e-05 -0.000107264 -2.41163e-06
1.80913e-05 -2.41163e-06 -0.000178237
0.00546154 2.98015e-06 -3.01103e-06
2.98015e-06 0.00283318 1.27725e-06
-3.01103e-06 1.27725e-06 0.0028405
0.00545083 -6.29176e-05 0.000211087
-6.29176e-05 0.00282719 -7.00525e-06
0.000211087 -7.00525e-06 0.00283404
0.00141334 4.03846e-05 -2.49274e-06
4.03846e-05 6.04526e-05 4.59886e-09
-2.49274e-06 4.59886e-09 -6.7026e-05
0.00169698 6.22698e-05 -8.82323e-07
6.22698e-05 9.61237e-05 -1.01782e-06
-8.82323e-07 -1.01782e-06 -1.39015e-05
0.00177154 9.16133e-05 -4.20704e-06
9.16133e-05 8.38937e-05 -4.91078e-07
-4.20704e-06 -4.91078e-07 -6.74039e-06
0.00106512 3.98595e-05 -1.20612e-05
3.98595e-05 -3.37326e-06 -1.60011e-06
-1.20612e-05 -1.60011e-06 -0.000121057
0.00141505 6.29984e-05 1.66157e-07
6.29984e-05 5.42254e-05 4.16011e-08
1.66157e-07 4.16011e-08 -7.68401e-05
0.00168112 7.38524e-05 -1.14933e-06
7.38524e-05 8.95418e-05 -1.73232e-06
-1.14933e-06 -1.73232e-06 -2.62972e-05
0.000600951 3.85682e-05 -1.68467e-05
3.85682e-05 -0.000116507 -3.64635e-06
-1.68467e-05 -3.64635e-06 -0.000187105
0.00103141 7.25349e-05 2.07195e-07
7.25349e-05 -2.10285e-05 2.18509e-07
2.07195e-07 2.18509e-07 -0.000143013
0.00142486 0.000104661 3.61643e-06
0.000104661 6.2103e-05 4.73027e-07
3.61643e-06 4.73027e-07 -7.60919e-05
0.00548981 0.000155855 -0.000231689
0.000155855 0.00285954 -1.41403e-05
-0.000231689 -1.41403e-05 0.00285953
0.000597818 6.54475e-05 2.92291e-07
6.54475e-05 -0.000111495 1.864e-07
2.92291e-07 1.864e-07 -0.000184016
0.000976997 9.99008e-05 9.05992e-06
9.99008e-05 -4.48633e-05 2.87287e-06
9.05992e-06 2.87287e-06 -0.000171412
0.00548955 0.000167901 5.82168e-06
0.000167901 0.00286473 2.32906e-06
5.82168e-06 2.32906e-06 0.00286206
0.00057871 8.76911e-05 1.70431e-05
8.76911e-05 -0.000108984 7.09963e-06
1.70431e-05 7.09963e-06 -0.000184286
0.0054505 0.000143246 0.000206979
0.000143246 0.00284414 1.78204e-05
0.000206979 1.78204e-05 0.00284189
0.00104943 1.24104e-05 -1.26529e-05
1.24104e-05 -6.28034e-06 -9.54597e-07
-1.26529e-05 -9.54597e-07 -0.000121898
0.00156729 2.25978e-05 3.18078e-06
2.25978e-05 0.000145757 1.15715e-07
3.18078e-06 1.15715e-07 2.46054e-05
0.00170671 3.01998e-05 -2.17212e-06
3.01998e-05 9.16435e-05 2.85619e-07
-2.17212e-06 2.85619e-07 -1.84165e-05
0.000659932 2.81918e-05 -1.90482e-05
2.81918e-05 -9.45317e-05 -4.55426e-07
-1.90482e-05 -4.55426e-07 -0.000156876
0.000755409 -3.3319e-06 -2.14053e-06
-3.3319e-06 -0.000181079 6.23103e-08
-2.14053e-06 6.23103e-08 -0.000300777
0.00174885 9.02053e-06 6.30381e-06
9.02053e-06 0.00024469 2.26291e-07
6.30381e-06 2.26291e-07 0.000123484
0.000754379 -8.18763e-06 9.53469e-06
-8.18763e-06 -0.000186008 -4.26407e-07
9.53469e-06 -4.26407e-07 -0.000307634
0.000623734 -3.54444e-06 2.08052e-07
-3.54444e-06 -0.000109232 3.06187e-07
2.08052e-07 3.06187e-07 -0.000178146
0.00547737 4.57624e-05 -0.000224923
4.57624e-05 0.00284411 -7.51546e-07
-0.000224923 -7.51546e-07 0.00285165
0.000593413 1.43871e-05 1.76854e-05
1.43871e-05 -0.000125443 -1.22397e-06
1.76854e-05 -1.22397e-06 -0.00019462
0.00546634 -8.11411e-05 -7.86258e-06
-8.11411e-05 0.00284194 1.42116e-06
-7.86258e-06 1.42116e-06 0.00284622
0.00543878 2.37171e-05 0.000202971
2.37171e-05 0.00282043 -3.05695e-06
0.000202971 -3.05695e-06 0.00282726
0.00105918 2.11859e-05 -1.25402e-05
2.11859e-05 -3.68084e-06 -1.2048e-06
-1.25402e-05 -1.2048e-06 -0.000119429
0.00140416 3.99605e-05 -9.08165e-08
3.99605e-05 5.30971e-05 -8.40254e-08
-9.08165e-08 -8.40254e-08 -7.27193e-05
0.00173816 6.49889e-05 -3.35207e-06
6.49889e-05 0.000118801 -1.66216e-06
-3.35207e-06 -1.66216e-06 1.20635e-05
0.00260477 4.39278e-05 -0.000109739
4.39278e-05 0.00105223 -3.30513e-06
-0.000109739 -3.30513e-06 0.00100461
0.00103882 4.1757e-05 2.37465e-07
4.1757e-05 -1.84598e-05 1.83457e-07
2.37465e-07 1.83457e-07 -0.000136442
0.00140712 6.32037e-05 3.26679e-06
6.32037e-05 4.80097e-05 7.07028e-08
3.26679e-06 7.07028e-08 -8.34023e-05
0.0054443 0.000129537 -0.00023471
0.000129537 0.00283286 -1.07466e-05
-0.00023471 -1.07466e-05 0.00283469
0.000633938 5.34084e-05 7.41599e-07
5.34084e-05 -9.57115e-05 2.81605e-07
7.41599e-07 2.81605e-07 -0.000167592
0.0010071 7.38586e-05 1.21002e-05
7.38586e-05 -3.4373e-05 2.66477e-06
1.21002e-05 2.66477e-06 -0.000156788
0.00551372 0.000167956 1.519e-06
0.000167956 0.00287623 1.6515e-06
1.519e-06 1.6515e-06 0.00287502
0.000630084 6.94242e-05 1.74979e-05
6.94242e-05 -9.18203e-05 5.69555e-06
1.74979e-05 5.69555e-06 -0.000165109
0.00545849 0.000191581 0.000218349
0.000191581 0.00285323 1.93204e-05
0.000218349 1.93204e-05 0.00284735
0.000699787 8.57221e-06 -1.64173e-05
8.57221e-06 -5.99712e-05 -1.86983e-06
-1.64173e-05 -1.86983e-06 -0.000128947
0.000886475 1.01078e-05 6.44512e-07
1.01078e-05 -0.000100779 1.30227e-07
6.44512e-07 1.30227e-07 -0.000217725
0.00142799 1.76935e-05 6.11454e-06
1.76935e-05 6.54483e-05 2.68648e-07
6.11454e-06 2.68648e-07 -5.67059e-05
0.00537263 -9.30071e-05 -0.000209403
-9.30071e-05 0.00279892 2.86183e-07
-0.000209403 2.86183e-07 0.00279701
0.000619835 7.73123e-06 -3.97176e-07
7.73123e-06 -0.000112742 2.45059e-07
-3.97176e-07 2.45059e-07 -0.000177791
0.000748703 1.84599e-06 9.40497e-06
1.84599e-06 -0.0001863 2.89258e-07
9.40497e-06 2.89258e-07 -0.000306209
0.00059102 2.02908e-05 1.79723e-05
2.02908e-05 -0.000128447 1.28041e-07
1.79723e-05 1.28041e-07 -0.000196943
0.0054426 1.02335e-05 2.65578e-06
1.02335e-05 0.0028277 -6.08363e-07
2.65578e-06 -6.08363e-07 0.00283228
0.00548403 7.61865e-06 0.000213675
7.61865e-06 0.00284366 -1.23612e-06
0.000213675 -1.23612e-06 0.00285213
0.00264963 4.55607e-06 -0.000106698
4.55607e-06 0.00107609 -2.09009e-06
-0.000106698 -2.09009e-06 0.00102965
0.00104881 2.37226e-05 7.44389e-08
2.37226e-05 -9.64439e-06 8.68212e-08
7.44389e-08 8.68212e-08 -0.000125588
0.00138846 3.97003e-05 3.16324e-06
3.97003e-05 4.2101e-05 -1.33021e-07
3.16324e-06 -1.33021e-07 -8.20571e-05
0.0050854 -6.30134e-05 -6.41307e-05
-6.30134e-05 0.0026343 2.87882e-07
-6.41307e-05 2.87882e-07 0.00261969
0.00064636 4.50784e-05 -2.56741e-09
4.50784e-05 -9.03024e-05 2.54503e-07
-2.56741e-09 2.54503e-07 -0.000160315
0.00102461 4.41444e-05 1.19578e-05
4.41444e-05 -2.68583e-05 2.00417e-06
1.19578e-05 2.00417e-06 -0.000145095
0.00548849 9.72968e-05 -1.11162e-05
9.72968e-05 0.00285405 -9.13631e-07
-1.11162e-05 -9.13631e-07 0.00285788
0.000664151 7.40988e-05 1.89989e-05
7.40988e-05 -7.74238e-05 4.70598e-06
1.89989e-05 4.70598e-06 -0.000149932
0.00551255 0.000191877 0.000229452
0.000191877 0.00288276 1.82952e-05
0.000229452 1.82952e-05 0.00287805
0.00167446 -4.64951e-05 -0.000181645
-4.64951e-05 0.000612277 5.49175e-07
-0.000181645 5.49175e-07 0.000601335
0.00164592 2.33236e-05 -4.40447e-05
2.33236e-05 0.000487163 1.51851e-07
-4.40447e-05 1.51851e-07 0.000433336
0.000730154 1.01573e-05 1.23212e-05
1.01573e-05 -0.000191473 9.20126e-07
1.23212e-05 9.20126e-07 -0.00030977
0.00540841 -3.8598e-05 8.09693e-06
-3.8598e-05 0.00281484 8.66358e-07
8.09693e-06 8.66358e-07 0.00281691
0.000626682 -1.15125e-05 1.83741e-05
-1.15125e-05 -0.000104398 1.02368e-06
1.83741e-05 1.02368e-06 -0.000171971
0.00547462 -5.92595e-05 0.000229105
-5.92595e-05 0.00284669 -1.46729e-06
0.000229105 -1.46729e-06 0.00285204
0.00126964 -4.01067e-08 -3.12249e-05
-4.01067e-08 0.000398463 -6.37132e-07
-3.12249e-05 -6.37132e-07 0.000364563
0.00163985 1.13262e-05 -4.45669e-05
1.13262e-05 0.000487345 -4.74606e-07
-4.45669e-05 -4.74606e-07 0.000430666
0.00102725 2.47903e-05 1.21629e-05
2.47903e-05 -2.1801e-05 1.40766e-06
1.21629e-05 1.40766e-06 -0.000137967
0.00336524 4.34442e-05 8.38789e-05
4.34442e-05 0.00161322 1.85646e-06
8.38789e-05 1.85646e-06 0.00160057
0.000657588 5.38065e-05 1.90586e-05
5.38065e-05 -8.34249e-05 3.72858e-06
1.90586e-05 3.72858e-06 -0.000153698
0.00552707 8.94603e-05 0.000219476
8.94603e-05 0.0028722 1.13137e-05
0.000219476 1.13137e-05 0.00287847
0.00532665 -2.40474e-05 -8.85504e-06
-2.40474e-05 0.00277044 -1.50662e-06
-8.85504e-06 -1.50662e-06 0.00277173
0.000630726 3.95692e-05 1.95933e-05
3.95692e-05 -0.000106809 1.84611e-06
1.95933e-05 1.84611e-06 -0.000168813
0.00532697 5.35016e-05 0.000213815
5.35016e-05 0.00276488 -1.54578e-07
0.000213815 -1.54578e-07 0.00276944
0.00331387 2.63247e-05 9.75924e-05
2.63247e-05 0.00158818 2.6661e-06
9.75924e-05 2.6661e-06 0.00157528
0.000667063 4.58269e-06 1.8492e-05
4.58269e-06 -7.91011e-05 2.51029e-06
1.8492e-05 2.51029e-06 -0.000146507
0.00544664 -3.26051e-05 0.00021151
-3.26051e-05 0.00282834 5.16158e-06
0.00021151 5.16158e-06 0.00283339
0.00534637 -0.000130045 0.000208956
-0.000130045 0.00278816 -2.40094e-06
0.000208956 -2.40094e-06 0.00278446
0.00535018 -1.69659e-05 0.000208716
-1.69659e-05 0.00276984 2.55625e-06
0.000208716 2.55625e-06 0.00277818
