# vtk DataFile Version 2.0
Wound Healing Simulation
ASCII
DATASET UNSTRUCTURED_GRID
POINTS 3012 float
69.9759 18.75 4
67.2507 60.3285 4
69.976 18.75 2
73.0099 25.446 4
71.1327 20.9142 4
68.6801 16.6661 4
67.8225 19.9264 3.97552
67.2507 60.3286 2
71.1327 54.0858 4
68.6801 58.3339 4
65.6939 62.2254 4
65.3094 58.9996 3.9746
74.6784 42.3946 4
73.7221 47.2057 4
69.9759 18.75 0
73.0099 25.446 2
68.6801 16.6661 2
71.1327 20.9142 2
67.8231 19.9301 2
74.6792 32.6053 4
73.7222 27.7943 4
72.1454 23.1494 4
70.6118 26.2216 3.97534
68.8828 21.958 3.97589
67.2507 14.6715 4
66.6337 17.9731 3.9743
65.787 21.0293 3.96408
67.2507 60.3285 0
71.1327 54.0858 2
68.6801 58.3339 2
65.694 62.2255 2
65.3105 58.9947 2
72.1454 51.8506 4
69.9759 56.25 4
68.8334 53.1134 3.97535
64.0165 64.0165 4
66.6077 57.1326 3.97502
63.8825 60.7635 3.97419
63.4929 57.7643 3.96576
60.3285 67.2507 4
74.6792 42.3947 2
73.7222 47.2057 2
74.9194 39.9526 4
74.2788 44.8158 4
72.1666 42.0857 3.97672
73.0099 49.554 4
71.247 46.598 3.9752
73.0099 25.446 0
71.1327 20.9142 0
68.6801 16.6661 0
67.8225 19.9264 0.0244781
74.6792 32.6053 2
73.7222 27.7943 2
67.2508 14.6715 2
72.1455 23.1494 2
70.6115 26.2222 2
66.6349 17.9776 2
68.883 21.9606 2
65.7843 21.0312 2
74.9197 35.0474 4
74.2794 30.1841 4
72.1833 32.9443 3.97697
71.2762 28.4322 3.97561
69.813 24.0598 3.9757
68.3403 26.9545 3.96445
66.753 22.9365 3.96401
65.694 12.7746 4
65.32 16.1057 3.97293
64.7049 19.2005 3.96426
63.8028 22.0683 3.96438
71.1327 54.0858 0
65.6939 62.2254 0
68.6801 58.3339 0
65.3094 58.9996 0.025401
72.1455 51.8506 2
69.9759 56.25 2
68.8335 53.1109 2
64.0165 64.0165 2
66.6084 57.1285 2
63.8841 60.7583 2
63.4912 57.764 2
62.2254 65.694 4
58.8918 65.413 3.98365
69.7661 50.9893 3.97508
67.7806 55.1671 3.97548
66.6374 52.2065 3.96416
62.3327 62.4244 3.97736
64.6524 56.0271 3.96508
62.1958 59.3916 3.96568
61.7751 56.6541 3.96177
58.3339 68.6801 4
60.3285 67.2508 2
73.7221 47.2057 0
74.6784 42.3946 0
74.9197 39.9526 2
74.2794 44.8159 2
72.1658 42.0854 2
73.0099 49.554 2
71.2466 46.5976 2
75 37.5 4
72.4039 39.8025 3.97768
71.7807 44.3529 3.97636
69.799 41.7899 3.96702
70.5726 48.8136 3.97481
68.9058 46.0139 3.96543
74.6792 32.6053 0
73.7222 27.7943 0
67.2507 14.6715 0
72.1454 23.1494 0
70.6118 26.2216 0.0246641
68.8828 21.958 0.0241075
66.6337 17.9731 0.0257019
65.787 21.0293 0.0359184
74.9197 35.0474 2
74.2794 30.1841 2
72.1825 32.9446 2
71.2758 28.4328 2
65.694 12.7745 2
65.3214 16.111 2
69.8128 24.0612 2
68.3399 26.9557 2
64.7018 19.2021 2
66.7528 22.938 2
63.802 22.0692 2
72.4118 35.2249 3.97774
71.8022 30.6772 3.97661
69.8352 33.271 3.96695
68.9603 29.0413 3.96532
67.604 24.915 3.96414
66.0954 27.6605 3.96816
64.0165 10.9835 4
64.6636 23.8613 3.96576
63.886 14.3304 3.97363
63.5041 17.4568 3.96497
62.8288 20.3558 3.96244
61.92 23.0087 3.96834
60.681 11.1016 3.97858
57.6058 11.4733 3.96954
72.1454 51.8506 0
69.9759 56.25 0
68.8334 53.1134 0.0246466
64.0165 64.0165 0
63.8825 60.7635 0.0258116
66.6077 57.1326 0.024984
63.4929 57.7643 0.034242
62.2255 65.694 2
58.894 65.4093 2
69.7659 50.9878 2
67.7812 55.1637 2
66.6365 52.2053 2
62.3351 62.4198 2
64.6507 56.0266 2
62.1934 59.3914 2
61.7749 56.6545 2
60.666 63.9737 3.98003
57.0229 66.7339 3.98687
57.5528 63.6758 3.97144
67.4956 50.1744 3.96429
65.6929 54.1705 3.96438
64.43 51.3539 3.96589
60.7675 60.9182 3.96856
62.751 55.0395 3.96341
60.6263 58.1307 3.96063
60.2252 55.7346 3.9646
56.25 69.9759 4
58.3339 68.6801 2
60.3285 67.2507 0
58.9183 9.6594 3.97995
62.2254 9.30607 4
73.0099 49.554 0
74.2788 44.8158 0
71.247 46.598 0.0247954
72.1666 42.0857 0.0232821
74.9194 39.9526 0
75 37.5 2
72.4037 39.8024 2
71.7804 44.3523 2
69.7982 41.7896 2
70.5721 48.813 2
68.9056 46.0134 2
72.4873 37.5126 3.97731
70.0366 39.6582 3.9674
69.4248 43.9072 3.96642
67.5014 41.4892 3.9721
68.2564 48.1055 3.96476
66.5959 45.4196 3.97026
74.9197 35.0474 0
74.2794 30.1841 0
72.1833 32.9443 0.0230293
71.2762 28.4322 0.0243902
65.694 12.7746 0
65.32 16.1057 0.0270743
69.813 24.0598 0.0243017
68.3403 26.9545 0.035547
66.753 22.9365 0.0359857
64.7049 19.2005 0.0357446
63.8028 22.0683 0.0356189
72.4116 35.2249 2
71.802 30.6779 2
69.8344 33.2717 2
68.96 29.0422 2
64.0165 10.9835 2
63.8881 14.3357 2
63.5026 17.4578 2
67.6038 24.9163 2
66.0944 27.6613 2
62.8276 20.3566 2
64.663 23.8622 2
61.9189 23.0097 2
60.6836 11.1058 2
57.6068 11.466 2
70.0534 35.3941 3.96741
69.4619 31.1524 3.96609
67.5674 33.6028 3.97135
66.6717 29.6449 3.969
65.4263 25.7282 3.96696
63.9321 28.3071 3.97481
62.3379 12.6589 3.97652
62.6665 24.6997 3.97059
62.1907 15.8008 3.96603
61.7502 18.7217 3.96091
61.0561 21.4113 3.96544
60.1681 23.8236 3.97239
59.2396 12.8095 3.9673
55.8688 10.2557 3.97293
56.3938 13.1708 3.96894
69.7661 50.9893 0.0249203
62.2254 65.694 0
58.8918 65.413 0.0163491
67.7806 55.1671 0.0245211
66.6374 52.2065 0.0358357
62.3327 62.4244 0.0226428
62.1958 59.3916 0.0343248
64.6524 56.0271 0.0349237
61.7751 56.6541 0.0382287
60.6683 63.9707 2
57.0253 66.7319 2
57.5538 63.6797 2
67.4963 50.1734 2
65.6902 54.1692 2
64.4299 51.3535 2
60.7663 60.9199 2
62.7512 55.0397 2
60.63 58.1324 2
60.224 55.7346 2
55.0686 67.9312 3.9881
59.2132 62.3375 3.96918
55.8011 64.9015 3.97534
56.3162 62.0452 3.9707
65.2138 49.3785 3.96722
63.6135 53.2614 3.96452
62.2213 50.5898 3.96962
59.3174 59.5267 3.96223
60.9303 54.2527 3.96693
59.1972 56.9572 3.96168
59.0905 55.115 3.96763
48.0998 68.5745 3.98429
50.9465 69.9313 3.98989
54.0858 71.1327 4
56.25 69.976 2
58.3339 68.6801 0
57.0556 8.33867 3.98208
60.3285 7.74928 4
58.9211 9.66355 2
62.2255 9.30602 2
70.5726 48.8136 0.025193
71.7807 44.3529 0.0236411
68.9058 46.0139 0.0345723
69.799 41.7899 0.0329804
72.4039 39.8025 0.0223203
75 37.5 0
72.4866 37.5125 2
70.0363 39.6582 2
69.4245 43.9067 2
67.4997 41.489 2
68.2577 48.1048 2
66.5934 45.419 2
70.1247 37.523 3.96746
67.7473 39.5094 3.97247
67.1153 43.4556 3.97096
65.3307 41.189 3.97676
65.9492 47.3922 3.96897
64.4043 44.8055 3.9756
72.4118 35.2249 0.0222645
71.8022 30.6772 0.023392
69.8352 33.271 0.0330471
68.9603 29.0413 0.034679
64.0165 10.9835 0
63.886 14.3304 0.0263725
63.5041 17.4568 0.0350273
67.604 24.915 0.0358558
66.0954 27.6605 0.0318402
64.6636 23.8613 0.0342373
62.8288 20.3558 0.0375583
61.92 23.0087 0.0316559
60.681 11.1016 0.0214189
57.6058 11.4733 0.030462
70.0532 35.3944 2
69.4616 31.1532 2
67.5657 33.6032 2
66.67 29.6456 2
62.3405 12.6638 2
62.1889 15.8016 2
61.7498 18.7218 2
65.4255 25.7291 2
63.9298 28.3083 2
61.0545 21.4123 2
62.6651 24.7008 2
60.1667 23.8247 2
59.2402 12.8096 2
56.3953 13.168 2
55.8708 10.2538 2
67.7861 35.5545 3.97199
67.1732 31.6393 3.97022
65.4871 33.9503 3.97694
64.4449 30.236 3.97599
63.3335 26.4722 3.97278
61.9368 28.858 3.97618
60.7682 14.2463 3.96719
60.764 25.4301 3.97485
60.5733 17.1652 3.96048
60.0718 19.8905 3.96209
59.4142 22.3605 3.96816
58.6518 24.4439 3.97453
54.034 9.14755 3.97322
57.8971 14.3774 3.96585
54.7759 12.067 3.96853
55.2936 14.7166 3.96597
67.4956 50.1744 0.0357056
57.0229 66.7339 0.0131292
60.666 63.9737 0.0199657
57.5528 63.6758 0.0285599
65.6929 54.1705 0.0356188
64.43 51.3539 0.0341113
60.7675 60.9182 0.031437
60.6263 58.1307 0.0393723
62.751 55.0395 0.0365878
60.2252 55.7346 0.0354039
55.0708 67.9296 2
59.2132 62.3397 2
55.8016 64.9004 2
56.3149 62.0453 2
65.2132 49.3779 2
63.6131 53.2612 2
62.221 50.5893 2
59.3174 59.5294 2
60.9307 54.2527 2
59.2024 56.9587 2
59.0942 55.1155 2
53.0407 68.9993 3.9896
53.9634 66.0051 3.97857
57.8678 60.8333 3.96886
54.6745 63.1781 3.97095
55.1937 60.5637 3.97345
62.9578 48.6026 3.97185
61.5548 52.5143 3.9683
59.9482 49.9277 3.97215
57.9693 58.2156 3.96116
59.1223 53.8693 3.96911
57.9505 55.7325 3.96292
50.1064 67.8525 3.98341
47.4606 66.5711 3.97931
46.0538 69.1537 3.98514
48.1005 68.5746 2
48.8004 70.7225 3.99036
50.9481 69.9305 2
51.8506 72.1454 4
54.0858 71.1327 2
56.25 69.9759 0
55.1007 7.14303 3.98561
58.3339 6.31992 4
57.0588 8.34215 2
60.3286 7.74926 2
58.9183 9.6594 0.0200498
62.2254 9.30607 0
68.2564 48.1055 0.0352435
69.4248 43.9072 0.0335795
66.5959 45.4196 0.029742
67.5014 41.4892 0.0279014
70.0366 39.6582 0.0326032
72.4873 37.5126 0.0226916
70.124 37.5232 2
67.7452 39.5093 2
67.1143 43.4553 2
65.3278 41.1884 2
65.949 47.3917 2
64.4024 44.8046 2
67.848 37.5241 3.9724
65.57 39.3615 3.97669
64.9446 42.9929 3.97676
63.4293 40.9013 3.97664
63.7148 46.6646 3.97391
62.4492 44.1506 3.97642
70.0534 35.3941 0.0325904
69.4619 31.1524 0.0339093
67.5674 33.6028 0.0286472
66.6717 29.6449 0.031001
62.3379 12.6589 0.0234762
62.1907 15.8008 0.0339738
61.7502 18.7217 0.0390895
65.4263 25.7282 0.0330382
63.9321 28.3071 0.0251885
62.6665 24.6997 0.0294113
61.0561 21.4113 0.0345572
60.1681 23.8236 0.0276129
59.2396 12.8095 0.0327045
56.3938 13.1708 0.0310639
55.8688 10.2557 0.0270732
67.7838 35.5548 2
67.1723 31.6398 2
65.4834 33.9511 2
64.4422 30.2371 2
60.7678 14.2471 2
60.5718 17.165 2
60.0702 19.8913 2
63.3317 26.4733 2
61.9345 28.8588 2
59.4157 22.3612 2
60.762 25.4313 2
58.6508 24.4452 2
57.8958 14.3776 2
55.2946 14.7138 2
54.0362 9.14758 2
54.7768 12.0624 2
65.6686 35.68 3.97678
64.9642 32.1885 3.97675
63.9946 34.2789 3.97667
62.2535 30.7012 3.97629
61.3473 27.1598 3.9758
60.4581 29.237 3.97636
59.2917 15.7077 3.9611
58.9671 25.9214 3.97621
59.0188 18.4263 3.96055
58.5173 20.9599 3.96361
57.9713 23.222 3.96965
57.6081 24.8066 3.97521
52.1094 8.1628 3.97694
53.049 11.0544 3.97001
56.6499 15.8056 3.96108
53.7893 13.7557 3.96483
54.3365 16.0845 3.96069
55.0686 67.9312 0.0119039
65.2138 49.3785 0.0327753
55.8011 64.9015 0.024663
59.2132 62.3375 0.0308162
56.3162 62.0452 0.0293014
63.6135 53.2614 0.035483
62.2213 50.5898 0.030378
59.3174 59.5267 0.0377736
59.1972 56.9572 0.0383237
60.9303 54.2527 0.0330668
59.0905 55.115 0.0323707
53.0426 68.9985 2
53.9644 66.0051 2
57.8663 60.8343 2
54.6741 63.1796 2
55.1907 60.5639 2
62.9564 48.6019 2
61.5548 52.5141 2
59.9494 49.9273 2
57.9661 58.2167 2
59.1262 53.8696 2
57.9471 55.731 2
52.0675 66.9946 3.98194
52.9478 64.2029 3.97544
56.623 59.4447 3.96621
53.663 61.5687 3.97001
54.2287 59.2684 3.97302
60.6237 47.7907 3.97348
59.4345 52.0169 3.97019
57.6149 49.4969 3.97368
56.6818 56.9204 3.96362
56.8638 54.0204 3.96676
50.107 67.8522 2
49.3342 65.9115 3.97922
47.461 66.571 2
46.8886 64.7206 3.97819
45.5562 67.0884 3.97979
43.9714 69.5857 3.98609
46.0545 69.1538 2
46.6068 71.367 3.99078
48.0998 68.5745 0.0157081
48.8019 70.7222 2
49.554 73.0099 4
50.9465 69.9313 0.0101055
51.8506 72.1455 2
54.0858 71.1327 0
53.063 6.07324 3.98872
55.1039 7.14452 2
56.25 5.02411 4
58.3339 6.3199 2
57.0556 8.33867 0.0179223
60.3285 7.74928 0
65.9492 47.3922 0.0310262
67.1153 43.4556 0.029045
64.4043 44.8055 0.0243968
65.3307 41.189 0.0232417
67.7473 39.5094 0.0275333
70.1247 37.523 0.032542
67.8462 37.5242 2
65.5666 39.3612 2
64.9414 42.9919 2
63.4282 40.901 2
63.7133 46.6638 2
62.4475 44.1499 2
65.6788 37.5045 3.97668
63.5787 39.2543 3.97671
62.9831 42.5065 3.97646
62.0272 40.6621 3.97659
61.5937 45.8401 3.97566
61.0051 43.6096 3.97622
67.7861 35.5545 0.028008
67.1732 31.6393 0.029783
65.4871 33.9503 0.0230579
64.4449 30.236 0.0240076
60.7682 14.2463 0.0328114
60.5733 17.1652 0.0395163
60.0718 19.8905 0.0379116
63.3335 26.4722 0.0272155
61.9368 28.858 0.0238197
60.764 25.4301 0.0251481
59.4142 22.3605 0.0318427
58.6518 24.4439 0.0254688
57.8971 14.3774 0.0341533
55.2936 14.7166 0.0340289
54.034 9.14755 0.0267758
54.7759 12.067 0.0314706
65.6651 35.6803 2
64.9608 32.1895 2
63.9929 34.2795 2
62.2517 30.7015 2
59.2902 15.7068 2
59.0272 18.4242 2
58.5172 20.9608 2
61.3456 27.1609 2
60.4574 29.2376 2
57.9641 23.2249 2
58.9662 25.9226 2
57.6139 24.8085 2
56.6481 15.8052 2
54.3407 16.0794 2
53.789 13.7449 2
52.1114 8.16258 2
53.0501 11.0529 2
63.7882 35.6497 3.97657
62.5771 33.0929 3.97636
60.1734 30.7036 3.97607
59.1584 28.0301 3.97612
57.8856 17.0477 3.95964
57.3241 25.8802 3.97609
57.5405 19.5789 3.96005
57.0724 21.9777 3.96394
56.7999 24.1034 3.97055
50.1105 7.29202 3.98222
51.2262 10.1468 3.97357
52.1548 12.8563 3.97084
55.4823 17.0568 3.95902
52.9434 15.3544 3.9634
53.6999 17.0822 3.95872
53.0407 68.9993 0.0104002
53.9634 66.0051 0.0214306
62.9578 48.6026 0.0281501
54.6745 63.1781 0.0290524
57.8678 60.8333 0.0311398
55.1937 60.5637 0.0265483
61.5548 52.5143 0.0317045
59.9482 49.9277 0.0278458
57.9693 58.2156 0.0388422
57.9505 55.7325 0.0370811
59.1223 53.8693 0.0308858
52.0683 66.9949 2
52.9473 64.2039 2
56.6206 59.4452 2
53.6612 61.5703 2
54.2259 59.269 2
60.6232 47.79 2
59.4355 52.0166 2
57.6134 49.4959 2
56.6784 56.9235 2
56.8607 54.019 2
51.1645 65.1165 3.97776
52.0333 62.5129 3.97188
55.4271 58.1943 3.96176
52.8 60.0619 3.96818
53.5939 58.4108 3.96629
57.7973 46.7191 3.97585
57.2206 51.6733 3.97045
55.7631 49.4128 3.97309
55.3285 55.7071 3.96478
55.0512 53.2676 3.9634
50.1064 67.8525 0.016591
49.3343 65.911 2
48.613 64.108 3.97843
47.4606 66.5711 0.0206872
45.5565 67.0888 2
46.8892 64.72 2
46.3751 63.0332 3.98241
45.1301 65.1812 3.97745
43.6298 67.4602 3.98166
41.8592 69.8729 3.9858
43.9719 69.5863 2
44.3742 71.8614 3.9911
46.0538 69.1537 0.0148559
46.6081 71.3667 2
47.2057 73.7222 4
48.8004 70.7225 0.00963598
49.554 73.0099 2
51.8506 72.1454 0
50.9538 5.1339 3.99044
53.0655 6.07421 2
54.0858 3.86728 4
55.1007 7.14303 0.01439
56.25 5.02406 2
58.3339 6.31992 0
63.7148 46.6646 0.0260899
64.9446 42.9929 0.0232439
62.4492 44.1506 0.0235847
63.4293 40.9013 0.0233616
65.57 39.3615 0.0233063
67.848 37.5241 0.0276021
65.6752 37.5045 2
63.5778 39.2543 2
62.9821 42.5062 2
62.0278 40.662 2
61.5924 45.8391 2
61.0043 43.6095 2
63.6427 37.4587 3.97662
61.7359 39.3349 3.97675
60.7503 41.8987 3.97658
59.7661 44.6667 3.97618
65.6686 35.68 0.0232174
64.9642 32.1885 0.0232538
63.9946 34.2789 0.0233321
62.2535 30.7012 0.0237102
59.2917 15.7077 0.0389042
59.0188 18.4263 0.0394544
58.5173 20.9599 0.0363921
61.3473 27.1598 0.0242037
60.4581 29.237 0.0236407
58.9671 25.9214 0.0237893
57.9713 23.222 0.0303546
57.6081 24.8066 0.0247946
56.6499 15.8056 0.0389185
54.3365 16.0845 0.0393148
53.7893 13.7557 0.035174
52.1094 8.1628 0.0230573
53.049 11.0544 0.0299873
63.7871 35.6497 2
62.577 33.0933 2
60.1738 30.7038 2
57.8841 17.0477 2
57.5557 19.5746 2
57.0683 21.9802 2
59.1573 28.031 2
56.8173 24.1045 2
57.3261 25.8834 2
50.1124 7.29001 2
55.4841 17.0543 2
53.7073 17.0722 2
52.9439 15.3445 2
52.1558 12.8609 2
51.2279 10.1443 2
61.7789 35.3834 3.97647
59.7946 32.8157 3.97616
58.0966 30.1954 3.9759
56.8057 27.5437 3.97652
56.5385 18.2467 3.96051
55.8504 25.2805 3.97516
56.1333 20.652 3.96091
55.7467 23.0341 3.96401
48.0558 6.53176 3.98637
49.3211 9.34554 3.97628
50.4204 12.0369 3.97295
51.3471 14.57 3.96481
54.3239 18.0274 3.95948
52.3111 17.1527 3.95895
52.0675 66.9946 0.0180572
52.9478 64.2029 0.024565
60.6237 47.7907 0.0265152
53.663 61.5687 0.0299945
56.623 59.4447 0.033791
54.2287 59.2684 0.0269758
59.4345 52.0169 0.0298107
57.6149 49.4969 0.026323
56.6818 56.9204 0.0363757
56.8638 54.0204 0.033244
51.1644 65.1169 2
52.0319 62.5142 2
55.4263 58.1949 2
52.7979 60.0655 2
53.5922 58.4131 2
57.7966 46.7182 2
57.2171 51.6721 2
55.757 49.4109 2
55.3261 55.7068 2
55.0519 53.2677 2
50.3386 63.3652 3.97954
51.2187 60.8815 3.97559
54.141 57.2007 3.96816
52.2448 58.5582 3.97087
56.0283 44.0367 3.97654
54.9156 47.7366 3.97475
54.6392 51.2508 3.96591
53.7954 54.444 3.96592
49.3342 65.9115 0.0207799
48.6131 64.1066 2
47.9512 62.4558 3.98085
45.5562 67.0884 0.0202065
46.8886 64.7206 0.0218065
43.63 67.4611 2
46.3755 63.0326 2
45.1307 65.1814 2
45.9769 61.5627 3.98947
44.7628 63.4308 3.97692
43.3557 65.4929 3.9783
41.6623 67.6788 3.98129
39.7015 70.0186 3.98524
41.8596 69.8733 2
42.1088 72.2059 3.99153
43.9714 69.5857 0.0139053
44.3752 71.8615 2
44.8159 74.2794 4
46.6068 71.367 0.00921859
47.2057 73.7222 2
49.554 73.0099 0
48.7851 4.32416 3.99143
50.9556 5.1336 2
51.8506 2.85458 4
53.063 6.07324 0.0112795
54.0858 3.86728 2
56.25 5.02411 0
61.5937 45.8401 0.0243364
62.9831 42.5065 0.0235418
61.0051 43.6096 0.0237833
62.0272 40.6621 0.0234052
63.5787 39.2543 0.0232885
65.6788 37.5045 0.0233158
63.6418 37.4586 2
61.7368 39.335 2
60.7514 41.8987 2
59.7661 44.666 2
61.5653 37.4449 3.97689
59.7072 39.8092 3.9768
58.3932 42.8259 3.97608
63.7882 35.6497 0.0234271
62.5771 33.0929 0.0236432
60.1734 30.7036 0.0239251
57.8856 17.0477 0.0403637
57.5405 19.5789 0.0399477
57.0724 21.9777 0.0360604
59.1584 28.0301 0.0238809
57.3241 25.8802 0.0239059
56.7999 24.1034 0.0294461
55.4823 17.0568 0.0409824
53.6999 17.0822 0.0412769
52.9434 15.3544 0.0366013
50.1105 7.29202 0.0177778
52.1548 12.8563 0.0291589
51.2262 10.1468 0.0264333
61.7798 35.3834 2
59.7949 32.8156 2
58.0977 30.1947 2
56.541 18.2453 2
56.1527 20.6459 2
55.7547 23.0391 2
56.8054 27.5451 2
55.8563 25.2858 2
48.0569 6.53069 2
49.3228 9.34378 2
54.3387 18.0251 2
52.3033 17.1432 2
51.3444 14.5705 2
50.4221 12.0373 2
59.3434 35.1547 3.97659
57.3701 32.3667 3.97565
55.9613 29.4975 3.9762
54.9075 26.8098 3.97566
55.2083 19.3019 3.96228
54.5248 24.2505 3.97157
54.724 21.719 3.96021
45.9625 5.88578 3.98816
43.3744 7.47917 3.98412
47.3538 8.63284 3.98115
48.5914 11.3206 3.97389
49.6867 13.793 3.9694
50.5871 16.2225 3.96249
53.0166 18.7932 3.96242
51.23 18.2029 3.96275
51.1645 65.1165 0.0222427
52.0333 62.5129 0.0281174
57.7973 46.7191 0.0241517
52.8 60.0619 0.031822
55.4271 58.1943 0.0382381
53.5939 58.4108 0.0337064
57.2206 51.6733 0.0295542
55.7631 49.4128 0.0269137
55.3285 55.7071 0.0352232
55.0512 53.2676 0.0365961
50.338 63.3641 2
51.2166 60.8803 2
54.1399 57.2021 2
52.2427 58.5602 2
56.0287 44.0363 2
54.9121 47.7351 2
54.6363 51.2495 2
53.7951 54.4459 2
49.5756 61.7267 3.97534
54.7747 41.6323 3.97406
50.5155 59.2716 3.97008
52.0604 56.4108 3.96827
53.4383 45.374 3.97414
52.7812 49.1653 3.96972
52.3365 52.7294 3.96036
48.613 64.108 0.021573
47.9505 62.4529 2
47.311 60.987 3.99262
43.6298 67.4602 0.0183419
45.1301 65.1812 0.0225485
46.3751 63.0332 0.0175906
41.6627 67.6783 2
43.3564 65.494 2
45.9756 61.5627 2
44.7634 63.4306 2
45.7454 60.6084 3.98943
44.4764 61.8055 3.97933
43.144 63.7062 3.97802
41.5454 65.6314 3.97686
39.6319 67.7559 3.98055
37.5259 70.0429 3.98419
39.7018 70.0188 2
39.8162 72.4024 3.99142
41.8592 69.8729 0.0141998
42.1096 72.2061 2
42.3947 74.6792 4
44.3742 71.8614 0.00889956
44.8159 74.2794 2
47.2057 73.7222 0
43.8519 5.36237 3.9875
46.5713 3.64859 3.99193
48.7861 4.32393 2
49.554 1.99015 4
50.9538 5.1339 0.00955705
51.8506 2.85453 2
54.0858 3.86728 0
59.7661 44.6667 0.0238155
60.7503 41.8987 0.023418
61.7359 39.3349 0.0232477
63.6427 37.4587 0.0233849
61.566 37.4448 2
59.7084 39.8089 2
58.3935 42.8258 2
59.1977 37.5656 3.97727
57.3204 40.5932 3.9772
54.1746 39.6459 3.97535
61.7789 35.3834 0.0235344
59.7946 32.8157 0.0238436
58.0966 30.1954 0.0240997
56.5385 18.2467 0.0394915
56.1333 20.652 0.0390939
55.7467 23.0341 0.0359873
56.8057 27.5437 0.0234816
55.8504 25.2805 0.0248412
54.3239 18.0274 0.040522
52.3111 17.1527 0.0410526
51.3471 14.57 0.0351949
48.0558 6.53176 0.0136253
49.3211 9.34554 0.0237154
50.4204 12.0369 0.0270487
59.3442 35.1542 2
45.9631 5.88416 2
43.3746 7.47718 2
57.3712 32.3671 2
55.9611 29.4969 2
55.1992 19.307 2
54.7555 21.7208 2
54.5239 24.2557 2
54.9052 26.812 2
47.3553 8.63022 2
48.5933 11.3198 2
53.0284 18.7685 2
51.2369 18.2003 2
50.5841 16.2217 2
49.686 13.7962 2
56.6954 34.8098 3.97714
55.0229 31.6491 3.97567
53.8789 28.6069 3.97698
53.2848 25.7269 3.97476
53.7989 20.2714 3.96071
53.2644 22.9088 3.95678
41.4001 7.08367 3.98361
45.36 7.99949 3.98665
42.8665 9.42521 3.97809
46.6635 10.6682 3.97873
47.7234 13.1335 3.97433
48.8918 15.4683 3.96916
49.9352 17.7876 3.95903
51.5301 19.4881 3.97202
50.3386 63.3652 0.0204649
51.2187 60.8815 0.0244138
56.0283 44.0367 0.0234613
54.9156 47.7366 0.0252458
52.2448 58.5582 0.0291283
54.141 57.2007 0.0318444
54.6392 51.2508 0.0340943
53.7954 54.444 0.0340835
49.5739 61.725 2
54.7643 41.6279 2
50.5132 59.2727 2
52.0629 56.4142 2
53.4337 45.3714 2
52.7789 49.1633 2
52.3384 52.7294 2
48.8145 60.1776 3.97742
51.5339 42.5 3.98329
49.7016 57.5678 3.96496
50.3743 54.3388 3.96214
51.1111 47.0798 3.97531
50.7773 50.8043 3.95499
47.2198 43.561 3.97432
47.9512 62.4558 0.0191472
47.3086 60.9843 2
46.5878 59.7794 3.99481
41.6623 67.6788 0.0187109
43.3557 65.4929 0.0216965
44.7628 63.4308 0.0230809
45.9769 61.5627 0.0105305
39.6326 67.7565 2
41.5461 65.6293 2
45.7449 60.6081 2
43.1441 63.705 2
44.4745 61.8071 2
44.6023 60.2634 3.9959
42.9447 62.058 3.97483
41.5993 63.8005 3.97696
39.6467 65.5954 3.9761
37.5632 67.7364 3.97862
31.6981 65.113 3.97596
33.3929 67.4747 3.97847
35.334 69.9533 3.98441
37.5258 70.0443 2
37.509 72.4567 3.99197
39.7015 70.0186 0.0147622
39.8167 72.4025 2
39.9526 74.9197 4
42.1088 72.2059 0.00846634
42.3947 74.6792 2
44.8159 74.2794 0
41.7367 4.97051 3.98814
43.8522 5.3608 2
44.3269 3.11154 3.99249
46.5719 3.64802 2
47.2057 1.27793 4
48.7851 4.32416 0.00856969
49.554 1.99013 2
51.8506 2.85458 0
58.3932 42.8259 0.023916
59.7072 39.8092 0.0231996
61.5653 37.4449 0.0231061
59.199 37.5663 2
57.3205 40.5948 2
54.1645 39.6533 2
56.0516 37.8758 3.97678
48.5604 41.2222 3.97169
52.124 39.284 3.98243
39.4438 6.80687 3.98449
59.3434 35.1547 0.0234101
57.3701 32.3667 0.0243549
55.9613 29.4975 0.0237994
55.2083 19.3019 0.0377183
54.724 21.719 0.0397938
54.5248 24.2505 0.0284345
54.9075 26.8098 0.0243385
53.0166 18.7932 0.0375768
51.23 18.2029 0.0372515
50.5871 16.2225 0.0375088
45.9625 5.88578 0.0118351
49.6867 13.793 0.0306
47.3538 8.63284 0.018848
48.5914 11.3206 0.0261054
43.3744 7.47917 0.015885
56.695 34.8105 2
41.4003 7.0836 2
45.3606 7.99701 2
42.8672 9.42342 2
55.0252 31.6476 2
53.8777 28.6083 2
53.8037 20.2882 2
53.2519 22.9104 2
53.2813 25.7275 2
46.6653 10.6637 2
47.7239 13.1308 2
51.5516 19.4888 2
49.934 17.7884 2
48.8854 15.4792 2
53.9957 34.0097 3.97487
52.7275 30.7029 3.97552
51.988 27.4587 3.97475
51.7711 24.3506 3.97866
52.1936 21.2328 3.9742
41.0135 9.05769 3.97753
44.726 10.0011 3.98523
42.4612 10.9093 4.00217
45.9859 12.7443 3.96999
47.6477 14.6439 3.96664
48.0435 17.0441 3.96594
49.7366 19.8809 3.97729
49.5756 61.7267 0.0246554
50.5155 59.2716 0.0299237
54.7747 41.6323 0.0259386
53.4383 45.374 0.0258643
52.7812 49.1653 0.0302819
52.0604 56.4108 0.0317324
52.3365 52.7294 0.0396436
48.8112 60.1753 2
51.5466 42.5122 2
49.6994 57.568 2
50.3747 54.3407 2
51.1133 47.078 2
50.7803 50.8041 2
47.2311 43.5942 2
47.9289 58.6956 3.98487
49.2074 45.1011 3.98089
48.4563 55.8543 3.95945
48.8304 52.491 3.97633
49.1364 48.8823 3.97031
44.958 39.7818 3.85146
45.453 42.4824 3.89108
45.7248 45.5589 3.98313
42.7896 41.0026 3.66812
41.5381 41.7835 3.46882
47.311 60.987 0.00738091
46.5858 59.7734 2
45.4253 58.7758 3.99444
39.6319 67.7559 0.0194547
41.5454 65.6314 0.023145
43.144 63.7062 0.0219827
44.4764 61.8055 0.0206712
45.7454 60.6084 0.0105656
41.5994 63.7988 2
37.5636 67.738 2
39.6476 65.5961 2
44.6025 60.2647 2
42.9426 62.0579 2
41.748 62.4646 3.97673
42.4645 59.9515 3.98165
39.894 63.5319 3.97592
37.6417 65.4911 3.97543
35.4637 67.646 3.97848
33.576 65.3245 3.9746
31.9605 63.2744 3.97656
29.8861 64.7033 3.97982
31.6976 65.1131 2
31.378 67.1856 3.97906
33.3926 67.4753 2
33.1577 69.7471 3.98441
35.3335 69.9547 2
35.1958 72.3713 3.992
37.5259 70.0429 0.0158081
37.5092 72.4573 2
37.5 75 4
39.8162 72.4024 0.00858004
39.9526 74.9197 2
42.3947 74.6792 0
39.6247 4.71825 3.98923
41.7369 4.97017 2
42.0634 2.71856 3.99291
43.8519 5.36237 0.0124968
44.327 3.11071 2
44.8158 0.721173 4
46.5713 3.64859 0.00807215
47.2057 1.27779 2
49.554 1.99015 0
57.3204 40.5932 0.022801
59.1977 37.5656 0.0227321
54.1746 39.6459 0.0246514
48.5835 41.2301 2
56.0522 37.8728 2
52.1183 39.2483 2
52.9833 36.6149 3.97791
46.4906 40.2998 3.89559
49.503 38.5055 3.98403
37.5178 6.67659 3.98538
39.4445 6.80518 2
39.2114 8.69903 3.98198
35.9438 8.49726 3.98365
56.6954 34.8098 0.0228557
55.0229 31.6491 0.0243309
53.8789 28.6069 0.0230176
53.7989 20.2714 0.0392941
53.2644 22.9088 0.0432228
53.2848 25.7269 0.0252364
51.5301 19.4881 0.0279843
49.9352 17.7876 0.0409711
48.8918 15.4683 0.0308422
45.36 7.99949 0.0133507
47.7234 13.1335 0.0256663
46.6635 10.6682 0.0212652
41.4001 7.08367 0.0163915
42.8665 9.42521 0.0219119
53.9949 34.0076 2
41.0149 9.0596 2
44.7268 9.99818 2
42.4626 10.91 2
52.7216 30.7006 2
51.9951 27.4604 2
52.192 21.2415 2
51.7601 24.3557 2
45.9866 12.7376 2
47.6404 14.6129 2
49.7555 19.8658 2
48.0392 17.0515 2
51.4973 32.925 3.98231
50.5588 29.4196 3.97744
50.2886 25.9584 3.97034
49.7565 22.477 3.98547
40.5641 11.62 3.98359
43.8419 11.915 3.97845
45.7644 15.4863 3.98878
47.4412 19.4917 3.97879
45.4189 37.483 3.84908
48.8145 60.1776 0.0225779
49.7016 57.5678 0.0350398
51.5339 42.5 0.0167093
51.1111 47.0798 0.0246949
50.7773 50.8043 0.0450106
50.3743 54.3388 0.0378626
47.2198 43.561 0.0256829
47.9261 58.7005 2
49.2236 45.1163 2
48.4522 55.8568 2
48.8303 52.4946 2
49.1394 48.8841 2
45.0502 39.8067 2
45.4813 42.5032 2
45.7318 45.5762 2
42.8414 41.0545 2
41.5757 41.8086 2
46.7542 57.3017 3.97939
43.5102 39.3493 3.66739
41.9138 40.7182 3.48093
47.3974 47.1309 3.98395
46.9721 54.1612 3.96006
47.2071 50.6346 3.97815
44.2643 47.186 3.98299
44.1019 41.8209 3.85016
44.2182 44.293 3.88774
41.8324 42.4159 3.71081
40.5673 42.0759 3.44948
46.5878 59.7794 0.00519419
45.4257 58.7739 2
43.8329 57.6594 3.98258
37.5632 67.7364 0.0213765
39.6467 65.5954 0.0239049
41.5993 63.8005 0.0230439
42.9447 62.058 0.0251695
44.6023 60.2634 0.00409729
35.4637 67.6479 2
41.7466 62.4678 2
39.8934 63.5321 2
37.6422 65.4928 2
42.4667 59.9485 2
40.6184 61.6065 3.98115
40.4282 58.128 3.98352
37.8371 63.1873 3.97277
35.5729 65.4136 3.97635
33.576 65.3249 2
31.9615 63.277 2
33.6292 63.3155 3.97478
30.3804 62.8366 3.98067
32.129 61.9773 3.98742
26.8817 61.4577 3.97956
28.067 64.1329 3.97908
29.885 64.7044 2
29.408 66.7485 3.97949
31.6981 65.113 0.0240435
31.3777 67.1858 2
31.0155 69.4127 3.98442
33.3929 67.4747 0.0215284
33.157 69.7478 2
32.8939 72.1457 3.99138
35.334 69.9533 0.0155898
35.1953 72.372 2
35.0474 74.9194 4
37.509 72.4567 0.00803074
37.5 75 2
39.9526 74.9197 0
35.6223 6.72813 3.98462
37.5245 4.61727 3.98954
39.6249 4.71672 2
39.7899 2.47527 3.993
41.7367 4.97051 0.0118597
42.0633 2.71824 2
42.3946 0.32156 4
44.3269 3.11154 0.00751242
44.8159 0.72056 2
47.2057 1.27793 0
48.5604 41.2222 0.0283147
56.0516 37.8758 0.0232168
52.124 39.284 0.0175704
46.5107 40.3057 2
49.5016 38.505 2
52.9832 36.6413 2
50.3081 35.5629 3.97398
47.1523 37.7594 3.90334
44.9827 35.188 3.85054
42.8355 33.9523 3.66634
41.574 33.1766 3.46747
37.4592 8.53717 3.98474
37.5184 6.67604 2
39.4438 6.80687 0.0155136
39.2134 8.69674 2
38.9761 10.1355 3.98479
35.9002 9.77996 3.97996
34.1538 8.8293 3.98168
35.9449 8.49468 2
53.9957 34.0097 0.0251346
52.7275 30.7029 0.0244843
51.988 27.4587 0.0252454
52.1936 21.2328 0.0257981
51.7711 24.3506 0.0213403
49.7366 19.8809 0.0227125
48.0435 17.0441 0.0340628
47.6477 14.6439 0.0333611
44.726 10.0011 0.0147702
45.9859 12.7443 0.0300129
41.0135 9.05769 0.0224734
42.4612 10.9093 -0.00217041
51.5091 32.9212 2
40.5665 11.6243 2
43.8413 11.9098 2
50.5767 29.4192 2
50.2838 25.9629 2
49.744 22.4694 2
45.7534 15.4336 2
47.4437 19.522 2
49.0835 31.5502 3.98626
48.6601 27.7276 3.97655
49.0373 24.6047 3.98018
47.0719 22.2595 3.98989
38.2993 12.7508 3.9768
42.0821 14.3221 3.97915
44.7538 18.6128 3.97489
43.9341 37.4856 3.68018
45.5164 37.4875 2
47.9289 58.6956 0.0151301
48.4563 55.8543 0.0405529
49.2074 45.1011 0.0191051
49.1364 48.8823 0.0296924
48.8304 52.491 0.0236706
44.958 39.7818 0.148536
45.453 42.4824 0.108918
45.7248 45.5589 0.0168687
42.7896 41.0026 0.331876
41.5381 41.7835 0.531179
46.7511 57.3073 2
43.5801 39.3758 2
41.9211 40.7319 2
47.4048 47.1263 2
46.9672 54.165 2
47.2078 50.6418 2
44.2997 47.1817 2
44.1597 41.8536 2
44.273 44.3229 2
41.8904 42.4717 2
40.5999 42.0907 2
45.2857 55.8822 3.99982
42.2583 39.1992 3.49136
40.4561 40.5975 3.59509
45.6173 48.7728 4.00213
45.2598 52.4238 3.98486
43.017 48.1811 3.99434
42.909 45.8232 3.88111
42.9984 43.5844 3.83196
40.6824 43.4119 3.68832
39.1675 42.3333 3.49849
45.4253 58.7758 0.00555504
43.831 57.6673 2
42.0562 56.2422 3.98752
35.4637 67.646 0.0215216
37.6417 65.4911 0.024574
39.894 63.5319 0.0240752
41.748 62.4646 0.0232735
42.4645 59.9515 0.0183466
35.5735 65.4161 2
40.6186 61.6055 2
37.8374 63.1873 2
40.4285 58.1319 2
38.9059 56.3869 3.99346
38.2465 60.2886 3.98067
35.607 63.1815 3.97263
33.576 65.3245 0.0253953
31.9605 63.2744 0.023435
33.6305 63.3165 2
30.381 62.8387 2
32.1304 61.9793 2
28.6882 62.1749 3.98017
33.3481 61.4826 3.97884
31.0787 61.2016 3.98215
27.5952 59.5507 3.98034
23.8307 59.0293 3.99312
25.0518 60.8262 3.97679
26.8825 61.4582 2
26.2363 63.4621 3.97614
28.0661 64.1311 2
27.4652 66.1726 3.97928
29.8861 64.7033 0.02018
29.4073 66.7486 2
28.9082 68.938 3.98359
31.378 67.1856 0.0209378
31.0147 69.4127 2
30.6168 71.7773 3.99087
33.1577 69.7471 0.0155851
32.893 72.1461 2
32.6054 74.6784 4
35.1958 72.3713 0.00799716
35.0474 74.9197 2
37.5 75 0
33.7254 6.98432 3.98331
35.4366 4.68744 3.98915
35.6228 6.72679 2
37.5157 2.38763 3.9931
37.5247 4.61663 2
39.6247 4.71825 0.0107735
39.7897 2.47444 2
39.9526 0.0806499 4
42.0634 2.71856 0.00709448
42.3947 0.320817 2
44.8158 0.721173 0
43.5281 35.6206 3.67149
41.937 34.2372 3.46878
46.4906 40.2998 0.104414
49.503 38.5055 0.0159715
52.9833 36.6149 0.0220928
47.1472 37.7372 2
50.3188 35.5598 2
45.0615 35.1677 2
42.8782 33.9048 2
41.6021 33.1508 2
47.354 34.3531 3.94241
44.157 33.1443 3.83557
41.8847 32.5467 3.70966
40.5975 32.8941 3.44846
37.312 10.6342 3.98157
37.4608 8.53695 2
37.5178 6.67659 0.014619
39.2114 8.69903 0.0180218
38.9797 10.1334 2
34.7568 10.3896 3.98018
35.9024 9.77477 2
32.3807 9.37539 3.97803
34.1532 8.82485 2
35.9438 8.49726 0.0163454
51.4973 32.925 0.017687
50.5588 29.4196 0.0225617
50.2886 25.9584 0.0296616
49.7565 22.477 0.0145267
47.4412 19.4917 0.021206
45.7644 15.4863 0.0112236
43.8419 11.915 0.0215469
40.5641 11.62 0.016412
49.104 31.5368 2
38.3007 12.7461 2
42.0881 14.3346 2
48.6618 27.7297 2
49.0297 24.6076 2
47.0565 22.259 2
44.757 18.6784 2
47.0021 29.7197 3.98371
46.7199 25.3252 3.97172
44.207 21.6179 3.97988
36.5861 12.9644 3.97423
38.6778 14.8673 3.97448
41.723 17.9513 3.97895
42.4228 37.4667 3.52814
43.9941 37.487 2
45.4189 37.483 0.150925
46.7542 57.3017 0.0206142
46.9721 54.1612 0.0399434
47.3974 47.1309 0.0160479
47.2071 50.6346 0.0218496
43.5102 39.3493 0.332609
44.1019 41.8209 0.149845
44.2182 44.293 0.112259
44.2643 47.186 0.0170145
41.8324 42.4159 0.289189
41.9138 40.7182 0.519066
40.5673 42.0759 0.550518
45.2824 55.8847 2
42.262 39.2062 2
40.4921 40.5835 2
45.6169 48.7905 2
45.2548 52.4263 2
43.0538 48.1968 2
42.9672 45.8722 2
43.0527 43.616 2
40.7286 43.48 2
39.1652 42.3495 2
43.6089 54.3406 3.99477
40.5583 39.0453 3.61499
39.0633 40.6731 3.56399
43.342 50.2683 4.00397
41.6572 47.3285 3.92524
41.5694 44.9169 3.84342
39.3433 44.0635 3.65503
37.5 42.4497 3.54146
43.8329 57.6594 0.0174161
42.0599 56.2346 2
40.37 54.8013 3.99496
35.5729 65.4136 0.0236493
37.8371 63.1873 0.027225
40.6184 61.6065 0.018848
40.4282 58.128 0.016484
35.6078 63.1801 2
38.2455 60.29 2
38.9082 56.3711 2
37.9808 55.0642 3.99491
36.9288 57.574 3.99155
35.3642 60.8821 3.97908
33.6292 63.3155 0.0252152
30.3804 62.8366 0.0193278
32.129 61.9773 0.0125757
33.3491 61.4828 2
28.6889 62.178 2
31.08 61.2058 2
29.4226 60.2569 3.97666
32.3693 59.7002 3.99493
28.0669 58.3369 4.01311
27.5971 59.5503 2
25.4191 58.5491 3.98026
22.8178 58.1843 3.96761
23.422 60.2938 3.97763
23.8327 59.0295 2
25.053 60.8253 2
24.4423 62.7435 3.97683
26.8817 61.4577 0.020445
26.2366 63.462 2
25.5503 65.4809 3.97798
28.067 64.1329 0.0209153
27.4646 66.1727 2
26.838 68.3262 3.98354
29.408 66.7485 0.0205123
28.9072 68.9377 2
28.3721 71.2626 3.99012
31.0155 69.4127 0.0155817
30.6157 71.7771 2
30.1842 74.2788 4
32.8939 72.1457 0.00861934
32.6053 74.6792 2
35.0474 74.9194 0
31.7898 7.42354 3.98195
33.3492 4.92726 3.98812
33.7252 6.98168 2
35.2461 2.46354 3.99314
35.4366 4.68674 2
35.6223 6.72813 0.015381
37.5 0 4
37.5151 2.38724 2
37.5245 4.61727 0.0104634
39.7899 2.47527 0.00700305
39.9526 0.0802889 2
42.3946 0.32156 0
42.2529 35.7321 3.47698
43.6081 35.59 2
40.4978 34.3613 3.59536
41.9364 34.2197 2
47.1523 37.7594 0.0966564
50.3081 35.5629 0.0260163
44.9827 35.188 0.149463
42.8355 33.9523 0.333661
41.574 33.1766 0.532528
47.3829 34.3712 2
44.1996 33.1106 2
41.9372 32.4884 2
40.6268 32.8787 2
45.469 31.7684 3.90228
43.0472 31.3793 3.82547
40.7255 31.5551 3.68808
39.1884 32.6536 3.49371
35.6962 11.7874 3.97609
37.3161 10.6328 2
37.4592 8.53717 0.0152601
38.9761 10.1355 0.0152099
33.1017 11.2276 3.97293
34.7562 10.3818 2
35.9002 9.77996 0.0200352
30.4863 10.0273 3.97729
32.3802 9.37417 2
34.1538 8.8293 0.0183244
49.0835 31.5502 0.0137433
48.6601 27.7276 0.0234547
49.0373 24.6047 0.0198247
47.0719 22.2595 0.0101092
44.7538 18.6128 0.0251089
42.0821 14.3221 0.020851
38.2993 12.7508 0.023202
36.583 12.9434 2
47.0095 29.6658 2
38.6764 14.8454 2
41.7149 17.953 2
46.7202 25.3261 2
44.1913 21.5927 2
44.9778 27.8606 3.99803
43.5679 24.2583 4.02683
41.2824 20.9654 3.9889
35.7712 14.8045 3.97806
38.6631 17.6809 3.98331
40.6151 37.4498 3.63135
42.4344 37.4711 2
43.9341 37.4856 0.319824
45.2857 55.8822 0.00017833
45.2598 52.4238 0.015141
45.6173 48.7728 -0.00213304
42.2583 39.1992 0.508643
42.9984 43.5844 0.168041
42.909 45.8232 0.118888
43.017 48.1811 0.00566332
40.6824 43.4119 0.311682
40.4561 40.5975 0.404914
39.1675 42.3333 0.50151
43.6064 54.3376 2
40.5685 39.0454 2
39.0631 40.6682 2
43.3337 50.2811 2
41.662 47.3649 2
41.5889 44.9625 2
37.4952 42.4711 2
39.3584 44.13 2
41.7599 52.8091 3.99982
39.073 39.0833 3.57219
37.5033 40.7283 3.59743
35.8399 42.3426 3.49634
40.7967 49.4095 3.99419
39.7139 45.6506 3.81172
37.4989 44.3301 3.68884
42.0562 56.2422 0.0124782
40.3687 54.8099 2
38.7218 53.6086 3.99659
35.607 63.1815 0.0273742
38.2465 60.2886 0.0193272
38.9059 56.3869 0.00654315
35.3642 60.8758 2
36.9299 57.5792 2
37.9813 55.0631 2
36.3177 55.144 3.99745
34.4952 58.4839 3.99383
33.3481 61.4826 0.0211592
28.6882 62.1749 0.0198344
31.0787 61.2016 0.0178475
32.3696 59.7028 2
29.424 60.2558 2
30.3382 57.779 3.98535
28.07 58.3357 2
27.0353 56.7855 3.96866
27.5952 59.5507 0.019661
25.4218 58.5486 2
23.9452 56.7406 3.95917
21.434 57.3265 3.95861
22.0242 59.5662 3.97901
22.8194 58.1861 2
22.7491 61.988 3.97308
23.4231 60.2934 2
23.8307 59.0293 0.00687742
25.0518 60.8262 0.0232094
24.443 62.7466 2
23.6862 64.6965 3.97531
26.2363 63.4621 0.0238617
25.5497 65.4823 2
24.8105 67.5873 3.98236
27.4652 66.1726 0.0207206
26.8369 68.3271 2
26.1674 70.6034 3.98994
28.9082 68.938 0.0164093
28.3708 71.2623 2
27.7943 73.7221 4
30.6168 71.7773 0.00913167
30.1841 74.2794 2
32.6054 74.6784 0
29.8127 7.99954 3.98004
31.2546 5.33387 3.98719
31.7894 7.42209 2
32.9822 2.70177 3.99273
33.3488 4.92569 2
33.7254 6.98432 0.0166912
35.0474 0.080333 4
35.2455 2.46328 2
35.4366 4.68744 0.0108532
37.5 0 2
37.5157 2.38763 0.00689852
39.9526 0.0806499 0
40.6075 35.8799 3.61907
42.2593 35.7329 2
43.5281 35.6206 0.328505
28.5466 10.702 3.9773
39.0761 34.3125 3.56107
40.5083 34.3696 2
41.937 34.2372 0.53122
47.354 34.3531 0.057591
44.157 33.1443 0.164432
41.8847 32.5467 0.29034
40.5975 32.8941 0.551539
45.5039 31.7522 2
43.0936 31.3439 2
40.7704 31.4868 2
39.1917 32.6371 2
43.8486 29.9937 3.89492
41.5905 30.0421 3.84451
39.3732 30.912 3.65358
37.5313 32.5455 3.53921
34.099 12.9518 3.97446
35.6962 11.7741 2
37.312 10.6342 0.0184333
31.1919 11.9995 3.97758
33.1023 11.2268 2
34.7568 10.3896 0.0198163
30.4845 10.0226 2
32.3807 9.37539 0.0219656
47.0021 29.7197 0.0162947
46.7199 25.3252 0.0282831
36.5861 12.9644 0.0257716
44.207 21.6179 0.0201176
41.723 17.9513 0.0210451
38.6778 14.8673 0.0255229
35.7739 14.8126 2
44.9728 27.8579 2
38.662 17.6858 2
41.2645 20.9554 2
43.555 24.2409 2
33.6153 15.9089 3.98611
42.7288 26.6954 3.98556
40.7783 23.5651 3.99466
38.3894 20.4573 3.99319
35.8442 17.5743 3.9823
39.0928 37.4876 3.58455
40.6179 37.4539 2
42.4228 37.4667 0.471865
43.6089 54.3406 0.00523345
43.342 50.2683 -0.00396708
40.5583 39.0453 0.385006
41.5694 44.9169 0.156577
41.6572 47.3285 0.0747607
39.3433 44.0635 0.344967
39.0633 40.6731 0.436011
37.5 42.4497 0.458543
41.7517 52.8099 2
39.0659 39.0704 2
37.4998 40.7185 2
40.7785 49.4273 2
35.8382 42.3578 2
39.7316 45.7095 2
37.4921 44.3937 2
39.7189 51.6036 4.0029
37.5081 39.086 3.61085
35.9511 40.6878 3.56491
34.4341 42.0922 3.45089
35.6543 44.0806 3.64428
38.6591 48.3006 3.93652
37.5293 45.9422 3.84434
40.37 54.8013 0.00503657
38.7212 53.6017 2
36.7604 52.9233 3.9965
35.3642 60.8821 0.0209175
36.9288 57.574 0.00845177
37.9808 55.0642 0.00509409
34.4939 58.4807 2
36.3211 55.1326 2
33.2706 55.3447 3.99307
32.3693 59.7002 0.00507053
29.4226 60.2569 0.02334
30.3405 57.7746 2
28.83 55.2853 3.98843
28.0669 58.3369 -0.0131108
27.0388 56.7844 2
25.475 55.0704 3.95657
21.9872 55.2571 3.95989
25.4191 58.5491 0.0197401
23.9474 56.7423 2
20.3063 56.9586 3.96278
20.6851 58.7224 3.96571
21.4362 57.3281 2
21.1844 61.1171 3.97327
22.0252 59.5675 2
22.8178 58.1843 0.0323917
21.9018 63.8171 3.97486
22.7503 61.9895 2
23.422 60.2938 0.0223657
24.4423 62.7435 0.0231692
23.6856 64.6961 2
22.8391 66.7295 3.97948
25.5503 65.4809 0.0220231
24.8092 67.5877 2
24.0116 69.805 3.98983
26.838 68.3262 0.0164605
26.1656 70.6034 2
25.446 73.0099 4
28.3721 71.2626 0.00987862
27.7943 73.7222 2
30.1842 74.2788 0
27.8225 8.65941 3.98025
29.1568 5.8807 3.98539
29.8115 7.99604 2
30.7277 3.09854 3.99247
31.254 5.33246 2
31.7898 7.42354 0.0180518
32.6053 0.320823 4
32.9812 2.7012 2
33.3492 4.92726 0.0118787
35.0474 0.0802903 2
35.2461 2.46354 0.00685523
37.5 0 0
39.0578 35.9007 3.58217
40.5894 35.8793 2
42.2529 35.7321 0.523018
28.5449 10.6991 2
26.6253 11.3989 3.97787
29.2328 12.6512 3.98133
37.5252 34.2728 3.59665
39.0926 34.3289 2
40.4978 34.3613 0.404637
45.469 31.7684 0.097716
43.0472 31.3793 0.17453
40.7255 31.5551 0.311917
39.1884 32.6536 0.506286
43.8794 29.9601 2
41.6183 29.9995 2
39.3822 30.8466 2
37.533 32.5228 2
42.0154 28.6832 3.86453
39.7168 29.3144 3.83447
37.5265 30.6663 3.69202
35.8604 32.6549 3.50073
31.9276 14.499 3.98034
34.0997 12.9575 2
35.6962 11.7874 0.0239098
31.1903 11.9922 2
33.1017 11.2276 0.0270687
30.4863 10.0273 0.0227134
44.9778 27.8606 0.0019685
43.5679 24.2583 -0.0268336
35.7712 14.8045 0.0219361
41.2824 20.9654 0.0110971
38.6631 17.6809 0.0166894
33.6098 15.8964 2
35.8398 17.5693 2
42.7658 26.6747 2
38.3718 20.5165 2
40.7722 23.5439 2
33.5511 17.4511 3.98135
40.2078 25.9886 3.9555
38.0314 23.3105 3.99811
35.5612 20.2166 3.9974
37.5146 37.4888 3.62639
39.0805 37.4796 2
40.6151 37.4498 0.368649
41.7599 52.8091 0.000177213
40.7967 49.4095 0.00581031
39.073 39.0833 0.427809
39.7139 45.6506 0.188284
37.4989 44.3301 0.311163
37.5033 40.7283 0.402569
35.8399 42.3426 0.503662
39.7004 51.6089 2
37.5098 39.0823 2
35.9486 40.6769 2
38.6774 48.36 2
34.4064 42.1072 2
35.6334 44.1436 2
37.5233 46.002 2
37.6812 50.6039 3.99495
35.9613 39.0943 3.58147
34.5525 40.6227 3.59811
33.4576 41.8023 3.47159
34.3233 43.4246 3.68286
35.25 45.6726 3.83026
36.9226 47.9083 3.90151
38.7218 53.6086 0.00340683
36.7614 52.8983 2
34.4563 52.2499 3.99886
34.4952 58.4839 0.00616754
36.3177 55.144 0.00254766
33.2767 55.3541 2
30.6704 53.2541 3.99333
30.3382 57.779 0.0146469
28.8323 55.2803 2
27.1129 53.3595 3.95699
27.0353 56.7855 0.0313369
25.4787 55.0722 2
23.8388 53.3713 3.95465
20.7914 53.0975 3.95823
20.0826 55.7466 3.96167
21.9863 55.2591 2
23.9452 56.7406 0.0408324
19.4951 57.8277 3.96291
20.3032 56.9609 2
19.7263 60.1466 3.97467
20.6837 58.7242 2
21.434 57.3265 0.0413925
20.2168 62.8267 3.97146
21.1852 61.1188 2
22.0242 59.5662 0.0209876
20.9411 65.7552 3.97665
21.9017 63.8205 2
22.7491 61.988 0.0269239
23.6862 64.6965 0.0246879
22.8378 66.7292 2
21.9144 68.8721 3.98903
24.8105 67.5873 0.0176415
24.0094 69.8042 2
23.1494 72.1454 4
26.1674 70.6034 0.0100644
25.446 73.0099 2
27.7943 73.7221 0
25.8618 9.38875 3.97925
27.0715 6.5451 3.98398
27.8207 8.65727 2
28.4902 3.64449 3.99161
29.1558 5.87853 2
29.8127 7.99954 0.0199567
30.1841 0.720592 4
30.7263 3.09817 2
31.2546 5.33387 0.0128127
32.6053 0.320817 2
32.9822 2.70177 0.00727258
35.0474 0.080333 0
37.5112 35.8975 3.60613
39.0421 35.8947 2
40.6075 35.8799 0.380932
24.7827 12.0876 3.97612
23.7659 14.3912 3.97628
28.5466 10.702 0.0227019
26.6237 11.3959 2
29.2303 12.6492 2
27.3004 13.3843 3.97848
29.7946 14.2112 3.98211
35.9597 34.3137 3.56535
37.5329 34.2808 2
39.0761 34.3125 0.438931
37.5313 32.5455 0.460786
43.8486 29.9937 0.105078
41.5905 30.0421 0.155487
39.3732 30.912 0.346421
42.0476 28.6231 2
39.7417 29.259 2
37.529 30.6028 2
35.8609 32.6405 2
39.8811 27.9496 3.87906
37.4879 29.0453 3.83545
35.6851 30.9283 3.65622
34.4552 32.9063 3.45284
30.9429 16.8553 3.98943
31.9232 14.4865 2
34.099 12.9518 0.025544
31.1919 11.9995 0.0224161
42.7288 26.6954 0.0144436
40.7783 23.5651 0.0053391
33.6153 15.9089 0.0138931
35.8442 17.5743 0.0176964
38.3894 20.4573 0.00681391
33.5448 17.4662 2
35.5699 20.2125 2
40.2806 25.9705 2
38.0166 23.2696 2
32.8875 19.8483 3.99749
37.6587 25.6267 3.9669
35.2457 22.9616 4.00438
35.9404 37.4859 3.58696
37.5067 37.4883 2
39.0928 37.4876 0.415449
39.7189 51.6036 -0.00290033
38.6591 48.3006 0.063484
37.5081 39.086 0.389149
37.5293 45.9422 0.15566
35.6543 44.0806 0.35572
35.9511 40.6878 0.435095
34.4341 42.0922 0.549111
37.6627 50.6408 2
35.98 39.0822 2
34.5173 40.6165 2
36.9076 47.97 2
33.4222 41.8292 2
34.278 43.49 2
35.2288 45.7263 2
35.5664 49.7943 3.98576
34.4467 39.0876 3.6173
33.0913 40.7431 3.47442
33.159 42.4311 3.71493
33.4612 44.924 3.83379
34.4815 47.0576 3.8736
36.7604 52.9233 0.00349984
34.4479 52.2608 2
32.2428 51.0521 4.01022
33.2706 55.3447 0.00692808
30.675 53.257 2
28.7114 51.4659 3.98317
28.83 55.2853 0.0115661
27.1151 53.3582 2
25.4151 51.6064 3.95317
25.475 55.0704 0.0434307
23.8399 53.3766 2
22.3583 51.6608 3.95171
19.6459 51.4884 3.96129
19.1781 54.2008 3.96116
20.7934 53.0963 2
18.5565 56.6494 3.9632
20.0804 55.7484 2
21.9872 55.2571 0.0401064
18.3965 59.0587 3.96559
19.4925 57.8296 2
20.3063 56.9586 0.0372217
18.6314 61.7169 3.97181
19.7265 60.1491 2
20.6851 58.7224 0.0342903
19.1304 64.6657 3.97573
20.2171 62.8304 2
21.1844 61.1171 0.0267271
19.8886 67.8083 3.98669
20.9398 65.7541 2
21.9018 63.8171 0.0251381
22.8391 66.7295 0.0205231
21.9117 68.8706 2
20.9142 71.1327 4
24.0116 69.805 0.0101745
23.1494 72.1455 2
25.446 73.0099 0
23.1054 12.8084 3.97724
23.975 10.1781 3.9768
25.0251 7.31613 3.9826
25.8596 9.38683 2
26.282 4.32859 3.9907
27.0701 6.54379 2
27.8225 8.65941 0.019746
27.7943 1.27781 4
28.4881 3.64422 2
29.1568 5.8807 0.014612
30.1841 0.720551 2
30.7277 3.09854 0.00753082
32.6053 0.320823 0
35.9467 35.8873 3.57171
37.5305 35.9061 2
39.0578 35.9007 0.417832
24.7794 12.0831 2
23.7662 14.3959 2
22.4995 15.0813 3.97878
25.3691 13.9339 3.9718
24.0534 15.6508 3.98603
26.6253 11.3989 0.0221301
29.2328 12.6512 0.0186667
27.3003 13.3828 2
29.7887 14.2086 2
28.3795 15.9796 3.98455
34.571 34.3813 3.5939
35.9574 34.3179 2
37.5252 34.2728 0.403348
35.8604 32.6549 0.499267
37.5265 30.6663 0.307983
42.0154 28.6832 0.13547
39.7168 29.3144 0.165527
39.9104 27.9075 2
37.4842 28.9876 2
35.6707 30.8579 2
34.4223 32.8937 2
37.6282 27.6788 3.8731
35.3044 29.3298 3.83218
34.3306 31.5714 3.6853
33.4772 33.1932 3.46913
30.2337 19.4386 3.98284
30.9365 16.8427 2
31.9276 14.499 0.0196625
40.2078 25.9886 0.0444957
38.0314 23.3105 0.0018945
33.5511 17.4511 0.0186498
35.5612 20.2166 0.0026004
32.8888 19.8749 2
35.2452 22.9496 2
37.7148 25.6051 2
32.4352 22.5832 3.99715
35.1269 25.5402 3.99038
34.4037 37.5065 3.63489
35.941 37.4949 2
37.5146 37.4888 0.373609
37.6812 50.6039 0.00505432
36.9226 47.9083 0.0984867
35.9613 39.0943 0.41853
35.25 45.6726 0.169744
34.3233 43.4246 0.317143
34.5525 40.6227 0.401886
33.4576 41.8023 0.528414
35.5461 49.8075 2
34.4428 39.0852 2
33.0857 40.7565 2
34.4589 47.1113 2
33.1162 42.4888 2
33.435 44.9693 2
33.4184 48.8843 3.97394
32.7631 39.2391 3.48115
32.1917 41.0261 3.6686
31.9917 43.5986 3.83076
32.6581 46.0451 3.87548
34.4563 52.2499 0.00114017
32.2489 51.0602 2
30.2482 49.619 4.00064
30.6704 53.2541 0.00666501
28.7135 51.4607 2
26.9299 49.8316 3.97385
27.1129 53.3595 0.0430094
25.416 51.6092 2
23.8071 50.0171 3.96436
23.8388 53.3713 0.0453464
22.3596 51.6587 2
20.9721 50.148 3.96402
18.4301 50.1905 3.96976
18.198 52.6667 3.96386
19.645 51.4873 2
17.6386 55.2489 3.96232
19.1761 54.2007 2
20.7914 53.0975 0.0417661
17.1977 57.816 3.9609
18.5523 56.651 2
20.0826 55.7466 0.0383326
17.1478 60.5036 3.96696
18.3958 59.0599 2
19.4951 57.8277 0.0370914
17.4134 63.4444 3.96965
18.6323 61.7183 2
19.7263 60.1466 0.0253329
17.9447 66.6156 3.98498
19.1296 64.663 2
20.2168 62.8267 0.0285356
18.75 69.9759 4
19.8859 67.8058 2
20.9411 65.7552 0.0233518
21.9144 68.8721 0.0109662
20.9142 71.1327 2
23.1494 72.1454 0
21.6007 13.6391 3.97479
22.1949 11.0437 3.97355
23.1032 12.8133 2
23.0426 8.18294 3.98033
23.9721 10.1771 2
24.1197 5.14345 3.99003
25.0231 7.3151 2
25.8618 9.38875 0.0207493
25.446 1.99014 4
26.2794 4.32904 2
27.0715 6.5451 0.0160191
27.7943 1.27778 2
28.4902 3.64449 0.00839083
30.1841 0.720592 0
34.4706 35.9194 3.61378
35.9578 35.9031 2
37.5112 35.8975 0.393875
21.3345 15.8878 3.98015
24.7827 12.0876 0.023882
23.7659 14.3912 0.0237232
25.3681 13.9188 2
22.5013 15.0765 2
24.0571 15.6572 2
23.3027 16.2883 3.96781
25.4103 16.1208 3.98475
27.3004 13.3843 0.0215227
29.7946 14.2112 0.0178876
28.3728 15.9896 2
27.4759 18.8635 3.98354
33.1045 34.26 3.48295
34.535 34.3948 2
35.9597 34.3137 0.434646
34.4552 32.9063 0.547158
35.6851 30.9283 0.343783
37.4879 29.0453 0.164549
39.8811 27.9496 0.120941
37.601 27.6399 2
33.4448 33.1688 2
35.3045 29.2672 2
34.2883 31.5047 2
35.2016 27.7752 3.88855
33.4591 30.0642 3.83493
33.1841 32.5635 3.71232
29.747 22.0421 4.00592
30.2369 19.4449 2
30.9429 16.8553 0.0105654
37.6587 25.6267 0.0330981
35.2457 22.9616 -0.00437556
32.8875 19.8483 0.00251132
32.4394 22.5755 2
35.1573 25.5303 2
32.0096 25.8518 4.00484
32.5908 37.5043 3.52728
34.4145 37.5007 2
35.9404 37.4859 0.413043
35.5664 49.7943 0.0142442
34.4815 47.0576 0.126401
34.4467 39.0876 0.382704
33.4612 44.924 0.166211
33.159 42.4311 0.285068
33.0913 40.7431 0.525581
33.4029 48.886 2
32.7714 39.2464 2
32.1512 41.0704 2
32.6277 46.0951 2
31.9423 43.6318 2
31.5933 47.7319 3.98058
31.4965 39.3654 3.6718
30.877 41.8433 3.842
31.0597 44.6799 3.88723
32.2428 51.0521 -0.0102187
30.2563 49.6474 2
28.4054 48.0065 3.9653
28.7114 51.4659 0.0168334
26.9293 49.8331 2
25.2171 48.2742 3.96532
25.4151 51.6064 0.0468341
23.8092 50.0162 2
22.2583 48.5949 3.97082
22.3583 51.6608 0.0482937
20.9713 50.1473 2
19.5474 48.9333 3.97339
17.3077 49.2049 3.97488
17.1436 51.2872 3.96879
18.4325 50.1889 2
16.6497 53.7716 3.96519
18.1965 52.6664 2
19.6459 51.4884 0.0387138
16.0945 56.4095 3.96217
17.6376 55.2494 2
19.1781 54.2008 0.038836
15.7659 59.1725 3.96367
17.1931 57.8181 2
18.5565 56.6494 0.0368008
15.7935 62.1029 3.96829
17.1492 60.5057 2
18.3965 59.0587 0.0344096
16.0914 65.2981 3.98307
17.4121 63.4508 2
18.6314 61.7169 0.0281878
16.6661 68.6801 4
17.9419 66.6129 2
19.1304 64.6657 0.024275
18.75 69.9759 2
19.8886 67.8083 0.0133071
20.9142 71.1327 0
20.2359 14.65 3.96804
21.599 13.6514 2
20.5366 12.0239 3.97407
21.1461 9.15596 3.97763
22.1918 11.0414 2
23.1054 12.8084 0.022758
22.0188 6.08219 3.98954
23.0402 8.18218 2
23.975 10.1781 0.0232044
23.1494 2.85457 4
24.1165 5.14431 2
25.0251 7.31613 0.0173987
25.446 1.99012 2
26.282 4.32859 0.00930136
27.7943 1.27781 0
32.7542 35.7741 3.49134
34.4578 35.9194 2
35.9467 35.8873 0.428292
21.3378 15.8808 2
20.3482 17.0136 3.96783
22.1353 16.6866 3.96627
25.3691 13.9339 0.0281968
22.4995 15.0813 0.021221
24.0534 15.6508 0.0139713
25.4128 16.1131 2
23.3071 16.2861 2
24.2554 18.5628 3.96897
27.1807 21.6551 3.99384
28.3795 15.9796 0.0154545
27.4728 18.9089 2
32.2322 33.9737 3.66288
33.1015 34.243 2
34.571 34.3813 0.406104
33.4772 33.1932 0.530873
34.3306 31.5714 0.314701
35.3044 29.3298 0.167822
37.6282 27.6788 0.126903
35.2016 27.7255 2
33.1105 32.5064 2
33.4287 30.0236 2
32.9082 28.4216 3.89749
32.0021 31.398 3.82171
29.1402 24.5348 4.00511
29.7398 22.0575 2
30.2337 19.4386 0.0171629
35.1269 25.5402 0.00961971
32.4352 22.5832 0.00285121
32.0002 25.8235 2
30.1376 27.5097 3.97652
31.0826 37.4949 3.67687
32.5954 37.5034 2
34.4037 37.5065 0.36511
33.4184 48.8843 0.026064
32.6581 46.0451 0.124522
32.7631 39.2391 0.518855
31.9917 43.5986 0.169235
32.1917 41.0261 0.331398
31.5467 47.7558 2
31.4205 39.3883 2
30.8351 41.878 2
31.0153 44.72 2
29.831 46.3406 3.99051
30.0367 39.8025 3.85346
29.5601 42.954 3.89688
30.2482 49.619 -0.000636406
28.4026 48.0065 2
26.6298 46.4409 3.98098
26.9299 49.8316 0.0261474
25.2181 48.2723 2
23.5087 46.8591 3.97342
23.8071 50.0171 0.0356371
22.2579 48.5953 2
20.5538 47.4418 3.97647
20.9721 50.148 0.0359829
19.5479 48.932 2
18.1414 48.0369 3.97692
16.5398 48.5657 3.9765
17.3085 49.2038 2
16.2097 50.0595 3.97311
15.6613 52.3192 3.96882
17.1452 51.2863 2
18.4301 50.1905 0.0302446
15.0453 54.9038 3.96377
16.6513 53.7712 2
18.198 52.6667 0.036142
14.4998 57.7025 3.96187
16.095 56.41 2
17.6386 55.2489 0.0376848
14.2713 60.6685 3.96776
15.7684 59.1735 2
17.1977 57.816 0.0390979
14.3362 63.8548 3.97874
15.7943 62.1051 2
17.1478 60.5036 0.0330383
14.6715 67.2507 4
16.0889 65.2943 2
17.4134 63.4444 0.0303539
16.6661 68.6801 2
17.9447 66.6156 0.0150219
18.75 69.9759 0
18.956 15.8328 3.97624
20.2373 14.6473 2
18.9901 13.1472 3.97327
21.6007 13.6391 0.0252087
20.5351 12.0257 2
19.3463 10.2468 3.97503
19.9938 7.14751 3.98777
21.1428 9.15563 2
22.1949 11.0437 0.0264527
20.9142 3.86727 4
22.0149 6.08387 2
23.0426 8.18294 0.0196723
23.1494 2.85451 2
24.1197 5.14345 0.00997024
25.446 1.99014 0
31.5223 35.6363 3.66721
32.7579 35.7659 2
34.4706 35.9194 0.386224
21.3345 15.8878 0.0198535
22.1386 16.6797 2
20.3506 17.0102 2
19.3485 18.4822 3.95689
21.8308 17.9374 3.97766
25.4103 16.1208 0.0152549
23.3027 16.2883 0.0321867
24.2466 18.5866 2
22.4314 20.0076 3.97246
24.7623 21.5219 3.98723
26.7621 23.8202 3.98219
27.1885 21.5763 2
27.4759 18.8635 0.0164623
30.9333 33.1623 3.84559
32.1894 33.9215 2
33.1045 34.26 0.517055
33.1841 32.5635 0.287677
33.4591 30.0642 0.165074
35.2016 27.7752 0.111447
32.8678 28.3894 2
31.9463 31.356 2
30.7524 29.8027 3.92378
28.4026 26.6952 3.9966
29.124 24.5405 2
29.747 22.0421 -0.00592416
32.0096 25.8518 -0.00484272
30.1289 27.4871 2
29.5894 37.4932 3.85019
31.019 37.493 2
32.5908 37.5043 0.472717
31.5933 47.7319 0.0194182
31.0597 44.6799 0.112774
31.4965 39.3654 0.328198
30.877 41.8433 0.157996
29.8349 46.3425 2
29.9625 39.8151 2
29.5279 42.9862 2
28.1054 44.6659 3.96942
27.7951 40.5228 3.93172
28.4054 48.0065 0.0347035
26.6285 46.4415 2
24.8172 44.9733 3.97867
25.2171 48.2742 0.0346836
23.5072 46.8584 2
21.5796 45.7203 3.97775
22.2583 48.5949 0.029181
20.5542 47.441 2
18.8752 46.5883 3.97658
19.5474 48.9333 0.0266061
18.1421 48.0358 2
16.7793 47.5888 3.97636
16.5412 48.5648 2
15.5556 48.9112 3.9756
17.3077 49.2049 0.0251193
16.2115 50.0586 2
14.7749 50.8958 3.97221
14.0182 53.3648 3.96664
15.6627 52.3186 2
17.1436 51.2872 0.0312139
13.3322 56.128 3.96172
15.0458 54.9038 2
16.6497 53.7716 0.034806
12.858 59.1077 3.96605
14.5037 57.7024 2
16.0945 56.4095 0.0378298
12.6821 62.297 3.97633
14.2729 60.6687 2
15.7659 59.1725 0.036328
12.7746 65.6939 4
14.3339 63.8511 2
15.7935 62.1029 0.0317093
14.6714 67.2507 2
16.0914 65.2981 0.0169258
16.6661 68.6801 0
17.7171 17.2115 3.96282
18.9561 15.8312 2
17.5263 14.4181 3.9683
20.2359 14.65 0.031956
18.9896 13.1518 2
17.6432 11.4681 3.97349
20.5366 12.0239 0.0259293
19.3426 10.2477 2
18.0541 8.34066 3.98574
18.75 5.0241 4
19.9892 7.14984 2
21.1461 9.15596 0.0223662
20.9142 3.86727 2
22.0188 6.08219 0.0104558
23.1494 2.85457 0
30.0658 35.204 3.85211
31.4483 35.6121 2
32.7542 35.7741 0.508664
22.1353 16.6866 0.0337313
20.3482 17.0136 0.0321738
21.83 17.9368 2
19.342 18.4758 2
18.1835 20.0373 3.96166
21.0131 19.4783 3.96583
24.2554 18.5628 0.0310284
22.4221 20.0144 2
24.7691 21.5047 2
22.6062 21.8532 3.98123
25.0381 23.2587 3.97145
26.0069 26.0708 3.97898
26.7583 23.8139 2
27.1807 21.6551 0.00615962
29.3245 32.5087 3.89723
30.8651 33.127 2
32.2322 33.9737 0.337121
32.0021 31.398 0.178292
32.9082 28.4216 0.102508
30.7304 29.7921 2
27.7638 29.2744 4.01442
28.3885 26.7054 2
29.1402 24.5348 -0.00510556
30.1376 27.5097 0.0234772
27.9376 37.3617 3.89864
29.5159 37.4855 2
31.0826 37.4949 0.323129
29.831 46.3406 0.00949121
29.5601 42.954 0.103118
30.0367 39.8025 0.146541
28.1002 44.7224 2
27.7632 40.5215 2
26.1936 43.0301 3.98771
25.0655 39.4397 3.97172
26.6298 46.4409 0.0190198
24.8067 44.9752 2
22.7324 43.7594 3.97616
23.5087 46.8591 0.026583
21.5761 45.722 2
19.6458 44.826 3.97622
20.5538 47.4418 0.0235296
18.8749 46.5888 2
17.1377 46.0871 3.97622
18.1414 48.0369 0.0230769
16.7805 47.5882 2
15.3209 47.5649 3.9761
16.5398 48.5657 0.0234997
15.5575 48.9103 2
14.0845 49.4625 3.97458
16.2097 50.0595 0.0268907
14.7761 50.8951 2
13.0888 51.8103 3.969
12.2376 54.4885 3.96341
14.0191 53.3644 2
15.6613 52.3192 0.0311756
11.545 57.4461 3.96513
13.3325 56.1281 2
15.0453 54.9038 0.036233
11.1372 60.6224 3.97323
12.8601 59.1071 2
14.4998 57.7025 0.0381311
10.9835 64.0165 4
12.6805 62.2924 2
14.2713 60.6685 0.0322359
12.7745 65.694 2
14.3362 63.8548 0.0212559
14.6715 67.2507 0
16.5246 18.7205 3.96203
17.7144 17.2088 2
16.1212 15.8228 3.96639
18.956 15.8328 0.0237631
17.5262 14.4144 2
16.0275 12.8377 3.97093
18.9901 13.1472 0.0267341
17.6413 11.4753 2
16.2053 9.66496 3.98287
19.3463 10.2468 0.0249744
18.049 8.34507 2
16.6661 6.31991 4
18.75 5.02404 2
19.9938 7.14751 0.0122273
20.9142 3.86727 0
28.4597 34.8484 3.89826
29.9811 35.1693 2
31.5223 35.6363 0.33279
16.9231 21.4744 3.9672
21.8308 17.9374 0.0223427
19.3485 18.4822 0.0431053
21.0038 19.4743 2
18.1821 20.0347 2
20.006 21.6943 3.97108
22.4314 20.0076 0.0275381
24.7623 21.5219 0.0127729
22.6013 21.8584 2
25.0299 23.2607 2
23.3216 24.7361 3.97191
25.3136 28.6716 3.98386
25.9986 26.0769 2
26.7621 23.8202 0.0178121
27.1782 31.8688 3.98208
29.2886 32.4873 2
30.9333 33.1623 0.154407
30.7524 29.8027 0.0762246
27.7755 29.2532 2
28.4026 26.6952 0.00340431
25.7617 36.8485 3.97053
27.9175 37.3643 2
29.5894 37.4932 0.14981
28.1054 44.6659 0.030584
27.7951 40.5228 0.0682755
26.1699 43.0524 2
25.0404 39.4432 2
23.9475 41.7771 3.98233
22.7844 38.5237 3.98002
24.8172 44.9733 0.0213287
22.73 43.7603 2
20.5267 42.7773 3.97529
21.5796 45.7203 0.0222478
19.6461 44.8265 2
17.5465 44.2671 3.97563
18.8752 46.5883 0.0234245
17.1381 46.0873 2
15.2847 45.9898 3.97589
16.7793 47.5888 0.0236367
15.3224 47.5642 2
13.6151 47.9282 3.97564
15.5556 48.9112 0.024396
14.0862 49.4617 2
12.3198 50.1935 3.9711
14.7749 50.8958 0.0277883
13.0896 51.8097 2
11.2351 52.8022 3.96498
10.3379 55.703 3.96433
12.2385 54.4881 2
14.0182 53.3648 0.0333614
9.70406 58.8453 3.97296
11.5464 57.4457 2
13.3322 56.128 0.0382753
9.30605 62.2254 4
11.136 60.6183 2
12.858 59.1077 0.033946
10.9835 64.0165 2
12.6821 62.297 0.0236714
12.7746 65.6939 0
15.3141 20.2591 3.96378
16.5251 18.7196 2
14.7859 17.3441 3.96342
17.7171 17.2115 0.0371834
16.1226 15.821 2
14.4905 14.3221 3.96694
17.5263 14.4181 0.0316979
16.0267 12.8341 2
14.4475 11.1168 3.98056
17.6432 11.4681 0.0265065
16.2008 9.6707 2
14.6715 7.74927 4
18.0541 8.34066 0.0142609
16.6661 6.31988 2
18.75 5.0241 0
26.4199 34.3587 3.97531
28.4423 34.8561 2
30.0658 35.204 0.147889
18.1803 22.4404 3.97399
15.8261 23.0183 3.97116
16.9257 21.4741 2
21.0131 19.4783 0.0341703
18.1835 20.0373 0.0383413
20.0041 21.6921 2
20.1233 24.5331 3.97197
22.6062 21.8532 0.0187658
25.0381 23.2587 0.0285479
23.318 24.7374 2
22.6771 28.0027 3.97163
24.7436 31.3618 3.9822
25.3193 28.6614 2
26.0069 26.0708 0.0210232
27.1525 31.83 2
29.3245 32.5087 0.102772
27.7638 29.2744 -0.0144217
23.5141 36.2947 3.98111
25.7425 36.8461 2
27.9376 37.3617 0.101361
26.1936 43.0301 0.0122918
25.0655 39.4397 0.0282816
23.9263 41.7756 2
22.7705 38.519 2
21.6311 40.5969 3.9748
20.9831 37.8009 3.97693
22.7324 43.7594 0.0238395
20.5261 42.7779 2
18.0258 42.018 3.9757
19.6458 44.826 0.0237776
17.5466 44.2674 2
15.3338 44.1107 3.97552
17.1377 46.0871 0.0237776
15.2851 45.9896 2
13.3145 46.2183 3.9759
15.3209 47.5649 0.023903
13.6167 47.9275 2
11.7105 48.4944 3.97298
14.0845 49.4625 0.0254241
12.3214 50.1927 2
10.3662 51.0492 3.96623
13.0888 51.8103 0.0309994
11.2357 52.8015 2
9.24912 53.8839 3.9643
8.3877 56.9799 3.97455
10.3415 55.7015 2
12.2376 54.4885 0.0365898
7.74927 60.3285 4
9.70311 58.8414 2
11.545 57.4461 0.0348694
9.306 62.2255 2
11.1372 60.6224 0.0267709
10.9835 64.0165 0
14.1485 21.8223 3.96719
15.3123 20.2581 2
13.5148 18.9411 3.96295
16.5246 18.7205 0.0379749
14.7872 17.3433 2
13.0354 15.9078 3.96927
16.1212 15.8228 0.0336149
14.4921 14.3205 2
12.7853 12.6927 3.9775
16.0275 12.8377 0.0290729
14.4445 11.1238 2
12.7746 9.30605 4
16.2053 9.66496 0.0171344
14.6715 7.74924 2
16.6661 6.31991 0
24.0942 33.8809 3.98092
26.3995 34.357 2
28.4597 34.8484 0.101737
18.0535 24.1732 3.97254
18.1871 22.4406 2
14.6608 24.5477 3.97321
15.8289 23.0184 2
16.9231 21.4744 0.0328047
19.6567 27.3721 3.97421
20.006 21.6943 0.0289174
20.1177 24.5319 2
22.0518 30.8277 3.97451
23.3216 24.7361 0.0280876
22.6764 28.0053 2
24.7106 31.3575 2
25.3136 28.6716 0.0161359
27.1782 31.8688 0.0179238
21.1051 35.9659 3.97657
23.5135 36.2958 2
25.7617 36.8485 0.0294684
23.9475 41.7771 0.0176681
22.7844 38.5237 0.019979
21.6352 40.5989 2
20.9828 37.799 2
18.7877 38.9853 3.97706
20.5267 42.7773 0.024709
18.0253 42.0182 2
15.3189 41.8609 3.976
17.5465 44.2671 0.0243723
15.3335 44.1108 2
13.0795 44.3257 3.9759
15.2847 45.9898 0.0241145
13.3158 46.2178 2
11.2255 46.6836 3.97469
13.6151 47.9282 0.0243609
11.7124 48.4935 2
9.63628 49.2117 3.96743
12.3198 50.1935 0.0289024
10.3667 51.0484 2
8.28087 51.9986 3.96425
11.2351 52.8022 0.03502
9.25099 53.8823 2
7.1967 55.0318 3.97554
6.31991 58.3339 4
8.38658 56.976 2
10.3379 55.703 0.0356724
7.74924 60.3285 2
9.70406 58.8453 0.0270371
9.30605 62.2254 0
13.5242 25.4423 3.97602
13.0513 23.3492 3.97019
14.148 21.8219 2
12.3282 20.5894 3.96375
15.3141 20.2591 0.0362221
13.5163 18.9406 2
11.6687 17.581 3.96755
14.7859 17.3441 0.0365845
13.0384 15.9069 2
11.2235 14.3786 3.97408
14.4905 14.3221 0.0330577
12.7831 12.6985 2
10.9835 10.9835 4
14.4475 11.1168 0.0194431
12.7745 9.306 2
14.6715 7.74927 0
21.4526 33.496 3.97634
24.0977 33.8668 2
26.4199 34.3587 0.0246906
16.3824 26.5262 3.97411
18.0576 24.1733 2
18.1803 22.4404 0.0260074
14.6605 24.5478 2
15.8261 23.0183 0.0288396
19.0589 30.3213 3.97467
19.6568 27.3725 2
20.1233 24.5331 0.028034
22.0688 30.8293 2
22.6771 28.0027 0.0283663
24.7436 31.3618 0.0177996
18.3942 35.9994 3.97765
21.1074 35.9655 2
23.5141 36.2947 0.0188861
21.6311 40.5969 0.0251982
20.9831 37.8009 0.0230687
18.7858 38.9848 2
14.8149 39.1588 3.977
18.0258 42.018 0.0243003
15.3182 41.8606 2
12.7751 42.2336 3.97621
15.3338 44.1107 0.024478
13.0804 44.3254 2
10.8131 44.7595 3.9762
13.3145 46.2183 0.0240996
11.2277 46.6827 2
9.0232 47.294 3.96852
11.7105 48.4944 0.0270234
9.63688 49.211 2
7.44512 50.0329 3.96429
10.3662 51.0492 0.0337739
8.28092 51.9972 2
6.1373 53.0075 3.97579
9.24912 53.8839 0.0356974
7.19608 55.0283 2
5.0241 56.25 4
6.31988 58.3339 2
8.3877 56.9799 0.0254526
7.74927 60.3285 0
13.8044 26.8995 3.97545
12.1613 24.8483 3.97301
13.5236 25.4424 2
11.2576 22.2729 3.96579
13.0517 23.3494 2
14.1485 21.8223 0.0328117
12.33 20.5895 2
10.4014 19.3291 3.96537
13.5148 18.9411 0.0370463
11.6713 17.5808 2
9.76435 16.1617 3.97335
13.0354 15.9078 0.0307273
11.222 14.3841 2
9.30607 12.7746 4
12.7853 12.6927 0.022497
10.9835 10.9835 2
12.7746 9.30605 0
18.5523 33.1883 3.97607
21.4516 33.4994 2
24.0942 33.8809 0.0190768
16.0057 29.752 3.97554
16.3818 26.5262 2
18.0535 24.1732 0.0274592
14.6608 24.5477 0.0267921
19.0571 30.3214 2
19.6567 27.3721 0.0257919
22.0518 30.8277 0.0254919
15.4498 36.0368 3.97728
18.3935 35.9999 2
21.1051 35.9659 0.0234287
13.0054 37.8284 3.97699
18.7877 38.9853 0.022941
14.8143 39.1586 2
12.2756 40.1175 3.97663
15.3189 41.8609 0.0240022
12.7756 42.2332 2
10.4161 42.7448 3.97646
13.0795 44.3257 0.024099
10.8155 44.7587 2
8.50235 45.3002 3.96944
11.2255 46.6836 0.0253125
9.02374 47.2935 2
6.7347 47.9984 3.96439
9.63628 49.2117 0.0325728
7.44446 50.0318 2
5.21391 50.911 3.97546
8.28087 51.9986 0.0357453
6.13708 53.005 2
3.86727 54.0858 4
7.1967 55.0318 0.0244646
5.02404 56.25 2
6.31991 58.3339 0
13.2878 29.1091 3.9751
11.6069 26.5431 3.97394
13.8039 26.8996 2
10.3121 23.9999 3.96755
12.1637 24.8489 2
13.5242 25.4423 0.0239823
9.25996 21.1445 3.96505
11.2586 22.2731 2
13.0513 23.3492 0.0298101
12.3282 20.5894 0.0362518
10.4063 19.3298 2
8.42051 18.0317 3.97394
11.6687 17.581 0.0324549
9.7634 16.1668 2
7.74928 14.6715 4
11.2235 14.3786 0.0259194
9.30602 12.7745 2
10.9835 10.9835 0
14.9935 32.9218 3.9763
18.5511 33.1876 2
21.4526 33.496 0.023664
16.0061 29.7521 2
16.3824 26.5262 0.0258942
19.0589 30.3213 0.0253282
13.3069 36.2211 3.97674
15.4491 36.0367 2
18.3942 35.9994 0.0223523
13.0053 37.8282 2
11.6024 38.3043 3.97696
14.8149 39.1588 0.0230017
12.2766 40.1174 2
9.9935 40.7349 3.97658
12.7751 42.2336 0.0237852
10.4195 42.7439 2
8.04707 43.2545 3.97049
10.8131 44.7595 0.0238035
8.50488 45.2995 2
6.13954 45.9038 3.96494
9.0232 47.294 0.0314765
6.73453 47.9975 2
4.42517 48.7514 3.97502
7.44512 50.0329 0.035712
5.21404 50.9094 2
2.85457 51.8506 4
6.1373 53.0075 0.0242085
3.86727 54.0858 2
5.0241 56.25 0
12.418 31.3085 3.97612
11.0181 28.4626 3.97507
13.288 29.1092 2
9.5272 25.8257 3.96865
11.6093 26.5438 2
13.8044 26.8995 0.0245537
8.24616 23.0266 3.96499
10.3134 24.0004 2
12.1613 24.8483 0.0269857
7.20264 19.98 3.97536
9.26684 21.1463 2
11.2576 22.2729 0.0342111
10.4014 19.3291 0.0346334
8.41982 18.0359 2
6.31992 16.6661 4
9.76435 16.1617 0.0266518
7.74926 14.6714 2
9.30607 12.7746 0
12.4557 34.3244 3.97648
14.9931 32.9225 2
18.5523 33.1883 0.0239334
16.0057 29.752 0.0244558
11.1386 36.6192 3.97671
13.3067 36.221 2
15.4498 36.0368 0.022721
13.0054 37.8284 0.0230135
11.6038 38.304 2
9.57373 38.8166 3.9768
12.2756 40.1175 0.0233663
9.99656 40.7343 2
7.6514 41.2016 3.97137
10.4161 42.7448 0.0235393
8.04789 43.254 2
5.65073 43.7668 3.9658
8.50235 45.3002 0.0305563
6.13992 45.9029 2
3.77047 46.5368 3.97524
6.7347 47.9984 0.0356071
4.42558 48.7506 2
1.99014 49.554 4
5.21391 50.911 0.0245391
2.85451 51.8506 2
3.86727 54.0858 0
11.2273 32.9544 3.97667
10.323 30.4191 3.97572
12.4187 31.3091 2
8.83539 27.7554 3.96886
11.0201 28.4631 2
13.2878 29.1091 0.0249037
7.36758 24.984 3.96484
9.52824 25.8263 2
11.6069 26.5431 0.0260609
6.11958 22.0021 3.9761
8.24778 23.0279 2
10.3121 23.9999 0.0324496
5.02411 18.75 4
7.20209 19.9833 2
9.25996 21.1445 0.0349548
8.42051 18.0317 0.0260563
6.3199 16.6661 2
7.74928 14.6715 0
10.7242 35.0168 3.97662
12.4554 34.3247 2
14.9935 32.9218 0.0236967
9.23104 36.9878 3.97688
11.1403 36.6192 2
13.3069 36.2211 0.0232638
11.6024 38.3043 0.0230371
9.57698 38.8163 2
7.32593 39.1777 3.97166
9.9935 40.7349 0.0234231
7.65303 41.2012 2
5.26555 41.6129 3.96628
8.04707 43.2545 0.0295113
5.65105 43.7662 2
3.24786 44.2815 3.97594
6.13954 45.9038 0.03506
3.77084 46.5363 2
1.27781 47.2057 4
4.42517 48.7514 0.0249849
1.99012 49.554 2
2.85457 51.8506 0
10.3588 33.9042 3.97647
9.6009 32.1806 3.97654
11.2292 32.955 2
8.17531 29.7138 3.96936
10.3257 30.4198 2
12.418 31.3085 0.0238826
6.60813 27.0095 3.96486
8.83635 27.7558 2
11.0181 28.4626 0.0249299
5.17472 24.0944 3.97589
7.36699 24.9849 2
9.5272 25.8257 0.0313497
3.86728 20.9142 4
6.11945 22.0045 2
8.24616 23.0266 0.0350146
5.02406 18.75 2
7.20264 19.98 0.0246426
6.31992 16.6661 0
9.04461 35.29 3.9771
10.7261 35.017 2
12.4557 34.3244 0.0235157
7.10262 37.2063 3.97146
9.23438 36.9877 2
11.1386 36.6192 0.0232893
9.57373 38.8166 0.0231967
7.32796 39.1775 2
4.99274 39.4668 3.96688
7.6514 41.2016 0.0286345
5.26628 41.6124 2
2.85816 42.0017 3.9763
5.65073 43.7668 0.0341956
3.24813 44.281 2
0.720592 44.8159 4
3.77047 46.5368 0.0247573
1.27778 47.2057 2
1.99014 49.554 0
9.08495 33.7152 3.97711
10.3616 33.9045 2
7.60475 31.6223 3.9701
9.60416 32.1813 2
11.2273 32.9544 0.0233298
5.95157 29.0703 3.96532
8.17663 29.7142 2
10.323 30.4191 0.0242766
4.36207 26.2471 3.97552
6.60763 27.0101 2
8.83539 27.7554 0.0311386
2.85458 23.1494 4
5.17496 24.0957 2
7.36758 24.984 0.0351561
3.86728 20.9142 2
6.11958 22.0021 0.0239049
5.02411 18.75 0
7.05045 35.3106 3.97111
9.04822 35.2903 2
10.7242 35.0168 0.0233751
4.84285 37.3397 3.96725
7.10501 37.2062 2
9.23104 36.9878 0.0231234
7.32593 39.1777 0.0283397
4.99348 39.4665 2
2.60602 39.7133 3.97673
5.26555 41.6129 0.033716
2.85872 42.0015 2
0.320823 42.3947 4
3.24786 44.2815 0.0240601
0.720551 44.8159 2
1.27781 47.2057 0
7.21388 33.4696 3.97069
9.08848 33.7158 2
10.3588 33.9042 0.0235324
5.42194 31.1344 3.96597
7.60649 31.6226 2
9.6009 32.1806 0.023458
3.68342 28.4432 3.97568
5.95208 29.0711 2
8.17531 29.7138 0.0306375
1.99015 25.446 4
4.36249 26.2476 2
6.60813 27.0095 0.0351436
2.85453 23.1494 2
5.17472 24.0944 0.0241057
3.86728 20.9142 0
4.8572 35.2519 3.96706
7.05213 35.3106 2
9.04461 35.29 0.0228997
2.49746 37.428 3.97758
4.84305 37.3398 2
7.10262 37.2063 0.028538
4.99274 39.4668 0.0331182
2.60672 39.7137 2
0.080333 39.9526 4
2.85816 42.0017 0.0237002
0.320817 42.3947 2
0.720592 44.8159 0
5.05074 33.1909 3.96673
7.21571 33.4698 2
9.08495 33.7152 0.0228936
3.14743 30.6662 3.97616
5.4223 31.135 2
7.60475 31.6223 0.0299021
1.27793 27.7943 4
3.68384 28.4436 2
5.95157 29.0703 0.0346767
1.99013 25.446 2
4.36207 26.2471 0.0244834
2.85458 23.1494 0
2.54957 35.1587 3.97727
4.85801 35.2523 2
7.05045 35.3106 0.0288864
0 37.5 4
2.49764 37.4285 2
4.84285 37.3397 0.0327484
2.60602 39.7133 0.0232675
0.0802903 39.9526 2
0.320823 42.3947 0
2.76728 32.9057 3.97726
5.05106 33.1914 2
7.21388 33.4696 0.0293144
0.721173 30.1842 4
3.14791 30.6667 2
5.42194 31.1344 0.0340265
1.27779 27.7943 2
3.68342 28.4432 0.0243215
1.99015 25.446 0
0.0806499 35.0474 4
2.55033 35.1593 2
4.8572 35.2519 0.0329376
0 37.5 2
2.49746 37.428 0.0224184
0.080333 39.9526 0
0.32156 32.6054 4
2.76753 32.9063 2
5.05074 33.1909 0.0332687
0.72056 30.1841 2
3.14743 30.6662 0.0238392
1.27793 27.7943 0
0.0802889 35.0474 2
2.54957 35.1587 0.0227281
0 37.5 0
0.320817 32.6053 2
2.76728 32.9057 0.0227382
0.721173 30.1842 0
0.0806499 35.0474 0
0.32156 32.6054 0
CELLS 1910 17190
8 18 6 25 56 2 0 5 16
8 57 23 6 18 17 4 0 2
8 78 36 9 29 31 11 1 7
8 31 11 1 7 79 37 10 30
8 110 57 18 50 48 17 2 14
8 50 18 56 111 14 2 16 49
8 116 62 22 55 52 20 3 15
8 56 25 67 118 16 5 24 53
8 119 63 23 57 54 21 4 17
8 55 22 63 119 15 3 21 54
8 58 26 68 121 18 6 25 56
8 122 65 26 58 57 23 6 18
8 73 31 7 27 142 79 30 71
8 143 78 29 72 73 31 7 27
8 83 147 76 34 32 74 28 8
8 84 148 78 36 33 75 29 9
8 76 34 8 28 148 84 33 75
8 37 79 150 86 10 30 77 35
8 151 87 36 78 80 38 11 31
8 80 38 11 31 152 88 37 79
8 175 100 42 94 96 44 12 40
8 44 96 176 101 12 40 95 43
8 101 176 98 46 43 95 41 13
8 46 98 178 103 13 41 97 45
8 178 103 45 97 147 83 32 74
8 189 116 55 109 106 52 15 47
8 111 56 118 191 49 16 53 107
8 192 119 57 110 108 54 17 48
8 109 55 119 192 47 15 54 108
8 194 122 58 112 110 57 18 50
8 112 58 121 195 50 18 56 111
8 115 61 19 51 197 124 59 113
8 115 61 125 198 51 19 60 114
8 198 125 62 116 114 60 20 52
8 200 127 64 120 116 62 22 55
8 118 67 132 202 53 24 66 117
8 121 68 133 203 56 25 67 118
8 120 64 128 204 55 22 63 119
8 204 128 65 122 119 63 23 57
8 206 134 68 121 123 69 26 58
8 123 69 26 58 207 131 65 122
8 226 147 74 138 140 76 28 70
8 229 148 75 139 143 78 29 72
8 140 76 28 70 229 148 75 139
8 142 79 30 71 231 150 77 141
8 144 80 31 73 232 152 79 142
8 233 151 78 143 144 80 31 73
8 150 86 35 77 235 154 81 145
8 235 154 81 145 146 82 39 91
8 146 82 39 91 236 155 90 165
8 238 157 83 147 149 85 34 76
8 239 158 84 148 151 87 36 78
8 149 85 34 76 239 158 84 148
8 152 88 37 79 241 160 86 150
8 242 161 87 151 153 89 38 80
8 153 89 38 80 243 162 88 152
8 171 98 41 92 265 178 97 169
8 265 178 97 169 226 147 74 138
8 172 96 40 93 266 176 95 170
8 266 176 95 170 171 98 41 92
8 269 175 94 173 172 96 40 93
8 271 180 99 174 175 100 42 94
8 197 124 59 113 271 180 99 174
8 272 181 100 175 177 102 44 96
8 273 182 101 176 179 104 46 98
8 177 102 44 96 273 182 101 176
8 179 104 46 98 275 184 103 178
8 275 184 103 178 238 157 83 147
8 188 115 51 105 283 197 113 186
8 188 115 198 284 105 51 114 187
8 284 198 116 189 187 114 52 106
8 286 200 120 193 189 116 55 109
8 191 118 202 288 107 53 117 190
8 195 121 203 289 111 56 118 191
8 193 120 204 290 109 55 119 192
8 290 204 122 194 192 119 57 110
8 196 123 58 112 292 207 122 194
8 293 206 121 195 196 123 58 112
8 199 126 61 115 297 211 124 197
8 298 212 127 200 198 125 62 116
8 199 126 212 298 115 61 125 198
8 205 129 64 120 300 214 127 200
8 301 217 130 201 202 132 66 117
8 209 136 168 264 301 217 130 201
8 302 219 132 202 203 133 67 118
8 303 220 133 203 206 134 68 121
8 205 129 215 304 120 64 128 204
8 304 215 131 207 204 128 65 122
8 306 221 134 206 208 135 69 123
8 208 135 69 123 307 218 131 207
8 210 137 167 263 309 223 136 209
8 328 238 147 226 230 149 76 140
8 228 146 91 166 329 236 165 260
8 231 150 77 141 330 235 145 227
8 330 235 145 227 228 146 91 166
8 332 239 148 229 233 151 78 143
8 230 149 76 140 332 239 148 229
8 232 152 79 142 334 241 150 231
8 234 153 80 144 335 243 152 232
8 336 242 151 233 234 153 80 144
8 236 155 90 165 338 245 164 259
8 241 160 86 150 339 246 154 235
8 339 246 154 235 237 156 82 146
8 237 156 82 146 340 247 155 236
8 342 249 157 238 240 159 85 149
8 343 250 158 239 242 161 87 151
8 240 159 85 149 343 250 158 239
8 243 162 88 152 345 252 160 241
8 244 163 253 346 153 89 161 242
8 244 163 89 153 347 254 162 243
8 311 224 261 371 210 137 167 263
8 263 167 262 372 209 136 168 264
8 267 179 98 171 375 275 178 265
8 375 275 178 265 328 238 147 226
8 376 273 176 266 267 179 98 171
8 268 177 96 172 376 273 176 266
8 379 272 175 269 268 177 96 172
8 380 271 174 270 269 175 94 173
8 283 197 113 186 380 271 174 270
8 381 277 180 271 272 181 100 175
8 297 211 124 197 381 277 180 271
8 382 278 181 272 274 183 102 177
8 274 183 102 177 383 279 182 273
8 383 279 182 273 276 185 104 179
8 385 281 184 275 342 249 157 238
8 276 185 104 179 385 281 184 275
8 285 199 115 188 393 297 197 283
8 394 298 200 286 284 198 116 189
8 285 199 298 394 188 115 198 284
8 291 205 120 193 396 300 200 286
8 397 301 201 287 288 202 117 190
8 295 209 264 374 397 301 201 287
8 398 302 202 288 289 203 118 191
8 399 303 203 289 293 206 121 195
8 291 205 304 400 193 120 204 290
8 400 304 207 292 290 204 122 194
8 294 208 123 196 402 307 207 292
8 403 306 206 293 294 208 123 196
8 296 210 263 373 405 309 209 295
8 408 312 213 299 297 211 126 199
8 299 213 313 409 199 126 212 298
8 409 313 214 300 298 212 127 200
8 305 216 129 205 411 315 214 300
8 412 318 217 301 302 219 132 202
8 309 223 136 209 412 318 217 301
8 413 320 219 302 303 220 133 203
8 306 221 321 414 206 134 220 303
8 307 218 131 207 415 316 215 304
8 305 216 316 415 205 129 215 304
8 417 322 221 306 308 222 135 208
8 308 222 135 208 418 319 218 307
8 310 225 137 210 420 325 223 309
8 423 326 224 311 310 225 137 210
8 329 236 165 260 441 338 259 368
8 442 342 238 328 333 240 149 230
8 331 237 146 228 443 340 236 329
8 334 241 150 231 444 339 235 330
8 444 339 235 330 331 237 146 228
8 446 343 239 332 336 242 151 233
8 333 240 149 230 446 343 239 332
8 335 243 152 232 448 345 241 334
8 337 244 153 234 449 347 243 335
8 337 244 346 450 234 153 242 336
8 338 245 164 259 452 349 258 367
8 340 247 155 236 453 350 245 338
8 345 252 160 241 454 351 246 339
8 454 351 246 339 341 248 156 237
8 341 248 156 237 455 352 247 340
8 240 159 251 344 342 249 354 457
8 242 161 253 346 343 250 355 458
8 343 250 355 458 240 159 251 344
8 347 254 162 243 460 357 252 345
8 348 255 358 461 244 163 253 346
8 348 255 163 244 462 359 254 347
8 473 360 257 365 363 256 364 482
8 452 349 258 367 365 257 366 485
8 422 324 369 488 311 224 261 371
8 371 261 370 490 263 167 262 372
8 407 311 371 491 296 210 263 373
8 373 263 372 492 295 209 264 374
8 493 385 275 375 442 342 238 328
8 377 276 179 267 493 385 275 375
8 378 274 177 268 494 383 273 376
8 494 383 273 376 377 276 179 267
8 497 382 272 379 378 274 177 268
8 498 381 271 380 379 272 175 269
8 393 297 197 283 498 381 271 380
8 499 387 277 381 382 278 181 272
8 408 312 211 297 499 387 277 381
8 500 388 278 382 384 280 183 274
8 501 389 279 383 386 282 185 276
8 384 280 183 274 501 389 279 383
8 386 282 185 276 503 391 281 385
8 503 391 281 385 457 354 249 342
8 511 408 299 395 393 297 199 285
8 395 299 409 512 285 199 298 394
8 512 409 300 396 394 298 200 286
8 401 305 205 291 514 411 300 396
8 515 412 301 397 398 302 202 288
8 405 309 209 295 515 412 301 397
8 516 413 302 398 399 303 203 289
8 403 306 414 517 293 206 303 399
8 402 307 207 292 518 415 304 400
8 401 305 415 518 291 205 304 400
8 404 308 208 294 520 418 307 402
8 521 417 306 403 404 308 208 294
8 406 310 210 296 523 420 309 405
8 526 423 311 407 406 310 210 296
8 410 314 213 299 527 424 312 408
8 528 425 315 411 409 313 214 300
8 410 314 425 528 299 213 313 409
8 416 317 216 305 530 427 315 411
8 531 430 318 412 413 320 219 302
8 420 325 223 309 531 430 318 412
8 532 432 320 413 414 321 220 303
8 417 322 433 533 306 221 321 414
8 418 319 218 307 534 428 316 415
8 416 317 428 534 305 216 316 415
8 419 323 434 536 308 222 322 417
8 419 323 222 308 537 431 319 418
8 421 327 225 310 539 438 325 420
8 421 327 439 541 310 225 326 423
8 543 437 324 422 423 326 224 311
8 441 338 259 368 559 452 367 486
8 443 340 236 329 560 453 338 441
8 333 240 344 447 442 342 457 561
8 445 341 237 331 562 455 340 443
8 448 345 241 334 563 454 339 444
8 563 454 339 444 445 341 237 331
8 336 242 346 450 446 343 458 565
8 446 343 458 565 333 240 344 447
8 449 347 243 335 567 460 345 448
8 451 348 244 337 568 462 347 449
8 451 348 461 569 337 244 346 450
8 570 463 349 452 473 360 257 365
8 453 350 245 338 570 463 349 452
8 455 352 247 340 571 464 350 453
8 460 357 252 345 572 465 351 454
8 572 465 351 454 456 353 248 341
8 456 353 248 341 573 466 352 455
8 344 251 356 459 457 354 468 575
8 458 355 469 576 344 251 356 459
8 346 253 358 461 458 355 469 576
8 462 359 254 347 578 471 357 460
8 348 255 359 462 461 358 472 579
8 591 474 360 473 475 361 256 363
8 475 361 256 363 594 477 362 479
8 363 256 364 482 479 362 480 603
8 590 473 365 484 481 363 482 605
8 482 364 257 365 606 483 366 485
8 559 452 367 486 484 365 485 607
8 542 436 487 609 422 324 369 488
8 525 422 488 611 407 311 371 491
8 488 369 489 612 371 261 370 490
8 491 371 490 613 373 263 372 492
8 495 386 276 377 614 503 385 493
8 614 503 385 493 561 457 342 442
8 615 501 383 494 495 386 276 377
8 496 384 274 378 615 501 383 494
8 618 500 382 497 496 384 274 378
8 619 499 381 498 497 382 272 379
8 511 408 297 393 619 499 381 498
8 620 505 387 499 500 388 278 382
8 527 424 312 408 620 505 387 499
8 502 390 506 621 384 280 388 500
8 622 507 389 501 504 392 282 386
8 502 390 280 384 622 507 389 501
8 504 392 282 386 624 509 391 503
8 624 509 391 503 575 468 354 457
8 513 410 299 395 630 527 408 511
8 631 528 411 514 512 409 300 396
8 513 410 528 631 395 299 409 512
8 519 416 305 401 633 530 411 514
8 634 531 412 515 516 413 302 398
8 523 420 309 405 634 531 412 515
8 635 532 413 516 517 414 303 399
8 521 417 533 636 403 306 414 517
8 520 418 307 402 637 534 415 518
8 519 416 534 637 401 305 415 518
8 522 419 308 404 639 537 418 520
8 522 419 536 640 404 308 417 521
8 524 421 310 406 642 539 420 523
8 524 421 541 644 406 310 423 526
8 646 543 422 525 526 423 311 407
8 529 426 314 410 647 544 424 527
8 528 425 545 648 411 315 427 530
8 529 426 545 648 410 314 425 528
8 535 429 317 416 649 546 427 530
8 650 548 430 531 532 432 320 413
8 539 438 325 420 650 548 430 531
8 533 433 550 651 414 321 432 532
8 536 434 551 652 417 322 433 533
8 537 431 319 418 653 547 428 534
8 535 429 547 653 416 317 428 534
8 538 435 552 654 419 323 434 536
8 538 435 323 419 655 549 431 537
8 540 440 327 421 657 556 438 539
8 540 440 557 659 421 327 439 541
8 541 439 555 660 423 326 437 543
8 661 554 436 542 543 437 324 422
8 676 570 452 559 590 473 365 484
8 560 453 338 441 676 570 452 559
8 562 455 340 443 677 571 453 560
8 447 344 459 566 561 457 575 678
8 564 456 341 445 679 573 455 562
8 567 460 345 448 680 572 454 563
8 680 572 454 563 564 456 341 445
8 565 458 576 682 447 344 459 566
8 450 346 461 569 565 458 576 682
8 568 462 347 449 684 578 460 567
8 451 348 462 568 569 461 579 685
8 686 580 463 570 591 474 360 473
8 571 464 350 453 686 580 463 570
8 573 466 352 455 687 581 464 571
8 572 465 582 688 460 357 471 578
8 574 467 582 688 456 353 465 572
8 574 467 353 456 689 583 466 573
8 459 356 470 577 575 468 585 691
8 576 469 586 692 459 356 470 577
8 461 358 472 579 576 469 586 692
8 462 359 471 578 579 472 588 694
8 704 591 473 590 593 475 363 481
8 595 476 592 705 475 361 474 591
8 593 475 363 481 707 594 479 602
8 594 477 362 479 709 598 478 600
8 595 476 361 475 711 597 477 594
8 479 362 480 603 600 478 601 720
8 481 363 482 605 602 479 603 722
8 603 480 364 482 723 604 483 606
8 605 482 365 484 724 606 485 607
8 656 553 608 726 542 436 487 609
8 645 542 609 728 525 422 488 611
8 609 487 610 729 488 369 489 612
8 611 488 612 730 491 371 490 613
8 616 504 386 495 731 624 503 614
8 731 624 503 614 678 575 457 561
8 732 622 501 615 616 504 386 495
8 617 502 384 496 732 622 501 615
8 617 502 621 735 496 384 500 618
8 736 620 499 619 618 500 382 497
8 630 527 408 511 736 620 499 619
8 621 506 626 737 500 388 505 620
8 647 544 424 527 737 626 505 620
8 623 508 627 738 502 390 506 621
8 623 508 390 502 739 628 507 622
8 625 510 628 739 504 392 507 622
8 740 629 509 624 691 585 468 575
8 625 510 392 504 740 629 509 624
8 632 529 410 513 744 647 527 630
8 631 528 648 745 514 411 530 633
8 632 529 648 745 513 410 528 631
8 638 535 416 519 746 649 530 633
8 747 650 531 634 635 532 413 516
8 642 539 420 523 747 650 531 634
8 636 533 651 748 517 414 532 635
8 640 536 652 749 521 417 533 636
8 639 537 418 520 750 653 534 637
8 638 535 653 750 519 416 534 637
8 641 538 419 522 751 655 537 639
8 641 538 654 752 522 419 536 640
8 643 540 421 524 753 657 539 642
8 643 540 659 755 524 421 541 644
8 644 541 660 757 526 423 543 646
8 758 661 542 645 646 543 422 525
8 529 426 544 647 648 545 662 759
8 530 427 545 648 649 546 663 760
8 535 429 546 649 653 547 664 761
8 762 666 548 650 651 550 432 532
8 657 556 438 539 762 666 548 650
8 652 551 668 763 533 433 550 651
8 654 552 669 764 536 434 551 652
8 655 549 431 537 765 665 547 653
8 538 435 549 655 654 552 667 766
8 661 554 671 768 542 436 553 656
8 658 558 440 540 769 674 556 657
8 658 558 675 770 540 440 557 659
8 659 557 673 771 541 439 555 660
8 660 555 672 772 543 437 554 661
8 788 686 570 676 704 591 473 590
8 677 571 453 560 788 686 570 676
8 679 573 455 562 789 687 571 677
8 566 459 577 683 678 575 691 790
8 681 574 456 564 791 689 573 679
8 680 572 688 792 567 460 578 684
8 681 574 688 792 564 456 572 680
8 682 576 692 794 566 459 577 683
8 569 461 579 685 682 576 692 794
8 568 462 578 684 685 579 694 796
8 687 581 464 571 798 696 580 686
8 798 696 580 686 705 592 474 591
8 689 583 466 573 799 697 581 687
8 688 582 698 800 578 471 588 694
8 690 584 698 800 574 467 582 688
8 690 584 467 574 801 699 583 689
8 693 587 701 803 577 470 585 691
8 693 587 470 577 804 702 586 692
8 695 589 702 804 579 472 586 692
8 695 589 472 579 805 703 588 694
8 708 595 705 813 593 475 591 704
8 710 596 706 814 595 476 592 705
8 707 594 479 602 816 709 600 719
8 708 595 475 593 817 711 594 707
8 709 598 478 600 819 715 599 717
8 711 597 477 594 820 714 598 709
8 710 596 476 595 822 713 597 711
8 600 478 601 720 717 599 718 832
8 602 479 603 722 719 600 720 834
8 720 601 480 603 835 721 604 723
8 722 603 482 605 836 723 606 724
8 767 670 725 839 656 553 608 726
8 756 656 726 841 645 542 609 728
8 726 608 727 842 609 487 610 729
8 728 609 729 843 611 488 612 730
8 844 740 624 731 790 691 575 678
8 733 625 504 616 844 740 624 731
8 734 623 502 617 845 739 622 732
8 733 625 739 845 616 504 622 732
8 734 623 738 846 617 502 621 735
8 735 621 737 847 618 500 620 736
8 744 647 527 630 847 737 620 736
8 621 506 627 738 737 626 741 848
8 647 544 626 737 759 662 741 848
8 623 508 628 739 738 627 742 849
8 740 629 585 691 850 743 700 802
8 625 510 629 740 739 628 743 850
8 632 529 647 744 745 648 759 854
8 633 530 648 745 746 649 760 855
8 638 535 649 746 750 653 761 856
8 857 762 650 747 748 651 532 635
8 753 657 539 642 857 762 650 747
8 749 652 763 858 636 533 651 748
8 752 654 764 859 640 536 652 749
8 751 655 537 639 860 765 653 750
8 641 538 655 751 752 654 766 861
8 754 658 540 643 862 769 657 753
8 754 658 770 863 643 540 659 755
8 755 659 771 864 644 541 660 757
8 758 661 768 866 645 542 656 756
8 757 660 772 867 646 543 661 758
8 759 662 773 868 648 545 663 760
8 649 546 663 760 761 664 774 871
8 765 665 547 653 872 775 664 761
8 873 777 666 762 763 668 550 651
8 769 674 556 657 873 777 666 762
8 764 669 779 874 652 551 668 763
8 654 552 667 766 764 669 778 875
8 655 549 665 765 766 667 776 876
8 768 671 782 877 656 553 670 767
8 772 672 783 878 661 554 671 768
8 658 558 674 769 770 675 786 879
8 659 557 675 770 771 673 785 881
8 882 784 672 772 771 673 555 660
8 789 687 571 677 897 798 686 788
8 897 798 686 788 813 705 591 704
8 791 689 573 679 898 799 687 789
8 795 693 803 900 683 577 691 790
8 793 690 574 681 901 801 689 791
8 792 688 800 902 684 578 694 796
8 793 690 800 902 681 574 688 792
8 795 693 577 683 903 804 692 794
8 797 695 804 903 685 579 692 794
8 797 695 579 685 904 805 694 796
8 905 806 697 799 798 696 581 687
8 814 706 806 905 705 592 696 798
8 689 583 697 799 801 699 808 907
8 800 698 809 908 694 588 703 805
8 690 584 699 801 800 698 809 908
8 803 701 810 909 691 585 700 802
8 693 587 702 804 803 701 811 910
8 695 589 703 805 804 702 812 911
8 818 710 814 919 708 595 705 813
8 821 712 815 920 710 596 706 814
8 816 709 600 719 922 819 717 831
8 817 711 594 707 923 820 709 816
8 818 710 595 708 924 822 711 817
8 819 715 599 717 926 827 716 829
8 820 714 598 709 927 826 715 819
8 929 825 713 822 820 714 597 711
8 821 712 596 710 930 824 713 822
8 717 599 718 832 829 716 830 942
8 719 600 720 834 831 717 832 944
8 832 718 601 720 945 833 721 835
8 834 720 603 722 946 835 723 836
8 869 780 838 950 767 670 725 839
8 865 767 839 952 756 656 726 841
8 839 725 840 953 726 608 727 842
8 841 726 842 954 728 609 729 843
8 844 740 691 790 955 850 802 899
8 733 625 740 844 845 739 850 955
8 734 623 739 845 846 738 849 956
8 735 621 738 846 847 737 848 957
8 744 647 737 847 854 759 848 957
8 738 627 742 849 848 741 851 958
8 848 741 851 958 759 662 773 868
8 850 743 700 802 959 852 807 906
8 849 742 628 739 959 852 743 850
8 854 759 868 965 745 648 760 855
8 746 649 760 855 856 761 871 966
8 860 765 653 750 967 872 761 856
8 968 873 762 857 858 763 651 748
8 862 769 657 753 968 873 762 857
8 859 764 874 969 749 652 763 858
8 752 654 766 861 859 764 875 970
8 751 655 765 860 861 766 876 971
8 754 658 769 862 863 770 879 972
8 755 659 770 863 864 771 881 974
8 976 882 772 867 864 771 660 757
8 866 768 877 977 756 656 767 865
8 867 772 878 978 758 661 768 866
8 760 663 773 868 871 774 883 980
8 870 781 837 948 982 890 780 869
8 982 890 780 869 877 782 670 767
8 761 664 774 871 872 775 884 984
8 876 776 665 765 985 885 775 872
8 873 777 668 763 986 887 779 874
8 769 674 777 873 879 786 887 986
8 764 669 778 875 874 779 888 987
8 766 667 776 876 875 778 886 988
8 878 783 892 989 768 671 782 877
8 878 783 672 772 990 893 784 882
8 880 787 675 770 991 896 786 879
8 880 787 895 992 770 675 785 881
8 881 785 894 993 771 673 784 882
8 1006 905 799 898 897 798 687 789
8 919 814 905 1006 813 705 798 897
8 791 689 799 898 901 801 907 1007
8 900 803 909 1009 790 691 802 899
8 795 693 804 903 900 803 910 1010
8 902 800 908 1011 796 694 805 904
8 793 690 801 901 902 800 908 1011
8 797 695 805 904 903 804 911 1012
8 799 697 806 905 907 808 912 1013
8 920 815 912 1013 814 706 806 905
8 802 700 810 909 906 807 913 1014
8 801 699 808 907 908 809 914 1015
8 805 703 809 908 911 812 915 1016
8 803 701 811 910 909 810 916 1017
8 911 812 917 1018 804 702 811 910
8 925 821 920 1030 818 710 814 919
8 928 823 921 1031 821 712 815 920
8 922 819 717 831 1033 926 829 941
8 923 820 709 816 1034 927 819 922
8 1035 929 822 924 923 820 711 817
8 925 821 710 818 1036 930 822 924
8 1038 933 825 929 927 826 714 820
8 926 827 716 829 1039 935 828 939
8 927 826 715 819 1040 934 827 926
8 928 823 712 821 1041 931 824 930
8 1042 932 824 930 929 825 713 822
8 829 716 830 942 939 828 940 1058
8 831 717 832 944 941 829 942 1060
8 942 830 718 832 1061 943 833 945
8 944 832 720 834 1062 945 835 946
8 981 889 947 1064 870 781 837 948
8 948 837 949 1067 869 780 838 950
8 975 869 950 1069 865 767 839 952
8 950 838 951 1070 839 725 840 953
8 952 839 953 1071 841 726 842 954
8 955 850 802 899 1072 959 906 1008
8 956 849 739 845 1072 959 850 955
8 846 738 849 956 957 848 958 1073
8 957 848 958 1073 854 759 868 965
8 849 742 852 959 958 851 961 1076
8 960 853 961 1076 906 807 852 959
8 958 851 961 1076 868 773 883 980
8 960 853 807 906 1077 963 913 1014
8 855 760 868 965 966 871 980 1085
8 856 761 871 966 967 872 984 1086
8 971 876 765 860 1087 985 872 967
8 968 873 763 858 1088 986 874 969
8 862 769 873 968 972 879 986 1088
8 859 764 875 970 969 874 987 1089
8 861 766 876 971 970 875 988 1090
8 973 880 770 863 1091 991 879 972
8 973 880 992 1092 863 770 881 974
8 974 881 993 1093 864 771 882 976
8 979 870 948 1066 1094 982 869 975
8 1094 982 869 975 977 877 767 865
8 978 878 772 867 1095 990 882 976
8 978 878 989 1096 866 768 877 977
8 871 774 883 980 984 884 994 1099
8 983 891 999 1100 870 781 889 981
8 1101 1000 890 982 989 892 782 877
8 983 891 781 870 1101 1000 890 982
8 872 775 884 984 985 885 995 1103
8 876 776 885 985 988 886 996 1104
8 986 887 779 874 1105 998 888 987
8 879 786 887 986 991 896 998 1105
8 875 778 886 988 987 888 997 1106
8 990 893 1002 1107 878 783 892 989
8 1108 1003 893 990 993 894 784 882
8 880 787 896 991 992 895 1005 1109
8 993 894 785 881 1110 1004 895 992
8 898 799 905 1006 1007 907 1013 1120
8 1030 920 1013 1120 919 814 905 1006
8 901 801 907 1007 1011 908 1015 1121
8 899 802 909 1009 1008 906 1014 1122
8 900 803 910 1010 1009 909 1017 1123
8 1012 911 1018 1124 903 804 910 1010
8 904 805 908 1011 1012 911 1016 1125
8 1013 912 1020 1127 907 808 914 1015
8 1031 921 1020 1127 920 815 912 1013
8 1019 918 962 1075 1128 1021 913 1014
8 1128 1021 913 1014 1017 916 810 909
8 1015 914 1022 1129 908 809 915 1016
8 1016 915 1023 1130 911 812 917 1018
8 1018 917 1024 1131 910 811 916 1017
8 1037 928 1031 1148 925 821 920 1030
8 928 823 931 1041 1031 921 1032 1149
8 1033 926 829 941 1151 1039 939 1057
8 1034 927 819 922 1152 1040 926 1033
8 1153 1038 929 1035 1034 927 820 923
8 1154 1042 930 1036 1035 929 822 924
8 1037 928 821 925 1155 1041 930 1036
8 1039 935 828 939 1156 1047 938 1055
8 1157 1043 932 1042 1038 933 825 929
8 1038 933 826 927 1158 1045 934 1040
8 1040 934 827 926 1159 1046 935 1039
8 930 824 932 1042 1041 931 1044 1160
8 1051 936 1048 1165 1175 1052 937 1053
8 1156 1047 938 1055 1053 937 1054 1178
8 939 828 940 1058 1055 938 1056 1181
8 941 829 942 1060 1057 939 1058 1183
8 942 830 943 1061 1058 940 1059 1184
8 1060 942 832 944 1185 1061 945 1062
8 1082 964 1063 1188 981 889 947 1064
8 1097 981 1064 1190 979 870 948 1066
8 1064 947 1065 1191 948 837 949 1067
8 1066 948 1067 1193 975 869 950 1069
8 1067 949 1068 1194 950 838 951 1070
8 1069 950 1070 1195 952 839 953 1071
8 956 849 959 1072 1073 958 1076 1197
8 1074 960 1076 1197 1008 906 959 1072
8 1073 958 1076 1197 965 868 980 1085
8 1074 960 906 1008 1198 1077 1014 1122
8 1133 1026 1079 1199 1019 918 962 1075
8 1077 963 913 1014 1200 1080 962 1075
8 960 853 963 1077 1076 961 1078 1201
8 980 883 961 1076 1099 994 1078 1201
8 1210 1083 964 1082 1100 999 889 981
8 966 871 980 1085 1086 984 1099 1215
8 967 872 984 1086 1087 985 1103 1216
8 971 876 985 1087 1090 988 1104 1217
8 1088 986 874 969 1218 1105 987 1089
8 972 879 986 1088 1091 991 1105 1218
8 970 875 988 1090 1089 987 1106 1219
8 973 880 991 1091 1092 992 1109 1220
8 1093 993 881 974 1221 1110 992 1092
8 1222 1108 990 1095 1093 993 882 976
8 1223 1101 982 1094 1096 989 877 977
8 1098 983 870 979 1223 1101 982 1094
8 1095 990 1107 1224 978 878 989 1096
8 1098 983 1100 1225 979 870 981 1097
8 984 884 994 1099 1103 995 1111 1227
8 1102 1001 1115 1228 983 891 999 1100
8 1101 1000 892 989 1229 1116 1002 1107
8 1102 1001 891 983 1229 1116 1000 1101
8 985 885 995 1103 1104 996 1112 1230
8 988 886 996 1104 1106 997 1113 1231
8 1105 998 888 987 1232 1114 997 1106
8 991 896 998 1105 1109 1005 1114 1232
8 1108 1003 1117 1233 990 893 1002 1107
8 1108 1003 894 993 1233 1117 1004 1110
8 992 895 1005 1109 1110 1004 1118 1234
8 1120 1013 1127 1244 1007 907 1015 1121
8 1148 1031 1127 1244 1030 920 1013 1120
8 1121 1015 1129 1245 1011 908 1016 1125
8 1126 1019 1075 1196 1246 1128 1014 1122
8 1246 1128 1014 1122 1123 1017 909 1009
8 1124 1018 1131 1247 1010 910 1017 1123
8 1125 1016 1130 1248 1012 911 1018 1124
8 1127 1020 1137 1254 1015 914 1022 1129
8 1031 921 1032 1149 1127 1020 1137 1254
8 1134 1027 918 1019 1257 1140 1021 1128
8 1257 1140 1021 1128 1131 1024 916 1017
8 1129 1022 1141 1258 1016 915 1023 1130
8 1130 1023 1142 1259 1018 917 1024 1131
8 1261 1144 1025 1132 1133 1026 1079 1199
8 1255 1138 1025 1132 1135 1028 1144 1261
8 1133 1026 918 1019 1262 1145 1027 1134
8 1136 1029 1139 1256 1263 1146 1028 1135
8 1037 928 1041 1155 1148 1031 1149 1275
8 1041 931 1044 1160 1149 1032 1150 1276
8 1151 1039 939 1057 1278 1156 1055 1180
8 1152 1040 926 1033 1279 1159 1039 1151
8 1153 1038 927 1034 1280 1158 1040 1152
8 1281 1157 1042 1154 1153 1038 929 1035
8 1036 930 1042 1154 1155 1041 1160 1282
8 1283 1164 1046 1159 1156 1047 935 1039
8 1165 1048 1164 1283 1053 937 1047 1156
8 1157 1043 933 1038 1284 1161 1045 1158
8 1157 1043 1161 1284 1042 932 1044 1160
8 1040 934 1046 1159 1158 1045 1163 1285
8 1166 1049 1167 1292 1051 936 1048 1165
8 1166 1049 936 1051 1293 1168 1050 1172
8 1051 936 1052 1175 1172 1050 1173 1306
8 1174 1051 1165 1290 1308 1175 1053 1177
8 1053 937 1054 1178 1175 1052 1176 1309
8 1278 1156 1055 1180 1177 1053 1178 1311
8 1055 938 1056 1181 1178 1054 1179 1312
8 1057 939 1058 1183 1180 1055 1181 1314
8 1058 940 1059 1184 1181 1056 1182 1315
8 1060 942 1061 1185 1183 1058 1184 1316
8 1208 1081 1187 1321 1082 964 1063 1188
8 1209 1082 1188 1322 1097 981 1064 1190
8 1188 1063 1189 1323 1064 947 1065 1191
8 1190 1064 1191 1325 1066 948 1067 1193
8 1191 1065 1192 1326 1067 949 1068 1194
8 1067 1193 1069 950 1194 1327 1195 1070
8 1250 1133 1199 1330 1126 1019 1075 1196
8 1198 1077 1014 1122 1331 1200 1075 1196
8 1074 960 1077 1198 1197 1076 1201 1332
8 1085 980 1076 1197 1215 1099 1201 1332
8 1199 1079 1203 1333 1075 962 1080 1200
8 1132 1025 1119 1243 1199 1079 1203 1333
8 1201 1078 963 1077 1334 1202 1080 1200
8 1099 994 1078 1201 1227 1111 1202 1334
8 1343 1207 1081 1208 1210 1083 964 1082
8 1214 1084 1186 1319 1343 1207 1081 1208
8 1345 1210 1082 1209 1225 1100 981 1097
8 1346 1211 1083 1210 1228 1115 999 1100
8 1086 984 1099 1215 1216 1103 1227 1352
8 1087 985 1103 1216 1217 1104 1230 1353
8 1090 988 1104 1217 1219 1106 1231 1354
8 1218 1105 987 1089 1355 1232 1106 1219
8 1091 991 1105 1218 1220 1109 1232 1355
8 1092 992 1109 1220 1221 1110 1234 1356
8 1222 1108 1233 1357 1095 990 1107 1224
8 1222 1108 993 1093 1357 1233 1110 1221
8 1223 1101 989 1096 1358 1229 1107 1224
8 1226 1102 983 1098 1358 1229 1101 1223
8 1226 1102 1228 1359 1098 983 1100 1225
8 1103 995 1111 1227 1230 1112 1235 1360
8 1107 1002 1117 1233 1229 1116 1240 1362
8 1102 1001 1116 1229 1228 1115 1240 1362
8 1104 996 1112 1230 1231 1113 1236 1363
8 1364 1237 1114 1232 1231 1113 997 1106
8 1109 1005 1114 1232 1234 1118 1238 1365
8 1110 1004 1118 1234 1233 1117 1241 1366
8 1242 1374 1255 1138 1119 1243 1132 1025
8 1244 1127 1254 1376 1121 1015 1129 1245
8 1148 1031 1149 1275 1244 1127 1254 1376
8 1245 1129 1258 1377 1125 1016 1130 1248
8 1251 1134 1019 1126 1378 1257 1128 1246
8 1378 1257 1128 1246 1247 1131 1017 1123
8 1248 1130 1259 1379 1124 1018 1131 1247
8 1261 1381 1250 1133 1132 1249 1330 1199
8 1255 1380 1252 1135 1132 1249 1381 1261
8 1250 1133 1019 1126 1382 1262 1134 1251
8 1253 1136 1256 1385 1384 1263 1135 1252
8 1254 1137 1265 1387 1129 1022 1141 1258
8 1149 1032 1150 1276 1254 1137 1265 1387
8 1028 1135 1255 1138 1139 1256 1388 1266
8 1136 1029 1147 1264 1256 1139 1267 1389
8 1390 1268 1140 1257 1259 1142 1024 1131
8 1260 1143 1027 1134 1390 1268 1140 1257
8 1258 1141 1269 1391 1130 1023 1142 1259
8 1262 1145 1027 1134 1393 1271 1143 1260
8 1261 1144 1026 1133 1394 1272 1145 1262
8 1135 1028 1144 1261 1263 1146 1272 1394
8 1136 1029 1146 1263 1264 1147 1273 1395
8 1155 1041 1160 1282 1275 1149 1276 1405
8 1276 1150 1044 1160 1406 1277 1162 1286
8 1408 1283 1159 1279 1278 1156 1039 1151
8 1290 1165 1283 1408 1177 1053 1156 1278
8 1152 1040 1159 1279 1280 1158 1285 1409
8 1281 1157 1038 1153 1410 1284 1158 1280
8 1281 1157 1284 1410 1154 1042 1160 1282
8 1159 1046 1164 1283 1285 1163 1289 1412
8 1292 1167 1289 1412 1165 1048 1164 1283
8 1158 1045 1163 1285 1284 1161 1288 1413
8 1284 1161 1288 1413 1160 1044 1162 1286
8 1291 1166 1292 1418 1174 1051 1165 1290
8 1291 1166 1051 1174 1419 1293 1172 1305
8 1294 1169 1296 1421 1166 1049 1167 1292
8 1293 1168 1050 1172 1422 1295 1171 1303
8 1294 1169 1049 1166 1423 1297 1168 1293
8 1422 1295 1171 1303 1301 1170 1302 1435
8 1172 1050 1173 1306 1303 1171 1304 1438
8 1174 1051 1175 1308 1305 1172 1306 1440
8 1175 1052 1176 1309 1306 1173 1307 1441
8 1177 1053 1178 1311 1308 1175 1309 1443
8 1178 1054 1179 1312 1309 1176 1310 1444
8 1180 1055 1181 1314 1311 1178 1312 1446
8 1056 1181 1312 1179 1182 1315 1447 1313
8 1183 1058 1184 1316 1314 1181 1315 1448
8 1319 1186 1084 1214 1451 1317 1213 1350
8 1319 1186 1318 1453 1208 1081 1187 1321
8 1321 1187 1320 1456 1188 1063 1189 1323
8 1344 1208 1321 1457 1209 1082 1188 1322
8 1322 1188 1323 1458 1190 1064 1191 1325
8 1323 1189 1324 1459 1191 1065 1192 1326
8 1191 1325 1193 1067 1326 1460 1327 1194
8 1242 1374 1243 1119 1328 1462 1335 1204
8 1330 1199 1333 1465 1196 1075 1200 1331
8 1132 1249 1330 1199 1243 1375 1465 1333
8 1332 1201 1077 1198 1466 1334 1200 1331
8 1215 1099 1201 1332 1352 1227 1334 1466
8 1119 1243 1333 1203 1204 1335 1470 1338
8 1333 1203 1338 1470 1200 1080 1202 1334
8 1227 1111 1202 1334 1360 1235 1338 1470
8 1328 1462 1335 1204 1205 1336 1471 1339
8 1337 1206 1340 1472 1464 1329 1205 1336
8 1346 1211 1342 1479 1210 1083 1207 1343
8 1346 1211 1115 1228 1479 1342 1239 1361
8 1348 1212 1084 1214 1479 1342 1207 1343
8 1480 1343 1208 1344 1345 1210 1082 1209
8 1351 1214 1319 1454 1480 1343 1208 1344
8 1481 1346 1210 1345 1359 1228 1100 1225
8 1348 1212 1347 1483 1214 1084 1213 1350
8 1216 1103 1227 1352 1353 1230 1360 1488
8 1217 1104 1230 1353 1354 1231 1363 1489
8 1490 1364 1232 1355 1354 1231 1106 1219
8 1220 1109 1232 1355 1356 1234 1365 1491
8 1221 1110 1234 1356 1357 1233 1366 1492
8 1224 1107 1233 1357 1358 1229 1362 1493
8 1226 1102 1229 1358 1359 1228 1362 1493
8 1230 1112 1235 1360 1363 1236 1367 1496
8 1361 1239 1115 1228 1497 1371 1240 1362
8 1366 1241 1372 1498 1233 1117 1240 1362
8 1364 1237 1113 1231 1499 1368 1236 1363
8 1364 1237 1368 1499 1232 1114 1238 1365
8 1234 1118 1238 1365 1366 1241 1369 1500
8 1507 1373 1242 1374 1388 1266 1138 1255
8 1508 1374 1243 1375 1380 1255 1132 1249
8 1376 1254 1387 1509 1245 1129 1258 1377
8 1275 1149 1276 1405 1376 1254 1387 1509
8 1377 1258 1391 1510 1248 1130 1259 1379
8 1511 1390 1257 1378 1379 1259 1131 1247
8 1383 1260 1134 1251 1511 1390 1257 1378
8 1252 1135 1256 1385 1380 1255 1388 1512
8 1261 1381 1513 1394 1133 1250 1382 1262
8 1135 1252 1384 1263 1261 1381 1513 1394
8 1382 1262 1134 1251 1514 1393 1260 1383
8 1253 1136 1263 1384 1386 1264 1395 1516
8 1253 1136 1264 1386 1385 1256 1389 1517
8 1387 1265 1397 1519 1258 1141 1269 1391
8 1276 1150 1277 1406 1387 1265 1397 1519
8 1256 1139 1267 1389 1388 1266 1398 1520
8 1264 1147 1274 1396 1389 1267 1399 1521
8 1392 1270 1143 1260 1522 1400 1268 1390
8 1390 1268 1142 1259 1522 1400 1269 1391
8 1392 1270 1401 1523 1260 1143 1271 1393
8 1272 1394 1524 1402 1145 1262 1393 1271
8 1395 1273 1146 1263 1524 1402 1272 1394
8 1273 1395 1264 1147 1403 1526 1396 1274
8 1405 1276 1160 1282 1534 1406 1286 1411
8 1414 1287 1407 1535 1286 1162 1277 1406
8 1279 1159 1283 1408 1409 1285 1412 1537
8 1418 1292 1412 1537 1290 1165 1283 1408
8 1280 1158 1285 1409 1410 1284 1413 1538
8 1410 1284 1413 1538 1282 1160 1286 1411
8 1285 1163 1289 1412 1413 1288 1417 1540
8 1421 1296 1417 1540 1292 1167 1289 1412
8 1414 1287 1162 1286 1541 1416 1288 1413
8 1420 1294 1421 1545 1291 1166 1292 1418
8 1419 1293 1172 1305 1546 1422 1303 1437
8 1420 1294 1166 1291 1547 1423 1293 1419
8 1294 1169 1297 1423 1421 1296 1425 1548
8 1423 1297 1168 1293 1549 1424 1295 1422
8 1301 1170 1298 1427 1422 1295 1424 1549
8 1432 1300 1428 1554 1301 1170 1298 1427
8 1431 1299 1428 1554 1560 1430 1300 1432
8 1563 1433 1300 1432 1435 1302 1170 1301
8 1546 1422 1303 1437 1434 1301 1435 1565
8 1303 1171 1304 1438 1435 1302 1436 1566
8 1305 1172 1306 1440 1437 1303 1438 1568
8 1306 1173 1307 1441 1438 1304 1439 1569
8 1308 1175 1309 1443 1440 1306 1441 1571
8 1309 1176 1310 1444 1441 1307 1442 1572
8 1311 1178 1312 1446 1443 1309 1444 1574
8 1179 1312 1444 1310 1313 1447 1575 1445
8 1314 1181 1315 1448 1446 1312 1447 1576
8 1350 1213 1349 1486 1451 1317 1449 1579
8 1451 1317 1450 1581 1319 1186 1318 1453
8 1454 1319 1214 1351 1582 1451 1350 1487
8 1453 1318 1452 1584 1321 1187 1320 1456
8 1454 1319 1453 1585 1344 1208 1321 1457
8 1456 1320 1455 1586 1323 1189 1324 1459
8 1457 1321 1456 1587 1322 1188 1323 1458
8 1458 1323 1459 1588 1325 1191 1326 1460
8 1205 1336 1464 1329 1328 1462 1590 1461
8 1507 1373 1461 1590 1374 1242 1328 1462
8 1508 1374 1462 1591 1375 1243 1335 1467
8 1337 1206 1329 1464 1473 1341 1463 1594
8 1375 1243 1335 1467 1465 1333 1470 1596
8 1465 1333 1470 1596 1331 1200 1334 1466
8 1352 1227 1334 1466 1488 1360 1470 1596
8 1591 1462 1336 1468 1467 1335 1471 1597
8 1469 1337 1472 1598 1595 1464 1336 1468
8 1471 1339 1474 1600 1335 1204 1338 1470
8 1600 1474 1367 1496 1470 1338 1235 1360
8 1336 1205 1340 1472 1471 1339 1475 1601
8 1337 1206 1341 1473 1472 1340 1476 1602
8 1495 1370 1478 1609 1361 1239 1342 1479
8 1348 1212 1342 1479 1483 1347 1478 1609
8 1481 1346 1479 1610 1345 1210 1343 1480
8 1481 1346 1228 1359 1610 1479 1361 1494
8 1484 1348 1214 1351 1610 1479 1343 1480
8 1483 1347 1482 1612 1350 1213 1349 1486
8 1484 1348 1483 1613 1351 1214 1350 1487
8 1353 1230 1360 1488 1489 1363 1496 1616
8 1490 1364 1231 1354 1617 1499 1363 1489
8 1490 1364 1499 1617 1355 1232 1365 1491
8 1356 1234 1365 1491 1492 1366 1500 1619
8 1492 1366 1498 1620 1357 1233 1362 1493
8 1494 1361 1228 1359 1621 1497 1362 1493
8 1495 1370 1239 1361 1622 1504 1371 1497
8 1363 1236 1367 1496 1499 1368 1501 1623
8 1497 1371 1240 1362 1624 1505 1372 1498
8 1625 1503 1372 1498 1500 1369 1241 1366
8 1365 1238 1368 1499 1500 1369 1502 1626
8 1520 1398 1506 1633 1388 1266 1373 1507
8 1634 1507 1374 1508 1512 1388 1255 1380
8 1509 1387 1519 1635 1377 1258 1391 1510
8 1405 1276 1406 1534 1509 1387 1519 1635
8 1515 1392 1260 1383 1636 1522 1390 1511
8 1511 1390 1259 1379 1636 1522 1391 1510
8 1385 1256 1389 1517 1512 1388 1520 1637
8 1513 1394 1262 1382 1638 1524 1393 1514
8 1395 1516 1638 1524 1263 1384 1513 1394
8 1515 1392 1523 1639 1383 1260 1393 1514
8 1516 1395 1526 1640 1386 1264 1396 1518
8 1386 1264 1396 1518 1517 1389 1521 1641
8 1519 1397 1527 1643 1391 1269 1400 1522
8 1535 1407 1527 1643 1406 1277 1397 1519
8 1389 1267 1399 1521 1520 1398 1528 1644
8 1645 1529 1399 1521 1525 1404 1274 1396
8 1392 1270 1400 1522 1523 1401 1531 1646
8 1524 1402 1271 1393 1648 1532 1401 1523
8 1403 1526 1648 1532 1273 1395 1524 1402
8 1525 1404 1274 1396 1649 1533 1403 1526
8 1539 1414 1535 1657 1411 1286 1406 1534
8 1542 1415 1536 1658 1414 1287 1407 1535
8 1409 1285 1412 1537 1538 1413 1540 1660
8 1545 1421 1540 1660 1418 1292 1412 1537
8 1539 1414 1286 1411 1661 1541 1413 1538
8 1540 1417 1544 1663 1413 1288 1416 1541
8 1421 1296 1425 1548 1540 1417 1544 1663
8 1542 1415 1287 1414 1664 1543 1416 1541
8 1420 1294 1423 1547 1545 1421 1548 1666
8 1547 1423 1293 1419 1667 1549 1422 1546
8 1434 1301 1427 1553 1546 1422 1549 1667
8 1423 1297 1424 1549 1548 1425 1550 1668
8 1551 1426 1550 1668 1427 1298 1424 1549
8 1551 1426 1298 1427 1671 1552 1428 1554
8 1562 1432 1554 1674 1434 1301 1427 1553
8 1431 1299 1429 1558 1554 1428 1555 1675
8 1431 1299 1430 1560 1558 1429 1557 1680
8 1560 1430 1300 1432 1683 1559 1433 1563
8 1561 1431 1554 1674 1684 1560 1432 1562
8 1685 1563 1432 1562 1565 1435 1301 1434
8 1435 1302 1436 1566 1563 1433 1564 1686
8 1437 1303 1438 1568 1565 1435 1566 1688
8 1438 1304 1439 1569 1566 1436 1567 1689
8 1440 1306 1441 1571 1568 1438 1569 1691
8 1441 1307 1442 1572 1569 1439 1570 1692
8 1443 1309 1444 1574 1571 1441 1572 1694
8 1310 1444 1572 1442 1445 1575 1695 1573
8 1446 1312 1447 1576 1574 1444 1575 1696
8 1486 1349 1485 1614 1579 1449 1577 1699
8 1451 1317 1449 1579 1581 1450 1578 1701
8 1487 1350 1486 1615 1582 1451 1579 1702
8 1581 1450 1580 1704 1453 1318 1452 1584
8 1582 1451 1581 1705 1454 1319 1453 1585
8 1584 1452 1583 1706 1456 1320 1455 1586
8 1585 1453 1584 1707 1457 1321 1456 1587
8 1587 1456 1586 1708 1458 1323 1459 1588
8 1633 1506 1589 1710 1507 1373 1461 1590
8 1464 1329 1461 1590 1594 1463 1589 1710
8 1468 1336 1462 1591 1595 1464 1590 1711
8 1634 1507 1590 1711 1508 1374 1462 1591
8 1473 1341 1463 1594 1603 1477 1593 1716
8 1469 1337 1464 1595 1599 1473 1594 1717
8 1471 1597 1467 1335 1600 1718 1596 1470
8 1718 1600 1496 1616 1596 1470 1360 1488
8 1336 1468 1597 1471 1472 1598 1719 1601
8 1469 1337 1473 1599 1598 1472 1602 1720
8 1722 1604 1501 1623 1600 1474 1367 1496
8 1475 1601 1471 1339 1604 1722 1600 1474
8 1602 1476 1605 1723 1472 1340 1475 1601
8 1476 1602 1724 1606 1341 1473 1603 1477
8 1483 1347 1478 1609 1612 1482 1608 1731
8 1495 1370 1504 1622 1609 1478 1608 1731
8 1618 1495 1609 1732 1494 1361 1479 1610
8 1484 1348 1479 1610 1613 1483 1609 1732
8 1486 1349 1482 1612 1614 1485 1611 1733
8 1613 1483 1612 1734 1487 1350 1486 1615
8 1489 1363 1496 1616 1617 1499 1623 1736
8 1491 1365 1499 1617 1619 1500 1626 1737
8 1618 1495 1361 1494 1738 1622 1497 1621
8 1739 1625 1498 1620 1619 1500 1366 1492
8 1621 1497 1362 1493 1740 1624 1498 1620
8 1742 1631 1504 1622 1624 1505 1371 1497
8 1743 1628 1502 1626 1623 1501 1368 1499
8 1744 1630 1505 1624 1625 1503 1372 1498
8 1745 1629 1503 1625 1626 1502 1369 1500
8 1520 1398 1528 1644 1633 1506 1632 1751
8 1637 1520 1633 1752 1512 1388 1507 1634
8 1635 1519 1643 1753 1510 1391 1522 1636
8 1657 1535 1643 1753 1534 1406 1519 1635
8 1515 1392 1522 1636 1639 1523 1646 1754
8 1517 1389 1521 1641 1637 1520 1644 1755
8 1524 1638 1756 1648 1393 1514 1639 1523
8 1640 1526 1395 1516 1756 1648 1524 1638
8 1642 1525 1396 1518 1757 1649 1526 1640
8 1758 1645 1521 1641 1642 1525 1396 1518
8 1646 1531 1400 1522 1760 1650 1527 1643
8 1535 1407 1536 1658 1643 1527 1650 1760
8 1521 1399 1529 1645 1644 1528 1651 1761
8 1647 1530 1652 1762 1525 1404 1529 1645
8 1401 1523 1648 1532 1531 1646 1763 1655
8 1525 1404 1533 1649 1647 1530 1654 1765
8 1533 1649 1766 1656 1403 1526 1648 1532
8 1662 1542 1658 1774 1539 1414 1535 1657
8 1542 1415 1543 1664 1658 1536 1659 1775
8 1660 1540 1663 1777 1538 1413 1541 1661
8 1545 1421 1548 1666 1660 1540 1663 1777
8 1662 1542 1414 1539 1778 1664 1541 1661
8 1664 1543 1416 1541 1779 1665 1544 1663
8 1548 1425 1550 1668 1663 1544 1665 1779
8 1547 1423 1549 1667 1666 1548 1668 1781
8 1670 1551 1668 1781 1553 1427 1549 1667
8 1551 1426 1552 1671 1668 1550 1669 1782
8 1670 1551 1427 1553 1784 1671 1554 1674
8 1675 1555 1672 1785 1554 1428 1552 1671
8 1678 1556 1673 1789 1558 1429 1555 1675
8 1561 1431 1558 1681 1674 1554 1675 1790
8 1794 1677 1556 1678 1680 1557 1429 1558
8 1560 1430 1559 1683 1680 1557 1679 1797
8 1561 1431 1560 1684 1681 1558 1680 1798
8 1563 1433 1564 1686 1683 1559 1682 1800
8 1684 1560 1432 1562 1801 1683 1563 1685
8 1565 1435 1566 1688 1685 1563 1686 1802
8 1566 1436 1567 1689 1686 1564 1687 1803
8 1568 1438 1569 1691 1688 1566 1689 1805
8 1569 1439 1570 1692 1689 1567 1690 1806
8 1571 1441 1572 1694 1691 1569 1692 1808
8 1442 1572 1692 1570 1573 1695 1809 1693
8 1574 1444 1575 1696 1694 1572 1695 1810
8 1614 1485 1592 1712 1699 1577 1697 1813
8 1579 1449 1577 1699 1701 1578 1698 1815
8 1615 1486 1614 1735 1702 1579 1699 1816
8 1701 1578 1700 1818 1581 1450 1580 1704
8 1582 1451 1579 1702 1705 1581 1701 1819
8 1704 1580 1703 1820 1584 1452 1583 1706
8 1705 1581 1704 1821 1585 1453 1584 1707
8 1707 1584 1706 1822 1587 1456 1586 1708
8 1710 1589 1506 1633 1824 1709 1632 1751
8 1594 1463 1589 1710 1716 1593 1709 1824
8 1752 1633 1710 1825 1634 1507 1590 1711
8 1595 1464 1590 1711 1717 1594 1710 1825
8 1830 1714 1592 1712 1733 1611 1485 1614
8 1603 1477 1593 1716 1725 1607 1715 1834
8 1599 1473 1594 1717 1721 1603 1716 1835
8 1837 1722 1623 1736 1718 1600 1496 1616
8 1719 1601 1722 1837 1597 1471 1600 1718
8 1602 1720 1598 1472 1723 1838 1719 1601
8 1720 1602 1473 1599 1839 1724 1603 1721
8 1723 1605 1726 1840 1601 1475 1604 1722
8 1840 1726 1628 1743 1722 1604 1501 1623
8 1724 1606 1727 1841 1602 1476 1605 1723
8 1725 1607 1728 1842 1603 1477 1606 1724
8 1612 1482 1608 1731 1733 1611 1730 1849
8 1741 1627 1730 1849 1622 1504 1608 1731
8 1613 1483 1609 1732 1734 1612 1731 1850
8 1618 1495 1622 1738 1732 1609 1731 1850
8 1615 1486 1612 1734 1735 1614 1733 1851
8 1852 1743 1626 1737 1736 1623 1499 1617
8 1853 1745 1625 1739 1737 1626 1500 1619
8 1855 1742 1622 1738 1740 1624 1497 1621
8 1856 1744 1624 1740 1739 1625 1498 1620
8 1741 1627 1504 1622 1857 1746 1631 1742
8 1742 1631 1505 1624 1858 1749 1630 1744
8 1859 1747 1629 1745 1743 1628 1502 1626
8 1860 1748 1630 1744 1745 1629 1503 1625
8 1644 1528 1651 1761 1751 1632 1750 1865
8 1637 1520 1644 1755 1752 1633 1751 1866
8 1754 1646 1522 1636 1867 1760 1643 1753
8 1657 1535 1658 1774 1753 1643 1760 1867
8 1639 1523 1646 1754 1756 1648 1763 1868
8 1641 1521 1645 1758 1755 1644 1761 1869
8 1757 1649 1526 1640 1870 1766 1648 1756
8 1642 1525 1649 1757 1759 1647 1765 1871
8 1759 1647 1762 1872 1642 1525 1645 1758
8 1760 1650 1767 1874 1646 1531 1655 1763
8 1658 1536 1659 1775 1760 1650 1767 1874
8 1762 1652 1768 1875 1645 1529 1651 1761
8 1764 1653 1769 1876 1647 1530 1652 1762
8 1656 1766 1877 1773 1532 1648 1763 1655
8 1771 1879 1765 1654 1653 1764 1647 1530
8 1533 1649 1765 1654 1656 1766 1880 1772
8 1662 1542 1664 1778 1774 1658 1775 1887
8 1664 1543 1665 1779 1775 1659 1776 1888
8 1778 1664 1541 1661 1890 1779 1663 1777
8 1666 1548 1668 1781 1777 1663 1779 1890
8 1782 1669 1780 1891 1668 1550 1665 1779
8 1670 1551 1671 1784 1781 1668 1782 1893
8 1671 1552 1672 1785 1782 1669 1783 1894
8 1790 1675 1785 1896 1674 1554 1671 1784
8 1675 1555 1673 1789 1785 1672 1786 1897
8 1792 1676 1788 1903 1678 1556 1673 1789
8 1795 1678 1789 1904 1681 1558 1675 1790
8 1792 1676 1556 1678 1906 1791 1677 1794
8 1680 1557 1679 1797 1794 1677 1793 1909
8 1910 1794 1678 1795 1798 1680 1558 1681
8 1683 1559 1682 1800 1797 1679 1796 1912
8 1684 1560 1683 1801 1798 1680 1797 1913
8 1686 1564 1687 1803 1800 1682 1799 1915
8 1685 1563 1686 1802 1801 1683 1800 1916
8 1688 1566 1689 1805 1802 1686 1803 1917
8 1689 1567 1690 1806 1803 1687 1804 1918
8 1691 1569 1692 1808 1805 1689 1806 1920
8 1692 1570 1693 1809 1806 1690 1807 1921
8 1694 1572 1695 1810 1808 1692 1809 1922
8 1829 1713 1811 1926 1712 1592 1697 1813
8 1813 1697 1812 1928 1699 1577 1698 1815
8 1735 1614 1712 1828 1816 1699 1813 1929
8 1815 1698 1814 1931 1701 1578 1700 1818
8 1702 1579 1699 1816 1819 1701 1815 1932
8 1818 1700 1817 1933 1704 1580 1703 1820
8 1819 1701 1818 1934 1705 1581 1704 1821
8 1821 1704 1820 1935 1707 1584 1706 1822
8 1824 1709 1632 1751 1937 1823 1750 1865
8 1716 1593 1709 1824 1834 1715 1823 1937
8 1825 1710 1633 1752 1938 1824 1751 1866
8 1717 1594 1710 1825 1835 1716 1824 1938
8 1945 1830 1712 1828 1851 1733 1614 1735
8 1830 1714 1831 1946 1712 1592 1713 1829
8 1947 1832 1714 1830 1849 1730 1611 1733
8 1843 1729 1607 1725 1950 1833 1715 1834
8 1721 1603 1716 1835 1836 1725 1834 1951
8 1836 1725 1842 1953 1721 1603 1724 1839
8 1723 1838 1719 1601 1840 1954 1837 1722
8 1954 1840 1743 1852 1837 1722 1623 1736
8 1724 1839 1720 1602 1841 1955 1838 1723
8 1841 1727 1844 1956 1723 1605 1726 1840
8 1956 1844 1747 1859 1840 1726 1628 1743
8 1728 1842 1724 1606 1845 1957 1841 1727
8 1725 1607 1729 1843 1842 1728 1846 1958
8 1741 1627 1746 1857 1849 1730 1848 1965
8 1734 1612 1731 1850 1851 1733 1849 1966
8 1854 1741 1849 1966 1738 1622 1731 1850
8 1967 1859 1745 1853 1852 1743 1626 1737
8 1968 1860 1744 1856 1853 1745 1625 1739
8 1854 1741 1622 1738 1969 1857 1742 1855
8 1855 1742 1624 1740 1970 1858 1744 1856
8 1857 1746 1631 1742 1971 1861 1749 1858
8 1858 1749 1630 1744 1972 1863 1748 1860
8 1859 1747 1862 1973 1745 1629 1748 1860
8 1875 1768 1864 1977 1761 1651 1750 1865
8 1755 1644 1761 1869 1866 1751 1865 1978
8 1867 1760 1874 1979 1754 1646 1763 1868
8 1774 1658 1775 1887 1867 1760 1874 1979
8 1870 1766 1648 1756 1980 1877 1763 1868
8 1872 1762 1875 1981 1758 1645 1761 1869
8 1757 1649 1766 1870 1871 1765 1880 1982
8 1983 1879 1764 1873 1871 1765 1647 1759
8 1873 1764 1876 1984 1759 1647 1762 1872
8 1877 1773 1655 1763 1986 1881 1767 1874
8 1775 1659 1776 1888 1874 1767 1881 1986
8 1876 1769 1882 1987 1762 1652 1768 1875
8 1878 1770 1883 1988 1764 1653 1769 1876
8 1880 1772 1656 1766 1989 1886 1773 1877
8 1878 1770 1653 1764 1990 1884 1771 1879
8 1765 1654 1772 1880 1879 1771 1885 1991
8 1778 1664 1779 1890 1887 1775 1888 1997
8 1998 1889 1776 1888 1891 1780 1665 1779
8 1893 1782 1891 2000 1781 1668 1779 1890
8 1894 1783 1892 2001 1782 1669 1780 1891
8 1784 1671 1785 1896 1893 1782 1894 2003
8 1897 1786 1895 2004 1785 1672 1783 1894
8 1790 1675 1789 1904 1896 1785 1897 2006
8 1901 1787 1898 2007 1789 1673 1786 1897
8 1903 1788 1900 2013 1789 1673 1787 1901
8 1792 1676 1791 1906 1903 1788 1902 2016
8 1907 1792 1903 2017 1795 1678 1789 1904
8 1906 1791 1677 1794 2019 1905 1793 1909
8 1907 1792 1678 1795 2020 1906 1794 1910
8 1797 1679 1796 1912 1909 1793 1908 2022
8 1798 1680 1797 1913 1910 1794 1909 2023
8 1800 1682 1799 1915 1912 1796 1911 2025
8 1801 1683 1800 1916 1913 1797 1912 2026
8 1803 1687 1804 1918 1915 1799 1914 2028
8 1802 1686 1803 1917 1916 1800 1915 2029
8 1805 1689 1806 1920 1917 1803 1918 2030
8 1806 1690 1807 1921 1918 1804 1919 2031
8 1808 1692 1809 1922 1920 1806 1921 2032
8 1939 1826 1924 2037 1829 1713 1811 1926
8 1926 1811 1925 2039 1813 1697 1812 1928
8 1944 1829 1926 2040 1828 1712 1813 1929
8 1928 1812 1927 2042 1815 1698 1814 1931
8 1929 1813 1928 2043 1816 1699 1815 1932
8 1931 1814 1930 2044 1818 1700 1817 1933
8 1932 1815 1931 2045 1819 1701 1818 1934
8 1934 1818 1933 2046 1821 1704 1820 1935
8 2048 1936 1823 1937 1977 1864 1750 1865
8 1950 1833 1715 1834 2048 1936 1823 1937
8 1938 1824 1751 1866 2049 1937 1865 1978
8 1835 1716 1824 1938 1951 1834 1937 2049
8 1939 1826 1713 1829 2053 1942 1831 1946
8 1940 1827 1923 2035 2053 1942 1826 1939
8 1945 1830 1946 2058 1828 1712 1829 1944
8 2059 1947 1830 1945 1966 1849 1733 1851
8 1947 1832 1730 1849 2060 1948 1848 1965
8 1947 1832 1948 2060 1830 1714 1831 1946
8 1959 1847 1729 1843 2063 1949 1833 1950
8 1952 1843 1725 1836 2064 1950 1834 1951
8 1836 1725 1843 1952 1953 1842 1958 2066
8 1953 1842 1957 2067 1839 1724 1841 1955
8 1841 1955 1838 1723 1956 2068 1954 1840
8 2068 1956 1859 1967 1954 1840 1743 1852
8 1956 1844 1960 2069 1859 1747 1862 1973
8 1845 1957 1841 1727 1960 2069 1956 1844
8 1728 1842 1957 1845 1846 1958 2071 1961
8 1962 2072 1959 1847 1846 1958 1843 1729
8 1971 1861 1964 2077 1857 1746 1848 1965
8 1854 1741 1857 1969 1966 1849 1965 2078
8 1967 1859 1973 2079 1853 1745 1860 1968
8 1970 1858 1744 1856 2080 1972 1860 1968
8 1969 1857 1742 1855 2081 1971 1858 1970
8 1971 1861 1749 1858 2082 1974 1863 1972
8 1973 1862 1975 2083 1860 1748 1863 1972
8 1987 1882 1976 2086 1875 1768 1864 1977
8 1981 1875 1977 2087 1869 1761 1865 1978
8 1980 1877 1763 1868 2088 1986 1874 1979
8 1887 1775 1888 1997 1979 1874 1986 2088
8 1880 1982 2089 1989 1766 1870 1980 1877
8 1984 1876 1987 2090 1872 1762 1875 1981
8 1765 1871 1983 1879 1880 1982 2091 1991
8 1985 1878 1764 1873 2092 1990 1879 1983
8 1985 1878 1988 2093 1873 1764 1876 1984
8 2094 1992 1881 1986 1998 1889 1776 1888
8 1986 1881 1992 2094 1877 1773 1886 1989
8 1988 1883 1993 2095 1876 1769 1882 1987
8 1878 1770 1884 1990 1988 1883 1994 2096
8 1991 1885 1772 1880 2097 1996 1886 1989
8 1879 1771 1885 1991 1990 1884 1995 2098
8 2103 1998 1888 1997 2000 1891 1779 1890
8 2104 1999 1889 1998 2001 1892 1780 1891
8 2003 1894 2001 2106 1893 1782 1891 2000
8 2004 1895 2002 2107 1894 1783 1892 2001
8 2006 1897 2004 2109 1896 1785 1894 2003
8 2007 1898 2005 2110 1897 1786 1895 2004
8 2014 1901 2007 2112 1904 1789 1897 2006
8 2011 1899 2008 2113 1901 1787 1898 2007
8 2119 2010 1899 2011 2013 1900 1787 1901
8 2016 1902 2012 2122 1903 1788 1900 2013
8 2017 1903 2013 2123 1904 1789 1901 2014
8 1906 1791 1905 2019 2016 1902 2015 2125
8 1907 1792 1906 2020 2017 1903 2016 2126
8 1909 1793 1908 2022 2019 1905 2018 2128
8 2020 1906 1794 1910 2129 2019 1909 2023
8 1912 1796 1911 2025 2022 1908 2021 2131
8 1913 1797 1912 2026 2023 1909 2022 2132
8 1915 1799 1914 2028 2025 1911 2024 2134
8 1916 1800 1915 2029 2026 1912 2025 2135
8 1918 1804 1919 2031 2028 1914 2027 2136
8 1917 1803 1918 2030 2029 1915 2028 2137
8 1920 1806 1921 2032 2030 1918 2031 2138
8 1940 1827 1941 2054 2035 1923 2033 2140
8 2035 1923 2034 2143 1939 1826 1924 2037
8 2037 1924 2036 2146 1926 1811 1925 2039
8 2051 1939 2037 2147 1944 1829 1926 2040
8 2039 1925 2038 2149 1928 1812 1927 2042
8 2040 1926 2039 2150 1929 1813 1928 2043
8 2042 1927 2041 2151 1931 1814 1930 2044
8 2043 1928 2042 2152 1932 1815 1931 2045
8 2045 1931 2044 2153 1934 1818 1933 2046
8 2155 2047 1936 2048 2086 1976 1864 1977
8 2063 1949 1833 1950 2155 2047 1936 2048
8 2156 2048 1937 2049 2087 1977 1865 1978
8 2064 1950 1834 1951 2156 2048 1937 2049
8 2051 1939 1829 1944 2160 2053 1946 2058
8 2052 1940 2035 2144 2160 2053 1939 2051
8 2053 1942 1831 1946 2163 2057 1948 2060
8 2055 1943 1827 1940 2163 2057 1942 2053
8 2055 1943 2056 2164 1940 1827 1941 2054
8 2059 1947 1849 1966 2167 2060 1965 2078
8 2059 1947 2060 2167 1945 1830 1946 2058
8 2077 1964 2061 2168 1965 1848 1948 2060
8 2070 1963 1847 1959 2170 2062 1949 2063
8 2065 1959 1843 1952 2171 2063 1950 2064
8 2173 2072 1958 2066 2065 1959 1843 1952
8 1953 1842 1958 2066 2067 1957 2071 2174
8 2068 1956 2069 2175 1967 1859 1973 2079
8 2067 1957 2069 2175 1955 1841 1956 2068
8 1845 1957 2069 1960 1961 2071 2176 2073
8 2069 1960 2073 2176 1973 1862 1975 2083
8 2070 1963 2075 2177 1959 1847 1962 2072
8 1846 1958 2071 1961 1962 2072 2178 2074
8 2077 1964 1861 1971 2182 2076 1974 2082
8 2081 1971 2077 2183 1969 1857 1965 2078
8 2079 1973 2083 2184 1968 1860 1972 2080
8 2081 1971 1858 1970 2185 2082 1972 2080
8 2083 1975 2084 2186 1972 1863 1974 2082
8 2086 1976 1882 1987 2189 2085 1993 2095
8 2090 1987 2086 2190 1981 1875 1977 2087
8 2191 2094 1986 2088 2103 1998 1888 1997
8 2088 1986 2094 2191 1980 1877 1989 2089
8 1991 2091 2192 2097 1880 1982 2089 1989
8 2093 1988 2095 2193 1984 1876 1987 2090
8 1879 1983 2092 1990 1991 2091 2194 2098
8 1985 1878 1990 2092 2093 1988 2096 2195
8 2097 1996 1886 1989 2196 2099 1992 2094
8 2196 2099 1992 2094 2104 1999 1889 1998
8 1994 2096 1988 1883 2100 2197 2095 1993
8 2096 1994 1884 1990 2198 2101 1995 2098
8 1995 2098 2199 2102 1885 1991 2097 1996
8 2203 2104 1998 2103 2106 2001 1891 2000
8 2107 2002 2105 2204 2001 1892 1999 2104
8 2109 2004 2107 2206 2003 1894 2001 2106
8 2110 2005 2108 2207 2004 1895 2002 2107
8 2112 2007 2110 2209 2006 1897 2004 2109
8 2113 2008 2111 2210 2007 1898 2005 2110
8 2120 2011 2113 2212 2014 1901 2007 2112
8 2117 2009 2114 2213 2011 1899 2008 2113
8 2219 2116 2009 2117 2119 2010 1899 2011
8 2222 2118 2010 2119 2122 2012 1900 2013
8 2223 2119 2011 2120 2123 2013 1901 2014
8 2016 1902 2015 2125 2122 2012 2121 2225
8 2126 2016 2122 2226 2017 1903 2013 2123
8 2019 1905 2018 2128 2125 2015 2124 2228
8 2020 1906 2019 2129 2126 2016 2125 2229
8 2022 1908 2021 2131 2128 2018 2127 2231
8 2023 1909 2022 2132 2129 2019 2128 2232
8 2025 1911 2024 2134 2131 2021 2130 2234
8 2026 1912 2025 2135 2132 2022 2131 2235
8 1914 2028 2134 2024 2027 2136 2236 2133
8 2029 1915 2028 2137 2135 2025 2134 2237
8 2030 1918 2031 2138 2137 2028 2136 2238
8 2157 2050 2139 2240 2054 1941 2033 2140
8 2052 1940 2054 2161 2144 2035 2140 2242
8 2140 2033 2141 2243 2035 1923 2034 2143
8 2143 2034 2142 2246 2037 1924 2036 2146
8 2144 2035 2143 2247 2051 1939 2037 2147
8 2146 2036 2145 2249 2039 1925 2038 2149
8 2147 2037 2146 2250 2040 1926 2039 2150
8 2149 2038 2148 2251 2042 1927 2041 2151
8 2150 2039 2149 2252 2043 1928 2042 2152
8 2152 2042 2151 2253 2045 1931 2044 2153
8 2255 2154 2047 2155 2189 2085 1976 2086
8 2170 2062 1949 2063 2255 2154 2047 2155
8 2256 2155 2048 2156 2190 2086 1977 2087
8 2171 2063 1950 2064 2256 2155 2048 2156
8 2258 2159 2050 2157 2164 2056 1941 2054
8 2160 2053 1946 2058 2262 2163 2060 2167
8 2162 2055 1940 2052 2262 2163 2053 2160
8 2162 2055 2164 2263 2052 1940 2054 2161
8 2163 2057 1948 2060 2264 2165 2061 2168
8 2055 1943 2057 2163 2164 2056 2165 2264
8 2182 2076 2166 2268 2077 1964 2061 2168
8 2183 2077 2168 2269 2078 1965 2060 2167
8 2070 1963 2062 2170 2177 2075 2169 2271
8 2172 2070 1959 2065 2272 2170 2063 2171
8 2172 2070 2177 2273 2065 1959 2072 2173
8 2066 1958 2072 2173 2174 2071 2178 2274
8 2067 1957 2071 2174 2175 2069 2176 2275
8 2175 2069 2176 2275 2079 1973 2083 2184
8 2071 1961 2074 2178 2176 2073 2179 2276
8 2176 2073 2179 2276 2083 1975 2084 2186
8 2072 1962 2075 2177 2178 2074 2180 2277
8 2182 2076 1974 2082 2280 2181 2084 2186
8 2183 2077 1971 2081 2281 2182 2082 2185
8 2184 2083 2186 2282 2080 1972 2082 2185
8 2189 2085 1993 2095 2285 2188 2100 2197
8 2190 2086 1987 2090 2286 2189 2095 2193
8 2192 2097 1989 2089 2287 2196 2094 2191
8 2287 2196 2094 2191 2203 2104 1998 2103
8 2194 2098 1991 2091 2288 2199 2097 2192
8 2195 2096 2197 2289 2093 1988 2095 2193
8 2096 2195 2290 2198 1990 2092 2194 2098
8 2097 1996 2099 2196 2199 2102 2200 2291
8 2196 2099 1999 2104 2291 2200 2105 2204
8 2100 2197 2292 2201 1994 2096 2198 2101
8 1995 2098 2198 2101 2102 2199 2293 2202
8 2206 2107 2204 2296 2106 2001 2104 2203
8 2207 2108 2205 2297 2107 2002 2105 2204
8 2209 2110 2207 2299 2109 2004 2107 2206
8 2210 2111 2208 2300 2110 2005 2108 2207
8 2212 2113 2210 2302 2112 2007 2110 2209
8 2213 2114 2211 2303 2113 2008 2111 2210
8 2220 2117 2213 2305 2120 2011 2113 2212
8 2216 2115 2214 2306 2117 2009 2114 2213
8 2216 2115 2009 2117 2311 2217 2116 2219
8 2219 2116 2010 2119 2314 2218 2118 2222
8 2315 2219 2117 2220 2223 2119 2011 2120
8 2122 2012 2121 2225 2222 2118 2221 2317
8 2318 2222 2119 2223 2226 2122 2013 2123
8 2125 2015 2124 2228 2225 2121 2224 2320
8 2126 2016 2125 2229 2226 2122 2225 2321
8 2128 2018 2127 2231 2228 2124 2227 2323
8 2129 2019 2128 2232 2229 2125 2228 2324
8 2131 2021 2130 2234 2231 2127 2230 2326
8 2132 2022 2131 2235 2232 2128 2231 2327
8 2134 2024 2133 2236 2234 2130 2233 2328
8 2135 2025 2134 2237 2235 2131 2234 2329
8 2137 2028 2136 2238 2237 2134 2236 2330
8 2157 2050 2158 2259 2240 2139 2239 2332
8 2257 2157 2240 2334 2161 2054 2140 2242
8 2240 2139 2241 2335 2140 2033 2141 2243
8 2242 2140 2243 2337 2144 2035 2143 2247
8 2243 2141 2244 2338 2143 2034 2142 2246
8 2246 2142 2245 2341 2146 2036 2145 2249
8 2247 2143 2246 2342 2147 2037 2146 2250
8 2249 2145 2248 2343 2149 2038 2148 2251
8 2250 2146 2249 2344 2150 2039 2149 2252
8 2252 2149 2251 2345 2152 2042 2151 2253
8 2169 2271 2347 2254 2062 2170 2255 2154
8 2189 2085 2188 2285 2255 2154 2254 2347
8 2348 2255 2155 2256 2286 2189 2086 2190
8 2272 2170 2063 2171 2348 2255 2155 2256
8 2349 2258 2157 2257 2263 2164 2054 2161
8 2258 2159 2261 2351 2157 2050 2158 2259
8 2258 2159 2056 2164 2351 2261 2165 2264
8 2262 2163 2060 2167 2355 2264 2168 2269
8 2162 2055 2163 2262 2263 2164 2264 2355
8 2357 2266 2165 2264 2268 2166 2061 2168
8 2268 2166 2076 2182 2361 2267 2181 2280
8 2281 2182 2268 2362 2183 2077 2168 2269
8 2271 2169 2270 2364 2177 2075 2180 2277
8 2172 2070 2170 2272 2273 2177 2271 2365
8 2072 2173 2274 2178 2177 2273 2366 2277
8 2071 2174 2275 2176 2178 2274 2367 2276
8 2275 2176 2276 2367 2184 2083 2186 2282
8 2283 2187 2084 2186 2368 2278 2179 2276
8 2178 2074 2180 2277 2276 2179 2278 2368
8 2283 2187 2279 2370 2186 2084 2181 2280
8 2281 2182 2082 2185 2371 2280 2186 2282
8 2188 2285 2374 2284 2100 2197 2292 2201
8 2286 2189 2095 2193 2375 2285 2197 2289
8 2192 2097 2196 2287 2288 2199 2291 2376
8 2287 2196 2104 2203 2376 2291 2204 2296
8 2194 2098 2199 2288 2290 2198 2293 2377
8 2289 2197 2096 2195 2378 2292 2198 2290
8 2291 2200 2105 2204 2379 2294 2205 2297
8 2199 2102 2200 2291 2293 2202 2294 2379
8 2198 2101 2202 2293 2292 2201 2295 2380
8 2299 2207 2297 2383 2206 2107 2204 2296
8 2300 2208 2298 2384 2207 2108 2205 2297
8 2302 2210 2300 2386 2209 2110 2207 2299
8 2303 2211 2301 2387 2210 2111 2208 2300
8 2305 2213 2303 2389 2212 2113 2210 2302
8 2306 2214 2304 2390 2213 2114 2211 2303
8 2310 2216 2306 2392 2220 2117 2213 2305
8 2308 2215 2307 2393 2216 2115 2214 2306
8 2308 2215 2115 2216 2396 2309 2217 2311
8 2310 2216 2117 2220 2398 2311 2219 2315
8 2311 2217 2116 2219 2399 2312 2218 2314
8 2314 2218 2118 2222 2402 2313 2221 2317
8 2315 2219 2119 2223 2403 2314 2222 2318
8 2225 2121 2224 2320 2317 2221 2316 2405
8 2226 2122 2225 2321 2318 2222 2317 2406
8 2228 2124 2227 2323 2320 2224 2319 2408
8 2229 2125 2228 2324 2321 2225 2320 2409
8 2231 2127 2230 2326 2323 2227 2322 2411
8 2232 2128 2231 2327 2324 2228 2323 2412
8 2234 2130 2233 2328 2326 2230 2325 2413
8 2235 2131 2234 2329 2327 2231 2326 2414
8 2237 2134 2236 2330 2329 2234 2328 2415
8 2259 2158 2260 2352 2332 2239 2331 2417
8 2257 2157 2259 2350 2334 2240 2332 2419
8 2240 2139 2239 2332 2335 2241 2333 2420
8 2334 2240 2335 2422 2242 2140 2243 2337
8 2335 2241 2336 2423 2243 2141 2244 2338
8 2337 2243 2338 2425 2247 2143 2246 2342
8 2338 2244 2339 2426 2246 2142 2245 2341
8 2341 2245 2340 2428 2249 2145 2248 2343
8 2342 2246 2341 2429 2250 2146 2249 2344
8 2344 2249 2343 2430 2252 2149 2251 2345
8 2188 2285 2347 2254 2284 2374 2432 2346
8 2347 2254 2346 2432 2271 2169 2270 2364
8 2365 2271 2170 2272 2433 2347 2255 2348
8 2286 2189 2285 2375 2348 2255 2347 2433
8 2349 2258 2351 2435 2257 2157 2259 2350
8 2349 2258 2164 2263 2435 2351 2264 2355
8 2259 2158 2261 2351 2352 2260 2354 2437
8 2356 2265 2354 2437 2264 2165 2261 2351
8 2441 2357 2264 2355 2362 2268 2168 2269
8 2356 2265 2165 2264 2442 2358 2266 2357
8 2443 2359 2266 2357 2361 2267 2166 2268
8 2370 2279 2360 2446 2280 2181 2267 2361
8 2362 2268 2182 2281 2447 2361 2280 2371
8 2180 2277 2368 2278 2270 2364 2449 2363
8 2271 2365 2273 2177 2364 2450 2366 2277
8 2372 2283 2186 2282 2451 2368 2276 2367
8 2178 2274 2367 2276 2277 2366 2451 2368
8 2283 2187 2278 2368 2370 2279 2369 2452
8 2372 2283 2370 2453 2282 2186 2280 2371
8 2284 2374 2455 2373 2201 2292 2380 2295
8 2375 2285 2197 2289 2456 2374 2292 2378
8 2376 2291 2204 2296 2457 2379 2297 2383
8 2288 2199 2291 2376 2377 2293 2379 2457
8 2198 2290 2378 2292 2293 2377 2458 2380
8 2293 2202 2294 2379 2380 2295 2381 2459
8 2384 2298 2381 2459 2297 2205 2294 2379
8 2386 2300 2384 2463 2299 2207 2297 2383
8 2387 2301 2385 2464 2300 2208 2298 2384
8 2389 2303 2387 2466 2302 2210 2300 2386
8 2390 2304 2388 2467 2303 2211 2301 2387
8 2392 2306 2390 2469 2305 2213 2303 2389
8 2393 2307 2391 2470 2306 2214 2304 2390
8 2395 2308 2393 2472 2310 2216 2306 2392
8 2308 2215 2309 2396 2393 2307 2394 2473
8 2395 2308 2216 2310 2475 2396 2311 2398
8 2396 2309 2217 2311 2476 2397 2312 2399
8 2398 2311 2219 2315 2478 2399 2314 2403
8 2399 2312 2218 2314 2479 2400 2313 2402
8 2317 2221 2316 2405 2402 2313 2401 2482
8 2403 2314 2222 2318 2483 2402 2317 2406
8 2320 2224 2319 2408 2405 2316 2404 2485
8 2321 2225 2320 2409 2406 2317 2405 2486
8 2323 2227 2322 2411 2408 2319 2407 2488
8 2324 2228 2323 2412 2409 2320 2408 2489
8 2326 2230 2325 2413 2411 2322 2410 2490
8 2327 2231 2326 2414 2412 2323 2411 2491
8 2329 2234 2328 2415 2414 2326 2413 2492
8 2417 2331 2260 2352 2494 2416 2353 2438
8 2350 2259 2352 2436 2419 2332 2417 2496
8 2332 2239 2331 2417 2420 2333 2418 2497
8 2334 2240 2332 2419 2422 2335 2420 2499
8 2420 2333 2421 2500 2335 2241 2336 2423
8 2422 2335 2423 2502 2337 2243 2338 2425
8 2423 2336 2424 2503 2338 2244 2339 2426
8 2425 2338 2426 2505 2342 2246 2341 2429
8 2426 2339 2427 2506 2341 2245 2340 2428
8 2429 2341 2428 2507 2344 2249 2343 2430
8 2432 2346 2284 2374 2509 2431 2373 2455
8 2432 2346 2431 2509 2364 2270 2363 2449
8 2375 2285 2374 2456 2433 2347 2432 2510
8 2347 2433 2365 2271 2432 2510 2450 2364
8 2350 2259 2351 2435 2436 2352 2437 2514
8 2440 2356 2437 2514 2355 2264 2351 2435
8 2352 2260 2354 2437 2438 2353 2439 2516
8 2356 2265 2358 2442 2437 2354 2439 2516
8 2440 2356 2264 2355 2518 2442 2357 2441
8 2519 2443 2357 2441 2447 2361 2268 2362
8 2443 2359 2444 2520 2357 2266 2358 2442
8 2443 2359 2267 2361 2520 2444 2360 2446
8 2446 2360 2279 2370 2523 2445 2369 2452
8 2453 2370 2446 2524 2371 2280 2361 2447
8 2449 2363 2448 2525 2368 2278 2369 2452
8 2366 2277 2364 2450 2451 2368 2449 2526
8 2372 2283 2368 2451 2453 2370 2452 2527
8 2455 2373 2295 2380 2529 2454 2382 2460
8 2456 2374 2292 2378 2530 2455 2380 2458
8 2377 2293 2379 2457 2458 2380 2459 2531
8 2463 2384 2459 2531 2383 2297 2379 2457
8 2533 2461 2382 2460 2459 2381 2295 2380
8 2464 2385 2461 2533 2384 2298 2381 2459
8 2466 2387 2464 2537 2386 2300 2384 2463
8 2467 2388 2465 2538 2387 2301 2385 2464
8 2469 2390 2467 2540 2389 2303 2387 2466
8 2470 2391 2468 2541 2390 2304 2388 2467
8 2472 2393 2470 2543 2392 2306 2390 2469
8 2393 2307 2394 2473 2470 2391 2471 2544
8 2395 2308 2396 2475 2472 2393 2473 2546
8 2396 2309 2397 2476 2473 2394 2474 2547
8 2475 2396 2311 2398 2549 2476 2399 2478
8 2476 2397 2312 2399 2550 2477 2400 2479
8 2478 2399 2314 2403 2552 2479 2402 2483
8 2479 2400 2313 2402 2553 2480 2401 2482
8 2405 2316 2404 2485 2482 2401 2481 2556
8 2406 2317 2405 2486 2483 2402 2482 2557
8 2408 2319 2407 2488 2485 2404 2484 2559
8 2409 2320 2408 2489 2486 2405 2485 2560
8 2411 2322 2410 2490 2488 2407 2487 2561
8 2412 2323 2411 2491 2489 2408 2488 2562
8 2414 2326 2413 2492 2491 2411 2490 2563
8 2513 2434 2493 2565 2438 2353 2416 2494
8 2496 2417 2352 2436 2567 2494 2438 2515
8 2494 2416 2495 2568 2417 2331 2418 2497
8 2419 2332 2417 2496 2499 2420 2497 2570
8 2497 2418 2498 2571 2420 2333 2421 2500
8 2499 2420 2500 2573 2422 2335 2423 2502
8 2500 2421 2501 2574 2423 2336 2424 2503
8 2502 2423 2503 2576 2425 2338 2426 2505
8 2503 2424 2504 2577 2426 2339 2427 2506
8 2505 2426 2506 2578 2429 2341 2428 2507
8 2509 2431 2373 2455 2580 2508 2454 2529
8 2509 2431 2508 2580 2449 2363 2448 2525
8 2432 2510 2581 2509 2374 2456 2530 2455
8 2432 2510 2450 2364 2509 2581 2526 2449
8 2583 2511 2434 2513 2516 2439 2353 2438
8 2436 2352 2437 2514 2515 2438 2516 2588
8 2440 2356 2442 2518 2514 2437 2516 2588
8 2442 2358 2444 2520 2516 2439 2517 2589
8 2519 2443 2520 2591 2441 2357 2442 2518
8 2519 2443 2361 2447 2591 2520 2446 2524
8 2446 2360 2445 2523 2520 2444 2521 2592
8 2525 2448 2522 2593 2452 2369 2445 2523
8 2524 2446 2370 2453 2594 2523 2452 2527
8 2526 2449 2525 2595 2451 2368 2452 2527
8 2534 2462 2528 2597 2460 2382 2454 2529
8 2530 2455 2380 2458 2598 2529 2460 2532
8 2599 2533 2460 2532 2531 2459 2380 2458
8 2537 2464 2533 2599 2463 2384 2459 2531
8 2534 2462 2382 2460 2601 2535 2461 2533
8 2538 2465 2535 2601 2464 2385 2461 2533
8 2540 2467 2538 2604 2466 2387 2464 2537
8 2541 2468 2539 2605 2467 2388 2465 2538
8 2543 2470 2541 2607 2469 2390 2467 2540
8 2470 2391 2471 2544 2541 2468 2542 2608
8 2472 2393 2473 2546 2543 2470 2544 2610
8 2473 2394 2474 2547 2544 2471 2545 2611
8 2475 2396 2476 2549 2546 2473 2547 2613
8 2476 2397 2477 2550 2547 2474 2548 2614
8 2549 2476 2399 2478 2616 2550 2479 2552
8 2479 2400 2480 2553 2550 2477 2551 2617
8 2552 2479 2402 2483 2619 2553 2482 2557
8 2482 2401 2481 2556 2553 2480 2554 2620
8 2485 2404 2484 2559 2556 2481 2555 2623
8 2486 2405 2485 2560 2557 2482 2556 2624
8 2488 2407 2487 2561 2559 2484 2558 2625
8 2489 2408 2488 2562 2560 2485 2559 2626
8 2491 2411 2490 2563 2562 2488 2561 2627
8 2513 2434 2512 2585 2565 2493 2564 2630
8 2586 2513 2565 2632 2515 2438 2494 2567
8 2565 2493 2566 2633 2494 2416 2495 2568
8 2567 2494 2568 2635 2496 2417 2497 2570
8 2568 2495 2569 2636 2497 2418 2498 2571
8 2570 2497 2571 2638 2499 2420 2500 2573
8 2571 2498 2572 2639 2500 2421 2501 2574
8 2573 2500 2574 2641 2502 2423 2503 2576
8 2574 2501 2575 2642 2503 2424 2504 2577
8 2576 2503 2577 2643 2505 2426 2506 2578
8 2597 2528 2579 2645 2529 2454 2508 2580
8 2580 2508 2579 2645 2525 2448 2522 2593
8 2581 2509 2455 2530 2646 2580 2529 2598
8 2581 2509 2580 2646 2526 2449 2525 2595
8 2583 2511 2582 2648 2513 2434 2512 2585
8 2583 2511 2439 2516 2648 2582 2517 2589
8 2649 2583 2513 2586 2588 2516 2438 2515
8 2589 2517 2444 2520 2653 2587 2521 2592
8 2518 2442 2520 2591 2588 2516 2589 2654
8 2593 2522 2590 2655 2523 2445 2521 2592
8 2524 2446 2523 2594 2591 2520 2592 2656
8 2595 2525 2593 2657 2527 2452 2523 2594
8 2602 2536 2596 2659 2534 2462 2528 2597
8 2600 2534 2597 2660 2532 2460 2529 2598
8 2600 2534 2460 2532 2661 2601 2533 2599
8 2604 2538 2601 2661 2537 2464 2533 2599
8 2602 2536 2462 2534 2663 2603 2535 2601
8 2601 2535 2465 2538 2663 2603 2539 2605
8 2607 2541 2605 2665 2540 2467 2538 2604
8 2608 2542 2606 2666 2541 2468 2539 2605
8 2543 2470 2544 2610 2607 2541 2608 2668
8 2544 2471 2545 2611 2608 2542 2609 2669
8 2546 2473 2547 2613 2610 2544 2611 2671
8 2547 2474 2548 2614 2611 2545 2612 2672
8 2549 2476 2550 2616 2613 2547 2614 2674
8 2550 2477 2551 2617 2614 2548 2615 2675
8 2552 2479 2553 2619 2616 2550 2617 2677
8 2553 2480 2554 2620 2617 2551 2618 2678
8 2557 2482 2556 2624 2619 2553 2620 2680
8 2556 2481 2555 2623 2620 2554 2621 2681
8 2559 2484 2558 2625 2623 2555 2622 2683
8 2560 2485 2559 2626 2624 2556 2623 2684
8 2562 2488 2561 2627 2626 2559 2625 2685
8 2690 2629 2564 2630 2650 2584 2512 2585
8 2586 2513 2585 2651 2632 2565 2630 2691
8 2630 2564 2631 2692 2565 2493 2566 2633
8 2632 2565 2633 2694 2567 2494 2568 2635
8 2633 2566 2634 2695 2568 2495 2569 2636
8 2635 2568 2636 2697 2570 2497 2571 2638
8 2636 2569 2637 2698 2571 2498 2572 2639
8 2638 2571 2639 2700 2573 2500 2574 2641
8 2639 2572 2640 2701 2574 2501 2575 2642
8 2641 2574 2642 2702 2576 2503 2577 2643
8 2597 2528 2596 2659 2645 2579 2644 2704
8 2645 2579 2644 2704 2593 2522 2590 2655
8 2660 2597 2645 2705 2598 2529 2580 2646
8 2646 2580 2645 2705 2595 2525 2593 2657
8 2650 2584 2512 2585 2707 2647 2582 2648
8 2648 2582 2517 2589 2707 2647 2587 2653
8 2649 2583 2648 2708 2586 2513 2585 2651
8 2649 2583 2516 2588 2708 2648 2589 2654
8 2655 2590 2652 2710 2592 2521 2587 2653
8 2654 2589 2520 2591 2711 2653 2592 2656
8 2657 2593 2655 2712 2594 2523 2592 2656
8 2602 2536 2603 2663 2659 2596 2658 2714
8 2662 2602 2659 2715 2600 2534 2597 2660
8 2662 2602 2534 2600 2717 2663 2601 2661
8 2661 2601 2538 2604 2717 2663 2605 2665
8 2666 2606 2664 2718 2605 2539 2603 2663
8 2668 2608 2666 2720 2607 2541 2605 2665
8 2608 2542 2609 2669 2666 2606 2667 2721
8 2610 2544 2611 2671 2668 2608 2669 2723
8 2611 2545 2612 2672 2669 2609 2670 2724
8 2613 2547 2614 2674 2671 2611 2672 2726
8 2614 2548 2615 2675 2672 2612 2673 2727
8 2616 2550 2617 2677 2674 2614 2675 2729
8 2617 2551 2618 2678 2675 2615 2676 2730
8 2619 2553 2620 2680 2677 2617 2678 2732
8 2620 2554 2621 2681 2678 2618 2679 2733
8 2624 2556 2623 2684 2680 2620 2681 2735
8 2681 2621 2555 2623 2736 2682 2622 2683
8 2626 2559 2625 2685 2684 2623 2683 2737
8 2688 2628 2584 2650 2740 2686 2647 2707
8 2688 2628 2687 2742 2650 2584 2629 2690
8 2690 2629 2689 2745 2630 2564 2631 2692
8 2746 2690 2630 2691 2709 2650 2585 2651
8 2691 2630 2692 2747 2632 2565 2633 2694
8 2692 2631 2693 2748 2633 2566 2634 2695
8 2694 2633 2695 2750 2635 2568 2636 2697
8 2695 2634 2696 2751 2636 2569 2637 2698
8 2697 2636 2698 2753 2638 2571 2639 2700
8 2698 2637 2699 2754 2639 2572 2640 2701
8 2700 2639 2701 2755 2641 2574 2642 2702
8 2659 2596 2658 2714 2704 2644 2703 2757
8 2704 2644 2703 2757 2655 2590 2652 2710
8 2660 2597 2659 2715 2705 2645 2704 2758
8 2705 2645 2704 2758 2657 2593 2655 2712
8 2759 2706 2647 2707 2710 2652 2587 2653
8 2709 2650 2585 2651 2760 2707 2648 2708
8 2708 2648 2589 2654 2760 2707 2653 2711
8 2712 2655 2710 2761 2656 2592 2653 2711
8 2763 2713 2658 2714 2718 2664 2603 2663
8 2662 2602 2663 2717 2715 2659 2714 2764
8 2720 2666 2718 2767 2665 2605 2663 2717
8 2768 2719 2664 2718 2721 2667 2606 2666
8 2668 2608 2669 2723 2720 2666 2721 2770
8 2669 2609 2670 2724 2721 2667 2722 2771
8 2671 2611 2672 2726 2723 2669 2724 2773
8 2672 2612 2673 2727 2724 2670 2725 2774
8 2674 2614 2675 2729 2726 2672 2727 2776
8 2675 2615 2676 2730 2727 2673 2728 2777
8 2677 2617 2678 2732 2729 2675 2730 2779
8 2678 2618 2679 2733 2730 2676 2731 2780
8 2680 2620 2681 2735 2732 2678 2733 2782
8 2733 2679 2621 2681 2783 2734 2682 2736
8 2735 2681 2623 2684 2784 2736 2683 2737
8 2740 2686 2647 2707 2787 2738 2706 2759
8 2688 2628 2686 2740 2742 2687 2739 2789
8 2743 2688 2650 2709 2790 2740 2707 2760
8 2742 2687 2741 2792 2690 2629 2689 2745
8 2743 2688 2742 2793 2709 2650 2690 2746
8 2745 2689 2744 2795 2692 2631 2693 2748
8 2746 2690 2745 2796 2691 2630 2692 2747
8 2747 2692 2748 2797 2694 2633 2695 2750
8 2748 2693 2749 2798 2695 2634 2696 2751
8 2750 2695 2751 2800 2697 2636 2698 2753
8 2751 2696 2752 2801 2698 2637 2699 2754
8 2753 2698 2754 2802 2700 2639 2701 2755
8 2763 2713 2756 2804 2714 2658 2703 2757
8 2759 2706 2652 2710 2804 2756 2703 2757
8 2715 2659 2714 2764 2758 2704 2757 2805
8 2758 2704 2757 2805 2712 2655 2710 2761
8 2806 2759 2707 2760 2761 2710 2653 2711
8 2765 2716 2762 2808 2718 2664 2713 2763
8 2809 2763 2714 2764 2767 2718 2663 2717
8 2765 2716 2664 2718 2811 2766 2719 2768
8 2813 2768 2718 2767 2770 2721 2666 2720
8 2814 2769 2719 2768 2771 2722 2667 2721
8 2723 2669 2724 2773 2770 2721 2771 2816
8 2724 2670 2725 2774 2771 2722 2772 2817
8 2726 2672 2727 2776 2773 2724 2774 2819
8 2727 2673 2728 2777 2774 2725 2775 2820
8 2729 2675 2730 2779 2776 2727 2777 2822
8 2730 2676 2731 2780 2777 2728 2778 2823
8 2732 2678 2733 2782 2779 2730 2780 2825
8 2780 2731 2679 2733 2826 2781 2734 2783
8 2782 2733 2681 2735 2827 2783 2736 2784
8 2830 2785 2738 2787 2804 2756 2706 2759
8 2789 2739 2686 2740 2832 2786 2738 2787
8 2790 2740 2707 2760 2833 2787 2759 2806
8 2742 2687 2739 2789 2792 2741 2788 2835
8 2743 2688 2740 2790 2793 2742 2789 2836
8 2792 2741 2791 2838 2745 2689 2744 2795
8 2793 2742 2792 2839 2746 2690 2745 2796
8 2795 2744 2794 2841 2748 2693 2749 2798
8 2796 2745 2795 2842 2747 2692 2748 2797
8 2797 2748 2798 2843 2750 2695 2751 2800
8 2798 2749 2799 2844 2751 2696 2752 2801
8 2800 2751 2801 2845 2753 2698 2754 2802
8 2808 2762 2803 2847 2763 2713 2756 2804
8 2809 2763 2804 2848 2764 2714 2757 2805
8 2806 2759 2710 2761 2848 2804 2757 2805
8 2765 2716 2766 2811 2808 2762 2807 2850
8 2810 2765 2808 2851 2767 2718 2763 2809
8 2810 2765 2718 2767 2852 2811 2768 2813
8 2811 2766 2719 2768 2853 2812 2769 2814
8 2855 2814 2768 2813 2816 2771 2721 2770
8 2856 2815 2769 2814 2817 2772 2722 2771
8 2773 2724 2774 2819 2816 2771 2817 2858
8 2774 2725 2775 2820 2817 2772 2818 2859
8 2776 2727 2777 2822 2819 2774 2820 2861
8 2777 2728 2778 2823 2820 2775 2821 2862
8 2779 2730 2780 2825 2822 2777 2823 2864
8 2823 2778 2731 2780 2865 2824 2781 2826
8 2825 2780 2733 2782 2866 2826 2783 2827
8 2869 2828 2785 2830 2847 2803 2756 2804
8 2871 2829 2786 2832 2830 2785 2738 2787
8 2872 2830 2787 2833 2848 2804 2759 2806
8 2789 2739 2786 2832 2835 2788 2831 2874
8 2836 2789 2740 2790 2875 2832 2787 2833
8 2792 2741 2788 2835 2838 2791 2834 2877
8 2793 2742 2789 2836 2839 2792 2835 2878
8 2838 2791 2837 2880 2795 2744 2794 2841
8 2839 2792 2838 2881 2796 2745 2795 2842
8 2841 2794 2840 2882 2798 2749 2799 2844
8 2842 2795 2841 2883 2797 2748 2798 2843
8 2843 2798 2844 2884 2800 2751 2801 2845
8 2886 2846 2803 2847 2850 2807 2762 2808
8 2851 2808 2847 2887 2809 2763 2804 2848
8 2850 2807 2766 2811 2889 2849 2812 2853
8 2810 2765 2811 2852 2851 2808 2850 2890
8 2852 2811 2768 2813 2891 2853 2814 2855
8 2853 2812 2769 2814 2892 2854 2815 2856
8 2894 2856 2814 2855 2858 2817 2771 2816
8 2817 2772 2818 2859 2856 2815 2857 2895
8 2819 2774 2820 2861 2858 2817 2859 2897
8 2820 2775 2821 2862 2859 2818 2860 2898
8 2822 2777 2823 2864 2861 2820 2862 2900
8 2823 2778 2824 2865 2862 2821 2863 2901
8 2864 2823 2780 2825 2902 2865 2826 2866
8 2904 2867 2828 2869 2886 2846 2803 2847
8 2869 2828 2868 2906 2830 2785 2829 2871
8 2907 2869 2830 2872 2887 2847 2804 2848
8 2871 2829 2870 2909 2832 2786 2831 2874
8 2910 2871 2832 2875 2872 2830 2787 2833
8 2835 2788 2831 2874 2877 2834 2873 2912
8 2836 2789 2832 2875 2878 2835 2874 2913
8 2877 2834 2876 2915 2838 2791 2837 2880
8 2839 2792 2835 2878 2881 2838 2877 2916
8 2880 2837 2879 2917 2841 2794 2840 2882
8 2881 2838 2880 2918 2842 2795 2841 2883
8 2883 2841 2882 2919 2843 2798 2844 2884
8 2921 2885 2846 2886 2889 2849 2807 2850
8 2922 2886 2847 2887 2890 2850 2808 2851
8 2889 2849 2812 2853 2924 2888 2854 2892
8 2890 2850 2811 2852 2925 2889 2853 2891
8 2891 2853 2814 2855 2926 2892 2856 2894
8 2892 2854 2815 2856 2927 2893 2857 2895
8 2858 2817 2859 2897 2894 2856 2895 2929
8 2859 2818 2860 2898 2895 2857 2896 2930
8 2861 2820 2862 2900 2897 2859 2898 2932
8 2862 2821 2863 2901 2898 2860 2899 2933
8 2864 2823 2865 2902 2900 2862 2901 2934
8 2904 2867 2846 2886 2936 2903 2885 2921
8 2904 2867 2903 2936 2869 2828 2868 2906
8 2937 2904 2869 2907 2922 2886 2847 2887
8 2906 2868 2905 2939 2871 2829 2870 2909
8 2907 2869 2906 2940 2872 2830 2871 2910
8 2909 2870 2908 2942 2874 2831 2873 2912
8 2910 2871 2909 2943 2875 2832 2874 2913
8 2912 2873 2911 2945 2877 2834 2876 2915
8 2878 2835 2874 2913 2916 2877 2912 2946
8 2915 2876 2914 2947 2880 2837 2879 2917
8 2916 2877 2915 2948 2881 2838 2880 2918
8 2918 2880 2917 2949 2883 2841 2882 2919
8 2921 2885 2849 2889 2951 2920 2888 2924
8 2952 2921 2886 2922 2925 2889 2850 2890
8 2924 2888 2854 2892 2954 2923 2893 2927
8 2925 2889 2853 2891 2955 2924 2892 2926
8 2926 2892 2856 2894 2956 2927 2895 2929
8 2895 2857 2896 2930 2927 2893 2928 2957
8 2897 2859 2898 2932 2929 2895 2930 2959
8 2898 2860 2899 2933 2930 2896 2931 2960
8 2900 2862 2901 2934 2932 2898 2933 2961
8 2936 2903 2885 2921 2963 2935 2920 2951
8 2936 2903 2935 2963 2906 2868 2905 2939
8 2937 2904 2886 2922 2964 2936 2921 2952
8 2937 2904 2936 2964 2907 2869 2906 2940
8 2939 2905 2938 2966 2909 2870 2908 2942
8 2940 2906 2939 2967 2910 2871 2909 2943
8 2942 2908 2941 2969 2912 2873 2911 2945
8 2943 2909 2942 2970 2913 2874 2912 2946
8 2945 2911 2944 2971 2915 2876 2914 2947
8 2946 2912 2945 2972 2916 2877 2915 2948
8 2948 2915 2947 2973 2918 2880 2917 2949
8 2951 2920 2888 2924 2975 2950 2923 2954
8 2952 2921 2889 2925 2976 2951 2924 2955
8 2927 2893 2928 2957 2954 2923 2953 2978
8 2955 2924 2892 2926 2979 2954 2927 2956
8 2929 2895 2930 2959 2956 2927 2957 2980
8 2930 2896 2931 2960 2957 2928 2958 2981
8 2932 2898 2933 2961 2959 2930 2960 2982
8 2951 2920 2950 2975 2963 2935 2962 2984
8 2963 2935 2962 2984 2939 2905 2938 2966
8 2964 2936 2921 2952 2985 2963 2951 2976
8 2964 2936 2963 2985 2940 2906 2939 2967
8 2966 2938 2965 2987 2942 2908 2941 2969
8 2967 2939 2966 2988 2943 2909 2942 2970
8 2969 2941 2968 2989 2945 2911 2944 2971
8 2970 2942 2969 2990 2946 2912 2945 2972
8 2972 2945 2971 2991 2948 2915 2947 2973
8 2954 2923 2953 2978 2975 2950 2974 2993
8 2976 2951 2924 2955 2994 2975 2954 2979
8 2957 2928 2958 2981 2978 2953 2977 2995
8 2956 2927 2957 2980 2979 2954 2978 2996
8 2959 2930 2960 2982 2980 2957 2981 2997
8 2984 2962 2983 2999 2966 2938 2965 2987
8 2975 2950 2974 2993 2984 2962 2983 2999
8 2976 2951 2975 2994 2985 2963 2984 3000
8 2985 2963 2984 3000 2967 2939 2966 2988
8 2987 2965 2986 3001 2969 2941 2968 2989
8 2988 2966 2987 3002 2970 2942 2969 2990
8 2990 2969 2989 3003 2972 2945 2971 2991
8 2978 2953 2977 2995 2993 2974 2992 3004
8 2979 2954 2978 2996 2994 2975 2993 3005
8 2980 2957 2981 2997 2996 2978 2995 3006
8 2974 2993 2999 2983 2992 3004 3007 2998
8 2983 2999 2987 2965 2998 3007 3001 2986
8 3000 2984 2999 3008 2988 2966 2987 3002
8 2994 2975 2993 3005 3000 2984 2999 3008
8 3002 2987 3001 3009 2990 2969 2989 3003
8 2996 2978 2995 3006 3005 2993 3004 3010
8 3005 2993 3004 3010 3008 2999 3007 3011
8 3008 2999 3007 3011 3002 2987 3001 3009

CELL_TYPES 1910
12
12
12
12
12
12
12
12
12
12
12
12
12
12
12
12
12
12
12
12
12
12
12
12
12
12
12
12
12
12
12
12
12
12
12
12
12
12
12
12
12
12
12
12
12
12
12
12
12
12
12
12
12
12
12
12
12
12
12
12
12
12
12
12
12
12
12
12
12
12
12
12
12
12
12
12
12
12
12
12
12
12
12
12
12
12
12
12
12
12
12
12
12
12
12
12
12
12
12
12
12
12
12
12
12
12
12
12
12
12
12
12
12
12
12
12
12
12
12
12
12
12
12
12
12
12
12
12
12
12
12
12
12
12
12
12
12
12
12
12
12
12
12
12
12
12
12
12
12
12
12
12
12
12
12
12
12
12
12
12
12
12
12
12
12
12
12
12
12
12
12
12
12
12
12
12
12
12
12
12
12
12
12
12
12
12
12
12
12
12
12
12
12
12
12
12
12
12
12
12
12
12
12
12
12
12
12
12
12
12
12
12
12
12
12
12
12
12
12
12
12
12
12
12
12
12
12
12
12
12
12
12
12
12
12
12
12
12
12
12
12
12
12
12
12
12
12
12
12
12
12
12
12
12
12
12
12
12
12
12
12
12
12
12
12
12
12
12
12
12
12
12
12
12
12
12
12
12
12
12
12
12
12
12
12
12
12
12
12
12
12
12
12
12
12
12
12
12
12
12
12
12
12
12
12
12
12
12
12
12
12
12
12
12
12
12
12
12
12
12
12
12
12
12
12
12
12
12
12
12
12
12
12
12
12
12
12
12
12
12
12
12
12
12
12
12
12
12
12
12
12
12
12
12
12
12
12
12
12
12
12
12
12
12
12
12
12
12
12
12
12
12
12
12
12
12
12
12
12
12
12
12
12
12
12
12
12
12
12
12
12
12
12
12
12
12
12
12
12
12
12
12
12
12
12
12
12
12
12
12
12
12
12
12
12
12
12
12
12
12
12
12
12
12
12
12
12
12
12
12
12
12
12
12
12
12
12
12
12
12
12
12
12
12
12
12
12
12
12
12
12
12
12
12
12
12
12
12
12
12
12
12
12
12
12
12
12
12
12
12
12
12
12
12
12
12
12
12
12
12
12
12
12
12
12
12
12
12
12
12
12
12
12
12
12
12
12
12
12
12
12
12
12
12
12
12
12
12
12
12
12
12
12
12
12
12
12
12
12
12
12
12
12
12
12
12
12
12
12
12
12
12
12
12
12
12
12
12
12
12
12
12
12
12
12
12
12
12
12
12
12
12
12
12
12
12
12
12
12
12
12
12
12
12
12
12
12
12
12
12
12
12
12
12
12
12
12
12
12
12
12
12
12
12
12
12
12
12
12
12
12
12
12
12
12
12
12
12
12
12
12
12
12
12
12
12
12
12
12
12
12
12
12
12
12
12
12
12
12
12
12
12
12
12
12
12
12
12
12
12
12
12
12
12
12
12
12
12
12
12
12
12
12
12
12
12
12
12
12
12
12
12
12
12
12
12
12
12
12
12
12
12
12
12
12
12
12
12
12
12
12
12
12
12
12
12
12
12
12
12
12
12
12
12
12
12
12
12
12
12
12
12
12
12
12
12
12
12
12
12
12
12
12
12
12
12
12
12
12
12
12
12
12
12
12
12
12
12
12
12
12
12
12
12
12
12
12
12
12
12
12
12
12
12
12
12
12
12
12
12
12
12
12
12
12
12
12
12
12
12
12
12
12
12
12
12
12
12
12
12
12
12
12
12
12
12
12
12
12
12
12
12
12
12
12
12
12
12
12
12
12
12
12
12
12
12
12
12
12
12
12
12
12
12
12
12
12
12
12
12
12
12
12
12
12
12
12
12
12
12
12
12
12
12
12
12
12
12
12
12
12
12
12
12
12
12
12
12
12
12
12
12
12
12
12
12
12
12
12
12
12
12
12
12
12
12
12
12
12
12
12
12
12
12
12
12
12
12
12
12
12
12
12
12
12
12
12
12
12
12
12
12
12
12
12
12
12
12
12
12
12
12
12
12
12
12
12
12
12
12
12
12
12
12
12
12
12
12
12
12
12
12
12
12
12
12
12
12
12
12
12
12
12
12
12
12
12
12
12
12
12
12
12
12
12
12
12
12
12
12
12
12
12
12
12
12
12
12
12
12
12
12
12
12
12
12
12
12
12
12
12
12
12
12
12
12
12
12
12
12
12
12
12
12
12
12
12
12
12
12
12
12
12
12
12
12
12
12
12
12
12
12
12
12
12
12
12
12
12
12
12
12
12
12
12
12
12
12
12
12
12
12
12
12
12
12
12
12
12
12
12
12
12
12
12
12
12
12
12
12
12
12
12
12
12
12
12
12
12
12
12
12
12
12
12
12
12
12
12
12
12
12
12
12
12
12
12
12
12
12
12
12
12
12
12
12
12
12
12
12
12
12
12
12
12
12
12
12
12
12
12
12
12
12
12
12
12
12
12
12
12
12
12
12
12
12
12
12
12
12
12
12
12
12
12
12
12
12
12
12
12
12
12
12
12
12
12
12
12
12
12
12
12
12
12
12
12
12
12
12
12
12
12
12
12
12
12
12
12
12
12
12
12
12
12
12
12
12
12
12
12
12
12
12
12
12
12
12
12
12
12
12
12
12
12
12
12
12
12
12
12
12
12
12
12
12
12
12
12
12
12
12
12
12
12
12
12
12
12
12
12
12
12
12
12
12
12
12
12
12
12
12
12
12
12
12
12
12
12
12
12
12
12
12
12
12
12
12
12
12
12
12
12
12
12
12
12
12
12
12
12
12
12
12
12
12
12
12
12
12
12
12
12
12
12
12
12
12
12
12
12
12
12
12
12
12
12
12
12
12
12
12
12
12
12
12
12
12
12
12
12
12
12
12
12
12
12
12
12
12
12
12
12
12
12
12
12
12
12
12
12
12
12
12
12
12
12
12
12
12
12
12
12
12
12
12
12
12
12
12
12
12
12
12
12
12
12
12
12
12
12
12
12
12
12
12
12
12
12
12
12
12
12
12
12
12
12
12
12
12
12
12
12
12
12
12
12
12
12
12
12
12
12
12
12
12
12
12
12
12
12
12
12
12
12
12
12
12
12
12
12
12
12
12
12
12
12
12
12
12
12
12
12
12
12
12
12
12
12
12
12
12
12
12
12
12
12
12
12
12
12
12
12
12
12
12
12
12
12
12
12
12
12
12
12
12
12
12
12
12
12
12
12
12
12
12
12
12
12
12
12
12
12
12
12
12
12
12
12
12
12
12
12
12
12
12
12
12
12
12
12
12
12
12
12
12
12
12
12
12
12
12
12
12
12
12
12
12
12
12
12
12
12
12
12
12
12
12
12
12
12
12
12
12
12
12
12
12
12
12
12
12
12
12
12
12
12
12
12
12
12
12
12
12
12
12
12
12
12
12
12
12
12
12
12
12
12
12
12
12
12
12
12
12
12
12
12
12
12
12
12
12
12
12
12
12
12
12
12
12
12
12
12
12
12
12
12
12
12
12
12
12
12
12
12
12
12
12
12
12
12
12
12
12
12
12
12
12
12
12
12
12
12
12
12
12
12
12
12
12
12
12
12
12
12
12
12
12
12
12
12
12
12
12
12
12
12
12
12
12
12
12
12
12
12
12
12
12
12
12
12
12
12
12
12
12
12
12
12
12
12
12
12
12
12
12
12
12
12
12
12
12
12
12
12
12
12
12
12
12
12
12
12
12
12
12
12
12
12
12
12
12
12
12
12
12
12
12
12
12
12
12
12
12
12
12
12
12
12
12
12
12
12
12
12
12
12
12
12
12
12
12
12
12
12
12
12
12
12
12
12
12
12
12
12
12
12
12
12
12
12
12
12
12
12
12
12
12
12
12
12
12
12
12
12
12
12
12
12
12
12
12
12
12
12
12
12
12
12
12
12
12
12
12
12
12
12
12
12
12
12
12
12
12
12
12
12
12
12
12
12
12
12
12
12
12
12
12
12
12
12
12
12
12
12
12
12
12
12
12
12
12
12
12
12
12
12
12
12
12
12
12
12
12
12
12
12
12
12
12
12
12
12
12
12
12
12
12
12
12
12
12
12
12
12
12
12
12
12
12
12
12
12
12
12
12
12
12
12
12
12
12
12
12
12
12
12
12
12
12
12
12
12
12
12
12
12
12
12
12
12
12
12
12
12
12
12
12
12
12
12
12
12
12
12
12
12
12
12
12
12
12
12
12
12
12
12
12
12
12
12
12
12
12
12
12
12
12
12
12
12
12
12
12
12
12
12
12
12
12
12
12
12
12
12
12
12
12
12
12
12
12
12
12
12
12
12
12
12
12
12
12
12
12
12
12
12
12
12
12

POINT_DATA 3012
SCALARS Jp_lamdaP float 4
LOOKUP_TABLE default
0.999659 1 1 0.999659
1 1 1 1
0.999669 1 1 0.999669
0.999605 1 1 0.999605
0.999662 1 1 0.999662
0.99964 1 1 0.99964
0.999249 1.00043 1 0.998816
1 1 1 1
1 1 1 1
1 1 1 1
0.999735 1 1 0.999735
0.998922 1 1 0.998922
0.999603 1 1 0.999603
0.99961 1 1 0.99961
0.999672 1 1 0.999672
0.999632 1 1 0.999632
0.999647 1 1 0.999647
0.999679 1 1 0.999679
0.99936 1.00054 1 0.998817
1 1 1 1
0.999587 1 1 0.999587
0.999638 1 1 0.999638
0.998694 1 1 0.998693
0.999179 1.00038 1 0.998795
0.999645 1 1 0.999645
0.998874 1.00004 1 0.99883
1.01423 1.01674 1 0.997532
1 1 1 1
0.999822 1 1 0.999822
0.999835 1 1 0.999835
1 1 1 1
0.998932 1 1 0.998932
0.999635 1 1 0.999635
0.999663 1 1 0.999663
0.999789 1.00082 1 0.998967
1 1 1 1
0.999142 1.00009 1 0.99905
0.999023 1 1 0.999023
1.00702 1.00953 1 0.997513
1 1 1 1
1 1 1 1
0.999805 1 1 0.999805
1 1 1 1
0.999616 1 1 0.999616
0.998624 1 1 0.998624
1 1 1 1
0.99887 1 1 0.99887
0.999655 1 1 0.999655
0.999691 1 1 0.999691
0.999649 1 1 0.999649
0.999444 1.00062 1 0.998823
0.999789 1 1 0.999789
0.999611 1 1 0.999611
0.999659 1 1 0.999659
0.999662 1 1 0.999662
0.99869 1 1 0.99869
0.999037 1.0002 1 0.998833
0.999167 1.00037 1 0.998795
1.01445 1.01698 1 0.997518
1 1 1 1
0.999588 1 1 0.999588
0.998901 1 1 0.998901
0.998664 1 1 0.998664
0.998824 1.00008 1 0.998747
1.01732 1.02011 1 0.99727
1.01548 1.01815 1 0.997382
0.99971 1 1 0.99971
0.998932 1 1 0.998932
1.01143 1.01384 1 0.997622
1.0341 1.03758 1 0.996643
1 1 1 1
1 1 1 1
1 1 1 1
0.99894 1 1 0.99894
1 1 1 1
1 1 1 1
0.999513 1.00073 1 0.998785
0.999901 1 1 0.999901
0.99899 1.0001 1 0.998888
0.999176 1 1.00003 0.999141
1.00569 1.0082 1 0.997509
1 1 1 1
1.0012 1 1.00145 0.999751
0.999337 1.00063 1 0.998706
0.999371 1.00055 1 0.998818
1.01865 1.02162 1 0.997088
0.999747 1 1.00035 0.9994
1.0118 1.01442 1 0.997412
1.00253 1.00488 1 0.997663
1.01578 1.01906 1 0.996786
1 1 1 1
1 1 1 1
1 1 1 1
1 1 1 1
1 1 1 1
0.999807 1 1 0.999807
0.998754 1 1 0.998754
0.999807 1 1 0.999807
0.998829 1.00006 1 0.998774
1 1 1 1
0.998639 1 1 0.998639
0.998864 1 1 0.998864
1.0165 1.01965 1 0.996911
0.999091 1.00019 1 0.998904
1.02 1.02313 1 0.99694
0.999625 1 1 0.999625
0.999634 1 1 0.999634
0.999669 1 1 0.999669
0.999683 1 1 0.999683
0.998688 1 1 0.998688
0.999185 1.00039 1 0.998799
0.999143 1.0003 1 0.998839
1.01463 1.01716 1 0.997504
1 1 1 1
0.999612 1 1 0.999612
0.998668 1 1 0.998668
0.998658 1 1 0.998658
0.999856 1 1 0.999856
0.99901 1 1 0.99901
0.99881 1.00006 1 0.998746
1.01732 1.02014 1 0.997234
1.01191 1.01434 1 0.997605
1.0158 1.01844 1 0.997409
1.03398 1.03745 1 0.996651
0.998662 1 1 0.998662
0.998662 1 1 0.998662
1.01552 1.01842 1 0.997157
1.01736 1.02024 1 0.997183
1.01698 1.01975 1 0.997283
1.04338 1.04695 1 0.996589
1 1 1 1
1.0373 1.04081 1 0.996623
0.999401 1 1.00027 0.999135
1.00661 1.00903 1 0.997599
1.03065 1.0341 1 0.996663
1.04003 1.04365 1 0.99653
1.0014 1 1.00192 0.999472
1.00653 1 1.00816 0.998375
1 1 1 1
1 1 1 1
0.999413 1.00062 1 0.99879
1 1 1 1
0.999265 1 1.00017 0.999094
0.998972 1.00008 1 0.998894
1.00454 1.00705 1 0.997506
1 1 1 1
1.00091 1 1.00114 0.999774
0.999526 1.0007 1 0.998822
0.999298 1.00037 1 0.998925
1.01809 1.02106 1 0.997089
1.00003 1 1.0007 0.99934
1.01049 1.01311 1 0.997414
1.00161 1.00394 1.00002 0.997662
1.01711 1.0204 1 0.996775
1.0012 1 1.00165 0.99955
1.00016 1 1.00028 0.999882
1.00367 1 1.00501 0.998671
1.02053 1.02362 1 0.996988
1.01566 1.01846 1 0.997249
1.04066 1.04432 1 0.996493
1.00038 1.00182 1.00061 0.997947
1.0261 1.02946 1 0.996739
1.01095 1.01354 1.00057 0.996875
1.02578 1.02925 1 0.996624
1 1 1 1
1 1 1 1
1 1 1 1
1.00101 1 1.00139 0.999619
1 1 1 1
1 1 1 1
1 1 1 1
0.998858 1.00018 1 0.998679
0.998657 1 1 0.998657
1 1 1 1
1 1 1 1
0.99864 1 1 0.99864
0.998769 1 1 0.998769
1.01715 1.0203 1 0.996911
0.999067 1.00037 1 0.998693
1.02019 1.02332 1 0.996939
0.998637 1 1 0.998637
1.01506 1.01824 1 0.996879
1.01848 1.02161 1 0.996937
1.04879 1.05244 1 0.996533
1.0208 1.02392 1 0.996946
1.05012 1.05378 1 0.996529
1 1 1 1
0.999636 1 1 0.999636
0.99841 1 1 0.99841
0.998654 1 1 0.998654
1 1 1 1
0.999109 1.00002 1 0.99909
0.998804 1.00006 1 0.998747
1.01729 1.02015 1 0.997198
1.01617 1.01878 1 0.997435
1.01245 1.01489 1 0.997588
1.03393 1.0374 1 0.996659
0.998659 1 1 0.998659
0.998656 1 1 0.998656
1.01544 1.01846 1 0.997029
1.01745 1.0203 1 0.997204
1 1 1 1
0.999301 1 1.00012 0.999183
1.00803 1.01038 1 0.997679
1.017 1.01977 1 0.997278
1.0432 1.04678 1 0.996576
1.03014 1.0336 1 0.996657
1.03756 1.04104 1 0.996658
1.0396 1.04321 1 0.996539
1.00124 1 1.00178 0.99946
1.00505 1 1.00669 0.998377
1.01485 1.018 1 0.9969
1.01611 1.01899 1 0.997177
1.04586 1.04944 1 0.996594
1.04391 1.04752 1 0.996559
1.04083 1.04431 1 0.996662
1.05024 1.05394 0.999803 0.996683
1.00048 1 1.00117 0.999305
1.04258 1.04611 1 0.996618
1.00187 1.00399 1.00011 0.997787
1.02348 1.02683 1 0.996738
1.03749 1.04117 1 0.996465
1.04014 1.04355 1 0.996731
1.00307 1.00023 1.00471 0.998141
1.00468 1 1.00602 0.998667
1.00329 1.00015 1.00546 0.99769
0.999485 1.00075 1 0.998735
1 1 1 1
1.00024 1 1.00045 0.999797
0.999146 1.0003 1 0.998852
1.01752 1.02049 1 0.997089
1.00021 1 1.00087 0.999343
1.00033 1.00263 1.00004 0.997661
1.00924 1.01186 1 0.997417
1.01839 1.0217 1 0.996764
1.00109 1 1.00152 0.999572
0.9999 1 1 0.9999
1.00438 1 1.00572 0.998671
1.01999 1.02307 1 0.996986
1.01493 1.01772 1 0.997252
1.04076 1.04443 1 0.996488
0.999528 1.00109 1.00049 0.997952
1.02732 1.03068 1 0.996743
1.01047 1.01317 1.00047 0.996869
1.02653 1.03002 1 0.996619
0.999946 1 1 0.999946
1.00166 1.00033 1.00305 0.998281
1.00266 1 1.00359 0.999072
1.00435 1.00025 1.00612 0.997986
1.04506 1.04877 1 0.996464
1.0348 1.03832 1 0.99661
1.04449 1.04822 1 0.99644
1.00512 1.00745 1.00049 0.997208
1.03228 1.03575 1 0.996648
1.02171 1.02363 1.00158 0.996555
1.0341 1.03769 1 0.996541
0.999663 1 1 0.999663
0.999989 1 1 0.999989
1 1 1 1
1 1 1 1
1 1 1 1
1.00018 1 1.00042 0.999754
1 1 1 1
1.00139 1 1.00178 0.999604
1 1 1 1
0.99916 1.00047 1 0.998694
0.998671 1 1 0.998671
1.02041 1.02354 1 0.996938
1.01777 1.02092 1 0.996911
0.998642 1 1 0.998642
1 1 1 1
0.998637 1 1 0.998637
1.01542 1.0186 1 0.99688
1.01901 1.02214 1 0.996937
1.04792 1.05156 1 0.996531
1.0206 1.02373 1 0.996943
1.05017 1.05383 1 0.996526
1.01459 1.01777 1 0.996877
1.04706 1.05073 1 0.996506
1.04973 1.05337 1 0.996544
1.05318 1.05885 0.997806 0.996824
1.04933 1.05302 1 0.996493
1.05575 1.05981 0.99944 0.996724
0.998657 1 1 0.998657
0.99865 1 1 0.99865
1.01536 1.01852 1 0.996902
1.01755 1.02038 1 0.997225
1 1 1 1
0.999232 1 1 0.999232
1.00943 1.0117 1 0.997757
1.01701 1.01979 1 0.997273
1.04305 1.04665 1 0.996563
1.03774 1.04119 1 0.996693
1.02966 1.03312 1 0.996651
1.03933 1.04293 1 0.996548
1.00128 1 1.00184 0.999449
1.00426 1 1.00589 0.998378
1.01473 1.01791 1 0.996883
1.01617 1.01905 1 0.997172
1.04569 1.04931 0.999931 0.996617
1.04398 1.04757 1 0.996567
1.00017 1 1.00088 0.999294
1.00327 1.00541 1.00009 0.997785
1.02287 1.02619 1 0.99677
1.04109 1.04459 1 0.996645
1.05031 1.05404 0.999736 0.996725
1.03718 1.04088 1 0.996446
1.04237 1.0459 1 0.996623
1.04035 1.04377 1 0.996728
1.00284 1.00034 1.00436 0.998143
1.00401 1.00039 1.00594 0.997692
1.00502 1 1.00636 0.998665
1.04536 1.04897 1 0.996564
1.04537 1.04898 0.999932 0.99663
1.05304 1.05809 0.998454 0.996761
1.05132 1.05541 0.999406 0.996722
1.04556 1.04911 0.999912 0.996704
1.0456 1.05218 0.996722 0.997015
0.999567 1.00099 1.0006 0.997977
1.04229 1.04578 0.999797 0.996866
1.01118 1.01418 1 0.997043
1.02891 1.03269 1 0.99634
1.0365 1.04021 1 0.996429
1.03482 1.03797 0.999981 0.996984
1.00265 1 1.00371 0.998943
0.999487 1.00124 1.00067 0.99758
1.00851 1 1.01069 0.997851
1.00262 1.00254 1.00266 0.997432
1.01953 1.02262 1 0.996983
0.999917 1 1 0.999917
1.00117 1 1.00157 0.999594
1.0059 1 1.00723 0.998672
1.014 1.01679 1 0.997256
1.04087 1.04455 1 0.996483
0.998787 1.00043 1.00041 0.997956
1.01009 1.01293 1.00033 0.996863
1.02852 1.03188 1 0.996747
1.02648 1.02997 1 0.996614
0.999956 1 1 0.999956
1.00246 1.00017 1.00402 0.998282
1.00235 1 1.00327 0.999081
1.00485 1.00017 1.00672 0.99798
1.04501 1.04873 1 0.996458
1.03497 1.03849 1 0.996608
1.04404 1.04777 1 0.996438
1.0036 1.00595 1.00045 0.997215
1.03195 1.03542 1 0.996647
1.02095 1.02272 1.00173 0.996543
1.03383 1.03734 1 0.996622
0.999976 1 1 0.999976
1.00043 1 1.00107 0.999362
1.00205 1.00251 1.00191 0.997634
1.00584 1 1.00751 0.998349
1.00172 1.00082 1.00322 0.997684
1.0493 1.05299 1 0.996498
1.03819 1.04182 1 0.996513
1.0396 1.04318 1 0.996568
1.00866 1.00986 1.00199 0.996823
1.03076 1.03423 1 0.996647
1.01942 1.0223 1.00086 0.996323
0.999617 1 1 0.999617
0.999096 1 1 0.999096
0.999699 1 1 0.999699
0.999665 1 1 0.999665
0.999995 1 1 0.999995
0.999991 1 1 0.999991
1 1 1 1
1 1 1 1
1 1 1 1
0.999879 1 1 0.999879
1 1 1 1
1.00061 1 1.00087 0.999738
1 1 1 1
1.00136 1 1.00177 0.99959
1 1 1 1
1.02046 1.0236 1 0.99694
1.01947 1.02261 1 0.996936
1.04992 1.05359 1 0.996524
1.04703 1.05068 1 0.99653
1.01585 1.01903 1 0.99688
0.998636 1 1 0.998636
1.01468 1.01786 1 0.996876
1.04672 1.05039 1 0.996506
1.04912 1.05276 1 0.996542
1.05348 1.05945 0.997511 0.996841
1.04863 1.05232 1 0.996488
1.05555 1.05953 0.999523 0.996722
1.04563 1.0493 1 0.996498
1.0528 1.05917 0.997132 0.996846
1.05472 1.05972 0.998482 0.996793
1.04942 1.05804 0.99478 0.997059
1.05258 1.05615 1 0.996617
1.05079 1.05919 0.994978 0.997069
1.01466 1.01785 1 0.996865
1.01625 1.01914 1 0.997167
1.04552 1.0492 0.999855 0.996639
1.04402 1.0476 1 0.996576
0.99986 1 1.00058 0.999283
1.00463 1.00681 1.00005 0.997783
1.0227 1.02598 1 0.996802
1.04137 1.04489 1 0.996628
1.05039 1.05417 0.999643 0.996768
1.04221 1.04574 1 0.996628
1.03673 1.04045 1 0.996427
1.04056 1.04398 1 0.996724
1.00231 1.00049 1.00368 0.998145
1.00463 1.00066 1.00629 0.997694
1.00515 1 1.0065 0.998664
1.04543 1.04906 1 0.99654
1.04553 1.04912 0.999954 0.996627
1.0526 1.05787 0.998213 0.996804
1.0512 1.05538 0.999335 0.996705
1.00053 1.0018 1.00076 0.997975
1.01214 1.01515 1 0.997038
1.02762 1.03132 1.00003 0.996382
1.04567 1.04922 0.999944 0.996672
1.04531 1.05226 0.996318 0.997065
1.03715 1.0409 1 0.996391
1.04239 1.04588 0.999798 0.996868
1.03568 1.03879 0.999987 0.997019
1.00096 1.00222 1.00117 0.99758
1.00282 1.00266 1.00277 0.9974
1.00311 1 1.00417 0.99894
1.00788 1 1.01001 0.997891
1.05261 1.05804 0.998068 0.996795
1.05357 1.05836 0.998712 0.996754
1.04505 1.05371 0.994796 0.996973
1.04465 1.05446 0.993591 0.99709
1.04376 1.04822 0.998743 0.996999
1.04216 1.05125 0.99409 0.997247
1.00271 1.00537 1 0.997357
1.03652 1.04151 0.997976 0.997228
1.01597 1.01943 1 0.996601
1.02668 1.03047 1.00018 0.996145
1.038 1.04174 1 0.996413
1.03652 1.03958 1 0.997053
1.00018 1 1.001 0.999174
1.00836 1 1.01024 0.998142
1.00158 1.0043 1 0.997292
1.0044 1.00039 1.00645 0.997572
1.00346 1.004 1.00217 0.997301
0.999966 1 1 0.999966
1.04486 1.04858 1 0.996452
1.00141 1 1.00233 0.99909
1.00314 1.00012 1.00474 0.998283
1.00504 1.00005 1.00703 0.997973
1.03523 1.03876 1 0.996606
1.04364 1.04737 1 0.996435
1.00235 1.00464 1.00051 0.997222
1.0216 1.02318 1.00193 0.996531
1.03176 1.03523 1 0.996647
1.03421 1.03763 1 0.996702
0.999981 1 1 0.999981
1.00003 1 1.00066 0.999372
1.00075 1.00178 1.00134 0.997637
1.00685 1 1.00852 0.998347
1.00188 1.00058 1.00363 0.997667
1.04917 1.05287 1 0.996492
1.03808 1.04172 1 0.996511
1.03965 1.04325 1 0.996556
1.00898 1.01004 1.00213 0.996827
1.03323 1.03671 1 0.996641
1.01977 1.02252 1.00096 0.996346
0.99953 1 1 0.99953
1.00214 1 1.00344 0.99871
1.00101 1.00325 1.00048 0.997291
1.00758 1.00067 1.00895 0.997976
1.00216 1.00251 1.00203 0.997625
1.04592 1.04939 1 0.996697
1.03399 1.03754 1 0.996576
1.03911 1.04247 1 0.996778
1.00355 1.00312 1.00379 0.996647
1.01807 1.02187 1 0.996283
0.99962 1 1 0.99962
0.999016 1 1 0.999016
0.999071 1 1 0.999071
0.998817 1 1 0.998817
0.999119 1 1 0.999119
0.999719 1 1 0.999719
0.999701 1 1 0.999701
0.999998 1 1 0.999998
0.999667 1 1 0.999667
0.999996 1 1 0.999996
1 1 1 1
0.999992 1 1 0.999992
1 1 1 1
1 1 1 1
0.999962 1 1 0.999962
1.00009 1 1.00023 0.999859
1 1 1 1
1 1 1 1
1.00106 1 1.00134 0.999722
1 1 1 1
1.04804 1.05174 1 0.996484
1.04874 1.05239 1 0.99654
1.05561 1.0595 0.999608 0.996719
1.05384 1.06011 0.997225 0.996859
1.04628 1.04995 1 0.996507
1.01471 1.01789 1 0.996876
1.04566 1.04933 1 0.996499
1.05268 1.05899 0.997193 0.99684
1.0551 1.06004 0.998551 0.996793
1.04864 1.05779 0.994238 0.997089
1.05336 1.05694 1 0.99661
1.05088 1.05906 0.995164 0.997091
1.05276 1.05868 0.997584 0.996815
1.04733 1.05657 0.994211 0.997034
1.04957 1.05916 0.993795 0.997132
1.04848 1.06035 0.991564 0.997212
1.05088 1.0555 0.998708 0.99691
1.04811 1.06025 0.99123 0.997299
1.04541 1.04906 1 0.996516
1.04566 1.04921 0.999994 0.996625
1.05215 1.05761 0.997978 0.996847
1.05096 1.05523 0.999262 0.996688
1.0015 1.00261 1.00092 0.997972
1.01229 1.0153 1 0.997034
1.02586 1.02935 1.00018 0.996424
1.04576 1.04928 1 0.996639
1.04502 1.05231 0.995938 0.997115
1.04239 1.04587 0.999798 0.996871
1.0377 1.0415 1 0.996353
1.03578 1.03884 1 0.997055
1.00234 1.00298 1.00179 0.997581
1.00283 1.00257 1.0029 0.997367
1.00349 1 1.00456 0.998936
1.00697 1 1.00905 0.997932
1.05248 1.05792 0.998058 0.996795
1.05306 1.05769 0.998888 0.996734
1.04521 1.05393 0.994707 0.997006
1.04542 1.05466 0.994144 0.997073
1.0035 1.00616 1 0.997349
1.01444 1.01783 1.00003 0.996643
1.02673 1.03031 1.00039 0.996134
1.04389 1.04805 0.999074 0.99695
1.04103 1.05049 0.993668 0.997304
1.03435 1.03809 1 0.996399
1.03739 1.04229 0.998068 0.997229
1.03726 1.04027 1 0.997112
1.0014 1.00412 1 0.997291
1.00312 1.00425 1.00158 0.997297
1.00542 1.00067 1.00719 0.997566
1.00067 1 1.00153 0.999138
1.00797 1 1.0098 0.998182
1.04588 1.05548 0.993865 0.99702
1.04602 1.05601 0.993473 0.997049
1.04175 1.05512 0.990014 0.99729
1.03768 1.04728 0.993505 0.997311
1.00604 1.00905 1 0.997021
1.04143 1.04653 0.997717 0.997405
1.00874 1.01214 1.00029 0.996351
1.02285 1.02649 1.00051 0.995944
1.03106 1.03478 1 0.996399
0.999452 1 1.0001 0.999352
1.0047 1 1.0062 0.998506
1.00615 1 1.00828 0.997889
1.00269 1.00553 1 0.997173
1.00405 1.00038 1.0064 0.997282
1.00421 1.00527 1.00181 0.997147
0.999985 1 1 0.999985
0.999659 1 1.00028 0.999381
1.04904 1.05274 1 0.996486
1.0081 1 1.00977 0.998346
0.999184 1.0008 1.00074 0.99764
1.00201 1.00047 1.0039 0.997651
1.0378 1.04143 1 0.996509
1.03963 1.04323 1 0.996545
1.00848 1.00938 1.00229 0.99683
1.01896 1.02188 1.00077 0.996369
1.03565 1.03915 1 0.996635
0.999536 1 1 0.999536
1.00217 1 1.00346 0.998714
1.00129 1.0036 1.00041 0.997288
1.00873 1.00046 1.01032 0.997969
1.00217 1.00281 1.00174 0.997626
1.04579 1.04926 1 0.99669
1.03458 1.03815 1 0.996563
1.03914 1.04247 1 0.996804
1.00448 1.00463 1.00324 0.996609
1.01686 1.02063 1.00006 0.996254
0.99926 1 1.00031 0.99895
1.00849 1 1.01023 0.998274
1.00253 1.00339 1.002 0.997155
1.00768 1.0028 1.00713 0.997748
1.00805 1.00957 1.001 0.997496
1.04368 1.04935 0.997404 0.997186
1.03419 1.03785 1 0.996471
1.03661 1.03994 1 0.996795
1.00675 1.00593 1.00433 0.99649
1.00762 1.01161 1 0.996064
0.999623 1 1 0.999623
0.999034 1 1 0.999034
0.998742 1 1 0.998742
0.999045 1 1 0.999045
0.999117 1 1 0.999117
0.998795 1 1.00001 0.998788
0.998698 1 1 0.998698
0.998906 1 1.00018 0.998729
0.999138 1 1 0.999138
0.999713 1 1 0.999713
0.999719 1 1 0.999719
1 1 1 1
0.999703 1 1 0.999703
0.999999 1 1 0.999999
1 1 1 1
0.999997 1 1 0.999997
1 1 1 1
1 1 1 1
0.999994 1 1 0.999994
0.999945 1 1 0.999945
1 1 1 1
1.00047 1 1.00063 0.999839
1 1 1 1
1 1 1 1
1.05408 1.05768 1 0.996603
1.05524 1.0601 0.998616 0.996793
1.05093 1.05887 0.995371 0.997113
1.0478 1.05751 0.993683 0.99712
1.05258 1.05883 0.997261 0.996835
1.0458 1.04948 1 0.9965
1.05269 1.05849 0.99772 0.996796
1.0479 1.05673 0.994602 0.997027
1.04889 1.05857 0.993713 0.997116
1.04738 1.05991 0.990925 0.997224
1.05047 1.05487 0.998921 0.996912
1.04612 1.059 0.990465 0.997339
1.04798 1.05649 0.994917 0.997008
1.04864 1.06148 0.990668 0.997209
1.04867 1.06219 0.989928 0.997311
1.04334 1.0562 0.99044 0.997364
1.05241 1.05786 0.998049 0.996794
1.05264 1.05712 0.999045 0.996714
1.04541 1.05417 0.994636 0.997038
1.04628 1.05498 0.994678 0.997055
1.00486 1.00753 1 0.997341
1.0137 1.01707 1 0.996686
1.02683 1.03022 1.00058 0.996124
1.04403 1.04793 0.999381 0.9969
1.03982 1.0497 0.99321 0.997361
1.03859 1.04341 0.99814 0.99723
1.03164 1.03539 1 0.996384
1.03964 1.04259 1 0.997172
1.00141 1.00413 1 0.997291
1.00343 1.00546 1.00069 0.997293
1.00678 1.00087 1.00836 0.99756
1.00106 1 1.00196 0.999102
1.00771 1 1.00951 0.998222
1.04625 1.0558 0.993906 0.997022
1.04659 1.05661 0.993453 0.997044
1.04161 1.05434 0.990615 0.997281
1.00596 1.00897 1 0.997016
1.00934 1.01273 1.00026 0.996393
1.02143 1.02482 1.00076 0.995932
1.03817 1.04741 0.993855 0.997298
1.03426 1.03789 1 0.996508
1.03789 1.04323 0.997509 0.997373
0.999467 1 1.00008 0.999387
1.00309 1.00594 1 0.997164
1.00241 1.00426 1.00088 0.997273
1.00639 1.00166 1.00746 0.997273
1.00642 1 1.00853 0.997913
1.00473 1 1.00627 0.998471
1.04702 1.0595 0.991091 0.997099
1.04525 1.06187 0.987091 0.997216
1.03543 1.05281 0.986083 0.997373
1.03583 1.04995 0.989008 0.997513
1.00607 1.00928 1 0.996823
1.03338 1.03703 0.999509 0.996973
1.00434 1.00677 1.00165 0.995943
1.01237 1.0156 1.00104 0.995781
0.999629 1 1 0.999629
1.00065 1 1.00184 0.99881
1.00495 1 1.0068 0.998167
1.00641 1 1.00897 0.997461
1.00311 1.00477 1.00136 0.996994
1.00785 1.00251 1.00838 0.996972
0.999542 1 1 0.999542
1.00216 1 1.00345 0.998718
1.04586 1.04933 1 0.996684
1.00976 1.00021 1.0116 0.997963
1.00161 1.00406 1.00027 0.997285
1.00161 1.00247 1.00152 0.997626
1.03537 1.03895 1 0.996551
1.03938 1.04269 1 0.99683
1.00589 1.0066 1.00273 0.996571
1.01569 1.01927 1.00027 0.996225
0.999138 1 1.00019 0.998953
1.00871 1 1.01046 0.998263
1.00318 1.00404 1.00198 0.997164
1.00659 1.00225 1.0066 0.997754
1.00853 1.01051 1.00048 0.99757
1.04491 1.05071 0.997246 0.997232
1.03376 1.0374 1 0.996493
1.038 1.04126 1 0.996869
1.00677 1.00574 1.00458 0.996456
1.00787 1.0119 1.00003 0.995993
1.00002 1 1.0014 0.998624
1.00847 1 1.01061 0.997889
1.00836 1.00753 1.00378 0.99705
1.00719 1.00822 1.00161 0.997378
1.04154 1.06486 0.980562 0.997486
1.03845 1.04282 0.998546 0.997262
1.02164 1.02556 1 0.996174
1.01037 1.01005 1.00426 0.996074
0.999053 1 1 0.999053
0.998754 1 1 0.998754
0.998698 1 1 0.998698
0.999116 1 1 0.999116
0.998759 1 1 0.998759
0.999136 1 1 0.999136
0.998703 1 1 0.998703
0.998902 1 1.00016 0.99874
0.998739 1 1 0.998739
0.999036 1 1.00046 0.998575
0.998875 1 1.00018 0.998691
0.999118 1 1 0.999118
0.999684 1 1 0.999684
0.999711 1 1 0.999711
1 1 1 1
0.999719 1 1 0.999719
1 1 1 1
1 1 1 1
0.999999 1 1 0.999999
1 1 1 1
1 1 1 1
1 1 1 1
0.999987 1 1 0.999987
1 1 1 1
0.999928 1 1 0.999928
1 1 1 1
1 1 1 1
1.04998 1.05414 0.999139 0.996913
1.0483 1.0581 0.993611 0.997101
1.04422 1.05786 0.989701 0.997378
1.04633 1.05954 0.990275 0.997235
1.04847 1.0569 0.994989 0.997019
1.05255 1.05824 0.997841 0.996776
1.04775 1.05637 0.994811 0.997008
1.04853 1.06116 0.990869 0.9972
1.04737 1.06137 0.989475 0.99731
1.04459 1.05711 0.99076 0.997374
1.04974 1.06151 0.991733 0.997154
1.05036 1.06805 0.986036 0.997362
1.04888 1.06752 0.985071 0.99743
1.0466 1.05613 0.993931 0.997024
1.04708 1.05713 0.993436 0.997039
1.04158 1.05357 0.991322 0.997273
1.00553 1.00855 1 0.997012
1.00933 1.01276 1.00018 0.996434
1.01963 1.02294 1.00085 0.99592
1.03871 1.04758 0.994227 0.997284
1.03377 1.0394 0.997235 0.99734
1.03596 1.03948 1 0.996617
1.00214 1.00476 1.00024 0.997154
0.998648 1.00125 1 0.997398
1.00772 1.00226 1.00821 0.997264
0.999501 1 1.00008 0.999423
1.00586 1 1.00794 0.997937
1.00492 1 1.00649 0.998436
1.0478 1.06004 0.991323 0.997106
1.04463 1.0616 0.986756 0.997223
1.03564 1.05243 0.986646 0.997365
1.00347 1.00668 1 0.996816
1.0044 1.007 1.0014 0.99602
1.01257 1.01587 1.0009 0.99586
1.03606 1.04967 0.989488 0.997517
1.03047 1.03482 0.998842 0.996953
0.999691 1 1 0.999691
1.00073 1 1.00192 0.998808
1.00043 1.0031 1.0003 0.997041
1.00956 1.00188 1.01058 0.997122
1.00581 1.00003 1.00829 0.997507
1.00488 1 1.00676 0.998132
1.04786 1.06558 0.98605 0.997283
1.03689 1.0625 0.978516 0.997327
1.0325 1.05261 0.983292 0.99756
1.0263 1.03812 0.991064 0.997523
1.00242 1.00461 1.00131 0.996511
1.01278 1.01531 1.0014 0.996112
1.00494 1.00659 1.00264 0.995731
0.999845 1 1 0.999845
0.999349 1 1 0.999349
0.999109 1 1.00004 0.999074
1.00138 1 1.00305 0.998343
1.00626 1 1.00848 0.997794
1.00863 1 1.01138 0.997282
0.999335 1.00192 1.0003 0.997122
1.03221 1.00095 1.03396 0.997367
0.999064 1 1.00011 0.998956
1.00927 1 1.01104 0.998253
1.04615 1.05203 0.997123 0.997279
1.0066 1.00254 1.0063 0.997761
1.004 1.00468 1.00215 0.997173
1.00888 1.01122 1.00004 0.997644
1.03304 1.03665 1 0.996515
1.03926 1.04245 1 0.996943
1.00677 1.00554 1.00482 0.996423
1.00793 1.01206 1 0.995922
1.0005 1 1.00192 0.99859
1.00781 1 1.00993 0.997899
1.01031 1.00908 1.00415 0.997077
1.00647 1.00765 1.00142 0.997414
1.0437 1.06703 0.98058 0.997506
1.03939 1.0434 0.998945 0.99721
1.02169 1.02557 1 0.996222
1.01165 1.01188 1.00377 0.996021
1.00171 1 1.00333 0.998379
1.04477 1.07124 0.977727 0.997512
1.00208 1 1.00455 0.997543
1.00952 1.01004 1.00268 0.99682
1.03623 1.05363 0.98584 0.997608
1.01899 1.02276 1 0.996315
1.00842 1.00939 1.00323 0.99582
0.998767 1 1 0.998767
0.998687 1 1 0.998687
0.998753 1 1 0.998753
0.999135 1 1 0.999135
0.998895 1 1.00014 0.998751
0.998708 1 1 0.998708
0.999115 1 1 0.999115
0.999031 1 1.00034 0.998696
0.998749 1 1 0.998749
0.998829 1 1.00024 0.998592
0.998815 1 1 0.998815
0.998737 1 1.0001 0.998637
0.999268 1 1.00081 0.998464
0.998636 1 1 0.998636
0.999053 1 1 0.999053
0.999646 1 1 0.999646
0.999681 1 1 0.999681
1 1 1 1
0.99971 1 1 0.99971
1 1 1 1
1 1 1 1
1 1 1 1
1 1 1 1
1 1 1 1
0.99987 1 1 0.99987
1 1 1 1
0.999999 1 1 0.999999
1 1 1 1
0.99998 1 1 0.99998
1 1 1 1
1 1 1 1
1.04577 1.05799 0.991041 0.997384
1.04605 1.06044 0.989089 0.997309
1.04837 1.06079 0.991079 0.997191
1.04752 1.05624 0.99472 0.997008
1.04939 1.06141 0.991474 0.997172
1.05017 1.06747 0.986409 0.997353
1.04683 1.06545 0.985051 0.997439
1.05003 1.06792 0.985867 0.997342
1.05938 1.07883 0.984477 0.997454
1.05106 1.07426 0.980647 0.997717
1.04856 1.06053 0.991566 0.997114
1.04396 1.06134 0.986363 0.997229
1.03573 1.05207 0.987078 0.997357
1.00287 1.00602 1.00006 0.996808
1.00506 1.00773 1.00126 0.9961
1.01497 1.01831 1.00078 0.995939
1.03623 1.04923 0.990064 0.997522
1.02788 1.03272 0.998374 0.996933
1.0009 1.00348 1.00034 0.99709
1.01302 1.00253 1.01323 0.997271
1.00667 1.00034 1.0088 0.997552
0.999753 1 1 0.999753
1.00068 1 1.00187 0.998806
1.00496 1 1.00688 0.998096
1.04774 1.06587 0.985658 0.997293
0.99984 1 1 0.99984
0.999316 1 1 0.999316
1.03747 1.0617 0.979789 0.997329
1.03102 1.05164 0.982824 0.99753
1.00297 1.0046 1.00178 0.996597
1.00521 1.00619 1.00332 0.995723
1.01361 1.01672 1.00084 0.996104
1.02511 1.0376 0.990437 0.997498
0.999256 1 1.0001 0.999155
1.00128 1 1.00295 0.998336
1.00118 1.00182 1.00236 0.997019
1.02774 1.00106 1.02919 0.99753
1.00719 1.00012 1.00979 0.997299
1.00569 1 1.00789 0.997811
1.0569 1.078 0.982971 0.99741
1.01852 1.05993 0.963372 0.997465
1.02117 1.04436 0.980033 0.997712
1.007 1.01928 0.990711 0.997215
1.00446 1.00229 1.00551 0.996678
1.00481 1.00363 1.0055 0.9957
0.999283 1 1 0.999283
0.99931 1 1 0.99931
0.999015 1 1 0.999015
0.998613 1 1.00009 0.998524
1.00369 1 1.00561 0.998088
1.00533 1.00016 1.00773 0.997462
1.04612 1 1.04894 0.997309
1.00177 1.00049 1.00364 0.997647
1.0009 1 1.00235 0.998556
1.00672 1 1.00883 0.997909
1.04511 1.06817 0.980839 0.997525
1.03994 1.04366 0.999278 0.997159
1.00561 1.00702 1.00115 0.997451
1.01233 1.01081 1.00441 0.997104
1.02207 1.02586 1.00004 0.99627
1.01313 1.01384 1.00335 0.995969
1.00191 1 1.00356 0.998362
1.04738 1.0745 0.97714 0.997566
1.0028 1 1.00525 0.99757
1.00807 1.00863 1.00269 0.996761
1.03492 1.05267 0.985523 0.997582
1.01822 1.0219 1 0.996395
1.00939 1.01009 1.00348 0.995836
1.00449 1 1.00645 0.998048
1.01481 1.0457 0.972419 0.997993
1.00374 1.00305 1.00342 0.997273
1.00434 1.00423 1.00379 0.996333
1.01722 1.02769 0.992627 0.997159
1.00228 1.00405 1.00221 0.996033
0.979768 1.00367 0.978676 0.997451
0.998676 1 1 0.998676
0.999192 0.999759 1.00068 0.998752
0.999249 1 1.00058 0.998668
0.999112 1 1 0.999112
0.999297 1 1.0006 0.998701
0.998673 1 1.00006 0.99861
0.99876 1 1 0.99876
0.999052 1 1 0.999052
0.998677 1 1.00005 0.998628
0.998781 1 1 0.998781
0.999018 1 1.00055 0.998465
0.998722 1 1.0001 0.998622
0.99877 1 1 0.99877
0.998773 1 1.00049 0.998284
0.999885 1 1.00145 0.998441
0.998559 1 1.00004 0.998518
0.998917 1 1 0.998917
0.999058 1 1.00036 0.998694
0.99889 1 1 0.99889
0.999627 1 1 0.999627
0.999643 1 1 0.999643
1 1 1 1
0.999678 1 1 0.999678
1 1 1 1
1 1 1 1
1 1 1 1
1 1 1 1
1 1 1 1
0.999895 1 1 0.999895
0.99987 1 1 0.99987
1 1 1 1
1 1 1 1
1 1 1 1
0.999998 1 1 0.999998
1 1 1 1
1 1 1 1
1.04505 1.06375 0.984929 0.997447
1.04987 1.0669 0.986659 0.997343
1.04909 1.06136 0.991216 0.997191
1.05005 1.06787 0.98593 0.99734
1.05698 1.07662 0.984268 0.997451
1.05041 1.07258 0.981641 0.997645
1.06088 1.08407 0.981043 0.997519
0.975515 1.01605 0.964128 0.995824
1.01278 1.04355 0.972058 0.998407
0.999416 1 1 0.999416
1.04763 1.06617 0.98527 0.997304
1.03816 1.06094 0.981147 0.99733
1.02953 1.05075 0.982264 0.997499
1.00015 1.00266 1.00082 0.996681
1.00434 1.00462 1.00402 0.995715
1.01318 1.01679 1.00036 0.996096
1.024 1.03719 0.989785 0.997472
0.998932 1.00194 1.00008 0.996917
1.02044 1.00005 1.02274 0.997697
1.00524 1 1.00795 0.997318
0.999835 1 1 0.999835
1.00652 1 1.00871 0.997828
0.999401 1 1.00017 0.999235
1.00125 1 1.00293 0.998328
0.999282 1 1 0.999282
1.05365 1.07826 0.979713 0.997417
0.999326 1 1 0.999326
0.999309 1 1 0.999309
0.998937 1 0.999957 0.99898
1.02274 1.06025 0.96708 0.997464
1.02164 1.04472 0.980199 0.997666
1.00132 1.00187 1.00275 0.996706
1.00766 1.0063 1.00556 0.995816
1.00631 1.01715 0.992122 0.997199
0.99873 1 1.00015 0.998577
1.0039 1 1.00587 0.998041
1.00733 1.00031 1.0095 0.997543
1.03652 1 1.03929 0.997338
1.00427 1.00003 1.00675 0.997508
1.03611 1.06702 0.973441 0.997521
1.00267 1.05102 0.956278 0.997615
1.01395 1.02838 0.988567 0.997373
0.992415 1.00689 0.988634 0.996956
1.00354 1 1.00629 0.997265
0.998859 1 1 0.998859
0.998797 1 1 0.998797
0.999793 1 1.00108 0.998711
1.00362 1 1.00532 0.998308
1.00666 1 1.00876 0.997913
1.03455 0.999981 1.03714 0.997524
1.02911 1.00136 1.03024 0.997545
1.00187 1 1.00353 0.998345
1.00339 1 1.00581 0.997596
1.04915 1.07862 0.975001 0.997619
1.03411 1.05246 0.984968 0.997555
1.01773 1.02133 1 0.996475
1.00641 1.00704 1.00268 0.996702
1.01007 1.01063 1.0036 0.995854
1.00407 1 1.00599 0.998089
1.01387 1.04594 0.971261 0.998028
1.00135 1.00197 1.0021 0.997286
1.0036 1.0032 1.00408 0.996336
1.01657 1.02801 0.991579 0.997273
1.00264 1.0039 1.00273 0.996025
0.979553 1.00367 0.979381 0.996518
1.00461 1.00065 1.00605 0.997924
1.00413 1.02346 0.983103 0.997972
1.00058 1.00137 1.00204 0.997175
1.00439 1.00142 1.00644 0.996556
0.99259 1.00605 0.989568 0.997017
0.921731 0.97852 0.96457 0.976564
0.920847 0.971258 0.959653 0.987959
0.97163 0.985533 0.988304 0.99756
0.74773 0.846853 0.923847 0.955733
0.670905 0.813851 0.874465 0.942702
0.99927 0.999454 1.00107 0.998751
1.00016 0.999675 1.00177 0.998721
0.999506 1 1.0008 0.998707
0.999051 1 1 0.999051
0.998619 1 1 0.998619
0.998713 1 1.00025 0.998466
0.998673 1 1.00007 0.998606
0.998747 1 1 0.998747
1.00057 1 1.00215 0.998416
0.998951 1 1 0.998951
0.99855 1 1.00001 0.998538
0.99882 1 1.00009 0.998731
0.999105 1 1.00078 0.998322
1.0016 1 1.00327 0.998334
1.00235 1 1.00393 0.998423
1.00114 1 1.0028 0.998347
0.998798 1 1.00035 0.99845
0.998884 1 1 0.998884
0.998633 1 1.0001 0.998535
0.998783 1 1.00026 0.998525
0.998815 1 1.0001 0.998711
0.999049 1 1.0004 0.998654
0.999002 1 1 0.999002
0.998908 1 1.00002 0.998886
0.999621 1 1 0.999621
0.999626 1 1 0.999626
1 1 1 1
0.999641 1 1 0.999641
1 1 1 1
1 1 1 1
1 1 1 1
1 1 1 1
1 1 1 1
0.999922 1 1 0.999922
0.999892 1 1 0.999892
1 1 1 1
0.99987 1 1 0.99987
1 1 1 1
1 1 1 1
1 1 1 1
1 1 1 1
1 1 1 1
1.05423 1.07409 0.98402 0.997448
1.0501 1.06782 0.98603 0.997338
1.05034 1.07126 0.982852 0.997573
0.976885 1.01587 0.965588 0.995897
1.0578 1.08136 0.980645 0.997519
1.02483 1.04698 0.980538 0.99828
1.04255 1.05797 0.987748 0.997644
0.932505 0.980872 0.963141 0.987073
0.993529 1.01935 0.977923 0.996671
0.999434 1 1 0.999434
0.999412 1 1 0.999412
0.998971 1 1 0.998971
0.999055 1 1 0.999055
1.05136 1.07854 0.977314 0.997425
1.02654 1.06006 0.970847 0.997462
1.02204 1.04483 0.980524 0.997619
1.00036 1.00086 1.00278 0.996734
1.01123 1.00995 1.00536 0.995932
1.00544 1.01527 0.993118 0.997183
1.01653 1 1.01914 0.997437
1.02924 1.00003 1.03193 0.997366
1.00234 1 1.00479 0.997555
0.999308 1 1 0.999308
1.00226 1 1.00427 0.997994
0.998793 1 1.00016 0.99863
0.999369 1 1 0.999369
0.998944 1 1 0.998944
1.03377 1.06688 0.971361 0.997536
0.9989 1 1 0.9989
0.998855 1 1 0.998855
0.999237 1 1.00038 0.998856
1.00765 1.05365 0.958638 0.997607
1.01328 1.02827 0.988025 0.997372
1.00371 1.00044 1.00604 0.997247
0.995001 1.00706 0.990973 0.997025
1.00209 1 1.00384 0.998257
1.00568 1 1.00788 0.997814
1.03512 1.00134 1.0363 0.997526
1.03494 1.00024 1.03734 0.997454
0.996989 1.04312 0.95796 0.997716
0.995371 1.03311 0.965791 0.997599
1.00478 1.01101 0.996781 0.997043
0.985362 1.0009 0.986555 0.997892
0.999479 1 1.00092 0.998563
1.00096 1 1.00249 0.998472
1.01288 1 1.01465 0.998258
1.05404 1 1.05663 0.99755
0.898409 0.968565 0.952533 0.973789
1.00437 1 1.00625 0.99813
0.99927 1.00088 1.00109 0.997299
1.01435 1.04584 0.971769 0.998066
1.01604 1.02782 0.991132 0.997386
1.00298 1.00369 1.0033 0.996015
1.00325 1.00246 1.00447 0.996338
0.980162 1.0049 0.97973 0.99556
1.00336 1.00031 1.00508 0.997982
1.00399 1.02465 0.981844 0.997958
1.0003 1.00141 1.00171 0.997191
1.00454 1.00189 1.00611 0.996558
0.996132 1.00702 0.992152 0.997016
0.920427 0.985075 0.959477 0.973835
0.914481 0.968416 0.958424 0.985269
0.975422 0.98618 0.991486 0.997585
0.745488 0.8428 0.924625 0.956643
0.656654 0.803316 0.871103 0.938384
1.00149 1.00005 1.00327 0.998172
0.776465 0.864187 0.937033 0.95887
0.7094 0.819778 0.916761 0.943929
0.988498 1.00633 0.984311 0.997937
1.00749 1.00147 1.00839 0.997635
1.01296 1.00485 1.01074 0.997353
0.966324 0.97877 0.989417 0.997844
0.905657 0.960751 0.967033 0.974792
0.888477 0.942183 0.958593 0.983732
0.735671 0.843663 0.909177 0.959105
0.729657 0.865974 0.894474 0.941989
1.00168 0.999518 1.00339 0.998773
1.0008 0.999809 1.00232 0.998682
1.00326 1 1.00442 0.998846
0.998984 1 1 0.998984
0.998558 1 1 0.998558
1.00105 1 1.00266 0.998392
0.999654 1 1.0013 0.99836
0.998693 1 1 0.998693
0.998885 1 1 0.998885
1.00189 1 1.00358 0.998322
1.00151 1 1.00316 0.998358
0.998582 1 1.00009 0.998488
1.00242 1 1.00398 0.998446
1.0042 1 1.00582 0.998383
1.01006 1 1.01153 0.998546
0.999926 1 1.00164 0.998289
0.998785 1 1.00029 0.9985
0.998551 1 1.00002 0.998531
0.999052 1 1.00052 0.99853
0.999256 1 1.0009 0.998356
0.999152 1 1.00059 0.99856
1.00013 1 1.00159 0.99854
1.00409 1 1.00575 0.998349
0.999605 1 1.00094 0.99867
0.998852 1 1.00014 0.998712
0.999038 1 1 0.999038
0.998857 1 1.00024 0.998615
0.998974 1 1 0.998974
0.999611 1 1 0.999611
0.998884 1 1 0.998883
0.999622 1 1 0.999622
1 1 1 1
0.999626 1 1 0.999626
1 1 1 1
1 1 1 1
1 1 1 1
1 1 1 1
1 1 1 1
0.99939 1 1 0.99939
0.999926 1 1 0.999926
0.999918 1 1 0.999918
1 1 1 1
0.999888 1 1 0.999888
1 1 1 1
1 1 1 1
1 1 1 1
1 1 1 1
1 1 1 1
0.978933 1.01569 0.967705 0.995974
1.05543 1.07838 0.981148 0.997518
1.03179 1.0501 0.984389 0.998151
0.92589 0.974534 0.961442 0.988188
0.993269 1.01907 0.977774 0.996838
1.04235 1.06173 0.984107 0.997599
1.00543 1.02739 0.981673 0.996888
0.940157 0.975402 0.97409 0.989504
0.91987 0.977698 0.965532 0.97444
0.744577 0.844288 0.919696 0.958903
0.638701 0.774324 0.875744 0.941886
0.999 1 1 0.999
0.999433 1 1 0.999433
0.999408 1 1 0.999408
0.998963 1 1 0.998963
0.998732 1 1 0.998732
0.998751 1 1 0.998751
0.998935 1 1 0.998935
0.999015 1 1 0.999015
1.03004 1.06706 0.967679 0.997551
1.01313 1.05739 0.960453 0.997599
1.01279 1.02824 0.987569 0.997371
1.003 1.00136 1.00442 0.99723
0.997465 1.00683 0.99358 0.997096
1.03816 1.00079 1.03994 0.997505
1.0345 1.00047 1.03672 0.997384
1.00655 1 1.00886 0.997715
0.998827 1 0.999914 0.998913
1.0021 1 1.0039 0.998205
0.998942 1 1 0.998942
0.999002 1 1 0.999002
0.99605 1.04385 0.95638 0.997729
0.999586 1 1.001 0.998583
1.00106 1 1.00254 0.998519
0.993914 1.03169 0.96573 0.997574
1.00207 1.01141 0.99357 0.997179
0.987467 1.00119 0.988492 0.997774
1.0212 1.00016 1.02301 0.99807
1.05004 1.00108 1.05145 0.997581
0.981489 1.02725 0.957669 0.997684
0.986301 1.01024 0.978655 0.9976
0.97861 1.00166 0.979309 0.99763
0.988745 1.00118 0.989519 0.998045
1.00458 1 1.00641 0.998183
1.01023 1 1.01201 0.998249
1.04901 1 1.05123 0.99789
0.777121 0.873594 0.926082 0.960571
0.916024 0.975833 0.960292 0.977525
1.00132 0.999897 1.00339 0.998041
0.999912 1.00124 1.00147 0.997208
1.00394 1.02616 0.980362 0.997945
0.999098 1.00842 0.993726 0.997015
1.00481 1.00255 1.00571 0.996563
0.916928 0.975137 0.964579 0.974835
0.918881 0.975291 0.95565 0.985885
0.976471 0.984828 0.993896 0.997604
0.749156 0.844519 0.924162 0.959874
0.643835 0.79286 0.869483 0.933936
1.00075 0.999853 1.00273 0.998172
0.775655 0.870629 0.928405 0.959616
0.695975 0.807249 0.915667 0.941562
0.988302 1.00726 0.983213 0.997934
1.00758 1.00189 1.00804 0.997656
1.01116 1.00318 1.01047 0.997504
0.959224 0.972972 0.987836 0.99801
0.915537 0.972143 0.968583 0.972319
0.88536 0.940724 0.954334 0.986181
0.74134 0.841274 0.920587 0.957227
0.728595 0.871717 0.888188 0.941034
1.00306 1 1.00442 0.998645
0.741217 0.83187 0.942824 0.945058
0.813587 0.904053 0.944765 0.952547
0.988184 0.996349 0.993126 0.99867
1.01472 1.00251 1.01359 0.998605
0.968394 0.964502 1.00634 0.997707
0.893182 0.929471 0.973237 0.987382
0.874186 0.929756 0.968303 0.971009
0.745119 0.836504 0.929718 0.95809
0.776096 0.911884 0.900461 0.945172
1.00174 0.999554 1.00353 0.998658
1.00252 1 1.00372 0.998807
1.00591 0.999683 1.00716 0.999076
0.998886 1 1 0.998886
0.998525 1 1 0.998525
1.00222 1 1.00385 0.998369
1.00244 1 1.00414 0.998311
1.00223 1 1.00377 0.99847
0.998734 1 1.00024 0.998498
1.00279 1 1.00443 0.998364
0.999957 1 1.00167 0.998291
1.01004 0.99989 1.01156 0.998603
1.02882 0.998937 1.03085 0.999096
1.00533 1 1.00694 0.998394
0.999367 1 1.00112 0.99825
0.998547 1 1.00002 0.998527
0.99939 1 1.00086 0.998535
0.999586 1 1.00124 0.998349
0.999497 1 1.00095 0.998549
0.999397 1 1.00078 0.998621
1.0025 1 1.00402 0.998485
1.00075 1 1.00231 0.998439
1.00174 1 1.00312 0.998632
0.999091 1 1.0007 0.998389
0.998722 1 1.00093 0.997796
1.00342 1 1.00518 0.998247
1.00348 1 1.00514 0.998349
1.0031 1 1.00454 0.998562
1.00036 1 1.0017 0.998668
0.999019 1 1 0.999019
0.999154 1 1.00044 0.998712
0.99904 1 1 0.99904
0.999602 1 1 0.999602
0.998947 1 1 0.998947
0.999613 1 1 0.999613
0.999997 1 1 0.999997
0.999624 1 1 0.999624
0.999999 1 1 0.999999
1 1 1 1
1 1 1 1
1 1 1 1
1 1 1 1
0.999399 1 1 0.999399
0.999905 1 1 0.999905
0.999392 1 1 0.999392
1 1 1 1
0.999927 1 1 0.999927
0.999915 1 1 0.999915
1 1 1 1
1 1 1 1
1 1 1 1
1 1 1 1
1 1 1 1
0.769839 0.861527 0.934016 0.956702
0.702146 0.815599 0.912591 0.943354
0.926862 0.978039 0.958495 0.988711
0.994769 1.01888 0.979262 0.997011
1.04523 1.06572 0.983178 0.997554
0.921918 0.959065 0.970094 0.990901
1.0059 1.02672 0.982636 0.997031
0.9318 0.989626 0.965182 0.975535
0.744215 0.846472 0.919208 0.956472
0.639309 0.783216 0.870654 0.937527
0.955109 0.996237 0.965289 0.993191
0.91831 0.970144 0.97057 0.975273
0.733599 0.842692 0.908311 0.958418
0.714342 0.8564 0.886459 0.940961
0.999982 1 1.0014 0.998582
0.999034 1 1 0.999034
0.999431 1 1 0.999431
0.998956 1 1 0.998956
0.998786 1 1 0.998786
0.999631 1 1.00109 0.998546
0.99873 1 1 0.99873
0.998629 1 1 0.998629
0.998895 1 1 0.998895
0.998976 1 1 0.998976
0.996135 1.04399 0.956317 0.997743
0.99092 1.02906 0.965297 0.997551
0.999741 1.01207 0.990476 0.997316
0.989631 1.00133 0.990636 0.997655
1.04503 1.00268 1.04473 0.997611
1.03 1.00026 1.03192 0.997883
0.999607 1 1.00104 0.998567
0.999665 1 1.00106 0.998603
0.982342 1.02757 0.958139 0.997749
1.00559 1 1.00745 0.998148
1.00978 1 1.0116 0.998203
0.983717 1.00844 0.977897 0.997536
0.976672 1.00129 0.977636 0.997724
0.99019 1.002 0.990217 0.997976
1.04275 1 1.045 0.997846
0.980249 1.00384 0.978447 0.998013
0.971035 0.999318 0.973238 0.998418
1.01366 1.00091 1.01458 0.998192
1.00866 1 1.01058 0.998098
1.00981 1 1.01184 0.997992
1.02699 1 1.02906 0.997993
0.766055 0.847402 0.948831 0.952756
0.784934 0.872444 0.936482 0.960717
0.904529 0.972368 0.955165 0.973898
1.00044 0.999704 1.00257 0.998171
1.00724 1.00186 1.00771 0.997676
0.990859 1.00833 0.984707 0.997932
1.00958 1.0018 1.01014 0.997651
0.771222 0.865653 0.927098 0.960969
0.910148 0.968501 0.964948 0.973886
0.882386 0.937482 0.956692 0.983838
0.956234 0.969048 0.988586 0.99817
0.735796 0.841507 0.915863 0.954705
0.696044 0.808357 0.913751 0.942335
0.720446 0.863253 0.884595 0.943449
1.00324 0.999829 1.00479 0.998636
0.743049 0.834432 0.939623 0.947705
0.825018 0.914529 0.947303 0.952306
0.987961 0.994163 0.994997 0.99876
1.01468 1.00156 1.01457 0.998561
0.96576 0.963213 1.00453 0.998126
0.886503 0.932997 0.964563 0.985075
0.890895 0.938262 0.974973 0.97389
0.763927 0.857886 0.931701 0.955752
0.764205 0.900591 0.895846 0.947217
1.00734 0.99898 1.00894 0.999431
0.840323 0.919885 0.953049 0.958512
0.811271 0.91054 0.931367 0.956634
0.987315 0.972952 1.01505 0.999715
0.915083 0.929327 0.993208 0.991406
0.896853 0.927783 0.993862 0.972633
0.809451 0.890205 0.953216 0.953913
0.800853 0.937682 0.902191 0.94667
1.00244 1 1.00368 0.998769
1.00605 0.999353 1.00764 0.999071
1.02311 0.997313 1.02653 0.999354
0.998853 1 1.00036 0.998497
0.999893 1 1.0016 0.998293
1.00098 1 1.00264 0.998346
1.01005 0.99976 1.01164 0.998662
0.999675 1 1.00143 0.998249
1.00519 1 1.00682 0.998385
1.0334 0.999633 1.03463 0.999173
1.04314 0.996477 1.04741 0.999446
1.03392 0.999313 1.0356 0.999068
0.999724 1 1.00139 0.998337
0.999817 1 1.00148 0.998341
0.99946 1 1.00092 0.998537
0.998701 1 1 0.998701
1.00043 1 1.00198 0.998456
1.00173 1 1.00324 0.998487
1.00227 1 1.00363 0.998649
1.00096 1 1.00248 0.998491
1.00659 0.999399 1.00824 0.998965
0.997121 1.00024 0.998392 0.998491
0.999716 1.00049 1.00082 0.998408
0.998705 1 1.00069 0.998011
1.0011 1.00259 1.00153 0.996996
1.00235 1 1.00421 0.998143
0.998808 1 1.00079 0.998017
1.00312 1 1.00486 0.998263
1.0056 1 1.00721 0.998402
1.00261 1 1.00426 0.998349
1.00278 1 1.00423 0.998561
0.999199 1 1.00028 0.998922
1.00067 1 1.002 0.998665
0.999016 1 1 0.999016
0.999587 1 1 0.999587
0.999041 1 1 0.999041
0.999603 1 1 0.999603
0.99999 1 1 0.99999
0.999615 1 1 0.999615
0.999995 1 1 0.999995
1 1 1 1
0.999999 1 1 0.999999
1 1 1 1
1 1 1 1
0.999166 1 1 0.999166
0.999866 1 1 0.999866
0.999327 1 1 0.999327
1 1 1 1
0.999909 1 1 0.999909
0.999393 1 1 0.999393
1 1 1 1
1 1 1 1
0.999927 1 1 0.999927
1 1 1 1
1 1 1 1
1 1 1 1
0.736312 0.83093 0.934784 0.947952
0.776123 0.868752 0.932123 0.958432
0.819309 0.913376 0.942377 0.95186
0.697992 0.812506 0.911953 0.942
0.922932 0.968526 0.964047 0.988462
1.00389 1.02622 0.980998 0.997184
0.936787 0.987073 0.971972 0.976422
0.753693 0.849829 0.92471 0.959086
0.643709 0.795334 0.867395 0.93309
0.953512 0.991001 0.969608 0.99233
0.91234 0.969872 0.968721 0.971055
0.74723 0.851033 0.917806 0.956658
0.715304 0.860451 0.88555 0.938752
0.92956 0.976911 0.961193 0.989946
0.890313 0.934095 0.982184 0.970418
0.768321 0.86962 0.926265 0.953845
0.770227 0.909553 0.898549 0.94243
1.00172 1 1.00342 0.998307
0.999317 1 1.00069 0.998627
0.999069 1 1 0.999069
0.998841 1 1 0.998841
0.998607 1 1.0004 0.998206
0.998939 1 1.00035 0.998589
0.998708 1 1 0.998708
0.998596 1 1 0.998596
0.998675 1 1.00001 0.998667
0.998855 1 1 0.998855
0.983591 1.02872 0.958228 0.997814
0.983395 1.00744 0.978606 0.997475
0.974538 1.00129 0.975413 0.997818
0.993793 1.00326 0.992641 0.997909
1.03538 1 1.03766 0.997803
1.0092 1 1.01106 0.998158
1.00602 1 1.00792 0.998112
1.0078 1 1.00976 0.99806
0.977888 1.00407 0.975855 0.998023
1.0082 1 1.01024 0.997981
1.02747 1 1.02955 0.997978
0.969653 0.999801 0.971402 0.998398
1.0102 1.00196 1.01009 0.998149
0.953039 0.982499 0.971542 0.998428
0.984487 0.990161 0.995033 0.999234
1.03869 0.999668 1.04069 0.998402
1.00483 1 1.00685 0.997994
1.01791 1 1.01989 0.998061
0.850104 0.925694 0.954751 0.961865
0.767322 0.846758 0.951721 0.952157
0.773773 0.866784 0.931471 0.95837
1.00346 0.999857 1.00498 0.998628
1.01512 1.00056 1.01607 0.998516
0.984537 0.991918 0.993701 0.99885
0.746187 0.836565 0.940388 0.948509
0.888393 0.933741 0.980153 0.9707
0.889854 0.93081 0.969016 0.986567
0.957696 0.959453 0.999633 0.998535
0.764703 0.861183 0.926469 0.958444
0.832 0.919957 0.949845 0.952145
0.768866 0.903788 0.897957 0.947389
1.00583 0.998887 1.00757 0.999384
0.837352 0.918738 0.949396 0.959995
0.811377 0.910519 0.931449 0.956697
0.989802 0.976734 1.01384 0.999548
0.926867 0.939235 0.995622 0.991171
0.87209 0.920917 0.976831 0.969441
0.801445 0.937514 0.902403 0.947317
0.824188 0.897685 0.961254 0.955133
1.00282 0.980873 1.02267 0.999711
0.821095 0.905229 0.938659 0.966333
0.835193 0.932955 0.934149 0.958317
0.769566 0.908349 0.898756 0.942651
0.964357 0.953054 1.01415 0.997744
0.923016 0.941601 1.00658 0.973858
0.866966 0.931821 0.972443 0.956766
1.00663 0.999005 1.00858 0.999064
1.02286 0.997101 1.02658 0.99927
1.02247 0.98531 1.03816 0.999566
0.999726 1 1.00148 0.998249
1.00463 1 1.00627 0.998376
1.03819 0.999781 1.0392 0.999251
1.00009 1 1.00175 0.998342
1.03312 0.999406 1.03468 0.999079
1.04469 0.996267 1.04921 0.999421
1.03317 0.992373 1.04165 0.999489
1.02133 0.998852 1.02346 0.999058
1.00025 1 1.00178 0.998475
1.00134 1 1.00286 0.998488
1.00282 1 1.00416 0.998668
1.00596 0.999718 1.00731 0.998937
1.00048 1 1.00199 0.998489
1.00198 1 1.00314 0.998852
0.997967 1.00008 0.999128 0.99876
1.00196 1.00023 1.00415 0.997586
1.00021 1.00094 1.00084 0.998431
0.999163 1.00067 1.00057 0.997925
0.998608 1.00086 1.00101 0.996745
1.01242 1.01446 1.00129 0.996702
1.00205 1.0015 1.00276 0.997796
1.0001 1.00168 1.00138 0.997046
1.00795 1 1.00977 0.998204
1.00338 1.00038 1.00488 0.998135
0.998881 1 1.00065 0.998237
1.00299 1 1.00472 0.998278
1.00495 1 1.00652 0.998437
0.999998 1 1.00121 0.998792
1.00265 1 1.0041 0.99856
0.999284 1 1.00036 0.998922
0.99953 1 1 0.99953
0.999014 1 1 0.999014
0.999584 1 1 0.999584
0.999985 1 1 0.999985
0.999604 1 1 0.999604
0.999988 1 1 0.999988
1 1 1 1
0.999992 1 1 0.999992
1 1 1 1
1 1 1 1
0.998925 1 1 0.998925
0.99968 1 1 0.99968
0.999164 1 1 0.999164
1 1 1 1
0.999817 1 1 0.999817
0.999255 1 1 0.999255
1 1 1 1
1 1 1 1
0.999914 1 1 0.999914
1 1 1 1
1 1 1 1
1 1 1 1
0.836843 0.922896 0.945437 0.959088
0.734125 0.83064 0.930371 0.94995
0.772403 0.864687 0.932436 0.958002
0.998476 1 1 0.998476
0.817475 0.908401 0.938379 0.959
0.81805 0.912957 0.9415 0.95172
0.701897 0.819594 0.907202 0.943998
0.961167 0.993846 0.975668 0.991237
0.909189 0.962467 0.969223 0.97464
0.750708 0.863109 0.911683 0.954029
0.710311 0.848888 0.890122 0.940045
0.927219 0.973301 0.965163 0.98704
0.890001 0.935262 0.977408 0.973602
0.776826 0.869975 0.935726 0.954263
0.766295 0.903936 0.898918 0.943056
0.888167 0.935139 0.965139 0.984075
0.885185 0.91969 0.991224 0.971004
0.837804 0.90978 0.963779 0.955494
0.801953 0.937061 0.904089 0.946608
1.00114 1 1.00307 0.998079
1.00293 1 1.00467 0.998263
0.998856 1 1.00018 0.998672
0.998292 1 1.00002 0.998276
0.998836 1 1.00056 0.998273
0.998632 1 1 0.998632
0.998602 1 1 0.998602
0.998729 1 1.00003 0.998704
0.974534 1.00475 0.971844 0.998028
0.967912 1.00073 0.968771 0.998384
1.0073 1 1.0093 0.998021
1.00702 1.00297 1.00595 0.998105
1.0293 1 1.0314 0.997962
1.00762 1 1.00967 0.997971
1.00526 1 1.00727 0.998005
0.957193 0.982793 0.975387 0.998528
1.01636 1 1.0183 0.998088
1.0282 1.00032 1.02948 0.998435
0.981403 0.991209 0.990814 0.999287
1.00735 1 1.00923 0.998134
0.950272 0.968839 0.982555 0.99825
1.00179 0.987156 1.01536 0.999474
1.04921 0.997261 1.05363 0.998537
1.01206 1 1.01383 0.998249
0.831408 0.908164 0.944806 0.968963
0.84955 0.925678 0.954221 0.961788
0.7702 0.845989 0.956771 0.951547
1.00375 0.998648 1.00578 0.99934
0.992884 0.979796 1.01398 0.999386
0.836676 0.919672 0.946238 0.961444
0.897436 0.9228 0.999116 0.973375
0.916197 0.93677 0.989961 0.987956
0.823356 0.897687 0.961619 0.953805
0.812193 0.911585 0.931254 0.95674
0.802974 0.938187 0.902857 0.947967
1.00685 0.987265 1.02018 0.999669
0.822702 0.906582 0.939123 0.966302
0.834329 0.930743 0.933398 0.960375
0.973101 0.9584 1.01591 0.999435
0.765105 0.902427 0.898902 0.943184
0.901278 0.925535 1.00212 0.971729
0.873341 0.938865 0.972713 0.956303
1.00145 0.975828 1.02651 0.999752
0.845576 0.926588 0.942235 0.968517
0.815074 0.905493 0.938407 0.959226
0.712141 0.854705 0.88529 0.941161
0.836584 0.909274 0.963398 0.955014
0.952065 0.951338 1.00573 0.995064
0.930468 0.939444 1.02298 0.968194
1.02011 0.997597 1.0234 0.999188
1.02471 0.986483 1.03924 0.999534
1.01153 0.974745 1.03818 0.999582
1.00048 1 1.00213 0.998348
1.03518 0.999474 1.03667 0.999091
1.04682 0.997399 1.05018 0.999396
1.01638 0.999078 1.01829 0.999045
1.03317 0.994064 1.03987 0.999488
1.01115 0.989596 1.02256 0.999235
1.00492 0.999969 1.00605 0.998909
1.00013 1 1.00165 0.998489
1.00438 1 1.00555 0.998831
1.01012 1 1.01199 0.998153
0.999028 1 1 0.999028
1.00002 1.00021 1.00204 0.997774
1.00188 1.00088 1.00456 0.996449
1.00535 1.00745 1.00188 0.996045
0.9997 1.00146 1.0004 0.997835
0.999039 1.00137 1.00111 0.996563
1.01354 1.01626 1.00053 0.996793
1.00755 1.00764 1.00261 0.997304
1.01151 1.0135 1.00125 0.996792
1.00717 1 1.00918 0.998005
1.0042 1.0031 1.00333 0.997773
0.998842 1.00047 1.00128 0.997098
1.00357 1 1.00497 0.998604
1.00736 1 1.00916 0.99822
1.00443 1.00068 1.00563 0.998128
1.00458 1 1.00612 0.998472
1.00051 1 1.00172 0.998792
0.999475 1 1.00005 0.999421
0.999494 1 1.00057 0.998923
0.999525 1 1 0.999525
0.99998 1 1 0.99998
0.999581 1 1 0.999581
0.999984 1 1 0.999984
1 1 1 1
0.999987 1 1 0.999987
1 1 1 1
1 1 1 1
0.998838 1 1 0.998838
0.999536 1 1 0.999536
0.99897 1 1 0.99897
1 1 1 1
0.999665 1 1 0.999665
0.999162 1 1 0.999162
1 1 1 1
1 1 1 1
0.999769 1 1 0.999769
1 1 1 1
1 1 1 1
1 1 1 1
0.827251 0.908069 0.941852 0.967243
0.839532 0.922491 0.948905 0.959074
0.734604 0.830667 0.930786 0.950115
0.99851 1 1 0.99851
0.998438 1 1 0.998438
0.998379 1 1 0.998379
0.834449 0.934402 0.93209 0.958094
0.814068 0.907862 0.934961 0.959063
0.817294 0.912359 0.941377 0.951589
0.932612 0.977978 0.964186 0.989033
0.875482 0.929776 0.970424 0.970303
0.767885 0.853978 0.938461 0.958149
0.778091 0.913042 0.90492 0.941736
0.890623 0.939452 0.960734 0.98677
0.891825 0.924314 0.993264 0.971394
0.816991 0.886976 0.963116 0.956372
0.80115 0.937726 0.901983 0.947194
0.887539 0.928909 0.970421 0.984587
0.906239 0.929572 1.0025 0.972464
0.866746 0.929958 0.973909 0.956997
0.779957 0.914716 0.902174 0.945136
0.998792 1 1.00064 0.99815
1.0018 1 1.00376 0.99805
1.00283 1 1.00462 0.998218
0.998277 1 1.00001 0.998266
0.998679 1 1.00034 0.998341
0.998608 1 1 0.998608
0.959655 0.98009 0.980511 0.998612
0.97674 0.990326 0.98695 0.999323
1.00547 1 1.00747 0.998017
1.01979 1.00052 1.02083 0.998467
1.01683 1 1.01875 0.998115
1.00936 1 1.01126 0.998124
1.0111 0.999359 1.0135 0.998276
0.957259 0.96895 0.989573 0.998344
1.04728 0.996729 1.05211 0.998679
1.00589 0.983169 1.02374 0.999382
1.00857 0.999174 1.01099 0.998432
0.977176 0.962188 1.01751 0.998104
1.00632 0.978044 1.02953 0.999391
1.03474 0.989252 1.04725 0.998793
0.858284 0.931609 0.948884 0.970921
0.832981 0.908729 0.945514 0.969466
0.84897 0.925581 0.953747 0.96171
1.01211 0.993608 1.019 0.999627
0.962006 0.955409 1.00866 0.998258
0.824192 0.907594 0.939804 0.966272
0.897052 0.914123 1.00569 0.975769
0.868089 0.936189 0.971359 0.954598
0.834475 0.929177 0.933138 0.96243
0.778869 0.912237 0.906395 0.941974
0.997223 0.973153 1.02496 0.999781
0.846588 0.92625 0.94296 0.969283
0.815697 0.907946 0.936522 0.959292
0.948147 0.946877 1.01007 0.991358
0.713602 0.858633 0.885022 0.939063
0.811927 0.885132 0.959876 0.955639
0.940091 0.945589 1.02209 0.972703
1.00193 0.960392 1.04438 0.998915
0.828066 0.907291 0.943448 0.967388
0.826619 0.918508 0.945112 0.952224
0.637605 0.771832 0.876546 0.942441
0.761996 0.863539 0.925164 0.953788
0.905699 0.926387 1.00608 0.971756
0.926666 0.942262 0.994715 0.988674
1.02742 0.987497 1.04094 0.999501
1.01586 0.981464 1.03547 0.999586
1.01201 0.985878 1.02701 0.999516
1.01101 0.999394 1.01261 0.999032
1.03105 0.995286 1.03647 0.999487
1.01475 0.987621 1.02817 0.999319
1.00857 1 1.00977 0.998811
1.00683 1 1.00803 0.99881
1.0083 1.00003 1.01031 0.997975
1.01992 1.00083 1.02252 0.996627
0.997934 1.00005 0.999916 0.997965
1.00333 1.0012 1.0057 0.996443
1.00439 1.00252 1.00631 0.995575
1.00578 1.00827 1.00191 0.995631
1.00784 1.01039 1.00108 0.996402
1.00522 1.00732 1.00193 0.995995
0.999276 1.00166 1.00124 0.996381
1.0063 1.00812 1.0011 0.997094
1.01377 1.01646 1.00048 0.996878
1.00247 1.00024 1.00464 0.997604
1.00897 1.00887 1.00274 0.997371
1.01119 1.01316 1.00117 0.996882
1.00805 1 1.00976 0.998303
1.00654 1.00027 1.00828 0.998003
1.00647 1.00492 1.00381 0.997748
0.999706 1 1.00043 0.999279
1.00308 1 1.00449 0.998603
1.0064 1 1.00818 0.998235
1.00044 1 1.00165 0.998791
0.999525 1 1.00011 0.999417
0.999964 1 1 0.999964
0.999521 1 1 0.999521
0.999976 1 1 0.999976
1 1 1 1
0.999983 1 1 0.999983
1 1 1 1
1 1 1 1
0.998804 1 1 0.998804
0.999517 1 1 0.999517
0.998865 1 1 0.998865
0.999998 1 1 0.999998
0.999578 1 1 0.999578
0.999014 1 1 0.999014
1 1 1 1
1 1 1 1
0.99965 1 1 0.99965
1 1 1 1
1 1 1 1
1 1 1 1
0.844938 0.926523 0.941759 0.968343
0.829506 0.908843 0.94364 0.967219
0.841085 0.921539 0.951626 0.959091
0.999729 1 1.0014 0.998332
0.999912 1 1.00172 0.998195
0.998545 1 1 0.998545
0.998426 1 1 0.998426
0.998371 1 1 0.998371
0.998408 1 1.00005 0.99836
0.998332 1 1 0.998332
0.812238 0.913441 0.929727 0.956417
0.836345 0.932414 0.934169 0.960177
0.81249 0.906383 0.934608 0.959129
0.801077 0.938517 0.90057 0.947796
0.885227 0.935675 0.961083 0.984394
0.891451 0.920588 0.996496 0.971755
0.825409 0.898108 0.959769 0.957578
0.878852 0.930091 0.960616 0.983649
0.904299 0.922284 1.01165 0.969203
0.872111 0.937721 0.971876 0.956946
0.765865 0.902388 0.896033 0.947184
0.902723 0.933555 0.980459 0.986246
0.9174 0.931926 1.01605 0.968863
0.813847 0.89375 0.954237 0.954269
0.730741 0.868325 0.893626 0.941728
1.014 1 1.01561 0.998414
1.00032 1 1.00216 0.998167
1.00287 1 1.00486 0.998021
0.998256 1 1 0.998256
0.964493 0.969436 0.996427 0.998468
1.00822 0.981233 1.02824 0.999285
1.00855 1 1.01046 0.998114
1.01008 0.999669 1.01213 0.998302
1.03979 0.994694 1.04657 0.998821
1.00706 0.999863 1.00878 0.99843
1.03633 0.98945 1.04866 0.99878
0.975909 0.961796 1.01789 0.99684
1.00459 0.969166 1.03703 0.999536
1.01158 0.990301 1.02261 0.998908
0.954124 0.932119 1.02723 0.996474
1.01305 0.967602 1.0477 0.999296
0.832508 0.907741 0.946407 0.969056
0.856283 0.930812 0.946393 0.97204
0.834315 0.909065 0.946191 0.969965
0.992134 0.968677 1.02442 0.999805
0.954125 0.951184 1.00773 0.995394
0.845708 0.925007 0.942493 0.970057
0.938523 0.948683 1.02111 0.968836
0.816541 0.892191 0.956423 0.956909
0.815967 0.909722 0.934944 0.959353
0.709668 0.847322 0.890689 0.940332
1.00325 0.962868 1.04289 0.999089
0.829029 0.909702 0.942061 0.967368
0.821107 0.914318 0.943248 0.952087
0.929243 0.942475 0.994736 0.991178
0.639366 0.78219 0.871302 0.938142
0.768633 0.863095 0.933546 0.953948
0.904796 0.923526 1.01051 0.969527
0.995686 0.968457 1.03074 0.997454
0.83812 0.924418 0.945043 0.959369
0.702213 0.814413 0.913438 0.943941
0.735764 0.844448 0.908598 0.958945
0.875285 0.908748 0.99057 0.972347
0.893133 0.923683 0.981608 0.985044
1.02044 0.985479 1.0359 0.99959
1.01307 0.982952 1.03114 0.999515
0.985605 0.980466 1.00593 0.999318
1.01915 0.985959 1.03428 0.999402
1.00607 0.992815 1.01447 0.998897
1.00189 1.0008 1.00331 0.997796
1.00677 1.00003 1.00897 0.997798
1.01767 1.00077 1.02043 0.996523
1.0101 1.00044 1.01404 0.995684
1.00502 1.00184 1.00676 0.996437
1.005 1.00228 1.00726 0.995485
1.00193 1.0022 1.00448 0.995268
1.01994 1.02425 1 0.995788
1.01315 1.01653 1.00077 0.995914
1.00609 1.00836 1.00218 0.995575
1.00505 1.00825 1.00013 0.996701
1.00664 1.00946 1.00074 0.996466
1.00504 1.00714 1.00198 0.995944
1.00317 1.00492 1.00112 0.997149
1.00626 1.00813 1.00108 0.997071
1.01375 1.01641 1.00043 0.996963
1.00569 1.00012 1.00767 0.997911
1.00311 1.00083 1.00462 0.997668
1.01017 1.00986 1.00288 0.997438
1.00195 1 1.00293 0.999023
1.00669 1 1.0084 0.998308
1.00595 1.00054 1.00742 0.998001
0.999936 1 1 0.999936
1.00018 1 1.00091 0.999272
1.00297 1 1.00438 0.998601
0.99973 1 1.00032 0.999412
0.999957 1 1 0.999957
1 1 1 1
0.999972 1 1 0.999972
1 1 1 1
1 1 1 1
1.00203 1 1.00371 0.998322
0.998803 1 1.00014 0.998666
0.999402 1 1 0.999402
0.9988 1 1 0.9988
0.999988 1 1 0.999988
0.99952 1 1 0.99952
0.998892 1 1 0.998892
1 1 1 1
0.999999 1 1 0.999999
0.99962 1 1 0.99962
1 1 1 1
1 1 1 1
1 1 1 1
0.820647 0.905379 0.938114 0.966208
0.843254 0.924491 0.941188 0.969124
0.830376 0.910981 0.942441 0.96719
0.999858 1 1.00152 0.998344
1.00103 1 1.00283 0.998196
1.00034 1 1.00211 0.998232
1.00006 1 1.00186 0.998206
1.00585 1 1.00771 0.998159
0.998414 1 1 0.998414
0.998362 1 1 0.998362
0.998363 1 1 0.998363
0.998337 1 1 0.998337
1.00821 1 1.00983 0.998394
0.813975 0.905686 0.943798 0.952256
0.812847 0.91273 0.93106 0.956509
0.837708 0.931578 0.934512 0.962251
0.768352 0.904852 0.896321 0.947369
0.868909 0.935023 0.973158 0.954924
0.873592 0.925453 0.960981 0.98229
0.913753 0.931272 1.00935 0.972104
0.899683 0.936742 0.976799 0.98325
0.927028 0.942561 1.01169 0.972157
0.82751 0.89825 0.963672 0.955976
0.730221 0.874401 0.887769 0.940684
0.913679 0.928852 0.998114 0.985524
0.909584 0.924715 1.01116 0.972778
0.747564 0.838885 0.930476 0.957724
0.670314 0.813219 0.875133 0.941882
1.01322 1 1.01425 0.99898
1.01526 1 1.01687 0.998423
1.00317 1 1.005 0.998184
0.977544 0.964129 1.01847 0.995525
1.00703 0.963139 1.04589 0.99969
1.00689 1 1.00847 0.998427
1.03909 0.988884 1.05206 0.998767
1.01286 0.993207 1.0209 0.998914
1.01854 0.974411 1.04603 0.999285
0.960212 0.942619 1.02231 0.996428
1.01719 0.992782 1.02526 0.999345
0.972633 0.959091 1.01731 0.996865
0.848739 0.92533 0.953953 0.961503
0.835048 0.909191 0.947296 0.96955
0.854153 0.929758 0.944019 0.973163
1.00515 0.968843 1.03826 0.999241
0.925276 0.939846 0.997426 0.987039
0.832381 0.912096 0.943414 0.96734
0.908477 0.931352 1.00614 0.969489
0.758485 0.845231 0.936913 0.957796
0.815524 0.910076 0.941315 0.951972
0.643372 0.794124 0.86764 0.933758
0.994276 0.967066 1.03054 0.997668
0.839205 0.922037 0.948732 0.959347
0.698276 0.812326 0.911934 0.942613
0.901112 0.932055 0.980057 0.986475
0.748536 0.851845 0.918102 0.957108
0.870353 0.914663 0.980816 0.970169
0.955412 0.954929 1.00448 0.996041
0.736674 0.831742 0.933858 0.94843
0.744618 0.844056 0.919468 0.959457
0.886631 0.933712 0.978428 0.970512
0.871351 0.921179 0.958081 0.987295
1.01203 0.980184 1.03299 0.999515
0.989035 0.978738 1.01124 0.999293
0.995662 0.993289 1.00393 0.998461
1.00311 0.984884 1.01955 0.998979
1.00153 1.00082 1.00284 0.99788
0.997986 1.00199 0.999119 0.996887
1.01518 1.00067 1.01815 0.996417
1.00869 1.00079 1.01226 0.995689
0.999164 1.0019 1.00137 0.99591
1.00527 1.00195 1.00796 0.995396
1.00208 1.0031 1.0037 0.995301
1.01793 1.02201 1 0.996006
1.04073 1.04452 1 0.99637
1.02993 1.03419 1.00002 0.995869
1.01998 1.02427 1 0.995816
1.01509 1.01896 1 0.996199
1.01169 1.01481 1.00107 0.995861
1.00658 1.00865 1.00244 0.995519
1.00711 1.01028 1 0.99686
1.00353 1.00675 1.00002 0.996775
1.0052 1.00838 1.00032 0.99653
1.00106 1.00146 1.00208 0.997519
1.00282 1.00435 1.0013 0.997184
1.00641 1.00828 1.0011 0.997046
1.00701 1 1.00844 0.998591
1.00619 1.00043 1.00786 0.997915
1.00375 1.00126 1.00476 0.997731
0.999882 1 1 0.999882
1.00271 1 1.00369 0.999015
1.00602 1 1.00772 0.998313
0.999998 1 1 0.999998
0.999925 1 1 0.999925
1.00055 1 1.00129 0.999265
0.99995 1 1 0.99995
1 1 1 1
1 1 1 1
1.00494 1 1.00672 0.998226
1.00026 1 1.00175 0.998521
1.00262 1 1.00433 0.998302
0.9993 1 1.00002 0.999282
0.999045 1 1.00038 0.998664
0.999966 1 1 0.999966
0.999406 1 1 0.999406
0.998797 1 1 0.998797
1 1 1 1
0.999992 1 1 0.999992
0.999523 1 1 0.999523
1 1 1 1
1 1 1 1
1 1 1 1
0.83625 0.92031 0.944756 0.961795
0.823927 0.907751 0.939426 0.966183
0.84345 0.922199 0.942983 0.969909
0.998954 1.00033 1.00039 0.998237
1.00033 1 1.00198 0.998355
1.00119 1 1.003 0.998198
0.999425 1 1.00123 0.9982
1.00025 1 1.002 0.998254
1.00365 1 1.00541 0.998248
1.01162 1 1.01376 0.997887
1.01425 1 1.01607 0.998206
0.998365 1 1 0.998365
0.998342 1 1 0.998342
1.00796 1 1.00959 0.998379
1.02126 0.999598 1.02311 0.998591
0.709718 0.819173 0.918332 0.943432
0.824811 0.915957 0.945872 0.952022
0.813768 0.912575 0.932206 0.956578
0.722835 0.866729 0.884333 0.943062
0.828469 0.901624 0.962078 0.955082
0.921179 0.935819 1.01592 0.968932
0.899767 0.929013 0.9843 0.983968
0.912152 0.928624 0.994698 0.987498
0.65737 0.804459 0.871478 0.93767
0.903781 0.923261 1.00939 0.969797
0.76593 0.859252 0.933151 0.955249
0.912459 0.937502 0.984471 0.98864
0.894837 0.924636 0.993705 0.973903
0.73603 0.844894 0.909769 0.957552
0.998137 1 0.998596 0.99954
1.01268 1 1.01371 0.998986
1.01514 1 1.01674 0.998432
0.959228 0.943977 1.01977 0.996455
1.0242 0.981189 1.0446 0.999273
1.01357 0.996386 1.01835 0.998921
1.01682 0.99348 1.02417 0.999344
0.969387 0.957877 1.01515 0.99691
0.993194 0.986534 1.00886 0.997911
0.766928 0.847049 0.953416 0.94965
0.84599 0.924534 0.949851 0.963355
0.835098 0.909915 0.946126 0.970035
0.995515 0.966223 1.03257 0.997816
0.891254 0.927563 0.973175 0.987341
0.838023 0.919764 0.949724 0.959361
0.876266 0.907091 0.994586 0.971276
0.754051 0.866036 0.912123 0.954578
0.702931 0.819924 0.90762 0.944572
0.956059 0.952445 1.00771 0.996113
0.734603 0.831182 0.929938 0.950391
0.745391 0.84663 0.919934 0.95705
0.871494 0.922192 0.960298 0.984095
0.888272 0.937611 0.973008 0.97366
0.948549 0.964546 0.985305 0.998081
0.766709 0.858565 0.933081 0.957057
0.92041 0.972589 0.970436 0.975179
0.881147 0.935083 0.957784 0.983854
0.991863 0.976923 1.01603 0.999272
0.987333 0.993041 0.995692 0.998553
0.994436 1.00119 0.995642 0.997603
1.00198 1.00094 1.00308 0.997963
1.00131 1.00247 1.00199 0.996867
1.00034 1.00406 0.999428 0.996865
1.00738 1.0011 1.01063 0.995695
0.999039 1.00146 1.00167 0.995919
1.02269 1.02698 0.999003 0.996812
1.00248 1.00398 1.00319 0.995334
1.01689 1.02096 1 0.996017
1.04131 1.04495 0.999554 0.996964
1.04402 1.04718 0.999972 0.997011
1.04333 1.04722 1 0.996285
1.04101 1.04475 1 0.996413
1.03132 1.03537 1 0.996091
1.02836 1.03257 1 0.995928
1.01978 1.02403 1 0.995845
1.01995 1.02348 1 0.996544
1.0153 1.01901 1.00014 0.996225
1.01035 1.01311 1.00148 0.995807
1.00329 1.00612 1 0.997188
1.00717 1.01035 1 0.996854
1.00205 1.00521 1 0.996849
1.00337 1.00018 1.00505 0.998151
1.00248 1.00263 1.00234 0.997515
1.00219 1.00353 1.00145 0.99722
1.00059 1 1.00084 0.999752
1.005 1 1.00642 0.998587
1.00572 1.00077 1.00705 0.997917
1 1 1 1
1.00001 1 1.00015 0.999862
1.00271 1 1.00371 0.999007
1 1 1 1
0.999915 1 1 0.999915
1 1 1 1
1.00001 1.00018 1.00172 0.998113
1.00361 1 1.0054 0.998212
1.00365 1 1.00528 0.99838
0.999902 1 1.00075 0.999155
1.00063 1 1.00211 0.998519
1.00232 1 1.00405 0.998283
0.999935 1 1 0.999935
0.999286 1 1 0.999286
0.998831 1 1.00017 0.998662
1 1 1 1
0.999972 1 1 0.999972
0.999409 1 1 0.999409
1 1 1 1
0.999995 1 1 0.999995
1 1 1 1
0.74108 0.831965 0.942031 0.945573
0.837247 0.921194 0.944959 0.961811
0.827455 0.910364 0.940764 0.96616
1.00128 1.00009 1.00298 0.998216
1.00498 1.00216 1.00492 0.99791
1.00906 1 1.01103 0.99806
1.00054 1 1.00235 0.998195
1.00001 1 1.00173 0.998276
1.00388 1 1.00555 0.998336
1.01286 1 1.01471 0.998172
1.01113 1 1.01322 0.997937
1.01329 1.00036 1.01513 0.99782
0.988269 1.00086 0.988436 0.998971
1.00643 1 1.00808 0.998363
1.01731 0.999715 1.01906 0.998565
0.745437 0.842888 0.926174 0.954878
0.695371 0.80618 0.916571 0.941062
0.832071 0.921943 0.948149 0.951874
0.645283 0.794759 0.869905 0.933346
0.76736 0.860891 0.930511 0.957921
0.892573 0.918278 1.00027 0.971744
0.918606 0.934527 0.998013 0.984921
0.90209 0.93009 0.983244 0.986423
0.738026 0.83906 0.919844 0.956235
0.877147 0.914063 0.988019 0.97125
0.891139 0.935779 0.964188 0.987666
0.876013 0.936306 0.963535 0.971014
1.0032 1 1.00419 0.999021
0.997819 1 0.998334 0.999484
1.01231 1 1.01333 0.998991
0.966621 0.957313 1.01281 0.996957
1.01617 0.993564 1.02342 0.999344
0.993921 0.98778 1.00839 0.997848
0.979948 0.991534 0.991357 0.996932
0.778179 0.875517 0.925358 0.960519
0.766899 0.845621 0.954301 0.950336
0.847078 0.925872 0.947909 0.965174
0.959206 0.959167 1.00379 0.996268
0.874129 0.922093 0.962787 0.984624
0.735534 0.831816 0.930274 0.950526
0.87157 0.928825 0.966755 0.970626
0.756314 0.852279 0.924691 0.959674
0.952017 0.967011 0.987395 0.997062
0.776258 0.868307 0.932414 0.95879
0.91575 0.972865 0.969125 0.971281
0.885252 0.937497 0.957305 0.986385
0.959466 0.984671 0.976391 0.997964
0.924391 0.979867 0.968048 0.974522
0.926369 0.9767 0.959397 0.988608
0.978363 0.991805 0.987799 0.998631
0.990874 1.00163 0.991665 0.997575
0.981801 1.00761 0.976859 0.997464
1.00318 1.00278 1.00356 0.996848
0.999693 1.0042 0.998648 0.996861
1.02297 1.03477 0.991069 0.997508
0.998824 1.00104 1.00186 0.995929
1.02178 1.02677 0.998344 0.996793
1.03731 1.04697 0.993212 0.99754
1.0159 1.01995 1 0.996029
1.04036 1.0445 0.999078 0.996958
1.04256 1.04808 0.99722 0.997504
1.04094 1.04413 0.99956 0.997381
1.0449 1.04812 0.999847 0.997081
1.04322 1.0465 1 0.996861
1.0448 1.04863 1 0.996349
1.04335 1.04722 1 0.996302
1.04152 1.04522 1 0.996458
1.03249 1.03628 1 0.996337
1.033 1.03702 1 0.996122
1.0268 1.03093 1 0.995987
1.01368 1.01684 1 0.996894
1.01911 1.02265 1 0.99654
1.01547 1.01911 1.00017 0.996252
0.999024 1.00091 1.00026 0.997855
1.00489 1.00773 1 0.997184
1.00781 1.011 1 0.996849
1.00158 1 1.00207 0.999515
1.00307 1.00037 1.00456 0.998152
1.00445 1.00394 1.003 0.997513
1 1 1 1
1.00139 1 1.00166 0.999728
1.0042 1 1.00563 0.998584
0.999996 1 1 0.999996
1.00054 1 1.00069 0.999848
1 1 1 1
0.998717 1.00071 1 0.99801
1.00115 1.00016 1.00286 0.99813
1.00408 1 1.00585 0.998242
1.00172 1 1.00353 0.998197
1.00384 1 1.00547 0.99838
1.00147 1 1.00248 0.998997
0.999894 1 1 0.999894
0.999725 1 1.00057 0.999157
1.00162 1 1.00311 0.998517
1 1 1 1
0.999944 1 1 0.999944
0.99929 1 1 0.99929
1 1 1 1
0.999979 1 1 0.999979
1 1 1 1
0.775231 0.863749 0.93621 0.958673
0.74381 0.834269 0.94231 0.946154
0.837081 0.921401 0.94455 0.96182
1.00396 1 1.00578 0.998196
1.01132 1 1.01344 0.997909
1.00287 1.00127 1.00363 0.997984
1.00248 1.00447 1.0009 0.997119
1.01134 1.00117 1.01227 0.997908
1.01156 1 1.01344 0.998139
1.00926 1 1.01129 0.997987
1.01635 1.00056 1.01793 0.997897
0.999316 1.00201 0.999704 0.997603
0.97855 1.00164 0.978347 0.998567
0.977539 1.00035 0.979435 0.997714
0.988386 1.00079 0.988582 0.999011
1.01181 1 1.01329 0.998541
0.904894 0.963673 0.964735 0.973329
0.74196 0.838724 0.925286 0.95606
0.694371 0.806731 0.913907 0.941805
0.735977 0.842044 0.916577 0.953588
0.888049 0.925261 0.988356 0.971089
0.906123 0.926566 0.989089 0.988725
0.892111 0.9348 0.96464 0.989316
0.894018 0.940804 0.974997 0.974639
0.918287 0.969509 0.958247 0.988437
0.993983 1.00132 0.994446 0.998218
1.00294 1 1.00395 0.998999
0.99769 1 0.99826 0.999428
0.995728 0.99039 1.00758 0.997824
0.985936 0.994918 0.993818 0.997136
0.900445 0.966915 0.956301 0.973809
0.785754 0.87395 0.935778 0.960788
0.766111 0.842722 0.955877 0.951054
0.957387 0.97222 0.988712 0.995986
0.889345 0.94224 0.959184 0.984027
0.77419 0.865125 0.933778 0.958351
0.908968 0.962578 0.968917 0.9746
0.966961 0.984405 0.984207 0.998042
0.933738 0.98961 0.967341 0.975396
0.923002 0.972522 0.962428 0.986131
0.978827 1.00401 0.977427 0.997436
0.951911 0.993582 0.965685 0.992104
0.991587 1.00412 0.989924 0.997569
0.980926 1.00734 0.976304 0.997415
0.996417 1.03461 0.965251 0.997755
0.999143 1.00418 0.998123 0.996856
1.02395 1.03536 0.991479 0.997481
1.0347 1.05475 0.983135 0.997821
1.02074 1.02651 0.997589 0.996774
1.03683 1.0471 0.99265 0.997517
1.03249 1.04689 0.988477 0.997746
1.0392 1.04388 0.998561 0.996952
1.04247 1.04848 0.99678 0.997482
1.04003 1.04706 0.995693 0.99758
1.04125 1.0446 0.999356 0.997436
1.03949 1.04269 0.999743 0.997193
1.0456 1.04889 0.999708 0.997151
1.0431 1.04639 1 0.996853
1.04525 1.04875 1 0.996659
1.04196 1.04574 1 0.99639
1.04461 1.04845 1 0.996338
1.04335 1.04721 1 0.996319
1.02662 1.03004 1 0.99668
1.03214 1.03592 1 0.996347
1.03475 1.03874 1 0.996153
1.00173 1.00411 1 0.997632
1.01379 1.01695 1 0.996892
1.01808 1.02162 1 0.996537
1.00028 1 1.00103 0.999245
1.00009 1.00174 1.0005 0.997855
1.0062 1.00905 1 0.997181
1 1 1 1
1.0014 1 1.00191 0.999491
1.00231 1.00056 1.0036 0.998154
1 1 1 1
1.00162 1 1.00191 0.999703
1 1 1 1
1.0033 1.00608 1 0.997246
0.999059 1.00106 1 0.997998
1.00026 1 1.00224 0.998032
1.00275 1 1.00461 0.998147
1.00349 1 1.00529 0.99821
1.00324 1 1.00447 0.998769
1.0043 1 1.00593 0.99838
1.00109 1 1.00209 0.998998
0.999879 1 1.00004 0.999838
1 1 1 1
0.999905 1 1 0.999905
0.999449 1 1.00029 0.999159
1 1 1 1
0.999953 1 1 0.999953
1 1 1 1
0.924143 0.980689 0.965032 0.976486
0.775268 0.870153 0.928568 0.959494
0.748769 0.837522 0.946187 0.944875
1.01273 1 1.015 0.997759
1.00083 1.00081 1.00196 0.998059
1.0094 1.00114 1.01041 0.997865
1.00375 1.00544 1.00112 0.9972
1.01317 1.01633 1.00016 0.996731
0.999662 1.00218 1 0.997486
1.02066 1.00089 1.02182 0.997973
1.00006 1.00267 1 0.997401
0.984554 1.00192 0.98409 0.99855
0.995613 1.00156 0.996429 0.997625
0.974873 1.00337 0.973736 0.997803
0.995011 1.0013 0.996406 0.997302
0.979337 1.00082 0.980652 0.997842
0.992359 1.00069 0.992611 0.999051
0.925293 0.976016 0.959102 0.988457
0.910795 0.96923 0.965299 0.973491
0.74662 0.840057 0.926608 0.959169
0.894919 0.942794 0.978052 0.970521
0.897613 0.9344 0.970042 0.990297
0.920825 0.965783 0.961332 0.991799
0.985221 1.00377 0.984033 0.99745
0.991958 1.00067 0.993092 0.99819
1.00275 1 1.00378 0.998978
0.987711 0.997178 0.993166 0.997322
0.937601 0.973723 0.973838 0.988771
0.915812 0.97385 0.96207 0.977479
0.77368 0.86795 0.930092 0.958387
0.966459 0.980413 0.987629 0.998115
0.926944 0.977488 0.960008 0.987796
0.937787 0.98763 0.972683 0.976199
0.971305 1.00221 0.971613 0.997484
0.950548 0.989579 0.968959 0.99133
0.972158 1.02446 0.951363 0.997463
0.993816 1.01692 0.980834 0.996372
0.979131 1.00708 0.974816 0.99736
0.994332 1.03297 0.964762 0.997749
1.00435 1.05581 0.953393 0.997763
1.02555 1.03654 0.991925 0.997454
1.03443 1.05452 0.98311 0.997802
1.03019 1.05112 0.982348 0.997697
1.0368 1.04748 0.992296 0.997493
1.03238 1.04625 0.988984 0.997727
1.03964 1.05249 0.990222 0.997549
1.0426 1.049 0.996429 0.997461
1.03803 1.04498 0.995763 0.997572
1.04039 1.04603 0.997301 0.997301
1.04164 1.04511 0.999182 0.99749
1.03988 1.04302 0.999751 0.997238
1.04371 1.04699 1 0.996868
1.04305 1.04635 1 0.996844
1.04528 1.0488 1 0.996648
1.04411 1.0477 1 0.996574
1.03458 1.03812 1 0.996587
1.04202 1.04579 1 0.996392
1.04436 1.04821 1 0.996326
1.00782 1.01041 1 0.997435
1.02567 1.02908 1 0.996683
1.03173 1.03551 1 0.996356
0.999192 1 1.00017 0.999025
1.00339 1.00578 1 0.99763
1.01378 1.01694 1 0.996889
1 1 1 1
1 1 1.00077 0.999228
1.00106 1.00253 1.00068 0.997856
1 1 1 1
1.0014 1 1.00194 0.999466
1 1 1 1
1.01391 1.01714 1 0.996828
1.00531 1.00806 1 0.997274
1.00456 1.00636 1.00066 0.997554
0.999008 1.00103 1 0.997985
1.00014 1 1.00216 0.997988
1.00224 1.00014 1.00364 0.998467
1.00295 1 1.00478 0.998178
1.00332 1 1.00455 0.998771
1.00097 1 1.00122 0.999754
1.00104 1 1.00204 0.998998
0.999916 1 1.00007 0.999848
1 1 1 1
1 1 1 1
0.999916 1 1 0.999916
1 1 1 1
0.928318 0.976286 0.961298 0.989148
0.91558 0.98 0.959924 0.97327
0.7684 0.863019 0.926698 0.960791
1.02855 1.03204 1.00007 0.996545
1.00756 1.00085 1.0089 0.997824
1.00502 1.0064 1.00135 0.997282
0.999672 1.00221 1 0.997469
1.01218 1.01509 1.00042 0.996713
1.00332 1.00606 0.999872 0.997409
0.999785 1.00259 1 0.997199
0.986336 1.00154 0.986268 0.998533
0.99336 1.00183 0.99389 0.997636
0.968488 1.00231 0.968487 0.997694
1.00368 1.01078 0.995994 0.99697
0.999759 1.0069 0.995559 0.997332
0.995742 1.00196 0.996522 0.997267
0.980095 1.00134 0.980778 0.99797
0.983347 1.00613 0.979372 0.997946
0.920549 0.973812 0.957585 0.987175
0.91185 0.970767 0.964312 0.974071
0.914884 0.959605 0.96341 0.989606
0.9879 1.00531 0.984491 0.998158
0.991972 1.0002 0.993607 0.998155
0.984661 1.00668 0.982046 0.996007
0.923295 0.959269 0.972014 0.99021
0.903312 0.970678 0.955506 0.973932
0.968022 1.00009 0.97033 0.997532
0.957923 0.991574 0.975512 0.990314
0.975906 1.02561 0.953852 0.997571
0.99606 1.0166 0.983109 0.996633
0.992681 1.04012 0.956685 0.997598
1.04306 1.05688 0.989447 0.997451
0.991479 1.03078 0.964047 0.997744
1.00859 1.05715 0.956219 0.997748
1.01905 1.06236 0.961585 0.997554
1.03338 1.05378 0.982815 0.997782
1.0283 1.0499 0.981695 0.997693
1.03893 1.05864 0.983902 0.997434
1.03194 1.04545 0.989339 0.997709
1.03827 1.05128 0.990039 0.997562
1.04229 1.05171 0.993778 0.99725
1.03596 1.04289 0.995782 0.997565
1.04091 1.04651 0.997338 0.997299
1.04594 1.04956 0.999576 0.996973
1.04023 1.04331 0.999756 0.997284
1.04408 1.04731 1 0.996911
1.04616 1.04969 1 0.996638
1.04531 1.04883 1 0.996637
1.04388 1.04748 1 0.996556
1.03735 1.04088 1 0.996616
1.0135 1.01623 1 0.997313
1.03386 1.03739 1 0.996602
1.0421 1.04587 1 0.996395
0.998972 1.0001 1 0.998876
1.00936 1.01196 1 0.997435
1.02492 1.02833 1 0.996687
1 1 1 1
0.99904 1 1.00003 0.999011
1.0052 1.00759 1 0.997628
1 1 1 1
0.999599 1 1.00039 0.999212
1 1 1 1
1.02784 1.03142 1 0.996531
1.01564 1.01887 1 0.996826
1.01332 1.01621 1 0.997153
1.00747 1.01019 1.00001 0.997301
1.00346 1.00536 1.00056 0.997548
1.00193 1.00177 1.00201 0.998145
0.999884 1 1.00194 0.997944
1.00306 1 1.0046 0.998469
1.00143 1 1.00181 0.99962
1.00273 1 1.00397 0.998772
1.00032 1 1.00055 0.999765
1 1 1 1
0.999859 1 1 0.999859
1 1 1 1
1 1 1 1
0.979568 1.01057 0.971559 0.997702
0.92284 0.973459 0.960785 0.986694
0.913354 0.970575 0.963357 0.976839
1.01968 1.02277 1.00001 0.996967
1.03882 1.04235 1 0.996613
1.02658 1.02993 1.00013 0.996614
0.999949 1.0025 1 0.997451
1.01135 1.01396 1.00073 0.996693
1.00429 1.00794 0.998987 0.997384
1.02084 1.02567 0.998367 0.99692
0.992613 1.00285 0.992125 0.997648
0.964973 1.00186 0.965512 0.997584
1.00486 1.0125 0.995382 0.99706
1.02271 1.03148 0.994684 0.99679
1.00472 1.02497 0.982645 0.997563
1.00266 1.00876 0.996647 0.997291
0.99721 1.00262 0.997361 0.997231
0.987897 1.00793 0.981904 0.998188
0.92416 0.976265 0.960272 0.985791
0.987822 1.00569 0.983329 0.998888
1.02288 1.04426 0.981424 0.998061
0.982381 1.00539 0.980907 0.996132
0.927114 0.970207 0.967176 0.988014
0.978882 1.02706 0.955315 0.997672
0.998208 1.01675 0.984805 0.996908
0.990605 1.04065 0.954068 0.997735
1.04267 1.05835 0.987684 0.997468
1.03749 1.06846 0.973491 0.997457
1.07106 1.0875 0.987258 0.997592
1.01287 1.05923 0.958401 0.997734
1.02448 1.06354 0.965638 0.997555
1.04227 1.0682 0.978337 0.997338
1.02672 1.04884 0.981184 0.997689
1.0387 1.05777 0.984499 0.997433
1.04273 1.05728 0.988992 0.997216
1.03696 1.05009 0.989892 0.997575
1.04279 1.0522 0.993799 0.997247
1.04788 1.0536 0.997584 0.996978
1.04139 1.04696 0.997376 0.997297
1.04627 1.04987 0.999597 0.996972
1.04926 1.05277 1 0.996666
1.04444 1.04764 1 0.996953
1.04565 1.04917 1 0.996652
1.04019 1.04374 1 0.996601
1.04369 1.04731 1 0.996539
1.03728 1.0408 1 0.996614
1.01577 1.01857 1 0.997246
0.999329 1.00051 1 0.998815
1.01391 1.01665 1 0.997312
1.03324 1.03674 1 0.996618
1 1 1 1
0.999047 1.00018 1 0.998864
1.01097 1.01357 1 0.997434
1 1 1 1
0.998998 1 1 0.998998
1 1 1 1
1.03639 1.04006 1 0.996471
1.02747 1.03106 1 0.996522
1.02112 1.02435 1 0.996851
1.01683 1.02007 1 0.996824
1.01211 1.01499 1 0.99716
1.00399 1.0058 1.00035 0.997857
1.00209 1.00409 1.00046 0.997542
1.00186 1.00121 1.0025 0.998147
1.00053 1 1.00113 0.999404
1.00466 1 1.0062 0.99847
1.00132 1 1.00169 0.999637
1 1 1 1
1.00008 1 1.0003 0.999777
1 1 1 1
1 1 1 1
1.00552 1.03866 0.970002 0.998026
0.976549 1.00952 0.970314 0.996935
0.923306 0.975314 0.958749 0.987408
1.03356 1.03688 1 0.996801
1.02117 1.02407 1 0.997162
1.05369 1.05719 1 0.996681
1.03942 1.04297 1 0.996597
1.02466 1.02789 1.00018 0.996684
1.04486 1.05135 0.997132 0.996682
1.00517 1.00992 0.997929 0.997359
1.02088 1.02514 0.99898 0.996857
1.0415 1.06163 0.98403 0.99696
1.00479 1.01398 0.993766 0.99715
1.02315 1.03214 0.994536 0.996731
1.00601 1.02693 0.981988 0.997597
1.00308 1.00902 0.996856 0.997247
0.992956 1.00972 0.984959 0.998416
1.05645 1.07858 0.981797 0.997636
1.02482 1.04383 0.98367 0.998086
0.981009 1.00409 0.980688 0.996252
0.989263 1.04043 0.952855 0.997871
1.04118 1.05868 0.985956 0.997486
1.03301 1.0675 0.970136 0.997479
1.07229 1.08953 0.986556 0.997585
1.05998 1.08162 0.982475 0.997473
1.02959 1.06436 0.969707 0.997555
1.04301 1.06757 0.979588 0.997347
1.04415 1.06258 0.98537 0.997241
1.03844 1.05687 0.985085 0.997432
1.04272 1.05705 0.989214 0.997196
1.04683 1.05624 0.994115 0.996964
1.04333 1.05272 0.993823 0.997243
1.04809 1.05379 0.997605 0.996975
1.0522 1.05589 0.999831 0.996679
1.04662 1.0502 0.999617 0.996971
1.04912 1.05262 1 0.996669
1.044 1.0476 1 0.996561
1.04514 1.04863 1 0.996666
1.04025 1.0438 1 0.996607
1.01673 1.01961 1 0.997175
1.03718 1.0407 1 0.996611
1.01599 1.01879 1 0.997244
0.999904 1.00089 1 0.999017
0.999622 1 1 0.999622
0.999476 1.00057 1 0.998902
1.01405 1.01679 1 0.997311
1 1 1 1
0.999041 1.00019 1 0.998852
1 1 1 1
1.05949 1.06292 1 0.996771
1.04536 1.04894 1 0.996587
1.03734 1.04101 1 0.996476
1.02906 1.03246 1 0.996706
1.02752 1.03111 1 0.996513
1.02228 1.02551 1 0.996849
1.00873 1.01114 1 0.997616
1.0112 1.01407 1 0.997167
1.0028 1.00448 1.00047 0.99786
0.999262 1 1.00012 0.99914
1.00153 1.00056 1.00282 0.998149
1.00073 1 1.0013 0.999424
1 1 1 1
1.00079 1 1.00114 0.999653
1 1 1 1
1 1 1 1
1.0496 1.07707 0.977052 0.997384
1.00985 1.04462 0.968574 0.99808
0.973521 1.00962 0.967946 0.996179
1.05057 1.05508 0.999017 0.996707
1.03075 1.03401 1 0.996852
1.02232 1.02503 1 0.997354
1.05232 1.05581 1 0.996698
1.04006 1.04362 1 0.99658
1.05252 1.07096 0.985794 0.996941
1.04144 1.04831 0.996799 0.996643
1.02072 1.02421 0.999799 0.996794
1.03995 1.05991 0.984165 0.996956
1.02648 1.03502 0.995057 0.996673
1.01117 1.0331 0.981094 0.997639
1.06016 1.07902 0.984917 0.997573
1.05964 1.0809 0.982617 0.997671
1.026 1.04369 0.984919 0.998111
1.03004 1.06784 0.967018 0.9975
1.07449 1.0925 0.985896 0.997579
1.05999 1.08256 0.98162 0.997481
1.05049 1.06446 0.989507 0.997337
1.0437 1.06687 0.980875 0.997357
1.04447 1.0623 0.985955 0.997228
1.04791 1.05837 0.993097 0.997
1.04274 1.05686 0.989431 0.997177
1.0475 1.05689 0.994132 0.996963
1.05437 1.05865 0.999263 0.996687
1.04827 1.05395 0.997628 0.996971
1.05248 1.05617 0.999826 0.99668
1.04678 1.05044 1 0.996513
1.04898 1.05249 1 0.996672
1.04416 1.04776 1 0.996565
1.01797 1.02094 1 0.997081
1.04031 1.04384 1 0.996612
1.01729 1.02018 1 0.997174
0.999861 1.00083 1 0.999029
1.01619 1.019 1 0.997243
0.999939 1.00093 1 0.999011
0.999646 1 1 0.999646
0.999819 1 1 0.999819
0.999777 1.00078 1 0.998997
1 1 1 1
1.05423 1.05852 0.999182 0.996769
1.0505 1.05403 1 0.996655
1.05838 1.06168 0.999999 0.996895
1.03936 1.04286 1 0.996642
1.04738 1.05098 1 0.996575
1.03822 1.04189 1 0.996481
1.03003 1.03344 1 0.996699
1.01388 1.01651 1 0.997419
1.02323 1.02647 1 0.996847
1.00704 1.00945 1 0.997617
0.998941 1.00001 1 0.998935
1.00148 1.0031 1.00052 0.997863
0.99954 1 1.00038 0.999159
1 1 1 1
1.00108 1 1.00163 0.999444
1 1 1 1
1 1 1 1
1.05107 1.07306 0.982187 0.997271
1.04689 1.07417 0.977163 0.997379
1.01249 1.04784 0.96808 0.998125
1.05257 1.06401 0.992369 0.996857
1.0478 1.05256 0.998762 0.996708
1.02834 1.03153 1 0.996905
1.05076 1.05422 1 0.996715
1.05102 1.06912 0.986111 0.996916
1.03796 1.04518 0.996481 0.996603
1.03407 1.05361 0.984453 0.996952
1.05442 1.06819 0.989687 0.997399
1.05857 1.07723 0.985104 0.997533
1.06262 1.08278 0.983635 0.997705
1.04911 1.05947 0.992971 0.997236
1.05946 1.08311 0.980626 0.997488
1.0504 1.06456 0.989352 0.997323
1.0498 1.05924 0.993962 0.997102
1.04483 1.06201 0.98657 0.997215
1.04806 1.05856 0.993061 0.997002
1.05473 1.05993 0.998383 0.996704
1.04812 1.05749 0.994154 0.996962
1.05401 1.05832 0.999237 0.996688
1.04782 1.05152 1 0.996482
1.05267 1.05636 0.999822 0.996681
1.04685 1.05051 1 0.996516
1.0189 1.02197 1 0.996991
1.04427 1.04787 1 0.996569
1.0184 1.02138 1 0.997082
0.999437 1.00043 1 0.999003
1.01793 1.02081 1 0.997174
0.999771 1.00075 1 0.999017
0.999651 1 1 0.999651
0.999977 1.00097 1 0.999009
0.999654 1 1 0.999654
1 1 1 1
1.05301 1.0594 0.997281 0.996673
1.05294 1.05652 0.999997 0.99661
1.05594 1.06025 0.999159 0.996767
1.04569 1.04918 1 0.996672
1.05185 1.05534 1 0.996689
1.05743 1.0606 0.999999 0.997018
1.01816 1.02096 1 0.997261
1.03917 1.04268 1 0.996633
1.0496 1.05322 1 0.996563
1.03095 1.03437 1 0.996691
1.01264 1.01526 1 0.99742
0.999607 1.00078 1 0.998832
1.00549 1.00789 1 0.997618
0.999036 1.00009 1 0.998949
1 1 1 1
0.999773 1 1.0006 0.999177
1 1 1 1
1 1 1 1
1.04918 1.0638 0.989075 0.997143
1.05099 1.07325 0.981955 0.997254
1.04647 1.07383 0.977091 0.997375
1.05195 1.06344 0.992294 0.996874
1.04469 1.04971 0.998505 0.996708
1.05054 1.06833 0.986415 0.996892
1.05084 1.06163 0.992583 0.997235
1.0547 1.06835 0.989806 0.997392
1.05708 1.07562 0.985234 0.997493
1.04952 1.05973 0.993095 0.997257
1.04926 1.05749 0.995154 0.997051
1.05031 1.06468 0.989171 0.997309
1.05005 1.05922 0.994259 0.997062
1.05412 1.06016 0.997509 0.996792
1.04822 1.05876 0.993023 0.997004
1.05434 1.05959 0.998338 0.996707
1.04805 1.05177 1 0.996462
1.05386 1.05821 0.999201 0.996689
1.04838 1.05208 1 0.996483
1.0192 1.02233 1 0.996933
1.04708 1.05074 1 0.996519
1.01905 1.02213 1 0.996993
0.999089 1.00014 1 0.998948
1.01892 1.0219 1 0.997082
0.999332 1.00035 1 0.998986
0.999629 1 1 0.999629
0.999644 1.00064 1 0.99901
0.999668 1 1 0.999668
0.999657 1 1 0.999657
1.05221 1.06127 0.994511 0.99693
1.0545 1.05843 0.999766 0.996524
1.05334 1.06071 0.996341 0.996701
1.04811 1.05168 1 0.996604
1.0521 1.05569 0.999999 0.996597
1.05762 1.06197 0.999137 0.996766
1.02054 1.02345 1 0.997155
1.04554 1.04906 1 0.996644
1.05298 1.05644 0.999999 0.996723
1.00045 1.00164 1 0.998806
1.01805 1.02085 1 0.997263
1.03927 1.04279 1 0.996623
1.01147 1.01408 1 0.997421
0.999404 1.00056 1 0.998844
1 1 1 1
0.998964 1 1 0.998964
1 1 1 1
1 1 1 1
1.04787 1.05869 0.992633 0.99713
1.04943 1.06392 0.989221 0.997135
1.0504 1.07286 0.981777 0.997237
1.05137 1.06292 0.992217 0.99689
1.04974 1.05657 0.99651 0.997009
1.05101 1.06168 0.992689 0.997246
1.05502 1.06849 0.989984 0.997386
1.04996 1.05999 0.993243 0.997277
1.04936 1.0577 0.995039 0.997061
1.05434 1.05976 0.998102 0.996779
1.05036 1.05923 0.994588 0.997022
1.05435 1.06003 0.997894 0.996743
1.04787 1.05178 0.999764 0.996514
1.05388 1.05915 0.998301 0.99671
1.04865 1.05237 1 0.996464
1.01855 1.02172 1 0.996889
1.04865 1.05235 1 0.996485
1.01901 1.02215 1 0.996933
0.998735 1.00003 1 0.998702
1.01916 1.02223 1 0.996993
0.998925 1.00008 1 0.998842
1 1 1 1
0.999186 1.00021 1 0.998971
0.999652 1 1 0.999652
0.999679 1 1 0.999679
1.05027 1.05795 0.995704 0.997022
1.05356 1.05848 0.998684 0.996654
1.05266 1.06101 0.995193 0.99692
1.04789 1.0516 1 0.996471
1.05339 1.05766 0.999418 0.996538
1.05371 1.06204 0.99541 0.996729
1.02028 1.02337 1 0.996984
1.04823 1.0518 1 0.996604
1.0513 1.0549 1 0.996585
1.00008 1.00127 1 0.998809
1.02005 1.023 1 0.997115
1.04529 1.04884 1 0.996616
1 1 1 1
1.00017 1.00135 1 0.998817
1.01739 1.02018 1 0.997265
0.999286 1.00043 1 0.998856
1 1 1 1
1 1 1 1
1.04841 1.05512 0.996613 0.997021
1.0482 1.05885 0.99279 0.997136
1.04963 1.06401 0.989325 0.997127
1.05435 1.05899 0.998904 0.996717
1.04914 1.05631 0.99618 0.997022
1.05118 1.06173 0.992791 0.997257
1.04939 1.0579 0.994875 0.997071
1.05398 1.05952 0.997978 0.99678
1.04696 1.05069 0.999872 0.996574
1.05446 1.05983 0.998237 0.996693
1.04808 1.05188 0.999872 0.996509
1.01743 1.02069 1 0.996804
1.0494 1.05312 1 0.996467
1.01826 1.02144 1 0.99689
0.998665 1 1 0.998665
1.0189 1.02204 1 0.996934
0.9987 1 1 0.9987
1 1 1 1
0.998727 1.00001 1 0.998719
0.999806 1 1 0.999806
0.999672 1 1 0.999672
1.04912 1.05553 0.996939 0.996977
1.05419 1.05838 0.999315 0.996725
1.05016 1.05776 0.995771 0.99703
1.04768 1.05139 1 0.996465
1.05452 1.05909 0.999039 0.996639
1.0531 1.06074 0.99587 0.99691
1.01924 1.02242 1 0.996895
1.04764 1.05133 1 0.996491
1.05224 1.05687 0.99906 0.996552
0.99927 1.00049 1 0.998786
1.02005 1.02315 1 0.996972
1.04833 1.05191 1 0.996605
1 1 1 1
1.00025 1.00143 1 0.998818
1.01983 1.02282 1 0.997075
1 1 1 1
1.00015 1.00132 1 0.998829
1 1 1 1
1.05399 1.05857 0.998904 0.996763
1.04793 1.05462 0.996637 0.997006
1.04847 1.05894 0.992957 0.997143
1.04638 1.05007 0.999919 0.996569
1.05381 1.05875 0.998593 0.996739
1.04855 1.05605 0.995853 0.997034
1.05364 1.05929 0.997886 0.996781
1.04685 1.05069 0.999771 0.996573
1.01641 1.01968 1 0.996793
1.04833 1.052 1 0.996505
1.01731 1.02055 1 0.996828
0.998619 1 1 0.998619
1.0179 1.02108 1 0.996891
0.998663 1 1 0.998663
1 1 1 1
0.998697 1 1 0.998697
1 1 1 1
0.999647 1 1 0.999647
1.05519 1.05948 0.999205 0.99674
1.04833 1.05526 0.996421 0.996999
1.04722 1.05089 1 0.996504
1.0548 1.05892 0.999386 0.996723
1.0501 1.05764 0.99582 0.997037
1.01791 1.02106 1 0.996922
1.04709 1.0508 1 0.996462
1.05549 1.0597 0.999407 0.996623
0.998783 1.00005 1 0.998734
1.01947 1.02263 1 0.996917
1.04735 1.05102 1 0.99651
1 1 1 1
0.9995 1.00071 1 0.998792
1.01992 1.02303 1 0.996959
1 1 1 1
1.00032 1.00149 1 0.998827
1 1 1 1
1.04634 1.04995 0.999966 0.996596
1.05393 1.0584 0.999016 0.99675
1.04747 1.05414 0.996668 0.996991
1.01565 1.01891 1 0.996807
1.04626 1.05002 0.999851 0.99657
1.05325 1.0585 0.998273 0.99676
1.04675 1.05069 0.99967 0.996573
1.01649 1.01976 1 0.996792
0.998594 1 1 0.998594
1.01721 1.02042 1 0.996851
0.998617 1 1 0.998617
1 1 1 1
0.99866 1 1 0.99866
1 1 1 1
1 1 1 1
1.04713 1.05078 1 0.996524
1.05494 1.05937 0.999031 0.996784
1.04752 1.05496 0.99591 0.997022
1.01705 1.02019 1 0.996922
1.04681 1.05049 1 0.996501
1.05541 1.05946 0.999455 0.996722
0.998686 1 1 0.998686
1.01838 1.02152 1 0.99692
1.04654 1.05026 1 0.996458
1 1 1 1
0.998922 1.00019 1 0.998737
1.01978 1.02291 1 0.99694
1 1 1 1
0.999644 1.00085 1 0.998798
1 1 1 1
1.01578 1.01896 1 0.996876
1.04614 1.04984 0.99991 0.99657
1.05388 1.05826 0.999127 0.996738
0.998611 1 1 0.998611
1.01579 1.01905 1 0.996804
1.04615 1.04997 0.999788 0.99657
1.01657 1.01984 1 0.996791
0.998594 1 1 0.998594
1 1 1 1
0.998614 1 1 0.998614
1 1 1 1
1 1 1 1
1.01635 1.0195 1 0.996908
1.0468 1.05044 0.999981 0.996546
1.05472 1.05926 0.998885 0.996827
0.998884 1 1 0.998884
1.01732 1.02046 1 0.996921
1.04639 1.05007 1 0.996497
1 1 1 1
0.998687 1 1 0.998687
1.01874 1.02189 1 0.996917
1 1 1 1
0.999015 1.00028 1 0.99874
1 1 1 1
0.9986 1 1 0.9986
1.01592 1.01913 1 0.996853
1.04597 1.04975 0.999849 0.996544
1 1 1 1
0.99861 1 1 0.99861
1.01592 1.01918 1 0.996801
0.998593 1 1 0.998593
1 1 1 1
1 1 1 1
0.998845 1 1 0.998845
1.01658 1.01973 1 0.996908
1.04642 1.05009 0.999938 0.996568
1 1 1 1
0.998662 1 1 0.998662
1.0176 1.02074 1 0.996919
1 1 1 1
0.99874 1.00005 1 0.998688
1 1 1 1
0.999597 1 1 0.999597
0.998733 1 1 0.998733
1.01604 1.01927 1 0.996831
1 1 1 1
0.998611 1 1 0.998611
1 1 1 1
0.999611 1 1 0.999611
0.998749 1 1 0.998749
1.01683 1.01998 1 0.996908
0.999804 1 1 0.999804
0.998663 1 1 0.998663
1 1 1 1
1 1 1 1
0.998633 1 1 0.998633
1 1 1 1
0.999804 1 1 0.999804
0.998651 1 1 0.998651
1 1 1 1
1 1 1 1
1 1 1 1

VECTORS lamdaE float
1.00151 1.00009 0.993517
1.00107 1.00078 0.996801
1.00103 1.0003 0.993831
1.00159 1.00005 0.993421
1.00157 0.999958 0.993554
1.00149 1.00032 0.993307
1.00287 1.00043 0.990463
1.00108 1.00072 0.996797
1.00098 1.00014 0.997307
1.00051 1.00091 0.997316
1.00088 1.00096 0.993468
1.00258 1.00127 0.989143
1.00109 0.999984 0.994034
1.00088 1 0.994125
1.0006 1.00051 0.994116
1.00124 1.00004 0.993768
1.00095 1.00069 0.99359
1.00118 1.00001 0.993884
1.00309 1.00026 0.990321
1.00112 1.00002 0.996965
1.00149 1.00009 0.99351
1.00161 0.999973 0.993488
1.00294 1.00016 0.990629
1.00297 1.00017 0.990573
1.00146 1.00053 0.99306
1.00275 1.00091 0.990202
1.00523 1.00085 0.985864
1.00108 1.00068 0.996805
1.00121 1.00002 0.995474
1.00084 1.00064 0.995443
1.00097 1.00077 0.996855
1.00249 1.00142 0.989155
1.0015 0.999808 0.993561
1.00127 1.00018 0.993651
1.00326 1.00006 0.990883
1.00001 1.00104 0.997597
1.00305 1.00068 0.990742
1.00223 1.0019 0.989099
1.00468 1.00142 0.985512
1.00022 0.999609 0.997911
1.00113 0.999991 0.996957
1.00111 1.00002 0.995495
1.00104 0.999972 0.997015
1.00069 1.00006 0.994372
1.00279 0.999937 0.99022
1.0011 0.999955 0.997229
1.00322 1.00007 0.990957
1.0009 0.999974 0.994116
1.00081 1.00005 0.994201
1.00044 1.00106 0.993852
1.0033 1.00009 0.990192
1.00093 1.00004 0.995662
1.00112 1.00011 0.993856
1.0009 1.00102 0.993325
1.00126 0.999947 0.99383
1.00309 1.00013 0.990458
1.00301 1.00064 0.990066
1.00315 1.00007 0.990423
1.00522 1.00084 0.985889
1.00102 1 0.997012
1.00133 1.00007 0.993735
1.00253 0.999994 0.991932
1.0028 1.00016 0.990841
1.00299 1.00012 0.990595
1.00515 1.00026 0.986508
1.00522 1.00033 0.986284
1.00119 1.00051 0.993364
1.00225 1.00188 0.98998
1.00523 1.00112 0.98563
1.00528 1.00028 0.985588
1.0015 1.00005 0.99683
1.00088 1.00068 0.997021
1.00117 1.00053 0.99681
1.00241 1.00151 0.989161
1.00156 0.99993 0.99677
1.00137 1.00023 0.996848
1.00313 1 0.989446
1.00027 1.00082 0.995842
1.00278 1.00073 0.989298
1.00209 1.00213 0.990016
1.00475 1.00126 0.985498
1.0005 1.00016 0.997489
1.00032 1.00214 0.992232
1.00329 0.999971 0.989287
1.00314 1.00012 0.989381
1.00524 1.00037 0.985668
1.00153 1.00259 0.991386
1.00504 1.00079 0.985507
1.00377 1.00275 0.985697
1.00531 1.0014 0.984353
1.00003 0.99874 0.998353
1.00007 0.999346 0.998096
1.00143 0.999991 0.996771
1.00118 0.999989 0.996933
1.00108 0.999978 0.997011
1.00095 1.00001 0.99566
1.00283 0.999927 0.990906
1.00128 0.99996 0.995398
1.00315 1.0001 0.990248
1.00105 0.999984 0.99703
1.00262 0.999837 0.990523
1.00303 1.00005 0.991284
1.00495 0.999328 0.987298
1.00329 1.00001 0.990861
1.0052 0.999685 0.986525
1.00107 0.999993 0.994069
1.00074 1.00013 0.994205
1.00033 1.00154 0.993589
1.00091 0.999888 0.994169
1.00324 1.00014 0.990287
1.00333 0.999985 0.99028
1.00328 1.00035 0.989941
1.00521 1.00082 0.985914
1.00107 0.999984 0.997021
1.00097 1.00007 0.994078
1.00271 0.999951 0.99078
1.00295 1.00014 0.990661
1.00094 1.00094 0.995077
1.00262 1.00168 0.990039
1.00315 1.00007 0.990437
1.00517 1.00012 0.986671
1.0052 1.00112 0.985656
1.00522 1.00049 0.986173
1.00528 1.00028 0.985622
1.00261 0.999879 0.990527
1.00263 1.00006 0.991159
1.00487 0.999159 0.988118
1.00506 0.999745 0.987143
1.00519 1.00011 0.986574
1.00534 0.998656 0.987394
1.00053 1.00075 0.99726
1.0053 0.999584 0.986257
1.00168 1.00285 0.988915
1.00486 1.00145 0.985122
1.00529 1.00104 0.984883
1.00524 0.998312 0.987482
1.00088 1.00296 0.990329
1.00195 1.00458 0.986964
1.00157 0.999949 0.99679
1.00135 1.00027 0.996827
1.00314 0.999974 0.989434
1.00047 1.0005 0.997382
1.00174 1.00244 0.989301
1.00275 1.00074 0.989323
1.00485 1.00113 0.985486
1.00032 1.00011 0.997642
1.00022 1.0022 0.992256
1.0033 1 0.990066
1.00317 1.00018 0.990099
1.00524 1.00038 0.985643
1.00113 1.00278 0.990067
1.00508 1.00077 0.98549
1.00401 1.00237 0.985684
1.00533 1.0013 0.984493
1.00071 1.00254 0.991025
1.00013 1.00136 0.993377
1.00167 1.0047 0.98782
1.00525 1.00016 0.985892
1.0052 1.00055 0.985526
1.0053 0.999395 0.986554
1.00314 1.00324 0.986244
1.00532 1.0005 0.985409
1.00511 1.00199 0.9841
1.00531 1.00044 0.985196
0.999975 0.99826 0.998637
0.999957 0.998701 0.998474
0.99997 0.999209 0.998267
1.00061 1.00279 0.991004
1.00029 1.00049 0.997517
1.00156 0.99995 0.996751
1.00127 0.999996 0.996849
1.00298 1.00014 0.989605
1.00271 0.999928 0.990285
1.00106 0.999977 0.996999
1.00102 0.999977 0.997027
1.00261 0.999849 0.990516
1.00295 1.00004 0.990586
1.00494 0.999329 0.987296
1.00315 1.00005 0.989387
1.00516 0.999716 0.986523
1.00257 0.999842 0.990589
1.00489 0.999208 0.987514
1.00505 0.999509 0.986938
1.00534 0.99678 0.989371
1.00525 0.999915 0.986177
1.00534 0.997576 0.988537
1.00103 0.999984 0.99702
1.00059 1.00013 0.994421
1.00274 0.999946 0.989772
1.00311 1.00014 0.990479
1.00023 1.00149 0.997224
1.00312 1.00128 0.990101
1.0033 1.00004 0.990281
1.00519 0.999947 0.986833
1.00523 1.00064 0.986059
1.00514 1.00113 0.985684
1.00529 1.00027 0.985656
1.00259 0.999873 0.990531
1.00279 1.00008 0.99098
1.0049 0.999138 0.987833
1.0051 0.9999 0.986991
1.00067 1.00078 0.997144
1.00193 1.00258 0.989782
1.00471 1.00179 0.985349
1.0052 1.00015 0.986531
1.00534 0.998287 0.987773
1.00529 1.00095 0.98497
1.00531 0.999717 0.986219
1.00524 0.998329 0.987498
1.00094 1.00287 0.990314
1.00202 1.00449 0.986968
1.00486 0.999273 0.987504
1.00497 0.999468 0.987664
1.00533 0.997387 0.988768
1.00535 0.997464 0.988522
1.00533 0.998827 0.987079
1.00525 0.996069 0.989985
1.0012 1.00306 0.989595
1.00526 0.997238 0.988575
1.00406 1.00249 0.985317
1.00531 1.0016 0.984137
1.00523 0.999764 0.98618
1.0052 0.996559 0.989408
1.00286 1.00371 0.986214
1.00124 1.00508 0.987738
1.00371 1.00246 0.986239
1.00319 0.999981 0.98938
1.00013 0.99993 0.997817
1.0001 1.00224 0.992278
1.00302 1.00019 0.989426
1.00524 1.00039 0.985616
1.00106 1.00297 0.989998
1.00417 1.00198 0.98567
1.00509 1.00077 0.985473
1.00534 1.00119 0.984632
1.00066 1.00266 0.991033
1.00004 1.00132 0.993415
1.00133 1.00488 0.987781
1.00524 1.00018 0.985866
1.00521 1.00054 0.985508
1.0053 0.999398 0.98653
1.00325 1.00305 0.986258
1.00531 1.0006 0.985309
1.00525 1.00194 0.984059
1.00531 1.00019 0.985385
1.0001 1.00048 0.994206
1.00252 1.00392 0.986932
1.00099 1.00455 0.988929
1.00277 1.00317 0.987264
1.00529 0.998737 0.987267
1.0053 1.00005 0.985854
1.00524 0.997487 0.988351
1.00479 1.002 0.984675
1.00525 0.999017 0.986923
1.00533 1.00132 0.98462
1.00531 0.999338 0.986322
1.00023 1.00196 0.992542
1.00028 0.999263 0.995114
1 0.997778 0.998803
0.999951 0.998142 0.9987
0.999905 0.998561 0.998569
1.00019 1.00258 0.991876
1.00014 1.00013 0.997771
1.00067 1.00272 0.99097
1.00039 1.00056 0.997428
1.00314 1.00008 0.989392
1.00285 1.00002 0.989955
1.00513 0.99975 0.986521
1.00492 0.999336 0.987294
1.00262 0.999864 0.990515
1.00107 0.999966 0.997024
1.00259 0.999836 0.990592
1.00487 0.999219 0.987516
1.00504 0.999522 0.986936
1.00533 0.996794 0.98938
1.00523 0.999936 0.986156
1.00533 0.997565 0.988531
1.00485 0.999204 0.987565
1.00531 0.996604 0.989598
1.00536 0.99713 0.988984
1.00527 0.994936 0.99125
1.00531 0.998103 0.987964
1.00523 0.995389 0.990729
1.0026 0.999871 0.99054
1.00296 1.00005 0.990801
1.00493 0.999098 0.98755
1.00512 1.00005 0.986839
1.0008 1.00083 0.997011
1.00228 1.00239 0.990443
1.00469 1.00208 0.985572
1.00522 1.00018 0.986488
1.00534 0.997923 0.988151
1.0053 0.999855 0.986183
1.0053 1.00085 0.985057
1.00524 0.998344 0.987516
1.00098 1.00281 0.990299
1.00207 1.00439 0.986971
1.00486 0.999084 0.987673
1.00499 0.999443 0.987638
1.00533 0.997197 0.988971
1.00536 0.997868 0.98813
1.00127 1.00299 0.989594
1.004 1.00269 0.985342
1.00531 1.00171 0.984031
1.00533 0.999046 0.986917
1.00524 0.995791 0.990234
1.00524 0.999545 0.986401
1.00525 0.997262 0.988576
1.0052 0.996516 0.989337
1.00283 1.00384 0.986176
1.00352 1.00266 0.986119
1.00129 1.00497 0.987774
1.00532 0.997146 0.989055
1.00538 0.997379 0.988727
1.00524 0.995298 0.990934
1.00525 0.995219 0.990807
1.00526 0.996222 0.989549
1.00522 0.995063 0.990867
1.00343 1.00328 0.985696
1.00521 0.995485 0.990225
1.00525 1.00244 0.983517
1.00525 1.00079 0.984883
1.0052 0.998142 0.987747
1.00517 0.995938 0.99
1.00077 1.00497 0.988488
1.00454 1.00235 0.985073
1.00277 1.0039 0.986241
1.00494 1.00205 0.985028
1.00524 1.00019 0.98584
0.999998 1.00128 0.993451
1.0005 1.00286 0.991049
1.00102 1.00492 0.987741
1.00523 1.00052 0.985485
1.00529 0.999403 0.986508
1.00338 1.0028 0.986276
1.0053 1.00193 0.984018
1.00532 1.0007 0.985209
1.00531 0.999939 0.985574
1.00009 1.00043 0.994246
1.00243 1.00379 0.986957
1.0008 1.00461 0.988921
1.00264 1.00324 0.987254
1.0053 0.998737 0.987244
1.0053 1.00005 0.985828
1.00524 0.997475 0.988349
1.00489 1.00197 0.984676
1.00524 0.999178 0.986716
1.00529 1.0012 0.984598
1.00531 0.999194 0.986493
1.0002 0.999757 0.994787
1.00068 1.00372 0.990212
1.00383 1.00222 0.986149
1.00184 1.00452 0.987835
1.00373 1.00069 0.988113
1.00525 0.996654 0.989236
1.00523 0.998273 0.987509
1.00522 0.99629 0.989369
1.00497 1.00177 0.984549
1.00525 0.998013 0.987724
1.00506 1.00031 0.985731
1.00034 1.00221 0.992127
1.00034 1.00354 0.99081
1.0001 1.00183 0.992902
1.0002 1.00199 0.992538
1.00024 0.999009 0.996036
1.00026 0.999209 0.995505
1.00018 0.997389 0.997456
1 0.997723 0.998838
0.999935 0.998053 0.998754
0.999899 1.00188 0.993065
0.999956 0.999657 0.998129
1.00029 1.00247 0.991865
1.00024 1.0002 0.99767
1.00073 1.00263 0.990939
1.00052 1.00059 0.997337
1.00522 0.999953 0.986138
1.00502 0.999528 0.986934
1.00532 0.997579 0.988525
1.00532 0.996806 0.989389
1.00486 0.99923 0.987518
1.00258 0.999825 0.99059
1.00485 0.999205 0.98757
1.00531 0.996611 0.989601
1.00534 0.997146 0.988989
1.00527 0.994935 0.991237
1.00531 0.9981 0.987948
1.00524 0.995372 0.99074
1.00531 0.996619 0.989599
1.00527 0.994959 0.991248
1.00524 0.995045 0.991116
1.00521 0.994961 0.99123
1.00524 0.995936 0.990075
1.00523 0.99489 0.99096
1.00487 0.998897 0.987843
1.00502 0.999432 0.987613
1.00533 0.997037 0.989174
1.00536 0.998276 0.987739
1.00136 1.00293 0.989597
1.00379 1.00303 0.985371
1.0053 1.00184 0.983925
1.00533 0.999255 0.986755
1.00523 0.995518 0.990483
1.00525 0.997286 0.988578
1.00524 0.999336 0.986621
1.0052 0.996455 0.989265
1.00283 1.00407 0.986136
1.00346 1.00275 0.985998
1.00131 1.00481 0.98781
1.00532 0.996962 0.989262
1.00537 0.997343 0.988737
1.00525 0.995133 0.991084
1.00523 0.995476 0.99059
1.00336 1.00346 0.985692
1.00524 1.00247 0.983559
1.00525 1.00096 0.984714
1.00526 0.996523 0.989265
1.00523 0.99499 0.990877
1.0052 0.998047 0.987716
1.00521 0.995511 0.990201
1.00518 0.995827 0.990049
1.00431 1.00266 0.98504
1.00489 1.00202 0.984796
1.00093 1.00485 0.988504
1.00255 1.00389 0.986287
1.00525 0.994961 0.991317
1.00525 0.995428 0.990652
1.00518 0.994939 0.991318
1.00519 0.994909 0.990999
1.00523 0.99502 0.990677
1.00524 0.994922 0.990798
1.00513 1.00259 0.98381
1.00521 0.994998 0.990589
1.00521 1.0021 0.983699
1.00523 1.00001 0.98557
1.00519 0.997378 0.988262
1.00518 0.995979 0.989905
1.00052 1.0044 0.989526
1.00136 1.00511 0.987037
1.00509 1.00281 0.983648
1.00451 1.00331 0.98527
1.00501 1.00345 0.983336
1.00007 1.00034 0.994286
1.00531 0.998736 0.987222
1.00056 1.00473 0.988914
1.00232 1.00377 0.98698
1.00258 1.0032 0.987242
1.0053 1.00005 0.985802
1.00523 0.997463 0.988347
1.00517 1.00175 0.984676
1.00527 1.00111 0.984579
1.00524 0.999335 0.986511
1.00532 0.999076 0.986663
1.00019 0.999691 0.99482
1.00046 1.00387 0.990234
1.00406 1.00188 0.986215
1.00144 1.00468 0.987768
1.00368 1.00069 0.987823
1.00524 0.99663 0.989238
1.00523 0.998257 0.987507
1.00522 0.996241 0.989366
1.00503 1.00184 0.984473
1.00525 0.998101 0.987556
1.00512 1.00033 0.98585
1.00041 1.00286 0.99139
1.001 1.00496 0.988812
1.00453 1.00142 0.98574
1.00248 1.00328 0.987718
1.00481 1.0003 0.987599
1.00528 0.995542 0.990096
1.00521 0.997044 0.988508
1.00523 0.995692 0.989623
1.00492 1.00117 0.984969
1.00508 0.998899 0.986742
1.00034 1.00219 0.99213
1.00041 1.00342 0.9906
1.00013 1.00373 0.990775
1.0005 1.00381 0.990533
1.00018 1.00356 0.991101
1.00002 1.00163 0.993202
1.00008 1.00182 0.992912
1.0002 0.998877 0.996213
1.00018 1.00203 0.992534
1.00025 0.998984 0.996062
1.00023 0.997142 0.997584
1.00025 0.999186 0.995887
1.00011 0.997422 0.998184
1 0.997624 0.998868
0.999812 1.00072 0.994317
0.999957 1.0018 0.993056
0.999777 0.998918 0.998552
1.00008 0.999709 0.997981
1.00038 1.00236 0.991853
1.00033 1.00031 0.997576
1.00531 0.998095 0.987933
1.00533 0.997138 0.988995
1.00525 0.995345 0.990751
1.00526 0.994933 0.991225
1.00532 0.996617 0.989605
1.00484 0.999206 0.987574
1.00531 0.996622 0.989597
1.00527 0.994959 0.991253
1.00525 0.995028 0.991129
1.00521 0.994962 0.991196
1.00524 0.995896 0.990082
1.00524 0.994899 0.990956
1.00527 0.99496 0.991275
1.00522 0.994949 0.991288
1.00523 0.994943 0.991086
1.00527 0.994946 0.991087
1.00527 0.995054 0.990653
1.00531 0.994888 0.990831
1.00532 0.996772 0.989467
1.00536 0.997306 0.988747
1.00525 0.994951 0.991235
1.00521 0.995731 0.990372
1.0033 1.00356 0.985689
1.0052 1.00245 0.983598
1.00524 1.00106 0.984543
1.00526 0.996822 0.988981
1.00524 0.994909 0.990886
1.00522 0.995538 0.990176
1.00521 0.997953 0.987685
1.00518 0.995694 0.990103
1.00395 1.00313 0.98501
1.00481 1.00205 0.984565
1.00111 1.00473 0.988521
1.00242 1.00382 0.986336
1.00525 0.99496 0.991309
1.00525 0.995388 0.990718
1.00517 0.994943 0.991291
1.0052 0.994916 0.991004
1.00493 1.00279 0.983823
1.00521 1.00217 0.983608
1.00521 0.999999 0.985551
1.00523 0.995099 0.990601
1.00524 0.994922 0.990773
1.00517 0.997406 0.988262
1.0052 0.994979 0.990572
1.00519 0.995783 0.990012
1.00502 1.00284 0.983707
1.00497 1.00359 0.983132
1.00401 1.00298 0.985298
1.00052 1.00422 0.989576
1.00125 1.00512 0.987195
1.00521 0.994949 0.991252
1.0052 0.994941 0.991123
1.00525 0.994908 0.990722
1.00525 0.994901 0.990723
1.00516 1.00308 0.983081
1.00522 0.995023 0.990481
1.00508 1.00155 0.984011
1.00516 0.999434 0.986077
1.00513 0.997089 0.988456
0.999948 1.00348 0.991116
1.00091 1.00512 0.988376
1.00195 1.00501 0.986795
1.00498 1.00397 0.982725
1.0049 1.00309 0.984249
1.00501 1.00323 0.982736
1.00018 0.999639 0.994852
1.00031 1.00403 0.990255
1.00524 0.996606 0.98924
1.0011 1.00485 0.9877
1.00417 1.0018 0.986285
1.00356 1.00089 0.987537
1.00522 0.998242 0.987503
1.00522 0.996194 0.989363
1.00519 1.00185 0.984398
1.00514 1.00037 0.985971
1.00527 0.998172 0.987387
1.00036 1.00289 0.9914
1.00065 1.00505 0.988831
1.00482 1.00124 0.985589
1.0023 1.0034 0.987708
1.00448 0.999552 0.987476
1.00526 0.995532 0.990115
1.00522 0.997061 0.988487
1.00524 0.995728 0.989605
1.00491 1.00122 0.985044
1.0051 0.998998 0.986732
1.00062 1.00419 0.989994
1.00034 1.0051 0.988616
1.00489 1.00155 0.985103
1.00275 1.00138 0.987801
1.00515 1.00008 0.987066
1.00525 0.995042 0.99035
1.00526 0.997075 0.988227
1.00529 0.995997 0.989075
1.00487 1.00003 0.986174
1.00513 0.999044 0.986664
1.00034 1.00217 0.992133
1.00043 1.00355 0.990583
0.999979 1.00382 0.99084
0.999962 1.00386 0.990741
1.00005 1.00371 0.99109
1.00006 1.00411 0.990616
0.99993 1.0034 0.991706
1 1.00425 0.990359
1.00003 1.00342 0.991485
1 1.00166 0.993222
1.00001 1.00163 0.993206
1.00012 0.99883 0.996369
1.00005 1.00179 0.992921
1.00021 0.998854 0.996239
1.00022 0.997024 0.997691
1.00027 0.998951 0.996092
1.0002 0.99717 0.997583
1.00001 0.99744 0.998934
0.999835 0.999718 0.995279
0.999849 1.00077 0.99427
0.999731 0.998298 0.998839
1.00006 1.00169 0.993047
0.999888 0.999112 0.998397
1.00018 0.999837 0.997845
1.00524 0.99586 0.990089
1.00526 0.995015 0.991141
1.00524 0.994908 0.990952
1.00522 0.994963 0.991162
1.00527 0.994958 0.991259
1.00532 0.996627 0.989596
1.00526 0.994962 0.991292
1.00522 0.994947 0.991297
1.00522 0.994938 0.991109
1.00527 0.99494 0.991068
1.00527 0.995084 0.990678
1.00529 0.994891 0.990782
1.00522 0.994948 0.991291
1.00527 0.994937 0.991159
1.00528 0.994938 0.990932
1.00531 0.994866 0.990609
1.00526 0.994959 0.991301
1.00525 0.995353 0.990784
1.00517 0.994947 0.991263
1.00521 0.994922 0.991009
1.00478 1.00286 0.983835
1.00522 1.00227 0.983521
1.0052 1.00006 0.985533
1.00524 0.995182 0.990525
1.00524 0.99492 0.990749
1.00521 0.994968 0.990555
1.00515 0.997397 0.988259
1.0052 0.995619 0.990118
1.00476 1.00292 0.983766
1.00499 1.00358 0.982929
1.00338 1.00315 0.985326
1.00053 1.00401 0.989635
1.00126 1.00512 0.987356
1.0052 0.994948 0.991249
1.00521 0.994937 0.991139
1.00525 0.994914 0.990748
1.00511 1.00309 0.983138
1.00513 1.00175 0.983921
1.00514 0.999491 0.986073
1.00524 0.994904 0.990725
1.00516 0.996932 0.988701
1.00521 0.995057 0.990434
0.999942 1.00326 0.991351
1.00486 1.00385 0.982812
1.00481 1.00427 0.982443
1.00446 1.00331 0.98433
1.00206 1.00491 0.986883
1.00073 1.00513 0.988374
1.00526 0.994941 0.991134
1.00529 0.994906 0.990865
1.00527 0.994903 0.990626
1.00523 0.994869 0.990608
1.0051 1.00297 0.983197
1.00519 0.99533 0.990148
1.00505 1.00118 0.984601
1.00508 0.99954 0.986202
0.999979 1.00153 0.992989
1.00017 1.00486 0.98989
1.00145 1.00506 0.988151
1.0027 1.00502 0.98523
1.00471 1.00428 0.983234
1.00498 1.00351 0.983067
1.00029 1.00296 0.991409
1.00021 1.00513 0.98885
1.00524 0.995523 0.990135
1.00215 1.00334 0.987694
1.00512 1.00106 0.985435
1.00402 0.9992 0.987344
1.00523 0.997078 0.988466
1.00524 0.995759 0.989584
1.0049 1.0013 0.985114
1.00514 0.999118 0.986721
1.00043 1.00429 0.990004
1.0008 1.00511 0.988338
1.00491 1.00148 0.985078
1.00333 1.00129 0.987587
1.00491 1.00033 0.986635
1.00526 0.995075 0.990387
1.00526 0.996989 0.988432
1.00528 0.996049 0.989174
1.00487 0.999998 0.986264
1.00508 0.999256 0.986445
0.999595 1.00435 0.990233
1.00058 1.00434 0.988869
1.00487 1.00031 0.986286
1.00409 0.999747 0.987344
1.00534 0.994861 0.990347
1.00526 0.995643 0.989934
1.00524 0.998129 0.987013
1.00514 0.999275 0.98632
1.00055 1.00353 0.990566
1.00013 1.00379 0.990815
0.999349 1.00376 0.992646
0.999933 1.00387 0.99108
0.999574 1.00445 0.990701
0.999983 1.00345 0.991476
0.999631 1.00334 0.992065
1.00001 1.00448 0.990282
0.999741 1.00123 0.994105
0.999791 1.00437 0.990902
0.999862 1.00446 0.990387
1.00012 1.00324 0.991501
0.99997 1.00189 0.99298
0.999965 1.00166 0.993212
0.999999 0.998885 0.996485
0.999991 1.00161 0.993212
1.00012 0.998843 0.996387
1.00014 0.997058 0.997781
1.00021 0.998844 0.996267
1.00021 0.997045 0.997689
1.00016 0.997206 0.997575
0.999965 0.998968 0.995866
0.999839 0.999843 0.995213
0.999729 0.997818 0.999006
0.999851 1.00085 0.994221
0.999773 0.998395 0.998763
1.00002 0.999183 0.998227
1.00527 0.995109 0.990702
1.00521 0.994933 0.991132
1.00528 0.994896 0.990734
1.00527 0.994934 0.99105
1.00522 0.994946 0.991306
1.00526 0.994965 0.991309
1.00522 0.99495 0.991301
1.00527 0.994936 0.991156
1.00528 0.994929 0.990922
1.0053 0.994863 0.990629
1.00527 0.994941 0.991188
1.00528 0.994928 0.991056
1.00532 0.994888 0.990718
1.00519 0.994948 0.991246
1.00522 0.994934 0.991156
1.00525 0.994921 0.990773
1.00512 1.00307 0.983196
1.00513 1.00187 0.983827
1.00511 0.999427 0.986067
1.00523 0.994908 0.990727
1.00522 0.995087 0.990386
1.00521 0.996709 0.988938
1.0048 1.00373 0.982898
1.00504 1.0043 0.982168
1.0043 1.0033 0.984406
0.999983 1.00307 0.991594
1.00226 1.00471 0.986969
1.00046 1.00514 0.988364
1.00526 0.994942 0.991146
1.00529 0.994902 0.990833
1.00527 0.994901 0.990619
1.00502 1.00307 0.983226
1.00494 1.00111 0.984516
1.00507 0.999229 0.986552
1.00523 0.994874 0.990573
1.00509 0.995448 0.990095
0.999985 1.0015 0.993212
1.00009 1.00487 0.989859
1.00477 1.0032 0.983115
1.00473 1.00374 0.983291
1.00316 1.00476 0.985382
1.00124 1.00505 0.98797
1.00529 0.994907 0.991058
1.00532 0.994854 0.99057
1.00528 0.994895 0.990557
1.00521 0.994892 0.990341
1.00448 1.00239 0.984041
1.00516 0.997183 0.988502
1.00494 1.00144 0.984665
1.00015 1.00062 0.994024
1.00028 1.00169 0.992846
0.999665 1.00339 0.991899
1.00056 1.00505 0.989002
1.0013 1.00506 0.987105
1.0036 1.00438 0.983846
1.0037 1.00408 0.984412
1.00388 1.00492 0.984532
1.00019 1.00445 0.990014
1.00112 1.00512 0.988058
1.00528 0.99511 0.990422
1.00383 1.00072 0.987379
1.00493 1.00136 0.985058
1.00482 1.00068 0.986217
1.00526 0.996877 0.98864
1.00527 0.996088 0.989276
1.0049 0.999925 0.986354
1.00504 0.999391 0.986227
1.00005 1.00414 0.990061
1.00079 1.00446 0.988566
1.00499 1.00032 0.98613
1.0046 1.00021 0.987237
1.00534 0.994845 0.990359
1.00528 0.99556 0.989869
1.00519 0.99809 0.987129
1.00517 0.999343 0.986285
0.999693 1.00429 0.990329
1.00536 0.994897 0.990361
1.00272 1.00355 0.988188
1.00483 0.999433 0.98697
1.00529 0.994972 0.990608
1.0052 0.997231 0.986999
1.00507 1.00051 0.985634
1.00025 1.0038 0.99079
0.999256 1.00357 0.992555
0.998496 1.00216 0.995598
0.999983 1.00338 0.991467
1.00002 1.00471 0.990203
0.998744 1.00396 0.992417
1.00012 1.00317 0.991494
0.999873 1.00451 0.990382
0.998891 1.00187 0.994492
0.999916 1.00435 0.990782
0.999255 0.999764 0.997165
0.999069 1.00283 0.993453
0.999702 1.00501 0.990148
1.00034 1.00429 0.989988
1.00019 1.00345 0.991101
0.999911 1.00224 0.992725
0.999901 1.00203 0.99296
0.999876 0.999099 0.996526
0.999927 1.00174 0.993203
1.00001 0.998924 0.996484
1.00003 0.99715 0.99787
1.00013 0.998834 0.996408
1.00016 0.997053 0.997776
1.0002 0.997065 0.997681
1.00015 1.0006 0.994087
1.00004 0.998549 0.996174
0.999956 0.999055 0.995821
0.999803 0.997464 0.999098
0.999843 0.999956 0.995149
0.999761 0.997931 0.998967
0.999839 0.998553 0.998656
1.0053 0.994859 0.990649
1.00528 0.994918 0.990912
1.00527 0.994936 0.991154
1.00522 0.994951 0.991312
1.00527 0.994941 0.99119
1.00528 0.994926 0.991069
1.00531 0.994891 0.990683
1.00528 0.99492 0.991115
1.00534 0.994918 0.990888
1.00546 0.995076 0.991092
1.00526 0.994943 0.991158
1.00529 0.994896 0.990801
1.00528 0.994899 0.990611
1.00487 1.00321 0.983258
1.00495 1.00153 0.984454
1.00487 0.999036 0.986899
1.00522 0.994886 0.990538
1.00499 0.995615 0.990043
1.00445 1.00354 0.982997
1.00425 1.00441 0.983481
1.00304 1.00445 0.985534
0.999978 1.00141 0.993433
1.00008 1.00489 0.989828
1.00112 1.00503 0.987785
1.00529 0.994906 0.991039
1.00012 1.00062 0.994012
1.00017 1.00179 0.9927
1.00532 0.994865 0.990583
1.00526 0.994894 0.99057
1.00478 1.00263 0.983945
1.00471 1.00139 0.984885
1.00509 0.996928 0.988408
1.00521 0.994899 0.990289
0.999727 1.00334 0.99207
1.00058 1.00506 0.988956
1.0039 1.00392 0.984264
1.00367 1.00435 0.98415
1.00388 1.00461 0.983817
1.00147 1.00504 0.987041
1.00537 0.994864 0.990788
1.00533 0.994823 0.990479
1.00524 0.994859 0.990397
1.00518 0.994922 0.990355
1.00409 1.00229 0.985113
1.00451 1.0009 0.986291
1.00006 1.00231 0.992219
0.999971 1.00194 0.992993
1.00139 1.00051 0.992537
1.0005 1.0038 0.990145
1.00078 1.0051 0.988512
1.0024 1.00454 0.986397
1.0024 1.00518 0.98442
1.00275 1.0011 0.988069
1.00053 1.00397 0.989891
1.00119 1.00459 0.988259
1.00535 0.99483 0.99037
1.00529 0.995524 0.989806
1.00515 1.00066 0.987124
1.00506 1.00038 0.985967
1.00514 0.998067 0.987243
1.0052 0.999437 0.986252
1.0003 1.00398 0.99022
1.00538 0.99493 0.990593
1.00198 1.00363 0.988356
1.00497 0.999632 0.98673
1.00529 0.994972 0.99063
1.00518 0.99743 0.987199
1.00497 1.00034 0.985623
0.999655 1.00492 0.990932
1.00495 0.99481 0.990816
1.00254 1.00262 0.98809
1.00472 1.00122 0.985129
1.00511 0.995629 0.989866
1.00369 1.00106 0.986248
0.998774 0.99535 0.98626
0.999012 1.00358 0.992472
0.997961 1.0026 0.995613
0.998461 1.00159 0.996749
1.00002 1.00325 0.991486
0.999817 1.00464 0.990378
1.00035 1.00394 0.990666
0.998431 1.0021 0.994896
1.00011 1.00355 0.991103
1.00025 1.00432 0.99004
0.999339 0.999565 0.996884
0.999813 1.00493 0.990162
0.999477 1.00279 0.993001
0.998272 1.00119 0.997267
1.00042 1.00419 0.990117
1.00018 1.00485 0.989952
1.0007 1.00425 0.989668
1.00012 1.00394 0.990499
1.00035 1.00462 0.990047
1.00011 1.00415 0.990254
0.9999 1.00233 0.992632
0.999919 1.00224 0.992707
0.99975 0.999209 0.99597
0.999894 1.00202 0.992938
0.999863 0.999149 0.996201
0.999998 0.997316 0.999098
1.00002 0.998971 0.996484
1.00006 0.997126 0.997868
1.00017 0.997049 0.997766
1.00005 1.00052 0.994243
1.00016 1.0005 0.994118
1.00009 0.998313 0.99638
1.00003 0.998562 0.996452
0.999866 0.997189 0.999162
0.999939 0.999165 0.995775
0.999804 0.997536 0.999077
0.999792 0.997957 0.99893
1.00529 0.994893 0.990649
1.00528 0.994924 0.991083
1.00527 0.994942 0.991192
1.00528 0.994921 0.991115
1.00534 0.994916 0.990865
1.00544 0.995 0.990833
1.00541 0.994883 0.990899
1.00135 0.994875 0.981813
1.00477 0.994986 0.992185
1.00009 1.00174 0.992953
1.00529 0.994905 0.991021
1.00532 0.994875 0.990596
1.00525 0.994889 0.990583
1.0048 1.00229 0.983827
1.00491 1.00097 0.985087
1.00499 0.996826 0.988313
1.00521 0.994889 0.990239
1.00438 1.00327 0.98416
1.0042 1.00405 0.983823
1.00375 1.00461 0.983788
1.00012 1.00064 0.994003
1.00198 1.00503 0.986975
0.999751 1.00329 0.992227
1.00057 1.00504 0.988908
1.00014 1.0018 0.992555
1.00537 0.994855 0.990789
1.00003 1.00233 0.992362
0.99997 1.00196 0.993008
1.00101 1.00053 0.992905
1.00534 0.994833 0.990449
1.00523 0.994863 0.990366
1.00333 1.00317 0.985204
1.00477 0.999662 0.986797
1.00518 0.994904 0.990282
1.0003 1.00381 0.990353
1.00104 1.00507 0.988327
1.00294 1.00247 0.98749
1.00297 1.00503 0.984198
1.0028 1.00402 0.986546
1.00534 0.994796 0.990958
1.00524 0.994782 0.990748
1.00516 0.994996 0.989915
1.00501 0.996915 0.990252
1.00187 1.00199 0.988853
0.999438 1.00357 0.991859
1.00122 1.00103 0.991973
1.00001 1.00015 0.993199
1.00064 1.00442 0.990396
1.00045 1.00508 0.989203
1.00092 1.00429 0.987952
1.00213 1.00021 0.990364
1.00113 1.00359 0.99011
1.00101 1.00367 0.988531
1.0054 0.994959 0.990815
1.00529 0.99493 0.990643
1.00518 0.997572 0.987398
1.00503 0.999782 0.98649
1.00489 1.00019 0.985616
1.00011 1.00469 0.990897
1.00467 0.994845 0.991024
1.00275 1.00239 0.9879
1.00479 1.00128 0.985025
1.00506 0.995525 0.990135
1.00399 1.00089 0.986328
0.998539 0.996448 0.984384
0.998977 1.00439 0.991975
1.003 0.996066 0.991105
1.00335 1.00235 0.986058
1.00306 1.00104 0.98701
1.00337 0.997576 0.990715
0.999958 0.994871 0.944149
0.995227 0.994799 0.965266
0.995642 0.999492 0.988206
0.999285 0.994801 0.860692
0.994713 0.994841 0.822833
0.997549 1.00294 0.995622
0.997711 1.00189 0.997006
0.997719 1.00299 0.996732
1.00007 1.0036 0.991106
1.00028 1.00414 0.990091
0.999982 1.0048 0.990177
0.999709 1.00292 0.992532
0.999316 0.999102 0.996595
1.00011 1.0048 0.989985
1.00016 1.00391 0.990579
1.00061 1.00423 0.989704
0.99856 1.00038 0.996696
0.999988 1.00441 0.990474
1.00044 1.00465 0.990471
0.998772 1.00444 0.992252
1.00011 1.0047 0.990177
1.00052 1.00463 0.989161
1.00019 1.00403 0.990356
1.00032 1.005 0.989367
1.00039 1.00414 0.990582
0.999647 1.00489 0.990667
1.00017 1.00468 0.990015
1.00026 1.00385 0.990651
1.00015 1.00416 0.990248
0.99992 1.00233 0.992634
0.999912 1.00234 0.992636
0.99972 0.999283 0.995989
0.999886 1.00233 0.99269
0.999736 0.999253 0.995964
0.999945 0.997314 0.999129
0.999841 0.999212 0.995877
0.999972 0.997313 0.998492
1.00009 0.997105 0.997864
0.999921 1.00035 0.994576
1.00003 1.00056 0.994249
1.00009 0.998155 0.996563
1.00017 1.00041 0.994149
1.00008 0.998266 0.996664
0.999922 0.996914 0.999216
1.00005 0.998608 0.996125
0.999865 0.99732 0.999136
0.999815 0.997638 0.999058
1.00533 0.994914 0.990842
1.00528 0.994922 0.991115
1.00542 0.994927 0.990581
1.00072 0.99484 0.981971
1.00541 0.994883 0.990909
1.00462 0.994962 0.991983
1.00517 0.996047 0.991204
0.996222 0.994883 0.964713
1.00141 0.995453 0.98401
1.00014 1.00146 0.993229
1.00005 1.00191 0.992914
0.999355 1.00384 0.991929
0.999872 1.00233 0.992664
1.00537 0.994851 0.99079
1.00534 0.994848 0.990418
1.00522 0.994876 0.990334
1.00422 1.00357 0.985301
1.00466 0.997769 0.987326
1.00519 0.994903 0.990209
1.00255 1.00314 0.98688
1.00444 1.00494 0.983965
1.003 1.00258 0.986686
0.999931 1.00204 0.993026
1.00096 1.00508 0.988153
1.00019 1.00387 0.990563
0.999924 1.00254 0.992503
1.0005 1.00084 0.993243
1.00535 0.994796 0.990963
0.999779 1.00352 0.991665
1.00137 1.00056 0.992206
0.998327 1.00122 0.995553
1.00524 0.994805 0.990659
1.00518 0.995055 0.989931
1.00314 1.00083 0.988849
1.00468 0.995973 0.990551
1.00071 1.0045 0.989756
1.00081 1.00482 0.988315
1.00184 1.00177 0.990276
1.00237 1.00362 0.987375
1.0043 0.995126 0.991614
1.00512 0.995013 0.991036
1.00502 0.995941 0.989644
1.00341 0.996636 0.993019
0.998009 1.00463 0.993197
1.00093 1.00144 0.991779
0.998177 1.00474 0.993028
0.999308 1.0046 0.991003
0.999985 0.99489 0.930907
1.00038 1.00454 0.990858
1.00278 1.0026 0.987705
1.00431 0.994886 0.991262
1.00507 0.99548 0.990399
1.00417 1.00074 0.986389
1.00463 1.00141 0.984916
0.998428 0.997187 0.982369
0.999318 1.00428 0.992182
1.00294 0.996293 0.991004
1.00329 1.00263 0.986089
1.00358 1.00102 0.987114
1.00378 0.997634 0.990452
0.999958 0.994866 0.931396
0.995591 0.994804 0.961804
0.995586 1.00004 0.988425
0.998213 0.994771 0.865513
0.994725 0.994838 0.813535
0.999341 1.00424 0.99155
0.999791 0.994818 0.871767
0.994721 0.994808 0.815217
1.00033 0.999634 0.992659
1.00158 1.00202 0.989491
1.00145 0.999482 0.992605
0.994975 0.998547 0.990894
0.997735 0.994826 0.943031
0.994908 0.994784 0.957811
0.996429 0.994849 0.883108
0.99473 0.994813 0.805542
0.997142 1.00224 0.997274
0.997488 1.00232 0.996587
0.997686 1.0045 0.99532
1.00023 1.00385 0.990658
1.00055 1.00421 0.989741
0.999642 1.005 0.990019
0.999707 1.00463 0.990831
0.999086 0.999592 0.996132
1.00022 1.00399 0.990362
1.0002 1.00464 0.990348
0.999978 1.00484 0.990023
1.00068 1.00458 0.989291
0.998702 1.00431 0.992538
0.999465 1.00458 0.991757
0.997543 1.00509 0.993312
1.00011 1.00507 0.989467
1.00052 1.0047 0.989437
1.00044 1.00492 0.989346
1.00018 1.00373 0.990868
1.0003 1.00501 0.98972
0.999901 1.00378 0.991383
0.999185 1.00281 0.99209
0.999189 1.00497 0.991015
0.999535 1.00475 0.99069
0.999822 1.00458 0.990693
1.0001 1.00387 0.990787
1.00003 1.0047 0.989984
1.00026 1.00384 0.99058
1 1.0023 0.992549
1.00019 1.00417 0.990241
0.999933 1.00229 0.992646
0.999909 0.999245 0.996431
0.999893 1.00235 0.992639
0.999767 0.999251 0.996249
0.999892 0.997301 0.997973
0.999725 0.999269 0.995958
0.99994 0.997332 0.999138
0.999964 0.99734 0.997883
1.00025 1.00144 0.993016
0.999922 1.00023 0.994719
0.999927 1.00039 0.994567
1.00005 0.99808 0.996671
1.00001 1.00061 0.994253
1.00009 0.998117 0.996561
0.999965 0.996801 0.999249
1.00006 0.998275 0.996908
0.999925 0.997073 0.998645
0.999891 0.997377 0.997982
1.0002 0.99482 0.982109
1.00542 0.994885 0.990917
1.00442 0.995478 0.991767
0.99644 0.994856 0.965281
1.00153 0.99517 0.984383
1.0052 0.995566 0.991184
1.00347 0.99628 0.986505
0.997294 0.994854 0.967985
0.999985 0.994865 0.942248
0.998014 0.994815 0.884568
0.994656 0.994804 0.821582
0.999697 1.00243 0.992673
1.00016 1.00141 0.993215
1.00015 1.00182 0.992874
0.999715 1.00325 0.992075
0.999129 1.00412 0.992427
1.00055 1.00199 0.991911
1.00021 1.00287 0.991938
1.00011 1.00213 0.99253
1.00536 0.994794 0.990961
1.00526 0.994823 0.990575
1.00519 0.995069 0.989942
1.00309 1.00111 0.988841
1.00452 0.995544 0.990848
1.00163 1.00249 0.99017
1.00381 1.00387 0.986807
1.00156 1.00505 0.987435
1.0014 1.00011 0.992432
1.00079 1.0046 0.989082
1.00037 1.00311 0.991487
0.997279 1.00169 0.997874
1.00428 0.994824 0.99189
0.998487 1.00424 0.993087
1.00071 1.0018 0.992286
1.00485 0.994929 0.991007
1.0047 0.995832 0.98999
1.00273 0.996753 0.992694
0.999499 1.00511 0.991324
1.00053 1.00333 0.991232
1.0033 0.994849 0.991292
1.00389 0.998561 0.990517
1.00459 0.995498 0.991131
1.00088 0.998024 0.993992
0.999438 1.00486 0.990776
0.998775 1.00446 0.992286
0.99946 1.00494 0.991902
0.999787 0.994913 0.87437
1.00026 0.994864 0.944749
0.999938 1.0038 0.992393
1.00346 1.00279 0.98613
1.00286 0.996863 0.990898
1.00409 0.997705 0.990201
1.00404 1.00109 0.987241
0.999989 0.994874 0.942476
0.995879 0.994794 0.961287
0.995586 1.0004 0.988681
0.997671 0.994826 0.883243
0.994733 0.994828 0.803702
0.999621 1.00421 0.991507
0.999813 0.994851 0.870948
0.994686 0.994794 0.808445
1.00043 0.999579 0.99262
1.00159 1.00216 0.989489
1.00136 0.999622 0.993001
0.994893 0.999648 0.991631
0.998527 0.995183 0.93685
0.994873 0.994799 0.959283
0.995932 0.995257 0.882738
0.994747 0.99481 0.803976
0.998545 1.00414 0.994286
0.994717 0.994804 0.805996
0.994745 0.994778 0.815111
0.996942 1.00205 0.996913
0.999834 1.00185 0.994626
0.994889 0.999475 0.988729
0.995014 0.99489 0.960665
0.99543 0.994784 0.931785
0.994778 0.995956 0.887451
0.994831 0.994838 0.810407
0.997509 1.00183 0.996449
0.998132 1.0038 0.995068
0.996894 1.00396 0.995614
1.00023 1.00395 0.990368
1.00081 1.00442 0.989422
1.00001 1.00494 0.989866
0.999913 1.00466 0.990227
0.998266 1.00423 0.992826
1.0005 1.00474 0.989424
0.999534 1.0043 0.99141
1.00034 1.00499 0.989481
0.997157 1.005 0.993681
0.995957 1.00522 0.996365
0.99885 1.00495 0.991873
1.00053 1.00507 0.989355
1.00056 1.00475 0.989326
1.00007 1.00333 0.991148
1.0002 1.00498 0.989662
1.00002 1.00363 0.99129
0.998992 1.00308 0.992824
0.998982 1.00475 0.99141
0.998725 1.00509 0.991572
0.998685 1.00324 0.993388
1.00034 1.00166 0.992845
1.00247 0.999596 0.990969
0.99908 1.00482 0.991112
0.999399 1.0048 0.991061
0.99957 1.00501 0.990079
0.999584 1.0049 0.990695
1.00005 1.004 0.990693
0.999799 1.0046 0.990716
1.00014 1.00386 0.990816
1.00003 1.00234 0.992386
1.00026 1.00389 0.990509
0.999981 1.00231 0.992565
1.00004 0.999198 0.996244
0.999923 1.00229 0.992658
0.999886 0.999214 0.996086
1 0.997245 0.99783
0.999762 0.999233 0.995958
0.99995 0.997291 0.999147
0.999937 0.997329 0.999147
1.00032 1.00184 0.992854
0.999951 1.00039 0.994552
1.00014 1.00163 0.993028
1.00005 0.99804 0.996711
0.999913 1.00024 0.994718
0.999926 1.00044 0.99456
1.00006 0.998078 0.99666
0.999992 0.996714 0.999264
1.00007 0.998133 0.997055
0.999976 0.9968 0.998724
0.999943 0.997087 0.99813
0.999811 0.994825 0.858924
0.994692 0.994771 0.806039
0.996501 0.994855 0.965707
1.00133 0.994904 0.984854
1.00525 0.994809 0.991175
0.996944 0.995159 0.967558
1.00352 0.995421 0.987028
1.00078 0.994877 0.938822
0.998453 0.994776 0.865795
0.994703 0.994819 0.81253
0.997941 0.994828 0.973599
0.998555 0.994862 0.94256
0.996591 0.994856 0.883203
0.99476 0.994816 0.812155
1.0001 1.00329 0.99171
0.999847 1.00218 0.992802
1.00011 1.00151 0.993205
0.999865 1.00295 0.992221
0.998969 1.00405 0.992725
1.00028 1.0035 0.990821
1.00029 1.00276 0.99175
1.0005 1.00347 0.990471
1.00016 1.00288 0.991821
0.999987 1.00245 0.992389
1.00409 0.994764 0.992152
1.00471 0.994851 0.990978
1.00435 0.99578 0.990339
1.00226 0.997307 0.992365
1.00102 1.00298 0.99146
0.999585 1.00516 0.989646
1.00024 1.00229 0.992869
0.998669 1.00412 0.992963
1.00245 0.994944 0.991734
0.999512 1.00499 0.990548
0.998502 1.00485 0.992058
1.00362 0.997514 0.990689
1.00432 0.995529 0.991354
1.00108 0.998145 0.994276
0.999254 1.00493 0.99162
1.00023 0.995238 0.990651
1.00129 0.998671 0.993713
0.998915 1.00151 0.995067
0.99881 1.00473 0.990136
0.998666 1.00507 0.990925
0.998725 1.00485 0.992217
0.994723 0.994839 0.829198
0.999787 0.99488 0.879533
0.999996 0.994875 0.931256
0.999445 1.00405 0.991443
1.00183 1.00237 0.989461
1.00051 0.999337 0.992576
1.0012 0.999769 0.993404
0.999817 0.994874 0.883399
0.998023 0.994832 0.931626
0.994839 0.994824 0.957891
0.994885 1.00081 0.992265
0.996779 0.994832 0.867881
0.994663 0.99479 0.814009
0.994791 0.994822 0.818261
0.998384 1.00352 0.993996
0.994706 0.994812 0.815922
0.994768 0.994782 0.814542
0.997106 1.00052 0.997544
0.999408 1.00184 0.99451
0.994927 0.998326 0.991138
0.995445 0.994852 0.959472
0.996379 0.996809 0.942872
0.994721 0.997307 0.870618
0.99495 0.994835 0.820681
0.997015 1.00388 0.996691
0.994782 0.994829 0.823398
0.994812 0.994792 0.811758
0.994998 1.00223 1.00012
0.9953 0.99701 0.968188
0.994829 0.99815 0.941792
0.995177 0.995812 0.862901
0.995227 0.994879 0.828535
0.998556 1.00273 0.994777
0.99723 1.00426 0.995778
0.99568 1.00421 0.997998
1.00038 1.00479 0.989409
1.00045 1.00503 0.989498
0.999684 1.00397 0.991063
0.996953 1.00486 0.994052
1.00026 1.00508 0.989362
0.998803 1.00497 0.991848
0.995748 1.00521 0.996715
0.994989 1.00508 0.998271
0.995838 1.00515 0.996765
0.999371 1.0051 0.991266
1.0002 1.00502 0.9896
1.00007 1.00332 0.991195
0.998659 1.00335 0.993538
0.998736 1.00508 0.991664
0.999207 1.00471 0.991423
0.998664 1.00348 0.993501
0.998798 1.00444 0.992284
0.996328 1.00497 0.996038
1.00218 0.99735 0.993777
0.999959 1.00137 0.993429
1.00114 1.00081 0.991775
1.0047 1.00042 0.986966
1.00172 1.00183 0.990888
1.00127 0.999407 0.992903
0.999616 1.00457 0.990837
0.999715 1.00512 0.989612
0.999665 1.00459 0.991106
0.999882 1.00504 0.990083
1.0001 1.00456 0.990069
0.999978 1.00474 0.9907
1.00028 1.00379 0.990678
1.00011 1.00247 0.992178
1.00034 1.00357 0.990847
1.00011 1.00232 0.992395
1.00015 0.999233 0.996029
1.00001 1.00226 0.992581
1.00002 0.999207 0.995867
1.00009 0.997266 0.997691
0.999891 0.999192 0.995791
0.99999 0.997249 0.998486
0.999963 0.997262 0.999128
1.00024 1.00245 0.99199
1.00009 1.00051 0.994253
1.00022 1.00188 0.992677
1.00004 0.998095 0.996658
0.999968 1.00034 0.99456
1.00013 1.00161 0.993039
1.00002 0.996675 0.999272
1.00004 0.998041 0.996711
0.999914 1.00027 0.994718
1.00007 0.998064 0.996649
0.999993 0.996752 0.999261
0.999962 0.996794 0.999246
0.994689 0.994776 0.809311
0.999788 0.99484 0.870866
0.994754 0.994768 0.812327
0.99471 0.994771 0.805207
0.996996 0.994883 0.965638
1.00341 0.994839 0.987556
0.999899 0.994854 0.934714
0.999095 0.994813 0.884429
0.994742 0.994828 0.803203
0.998475 0.994859 0.972718
0.999384 0.995819 0.928674
0.996126 0.996113 0.881467
0.994719 0.994809 0.804877
0.995215 0.994818 0.965434
0.996291 0.996276 0.930254
0.994833 0.997401 0.863153
0.994822 0.994868 0.809191
1.00083 1.00447 0.990306
0.999763 1.00328 0.99181
1.00001 1.0019 0.992927
0.99868 1.00374 0.993027
1.00087 1.00379 0.989501
1.00022 1.00338 0.991026
0.999866 1.00324 0.991596
1.00099 1.00298 0.990493
1.00059 1.00355 0.990574
1.00021 1.00269 0.991707
1.00208 0.994783 0.99217
1.00343 0.996713 0.990873
1.0039 0.995602 0.991579
1.00091 0.997268 0.994582
1.00029 1.00492 0.991321
0.998912 1.00514 0.991842
0.999627 1.00502 0.990315
1.00017 1.00477 0.989872
0.999878 0.995511 0.991125
0.999558 1.00507 0.99065
0.999436 1.0048 0.992074
1.00121 0.998343 0.994368
0.99977 1.00037 0.994889
0.996496 0.999344 0.990619
0.99677 0.99906 1.00062
0.996937 1.00346 0.995675
0.999407 1.00478 0.991096
0.997847 1.00503 0.993457
0.994811 0.994815 0.829425
0.994716 0.994821 0.825185
0.999797 0.99489 0.862614
0.99838 1.00311 0.993765
0.999114 1.00154 0.994388
0.997295 0.999818 0.998178
0.99468 0.994797 0.8145
0.99645 0.99621 0.93151
0.995581 0.994883 0.959184
0.994864 0.996655 0.993843
0.994797 0.997146 0.888982
0.994773 0.994784 0.814611
0.995108 0.994841 0.821834
0.99738 1.00384 0.996534
0.99479 0.994827 0.826269
0.994804 0.994793 0.812619
0.995204 1.00151 0.999205
0.99528 0.996175 0.970156
0.994848 0.99606 0.930259
0.995096 0.994865 0.824676
0.995027 0.998688 0.871148
0.994923 1.00469 1.00005
0.994795 0.994826 0.818294
0.99487 0.994828 0.820147
0.994816 0.994852 0.809716
0.994808 0.998748 0.990242
0.994867 0.998498 0.945221
0.997298 0.996609 0.879265
0.997679 1.00484 0.995969
0.995813 1.00474 0.997785
0.995191 1.0047 0.999232
1.00021 1.00508 0.98937
0.998786 1.00502 0.991821
0.99557 1.00518 0.997059
0.999035 1.00511 0.991261
0.995983 1.00514 0.996768
0.995207 1.00486 0.998229
0.994943 1.00517 0.998452
0.995689 1.00505 0.996986
0.998626 1.00498 0.991769
0.999381 1.00476 0.991436
0.998688 1.00393 0.99364
0.996543 1.0049 0.995902
0.998786 1.00463 0.992166
0.999097 1.00183 0.994508
0.999678 0.997716 0.997361
1.00235 1.00006 0.989541
0.999587 1.00111 0.993969
1.00172 1.00083 0.991281
1.00436 1.00186 0.985914
1.00497 1.00245 0.984104
1.00361 0.999381 0.989842
1.00388 1.00039 0.987375
1.00082 1.00511 0.988759
1.00098 1.00222 0.9913
1.00008 0.999306 0.994813
1.00016 1.00438 0.990563
0.999906 1.00511 0.989653
1.00024 1.00501 0.989292
1.00018 1.00506 0.99009
1.00026 1.00439 0.990081
1.00014 1.0029 0.991636
1.00039 1.00372 0.990661
1.00015 1.0024 0.99217
1.00018 0.99931 0.995896
1.00012 1.00229 0.992402
1.00013 0.99925 0.995649
1.00018 0.997302 0.99753
1.00003 0.999222 0.995544
1.00007 0.997255 0.998385
1.00003 0.997231 0.999072
1.00057 1.00266 0.991103
1.00012 1.00085 0.993557
1.00038 1.00231 0.991982
1.00011 0.998145 0.996506
1.00006 1.00053 0.994102
1.00015 1.00192 0.992503
1.00004 0.996693 0.999257
1.00006 0.998063 0.996669
0.999981 1.00027 0.994568
1.00002 0.996695 0.99927
1.00003 0.998057 0.996712
0.999994 0.996725 0.999258
0.994821 0.994821 0.819875
0.994697 0.994809 0.822004
0.999798 0.994814 0.869942
1.00113 1.00261 0.990506
0.994818 0.994796 0.81851
0.994756 0.99477 0.812291
0.994741 0.99478 0.817742
0.999058 0.994872 0.971885
0.99812 0.994835 0.941583
0.996292 0.994857 0.865435
0.994695 0.994815 0.813606
0.996401 0.994841 0.96293
0.996456 0.997958 0.941209
0.994733 0.996591 0.866399
0.994836 0.994853 0.81328
0.994821 0.99496 0.957346
0.994815 0.995969 0.93962
0.995418 0.999915 0.874546
0.9951 0.994889 0.828501
0.999651 1.00477 0.990478
1.00025 1.0043 0.990244
0.99993 1.00329 0.991911
1.00067 1.0031 0.990563
1.00065 1.00417 0.989759
1.00019 1.00367 0.991228
1.00098 1.00312 0.99045
1.00058 1.00359 0.99067
0.998733 0.997019 0.991438
1.00075 0.997909 0.99494
1.00036 1.00486 0.989605
1.00069 0.999693 0.99472
0.999642 1.00473 0.991933
1.00003 1.00508 0.990382
0.999174 1.00467 0.991155
0.995986 0.998761 0.991295
0.998212 1.00499 0.993449
0.99768 1.00303 0.995953
0.996221 0.99997 1.00078
0.998724 1.00464 0.992512
0.994812 1.00091 0.987905
0.995449 1.00261 0.998903
0.996105 1.00483 0.996775
0.997714 1.00541 0.994314
0.994781 0.994808 0.823827
0.994815 0.994817 0.827074
0.994705 0.994808 0.821071
0.997673 1.00391 0.996354
0.995428 1.00054 0.998274
0.994805 0.994827 0.828958
0.994786 0.997709 0.942429
0.995637 0.996081 0.967482
0.995039 0.998297 0.869506
0.994806 0.994793 0.813274
0.994888 0.994855 0.820833
0.995377 1.00448 0.999685
0.994797 0.994823 0.818346
0.994866 0.994837 0.821179
0.994794 0.999383 0.993977
0.994828 0.994843 0.813552
0.994852 0.996328 0.9375
0.996042 0.997449 0.881351
0.994794 1.00326 0.998548
0.994836 0.994842 0.824748
0.994802 0.994802 0.819615
0.994751 0.994815 0.812379
0.99561 0.999908 0.873423
0.994868 1.00084 0.974982
0.995494 0.997864 0.930583
0.996088 1.00506 0.997584
0.995058 1.00508 0.999206
0.994897 1.00519 0.99844
0.998626 1.00512 0.991255
0.995824 1.00517 0.996776
0.995008 1.00522 0.99819
0.995736 1.00496 0.996913
0.994958 1.00516 0.99848
0.997691 1.00223 0.997674
0.996697 1.00487 0.995749
0.998729 1.00473 0.992064
0.998881 1.00206 0.995187
0.998799 1.00168 0.993058
0.997315 0.998049 1.00078
1.00208 0.999754 0.990791
1.00427 1.00438 0.982639
1.00463 1.00296 0.983734
1.00225 1.00078 0.99074
1.00426 1.0022 0.985207
1.0051 1.00231 0.983985
1.00495 0.999953 0.986553
1.0047 1.0022 0.984461
1.00175 1.00301 0.988859
1.00321 1 0.989596
1.00312 1.00031 0.987805
1.00043 1.00513 0.988596
1.00035 1.00506 0.989021
1.00031 1.00247 0.991705
1.00002 1.00511 0.989693
1.00038 1.00499 0.989312
1.0002 1.00391 0.990608
1.00041 1.00438 0.990093
1.00019 1.00294 0.991618
1.00015 0.999525 0.995015
1.00024 1.0024 0.992165
1.0002 0.999311 0.995165
1.00009 0.997303 0.998937
1.00013 0.999294 0.99531
1.00014 0.997294 0.998265
1.00009 0.997245 0.999003
1.00053 1.00277 0.991026
1.00028 1.0013 0.992883
1.00051 1.00271 0.991253
1.00017 0.998296 0.996262
1.0002 1.00083 0.993481
1.00042 1.00229 0.99197
1.00008 0.996684 0.999223
1.00011 0.998121 0.996521
1.00007 1.00052 0.993952
1.00004 0.996675 0.999263
1.00007 0.998028 0.99668
1.00001 0.996735 0.999268
0.994798 0.994828 0.825119
0.994818 0.99482 0.820156
0.99469 0.994826 0.821893
1.00101 1.00264 0.990675
1.0007 1.00295 0.990538
1.00113 1.00195 0.991375
0.994875 0.994833 0.819265
0.994817 0.994795 0.819221
0.994755 0.994762 0.81234
0.996751 0.994842 0.963682
0.995942 0.994787 0.929498
0.99478 0.998524 0.887615
0.994824 0.99484 0.807726
0.994985 0.995015 0.95999
0.99491 0.997626 0.93581
0.995364 0.997709 0.870932
0.995087 0.994877 0.824373
0.99582 0.995198 0.956907
0.99486 0.997256 0.940377
0.99643 0.996659 0.880193
0.994839 0.994837 0.811389
0.999774 1.00307 0.991927
1.00027 1.00416 0.990294
1.00035 1.00392 0.990179
1.00086 1.00296 0.990504
1.00034 1.00438 0.990019
1.00095 1.00331 0.99041
0.995941 0.997491 0.992101
0.996066 1.0009 1.00107
0.999617 1.0039 0.99121
0.998664 1.00235 0.996143
0.998494 1.00485 0.993432
0.998214 1.00428 0.993151
0.99721 1.00523 0.994419
0.994834 1.00138 0.98776
0.995845 1.00509 0.997204
0.995741 1.00297 0.998217
0.997103 1.00512 0.99472
0.99496 1.00269 0.984862
0.995533 1.00476 0.995445
0.995288 1.00438 0.998582
0.994846 0.994832 0.823172
0.994785 0.994817 0.823147
0.994819 0.994814 0.824761
0.995761 1.00383 0.999285
0.994795 0.999704 0.989903
0.994794 0.994821 0.818409
0.99485 0.997699 0.937106
0.996672 0.996616 0.866255
0.994866 0.994838 0.822188
0.99482 0.994834 0.808378
0.994789 1.00309 0.999015
0.994826 0.994843 0.82504
0.994819 0.994803 0.820374
0.994873 0.999622 0.972415
0.994714 0.994809 0.805499
0.995836 0.999439 0.8683
0.994948 0.995554 0.944016
0.994867 1.00518 0.990671
0.99479 0.994838 0.825416
0.994775 0.994784 0.813581
0.994658 0.994809 0.823023
0.994795 0.997395 0.862311
0.994852 0.998768 0.938947
0.994873 1.00108 0.966773
0.995056 1.00501 0.999151
0.994934 1.00518 0.998377
0.996212 1.00386 0.997575
0.995957 1.00479 0.996843
0.994989 1.00507 0.998496
0.996348 1.00384 0.997715
0.999364 0.998955 0.997848
0.99862 1.00248 0.995853
1.00116 1.0013 0.992135
1.00225 1.00484 0.985746
1.00163 0.999503 0.992265
1.00421 1.00423 0.983343
1.00429 1.00489 0.98221
1.00502 1.00157 0.984071
1.00505 1.00191 0.984223
1.0046 1.00306 0.983622
1.00445 1.00247 0.984516
1.00509 1.00153 0.984806
1.00511 1.0022 0.984039
1.00383 1.00066 0.987651
1.00463 1.00009 0.98689
1.00437 1.00198 0.984819
1.0008 1.00508 0.987981
1.0018 1.00329 0.988793
1.00266 1.00078 0.98934
1.0004 1.00459 0.989629
1.00074 1.00512 0.9886
1.00008 1.00501 0.989283
1.00057 1.00491 0.989333
1.00033 1.00373 0.990615
1.00006 1.00013 0.994517
1.00031 1.00283 0.9916
1.00016 0.999569 0.994989
1.0001 0.997433 0.998901
1.00022 0.999324 0.995162
1.00015 0.997327 0.998205
1.00013 0.997292 0.998945
1.00066 1.00317 0.990752
1.0004 1.00157 0.992624
1.00066 1.00264 0.991083
1.00025 0.998534 0.995897
1.00028 1.0013 0.992968
1.00051 1.0027 0.991405
1.00011 0.996749 0.999167
1.00018 0.998245 0.996281
1.00024 1.00079 0.993406
1.00007 0.996702 0.999233
1.00012 0.998096 0.996535
1.00004 0.996689 0.999269
0.994834 0.994837 0.823891
0.994801 0.994843 0.825185
0.994814 0.99483 0.820482
1.00016 1.00453 0.989729
1.00105 1.00424 0.990006
1.00083 1.00277 0.990849
1.0006 1.00328 0.990427
1.00064 1.00212 0.99156
1.00026 1.00295 0.991358
1.00015 1.00178 0.992667
0.994832 0.994803 0.812195
0.994877 0.994841 0.820408
0.994811 0.994816 0.819949
0.994892 0.994868 0.820322
0.995166 0.994978 0.957678
0.994844 0.998852 0.930687
0.995446 0.99558 0.885005
0.995344 0.995012 0.956028
0.994845 0.998539 0.927884
0.995528 0.997635 0.881779
0.994887 0.99483 0.821451
0.996132 0.996488 0.96008
0.994984 0.999277 0.929213
0.995132 0.996211 0.863222
0.994734 0.994811 0.806529
0.997794 1.00466 0.993986
0.999529 1.00355 0.992245
1.00033 1.00442 0.99011
1.00093 1.00316 0.990451
0.994837 1.00148 0.987793
0.995796 1.00348 0.997379
0.997883 1.00484 0.993793
0.997037 1.00518 0.994531
0.995618 1.00515 0.997713
0.996979 1.00497 0.994851
0.995379 1.00445 0.998602
0.995678 1.00248 0.981503
0.995094 1.00515 0.99571
0.995646 1.00388 0.997769
0.994807 1.00492 0.980234
0.995136 1.00272 0.999507
0.994779 0.994816 0.824335
0.99484 0.994833 0.8263
0.99479 0.994832 0.822447
0.994796 1.00305 0.999463
0.994862 0.9997 0.975733
0.994818 0.994837 0.82538
0.995176 0.997481 0.931566
0.996166 0.996674 0.883201
0.994829 0.994825 0.821059
0.994692 0.994815 0.814006
0.994875 1.0046 0.991568
0.994808 0.994837 0.825506
0.994759 0.994783 0.813599
0.994873 0.999764 0.966731
0.994707 0.994821 0.814087
0.994715 0.997277 0.864738
0.995039 0.998801 0.927114
0.994913 1.00478 0.985498
0.994835 0.994818 0.820058
0.994683 0.994778 0.807636
0.996365 0.994856 0.884664
0.994771 0.997741 0.938905
0.994797 0.999988 0.959795
0.994965 1.00528 0.998723
0.995561 1.00429 0.997648
0.996794 1.0003 0.998782
0.995289 1.00502 0.997747
0.997649 1.00067 0.998221
1.00199 0.999961 0.992724
1.0036 1.00081 0.991221
1.00313 1.005 0.984987
1.00387 1.00368 0.983571
1.00388 1.00423 0.984044
1.00442 1.00477 0.982143
1.0044 1.0041 0.982899
1.0052 0.999846 0.985493
1.00511 1.00098 0.98498
1.00504 1.00179 0.984033
1.00509 1.00166 0.984496
1.00504 1.00177 0.984232
1.0045 1.00325 0.983508
1.00511 1.00114 0.985431
1.00501 1.00175 0.984655
1.00512 1.00209 0.984096
1.00252 1.00352 0.987419
1.00342 1.00095 0.988057
1.00435 1.00014 0.98723
1.00055 1.0049 0.988629
1.00118 1.0049 0.988042
1.00165 1.00358 0.988726
1.00015 1.0007 0.993798
1.00052 1.0044 0.989639
1.00097 1.00511 0.988602
1.00041 1.00362 0.990619
1.00008 1.00019 0.994482
1.00005 0.997691 0.998825
1.00018 0.9996 0.994964
1.0001 0.99744 0.998887
1.00013 0.99729 0.998917
1.00007 1.00511 0.989888
1.00072 1.00412 0.989855
1.00053 1.00203 0.991987
1.00062 1.00313 0.990736
1.00027 0.998874 0.995501
1.00039 1.0016 0.992615
1.00068 1.00262 0.99114
1.00013 0.9969 0.999076
1.00024 0.998518 0.995919
1.00029 1.00131 0.99305
1.00011 0.99674 0.999184
1.00019 0.998216 0.996302
1.00007 0.996684 0.999245
0.9948 0.994834 0.818519
0.99482 0.994832 0.824216
0.994811 0.994833 0.825245
1.00035 1.00472 0.98971
1.00043 1.00365 0.990192
1.00023 1.003 0.989918
0.999559 1.0045 0.990186
1.00138 1.00345 0.990524
1.00073 1.00356 0.990316
1.00049 1.00222 0.991743
1.00034 1.00306 0.991386
1.00037 1.00185 0.992675
0.998911 1.00393 0.993028
0.994752 0.994775 0.815446
0.994816 0.994803 0.813112
0.994879 0.994837 0.821482
0.995054 0.994838 0.82252
0.995789 0.996666 0.867198
0.994917 0.995061 0.95482
0.99485 0.997304 0.939892
0.99538 0.99653 0.956311
0.994894 0.996137 0.941011
0.99498 0.998928 0.871775
0.994752 0.994806 0.805009
0.994844 0.998864 0.959599
0.994834 1.00069 0.940818
0.99477 0.99745 0.887252
0.99471 0.994846 0.82418
0.998388 1.0018 0.996162
0.997414 1.00453 0.994318
0.999488 1.00339 0.992576
0.996071 1.00225 0.977878
0.994932 1.00519 0.995984
0.99683 1.00482 0.994977
0.994945 1.00461 0.998616
0.996021 1.00385 0.997727
0.995147 1.00223 0.999796
0.99485 1.0026 0.979567
0.995961 1.00117 1.00006
0.99566 1.00022 0.986202
0.994815 0.99482 0.828446
0.994791 0.994827 0.823671
0.994832 0.994831 0.829471
0.994898 1.00399 0.991869
0.99485 0.999553 0.964295
0.994824 0.994844 0.825586
0.994848 0.99918 0.938894
0.994754 0.998528 0.885414
0.994743 0.994762 0.813773
0.994737 0.994831 0.804834
0.995326 1.0047 0.986248
0.994816 0.994824 0.820234
0.994705 0.994778 0.806887
0.995043 0.999231 0.960855
0.995954 0.995568 0.88244
0.99487 0.997574 0.933669
0.995158 1.00293 0.983212
0.994689 0.994781 0.810124
0.997976 0.994825 0.885863
0.996143 0.996384 0.930456
0.994839 0.996439 0.962099
0.995543 1.00501 0.997727
0.996331 1.00146 0.998708
0.999015 1.00214 0.99543
0.995948 1.00274 0.998571
1.00088 1.00024 0.99358
1.00381 0.999161 0.989613
1.00395 1.0051 0.984211
1.00375 1.00388 0.983464
1.00434 1.00074 0.985625
1.00469 1.00466 0.982079
1.00449 1.00362 0.982987
1.00498 0.999931 0.98593
1.00528 0.99728 0.987805
1.00523 0.99936 0.985864
1.0052 0.999753 0.98557
1.00517 1.00082 0.9852
1.00512 1.00102 0.984892
1.00506 1.00192 0.983994
1.00518 1.00201 0.984367
1.00502 1.00157 0.984522
1.00503 1.00165 0.984239
1.00439 1.00155 0.986241
1.0046 1.00155 0.98557
1.00495 1.00202 0.984506
1.0011 1.00495 0.987392
1.00235 1.00348 0.987416
1.0032 1.00119 0.988461
1.00009 1.00172 0.993896
1.00083 1.00488 0.98864
1.00152 1.00465 0.988105
1.0001 0.998245 0.996663
1.00014 1.00091 0.994159
1.00065 1.00429 0.989648
1.00011 1.00028 0.994447
1.00007 0.997773 0.998771
1.00011 0.997454 0.998871
1.00058 1.00499 0.989105
1.00085 1.00498 0.989004
0.999676 1.00513 0.989784
1.00051 1.00302 0.99108
1.00054 1.00429 0.989829
1.00024 0.999268 0.995163
1.00049 1.00207 0.992001
1.00071 1.00309 0.990717
1.00013 0.99716 0.998984
1.00027 0.998853 0.995518
1.00038 1.00164 0.992606
1.00012 0.996896 0.999105
1.00023 0.998486 0.99594
1.0001 0.996741 0.999202
0.994787 0.994821 0.829731
0.994807 0.994836 0.818592
0.994805 0.994847 0.824559
1.00179 1.00155 0.98948
0.999931 1.00504 0.989688
1.00021 1.00354 0.990396
1.00029 1.00494 0.989889
1.00115 1.00257 0.990007
1.00055 1.00329 0.991653
1.00303 1.00245 0.987466
0.998106 1.005 0.991914
1.00029 1.00302 0.991411
1.00011 1.00162 0.992681
0.99856 1.00387 0.992944
0.998182 1.00462 0.993571
0.994722 0.994808 0.815512
0.994774 0.99478 0.814921
0.994812 0.994802 0.813852
0.994779 0.994821 0.818907
0.994904 0.99875 0.870522
0.995154 0.998611 0.929395
0.994864 0.995906 0.956501
0.994875 0.999336 0.958828
0.99472 0.994849 0.814707
0.994863 0.996464 0.933014
0.994757 0.997783 0.870503
0.99491 0.996543 0.964528
0.994849 0.999115 0.942047
0.995945 0.994855 0.884364
0.999764 0.995313 0.999869
0.998335 1.00165 0.99608
0.997325 1.00439 0.994631
0.994871 1.00178 0.979323
0.995132 1.00154 1.00005
0.996625 1.00396 0.997685
0.997017 1.00059 1.00027
0.995211 0.999086 0.986371
0.99644 0.998527 0.991813
0.994715 0.994841 0.823858
0.994813 0.994812 0.829786
0.9948 0.994828 0.822925
0.994955 1.00444 0.986496
0.994856 0.99997 0.960523
0.9948 0.99483 0.820598
0.99483 0.998991 0.928981
0.996148 0.994857 0.86683
0.994745 0.994791 0.819093
0.994763 1.00483 0.983156
0.994699 0.994817 0.822603
0.998086 0.994786 0.866984
0.994856 0.995821 0.957863
0.9962 0.997593 0.941658
0.994877 1.00256 0.989395
0.999806 0.994838 0.859135
0.998358 0.994874 0.943702
0.994834 0.994832 0.956946
0.995826 1.00252 0.998689
0.998335 1.00138 0.99522
1.00131 1.00287 0.991352
0.999794 1.0001 0.994438
1.00301 0.999777 0.989414
1.00439 0.999378 0.987906
1.00377 1.00404 0.983355
1.00432 1.00093 0.985536
1.00505 0.996843 0.988242
1.00451 1.00306 0.983078
1.00485 0.999812 0.985922
1.0053 0.996044 0.989037
1.00526 0.995731 0.989773
1.00527 0.997456 0.987765
1.00529 0.997222 0.987928
1.00525 0.999188 0.986074
1.00522 0.999332 0.98605
1.0052 0.999703 0.985649
1.00526 1.0012 0.984554
1.00518 1.00074 0.985153
1.00512 1.00103 0.984802
1.00516 1.00136 0.984892
1.00504 1.00195 0.984406
1.00493 1.00147 0.984547
1.00261 1.00369 0.986602
1.00409 1.00193 0.98615
1.00399 1.00195 0.985711
1.00021 1.00251 0.991851
1.00161 1.00487 0.987414
1.00225 1.00363 0.987407
0.999822 0.999134 0.998411
1.00016 1.00175 0.992797
1.00108 1.00481 0.988652
1.00007 0.998191 0.998583
1.00014 1.00095 0.993662
1.00008 0.997824 0.998711
1.00281 1.00331 0.987895
1.00065 1.00493 0.988941
1.00105 1.00509 0.988509
1.00061 1.00391 0.990035
1.0006 1.00502 0.988976
0.999884 1.00518 0.989683
1.00015 0.999876 0.994735
1.00049 1.00296 0.991102
1.00033 1.00433 0.9898
1.0001 0.997378 0.998909
1.00024 0.999215 0.995179
1.00046 1.00207 0.992014
1.00012 0.997114 0.999011
1.00027 0.998833 0.995533
1.00012 0.996853 0.999134
0.994721 0.994803 0.808342
0.994806 0.994823 0.830038
0.994815 0.994837 0.818689
1.00164 1.00238 0.989408
1.00477 1.00149 0.98686
1.00214 1.0032 0.988496
1.00023 1.00481 0.98959
1.00233 1.00226 0.990093
0.999228 1.0025 0.99275
0.999013 1.0047 0.991459
1.00206 1.00298 0.98838
1.00226 1.00239 0.989166
0.999186 0.999837 0.99592
0.999308 1.00385 0.99285
0.998482 1.00464 0.993505
0.998789 0.994811 0.860339
0.994691 0.994798 0.809047
0.994783 0.994784 0.815014
0.994732 0.994835 0.804696
0.994803 0.997374 0.888721
0.994844 0.998178 0.92852
0.994944 0.997059 0.957437
0.994866 0.99691 0.962349
0.996209 0.99701 0.88231
0.994846 0.997103 0.930123
0.994864 0.997415 0.965488
0.99599 0.994791 0.930517
1.00008 0.995613 1.00119
0.999496 0.996594 0.999863
0.998102 1.00156 0.996044
0.994962 0.998788 0.986691
0.997695 0.999843 1.00049
0.996883 0.998749 0.991496
0.996681 0.996245 0.990305
0.999791 0.994927 0.873277
0.994705 0.994826 0.821329
0.99482 0.994813 0.830961
0.994773 1.005 0.983481
0.994853 0.994899 0.956224
0.994694 0.994831 0.822333
0.99581 0.994782 0.930866
0.998852 0.994827 0.885923
0.994884 1.00061 0.986156
0.99977 0.994855 0.871204
0.998553 0.995343 0.930245
0.994849 0.994798 0.958751
0.996779 0.998268 0.987543
0.999942 0.994883 0.94309
0.995229 0.994807 0.96385
0.997833 1.00052 0.99499
1.00032 1.00127 0.9914
1.00369 0.999733 0.990524
1.00227 1.00077 0.989232
1.00414 0.99926 0.987877
1.00517 0.996347 0.989059
1.00428 1.00117 0.985454
1.00493 0.997336 0.988189
1.00527 0.995055 0.989951
1.00477 0.999673 0.985911
1.00529 0.996085 0.988983
1.00525 0.995023 0.990405
1.00526 0.995167 0.990455
1.00527 0.995683 0.98992
1.00523 0.996126 0.989671
1.00527 0.997811 0.987748
1.00526 0.997512 0.987895
1.00531 0.997153 0.988052
1.00528 0.999955 0.985698
1.00526 0.999237 0.986032
1.00522 0.999278 0.986236
1.00529 1.00156 0.984359
1.00527 1.00121 0.984588
1.00518 1.00069 0.985106
1.00351 1.00274 0.986116
1.00507 1.00146 0.984885
1.00485 1.00191 0.984447
1.00069 1.00297 0.990651
1.00266 1.00373 0.986581
1.00392 1.00203 0.986063
1.00004 0.999368 0.998135
1.00037 1.00238 0.99182
1.002 1.00472 0.987435
0.999988 0.999035 0.997297
1.00026 1.00165 0.992805
1.00008 0.998461 0.998469
1.00426 1.00073 0.987653
1.002 1.00326 0.988047
1.00097 1.00505 0.98808
1.00061 1.00493 0.988769
1.00071 1.0051 0.988554
1.00082 1.00463 0.989131
1.00012 1.00065 0.994042
1.00051 1.00405 0.990024
1.00018 1.00508 0.988951
1.00007 0.99771 0.998787
1.00014 0.999793 0.994763
1.00045 1.00298 0.991124
1.0001 0.997367 0.998931
1.00024 0.99918 0.995202
1.00012 0.997089 0.999038
0.999776 0.994828 0.871057
0.994707 0.994812 0.814027
0.994816 0.994822 0.830364
1.00138 1.00253 0.989339
1.00206 1.00351 0.987715
1.00426 1.00206 0.986883
1.00508 1.00345 0.983243
1.00196 1.0029 0.988374
0.999516 1.00491 0.991044
1.0015 1.00337 0.989287
1.00135 1.00258 0.989807
1.00445 0.997084 0.988978
1.00205 0.999103 0.99294
1.00263 0.996137 0.994115
1.0002 0.999112 0.99573
0.999403 1.00336 0.993444
0.997915 0.994864 0.940668
0.998912 0.994782 0.864987
0.994665 0.994796 0.814418
0.996295 0.994846 0.868459
0.99485 0.998938 0.939409
0.994854 0.995699 0.96374
0.994864 0.996953 0.96718
0.996647 0.998302 0.942572
0.995742 0.994813 0.966581
0.999445 0.996357 0.999658
0.999412 0.996014 1.00124
0.999202 0.997984 0.999811
0.997374 0.998307 0.991299
0.997524 0.99696 0.99046
0.999988 0.994895 0.930757
0.999793 0.994892 0.878935
0.994691 0.994808 0.818918
0.994899 0.999523 0.982625
0.995096 0.994793 0.957211
0.999801 0.994823 0.870412
0.998052 0.994844 0.942773
0.996518 0.998154 0.987785
1.0004 0.994888 0.939102
0.996122 0.994837 0.961644
1.00045 0.994912 0.987574
0.998207 0.994862 0.971665
0.999242 0.999531 0.991499
1.00293 0.998157 0.990568
1.00504 0.995251 0.991341
1.00394 0.998978 0.987839
1.00511 0.996217 0.988957
1.00527 0.994875 0.990322
1.00474 0.997807 0.988137
1.00528 0.995118 0.989898
1.00525 0.994876 0.990472
1.00529 0.996121 0.98893
1.00524 0.995059 0.990374
1.00527 0.994901 0.990603
1.00526 0.995118 0.990511
1.00524 0.99538 0.990449
1.00527 0.995631 0.990068
1.00523 0.996106 0.989672
1.00522 0.99667 0.989085
1.00528 0.998799 0.986977
1.00527 0.99787 0.987729
1.00526 0.997567 0.988026
1.00533 1.00119 0.984566
1.0053 1.00004 0.985559
1.00526 0.999286 0.985991
1.00422 1.00199 0.985632
1.0052 1.0016 0.984405
1.00528 1.00124 0.98462
1.0012 1.00306 0.98963
1.00334 1.00298 0.986117
1.00481 1.00172 0.984878
1.00017 1.0001 0.997728
1.00081 1.00279 0.990643
1.00285 1.00381 0.986559
1.00012 0.99953 0.997992
1.00052 1.00229 0.991788
1.00011 0.998967 0.998217
1.00513 1.0026 0.984168
1.00382 1.00086 0.987543
1.00237 1.00324 0.987345
1.00139 1.00331 0.988216
1.00105 1.00499 0.987901
1.00102 1.00509 0.988291
1.00054 1.00512 0.988594
1.00056 1.00479 0.989095
1.00016 1.00152 0.993122
1.00005 0.998178 0.99857
1.00009 1.00058 0.994068
1.00037 1.00414 0.990014
1.00005 0.99765 0.998832
1.00016 0.999694 0.99478
1.00009 0.997331 0.998952
0.99997 0.994878 0.943961
0.999816 0.994856 0.870541
0.994684 0.994802 0.808242
1.00175 1.00464 0.986928
1.00344 1.00262 0.986909
1.00308 1.00279 0.987782
1.00463 1.00325 0.983749
1.00522 1.00092 0.984698
1.00359 1.00028 0.98695
1.00054 1.00295 0.990416
1.00451 0.996793 0.989013
1.00216 0.998685 0.992995
1.00407 0.995612 0.990412
1.00392 0.997042 0.992019
1.00256 0.996808 0.993349
1.00222 0.996341 0.994067
0.999681 0.999673 0.995546
0.995811 0.994841 0.964819
0.998838 0.996022 0.936264
0.997799 0.994839 0.881847
0.995991 0.996582 0.930176
0.994938 0.996976 0.967649
0.9955 0.995748 0.972376
0.999266 0.994843 0.99251
1.00019 0.99576 0.999142
0.998782 0.996117 1.00131
0.998743 0.998881 0.990656
0.997368 0.995427 0.966116
1.00009 0.994872 0.944495
0.999801 0.994902 0.861893
0.996076 0.99819 0.988117
0.996572 0.994847 0.962163
0.999837 0.994862 0.934738
0.999903 0.995556 0.987914
0.998495 0.994872 0.970842
1.00288 0.995135 0.990026
1.00339 0.996665 0.984836
1.00194 0.996836 0.990598
1.00453 0.9952 0.991357
1.00523 0.99481 0.990855
1.00502 0.996179 0.988857
1.00527 0.994872 0.990272
1.00529 0.994913 0.990467
1.00528 0.995196 0.989843
1.00525 0.994885 0.990452
1.00529 0.994915 0.99051
1.00524 0.995099 0.990341
1.00526 0.994909 0.990601
1.00526 0.994928 0.990646
1.00526 0.995076 0.990566
1.00524 0.995316 0.99047
1.00523 0.995892 0.990036
1.00523 0.996094 0.989672
1.00523 0.996701 0.989078
1.00526 0.997966 0.98792
1.00531 1.00034 0.985477
1.00528 0.998974 0.986744
1.00527 0.997933 0.98771
1.005 1.00097 0.985365
1.00532 1.0012 0.984611
1.00531 1.00012 0.985421
1.00177 1.00273 0.988891
1.00405 1.00228 0.985642
1.00511 1.00165 0.984448
1.00055 1.00065 0.997266
1.00127 1.00294 0.989622
1.00317 1.00325 0.986117
1.00037 1.00027 0.997541
1.00085 1.00266 0.990644
1.00026 0.999722 0.997819
1.00514 1.00157 0.984589
1.00514 1.00218 0.984355
1.00435 1.00197 0.985414
1.00356 1.00151 0.987431
1.00234 1.00337 0.987155
1.00207 1.00444 0.987228
1.00104 1.00489 0.987725
1.00088 1.00511 0.988299
1.00037 1.00228 0.992101
1.0004 1.00499 0.989063
1.00007 1.00159 0.993144
1.00003 0.99892 0.998272
1.00002 0.998141 0.998651
1.00003 1.00059 0.994099
1.00004 0.997602 0.99887
0.996807 0.994875 0.966613
0.999934 0.994872 0.930249
0.999815 0.994876 0.882725
1.00526 0.998821 0.986512
1.00434 1.00267 0.987208
1.0042 1.00298 0.984253
1.00434 1.00006 0.987306
1.0052 1.00113 0.98466
1.00494 0.997697 0.988241
1.00485 0.998112 0.989057
1.00196 0.997874 0.993062
1.00465 0.996399 0.990353
1.00379 0.997261 0.990978
1.00473 0.996339 0.989653
1.00328 0.994892 0.994317
1.00257 0.99647 0.993444
1.00214 0.99654 0.994009
0.998727 0.994831 0.991007
0.995798 0.99485 0.963224
0.998575 0.994835 0.931106
0.995164 0.996307 0.971568
0.998882 0.994846 0.995227
1.00032 0.995292 0.998571
1.00215 0.995124 0.981721
0.997425 0.995006 0.966101
0.999996 0.994887 0.930851
0.999065 0.995645 0.988264
0.998822 0.994879 0.970145
1.00201 0.99491 0.990531
1.00322 0.995833 0.985722
1.00391 0.995103 0.991052
1.00491 0.996655 0.990991
1.00408 0.995087 0.991363
1.00517 0.994838 0.990755
1.00535 0.994879 0.990381
1.00527 0.994872 0.990224
1.00528 0.994905 0.990468
1.00534 0.994899 0.990438
1.00526 0.994895 0.990432
1.00528 0.99491 0.990522
1.00528 0.994908 0.990669
1.00525 0.994915 0.9906
1.00526 0.994928 0.990635
1.00525 0.995109 0.990637
1.00523 0.995253 0.990492
1.00523 0.995762 0.990143
1.00527 0.997066 0.988909
1.00523 0.996728 0.98907
1.00526 0.997889 0.987998
1.0053 0.999901 0.986059
1.00525 1.00065 0.985338
1.00531 1.00049 0.985322
1.00529 0.999142 0.98651
1.00263 1.00154 0.98875
1.00491 1.0011 0.985366
1.00531 1.00119 0.984656
1.00089 1.00087 0.996914
1.00204 1.00245 0.988879
1.0039 1.00249 0.985655
1.00068 1.00071 0.997125
1.00142 1.00284 0.989616
1.00051 1.0004 0.997375
1.00527 1.00022 0.98542
1.0052 1.00158 0.984487
1.00511 1.00126 0.984973
1.0052 1.00173 0.984542
1.00454 1.00181 0.985397
1.00314 1.00356 0.986435
1.00245 1.00311 0.986963
1.00191 1.00455 0.987236
1.00066 1.0027 0.991039
1.00074 1.0051 0.988299
1.00019 1.00233 0.992124
1.00004 0.999652 0.997933
0.999955 1.00157 0.993166
0.999988 0.99878 0.998385
0.999989 0.998019 0.998725
1.00037 0.995071 0.986732
0.996641 0.994886 0.962973
0.999985 0.994869 0.943748
1.00521 0.997249 0.988278
1.00527 0.996837 0.988639
1.00527 0.998568 0.986766
1.00505 0.999389 0.987654
1.00517 1.00142 0.984626
1.00499 0.997581 0.988501
1.0052 0.995551 0.989432
1.00498 0.99622 0.990299
1.00358 0.997898 0.989943
1.00451 0.996852 0.990068
1.00509 0.995004 0.990791
1.0037 0.994933 0.993039
1.00293 0.99498 0.993996
1.00279 0.996012 0.993552
0.999422 0.994832 0.991073
0.995787 0.994845 0.961831
0.998841 0.994853 0.998071
1.00477 0.994943 0.990596
1.00206 0.995684 0.981839
0.99758 0.994852 0.964629
1.00172 0.994787 0.990992
1.00308 0.994889 0.986627
1.00393 0.995013 0.991726
1.00494 0.995736 0.991103
1.00532 0.994779 0.990994
1.00542 0.99485 0.991235
1.00515 0.994854 0.990656
1.00537 0.994879 0.990355
1.00537 0.994872 0.990498
1.00526 0.994894 0.990469
1.00533 0.994899 0.990464
1.00529 0.994903 0.990649
1.00527 0.994905 0.990534
1.00528 0.994908 0.990665
1.00524 0.994924 0.990878
1.00526 0.994928 0.990624
1.00525 0.995125 0.990613
1.00528 0.996268 0.989615
1.00523 0.995629 0.99025
1.00526 0.997001 0.988949
1.00532 0.999334 0.986585
1.00526 0.997816 0.988076
1.0053 0.999809 0.986173
1.00525 1.00055 0.985437
1.00296 1.00064 0.989069
1.00519 1.0007 0.985345
1.00532 1.00064 0.985167
1.00119 1.00085 0.996692
1.00267 1.00146 0.98874
1.00477 1.00131 0.98537
1.001 1.00094 0.996799
1.00218 1.00224 0.988863
1.00081 1.00085 0.996979
1.00527 0.998442 0.987157
1.00526 1.00008 0.985614
1.00528 1.00086 0.98507
1.00522 1.00155 0.984383
1.00517 1.00121 0.984965
1.00364 1.00246 0.986356
1.00474 1.00171 0.985385
1.00299 1.00329 0.986428
1.00099 1.00304 0.990013
1.00156 1.0046 0.987248
1.00056 1.00283 0.991074
1.00015 1.00049 0.997571
1.00009 1.00243 0.992146
0.999994 0.999516 0.998063
0.999934 0.99867 0.998486
1.00433 0.995121 0.991951
1.00052 0.995014 0.984522
0.996532 0.994909 0.96253
1.00525 0.996134 0.989486
1.00519 0.996819 0.988571
1.00526 0.995713 0.989878
1.00527 0.996884 0.988607
1.00528 0.99828 0.987015
1.00532 0.994891 0.990117
1.00511 0.997666 0.98875
1.00522 0.995838 0.989446
1.00528 0.99482 0.99055
1.00441 0.997251 0.990481
1.00509 0.99513 0.99047
1.00337 0.995013 0.993308
1.00231 0.995482 0.993681
0.999859 0.994839 0.990937
1.0054 0.994894 0.990874
1.00477 0.995627 0.990728
1.00185 0.996042 0.982028
1.00383 0.994811 0.992385
1.00492 0.994927 0.991225
1.00531 0.994772 0.991042
1.00543 0.994876 0.991136
1.00539 0.994846 0.990957
1.00539 0.994886 0.990332
1.00537 0.994873 0.99051
1.0053 0.994895 0.990805
1.00533 0.9949 0.99049
1.0053 0.994904 0.990646
1.00522 0.994909 0.990993
1.00528 0.994908 0.99066
1.00525 0.994923 0.990853
1.00528 0.995595 0.990359
1.00525 0.995141 0.990588
1.00528 0.996307 0.989604
1.00536 0.998736 0.987201
1.00526 0.996935 0.988988
1.00532 0.999343 0.98661
1.00524 1.00044 0.985584
1.0053 0.999713 0.986287
1.00525 1.00054 0.985454
1.00296 1.0003 0.991089
1.00156 1.00024 0.99333
1.00298 1.00064 0.9899
1.00515 1.00075 0.98535
1.00121 1.00085 0.996686
1.00281 1.00125 0.988722
1.00108 1.001 0.99671
1.00524 0.995644 0.990224
1.00525 0.997167 0.988627
1.00526 0.998417 0.987354
1.00529 1.00029 0.985595
1.00525 0.999947 0.985809
1.00529 1.00091 0.985002
1.00433 1.00128 0.986162
1.00523 1.00114 0.984954
1.00378 1.00201 0.986347
1.00166 1.00278 0.989203
1.00303 1.00302 0.986417
1.00097 1.00314 0.990002
1.00043 1.00109 0.997145
1.00042 1.00287 0.99111
1.00004 1.00023 0.997715
0.999929 0.99938 0.998186
1.00539 0.994829 0.990816
1.00434 0.995014 0.991671
1.00099 0.994898 0.982377
1.0053 0.995132 0.990286
1.00521 0.996117 0.98936
1.00522 0.996415 0.988867
1.00525 0.995886 0.989832
1.00527 0.996932 0.988575
1.00537 0.994826 0.99054
1.00532 0.994889 0.990132
1.00523 0.996085 0.989459
1.00525 0.994816 0.990593
1.00509 0.995147 0.990147
1.0032 0.994779 0.993574
1.00534 0.994905 0.991029
1.00542 0.994883 0.991007
1.00482 0.996201 0.990856
1.00531 0.994767 0.99107
1.00545 0.994904 0.991041
1.00539 0.994855 0.99092
1.00529 0.994921 0.991097
1.00536 0.994878 0.990523
1.0053 0.994899 0.990771
1.00522 0.994941 0.99109
1.0053 0.994906 0.990644
1.00523 0.994909 0.990981
1.00528 0.995128 0.990905
1.00526 0.994923 0.990827
1.00527 0.995616 0.990345
1.00537 0.998188 0.987782
1.00528 0.996347 0.989594
1.00535 0.998746 0.987223
1.00524 1.00032 0.98574
1.00531 0.999352 0.986635
1.00526 1.00042 0.985605
1.00304 1.00008 0.991184
1.00525 1.00053 0.985468
1.00317 1.00019 0.990956
1.00159 0.999931 0.99355
1.00126 1.00053 0.995122
1.00319 1.00061 0.990558
1.00121 1.00086 0.996701
1.00526 0.995053 0.99079
1.00524 0.996833 0.989005
1.00523 0.995512 0.990379
1.00532 0.999446 0.98642
1.00525 0.997233 0.988614
1.00526 0.998392 0.987551
1.00529 1.00031 0.985534
1.00499 1.0005 0.98578
1.00529 1.00097 0.984933
1.00448 1.001 0.986156
1.00239 1.00184 0.988872
1.00388 1.00164 0.986343
1.00148 1.00296 0.989193
1.00072 1.00138 0.996812
1.00084 1.00329 0.990008
1.00027 1.00092 0.997315
0.999995 1.00007 0.997849
1.00532 0.994898 0.990774
1.00534 0.994829 0.990854
1.00421 0.994997 0.99139
1.0053 0.994849 0.990712
1.00529 0.99519 0.990252
1.00515 0.996109 0.98924
1.00525 0.996061 0.989786
1.00536 0.994829 0.990545
1.00533 0.994887 0.990146
1.00522 0.994814 0.990637
1.00529 0.994949 0.991105
1.00532 0.994905 0.991007
1.00543 0.994874 0.991138
1.00527 0.994942 0.991194
1.00539 0.994858 0.990883
1.00529 0.994921 0.991082
1.00522 0.99495 0.991178
1.0053 0.994902 0.990736
1.00521 0.99494 0.991095
1.00528 0.994949 0.991163
1.00524 0.994908 0.99097
1.00526 0.995136 0.990891
1.00538 0.997697 0.988317
1.00527 0.995637 0.990331
1.00537 0.99819 0.987798
1.0052 1.00018 0.985958
1.00534 0.998755 0.987245
1.00525 1.00029 0.985764
1.00305 1.00009 0.99114
1.00527 1.00039 0.985626
1.00322 1.00001 0.991024
1.00166 0.999836 0.99355
1.00337 1.00007 0.990832
1.00115 1.0001 0.993854
1.00062 1.00087 0.997256
1.00525 0.994905 0.990913
1.00526 0.995955 0.989926
1.00526 0.995101 0.990732
1.00532 0.999072 0.98687
1.00525 0.99652 0.989257
1.00522 0.995382 0.990533
1.00525 1.00018 0.985795
1.0053 0.999447 0.986382
1.00525 0.997295 0.988603
1.0053 1.00031 0.985472
1.00509 1.00042 0.985774
1.00277 1.00093 0.989049
1.00469 1.00072 0.986154
1.00221 1.00204 0.988903
1.00092 1.00134 0.996715
1.00143 1.0031 0.989172
1.00062 1.00127 0.996932
1.00011 1.00072 0.997479
1.00528 0.994917 0.990974
1.00532 0.994898 0.990732
1.00531 0.994829 0.990893
1.0053 0.994852 0.99074
1.00527 0.995247 0.990218
1.00536 0.994833 0.990549
1.00527 0.994954 0.991142
1.00529 0.994943 0.991117
1.00531 0.994907 0.990986
1.00526 0.994946 0.991185
1.00519 0.994944 0.99136
1.00529 0.994921 0.991068
1.00522 0.99495 0.991211
1.00528 0.99494 0.991189
1.00521 0.99494 0.991101
1.00527 0.994948 0.99115
1.00537 0.997284 0.988796
1.00525 0.995141 0.990877
1.00539 0.997696 0.988318
1.00515 0.999971 0.98629
1.00538 0.998191 0.987815
1.00524 1.00014 0.985974
1.00298 1.0002 0.99111
1.00527 1.00026 0.985787
1.00322 1.00005 0.990967
1.00168 0.999896 0.993451
1.00338 0.999955 0.990874
1.00127 0.999884 0.993879
1.00072 1.00031 0.994141
1.00522 0.994917 0.991086
1.00524 0.995354 0.990642
1.00525 0.994897 0.990901
1.00533 0.998131 0.987831
1.00526 0.996046 0.989848
1.00526 0.995145 0.990675
1.00528 0.999996 0.985972
1.00532 0.998703 0.987176
1.00526 0.996207 0.989508
1.00294 1.00027 0.989431
1.00525 1.00017 0.985781
1.00529 0.999454 0.986343
1.00514 1.00035 0.985768
1.00275 1.001 0.989069
1.00106 1.00102 0.996784
1.00208 1.00225 0.988931
1.00088 1.00128 0.996739
1.00049 1.00118 0.997068
1.00526 0.994943 0.991115
1.00528 0.994922 0.990948
1.00532 0.994898 0.99069
1.00531 0.994855 0.990768
1.00519 0.994951 0.991361
1.00527 0.994949 0.99115
1.00529 0.994936 0.991129
1.00526 0.99495 0.991175
1.0052 0.994944 0.991347
1.00527 0.995212 0.990953
1.00521 0.994949 0.991245
1.00528 0.995098 0.991044
1.00535 0.996718 0.989441
1.00526 0.994948 0.991137
1.00538 0.997283 0.988786
1.00505 0.999766 0.986685
1.00541 0.997711 0.988319
1.00516 0.999956 0.986298
1.00294 1.00027 0.989546
1.00526 1.0001 0.98599
1.00314 1.00016 0.990134
1.00147 0.999967 0.996778
1.00338 1.00001 0.990795
1.00134 0.999872 0.993789
1.0009 0.999927 0.994191
1.0052 0.994946 0.991186
1.00523 0.995214 0.990901
1.00521 0.994925 0.991102
1.00536 0.997494 0.988522
1.00525 0.995513 0.990406
1.00525 0.99489 0.990888
1.00526 0.999583 0.986432
1.00532 0.998137 0.98785
1.00526 0.996135 0.989771
1.00304 0.999879 0.98966
1.00527 0.999832 0.986099
1.00532 0.998332 0.987482
1.00119 1.00055 0.996885
1.00296 1.00024 0.989432
1.00526 1.00016 0.985762
1.00265 1.00106 0.989092
1.00107 1.001 0.996748
1.00082 1.00124 0.996787
1.00517 0.994957 0.991288
1.00526 0.994947 0.991115
1.00529 0.994927 0.990923
1.00525 0.995243 0.991017
1.00519 0.994949 0.991332
1.00526 0.994943 0.991157
1.0052 0.994943 0.991334
1.00527 0.995255 0.990951
1.00534 0.996924 0.989242
1.00529 0.995269 0.990899
1.00536 0.997063 0.989073
1.00495 0.999191 0.987441
1.0054 0.997267 0.988777
1.00505 0.999748 0.98669
1.00284 1.00018 0.989814
1.00518 0.999942 0.986305
1.00295 1.00024 0.989558
1.00137 1.00002 0.996788
1.00319 1.00015 0.9893
1.0013 0.999976 0.995314
1.00099 0.999834 0.994126
1.00514 0.994952 0.99136
1.00523 0.995099 0.991141
1.00518 0.994949 0.991199
1.00538 0.997652 0.988329
1.00524 0.995142 0.990929
1.0052 0.994931 0.991117
1.00524 0.999452 0.986599
1.00535 0.997855 0.98814
1.00526 0.995675 0.990171
1.00311 0.999799 0.989657
1.00525 0.999552 0.986445
1.00531 0.998143 0.987869
1.00136 1.00015 0.996902
1.00308 0.999833 0.98966
1.00526 0.999664 0.986225
1.00122 1.00057 0.996846
1.00298 1.00021 0.989436
1.00103 1.00101 0.996732
1.00522 0.995292 0.990934
1.00518 0.994955 0.991316
1.00525 0.994952 0.991115
1.00534 0.996911 0.989267
1.00525 0.995283 0.99099
1.0052 0.994948 0.991303
1.00527 0.995297 0.99095
1.00534 0.996955 0.989249
1.00489 0.999012 0.987723
1.00536 0.997398 0.988705
1.00497 0.999362 0.987218
1.00277 1.00004 0.990073
1.00506 0.999728 0.986696
1.00282 1.00019 0.989826
1.00126 1.00004 0.99683
1.00294 1.00023 0.989569
1.00134 1.00004 0.996799
1.0014 0.999932 0.993562
1.00522 0.995387 0.990891
1.00514 0.994952 0.991304
1.00537 0.997414 0.988611
1.00524 0.995036 0.991149
1.00517 0.994951 0.991211
1.00516 0.999761 0.986467
1.00537 0.997665 0.98833
1.00526 0.995071 0.990957
1.0031 0.99989 0.989626
1.00523 0.999642 0.986426
1.00534 0.998218 0.98776
1.00147 0.999951 0.996845
1.00313 0.999788 0.989657
1.00524 0.999518 0.986459
1.00135 1.00019 0.996901
1.00312 0.999795 0.989659
1.00124 1.00058 0.996803
1.00535 0.997004 0.989134
1.00522 0.995329 0.990963
1.00518 0.994954 0.991343
1.00488 0.998955 0.987784
1.00534 0.996946 0.989267
1.00524 0.995324 0.990964
1.00534 0.996989 0.989256
1.00492 0.998992 0.987691
1.00266 0.999968 0.990328
1.00498 0.999531 0.986994
1.00275 1.00005 0.990083
1.0012 1.00002 0.996883
1.0028 1.0002 0.989841
1.00122 1.00006 0.996855
1.0013 1.00004 0.996816
1.00537 0.997238 0.988853
1.00522 0.995181 0.99106
1.00514 0.99495 0.991249
1.00508 0.999635 0.986774
1.00537 0.997424 0.988615
1.00525 0.994979 0.991157
1.00297 1.00002 0.989735
1.00514 0.999783 0.986466
1.00536 0.997678 0.988331
1.00145 0.99992 0.9968
1.00309 0.999918 0.989624
1.0052 0.999824 0.986253
1.00145 0.999985 0.996868
1.00314 0.999791 0.989656
1.00138 1.00019 0.996889
1.00492 0.999347 0.987323
1.00535 0.996851 0.989317
1.00522 0.995362 0.990991
1.00261 0.999881 0.990519
1.00489 0.998928 0.987781
1.00534 0.996976 0.989268
1.00494 0.998967 0.987659
1.00267 0.999941 0.990337
1.00114 1.00002 0.996921
1.00273 1.00006 0.990092
1.00118 1.00003 0.996891
1.00118 1.00008 0.996873
1.00498 0.999472 0.987101
1.00536 0.997033 0.989077
1.00523 0.994957 0.99123
1.00295 1.00003 0.991359
1.00504 0.999655 0.986777
1.00537 0.997434 0.988619
1.00134 0.999961 0.996812
1.00297 1.00004 0.98973
1.00512 0.999802 0.986464
1.00146 0.999941 0.996815
1.00308 0.999952 0.98962
1.00146 0.999998 0.996888
1.00272 0.999878 0.990403
1.00491 0.999167 0.987498
1.00534 0.996699 0.9895
1.00105 0.99998 0.99699
1.0026 0.999879 0.990513
1.0049 0.998905 0.987778
1.00266 0.999915 0.990342
1.0011 1.00001 0.996946
1.00114 1.00005 0.996907
1.00291 0.999951 0.991564
1.00497 0.999477 0.987102
1.00536 0.99684 0.989301
1.00075 1.00001 0.997391
1.00284 1.00004 0.989976
1.00502 0.999674 0.986781
1.00137 0.999967 0.996813
1.00297 1.00006 0.989724
1.00148 0.999953 0.996832
1.00104 0.999941 0.994159
1.00274 0.999882 0.991089
1.00491 0.998987 0.987672
1.00108 0.999983 0.996997
1.00261 0.999881 0.990515
1.00112 0.999997 0.996965
1.00057 0.999987 0.994599
1.00282 0.999934 0.990911
1.00495 0.999487 0.987103
1.00097 0.999992 0.995645
1.00282 1.00004 0.989996
1.0014 0.999969 0.996814
1.00108 0.999966 0.996988
1.00262 0.99987 0.990498
1.00104 0.999985 0.996994
1.00085 0.999963 0.995797
1.00271 0.999926 0.990311
1.00127 0.999985 0.996851
1.0011 0.999966 0.996992
1.00114 0.999973 0.99693

TENSORS stress float
0.00223231 -0.000153385 0.000259157
-0.000153385 0.00106815 -4.39203e-05
0.000259157 -4.39203e-05 0.00104198
0.00695017 5.84124e-05 0.00029786
5.84124e-05 0.00404016 3.3912e-05
0.00029786 3.3912e-05 0.00404545
0.00186543 -8.37392e-05 0.000108719
-8.37392e-05 0.000836182 -1.73092e-05
0.000108719 -1.73092e-05 0.000798404
0.0022402 -8.75422e-05 0.000251398
-8.75422e-05 0.00104876 -2.53207e-05
0.000251398 -2.53207e-05 0.00103219
0.00226645 -0.00013495 0.000253305
-0.00013495 0.00107946 -3.86644e-05
0.000253305 -3.86644e-05 0.00105666
0.00223521 -0.000157212 0.000270084
-0.000157212 0.00107027 -4.55587e-05
0.000270084 -4.55587e-05 0.00104442
0.00185017 -0.000142531 5.09651e-05
-0.000142531 0.000735462 -1.39686e-05
5.09651e-05 -1.39686e-05 0.000621965
0.00687741 4.84287e-05 -7.42911e-06
4.84287e-05 0.00398558 -1.46237e-06
-7.42911e-06 -1.46237e-06 0.00399541
0.00656122 0.000213403 0.000148305
0.000213403 0.00378661 1.44972e-05
0.000148305 1.44972e-05 0.00376039
0.00660098 -2.75348e-05 8.35075e-05
-2.75348e-05 0.00379489 4.17744e-06
8.35075e-05 4.17744e-06 0.00377495
0.00194355 0.000198253 0.000273856
0.000198253 0.00089341 3.57718e-05
0.000273856 3.57718e-05 0.000883846
0.000425393 0.000256308 2.64162e-05
0.000256308 -0.000123243 2.02828e-05
2.64162e-05 2.02828e-05 -0.000260964
0.0018195 -3.28906e-05 0.000245504
-3.28906e-05 0.000784914 4.05434e-06
0.000245504 4.05434e-06 0.000785963
0.00147511 2.71045e-06 6.36136e-05
2.71045e-06 0.000589891 1.75871e-06
6.36136e-05 1.75871e-06 0.000543312
0.00157822 -8.29174e-05 -5.74799e-05
-8.29174e-05 0.000665654 1.02858e-05
-5.74799e-05 1.02858e-05 0.00061123
0.00186525 -8.6764e-05 8.24603e-05
-8.6764e-05 0.000831443 -5.10437e-06
8.24603e-05 -5.10437e-06 0.000796857
0.00190731 -7.22948e-05 0.00011862
-7.22948e-05 0.000867242 -1.87011e-05
0.00011862 -1.87011e-05 0.000825725
0.00188096 -9.13659e-05 9.69202e-05
-9.13659e-05 0.000839368 -1.33859e-05
9.69202e-05 -1.33859e-05 0.000804555
0.00192736 -0.000178451 -4.1145e-05
-0.000178451 0.000781715 5.99221e-06
-4.1145e-05 5.99221e-06 0.000677457
0.0061705 -0.000144955 0.000318609
-0.000144955 0.00355158 -1.37632e-05
0.000318609 -1.37632e-05 0.00356966
0.00216236 -6.41762e-05 0.00024807
-6.41762e-05 0.00100082 -1.88035e-05
0.00024807 -1.88035e-05 0.00098737
0.00226675 -0.000111885 0.000251689
-0.000111885 0.00107073 -3.2175e-05
0.000251689 -3.2175e-05 0.00105138
0.00181729 -0.000139757 7.10994e-05
-0.000139757 0.000709523 -1.0949e-05
7.10994e-05 -1.0949e-05 0.000610245
0.00185187 -0.000147333 5.98062e-05
-0.000147333 0.000727707 -1.34976e-05
5.98062e-05 -1.34976e-05 0.000622031
0.00211438 -0.000135322 0.000270105
-0.000135322 0.000987186 -4.24204e-05
0.000270105 -4.24204e-05 0.000964057
0.0019081 -0.000142224 4.40474e-05
-0.000142224 0.000788469 -1.43975e-05
4.40474e-05 -1.43975e-05 0.000662953
0.00206895 -0.000329035 1.88559e-05
-0.000329035 0.000642843 -7.93548e-06
1.88559e-05 -7.93548e-06 0.000426875
0.00683512 3.34243e-05 -0.000295181
3.34243e-05 0.00394886 -2.4189e-05
-0.000295181 -2.4189e-05 0.00396346
0.00426303 0.000158074 -0.000146551
0.000158074 0.00233856 -1.65605e-05
-0.000146551 -1.65605e-05 0.002316
0.00424877 7.19456e-05 -0.000146093
7.19456e-05 0.00233739 -1.44188e-05
-0.000146093 -1.44188e-05 0.00231595
0.00677623 -2.37745e-05 -3.77184e-06
-2.37745e-05 0.00393319 -4.96325e-07
-3.77184e-06 -4.96325e-07 0.00393898
0.000445938 0.000240816 -1.3418e-06
0.000240816 -0.00010855 -1.12728e-06
-1.3418e-06 -1.12728e-06 -0.000246412
0.00188012 6.98114e-05 0.000255576
6.98114e-05 0.000822504 2.38037e-05
0.000255576 2.38037e-05 0.000810037
0.00200744 0.000159663 0.000261927
0.000159663 0.00093506 3.6739e-05
0.000261927 3.6739e-05 0.000910568
0.00283351 0.000211896 0.000156634
0.000211896 0.00133512 2.27784e-05
0.000156634 2.27784e-05 0.00125186
0.00593304 -0.000295429 1.26035e-05
-0.000295429 0.00347058 4.9378e-06
1.26035e-05 4.9378e-06 0.0034147
0.0029999 0.0002923 0.000163648
0.0002923 0.00148007 2.83111e-05
0.000163648 2.83111e-05 0.00138052
0.000436155 0.000225523 2.65761e-05
0.000225523 -0.000110918 2.71285e-05
2.65761e-05 2.71285e-05 -0.000247947
0.00093537 0.000265299 1.39259e-05
0.000265299 3.78037e-05 6.18888e-06
1.39259e-05 6.18888e-06 -0.000185733
0.00475989 -0.000109214 0.00018058
-0.000109214 0.00272202 1.6765e-05
0.00018058 1.6765e-05 0.00272
0.00615122 8.30053e-05 3.36993e-06
8.30053e-05 0.0035262 -1.86535e-06
3.36993e-06 -1.86535e-06 0.00355168
0.00402619 9.14629e-05 -0.000122584
9.14629e-05 0.00218773 -5.62911e-06
-0.000122584 -5.62911e-06 0.00217622
0.00600315 5.80846e-05 0.000309578
5.80846e-05 0.0034362 4.34388e-06
0.000309578 4.34388e-06 0.00346237
0.00144002 8.75239e-05 6.56033e-05
8.75239e-05 0.000572687 4.32793e-06
6.56033e-05 4.32793e-06 0.000530915
0.000509407 1.16786e-05 1.51845e-05
1.16786e-05 -0.000137769 1.85447e-06
1.51845e-05 1.85447e-06 -0.000224087
0.00640493 0.00023618 0.000179718
0.00023618 0.00371184 1.73738e-05
0.000179718 1.73738e-05 0.00368616
0.002838 7.7481e-05 0.000147162
7.7481e-05 0.00131213 9.29008e-06
0.000147162 9.29008e-06 0.00125288
0.00144507 -8.73102e-05 -7.80634e-05
-8.73102e-05 0.000586349 9.96959e-06
-7.80634e-05 9.96959e-06 0.000533188
0.00150141 -0.000111439 -7.08779e-05
-0.000111439 0.000624414 1.24186e-05
-7.08779e-05 1.24186e-05 0.000567497
0.0016386 -4.21213e-05 -4.5845e-05
-4.21213e-05 0.000699753 8.81562e-06
-4.5845e-05 8.81562e-06 0.000645036
0.00197576 -0.000181197 -0.000140126
-0.000181197 0.000804098 2.58876e-05
-0.000140126 2.58876e-05 0.000711198
0.00386806 -2.08836e-05 -0.000124329
-2.08836e-05 0.00209919 -1.69915e-06
-0.000124329 -1.69915e-06 0.00208758
0.00181813 -6.76528e-05 8.68478e-05
-6.76528e-05 0.000799337 -4.01767e-06
8.68478e-05 -4.01767e-06 0.000769121
0.00188553 -4.99334e-05 0.000123689
-4.99334e-05 0.000855774 -1.75349e-05
0.000123689 -1.75349e-05 0.000812309
0.00188641 -8.99936e-05 8.81022e-05
-8.99936e-05 0.000841817 -8.76625e-06
8.81022e-05 -8.76625e-06 0.000807633
0.00189382 -0.000117652 -3.33578e-05
-0.000117652 0.000746515 2.33204e-06
-3.33578e-05 2.33204e-06 0.000658992
0.0019158 -0.000181152 -4.83212e-05
-0.000181152 0.000785616 6.86887e-06
-4.83212e-05 6.86887e-06 0.000673856
0.00192552 -0.000164664 -3.55403e-05
-0.000164664 0.000773241 4.26068e-06
-3.55403e-05 4.26068e-06 0.000675604
0.00208172 -0.000330961 -1.00005e-05
-0.000330961 0.000647259 2.65794e-06
-1.00005e-05 2.65794e-06 0.000431591
0.0059882 4.92258e-06 0.000305574
4.92258e-06 0.00342471 -2.37071e-06
0.000305574 -2.37071e-06 0.00345218
0.00208547 -3.94859e-05 0.000242811
-3.94859e-05 0.00095685 -1.29935e-05
0.000242811 -1.29935e-05 0.000947152
0.00244738 -9.38524e-06 5.21814e-05
-9.38524e-06 0.00109481 -1.0447e-06
5.21814e-05 -1.0447e-06 0.00102621
0.00177403 -0.000113262 6.32717e-05
-0.000113262 0.000678045 -7.22717e-06
6.32717e-05 -7.22717e-06 0.000587894
0.00183937 -0.000145178 6.71479e-05
-0.000145178 0.000721184 -1.26577e-05
6.71479e-05 -1.26577e-05 0.000618962
0.001906 -0.000213965 1.08889e-05
-0.000213965 0.000465499 -3.06697e-06
1.08889e-05 -3.06697e-06 0.000296557
0.00192133 -0.000289011 1.65672e-05
-0.000289011 0.000510031 -5.83019e-06
1.65672e-05 -5.83019e-06 0.000314215
0.0018662 -9.05768e-05 0.000243611
-9.05768e-05 0.000834275 -3.39353e-05
0.000243611 -3.39353e-05 0.000815576
0.00181786 -0.000107861 3.37701e-05
-0.000107861 0.0007481 -1.36767e-05
3.37701e-05 -1.36767e-05 0.000620132
0.00208212 -0.000357417 1.92297e-05
-0.000357417 0.000696071 -8.9058e-06
1.92297e-05 -8.9058e-06 0.00046364
0.00170476 -0.000430926 7.22927e-06
-0.000430926 0.000187319 -7.54407e-07
7.22927e-06 -7.54407e-07 -7.59908e-05
0.00695274 0.000269986 -0.000347943
0.000269986 0.00403127 -3.91158e-05
-0.000347943 -3.91158e-05 0.004037
0.00666006 -5.09642e-05 -0.000264165
-5.09642e-05 0.00386237 -1.93009e-05
-0.000264165 -1.93009e-05 0.00386987
0.00686931 0.000111771 -0.000311849
0.000111771 0.003964 -2.90668e-05
-0.000311849 -2.90668e-05 0.00398054
0.000394765 0.000230842 -2.52711e-05
0.000230842 -0.00013497 -2.056e-05
-2.52711e-05 -2.056e-05 -0.000275029
0.00683734 0.000242889 -2.44496e-06
0.000242889 0.00395435 -2.40978e-06
-2.44496e-06 -2.40978e-06 0.00396462
0.00696134 0.000220264 -9.02086e-06
0.000220264 0.00402885 -3.0153e-06
-9.02086e-06 -3.0153e-06 0.00403769
0.000359811 0.000132773 2.57766e-07
0.000132773 -0.000220643 -2.77891e-07
2.57766e-07 -2.77891e-07 -0.000335869
0.00370871 -9.18979e-05 -0.000119801
-9.18979e-05 0.00204775 -4.92569e-06
-0.000119801 -4.92569e-06 0.00201473
0.000345192 0.000211546 4.31092e-07
0.000211546 -0.000182938 -5.33293e-07
4.31092e-07 -5.33293e-07 -0.000317217
0.00175604 0.000233356 5.85131e-05
0.000233356 0.000721119 3.39244e-06
5.85131e-05 3.39244e-06 0.000607191
0.000843621 0.000256147 3.06482e-07
0.000256147 -1.2966e-05 6.29898e-08
3.06482e-07 6.29898e-08 -0.000233934
0.00562432 -0.000134968 0.000208496
-0.000134968 0.00327574 2.38017e-05
0.000208496 2.38017e-05 0.00326138
0.000640214 6.23259e-05 1.63088e-05
6.23259e-05 7.67426e-05 1.37034e-05
1.63088e-05 1.37034e-05 8.85066e-07
0.000463333 0.000102608 1.50263e-05
0.000102608 -0.000174344 1.05294e-05
1.50263e-05 1.05294e-05 -0.000283398
0.000470314 0.000161329 1.97007e-05
0.000161329 -0.000138522 1.81083e-05
1.97007e-05 1.81083e-05 -0.000261327
0.00116896 0.000252786 1.54975e-05
0.000252786 1.11328e-05 5.67346e-06
1.54975e-05 5.67346e-06 -0.000191669
0.00303417 0.000215335 0.000146013
0.000215335 0.00153524 2.06769e-05
0.000146013 2.06769e-05 0.00145447
0.000969364 0.000273928 1.58648e-05
0.000273928 -9.9679e-06 6.51404e-06
1.58648e-05 6.51404e-06 -0.000230534
0.000839232 0.000259698 1.2896e-05
0.000259698 7.48632e-05 5.95914e-06
1.2896e-05 5.95914e-06 -0.000153644
0.00127877 0.000424588 2.73932e-06
0.000424588 0.000142451 -1.80089e-06
2.73932e-06 -1.80089e-06 -0.000161108
0.0036887 -0.000124373 0.000113388
-0.000124373 0.00203607 7.56799e-06
0.000113388 7.56799e-06 0.00203432
0.00427771 -0.000165924 2.43362e-05
-0.000165924 0.00242747 -6.23787e-07
2.43362e-05 -6.23787e-07 0.00241257
0.00662036 6.34422e-05 -0.000328796
6.34422e-05 0.00380379 -1.65517e-05
-0.000328796 -1.65517e-05 0.0038279
0.00623893 7.42073e-05 -0.000319777
7.42073e-05 0.00357711 -1.00815e-05
-0.000319777 -1.00815e-05 0.00360364
0.00609359 8.38442e-05 -7.97866e-08
8.38442e-05 0.00349775 -3.84761e-06
-7.97866e-08 -3.84761e-06 0.00352076
0.00387452 3.36835e-05 -0.000133415
3.36835e-05 0.00209338 -7.06699e-06
-0.000133415 -7.06699e-06 0.00208725
0.00158909 3.87954e-05 6.35465e-05
3.87954e-05 0.000540491 1.76738e-06
6.35465e-05 1.76738e-06 0.00047169
0.0042053 0.000151098 -0.000125362
0.000151098 0.002304 -7.50692e-06
-0.000125362 -7.50692e-06 0.0022845
0.00166646 9.34051e-05 6.50726e-05
9.34051e-05 0.000581477 3.2533e-06
6.50726e-05 3.2533e-06 0.000501198
0.00604368 0.000120982 0.000312271
0.000120982 0.00347543 7.28395e-06
0.000312271 7.28395e-06 0.00349348
0.000408253 1.04495e-05 1.83704e-05
1.04495e-05 -0.000195991 8.91685e-07
1.83704e-05 8.91685e-07 -0.000278887
0.00280517 4.03513e-05 0.000144273
4.03513e-05 0.00129631 6.25709e-06
0.000144273 6.25709e-06 0.00124315
0.00111903 6.59666e-05 1.16132e-05
6.59666e-05 -3.88455e-05 7.10785e-07
1.16132e-05 7.10785e-07 -0.000172413
0.00279331 0.000122899 0.000152782
0.000122899 0.00128651 1.26482e-05
0.000152782 1.26482e-05 0.00122036
0.00120698 0.000149244 1.12425e-05
0.000149244 -1.05596e-05 1.52813e-06
1.12425e-05 1.52813e-06 -0.000168248
0.0018338 4.20327e-05 -0.000244544
4.20327e-05 0.000791865 3.16247e-06
-0.000244544 3.16247e-06 0.000795017
0.00143709 -1.82286e-05 -6.42272e-05
-1.82286e-05 0.000573585 2.97706e-06
-6.42272e-05 2.97706e-06 0.000526802
0.00169373 -6.14075e-06 -3.85129e-05
-6.14075e-06 0.000737427 8.44748e-06
-3.85129e-05 8.44748e-06 0.000680462
0.00144966 -0.000103556 -7.9403e-05
-0.000103556 0.000591301 1.21905e-05
-7.9403e-05 1.21905e-05 0.00053641
0.00201775 -9.65011e-05 -0.000133124
-9.65011e-05 0.0008138 1.26914e-05
-0.000133124 1.26914e-05 0.00073794
0.00201101 -0.000151012 -0.000135967
-0.000151012 0.000815156 2.1837e-05
-0.000135967 2.1837e-05 0.000730327
0.00194948 -0.000197744 -0.000144561
-0.000197744 0.000799194 2.76856e-05
-0.000144561 2.76856e-05 0.000699043
0.00207619 -0.000330899 -3.50496e-05
-0.000330899 0.000640845 1.20945e-05
-3.50496e-05 1.20945e-05 0.000426029
0.00608353 -0.000106754 2.33732e-06
-0.000106754 0.00349664 -1.89291e-06
2.33732e-06 -1.89291e-06 0.00351642
0.00172269 2.85743e-05 9.37442e-05
2.85743e-05 0.000733353 -4.63589e-06
9.37442e-05 -4.63589e-06 0.000712039
0.00115908 -1.12623e-05 -6.65901e-05
-1.12623e-05 0.000276475 2.0366e-06
-6.65901e-05 2.0366e-06 0.000206763
0.00184814 -7.7307e-05 -3.62664e-05
-7.7307e-05 0.000716565 2.98045e-06
-3.62664e-05 2.98045e-06 0.000636253
0.0043954 -4.23644e-05 0.000250957
-4.23644e-05 0.00243808 -1.71128e-05
0.000250957 -1.71128e-05 0.00243097
0.00247027 -0.000188514 -4.37007e-05
-0.000188514 0.00114574 3.96641e-06
-4.37007e-05 3.96641e-06 0.00103032
0.00191378 -0.000142347 -3.28944e-05
-0.000142347 0.000761978 3.02456e-06
-3.28944e-05 3.02456e-06 0.000669817
0.00198541 -0.000215043 -1.01196e-05
-0.000215043 0.000511638 1.8372e-06
-1.01196e-05 1.8372e-06 0.000346141
0.00208181 -0.000360903 -8.70122e-06
-0.000360903 0.000690663 2.41999e-06
-8.70122e-06 2.41999e-06 0.000457434
0.00199514 -0.000291799 -8.76351e-06
-0.000291799 0.000556732 2.30222e-06
-8.76351e-06 2.30222e-06 0.000359589
0.00174614 -0.000433446 8.51841e-07
-0.000433446 0.000214787 -1.42573e-07
8.51841e-07 -1.42573e-07 -4.81575e-05
0.0004456 9.5155e-06 1.91909e-05
9.5155e-06 -0.000176371 -6.90545e-07
1.91909e-05 -6.90545e-07 -0.000255794
0.00168347 -4.77556e-06 5.36687e-05
-4.77556e-06 0.000612181 -2.80785e-06
5.36687e-05 -2.80785e-06 0.00053532
0.00183961 -7.0371e-05 1.02963e-05
-7.0371e-05 0.000417595 -4.27872e-07
1.02963e-05 -4.27872e-07 0.000298211
0.00182286 -0.000168561 1.06089e-05
-0.000168561 0.000401888 -1.59345e-06
1.06089e-05 -1.59345e-06 0.00025262
0.00191524 -0.000251895 1.33085e-05
-0.000251895 0.000479218 -3.85745e-06
1.33085e-05 -3.85745e-06 0.000300486
0.00190547 -0.000302048 6.08e-07
-0.000302048 0.000185913 -2.61574e-07
6.08e-07 -2.61574e-07 8.8445e-06
0.00624309 0.000100553 0.000222653
0.000100553 0.00362554 -1.73088e-05
0.000222653 -1.73088e-05 0.00362175
0.00170612 -0.000396639 4.59797e-06
-0.000396639 0.000135796 -6.21895e-07
4.59797e-06 -6.21895e-07 -9.85546e-05
0.000237707 -0.00018074 2.03443e-05
-0.00018074 -0.000244319 -2.11631e-05
2.03443e-05 -2.11631e-05 -0.000365274
0.000906324 -0.000276756 1.46139e-05
-0.000276756 1.82829e-05 -8.7964e-06
1.46139e-05 -8.7964e-06 -0.000214834
0.00179937 -0.00048002 9.97661e-06
-0.00048002 0.000309032 -1.63301e-06
9.97661e-06 -1.63301e-06 9.04983e-06
0.00193039 -0.000502689 2.62433e-06
-0.000502689 0.000221451 2.08637e-06
2.62433e-06 2.08637e-06 -2.91429e-05
0.000458602 -0.000147277 2.24449e-05
-0.000147277 -6.90248e-05 -1.67792e-05
2.24449e-05 -1.67792e-05 -0.000171281
0.000649001 -0.000133259 -3.43487e-07
-0.000133259 0.000103119 -1.16384e-07
-3.43487e-07 -1.16384e-07 -0.000138748
0.00690805 0.000266674 -0.000355388
0.000266674 0.00400455 -3.69782e-05
-0.000355388 -3.69782e-05 0.00401155
0.00691969 0.000207206 -0.000332618
0.000207206 0.00400096 -3.55607e-05
-0.000332618 -3.55607e-05 0.00401338
0.000337287 0.000129814 -1.8319e-05
0.000129814 -0.000236346 -1.29952e-05
-1.8319e-05 -1.29952e-05 -0.000351784
0.00592618 -0.000125136 -0.000208625
-0.000125136 0.00343814 -1.52751e-05
-0.000208625 -1.52751e-05 0.00343284
0.000325845 0.000202029 -2.30975e-05
0.000202029 -0.00018 -2.07475e-05
-2.30975e-05 -2.07475e-05 -0.000301604
0.000335467 0.000197223 -2.08057e-05
0.000197223 -0.000186797 -1.85456e-05
-2.08057e-05 -1.85456e-05 -0.000322087
0.000868802 0.00025459 -1.49818e-05
0.00025459 6.98973e-06 -6.73629e-06
-1.49818e-05 -6.73629e-06 -0.000212433
0.00535961 -0.00012577 -1.13003e-06
-0.00012577 0.00309684 8.76983e-07
-1.13003e-06 8.76983e-07 0.0030901
0.000504915 4.84783e-05 1.68288e-06
4.84783e-05 -4.34186e-06 4.35288e-07
1.68288e-06 4.35288e-07 -7.67597e-05
0.00167449 0.000144447 6.70579e-05
0.000144447 0.000589714 5.87588e-06
6.70579e-05 5.87588e-06 0.000496122
0.00164583 0.000206468 6.83756e-05
0.000206468 0.00060676 6.67068e-06
6.83756e-05 6.67068e-06 0.000497944
0.00113712 0.000251549 8.78088e-08
0.000251549 -3.29295e-06 -2.87079e-07
8.78088e-08 -2.87079e-07 -0.000206933
0.000446717 0.000175939 -8.66839e-08
0.000175939 -8.73579e-05 -4.64309e-07
-8.66839e-08 -4.64309e-07 -0.000193798
0.0009992 0.00027232 9.87016e-07
0.00027232 1.83297e-05 8.94789e-08
9.87016e-07 8.94789e-08 -0.000201469
0.000826112 0.000248358 3.64554e-07
0.000248358 5.91289e-05 -8.83325e-07
3.64554e-07 -8.83325e-07 -0.00016439
0.00141927 0.000446479 -3.96138e-07
0.000446479 0.000216644 -4.36355e-07
-3.96138e-07 -4.36355e-07 -9.05217e-05
0.000435486 0.000126769 1.85883e-05
0.000126769 -6.73877e-05 1.65155e-05
1.85883e-05 1.65155e-05 -0.00016573
0.000660861 1.14339e-05 8.84068e-06
1.14339e-05 9.9101e-05 1.21374e-05
8.84068e-06 1.21374e-05 4.37887e-05
0.00132846 0.000194575 5.12411e-06
0.000194575 0.000547685 4.01193e-06
5.12411e-06 4.01193e-06 0.000329347
0.00120015 0.000221357 1.21766e-05
0.000221357 -2.56491e-06 4.092e-06
1.21766e-05 4.092e-06 -0.000190337
0.00110867 0.000274443 1.72662e-05
0.000274443 2.03727e-05 6.51546e-06
1.72662e-05 6.51546e-06 -0.000194857
0.00190132 0.000425372 3.82622e-06
0.000425372 0.000234481 -1.33339e-07
3.82622e-06 -1.33339e-07 -4.15582e-06
0.000691569 0.000218709 9.63035e-06
0.000218709 4.23744e-05 5.90104e-06
9.63035e-06 5.90104e-06 -0.00017569
0.00179429 0.000489431 4.17757e-06
0.000489431 0.000337369 -1.12951e-06
4.17757e-06 -1.12951e-06 4.33654e-05
0.00111332 0.0003942 1.18575e-06
0.0003942 0.000130848 -2.189e-06
1.18575e-06 -2.189e-06 -0.000182204
0.00155675 0.000533183 -5.89611e-06
0.000533183 0.000201738 -4.85326e-06
-5.89611e-06 -4.85326e-06 -0.000126059
0.00327316 -0.000132912 7.26263e-05
-0.000132912 0.00176849 4.15457e-06
7.26263e-05 4.15457e-06 0.00176483
0.00363124 -0.000162385 1.41162e-05
-0.000162385 0.00200731 -8.74979e-07
1.41162e-05 -8.74979e-07 0.00199538
0.00409545 -0.000205646 -8.41104e-05
-0.000205646 0.00231827 -6.74782e-06
-8.41104e-05 -6.74782e-06 0.00229347
0.000500483 -0.000132001 2.14814e-05
-0.000132001 -2.49318e-05 -1.50214e-05
2.14814e-05 -1.50214e-05 -0.000113235
0.00565108 0.000147217 0.000183592
0.000147217 0.00328699 -1.76901e-05
0.000183592 -1.76901e-05 0.00327112
0.00683792 0.000224206 -0.000354385
0.000224206 0.00395456 -3.06214e-05
-0.000354385 -3.06214e-05 0.00396809
0.00635765 9.71836e-05 -0.000323619
9.71836e-05 0.00364743 -1.4215e-05
-0.000323619 -1.4215e-05 0.00367246
0.000394257 9.7045e-05 -1.90252e-05
9.7045e-05 -0.00021381 -5.52414e-06
-1.90252e-05 -5.52414e-06 -0.000311331
0.000403717 4.35551e-05 -1.89722e-05
4.35551e-05 -0.000199339 -2.76024e-06
-1.89722e-05 -2.76024e-06 -0.00028642
0.00603943 -5.55291e-06 -0.000307254
-5.55291e-06 0.00345486 -2.69604e-06
-0.000307254 -2.69604e-06 0.00348251
0.00598071 5.24775e-06 -1.24252e-07
5.24775e-06 0.00341958 -1.03124e-06
-1.24252e-07 -1.03124e-06 0.00344733
0.000387768 8.17504e-07 -7.2984e-08
8.17504e-07 -0.000211567 1.55253e-07
-7.2984e-08 1.55253e-07 -0.000292663
0.00157564 4.03706e-05 6.41013e-05
4.03706e-05 0.00052643 2.9511e-06
6.41013e-05 2.9511e-06 0.000454811
0.00108756 6.95387e-05 -5.57623e-08
6.95387e-05 -6.30904e-05 -5.62051e-08
-5.57623e-08 -5.62051e-08 -0.0001976
0.000380791 8.49905e-05 -7.28687e-07
8.49905e-05 -0.000224859 -4.21436e-07
-7.28687e-07 -4.21436e-07 -0.00032889
0.00115462 0.000149864 -1.66986e-07
0.000149864 -4.30292e-05 -1.94418e-07
-1.66986e-07 -1.94418e-07 -0.00020197
0.000382652 -3.17612e-05 1.89798e-05
-3.17612e-05 -0.000216079 -8.07041e-07
1.89798e-05 -8.07041e-07 -0.000294458
0.0010702 2.86345e-05 1.1347e-05
2.86345e-05 -5.82318e-05 3.44409e-07
1.1347e-05 3.44409e-07 -0.000186242
0.00114374 0.00010749 1.14581e-05
0.00010749 -3.7228e-05 1.11441e-06
1.14581e-05 1.11441e-06 -0.000181466
0.00185168 0.000110699 6.36528e-07
0.000110699 6.67458e-05 -4.56965e-07
6.36528e-07 -4.56965e-07 -3.66226e-05
0.00121913 0.000185183 1.06785e-05
0.000185183 -4.48021e-06 2.62087e-06
1.06785e-05 2.62087e-06 -0.00017655
0.00198397 0.00025602 7.49393e-07
0.00025602 0.000161183 -7.59337e-07
7.49393e-07 -7.59337e-07 1.72337e-05
0.00600066 -6.82628e-05 -0.000311296
-6.82628e-05 0.00343898 3.26276e-06
-0.000311296 3.26276e-06 0.00346277
0.00137352 -0.000157177 -6.50411e-05
-0.000157177 0.000551045 7.96879e-06
-6.50411e-05 7.96879e-06 0.000499727
-0.000247771 -6.72088e-06 -1.19627e-05
-6.72088e-06 -0.000601441 1.79899e-06
-1.19627e-05 1.79899e-06 -0.000697003
0.00195969 -6.87292e-05 -0.000130454
-6.87292e-05 0.000779343 8.86738e-06
-0.000130454 8.86738e-06 0.00070865
0.00661413 0.000258737 -3.20191e-05
0.000258737 0.00385834 3.72914e-06
-3.20191e-05 3.72914e-06 0.00380897
0.00314913 -0.000276438 -0.000149196
-0.000276438 0.00156808 2.88672e-05
-0.000149196 2.88672e-05 0.00145756
0.00203144 -0.000123056 -0.000134257
-0.000123056 0.00082354 1.7067e-05
-0.000134257 1.7067e-05 0.000744028
0.00204013 -0.000214582 -3.0715e-05
-0.000214582 0.000541769 5.68747e-06
-3.0715e-05 5.68747e-06 0.00038008
0.00205385 -0.000293915 -3.21562e-05
-0.000293915 0.000593275 1.04049e-05
-3.21562e-05 1.04049e-05 0.000395055
0.0020177 -0.000358688 -3.33991e-05
-0.000358688 0.000646047 1.27744e-05
-3.33991e-05 1.27744e-05 0.000412986
0.00180173 -0.000437245 -5.66207e-06
-0.000437245 0.000250745 6.28784e-07
-5.66207e-06 6.28784e-07 -1.2051e-05
0.000386053 4.42336e-06 -2.84876e-08
4.42336e-06 -0.000211566 3.2249e-07
-2.84876e-08 3.2249e-07 -0.000291991
0.00181798 -8.75079e-05 -3.48692e-05
-8.75079e-05 0.000702868 5.09119e-07
-3.48692e-05 5.09119e-07 0.00062753
0.00148643 -6.59703e-05 -1.08142e-05
-6.59703e-05 0.000195836 7.34187e-07
-1.08142e-05 7.34187e-07 7.21451e-05
0.00190734 -0.000169386 -9.26705e-06
-0.000169386 0.000454033 1.47269e-06
-9.26705e-06 1.47269e-06 0.000303381
0.00646844 9.9419e-05 5.24207e-06
9.9419e-05 0.00376913 5.42562e-07
5.24207e-06 5.42562e-07 0.00376321
0.00172246 -0.000185685 5.09282e-06
-0.000185685 0.000699069 6.76611e-07
5.09282e-06 6.76611e-07 0.000568761
0.00138423 -0.000312487 1.6758e-06
-0.000312487 0.000317306 -1.10676e-06
1.6758e-06 -1.10676e-06 8.06874e-05
0.00195396 -0.000254513 -9.26054e-06
-0.000254513 0.000501932 2.36827e-06
-9.26054e-06 2.36827e-06 0.000322625
0.00195079 -0.00030678 -3.63857e-07
-0.00030678 0.00021031 -2.87745e-08
-3.63857e-07 -2.87745e-08 3.90218e-05
0.00179566 -0.000478938 9.83678e-07
-0.000478938 0.000309871 -3.02331e-07
9.83678e-07 -3.02331e-07 1.15886e-05
0.00183205 -0.000401542 5.99908e-07
-0.000401542 0.00021776 -2.10224e-07
5.99908e-07 -2.10224e-07 -1.71224e-05
0.00196961 -0.000504157 8.36938e-07
-0.000504157 0.000250561 1.41211e-07
8.36938e-07 1.41211e-07 1.15207e-07
0.000462625 -0.000159012 2.04888e-06
-0.000159012 -7.17741e-05 5.50702e-07
2.04888e-06 5.50702e-07 -0.000173974
0.000688618 -0.000173101 1.08397e-06
-0.000173101 0.000116207 1.8135e-07
1.08397e-06 1.8135e-07 -0.000115995
0.00107035 -3.25778e-05 1.1591e-05
-3.25778e-05 -5.3592e-05 -5.96262e-07
1.1591e-05 -5.96262e-07 -0.000181894
0.00189681 -0.00011637 9.51086e-06
-0.00011637 0.000451056 -7.94624e-07
9.51086e-06 -7.94624e-07 0.000319876
0.00183674 -0.000117556 7.43186e-07
-0.000117556 8.63823e-05 1.47488e-07
7.43186e-07 1.47488e-07 -2.70691e-05
0.00182362 -0.000247998 -2.01893e-07
-0.000247998 0.000102076 7.97199e-07
-2.01893e-07 7.97199e-07 -4.03594e-05
0.00182451 -0.000357264 6.27993e-07
-0.000357264 0.000162555 3.54638e-07
6.27993e-07 3.54638e-07 -3.86139e-05
0.0020913 -0.000349622 2.76422e-06
-0.000349622 0.000186994 -5.13427e-07
2.76422e-06 -5.13427e-07 4.81079e-05
0.000340183 -0.000167144 2.00952e-05
-0.000167144 -0.000157992 -2.0108e-05
2.00952e-05 -2.0108e-05 -0.000273442
0.00197866 -0.00046398 8.81989e-07
-0.00046398 0.000202316 1.54551e-06
8.81989e-07 1.54551e-06 -7.42811e-06
0.000606121 -0.000241156 1.03862e-05
-0.000241156 -7.66904e-05 -8.61678e-06
1.03862e-05 -8.61678e-06 -0.000305739
0.00149274 -0.000491021 1.162e-05
-0.000491021 0.000212048 -1.8605e-06
1.162e-05 -1.8605e-06 -0.000120249
0.00213722 -0.000565208 3.60372e-06
-0.000565208 0.000417935 1.13456e-06
3.60372e-06 1.13456e-06 0.000113172
0.00224826 -0.000540773 -9.53396e-07
-0.000540773 0.000382049 4.11675e-06
-9.53396e-07 4.11675e-06 0.000160868
0.000571379 -0.000208266 1.51745e-06
-0.000208266 2.34606e-05 -3.62474e-06
1.51745e-06 -3.62474e-06 -0.000227525
0.000708818 -0.000122326 2.89753e-07
-0.000122326 0.000155345 -1.30215e-06
2.89753e-07 -1.30215e-06 -5.05999e-05
0.000904592 -0.000273983 -1.16308e-06
-0.000273983 0.000240248 2.85752e-06
-1.16308e-06 2.85752e-06 -5.18134e-05
0.000366074 0.000108553 -1.76034e-05
0.000108553 -0.000230503 -1.00117e-05
-1.76034e-05 -1.00117e-05 -0.000340733
0.00487245 -0.000180492 -0.000142164
-0.000180492 0.00280672 -1.16098e-05
-0.000142164 -1.16098e-05 0.00278737
0.000303762 3.79477e-05 -1.12203e-05
3.79477e-05 -0.00012747 -1.35508e-05
-1.12203e-05 -1.35508e-05 -0.000194014
0.000350339 0.000163882 -1.99068e-05
0.000163882 -0.000205596 -1.59549e-05
-1.99068e-05 -1.59549e-05 -0.000330189
0.00111943 0.000251362 -1.65058e-05
0.000251362 -8.90986e-06 -6.25896e-06
-1.65058e-05 -6.25896e-06 -0.000213466
0.000450528 0.000164715 -2.28894e-05
0.000164715 -8.59495e-05 -1.87687e-05
-2.28894e-05 -1.87687e-05 -0.000191286
0.000612566 0.000228138 -1.13874e-05
0.000228138 -7.41242e-05 -7.71385e-06
-1.13874e-05 -7.71385e-06 -0.000292037
0.000978971 0.000267491 -1.61566e-05
0.000267491 1.56266e-05 -7.09795e-06
-1.61566e-05 -7.09795e-06 -0.000203151
0.00152316 0.000464455 -4.23919e-06
0.000464455 0.000267852 8.44946e-07
-4.23919e-06 8.44946e-07 -4.20413e-05
0.000499741 0.000123169 -6.90841e-07
0.000123169 -3.39208e-05 1.26958e-06
-6.90841e-07 1.26958e-06 -0.000125056
0.00043045 -9.23509e-06 4.47123e-07
-9.23509e-06 -3.62184e-05 6.18816e-07
4.47123e-07 6.18816e-07 -9.18518e-05
0.000723591 0.000123094 3.09267e-06
0.000123094 0.000156318 -7.72362e-07
3.09267e-06 -7.72362e-07 -4.57428e-05
0.00117783 0.000221555 -1.19546e-07
0.000221555 -1.12766e-05 -3.20266e-07
-1.19546e-07 -3.20266e-07 -0.000200172
0.00107414 0.000270506 4.50759e-07
0.000270506 4.94282e-06 -2.06057e-07
4.50759e-07 -2.06057e-07 -0.000209959
0.00187722 0.000423664 -2.94536e-07
0.000423664 0.000218088 -1.34807e-07
-2.94536e-07 -1.34807e-07 -2.06906e-05
0.00066891 0.000221131 -3.07595e-07
0.000221131 3.12521e-05 6.54268e-08
-3.07595e-07 6.54268e-08 -0.000185204
0.00178214 0.000486406 -3.73198e-07
0.000486406 0.000324549 -3.5447e-07
-3.73198e-07 -3.5447e-07 2.97031e-05
0.00129905 0.000415127 1.32534e-07
0.000415127 0.000248142 -1.03842e-06
1.32534e-07 -1.03842e-06 -6.91643e-05
0.00154522 0.000543026 -5.87481e-07
0.000543026 0.000177722 1.73696e-06
-5.87481e-07 1.73696e-06 -0.000150172
0.000513687 -2.01721e-05 2.547e-06
-2.01721e-05 1.13893e-05 1.02006e-05
2.547e-06 1.02006e-05 -3.36176e-05
0.00103331 0.000190098 5.51768e-06
0.000190098 0.000313316 3.21159e-06
5.51768e-06 3.21159e-06 9.28105e-05
0.00103154 7.26959e-05 6.92526e-07
7.26959e-05 0.000341591 6.43486e-06
6.92526e-07 6.43486e-06 0.000183947
0.00105069 0.000210606 1.34881e-06
0.000210606 0.000376436 5.72059e-07
1.34881e-06 5.72059e-07 0.000101992
0.00194594 0.000376399 8.19343e-07
0.000376399 0.000201393 -1.68573e-06
8.19343e-07 -1.68573e-06 -3.30003e-06
0.00183887 0.000464756 4.76985e-06
0.000464756 0.000271716 -1.82246e-07
4.76985e-06 -1.82246e-07 4.70794e-07
0.00208174 0.000492771 1.19787e-07
0.000492771 0.000252151 -1.13369e-06
1.19787e-07 -1.13369e-06 2.59386e-05
0.000923511 0.000317594 3.4562e-06
0.000317594 7.47416e-05 6.33076e-07
3.4562e-06 6.33076e-07 -0.000202052
0.00223728 0.000612873 -3.94816e-06
0.000612873 0.000496989 -2.32539e-06
-3.94816e-06 -2.32539e-06 0.000190344
0.00185587 0.000580508 -3.90431e-06
0.000580508 0.000500346 -6.73829e-06
-3.90431e-06 -6.73829e-06 0.00011955
0.00188239 0.000590153 -1.16987e-06
0.000590153 0.000292129 -1.85963e-06
-1.16987e-06 -1.85963e-06 -2.69952e-05
0.000561221 4.86571e-05 2.2056e-06
4.86571e-05 5.47541e-05 4.68639e-06
2.2056e-06 4.68639e-06 -2.20559e-05
0.000475985 -1.6998e-05 1.92406e-06
-1.6998e-05 -2.65138e-05 7.33759e-06
1.92406e-06 7.33759e-06 -5.65022e-05
0.0028774 -0.000122123 4.67836e-05
-0.000122123 0.00151061 4.22543e-06
4.67836e-05 4.22543e-06 0.00150948
0.00313409 -0.000146946 8.86571e-06
-0.000146946 0.00168361 -8.82538e-07
8.86571e-06 -8.82538e-07 0.00167571
0.00344188 -0.000176753 -5.82205e-05
-0.000176753 0.00189098 -4.28444e-06
-5.82205e-05 -4.28444e-06 0.00187426
0.000443978 -0.00011321 1.82536e-05
-0.00011321 -3.76411e-05 -1.44963e-05
1.82536e-05 -1.44963e-05 -0.000112644
0.00513048 0.000176132 0.000146687
0.000176132 0.0029766 -1.6752e-05
0.000146687 -1.6752e-05 0.00295319
0.000501745 -0.000130879 7.08419e-07
-0.000130879 -2.49002e-05 3.9831e-07
7.08419e-07 3.9831e-07 -0.000117878
0.00587716 0.000129195 5.17078e-06
0.000129195 0.00342305 8.54402e-07
5.17078e-06 8.54402e-07 0.00340974
0.000394148 0.000110824 -1.87225e-05
0.000110824 -0.000214055 -7.79006e-06
-1.87225e-05 -7.79006e-06 -0.000320247
0.000420289 3.50145e-05 -1.79718e-05
3.50145e-05 -0.000196264 -3.32104e-06
-1.79718e-05 -3.32104e-06 -0.000286088
0.00112569 0.000150227 -1.12674e-05
0.000150227 -6.18529e-05 -1.8728e-06
-1.12674e-05 -1.8728e-06 -0.000221844
0.00106352 7.20963e-05 -1.17088e-05
7.20963e-05 -8.24638e-05 -7.52108e-07
-1.17088e-05 -7.52108e-07 -0.000217718
0.000440601 -7.66489e-06 -1.90481e-05
-7.66489e-06 -0.000181665 -8.31656e-07
-1.90481e-05 -8.31656e-07 -0.000261
0.00607337 -0.000100256 -0.000318178
-0.000100256 0.00348923 5.54765e-06
-0.000318178 5.54765e-06 0.00351095
0.000430305 -2.40359e-06 8.7847e-08
-2.40359e-06 -0.000187193 -6.7619e-07
8.7847e-08 -6.7619e-07 -0.000265478
0.00105304 3.3954e-05 -8.4435e-08
3.3954e-05 -7.0884e-05 4.89053e-08
-8.4435e-08 4.89053e-08 -0.000199387
0.0011407 0.000110073 -1.46064e-07
0.000110073 -4.34152e-05 -2.13624e-08
-1.46064e-07 -2.13624e-08 -0.000188577
0.00186077 0.000109154 -1.45815e-07
0.000109154 8.02368e-05 2.68466e-07
-1.45815e-07 2.68466e-07 -2.29443e-05
0.00117322 0.00018649 -2.82811e-07
0.00018649 -3.06735e-05 -2.41467e-07
-2.82811e-07 -2.41467e-07 -0.000204307
0.00192667 0.000252846 -1.60051e-07
0.000252846 0.000123896 1.46549e-07
-1.60051e-07 1.46549e-07 -2.00998e-05
0.00104684 -3.70404e-06 1.13996e-05
-3.70404e-06 -6.76308e-05 -3.10827e-07
1.13996e-05 -3.10827e-07 -0.000194556
0.00181966 5.22362e-05 1.32814e-06
5.22362e-05 5.55339e-05 -4.89371e-08
1.32814e-06 -4.89371e-08 -3.91726e-05
0.00191218 0.000180775 4.42112e-07
0.000180775 0.000108661 -8.85963e-07
4.42112e-07 -8.85963e-07 -1.16301e-05
0.00202742 0.000137728 4.00034e-06
0.000137728 6.61211e-05 9.31585e-07
4.00034e-06 9.31585e-07 1.49025e-05
0.00197067 0.000320166 7.15054e-07
0.000320166 0.000168263 -1.01767e-06
7.15054e-07 -1.01767e-06 -4.13183e-06
0.00203987 0.000281673 2.47181e-06
0.000281673 9.10693e-05 -1.09743e-07
2.47181e-06 -1.09743e-07 -1.3141e-05
0.000415185 -2.83283e-06 -1.82162e-05
-2.83283e-06 -0.000190051 8.89766e-07
-1.82162e-05 8.89766e-07 -0.000272703
0.00191467 -4.32408e-05 -0.000127947
-4.32408e-05 0.000753662 5.9684e-06
-0.000127947 5.9684e-06 0.000688965
0.0010977 -6.08256e-05 -1.82614e-05
-6.08256e-05 -4.7904e-05 1.66615e-06
-1.82614e-05 1.66615e-06 -0.000176292
0.00197161 -0.000169351 -2.84519e-05
-0.000169351 0.000492916 4.33543e-06
-2.84519e-05 4.33543e-06 0.000340989
0.0066705 7.79199e-05 -0.000255266
7.79199e-05 0.00388958 2.50748e-05
-0.000255266 2.50748e-05 0.00388561
0.00324821 -0.000261504 -0.000156397
-0.000261504 0.00164839 2.41401e-05
-0.000156397 2.41401e-05 0.00154768
0.00205849 -0.000369307 -2.71473e-05
-0.000369307 0.000736869 1.11994e-05
-2.71473e-05 1.11994e-05 0.000492267
0.00198508 -0.000256318 -3.11546e-05
-0.000256318 0.000519672 8.09362e-06
-3.11546e-05 8.09362e-06 0.000340062
0.0020006 -0.00031181 -2.61043e-06
-0.00031181 0.000237228 -3.06561e-07
-2.61043e-06 -3.06561e-07 7.16475e-05
0.001954 -0.000406011 -3.79235e-06
-0.000406011 0.000298308 9.37064e-07
-3.79235e-06 9.37064e-07 6.29355e-05
0.00178721 -0.00047751 -8.07553e-06
-0.00047751 0.000306378 6.15909e-07
-8.07553e-06 6.15909e-07 9.9694e-06
0.00200686 -0.000505953 -8.79808e-07
-0.000505953 0.000276971 -1.85199e-06
-8.79808e-07 -1.85199e-06 2.65463e-05
0.000442405 -0.000165628 -2.07748e-05
-0.000165628 -7.87651e-05 1.81544e-05
-2.07748e-05 1.81544e-05 -0.000187274
0.000681716 -0.000196502 -4.6499e-07
-0.000196502 0.000113235 -1.82259e-07
-4.6499e-07 -1.82259e-07 -0.000119283
0.00106614 -2.74971e-05 3.66444e-07
-2.74971e-05 -5.83212e-05 5.58854e-08
3.66444e-07 5.58854e-08 -0.000183522
0.001889 -0.000116749 -9.35801e-06
-0.000116749 0.0004438 1.14503e-06
-9.35801e-06 1.14503e-06 0.000312808
0.00186185 -0.000114494 2.93246e-07
-0.000114494 9.95581e-05 -2.36492e-07
2.93246e-07 -2.36492e-07 -8.89257e-06
0.00182777 -0.000247484 -2.59352e-06
-0.000247484 0.000111215 8.02603e-07
-2.59352e-06 8.02603e-07 -3.79507e-05
0.000430804 -0.000188413 2.40272e-07
-0.000188413 -0.000102874 1.68785e-07
2.40272e-07 1.68785e-07 -0.000219421
0.000807533 -0.000256838 -4.74746e-07
-0.000256838 4.0181e-05 -1.96468e-07
-4.74746e-07 -1.96468e-07 -0.000192284
0.00146659 -0.000486308 1.87887e-06
-0.000486308 0.000202701 -2.76206e-07
1.87887e-06 -2.76206e-07 -0.000129897
0.00187978 -0.000359063 -2.91924e-06
-0.000359063 0.000200285 8.67884e-07
-2.91924e-06 8.67884e-07 -4.08771e-06
0.00205958 -0.00035066 2.26597e-06
-0.00035066 0.000157565 -9.7005e-07
2.26597e-06 -9.7005e-07 2.39024e-05
0.00218428 -0.000574013 -6.54461e-07
-0.000574013 0.000442887 -6.32241e-07
-6.54461e-07 -6.32241e-07 0.000139278
0.00199942 -0.000465155 5.82242e-07
-0.000465155 0.000217209 1.01174e-08
5.82242e-07 1.01174e-08 7.17881e-06
0.00210111 -0.000534011 6.98361e-07
-0.000534011 0.000283157 8.51917e-07
6.98361e-07 8.51917e-07 6.14142e-05
0.000635924 -0.000202522 4.35757e-07
-0.000202522 6.4748e-05 -3.95788e-07
4.35757e-07 -3.95788e-07 -0.000183511
0.00055238 -0.000193548 1.10295e-06
-0.000193548 -9.36913e-06 7.79977e-07
1.10295e-06 7.79977e-07 -0.000277752
0.000730321 -0.000144027 5.60993e-07
-0.000144027 0.000170843 1.17189e-07
5.60993e-07 1.17189e-07 -4.03794e-05
0.00181403 -5.29134e-05 8.49636e-07
-5.29134e-05 7.2356e-05 -2.5513e-08
8.49636e-07 -2.5513e-08 -3.10195e-05
0.00195719 -0.000179578 -1.88789e-06
-0.000179578 0.000167459 6.6898e-07
-1.88789e-06 6.6898e-07 4.61057e-05
0.00199583 -0.000130442 6.11107e-06
-0.000130442 6.19785e-05 -1.03786e-06
6.11107e-06 -1.03786e-06 -6.05865e-07
0.0019919 -0.00028823 1.21492e-06
-0.00028823 8.73004e-05 9.56701e-09
1.21492e-06 9.56701e-09 -1.55705e-05
0.00188824 -0.000413062 -7.32897e-07
-0.000413062 9.47467e-05 1.7105e-06
-7.32897e-07 1.7105e-06 -7.54223e-05
0.00217703 -0.000377468 3.9942e-06
-0.000377468 0.000172571 -1.17873e-06
3.9942e-06 -1.17873e-06 7.61887e-05
0.000646266 -0.00023859 6.55896e-06
-0.00023859 2.02092e-05 -7.32701e-06
6.55896e-06 -7.32701e-06 -0.000211347
0.00196363 -0.000490691 -7.22852e-08
-0.000490691 0.000142289 1.33619e-06
-7.22852e-08 1.33619e-06 -4.01625e-05
0.00131385 -0.000448918 8.38787e-06
-0.000448918 0.000254638 -2.99355e-06
8.38787e-06 -2.99355e-06 -8.23743e-05
0.00186368 -0.000635282 6.64268e-06
-0.000635282 0.000338968 2.04304e-06
6.64268e-06 2.04304e-06 -3.69878e-05
0.00224881 -0.000603224 4.72192e-06
-0.000603224 0.000438644 3.90563e-06
4.72192e-06 3.90563e-06 0.000151626
0.00229949 -0.000564554 -2.45453e-06
-0.000564554 0.000417937 2.24236e-06
-2.45453e-06 2.24236e-06 0.000203936
0.000443251 -0.000115014 -1.98605e-07
-0.000115014 4.94207e-06 -6.04989e-06
-1.98605e-07 -6.04989e-06 -0.000172119
0.00121301 -0.000304184 6.07318e-07
-0.000304184 0.00032957 -2.74128e-06
6.07318e-07 -2.74128e-06 6.987e-05
0.000599965 -0.000206669 2.71608e-07
-0.000206669 0.000126386 5.71316e-06
2.71608e-07 5.71316e-06 -0.000197768
0.00172531 -0.000389523 -3.05019e-06
-0.000389523 0.000674545 3.42532e-06
-3.05019e-06 3.42532e-06 0.000366171
0.00113712 0.000221184 -1.32722e-05
0.000221184 -3.22033e-05 -4.67245e-06
-1.32722e-05 -4.67245e-06 -0.000222239
0.000323758 -3.56058e-05 1.83456e-06
-3.56058e-05 -8.73722e-05 -1.27607e-05
1.83456e-06 -1.27607e-05 -0.000149777
0.000426359 0.000102179 -2.06166e-05
0.000102179 -7.87977e-05 -1.43753e-05
-2.06166e-05 -1.43753e-05 -0.000164228
-5.20424e-05 0.000101307 -2.66216e-06
0.000101307 -0.000315767 -3.46535e-06
-2.66216e-06 -3.46535e-06 -0.000522207
0.00105347 0.00026708 -1.78658e-05
0.00026708 -1.23737e-06 -7.20636e-06
-1.78658e-05 -7.20636e-06 -0.000215715
0.00184359 0.000421155 -3.66926e-06
0.000421155 0.00019557 1.71779e-07
-3.66926e-06 1.71779e-07 -4.32391e-05
0.000633614 0.000220132 -6.49519e-06
0.000220132 9.18797e-06 -4.0717e-06
-6.49519e-06 -4.0717e-06 -0.000204858
0.0013474 0.000421841 -3.82609e-06
0.000421841 0.000279527 -9.41962e-07
-3.82609e-06 -9.41962e-07 -3.89419e-05
0.00177667 0.000484213 -4.30098e-06
0.000484213 0.000316003 6.46191e-07
-4.30098e-06 6.46191e-07 2.01675e-05
0.00149167 0.000546376 3.08939e-06
0.000546376 0.000133621 6.59377e-06
3.08939e-06 6.59377e-06 -0.000192654
0.000468587 -3.59727e-05 -3.6677e-06
-3.59727e-05 -8.42924e-06 8.08812e-07
-3.6677e-06 8.08812e-07 -5.70102e-05
0.000660515 0.000205316 -1.42399e-06
0.000205316 9.48909e-05 -6.55939e-07
-1.42399e-06 -6.55939e-07 -0.000134622
0.000627411 7.00428e-05 5.36544e-07
7.00428e-05 8.78105e-05 2.65759e-08
5.36544e-07 2.65759e-08 -6.1717e-05
0.000812309 0.000180968 -1.2528e-07
0.000180968 0.000211948 -3.34354e-07
-1.2528e-07 -3.34354e-07 -5.03757e-05
0.00192523 0.000374601 -1.27513e-06
0.000374601 0.000188127 -1.08119e-06
-1.27513e-06 -1.08119e-06 -1.665e-05
0.00179243 0.000462073 -3.24491e-07
0.000462073 0.000241535 -2.39109e-07
-3.24491e-07 -2.39109e-07 -3.00681e-05
0.00205399 0.00048873 2.22132e-07
0.00048873 0.000238825 2.31399e-07
2.22132e-07 2.31399e-07 1.35347e-05
0.00109123 0.00033013 3.01142e-06
0.00033013 0.000195719 4.39793e-08
3.01142e-06 4.39793e-08 -8.1783e-05
0.00212241 0.000594087 7.69661e-08
0.000594087 0.000434954 4.52584e-07
7.69661e-08 4.52584e-07 0.000129891
0.00159575 0.000556098 -1.12088e-06
0.000556098 0.000339824 -1.78057e-06
-1.12088e-06 -1.78057e-06 -3.85842e-05
0.00189234 0.000581813 -4.38454e-06
0.000581813 0.00030289 2.02739e-06
-4.38454e-06 2.02739e-06 -8.29713e-06
0.000536309 -2.36827e-05 1.59928e-06
-2.36827e-05 1.85391e-05 8.5073e-06
1.59928e-06 8.5073e-06 -1.76162e-05
0.000877788 6.06504e-05 1.92988e-06
6.06504e-05 0.000244661 6.87254e-06
1.92988e-06 6.87254e-06 0.000127651
0.000770602 0.000237579 1.07022e-06
0.000237579 6.99002e-05 2.40413e-06
1.07022e-06 2.40413e-06 -0.000170602
0.00151533 0.000171247 1.09267e-06
0.000171247 0.000719512 4.53827e-07
1.09267e-06 4.53827e-07 0.000448811
0.00112779 0.000337479 -1.20841e-06
0.000337479 0.000354666 1.71387e-06
-1.20841e-06 1.71387e-06 0.000101684
0.00213028 0.000438798 -3.66904e-07
0.000438798 0.000215647 -3.09377e-06
-3.66904e-07 -3.09377e-06 3.12985e-05
0.00205138 0.00055057 -8.82618e-07
0.00055057 0.000304609 -1.57044e-06
-8.82618e-07 -1.57044e-06 3.51483e-05
0.00207869 0.000535207 -2.24737e-06
0.000535207 0.000233354 -1.17725e-06
-2.24737e-06 -1.17725e-06 1.37732e-05
0.00125512 0.000482189 5.82072e-06
0.000482189 0.000274291 1.42751e-07
5.82072e-06 1.42751e-07 -9.20669e-05
0.00230387 0.000658691 -2.70562e-06
0.000658691 0.000488226 -1.70779e-06
-2.70562e-06 -1.70779e-06 0.00018267
0.00161605 0.000610146 6.16333e-06
0.000610146 0.000285842 -3.85322e-06
6.16333e-06 -3.85322e-06 -8.78246e-05
0.000593587 4.57025e-05 2.10243e-06
4.57025e-05 7.27836e-05 5.03356e-06
2.10243e-06 5.03356e-06 -9.98665e-06
0.000624813 9.60269e-05 -3.98586e-07
9.60269e-05 0.000133807 2.72066e-06
-3.98586e-07 2.72066e-06 3.52417e-06
0.000589342 5.75322e-05 2.1327e-06
5.75322e-05 7.9123e-05 4.38441e-06
2.1327e-06 4.38441e-06 4.94631e-06
0.000526867 1.10315e-05 -6.85915e-07
1.10315e-05 3.45246e-05 -5.25135e-08
-6.85915e-07 -5.25135e-08 -4.2349e-05
0.00133414 -3.47273e-05 1.45102e-06
-3.47273e-05 0.000514203 4.23586e-06
1.45102e-06 4.23586e-06 0.00049105
0.000904664 -2.94509e-05 3.0272e-07
-2.94509e-05 0.00024491 -1.90743e-07
3.0272e-07 -1.90743e-07 0.000216988
0.000840007 -4.89812e-05 3.45421e-05
-4.89812e-05 0.000208167 9.4885e-06
3.45421e-05 9.4885e-06 0.000206043
0.00284337 -0.000125282 7.39432e-06
-0.000125282 0.0014894 -7.06076e-07
7.39432e-06 -7.06076e-07 0.0014874
0.00304337 -0.0001492 -4.60676e-05
-0.0001492 0.00162707 -4.09968e-06
-4.60676e-05 -4.09968e-06 0.00161841
0.000419385 -6.3631e-05 9.17283e-06
-6.3631e-05 -3.71652e-05 -1.20772e-05
9.17283e-06 -1.20772e-05 -9.71284e-05
0.00452155 0.000171861 0.000106782
0.000171861 0.0025844 -1.06172e-05
0.000106782 -1.06172e-05 0.00256427
0.00049967 -0.000108271 -1.44847e-06
-0.000108271 -2.94899e-06 6.7708e-07
-1.44847e-06 6.7708e-07 -8.25602e-05
0.00531831 0.000143301 -8.15219e-06
0.000143301 0.00308376 -6.92844e-07
-8.15219e-06 -6.92844e-07 0.00306792
0.000491731 -0.000133995 -2.05452e-05
-0.000133995 -3.44082e-05 1.57836e-05
-2.05452e-05 1.57836e-05 -0.000129238
0.00608248 0.000130215 -0.000215311
0.000130215 0.00355572 2.42624e-05
-0.000215311 2.42624e-05 0.00354027
0.0011461 0.000188484 -1.13464e-05
0.000188484 -4.57582e-05 -3.06093e-06
-1.13464e-05 -3.06093e-06 -0.000220846
0.00109632 0.000113318 -1.17508e-05
0.000113318 -7.41555e-05 -1.09654e-06
-1.17508e-05 -1.09654e-06 -0.000220613
0.00190741 0.00024723 -1.88908e-06
0.00024723 0.000112206 1.03814e-06
-1.88908e-06 1.03814e-06 -3.10414e-05
0.0018657 0.000107705 -5.95601e-07
0.000107705 9.11486e-05 1.09317e-06
-5.95601e-07 1.09317e-06 -1.18781e-05
0.00103922 3.88571e-05 -1.14157e-05
3.88571e-05 -8.1981e-05 -2.72486e-07
-1.14157e-05 -2.72486e-07 -0.00021099
0.000393881 2.89381e-05 -1.89857e-05
2.89381e-05 -0.000211921 -6.36639e-07
-1.89857e-05 -6.36639e-07 -0.000288815
0.00103855 1.23965e-07 -6.13765e-08
1.23965e-07 -7.30181e-05 -5.40503e-08
-6.13765e-08 -5.40503e-08 -0.000199981
0.00183517 5.30199e-05 -1.01372e-07
5.30199e-05 6.92472e-05 1.99253e-07
-1.01372e-07 1.99253e-07 -2.54678e-05
0.00190335 0.000177392 -7.74123e-08
0.000177392 0.000106257 3.93735e-09
-7.74123e-08 3.93735e-09 -1.36111e-05
0.0020192 0.000135465 -9.13666e-08
0.000135465 5.10942e-05 4.32819e-08
-9.13666e-08 4.32819e-08 2.94099e-06
0.00195483 0.0003179 -4.67027e-07
0.0003179 0.000162638 -1.55302e-08
-4.67027e-07 -1.55302e-08 -9.55441e-06
0.00205097 0.000281736 -4.56376e-07
0.000281736 0.000101679 1.71724e-07
-4.56376e-07 1.71724e-07 -2.89309e-06
0.00181656 -6.80271e-07 1.48709e-06
-6.80271e-07 6.45163e-05 1.4502e-07
1.48709e-06 1.4502e-07 -2.8682e-05
0.00200242 6.50314e-05 3.34911e-06
6.50314e-05 4.14205e-05 3.47048e-07
3.34911e-06 3.47048e-07 4.00365e-06
0.00199635 0.000203943 3.48427e-06
0.000203943 5.09927e-05 8.05582e-07
3.48427e-06 8.05582e-07 -2.01065e-05
0.00202189 0.000124787 6.15328e-06
0.000124787 2.53099e-05 7.73929e-07
6.15328e-06 7.73929e-07 5.75198e-06
0.00214496 0.000373104 9.1981e-07
0.000373104 0.000186795 -9.37916e-07
9.1981e-07 -9.37916e-07 4.17329e-05
0.00205903 0.000295322 2.88918e-06
0.000295322 1.60419e-05 9.96365e-07
2.88918e-06 9.96365e-07 -4.02058e-05
0.00105974 -2.3501e-05 -1.20197e-05
-2.3501e-05 -6.42083e-05 7.07522e-07
-1.20197e-05 7.07522e-07 -0.00018642
0.00190293 -0.000117825 -2.79133e-05
-0.000117825 0.000450293 3.08442e-06
-2.79133e-05 3.08442e-06 0.000319402
0.0019337 -0.000110178 -2.3256e-06
-0.000110178 0.000142331 -3.72092e-07
-2.3256e-06 -3.72092e-07 3.93354e-05
0.00183795 -0.000246705 -3.00575e-06
-0.000246705 0.000124677 7.43639e-07
-3.00575e-06 7.43639e-07 -3.11441e-05
0.00056103 -0.00021795 -2.60556e-05
-0.00021795 -2.36952e-05 2.00909e-05
-2.60556e-05 2.00909e-05 -0.000141413
0.000861917 -0.000264272 -1.22053e-05
-0.000264272 7.30667e-05 8.26129e-06
-1.22053e-05 8.26129e-06 -0.000162508
0.00147707 -0.00048719 -7.35079e-06
-0.00048719 0.000213896 1.71278e-06
-7.35079e-06 1.71278e-06 -0.000120626
0.00191981 -0.000359951 -4.96235e-06
-0.000359951 0.000227884 1.18041e-06
-4.96235e-06 1.18041e-06 2.04564e-05
0.0020375 -0.000352205 -6.49541e-08
-0.000352205 0.000133932 -9.80547e-07
-6.49541e-08 -9.80547e-07 5.66257e-06
0.00201839 -0.000466264 -6.46007e-07
-0.000466264 0.000230744 -1.19625e-06
-6.46007e-07 -1.19625e-06 2.04217e-05
0.00224185 -0.000582607 -3.23356e-06
-0.000582607 0.000476515 -3.67211e-06
-3.23356e-06 -3.67211e-06 0.00017428
0.00193157 -0.000522433 1.8605e-06
-0.000522433 0.000170632 -2.59486e-06
1.8605e-06 -2.59486e-06 -5.01713e-05
0.00089529 -0.000210098 -5.53422e-06
-0.000210098 0.000218833 4.68365e-06
-5.53422e-06 4.68365e-06 -2.20901e-05
0.000369626 -0.000162735 1.2155e-06
-0.000162735 -0.000132701 -1.93926e-06
1.2155e-06 -1.93926e-06 -0.000397325
0.000611715 -0.00017114 -6.78402e-07
-0.00017114 9.44777e-05 9.69905e-07
-6.78402e-07 9.69905e-07 -0.00011764
0.00184788 -4.98541e-05 4.31854e-07
-4.98541e-05 9.15517e-05 -2.07457e-08
4.31854e-07 -2.07457e-08 -8.26472e-06
0.00190609 -0.000185927 -2.68983e-06
-0.000185927 0.000134564 3.44298e-07
-2.68983e-06 3.44298e-07 1.16649e-05
0.00201168 -0.000127854 2.51719e-06
-0.000127854 6.61974e-05 -4.26351e-07
2.51719e-06 -4.26351e-07 9.78389e-06
0.00198058 -0.000279861 -1.11585e-06
-0.000279861 8.38731e-05 4.82919e-07
-1.11585e-06 4.82919e-07 -2.10174e-05
0.000750665 -0.000244946 7.8109e-07
-0.000244946 8.36669e-05 -3.36301e-07
7.8109e-07 -3.36301e-07 -0.000151438
0.0013926 -0.000459746 -8.37746e-07
-0.000459746 0.000296301 -2.95601e-07
-8.37746e-07 -2.95601e-07 -4.26102e-05
0.00181334 -0.000627366 6.27514e-07
-0.000627366 0.000323027 9.16533e-07
6.27514e-07 9.16533e-07 -5.47203e-05
0.00188278 -0.000410043 -1.28341e-06
-0.000410043 9.71017e-05 1.0113e-06
-1.28341e-06 1.0113e-06 -7.84121e-05
0.00213165 -0.000379385 8.17976e-07
-0.000379385 0.000134647 -4.17642e-07
8.17976e-07 -4.17642e-07 4.25727e-05
0.0021259 -0.000599916 -2.64565e-07
-0.000599916 0.000350559 4.76375e-07
-2.64565e-07 4.76375e-07 6.21132e-05
0.00198773 -0.000491567 -2.31168e-07
-0.000491567 0.000155585 6.90792e-07
-2.31168e-07 6.90792e-07 -2.72037e-05
0.00221552 -0.000548049 5.6521e-07
-0.000548049 0.000356254 -6.02974e-07
5.6521e-07 -6.02974e-07 0.000148868
0.0010554 -0.000296915 -6.90903e-07
-0.000296915 0.000240981 9.68601e-07
-6.90903e-07 9.68601e-07 -2.75542e-05
0.00124369 -0.000344667 -1.07903e-06
-0.000344667 0.000367068 2.2266e-06
-1.07903e-06 2.2266e-06 6.21892e-05
0.00067512 -0.000127357 -2.1163e-07
-0.000127357 0.000149164 -6.51871e-07
-2.1163e-07 -6.51871e-07 -3.37889e-05
9.26177e-05 -0.000115483 1.26069e-06
-0.000115483 -0.000212427 -2.52316e-06
1.26069e-06 -2.52316e-06 -0.000508785
0.00202217 -6.69634e-05 5.18341e-06
-6.69634e-05 7.40277e-05 -5.79976e-07
5.18341e-06 -5.79976e-07 2.78999e-05
0.0019542 -0.000209736 3.83044e-06
-0.000209736 3.08669e-05 -1.13686e-06
3.83044e-06 -1.13686e-06 -5.05109e-05
0.00199766 -0.000120188 6.76572e-06
-0.000120188 4.7357e-05 -1.1713e-06
6.76572e-06 -1.1713e-06 2.85467e-05
0.00206421 -0.000306311 1.49587e-06
-0.000306311 3.94935e-05 -6.77739e-07
1.49587e-06 -6.77739e-07 -5.84503e-06
0.00194838 -0.000440575 -5.92282e-07
-0.000440575 8.20473e-05 -9.93897e-08
-5.92282e-07 -9.93897e-08 -5.93863e-05
0.00210418 -0.000392244 4.23426e-06
-0.000392244 8.06232e-05 -1.50883e-06
4.23426e-06 -1.50883e-06 8.20907e-06
0.00134092 -0.000391382 5.99737e-06
-0.000391382 0.000373736 -5.48465e-06
5.99737e-06 -5.48465e-06 6.43907e-05
0.00200685 -0.00052253 -2.99949e-06
-0.00052253 0.000143131 -3.69347e-08
-2.99949e-06 -3.69347e-08 -1.97784e-05
0.00160198 -0.000628265 -4.18199e-06
-0.000628265 0.000355337 3.48752e-06
-4.18199e-06 3.48752e-06 -5.89727e-05
0.00204484 -0.000696997 4.84979e-06
-0.000696997 0.000404339 2.9577e-06
4.84979e-06 2.9577e-06 1.88454e-05
0.00207842 -0.000608323 -2.58726e-07
-0.000608323 0.000277535 4.12786e-06
-2.58726e-07 4.12786e-06 -1.97614e-06
0.00229385 -0.000583457 -1.15253e-05
-0.000583457 0.000375182 -1.98206e-06
-1.15253e-05 -1.98206e-06 0.000157137
0.00048436 -0.000114448 -1.38486e-06
-0.000114448 2.55336e-05 -6.90263e-06
-1.38486e-06 -6.90263e-06 -0.000115892
-9.91132e-06 -0.000139763 -4.26981e-06
-0.000139763 -0.000189254 -1.33642e-06
-4.26981e-06 -1.33642e-06 -0.000495527
0.00138851 -0.000423741 -7.2747e-07
-0.000423741 0.000430312 -3.44e-06
-7.2747e-07 -3.44e-06 9.78732e-05
0.00275329 -0.000446785 -4.72354e-06
-0.000446785 0.00139664 1.12741e-05
-4.72354e-06 1.12741e-05 0.00105876
0.00167326 -0.000439287 -1.20391e-05
-0.000439287 0.000638496 8.67249e-06
-1.20391e-05 8.67249e-06 0.000278749
0.000315423 -4.16483e-05 -6.30062e-07
-4.16483e-05 -0.00010271 -9.64373e-06
-6.30062e-07 -9.64373e-06 -0.000150251
0.00190657 0.000372488 -2.91992e-06
0.000372488 0.000177004 -2.57318e-07
-2.91992e-06 -2.57318e-07 -2.77415e-05
0.000215312 3.98848e-05 -1.18978e-06
3.98848e-05 -0.000162863 -6.45753e-06
-1.18978e-06 -6.45753e-06 -0.000305805
0.000410347 0.000200487 -6.75705e-06
0.000200487 -8.40905e-05 -8.22706e-07
-6.75705e-06 -8.22706e-07 -0.000299025
0.000608538 0.000166828 -1.31295e-06
0.000166828 6.86252e-05 1.27623e-06
-1.31295e-06 1.27623e-06 -0.000182268
0.0017699 0.000461573 -4.79451e-06
0.000461573 0.00022577 5.29205e-08
-4.79451e-06 5.29205e-08 -4.65656e-05
0.00202826 0.000484996 1.12253e-06
0.000484996 0.000226349 1.77718e-06
1.12253e-06 1.77718e-06 1.90943e-06
0.00142482 0.000374698 -2.75951e-06
0.000374698 0.000425829 -3.48656e-06
-2.75951e-06 -3.48656e-06 0.000135703
0.00144697 0.000550453 2.02003e-07
0.000550453 0.000240164 3.45191e-06
2.02003e-07 3.45191e-06 -0.00014159
0.00200925 0.000574832 2.11241e-06
0.000574832 0.000372639 3.53588e-06
2.11241e-06 3.53588e-06 6.94146e-05
0.00197483 0.00058506 3.89868e-06
0.00058506 0.000356634 9.7369e-06
3.89868e-06 9.7369e-06 4.98619e-05
0.000457872 -1.98628e-05 -9.24964e-07
-1.98628e-05 -2.99974e-05 3.02247e-07
-9.24964e-07 3.02247e-07 -6.53706e-05
0.000598973 4.59e-05 2.79977e-07
4.59e-05 7.54944e-05 3.65554e-07
2.79977e-07 3.65554e-07 -3.75795e-05
0.000942445 0.000271107 9.70743e-07
0.000271107 0.000181949 1.68962e-06
9.70743e-07 1.68962e-06 -6.1067e-05
0.00065449 0.000115252 6.43029e-07
0.000115252 0.000172565 -1.17627e-06
6.43029e-07 -1.17627e-06 -8.45437e-05
0.000616158 0.000242047 -2.17727e-06
0.000242047 -7.32252e-06 3.09136e-06
-2.17727e-06 3.09136e-06 -0.000230921
0.00210275 0.000437399 -1.70165e-06
0.000437399 0.00019864 -1.87162e-06
-1.70165e-06 -1.87162e-06 1.44829e-05
0.00201811 0.000547432 5.69141e-07
0.000547432 0.000285982 1.2497e-07
5.69141e-07 1.2497e-07 1.71371e-05
0.00201352 0.00053119 1.67591e-06
0.00053119 0.000194603 1.64381e-07
1.67591e-06 1.64381e-07 -2.47184e-05
0.00138898 0.000494786 2.20347e-06
0.000494786 0.000365563 1.51706e-07
2.20347e-06 1.51706e-07 -6.46796e-06
0.00219405 0.000645723 2.39954e-06
0.000645723 0.000406887 3.79853e-07
2.39954e-06 3.79853e-07 0.000101961
0.00197205 0.000645657 -3.36736e-06
0.000645657 0.000509761 -3.58281e-08
-3.36736e-06 -3.58281e-08 0.000131053
0.000659963 4.48706e-05 7.2591e-07
4.48706e-05 0.000114268 5.48225e-06
7.2591e-07 5.48225e-06 2.04199e-05
0.00146771 0.000179939 1.52698e-07
0.000179939 0.000681506 2.83779e-06
1.52698e-07 2.83779e-06 0.000473422
0.000997212 0.00035997 -1.56803e-06
0.00035997 0.000192485 5.53463e-06
-1.56803e-06 5.53463e-06 -9.39393e-05
0.00118346 0.00015972 6.00297e-06
0.00015972 0.000456738 -3.15881e-06
6.00297e-06 -3.15881e-06 0.000183573
0.00265289 0.0003688 -4.52723e-06
0.0003688 0.00117274 4.83153e-07
-4.52723e-06 4.83153e-07 0.000931069
0.00207577 0.000460152 -3.87222e-06
0.000460152 0.000156493 -2.2616e-06
-3.87222e-06 -2.2616e-06 -1.43048e-05
0.00206177 0.000599979 -1.71442e-06
0.000599979 0.000276541 -8.38699e-07
-1.71442e-06 -8.38699e-07 9.54027e-06
0.00193989 0.000578126 5.33841e-06
0.000578126 0.000107356 -6.58317e-08
5.33841e-06 -6.58317e-08 -0.000120194
0.00121702 0.000557878 9.14098e-06
0.000557878 0.00027463 -3.49942e-06
9.14098e-06 -3.49942e-06 -0.000140334
0.00160875 0.000635865 1.12063e-05
0.000635865 0.000176613 -1.39295e-06
1.12063e-05 -1.39295e-06 -0.000165939
0.000573667 3.91709e-05 -3.78166e-07
3.91709e-05 5.736e-05 2.13147e-07
-3.78166e-07 2.13147e-07 -2.34187e-05
0.000325562 6.18395e-05 3.21849e-07
6.18395e-05 -7.56906e-05 2.94758e-06
3.21849e-07 2.94758e-06 -0.000196732
0.000343592 5.90734e-05 -5.48337e-07
5.90734e-05 -5.9638e-05 -2.63213e-07
-5.48337e-07 -2.63213e-07 -0.000174773
0.00103105 0.000159657 -1.78822e-06
0.000159657 0.000393779 -1.01697e-06
-1.78822e-06 -1.01697e-06 0.000245278
0.000701298 0.000118719 1.39334e-06
0.000118719 0.000186118 2.8316e-06
1.39334e-06 2.8316e-06 5.97243e-05
0.000544433 6.5525e-05 2.37199e-06
6.5525e-05 5.64393e-05 3.88016e-06
2.37199e-06 3.88016e-06 -1.60841e-05
0.000527286 1.67884e-05 -6.99672e-07
1.67884e-05 4.01922e-05 -5.73392e-08
-6.99672e-07 -5.73392e-08 -3.32922e-05
0.00130217 -1.96438e-05 1.35389e-06
-1.96438e-05 0.000493195 3.79799e-06
1.35389e-06 3.79799e-06 0.000473276
0.000548167 2.77917e-05 -1.39531e-06
2.77917e-05 4.2364e-05 -4.77098e-06
-1.39531e-06 -4.77098e-06 -3.09621e-05
0.00136103 -2.90338e-05 -8.40498e-06
-2.90338e-05 0.000530423 -1.60944e-06
-8.40498e-06 -1.60944e-06 0.000508819
0.000790254 -3.54008e-05 3.39295e-05
-3.54008e-05 0.000169605 9.31513e-06
3.39295e-05 9.31513e-06 0.000171972
0.00139287 -3.62274e-05 -1.51326e-05
-3.62274e-05 0.000554415 -5.68129e-06
-1.51326e-05 -5.68129e-06 0.00052981
0.00174257 -7.56999e-05 3.35076e-05
-7.56999e-05 0.000781934 1.48249e-06
3.35076e-05 1.48249e-06 0.000782354
0.00275043 -0.000121145 -3.95972e-05
-0.000121145 0.00142936 -4.38901e-06
-3.95972e-05 -4.38901e-06 0.00142832
0.00030551 7.85615e-05 -6.5456e-06
7.85615e-05 -7.96933e-05 -9.78603e-06
-6.5456e-06 -9.78603e-06 -0.000139141
0.000424473 -4.49597e-05 -6.91172e-07
-4.49597e-05 -2.95331e-05 6.41646e-07
-6.91172e-07 6.41646e-07 -9.55319e-05
0.00363898 0.000187243 1.53357e-05
0.000187243 0.00202007 -7.31791e-06
1.53357e-05 -7.31791e-06 0.00199626
0.00467875 0.000134138 -1.59791e-05
0.000134138 0.00267778 -1.49652e-06
-1.59791e-05 -1.49652e-06 0.00266614
0.000555496 -0.00011089 -1.69796e-05
-0.00011089 2.81089e-05 1.38594e-05
-1.69796e-05 1.38594e-05 -5.45601e-05
0.00555147 0.000134708 -0.000186083
0.000134708 0.00323136 2.24722e-05
-0.000186083 2.24722e-05 0.00321529
0.00192415 0.000315385 -1.79312e-06
0.000315385 0.000146608 1.14759e-06
-1.79312e-06 1.14759e-06 -2.54959e-05
0.00186897 0.00017652 -9.38098e-07
0.00017652 8.67437e-05 9.24475e-07
-9.38098e-07 9.24475e-07 -3.34044e-05
0.00205795 0.000283093 -2.26241e-06
0.000283093 0.000107887 7.06335e-07
-2.26241e-06 7.06335e-07 2.67542e-06
0.00201319 0.000133157 -3.68466e-06
0.000133157 3.71699e-05 -4.73032e-07
-3.68466e-06 -4.73032e-07 -7.98665e-06
0.0018492 5.49907e-05 -1.25232e-06
5.49907e-05 8.27882e-05 4.97806e-07
-1.25232e-06 4.97806e-07 -1.19535e-05
0.00104154 4.91464e-06 -1.10728e-05
4.91464e-06 -7.1122e-05 9.70918e-08
-1.10728e-05 9.70918e-08 -0.000198011
0.00182743 2.65519e-06 8.19394e-08
2.65519e-06 7.23945e-05 1.73329e-07
8.19394e-08 1.73329e-07 -2.08574e-05
0.00199657 5.62039e-05 -6.52863e-07
5.62039e-05 3.98201e-05 8.06355e-09
-6.52863e-07 8.06355e-09 2.29705e-06
0.00202905 0.000205102 -2.76911e-07
0.000205102 6.95147e-05 3.37899e-07
-2.76911e-07 3.37899e-07 -1.76828e-06
0.00200425 0.000123486 2.37394e-07
0.000123486 8.07685e-06 -4.176e-08
2.37394e-07 -4.176e-08 -6.22306e-06
0.00210817 0.000373386 -4.2551e-07
0.000373386 0.00015681 6.41478e-08
-4.2551e-07 6.41478e-08 1.1566e-05
0.00206286 0.000289308 1.74236e-07
0.000289308 2.04529e-05 1.6227e-07
1.74236e-07 1.6227e-07 -3.54669e-05
0.00198838 -5.57284e-06 4.3013e-06
-5.57284e-06 4.1972e-05 -3.33845e-09
4.3013e-06 -3.33845e-09 2.37863e-06
0.00200685 5.36398e-05 5.42067e-06
5.36398e-05 2.79502e-05 1.69466e-07
5.42067e-06 1.69466e-07 2.05209e-05
0.00206092 0.000200008 2.7577e-06
0.000200008 1.86692e-05 4.99148e-07
2.7577e-06 4.99148e-07 -4.8005e-06
0.00208965 0.000127206 2.31233e-06
0.000127206 4.43722e-06 2.57942e-07
2.31233e-06 2.57942e-07 1.44031e-05
0.00198885 0.000364676 1.15508e-06
0.000364676 3.43562e-05 2.79721e-07
1.15508e-06 2.79721e-07 -8.07761e-05
0.00224446 0.000296049 3.06915e-06
0.000296049 6.50751e-05 9.46418e-07
3.06915e-06 9.46418e-07 4.49118e-05
0.00187329 -4.67267e-05 -1.88509e-06
-4.67267e-05 0.000106045 -2.75379e-07
-1.88509e-06 -2.75379e-07 9.81837e-06
0.0018628 -0.000190667 -3.41259e-06
-0.000190667 0.000105159 -1.10306e-08
-3.41259e-06 -1.10306e-08 -1.90455e-05
0.00200409 -0.000125861 -1.34899e-06
-0.000125861 5.54891e-05 3.65994e-07
-1.34899e-06 3.65994e-07 4.97751e-06
0.00196434 -0.000271924 -2.93471e-06
-0.000271924 7.84657e-05 6.29495e-07
-2.93471e-06 6.29495e-07 -2.85523e-05
0.000744265 -0.000243177 -9.55089e-06
-0.000243177 7.55977e-05 8.42039e-06
-9.55089e-06 8.42039e-06 -0.000160978
0.00134757 -0.000454517 -8.72485e-06
-0.000454517 0.000265161 2.10105e-06
-8.72485e-06 2.10105e-06 -7.14311e-05
0.00162912 -0.000605279 1.73504e-06
-0.000605279 0.000228004 -1.97186e-06
1.73504e-06 -1.97186e-06 -0.000149153
0.00187396 -0.000406719 -1.52352e-06
-0.000406719 9.78044e-05 1.65685e-07
-1.52352e-06 1.65685e-07 -8.32114e-05
0.00207113 -0.000379886 -1.47941e-06
-0.000379886 8.74838e-05 4.89481e-07
-1.47941e-06 4.89481e-07 -2.27159e-07
0.00200257 -0.000491656 -2.71962e-07
-0.000491656 0.000164003 -7.15959e-09
-2.71962e-07 -7.15959e-09 -1.90241e-05
0.00200413 -0.000601024 -3.27524e-06
-0.000601024 0.000263384 -3.50411e-06
-3.27524e-06 -3.50411e-06 -2.81822e-05
0.00209807 -0.000535596 8.35301e-06
-0.000535596 0.000280204 -4.2301e-06
8.35301e-06 -4.2301e-06 7.7485e-05
0.00084756 -0.000275437 -6.73906e-07
-0.000275437 0.000121733 2.66237e-06
-6.73906e-07 2.66237e-06 -0.000150548
0.000779437 -0.000273815 2.82366e-06
-0.000273815 4.62225e-05 -1.03882e-06
2.82366e-06 -1.03882e-06 -0.000239524
0.000973639 -0.00013603 -4.89843e-07
-0.00013603 0.00033098 5.48851e-06
-4.89843e-07 5.48851e-06 0.000144479
-0.000260356 -7.34812e-05 1.80569e-06
-7.34812e-05 -0.000452836 -6.81407e-06
1.80569e-06 -6.81407e-06 -0.000724992
0.0020218 -6.67808e-05 -2.31521e-07
-6.67808e-05 7.44483e-05 9.7936e-08
-2.31521e-07 9.7936e-08 2.83461e-05
0.00198089 -0.000210174 3.01871e-06
-0.000210174 5.47193e-05 -9.18291e-07
3.01871e-06 -9.18291e-07 -2.75414e-05
0.00197126 -0.000118815 9.01058e-07
-0.000118815 2.5663e-05 -1.39242e-07
9.01058e-07 -1.39242e-07 7.93664e-06
0.00207211 -0.000305705 -8.41595e-07
-0.000305705 5.12104e-05 2.34706e-07
-8.41595e-07 2.34706e-07 7.51382e-07
0.00117069 -0.000361629 -2.7954e-06
-0.000361629 0.000251756 1.85905e-08
-2.7954e-06 1.85905e-08 -4.71913e-05
0.00151648 -0.000606566 1.67037e-06
-0.000606566 0.000315819 -4.03817e-07
1.67037e-06 -4.03817e-07 -9.2111e-05
0.00196214 -0.000701271 -3.58799e-07
-0.000701271 0.000351208 3.83802e-07
-3.58799e-07 3.83802e-07 -4.0349e-05
0.00195159 -0.00043634 -1.24903e-06
-0.00043634 9.13275e-05 5.68315e-07
-1.24903e-06 5.68315e-07 -5.40869e-05
0.00207123 -0.000392057 1.11061e-06
-0.000392057 6.07206e-05 -2.44927e-07
1.11061e-06 -2.44927e-07 -7.66497e-06
0.0020635 -0.000610197 -3.14334e-07
-0.000610197 0.000293861 3.74984e-07
-3.14334e-07 3.74984e-07 1.2425e-05
0.0019586 -0.000521058 -8.96695e-07
-0.000521058 0.000107092 9.84685e-07
-8.96695e-07 9.84685e-07 -5.66808e-05
0.00218482 -0.000570066 3.55632e-06
-0.000570066 0.000301795 -4.65216e-06
3.55632e-06 -4.65216e-06 9.07838e-05
0.00135 -0.000418037 -1.14807e-06
-0.000418037 0.000406709 -7.68845e-07
-1.14807e-06 -7.68845e-07 7.66563e-05
0.00151872 -0.000420213 -1.29121e-06
-0.000420213 0.000522653 1.48967e-06
-1.29121e-06 1.48967e-06 0.00017223
0.00108875 -0.000293969 1.21004e-06
-0.000293969 0.000341749 -1.22749e-07
1.21004e-06 -1.22749e-07 2.86998e-05
0.000292722 -8.54334e-05 -2.32143e-06
-8.54334e-05 -9.60725e-05 9.8491e-07
-2.32143e-06 9.8491e-07 -0.000238257
-3.57743e-05 -8.95061e-05 -9.05442e-07
-8.95061e-05 -0.000227125 -1.00379e-06
-9.05442e-07 -1.00379e-06 -0.000512062
0.00194383 -6.56076e-05 4.75913e-06
-6.56076e-05 -9.98881e-06 -2.88117e-07
4.75913e-06 -2.88117e-07 -1.51837e-05
0.00200007 -0.000183708 3.6648e-06
-0.000183708 1.01165e-07 -9.6773e-07
3.6648e-06 -9.6773e-07 -1.6971e-05
0.00212582 -0.000359299 7.61739e-07
-0.000359299 8.72377e-06 -4.50859e-07
7.61739e-07 -4.50859e-07 -1.61331e-05
0.00209253 -0.000459172 1.93809e-06
-0.000459172 9.66878e-05 -1.98791e-06
1.93809e-06 -1.98791e-06 6.88805e-06
0.00143246 -0.000509726 -8.74771e-07
-0.000509726 0.000400279 -5.72432e-07
-8.74771e-07 -5.72432e-07 1.94439e-05
0.00224055 -0.000628145 -6.54806e-06
-0.000628145 0.000189018 -5.30654e-06
-6.54806e-06 -5.30654e-06 1.10956e-06
0.00125978 -0.000666413 -1.81411e-05
-0.000666413 0.000144436 7.06354e-06
-1.81411e-05 7.06354e-06 -0.000294078
0.00208978 -0.000764776 7.61311e-07
-0.000764776 0.000390957 7.37524e-07
7.61311e-07 7.37524e-07 -1.35918e-05
0.00189578 -0.000576485 -1.63962e-05
-0.000576485 0.000188018 7.93577e-07
-1.63962e-05 7.93577e-07 -7.70451e-05
4.65057e-05 -1.25215e-05 -2.93104e-06
-1.25215e-05 -0.000236355 -6.11062e-06
-2.93104e-06 -6.11062e-06 -0.000347398
0.000838212 -0.000161759 -2.66168e-06
-0.000161759 0.000332577 -1.09579e-06
-2.66168e-06 -1.09579e-06 8.125e-05
0.00100269 -0.000225191 -2.02161e-06
-0.000225191 0.000403708 -4.5778e-06
-2.02161e-06 -4.5778e-06 0.000106595
0.00170004 -0.000513073 -1.11037e-05
-0.000513073 0.000611667 4.63954e-06
-1.11037e-05 4.63954e-06 0.000227335
0.00212366 -0.000377654 -3.91079e-06
-0.000377654 0.000936942 1.24233e-05
-3.91079e-06 1.24233e-05 0.000604007
0.000792509 -0.000388303 -1.32844e-05
-0.000388303 3.78081e-05 1.74623e-05
-1.32844e-05 1.74623e-05 -0.000322098
0.000396153 -1.76802e-05 -2.32139e-06
-1.76802e-05 -6.83124e-05 -7.78591e-06
-2.32139e-06 -7.78591e-06 -0.000102998
0.000487904 3.31141e-05 -3.38655e-07
3.31141e-05 1.1763e-05 -6.96554e-06
-3.38655e-07 -6.96554e-06 -9.95405e-05
0.00207724 0.000436078 -2.28574e-06
0.000436078 0.000183161 -3.90112e-07
-2.28574e-06 -3.90112e-07 -8.11523e-07
-3.95874e-05 2.98141e-05 2.33466e-07
2.98141e-05 -0.000266055 -1.97943e-06
2.33466e-07 -1.97943e-06 -0.000514781
0.00116016 0.000286703 -9.36504e-07
0.000286703 0.000317192 3.24626e-08
-9.36504e-07 3.24626e-08 8.0355e-05
0.000213215 0.00016714 -4.48854e-06
0.00016714 -0.000289561 1.92838e-06
-4.48854e-06 1.92838e-06 -0.000490144
0.00197803 0.00054324 1.81993e-06
0.00054324 0.000264562 1.70945e-06
1.81993e-06 1.70945e-06 -3.4211e-06
0.00196227 0.000528036 2.42922e-06
0.000528036 0.000164693 8.51538e-07
2.42922e-06 8.51538e-07 -5.44364e-05
0.00165186 0.000518431 -1.61408e-06
0.000518431 0.000542435 -1.88384e-07
-1.61408e-06 -1.88384e-07 0.000162368
0.0022541 0.000666943 -4.12923e-06
0.000666943 0.000692057 3.27602e-06
-4.12923e-06 3.27602e-06 0.000314541
0.00206604 0.000632058 1.22197e-06
0.000632058 0.000313843 2.64413e-06
1.22197e-06 2.64413e-06 9.51174e-06
0.000583605 3.98454e-05 -4.40497e-07
3.98454e-05 6.91818e-05 5.77139e-07
-4.40497e-07 5.77139e-07 -2.48665e-05
0.000769399 8.73125e-05 -1.22675e-06
8.73125e-05 0.000234766 1.19817e-07
-1.22675e-06 1.19817e-07 4.35772e-05
0.00123033 0.000387275 1.05665e-06
0.000387275 0.000328325 1.78395e-06
1.05665e-06 1.78395e-06 3.62464e-05
0.000886862 0.00013508 2.45477e-06
0.00013508 0.000267803 -1.61259e-06
2.45477e-06 -1.61259e-06 -2.39028e-06
0.000610679 0.000202282 3.3717e-06
0.000202282 -0.000115719 -1.46621e-06
3.3717e-06 -1.46621e-06 -0.000323348
0.00203741 0.000459971 -2.34873e-06
0.000459971 0.000137954 -1.57093e-06
-2.34873e-06 -1.57093e-06 -3.36974e-05
0.00208785 0.000602052 1.95894e-06
0.000602052 0.000289719 5.86648e-07
1.95894e-06 5.86648e-07 2.22712e-05
0.00200024 0.000578835 1.09538e-06
0.000578835 0.000141082 2.56853e-07
1.09538e-06 2.56853e-07 -8.54322e-05
0.00137745 0.000586707 2.27166e-06
0.000586707 0.000355962 7.45943e-07
2.27166e-06 7.45943e-07 -6.1353e-05
0.00178624 0.000658346 -2.20605e-06
0.000658346 0.000298877 -2.02371e-06
-2.20605e-06 -2.02371e-06 -5.1792e-05
0.00110344 0.000131562 1.33931e-06
0.000131562 0.000430562 3.33038e-06
1.33931e-06 3.33038e-06 0.000280151
-0.000170876 -1.16615e-06 -2.26784e-06
-1.16615e-06 -0.000294465 1.28198e-06
-2.26784e-06 1.28198e-06 -0.000552416
0.00144832 0.000466331 -2.18902e-06
0.000466331 0.000458157 -3.03779e-06
-2.18902e-06 -3.03779e-06 0.000111777
-0.000660587 0.000116693 5.69963e-06
0.000116693 -0.000810669 -1.22787e-06
5.69963e-06 -1.22787e-06 -0.00103512
0.00266608 0.000518616 -3.54154e-06
0.000518616 0.00112237 -3.75913e-06
-3.54154e-06 -3.75913e-06 0.000836298
0.00200712 0.000498384 8.86012e-07
0.000498384 3.15569e-05 -1.25726e-07
8.86012e-07 -1.25726e-07 -0.000113537
0.00214759 0.000663241 9.15136e-06
0.000663241 0.000291343 -1.84197e-06
9.15136e-06 -1.84197e-06 -3.43773e-06
0.00204568 0.000612479 1.02054e-05
0.000612479 0.000135369 1.79541e-06
1.02054e-05 1.79541e-06 -0.000108703
0.00138907 0.000613968 9.71245e-06
0.000613968 0.000310392 6.65726e-07
9.71245e-06 6.65726e-07 -0.00010326
0.00206558 0.000753602 3.34076e-06
0.000753602 0.000476126 -2.71545e-07
3.34076e-06 -2.71545e-07 9.08212e-05
0.000525736 3.11322e-05 -1.69823e-06
3.11322e-05 2.53968e-05 -4.971e-06
-1.69823e-06 -4.971e-06 -5.38635e-05
0.000524404 7.76594e-05 1.31743e-06
7.76594e-05 5.36323e-05 3.63512e-07
1.31743e-06 3.63512e-07 -7.09028e-05
0.000255578 6.21735e-05 -3.73182e-07
6.21735e-05 -0.000120161 1.56042e-06
-3.73182e-07 1.56042e-06 -0.000235536
8.59694e-05 -2.05454e-05 1.77863e-07
-2.05454e-05 -0.000214084 -3.54383e-06
1.77863e-07 -3.54383e-06 -0.000330263
0.000590859 6.624e-05 -3.09019e-07
6.624e-05 0.000116244 4.61356e-08
-3.09019e-07 4.61356e-08 -6.91905e-06
0.000549503 9.61596e-05 -6.66244e-07
9.61596e-05 7.94921e-05 -3.28629e-08
-6.66244e-07 -3.28629e-08 -4.92725e-05
0.000772302 0.000142007 -3.24478e-06
0.000142007 0.000235874 -4.19115e-06
-3.24478e-06 -4.19115e-06 0.000105523
0.000228149 1.99021e-05 -1.07885e-06
1.99021e-05 -0.000107739 -2.82015e-07
-1.07885e-06 -2.82015e-07 -0.000247425
0.000685441 0.000100899 3.50033e-07
0.000100899 0.000166356 2.82416e-06
3.50033e-07 2.82416e-06 5.36832e-05
0.000560643 7.29189e-05 3.14716e-06
7.29189e-05 6.97407e-05 3.77902e-06
3.14716e-06 3.77902e-06 -4.40637e-06
0.000520297 2.44338e-05 -2.54689e-06
2.44338e-05 3.95752e-05 3.25418e-08
-2.54689e-06 3.25418e-08 -3.15458e-05
0.00125934 -4.03234e-06 1.85735e-06
-4.03234e-06 0.0004692 3.3416e-06
1.85735e-06 3.3416e-06 0.000451137
0.000412898 -6.6157e-05 2.79995e-06
-6.6157e-05 -2.32654e-05 -4.2561e-06
2.79995e-06 -4.2561e-06 -0.000100807
0.00132598 -1.41589e-05 -7.25902e-06
-1.41589e-05 0.000507801 -1.67789e-06
-7.25902e-06 -1.67789e-06 0.000489048
0.000738184 -2.53351e-05 2.94563e-05
-2.53351e-05 0.00013493 9.39955e-06
2.94563e-05 9.39955e-06 0.000139523
0.00138363 -2.52525e-05 -1.3347e-05
-2.52525e-05 0.000544033 -7.43202e-06
-1.3347e-05 -7.43202e-06 0.000523303
0.000762667 -4.02469e-05 1.19356e-05
-4.02469e-05 0.000152048 3.48152e-06
1.19356e-05 3.48152e-06 0.000152165
0.00259823 -0.000115075 -1.61542e-06
-0.000115075 0.00132511 -2.94256e-06
-1.61542e-06 -2.94256e-06 0.00132484
0.000299711 6.29905e-05 -4.36143e-06
6.29905e-05 -9.89006e-05 -6.18835e-06
-4.36143e-06 -6.18835e-06 -0.000139508
0.000413271 1.10839e-05 -3.52608e-06
1.10839e-05 -3.17745e-05 2.32184e-07
-3.52608e-06 2.32184e-07 -8.22638e-05
0.0030421 0.000156533 2.43198e-06
0.000156533 0.00163574 -6.64638e-06
2.43198e-06 -6.64638e-06 0.00162211
0.000516043 -7.66746e-05 -1.15188e-05
-7.66746e-05 1.94351e-05 1.20773e-05
-1.15188e-05 1.20773e-05 -4.6558e-05
0.00396106 0.000141313 -3.52631e-05
0.000141313 0.00221527 -1.94112e-07
-3.52631e-05 -1.94112e-07 0.00220361
0.00491788 0.000107059 -0.000166941
0.000107059 0.00282132 1.81342e-05
-0.000166941 1.81342e-05 0.00281545
0.00207354 0.000373613 -2.18218e-06
0.000373613 0.000128832 1.12325e-06
-2.18218e-06 1.12325e-06 -1.65959e-05
0.00206041 0.000204878 -2.91264e-06
0.000204878 8.86618e-05 2.40359e-08
-2.91264e-06 2.40359e-08 1.75101e-05
0.00205966 0.000282414 -1.37839e-06
0.000282414 2.10418e-05 -1.09528e-07
-1.37839e-06 -1.09528e-07 -3.4566e-05
0.00198601 0.000122346 -2.79824e-06
0.000122346 -9.38553e-06 -3.58858e-07
-2.79824e-06 -3.58858e-07 -1.83571e-05
0.00198884 4.89713e-05 -5.05726e-06
4.89713e-05 3.70348e-05 -1.29874e-07
-5.05726e-06 -1.29874e-07 -7.19941e-07
0.00183701 5.33072e-06 -1.42193e-06
5.33072e-06 7.82208e-05 2.36682e-07
-1.42193e-06 2.36682e-07 -1.50457e-05
0.00199983 -6.3406e-06 -1.95699e-07
-6.3406e-06 5.36166e-05 5.57155e-09
-1.95699e-07 5.57155e-09 1.27612e-05
0.00201008 5.41848e-05 1.2632e-06
5.41848e-05 3.36486e-05 3.30476e-08
1.2632e-06 3.30476e-08 2.25543e-05
0.00206461 0.000197336 -8.33643e-08
0.000197336 2.46795e-05 1.06368e-08
-8.33643e-08 1.06368e-08 2.62771e-06
0.0020672 0.000128401 6.3618e-07
0.000128401 -1.49453e-05 1.66098e-07
6.3618e-07 1.66098e-07 1.02085e-06
0.00205046 0.000367193 -6.07198e-07
0.000367193 8.35503e-05 2.92659e-07
-6.07198e-07 2.92659e-07 -3.34728e-05
0.0021714 0.000296221 2.81058e-06
0.000296221 1.76199e-05 3.33157e-07
2.81058e-06 3.33157e-07 4.28676e-06
0.00196132 -1.21706e-05 4.7032e-06
-1.21706e-05 8.83794e-06 1.51093e-07
4.7032e-06 1.51093e-07 -4.06228e-06
0.00207397 6.12889e-05 6.36059e-07
6.12889e-05 -1.47927e-05 -1.46671e-07
6.36059e-07 -1.46671e-07 9.9213e-06
0.00214149 0.000197009 1.56599e-07
0.000197009 -1.10526e-05 -2.25792e-08
1.56599e-07 -2.25792e-08 3.06701e-06
0.00216994 0.000400643 -5.39518e-08
0.000400643 2.29259e-05 8.05107e-07
-5.39518e-08 8.05107e-07 -1.86777e-05
0.00202165 -6.66409e-05 -5.46665e-06
-6.66409e-05 7.45298e-05 7.22522e-07
-5.46665e-06 7.22522e-07 2.84307e-05
0.00200602 -0.000211305 -3.97286e-07
-0.000211305 7.77776e-05 -3.28257e-07
-3.97286e-07 -3.28257e-07 -5.38878e-06
0.00194234 -0.000117559 -4.99412e-06
-0.000117559 2.62846e-06 1.18857e-06
-4.99412e-06 1.18857e-06 -1.42284e-05
0.00208528 -0.000305487 -5.35244e-06
-0.000305487 6.45728e-05 1.22345e-06
-5.35244e-06 1.22345e-06 9.11729e-06
0.00096102 -0.000347666 -6.69236e-06
-0.000347666 0.000111765 2.97862e-06
-6.69236e-06 2.97862e-06 -0.000186199
0.00151327 -0.000595474 9.61434e-06
-0.000595474 0.000321356 -3.60833e-06
9.61434e-06 -3.60833e-06 -8.22841e-05
0.00197741 -0.000715664 -2.73e-06
-0.000715664 0.000357325 -2.52334e-06
-2.73e-06 -2.52334e-06 -4.26345e-05
0.0019664 -0.000433247 -3.10317e-06
-0.000433247 0.000107269 9.43102e-07
-3.10317e-06 9.43102e-07 -4.21265e-05
0.00204178 -0.000392593 -9.05489e-07
-0.000392593 4.31169e-05 1.13961e-06
-9.05489e-07 1.13961e-06 -2.11244e-05
0.00192797 -0.000522043 8.17591e-07
-0.000522043 7.84395e-05 1.89294e-06
8.17591e-07 1.89294e-06 -8.64981e-05
0.00201026 -0.000597221 -4.48536e-08
-0.000597221 0.000281319 -2.74282e-06
-4.48536e-08 -2.74282e-06 3.0579e-06
0.00211078 -0.000556106 1.61521e-05
-0.000556106 0.000240235 -6.02686e-06
1.61521e-05 -6.02686e-06 3.67057e-05
0.000922718 -0.000368627 -7.90466e-07
-0.000368627 0.000138454 1.02024e-06
-7.90466e-07 1.02024e-06 -0.000179358
0.00130066 -0.000403933 1.17109e-05
-0.000403933 0.000359442 -6.79779e-06
1.17109e-05 -6.79779e-06 1.79493e-05
-0.000222428 -0.000145154 2.14601e-06
-0.000145154 -0.000466348 -1.15554e-05
2.14601e-06 -1.15554e-05 -0.00076729
0.000103626 -7.14674e-05 4.17634e-07
-7.14674e-05 -0.000214565 5.62397e-06
4.17634e-07 5.62397e-06 -0.000358667
0.000232183 -5.05151e-05 4.48705e-06
-5.05151e-05 -7.31976e-05 5.60616e-07
4.48705e-06 5.60616e-07 -0.000345944
0.00193229 -7.38806e-05 4.49738e-08
-7.38806e-05 -1.99886e-05 -1.75044e-07
4.49738e-08 -1.75044e-07 -2.62124e-05
0.00204075 -0.000185401 1.28904e-06
-0.000185401 2.19945e-05 -3.78738e-08
1.28904e-06 -3.78738e-08 4.60803e-06
0.00212576 -0.000353153 -6.3351e-07
-0.000353153 2.47593e-05 7.95636e-08
-6.3351e-07 7.95636e-08 -4.4893e-06
0.0014272 -0.000511644 -1.36661e-06
-0.000511644 0.00039465 -7.38009e-07
-1.36661e-06 -7.38009e-07 1.37923e-05
0.00151139 -0.000678072 3.40824e-06
-0.000678072 0.000293134 -8.62388e-07
3.40824e-06 -8.62388e-07 -0.000144686
0.00211028 -0.00077266 -5.667e-08
-0.00077266 0.000410168 -2.43311e-07
-5.667e-08 -2.43311e-07 -4.68563e-07
0.00207133 -0.000455677 2.84007e-07
-0.000455677 8.63841e-05 2.00857e-07
2.84007e-07 2.00857e-07 -5.80241e-06
0.00210614 -0.000616124 1.76122e-06
-0.000616124 0.000285406 -3.67715e-06
1.76122e-06 -3.67715e-06 1.63792e-05
0.00216017 -0.000607483 -1.68468e-06
-0.000607483 0.000173286 -3.27035e-07
-1.68468e-06 -3.27035e-07 -9.50698e-06
6.01082e-05 4.35105e-05 -1.96545e-06
4.35105e-05 -0.000239048 -9.06931e-07
-1.96545e-06 -9.06931e-07 -0.000339924
0.00132617 -0.000468117 -6.03788e-08
-0.000468117 0.000371168 -1.93194e-06
-6.03788e-08 -1.93194e-06 3.96855e-07
0.00137241 -0.000459519 -2.25587e-06
-0.000459519 0.000412698 1.36088e-06
-2.25587e-06 1.36088e-06 3.24899e-05
0.00142065 -0.000346626 -1.10462e-06
-0.000346626 0.000533325 2.80812e-06
-1.10462e-06 2.80812e-06 0.000182965
0.00125036 -0.000240441 1.8023e-06
-0.000240441 0.000554029 -2.86238e-06
1.8023e-06 -2.86238e-06 0.000256508
0.000402197 -8.28346e-05 -9.45618e-07
-8.28346e-05 4.87865e-05 1.41424e-06
-9.45618e-07 1.41424e-06 -0.000190778
0.00204693 -9.59304e-05 1.68804e-06
-9.59304e-05 -1.39578e-05 3.5013e-08
1.68804e-06 3.5013e-08 2.99422e-06
0.00219965 -0.000246367 2.24991e-07
-0.000246367 -1.33242e-05 -5.19049e-09
2.24991e-07 -5.19049e-09 1.68632e-05
0.00220057 -0.000434445 8.87641e-07
-0.000434445 2.30964e-05 -3.98521e-07
8.87641e-07 -3.98521e-07 1.37598e-05
0.00224039 -0.00054428 1.81662e-06
-0.00054428 8.83719e-05 -2.67324e-06
1.81662e-06 -2.67324e-06 1.5769e-05
0.0016411 -0.000614447 -1.14308e-05
-0.000614447 0.000483052 5.61373e-06
-1.14308e-05 5.61373e-06 6.12608e-05
0.00224918 -0.000700214 -6.96673e-06
-0.000700214 0.000273651 -6.16984e-06
-6.96673e-06 -6.16984e-06 2.61147e-05
0.0018993 -0.000798126 -3.77324e-05
-0.000798126 0.000494542 5.75315e-06
-3.77324e-05 5.75315e-06 1.32196e-05
0.00235928 -0.000837599 -2.35193e-05
-0.000837599 0.000573074 4.71376e-08
-2.35193e-05 4.71376e-08 0.000140661
-2.67982e-05 5.3814e-05 -6.09192e-06
5.3814e-05 -0.000297071 -2.84687e-06
-6.09192e-06 -2.84687e-06 -0.000373926
0.000857588 -4.44618e-06 -2.92795e-06
-4.44618e-06 0.000319395 -1.02791e-06
-2.92795e-06 -1.02791e-06 0.000142259
0.00176581 -0.000267761 -5.77555e-06
-0.000267761 0.000919281 -7.20843e-07
-5.77555e-06 -7.20843e-07 0.00063652
0.000651695 -0.000139529 -2.54058e-07
-0.000139529 0.00013086 -5.9409e-06
-2.54058e-07 -5.9409e-06 -0.000180226
0.0025442 -0.00065069 -1.92464e-05
-0.00065069 0.00109758 1.285e-05
-1.92464e-05 1.285e-05 0.000669526
0.00155146 -0.000462548 -2.50193e-06
-0.000462548 0.000572425 2.31886e-05
-2.50193e-06 2.31886e-05 0.000141181
0.000535175 2.87853e-05 -1.2053e-06
2.87853e-05 3.99254e-05 -5.40995e-06
-1.2053e-06 -5.40995e-06 -5.29247e-05
-0.000148827 2.12247e-05 1.32521e-06
2.12247e-05 -0.000347199 -1.45413e-06
1.32521e-06 -1.45413e-06 -0.000519986
0.00199957 0.000460381 -1.73516e-06
0.000460381 0.000118048 -9.33117e-07
-1.73516e-06 -9.33117e-07 -5.46392e-05
0.000400505 9.03138e-05 -1.16908e-06
9.03138e-05 -5.18468e-05 1.98079e-06
-1.16908e-06 1.98079e-06 -0.000310331
0.0014639 0.000415102 -3.36135e-06
0.000415102 0.000464192 -4.746e-06
-3.36135e-06 -4.746e-06 0.000166994
-0.00123466 3.45615e-05 -4.32222e-06
3.45615e-05 -0.00128024 1.07253e-06
-4.32222e-06 1.07253e-06 -0.00144411
0.00210954 0.000604141 2.66863e-06
0.000604141 0.000298803 1.37463e-06
2.66863e-06 1.37463e-06 3.08358e-05
0.00203646 0.000577278 -6.76805e-06
0.000577278 0.000158733 -2.6541e-08
-6.76805e-06 -2.6541e-08 -6.63862e-05
0.00157405 0.000619667 -3.84012e-06
0.000619667 0.000459449 3.64243e-06
-3.84012e-06 3.64243e-06 3.78861e-05
0.00204498 0.000689446 -6.71939e-06
0.000689446 0.000472345 5.41597e-07
-6.71939e-06 5.41597e-07 0.000110488
0.000789563 9.03441e-05 -6.448e-07
9.03441e-05 0.000225156 1.2536e-07
-6.448e-07 1.2536e-07 8.65688e-05
0.000550888 8.05943e-05 1.16476e-06
8.05943e-05 0.000152891 2.23809e-07
1.16476e-06 2.23809e-07 -0.000120449
0.00130304 0.000444796 -3.24494e-06
0.000444796 0.000364277 -1.47681e-06
-3.24494e-06 -1.47681e-06 2.42129e-05
0.000323894 0.000154235 8.29315e-07
0.000154235 -0.000222333 -1.59109e-06
8.29315e-07 -1.59109e-06 -0.000447164
0.00184624 0.00041209 3.63131e-06
0.00041209 0.000592394 -1.47454e-06
3.63131e-06 -1.47454e-06 0.000331666
0.00216083 0.000512635 -2.59527e-06
0.000512635 0.000112613 -9.08684e-07
-2.59527e-06 -9.08684e-07 -3.25062e-05
0.00229163 0.000664458 2.80081e-06
0.000664458 0.000382692 -5.46417e-07
2.80081e-06 -5.46417e-07 9.39791e-05
0.00223357 0.000636301 2.25887e-06
0.000636301 0.00024035 2.79217e-06
2.25887e-06 2.79217e-06 -7.67877e-06
0.00147709 0.000628672 3.95678e-06
0.000628672 0.00036639 1.4032e-06
3.95678e-06 1.4032e-06 -5.24435e-05
0.00194476 0.000763327 -4.86573e-06
0.000763327 0.000405671 1.92018e-07
-4.86573e-06 1.92018e-07 8.42592e-06
-0.00077431 6.88277e-06 -3.71747e-06
6.88277e-06 -0.000736326 6.37853e-06
-3.71747e-06 6.37853e-06 -0.000871572
-0.000356769 0.000241667 7.47464e-07
0.000241667 -0.000333589 1.50084e-06
7.47464e-07 1.50084e-06 -0.000660633
0.00145977 0.00049684 2.78262e-06
0.00049684 0.000425156 -2.88394e-06
2.78262e-06 -2.88394e-06 6.94875e-05
-6.57267e-05 0.000200859 2.02571e-07
0.000200859 -0.000578108 -4.34398e-06
2.02571e-07 -4.34398e-06 -0.00078861
0.00238531 0.000517211 5.50957e-06
0.000517211 -4.48922e-05 2.52921e-06
5.50957e-06 2.52921e-06 -2.88532e-05
0.00272999 0.000641946 9.1698e-06
0.000641946 0.000467286 1.7412e-06
9.1698e-06 1.7412e-06 0.000265726
0.00217908 0.000757084 6.78974e-06
0.000757084 0.000336678 -3.10336e-06
6.78974e-06 -3.10336e-06 -1.96724e-05
0.00169627 0.000738106 1.53315e-06
0.000738106 0.000366172 -2.7205e-08
1.53315e-06 -2.7205e-08 -7.95407e-05
0.000762277 0.000121509 -6.5514e-07
0.000121509 0.000212603 -2.52873e-06
-6.5514e-07 -2.52873e-06 7.90866e-05
0.000531126 0.000108813 -1.14662e-06
0.000108813 6.71351e-05 -7.57193e-07
-1.14662e-06 -7.57193e-07 -6.11136e-05
0.00128449 0.000109015 -7.92072e-06
0.000109015 0.000540064 -3.82126e-06
-7.92072e-06 -3.82126e-06 0.000436391
0.000538163 4.5406e-05 -5.53024e-07
4.5406e-05 5.91321e-05 -3.23893e-06
-5.53024e-07 -3.23893e-06 -4.66477e-05
-7.4512e-06 4.38157e-05 -1.12997e-07
4.38157e-05 -0.000265229 -1.03718e-06
-1.12997e-07 -1.03718e-06 -0.000383361
0.000601918 5.26413e-05 -6.89626e-07
5.26413e-05 0.000116324 2.17984e-07
-6.89626e-07 2.17984e-07 3.2219e-06
0.000482128 0.000129958 4.89378e-08
0.000129958 7.22072e-05 7.86306e-07
4.89378e-08 7.86306e-07 -5.72164e-05
0.000478811 5.78587e-05 1.1301e-06
5.78587e-05 5.9699e-05 -4.84613e-08
1.1301e-06 -4.84613e-08 -8.83584e-05
0.000666712 0.000111966 5.13577e-06
0.000111966 0.000132572 -2.91299e-06
5.13577e-06 -2.91299e-06 4.88309e-05
0.0007026 1.81086e-05 3.29887e-06
1.81086e-05 0.000196171 -4.98129e-06
3.29887e-06 -4.98129e-06 5.52813e-05
0.000236681 6.826e-05 -3.44614e-07
6.826e-05 -9.47386e-05 2.41796e-06
-3.44614e-07 2.41796e-06 -0.000236176
0.000673159 0.000112955 2.24479e-06
0.000112955 0.000160955 3.754e-06
2.24479e-06 3.754e-06 4.4556e-05
0.00046387 7.8433e-05 3.16554e-06
7.8433e-05 1.55629e-05 3.75345e-06
3.16554e-06 3.75345e-06 -6.49171e-05
0.000456649 1.59921e-05 -1.55532e-06
1.59921e-05 2.73058e-06 -3.11805e-07
-1.55532e-06 -3.11805e-07 -6.95421e-05
0.00122691 8.04991e-06 1.51504e-06
8.04991e-06 0.000454843 2.98585e-06
1.51504e-06 2.98585e-06 0.00043702
0.000445506 -4.2703e-05 4.1845e-07
-4.2703e-05 -9.1671e-06 -3.29362e-06
4.1845e-07 -3.29362e-06 -7.86055e-05
0.00131737 -5.18729e-06 -6.97351e-06
-5.18729e-06 0.000505673 -1.7117e-06
-6.97351e-06 -1.7117e-06 0.000488282
0.000741544 -1.56984e-05 2.69787e-05
-1.56984e-05 0.000139335 9.24684e-06
2.69787e-05 9.24684e-06 0.000144778
0.00136064 -1.9213e-05 -1.07288e-05
-1.9213e-05 0.000529699 -6.97807e-06
-1.07288e-05 -6.97807e-06 0.00051149
0.000748125 -2.9536e-05 1.03719e-05
-2.9536e-05 0.000139659 3.52749e-06
1.03719e-05 3.52749e-06 0.000142605
0.00073026 -4.156e-05 3.6444e-07
-4.156e-05 0.000131287 -3.25032e-06
3.6444e-07 -3.25032e-06 0.000130481
0.000383912 4.30836e-05 -1.82217e-06
4.30836e-05 -6.82688e-05 -4.19648e-06
-1.82217e-06 -4.19648e-06 -9.42705e-05
0.000398976 7.24375e-05 -3.00084e-07
7.24375e-05 -3.35517e-05 3.61674e-07
-3.00084e-07 3.61674e-07 -7.74082e-05
0.00257955 0.000120319 7.14895e-06
0.000120319 0.00133308 -5.30018e-06
7.14895e-06 -5.30018e-06 0.00132957
0.000471554 1.25795e-05 -5.3708e-06
1.25795e-05 7.27876e-06 1.03418e-05
-5.3708e-06 1.03418e-05 -4.62692e-05
0.00317237 0.000157258 -1.57319e-05
0.000157258 0.00171666 -1.65366e-06
-1.57319e-05 -1.65366e-06 0.00170253
0.00413432 8.50148e-05 -0.000137893
8.50148e-05 0.00231874 1.34193e-05
-0.000137893 1.34193e-05 0.00232044
0.00210934 0.000369346 -9.27365e-07
0.000369346 0.000131783 5.88846e-07
-9.27365e-07 5.88846e-07 1.29082e-05
0.00207468 0.000195418 -4.55352e-06
0.000195418 3.37394e-05 -7.07796e-07
-4.55352e-06 -7.07796e-07 1.3137e-05
0.00209882 0.00029643 -3.24319e-07
0.00029643 -3.01513e-05 1.32294e-07
-3.24319e-07 1.32294e-07 -3.66431e-05
0.00204442 0.0001298 -4.69772e-07
0.0001298 -3.51666e-05 -4.3753e-08
-4.69772e-07 -4.3753e-08 -1.30947e-05
0.00201406 5.49698e-05 -4.40582e-06
5.49698e-05 3.96396e-05 -3.27908e-07
-4.40582e-06 -3.27908e-07 2.49261e-05
0.00201539 -9.17568e-06 -6.34997e-06
-9.17568e-06 6.80515e-05 1.98909e-07
-6.34997e-06 1.98909e-07 2.6106e-05
0.00197298 -1.03413e-05 1.38772e-08
-1.03413e-05 1.72604e-05 -4.17795e-08
1.38772e-08 -4.17795e-08 5.27494e-06
0.00206465 6.40122e-05 1.1423e-06
6.40122e-05 -1.5956e-05 1.41855e-07
1.1423e-06 1.41855e-07 6.64165e-06
0.00214168 0.000203749 1.10122e-06
0.000203749 -1.10934e-05 2.00377e-07
1.10122e-06 2.00377e-07 5.63538e-06
0.00218232 0.000390932 6.07385e-07
0.000390932 2.40888e-05 1.96366e-07
6.07385e-07 1.96366e-07 -1.67435e-05
0.00203589 -1.61963e-05 2.95862e-08
-1.61963e-05 -2.32137e-05 -3.93232e-08
2.95862e-08 -3.93232e-08 -6.48737e-06
0.0021976 0.000115002 -1.13555e-06
0.000115002 -4.86847e-05 -6.12703e-07
-1.13555e-06 -6.12703e-07 1.39033e-05
0.00235981 0.000309011 2.23762e-06
0.000309011 5.56346e-06 1.32297e-07
2.23762e-06 1.32297e-07 3.80934e-05
0.00192017 -8.21092e-05 -4.39929e-06
-8.21092e-05 -3.05204e-05 3.83603e-07
-4.39929e-06 3.83603e-07 -3.76188e-05
0.00208254 -0.00018664 -3.39286e-06
-0.00018664 4.53344e-05 7.40477e-07
-3.39286e-06 7.40477e-07 2.76794e-05
0.00211932 -0.000346324 -2.36263e-06
-0.000346324 3.77041e-05 6.14724e-07
-2.36263e-06 6.14724e-07 3.2665e-06
0.00150464 -0.000521503 -6.4391e-07
-0.000521503 0.000441389 -5.1609e-07
-6.4391e-07 -5.1609e-07 5.93101e-05
0.00150197 -0.000654448 2.09336e-05
-0.000654448 0.000292149 -7.24409e-06
2.09336e-05 -7.24409e-06 -0.000135425
0.00192934 -0.000759562 1.72915e-08
-0.000759562 0.000318132 4.6694e-07
1.72915e-08 4.6694e-07 -9.32136e-05
0.00205542 -0.000452176 -1.73664e-06
-0.000452176 7.90461e-05 1.52445e-06
-1.73664e-06 1.52445e-06 -1.56396e-05
0.00210737 -0.000588194 8.17701e-06
-0.000588194 0.000175389 3.23247e-06
8.17701e-06 3.23247e-06 -1.90622e-06
0.00223896 -0.000651697 1.66831e-05
-0.000651697 0.00034558 -6.83268e-06
1.66831e-05 -6.83268e-06 7.29001e-05
0.00115302 -0.000439715 4.45448e-06
-0.000439715 0.000265635 -5.32225e-06
4.45448e-06 -5.32225e-06 -9.61384e-05
0.00160891 -0.000501498 1.12921e-05
-0.000501498 0.00057135 -1.63547e-05
1.12921e-05 -1.63547e-05 0.000183054
0.00109907 -0.000380656 -6.97322e-08
-0.000380656 0.000361407 -1.30364e-05
-6.97322e-08 -1.30364e-05 -7.16485e-06
0.00024025 3.96413e-05 3.78291e-06
3.96413e-05 -0.000130464 2.19598e-06
3.78291e-06 2.19598e-06 -0.000226894
0.00158776 -0.000261849 3.50024e-06
-0.000261849 0.000736556 4.20325e-06
3.50024e-06 4.20325e-06 0.000453191
-0.000243092 9.67335e-08 6.06734e-06
9.67335e-08 -0.000366126 9.51443e-07
6.06734e-06 9.51443e-07 -0.00059186
0.00205818 -9.3831e-05 -5.36693e-07
-9.3831e-05 -7.76641e-06 1.2508e-07
-5.36693e-07 1.2508e-07 7.39138e-06
0.00216601 -0.000253869 1.01794e-07
-0.000253869 -3.72586e-05 -8.69156e-08
1.01794e-07 -8.69156e-08 -5.61496e-06
0.00218873 -0.000426591 -7.05015e-07
-0.000426591 2.24064e-05 3.20569e-07
-7.05015e-07 3.20569e-07 9.8809e-06
0.0016159 -0.000606245 -5.92929e-07
-0.000606245 0.000488031 8.03793e-07
-5.92929e-07 8.03793e-07 6.83922e-05
0.00132427 -0.000722484 4.86333e-06
-0.000722484 0.000163357 -2.00521e-06
4.86333e-06 -2.00521e-06 -0.000299269
0.00237377 -0.000821407 -4.45619e-06
-0.000821407 0.000579748 -1.22659e-07
-4.45619e-06 -1.22659e-07 0.000163667
0.00220644 -0.000552494 2.22251e-07
-0.000552494 7.01727e-05 -6.34081e-07
2.22251e-07 -6.34081e-07 -9.8489e-06
0.00204649 -0.000670984 2.38677e-06
-0.000670984 0.000171498 -1.49953e-06
2.38677e-06 -1.49953e-06 -6.52748e-05
0.000265223 6.05251e-05 -1.67213e-06
6.05251e-05 -0.000116218 -1.30506e-06
-1.67213e-06 -1.30506e-06 -0.00018919
0.000623259 -3.21964e-05 -6.92348e-07
-3.21964e-05 0.000163627 9.13607e-07
-6.92348e-07 9.13607e-07 -5.81382e-06
0.00096636 -0.000475574 -3.22469e-06
-0.000475574 0.000122803 2.22486e-06
-3.22469e-06 2.22486e-06 -0.00025642
0.0015387 -0.000435809 -5.52457e-06
-0.000435809 0.000579206 1.78304e-07
-5.52457e-06 1.78304e-07 0.000155817
0.00166203 -0.000225433 -5.82411e-07
-0.000225433 0.000751039 -1.10696e-06
-5.82411e-07 -1.10696e-06 0.000432634
0.00097964 -0.000199509 -7.9028e-07
-0.000199509 0.000418377 1.50889e-06
-7.9028e-07 1.50889e-06 0.000145669
0.00215768 -0.000130802 -1.74615e-06
-0.000130802 -5.2584e-05 6.63131e-07
-1.74615e-06 6.63131e-07 8.3576e-06
0.0023027 -0.000364053 -2.16453e-06
-0.000364053 -7.50352e-05 1.10137e-06
-2.16453e-06 1.10137e-06 6.55448e-06
0.00227788 -0.000518038 2.73121e-06
-0.000518038 2.19848e-05 -9.17342e-07
2.73121e-06 -9.17342e-07 1.85261e-05
0.00236509 -0.000713445 7.14835e-06
-0.000713445 0.000172317 -4.13658e-06
7.14835e-06 -4.13658e-06 1.87652e-05
0.000842092 -0.00056034 -8.68023e-06
-0.00056034 6.64086e-06 -7.30647e-06
-8.68023e-06 -7.30647e-06 -0.000413894
0.00270819 -0.000903883 -5.03677e-06
-0.000903883 0.000682205 2.55825e-06
-5.03677e-06 2.55825e-06 0.000289202
0.00234554 -0.000919432 -4.11601e-05
-0.000919432 0.000689807 -3.74212e-06
-4.11601e-05 -3.74212e-06 0.000162061
0.000542297 4.55479e-05 -3.06148e-07
4.55479e-05 4.05433e-05 -3.50701e-08
-3.06148e-07 -3.50701e-08 -1.41411e-05
0.000684537 -0.000144916 3.93994e-06
-0.000144916 0.000188208 -1.23833e-06
3.93994e-06 -1.23833e-06 7.58959e-05
0.000367153 8.85612e-05 -8.20663e-06
8.85612e-05 -5.59508e-06 -4.37593e-07
-8.20663e-06 -4.37593e-07 -0.000125245
0.000804353 -7.23073e-05 -4.11444e-06
-7.23073e-05 0.00030156 1.52462e-06
-4.11444e-06 1.52462e-06 8.08283e-05
-4.34976e-05 -0.000137862 2.11855e-06
-0.000137862 -0.000265648 -8.32991e-06
2.11855e-06 -8.32991e-06 -0.000532195
-3.56883e-05 -0.000141555 6.65481e-06
-0.000141555 -0.000247168 -5.40057e-07
6.65481e-06 -5.40057e-07 -0.000645038
0.00138043 -0.00055364 -3.67605e-05
-0.00055364 0.000393764 2.53411e-05
-3.67605e-05 2.53411e-05 9.84193e-06
0.00309862 -0.000567362 -3.00621e-05
-0.000567362 0.00171474 1.75357e-05
-3.00621e-05 1.75357e-05 0.00106742
0.000482052 4.57441e-05 -2.38754e-07
4.57441e-05 1.98991e-05 -1.90048e-06
-2.38754e-07 -1.90048e-06 -0.000103927
0.00095981 0.000225777 -6.64704e-07
0.000225777 0.000393069 -7.44341e-08
-6.64704e-07 -7.44341e-08 0.000112499
0.00231528 0.000527109 -3.27484e-06
0.000527109 0.000194873 -1.80908e-06
-3.27484e-06 -1.80908e-06 4.94573e-05
0.000420069 0.000217857 -4.25893e-06
0.000217857 -0.000135449 2.45888e-06
-4.25893e-06 2.45888e-06 -0.000394893
0.00113587 0.000423022 -1.327e-06
0.000423022 0.000254444 7.96376e-08
-1.327e-06 7.96376e-08 -8.07733e-05
0.00156278 0.000350427 -2.21854e-06
0.000350427 0.000395443 -3.0271e-06
-2.21854e-06 -3.0271e-06 0.000150191
0.00241409 0.000661384 -7.52862e-06
0.000661384 0.000463474 -5.34575e-07
-7.52862e-06 -5.34575e-07 0.000182277
0.00241569 0.000659253 -1.20927e-05
0.000659253 0.000343355 4.36686e-06
-1.20927e-05 4.36686e-06 9.17989e-05
0.00164672 0.000656765 -3.70233e-06
0.000656765 0.000466626 1.22401e-06
-3.70233e-06 1.22401e-06 4.08478e-05
0.00174706 0.000765678 -5.62044e-06
0.000765678 0.000287504 -5.9637e-07
-5.62044e-06 -5.9637e-07 -0.000119091
-0.000238857 6.96583e-05 1.08522e-06
6.96583e-05 -0.000396774 1.5012e-06
1.08522e-06 1.5012e-06 -0.000552654
-0.000101261 0.000255781 -3.62035e-07
0.000255781 -0.000183287 -2.50784e-06
-3.62035e-07 -2.50784e-06 -0.000506614
0.00158457 0.000522591 1.25972e-06
0.000522591 0.000482663 2.01569e-07
1.25972e-06 2.01569e-07 0.000116347
0.00169411 0.000365166 -3.49952e-06
0.000365166 0.000536294 1.33298e-06
-3.49952e-06 1.33298e-06 0.000291795
0.0023757 0.000497285 6.89768e-07
0.000497285 -6.95582e-05 -7.90174e-07
6.89768e-07 -7.90174e-07 -4.41976e-05
0.0025897 0.000641294 3.47176e-06
0.000641294 0.000384359 2.08288e-08
3.47176e-06 2.08288e-08 0.00017605
0.002118 0.000737292 -2.16423e-06
0.000737292 0.000315938 -1.34159e-08
-2.16423e-06 -1.34159e-08 -3.24756e-05
0.00184308 0.000749399 9.76654e-07
0.000749399 0.000433648 2.16334e-07
9.76654e-07 2.16334e-07 -7.45805e-06
-0.000466552 3.63842e-05 -2.97709e-06
3.63842e-05 -0.000529019 4.84664e-06
-2.97709e-06 4.84664e-06 -0.000688405
0.00225571 0.000380484 1.29279e-05
0.000380484 -0.000187581 3.51089e-06
1.29279e-05 3.51089e-06 -0.000108331
0.00292774 0.000551192 7.46785e-06
0.000551192 0.00162535 9.35712e-06
7.46785e-06 9.35712e-06 0.00127535
0.00137476 0.00050619 2.40377e-06
0.00050619 0.000280915 -1.83241e-06
2.40377e-06 -1.83241e-06 -5.32654e-05
0.00258047 0.000620645 -1.30278e-05
0.000620645 0.000202562 -7.20297e-06
-1.30278e-05 -7.20297e-06 0.000131178
0.00120802 0.000684883 4.09828e-06
0.000684883 -0.00031075 -8.10849e-06
4.09828e-06 -8.10849e-06 -0.000638647
0.00273966 0.000872403 1.33059e-06
0.000872403 0.000892642 4.16256e-06
1.33059e-06 4.16256e-06 0.00042071
0.000785029 0.000122359 -1.19596e-06
0.000122359 0.000226396 -2.65302e-06
-1.19596e-06 -2.65302e-06 9.54196e-05
0.000628106 0.000113634 -3.76729e-06
0.000113634 0.000150925 -1.59922e-06
-3.76729e-06 -1.59922e-06 4.07762e-05
0.00114824 0.000109478 -2.6775e-06
0.000109478 0.000476605 2.54775e-06
-2.6775e-06 2.54775e-06 0.00040558
0.000488182 7.76985e-06 8.61893e-07
7.76985e-06 4.64373e-05 -3.62329e-06
8.61893e-07 -3.62329e-06 -6.71596e-05
0.00070725 8.67117e-05 2.45592e-06
8.67117e-05 0.000208713 -9.77933e-07
2.45592e-06 -9.77933e-07 5.5461e-05
-0.000260492 8.17161e-05 -2.72818e-06
8.17161e-05 -0.00036348 5.105e-06
-2.72818e-06 5.105e-06 -0.000482424
0.000551044 2.37736e-05 -1.48166e-06
2.37736e-05 8.97055e-05 1.57157e-08
-1.48166e-06 1.57157e-08 -2.96897e-05
0.00032242 -1.21002e-05 -1.0513e-06
-1.21002e-05 -2.59652e-05 -9.87116e-08
-1.0513e-06 -9.87116e-08 -0.000177848
9.40566e-05 5.7424e-05 -5.70776e-07
5.7424e-05 -0.000198185 1.87632e-06
-5.70776e-07 1.87632e-06 -0.000269907
0.000797362 0.000101715 1.16508e-06
0.000101715 0.000269549 -1.52385e-06
1.16508e-06 -1.52385e-06 0.000116353
0.00179474 0.000144225 -6.35306e-08
0.000144225 0.000826809 -1.21921e-06
-6.35306e-08 -1.21921e-06 0.000781196
0.000417161 2.75238e-05 1.06223e-05
2.75238e-05 -3.56732e-07 -7.93689e-06
1.06223e-05 -7.93689e-06 -8.80402e-05
0.000318321 0.000113524 5.62414e-07
0.000113524 -1.74948e-05 2.54655e-06
5.62414e-07 2.54655e-06 -0.000181734
0.000551196 4.88571e-05 1.46657e-06
4.88571e-05 0.000112363 4.02761e-06
1.46657e-06 4.02761e-06 -5.09711e-05
0.000569268 3.29166e-05 2.57545e-06
3.29166e-05 9.17528e-05 3.30515e-06
2.57545e-06 3.30515e-06 -2.88178e-05
0.000477257 -5.93022e-05 -6.11876e-07
-5.93022e-05 2.08751e-05 3.09296e-06
-6.11876e-07 3.09296e-06 -6.00705e-05
0.000486619 1.1513e-05 3.22207e-07
1.1513e-05 2.12382e-05 -3.80243e-07
3.22207e-07 -3.80243e-07 -5.30345e-05
0.00130198 2.993e-05 3.45632e-06
2.993e-05 0.000510648 3.21147e-06
3.45632e-06 3.21147e-06 0.000490238
0.000489187 3.99593e-06 2.56225e-07
3.99593e-06 1.33451e-05 -3.45151e-06
2.56225e-07 -3.45151e-06 -5.24389e-05
0.00131352 1.21992e-05 -6.54781e-06
1.21992e-05 0.000509562 -1.731e-06
-6.54781e-06 -1.731e-06 0.000491529
0.000741311 -8.20009e-06 2.19698e-05
-8.20009e-06 0.000143941 8.97793e-06
2.19698e-05 8.97793e-06 0.000149257
0.00135006 -8.8621e-06 -8.44832e-06
-8.8621e-06 0.000526083 -6.71672e-06
-8.44832e-06 -6.71672e-06 0.000509146
0.000770919 -1.99063e-05 8.1159e-06
-1.99063e-05 0.000154716 3.5479e-06
8.1159e-06 3.5479e-06 0.000158928
0.000761505 -3.13754e-05 2.63261e-07
-3.13754e-05 0.000145937 -3.0011e-06
2.63261e-07 -3.0011e-06 0.000148236
0.000634037 -1.18773e-05 1.50198e-06
-1.18773e-05 9.19276e-05 -1.46415e-06
1.50198e-06 -1.46415e-06 4.13201e-05
0.000407468 2.79814e-05 -2.62795e-07
2.79814e-05 -6.52446e-05 -3.64509e-06
-2.62795e-07 -3.64509e-06 -8.37256e-05
0.000422398 4.80917e-05 3.5508e-07
4.80917e-05 -4.10781e-05 2.58617e-07
3.5508e-07 2.58617e-07 -6.89564e-05
0.00237662 9.41015e-05 1.16003e-05
9.41015e-05 0.0011942 -4.65446e-06
1.16003e-05 -4.65446e-06 0.00119788
0.000484879 6.44034e-05 5.32813e-06
6.44034e-05 1.41729e-05 7.76634e-06
5.32813e-06 7.76634e-06 -2.76411e-05
0.00276477 0.000130301 -5.00999e-06
0.000130301 0.00145151 -5.68014e-07
-5.00999e-06 -5.68014e-07 0.00144565
0.00340964 0.000119095 -5.25392e-05
0.000119095 0.0018558 6.10635e-06
-5.25392e-05 6.10635e-06 0.00184979
0.00219593 0.000381862 2.61274e-08
0.000381862 2.57486e-05 -3.61181e-07
2.61274e-08 -3.61181e-07 -1.41392e-05
0.00214204 0.00021044 -1.06425e-06
0.00021044 -9.71943e-06 5.51078e-08
-1.06425e-06 5.51078e-08 8.96533e-06
0.00205503 6.7799e-05 -6.43973e-07
6.7799e-05 -1.64947e-05 3.84999e-08
-6.43973e-07 3.84999e-08 3.8683e-06
0.00198283 -8.41126e-06 -4.59889e-06
-8.41126e-06 2.47969e-05 -1.94778e-07
-4.59889e-06 -1.94778e-07 1.36236e-05
0.00204074 -1.10139e-05 -9.37169e-07
-1.10139e-05 -2.15827e-05 -3.10232e-08
-9.37169e-07 -3.10232e-08 -2.30552e-06
0.0021801 0.000108236 -8.00606e-08
0.000108236 -4.97782e-05 3.19055e-07
-8.00606e-08 3.19055e-07 1.01905e-05
0.00229242 0.00031597 -1.21923e-06
0.00031597 -2.33645e-05 -4.99024e-08
-1.21923e-06 -4.99024e-08 8.1704e-06
0.00215818 -1.09875e-05 -1.97947e-06
-1.09875e-05 -6.70675e-05 -1.89732e-07
-1.97947e-06 -1.89732e-07 3.4349e-06
0.00239118 0.000163007 4.86136e-06
0.000163007 -5.00045e-05 -1.40452e-06
4.86136e-06 -1.40452e-06 2.21307e-05
0.00256872 0.000117855 1.30844e-05
0.000117855 0.000136087 1.21651e-05
1.30844e-05 1.21651e-05 0.000218168
0.00206864 -9.222e-05 -1.51334e-06
-9.222e-05 -1.75309e-06 6.16495e-08
-1.51334e-06 6.16495e-08 1.15096e-05
0.00213719 -0.000262847 -5.51387e-07
-0.000262847 -5.92204e-05 -1.46424e-07
-5.51387e-07 -1.46424e-07 -2.59455e-05
0.00217861 -0.000418242 -3.5815e-07
-0.000418242 2.24959e-05 -1.78057e-07
-3.5815e-07 -1.78057e-07 7.96415e-06
0.00149648 -0.000598392 7.83517e-06
-0.000598392 0.00041549 -3.61487e-06
7.83517e-06 -3.61487e-06 -4.7216e-06
0.00183799 -0.000778438 2.66352e-05
-0.000778438 0.000460697 -1.32024e-06
2.66352e-05 -1.32024e-06 -1.39893e-05
0.00197413 -0.00075512 1.23757e-05
-0.00075512 0.00035703 -1.00553e-06
1.23757e-05 -1.00553e-06 -3.48597e-05
0.00214923 -0.000556997 7.21005e-07
-0.000556997 4.16408e-05 3.22485e-06
7.21005e-07 3.22485e-06 -4.57554e-05
0.00189492 -0.000645817 8.57921e-06
-0.000645817 0.000104152 3.17621e-06
8.57921e-06 3.17621e-06 -0.000124437
0.00045374 -0.000410034 1.36808e-05
-0.000410034 -0.000187246 -1.91426e-05
1.36808e-05 -1.91426e-05 -0.000555154
0.00146525 -0.000397248 1.75029e-05
-0.000397248 0.000591324 -1.96334e-05
1.75029e-05 -1.96334e-05 0.000148813
0.00111553 -0.000127034 -1.38319e-06
-0.000127034 0.000380325 2.48288e-06
-1.38319e-06 2.48288e-06 8.76903e-05
0.000440437 1.85863e-05 2.94812e-06
1.85863e-05 -8.25052e-06 8.88077e-07
2.94812e-06 8.88077e-07 -7.67614e-05
0.000596191 2.69964e-05 6.89177e-06
2.69964e-05 0.000140337 1.93524e-06
6.89177e-06 1.93524e-06 -2.52978e-05
0.000401278 -0.000138172 1.18186e-06
-0.000138172 4.1498e-05 7.38443e-06
1.18186e-06 7.38443e-06 -0.000220952
0.00216799 -0.00013369 5.74712e-07
-0.00013369 -5.4957e-05 -9.91931e-08
5.74712e-07 -9.91931e-08 8.4367e-06
0.000485024 9.31649e-06 1.76649e-06
9.31649e-06 4.76661e-06 3.36479e-07
1.76649e-06 3.36479e-07 -4.97426e-05
0.000385055 -7.35151e-05 -2.28814e-06
-7.35151e-05 -3.20286e-05 -5.50718e-07
-2.28814e-06 -5.50718e-07 -0.000123712
0.00227875 -0.000353718 -2.00038e-07
-0.000353718 -6.71662e-05 1.41777e-07
-2.00038e-07 1.41777e-07 4.66142e-06
0.00223251 -0.000505798 -1.82885e-06
-0.000505798 4.05011e-06 3.84264e-07
-1.82885e-06 3.84264e-07 7.64651e-06
0.001826 -0.000686265 -1.54635e-06
-0.000686265 0.000582326 2.1044e-06
-1.54635e-06 2.1044e-06 0.000128316
0.00191286 -0.000862176 7.97274e-06
-0.000862176 0.000467758 7.54252e-07
7.97274e-06 7.54252e-07 -5.35063e-05
0.00203521 -0.000834312 2.93758e-06
-0.000834312 0.000287939 -5.33997e-06
2.93758e-06 -5.33997e-06 -8.7246e-05
0.00231093 -0.000706981 3.01728e-06
-0.000706981 0.00014421 -1.01171e-06
3.01728e-06 -1.01171e-06 -4.09094e-06
0.000685812 1.46269e-05 -8.22074e-07
1.46269e-05 0.00020199 -1.31479e-06
-8.22074e-07 -1.31479e-06 7.88819e-05
0.000788265 -6.26608e-05 1.00777e-06
-6.26608e-05 0.00029184 2.01094e-06
1.00777e-06 2.01094e-06 7.08705e-05
0.00146129 -0.000541346 4.27502e-06
-0.000541346 0.000463273 5.58638e-06
4.27502e-06 5.58638e-06 6.44578e-05
0.0010979 -0.000379133 1.08547e-05
-0.000379133 0.000470899 -9.67887e-06
1.08547e-05 -9.67887e-06 -8.23989e-05
0.00096619 -0.000158437 -2.56084e-07
-0.000158437 0.000302276 -4.67902e-07
-2.56084e-07 -4.67902e-07 -5.13985e-05
0.000230187 -0.000107875 4.91453e-07
-0.000107875 -9.01788e-05 -1.99937e-06
4.91453e-07 -1.99937e-06 -0.000363426
0.00217149 -0.000155413 9.68816e-07
-0.000155413 -0.0001984 -2.68294e-07
9.68816e-07 -2.68294e-07 -0.000110584
0.00227449 -0.00045456 -9.95562e-07
-0.00045456 -0.000222832 3.17117e-06
-9.95562e-07 3.17117e-06 -1.61775e-05
0.00247565 -0.000699088 -3.44643e-06
-0.000699088 8.26088e-05 -2.07672e-06
-3.44643e-06 -2.07672e-06 4.62475e-05
0.00252353 -0.000921416 1.18426e-05
-0.000921416 0.000349662 -5.19526e-06
1.18426e-05 -5.19526e-06 0.000108591
0.0012101 -0.000651099 -3.95351e-06
-0.000651099 0.000263892 -1.98496e-05
-3.95351e-06 -1.98496e-05 -0.000204985
0.00309586 -0.00108621 -1.057e-05
-0.00108621 0.00103348 7.95437e-06
-1.057e-05 7.95437e-06 0.000469964
0.000180561 5.32538e-05 -2.69066e-06
5.32538e-05 -0.000154196 -4.75204e-06
-2.69066e-06 -4.75204e-06 -0.000253021
0.000544331 -4.4376e-05 3.9666e-06
-4.4376e-05 7.51414e-05 1.03793e-06
3.9666e-06 1.03793e-06 -1.36708e-05
0.00126379 -0.000163894 -3.07168e-06
-0.000163894 0.000493019 1.38918e-05
-3.07168e-06 1.38918e-05 0.000376343
0.000463569 1.1933e-05 -4.4091e-06
1.1933e-05 5.33318e-05 4.18937e-06
-4.4091e-06 4.18937e-06 -0.00011433
0.000739034 -0.000100307 -4.21745e-06
-0.000100307 0.000236385 6.97705e-06
-4.21745e-06 6.97705e-06 5.01588e-06
0.0008579 -7.88798e-05 1.22702e-05
-7.88798e-05 0.000224659 -9.69075e-06
1.22702e-05 -9.69075e-06 -3.43174e-05
-0.000883078 -0.000314615 4.35712e-07
-0.000314615 -0.000396333 1.75318e-07
4.35712e-07 1.75318e-07 -0.00119969
7.95856e-05 -0.000532538 -5.84203e-05
-0.000532538 -0.000411874 2.35384e-05
-5.84203e-05 2.35384e-05 -0.000768557
0.000432048 8.01474e-05 -1.15651e-06
8.01474e-05 4.51038e-05 -1.90064e-06
-1.15651e-06 -1.90064e-06 -0.000142979
0.000645595 0.000263965 -1.08485e-05
0.000263965 0.000252827 -5.53163e-06
-1.08485e-05 -5.53163e-06 -5.72987e-05
0.0023677 0.000477178 -9.56109e-06
0.000477178 -8.48893e-05 -3.35349e-06
-9.56109e-06 -3.35349e-06 -5.29605e-05
0.00249757 0.000643803 -9.43828e-06
0.000643803 0.000333014 -1.23583e-06
-9.43828e-06 -1.23583e-06 0.000117546
0.00356424 0.000494603 -5.45587e-06
0.000494603 0.00167596 9.54269e-08
-5.45587e-06 9.54269e-08 0.00142061
0.00164546 0.000538147 -3.29162e-06
0.000538147 0.000506365 -2.32882e-06
-3.29162e-06 -2.32882e-06 0.000131463
0.00205482 0.000717625 -5.96506e-06
0.000717625 0.00029392 1.52592e-06
-5.96506e-06 1.52592e-06 -4.71506e-05
0.00203499 0.000762826 -4.00391e-06
0.000762826 0.000529126 -1.28241e-06
-4.00391e-06 -1.28241e-06 9.16899e-05
0.000391895 0.000111771 1.23542e-06
0.000111771 2.86192e-05 -1.41259e-06
1.23542e-06 -1.41259e-06 -0.000168384
0.00243189 0.000365416 -2.48684e-06
0.000365416 -7.57175e-05 -2.01429e-06
-2.48684e-06 -2.01429e-06 8.16847e-06
0.0014522 0.000349009 9.18335e-07
0.000349009 0.000688774 1.29375e-06
9.18335e-07 1.29375e-06 0.000389377
0.00161598 0.000527703 2.50828e-06
0.000527703 0.000459908 1.07451e-06
2.50828e-06 1.07451e-06 0.000114732
0.00260316 0.000615696 1.74679e-06
0.000615696 0.000232951 3.2195e-07
1.74679e-06 3.2195e-07 0.000160456
0.00170266 0.000729359 -1.777e-06
0.000729359 -1.69801e-05 -4.60964e-06
-1.777e-06 -4.60964e-06 -0.000350103
0.00219548 0.000799147 -2.38925e-08
0.000799147 0.000595759 5.6835e-07
-2.38925e-08 5.6835e-07 0.000137727
0.00124657 0.000285902 -3.51271e-06
0.000285902 0.000648652 1.85981e-06
-3.51271e-06 1.85981e-06 0.000383708
0.00351643 0.000528988 -7.78181e-05
0.000528988 0.000563444 -2.00937e-05
-7.78181e-05 -2.00937e-05 0.00070983
0.00130917 0.000485873 -7.07003e-06
0.000485873 0.000521682 4.68139e-06
-7.07003e-06 4.68139e-06 0.00018135
0.00158825 0.000612933 -2.79426e-06
0.000612933 0.000372608 -6.19256e-06
-2.79426e-06 -6.19256e-06 -4.00754e-05
0.00233886 0.000815666 -3.12265e-05
0.000815666 0.000188506 -1.90328e-05
-3.12265e-05 -1.90328e-05 -3.86353e-05
0.00110213 0.0006898 -2.13482e-05
0.0006898 -6.44162e-05 -2.37182e-06
-2.13482e-05 -2.37182e-06 -0.000483445
0.000395723 0.000828036 3.2502e-05
0.000828036 -0.00178694 -3.56956e-05
3.2502e-05 -3.56956e-05 -0.00142568
-0.000119987 0.000124918 3.8946e-06
0.000124918 -0.000280634 -1.40177e-06
3.8946e-06 -1.40177e-06 -0.000400267
0.000457981 0.000107008 1.46946e-06
0.000107008 9.78826e-05 2.24919e-06
1.46946e-06 2.24919e-06 1.42688e-05
0.00188426 0.000169688 2.25659e-06
0.000169688 0.000938334 2.37555e-06
2.25659e-06 2.37555e-06 0.000863851
0.000410169 -6.39152e-05 7.6466e-07
-6.39152e-05 9.96639e-06 -4.23358e-06
7.6466e-07 -4.23358e-06 -0.000112468
0.000378241 -3.65218e-05 -5.01643e-07
-3.65218e-05 4.15152e-06 -1.42105e-06
-5.01643e-07 -1.42105e-06 -0.000144157
0.00107071 0.000191829 4.59116e-07
0.000191829 0.000442857 8.77117e-07
4.59116e-07 8.77117e-07 0.00027671
-0.000121987 3.60235e-05 -7.14287e-06
3.60235e-05 -0.000310194 1.37627e-05
-7.14287e-06 1.37627e-05 -0.000379298
0.000521313 -1.38853e-05 -3.21308e-07
-1.38853e-05 7.91645e-05 -1.39309e-07
-3.21308e-07 -1.39309e-07 -5.04006e-05
0.000474914 7.16281e-05 1.57344e-07
7.16281e-05 4.38004e-05 -7.40496e-07
1.57344e-07 -7.40496e-07 -0.000103726
0.0012959 0.000126255 2.2471e-06
0.000126255 0.000510589 4.54921e-06
2.2471e-06 4.54921e-06 0.000465696
0.000504179 7.241e-05 1.66844e-06
7.241e-05 7.59078e-05 6.95078e-07
1.66844e-06 6.95078e-07 -7.65353e-05
0.0007002 5.88446e-05 -1.26725e-06
5.88446e-05 0.000169363 -2.05447e-06
-1.26725e-06 -2.05447e-06 7.02455e-05
0.00158242 0.000137447 -2.40596e-06
0.000137447 0.000729315 -1.31391e-05
-2.40596e-06 -1.31391e-05 0.000677576
0.000869921 0.00014455 -2.13155e-06
0.00014455 0.000258309 -2.28975e-06
-2.13155e-06 -2.28975e-06 0.000111471
0.000964169 0.000137416 1.66807e-06
0.000137416 0.000355658 1.78269e-06
1.66807e-06 1.78269e-06 0.000191463
0.000893213 9.77211e-05 1.24672e-08
9.77211e-05 0.000326061 2.03186e-06
1.24672e-08 2.03186e-06 0.000149239
0.000246625 -2.30409e-05 -4.881e-07
-2.30409e-05 -0.000112633 2.27193e-06
-4.881e-07 2.27193e-06 -0.000237849
0.00112616 -8.72485e-05 7.15612e-07
-8.72485e-05 0.000515576 -1.62095e-06
7.15612e-07 -1.62095e-06 0.000323077
0.000172803 -4.06743e-05 -1.16208e-06
-4.06743e-05 -0.000155526 3.90009e-06
-1.16208e-06 3.90009e-06 -0.000285959
0.000450721 4.0205e-06 -1.83115e-06
4.0205e-06 1.03762e-05 3.14541e-06
-1.83115e-06 3.14541e-06 -7.54782e-05
0.00046963 3.90447e-05 2.49339e-06
3.90447e-05 1.96684e-05 -1.46167e-07
2.49339e-06 -1.46167e-07 -6.38843e-05
0.0003778 2.15347e-05 -6.55719e-08
2.15347e-05 -6.50299e-05 4.54383e-06
-6.55719e-08 4.54383e-06 -8.925e-05
0.000425586 6.4938e-06 -2.62648e-06
6.4938e-06 -7.95212e-06 -3.81574e-06
-2.62648e-06 -3.81574e-06 -8.79119e-05
0.000882159 1.64087e-05 -3.56979e-06
1.64087e-05 0.000246067 -1.53992e-06
-3.56979e-06 -1.53992e-06 0.000224785
0.00263604 -3.9569e-06 2.01403e-05
-3.9569e-06 0.00133681 5.5881e-06
2.01403e-05 5.5881e-06 0.00134946
0.00139987 2.53191e-05 -1.06415e-05
2.53191e-05 0.000564946 -6.8412e-06
-1.06415e-05 -6.8412e-06 0.000546305
0.000767015 -1.02352e-05 7.12333e-06
-1.02352e-05 0.000156575 3.45234e-06
7.12333e-06 3.45234e-06 0.000161353
0.000795496 -2.12206e-05 6.33761e-07
-2.12206e-05 0.000166664 -2.70728e-06
6.33761e-07 -2.70728e-06 0.000170607
0.000488453 1.38239e-05 -2.14421e-06
1.38239e-05 8.42782e-06 -2.45364e-06
-2.14421e-06 -2.45364e-06 -4.25923e-05
0.000548962 -2.56187e-05 8.14839e-07
-2.56187e-05 4.21526e-05 -3.12057e-07
8.14839e-07 -3.12057e-07 -1.01166e-05
0.000489948 2.29783e-05 1.11223e-07
2.29783e-05 -1.93554e-05 -3.55219e-06
1.11223e-07 -3.55219e-06 -3.40185e-05
0.000801901 3.85383e-05 -9.67713e-08
3.85383e-05 0.000184774 1.5763e-07
-9.67713e-08 1.5763e-07 0.000167446
0.00222041 7.29463e-05 8.99012e-06
7.29463e-05 0.00108733 -4.57054e-06
8.99012e-06 -4.57054e-06 0.00109608
0.00047652 5.59801e-05 5.14113e-06
5.59801e-05 -2.22272e-06 5.69278e-06
5.14113e-06 5.69278e-06 -3.3153e-05
0.00245419 0.000100151 -2.86305e-06
0.000100151 0.00124457 -2.88142e-07
-2.86305e-06 -2.88142e-07 0.00124675
0.00282172 0.000136381 7.03996e-06
0.000136381 0.00148848 7.66418e-06
7.03996e-06 7.66418e-06 0.00148121
0.00222509 0.00032264 -2.18727e-06
0.00032264 -5.55919e-05 -2.97592e-07
-2.18727e-06 -2.97592e-07 -2.39217e-05
0.00215868 0.000103087 2.49676e-06
0.000103087 -5.45692e-05 5.31495e-07
2.49676e-06 5.31495e-07 3.94267e-06
0.00204772 -6.55884e-06 -2.44511e-07
-6.55884e-06 -1.91662e-05 -2.19051e-07
-2.44511e-07 -2.19051e-07 2.68357e-06
0.00214399 -7.08997e-06 1.17845e-07
-7.08997e-06 -7.49454e-05 -2.46353e-07
1.17845e-07 -2.46353e-07 -4.61526e-06
0.00235592 0.000168581 -3.40737e-07
0.000168581 -5.73002e-05 4.50559e-07
-3.40737e-07 4.50559e-07 1.41279e-05
0.00230909 9.39405e-05 8.29805e-06
9.39405e-05 -4.03635e-05 -5.9989e-06
8.29805e-06 -5.9989e-06 3.64966e-05
0.00240911 -1.30359e-06 1.0574e-06
-1.30359e-06 -9.84443e-05 -1.76655e-06
1.0574e-06 -1.76655e-06 1.47502e-05
0.00458649 0.000858922 6.40191e-05
0.000858922 -0.000483812 1.33586e-05
6.40191e-05 1.33586e-05 0.000202027
0.00287114 7.35679e-05 -2.30386e-05
7.35679e-05 0.000461285 2.89129e-05
-2.30386e-05 2.89129e-05 0.000675399
0.00048305 0.000110508 -2.90786e-06
0.000110508 4.4667e-05 -1.09477e-06
-2.90786e-06 -1.09477e-06 -5.12767e-05
0.00217371 -0.00013465 1.02879e-06
-0.00013465 -6.00649e-05 -6.47004e-07
1.02879e-06 -6.47004e-07 5.95357e-06
0.00225117 -0.000342936 2.21726e-06
-0.000342936 -6.19988e-05 -8.37768e-07
2.21726e-06 -8.37768e-07 -3.03246e-07
0.00219167 -0.000496302 -3.88557e-07
-0.000496302 -1.39959e-05 5.39001e-07
-3.88557e-07 5.39001e-07 -3.14941e-06
0.00116094 -0.000616249 1.02224e-06
-0.000616249 0.000198433 1.00117e-05
1.02224e-06 1.00117e-05 -0.0002363
0.00217475 -0.000883244 2.52288e-05
-0.000883244 0.0006146 9.6897e-06
2.52288e-05 9.6897e-06 9.54788e-05
0.00146625 -0.000771873 -3.57526e-06
-0.000771873 -3.54696e-05 -3.91001e-06
-3.57526e-06 -3.91001e-06 -0.000394245
0.00224045 -0.000701469 -5.51035e-06
-0.000701469 0.000105137 2.12435e-06
-5.51035e-06 2.12435e-06 -3.80594e-05
0.00164584 -0.000532213 4.40761e-05
-0.000532213 0.000496923 -3.44865e-05
4.40761e-05 -3.44865e-05 0.000135371
0.0015327 -0.000449519 3.16028e-05
-0.000449519 0.000685744 -3.00936e-05
3.16028e-05 -3.00936e-05 0.000194971
0.000605571 -6.01686e-05 -2.16132e-07
-6.01686e-05 3.71496e-05 4.48955e-06
-2.16132e-07 4.48955e-06 -0.000277985
0.000483852 1.01026e-05 2.40047e-06
1.01026e-05 4.54549e-06 7.99828e-07
2.40047e-06 7.99828e-07 -5.0566e-05
0.00139916 -0.000121607 1.29843e-06
-0.000121607 0.000641553 7.92049e-06
1.29843e-06 7.92049e-06 0.000346886
0.000888343 -2.17812e-05 7.6296e-06
-2.17812e-05 0.000341384 -1.40212e-06
7.6296e-06 -1.40212e-06 0.000213615
0.000683596 -5.64626e-05 2.88232e-06
-5.64626e-05 0.000215373 -7.86599e-07
2.88232e-06 -7.86599e-07 4.74115e-07
0.000110551 -4.44386e-05 -3.34825e-06
-4.44386e-05 -0.000212077 -3.27925e-07
-3.34825e-06 -3.27925e-07 -0.000299689
0.00224738 -0.000173433 -4.43469e-07
-0.000173433 -0.000183757 4.83103e-08
-4.43469e-07 4.83103e-08 -6.91085e-05
0.000340166 2.73615e-05 4.5222e-07
2.73615e-05 -4.12898e-05 -2.49591e-06
4.5222e-07 -2.49591e-06 -0.000145699
0.000593886 -5.96498e-05 2.63066e-06
-5.96498e-05 0.000122114 9.77984e-07
2.63066e-06 9.77984e-07 2.32128e-05
0.000918535 -0.000131572 3.99492e-06
-0.000131572 0.00027573 1.94768e-07
3.99492e-06 1.94768e-07 0.00017066
0.00229712 -0.000467844 2.08711e-06
-0.000467844 -0.00018891 -8.33943e-07
2.08711e-06 -8.33943e-07 -2.14025e-05
0.00238991 -0.000693432 5.31011e-07
-0.000693432 3.65505e-05 -5.58279e-07
5.31011e-07 -5.58279e-07 2.82367e-07
0.000523115 -0.000504251 7.20738e-06
-0.000504251 -0.000134743 -2.35949e-07
7.20738e-06 -2.35949e-07 -0.00053679
0.00269308 -0.00105016 1.85667e-05
-0.00105016 0.000785672 2.70543e-07
1.85667e-05 2.70543e-07 0.000245227
0.00238262 -0.000911915 -7.48354e-07
-0.000911915 0.000288273 2.19237e-06
-7.48354e-07 2.19237e-06 3.66744e-05
0.000298188 -2.62431e-05 -5.97165e-07
-2.62431e-05 -4.87766e-05 3.5028e-07
-5.97165e-07 3.5028e-07 -0.000209305
0.00107331 -0.000129112 -7.86092e-07
-0.000129112 0.000467123 4.09248e-06
-7.86092e-07 4.09248e-06 0.000208608
0.00173056 -0.000738775 -8.13107e-07
-0.000738775 0.000555304 1.78677e-06
-8.13107e-07 1.78677e-06 0.00010755
0.00012257 -0.000225383 -1.56877e-06
-0.000225383 -9.33593e-06 2.19733e-06
-1.56877e-06 2.19733e-06 -0.00063247
0.00127532 -0.00012785 1.54838e-06
-0.00012785 0.000488514 5.83756e-06
1.54838e-06 5.83756e-06 0.000223919
0.0027008 -0.000328464 -7.7628e-06
-0.000328464 8.50081e-05 1.7484e-06
-7.7628e-06 1.7484e-06 0.00020871
0.00206542 -0.000520243 -1.57709e-05
-0.000520243 -0.000305163 7.36938e-06
-1.57709e-05 7.36938e-06 -6.42295e-05
0.00217893 -0.000823729 -6.33313e-06
-0.000823729 4.26231e-05 -2.21879e-06
-6.33313e-06 -2.21879e-06 -0.000138522
0.00451534 -0.00123198 -7.15295e-06
-0.00123198 0.00161126 -3.33409e-06
-7.15295e-06 -3.33409e-06 0.00124909
8.15261e-05 -0.00062199 -2.01414e-05
-0.00062199 -0.000418766 -7.83187e-06
-2.01414e-05 -7.83187e-06 -0.000857371
2.54693e-05 -2.84194e-05 7.56471e-07
-2.84194e-05 -0.000231827 9.40315e-07
7.56471e-07 9.40315e-07 -0.000341057
0.000797263 1.09449e-05 -4.69138e-06
1.09449e-05 0.000178892 1.28185e-05
-4.69138e-06 1.28185e-05 7.2545e-05
-0.00161126 -0.000121756 -6.63681e-06
-0.000121756 -0.00129449 1.0331e-06
-6.63681e-06 1.0331e-06 -0.00137376
0.00211814 -0.000298299 -2.45767e-05
-0.000298299 0.00110629 2.50937e-05
-2.45767e-05 2.50937e-05 0.000884567
0.000905055 -0.000103424 -5.54882e-06
-0.000103424 0.000341611 2.72649e-05
-5.54882e-06 2.72649e-05 0.000102555
-0.00144809 -0.000116125 7.37508e-06
-0.000116125 -0.00051786 1.06873e-06
7.37508e-06 1.06873e-06 -0.00128308
0.000449203 -0.000804573 -2.21635e-05
-0.000804573 0.000108415 1.04041e-05
-2.21635e-05 1.04041e-05 -0.000551829
0.00169241 0.00025656 -4.62418e-06
0.00025656 0.000843454 -6.69356e-06
-4.62418e-06 -6.69356e-06 0.000613311
-0.000622476 8.4799e-05 -5.3722e-06
8.4799e-05 -0.000618092 -2.10184e-06
-5.3722e-06 -2.10184e-06 -0.000852735
0.00258026 0.000341006 7.16153e-07
0.000341006 9.44001e-06 1.27498e-06
7.16153e-07 1.27498e-06 0.00010868
0.00257908 0.000608187 1.13184e-05
0.000608187 0.000228073 5.6636e-06
1.13184e-05 5.6636e-06 0.000159399
0.00215104 0.000769485 5.18204e-06
0.000769485 0.0002482 2.72022e-06
5.18204e-06 2.72022e-06 -8.89016e-05
0.0015843 0.000518584 -1.682e-06
0.000518584 0.000468672 1.25912e-06
-1.682e-06 1.25912e-06 0.000120183
0.00173239 0.000737405 1.6253e-06
0.000737405 0.000344382 2.91109e-06
1.6253e-06 2.91109e-06 -0.000101034
0.00200591 0.000318269 7.80639e-07
0.000318269 0.00105293 -6.85825e-07
7.80639e-07 -6.85825e-07 0.000815723
0.00279203 0.000428916 5.89399e-06
0.000428916 0.000183464 2.93759e-06
5.89399e-06 2.93759e-06 0.000362629
0.00120607 0.000415716 -3.9677e-06
0.000415716 0.000425533 3.79351e-06
-3.9677e-06 3.79351e-06 0.000121133
0.00167641 0.000628392 3.40334e-06
0.000628392 0.000463447 -2.96182e-07
3.40334e-06 -2.96182e-07 3.41301e-05
0.00230742 0.000793978 -3.17005e-06
0.000793978 0.000188887 -3.54548e-06
-3.17005e-06 -3.54548e-06 -1.73835e-05
0.00183951 0.000784666 -4.40438e-06
0.000784666 0.000349601 5.33597e-06
-4.40438e-06 5.33597e-06 -9.0957e-05
0.00307955 0.0011428 3.92646e-05
0.0011428 -0.000636277 7.91458e-06
3.92646e-05 7.91458e-06 -0.000452332
0.000317421 0.000269557 -2.48871e-06
0.000269557 0.000103186 1.50463e-06
-2.48871e-06 1.50463e-06 -0.000157612
0.00280449 0.000785211 -8.22303e-05
0.000785211 0.000311217 -3.77555e-05
-8.22303e-05 -3.77555e-05 0.00027441
0.000665673 0.000412776 -7.82268e-06
0.000412776 -8.22183e-05 2.79776e-06
-7.82268e-06 2.79776e-06 -0.000406413
-3.63641e-05 0.0004745 -5.19051e-07
0.0004745 -0.000549225 -1.53215e-05
-5.19051e-07 -1.53215e-05 -0.000949759
0.0013667 0.0008484 -3.76517e-05
0.0008484 -0.000121611 -1.23546e-05
-3.76517e-05 -1.23546e-05 -0.000399418
0.014799 0.00041252 -0.000510846
0.00041252 0.00221852 -8.68247e-05
-0.000510846 -8.68247e-05 0.00179374
0.00356169 0.00176104 -5.95217e-05
0.00176104 -0.00205659 -6.69518e-05
-5.95217e-05 -6.69518e-05 -0.00072455
0.00038651 0.00130625 1.2906e-05
0.00130625 -0.000868491 1.82732e-06
1.2906e-05 1.82732e-06 -0.00111257
0.00273688 -0.00229386 0.00155577
-0.00229386 0.00204718 0.000314032
0.00155577 0.000314032 -0.00140095
0.0223598 -0.00877754 -4.64763e-05
-0.00877754 0.00878619 8.0844e-05
-4.64763e-05 8.0844e-05 0.00598846
-6.20329e-05 0.000105175 7.54628e-06
0.000105175 -0.000185781 1.61225e-06
7.54628e-06 1.61225e-06 -0.000278372
0.000826399 0.00011313 -9.99215e-07
0.00011313 0.000331989 -2.7866e-06
-9.99215e-07 -2.7866e-06 0.000255493
0.00198634 0.000281974 1.79654e-06
0.000281974 0.00107467 -2.1692e-07
1.79654e-06 -2.1692e-07 0.000946421
0.000491587 -5.60827e-05 -4.37455e-07
-5.60827e-05 7.04831e-05 -2.91114e-06
-4.37455e-07 -2.91114e-06 -6.4218e-05
0.000344436 6.54788e-05 -9.02672e-07
6.54788e-05 -3.77583e-05 -3.4774e-06
-9.02672e-07 -3.4774e-06 -0.000184907
0.000742029 -2.56498e-05 -3.84421e-08
-2.56498e-05 0.000222704 -1.66061e-06
-3.84421e-08 -1.66061e-06 6.80869e-05
0.000784727 8.1067e-05 -3.87177e-06
8.1067e-05 0.000215592 1.07128e-05
-3.87177e-06 1.07128e-05 0.000110594
0.000134842 8.40952e-05 1.71771e-06
8.40952e-05 -0.000210308 8.60859e-06
1.71771e-06 8.60859e-06 -0.000250838
0.000770411 0.000150694 -1.33983e-06
0.000150694 0.000264371 -4.15015e-07
-1.33983e-06 -4.15015e-07 8.1131e-05
0.000403284 -1.12792e-05 3.80036e-07
-1.12792e-05 -5.33639e-06 1.0311e-06
3.80036e-07 1.0311e-06 -0.000136086
0.000711422 5.45722e-05 -7.25824e-07
5.45722e-05 0.000204789 3.69971e-08
-7.25824e-07 3.69971e-08 3.59381e-05
0.000271424 9.14027e-05 -1.08349e-06
9.14027e-05 -8.6647e-05 -2.11482e-06
-1.08349e-06 -2.11482e-06 -0.000136648
0.000649444 0.000119027 -1.50119e-06
0.000119027 0.000140236 -1.97823e-07
-1.50119e-06 -1.97823e-07 -3.77078e-06
0.0020716 0.000244929 -1.41949e-06
0.000244929 0.00106504 -8.17219e-07
-1.41949e-06 -8.17219e-07 0.000870006
0.000227456 0.000104014 1.54306e-07
0.000104014 -3.69355e-05 -3.47199e-06
1.54306e-07 -3.47199e-06 -0.000200037
0.000905721 0.000107904 2.91502e-06
0.000107904 0.000332851 1.57696e-07
2.91502e-06 1.57696e-07 0.00016024
0.000310679 -8.11502e-06 8.90245e-07
-8.11502e-06 -6.51312e-05 -7.86015e-08
8.90245e-07 -7.86015e-08 -0.000227603
0.000346994 -7.30725e-05 -7.26378e-07
-7.30725e-05 -4.05114e-05 1.41507e-06
-7.26378e-07 1.41507e-06 -0.000175363
0.000647683 -3.16626e-05 -6.90946e-07
-3.16626e-05 0.000163664 -5.84203e-07
-6.90946e-07 -5.84203e-07 -2.16439e-06
0.00135749 -1.50081e-05 1.18209e-06
-1.50081e-05 0.000603002 -1.04877e-05
1.18209e-06 -1.04877e-05 0.000443549
0.000740887 -5.13887e-05 -9.344e-07
-5.13887e-05 0.000264531 -1.15351e-06
-9.344e-07 -1.15351e-06 0.000101939
0.000747446 -7.62529e-05 1.91359e-06
-7.62529e-05 0.00024484 -7.69204e-07
1.91359e-06 -7.69204e-07 7.73779e-05
0.000658851 -0.000126431 -1.90716e-06
-0.000126431 0.000160541 3.36498e-06
-1.90716e-06 3.36498e-06 2.4501e-05
0.000270602 -2.49582e-05 2.17959e-07
-2.49582e-05 -9.01336e-05 1.03914e-06
2.17959e-07 1.03914e-06 -0.00022431
0.000502149 -5.81445e-05 -1.78359e-06
-5.81445e-05 3.26258e-05 4.03682e-06
-1.78359e-06 4.03682e-06 -4.76245e-05
0.000498522 -3.91122e-05 1.96055e-06
-3.91122e-05 3.77557e-05 1.09032e-07
1.96055e-06 1.09032e-07 -4.68459e-05
0.000433538 2.66928e-06 3.02155e-06
2.66928e-06 -2.66584e-05 6.45356e-06
3.02155e-06 6.45356e-06 -5.23888e-05
0.000508829 5.31137e-05 -1.83272e-06
5.31137e-05 3.81203e-05 -3.3928e-06
-1.83272e-06 -3.3928e-06 -4.13674e-05
0.000398197 3.26152e-05 3.33521e-07
3.26152e-05 -5.00827e-05 7.43998e-08
3.33521e-07 7.43998e-08 -7.54325e-05
0.00255318 5.59814e-06 6.34196e-06
5.59814e-06 0.00128682 5.4206e-06
6.34196e-06 5.4206e-06 0.00129909
0.000457092 4.17882e-05 -3.77097e-06
4.17882e-05 -1.74169e-05 -7.41659e-06
-3.77097e-06 -7.41659e-06 -4.35649e-05
0.0017142 -4.71734e-06 -4.02583e-06
-4.71734e-06 0.000756366 1.79244e-07
-4.02583e-06 1.79244e-07 0.000764154
0.000815854 -1.09737e-05 4.9148e-07
-1.09737e-05 0.00018256 -2.37937e-06
4.9148e-07 -2.37937e-06 0.000187361
0.000433672 6.79957e-06 -3.33362e-07
6.79957e-06 -3.05439e-05 -1.69967e-06
-3.33362e-07 -1.69967e-06 -7.27827e-05
0.000529609 -3.85935e-05 1.04085e-07
-3.85935e-05 3.75419e-05 2.03928e-08
1.04085e-07 2.03928e-08 -1.55683e-05
0.000517982 1.20781e-05 9.95655e-07
1.20781e-05 -4.27364e-06 -3.32823e-06
9.95655e-07 -3.32823e-06 -1.56976e-05
0.000479591 -3.91582e-05 -1.40562e-06
-3.91582e-05 -6.32843e-08 3.67748e-07
-1.40562e-06 3.67748e-07 -5.2889e-05
0.000796472 2.77931e-05 -1.67467e-07
2.77931e-05 0.000174533 -7.10459e-07
-1.67467e-07 -7.10459e-07 0.000161995
0.0020317 5.35913e-05 5.72746e-06
5.35913e-05 0.000961572 -4.61952e-06
5.72746e-06 -4.61952e-06 0.00097461
0.00045535 3.45785e-05 1.20303e-06
3.45785e-05 -3.35816e-05 3.79893e-06
1.20303e-06 3.79893e-06 -5.35149e-05
0.00236942 7.93783e-05 -5.67283e-06
7.93783e-05 0.00118448 1.18146e-06
-5.67283e-06 1.18146e-06 0.00119155
0.0026009 0.000109159 3.93542e-07
0.000109159 0.00133943 5.95714e-06
3.93542e-07 5.95714e-06 0.00133955
0.00231543 0.000176446 -2.65731e-06
0.000176446 -6.59193e-05 -7.57556e-07
-2.65731e-06 -7.57556e-07 5.11417e-06
0.00213425 -6.05368e-06 2.16035e-06
-6.05368e-06 -7.95758e-05 -2.7728e-07
2.16035e-06 -2.7728e-07 -9.79774e-06
0.00207092 6.76982e-05 -8.15628e-06
6.76982e-05 -0.000212694 3.68064e-06
-8.15628e-06 3.68064e-06 -0.000138183
0.00257523 0.000643305 9.57604e-05
0.000643305 -0.00152331 2.05595e-05
9.57604e-05 2.05595e-05 -0.000742078
0.00239652 -3.01646e-05 -1.1573e-07
-3.01646e-05 -8.24975e-05 -2.79325e-06
-1.1573e-07 -2.79325e-06 2.94915e-05
0.00223231 6.63443e-05 -1.14e-08
6.63443e-05 7.99874e-05 -9.46924e-06
-1.14e-08 -9.46924e-06 0.000230694
0.00318968 -4.33363e-05 -2.45808e-05
-4.33363e-05 0.000772354 -1.25821e-06
-2.45808e-05 -1.25821e-06 0.00080792
0.00327819 0.000156016 -1.70135e-05
0.000156016 -0.00193866 -4.17102e-05
-1.70135e-05 -4.17102e-05 -0.000809804
0.0025501 0.00022001 0.000131305
0.00022001 -0.000879084 4.85353e-05
0.000131305 4.85353e-05 -0.000336506
0.000591726 8.87067e-05 -5.25063e-08
8.87067e-05 0.000115068 -8.08829e-07
-5.25063e-08 -8.08829e-07 1.99268e-05
0.000575357 -3.02494e-06 3.74035e-07
-3.02494e-06 0.000116303 -1.12313e-07
3.74035e-07 -1.12313e-07 1.20881e-05
0.000332428 -9.03123e-05 -6.33297e-06
-9.03123e-05 -2.36044e-05 1.44976e-06
-6.33297e-06 1.44976e-06 -0.000139918
0.000410099 -4.75065e-05 -3.9384e-06
-4.75065e-05 2.84413e-05 2.0508e-06
-3.9384e-06 2.0508e-06 -9.06336e-05
0.00232995 -0.00019369 -3.26829e-06
-0.00019369 -0.000157061 -5.51941e-07
-3.26829e-06 -5.51941e-07 -2.45583e-05
0.00229663 -0.000475428 6.33171e-07
-0.000475428 -0.00016188 -2.34394e-06
6.33171e-07 -2.34394e-06 -3.24215e-05
0.00230751 -0.000684857 -3.57968e-06
-0.000684857 -4.5464e-06 1.93463e-06
-3.57968e-06 1.93463e-06 -4.12802e-05
0.00369496 -0.000863315 2.05587e-05
-0.000863315 0.00168787 1.42964e-05
2.05587e-05 1.42964e-05 0.00121849
0.000328741 -0.000794851 -1.68464e-06
-0.000794851 -0.000545399 1.95671e-06
-1.68464e-06 1.95671e-06 -0.00103476
0.00232137 -0.000909502 -6.66997e-07
-0.000909502 0.000268676 -1.28117e-06
-6.66997e-07 -1.28117e-06 7.66948e-06
0.000849002 -0.000702612 2.31199e-05
-0.000702612 1.88297e-05 -2.06952e-05
2.31199e-05 -2.06952e-05 -0.000466797
0.0035958 -0.000330771 1.03233e-05
-0.000330771 0.00176482 -6.49887e-06
1.03233e-05 -6.49887e-06 0.00136416
-7.25822e-05 -1.72823e-05 -7.2246e-06
-1.72823e-05 -0.000419422 3.71994e-06
-7.2246e-06 3.71994e-06 -0.000629589
0.000645866 -5.94391e-05 3.8147e-06
-5.94391e-05 0.000153686 -9.42815e-07
3.8147e-06 -9.42815e-07 5.54596e-05
0.000614625 -0.000140419 -4.09832e-06
-0.000140419 0.000197379 -1.29863e-05
-4.09832e-06 -1.29863e-05 -6.36119e-05
0.000429547 -2.49605e-05 5.97082e-06
-2.49605e-05 3.25662e-05 -1.40958e-06
5.97082e-06 -1.40958e-06 -0.000122414
0.000585219 1.16464e-06 5.47681e-07
1.16464e-06 0.00013892 1.85521e-06
5.47681e-07 1.85521e-06 2.1755e-05
0.000646804 -7.91468e-05 -7.85625e-06
-7.91468e-05 0.000107132 -7.85026e-07
-7.85625e-06 -7.85026e-07 1.4513e-05
0.00263941 -0.000310289 2.0739e-06
-0.000310289 5.93477e-05 1.43014e-06
2.0739e-06 1.43014e-06 0.000199679
0.000483306 -2.58958e-05 -8.12257e-07
-2.58958e-05 7.38916e-05 2.08679e-06
-8.12257e-07 2.08679e-06 -5.66723e-05
0.000833148 -4.9788e-05 6.90628e-06
-4.9788e-05 0.00021409 -2.43302e-07
6.90628e-06 -2.43302e-07 9.72547e-05
-0.000741978 -4.47558e-05 4.87743e-06
-4.47558e-05 -0.000689202 -4.97749e-07
4.87743e-06 -4.97749e-07 -0.000749958
0.00205843 -0.000533099 7.55772e-07
-0.000533099 -0.000331031 -1.28851e-06
7.55772e-07 -1.28851e-06 -0.000107228
0.00229136 -0.000834617 2.15158e-06
-0.000834617 9.91695e-05 -1.31865e-06
2.15158e-06 -1.31865e-06 -7.65667e-05
0.00195103 -0.000872212 -4.91958e-06
-0.000872212 0.00062064 6.27254e-07
-4.91958e-06 6.27254e-07 0.000136429
0.00265124 -0.00104504 -6.17569e-06
-0.00104504 0.000594445 1.54973e-06
-6.17569e-06 1.54973e-06 0.000255328
0.00148264 -0.000164237 4.11779e-06
-0.000164237 0.000696284 -2.9112e-06
4.11779e-06 -2.9112e-06 0.000484432
0.000161372 -3.85213e-05 7.91722e-06
-3.85213e-05 -0.000149956 9.97895e-06
7.91722e-06 9.97895e-06 -0.000384615
0.00178893 -0.00105114 1.48954e-06
-0.00105114 0.000944624 -2.83854e-06
1.48954e-06 -2.83854e-06 0.000196211
0.0011039 -0.000403579 -7.90687e-06
-0.000403579 0.000483423 -6.63007e-07
-7.90687e-06 -6.63007e-07 -2.28189e-05
0.00342658 -0.000456052 -4.49013e-05
-0.000456052 0.00043777 6.00682e-06
-4.49013e-05 6.00682e-06 0.00070237
0.00268816 -0.000695924 -4.13486e-05
-0.000695924 0.000242844 1.29841e-05
-4.13486e-05 1.29841e-05 0.000303401
0.00260762 -0.000973127 3.59981e-06
-0.000973127 0.000469921 -1.04774e-05
3.59981e-06 -1.04774e-05 0.000138653
0.00305798 -0.00104987 6.32666e-06
-0.00104987 0.00103942 6.07843e-06
6.32666e-06 6.07843e-06 0.000684225
4.23117e-05 -6.86291e-05 -2.14826e-06
-6.86291e-05 -0.000127055 -7.72211e-06
-2.14826e-06 -7.72211e-06 -0.000257318
0.000442676 -0.000130204 -1.33715e-05
-0.000130204 5.83485e-05 -2.40899e-06
-1.33715e-05 -2.40899e-06 -0.000133053
0.000141335 -0.000190832 -6.99956e-06
-0.000190832 0.00014319 5.22114e-05
-6.99956e-06 5.22114e-05 -0.000191299
-0.000339672 -0.000894412 -3.2106e-06
-0.000894412 0.000387284 -2.76478e-05
-3.2106e-06 -2.76478e-05 -0.000705607
0.00275016 -0.000458353 5.98605e-05
-0.000458353 -0.00534897 -2.2652e-05
5.98605e-05 -2.2652e-05 -0.0054008
0.00238709 0.000300927 1.0335e-06
0.000300927 0.00126246 -3.46198e-06
1.0335e-06 -3.46198e-06 0.00102825
0.00128966 0.000365511 -1.30848e-06
0.000365511 0.000461329 3.26487e-08
-1.30848e-06 3.26487e-08 0.000181245
0.00191292 0.00034895 5.54415e-05
0.00034895 -0.000305688 1.69716e-05
5.54415e-05 1.69716e-05 -0.000100632
0.00255739 0.0008003 2.363e-05
0.0008003 0.000339736 9.8818e-06
2.363e-05 9.8818e-06 0.000145375
0.002227 0.000833723 8.09352e-06
0.000833723 0.000577186 1.12803e-05
8.09352e-06 1.12803e-05 0.000122608
0.00126546 0.000583322 7.05744e-06
0.000583322 0.000255354 7.39886e-06
7.05744e-06 7.39886e-06 -0.000177694
0.00549358 0.00148262 0.000113553
0.00148262 0.000286579 3.25004e-05
0.000113553 3.25004e-05 0.000269223
0.00133183 0.000316191 5.22714e-06
0.000316191 0.000692265 4.87311e-07
5.22714e-06 4.87311e-07 0.000441291
0.00264207 0.000746089 -2.43453e-05
0.000746089 0.000210231 8.18371e-07
-2.43453e-05 8.18371e-07 0.000207066
0.000907868 0.000443111 -5.166e-06
0.000443111 0.000106725 3.85726e-06
-5.166e-06 3.85726e-06 -0.000232016
0.00146439 0.00067463 6.46125e-07
0.00067463 0.00031881 -6.74623e-06
6.46125e-07 -6.74623e-06 -0.00012267
0.00230847 0.000928733 -1.13057e-05
0.000928733 0.000384883 -3.78672e-07
-1.13057e-05 -3.78672e-07 7.8816e-05
0.0047463 -0.000652186 -0.000165548
-0.000652186 -0.00488643 -9.05035e-05
-0.000165548 -9.05035e-05 -0.0057043
0.00694523 0.00183817 -0.000146724
0.00183817 -0.000442819 -6.02736e-05
-0.000146724 -6.02736e-05 0.000663776
0.00119573 0.00131126 -9.63434e-07
0.00131126 -0.000416164 5.38081e-06
-9.63434e-07 5.38081e-06 -0.000773896
0.00115201 -0.0020799 0.000558333
-0.0020799 0.00296055 0.000214791
0.000558333 0.000214791 -2.74541e-05
0.0143517 -0.00895687 -0.000495831
-0.00895687 0.00699851 -0.000449411
-0.000495831 -0.000449411 0.00402346
0.000681483 0.00025832 -1.47985e-05
0.00025832 0.000181961 -1.52999e-06
-1.47985e-05 -1.52999e-06 -3.96037e-05
0.00138931 0.000544086 0.00078608
0.000544086 0.00423118 6.95752e-05
0.00078608 6.95752e-05 0.0022271
0.00394704 -0.00325931 -0.000180431
-0.00325931 0.00590839 -0.000230834
-0.000180431 -0.000230834 0.000558292
0.00320997 0.00119827 -5.80653e-05
0.00119827 0.000653035 -1.42432e-05
-5.80653e-05 -1.42432e-05 0.000454006
0.000670787 0.0003513 -2.76849e-05
0.0003513 -3.46819e-05 -5.24766e-06
-2.76849e-05 -5.24766e-06 -0.000332143
0.000861725 0.000693629 -3.30317e-05
0.000693629 4.13959e-05 -2.78314e-05
-3.30317e-05 -2.78314e-05 -0.000332615
-0.000342801 0.00116495 5.43644e-05
0.00116495 -0.000954905 9.81618e-05
5.43644e-05 9.81618e-05 -0.0013242
0.0125072 0.00252018 5.87087e-05
0.00252018 0.00132185 -1.75577e-05
5.87087e-05 -1.75577e-05 0.000534524
0.00499189 0.00271717 -5.23373e-05
0.00271717 -0.000226981 -5.03618e-05
-5.23373e-05 -5.03618e-05 0.000468286
0.0159377 -0.00666145 0.00102006
-0.00666145 0.00517015 0.00052721
0.00102006 0.00052721 0.00126717
0.0133433 -0.0030447 -0.000104542
-0.0030447 0.00389776 0.000632764
-0.000104542 0.000632764 0.00212778
0.000310497 8.09774e-05 4.47445e-06
8.09774e-05 5.50242e-05 -5.57647e-06
4.47445e-06 -5.57647e-06 -3.33249e-05
0.000203987 0.000134181 8.17847e-06
0.000134181 -1.27715e-05 1.45238e-06
8.17847e-06 1.45238e-06 -0.000124631
0.00193023 0.000307251 2.78069e-06
0.000307251 0.00105382 -2.02744e-06
2.78069e-06 -2.02744e-06 0.000867166
0.000581673 7.20862e-06 1.14517e-06
7.20862e-06 0.000132141 -3.95385e-08
1.14517e-06 -3.95385e-08 -1.52932e-05
0.000601912 7.0863e-05 -5.09842e-07
7.0863e-05 0.00012805 -2.39079e-06
-5.09842e-07 -2.39079e-06 -3.34316e-05
-2.06015e-05 3.73683e-05 -1.58681e-06
3.73683e-05 -0.000250006 7.18338e-07
-1.58681e-06 7.18338e-07 -0.000408381
0.000797129 0.000123178 -7.71646e-06
0.000123178 0.000254119 2.06223e-06
-7.71646e-06 2.06223e-06 0.000104927
-0.000404747 6.51695e-05 -3.86461e-06
6.51695e-05 -0.000524396 -3.30679e-07
-3.86461e-06 -3.30679e-07 -0.000572585
0.000338867 -1.24133e-05 5.7594e-08
-1.24133e-05 -4.02653e-05 7.71359e-07
5.7594e-08 7.71359e-07 -0.000178817
0.00132279 0.000151272 1.98295e-06
0.000151272 0.000575129 1.32457e-07
1.98295e-06 1.32457e-07 0.000399236
0.000564658 5.98998e-05 -3.30379e-08
5.98998e-05 0.000131031 8.41912e-08
-3.30379e-08 8.41912e-08 -4.79976e-05
0.000776539 3.9469e-05 1.32779e-06
3.9469e-05 0.000257663 -4.03931e-07
1.32779e-06 -4.03931e-07 7.40839e-05
0.000277431 0.000103636 -5.81145e-07
0.000103636 -4.53084e-06 -2.98494e-06
-5.81145e-07 -2.98494e-06 -0.000165968
0.0014795 0.000140272 -2.23513e-06
0.000140272 0.000702538 -3.07895e-06
-2.23513e-06 -3.07895e-06 0.000530378
-0.000378409 5.7963e-05 -6.45714e-06
5.7963e-05 -0.000267297 -5.20619e-06
-6.45714e-06 -5.20619e-06 -0.00050166
0.000403422 -7.64595e-05 3.20076e-08
-7.64595e-05 2.16685e-05 -8.10765e-10
3.20076e-08 -8.10765e-10 -0.000154529
0.000789259 -8.54022e-05 -1.48445e-06
-8.54022e-05 0.00027317 -9.01104e-07
-1.48445e-06 -9.01104e-07 8.96243e-05
0.000798496 -5.07569e-05 -3.07241e-07
-5.07569e-05 0.00027617 -7.02123e-07
-3.07241e-07 -7.02123e-07 9.59359e-05
0.000670645 -3.24358e-05 -3.95489e-06
-3.24358e-05 0.000157826 4.84492e-07
-3.95489e-06 4.84492e-07 1.76371e-05
0.00111847 7.42007e-06 -6.77716e-06
7.42007e-06 0.000513374 -5.24797e-06
-6.77716e-06 -5.24797e-06 0.00030837
0.000815981 -6.93128e-05 2.90818e-06
-6.93128e-05 0.000258537 -1.00589e-05
2.90818e-06 -1.00589e-05 0.000123257
-0.00134111 3.89049e-09 -3.55921e-06
3.89049e-09 -0.0010666 -7.03278e-06
-3.55921e-06 -7.03278e-06 -0.00118323
0.000301066 -4.34239e-05 2.22087e-06
-4.34239e-05 -1.29954e-05 -2.05207e-06
2.22087e-06 -2.05207e-06 -0.000194483
0.000322558 -7.86633e-05 1.8856e-06
-7.86633e-05 -3.94856e-05 3.10816e-07
1.8856e-06 3.10816e-07 -0.000177069
0.000753641 -0.000113873 -1.16831e-06
-0.000113873 0.000253208 1.38169e-07
-1.16831e-06 1.38169e-07 9.76238e-05
0.000518136 -8.62124e-05 -1.05309e-06
-8.62124e-05 5.43009e-05 2.31638e-06
-1.05309e-06 2.31638e-06 -6.49014e-05
0.000419157 -8.89705e-05 3.24003e-06
-8.89705e-05 4.2055e-06 5.42166e-07
3.24003e-06 5.42166e-07 -0.000137761
0.000538808 -0.000115861 2.87321e-09
-0.000115861 8.19784e-05 2.01827e-07
2.87321e-09 2.01827e-07 -5.27945e-05
0.000536096 -5.70525e-05 -2.05094e-06
-5.70525e-05 5.07406e-05 4.87366e-06
-2.05094e-06 4.87366e-06 -3.02171e-05
0.00037971 -7.6912e-06 8.19984e-07
-7.6912e-06 -3.98135e-06 -1.23494e-06
8.19984e-07 -1.23494e-06 -0.00015044
0.000487795 6.14618e-07 2.29227e-06
6.14618e-07 3.13022e-05 1.41275e-07
2.29227e-06 1.41275e-07 -5.37957e-05
0.00145286 -3.20356e-05 -9.6305e-06
-3.20356e-05 0.000605773 6.94663e-06
-9.6305e-06 6.94663e-06 0.000584184
0.000475076 6.80178e-05 -2.07013e-06
6.80178e-05 2.29217e-05 -3.30496e-06
-2.07013e-06 -3.30496e-06 -6.10965e-05
0.000868365 -1.74121e-05 -4.01703e-06
-1.74121e-05 0.000245662 7.33312e-07
-4.01703e-06 7.33312e-07 0.000221997
0.000784109 3.51561e-06 -2.7008e-06
3.51561e-06 0.000177323 4.80371e-06
-2.7008e-06 4.80371e-06 0.000181683
0.00038537 -1.9972e-05 3.5152e-06
-1.9972e-05 -5.89835e-05 -4.98252e-06
3.5152e-06 -4.98252e-06 -8.3477e-05
0.00257985 4.00958e-06 7.18538e-06
4.00958e-06 0.00130397 -1.19521e-08
7.18538e-06 -1.19521e-08 0.00131615
0.000883518 3.21419e-06 -9.52473e-06
3.21419e-06 0.000236262 -5.42984e-06
-9.52473e-06 -5.42984e-06 0.000239822
0.000504088 6.65966e-05 2.25497e-06
6.65966e-05 6.19404e-05 8.64433e-07
2.25497e-06 8.64433e-07 -3.94262e-05
0.000454403 5.33425e-05 -2.50304e-06
5.33425e-05 -6.43774e-06 -2.27639e-06
-2.50304e-06 -2.27639e-06 -5.41528e-05
0.000474709 -3.18966e-06 1.59905e-06
-3.18966e-06 7.23729e-06 1.49498e-07
1.59905e-06 1.49498e-07 -4.26321e-05
0.000476953 9.28524e-06 9.16444e-07
9.28524e-06 -2.92912e-05 -3.08274e-06
9.16444e-07 -3.08274e-06 -3.92146e-05
0.000551482 -6.35474e-05 -1.86354e-06
-6.35474e-05 5.95036e-05 2.17047e-06
-1.86354e-06 2.17047e-06 1.77014e-06
0.000473282 1.31339e-05 1.11065e-07
1.31339e-05 -3.27126e-05 -7.24051e-07
1.11065e-07 -7.24051e-07 -4.39273e-05
0.00201808 3.72333e-05 3.84723e-06
3.72333e-05 0.000948635 -4.66565e-06
3.84723e-06 -4.66565e-06 0.000964052
0.00110933 3.61657e-05 -6.74296e-08
3.61657e-05 0.000373477 1.65507e-06
-6.74296e-08 1.65507e-06 0.000361972
0.00146764 4.61019e-05 -3.68974e-07
4.61019e-05 0.000606773 1.43772e-06
-3.68974e-07 1.43772e-06 0.000614945
0.000890566 5.01914e-05 -5.9812e-06
5.01914e-05 0.000249055 8.21858e-06
-5.9812e-06 8.21858e-06 0.000249228
0.000909821 0.00044688 7.56284e-05
0.00044688 -0.0023173 1.58491e-05
7.56284e-05 1.58491e-05 -0.00150893
0.00237037 -5.10496e-05 -4.42935e-06
-5.10496e-05 -6.4412e-05 6.18763e-06
-4.42935e-06 6.18763e-06 3.90923e-05
0.00220262 7.01532e-05 3.1071e-05
7.01532e-05 8.73845e-05 -1.21844e-05
3.1071e-05 -1.21844e-05 0.00021318
0.00277599 0.000399965 -5.49179e-05
0.000399965 -0.00187887 -3.71128e-05
-5.49179e-05 -3.71128e-05 -0.000483658
0.00254569 0.000119215 4.67213e-05
0.000119215 -0.000678701 -1.63111e-06
4.67213e-05 -1.63111e-06 -0.000235501
0.00261544 -5.23621e-05 2.66649e-06
-5.23621e-05 0.000339827 -9.69843e-06
2.66649e-06 -9.69843e-06 0.000407343
0.00482012 -0.000371142 -5.91327e-05
-0.000371142 0.00107994 -1.95811e-05
-5.91327e-05 -1.95811e-05 0.0012503
0.0031214 -0.00026867 2.93306e-05
-0.00026867 -0.000532174 1.16596e-07
2.93306e-05 1.16596e-07 0.000158295
0.016519 -0.000871569 5.40424e-05
-0.000871569 0.00282455 -2.16307e-05
5.40424e-05 -2.16307e-05 0.00181512
0.015335 0.00576196 0.00148698
0.00576196 0.00599248 -0.000462524
0.00148698 -0.000462524 0.00285481
0.0196212 0.00667723 5.15326e-05
0.00667723 0.0126434 1.48579e-05
5.15326e-05 1.48579e-05 0.00947963
0.000157386 -9.89695e-05 -8.6792e-08
-9.89695e-05 -0.000137621 -5.24045e-07
-8.6792e-08 -5.24045e-07 -0.000248712
0.000540652 -6.11617e-06 1.61695e-06
-6.11617e-06 8.2033e-05 -8.53744e-08
1.61695e-06 -8.53744e-08 -1.28758e-05
0.000619198 -8.79225e-05 -3.00232e-07
-8.79225e-05 0.000149987 3.28499e-06
-3.00232e-07 3.28499e-06 3.93084e-05
0.000540198 -3.22697e-05 8.52727e-07
-3.22697e-05 9.49632e-05 4.07717e-07
8.52727e-07 4.07717e-07 -2.09161e-05
0.000925501 0.000112302 -4.99577e-06
0.000112302 0.000383964 8.95201e-07
-4.99577e-06 8.95201e-07 0.000247182
0.000487396 0.000132444 5.40738e-07
0.000132444 3.63375e-05 7.5094e-06
5.40738e-07 7.5094e-06 -8.56133e-05
0.000963883 -2.50411e-06 2.28808e-06
-2.50411e-06 0.000376347 3.92979e-06
2.28808e-06 3.92979e-06 0.00023662
0.000518752 -2.73532e-05 -1.54762e-06
-2.73532e-05 7.73734e-05 1.31129e-06
-1.54762e-06 1.31129e-06 -3.80751e-05
0.00259326 -0.000294298 1.20259e-05
-0.000294298 2.49479e-05 -1.92154e-06
1.20259e-05 -1.92154e-06 0.000196814
0.00210348 -0.000557595 1.45203e-05
-0.000557595 -0.000339589 -6.70074e-06
1.45203e-05 -6.70074e-06 -0.000132877
0.0023385 -0.000840691 -1.21253e-07
-0.000840691 0.000119163 4.40883e-06
-1.21253e-07 4.40883e-06 -5.08501e-05
0.00228192 -0.000882023 1.74279e-05
-0.000882023 0.000770054 8.4961e-06
1.74279e-05 8.4961e-06 0.000312623
0.00202478 -0.00100045 -1.82247e-05
-0.00100045 0.000248237 5.40017e-06
-1.82247e-05 5.40017e-06 -9.42515e-05
0.00204421 -0.00112543 3.66739e-05
-0.00112543 0.00117485 -1.2168e-05
3.66739e-05 -1.2168e-05 0.000339059
0.00472013 -0.000762853 5.47653e-06
-0.000762853 0.00238398 2.84218e-06
5.47653e-06 2.84218e-06 0.00197271
0.00101549 -0.000236546 7.77207e-06
-0.000236546 0.000448424 -4.92312e-05
7.77207e-06 -4.92312e-05 0.000131849
0.000594296 -8.85722e-05 3.58987e-06
-8.85722e-05 4.26227e-05 -4.45923e-07
3.58987e-06 -4.45923e-07 -5.84959e-05
0.000870646 -7.98736e-05 1.06436e-05
-7.98736e-05 0.000279388 -1.96858e-05
1.06436e-05 -1.96858e-05 8.61112e-05
0.00105202 -4.96819e-05 3.74263e-06
-4.96819e-05 0.000419811 1.77912e-06
3.74263e-06 1.77912e-06 0.000278476
0.00079934 1.90926e-05 7.37604e-06
1.90926e-05 0.000287946 -6.25412e-06
7.37604e-06 -6.25412e-06 0.000255737
0.00244271 -0.000405616 -5.99541e-07
-0.000405616 -7.97513e-05 3.10467e-06
-5.99541e-07 3.10467e-06 0.000210597
0.000486066 -8.17799e-05 -3.63759e-06
-8.17799e-05 0.000133426 -4.42309e-07
-3.63759e-06 -4.42309e-07 -3.41334e-06
0.00118094 -0.000176476 -7.60602e-06
-0.000176476 0.000490814 4.59886e-06
-7.60602e-06 4.59886e-06 0.000325603
0.00173086 -0.000638489 7.92857e-06
-0.000638489 -0.0003172 -3.69642e-06
7.92857e-06 -3.69642e-06 -0.000202882
0.00183528 -0.000856584 1.23695e-06
-0.000856584 4.07868e-05 5.1748e-07
1.23695e-06 5.1748e-07 -0.000214133
0.000912911 -0.000793413 -1.64853e-06
-0.000793413 -0.000187601 -5.19333e-06
-1.64853e-06 -5.19333e-06 -0.000481044
0.00171273 -0.000360812 1.0326e-06
-0.000360812 0.000984438 -2.5331e-05
1.0326e-06 -2.5331e-05 0.000593107
0.00155432 -0.000666233 6.13185e-06
-0.000666233 0.00124238 3.60872e-06
6.13185e-06 3.60872e-06 0.000386152
0.00521925 -0.00084348 -5.37732e-05
-0.00084348 0.00127531 2.40686e-05
-5.37732e-05 2.40686e-05 0.0014789
0.00416 -0.000991334 -4.79549e-05
-0.000991334 0.00133327 1.26839e-05
-4.79549e-05 1.26839e-05 0.00113306
0.00215702 -0.000992795 1.10206e-05
-0.000992795 0.000324481 -3.53669e-06
1.10206e-05 -3.53669e-06 5.73463e-05
-0.000917878 -0.000446116 -3.2101e-06
-0.000446116 -0.000926754 1.44394e-05
-3.2101e-06 1.44394e-05 -0.00105422
0.00035312 -0.000146995 1.02056e-06
-0.000146995 8.94522e-05 8.4837e-06
1.02056e-06 8.4837e-06 -0.00014678
0.000293402 -0.000161159 4.24596e-06
-0.000161159 0.000116702 5.33077e-07
4.24596e-06 5.33077e-07 -0.000155223
0.00203503 -0.000257618 -8.01198e-06
-0.000257618 0.00148289 -2.43798e-05
-8.01198e-06 -2.43798e-05 0.000799049
-0.00683437 -0.00039355 0.000579751
-0.00039355 -0.00422357 -3.39712e-05
0.000579751 -3.39712e-05 -0.00398632
0.0117683 -0.00035902 6.88263e-05
-0.00035902 0.00110391 2.34113e-05
6.88263e-05 2.34113e-05 0.00124427
0.00252226 0.000365059 1.10018e-05
0.000365059 0.00135531 -1.02522e-05
1.10018e-05 -1.02522e-05 0.00113517
0.0015735 0.000524359 -3.14831e-06
0.000524359 0.000548322 5.79427e-06
-3.14831e-06 5.79427e-06 0.00018314
0.00290137 0.000708263 0.000100546
0.000708263 0.000370133 4.32339e-05
0.000100546 4.32339e-05 0.000387289
0.00299288 0.000993517 2.45361e-05
0.000993517 0.000752424 9.83132e-06
2.45361e-05 9.83132e-06 0.000427416
0.0029545 0.000869316 1.81669e-05
0.000869316 0.00117367 5.44378e-06
1.81669e-05 5.44378e-06 0.000694997
0.0160011 0.000741214 8.55178e-05
0.000741214 0.00296246 -3.6913e-05
8.55178e-05 -3.6913e-05 0.00224729
0.0085778 0.0023658 -0.000222678
0.0023658 -0.000647293 -2.97629e-05
-0.000222678 -2.97629e-05 0.000765694
0.00178966 0.00128821 8.4239e-06
0.00128821 5.36617e-05 -3.27909e-05
8.4239e-06 -3.27909e-05 -0.000419436
0.0135723 -0.00443872 -0.000498895
-0.00443872 0.00578949 2.35705e-06
-0.000498895 2.35705e-06 0.00291931
0.00453581 -0.00938173 -0.0024755
-0.00938173 0.00507669 -0.00153226
-0.0024755 -0.00153226 0.00162549
0.00112591 0.000340212 2.13149e-06
0.000340212 0.000518847 -1.54707e-06
2.13149e-06 -1.54707e-06 0.000260206
-0.00157041 -0.00261371 0.000499102
-0.00261371 -0.00261383 8.13288e-05
0.000499102 8.13288e-05 -0.00462566
-0.00229982 -0.00249891 -0.000532812
-0.00249891 0.00578736 -0.000204008
-0.000532812 -0.000204008 0.000280685
0.00346082 0.00112729 -1.60589e-05
0.00112729 0.000746829 2.10662e-06
-1.60589e-05 2.10662e-06 0.000602393
0.000817939 0.000434373 -8.83192e-06
0.000434373 0.000108845 8.27168e-06
-8.83192e-06 8.27168e-06 -0.000238468
0.00131815 0.000802868 5.78325e-06
0.000802868 0.000283363 1.77818e-06
5.78325e-06 1.77818e-06 -0.000132729
0.00107519 0.00117019 5.37877e-05
0.00117019 5.77725e-05 3.76667e-05
5.37877e-05 3.76667e-05 -0.000238233
0.0142365 0.00269265 -0.000152492
0.00269265 0.00110229 -9.10226e-05
-0.000152492 -9.10226e-05 -0.000593565
0.0043765 0.00297918 -3.75254e-05
0.00297918 -0.000577413 -4.1353e-05
-3.75254e-05 -4.1353e-05 0.000368628
0.0175256 -0.00520018 0.000577518
-0.00520018 0.00720019 -1.42738e-05
0.000577518 -1.42738e-05 0.00310771
0.0163672 -0.00436611 0.000139846
-0.00436611 0.003199 0.000735036
0.000139846 0.000735036 0.00099733
0.00213667 0.000403788 -2.07222e-05
0.000403788 0.00108712 -1.47711e-05
-2.07222e-05 -1.47711e-05 0.00086167
-0.010436 0.00127046 -0.000144517
0.00127046 0.00379532 -0.000144219
-0.000144517 -0.000144219 -0.00291136
0.00511298 0.000922388 -0.000386024
0.000922388 0.00411778 -0.000503688
-0.000386024 -0.000503688 -0.000694759
0.00259249 0.000840821 -3.07278e-05
0.000840821 0.000640587 -3.79281e-06
-3.07278e-05 -3.79281e-06 0.000590433
0.00238185 0.000827048 -7.29175e-05
0.000827048 0.0010073 -2.78578e-05
-7.29175e-05 -2.78578e-05 0.000614045
0.000686549 0.000815687 -0.000102593
0.000815687 0.000668752 -2.53688e-05
-0.000102593 -2.53688e-05 -3.6034e-05
-0.00266538 0.00177355 -2.48053e-05
0.00177355 -0.00121687 -3.70831e-05
-2.48053e-05 -3.70831e-05 -0.00142574
0.000858057 0.00328269 0.000382848
0.00328269 -0.00205389 0.000142893
0.000382848 0.000142893 -0.00429643
0.0186871 -0.00648641 0.000190975
-0.00648641 0.00976153 0.000721687
0.000190975 0.000721687 0.00509457
0.00890068 -0.000846103 -0.000184153
-0.000846103 -0.00202343 -0.000150752
-0.000184153 -0.000150752 -0.0010341
-0.000715026 0.00012887 2.65895e-06
0.00012887 -0.000526058 -6.42919e-06
2.65895e-06 -6.42919e-06 -0.000666786
0.00167805 0.000304588 1.07356e-05
0.000304588 0.00088435 2.4855e-06
1.07356e-05 2.4855e-06 0.000700198
-0.000606979 7.32474e-05 -2.23858e-06
7.32474e-05 -0.000421542 -1.78893e-06
-2.23858e-06 -1.78893e-06 -0.000588198
0.000336161 5.23363e-05 1.77762e-06
5.23363e-05 -4.31607e-05 6.58031e-07
1.77762e-06 6.58031e-07 -0.000181235
0.00103426 9.27728e-05 -6.74643e-07
9.27728e-05 0.000428178 -1.54152e-06
-6.74643e-07 -1.54152e-06 0.000237752
0.000555154 1.75122e-05 -1.99019e-06
1.75122e-05 0.000131904 1.67907e-06
-1.99019e-06 1.67907e-06 -5.62902e-05
0.000478373 9.76814e-05 5.22581e-06
9.76814e-05 6.21272e-05 5.9053e-06
5.22581e-06 5.9053e-06 -0.000116205
-0.000524054 5.01863e-05 -4.02555e-06
5.01863e-05 -0.000479381 7.06014e-07
-4.02555e-06 7.06014e-07 -0.000632234
0.000773406 4.4317e-05 2.43045e-07
4.4317e-05 0.000264889 -8.82812e-07
2.43045e-07 -8.82812e-07 8.0779e-05
0.000734167 9.02759e-05 7.55037e-07
9.02759e-05 0.000231704 -1.47523e-07
7.55037e-07 -1.47523e-07 6.79249e-05
0.000850987 -4.34199e-05 -1.13022e-06
-4.34199e-05 0.000309451 2.09853e-06
-1.13022e-06 2.09853e-06 0.000122193
-0.000949263 2.66823e-05 2.38042e-06
2.66823e-05 -0.000601368 4.00365e-07
2.38042e-06 4.00365e-07 -0.000828732
0.000123118 5.29237e-05 -2.97827e-06
5.29237e-05 0.000250526 5.28958e-06
-2.97827e-06 5.28958e-06 -0.000107844
0.000631146 -3.22464e-05 -1.73212e-06
-3.22464e-05 0.000254657 -8.41505e-06
-1.73212e-06 -8.41505e-06 5.63175e-05
0.00123691 -9.76986e-06 -1.0479e-06
-9.76986e-06 0.000588173 7.47815e-07
-1.0479e-06 7.47815e-07 0.00037266
0.000799902 -8.20405e-05 -6.01572e-07
-8.20405e-05 0.00028018 -1.65636e-06
-6.01572e-07 -1.65636e-06 9.50315e-05
0.000237588 -8.79348e-05 3.88503e-06
-8.79348e-05 -0.000122008 8.07075e-06
3.88503e-06 8.07075e-06 -0.000251686
0.000755205 -8.75032e-05 4.63514e-07
-8.75032e-05 0.000266381 -1.24999e-06
4.63514e-07 -1.24999e-06 7.51589e-05
0.000745873 -7.76749e-05 -1.7402e-06
-7.76749e-05 0.000203711 -9.13858e-08
-1.7402e-06 -9.13858e-08 6.97639e-05
-0.000356816 -6.22127e-05 1.86197e-06
-6.22127e-05 -0.000447725 4.35238e-06
1.86197e-06 4.35238e-06 -0.000559439
2.62335e-05 -5.40255e-05 -7.44657e-08
-5.40255e-05 -0.000184177 -2.8473e-06
-7.44657e-08 -2.8473e-06 -0.000341766
8.86082e-05 -3.06721e-05 -7.70029e-06
-3.06721e-05 -9.15413e-05 -3.98195e-06
-7.70029e-06 -3.98195e-06 -0.000266722
-9.13968e-05 -8.38064e-05 3.37536e-06
-8.38064e-05 -0.000252433 -5.35152e-06
3.37536e-06 -5.35152e-06 -0.000383399
0.0010157 -0.000116042 1.01167e-05
-0.000116042 0.000302545 -1.65049e-05
1.01167e-05 -1.65049e-05 0.000201824
0.00076356 -0.000206385 2.5509e-08
-0.000206385 0.000101939 4.0709e-06
2.5509e-08 4.0709e-06 -6.58435e-05
-5.28084e-05 -5.5386e-05 -6.64321e-06
-5.5386e-05 -0.000234125 -2.83111e-06
-6.64321e-06 -2.83111e-06 -0.000409797
0.000643292 -5.66855e-05 1.57496e-06
-5.66855e-05 0.000188866 -1.0149e-06
1.57496e-06 -1.0149e-06 9.79365e-06
-9.90358e-05 -3.43732e-05 2.15256e-06
-3.43732e-05 -0.000281181 -1.13754e-06
2.15256e-06 -1.13754e-06 -0.000454392
0.000671805 -0.000113852 -2.90746e-07
-0.000113852 0.000204143 -3.20724e-07
-2.90746e-07 -3.20724e-07 4.42272e-05
0.000462641 -2.73238e-05 1.21966e-06
-2.73238e-05 2.38494e-05 1.25251e-06
1.21966e-06 1.25251e-06 -9.90932e-05
0.0007737 -0.000110556 -1.38811e-06
-0.000110556 0.000255017 1.00622e-06
-1.38811e-06 1.00622e-06 0.000105013
0.000631829 -8.45558e-05 -7.27094e-07
-8.45558e-05 0.000140487 1.69183e-07
-7.27094e-07 1.69183e-07 1.11087e-05
0.000410824 3.2001e-05 2.33538e-07
3.2001e-05 -2.85297e-05 4.29738e-06
2.33538e-07 4.29738e-06 -0.000110896
0.000535027 -0.000110464 9.46089e-07
-0.000110464 7.39021e-05 -1.99415e-06
9.46089e-07 -1.99415e-06 -5.85887e-05
0.000515589 -4.01243e-05 -4.90216e-07
-4.01243e-05 3.45922e-05 1.00567e-07
-4.90216e-07 1.00567e-07 -4.35938e-05
0.00141769 1.28968e-05 -7.45515e-06
1.28968e-05 0.000575424 7.34006e-06
-7.45515e-06 7.34006e-06 0.000554523
0.00048706 -6.24364e-05 1.25341e-06
-6.24364e-05 2.59253e-05 -3.74044e-06
1.25341e-06 -3.74044e-06 -5.57568e-05
0.000864496 -1.79628e-05 -7.22156e-06
-1.79628e-05 0.000236022 8.36715e-07
-7.22156e-06 8.36715e-07 0.000212729
0.000764056 1.22937e-05 1.19229e-06
1.22937e-05 0.000155592 2.30451e-06
1.19229e-06 2.30451e-06 0.000159055
0.000424939 -1.81723e-05 2.598e-06
-1.81723e-05 -3.70878e-05 -4.69485e-06
2.598e-06 -4.69485e-06 -6.09407e-05
0.00255685 1.25585e-05 7.07033e-06
1.25585e-05 0.00128897 2.7134e-08
7.07033e-06 2.7134e-08 0.0013015
0.00258096 1.72435e-06 1.31551e-06
1.72435e-06 0.00130466 -5.06971e-06
1.31551e-06 -5.06971e-06 0.00131685
0.00103072 8.11091e-05 -9.37454e-07
8.11091e-05 0.000391861 9.61596e-07
-9.37454e-07 9.61596e-07 0.000286008
0.000510624 6.24128e-05 -1.86533e-06
6.24128e-05 3.25681e-05 -2.46929e-06
-1.86533e-06 -2.46929e-06 -2.04332e-05
0.000537091 -1.39536e-05 -2.33714e-07
-1.39536e-05 8.67526e-05 7.77294e-07
-2.33714e-07 7.77294e-07 -1.49063e-05
0.000477887 7.35529e-06 9.57653e-07
7.35529e-06 -2.90469e-05 -3.35488e-06
9.57653e-07 -3.35488e-06 -3.82788e-05
0.000455651 -1.16e-05 1.04609e-06
-1.16e-05 -7.11841e-06 -1.86688e-07
1.04609e-06 -1.86688e-07 -5.38003e-05
0.000532117 -5.87245e-05 -1.53121e-06
-5.87245e-05 4.63865e-05 2.15962e-06
-1.53121e-06 2.15962e-06 -5.73983e-06
0.000480533 7.27653e-06 -4.67597e-07
7.27653e-06 -2.74571e-05 -4.67891e-09
-4.67597e-07 -4.67891e-09 -3.73549e-05
0.00197731 2.29485e-05 -1.45089e-06
2.29485e-05 0.000920125 -4.74577e-06
-1.45089e-06 -4.74577e-06 0.000937092
0.00113186 2.41121e-05 -5.64644e-07
2.41121e-05 0.000384294 2.07129e-06
-5.64644e-07 2.07129e-06 0.000375895
0.00130923 2.99024e-05 -1.59644e-06
2.99024e-05 0.000499912 2.69994e-09
-1.59644e-06 2.69994e-09 0.000511975
0.000810469 3.58365e-05 -8.22941e-06
3.58365e-05 0.000191087 7.46678e-06
-8.22941e-06 7.46678e-06 0.000196281
-0.00852017 0.00129509 0.000554003
0.00129509 -0.00294504 -5.22884e-05
0.000554003 -5.22884e-05 -0.00582599
-0.000719843 0.000321035 0.00119585
0.000321035 0.00648851 -0.000298704
0.00119585 -0.000298704 0.00263848
0.00221273 0.000365205 -0.000164745
0.000365205 -0.00241206 -2.95689e-05
-0.000164745 -2.95689e-05 -0.000725938
0.00184388 6.78064e-06 1.32229e-05
6.78064e-06 -0.00101889 -2.74618e-05
1.32229e-05 -2.74618e-05 -0.00053414
0.00173611 -7.59507e-05 8.07112e-06
-7.59507e-05 -0.000281775 2.01199e-05
8.07112e-06 2.01199e-05 -0.000208392
-0.00141388 2.63698e-05 -0.000100432
2.63698e-05 -0.00177089 -2.73117e-05
-0.000100432 -2.73117e-05 -0.000620849
0.00391822 -0.000422258 3.71758e-06
-0.000422258 0.000408399 5.70455e-06
3.71758e-06 5.70455e-06 0.000578031
0.0122138 -0.000110841 0.000193146
-0.000110841 -0.000780944 -8.06193e-05
0.000193146 -8.06193e-05 -0.0014799
0.00169885 0.00380965 -1.80795e-07
0.00380965 0.000937625 -6.67139e-05
-1.80795e-07 -6.67139e-05 -0.00257206
0.0135935 0.00767043 -0.000538022
0.00767043 0.00921495 0.000263079
-0.000538022 0.000263079 0.00613744
0.00172918 -0.000808845 2.20107e-05
-0.000808845 -0.00240929 -3.97873e-05
2.20107e-05 -3.97873e-05 -0.0011986
0.0154402 -0.00247039 0.000228635
-0.00247039 0.00171161 -7.54695e-05
0.000228635 -7.54695e-05 0.000298171
0.0173002 0.00639407 0.000384811
0.00639407 0.00549291 -0.000539492
0.000384811 -0.000539492 0.00167864
0.0202251 0.00442617 -0.000324036
0.00442617 0.00620931 0.00028125
-0.000324036 0.00028125 0.0039718
0.00100068 0.000165956 -3.16714e-06
0.000165956 0.000435114 3.55395e-06
-3.16714e-06 3.55395e-06 0.000256859
0.000344797 3.94202e-05 4.43572e-07
3.94202e-05 -3.52365e-05 -1.06018e-06
4.43572e-07 -1.06018e-06 -0.000139092
0.000546181 -9.51545e-05 1.76107e-06
-9.51545e-05 9.6666e-05 1.38944e-06
1.76107e-06 1.38944e-06 -4.20247e-06
0.000669265 1.23759e-05 7.02435e-06
1.23759e-05 0.000182627 -8.42238e-07
7.02435e-06 -8.42238e-07 6.09347e-05
0.000852531 8.854e-05 2.64763e-06
8.854e-05 0.000351871 1.4016e-06
2.64763e-06 1.4016e-06 0.000214194
0.000481048 1.87489e-05 -3.21609e-07
1.87489e-05 7.62232e-05 7.78116e-06
-3.21609e-07 7.78116e-06 -8.89103e-05
0.000747017 9.39937e-05 7.97168e-07
9.39937e-05 0.000227251 3.32433e-06
7.97168e-07 3.32433e-06 9.03053e-05
0.000453557 6.4849e-05 4.73163e-06
6.4849e-05 1.74034e-05 1.82012e-06
4.73163e-06 1.82012e-06 -0.000122608
0.000694368 -2.92417e-05 2.66175e-06
-2.92417e-05 0.000206767 -1.23506e-06
2.66175e-06 -1.23506e-06 6.83913e-05
0.000482373 -1.69751e-05 2.14084e-06
-1.69751e-05 4.51725e-05 -2.80071e-06
2.14084e-06 -2.80071e-06 -6.33633e-05
0.00138222 -0.000343233 3.53327e-05
-0.000343233 -0.000625266 -6.93516e-06
3.53327e-05 -6.93516e-06 -0.000321965
0.00107277 -0.000587191 2.95017e-05
-0.000587191 -0.000678398 -9.71674e-06
2.95017e-05 -9.71674e-06 -0.000528005
0.00104439 -0.000738905 1.46072e-06
-0.000738905 -0.000403147 4.74554e-06
1.46072e-06 4.74554e-06 -0.000580157
-1.4004e-05 -0.000684805 -1.52516e-05
-0.000684805 -0.000685649 3.66981e-06
-1.52516e-05 3.66981e-06 -0.000958362
0.00282132 -0.000498666 8.82908e-06
-0.000498666 0.00177561 3.56215e-05
8.82908e-06 3.56215e-05 0.00110541
-0.00029305 -0.000522389 -4.58945e-06
-0.000522389 -0.000220437 -7.53425e-06
-4.58945e-06 -7.53425e-06 -0.000740519
0.00160057 -0.000262931 5.57432e-06
-0.000262931 0.000755218 -3.56489e-06
5.57432e-06 -3.56489e-06 0.000609549
0.000564245 -5.38142e-05 1.56371e-07
-5.38142e-05 0.00016979 3.31825e-06
1.56371e-07 3.31825e-06 3.32953e-05
0.00241463 -0.00060433 1.14762e-05
-0.00060433 -0.000226095 -8.81837e-06
1.14762e-05 -8.81837e-06 5.70977e-05
0.000393814 -6.12996e-05 6.24963e-07
-6.12996e-05 0.000117178 1.60657e-06
6.24963e-07 1.60657e-06 -0.000130435
-0.000144286 -0.00019934 -1.12577e-06
-0.00019934 -0.000133055 -6.02033e-06
-1.12577e-06 -6.02033e-06 -0.000411551
0.00184454 -0.000782048 1.93036e-05
-0.000782048 2.31695e-05 -1.97814e-06
1.93036e-05 -1.97814e-06 -4.71881e-05
0.00194455 -0.000974172 -7.75314e-07
-0.000974172 0.00013765 3.0072e-06
-7.75314e-07 3.0072e-06 -5.65221e-05
0.000268116 -0.000717054 2.0234e-05
-0.000717054 -0.000230594 -1.54017e-05
2.0234e-05 -1.54017e-05 -0.000486912
0.0010994 -0.000360259 6.22942e-06
-0.000360259 0.000957401 -1.95159e-05
6.22942e-06 -1.95159e-05 0.000257311
0.00228523 -0.000941517 -6.59919e-05
-0.000941517 0.000155247 4.07386e-05
-6.59919e-05 4.07386e-05 -9.74818e-05
0.000990414 -0.000710015 -3.0094e-05
-0.000710015 -0.000206084 4.70507e-06
-3.0094e-05 4.70507e-06 -0.000221465
0.000192315 -0.00064355 -6.90051e-05
-0.00064355 0.000131484 4.47012e-05
-6.90051e-05 4.47012e-05 -0.00029681
-0.00231962 -0.000215155 -7.43762e-06
-0.000215155 -0.0015582 1.12671e-05
-7.43762e-06 1.12671e-05 -0.00180689
-0.00105748 -4.26275e-05 1.56425e-06
-4.26275e-05 -0.000689996 1.00212e-05
1.56425e-06 1.00212e-05 -0.00098797
0.000668 -8.26326e-05 8.42009e-06
-8.26326e-05 0.000427431 -1.43025e-05
8.42009e-06 -1.43025e-05 4.28587e-05
-0.00247994 0.00129607 -0.000425307
0.00129607 0.00713503 2.00398e-05
-0.000425307 2.00398e-05 0.00214626
0.000195338 -0.00156096 -1.2529e-05
-0.00156096 0.00242605 1.06252e-05
-1.2529e-05 1.06252e-05 0.00145347
0.00271089 0.00101811 -0.000129364
0.00101811 -0.00542143 -2.16907e-05
-0.000129364 -2.16907e-05 -0.00562343
0.0002482 0.000261581 1.29223e-05
0.000261581 9.9663e-06 -2.82763e-06
1.29223e-05 -2.82763e-06 -0.000240068
0.00167349 0.000606513 1.27407e-05
0.000606513 0.000659531 2.04706e-05
1.27407e-05 2.04706e-05 0.000245485
0.0034497 0.000995227 6.91757e-05
0.000995227 0.000726436 2.14651e-05
6.91757e-05 2.14651e-05 0.000626073
0.0015497 0.000866252 1.57667e-05
0.000866252 0.000429443 2.17549e-05
1.57667e-05 2.17549e-05 -2.05026e-05
0.0129466 -0.00302258 0.000238185
-0.00302258 0.00491443 8.1964e-05
0.000238185 8.1964e-05 0.00365501
0.00357328 0.00148216 -0.000372716
0.00148216 -0.00450122 -7.90521e-05
-0.000372716 -7.90521e-05 -0.0060599
0.00521051 0.00284998 3.73999e-05
0.00284998 0.00026594 2.74506e-05
3.73999e-05 2.74506e-05 0.000827573
0.00286201 0.00120917 5.73669e-05
0.00120917 0.0011674 -1.22483e-05
5.73669e-05 -1.22483e-05 0.000916087
0.00874958 -0.0032474 -0.000389253
-0.0032474 0.00382369 -0.000372077
-0.000389253 -0.000372077 0.000213764
-0.000112954 -0.00358454 -0.000727643
-0.00358454 0.00636272 -0.000224339
-0.000727643 -0.000224339 0.000730055
0.0247128 -0.00564676 0.000758452
-0.00564676 0.00699163 0.000387253
0.000758452 0.000387253 0.00445843
0.000375259 0.000252074 1.72568e-05
0.000252074 5.3587e-05 -4.33873e-06
1.72568e-05 -4.33873e-06 -0.000161112
-0.00412651 0.000464586 -0.000186214
0.000464586 0.00573329 -3.50635e-05
-0.000186214 -3.50635e-05 3.53701e-05
0.0058086 0.00126785 -0.000137639
0.00126785 0.0033583 -0.000175332
-0.000137639 -0.000175332 -0.0019542
0.00177197 0.000861699 1.02987e-05
0.000861699 0.000300475 3.26226e-06
1.02987e-05 3.26226e-06 0.000183494
0.000780509 0.00064171 1.33893e-05
0.00064171 0.000238496 4.70446e-06
1.33893e-05 4.70446e-06 -0.00016504
0.000738101 0.0009716 -5.7056e-05
0.0009716 0.000506153 -6.22009e-05
-5.7056e-05 -6.22009e-05 -7.06453e-05
0.00419063 0.00324706 3.21256e-05
0.00324706 0.00124049 3.20054e-05
3.21256e-05 3.20054e-05 0.00106624
0.0165803 0.00437923 3.14829e-05
0.00437923 0.003601 1.16025e-05
3.14829e-05 1.16025e-05 0.0014242
0.00847399 -0.00379721 8.76285e-05
-0.00379721 0.00386819 -9.32712e-05
8.76285e-05 -9.32712e-05 -0.00125113
0.0155187 -0.00220743 -1.20513e-05
-0.00220743 0.00218994 -7.01399e-05
-1.20513e-05 -7.01399e-05 0.00333903
0.000661268 0.000470131 -1.41618e-05
0.000470131 0.000233358 -8.90607e-06
-1.41618e-05 -8.90607e-06 -6.0818e-05
0.00186816 0.000226723 -0.00035726
0.000226723 0.00224119 -8.6118e-05
-0.00035726 -8.6118e-05 -0.00257237
0.00103065 0.000830753 -0.000137128
0.000830753 -0.000184725 -0.000173324
-0.000137128 -0.000173324 -0.00177356
-0.0006421 0.000314551 -6.2129e-06
0.000314551 -0.000128494 -1.99158e-05
-6.2129e-06 -1.99158e-05 -0.000393472
-0.000906643 0.00067974 -0.000193222
0.00067974 0.000974417 -1.3467e-05
-0.000193222 -1.3467e-05 0.000185884
0.0132667 0.00498661 0.000116646
0.00498661 0.00426938 -4.21031e-05
0.000116646 -4.21031e-05 -0.000126529
-0.00170831 -0.0053673 -3.95388e-06
-0.0053673 -0.000139469 0.000233638
-3.95388e-06 0.000233638 -0.00516569
0.0119733 0.000187574 6.90799e-05
0.000187574 -0.00164354 -0.000326791
6.90799e-05 -0.000326791 0.000884354
0.000795995 0.000188616 -4.15993e-06
0.000188616 0.000300651 1.65728e-05
-4.15993e-06 1.65728e-05 0.000156807
0.000934813 0.000236589 -9.39761e-06
0.000236589 0.000525656 -5.50499e-06
-9.39761e-06 -5.50499e-06 0.000319292
-0.000267776 0.000123829 7.39991e-07
0.000123829 -1.09906e-05 -1.25304e-06
7.39991e-07 -1.25304e-06 -0.000320836
0.000560633 8.67493e-05 -1.48747e-06
8.67493e-05 0.000112097 -1.21528e-06
-1.48747e-06 -1.21528e-06 -5.73542e-05
0.00120279 -3.37336e-05 -2.12055e-06
-3.37336e-05 0.000544257 4.58706e-06
-2.12055e-06 4.58706e-06 0.000344923
0.000112534 7.48252e-05 2.79221e-06
7.48252e-05 -0.000165953 2.47471e-06
2.79221e-06 2.47471e-06 -0.000321686
-0.00114405 3.40941e-05 2.08618e-06
3.40941e-05 -0.000704499 2.0533e-06
2.08618e-06 2.0533e-06 -0.000931505
0.000612517 -2.39285e-05 1.22501e-06
-2.39285e-05 0.000162511 3.09327e-07
1.22501e-06 3.09327e-07 -2.46169e-05
0.000510451 3.50635e-05 5.16326e-07
3.50635e-05 0.000173265 -2.30687e-06
5.16326e-07 -2.30687e-06 -2.00244e-05
7.34572e-05 3.79103e-05 2.24808e-06
3.79103e-05 0.000261739 2.90734e-06
2.24808e-06 2.90734e-06 -0.000125384
-0.000390115 6.54474e-05 -3.36656e-06
6.54474e-05 0.000156369 1.27168e-05
-3.36656e-06 1.27168e-05 -0.000339315
0.00042314 4.42308e-06 -3.03211e-06
4.42308e-06 0.000479622 -2.95413e-06
-3.03211e-06 -2.95413e-06 8.71802e-05
0.00124639 2.9227e-05 -1.90094e-06
2.9227e-05 0.000608426 -3.68015e-06
-1.90094e-06 -3.68015e-06 0.000429067
0.000732991 -0.000152392 2.83097e-06
-0.000152392 0.000239337 1.56308e-06
2.83097e-06 1.56308e-06 5.54323e-05
0.000290973 -5.84532e-05 1.13819e-06
-5.84532e-05 -9.77377e-05 3.9767e-06
1.13819e-06 3.9767e-06 -0.00022142
0.000269185 -8.92326e-05 2.05827e-06
-8.92326e-05 -5.53899e-05 1.33704e-05
2.05827e-06 1.33704e-05 -0.000154506
0.000247724 -4.06622e-05 2.36761e-06
-4.06622e-05 -1.33119e-05 3.01248e-06
2.36761e-06 3.01248e-06 -0.00017351
0.000546414 -5.10392e-05 -1.57489e-07
-5.10392e-05 0.000125602 6.92502e-07
-1.57489e-07 6.92502e-07 -2.72979e-05
0.000394736 -5.4143e-05 -1.09633e-07
-5.4143e-05 4.30002e-05 -1.92591e-06
-1.09633e-07 -1.92591e-06 -8.51894e-05
0.000391056 -6.28274e-05 -8.58169e-06
-6.28274e-05 2.80156e-05 -5.04416e-06
-8.58169e-06 -5.04416e-06 -0.000103482
0.00045193 -7.65433e-05 9.60587e-06
-7.65433e-05 0.000248498 -7.18783e-06
9.60587e-06 -7.18783e-06 8.48883e-05
0.000831178 -0.000224345 1.00007e-06
-0.000224345 9.37828e-05 4.07093e-06
1.00007e-06 4.07093e-06 8.34333e-06
0.000549092 -0.000135003 -1.24086e-05
-0.000135003 3.86248e-05 -5.12697e-07
-1.24086e-05 -5.12697e-07 -6.95733e-05
0.000362959 -0.000192471 8.04966e-06
-0.000192471 -0.000100008 6.98671e-06
8.04966e-06 6.98671e-06 -0.000256558
0.0020588 -0.000545933 -5.73359e-08
-0.000545933 0.000837705 2.09772e-05
-5.73359e-08 2.09772e-05 0.000498967
0.0018472 -0.000257272 4.31197e-06
-0.000257272 0.000846198 -9.84261e-06
4.31197e-06 -9.84261e-06 0.000648111
0.000241625 -0.000156943 -8.03834e-06
-0.000156943 -0.000180705 -6.55774e-06
-8.03834e-06 -6.55774e-06 -0.00031479
0.000527633 -8.09012e-05 -1.88755e-07
-8.09012e-05 9.56065e-05 -9.38349e-07
-1.88755e-07 -9.38349e-07 -7.82055e-05
-0.000252797 -4.55099e-05 -4.48043e-07
-4.55099e-05 -0.00035647 -2.58836e-06
-4.48043e-07 -2.58836e-06 -0.000564497
0.00105169 -6.77588e-05 -3.58688e-08
-6.77588e-05 0.000430902 1.58835e-06
-3.58688e-08 1.58835e-06 0.000254767
0.000725574 -0.00012964 -1.70314e-07
-0.00012964 0.000237258 3.51191e-07
-1.70314e-07 3.51191e-07 5.13664e-05
0.000512652 -6.41183e-05 1.11945e-06
-6.41183e-05 4.14266e-05 1.61481e-06
1.11945e-06 1.61481e-06 -8.4316e-05
0.00139552 -0.00019681 -2.649e-06
-0.00019681 0.000676092 -2.80485e-07
-2.649e-06 -2.80485e-07 0.00049005
0.000680542 -0.000108821 -5.41202e-07
-0.000108821 0.000161325 4.70305e-08
-5.41202e-07 4.70305e-08 3.15561e-05
0.000506888 4.94669e-06 -1.17356e-06
4.94669e-06 2.54371e-05 3.54183e-06
-1.17356e-06 3.54183e-06 -5.73693e-05
0.00072275 -0.000132638 7.38947e-07
-0.000132638 0.000197391 -1.985e-06
7.38947e-07 -1.985e-06 6.3805e-05
0.000587087 -5.65985e-05 -1.08698e-07
-5.65985e-05 7.82614e-05 1.54334e-07
-1.08698e-07 1.54334e-07 -3.70553e-06
0.0014357 1.0866e-05 -1.22558e-05
1.0866e-05 0.000582327 7.58983e-06
-1.22558e-05 7.58983e-06 0.000559661
0.000536738 -6.88971e-05 1.63709e-06
-6.88971e-05 5.65096e-05 -4.46993e-06
1.63709e-06 -4.46993e-06 -2.7466e-05
0.000864707 -1.24334e-05 -8.53603e-06
-1.24334e-05 0.000229237 6.9258e-07
-8.53603e-06 6.9258e-07 0.000205131
0.000812916 2.16845e-05 1.21493e-06
2.16845e-05 0.000183012 2.9096e-06
1.21493e-06 2.9096e-06 0.000184786
0.000431323 -3.14748e-05 2.42624e-06
-3.14748e-05 -3.80361e-05 -5.18769e-06
2.42624e-06 -5.18769e-06 -6.34686e-05
0.00166285 2.08938e-05 1.11072e-05
2.08938e-05 0.000724197 -1.46685e-06
1.11072e-05 -1.46685e-06 0.000732271
0.00251661 1.1618e-05 1.16879e-05
1.1618e-05 0.00126292 -5.18579e-06
1.16879e-05 -5.18579e-06 0.00127564
0.000490916 5.24374e-05 1.3431e-06
5.24374e-05 3.09235e-05 -8.80494e-07
1.3431e-06 -8.80494e-07 -7.08546e-05
0.000598134 6.36172e-05 -1.33827e-06
6.36172e-05 8.13668e-05 -1.8842e-06
-1.33827e-06 -1.8842e-06 2.53909e-05
0.000587532 3.02113e-06 8.173e-07
3.02113e-06 0.0001063 7.9915e-07
8.173e-07 7.9915e-07 5.53758e-06
0.000466667 4.38067e-06 1.65442e-06
4.38067e-06 -3.50653e-05 -3.65652e-06
1.65442e-06 -3.65652e-06 -4.4988e-05
0.00049162 5.32248e-05 2.8683e-08
5.32248e-05 1.58628e-05 -1.76538e-07
2.8683e-08 -1.76538e-07 -3.42236e-05
0.000514037 -0.000112903 -2.76532e-06
-0.000112903 6.21252e-05 7.30073e-07
-2.76532e-06 7.30073e-07 -3.30786e-05
0.00200188 9.1567e-06 -6.61942e-06
9.1567e-06 0.000933499 -4.79344e-06
-6.61942e-06 -4.79344e-06 0.000951318
0.000455831 5.70369e-06 -2.52576e-07
5.70369e-06 -4.24343e-05 2.88339e-08
-2.52576e-07 2.88339e-08 -5.16523e-05
0.000495471 -1.02698e-05 -1.48458e-06
-1.02698e-05 1.42888e-05 2.11219e-06
-1.48458e-06 2.11219e-06 -3.01671e-05
0.000467611 5.49389e-06 -1.43785e-06
5.49389e-06 -3.62486e-05 3.34531e-06
-1.43785e-06 3.34531e-06 -4.61191e-05
0.00203174 2.4546e-05 -5.37396e-06
2.4546e-05 0.000954695 -1.11022e-07
-5.37396e-06 -1.11022e-07 0.000971309
0.0019946 3.83861e-05 -4.77639e-06
3.83861e-05 0.000934005 4.68144e-06
-4.77639e-06 4.68144e-06 0.000949429
-0.00636136 -0.00179293 -0.000191881
-0.00179293 0.00577299 5.8156e-05
-0.000191881 5.8156e-05 0.00151748
0.00211894 0.00146727 -0.000273963
0.00146727 0.000746056 8.63881e-05
-0.000273963 8.63881e-05 -0.00147169
0.00293391 -0.00102269 -0.000621191
-0.00102269 0.00124378 0.00026718
-0.000621191 0.00026718 -0.003411
5.06108e-05 0.000795867 0.00113003
0.000795867 0.00639755 -0.000335612
0.00113003 -0.000335612 0.00205361
0.00273363 0.000619882 -4.73305e-05
0.000619882 -0.00101759 7.09023e-06
-4.73305e-05 7.09023e-06 -7.92017e-05
0.00282696 -0.000490026 9.16549e-05
-0.000490026 -0.000283227 8.20071e-06
9.16549e-05 8.20071e-06 -0.000141786
0.00085864 -0.000376485 0.000292545
-0.000376485 -0.00506587 -5.99819e-05
0.000292545 -5.99819e-05 -0.00664542
0.0222654 0.0033746 -0.000878058
0.0033746 0.00985966 6.71536e-05
-0.000878058 6.71536e-05 0.00676451
0.00589984 0.00891334 -0.00238132
0.00891334 0.00497455 0.00152013
-0.00238132 0.00152013 0.00164776
0.00480555 -0.000672351 3.08091e-05
-0.000672351 -0.000456392 5.69246e-06
3.08091e-05 5.69246e-06 0.000312188
0.0088327 -0.00233887 0.000169712
-0.00233887 -0.00182677 -0.000141965
0.000169712 -0.000141965 -0.00402473
0.0203223 0.00568402 -0.000340703
0.00568402 0.00656718 -0.00011431
-0.000340703 -0.00011431 0.0027101
0.0151278 0.00450543 -1.22503e-06
0.00450543 0.00318584 0.000410649
-1.22503e-06 0.000410649 0.000741569
0.0018351 -0.00180761 -0.000118364
-0.00180761 -0.00318335 2.57361e-05
-0.000118364 2.57361e-05 -0.0019318
0.00638751 -0.00380791 0.000446671
-0.00380791 -0.000180382 -0.000229135
0.000446671 -0.000229135 -0.00390968
0.00747393 0.00347743 8.60711e-05
0.00347743 0.00163221 -0.000832022
8.60711e-05 -0.000832022 -0.00248916
0.00875319 0.000735053 -0.000298895
0.000735053 -0.00217686 1.0246e-05
-0.000298895 1.0246e-05 -0.0013857
0.00249345 -8.9708e-05 1.06796e-06
-8.9708e-05 0.00142222 1.65213e-05
1.06796e-06 1.65213e-05 0.00115011
0.000326404 9.51542e-05 -1.53597e-06
9.51542e-05 -1.65173e-05 -2.25548e-06
-1.53597e-06 -2.25548e-06 -0.00015982
0.000510253 0.000102226 3.00631e-06
0.000102226 5.62647e-05 -1.02416e-06
3.00631e-06 -1.02416e-06 -4.2163e-05
0.000150855 -1.6275e-06 6.50745e-06
-1.6275e-06 -0.000109963 -2.48344e-06
6.50745e-06 -2.48344e-06 -0.000218646
0.000442582 0.000101287 3.35334e-06
0.000101287 2.95935e-05 4.53069e-06
3.35334e-06 4.53069e-06 -0.000154015
0.000445987 4.31519e-05 -1.6425e-10
4.31519e-05 4.31454e-05 2.19248e-06
-1.6425e-10 2.19248e-06 -0.000108314
0.000215959 2.49558e-05 1.34055e-06
2.49558e-05 -0.000103758 -3.5781e-06
1.34055e-06 -3.5781e-06 -0.000233749
0.000914999 0.000181455 4.16685e-06
0.000181455 0.000343668 7.98436e-06
4.16685e-06 7.98436e-06 0.000167872
0.000907087 0.00013263 -2.78938e-07
0.00013263 0.000346854 -3.09397e-07
-2.78938e-07 -3.09397e-07 0.000175505
0.000371926 -1.59069e-05 -3.62259e-06
-1.59069e-05 -9.19382e-06 -6.57328e-06
-3.62259e-06 -6.57328e-06 -0.00014111
0.000538021 -0.00047884 8.69978e-05
-0.00047884 -0.00122817 -4.44209e-05
8.69978e-05 -4.44209e-05 -0.000903163
0.000153251 -0.000639311 1.21654e-05
-0.000639311 -0.00093311 -8.30214e-06
1.21654e-05 -8.30214e-06 -0.000924305
0.00132666 -0.000904356 -1.35381e-05
-0.000904356 -0.000253991 1.77954e-05
-1.35381e-05 1.77954e-05 -0.000352212
-0.00100926 -0.000701763 3.5404e-06
-0.000701763 -0.000909179 -4.23601e-06
3.5404e-06 -4.23601e-06 -0.0012578
0.00344131 -0.000460349 -2.68253e-05
-0.000460349 0.00213367 6.88236e-05
-2.68253e-05 6.88236e-05 0.00161184
0.000990898 -0.000216312 -3.01757e-06
-0.000216312 0.000575657 6.74572e-06
-3.01757e-06 6.74572e-06 0.000273907
0.000385944 0.000126684 -2.78677e-06
0.000126684 9.83135e-05 -1.55895e-05
-2.78677e-06 -1.55895e-05 -0.000146027
0.000738094 -6.42566e-05 -2.90293e-06
-6.42566e-05 0.000319763 9.33642e-06
-2.90293e-06 9.33642e-06 3.866e-05
0.00181578 -0.00083426 -1.05183e-05
-0.00083426 -0.000192114 -3.53551e-06
-1.05183e-05 -3.53551e-06 -0.00023902
0.000783153 -5.75416e-05 1.22545e-06
-5.75416e-05 0.000382212 4.81499e-06
1.22545e-06 4.81499e-06 0.000102344
0.00220092 -0.000303956 2.45277e-06
-0.000303956 0.00133756 -1.83287e-06
2.45277e-06 -1.83287e-06 0.000934968
0.00138537 -0.000751778 8.22565e-06
-0.000751778 4.82161e-06 2.83509e-06
8.22565e-06 2.83509e-06 -2.75429e-05
0.000540556 -0.000651296 -3.27037e-05
-0.000651296 0.000251801 8.26786e-06
-3.27037e-05 8.26786e-06 -0.000134541
0.0020579 -0.00144187 5.02929e-05
-0.00144187 -6.00255e-06 -2.17358e-05
5.02929e-05 -2.17358e-05 -6.42872e-05
-0.000309461 -0.000486453 -5.24594e-06
-0.000486453 -0.000436179 2.35363e-05
-5.24594e-06 2.35363e-05 -0.000490624
-0.00147319 -7.03388e-05 2.21407e-05
-7.03388e-05 -0.00065032 -8.98724e-07
2.21407e-05 -8.98724e-07 -0.00113143
0.000637787 3.65949e-05 -4.23717e-06
3.65949e-05 0.00024392 7.59583e-07
-4.23717e-06 7.59583e-07 1.84826e-05
0.000559431 -4.48365e-05 6.4604e-06
-4.48365e-05 0.000362517 -5.70798e-06
6.4604e-06 -5.70798e-06 4.13372e-05
0.0013153 0.000139137 -4.69425e-05
0.000139137 0.0018963 -1.82104e-05
-4.69425e-05 -1.82104e-05 -0.00217446
-0.0066909 0.00043717 -0.000374538
0.00043717 0.00651994 -1.95233e-05
-0.000374538 -1.95233e-05 0.00132979
-0.0133563 -0.00256264 -0.000736851
-0.00256264 -0.00526447 -7.29541e-06
-0.000736851 -7.29541e-06 -0.00617232
-0.000637889 0.000196946 1.12562e-05
0.000196946 -0.000493811 -4.90142e-06
1.12562e-05 -4.90142e-06 -0.000733428
-0.000799237 0.000483682 -2.99181e-06
0.000483682 -0.000553518 9.48742e-06
-2.99181e-06 9.48742e-06 -0.00096788
0.00225575 0.00100346 3.32061e-05
0.00100346 0.000576808 2.70928e-05
3.32061e-05 2.70928e-05 0.000416028
-0.00552616 0.00199564 8.13807e-05
0.00199564 0.00628567 5.87921e-05
8.13807e-05 5.87921e-05 0.00156942
0.00685798 0.00374347 -0.000299944
0.00374347 4.84131e-05 -0.000173874
-0.000299944 -0.000173874 -0.00330793
0.00169237 0.00217794 0.000431306
0.00217794 0.000295632 0.00015743
0.000431306 0.00015743 0.000157409
-4.88195e-05 0.000917115 2.15616e-05
0.000917115 -4.02454e-05 -4.68492e-05
2.15616e-05 -4.68492e-05 -0.000327505
0.0270907 -0.00377563 -0.000151366
-0.00377563 0.008855 -0.000375927
-0.000151366 -0.000375927 0.00535422
0.00639009 0.00164184 0.000562434
0.00164184 0.00320096 0.000202528
0.000562434 0.000202528 -0.00256184
0.0138943 -0.00187927 0.000175454
-0.00187927 0.00243361 3.02746e-05
0.000175454 3.02746e-05 0.00373055
0.00126124 0.000531429 2.87828e-06
0.000531429 0.000654049 -2.02416e-06
2.87828e-06 -2.02416e-06 0.000344359
0.00381731 0.000604688 -1.20825e-05
0.000604688 0.00317832 1.3788e-05
-1.20825e-05 1.3788e-05 -0.000433171
0.00168743 0.000753541 7.10821e-05
0.000753541 0.000100852 -1.04721e-08
7.10821e-05 -1.04721e-08 -0.00151567
-0.000469185 0.000487848 -2.58097e-06
0.000487848 -0.000143799 -5.40848e-06
-2.58097e-06 -5.40848e-06 -0.000475862
0.000156966 0.00129916 -0.000123319
0.00129916 0.000809432 -6.06895e-05
-0.000123319 -6.06895e-05 -0.000418657
0.00113561 0.00468479 0.000216585
0.00468479 0.000641051 0.00011176
0.000216585 0.00011176 -0.00379363
0.00972683 -5.99398e-05 -2.78482e-06
-5.99398e-05 -0.00345407 -0.000213713
-2.78482e-06 -0.000213713 -0.000654885
0.00579672 -0.00264166 -7.87368e-05
-0.00264166 0.0035499 -0.000167781
-7.87368e-05 -0.000167781 -0.00142461
0.00101183 0.000426304 -7.65991e-06
0.000426304 0.000805757 -1.47189e-05
-7.65991e-06 -1.47189e-05 0.000449121
-0.00303051 0.000244837 1.4665e-05
0.000244837 5.35455e-05 2.78448e-05
1.4665e-05 2.78448e-05 -0.000405529
0.00508476 -0.000207713 0.000120454
-0.000207713 -0.000218293 -0.000154352
0.000120454 -0.000154352 -0.00147341
0.00861357 0.000894924 0.000297764
0.000894924 -0.00194963 -1.97546e-05
0.000297764 -1.97546e-05 -0.00120303
-0.00260133 0.000143995 3.69877e-05
0.000143995 -0.00013533 -3.00035e-05
3.69877e-05 -3.00035e-05 -0.000964913
0.0130729 0.00350983 0.000328054
0.00350983 0.00626496 7.84481e-05
0.000328054 7.84481e-05 0.000945776
0.00211879 -0.00057695 3.82435e-05
-0.00057695 0.00285009 0.000393715
3.82435e-05 0.000393715 -0.000861356
0.00320135 0.000470309 2.66129e-05
0.000470309 0.00192853 1.11561e-05
2.66129e-05 1.11561e-05 0.00166393
0.000425709 0.000214867 -5.59795e-06
0.000214867 0.000438978 -1.61694e-06
-5.59795e-06 -1.61694e-06 8.34315e-05
0.000233927 0.000188744 3.70535e-06
0.000188744 0.000490901 -7.93622e-07
3.70535e-06 -7.93622e-07 4.17324e-05
0.000495661 0.000145061 1.31587e-06
0.000145061 0.000100843 -7.93665e-07
1.31587e-06 -7.93665e-07 -9.19253e-05
0.000519796 7.9623e-05 1.10694e-06
7.9623e-05 0.000158558 2.86742e-06
1.10694e-06 2.86742e-06 -1.99972e-05
0.000122449 -1.04483e-05 6.52666e-06
-1.04483e-05 0.000318896 -3.27508e-06
6.52666e-06 -3.27508e-06 -8.51685e-05
0.000440173 3.11235e-05 -8.50489e-10
3.11235e-05 9.14889e-05 -6.47861e-07
-8.50489e-10 -6.47861e-07 -7.01787e-05
0.000749576 -4.00453e-05 -1.04054e-06
-4.00453e-05 0.000680689 -2.4618e-06
-1.04054e-06 -2.4618e-06 0.000287881
-1.51512e-06 4.26021e-05 -2.93531e-08
4.26021e-05 0.000385585 -1.56611e-06
-2.93531e-08 -1.56611e-06 -0.000107445
-8.62801e-05 -2.0635e-05 -5.47341e-06
-2.0635e-05 0.000295726 1.04263e-05
-5.47341e-06 1.04263e-05 -0.000121618
0.000318079 -3.03673e-05 -1.32854e-06
-3.03673e-05 0.000360101 -5.42198e-06
-1.32854e-06 -5.42198e-06 5.04581e-05
-3.66712e-06 -6.01095e-05 4.61357e-06
-6.01095e-05 -0.000196642 9.03803e-06
4.61357e-06 9.03803e-06 -0.00033589
0.0010772 -5.61474e-05 -5.30645e-07
-5.61474e-05 0.000445021 3.18111e-06
-5.30645e-07 3.18111e-06 0.000294397
0.00133518 -7.0599e-05 -1.54807e-05
-7.0599e-05 0.000621888 1.23503e-05
-1.54807e-05 1.23503e-05 0.000492356
0.000703788 -8.56688e-05 5.21225e-06
-8.56688e-05 0.000380765 -1.01407e-06
5.21225e-06 -1.01407e-06 0.00022604
0.000472804 -5.60962e-05 -1.02877e-06
-5.60962e-05 7.73231e-05 -9.74077e-07
-1.02877e-06 -9.74077e-07 -5.27977e-05
0.000510607 -0.000189032 -6.85384e-07
-0.000189032 9.20026e-05 3.54612e-06
-6.85384e-07 3.54612e-06 -4.08894e-05
0.00020292 -0.000165551 -1.23955e-05
-0.000165551 -0.000177318 -1.16629e-06
-1.23955e-05 -1.16629e-06 -0.000228217
-0.000882802 -0.000296626 1.11863e-05
-0.000296626 -0.000774189 2.00237e-05
1.11863e-05 2.00237e-05 -0.00106894
4.79059e-05 -0.000163275 5.62104e-06
-0.000163275 -0.000244962 -3.7545e-07
5.62104e-06 -3.7545e-07 -0.00035817
0.00116795 -0.000290436 -3.77161e-06
-0.000290436 0.000379243 1.15975e-05
-3.77161e-06 1.15975e-05 0.000193786
0.00202267 -0.000568966 -6.27001e-06
-0.000568966 0.000828337 1.41506e-05
-6.27001e-06 1.41506e-05 0.000457931
0.0016841 -0.000542766 -5.94925e-06
-0.000542766 0.000505996 -1.00847e-06
-5.94925e-06 -1.00847e-06 0.000117833
0.0015464 -0.000377959 2.14092e-06
-0.000377959 0.000606909 1.80688e-06
2.14092e-06 1.80688e-06 0.000361302
0.000532937 -0.000350159 9.24701e-06
-0.000350159 -9.73688e-05 -4.05491e-06
9.24701e-06 -4.05491e-06 -0.000380916
0.0012421 -0.000174994 3.16719e-06
-0.000174994 0.000557375 -4.03266e-06
3.16719e-06 -4.03266e-06 0.000299401
0.00117604 -0.000223664 -8.30267e-06
-0.000223664 0.00047641 1.41046e-06
-8.30267e-06 1.41046e-06 0.000268595
-0.000168206 -0.000122015 1.2609e-05
-0.000122015 -0.0004009 -1.68228e-05
1.2609e-05 -1.68228e-05 -0.000504412
0.00119607 -0.000111431 -1.91918e-06
-0.000111431 0.000480113 2.40769e-06
-1.91918e-06 2.40769e-06 0.000306195
0.000270822 -8.44641e-05 8.17736e-07
-8.44641e-05 -3.83678e-05 -3.23904e-07
8.17736e-07 -3.23904e-07 -0.000244505
0.000392968 -5.45439e-05 1.95252e-06
-5.45439e-05 -3.389e-05 7.22794e-07
1.95252e-06 7.22794e-07 -0.000177449
0.00149485 -0.000227342 -1.96146e-06
-0.000227342 0.000723863 5.42596e-07
-1.96146e-06 5.42596e-07 0.000522693
0.000654398 -9.91221e-05 -4.04992e-07
-9.91221e-05 0.000145137 -1.52853e-07
-4.04992e-07 -1.52853e-07 5.2347e-06
0.000418353 1.12966e-05 3.13173e-06
1.12966e-05 -1.83031e-05 4.6164e-06
3.13173e-06 4.6164e-06 -0.000115889
0.000798064 -0.000137891 -5.57493e-07
-0.000137891 0.000247795 -2.21044e-06
-5.57493e-07 -2.21044e-06 0.000106838
0.000483769 6.7966e-06 -2.15102e-06
6.7966e-06 2.01281e-05 -2.00106e-07
-2.15102e-06 -2.00106e-07 -6.93051e-05
0.00142595 8.92277e-06 -1.67294e-05
8.92277e-06 0.000576337 5.39259e-06
-1.67294e-05 5.39259e-06 0.000552114
0.000583933 -6.5053e-05 2.00942e-06
-6.5053e-05 8.06056e-05 -4.31821e-06
2.00942e-06 -4.31821e-06 -4.10997e-06
0.000881139 -8.09182e-06 -8.46595e-06
-8.09182e-06 0.000234226 5.59487e-07
-8.46595e-06 5.59487e-07 0.000208895
0.000838944 3.17862e-05 5.09274e-07
3.17862e-05 0.000197116 3.10633e-06
5.09274e-07 3.10633e-06 0.000196611
0.00044764 -2.37545e-05 2.44159e-06
-2.37545e-05 -3.49315e-05 -6.01632e-06
2.44159e-06 -6.01632e-06 -6.16422e-05
0.00172315 3.29921e-05 1.4123e-05
3.29921e-05 0.000759498 -1.24113e-06
1.4123e-05 -1.24113e-06 0.00076637
0.00254228 2.56966e-05 1.65893e-05
2.56966e-05 0.00127676 -5.45919e-06
1.65893e-05 -5.45919e-06 0.00128914
0.000313339 1.79296e-05 1.33463e-06
1.79296e-05 -6.31997e-05 1.52548e-06
1.33463e-06 1.52548e-06 -0.000195628
0.000152812 1.98897e-05 -5.65375e-08
1.98897e-05 -0.000201904 -3.58341e-06
-5.65375e-08 -3.58341e-06 -0.000265142
0.000623233 5.16504e-05 1.45778e-07
5.16504e-05 0.000124882 1.67274e-07
1.45778e-07 1.67274e-07 1.26655e-05
0.000466696 4.21339e-06 1.44054e-06
4.21339e-06 -3.70172e-05 -3.78301e-06
1.44054e-06 -3.78301e-06 -4.84139e-05
0.000327831 6.68367e-06 1.59995e-06
6.68367e-06 -9.38419e-05 2.97644e-08
1.59995e-06 2.97644e-08 -0.00014727
0.000249231 -9.36186e-05 -9.24878e-07
-9.36186e-05 -0.000107669 -7.57425e-07
-9.24878e-07 -7.57425e-07 -0.000208154
0.00205683 -4.82132e-06 -1.13347e-05
-4.82132e-06 0.000967283 -4.81121e-06
-1.13347e-05 -4.81121e-06 0.000985068
0.000461701 3.44594e-06 7.59857e-09
3.44594e-06 -3.90661e-05 -6.72775e-08
7.59857e-09 -6.72775e-08 -4.8694e-05
0.000433857 -1.50138e-05 -2.64381e-06
-1.50138e-05 -2.54576e-05 2.27777e-06
-2.64381e-06 2.27777e-06 -7.22719e-05
0.00201737 1.05235e-05 -4.66613e-06
1.05235e-05 0.000943646 8.12944e-09
-4.66613e-06 8.12944e-09 0.000961255
0.000453549 4.90356e-06 -1.3059e-06
4.90356e-06 -4.3243e-05 3.26348e-06
-1.3059e-06 3.26348e-06 -5.25322e-05
0.00198954 2.55043e-05 1.51264e-06
2.55043e-05 0.000928002 4.82219e-06
1.51264e-06 4.82219e-06 0.000944685
-0.000314543 -0.000800463 -0.000246716
-0.000800463 -0.000137764 9.41001e-05
-0.000246716 9.41001e-05 -0.00334303
0.00186078 0.000656186 -0.000115785
0.000656186 0.00762566 2.25861e-05
-0.000115785 2.25861e-05 0.00341496
0.00233337 -9.53329e-06 -0.00087678
-9.53329e-06 0.00385107 0.000180845
-0.00087678 0.000180845 0.00196299
0.000722373 0.000123423 4.9708e-06
0.000123423 0.000188755 6.57418e-06
4.9708e-06 6.57418e-06 3.17092e-05
0.00506537 -0.000919852 -9.26178e-05
-0.000919852 0.00322211 0.000241108
-9.26178e-05 0.000241108 0.00109005
0.00411784 -0.0012863 -0.000276227
-0.0012863 0.00171701 2.56996e-05
-0.000276227 2.56996e-05 -0.00293
0.0112458 0.00341895 0.000345865
0.00341895 0.00782652 -0.000348697
0.000345865 -0.000348697 0.00352411
0.00725896 -0.00106279 0.000122357
-0.00106279 0.000769666 -2.24366e-05
0.000122357 -2.24366e-05 0.00109558
0.0130929 -0.00232471 0.000268667
-0.00232471 0.000981387 -0.000137648
0.000268667 -0.000137648 -0.000108487
0.00890727 0.00478412 -0.000661619
0.00478412 0.000677532 0.00042252
-0.000661619 0.00042252 -0.00285172
0.0138508 0.00430935 0.00011414
0.00430935 0.0050345 0.000230102
0.00011414 0.000230102 0.00234631
0.00743251 -0.00226875 -0.000121889
-0.00226875 0.000151998 -5.01266e-06
-0.000121889 -5.01266e-06 0.000648224
0.017283 -0.00415175 3.52632e-05
-0.00415175 0.00403365 -3.401e-05
3.52632e-05 -3.401e-05 0.00154001
0.00846434 0.00284288 0.000147081
0.00284288 0.00307602 -0.000355647
0.000147081 -0.000355647 -0.00124302
0.0121302 0.00126438 1.08916e-05
0.00126438 -0.000305399 4.18699e-05
1.08916e-05 4.18699e-05 -0.000142387
0.00291554 -0.00243566 -6.15306e-05
-0.00243566 3.93964e-06 8.09168e-05
-6.15306e-05 8.09168e-05 -3.15624e-05
0.0106522 -0.00437148 0.000157132
-0.00437148 0.00452324 -0.000108371
0.000157132 -0.000108371 0.000162858
0.00990807 -0.000283669 0.000128511
-0.000283669 0.00474389 -0.000454734
0.000128511 -0.000454734 0.00181785
0.0120433 0.000388923 -0.000139002
0.000388923 -0.00132201 0.000250745
-0.000139002 0.000250745 0.000822251
0.000319036 7.04058e-05 4.31612e-06
7.04058e-05 3.92908e-05 9.85266e-06
4.31612e-06 9.85266e-06 -0.000176579
0.000724203 -0.000132446 5.97768e-07
-0.000132446 0.000306884 -3.29e-07
5.97768e-07 -3.29e-07 6.08029e-05
0.000877132 0.000129379 1.86803e-06
0.000129379 0.000346563 -4.83299e-06
1.86803e-06 -4.83299e-06 0.000190196
0.000488232 0.000129809 1.84275e-06
0.000129809 2.64357e-05 1.09655e-05
1.84275e-06 1.09655e-05 -0.000117795
0.000828762 0.00019004 3.18158e-07
0.00019004 0.00030089 7.13335e-07
3.18158e-07 7.13335e-07 0.000104995
0.00107426 0.000105648 -4.46795e-06
0.000105648 0.00045425 -4.71946e-06
-4.46795e-06 -4.71946e-06 0.000294837
0.00103954 0.000172377 -1.50727e-06
0.000172377 0.000424331 -5.89295e-08
-1.50727e-06 -5.89295e-08 0.000246345
0.00106117 0.000182487 1.47256e-06
0.000182487 0.000461487 2.14734e-06
1.47256e-06 2.14734e-06 0.000280058
0.000531504 -0.000616263 0.000118816
-0.000616263 -0.000939469 -6.6736e-05
0.000118816 -6.6736e-05 -0.000782397
0.000483785 -0.000689763 -2.66709e-05
-0.000689763 -0.000577388 -3.94287e-06
-2.66709e-05 -3.94287e-06 -0.000526362
0.000943249 -0.000227595 2.7148e-06
-0.000227595 0.000464285 -2.79545e-05
2.7148e-06 -2.79545e-05 0.000167118
0.00174988 -0.00069686 1.88849e-05
-0.00069686 0.000883912 -2.44056e-05
1.88849e-05 -2.44056e-05 0.000538665
0.00250019 -0.00046946 -2.11408e-05
-0.00046946 0.00145749 2.12464e-05
-2.11408e-05 2.12464e-05 0.00106304
0.00159503 -0.000162464 4.12156e-06
-0.000162464 0.000868992 -2.24643e-05
4.12156e-06 -2.24643e-05 0.00057458
-1.57378e-06 -2.19355e-05 3.3895e-06
-2.19355e-05 -0.000159171 7.71796e-06
3.3895e-06 7.71796e-06 -0.000375682
0.000474252 -0.00119025 -7.83132e-06
-0.00119025 -0.000682328 -4.3902e-06
-7.83132e-06 -4.3902e-06 -0.000746963
0.00132969 -1.60535e-05 -7.1715e-07
-1.60535e-05 0.000837659 -5.7835e-07
-7.1715e-07 -5.7835e-07 0.000507023
0.000331477 -0.000238287 -1.36656e-06
-0.000238287 0.000319804 4.9255e-06
-1.36656e-06 4.9255e-06 -0.00011508
-0.000343083 -0.000390986 2.34977e-05
-0.000390986 -0.000477447 6.48181e-07
2.34977e-05 6.48181e-07 -0.000452763
0.000828607 0.000110598 1.22369e-06
0.000110598 0.000369281 1.20121e-06
1.22369e-06 1.20121e-06 0.000166825
-0.000101369 -0.00107418 -5.6998e-05
-0.00107418 -0.000402389 -2.37492e-05
-5.6998e-05 -2.37492e-05 -0.000637468
-0.00098492 -0.000409159 -1.6377e-05
-0.000409159 -0.000525622 3.03519e-05
-1.6377e-05 3.03519e-05 -0.000796613
8.85164e-05 0.000142067 1.90827e-05
0.000142067 0.000405292 -2.51721e-05
1.90827e-05 -2.51721e-05 -0.000120919
0.00195989 0.000306976 -3.51052e-06
0.000306976 0.00122978 -8.75708e-07
-3.51052e-06 -8.75708e-07 0.000937275
-0.00118207 0.000104543 0.000116074
0.000104543 0.00154202 2.34072e-05
0.000116074 2.34072e-05 0.000606956
0.000434913 -1.45677e-05 0.00015814
-1.45677e-05 0.00125427 -3.38493e-05
0.00015814 -3.38493e-05 -0.00283826
-0.011545 -0.000355133 -0.000272997
-0.000355133 0.00601773 2.70895e-05
-0.000272997 2.70895e-05 0.000436411
0.00175927 0.000568534 2.06422e-05
0.000568534 0.0010261 4.03251e-06
2.06422e-05 4.03251e-06 0.000707374
-0.000700822 0.000682989 1.29045e-05
0.000682989 -0.000302957 1.04419e-05
1.29045e-05 1.04419e-05 -0.000752065
0.00552058 0.000804994 0.000320066
0.000804994 0.0037686 6.23654e-05
0.000320066 6.23654e-05 0.00127608
0.009569 0.00379366 0.000265207
0.00379366 0.00331521 0.000199824
0.000265207 0.000199824 -0.000803122
0.00440689 0.00246603 -9.26453e-05
0.00246603 0.00248765 -9.87748e-05
-9.26453e-05 -9.87748e-05 0.00109398
0.00465222 -0.00225087 -0.000180935
-0.00225087 0.0042179 -0.000455193
-0.000180935 -0.000455193 0.000367547
0.00275583 0.00062398 0.00013672
0.00062398 0.0003709 0.000182511
0.00013672 0.000182511 -0.00122766
0.00762022 -0.000230126 -5.3557e-05
-0.000230126 -0.0054065 -0.000240403
-5.3557e-05 -0.000240403 -0.00218118
0.00101471 0.000502802 5.92748e-06
0.000502802 0.00076954 1.63647e-06
5.92748e-06 1.63647e-06 0.000383263
-0.00255492 0.00011 -2.75604e-06
0.00011 0.00012342 2.53199e-06
-2.75604e-06 2.53199e-06 -0.000469627
0.00445527 -9.99622e-05 0.000114101
-9.99622e-05 -0.000254646 2.23385e-05
0.000114101 2.23385e-05 -0.00087025
-0.00175535 0.000432369 -1.36661e-05
0.000432369 -0.0002659 -1.10375e-05
-1.36661e-05 -1.10375e-05 -0.00100106
0.0118353 0.0013938 -4.18621e-06
0.0013938 -0.000258485 -4.37941e-05
-4.18621e-06 -4.37941e-05 -0.000157329
0.00268975 0.00193791 0.000222316
0.00193791 0.00386292 0.000137104
0.000222316 0.000137104 -0.00185498
0.00721535 0.000679755 -0.000172281
0.000679755 0.00321094 4.81684e-06
-0.000172281 4.81684e-06 -0.000506832
0.000367852 0.00043124 5.45716e-06
0.00043124 0.000540643 -2.3944e-05
5.45716e-06 -2.3944e-05 1.21081e-05
0.00150548 -1.7901e-05 4.30902e-06
-1.7901e-05 0.000278945 -1.50888e-05
4.30902e-06 -1.50888e-05 -0.000132991
0.00393303 -0.00117002 7.6332e-05
-0.00117002 0.00320058 -0.000239547
7.6332e-05 -0.000239547 0.00131733
0.0200128 0.00482479 0.00031055
0.00482479 0.00608195 -0.000283036
0.00031055 -0.000283036 0.00381081
0.0089822 -0.000141339 -0.000108265
-0.000141339 0.00480197 0.000462495
-0.000108265 0.000462495 0.00157369
0.000238193 0.000421065 -1.92495e-05
0.000421065 0.000728024 -0.000135586
-1.92495e-05 -0.000135586 5.48741e-05
0.00443115 0.00144922 0.000264463
0.00144922 0.00618971 2.53421e-05
0.000264463 2.53421e-05 -0.00208547
0.00125037 0.000336062 8.4186e-06
0.000336062 0.000914598 1.12736e-05
8.4186e-06 1.12736e-05 0.000543554
0.000618446 0.000244551 4.14746e-06
0.000244551 0.000711809 1.99335e-06
4.14746e-06 1.99335e-06 0.000279946
0.000457449 -2.9194e-05 -1.75412e-05
-2.9194e-05 0.000758087 2.12599e-06
-1.75412e-05 2.12599e-06 0.000383609
-0.000528879 -3.98355e-05 1.62564e-06
-3.98355e-05 -0.000523875 2.73813e-06
1.62564e-06 2.73813e-06 -0.000668635
0.000366217 -1.53814e-05 4.75431e-06
-1.53814e-05 0.000469177 -1.2355e-06
4.75431e-06 -1.2355e-06 5.84322e-05
7.8537e-05 4.90113e-05 4.34808e-06
4.90113e-05 0.000439059 -4.84644e-06
4.34808e-06 -4.84644e-06 -5.2705e-05
0.000199324 -3.18171e-05 3.49776e-07
-3.18171e-05 0.00023015 5.49183e-07
3.49776e-07 5.49183e-07 -2.66107e-05
-1.86544e-05 -4.07626e-05 4.22506e-06
-4.07626e-05 0.000325337 7.3741e-07
4.22506e-06 7.3741e-07 -9.23477e-05
0.00153155 -0.000372018 4.40265e-06
-0.000372018 0.00102291 -1.0805e-05
4.40265e-06 -1.0805e-05 0.000691757
0.00084432 -9.43705e-05 -6.51312e-06
-9.43705e-05 0.000446589 6.00234e-06
-6.51312e-06 6.00234e-06 0.000302731
0.000322847 -9.24793e-06 -9.83383e-07
-9.24793e-06 -1.37103e-05 1.67109e-06
-9.83383e-07 1.67109e-06 -0.000142202
0.00133256 -0.000280588 9.11087e-07
-0.000280588 0.000590341 5.53617e-06
9.11087e-07 5.53617e-06 0.000421755
-0.00299954 -0.00011066 1.83774e-05
-0.00011066 -0.00182973 2.07312e-05
1.83774e-05 2.07312e-05 -0.00215942
-0.000319705 -0.000109681 1.10023e-05
-0.000109681 -0.000405157 -1.84862e-06
1.10023e-05 -1.84862e-06 -0.00042273
-8.91878e-05 -0.000340695 -8.95468e-07
-0.000340695 -0.000346202 -5.21387e-06
-8.95468e-07 -5.21387e-06 -0.000603949
0.00125998 -0.000538708 -6.15373e-07
-0.000538708 0.000325693 -8.11315e-07
-6.15373e-07 -8.11315e-07 -0.000133164
0.00169916 -0.0006493 -7.17704e-06
-0.0006493 0.000471329 -4.59269e-08
-7.17704e-06 -4.59269e-08 2.60872e-05
0.00167981 -0.000362229 5.22907e-06
-0.000362229 0.000677411 -3.70335e-06
5.22907e-06 -3.70335e-06 0.000468428
0.00127733 -0.000482743 8.63496e-07
-0.000482743 0.000359421 6.67186e-07
8.63496e-07 6.67186e-07 -2.14005e-06
0.00164513 -0.000550683 4.54855e-06
-0.000550683 0.000452541 -4.29973e-06
4.54855e-06 -4.29973e-06 7.15985e-05
0.00113832 -0.000383491 -1.93312e-06
-0.000383491 0.000237352 7.32418e-06
-1.93312e-06 7.32418e-06 -5.82105e-05
0.00112469 -0.000470913 2.14161e-06
-0.000470913 0.000173832 -4.68615e-06
2.14161e-06 -4.68615e-06 -0.000190636
0.000616041 -0.00016495 1.06644e-06
-0.00016495 0.00012616 -6.10175e-06
1.06644e-06 -6.10175e-06 -0.000128808
0.00111514 -0.00035363 -5.78035e-06
-0.00035363 0.000352336 3.30763e-06
-5.78035e-06 3.30763e-06 9.41911e-05
-0.000902468 -0.00016398 -3.82389e-07
-0.00016398 -0.000973355 -9.76637e-06
-3.82389e-07 -9.76637e-06 -0.00120305
2.69979e-05 -5.64164e-05 1.1847e-06
-5.64164e-05 -0.000237057 -2.49805e-06
1.1847e-06 -2.49805e-06 -0.000427399
0.000364557 -0.000138566 2.60321e-07
-0.000138566 3.93066e-05 3.31697e-07
2.60321e-07 3.31697e-07 -0.000216404
0.000471214 -0.000201311 1.09329e-05
-0.000201311 9.13438e-05 9.56476e-09
1.09329e-05 9.56476e-09 -0.000132028
0.000602823 -0.000126494 -1.45208e-07
-0.000126494 0.000161326 2.82468e-06
-1.45208e-07 2.82468e-06 -4.19819e-05
0.000716351 -0.000115403 6.21263e-08
-0.000115403 0.00018427 3.67992e-07
6.21263e-08 3.67992e-07 2.39443e-05
0.000562198 -6.50145e-06 2.10969e-06
-6.50145e-06 6.20659e-05 6.43176e-06
2.10969e-06 6.43176e-06 -4.4341e-05
0.00101674 -0.000144401 -2.08979e-06
-0.000144401 0.000388009 -1.07961e-06
-2.08979e-06 -1.07961e-06 0.000232233
0.000574941 -9.45134e-06 -1.19595e-06
-9.45134e-06 6.8284e-05 -3.48488e-07
-1.19595e-06 -3.48488e-07 -2.39165e-05
0.000399069 4.68553e-05 2.43077e-06
4.68553e-05 -6.08978e-05 7.18044e-06
2.43077e-06 7.18044e-06 -9.75312e-05
0.000688616 -6.51587e-05 9.7642e-07
-6.51587e-05 0.000140072 -3.78114e-06
9.7642e-07 -3.78114e-06 5.33918e-05
0.000451057 2.44724e-06 -1.30192e-06
2.44724e-06 -3.91961e-05 -4.59124e-08
-1.30192e-06 -4.59124e-08 -6.92644e-05
0.00260411 9.11839e-05 -2.05003e-06
9.11839e-05 0.00131806 2.63263e-06
-2.05003e-06 2.63263e-06 0.00132262
0.000469599 -1.51222e-05 2.50256e-06
-1.51222e-05 -2.61173e-05 -6.17898e-06
2.50256e-06 -6.17898e-06 -5.44808e-05
0.00175727 4.65358e-05 1.70542e-05
4.65358e-05 0.000780311 -1.03464e-06
1.70542e-05 -1.03464e-06 0.000785204
0.0026105 4.16325e-05 2.34733e-05
4.16325e-05 0.00131848 -5.63891e-06
2.34733e-05 -5.63891e-06 0.0013299
0.000268819 2.17899e-05 1.35325e-06
2.17899e-05 -0.000109639 1.16545e-06
1.35325e-06 1.16545e-06 -0.000231076
0.000219403 1.0732e-05 1.33764e-06
1.0732e-05 -0.00016158 -2.6719e-06
1.33764e-06 -2.6719e-06 -0.000236079
0.000460621 3.72867e-05 -5.93348e-07
3.72867e-05 2.43758e-05 -1.23453e-06
-5.93348e-07 -1.23453e-06 -0.000101527
0.00048956 4.26986e-06 1.52048e-06
4.26986e-06 -2.32656e-05 -4.25358e-06
1.52048e-06 -4.25358e-06 -3.75601e-05
0.000194061 1.63077e-05 -5.99312e-07
1.63077e-05 -0.000176649 -1.75093e-06
-5.99312e-07 -1.75093e-06 -0.000241981
0.000668762 5.6833e-05 -1.10432e-08
5.6833e-05 0.000166252 1.37607e-06
-1.10432e-08 1.37607e-06 4.50135e-05
0.00207811 -1.82789e-05 -1.66358e-05
-1.82789e-05 0.000979454 -4.71158e-06
-1.66358e-05 -4.71158e-06 0.000997058
0.000469265 2.16639e-06 -6.62212e-07
2.16639e-06 -3.58659e-05 -6.95667e-08
-6.62212e-07 -6.95667e-08 -4.69319e-05
0.000112832 1.55905e-05 1.55256e-06
1.55905e-05 -0.000225741 1.72291e-06
1.55256e-06 1.72291e-06 -0.000282971
0.00203996 -3.62243e-06 -4.06554e-06
-3.62243e-06 0.000956503 4.77355e-08
-4.06554e-06 4.77355e-08 0.000974421
0.000451345 2.95294e-06 -1.5529e-06
2.95294e-06 -4.62193e-05 3.4733e-06
-1.5529e-06 3.4733e-06 -5.54887e-05
0.00206465 1.20802e-05 7.06082e-06
1.20802e-05 0.000973914 4.88606e-06
7.06082e-06 4.88606e-06 0.000991093
0.000450344 -4.24119e-05 0.000132825
-4.24119e-05 0.00221895 5.31387e-05
0.000132825 5.31387e-05 0.00155318
-0.00025855 -0.000389505 -5.16729e-05
-0.000389505 0.000396123 -1.03983e-05
-5.16729e-05 -1.03983e-05 -0.00345313
0.000196177 0.000640038 -3.93701e-05
0.000640038 0.00726612 -4.72679e-05
-3.93701e-05 -4.72679e-05 0.00291483
0.000762371 0.000133398 6.49701e-07
0.000133398 0.000203138 1.10305e-07
6.49701e-07 1.10305e-07 5.71695e-05
0.000275732 8.96421e-05 5.81011e-06
8.96421e-05 -0.000112535 4.69973e-06
5.81011e-06 4.69973e-06 -0.000246
0.00107479 0.000193399 8.73811e-06
0.000193399 0.000400011 8.24171e-06
8.73811e-06 8.24171e-06 0.000251837
0.00600137 -0.000363398 -9.72032e-05
-0.000363398 -0.000392295 0.000226043
-9.72032e-05 0.000226043 -0.00145675
0.00501783 -0.00108031 9.50059e-05
-0.00108031 0.00289583 6.41274e-06
9.50059e-05 6.41274e-06 0.0014141
0.004623 -0.00179615 0.000196769
-0.00179615 0.00193699 -0.000258177
0.000196769 -0.000258177 -0.00278673
0.00866898 -0.00272034 -1.53518e-05
-0.00272034 0.00019886 -3.30515e-05
-1.53518e-05 -3.30515e-05 0.000895806
0.00112826 -0.00329459 -0.000417706
-0.00329459 -0.00203385 9.67593e-05
-0.000417706 9.67593e-05 -0.00467814
0.0261608 0.00423937 0.000237045
0.00423937 0.0107848 0.000173567
0.000237045 0.000173567 0.00596634
0.00727963 -0.000156305 0.000298893
-0.000156305 -0.00269555 -0.000238011
0.000298893 -0.000238011 -0.0029172
0.00432151 -0.00281692 -3.00125e-05
-0.00281692 -1.20563e-05 1.74331e-05
-3.00125e-05 1.74331e-05 0.000400314
0.00735451 -0.00425994 -0.00011939
-0.00425994 0.00273204 2.02105e-05
-0.00011939 2.02105e-05 -0.00202317
-0.00201431 0.00374199 -8.97922e-05
0.00374199 0.00392947 -0.000312679
-8.97922e-05 -0.000312679 -0.00100374
0.0100376 7.83875e-05 -7.86837e-05
7.83875e-05 -0.00350877 0.000144155
-7.86837e-05 0.000144155 -0.000655918
0.00197359 -0.00205485 -0.000105835
-0.00205485 0.00122947 4.55122e-05
-0.000105835 4.55122e-05 0.000780892
0.0108368 -0.00311341 -0.000302906
-0.00311341 0.00584448 0.000176868
-0.000302906 0.000176868 0.000730201
-0.000133976 -9.86952e-05 4.83156e-05
-9.86952e-05 0.00246604 -0.000340622
4.83156e-05 -0.000340622 -0.00135449
0.00906414 -0.00084787 0.000123713
-0.00084787 -0.00196039 6.50516e-05
0.000123713 6.50516e-05 -0.00120136
0.000240711 9.94438e-05 7.33732e-06
9.94438e-05 -7.6981e-05 1.93917e-05
7.33732e-06 1.93917e-05 -0.000223619
0.000691655 -1.19905e-06 2.40429e-06
-1.19905e-06 0.000250718 -3.07231e-06
2.40429e-06 -3.07231e-06 2.42639e-05
0.000408754 -0.000162925 2.07379e-06
-0.000162925 3.29928e-05 -1.07185e-05
2.07379e-06 -1.07185e-05 -0.00017556
0.000651304 0.000135354 -1.98961e-06
0.000135354 0.000132019 1.48996e-06
-1.98961e-06 1.48996e-06 -1.98955e-05
0.000753926 0.000142259 2.27135e-06
0.000142259 0.000256284 -5.43897e-06
2.27135e-06 -5.43897e-06 7.22637e-05
0.00116587 0.000197291 -3.85237e-06
0.000197291 0.000506674 -4.53626e-06
-3.85237e-06 -4.53626e-06 0.000326485
-0.00042044 -0.00102471 3.45659e-05
-0.00102471 -0.00106613 -1.56599e-05
3.45659e-05 -1.56599e-05 -0.00112266
0.00105308 -0.000375823 2.29895e-05
-0.000375823 0.000306289 -2.46449e-05
2.29895e-05 -2.46449e-05 0.000348216
4.21323e-05 6.402e-05 -1.41846e-06
6.402e-05 -0.000124884 -1.52883e-05
-1.41846e-06 -1.52883e-05 -0.000353716
0.0022862 -0.000472676 5.94361e-05
-0.000472676 0.00138074 -2.61159e-05
5.94361e-05 -2.61159e-05 0.000983954
0.00179467 -0.000129184 -1.30202e-06
-0.000129184 0.00107463 4.08256e-06
-1.30202e-06 4.08256e-06 0.000771119
-7.8602e-05 9.62004e-05 4.0677e-06
9.62004e-05 -0.000131087 4.15961e-06
4.0677e-06 4.15961e-06 -0.000354937
0.000644337 0.000123328 5.83782e-07
0.000123328 0.000406987 -1.50764e-06
5.83782e-07 -1.50764e-06 0.000153796
0.000488882 -0.00118135 -2.99294e-05
-0.00118135 -0.000155337 -2.21447e-07
-2.99294e-05 -2.21447e-07 -0.000489377
0.000273565 -4.05593e-05 -5.96958e-06
-4.05593e-05 0.000535191 4.39844e-06
-5.96958e-06 4.39844e-06 9.10838e-06
0.00120375 -0.000359848 -2.64107e-06
-0.000359848 0.000730191 -8.70875e-06
-2.64107e-06 -8.70875e-06 0.000380819
0.00066782 0.000161427 1.96545e-06
0.000161427 0.000406033 -1.53616e-05
1.96545e-06 -1.53616e-05 0.000176074
-0.00193286 -0.000281476 -6.10518e-05
-0.000281476 -0.000147701 -1.50616e-05
-6.10518e-05 -1.50616e-05 -0.00104094
0.000711669 -0.00021525 -2.93045e-05
-0.00021525 0.00083229 7.89357e-06
-2.93045e-05 7.89357e-06 0.000437745
-0.000276739 8.72704e-05 -1.27007e-05
8.72704e-05 0.000304511 9.53591e-06
-1.27007e-05 9.53591e-06 -0.0001702
-0.000212313 0.000193888 -1.09722e-05
0.000193888 -0.000610228 3.07589e-06
-1.09722e-05 3.07589e-06 -0.00177605
-0.00180623 0.000198021 5.6044e-05
0.000198021 0.00126779 -1.33238e-05
5.6044e-05 -1.33238e-05 0.000328812
-0.000412253 -0.00015491 0.000334733
-0.00015491 0.00065466 2.75191e-05
0.000334733 2.75191e-05 -0.00343396
0.00010925 0.000470999 2.44569e-06
0.000470999 0.000224757 1.67331e-05
2.44569e-06 1.67331e-05 -0.000184027
0.000407262 0.000807744 -2.04823e-05
0.000807744 0.000445212 -8.86976e-06
-2.04823e-05 -8.86976e-06 -0.000199717
-0.00232053 6.3699e-05 -3.95957e-05
6.3699e-05 0.000180872 -2.16756e-05
-3.95957e-05 -2.16756e-05 -0.000550898
-0.00481735 0.000710107 6.49431e-05
0.000710107 0.00252249 0.000188426
6.49431e-05 0.000188426 -0.0029058
-0.000807946 0.00122308 -0.000189229
0.00122308 -0.00166593 -0.000476053
-0.000189229 -0.000476053 -0.00626135
0.0037063 7.52529e-06 8.6334e-05
7.52529e-06 -0.000348456 9.45369e-05
8.6334e-05 9.45369e-05 -0.000425561
0.00676989 1.18499e-05 -0.000297448
1.18499e-05 -0.00248574 0.000239067
-0.000297448 0.000239067 -0.00292807
0.000207815 0.000351415 -2.67089e-07
0.000351415 0.000494195 -6.88325e-07
-2.67089e-07 -6.88325e-07 3.55753e-05
0.00105031 1.16655e-05 3.20809e-05
1.16655e-05 0.000199591 -1.4321e-05
3.20809e-05 -1.4321e-05 -0.000189767
0.00419558 -0.00084468 -9.22325e-05
-0.00084468 0.00286485 1.13512e-06
-9.22325e-05 1.13512e-06 0.00134019
-0.000452595 0.000674611 -0.000136953
0.000674611 0.00107545 -6.26295e-06
-0.000136953 -6.26295e-06 -0.000331795
0.0144794 0.00491178 1.23992e-05
0.00491178 0.00317924 -0.00040407
1.23992e-05 -0.00040407 0.000740322
0.00023478 0.00309954 8.01362e-05
0.00309954 0.00434074 0.000324238
8.01362e-05 0.000324238 -0.000701634
0.00514564 0.000670838 6.11684e-05
0.000670838 0.00582044 -2.16272e-05
6.11684e-05 -2.16272e-05 -0.0014737
0.000641873 -1.85715e-05 4.25333e-05
-1.85715e-05 0.0014228 -2.76302e-05
4.25333e-05 -2.76302e-05 0.0003925
2.33929e-05 -0.00014172 -0.00011775
-0.00014172 0.00230893 3.73877e-06
-0.00011775 3.73877e-06 0.00148278
0.00198302 -0.000913613 0.000707826
-0.000913613 0.000689544 -0.000258253
0.000707826 -0.000258253 -0.00420479
0.0188504 0.00719287 -7.29625e-05
0.00719287 0.0127825 -4.23969e-06
-7.29625e-05 -4.23969e-06 0.00945787
0.00626692 0.0037307 -0.000131615
0.0037307 0.0016974 0.000798936
-0.000131615 0.000798936 -0.00237838
0.0118915 -0.00338646 0.000279368
-0.00338646 0.00599062 -0.000229923
0.000279368 -0.000229923 0.000249594
0.00362261 -0.000757822 -6.8851e-05
-0.000757822 0.00321296 3.51356e-05
-6.8851e-05 3.51356e-05 0.00230569
0.000649059 0.000231656 -4.0959e-06
0.000231656 0.000749751 2.61122e-06
-4.0959e-06 2.61122e-06 0.000317707
-1.07727e-06 -5.58461e-05 -8.03861e-06
-5.58461e-05 0.000422382 -3.30696e-06
-8.03861e-06 -3.30696e-06 1.64482e-05
0.00127492 -0.000510739 4.04003e-05
-0.000510739 0.000938911 -1.30621e-05
4.04003e-05 -1.30621e-05 0.000429923
0.000380364 -7.8598e-05 -1.22015e-06
-7.8598e-05 0.000292951 3.68308e-06
-1.22015e-06 3.68308e-06 8.05732e-05
-2.08249e-05 -5.29566e-05 2.31108e-07
-5.29566e-05 0.000293559 -1.31539e-05
2.31108e-07 -1.31539e-05 -0.000102344
0.000490374 -0.000296524 -4.22329e-06
-0.000296524 0.000533906 4.01642e-07
-4.22329e-06 4.01642e-07 0.000187479
0.000928915 -0.000585141 2.05338e-05
-0.000585141 0.000348276 -1.88768e-05
2.05338e-05 -1.88768e-05 6.77748e-05
0.00229716 -0.000381981 -8.69734e-07
-0.000381981 0.0011949 8.59348e-07
-8.69734e-07 8.59348e-07 0.000976723
0.00169907 -0.000637852 1.48115e-05
-0.000637852 0.000758472 -2.92369e-06
1.48115e-05 -2.92369e-06 0.000362109
0.00103379 -0.000556323 7.77999e-06
-0.000556323 0.000371218 1.04908e-06
7.77999e-06 1.04908e-06 -0.000250321
0.000644683 -0.000354235 -5.62846e-06
-0.000354235 5.57162e-05 -5.67755e-06
-5.62846e-06 -5.67755e-06 -0.000152737
0.00200478 -0.000627956 -2.48468e-06
-0.000627956 0.00072226 -9.95077e-07
-2.48468e-06 -9.95077e-07 0.000258546
0.00212621 -0.000780699 -7.49906e-06
-0.000780699 0.00068995 -3.35553e-07
-7.49906e-06 -3.35553e-07 0.000127147
0.00192703 -0.000828824 -1.17008e-05
-0.000828824 0.000426474 1.96273e-06
-1.17008e-05 1.96273e-06 -6.81581e-05
0.00179074 -0.000697591 -2.47702e-06
-0.000697591 0.000500421 -5.27277e-07
-2.47702e-06 -5.27277e-07 5.82029e-05
0.00164742 -0.000645785 -4.66555e-06
-0.000645785 0.000430597 1.24246e-06
-4.66555e-06 1.24246e-06 -1.62611e-05
0.00121113 -0.000480544 -1.33526e-06
-0.000480544 0.000292069 -5.72997e-06
-1.33526e-06 -5.72997e-06 -7.91739e-05
0.00149721 -0.000498257 9.13557e-06
-0.000498257 0.000435987 -2.19571e-06
9.13557e-06 -2.19571e-06 8.44646e-05
0.00158128 -0.000551148 5.9647e-06
-0.000551148 0.000415187 -2.02448e-06
5.9647e-06 -2.02448e-06 3.4381e-05
0.000733391 -0.000239994 1.77231e-06
-0.000239994 7.65101e-05 -6.37799e-07
1.77231e-06 -6.37799e-07 -0.000169096
0.00104539 -0.000384112 4.51343e-06
-0.000384112 0.000187398 -3.83095e-06
4.51343e-06 -3.83095e-06 -0.000108126
0.00042673 -0.000384296 -1.76344e-06
-0.000384296 -0.000246484 -8.14582e-06
-1.76344e-06 -8.14582e-06 -0.00058466
-1.42389e-05 -6.09189e-05 5.92938e-07
-6.09189e-05 -0.000237217 -3.06062e-06
5.92938e-07 -3.06062e-06 -0.000484861
0.00105039 -0.00022277 -3.36368e-07
-0.00022277 0.000408433 4.55369e-07
-3.36368e-07 4.55369e-07 0.000144122
0.000540472 -0.000308628 -3.96231e-06
-0.000308628 6.14051e-06 -1.59581e-06
-3.96231e-06 -1.59581e-06 -0.000258528
0.000627437 -4.53491e-05 3.613e-07
-4.53491e-05 9.78289e-05 7.73275e-06
3.613e-07 7.73275e-06 -2.49389e-05
0.000779121 -0.000113685 -3.92571e-07
-0.000113685 0.000227181 -9.85333e-08
-3.92571e-07 -9.85333e-08 3.21034e-05
1.86275e-05 -0.000108062 9.10787e-08
-0.000108062 -0.000169513 4.51017e-06
9.10787e-08 4.51017e-06 -0.000413124
0.00109762 -0.000139902 -3.08859e-07
-0.000139902 0.000432857 -6.00076e-07
-3.08859e-07 -6.00076e-07 0.000261224
0.000612604 -5.02848e-05 -2.43948e-07
-5.02848e-05 9.14611e-05 -3.60306e-07
-2.43948e-07 -3.60306e-07 -1.68852e-05
0.00035314 2.48806e-05 2.11093e-06
2.48806e-05 -8.37084e-05 9.45089e-06
2.11093e-06 9.45089e-06 -0.000126754
0.000665098 -5.67307e-05 -2.80159e-07
-5.67307e-05 0.000121831 -4.76907e-06
-2.80159e-07 -4.76907e-06 2.843e-05
0.000476857 1.52349e-05 -2.84449e-06
1.52349e-05 -1.7739e-05 -2.55295e-07
-2.84449e-06 -2.55295e-07 -5.1992e-05
0.00276467 9.75313e-05 -3.78046e-05
9.75313e-05 0.00142607 4.71571e-06
-3.78046e-05 4.71571e-06 0.0014303
0.000496024 -6.5015e-06 2.35447e-06
-6.5015e-06 -1.3254e-05 -6.3695e-06
2.35447e-06 -6.3695e-06 -4.26094e-05
0.00176034 6.31409e-05 1.99395e-05
6.31409e-05 0.000784634 -7.18487e-07
1.99395e-05 -7.18487e-07 0.000787098
0.00268677 6.08329e-05 2.89441e-05
6.08329e-05 0.00136743 -5.29581e-06
2.89441e-05 -5.29581e-06 0.00137701
0.000780948 0.000101319 4.43032e-06
0.000101319 0.000224716 1.06405e-06
4.43032e-06 1.06405e-06 8.66103e-05
0.000514541 4.81967e-05 1.90049e-06
4.81967e-05 2.46118e-05 -2.05205e-06
1.90049e-06 -2.05205e-06 -5.59171e-05
0.000459291 5.1446e-05 -9.16205e-07
5.1446e-05 2.47246e-05 -1.2983e-06
-9.16205e-07 -1.2983e-06 -0.000108249
0.000485515 4.95053e-06 9.17711e-07
4.95053e-06 -2.57683e-05 -5.18691e-06
9.17711e-07 -5.18691e-06 -4.47288e-05
0.000326362 3.89616e-05 -2.28657e-06
3.89616e-05 -9.29286e-05 -1.84386e-06
-2.28657e-06 -1.84386e-06 -0.000166896
0.000660446 7.90238e-05 -9.78903e-07
7.90238e-05 0.000153788 -2.91132e-06
-9.78903e-07 -2.91132e-06 2.7187e-05
0.00216946 -3.36573e-05 -2.05039e-05
-3.36573e-05 0.00103701 -4.79202e-06
-2.05039e-05 -4.79202e-06 0.0010533
0.000463326 -2.51774e-06 6.51131e-08
-2.51774e-06 -4.0613e-05 -1.34856e-07
6.51131e-08 -1.34856e-07 -5.43713e-05
0.000129859 1.45132e-05 -1.48648e-06
1.45132e-05 -0.000217373 2.69045e-07
-1.48648e-06 2.69045e-07 -0.000283909
0.00211565 -1.7686e-05 -5.44726e-06
-1.7686e-05 0.0010033 1.26528e-07
-5.44726e-06 1.26528e-07 0.00102078
0.000460398 -1.12705e-06 -2.46305e-06
-1.12705e-06 -4.18103e-05 3.59214e-06
-2.46305e-06 3.59214e-06 -5.25972e-05
0.00207463 -2.16822e-06 1.19409e-05
-2.16822e-06 0.000978381 4.87395e-06
1.19409e-05 4.87395e-06 0.000996139
0.00146437 -0.000249328 -6.12659e-05
-0.000249328 0.000161736 3.45436e-05
-6.12659e-05 3.45436e-05 -0.000272802
-0.000699484 -0.000207513 6.55293e-05
-0.000207513 0.00186216 -3.65315e-06
6.55293e-05 -3.65315e-06 0.00101804
-0.000862968 -0.000378327 0.000156465
-0.000378327 0.00065191 -0.000147896
0.000156465 -0.000147896 -0.00365272
0.000123137 4.99593e-05 3.10321e-06
4.99593e-05 -0.000197913 5.42282e-06
3.10321e-06 5.42282e-06 -0.000342638
0.00232335 0.000105184 1.88937e-06
0.000105184 0.00116988 3.3204e-06
1.88937e-06 3.3204e-06 0.00099474
0.000750616 0.00015022 -3.10174e-06
0.00015022 0.000202202 -5.24677e-06
-3.10174e-06 -5.24677e-06 5.84711e-05
0.000368114 7.71502e-05 8.82204e-07
7.71502e-05 -6.67075e-05 1.00523e-06
8.82204e-07 1.00523e-06 -0.000191948
0.000413934 9.37724e-05 4.47947e-07
9.37724e-05 -2.78245e-05 -8.1974e-07
4.47947e-07 -8.1974e-07 -0.000152008
0.000437423 8.85906e-05 6.82143e-06
8.85906e-05 -9.84225e-06 2.14629e-06
6.82143e-06 2.14629e-06 -0.000130495
0.0003161 0.000138972 1.25445e-05
0.000138972 -4.4741e-05 7.28262e-06
1.25445e-05 7.28262e-06 -0.000174073
0.00176 0.000966019 0.000212606
0.000966019 -0.000457742 0.000245944
0.000212606 0.000245944 -0.0017953
0.00493573 -0.00023453 -5.08722e-05
-0.00023453 -0.000207933 5.56885e-05
-5.08722e-05 5.56885e-05 -0.00109939
0.00405432 -0.000714324 0.000209084
-0.000714324 0.00277859 -0.000110059
0.000209084 -0.000110059 0.00147939
0.00794739 -0.000140379 7.38191e-07
-0.000140379 -0.00578478 0.00017932
7.38191e-07 0.00017932 -0.00216118
0.00462115 -0.00286758 -0.000123634
-0.00286758 0.000538212 4.17616e-05
-0.000123634 4.17616e-05 0.000729814
0.00132961 -0.00397548 -0.000270648
-0.00397548 0.00154437 8.44696e-05
-0.000270648 8.44696e-05 -0.00413844
0.015521 0.00423095 0.000129539
0.00423095 0.00722156 -0.000155117
0.000129539 -0.000155117 0.00270758
0.00242747 -0.00236491 -5.81501e-05
-0.00236491 0.000174905 2.29736e-05
-5.81501e-05 2.29736e-05 0.000423909
-0.00129923 -0.000843592 -5.52105e-05
-0.000843592 0.00386839 5.2836e-05
-5.52105e-05 5.2836e-05 -0.00312766
0.00838227 0.000564901 0.000201697
0.000564901 0.0033724 -2.76397e-05
0.000201697 -2.76397e-05 -0.000116416
0.0153564 -0.0020463 -7.50113e-05
-0.0020463 0.00199808 -1.75238e-05
-7.50113e-05 -1.75238e-05 0.00324781
-0.000856941 -0.00059633 -0.000188152
-0.00059633 0.000536159 0.000145935
-0.000188152 0.000145935 0.000458051
0.00332502 0.00207185 -0.000191322
0.00207185 0.00531475 -9.66652e-05
-0.000191322 -9.66652e-05 -0.00183166
-0.00168899 -0.00510283 3.04343e-06
-0.00510283 -0.000371365 -0.000246592
3.04343e-06 -0.000246592 -0.00534442
0.0136524 -0.0028925 0.000128926
-0.0028925 0.00372382 -0.000628566
0.000128926 -0.000628566 0.00217236
0.00068758 1.98035e-05 1.39329e-05
1.98035e-05 0.000362017 1.51174e-06
1.39329e-05 1.51174e-06 0.000131078
0.00080798 0.00018145 -1.14431e-06
0.00018145 0.00030177 -3.75199e-06
-1.14431e-06 -3.75199e-06 0.000138781
0.000957531 -1.92776e-05 3.87653e-09
-1.92776e-05 0.000436749 -3.56528e-06
3.87653e-09 -3.56528e-06 0.000183808
0.00104501 0.000159529 -4.51446e-06
0.000159529 0.000405497 -1.00946e-05
-4.51446e-06 -1.00946e-05 0.000231611
0.00057929 -0.00103686 3.53106e-05
-0.00103686 -4.64532e-05 3.14856e-05
3.53106e-05 3.14856e-05 -0.000440943
0.002615 -0.000339079 2.76913e-06
-0.000339079 0.00159875 -2.83709e-05
2.76913e-06 -2.83709e-05 0.00116314
0.000877509 0.000101817 -1.11074e-05
0.000101817 0.000444461 -1.42386e-05
-1.11074e-05 -1.42386e-05 0.000245092
0.000308318 4.82913e-05 -5.88385e-07
4.82913e-05 0.000186012 -8.67325e-06
-5.88385e-07 -8.67325e-06 -5.23125e-05
0.000434708 -1.89804e-05 -3.06068e-06
-1.89804e-05 0.000613942 1.495e-05
-3.06068e-06 1.495e-05 0.000160186
0.00036374 6.26533e-05 2.27636e-06
6.26533e-05 0.000165104 4.73447e-06
2.27636e-06 4.73447e-06 -2.13263e-05
0.000109231 5.77274e-05 3.6839e-06
5.77274e-05 0.000506066 1.86762e-06
3.6839e-06 1.86762e-06 3.06372e-05
0.000939804 -0.000433484 -6.22125e-07
-0.000433484 0.00126742 4.76567e-06
-6.22125e-07 4.76567e-06 0.000114628
0.00020567 -0.000121407 9.44617e-06
-0.000121407 0.000730334 3.08852e-07
9.44617e-06 3.08852e-07 0.000312337
-0.00089128 8.28237e-05 1.94426e-06
8.28237e-05 -0.000393056 -1.33978e-05
1.94426e-06 -1.33978e-05 -0.000627116
0.00195331 2.74644e-06 -9.97936e-05
2.74644e-06 0.00353131 -2.92687e-05
-9.97936e-05 -2.92687e-05 0.00173854
0.000729153 0.000306388 -3.27462e-05
0.000306388 0.00102308 1.33749e-05
-3.27462e-05 1.33749e-05 0.000484043
-0.00184353 6.00086e-05 -7.83588e-05
6.00086e-05 0.00159597 -1.52084e-05
-7.83588e-05 -1.52084e-05 0.00054517
0.000933006 5.67614e-05 1.48642e-05
5.67614e-05 -7.68665e-05 5.67271e-06
1.48642e-05 5.67271e-06 -0.000552347
-0.00267081 0.000261772 -1.63453e-05
0.000261772 0.000872438 -6.03064e-05
-1.63453e-05 -6.03064e-05 -6.21976e-05
0.000261229 0.000267408 -2.35626e-05
0.000267408 0.000616866 7.00244e-06
-2.35626e-05 7.00244e-06 0.00024662
-0.00141951 0.000802619 0.000139016
0.000802619 -9.39009e-05 0.000107023
0.000139016 0.000107023 -0.000844765
0.00069709 2.70401e-05 6.19479e-05
2.70401e-05 0.000119181 -6.97637e-06
6.19479e-05 -6.97637e-06 -5.86909e-05
0.00550763 -0.00209128 0.000233557
-0.00209128 0.00567022 -0.000176567
0.000233557 -0.000176567 -0.00252433
0.017983 0.00366878 -0.000173323
0.00366878 0.00790616 0.000152646
-0.000173323 0.000152646 0.0034654
0.00331853 -0.00063028 -0.000189718
-0.00063028 0.00221326 0.000113548
-0.000189718 0.000113548 0.00105302
0.0130022 0.00456663 -7.76509e-05
0.00456663 0.00511077 -0.000215979
-7.76509e-05 -0.000215979 0.00226181
0.000457479 0.000208748 -5.69291e-05
0.000208748 0.00117731 1.46158e-05
-5.69291e-05 1.46158e-05 0.000192601
3.50972e-05 -0.000200761 -7.52641e-05
-0.000200761 0.00186037 1.13178e-06
-7.52641e-05 1.13178e-06 0.00127746
0.00325929 -0.00139676 0.000270896
-0.00139676 0.00154465 -3.61368e-05
0.000270896 -3.61368e-05 -0.00318147
-0.00260196 -0.000123617 4.61081e-05
-0.000123617 -0.000507478 3.07666e-05
4.61081e-05 3.07666e-05 -0.000942537
0.0128043 0.00810968 0.000586011
0.00810968 0.00924443 -0.000261767
0.000586011 -0.000261767 0.00606359
0.00777057 0.0029897 -0.000160392
0.0029897 0.0031038 0.000359106
-0.000160392 0.000359106 -0.00116383
-0.00287443 -0.00122487 0.000167123
-0.00122487 0.00274212 -0.00013698
0.000167123 -0.00013698 -0.00472058
-0.000765474 -0.000387422 2.07129e-05
-0.000387422 0.000517787 -2.8119e-05
2.07129e-05 -2.8119e-05 -0.000473638
0.000279632 -0.000741126 0.000280545
-0.000741126 -0.000190482 -6.88299e-05
0.000280545 -6.88299e-05 -0.00335422
-0.000858052 0.000522422 -0.00113779
0.000522422 0.00670676 0.000307156
-0.00113779 0.000307156 0.00282606
0.0174205 0.00675652 -0.000560508
0.00675652 0.00543752 0.000537755
-0.000560508 0.000537755 0.00160755
0.00813159 -0.00335048 -0.000156414
-0.00335048 0.00341573 5.39675e-05
-0.000156414 5.39675e-05 -0.000210472
0.002739 -0.00144844 1.96419e-05
-0.00144844 0.00252665 5.32259e-06
1.96419e-05 5.32259e-06 0.00170159
0.000388635 -5.92477e-05 4.88457e-06
-5.92477e-05 0.000589065 -2.09674e-06
4.88457e-06 -2.09674e-06 0.000170637
5.45898e-05 -0.000363726 1.12885e-06
-0.000363726 0.000355599 -1.0959e-06
1.12885e-06 -1.0959e-06 -0.000171492
0.000149529 -0.000641607 2.1681e-06
-0.000641607 0.000107827 -1.50977e-06
2.1681e-06 -1.50977e-06 -0.000176963
-0.000452264 -0.00021672 1.11231e-06
-0.00021672 8.98366e-05 7.56014e-06
1.11231e-06 7.56014e-06 -0.000267833
-0.000587302 -0.000380379 1.84147e-06
-0.000380379 -0.000346612 -3.86394e-07
1.84147e-06 -3.86394e-07 -0.000624581
0.00293121 -0.000861513 3.79474e-05
-0.000861513 0.0012117 -1.22152e-05
3.79474e-05 -1.22152e-05 0.000834348
0.00643982 -0.0011942 -1.28362e-05
-0.0011942 0.00336764 -9.12539e-07
-1.28362e-05 -9.12539e-07 0.0028937
0.0027736 -0.000782272 9.83939e-06
-0.000782272 0.00125078 -2.43237e-06
9.83939e-06 -2.43237e-06 0.000633387
0.00161556 -0.000790656 6.2852e-06
-0.000790656 0.000372947 -1.5734e-05
6.2852e-06 -1.5734e-05 -0.000246213
0.00220423 -0.000646226 -1.00274e-05
-0.000646226 0.000809567 -6.67856e-06
-1.00274e-05 -6.67856e-06 0.000354516
0.00227678 -0.000807544 2.09564e-06
-0.000807544 0.000756711 -1.47255e-06
2.09564e-06 -1.47255e-06 0.000183271
0.00253988 -0.000906974 -1.59347e-06
-0.000906974 0.000807482 -1.07671e-05
-1.59347e-06 -1.07671e-05 0.000240505
0.00214616 -0.000740598 -6.27244e-06
-0.000740598 0.000384937 -4.68925e-06
-6.27244e-06 -4.68925e-06 -7.71003e-06
0.00245268 -0.000886962 -8.01037e-06
-0.000886962 0.00069661 1.46849e-06
-8.01037e-06 1.46849e-06 0.000218895
0.00228622 -0.000872991 -2.83531e-06
-0.000872991 0.000623048 -7.62264e-08
-2.83531e-06 -7.62264e-08 0.000115914
0.00172188 -0.000663668 8.54198e-06
-0.000663668 0.000490319 -3.46917e-06
8.54198e-06 -3.46917e-06 7.67097e-05
0.0015261 -0.000655295 2.70147e-06
-0.000655295 0.00034907 -7.81038e-07
2.70147e-06 -7.81038e-07 -7.64805e-05
0.00151724 -0.000630588 4.04382e-06
-0.000630588 0.00034277 -7.67318e-08
4.04382e-06 -7.67318e-08 -0.000102499
0.00169793 -0.000457779 8.26449e-06
-0.000457779 0.000595564 4.1311e-06
8.26449e-06 4.1311e-06 0.000276015
0.00141962 -0.000487163 -1.27362e-06
-0.000487163 0.000391356 -2.05912e-06
-1.27362e-06 -2.05912e-06 3.99351e-05
0.00153537 -0.000552769 6.0108e-06
-0.000552769 0.000389005 2.08988e-06
6.0108e-06 2.08988e-06 8.61972e-06
0.00117495 -0.000216789 2.04957e-06
-0.000216789 0.000449331 -5.01885e-06
2.04957e-06 -5.01885e-06 0.000175913
0.00070602 -0.000246957 -3.05341e-06
-0.000246957 8.16729e-05 2.19243e-06
-3.05341e-06 2.19243e-06 -0.000162141
0.000897154 -0.0003753 -5.35981e-07
-0.0003753 0.000100778 -1.06303e-05
-5.35981e-07 -1.06303e-05 -0.000191843
1.37809e-05 -6.47632e-05 -1.32494e-06
-6.47632e-05 -0.00028152 5.10763e-06
-1.32494e-06 5.10763e-06 -0.000436168
0.000756527 -0.000118088 6.39434e-08
-0.000118088 0.000238418 9.12106e-07
6.39434e-08 9.12106e-07 -1.22907e-05
0.00101793 -0.000281528 2.99256e-06
-0.000281528 0.000415103 2.01058e-06
2.99256e-06 2.01058e-06 0.000136799
0.00035043 -7.82108e-06 -5.32091e-06
-7.82108e-06 -9.52957e-05 1.43217e-05
-5.32091e-06 1.43217e-05 -0.000142548
0.000654309 -6.6241e-05 7.81927e-07
-6.6241e-05 0.000107371 1.3026e-07
7.81927e-07 1.3026e-07 -1.54557e-05
0.00135284 -0.000190077 -1.75551e-06
-0.000190077 0.000581931 1.9146e-06
-1.75551e-06 1.9146e-06 0.000380666
0.00064541 -5.70945e-05 -6.54154e-07
-5.70945e-05 0.000109471 -5.7974e-06
-6.54154e-07 -5.7974e-06 3.07552e-08
0.000442651 1.32569e-05 -4.73625e-07
1.32569e-05 -3.3165e-05 -4.50883e-07
-4.73625e-07 -4.50883e-07 -7.4372e-05
0.00290567 0.000123024 -3.83883e-05
0.000123024 0.00152452 4.65061e-06
-3.83883e-05 4.65061e-06 0.00152272
0.00051928 5.00562e-06 1.48314e-06
5.00562e-06 4.7616e-06 -7.69926e-06
1.48314e-06 -7.69926e-06 -2.79247e-05
0.00275466 0.000100269 4.7265e-06
0.000100269 0.00142009 5.48862e-07
4.7265e-06 5.48862e-07 0.00142384
0.00265705 7.95652e-05 3.19941e-05
7.95652e-05 0.00135187 -4.8375e-06
3.19941e-05 -4.8375e-06 0.0013595
0.000971217 9.11342e-05 3.62732e-06
9.11342e-05 0.00042096 -4.66413e-06
3.62732e-06 -4.66413e-06 0.000211573
0.000997889 0.000142803 6.71916e-06
0.000142803 0.000393675 4.50751e-07
6.71916e-06 4.50751e-07 0.000219899
0.000569081 4.05228e-05 3.25909e-06
4.05228e-05 5.56498e-05 -3.41477e-06
3.25909e-06 -3.41477e-06 -3.41376e-05
0.000599772 0.000105233 2.31936e-07
0.000105233 0.000107513 -2.5585e-07
2.31936e-07 -2.5585e-07 -2.68596e-05
0.000467366 1.23462e-06 6.54872e-07
1.23462e-06 -3.45232e-05 -6.37618e-06
6.54872e-07 -6.37618e-06 -5.88392e-05
0.00052967 5.0772e-05 2.26125e-07
5.0772e-05 3.4468e-05 -1.52945e-07
2.26125e-07 -1.52945e-07 -4.61329e-05
0.000570756 5.54205e-05 -4.30421e-06
5.54205e-05 8.03624e-05 -2.23393e-06
-4.30421e-06 -2.23393e-06 -4.34649e-05
0.00231067 -4.97288e-05 -2.65766e-05
-4.97288e-05 0.00112761 -4.96747e-06
-2.65766e-05 -4.96747e-06 0.0011416
0.000471614 -1.24375e-07 -7.68059e-07
-1.24375e-07 -3.40744e-05 -1.60488e-07
-7.68059e-07 -1.60488e-07 -5.25335e-05
0.000472918 5.62858e-05 -3.40174e-06
5.62858e-05 5.95428e-07 7.59019e-08
-3.40174e-06 7.59019e-08 -7.2955e-05
0.00217353 -3.30194e-05 -4.76283e-06
-3.30194e-05 0.00103954 2.32622e-07
-4.76283e-06 2.32622e-07 0.00105592
0.000469801 -1.82805e-06 -2.51794e-06
-1.82805e-06 -3.71123e-05 3.94181e-06
-2.51794e-06 3.94181e-06 -5.05077e-05
0.00210528 -1.70757e-05 1.593e-05
-1.70757e-05 0.000996614 4.72794e-06
1.593e-05 4.72794e-06 0.00101413
-0.00234163 0.000202228 -1.45144e-05
0.000202228 0.000291964 -4.1168e-05
-1.45144e-05 -4.1168e-05 -0.00011607
0.0014953 -0.00020232 -1.54594e-05
-0.00020232 0.000351646 6.5091e-06
-1.54594e-05 6.5091e-06 9.54179e-05
-2.60619e-05 -0.0002097 8.51067e-06
-0.0002097 0.00172114 -3.81622e-05
8.51067e-06 -3.81622e-05 0.00104257
0.000810302 0.000102161 1.03361e-08
0.000102161 0.000277141 4.98281e-07
1.03361e-08 4.98281e-07 9.70997e-05
0.000211643 8.61382e-05 5.68289e-06
8.61382e-05 -0.000139266 -1.74076e-06
5.68289e-06 -1.74076e-06 -0.000301719
-0.00163065 -1.26279e-05 -2.99709e-06
-1.26279e-05 -0.00128269 -8.90609e-06
-2.99709e-06 -8.90609e-06 -0.00143165
-0.000711742 2.13762e-05 8.80323e-08
2.13762e-05 -0.000685026 1.503e-05
8.80323e-08 1.503e-05 -0.000834883
0.0028629 0.000399118 -2.03131e-06
0.000399118 0.00153395 -7.57338e-07
-2.03131e-06 -7.57338e-07 0.00127148
0.000931157 4.52567e-05 -5.7937e-06
4.52567e-05 0.000275168 -4.84692e-06
-5.7937e-06 -4.84692e-06 0.000150585
0.000461703 0.000104053 -8.46089e-06
0.000104053 2.43647e-07 -1.01185e-05
-8.46089e-06 -1.01185e-05 -0.000118274
0.000805076 6.43958e-05 4.68227e-07
6.43958e-05 0.000220164 -4.60687e-07
4.68227e-07 -4.60687e-07 9.82578e-05
0.00100265 0.000166775 -8.48337e-07
0.000166775 0.000366088 -2.45841e-06
-8.48337e-07 -2.45841e-06 0.000238199
0.000935654 0.000127239 7.96394e-06
0.000127239 0.000472076 -1.55796e-05
7.96394e-06 -1.55796e-05 0.000250442
0.00553132 0.00097176 0.000400217
0.00097176 0.00397767 0.000489194
0.000400217 0.000489194 -0.00073228
0.00230324 0.000779179 2.10702e-05
0.000779179 7.96415e-05 8.91294e-05
2.10702e-05 8.91294e-05 -0.00149525
0.00431973 -0.000172941 4.22678e-05
-0.000172941 -0.000216847 -1.96716e-05
4.22678e-05 -1.96716e-05 -0.00066696
0.0140435 -0.00171936 -0.000273075
-0.00171936 0.0021419 -0.000129185
-0.000273075 -0.000129185 0.0037992
-0.00330424 0.00143378 7.45862e-05
0.00143378 -0.00226402 0.000422995
7.45862e-05 0.000422995 -0.00686111
0.00169938 -0.0022901 -5.8849e-05
-0.0022901 0.000381715 -3.48613e-05
-5.8849e-05 -3.48613e-05 0.000421158
0.00830534 -0.00211513 -0.000134363
-0.00211513 0.00517711 3.78733e-05
-0.000134363 3.78733e-05 -2.26683e-05
0.000897307 -0.00097092 -9.48732e-05
-0.00097092 0.000846368 0.000112043
-9.48732e-05 0.000112043 0.000502684
0.0096001 -8.80658e-05 -0.00015992
-8.80658e-05 0.00646115 2.40487e-06
-0.00015992 2.40487e-06 -3.17818e-05
0.00543298 -0.0026326 9.81127e-05
-0.0026326 0.00362412 0.000188194
9.81127e-05 0.000188194 -0.00124966
0.0165316 -0.00417863 -0.000138687
-0.00417863 0.00300411 -0.000727441
-0.000138687 -0.000727441 0.000961321
0.00273479 1.95095e-05 -0.000139443
1.95095e-05 0.00294687 0.000112591
-0.000139443 0.000112591 0.00182872
0.0130872 0.00261199 -0.000198987
0.00261199 0.00735796 6.0995e-06
-0.000198987 6.0995e-06 0.00219344
0.0197194 -0.00652929 -0.000147942
-0.00652929 0.00981508 -0.000718344
-0.000147942 -0.000718344 0.00522382
0.0225998 -0.00841433 8.5508e-05
-0.00841433 0.00898837 -7.16475e-05
8.5508e-05 -7.16475e-05 0.0062141
0.000935303 0.000306103 1.40508e-05
0.000306103 0.000545923 -1.79966e-06
1.40508e-05 -1.79966e-06 0.000239778
-2.07454e-05 4.89007e-05 3.38967e-06
4.89007e-05 1.21659e-06 2.87821e-06
3.38967e-06 2.87821e-06 -0.000275283
0.000938445 0.000184049 -1.25797e-05
0.000184049 0.000400593 -1.47204e-05
-1.25797e-05 -1.47204e-05 0.000222417
0.00279216 -0.000618356 4.01334e-05
-0.000618356 0.00181984 2.34301e-05
4.01334e-05 2.34301e-05 0.000470755
-5.24146e-05 -0.000104673 1.89363e-05
-0.000104673 0.000751229 -3.75737e-05
1.89363e-05 -3.75737e-05 0.000274572
-3.04752e-07 6.01786e-05 -5.08238e-06
6.01786e-05 -5.89531e-05 1.83814e-06
-5.08238e-06 1.83814e-06 -0.000241015
-0.000617148 -3.44829e-05 1.7066e-05
-3.44829e-05 0.000107798 -7.88174e-06
1.7066e-05 -7.88174e-06 -0.000397102
-2.93993e-05 0.000114231 -7.32262e-07
0.000114231 9.8589e-05 -5.23195e-07
-7.32262e-07 -5.23195e-07 -0.000149051
0.00032975 0.000324557 1.45835e-05
0.000324557 0.000646583 1.53375e-06
1.45835e-05 1.53375e-06 9.69238e-05
-0.00214747 -6.42486e-05 0.000259859
-6.42486e-05 0.000900576 -2.30532e-05
0.000259859 -2.30532e-05 -0.000973453
-0.000962255 0.000375705 -4.21925e-06
0.000375705 -0.000502177 1.22564e-05
-4.21925e-06 1.22564e-05 -0.000880615
0.00283728 0.000929811 -0.000145335
0.000929811 0.00221556 -8.07115e-05
-0.000145335 -8.07115e-05 0.000802997
0.00125806 0.000192986 0.000183351
0.000192986 0.00171401 6.20922e-05
0.000183351 6.20922e-05 -0.00238162
-0.00216942 0.000188003 -6.04733e-05
0.000188003 0.00132581 1.5133e-05
-6.04733e-05 1.5133e-05 0.000194289
0.00235965 -0.000241728 -2.77779e-05
-0.000241728 0.000657692 -2.98779e-06
-2.77779e-05 -2.98779e-06 0.00078948
-0.000628639 0.000514649 0.000123499
0.000514649 0.000432327 1.28976e-05
0.000123499 1.28976e-05 -0.000624236
0.00127945 0.000307499 -0.000101737
0.000307499 0.00232009 9.82378e-05
-0.000101737 9.82378e-05 0.000938447
-0.000257795 -0.000255651 -9.15441e-06
-0.000255651 0.00161854 -8.11242e-06
-9.15441e-06 -8.11242e-06 0.00085816
0.0164945 -0.00404957 0.000228311
-0.00404957 0.00832106 -0.000107822
0.000228311 -0.000107822 0.00219349
0.0232579 0.0046848 -0.000154089
0.0046848 0.0104755 -0.000155727
-0.000154089 -0.000155727 0.00563831
0.00499033 -0.00159108 -0.000264673
-0.00159108 0.00252458 0.000252148
-0.000264673 0.000252148 -0.00199439
0.00531749 0.0093067 0.00247625
0.0093067 0.00498061 -0.00155107
0.00247625 -0.00155107 0.00168748
0.00117842 -0.000507191 3.9145e-05
-0.000507191 0.00149905 -1.19219e-05
3.9145e-05 -1.19219e-05 0.000428735
-0.000308483 -0.00053434 4.47877e-05
-0.00053434 0.000396959 1.33607e-05
4.47877e-05 1.33607e-05 -0.00336249
-7.63904e-06 0.000948538 -0.0011549
0.000948538 0.00640346 0.000335463
-0.0011549 0.000335463 0.00216858
0.00067005 -0.000828561 1.17659e-05
-0.000828561 0.0012739 3.16846e-05
1.17659e-05 3.16846e-05 0.000549466
0.0194941 0.00613272 0.00035362
0.00613272 0.00618951 9.63418e-05
0.00035362 9.63418e-05 0.00228593
0.00746021 -0.00486103 0.000196792
-0.00486103 0.00246226 -7.65669e-05
0.000196792 -7.65669e-05 -0.00149393
0.000980183 -0.00121867 -6.23601e-06
-0.00121867 0.000712936 2.93015e-05
-6.23601e-06 2.93015e-05 -0.000100482
-0.00626436 -0.00175158 0.000144408
-0.00175158 0.00556444 -7.89882e-05
0.000144408 -7.89882e-05 0.00153682
0.015714 0.00594191 -0.00154473
0.00594191 0.00616837 0.000518755
-0.00154473 0.000518755 0.00311053
0.00635583 -0.00360919 -0.000443514
-0.00360919 -0.000426857 0.000188977
-0.000443514 0.000188977 -0.00371852
0.00106722 -0.00195763 0.000189125
-0.00195763 2.61409e-05 -0.000122279
0.000189125 -0.000122279 0.000929566
0.00110265 -0.000517501 -0.000100214
-0.000517501 0.000822067 3.28985e-05
-0.000100214 3.28985e-05 0.000349871
0.000660149 -0.000580131 -4.96545e-06
-0.000580131 0.000433645 1.1414e-05
-4.96545e-06 1.1414e-05 8.73353e-05
0.00313009 -0.000901119 1.84951e-05
-0.000901119 0.0014245 -1.29196e-05
1.84951e-05 -1.29196e-05 0.00103948
-0.0015458 -0.000188817 8.05634e-06
-0.000188817 -0.000713269 9.86199e-06
8.05634e-06 9.86199e-06 -0.000989239
0.0013411 -0.000656517 4.45218e-06
-0.000656517 0.000391425 -3.16203e-06
4.45218e-06 -3.16203e-06 2.81389e-05
0.00317922 -0.000994528 9.48484e-06
-0.000994528 0.00102529 -1.6546e-06
9.48484e-06 -1.6546e-06 0.000622684
0.00421349 -0.000965418 -2.82486e-05
-0.000965418 0.00197855 2.48562e-06
-2.82486e-05 2.48562e-06 0.00136889
0.00137834 -0.000733082 -8.26592e-07
-0.000733082 0.000234054 -1.29196e-06
-8.26592e-07 -1.29196e-06 -0.000361
0.00186947 -0.000912403 1.2364e-06
-0.000912403 0.00025633 -1.19213e-05
1.2364e-06 -1.19213e-05 -0.000217257
0.00281894 -0.000883969 1.71381e-06
-0.000883969 0.00103626 5.22237e-06
1.71381e-06 5.22237e-06 0.000447333
0.00221995 -0.000872484 1.43867e-06
-0.000872484 0.000605078 -4.42935e-06
1.43867e-06 -4.42935e-06 5.82366e-05
0.00260615 -0.000800843 -9.77148e-07
-0.000800843 0.000595596 -1.00134e-05
-9.77148e-07 -1.00134e-05 0.000205565
0.00174069 -0.000515085 -5.49877e-06
-0.000515085 -4.34789e-06 -2.73012e-06
-5.49877e-06 -2.73012e-06 -0.000252878
0.00190286 -0.000740729 -1.84464e-06
-0.000740729 0.000191764 -1.52535e-06
-1.84464e-06 -1.52535e-06 -0.000199516
0.00214364 -0.000742438 2.99789e-06
-0.000742438 0.000374246 -2.84708e-06
2.99789e-06 -2.84708e-06 -1.66817e-05
0.00228926 -0.000779908 -3.63388e-06
-0.000779908 0.000664328 -7.71225e-07
-3.63388e-06 -7.71225e-07 0.000235933
0.00240631 -0.000881101 -3.06979e-06
-0.000881101 0.000679959 3.36979e-08
-3.06979e-06 3.36979e-08 0.000197897
0.00252312 -0.000903699 7.85072e-06
-0.000903699 0.000748631 -4.11558e-06
7.85072e-06 -4.11558e-06 0.000231431
0.0019018 -0.000582929 7.10333e-06
-0.000582929 0.000654732 2.68559e-07
7.10333e-06 2.68559e-07 0.000277327
0.00142237 -0.000619949 2.34314e-06
-0.000619949 0.000324399 -3.80277e-07
2.34314e-06 -3.80277e-07 -7.57408e-05
0.00129656 -0.000619951 2.60981e-06
-0.000619951 0.000217681 1.84062e-06
2.60981e-06 1.84062e-06 -0.000192712
0.00137105 -0.000348694 7.35785e-09
-0.000348694 0.000455882 -3.27748e-07
7.35785e-09 -3.27748e-07 0.000186389
0.00120624 -0.00039257 1.02791e-06
-0.00039257 0.000306094 -3.294e-07
1.02791e-06 -3.294e-07 2.00524e-06
0.00143965 -0.000485671 -5.92149e-06
-0.000485671 0.000408774 2.14684e-07
-5.92149e-06 2.14684e-07 5.50344e-05
-0.000323524 -9.89572e-05 -2.21462e-06
-9.89572e-05 -0.000486212 1.71862e-06
-2.21462e-06 1.71862e-06 -0.000703376
0.000702053 -0.000228186 -1.36276e-07
-0.000228186 0.00016754 -5.16955e-07
-1.36276e-07 -5.16955e-07 -0.000111198
0.00109361 -0.000288348 -4.65027e-06
-0.000288348 0.000345869 1.3817e-06
-4.65027e-06 1.3817e-06 9.40154e-05
0.00183673 2.2619e-05 -4.68788e-05
2.2619e-05 0.000849898 9.00941e-06
-4.68788e-05 9.00941e-06 0.000799893
0.000712329 -0.00011268 4.74273e-08
-0.00011268 0.000144507 -4.8223e-07
4.74273e-08 -4.8223e-07 -1.64412e-05
0.00132215 -0.000177041 -7.91301e-07
-0.000177041 0.000589839 3.96813e-06
-7.91301e-07 3.96813e-06 0.000332107
0.000731797 3.50097e-05 -5.13943e-05
3.50097e-05 0.000151026 6.22419e-06
-5.13943e-05 6.22419e-06 0.000140225
0.00115712 1.42056e-05 -1.70991e-05
1.42056e-05 0.000416086 -6.09763e-07
-1.70991e-05 -6.09763e-07 0.000370007
0.000825072 -8.15956e-05 2.65743e-06
-8.15956e-05 0.00020832 -6.90396e-06
2.65743e-06 -6.90396e-06 8.43758e-05
0.000594044 6.20009e-06 2.29667e-06
6.20009e-06 5.77106e-05 -9.801e-06
2.29667e-06 -9.801e-06 1.70684e-05
0.00298425 0.000123552 8.25169e-06
0.000123552 0.00157413 7.41153e-07
8.25169e-06 7.41153e-07 0.00157231
0.00275782 0.000100465 3.6268e-05
0.000100465 0.00142226 -4.69089e-06
3.6268e-05 -4.69089e-06 0.00142613
0.000936189 0.000149471 1.18213e-05
0.000149471 0.000375089 -2.00867e-06
1.18213e-05 -2.00867e-06 0.000144984
0.0013697 0.000175136 4.77724e-06
0.000175136 0.000644876 -1.49156e-06
4.77724e-06 -1.49156e-06 0.000434814
-8.79391e-05 4.90718e-05 6.02913e-07
4.90718e-05 -0.000269663 5.03656e-07
6.02913e-07 5.03656e-07 -0.000453263
0.000677923 4.47044e-05 3.27911e-06
4.47044e-05 0.00012742 -4.8741e-06
3.27911e-06 -4.8741e-06 2.34246e-05
0.000790075 0.000113907 6.72265e-07
0.000113907 0.000246671 1.95304e-07
6.72265e-07 1.95304e-07 8.60434e-05
0.000460419 9.7653e-06 -1.60721e-06
9.7653e-06 -3.33582e-05 -7.99251e-06
-1.60721e-06 -7.99251e-06 -6.33973e-05
0.000549143 4.42848e-05 -1.10771e-07
4.42848e-05 4.73341e-05 -4.01544e-07
-1.10771e-07 -4.01544e-07 -4.3712e-05
0.000708989 6.18035e-05 -3.79335e-06
6.18035e-05 0.000200277 -3.10659e-07
-3.79335e-06 -3.10659e-07 4.90004e-05
0.00254943 -6.83059e-05 -3.5066e-05
-6.83059e-05 0.00128232 -4.92287e-06
-3.5066e-05 -4.92287e-06 0.00129299
0.000449438 3.39987e-06 -6.13436e-07
3.39987e-06 -4.49128e-05 -1.37597e-07
-6.13436e-07 -1.37597e-07 -6.91252e-05
0.000547334 5.53902e-05 -1.0312e-06
5.53902e-05 4.68861e-05 2.48199e-06
-1.0312e-06 2.48199e-06 -3.42823e-05
0.00233318 -5.02791e-05 -6.06282e-06
-5.02791e-05 0.00114188 3.65508e-07
-6.06282e-06 3.65508e-07 0.00115576
0.000435121 -1.06505e-05 -4.31001e-06
-1.06505e-05 -5.66597e-05 4.87118e-06
-4.31001e-06 4.87118e-06 -7.48198e-05
0.00220008 -3.18332e-05 2.14819e-05
-3.18332e-05 0.00105626 4.68639e-06
2.14819e-05 4.68639e-06 0.00107272
0.00654715 0.000665457 0.000333872
0.000665457 0.00380201 7.40745e-05
0.000333872 7.40745e-05 0.00150167
-0.0020291 0.000140753 -3.03365e-06
0.000140753 0.00025039 -7.54242e-06
-3.03365e-06 -7.54242e-06 -0.000402801
0.000595679 0.00012155 -1.2499e-05
0.00012155 0.000437246 -9.22571e-06
-1.2499e-05 -9.22571e-06 9.66185e-05
-0.000526945 0.000102726 -8.22953e-06
0.000102726 -0.000663941 1.98204e-06
-8.22953e-06 1.98204e-06 -0.000818483
0.000267824 5.15427e-05 -6.2532e-06
5.15427e-05 -8.60681e-05 -3.55614e-06
-6.2532e-06 -3.55614e-06 -0.000241706
-0.000173837 5.33034e-05 -1.50314e-06
5.33034e-05 -0.000373255 -4.98489e-06
-1.50314e-06 -4.98489e-06 -0.000531435
0.00131475 7.42979e-05 1.76169e-06
7.42979e-05 0.000551404 -2.18557e-08
1.76169e-06 -2.18557e-08 0.000392296
0.000152967 9.81571e-05 -2.68577e-06
9.81571e-05 -0.000205591 -2.91326e-06
-2.68577e-06 -2.91326e-06 -0.000359265
0.00217033 0.000304917 -5.03179e-06
0.000304917 0.00111168 -3.89569e-06
-5.03179e-06 -3.89569e-06 0.000905555
0.00101097 0.000253312 -6.6056e-06
0.000253312 0.000341164 -1.5217e-05
-6.6056e-06 -1.5217e-05 3.10305e-05
-0.0011735 0.000103364 2.99792e-07
0.000103364 -0.000687532 8.44328e-07
2.99792e-07 8.44328e-07 -0.00103216
0.000662031 0.000137108 -6.35344e-06
0.000137108 0.000158374 -3.88727e-06
-6.35344e-06 -3.88727e-06 2.0586e-05
4.23573e-05 5.54869e-05 -1.02037e-05
5.54869e-05 -0.000279136 -8.28485e-06
-1.02037e-05 -8.28485e-06 -0.000368761
-0.000138268 4.09985e-05 -1.5127e-07
4.09985e-05 -0.000196209 1.32873e-06
-1.5127e-07 1.32873e-06 -0.000406745
0.000956961 0.000304077 1.691e-05
0.000304077 0.00062368 -1.35645e-06
1.691e-05 -1.35645e-06 0.000225739
0.00349523 -0.0031658 0.000124379
-0.0031658 0.00596096 0.0002518
0.000124379 0.0002518 0.000378033
0.00633549 0.00135499 0.000140062
0.00135499 0.00323331 0.000172154
0.000140062 0.000172154 -0.00190743
0.00311896 0.000505939 -3.43003e-05
0.000505939 0.000625237 -7.97122e-05
-3.43003e-05 -7.97122e-05 -0.00118271
0.0246667 -0.00533542 -0.000749746
-0.00533542 0.00672981 -0.000379277
-0.000749746 -0.000379277 0.00435703
0.00576606 -0.0017023 0.000279221
-0.0017023 0.00383226 0.000496541
0.000279221 0.000496541 0.000273459
0.00356762 -0.00165116 -0.000253911
-0.00165116 0.005085 0.000101436
-0.000253911 0.000101436 -0.00212153
-0.00125443 -0.000513465 0.000123741
-0.000513465 0.00105676 1.84798e-05
0.000123741 1.84798e-05 0.000114744
-0.000532989 -0.000154794 9.94137e-05
-0.000154794 0.00103168 5.35717e-05
9.94137e-05 5.35717e-05 0.000325068
0.0148163 -0.00878967 0.000463643
-0.00878967 0.00705748 0.000436292
0.000463643 0.000436292 0.00400683
0.00163926 0.00149525 -9.86836e-05
0.00149525 0.00413122 -8.48566e-05
-9.86836e-05 -8.48566e-05 -0.00235728
0.0081863 -0.00378448 -0.00013088
-0.00378448 0.00387138 0.000105747
-0.00013088 0.000105747 -0.00131219
0.000497102 0.000723245 -1.59424e-05
0.000723245 0.00110942 6.5819e-05
-1.59424e-05 6.5819e-05 0.000737089
0.0116827 0.00402431 -0.000114233
0.00402431 0.00392352 5.34047e-06
-0.000114233 5.34047e-06 0.000136726
0.0152454 -0.00669167 -0.00083198
-0.00669167 0.00474494 -0.000505827
-0.00083198 -0.000505827 0.000612136
-0.000108768 0.000478637 2.98108e-06
0.000478637 -0.000459967 -5.25716e-06
2.98108e-06 -5.25716e-06 -0.000606665
0.00052208 0.000178502 7.77353e-06
0.000178502 0.000262278 4.12442e-06
7.77353e-06 4.12442e-06 1.80128e-05
-9.47531e-06 5.80925e-05 -1.01883e-05
5.80925e-05 -1.45633e-05 -4.91479e-06
-1.01883e-05 -4.91479e-06 -0.000273943
-0.0040115 -0.000359574 -0.000121285
-0.000359574 -0.000290502 -6.46022e-05
-0.000121285 -6.46022e-05 -0.0020871
-0.000601715 0.000241392 1.58821e-05
0.000241392 -6.41896e-05 -1.94529e-05
1.58821e-05 -1.94529e-05 -0.000583886
0.00157627 0.000207387 -3.98384e-06
0.000207387 0.0010096 1.37784e-05
-3.98384e-06 1.37784e-05 0.000755719
0.00118786 0.000663085 1.39235e-05
0.000663085 0.000615626 2.95053e-06
1.39235e-05 2.95053e-06 0.000213975
-0.000413807 0.000514122 4.2087e-05
0.000514122 0.000675422 -2.98974e-05
4.2087e-05 -2.98974e-05 -0.000534812
0.000748565 0.00130878 6.44785e-05
0.00130878 1.94898e-05 7.02244e-06
6.44785e-05 7.02244e-06 -0.000827643
-0.00601026 0.0011319 0.000356803
0.0011319 0.0054535 5.04739e-06
0.000356803 5.04739e-06 -0.00142497
0.00228378 -0.000166898 -9.18085e-06
-0.000166898 0.00199475 6.62226e-05
-9.18085e-06 6.62226e-05 -0.000809862
-0.00254828 -4.92633e-05 -1.29818e-05
-4.92633e-05 0.000830564 5.31447e-05
-1.29818e-05 5.31447e-05 -5.67518e-05
-0.000536474 -0.000279597 -6.50579e-05
-0.000279597 0.000687272 1.66211e-05
-6.50579e-05 1.66211e-05 -0.000442745
-0.00157094 -0.000431773 -6.40356e-05
-0.000431773 -0.000390137 5.15841e-05
-6.40356e-05 5.15841e-05 -0.00015982
-0.00027943 -0.000450462 -0.000188419
-0.000450462 0.000804772 0.000119138
-0.000188419 0.000119138 -0.00322278
-0.000108482 -0.00385304 0.000265592
-0.00385304 0.00210343 -9.12707e-05
0.000265592 -9.12707e-05 -0.00364565
0.00981563 0.00515188 0.000700203
0.00515188 0.000720465 -0.000444195
0.000700203 -0.000444195 -0.00282156
0.0105486 0.00344365 -0.000400667
0.00344365 0.00764906 0.00032682
-0.000400667 0.00032682 0.00332558
0.00125978 -0.000826204 -1.07113e-05
-0.000826204 0.00131295 -1.69346e-06
-1.07113e-05 -1.69346e-06 0.000536544
0.00192648 0.000570921 0.000128956
0.000570921 0.00740685 -2.21486e-05
0.000128956 -2.21486e-05 0.00330326
0.000843341 0.00406644 9.04806e-06
0.00406644 0.000752878 7.05623e-05
9.04806e-06 7.05623e-05 -0.00284117
0.00245437 -0.00259995 8.49812e-05
-0.00259995 0.000731965 -4.21717e-05
8.49812e-05 -4.21717e-05 0.000932861
0.0169189 -0.00398061 1.69618e-05
-0.00398061 0.00330094 -1.33857e-06
1.69618e-05 -1.33857e-06 0.00140019
0.00306496 -0.00160424 5.0315e-06
-0.00160424 0.001221 1.99291e-05
5.0315e-06 1.99291e-05 0.000862029
-0.0082412 0.00123654 -0.000592663
0.00123654 -0.00249507 9.47032e-05
-0.000592663 9.47032e-05 -0.00526874
0.0160781 -0.00256131 -0.000232951
-0.00256131 0.00216887 6.72364e-05
-0.000232951 6.72364e-05 0.000785117
0.00386678 -0.00270866 0.000108681
-0.00270866 -7.63109e-05 -7.39613e-05
0.000108681 -7.39613e-05 0.000467961
0.000971152 -0.000544769 -1.73841e-05
-0.000544769 0.000666253 1.57573e-05
-1.73841e-05 1.57573e-05 0.000246912
0.00109032 -0.000799455 1.06209e-07
-0.000799455 0.000209374 -2.449e-06
1.06209e-07 -2.449e-06 -5.08009e-05
0.0053816 -0.0010749 2.24618e-05
-0.0010749 0.00225406 -1.3922e-05
2.24618e-05 -1.3922e-05 0.00187332
-0.00083041 -0.000400671 -6.36333e-06
-0.000400671 -0.000743439 7.54915e-06
-6.36333e-06 7.54915e-06 -0.00108785
0.00139885 -0.000792011 -3.21239e-06
-0.000792011 0.000114398 2.34261e-07
-3.21239e-06 2.34261e-07 -0.000283038
0.00313027 -0.00104116 4.19408e-06
-0.00104116 0.000808952 -7.80833e-06
4.19408e-06 -7.80833e-06 0.00040025
0.00152726 -0.000726404 -1.11199e-05
-0.000726404 0.000284794 9.2912e-06
-1.11199e-05 9.2912e-06 -0.000291824
0.00197593 -0.000914408 -9.98743e-07
-0.000914408 0.000317611 1.53758e-06
-9.98743e-07 1.53758e-06 -0.000164229
0.00185368 -0.00074061 -1.33248e-06
-0.00074061 1.29048e-05 -6.78383e-06
-1.33248e-06 -6.78383e-06 -0.00028667
0.00157443 -0.000799434 -1.2206e-06
-0.000799434 0.000227645 3.62242e-06
-1.2206e-06 3.62242e-06 -0.000295232
0.00200607 -0.000722837 -1.44741e-06
-0.000722837 0.000271822 1.44182e-06
-1.44741e-06 1.44182e-06 -0.000100919
0.00204497 -0.000544983 -1.60077e-06
-0.000544983 0.000103884 -4.44673e-06
-1.60077e-06 -4.44673e-06 -0.000110246
0.00187355 -0.00045037 -4.84298e-06
-0.00045037 6.20262e-05 -7.15733e-07
-4.84298e-06 -7.15733e-07 -0.000114039
0.00171142 -0.000532012 -5.90306e-06
-0.000532012 -4.33934e-06 -1.98812e-06
-5.90306e-06 -1.98812e-06 -0.000264976
0.00182668 -0.000516428 1.5975e-06
-0.000516428 4.93748e-05 2.6732e-06
1.5975e-06 2.6732e-06 -0.000195862
0.00168918 -0.000640888 -6.05487e-06
-0.000640888 0.000124188 -2.6624e-06
-6.05487e-06 -2.6624e-06 -0.000227055
0.00207492 -0.000748005 2.84796e-06
-0.000748005 0.000313746 -2.82782e-07
2.84796e-06 -2.82782e-07 -7.37489e-05
0.00217899 -0.00074672 6.47233e-06
-0.00074672 0.000387995 1.18318e-06
6.47233e-06 1.18318e-06 -1.60478e-06
0.001682 -0.000642363 -1.31808e-06
-0.000642363 0.000343816 -2.25182e-06
-1.31808e-06 -2.25182e-06 -5.07186e-05
0.00211966 -0.000766598 2.05252e-06
-0.000766598 0.000559397 -6.98982e-07
2.05252e-06 -6.98982e-07 0.000130914
0.0023122 -0.000867971 1.93058e-06
-0.000867971 0.000635978 -1.82485e-06
1.93058e-06 -1.82485e-06 0.000150875
0.00127853 -0.000382285 -6.36658e-06
-0.000382285 0.000295359 2.51296e-06
-6.36658e-06 2.51296e-06 1.05056e-05
0.00152928 -0.000536623 1.89307e-06
-0.000536623 0.000416591 1.10166e-06
1.89307e-06 1.10166e-06 5.25618e-05
0.0010475 -0.000565897 -4.86774e-06
-0.000565897 0.000113395 1.96237e-06
-4.86774e-06 1.96237e-06 -0.000271006
0.000495355 -0.000211807 -7.46061e-06
-0.000211807 -5.52627e-05 -8.08128e-07
-7.46061e-06 -8.08128e-07 -0.00027328
0.00106583 -0.000334237 6.55114e-07
-0.000334237 0.000256563 -7.33675e-07
6.55114e-07 -7.33675e-07 -6.9707e-06
0.000451413 -0.000306955 -9.09001e-06
-0.000306955 -0.000142126 2.57756e-07
-9.09001e-06 2.57756e-07 -0.000427512
0.000341898 -5.23738e-05 -1.17325e-05
-5.23738e-05 -0.000107926 1.34468e-05
-1.17325e-05 1.34468e-05 -0.000181492
0.000848876 -0.000176354 2.9147e-06
-0.000176354 0.000243271 1.21484e-06
2.9147e-06 1.21484e-06 1.79583e-05
0.00065745 -0.00024543 2.34617e-08
-0.00024543 0.000146062 2.12432e-06
2.34617e-08 2.12432e-06 -0.000132329
0.00385938 0.000231851 4.46739e-06
0.000231851 0.00216601 5.27174e-06
4.46739e-06 5.27174e-06 0.00213015
0.000465681 -2.66686e-05 3.65011e-07
-2.66686e-05 -2.36409e-05 -3.09235e-07
3.65011e-07 -3.09235e-07 -8.42041e-05
0.0012344 -0.000111396 -2.92076e-07
-0.000111396 0.000473023 -6.33771e-06
-2.92076e-07 -6.33771e-06 0.000303491
0.00332605 0.000141883 8.98137e-06
0.000141883 0.00179723 7.04237e-07
8.98137e-06 7.04237e-07 0.00179071
0.000522125 -6.61128e-06 4.34643e-06
-6.61128e-06 1.31697e-05 -1.14698e-05
4.34643e-06 -1.14698e-05 -3.73233e-05
0.00300966 0.000117234 5.25581e-05
0.000117234 0.00158881 -4.98587e-06
5.25581e-05 -4.98587e-06 0.00158858
0.00222367 0.00033616 6.63778e-06
0.00033616 0.00108979 2.66952e-06
6.63778e-06 2.66952e-06 0.000849965
0.00077018 0.000160549 5.97355e-07
0.000160549 0.000277267 -4.32374e-06
5.97355e-07 -4.32374e-06 4.30102e-05
0.00132469 0.000179004 5.90437e-07
0.000179004 0.000629645 -6.3412e-06
5.90437e-07 -6.3412e-06 0.000382697
0.000713477 6.18897e-05 2.9476e-06
6.18897e-05 0.000150083 -5.68403e-06
2.9476e-06 -5.68403e-06 2.55818e-05
0.000776361 0.00010513 3.90534e-07
0.00010513 0.000260195 1.49877e-06
3.90534e-07 1.49877e-06 6.44034e-05
0.000315976 0.000115063 -1.43149e-06
0.000115063 9.02447e-06 4.84442e-06
-1.43149e-06 4.84442e-06 -0.000196665
0.000515956 -4.32151e-07 -1.73943e-06
-4.32151e-07 8.77432e-06 -9.79395e-06
-1.73943e-06 -9.79395e-06 -2.89832e-05
0.000572568 4.32311e-05 -6.40458e-08
4.32311e-05 6.51563e-05 -3.96432e-07
-6.40458e-08 -3.96432e-07 -4.01666e-05
0.000323669 8.4232e-05 -5.10849e-06
8.4232e-05 -6.53432e-05 -4.56811e-08
-5.10849e-06 -4.56811e-08 -0.000207158
0.00269649 -8.53693e-05 -4.35779e-05
-8.53693e-05 0.0013807 -4.76478e-06
-4.35779e-05 -4.76478e-06 0.00138843
0.000417055 -1.94037e-05 2.83472e-06
-1.94037e-05 -5.84625e-05 -1.42086e-07
2.83472e-06 -1.42086e-07 -8.92497e-05
0.000491548 4.66768e-05 -2.44515e-06
4.66768e-05 1.36801e-05 3.37517e-06
-2.44515e-06 3.37517e-06 -7.7814e-05
0.00251107 -6.84075e-05 -6.64234e-06
-6.84075e-05 0.00125789 4.9271e-07
-6.64234e-06 4.9271e-07 0.00126849
0.000434048 -1.50335e-06 -2.13325e-06
-1.50335e-06 -5.45991e-05 6.09705e-06
-2.13325e-06 6.09705e-06 -7.82781e-05
0.00229854 -4.94985e-05 2.36702e-05
-4.94985e-05 0.00111989 4.6971e-06
2.36702e-05 4.6971e-06 0.00113404
-0.0096025 0.00108042 -0.000113271
0.00108042 0.0038892 8.08361e-05
-0.000113271 8.08361e-05 -0.00254397
0.00615582 0.000479736 5.04056e-06
0.000479736 0.00362911 -1.66161e-06
5.04056e-06 -1.66161e-06 0.00143824
-0.00162472 7.1187e-05 4.80472e-05
7.1187e-05 0.000278626 2.30234e-05
4.80472e-05 2.30234e-05 -0.000620564
0.000217 0.000142339 -3.13607e-07
0.000142339 -0.000159048 2.41549e-06
-3.13607e-07 2.41549e-06 -0.000353684
0.00330757 0.000671381 1.46976e-05
0.000671381 0.00167966 1.01552e-05
1.46976e-05 1.01552e-05 0.00131918
0.00122454 0.00019761 -9.41317e-06
0.00019761 0.000565509 1.41847e-06
-9.41317e-06 1.41847e-06 0.000249723
0.000540008 7.08306e-05 -7.58971e-06
7.08306e-05 7.27669e-05 -1.59887e-05
-7.58971e-06 -1.59887e-05 -9.10271e-05
0.0027109 0.000296415 3.75826e-06
0.000296415 0.0013508 -1.07021e-06
3.75826e-06 -1.07021e-06 0.00117605
-0.000735928 3.07019e-05 -1.14348e-05
3.07019e-05 -0.000667709 1.03211e-05
-1.14348e-05 1.03211e-05 -0.000817421
5.2339e-05 0.000111306 -1.1418e-06
0.000111306 -4.76779e-05 6.07013e-06
-1.1418e-06 6.07013e-06 -0.000331131
0.000625795 0.000162444 -3.24064e-06
0.000162444 0.000163504 -5.44352e-06
-3.24064e-06 -5.44352e-06 -0.00014822
0.00183881 0.0005311 7.22073e-06
0.0005311 0.000913084 -2.68604e-05
7.22073e-06 -2.68604e-05 0.000463082
6.26862e-05 0.000470351 -1.43232e-05
0.000470351 -0.000291481 5.03433e-05
-1.43232e-05 5.03433e-05 -0.000448875
0.00155943 5.16172e-05 -1.42353e-05
5.16172e-05 0.000806324 1.54005e-05
-1.42353e-05 1.54005e-05 0.000610065
0.00151048 0.000279707 5.4091e-06
0.000279707 0.000959613 -1.04646e-05
5.4091e-06 -1.04646e-05 0.000586937
2.99925e-06 -0.00242719 -0.00158293
-0.00242719 0.00155588 -0.000264323
-0.00158293 -0.000264323 -0.00232233
-0.00229218 -0.00241468 0.000534326
-0.00241468 0.00590796 0.000199287
0.000534326 0.000199287 0.000218172
0.00709123 0.0017141 -0.000564605
0.0017141 0.00301802 -0.000195224
-0.000564605 -0.000195224 -0.00252549
0.00480511 -0.00930651 0.00244961
-0.00930651 0.00498279 0.00151976
0.00244961 0.00151976 0.00135018
0.0258949 -0.00389827 6.54646e-05
-0.00389827 0.00885572 0.000366954
6.54646e-05 0.000366954 0.00529657
-0.0032082 0.0014277 -1.57725e-05
0.0014277 0.0023153 -0.000188219
-1.57725e-05 -0.000188219 -0.00340008
-0.00266037 0.000140188 -0.000383552
0.000140188 0.000789713 -6.31194e-05
-0.000383552 -6.31194e-05 -0.000903656
0.0010449 0.000743838 7.73259e-05
0.000743838 0.00163477 5.28672e-05
7.73259e-05 5.28672e-05 0.00128818
0.0197661 -0.00500924 -0.00065458
-0.00500924 0.0081434 6.77819e-06
-0.00065458 6.77819e-06 0.00411292
-0.00255003 0.00301844 -0.000116142
0.00301844 0.000338767 -4.69432e-05
-0.000116142 -4.69432e-05 -0.00438994
0.00312203 0.0021722 1.68838e-05
0.0021722 0.000957223 -7.19749e-05
1.68838e-05 -7.19749e-05 0.00161169
0.00277976 0.00475575 -0.000412139
0.00475575 -0.00207269 -0.000109101
-0.000412139 -0.000109101 -0.00471996
0.00330511 0.00118167 2.51014e-05
0.00118167 0.00124564 -1.40016e-05
2.51014e-05 -1.40016e-05 0.000889383
0.000981131 0.000570661 -4.97148e-06
0.000570661 0.000263198 -1.77945e-06
-4.97148e-06 -1.77945e-06 9.94078e-05
-0.000219198 0.000159784 -7.59184e-06
0.000159784 -0.000179157 2.25648e-06
-7.59184e-06 2.25648e-06 -0.00042714
-0.00152919 0.000374881 -8.61439e-05
0.000374881 0.000125058 -7.46296e-05
-8.61439e-05 -7.46296e-05 -0.00092309
0.00203039 0.000775887 -3.5676e-05
0.000775887 0.00101395 -2.04034e-05
-3.5676e-05 -2.04034e-05 0.000600291
0.00197709 0.00146962 1.12528e-05
0.00146962 0.000549417 -8.81298e-06
1.12528e-05 -8.81298e-06 -0.00028839
-0.000855734 0.00155728 0.000100344
0.00155728 -0.00174543 4.63099e-05
0.000100344 4.63099e-05 -0.00207139
-0.00627292 -0.000474796 -0.00060363
-0.000474796 -0.0043083 4.80306e-05
-0.00060363 4.80306e-05 -0.00414903
-0.00860192 0.00049905 0.000395895
0.00049905 0.0056791 1.71226e-05
0.000395895 1.71226e-05 -0.000637457
0.00292379 -9.05256e-05 -0.000125517
-9.05256e-05 0.00207067 3.36412e-05
-0.000125517 3.36412e-05 0.000269281
0.0022197 -0.000978103 -5.50957e-05
-0.000978103 0.0013944 -4.63849e-05
-5.50957e-05 -4.63849e-05 0.000647272
-0.000643268 -0.00195723 4.89672e-05
-0.00195723 -0.000647174 4.38838e-05
4.89672e-05 4.38838e-05 -0.000398728
0.000670026 0.000655443 6.52296e-05
0.000655443 0.00710674 4.58705e-05
6.52296e-05 4.58705e-05 0.0028635
0.00255584 -0.00338702 0.000481782
-0.00338702 -0.00167505 -0.000112056
0.000481782 -0.000112056 -0.00384412
0.0224626 0.00352385 0.000880226
0.00352385 0.00988713 -0.00010012
0.000880226 -0.00010012 0.00680462
0.00160512 -0.00167868 -1.79037e-05
-0.00167868 0.000350768 4.44889e-06
-1.79037e-05 4.44889e-06 -0.000263165
0.00213823 0.00150187 0.000266351
0.00150187 0.000761793 -8.18761e-05
0.000266351 -8.18761e-05 -0.0014784
0.00758654 -0.00224408 -0.000170378
-0.00224408 -0.0025555 0.000145401
-0.000170378 0.000145401 -0.00469943
0.00371034 -0.00270138 -1.06192e-05
-0.00270138 -0.000476663 2.66074e-05
-1.06192e-05 2.66074e-05 0.000324522
0.00248929 -0.00141475 7.05739e-05
-0.00141475 0.000193038 -1.92569e-05
7.05739e-05 -1.92569e-05 3.44462e-05
0.0169691 -0.000859915 -7.55332e-05
-0.000859915 0.00333734 5.18231e-05
-7.55332e-05 5.18231e-05 0.00214513
0.00255901 -0.00180355 0.000131224
-0.00180355 -0.00316922 -9.21539e-05
0.000131224 -9.21539e-05 -0.00173614
-0.000585753 -0.000673445 -2.81948e-05
-0.000673445 -0.000779461 3.23221e-05
-2.81948e-05 3.23221e-05 -0.000908173
0.000191138 -0.000585095 -4.00946e-05
-0.000585095 -0.000582981 3.71771e-06
-4.00946e-05 3.71771e-06 -0.000731228
0.00616231 -0.00115369 6.16073e-05
-0.00115369 0.00232202 -2.51957e-05
6.16073e-05 -2.51957e-05 0.00209467
0.000314912 -0.000654386 -1.27795e-05
-0.000654386 -0.000416623 6.25673e-07
-1.27795e-05 6.25673e-07 -0.000815125
0.00214592 -0.000921122 -2.7922e-06
-0.000921122 0.000301705 -3.382e-06
-2.7922e-06 -3.382e-06 -7.68978e-05
0.00275958 -0.000838889 9.28123e-07
-0.000838889 0.000327703 -5.07036e-06
9.28123e-07 -5.07036e-06 0.000116918
0.0020859 -0.000916822 2.0099e-06
-0.000916822 0.000382008 9.96305e-06
2.0099e-06 9.96305e-06 -0.000106536
0.0021673 -0.000764941 -1.19858e-06
-0.000764941 0.00018998 5.51034e-07
-1.19858e-06 5.51034e-07 -0.000112197
0.00213832 -0.000568122 -8.95468e-08
-0.000568122 2.86149e-05 -1.63446e-06
-8.95468e-08 -1.63446e-06 -0.00010133
0.00151514 -0.000657724 6.14148e-06
-0.000657724 4.88749e-06 7.76518e-06
6.14148e-06 7.76518e-06 -0.000352887
0.00199514 -0.00053361 -4.0621e-07
-0.00053361 7.64273e-05 2.39881e-06
-4.0621e-07 2.39881e-06 -0.000131071
0.00207555 -0.000502738 -2.6656e-06
-0.000502738 8.67952e-05 1.28167e-06
-2.6656e-06 1.28167e-06 -5.44958e-05
0.00202036 -0.000471297 -4.50859e-06
-0.000471297 0.000146384 1.07691e-06
-4.50859e-06 1.07691e-06 -1.02007e-05
0.00201144 -0.000460712 -3.03192e-06
-0.000460712 0.000140185 3.26891e-06
-3.03192e-06 3.26891e-06 -3.27705e-05
0.00209191 -0.000472524 -2.51426e-06
-0.000472524 0.00023765 -3.87211e-06
-2.51426e-06 -3.87211e-06 4.87257e-05
0.00201979 -0.000562724 -7.06301e-06
-0.000562724 0.000210101 -2.80455e-06
-7.06301e-06 -2.80455e-06 -5.93376e-05
0.00194489 -0.000549206 1.81512e-06
-0.000549206 0.000145508 8.86509e-07
1.81512e-06 8.86509e-07 -0.000115897
0.00190658 -0.000517628 6.8527e-06
-0.000517628 9.71529e-05 7.40874e-06
6.8527e-06 7.40874e-06 -0.000144719
0.00192185 -0.000633348 -7.81194e-06
-0.000633348 0.000329191 -2.51079e-06
-7.81194e-06 -2.51079e-06 -2.37853e-05
0.00170385 -0.000649602 -5.11137e-07
-0.000649602 0.000119413 1.08258e-07
-5.11137e-07 1.08258e-07 -0.000235364
0.0022188 -0.000753631 8.50403e-06
-0.000753631 0.00041747 1.21955e-06
8.50403e-06 1.21955e-06 3.39334e-05
0.00142071 -0.000471605 -1.06193e-05
-0.000471605 0.000275827 3.30413e-06
-1.06193e-05 3.30413e-06 -5.01551e-05
0.00178176 -0.000651521 -6.81429e-07
-0.000651521 0.000407096 7.54911e-07
-6.81429e-07 7.54911e-07 1.15184e-05
0.00200638 -0.000761291 3.18473e-06
-0.000761291 0.000486443 7.23341e-07
3.18473e-06 7.23341e-07 5.62928e-05
0.000688184 -0.000219425 -8.28556e-06
-0.000219425 1.9316e-05 4.62284e-06
-8.28556e-06 4.62284e-06 -0.000194079
0.00121382 -0.000383455 1.18345e-06
-0.000383455 0.000246453 -2.76571e-08
1.18345e-06 -2.76571e-08 -4.12905e-05
0.00107948 -0.000484214 -1.86717e-06
-0.000484214 0.000126317 1.89453e-06
-1.86717e-06 1.89453e-06 -0.000223664
0.000470921 -0.000129347 -2.27837e-05
-0.000129347 -5.95024e-05 1.52136e-05
-2.27837e-05 1.52136e-05 -0.000154057
0.000638654 -0.000205786 -2.06631e-06
-0.000205786 5.82756e-05 1.01316e-06
-2.06631e-06 1.01316e-06 -0.000175714
0.000702866 -0.000344031 1.54683e-06
-0.000344031 2.73872e-05 -1.57998e-07
1.54683e-06 -1.57998e-07 -0.000242056
0.004314 0.000210194 -8.78599e-05
0.000210194 0.00245257 7.0415e-06
-8.78599e-05 7.0415e-06 0.00242608
0.000505868 -7.01091e-05 1.46121e-06
-7.01091e-05 -9.91428e-06 -3.51005e-07
1.46121e-06 -3.51005e-07 -9.00036e-05
0.00165899 -0.000257809 5.72765e-06
-0.000257809 0.000742034 -2.35009e-06
5.72765e-06 -2.35009e-06 0.00050984
0.00251838 0.00013172 5.2002e-05
0.00013172 0.00130155 1.39815e-06
5.2002e-05 1.39815e-06 0.00127795
0.000599335 -3.54268e-05 1.03883e-05
-3.54268e-05 5.56973e-05 -1.31213e-05
1.03883e-05 -1.31213e-05 -7.85697e-06
0.00358493 0.000134188 8.22921e-05
0.000134188 0.00196047 -5.07954e-06
8.22921e-05 -5.07954e-06 0.00195604
0.00183999 0.000351647 3.82106e-06
0.000351647 0.000732741 -4.05077e-06
3.82106e-06 -4.05077e-06 0.000513099
0.000426076 0.000143685 -3.93933e-06
0.000143685 -5.63209e-05 -1.8045e-07
-3.93933e-06 -1.8045e-07 -0.000251647
0.000497399 0.000162931 1.23503e-06
0.000162931 7.51651e-05 -8.18534e-06
1.23503e-06 -8.18534e-06 -0.000160209
0.000424491 0.000132039 -2.43806e-06
0.000132039 4.01143e-05 1.15236e-05
-2.43806e-06 1.15236e-05 -0.000172502
0.000589726 9.89441e-05 7.1554e-07
9.89441e-05 0.000143363 1.21753e-07
7.1554e-07 1.21753e-07 -7.75745e-05
0.001023 0.000111203 4.6116e-07
0.000111203 0.000335398 -8.95711e-06
4.6116e-07 -8.95711e-06 0.000188203
0.00057756 3.13149e-05 -5.08381e-06
3.13149e-05 4.92628e-05 -1.2098e-05
-5.08381e-06 -1.2098e-05 1.96741e-06
0.000675733 5.9848e-05 4.22041e-07
5.9848e-05 0.000132741 -5.19439e-08
4.22041e-07 -5.19439e-08 7.38963e-06
-0.000149165 3.37757e-05 -6.26953e-06
3.37757e-05 -0.000345559 8.90101e-07
-6.26953e-06 8.90101e-07 -0.000517991
0.00292344 -9.94562e-05 -6.08725e-05
-9.94562e-05 0.00153152 -4.99271e-06
-6.08725e-05 -4.99271e-06 0.00153661
0.000419033 1.41034e-05 9.98717e-07
1.41034e-05 -5.03764e-05 -3.00712e-07
9.98717e-07 -3.00712e-07 -8.79287e-05
0.000533795 4.6349e-05 -3.50094e-06
4.6349e-05 4.67028e-05 4.87664e-06
-3.50094e-06 4.87664e-06 -6.09193e-05
0.00269638 -8.67328e-05 -7.29916e-06
-8.67328e-05 0.00138092 5.99124e-07
-7.29916e-06 5.99124e-07 0.00138801
0.000397428 -1.00174e-05 2.4607e-07
-1.00174e-05 -6.97085e-05 7.5067e-06
2.4607e-07 7.5067e-06 -0.000100314
0.00250721 -6.82702e-05 2.97392e-05
-6.82702e-05 0.00125519 4.88212e-06
2.97392e-05 4.88212e-06 0.00126573
0.00124873 6.84338e-05 -0.000864404
6.84338e-05 0.00381302 -6.12968e-05
-0.000864404 -6.12968e-05 0.00167154
-0.00581628 0.000162478 3.57557e-05
0.000162478 0.0049046 -3.96565e-06
3.57557e-05 -3.96565e-06 -0.00176481
0.00584889 0.000225345 -0.000254744
0.000225345 0.00350532 -6.8299e-05
-0.000254744 -6.8299e-05 0.00147151
-0.000306796 4.48214e-05 2.99787e-06
4.48214e-05 -0.000480605 -8.3362e-06
2.99787e-06 -8.3362e-06 -0.000675658
0.000400236 8.60557e-05 6.04334e-06
8.60557e-05 5.47757e-06 7.80754e-06
6.04334e-06 7.80754e-06 -0.000289452
0.0028298 0.000596497 -3.34345e-06
0.000596497 0.00141944 3.92717e-06
-3.34345e-06 3.92717e-06 0.00107075
0.00226982 0.000696537 1.67544e-05
0.000696537 0.000935359 7.53678e-06
1.67544e-05 7.53678e-06 0.00047971
0.00053045 0.000395386 7.23165e-06
0.000395386 0.000145822 2.91541e-06
7.23165e-06 2.91541e-06 -0.00023742
0.00100014 0.000167019 -7.26261e-06
0.000167019 0.000523467 8.65769e-06
-7.26261e-06 8.65769e-06 0.0002355
0.00106377 0.000180695 1.10937e-05
0.000180695 0.000463671 1.12402e-05
1.10937e-05 1.12402e-05 0.000171591
0.000593028 0.000431955 -4.71142e-06
0.000431955 0.000230892 -6.75657e-07
-4.71142e-06 -6.75657e-07 -0.00022122
-0.000188443 0.000570099 1.59573e-05
0.000570099 -0.000616707 -1.12854e-05
1.59573e-05 -1.12854e-05 -0.000952423
0.00248967 0.000837172 -9.53612e-06
0.000837172 0.000922141 2.60996e-05
-9.53612e-06 2.60996e-05 0.000685936
0.00147233 0.000884567 3.12601e-05
0.000884567 5.90944e-05 1.04309e-05
3.12601e-05 1.04309e-05 -9.17294e-05
0.00139703 0.000641702 -6.98727e-06
0.000641702 0.000510394 -3.12966e-06
-6.98727e-06 -3.12966e-06 0.000272176
0.00199895 0.000374575 -7.61438e-06
0.000374575 0.00112574 3.43876e-05
-7.61438e-06 3.43876e-05 0.000795627
0.0138666 0.0025805 -0.000124776
0.0025805 0.00171477 6.37709e-05
-0.000124776 6.37709e-05 0.000483581
0.00263691 -0.00205417 -0.000572262
-0.00205417 0.0038361 -0.00020747
-0.000572262 -0.00020747 0.000693886
2.49769e-05 -0.00361584 0.000787615
-0.00361584 0.00650036 0.00021146
0.000787615 0.00021146 0.000719754
0.00764904 -0.00304608 0.000313201
-0.00304608 0.00334633 0.00032363
0.000313201 0.00032363 -0.000389231
0.0142439 0.00486882 -0.000112129
0.00486882 0.00467055 -4.91701e-05
-0.000112129 -4.91701e-05 0.00069264
-0.00305506 0.000247978 -5.54152e-05
0.000247978 -0.00013123 -5.5679e-05
-5.54152e-05 -5.5679e-05 -0.000543029
0.0021397 0.0019176 -5.46568e-05
0.0019176 0.000536973 -2.15639e-05
-5.46568e-05 -2.15639e-05 0.00128971
0.0172777 0.00465256 1.79409e-05
0.00465256 0.00377346 3.84293e-05
1.79409e-05 3.84293e-05 0.00136024
0.0065277 0.00363143 -8.39776e-05
0.00363143 -0.000150939 -0.000106241
-8.39776e-05 -0.000106241 0.000288212
0.00164378 0.00120444 1.09765e-05
0.00120444 0.000121826 -5.78585e-06
1.09765e-05 -5.78585e-06 -0.000134969
0.00160262 0.000925674 9.92688e-06
0.000925674 0.000449272 -4.00225e-06
9.92688e-06 -4.00225e-06 0.000140844
0.00211853 0.000636116 -2.62904e-05
0.000636116 0.00100864 1.25e-06
-2.62904e-05 1.25e-06 0.000829466
0.00271362 0.00164056 -7.20277e-05
0.00164056 0.000782002 -2.70984e-05
-7.20277e-05 -2.70984e-05 -3.52397e-05
0.00139737 0.00181514 7.62944e-05
0.00181514 -0.000798231 3.87627e-05
7.62944e-05 3.87627e-05 -0.00121809
0.00245324 -0.000300134 -0.000125012
-0.000300134 -0.00498843 5.81098e-05
-0.000125012 5.81098e-05 -0.00523013
0.000735594 -0.0016952 1.08849e-05
-0.0016952 0.00223519 5.61112e-06
1.08849e-05 5.61112e-06 0.00124136
-0.0117256 -0.000277213 0.000317711
-0.000277213 0.00614471 -2.4006e-05
0.000317711 -2.4006e-05 0.000475945
0.00058296 -0.00185174 -5.86607e-05
-0.00185174 -0.000462107 2.06128e-05
-5.86607e-05 2.06128e-05 -0.00128761
0.00569899 -0.00320942 2.88542e-05
-0.00320942 0.000361034 4.6433e-05
2.88542e-05 4.6433e-05 0.000704056
0.00247758 5.73527e-06 0.000932876
5.73527e-06 0.00398759 -0.000221415
0.000932876 -0.000221415 0.00204354
0.0140349 -0.0024726 -0.000281325
-0.0024726 0.00157783 0.000154561
-0.000281325 0.000154561 0.000595101
0.00172326 -0.00140548 -3.03076e-05
-0.00140548 -0.00013118 8.93796e-07
-3.03076e-05 8.93796e-07 -0.000434868
0.0115614 -0.000112625 -0.000197294
-0.000112625 -0.000959814 6.83333e-05
-0.000197294 6.83333e-05 -0.00178568
0.0072438 -0.00210945 0.000101053
-0.00210945 -0.000310261 1.14359e-05
0.000101053 1.14359e-05 0.000488687
0.00356606 -0.00120272 6.34366e-05
-0.00120272 0.000334344 -4.49904e-05
6.34366e-05 -4.49904e-05 0.000139075
0.00255068 -0.000794881 -4.60745e-06
-0.000794881 -0.00204052 7.04878e-06
-4.60745e-06 7.04878e-06 -0.000860037
-0.00542887 -7.01508e-05 1.32105e-05
-7.01508e-05 -0.00363095 1.27143e-05
1.32105e-05 1.27143e-05 -0.00360094
0.00151844 -0.000738002 -1.80273e-05
-0.000738002 -0.000235151 1.75548e-06
-1.80273e-05 1.75548e-06 -0.000253498
0.00370443 -0.000779724 3.66612e-05
-0.000779724 0.000724912 -1.50425e-05
3.66612e-05 -1.50425e-05 0.000775196
0.00103719 -0.000792391 -1.03428e-05
-0.000792391 -0.000272975 6.84559e-06
-1.03428e-05 6.84559e-06 -0.000621255
0.00219339 -0.000784506 -3.62075e-06
-0.000784506 2.86106e-05 3.23413e-06
-3.62075e-06 3.23413e-06 -0.000176164
0.00241017 -0.000637384 5.77653e-06
-0.000637384 -9.07538e-06 -1.58535e-06
5.77653e-06 -1.58535e-06 -4.02434e-05
0.00225661 -0.000762648 -4.05052e-06
-0.000762648 0.000248941 1.06273e-05
-4.05052e-06 1.06273e-05 -4.97997e-05
0.00213244 -0.000565399 4.48037e-07
-0.000565399 2.40433e-05 1.46411e-06
4.48037e-07 1.46411e-06 -0.000101776
0.00227408 -0.00055879 -4.74703e-07
-0.00055879 8.58164e-05 2.39023e-07
-4.74703e-07 2.39023e-07 1.7638e-05
0.00192508 -0.000519813 4.44132e-06
-0.000519813 3.84639e-05 6.79336e-06
4.44132e-06 6.79336e-06 -0.000161709
0.00205265 -0.000501662 -8.04787e-09
-0.000501662 7.05459e-05 1.33674e-06
-8.04787e-09 1.33674e-06 -6.81699e-05
0.00220322 -0.000537404 -2.38872e-06
-0.000537404 0.000148127 1.5077e-06
-2.38872e-06 1.5077e-06 1.80284e-05
0.00203279 -0.000478783 -4.28535e-06
-0.000478783 0.000145909 2.44909e-06
-4.28535e-06 2.44909e-06 -9.29922e-06
0.00217099 -0.000479095 -1.42264e-06
-0.000479095 0.000277289 -1.07306e-06
-1.42264e-06 -1.07306e-06 0.000112255
0.00212978 -0.000470079 3.36418e-06
-0.000470079 0.000207662 5.7596e-06
3.36418e-06 5.7596e-06 3.79464e-05
0.00206672 -0.000471213 6.39508e-07
-0.000471213 0.000220598 -6.7822e-07
6.39508e-07 -6.7822e-07 3.19047e-05
0.00196647 -0.000488213 -3.11765e-06
-0.000488213 0.000162022 -2.92839e-06
-3.11765e-06 -2.92839e-06 -4.75541e-05
0.00205346 -0.000544583 -5.00182e-06
-0.000544583 0.000304431 -4.09887e-06
-5.00182e-06 -4.09887e-06 2.51274e-05
0.00208519 -0.000570785 -4.55162e-07
-0.000570785 0.000252915 1.90507e-08
-4.55162e-07 1.90507e-08 -1.92907e-05
0.0021777 -0.000566047 8.46668e-06
-0.000566047 0.000296066 4.20181e-06
8.46668e-06 4.20181e-06 3.39816e-05
0.00158132 -0.000511825 -1.04436e-05
-0.000511825 0.000228165 2.05765e-06
-1.04436e-05 2.05765e-06 -0.000100168
0.00184876 -0.000623838 -1.72248e-06
-0.000623838 0.000286366 -2.42194e-07
-1.72248e-06 -2.42194e-07 -6.67746e-05
0.00172067 -0.000657654 6.38057e-06
-0.000657654 0.000116084 2.14178e-06
6.38057e-06 2.14178e-06 -0.000242019
0.000740108 -0.000247557 -1.11429e-05
-0.000247557 -1.21079e-05 7.05334e-06
-1.11429e-05 7.05334e-06 -0.000234474
0.00134592 -0.000466569 9.21125e-07
-0.000466569 0.000229818 2.97528e-07
9.21125e-07 2.97528e-07 -9.54407e-05
0.00188133 -0.000659348 3.1808e-06
-0.000659348 0.000472506 2.27206e-06
3.1808e-06 2.27206e-06 7.64131e-05
0.00039029 -0.000183968 -2.22389e-05
-0.000183968 -0.000120935 1.89019e-05
-2.22389e-05 1.89019e-05 -0.00023977
0.000631772 -0.000222915 -5.345e-07
-0.000222915 -9.1254e-06 2.60446e-07
-5.345e-07 2.60446e-07 -0.000228024
0.00095926 -0.000356034 6.65892e-06
-0.000356034 7.93516e-05 -1.26379e-06
6.65892e-06 -1.26379e-06 -0.000203026
0.00511335 0.00017404 -0.000142957
0.00017404 0.00294554 9.57157e-06
-0.000142957 9.57157e-06 0.00292806
0.000502546 -0.000147402 -2.89599e-06
-0.000147402 -3.68548e-05 -8.2329e-07
-2.89599e-06 -8.2329e-07 -0.000137832
0.00119526 -0.000250153 5.72897e-06
-0.000250153 0.000419995 -1.77415e-06
5.72897e-06 -1.77415e-06 0.000172011
0.00452189 0.000180505 2.26229e-05
0.000180505 0.00257981 8.773e-07
2.26229e-05 8.773e-07 0.00256059
0.000715957 -9.27452e-05 1.9457e-05
-9.27452e-05 0.000116572 -1.44689e-05
1.9457e-05 -1.44689e-05 3.22922e-05
0.00401819 0.00013941 0.000112874
0.00013941 0.00224123 -7.04715e-06
0.000112874 -7.04715e-06 0.00223539
0.00208645 0.00057339 3.42119e-06
0.00057339 0.000843543 -2.35959e-06
3.42119e-06 -2.35959e-06 0.000467276
0.000761416 0.000263336 -9.28164e-07
0.000263336 7.53523e-05 -3.35922e-06
-9.28164e-07 -3.35922e-06 -0.00013598
0.00029845 0.000167242 4.05382e-06
0.000167242 -0.000149685 4.24185e-06
4.05382e-06 4.24185e-06 -0.000358475
-0.000757439 3.75992e-05 -2.25158e-06
3.75992e-05 -0.0007717 1.17394e-06
-2.25158e-06 1.17394e-06 -0.000968204
0.000376148 0.000112927 -3.64205e-07
0.000112927 -2.97421e-05 2.32082e-06
-3.64205e-07 2.32082e-06 -0.000247293
0.00100761 0.00010498 4.59432e-07
0.00010498 0.000335455 -1.07861e-05
4.59432e-07 -1.07861e-05 0.000153377
0.000265533 6.02868e-05 -3.16733e-06
6.02868e-05 -7.75146e-05 4.17799e-06
-3.16733e-06 4.17799e-06 -0.000282946
0.000571565 8.38343e-05 -1.77782e-07
8.38343e-05 6.5379e-05 4.64748e-07
-1.77782e-07 4.64748e-07 -8.10026e-05
0.000613588 3.83507e-05 -7.1779e-06
3.83507e-05 7.0314e-05 -1.52181e-05
-7.1779e-06 -1.52181e-05 1.1174e-05
0.00323082 -0.000108222 -8.55122e-05
-0.000108222 0.00173434 -6.43285e-06
-8.55122e-05 -6.43285e-06 0.00173723
0.000430247 1.31071e-05 1.36305e-06
1.31071e-05 -3.7958e-05 -3.63899e-07
1.36305e-06 -3.63899e-07 -8.59671e-05
0.000436032 4.76998e-05 -4.00321e-06
4.76998e-05 -1.12787e-05 6.51993e-06
-4.00321e-06 6.51993e-06 -0.000135569
0.00285563 -0.000105828 -8.20339e-06
-0.000105828 0.00148964 7.42719e-07
-8.20339e-06 7.42719e-07 0.00149253
0.000316157 -5.14459e-05 -6.50073e-06
-5.14459e-05 -0.000107403 9.2222e-06
-6.50073e-06 9.2222e-06 -0.000148523
0.00267254 -8.72721e-05 3.70001e-05
-8.72721e-05 0.00136554 4.93263e-06
3.70001e-05 4.93263e-06 0.00137225
0.014959 0.000603852 0.000490155
0.000603852 0.00193653 0.000119902
0.000490155 0.000119902 0.00164138
-0.00111545 -0.00292109 -0.000518846
-0.00292109 -0.00244401 -8.41778e-05
-0.000518846 -8.41778e-05 -0.0046774
-0.00944645 0.00149498 -0.000210485
0.00149498 0.00433913 -0.000126184
-0.000210485 -0.000126184 -0.00263188
0.000171962 3.6826e-05 1.77005e-05
3.6826e-05 -0.000125682 -6.32372e-06
1.77005e-05 -6.32372e-06 -0.000437307
0.00156461 0.000439827 -8.7435e-06
0.000439827 0.000662879 6.5012e-07
-8.7435e-06 6.5012e-07 0.000346133
0.00241374 0.0006024 -1.0472e-05
0.0006024 0.00124303 -2.54575e-06
-1.0472e-05 -2.54575e-06 0.000812357
0.00150083 0.000601531 9.59819e-07
0.000601531 0.000473183 -9.33364e-07
9.59819e-07 -9.33364e-07 4.32693e-05
0.00145945 0.000650829 1.20674e-05
0.000650829 0.000258701 1.8766e-05
1.20674e-05 1.8766e-05 -0.000152604
-0.000717427 0.000430322 2.98239e-05
0.000430322 -0.00088726 6.367e-06
2.98239e-05 6.367e-06 -0.00122846
-0.000184215 0.000319503 -1.24002e-05
0.000319503 -0.00014763 1.14252e-05
-1.24002e-05 1.14252e-05 -0.000630507
-0.000340059 0.00053873 1.06925e-05
0.00053873 -0.000717421 -9.83401e-07
1.06925e-05 -9.83401e-07 -0.00104506
0.00224412 0.000803603 6.00754e-06
0.000803603 0.00083243 7.6946e-06
6.00754e-06 7.6946e-06 0.000552906
-0.000642772 0.000528808 5.95334e-06
0.000528808 -0.00101586 -4.03386e-06
5.95334e-06 -4.03386e-06 -0.00125729
0.00367336 0.00103498 4.97448e-06
0.00103498 0.00124902 1.50535e-05
4.97448e-06 1.50535e-05 0.00105452
0.00130453 0.000876182 2.21066e-05
0.000876182 -1.558e-05 6.13651e-06
2.21066e-05 6.13651e-06 -0.000305951
0.000552262 0.000770687 3.26531e-06
0.000770687 -0.000477725 1.62095e-07
3.26531e-06 1.62095e-07 -0.000555355
0.000584446 0.000519944 1.36759e-06
0.000519944 3.91977e-05 -5.26853e-05
1.36759e-06 -5.26853e-05 -0.0001704
0.00506373 0.00175205 1.99484e-05
0.00175205 -0.00150852 2.69166e-05
1.99484e-05 2.69166e-05 -3.27516e-05
0.0137704 0.00302289 0.000282197
0.00302289 0.00090188 0.000152658
0.000282197 0.000152658 -0.000652599
0.0116556 -0.00431192 0.000531208
-0.00431192 0.00557975 -4.15898e-05
0.000531208 -4.15898e-05 0.00228889
0.00578645 0.00492045 0.000561326
0.00492045 -0.000997661 0.000320049
0.000561326 0.000320049 -0.00511909
0.00024263 0.00132494 -5.88438e-05
0.00132494 0.000203725 -4.45477e-07
-5.88438e-05 -4.45477e-07 0.00082883
0.00395155 0.00254028 -0.000108703
0.00254028 -0.00060258 -5.41348e-05
-0.000108703 -5.41348e-05 0.000180809
0.00609118 0.00218219 7.26653e-05
0.00218219 0.00117018 3.13928e-05
7.26653e-05 3.13928e-05 0.000912234
0.00431524 0.00158037 1.92548e-05
0.00158037 0.00131437 9.27104e-06
1.92548e-05 9.27104e-06 0.00098036
-0.000221635 0.000677667 -3.04571e-05
0.000677667 -0.000500675 1.09384e-05
-3.04571e-05 1.09384e-05 -0.000741445
0.00689502 0.00248803 -0.000183035
0.00248803 0.0017543 -1.85729e-05
-0.000183035 -1.85729e-05 0.00116436
0.00302747 -0.000524013 1.67214e-05
-0.000524013 -0.000642015 1.49746e-05
1.67214e-05 1.49746e-05 6.46807e-05
0.0114685 -0.000555842 -4.72493e-05
-0.000555842 0.00116504 -1.09862e-05
-4.72493e-05 -1.09862e-05 0.00115464
-0.0126683 -0.00275053 0.000780235
-0.00275053 -0.00525612 1.98967e-06
0.000780235 1.98967e-06 -0.00623269
0.000792324 -0.00121105 -0.000112174
-0.00121105 -0.000499236 3.37675e-05
-0.000112174 3.37675e-05 -0.000766215
0.00886198 -0.00261256 -1.0073e-05
-0.00261256 -0.000167976 9.33727e-05
-1.0073e-05 9.33727e-05 0.000905594
0.00105257 -0.000282722 -0.000286734
-0.000282722 -0.00488724 3.37562e-05
-0.000286734 3.37562e-05 -0.00656979
0.00282737 -0.00103367 3.46719e-05
-0.00103367 -9.61493e-05 7.10884e-07
3.46719e-05 7.10884e-07 -2.1893e-06
0.00508687 -0.000731769 -4.76706e-05
-0.000731769 -0.000516881 -1.74576e-06
-4.76706e-05 -1.74576e-06 0.000295244
0.00581708 -0.000890544 4.54297e-05
-0.000890544 0.00130209 -3.35073e-05
4.54297e-05 -3.35073e-05 0.00164787
0.00572053 -0.00046067 0.000108845
-0.00046067 0.00137451 2.11633e-06
0.000108845 2.11633e-06 0.00158024
-0.00336068 -0.000338147 9.60609e-06
-0.000338147 -0.00300371 1.2039e-05
9.60609e-06 1.2039e-05 -0.00274115
0.00205715 -0.000657954 -6.9361e-06
-0.000657954 -0.000229587 1.79064e-06
-6.9361e-06 1.79064e-06 -6.6987e-05
0.00237421 -0.000503378 2.55638e-05
-0.000503378 -0.000204539 -6.39233e-06
2.55638e-05 -6.39233e-06 6.44381e-05
0.00171116 -0.000742603 8.40391e-07
-0.000742603 -0.000229984 6.37382e-06
8.40391e-07 6.37382e-06 -0.000432485
0.00234891 -0.000633147 1.40237e-06
-0.000633147 -3.71871e-05 1.50033e-06
1.40237e-06 1.50033e-06 -7.00724e-05
0.00238384 -0.00055432 2.20064e-06
-0.00055432 1.47481e-05 -7.12651e-07
2.20064e-06 -7.12651e-07 2.05083e-05
0.00215594 -0.000567018 2.40288e-06
-0.000567018 3.57174e-05 5.77588e-06
2.40288e-06 5.77588e-06 -8.86366e-05
0.00222254 -0.000550335 3.21896e-07
-0.000550335 6.85217e-05 4.3904e-07
3.21896e-07 4.3904e-07 -2.30247e-06
0.00221458 -0.000491732 -2.02813e-06
-0.000491732 5.23245e-05 1.68141e-07
-2.02813e-06 1.68141e-07 -1.04594e-05
0.00204548 -0.000502349 3.75367e-06
-0.000502349 6.27476e-05 1.74538e-06
3.75367e-06 1.74538e-06 -7.43528e-05
0.00215167 -0.000529854 -1.61008e-07
-0.000529854 0.000139558 5.3864e-08
-1.61008e-07 5.3864e-08 9.55954e-06
0.00205654 -0.000475866 -4.59109e-08
-0.000475866 0.000121824 3.57877e-07
-4.59109e-08 3.57877e-07 -1.12682e-05
0.00206802 -0.000487574 -6.223e-07
-0.000487574 0.000159651 1.91426e-06
-6.223e-07 1.91426e-06 5.3864e-06
0.00210932 -0.00046977 -1.75992e-06
-0.00046977 0.000233734 3.14886e-07
-1.75992e-06 3.14886e-07 7.22347e-05
0.00216643 -0.000473707 -1.80031e-06
-0.000473707 0.000278333 -8.81152e-07
-1.80031e-06 -8.81152e-07 9.9508e-05
0.00205224 -0.000469586 4.67563e-06
-0.000469586 0.000210504 2.89277e-06
4.67563e-06 2.89277e-06 2.22724e-05
0.00201526 -0.000492024 -2.80641e-07
-0.000492024 0.000192061 -1.65624e-07
-2.80641e-07 -1.65624e-07 -1.85243e-05
0.0020567 -0.000485656 -1.19866e-06
-0.000485656 0.000266989 -2.77959e-06
-1.19866e-06 -2.77959e-06 3.56064e-05
0.00173053 -0.000473722 -9.06264e-06
-0.000473722 0.000216451 -5.9943e-07
-9.06264e-06 -5.9943e-07 -6.9095e-05
0.00198832 -0.000544812 -7.5711e-07
-0.000544812 0.000263231 -1.1337e-06
-7.5711e-07 -1.1337e-06 -2.17358e-05
0.00215265 -0.000579398 5.55031e-06
-0.000579398 0.000297672 2.67815e-06
5.55031e-06 2.67815e-06 2.25119e-05
0.000905764 -0.000276795 -1.51668e-05
-0.000276795 -8.13859e-06 7.41206e-06
-1.51668e-05 7.41206e-06 -0.00023549
0.00162691 -0.000509706 -1.29542e-07
-0.000509706 0.000263681 7.57257e-07
-1.29542e-07 7.57257e-07 -6.19346e-05
0.0017757 -0.000614161 3.55999e-06
-0.000614161 0.000243953 2.03254e-06
3.55999e-06 2.03254e-06 -0.000109284
0.000241919 -0.000187971 -1.93105e-05
-0.000187971 -0.000232099 1.96644e-05
-1.93105e-05 1.96644e-05 -0.000360712
0.000792805 -0.000257175 7.85344e-07
-0.000257175 1.70506e-05 3.02753e-07
7.85344e-07 3.02753e-07 -0.000209588
0.00124341 -0.000458085 1.09091e-05
-0.000458085 0.000167941 -1.84406e-06
1.09091e-05 -1.84406e-06 -0.000155823
0.00617584 0.000100074 -0.000217788
0.000100074 0.00357879 1.35843e-05
-0.000217788 1.35843e-05 0.00357669
0.000379893 -0.000190005 -1.17356e-06
-0.000190005 -0.000126823 -8.89937e-08
-1.17356e-06 -8.89937e-08 -0.000246583
0.000626998 -0.000226534 9.80108e-06
-0.000226534 -6.84123e-06 -5.86453e-06
9.80108e-06 -5.86453e-06 -0.000230065
0.00555449 0.00012307 -3.80553e-06
0.00012307 0.00321135 -1.46776e-06
-3.80553e-06 -1.46776e-06 0.00320311
0.00041969 -0.000146053 1.94299e-05
-0.000146053 -8.15252e-05 -1.70616e-05
1.94299e-05 -1.70616e-05 -0.000188836
0.00489081 0.000115103 0.000175288
0.000115103 0.00279915 -1.56219e-05
0.000175288 -1.56219e-05 0.00279419
0.00166323 0.000595369 -4.10937e-06
0.000595369 0.000433641 3.18986e-06
-4.10937e-06 3.18986e-06 5.12611e-05
0.0017586 0.000534548 -1.22504e-06
0.000534548 0.000620329 -1.42387e-06
-1.22504e-06 -1.42387e-06 0.000259119
0.000770344 0.000312057 -1.41841e-06
0.000312057 2.15666e-05 -3.05468e-06
-1.41841e-06 -3.05468e-06 -0.000245702
0.000918734 0.00029789 -8.45906e-06
0.00029789 0.000210446 -3.05695e-06
-8.45906e-06 -3.05695e-06 -2.18687e-05
0.00011719 0.000158145 2.23346e-06
0.000158145 -0.000254307 -1.82945e-07
2.23346e-06 -1.82945e-07 -0.000467153
0.00108248 0.000258579 -2.00594e-06
0.000258579 0.00038553 -6.45673e-06
-2.00594e-06 -6.45673e-06 0.000155058
-4.97907e-05 6.4211e-05 -7.17145e-07
6.4211e-05 -0.000311819 3.4969e-06
-7.17145e-07 3.4969e-06 -0.000517109
0.000682656 0.000124691 8.00825e-07
0.000124691 0.000144851 -3.27568e-07
8.00825e-07 -3.27568e-07 -4.25176e-05
0.000757545 7.10645e-05 -1.4115e-05
7.10645e-05 0.000149632 -1.72456e-05
-1.4115e-05 -1.72456e-05 7.41852e-05
0.000390912 5.66106e-05 -3.04273e-06
5.66106e-05 -3.18495e-05 1.00625e-05
-3.04273e-06 1.00625e-05 -0.000183472
0.000518999 4.55747e-05 3.83458e-07
4.55747e-05 1.60249e-05 -3.16072e-07
3.83458e-07 -3.16072e-07 -4.27345e-05
0.00384343 -0.000127269 -0.000112304
-0.000127269 0.00213299 -8.76315e-06
-0.000112304 -8.76315e-06 0.00212992
0.00322105 -0.000126618 -1.03633e-05
-0.000126618 0.00173123 9.26638e-07
-1.03633e-05 9.26638e-07 0.00172894
0.000353677 3.87569e-05 5.30368e-06
3.87569e-05 -8.44181e-05 1.18985e-05
5.30368e-06 1.18985e-05 -0.000131139
0.0028207 -0.000106181 4.52548e-05
-0.000106181 0.00146761 4.90576e-06
4.52548e-05 4.90576e-06 0.00147014
0.00399594 0.000163152 9.03527e-05
0.000163152 -0.00125399 2.84116e-05
9.03527e-05 2.84116e-05 0.000226254
0.00519879 -0.000933188 0.000176494
-0.000933188 -0.00437167 8.24905e-05
0.000176494 8.24905e-05 -0.00527463
0.0126814 -0.0031478 -0.000226692
-0.0031478 0.00510643 -0.000100874
-0.000226692 -0.000100874 0.00379397
0.00144322 0.000628936 7.56321e-06
0.000628936 5.64777e-05 9.00868e-06
7.56321e-06 9.00868e-06 -0.000292097
0.00467083 0.000845664 -1.21881e-05
0.000845664 0.00255169 1.61335e-06
-1.21881e-05 1.61335e-06 0.00208013
0.000710786 0.000502636 -8.41095e-06
0.000502636 -1.16073e-06 -5.74497e-06
-8.41095e-06 -5.74497e-06 -0.000404004
0.00146299 0.00069105 1.69267e-06
0.00069105 0.000417078 -2.03034e-06
1.69267e-06 -2.03034e-06 1.77022e-05
0.00166317 0.000673021 -1.71043e-06
0.000673021 0.000406155 3.76533e-06
-1.71043e-06 3.76533e-06 -1.61981e-05
0.00163722 0.000751852 2.49232e-05
0.000751852 0.000324581 1.37438e-05
2.49232e-05 1.37438e-05 -4.19969e-05
0.00257035 0.000852498 -4.17404e-05
0.000852498 0.00102946 -1.54602e-06
-4.17404e-05 -1.54602e-06 0.000618608
0.000607213 0.000631704 1.80591e-05
0.000631704 -7.15259e-05 -3.54173e-05
1.80591e-05 -3.54173e-05 -0.000347296
0.00195055 0.000853181 1.15232e-06
0.000853181 0.000465949 -2.20156e-06
1.15232e-06 -2.20156e-06 0.000154925
0.00213159 0.000885306 8.91229e-06
0.000885306 0.00030206 -2.55752e-07
8.91229e-06 -2.55752e-07 0.000242276
0.00213228 0.000900212 1.48139e-05
0.000900212 0.000281641 -2.309e-06
1.48139e-05 -2.309e-06 -3.08701e-05
0.00183629 0.00077623 2.3419e-05
0.00077623 0.000211508 2.14098e-05
2.3419e-05 2.14098e-05 1.74967e-05
0.000891942 0.000831425 -5.79375e-06
0.000831425 -0.00023478 -6.12144e-06
-5.79375e-06 -6.12144e-06 -0.000506376
0.000500199 0.000757768 -1.76786e-05
0.000757768 -0.000500052 -2.52044e-05
-1.76786e-05 -2.52044e-05 -0.000563085
0.00120941 0.000776122 5.27546e-05
0.000776122 -0.00113059 3.66152e-05
5.27546e-05 3.66152e-05 -0.000771271
0.00611739 0.0018109 -9.23256e-05
0.0018109 -0.00121542 -2.76109e-05
-9.23256e-05 -2.76109e-05 0.000209451
0.00420811 0.00201381 0.000559682
0.00201381 -0.00447064 0.000117586
0.000559682 0.000117586 -0.00617122
0.00207071 0.00200751 -0.000168908
0.00200751 -0.000785089 -6.59644e-05
-0.000168908 -6.59644e-05 -7.12546e-05
0.00459926 0.00178014 -3.07126e-05
0.00178014 0.00081098 -9.38928e-06
-3.07126e-05 -9.38928e-06 0.00064036
0.00509676 0.0016856 -0.000148966
0.0016856 0.00162667 -3.55933e-05
-0.000148966 -3.55933e-05 0.0012721
0.00242645 -0.000243919 -6.20768e-05
-0.000243919 -0.000738662 -2.00982e-05
-6.20768e-05 -2.00982e-05 -0.000371711
-0.0005395 -0.000292961 8.67684e-05
-0.000292961 -0.00124286 1.85169e-05
8.67684e-05 1.85169e-05 -0.000347455
0.00330225 0.000813084 0.000217843
0.000813084 -0.00505747 -1.81202e-05
0.000217843 -1.81202e-05 -0.00526295
0.000398228 -0.000779015 -4.96629e-05
-0.000779015 -0.00132488 7.49531e-05
-4.96629e-05 7.49531e-05 -0.00103977
0.00672789 -0.000817157 -0.000166647
-0.000817157 0.000431565 4.70345e-05
-0.000166647 4.70345e-05 0.000777534
0.00255367 -0.000652677 -1.8743e-05
-0.000652677 -0.000460786 1.19568e-05
-1.8743e-05 1.19568e-05 -4.29473e-05
0.00431029 -0.000466105 -8.39689e-06
-0.000466105 0.000553054 -3.07643e-06
-8.39689e-06 -3.07643e-06 0.000713085
0.00276958 -0.000374907 6.34449e-05
-0.000374907 -8.18743e-05 -8.00488e-06
6.34449e-05 -8.00488e-06 0.000267518
0.00378456 -0.000109127 4.90971e-05
-0.000109127 0.00113695 1.6707e-06
4.90971e-05 1.6707e-06 0.0011499
0.00042646 -0.000527019 -2.31949e-05
-0.000527019 -0.00115012 1.35092e-05
-2.31949e-05 1.35092e-05 -0.000882519
0.00216321 -0.000518718 -2.53e-06
-0.000518718 -0.000357582 1.77235e-06
-2.53e-06 1.77235e-06 -9.24519e-05
0.00242339 -0.000440948 5.07654e-06
-0.000440948 -0.000184976 -1.61359e-06
5.07654e-06 -1.61359e-06 3.18869e-05
0.00227818 -0.000623218 -2.37494e-06
-0.000623218 -6.51408e-05 4.09473e-06
-2.37494e-06 4.09473e-06 -9.64881e-05
0.00236772 -0.000542889 2.28213e-08
-0.000542889 2.2865e-05 -3.31009e-07
2.28213e-08 -3.31009e-07 3.30896e-05
0.00228607 -0.00043056 -4.41481e-07
-0.00043056 -1.57688e-05 -2.98051e-07
-4.41481e-07 -2.98051e-07 -2.45858e-06
0.00216588 -0.000540125 -2.24818e-07
-0.000540125 4.95804e-05 1.08914e-06
-2.24818e-07 1.08914e-06 -2.23525e-05
0.00220756 -0.00049709 -8.93767e-07
-0.00049709 5.87432e-05 8.33652e-08
-8.93767e-07 8.33652e-08 -4.89034e-06
0.00211317 -0.00042244 -1.43982e-06
-0.00042244 7.32186e-05 8.87527e-07
-1.43982e-06 8.87527e-07 -7.92287e-06
0.00209116 -0.000521549 7.34411e-07
-0.000521549 0.000125597 -9.53276e-07
7.34411e-07 -9.53276e-07 -3.74166e-06
0.00204247 -0.000476144 1.01942e-06
-0.000476144 0.000109687 -5.21425e-07
1.01942e-06 -5.21425e-07 -2.3971e-05
0.00202008 -0.000439937 -5.75914e-07
-0.000439937 0.000134449 -4.38602e-07
-5.75914e-07 -4.38602e-07 -1.53481e-05
0.00204351 -0.000460351 -1.40792e-06
-0.000460351 0.000188016 1.88738e-06
-1.40792e-06 1.88738e-06 3.00448e-05
0.00214525 -0.00047036 -1.78067e-06
-0.00047036 0.000258199 6.76723e-07
-1.78067e-06 6.76723e-07 8.31162e-05
0.0021581 -0.00046241 -9.90573e-07
-0.00046241 0.000291225 -2.11532e-06
-9.90573e-07 -2.11532e-06 9.21832e-05
0.00206168 -0.000496005 2.86513e-06
-0.000496005 0.000220158 2.94106e-06
2.86513e-06 2.94106e-06 8.50291e-06
0.00206657 -0.000488278 4.18219e-07
-0.000488278 0.000273249 -4.45709e-07
4.18219e-07 -4.45709e-07 4.21383e-05
0.00182812 -0.000423926 -6.23627e-06
-0.000423926 0.000234018 1.8831e-07
-6.23627e-06 1.8831e-07 -1.4608e-05
0.00107031 -0.000285886 -1.82881e-05
-0.000285886 2.30876e-05 8.00831e-06
-1.82881e-05 8.00831e-06 -0.000200861
0.00170313 -0.000469357 -1.13977e-06
-0.000469357 0.000207692 -4.46309e-07
-1.13977e-06 -4.46309e-07 -7.94733e-05
0.00191836 -0.000544913 3.25259e-06
-0.000544913 0.000218347 1.50285e-06
3.25259e-06 1.50285e-06 -7.23047e-05
0.000385554 -0.000232368 -2.25933e-05
-0.000232368 -0.000153645 1.90076e-05
-2.25933e-05 1.90076e-05 -0.000298313
0.000898741 -0.000280501 1.18196e-06
-0.000280501 -2.16046e-05 -1.41331e-07
1.18196e-06 -1.41331e-07 -0.000251001
0.00165472 -0.000506914 9.38648e-06
-0.000506914 0.000285977 -4.37565e-07
9.38648e-06 -4.37565e-07 -3.69131e-05
0.00682295 5.48195e-05 -0.000260799
5.48195e-05 0.00396075 1.81322e-05
-0.000260799 1.81322e-05 0.00396463
0.000456295 -0.000242655 -1.44301e-06
-0.000242655 -9.17087e-05 7.44047e-07
-1.44301e-06 7.44047e-07 -0.000231335
0.000758367 -0.000265627 1.28873e-05
-0.000265627 -8.19662e-06 -6.72703e-06
1.28873e-05 -6.72703e-06 -0.000239568
0.00636541 8.30144e-05 -5.21017e-06
8.30144e-05 0.00370017 -3.05518e-07
-5.21017e-06 -3.05518e-07 0.00369698
0.000588493 -0.000233353 2.60633e-05
-0.000233353 1.50251e-06 -1.94918e-05
2.60633e-05 -1.94918e-05 -0.000121034
0.00583272 0.000138619 0.000203891
0.000138619 0.00340711 -2.45691e-05
0.000203891 -2.45691e-05 0.00338728
0.00157909 0.000578744 -6.39185e-07
0.000578744 0.000202268 5.53933e-06
-6.39185e-07 5.53933e-06 -0.000146113
0.00168173 0.000604147 -1.93783e-06
0.000604147 0.000434642 3.21166e-07
-1.93783e-06 3.21166e-07 4.74702e-05
0.00123873 0.000428129 -7.60129e-06
0.000428129 0.000194412 -7.12599e-07
-7.60129e-06 -7.12599e-07 -0.000108686
0.0015049 0.000506632 -1.62074e-06
0.000506632 0.000437161 -3.44206e-07
-1.62074e-06 -3.44206e-07 8.86151e-05
0.000921298 0.000312146 -3.60634e-06
0.000312146 0.000115836 -2.09637e-06
-3.60634e-06 -2.09637e-06 -0.000146394
0.00133136 0.000263668 -8.67147e-06
0.000263668 0.000469601 -2.26067e-06
-8.67147e-06 -2.26067e-06 0.000237773
-0.000233204 0.000112653 -3.36887e-06
0.000112653 -0.000486367 -1.96649e-06
-3.36887e-06 -1.96649e-06 -0.000691682
0.000871606 0.000165621 -1.03726e-06
0.000165621 0.000236703 -6.6416e-07
-1.03726e-06 -6.6416e-07 2.06037e-05
0.000569737 0.000116102 -2.19574e-05
0.000116102 1.03587e-05 -1.80338e-05
-2.19574e-05 -1.80338e-05 -7.86926e-05
0.000328797 9.28094e-05 7.08893e-07
9.28094e-05 -8.69854e-05 1.0145e-05
7.08893e-07 1.0145e-05 -0.000260173
0.000425311 6.5629e-05 -5.36024e-07
6.5629e-05 -5.16842e-05 -3.47625e-07
-5.36024e-07 -3.47625e-07 -0.000122766
0.0044208 -0.000150206 -0.000133138
-0.000150206 0.00251128 -1.19202e-05
-0.000133138 -1.19202e-05 0.00249932
0.000249218 4.93221e-05 7.76228e-06
4.93221e-05 -0.000147262 1.4917e-05
7.76228e-06 1.4917e-05 -0.000204973
0.00369409 -0.000146875 -1.0562e-05
-0.000146875 0.00204332 1.06983e-06
-1.0562e-05 1.06983e-06 0.00203491
0.00308526 -0.000131161 5.35172e-05
-0.000131161 0.00164595 5.18749e-06
5.35172e-05 5.18749e-06 0.00164185
0.000531426 0.000152233 -2.00255e-06
0.000152233 -0.00181313 9.93477e-06
-2.00255e-06 9.93477e-06 -0.00111389
0.00509255 4.51056e-05 6.63128e-05
4.51056e-05 -0.000683896 1.8266e-05
6.63128e-05 1.8266e-05 0.000676563
0.0142449 0.00082559 -2.15593e-05
0.00082559 0.00224106 1.29537e-05
-2.15593e-05 1.29537e-05 0.00200919
0.00193463 0.000747466 7.49385e-07
0.000747466 0.000322219 5.30589e-06
7.49385e-07 5.30589e-06 -2.17393e-05
0.00216593 0.0007216 -9.20517e-07
0.0007216 0.000297648 3.72838e-06
-9.20517e-07 3.72838e-06 -1.15881e-05
0.0015189 0.00064065 -4.26238e-07
0.00064065 0.00011357 -3.5688e-06
-4.26238e-07 -3.5688e-06 -0.000233901
0.0028617 0.00086248 -1.32385e-05
0.00086248 0.00124157 3.35782e-06
-1.32385e-05 3.35782e-06 0.000809265
0.0019359 0.000702357 -7.15248e-06
0.000702357 0.00059685 -1.00438e-05
-7.15248e-06 -1.00438e-05 0.000161082
0.00199374 0.000809697 7.38865e-06
0.000809697 0.000493299 3.25601e-06
7.38865e-06 3.25601e-06 0.000124912
0.00192412 0.000814236 -1.38032e-06
0.000814236 0.000110521 -3.39079e-06
-1.38032e-06 -3.39079e-06 -0.000194003
0.00250307 0.000936648 -1.99717e-05
0.000936648 0.000730277 5.27363e-06
-1.99717e-05 5.27363e-06 0.000408646
0.00101891 0.000772677 -1.24329e-05
0.000772677 -0.000403768 1.20874e-05
-1.24329e-05 1.20874e-05 -0.00033903
0.00271423 0.000963511 9.30803e-07
0.000963511 0.000622034 3.74368e-06
9.30803e-07 3.74368e-06 0.00029642
0.00265488 0.000828325 -4.14503e-06
0.000828325 0.000393253 3.41908e-06
-4.14503e-06 3.41908e-06 0.000159503
0.00128462 0.000406133 3.74419e-05
0.000406133 -0.000287603 1.83048e-05
3.74419e-05 1.83048e-05 -0.000232473
0.000404955 0.000644171 9.37125e-06
0.000644171 -0.000538641 -4.21724e-06
9.37125e-06 -4.21724e-06 -0.000716631
0.000938178 0.00083366 -3.59812e-05
0.00083366 -0.000207659 -3.86768e-06
-3.59812e-05 -3.86768e-06 -0.000482626
0.00300158 0.000919796 6.30922e-06
0.000919796 -0.000157748 8.07197e-06
6.30922e-06 8.07197e-06 6.5657e-05
0.0070616 0.001424 -2.50302e-05
0.001424 -0.000725934 -4.13693e-05
-2.50302e-05 -4.13693e-05 0.000340544
0.004304 0.00149012 -4.38343e-05
0.00149012 0.00106178 -5.44872e-05
-4.38343e-05 -5.44872e-05 0.000965623
0.00194343 -8.3789e-05 3.62789e-05
-8.3789e-05 -0.000140772 3.36144e-06
3.62789e-05 3.36144e-06 2.68762e-05
0.00282185 -0.000239468 -5.83136e-05
-0.000239468 -0.000445144 3.50662e-06
-5.83136e-05 3.50662e-06 -5.82002e-05
0.00388265 0.000372376 2.13334e-05
0.000372376 -0.000258199 -1.72507e-05
2.13334e-05 -1.72507e-05 0.000375263
0.000967823 -0.000557555 -7.05753e-05
-0.000557555 -0.00127655 5.19817e-05
-7.05753e-05 5.19817e-05 -0.000850212
0.00270647 -0.000516105 -9.96291e-05
-0.000516105 -0.000360384 -2.70234e-06
-9.96291e-05 -2.70234e-06 -0.00024926
0.00267344 -0.000374954 8.6076e-06
-0.000374954 -4.77857e-05 -3.37329e-06
8.6076e-06 -3.37329e-06 0.000297651
0.00251204 -0.000103583 -1.61605e-05
-0.000103583 0.000296811 7.65972e-07
-1.61605e-05 7.65972e-07 0.000332013
0.00245236 -0.000244242 1.51992e-05
-0.000244242 -2.67965e-05 -4.78468e-07
1.51992e-05 -4.78468e-07 0.000115107
0.00239759 4.86284e-06 1.12948e-05
4.86284e-06 -2.20446e-05 2.91875e-06
1.12948e-05 2.91875e-06 3.99903e-05
0.00208051 -0.000542991 -1.80483e-05
-0.000542991 -0.000437522 5.68999e-06
-1.80483e-05 5.68999e-06 -0.000182881
0.00244041 -0.000456049 -2.69618e-06
-0.000456049 -0.00017058 6.56883e-07
-2.69618e-06 6.56883e-07 9.65078e-06
0.00235996 -0.000317282 5.64675e-07
-0.000317282 -9.10555e-05 -1.15299e-06
5.64675e-07 -1.15299e-06 3.20768e-06
0.00234569 -0.000532351 -4.01922e-06
-0.000532351 2.45529e-05 1.09877e-06
-4.01922e-06 1.09877e-06 3.8599e-05
0.002288 -0.000427522 -6.40606e-08
-0.000427522 -1.57119e-06 -1.40487e-07
-6.40606e-08 -1.40487e-07 6.96117e-06
0.00218729 -0.000355032 -5.3869e-07
-0.000355032 1.28229e-05 3.91404e-07
-5.3869e-07 3.91404e-07 -3.44823e-06
0.00220071 -0.000502617 -4.45283e-07
-0.000502617 6.47531e-05 -6.94387e-07
-4.45283e-07 -6.94387e-07 1.34403e-08
0.00211505 -0.000421725 5.09882e-07
-0.000421725 7.03633e-05 -1.5002e-07
5.09882e-07 -1.5002e-07 -1.05898e-05
0.00207107 -0.000385739 -1.9257e-06
-0.000385739 0.000103402 6.33175e-07
-1.9257e-06 6.33175e-07 -4.46928e-06
0.00203145 -0.0004765 2.19312e-06
-0.0004765 9.95183e-05 -1.29458e-06
2.19312e-06 -1.29458e-06 -3.46988e-05
0.0020131 -0.000439052 5.9965e-07
-0.000439052 0.000126558 -5.11468e-07
5.9965e-07 -5.11468e-07 -2.35528e-05
0.00202187 -0.000413801 -7.08562e-07
-0.000413801 0.000163821 -1.45776e-06
-7.08562e-07 -1.45776e-06 -5.39522e-06
0.00212059 -0.000466854 -8.45276e-07
-0.000466854 0.000235652 2.57581e-06
-8.45276e-07 2.57581e-06 6.43371e-05
0.00212068 -0.000460865 -5.13634e-07
-0.000460865 0.000269327 -1.99322e-07
-5.13634e-07 -1.99322e-07 7.11527e-05
0.00180868 -0.000390065 -4.32316e-06
-0.000390065 0.000176439 1.04805e-07
-4.32316e-06 1.04805e-07 -4.72551e-05
0.00208043 -0.000491157 2.57455e-06
-0.000491157 0.000282076 2.34138e-06
2.57455e-06 2.34138e-06 5.1191e-05
0.00187516 -0.000429193 -8.51696e-07
-0.000429193 0.000263364 1.23444e-08
-8.51696e-07 1.23444e-08 1.54548e-05
0.00108463 -0.000260806 -1.75313e-05
-0.000260806 -3.23888e-06 7.40798e-06
-1.75313e-05 7.40798e-06 -0.000214079
0.000329979 -0.000202811 -1.99522e-05
-0.000202811 -0.000208174 1.73359e-05
-1.99522e-05 1.73359e-05 -0.000344419
0.00102973 -0.000284619 8.1885e-07
-0.000284619 -4.0334e-06 4.68275e-09
8.1885e-07 4.68275e-09 -0.000228401
0.00170213 -0.000467269 6.85558e-06
-0.000467269 0.000215196 -6.78087e-07
6.85558e-06 -6.78087e-07 -7.3969e-05
0.00719781 -2.89572e-05 -0.000299082
-2.89572e-05 0.00417005 2.22327e-05
-0.000299082 2.22327e-05 0.00418251
0.000362763 -0.000228556 -9.28397e-07
-0.000228556 -0.000176993 1.35236e-06
-9.28397e-07 1.35236e-06 -0.000316324
0.000888573 -0.000282218 1.4546e-05
-0.000282218 -3.59637e-05 -6.50111e-06
1.4546e-05 -6.50111e-06 -0.000267189
0.00702039 2.48147e-05 -8.95129e-07
2.48147e-05 0.00408177 5.71852e-07
-8.95129e-07 5.71852e-07 0.00408676
0.000493458 -0.000243729 2.45736e-05
-0.000243729 -7.42346e-05 -2.00367e-05
2.45736e-05 -2.00367e-05 -0.000213791
0.00667784 4.87182e-05 0.000264565
4.87182e-05 0.00388715 -2.39697e-05
0.000264565 -2.39697e-05 0.00388805
0.0018572 0.0006367 -8.57389e-07
0.0006367 0.000226822 5.83173e-06
-8.57389e-07 5.83173e-06 -9.45977e-05
0.00163114 0.00058979 -9.07888e-08
0.00058979 0.000238286 8.37065e-07
-9.07888e-08 8.37065e-07 -0.00011055
0.00150993 0.000482603 -8.54466e-06
0.000482603 0.000254008 2.13228e-08
-8.54466e-06 2.13228e-08 -5.78427e-05
0.00152411 0.000591425 3.73741e-07
0.000591425 0.000329936 -2.3065e-06
3.73741e-07 -2.3065e-06 -5.66209e-05
0.00127958 0.000426156 -1.52247e-06
0.000426156 0.000227206 -4.72971e-08
-1.52247e-06 -4.72971e-08 -7.3814e-05
0.000992078 0.000244162 -1.1871e-05
0.000244162 0.000168156 -4.2873e-06
-1.1871e-05 -4.2873e-06 -4.80121e-05
0.00122736 0.000324885 8.0845e-07
0.000324885 0.000311191 -1.75118e-06
8.0845e-07 -1.75118e-06 5.09417e-05
0.00054441 0.00020281 5.59392e-07
0.00020281 -2.10752e-05 1.64361e-06
5.59392e-07 1.64361e-06 -0.000245065
0.000421026 0.000188687 -2.77799e-05
0.000188687 -9.80987e-05 -1.87717e-05
-2.77799e-05 -1.87717e-05 -0.000204516
9.67252e-05 0.000103073 8.09567e-07
0.000103073 -0.000235846 5.67597e-06
8.09567e-07 5.67597e-06 -0.000454032
0.000554923 0.000100658 -9.92271e-07
0.000100658 6.11774e-06 -5.00661e-07
-9.92271e-07 -5.00661e-07 -8.08595e-05
0.00538469 -0.000165073 -0.000176741
-0.000165073 0.00313242 -1.69177e-05
-0.000176741 -1.69177e-05 0.00311223
0.000356456 6.39816e-05 1.20149e-05
6.39816e-05 -8.9928e-05 1.78044e-05
1.20149e-05 1.78044e-05 -0.00015953
0.00431076 -0.000172632 -1.04267e-05
-0.000172632 0.00244759 1.21934e-06
-1.04267e-05 1.21934e-06 0.00243041
0.00355099 -0.000157988 7.3289e-05
-0.000157988 0.00195551 6.19708e-06
7.3289e-05 6.19708e-06 0.0019435
0.00146516 0.000169563 3.05635e-05
0.000169563 -0.000332344 1.88762e-05
3.05635e-05 1.88762e-05 -0.000108939
0.00267591 0.000202752 -1.93203e-05
0.000202752 -0.000961409 -2.5297e-06
-1.93203e-05 -2.5297e-06 -0.000202724
0.00415905 0.000294442 0.000217897
0.000294442 -0.00167642 6.42665e-05
0.000217897 6.42665e-05 0.000168829
0.00262854 0.000778691 -8.47938e-06
0.000778691 0.00053065 1.20638e-07
-8.47938e-06 1.20638e-07 0.000232973
0.001764 0.000751244 -6.08362e-06
0.000751244 0.000202278 -4.72801e-06
-6.08362e-06 -4.72801e-06 -0.000137345
0.00218267 0.000583561 8.33562e-07
0.000583561 0.000179794 4.62272e-06
8.33562e-07 4.62272e-06 -4.63771e-05
0.00216233 0.000711209 1.36107e-06
0.000711209 0.000297658 4.53703e-07
1.36107e-06 4.53703e-07 -8.62273e-06
0.00153444 0.000646074 1.96067e-06
0.000646074 0.000132709 -1.13321e-05
1.96067e-06 -1.13321e-05 -0.000212327
0.00211379 0.000635997 -2.41148e-06
0.000635997 4.19401e-05 8.41562e-07
-2.41148e-06 8.41562e-07 -0.000161458
0.00279541 0.00092099 -1.01872e-05
0.00092099 0.000924514 -4.02733e-06
-1.01872e-05 -4.02733e-06 0.00054094
0.00240633 0.000845397 4.31981e-07
0.000845397 0.000399948 5.66879e-08
4.31981e-07 5.66879e-08 8.4375e-05
0.00207268 0.000428168 -1.27504e-05
0.000428168 -0.000152598 -9.94778e-07
-1.27504e-05 -9.94778e-07 -0.000155301
0.00349899 0.00105995 -6.01485e-06
0.00105995 0.0010551 6.28731e-06
-6.01485e-06 6.28731e-06 0.000715517
0.00250924 0.00081742 4.57824e-07
0.00081742 0.00031007 -6.28997e-07
4.57824e-07 -6.28997e-07 7.36611e-05
0.000672672 0.000392716 -3.13612e-07
0.000392716 -0.000620577 1.60495e-06
-3.13612e-07 1.60495e-06 -0.000556233
-0.00119464 0.000497511 -2.47208e-05
0.000497511 -0.00136834 -9.80754e-06
-2.47208e-05 -9.80754e-06 -0.00151824
0.00381626 0.00103555 -0.000125219
0.00103555 0.00025219 -4.10906e-05
-0.000125219 -4.10906e-05 0.000363168
0.00215699 9.99841e-05 -1.15211e-06
9.99841e-05 -0.000193701 -1.90361e-07
-1.15211e-06 -1.90361e-07 -9.49741e-05
0.002679 -8.2405e-05 7.08873e-06
-8.2405e-05 0.000406184 -6.51053e-07
7.08873e-06 -6.51053e-07 0.000518247
0.00278018 -0.000258202 -9.6075e-05
-0.000258202 -0.000423522 5.50652e-06
-9.6075e-05 5.50652e-06 -2.54954e-05
0.00212352 -0.000363325 -7.33233e-05
-0.000363325 -0.000288993 6.71687e-06
-7.33233e-05 6.71687e-06 5.2398e-05
0.0012885 -0.000112395 -1.46857e-05
-0.000112395 -0.000507674 9.61712e-07
-1.46857e-05 9.61712e-07 -0.000451785
0.00245724 -0.000248637 1.48201e-06
-0.000248637 -4.48918e-05 -1.92214e-06
1.48201e-06 -1.92214e-06 0.000120527
0.00241611 7.80892e-06 -3.10239e-06
7.80892e-06 -4.08267e-05 7.8527e-07
-3.10239e-06 7.8527e-07 2.52068e-05
0.00239567 -7.75361e-05 1.03486e-06
-7.75361e-05 -7.80275e-05 -7.93974e-07
1.03486e-06 -7.93974e-07 2.06567e-05
0.00245948 -0.000468061 -6.38324e-06
-0.000468061 -0.000147944 1.23717e-06
-6.38324e-06 1.23717e-06 -4.80071e-06
0.00231437 -0.000306052 3.83502e-07
-0.000306052 -0.000100486 -2.47105e-07
3.83502e-07 -2.47105e-07 -1.51018e-05
0.00223754 -0.000235243 5.66966e-07
-0.000235243 -2.5245e-05 -3.06329e-07
5.66966e-07 -3.06329e-07 2.1667e-05
0.00229317 -0.000424813 -4.08784e-07
-0.000424813 1.51827e-05 2.12078e-07
-4.08784e-07 2.12078e-07 1.87726e-05
0.00218211 -0.000351798 8.73606e-08
-0.000351798 1.39101e-05 1.85516e-07
8.73606e-08 1.85516e-07 -3.6725e-06
0.00209065 -0.000300596 -2.78842e-06
-0.000300596 5.28361e-05 7.95877e-07
-2.78842e-06 7.95877e-07 2.58342e-06
0.00211555 -0.000420888 1.96545e-06
-0.000420888 6.63992e-05 -1.05164e-06
1.96545e-06 -1.05164e-06 -1.43543e-05
0.00206093 -0.000384011 6.66983e-07
-0.000384011 9.42953e-05 -2.389e-07
6.66983e-07 -2.389e-07 -1.35738e-05
0.00204788 -0.000354663 -1.21126e-06
-0.000354663 0.000140379 -8.29307e-07
-1.21126e-06 -8.29307e-07 6.21669e-06
0.00200536 -0.000438219 1.5413e-06
-0.000438219 0.000118054 -4.67e-07
1.5413e-06 -4.67e-07 -3.23849e-05
0.00205985 -0.00041606 -3.13939e-07
-0.00041606 0.000188877 -1.30091e-07
-3.13939e-07 -1.30091e-07 1.90998e-05
0.00186636 -0.000354032 -2.3289e-06
-0.000354032 0.000167295 -2.78072e-07
-2.3289e-06 -2.78072e-07 -3.0812e-05
0.00208205 -0.000459097 5.80515e-07
-0.000459097 0.000246579 1.76015e-06
5.80515e-07 1.76015e-06 4.93536e-05
0.00184069 -0.00039216 -5.94941e-07
-0.00039216 0.000197299 1.17794e-07
-5.94941e-07 1.17794e-07 -2.62639e-05
0.00108878 -0.000231086 -1.48535e-05
-0.000231086 -2.30534e-05 6.38961e-06
-1.48535e-05 6.38961e-06 -0.000220292
0.00191393 -0.000433832 5.42407e-06
-0.000433832 0.000287309 1.41717e-08
5.42407e-06 1.41717e-08 4.02207e-05
0.00109789 -0.000260765 2.03317e-07
-0.000260765 1.4431e-06 8.08049e-08
2.03317e-07 8.08049e-08 -0.000208636
0.00275499 -0.000184508 -4.98833e-05
-0.000184508 0.00129398 1.23569e-05
-4.98833e-05 1.23569e-05 0.00118869
0.00231692 -0.000106177 -0.000265087
-0.000106177 0.00110364 3.6038e-05
-0.000265087 3.6038e-05 0.00108477
0.00158549 -0.000208636 -1.36035e-05
-0.000208636 0.000573391 -1.36939e-08
-1.36035e-05 -1.36939e-08 0.000448099
0.00101511 -0.000284316 1.73222e-05
-0.000284316 -1.37475e-05 -6.90878e-06
1.73222e-05 -6.90878e-06 -0.000238412
0.00723911 -4.79639e-05 -7.83592e-06
-4.79639e-05 0.00420371 1.34588e-06
-7.83592e-06 1.34588e-06 0.00421299
0.000348711 -0.000256333 2.51436e-05
-0.000256333 -0.000184904 -1.86842e-05
2.51436e-05 -1.86842e-05 -0.000326987
0.00717024 1.29698e-06 0.000293928
1.29698e-06 0.00418018 -2.84297e-05
0.000293928 -2.84297e-05 0.00418252
0.00215467 0.000448781 8.12919e-08
0.000448781 0.000157978 7.82125e-07
8.12919e-08 7.82125e-07 -1.04107e-05
0.0021275 0.000587886 3.02535e-06
0.000587886 0.00028714 5.52285e-06
3.02535e-06 5.52285e-06 2.60185e-05
0.00211801 0.000657603 3.1263e-07
0.000657603 0.000382055 1.98514e-07
3.1263e-07 1.98514e-07 6.0698e-05
0.00174755 0.000516133 -8.2531e-06
0.000516133 0.00028806 1.26811e-06
-8.2531e-06 1.26811e-06 -1.56922e-05
0.00171959 0.000606338 3.89183e-06
0.000606338 0.000293809 -3.51373e-06
3.89183e-06 -3.51373e-06 -5.70858e-05
0.00151197 0.000487047 -1.15036e-07
0.000487047 0.000245888 5.86627e-07
-1.15036e-07 5.86627e-07 -6.87056e-05
0.000839142 0.000269989 -1.42178e-05
0.000269989 -2.07285e-05 -5.66286e-06
-1.42178e-05 -5.66286e-06 -0.000239072
0.00128011 0.000421127 7.98575e-06
0.000421127 0.000233054 2.44807e-06
7.98575e-06 2.44807e-06 -6.53436e-05
0.000653782 0.000222235 1.17814e-06
0.000222235 -4.29343e-05 2.23581e-08
1.17814e-06 2.23581e-08 -0.000253132
0.000524491 0.000259237 -2.88316e-05
0.000259237 -4.68642e-05 -1.95774e-05
-2.88316e-05 -1.95774e-05 -0.000173832
0.000249503 0.000171963 4.68937e-06
0.000171963 -0.000216999 3.08411e-06
4.68937e-06 3.08411e-06 -0.000431608
0.000501635 0.000170833 1.26334e-06
0.000170833 -5.27189e-05 -8.68928e-07
1.26334e-06 -8.68928e-07 -0.000154943
0.00632558 -0.000134762 -0.000225692
-0.000134762 0.00371104 -2.29425e-05
-0.000225692 -2.29425e-05 0.00369117
0.000321193 9.12094e-05 1.79386e-05
9.12094e-05 -0.000135765 1.78659e-05
1.79386e-05 1.78659e-05 -0.00021718
0.00495955 -0.000185135 -6.48133e-06
-0.000185135 0.00286203 -6.48403e-08
-6.48133e-06 -6.48403e-08 0.00283935
0.00413409 -0.000189444 9.52611e-05
-0.000189444 0.00234095 8.52028e-06
9.52611e-05 8.52028e-06 0.00231914
0.00225344 0.000220379 -6.15684e-06
0.000220379 -0.000177949 -1.22573e-06
-6.15684e-06 -1.22573e-06 -5.13723e-05
0.00212184 0.000121448 2.135e-05
0.000121448 -8.41895e-05 -2.90771e-06
2.135e-05 -2.90771e-06 0.000180086
0.00563888 0.000306668 -0.000115857
0.000306668 0.000373971 -2.02922e-06
-0.000115857 -2.02922e-06 0.00117336
0.00220612 0.000536147 -3.29487e-06
0.000536147 0.000139232 1.38982e-06
-3.29487e-06 1.38982e-06 -4.44608e-05
0.0022537 0.000730929 -3.63067e-06
0.000730929 0.000345774 -3.2168e-07
-3.63067e-06 -3.2168e-07 5.598e-05
0.00177055 0.000772683 -5.66543e-06
0.000772683 0.000184858 -1.07963e-05
-5.66543e-06 -1.07963e-05 -0.000153341
0.00229619 0.000577757 3.00826e-06
0.000577757 0.000267045 1.5256e-06
3.00826e-06 1.5256e-06 4.34278e-05
0.00215777 0.000700796 1.40398e-06
0.000700796 0.000297593 -4.72012e-06
1.40398e-06 -4.72012e-06 -5.78457e-06
0.00242552 0.000427365 -1.35539e-07
0.000427365 2.29192e-05 1.76423e-07
-1.35539e-07 1.76423e-07 1.19007e-05
0.00215516 0.000645112 -7.10628e-07
0.000645112 8.27289e-05 2.80199e-07
-7.10628e-07 2.80199e-07 -0.000120467
0.00280337 0.000867095 -6.00027e-06
0.000867095 0.000645611 -2.11719e-06
-6.00027e-06 -2.11719e-06 0.000319129
0.00204387 0.000417933 -2.07753e-08
0.000417933 -0.000148245 -3.0802e-07
-2.07753e-08 -3.0802e-07 -0.000149383
0.00220748 0.000787857 1.2321e-05
0.000787857 0.000130693 3.11208e-06
1.2321e-05 3.11208e-06 -0.000104794
-2.37005e-05 0.000349694 -3.91407e-05
0.000349694 -0.00101243 -2.00854e-05
-3.91407e-05 -2.00854e-05 -0.000933973
0.00239355 8.98048e-05 9.87559e-07
8.98048e-05 -2.86543e-05 3.5924e-07
9.87559e-07 3.5924e-07 4.68183e-05
0.00226253 0.000108658 -1.58541e-06
0.000108658 -0.000115112 2.99565e-07
-1.58541e-06 2.99565e-07 -2.36205e-05
0.00339546 -8.18184e-05 -4.9743e-05
-8.18184e-05 0.000929947 1.60933e-06
-4.9743e-05 1.60933e-06 0.000996478
0.00245054 -0.000248485 -2.37294e-05
-0.000248485 -7.54742e-05 2.26131e-06
-2.37294e-05 2.26131e-06 0.000112606
0.00245494 1.49695e-05 -8.01021e-06
1.49695e-05 -5.21669e-05 -4.72488e-06
-8.01021e-06 -4.72488e-06 1.72548e-05
0.00236454 -8.59107e-05 -2.03778e-07
-8.59107e-05 -0.000112093 1.32223e-07
-2.03778e-07 1.32223e-07 -6.94399e-06
0.00211876 -7.19122e-05 5.30039e-07
-7.19122e-05 -3.26121e-05 1.30568e-07
5.30039e-07 1.30568e-07 2.07022e-06
0.00226819 -0.000294024 -4.11066e-07
-0.000294024 -0.000108802 3.39685e-07
-4.11066e-07 3.39685e-07 -3.25082e-05
0.00219198 -0.000240322 -1.9348e-07
-0.000240322 -4.63037e-05 2.41419e-08
-1.9348e-07 2.41419e-08 -6.11212e-06
0.00206683 -0.000200727 -1.97164e-06
-0.000200727 1.64517e-05 1.75236e-07
-1.97164e-06 1.75236e-07 -1.32505e-06
0.00217838 -0.000348673 7.13974e-07
-0.000348673 1.58339e-05 5.01995e-08
7.13974e-07 5.01995e-08 -3.05539e-06
0.00210051 -0.000301873 3.25739e-07
-0.000301873 5.41582e-05 9.41371e-10
3.25739e-07 9.41371e-10 3.50644e-06
0.00209117 -0.000288624 -2.4888e-06
-0.000288624 0.000123373 -1.40475e-07
-2.4888e-06 -1.40475e-07 2.34918e-05
0.00205068 -0.000382141 2.6543e-06
-0.000382141 8.52284e-05 -9.44685e-07
2.6543e-06 -9.44685e-07 -2.26002e-05
0.00204687 -0.000355142 -2.4231e-07
-0.000355142 0.000136582 -1.06404e-07
-2.4231e-07 -1.06404e-07 1.9882e-06
0.00187873 -0.000304958 -1.75608e-06
-0.000304958 0.000138341 -4.74863e-07
-1.75608e-06 -4.74863e-07 -3.34818e-05
0.00210029 -0.000418504 1.03622e-06
-0.000418504 0.000215559 8.92255e-07
1.03622e-06 8.92255e-07 4.51904e-05
0.00189343 -0.000355909 -4.34152e-07
-0.000355909 0.000184403 4.09819e-08
-4.34152e-07 4.09819e-08 -1.36057e-05
0.00109964 -0.00020634 -1.29994e-05
-0.00020634 -3.62987e-05 4.99967e-06
-1.29994e-05 4.99967e-06 -0.000222924
0.00187348 -0.000394249 3.30799e-06
-0.000394249 0.000218789 -4.75354e-09
3.30799e-06 -4.75354e-09 -4.63393e-06
0.00113102 -0.000232574 -7.29363e-10
-0.000232574 -3.02778e-06 2.07476e-07
-7.29363e-10 2.07476e-07 -0.000199458
0.00276526 -0.000178783 -5.8011e-05
-0.000178783 0.0012917 1.20375e-05
-5.8011e-05 1.20375e-05 0.00119494
0.00112258 -0.000261706 1.70306e-05
-0.000261706 1.34576e-05 -6.98167e-06
1.70306e-05 -6.98167e-06 -0.000196007
0.00290737 -0.000223804 4.9612e-05
-0.000223804 0.00139014 -7.81662e-06
4.9612e-05 -7.81662e-06 0.00129265
0.0022658 -0.000139556 -0.000259797
-0.000139556 0.00107895 4.07157e-05
-0.000259797 4.07157e-05 0.00105749
0.00461815 -0.000119742 -0.000256237
-0.000119742 0.00256482 2.67858e-05
-0.000256237 2.67858e-05 0.00255896
0.00298562 -0.00028179 0.000163659
-0.00028179 0.00145455 -2.63923e-05
0.000163659 -2.63923e-05 0.00135586
0.00728492 -6.11291e-05 0.000305027
-6.11291e-05 0.00424069 -3.25622e-05
0.000305027 -3.25622e-05 0.00424571
0.00231727 0.000443552 -2.06349e-06
0.000443552 0.000244156 -5.33964e-07
-2.06349e-06 -5.33964e-07 0.000100615
0.00193266 0.000454087 1.62012e-06
0.000454087 0.000124729 1.64545e-06
1.62012e-06 1.64545e-06 -7.54004e-05
0.0021454 0.000438751 2.17614e-07
0.000438751 0.000160214 -1.51923e-06
2.17614e-07 -1.51923e-06 -1.16943e-06
0.00188542 0.000489184 -6.10492e-06
0.000489184 0.00025797 1.61215e-06
-6.10492e-06 1.61215e-06 -1.12604e-05
0.00221021 0.000596197 8.10448e-07
0.000596197 0.000324747 3.47683e-07
8.10448e-07 3.47683e-07 6.2283e-05
0.00238989 0.000680549 9.07652e-07
0.000680549 0.000544773 -4.94963e-06
9.07652e-07 -4.94963e-06 0.00022298
0.00170631 0.000516512 2.2524e-07
0.000516512 0.00025491 6.94645e-07
2.2524e-07 6.94645e-07 -5.08464e-05
0.000917882 0.000295232 -1.97082e-05
0.000295232 -6.16429e-05 -6.10598e-06
-1.97082e-05 -6.10598e-06 -0.000286375
0.00149889 0.000489285 9.98455e-06
0.000489285 0.00023008 1.65329e-06
9.98455e-06 1.65329e-06 -8.67875e-05
0.000777563 0.000260919 -9.63488e-07
0.000260919 -5.33074e-05 -3.08668e-07
-9.63488e-07 -3.08668e-07 -0.000267715
0.000435533 0.000260816 -2.63278e-05
0.000260816 -0.000113113 -2.00037e-05
-2.63278e-05 -2.00037e-05 -0.000254137
0.000312708 0.000197964 9.19004e-06
0.000197964 -0.00025139 1.94259e-06
9.19004e-06 1.94259e-06 -0.000455923
0.000319811 0.00021342 3.11806e-06
0.00021342 -0.000174844 3.7445e-07
3.11806e-06 3.7445e-07 -0.000296602
0.00699693 -4.70419e-05 -0.000270858
-4.70419e-05 0.00409854 -2.83805e-05
-0.000270858 -2.83805e-05 0.00408947
0.00038609 0.000130898 2.2944e-05
0.000130898 -0.000123092 1.77695e-05
2.2944e-05 1.77695e-05 -0.000220915
0.0059544 -0.000160077 5.30464e-06
-0.000160077 0.00347579 -2.33915e-06
5.30464e-06 -2.33915e-06 0.00345627
0.00479623 -0.000223969 0.000118111
-0.000223969 0.00277524 1.1403e-05
0.000118111 1.1403e-05 0.00274164
0.00239139 0.000257414 2.58383e-07
0.000257414 -4.05994e-05 6.67285e-07
2.58383e-07 6.67285e-07 3.09743e-05
0.00217977 0.00022642 1.75958e-06
0.00022642 -0.000199245 -5.30103e-08
1.75958e-06 -5.30103e-08 -7.36297e-05
0.00252729 7.97065e-05 -7.68007e-05
7.97065e-05 3.29788e-05 -9.30679e-06
-7.68007e-05 -9.30679e-06 0.000339805
0.0021734 0.000381522 8.12379e-07
0.000381522 7.03759e-06 3.64383e-07
8.12379e-07 3.64383e-07 -5.30906e-05
0.00218917 0.000531318 -8.4792e-07
0.000531318 0.000152098 2.54348e-07
-8.4792e-07 2.54348e-07 -2.91893e-05
0.00180952 0.000675242 6.49496e-06
0.000675242 0.000120848 -2.66941e-06
6.49496e-06 -2.66941e-06 -0.000159502
0.00240712 0.000571561 -4.8209e-07
0.000571561 0.000352987 -2.8196e-06
-4.8209e-07 -2.8196e-06 0.000132063
0.00237342 0.000410739 -9.46506e-07
0.000410739 8.89646e-06 2.61491e-09
-9.46506e-07 2.61491e-09 -9.95473e-07
0.00219649 0.000654819 -2.63036e-06
0.000654819 0.00012267 -8.20789e-08
-2.63036e-06 -8.20789e-08 -8.04979e-05
0.00198765 0.000407835 1.21397e-05
0.000407835 -0.00012842 5.6758e-07
1.21397e-05 5.6758e-07 -0.000129169
0.00218838 6.95432e-05 2.06528e-06
6.95432e-05 -1.45192e-05 4.03341e-07
2.06528e-06 4.03341e-07 1.85723e-05
0.00230893 8.41854e-05 7.06197e-08
8.41854e-05 -6.83488e-05 -1.87791e-08
7.06197e-08 -1.87791e-08 5.72448e-06
0.00234457 0.000123085 -8.37154e-06
0.000123085 -4.71607e-05 -1.57671e-06
-8.37154e-06 -1.57671e-06 3.57256e-05
0.00204652 -1.34052e-05 -2.78957e-06
-1.34052e-05 8.51409e-06 3.61708e-07
-2.78957e-06 3.61708e-07 1.45465e-05
0.00232261 -0.000100636 -6.03854e-07
-0.000100636 -0.000152681 -4.4141e-07
-6.03854e-07 -4.4141e-07 -3.98798e-05
0.00212965 -7.50267e-05 -6.90821e-07
-7.50267e-05 -3.05452e-05 2.32996e-07
-6.90821e-07 2.32996e-07 4.30209e-06
0.00199382 -0.000109688 -3.27919e-06
-0.000109688 -1.67902e-05 3.95448e-07
-3.27919e-06 3.95448e-07 -2.73465e-05
0.00214236 -0.000245031 -1.0095e-08
-0.000245031 -6.99093e-05 2.81677e-07
-1.0095e-08 2.81677e-07 -3.6598e-05
0.00206329 -0.000199131 1.03621e-06
-0.000199131 1.32153e-05 -2.88259e-07
1.03621e-06 -2.88259e-07 -3.9952e-06
0.00209612 -0.000203882 -1.24131e-06
-0.000203882 9.96038e-05 2.79792e-07
-1.24131e-06 2.79792e-07 3.08373e-05
0.00211282 -0.000302779 2.9871e-06
-0.000302779 5.70806e-05 -7.64896e-07
2.9871e-06 -7.64896e-07 6.1092e-06
0.00204133 -0.000283489 -1.06102e-07
-0.000283489 9.29321e-05 -3.27262e-07
-1.06102e-07 -3.27262e-07 -6.33853e-06
0.00186411 -0.000240518 -1.63126e-06
-0.000240518 0.000105478 -5.07406e-07
-1.63126e-06 -5.07406e-07 -3.98625e-05
0.00204083 -0.000355176 1.91187e-06
-0.000355176 0.000130136 3.45483e-07
1.91187e-06 3.45483e-07 -4.82526e-06
0.00190201 -0.000305385 -3.09245e-07
-0.000305385 0.000153773 -1.36225e-08
-3.09245e-07 -1.36225e-08 -1.76259e-05
0.00110508 -0.000178954 -1.23467e-05
-0.000178954 -4.89496e-05 3.73264e-06
-1.23467e-05 3.73264e-06 -0.000224591
0.00191102 -0.000357053 1.37853e-06
-0.000357053 0.000195809 2.27147e-07
1.37853e-06 2.27147e-07 -2.01187e-06
0.0011422 -0.000206395 -1.9234e-07
-0.000206395 -1.51218e-05 2.25402e-07
-1.9234e-07 2.25402e-07 -0.000200501
0.00273214 -0.000171277 -6.52781e-05
-0.000171277 0.00127148 1.15452e-05
-6.52781e-05 1.15452e-05 0.00117864
0.00115979 -0.000233488 1.44332e-05
-0.000233488 7.91133e-06 -6.00382e-06
1.44332e-05 -6.00382e-06 -0.000187647
0.00285209 -0.000200768 4.53114e-05
-0.000200768 0.00134653 -6.16998e-06
4.53114e-05 -6.16998e-06 0.00125735
0.0022834 -0.000118784 -0.000253581
-0.000118784 0.00108117 3.56603e-05
-0.000253581 3.56603e-05 0.00106231
0.0030207 -0.000231323 0.000156843
-0.000231323 0.00145594 -2.75808e-05
0.000156843 -2.75808e-05 0.00136868
0.00190133 -7.6643e-05 -0.000105204
-7.6643e-05 0.000851867 1.54867e-05
-0.000105204 1.54867e-05 0.000817286
0.00671043 4.26813e-06 9.35615e-05
4.26813e-06 0.00386244 -4.63907e-06
9.35615e-05 -4.63907e-06 0.0038432
0.00216767 0.000380733 -7.14347e-07
0.000380733 0.00011263 -3.41974e-08
-7.14347e-07 -3.41974e-08 7.40001e-06
0.00211713 0.000415908 -1.66627e-06
0.000415908 0.000177085 -6.85628e-07
-1.66627e-06 -6.85628e-07 1.29985e-05
0.00229041 0.000444807 -3.65559e-06
0.000444807 0.000217888 -1.49162e-07
-3.65559e-06 -1.49162e-07 7.27697e-05
0.00191248 0.000419099 -2.84984e-06
0.000419099 0.000207966 3.42848e-07
-2.84984e-06 3.42848e-07 -2.09268e-05
0.00192002 0.000460687 -9.6887e-07
0.000460687 9.74669e-05 -2.32947e-06
-9.6887e-07 -2.32947e-06 -9.94938e-05
0.00214107 0.000429291 -3.88445e-06
0.000429291 0.000165674 -3.98693e-06
-3.88445e-06 -3.98693e-06 1.11975e-05
0.00114046 0.00029623 -2.20375e-05
0.00029623 1.25576e-05 -6.54383e-06
-2.20375e-05 -6.54383e-06 -0.000204499
0.00179772 0.000482029 1.12842e-06
0.000482029 0.000203556 3.34857e-07
1.12842e-06 3.34857e-07 -6.5281e-05
0.00227985 0.000603004 1.67452e-06
0.000603004 0.000353203 -4.41871e-06
1.67452e-06 -4.41871e-06 8.96989e-05
0.00165562 0.000515983 9.60968e-06
0.000515983 0.000215745 2.00589e-07
9.60968e-06 2.00589e-07 -9.17881e-05
0.00100103 0.000296576 -1.6215e-06
0.000296576 -2.3528e-06 7.43796e-08
-1.6215e-06 7.43796e-08 -0.000225747
0.000294868 0.000245611 -2.56902e-05
0.000245611 -0.000215407 -1.81815e-05
-2.56902e-05 -1.81815e-05 -0.000354958
0.000839549 0.00026018 1.45488e-05
0.00026018 -1.14087e-05 6.14275e-06
1.45488e-05 6.14275e-06 -0.000222813
0.000330598 0.000244497 1.98661e-06
0.000244497 -0.000172713 9.94611e-07
1.98661e-06 9.94611e-07 -0.000313087
0.00729314 4.27373e-05 -0.000292955
4.27373e-05 0.00426672 -3.5352e-05
-0.000292955 -3.5352e-05 0.00425978
0.000373307 0.000193602 2.46641e-05
0.000193602 -0.000145807 1.97652e-05
2.46641e-05 1.97652e-05 -0.000265011
0.00675941 -9.06028e-05 4.26782e-06
-9.06028e-05 0.00394748 -7.75236e-07
4.26782e-06 -7.75236e-07 0.00393927
0.00551399 -0.00019142 0.000158775
-0.00019142 0.00320245 1.07805e-05
0.000158775 1.07805e-05 0.00317875
0.00216454 0.00020574 -1.3188e-07
0.00020574 -1.40845e-05 -2.59139e-07
-1.3188e-07 -2.59139e-07 4.16419e-06
0.00236082 0.000261359 -1.41222e-07
0.000261359 -6.62856e-05 5.18067e-07
-1.41222e-07 5.18067e-07 7.20096e-06
0.00217969 0.000230999 3.59214e-06
0.000230999 -0.000196921 4.42797e-08
3.59214e-06 4.42797e-08 -7.14847e-05
0.00220819 0.000377978 -1.76993e-07
0.000377978 3.33281e-05 1.25853e-07
-1.76993e-07 1.25853e-07 -2.39258e-05
0.00216159 0.000524852 5.92401e-07
0.000524852 0.000161713 -7.62395e-07
5.92401e-07 -7.62395e-07 -1.68503e-05
0.00234949 0.000396443 1.77618e-06
0.000396443 5.22042e-06 -1.0405e-07
1.77618e-06 -1.0405e-07 -3.96731e-06
0.00206472 6.33598e-05 -7.87894e-07
6.33598e-05 -6.11617e-06 2.27103e-07
-7.87894e-07 2.27103e-07 7.66421e-07
0.00217069 6.44509e-05 3.02726e-07
6.44509e-05 -2.36137e-05 -1.54766e-07
3.02726e-07 -1.54766e-07 9.26283e-06
0.00223179 7.84423e-05 -1.2005e-06
7.84423e-05 -0.000104593 -2.50003e-07
-1.2005e-06 -2.50003e-07 -3.1354e-05
0.00203472 -1.1699e-05 -8.8565e-07
-1.1699e-05 -9.83384e-07 4.37678e-08
-8.8565e-07 4.37678e-08 4.24083e-06
0.00202137 -3.73048e-05 -6.12657e-06
-3.73048e-05 4.04622e-05 5.97841e-07
-6.12657e-06 5.97841e-07 2.58832e-05
0.00214324 -7.79585e-05 -3.66562e-07
-7.79585e-05 -2.71419e-05 3.00122e-07
-3.66562e-07 3.00122e-07 8.04577e-06
0.00201618 -0.000109448 -1.50208e-06
-0.000109448 3.27177e-06 2.33845e-07
-1.50208e-06 2.33845e-07 -1.00278e-05
0.00200186 -0.000126636 -5.76141e-06
-0.000126636 3.03109e-05 8.26035e-07
-5.76141e-06 8.26035e-07 -1.72379e-05
0.00206 -0.000197955 4.07694e-06
-0.000197955 1.04879e-05 -8.03084e-07
4.07694e-06 -8.03084e-07 -6.27038e-06
0.00205056 -0.000202278 2.88127e-06
-0.000202278 7.34533e-05 -6.04449e-07
2.88127e-06 -6.04449e-07 4.75902e-06
0.00188986 -0.00017525 1.1643e-06
-0.00017525 0.000103885 -1.17743e-06
1.1643e-06 -1.17743e-06 -1.92351e-05
0.0019844 -0.000279635 2.7222e-06
-0.000279635 5.70387e-05 -6.07339e-07
2.7222e-06 -6.07339e-07 -4.19103e-05
0.00190457 -0.000243695 -1.8941e-07
-0.000243695 0.000127056 -6.29776e-10
-1.8941e-07 -6.29776e-10 -1.84743e-05
0.00113546 -0.000144991 -1.24948e-05
-0.000144991 -4.19826e-05 2.57889e-06
-1.24948e-05 2.57889e-06 -0.00020417
0.00192991 -0.000306341 7.52558e-07
-0.000306341 0.000170917 4.06245e-07
7.52558e-07 4.06245e-07 -1.40219e-07
0.00115868 -0.000178378 -2.70712e-07
-0.000178378 -1.91353e-05 2.9184e-07
-2.70712e-07 2.9184e-07 -0.000193326
0.00265893 -0.00017152 -6.75005e-05
-0.00017152 0.00122842 9.85132e-06
-6.75005e-05 9.85132e-06 0.00113829
0.00118445 -0.000206678 1.25544e-05
-0.000206678 5.19961e-06 -4.65204e-06
1.25544e-05 -4.65204e-06 -0.000178955
0.00280298 -0.00017203 4.32078e-05
-0.00017203 0.0013109 -4.74092e-06
4.32078e-05 -4.74092e-06 0.00122724
0.00227825 -9.8626e-05 -0.000251156
-9.8626e-05 0.00107127 2.9865e-05
-0.000251156 2.9865e-05 0.00105383
0.00294245 -0.000193418 0.000153169
-0.000193418 0.0013954 -2.35122e-05
0.000153169 -2.35122e-05 0.00131744
0.00189479 -7.89917e-05 -9.5467e-05
-7.89917e-05 0.000842391 1.23695e-05
-9.5467e-05 1.23695e-05 0.000810264
0.0016011 -7.416e-05 6.18716e-05
-7.416e-05 0.000675688 -9.8145e-06
6.18716e-05 -9.8145e-06 0.000623874
0.0020942 0.000244878 -1.80051e-06
0.000244878 2.40592e-05 -5.14471e-07
-1.80051e-06 -5.14471e-07 -1.54942e-05
0.00212799 0.000345215 -2.29959e-06
0.000345215 0.000153746 4.40205e-07
-2.29959e-06 4.40205e-07 2.7251e-05
0.00217069 0.000383694 -4.12173e-07
0.000383694 9.35775e-05 -5.5041e-08
-4.12173e-07 -5.5041e-08 -3.39013e-06
0.00199984 0.000381431 8.07114e-08
0.000381431 0.000206533 6.14846e-07
8.07114e-08 6.14846e-07 1.24448e-05
0.00211121 0.000412191 -1.32139e-06
0.000412191 0.000183149 -5.90634e-07
-1.32139e-06 -5.90634e-07 1.84568e-05
0.00225983 0.000446351 1.70948e-06
0.000446351 0.000188909 1.08036e-07
1.70948e-06 1.08036e-07 4.20621e-05
0.00121971 0.000261369 -1.87499e-05
0.000261369 2.17983e-05 -6.10991e-06
-1.87499e-05 -6.10991e-06 -0.00017708
0.00187026 0.000421659 2.1228e-06
0.000421659 0.000173628 -1.19052e-07
2.1228e-06 -1.19052e-07 -5.11458e-05
0.00191669 0.000467898 -1.96116e-06
0.000467898 7.65292e-05 -4.66197e-06
-1.96116e-06 -4.66197e-06 -0.000117307
0.000307367 0.000189498 -2.25093e-05
0.000189498 -0.000231866 -1.53113e-05
-2.25093e-05 -1.53113e-05 -0.000359008
0.00111528 0.000292542 -6.86409e-07
0.000292542 -1.82825e-06 4.47559e-09
-6.86409e-07 4.47559e-09 -0.000218348
0.00173837 0.000478043 8.11216e-06
0.000478043 0.000165143 -1.04887e-06
8.11216e-06 -1.04887e-06 -0.000103971
0.000988968 0.000291582 2.01428e-05
0.000291582 -1.8051e-06 7.68259e-06
2.01428e-05 7.68259e-06 -0.000223299
0.000377298 0.00023655 8.58676e-07
0.00023655 -0.000161619 1.2038e-06
8.58676e-07 1.2038e-06 -0.000303264
0.00726564 0.000142707 -0.000301193
0.000142707 0.00423261 -3.94976e-05
-0.000301193 -3.94976e-05 0.00422814
0.000362872 0.000233154 2.24287e-05
0.000233154 -0.000150752 1.88628e-05
2.24287e-05 1.88628e-05 -0.000289784
0.00715278 1.35171e-05 7.57307e-06
1.35171e-05 0.00416681 2.34469e-07
7.57307e-06 2.34469e-07 0.00416772
0.00651982 -0.000121611 0.000221789
-0.000121611 0.0037949 1.32905e-05
0.000221789 1.32905e-05 0.00378681
0.00208592 0.000127699 -3.29034e-06
0.000127699 2.48743e-05 -8.36182e-07
-3.29034e-06 -8.36182e-07 2.44814e-05
0.00216686 0.000210221 7.59262e-07
0.000210221 -1.47572e-05 3.45081e-07
7.59262e-07 3.45081e-07 1.06113e-06
0.00231739 0.000265603 -4.03327e-07
0.000265603 -9.60628e-05 -7.37163e-07
-4.03327e-07 -7.37163e-07 -2.10924e-05
0.00224106 0.000373317 1.90135e-06
0.000373317 5.81612e-05 -1.24183e-07
1.90135e-06 -1.24183e-07 4.1147e-06
0.00199077 1.87714e-05 -6.06118e-06
1.87714e-05 4.23066e-05 3.28737e-07
-6.06118e-06 3.28737e-07 1.52629e-05
0.00205028 5.39011e-05 -1.26942e-08
5.39011e-05 -1.40685e-05 1.73569e-08
-1.26942e-08 1.73569e-08 -7.29001e-06
0.00215209 5.92709e-05 -1.22851e-06
5.92709e-05 -3.25918e-05 -2.05985e-07
-1.22851e-06 -2.05985e-07 -4.9315e-07
0.00202035 -8.97731e-06 4.66265e-08
-8.97731e-06 -1.17231e-05 -5.15628e-07
4.66265e-08 -5.15628e-07 -7.55989e-06
0.00202045 -3.15577e-05 -6.9797e-07
-3.15577e-05 3.62707e-05 -1.54564e-07
-6.9797e-07 -1.54564e-07 2.28929e-05
0.00189041 -5.45467e-05 -4.59329e-06
-5.45467e-05 -2.42559e-05 4.15514e-07
-4.59329e-06 4.15514e-07 -7.60057e-05
0.00203668 -0.000109316 3.57337e-06
-0.000109316 2.20944e-05 -2.12382e-07
3.57337e-06 -2.12382e-07 5.76724e-06
0.00200723 -0.000127591 -2.05056e-06
-0.000127591 4.23243e-05 4.13645e-07
-2.05056e-06 4.13645e-07 -1.21541e-05
0.00194043 -0.000115739 -1.43196e-06
-0.000115739 0.000120032 -3.36863e-07
-1.43196e-06 -3.36863e-07 2.02767e-05
0.00201114 -0.000199615 6.90969e-06
-0.000199615 5.10335e-05 -1.41186e-06
6.90969e-06 -1.41186e-06 -1.73396e-05
0.00191449 -0.000174529 1.85015e-06
-0.000174529 0.000113776 -5.73174e-07
1.85015e-06 -5.73174e-07 -8.899e-06
0.00113585 -0.000107553 -1.22512e-05
-0.000107553 -4.21097e-05 1.66474e-06
-1.22512e-05 1.66474e-06 -0.000191493
0.00197138 -0.000245391 1.37348e-06
-0.000245391 0.000167346 4.20353e-07
1.37348e-06 4.20353e-07 2.21495e-05
0.00113811 -0.000143765 -1.2738e-07
-0.000143765 -3.82745e-05 2.08767e-07
-1.2738e-07 2.08767e-07 -0.000199699
0.000392859 -9.00678e-05 -1.97061e-05
-9.00678e-05 -0.000210443 5.76057e-06
-1.97061e-05 5.76057e-06 -0.000308349
0.00118445 -0.000176694 1.21498e-05
-0.000176694 -5.52191e-06 -3.25133e-06
1.21498e-05 -3.25133e-06 -0.000178261
0.00158036 -0.000112381 6.41192e-05
-0.000112381 0.00053628 -4.94156e-06
6.41192e-05 -4.94156e-06 0.000450012
0.00667565 -0.000167472 -0.000334795
-0.000167472 0.00384661 2.51009e-05
-0.000334795 2.51009e-05 0.00386523
0.00289534 -0.000155508 0.000150415
-0.000155508 0.00135832 -1.85188e-05
0.000150415 -1.85188e-05 0.00128631
0.00190029 -7.7168e-05 -8.64388e-05
-7.7168e-05 0.000844464 8.06531e-06
-8.64388e-05 8.06531e-06 0.000812302
0.00152415 -9.88036e-05 7.39387e-05
-9.88036e-05 0.000631319 -1.16315e-05
7.39387e-05 -1.16315e-05 0.000578392
0.00202919 0.00017093 -3.93235e-06
0.00017093 2.7557e-05 -1.15475e-06
-3.93235e-06 -1.15475e-06 -7.24617e-06
0.0021271 0.000265974 -1.5643e-06
0.000265974 0.000133246 5.90675e-07
-1.5643e-06 5.90675e-07 4.39796e-05
0.00208685 0.000238193 3.747e-09
0.000238193 2.90733e-05 8.38721e-08
3.747e-09 8.38721e-08 -1.57347e-05
0.00204795 0.000310822 5.53595e-07
0.000310822 0.000217222 1.38263e-06
5.53595e-07 1.38263e-06 5.80669e-05
0.00204063 0.000339751 9.75972e-07
0.000339751 0.000100135 1.64465e-07
9.75972e-07 1.64465e-07 -2.60552e-05
0.00217555 0.000387118 7.45979e-07
0.000387118 7.55956e-05 1.30779e-07
7.45979e-07 1.30779e-07 -1.33374e-05
0.00122208 0.00022923 -1.4838e-05
0.00022923 4.49631e-06 -4.07116e-06
-1.4838e-05 -4.07116e-06 -0.00017611
0.00200798 0.000378805 2.19803e-06
0.000378805 0.000212329 6.04894e-07
2.19803e-06 6.04894e-07 1.93122e-05
0.00209724 0.000407763 6.17242e-08
0.000407763 0.000184653 -1.57085e-06
6.17242e-08 -1.57085e-06 1.94613e-05
0.000310377 0.000135171 -1.94823e-05
0.000135171 -0.00025156 -1.18595e-05
-1.94823e-05 -1.18595e-05 -0.000364107
0.00114201 0.000257805 4.54361e-07
0.000257805 -2.54302e-05 4.58481e-07
4.54361e-07 4.58481e-07 -0.000222457
0.00180994 0.000422204 6.83939e-06
0.000422204 0.000128252 -1.31059e-06
6.83939e-06 -1.31059e-06 -9.19897e-05
0.00705799 0.00021739 -0.000308256
0.00021739 0.00409129 -3.91272e-05
-0.000308256 -3.91272e-05 0.00409145
0.000302161 0.000182345 3.63488e-07
0.000182345 -0.000235146 7.80454e-07
3.63488e-07 7.80454e-07 -0.000362851
0.00107986 0.000286622 2.28478e-05
0.000286622 -1.85401e-05 7.22949e-06
2.28478e-05 7.22949e-06 -0.00023389
0.00026275 0.000214328 2.09987e-05
0.000214328 -0.000228713 1.77659e-05
2.09987e-05 1.77659e-05 -0.000370523
0.00721272 0.000135036 9.88547e-06
0.000135036 0.00419373 1.3123e-06
9.88547e-06 1.3123e-06 0.00419609
0.00702163 -2.2427e-05 0.000273944
-2.2427e-05 0.00407545 1.90074e-05
0.000273944 1.90074e-05 0.00408101
0.00195328 7.08776e-05 -7.90874e-06
7.08776e-05 1.84928e-05 -3.18357e-07
-7.90874e-06 -3.18357e-07 -1.26303e-05
0.002075 0.000124192 1.06494e-07
0.000124192 1.85563e-05 -2.07563e-08
1.06494e-07 -2.07563e-08 1.71796e-05
0.00217046 0.00021477 5.54322e-07
0.00021477 -1.48793e-05 2.36969e-07
5.54322e-07 2.36969e-07 -1.14423e-06
0.00193605 6.13832e-06 -5.59282e-06
6.13832e-06 2.42607e-05 -7.92946e-08
-5.59282e-06 -7.92946e-08 -3.34756e-05
0.00197335 2.37141e-05 3.47704e-07
2.37141e-05 2.80189e-05 4.2285e-08
3.47704e-07 4.2285e-08 3.68415e-06
0.0020388 4.34142e-05 1.23488e-07
4.34142e-05 -2.0397e-05 -2.28595e-07
1.23488e-07 -2.28595e-07 -1.36577e-05
0.00202097 -2.6514e-05 3.77426e-06
-2.6514e-05 3.24988e-05 -4.2209e-07
3.77426e-06 -4.2209e-07 2.07899e-05
0.00194739 -5.316e-05 -1.35668e-06
-5.316e-05 1.54858e-05 2.28311e-07
-1.35668e-06 2.28311e-07 -3.49894e-05
0.00186346 -5.4819e-05 2.68182e-07
-5.4819e-05 8.35693e-05 -4.10305e-07
2.68182e-07 -4.10305e-07 -1.47572e-05
0.00203264 -0.000128705 1.4345e-06
-0.000128705 6.822e-05 -1.15064e-07
1.4345e-06 -1.15064e-07 7.21699e-06
0.0019101 -0.000116934 4.7929e-07
-0.000116934 0.000105084 1.45936e-08
4.7929e-07 1.45936e-08 -2.13888e-06
0.0011571 -6.51277e-05 -1.22989e-05
-6.51277e-05 -2.76305e-05 7.40052e-07
-1.22989e-05 7.40052e-07 -0.000159752
0.00191342 -0.00017531 3.00206e-06
-0.00017531 0.000106737 -1.2667e-07
3.00206e-06 -1.2667e-07 -1.59876e-05
0.0011177 -0.000102658 -1.42196e-08
-0.000102658 -5.14463e-05 3.8496e-08
-1.42196e-08 3.8496e-08 -0.000199786
0.000397437 -2.40402e-05 -1.83344e-05
-2.40402e-05 -0.000209646 3.31645e-06
-1.83344e-05 3.31645e-06 -0.000300648
0.00117401 -0.000142361 1.21198e-05
-0.000142361 -1.5786e-05 -2.19798e-06
1.21198e-05 -2.19798e-06 -0.000176165
0.000399104 -7.511e-05 -1.82846e-07
-7.511e-05 -0.000205198 4.70604e-07
-1.82846e-07 4.70604e-07 -0.000303587
0.00655806 -5.7809e-05 -0.000323143
-5.7809e-05 0.00376782 1.55466e-05
-0.000323143 1.55466e-05 0.0037916
0.000460513 -7.79952e-05 1.449e-05
-7.79952e-05 -0.000171345 -7.78323e-06
1.449e-05 -7.78323e-06 -0.000275287
0.00418308 -0.000109069 0.000143123
-0.000109069 0.00228431 -7.5775e-06
0.000143123 -7.5775e-06 0.00226808
0.00149639 -9.13802e-05 8.01028e-05
-9.13802e-05 0.000612902 -1.13048e-05
8.01028e-05 -1.13048e-05 0.000560759
0.0020387 0.000131157 -8.12949e-06
0.000131157 7.28517e-05 -1.04508e-06
-8.12949e-06 -1.04508e-06 3.29748e-05
0.00212294 0.000197618 -2.56033e-06
0.000197618 0.000140803 2.81187e-07
-2.56033e-06 2.81187e-07 6.48654e-05
0.00200882 0.000164984 -6.15947e-07
0.000164984 1.69546e-05 -1.42805e-07
-6.15947e-07 -1.42805e-07 -1.72531e-05
0.00192594 0.000238567 -1.31496e-07
0.000238567 0.000129302 1.07193e-06
-1.31496e-07 1.07193e-06 -1.40351e-05
0.0020846 0.000263682 1.4667e-07
0.000263682 0.000102108 8.33973e-08
1.4667e-07 8.33973e-08 1.06026e-05
0.00207437 0.000231297 3.05443e-06
0.000231297 3.07918e-05 7.7966e-07
3.05443e-06 7.7966e-07 -1.91634e-05
0.0011901 0.00018744 -1.32032e-05
0.00018744 -1.99053e-05 -2.8125e-06
-1.32032e-05 -2.8125e-06 -0.000185812
0.00196997 0.000305757 2.07904e-06
0.000305757 0.000174525 7.18709e-07
2.07904e-06 7.18709e-07 9.35362e-06
0.00194772 0.000333939 1.17243e-06
0.000333939 4.31625e-05 -5.24294e-07
1.17243e-06 -5.24294e-07 -8.2593e-05
0.000343615 9.59866e-05 -1.81987e-05
9.59866e-05 -0.000244438 -8.63386e-06
-1.81987e-05 -8.63386e-06 -0.000347735
0.00117043 0.000225032 -6.28998e-07
0.000225032 -2.56026e-05 3.6857e-07
-6.28998e-07 3.6857e-07 -0.000205461
0.00201679 0.000376632 4.57048e-06
0.000376632 0.000218727 6.21511e-07
4.57048e-06 6.21511e-07 2.66305e-05
0.0068855 0.000271169 -0.000324276
0.000271169 0.00398567 -3.76703e-05
-0.000324276 -3.76703e-05 0.0039873
0.000332947 0.000134361 -1.10226e-07
0.000134361 -0.000240768 3.97813e-07
-1.10226e-07 3.97813e-07 -0.000353855
0.00106874 0.000255784 1.81655e-05
0.000255784 -7.16873e-05 5.88091e-06
1.81655e-05 5.88091e-06 -0.000267226
0.00708755 0.000235452 1.39323e-05
0.000235452 0.00411715 3.91533e-06
1.39323e-05 3.91533e-06 0.00411509
0.000307559 0.000173803 1.99414e-05
0.000173803 -0.000233756 1.50364e-05
1.99414e-05 1.50364e-05 -0.000361921
0.00712863 9.85191e-05 0.000302201
9.85191e-05 0.004127 2.74766e-05
0.000302201 2.74766e-05 0.00413764
0.00189008 5.36498e-05 -5.98822e-06
5.36498e-05 -8.49166e-06 -1.9344e-07
-5.98822e-06 -1.9344e-07 -6.83079e-05
0.00198694 7.66294e-05 -8.61431e-07
7.66294e-05 4.71026e-05 -2.01321e-07
-8.61431e-07 -2.01321e-07 1.5343e-05
0.00206187 0.000120952 2.8053e-06
0.000120952 1.16284e-05 4.90162e-07
2.8053e-06 4.90162e-07 9.1464e-06
0.0018557 -6.56248e-06 9.34613e-07
-6.56248e-06 8.44025e-05 -4.31942e-07
9.34613e-07 -4.31942e-07 -1.23704e-05
0.00195313 7.23983e-06 -1.80785e-06
7.23983e-06 3.47631e-05 1.79578e-07
-1.80785e-06 1.79578e-07 -2.02229e-05
0.00195476 2.98658e-05 6.75672e-06
2.98658e-05 1.30236e-05 -1.12544e-07
6.75672e-06 -1.12544e-07 -8.68066e-06
0.00200231 -5.17894e-05 1.62223e-06
-5.17894e-05 5.41978e-05 7.94471e-08
1.62223e-06 7.94471e-08 4.6996e-06
0.00190292 -5.45289e-05 2.24547e-06
-5.45289e-05 0.000109804 -7.55177e-08
2.24547e-06 -7.55177e-08 1.25496e-05
0.00112606 -2.79821e-05 -1.1884e-05
-2.79821e-05 -3.86672e-05 4.9274e-08
-1.1884e-05 4.9274e-08 -0.000163742
0.00186484 -0.000118086 4.61327e-07
-0.000118086 7.9849e-05 4.03029e-07
4.61327e-07 4.03029e-07 -3.50366e-05
0.0011177 -6.4595e-05 2.65303e-07
-6.4595e-05 -5.08671e-05 -1.02044e-07
2.65303e-07 -1.02044e-07 -0.000186208
0.000407429 -8.94455e-06 -1.85967e-05
-8.94455e-06 -0.00020342 2.04994e-06
-1.85967e-05 2.04994e-06 -0.000290581
0.00111353 -9.95623e-05 1.13841e-05
-9.95623e-05 -5.14454e-05 -1.58598e-06
1.13841e-05 -1.58598e-06 -0.000198886
0.000385269 -3.65626e-05 8.29497e-07
-3.65626e-05 -0.000217253 -2.98854e-07
8.29497e-07 -2.98854e-07 -0.00030758
0.00635963 -0.00015238 -0.000324144
-0.00015238 0.00366091 1.68477e-05
-0.000324144 1.68477e-05 0.00367849
0.000373912 -5.85347e-05 1.78961e-05
-5.85347e-05 -0.00022088 -4.33607e-06
1.78961e-05 -4.33607e-06 -0.000318614
0.00650367 -9.41077e-05 7.74918e-06
-9.41077e-05 0.00373731 5.6147e-09
7.74918e-06 5.6147e-09 0.00376028
0.00180878 -3.62641e-05 0.000251281
-3.62641e-05 0.000777515 -1.67988e-05
0.000251281 -1.67988e-05 0.000767664
0.00201234 0.00013061 -5.54549e-06
0.00013061 6.82679e-05 -6.13444e-07
-5.54549e-06 -6.13444e-07 -2.52663e-06
0.00199715 0.000132362 -1.89032e-06
0.000132362 3.8243e-05 -1.26498e-07
-1.89032e-06 -1.26498e-07 2.60069e-06
0.00188952 0.000171485 3.95339e-07
0.000171485 9.86893e-05 1.05696e-06
3.95339e-07 1.05696e-06 -2.52276e-05
0.00207186 0.00019636 8.53913e-07
0.00019636 0.000101441 -3.43713e-08
8.53913e-07 -3.43713e-08 2.53697e-05
0.00199049 0.00015894 4.84836e-06
0.00015894 6.87351e-06 7.96622e-07
4.84836e-06 7.96622e-07 -2.65688e-05
0.00117293 0.000141212 -1.22455e-05
0.000141212 -1.90905e-05 -2.10181e-06
-1.22455e-05 -2.10181e-06 -0.000176504
0.00191915 0.000236516 1.76787e-07
0.000236516 0.000129954 1.03513e-07
1.76787e-07 1.03513e-07 -1.31964e-05
0.00205369 0.000261745 2.72441e-06
0.000261745 7.86292e-05 -3.59335e-07
2.72441e-06 -3.59335e-07 -1.52201e-05
0.000380173 7.09718e-05 -1.79317e-05
7.09718e-05 -0.000226917 -6.01343e-06
-1.79317e-05 -6.01343e-06 -0.000325316
0.0011753 0.000187029 -4.58745e-07
0.000187029 -2.67196e-05 4.1718e-07
-4.58745e-07 4.1718e-07 -0.000195713
0.00189589 0.000300641 2.07156e-06
0.000300641 0.000134764 3.60916e-07
2.07156e-06 3.60916e-07 -3.63617e-05
0.00675299 0.00028297 -0.00034121
0.00028297 0.00391289 -3.49826e-05
-0.00034121 -3.49826e-05 0.00391424
0.000365347 9.88397e-05 2.55009e-07
9.88397e-05 -0.000233296 2.04775e-07
2.55009e-07 2.04775e-07 -0.000337267
0.00111207 0.000220199 1.14315e-05
0.000220199 -6.07321e-05 4.40901e-06
1.14315e-05 4.40901e-06 -0.000239658
0.00690686 0.000295484 1.08844e-05
0.000295484 0.00401148 4.94112e-06
1.08844e-05 4.94112e-06 0.00400733
0.000365428 0.000133134 1.8791e-05
0.000133134 -0.000223852 1.21776e-05
1.8791e-05 1.21776e-05 -0.000337222
0.00709872 0.000239308 0.000328517
0.000239308 0.00411619 3.78597e-05
0.000328517 3.78597e-05 0.00412052
0.00182701 4.95791e-05 2.50195e-06
4.95791e-05 6.79455e-05 -1.82944e-07
2.50195e-06 -1.82944e-07 -3.24681e-05
0.00195714 5.46964e-05 -3.38031e-06
5.46964e-05 4.20527e-05 -1.18653e-07
-3.38031e-06 -1.18653e-07 -1.86637e-05
0.0020239 8.18462e-05 7.28661e-06
8.18462e-05 7.78092e-05 4.21445e-07
7.28661e-06 4.21445e-07 4.54248e-05
0.00110134 -1.08201e-05 -1.22989e-05
-1.08201e-05 -4.73768e-05 -2.14173e-07
-1.22989e-05 -2.14173e-07 -0.000170709
0.00189176 -2.15306e-06 2.69643e-06
-2.15306e-06 0.000109464 -7.3289e-08
2.69643e-06 -7.3289e-08 1.32543e-05
0.0019712 7.84396e-06 1.49629e-06
7.84396e-06 4.59904e-05 3.21918e-07
1.49629e-06 3.21918e-07 -6.13278e-06
0.00194672 -5.47262e-05 3.90167e-06
-5.47262e-05 0.00013902 1.92661e-07
3.90167e-06 1.92661e-07 4.28417e-05
0.00111231 -2.93255e-05 2.56173e-07
-2.93255e-05 -5.00019e-05 -5.83457e-08
2.56173e-07 -5.83457e-08 -0.000175357
0.000408996 -3.24645e-05 -1.90875e-05
-3.24645e-05 -0.000200682 8.26445e-07
-1.90875e-05 8.26445e-07 -0.000284183
0.00105391 -6.29953e-05 1.1858e-05
-6.29953e-05 -8.91355e-05 -1.20259e-06
1.1858e-05 -1.20259e-06 -0.000227734
0.000383552 2.59342e-06 4.26742e-07
2.59342e-06 -0.000219234 8.28208e-08
4.26742e-07 8.28208e-08 -0.000305205
0.00626549 -0.000122733 -0.000323891
-0.000122733 0.00360108 1.25476e-05
-0.000323891 1.25476e-05 0.0036217
0.000392332 -4.41732e-05 1.84524e-05
-4.41732e-05 -0.000210155 -3.04366e-06
1.84524e-05 -3.04366e-06 -0.000301634
0.00634454 -4.71993e-05 -3.21191e-06
-4.71993e-05 0.00363908 2.85408e-06
-3.21191e-06 2.85408e-06 0.00366431
0.00644507 -0.000107775 0.000322521
-0.000107775 0.00370235 -1.49845e-05
0.000322521 -1.49845e-05 0.00372534
0.00185178 0.000107622 4.50954e-07
0.000107622 7.80548e-05 4.41333e-07
4.50954e-07 4.41333e-07 -3.305e-05
0.00200491 0.000128776 -3.48033e-06
0.000128776 5.57065e-05 -5.98933e-07
-3.48033e-06 -5.98933e-07 -9.37858e-06
0.00195272 0.000134032 6.27861e-06
0.000134032 2.13148e-06 8.8152e-07
6.27861e-06 8.8152e-07 -2.94188e-05
0.00117038 9.39287e-05 -1.21724e-05
9.39287e-05 -1.58516e-05 -1.29572e-06
-1.21724e-05 -1.29572e-06 -0.000160291
0.00190602 0.000170315 2.86286e-07
0.000170315 0.000113108 -9.25538e-08
2.86286e-07 -9.25538e-08 -1.07233e-05
0.00202511 0.000195107 2.82911e-06
0.000195107 6.51952e-05 -6.77564e-07
2.82911e-06 -6.77564e-07 -1.10074e-05
0.00039747 4.80516e-05 -1.76024e-05
4.80516e-05 -0.000214038 -4.25337e-06
-1.76024e-05 -4.25337e-06 -0.000308337
0.00114859 0.000142896 3.02506e-07
0.000142896 -3.59682e-05 2.60167e-07
3.02506e-07 2.60167e-07 -0.000194545
0.0019142 0.000234547 7.85364e-07
0.000234547 0.000131397 -8.53301e-07
7.85364e-07 -8.53301e-07 -1.15915e-05
0.00658627 0.000237037 -0.000349076
0.000237037 0.00380804 -2.85656e-05
-0.000349076 -2.85656e-05 0.00381702
0.00038632 7.62851e-05 7.26202e-07
7.62851e-05 -0.000222516 2.54338e-07
7.26202e-07 2.54338e-07 -0.00032228
0.00111663 0.000184994 1.10283e-05
0.000184994 -6.09241e-05 3.50352e-06
1.10283e-05 3.50352e-06 -0.00023302
0.00680288 0.000299394 5.77734e-06
0.000299394 0.00394938 3.45577e-06
5.77734e-06 3.45577e-06 0.00394843
0.000394349 0.000104002 1.7747e-05
0.000104002 -0.000216163 9.38788e-06
1.7747e-05 9.38788e-06 -0.000321409
0.00696857 0.000329796 0.000339978
0.000329796 0.00405821 4.41432e-05
0.000339978 4.41432e-05 0.00404965
0.00107438 2.64755e-05 -1.22922e-05
2.64755e-05 -6.05059e-05 -6.13283e-07
-1.22922e-05 -6.13283e-07 -0.000191436
0.00186484 4.72688e-05 2.96695e-06
4.72688e-05 9.11418e-05 2.05977e-08
2.96695e-06 2.05977e-08 -5.75537e-06
0.00201906 5.59856e-05 1.62245e-07
5.59856e-05 8.87011e-05 3.99497e-07
1.62245e-07 3.99497e-07 2.7038e-05
0.000447484 3.18978e-05 -1.96331e-05
3.18978e-05 -0.000184549 -9.1821e-07
-1.96331e-05 -9.1821e-07 -0.000259618
0.00107716 -5.31763e-06 7.88465e-08
-5.31763e-06 -6.50545e-05 3.39884e-08
7.88465e-08 3.39884e-08 -0.000188404
0.00192332 3.59432e-06 4.29658e-06
3.59432e-06 0.000131445 1.01432e-07
4.29658e-06 1.01432e-07 3.57308e-05
0.0010957 -3.02257e-05 1.23921e-05
-3.02257e-05 -6.34487e-05 -4.63043e-07
1.23921e-05 -4.63043e-07 -0.000189063
0.000406933 -5.89494e-06 4.52793e-07
-5.89494e-06 -0.00020217 3.75316e-07
4.52793e-07 3.75316e-07 -0.000285637
0.00616708 1.3257e-05 -0.000326415
1.3257e-05 0.00353203 1.70303e-06
-0.000326415 1.70303e-06 0.00356002
0.000365226 1.4179e-05 1.80238e-05
1.4179e-05 -0.000232389 -9.94068e-07
1.80238e-05 -9.94068e-07 -0.000316923
0.00623133 -0.00012046 -7.85172e-06
-0.00012046 0.0035814 2.02892e-06
-7.85172e-06 2.02892e-06 0.00360162
0.00628109 -2.92774e-05 0.00030984
-2.92774e-05 0.00359964 -7.97128e-06
0.00030984 -7.97128e-06 0.00362506
0.00112862 5.55752e-05 -1.21836e-05
5.55752e-05 -3.32626e-05 -1.10796e-06
-1.21836e-05 -1.10796e-06 -0.000168591
0.00188616 0.000104538 -3.17327e-07
0.000104538 9.92732e-05 -4.33026e-07
-3.17327e-07 -4.33026e-07 -7.28848e-06
0.00197379 0.000126112 -1.05088e-06
0.000126112 2.72575e-05 -5.64376e-07
-1.05088e-06 -5.64376e-07 -3.23113e-05
0.0027019 6.50251e-05 -0.000150269
6.50251e-05 0.00123419 -5.43988e-06
-0.000150269 -5.43988e-06 0.00118078
0.00111628 9.52368e-05 2.3475e-07
9.52368e-05 -4.98496e-05 1.85086e-07
2.3475e-07 1.85086e-07 -0.000195356
0.00191999 0.000168988 8.83692e-07
0.000168988 0.000126047 -1.19966e-06
8.83692e-07 -1.19966e-06 2.2934e-06
0.00640344 0.000171549 -0.000346288
0.000171549 0.00368818 -2.03573e-05
-0.000346288 -2.03573e-05 0.00370644
0.000417947 6.73445e-05 1.04796e-06
6.73445e-05 -0.0001988 4.49667e-07
1.04796e-06 4.49667e-07 -0.000295272
0.00114044 0.000144979 1.26092e-05
0.000144979 -4.27513e-05 2.51604e-06
1.26092e-05 2.51604e-06 -0.000202402
0.0066739 0.000252803 9.80353e-07
0.000252803 0.0038641 1.59888e-06
9.80353e-07 1.59888e-06 0.0038717
0.00042176 8.51253e-05 1.80138e-05
8.51253e-05 -0.000199023 7.19766e-06
1.80138e-05 7.19766e-06 -0.000300817
0.00686559 0.000334974 0.000350232
0.000334974 0.00400198 4.36575e-05
0.000350232 4.36575e-05 0.00399398
0.0005281 1.21119e-05 -1.55567e-05
1.21119e-05 -0.000123843 -2.03924e-06
-1.55567e-05 -2.03924e-06 -0.000208243
0.00106502 2.60154e-05 1.30971e-07
2.60154e-05 -7.0916e-05 1.99821e-07
1.30971e-07 1.99821e-07 -0.000199236
0.00190302 4.37326e-05 4.10755e-06
4.37326e-05 0.000114487 -8.92282e-08
4.10755e-06 -8.92282e-08 2.11939e-05
0.00599598 -0.000102656 -0.000308355
-0.000102656 0.00344374 4.12798e-06
-0.000308355 4.12798e-06 0.00346057
0.000404386 9.58057e-06 -5.87498e-07
9.58057e-06 -0.000207124 -1.23262e-07
-5.87498e-07 -1.23262e-07 -0.000284849
0.00106962 -1.05954e-06 1.23271e-05
-1.05954e-06 -7.24196e-05 2.43826e-08
1.23271e-05 2.43826e-08 -0.000195729
0.00036247 2.07983e-05 1.8306e-05
2.07983e-05 -0.000231555 4.35191e-07
1.8306e-05 4.35191e-07 -0.000313778
0.00610409 -2.21964e-05 1.90038e-06
-2.21964e-05 0.00349913 -1.6558e-06
1.90038e-06 -1.6558e-06 0.00352232
0.0062173 -4.30187e-05 0.000315068
-4.30187e-05 0.00356054 -5.60181e-06
0.000315068 -5.60181e-06 0.00358689
0.00278281 1.73589e-05 -0.000144095
1.73589e-05 0.00128457 -3.06315e-06
-0.000144095 -3.06315e-06 0.00123517
0.00110485 5.87488e-05 9.28801e-08
5.87488e-05 -4.99062e-05 -6.24771e-08
9.28801e-08 -6.24771e-08 -0.000185988
0.00193766 0.000101968 1.21822e-06
0.000101968 0.000132169 -8.42739e-07
1.21822e-06 -8.42739e-07 3.0341e-05
0.00588524 -3.19785e-05 -0.00013702
-3.19785e-05 0.00337664 2.32431e-07
-0.00013702 2.32431e-07 0.00336553
0.000427911 5.94855e-05 2.99978e-07
5.94855e-05 -0.000190645 2.87555e-07
2.99978e-07 2.87555e-07 -0.000281001
0.00110296 9.7845e-05 1.22429e-05
9.7845e-05 -5.9532e-05 1.62787e-06
1.22429e-05 1.62787e-06 -0.000205984
0.00649926 0.000148502 -1.08091e-05
0.000148502 0.00374223 -1.83404e-06
-1.08091e-05 -1.83404e-06 0.00376173
0.000433829 9.0017e-05 1.94081e-05
9.0017e-05 -0.000188022 5.9006e-06
1.94081e-05 5.9006e-06 -0.000285659
0.00675436 0.000277248 0.000356852
0.000277248 0.0039204 3.6898e-05
0.000356852 3.6898e-05 0.00392538
0.00181359 -5.3927e-05 -0.000244107
-5.3927e-05 0.000785051 1.3771e-06
-0.000244107 1.3771e-06 0.000785152
0.00159047 3.17584e-05 -6.19677e-05
3.17584e-05 0.000535367 7.6548e-08
-6.19677e-05 7.6548e-08 0.000473805
0.00105312 2.81774e-05 1.26683e-05
2.81774e-05 -8.2357e-05 6.72592e-07
1.26683e-05 6.72592e-07 -0.000208135
0.00607399 -4.93866e-05 6.75995e-06
-4.93866e-05 0.00348581 2.71869e-06
6.75995e-06 2.71869e-06 0.00350825
0.000422598 -1.15002e-05 1.89557e-05
-1.15002e-05 -0.000189232 8.84914e-07
1.89557e-05 8.84914e-07 -0.000270908
0.00614228 -8.49423e-05 0.000327006
-8.49423e-05 0.00352706 -5.20945e-06
0.000327006 -5.20945e-06 0.00354984
0.00137879 2.29751e-05 -6.4247e-05
2.29751e-05 0.000539961 -1.15947e-06
-6.4247e-05 -1.15947e-06 0.000500643
0.00158278 1.964e-05 -6.30437e-05
1.964e-05 0.000532389 -1.49243e-06
-6.30437e-05 -1.49243e-06 0.000466043
0.00106778 6.0334e-05 1.21713e-05
6.0334e-05 -7.46122e-05 9.74852e-07
1.21713e-05 9.74852e-07 -0.00021148
0.00387998 7.03359e-05 0.00012265
7.03359e-05 0.00209842 3.76962e-06
0.00012265 3.76962e-06 0.00209122
0.000427419 6.92408e-05 1.97518e-05
6.92408e-05 -0.000190444 4.52038e-06
1.97518e-05 4.52038e-06 -0.00028078
0.00657591 0.000135931 0.000339885
0.000135931 0.00378195 2.2111e-05
0.000339885 2.2111e-05 0.00380529
0.00602923 -1.98326e-05 -8.81112e-06
-1.98326e-05 0.00346105 -3.27863e-06
-8.81112e-06 -3.27863e-06 0.0034822
0.000416162 5.06727e-05 2.05784e-05
5.06727e-05 -0.00020492 2.59262e-06
2.05784e-05 2.59262e-06 -0.000279624
0.00598665 3.56402e-05 0.000315091
3.56402e-05 0.00342666 2.13328e-07
0.000315091 2.13328e-07 0.00345288
0.00375014 3.30966e-05 0.00013394
3.30966e-05 0.00202261 5.32779e-06
0.00013394 5.32779e-06 0.00201772
0.000450587 9.64846e-06 1.9045e-05
9.64846e-06 -0.000175487 2.656e-06
1.9045e-05 2.656e-06 -0.00025934
0.0063485 4.26588e-06 0.00032607
4.26588e-06 0.00364146 9.89307e-06
0.00032607 9.89307e-06 0.00366684
0.00608918 -0.00011742 0.000313803
-0.00011742 0.00350234 -4.31593e-06
0.000313803 -4.31593e-06 0.00351923
0.00612625 1.1318e-05 0.000317373
1.1318e-05 0.00350379 5.73932e-06
0.000317373 5.73932e-06 0.00353213
