# vtk DataFile Version 2.0
Wound Healing Simulation
ASCII
DATASET UNSTRUCTURED_GRID
POINTS 3012 float
69.9759 18.75 4
67.2507 60.3285 4
69.976 18.75 2
73.0099 25.446 4
71.1327 20.9142 4
68.6801 16.6661 4
67.8268 19.9171 3.99147
67.2507 60.3286 2
71.1327 54.0858 4
68.6801 58.3339 4
65.6939 62.2254 4
65.3133 59.009 3.99264
74.6784 42.3946 4
73.7221 47.2057 4
69.9759 18.75 0
73.0099 25.446 2
68.6801 16.6661 2
71.1327 20.9142 2
67.8268 19.9169 2
74.6792 32.6053 4
73.7222 27.7943 4
72.1454 23.1494 4
70.6166 26.2156 3.9897
68.8874 21.9499 3.99084
67.2507 14.6715 4
66.6382 17.963 3.99216
65.8045 21.0112 3.98709
67.2507 60.3285 0
71.1327 54.0858 2
68.6801 58.3339 2
65.694 62.2255 2
65.3133 59.0092 2
72.1454 51.8506 4
69.9759 56.25 4
68.8384 53.1212 3.99091
64.0165 64.0165 4
66.6118 57.1423 3.99227
63.8867 60.7724 3.99303
63.505 57.7884 3.98792
60.3285 67.2507 4
74.6792 42.3947 2
73.7222 47.2057 2
74.9194 39.9526 4
74.2788 44.8158 4
72.1711 42.0873 3.98936
73.0099 49.554 4
71.2522 46.6021 3.98989
73.0099 25.446 0
71.1327 20.9142 0
68.6801 16.6661 0
67.8268 19.9171 0.00853485
74.6792 32.6053 2
73.7222 27.7943 2
67.2508 14.6715 2
72.1455 23.1494 2
70.6165 26.2155 2
66.6382 17.9628 2
68.8874 21.9497 2
65.8045 21.0111 2
74.9197 35.0474 4
74.2794 30.1841 4
72.1875 32.9405 3.98945
71.2807 28.427 3.98939
69.8177 24.0528 3.99027
68.3558 26.9431 3.9857
66.7708 22.9212 3.9868
65.694 12.7746 4
65.3247 16.0955 3.99268
64.7199 19.1787 3.98751
63.9006 22.0151 3.98536
71.1327 54.0858 0
65.6939 62.2254 0
68.6801 58.3339 0
65.3133 59.009 0.00735722
72.1455 51.8506 2
69.9759 56.25 2
68.8384 53.1214 2
64.0165 64.0165 2
66.6118 57.1426 2
63.8867 60.7726 2
63.5051 57.7886 2
62.2254 65.694 4
58.8937 65.418 3.99326
69.7714 50.9957 3.99036
67.7852 55.1762 3.99168
66.6586 52.2215 3.98698
62.3367 62.4327 3.99323
64.6671 56.0473 3.98779
62.2058 59.4208 3.98843
61.8321 56.704 3.98618
58.3339 68.6801 4
60.3285 67.2508 2
73.7221 47.2057 0
74.6784 42.3946 0
74.9197 39.9526 2
74.2794 44.8159 2
72.1711 42.0873 2
73.0099 49.554 2
71.2522 46.6022 2
75 37.5 4
72.4082 39.8027 3.98911
71.7855 44.3558 3.9897
69.814 41.7925 3.98532
70.5779 48.8189 3.99005
68.9225 46.0214 3.98585
74.6792 32.6053 0
73.7222 27.7943 0
67.2507 14.6715 0
72.1454 23.1494 0
70.6166 26.2156 0.0102955
68.8874 21.9499 0.00915829
66.6382 17.963 0.00784238
65.8045 21.0112 0.0129084
74.9197 35.0474 2
74.2794 30.1841 2
72.1874 32.9404 2
71.2807 28.427 2
65.694 12.7745 2
65.3247 16.0954 2
69.8177 24.0526 2
68.3558 26.943 2
64.7199 19.1786 2
66.7708 22.9212 2
63.9005 22.0152 2
72.416 35.2222 3.98921
71.8065 30.6727 3.98952
69.8492 33.2645 3.98501
68.9751 29.0314 3.98512
67.6201 24.9019 3.98636
66.2105 27.6221 3.98394
64.0165 10.9835 4
64.7716 23.8123 3.98513
63.8908 14.3208 3.99293
63.5175 17.4297 3.98808
62.9185 20.2981 3.98565
62.1124 22.9179 3.98455
60.6841 11.0931 3.99304
57.6124 11.4368 3.98859
72.1454 51.8506 0
69.9759 56.25 0
68.8384 53.1212 0.00909031
64.0165 64.0165 0
63.8867 60.7724 0.00697188
66.6118 57.1423 0.00772593
63.505 57.7884 0.0120801
62.2255 65.694 2
58.8937 65.4183 2
69.7714 50.9958 2
67.7852 55.1764 2
66.6586 52.2215 2
62.3368 62.4329 2
64.6671 56.0474 2
62.2058 59.421 2
61.8322 56.7041 2
60.6687 63.9816 3.99323
57.0241 66.7382 3.99332
57.5575 63.7007 3.98893
67.5173 50.187 3.98654
65.7099 54.1875 3.98751
64.554 51.4038 3.98506
60.7745 60.9523 3.98889
62.8318 55.09 3.98632
60.6647 58.1814 3.98624
60.3405 55.8133 3.98537
56.25 69.9759 4
58.3339 68.6801 2
60.3285 67.2507 0
58.921 9.65182 3.99309
62.2254 9.30607 4
73.0099 49.554 0
74.2788 44.8158 0
71.2522 46.6021 0.0101096
72.1711 42.0873 0.0106406
74.9194 39.9526 0
75 37.5 2
72.4082 39.8026 2
71.7855 44.3558 2
69.8139 41.7925 2
70.5779 48.8189 2
68.9225 46.0213 2
72.4916 37.5112 3.98911
70.0506 39.6584 3.98482
69.4405 43.9122 3.98565
67.615 41.5027 3.98351
68.276 48.1156 3.98617
66.7279 45.4504 3.98424
74.9197 35.0474 0
74.2794 30.1841 0
72.1875 32.9405 0.0105548
71.2807 28.427 0.0106139
65.694 12.7746 0
65.3247 16.0955 0.00732154
69.8177 24.0528 0.00973489
68.3558 26.9431 0.0142981
66.7708 22.9212 0.0132018
64.7199 19.1787 0.0124861
63.9006 22.0151 0.0146382
72.4159 35.2222 2
71.8065 30.6727 2
69.8491 33.2645 2
68.9751 29.0314 2
64.0165 10.9835 2
63.8909 14.3206 2
63.5176 17.4295 2
67.6201 24.9018 2
66.2104 27.622 2
62.9185 20.2982 2
64.7714 23.8123 2
62.1122 22.918 2
60.6842 11.0929 2
57.6124 11.4366 2
70.0671 35.3896 3.98493
69.4763 31.1441 3.98503
67.6719 33.5852 3.98312
66.7882 29.6127 3.98332
65.5398 25.6841 3.98464
64.1693 28.239 3.98329
62.3421 12.6497 3.99301
62.8785 24.6143 3.98448
62.2013 15.7684 3.98846
61.8223 18.662 3.98617
61.2342 21.3146 3.98448
60.4509 23.6982 3.98437
59.2468 12.7663 3.98862
55.8739 10.2248 3.9887
56.4064 13.099 3.98586
69.7714 50.9957 0.00963928
62.2254 65.694 0
58.8937 65.418 0.00674136
67.7852 55.1762 0.00832362
66.6586 52.2215 0.0130189
62.3367 62.4327 0.00677427
62.2058 59.4208 0.011572
64.6671 56.0473 0.012205
61.8321 56.704 0.0138151
60.6688 63.9818 2
57.0242 66.7384 2
57.5576 63.701 2
67.5173 50.187 2
65.71 54.1876 2
64.554 51.4038 2
60.7745 60.9526 2
62.8319 55.0901 2
60.6647 58.1815 2
60.3406 55.8133 2
55.0696 67.9346 3.99339
59.2198 62.378 3.98894
55.8035 64.9165 3.98896
56.3278 62.102 3.98633
65.3493 49.4243 3.98473
63.7205 53.3132 3.98585
62.4654 50.6758 3.98406
59.3369 59.5759 3.98655
61.0931 54.3362 3.98556
59.2982 57.039 3.98495
59.257 55.2133 3.9855
48.1018 68.5811 3.98942
50.9477 69.9333 3.99354
54.0858 71.1327 4
56.25 69.976 2
58.3339 68.6801 0
57.058 8.33223 3.99319
60.3285 7.74928 4
58.9211 9.65167 2
62.2255 9.30602 2
70.5779 48.8189 0.00995338
71.7855 44.3558 0.0103003
68.9225 46.0214 0.0141489
69.814 41.7925 0.0146758
72.4082 39.8027 0.010887
75 37.5 0
72.4915 37.5112 2
70.0505 39.6584 2
69.4405 43.9122 2
67.6149 41.5027 2
68.2761 48.1155 2
66.7278 45.4504 2
70.1385 37.5208 3.98473
67.8515 39.5145 3.98314
67.2416 43.4778 3.98388
65.5814 41.2168 3.98293
66.0867 47.4312 3.98454
64.6782 44.8624 3.98364
72.416 35.2222 0.010795
71.8065 30.6727 0.0104789
69.8492 33.2645 0.0149906
68.9751 29.0314 0.01488
64.0165 10.9835 0
63.8908 14.3208 0.007075
63.5175 17.4297 0.0119248
67.6201 24.9019 0.0136404
66.2105 27.6221 0.0160639
64.7716 23.8123 0.0148699
62.9185 20.2981 0.0143533
62.1124 22.9179 0.015453
60.6841 11.0931 0.00695876
57.6124 11.4368 0.0114096
70.067 35.3896 2
69.4762 31.1442 2
67.6718 33.5851 2
66.7881 29.6126 2
62.3422 12.6496 2
62.2013 15.7682 2
61.8223 18.662 2
65.5397 25.684 2
64.169 28.2389 2
61.2342 21.3148 2
62.8782 24.6144 2
60.4506 23.6984 2
59.2468 12.7661 2
56.4064 13.0988 2
55.874 10.2245 2
67.8873 35.5442 3.98324
67.2817 31.6144 3.9832
65.7214 33.9202 3.98253
64.6861 30.1789 3.98233
63.5608 26.3943 3.98401
62.2871 28.7578 3.98357
60.7763 14.209 3.98861
61.073 25.3109 3.98437
60.6179 17.1067 3.98649
60.2348 19.7895 3.985
59.6825 22.2278 3.98372
59.0082 24.2884 3.98469
54.0369 9.12906 3.98897
57.9121 14.3154 3.98618
54.7872 12.0004 3.9857
55.3144 14.6298 3.98471
67.5173 50.187 0.0134612
57.0241 66.7382 0.00668074
60.6687 63.9816 0.00676703
57.5575 63.7007 0.0110736
65.7099 54.1875 0.0124898
64.554 51.4038 0.0149395
60.7745 60.9523 0.0111149
60.6647 58.1814 0.013758
62.8318 55.09 0.0136774
60.3405 55.8133 0.014633
55.0697 67.9348 2
59.2198 62.3783 2
55.8035 64.9168 2
56.3279 62.1022 2
65.3493 49.4243 2
63.7205 53.3132 2
62.4654 50.6758 2
59.337 59.5761 2
61.0932 54.3362 2
59.2983 57.039 2
59.2571 55.2132 2
53.0416 69.0019 3.99347
53.9655 66.0176 3.98904
57.8828 60.8856 3.98647
54.6836 63.2156 3.98632
55.2133 60.63 3.98501
63.2198 48.6821 3.984
61.7621 52.6012 3.98493
60.3047 50.0474 3.98348
58.0236 58.2834 3.98531
59.346 53.978 3.9849
58.1387 55.8429 3.98382
50.1081 67.8596 3.98928
47.4622 66.5841 3.98656
46.0558 69.1602 3.98955
48.1019 68.5815 2
48.8021 70.7243 3.99359
50.9478 69.9335 2
51.8506 72.1454 4
54.0858 71.1327 2
56.25 69.9759 0
55.1024 7.13721 3.9933
58.3339 6.31992 4
57.0581 8.33205 2
60.3286 7.74926 2
58.921 9.65182 0.00691149
62.2254 9.30607 0
68.276 48.1156 0.013826
69.4405 43.9122 0.0143514
66.7279 45.4504 0.0157602
67.615 41.5027 0.0164894
70.0506 39.6584 0.0151838
72.4916 37.5112 0.0108852
70.1384 37.5208 2
67.8513 39.5145 2
67.2415 43.4778 2
65.5812 41.2169 2
66.0867 47.4313 2
64.678 44.8625 2
67.9476 37.5214 3.98292
65.8126 39.3735 3.98281
65.2018 43.0359 3.98312
63.7886 40.938 3.98296
63.9916 46.7343 3.9839
62.8409 44.2331 3.98384
70.0671 35.3896 0.0150673
69.4763 31.1441 0.0149667
67.6719 33.5852 0.0168767
66.7882 29.6127 0.0166838
62.3421 12.6497 0.0069878
62.2013 15.7684 0.0115368
61.8223 18.662 0.0138341
65.5398 25.6841 0.0153614
64.1693 28.239 0.0167095
62.8785 24.6143 0.0155219
61.2342 21.3146 0.0155185
60.4509 23.6982 0.0156272
59.2468 12.7663 0.0113842
56.4064 13.099 0.0141361
55.8739 10.2248 0.0112982
67.8871 35.5441 2
67.2815 31.6143 2
65.7211 33.92 2
64.6858 30.1787 2
60.7764 14.2088 2
60.6179 17.1067 2
60.2349 19.7896 2
63.5605 26.3943 2
62.2867 28.7578 2
59.6824 22.2281 2
61.0726 25.3111 2
59.0078 24.2887 2
57.9121 14.3153 2
55.3145 14.6297 2
54.037 9.12872 2
54.7872 12.0002 2
65.9006 35.6628 3.98253
65.2098 32.1441 3.98217
64.3134 34.2423 3.98161
62.6256 30.6195 3.98244
61.6808 27.0485 3.98393
60.8855 29.1185 3.9847
59.3134 15.6503 3.98641
59.3646 25.7667 3.98518
59.1309 18.331 3.98562
58.756 20.8241 3.98394
58.3106 23.0593 3.98315
58.0009 24.6317 3.98558
52.1116 8.14814 3.98923
53.0579 11.008 3.98589
56.679 15.7235 3.9853
53.8107 13.6676 3.98413
54.3786 15.9809 3.98438
55.0696 67.9346 0.00660705
65.3493 49.4243 0.0152737
55.8035 64.9165 0.011036
59.2198 62.378 0.0110627
56.3278 62.102 0.0136734
63.7205 53.3132 0.0141517
62.4654 50.6758 0.0159351
59.3369 59.5759 0.0134548
59.2982 57.039 0.015049
61.0931 54.3362 0.0144436
59.257 55.2133 0.0145035
53.0417 69.0021 2
53.9655 66.0179 2
57.8828 60.8858 2
54.6837 63.2159 2
55.2134 60.6302 2
63.2196 48.682 2
61.7621 52.6011 2
60.3045 50.0472 2
58.0238 58.2836 2
59.3462 53.9779 2
58.1388 55.8429 2
52.069 67.0033 3.98914
52.9525 64.2243 3.9863
56.6516 59.5068 3.98536
53.6817 61.632 3.98491
54.2627 59.3368 3.98433
61.0278 47.906 3.9836
59.7357 52.1353 3.98454
58.0632 49.6493 3.98402
56.7844 57.0137 3.98393
57.1394 54.1558 3.98341
50.1082 67.86 2
49.3359 65.9247 3.9864
47.4623 66.5845 2
46.8916 64.7394 3.98484
45.5574 67.1014 3.98675
43.9732 69.5927 3.98965
46.0559 69.1606 2
46.609 71.3686 3.99364
48.1018 68.5811 0.0105821
48.8022 70.7246 2
49.554 73.0099 4
50.9477 69.9333 0.00646331
51.8506 72.1455 2
54.0858 71.1327 0
53.0635 6.069 3.99346
55.1024 7.13699 2
56.25 5.02411 4
58.3339 6.3199 2
57.058 8.33223 0.00680769
60.3285 7.74928 0
66.0867 47.4312 0.0154646
67.2416 43.4778 0.0161183
64.6782 44.8624 0.0163577
65.5814 41.2168 0.0170714
67.8515 39.5145 0.0168644
70.1385 37.5208 0.0152738
67.9473 37.5213 2
65.8123 39.3736 2
65.2016 43.036 2
63.7883 40.938 2
63.9915 46.7342 2
62.8406 44.233 2
65.9151 37.5013 3.98249
63.9328 39.271 3.98289
63.3624 42.5626 3.98299
62.4705 40.7071 3.98236
62.002 45.9403 3.98397
61.4918 43.7017 3.98494
67.8873 35.5442 0.0167613
67.2817 31.6144 0.0168018
65.7214 33.9202 0.0174742
64.6861 30.1789 0.0176689
60.7763 14.209 0.0113904
60.6179 17.1067 0.013514
60.2348 19.7895 0.0149989
63.5608 26.3943 0.0159934
62.2871 28.7578 0.0164263
61.073 25.3109 0.0156339
59.6825 22.2278 0.0162832
59.0082 24.2884 0.0153057
57.9121 14.3154 0.0138192
55.3144 14.6298 0.015286
54.0369 9.12906 0.0110333
54.7872 12.0004 0.0143015
65.9004 35.6627 2
65.2095 32.144 2
64.3131 34.2421 2
62.6251 30.6194 2
59.3134 15.6502 2
59.131 18.3311 2
58.756 20.8244 2
61.6804 27.0486 2
60.885 29.1184 2
58.3103 23.0598 2
59.3642 25.7669 2
58.0004 24.6321 2
56.6791 15.7235 2
54.3787 15.9809 2
53.8108 13.6675 2
52.1117 8.14776 2
53.058 11.0076 2
64.1219 35.6279 3.9819
62.9631 33.0349 3.9814
60.6529 30.5926 3.98308
59.6104 27.8838 3.98465
57.9432 16.9619 3.98563
57.7771 25.6935 3.98631
57.7247 19.4492 3.98481
57.3906 21.8086 3.98265
57.2163 23.9132 3.98324
50.1119 7.28044 3.9896
51.2322 10.1172 3.98619
52.1727 12.7866 3.98391
55.5404 16.9521 3.98487
52.9793 15.2492 3.98331
53.7608 16.9626 3.98428
53.0416 69.0019 0.00652565
53.9655 66.0176 0.0109644
63.2198 48.6821 0.0160049
54.6836 63.2156 0.0136807
57.8828 60.8856 0.0135348
55.2133 60.63 0.01499
61.7621 52.6012 0.0150657
60.3047 50.0474 0.0165169
58.0236 58.2834 0.0146859
58.1387 55.8429 0.0161785
59.346 53.978 0.0151033
52.069 67.0036 2
52.9525 64.2246 2
56.6517 59.507 2
53.6818 61.6322 2
54.2628 59.337 2
61.0276 47.9058 2
59.7357 52.1352 2
58.063 49.6489 2
56.7846 57.0138 2
57.1395 54.1556 2
51.1668 65.1322 3.98629
52.0459 62.5449 3.98462
55.4846 58.2696 3.98466
52.8358 60.1462 3.98425
53.6431 58.4875 3.98418
58.3524 46.8776 3.98522
57.5902 51.8202 3.98349
56.289 49.5877 3.98511
55.4823 55.8223 3.9828
55.3793 53.4158 3.98161
50.1081 67.8596 0.0107244
49.3359 65.9251 2
48.6173 64.126 3.98471
47.4622 66.5841 0.0134361
45.5575 67.1018 2
46.8916 64.7398 2
46.3811 63.0564 3.98361
45.1318 65.2009 3.9849
43.6308 67.4723 3.98695
41.8607 69.8805 3.98972
43.9732 69.5931 2
44.3766 71.8635 3.9937
46.0558 69.1602 0.0104464
46.609 71.3689 2
47.2057 73.7222 4
48.8021 70.7243 0.00640698
49.554 73.0099 2
51.8506 72.1454 0
50.9533 5.12955 3.99366
53.0636 6.06874 2
54.0858 3.86728 4
55.1024 7.13721 0.00669859
56.25 5.02406 2
58.3339 6.31992 0
63.9916 46.7343 0.0161047
65.2018 43.0359 0.016879
62.8409 44.2331 0.0161608
63.7886 40.938 0.0170395
65.8126 39.3735 0.0171873
67.9476 37.5214 0.0170764
65.9148 37.5013 2
63.9325 39.271 2
63.3621 42.5626 2
62.4701 40.7071 2
62.0017 45.9402 2
61.4915 43.7016 2
63.9928 37.4569 3.98296
62.2002 39.3604 3.98274
61.2622 41.973 3.98316
60.2939 44.7928 3.98557
65.9006 35.6628 0.0174714
65.2098 32.1441 0.0178258
64.3134 34.2423 0.0183924
62.6256 30.6195 0.0175555
59.3134 15.6503 0.0135888
59.1309 18.331 0.0143839
58.756 20.8241 0.0160619
61.6808 27.0485 0.0160689
60.8855 29.1185 0.0152961
59.3646 25.7667 0.0148238
58.3106 23.0593 0.0168479
58.0009 24.6317 0.0144162
56.679 15.7235 0.0146991
54.3786 15.9809 0.015621
53.8107 13.6676 0.0158709
52.1116 8.14814 0.0107662
53.0579 11.008 0.0141067
64.1217 35.6278 2
62.9627 33.0348 2
60.6524 30.5925 2
57.9433 16.9619 2
57.7248 19.4494 2
57.3905 21.809 2
59.6098 27.8839 2
57.2159 23.9138 2
57.7765 25.6939 2
50.1119 7.28009 2
55.5405 16.9521 2
53.7609 16.9626 2
52.9794 15.2492 2
52.1728 12.7864 2
51.2323 10.1168 2
62.2301 35.3534 3.98184
60.3346 32.7311 3.98099
58.6687 30.0515 3.98407
57.3374 27.3502 3.9858
56.641 18.1331 3.98516
56.3298 25.0682 3.98449
56.3699 20.4937 3.98357
56.1337 22.8364 3.98141
48.0558 6.52395 3.98985
49.3241 9.32543 3.98655
50.4334 11.9856 3.98421
51.3789 14.4874 3.98241
54.4185 17.9011 3.98419
52.3633 17.0208 3.9829
52.069 67.0033 0.0108597
52.9525 64.2243 0.0137041
61.0278 47.906 0.0164031
53.6817 61.632 0.0150937
56.6516 59.5068 0.0146374
54.2627 59.3368 0.0156743
59.7357 52.1353 0.0154595
58.0632 49.6493 0.0159846
56.7844 57.0137 0.0160727
57.1394 54.1558 0.0165871
51.1668 65.1325 2
52.0459 62.5452 2
55.4848 58.2698 2
52.8359 60.1464 2
53.6433 58.4877 2
58.352 46.8772 2
57.5902 51.8198 2
56.2888 49.5871 2
55.4825 55.8224 2
55.3794 53.4156 2
50.3455 63.3849 3.98457
51.2445 60.9419 3.98338
54.2242 57.2846 3.98371
52.3148 58.6469 3.98357
56.7815 44.2091 3.98687
55.5454 47.9271 3.98476
55.1031 51.4236 3.9813
54.0193 54.5746 3.98079
49.3359 65.9247 0.013605
48.6173 64.1263 2
47.9614 62.4776 3.98359
45.5574 67.1014 0.0132511
46.8916 64.7394 0.0151635
43.6309 67.4727 2
46.3811 63.0567 2
45.1319 65.2013 2
45.9866 61.5883 3.98274
44.7663 63.4574 3.98363
43.3558 65.5108 3.985
41.6632 67.6917 3.98704
39.7026 70.0279 3.98973
41.8607 69.8808 2
42.1111 72.2084 3.99373
43.9732 69.5927 0.0103465
44.3766 71.8637 2
44.8159 74.2794 4
46.609 71.3686 0.00635688
47.2057 73.7222 2
49.554 73.0099 0
48.7839 4.32076 3.99378
50.9534 5.12929 2
51.8506 2.85458 4
53.0635 6.069 0.00654044
54.0858 3.86728 2
56.25 5.02411 0
62.002 45.9403 0.0160278
63.3624 42.5626 0.017014
61.4918 43.7017 0.0150554
62.4705 40.7071 0.0176364
63.9328 39.271 0.0171106
65.9151 37.5013 0.0175101
63.9925 37.4568 2
62.1998 39.3604 2
61.2618 41.973 2
60.2935 44.7926 2
62.0396 37.4444 3.98359
60.3025 39.8559 3.9823
59.0501 42.9392 3.98523
64.1219 35.6279 0.0181049
62.9631 33.0349 0.0186017
60.6529 30.5926 0.016923
57.9432 16.9619 0.0143697
57.7247 19.4492 0.0151939
57.3906 21.8086 0.0173463
59.6104 27.8838 0.0153458
57.7771 25.6935 0.0136936
57.2163 23.9132 0.0167624
55.5404 16.9521 0.0151289
53.7608 16.9626 0.0157221
52.9793 15.2492 0.016694
50.1119 7.28044 0.0103989
52.1727 12.7866 0.016092
51.2322 10.1172 0.0138068
62.2297 35.3533 2
60.334 32.731 2
58.668 30.0515 2
56.6411 18.1331 2
56.3699 20.4939 2
56.1334 22.837 2
57.3367 27.3505 2
56.3292 25.0689 2
48.0558 6.52361 2
49.3242 9.32505 2
54.4186 17.9012 2
52.3634 17.021 2
51.379 14.4873 2
50.4335 11.9853 2
59.9475 35.1121 3.98208
58.0496 32.2502 3.98173
56.6013 29.3107 3.98546
55.4961 26.566 3.98686
55.3485 19.1672 3.98445
54.9625 24.0229 3.98123
55.0183 21.5343 3.98198
45.9619 5.87927 3.99008
43.3736 7.4689 3.98783
47.3547 8.61945 3.98711
48.6 11.2877 3.98422
49.7147 13.7352 3.98304
50.6347 16.1222 3.98137
53.1288 18.6422 3.98361
51.3056 18.0358 3.98313
51.1668 65.1322 0.0137116
52.0459 62.5449 0.0153755
58.3524 46.8776 0.0147809
52.8358 60.1462 0.0157464
55.4846 58.2696 0.0153437
53.6431 58.4875 0.0158156
57.5902 51.8202 0.0165088
56.289 49.5877 0.0148946
55.4823 55.8223 0.0172044
55.3793 53.4158 0.0183889
50.3456 63.3852 2
51.2445 60.9421 2
54.2244 57.2849 2
52.3149 58.6472 2
56.7808 44.2088 2
55.545 47.9265 2
55.103 51.423 2
54.0196 54.5747 2
49.5915 61.7482 3.98337
55.7229 41.7268 3.98329
50.5679 59.3353 3.98224
52.1904 56.5064 3.98236
54.259 45.5901 3.98622
53.3928 49.3606 3.98195
52.6924 52.8826 3.97892
48.6173 64.126 0.0152945
47.9614 62.4779 2
47.3288 61.0116 3.98278
43.6308 67.4723 0.0130489
45.1318 65.2009 0.0150955
46.3811 63.0564 0.0163877
41.6632 67.6921 2
43.3559 65.5112 2
45.9866 61.5886 2
44.7664 63.4578 2
45.7655 60.6321 3.9819
44.4824 61.8376 3.98261
43.1456 63.7302 3.98362
41.5454 65.6489 3.98486
39.6326 67.7718 3.987
37.5263 70.0532 3.98971
39.7026 70.0282 2
39.818 72.4055 3.99372
41.8607 69.8805 0.0102778
42.1111 72.2086 2
42.3947 74.6792 4
44.3766 71.8635 0.00629642
44.8159 74.2794 2
47.2057 73.7222 0
43.8514 5.35632 3.99032
46.57 3.64545 3.99396
48.7839 4.32052 2
49.554 1.99015 4
50.9533 5.12955 0.00633664
51.8506 2.85453 2
54.0858 3.86728 0
60.2939 44.7928 0.0144316
61.2622 41.973 0.0168417
62.2002 39.3604 0.0172557
63.9928 37.4569 0.0170418
62.0393 37.4444 2
60.302 39.856 2
59.0496 42.9391 2
59.8247 37.5668 3.98456
58.0714 40.673 3.98331
55.2107 39.7321 3.98507
62.2301 35.3534 0.0181619
60.3346 32.7311 0.0190091
58.6687 30.0515 0.0159276
56.641 18.1331 0.0148384
56.3699 20.4937 0.0164267
56.1337 22.8364 0.0185922
57.3374 27.3502 0.0141979
56.3298 25.0682 0.0155108
54.4185 17.9011 0.0158089
52.3633 17.0208 0.0170953
51.3789 14.4874 0.0175918
48.0558 6.52395 0.0101451
49.3241 9.32543 0.0134543
50.4334 11.9856 0.0157876
59.9471 35.1121 2
45.9619 5.87888 2
43.3736 7.4685 2
58.0489 32.25 2
56.6004 29.3107 2
55.3487 19.1672 2
55.0183 21.5348 2
54.962 24.0237 2
55.4953 26.5667 2
47.3547 8.61907 2
48.6 11.2873 2
53.1289 18.6424 2
51.3057 18.036 2
50.6348 16.1223 2
49.7149 13.7349 2
57.4683 34.75 3.98139
55.7953 31.4924 3.98348
54.5765 28.3714 3.98886
53.8159 25.4633 3.98289
53.9767 20.1152 3.98376
53.6037 22.6796 3.97981
41.3987 7.07424 3.98805
45.3595 7.99095 3.98754
42.8654 9.41049 3.98582
46.6663 10.6482 3.98496
47.7456 13.0964 3.98284
48.9322 15.3936 3.98162
50.0077 17.6916 3.98042
51.6574 19.3133 3.98315
50.3455 63.3849 0.0154312
51.2445 60.9419 0.0166184
56.7815 44.2091 0.0131258
55.5454 47.9271 0.0152357
52.3148 58.6469 0.0164264
54.2242 57.2846 0.0162929
55.1031 51.4236 0.0187
54.0193 54.5746 0.0192078
49.5915 61.7485 2
55.722 41.7268 2
50.5679 59.3355 2
52.1907 56.5067 2
54.2582 45.5896 2
53.3926 49.3595 2
52.6927 52.8824 2
48.8489 60.2051 3.98256
52.6373 42.6616 3.98636
49.7913 57.635 3.98189
50.6088 54.4402 3.98043
51.8973 47.2957 3.98213
51.2562 50.975 3.97715
48.3461 43.7268 3.97583
47.9614 62.4776 0.0164124
47.3287 61.0118 2
46.6182 59.7973 3.98205
41.6632 67.6917 0.0129639
43.3558 65.5108 0.014996
44.7663 63.4574 0.016375
45.9866 61.5883 0.0172559
39.6326 67.7722 2
41.5454 65.6493 2
45.7654 60.6323 2
43.1456 63.7306 2
44.4824 61.8379 2
44.6225 60.2937 3.98156
42.9496 62.0863 3.98215
41.599 63.8236 3.98343
39.6472 65.6175 3.98471
37.5635 67.7545 3.98697
31.6981 65.1366 3.98493
33.3929 67.4922 3.98701
35.3338 69.9634 3.98968
37.5263 70.0536 2
37.5097 72.4602 3.99369
39.7026 70.0279 0.0102691
39.818 72.4058 2
39.9526 74.9197 4
42.1111 72.2084 0.0062705
42.3947 74.6792 2
44.8159 74.2794 0
41.7361 4.96558 3.99042
43.8514 5.35595 2
44.3254 3.10878 3.99413
46.5701 3.64519 2
47.2057 1.27793 4
48.7839 4.32076 0.00621673
49.554 1.99013 2
51.8506 2.85458 0
59.0501 42.9392 0.014773
60.3025 39.8559 0.0176951
62.0396 37.4444 0.0164144
59.8244 37.5668 2
58.0707 40.6731 2
55.21 39.7322 2
56.9163 37.9007 3.98448
49.8048 41.2943 3.98387
53.2603 39.3162 3.99032
39.4422 6.7977 3.98817
59.9475 35.1121 0.0179219
58.0496 32.2502 0.0182654
56.6013 29.3107 0.0145441
55.3485 19.1672 0.0155462
55.0183 21.5343 0.0180234
54.9625 24.0229 0.0187733
55.4961 26.566 0.0131379
53.1288 18.6422 0.0163878
51.3056 18.0358 0.0168673
50.6347 16.1222 0.0186332
45.9619 5.87927 0.00991688
49.7147 13.7352 0.0169629
47.3547 8.61945 0.0128877
48.6 11.2877 0.0157817
43.3736 7.4689 0.0121665
57.4678 34.7499 2
41.3988 7.07385 2
45.3596 7.99051 2
42.8654 9.41007 2
55.7943 31.4922 2
54.5753 28.3717 2
53.9769 20.1153 2
53.6034 22.6803 2
53.8151 25.4642 2
46.6664 10.6479 2
47.7457 13.0961 2
51.6576 19.3136 2
50.0078 17.6918 2
48.9324 15.3933 2
54.978 33.9531 3.98098
53.5774 30.4538 3.98881
52.6525 27.1658 3.98572
52.1776 24.0543 3.98072
52.4036 21.0527 3.98211
41.0135 9.04355 3.9863
44.7236 9.99079 3.98554
42.4682 10.8972 3.98446
46.0052 12.7239 3.9828
47.682 14.5785 3.98237
48.1141 16.9821 3.97948
49.8202 19.5875 3.98044
49.5915 61.7482 0.0166316
50.5679 59.3353 0.0177629
55.7229 41.7268 0.016705
54.259 45.5901 0.0137751
53.3928 49.3606 0.0180543
52.1904 56.5064 0.0176391
52.6924 52.8826 0.0210781
48.8489 60.2053 2
52.636 42.6617 2
49.7914 57.6352 2
50.6091 54.4404 2
51.8965 47.2943 2
51.2564 50.9742 2
48.3435 43.7263 2
47.987 58.7463 3.98181
50.2257 45.285 3.98139
48.604 55.9243 3.98128
49.1554 52.6159 3.97946
49.7357 49.0704 3.97668
46.2044 39.912 3.92306
46.596 42.7801 3.99887
46.6425 45.7197 3.97458
44.0592 41.255 3.98424
42.0939 41.9931 3.9927
47.3288 61.0116 0.0172168
46.6181 59.7974 2
45.4677 58.7923 3.98066
39.6326 67.7718 0.0130045
41.5454 65.6489 0.0151362
43.1456 63.7302 0.0163798
44.4824 61.8376 0.0173869
45.7655 60.6321 0.0181042
41.599 63.824 2
37.5635 67.755 2
39.6472 65.6179 2
44.6225 60.2939 2
42.9496 62.0866 2
41.7526 62.4973 3.98232
42.4799 59.9842 3.9811
39.8927 63.5584 3.98293
37.6422 65.5169 3.98477
35.4639 67.664 3.98698
33.5761 65.3503 3.98498
31.9604 63.308 3.98339
29.8843 64.7272 3.9847
31.6981 65.137 2
31.3777 67.2018 3.9869
33.3928 67.4926 2
33.1568 69.7566 3.98964
35.3337 69.9638 2
35.1952 72.3746 3.99366
37.5263 70.0532 0.0102877
37.5097 72.4604 2
37.5 75 4
39.818 72.4055 0.00628239
39.9526 74.9197 2
42.3947 74.6792 0
39.6238 4.71274 3.99054
41.7361 4.96523 2
42.0619 2.71647 3.99423
43.8514 5.35632 0.00968178
44.3255 3.10852 2
44.8158 0.721173 4
46.57 3.64545 0.00604478
47.2057 1.27779 2
49.554 1.99015 0
58.0714 40.673 0.0166861
59.8247 37.5668 0.0154352
55.2107 39.7321 0.0149269
49.8037 41.294 2
56.9158 37.9006 2
53.2598 39.3162 2
54.1123 36.6234 3.98425
47.7271 40.4641 4.00295
50.7573 38.4821 3.98786
37.516 6.66885 3.98833
39.4422 6.7973 2
39.2111 8.68607 3.9863
35.9414 8.48564 3.98666
57.4683 34.75 0.0186141
55.7953 31.4924 0.0165235
54.5765 28.3714 0.011137
53.9767 20.1152 0.0162398
53.6037 22.6796 0.0201948
53.8159 25.4633 0.017115
51.6574 19.3133 0.0168462
50.0077 17.6916 0.0195845
48.9322 15.3936 0.0183777
45.3595 7.99095 0.0124643
47.7456 13.0964 0.0171632
46.6663 10.6482 0.0150361
41.3987 7.07424 0.0119542
42.8654 9.41049 0.0141844
54.9773 33.953 2
41.0135 9.04313 2
44.7236 9.99036 2
42.4682 10.8968 2
53.576 30.4529 2
52.6512 27.1669 2
52.4038 21.053 2
52.1771 24.0554 2
46.0052 12.7236 2
47.6821 14.5782 2
49.8204 19.5881 2
48.1143 16.9818 2
52.5276 32.844 3.98331
51.4304 29.1251 3.99051
50.8441 25.6922 3.97868
49.9532 22.1604 3.98124
40.5691 11.6005 3.9839
43.8579 11.9126 3.98348
45.8026 15.4149 3.98133
47.5058 19.2177 3.97827
46.5285 37.5063 3.92571
48.8489 60.2051 0.0174435
49.7913 57.635 0.0181098
52.6373 42.6616 0.0136413
51.8973 47.2957 0.0178714
51.2562 50.975 0.0228454
50.6088 54.4402 0.0195694
48.3461 43.7268 0.0241657
47.987 58.7465 2
50.224 45.284 2
48.6041 55.9245 2
49.1558 52.6164 2
49.7354 49.0691 2
46.2018 39.9154 2
46.6012 42.7834 2
46.6405 45.7161 2
44.0609 41.2529 2
42.0978 41.997 2
46.8397 57.3474 3.98218
44.8175 39.51 3.97286
42.4613 40.8698 3.9897
48.1888 47.2626 3.98183
47.1805 54.2553 3.98193
47.6308 50.7763 3.978
44.9095 47.335 3.97291
45.2767 42.0314 3.92786
45.0598 44.6667 3.9959
42.8522 42.7459 3.98384
40.9426 42.3459 3.98719
46.6182 59.7973 0.0179504
45.4677 58.7923 2
43.8756 57.714 3.9802
37.5635 67.7545 0.0130349
39.6472 65.6175 0.0152936
41.599 63.8236 0.0165652
42.9496 62.0863 0.0178465
44.6225 60.2937 0.0184406
35.4639 67.6644 2
41.7526 62.4977 2
39.8927 63.5588 2
37.6422 65.5173 2
42.4799 59.9844 2
40.6222 61.6545 3.98231
40.4436 58.2117 3.97995
37.8364 63.2199 3.98277
35.5733 65.4393 3.98482
33.5761 65.3507 2
31.9604 63.3083 2
33.6297 63.3478 3.98343
30.3794 62.866 3.98318
32.1236 62.013 3.98225
26.8685 61.5089 3.98256
28.0632 64.1547 3.98442
29.8843 64.7275 2
29.4074 66.7652 3.98669
31.6981 65.1366 0.0150665
31.3777 67.2021 2
31.0142 69.4216 3.98957
33.3929 67.4922 0.0129934
33.1567 69.757 2
32.8923 72.1488 3.99364
35.3338 69.9634 0.0103152
35.1952 72.3749 2
35.0474 74.9194 4
37.5097 72.4602 0.00631459
37.5 75 2
39.9526 74.9197 0
35.6205 6.7198 3.98827
37.523 4.61235 3.99054
39.6238 4.71238 2
39.7885 2.47296 3.99434
41.7361 4.96558 0.00957657
42.0619 2.71621 2
42.3946 0.32156 4
44.3254 3.10878 0.00587057
44.8159 0.72056 2
47.2057 1.27793 0
49.8048 41.2943 0.0161306
56.9163 37.9007 0.0155218
53.2603 39.3162 0.00967555
47.7258 40.4604 2
50.7566 38.4826 2
54.1117 36.6235 2
51.5372 35.5653 3.9742
48.3929 37.7626 4.00599
46.187 35.103 3.9286
44.0505 33.7575 3.97983
42.0861 33.0245 3.99176
37.4578 8.52752 3.98655
37.516 6.66847 2
39.4422 6.7977 0.0118347
39.2111 8.68565 2
38.976 10.1186 3.98567
35.8979 9.76504 3.98572
34.1498 8.81491 3.9865
35.9414 8.48526 2
54.978 33.9531 0.0190224
53.5774 30.4538 0.0111922
52.6525 27.1658 0.0142844
52.4036 21.0527 0.0178861
52.1776 24.0543 0.0192778
49.8202 19.5875 0.0195586
48.1141 16.9821 0.0205164
47.682 14.5785 0.0176262
44.7236 9.99079 0.0144607
46.0052 12.7239 0.0172049
41.0135 9.04355 0.0137012
42.4682 10.8972 0.0155447
52.5268 32.8433 2
40.569 11.6001 2
43.858 11.9122 2
51.4286 29.1262 2
50.843 25.6938 2
49.9534 22.1611 2
45.8027 15.4146 2
47.5059 19.2173 2
50.141 31.3735 3.98166
49.3674 27.4489 3.97907
49.4414 24.3746 3.97858
47.1945 21.9126 3.97715
38.3015 12.7256 3.98286
42.1006 14.2979 3.98163
44.801 18.4534 3.9793
45.0882 37.5091 3.97161
46.5288 37.508 2
47.987 58.7463 0.0181935
48.604 55.9243 0.0187202
50.2257 45.285 0.0186097
49.7357 49.0704 0.0233247
49.1554 52.6159 0.0205371
46.2044 39.912 0.0769418
46.596 42.7801 0.00112787
46.6425 45.7197 0.0254194
44.0592 41.255 0.0157553
42.0939 41.9931 0.00730131
46.8397 57.3475 2
44.8174 39.5068 2
42.4618 40.871 2
48.1876 47.2615 2
47.1807 54.2554 2
47.6308 50.7758 2
44.9091 47.3248 2
45.2763 42.0345 2
45.0699 44.6713 2
42.859 42.7393 2
40.9459 42.346 2
45.4007 55.9313 3.97964
42.7936 39.2656 3.9831
40.8936 40.8115 3.95376
46.1624 48.9392 3.98075
45.5693 52.5519 3.9845
43.5368 48.4762 3.94549
43.4478 46.2143 4.0124
43.8131 43.831 3.92823
41.3126 43.8929 3.98785
39.3088 42.6555 3.97276
45.4677 58.7923 0.0193367
43.8756 57.714 2
42.1064 56.3354 3.9798
35.4639 67.664 0.0130164
37.6422 65.5169 0.0152277
39.8927 63.5584 0.0170681
41.7526 62.4973 0.0176791
42.4799 59.9842 0.0188955
35.5733 65.4397 2
40.6222 61.6548 2
37.8364 63.2203 2
40.4436 58.2119 2
38.9251 56.5011 3.97821
38.2498 60.3363 3.98123
35.6071 63.214 3.98309
33.5761 65.3503 0.0150172
31.9604 63.308 0.0166091
33.6297 63.3482 2
30.3794 62.8663 2
32.1236 62.0133 2
28.6817 62.2107 3.98286
33.3461 61.5251 3.98168
31.0664 61.2291 3.98184
27.5665 59.6048 3.98236
23.7879 59.1007 3.98495
25.033 60.884 3.98354
26.8685 61.5091 2
26.2295 63.4869 3.98418
28.0631 64.155 2
27.4642 66.1888 3.98642
29.8843 64.7272 0.0153002
29.4074 66.7656 2
28.9068 68.947 3.98946
31.3777 67.2018 0.0130957
31.0141 69.4219 2
30.6148 71.7799 3.99363
33.1568 69.7566 0.0103625
32.8923 72.1491 2
32.6054 74.6784 4
35.1952 72.3746 0.00633807
35.0474 74.9197 2
37.5 75 0
33.7232 6.9742 3.98807
35.4345 4.68268 3.99051
35.6205 6.7194 2
37.5141 2.38564 3.99434
37.523 4.612 2
39.6238 4.71274 0.00946364
39.7885 2.4727 2
39.9526 0.0806499 4
42.0619 2.71647 0.00577114
42.3947 0.320817 2
44.8158 0.721173 0
44.8088 35.509 3.97344
42.4519 34.1497 3.99201
47.7271 40.4641 -0.00295323
50.7573 38.4821 0.012135
54.1123 36.6234 0.0157512
48.3927 37.7625 2
51.5363 35.5648 2
46.183 35.1019 2
44.0542 33.759 2
42.0891 33.024 2
48.5579 34.2371 4.00448
45.2675 32.9813 3.92605
42.8489 32.2669 3.98465
40.9346 32.6779 3.98493
37.31 10.6214 3.98486
37.4577 8.52714 2
37.516 6.66885 0.0116698
39.2111 8.68607 0.0136976
38.976 10.1182 2
34.753 10.3706 3.98496
35.8979 9.76468 2
32.3764 9.36134 3.98596
34.1497 8.81454 2
35.9414 8.48564 0.0133387
52.5276 32.844 0.016693
51.4304 29.1251 0.00948592
50.8441 25.6922 0.0213172
49.9532 22.1604 0.0187611
47.5058 19.2177 0.0217261
45.8026 15.4149 0.0186718
43.8579 11.9126 0.0165162
40.5691 11.6005 0.0160983
50.1397 31.3733 2
38.3015 12.7255 2
42.1006 14.2975 2
49.3657 27.4508 2
49.441 24.3756 2
47.1947 21.9135 2
44.8011 18.4531 2
47.9241 29.582 3.97311
47.1444 25.0986 3.97998
44.2934 21.3109 3.97733
36.581 12.9218 3.98324
38.68 14.7968 3.98214
41.7496 17.8296 3.98002
42.9179 37.5015 3.9854
45.0907 37.5088 2
46.5285 37.5063 0.0742896
46.8397 57.3474 0.0178162
47.1805 54.2553 0.0180731
48.1888 47.2626 0.0181657
47.6308 50.7763 0.0220032
44.8175 39.51 0.0271356
45.2767 42.0314 0.0721393
45.0598 44.6667 0.00410234
44.9095 47.335 0.0270903
42.8522 42.7459 0.0161578
42.4613 40.8698 0.0103016
40.9426 42.3459 0.0128093
45.4008 55.9313 2
42.7934 39.2657 2
40.8935 40.8133 2
46.1622 48.9363 2
45.5698 52.5513 2
43.5368 48.473 2
43.4684 46.2207 2
43.8125 43.8339 2
41.3143 43.8841 2
39.3097 42.6583 2
43.7416 54.4377 3.98237
40.975 39.1877 3.94666
39.2339 40.8854 3.95116
43.7547 50.529 3.99159
42.0403 47.7374 4.02687
41.9555 45.2146 3.9204
39.5238 44.6523 3.98607
37.5032 42.7774 3.95929
43.8756 57.714 0.0198035
42.1063 56.3353 2
40.4206 54.9362 3.97865
35.5733 65.4393 0.0151786
37.8364 63.2199 0.017229
40.6222 61.6545 0.0176948
40.4436 58.2117 0.0200461
35.6071 63.2143 2
38.2498 60.3366 2
38.9249 56.5013 2
37.9997 55.2533 3.978
36.9338 57.6342 3.97919
35.3635 60.9229 3.98174
33.6297 63.3478 0.0165694
30.3794 62.866 0.0168157
32.1236 62.013 0.0177543
33.3461 61.5254 2
28.6817 62.211 2
31.0664 61.2294 2
29.4021 60.2976 3.98126
32.3555 59.7545 3.98122
28.0183 58.3833 3.98372
27.5665 59.605 2
25.3751 58.6095 3.98315
22.7499 58.2625 3.983
23.3978 60.3665 3.98436
23.7877 59.1009 2
25.033 60.8842 2
24.4315 62.7805 3.98468
26.8685 61.5089 0.0174357
26.2295 63.4872 2
25.5482 65.4988 3.98619
28.0632 64.1547 0.0155846
27.4641 66.1891 2
26.8367 68.3354 3.9893
29.4074 66.7652 0.0133083
28.9067 68.9474 2
28.37 71.2651 3.99359
31.0142 69.4216 0.0104294
30.6148 71.7802 2
30.1842 74.2788 4
32.8923 72.1488 0.00635974
32.6053 74.6792 2
35.0474 74.9194 0
31.7876 7.41359 3.9878
33.3465 4.92169 3.99042
33.7231 6.97382 2
35.2444 2.46177 3.9943
35.4345 4.68231 2
35.6205 6.7198 0.0117325
37.5 0 4
37.5141 2.38539 2
37.523 4.61235 0.0094644
39.7885 2.47296 0.00566175
39.9526 0.0802889 2
42.3946 0.32156 0
42.7864 35.7427 3.98636
44.8072 35.5107 2
40.8857 34.2145 3.95314
42.4539 34.1474 2
48.3929 37.7626 -0.00599009
51.5372 35.5653 0.0258038
46.187 35.103 0.0713964
44.0505 33.7575 0.0201669
42.0861 33.0245 0.00824314
48.557 34.2374 2
45.2664 32.9773 2
42.8528 32.2704 2
40.9366 32.6742 2
46.5082 31.4744 4.00198
43.8118 31.1805 3.92563
41.3088 31.1251 3.98253
39.2976 32.3919 3.97435
35.6914 11.766 3.98373
37.3099 10.6211 2
37.4578 8.52752 0.0134478
38.976 10.1186 0.0143265
33.0968 11.2071 3.98434
34.753 10.3703 2
35.8979 9.76504 0.0142789
30.4811 10.0092 3.98551
32.3764 9.361 2
34.1498 8.81491 0.0135046
50.141 31.3735 0.0183439
49.3674 27.4489 0.0209329
49.4414 24.3746 0.0214151
47.1945 21.9126 0.0228465
44.801 18.4534 0.0207003
42.1006 14.2979 0.0183704
38.3015 12.7256 0.0171449
36.581 12.9216 2
47.9214 29.5841 2
38.6801 14.7969 2
41.7496 17.8293 2
47.1437 25.0991 2
44.2935 21.3109 2
45.6639 27.803 3.9741
43.8262 24.0387 3.97972
41.3444 20.7093 3.97868
35.7703 14.7472 3.98216
38.6806 17.584 3.98118
41.0164 37.4975 3.94417
42.9197 37.5011 2
45.0882 37.5091 0.028393
45.4007 55.9313 0.0203556
45.5693 52.5519 0.0154979
46.1624 48.9392 0.0192493
42.7936 39.2656 0.0168957
43.8131 43.831 0.0717671
43.4478 46.2143 -0.0124046
43.5368 48.4762 0.0545137
41.3126 43.8929 0.0121463
40.8936 40.8115 0.0462412
39.3088 42.6555 0.0272357
43.742 54.4378 2
40.9746 39.1881 2
39.2336 40.8884 2
43.7544 50.5311 2
42.04 47.7376 2
41.9624 45.2147 2
37.5039 42.7829 2
39.5259 44.6557 2
41.89 53.0017 3.97995
39.2309 39.1846 3.94347
37.5057 40.9298 3.9542
35.6984 42.6767 3.97544
40.9979 49.7492 4.0039
39.8428 46.0889 3.93977
37.4959 44.9484 3.96675
42.1064 56.3354 0.0201981
40.4204 54.9364 2
38.7307 53.8651 3.9799
35.6071 63.214 0.0169052
38.2498 60.3363 0.018774
38.9251 56.5011 0.0217853
35.3635 60.9231 2
36.9337 57.6343 2
37.9996 55.2528 2
36.3188 55.3876 3.97872
34.4867 58.5304 3.98048
33.3461 61.5251 0.0183206
28.6817 62.2107 0.0171384
31.0664 61.2291 0.0181556
32.3555 59.7547 2
29.4021 60.2979 2
30.2942 57.8242 3.98102
28.0182 58.3835 2
26.9361 56.8367 3.98187
27.5665 59.6048 0.0176412
25.375 58.6097 2
23.8281 56.8282 3.98189
21.3241 57.4262 3.9843
21.989 59.6422 3.98496
22.7497 58.2627 2
22.7346 62.0337 3.98495
23.3977 60.3667 2
23.7879 59.1007 0.0150455
25.033 60.884 0.0164594
24.4315 62.7808 2
23.6819 64.7177 3.98623
26.2295 63.4869 0.01582
25.5481 65.4992 2
24.8092 67.5968 3.98917
27.4642 66.1888 0.0135813
26.8366 68.3357 2
26.1654 70.6059 3.99352
28.9068 68.947 0.0105368
28.37 71.2653 2
27.7943 73.7221 4
30.6148 71.7799 0.00637219
30.1841 74.2794 2
32.6054 74.6784 0
29.8101 7.98655 3.98742
31.2517 5.32852 3.99026
31.7875 7.41321 2
32.9803 2.69981 3.99422
33.3465 4.92132 2
33.7232 6.9742 0.0119252
35.0474 0.080333 4
35.2444 2.46151 2
35.4345 4.68268 0.00948803
37.5 0 2
37.5141 2.38564 0.00565835
39.9526 0.0806499 0
40.9719 35.8183 3.94829
42.785 35.7416 2
44.8088 35.509 0.026563
28.5421 10.6848 3.98479
39.2257 34.1636 3.95584
40.8862 34.2113 2
42.4519 34.1497 0.00799241
48.5579 34.2371 -0.00447824
45.2675 32.9813 0.073949
42.8489 32.2669 0.0153509
40.9346 32.6779 0.0150662
46.5114 31.4723 2
43.8096 31.1777 2
41.315 31.1259 2
39.2993 32.3861 2
44.5117 29.6523 3.9984
41.9543 29.8056 3.92633
39.5138 30.3876 3.982
37.4895 32.2848 3.95363
34.091 12.9236 3.98303
35.6914 11.7657 2
37.31 10.6214 0.0151428
31.1849 11.9753 3.98389
33.0968 11.2068 2
34.753 10.3706 0.0150352
30.481 10.0088 2
32.3764 9.36134 0.0140365
47.9241 29.582 0.0268947
47.1444 25.0986 0.0200207
36.581 12.9218 0.0167565
44.2934 21.3109 0.022674
41.7496 17.8296 0.019982
38.68 14.7968 0.0178598
35.7704 14.7469 2
45.6618 27.8082 2
38.6805 17.5846 2
41.3442 20.709 2
43.8258 24.0429 2
33.6059 15.8646 3.98199
43.132 26.5061 3.97802
40.9288 23.2839 3.98066
38.4227 20.314 3.97967
35.8467 17.4978 3.98108
39.2374 37.506 3.94148
41.0172 37.4968 2
42.9179 37.5015 0.014603
43.7416 54.4377 0.0176316
43.7547 50.529 0.00841483
40.975 39.1877 0.0533389
41.9555 45.2146 0.0796043
42.0403 47.7374 -0.0268747
39.5238 44.6523 0.0139293
39.2339 40.8854 0.048845
37.5032 42.7774 0.0407121
41.8899 53.0025 2
39.2308 39.1859 2
37.5054 40.9337 2
40.9977 49.7474 2
35.6986 42.6786 2
39.8451 46.0914 2
37.4969 44.9549 2
39.8283 51.9124 3.98023
37.5037 39.2019 3.94429
35.7805 40.91 3.94897
34.063 42.3786 3.98282
35.464 44.6641 3.97875
38.7727 48.8462 4.03918
37.4982 46.3944 3.93053
40.4206 54.9362 0.0213528
38.7307 53.8635 2
36.7173 53.2099 3.98212
35.3635 60.9229 0.0182617
36.9338 57.6342 0.0208056
37.9997 55.2533 0.0219962
34.4866 58.5305 2
36.3188 55.3874 2
33.2223 55.5076 3.97964
32.3555 59.7545 0.0187769
29.4021 60.2976 0.01874
30.2942 57.8244 2
28.6735 55.3173 3.97928
28.0183 58.3833 0.0162824
26.9358 56.8369 2
25.2915 55.1655 3.98102
21.7898 55.3777 3.98233
25.3751 58.6095 0.016853
23.8278 56.8283 2
20.207 57.0588 3.98518
20.6386 58.8036 3.98526
21.3239 57.4262 2
21.1636 61.1865 3.98573
21.9889 59.6424 2
22.7499 58.2625 0.0170045
21.8947 63.8469 3.98643
22.7345 62.034 2
23.3978 60.3665 0.0156377
24.4315 62.7805 0.0153155
23.6818 64.718 2
22.8376 66.7409 3.98907
25.5482 65.4988 0.0138142
24.8091 67.5971 2
24.0099 69.8072 3.99347
26.8367 68.3354 0.0107
26.1654 70.6062 2
25.446 73.0099 4
28.37 71.2651 0.0064127
27.7943 73.7222 2
30.1842 74.2788 0
27.8201 8.64602 3.98697
29.1538 5.87399 3.99001
29.8101 7.98613 2
30.7256 3.09682 3.9941
31.2517 5.32815 2
31.7876 7.41359 0.012202
32.6053 0.320823 4
32.9803 2.69955 2
33.3465 4.92169 0.00958367
35.0474 0.0802903 2
35.2444 2.46177 0.00570198
37.5 0 0
39.2302 35.8396 3.94644
40.9705 35.8162 2
42.7864 35.7427 0.0136448
28.5421 10.6844 2
26.6212 11.3802 3.98456
29.2239 12.6328 3.9834
37.4974 34.1363 3.95981
39.226 34.1588 2
40.8857 34.2145 0.0468574
46.5082 31.4744 -0.00197601
43.8118 31.1805 0.0743745
41.3088 31.1251 0.017465
39.2976 32.3919 0.0256529
44.52 29.6466 2
41.9564 29.8034 2
39.5177 30.3819 2
37.4913 32.2775 2
42.3968 28.348 4.00769
39.8372 28.9402 3.93318
37.4815 30.104 3.96005
35.6848 32.3919 3.97413
31.9125 14.47 3.98235
34.091 12.9234 2
35.6914 11.766 0.0162663
31.1849 11.975 2
33.0968 11.2071 0.0156585
30.4811 10.0092 0.014486
45.6639 27.803 0.0259009
43.8262 24.0387 0.0202757
35.7703 14.7472 0.0178428
41.3444 20.7093 0.0213192
38.6806 17.584 0.0188199
33.606 15.8645 2
35.8468 17.4976 2
43.1308 26.512 2
38.4227 20.3156 2
40.9288 23.2847 2
33.5479 17.3747 3.98124
40.4933 25.6202 3.97918
38.0847 22.8479 3.98378
35.5826 20.0673 3.98064
37.5026 37.5222 3.94315
39.2381 37.5053 2
41.0164 37.4975 0.0558312
41.89 53.0017 0.020046
40.9979 49.7492 -0.003897
39.2309 39.1846 0.0565282
39.8428 46.0889 0.0602343
37.4959 44.9484 0.0332464
37.5057 40.9298 0.0457968
35.6984 42.6767 0.0245644
39.8288 51.9114 2
37.5043 39.2037 2
35.78 40.9121 2
38.769 48.8487 2
34.0613 42.3797 2
35.464 44.6662 2
37.4944 46.4005 2
37.6624 51.0228 3.9734
35.7813 39.2128 3.94143
34.127 40.846 3.94988
32.9113 42.0255 3.99222
33.6763 43.9274 3.98725
35.1648 46.111 3.93
36.8943 48.4642 4.0385
38.7307 53.8651 0.0200981
36.7174 53.2094 2
34.3469 52.477 3.98147
34.4867 58.5304 0.0195228
36.3188 55.3876 0.0212815
33.2222 55.5074 2
30.4968 53.4125 3.97913
30.2942 57.8242 0.0189829
28.6731 55.3175 2
26.8523 53.4663 3.97852
26.9361 56.8367 0.0181288
25.2911 55.1656 2
23.5411 53.5152 3.97962
20.4349 53.2658 3.98186
19.9157 55.8645 3.98442
21.7895 55.3776 2
23.8281 56.8282 0.0181115
19.4292 57.9191 3.98515
20.2067 57.0588 2
19.702 60.2232 3.9857
20.6385 58.8037 2
21.3241 57.4262 0.015696
20.2063 62.8703 3.98687
21.1636 61.1867 2
21.989 59.6422 0.0150437
20.9389 65.7709 3.98913
21.8947 63.8472 2
22.7346 62.0337 0.0150518
23.6819 64.7177 0.0137684
22.8375 66.7412 2
21.9126 68.8747 3.99341
24.8092 67.5968 0.0108342
24.0098 69.8075 2
23.1494 72.1454 4
26.1654 70.6059 0.00647838
25.446 73.0099 2
27.7943 73.7221 0
25.8595 9.3742 3.98647
27.0687 6.53777 3.98974
27.8201 8.64563 2
28.4879 3.64259 3.99394
29.1537 5.8736 2
29.8101 7.98655 0.0125843
30.1841 0.720592 4
30.7256 3.09656 2
31.2517 5.32852 0.00973793
32.6053 0.320817 2
32.9803 2.69981 0.0057834
35.0474 0.080333 0
37.5013 35.8489 3.94685
39.2294 35.8368 2
40.9719 35.8183 0.0517055
24.776 12.0631 3.98467
23.7496 14.3474 3.9841
28.5421 10.6848 0.0152085
26.6212 11.38 2
29.2239 12.6325 2
27.29 13.366 3.98327
29.7786 14.1926 3.98293
35.7739 34.1604 3.95493
37.4978 34.131 2
39.2257 34.1636 0.0441606
37.4895 32.2848 0.0463718
44.5117 29.6523 0.00160473
41.9543 29.8056 0.0736709
39.5138 30.3876 0.0180045
42.4007 28.3395 2
39.8362 28.935 2
37.4836 30.0954 2
35.6866 32.3859 2
40.0625 27.5267 4.02096
37.4835 28.6546 3.9303
35.4514 30.3888 3.9811
34.0558 32.6833 3.9867
30.924 16.8288 3.98194
31.9126 14.4698 2
34.091 12.9236 0.0169744
31.1849 11.9753 0.0161142
43.132 26.5061 0.0219831
40.9288 23.2839 0.0193443
33.6059 15.8646 0.0180087
35.8467 17.4978 0.0189217
38.4227 20.314 0.0203276
33.548 17.3746 2
35.5829 20.0672 2
40.4921 25.6235 2
38.085 22.8508 2
32.8596 19.7852 3.97844
37.7876 25.1552 3.98653
35.2049 22.6281 3.97914
35.7709 37.5308 3.93936
37.5036 37.5217 2
39.2374 37.506 0.058516
39.8283 51.9124 0.0197717
38.7727 48.8462 -0.0391795
37.5037 39.2019 0.0557118
37.4982 46.3944 0.0694673
35.464 44.6641 0.0212549
35.7805 40.91 0.0510328
34.063 42.3786 0.0171789
37.6626 51.0261 2
35.7824 39.2136 2
34.126 40.8479 2
36.8914 48.465 2
32.9084 42.0278 2
33.6751 43.9232 2
35.162 46.1162 2
35.4081 50.183 3.97699
34.0458 39.2252 3.94463
32.5501 40.9016 3.99046
32.1439 42.7818 3.9841
33.0499 45.2464 3.92528
34.2661 47.5381 4.02208
36.7173 53.2099 0.0178798
34.3467 52.4779 2
31.9595 51.2282 3.97964
33.2223 55.5076 0.0203555
30.4965 53.4137 2
28.3841 51.6529 3.9785
28.6735 55.3173 0.0207193
26.8518 53.4664 2
25.0323 51.8093 3.97694
25.2915 55.1655 0.0189832
23.5408 53.5149 2
21.9187 51.8546 3.98093
19.159 51.6791 3.98228
18.8971 54.3446 3.98313
20.4348 53.2653 2
18.4346 56.7534 3.9854
19.9155 55.8645 2
21.7898 55.3777 0.0176747
18.3625 59.1338 3.98551
19.429 57.9191 2
20.207 57.0588 0.0148232
18.6162 61.7802 3.98683
19.7019 60.2234 2
20.6386 58.8036 0.0147367
19.1274 64.683 3.9893
20.2062 62.8705 2
21.1636 61.1865 0.0142659
19.8867 67.8117 3.99342
20.9389 65.7712 2
21.8947 63.8469 0.013574
22.8376 66.7409 0.0109288
21.9125 68.8749 2
20.9142 71.1327 4
24.0099 69.8072 0.00652995
23.1494 72.1455 2
25.446 73.0099 0
23.0953 12.7773 3.98471
23.9723 10.1607 3.98624
25.0228 7.30771 3.98939
25.8595 9.37387 2
26.2797 4.32666 3.99374
27.0687 6.5374 2
27.8201 8.64602 0.0130256
27.7943 1.27781 4
28.4878 3.64233 2
29.1538 5.87399 0.00999086
30.1841 0.720551 2
30.7256 3.09682 0.00589848
32.6053 0.320823 0
35.7741 35.8512 3.94308
37.5012 35.846 2
39.2302 35.8396 0.0535613
24.776 12.0629 2
23.7496 14.3472 2
22.4778 15.0229 3.98433
25.356 13.8974 3.98382
24.0222 15.6091 3.98392
26.6212 11.3802 0.015442
29.2239 12.6328 0.0166016
27.2901 13.3658 2
29.7786 14.1924 2
28.3546 15.9678 3.98276
34.1242 34.22 3.95112
35.7744 34.1558 2
37.4974 34.1363 0.0401877
35.6848 32.3919 0.0258675
37.4815 30.104 0.0399509
42.3968 28.348 -0.00769327
39.8372 28.9402 0.066821
40.063 27.527 2
37.4846 28.6442 2
35.4518 30.3827 2
34.0574 32.6809 2
37.5997 27.211 4.02099
35.1165 28.9414 3.9322
33.6613 31.1349 3.98217
32.9093 33.0437 3.98865
30.2036 19.3333 3.98294
30.9241 16.8287 2
31.9125 14.47 0.0176506
40.4933 25.6202 0.0208165
38.0847 22.8479 0.0162172
33.5479 17.3747 0.0187553
35.5826 20.0673 0.0193561
32.8598 19.7855 2
35.2058 22.6282 2
37.7868 25.1612 2
32.3056 22.4046 3.97904
34.9333 25.1584 3.97518
33.9983 37.5341 3.94306
35.772 37.5298 2
37.5026 37.5222 0.0568496
37.6624 51.0228 0.0265983
36.8943 48.4642 -0.0385049
35.7813 39.2128 0.0585701
35.1648 46.111 0.0700016
33.6763 43.9274 0.012754
34.127 40.846 0.0501164
32.9113 42.0255 0.00777916
35.4079 50.1839 2
34.0472 39.2262 2
32.548 40.9037 2
34.2607 47.5445 2
32.1402 42.7758 2
33.0433 45.249 2
33.159 49.1555 3.97713
32.2188 39.3033 3.98385
30.9439 41.2856 3.98149
31.1869 43.8654 3.92657
32.1911 46.4836 4.00233
34.3469 52.477 0.0185276
31.9593 51.2306 2
29.781 49.7461 3.97968
30.4968 53.4125 0.0208695
28.3838 51.652 2
26.4356 50.0456 3.97593
26.8523 53.4663 0.021476
25.032 51.8085 2
23.2764 50.2513 3.98198
23.5411 53.5152 0.0203825
21.9187 51.8538 2
20.4104 50.3645 3.98305
17.9432 50.3718 3.98394
17.802 52.8302 3.98311
19.1593 51.6783 2
17.4193 55.3723 3.98443
18.8969 54.3444 2
20.4349 53.2658 0.0181427
17.1264 57.8985 3.98593
18.4344 56.7534 2
19.9157 55.8645 0.0155831
17.1326 60.5661 3.98657
18.3624 59.1339 2
19.4292 57.9191 0.0148462
17.4072 63.4772 3.98938
18.6162 61.7804 2
19.702 60.2232 0.0142978
17.9428 66.6207 3.99345
19.1273 64.6832 2
20.2063 62.8703 0.0131341
18.75 69.9759 4
19.8866 67.8119 2
20.9389 65.7709 0.0108659
21.9126 68.8747 0.00658665
20.9142 71.1327 2
23.1494 72.1454 0
21.5857 13.5965 3.98485
22.1904 11.0196 3.98609
23.0952 12.7771 2
23.041 8.17295 3.98913
23.9722 10.1604 2
24.1174 5.14125 3.99354
25.0227 7.30737 2
25.8595 9.3742 0.0135256
25.446 1.99014 4
26.2796 4.32641 2
27.0687 6.53777 0.0102621
27.7943 1.27778 2
28.4879 3.64259 0.00605889
30.1841 0.720592 0
34.0371 35.8424 3.94264
35.7748 35.8483 2
37.5013 35.8489 0.0531531
21.3022 15.8169 3.98443
24.776 12.0631 0.0153349
23.7496 14.3474 0.0159013
25.3561 13.8972 2
22.4778 15.0227 2
24.0223 15.609 2
23.261 16.2398 3.98373
25.3776 16.0778 3.98354
27.29 13.366 0.0167309
29.7786 14.1926 0.017072
28.3547 15.9676 2
27.4351 18.7896 3.98336
32.5555 34.1773 3.99467
34.1242 34.2181 2
35.7739 34.1604 0.0450675
34.0558 32.6833 0.013299
35.4514 30.3888 0.0189004
37.4835 28.6546 0.069699
40.0625 27.5267 -0.0209611
37.6005 27.1978 2
32.9095 33.0454 2
35.1216 28.9354 2
33.6597 31.1363 2
35.016 27.3356 4.0186
33.0031 29.8201 3.92717
32.1363 32.2864 3.98717
29.5651 21.9304 3.98487
30.2038 19.3334 2
30.924 16.8288 0.0180596
37.7876 25.1552 0.0134684
35.2049 22.6281 0.0208555
32.8596 19.7852 0.0215567
32.3067 22.4054 2
34.9339 25.1662 2
31.6172 25.6012 3.97794
32.0906 37.5391 3.98493
33.9994 37.5338 2
35.7709 37.5308 0.0606411
35.4081 50.183 0.023015
34.2661 47.5381 -0.0220764
34.0458 39.2252 0.0553695
33.0499 45.2464 0.0747218
32.1439 42.7818 0.0159034
32.5501 40.9016 0.00954438
33.1593 49.1457 2
32.22 39.3038 2
30.9405 41.2839 2
32.1791 46.4917 2
31.186 43.8661 2
31.0223 47.8959 3.97537
30.1861 39.5346 3.97291
29.7278 42.0589 3.92554
30.2853 45.0776 3.99908
31.9595 51.2282 0.0203558
29.7813 49.7448 2
27.7652 48.2315 3.97945
28.3841 51.6529 0.0214955
26.4356 50.0434 2
24.5576 48.5302 3.98468
25.0323 51.8093 0.0230639
23.2767 50.2499 2
21.5773 48.8451 3.98532
21.9187 51.8546 0.0190666
20.411 50.3633 2
18.9763 49.1373 3.98567
16.8496 49.3692 3.98559
16.7388 51.4444 3.9838
17.9436 50.3713 2
16.3668 53.9035 3.98401
17.8022 52.8297 2
19.159 51.6791 0.0177248
15.9652 56.5022 3.98556
17.4191 55.3722 2
18.8971 54.3446 0.0168668
15.7449 59.2293 3.98668
17.1262 57.8986 2
18.4346 56.7534 0.0145982
15.7871 62.1496 3.98917
17.1325 60.5663 2
18.3625 59.1338 0.0144912
16.0892 65.3039 3.99352
17.4071 63.4775 2
18.6162 61.7802 0.0131733
16.6661 68.6801 4
17.9427 66.6209 2
19.1274 64.683 0.0107011
18.75 69.9759 2
19.8867 67.8117 0.00658104
20.9142 71.1327 0
20.2171 14.5837 3.98488
21.5857 13.5963 2
20.5295 11.9887 3.98608
21.1442 9.14233 3.98896
22.1904 11.0193 2
23.0953 12.7773 0.0152924
22.0165 6.08015 3.99336
23.041 8.17258 2
23.9723 10.1607 0.0137603
23.1494 2.85457 4
24.1173 5.141 2
25.0228 7.30771 0.0106087
25.446 1.99012 2
26.2797 4.32666 0.00626416
27.7943 1.27781 0
32.2173 35.7747 3.98685
34.0379 35.8409 2
35.7741 35.8512 0.0569158
21.3023 15.8167 2
20.2983 16.9482 3.985
22.0936 16.6224 3.98417
25.356 13.8974 0.016178
22.4778 15.0229 0.0156721
24.0222 15.6091 0.0160843
25.3777 16.0777 2
23.261 16.2396 2
24.1994 18.4385 3.98317
27.0017 21.449 3.98198
28.3546 15.9678 0.0172351
27.4353 18.7894 2
30.9542 33.7915 3.98014
32.5534 34.1758 2
34.1242 34.22 0.0488825
32.9093 33.0437 0.0113542
33.6613 31.1349 0.0178286
35.1165 28.9414 0.0677956
37.5997 27.211 -0.0209862
35.0152 27.3277 2
32.1376 32.2917 2
33.0072 29.8203 2
32.4221 28.0601 4.01499
31.1624 31.2115 3.93248
28.7388 24.3985 3.98521
29.5659 21.9305 2
30.2036 19.3333 0.0170624
34.9333 25.1584 0.0248168
32.3056 22.4046 0.0209585
31.6173 25.5983 2
29.5281 27.2217 3.99186
29.9131 37.5366 3.97186
32.0909 37.539 2
33.9983 37.5341 0.0569358
33.159 49.1555 0.0228714
32.1911 46.4836 -0.00233296
32.2188 39.3033 0.0161541
31.1869 43.8654 0.0734259
30.9439 41.2856 0.0185058
31.0246 47.8868 2
30.1873 39.5336 2
29.7284 42.0625 2
30.2732 45.084 2
29.0232 46.4629 3.97367
28.8037 39.9344 3.92658
28.4637 43.2953 4.00269
29.781 49.7461 0.020316
27.7663 48.2286 2
25.8136 46.7156 3.98755
26.4356 50.0456 0.0240667
24.5585 48.5284 2
22.702 47.1418 3.99068
23.2764 50.2513 0.0180156
21.5783 48.8435 2
19.9129 47.6664 3.98857
20.4104 50.3645 0.01695
18.9769 49.1368 2
17.6189 48.2175 3.98676
16.1008 48.7176 3.98643
16.8501 49.3688 2
15.8146 50.2047 3.98492
15.353 52.4478 3.98418
16.7391 51.444 2
17.9432 50.3718 0.0160591
14.8539 55.0045 3.98496
16.3668 53.9033 2
17.802 52.8302 0.0168866
14.4528 57.7598 3.98657
15.9651 56.5023 2
17.4193 55.3723 0.0155712
14.2646 60.7057 3.98889
15.7448 59.2295 2
17.1264 57.8985 0.0140749
14.3331 63.8635 3.99344
15.787 62.1498 2
17.1326 60.5661 0.0134257
14.6715 67.2507 4
16.0891 65.304 2
17.4072 63.4772 0.010625
16.6661 68.6801 2
17.9428 66.6207 0.00655287
18.75 69.9759 0
18.9299 15.7682 3.98517
20.2171 14.5836 2
18.9787 13.0981 3.98607
21.5857 13.5965 0.0151518
20.5295 11.9884 2
19.3436 10.2295 3.98887
19.9913 7.1446 3.99328
21.1442 9.142 2
22.1904 11.0196 0.0139052
20.9142 3.86727 4
22.0165 6.0799 2
23.041 8.17295 0.0108744
23.1494 2.85451 2
24.1174 5.14125 0.00645733
25.446 1.99014 0
30.1912 35.5397 3.97606
32.2177 35.7738 2
34.0371 35.8424 0.0573631
21.3022 15.8169 0.0155725
22.0937 16.6222 2
20.2984 16.9481 2
19.2356 18.3923 3.98493
21.777 17.8362 3.98432
25.3776 16.0778 0.0164576
23.261 16.2398 0.0162674
24.1995 18.4385 2
22.2676 19.8754 3.98412
24.577 21.3069 3.9834
26.3707 23.7098 3.98558
27.0023 21.4489 2
27.4351 18.7896 0.0166446
29.7334 33.0162 3.92963
30.9508 33.7941 2
32.5555 34.1773 0.00532582
32.1363 32.2864 0.0128275
33.0031 29.8201 0.0728293
35.016 27.3356 -0.0185955
32.4202 28.0579 2
31.1696 31.2144 2
29.9319 29.4953 4.00513
27.7776 26.531 3.97558
28.7389 24.3984 2
29.5651 21.9304 0.0151326
31.6172 25.6012 0.0220593
29.5275 27.2197 2
28.4709 37.5336 3.92898
29.9128 37.5375 2
32.0906 37.5391 0.0150709
31.0223 47.8959 0.0246311
30.2853 45.0776 0.000924923
30.1861 39.5346 0.0270921
29.7278 42.0589 0.0744637
29.026 46.4594 2
28.8067 39.9347 2
28.4572 43.2979 2
27.0873 44.8342 3.97425
26.5632 40.6814 4.00667
27.7652 48.2315 0.020554
25.8155 46.7132 2
23.8396 45.2708 3.99002
24.5576 48.5302 0.0153191
22.7035 47.1394 2
20.8319 45.9479 3.99055
21.5773 48.8451 0.0146779
19.9138 47.6659 2
18.2572 46.7769 3.98789
18.9763 49.1373 0.0143336
17.6195 48.2171 2
16.2876 47.7468 3.98627
16.1013 48.7173 2
15.1597 49.047 3.98559
16.8496 49.3692 0.0144132
15.815 50.2044 2
14.4647 51.0146 3.98467
13.8133 53.4606 3.98478
15.3531 52.4475 2
16.7388 51.4444 0.0161956
13.2461 56.1885 3.98615
14.8538 55.0044 2
16.3668 53.9035 0.0159878
12.8464 59.1403 3.98855
14.4526 57.7599 2
15.9652 56.5022 0.0144414
12.6783 62.3065 3.99325
14.2645 60.706 2
15.7449 59.2293 0.0133203
12.7746 65.6939 4
14.3331 63.8637 2
15.7871 62.1496 0.0108331
14.6714 67.2507 2
16.0892 65.3039 0.00648293
16.6661 68.6801 0
17.663 17.1413 3.98521
18.9299 15.7681 2
17.5094 14.3602 3.98612
20.2171 14.5837 0.0151173
18.9788 13.0978 2
17.6391 11.4473 3.98878
20.5295 11.9887 0.0139202
19.3436 10.2292 2
18.0515 8.33712 3.99324
18.75 5.0241 4
19.9912 7.14439 2
21.1442 9.14233 0.0110369
20.9142 3.86727 2
22.0165 6.08015 0.00664022
23.1494 2.85457 0
28.8002 35.135 3.92742
30.1911 35.5433 2
32.2173 35.7747 0.0131534
22.0936 16.6224 0.0158331
20.2983 16.9482 0.014999
21.777 17.836 2
19.2357 18.3922 2
17.9683 19.9212 3.98505
20.8671 19.3604 3.98463
24.1994 18.4385 0.016829
22.2678 19.8753 2
24.5774 21.3067 2
22.3386 21.6974 3.98454
24.6577 23.1513 3.98457
25.3743 25.9351 3.97883
26.3709 23.7092 2
27.0017 21.449 0.0180208
28.1147 32.2731 4.00106
29.7348 33.0152 2
30.9542 33.7915 0.0198594
31.1624 31.2115 0.0675166
32.4221 28.0601 -0.0149854
29.9289 29.4933 2
26.8794 29.136 3.9639
27.7769 26.5296 2
28.7388 24.3985 0.0147862
29.5281 27.2217 0.00813586
26.68 37.376 4.00382
28.4726 37.5319 2
29.9131 37.5366 0.0281374
29.0232 46.4629 0.0263309
28.4637 43.2953 -0.00268692
28.8037 39.9344 0.073423
27.0901 44.8327 2
26.5643 40.6813 2
25.057 43.2306 3.98429
23.8143 39.4516 3.97277
25.8136 46.7156 0.0124518
23.8413 45.2712 2
21.7973 43.9987 3.99019
22.702 47.1418 0.00931639
20.8333 45.9479 2
18.9093 45.008 3.98667
19.9129 47.6664 0.011425
18.2581 46.7766 2
16.5726 46.2439 3.98544
17.6189 48.2175 0.0132433
16.2882 47.7466 2
14.8865 47.6992 3.98534
16.1008 48.7176 0.0135658
15.1601 49.0468 2
13.7609 49.5733 3.98498
15.8146 50.2047 0.0150804
14.4649 51.0144 2
12.8784 51.8983 3.98486
12.1319 54.5469 3.98583
13.8133 53.4605 2
15.353 52.4478 0.0158191
11.5301 57.4729 3.988
13.246 56.1885 2
14.8539 55.0045 0.0150399
11.1328 60.6332 3.99307
12.8463 59.1406 2
14.4528 57.7598 0.0134259
10.9835 64.0165 4
12.6782 62.3067 2
14.2646 60.7057 0.0111088
12.7745 65.694 2
14.3331 63.8635 0.00655629
14.6715 67.2507 0
16.3936 18.6324 3.98543
17.6631 17.1411 2
16.0997 15.7673 3.98614
18.9299 15.7682 0.0148274
17.5094 14.3599 2
16.0203 12.7993 3.98863
18.9787 13.0981 0.013929
17.6391 11.447 2
16.2026 9.65975 3.99318
19.3436 10.2295 0.0111308
18.0515 8.33692 2
16.6661 6.31991 4
18.75 5.02404 2
19.9913 7.1446 0.00671804
20.9142 3.86727 0
27.1903 34.7453 4.00111
28.8006 35.1334 2
30.1912 35.5397 0.0239406
16.6644 21.3531 3.98421
21.777 17.8362 0.0156775
19.2356 18.3923 0.0150741
20.8672 19.3603 2
17.9684 19.9211 2
19.7061 21.5496 3.98573
22.2676 19.8754 0.0158839
24.577 21.3069 0.016601
22.339 21.6971 2
24.6579 23.151 2
22.7918 24.5801 3.98194
24.4299 28.5174 3.97508
25.3737 25.9347 2
26.3707 23.7098 0.0144246
25.9592 31.7189 3.97311
28.114 32.2712 2
29.7334 33.0162 0.070368
29.9319 29.4953 -0.00512982
26.8787 29.1363 2
27.7776 26.531 0.0244241
24.4967 36.8851 3.98052
26.6801 37.3769 2
28.4709 37.5336 0.0710218
27.0873 44.8342 0.0257451
26.5632 40.6814 -0.00666841
25.058 43.232 2
23.8152 39.4536 2
22.8397 41.8395 3.98374
21.5746 38.5123 3.98271
23.8396 45.2708 0.00997638
21.7985 44.0002 2
19.6525 42.9212 3.9847
20.8319 45.9479 0.0094478
18.9103 45.0082 2
16.8958 44.4078 3.98411
18.2572 46.7769 0.0121072
16.5732 46.2439 2
14.8036 46.1167 3.98424
16.2876 47.7468 0.01373
14.887 47.6992 2
13.2658 48.0333 3.98464
15.1597 49.047 0.01441
13.7612 49.5732 2
12.0959 50.2747 3.9849
14.4647 51.0146 0.0153284
12.8785 51.8981 2
11.1263 52.8547 3.98564
10.3197 55.7246 3.98751
12.1319 54.5469 2
13.8133 53.4606 0.0152193
9.69946 58.8567 3.99272
11.53 57.4731 2
13.2461 56.1885 0.013852
9.30605 62.2254 4
11.1328 60.6334 2
12.8464 59.1403 0.0114466
10.9835 64.0165 2
12.6783 62.3065 0.00674776
12.7746 65.6939 0
15.1357 20.1642 3.985
16.3936 18.6322 2
14.7443 17.288 3.98602
17.663 17.1413 0.0147878
16.0997 15.767 2
14.4824 14.2794 3.98843
17.5094 14.3602 0.0138762
16.0204 12.7989 2
14.4452 11.1105 3.99308
17.6391 11.4473 0.011223
16.2026 9.65954 2
14.6715 7.74927 4
18.0515 8.33712 0.00676078
16.6661 6.31988 2
18.75 5.0241 0
25.1364 34.2932 3.98302
27.19 34.7447 2
28.8002 35.135 0.0725813
17.8327 22.298 3.98624
15.5049 22.8949 3.98332
16.6644 21.3529 2
20.8671 19.3604 0.0153683
17.9683 19.9212 0.0149516
19.7063 21.5494 2
19.6206 24.3553 3.98417
22.3386 21.6974 0.0154628
24.6577 23.1513 0.0154253
22.7916 24.5797 2
21.82 27.8038 3.97616
23.5889 31.1762 3.98084
24.4295 28.5178 2
25.3743 25.9351 0.0211735
25.9594 31.7208 2
28.1147 32.2731 -0.00105677
26.8794 29.136 0.0360957
22.2817 36.2724 3.98828
24.4972 36.8868 2
26.68 37.376 -0.00382164
25.057 43.2306 0.0157071
23.8143 39.4516 0.0272312
22.8403 41.8408 2
21.5753 38.5128 2
20.5657 40.6532 3.98116
19.942 37.7881 3.98483
21.7973 43.9987 0.00981466
19.6534 42.9215 2
17.2854 42.1225 3.98258
18.9093 45.008 0.0133268
16.8966 44.408 2
14.8013 44.2228 3.9827
16.5726 46.2439 0.0145608
14.8041 46.1168 2
12.9355 46.3174 3.98367
14.8865 47.6992 0.0146644
13.2661 48.0333 2
11.4658 48.5695 3.98456
13.7609 49.5733 0.0150209
12.0961 50.2747 2
10.2509 51.0967 3.98546
12.8784 51.8983 0.0151439
11.1263 52.8547 2
9.22771 53.9017 3.98726
8.38306 56.9903 3.9922
10.3196 55.7247 2
12.1319 54.5469 0.0141747
7.74927 60.3285 4
9.69942 58.8569 2
11.5301 57.4729 0.0120015
9.306 62.2255 2
11.1328 60.6332 0.00693487
10.9835 64.0165 0
13.9451 21.7293 3.98452
15.1358 20.164 2
13.4435 18.8833 3.98587
16.3936 18.6324 0.0145692
14.7443 17.2877 2
13.0273 15.8706 3.98811
16.0997 15.7673 0.0138562
14.4824 14.279 2
12.7823 12.6833 3.99293
16.0203 12.7993 0.0113698
14.4452 11.1102 2
12.7746 9.30605 4
16.2026 9.65975 0.00681547
14.6715 7.74924 2
16.6661 6.31991 0
22.8775 33.7915 3.98741
25.1366 34.2949 2
27.1903 34.7453 -0.00111336
17.5926 24.0164 3.98446
17.8327 22.2977 2
14.2846 24.4272 3.98215
15.5048 22.8946 2
16.6644 21.3531 0.0157852
18.9659 27.1783 3.978
19.7061 21.5496 0.0142702
19.6204 24.355 2
21.0463 30.6464 3.97914
22.7918 24.5801 0.018064
21.8197 27.8039 2
23.589 31.1772 2
24.4299 28.5174 0.0249164
25.9592 31.7189 0.0268882
20.0548 35.9186 3.987
22.282 36.2731 2
24.4967 36.8851 0.0194814
22.8397 41.8395 0.0162604
21.5746 38.5123 0.0172878
20.5664 40.6535 2
19.9424 37.7886 2
17.9471 39.0111 3.98347
19.6525 42.9212 0.0153039
17.2861 42.1229 2
14.7449 41.9347 3.98189
16.8958 44.4078 0.0158872
14.8019 44.223 2
12.6732 44.4101 3.98251
14.8036 46.1167 0.0157565
12.9359 46.3174 2
10.966 46.7509 3.98375
13.2658 48.0333 0.0153598
11.466 48.5696 2
9.51322 49.2547 3.98511
12.0959 50.2747 0.0151041
10.251 51.0967 2
8.26 52.0133 3.98711
11.1263 52.8547 0.0143648
9.22771 53.9018 2
7.19198 55.041 3.99161
6.31991 58.3339 4
8.38305 56.9905 2
10.3197 55.7246 0.0124933
7.74924 60.3285 2
9.69946 58.8567 0.00728035
9.30605 62.2254 0
13.205 25.3424 3.98489
12.81 23.2589 3.98384
13.945 21.729 2
12.2271 20.5314 3.98572
15.1357 20.1642 0.0150048
13.4436 18.883 2
11.6563 17.5506 3.98783
14.7443 17.288 0.0139796
13.0274 15.8702 2
11.2196 14.3675 3.99271
14.4824 14.2794 0.0115713
12.7823 12.683 2
10.9835 10.9835 4
14.4452 11.1105 0.0069198
12.7745 9.306 2
14.6715 7.74927 0
20.4472 33.3819 3.98502
22.8777 33.7923 2
25.1364 34.2932 0.0169826
15.8601 26.3781 3.98048
17.5924 24.0161 2
17.8327 22.298 0.0137635
14.2844 24.427 2
15.5049 22.8949 0.0166811
18.2979 30.1534 3.97857
18.9656 27.1782 2
19.6206 24.3553 0.0158335
21.0464 30.6471 2
21.82 27.8038 0.0238362
23.5889 31.1762 0.0191614
17.5672 35.961 3.98731
20.055 35.9192 2
22.2817 36.2724 0.0117155
20.5657 40.6532 0.0188353
19.942 37.7881 0.0151658
17.9475 39.0115 2
14.2459 39.1845 3.98402
17.2854 42.1225 0.0174237
14.7454 41.9349 2
12.3583 42.2906 3.98255
14.8013 44.2228 0.0173012
12.6736 44.4103 2
10.5417 44.817 3.98302
12.9355 46.3174 0.0163311
10.9663 46.751 2
8.89487 47.3319 3.98444
11.4658 48.5695 0.0154411
9.51334 49.2548 2
7.42642 50.0453 3.9868
10.2509 51.0967 0.0145369
8.26002 52.0134 2
6.13234 53.0154 3.99105
9.22771 53.9017 0.0127364
7.19199 55.0412 2
5.0241 56.25 4
6.31988 58.3339 2
8.38306 56.9903 0.00779923
7.74927 60.3285 0
13.4381 26.7953 3.98162
11.9222 24.7695 3.98311
13.2048 25.3422 2
11.1286 22.2166 3.98519
12.8099 23.2586 2
13.9451 21.7293 0.015475
12.2271 20.5311 2
10.3855 19.3051 3.98762
13.4435 18.8833 0.0141316
11.6564 17.5502 2
9.76043 16.1499 3.99249
13.0273 15.8706 0.0118945
11.2196 14.3672 2
9.30607 12.7746 4
12.7823 12.6833 0.00706956
10.9835 10.9835 2
12.7746 9.30605 0
17.7549 33.0988 3.98335
20.4473 33.3826 2
22.8775 33.7915 0.0125917
15.4413 29.6194 3.97986
15.8599 26.378 2
17.5926 24.0164 0.0155351
14.2846 24.4272 0.0178483
18.298 30.1538 2
18.9659 27.1783 0.0220001
21.0463 30.6464 0.020863
14.834 36.0165 3.98575
17.5673 35.9614 2
20.0548 35.9186 0.013001
12.5479 37.833 3.98364
17.9471 39.0111 0.0165298
14.2461 39.1848 2
11.8694 40.1508 3.98414
14.7449 41.9347 0.0181122
12.3587 42.2909 2
10.1398 42.7893 3.98255
12.6732 44.4101 0.0174918
10.542 44.8171 2
8.37199 45.3318 3.98394
10.966 46.7509 0.0162468
8.89503 47.332 2
6.71737 48.0091 3.98624
9.51322 49.2547 0.014889
7.42645 50.0454 2
5.20877 50.9178 3.99055
8.26 52.0133 0.0128854
6.13236 53.0157 2
3.86727 54.0858 4
7.19198 55.041 0.00838776
5.02404 56.25 2
6.31991 58.3339 0
12.8907 29.0178 3.97983
11.3507 26.4716 3.98245
13.438 26.7953 2
10.1869 23.9523 3.98408
11.9221 24.7693 2
13.205 25.3424 0.0151075
9.23681 21.1248 3.98715
11.1285 22.2163 2
12.81 23.2589 0.0161566
12.2271 20.5314 0.0142844
10.3856 19.3047 2
8.41625 18.02 3.99217
11.6563 17.5506 0.0121724
9.76046 16.1496 2
7.74928 14.6715 4
11.2196 14.3675 0.00728574
9.30602 12.7745 2
10.9835 10.9835 0
14.4276 32.8512 3.98273
17.7549 33.0992 2
20.4472 33.3819 0.014978
15.4413 29.6196 2
15.8601 26.3781 0.0195152
18.2979 30.1534 0.0214338
12.8344 36.2082 3.98405
14.8341 36.0169 2
17.5672 35.961 0.012686
12.548 37.8333 2
11.2275 38.3153 3.98314
14.2459 39.1845 0.0159803
11.8696 40.1511 2
9.7241 40.7628 3.98369
12.3583 42.2906 0.0174544
10.14 42.7895 2
7.92063 43.2786 3.98347
10.5417 44.817 0.0169752
8.3722 45.332 2
6.12323 45.9129 3.98578
8.89487 47.3319 0.0155601
6.71743 48.0092 2
4.42005 48.7574 3.99014
7.42642 50.0453 0.0131983
5.20879 50.918 2
2.85457 51.8506 4
6.13234 53.0154 0.00894804
3.86727 54.0858 2
5.0241 56.25 0
12.0293 31.2443 3.98297
10.762 28.4021 3.98113
12.8907 29.0178 2
9.40116 25.7851 3.9834
11.3505 26.4715 2
13.4381 26.7953 0.018385
8.22344 23.0117 3.98617
10.1868 23.952 2
11.9222 24.7695 0.016888
7.19824 19.9696 3.99151
9.23678 21.1245 2
11.1286 22.2166 0.0148108
10.3855 19.3051 0.0123777
8.41629 18.0196 2
6.31992 16.6661 4
9.76043 16.1499 0.00751283
7.74926 14.6714 2
9.30607 12.7746 0
12.0426 34.2887 3.98207
14.4276 32.8514 2
17.7549 33.0988 0.0166465
15.4413 29.6194 0.0201384
10.7926 36.6118 3.98306
12.8345 36.2084 2
14.834 36.0165 0.0142452
12.5479 37.833 0.0163634
11.2276 38.3156 2
9.31892 38.8288 3.98375
11.8694 40.1508 0.01586
9.72428 40.763 2
7.53148 41.2177 3.98385
10.1398 42.7893 0.0174489
7.92078 43.2788 2
5.63491 43.7744 3.9855
8.37199 45.3318 0.0160618
6.12333 45.913 2
3.7655 46.5422 3.98995
6.71737 48.0091 0.0137591
4.42008 48.7576 2
1.99014 49.554 4
5.20877 50.9178 0.00944728
2.85451 51.8506 2
3.86727 54.0858 0
10.8927 32.9105 3.98274
10.0737 30.3718 3.98239
12.0293 31.2443 2
8.70871 27.7213 3.98253
10.7619 28.4021 2
12.8907 29.0178 0.0201677
7.34862 24.9728 3.98551
9.40102 25.7849 2
11.3507 26.4716 0.0175514
6.11497 21.994 3.99048
8.22338 23.0114 2
10.1869 23.9523 0.0159226
5.02411 18.75 4
7.19826 19.9692 2
9.23681 21.1248 0.0128502
8.41625 18.02 0.0078271
6.3199 16.6661 2
7.74928 14.6715 0
10.4063 34.9969 3.98272
12.0426 34.2888 2
14.4276 32.8512 0.0172662
8.99289 36.9864 3.9828
10.7926 36.612 2
12.8344 36.2082 0.0159544
11.2275 38.3153 0.0168648
9.319 38.8291 2
7.21201 39.186 3.98415
9.7241 40.7628 0.0163126
7.53161 41.2179 2
5.25013 41.6186 3.9854
7.92063 43.2786 0.0165312
5.63497 43.7746 2
3.24305 44.2863 3.98989
6.12323 45.9129 0.0142229
3.76554 46.5424 2
1.27781 47.2057 4
4.42005 48.7574 0.0098598
1.99012 49.554 2
2.85457 51.8506 0
10.0612 33.8758 3.98238
9.36637 32.1465 3.98313
10.8927 32.9105 2
8.05741 29.6872 3.9828
10.0737 30.3718 2
12.0293 31.2443 0.0170267
6.59208 27.0006 3.98479
8.70863 27.7212 2
10.762 28.4021 0.0188652
5.16996 24.0883 3.98971
7.34852 24.9725 2
9.40116 25.7851 0.0165999
3.86728 20.9142 4
6.11497 21.9936 2
8.22344 23.0117 0.0138277
5.02406 18.75 2
7.19824 19.9696 0.00849202
6.31992 16.6661 0
8.82037 35.2774 3.98294
10.4063 34.997 2
12.0426 34.2887 0.0179286
6.99712 37.2071 3.98339
8.99296 36.9866 2
10.7926 36.6118 0.0169417
9.31892 38.8288 0.01625
7.21205 39.1863 2
4.97795 39.4702 3.98545
7.53148 41.2177 0.0161474
5.2502 41.6187 2
2.85349 42.0058 3.98958
5.63491 43.7744 0.014503
3.24307 44.2866 2
0.720592 44.8159 4
3.7655 46.5422 0.0100487
1.27778 47.2057 2
1.99014 49.554 0
8.86301 33.6926 3.98299
10.0612 33.8759 2
7.49424 31.6028 3.98351
9.36632 32.1465 2
10.8927 32.9105 0.0172575
5.93702 29.0633 3.98457
8.05734 29.6871 2
10.0737 30.3718 0.0176112
4.35735 26.2423 3.98925
6.59199 27.0004 2
8.70871 27.7213 0.0174731
2.85458 23.1494 4
5.16992 24.088 2
7.34862 24.9728 0.014491
3.86728 20.9142 2
6.11497 21.994 0.00952241
5.02411 18.75 0
6.94805 35.3045 3.9833
8.82041 35.2775 2
10.4063 34.9969 0.0172767
4.82872 37.3407 3.98509
6.9972 37.2073 2
8.99289 36.9864 0.0171962
7.21201 39.186 0.0158492
4.97795 39.4704 2
2.60155 39.7162 3.98927
5.25013 41.6186 0.0146031
2.85352 42.006 2
0.320823 42.3947 4
3.24305 44.2863 0.0101147
0.720551 44.8159 2
1.27781 47.2057 0
7.10812 33.4569 3.98347
8.863 33.6927 2
10.0612 33.8758 0.0176243
5.40742 31.1289 3.98497
7.49416 31.6028 2
9.36637 32.1465 0.0168724
3.67892 28.4394 3.98919
5.93695 29.0633 2
8.05741 29.6872 0.0171965
1.99015 25.446 4
4.3573 26.2422 2
6.59208 27.0006 0.0152109
2.85453 23.1494 2
5.16996 24.0883 0.0102926
3.86728 20.9142 0
4.84341 35.2506 3.98489
6.94809 35.3047 2
8.82037 35.2774 0.0170556
2.49311 37.4292 3.98913
4.82879 37.3409 2
6.99712 37.2071 0.0166069
4.97795 39.4702 0.0145477
2.60154 39.7164 2
0.080333 39.9526 4
2.85349 42.0058 0.0104154
0.320817 42.3947 2
0.720592 44.8159 0
5.03682 33.1873 3.98501
7.1081 33.457 2
8.86301 33.6926 0.0170129
3.14304 30.663 3.98947
5.40733 31.129 2
7.49424 31.6028 0.016494
1.27793 27.7943 4
3.67888 28.4394 2
5.93702 29.0633 0.0154269
1.99013 25.446 2
4.35735 26.2423 0.0107491
2.85458 23.1494 0
2.54539 35.1582 3.98909
4.84343 35.2508 2
6.94805 35.3045 0.0166993
0 37.5 4
2.49315 37.4294 2
4.82872 37.3407 0.0149133
2.60155 39.7162 0.010727
0.0802903 39.9526 2
0.320823 42.3947 0
2.76302 32.9036 3.9893
5.03678 33.1875 2
7.10812 33.4569 0.0165277
0.721173 30.1842 4
3.14299 30.6631 2
5.40742 31.1289 0.0150301
1.27779 27.7943 2
3.67892 28.4394 0.0108097
1.99015 25.446 0
0.0806499 35.0474 4
2.54539 35.1584 2
4.84341 35.2506 0.0151146
0 37.5 2
2.49311 37.4292 0.0108672
0.080333 39.9526 0
0.32156 32.6054 4
2.763 32.9038 2
5.03682 33.1873 0.0149902
0.72056 30.1841 2
3.14304 30.663 0.0105333
1.27793 27.7943 0
0.0802889 35.0474 2
2.54539 35.1582 0.0109142
0 37.5 0
0.320817 32.6053 2
2.76302 32.9036 0.0106971
0.721173 30.1842 0
0.0806499 35.0474 0
0.32156 32.6054 0
CELLS 1910 17190
8 18 6 25 56 2 0 5 16
8 57 23 6 18 17 4 0 2
8 78 36 9 29 31 11 1 7
8 31 11 1 7 79 37 10 30
8 110 57 18 50 48 17 2 14
8 50 18 56 111 14 2 16 49
8 116 62 22 55 52 20 3 15
8 56 25 67 118 16 5 24 53
8 119 63 23 57 54 21 4 17
8 55 22 63 119 15 3 21 54
8 58 26 68 121 18 6 25 56
8 122 65 26 58 57 23 6 18
8 73 31 7 27 142 79 30 71
8 143 78 29 72 73 31 7 27
8 83 147 76 34 32 74 28 8
8 84 148 78 36 33 75 29 9
8 76 34 8 28 148 84 33 75
8 37 79 150 86 10 30 77 35
8 151 87 36 78 80 38 11 31
8 80 38 11 31 152 88 37 79
8 175 100 42 94 96 44 12 40
8 44 96 176 101 12 40 95 43
8 101 176 98 46 43 95 41 13
8 46 98 178 103 13 41 97 45
8 178 103 45 97 147 83 32 74
8 189 116 55 109 106 52 15 47
8 111 56 118 191 49 16 53 107
8 192 119 57 110 108 54 17 48
8 109 55 119 192 47 15 54 108
8 194 122 58 112 110 57 18 50
8 112 58 121 195 50 18 56 111
8 115 61 19 51 197 124 59 113
8 115 61 125 198 51 19 60 114
8 198 125 62 116 114 60 20 52
8 200 127 64 120 116 62 22 55
8 118 67 132 202 53 24 66 117
8 121 68 133 203 56 25 67 118
8 120 64 128 204 55 22 63 119
8 204 128 65 122 119 63 23 57
8 206 134 68 121 123 69 26 58
8 123 69 26 58 207 131 65 122
8 226 147 74 138 140 76 28 70
8 229 148 75 139 143 78 29 72
8 140 76 28 70 229 148 75 139
8 142 79 30 71 231 150 77 141
8 144 80 31 73 232 152 79 142
8 233 151 78 143 144 80 31 73
8 150 86 35 77 235 154 81 145
8 235 154 81 145 146 82 39 91
8 146 82 39 91 236 155 90 165
8 238 157 83 147 149 85 34 76
8 239 158 84 148 151 87 36 78
8 149 85 34 76 239 158 84 148
8 152 88 37 79 241 160 86 150
8 242 161 87 151 153 89 38 80
8 153 89 38 80 243 162 88 152
8 171 98 41 92 265 178 97 169
8 265 178 97 169 226 147 74 138
8 172 96 40 93 266 176 95 170
8 266 176 95 170 171 98 41 92
8 269 175 94 173 172 96 40 93
8 271 180 99 174 175 100 42 94
8 197 124 59 113 271 180 99 174
8 272 181 100 175 177 102 44 96
8 273 182 101 176 179 104 46 98
8 177 102 44 96 273 182 101 176
8 179 104 46 98 275 184 103 178
8 275 184 103 178 238 157 83 147
8 188 115 51 105 283 197 113 186
8 188 115 198 284 105 51 114 187
8 284 198 116 189 187 114 52 106
8 286 200 120 193 189 116 55 109
8 191 118 202 288 107 53 117 190
8 195 121 203 289 111 56 118 191
8 193 120 204 290 109 55 119 192
8 290 204 122 194 192 119 57 110
8 196 123 58 112 292 207 122 194
8 293 206 121 195 196 123 58 112
8 199 126 61 115 297 211 124 197
8 298 212 127 200 198 125 62 116
8 199 126 212 298 115 61 125 198
8 205 129 64 120 300 214 127 200
8 301 217 130 201 202 132 66 117
8 209 136 168 264 301 217 130 201
8 302 219 132 202 203 133 67 118
8 303 220 133 203 206 134 68 121
8 205 129 215 304 120 64 128 204
8 304 215 131 207 204 128 65 122
8 306 221 134 206 208 135 69 123
8 208 135 69 123 307 218 131 207
8 210 137 167 263 309 223 136 209
8 328 238 147 226 230 149 76 140
8 228 146 91 166 329 236 165 260
8 231 150 77 141 330 235 145 227
8 330 235 145 227 228 146 91 166
8 332 239 148 229 233 151 78 143
8 230 149 76 140 332 239 148 229
8 232 152 79 142 334 241 150 231
8 234 153 80 144 335 243 152 232
8 336 242 151 233 234 153 80 144
8 236 155 90 165 338 245 164 259
8 241 160 86 150 339 246 154 235
8 339 246 154 235 237 156 82 146
8 237 156 82 146 340 247 155 236
8 342 249 157 238 240 159 85 149
8 343 250 158 239 242 161 87 151
8 240 159 85 149 343 250 158 239
8 243 162 88 152 345 252 160 241
8 244 163 253 346 153 89 161 242
8 244 163 89 153 347 254 162 243
8 311 224 261 371 210 137 167 263
8 263 167 262 372 209 136 168 264
8 267 179 98 171 375 275 178 265
8 375 275 178 265 328 238 147 226
8 376 273 176 266 267 179 98 171
8 268 177 96 172 376 273 176 266
8 379 272 175 269 268 177 96 172
8 380 271 174 270 269 175 94 173
8 283 197 113 186 380 271 174 270
8 381 277 180 271 272 181 100 175
8 297 211 124 197 381 277 180 271
8 382 278 181 272 274 183 102 177
8 274 183 102 177 383 279 182 273
8 383 279 182 273 276 185 104 179
8 385 281 184 275 342 249 157 238
8 276 185 104 179 385 281 184 275
8 285 199 115 188 393 297 197 283
8 394 298 200 286 284 198 116 189
8 285 199 298 394 188 115 198 284
8 291 205 120 193 396 300 200 286
8 397 301 201 287 288 202 117 190
8 295 209 264 374 397 301 201 287
8 398 302 202 288 289 203 118 191
8 399 303 203 289 293 206 121 195
8 291 205 304 400 193 120 204 290
8 400 304 207 292 290 204 122 194
8 294 208 123 196 402 307 207 292
8 403 306 206 293 294 208 123 196
8 296 210 263 373 405 309 209 295
8 408 312 213 299 297 211 126 199
8 299 213 313 409 199 126 212 298
8 409 313 214 300 298 212 127 200
8 305 216 129 205 411 315 214 300
8 412 318 217 301 302 219 132 202
8 309 223 136 209 412 318 217 301
8 413 320 219 302 303 220 133 203
8 306 221 321 414 206 134 220 303
8 307 218 131 207 415 316 215 304
8 305 216 316 415 205 129 215 304
8 417 322 221 306 308 222 135 208
8 308 222 135 208 418 319 218 307
8 310 225 137 210 420 325 223 309
8 423 326 224 311 310 225 137 210
8 329 236 165 260 441 338 259 368
8 442 342 238 328 333 240 149 230
8 331 237 146 228 443 340 236 329
8 334 241 150 231 444 339 235 330
8 444 339 235 330 331 237 146 228
8 446 343 239 332 336 242 151 233
8 333 240 149 230 446 343 239 332
8 335 243 152 232 448 345 241 334
8 337 244 153 234 449 347 243 335
8 337 244 346 450 234 153 242 336
8 338 245 164 259 452 349 258 367
8 340 247 155 236 453 350 245 338
8 345 252 160 241 454 351 246 339
8 454 351 246 339 341 248 156 237
8 341 248 156 237 455 352 247 340
8 240 159 251 344 342 249 354 457
8 242 161 253 346 343 250 355 458
8 343 250 355 458 240 159 251 344
8 347 254 162 243 460 357 252 345
8 348 255 358 461 244 163 253 346
8 348 255 163 244 462 359 254 347
8 473 360 257 365 363 256 364 482
8 452 349 258 367 365 257 366 485
8 422 324 369 488 311 224 261 371
8 371 261 370 490 263 167 262 372
8 407 311 371 491 296 210 263 373
8 373 263 372 492 295 209 264 374
8 493 385 275 375 442 342 238 328
8 377 276 179 267 493 385 275 375
8 378 274 177 268 494 383 273 376
8 494 383 273 376 377 276 179 267
8 497 382 272 379 378 274 177 268
8 498 381 271 380 379 272 175 269
8 393 297 197 283 498 381 271 380
8 499 387 277 381 382 278 181 272
8 408 312 211 297 499 387 277 381
8 500 388 278 382 384 280 183 274
8 501 389 279 383 386 282 185 276
8 384 280 183 274 501 389 279 383
8 386 282 185 276 503 391 281 385
8 503 391 281 385 457 354 249 342
8 511 408 299 395 393 297 199 285
8 395 299 409 512 285 199 298 394
8 512 409 300 396 394 298 200 286
8 401 305 205 291 514 411 300 396
8 515 412 301 397 398 302 202 288
8 405 309 209 295 515 412 301 397
8 516 413 302 398 399 303 203 289
8 403 306 414 517 293 206 303 399
8 402 307 207 292 518 415 304 400
8 401 305 415 518 291 205 304 400
8 404 308 208 294 520 418 307 402
8 521 417 306 403 404 308 208 294
8 406 310 210 296 523 420 309 405
8 526 423 311 407 406 310 210 296
8 410 314 213 299 527 424 312 408
8 528 425 315 411 409 313 214 300
8 410 314 425 528 299 213 313 409
8 416 317 216 305 530 427 315 411
8 531 430 318 412 413 320 219 302
8 420 325 223 309 531 430 318 412
8 532 432 320 413 414 321 220 303
8 417 322 433 533 306 221 321 414
8 418 319 218 307 534 428 316 415
8 416 317 428 534 305 216 316 415
8 419 323 434 536 308 222 322 417
8 419 323 222 308 537 431 319 418
8 421 327 225 310 539 438 325 420
8 421 327 439 541 310 225 326 423
8 543 437 324 422 423 326 224 311
8 441 338 259 368 559 452 367 486
8 443 340 236 329 560 453 338 441
8 333 240 344 447 442 342 457 561
8 445 341 237 331 562 455 340 443
8 448 345 241 334 563 454 339 444
8 563 454 339 444 445 341 237 331
8 336 242 346 450 446 343 458 565
8 446 343 458 565 333 240 344 447
8 449 347 243 335 567 460 345 448
8 451 348 244 337 568 462 347 449
8 451 348 461 569 337 244 346 450
8 570 463 349 452 473 360 257 365
8 453 350 245 338 570 463 349 452
8 455 352 247 340 571 464 350 453
8 460 357 252 345 572 465 351 454
8 572 465 351 454 456 353 248 341
8 456 353 248 341 573 466 352 455
8 344 251 356 459 457 354 468 575
8 458 355 469 576 344 251 356 459
8 346 253 358 461 458 355 469 576
8 462 359 254 347 578 471 357 460
8 348 255 359 462 461 358 472 579
8 591 474 360 473 475 361 256 363
8 475 361 256 363 594 477 362 479
8 363 256 364 482 479 362 480 603
8 590 473 365 484 481 363 482 605
8 482 364 257 365 606 483 366 485
8 559 452 367 486 484 365 485 607
8 542 436 487 609 422 324 369 488
8 525 422 488 611 407 311 371 491
8 488 369 489 612 371 261 370 490
8 491 371 490 613 373 263 372 492
8 495 386 276 377 614 503 385 493
8 614 503 385 493 561 457 342 442
8 615 501 383 494 495 386 276 377
8 496 384 274 378 615 501 383 494
8 618 500 382 497 496 384 274 378
8 619 499 381 498 497 382 272 379
8 511 408 297 393 619 499 381 498
8 620 505 387 499 500 388 278 382
8 527 424 312 408 620 505 387 499
8 502 390 506 621 384 280 388 500
8 622 507 389 501 504 392 282 386
8 502 390 280 384 622 507 389 501
8 504 392 282 386 624 509 391 503
8 624 509 391 503 575 468 354 457
8 513 410 299 395 630 527 408 511
8 631 528 411 514 512 409 300 396
8 513 410 528 631 395 299 409 512
8 519 416 305 401 633 530 411 514
8 634 531 412 515 516 413 302 398
8 523 420 309 405 634 531 412 515
8 635 532 413 516 517 414 303 399
8 521 417 533 636 403 306 414 517
8 520 418 307 402 637 534 415 518
8 519 416 534 637 401 305 415 518
8 522 419 308 404 639 537 418 520
8 522 419 536 640 404 308 417 521
8 524 421 310 406 642 539 420 523
8 524 421 541 644 406 310 423 526
8 646 543 422 525 526 423 311 407
8 529 426 314 410 647 544 424 527
8 528 425 545 648 411 315 427 530
8 529 426 545 648 410 314 425 528
8 535 429 317 416 649 546 427 530
8 650 548 430 531 532 432 320 413
8 539 438 325 420 650 548 430 531
8 533 433 550 651 414 321 432 532
8 536 434 551 652 417 322 433 533
8 537 431 319 418 653 547 428 534
8 535 429 547 653 416 317 428 534
8 538 435 552 654 419 323 434 536
8 538 435 323 419 655 549 431 537
8 540 440 327 421 657 556 438 539
8 540 440 557 659 421 327 439 541
8 541 439 555 660 423 326 437 543
8 661 554 436 542 543 437 324 422
8 676 570 452 559 590 473 365 484
8 560 453 338 441 676 570 452 559
8 562 455 340 443 677 571 453 560
8 447 344 459 566 561 457 575 678
8 564 456 341 445 679 573 455 562
8 567 460 345 448 680 572 454 563
8 680 572 454 563 564 456 341 445
8 565 458 576 682 447 344 459 566
8 450 346 461 569 565 458 576 682
8 568 462 347 449 684 578 460 567
8 451 348 462 568 569 461 579 685
8 686 580 463 570 591 474 360 473
8 571 464 350 453 686 580 463 570
8 573 466 352 455 687 581 464 571
8 572 465 582 688 460 357 471 578
8 574 467 582 688 456 353 465 572
8 574 467 353 456 689 583 466 573
8 459 356 470 577 575 468 585 691
8 576 469 586 692 459 356 470 577
8 461 358 472 579 576 469 586 692
8 462 359 471 578 579 472 588 694
8 704 591 473 590 593 475 363 481
8 595 476 592 705 475 361 474 591
8 593 475 363 481 707 594 479 602
8 594 477 362 479 709 598 478 600
8 595 476 361 475 711 597 477 594
8 479 362 480 603 600 478 601 720
8 481 363 482 605 602 479 603 722
8 603 480 364 482 723 604 483 606
8 605 482 365 484 724 606 485 607
8 656 553 608 726 542 436 487 609
8 645 542 609 728 525 422 488 611
8 609 487 610 729 488 369 489 612
8 611 488 612 730 491 371 490 613
8 616 504 386 495 731 624 503 614
8 731 624 503 614 678 575 457 561
8 732 622 501 615 616 504 386 495
8 617 502 384 496 732 622 501 615
8 617 502 621 735 496 384 500 618
8 736 620 499 619 618 500 382 497
8 630 527 408 511 736 620 499 619
8 621 506 626 737 500 388 505 620
8 647 544 424 527 737 626 505 620
8 623 508 627 738 502 390 506 621
8 623 508 390 502 739 628 507 622
8 625 510 628 739 504 392 507 622
8 740 629 509 624 691 585 468 575
8 625 510 392 504 740 629 509 624
8 632 529 410 513 744 647 527 630
8 631 528 648 745 514 411 530 633
8 632 529 648 745 513 410 528 631
8 638 535 416 519 746 649 530 633
8 747 650 531 634 635 532 413 516
8 642 539 420 523 747 650 531 634
8 636 533 651 748 517 414 532 635
8 640 536 652 749 521 417 533 636
8 639 537 418 520 750 653 534 637
8 638 535 653 750 519 416 534 637
8 641 538 419 522 751 655 537 639
8 641 538 654 752 522 419 536 640
8 643 540 421 524 753 657 539 642
8 643 540 659 755 524 421 541 644
8 644 541 660 757 526 423 543 646
8 758 661 542 645 646 543 422 525
8 529 426 544 647 648 545 662 759
8 530 427 545 648 649 546 663 760
8 535 429 546 649 653 547 664 761
8 762 666 548 650 651 550 432 532
8 657 556 438 539 762 666 548 650
8 652 551 668 763 533 433 550 651
8 654 552 669 764 536 434 551 652
8 655 549 431 537 765 665 547 653
8 538 435 549 655 654 552 667 766
8 661 554 671 768 542 436 553 656
8 658 558 440 540 769 674 556 657
8 658 558 675 770 540 440 557 659
8 659 557 673 771 541 439 555 660
8 660 555 672 772 543 437 554 661
8 788 686 570 676 704 591 473 590
8 677 571 453 560 788 686 570 676
8 679 573 455 562 789 687 571 677
8 566 459 577 683 678 575 691 790
8 681 574 456 564 791 689 573 679
8 680 572 688 792 567 460 578 684
8 681 574 688 792 564 456 572 680
8 682 576 692 794 566 459 577 683
8 569 461 579 685 682 576 692 794
8 568 462 578 684 685 579 694 796
8 687 581 464 571 798 696 580 686
8 798 696 580 686 705 592 474 591
8 689 583 466 573 799 697 581 687
8 688 582 698 800 578 471 588 694
8 690 584 698 800 574 467 582 688
8 690 584 467 574 801 699 583 689
8 693 587 701 803 577 470 585 691
8 693 587 470 577 804 702 586 692
8 695 589 702 804 579 472 586 692
8 695 589 472 579 805 703 588 694
8 708 595 705 813 593 475 591 704
8 710 596 706 814 595 476 592 705
8 707 594 479 602 816 709 600 719
8 708 595 475 593 817 711 594 707
8 709 598 478 600 819 715 599 717
8 711 597 477 594 820 714 598 709
8 710 596 476 595 822 713 597 711
8 600 478 601 720 717 599 718 832
8 602 479 603 722 719 600 720 834
8 720 601 480 603 835 721 604 723
8 722 603 482 605 836 723 606 724
8 767 670 725 839 656 553 608 726
8 756 656 726 841 645 542 609 728
8 726 608 727 842 609 487 610 729
8 728 609 729 843 611 488 612 730
8 844 740 624 731 790 691 575 678
8 733 625 504 616 844 740 624 731
8 734 623 502 617 845 739 622 732
8 733 625 739 845 616 504 622 732
8 734 623 738 846 617 502 621 735
8 735 621 737 847 618 500 620 736
8 744 647 527 630 847 737 620 736
8 621 506 627 738 737 626 741 848
8 647 544 626 737 759 662 741 848
8 623 508 628 739 738 627 742 849
8 740 629 585 691 850 743 700 802
8 625 510 629 740 739 628 743 850
8 632 529 647 744 745 648 759 854
8 633 530 648 745 746 649 760 855
8 638 535 649 746 750 653 761 856
8 857 762 650 747 748 651 532 635
8 753 657 539 642 857 762 650 747
8 749 652 763 858 636 533 651 748
8 752 654 764 859 640 536 652 749
8 751 655 537 639 860 765 653 750
8 641 538 655 751 752 654 766 861
8 754 658 540 643 862 769 657 753
8 754 658 770 863 643 540 659 755
8 755 659 771 864 644 541 660 757
8 758 661 768 866 645 542 656 756
8 757 660 772 867 646 543 661 758
8 759 662 773 868 648 545 663 760
8 649 546 663 760 761 664 774 871
8 765 665 547 653 872 775 664 761
8 873 777 666 762 763 668 550 651
8 769 674 556 657 873 777 666 762
8 764 669 779 874 652 551 668 763
8 654 552 667 766 764 669 778 875
8 655 549 665 765 766 667 776 876
8 768 671 782 877 656 553 670 767
8 772 672 783 878 661 554 671 768
8 658 558 674 769 770 675 786 879
8 659 557 675 770 771 673 785 881
8 882 784 672 772 771 673 555 660
8 789 687 571 677 897 798 686 788
8 897 798 686 788 813 705 591 704
8 791 689 573 679 898 799 687 789
8 795 693 803 900 683 577 691 790
8 793 690 574 681 901 801 689 791
8 792 688 800 902 684 578 694 796
8 793 690 800 902 681 574 688 792
8 795 693 577 683 903 804 692 794
8 797 695 804 903 685 579 692 794
8 797 695 579 685 904 805 694 796
8 905 806 697 799 798 696 581 687
8 814 706 806 905 705 592 696 798
8 689 583 697 799 801 699 808 907
8 800 698 809 908 694 588 703 805
8 690 584 699 801 800 698 809 908
8 803 701 810 909 691 585 700 802
8 693 587 702 804 803 701 811 910
8 695 589 703 805 804 702 812 911
8 818 710 814 919 708 595 705 813
8 821 712 815 920 710 596 706 814
8 816 709 600 719 922 819 717 831
8 817 711 594 707 923 820 709 816
8 818 710 595 708 924 822 711 817
8 819 715 599 717 926 827 716 829
8 820 714 598 709 927 826 715 819
8 929 825 713 822 820 714 597 711
8 821 712 596 710 930 824 713 822
8 717 599 718 832 829 716 830 942
8 719 600 720 834 831 717 832 944
8 832 718 601 720 945 833 721 835
8 834 720 603 722 946 835 723 836
8 869 780 838 950 767 670 725 839
8 865 767 839 952 756 656 726 841
8 839 725 840 953 726 608 727 842
8 841 726 842 954 728 609 729 843
8 844 740 691 790 955 850 802 899
8 733 625 740 844 845 739 850 955
8 734 623 739 845 846 738 849 956
8 735 621 738 846 847 737 848 957
8 744 647 737 847 854 759 848 957
8 738 627 742 849 848 741 851 958
8 848 741 851 958 759 662 773 868
8 850 743 700 802 959 852 807 906
8 849 742 628 739 959 852 743 850
8 854 759 868 965 745 648 760 855
8 746 649 760 855 856 761 871 966
8 860 765 653 750 967 872 761 856
8 968 873 762 857 858 763 651 748
8 862 769 657 753 968 873 762 857
8 859 764 874 969 749 652 763 858
8 752 654 766 861 859 764 875 970
8 751 655 765 860 861 766 876 971
8 754 658 769 862 863 770 879 972
8 755 659 770 863 864 771 881 974
8 976 882 772 867 864 771 660 757
8 866 768 877 977 756 656 767 865
8 867 772 878 978 758 661 768 866
8 760 663 773 868 871 774 883 980
8 870 781 837 948 982 890 780 869
8 982 890 780 869 877 782 670 767
8 761 664 774 871 872 775 884 984
8 876 776 665 765 985 885 775 872
8 873 777 668 763 986 887 779 874
8 769 674 777 873 879 786 887 986
8 764 669 778 875 874 779 888 987
8 766 667 776 876 875 778 886 988
8 878 783 892 989 768 671 782 877
8 878 783 672 772 990 893 784 882
8 880 787 675 770 991 896 786 879
8 880 787 895 992 770 675 785 881
8 881 785 894 993 771 673 784 882
8 1006 905 799 898 897 798 687 789
8 919 814 905 1006 813 705 798 897
8 791 689 799 898 901 801 907 1007
8 900 803 909 1009 790 691 802 899
8 795 693 804 903 900 803 910 1010
8 902 800 908 1011 796 694 805 904
8 793 690 801 901 902 800 908 1011
8 797 695 805 904 903 804 911 1012
8 799 697 806 905 907 808 912 1013
8 920 815 912 1013 814 706 806 905
8 802 700 810 909 906 807 913 1014
8 801 699 808 907 908 809 914 1015
8 805 703 809 908 911 812 915 1016
8 803 701 811 910 909 810 916 1017
8 911 812 917 1018 804 702 811 910
8 925 821 920 1030 818 710 814 919
8 928 823 921 1031 821 712 815 920
8 922 819 717 831 1033 926 829 941
8 923 820 709 816 1034 927 819 922
8 1035 929 822 924 923 820 711 817
8 925 821 710 818 1036 930 822 924
8 1038 933 825 929 927 826 714 820
8 926 827 716 829 1039 935 828 939
8 927 826 715 819 1040 934 827 926
8 928 823 712 821 1041 931 824 930
8 1042 932 824 930 929 825 713 822
8 829 716 830 942 939 828 940 1058
8 831 717 832 944 941 829 942 1060
8 942 830 718 832 1061 943 833 945
8 944 832 720 834 1062 945 835 946
8 981 889 947 1064 870 781 837 948
8 948 837 949 1067 869 780 838 950
8 975 869 950 1069 865 767 839 952
8 950 838 951 1070 839 725 840 953
8 952 839 953 1071 841 726 842 954
8 955 850 802 899 1072 959 906 1008
8 956 849 739 845 1072 959 850 955
8 846 738 849 956 957 848 958 1073
8 957 848 958 1073 854 759 868 965
8 849 742 852 959 958 851 961 1076
8 960 853 961 1076 906 807 852 959
8 958 851 961 1076 868 773 883 980
8 960 853 807 906 1077 963 913 1014
8 855 760 868 965 966 871 980 1085
8 856 761 871 966 967 872 984 1086
8 971 876 765 860 1087 985 872 967
8 968 873 763 858 1088 986 874 969
8 862 769 873 968 972 879 986 1088
8 859 764 875 970 969 874 987 1089
8 861 766 876 971 970 875 988 1090
8 973 880 770 863 1091 991 879 972
8 973 880 992 1092 863 770 881 974
8 974 881 993 1093 864 771 882 976
8 979 870 948 1066 1094 982 869 975
8 1094 982 869 975 977 877 767 865
8 978 878 772 867 1095 990 882 976
8 978 878 989 1096 866 768 877 977
8 871 774 883 980 984 884 994 1099
8 983 891 999 1100 870 781 889 981
8 1101 1000 890 982 989 892 782 877
8 983 891 781 870 1101 1000 890 982
8 872 775 884 984 985 885 995 1103
8 876 776 885 985 988 886 996 1104
8 986 887 779 874 1105 998 888 987
8 879 786 887 986 991 896 998 1105
8 875 778 886 988 987 888 997 1106
8 990 893 1002 1107 878 783 892 989
8 1108 1003 893 990 993 894 784 882
8 880 787 896 991 992 895 1005 1109
8 993 894 785 881 1110 1004 895 992
8 898 799 905 1006 1007 907 1013 1120
8 1030 920 1013 1120 919 814 905 1006
8 901 801 907 1007 1011 908 1015 1121
8 899 802 909 1009 1008 906 1014 1122
8 900 803 910 1010 1009 909 1017 1123
8 1012 911 1018 1124 903 804 910 1010
8 904 805 908 1011 1012 911 1016 1125
8 1013 912 1020 1127 907 808 914 1015
8 1031 921 1020 1127 920 815 912 1013
8 1019 918 962 1075 1128 1021 913 1014
8 1128 1021 913 1014 1017 916 810 909
8 1015 914 1022 1129 908 809 915 1016
8 1016 915 1023 1130 911 812 917 1018
8 1018 917 1024 1131 910 811 916 1017
8 1037 928 1031 1148 925 821 920 1030
8 928 823 931 1041 1031 921 1032 1149
8 1033 926 829 941 1151 1039 939 1057
8 1034 927 819 922 1152 1040 926 1033
8 1153 1038 929 1035 1034 927 820 923
8 1154 1042 930 1036 1035 929 822 924
8 1037 928 821 925 1155 1041 930 1036
8 1039 935 828 939 1156 1047 938 1055
8 1157 1043 932 1042 1038 933 825 929
8 1038 933 826 927 1158 1045 934 1040
8 1040 934 827 926 1159 1046 935 1039
8 930 824 932 1042 1041 931 1044 1160
8 1051 936 1048 1165 1175 1052 937 1053
8 1156 1047 938 1055 1053 937 1054 1178
8 939 828 940 1058 1055 938 1056 1181
8 941 829 942 1060 1057 939 1058 1183
8 942 830 943 1061 1058 940 1059 1184
8 1060 942 832 944 1185 1061 945 1062
8 1082 964 1063 1188 981 889 947 1064
8 1097 981 1064 1190 979 870 948 1066
8 1064 947 1065 1191 948 837 949 1067
8 1066 948 1067 1193 975 869 950 1069
8 1067 949 1068 1194 950 838 951 1070
8 1069 950 1070 1195 952 839 953 1071
8 956 849 959 1072 1073 958 1076 1197
8 1074 960 1076 1197 1008 906 959 1072
8 1073 958 1076 1197 965 868 980 1085
8 1074 960 906 1008 1198 1077 1014 1122
8 1133 1026 1079 1199 1019 918 962 1075
8 1077 963 913 1014 1200 1080 962 1075
8 960 853 963 1077 1076 961 1078 1201
8 980 883 961 1076 1099 994 1078 1201
8 1210 1083 964 1082 1100 999 889 981
8 966 871 980 1085 1086 984 1099 1215
8 967 872 984 1086 1087 985 1103 1216
8 971 876 985 1087 1090 988 1104 1217
8 1088 986 874 969 1218 1105 987 1089
8 972 879 986 1088 1091 991 1105 1218
8 970 875 988 1090 1089 987 1106 1219
8 973 880 991 1091 1092 992 1109 1220
8 1093 993 881 974 1221 1110 992 1092
8 1222 1108 990 1095 1093 993 882 976
8 1223 1101 982 1094 1096 989 877 977
8 1098 983 870 979 1223 1101 982 1094
8 1095 990 1107 1224 978 878 989 1096
8 1098 983 1100 1225 979 870 981 1097
8 984 884 994 1099 1103 995 1111 1227
8 1102 1001 1115 1228 983 891 999 1100
8 1101 1000 892 989 1229 1116 1002 1107
8 1102 1001 891 983 1229 1116 1000 1101
8 985 885 995 1103 1104 996 1112 1230
8 988 886 996 1104 1106 997 1113 1231
8 1105 998 888 987 1232 1114 997 1106
8 991 896 998 1105 1109 1005 1114 1232
8 1108 1003 1117 1233 990 893 1002 1107
8 1108 1003 894 993 1233 1117 1004 1110
8 992 895 1005 1109 1110 1004 1118 1234
8 1120 1013 1127 1244 1007 907 1015 1121
8 1148 1031 1127 1244 1030 920 1013 1120
8 1121 1015 1129 1245 1011 908 1016 1125
8 1126 1019 1075 1196 1246 1128 1014 1122
8 1246 1128 1014 1122 1123 1017 909 1009
8 1124 1018 1131 1247 1010 910 1017 1123
8 1125 1016 1130 1248 1012 911 1018 1124
8 1127 1020 1137 1254 1015 914 1022 1129
8 1031 921 1032 1149 1127 1020 1137 1254
8 1134 1027 918 1019 1257 1140 1021 1128
8 1257 1140 1021 1128 1131 1024 916 1017
8 1129 1022 1141 1258 1016 915 1023 1130
8 1130 1023 1142 1259 1018 917 1024 1131
8 1261 1144 1025 1132 1133 1026 1079 1199
8 1255 1138 1025 1132 1135 1028 1144 1261
8 1133 1026 918 1019 1262 1145 1027 1134
8 1136 1029 1139 1256 1263 1146 1028 1135
8 1037 928 1041 1155 1148 1031 1149 1275
8 1041 931 1044 1160 1149 1032 1150 1276
8 1151 1039 939 1057 1278 1156 1055 1180
8 1152 1040 926 1033 1279 1159 1039 1151
8 1153 1038 927 1034 1280 1158 1040 1152
8 1281 1157 1042 1154 1153 1038 929 1035
8 1036 930 1042 1154 1155 1041 1160 1282
8 1283 1164 1046 1159 1156 1047 935 1039
8 1165 1048 1164 1283 1053 937 1047 1156
8 1157 1043 933 1038 1284 1161 1045 1158
8 1157 1043 1161 1284 1042 932 1044 1160
8 1040 934 1046 1159 1158 1045 1163 1285
8 1166 1049 1167 1292 1051 936 1048 1165
8 1166 1049 936 1051 1293 1168 1050 1172
8 1051 936 1052 1175 1172 1050 1173 1306
8 1174 1051 1165 1290 1308 1175 1053 1177
8 1053 937 1054 1178 1175 1052 1176 1309
8 1278 1156 1055 1180 1177 1053 1178 1311
8 1055 938 1056 1181 1178 1054 1179 1312
8 1057 939 1058 1183 1180 1055 1181 1314
8 1058 940 1059 1184 1181 1056 1182 1315
8 1060 942 1061 1185 1183 1058 1184 1316
8 1208 1081 1187 1321 1082 964 1063 1188
8 1209 1082 1188 1322 1097 981 1064 1190
8 1188 1063 1189 1323 1064 947 1065 1191
8 1190 1064 1191 1325 1066 948 1067 1193
8 1191 1065 1192 1326 1067 949 1068 1194
8 1067 1193 1069 950 1194 1327 1195 1070
8 1250 1133 1199 1330 1126 1019 1075 1196
8 1198 1077 1014 1122 1331 1200 1075 1196
8 1074 960 1077 1198 1197 1076 1201 1332
8 1085 980 1076 1197 1215 1099 1201 1332
8 1199 1079 1203 1333 1075 962 1080 1200
8 1132 1025 1119 1243 1199 1079 1203 1333
8 1201 1078 963 1077 1334 1202 1080 1200
8 1099 994 1078 1201 1227 1111 1202 1334
8 1343 1207 1081 1208 1210 1083 964 1082
8 1214 1084 1186 1319 1343 1207 1081 1208
8 1345 1210 1082 1209 1225 1100 981 1097
8 1346 1211 1083 1210 1228 1115 999 1100
8 1086 984 1099 1215 1216 1103 1227 1352
8 1087 985 1103 1216 1217 1104 1230 1353
8 1090 988 1104 1217 1219 1106 1231 1354
8 1218 1105 987 1089 1355 1232 1106 1219
8 1091 991 1105 1218 1220 1109 1232 1355
8 1092 992 1109 1220 1221 1110 1234 1356
8 1222 1108 1233 1357 1095 990 1107 1224
8 1222 1108 993 1093 1357 1233 1110 1221
8 1223 1101 989 1096 1358 1229 1107 1224
8 1226 1102 983 1098 1358 1229 1101 1223
8 1226 1102 1228 1359 1098 983 1100 1225
8 1103 995 1111 1227 1230 1112 1235 1360
8 1107 1002 1117 1233 1229 1116 1240 1362
8 1102 1001 1116 1229 1228 1115 1240 1362
8 1104 996 1112 1230 1231 1113 1236 1363
8 1364 1237 1114 1232 1231 1113 997 1106
8 1109 1005 1114 1232 1234 1118 1238 1365
8 1110 1004 1118 1234 1233 1117 1241 1366
8 1242 1374 1255 1138 1119 1243 1132 1025
8 1244 1127 1254 1376 1121 1015 1129 1245
8 1148 1031 1149 1275 1244 1127 1254 1376
8 1245 1129 1258 1377 1125 1016 1130 1248
8 1251 1134 1019 1126 1378 1257 1128 1246
8 1378 1257 1128 1246 1247 1131 1017 1123
8 1248 1130 1259 1379 1124 1018 1131 1247
8 1261 1381 1250 1133 1132 1249 1330 1199
8 1255 1380 1252 1135 1132 1249 1381 1261
8 1250 1133 1019 1126 1382 1262 1134 1251
8 1253 1136 1256 1385 1384 1263 1135 1252
8 1254 1137 1265 1387 1129 1022 1141 1258
8 1149 1032 1150 1276 1254 1137 1265 1387
8 1028 1135 1255 1138 1139 1256 1388 1266
8 1136 1029 1147 1264 1256 1139 1267 1389
8 1390 1268 1140 1257 1259 1142 1024 1131
8 1260 1143 1027 1134 1390 1268 1140 1257
8 1258 1141 1269 1391 1130 1023 1142 1259
8 1262 1145 1027 1134 1393 1271 1143 1260
8 1261 1144 1026 1133 1394 1272 1145 1262
8 1135 1028 1144 1261 1263 1146 1272 1394
8 1136 1029 1146 1263 1264 1147 1273 1395
8 1155 1041 1160 1282 1275 1149 1276 1405
8 1276 1150 1044 1160 1406 1277 1162 1286
8 1408 1283 1159 1279 1278 1156 1039 1151
8 1290 1165 1283 1408 1177 1053 1156 1278
8 1152 1040 1159 1279 1280 1158 1285 1409
8 1281 1157 1038 1153 1410 1284 1158 1280
8 1281 1157 1284 1410 1154 1042 1160 1282
8 1159 1046 1164 1283 1285 1163 1289 1412
8 1292 1167 1289 1412 1165 1048 1164 1283
8 1158 1045 1163 1285 1284 1161 1288 1413
8 1284 1161 1288 1413 1160 1044 1162 1286
8 1291 1166 1292 1418 1174 1051 1165 1290
8 1291 1166 1051 1174 1419 1293 1172 1305
8 1294 1169 1296 1421 1166 1049 1167 1292
8 1293 1168 1050 1172 1422 1295 1171 1303
8 1294 1169 1049 1166 1423 1297 1168 1293
8 1422 1295 1171 1303 1301 1170 1302 1435
8 1172 1050 1173 1306 1303 1171 1304 1438
8 1174 1051 1175 1308 1305 1172 1306 1440
8 1175 1052 1176 1309 1306 1173 1307 1441
8 1177 1053 1178 1311 1308 1175 1309 1443
8 1178 1054 1179 1312 1309 1176 1310 1444
8 1180 1055 1181 1314 1311 1178 1312 1446
8 1056 1181 1312 1179 1182 1315 1447 1313
8 1183 1058 1184 1316 1314 1181 1315 1448
8 1319 1186 1084 1214 1451 1317 1213 1350
8 1319 1186 1318 1453 1208 1081 1187 1321
8 1321 1187 1320 1456 1188 1063 1189 1323
8 1344 1208 1321 1457 1209 1082 1188 1322
8 1322 1188 1323 1458 1190 1064 1191 1325
8 1323 1189 1324 1459 1191 1065 1192 1326
8 1191 1325 1193 1067 1326 1460 1327 1194
8 1242 1374 1243 1119 1328 1462 1335 1204
8 1330 1199 1333 1465 1196 1075 1200 1331
8 1132 1249 1330 1199 1243 1375 1465 1333
8 1332 1201 1077 1198 1466 1334 1200 1331
8 1215 1099 1201 1332 1352 1227 1334 1466
8 1119 1243 1333 1203 1204 1335 1470 1338
8 1333 1203 1338 1470 1200 1080 1202 1334
8 1227 1111 1202 1334 1360 1235 1338 1470
8 1328 1462 1335 1204 1205 1336 1471 1339
8 1337 1206 1340 1472 1464 1329 1205 1336
8 1346 1211 1342 1479 1210 1083 1207 1343
8 1346 1211 1115 1228 1479 1342 1239 1361
8 1348 1212 1084 1214 1479 1342 1207 1343
8 1480 1343 1208 1344 1345 1210 1082 1209
8 1351 1214 1319 1454 1480 1343 1208 1344
8 1481 1346 1210 1345 1359 1228 1100 1225
8 1348 1212 1347 1483 1214 1084 1213 1350
8 1216 1103 1227 1352 1353 1230 1360 1488
8 1217 1104 1230 1353 1354 1231 1363 1489
8 1490 1364 1232 1355 1354 1231 1106 1219
8 1220 1109 1232 1355 1356 1234 1365 1491
8 1221 1110 1234 1356 1357 1233 1366 1492
8 1224 1107 1233 1357 1358 1229 1362 1493
8 1226 1102 1229 1358 1359 1228 1362 1493
8 1230 1112 1235 1360 1363 1236 1367 1496
8 1361 1239 1115 1228 1497 1371 1240 1362
8 1366 1241 1372 1498 1233 1117 1240 1362
8 1364 1237 1113 1231 1499 1368 1236 1363
8 1364 1237 1368 1499 1232 1114 1238 1365
8 1234 1118 1238 1365 1366 1241 1369 1500
8 1507 1373 1242 1374 1388 1266 1138 1255
8 1508 1374 1243 1375 1380 1255 1132 1249
8 1376 1254 1387 1509 1245 1129 1258 1377
8 1275 1149 1276 1405 1376 1254 1387 1509
8 1377 1258 1391 1510 1248 1130 1259 1379
8 1511 1390 1257 1378 1379 1259 1131 1247
8 1383 1260 1134 1251 1511 1390 1257 1378
8 1252 1135 1256 1385 1380 1255 1388 1512
8 1261 1381 1513 1394 1133 1250 1382 1262
8 1135 1252 1384 1263 1261 1381 1513 1394
8 1382 1262 1134 1251 1514 1393 1260 1383
8 1253 1136 1263 1384 1386 1264 1395 1516
8 1253 1136 1264 1386 1385 1256 1389 1517
8 1387 1265 1397 1519 1258 1141 1269 1391
8 1276 1150 1277 1406 1387 1265 1397 1519
8 1256 1139 1267 1389 1388 1266 1398 1520
8 1264 1147 1274 1396 1389 1267 1399 1521
8 1392 1270 1143 1260 1522 1400 1268 1390
8 1390 1268 1142 1259 1522 1400 1269 1391
8 1392 1270 1401 1523 1260 1143 1271 1393
8 1272 1394 1524 1402 1145 1262 1393 1271
8 1395 1273 1146 1263 1524 1402 1272 1394
8 1273 1395 1264 1147 1403 1526 1396 1274
8 1405 1276 1160 1282 1534 1406 1286 1411
8 1414 1287 1407 1535 1286 1162 1277 1406
8 1279 1159 1283 1408 1409 1285 1412 1537
8 1418 1292 1412 1537 1290 1165 1283 1408
8 1280 1158 1285 1409 1410 1284 1413 1538
8 1410 1284 1413 1538 1282 1160 1286 1411
8 1285 1163 1289 1412 1413 1288 1417 1540
8 1421 1296 1417 1540 1292 1167 1289 1412
8 1414 1287 1162 1286 1541 1416 1288 1413
8 1420 1294 1421 1545 1291 1166 1292 1418
8 1419 1293 1172 1305 1546 1422 1303 1437
8 1420 1294 1166 1291 1547 1423 1293 1419
8 1294 1169 1297 1423 1421 1296 1425 1548
8 1423 1297 1168 1293 1549 1424 1295 1422
8 1301 1170 1298 1427 1422 1295 1424 1549
8 1432 1300 1428 1554 1301 1170 1298 1427
8 1431 1299 1428 1554 1560 1430 1300 1432
8 1563 1433 1300 1432 1435 1302 1170 1301
8 1546 1422 1303 1437 1434 1301 1435 1565
8 1303 1171 1304 1438 1435 1302 1436 1566
8 1305 1172 1306 1440 1437 1303 1438 1568
8 1306 1173 1307 1441 1438 1304 1439 1569
8 1308 1175 1309 1443 1440 1306 1441 1571
8 1309 1176 1310 1444 1441 1307 1442 1572
8 1311 1178 1312 1446 1443 1309 1444 1574
8 1179 1312 1444 1310 1313 1447 1575 1445
8 1314 1181 1315 1448 1446 1312 1447 1576
8 1350 1213 1349 1486 1451 1317 1449 1579
8 1451 1317 1450 1581 1319 1186 1318 1453
8 1454 1319 1214 1351 1582 1451 1350 1487
8 1453 1318 1452 1584 1321 1187 1320 1456
8 1454 1319 1453 1585 1344 1208 1321 1457
8 1456 1320 1455 1586 1323 1189 1324 1459
8 1457 1321 1456 1587 1322 1188 1323 1458
8 1458 1323 1459 1588 1325 1191 1326 1460
8 1205 1336 1464 1329 1328 1462 1590 1461
8 1507 1373 1461 1590 1374 1242 1328 1462
8 1508 1374 1462 1591 1375 1243 1335 1467
8 1337 1206 1329 1464 1473 1341 1463 1594
8 1375 1243 1335 1467 1465 1333 1470 1596
8 1465 1333 1470 1596 1331 1200 1334 1466
8 1352 1227 1334 1466 1488 1360 1470 1596
8 1591 1462 1336 1468 1467 1335 1471 1597
8 1469 1337 1472 1598 1595 1464 1336 1468
8 1471 1339 1474 1600 1335 1204 1338 1470
8 1600 1474 1367 1496 1470 1338 1235 1360
8 1336 1205 1340 1472 1471 1339 1475 1601
8 1337 1206 1341 1473 1472 1340 1476 1602
8 1495 1370 1478 1609 1361 1239 1342 1479
8 1348 1212 1342 1479 1483 1347 1478 1609
8 1481 1346 1479 1610 1345 1210 1343 1480
8 1481 1346 1228 1359 1610 1479 1361 1494
8 1484 1348 1214 1351 1610 1479 1343 1480
8 1483 1347 1482 1612 1350 1213 1349 1486
8 1484 1348 1483 1613 1351 1214 1350 1487
8 1353 1230 1360 1488 1489 1363 1496 1616
8 1490 1364 1231 1354 1617 1499 1363 1489
8 1490 1364 1499 1617 1355 1232 1365 1491
8 1356 1234 1365 1491 1492 1366 1500 1619
8 1492 1366 1498 1620 1357 1233 1362 1493
8 1494 1361 1228 1359 1621 1497 1362 1493
8 1495 1370 1239 1361 1622 1504 1371 1497
8 1363 1236 1367 1496 1499 1368 1501 1623
8 1497 1371 1240 1362 1624 1505 1372 1498
8 1625 1503 1372 1498 1500 1369 1241 1366
8 1365 1238 1368 1499 1500 1369 1502 1626
8 1520 1398 1506 1633 1388 1266 1373 1507
8 1634 1507 1374 1508 1512 1388 1255 1380
8 1509 1387 1519 1635 1377 1258 1391 1510
8 1405 1276 1406 1534 1509 1387 1519 1635
8 1515 1392 1260 1383 1636 1522 1390 1511
8 1511 1390 1259 1379 1636 1522 1391 1510
8 1385 1256 1389 1517 1512 1388 1520 1637
8 1513 1394 1262 1382 1638 1524 1393 1514
8 1395 1516 1638 1524 1263 1384 1513 1394
8 1515 1392 1523 1639 1383 1260 1393 1514
8 1516 1395 1526 1640 1386 1264 1396 1518
8 1386 1264 1396 1518 1517 1389 1521 1641
8 1519 1397 1527 1643 1391 1269 1400 1522
8 1535 1407 1527 1643 1406 1277 1397 1519
8 1389 1267 1399 1521 1520 1398 1528 1644
8 1645 1529 1399 1521 1525 1404 1274 1396
8 1392 1270 1400 1522 1523 1401 1531 1646
8 1524 1402 1271 1393 1648 1532 1401 1523
8 1403 1526 1648 1532 1273 1395 1524 1402
8 1525 1404 1274 1396 1649 1533 1403 1526
8 1539 1414 1535 1657 1411 1286 1406 1534
8 1542 1415 1536 1658 1414 1287 1407 1535
8 1409 1285 1412 1537 1538 1413 1540 1660
8 1545 1421 1540 1660 1418 1292 1412 1537
8 1539 1414 1286 1411 1661 1541 1413 1538
8 1540 1417 1544 1663 1413 1288 1416 1541
8 1421 1296 1425 1548 1540 1417 1544 1663
8 1542 1415 1287 1414 1664 1543 1416 1541
8 1420 1294 1423 1547 1545 1421 1548 1666
8 1547 1423 1293 1419 1667 1549 1422 1546
8 1434 1301 1427 1553 1546 1422 1549 1667
8 1423 1297 1424 1549 1548 1425 1550 1668
8 1551 1426 1550 1668 1427 1298 1424 1549
8 1551 1426 1298 1427 1671 1552 1428 1554
8 1562 1432 1554 1674 1434 1301 1427 1553
8 1431 1299 1429 1558 1554 1428 1555 1675
8 1431 1299 1430 1560 1558 1429 1557 1680
8 1560 1430 1300 1432 1683 1559 1433 1563
8 1561 1431 1554 1674 1684 1560 1432 1562
8 1685 1563 1432 1562 1565 1435 1301 1434
8 1435 1302 1436 1566 1563 1433 1564 1686
8 1437 1303 1438 1568 1565 1435 1566 1688
8 1438 1304 1439 1569 1566 1436 1567 1689
8 1440 1306 1441 1571 1568 1438 1569 1691
8 1441 1307 1442 1572 1569 1439 1570 1692
8 1443 1309 1444 1574 1571 1441 1572 1694
8 1310 1444 1572 1442 1445 1575 1695 1573
8 1446 1312 1447 1576 1574 1444 1575 1696
8 1486 1349 1485 1614 1579 1449 1577 1699
8 1451 1317 1449 1579 1581 1450 1578 1701
8 1487 1350 1486 1615 1582 1451 1579 1702
8 1581 1450 1580 1704 1453 1318 1452 1584
8 1582 1451 1581 1705 1454 1319 1453 1585
8 1584 1452 1583 1706 1456 1320 1455 1586
8 1585 1453 1584 1707 1457 1321 1456 1587
8 1587 1456 1586 1708 1458 1323 1459 1588
8 1633 1506 1589 1710 1507 1373 1461 1590
8 1464 1329 1461 1590 1594 1463 1589 1710
8 1468 1336 1462 1591 1595 1464 1590 1711
8 1634 1507 1590 1711 1508 1374 1462 1591
8 1473 1341 1463 1594 1603 1477 1593 1716
8 1469 1337 1464 1595 1599 1473 1594 1717
8 1471 1597 1467 1335 1600 1718 1596 1470
8 1718 1600 1496 1616 1596 1470 1360 1488
8 1336 1468 1597 1471 1472 1598 1719 1601
8 1469 1337 1473 1599 1598 1472 1602 1720
8 1722 1604 1501 1623 1600 1474 1367 1496
8 1475 1601 1471 1339 1604 1722 1600 1474
8 1602 1476 1605 1723 1472 1340 1475 1601
8 1476 1602 1724 1606 1341 1473 1603 1477
8 1483 1347 1478 1609 1612 1482 1608 1731
8 1495 1370 1504 1622 1609 1478 1608 1731
8 1618 1495 1609 1732 1494 1361 1479 1610
8 1484 1348 1479 1610 1613 1483 1609 1732
8 1486 1349 1482 1612 1614 1485 1611 1733
8 1613 1483 1612 1734 1487 1350 1486 1615
8 1489 1363 1496 1616 1617 1499 1623 1736
8 1491 1365 1499 1617 1619 1500 1626 1737
8 1618 1495 1361 1494 1738 1622 1497 1621
8 1739 1625 1498 1620 1619 1500 1366 1492
8 1621 1497 1362 1493 1740 1624 1498 1620
8 1742 1631 1504 1622 1624 1505 1371 1497
8 1743 1628 1502 1626 1623 1501 1368 1499
8 1744 1630 1505 1624 1625 1503 1372 1498
8 1745 1629 1503 1625 1626 1502 1369 1500
8 1520 1398 1528 1644 1633 1506 1632 1751
8 1637 1520 1633 1752 1512 1388 1507 1634
8 1635 1519 1643 1753 1510 1391 1522 1636
8 1657 1535 1643 1753 1534 1406 1519 1635
8 1515 1392 1522 1636 1639 1523 1646 1754
8 1517 1389 1521 1641 1637 1520 1644 1755
8 1524 1638 1756 1648 1393 1514 1639 1523
8 1640 1526 1395 1516 1756 1648 1524 1638
8 1642 1525 1396 1518 1757 1649 1526 1640
8 1758 1645 1521 1641 1642 1525 1396 1518
8 1646 1531 1400 1522 1760 1650 1527 1643
8 1535 1407 1536 1658 1643 1527 1650 1760
8 1521 1399 1529 1645 1644 1528 1651 1761
8 1647 1530 1652 1762 1525 1404 1529 1645
8 1401 1523 1648 1532 1531 1646 1763 1655
8 1525 1404 1533 1649 1647 1530 1654 1765
8 1533 1649 1766 1656 1403 1526 1648 1532
8 1662 1542 1658 1774 1539 1414 1535 1657
8 1542 1415 1543 1664 1658 1536 1659 1775
8 1660 1540 1663 1777 1538 1413 1541 1661
8 1545 1421 1548 1666 1660 1540 1663 1777
8 1662 1542 1414 1539 1778 1664 1541 1661
8 1664 1543 1416 1541 1779 1665 1544 1663
8 1548 1425 1550 1668 1663 1544 1665 1779
8 1547 1423 1549 1667 1666 1548 1668 1781
8 1670 1551 1668 1781 1553 1427 1549 1667
8 1551 1426 1552 1671 1668 1550 1669 1782
8 1670 1551 1427 1553 1784 1671 1554 1674
8 1675 1555 1672 1785 1554 1428 1552 1671
8 1678 1556 1673 1789 1558 1429 1555 1675
8 1561 1431 1558 1681 1674 1554 1675 1790
8 1794 1677 1556 1678 1680 1557 1429 1558
8 1560 1430 1559 1683 1680 1557 1679 1797
8 1561 1431 1560 1684 1681 1558 1680 1798
8 1563 1433 1564 1686 1683 1559 1682 1800
8 1684 1560 1432 1562 1801 1683 1563 1685
8 1565 1435 1566 1688 1685 1563 1686 1802
8 1566 1436 1567 1689 1686 1564 1687 1803
8 1568 1438 1569 1691 1688 1566 1689 1805
8 1569 1439 1570 1692 1689 1567 1690 1806
8 1571 1441 1572 1694 1691 1569 1692 1808
8 1442 1572 1692 1570 1573 1695 1809 1693
8 1574 1444 1575 1696 1694 1572 1695 1810
8 1614 1485 1592 1712 1699 1577 1697 1813
8 1579 1449 1577 1699 1701 1578 1698 1815
8 1615 1486 1614 1735 1702 1579 1699 1816
8 1701 1578 1700 1818 1581 1450 1580 1704
8 1582 1451 1579 1702 1705 1581 1701 1819
8 1704 1580 1703 1820 1584 1452 1583 1706
8 1705 1581 1704 1821 1585 1453 1584 1707
8 1707 1584 1706 1822 1587 1456 1586 1708
8 1710 1589 1506 1633 1824 1709 1632 1751
8 1594 1463 1589 1710 1716 1593 1709 1824
8 1752 1633 1710 1825 1634 1507 1590 1711
8 1595 1464 1590 1711 1717 1594 1710 1825
8 1830 1714 1592 1712 1733 1611 1485 1614
8 1603 1477 1593 1716 1725 1607 1715 1834
8 1599 1473 1594 1717 1721 1603 1716 1835
8 1837 1722 1623 1736 1718 1600 1496 1616
8 1719 1601 1722 1837 1597 1471 1600 1718
8 1602 1720 1598 1472 1723 1838 1719 1601
8 1720 1602 1473 1599 1839 1724 1603 1721
8 1723 1605 1726 1840 1601 1475 1604 1722
8 1840 1726 1628 1743 1722 1604 1501 1623
8 1724 1606 1727 1841 1602 1476 1605 1723
8 1725 1607 1728 1842 1603 1477 1606 1724
8 1612 1482 1608 1731 1733 1611 1730 1849
8 1741 1627 1730 1849 1622 1504 1608 1731
8 1613 1483 1609 1732 1734 1612 1731 1850
8 1618 1495 1622 1738 1732 1609 1731 1850
8 1615 1486 1612 1734 1735 1614 1733 1851
8 1852 1743 1626 1737 1736 1623 1499 1617
8 1853 1745 1625 1739 1737 1626 1500 1619
8 1855 1742 1622 1738 1740 1624 1497 1621
8 1856 1744 1624 1740 1739 1625 1498 1620
8 1741 1627 1504 1622 1857 1746 1631 1742
8 1742 1631 1505 1624 1858 1749 1630 1744
8 1859 1747 1629 1745 1743 1628 1502 1626
8 1860 1748 1630 1744 1745 1629 1503 1625
8 1644 1528 1651 1761 1751 1632 1750 1865
8 1637 1520 1644 1755 1752 1633 1751 1866
8 1754 1646 1522 1636 1867 1760 1643 1753
8 1657 1535 1658 1774 1753 1643 1760 1867
8 1639 1523 1646 1754 1756 1648 1763 1868
8 1641 1521 1645 1758 1755 1644 1761 1869
8 1757 1649 1526 1640 1870 1766 1648 1756
8 1642 1525 1649 1757 1759 1647 1765 1871
8 1759 1647 1762 1872 1642 1525 1645 1758
8 1760 1650 1767 1874 1646 1531 1655 1763
8 1658 1536 1659 1775 1760 1650 1767 1874
8 1762 1652 1768 1875 1645 1529 1651 1761
8 1764 1653 1769 1876 1647 1530 1652 1762
8 1656 1766 1877 1773 1532 1648 1763 1655
8 1771 1879 1765 1654 1653 1764 1647 1530
8 1533 1649 1765 1654 1656 1766 1880 1772
8 1662 1542 1664 1778 1774 1658 1775 1887
8 1664 1543 1665 1779 1775 1659 1776 1888
8 1778 1664 1541 1661 1890 1779 1663 1777
8 1666 1548 1668 1781 1777 1663 1779 1890
8 1782 1669 1780 1891 1668 1550 1665 1779
8 1670 1551 1671 1784 1781 1668 1782 1893
8 1671 1552 1672 1785 1782 1669 1783 1894
8 1790 1675 1785 1896 1674 1554 1671 1784
8 1675 1555 1673 1789 1785 1672 1786 1897
8 1792 1676 1788 1903 1678 1556 1673 1789
8 1795 1678 1789 1904 1681 1558 1675 1790
8 1792 1676 1556 1678 1906 1791 1677 1794
8 1680 1557 1679 1797 1794 1677 1793 1909
8 1910 1794 1678 1795 1798 1680 1558 1681
8 1683 1559 1682 1800 1797 1679 1796 1912
8 1684 1560 1683 1801 1798 1680 1797 1913
8 1686 1564 1687 1803 1800 1682 1799 1915
8 1685 1563 1686 1802 1801 1683 1800 1916
8 1688 1566 1689 1805 1802 1686 1803 1917
8 1689 1567 1690 1806 1803 1687 1804 1918
8 1691 1569 1692 1808 1805 1689 1806 1920
8 1692 1570 1693 1809 1806 1690 1807 1921
8 1694 1572 1695 1810 1808 1692 1809 1922
8 1829 1713 1811 1926 1712 1592 1697 1813
8 1813 1697 1812 1928 1699 1577 1698 1815
8 1735 1614 1712 1828 1816 1699 1813 1929
8 1815 1698 1814 1931 1701 1578 1700 1818
8 1702 1579 1699 1816 1819 1701 1815 1932
8 1818 1700 1817 1933 1704 1580 1703 1820
8 1819 1701 1818 1934 1705 1581 1704 1821
8 1821 1704 1820 1935 1707 1584 1706 1822
8 1824 1709 1632 1751 1937 1823 1750 1865
8 1716 1593 1709 1824 1834 1715 1823 1937
8 1825 1710 1633 1752 1938 1824 1751 1866
8 1717 1594 1710 1825 1835 1716 1824 1938
8 1945 1830 1712 1828 1851 1733 1614 1735
8 1830 1714 1831 1946 1712 1592 1713 1829
8 1947 1832 1714 1830 1849 1730 1611 1733
8 1843 1729 1607 1725 1950 1833 1715 1834
8 1721 1603 1716 1835 1836 1725 1834 1951
8 1836 1725 1842 1953 1721 1603 1724 1839
8 1723 1838 1719 1601 1840 1954 1837 1722
8 1954 1840 1743 1852 1837 1722 1623 1736
8 1724 1839 1720 1602 1841 1955 1838 1723
8 1841 1727 1844 1956 1723 1605 1726 1840
8 1956 1844 1747 1859 1840 1726 1628 1743
8 1728 1842 1724 1606 1845 1957 1841 1727
8 1725 1607 1729 1843 1842 1728 1846 1958
8 1741 1627 1746 1857 1849 1730 1848 1965
8 1734 1612 1731 1850 1851 1733 1849 1966
8 1854 1741 1849 1966 1738 1622 1731 1850
8 1967 1859 1745 1853 1852 1743 1626 1737
8 1968 1860 1744 1856 1853 1745 1625 1739
8 1854 1741 1622 1738 1969 1857 1742 1855
8 1855 1742 1624 1740 1970 1858 1744 1856
8 1857 1746 1631 1742 1971 1861 1749 1858
8 1858 1749 1630 1744 1972 1863 1748 1860
8 1859 1747 1862 1973 1745 1629 1748 1860
8 1875 1768 1864 1977 1761 1651 1750 1865
8 1755 1644 1761 1869 1866 1751 1865 1978
8 1867 1760 1874 1979 1754 1646 1763 1868
8 1774 1658 1775 1887 1867 1760 1874 1979
8 1870 1766 1648 1756 1980 1877 1763 1868
8 1872 1762 1875 1981 1758 1645 1761 1869
8 1757 1649 1766 1870 1871 1765 1880 1982
8 1983 1879 1764 1873 1871 1765 1647 1759
8 1873 1764 1876 1984 1759 1647 1762 1872
8 1877 1773 1655 1763 1986 1881 1767 1874
8 1775 1659 1776 1888 1874 1767 1881 1986
8 1876 1769 1882 1987 1762 1652 1768 1875
8 1878 1770 1883 1988 1764 1653 1769 1876
8 1880 1772 1656 1766 1989 1886 1773 1877
8 1878 1770 1653 1764 1990 1884 1771 1879
8 1765 1654 1772 1880 1879 1771 1885 1991
8 1778 1664 1779 1890 1887 1775 1888 1997
8 1998 1889 1776 1888 1891 1780 1665 1779
8 1893 1782 1891 2000 1781 1668 1779 1890
8 1894 1783 1892 2001 1782 1669 1780 1891
8 1784 1671 1785 1896 1893 1782 1894 2003
8 1897 1786 1895 2004 1785 1672 1783 1894
8 1790 1675 1789 1904 1896 1785 1897 2006
8 1901 1787 1898 2007 1789 1673 1786 1897
8 1903 1788 1900 2013 1789 1673 1787 1901
8 1792 1676 1791 1906 1903 1788 1902 2016
8 1907 1792 1903 2017 1795 1678 1789 1904
8 1906 1791 1677 1794 2019 1905 1793 1909
8 1907 1792 1678 1795 2020 1906 1794 1910
8 1797 1679 1796 1912 1909 1793 1908 2022
8 1798 1680 1797 1913 1910 1794 1909 2023
8 1800 1682 1799 1915 1912 1796 1911 2025
8 1801 1683 1800 1916 1913 1797 1912 2026
8 1803 1687 1804 1918 1915 1799 1914 2028
8 1802 1686 1803 1917 1916 1800 1915 2029
8 1805 1689 1806 1920 1917 1803 1918 2030
8 1806 1690 1807 1921 1918 1804 1919 2031
8 1808 1692 1809 1922 1920 1806 1921 2032
8 1939 1826 1924 2037 1829 1713 1811 1926
8 1926 1811 1925 2039 1813 1697 1812 1928
8 1944 1829 1926 2040 1828 1712 1813 1929
8 1928 1812 1927 2042 1815 1698 1814 1931
8 1929 1813 1928 2043 1816 1699 1815 1932
8 1931 1814 1930 2044 1818 1700 1817 1933
8 1932 1815 1931 2045 1819 1701 1818 1934
8 1934 1818 1933 2046 1821 1704 1820 1935
8 2048 1936 1823 1937 1977 1864 1750 1865
8 1950 1833 1715 1834 2048 1936 1823 1937
8 1938 1824 1751 1866 2049 1937 1865 1978
8 1835 1716 1824 1938 1951 1834 1937 2049
8 1939 1826 1713 1829 2053 1942 1831 1946
8 1940 1827 1923 2035 2053 1942 1826 1939
8 1945 1830 1946 2058 1828 1712 1829 1944
8 2059 1947 1830 1945 1966 1849 1733 1851
8 1947 1832 1730 1849 2060 1948 1848 1965
8 1947 1832 1948 2060 1830 1714 1831 1946
8 1959 1847 1729 1843 2063 1949 1833 1950
8 1952 1843 1725 1836 2064 1950 1834 1951
8 1836 1725 1843 1952 1953 1842 1958 2066
8 1953 1842 1957 2067 1839 1724 1841 1955
8 1841 1955 1838 1723 1956 2068 1954 1840
8 2068 1956 1859 1967 1954 1840 1743 1852
8 1956 1844 1960 2069 1859 1747 1862 1973
8 1845 1957 1841 1727 1960 2069 1956 1844
8 1728 1842 1957 1845 1846 1958 2071 1961
8 1962 2072 1959 1847 1846 1958 1843 1729
8 1971 1861 1964 2077 1857 1746 1848 1965
8 1854 1741 1857 1969 1966 1849 1965 2078
8 1967 1859 1973 2079 1853 1745 1860 1968
8 1970 1858 1744 1856 2080 1972 1860 1968
8 1969 1857 1742 1855 2081 1971 1858 1970
8 1971 1861 1749 1858 2082 1974 1863 1972
8 1973 1862 1975 2083 1860 1748 1863 1972
8 1987 1882 1976 2086 1875 1768 1864 1977
8 1981 1875 1977 2087 1869 1761 1865 1978
8 1980 1877 1763 1868 2088 1986 1874 1979
8 1887 1775 1888 1997 1979 1874 1986 2088
8 1880 1982 2089 1989 1766 1870 1980 1877
8 1984 1876 1987 2090 1872 1762 1875 1981
8 1765 1871 1983 1879 1880 1982 2091 1991
8 1985 1878 1764 1873 2092 1990 1879 1983
8 1985 1878 1988 2093 1873 1764 1876 1984
8 2094 1992 1881 1986 1998 1889 1776 1888
8 1986 1881 1992 2094 1877 1773 1886 1989
8 1988 1883 1993 2095 1876 1769 1882 1987
8 1878 1770 1884 1990 1988 1883 1994 2096
8 1991 1885 1772 1880 2097 1996 1886 1989
8 1879 1771 1885 1991 1990 1884 1995 2098
8 2103 1998 1888 1997 2000 1891 1779 1890
8 2104 1999 1889 1998 2001 1892 1780 1891
8 2003 1894 2001 2106 1893 1782 1891 2000
8 2004 1895 2002 2107 1894 1783 1892 2001
8 2006 1897 2004 2109 1896 1785 1894 2003
8 2007 1898 2005 2110 1897 1786 1895 2004
8 2014 1901 2007 2112 1904 1789 1897 2006
8 2011 1899 2008 2113 1901 1787 1898 2007
8 2119 2010 1899 2011 2013 1900 1787 1901
8 2016 1902 2012 2122 1903 1788 1900 2013
8 2017 1903 2013 2123 1904 1789 1901 2014
8 1906 1791 1905 2019 2016 1902 2015 2125
8 1907 1792 1906 2020 2017 1903 2016 2126
8 1909 1793 1908 2022 2019 1905 2018 2128
8 2020 1906 1794 1910 2129 2019 1909 2023
8 1912 1796 1911 2025 2022 1908 2021 2131
8 1913 1797 1912 2026 2023 1909 2022 2132
8 1915 1799 1914 2028 2025 1911 2024 2134
8 1916 1800 1915 2029 2026 1912 2025 2135
8 1918 1804 1919 2031 2028 1914 2027 2136
8 1917 1803 1918 2030 2029 1915 2028 2137
8 1920 1806 1921 2032 2030 1918 2031 2138
8 1940 1827 1941 2054 2035 1923 2033 2140
8 2035 1923 2034 2143 1939 1826 1924 2037
8 2037 1924 2036 2146 1926 1811 1925 2039
8 2051 1939 2037 2147 1944 1829 1926 2040
8 2039 1925 2038 2149 1928 1812 1927 2042
8 2040 1926 2039 2150 1929 1813 1928 2043
8 2042 1927 2041 2151 1931 1814 1930 2044
8 2043 1928 2042 2152 1932 1815 1931 2045
8 2045 1931 2044 2153 1934 1818 1933 2046
8 2155 2047 1936 2048 2086 1976 1864 1977
8 2063 1949 1833 1950 2155 2047 1936 2048
8 2156 2048 1937 2049 2087 1977 1865 1978
8 2064 1950 1834 1951 2156 2048 1937 2049
8 2051 1939 1829 1944 2160 2053 1946 2058
8 2052 1940 2035 2144 2160 2053 1939 2051
8 2053 1942 1831 1946 2163 2057 1948 2060
8 2055 1943 1827 1940 2163 2057 1942 2053
8 2055 1943 2056 2164 1940 1827 1941 2054
8 2059 1947 1849 1966 2167 2060 1965 2078
8 2059 1947 2060 2167 1945 1830 1946 2058
8 2077 1964 2061 2168 1965 1848 1948 2060
8 2070 1963 1847 1959 2170 2062 1949 2063
8 2065 1959 1843 1952 2171 2063 1950 2064
8 2173 2072 1958 2066 2065 1959 1843 1952
8 1953 1842 1958 2066 2067 1957 2071 2174
8 2068 1956 2069 2175 1967 1859 1973 2079
8 2067 1957 2069 2175 1955 1841 1956 2068
8 1845 1957 2069 1960 1961 2071 2176 2073
8 2069 1960 2073 2176 1973 1862 1975 2083
8 2070 1963 2075 2177 1959 1847 1962 2072
8 1846 1958 2071 1961 1962 2072 2178 2074
8 2077 1964 1861 1971 2182 2076 1974 2082
8 2081 1971 2077 2183 1969 1857 1965 2078
8 2079 1973 2083 2184 1968 1860 1972 2080
8 2081 1971 1858 1970 2185 2082 1972 2080
8 2083 1975 2084 2186 1972 1863 1974 2082
8 2086 1976 1882 1987 2189 2085 1993 2095
8 2090 1987 2086 2190 1981 1875 1977 2087
8 2191 2094 1986 2088 2103 1998 1888 1997
8 2088 1986 2094 2191 1980 1877 1989 2089
8 1991 2091 2192 2097 1880 1982 2089 1989
8 2093 1988 2095 2193 1984 1876 1987 2090
8 1879 1983 2092 1990 1991 2091 2194 2098
8 1985 1878 1990 2092 2093 1988 2096 2195
8 2097 1996 1886 1989 2196 2099 1992 2094
8 2196 2099 1992 2094 2104 1999 1889 1998
8 1994 2096 1988 1883 2100 2197 2095 1993
8 2096 1994 1884 1990 2198 2101 1995 2098
8 1995 2098 2199 2102 1885 1991 2097 1996
8 2203 2104 1998 2103 2106 2001 1891 2000
8 2107 2002 2105 2204 2001 1892 1999 2104
8 2109 2004 2107 2206 2003 1894 2001 2106
8 2110 2005 2108 2207 2004 1895 2002 2107
8 2112 2007 2110 2209 2006 1897 2004 2109
8 2113 2008 2111 2210 2007 1898 2005 2110
8 2120 2011 2113 2212 2014 1901 2007 2112
8 2117 2009 2114 2213 2011 1899 2008 2113
8 2219 2116 2009 2117 2119 2010 1899 2011
8 2222 2118 2010 2119 2122 2012 1900 2013
8 2223 2119 2011 2120 2123 2013 1901 2014
8 2016 1902 2015 2125 2122 2012 2121 2225
8 2126 2016 2122 2226 2017 1903 2013 2123
8 2019 1905 2018 2128 2125 2015 2124 2228
8 2020 1906 2019 2129 2126 2016 2125 2229
8 2022 1908 2021 2131 2128 2018 2127 2231
8 2023 1909 2022 2132 2129 2019 2128 2232
8 2025 1911 2024 2134 2131 2021 2130 2234
8 2026 1912 2025 2135 2132 2022 2131 2235
8 1914 2028 2134 2024 2027 2136 2236 2133
8 2029 1915 2028 2137 2135 2025 2134 2237
8 2030 1918 2031 2138 2137 2028 2136 2238
8 2157 2050 2139 2240 2054 1941 2033 2140
8 2052 1940 2054 2161 2144 2035 2140 2242
8 2140 2033 2141 2243 2035 1923 2034 2143
8 2143 2034 2142 2246 2037 1924 2036 2146
8 2144 2035 2143 2247 2051 1939 2037 2147
8 2146 2036 2145 2249 2039 1925 2038 2149
8 2147 2037 2146 2250 2040 1926 2039 2150
8 2149 2038 2148 2251 2042 1927 2041 2151
8 2150 2039 2149 2252 2043 1928 2042 2152
8 2152 2042 2151 2253 2045 1931 2044 2153
8 2255 2154 2047 2155 2189 2085 1976 2086
8 2170 2062 1949 2063 2255 2154 2047 2155
8 2256 2155 2048 2156 2190 2086 1977 2087
8 2171 2063 1950 2064 2256 2155 2048 2156
8 2258 2159 2050 2157 2164 2056 1941 2054
8 2160 2053 1946 2058 2262 2163 2060 2167
8 2162 2055 1940 2052 2262 2163 2053 2160
8 2162 2055 2164 2263 2052 1940 2054 2161
8 2163 2057 1948 2060 2264 2165 2061 2168
8 2055 1943 2057 2163 2164 2056 2165 2264
8 2182 2076 2166 2268 2077 1964 2061 2168
8 2183 2077 2168 2269 2078 1965 2060 2167
8 2070 1963 2062 2170 2177 2075 2169 2271
8 2172 2070 1959 2065 2272 2170 2063 2171
8 2172 2070 2177 2273 2065 1959 2072 2173
8 2066 1958 2072 2173 2174 2071 2178 2274
8 2067 1957 2071 2174 2175 2069 2176 2275
8 2175 2069 2176 2275 2079 1973 2083 2184
8 2071 1961 2074 2178 2176 2073 2179 2276
8 2176 2073 2179 2276 2083 1975 2084 2186
8 2072 1962 2075 2177 2178 2074 2180 2277
8 2182 2076 1974 2082 2280 2181 2084 2186
8 2183 2077 1971 2081 2281 2182 2082 2185
8 2184 2083 2186 2282 2080 1972 2082 2185
8 2189 2085 1993 2095 2285 2188 2100 2197
8 2190 2086 1987 2090 2286 2189 2095 2193
8 2192 2097 1989 2089 2287 2196 2094 2191
8 2287 2196 2094 2191 2203 2104 1998 2103
8 2194 2098 1991 2091 2288 2199 2097 2192
8 2195 2096 2197 2289 2093 1988 2095 2193
8 2096 2195 2290 2198 1990 2092 2194 2098
8 2097 1996 2099 2196 2199 2102 2200 2291
8 2196 2099 1999 2104 2291 2200 2105 2204
8 2100 2197 2292 2201 1994 2096 2198 2101
8 1995 2098 2198 2101 2102 2199 2293 2202
8 2206 2107 2204 2296 2106 2001 2104 2203
8 2207 2108 2205 2297 2107 2002 2105 2204
8 2209 2110 2207 2299 2109 2004 2107 2206
8 2210 2111 2208 2300 2110 2005 2108 2207
8 2212 2113 2210 2302 2112 2007 2110 2209
8 2213 2114 2211 2303 2113 2008 2111 2210
8 2220 2117 2213 2305 2120 2011 2113 2212
8 2216 2115 2214 2306 2117 2009 2114 2213
8 2216 2115 2009 2117 2311 2217 2116 2219
8 2219 2116 2010 2119 2314 2218 2118 2222
8 2315 2219 2117 2220 2223 2119 2011 2120
8 2122 2012 2121 2225 2222 2118 2221 2317
8 2318 2222 2119 2223 2226 2122 2013 2123
8 2125 2015 2124 2228 2225 2121 2224 2320
8 2126 2016 2125 2229 2226 2122 2225 2321
8 2128 2018 2127 2231 2228 2124 2227 2323
8 2129 2019 2128 2232 2229 2125 2228 2324
8 2131 2021 2130 2234 2231 2127 2230 2326
8 2132 2022 2131 2235 2232 2128 2231 2327
8 2134 2024 2133 2236 2234 2130 2233 2328
8 2135 2025 2134 2237 2235 2131 2234 2329
8 2137 2028 2136 2238 2237 2134 2236 2330
8 2157 2050 2158 2259 2240 2139 2239 2332
8 2257 2157 2240 2334 2161 2054 2140 2242
8 2240 2139 2241 2335 2140 2033 2141 2243
8 2242 2140 2243 2337 2144 2035 2143 2247
8 2243 2141 2244 2338 2143 2034 2142 2246
8 2246 2142 2245 2341 2146 2036 2145 2249
8 2247 2143 2246 2342 2147 2037 2146 2250
8 2249 2145 2248 2343 2149 2038 2148 2251
8 2250 2146 2249 2344 2150 2039 2149 2252
8 2252 2149 2251 2345 2152 2042 2151 2253
8 2169 2271 2347 2254 2062 2170 2255 2154
8 2189 2085 2188 2285 2255 2154 2254 2347
8 2348 2255 2155 2256 2286 2189 2086 2190
8 2272 2170 2063 2171 2348 2255 2155 2256
8 2349 2258 2157 2257 2263 2164 2054 2161
8 2258 2159 2261 2351 2157 2050 2158 2259
8 2258 2159 2056 2164 2351 2261 2165 2264
8 2262 2163 2060 2167 2355 2264 2168 2269
8 2162 2055 2163 2262 2263 2164 2264 2355
8 2357 2266 2165 2264 2268 2166 2061 2168
8 2268 2166 2076 2182 2361 2267 2181 2280
8 2281 2182 2268 2362 2183 2077 2168 2269
8 2271 2169 2270 2364 2177 2075 2180 2277
8 2172 2070 2170 2272 2273 2177 2271 2365
8 2072 2173 2274 2178 2177 2273 2366 2277
8 2071 2174 2275 2176 2178 2274 2367 2276
8 2275 2176 2276 2367 2184 2083 2186 2282
8 2283 2187 2084 2186 2368 2278 2179 2276
8 2178 2074 2180 2277 2276 2179 2278 2368
8 2283 2187 2279 2370 2186 2084 2181 2280
8 2281 2182 2082 2185 2371 2280 2186 2282
8 2188 2285 2374 2284 2100 2197 2292 2201
8 2286 2189 2095 2193 2375 2285 2197 2289
8 2192 2097 2196 2287 2288 2199 2291 2376
8 2287 2196 2104 2203 2376 2291 2204 2296
8 2194 2098 2199 2288 2290 2198 2293 2377
8 2289 2197 2096 2195 2378 2292 2198 2290
8 2291 2200 2105 2204 2379 2294 2205 2297
8 2199 2102 2200 2291 2293 2202 2294 2379
8 2198 2101 2202 2293 2292 2201 2295 2380
8 2299 2207 2297 2383 2206 2107 2204 2296
8 2300 2208 2298 2384 2207 2108 2205 2297
8 2302 2210 2300 2386 2209 2110 2207 2299
8 2303 2211 2301 2387 2210 2111 2208 2300
8 2305 2213 2303 2389 2212 2113 2210 2302
8 2306 2214 2304 2390 2213 2114 2211 2303
8 2310 2216 2306 2392 2220 2117 2213 2305
8 2308 2215 2307 2393 2216 2115 2214 2306
8 2308 2215 2115 2216 2396 2309 2217 2311
8 2310 2216 2117 2220 2398 2311 2219 2315
8 2311 2217 2116 2219 2399 2312 2218 2314
8 2314 2218 2118 2222 2402 2313 2221 2317
8 2315 2219 2119 2223 2403 2314 2222 2318
8 2225 2121 2224 2320 2317 2221 2316 2405
8 2226 2122 2225 2321 2318 2222 2317 2406
8 2228 2124 2227 2323 2320 2224 2319 2408
8 2229 2125 2228 2324 2321 2225 2320 2409
8 2231 2127 2230 2326 2323 2227 2322 2411
8 2232 2128 2231 2327 2324 2228 2323 2412
8 2234 2130 2233 2328 2326 2230 2325 2413
8 2235 2131 2234 2329 2327 2231 2326 2414
8 2237 2134 2236 2330 2329 2234 2328 2415
8 2259 2158 2260 2352 2332 2239 2331 2417
8 2257 2157 2259 2350 2334 2240 2332 2419
8 2240 2139 2239 2332 2335 2241 2333 2420
8 2334 2240 2335 2422 2242 2140 2243 2337
8 2335 2241 2336 2423 2243 2141 2244 2338
8 2337 2243 2338 2425 2247 2143 2246 2342
8 2338 2244 2339 2426 2246 2142 2245 2341
8 2341 2245 2340 2428 2249 2145 2248 2343
8 2342 2246 2341 2429 2250 2146 2249 2344
8 2344 2249 2343 2430 2252 2149 2251 2345
8 2188 2285 2347 2254 2284 2374 2432 2346
8 2347 2254 2346 2432 2271 2169 2270 2364
8 2365 2271 2170 2272 2433 2347 2255 2348
8 2286 2189 2285 2375 2348 2255 2347 2433
8 2349 2258 2351 2435 2257 2157 2259 2350
8 2349 2258 2164 2263 2435 2351 2264 2355
8 2259 2158 2261 2351 2352 2260 2354 2437
8 2356 2265 2354 2437 2264 2165 2261 2351
8 2441 2357 2264 2355 2362 2268 2168 2269
8 2356 2265 2165 2264 2442 2358 2266 2357
8 2443 2359 2266 2357 2361 2267 2166 2268
8 2370 2279 2360 2446 2280 2181 2267 2361
8 2362 2268 2182 2281 2447 2361 2280 2371
8 2180 2277 2368 2278 2270 2364 2449 2363
8 2271 2365 2273 2177 2364 2450 2366 2277
8 2372 2283 2186 2282 2451 2368 2276 2367
8 2178 2274 2367 2276 2277 2366 2451 2368
8 2283 2187 2278 2368 2370 2279 2369 2452
8 2372 2283 2370 2453 2282 2186 2280 2371
8 2284 2374 2455 2373 2201 2292 2380 2295
8 2375 2285 2197 2289 2456 2374 2292 2378
8 2376 2291 2204 2296 2457 2379 2297 2383
8 2288 2199 2291 2376 2377 2293 2379 2457
8 2198 2290 2378 2292 2293 2377 2458 2380
8 2293 2202 2294 2379 2380 2295 2381 2459
8 2384 2298 2381 2459 2297 2205 2294 2379
8 2386 2300 2384 2463 2299 2207 2297 2383
8 2387 2301 2385 2464 2300 2208 2298 2384
8 2389 2303 2387 2466 2302 2210 2300 2386
8 2390 2304 2388 2467 2303 2211 2301 2387
8 2392 2306 2390 2469 2305 2213 2303 2389
8 2393 2307 2391 2470 2306 2214 2304 2390
8 2395 2308 2393 2472 2310 2216 2306 2392
8 2308 2215 2309 2396 2393 2307 2394 2473
8 2395 2308 2216 2310 2475 2396 2311 2398
8 2396 2309 2217 2311 2476 2397 2312 2399
8 2398 2311 2219 2315 2478 2399 2314 2403
8 2399 2312 2218 2314 2479 2400 2313 2402
8 2317 2221 2316 2405 2402 2313 2401 2482
8 2403 2314 2222 2318 2483 2402 2317 2406
8 2320 2224 2319 2408 2405 2316 2404 2485
8 2321 2225 2320 2409 2406 2317 2405 2486
8 2323 2227 2322 2411 2408 2319 2407 2488
8 2324 2228 2323 2412 2409 2320 2408 2489
8 2326 2230 2325 2413 2411 2322 2410 2490
8 2327 2231 2326 2414 2412 2323 2411 2491
8 2329 2234 2328 2415 2414 2326 2413 2492
8 2417 2331 2260 2352 2494 2416 2353 2438
8 2350 2259 2352 2436 2419 2332 2417 2496
8 2332 2239 2331 2417 2420 2333 2418 2497
8 2334 2240 2332 2419 2422 2335 2420 2499
8 2420 2333 2421 2500 2335 2241 2336 2423
8 2422 2335 2423 2502 2337 2243 2338 2425
8 2423 2336 2424 2503 2338 2244 2339 2426
8 2425 2338 2426 2505 2342 2246 2341 2429
8 2426 2339 2427 2506 2341 2245 2340 2428
8 2429 2341 2428 2507 2344 2249 2343 2430
8 2432 2346 2284 2374 2509 2431 2373 2455
8 2432 2346 2431 2509 2364 2270 2363 2449
8 2375 2285 2374 2456 2433 2347 2432 2510
8 2347 2433 2365 2271 2432 2510 2450 2364
8 2350 2259 2351 2435 2436 2352 2437 2514
8 2440 2356 2437 2514 2355 2264 2351 2435
8 2352 2260 2354 2437 2438 2353 2439 2516
8 2356 2265 2358 2442 2437 2354 2439 2516
8 2440 2356 2264 2355 2518 2442 2357 2441
8 2519 2443 2357 2441 2447 2361 2268 2362
8 2443 2359 2444 2520 2357 2266 2358 2442
8 2443 2359 2267 2361 2520 2444 2360 2446
8 2446 2360 2279 2370 2523 2445 2369 2452
8 2453 2370 2446 2524 2371 2280 2361 2447
8 2449 2363 2448 2525 2368 2278 2369 2452
8 2366 2277 2364 2450 2451 2368 2449 2526
8 2372 2283 2368 2451 2453 2370 2452 2527
8 2455 2373 2295 2380 2529 2454 2382 2460
8 2456 2374 2292 2378 2530 2455 2380 2458
8 2377 2293 2379 2457 2458 2380 2459 2531
8 2463 2384 2459 2531 2383 2297 2379 2457
8 2533 2461 2382 2460 2459 2381 2295 2380
8 2464 2385 2461 2533 2384 2298 2381 2459
8 2466 2387 2464 2537 2386 2300 2384 2463
8 2467 2388 2465 2538 2387 2301 2385 2464
8 2469 2390 2467 2540 2389 2303 2387 2466
8 2470 2391 2468 2541 2390 2304 2388 2467
8 2472 2393 2470 2543 2392 2306 2390 2469
8 2393 2307 2394 2473 2470 2391 2471 2544
8 2395 2308 2396 2475 2472 2393 2473 2546
8 2396 2309 2397 2476 2473 2394 2474 2547
8 2475 2396 2311 2398 2549 2476 2399 2478
8 2476 2397 2312 2399 2550 2477 2400 2479
8 2478 2399 2314 2403 2552 2479 2402 2483
8 2479 2400 2313 2402 2553 2480 2401 2482
8 2405 2316 2404 2485 2482 2401 2481 2556
8 2406 2317 2405 2486 2483 2402 2482 2557
8 2408 2319 2407 2488 2485 2404 2484 2559
8 2409 2320 2408 2489 2486 2405 2485 2560
8 2411 2322 2410 2490 2488 2407 2487 2561
8 2412 2323 2411 2491 2489 2408 2488 2562
8 2414 2326 2413 2492 2491 2411 2490 2563
8 2513 2434 2493 2565 2438 2353 2416 2494
8 2496 2417 2352 2436 2567 2494 2438 2515
8 2494 2416 2495 2568 2417 2331 2418 2497
8 2419 2332 2417 2496 2499 2420 2497 2570
8 2497 2418 2498 2571 2420 2333 2421 2500
8 2499 2420 2500 2573 2422 2335 2423 2502
8 2500 2421 2501 2574 2423 2336 2424 2503
8 2502 2423 2503 2576 2425 2338 2426 2505
8 2503 2424 2504 2577 2426 2339 2427 2506
8 2505 2426 2506 2578 2429 2341 2428 2507
8 2509 2431 2373 2455 2580 2508 2454 2529
8 2509 2431 2508 2580 2449 2363 2448 2525
8 2432 2510 2581 2509 2374 2456 2530 2455
8 2432 2510 2450 2364 2509 2581 2526 2449
8 2583 2511 2434 2513 2516 2439 2353 2438
8 2436 2352 2437 2514 2515 2438 2516 2588
8 2440 2356 2442 2518 2514 2437 2516 2588
8 2442 2358 2444 2520 2516 2439 2517 2589
8 2519 2443 2520 2591 2441 2357 2442 2518
8 2519 2443 2361 2447 2591 2520 2446 2524
8 2446 2360 2445 2523 2520 2444 2521 2592
8 2525 2448 2522 2593 2452 2369 2445 2523
8 2524 2446 2370 2453 2594 2523 2452 2527
8 2526 2449 2525 2595 2451 2368 2452 2527
8 2534 2462 2528 2597 2460 2382 2454 2529
8 2530 2455 2380 2458 2598 2529 2460 2532
8 2599 2533 2460 2532 2531 2459 2380 2458
8 2537 2464 2533 2599 2463 2384 2459 2531
8 2534 2462 2382 2460 2601 2535 2461 2533
8 2538 2465 2535 2601 2464 2385 2461 2533
8 2540 2467 2538 2604 2466 2387 2464 2537
8 2541 2468 2539 2605 2467 2388 2465 2538
8 2543 2470 2541 2607 2469 2390 2467 2540
8 2470 2391 2471 2544 2541 2468 2542 2608
8 2472 2393 2473 2546 2543 2470 2544 2610
8 2473 2394 2474 2547 2544 2471 2545 2611
8 2475 2396 2476 2549 2546 2473 2547 2613
8 2476 2397 2477 2550 2547 2474 2548 2614
8 2549 2476 2399 2478 2616 2550 2479 2552
8 2479 2400 2480 2553 2550 2477 2551 2617
8 2552 2479 2402 2483 2619 2553 2482 2557
8 2482 2401 2481 2556 2553 2480 2554 2620
8 2485 2404 2484 2559 2556 2481 2555 2623
8 2486 2405 2485 2560 2557 2482 2556 2624
8 2488 2407 2487 2561 2559 2484 2558 2625
8 2489 2408 2488 2562 2560 2485 2559 2626
8 2491 2411 2490 2563 2562 2488 2561 2627
8 2513 2434 2512 2585 2565 2493 2564 2630
8 2586 2513 2565 2632 2515 2438 2494 2567
8 2565 2493 2566 2633 2494 2416 2495 2568
8 2567 2494 2568 2635 2496 2417 2497 2570
8 2568 2495 2569 2636 2497 2418 2498 2571
8 2570 2497 2571 2638 2499 2420 2500 2573
8 2571 2498 2572 2639 2500 2421 2501 2574
8 2573 2500 2574 2641 2502 2423 2503 2576
8 2574 2501 2575 2642 2503 2424 2504 2577
8 2576 2503 2577 2643 2505 2426 2506 2578
8 2597 2528 2579 2645 2529 2454 2508 2580
8 2580 2508 2579 2645 2525 2448 2522 2593
8 2581 2509 2455 2530 2646 2580 2529 2598
8 2581 2509 2580 2646 2526 2449 2525 2595
8 2583 2511 2582 2648 2513 2434 2512 2585
8 2583 2511 2439 2516 2648 2582 2517 2589
8 2649 2583 2513 2586 2588 2516 2438 2515
8 2589 2517 2444 2520 2653 2587 2521 2592
8 2518 2442 2520 2591 2588 2516 2589 2654
8 2593 2522 2590 2655 2523 2445 2521 2592
8 2524 2446 2523 2594 2591 2520 2592 2656
8 2595 2525 2593 2657 2527 2452 2523 2594
8 2602 2536 2596 2659 2534 2462 2528 2597
8 2600 2534 2597 2660 2532 2460 2529 2598
8 2600 2534 2460 2532 2661 2601 2533 2599
8 2604 2538 2601 2661 2537 2464 2533 2599
8 2602 2536 2462 2534 2663 2603 2535 2601
8 2601 2535 2465 2538 2663 2603 2539 2605
8 2607 2541 2605 2665 2540 2467 2538 2604
8 2608 2542 2606 2666 2541 2468 2539 2605
8 2543 2470 2544 2610 2607 2541 2608 2668
8 2544 2471 2545 2611 2608 2542 2609 2669
8 2546 2473 2547 2613 2610 2544 2611 2671
8 2547 2474 2548 2614 2611 2545 2612 2672
8 2549 2476 2550 2616 2613 2547 2614 2674
8 2550 2477 2551 2617 2614 2548 2615 2675
8 2552 2479 2553 2619 2616 2550 2617 2677
8 2553 2480 2554 2620 2617 2551 2618 2678
8 2557 2482 2556 2624 2619 2553 2620 2680
8 2556 2481 2555 2623 2620 2554 2621 2681
8 2559 2484 2558 2625 2623 2555 2622 2683
8 2560 2485 2559 2626 2624 2556 2623 2684
8 2562 2488 2561 2627 2626 2559 2625 2685
8 2690 2629 2564 2630 2650 2584 2512 2585
8 2586 2513 2585 2651 2632 2565 2630 2691
8 2630 2564 2631 2692 2565 2493 2566 2633
8 2632 2565 2633 2694 2567 2494 2568 2635
8 2633 2566 2634 2695 2568 2495 2569 2636
8 2635 2568 2636 2697 2570 2497 2571 2638
8 2636 2569 2637 2698 2571 2498 2572 2639
8 2638 2571 2639 2700 2573 2500 2574 2641
8 2639 2572 2640 2701 2574 2501 2575 2642
8 2641 2574 2642 2702 2576 2503 2577 2643
8 2597 2528 2596 2659 2645 2579 2644 2704
8 2645 2579 2644 2704 2593 2522 2590 2655
8 2660 2597 2645 2705 2598 2529 2580 2646
8 2646 2580 2645 2705 2595 2525 2593 2657
8 2650 2584 2512 2585 2707 2647 2582 2648
8 2648 2582 2517 2589 2707 2647 2587 2653
8 2649 2583 2648 2708 2586 2513 2585 2651
8 2649 2583 2516 2588 2708 2648 2589 2654
8 2655 2590 2652 2710 2592 2521 2587 2653
8 2654 2589 2520 2591 2711 2653 2592 2656
8 2657 2593 2655 2712 2594 2523 2592 2656
8 2602 2536 2603 2663 2659 2596 2658 2714
8 2662 2602 2659 2715 2600 2534 2597 2660
8 2662 2602 2534 2600 2717 2663 2601 2661
8 2661 2601 2538 2604 2717 2663 2605 2665
8 2666 2606 2664 2718 2605 2539 2603 2663
8 2668 2608 2666 2720 2607 2541 2605 2665
8 2608 2542 2609 2669 2666 2606 2667 2721
8 2610 2544 2611 2671 2668 2608 2669 2723
8 2611 2545 2612 2672 2669 2609 2670 2724
8 2613 2547 2614 2674 2671 2611 2672 2726
8 2614 2548 2615 2675 2672 2612 2673 2727
8 2616 2550 2617 2677 2674 2614 2675 2729
8 2617 2551 2618 2678 2675 2615 2676 2730
8 2619 2553 2620 2680 2677 2617 2678 2732
8 2620 2554 2621 2681 2678 2618 2679 2733
8 2624 2556 2623 2684 2680 2620 2681 2735
8 2681 2621 2555 2623 2736 2682 2622 2683
8 2626 2559 2625 2685 2684 2623 2683 2737
8 2688 2628 2584 2650 2740 2686 2647 2707
8 2688 2628 2687 2742 2650 2584 2629 2690
8 2690 2629 2689 2745 2630 2564 2631 2692
8 2746 2690 2630 2691 2709 2650 2585 2651
8 2691 2630 2692 2747 2632 2565 2633 2694
8 2692 2631 2693 2748 2633 2566 2634 2695
8 2694 2633 2695 2750 2635 2568 2636 2697
8 2695 2634 2696 2751 2636 2569 2637 2698
8 2697 2636 2698 2753 2638 2571 2639 2700
8 2698 2637 2699 2754 2639 2572 2640 2701
8 2700 2639 2701 2755 2641 2574 2642 2702
8 2659 2596 2658 2714 2704 2644 2703 2757
8 2704 2644 2703 2757 2655 2590 2652 2710
8 2660 2597 2659 2715 2705 2645 2704 2758
8 2705 2645 2704 2758 2657 2593 2655 2712
8 2759 2706 2647 2707 2710 2652 2587 2653
8 2709 2650 2585 2651 2760 2707 2648 2708
8 2708 2648 2589 2654 2760 2707 2653 2711
8 2712 2655 2710 2761 2656 2592 2653 2711
8 2763 2713 2658 2714 2718 2664 2603 2663
8 2662 2602 2663 2717 2715 2659 2714 2764
8 2720 2666 2718 2767 2665 2605 2663 2717
8 2768 2719 2664 2718 2721 2667 2606 2666
8 2668 2608 2669 2723 2720 2666 2721 2770
8 2669 2609 2670 2724 2721 2667 2722 2771
8 2671 2611 2672 2726 2723 2669 2724 2773
8 2672 2612 2673 2727 2724 2670 2725 2774
8 2674 2614 2675 2729 2726 2672 2727 2776
8 2675 2615 2676 2730 2727 2673 2728 2777
8 2677 2617 2678 2732 2729 2675 2730 2779
8 2678 2618 2679 2733 2730 2676 2731 2780
8 2680 2620 2681 2735 2732 2678 2733 2782
8 2733 2679 2621 2681 2783 2734 2682 2736
8 2735 2681 2623 2684 2784 2736 2683 2737
8 2740 2686 2647 2707 2787 2738 2706 2759
8 2688 2628 2686 2740 2742 2687 2739 2789
8 2743 2688 2650 2709 2790 2740 2707 2760
8 2742 2687 2741 2792 2690 2629 2689 2745
8 2743 2688 2742 2793 2709 2650 2690 2746
8 2745 2689 2744 2795 2692 2631 2693 2748
8 2746 2690 2745 2796 2691 2630 2692 2747
8 2747 2692 2748 2797 2694 2633 2695 2750
8 2748 2693 2749 2798 2695 2634 2696 2751
8 2750 2695 2751 2800 2697 2636 2698 2753
8 2751 2696 2752 2801 2698 2637 2699 2754
8 2753 2698 2754 2802 2700 2639 2701 2755
8 2763 2713 2756 2804 2714 2658 2703 2757
8 2759 2706 2652 2710 2804 2756 2703 2757
8 2715 2659 2714 2764 2758 2704 2757 2805
8 2758 2704 2757 2805 2712 2655 2710 2761
8 2806 2759 2707 2760 2761 2710 2653 2711
8 2765 2716 2762 2808 2718 2664 2713 2763
8 2809 2763 2714 2764 2767 2718 2663 2717
8 2765 2716 2664 2718 2811 2766 2719 2768
8 2813 2768 2718 2767 2770 2721 2666 2720
8 2814 2769 2719 2768 2771 2722 2667 2721
8 2723 2669 2724 2773 2770 2721 2771 2816
8 2724 2670 2725 2774 2771 2722 2772 2817
8 2726 2672 2727 2776 2773 2724 2774 2819
8 2727 2673 2728 2777 2774 2725 2775 2820
8 2729 2675 2730 2779 2776 2727 2777 2822
8 2730 2676 2731 2780 2777 2728 2778 2823
8 2732 2678 2733 2782 2779 2730 2780 2825
8 2780 2731 2679 2733 2826 2781 2734 2783
8 2782 2733 2681 2735 2827 2783 2736 2784
8 2830 2785 2738 2787 2804 2756 2706 2759
8 2789 2739 2686 2740 2832 2786 2738 2787
8 2790 2740 2707 2760 2833 2787 2759 2806
8 2742 2687 2739 2789 2792 2741 2788 2835
8 2743 2688 2740 2790 2793 2742 2789 2836
8 2792 2741 2791 2838 2745 2689 2744 2795
8 2793 2742 2792 2839 2746 2690 2745 2796
8 2795 2744 2794 2841 2748 2693 2749 2798
8 2796 2745 2795 2842 2747 2692 2748 2797
8 2797 2748 2798 2843 2750 2695 2751 2800
8 2798 2749 2799 2844 2751 2696 2752 2801
8 2800 2751 2801 2845 2753 2698 2754 2802
8 2808 2762 2803 2847 2763 2713 2756 2804
8 2809 2763 2804 2848 2764 2714 2757 2805
8 2806 2759 2710 2761 2848 2804 2757 2805
8 2765 2716 2766 2811 2808 2762 2807 2850
8 2810 2765 2808 2851 2767 2718 2763 2809
8 2810 2765 2718 2767 2852 2811 2768 2813
8 2811 2766 2719 2768 2853 2812 2769 2814
8 2855 2814 2768 2813 2816 2771 2721 2770
8 2856 2815 2769 2814 2817 2772 2722 2771
8 2773 2724 2774 2819 2816 2771 2817 2858
8 2774 2725 2775 2820 2817 2772 2818 2859
8 2776 2727 2777 2822 2819 2774 2820 2861
8 2777 2728 2778 2823 2820 2775 2821 2862
8 2779 2730 2780 2825 2822 2777 2823 2864
8 2823 2778 2731 2780 2865 2824 2781 2826
8 2825 2780 2733 2782 2866 2826 2783 2827
8 2869 2828 2785 2830 2847 2803 2756 2804
8 2871 2829 2786 2832 2830 2785 2738 2787
8 2872 2830 2787 2833 2848 2804 2759 2806
8 2789 2739 2786 2832 2835 2788 2831 2874
8 2836 2789 2740 2790 2875 2832 2787 2833
8 2792 2741 2788 2835 2838 2791 2834 2877
8 2793 2742 2789 2836 2839 2792 2835 2878
8 2838 2791 2837 2880 2795 2744 2794 2841
8 2839 2792 2838 2881 2796 2745 2795 2842
8 2841 2794 2840 2882 2798 2749 2799 2844
8 2842 2795 2841 2883 2797 2748 2798 2843
8 2843 2798 2844 2884 2800 2751 2801 2845
8 2886 2846 2803 2847 2850 2807 2762 2808
8 2851 2808 2847 2887 2809 2763 2804 2848
8 2850 2807 2766 2811 2889 2849 2812 2853
8 2810 2765 2811 2852 2851 2808 2850 2890
8 2852 2811 2768 2813 2891 2853 2814 2855
8 2853 2812 2769 2814 2892 2854 2815 2856
8 2894 2856 2814 2855 2858 2817 2771 2816
8 2817 2772 2818 2859 2856 2815 2857 2895
8 2819 2774 2820 2861 2858 2817 2859 2897
8 2820 2775 2821 2862 2859 2818 2860 2898
8 2822 2777 2823 2864 2861 2820 2862 2900
8 2823 2778 2824 2865 2862 2821 2863 2901
8 2864 2823 2780 2825 2902 2865 2826 2866
8 2904 2867 2828 2869 2886 2846 2803 2847
8 2869 2828 2868 2906 2830 2785 2829 2871
8 2907 2869 2830 2872 2887 2847 2804 2848
8 2871 2829 2870 2909 2832 2786 2831 2874
8 2910 2871 2832 2875 2872 2830 2787 2833
8 2835 2788 2831 2874 2877 2834 2873 2912
8 2836 2789 2832 2875 2878 2835 2874 2913
8 2877 2834 2876 2915 2838 2791 2837 2880
8 2839 2792 2835 2878 2881 2838 2877 2916
8 2880 2837 2879 2917 2841 2794 2840 2882
8 2881 2838 2880 2918 2842 2795 2841 2883
8 2883 2841 2882 2919 2843 2798 2844 2884
8 2921 2885 2846 2886 2889 2849 2807 2850
8 2922 2886 2847 2887 2890 2850 2808 2851
8 2889 2849 2812 2853 2924 2888 2854 2892
8 2890 2850 2811 2852 2925 2889 2853 2891
8 2891 2853 2814 2855 2926 2892 2856 2894
8 2892 2854 2815 2856 2927 2893 2857 2895
8 2858 2817 2859 2897 2894 2856 2895 2929
8 2859 2818 2860 2898 2895 2857 2896 2930
8 2861 2820 2862 2900 2897 2859 2898 2932
8 2862 2821 2863 2901 2898 2860 2899 2933
8 2864 2823 2865 2902 2900 2862 2901 2934
8 2904 2867 2846 2886 2936 2903 2885 2921
8 2904 2867 2903 2936 2869 2828 2868 2906
8 2937 2904 2869 2907 2922 2886 2847 2887
8 2906 2868 2905 2939 2871 2829 2870 2909
8 2907 2869 2906 2940 2872 2830 2871 2910
8 2909 2870 2908 2942 2874 2831 2873 2912
8 2910 2871 2909 2943 2875 2832 2874 2913
8 2912 2873 2911 2945 2877 2834 2876 2915
8 2878 2835 2874 2913 2916 2877 2912 2946
8 2915 2876 2914 2947 2880 2837 2879 2917
8 2916 2877 2915 2948 2881 2838 2880 2918
8 2918 2880 2917 2949 2883 2841 2882 2919
8 2921 2885 2849 2889 2951 2920 2888 2924
8 2952 2921 2886 2922 2925 2889 2850 2890
8 2924 2888 2854 2892 2954 2923 2893 2927
8 2925 2889 2853 2891 2955 2924 2892 2926
8 2926 2892 2856 2894 2956 2927 2895 2929
8 2895 2857 2896 2930 2927 2893 2928 2957
8 2897 2859 2898 2932 2929 2895 2930 2959
8 2898 2860 2899 2933 2930 2896 2931 2960
8 2900 2862 2901 2934 2932 2898 2933 2961
8 2936 2903 2885 2921 2963 2935 2920 2951
8 2936 2903 2935 2963 2906 2868 2905 2939
8 2937 2904 2886 2922 2964 2936 2921 2952
8 2937 2904 2936 2964 2907 2869 2906 2940
8 2939 2905 2938 2966 2909 2870 2908 2942
8 2940 2906 2939 2967 2910 2871 2909 2943
8 2942 2908 2941 2969 2912 2873 2911 2945
8 2943 2909 2942 2970 2913 2874 2912 2946
8 2945 2911 2944 2971 2915 2876 2914 2947
8 2946 2912 2945 2972 2916 2877 2915 2948
8 2948 2915 2947 2973 2918 2880 2917 2949
8 2951 2920 2888 2924 2975 2950 2923 2954
8 2952 2921 2889 2925 2976 2951 2924 2955
8 2927 2893 2928 2957 2954 2923 2953 2978
8 2955 2924 2892 2926 2979 2954 2927 2956
8 2929 2895 2930 2959 2956 2927 2957 2980
8 2930 2896 2931 2960 2957 2928 2958 2981
8 2932 2898 2933 2961 2959 2930 2960 2982
8 2951 2920 2950 2975 2963 2935 2962 2984
8 2963 2935 2962 2984 2939 2905 2938 2966
8 2964 2936 2921 2952 2985 2963 2951 2976
8 2964 2936 2963 2985 2940 2906 2939 2967
8 2966 2938 2965 2987 2942 2908 2941 2969
8 2967 2939 2966 2988 2943 2909 2942 2970
8 2969 2941 2968 2989 2945 2911 2944 2971
8 2970 2942 2969 2990 2946 2912 2945 2972
8 2972 2945 2971 2991 2948 2915 2947 2973
8 2954 2923 2953 2978 2975 2950 2974 2993
8 2976 2951 2924 2955 2994 2975 2954 2979
8 2957 2928 2958 2981 2978 2953 2977 2995
8 2956 2927 2957 2980 2979 2954 2978 2996
8 2959 2930 2960 2982 2980 2957 2981 2997
8 2984 2962 2983 2999 2966 2938 2965 2987
8 2975 2950 2974 2993 2984 2962 2983 2999
8 2976 2951 2975 2994 2985 2963 2984 3000
8 2985 2963 2984 3000 2967 2939 2966 2988
8 2987 2965 2986 3001 2969 2941 2968 2989
8 2988 2966 2987 3002 2970 2942 2969 2990
8 2990 2969 2989 3003 2972 2945 2971 2991
8 2978 2953 2977 2995 2993 2974 2992 3004
8 2979 2954 2978 2996 2994 2975 2993 3005
8 2980 2957 2981 2997 2996 2978 2995 3006
8 2974 2993 2999 2983 2992 3004 3007 2998
8 2983 2999 2987 2965 2998 3007 3001 2986
8 3000 2984 2999 3008 2988 2966 2987 3002
8 2994 2975 2993 3005 3000 2984 2999 3008
8 3002 2987 3001 3009 2990 2969 2989 3003
8 2996 2978 2995 3006 3005 2993 3004 3010
8 3005 2993 3004 3010 3008 2999 3007 3011
8 3008 2999 3007 3011 3002 2987 3001 3009

CELL_TYPES 1910
12
12
12
12
12
12
12
12
12
12
12
12
12
12
12
12
12
12
12
12
12
12
12
12
12
12
12
12
12
12
12
12
12
12
12
12
12
12
12
12
12
12
12
12
12
12
12
12
12
12
12
12
12
12
12
12
12
12
12
12
12
12
12
12
12
12
12
12
12
12
12
12
12
12
12
12
12
12
12
12
12
12
12
12
12
12
12
12
12
12
12
12
12
12
12
12
12
12
12
12
12
12
12
12
12
12
12
12
12
12
12
12
12
12
12
12
12
12
12
12
12
12
12
12
12
12
12
12
12
12
12
12
12
12
12
12
12
12
12
12
12
12
12
12
12
12
12
12
12
12
12
12
12
12
12
12
12
12
12
12
12
12
12
12
12
12
12
12
12
12
12
12
12
12
12
12
12
12
12
12
12
12
12
12
12
12
12
12
12
12
12
12
12
12
12
12
12
12
12
12
12
12
12
12
12
12
12
12
12
12
12
12
12
12
12
12
12
12
12
12
12
12
12
12
12
12
12
12
12
12
12
12
12
12
12
12
12
12
12
12
12
12
12
12
12
12
12
12
12
12
12
12
12
12
12
12
12
12
12
12
12
12
12
12
12
12
12
12
12
12
12
12
12
12
12
12
12
12
12
12
12
12
12
12
12
12
12
12
12
12
12
12
12
12
12
12
12
12
12
12
12
12
12
12
12
12
12
12
12
12
12
12
12
12
12
12
12
12
12
12
12
12
12
12
12
12
12
12
12
12
12
12
12
12
12
12
12
12
12
12
12
12
12
12
12
12
12
12
12
12
12
12
12
12
12
12
12
12
12
12
12
12
12
12
12
12
12
12
12
12
12
12
12
12
12
12
12
12
12
12
12
12
12
12
12
12
12
12
12
12
12
12
12
12
12
12
12
12
12
12
12
12
12
12
12
12
12
12
12
12
12
12
12
12
12
12
12
12
12
12
12
12
12
12
12
12
12
12
12
12
12
12
12
12
12
12
12
12
12
12
12
12
12
12
12
12
12
12
12
12
12
12
12
12
12
12
12
12
12
12
12
12
12
12
12
12
12
12
12
12
12
12
12
12
12
12
12
12
12
12
12
12
12
12
12
12
12
12
12
12
12
12
12
12
12
12
12
12
12
12
12
12
12
12
12
12
12
12
12
12
12
12
12
12
12
12
12
12
12
12
12
12
12
12
12
12
12
12
12
12
12
12
12
12
12
12
12
12
12
12
12
12
12
12
12
12
12
12
12
12
12
12
12
12
12
12
12
12
12
12
12
12
12
12
12
12
12
12
12
12
12
12
12
12
12
12
12
12
12
12
12
12
12
12
12
12
12
12
12
12
12
12
12
12
12
12
12
12
12
12
12
12
12
12
12
12
12
12
12
12
12
12
12
12
12
12
12
12
12
12
12
12
12
12
12
12
12
12
12
12
12
12
12
12
12
12
12
12
12
12
12
12
12
12
12
12
12
12
12
12
12
12
12
12
12
12
12
12
12
12
12
12
12
12
12
12
12
12
12
12
12
12
12
12
12
12
12
12
12
12
12
12
12
12
12
12
12
12
12
12
12
12
12
12
12
12
12
12
12
12
12
12
12
12
12
12
12
12
12
12
12
12
12
12
12
12
12
12
12
12
12
12
12
12
12
12
12
12
12
12
12
12
12
12
12
12
12
12
12
12
12
12
12
12
12
12
12
12
12
12
12
12
12
12
12
12
12
12
12
12
12
12
12
12
12
12
12
12
12
12
12
12
12
12
12
12
12
12
12
12
12
12
12
12
12
12
12
12
12
12
12
12
12
12
12
12
12
12
12
12
12
12
12
12
12
12
12
12
12
12
12
12
12
12
12
12
12
12
12
12
12
12
12
12
12
12
12
12
12
12
12
12
12
12
12
12
12
12
12
12
12
12
12
12
12
12
12
12
12
12
12
12
12
12
12
12
12
12
12
12
12
12
12
12
12
12
12
12
12
12
12
12
12
12
12
12
12
12
12
12
12
12
12
12
12
12
12
12
12
12
12
12
12
12
12
12
12
12
12
12
12
12
12
12
12
12
12
12
12
12
12
12
12
12
12
12
12
12
12
12
12
12
12
12
12
12
12
12
12
12
12
12
12
12
12
12
12
12
12
12
12
12
12
12
12
12
12
12
12
12
12
12
12
12
12
12
12
12
12
12
12
12
12
12
12
12
12
12
12
12
12
12
12
12
12
12
12
12
12
12
12
12
12
12
12
12
12
12
12
12
12
12
12
12
12
12
12
12
12
12
12
12
12
12
12
12
12
12
12
12
12
12
12
12
12
12
12
12
12
12
12
12
12
12
12
12
12
12
12
12
12
12
12
12
12
12
12
12
12
12
12
12
12
12
12
12
12
12
12
12
12
12
12
12
12
12
12
12
12
12
12
12
12
12
12
12
12
12
12
12
12
12
12
12
12
12
12
12
12
12
12
12
12
12
12
12
12
12
12
12
12
12
12
12
12
12
12
12
12
12
12
12
12
12
12
12
12
12
12
12
12
12
12
12
12
12
12
12
12
12
12
12
12
12
12
12
12
12
12
12
12
12
12
12
12
12
12
12
12
12
12
12
12
12
12
12
12
12
12
12
12
12
12
12
12
12
12
12
12
12
12
12
12
12
12
12
12
12
12
12
12
12
12
12
12
12
12
12
12
12
12
12
12
12
12
12
12
12
12
12
12
12
12
12
12
12
12
12
12
12
12
12
12
12
12
12
12
12
12
12
12
12
12
12
12
12
12
12
12
12
12
12
12
12
12
12
12
12
12
12
12
12
12
12
12
12
12
12
12
12
12
12
12
12
12
12
12
12
12
12
12
12
12
12
12
12
12
12
12
12
12
12
12
12
12
12
12
12
12
12
12
12
12
12
12
12
12
12
12
12
12
12
12
12
12
12
12
12
12
12
12
12
12
12
12
12
12
12
12
12
12
12
12
12
12
12
12
12
12
12
12
12
12
12
12
12
12
12
12
12
12
12
12
12
12
12
12
12
12
12
12
12
12
12
12
12
12
12
12
12
12
12
12
12
12
12
12
12
12
12
12
12
12
12
12
12
12
12
12
12
12
12
12
12
12
12
12
12
12
12
12
12
12
12
12
12
12
12
12
12
12
12
12
12
12
12
12
12
12
12
12
12
12
12
12
12
12
12
12
12
12
12
12
12
12
12
12
12
12
12
12
12
12
12
12
12
12
12
12
12
12
12
12
12
12
12
12
12
12
12
12
12
12
12
12
12
12
12
12
12
12
12
12
12
12
12
12
12
12
12
12
12
12
12
12
12
12
12
12
12
12
12
12
12
12
12
12
12
12
12
12
12
12
12
12
12
12
12
12
12
12
12
12
12
12
12
12
12
12
12
12
12
12
12
12
12
12
12
12
12
12
12
12
12
12
12
12
12
12
12
12
12
12
12
12
12
12
12
12
12
12
12
12
12
12
12
12
12
12
12
12
12
12
12
12
12
12
12
12
12
12
12
12
12
12
12
12
12
12
12
12
12
12
12
12
12
12
12
12
12
12
12
12
12
12
12
12
12
12
12
12
12
12
12
12
12
12
12
12
12
12
12
12
12
12
12
12
12
12
12
12
12
12
12
12
12
12
12
12
12
12
12
12
12
12
12
12
12
12
12
12
12
12
12
12
12
12
12
12
12
12
12
12
12
12
12
12
12
12
12
12
12
12
12
12
12
12
12
12
12
12
12
12
12
12
12
12
12
12
12
12
12
12
12
12
12
12
12
12
12
12
12
12
12
12
12
12
12
12
12
12
12
12
12
12
12
12
12
12
12
12
12
12
12
12
12
12
12
12
12
12
12
12
12
12
12
12
12
12
12
12
12
12
12
12
12
12
12
12
12
12
12
12
12
12
12
12
12
12
12
12
12
12
12
12
12
12
12
12
12
12
12
12
12
12
12
12
12
12
12
12
12
12
12
12
12
12
12
12
12
12
12
12
12
12
12
12
12
12
12
12
12
12
12
12
12
12
12
12
12
12
12
12
12
12
12
12
12
12
12
12
12
12
12
12
12
12
12
12
12
12
12
12
12
12
12
12
12
12
12
12
12
12
12
12
12
12
12
12
12
12
12
12
12
12
12
12
12
12
12
12
12
12
12
12
12
12
12
12
12
12
12
12
12
12
12
12
12
12
12
12
12
12
12
12
12
12
12
12
12
12
12
12
12
12
12
12
12
12
12
12
12
12
12
12
12
12
12
12
12
12
12
12
12
12
12
12
12
12
12
12
12
12
12
12
12
12
12
12
12
12
12
12
12
12
12
12
12
12
12
12
12
12
12
12
12
12
12
12
12

POINT_DATA 3012
SCALARS Jp_lamdaP float 4
LOOKUP_TABLE default
1 1 1 1
1 1 1 1
1 1 1 1
1 1 1 1
1 1 1 1
1 1 1 1
0.999995 1 1 0.999995
1 1 1 1
1 1 1 1
1 1 1 1
1 1 1 1
1 1 1 1
1 1 1 1
1 1 1 1
1 1 1 1
1 1 1 1
1 1 1 1
1 1 1 1
0.999995 1 1 0.999995
1 1 1 1
1 1 1 1
1 1 1 1
0.999986 1 1 0.999986
0.999993 1 1 0.999993
1 1 1 1
0.999997 1 1 0.999997
0.999974 1 1 0.999974
1 1 1 1
1 1 1 1
1 1 1 1
1 1 1 1
1 1 1 1
1 1 1 1
1 1 1 1
1 1 1 1
1 1 1 1
1 1 1 1
1 1 1 1
0.999985 1 1 0.999985
1 1 1 1
1 1 1 1
1 1 1 1
1 1 1 1
1 1 1 1
0.999992 1 1 0.999992
1 1 1 1
0.999996 1 1 0.999996
1 1 1 1
1 1 1 1
1 1 1 1
0.999996 1 1 0.999996
1 1 1 1
1 1 1 1
1 1 1 1
1 1 1 1
0.999987 1 1 0.999987
0.999997 1 1 0.999997
0.999994 1 1 0.999994
0.999973 1 1 0.999973
1 1 1 1
1 1 1 1
0.999992 1 1 0.999992
0.999983 1 1 0.999983
0.99999 1 1 0.99999
0.99995 1 1 0.99995
0.999962 1 1 0.999962
1 1 1 1
0.999999 1 1 0.999999
0.999981 1 1 0.999981
0.999925 1 1 0.999925
1 1 1 1
1 1 1 1
1 1 1 1
1 1 1 1
1 1 1 1
1 1 1 1
1 1 1 1
1 1 1 1
1 1 1 1
1 1 1 1
0.999985 1 1 0.999985
1 1 1 1
1 1 1 1
0.999999 1 1 0.999999
1 1 1 1
0.999957 1 1 0.999957
1 1 1 1
0.999978 1 1 0.999978
0.999989 1 1 0.999989
0.999944 1 1 0.999944
1 1 1 1
1 1 1 1
1 1 1 1
1 1 1 1
1 1 1 1
1 1 1 1
0.999992 1 1 0.999992
1 1 1 1
0.999997 1 1 0.999997
1 1 1 1
0.99999 1 1 0.99999
0.999994 1 1 0.999994
0.999931 1 1 0.999931
0.999998 1 1 0.999998
0.999938 1 1 0.999938
1 1 1 1
1 1 1 1
1 1 1 1
1 1 1 1
0.999987 1 1 0.999987
0.999994 1 1 0.999994
0.999998 1 1 0.999998
0.999972 1 1 0.999972
1 1 1 1
1 1 1 1
0.999986 1 1 0.999986
0.999983 1 1 0.999983
1 1 1 1
0.999999 1 1 0.999999
0.999991 1 1 0.999991
0.999946 1 1 0.999946
0.99998 1 1 0.99998
0.999965 1 1 0.999965
0.999925 1 1 0.999925
0.999991 1 1 0.999991
0.999981 1 1 0.999981
0.999932 1 1 0.999932
0.999937 1 1 0.999937
0.999954 1 1 0.999954
0.999903 1 1 0.999903
1 1 1 1
0.99992 1 1 0.99992
1 1 1 1
0.999986 1 1 0.999986
0.999931 1 1 0.999931
0.999904 1 1 0.999904
1 1 1 1
0.999992 1 1 0.999992
1 1 1 1
1 1 1 1
1 1 1 1
1 1 1 1
1 1 1 1
1 1 1 1
0.999985 1 1 0.999985
1 1 1 1
1 1 1 1
0.999999 1 1 0.999999
1 1 1 1
0.999958 1 1 0.999958
1 1 1 1
0.999979 1 1 0.999979
0.99999 1 1 0.99999
0.999942 1 1 0.999942
1 1 1 1
1 1 1 1
0.999994 1 1 0.999994
0.999949 1 1 0.999949
0.999969 1 1 0.999969
0.999913 1 1 0.999913
0.999993 1 1 0.999993
0.999934 1 1 0.999934
0.999948 1 1 0.999948
0.999923 1 1 0.999923
1 1 1 1
1 1 1 1
1 1 1 1
1 1 1 1
1 1 1 1
1 1 1 1
1 1 1 1
0.999997 1 1 0.999997
0.999993 1 1 0.999993
1 1 1 1
1 1 1 1
0.99999 1 1 0.99999
0.999995 1 1 0.999995
0.99993 1 1 0.99993
0.999998 1 1 0.999998
0.999938 1 1 0.999938
0.99999 1 1 0.99999
0.99993 1 1 0.99993
0.999933 1 1 0.999933
0.999897 1 1 0.999897
0.999943 1 1 0.999943
0.999901 1 1 0.999901
1 1 1 1
1 1 1 1
0.99998 1 1 0.99998
0.999983 1 1 0.999983
1 1 1 1
1 1 1 1
0.999991 1 1 0.999991
0.999943 1 1 0.999943
0.999967 1 1 0.999967
0.999979 1 1 0.999979
0.999926 1 1 0.999926
0.999991 1 1 0.999991
0.999981 1 1 0.999981
0.999926 1 1 0.999926
0.999939 1 1 0.999939
1 1 1 1
1 1 1 1
0.999986 1 1 0.999986
0.999954 1 1 0.999954
0.999899 1 1 0.999899
0.99993 1 1 0.99993
0.999922 1 1 0.999922
0.999905 1 1 0.999905
1 1 1 1
0.999992 1 1 0.999992
0.999928 1 1 0.999928
0.999933 1 1 0.999933
0.999893 1 1 0.999893
0.999888 1 1 0.999888
0.999915 1 1 0.999915
0.999883 1 1 0.999883
1 1 1 1
0.999901 1 1 0.999901
0.99999 1 1 0.99999
0.999937 1 1 0.999937
0.99991 1 1 0.99991
0.999898 1 1 0.999898
0.999992 1 1 0.999992
0.999993 1 1 0.999993
0.999951 1 1 0.999951
1 1 1 1
1 1 1 1
1 1 1 1
1 1 1 1
0.999958 1 1 0.999958
1 1 1 1
0.99999 1 1 0.99999
0.999979 1 1 0.999979
0.99994 1 1 0.99994
1 1 1 1
1 1 1 1
0.999994 1 1 0.999994
0.999948 1 1 0.999948
0.999969 1 1 0.999969
0.999913 1 1 0.999913
0.999993 1 1 0.999993
0.999936 1 1 0.999936
0.999948 1 1 0.999948
0.999921 1 1 0.999921
1 1 1 1
0.999994 1 1 0.999994
0.999994 1 1 0.999994
0.999956 1 1 0.999956
0.999907 1 1 0.999907
0.999925 1 1 0.999925
0.999892 1 1 0.999892
0.999953 1 1 0.999953
0.999914 1 1 0.999914
0.999919 1 1 0.999919
0.999907 1 1 0.999907
0.999996 1 1 0.999996
1 1 1 1
1 1 1 1
1 1 1 1
1 1 1 1
1 1 1 1
1 1 1 1
1 1 1 1
1 1 1 1
0.999999 1 1 0.999999
0.999995 1 1 0.999995
0.999938 1 1 0.999938
0.99993 1 1 0.99993
0.999991 1 1 0.999991
1 1 1 1
0.99999 1 1 0.99999
0.99993 1 1 0.99993
0.999933 1 1 0.999933
0.999897 1 1 0.999897
0.999943 1 1 0.999943
0.999901 1 1 0.999901
0.999929 1 1 0.999929
0.9999 1 1 0.9999
0.999897 1 1 0.999897
0.999885 1 1 0.999885
0.999904 1 1 0.999904
0.999888 1 1 0.999888
0.99999 1 1 0.99999
0.999981 1 1 0.999981
0.99992 1 1 0.99992
0.999941 1 1 0.999941
1 1 1 1
1 1 1 1
0.999986 1 1 0.999986
0.999955 1 1 0.999955
0.999895 1 1 0.999895
0.999924 1 1 0.999924
0.999929 1 1 0.999929
0.999905 1 1 0.999905
1 1 1 1
0.999992 1 1 0.999992
0.999926 1 1 0.999926
0.999932 1 1 0.999932
0.999893 1 1 0.999893
0.999892 1 1 0.999892
1 1 1 1
0.99999 1 1 0.99999
0.99994 1 1 0.99994
0.999915 1 1 0.999915
0.999882 1 1 0.999882
0.999907 1 1 0.999907
0.999901 1 1 0.999901
0.999898 1 1 0.999898
0.999992 1 1 0.999992
0.999949 1 1 0.999949
0.999993 1 1 0.999993
0.999899 1 1 0.999899
0.999889 1 1 0.999889
0.999876 1 1 0.999876
0.999872 1 1 0.999872
0.999895 1 1 0.999895
0.999881 1 1 0.999881
0.999992 1 1 0.999992
0.999897 1 1 0.999897
0.999949 1 1 0.999949
0.999911 1 1 0.999911
0.999895 1 1 0.999895
0.999903 1 1 0.999903
0.999994 1 1 0.999994
0.999952 1 1 0.999952
0.999945 1 1 0.999945
0.999926 1 1 0.999926
0.999948 1 1 0.999948
1 1 1 1
1 1 1 1
0.999994 1 1 0.999994
0.99997 1 1 0.99997
0.999913 1 1 0.999913
0.999994 1 1 0.999994
0.999948 1 1 0.999948
0.999937 1 1 0.999937
0.999919 1 1 0.999919
1 1 1 1
0.999994 1 1 0.999994
0.999995 1 1 0.999995
0.999956 1 1 0.999956
0.999907 1 1 0.999907
0.999925 1 1 0.999925
0.999892 1 1 0.999892
0.999953 1 1 0.999953
0.999916 1 1 0.999916
0.999918 1 1 0.999918
0.99991 1 1 0.99991
1 1 1 1
0.999995 1 1 0.999995
0.999956 1 1 0.999956
0.999956 1 1 0.999956
0.999924 1 1 0.999924
0.999891 1 1 0.999891
0.999903 1 1 0.999903
0.999886 1 1 0.999886
0.999921 1 1 0.999921
0.999903 1 1 0.999903
0.999892 1 1 0.999892
0.999995 1 1 0.999995
0.999961 1 1 0.999961
0.999997 1 1 0.999997
0.999996 1 1 0.999996
1 1 1 1
1 1 1 1
1 1 1 1
1 1 1 1
1 1 1 1
1 1 1 1
1 1 1 1
1 1 1 1
1 1 1 1
1 1 1 1
1 1 1 1
0.999943 1 1 0.999943
0.999933 1 1 0.999933
0.999901 1 1 0.999901
0.999897 1 1 0.999897
0.99993 1 1 0.99993
0.99999 1 1 0.99999
0.999929 1 1 0.999929
0.9999 1 1 0.9999
0.999897 1 1 0.999897
0.999885 1 1 0.999885
0.999904 1 1 0.999904
0.999888 1 1 0.999888
0.999899 1 1 0.999899
0.999891 1 1 0.999891
0.999884 1 1 0.999884
0.99988 1 1 0.99988
0.999892 1 1 0.999892
0.99989 1 1 0.99989
0.999923 1 1 0.999923
0.999932 1 1 0.999932
0.999892 1 1 0.999892
0.999896 1 1 0.999896
1 1 1 1
0.999989 1 1 0.999989
0.999943 1 1 0.999943
0.999916 1 1 0.999916
0.999881 1 1 0.999881
0.999901 1 1 0.999901
0.999904 1 1 0.999904
0.999898 1 1 0.999898
0.999992 1 1 0.999992
0.999947 1 1 0.999947
0.999993 1 1 0.999993
0.999897 1 1 0.999897
0.999889 1 1 0.999889
0.999874 1 1 0.999874
0.999873 1 1 0.999873
0.999992 1 1 0.999992
0.999949 1 1 0.999949
0.999914 1 1 0.999914
0.999897 1 1 0.999897
0.999882 1 1 0.999882
0.999893 1 1 0.999893
0.999897 1 1 0.999897
0.999905 1 1 0.999905
0.999952 1 1 0.999952
0.999923 1 1 0.999923
0.999994 1 1 0.999994
0.999945 1 1 0.999945
0.999881 1 1 0.999881
0.999869 1 1 0.999869
0.999864 1 1 0.999864
0.99987 1 1 0.99987
0.999894 1 1 0.999894
0.999886 1 1 0.999886
0.999952 1 1 0.999952
0.999906 1 1 0.999906
0.99992 1 1 0.99992
0.999895 1 1 0.999895
0.999888 1 1 0.999888
0.999908 1 1 0.999908
0.999995 1 1 0.999995
0.999946 1 1 0.999946
0.999925 1 1 0.999925
0.999918 1 1 0.999918
0.99991 1 1 0.99991
1 1 1 1
0.999906 1 1 0.999906
0.999995 1 1 0.999995
0.999994 1 1 0.999994
0.999956 1 1 0.999956
0.999925 1 1 0.999925
0.999892 1 1 0.999892
0.999953 1 1 0.999953
0.999917 1 1 0.999917
0.999918 1 1 0.999918
0.999913 1 1 0.999913
1 1 1 1
0.999995 1 1 0.999995
0.999956 1 1 0.999956
0.999956 1 1 0.999956
0.999923 1 1 0.999923
0.99989 1 1 0.99989
0.999903 1 1 0.999903
0.999885 1 1 0.999885
0.999921 1 1 0.999921
0.999904 1 1 0.999904
0.999894 1 1 0.999894
0.999995 1 1 0.999995
0.999957 1 1 0.999957
0.999922 1 1 0.999922
0.999923 1 1 0.999923
0.999908 1 1 0.999908
0.99989 1 1 0.99989
0.999893 1 1 0.999893
0.999897 1 1 0.999897
0.999895 1 1 0.999895
0.99988 1 1 0.99988
0.999996 1 1 0.999996
0.999954 1 1 0.999954
0.999958 1 1 0.999958
0.99993 1 1 0.99993
0.999962 1 1 0.999962
0.999997 1 1 0.999997
0.999997 1 1 0.999997
1 1 1 1
0.999996 1 1 0.999996
1 1 1 1
1 1 1 1
1 1 1 1
1 1 1 1
1 1 1 1
1 1 1 1
1 1 1 1
1 1 1 1
1 1 1 1
1 1 1 1
1 1 1 1
0.999904 1 1 0.999904
0.999897 1 1 0.999897
0.999889 1 1 0.999889
0.999886 1 1 0.999886
0.9999 1 1 0.9999
0.99993 1 1 0.99993
0.999899 1 1 0.999899
0.999892 1 1 0.999892
0.999884 1 1 0.999884
0.999879 1 1 0.999879
0.999892 1 1 0.999892
0.99989 1 1 0.99989
0.999891 1 1 0.999891
0.99989 1 1 0.99989
0.999879 1 1 0.999879
0.999874 1 1 0.999874
0.999895 1 1 0.999895
0.999893 1 1 0.999893
0.999895 1 1 0.999895
0.999889 1 1 0.999889
0.999872 1 1 0.999872
0.999874 1 1 0.999874
0.999992 1 1 0.999992
0.999949 1 1 0.999949
0.999916 1 1 0.999916
0.999898 1 1 0.999898
0.999883 1 1 0.999883
0.999897 1 1 0.999897
0.999891 1 1 0.999891
0.999906 1 1 0.999906
0.999952 1 1 0.999952
0.99992 1 1 0.99992
0.999994 1 1 0.999994
0.999945 1 1 0.999945
0.999881 1 1 0.999881
0.999869 1 1 0.999869
0.999862 1 1 0.999862
0.999871 1 1 0.999871
0.999952 1 1 0.999952
0.999922 1 1 0.999922
0.999895 1 1 0.999895
0.999893 1 1 0.999893
0.999888 1 1 0.999888
0.999887 1 1 0.999887
0.999906 1 1 0.999906
0.999912 1 1 0.999912
0.999925 1 1 0.999925
0.999908 1 1 0.999908
0.999918 1 1 0.999918
0.999991 1 1 0.999991
0.999946 1 1 0.999946
0.999874 1 1 0.999874
0.999857 1 1 0.999857
0.999876 1 1 0.999876
0.9999 1 1 0.9999
0.999926 1 1 0.999926
0.99992 1 1 0.99992
0.999903 1 1 0.999903
0.999877 1 1 0.999877
0.999885 1 1 0.999885
0.999989 1 1 0.999989
0.999954 1 1 0.999954
0.999915 1 1 0.999915
0.999911 1 1 0.999911
0.999896 1 1 0.999896
0.999898 1 1 0.999898
1 1 1 1
0.999995 1 1 0.999995
0.99989 1 1 0.99989
0.999956 1 1 0.999956
0.999956 1 1 0.999956
0.999922 1 1 0.999922
0.999903 1 1 0.999903
0.999884 1 1 0.999884
0.999921 1 1 0.999921
0.999895 1 1 0.999895
0.999905 1 1 0.999905
0.999995 1 1 0.999995
0.999957 1 1 0.999957
0.999924 1 1 0.999924
0.999922 1 1 0.999922
0.999906 1 1 0.999906
0.99989 1 1 0.99989
0.999892 1 1 0.999892
0.999899 1 1 0.999899
0.999894 1 1 0.999894
0.999878 1 1 0.999878
0.999957 1 1 0.999957
0.999917 1 1 0.999917
0.999901 1 1 0.999901
0.9999 1 1 0.9999
0.999895 1 1 0.999895
0.999916 1 1 0.999916
0.999882 1 1 0.999882
0.999897 1 1 0.999897
0.999879 1 1 0.999879
0.999857 1 1 0.999857
0.999996 1 1 0.999996
0.999956 1 1 0.999956
0.999919 1 1 0.999919
0.999956 1 1 0.999956
0.999962 1 1 0.999962
0.999926 1 1 0.999926
0.999903 1 1 0.999903
0.999923 1 1 0.999923
0.999963 1 1 0.999963
0.999997 1 1 0.999997
0.999997 1 1 0.999997
1 1 1 1
0.999997 1 1 0.999997
1 1 1 1
1 1 1 1
1 1 1 1
1 1 1 1
1 1 1 1
1 1 1 1
1 1 1 1
1 1 1 1
1 1 1 1
1 1 1 1
1 1 1 1
0.999892 1 1 0.999892
0.999884 1 1 0.999884
0.999889 1 1 0.999889
0.999877 1 1 0.999877
0.999893 1 1 0.999893
0.9999 1 1 0.9999
0.999891 1 1 0.999891
0.99989 1 1 0.99989
0.999879 1 1 0.999879
0.99987 1 1 0.99987
0.999895 1 1 0.999895
0.999893 1 1 0.999893
0.999896 1 1 0.999896
0.999885 1 1 0.999885
0.999873 1 1 0.999873
0.999914 1 1 0.999914
0.999882 1 1 0.999882
0.99987 1 1 0.99987
0.99986 1 1 0.99986
0.999871 1 1 0.999871
0.999952 1 1 0.999952
0.999924 1 1 0.999924
0.999894 1 1 0.999894
0.999893 1 1 0.999893
0.99989 1 1 0.99989
0.999906 1 1 0.999906
0.999886 1 1 0.999886
0.999915 1 1 0.999915
0.999925 1 1 0.999925
0.999907 1 1 0.999907
0.999918 1 1 0.999918
0.999988 1 1 0.999988
0.999946 1 1 0.999946
0.999871 1 1 0.999871
0.999859 1 1 0.999859
0.999877 1 1 0.999877
0.999926 1 1 0.999926
0.999906 1 1 0.999906
0.999877 1 1 0.999877
0.999899 1 1 0.999899
0.999889 1 1 0.999889
0.999919 1 1 0.999919
0.999989 1 1 0.999989
0.999911 1 1 0.999911
0.999898 1 1 0.999898
0.999898 1 1 0.999898
0.999917 1 1 0.999917
0.999951 1 1 0.999951
0.999868 1 1 0.999868
0.999858 1 1 0.999858
0.99989 1 1 0.99989
0.999918 1 1 0.999918
0.999911 1 1 0.999911
0.999904 1 1 0.999904
0.999883 1 1 0.999883
0.999865 1 1 0.999865
0.999992 1 1 0.999992
0.999955 1 1 0.999955
0.99992 1 1 0.99992
0.999887 1 1 0.999887
0.999897 1 1 0.999897
0.999885 1 1 0.999885
0.999995 1 1 0.999995
0.999957 1 1 0.999957
0.999889 1 1 0.999889
0.999922 1 1 0.999922
0.999925 1 1 0.999925
0.999904 1 1 0.999904
0.999891 1 1 0.999891
0.9999 1 1 0.9999
0.999893 1 1 0.999893
0.999876 1 1 0.999876
0.999957 1 1 0.999957
0.999919 1 1 0.999919
0.999904 1 1 0.999904
0.999902 1 1 0.999902
0.999896 1 1 0.999896
0.999917 1 1 0.999917
0.999883 1 1 0.999883
0.999904 1 1 0.999904
0.999877 1 1 0.999877
0.999854 1 1 0.999854
0.999916 1 1 0.999916
0.999891 1 1 0.999891
0.999885 1 1 0.999885
0.999885 1 1 0.999885
0.999921 1 1 0.999921
0.99992 1 1 0.99992
0.999861 1 1 0.999861
0.999846 1 1 0.999846
0.999959 1 1 0.999959
0.999921 1 1 0.999921
0.999899 1 1 0.999899
0.999962 1 1 0.999962
0.999921 1 1 0.999921
0.999963 1 1 0.999963
0.9999 1 1 0.9999
0.999924 1 1 0.999924
0.999884 1 1 0.999884
0.999898 1 1 0.999898
0.999923 1 1 0.999923
0.999963 1 1 0.999963
0.999997 1 1 0.999997
0.999997 1 1 0.999997
1 1 1 1
0.999997 1 1 0.999997
1 1 1 1
1 1 1 1
1 1 1 1
1 1 1 1
1 1 1 1
1 1 1 1
1 1 1 1
1 1 1 1
1 1 1 1
1 1 1 1
1 1 1 1
0.999895 1 1 0.999895
0.999878 1 1 0.999878
0.999893 1 1 0.999893
0.999866 1 1 0.999866
0.99989 1 1 0.99989
0.999891 1 1 0.999891
0.999893 1 1 0.999893
0.999884 1 1 0.999884
0.999876 1 1 0.999876
0.999911 1 1 0.999911
0.999891 1 1 0.999891
0.999882 1 1 0.999882
0.999897 1 1 0.999897
0.999868 1 1 0.999868
0.999861 1 1 0.999861
0.999878 1 1 0.999878
0.999926 1 1 0.999926
0.999909 1 1 0.999909
0.999876 1 1 0.999876
0.999897 1 1 0.999897
0.999919 1 1 0.999919
0.999893 1 1 0.999893
0.999911 1 1 0.999911
0.999899 1 1 0.999899
0.999899 1 1 0.999899
0.999989 1 1 0.999989
0.999918 1 1 0.999918
0.999948 1 1 0.999948
0.999872 1 1 0.999872
0.999857 1 1 0.999857
0.999888 1 1 0.999888
0.999911 1 1 0.999911
0.999885 1 1 0.999885
0.999867 1 1 0.999867
0.99992 1 1 0.99992
0.999903 1 1 0.999903
0.999994 1 1 0.999994
0.999955 1 1 0.999955
0.999897 1 1 0.999897
0.999885 1 1 0.999885
0.999889 1 1 0.999889
0.999918 1 1 0.999918
0.999878 1 1 0.999878
0.99986 1 1 0.99986
0.999921 1 1 0.999921
0.999928 1 1 0.999928
0.999893 1 1 0.999893
0.999869 1 1 0.999869
0.999869 1 1 0.999869
0.999999 1 1 0.999999
0.999969 1 1 0.999969
0.999956 1 1 0.999956
0.999915 1 1 0.999915
0.999888 1 1 0.999888
0.999872 1 1 0.999872
0.999888 1 1 0.999888
0.999874 1 1 0.999874
0.999957 1 1 0.999957
0.999921 1 1 0.999921
0.999919 1 1 0.999919
0.999904 1 1 0.999904
0.999907 1 1 0.999907
0.999896 1 1 0.999896
0.999883 1 1 0.999883
0.999911 1 1 0.999911
0.999875 1 1 0.999875
0.999851 1 1 0.999851
0.999916 1 1 0.999916
0.999894 1 1 0.999894
0.999887 1 1 0.999887
0.999887 1 1 0.999887
0.99992 1 1 0.99992
0.999918 1 1 0.999918
0.999863 1 1 0.999863
0.999846 1 1 0.999846
0.999895 1 1 0.999895
0.999908 1 1 0.999908
0.999876 1 1 0.999876
0.999867 1 1 0.999867
0.999939 1 1 0.999939
0.999858 1 1 0.999858
0.999833 1 1 0.999833
0.999923 1 1 0.999923
0.999899 1 1 0.999899
0.999882 1 1 0.999882
0.999963 1 1 0.999963
0.999926 1 1 0.999926
0.999897 1 1 0.999897
0.999963 1 1 0.999963
0.999923 1 1 0.999923
0.999882 1 1 0.999882
0.999901 1 1 0.999901
0.999871 1 1 0.999871
0.999878 1 1 0.999878
0.999901 1 1 0.999901
0.999925 1 1 0.999925
0.999961 1 1 0.999961
0.999997 1 1 0.999997
0.999997 1 1 0.999997
1 1 1 1
0.999997 1 1 0.999997
1 1 1 1
1 1 1 1
1 1 1 1
1 1 1 1
1 1 1 1
1 1 1 1
1 1 1 1
1 1 1 1
1 1 1 1
1 1 1 1
1 1 1 1
1 1 1 1
0.999909 1 1 0.999909
0.99988 1 1 0.99988
0.999884 1 1 0.999884
0.99989 1 1 0.99989
0.999894 1 1 0.999894
0.99988 1 1 0.99988
0.999902 1 1 0.999902
0.999892 1 1 0.999892
0.999888 1 1 0.999888
0.999933 1 1 0.999933
0.999876 1 1 0.999876
0.999856 1 1 0.999856
0.999885 1 1 0.999885
0.99991 1 1 0.99991
0.999888 1 1 0.999888
0.999869 1 1 0.999869
0.999922 1 1 0.999922
0.999903 1 1 0.999903
0.999897 1 1 0.999897
0.999886 1 1 0.999886
0.99989 1 1 0.99989
0.999997 1 1 0.999997
0.999955 1 1 0.999955
0.999916 1 1 0.999916
0.999875 1 1 0.999875
0.999998 1 1 0.999998
0.999966 1 1 0.999966
0.999862 1 1 0.999862
0.999915 1 1 0.999915
0.999894 1 1 0.999894
0.999867 1 1 0.999867
0.99987 1 1 0.99987
0.999928 1 1 0.999928
0.999962 1 1 0.999962
0.999915 1 1 0.999915
0.999888 1 1 0.999888
0.999875 1 1 0.999875
0.999869 1 1 0.999869
0.999888 1 1 0.999888
0.999855 1 1 0.999855
0.999891 1 1 0.999891
0.999957 1 1 0.999957
0.999893 1 1 0.999893
0.999882 1 1 0.999882
0.999853 1 1 0.999853
0.999968 1 1 0.999968
0.999966 1 1 0.999966
0.999935 1 1 0.999935
0.999912 1 1 0.999912
0.99989 1 1 0.99989
0.999859 1 1 0.999859
0.999854 1 1 0.999854
0.999875 1 1 0.999875
0.999916 1 1 0.999916
0.999896 1 1 0.999896
0.999919 1 1 0.999919
0.999916 1 1 0.999916
0.999888 1 1 0.999888
0.999889 1 1 0.999889
0.999866 1 1 0.999866
0.999845 1 1 0.999845
0.999895 1 1 0.999895
0.99992 1 1 0.99992
0.999876 1 1 0.999876
0.999864 1 1 0.999864
0.999937 1 1 0.999937
0.999859 1 1 0.999859
0.999834 1 1 0.999831
0.999876 1 1 0.999876
0.999942 1 1 0.999942
0.999863 1 1 0.999863
0.999843 1 1.00001 0.999838
0.999863 1 1 0.999863
1.00043 1 1.00062 0.999815
0.984182 1.00251 0.981895 0.99982
0.999899 1 1 0.999899
0.999882 1 1 0.999882
0.999871 1 1 0.999871
0.999963 1 1 0.999963
0.999923 1 1 0.999923
0.999904 1 1 0.999904
0.99988 1 1 0.99988
0.999961 1 1 0.999961
0.999923 1 1 0.999923
0.999871 1 1 0.999871
0.999901 1 1 0.999901
0.999881 1 1 0.999881
0.999864 1 1 0.999864
0.999882 1 1 0.999882
0.999901 1 1 0.999901
0.999918 1 1 0.999918
0.999955 1 1 0.999955
0.999927 1 1 0.999927
0.999955 1 1 0.999955
0.999997 1 1 0.999997
0.999997 1 1 0.999997
1 1 1 1
0.999997 1 1 0.999997
1 1 1 1
1 1 1 1
1 1 1 1
1 1 1 1
1 1 1 1
1 1 1 1
0.999999 1 1 0.999999
1 1 1 1
1 1 1 1
1 1 1 1
1 1 1 1
1 1 1 1
1 1 1 1
0.999907 1 1 0.999907
0.999879 1 1 0.999879
0.999897 1 1 0.999897
0.999892 1 1 0.999892
0.999889 1 1 0.999889
0.999946 1 1 0.999946
0.999893 1 1 0.999893
0.996038 1.00017 0.995899 0.999974
0.999747 1 0.999753 0.999994
0.999977 1 1 0.999977
0.999872 1 1 0.999872
0.999863 1 1 0.999863
0.99991 1 1 0.99991
0.999895 1 1 0.999895
0.999865 1 1 0.999865
0.999871 1 1 0.999871
0.999927 1 1 0.999927
0.999889 1 1 0.999889
0.999877 1 1 0.999877
0.999866 1 1 0.999866
0.999998 1 1 0.999998
0.999889 1 1 0.999889
0.999968 1 1 0.999968
0.999914 1 1 0.999914
0.999964 1 1 0.999964
0.99985 1 1 0.99985
0.999971 1 1 0.999971
0.999966 1 1 0.999966
0.99993 1 1 0.99993
0.999891 1 1 0.999891
0.999918 1 0.999969 0.999949
0.999882 1 1 0.999882
0.999853 1 1 0.999853
0.999894 1 1 0.999894
0.999915 1 1 0.999915
0.999889 1 1 0.999889
0.999875 1 1 0.999875
0.999857 1 1 0.999857
0.999861 1 1 0.999861
0.999882 1 1.00004 0.999837
0.99813 1 0.99818 0.99995
0.999921 1 1 0.999921
0.999859 1 1 0.999859
0.999869 1 1 0.999869
0.999931 1 1 0.999931
0.999919 1 1 0.999919
0.999904 1 1 0.999904
0.999883 1 1 0.999883
0.999866 1 1 0.999866
0.999841 1 1 0.999841
1.00052 1 1.00068 0.999849
0.999895 1 1 0.999895
0.999875 1 1 0.999875
0.999932 1 1 0.999932
0.999934 1 1 0.999934
0.99986 1 1 0.99986
0.999861 1 1 0.999861
0.99983 1 1 0.99983
0.999878 1 1 0.999878
0.99994 1 0.999992 0.999948
0.999862 1 1 0.999862
0.999837 1 1 0.999837
0.999871 1 1 0.999871
1.00082 1 1.001 0.999813
0.988145 1.00469 0.983696 0.999834
0.999865 1 1 0.999865
0.999841 1 1 0.999841
0.999851 1 1 0.999851
1.00186 1 1.00205 0.999809
1.00057 1 1.00078 0.999795
0.967862 0.968382 1.00004 0.999423
0.988482 1.00205 0.986562 0.999896
0.98364 1.00677 0.977252 0.999771
0.974517 0.980638 0.993794 0.999963
0.980769 1.00244 0.978379 0.999999
0.999882 1 1 0.999882
0.999871 1 1 0.999871
0.999862 1 1 0.999862
0.999961 1 1 0.999961
0.999921 1 1 0.999921
0.999901 1 1 0.999901
0.999884 1 1 0.999884
0.999871 1 1 0.999871
0.999898 1 1 0.999898
0.999958 1 1 0.999958
0.99992 1 1 0.99992
0.999866 1 1 0.999866
0.999881 1 1 0.999881
0.999883 1 1 0.999883
0.999865 1 1 0.999865
0.999891 1 1 0.999891
0.999916 1 1 0.999916
0.999955 1 1 0.999955
0.999923 1 1 0.999923
0.999899 1 1 0.999899
0.999921 1 1 0.999921
0.999923 1 1 0.999923
0.99996 1 1 0.99996
0.999955 1 1 0.999955
0.999997 1 1 0.999997
0.999997 1 1 0.999997
1 1 1 1
0.999997 1 1 0.999997
1 1 1 1
1 1 1 1
1 1 1 1
1 1 1 1
1 1 1 1
1 1 1 1
1 1 1 1
1 1 1 1
0.999999 1 1 0.999999
1 1 1 1
1 1 1 1
1 1 1 1
1 1 1 1
1 1 1 1
0.999889 1 1 0.999889
0.999892 1 1 0.999892
0.999959 1 1 0.999959
0.995679 1 0.995705 0.999973
0.999893 1 1 0.999893
0.999866 1 0.99989 0.999976
0.999913 1 1.00004 0.999875
0.985094 0.988347 0.996925 0.999784
0.999776 1 0.99978 0.999996
0.99998 1 1 0.99998
0.999977 1 1 0.999977
0.99994 1 1 0.99994
0.999949 1 1 0.999949
0.999845 1 1 0.999845
0.999892 1 1 0.999892
0.999941 1 1 0.999941
0.999883 1 1 0.999883
0.999853 1 1 0.999853
0.999895 1 1 0.999895
0.999875 1 1 0.999875
0.999861 1 1 0.999861
0.999863 1 1 0.999863
0.999966 1 1 0.999966
0.999887 1 1 0.999887
0.999919 1 1 0.999919
0.999974 1 1 0.999974
0.999926 1 1 0.999926
0.999877 1 1.00003 0.999842
0.999936 1 1 0.999936
0.999922 1 1 0.999922
0.999906 1 1 0.999906
0.998948 1 0.998999 0.999948
0.999922 1 1 0.999922
0.999869 1 1 0.999869
0.99986 1 1 0.99986
0.999884 1 1 0.999884
0.999868 1 1 0.999868
1.00016 1 1.00031 0.99985
0.999842 1 1 0.999842
0.999918 1 1.00003 0.999888
0.998322 1 0.998363 0.999959
0.999855 1 1 0.999855
0.999854 1 1 0.999854
0.999896 1 1 0.999896
0.999888 1 1 0.999888
0.999848 1 1 0.999848
1.00092 1 1.00111 0.999818
0.96779 0.970203 0.998058 0.999453
0.999879 1 1 0.999879
0.999862 1 1 0.999862
0.999951 1 0.999997 0.999954
0.99988 1 1 0.99988
1.00127 1 1.00146 0.999811
0.999837 1 1 0.999837
0.992506 1.0069 0.985851 0.999848
0.999866 1 1 0.999866
0.999843 1 1 0.999843
0.999852 1 1 0.999852
1.00155 1 1.00174 0.99981
1.00029 1 1.00049 0.999803
0.968903 0.968392 1.00105 0.999483
0.985833 0.999794 0.986318 0.999715
0.985878 1.00832 0.977968 0.999769
0.975857 0.981965 0.993906 0.999872
0.98185 1.00212 0.979777 1
0.999862 1 1 0.999862
0.97711 0.979546 0.997714 0.999798
0.993559 1.00155 0.992021 0.999999
0.999778 1 1 0.999778
1.00124 1 1.0014 0.99984
1.00662 1 1.00684 0.999784
0.999468 1.00808 0.991722 0.999732
0.979825 0.975822 1.00478 0.999325
0.986583 1.00669 0.980333 0.999689
0.971396 0.984916 0.986315 0.999957
0.991922 1.00265 0.989303 0.999998
0.999871 1 1 0.999871
0.999862 1 1 0.999862
0.999855 1 1 0.999855
0.99996 1 1 0.99996
0.999922 1 1 0.999922
0.999895 1 1 0.999895
0.99988 1 1 0.99988
0.999867 1 1 0.999867
0.999955 1 1 0.999955
0.999882 1 1 0.999882
0.999894 1 1 0.999894
0.999918 1 1 0.999918
0.999863 1 1 0.999863
0.999872 1 1 0.999872
0.999855 1 1 0.999855
0.999889 1 1 0.999889
0.999922 1 1 0.999922
0.999923 1 1 0.999923
0.999896 1 1 0.999896
0.999894 1 1 0.999894
0.999893 1 1 0.999893
0.999879 1 1 0.999879
0.999888 1 1 0.999888
0.999917 1 1 0.999917
0.999921 1 1 0.999921
0.999959 1 1 0.999959
0.999918 1 1 0.999918
0.999957 1 1 0.999957
0.999996 1 1 0.999996
0.999955 1 1 0.999955
0.999997 1 1 0.999997
1 1 1 1
0.999997 1 1 0.999997
1 1 1 1
1 1 1 1
1 1 1 1
1 1 1 1
1 1 1 1
0.999979 1 1 0.999979
1 1 1 1
1 1 1 1
1 1 1 1
1 1 1 1
1 1 1 1
1 1 1 1
1 1 1 1
1 1 1 1
1 1 1 1
0.995172 1 0.995199 0.999973
0.999893 1 1 0.999893
0.999959 1 1 0.999959
0.986644 0.988702 0.998033 0.999885
0.9999 1 0.999907 0.999992
0.999898 1 1.00003 0.999864
1.00145 1 1.00159 0.999859
0.993464 0.992053 1.00163 0.999797
0.971614 0.97222 1.00011 0.999263
0.974074 0.980749 0.99342 0.999771
0.986934 1.00106 0.985894 0.999998
0.999941 1 1 0.999941
0.99998 1 1 0.99998
0.999977 1 1 0.999977
0.999939 1 1 0.999939
0.999916 1 1 0.999916
0.999925 1 1 0.999925
0.999944 1 1 0.999944
0.999946 1 1 0.999946
0.999872 1 1.00003 0.999846
0.999627 1 0.99968 0.999946
0.999861 1 0.999939 0.999922
0.999869 1 1 0.999869
0.999862 1 1 0.999862
0.99985 1 1 0.99985
0.999842 1 1 0.999842
0.999871 1 1 0.999871
0.999925 1 1 0.999925
0.999884 1 1 0.999884
0.999941 1 1 0.999941
0.999908 1 1 0.999908
0.999442 1 0.999556 0.999886
0.999897 1 1 0.999897
0.999889 1 1 0.999889
0.997957 1 0.997999 0.999957
0.999859 1 1 0.999859
1.00008 1 1.00024 0.999848
0.999848 1 1 0.999848
1.00083 1 1.00101 0.999819
0.987852 1.0012 0.986735 0.999928
1.00183 1 1.00195 0.999875
0.99983 1 1 0.99983
1.00257 1 1.00276 0.999808
0.999872 1 1 0.999872
0.999859 1 1 0.999859
1.00027 1 1.00046 0.999817
0.974796 0.980813 0.993909 0.999957
0.970654 0.971288 0.999878 0.999469
0.999867 1 1 0.999867
0.999852 1 1 0.999852
0.999845 1 1 0.999845
0.999997 1 1.00018 0.999812
1.00113 1 1.00132 0.999811
0.969079 0.969946 0.999863 0.999242
0.988648 0.999244 0.989468 0.999928
0.988401 1.01 0.978839 0.999768
0.973384 0.981576 0.991879 0.999773
0.982639 1.00162 0.981046 1
0.999861 1 1 0.999861
0.975533 0.980324 0.995156 0.999956
0.99384 1.00171 0.992144 0.999999
0.999777 1 1 0.999777
1.00052 1 1.00068 0.999841
1.00587 1 1.00608 0.999792
0.997834 1.00605 0.992103 0.999726
0.97799 0.975817 1.00302 0.999211
0.980923 1.00279 0.978272 0.999916
0.971959 0.985217 0.986791 0.999749
0.988231 1.00284 0.985438 0.999999
0.999855 1 1 0.999855
0.999362 1.00044 0.998927 0.999997
0.999305 1.00037 0.998932 1
1.00909 1 1.00932 0.999771
1.00489 1 1.00505 0.999843
1.00379 1.00291 1.00103 0.999852
0.991383 1.0018 0.989656 0.999945
0.982742 0.979645 1.00391 0.999254
0.979346 0.993989 0.985548 0.999717
0.998911 1.00218 0.996743 0.999997
0.999862 1 1 0.999862
0.999854 1 1 0.999854
0.999948 1 1.0001 0.99985
0.999954 1 1 0.999954
0.999921 1 1 0.999921
0.999898 1 1 0.999898
0.999882 1 1 0.999882
0.999862 1 1 0.999862
0.999922 1 1 0.999922
0.999874 1 1 0.999874
0.999889 1 1 0.999889
0.999854 1 1 0.999854
0.999865 1 1.00002 0.999845
0.999864 1 1 0.999864
0.999891 1 1 0.999891
0.999923 1 1 0.999923
0.999893 1 1 0.999893
0.999894 1 1 0.999894
0.999893 1 1 0.999893
0.99988 1 1 0.99988
0.999889 1 1 0.999889
0.999874 1 1 0.999874
0.999871 1 1 0.999871
0.999878 1 1 0.999878
0.999895 1 1 0.999895
0.999894 1 1 0.999894
0.999889 1 1 0.999889
0.999916 1 1 0.999916
0.999917 1 1 0.999917
0.999957 1 1 0.999957
0.999921 1 1 0.999921
0.999959 1 1 0.999959
0.999996 1 1 0.999996
0.999955 1 1 0.999955
0.999996 1 1 0.999996
1 1 1 1
0.999997 1 1 0.999997
1 1 1 1
1 1 1 1
1 1 1 1
1 1 1 1
1 1 1 1
0.999981 1 1 0.999981
1 1 1 1
0.999979 1 1 0.999979
1 1 1 1
1 1 1 1
1 1 1 1
1 1 1 1
1 1 1 1
1 1 1 1
1 1 1 1
1 1 1 1
0.9758 0.979794 0.99596 0.999964
0.997046 1.00107 0.995983 0.999999
0.988218 0.988921 0.999328 0.999961
0.999976 1 0.999986 0.999989
0.999881 1 1.00003 0.999853
0.992919 0.99099 1.00196 0.99999
1.00066 1 1.0008 0.999864
0.974804 0.974047 1.00135 0.999428
0.974612 0.980177 0.99436 0.999962
0.987062 1.00132 0.98576 0.999999
1.0015 0.996638 1.00496 0.999918
0.979864 0.977856 1.00269 0.999364
0.972694 0.9845 0.988051 0.999956
0.989246 1.00285 0.98644 0.999997
0.999908 1 1 0.999908
0.999944 1 1 0.999944
0.999979 1 1 0.999979
0.999938 1 1 0.999938
0.999919 1 1 0.999919
0.999916 1 1 0.999916
0.999926 1 1 0.999926
0.999933 1 1 0.999933
0.999941 1 1 0.999941
0.999944 1 1 0.999944
0.999027 1 0.999143 0.999885
0.997798 1 0.997842 0.999956
0.999864 1 1 0.999864
1.00028 1 1.00043 0.999841
1.00067 1 1.00085 0.999821
0.999849 1 1 0.999849
0.999891 1 1 0.999891
0.999898 1 1 0.999898
0.990695 1.00052 0.99026 0.99992
0.999871 1 1 0.999871
0.999856 1 1 0.999856
1.00029 1 1.00041 0.999881
0.999827 1 1 0.999827
1.00187 1 1.00206 0.999803
1.00056 1 1.00075 0.999814
0.980282 1.00616 0.974403 0.999871
1.00593 1 1.00612 0.999808
1.0029 1 1.00311 0.999786
0.99987 1 1 0.99987
0.999851 1 1 0.999851
0.999829 1 1 0.999829
0.997644 0.999694 0.997954 0.999995
0.975754 0.980085 0.995775 0.999806
0.968641 0.971015 0.998115 0.999438
0.999861 1 1 0.999861
0.999843 1 1 0.999843
0.999776 1 1 0.999776
1.00523 1 1.00543 0.999801
0.974768 0.980683 0.994176 0.999791
0.97541 0.974972 1.00092 0.999533
0.98155 1.00416 0.977761 0.999713
0.996973 1.00421 0.993072 0.999721
0.97219 0.984406 0.987632 0.999958
0.993591 1.00197 0.991644 0.999999
0.986852 1.00315 0.983753 0.999998
0.999855 1 1 0.999855
0.998759 1.00057 0.998194 0.999997
0.999472 1.00051 0.99896 1
1.00943 1 1.00966 0.99977
1.00496 1 1.00512 0.999842
1.00682 1.00246 1.00461 0.999732
0.988321 1.00176 0.986883 0.999701
0.982076 0.980435 1.00243 0.99925
0.983387 0.992911 0.990463 0.999945
0.995929 1.00163 0.994316 0.999995
0.999861 1 1 0.999861
0.999472 0.999474 0.999997 1
0.999284 0.998972 1.00031 1
1.00657 1 1.00667 0.999902
0.999676 0.997032 1.00269 0.999959
0.990845 0.986582 1.00501 0.99931
0.984065 1.00201 0.982166 0.999924
0.998888 0.999463 0.999436 0.999988
0.999854 1 1 0.999854
0.999894 1 1.00004 0.999851
1.00009 1 1.00024 0.999845
0.999922 1 1 0.999922
0.999889 1 1 0.999889
0.999876 1 1 0.999876
0.999852 1 1 0.999852
0.999891 1 1 0.999891
0.999864 1 1 0.999864
0.99989 1 1.00005 0.999844
0.999901 1 1.00005 0.999849
0.999843 1 1 0.999843
0.999868 1 1 0.999868
0.999894 1 1 0.999894
0.999893 1 1 0.999893
0.99988 1 1 0.99988
0.999875 1 1 0.999875
0.999889 1 1 0.999889
0.999872 1 1 0.999872
0.999868 1 1 0.999868
0.999861 1 1 0.999861
0.999868 1 1 0.999868
0.999878 1 1 0.999878
0.999883 1 1 0.999883
0.99989 1 1 0.99989
0.999913 1 1 0.999913
0.999899 1 1 0.999899
0.999896 1 1 0.999896
0.999916 1 1 0.999916
0.999889 1 1 0.999889
0.999916 1 1 0.999916
0.999955 1 1 0.999955
0.999917 1 1 0.999917
0.999957 1 1 0.999957
0.999996 1 1 0.999996
0.999959 1 1 0.999959
0.999996 1 1 0.999996
1 1 1 1
0.999996 1 1 0.999996
1 1 1 1
1 1 1 1
1 1 1 1
1 1 1 1
1 1 1 1
0.999971 1 1 0.999971
1 1 1 1
0.999977 1 1 0.999977
1 1 1 1
1 1 1 1
0.99998 1 1 0.99998
1 1 1 1
1 1 1 1
1 1 1 1
1 1 1 1
1 1 1 1
1 1 1 1
0.999214 1.00008 0.999135 0.999999
0.974637 0.978666 0.996001 0.999882
0.999922 1.00076 0.999159 1
0.996686 1.00098 0.995712 0.999999
0.989815 0.989465 1.00054 0.999814
0.999912 1 1.00004 0.999869
0.974965 0.973613 1.00178 0.999606
0.974066 0.980304 0.993855 0.99978
0.987333 1.00149 0.985867 1
0.998228 0.997725 1.00064 0.999864
0.979071 0.975712 1.00412 0.999325
0.973858 0.98493 0.989007 0.999749
0.989027 1.0029 0.986164 0.999998
0.996084 1.00316 0.993027 0.999923
0.982827 0.979069 1.00461 0.999231
0.982139 0.993384 0.988734 0.999946
0.998783 1.00129 0.997504 0.999997
0.99989 1 1 0.99989
0.999912 1 1 0.999912
0.999947 1 1 0.999947
0.999922 1 1 0.999922
0.9999 1 1 0.9999
0.999918 1 1 0.999918
0.999927 1 1 0.999927
0.99993 1 1 0.99993
0.999936 1 1 0.999936
0.999938 1 1 0.999938
0.993722 1 0.99381 0.999911
0.99877 1 0.998883 0.999887
0.999824 1 1 0.999824
1.00137 1 1.00157 0.999799
1.00089 1 1.00108 0.999811
0.999853 1 1 0.999853
0.999869 1 1 0.999869
0.99987 1 1 0.99987
0.982763 1.00403 0.978947 0.999867
0.999852 1 1 0.999852
0.999918 1 1.00009 0.999828
1.00561 1 1.0058 0.99981
1.00287 1 1.00308 0.999786
0.987126 1.00659 0.980832 0.999824
1.01242 1 1.01263 0.999797
1.00047 1 1.00067 0.999796
0.999854 1 1 0.999854
0.99983 1 1 0.99983
0.998961 0.998959 1 1
0.998501 0.999711 0.998793 0.999997
0.97605 0.980813 0.995183 0.99996
0.999854 1 1 0.999854
1.00489 1 1.00505 0.999842
1.00961 1 1.00984 0.99977
0.999638 1.00069 0.998947 0.999998
0.982544 0.979541 1.00385 0.999213
0.985302 1.0018 0.983587 0.999945
1.00778 1.00139 1.00677 0.99961
0.975875 0.989735 0.986259 0.999733
0.999636 1.00065 0.998987 1
0.997203 1.0009 0.996312 0.999993
0.999863 1 1 0.999863
0.999271 0.999269 1 1
0.99911 0.998694 1.00042 1
1.00687 0.999985 1.00703 0.999864
0.999457 0.997757 1.00181 0.999894
0.993988 0.989685 1.00511 0.999245
1.0004 1.00041 0.999999 0.999992
0.990142 0.999103 0.991173 0.999858
0.999871 1 1 0.999871
0.999816 0.99975 1.00007 1
0.998635 0.997871 1.00076 1
0.997447 1.00128 0.996174 0.999998
1.00291 0.998583 1.00439 0.999944
0.994901 0.988008 1.00754 0.999438
0.984396 1.00183 0.982718 0.999875
0.999852 1 1 0.999852
1.00006 1 1.00021 0.999843
1.00165 1 1.0018 0.999852
0.999891 1 1 0.999891
0.999864 1 1 0.999864
1.00001 1 1.00016 0.999844
0.999869 1 1 0.999869
0.999855 1 1.00001 0.999843
1.00005 1 1.0002 0.999848
1.00003 1 1.00019 0.999847
0.999849 1 1 0.999849
0.999876 1 1 0.999876
0.999889 1 1 0.999889
0.999873 1 1 0.999873
0.999862 1 1 0.999862
0.999868 1 1 0.999868
0.999857 1 1 0.999857
0.999875 1 1 0.999875
0.999854 1 1 0.999854
0.999878 1 1 0.999878
0.999883 1 1 0.999883
0.999869 1 1 0.999869
0.999894 1 1 0.999894
0.999914 1 1 0.999914
0.99989 1 1 0.99989
0.999927 1 1 0.999927
0.999911 1 1 0.999911
0.999904 1 1 0.999904
0.999899 1 1 0.999899
0.999918 1 1 0.999918
0.999956 1 1 0.999956
0.999916 1 1 0.999916
0.999955 1 1 0.999955
0.999995 1 1 0.999995
0.999957 1 1 0.999957
0.999996 1 1 0.999996
1 1 1 1
0.999996 1 1 0.999996
1 1 1 1
1 1 1 1
1 1 1 1
1 1 1 1
1 1 1 1
0.99996 1 1 0.99996
0.999995 1 1 0.999995
0.999971 1 1 0.999971
1 1 1 1
0.999998 1 1 0.999998
0.999972 1 1 0.999972
1 1 1 1
1 1 1 1
1 1 1 1
1 1 1 1
1 1 1 1
1 1 1 1
0.999759 0.999698 1.00006 1
0.997756 1.00001 0.997746 0.999996
0.976414 0.979073 0.997472 0.999811
0.999919 1 1 0.999919
0.999536 0.99921 1.00033 1
1.00006 1.00058 0.999478 1
0.995121 1.00093 0.994198 0.999997
0.995148 0.99839 0.99696 0.999792
0.980814 0.975438 1.0062 0.999313
0.975107 0.984671 0.99033 0.999956
0.991835 1.00334 0.988533 0.999996
0.99337 1.00506 0.988638 0.999727
0.984459 0.980603 1.00467 0.999264
0.981291 0.992826 0.988545 0.999835
0.997722 1.00222 0.995512 0.999995
0.980527 1.0012 0.979631 0.999713
0.989668 0.986066 1.00459 0.999063
0.992558 0.997608 0.995185 0.999752
0.99974 0.999917 0.99984 0.999983
0.999872 1 1 0.999872
0.999888 1 1 0.999888
0.999915 1 1 0.999915
0.999895 1 1 0.999895
0.999903 1 1 0.999903
0.99992 1 1 0.99992
0.999931 1 1 0.999931
0.999939 1 1 0.999939
0.98522 1.00187 0.983516 0.999863
1.00518 1 1.00537 0.999811
0.99987 1 1 0.99987
1.00275 1 1.00297 0.999786
0.999993 1 1.00017 0.999826
0.999854 1 1 0.999854
0.999854 1 1 0.999854
0.986577 1.00568 0.98118 0.99982
0.999829 1 1 0.999829
1.00104 1 1.00125 0.999796
1.01286 1 1.01307 0.999797
0.99985 1 1 0.99985
1.00251 1.00171 1.00097 0.999835
1.00958 1 1.00978 0.999805
0.999811 1 1 0.999811
0.99983 1 1 0.99983
0.99962 0.999619 1 1
0.99911 0.999108 1 1
0.999174 0.999728 0.999447 0.999999
0.999865 1 1 0.999865
1.0075 0.999979 1.0077 0.999827
0.999067 0.999065 1 1
0.991027 0.984584 1.00733 0.999224
1.00086 1.00024 1.00089 0.999731
0.986733 0.997116 0.989782 0.999803
0.998948 0.998367 1.00058 1
1.00197 1.00134 1.00064 0.999995
0.999873 1 1 0.999873
0.999804 0.999727 1.00008 1
0.99899 0.998328 1.00066 1
1.00051 0.997613 1.00294 0.999959
0.996708 1.00212 0.994604 0.999996
0.993708 0.991624 1.0026 0.999499
0.983787 0.997939 0.986051 0.999765
1.00157 0.999988 1.0017 0.99989
1.00009 1.00005 1.00004 1
0.999533 0.999116 1.00042 1
0.988427 1.00277 0.9857 0.999998
0.987903 0.993755 0.994343 0.999767
1.00057 0.995449 1.00511 1.00004
0.989342 0.988433 1.00141 0.999514
0.999975 1 1.00013 0.999842
1.00111 1 1.00126 0.999849
1.00668 1 1.00684 0.999848
0.99987 1 1 0.99987
0.999845 1 1 0.999842
0.999973 1 1.00013 0.999846
0.999849 1 1 0.999849
1 1 1.00015 0.999848
1.00205 1 1.00222 0.999834
0.999862 1 1 0.999862
0.999867 1 1 0.999867
0.999999 1 1.00014 0.999855
1.00058 1 1.00074 0.999838
0.999882 1 1 0.999882
0.999857 1 1 0.999857
0.999843 1 1 0.999843
0.999868 1 1 0.999868
0.999884 1 1 0.999884
0.999868 1 1 0.999868
0.999902 1 1 0.999902
0.999913 1 1 0.999913
0.999896 1 1 0.999896
0.999932 1 1 0.999932
0.999914 1 1 0.999914
0.99989 1 1 0.99989
0.999959 1 1 0.999959
0.999925 1 1 0.999925
0.999909 1 1 0.999909
0.999919 1 1 0.999919
0.999956 1 1 0.999956
0.999995 1 1 0.999995
0.999955 1 1 0.999955
0.999995 1 1 0.999995
1 1 1 1
0.999995 1 1 0.999995
1 1 1 1
1 1 1 1
1 1 1 1
1 1 1 1
1 1 1 1
0.999954 1 1 0.999954
0.999993 1 1 0.999993
0.999962 1 1 0.999962
1 1 1 1
0.999995 1 1 0.999995
0.999971 1 1 0.999971
1 1 1 1
1 1 1 1
0.999996 1 1 0.999996
1 1 1 1
1 1 1 1
1 1 1 1
0.999699 0.9997 0.999998 1
0.999662 0.999619 1.00004 1
0.997807 0.999959 0.997853 0.999995
0.99992 1 1 0.99992
0.999915 1 1 0.999915
0.999897 1 1 0.999897
0.998539 0.997985 1.00055 1
0.999333 0.998982 1.00035 1
1.0003 1.00039 0.999911 1
0.995512 1.00788 0.987806 0.999918
0.983629 0.97955 1.00491 0.99926
0.980319 0.993428 0.987074 0.999726
1.00023 1.00245 0.997794 0.999995
0.980272 1.00022 0.980138 0.999919
0.993328 0.987656 1.00647 0.999283
0.995543 1.00288 0.99278 0.999899
1.00076 1.00063 1.00014 0.999989
0.983348 0.997485 0.985868 0.999959
0.991141 0.989593 1.00221 0.999352
0.987158 1.00271 0.98465 0.99984
0.999773 1.00218 0.997602 0.999996
0.999868 1 1 0.999868
0.999872 1 1 0.999872
0.999886 1 1 0.999886
0.999895 1 1 0.999895
0.999906 1 1 0.999906
0.999932 1 1 0.999932
0.98581 1.00455 0.981521 0.999816
1.01323 1 1.01344 0.999798
0.999854 1 1 0.999854
1.00155 1 1.00176 0.999795
0.999828 1 1 0.999828
0.999848 1 1 0.999848
0.999828 1 1 0.999828
0.998855 1.00222 0.99681 0.999829
0.99981 1 1 0.99981
1.00986 1 1.01006 0.999802
0.999826 1 1 0.999826
1.01456 1 1.01471 0.999855
1.00024 1 1.00044 0.999808
0.999809 1 1 0.999809
1.00017 1.0002 0.999972 1
0.999771 0.999773 0.999998 1
0.999261 0.99926 1 1
0.999874 1 1 0.999874
1.00131 0.996773 1.00458 0.999976
0.999791 0.999705 1.00008 1
0.995964 0.99384 1.00242 0.999715
0.982897 1.00235 0.980698 0.999891
0.999308 0.99881 1.0005 1
0.999661 1.00252 0.99715 0.999996
1.00092 0.999952 1.00108 0.999893
1.00012 1.00011 1.00001 1
0.999308 0.998865 1.00044 1
1.00259 0.995872 1.00684 0.999915
0.988426 1.00294 0.985531 0.999999
0.990417 1.00029 0.990204 0.999921
0.982321 0.987195 0.995566 0.999495
1.00444 1 1.0045 0.999938
0.999663 0.999668 0.999994 1
0.999843 1.00092 0.998928 1
0.985769 1.00113 0.984656 0.999999
0.979703 0.990699 0.988949 0.999952
0.99582 0.989011 1.00749 0.999396
0.993634 0.993685 1.00005 0.999899
1.00061 1 1.00076 0.999846
1.0071 1 1.00725 0.999848
1.01161 1 1.01177 0.999835
0.99985 1 1 0.99985
1 1 1.00015 0.999849
1.00173 1 1.0019 0.999835
1.00601 1 1.00621 0.999805
1.00012 1 1.00026 0.999854
1.00088 1 1.00105 0.999835
1.00132 1 1.0015 0.999814
0.99986 1 1 0.99986
0.999842 1 1 0.999842
0.999839 1 1 0.999839
0.99986 1 1 0.99986
0.999889 1 1 0.999889
0.999866 1 1 0.999866
0.999866 1 1 0.999866
0.999916 1 1 0.999916
0.999904 1 1 0.999904
0.99993 1 1 0.99993
0.999916 1 1 0.999916
0.999899 1 1 0.999899
0.999962 1 1 0.999962
0.999932 1 1 0.999932
0.999914 1 1 0.999914
0.999995 1 1 0.999995
0.999959 1 1 0.999959
0.999924 1 1 0.999924
0.999956 1 1 0.999956
0.999995 1 1 0.999995
1 1 1 1
0.999995 1 1 0.999995
1 1 1 1
1 1 1 1
1 1 1 1
1 1 1 1
1 1 1 1
0.999958 1 1 0.999958
0.999997 1 1 0.999997
0.999957 1 1 0.999957
1 1 1 1
0.999996 1 1 0.999996
0.999964 1 1 0.999964
1 1 1 1
1 1 1 1
0.999995 1 1 0.999995
1 1 1 1
1 1 1 1
1 1 1 1
1.00011 1.00007 1.00004 1
0.999695 0.999691 1 1
0.999546 0.999529 1.00002 1
0.999919 1 1 0.999919
0.99991 1 1 0.99991
0.999922 1 1 0.999922
0.999915 1 1 0.999915
0.999894 1 1 0.999894
0.999896 1 1 0.999896
0.99988 1 1 0.99988
0.99926 0.998991 1.00027 1
0.998918 0.998472 1.00044 1
0.999135 0.998754 1.00038 1
1.00181 1.0014 1.00042 0.999994
0.985813 1.0054 0.980816 0.999693
0.994278 0.987956 1.00693 0.999476
0.983404 1.00027 0.983414 0.999718
0.986326 0.996846 0.98961 0.999835
0.993956 0.993089 1.00149 0.999383
0.988826 1.00045 0.988658 0.999721
0.997486 1.00212 0.995383 0.999991
0.997508 0.995587 1.00197 0.999962
0.990403 0.99295 0.99802 0.999414
0.988214 1.00361 0.984761 0.999896
0.993954 1.00227 0.991703 0.999998
0.99986 1 1 0.99986
0.999868 1 1 0.999868
0.999873 1 1 0.999873
0.999894 1 1 0.999894
0.994335 1.00275 0.991778 0.999823
1.01026 1 1.01046 0.999799
0.999847 1 1 0.999847
0.999826 1 1 0.999826
0.99981 1 1 0.99981
0.99983 1 1 0.99983
0.999808 1 1 0.999808
1.00829 0.999065 1.00937 0.999861
1.00025 1 1.00044 0.999812
0.999809 1 1 0.999809
1.0172 0.997412 1.01993 0.999911
1.00322 1 1.00345 0.999774
0.999625 0.999625 1 1
1.00013 1.00015 0.999978 1
0.999921 0.999926 0.999994 1
1.0004 1 1.0005 0.999896
1.00177 0.995449 1.00632 1.00003
1.00015 1.00017 0.999981 1
0.989228 0.987249 1.00252 0.999487
0.978852 0.998367 0.980713 0.999735
0.999095 0.998614 1.00048 1
0.990863 1.00344 0.987469 0.999998
1.00517 1 1.00524 0.999932
0.999662 0.999662 0.999999 1
1.00012 1.00071 0.99941 1
0.999344 0.996084 1.00322 1.00005
0.985932 1.00135 0.984603 1
0.978251 0.989974 0.988315 0.999841
0.994049 0.988461 1.0062 0.99946
0.998746 1 0.9988 0.999946
0.999805 0.999717 1.00009 1
0.996384 1.00124 0.995154 0.999999
0.971169 0.982853 0.988154 0.999958
0.988768 0.982642 1.00697 0.999274
0.986828 0.998552 0.988472 0.999785
1.00761 1 1.00777 0.999848
1.0117 1 1.01187 0.999834
1.01491 1 1.01511 0.999806
1.00145 1 1.00161 0.999835
1.00577 1 1.00596 0.999808
1.00546 1 1.00568 0.99978
1.00126 1 1.00143 0.999831
1.00143 1 1.00162 0.99981
1.00065 1 1.00084 0.999809
0.999841 1 1 0.999841
0.999836 1 1 0.999836
0.999845 1 1 0.999845
0.999866 1 1 0.999866
0.999878 1 1 0.999878
0.999858 1 1 0.999858
0.999907 1 1 0.999907
0.999891 1 1 0.999891
0.999864 1 1 0.999864
0.999929 1 1 0.999929
0.999914 1 1 0.999914
0.999905 1 1 0.999905
0.999962 1 1 0.999962
0.999931 1 1 0.999931
0.999918 1 1 0.999918
0.999996 1 1 0.999996
0.999962 1 1 0.999962
0.999932 1 1 0.999932
1 1 1 1
0.999996 1 1 0.999996
0.999959 1 1 0.999959
0.999995 1 1 0.999995
1 1 1 1
1 1 1 1
1 1 1 1
1 1 1 1
1 1 1 1
0.999924 1 1 0.999924
0.999957 1 1 0.999957
0.999996 1 1 0.999996
0.999958 1 1 0.999958
1 1 1 1
0.999997 1 1 0.999997
0.999959 1 1 0.999959
1 1 1 1
1 1 1 1
0.999998 1 1 0.999998
1 1 1 1
1 1 1 1
1 1 1 1
0.999816 0.999799 1.00002 1
1.00013 1.00012 1.00001 1
0.999689 0.999681 1.00001 1
0.999921 1 1 0.999921
0.999908 1 1 0.999908
0.999909 1 1 0.999909
0.999902 1 1 0.999902
0.9999 1 1 0.9999
0.999916 1 1 0.999916
0.999891 1 1 0.999891
0.999896 1 1 0.999896
0.999881 1 1 0.999881
0.999883 1 1 0.999883
0.999731 1.00008 0.999652 1
0.999056 0.998732 1.00032 1
0.999286 0.998931 1.00035 1
0.998658 1.00126 0.997416 0.999989
0.986548 1.00293 0.983805 0.999861
0.990995 0.996834 0.994401 0.99974
0.99154 0.98973 1.0024 0.999426
1.00147 0.994927 1.00677 0.99981
0.982951 0.990655 0.992809 0.99941
0.994064 1.00077 0.993475 0.999824
0.991014 1.00257 0.988473 0.999999
1.01748 0.992573 1.02525 0.999843
0.993275 0.989572 1.00434 0.9994
0.981 0.994292 0.9869 0.999728
0.987013 1.00183 0.985208 1
0.999875 1 1 0.999875
0.999863 1 1 0.999863
0.999867 1 1 0.999867
1.0029 0.998123 1.00492 0.999868
1.00022 1 1.00041 0.999815
0.999834 1 1 0.999834
0.999808 1 1 0.999808
0.999844 1 1.00003 0.999811
1.00369 1 1.00391 0.999774
1.01713 0.998281 1.01898 0.99991
1.0022 1 1.00241 0.999796
1.00906 0.999353 1.00987 0.999843
0.998984 0.998982 1 1
0.999776 0.999777 0.999998 1
1.00009 1.00011 0.999983 1
1.00589 1 1.00596 0.999926
1.00054 0.996021 1.00464 0.999891
0.99966 0.999657 1 1
0.990968 0.984965 1.00683 0.999265
0.978613 0.990996 0.987773 0.999728
1.00041 1.00049 0.999921 1
0.986294 1.00146 0.98486 1
0.999079 1 0.999134 0.999945
0.999683 0.99962 1.00006 1
0.996136 1.00112 0.995018 0.999999
0.984399 0.995793 0.988655 0.999902
0.972711 0.983685 0.989093 0.999748
0.991982 0.984864 1.00811 0.999126
0.987645 1.00002 0.987736 0.999892
0.999121 1.00013 0.998993 0.999998
0.974215 0.981126 0.993186 0.999768
0.981222 0.977611 1.00448 0.99922
0.975712 1.00125 0.974577 0.999919
1.01156 1 1.01173 0.999833
1.01565 1 1.01584 0.999806
1.01096 1 1.01118 0.999781
1.00542 1 1.00561 0.999812
1.0054 1 1.00562 0.999783
1.00183 1 1.00203 0.999798
1.00152 1 1.00172 0.999806
1.00054 1 1.00073 0.999811
0.999852 1 1 0.999852
0.999834 1 1 0.999834
0.999847 1 1 0.999847
0.999878 1 1 0.999878
0.999886 1 1 0.999886
0.999873 1 1 0.999873
0.999867 1 1 0.999867
0.999896 1 1 0.999896
0.999874 1 1 0.999874
0.999856 1 1 0.999856
0.999927 1 1 0.999927
0.999909 1 1 0.999909
0.999894 1 1 0.999894
0.999958 1 1 0.999958
0.999928 1 1 0.999928
0.999913 1 1 0.999913
0.999996 1 1 0.999996
0.999961 1 1 0.999961
0.999933 1 1 0.999933
1 1 1 1
0.999996 1 1 0.999996
0.999962 1 1 0.999962
1 1 1 1
1 1 1 1
0.999996 1 1 0.999996
1 1 1 1
1 1 1 1
1 1 1 1
0.999924 1 1 0.999924
0.999956 1 1 0.999956
0.999923 1 1 0.999923
0.999995 1 1 0.999995
0.999957 1 1 0.999957
1 1 1 1
0.999996 1 1 0.999996
0.999957 1 1 0.999957
1 1 1 1
1 1 1 1
0.999997 1 1 0.999997
1 1 1 1
1 1 1 1
1 1 1 1
0.999245 0.999244 1 1
0.999802 0.999773 1.00003 1
1.00016 1.00017 0.99999 1
0.999913 1 1 0.999913
0.999922 1 1 0.999922
0.999906 1 1 0.999906
0.999904 1 1 0.999904
0.999911 1 1 0.999911
0.9999 1 1 0.9999
0.999898 1 1 0.999898
0.999892 1 1 0.999892
0.999896 1 1 0.999896
0.999882 1 1 0.999882
0.999883 1 1 0.999883
0.999884 1 1 0.999884
0.995811 1.00109 0.994727 0.999998
0.999886 1.00025 0.99964 1
0.998844 0.998479 1.00036 1
0.991203 1.00317 0.988072 0.999996
0.99284 1.00029 0.992795 0.999751
0.989392 0.991955 0.998001 0.999415
1.00369 0.993448 1.01031 1
1.02076 0.993121 1.02783 1.00001
0.988253 1.00143 0.986838 1
0.992519 0.992595 1.00062 0.999304
0.98239 0.99245 0.989919 0.999944
1.0077 0.996474 1.01131 0.999958
0.992485 0.986553 1.00673 0.999287
0.973673 0.983492 0.990049 0.999967
0.999976 1 1.00008 0.999891
0.999876 1 1 0.999876
0.999866 1 1 0.999866
1.01713 0.999241 1.018 0.999909
1.00421 1 1.00444 0.999774
0.999862 1 1.00005 0.999812
1.00235 1 1.00256 0.999798
1.00829 0.999685 1.00877 0.999843
1.00223 1 1.00237 0.999864
0.997336 0.999692 0.997649 0.999995
0.99909 0.999089 1 1
0.999923 0.999929 0.999995 1
0.99929 1 0.999345 0.999945
0.983685 0.997343 0.986333 0.999972
0.999531 0.999515 1.00001 1
0.995828 0.986099 1.01036 0.999512
0.973441 0.983316 0.989999 0.999957
0.994636 1.00106 0.993584 0.999997
0.987055 1.00063 0.986539 0.999897
0.997471 1.00005 0.997428 0.999996
0.974271 0.980214 0.993973 0.999963
0.976232 1.00184 0.97473 0.999697
0.983795 0.979934 1.00469 0.999253
0.978554 1.00628 0.972639 0.999803
0.976014 0.980427 0.995534 0.999964
0.979173 0.977276 1.00259 0.999353
0.977948 1.0052 0.973178 0.999707
1.01666 1 1.01686 0.999807
1.01087 1 1.01109 0.999778
1.00288 1 1.00305 0.999822
1.0054 1 1.00562 0.999785
1.00156 1 1.00176 0.9998
0.999884 1 1 0.999884
1.00041 1 1.0006 0.999813
0.999855 1 1 0.999855
0.999914 1 1 0.999914
0.999849 1 1 0.999849
0.999879 1 1 0.999879
0.999913 1 1 0.999913
0.999908 1 1 0.999908
0.999885 1 1 0.999885
0.999888 1 1 0.999888
0.999888 1 1 0.999888
0.999875 1 1 0.999875
0.999868 1 1 0.999868
0.99992 1 1 0.99992
0.999895 1 1 0.999895
0.999871 1 1 0.999871
0.999954 1 1 0.999954
0.999927 1 1 0.999927
0.999911 1 1 0.999911
0.999996 1 1 0.999996
0.999958 1 1 0.999958
0.999928 1 1 0.999928
1 1 1 1
0.999996 1 1 0.999996
0.999961 1 1 0.999961
1 1 1 1
1 1 1 1
0.999996 1 1 0.999996
1 1 1 1
1 1 1 1
1 1 1 1
0.999929 1 1 0.999929
0.999925 1 1 0.999925
0.999956 1 1 0.999956
0.999994 1 1 0.999994
0.999956 1 1 0.999956
0.999922 1 1 0.999922
1 1 1 1
0.999995 1 1 0.999995
0.999956 1 1 0.999956
1 1 1 1
1 1 1 1
0.999996 1 1 0.999996
1 1 1 1
1 1 1 1
1 1 1 1
0.998849 1.00011 0.998736 0.999998
0.999171 0.999169 1 1
0.999785 0.99975 1.00004 1
0.999912 1 1 0.999912
0.999913 1 1 0.999913
0.999903 1 1 0.999903
0.999906 1 1 0.999906
0.999913 1 1 0.999913
0.9999 1 1 0.9999
0.999893 1 1 0.999893
0.999899 1 1 0.999899
0.99989 1 1 0.99989
0.999892 1 1 0.999892
0.999883 1 1 0.999883
0.999883 1 1 0.999883
0.977224 0.981259 0.995921 0.999966
0.996404 1.00121 0.995201 0.999999
1.00004 1.00039 0.999648 1
0.989594 1.00103 0.988574 1
0.976504 0.990121 0.986497 0.999747
0.997355 0.994701 1.00314 0.999525
1.02214 0.993248 1.02926 0.99984
1.00889 0.996453 1.01271 0.999781
0.973798 0.983984 0.989875 0.999771
0.994742 0.988989 1.0064 0.999417
1.00393 0.997846 1.00637 0.999728
0.986161 0.982771 1.00413 0.999325
1.00123 1 1.00135 0.999875
0.999969 1 1.00008 0.999892
0.999876 1 1 0.999876
1.0075 1 1.00766 0.999843
1.00249 1 1.00269 0.999801
1.00205 1 1.00218 0.999869
0.999537 1 0.999675 0.999862
0.974582 0.981479 0.993015 0.999958
0.998377 0.99978 0.9986 0.999997
0.999211 0.99921 1 1
0.986153 1.00086 0.985404 0.999902
0.975006 1.00047 0.974602 0.999944
0.997387 0.999972 0.99742 0.999995
0.982321 0.978441 1.00472 0.999248
0.973291 0.980001 0.993377 0.999775
0.978018 1.00563 0.972726 0.999809
0.974682 0.979215 0.995491 0.99988
0.979523 0.975952 1.00435 0.999312
0.976502 1.00461 0.972093 0.999922
0.97621 1.00976 0.966969 0.999796
0.971568 0.972044 1.00026 0.999252
0.992316 1.00284 0.989573 0.999929
1.01088 1 1.01111 0.999775
1.00261 1 1.00279 0.999821
0.99939 1 0.999472 0.999918
1.0013 1 1.0015 0.999802
0.999823 1 0.999937 0.999886
0.999766 1 0.999797 0.999968
0.999858 1 1 0.999858
0.999914 1 1 0.999914
0.99995 1 1 0.99995
0.99988 1 1 0.99988
0.999912 1 1 0.999912
0.999926 1 1 0.999926
0.999915 1 1 0.999915
0.99991 1 1 0.99991
0.999904 1 1 0.999904
0.999893 1 1 0.999893
0.999886 1 1 0.999886
0.99989 1 1 0.99989
0.999908 1 1 0.999908
0.99989 1 1 0.99989
0.999878 1 1 0.999878
0.999948 1 1 0.999948
0.99992 1 1 0.99992
0.999895 1 1 0.999895
0.999994 1 1 0.999994
0.999954 1 1 0.999954
0.999927 1 1 0.999927
1 1 1 1
0.999995 1 1 0.999995
0.999958 1 1 0.999958
1 1 1 1
1 1 1 1
0.999996 1 1 0.999996
1 1 1 1
1 1 1 1
1 1 1 1
0.999928 1 1 0.999928
0.999926 1 1 0.999926
0.999955 1 1 0.999955
0.999926 1 1 0.999926
0.999956 1 1 0.999956
0.999994 1 1 0.999994
1 1 1 1
0.999995 1 1 0.999995
0.999956 1 1 0.999956
1 1 1 1
1 1 1 1
0.999995 1 1 0.999995
1 1 1 1
1 1 1 1
1 1 1 1
0.977963 0.980821 0.997279 0.999806
0.998395 1.00038 0.998016 0.999997
0.999087 0.999085 1 1
0.99991 1 1 0.99991
0.999904 1 1 0.999904
0.999914 1 1 0.999914
0.999913 1 1 0.999913
0.999903 1 1 0.999903
0.999894 1 1 0.999894
0.9999 1 1 0.9999
0.999889 1 1 0.999889
0.999897 1 1 0.999897
0.999886 1 1 0.999886
0.999891 1 1 0.999891
0.99989 1 1 0.99989
0.999882 1 1 0.999882
0.980228 0.980175 1.00086 0.999191
0.977869 0.982116 0.995795 0.999879
0.995859 1.00133 0.994535 0.999999
0.974099 0.983962 0.99001 0.999966
0.99165 0.98594 1.00673 0.999068
1.01027 0.997267 1.01309 0.999956
1.00446 0.998154 1.00649 0.999829
0.985196 0.982114 1.00381 0.999331
0.999651 0.998347 1.00152 0.999788
1.00089 1 1.00109 0.999801
1.00158 1 1.0017 0.999871
0.999893 1 1 0.999893
1.00192 1 1.00205 0.999875
0.999419 1 0.999512 0.999908
0.968815 0.971386 0.997893 0.999458
0.976014 0.980944 0.995161 0.999812
0.999237 0.99985 0.999388 0.999998
0.977387 1.00522 0.972489 0.999815
0.980215 1.00927 0.97151 0.999691
0.976606 0.979727 0.997005 0.999808
0.980845 0.975263 1.00642 0.999304
0.975968 1.00848 0.967968 0.999791
0.97426 0.973368 1.00149 0.999423
0.988593 1.00451 0.98442 0.999727
0.973405 1.00674 0.967014 0.999866
1.00122 0.995425 1.00589 0.999926
1.00211 1 1.00229 0.99982
0.998188 1 0.998269 0.999919
0.99728 1 0.997297 0.999983
0.999649 1 0.999761 0.999888
0.999547 1 0.99958 0.999968
0.99958 1 0.999602 0.999978
0.999915 1 1 0.999915
0.999948 1 1 0.999948
0.99994 1 1 0.99994
0.999912 1 1 0.999912
0.999925 1 1 0.999925
0.999917 1 1 0.999917
0.999916 1 1 0.999916
0.999906 1 1 0.999906
0.999912 1 1 0.999912
0.999903 1 1 0.999903
0.999901 1 1 0.999901
0.999904 1 1 0.999904
0.999893 1 1 0.999893
0.999886 1 1 0.999886
0.999939 1 1 0.999939
0.999909 1 1 0.999909
0.999893 1 1 0.999893
0.999991 1 1 0.999991
0.999948 1 1 0.999948
0.99992 1 1 0.99992
1 1 1 1
0.999994 1 1 0.999994
0.999954 1 1 0.999954
1 1 1 1
1 1 1 1
0.999995 1 1 0.999995
1 1 1 1
1 1 1 1
1 1 1 1
0.999923 1 1 0.999923
0.999928 1 1 0.999928
0.999949 1 1 0.999949
0.999924 1 1 0.999924
0.999953 1 1 0.999953
0.999993 1 1 0.999993
0.999956 1 1 0.999956
0.999994 1 1 0.999994
1 1 1 1
1 1 1 1
1 1 1 1
0.999995 1 1 0.999995
1 1 1 1
1 1 1 1
1 1 1 1
0.974534 0.974779 1.00031 0.999442
0.977115 0.982381 0.994678 0.999961
0.999353 1.00068 0.998676 0.999998
0.999904 1 1 0.999904
0.999915 1 1 0.999915
0.999904 1 1 0.999904
0.999914 1 1 0.999914
0.999911 1 1 0.999911
0.999905 1 1 0.999905
0.999889 1 1 0.999889
0.999897 1 1 0.999897
0.999887 1 1 0.999887
0.999894 1 1 0.999894
0.999889 1 1 0.999889
0.999819 1 1 0.999819
0.999889 1 1 0.999889
0.999887 1 1 0.999887
0.992047 0.994511 0.997549 0.999973
0.976706 0.977215 1.0001 0.999381
0.975203 0.981001 0.994303 0.999786
0.985315 0.982371 1.00371 0.999289
1.00452 0.998095 1.00649 0.999945
0.999764 0.998085 1.00175 0.999931
0.999275 1.00001 0.999492 0.999775
1.00137 1 1.00156 0.999806
1.00195 1 1.00208 0.999867
0.999233 1 0.999279 0.999953
0.993902 0.991684 1.00245 0.99979
0.972091 0.972255 1.00035 0.99948
0.976039 0.981479 0.994495 0.999962
0.975696 1.00698 0.969143 0.999786
0.990284 1.00741 0.983076 0.999923
0.975093 0.972861 1.00269 0.999603
0.976235 1.00459 0.971911 0.999862
0.996746 0.996353 1.00053 0.999867
0.983463 1.00101 0.982535 0.999931
1.00233 1 1.00249 0.999842
0.997037 1 0.997117 0.99992
0.9969 1 0.996918 0.999982
0.997771 1 0.997811 0.99996
0.999479 1 0.999512 0.999967
0.999694 1 0.999717 0.999976
0.999936 1 1 0.999936
0.999946 1 1 0.999946
0.999938 1 1 0.999938
0.99991 1 1 0.99991
0.999923 1 1 0.999923
0.999918 1 1 0.999918
0.9999 1 1 0.9999
0.999918 1 1 0.999918
0.999908 1 1 0.999908
0.9999 1 1 0.9999
0.999903 1 1 0.999903
0.9999 1 1 0.9999
0.999907 1 1 0.999907
0.999927 1 1 0.999927
0.999905 1 1 0.999905
0.999892 1 1 0.999892
0.999985 1 1 0.999985
0.999939 1 1 0.999939
0.999911 1 1 0.999911
1 1 1 1
0.99999 1 1 0.99999
0.999948 1 1 0.999948
1 1 1 1
1 1 1 1
0.999993 1 1 0.999993
1 1 1 1
1 1 1 1
1 1 1 1
0.999921 1 1 0.999921
0.999925 1 1 0.999925
0.999946 1 1 0.999946
0.999928 1 1 0.999928
0.999949 1 1 0.999949
0.999992 1 1 0.999992
0.999951 1 1 0.999951
0.999994 1 1 0.999994
1 1 1 1
0.999994 1 1 0.999994
1 1 1 1
1 1 1 1
1 1 1 1
1 1 1 1
1 1 1 1
0.989052 0.990472 0.998582 0.999984
0.970714 0.97234 0.998896 0.999432
0.976055 0.982428 0.99371 0.999802
0.999906 1 1 0.999906
0.999905 1 1 0.999905
0.999914 1 1 0.999914
0.999905 1 1 0.999905
0.99991 1 1 0.99991
0.999908 1 1 0.999908
0.999897 1 1 0.999897
0.999888 1 1 0.999888
0.999896 1 1 0.999896
0.999896 1 1 0.999896
0.999857 1 1 0.999857
0.999755 1 1 0.999755
0.999826 1 1 0.999826
0.999887 1 1 0.999887
0.997563 1 0.99777 0.999793
0.99327 0.996474 0.996917 0.999867
0.977963 0.977686 1.00072 0.999566
0.999863 0.99906 1.00107 0.999739
0.999721 1.00027 0.99972 0.999727
1.00189 1 1.00208 0.999811
0.999975 1 1.00002 0.999955
0.99512 0.991207 1.00397 0.999974
0.969757 0.972308 0.997922 0.999454
0.978979 1.00232 0.976855 0.999858
0.993034 0.996692 0.996538 0.99979
0.987099 1.00036 0.986822 0.999923
1.00127 1 1.00141 0.999862
0.999871 1 0.999997 0.999874
0.999852 1 1 0.999852
0.996461 1 0.996479 0.999982
0.998577 1 0.998619 0.999958
0.999902 1 1 0.999902
0.999771 1 0.999797 0.999974
0.999935 1 1 0.999935
0.999895 1 1 0.999895
0.999937 1 1 0.999937
0.999911 1 1 0.999911
0.999885 1 1 0.999885
0.999918 1 1 0.999918
0.9999 1 1 0.9999
0.999893 1 1 0.999893
0.999909 1 1 0.999909
0.999901 1 1 0.999901
0.999903 1 1 0.999903
0.9999 1 1 0.9999
0.999906 1 1 0.999906
0.999925 1 1 0.999925
0.999977 1 1 0.999977
0.99993 1 1 0.99993
0.999907 1 1 0.999907
1 1 1 1
0.999984 1 1 0.999984
0.999939 1 1 0.999939
1 1 1 1
1 1 1 1
0.99999 1 1 0.99999
1 1 1 1
1 1 1 1
1 1 1 1
0.999916 1 1 0.999916
0.999922 1 1 0.999922
0.999945 1 1 0.999945
0.999927 1 1 0.999927
0.999947 1 1 0.999947
0.99999 1 1 0.99999
0.999948 1 1 0.999948
0.999992 1 1 0.999992
1 1 1 1
0.999994 1 1 0.999994
1 1 1 1
1 1 1 1
1 1 1 1
1 1 1 1
1 1 1 1
0.998147 1 0.998211 0.999936
0.989522 0.991695 0.998008 0.9998
0.972627 0.973476 0.999659 0.999468
0.999905 1 1 0.999905
0.999891 1 1 0.999891
0.999906 1 1 0.999906
0.999904 1 1 0.999904
0.99991 1 1 0.99991
0.999907 1 1 0.999907
0.999864 1 1 0.999864
0.999897 1 1 0.999897
0.999904 1 1 0.999904
0.999855 1 1 0.999855
0.999789 1 1 0.999789
0.999846 1 1 0.999846
0.999762 1 1 0.999762
0.999834 1 1 0.999834
0.998086 1.00018 0.998105 0.999799
0.992305 0.996079 0.996435 0.999775
1.00004 1.00036 1 0.999679
0.999963 1 1 0.999963
1.00112 1 1.00116 0.999957
0.99332 0.990556 1.00298 0.999811
0.991133 1 0.991216 0.999916
1.00023 1 1.00034 0.999883
0.999329 1 0.99945 0.999879
0.999863 1 1 0.999863
0.999859 1 1 0.999859
0.999924 1 1 0.999924
0.999393 1 0.999436 0.999956
0.999904 1 1 0.999904
0.99987 1 1 0.99987
0.999934 1 1 0.999934
0.999895 1 1 0.999895
0.999873 1 1 0.999873
0.999913 1 1 0.999913
0.999885 1 1 0.999885
0.999879 1 1 0.999879
0.999901 1 1 0.999901
0.999893 1 1 0.999893
0.999895 1 1 0.999895
0.999901 1 1 0.999901
0.999903 1 1 0.999903
0.99992 1 1 0.99992
0.999904 1 1 0.999904
0.999924 1 1 0.999924
0.999969 1 1 0.999969
1 1 1 1
0.999976 1 1 0.999976
0.999932 1 1 0.999932
1 1 1 1
1 1 1 1
0.999983 1 1 0.999983
1 1 1 1
1 1 1 1
1 1 1 1
0.999903 1 1 0.999903
0.999914 1 1 0.999914
0.999939 1 1 0.999939
0.999922 1 1 0.999922
0.999945 1 1 0.999945
0.999987 1 1 0.999987
0.999949 1 1 0.999949
0.99999 1 1 0.99999
1 1 1 1
0.999993 1 1 0.999993
1 1 1 1
1 1 1 1
1 1 1 1
1 1 1 1
1 1 1 1
0.999952 1 1 0.999952
0.998266 1 0.998327 0.999938
0.988793 0.990469 0.998319 0.999989
0.999879 1 1 0.999879
0.99991 1 1 0.99991
0.999863 1 1 0.999863
0.99989 1 1 0.99989
0.999906 1 1 0.999906
0.999818 1 1 0.999818
0.999906 1 1 0.999906
0.999865 1 1 0.999865
0.999826 1 1 0.999826
0.999854 1 1 0.999854
0.99978 1 1 0.99978
0.999842 1 1 0.999842
0.999769 1 1 0.999769
0.998646 1.00047 0.998376 0.999805
0.999968 1 1 0.999968
0.999962 1 1 0.999962
1.0022 1 1.00224 0.99996
0.998842 1 0.998959 0.999883
0.999874 1 1 0.999874
0.999856 1 1 0.999856
0.999926 1 1 0.999926
0.99991 1 1 0.99991
0.999906 1 1 0.999906
0.999873 1 1 0.999873
0.999872 1 1 0.999872
0.999895 1 1 0.999895
0.999871 1 1 0.999871
0.999869 1 1 0.999869
0.999885 1 1 0.999885
0.999879 1 1 0.999879
0.999884 1 1 0.999884
0.999893 1 1 0.999893
0.999895 1 1 0.999895
0.999911 1 1 0.999911
0.999903 1 1 0.999903
0.99992 1 1 0.99992
0.999961 1 1 0.999961
0.999923 1 1 0.999923
0.999969 1 1 0.999969
1 1 1 1
1 1 1 1
1 1 1 1
0.999976 1 1 0.999976
1 1 1 1
1 1 1 1
1 1 1 1
0.999867 1 1 0.999867
0.999889 1 1 0.999889
0.999901 1 1 0.999901
0.999932 1 1 0.999932
0.999912 1 1 0.999912
0.999939 1 1 0.999939
0.999983 1 1 0.999983
0.999945 1 1 0.999945
0.999987 1 1 0.999987
1 1 1 1
0.999991 1 1 0.999991
1 1 1 1
1 1 1 1
1 1 1 1
1 1 1 1
1 1 1 1
0.999919 1 1 0.999919
0.999948 1 1 0.999948
0.998394 1 0.998452 0.999941
0.999838 1 1 0.999838
0.999885 1 1 0.999885
0.999914 1 1 0.999914
0.999866 1 1 0.999866
0.999889 1 1 0.999889
0.999817 1 1 0.999817
0.999815 1 1 0.999815
0.999866 1 1 0.999866
0.999823 1 1 0.999823
0.999772 1 1 0.999772
0.999839 1 1 0.999839
0.999958 1 1 0.999958
0.999967 1 1 0.999967
0.99996 1 1 0.99996
0.999853 1 1 0.999853
0.999927 1 1 0.999927
0.999909 1 1 0.999909
0.999908 1 1 0.999908
0.999875 1 1 0.999875
0.999869 1 1 0.999869
0.999879 1 1 0.999879
0.99987 1 1 0.99987
0.999869 1 1 0.999869
0.999874 1 1 0.999874
0.999879 1 1 0.999879
0.999884 1 1 0.999884
0.999901 1 1 0.999901
0.999895 1 1 0.999895
0.999911 1 1 0.999911
0.999952 1 1 0.999952
0.99992 1 1 0.99992
0.999961 1 1 0.999961
1 1 1 1
0.999968 1 1 0.999968
1 1 1 1
1 1 1 1
1 1 1 1
1 1 1 1
1 1 1 1
0.999843 1 1 0.999843
0.999886 1 1 0.999886
0.999875 1 1 0.999875
0.99992 1 1 0.99992
0.999889 1 1 0.999889
0.999899 1 1 0.999899
0.999932 1 1 0.999932
0.999977 1 1 0.999977
0.999939 1 1 0.999939
0.999983 1 1 0.999983
1 1 1 1
0.999988 1 1 0.999988
1 1 1 1
1 1 1 1
1 1 1 1
1 1 1 1
1 1 1 1
0.999893 1 1 0.999893
0.99992 1 1 0.99992
0.999943 1 1 0.999943
0.99983 1 1 0.99983
0.999838 1 1 0.999838
0.999891 1 1 0.999891
0.999869 1 1 0.999869
0.999818 1 1 0.999818
0.999812 1 1 0.999812
0.999821 1 1 0.999821
0.999939 1 1 0.999939
0.99995 1 1 0.99995
0.999965 1 1 0.999965
0.999912 1 1 0.999912
0.999908 1 1 0.999908
0.999908 1 1 0.999908
0.9999 1 1 0.9999
0.999866 1 1 0.999866
0.99988 1 1 0.99988
0.999879 1 1 0.999879
0.999869 1 1 0.999869
0.999875 1 1 0.999875
0.999892 1 1 0.999892
0.999884 1 1 0.999884
0.999901 1 1 0.999901
0.999942 1 1 0.999942
0.999911 1 1 0.999911
0.999952 1 1 0.999952
1 1 1 1
0.999961 1 1 0.999961
1 1 1 1
1 1 1 1
1 1 1 1
1 1 1 1
1 1 1 1
0.999834 1 1 0.999834
0.999859 1 1 0.999859
0.999847 1 1 0.999847
0.999912 1 1 0.999912
0.999884 1 1 0.999884
0.999883 1 1 0.999883
0.999966 1 1 0.999966
0.99992 1 1 0.99992
0.99989 1 1 0.99989
0.999932 1 1 0.999932
0.999978 1 1 0.999978
1 1 1 1
0.999984 1 1 0.999984
1 1 1 1
1 1 1 1
1 1 1 1
1 1 1 1
1 1 1 1
0.999882 1 1 0.999882
0.999888 1 1 0.999888
0.99992 1 1 0.99992
0.999824 1 1 0.999824
0.999838 1 1 0.999838
0.999818 1 1 0.999818
0.999915 1 1 0.999915
0.999942 1 1 0.999942
0.999943 1 1 0.999943
0.999909 1 1 0.999909
0.999903 1 1 0.999903
0.999907 1 1 0.999907
0.9999 1 1 0.9999
0.999896 1 1 0.999896
0.99988 1 1 0.99988
0.999879 1 1 0.999879
0.999891 1 1 0.999891
0.999875 1 1 0.999875
0.999892 1 1 0.999892
0.999933 1 1 0.999933
0.999901 1 1 0.999901
0.999942 1 1 0.999942
0.999999 1 1 0.999999
0.999952 1 1 0.999952
1 1 1 1
1 1 1 1
1 1 1 1
1 1 1 1
1 1 1 1
0.999878 1 1 0.999878
0.999843 1 1 0.999843
0.999833 1 1 0.999833
0.999889 1 1 0.999889
0.999862 1 1 0.999862
0.999851 1 1 0.999851
0.999953 1 1 0.999953
0.999907 1 1 0.999907
0.999883 1 1 0.999883
1 1 1 1
0.999967 1 1 0.999967
0.99992 1 1 0.99992
0.999978 1 1 0.999978
1 1 1 1
1 1 1 1
1 1 1 1
1 1 1 1
1 1 1 1
0.999875 1 1 0.999875
0.99988 1 1 0.99988
0.999883 1 1 0.999883
0.999819 1 1 0.999819
0.999899 1 1 0.999899
0.999918 1 1 0.999918
0.999945 1 1 0.999945
0.999905 1 1 0.999905
0.999904 1 1 0.999904
0.999907 1 1 0.999907
0.9999 1 1 0.9999
0.999896 1 1 0.999896
0.999899 1 1 0.999899
0.99988 1 1 0.99988
0.999891 1 1 0.999891
0.999928 1 1 0.999928
0.999892 1 1 0.999892
0.999933 1 1 0.999933
0.999997 1 1 0.999997
0.999942 1 1 0.999942
0.999998 1 1 0.999998
1 1 1 1
0.999999 1 1 0.999999
1 1 1 1
1 1 1 1
0.999878 1 1 0.999878
0.99987 1 1 0.99987
0.999877 1 1 0.999877
0.999867 1 1 0.999867
0.999848 1 1 0.999848
0.999831 1 1 0.999831
0.99993 1 1 0.99993
0.999888 1 1 0.999888
0.999864 1 1 0.999864
0.999999 1 1 0.999999
0.999949 1 1 0.999949
0.999902 1 1 0.999902
1 1 1 1
1 1 1 1
0.999967 1 1 0.999967
1 1 1 1
1 1 1 1
1 1 1 1
0.999882 1 1 0.999882
0.999882 1 1 0.999882
0.999877 1 1 0.999877
0.999908 1 1 0.999908
0.999899 1 1 0.999899
0.99992 1 1 0.99992
0.999905 1 1 0.999905
0.999907 1 1 0.999907
0.999918 1 1 0.999918
0.999896 1 1 0.999896
0.999902 1 1 0.999902
0.999928 1 1 0.999928
0.999892 1 1 0.999892
0.999928 1 1 0.999928
0.999995 1 1 0.999995
0.999933 1 1 0.999933
0.999996 1 1 0.999996
1 1 1 1
0.999998 1 1 0.999998
1 1 1 1
1 1 1 1
0.999877 1 1 0.999877
0.999883 1 1 0.999883
0.999877 1 1 0.999877
0.999879 1 1 0.999879
0.999871 1 1 0.999871
0.999876 1 1 0.999876
0.999914 1 1 0.999914
0.999871 1 1 0.999871
0.999853 1 1 0.999853
0.999996 1 1 0.999996
0.999928 1 1 0.999928
0.999888 1 1 0.999888
1 1 1 1
0.999999 1 1 0.999999
0.999945 1 1 0.999945
1 1 1 1
1 1 1 1
1 1 1 1
0.999894 1 1 0.999894
0.999883 1 1 0.999883
0.999888 1 1 0.999888
0.999917 1 1 0.999917
0.999906 1 1 0.999906
0.9999 1 1 0.9999
0.999908 1 1 0.999908
0.999918 1 1 0.999918
0.999938 1 1 0.999938
0.999904 1 1 0.999904
0.99993 1 1 0.99993
0.999993 1 1 0.999993
0.999929 1 1 0.999929
0.999994 1 1 0.999994
1 1 1 1
0.999996 1 1 0.999996
1 1 1 1
1 1 1 1
0.999888 1 1 0.999888
0.999873 1 1 0.999873
0.999892 1 1 0.999892
0.999884 1 1 0.999884
0.999876 1 1 0.999876
0.999919 1 1 0.999919
0.999878 1 1 0.999878
0.999872 1 1 0.999872
0.999993 1 1 0.999993
0.999916 1 1 0.999916
0.999876 1 1 0.999876
1 1 1 1
0.999997 1 1 0.999997
0.999925 1 1 0.999925
1 1 1 1
1 1 1 1
1 1 1 1
0.999908 1 1 0.999908
0.999894 1 1 0.999894
0.999883 1 1 0.999883
0.999938 1 1 0.999938
0.999918 1 1 0.999918
0.999905 1 1 0.999905
0.999918 1 1 0.999918
0.999937 1 1 0.999937
0.999993 1 1 0.999993
0.999931 1 1 0.999931
0.999993 1 1 0.999993
1 1 1 1
0.999993 1 1 0.999993
1 1 1 1
1 1 1 1
0.9999 1 1 0.9999
0.999886 1 1 0.999886
0.999869 1 1 0.999869
0.999926 1 1 0.999926
0.999892 1 1 0.999892
0.999884 1 1 0.999884
0.999992 1 1 0.999992
0.999918 1 1 0.999918
0.999877 1 1 0.999877
1 1 1 1
0.999994 1 1 0.999994
0.999918 1 1 0.999918
1 1 1 1
0.999998 1 1 0.999998
1 1 1 1
0.999937 1 1 0.999937
0.999907 1 1 0.999907
0.999894 1 1 0.999894
0.999993 1 1 0.999993
0.999938 1 1 0.999938
0.999918 1 1 0.999918
0.999936 1 1 0.999936
0.999993 1 1 0.999993
1 1 1 1
0.999993 1 1 0.999993
1 1 1 1
1 1 1 1
0.999933 1 1 0.999933
0.9999 1 1 0.9999
0.999883 1 1 0.999883
0.999993 1 1 0.999993
0.999926 1 1 0.999926
0.999892 1 1 0.999892
1 1 1 1
0.999992 1 1 0.999992
0.999918 1 1 0.999918
1 1 1 1
0.999995 1 1 0.999995
1 1 1 1
0.999992 1 1 0.999992
0.999936 1 1 0.999936
0.999906 1 1 0.999906
1 1 1 1
0.999992 1 1 0.999992
0.999938 1 1 0.999938
0.999993 1 1 0.999993
1 1 1 1
1 1 1 1
0.999993 1 1 0.999993
0.999933 1 1 0.999933
0.999899 1 1 0.999899
1 1 1 1
0.999992 1 1 0.999992
0.999926 1 1 0.999926
1 1 1 1
0.999992 1 1 0.999992
1 1 1 1
1 1 1 1
0.999992 1 1 0.999992
0.999934 1 1 0.999934
1 1 1 1
0.999992 1 1 0.999992
1 1 1 1
1 1 1 1
0.999993 1 1 0.999993
0.999933 1 1 0.999933
1 1 1 1
0.999992 1 1 0.999992
1 1 1 1
1 1 1 1
0.999992 1 1 0.999992
1 1 1 1
1 1 1 1
0.999993 1 1 0.999993
1 1 1 1
1 1 1 1
1 1 1 1

VECTORS lamdaE float
0.999267 0.998344 0.997833
0.999405 0.997636 0.999202
0.999261 0.998318 0.99786
0.998991 0.999416 0.997398
0.999175 0.998715 0.997677
0.999336 0.998004 0.998003
0.999499 0.999393 0.996255
0.99942 0.997625 0.999214
0.999128 0.998586 0.99904
0.999333 0.997869 0.99918
0.999492 0.997401 0.99824
0.999566 0.998844 0.99646
0.998685 1.00022 0.997319
0.998786 0.999757 0.997475
0.999254 0.998292 0.997887
0.998986 0.99941 0.997421
0.999331 0.997979 0.998028
0.999171 0.998689 0.997702
0.999499 0.999411 0.996257
0.998752 0.999898 0.998861
0.998922 0.999655 0.997332
0.999073 0.99909 0.997531
0.999555 0.999942 0.995649
0.999507 0.999593 0.996059
0.999411 0.997702 0.998139
0.999491 0.999168 0.996471
1.00003 1.00061 0.994065
0.999434 0.997613 0.999226
0.999136 0.998661 0.998374
0.999341 0.997909 0.998605
0.999485 0.997389 0.999247
0.999561 0.998817 0.996465
0.999006 0.999159 0.997585
0.999231 0.998308 0.9979
0.999505 0.9996 0.996401
0.99956 0.997147 0.999281
0.999522 0.999077 0.996842
0.999616 0.998601 0.996598
0.99991 1.00045 0.99418
0.999699 0.996857 0.99928
0.998678 1.00002 0.998851
0.998777 0.999706 0.998187
0.998693 1.0001 0.998825
0.998697 1 0.997428
0.999432 1.00049 0.995014
0.998891 0.999315 0.998948
0.999434 1.00017 0.995976
0.998981 0.999404 0.997444
0.999167 0.99866 0.997729
0.999325 0.997957 0.998052
0.9995 0.999432 0.996258
0.998748 0.999959 0.998104
0.998914 0.999661 0.997346
0.999407 0.997681 0.998156
0.999071 0.99907 0.997556
0.999558 0.999949 0.995653
0.999494 0.999183 0.996475
0.999509 0.999604 0.996061
1.00005 1.00061 0.994037
0.998731 1 0.998846
0.998823 0.999849 0.997351
0.999509 1.00023 0.995793
0.999587 1.00003 0.995516
0.999518 0.999787 0.995859
1.00048 1.00047 0.993311
1.00015 1.00052 0.99375
0.999522 0.997441 0.998214
0.999525 0.99887 0.996683
0.999889 1.00064 0.994303
1.00049 1.00069 0.992803
0.999159 0.998555 0.999054
0.999505 0.997378 0.999259
0.999358 0.997877 0.999183
0.999557 0.99879 0.99647
0.999006 0.999008 0.998965
0.999229 0.99824 0.999096
0.999486 0.999673 0.995763
0.999571 0.997167 0.998783
0.999522 0.999077 0.996298
0.999616 0.998564 0.996866
0.999895 1.00049 0.994173
0.99963 0.996997 0.999277
0.999822 0.998019 0.996759
0.999495 0.999916 0.99547
0.999499 0.999407 0.995993
1.00011 1.00055 0.993657
0.999689 0.998329 0.997201
0.999945 1.0005 0.994055
0.999891 1.00033 0.994349
1.00015 1.00093 0.993216
0.999753 0.99674 0.999286
0.999709 0.996865 0.999282
0.998816 0.999564 0.99892
0.998676 0.999983 0.998868
0.998686 1.00009 0.99883
0.998697 0.999948 0.998146
0.999421 1.00044 0.995417
0.998902 0.999391 0.998223
0.999432 1.00021 0.995629
0.998709 1.00008 0.998829
0.999465 1.00048 0.994939
0.999415 1.00031 0.995892
1.0005 1.00059 0.99283
0.999478 0.999997 0.99607
1.00039 1.00053 0.993123
0.998754 1.00002 0.99733
0.998906 0.999669 0.99736
0.999403 0.997659 0.998173
0.999067 0.999047 0.997583
0.999561 0.999955 0.995658
0.999512 0.999618 0.996062
0.999497 0.999196 0.996479
1.00007 1.00061 0.994009
0.998729 1.00001 0.998838
0.998818 0.999847 0.997361
0.999516 1.00026 0.995252
0.999589 1.00004 0.995515
0.9995 0.99742 0.99873
0.99953 0.998867 0.996842
0.999522 0.999793 0.995863
1.00049 1.00046 0.993232
0.999919 1.00064 0.994268
1.00017 1.00053 0.993795
1.00048 1.00069 0.992808
0.999504 1.00037 0.994969
0.999546 1.00012 0.995521
1.00065 1.00042 0.992884
1.00061 1.00038 0.992994
1.0003 1.00049 0.99349
1.00101 1.00038 0.992209
0.999589 0.997217 0.999254
1.00063 1.0005 0.992699
0.99962 0.998575 0.996597
0.999824 1.00057 0.99421
1.00031 1.00096 0.99292
1.00071 1.00067 0.992372
0.999773 0.998197 0.996654
1.00002 0.999997 0.994407
0.999047 0.998929 0.998988
0.999263 0.998191 0.999126
0.999447 0.999714 0.995755
0.999583 0.997174 0.999275
0.999614 0.998531 0.996625
0.999503 0.99907 0.996284
0.999879 1.00053 0.994166
0.999644 0.997003 0.999278
0.999823 0.998006 0.996759
0.999476 0.99989 0.99585
0.999482 0.999386 0.996329
1.00011 1.00055 0.993656
0.999697 0.998311 0.996721
0.99993 1.00053 0.99405
0.999876 1.00035 0.994347
1.00016 1.00092 0.993185
0.999767 0.998145 0.996746
0.999864 0.997911 0.996782
1.00001 0.999857 0.994569
1.00023 1.00051 0.993441
0.999999 1.00056 0.993889
1.00057 1.0006 0.992722
0.999927 1.00009 0.994507
1.00026 1.00074 0.993134
1.00008 1.00107 0.993261
1.00026 1.00119 0.992824
0.999796 0.996638 0.999294
0.99976 0.996749 0.999289
0.99972 0.996874 0.999284
0.999821 0.998078 0.996678
0.99966 0.997066 0.999259
0.998929 0.999272 0.998945
0.998725 0.999806 0.998898
0.999407 1.00028 0.995268
0.999404 1.0005 0.995047
0.998678 1.00007 0.998837
0.998707 1.00008 0.998825
0.999459 1.00049 0.994943
0.999407 1.00035 0.995542
1.0005 1.00059 0.992831
0.999465 1.00009 0.995364
1.00039 1.00053 0.993126
0.999492 1.00043 0.994923
1.00058 1.00059 0.99266
1.00043 1.00056 0.992995
1.00096 1.00059 0.991924
1.00032 1.00051 0.993266
1.00087 1.00044 0.992262
0.998727 1.00002 0.998831
0.998813 0.999844 0.997372
0.999519 1.00028 0.994718
0.999591 1.00005 0.995515
0.999476 0.997396 0.99925
0.999534 0.998864 0.997001
0.999527 0.9998 0.995866
1.00049 1.00044 0.993153
1.00019 1.00054 0.993839
0.999949 1.00064 0.994233
1.00047 1.0007 0.992814
0.999505 1.00037 0.994968
0.999552 1.00012 0.995517
1.00065 1.00041 0.992733
1.00062 1.00039 0.993039
0.999571 0.997216 0.999252
0.999616 0.998595 0.996843
0.999853 1.00053 0.994356
1.00031 1.00048 0.99349
1.001 1.00036 0.992123
1.00028 1.00096 0.992902
1.00064 1.0005 0.992741
1.00071 1.00067 0.992381
0.99977 0.998213 0.996654
1.00002 0.999993 0.994412
1.00063 1.00048 0.992654
1.00066 1.00037 0.992913
1.00117 1.00039 0.991877
1.00114 1.00027 0.991819
1.00077 1.00042 0.992563
1.00125 1.00026 0.991778
0.9997 0.998361 0.996634
1.00088 1.00039 0.992315
0.999853 1.00039 0.99434
1.0001 1.00106 0.993081
1.00054 1.00111 0.992465
1.00083 1.00056 0.992278
0.999981 1.00007 0.994411
1.00003 0.999922 0.994455
1.00015 1.00108 0.993089
0.999448 0.999952 0.995515
0.999659 0.99701 0.999279
0.999824 0.997994 0.996759
0.999458 0.999401 0.996041
1.00011 1.00055 0.993654
0.999692 0.998293 0.996719
0.999861 1.00038 0.994345
0.999915 1.00057 0.994045
1.00016 1.00091 0.993154
0.999767 0.998132 0.996746
0.999865 0.997898 0.996783
1.00001 0.999861 0.994567
1.00024 1.00051 0.993439
0.999988 1.00057 0.993887
1.00056 1.00061 0.992722
0.999917 1.00011 0.994507
1.00027 1.00074 0.993166
1.00008 1.00108 0.993254
1.00026 1.00118 0.992783
0.999897 0.997811 0.996814
0.999978 0.999928 0.994565
1.00003 0.999797 0.994582
1.00014 1.0009 0.993295
1.00071 1.00048 0.992532
1.00039 1.00071 0.992995
1.00076 1.00067 0.992263
1.0001 1.00096 0.993331
1.0004 1.0009 0.992757
1.00015 1.00151 0.992683
1.00034 1.00126 0.992502
1.00007 0.999519 0.99478
0.99995 0.997634 0.996878
0.999832 0.996547 0.999303
0.9998 0.996646 0.999297
0.999767 0.996758 0.999291
0.999851 0.997975 0.996723
0.99971 0.996944 0.999267
0.999817 0.998094 0.996677
0.999647 0.997058 0.999258
0.999434 1.00013 0.995364
0.999388 1.00041 0.995169
1.00039 1.00053 0.993128
1.0005 1.00059 0.992833
0.999453 1.00049 0.994947
0.998707 1.00008 0.998824
0.999494 1.00043 0.994922
1.00058 1.00059 0.992662
1.00043 1.00056 0.992997
1.00097 1.00059 0.99192
1.00033 1.00051 0.993266
1.00087 1.00045 0.992264
1.00063 1.00055 0.992607
1.00103 1.00063 0.991759
1.00093 1.0005 0.992096
1.00117 1.0005 0.99163
1.00081 1.00043 0.992406
1.0011 1.00034 0.991935
0.999508 1.00037 0.994966
0.999559 1.00012 0.995511
1.00065 1.0004 0.992581
1.00063 1.00039 0.993085
0.999554 0.997215 0.99925
0.999613 0.998616 0.997087
0.999881 1.0005 0.994502
1.00031 1.00048 0.993489
1.00098 1.00034 0.992037
1.00066 1.0005 0.992784
1.00025 1.00097 0.992883
1.0007 1.00067 0.992389
0.999767 0.99823 0.996654
1.00002 0.99999 0.994417
1.00063 1.00048 0.992596
1.00066 1.00035 0.992914
1.00116 1.00036 0.991855
1.00115 1.00029 0.991913
0.999699 0.998378 0.996633
0.999871 1.00037 0.994341
1.0001 1.00107 0.993138
1.00079 1.00042 0.992568
1.00124 1.00022 0.99176
1.00051 1.00111 0.992403
1.00088 1.00039 0.992317
1.00082 1.00055 0.992268
0.999984 1.00006 0.994416
1.00016 1.00106 0.993047
1.00003 0.999926 0.994456
1.00111 1.00052 0.991851
1.00122 1.00026 0.991821
1.00139 1.00031 0.991407
1.00142 1.00017 0.991459
1.00099 1.00026 0.992159
1.00138 0.99994 0.991812
0.999916 1.0002 0.994409
1.00098 1.00021 0.99227
1.00008 1.00101 0.993303
1.00024 1.00135 0.992528
1.00063 1.00121 0.99209
1.0009 1.00039 0.992434
1.00004 0.999816 0.99456
1.00014 1.00098 0.993201
1.00014 1.00119 0.992898
1.00022 1.00156 0.992599
1.00024 1.00051 0.993437
0.999866 0.997885 0.996784
0.999768 0.998119 0.996746
1.00001 0.999864 0.994565
0.999977 1.00059 0.993886
1.00056 1.00061 0.992722
0.999906 1.00012 0.994507
1.00008 1.00108 0.993246
1.00027 1.00074 0.993199
1.00025 1.00117 0.992741
0.999898 0.997799 0.996815
0.999974 0.999934 0.994563
1.00003 0.9998 0.994581
1.00013 1.00091 0.993292
1.00072 1.00048 0.992528
1.00038 1.00071 0.993
1.00076 1.00067 0.992262
1.00009 1.00098 0.99333
1.00041 1.0009 0.9928
1.00016 1.00152 0.992669
1.00032 1.00122 0.992592
0.999925 0.997718 0.996849
1.00005 0.99973 0.994613
1.00014 1.00086 0.993339
1.00013 1.00094 0.993268
1.00019 1.00148 0.992621
1.00092 1.00045 0.992133
1.00054 1.00084 0.992552
1.00083 1.00074 0.992069
1.00016 1.00149 0.992695
1.00047 1.00105 0.99249
1.00022 1.00179 0.99211
1.00007 0.99959 0.994715
1.00011 1.00086 0.993393
1.00008 0.999452 0.994843
1.00007 0.999516 0.994782
0.999971 0.997539 0.997372
0.999949 0.997626 0.997115
0.999874 0.996492 0.99838
0.999835 0.996552 0.999306
0.999805 0.996654 0.9993
0.999874 0.997871 0.996784
0.999747 0.996832 0.999279
0.999849 0.99799 0.99672
0.999703 0.996934 0.999265
0.999814 0.99811 0.996677
0.999634 0.99705 0.999256
1.00033 1.00051 0.993267
1.00044 1.00056 0.992999
1.00087 1.00045 0.992265
1.00098 1.00059 0.991917
1.00058 1.00059 0.992665
0.999492 1.00043 0.994922
1.00063 1.00055 0.992607
1.00103 1.00063 0.991758
1.00093 1.0005 0.992097
1.00118 1.00049 0.991622
1.00081 1.00044 0.992404
1.00109 1.00035 0.991937
1.00108 1.00061 0.991692
1.00116 1.00057 0.991545
1.00116 1.00039 0.99175
1.00131 1.00032 0.991572
1.00102 1.00035 0.992075
1.00122 1.00001 0.99205
1.00063 1.00049 0.992538
1.00066 1.00034 0.992916
1.00114 1.00034 0.991832
1.00116 1.00031 0.992008
0.999699 0.998396 0.996632
0.999887 1.00034 0.994343
1.0001 1.00107 0.993195
1.00081 1.00043 0.992574
1.00123 1.00018 0.991741
1.00088 1.00039 0.992319
1.00048 1.0011 0.992341
1.00081 1.00053 0.992258
0.999987 1.00005 0.994421
1.00017 1.00103 0.993005
1.00003 0.999929 0.994458
1.0011 1.00052 0.991794
1.00122 1.00026 0.991819
1.0014 1.0003 0.991354
1.00143 1.00016 0.991477
0.999927 1.00018 0.994412
1.00009 1.001 0.993302
1.00024 1.00137 0.992587
1.00101 1.00029 0.992181
1.00136 0.999871 0.991852
1.0006 1.00124 0.992031
1.00099 1.00021 0.992273
1.00088 1.00031 0.992469
1.00015 1.00096 0.993208
1.00022 1.00153 0.992542
1.00003 0.999822 0.994558
1.00014 1.00118 0.992895
1.0013 1.00051 0.991375
1.00156 1.00014 0.991299
1.0015 1.00031 0.991097
1.00155 0.99987 0.991441
1.00111 0.999995 0.992209
1.0015 0.999469 0.992051
1.0001 1.00096 0.993303
1.00102 0.999819 0.992573
1.00016 1.00129 0.992765
1.00033 1.00175 0.992088
1.00068 1.0013 0.991843
1.00098 1.00018 0.992495
1.00003 0.999721 0.994672
1.00012 1.00119 0.992913
1.00024 1.00129 0.992717
1.00017 1.00191 0.992271
1.00029 1.00166 0.992327
0.9999 0.997787 0.996817
1.00073 1.00049 0.992523
1.00003 0.999802 0.994579
0.99997 0.99994 0.994561
1.00013 1.00092 0.993288
1.00037 1.00071 0.993006
1.00076 1.00068 0.992261
1.00008 1.00099 0.993329
1.00016 1.00153 0.992655
1.00041 1.00091 0.992843
1.0003 1.00117 0.992682
0.999926 0.997709 0.996851
1.00005 0.999731 0.994612
1.00013 1.00088 0.993337
1.00013 1.00095 0.993264
1.00019 1.00147 0.992608
1.00094 1.00045 0.992126
1.00054 1.00085 0.992554
1.00083 1.00075 0.992049
1.00015 1.00149 0.9927
1.00047 1.00105 0.992522
1.00025 1.00176 0.992158
1.00007 0.99966 0.994658
1.00013 1.00096 0.993256
1.00021 1.00137 0.99267
1.00017 1.0016 0.992549
1.00022 1.00177 0.992333
1.00102 1.00035 0.992042
1.0006 1.00098 0.992291
1.00077 1.00069 0.992137
1.00019 1.00196 0.992156
1.00043 1.0018 0.991832
1.00007 0.999586 0.994716
1.00012 1.00092 0.99319
1.00011 1.00087 0.993327
1.0001 1.00177 0.992643
1.00009 1.00082 0.993465
1.00008 0.999396 0.994894
1.00008 0.999453 0.994845
0.999996 0.99746 0.997396
1.00008 0.999513 0.994784
0.999972 0.997548 0.997375
0.99991 0.996411 0.998397
0.999948 0.997619 0.99735
0.999869 0.996465 0.998847
0.999838 0.996558 0.999309
0.999898 0.997749 0.996862
0.999875 0.997882 0.996779
0.99978 0.99671 0.999293
0.999743 0.996825 0.999275
0.999847 0.998005 0.996717
0.999695 0.996925 0.999262
1.00081 1.00044 0.992401
1.00093 1.0005 0.992099
1.00109 1.00035 0.991939
1.00119 1.00048 0.991615
1.00103 1.00064 0.991756
1.00063 1.00055 0.992607
1.00107 1.00061 0.991694
1.00117 1.00058 0.991531
1.00116 1.0004 0.991752
1.00131 1.00032 0.991561
1.00102 1.00036 0.99207
1.00122 0.999987 0.992058
1.00122 1.0006 0.991448
1.00118 1.00055 0.991537
1.00129 1.00006 0.991741
1.00137 1.00031 0.991534
1.00113 1.00005 0.992107
1.00134 0.999633 0.992253
1.00108 1.00051 0.991738
1.00122 1.00026 0.991817
1.0014 1.00029 0.9913
1.00144 1.00016 0.991496
0.999936 1.00017 0.994416
1.0001 1.00099 0.993302
1.00023 1.00139 0.992646
1.00102 1.00032 0.992203
1.00135 0.999802 0.991891
1.00099 1.00021 0.992277
1.00058 1.00128 0.991971
1.00086 1.00024 0.992504
1.00016 1.00094 0.993214
1.00023 1.0015 0.992486
1.00003 0.999828 0.994557
1.00015 1.00118 0.992893
1.00129 1.00051 0.991387
1.00154 1.00015 0.991312
1.00152 1.00033 0.991054
1.00156 0.999879 0.991451
1.00012 1.00094 0.993306
1.00016 1.00129 0.99281
1.00032 1.00178 0.992083
1.00113 1.00004 0.99218
1.00143 0.999433 0.992164
1.00067 1.00135 0.991815
1.00102 0.999832 0.992578
1.00094 1.00002 0.992601
1.00024 1.00129 0.992719
1.0003 1.00162 0.992302
1.00017 1.00192 0.992256
1.00003 0.999716 0.994576
1.00012 1.00118 0.992928
1.00138 1.00052 0.991209
1.00171 1.0001 0.990931
1.00166 0.999416 0.99172
1.00128 0.999383 0.992468
1.00021 1.00121 0.992863
1.00119 0.999279 0.992902
1.00013 1.00166 0.992396
1.00039 1.00217 0.991549
1.0008 1.00124 0.991675
1.00004 0.999569 0.994616
1.0001 1.00108 0.993255
1.00011 1.00209 0.992167
1.0003 1.00139 0.992497
1.00025 1.00228 0.991757
1.00035 1.00169 0.992061
0.999927 0.997699 0.996853
1.00005 0.999732 0.99461
1.00095 1.00045 0.992119
1.00012 1.00096 0.993261
1.00012 1.00089 0.993334
1.00019 1.00146 0.992594
1.00053 1.00085 0.992555
1.00083 1.00076 0.99203
1.00015 1.00149 0.992704
1.00028 1.00172 0.992205
1.00047 1.00105 0.992553
1.00006 0.99966 0.994657
1.00013 1.00096 0.993252
1.0002 1.00135 0.992711
1.00017 1.00161 0.992542
1.00021 1.00177 0.992295
1.00102 1.00038 0.992029
1.00061 1.00098 0.992276
1.00079 1.00067 0.992161
1.00018 1.00196 0.992123
1.00044 1.00187 0.991763
1.00013 1.00095 0.993262
1.00016 1.0017 0.992368
1.00024 1.00175 0.992253
1.00021 1.00191 0.992089
1.00028 1.00191 0.992056
1.00117 0.999495 0.992578
1.00063 1.00147 0.991776
1.00085 1.00045 0.991944
1.00029 1.00232 0.991733
1.00043 1.00231 0.991032
1.00007 0.999582 0.994717
1.00012 1.00093 0.993243
1.00011 1.0018 0.99238
1.00011 1.00088 0.993261
1.00009 1.00082 0.993464
1.00009 1.00178 0.99254
1.0001 1.00237 0.992008
1.00008 1.00176 0.992471
1.00007 1.00079 0.993538
1.00008 0.999362 0.994926
1.00008 0.999399 0.994896
1.00002 0.99738 0.997419
1.00008 0.999452 0.994847
0.999996 0.997469 0.9974
0.999944 0.996323 0.998411
0.999973 0.997556 0.997379
0.999907 0.996378 0.998397
0.999863 0.996436 0.999317
0.999931 0.997599 0.996946
0.999901 0.997757 0.996857
0.999817 0.996563 0.999312
0.999875 0.997893 0.996775
0.999779 0.996711 0.999289
0.99974 0.996818 0.999271
1.00102 1.00036 0.992064
1.00116 1.0004 0.991753
1.00122 0.99996 0.992065
1.00132 1.00031 0.991551
1.00118 1.00059 0.991517
1.00107 1.00061 0.991697
1.00121 1.00061 0.991434
1.00119 1.00054 0.991541
1.00132 1.00007 0.991704
1.00135 1.00033 0.991478
1.00112 1.00009 0.992106
1.00131 0.999526 0.992343
1.00117 1.00057 0.991531
1.00116 1.00055 0.99159
1.00138 0.999913 0.991784
1.00128 0.99923 0.992702
1.00128 1.00051 0.991398
1.00153 1.00015 0.991325
1.00153 1.00035 0.991011
1.00157 0.99989 0.991462
1.00013 1.00092 0.99331
1.00016 1.00129 0.992856
1.00031 1.00181 0.992078
1.00115 1.00009 0.992151
1.00136 0.999396 0.992277
1.00102 0.999844 0.992583
1.00066 1.0014 0.991788
1.00091 0.999873 0.992707
1.00024 1.00129 0.992721
1.0003 1.00159 0.992277
1.00017 1.00194 0.992241
1.00003 0.999714 0.99448
1.00013 1.00117 0.992943
1.00139 1.0005 0.991167
1.00169 1.00011 0.990994
1.00163 0.999465 0.991753
1.00022 1.0012 0.99286
1.00017 1.00165 0.992462
1.00037 1.00222 0.991532
1.0013 0.999424 0.992425
1.00079 1.00112 0.991812
1.00114 0.999305 0.992871
1.00003 0.99955 0.994638
1.0003 1.00141 0.992492
1.00035 1.00164 0.992108
1.00025 1.00225 0.991797
1.00012 1.00212 0.992198
1.0001 1.00108 0.993156
1.0015 1.00044 0.991097
1.00179 0.999919 0.990963
1.00166 0.998886 0.992169
1.00153 0.998505 0.992954
1.00025 1.00141 0.992581
1.00109 1.00011 0.992207
1.00018 1.00222 0.991776
1.00048 1.00254 0.991118
1.00005 0.999365 0.994797
1.00009 1.00093 0.993421
1.00009 1.00207 0.992359
1.00016 1.00275 0.991417
1.00034 1.00157 0.992189
1.00035 1.00218 0.991606
1.00006 0.999659 0.994657
1.00013 1.00097 0.993248
1.00102 1.00042 0.992016
1.00017 1.00162 0.992535
1.0002 1.00134 0.992752
1.00021 1.00178 0.992257
1.00062 1.00097 0.992261
1.00082 1.00065 0.992185
1.00017 1.00195 0.992089
1.00044 1.00196 0.991695
1.00013 1.00095 0.99326
1.00016 1.00172 0.992406
1.00023 1.00174 0.99231
1.0002 1.00191 0.992139
1.00025 1.00189 0.992094
1.00119 0.999525 0.99264
1.00066 1.00142 0.991814
1.00082 1.00052 0.99213
1.00028 1.00233 0.991683
1.00046 1.00242 0.991013
1.00014 1.0018 0.992329
1.00019 1.00226 0.991773
1.00028 1.00211 0.991845
1.00026 1.0021 0.991769
1.00174 0.998297 0.992826
1.0013 0.999167 0.992533
1.00074 1.00204 0.990957
1.00027 1.00315 0.990652
1.00012 1.00094 0.993296
1.00011 1.00181 0.992435
1.00011 1.00238 0.991924
1.00009 1.00083 0.993464
1.00009 1.00178 0.992438
1.00007 1.00079 0.993537
1.0001 1.00237 0.991935
1.00008 1.00177 0.992511
1.00014 1.00274 0.991537
1.00009 1.00239 0.991847
1.00008 1.00174 0.992489
1.00005 1.00079 0.993572
1.00008 0.999355 0.994932
1.00008 0.999366 0.994926
1.00004 0.997315 0.997433
1.00008 0.999403 0.994897
1.00002 0.99739 0.997422
0.99998 0.996231 0.998425
0.999995 0.997478 0.997404
0.999942 0.996289 0.99841
0.999904 0.996346 0.998396
0.999968 0.99745 0.997021
0.999935 0.997607 0.996942
0.999861 0.996411 0.999331
0.999904 0.997766 0.996852
0.999815 0.996577 0.999306
0.999776 0.996712 0.999284
1.00111 1.00013 0.992105
1.00134 1.00009 0.991667
1.00128 0.999426 0.992432
1.00133 1.00034 0.991421
1.00119 1.00053 0.991544
1.00121 1.00062 0.991419
1.00119 1.00058 0.991499
1.00117 1.00054 0.991579
1.00136 0.999887 0.991831
1.00128 0.999201 0.992672
1.00116 1.00056 0.991558
1.00117 1.0004 0.991774
1.00147 0.99914 0.992354
1.00141 1.00048 0.991126
1.00167 1.00012 0.991056
1.0016 0.999512 0.991786
1.00022 1.0012 0.992857
1.0002 1.00165 0.992529
1.00035 1.00227 0.991514
1.00132 0.999465 0.992383
1.00109 0.99933 0.99284
1.00077 1.001 0.991949
1.0003 1.00142 0.992486
1.00035 1.0016 0.992156
1.00024 1.00222 0.991836
1.00003 0.99953 0.994661
1.00012 1.00214 0.992229
1.00011 1.00107 0.993057
1.00144 1.00043 0.991177
1.00182 0.999869 0.990936
1.00167 0.998975 0.992093
1.00026 1.00141 0.992574
1.00018 1.0022 0.99185
1.00047 1.00247 0.991175
1.00148 0.998555 0.993006
1.00109 1.00006 0.992198
1.00005 0.999353 0.994902
1.00009 1.00094 0.993422
1.00034 1.00159 0.992173
1.00035 1.00218 0.991625
1.00014 1.00273 0.991481
1.0001 1.00208 0.992301
1.00144 1.00024 0.991363
1.0019 0.999498 0.991192
1.00179 0.997742 0.993089
1.00156 0.998512 0.99303
1.00023 1.0018 0.992152
1.00069 1.00215 0.991041
1.0003 1.00281 0.991261
1.00007 0.999199 0.995115
1.00009 1.00035 0.993949
1.00007 1.00069 0.9935
1.00008 1.00204 0.992345
1.00009 1.00276 0.991535
1.00019 1.0031 0.991039
1.00035 1.00184 0.991859
1.00031 1.00281 0.991256
1.00013 1.00096 0.993259
1.00016 1.00173 0.992444
1.00121 0.999556 0.992701
1.0002 1.00192 0.992188
1.00023 1.00173 0.992367
1.00022 1.00187 0.992133
1.00068 1.00136 0.991852
1.00079 1.00058 0.992315
1.00026 1.00234 0.991632
1.00047 1.00252 0.990993
1.00014 1.00181 0.992325
1.0002 1.00223 0.991843
1.00027 1.00208 0.9919
1.00027 1.00211 0.991812
1.00171 0.998226 0.992877
1.00123 0.999438 0.992483
1.00075 1.00202 0.991053
1.00032 1.00307 0.990642
1.00013 1.00242 0.991848
1.00168 0.998683 0.992396
1.00023 1.00267 0.991435
1.00026 1.00268 0.991316
1.00204 0.997465 0.992897
1.00111 1.0015 0.990667
1.00042 1.00376 0.990166
1.00011 1.00182 0.992489
1.0001 1.00238 0.991925
1.00012 1.00277 0.991501
1.00007 1.0008 0.993535
1.00008 1.00178 0.99255
1.0001 1.00237 0.991863
1.00005 1.00079 0.993569
1.00008 1.00175 0.992489
1.00014 1.00274 0.991476
1.00009 1.0024 0.991929
1.00022 1.00295 0.99116
1.00015 1.0028 0.991347
1.0001 1.00241 0.991896
1.00007 1.0018 0.992533
1.00005 1.00081 0.993564
1.00008 0.999363 0.994924
1.00008 0.999358 0.994932
1.00006 0.997275 0.997431
1.00008 0.999369 0.994926
1.00004 0.997328 0.997434
1.00001 0.996155 0.998431
1.00002 0.9974 0.997425
0.999978 0.996197 0.998425
0.99994 0.996255 0.998409
1.00009 0.999049 0.995217
1 0.997307 0.997096
0.999972 0.997458 0.997017
0.999905 0.996271 0.999347
0.999939 0.997617 0.996937
0.999856 0.996428 0.999325
0.999812 0.996589 0.9993
1.00129 0.999171 0.992642
1.00134 0.99986 0.991878
1.00119 1.00052 0.991567
1.00121 1.00058 0.991468
1.00114 1.00057 0.991624
1.00117 1.00045 0.991707
1.00143 0.999093 0.992471
1.0011 1.00052 0.991767
1.00131 0.99984 0.991982
1.00141 0.99883 0.992887
1.00138 1.00043 0.991256
1.00186 0.999824 0.990908
1.00168 0.999064 0.992018
1.00027 1.00142 0.992567
1.00017 1.00217 0.991925
1.00046 1.0024 0.991231
1.00143 0.998601 0.993058
1.0011 1 0.992189
1.00033 1.00161 0.992157
1.00035 1.00218 0.991644
1.00013 1.00271 0.991546
1.00005 0.999339 0.995007
1.00008 1.00095 0.993423
1.00011 1.00208 0.992243
1.00145 1.00023 0.991328
1.00007 0.999199 0.995112
1.00009 1.00035 0.993887
1.00192 0.99945 0.991217
1.00176 0.997922 0.992924
1.00024 1.00175 0.992177
1.00028 1.00282 0.991187
1.00069 1.00199 0.991077
1.00152 0.998504 0.992992
1.00007 1.00068 0.993671
1.00007 1.00205 0.992337
1.00036 1.00185 0.991899
1.0003 1.00257 0.991376
1.00019 1.00316 0.990933
1.0001 1.00273 0.991559
1.00151 1.00019 0.99125
1.00196 0.998383 0.992214
1.002 0.996686 0.993891
1.00112 1.00058 0.991721
1.00021 1.00224 0.991775
1.00039 1.00334 0.990609
1.00009 1.00022 0.993945
1.00008 1.00051 0.993818
1.00006 1.00139 0.993128
1.00005 1.00187 0.99242
1.0001 1.00268 0.991689
1.00012 1.00336 0.990808
1.00014 1.00378 0.990492
1.00028 1.00248 0.991371
1.00014 1.00181 0.992321
1.0002 1.0022 0.991912
1.00168 0.998152 0.992929
1.00117 0.999707 0.992434
1.00028 1.00213 0.991855
1.00026 1.00206 0.991955
1.00077 1.00202 0.991148
1.00037 1.00301 0.990631
1.00013 1.00241 0.991844
1.00163 0.998518 0.992556
1.00023 1.00263 0.991426
1.00026 1.00268 0.991216
1.002 0.997557 0.992857
1.00117 1.0015 0.990675
1.0004 1.00375 0.990137
1.00013 1.0029 0.991396
1.0023 0.996915 0.992604
1.00028 1.00293 0.991145
1.00029 1.00374 0.990448
1.00197 0.999571 0.990734
1.00048 1.00368 0.989695
1.00401 0.996599 0.990279
1.0001 1.00239 0.991925
1.00011 1.00278 0.991503
1.00017 1.00305 0.991176
1.00006 1.0008 0.993566
1.00008 1.00176 0.992489
1.00009 1.00241 0.992012
1.00014 1.00275 0.991415
1.00005 1.00081 0.993563
1.00007 1.00181 0.992484
1.00023 1.00292 0.991138
1.0001 1.00242 0.991898
1.00014 1.0028 0.99142
1.00028 1.00306 0.990856
1.00015 1.00293 0.991349
1.0001 1.00249 0.991889
1.00007 1.00186 0.992362
1.00006 1.00082 0.993402
1.00006 1.00182 0.992679
1.00006 1.00078 0.993422
1.00009 0.999371 0.994911
1.00008 0.999363 0.994924
1.00008 0.997284 0.996968
1.00008 0.99936 0.994932
1.00007 0.997292 0.997204
1.00001 0.996072 0.999336
1.00004 0.997341 0.997434
1.00001 0.996122 0.998431
0.999976 0.996164 0.998424
1.00011 0.998942 0.995288
1.00009 0.999048 0.995215
1.00003 0.997176 0.997167
0.999999 0.997315 0.997309
0.999944 0.996141 0.999366
0.999976 0.997467 0.997013
0.9999 0.996286 0.999342
0.999852 0.996445 0.99932
1.0014 0.999047 0.992588
1.00117 1.0005 0.99164
1.00112 1.00057 0.991691
1.0011 1.00051 0.991775
1.00126 0.999869 0.992023
1.00128 0.999121 0.992807
1.00118 1.00003 0.992123
1.00338 0.995721 0.994531
1.00124 0.997599 0.994052
1.0001 1.00014 0.99414
1.00145 1.00021 0.991294
1.00193 0.999401 0.991242
1.00173 0.998074 0.992759
1.00024 1.00172 0.992202
1.00027 1.00283 0.991114
1.00069 1.00184 0.991113
1.00148 0.998509 0.992954
1.00038 1.00187 0.991939
1.00029 1.00235 0.991496
1.00019 1.00321 0.990827
1.00007 0.9992 0.99511
1.00011 1.00271 0.991582
1.00007 1.00068 0.993843
1.00007 1.00206 0.992328
1.00008 1.00035 0.993825
1.00158 1.00013 0.991149
1.00009 1.00021 0.994014
1.00007 1.00051 0.993815
1.00006 1.00139 0.993
1.00195 0.998388 0.992235
1.00198 0.996795 0.993664
1.00024 1.00219 0.991795
1.00033 1.00327 0.990576
1.0011 1.00047 0.991761
1.00004 1.00184 0.99251
1.00011 1.00269 0.991658
1.00028 1.00252 0.991376
1.00015 1.00363 0.990612
1.00012 1.00334 0.990873
1.00178 0.999805 0.99101
1.00232 0.996228 0.993673
1.00187 0.998393 0.99248
1.00057 1.003 0.99065
1.00009 1.00297 0.991221
1.00006 1.00117 0.993046
1.00005 1.0016 0.992677
1.00006 1.00215 0.992308
1.00007 1.0027 0.991696
1.00013 1.00309 0.991121
1.00008 1.00405 0.990343
1.00007 1.00389 0.990436
1.00013 1.0024 0.991841
1.00023 1.00259 0.991416
1.00159 0.998353 0.992715
1.00194 0.997653 0.992817
1.00123 1.0015 0.990682
1.00027 1.00267 0.991116
1.00038 1.00372 0.990107
1.00013 1.00287 0.991428
1.00228 0.996787 0.992701
1.00026 1.00288 0.991124
1.0002 1.00371 0.990462
1.00208 0.999297 0.990896
1.0005 1.00383 0.989672
1.00408 0.996645 0.991041
1.00015 1.00317 0.991087
1.00261 0.998113 0.990464
1.00017 1.00345 0.990796
0.99997 1.00467 0.989928
1.00088 1.00258 0.989598
0.995989 1.00358 0.97505
1.00005 0.998889 0.992707
1.00379 0.997964 0.98972
0.995717 0.998002 0.9893
1.00155 0.991577 0.992972
1.0001 1.00279 0.991504
1.00017 1.00303 0.991175
1.00028 1.00319 0.990745
1.00005 1.00081 0.993563
1.00008 1.00181 0.992434
1.00009 1.00242 0.9919
1.00013 1.00281 0.991493
1.00023 1.00288 0.991116
1.00011 1.00249 0.991799
1.00006 1.00081 0.993479
1.00007 1.00187 0.99242
1.00027 1.00305 0.990911
1.00015 1.00291 0.991327
1.00015 1.00293 0.991399
1.00018 1.00336 0.99083
1.00011 1.0026 0.991614
1.00007 1.00188 0.992342
1.00006 1.00079 0.993413
1.00007 1.00177 0.992617
1.00009 1.00254 0.991899
1.00006 1.00191 0.992447
1.00006 1.00182 0.992556
1.00007 1.00082 0.993509
1.00006 1.00078 0.993423
1.00009 0.99938 0.994891
1.00009 0.999367 0.994911
1.00008 0.997311 0.996957
1.00008 0.999362 0.994924
1.00008 0.997286 0.996967
1.00002 0.996058 0.999334
1.00007 0.997309 0.996977
1.00002 0.996071 0.998882
1.00001 0.99609 0.998431
1.00012 0.998876 0.995333
1.00011 0.99894 0.995287
1.00005 0.997081 0.997221
1.0001 0.999049 0.995213
1.00003 0.997172 0.99738
0.999976 0.996034 0.999382
1.00001 0.997333 0.997079
0.999937 0.996182 0.999357
0.999894 0.996304 0.999338
1.00121 0.999899 0.992063
1.0011 1.00051 0.991782
1.00116 0.999406 0.992726
1.00327 0.995613 0.99452
1.00116 1.00005 0.992083
1.00121 0.997927 0.993661
1.00139 0.999434 0.991722
0.99933 0.999599 0.989186
1.00161 0.997891 0.995805
1.0001 1.00009 0.994186
1.0001 1.00014 0.994139
1.00008 1.00106 0.99327
1.00008 1.00093 0.99339
1.00165 1.00009 0.991049
1.00193 0.998424 0.992256
1.00195 0.996897 0.993437
1.00027 1.00214 0.991815
1.00026 1.00319 0.990542
1.00108 1.00035 0.991802
1.00028 1.00256 0.991382
1.00016 1.00347 0.990731
1.00012 1.00333 0.990938
1.00007 1.00051 0.993812
1.00012 1.00271 0.991627
1.00004 1.00182 0.9926
1.0001 1.0002 0.994084
1.00006 1.0014 0.992872
1.00182 0.999691 0.991138
1.00006 1.00119 0.993172
1.00005 1.00157 0.992763
1.00006 1.00208 0.992309
1.00224 0.996324 0.993672
1.00181 0.998215 0.992507
1.00012 1.00302 0.991207
1.00053 1.00287 0.990697
1.00007 1.00272 0.991713
1.00013 1.00302 0.991174
1.00008 1.0039 0.990445
1.00007 1.00411 0.990324
1.00225 0.997816 0.991767
1.00268 0.996235 0.993138
1.00119 1.00178 0.99042
1.00006 1.00386 0.99057
1.00004 1.00225 0.992115
1.00006 1.00244 0.991885
1.00007 1.00356 0.990778
1 1.00484 0.989693
0.995735 1.00278 0.973484
1.00013 1.00284 0.991459
1.00025 1.00283 0.991103
1.00226 0.996651 0.992799
1.00219 0.999016 0.991057
1.00051 1.00395 0.989649
1.0001 1.00371 0.990476
1.00413 0.996595 0.991801
1.00014 1.00315 0.991113
1.00275 0.998048 0.990461
1.00015 1.00342 0.990801
0.999954 1.00462 0.989969
1.00093 1.00253 0.9897
0.995641 1.00273 0.975985
0.999972 0.9991 0.988648
1.00382 0.99782 0.989751
0.996527 0.998205 0.986729
1.00044 0.992419 0.993984
1.00007 1.00347 0.990892
0.997345 0.999161 0.982785
1.0034 0.993639 0.991645
1.00173 1.00112 0.989636
1.00003 1.00368 0.990623
0.999796 1.00512 0.990127
1.00356 0.999247 0.988579
0.995874 1.00239 0.975782
1.00018 0.998628 0.989996
0.995451 0.998683 0.989572
1.00895 0.988534 0.988568
1.00016 1.00302 0.991173
1.00028 1.00322 0.990755
1.0004 1.0034 0.990322
1.00005 1.00081 0.993555
1.00007 1.00188 0.992479
1.00011 1.00249 0.991709
1.00015 1.00289 0.991304
1.00025 1.00304 0.990966
1.00006 1.0008 0.993411
1.00014 1.00288 0.991367
1.0001 1.0026 0.991707
1.00007 1.00187 0.992416
1.00019 1.00334 0.990753
1.00011 1.00317 0.991118
1.00004 1.00409 0.990308
1.0001 1.00272 0.991581
1.00007 1.00183 0.992551
1.00007 1.00178 0.992614
1.00009 1.00253 0.9918
1.0001 1.00252 0.991794
1.00007 1.00265 0.991696
1.00012 1.00301 0.991293
1.00011 1.00266 0.991586
1.00007 1.00202 0.99232
1.00006 1.00191 0.992447
1.00008 1.00089 0.993423
1.00006 1.00182 0.992433
1.00007 1.00082 0.993443
1.00009 0.999409 0.994858
1.00007 1.00078 0.993425
1.00009 0.999378 0.994891
1.00006 0.997341 0.997405
1.00009 0.999365 0.994912
1.00007 0.997306 0.997184
1.00004 0.996066 0.998416
1.00008 0.997287 0.996967
1.00002 0.996057 0.999333
1.00003 0.996069 0.998429
1.0001 1.0001 0.994171
1.00013 0.998847 0.995348
1.00012 0.998876 0.995332
1.00007 0.997025 0.997256
1.00011 0.998938 0.995286
1.00006 0.997078 0.997222
0.999998 0.995959 0.999394
1.00002 0.997181 0.997582
0.999981 0.996068 0.998949
0.999957 0.996209 0.998487
1.00312 0.995521 0.99451
1.00112 1.00008 0.992043
1.00116 0.998237 0.99327
0.999242 0.999407 0.991946
1.00147 0.997971 0.995844
1.00147 0.999454 0.991583
1.00168 1.00037 0.992744
0.998111 1.0012 0.990231
0.995222 1.00416 0.970891
0.995873 0.999175 0.983833
1.00044 0.99322 0.992702
1.00007 1.00097 0.993237
1.0001 1.0001 0.994183
1.0001 1.00015 0.994138
1.00007 1.00107 0.993236
1.00006 1.00178 0.992666
1.00009 1.0015 0.992849
1.00008 1.00103 0.993319
1.00008 1.00095 0.993341
1.00187 0.999567 0.991266
1.00216 0.996442 0.99367
1.00176 0.99807 0.992534
1.00016 1.00307 0.991193
1.00049 1.00275 0.990743
1.00008 1.0039 0.990455
1.00005 1.00416 0.990306
1.00014 1.00295 0.991228
1.00005 1.00154 0.992849
1.00006 1.00274 0.991731
1.00006 1.0012 0.993299
1.00005 1.00202 0.992311
1.00235 0.997991 0.991667
1.00005 1.00222 0.992156
1.00006 1.00247 0.991909
1.0026 0.996146 0.993138
1.00106 1.00156 0.990509
1.00011 1.00393 0.990393
1.00008 1.00358 0.990757
0.999997 1.00479 0.989728
1.00346 0.995471 0.99157
1.00169 1.00096 0.99071
1.00026 1.00352 0.989954
1.00008 1.00499 0.989554
1.00004 1.00269 0.991674
1.00006 1.00326 0.991139
1.00003 1.00461 0.989934
0.998106 0.998049 0.984176
0.995946 1.00359 0.975572
1.00014 1.00314 0.991139
1.00012 1.00338 0.990806
1.0029 0.998073 0.990458
1.00099 1.00253 0.989801
0.999925 1.0046 0.99001
0.996076 1.00339 0.96951
1 0.999024 0.994476
1.00385 0.997612 0.989772
0.996165 0.998481 0.985051
0.999174 0.993255 0.994997
1.00011 1.00342 0.990878
0.997912 0.998166 0.984846
1.00272 0.994155 0.99247
1.00172 1.00116 0.989629
1.00001 1.00388 0.990642
0.999693 1.0051 0.990245
1.00338 0.999967 0.988269
0.995093 1.00259 0.973136
1.00003 0.999297 0.994473
0.995213 0.998659 0.98611
1.00844 0.988501 0.989684
1.00036 1.00315 0.990517
1.00519 0.99544 0.989541
1.01569 0.991415 0.981223
1.00019 1.0039 0.989753
0.999792 1.00385 0.991441
1.00236 0.999486 0.994536
1.00003 0.997213 0.999474
0.99502 1.00231 0.97519
0.995939 0.998556 0.98583
1.01548 0.985606 0.984613
1.00027 1.00324 0.990765
1.00038 1.00341 0.990302
1.00015 1.00408 0.990037
1.00006 1.0008 0.993409
1.00007 1.00187 0.99249
1.0001 1.00259 0.9918
1.00014 1.00284 0.991334
1.0002 1.00333 0.990676
1.00007 1.00183 0.992546
1.00011 1.00311 0.991159
1.0001 1.00272 0.991586
1.00005 1.00416 0.990213
1.00003 1.00473 0.989613
1.00007 1.00366 0.990749
1.0001 1.00262 0.991698
1.00007 1.00178 0.992611
1.0001 1.00253 0.9917
1.0001 1.00252 0.991791
1.00007 1.00266 0.991693
1.00013 1.00296 0.991276
1.00006 1.0028 0.991556
1.00015 1.00309 0.991169
1.00009 1.00323 0.991004
1.00016 1.00278 0.991411
1.00007 1.00226 0.991972
1.00014 1.00232 0.991832
1.00012 1.00265 0.991598
1.00011 1.00199 0.992281
1.00007 1.00202 0.992319
1.0001 1.00097 0.993305
1.00006 1.00192 0.992446
1.00008 1.00089 0.993421
1.00009 0.999468 0.994803
1.00007 1.00082 0.993376
1.00009 0.999408 0.994856
1.00004 0.997386 0.997396
1.00009 0.999374 0.994891
1.00006 0.997336 0.997174
1.00003 0.996074 0.99841
1.00008 0.997297 0.996955
1.00002 0.996066 0.999331
1.00002 0.996056 0.999332
1.00011 1.00015 0.994274
1.00013 0.998868 0.995327
1.0001 1.0001 0.994171
1.00007 0.997012 0.997264
1.00013 0.99885 0.995347
1.00012 0.998874 0.995331
1.00007 0.997028 0.997255
1.00001 0.995917 0.999401
1.00004 0.997078 0.997636
1.00001 0.995967 0.998972
0.999996 0.996076 0.998534
0.996724 0.998512 0.986449
1.0038 0.994173 0.989992
0.999237 0.999256 0.994525
1.00131 0.998194 0.995883
1.00157 0.999499 0.991443
0.99807 1.00146 0.995888
1.00177 0.999963 0.992627
0.995514 1.00359 0.975136
0.995904 0.999066 0.987991
0.999994 0.993114 0.993688
0.999522 1.00109 0.995402
0.995365 1.00364 0.9761
0.99545 0.999087 0.989315
1.0074 0.989725 0.990169
1.00005 1.00186 0.992485
1.00008 1.00098 0.993289
1.0001 1.0001 0.994181
1.00005 1.00108 0.993202
1.00005 1.00169 0.992731
1.00009 1.00171 0.992653
1.00009 1.00145 0.992871
1.00008 1.00129 0.993048
1.00008 1.00105 0.993252
1.00008 1.00096 0.993291
1.00244 0.998154 0.99157
1.00255 0.995961 0.993136
1.00093 1.00134 0.990598
1.00015 1.00401 0.990216
0.999993 1.00474 0.989764
1.00008 1.0036 0.990737
1.00006 1.0025 0.991933
1.00005 1.00219 0.992197
1.00346 0.995716 0.991293
1.00003 1.00272 0.991651
1.00007 1.00327 0.991058
1.00165 1.0006 0.990703
1.00031 1.00377 0.98983
1.00009 1.00503 0.989375
1.00005 1.00463 0.989849
1.0037 0.997114 0.989636
1.00004 1.00479 0.989789
1.00003 1.0052 0.989226
1.00007 1.00266 0.991649
1.00007 1.00319 0.991163
1.00011 1.00393 0.990398
1.0054 0.996746 0.9858
0.998043 0.998718 0.981573
0.995735 1.00282 0.973014
1.00015 1.00335 0.990864
1 1.00405 0.99066
1.00171 1.00121 0.989622
0.999582 1.00509 0.990362
0.997576 0.998702 0.98207
0.995233 1.00209 0.979624
1.00005 0.998729 0.990191
1.0032 1.00043 0.988019
0.995047 0.998476 0.990326
1.0031 0.994776 0.992282
1.0067 0.990474 0.990194
1.00033 1.00338 0.990486
1.00487 0.995792 0.988429
1.01588 0.991145 0.981374
1.00015 1.00405 0.989813
0.999687 1.00371 0.991435
1.00329 1.00163 0.98867
1.00026 0.997844 0.992838
0.995047 1.00269 0.976063
0.997265 0.997939 0.9899
1.01374 0.986369 0.985643
1.00013 1.0031 0.991112
1.01683 0.995642 0.978396
1.02231 0.986339 0.977728
0.998754 1.00358 0.993145
0.999143 0.997815 1.00254
0.995256 1.00158 0.977938
0.999789 0.997476 0.987295
1.01627 0.986042 0.982877
1.00036 1.00342 0.990282
1.0002 1.00401 0.99012
1.00021 1.00453 0.989898
1.00007 1.00183 0.992541
1.0001 1.00272 0.991591
1.00011 1.00305 0.991199
1.00005 1.00423 0.990119
1.0001 1.00263 0.991696
1.00008 1.00362 0.990771
1.00001 1.00488 0.989555
0.999925 1.00505 0.98963
1.0001 1.00441 0.989858
1.00014 1.00328 0.99103
1.0001 1.00252 0.991789
1.00007 1.00267 0.99169
1.00014 1.00291 0.99126
1.00015 1.00306 0.991191
1.00006 1.00281 0.991564
1.00011 1.00319 0.991033
1.00011 1.00329 0.990984
1.00012 1.00352 0.990735
1.00015 1.00309 0.991126
1.00016 1.0028 0.991398
1.00009 1.00256 0.991634
1.00022 1.00218 0.991875
1.00016 1.00186 0.992399
1.00005 1.00218 0.992135
1.00015 1.00232 0.991876
1.00013 1.00181 0.992337
1.00013 1.00263 0.99161
1.0001 1.00199 0.992287
1.00011 1.00102 0.993223
1.00007 1.00203 0.992318
1.0001 1.00098 0.993304
1.00008 0.999546 0.994732
1.00008 1.0009 0.993419
1.00009 0.99947 0.9948
1.00002 0.997452 0.997379
1.00009 0.999408 0.994855
1.00005 0.997385 0.997162
1 0.996131 0.998405
1.00007 0.997327 0.996944
1.00002 0.996087 0.99887
1.00001 0.996071 0.99933
1.00011 1.0003 0.994008
1.00012 0.998918 0.995289
1.00011 1.00015 0.994135
1.00007 0.997038 0.997245
1.00013 0.99887 0.995328
1.0001 1.0001 0.99417
1.00001 0.99591 0.9994
1.00007 0.997011 0.997264
1.00013 0.998852 0.995345
1.00007 0.997032 0.997255
1.00001 0.99592 0.999399
0.999996 0.995966 0.99939
1.00454 0.996438 0.987916
0.997141 0.999052 0.984218
1.01491 0.992045 0.98235
1.00285 0.994056 0.990679
0.998063 1.00177 0.990243
1.00186 0.999515 0.992503
0.995324 1.00335 0.979689
0.995857 0.999759 0.984305
0.999555 0.993072 0.994674
0.999588 1.00086 0.993178
0.99502 1.00345 0.974465
0.99616 0.99868 0.985209
1.00733 0.989394 0.990836
1.00018 0.999356 0.995802
0.994659 1.00308 0.974665
0.997685 0.997969 0.988926
1.01552 0.98575 0.984954
1.00009 1.00225 0.9921
1.00006 1.00183 0.992562
1.00008 1.00099 0.993341
1.00004 1.0016 0.992796
1.0001 1.00201 0.992258
1.00009 1.00168 0.992699
1.00009 1.0014 0.992892
1.00008 1.0015 0.992922
1.00008 1.00127 0.993117
1.00008 1.00106 0.993185
1.0034 0.995981 0.991015
1.00158 1.00029 0.990698
1.00037 1.00404 0.989706
1.0001 1.00506 0.989196
1.00007 1.00465 0.989764
1.00007 1.0033 0.990977
1.00003 1.00275 0.991628
1.00007 1.00266 0.991673
1.00356 0.997216 0.989612
1.00006 1.00319 0.99121
1.00011 1.00405 0.990336
1.00005 1.00496 0.989655
1.00008 1.00515 0.989234
1.00285 0.999359 0.989288
0.999564 1.00551 0.98997
1.00018 1.00441 0.989733
1.00011 1.00301 0.991249
1.00018 1.00347 0.990675
1.01611 0.998392 0.977353
1.00538 0.996601 0.986333
0.998106 0.997708 0.985191
1.0003 1.00364 0.990455
0.999574 1.00363 0.991428
1.00015 1.00408 0.98987
1.00525 0.996311 0.987432
0.994718 1.00238 0.974762
1 0.997448 0.998238
1.00434 1.00413 0.98274
0.996724 0.998672 0.985815
1.01608 0.990873 0.981524
1.01403 0.986264 0.985056
1.00014 1.00297 0.991185
1.01707 0.99601 0.977138
1.02253 0.986082 0.977533
0.99905 1.00325 0.992438
0.999406 0.998069 0.999045
0.994967 1.00218 0.975776
1.01675 0.986987 0.982118
0.999001 0.997729 0.986785
1.00005 1.0025 0.991829
1.02176 0.992484 0.972675
1.02457 0.984309 0.977213
1.01567 0.985154 0.985307
0.997038 1.00098 0.998254
0.994758 0.999583 0.98157
1.0001 1.00019 0.982711
1.00025 1.00392 0.990203
1.00018 1.00451 0.98982
0.999851 1.00483 0.989906
1.00009 1.00263 0.991695
1.00009 1.00359 0.990794
0.999999 1.00501 0.989496
1.00014 1.00325 0.991059
1.00009 1.00449 0.989858
0.999974 1.00501 0.989493
0.999875 1.00479 0.990004
1.00013 1.00387 0.990342
1.00015 1.00304 0.991213
1.00006 1.00282 0.991572
1.00012 1.00316 0.991062
1.00013 1.00348 0.990743
1.00011 1.00329 0.990959
1.00001 1.00381 0.990673
1.0001 1.00294 0.991359
1.00007 1.00352 0.990793
1.00017 1.00282 0.991384
1.00014 1.0026 0.991636
1.00026 1.00256 0.991301
1.00018 1.00202 0.992111
1.00013 1.00173 0.992515
1.00018 1.00219 0.991882
1.00016 1.00152 0.992667
1.00015 1.00187 0.992368
1.00004 1.0021 0.992297
1.00016 1.00231 0.991919
1.00013 1.00181 0.992371
1.00013 1.00097 0.993235
1.0001 1.00199 0.992294
1.00012 1.00101 0.993227
1.00008 0.999624 0.994666
1.0001 1.00098 0.993302
1.00008 0.999549 0.994729
0.999992 0.997523 0.99735
1.00009 0.999472 0.994798
1.00002 0.997455 0.997141
0.999971 0.996208 0.998394
1.00005 0.997377 0.996931
0.999997 0.996142 0.998866
1 0.99611 0.999327
1.00011 1.00048 0.993644
1.00011 0.999022 0.995038
1.00011 1.0003 0.994004
1.00006 0.997094 0.997207
1.00012 0.998925 0.995201
1.0001 1.00016 0.993995
1.00001 0.99593 0.999394
1.00007 0.997034 0.997246
1.00013 0.998871 0.995329
1.00001 0.995908 0.999401
1.00007 0.997011 0.997264
1.00001 0.995923 0.999397
1.01517 0.99675 0.978754
1.00435 0.996624 0.987213
0.997288 0.999078 0.982957
1.00012 1.0017 0.99254
1.02104 0.987439 0.978652
1.01517 0.991694 0.982522
1.00266 0.994374 0.990059
0.99964 1.00029 0.990865
0.995243 1.0039 0.976008
0.996564 0.998479 0.989465
1.00654 0.990862 0.990877
1.00025 0.999309 0.990267
0.99494 1.00281 0.975946
0.998166 0.997514 0.986774
1.01428 0.987775 0.985544
1.00015 0.998067 0.990231
0.994655 1.00234 0.971795
0.999942 0.998255 0.98199
1.01601 0.987845 0.981397
1.00015 1.00252 0.991623
1.00009 1.00228 0.992048
1.00006 1.00179 0.99264
1.00011 1.00219 0.99207
1.00011 1.00197 0.992337
1.0001 1.00165 0.992745
1.00009 1.00147 0.992959
1.00009 1.00126 0.993186
1.00348 0.99731 0.989584
1.00006 1.0051 0.989522
1.00006 1.00268 0.991698
1.00014 1.00509 0.989242
1.00011 1.00415 0.990275
1.00004 1.0032 0.991258
1.00011 1.00301 0.991264
1.0028 0.999555 0.989258
1.00018 1.0035 0.990625
1.00019 1.00442 0.989716
0.999558 1.00551 0.989943
1.00016 1.00305 0.991122
1.00193 1.00028 0.990779
0.999594 1.00507 0.990389
1.00028 1.00369 0.990288
1.00019 1.00339 0.990765
1.02114 0.995422 0.971657
1.016 0.997935 0.977337
1.00535 0.996532 0.986865
1.00016 1.00279 0.991259
0.999326 1.0029 0.99173
1.01735 0.996354 0.975881
0.994726 1.00165 0.977234
1.00016 0.999428 0.992346
0.999594 0.996823 0.985245
1.02268 0.985758 0.977338
1.01729 0.987763 0.98136
1.00008 1.00274 0.9917
1.02169 0.992436 0.972686
1.02436 0.984507 0.976418
0.997173 1.00124 0.999012
1.01426 0.987295 0.985798
0.994671 0.998544 0.981509
0.99994 0.999936 0.981139
0.998982 1.0023 0.993605
1.02317 0.990321 0.972818
1.02232 0.987714 0.976231
1.00708 0.990262 0.990015
1.00018 0.997835 0.982539
0.997503 0.99712 1.0057
0.995135 0.99942 0.977417
1.00013 1.00449 0.989742
0.999927 1.00483 0.989871
0.99937 1.00536 0.989723
1.00014 1.00321 0.991088
1.00008 1.00456 0.989857
1.00002 1.00507 0.989355
1.00013 1.00387 0.990356
0.999891 1.00481 0.98994
0.999766 1.0048 0.990204
1.00014 1.00345 0.990751
1.0001 1.00328 0.990935
1.00004 1.0038 0.990661
0.999858 1.00448 0.990271
1.00004 1.00278 0.991592
1.00002 1.00349 0.990869
1.00016 1.00363 0.990561
1.00041 1.00228 0.991421
1.00018 1.00264 0.991638
1.00028 1.00263 0.991238
1.00019 1.00178 0.992431
1.00004 1.00178 0.992578
1.00018 1.00195 0.992177
1.00012 1.0014 0.992859
1.00014 1.00174 0.992505
1.00015 1.0022 0.991889
1.00014 1.00084 0.993345
1.00016 1.00151 0.992635
1.00015 1.00188 0.992337
1.00013 1.00181 0.992404
1.00014 1.00096 0.993241
1.00007 0.999665 0.994636
1.00012 1.001 0.99323
1.00008 0.999622 0.994665
0.999971 0.997611 0.996854
1.00009 0.999552 0.994726
1 0.997531 0.99688
0.999922 0.996296 0.999315
1.00003 0.997449 0.996909
0.999968 0.996218 0.99886
0.99998 0.996168 0.999324
1.00012 1.00068 0.993407
1.00009 0.999192 0.994891
1.00011 1.0005 0.993717
1.00004 0.997185 0.997151
1.00011 0.999036 0.995023
1.00011 1.00031 0.994
0.999998 0.995974 0.999384
1.00006 0.997088 0.997209
1.00012 0.998932 0.995113
1.00001 0.995927 0.999396
1.00007 0.99703 0.997247
1.00001 0.995907 0.999402
1.02068 0.993335 0.973694
1.01528 0.996289 0.978813
1.00466 0.996282 0.98701
1.00012 1.00168 0.992579
1.00017 1.00172 0.992342
1.00012 1.00232 0.992001
1.02319 0.98463 0.978765
1.02133 0.987497 0.978424
1.01544 0.991402 0.982694
1.00037 0.999218 0.995273
0.995129 1.00324 0.974667
0.997097 0.998821 0.984675
1.01451 0.98892 0.985122
1.00013 0.998633 0.994975
0.994779 1.0017 0.976732
0.999321 0.998536 0.986333
1.01643 0.9887 0.980986
0.99924 0.995863 0.998372
0.994624 1.00036 0.979586
1.00099 1.00087 0.980323
1.01457 0.986618 0.984993
1.00016 1.00276 0.991419
1.00015 1.00254 0.991624
1.00009 1.00231 0.991996
1.00011 1.0022 0.992062
1.00011 1.00194 0.992417
1.0001 1.00144 0.992995
1.00276 0.999766 0.989228
0.999566 1.00551 0.989916
1.00011 1.00299 0.991279
1.0002 1.00444 0.9897
1.00018 1.00353 0.990576
1.00016 1.00306 0.991129
1.0002 1.00337 0.990718
1.00201 0.999835 0.990622
1.0003 1.00363 0.990332
0.999558 1.00508 0.99047
1.00018 1.00342 0.990582
1.00002 1.00308 0.992166
0.999868 1.00314 0.991312
1.00022 1.00365 0.990394
1.02252 0.992612 0.971562
1.02097 0.994845 0.971607
1.01586 0.997432 0.97732
1.00011 1.00298 0.991573
0.997373 0.999303 1.00023
1.02162 0.99239 0.972697
0.995036 0.999496 0.990667
1.00171 0.999722 0.982996
1.02416 0.984818 0.975623
1.01462 0.988085 0.985482
0.999413 1.00234 0.993265
1.02304 0.990539 0.97244
1.02266 0.987659 0.976054
0.997281 0.997373 0.9988
1.00726 0.98995 0.99057
0.998772 0.999811 0.986019
0.994611 0.999781 0.981544
0.999748 1.00225 0.996074
1.02151 0.993881 0.971749
1.0159 0.992109 0.980621
1.00006 0.99376 0.992357
0.997217 0.998074 0.989446
0.99471 1.00069 0.979703
0.998364 0.994784 0.997815
1.00003 1.00481 0.989836
0.999439 1.00538 0.989761
0.999086 1.00574 0.99004
1.00013 1.00386 0.99037
0.999908 1.00482 0.989875
0.999751 1.00482 0.990179
0.999652 1.00533 0.989805
1.00007 1.00379 0.99065
0.999922 1.00455 0.990193
1.00002 1.00494 0.98965
0.999974 1.00345 0.990945
1.00017 1.00371 0.990498
1.00044 1.00333 0.990454
1.00049 1.00237 0.991269
1.00025 1.00176 0.992101
1.00039 1.00235 0.991339
1.0003 1.00271 0.991175
1.00017 1.00151 0.992737
1.00017 1.00168 0.992501
1.00003 1.00146 0.992898
1.00005 1.00176 0.992628
1.00019 1.00187 0.992244
1.00011 1.00077 0.993476
1.00013 1.00138 0.992863
1.00014 1.00175 0.992495
1.00006 0.999664 0.994664
1.00015 1.00083 0.993351
1.00016 1.00151 0.992603
1.00014 1.00094 0.993247
1.00007 0.99966 0.994638
0.999943 0.997687 0.996833
1.00008 0.999621 0.994665
0.999972 0.997616 0.996852
0.999895 0.996415 0.999309
1 0.997535 0.996879
0.999932 0.99631 0.998848
0.999952 0.996244 0.999318
1.00014 1.00082 0.993367
1.00008 0.999359 0.994925
1.00012 1.0007 0.993466
1.00002 0.997309 0.997074
1.00009 0.999196 0.994974
1.00012 1.00051 0.99379
0.999977 0.996048 0.99937
1.00004 0.997175 0.997154
1.00011 0.999049 0.995007
1 0.99597 0.999388
1.00006 0.997081 0.997211
1.00001 0.995924 0.999398
1.02218 0.990176 0.974496
1.02071 0.993294 0.973752
1.0154 0.995876 0.978872
1.0002 1.00164 0.992384
1.00023 1.00188 0.992183
1.00012 1.00167 0.992619
1.00017 1.00173 0.992337
1.00013 1.00233 0.991927
1.00018 1.00229 0.991865
1.00014 1.00267 0.991561
1.0208 0.987811 0.978638
1.02291 0.985025 0.978174
1.02161 0.987515 0.978196
1.01689 0.989479 0.980577
1.00029 0.998623 0.990193
0.994568 1.00178 0.980936
0.999652 0.9984 0.982556
0.999087 0.996954 0.995157
0.994926 0.999437 0.97679
1.00035 1.0001 0.979808
1.0134 0.987065 0.985456
0.997347 0.99728 0.999394
0.995724 0.999156 0.975332
1.0013 0.997594 0.985326
1.0083 0.990224 0.988029
1.00019 1.00296 0.991162
1.00016 1.00279 0.991405
1.00014 1.00255 0.991624
1.00011 1.00222 0.992054
1.00212 0.999752 0.990464
0.99949 1.0051 0.990551
1.00016 1.00306 0.991136
1.0002 1.00336 0.99067
1.00033 1.00354 0.990377
1.00018 1.00344 0.990641
1.00025 1.00362 0.990358
0.999628 1.00303 0.993493
0.999856 1.00304 0.991492
1.00021 1.0041 0.990061
0.997785 1.00499 0.996679
1.00012 1.0044 0.989809
1.02086 0.99663 0.970815
1.0224 0.992304 0.971561
1.02081 0.994285 0.971557
0.999827 1.00241 0.992926
0.997102 0.996803 1.00512
1.02285 0.990761 0.972063
0.995152 0.999504 0.976728
0.998956 0.999603 0.982868
1.02299 0.987562 0.975877
1.00622 0.991261 0.990879
0.999525 1.00231 0.995819
1.02154 0.993923 0.971781
1.01613 0.991891 0.980817
0.998357 0.994605 1.00518
0.999529 0.993756 0.993482
0.997711 0.998124 0.986981
0.994552 1.00099 0.979042
1.00036 1.00074 0.996321
1.01598 0.997149 0.977057
1.00427 0.994262 0.989117
0.994897 0.999392 0.989435
0.994602 1.00291 0.976938
0.999127 0.994765 0.993793
0.999505 1.0054 0.989798
0.999123 1.00578 0.990015
0.99953 1.00552 0.989657
0.999737 1.00485 0.990153
0.999597 1.00535 0.989858
1.00004 1.00519 0.989276
0.999993 1.00462 0.990115
1.00006 1.00496 0.989528
1.00045 1.00424 0.989537
1.00019 1.00379 0.990436
1.00046 1.00335 0.990363
1.00056 1.00272 0.990729
1.00066 1.00173 0.991464
1.00046 1.00187 0.991831
1.00048 1.00237 0.991232
1.00019 1.00142 0.992571
1.00026 1.00177 0.99216
1.00038 1.00242 0.991256
1.00012 1.00136 0.992918
1.00015 1.00152 0.992709
1.00014 1.00158 0.992571
1.00005 1.00086 0.993501
1.00004 1.00145 0.992922
1.00006 1.00174 0.992678
1.00002 0.999664 0.994727
1.00012 1.00076 0.99348
1.00014 1.00136 0.992866
0.99992 0.997763 0.996829
1.00006 0.99966 0.994668
1.00015 1.00081 0.993357
1.00007 0.999655 0.99464
0.999942 0.997693 0.996833
0.999861 0.996512 0.999303
0.999973 0.997621 0.99685
0.999892 0.996417 0.999307
0.999921 0.99633 0.999312
1.0002 1.0016 0.992475
1.00016 1.00089 0.993246
1.00007 0.999531 0.994774
1.00014 1.00083 0.993364
0.999994 0.997457 0.996983
1.00008 0.999357 0.994929
1.00012 1.00071 0.993524
0.999949 0.996153 0.999351
1.00002 0.997299 0.997078
1.0001 0.9992 0.995057
0.999981 0.99604 0.999375
1.00004 0.997166 0.997157
1 0.995966 0.999391
1.02069 0.994169 0.972693
1.02217 0.990437 0.97392
1.02074 0.993264 0.973811
1.00019 1.00166 0.992415
1.00023 1.00189 0.992151
1.00022 1.00181 0.992223
1.00022 1.00198 0.992022
1.00023 1.00206 0.992004
1.00017 1.00175 0.992332
1.00013 1.00235 0.991854
1.00018 1.00228 0.991871
1.00014 1.00263 0.991565
1.00017 1.00258 0.991612
1.01434 0.994556 0.980425
1.02099 0.987747 0.978354
1.02268 0.985433 0.977583
1.01345 0.986812 0.984857
1.00252 0.999562 0.981395
0.998893 0.99676 0.993067
0.994615 0.999127 0.979842
0.996802 0.997833 0.994591
0.994656 0.99979 0.979072
1.00027 0.997676 0.984799
1.00785 0.990222 0.989045
0.99534 1.00072 0.994604
0.99476 1.00001 0.979343
0.997058 0.998464 0.985213
1.00127 0.992711 0.993155
1.00009 1.00282 0.991477
1.00017 1.00298 0.991194
1.00016 1.00283 0.991391
0.999277 1.0026 0.994823
0.999828 1.00294 0.991672
1.00017 1.00347 0.9907
1.00029 1.00359 0.990322
1.00018 1.00412 0.990096
0.999999 1.00446 0.989753
0.997602 1.00466 0.996678
0.999756 1.00487 0.989756
0.99864 1.00547 0.994081
1.01591 0.999608 0.976617
1.02069 0.996006 0.970847
1.02231 0.992038 0.97156
0.999211 1.0023 0.995593
0.998349 0.994716 0.996903
1.02156 0.993951 0.971813
0.994638 1.00065 0.9732
0.996543 0.998976 0.985538
1.01636 0.991584 0.981012
0.99915 0.993827 0.994607
1.00039 1.00084 0.996429
1.01609 0.996758 0.977088
1.00324 0.994122 0.989921
0.999241 0.994332 0.997391
0.995712 0.999247 0.985569
0.994605 1.00277 0.973324
1.00155 0.999479 0.994206
1.00513 0.996659 0.986788
0.996048 0.998871 0.98386
0.994607 1.00324 0.974836
1.00006 0.997387 0.993998
0.99916 1.00579 0.989991
0.999451 1.00558 0.989659
1.00018 1.00492 0.989619
0.999547 1.00536 0.98991
0.999974 1.00517 0.989344
1.00076 1.0033 0.989686
1.00009 1.00496 0.989406
1.00044 1.00403 0.989583
1.00084 1.00208 0.990946
1.00048 1.00335 0.990272
1.00058 1.00256 0.990791
1.00083 1.0011 0.991756
1.00091 1.00063 0.992026
1.00059 1.00157 0.991721
1.00068 1.00163 0.991494
1.00034 1.00154 0.992305
1.00043 1.00191 0.991744
1.00046 1.00238 0.991195
1.00017 1.00118 0.992957
1.00019 1.0014 0.992629
1.00026 1.00178 0.992218
1.00003 1.00095 0.993447
1.0001 1.00136 0.992913
1.00014 1.00152 0.992682
0.999967 0.999752 0.994744
1.00006 1.00085 0.9935
1.00005 1.00143 0.992946
0.999867 0.997809 0.997322
1.00002 0.999666 0.994729
1.00012 1.00074 0.993484
0.999839 0.996595 0.998352
0.999909 0.997761 0.997069
1.00006 0.999654 0.994672
0.999941 0.997699 0.996832
0.999857 0.996507 0.999302
0.999888 0.996418 0.999305
1.0002 1.00157 0.992489
1.00017 1.00093 0.993187
1.0002 1.00161 0.992455
1.00006 0.999657 0.994651
1.00016 1.0009 0.993242
0.999962 0.997611 0.99689
1.00007 0.999528 0.994776
1.00014 1.00084 0.99336
0.999916 0.996282 0.99933
0.999991 0.997446 0.996988
1.00008 0.999354 0.994933
0.999954 0.996141 0.999357
1.00002 0.997288 0.997082
0.999985 0.996033 0.999379
1.016 0.999146 0.974696
1.02062 0.994125 0.972759
1.02211 0.99069 0.973345
1.00022 1.00172 0.992352
1.00018 1.00167 0.992445
1.00023 1.00189 0.992119
1.00022 1.002 0.992063
1.00022 1.00182 0.992256
1.00023 1.00201 0.992018
1.00024 1.00201 0.992002
1.0002 1.00221 0.991847
1.00018 1.00226 0.991876
1.00014 1.0026 0.991568
1.00017 1.00256 0.991611
1.00024 1.00258 0.991622
1.00261 0.994718 0.992294
1.01438 0.994547 0.980648
1.0212 0.987696 0.978069
1.00674 0.992382 0.989182
0.99988 0.996701 0.983371
0.995617 0.99916 0.975403
0.996111 0.997661 1.00294
0.995088 1.0007 1.00104
1.00017 0.993612 0.993616
0.995012 0.99994 0.974913
0.997596 0.997773 0.988749
0.99611 1.00084 0.999374
0.994798 1.00132 0.97835
0.99487 0.998738 0.990267
0.999896 1.00278 0.991947
1.00015 1.00275 0.991487
1.00016 1.00299 0.991227
0.997402 1.0043 0.996682
0.999919 1.00452 0.989697
1.00013 1.00416 0.990131
0.999805 1.00493 0.989813
0.998611 1.00539 0.994072
0.999366 1.00286 0.993572
1.00502 0.996474 0.988901
1.01573 0.999641 0.975011
1.02052 0.995381 0.970878
1.00042 1.00098 0.996541
0.999256 0.995065 0.999402
1.01621 0.996397 0.977119
0.994506 1.00156 0.98103
0.996399 0.998917 0.989638
1.00305 0.994328 0.989544
1.00155 0.999369 0.994481
1.00493 0.996669 0.986263
0.995887 0.998961 0.988133
1.0001 0.997252 0.990291
0.994785 1.00294 0.975985
1.00297 0.999222 0.989794
0.997201 0.997672 0.986318
0.995384 1.00367 0.976007
1.00017 0.998416 0.989907
0.999389 1.00567 0.989662
0.999981 1.00489 0.989525
1.0008 1.00227 0.990467
0.999907 1.00516 0.989413
1.0008 1.00313 0.989717
1.00155 0.999533 0.992081
1.00042 1.0038 0.989629
1.00083 1.00176 0.991029
1.00119 0.999342 0.992819
1.00059 1.0024 0.990853
1.00086 1.00094 0.991789
1.00112 0.999426 0.992785
1.00099 0.99977 0.992716
1.00082 1.00082 0.992051
1.00091 1.00056 0.992085
1.00047 1.00132 0.992118
1.00059 1.00155 0.991785
1.00069 1.00152 0.991524
1.00022 1.0012 0.99284
1.0003 1.00155 0.992296
1.00039 1.00195 0.991657
1.00006 1.00094 0.993426
1.00018 1.00119 0.992951
1.0002 1.0014 0.992686
0.999916 0.999937 0.994672
1.00004 1.00094 0.993452
1.00009 1.00135 0.992909
0.99982 0.997899 0.996864
0.99997 0.999761 0.994742
1.00007 1.00085 0.993499
0.999768 0.996657 0.999307
0.99987 0.99781 0.996853
1.00003 0.999668 0.994731
0.999823 0.996597 0.9993
0.999908 0.997761 0.996835
0.999853 0.996503 0.999301
1.00018 1.00154 0.992644
1.00019 1.00158 0.99251
1.00016 1.00098 0.993168
1.00006 0.999748 0.994572
1.00017 1.00094 0.993184
1.0002 1.00163 0.992435
0.999933 0.997738 0.996815
1.00007 0.999652 0.994651
1.00016 1.00091 0.993237
0.99988 0.996419 0.999309
0.99996 0.997599 0.996895
1.00007 0.999523 0.994779
0.99992 0.996267 0.999336
0.999988 0.997435 0.996992
0.999958 0.996128 0.999363
1.00454 0.995296 0.990712
1.01604 0.999169 0.97474
1.02055 0.994087 0.972825
1.00022 1.00172 0.992324
1.00018 1.00168 0.992504
1.00026 1.0018 0.992177
1.00021 1.00202 0.992104
1.00022 1.00182 0.992289
1.00023 1.00197 0.992033
1.00021 1.0022 0.991864
1.00024 1.00199 0.992026
1.00015 1.00236 0.991837
1.00023 1.00229 0.991803
1.00017 1.00254 0.99161
1.00019 1.00255 0.991631
0.995099 0.998715 0.989492
1.00192 0.994481 0.993246
1.01447 0.994528 0.980872
0.999267 0.994469 0.994077
0.997351 0.998204 0.98533
0.99468 1.00014 0.982866
0.994878 1.00084 0.994765
0.996093 1.00104 0.993221
0.995247 0.998648 0.986149
0.994937 1.00105 0.979661
0.997656 0.999019 0.992275
0.994841 1.00175 0.976864
0.999793 1.00401 0.991562
0.999965 1.00256 0.991967
1.00022 1.00268 0.991498
0.99849 1.0053 0.994073
0.999854 1.00497 0.989869
0.999962 1.0026 0.993671
1.00094 1.00024 0.993863
0.998235 0.997521 0.984511
1.00511 0.996642 0.987829
1.01554 0.999619 0.973404
1.00165 0.999239 0.994728
1.00006 0.997365 0.996366
1.00529 0.996427 0.985989
0.995029 1.00304 0.974815
0.996042 0.999715 0.984428
1.00287 0.999326 0.990714
0.997679 0.998466 0.983896
0.99506 1.00321 0.974465
1.00016 0.99852 0.994839
1.00323 0.998742 0.989153
0.995499 1.00338 0.97081
1.00009 0.999005 0.996279
0.999764 1.00485 0.98943
1.00067 1.00263 0.990411
1.00198 0.997745 0.992561
1.00083 1.00299 0.989749
1.00151 0.9993 0.992095
1.00182 0.996528 0.994449
1.00083 1.00147 0.991112
1.00123 0.999144 0.992827
1.00149 0.997578 0.99389
1.00088 1.00079 0.991823
1.00112 0.999403 0.99278
1.00118 0.998738 0.993303
1.00105 0.999405 0.993032
1.001 0.999696 0.992785
1.0009 1.00009 0.992596
1.00072 1.00081 0.992256
1.0008 1.00085 0.992065
1.0009 1.0005 0.992144
1.00036 1.00109 0.992568
1.00047 1.00134 0.992179
1.00058 1.00151 0.99185
1.00009 1.00094 0.993353
1.00023 1.00121 0.992833
1.00027 1.00155 0.992287
0.999887 1.00012 0.994553
1.00007 1.00091 0.993431
1.00019 1.00119 0.992946
0.999755 0.998062 0.996832
0.999921 0.999933 0.994673
1.00005 1.00092 0.993458
0.999727 0.996792 0.999306
0.999821 0.99791 0.996863
0.999974 0.999769 0.99474
0.999776 0.996662 0.998832
0.999871 0.997821 0.996854
0.999813 0.996582 0.999301
1.00015 1.0015 0.992737
1.00018 1.00154 0.992591
1.00013 1.00104 0.993166
1.00019 1.00159 0.992532
1.00016 1.00099 0.993165
1.00004 0.999837 0.994524
0.999905 0.997836 0.996769
1.00006 0.999739 0.994572
1.00017 1.00095 0.993181
0.999844 0.996541 0.999293
0.999931 0.997728 0.996818
1.00007 0.99965 0.994652
0.999884 0.996405 0.999315
0.999957 0.997588 0.996899
0.999925 0.996253 0.999343
0.997235 0.998476 0.983598
1.00423 0.995461 0.990801
1.01605 0.99919 0.974785
1.00023 1.00172 0.992295
1.00025 1.0018 0.992178
1.00017 1.00166 0.992526
1.00013 1.00169 0.992586
1.00019 1.00186 0.992275
1.00022 1.00219 0.991882
1.00024 1.00197 0.99205
1.00014 1.00234 0.991846
1.00007 1.00199 0.99219
1.00011 1.00245 0.991751
1.00017 1.00271 0.991785
1.00018 1.00245 0.991732
1.00015 1.00252 0.99164
0.995501 1.0024 0.972009
0.995658 0.999441 0.987111
1.00186 0.99467 0.992701
0.995313 0.998069 0.990284
0.994797 1.00175 0.97256
0.996138 1.00097 0.999439
0.998108 0.999137 0.994991
0.994878 1.00106 0.978291
1.00045 0.997817 0.992892
1.00079 1.00358 0.989589
0.999696 1.00383 0.991446
1.00002 1.00238 0.991986
1.00056 1.00226 0.993757
1.0009 0.998825 0.994394
0.995996 1.00156 0.974019
0.998137 0.997903 0.98217
1.00519 0.996878 0.986756
1.0028 0.999321 0.991655
1.0003 0.998674 0.989942
0.997849 0.99836 0.982481
0.995273 1.00354 0.976138
1.00325 0.998876 0.989105
0.995922 1.00288 0.97503
1.00012 0.998966 0.990622
1.0037 0.99642 0.990337
0.999578 1.00088 0.995735
1.00056 1.00306 0.990353
1.002 0.997895 0.992531
1.00252 0.995171 0.994285
1.00146 0.999045 0.99211
1.00172 0.996509 0.99442
1.00184 0.995965 0.994738
1.00127 0.998913 0.992835
1.00147 0.997633 0.993833
1.00144 0.99778 0.993757
1.00113 0.999385 0.992775
1.00119 0.998801 0.993262
1.00117 0.998955 0.993162
1.00101 0.999335 0.993105
1.00099 0.999762 0.992794
1.001 0.999621 0.992853
1.00091 1.00009 0.992583
1.00085 1.0003 0.99249
1.00057 1.00077 0.992486
1.00071 1.00083 0.992242
1.00079 1.00087 0.992079
1.00019 1.00091 0.993184
1.00035 1.00112 0.992605
1.00047 1.00137 0.992241
0.999866 1.00032 0.994391
1.0001 1.00093 0.993352
1.00023 1.00121 0.992827
0.999691 0.998263 0.996755
0.999898 1.0001 0.994556
1.00008 1.00089 0.993436
0.999657 0.996937 0.999302
0.999757 0.998076 0.996828
0.999926 0.999931 0.994674
0.999714 0.996784 0.999305
0.999822 0.99792 0.996862
0.999764 0.996663 0.999305
1.0001 1.00155 0.99272
1.00014 1.0015 0.99274
1.00008 1.00111 0.993118
1.00018 1.00153 0.992538
1.00012 1.00105 0.993126
1 0.999957 0.994481
1.00015 1.001 0.993162
1.00004 0.999828 0.994524
0.999872 0.997929 0.996742
0.999806 0.996642 0.999284
0.999905 0.997824 0.996771
1.00007 0.999729 0.994572
0.999848 0.996538 0.999297
0.99993 0.997718 0.996821
0.999888 0.996393 0.999321
0.995804 1.00281 0.976316
0.997321 0.998323 0.985952
1.00448 0.995199 0.991217
1.00024 1.00181 0.992178
1.00016 1.00165 0.992547
1.00019 1.00186 0.992288
1.00013 1.00168 0.992588
1.00008 1.00181 0.992572
1.00009 1.00183 0.992413
1.00013 1.00231 0.991855
1.00009 1.00204 0.992179
1.00006 1.00254 0.991779
1.00008 1.00193 0.992213
1.00048 1.00234 0.991852
1.00087 1.00295 0.989908
1.00017 1.00247 0.991717
1.00013 1.0026 0.99166
0.999777 0.999835 0.995377
0.994813 1.00273 0.976307
0.99559 0.998988 0.984712
0.994677 1.0021 0.976677
0.998439 0.998856 0.998253
1.00037 0.998173 0.995803
1.00374 0.99878 0.989509
1.00061 1.00287 0.989843
0.999592 1.00361 0.991329
1.00084 0.997475 0.994927
0.998157 1.00237 0.989614
0.996161 1.00239 0.976222
0.998059 0.997173 0.985685
1.00326 0.999061 0.98906
1.00023 0.998934 0.995607
0.99572 1.00242 0.9795
1.00356 0.996515 0.990327
0.999623 1.00069 0.993368
1.00331 0.995071 0.992371
1.00181 1.00051 0.991791
1.00198 0.99805 0.992502
1.00248 0.995152 0.994311
1.00207 0.996174 0.994172
1.00163 0.99653 0.99439
1.0018 0.996175 0.99468
1.0017 0.997459 0.993546
1.00144 0.997717 0.993776
1.00141 0.99792 0.993705
1.0014 0.998749 0.992919
1.0012 0.998867 0.99322
1.00113 0.999023 0.993175
1.00107 0.999648 0.992677
1.00098 0.999273 0.993178
1.00097 0.99969 0.992843
1.00094 1.00009 0.992556
1.00092 1.00009 0.992571
1.00085 1.00031 0.992478
1.00074 1.00044 0.9926
1.00035 1.0007 0.992962
1.00056 1.0008 0.992521
1.00071 1.00085 0.992228
0.999881 1.00052 0.99417
1.00019 1.00091 0.993186
1.00034 1.00115 0.992643
0.999622 0.998497 0.996647
0.999887 1.00029 0.994392
1.00011 1.00092 0.993352
0.999583 0.997129 0.999286
0.999693 0.99828 0.99675
0.999909 1.00008 0.99456
0.999643 0.996941 0.999298
0.99976 0.99809 0.996824
0.999701 0.996776 0.999305
1.00008 1.00162 0.992724
1.00011 1.00155 0.992759
1.00003 1.00124 0.993122
1.00013 1.00151 0.992743
1.00007 1.00114 0.99312
0.999955 1.00012 0.994421
1.00012 1.00107 0.993087
1 0.999952 0.994479
0.999827 0.998054 0.99671
1.00005 0.99982 0.994523
0.999873 0.997915 0.996743
0.99976 0.996741 0.999278
0.999812 0.996648 0.999286
0.999906 0.997811 0.996773
0.999852 0.996533 0.999302
0.999103 1.00017 0.994097
0.995492 1.00228 0.974438
0.997107 0.998768 0.982858
1.00017 1.00176 0.99245
1.00019 1.00186 0.992301
1.00013 1.00168 0.99259
1.00011 1.00186 0.992414
1.00006 1.00183 0.992559
1.00002 1.00168 0.99267
1.00013 1.00211 0.992168
1.00001 1.00264 0.991808
1.00013 1.00198 0.99225
1.00028 1.00223 0.992008
1.00076 1.00197 0.991054
1.00231 1.00161 0.988277
1.00077 1.00285 0.990052
1.00018 1.00226 0.99165
1.00379 0.997776 0.988648
0.999665 0.999889 0.993107
0.994851 1.00241 0.980367
1.00028 0.998537 0.99062
1.0036 0.999558 0.987995
1.00046 1.00212 0.990104
1.00148 1.00078 0.993862
0.998184 1.00229 0.994795
0.995969 1.00145 0.974012
1.00355 0.996654 0.990311
0.999645 1.0002 0.990936
1.00324 0.995445 0.99213
1.00182 1.00017 0.992245
1.00229 0.997462 0.991601
1.00139 0.999925 0.990761
1.00246 0.995084 0.994337
1.00202 0.996247 0.994181
1.0017 0.998417 0.992731
1.00178 0.996378 0.994622
1.00169 0.997608 0.993512
1.0016 0.9989 0.99239
1.00139 0.99806 0.993653
1.00134 0.998814 0.992983
1.00128 0.999675 0.992215
1.00109 0.999088 0.993188
1.00106 0.999655 0.992679
1.00101 1.00007 0.992381
1.00096 0.999617 0.992891
1.00093 1.00004 0.992576
1.00083 1.00028 0.992534
1.00086 1.00032 0.992465
1.00073 1.00043 0.992566
1.00053 1.00049 0.992926
0.999959 1.00058 0.993956
1.00034 1.00073 0.993005
1.00055 1.00083 0.992557
0.999561 0.998766 0.996484
0.999902 1.00048 0.994172
1.00019 1.00091 0.993188
0.999506 0.99735 0.999264
0.999627 0.99852 0.99664
0.999906 1.00026 0.994393
0.999568 0.997138 0.99928
0.999696 0.998297 0.996745
0.999629 0.996944 0.999293
1.00012 1.00159 0.992611
1.00008 1.0016 0.992727
1.00003 1.00131 0.993136
1.00012 1.00155 0.992798
1.00003 1.00125 0.993149
0.999901 1.00032 0.994328
1.00006 1.00116 0.993122
0.999951 1.00012 0.994419
0.999766 0.99823 0.996661
1 0.999947 0.994478
0.999828 0.998038 0.996712
0.999701 0.996867 0.99927
0.999875 0.997901 0.996745
0.999769 0.996751 0.99928
0.999817 0.996655 0.999289
1.00266 0.997112 0.99192
0.999019 1.00085 0.989879
0.995879 1.00223 0.976191
1.00015 1.00154 0.992563
1.00051 1.0015 0.992058
1.00009 1.00177 0.992478
1.00013 1.00188 0.992415
1.00005 1.00186 0.992545
1.00007 1.0017 0.992646
1.00079 1.00149 0.991426
1.00017 1.00202 0.992286
1.00007 1.00212 0.992164
1.00073 1.00199 0.991021
1.0019 1.00118 0.989357
1.00266 0.998898 0.990278
1.00229 1.00149 0.988474
1.00065 1.00273 0.990198
1.00376 0.997773 0.988762
0.999509 1.00028 0.990526
1.00362 1.00037 0.986473
1.001 0.999478 0.992749
1.00141 1.00023 0.993947
0.998244 1.002 0.989444
1.00307 0.995787 0.991887
1.00185 0.999771 0.99269
1.00237 0.997561 0.991752
1.0015 1.00007 0.991047
1.00165 0.999832 0.991376
1.00118 0.999843 0.992408
1.00196 0.996272 0.994189
1.00167 0.998372 0.992775
1.00165 0.999585 0.991626
1.00167 0.997709 0.993478
1.00157 0.998946 0.992397
1.00149 0.999679 0.99173
1.00128 0.998869 0.993047
1.00128 0.999679 0.992215
1.00119 1.0001 0.991974
1.00106 0.999662 0.992682
1.00101 1.00006 0.992379
1.00091 1.00029 0.99236
1.00092 0.999977 0.992597
1.00082 1.00026 0.992535
1.00062 1.00038 0.992842
1.00073 1.00043 0.992532
1.00051 1.00049 0.992906
1.00006 1.0005 0.99381
0.999536 0.999028 0.996298
0.999972 1.00054 0.993961
1.00033 1.00075 0.993048
0.999433 0.997591 0.999231
0.999569 0.998793 0.996476
0.999923 1.00044 0.994173
0.999493 0.997361 0.999255
0.999632 0.998543 0.996633
0.999554 0.997147 0.999274
1.00025 1.00154 0.992294
1.00012 1.00158 0.992572
1.00009 1.00127 0.993049
1.00008 1.00158 0.99273
1.00001 1.00131 0.993133
0.999863 1.00053 0.994204
1.00002 1.00126 0.993177
0.999892 1.00034 0.994326
0.999689 0.998464 0.996587
0.999947 1.00013 0.994416
0.999766 0.998214 0.996664
0.999626 0.997039 0.999257
0.99983 0.998022 0.996714
0.999714 0.996873 0.999273
0.999777 0.996761 0.999282
1.00195 0.998063 0.992602
1.00269 0.997548 0.992477
0.998956 1.00144 0.995607
1.00085 1.0012 0.991797
1.00008 1.00151 0.992741
1.00083 1.0012 0.991327
1.0005 1.00152 0.992024
1 1.00179 0.992506
1.00176 1.00077 0.990213
1.00013 1.00171 0.992622
1.00081 1.00142 0.991453
1.00247 0.999167 0.990207
1.0007 1.00201 0.990987
1.00205 1.00116 0.989169
1.00271 0.998792 0.990204
1.00227 1.00136 0.988671
1.00364 0.99777 0.988878
1.00109 0.999272 0.99319
1.00094 0.999274 0.992767
1.00134 0.999676 0.994037
1.00243 0.997693 0.991905
1.00161 1.00022 0.991333
1.00177 0.999691 0.991351
1.00118 0.999829 0.99242
1.00121 0.999933 0.992143
1.00164 0.998374 0.99282
1.00166 0.999493 0.991676
1.00157 0.999893 0.991463
1.00154 0.999002 0.992404
1.0015 0.999731 0.991707
1.0014 1.0001 0.991561
1.00128 0.999684 0.992214
1.0012 1.00009 0.991966
1.00106 1.0003 0.992038
1.00101 1.00006 0.992378
1.00091 1.00029 0.992358
1.00071 1.00038 0.992665
1.00082 1.00024 0.992537
1.00062 1.00038 0.992844
1.00016 1.00042 0.993694
1.00049 1.00048 0.992885
1.00007 1.00048 0.993816
0.99952 0.999263 0.996654
0.999384 0.997901 0.998035
0.999542 0.999044 0.996561
0.999986 1.0005 0.993966
0.999422 0.997605 0.999218
0.999577 0.998819 0.996469
0.999479 0.997371 0.999247
1.00109 1.00069 0.991493
1.00045 1.00144 0.991962
1.00029 1.00153 0.992251
1.00018 1.00122 0.992917
1.00012 1.00156 0.992533
1.00008 1.00127 0.993053
0.999854 1.00068 0.994081
1.00001 1.00132 0.99313
0.999848 1.00055 0.994202
0.999606 0.998732 0.996491
0.999882 1.00035 0.994324
0.999687 0.998445 0.996591
0.999536 0.997258 0.999238
0.999767 0.998197 0.996666
0.999643 0.997035 0.999261
0.999727 0.996879 0.999275
1.00189 0.99857 0.992148
1.0019 0.998099 0.99243
1.00273 0.998049 0.993033
1.00159 1.0006 0.990678
1.00071 1.0012 0.991985
1.00001 1.00149 0.992918
1.00094 1.00114 0.99142
1.0005 1.00152 0.99199
1.00227 0.99971 0.990137
1.00178 1.00082 0.99011
1.00082 1.00134 0.991481
1.00254 0.999153 0.990157
1.0022 1.00114 0.988981
1.00277 0.998693 0.990129
1.00082 0.999693 0.992973
1.00103 0.999315 0.993145
1.00087 0.999056 0.992785
1.00189 0.999552 0.991326
1.00117 0.999815 0.992432
1.00124 0.999905 0.99214
1.00113 1.00015 0.992058
1.00167 0.999395 0.991726
1.00161 0.999838 0.991431
1.00145 0.999978 0.991566
1.0015 0.999782 0.991685
1.0014 1.0001 0.991553
1.00123 1.00029 0.9917
1.00121 1.00009 0.991958
1.00107 1.0003 0.992031
1.00083 1.0004 0.9924
1.00091 1.00029 0.992356
1.00071 1.00038 0.992663
1.00024 1.00041 0.99353
1.00062 1.00038 0.992845
1.00015 1.00042 0.993699
0.999505 0.999507 0.996463
1.00007 1.00046 0.993823
0.999529 0.999278 0.996624
0.999304 0.998237 0.997872
0.999369 0.997877 0.998602
0.999549 0.99906 0.996822
0.999411 0.997619 0.999204
1.0016 1.00033 0.9909
1.0008 1.00104 0.991914
1.00102 1.00058 0.991781
1.00031 1.00122 0.992642
1.0005 1.00147 0.991967
1.00033 1.00152 0.992208
1.00017 1.00122 0.99292
0.999864 1.0008 0.99394
1.00007 1.00127 0.993056
0.999835 1.00071 0.994079
0.999528 0.999004 0.996381
0.999833 1.00057 0.994201
0.999601 0.998712 0.996496
0.999437 0.997512 0.999215
0.999685 0.998426 0.996595
0.999556 0.997245 0.999244
0.99966 0.997032 0.999265
1.0017 0.999396 0.991663
1.00186 0.998578 0.992157
1.00186 0.998132 0.992259
1.00204 0.999773 0.990416
1.0016 1.00059 0.99069
1.00058 1.00121 0.992173
1.00106 1.00108 0.991513
1.00231 0.999722 0.99013
1.00179 1.00087 0.990007
1.00261 0.99914 0.990106
1.00091 1.00009 0.992513
1.00092 0.999753 0.992807
1.00099 0.999358 0.9931
1.00102 1.00046 0.991995
1.00127 0.999878 0.992136
1.00113 1.00017 0.992036
1.00122 1.00014 0.991888
1.00164 0.999788 0.991399
1.00145 0.999978 0.991571
1.00129 1.00026 0.991621
1.00141 1.0001 0.991544
1.00123 1.00029 0.991699
1.00096 1.0004 0.992138
1.00107 1.0003 0.992024
1.00083 1.00039 0.992396
1.00035 1.00043 0.993308
1.00071 1.00037 0.992661
1.00024 1.00041 0.993529
0.999486 0.99973 0.996286
1.00015 1.00042 0.993703
0.999518 0.999506 0.996433
0.999204 0.998605 0.997732
0.999539 0.999293 0.996593
0.999298 0.998207 0.997896
0.999353 0.997851 0.999174
1.00194 1.00007 0.990577
1.00135 1.00049 0.991303
1.00155 1.00037 0.991007
1.00059 1.00101 0.992436
1.00079 1.001 0.991896
1.00095 1.00046 0.992069
0.999945 1.0009 0.993673
1.00031 1.00122 0.992642
1.00055 1.00149 0.991971
1.00016 1.00123 0.992924
0.999845 1.00083 0.993937
0.999471 0.99929 0.996214
0.999815 1.00074 0.994077
0.999519 0.998988 0.996384
0.999334 0.997789 0.999186
0.999597 0.998692 0.996501
0.999459 0.997491 0.999222
0.999576 0.997231 0.99925
1.00167 0.99968 0.991458
1.00179 0.999365 0.991547
1.00183 0.998585 0.992167
1.00216 0.999719 0.990326
1.0016 1.00058 0.990702
1.00235 0.99973 0.990124
1.00098 1.00047 0.992008
1.00087 1.00016 0.992537
1.00102 0.999816 0.992641
1.00102 1.00049 0.991969
1.00103 1.00064 0.991789
1.00113 1.00019 0.992013
1.00121 1.00015 0.991887
1.00119 1.0003 0.991847
1.00145 0.999979 0.991576
1.00129 1.00025 0.991634
1.00101 1.00042 0.992001
1.00123 1.00029 0.991698
1.00096 1.0004 0.992134
1.00044 1.00044 0.993104
1.00084 1.00039 0.992392
1.00035 1.00043 0.993303
0.99947 0.999921 0.996122
1.00024 1.00042 0.993528
0.999504 0.999725 0.996257
0.999085 0.998988 0.997609
0.999532 0.999506 0.996404
0.9992 0.998573 0.997756
0.99929 0.998178 0.99792
1.0018 0.999507 0.991388
1.00168 1.00022 0.990869
1.00196 1.00003 0.990539
1.00098 1.00063 0.991945
1.00133 1.00052 0.991359
1.00149 1.00043 0.991115
1.00013 1.00082 0.993338
1.00058 1.00099 0.992328
1.00078 1.00097 0.991878
0.999473 0.999588 0.995916
0.999929 1.00092 0.993672
1.0003 1.00123 0.992641
0.999825 1.00086 0.993934
0.999453 0.999283 0.996219
0.999238 0.998099 0.999138
0.99951 0.998972 0.996388
0.999356 0.997763 0.999195
0.99948 0.99747 0.999229
1.00138 1.00032 0.99139
1.0017 0.999662 0.991411
1.00187 0.999332 0.991431
1.00227 0.99967 0.990237
1.00106 1.00069 0.991626
1.00097 1.00047 0.992051
1.00083 1.00022 0.992562
1.00101 1.00051 0.991944
1.00102 1.00063 0.991803
1.00098 1.00061 0.991907
1.0012 1.00015 0.991886
1.00117 1.0003 0.991856
1.00098 1.00046 0.992035
1.00128 1.00024 0.991646
1.00101 1.00042 0.992008
1.00048 1.00049 0.992968
1.00096 1.0004 0.992131
1.00044 1.00045 0.993098
0.999467 1.00011 0.995306
1.00034 1.00043 0.993299
0.999493 0.999946 0.995746
0.998965 0.999188 0.998946
0.999522 0.999721 0.996227
0.999082 0.998962 0.997631
0.999195 0.998539 0.997779
1.00154 1.00001 0.991434
1.00166 0.999792 0.991315
1.00175 0.999564 0.991376
1.00124 1.00035 0.991448
1.00166 1.00019 0.990967
1.00199 0.999991 0.990502
1.00041 1.00058 0.99283
1.00098 1.00063 0.991941
1.00131 1.00055 0.991414
0.999547 0.999809 0.99553
1.00014 1.00082 0.993242
1.00056 1.00097 0.992221
0.999165 0.998456 0.999054
0.99944 0.999597 0.995927
0.999913 1.00094 0.993671
0.999435 0.999276 0.996224
0.999255 0.998066 0.999154
0.999378 0.997737 0.999204
1.00119 1.00055 0.991519
1.00135 1.00028 0.991479
1.00173 0.999645 0.991363
1.00107 1.00071 0.991625
1.00108 1.00071 0.991613
1.00097 1.00048 0.992094
1.00101 1.00062 0.991818
1.00099 1.00059 0.991912
1.00084 1.00062 0.992219
1.00115 1.0003 0.991865
1.00096 1.00047 0.992104
1.00048 1.00056 0.992805
1.00101 1.00041 0.992016
1.00048 1.00049 0.99297
0.999437 1.00024 0.99523
1.00044 1.00045 0.993093
0.999485 1.00009 0.995301
0.998888 0.999428 0.99893
0.999515 0.999968 0.995373
0.998956 0.999268 0.998242
0.999079 0.998935 0.997653
1.00135 1.0004 0.991485
1.00146 0.999964 0.991572
1.00152 0.999987 0.991427
1.0013 1.00015 0.991651
1.00162 0.999811 0.991352
1.0017 0.999622 0.991364
1.00065 1.0004 0.992504
1.00127 1.00037 0.991559
1.00164 1.00017 0.991065
0.999641 0.999923 0.995195
1.00044 1.00058 0.992782
1.00098 1.00063 0.991936
0.999116 0.99882 0.998958
0.999507 0.999837 0.995542
1.00014 1.00081 0.993146
0.999173 0.998411 0.999082
0.999406 0.999607 0.995938
0.999273 0.998031 0.99917
1.00113 1.00061 0.991586
1.00121 1.00054 0.991508
1.00131 1.00025 0.991568
1.00093 1.0007 0.991949
1.00107 1.00073 0.99163
1.00109 1.00072 0.9916
1.001 1.00057 0.991916
1.00084 1.0006 0.992223
1.00044 1.00065 0.992775
1.00095 1.00048 0.992173
1.00048 1.00056 0.992864
0.999408 1.00042 0.995127
1.00048 1.00049 0.992972
0.999451 1.00023 0.995227
0.99879 0.99967 0.998914
0.999503 1.00008 0.995296
0.998864 0.999461 0.998925
0.998952 0.999352 0.997529
1.00126 1.00038 0.991647
1.00134 1.00039 0.991442
1.0012 1.00021 0.99183
1.00145 0.99996 0.991581
1.0015 0.999963 0.99142
1.00074 1.00031 0.992593
1.00132 1.00015 0.991637
1.00159 0.999829 0.991388
0.999692 0.999985 0.994999
1.00068 1.00041 0.992556
1.00129 1.00038 0.99167
0.999069 0.999138 0.998884
0.999605 0.999958 0.995205
1.00047 1.00058 0.992735
0.999118 0.998771 0.998987
0.999466 0.999866 0.995555
0.999181 0.998364 0.999109
1.00099 1.00063 0.991919
1.00113 1.00061 0.991598
1.00123 1.00053 0.991497
1.0005 1.00069 0.992608
1.00093 1.00071 0.99195
1.00107 1.00075 0.991635
1.00085 1.00058 0.992227
1.00044 1.00064 0.992789
0.999393 1.00055 0.99502
1.00047 1.00056 0.992922
0.999416 1.0004 0.995127
0.998712 0.999878 0.99889
0.999466 1.00021 0.995225
0.998773 0.999696 0.998907
0.998843 0.999495 0.99892
1.00106 1.00048 0.991886
1.00127 1.00036 0.991616
1.00133 1.00038 0.991398
1.00067 1.00038 0.992672
1.0012 1.00021 0.991828
1.00144 0.999956 0.991589
0.999667 1.00004 0.994969
1.00075 1.00031 0.992588
1.00134 1.00015 0.991624
0.999007 0.999392 0.998847
0.999669 1.00001 0.995005
1.0007 1.00041 0.992608
0.999074 0.999097 0.998904
0.999569 0.999993 0.995215
0.99912 0.998721 0.999016
1.00055 1.00066 0.99267
1.00099 1.00064 0.991855
1.00114 1.00061 0.99161
0.999402 1.0006 0.994949
1.0005 1.00069 0.992627
1.00093 1.00072 0.991952
1.00044 1.00063 0.992804
0.999398 1.00054 0.995018
0.998666 1.00004 0.998857
0.999424 1.00039 0.995126
0.998702 0.999899 0.998879
0.998754 0.999721 0.998899
1.00058 1.00056 0.992699
1.00106 1.00047 0.991866
1.00127 1.00035 0.991585
0.999577 1.00012 0.995767
1.00068 1.00039 0.992668
1.0012 1.00022 0.991827
0.99891 0.999594 0.998849
0.99966 1.00006 0.994967
1.00076 1.00032 0.992583
0.999019 0.99936 0.998856
0.999647 1.00004 0.995012
0.999077 0.999054 0.998925
0.999438 1.00055 0.994921
1.00055 1.00066 0.992619
1.00098 1.00065 0.991792
0.998651 1.00012 0.998835
0.999409 1.00059 0.994944
1.00049 1.00069 0.992647
0.999405 1.00054 0.995016
0.998667 1.00005 0.998848
0.998696 0.999919 0.998867
0.999491 1.00031 0.995741
1.00058 1.00056 0.992698
1.00106 1.00046 0.991845
0.998796 0.999761 0.99888
0.999579 1.00019 0.995012
1.00069 1.00039 0.992664
0.998934 0.99957 0.998846
0.999653 1.00007 0.994966
0.99903 0.99933 0.998866
0.99867 1.00027 0.997257
0.999445 1.0005 0.99532
1.00054 1.00066 0.992569
0.998656 1.00012 0.99883
0.999412 1.00059 0.994941
0.998662 1.00006 0.998841
0.998713 1.00008 0.997329
0.999497 1.00036 0.995372
1.00059 1.00056 0.992697
0.998817 0.999828 0.998101
0.999573 1.00021 0.995004
0.99896 0.999548 0.998844
0.998674 1.00009 0.998825
0.99944 1.00055 0.994933
0.998663 1.00011 0.998826
0.998715 1.00004 0.998079
0.999485 1.00041 0.994987
0.998852 0.999741 0.998853
0.998689 1.00006 0.998834
0.998751 0.999923 0.998853

TENSORS stress float
0.00118256 2.65314e-05 1.68162e-05
2.65314e-05 0.000166669 -4.82463e-06
1.68162e-05 -4.82463e-06 0.000162284
0.00258776 -3.52875e-05 1.45192e-05
-3.52875e-05 0.000843034 3.04369e-06
1.45192e-05 3.04369e-06 0.000853168
0.00116601 2.78642e-05 6.20012e-06
2.78642e-05 0.000158912 -1.84266e-06
6.20012e-06 -1.84266e-06 0.000154791
0.00124577 2.57795e-05 2.06098e-05
2.57795e-05 0.000230312 -3.48061e-06
2.06098e-05 -3.48061e-06 0.000215429
0.0012081 2.68224e-05 1.80145e-05
2.68224e-05 0.00019013 -4.47088e-06
1.80145e-05 -4.47088e-06 0.000182014
0.00114996 2.58049e-05 1.55735e-05
2.58049e-05 0.000141985 -5.04813e-06
1.55735e-05 -5.04813e-06 0.000141263
0.001148 2.11447e-05 5.07353e-06
2.11447e-05 0.000135545 -2.06106e-06
5.07353e-06 -2.06106e-06 0.000112408
0.00263474 -3.5617e-05 2.03023e-07
-3.5617e-05 0.000864839 -9.58571e-08
2.03023e-07 -9.58571e-08 0.000875115
0.00286957 -4.38901e-05 7.09063e-06
-4.38901e-05 0.00101344 1.01003e-06
7.09063e-06 1.01003e-06 0.00101554
0.00267031 -3.97475e-05 6.44176e-06
-3.97475e-05 0.000891929 1.16103e-06
6.44176e-06 1.16103e-06 0.000899997
0.00110783 -2.41797e-05 1.2055e-05
-2.41797e-05 0.000102779 3.21712e-06
1.2055e-05 3.21712e-06 0.000108182
0.000858479 -2.22566e-05 4.78802e-06
-2.22566e-05 -1.75461e-05 2.5891e-06
4.78802e-06 2.5891e-06 -3.46866e-05
0.00133769 -1.96175e-05 2.25343e-05
-1.96175e-05 0.000309729 6.64032e-07
2.25343e-05 6.64032e-07 0.000289493
0.00121419 -2.93102e-05 5.4959e-06
-2.93102e-05 0.000235931 6.67186e-07
5.4959e-06 6.67186e-07 0.000219019
0.00114706 2.92788e-05 -4.67078e-06
2.92788e-05 0.000150062 1.18212e-06
-4.67078e-06 1.18212e-06 0.000146198
0.00125615 2.8031e-05 7.72504e-06
2.8031e-05 0.000235938 -1.35608e-06
7.72504e-06 -1.35608e-06 0.000221089
0.00113466 2.70389e-05 5.76878e-06
2.70389e-05 0.000134761 -1.87684e-06
5.76878e-06 -1.87684e-06 0.000134287
0.00119599 2.83728e-05 6.63584e-06
2.83728e-05 0.000184377 -1.71241e-06
6.63584e-06 -1.71241e-06 0.000176505
0.00117895 2.17785e-05 -2.08657e-06
2.17785e-05 0.000150874 3.30293e-07
-2.08657e-06 3.30293e-07 0.000127691
0.00334925 4.95638e-05 2.26913e-05
4.95638e-05 0.00129382 -7.06232e-07
2.26913e-05 -7.06232e-07 0.00128629
0.00128228 2.50282e-05 2.20939e-05
2.50282e-05 0.000256294 -2.64734e-06
2.20939e-05 -2.64734e-06 0.000239397
0.00122263 2.65147e-05 1.9183e-05
2.65147e-05 0.000209123 -4.05622e-06
1.9183e-05 -4.05622e-06 0.000197381
0.00124774 1.32703e-05 5.62275e-06
1.32703e-05 0.000183286 -1.44637e-06
5.62275e-06 -1.44637e-06 0.000151627
0.00118141 1.78641e-05 5.28823e-06
1.78641e-05 0.000152621 -1.7805e-06
5.28823e-06 -1.7805e-06 0.000126633
0.00114619 2.49058e-05 1.47658e-05
2.49058e-05 0.000131125 -5.14361e-06
1.47658e-05 -5.14361e-06 0.000133573
0.00111108 2.41851e-05 4.75716e-06
2.41851e-05 0.000116628 -2.32744e-06
4.75716e-06 -2.32744e-06 9.66001e-05
0.00139657 -1.84842e-06 1.76387e-06
-1.84842e-06 0.000218465 -8.21056e-07
1.76387e-06 -8.21056e-07 0.000170711
0.00268248 -3.59988e-05 -1.42775e-05
-3.59988e-05 0.000886994 -3.06879e-06
-1.42775e-05 -3.06879e-06 0.000897408
0.00203033 -3.53942e-05 -5.78336e-06
-3.53942e-05 0.000599042 -8.05918e-07
-5.78336e-06 -8.05918e-07 0.00059606
0.00191217 -3.2881e-05 -5.17693e-06
-3.2881e-05 0.000517152 -9.02786e-07
-5.17693e-06 -9.02786e-07 0.000521111
0.00254318 -3.32411e-05 1.39771e-07
-3.32411e-05 0.000812232 -7.36468e-08
1.39771e-07 -7.36468e-08 0.000824464
0.000810654 -2.17269e-05 1.00966e-07
-2.17269e-05 -4.08902e-05 -4.9432e-08
1.00966e-07 -4.9432e-08 -5.78162e-05
0.00119089 -2.65605e-05 1.56908e-05
-2.65605e-05 0.000200162 2.16955e-06
1.56908e-05 2.16955e-06 0.000188402
0.00111513 -2.66737e-05 1.38074e-05
-2.66737e-05 0.000136376 2.73746e-06
1.38074e-05 2.73746e-06 0.000132789
0.00168907 -1.69021e-05 9.25604e-06
-1.69021e-05 0.000403015 1.87062e-06
9.25604e-06 1.87062e-06 0.000380165
0.00247562 -3.26529e-05 5.76387e-06
-3.26529e-05 0.000770536 1.37984e-06
5.76387e-06 1.37984e-06 0.000784624
0.0016214 -2.74719e-05 8.42651e-06
-2.74719e-05 0.000364809 2.23832e-06
8.42651e-06 2.23832e-06 0.000348635
0.000861674 -2.09239e-05 5.93397e-06
-2.09239e-05 -2.24156e-05 3.94351e-06
5.93397e-06 3.94351e-06 -3.67965e-05
0.000959825 1.64879e-06 2.55331e-06
1.64879e-06 1.26445e-05 1.29058e-06
2.55331e-06 1.29058e-06 -3.31446e-05
0.00248752 -2.60765e-05 1.30034e-05
-2.60765e-05 0.000761843 3.75364e-06
1.30034e-05 3.75364e-06 0.000778318
0.00328418 -4.76043e-05 8.05924e-07
-4.76043e-05 0.00126945 -1.45952e-07
8.05924e-07 -1.45952e-07 0.00126113
0.00215454 -3.65894e-05 -6.87396e-06
-3.65894e-05 0.000700253 -4.41809e-07
-6.87396e-06 -4.41809e-07 0.000688955
0.0034107 -3.67978e-05 2.51182e-05
-3.67978e-05 0.00133152 1.72979e-07
2.51182e-05 1.72979e-07 0.00132293
0.00122514 -2.90188e-05 5.61117e-06
-2.90188e-05 0.000251302 5.39158e-07
5.61117e-06 5.39158e-07 0.000232415
0.000726931 -1.63332e-05 7.60509e-06
-1.63332e-05 -5.88303e-05 1.3415e-06
7.60509e-06 1.3415e-06 -9.83392e-05
0.00305869 -4.72907e-05 7.81284e-06
-4.72907e-05 0.00113303 7.4228e-07
7.81284e-06 7.4228e-07 0.00112957
0.00168646 -1.89227e-05 1.20343e-05
-1.89227e-05 0.000412087 1.75467e-06
1.20343e-05 1.75467e-06 0.000382081
0.00126574 3.05463e-05 -5.64335e-06
3.05463e-05 0.000241213 8.56825e-07
-5.64335e-06 8.56825e-07 0.000226378
0.00117936 2.99947e-05 -4.98919e-06
2.99947e-05 0.000176472 1.07529e-06
-4.98919e-06 1.07529e-06 0.000168847
0.00112122 2.83785e-05 -4.32732e-06
2.83785e-05 0.000128526 1.23122e-06
-4.32732e-06 1.23122e-06 0.000128279
0.00121369 2.22151e-05 -9.38987e-06
2.22151e-05 0.00016804 2.75519e-06
-9.38987e-06 2.75519e-06 0.000144809
0.00231093 4.02456e-05 -6.7835e-06
4.02456e-05 0.000782487 -3.17475e-07
-6.7835e-06 -3.17475e-07 0.000768894
0.00128786 2.76494e-05 8.30646e-06
2.76494e-05 0.000259898 -1.07894e-06
8.30646e-06 -1.07894e-06 0.000242844
0.00112582 2.60829e-05 5.45614e-06
2.60829e-05 0.000121367 -1.89754e-06
5.45614e-06 -1.89754e-06 0.000123993
0.00122268 2.83844e-05 7.1207e-06
2.83844e-05 0.000209344 -1.54433e-06
7.1207e-06 -1.54433e-06 0.000197782
0.00127316 1.30773e-05 -2.75709e-06
1.30773e-05 0.000195522 2.6614e-07
-2.75709e-06 2.6614e-07 0.000163962
0.00114729 2.44219e-05 -1.97967e-06
2.44219e-05 0.000134276 2.69047e-07
-1.97967e-06 2.69047e-07 0.000114255
0.00120773 1.82206e-05 -2.30296e-06
1.82206e-05 0.000165401 3.70516e-07
-2.30296e-06 3.70516e-07 0.000139434
0.00143071 -3.77262e-06 -9.31549e-07
-3.77262e-06 0.000233397 5.4592e-07
-9.31549e-07 5.4592e-07 0.0001854
0.00341339 5.21941e-05 2.26702e-05
5.21941e-05 0.0013286 -2.81749e-07
2.26702e-05 -2.81749e-07 0.0013202
0.00128136 2.40605e-05 2.29691e-05
2.40605e-05 0.000266319 -1.95978e-06
2.29691e-05 -1.95978e-06 0.000248355
0.00174133 2.93995e-05 4.71754e-06
2.93995e-05 0.000433279 -4.58784e-07
4.71754e-06 -4.58784e-07 0.000400999
0.00128851 1.18683e-05 5.9615e-06
1.18683e-05 0.000201161 -1.08158e-06
5.9615e-06 -1.08158e-06 0.000167769
0.0012088 1.55454e-05 5.36678e-06
1.55454e-05 0.000166395 -1.61705e-06
5.36678e-06 -1.61705e-06 0.000137492
0.00153761 -1.28084e-05 1.72526e-06
-1.28084e-05 0.000245304 -6.84157e-07
1.72526e-06 -6.84157e-07 0.000192112
0.00119879 -4.77147e-06 2.20234e-06
-4.77147e-06 0.000109056 -9.6579e-07
2.20234e-06 -9.6579e-07 5.90791e-05
0.001223 2.39589e-05 1.46896e-05
2.39589e-05 0.000157103 -5.30263e-06
1.46896e-05 -5.30263e-06 0.000162008
0.00109153 2.28009e-05 4.82694e-06
2.28009e-05 0.000101679 -2.39902e-06
4.82694e-06 -2.39902e-06 8.537e-05
0.00135664 2.24805e-06 1.6757e-06
2.24805e-06 0.000211442 -9.3837e-07
1.6757e-06 -9.3837e-07 0.000165451
0.00113263 -2.50734e-05 1.41886e-06
-2.50734e-05 4.71557e-05 -8.83728e-07
1.41886e-06 -8.83728e-07 -1.2516e-05
0.00294379 -4.23745e-05 -1.60668e-05
-4.23745e-05 0.00104686 -2.52005e-06
-1.60668e-05 -2.52005e-06 0.00104947
0.00260837 -3.35923e-05 -1.38167e-05
-3.35923e-05 0.000842531 -3.2332e-06
-1.38167e-05 -3.2332e-06 0.000854901
0.0027641 -3.82932e-05 -1.49085e-05
-3.82932e-05 0.000935889 -2.88791e-06
-1.49085e-05 -2.88791e-06 0.000944108
0.00076302 -2.12154e-05 -4.7389e-06
-2.12154e-05 -6.41437e-05 -2.79977e-06
-4.7389e-06 -2.79977e-06 -8.08548e-05
0.00299601 -4.28331e-05 1.79656e-07
-4.28331e-05 0.00108947 -1.22908e-07
1.79656e-07 -1.22908e-07 0.00108848
0.00276278 -3.96271e-05 1.70367e-07
-3.96271e-05 0.000949252 -9.17302e-08
1.70367e-07 -9.17302e-08 0.000954358
0.000799822 -1.29099e-05 7.83757e-08
-1.29099e-05 -3.33407e-05 -8.6768e-08
7.83757e-08 -8.6768e-08 -6.13103e-05
0.00181081 -2.74965e-05 -4.74484e-06
-2.74965e-05 0.000441225 -1.05011e-06
-4.74484e-06 -1.05011e-06 0.000451917
0.000823377 -2.32591e-05 1.34377e-08
-2.32591e-05 -2.90136e-05 -2.47827e-08
1.34377e-08 -2.47827e-08 -4.90349e-05
0.00120049 -2.25326e-05 2.43881e-06
-2.25326e-05 0.000144658 4.8999e-07
2.43881e-06 4.8999e-07 0.000132369
0.000960159 3.891e-07 6.42136e-08
3.891e-07 1.44476e-05 -1.38423e-07
6.42136e-08 -1.38423e-07 -3.16265e-05
0.0024722 -2.84667e-05 1.32459e-05
-2.84667e-05 0.000761403 3.54214e-06
1.32459e-05 3.54214e-06 0.000776789
0.000896886 -1.65078e-05 4.03698e-06
-1.65078e-05 -2.82665e-05 3.12842e-06
4.03698e-06 3.12842e-06 -3.72726e-05
0.000753318 -5.60062e-06 7.0428e-06
-5.60062e-06 -5.54214e-05 2.70007e-06
7.0428e-06 2.70007e-06 -8.72436e-05
0.000786923 -1.77432e-05 6.43024e-06
-1.77432e-05 -4.26099e-05 3.33096e-06
6.43024e-06 3.33096e-06 -6.70845e-05
0.000983264 1.02765e-05 2.37039e-06
1.02765e-05 6.87396e-06 1.23958e-06
2.37039e-06 1.23958e-06 -4.42169e-05
0.00158008 -2.30829e-05 8.08614e-06
-2.30829e-05 0.000323631 2.76e-06
8.08614e-06 2.76e-06 0.000315354
0.000962809 5.22255e-06 2.44627e-06
5.22255e-06 1.1543e-05 1.23404e-06
2.44627e-06 1.23404e-06 -3.57738e-05
0.000967615 -2.7663e-06 2.42622e-06
-2.7663e-06 1.71974e-05 1.63764e-06
2.42622e-06 1.63764e-06 -2.62704e-05
0.00102921 1.99932e-05 1.19067e-06
1.99932e-05 2.81742e-05 3.98788e-07
1.19067e-06 3.98788e-07 -2.92369e-05
0.00249546 -2.36542e-05 1.25687e-05
-2.36542e-05 0.00076005 3.91978e-06
1.25687e-05 3.91978e-06 0.000777469
0.00253551 -2.61707e-05 2.087e-07
-2.61707e-05 0.000784636 -6.82144e-08
2.087e-07 -6.82144e-08 0.000801048
0.0031471 -4.59099e-05 -1.88324e-05
-4.59099e-05 0.00118505 -1.54627e-06
-1.88324e-05 -1.54627e-06 0.00118005
0.00324155 -4.83737e-05 -2.08139e-05
-4.83737e-05 0.00124803 -7.64091e-07
-2.08139e-05 -7.64091e-07 0.00123998
0.00337633 -3.75595e-05 1.42393e-06
-3.75595e-05 0.00131456 -1.70966e-07
1.42393e-06 -1.70966e-07 0.00130619
0.00219649 -3.71686e-05 -7.3147e-06
-3.71686e-05 0.000730137 -3.06955e-07
-7.3147e-06 -3.06955e-07 0.000716978
0.00122176 -1.50293e-05 4.38356e-06
-1.50293e-05 0.000185779 -1.66665e-08
4.38356e-06 -1.66665e-08 0.000149754
0.00214029 -3.6468e-05 -6.51906e-06
-3.6468e-05 0.000679557 -5.82149e-07
-6.51906e-06 -5.82149e-07 0.000670582
0.00121613 -1.3775e-05 3.42368e-06
-1.3775e-05 0.000180634 1.375e-07
3.42368e-06 1.375e-07 0.0001478
0.00343976 8.46127e-06 2.26512e-05
8.46127e-06 0.00134362 1.51272e-07
2.26512e-05 1.51272e-07 0.0013354
0.000722096 -8.86094e-06 5.61696e-06
-8.86094e-06 -6.47898e-05 4.25822e-07
5.61696e-06 4.25822e-07 -0.000104608
0.00169542 -3.45453e-05 1.26241e-05
-3.45453e-05 0.000419913 1.45119e-06
1.26241e-05 1.45119e-06 0.000387859
0.00105189 -7.33587e-06 2.69955e-06
-7.33587e-06 4.63907e-06 7.2387e-07
2.69955e-06 7.2387e-07 -5.36865e-05
0.00170612 -1.26935e-05 9.90086e-06
-1.26935e-05 0.000416481 1.3522e-06
9.90086e-06 1.3522e-06 0.000388432
0.00104474 6.4334e-06 2.4581e-06
6.4334e-06 1.13336e-05 8.44804e-07
2.4581e-06 8.44804e-07 -4.40266e-05
0.00129078 2.30063e-05 -2.16555e-05
2.30063e-05 0.000279225 5.41217e-07
-2.16555e-05 5.41217e-07 0.000260109
0.00129615 3.05868e-05 -5.96698e-06
3.05868e-05 0.000264899 6.87064e-07
-5.96698e-06 6.87064e-07 0.000247647
0.00110658 2.73193e-05 -4.07514e-06
2.73193e-05 0.000112152 1.24497e-06
-4.07514e-06 1.24497e-06 0.000114953
0.00121883 3.03932e-05 -5.29075e-06
3.03932e-05 0.000207692 9.65352e-07
-5.29075e-06 9.65352e-07 0.000196308
0.00129789 1.266e-05 -1.12871e-05
1.266e-05 0.000207382 1.99483e-06
-1.12871e-05 1.99483e-06 0.000175936
0.001238 1.84733e-05 -9.9664e-06
1.84733e-05 0.000180094 2.50041e-06
-9.9664e-06 2.50041e-06 0.000154143
0.00118328 2.462e-05 -8.74896e-06
2.462e-05 0.00015176 2.8837e-06
-8.74896e-06 2.8837e-06 0.000131756
0.00146439 -5.59964e-06 -3.65002e-06
-5.59964e-06 0.000248023 1.9177e-06
-3.65002e-06 1.9177e-06 0.000199787
0.00341198 5.08652e-05 -1.3329e-06
5.08652e-05 0.00132842 -1.71456e-07
-1.3329e-06 -1.71456e-07 0.00132001
0.00127961 2.71187e-05 8.69878e-06
2.71187e-05 0.000265994 -7.07611e-07
8.69878e-06 -7.07611e-07 0.000247864
0.001006 2.0624e-05 -5.30893e-06
2.0624e-05 6.99725e-05 1.97094e-07
-5.30893e-06 1.97094e-07 3.34139e-05
0.00130527 1.12879e-05 -2.99804e-06
1.12879e-05 0.00020924 1.93375e-07
-2.99804e-06 1.93375e-07 0.000175904
0.0018773 2.85903e-05 8.73648e-06
2.85903e-05 0.000482195 -1.87611e-06
8.73648e-06 -1.87611e-06 0.000490708
0.00133626 2.46944e-05 -1.55449e-06
2.46944e-05 0.000221902 2.9643e-07
-1.55449e-06 2.9643e-07 0.000206986
0.00123611 1.5672e-05 -2.52989e-06
1.5672e-05 0.000179452 3.41394e-07
-2.52989e-06 3.41394e-07 0.000150639
0.00141058 -1.22879e-05 -1.04567e-06
-1.22879e-05 0.000182272 3.76037e-07
-1.04567e-06 3.76037e-07 0.000128373
0.00140357 1.13811e-06 -8.86509e-07
1.13811e-06 0.000231966 6.15233e-07
-8.86509e-07 6.15233e-07 0.000185654
0.00133549 -6.75513e-06 -4.74633e-07
-6.75513e-06 0.00017489 2.49748e-07
-4.74633e-07 2.49748e-07 0.000125346
0.00112102 -2.45713e-05 1.23254e-08
-2.45713e-05 4.20434e-05 -3.74011e-08
1.23254e-08 -3.74011e-08 -1.75832e-05
0.000717411 9.46948e-06 5.67046e-06
9.46948e-06 -7.11123e-05 -6.04257e-07
5.67046e-06 -6.04257e-07 -0.000109968
0.00129162 1.55806e-05 5.90344e-06
1.55806e-05 0.000207117 -7.57969e-07
5.90344e-06 -7.57969e-07 0.000173156
0.00135823 1.63391e-05 2.47925e-06
1.63391e-05 0.00014145 -2.47312e-07
2.47925e-06 -2.47312e-07 8.44177e-05
0.00134653 -1.06979e-05 2.38643e-06
-1.06979e-05 0.000138796 -6.62465e-07
2.38643e-06 -6.62465e-07 8.32183e-05
0.00125149 -8.48098e-06 2.16406e-06
-8.48098e-06 0.000120778 -9.70308e-07
2.16406e-06 -9.70308e-07 6.88e-05
0.00145868 -2.47653e-05 8.70064e-07
-2.47653e-05 0.00015784 -4.72481e-07
8.70064e-07 -4.72481e-07 9.50557e-05
0.00263042 3.10866e-05 1.37884e-05
3.10866e-05 0.000844675 -3.46792e-06
1.37884e-05 -3.46792e-06 0.000858238
0.00114891 -2.3885e-05 1.32135e-06
-2.3885e-05 4.07009e-05 -7.15775e-07
1.32135e-06 -7.15775e-07 -1.86349e-05
0.00083558 2.04648e-05 4.56807e-06
2.04648e-05 -3.58895e-05 -2.78144e-06
4.56807e-06 -2.78144e-06 -5.01112e-05
0.000915594 2.00357e-06 2.30691e-06
2.00357e-06 -7.76286e-07 -1.64709e-06
2.30691e-06 -1.64709e-06 -4.70079e-05
0.00114684 -2.53994e-05 1.32027e-06
-2.53994e-05 7.16615e-05 -1.17446e-06
1.32027e-06 -1.17446e-06 1.1386e-05
0.00119859 -3.2195e-05 1.07003e-06
-3.2195e-05 5.8506e-05 -5.31869e-07
1.07003e-06 -5.31869e-07 -5.22011e-06
0.000850154 1.71072e-05 4.18791e-06
1.71072e-05 -4.55408e-05 -3.18373e-06
4.18791e-06 -3.18373e-06 -5.65896e-05
0.000974927 1.61435e-06 2.52546e-06
1.61435e-06 6.86572e-06 -2.14106e-06
2.52546e-06 -2.14106e-06 -3.38722e-05
0.00304305 -4.38069e-05 -1.71372e-05
-4.38069e-05 0.00110836 -2.26545e-06
-1.71372e-05 -2.26545e-06 0.00110801
0.00284246 -4.04827e-05 -1.53258e-05
-4.04827e-05 0.000985155 -2.70282e-06
-1.53258e-05 -2.70282e-06 0.00099077
0.000725755 -1.46963e-05 -4.76496e-06
-1.46963e-05 -6.59452e-05 -2.32591e-06
-4.76496e-06 -2.32591e-06 -9.42664e-05
0.00258004 -3.11461e-05 -1.37034e-05
-3.11461e-05 0.000820083 -3.43095e-06
-1.37034e-05 -3.43095e-06 0.000834086
0.00079468 -2.03794e-05 -4.52971e-06
-2.03794e-05 -5.57892e-05 -2.85826e-06
-4.52971e-06 -2.85826e-06 -6.95183e-05
0.000732476 -2.22098e-05 -4.91853e-06
-2.22098e-05 -7.21566e-05 -2.58131e-06
-4.91853e-06 -2.58131e-06 -9.22319e-05
0.000960539 -8.19884e-07 -2.46008e-06
-8.19884e-07 1.63062e-05 -1.63929e-06
-2.46008e-06 -1.63929e-06 -3.00554e-05
0.0025274 -2.85894e-05 1.93949e-07
-2.85894e-05 0.00078741 -7.39332e-08
1.93949e-07 -7.39332e-08 0.000802744
0.000882017 -1.63807e-05 9.49579e-08
-1.63807e-05 -3.57773e-05 -3.92697e-08
9.49579e-08 -3.92697e-08 -4.46891e-05
0.00121603 -1.02437e-05 3.07127e-06
-1.02437e-05 0.00017429 2.53656e-07
3.07127e-06 2.53656e-07 0.000145426
0.0011945 -2.22605e-05 2.74441e-06
-2.22605e-05 0.000159926 4.2845e-07
2.74441e-06 4.2845e-07 0.000137968
0.000978778 1.10944e-05 -3.32914e-09
1.10944e-05 4.69564e-06 -8.18754e-08
-3.32914e-09 -8.18754e-08 -4.63821e-05
0.000875007 -1.95156e-05 -5.56063e-10
-1.95156e-05 -2.54747e-05 -3.18296e-08
-5.56063e-10 -3.18296e-08 -3.69094e-05
0.000958672 4.105e-06 -1.23809e-07
4.105e-06 1.106e-05 -4.84493e-08
-1.23809e-07 -4.84493e-08 -3.64943e-05
0.000958167 -4.49439e-06 5.88097e-08
-4.49439e-06 1.40726e-05 -1.54156e-08
5.88097e-08 -1.54156e-08 -2.95824e-05
0.00098797 1.9925e-05 -3.477e-08
1.9925e-05 7.25588e-06 -1.31979e-07
-3.477e-08 -1.31979e-07 -5.04062e-05
0.000888545 -1.80304e-05 4.39296e-06
-1.80304e-05 -2.64183e-05 2.94979e-06
4.39296e-06 2.94979e-06 -3.64571e-05
0.000904328 -1.49918e-05 3.63333e-06
-1.49918e-05 -2.92154e-05 3.27935e-06
3.63333e-06 3.27935e-06 -3.72424e-05
0.000980561 -4.79786e-06 2.47603e-06
-4.79786e-06 9.38095e-06 1.80511e-06
2.47603e-06 1.80511e-06 -2.9113e-05
0.000996699 1.01202e-05 2.34974e-06
1.01202e-05 1.94493e-06 1.07233e-06
2.34974e-06 1.07233e-06 -5.06601e-05
0.000974058 8.50314e-06 2.35362e-06
8.50314e-06 1.27135e-05 1.34994e-06
2.35362e-06 1.34994e-06 -3.64793e-05
0.00113857 2.51391e-05 1.26954e-06
2.51391e-05 4.21804e-05 9.49808e-07
1.26954e-06 9.49808e-07 -1.77441e-05
0.000973182 -6.01953e-06 2.40892e-06
-6.01953e-06 1.49636e-05 1.7047e-06
2.40892e-06 1.7047e-06 -2.56253e-05
0.000985143 2.26832e-05 1.02979e-06
2.26832e-05 -4.90344e-06 5.18356e-07
1.02979e-06 5.18356e-07 -6.20356e-05
0.00106171 1.5545e-05 1.21312e-06
1.5545e-05 5.17787e-05 7.35456e-07
1.21312e-06 7.35456e-07 -6.02439e-06
0.00117919 3.21937e-05 1.85993e-08
3.21937e-05 9.37775e-05 -4.62742e-08
1.85993e-08 -4.62742e-08 3.09296e-05
0.002495 -2.12375e-05 1.19357e-05
-2.12375e-05 0.000755257 4.04217e-06
1.19357e-05 4.04217e-06 0.00077351
0.0025348 -2.37356e-05 2.26155e-07
-2.37356e-05 0.000778904 -6.14341e-08
2.26155e-07 -6.14341e-08 0.000796258
0.00258426 -2.62862e-05 -1.3089e-05
-2.62862e-05 0.000807819 -3.8117e-06
-1.3089e-05 -3.8117e-06 0.000824163
0.00086341 1.56326e-05 3.76367e-06
1.56326e-05 -4.424e-05 -3.36445e-06
3.76367e-06 -3.36445e-06 -5.42299e-05
0.00264209 2.86413e-05 1.36248e-05
2.86413e-05 0.000843004 -3.68307e-06
1.36248e-05 -3.68307e-06 0.000857743
0.00311141 -4.49497e-05 -1.8053e-05
-4.49497e-05 0.00115505 -1.92938e-06
-1.8053e-05 -1.92938e-06 0.00115214
0.00318141 -4.69929e-05 -1.96819e-05
-4.69929e-05 0.00121222 -1.1556e-06
-1.96819e-05 -1.1556e-06 0.00120551
0.000711345 -5.00999e-06 -5.21535e-06
-5.00999e-06 -6.58071e-05 -1.4631e-06
-5.21535e-06 -1.4631e-06 -0.000101608
0.000708023 -2.14434e-06 -5.4499e-06
-2.14434e-06 -6.60613e-05 -1.1192e-06
-5.4499e-06 -1.1192e-06 -0.000105015
0.00333845 -4.94721e-05 -2.19614e-05
-4.94721e-05 0.00129699 -3.37549e-07
-2.19614e-05 -3.37549e-07 0.00128818
0.00342657 6.03253e-06 -5.76611e-07
6.03253e-06 0.00133823 2.11151e-08
-5.76611e-07 2.11151e-08 0.00132956
0.000711647 -5.62275e-06 2.28746e-08
-5.62275e-06 -6.94206e-05 -1.5662e-07
2.28746e-08 -1.5662e-07 -0.000109183
0.00121544 -1.7119e-05 3.81163e-06
-1.7119e-05 0.000183473 9.06529e-08
3.81163e-06 9.06529e-08 0.000148998
0.00106597 -5.18248e-06 6.816e-08
-5.18248e-06 1.12286e-05 -9.58062e-10
6.816e-08 -9.58062e-10 -4.7043e-05
0.000757468 -5.3198e-06 5.30766e-09
-5.3198e-06 -4.94831e-05 -1.05489e-07
5.30766e-09 -1.05489e-07 -8.33078e-05
0.00105106 6.5351e-06 -1.35428e-08
6.5351e-06 1.44493e-05 -4.51166e-08
-1.35428e-08 -4.51166e-08 -4.09128e-05
0.000701242 -3.31789e-06 5.68901e-06
-3.31789e-06 -7.77341e-05 -1.09877e-07
5.68901e-06 -1.09877e-07 -0.000117367
0.0010734 -5.66666e-06 2.78118e-06
-5.66666e-06 7.3433e-06 3.34256e-07
2.78118e-06 3.34256e-07 -5.24685e-05
0.00105019 3.65541e-07 2.55098e-06
3.65541e-07 9.7346e-06 7.79075e-07
2.55098e-06 7.79075e-07 -4.6934e-05
0.00120624 -8.35778e-06 1.44625e-06
-8.35778e-06 3.79409e-05 4.27054e-07
1.44625e-06 4.27054e-07 -2.84967e-05
0.00102062 8.38142e-06 2.3575e-06
8.38142e-06 5.32657e-06 9.65557e-07
2.3575e-06 9.65557e-07 -4.87009e-05
0.00120501 7.88521e-06 1.2468e-06
7.88521e-06 4.52034e-05 5.52698e-07
1.2468e-06 5.52698e-07 -1.73326e-05
0.00341095 4.83384e-05 -2.54266e-05
4.83384e-05 0.00132845 -6.74957e-09
-2.54266e-05 -6.74957e-09 0.00132007
0.00127419 3.04368e-05 -6.03259e-06
3.04368e-05 0.000263969 4.59017e-07
-6.03259e-06 4.59017e-07 0.000245648
0.000259407 1.15859e-05 -7.63922e-06
1.15859e-05 -0.000298691 1.12805e-06
-7.63922e-06 1.12805e-06 -0.000339566
0.00131884 1.04921e-05 -1.20586e-05
1.04921e-05 0.000215714 1.58719e-06
-1.20586e-05 1.58719e-06 0.00018246
0.00252924 3.48948e-05 -5.86122e-06
3.48948e-05 0.000806272 1.30365e-06
-5.86122e-06 1.30365e-06 0.000818296
0.00157837 2.66437e-05 -8.52891e-06
2.66437e-05 0.000340822 2.88688e-06
-8.52891e-06 2.88688e-06 0.000327304
0.00126577 1.55676e-05 -1.05321e-05
1.55676e-05 0.000193632 2.25259e-06
-1.05321e-05 2.25259e-06 0.000164912
0.00128191 -1.16791e-05 -3.75729e-06
-1.16791e-05 0.000118453 1.43017e-06
-3.75729e-06 1.43017e-06 6.38501e-05
0.00147455 -8.69972e-06 -3.1187e-06
-8.69972e-06 0.000241822 1.3778e-06
-3.1187e-06 1.3778e-06 0.000192713
0.00145118 5.3811e-08 -3.40971e-06
5.3811e-08 0.000252824 2.26455e-06
-3.40971e-06 2.26455e-06 0.000206192
0.0011093 -2.41214e-05 -1.26413e-06
-2.41214e-05 3.68828e-05 7.51864e-07
-1.26413e-06 7.51864e-07 -2.27013e-05
0.000718189 1.17743e-05 -5.59466e-08
1.17743e-05 -7.07972e-05 -1.24492e-07
-5.59466e-08 -1.24492e-07 -0.000109736
0.00130291 1.58676e-05 -3.20949e-06
1.58676e-05 0.000211992 1.59747e-07
-3.20949e-06 1.59747e-07 0.000178132
0.0011222 1.5736e-05 -4.2411e-07
1.5736e-05 2.49348e-05 5.34265e-08
-4.2411e-07 5.34265e-08 -3.34412e-05
0.0014505 -1.18226e-05 -5.37261e-07
-1.18226e-05 0.000189185 7.32289e-08
-5.37261e-07 7.32289e-08 0.000134081
0.00257137 3.09283e-05 -1.66352e-07
3.09283e-05 0.000817102 -7.56821e-08
-1.66352e-07 -7.56821e-08 0.000830668
0.00121372 2.30899e-05 4.8267e-07
2.30899e-05 0.00015134 -3.51272e-08
4.8267e-07 -3.51272e-08 0.000138639
0.00116453 2.37651e-06 1.0929e-07
2.37651e-06 0.000119156 2.14466e-09
1.0929e-07 2.14466e-09 7.43715e-05
0.00126273 -9.03941e-06 -4.92732e-07
-9.03941e-06 0.000125797 1.641e-07
-4.92732e-07 1.641e-07 7.38708e-05
0.00126583 -2.31404e-05 -4.98186e-07
-2.31404e-05 6.36721e-05 2.80743e-07
-4.98186e-07 2.80743e-07 9.69779e-08
0.00102925 -2.35872e-05 -6.40508e-08
-2.35872e-05 1.6368e-05 -1.03031e-07
-6.40508e-08 -1.03031e-07 -4.41455e-05
0.00126007 -2.44735e-05 1.91242e-08
-2.44735e-05 9.43168e-05 6.10389e-08
1.91242e-08 6.10389e-08 3.54168e-05
0.00118896 -3.19976e-05 9.06314e-08
-3.19976e-05 5.43258e-05 4.96283e-09
9.06314e-08 4.96283e-09 -9.31301e-06
0.000863574 1.72802e-05 -6.46168e-08
1.72802e-05 -3.8502e-05 -5.26358e-08
-6.46168e-08 -5.26358e-08 -4.96696e-05
0.000975687 2.06995e-06 -1.07698e-07
2.06995e-06 7.20999e-06 -6.13039e-08
-1.07698e-07 -6.13039e-08 -3.34561e-05
0.00106812 9.53124e-06 2.88816e-06
9.53124e-06 -3.51622e-07 -3.17656e-07
2.88816e-06 -3.17656e-07 -5.96494e-05
0.00135176 3.45248e-06 2.45267e-06
3.45248e-06 0.000136806 -4.1484e-07
2.45267e-06 -4.1484e-07 8.06008e-05
0.00149502 1.4053e-05 1.13752e-06
1.4053e-05 0.000160667 6.48499e-08
1.13752e-06 6.48499e-08 9.50208e-05
0.00114234 -1.55904e-05 1.9298e-06
-1.55904e-05 -1.13297e-05 -7.01646e-07
1.9298e-06 -7.01646e-07 -7.70431e-05
0.00127648 -2.41735e-05 9.86223e-07
-2.41735e-05 9.02581e-05 -7.32694e-07
9.86223e-07 -7.32694e-07 3.02745e-05
0.0014275 -2.50971e-05 3.94024e-07
-2.50971e-05 0.000118719 -3.43243e-07
3.94024e-07 -3.43243e-07 5.27006e-05
0.000828497 1.87368e-05 4.43881e-06
1.87368e-05 -4.82601e-05 -2.96084e-06
4.43881e-06 -2.96084e-06 -6.06633e-05
0.0012189 -2.9771e-05 7.74811e-07
-2.9771e-05 5.15581e-05 -4.52679e-07
7.74811e-07 -4.52679e-07 -1.07897e-05
0.000935413 4.95588e-06 2.45192e-06
4.95588e-06 5.16636e-06 -1.59963e-06
2.45192e-06 -1.59963e-06 -3.87753e-05
0.000854621 -1.91497e-05 1.35841e-06
-1.91497e-05 -5.23855e-05 -1.37208e-06
1.35841e-06 -1.37208e-06 -0.000111942
0.00142466 -3.74328e-05 6.89171e-07
-3.74328e-05 0.000189039 -7.66558e-07
6.89171e-07 -7.66558e-07 0.000123456
0.00127742 -3.52282e-05 6.64095e-07
-3.52282e-05 8.50951e-05 1.0291e-07
6.64095e-07 1.0291e-07 2.11614e-05
0.00096123 3.01368e-06 2.71415e-06
3.01368e-06 4.04337e-06 -1.88753e-06
2.71415e-06 -1.88753e-06 -3.71325e-05
0.000979186 1.16983e-06 2.16038e-06
1.16983e-06 7.17013e-06 -2.26872e-06
2.16038e-06 -2.26872e-06 -3.2674e-05
0.00106211 -1.57882e-05 1.51298e-06
-1.57882e-05 4.53817e-05 -1.05368e-06
1.51298e-06 -1.05368e-06 -1.38515e-05
0.000728571 -7.55618e-06 -5.11014e-06
-7.55618e-06 -6.31242e-05 -2.02697e-06
-5.11014e-06 -2.02697e-06 -9.48278e-05
0.00258345 -2.87258e-05 -1.35093e-05
-2.87258e-05 0.000813821 -3.63893e-06
-1.35093e-05 -3.63893e-06 0.0008291
0.000867484 -1.6256e-05 -3.80539e-06
-1.6256e-05 -4.31408e-05 -3.24567e-06
-3.80539e-06 -3.24567e-06 -5.19565e-05
0.000719094 -2.22758e-05 -4.66248e-06
-2.22758e-05 -7.21569e-05 -2.46301e-06
-4.66248e-06 -2.46301e-06 -9.63528e-05
0.000974538 1.1951e-05 -2.28946e-06
1.1951e-05 2.5834e-06 -1.35495e-06
-2.28946e-06 -1.35495e-06 -4.84793e-05
0.000828894 -1.91812e-05 -4.44401e-06
-1.91812e-05 -4.78349e-05 -2.89655e-06
-4.44401e-06 -2.89655e-06 -5.91615e-05
0.000949419 -6.06017e-06 -2.33569e-06
-6.06017e-06 1.13299e-05 -1.80412e-06
-2.33569e-06 -1.80412e-06 -3.2513e-05
0.000954685 2.85866e-06 -2.43293e-06
2.85866e-06 1.06543e-05 -1.25406e-06
-2.43293e-06 -1.25406e-06 -3.71361e-05
0.00094627 1.98391e-05 -1.23384e-06
1.98391e-05 -1.39194e-05 -6.6473e-07
-1.23384e-06 -6.6473e-07 -7.18288e-05
0.000871059 -1.78829e-05 6.81344e-08
-1.78829e-05 -3.51649e-05 -5.01913e-08
6.81344e-08 -5.01913e-08 -4.51061e-05
0.000891251 -1.48914e-05 1.01419e-07
-1.48914e-05 -3.58782e-05 -2.55128e-08
1.01419e-07 -2.55128e-08 -4.38054e-05
0.000976029 -4.47267e-06 7.72631e-08
-4.47267e-06 7.38605e-06 -4.32385e-08
7.72631e-08 -4.32385e-08 -3.11513e-05
0.00100616 1.09266e-05 -4.5305e-09
1.09266e-05 6.09596e-06 -5.02501e-08
-4.5305e-09 -5.02501e-08 -4.65027e-05
0.000960785 7.97308e-06 -7.52496e-08
7.97308e-06 7.21171e-06 -2.55864e-08
-7.52496e-08 -2.55864e-08 -4.20646e-05
0.00113586 2.53678e-05 6.97237e-08
2.53678e-05 4.10949e-05 3.38351e-08
6.97237e-08 3.38351e-08 -1.88651e-05
0.000961305 -6.91406e-06 -7.2354e-08
-6.91406e-06 1.01493e-05 4.94362e-08
-7.2354e-08 4.94362e-08 -3.05366e-05
0.00104352 2.38674e-05 -3.38716e-08
2.38674e-05 2.36514e-05 -4.65252e-08
-3.38716e-08 -4.65252e-08 -3.3185e-05
0.00105543 1.62314e-05 5.03689e-08
1.62314e-05 4.88058e-05 -1.38024e-07
5.03689e-08 -1.38024e-07 -9.06672e-06
0.00109512 3.12871e-05 -4.65548e-07
3.12871e-05 5.25011e-05 1.20159e-07
-4.65548e-07 1.20159e-07 -1.07126e-05
0.000910073 -1.34979e-05 3.22384e-06
-1.34979e-05 -3.01478e-05 3.38013e-06
3.22384e-06 3.38013e-06 -3.7197e-05
0.000974885 -6.03381e-06 2.56019e-06
-6.03381e-06 1.01093e-05 1.65722e-06
2.56019e-06 1.65722e-06 -2.88999e-05
0.000987785 -3.70325e-06 2.26839e-06
-3.70325e-06 1.02905e-05 1.9601e-06
2.26839e-06 1.9601e-06 -2.76736e-05
0.00104984 8.93148e-06 1.41991e-06
8.93148e-06 3.92395e-05 8.45938e-07
1.41991e-06 8.45938e-07 -1.68426e-05
0.0011427 1.95614e-05 1.46056e-06
1.95614e-05 2.98419e-05 7.28322e-07
1.46056e-06 7.28322e-07 -3.07866e-05
0.00111897 2.64826e-05 1.13546e-06
2.64826e-05 4.96529e-05 9.52876e-07
1.13546e-06 9.52876e-07 -8.5357e-06
0.00119389 2.93458e-05 7.13451e-07
2.93458e-05 5.1254e-05 9.99296e-07
7.13451e-07 9.99296e-07 -1.33854e-05
0.0010683 1.23387e-05 1.20542e-06
1.23387e-05 5.25303e-05 9.72988e-07
1.20542e-06 9.72988e-07 -3.89981e-06
0.00110305 3.14307e-05 2.39437e-07
3.14307e-05 4.12744e-05 5.27345e-07
2.39437e-07 5.27345e-07 -2.04923e-05
0.00110638 3.07947e-05 6.89056e-07
3.07947e-05 6.95302e-05 8.24972e-08
6.89056e-07 8.24972e-08 3.47376e-06
0.00105698 3.32567e-05 2.27297e-07
3.32567e-05 2.63174e-05 9.25733e-08
2.27297e-07 9.25733e-08 -4.00918e-05
0.000996368 -8.24378e-07 1.28202e-06
-8.24378e-07 8.91736e-06 2.14243e-06
1.28202e-06 2.14243e-06 -2.55641e-05
0.000913198 -1.05559e-05 2.41965e-06
-1.05559e-05 -3.48528e-05 3.47525e-06
2.41965e-06 3.47525e-06 -4.01025e-05
0.0024874 -1.88331e-05 1.11081e-05
-1.88331e-05 0.000747646 4.13247e-06
1.11081e-05 4.13247e-06 0.000766663
0.00252442 -2.13051e-05 2.54633e-07
-2.13051e-05 0.000769438 -5.46739e-08
2.54633e-07 -5.46739e-08 0.00078764
0.00257357 -2.38313e-05 -1.24677e-05
-2.38313e-05 0.000797495 -3.94452e-06
-1.24677e-05 -3.94452e-06 0.000814784
0.000871607 1.43919e-05 3.28568e-06
1.43919e-05 -4.37131e-05 -3.41316e-06
3.28568e-06 -3.41316e-06 -5.26124e-05
0.00263317 2.61832e-05 1.31421e-05
2.61832e-05 0.0008333 -3.84054e-06
1.31421e-05 -3.84054e-06 0.000849024
0.000873898 1.5754e-05 -1.16418e-07
1.5754e-05 -3.86215e-05 -4.27046e-08
-1.16418e-07 -4.27046e-08 -4.87325e-05
0.00258529 2.85147e-05 -1.81897e-07
2.85147e-05 0.000816113 -7.24294e-08
-1.81897e-07 -7.24294e-08 0.000830917
0.000719799 -4.4689e-06 -5.2161e-06
-4.4689e-06 -6.49415e-05 -1.72682e-06
-5.2161e-06 -1.72682e-06 -9.90128e-05
0.000710357 -2.55019e-06 -5.26917e-06
-2.55019e-06 -6.37848e-05 -1.2837e-06
-5.26917e-06 -1.2837e-06 -0.000101236
0.001056 5.46228e-06 -2.42313e-06
5.46228e-06 1.69423e-05 -9.50893e-07
-2.42313e-06 -9.50893e-07 -3.84516e-05
0.00108575 -4.71663e-06 -2.61752e-06
-4.71663e-06 2.05495e-05 -7.47786e-07
-2.61752e-06 -7.47786e-07 -3.76891e-05
0.000701171 -1.02207e-06 -5.65072e-06
-1.02207e-06 -7.41543e-05 -7.37411e-07
-5.65072e-06 -7.37411e-07 -0.000113813
0.0034217 1.4118e-05 -2.41414e-05
1.4118e-05 0.00133596 8.54274e-08
-2.41414e-05 8.54274e-08 0.00132717
0.000707358 2.14014e-06 6.07895e-09
2.14014e-06 -7.50595e-05 -1.32671e-07
6.07895e-09 -1.32671e-07 -0.000114603
0.00108507 -2.8294e-06 7.32559e-09
-2.8294e-06 1.27805e-05 -1.37621e-07
7.32559e-09 -1.37621e-07 -4.69572e-05
0.00105942 -1.16529e-06 -1.75162e-08
-1.16529e-06 1.41078e-05 -9.96809e-09
-1.75162e-08 -9.96809e-09 -4.25781e-05
0.00123034 -9.55864e-06 2.93961e-08
-9.55864e-06 4.91967e-05 -1.75653e-08
2.93961e-08 -1.75653e-08 -1.72951e-05
0.00103151 9.21846e-06 1.57426e-09
9.21846e-06 1.04141e-05 -2.55661e-08
1.57426e-09 -2.55661e-08 -4.36122e-05
0.00120772 9.71839e-06 -7.88223e-09
9.71839e-06 4.66613e-05 1.22073e-08
-7.88223e-09 1.22073e-08 -1.58978e-05
0.00109281 1.8849e-06 2.9035e-06
1.8849e-06 1.21767e-05 -1.38233e-07
2.9035e-06 -1.38233e-07 -4.78077e-05
0.00123005 -1.90698e-06 1.39282e-06
-1.90698e-06 4.39113e-05 2.67147e-07
1.39282e-06 2.67147e-07 -2.42669e-05
0.00121333 5.16502e-07 1.39487e-06
5.16502e-07 4.46061e-05 5.01363e-07
1.39487e-06 5.01363e-07 -1.97535e-05
0.00130968 -1.47232e-05 9.02233e-07
-1.47232e-05 6.91949e-05 9.7614e-08
9.02233e-07 9.7614e-08 5.52648e-07
0.0011824 1.4934e-05 1.17917e-06
1.4934e-05 4.05484e-05 5.46136e-07
1.17917e-06 5.46136e-07 -2.07401e-05
0.00126827 9.51924e-06 6.10824e-07
9.51924e-06 5.52007e-05 5.14546e-07
6.10824e-07 5.14546e-07 -9.61283e-06
0.000723144 1.51112e-05 -5.62692e-06
1.51112e-05 -6.8425e-05 3.41907e-07
-5.62692e-06 3.41907e-07 -0.000107557
0.00131818 1.6581e-05 -1.25129e-05
1.6581e-05 0.000218844 1.09516e-06
-1.25129e-05 1.09516e-06 0.000185058
0.000887965 1.48046e-05 -3.34804e-06
1.48046e-05 -9.0895e-05 4.80389e-07
-3.34804e-06 4.80389e-07 -0.000150594
0.00155837 -1.28604e-05 -3.3784e-06
-1.28604e-05 0.0002415 8.9866e-07
-3.3784e-06 8.9866e-07 0.000186858
0.0025121 3.07448e-05 -1.34218e-05
3.07448e-05 0.000789409 3.3518e-06
-1.34218e-05 3.3518e-06 0.000802982
0.00159169 2.4858e-05 -8.08823e-06
2.4858e-05 0.000338417 2.59364e-06
-8.08823e-06 2.59364e-06 0.000327291
0.0014136 2.64727e-06 -2.70804e-06
2.64727e-06 0.000239252 1.59454e-06
-2.70804e-06 1.59454e-06 0.00019591
0.00127359 -9.46899e-06 -3.07394e-06
-9.46899e-06 0.000130645 1.26088e-06
-3.07394e-06 1.26088e-06 7.87685e-05
0.0010734 -2.15371e-05 -1.99968e-06
-2.15371e-05 -3.02906e-05 1.06872e-06
-1.99968e-06 1.06872e-06 -9.46599e-05
0.00136758 -2.50808e-05 -1.26323e-06
-2.50808e-05 0.000146183 7.46719e-07
-1.26323e-06 7.46719e-07 8.77227e-05
0.000903873 -2.15893e-05 -1.27483e-06
-2.15893e-05 -4.25336e-05 9.79177e-07
-1.27483e-06 9.79177e-07 -0.000103287
0.0011784 -3.17862e-05 -8.0536e-07
-3.17862e-05 4.97106e-05 5.04063e-07
-8.0536e-07 5.04063e-07 -1.38414e-05
0.000877757 1.74521e-05 -4.34239e-06
1.74521e-05 -3.11128e-05 3.03962e-06
-4.34239e-06 3.03962e-06 -4.23975e-05
0.000976361 2.5419e-06 -2.54817e-06
2.5419e-06 7.50992e-06 1.92184e-06
-2.54817e-06 1.92184e-06 -3.30833e-05
0.000982298 1.2984e-05 1.22621e-08
1.2984e-05 -4.25681e-05 1.84761e-08
1.22621e-08 1.84761e-08 -0.000102513
0.00134587 1.3217e-06 -4.84574e-07
1.3217e-06 0.000133448 7.23252e-08
-4.84574e-07 7.23252e-08 7.73489e-05
0.00138471 1.53887e-05 -5.45649e-07
1.53887e-05 0.000107362 7.70001e-08
-5.45649e-07 7.70001e-08 4.15682e-05
0.00133303 -1.71414e-05 2.74731e-07
-1.71414e-05 8.21423e-05 -2.5507e-07
2.74731e-07 -2.5507e-07 1.73244e-05
0.00085141 1.89686e-05 -1.51716e-08
1.89686e-05 -3.68181e-05 -4.83458e-08
-1.51716e-08 -4.83458e-08 -4.93502e-05
0.00095565 3.76777e-06 3.22846e-08
3.76777e-06 1.33959e-05 1.31985e-08
3.22846e-08 1.31985e-08 -3.03789e-05
0.000940919 -1.99156e-05 3.65499e-07
-1.99156e-05 -9.58677e-06 -2.58924e-07
3.65499e-07 -2.58924e-07 -6.86301e-05
0.00134717 -2.47135e-05 -3.05502e-07
-2.47135e-05 0.000123534 9.23705e-08
-3.05502e-07 9.23705e-08 6.3634e-05
0.00130452 -2.3196e-05 -1.74204e-07
-2.3196e-05 5.87998e-05 3.40299e-07
-1.74204e-07 3.40299e-07 -7.19951e-06
0.00123057 -3.48355e-05 -3.41816e-07
-3.48355e-05 9.58909e-05 9.88311e-08
-3.41816e-07 9.88311e-08 2.96882e-05
0.00121891 -2.96749e-05 6.32791e-08
-2.96749e-05 5.15502e-05 8.98309e-08
6.32791e-08 8.98309e-08 -1.07614e-05
0.00120772 -3.42103e-05 2.72566e-07
-3.42103e-05 5.15249e-05 2.52161e-07
2.72566e-07 2.52161e-07 -1.24331e-05
0.000968196 3.27495e-06 -1.54973e-08
3.27495e-06 7.12428e-06 -4.68577e-08
-1.54973e-08 -4.68577e-08 -3.39589e-05
0.000994937 -1.49778e-05 2.33987e-09
-1.49778e-05 1.12432e-05 -9.4788e-08
2.33987e-09 -9.4788e-08 -4.82529e-05
0.000980519 1.60239e-06 -1.386e-07
1.60239e-06 8.0077e-06 -2.86327e-08
-1.386e-07 -2.86327e-08 -3.18397e-05
0.00146722 1.88785e-05 1.19103e-06
1.88785e-05 0.000152948 3.63602e-08
1.19103e-06 3.63602e-08 8.62524e-05
0.0013814 1.29579e-06 1.68938e-06
1.29579e-06 9.93513e-05 -4.19446e-08
1.68938e-06 -4.19446e-08 3.394e-05
0.00139833 1.82833e-05 1.33895e-06
1.82833e-05 9.20582e-05 2.51778e-07
1.33895e-06 2.51778e-07 2.23963e-05
0.00134889 -1.19055e-05 8.6201e-07
-1.19055e-05 6.39047e-05 -6.95335e-07
8.6201e-07 -6.95335e-07 -4.3271e-06
0.00113867 -2.701e-05 7.03001e-07
-2.701e-05 8.84099e-07 -7.29811e-07
7.03001e-07 -7.29811e-07 -6.19879e-05
0.00140865 -2.24249e-05 -1.46062e-07
-2.24249e-05 9.53846e-05 -8.1123e-08
-1.46062e-07 -8.1123e-08 3.17547e-05
0.000945243 4.91361e-06 2.62936e-06
4.91361e-06 2.90611e-06 -1.6824e-06
2.62936e-06 -1.6824e-06 -3.91623e-05
0.00122804 -3.13211e-05 2.844e-07
-3.13211e-05 4.47002e-05 -3.00277e-07
2.844e-07 -3.00277e-07 -1.70001e-05
0.00103584 -1.76962e-05 1.05275e-06
-1.76962e-05 3.8771e-05 -7.25606e-07
1.05275e-06 -7.25606e-07 -1.8314e-05
0.000927427 -3.11235e-05 1.10939e-06
-3.11235e-05 -2.75409e-05 -1.54892e-06
1.10939e-06 -1.54892e-06 -9.43054e-05
0.00130237 -3.86826e-05 1.2456e-06
-3.86826e-05 0.000120177 -2.68129e-07
1.2456e-06 -2.68129e-07 5.04505e-05
0.00145782 -3.83448e-05 -3.64725e-08
-3.83448e-05 0.000166047 7.91763e-07
-3.64725e-08 7.91763e-07 0.000104741
0.000985701 1.0203e-06 1.82589e-06
1.0203e-06 9.43761e-06 -2.2093e-06
1.82589e-06 -2.2093e-06 -2.88463e-05
0.00105318 -1.5087e-05 1.54261e-06
-1.5087e-05 4.1277e-05 -8.0559e-07
1.54261e-06 -8.0559e-07 -1.64163e-05
0.000897859 -1.31715e-05 1.82014e-06
-1.31715e-05 -3.39455e-05 -1.68731e-06
1.82014e-06 -1.68731e-06 -9.5582e-05
0.00126341 -3.22957e-05 4.939e-07
-3.22957e-05 0.000141628 3.05816e-08
4.939e-07 3.05816e-08 7.47228e-05
0.00101696 1.19096e-05 -2.4422e-06
1.19096e-05 1.08814e-05 -1.2073e-06
-2.4422e-06 -1.2073e-06 -4.17161e-05
0.000878285 -1.47912e-05 -3.39799e-06
-1.47912e-05 -4.25015e-05 -3.37063e-06
-3.39799e-06 -3.37063e-06 -5.03272e-05
0.000853863 -1.7733e-05 -4.18344e-06
-1.7733e-05 -4.37818e-05 -3.06685e-06
-4.18344e-06 -3.06685e-06 -5.36245e-05
0.000971532 -4.06092e-06 -2.41985e-06
-4.06092e-06 5.40897e-06 -1.9177e-06
-2.41985e-06 -1.9177e-06 -3.31712e-05
0.000946648 7.48687e-06 -2.15841e-06
7.48687e-06 1.23939e-06 -1.27544e-06
-2.15841e-06 -1.27544e-06 -4.81071e-05
0.00113095 2.54988e-05 -1.24341e-06
2.54988e-05 3.89818e-05 -9.24507e-07
-1.24341e-06 -9.24507e-07 -2.10125e-05
0.000948555 -8.01582e-06 -2.56207e-06
-8.01582e-06 4.96688e-06 -1.69625e-06
-2.56207e-06 -1.69625e-06 -3.58294e-05
0.00105084 1.68109e-05 -1.14116e-06
1.68109e-05 4.66479e-05 -9.69283e-07
-1.14116e-06 -9.69283e-07 -1.13055e-05
0.00110987 2.51273e-05 -1.02612e-06
2.51273e-05 5.59184e-05 -5.85853e-07
-1.02612e-06 -5.85853e-07 -6.18155e-07
0.00101154 3.03816e-05 -1.25105e-06
3.03816e-05 1.14902e-05 -3.03992e-07
-1.25105e-06 -3.03992e-07 -5.20948e-05
0.000899301 -1.341e-05 1.02554e-07
-1.341e-05 -3.56967e-05 -1.66645e-08
1.02554e-07 -1.66645e-08 -4.26468e-05
0.000968826 -5.83675e-06 3.09676e-08
-5.83675e-06 7.51981e-06 -2.59752e-08
3.09676e-08 -2.59752e-08 -3.15498e-05
0.000982663 -3.3914e-06 7.75311e-08
-3.3914e-06 8.01594e-06 -2.97569e-08
7.75311e-08 -2.97569e-08 -2.99848e-05
0.00104786 8.44463e-06 5.34361e-08
8.44463e-06 3.87108e-05 -5.88171e-08
5.34361e-08 -5.88171e-08 -1.74686e-05
0.00116706 2.00902e-05 2.27408e-07
2.00902e-05 4.11348e-05 9.95641e-08
2.27408e-07 9.95641e-08 -1.95527e-05
0.00110313 2.66225e-05 4.84909e-08
2.66225e-05 4.25326e-05 1.07159e-08
4.84909e-08 1.07159e-08 -1.5632e-05
0.00119286 2.93226e-05 -4.65723e-09
2.93226e-05 5.08692e-05 2.03418e-07
-4.65723e-09 2.03418e-07 -1.3802e-05
0.00105518 1.19442e-05 -8.51735e-08
1.19442e-05 4.70405e-05 2.3001e-08
-8.51735e-08 2.3001e-08 -9.44279e-06
0.00119395 3.2583e-05 -2.85628e-07
3.2583e-05 8.56905e-05 -2.63691e-07
-2.85628e-07 -2.63691e-07 2.43065e-05
0.00111306 3.13282e-05 1.26868e-07
3.13282e-05 7.2419e-05 -2.37352e-07
1.26868e-07 -2.37352e-07 6.16859e-06
0.00106017 3.3087e-05 -8.79932e-07
3.3087e-05 2.95246e-05 -3.94655e-08
-8.79932e-07 -3.94655e-08 -3.57937e-05
0.00091547 -1.20082e-05 2.82386e-06
-1.20082e-05 -3.083e-05 3.43975e-06
2.82386e-06 3.43975e-06 -3.69279e-05
0.000993055 -2.48143e-06 2.04498e-06
-2.48143e-06 1.07793e-05 2.05723e-06
2.04498e-06 2.05723e-06 -2.64804e-05
0.00105879 1.11687e-05 1.4243e-06
1.11687e-05 4.35161e-05 7.93746e-07
1.4243e-06 7.93746e-07 -1.20733e-05
0.00104695 7.74617e-06 1.30979e-06
7.74617e-06 3.86686e-05 1.02791e-06
1.30979e-06 1.02791e-06 -1.78369e-05
0.00107835 2.21727e-05 8.84952e-07
2.21727e-05 5.21659e-05 2.1138e-07
8.84952e-07 2.1138e-07 -1.38525e-05
0.00119092 2.00036e-05 9.98802e-07
2.00036e-05 3.36099e-05 4.92341e-07
9.98802e-07 4.92341e-07 -3.04721e-05
0.00116244 3.23665e-05 6.03051e-07
3.23665e-05 5.73785e-05 9.25008e-07
6.03051e-07 9.25008e-07 -5.89692e-06
0.00123256 3.0777e-05 8.44778e-08
3.0777e-05 6.35883e-05 9.58587e-07
8.44778e-08 9.58587e-07 -3.23996e-06
0.00111979 2.8628e-05 1.2134e-06
2.8628e-05 7.5412e-05 1.14178e-06
1.2134e-06 1.14178e-06 9.68909e-06
0.001164 3.49559e-05 8.2396e-07
3.49559e-05 6.49808e-05 6.5245e-07
8.2396e-07 6.5245e-07 -2.32207e-07
0.00091218 3.23631e-05 8.9772e-07
3.23631e-05 -3.1629e-05 -9.68306e-08
8.9772e-07 -9.68306e-08 -0.000104946
0.00099732 -9.00326e-07 1.592e-06
-9.00326e-07 1.01642e-05 2.16503e-06
1.592e-06 2.16503e-06 -2.53241e-05
0.00105236 1.07982e-05 7.92779e-07
1.07982e-05 4.25167e-05 1.26135e-06
7.92779e-07 1.26135e-06 -1.24227e-05
0.000994443 -4.3835e-07 9.96796e-07
-4.3835e-07 7.39794e-06 2.09403e-06
9.96796e-07 2.09403e-06 -2.6134e-05
0.000994732 -9.57605e-07 8.23955e-08
-9.57605e-07 8.0928e-06 1.14201e-08
8.23955e-08 1.14201e-08 -2.63577e-05
0.00156311 -1.11132e-05 2.03945e-06
-1.11132e-05 0.000283768 2.1556e-06
2.03945e-06 2.1556e-06 0.000282517
0.0012438 -1.1517e-05 4.45334e-07
-1.1517e-05 0.000128612 -5.35131e-09
4.45334e-07 -5.35131e-09 0.000124989
0.00118819 -1.24562e-05 9.99692e-06
-1.24562e-05 0.000101258 6.86004e-06
9.99692e-06 6.86004e-06 0.00011458
0.00250887 -1.8892e-05 3.0186e-07
-1.8892e-05 0.00075803 -4.76697e-08
3.0186e-07 -4.76697e-08 0.000777008
0.00255442 -2.13859e-05 -1.16613e-05
-2.13859e-05 0.000783928 -4.04559e-06
-1.16613e-05 -4.04559e-06 0.000802072
0.000880762 1.33606e-05 2.81731e-06
1.33606e-05 -4.20684e-05 -3.38939e-06
2.81731e-06 -3.38939e-06 -4.97633e-05
0.00260157 2.37449e-05 1.24117e-05
2.37449e-05 0.000813654 -3.94017e-06
1.24117e-05 -3.94017e-06 0.000830315
0.000883418 1.44764e-05 -1.18014e-07
1.44764e-05 -3.75927e-05 -2.06371e-08
-1.18014e-07 -2.06371e-08 -4.66225e-05
0.00259047 2.60721e-05 -2.02926e-07
2.60721e-05 0.000812807 -6.82926e-08
-2.02926e-07 -6.82926e-08 0.000828603
0.000884994 1.58839e-05 -4.00642e-06
1.58839e-05 -3.27325e-05 3.23611e-06
-4.00642e-06 3.23611e-06 -4.29622e-05
0.00253046 2.84042e-05 -1.33151e-05
2.84042e-05 0.000790189 3.58173e-06
-1.33151e-05 3.58173e-06 0.000805048
0.00104423 9.98938e-06 -2.44225e-06
9.98938e-06 1.63652e-05 -1.06513e-06
-2.44225e-06 -1.06513e-06 -3.76585e-05
0.00106655 2.12281e-08 -2.46098e-06
2.12281e-08 1.73903e-05 -8.02013e-07
-2.46098e-06 -8.02013e-07 -3.92574e-05
0.00120915 7.61077e-06 -1.23611e-06
7.61077e-06 4.76146e-05 -5.40233e-07
-1.23611e-06 -5.40233e-07 -1.49788e-05
0.00125362 -1.04264e-05 -1.50782e-06
-1.04264e-05 6.00487e-05 -4.70086e-07
-1.50782e-06 -4.70086e-07 -6.49067e-06
0.00109347 -1.19055e-06 -2.85089e-06
-1.19055e-06 1.67369e-05 -6.11177e-07
-2.85089e-06 -6.11177e-07 -4.29521e-05
0.00070565 5.57718e-06 -5.65808e-06
5.57718e-06 -7.575e-05 -1.58452e-07
-5.65808e-06 -1.58452e-07 -0.00011534
0.00109244 2.61509e-06 2.27024e-08
2.61509e-06 1.19189e-05 -1.33286e-07
2.27024e-08 -1.33286e-07 -4.80788e-05
0.00124371 -1.04075e-06 -2.7999e-08
-1.04075e-06 5.04348e-05 -5.97946e-08
-2.7999e-08 -5.97946e-08 -1.77722e-05
0.00121929 -3.1693e-06 4.81391e-08
-3.1693e-06 4.75675e-05 -1.57134e-08
4.81391e-08 -1.57134e-08 -1.68078e-05
0.00130998 -1.54409e-05 -2.53169e-08
-1.54409e-05 6.86798e-05 -2.90113e-08
-2.53169e-08 -2.90113e-08 -5.93587e-09
0.00118815 1.50042e-05 -5.0217e-08
1.50042e-05 4.32408e-05 1.15432e-08
-5.0217e-08 1.15432e-08 -1.80842e-05
0.00127326 8.73121e-06 -1.28244e-09
8.73121e-06 5.80156e-05 9.1889e-08
-1.28244e-09 9.1889e-08 -6.82076e-06
0.00125658 7.69832e-06 1.70836e-06
7.69832e-06 5.23536e-05 -1.2688e-07
1.70836e-06 -1.2688e-07 -1.62816e-05
0.00125971 -5.8565e-06 7.03283e-07
-5.8565e-06 4.57448e-05 2.15708e-07
7.03283e-07 2.15708e-07 -2.40954e-05
0.00127429 -1.52281e-06 8.42539e-07
-1.52281e-06 5.27374e-05 2.57177e-07
8.42539e-07 2.57177e-07 -1.41257e-05
0.00139566 -1.9048e-05 1.23945e-06
-1.9048e-05 9.79421e-05 3.45136e-09
1.23945e-06 3.45136e-09 2.97908e-05
0.00124504 1.25556e-05 4.90859e-07
1.25556e-05 5.10936e-05 3.23984e-07
4.90859e-07 3.23984e-07 -1.25881e-05
0.00134021 1.26036e-06 -5.15411e-07
1.26036e-06 7.6922e-05 7.16779e-07
-5.15411e-07 7.16779e-07 1.53152e-05
0.000896053 1.42888e-05 -2.91711e-06
1.42888e-05 -8.48995e-05 2.48353e-07
-2.91711e-06 2.48353e-07 -0.000145502
0.00133668 -2.78138e-06 -3.4169e-06
-2.78138e-06 0.000128348 6.20182e-07
-3.4169e-06 6.20182e-07 7.24315e-05
0.00128219 2.01121e-05 -2.27342e-06
2.01121e-05 5.78972e-05 3.44911e-08
-2.27342e-06 3.44911e-08 -8.12673e-06
0.00152283 -1.86651e-05 -1.42961e-06
-1.86651e-05 0.000175195 2.50081e-07
-1.42961e-06 2.50081e-07 0.000111273
0.000873838 1.91928e-05 -4.53228e-06
1.91928e-05 -2.56146e-05 2.84362e-06
-4.53228e-06 2.84362e-06 -3.82741e-05
0.000975369 2.63978e-06 -2.39298e-06
2.63978e-06 2.14294e-05 1.56711e-06
-2.39298e-06 1.56711e-06 -2.21853e-05
0.00103922 -2.08923e-05 -7.21505e-07
-2.08923e-05 3.8784e-05 8.03757e-07
-7.21505e-07 8.03757e-07 -1.9744e-05
0.0014201 -2.52516e-05 -1.53718e-06
-2.52516e-05 0.000157895 8.55088e-07
-1.53718e-06 8.55088e-07 9.80735e-05
0.00118209 -2.13219e-05 -8.55188e-07
-2.13219e-05 -8.75144e-07 9.68842e-07
-8.55188e-07 9.68842e-07 -6.68552e-05
0.00121814 -2.95728e-05 -6.65352e-07
-2.95728e-05 5.11809e-05 6.31919e-07
-6.65352e-07 6.31919e-07 -1.10946e-05
0.00103829 -3.22774e-05 -1.29929e-06
-3.22774e-05 3.59135e-06 1.00952e-06
-1.29929e-06 1.00952e-06 -6.32315e-05
0.00113226 -3.31205e-05 -3.34447e-07
-3.31205e-05 1.52151e-05 1.8159e-07
-3.34447e-07 1.8159e-07 -4.87625e-05
0.000975064 3.5051e-06 -2.59777e-06
3.5051e-06 1.01728e-05 1.71359e-06
-2.59777e-06 1.71359e-06 -3.08203e-05
0.000926878 -1.41572e-05 -1.60767e-06
-1.41572e-05 -2.33095e-05 8.71725e-07
-1.60767e-06 8.71725e-07 -8.30682e-05
0.000980939 2.00334e-06 -2.26673e-06
2.00334e-06 8.38878e-06 2.11222e-06
-2.26673e-06 2.11222e-06 -3.14577e-05
0.00134013 1.90757e-05 -5.23708e-07
1.90757e-05 9.13701e-05 1.26909e-07
-5.23708e-07 1.26909e-07 2.40575e-05
0.00137819 -4.36189e-06 -2.19049e-07
-4.36189e-06 9.75178e-05 2.21578e-08
-2.19049e-07 2.21578e-08 3.22023e-05
0.00132267 2.04273e-05 -3.18297e-07
2.04273e-05 5.40502e-05 -5.12076e-08
-3.18297e-07 -5.12076e-08 -1.61385e-05
0.00141062 -1.07189e-05 -3.33373e-08
-1.07189e-05 9.32438e-05 -2.78665e-07
-3.33373e-08 -2.78665e-07 2.52517e-05
0.000960329 4.52664e-06 2.32927e-08
4.52664e-06 9.29803e-06 -2.22578e-08
2.32927e-08 -2.22578e-08 -3.26355e-05
0.00105688 -1.77365e-05 7.63414e-08
-1.77365e-05 4.81542e-05 3.44998e-08
7.63414e-08 3.44998e-08 -8.89377e-06
0.00102125 -3.21722e-05 1.89797e-07
-3.21722e-05 1.93807e-05 -2.99105e-07
1.89797e-07 -2.99105e-07 -4.68946e-05
0.00127264 -2.82322e-05 -3.83017e-08
-2.82322e-05 6.55992e-05 -1.19097e-07
-3.83017e-08 -1.19097e-07 2.82262e-06
0.00131763 -2.19052e-05 2.28975e-07
-2.19052e-05 5.13555e-05 5.46661e-07
2.28975e-07 5.46661e-07 -1.1537e-05
0.00118478 -3.73936e-05 6.61546e-08
-3.73936e-05 6.47689e-05 1.03246e-07
6.61546e-08 1.03246e-07 -5.80115e-06
0.00123602 -3.09323e-05 4.82159e-08
-3.09323e-05 4.8357e-05 1.42041e-07
4.82159e-08 1.42041e-07 -1.32574e-05
0.0013444 -3.67148e-05 4.49505e-07
-3.67148e-05 0.000111309 3.42852e-07
4.49505e-07 3.42852e-07 5.07239e-05
0.00105862 -1.54984e-05 7.85745e-08
-1.54984e-05 4.31267e-05 -6.32733e-08
7.85745e-08 -6.32733e-08 -1.43873e-05
0.00114887 -3.07694e-05 -3.53088e-07
-3.07694e-05 8.46357e-05 1.81172e-07
-3.53088e-07 1.81172e-07 1.73265e-05
0.000981838 9.68186e-07 -9.04906e-08
9.68186e-07 7.84302e-06 1.12434e-08
-9.04906e-08 1.12434e-08 -3.04883e-05
0.000902944 -1.30569e-05 4.13695e-07
-1.30569e-05 -3.18549e-05 -3.90131e-07
4.13695e-07 -3.90131e-07 -9.34737e-05
0.00134892 2.10264e-05 1.5709e-06
2.10264e-05 7.7502e-05 2.15118e-07
1.5709e-06 2.15118e-07 6.2527e-06
0.0015227 3.52531e-06 1.15281e-06
3.52531e-06 0.000136425 1.07454e-07
1.15281e-06 1.07454e-07 6.70928e-05
0.00128526 2.20613e-05 9.47022e-07
2.20613e-05 2.62459e-05 3.89315e-07
9.47022e-07 3.89315e-07 -4.6545e-05
0.00130944 -6.84189e-06 1.51421e-07
-6.84189e-06 2.98385e-05 -1.13613e-06
1.51421e-07 -1.13613e-06 -3.66694e-05
0.00120756 -2.77301e-05 -7.22425e-08
-2.77301e-05 2.16739e-05 -2.65508e-07
-7.22425e-08 -2.65508e-07 -3.90371e-05
0.00145255 -2.06162e-05 6.55274e-07
-2.06162e-05 0.000102139 -2.7977e-07
6.55274e-07 -2.7977e-07 4.3836e-05
0.00104314 -1.4948e-05 1.27135e-06
-1.4948e-05 3.97154e-05 -6.63782e-07
1.27135e-06 -6.63782e-07 -1.69748e-05
0.00121758 -3.0904e-05 -5.4878e-07
-3.0904e-05 3.25032e-05 8.0701e-08
-5.4878e-07 8.0701e-08 -2.38657e-05
0.000923434 -2.98606e-05 6.794e-07
-2.98606e-05 -2.23333e-05 -1.0585e-06
6.794e-07 -1.0585e-06 -8.65259e-05
0.0011356 -3.70831e-05 1.19241e-06
-3.70831e-05 6.91505e-05 -1.42903e-06
1.19241e-06 -1.42903e-06 -4.03662e-06
0.00123489 -4.04728e-05 1.55987e-06
-4.04728e-05 8.21333e-05 8.29048e-07
1.55987e-06 8.29048e-07 9.4976e-06
0.00151665 -3.92289e-05 6.52587e-07
-3.92289e-05 0.000185089 1.58836e-07
6.52587e-07 1.58836e-07 0.000125682
0.000982821 2.52323e-06 1.30788e-06
2.52323e-06 8.12993e-06 -2.16673e-06
1.30788e-06 -2.16673e-06 -2.86056e-05
0.000859679 -1.23673e-05 1.57805e-06
-1.23673e-05 -5.08472e-05 -2.00404e-06
1.57805e-06 -2.00404e-06 -0.000112382
0.00110123 -3.03799e-05 8.2303e-07
-3.03799e-05 5.8608e-05 -8.44225e-08
8.2303e-07 -8.44225e-08 -5.79108e-06
0.00114189 -2.98672e-05 1.05962e-06
-2.98672e-05 8.82833e-05 -3.28286e-07
1.05962e-06 -3.28286e-07 1.63187e-05
0.0012425 -3.56198e-05 5.46463e-07
-3.56198e-05 0.000125308 1.82846e-07
5.46463e-07 1.82846e-07 5.50869e-05
0.000889 -1.33209e-05 -2.99784e-06
-1.33209e-05 -4.10238e-05 -3.44915e-06
-2.99784e-06 -3.44915e-06 -4.78744e-05
0.00118546 2.05669e-05 -1.03409e-06
2.05669e-05 4.9665e-05 -5.49525e-07
-1.03409e-06 -5.49525e-07 -1.10877e-05
0.000977152 -3.10825e-06 -2.20415e-06
-3.10825e-06 5.54476e-06 -2.04819e-06
-2.20415e-06 -2.04819e-06 -3.24909e-05
0.000962279 -5.75985e-06 -2.60054e-06
-5.75985e-06 4.70822e-06 -1.7624e-06
-2.60054e-06 -1.7624e-06 -3.44241e-05
0.00104633 7.96473e-06 -1.32783e-06
7.96473e-06 3.83913e-05 -9.98939e-07
-1.32783e-06 -9.98939e-07 -1.78856e-05
0.00108817 2.68065e-05 -1.09934e-06
2.68065e-05 3.58306e-05 -9.66168e-07
-1.09934e-06 -9.66168e-07 -2.23125e-05
0.00119154 2.92782e-05 -6.61641e-07
2.92782e-05 5.03526e-05 -5.80997e-07
-6.61641e-07 -5.80997e-07 -1.43512e-05
0.00104029 1.16826e-05 -1.23044e-06
1.16826e-05 4.07006e-05 -8.16533e-07
-1.23044e-06 -8.16533e-07 -1.58235e-05
0.00112307 3.1873e-05 -9.13449e-07
3.1873e-05 7.68887e-05 -8.57549e-07
-9.13449e-07 -8.57549e-07 1.0443e-05
0.00128331 3.37382e-05 -1.00336e-06
3.37382e-05 0.000129342 -7.86854e-07
-1.00336e-06 -7.86854e-07 6.83444e-05
0.00106267 3.29018e-05 -1.86174e-06
3.29018e-05 3.23398e-05 1.49271e-07
-1.86174e-06 1.49271e-07 -3.18792e-05
0.00090738 -1.19446e-05 1.07206e-07
-1.19446e-05 -3.49704e-05 -1.11335e-08
1.07206e-07 -1.11335e-08 -4.09866e-05
0.000988109 -2.09296e-06 5.88707e-08
-2.09296e-06 8.48281e-06 -2.02584e-08
5.88707e-08 -2.02584e-08 -2.88037e-05
0.00105387 1.01623e-05 -2.98163e-08
1.01623e-05 4.17799e-05 -3.04388e-08
-2.98163e-08 -3.04388e-08 -1.38946e-05
0.00104618 7.42948e-06 1.20638e-08
7.42948e-06 3.86361e-05 -2.53401e-08
1.20638e-08 -2.53401e-08 -1.79629e-05
0.0010422 2.12554e-05 5.71228e-08
2.12554e-05 3.43001e-05 -9.5964e-08
5.71228e-08 -9.5964e-08 -3.17813e-05
0.00122307 2.06748e-05 3.47387e-07
2.06748e-05 4.82095e-05 1.3894e-07
3.47387e-07 1.3894e-07 -1.59264e-05
0.00115451 3.24423e-05 9.44827e-08
3.24423e-05 5.39496e-05 -4.60824e-08
9.44827e-08 -4.60824e-08 -9.35653e-06
0.00120877 3.14293e-05 3.40192e-07
3.14293e-05 5.21125e-05 3.29645e-07
3.40192e-07 3.29645e-07 -1.50019e-05
0.00110524 2.91849e-05 3.70442e-07
2.91849e-05 6.89516e-05 3.37456e-07
3.70442e-07 3.37456e-07 3.22448e-06
0.00120946 3.52224e-05 9.1353e-08
3.52224e-05 8.75144e-05 -2.25821e-07
9.1353e-08 -2.25821e-07 2.26183e-05
0.00102678 3.3916e-05 -5.9071e-07
3.3916e-05 2.18148e-05 -3.59659e-07
-5.9071e-07 -3.59659e-07 -5.07835e-05
0.000996391 -1.24597e-06 1.86807e-06
-1.24597e-06 1.07556e-05 2.13075e-06
1.86807e-06 2.13075e-06 -2.5671e-05
0.00104922 8.77204e-06 1.27116e-06
8.77204e-06 3.98367e-05 1.12703e-06
1.27116e-06 1.12703e-06 -1.68445e-05
0.00104597 2.54754e-05 7.26686e-07
2.54754e-05 3.39459e-05 2.85344e-07
7.26686e-07 2.85344e-07 -3.11743e-05
0.00108132 1.88575e-05 7.43787e-07
1.88575e-05 5.61358e-05 3.80021e-07
7.43787e-07 3.80021e-07 -1.10791e-05
0.00118224 3.10406e-05 1.46619e-07
3.10406e-05 0.000102743 -2.14701e-07
1.46619e-07 -2.14701e-07 3.20243e-05
0.00120187 1.8652e-05 -3.13529e-07
1.8652e-05 2.9005e-05 -2.22851e-07
-3.13529e-07 -2.22851e-07 -3.51691e-05
0.00118326 3.60644e-05 7.45685e-07
3.60644e-05 6.179e-05 8.8174e-07
7.45685e-07 8.8174e-07 -4.82996e-06
0.00106819 3.48942e-05 -1.60395e-07
3.48942e-05 -1.32974e-05 2.33117e-07
-1.60395e-07 2.33117e-07 -7.9401e-05
0.00111236 3.50502e-05 7.30903e-07
3.50502e-05 7.15438e-05 1.26323e-06
7.30903e-07 1.26323e-06 -2.21299e-06
0.00118964 3.82104e-05 1.61503e-06
3.82104e-05 8.5093e-05 3.6561e-07
1.61503e-06 3.6561e-07 9.26271e-06
0.000993414 -1.108e-06 9.55686e-08
-1.108e-06 8.20711e-06 3.39283e-09
9.55686e-08 3.39283e-09 -2.72494e-05
0.00088005 8.83197e-06 1.25072e-06
8.83197e-06 -4.31269e-05 1.74556e-06
1.25072e-06 1.74556e-06 -0.000100337
0.000961023 9.46376e-06 -1.4119e-08
9.46376e-06 -2.18219e-06 1.52109e-08
-1.4119e-08 1.52109e-08 -5.78232e-05
0.00125065 2.19524e-05 3.11107e-07
2.19524e-05 0.00014757 2.62791e-07
3.11107e-07 2.62791e-07 8.01988e-05
0.00104971 9.50999e-06 6.209e-07
9.50999e-06 4.26488e-05 1.25412e-06
6.209e-07 1.25412e-06 -1.14423e-05
0.000996793 1.50677e-07 7.47953e-07
1.50677e-07 7.88809e-06 2.04118e-06
7.47953e-07 2.04118e-06 -2.48461e-05
0.000997776 -5.09733e-07 7.11675e-08
-5.09733e-07 9.04002e-06 1.37572e-08
7.11675e-08 1.37572e-08 -2.44776e-05
0.00156312 -9.3092e-06 1.63305e-06
-9.3092e-06 0.000280851 2.13175e-06
1.63305e-06 2.13175e-06 0.000280372
0.000993727 -1.0721e-06 -1.1034e-06
-1.0721e-06 7.57822e-06 -2.14308e-06
-1.1034e-06 -2.14308e-06 -2.68439e-05
0.00158421 -1.06049e-05 -1.65885e-06
-1.06049e-05 0.000294193 -1.31707e-06
-1.65885e-06 -1.31707e-06 0.000292915
0.00120764 -1.07426e-05 8.75711e-06
-1.07426e-05 0.00010703 6.88269e-06
8.75711e-06 6.88269e-06 0.00012108
0.00157771 -1.18359e-05 -5.02375e-06
-1.18359e-05 0.000293695 -3.39981e-06
-5.02375e-06 -3.39981e-06 0.000291718
0.00181851 -1.4522e-05 6.65569e-06
-1.4522e-05 0.000413086 2.4972e-06
6.65569e-06 2.4972e-06 0.000429697
0.00252939 -1.89553e-05 -1.06681e-05
-1.89553e-05 0.000767956 -4.12659e-06
-1.06681e-05 -4.12659e-06 0.000786897
0.00089187 1.25653e-05 2.2903e-06
1.25653e-05 -3.96677e-05 -3.33379e-06
2.2903e-06 -3.33379e-06 -4.59045e-05
0.000893881 1.34127e-05 -1.25376e-07
1.34127e-05 -3.55776e-05 -6.87345e-09
-1.25376e-07 -6.87345e-09 -4.33798e-05
0.00254849 2.13482e-05 1.14162e-05
2.13482e-05 0.000783616 -3.98785e-06
1.14162e-05 -3.98785e-06 0.000801308
0.0025744 2.36572e-05 -2.1736e-07
2.36572e-05 0.00080047 -6.10652e-08
-2.1736e-07 -6.10652e-08 0.000817177
0.000895646 1.45692e-05 -3.56125e-06
1.45692e-05 -3.12995e-05 3.36459e-06
-3.56125e-06 3.36459e-06 -4.04563e-05
0.00254815 2.59979e-05 -1.31084e-05
2.59979e-05 0.000792542 3.79317e-06
-1.31084e-05 3.79317e-06 0.000808401
0.00119536 1.52024e-05 -1.24751e-06
1.52024e-05 4.66212e-05 -5.35276e-07
-1.24751e-06 -5.35276e-07 -1.47421e-05
0.00122565 -3.35131e-06 -1.33957e-06
-3.35131e-06 5.06517e-05 -5.39559e-07
-1.33957e-06 -5.39559e-07 -1.37337e-05
0.00127685 8.88725e-06 -5.44314e-07
8.88725e-06 6.01376e-05 -3.40046e-07
-5.44314e-07 -3.40046e-07 -4.71226e-06
0.00130514 -1.62004e-05 -9.35899e-07
-1.62004e-05 6.57455e-05 -1.59669e-07
-9.35899e-07 -1.59669e-07 -2.98483e-06
0.00126216 1.66881e-06 -1.51253e-06
1.66881e-06 5.92166e-05 -3.82026e-07
-1.51253e-06 -3.82026e-07 -9.04208e-06
0.00109006 6.56773e-06 -2.85017e-06
6.56773e-06 1.06917e-05 -1.04506e-07
-2.85017e-06 -1.04506e-07 -4.92925e-05
0.00125914 1.16019e-05 5.63016e-08
1.16019e-05 5.379e-05 -1.59928e-07
5.63016e-08 -1.59928e-07 -1.48729e-05
0.0012809 -1.24207e-05 -6.34844e-09
-1.24207e-05 5.5503e-05 2.54576e-08
-6.34844e-09 2.54576e-08 -1.45378e-05
0.00128615 -2.83293e-06 5.40506e-08
-2.83293e-06 5.85514e-05 -9.91421e-08
5.40506e-08 -9.91421e-08 -8.31044e-06
0.00138706 -1.96238e-05 5.36789e-08
-1.96238e-05 9.32702e-05 -1.95268e-07
5.36789e-08 -1.95268e-07 2.50069e-05
0.00124864 1.31582e-05 -4.06576e-08
1.31582e-05 5.28134e-05 4.56707e-08
-4.06576e-08 4.56707e-08 -1.09598e-05
0.0013255 1.12547e-06 -3.2991e-08
1.12547e-06 6.92279e-05 4.93731e-07
-3.2991e-08 4.93731e-07 7.82875e-06
0.00134054 3.39325e-06 1.1521e-06
3.39325e-06 8.06798e-05 1.43016e-07
1.1521e-06 1.43016e-07 9.74303e-06
0.00127197 -5.50145e-06 8.77231e-07
-5.50145e-06 4.99893e-05 -2.05746e-07
8.77231e-07 -2.05746e-07 -1.99284e-05
0.00120416 -8.11978e-06 6.06262e-07
-8.11978e-06 3.18249e-06 9.93409e-07
6.06262e-07 9.93409e-07 -6.17991e-05
0.00154196 -2.40847e-05 1.00355e-06
-2.40847e-05 0.000163612 1.08637e-08
1.00355e-06 1.08637e-08 9.5098e-05
0.00122413 9.08971e-06 -4.4068e-07
9.08971e-06 2.72682e-05 -2.68088e-08
-4.4068e-07 -2.68088e-08 -3.41764e-05
0.0014817 -4.84987e-06 3.24489e-09
-4.84987e-06 0.00013209 4.62452e-07
3.24489e-09 4.62452e-07 7.48382e-05
0.00120353 1.8439e-05 -2.18422e-06
1.8439e-05 2.52884e-05 1.3582e-07
-2.18422e-06 1.3582e-07 -4.26225e-05
0.00137433 -6.63594e-06 -2.12367e-06
-6.63594e-06 9.55201e-05 2.11755e-07
-2.12367e-06 2.11755e-07 3.02276e-05
0.00125132 2.06482e-05 -1.69745e-06
2.06482e-05 1.80468e-05 -2.94072e-07
-1.69745e-06 -2.94072e-07 -5.26435e-05
0.0014678 -9.91845e-06 -1.05016e-06
-9.91845e-06 0.000120389 1.50558e-07
-1.05016e-06 1.50558e-07 5.26546e-05
0.000973843 4.10059e-06 -2.49852e-06
4.10059e-06 1.49713e-05 1.56013e-06
-2.49852e-06 1.56013e-06 -2.68323e-05
0.00107741 -1.79907e-05 -1.10039e-06
-1.79907e-05 5.72966e-05 9.20256e-07
-1.10039e-06 9.20256e-07 2.77637e-07
0.00110526 -3.30565e-05 -5.25626e-07
-3.30565e-05 6.17641e-05 9.10807e-07
-5.25626e-07 9.10807e-07 -4.02798e-06
0.00140692 -2.93976e-05 -6.13541e-07
-2.93976e-05 0.000130467 4.99892e-07
-6.13541e-07 4.99892e-07 6.77871e-05
0.00122819 -2.13513e-05 4.88853e-09
-2.13513e-05 8.06322e-06 8.45412e-07
4.88853e-09 8.45412e-07 -5.40893e-05
0.00124582 -3.05794e-05 -1.23662e-07
-3.05794e-05 5.28774e-05 5.48591e-07
-1.23662e-07 5.48591e-07 -8.65304e-06
0.0010717 -3.61661e-05 -1.23814e-06
-3.61661e-05 1.1501e-05 7.32386e-07
-1.23814e-06 7.32386e-07 -5.99176e-05
0.00122944 -3.5085e-05 1.84376e-07
-3.5085e-05 5.57756e-05 -1.04265e-06
1.84376e-07 -1.04265e-06 -4.07974e-06
0.00106301 -1.5905e-05 -1.41974e-06
-1.5905e-05 4.44551e-05 7.0236e-07
-1.41974e-06 7.0236e-07 -1.28754e-05
0.00103517 -2.926e-05 -1.45886e-06
-2.926e-05 2.80283e-05 3.4639e-07
-1.45886e-06 3.4639e-07 -3.96843e-05
0.000978358 1.50109e-06 -1.92638e-06
1.50109e-06 6.41774e-06 2.17121e-06
-1.92638e-06 2.17121e-06 -3.19552e-05
0.000908296 -1.30088e-05 -1.0471e-06
-1.30088e-05 -2.96093e-05 9.0402e-07
-1.0471e-06 9.0402e-07 -9.12215e-05
0.00134091 2.13275e-05 -5.46508e-08
2.13275e-05 7.4189e-05 -1.72491e-08
-5.46508e-08 -1.72491e-08 3.04264e-06
0.00149616 5.38449e-06 -1.69169e-07
5.38449e-06 0.000124871 9.79635e-08
-1.69169e-07 9.79635e-08 5.56082e-05
0.00132378 2.26369e-05 -4.83082e-07
2.26369e-05 4.33253e-05 -1.41749e-07
-4.83082e-07 -1.41749e-07 -2.99871e-05
0.00136589 -7.5036e-06 -1.60404e-07
-7.5036e-06 5.70075e-05 -1.55265e-07
-1.60404e-07 -1.55265e-07 -9.41314e-06
0.00105649 -1.5555e-05 8.26646e-08
-1.5555e-05 4.52161e-05 -3.57288e-08
8.26646e-08 -3.57288e-08 -1.13529e-05
0.000991677 -3.01451e-05 2.38573e-07
-3.01451e-05 1.13287e-05 -1.23191e-07
2.38573e-07 -1.23191e-07 -5.23851e-05
0.00114236 -3.71533e-05 9.85706e-09
-3.71533e-05 7.34816e-05 -9.74462e-08
9.85706e-09 -9.74462e-08 8.29161e-08
0.00129917 -2.82822e-05 -2.97675e-07
-2.82822e-05 6.53676e-05 -5.30378e-08
-2.97675e-07 -5.30378e-08 4.15615e-06
0.00134421 -2.07934e-05 3.72027e-07
-2.07934e-05 5.48691e-05 4.41454e-07
3.72027e-07 4.41454e-07 -2.26301e-06
0.00124244 -4.04812e-05 -5.49689e-08
-4.04812e-05 8.68398e-05 3.55556e-07
-5.49689e-08 3.55556e-07 1.36399e-05
0.00124027 -3.07988e-05 2.33085e-08
-3.07988e-05 4.38447e-05 3.25054e-07
2.33085e-08 3.25054e-07 -1.25389e-05
0.00131141 -3.69067e-05 3.81692e-07
-3.69067e-05 8.64805e-05 -1.33494e-06
3.81692e-07 -1.33494e-06 2.89629e-05
0.00110977 -3.03355e-05 9.24254e-08
-3.03355e-05 6.26273e-05 -1.26825e-08
9.24254e-08 -1.26825e-08 -1.74278e-06
0.0011732 -3.47322e-05 -1.15336e-07
-3.47322e-05 9.02521e-05 7.16521e-08
-1.15336e-07 7.16521e-08 1.99696e-05
0.0011427 -3.01584e-05 -4.93376e-08
-3.01584e-05 8.87511e-05 2.15848e-07
-4.93376e-08 2.15848e-07 1.65495e-05
0.000835589 5.04158e-06 -3.28853e-07
5.04158e-06 -6.45176e-05 -6.08992e-09
-3.28853e-07 -6.08992e-09 -0.000102156
0.00088 -1.1188e-05 3.694e-07
-1.1188e-05 -4.13787e-05 -4.80703e-07
3.694e-07 -4.80703e-07 -0.000102687
0.00137988 2.68719e-05 1.04207e-06
2.68719e-05 8.52198e-05 6.13414e-07
1.04207e-06 6.13414e-07 1.21459e-05
0.00141604 1.73873e-05 1.0668e-06
1.73873e-05 6.89517e-05 3.90126e-07
1.0668e-06 3.90126e-07 -3.81007e-06
0.00138594 -9.03034e-06 6.33743e-07
-9.03034e-06 5.421e-05 -1.64544e-06
6.33743e-07 -1.64544e-06 -6.638e-06
0.00123577 -2.39777e-05 1.73313e-07
-2.39777e-05 1.46468e-05 -6.84055e-07
1.73313e-07 -6.84055e-07 -3.9532e-05
0.00109557 -3.09245e-05 6.03421e-07
-3.09245e-05 5.78653e-05 -2.33593e-07
6.03421e-07 -2.33593e-07 -4.76507e-06
0.00144486 -3.44157e-05 3.63665e-07
-3.44157e-05 0.000123807 -4.43842e-08
3.63665e-07 -4.43842e-08 7.40932e-05
0.000838544 -3.12965e-05 6.88887e-07
-3.12965e-05 -5.99067e-05 -1.67631e-06
6.88887e-07 -1.67631e-06 -0.000129855
0.00119269 -4.08701e-05 1.72815e-06
-4.08701e-05 9.26197e-05 -1.27889e-06
1.72815e-06 -1.27889e-06 1.19034e-05
0.00130867 -4.2631e-05 1.79885e-06
-4.2631e-05 0.000105194 9.00041e-07
1.79885e-06 9.00041e-07 3.14724e-05
0.000708558 8.13054e-06 1.04962e-06
8.13054e-06 -0.000129082 -2.8295e-06
1.04962e-06 -2.8295e-06 -0.000165559
0.00113024 -7.62268e-06 9.21845e-07
-7.62268e-06 8.40993e-05 -1.29215e-06
9.21845e-07 -1.29215e-06 2.63223e-05
0.00108417 -2.82588e-05 8.08737e-07
-2.82588e-05 6.57279e-05 -7.65558e-07
8.08737e-07 -7.65558e-07 -8.24493e-06
0.00113236 -3.38588e-05 5.70041e-07
-3.38588e-05 6.81866e-05 -5.54992e-08
5.70041e-07 -5.54992e-08 1.03323e-06
0.00119773 -3.55654e-05 8.59536e-07
-3.55654e-05 0.00011008 2.12772e-08
8.59536e-07 2.12772e-08 3.10334e-05
0.00109758 -3.50302e-05 2.55024e-07
-3.50302e-05 4.81335e-05 -1.43518e-07
2.55024e-07 -1.43518e-07 -2.49058e-05
0.000899396 -1.18825e-05 -2.59215e-06
-1.18825e-05 -3.90625e-05 -3.47947e-06
-2.59215e-06 -3.47947e-06 -4.49972e-05
0.000983733 -2.0414e-06 -2.02218e-06
-2.0414e-06 6.45193e-06 -2.14929e-06
-2.02218e-06 -2.14929e-06 -3.08582e-05
0.00125591 2.14365e-05 -4.09197e-07
2.14365e-05 6.31092e-05 -2.49807e-07
-4.09197e-07 -2.49807e-07 -1.07908e-06
0.00104479 7.06761e-06 -1.30887e-06
7.06761e-06 3.83003e-05 -1.13315e-06
-1.30887e-06 -1.13315e-06 -1.83911e-05
0.00104723 9.16475e-06 -1.39479e-06
9.16475e-06 3.92203e-05 -8.22152e-07
-1.39479e-06 -8.22152e-07 -1.6535e-05
0.00100557 2.02175e-05 -6.36183e-07
2.02175e-05 1.61812e-05 -3.1169e-07
-6.36183e-07 -3.1169e-07 -4.99526e-05
0.00114607 3.24604e-05 -5.38447e-07
3.24604e-05 5.02821e-05 -1.05701e-06
-5.38447e-07 -1.05701e-06 -1.30527e-05
0.00118427 3.19825e-05 -4.3605e-08
3.19825e-05 4.02905e-05 -4.29378e-07
-4.3605e-08 -4.29378e-07 -2.71038e-05
0.00108709 2.96827e-05 -3.89636e-07
2.96827e-05 6.06843e-05 -4.03237e-07
-3.89636e-07 -4.03237e-07 -5.03429e-06
0.00113456 3.53418e-05 -1.08847e-06
3.53418e-05 7.2052e-05 -4.46969e-07
-1.08847e-06 -4.46969e-07 1.74006e-07
0.00125348 3.54796e-05 -1.25658e-06
3.54796e-05 0.000109447 -7.08021e-07
-1.25658e-06 -7.08021e-07 4.486e-05
0.000991746 -1.28937e-06 9.0822e-08
-1.28937e-06 8.55169e-06 -1.21175e-08
9.0822e-08 -1.21175e-08 -2.78775e-05
0.00104949 8.69226e-06 -2.0408e-08
8.69226e-06 4.01478e-05 -3.93192e-08
-2.0408e-08 -3.93192e-08 -1.66191e-05
0.00107267 2.62372e-05 -1.00224e-07
2.62372e-05 4.75444e-05 -1.0712e-07
-1.00224e-07 -1.0712e-07 -1.71371e-05
0.00108802 1.99307e-05 -7.6817e-08
1.99307e-05 5.96369e-05 -1.86141e-08
-7.6817e-08 -1.86141e-08 -7.76619e-06
0.00111498 3.04753e-05 -2.92746e-07
3.04753e-05 6.99428e-05 -6.42443e-08
-2.92746e-07 -6.42443e-08 -1.18126e-06
0.00123649 2.00804e-05 -2.66047e-07
2.00804e-05 4.62276e-05 -2.04155e-07
-2.66047e-07 -2.04155e-07 -1.82943e-05
0.00117967 3.58573e-05 4.04491e-07
3.58573e-05 5.91764e-05 -6.81671e-08
4.04491e-07 -6.81671e-08 -7.53988e-06
0.0011498 3.49555e-05 1.32521e-07
3.49555e-05 2.4596e-05 3.67625e-07
1.32521e-07 3.67625e-07 -4.10792e-05
0.00102632 3.3902e-05 3.64028e-07
3.3902e-05 2.99607e-05 4.7851e-07
3.64028e-07 4.7851e-07 -4.41374e-05
0.00121039 3.8636e-05 -5.91083e-10
3.8636e-05 9.53462e-05 -8.22974e-08
-5.91083e-10 -8.22974e-08 1.84508e-05
0.00105524 1.05089e-05 1.2555e-06
1.05089e-05 4.26264e-05 1.24802e-06
1.2555e-06 1.24802e-06 -1.39904e-05
0.000949385 2.02554e-05 1.21903e-06
2.02554e-05 -7.39875e-06 8.04539e-07
1.21903e-06 8.04539e-07 -7.7097e-05
0.00111315 3.47643e-05 1.08922e-07
3.47643e-05 6.61305e-05 2.64222e-07
1.08922e-07 2.64222e-07 -5.47471e-06
0.00100609 2.90623e-05 5.10717e-07
2.90623e-05 1.71504e-05 -1.52865e-08
5.10717e-07 -1.52865e-08 -5.67046e-05
0.00116496 3.42239e-05 -6.57675e-08
3.42239e-05 8.94504e-05 -2.02499e-07
-6.57675e-08 -2.02499e-07 1.52241e-05
0.00121293 2.23385e-05 -1.42606e-07
2.23385e-05 1.31677e-05 -2.00972e-07
-1.42606e-07 -2.00972e-07 -4.05486e-05
0.00126165 4.11265e-05 9.47197e-07
4.11265e-05 9.90845e-05 3.21546e-07
9.47197e-07 3.21546e-07 2.47286e-05
0.000698723 3.46856e-05 7.85471e-07
3.46856e-05 -0.000205559 4.96213e-07
7.85471e-07 4.96213e-07 -0.000272221
0.00136146 4.0444e-05 1.60914e-06
4.0444e-05 0.000186041 1.80699e-06
1.60914e-06 1.80699e-06 0.00010639
0.000761928 3.60205e-05 5.32328e-07
3.60205e-05 -0.000122922 5.78038e-07
5.32328e-07 5.78038e-07 -0.000209692
0.000989316 -1.17592e-06 -1.40762e-06
-1.17592e-06 6.14896e-06 -2.19866e-06
-1.40762e-06 -2.19866e-06 -2.92746e-05
0.000964775 9.34343e-06 3.57192e-07
9.34343e-06 -1.09306e-06 4.35484e-07
3.57192e-07 4.35484e-07 -5.78298e-05
0.000957497 1.969e-05 8.25238e-07
1.969e-05 1.65795e-06 1.05985e-06
8.25238e-07 1.05985e-06 -6.84553e-05
0.000869721 6.93024e-06 -7.16168e-07
6.93024e-06 -4.68565e-05 -1.33201e-06
-7.16168e-07 -1.33201e-06 -0.000103184
0.00104619 1.06328e-05 8.32097e-08
1.06328e-05 4.10644e-05 1.93243e-08
8.32097e-08 1.93243e-08 -1.30687e-05
0.00110025 1.949e-05 -2.51196e-07
1.949e-05 7.34144e-05 -4.68437e-07
-2.51196e-07 -4.68437e-07 5.06376e-06
0.00121039 2.74328e-05 2.31109e-07
2.74328e-05 0.000130804 1.57021e-07
2.31109e-07 1.57021e-07 5.39146e-05
0.000935725 1.31981e-05 5.09399e-07
1.31981e-05 -6.90441e-06 1.15519e-06
5.09399e-07 1.15519e-06 -7.5743e-05
0.00103537 5.61202e-06 4.28466e-07
5.61202e-06 3.73564e-05 1.24816e-06
4.28466e-07 1.24816e-06 -1.58373e-05
0.00100201 1.50914e-06 5.37046e-07
1.50914e-06 9.95053e-06 1.98488e-06
5.37046e-07 1.98488e-06 -2.23016e-05
0.00100152 -1.33983e-06 5.11021e-08
-1.33983e-06 1.03231e-05 1.52961e-08
5.11021e-08 1.52961e-08 -2.24274e-05
0.00155957 -7.36252e-06 1.2292e-06
-7.36252e-06 0.000276148 2.10316e-06
1.2292e-06 2.10316e-06 0.00027644
0.0010006 -5.77558e-07 -8.32902e-07
-5.77558e-07 1.04326e-05 -2.06167e-06
-8.32902e-07 -2.06167e-06 -2.30692e-05
0.00157941 -8.85125e-06 -1.38634e-06
-8.85125e-06 0.00028903 -1.31974e-06
-1.38634e-06 -1.31974e-06 0.000288517
0.00120874 -9.01387e-06 7.25457e-06
-9.01387e-06 0.000103755 6.91027e-06
7.25457e-06 6.91027e-06 0.000118572
0.00160445 -1.02142e-05 -4.79134e-06
-1.02142e-05 0.000304198 -4.72728e-06
-4.79134e-06 -4.72728e-06 0.000302889
0.0011516 -1.11575e-05 2.87396e-06
-1.11575e-05 7.93436e-05 2.61334e-06
2.87396e-06 2.61334e-06 9.35954e-05
0.00244313 -1.7884e-05 -3.76846e-06
-1.7884e-05 0.000722139 -1.72105e-06
-3.76846e-06 -1.72105e-06 0.000741994
0.000902229 1.15003e-05 1.93584e-06
1.15003e-05 -3.87881e-05 -3.27158e-06
1.93584e-06 -3.27158e-06 -4.33165e-05
0.000907092 1.25661e-05 -1.57464e-07
1.25661e-05 -3.23928e-05 1.0914e-08
-1.57464e-07 1.0914e-08 -3.87139e-05
0.00247781 1.90034e-05 1.00836e-05
1.90034e-05 0.000744356 -3.99354e-06
1.00836e-05 -3.99354e-06 0.000763287
0.000906481 1.34607e-05 -3.112e-06
1.34607e-05 -2.93674e-05 3.37787e-06
-3.112e-06 3.37787e-06 -3.72716e-05
0.00253796 2.12757e-05 -2.58914e-07
2.12757e-05 0.000778565 -5.51439e-08
-2.58914e-07 -5.51439e-08 0.000796234
0.00254744 2.3593e-05 -1.26507e-05
2.3593e-05 0.000787444 3.94691e-06
-1.26507e-05 3.94691e-06 0.000804187
0.00125244 1.37162e-05 -7.07561e-07
1.37162e-05 5.46397e-05 -2.93747e-07
-7.07561e-07 -2.93747e-07 -9.226e-06
0.00130186 -4.96943e-06 -6.58655e-07
-4.96943e-06 6.62129e-05 -4.50163e-07
-6.58655e-07 -4.50163e-07 -6.54831e-07
0.0013068 1.01262e-06 5.80353e-07
1.01262e-06 5.94989e-05 -2.18594e-07
5.80353e-07 -2.18594e-07 -1.67136e-06
0.001376 -2.02675e-05 -1.00147e-06
-2.02675e-05 8.746e-05 -3.53936e-08
-1.00147e-06 -3.53936e-08 1.90811e-05
0.00130135 -1.64288e-05 -8.09315e-07
-1.64288e-05 6.49292e-05 -8.7995e-08
-8.09315e-07 -8.7995e-08 -5.31568e-06
0.00125811 1.44733e-05 -1.47285e-06
1.44733e-05 5.35506e-05 -1.69795e-07
-1.47285e-06 -1.69795e-07 -1.51354e-05
0.00132135 6.63368e-06 1.77076e-08
6.63368e-06 7.16255e-05 1.96674e-08
1.77076e-08 1.96674e-08 5.17622e-07
0.00128056 -8.85515e-06 2.22899e-07
-8.85515e-06 5.38165e-05 -6.76222e-09
2.22899e-07 -6.76222e-09 -1.59961e-05
0.0012515 -9.22729e-06 -5.2713e-08
-9.22729e-06 2.42161e-05 2.91339e-08
-5.2713e-08 2.91339e-08 -4.11491e-05
0.00140536 -2.34486e-05 -3.04687e-07
-2.34486e-05 9.84574e-05 -9.49309e-08
-3.04687e-07 -9.49309e-08 2.91979e-05
0.00124751 9.21703e-06 -2.21981e-07
9.21703e-06 3.99515e-05 9.46596e-08
-2.21981e-07 9.46596e-08 -2.17175e-05
0.00135738 -3.90215e-06 1.09356e-06
-3.90215e-06 7.29076e-05 -3.73235e-07
1.09356e-06 -3.73235e-07 1.70744e-05
0.00128564 1.30629e-05 4.24683e-07
1.30629e-05 5.75468e-05 4.25467e-07
4.24683e-07 4.25467e-07 -1.26767e-05
0.00127938 -1.58868e-05 1.00695e-06
-1.58868e-05 5.57279e-05 -3.79031e-07
1.00695e-06 -3.79031e-07 -1.38049e-05
0.00132806 -1.64193e-05 1.63089e-07
-1.64193e-05 5.47665e-05 1.1358e-06
1.63089e-07 1.1358e-06 -8.93439e-06
0.00134563 6.87761e-06 -4.1478e-07
6.87761e-06 6.73733e-05 2.29072e-07
-4.1478e-07 2.29072e-07 1.68148e-05
0.00133265 2.15848e-05 -1.1186e-06
2.15848e-05 7.07587e-05 -2.51535e-07
-1.1186e-06 -2.51535e-07 -2.83021e-07
0.00147213 5.59421e-06 -1.7393e-06
5.59421e-06 0.000114433 9.21338e-08
-1.7393e-06 9.21338e-08 4.52661e-05
0.00134164 2.30029e-05 -2.03372e-06
2.30029e-05 5.07411e-05 -4.79185e-07
-2.03372e-06 -4.79185e-07 -2.31013e-05
0.00142441 -7.8224e-06 -5.09559e-07
-7.8224e-06 8.51621e-05 5.17282e-07
-5.09559e-07 5.17282e-07 1.88188e-05
0.0010675 -1.58612e-05 -1.21664e-06
-1.58612e-05 4.95869e-05 6.78011e-07
-1.21664e-06 6.78011e-07 -6.84494e-06
0.0010731 -3.06098e-05 -1.96125e-07
-3.06098e-05 5.11103e-05 6.41956e-07
-1.96125e-07 6.41956e-07 -1.21181e-05
0.00114763 -3.72069e-05 -9.0837e-07
-3.72069e-05 7.71275e-05 1.58075e-06
-9.0837e-07 1.58075e-06 3.51569e-06
0.00138899 -2.87987e-05 -3.51397e-07
-2.87987e-05 0.000108188 4.25307e-07
-3.51397e-07 4.25307e-07 4.64816e-05
0.00123449 -2.10021e-05 7.78588e-08
-2.10021e-05 6.94443e-06 1.31033e-06
7.78588e-08 1.31033e-06 -4.90172e-05
0.00125502 -3.06181e-05 3.36962e-07
-3.06181e-05 5.15065e-05 6.08694e-07
3.36962e-07 6.08694e-07 -4.89512e-06
0.00125132 -4.04905e-05 -1.44494e-06
-4.04905e-05 9.21562e-05 2.16896e-07
-1.44494e-06 2.16896e-07 1.8394e-05
0.00113152 -3.4821e-05 -1.25766e-06
-3.4821e-05 9.17125e-08 -3.22996e-06
-1.25766e-06 -3.22996e-06 -5.55851e-05
0.00111819 -3.04097e-05 -7.46913e-07
-3.04097e-05 6.65861e-05 1.54403e-07
-7.46913e-07 1.54403e-07 2.24111e-06
0.0011049 -3.386e-05 -1.24868e-06
-3.386e-05 5.56253e-05 -3.57403e-08
-1.24868e-06 -3.57403e-08 -1.47137e-05
0.00114373 -3.03206e-05 -1.14741e-06
-3.03206e-05 8.93385e-05 7.76903e-07
-1.14741e-06 7.76903e-07 1.69049e-05
0.000692107 5.28922e-06 -1.59576e-06
5.28922e-06 -0.00013533 2.14479e-06
-1.59576e-06 2.14479e-06 -0.000173878
0.000905333 -1.01746e-05 -7.48472e-07
-1.01746e-05 -2.94752e-05 1.00821e-06
-7.48472e-07 1.00821e-06 -9.05485e-05
0.0013384 2.59424e-05 1.96077e-07
2.59424e-05 6.32102e-05 -3.28679e-07
1.96077e-07 -3.28679e-07 -1.01536e-05
0.00145386 1.69155e-05 -2.05004e-07
1.69155e-05 8.97467e-05 3.09342e-07
-2.05004e-07 3.09342e-07 1.75424e-05
0.0014243 -8.83935e-06 -3.55562e-07
-8.83935e-06 7.59498e-05 1.85958e-07
-3.55562e-07 1.85958e-07 1.50895e-05
0.00111407 -3.06368e-05 6.46829e-08
-3.06368e-05 6.62215e-05 5.94609e-08
6.46829e-08 5.94609e-08 3.61435e-06
0.00104114 -3.40021e-05 3.26992e-07
-3.40021e-05 3.68235e-05 -2.66067e-07
3.26992e-07 -2.66067e-07 -3.23752e-05
0.00116771 -4.05037e-05 -4.01204e-08
-4.05037e-05 8.25678e-05 2.45342e-08
-4.01204e-08 2.45342e-08 1.39911e-06
0.00129017 -2.42074e-05 9.85747e-08
-2.42074e-05 4.0174e-05 -2.35825e-07
9.85747e-08 -2.35825e-07 -1.46295e-05
0.00127172 -4.11424e-05 -6.07378e-08
-4.11424e-05 8.82351e-05 -4.95795e-07
-6.07378e-08 -4.95795e-07 1.64994e-05
0.00128274 -3.43981e-05 -3.91038e-07
-3.43981e-05 4.85345e-05 -4.89177e-07
-3.91038e-07 -4.89177e-07 -1.74755e-06
0.000703471 9.50754e-06 1.50934e-07
9.50754e-06 -0.000131368 -6.80983e-07
1.50934e-07 -6.80983e-07 -0.000167566
0.00114049 -3.4006e-05 2.24961e-08
-3.4006e-05 7.24708e-05 2.68776e-08
2.24961e-08 2.68776e-08 5.17758e-06
0.00109923 -3.50299e-05 -8.41722e-07
-3.50299e-05 4.84498e-05 9.75888e-09
-8.41722e-07 9.75888e-09 -2.3855e-05
0.00120452 -3.54436e-05 -4.35166e-07
-3.54436e-05 0.000113628 2.20865e-07
-4.35166e-07 2.20865e-07 3.51037e-05
0.00118061 -2.9633e-05 -1.20614e-07
-2.9633e-05 0.000113054 9.42906e-08
-1.20614e-07 9.42906e-08 3.92906e-05
0.00100386 -9.17694e-06 -5.94215e-09
-9.17694e-06 2.09566e-05 2.1974e-07
-5.94215e-09 2.1974e-07 -3.76837e-05
0.00148423 2.85981e-05 8.7335e-07
2.85981e-05 0.000124387 1.63049e-06
8.7335e-07 1.63049e-06 5.08304e-05
0.00145802 1.7362e-05 1.14324e-06
1.7362e-05 8.05442e-05 -8.08277e-08
1.14324e-06 -8.08277e-08 9.21516e-06
0.00126525 -1.28796e-05 6.67885e-07
-1.28796e-05 -9.69964e-06 -1.99574e-06
6.67885e-07 -1.99574e-06 -6.30025e-05
0.0014534 -2.93747e-05 5.38978e-07
-2.93747e-05 9.08892e-05 -8.88427e-07
5.38978e-07 -8.88427e-07 4.70889e-05
0.00112213 -3.41152e-05 5.64604e-07
-3.41152e-05 6.78321e-05 -4.28251e-07
5.64604e-07 -4.28251e-07 1.2569e-06
0.00134059 -4.13422e-05 2.12302e-06
-4.13422e-05 8.60557e-05 1.26045e-06
2.12302e-06 1.26045e-06 2.44435e-05
0.000924794 -3.55672e-05 8.36179e-07
-3.55672e-05 -1.92229e-05 -2.07272e-06
8.36179e-07 -2.07272e-06 -9.82732e-05
0.00138394 -4.59428e-05 1.47857e-06
-4.59428e-05 0.00017995 -4.40066e-07
1.47857e-06 -4.40066e-07 9.32179e-05
0.000708196 8.49254e-06 7.12425e-07
8.49254e-06 -0.000131685 -2.61466e-06
7.12425e-07 -2.61466e-06 -0.000165333
0.00114732 -2.91704e-06 8.04587e-07
-2.91704e-06 9.16863e-05 -1.38814e-06
8.04587e-07 -1.38814e-06 3.62612e-05
0.00125394 -2.85178e-05 -6.85639e-08
-2.85178e-05 0.000151598 -2.91281e-08
-6.85639e-08 -2.91281e-08 7.97111e-05
0.00110031 -3.27039e-05 7.86726e-07
-3.27039e-05 7.31033e-05 -1.18565e-06
7.86726e-07 -1.18565e-06 -1.17601e-05
0.00107329 -3.5102e-05 3.15945e-07
-3.5102e-05 3.59267e-05 -4.40891e-07
3.15945e-07 -4.40891e-07 -3.5237e-05
0.00114242 -3.66214e-05 1.07665e-06
-3.66214e-05 7.31529e-05 1.93965e-07
1.07665e-06 1.93965e-07 -6.92624e-06
0.000987263 -1.13567e-06 -1.74008e-06
-1.13567e-06 6.42184e-06 -2.20952e-06
-1.74008e-06 -2.20952e-06 -3.00105e-05
0.00105054 8.65391e-06 -1.30957e-06
8.65391e-06 4.0852e-05 -1.23305e-06
-1.30957e-06 -1.23305e-06 -1.60025e-05
0.0012718 2.15914e-05 -1.89614e-07
2.15914e-05 6.38245e-05 -2.24359e-07
-1.89614e-07 -2.24359e-07 -1.0541e-06
0.00109531 2.03287e-05 -9.6269e-07
2.03287e-05 6.3421e-05 -4.74815e-07
-9.6269e-07 -4.74815e-07 -4.14502e-06
0.00109945 2.70499e-05 -6.91451e-07
2.70499e-05 6.12775e-05 -3.44363e-07
-6.91451e-07 -3.44363e-07 -2.97667e-06
0.00105048 3.00319e-05 -6.62198e-07
3.00319e-05 3.85127e-05 -2.31542e-07
-6.62198e-07 -2.31542e-07 -3.30289e-05
0.0011786 3.56899e-05 -5.77282e-07
3.56899e-05 5.77396e-05 -1.11931e-06
-5.77282e-07 -1.11931e-06 -9.07249e-06
0.00123775 3.51624e-05 -1.3781e-07
3.51624e-05 6.54129e-05 -1.74922e-07
-1.3781e-07 -1.74922e-07 1.6694e-07
0.000945335 3.28504e-05 -2.98881e-07
3.28504e-05 -9.21874e-06 -3.92857e-07
-2.98881e-07 -3.92857e-07 -8.36621e-05
0.00124629 3.92845e-05 -1.03514e-06
3.92845e-05 0.000113054 -6.50576e-07
-1.03514e-06 -6.50576e-07 3.50555e-05
0.00105183 1.03578e-05 4.21795e-08
1.03578e-05 4.12984e-05 -4.10758e-08
4.21795e-08 -4.10758e-08 -1.53782e-05
0.00103349 2.18396e-05 3.85399e-07
2.18396e-05 3.40255e-05 2.47947e-07
3.85399e-07 2.47947e-07 -3.53933e-05
0.00116143 3.53648e-05 -1.87515e-07
3.53648e-05 9.05962e-05 -3.29723e-07
-1.87515e-07 -3.29723e-07 1.95914e-05
0.00106394 2.91914e-05 -3.00527e-07
2.91914e-05 4.6372e-05 1.66526e-08
-3.00527e-07 1.66526e-08 -2.69897e-05
0.0011188 3.36541e-05 -6.2815e-07
3.36541e-05 6.89099e-05 -3.45235e-07
-6.2815e-07 -3.45235e-07 -4.91049e-06
0.00141573 2.2736e-05 -3.41579e-07
2.2736e-05 0.000111301 -4.11566e-07
-3.41579e-07 -4.11566e-07 5.80515e-05
0.00131704 4.17448e-05 5.94225e-07
4.17448e-05 0.000123775 -3.02685e-08
5.94225e-07 -3.02685e-08 5.01279e-05
0.000965624 3.67198e-05 -5.90633e-07
3.67198e-05 -7.03301e-05 7.33142e-07
-5.90633e-07 7.33142e-07 -0.000135516
0.00124461 3.89069e-05 7.53341e-07
3.89069e-05 0.000130191 6.11833e-07
7.53341e-07 6.11833e-07 4.99227e-05
0.000980074 3.87614e-05 -1.19828e-06
3.87614e-05 -1.70586e-05 -2.40897e-07
-1.19828e-06 -2.40897e-07 -0.000104503
0.000960564 2.30356e-05 1.08153e-06
2.30356e-05 8.66281e-07 1.06719e-06
1.08153e-06 1.06719e-06 -6.98497e-05
0.00101232 3.26124e-05 7.32637e-07
3.26124e-05 2.39236e-05 1.37965e-07
7.32637e-07 1.37965e-07 -5.50566e-05
0.00116569 3.69671e-05 2.48168e-07
3.69671e-05 9.02139e-05 5.11827e-07
2.48168e-07 5.11827e-07 1.27261e-05
0.000986993 3.34231e-05 9.6509e-07
3.34231e-05 4.02846e-06 3.29943e-08
9.6509e-07 3.29943e-08 -7.4198e-05
0.00165266 1.50771e-05 7.18469e-07
1.50771e-05 0.000166574 3.40031e-07
7.18469e-07 3.40031e-07 0.000123558
0.00111682 3.53838e-05 2.1017e-06
3.53838e-05 -5.17913e-05 4.3242e-07
2.1017e-06 4.3242e-07 -0.00010405
0.00122675 4.54576e-05 1.77992e-06
4.54576e-05 7.50398e-05 -2.53575e-07
1.77992e-06 -2.53575e-07 -1.04743e-05
0.000941957 3.81078e-05 8.64718e-07
3.81078e-05 -1.50397e-05 1.27856e-06
8.64718e-07 1.27856e-06 -0.000109965
0.00105025 1.00375e-05 -5.56194e-07
1.00375e-05 4.12889e-05 -8.78965e-07
-5.56194e-07 -8.78965e-07 -1.49751e-05
0.00105182 2.08727e-05 2.31368e-07
2.08727e-05 4.82443e-05 3.32162e-07
2.31368e-07 3.32162e-07 -2.13779e-05
0.00113051 2.98773e-05 4.07552e-07
2.98773e-05 9.06294e-05 4.30967e-07
4.07552e-07 4.30967e-07 1.26996e-05
0.00104369 1.09973e-05 -5.00869e-07
1.09973e-05 3.99647e-05 -1.31192e-06
-5.00869e-07 -1.31192e-06 -1.41988e-05
0.000949813 1.73243e-05 -6.91707e-07
1.73243e-05 -7.37042e-07 -1.22855e-06
-6.91707e-07 -1.22855e-06 -7.00809e-05
0.00103945 6.69199e-06 1.16952e-07
6.69199e-06 3.93771e-05 2.89599e-08
1.16952e-07 2.89599e-08 -1.38556e-05
0.00110906 2.48853e-05 -1.66182e-07
2.48853e-05 8.06447e-05 -3.56158e-07
-1.66182e-07 -3.56158e-07 3.04036e-06
0.00101001 1.5038e-05 2.04167e-07
1.5038e-05 2.99048e-05 3.47806e-07
2.04167e-07 3.47806e-07 -3.86493e-05
0.00119286 2.94379e-05 4.32201e-07
2.94379e-05 0.000120359 3.81735e-07
4.32201e-07 3.81735e-07 3.69056e-05
0.000978295 9.70076e-06 5.78557e-07
9.70076e-06 1.66125e-05 8.95388e-07
5.78557e-07 8.95388e-07 -6.16032e-05
0.00093089 2.24997e-05 6.14324e-07
2.24997e-05 -8.82391e-06 1.24059e-06
6.14324e-07 1.24059e-06 -7.7707e-05
0.00102664 -1.31849e-06 2.39463e-07
-1.31849e-06 3.45426e-05 1.25635e-06
2.39463e-07 1.25635e-06 -1.82987e-05
0.00100357 3.01071e-06 3.66197e-07
3.01071e-06 1.06445e-05 1.94331e-06
3.66197e-07 1.94331e-06 -2.15144e-05
0.00100611 -1.73509e-06 -4.94385e-08
-1.73509e-06 1.20684e-05 1.75638e-08
-4.94385e-08 1.75638e-08 -2.02098e-05
0.00155663 -5.23721e-06 8.37648e-07
-5.23721e-06 0.000272108 2.08435e-06
8.37648e-07 2.08435e-06 0.000272988
0.00100696 -2.47168e-06 -4.29337e-07
-2.47168e-06 1.30946e-05 -2.00014e-06
-4.29337e-07 -2.00014e-06 -1.96637e-05
0.00157513 -6.9796e-06 -1.08187e-06
-6.9796e-06 0.000284059 -1.31036e-06
-1.08187e-06 -1.31036e-06 0.000284291
0.00120715 -7.15963e-06 5.59452e-06
-7.15963e-06 9.90571e-05 6.88358e-06
5.59452e-06 6.88358e-06 0.00011467
0.00159568 -8.52914e-06 -3.7349e-06
-8.52914e-06 0.000297217 -4.72072e-06
-3.7349e-06 -4.72072e-06 0.000296662
0.00115178 -9.32538e-06 2.21413e-06
-9.32538e-06 7.55576e-05 2.62525e-06
2.21413e-06 2.62525e-06 9.05935e-05
0.00109526 -1.13334e-05 -1.87619e-06
-1.13334e-05 5.15144e-05 -1.67137e-06
-1.87619e-06 -1.67137e-06 6.59815e-05
0.00090994 1.0009e-05 1.60719e-06
1.0009e-05 -3.95431e-05 -3.26523e-06
1.60719e-06 -3.26523e-06 -4.24314e-05
0.000920122 1.15011e-05 -8.44076e-08
1.15011e-05 -3.02697e-05 2.13061e-08
-8.44076e-08 2.13061e-08 -3.488e-05
0.00242007 1.65189e-05 8.8556e-06
1.65189e-05 0.000710798 -4.01144e-06
8.8556e-06 -4.01144e-06 0.000731008
0.000922739 1.25689e-05 -2.63163e-06
1.25689e-05 -2.48987e-05 3.33342e-06
-2.63163e-06 3.33342e-06 -3.13083e-05
0.00248247 1.89281e-05 -3.5121e-07
1.89281e-05 0.000746965 -4.57181e-08
-3.5121e-07 -4.57181e-08 0.000765765
0.00252598 2.1225e-05 -1.19259e-05
2.1225e-05 0.000772841 4.03215e-06
-1.19259e-05 4.03215e-06 0.000790484
0.00126995 9.40596e-06 2.26604e-07
9.40596e-06 5.21908e-05 2.14519e-07
2.26604e-07 2.14519e-07 -9.70323e-06
0.00130374 -1.04289e-05 -5.21059e-07
-1.04289e-05 4.76225e-05 -4.58089e-07
-5.21059e-07 -4.58089e-07 -1.81373e-05
0.00124964 -3.0964e-06 1.70047e-06
-3.0964e-06 2.1769e-05 -1.71661e-06
1.70047e-06 -1.71661e-06 -3.26797e-05
0.00127748 -2.28557e-05 -1.42941e-06
-2.28557e-05 3.7448e-05 -2.97766e-07
-1.42941e-06 -2.97766e-07 -3.25624e-05
0.00128314 -1.09679e-05 -6.58476e-07
-1.09679e-05 5.49242e-05 1.06217e-07
-6.58476e-07 1.06217e-07 -1.48339e-05
0.00130495 5.96968e-06 -7.56877e-07
5.96968e-06 6.39048e-05 -2.37186e-07
-7.56877e-07 -2.37186e-07 -7.38462e-06
0.00129828 1.5311e-05 2.19273e-07
1.5311e-05 6.21333e-05 -5.05842e-08
2.19273e-07 -5.05842e-08 -8.3852e-06
0.0012977 -1.95137e-05 -2.33578e-07
-1.95137e-05 6.32536e-05 3.5189e-07
-2.33578e-07 3.5189e-07 -6.3456e-06
0.00130978 -1.57122e-05 3.97145e-07
-1.57122e-05 4.69908e-05 -1.33488e-07
3.97145e-07 -1.33488e-07 -1.61233e-05
0.00128122 5.24263e-06 2.39656e-07
5.24263e-06 3.48473e-05 -1.77167e-07
2.39656e-07 -1.77167e-07 -1.58598e-05
0.00125955 9.22519e-06 5.95264e-07
9.22519e-06 4.59337e-05 -6.73225e-09
5.95264e-07 -6.73225e-09 -2.41282e-05
0.00136215 -2.7961e-05 9.33643e-07
-2.7961e-05 9.44334e-05 5.32536e-08
9.33643e-07 5.32536e-08 2.72345e-05
0.00130725 -4.8427e-06 -2.76744e-07
-4.8427e-06 3.02032e-05 1.42947e-06
-2.76744e-07 1.42947e-06 -2.30456e-05
0.00130613 2.51912e-05 -1.3132e-06
2.51912e-05 4.54813e-05 -1.24838e-06
-1.3132e-06 -1.24838e-06 -2.81691e-05
0.00148892 1.65633e-05 -1.19877e-06
1.65633e-05 0.000109299 3.88475e-07
-1.19877e-06 3.88475e-07 3.76468e-05
0.00145966 -8.73773e-06 -4.63761e-07
-8.73773e-06 9.615e-05 1.3198e-06
-4.63761e-07 1.3198e-06 3.52978e-05
0.00112837 -3.01879e-05 -5.71697e-07
-3.01879e-05 7.25839e-05 4.33451e-07
-5.71697e-07 4.33451e-07 1.00075e-05
0.00124887 -3.67769e-05 -2.34223e-07
-3.67769e-05 0.000135954 9.52664e-07
-2.34223e-07 9.52664e-07 6.75059e-05
0.00114016 -4.01115e-05 -1.37961e-06
-4.01115e-05 7.13148e-05 1.81001e-06
-1.37961e-06 1.81001e-06 -1.03082e-05
0.00134842 -2.448e-05 -2.22766e-07
-2.448e-05 6.74565e-05 5.91792e-07
-2.22766e-07 5.91792e-07 1.20342e-05
0.00112633 -3.43426e-05 -1.19016e-06
-3.43426e-05 -2.41252e-05 -2.65543e-07
-1.19016e-06 -2.65543e-07 -7.49695e-05
0.00123083 -3.96905e-05 -2.07305e-06
-3.96905e-05 6.93336e-05 -1.6483e-06
-2.07305e-06 -1.6483e-06 -3.99059e-07
0.00114873 -3.41538e-05 -6.2721e-07
-3.41538e-05 7.68087e-05 2.06852e-07
-6.2721e-07 2.06852e-07 9.37535e-06
0.00109896 -3.49946e-05 -1.98912e-06
-3.49946e-05 4.79414e-05 3.16624e-07
-1.98912e-06 3.16624e-07 -2.36374e-05
0.00121255 -3.5339e-05 -1.50632e-06
-3.5339e-05 0.000117812 2.95272e-07
-1.50632e-06 2.95272e-07 3.9807e-05
0.000695887 1.20194e-05 -7.08503e-07
1.20194e-05 -0.000134868 1.42424e-06
-7.08503e-07 1.42424e-06 -0.000170797
0.00128264 -3.13359e-05 -8.69304e-07
-3.13359e-05 0.000163149 1.17153e-06
-8.69304e-07 1.17153e-06 8.95704e-05
0.000876344 -9.88582e-06 -7.0869e-07
-9.88582e-06 -4.271e-05 1.68364e-06
-7.0869e-07 1.68364e-06 -0.000102275
0.0014049 2.80029e-05 -4.85493e-08
2.80029e-05 9.07498e-05 3.45674e-07
-4.85493e-08 3.45674e-07 1.79059e-05
0.00144334 1.61561e-05 3.01662e-07
1.61561e-05 7.00175e-05 1.92872e-07
3.01662e-07 1.92872e-07 -1.24004e-06
0.00131986 -1.26803e-05 -2.16476e-07
-1.26803e-05 1.6926e-05 -1.9171e-07
-2.16476e-07 -1.9171e-07 -3.76199e-05
0.00114222 -3.44249e-05 7.41545e-08
-3.44249e-05 7.70651e-05 1.84291e-07
7.41545e-08 1.84291e-07 1.04114e-05
0.000985404 -3.62855e-05 -8.38262e-08
-3.62855e-05 1.0907e-05 9.73364e-08
-8.38262e-08 9.73364e-08 -6.72695e-05
0.00133498 -4.47352e-05 -6.67808e-07
-4.47352e-05 0.000156589 7.13261e-07
-6.67808e-07 7.13261e-07 7.07453e-05
0.00146734 -3.02239e-05 1.86885e-07
-3.02239e-05 0.00010202 6.55664e-08
1.86885e-07 6.55664e-08 5.83089e-05
0.00125401 -4.03998e-05 8.98162e-09
-4.03998e-05 4.28754e-05 -5.51177e-07
8.98162e-09 -5.51177e-07 -1.85224e-05
0.00084738 9.44776e-06 5.936e-08
9.44776e-06 -6.3172e-05 -6.25202e-07
5.936e-08 -6.25202e-07 -9.57887e-05
0.00113575 -8.05509e-07 -4.73828e-08
-8.05509e-07 8.67187e-05 1.1497e-07
-4.73828e-08 1.1497e-07 3.12536e-05
0.00106597 -3.50124e-05 -3.9152e-07
-3.50124e-05 3.28866e-05 1.42654e-07
-3.9152e-07 1.42654e-07 -3.85513e-05
0.00116768 -3.69805e-05 8.7821e-08
-3.69805e-05 8.56848e-05 5.54213e-08
8.7821e-08 5.54213e-08 5.78228e-06
0.00111994 -3.27218e-05 7.94731e-08
-3.27218e-05 8.40039e-05 -2.07536e-07
7.94731e-08 -2.07536e-07 -1.33075e-07
0.00120678 -2.93761e-05 -5.69121e-07
-2.93761e-05 0.000127637 8.25572e-07
-5.69121e-07 8.25572e-07 5.50859e-05
0.00139523 2.96255e-05 1.30133e-06
2.96255e-05 8.43962e-05 1.76633e-06
1.30133e-06 1.76633e-06 1.44447e-05
0.00152254 1.1141e-05 1.04471e-06
1.1141e-05 9.87909e-05 -9.03718e-07
1.04471e-06 -9.03718e-07 3.24747e-05
0.00137418 -2.09297e-05 -2.07927e-07
-2.09297e-05 2.11924e-05 -1.63364e-06
-2.07927e-07 -1.63364e-06 -1.58673e-05
0.00169245 -4.09525e-05 1.17332e-06
-4.09525e-05 0.000203427 -2.93531e-07
1.17332e-06 -2.93531e-07 0.000160035
0.00100928 -3.50157e-05 2.63029e-07
-3.50157e-05 1.55818e-05 -7.28313e-07
2.63029e-07 -7.28313e-07 -5.73827e-05
0.00135769 -4.67815e-05 2.08117e-06
-4.67815e-05 0.0001447 1.45328e-06
2.08117e-06 1.45328e-06 5.95982e-05
0.00140084 -4.5437e-05 1.29691e-06
-4.5437e-05 0.00020725 -2.43023e-06
1.29691e-06 -2.43023e-06 0.000120302
0.000997413 7.34986e-06 6.11755e-07
7.34986e-06 7.8322e-06 -1.87459e-06
6.11755e-07 -1.87459e-06 -2.1907e-05
0.00104901 -9.63367e-06 3.63984e-07
-9.63367e-06 3.98855e-05 -1.20527e-06
3.63984e-07 -1.20527e-06 -7.24455e-06
0.000833705 5.7731e-06 1.41793e-07
5.7731e-06 -6.26114e-05 -1.91586e-06
1.41793e-07 -1.91586e-06 -0.000115959
0.0011489 -2.41817e-05 6.44729e-08
-2.41817e-05 0.000100297 -4.63335e-07
6.44729e-08 -4.63335e-07 2.8485e-05
0.00105946 -3.04885e-05 4.36645e-07
-3.04885e-05 5.94227e-05 -9.41668e-07
4.36645e-07 -9.41668e-07 -2.43816e-05
0.00116036 -3.50005e-05 1.7131e-06
-3.50005e-05 0.000101612 -1.11846e-07
1.7131e-06 -1.11846e-07 1.12118e-05
0.00101509 -3.61925e-05 7.00763e-07
-3.61925e-05 7.96971e-06 -4.53457e-07
7.00763e-07 -4.53457e-07 -6.79858e-05
0.00143968 -4.27637e-05 4.14239e-07
-4.27637e-05 0.000225859 -2.11833e-07
4.14239e-07 -2.11833e-07 0.000139114
0.00104793 1.02734e-05 -1.10271e-06
1.02734e-05 3.9724e-05 -1.30071e-06
-1.10271e-06 -1.30071e-06 -1.70115e-05
0.0011178 2.4148e-05 -5.78169e-07
2.4148e-05 7.55478e-05 -3.95872e-07
-5.78169e-07 -3.95872e-07 6.38027e-06
0.00162286 2.31406e-05 1.34131e-08
2.31406e-05 0.000211494 -3.25319e-07
1.34131e-08 -3.25319e-07 0.000158708
0.00112848 3.04015e-05 -1.00705e-06
3.04015e-05 7.86985e-05 3.93941e-09
-1.00705e-06 3.93941e-09 5.78836e-06
0.00121147 3.59868e-05 -8.2565e-07
3.59868e-05 0.000115842 -9.25401e-07
-8.2565e-07 -9.25401e-07 4.54433e-05
0.00106084 3.26879e-05 -9.18548e-07
3.26879e-05 4.27551e-05 -4.63965e-07
-9.18548e-07 -4.63965e-07 -3.06373e-05
0.0013561 4.21566e-05 -2.69328e-07
4.21566e-05 0.000140499 -5.12725e-07
-2.69328e-07 -5.12725e-07 6.75933e-05
0.00121733 3.86371e-05 -9.59878e-07
3.86371e-05 5.75307e-05 1.26765e-06
-9.59878e-07 1.26765e-06 -6.15059e-06
0.00111952 3.7226e-05 1.96756e-08
3.7226e-05 7.04368e-05 -2.95248e-07
1.96756e-08 -2.95248e-07 -1.04443e-05
0.00114759 4.07854e-05 -2.59877e-06
4.07854e-05 6.44487e-05 -9.7404e-07
-2.59877e-06 -9.7404e-07 -2.36091e-05
0.000966202 2.26677e-05 3.23268e-07
2.26677e-05 3.65351e-06 3.24244e-07
3.23268e-07 3.24244e-07 -6.71208e-05
0.00108556 3.34945e-05 -3.36659e-07
3.34945e-05 5.93042e-05 -3.98944e-07
-3.36659e-07 -3.98944e-07 -1.87895e-05
0.00117653 3.70096e-05 -2.34079e-07
3.70096e-05 9.64264e-05 -4.65379e-07
-2.34079e-07 -4.65379e-07 1.9594e-05
0.00110119 3.44265e-05 -2.07995e-08
3.44265e-05 5.94177e-05 -2.03917e-07
-2.07995e-08 -2.03917e-07 -1.83678e-05
0.00153335 1.41672e-05 6.76831e-09
1.41672e-05 0.000109997 -9.78755e-07
6.76831e-09 -9.78755e-07 6.78421e-05
0.00121479 3.52786e-05 1.68734e-07
3.52786e-05 5.46775e-06 1.77414e-07
1.68734e-07 1.77414e-07 -4.90017e-05
0.00138581 4.71959e-05 -3.13506e-07
4.71959e-05 0.000151809 -1.6962e-07
-3.13506e-07 -1.6962e-07 6.7427e-05
0.000966874 3.88841e-05 1.75169e-07
3.88841e-05 -7.34538e-06 1.27268e-07
1.75169e-07 1.27268e-07 -0.000102004
0.0011561 3.31526e-05 2.01637e-07
3.31526e-05 0.000101283 1.78137e-07
2.01637e-07 1.78137e-07 2.22872e-05
0.00138574 -4.69704e-06 7.95992e-07
-4.69704e-06 4.44858e-05 1.30983e-06
7.95992e-07 1.30983e-06 -5.10294e-06
0.00124354 3.74016e-05 9.70468e-07
3.74016e-05 0.000136373 4.80759e-07
9.70468e-07 4.80759e-07 5.19569e-05
0.00116833 3.87291e-05 6.87131e-07
3.87291e-05 9.62112e-05 7.31165e-07
6.87131e-07 7.31165e-07 1.04515e-05
0.00146211 3.59214e-05 3.72889e-06
3.59214e-05 3.73021e-05 -5.39039e-07
3.72889e-06 -5.39039e-07 7.05226e-07
0.00120713 4.89362e-05 3.7234e-06
4.89362e-05 2.53995e-05 -5.40841e-07
3.7234e-06 -5.40841e-07 -5.98626e-05
0.00159707 5.06642e-05 7.72858e-07
5.06642e-05 0.000296604 1.86953e-06
7.72858e-07 1.86953e-06 0.000194163
0.00114522 2.1752e-05 -3.91368e-07
2.1752e-05 9.43546e-05 -4.17725e-07
-3.91368e-07 -4.17725e-07 2.52384e-05
0.00112493 2.97418e-05 -5.37047e-08
2.97418e-05 8.83073e-05 -6.41912e-08
-5.37047e-08 -6.41912e-08 1.03592e-05
0.00113619 3.30133e-05 5.84306e-07
3.30133e-05 9.42001e-05 4.42395e-07
5.84306e-07 4.42395e-07 9.96207e-06
0.00104235 1.00095e-05 -4.11996e-07
1.00095e-05 4.08961e-05 -1.30433e-06
-4.11996e-07 -1.30433e-06 -1.24246e-05
0.00108291 1.8281e-05 -8.68963e-08
1.8281e-05 6.5995e-05 -4.19868e-07
-8.68963e-08 -4.19868e-07 -2.2634e-06
0.0010085 2.18754e-05 -5.72528e-07
2.18754e-05 3.08277e-05 -9.27856e-07
-5.72528e-07 -9.27856e-07 -4.74758e-05
0.00103325 -1.02387e-06 1.41118e-07
-1.02387e-06 3.79124e-05 1.27054e-08
1.41118e-07 1.27054e-08 -1.50807e-05
0.000934212 1.58738e-05 6.99273e-08
1.58738e-05 -7.247e-06 3.71955e-07
6.99273e-08 3.71955e-07 -7.5968e-05
0.00112104 2.58003e-05 -3.98375e-08
2.58003e-05 8.45738e-05 -3.43416e-07
-3.98375e-08 -3.43416e-07 5.07213e-07
0.00110932 1.73176e-05 1.82298e-07
1.73176e-05 8.15422e-05 3.08473e-07
1.82298e-07 3.08473e-07 3.96728e-06
0.001219 3.46958e-05 2.50701e-07
3.46958e-05 0.000127038 1.58809e-07
2.50701e-07 1.58809e-07 3.86067e-05
0.00104528 1.1904e-05 5.2371e-07
1.1904e-05 4.58358e-05 7.5716e-07
5.2371e-07 7.5716e-07 -3.93048e-05
0.0011174 2.49564e-05 3.89986e-07
2.49564e-05 8.48495e-05 7.95814e-07
3.89986e-07 7.95814e-07 6.69875e-06
0.00106208 1.3017e-05 5.08094e-07
1.3017e-05 5.67287e-05 9.11482e-07
5.08094e-07 9.11482e-07 -1.18835e-05
0.00103609 -5.1987e-06 1.23756e-07
-5.1987e-06 3.97859e-05 1.28571e-06
1.23756e-07 1.28571e-06 -1.33217e-05
0.00100285 4.32931e-06 2.1811e-07
4.32931e-06 1.0378e-05 1.90927e-06
2.1811e-07 1.90927e-06 -2.19078e-05
0.00100551 -5.02242e-07 -6.1714e-08
-5.02242e-07 1.16624e-05 1.37899e-08
-6.1714e-08 1.37899e-08 -2.05117e-05
0.00154972 -2.86899e-06 4.66021e-07
-2.86899e-06 0.000266818 2.06119e-06
4.66021e-07 2.06119e-06 0.00026799
0.00100955 -4.67282e-06 -2.23378e-07
-4.67282e-06 1.38585e-05 -1.96586e-06
-2.23378e-07 -1.96586e-06 -1.84435e-05
0.00157256 -4.91708e-06 -7.51157e-07
-4.91708e-06 0.000280212 -1.3015e-06
-7.51157e-07 -1.3015e-06 0.000280996
0.00120339 -5.14678e-06 3.82952e-06
-5.14678e-06 9.37311e-05 6.85956e-06
3.82952e-06 6.85956e-06 0.000109968
0.00158915 -6.73897e-06 -2.61707e-06
-6.73897e-06 0.000291229 -4.68909e-06
-2.61707e-06 -4.68909e-06 0.000291398
0.00115062 -7.3632e-06 1.48606e-06
-7.3632e-06 7.10479e-05 2.61774e-06
1.48606e-06 2.61774e-06 8.6894e-05
0.00109531 -9.36411e-06 -1.47497e-06
-9.36411e-06 4.75721e-05 -1.67142e-06
-1.47497e-06 -1.67142e-06 6.28425e-05
0.00100406 5.51663e-06 4.94346e-07
5.51663e-06 7.69259e-06 -1.85319e-06
4.94346e-07 -1.85319e-06 -2.02009e-05
0.000917763 8.41545e-06 1.23432e-06
8.41545e-06 -3.98544e-05 -3.24528e-06
1.23432e-06 -3.24528e-06 -4.11462e-05
0.000929231 1.0033e-05 -8.94822e-08
1.0033e-05 -3.03119e-05 7.11552e-09
-8.94822e-08 7.11552e-09 -3.32791e-05
0.0023794 1.38807e-05 7.65343e-06
1.38807e-05 0.000685707 -4.02016e-06
7.65343e-06 -4.02016e-06 0.000707095
0.000938473 1.15082e-05 -2.1376e-06
1.15082e-05 -2.14599e-05 3.3011e-06
-2.1376e-06 3.3011e-06 -2.61631e-05
0.00242323 1.65142e-05 -3.48955e-07
1.65142e-05 0.000712909 -3.39709e-08
-3.48955e-07 -3.39709e-08 0.000732964
0.00248296 1.8868e-05 -1.09185e-05
1.8868e-05 0.000747498 4.07562e-06
-1.09185e-05 4.07562e-06 0.000766187
0.00121446 3.66239e-06 6.64265e-07
3.66239e-06 1.12798e-06 -3.11356e-07
6.64265e-07 -3.11356e-07 -4.97145e-05
0.0012824 -1.49414e-05 -2.989e-07
-1.49414e-05 3.49677e-05 -1.29303e-06
-2.989e-07 -1.29303e-06 -2.75634e-05
0.00131259 -1.97728e-05 -1.03888e-06
-1.97728e-05 6.89592e-05 7.54275e-07
-1.03888e-06 7.54275e-07 -5.94608e-07
0.00131887 1.76758e-05 -5.49452e-07
1.76758e-05 7.03587e-05 -7.86819e-07
-5.49452e-07 -7.86819e-07 -3.91048e-07
0.00130261 9.10925e-06 8.77632e-08
9.10925e-06 6.89251e-05 -2.86258e-07
8.77632e-08 -2.86258e-07 -4.64854e-07
0.00134472 -2.7167e-05 -2.14798e-08
-2.7167e-05 8.59254e-05 2.52504e-07
-2.14798e-08 2.52504e-07 1.78143e-05
0.00130438 -4.64613e-06 -6.15772e-07
-4.64613e-06 3.15725e-05 2.64186e-07
-6.15772e-07 2.64186e-07 -2.02944e-05
0.00132629 1.36573e-06 1.39593e-06
1.36573e-06 8.34923e-05 -8.42805e-07
1.39593e-06 -8.42805e-07 1.5362e-05
0.00133539 -2.10621e-05 4.00823e-07
-2.10621e-05 6.1884e-05 1.01497e-06
4.00823e-07 1.01497e-06 3.67958e-07
0.00129818 -1.89054e-05 3.3497e-07
-1.89054e-05 3.69616e-05 -4.42988e-07
3.3497e-07 -4.42988e-07 -9.41485e-06
0.00132946 2.7429e-05 -6.24522e-07
2.7429e-05 5.89186e-05 -6.50399e-07
-6.24522e-07 -6.50399e-07 -1.32101e-05
0.00144265 1.47578e-05 -1.04261e-06
1.47578e-05 6.62283e-05 4.20379e-07
-1.04261e-06 4.20379e-07 -4.97493e-06
0.00137787 -1.25091e-05 -8.29865e-07
-1.25091e-05 4.5137e-05 1.15288e-06
-8.29865e-07 1.15288e-06 -1.06517e-05
0.00115803 -3.46746e-05 -4.75672e-07
-3.46746e-05 8.43051e-05 8.27478e-07
-4.75672e-07 8.27478e-07 1.75706e-05
0.00104044 -3.69111e-05 -6.10266e-07
-3.69111e-05 3.82604e-05 2.2445e-06
-6.10266e-07 2.2445e-06 -3.9023e-05
0.00127897 -4.33982e-05 -1.79431e-06
-4.33982e-05 0.00012984 1.5004e-06
-1.79431e-06 1.5004e-06 4.48953e-05
0.00143967 -3.09492e-05 1.29271e-06
-3.09492e-05 9.36747e-05 6.70143e-07
1.29271e-06 6.70143e-07 5.00576e-05
0.00117715 -3.95638e-05 -2.78093e-06
-3.95638e-05 4.34603e-06 -1.63591e-06
-2.78093e-06 -1.63591e-06 -5.68505e-05
0.0010574 -3.49042e-05 -1.08264e-06
-3.49042e-05 2.92304e-05 3.31036e-07
-1.08264e-06 3.31036e-07 -4.24792e-05
0.00119004 -3.73036e-05 -1.38348e-06
-3.73036e-05 9.67703e-05 4.80992e-09
-1.38348e-06 4.80992e-09 1.70523e-05
0.00112651 -3.25062e-05 -3.888e-07
-3.25062e-05 8.8665e-05 4.70074e-07
-3.888e-07 4.70074e-07 5.26745e-06
0.000985676 1.01323e-05 -6.63055e-07
1.01323e-05 4.85249e-06 1.33697e-06
-6.63055e-07 1.33697e-06 -2.67181e-05
0.00112503 1.71652e-06 -5.06497e-07
1.71652e-06 8.21993e-05 1.68546e-06
-5.06497e-07 1.68546e-06 2.66361e-05
0.00114815 -2.88702e-05 -1.26606e-06
-2.88702e-05 9.80941e-05 1.79145e-06
-1.26606e-06 1.79145e-06 2.49454e-05
0.00133694 2.8885e-05 1.35833e-07
2.8885e-05 5.53455e-05 3.32832e-07
1.35833e-07 3.32832e-07 -1.49195e-05
0.000999193 7.39005e-06 -4.30478e-08
7.39005e-06 8.53097e-06 2.1995e-11
-4.30478e-08 2.1995e-11 -2.12156e-05
0.000939504 1.7288e-07 -3.02492e-07
1.7288e-07 -1.37837e-05 6.44049e-09
-3.02492e-07 6.44049e-09 -6.1465e-05
0.00153358 1.08695e-05 1.69657e-07
1.08695e-05 0.000102562 4.33135e-07
1.69657e-07 4.33135e-07 3.68057e-05
0.0012869 -2.15505e-05 -2.3354e-07
-2.15505e-05 -1.70831e-05 -3.25974e-07
-2.3354e-07 -3.25974e-07 -5.69894e-05
0.000990829 -3.46716e-05 -1.40514e-07
-3.46716e-05 5.98516e-06 5.30585e-07
-1.40514e-07 5.30585e-07 -6.64989e-05
0.00126442 -4.37181e-05 -2.24174e-07
-4.37181e-05 0.000141506 1.76302e-07
-2.24174e-07 1.76302e-07 5.36743e-05
0.00118722 -4.40004e-05 4.59116e-07
-4.40004e-05 5.96912e-05 5.74782e-07
4.59116e-07 5.74782e-07 -2.42694e-05
0.00148106 -4.02216e-05 -2.72536e-09
-4.02216e-05 0.000103437 -9.56284e-07
-2.72536e-09 -9.56284e-07 5.97477e-05
0.00107764 1.62538e-06 2.89861e-07
1.62538e-06 5.76067e-05 -5.09352e-07
2.89861e-07 -5.09352e-07 5.99514e-06
0.00113836 -1.90822e-05 -3.97216e-07
-1.90822e-05 9.5697e-05 5.24893e-07
-3.97216e-07 5.24893e-07 2.36881e-05
0.00114026 -3.78293e-05 3.85067e-07
-3.78293e-05 6.83253e-05 2.59907e-07
3.85067e-07 2.59907e-07 -7.25009e-06
0.00124189 -3.99462e-05 -1.00599e-06
-3.99462e-05 0.000127972 -2.55286e-07
-1.00599e-06 -2.55286e-07 4.34906e-05
0.00109896 -3.3983e-05 4.02956e-07
-3.3983e-05 7.14166e-05 2.89845e-07
4.02956e-07 2.89845e-07 -2.03569e-05
0.00108702 -3.08832e-05 2.93489e-07
-3.08832e-05 7.21307e-05 -3.08439e-07
2.93489e-07 -3.08439e-07 -1.1288e-05
0.00141341 3.10891e-05 1.82067e-06
3.10891e-05 8.45716e-05 1.382e-06
1.82067e-06 1.382e-06 1.3614e-05
0.001559 1.41752e-06 4.80336e-07
1.41752e-06 0.000102764 -1.66058e-06
4.80336e-07 -1.66058e-06 5.34727e-05
0.00166568 -3.66056e-05 -1.07758e-06
-3.66056e-05 0.000134622 -7.60253e-07
-1.07758e-06 -7.60253e-07 0.000112091
0.00144604 -4.96654e-05 2.93228e-06
-4.96654e-05 0.000135548 1.70272e-06
2.93228e-06 1.70272e-06 6.64719e-05
0.00102394 -3.76997e-05 2.92217e-07
-3.76997e-05 2.7447e-05 -1.62442e-06
2.92217e-07 -1.62442e-06 -5.16969e-05
0.00154474 -5.19687e-05 1.12209e-06
-5.19687e-05 0.000271203 -1.60703e-06
1.12209e-06 -1.60703e-06 0.000175137
0.000841267 3.22e-06 1.25015e-07
3.22e-06 -6.33731e-05 -1.65107e-06
1.25015e-07 -1.65107e-06 -0.000109769
0.00103647 -6.59679e-06 5.24686e-07
-6.59679e-06 3.60175e-05 -1.23168e-06
5.24686e-07 -1.23168e-06 -1.31807e-05
0.00128953 -2.29602e-06 -1.6373e-07
-2.29602e-06 0.000167615 -4.57748e-07
-1.6373e-07 -4.57748e-07 0.000106695
0.00090545 4.53428e-07 -4.51624e-08
4.53428e-07 -1.76596e-05 -1.16179e-06
-4.51624e-08 -1.16179e-06 -8.80644e-05
0.00120041 -3.00492e-05 2.45469e-07
-3.00492e-05 0.000127308 -3.16512e-07
2.45469e-07 -3.16512e-07 4.55982e-05
0.000976155 -2.98247e-05 1.99256e-08
-2.98247e-05 1.83882e-05 -5.74879e-07
1.99256e-08 -5.74879e-07 -7.56979e-05
0.00122278 -3.73896e-05 1.83841e-06
-3.73896e-05 0.000139266 -5.35712e-07
1.83841e-06 -5.35712e-07 4.00013e-05
0.0010259 -4.00286e-05 6.07794e-07
-4.00286e-05 2.26891e-05 -1.02878e-06
6.07794e-07 -1.02878e-06 -6.16417e-05
0.000974629 2.27184e-05 -4.32624e-07
2.27184e-05 7.81582e-06 -4.55184e-07
-4.32624e-07 -4.55184e-07 -6.30443e-05
0.00115435 3.33641e-05 -1.46211e-06
3.33641e-05 9.25727e-05 -6.648e-07
-1.46211e-06 -6.648e-07 1.54129e-05
0.00141009 1.32443e-05 -1.90852e-06
1.32443e-05 5.14768e-05 -1.84342e-06
-1.90852e-06 -1.84342e-06 1.01892e-05
0.00131827 3.52254e-05 -1.37072e-06
3.52254e-05 6.52192e-05 4.68148e-07
-1.37072e-06 4.68148e-07 8.56409e-06
0.00121926 3.57249e-05 -1.08002e-06
3.57249e-05 0.000116662 -2.67523e-07
-1.08002e-06 -2.67523e-07 3.92994e-05
0.0011927 3.70492e-05 -8.5579e-07
3.70492e-05 0.000105173 -1.22338e-06
-8.5579e-07 -1.22338e-06 2.89963e-05
0.00157095 4.92258e-05 -1.32051e-06
4.92258e-05 0.000241349 -1.59348e-07
-1.32051e-06 -1.59348e-07 0.000158056
0.00101161 3.99426e-05 -9.38408e-07
3.99426e-05 9.98645e-06 -1.21835e-06
-9.38408e-07 -1.21835e-06 -8.44354e-05
0.00113245 3.325e-05 -3.27568e-07
3.325e-05 8.96465e-05 -3.25015e-07
-3.27568e-07 -3.25015e-07 1.06414e-05
0.00121232 -3.97237e-06 5.59948e-07
-3.97237e-06 -3.67438e-05 5.93431e-07
5.59948e-07 5.93431e-07 -8.3798e-05
0.00116992 3.64884e-05 2.71031e-07
3.64884e-05 9.96884e-05 3.35636e-07
2.71031e-07 3.35636e-07 1.53765e-05
0.00103388 3.68156e-05 2.91619e-07
3.68156e-05 2.94991e-05 -1.10218e-07
2.91619e-07 -1.10218e-07 -5.73036e-05
0.00140378 3.30882e-05 5.17446e-07
3.30882e-05 1.37385e-05 -3.68112e-07
5.17446e-07 -3.68112e-07 -2.39491e-05
0.00142713 5.29069e-05 7.7715e-07
5.29069e-05 0.00012667 -5.09463e-07
7.7715e-07 -5.09463e-07 4.18294e-05
0.00148319 4.94187e-05 2.23488e-07
4.94187e-05 0.000242304 6.1158e-07
2.23488e-07 6.1158e-07 0.000139449
0.00119229 3.48282e-05 3.56466e-07
3.48282e-05 0.000121724 3.79725e-07
3.56466e-07 3.79725e-07 3.57695e-05
0.00140223 2.54792e-05 3.42474e-06
2.54792e-05 -3.96011e-05 -1.4139e-06
3.42474e-06 -1.4139e-06 -7.46165e-05
0.00135217 3.98086e-05 5.73144e-07
3.98086e-05 0.000186196 1.38518e-07
5.73144e-07 1.38518e-07 9.7671e-05
0.00158481 4.72716e-05 -3.47405e-07
4.72716e-05 0.000302175 1.32501e-06
-3.47405e-07 1.32501e-06 0.000202682
0.00118532 5.85294e-05 5.03722e-06
5.85294e-05 -8.11894e-05 -1.448e-08
5.03722e-06 -1.448e-08 -0.000153234
0.00100383 4.94587e-05 4.04912e-08
4.94587e-05 -3.8697e-07 1.92383e-06
4.04912e-08 1.92383e-06 -0.000112354
0.00226531 -5.62477e-05 -4.46542e-06
-5.62477e-05 0.000122612 -7.33207e-06
-4.46542e-06 -7.33207e-06 0.000163157
0.00112047 2.98191e-05 -4.45849e-07
2.98191e-05 8.65133e-05 -5.80402e-07
-4.45849e-07 -5.80402e-07 8.53753e-06
0.00112083 3.2728e-05 -3.66125e-10
3.2728e-05 8.76909e-05 5.93349e-09
-3.66125e-10 5.93349e-09 3.38834e-06
0.00124254 3.51048e-05 5.40954e-07
3.51048e-05 0.000143063 2.63949e-07
5.40954e-07 2.63949e-07 5.42781e-05
0.00103978 -2.66313e-06 1.13301e-08
-2.66313e-06 4.11845e-05 -1.30366e-06
1.13301e-08 -1.30366e-06 -1.19177e-05
0.000939008 8.26765e-06 -2.42952e-07
8.26765e-06 -4.94563e-06 -4.40185e-07
-2.42952e-07 -4.40185e-07 -7.34979e-05
0.00124006 2.45022e-05 -1.98034e-07
2.45022e-05 0.000146347 -2.62117e-07
-1.98034e-07 -2.62117e-07 6.94066e-05
0.00104782 2.33764e-05 -7.19142e-07
2.33764e-05 4.81478e-05 -9.63652e-07
-7.19142e-07 -9.63652e-07 -3.65709e-05
0.00103515 -9.35595e-06 3.18113e-08
-9.35595e-06 3.94769e-05 7.87047e-09
3.18113e-08 7.87047e-09 -1.37655e-05
0.00100203 1.42835e-05 1.65971e-07
1.42835e-05 2.70151e-05 -1.80776e-08
1.65971e-07 -1.80776e-08 -4.21202e-05
0.0011539 3.3601e-05 -5.75783e-07
3.3601e-05 9.40722e-05 -7.26557e-07
-5.75783e-07 -7.26557e-07 5.60908e-06
0.00111399 1.92237e-05 5.60072e-08
1.92237e-05 8.32786e-05 3.41005e-08
5.60072e-08 3.41005e-08 5.28128e-06
0.00113129 1.43658e-05 1.84497e-09
1.43658e-05 8.92599e-05 -2.2988e-08
1.84497e-09 -2.2988e-08 4.73147e-06
0.00113954 2.37273e-05 3.54924e-07
2.37273e-05 8.18893e-05 9.03268e-07
3.54924e-07 9.03268e-07 -9.67604e-06
0.00124437 2.72846e-05 9.34201e-08
2.72846e-05 0.000145195 1.27186e-07
9.34201e-08 1.27186e-07 5.91215e-05
0.00123487 2.90918e-05 2.31346e-07
2.90918e-05 0.000143196 3.64938e-07
2.31346e-07 3.64938e-07 6.4506e-05
0.000893243 7.22978e-06 8.98549e-08
7.22978e-06 -2.65408e-05 9.45461e-07
8.98549e-08 9.45461e-07 -9.70773e-05
0.00082046 -1.03223e-06 -2.70035e-08
-1.03223e-06 -6.68351e-05 1.76696e-06
-2.70035e-08 1.76696e-06 -0.000121697
0.0012696 -1.21362e-06 1.37245e-07
-1.21362e-06 0.000160247 4.1849e-07
1.37245e-07 4.1849e-07 9.28173e-05
0.00083233 -6.50526e-06 -4.35619e-07
-6.50526e-06 -6.22042e-05 1.65702e-06
-4.35619e-07 1.65702e-06 -0.000116569
0.00100524 4.15811e-06 5.32131e-08
4.15811e-06 1.13154e-05 1.89029e-06
5.32131e-08 1.89029e-06 -2.11218e-05
0.00100202 1.7944e-07 -8.12492e-08
1.7944e-07 9.96448e-06 7.56344e-09
-8.12492e-08 7.56344e-09 -2.23097e-05
0.000949202 -3.07113e-07 1.1191e-07
-3.07113e-07 -3.19098e-05 3.33662e-06
1.1191e-07 3.33662e-06 -3.38742e-05
0.00100694 -4.42989e-06 -1.07375e-08
-4.42989e-06 1.24314e-05 -1.93141e-06
-1.07375e-08 -1.93141e-06 -1.97597e-05
0.00125991 -2.53128e-06 -4.3008e-07
-2.53128e-06 0.000123161 -1.3182e-06
-4.3008e-07 -1.3182e-06 0.000122701
0.00239681 -3.43983e-06 2.03033e-06
-3.43983e-06 0.000683504 4.24331e-06
2.03033e-06 4.24331e-06 0.000706344
0.00158842 -4.74421e-06 -1.52201e-06
-4.74421e-06 0.000288313 -4.65772e-06
-1.52201e-06 -4.65772e-06 0.000288994
0.001151 -5.23125e-06 7.67443e-07
-5.23125e-06 6.77311e-05 2.60439e-06
7.67443e-07 2.60439e-06 8.42097e-05
0.00109541 -7.27978e-06 -1.05494e-06
-7.27978e-06 4.36537e-05 -1.65976e-06
-1.05494e-06 -1.65976e-06 5.97441e-05
0.00100918 3.80504e-06 3.32867e-07
3.80504e-06 7.75106e-06 -1.90136e-06
3.32867e-07 -1.90136e-06 -1.8841e-05
0.00100615 5.45921e-06 -2.4613e-08
5.45921e-06 8.58446e-06 -1.98268e-09
-2.4613e-08 -1.98268e-09 -1.9312e-05
0.00092936 6.51908e-06 9.35402e-07
6.51908e-06 -3.80053e-05 -3.23771e-06
9.35402e-07 -3.23771e-06 -3.78155e-05
0.00123398 8.96276e-06 -3.12369e-07
8.96276e-06 0.000116751 3.45975e-08
-3.12369e-07 3.45975e-08 0.000116811
0.00233697 1.11842e-05 6.23761e-06
1.11842e-05 0.000660298 -4.00915e-06
6.23761e-06 -4.00915e-06 0.00068281
0.000947957 1.00537e-05 -1.81343e-06
1.00537e-05 -2.13598e-05 3.25921e-06
-1.81343e-06 3.25921e-06 -2.44021e-05
0.00237697 1.39276e-05 -3.96516e-07
1.39276e-05 0.00068511 -3.1727e-08
-3.96516e-07 -3.1727e-08 0.000706363
0.00242654 1.64769e-05 -9.60686e-06
1.64769e-05 0.000715043 4.07933e-06
-9.60686e-06 4.07933e-06 0.000734951
0.00131589 -4.62747e-06 -7.12891e-07
-4.62747e-06 3.96517e-05 -1.29581e-06
-7.12891e-07 -1.29581e-06 -1.08317e-05
0.00132622 -2.58134e-05 -4.08824e-07
-2.58134e-05 7.67569e-05 6.79251e-07
-4.08824e-07 6.79251e-07 7.77112e-06
0.00134722 5.64349e-06 -6.82207e-07
5.64349e-06 9.27649e-05 -5.89822e-07
-6.82207e-07 -5.89822e-07 2.39481e-05
0.00132269 1.15049e-06 -3.23628e-07
1.15049e-06 8.17666e-05 -9.47717e-07
-3.23628e-07 -9.47717e-07 1.38012e-05
0.00127621 -2.04856e-05 -1.04653e-07
-2.04856e-05 3.76501e-05 4.35071e-07
-1.04653e-07 4.35071e-07 -2.37376e-05
0.00125799 -2.05822e-05 1.246e-06
-2.05822e-05 2.76593e-05 5.38304e-07
1.246e-06 5.38304e-07 -2.13642e-05
0.00141171 5.49264e-07 -1.02758e-07
5.49264e-07 0.000113255 4.24355e-07
-1.02758e-07 4.24355e-07 5.15738e-05
0.00178676 -4.75226e-05 -7.69826e-06
-4.75226e-05 0.00023821 -6.60315e-06
-7.69826e-06 -6.60315e-06 0.000225519
0.00121557 5.57836e-06 -4.25991e-07
5.57836e-06 -3.02028e-05 -6.12267e-07
-4.25991e-07 -6.12267e-07 -5.47506e-05
0.00103794 -4.38564e-06 3.4971e-08
-4.38564e-06 3.21377e-05 -1.18513e-06
3.4971e-08 -1.18513e-06 -1.18096e-05
0.00126948 2.80765e-05 -1.38209e-06
2.80765e-05 2.20135e-05 -8.93343e-07
-1.38209e-06 -8.93343e-07 -4.85688e-05
0.0015396 1.04351e-05 -5.76413e-07
1.04351e-05 0.000103973 9.87117e-07
-5.76413e-07 9.87117e-07 3.87806e-05
0.00117691 -2.21257e-05 1.42614e-07
-2.21257e-05 -6.73008e-05 1.47615e-06
1.42614e-07 1.47615e-06 -0.000109838
0.00098133 -3.4466e-05 -5.19466e-07
-3.4466e-05 7.99786e-07 1.41648e-06
-5.19466e-07 1.41648e-06 -7.1229e-05
0.00112731 -4.19871e-05 -1.02964e-06
-4.19871e-05 7.53719e-05 2.96316e-06
-1.02964e-06 2.96316e-06 -1.33381e-05
0.00101814 -4.13064e-05 -1.90366e-06
-4.13064e-05 -2.45627e-05 1.2112e-07
-1.90366e-06 1.2112e-07 -0.000107385
0.00131802 -3.96041e-05 -1.69519e-06
-3.96041e-05 2.65213e-05 -2.01291e-06
-1.69519e-06 -2.01291e-06 -1.75586e-05
0.00126783 -3.94939e-05 -2.58089e-07
-3.94939e-05 0.000129898 4.37392e-07
-2.58089e-07 4.37392e-07 5.46919e-05
0.001061 -3.73688e-05 -3.08963e-06
-3.73688e-05 3.83782e-05 -5.14235e-07
-3.08963e-06 -5.14235e-07 -4.38715e-05
0.00103721 -3.30099e-05 -7.35722e-07
-3.30099e-05 4.08402e-05 9.79094e-07
-7.35722e-07 9.79094e-07 -5.22876e-05
0.00100247 7.5318e-06 -6.78099e-07
7.5318e-06 9.99713e-06 1.90481e-06
-6.78099e-07 1.90481e-06 -1.9768e-05
0.00112386 -3.14552e-05 9.76418e-08
-3.14552e-05 8.91964e-05 3.71132e-07
9.76418e-08 3.71132e-07 6.16261e-06
0.00131909 -3.73797e-06 -1.19545e-07
-3.73797e-06 0.000176776 8.07048e-07
-1.19545e-07 8.07048e-07 0.000126858
0.00113029 -1.34987e-05 -5.44718e-07
-1.34987e-05 9.20736e-05 1.51829e-06
-5.44718e-07 1.51829e-06 1.99851e-05
0.000829311 7.20473e-06 -2.6099e-07
7.20473e-06 -6.7854e-05 1.18529e-06
-2.6099e-07 1.18529e-06 -0.000116065
0.00140443 3.0375e-05 2.57477e-07
3.0375e-05 7.34228e-05 -1.22204e-08
2.57477e-07 -1.22204e-08 1.8716e-06
0.000944283 2.15187e-07 1.34897e-07
2.15187e-07 -1.31036e-05 -4.63109e-07
1.34897e-07 -4.63109e-07 -5.87438e-05
0.00103539 -5.37593e-06 -4.94981e-08
-5.37593e-06 3.54915e-05 3.11221e-08
-4.94981e-08 3.11221e-08 -1.37176e-05
0.0011049 1.63627e-06 -3.07873e-07
1.63627e-06 7.6723e-05 4.98881e-07
-3.07873e-07 4.98881e-07 1.44971e-05
0.00157278 1.31073e-06 5.90013e-07
1.31073e-06 0.000109885 7.71652e-07
5.90013e-07 7.71652e-07 6.07266e-05
0.00143607 -3.68094e-05 -6.24482e-07
-3.68094e-05 2.35168e-05 -1.31846e-06
-6.24482e-07 -1.31846e-06 -1.54161e-06
0.00109184 -3.86092e-05 -9.25244e-08
-3.86092e-05 5.75315e-05 2.71438e-07
-9.25244e-08 2.71438e-07 -2.10996e-05
0.00117775 -4.72548e-05 6.60393e-07
-4.72548e-05 9.6256e-05 -1.43245e-07
6.60393e-07 -1.43245e-07 -8.04463e-08
0.00125706 -4.72772e-05 2.42988e-09
-4.72772e-05 4.42732e-05 6.65188e-07
2.42988e-09 6.65188e-07 -2.37415e-05
0.000996099 -1.62205e-06 -3.41212e-08
-1.62205e-06 2.68217e-05 4.62429e-08
-3.41212e-08 4.62429e-08 -4.24276e-05
0.00120498 -2.83827e-05 1.62675e-07
-2.83827e-05 0.000128722 4.06023e-08
1.62675e-07 4.06023e-08 4.66868e-05
0.00110443 -4.09638e-05 -6.61528e-07
-4.09638e-05 6.13285e-05 4.69409e-08
-6.61528e-07 4.69409e-08 -2.3109e-05
0.00121196 -3.69176e-05 4.19861e-08
-3.69176e-05 0.000132401 -3.49175e-07
4.19861e-08 -3.49175e-07 3.5051e-05
0.00104973 -3.10202e-05 -5.23546e-07
-3.10202e-05 5.44472e-05 6.43356e-07
-5.23546e-07 6.43356e-07 -3.88751e-05
0.00134179 2.9763e-05 1.36911e-06
2.9763e-05 2.15799e-05 3.91798e-07
1.36911e-06 3.91798e-07 -4.96699e-05
0.00174577 -1.6542e-05 -2.68277e-07
-1.6542e-05 0.000125771 -3.048e-06
-2.68277e-07 -3.048e-06 0.000119085
0.00172404 -5.53339e-05 3.01368e-06
-5.53339e-05 0.000183887 1.68456e-06
3.01368e-06 1.68456e-06 0.000136567
0.00167912 -5.81721e-05 2.21193e-06
-5.81721e-05 0.000316484 -1.48757e-06
2.21193e-06 -1.48757e-06 0.000222852
0.000915941 -4.16681e-05 5.89975e-07
-4.16681e-05 -1.17603e-05 -2.33063e-06
5.89975e-07 -2.33063e-06 -0.000100459
0.000832474 1.61763e-05 -2.03965e-08
1.61763e-05 -5.85157e-05 -1.16807e-06
-2.03965e-08 -1.16807e-06 -0.000119169
0.000913474 3.78216e-06 2.55206e-07
3.78216e-06 -1.58845e-05 -1.0045e-06
2.55206e-07 -1.0045e-06 -8.23234e-05
0.00118955 1.5775e-05 7.57935e-08
1.5775e-05 0.000123197 6.85505e-08
7.57935e-08 6.85505e-08 5.00245e-05
0.00116685 -2.61249e-05 4.36436e-07
-2.61249e-05 0.000112997 -7.83009e-07
4.36436e-07 -7.83009e-07 3.11925e-05
0.00108015 -3.07297e-05 -2.28997e-07
-3.07297e-05 6.70619e-05 -1.66698e-08
-2.28997e-07 -1.66698e-08 -2.24866e-05
0.00121929 -3.38569e-05 1.10397e-06
-3.38569e-05 0.000144417 -1.36603e-06
1.10397e-06 -1.36603e-06 4.23171e-05
0.00107961 -3.99485e-05 2.15268e-06
-3.99485e-05 7.98041e-05 -7.09833e-07
2.15268e-06 -7.09833e-07 -2.61523e-05
0.00110433 3.28875e-05 -7.71292e-07
3.28875e-05 7.59384e-05 -8.59359e-07
-7.71292e-07 -8.59359e-07 -3.05948e-06
0.0010977 3.56076e-05 -4.0737e-07
3.56076e-05 6.3686e-05 5.25717e-08
-4.0737e-07 5.25717e-08 -2.05248e-05
0.00101742 -3.35723e-06 -2.48271e-07
-3.35723e-06 -0.000127851 6.35636e-07
-2.48271e-07 6.35636e-07 -0.000172369
0.00129299 3.02215e-05 -7.6873e-07
3.02215e-05 -3.36831e-05 -4.83958e-07
-7.6873e-07 -4.83958e-07 -7.2508e-05
0.00164883 5.69985e-05 -2.10555e-06
5.69985e-05 0.000228751 -6.08721e-07
-2.10555e-06 -6.08721e-07 0.00014433
0.000895344 3.48713e-05 -1.42519e-07
3.48713e-05 -3.9371e-05 -1.03038e-06
-1.42519e-07 -1.03038e-06 -0.000127191
0.00133304 4.76269e-05 -5.70773e-07
4.76269e-05 0.000169871 -4.0004e-07
-5.70773e-07 -4.0004e-07 6.67179e-05
0.00119568 3.49094e-05 4.01427e-08
3.49094e-05 0.000123206 6.9149e-08
4.01427e-08 6.9149e-08 3.77168e-05
0.00128049 2.51914e-05 -1.44924e-06
2.51914e-05 -9.77184e-05 8.16572e-08
-1.44924e-06 8.16572e-08 -0.00013088
0.00120437 3.77541e-05 -3.97285e-08
3.77541e-05 0.000114466 -8.62388e-08
-3.97285e-08 -8.62388e-08 2.59002e-05
0.00126003 4.20869e-05 -7.13754e-08
4.20869e-05 0.000151057 1.7881e-07
-7.13754e-08 1.7881e-07 5.15591e-05
0.00135375 5.87001e-05 1.97523e-06
5.87001e-05 -1.04644e-05 -1.18164e-06
1.97523e-06 -1.18164e-06 -7.89987e-05
0.00124109 5.3717e-05 -8.76611e-07
5.3717e-05 0.000118193 9.52676e-07
-8.76611e-07 9.52676e-07 2.31084e-06
0.00206329 -4.15337e-05 -1.99676e-06
-4.15337e-05 0.00012773 6.62165e-07
-1.99676e-06 6.62165e-07 0.00014557
0.0012093 3.54244e-05 -5.9688e-08
3.54244e-05 0.000129499 -1.99549e-07
-5.9688e-08 -1.99549e-07 3.91195e-05
0.00110988 7.00159e-05 9.0315e-06
7.00159e-05 -0.000214528 2.93239e-06
9.0315e-06 2.93239e-06 -0.00028053
0.0012741 3.91274e-05 -7.7391e-07
3.91274e-05 0.000159748 -7.71704e-09
-7.7391e-07 -7.71704e-09 6.50303e-05
0.00118894 4.7605e-05 -1.41492e-06
4.7605e-05 0.000152782 1.4136e-06
-1.41492e-06 1.4136e-06 2.81797e-05
0.000496798 6.8089e-05 3.37648e-07
6.8089e-05 -0.000294784 -4.20374e-07
3.37648e-07 -4.20374e-07 -0.00040593
0.00511249 -2.30004e-05 -4.83799e-07
-2.30004e-05 0.00172596 -8.87992e-07
-4.83799e-07 -8.87992e-07 0.00131676
0.00104996 -8.12192e-05 3.90411e-05
-8.12192e-05 8.97407e-05 1.49735e-05
3.90411e-05 1.49735e-05 -9.54219e-05
0.00268963 1.75235e-05 -7.9357e-06
1.75235e-05 0.000339491 -3.82053e-06
-7.9357e-06 -3.82053e-06 0.000392427
-0.00245378 -6.79546e-05 -5.00727e-05
-6.79546e-05 -0.00134174 -1.12197e-05
-5.00727e-05 -1.12197e-05 -0.00133912
0.00111315 -7.51981e-05 -1.68625e-06
-7.51981e-05 -1.59711e-05 1.86468e-06
-1.68625e-06 1.86468e-06 0.00028049
0.00110944 3.25038e-05 -4.49254e-07
3.25038e-05 8.29993e-05 -4.93773e-07
-4.49254e-07 -4.93773e-07 -1.36214e-06
0.00120109 3.44071e-05 -1.17739e-07
3.44071e-05 0.000123066 -9.88019e-08
-1.17739e-07 -9.88019e-08 3.43205e-05
0.00117292 3.18986e-05 5.59487e-07
3.18986e-05 9.92898e-05 7.1909e-07
5.59487e-07 7.1909e-07 5.70731e-06
0.00103467 -1.23473e-05 1.17396e-07
-1.23473e-05 3.93833e-05 -1.24952e-06
1.17396e-07 -1.24952e-06 -1.39856e-05
0.000941518 1.81681e-05 -2.97467e-07
1.81681e-05 -2.94314e-06 -9.62325e-07
-2.97467e-07 -9.62325e-07 -7.25904e-05
0.00111027 1.33586e-05 -3.10492e-07
1.33586e-05 8.14584e-05 -7.04061e-07
-3.10492e-07 -7.04061e-07 3.68588e-06
0.00121919 1.90885e-05 -5.66461e-07
1.90885e-05 0.000133529 -6.49746e-07
-5.66461e-07 -6.49746e-07 4.96265e-05
0.00109494 3.09977e-05 -1.31177e-06
3.09977e-05 6.39717e-05 -1.37562e-06
-1.31177e-06 -1.37562e-06 -2.44432e-05
0.0011125 2.56009e-05 -2.17457e-07
2.56009e-05 8.24173e-05 -4.13036e-07
-2.17457e-07 -4.13036e-07 2.89707e-06
0.00092992 -1.88215e-06 9.98419e-09
-1.88215e-06 -1.28515e-05 5.18743e-07
9.98419e-09 5.18743e-07 -6.69307e-05
0.000981295 5.55583e-06 7.65749e-08
5.55583e-06 1.73381e-05 1.67223e-08
7.65749e-08 1.67223e-08 -5.26783e-05
0.00114973 2.54285e-05 1.20712e-07
2.54285e-05 8.84956e-05 8.25852e-08
1.20712e-07 8.25852e-08 -2.47806e-06
0.00118092 2.60158e-05 -2.99447e-07
2.60158e-05 0.000113851 -4.85608e-07
-2.99447e-07 -4.85608e-07 2.7646e-05
0.00129782 3.47836e-05 -1.25669e-07
3.47836e-05 0.000172566 -1.99709e-07
-1.25669e-07 -1.99709e-07 8.66877e-05
0.00119962 2.8914e-05 1.45563e-07
2.8914e-05 0.000123035 5.9838e-07
1.45563e-07 5.9838e-07 2.95495e-05
0.0010012 2.48566e-05 3.93551e-07
2.48566e-05 2.7935e-05 1.16602e-06
3.93551e-07 1.16602e-06 -5.39948e-05
0.000889704 -2.8977e-06 3.68242e-08
-2.8977e-06 -2.79045e-05 4.78605e-07
3.68242e-08 4.78605e-07 -9.8864e-05
0.000817951 -1.33224e-05 -5.73303e-07
-1.33224e-05 -6.855e-05 1.69773e-06
-5.73303e-07 1.69773e-06 -0.000123226
0.00112315 1.86821e-07 -7.06766e-08
1.86821e-07 8.72109e-05 7.54026e-07
-7.06766e-08 7.54026e-07 1.94904e-05
0.00126128 6.68064e-06 3.48439e-08
6.68064e-06 0.000157505 4.92965e-07
3.48439e-08 4.92965e-07 7.88968e-05
0.00106748 -1.35453e-05 -1.6211e-07
-1.35453e-05 6.08512e-05 9.38692e-07
-1.6211e-07 9.38692e-07 -9.30364e-06
0.0010944 -5.20071e-06 1.95171e-07
-5.20071e-06 7.3618e-05 -4.91278e-07
1.95171e-07 -4.91278e-07 5.04346e-06
0.00103208 -1.07266e-05 -4.06289e-07
-1.07266e-05 3.6098e-05 1.22168e-06
-4.06289e-07 1.22168e-06 -1.76668e-05
0.000833695 -9.6895e-07 -2.14744e-08
-9.6895e-07 -6.14209e-05 4.87026e-07
-2.14744e-08 4.87026e-07 -0.000115852
0.00100386 3.46455e-06 -2.12866e-07
3.46455e-06 1.0293e-05 1.89525e-06
-2.12866e-07 1.89525e-06 -2.23536e-05
0.00100167 1.566e-08 -5.24813e-08
1.566e-08 9.48599e-06 -7.82421e-10
-5.24813e-08 -7.82421e-10 -2.2921e-05
0.000971112 1.66846e-06 -4.039e-07
1.66846e-06 -2.08002e-05 4.655e-06
-4.039e-07 4.655e-06 -2.30476e-05
0.00100103 -4.50464e-06 1.99825e-07
-4.50464e-06 9.48943e-06 -1.88885e-06
1.99825e-07 -1.88885e-06 -2.27815e-05
0.000951387 -3.3693e-07 9.29077e-08
-3.3693e-07 -3.08235e-05 1.87033e-09
9.29077e-08 1.87033e-09 -3.28034e-05
0.00240297 -7.8711e-07 1.76013e-08
-7.8711e-07 0.000685573 4.24719e-06
1.76013e-08 4.24719e-06 0.000708507
0.000969372 -2.34305e-06 -4.16685e-07
-2.34305e-06 -2.0876e-05 -4.67657e-06
-4.16685e-07 -4.67657e-06 -2.29715e-05
0.00176969 -3.09059e-06 -6.63668e-08
-3.09059e-06 0.000372265 4.44336e-08
-6.63668e-08 4.44336e-08 0.000392119
0.00110013 -5.02522e-06 -6.42133e-07
-5.02522e-06 4.24286e-05 -1.65671e-06
-6.42133e-07 -1.65671e-06 5.91583e-05
0.00101234 2.07495e-06 1.50836e-07
2.07495e-06 7.78319e-06 -1.90494e-06
1.50836e-07 -1.90494e-06 -1.79921e-05
0.00100965 3.69887e-06 -4.31934e-08
3.69887e-06 7.83648e-06 -1.4826e-08
-4.31934e-08 -1.4826e-08 -1.87435e-05
0.000938035 4.49366e-06 5.65125e-07
4.49366e-06 -3.64397e-05 -3.26376e-06
5.65125e-07 -3.26376e-06 -3.51515e-05
0.00100851 5.43598e-06 -5.5731e-07
5.43598e-06 9.62863e-06 1.87254e-06
-5.5731e-07 1.87254e-06 -1.82747e-05
0.00122607 6.90563e-06 -4.84765e-08
6.90563e-06 0.000108959 -6.14864e-07
-4.84765e-08 -6.14864e-07 0.000110589
0.00230468 8.38806e-06 4.79986e-06
8.38806e-06 0.000640703 -4.01747e-06
4.79986e-06 -4.01747e-06 0.000664139
0.00094375 8.44364e-06 -1.45182e-06
8.44364e-06 -2.72264e-05 3.23388e-06
-1.45182e-06 3.23388e-06 -2.88093e-05
0.00236261 1.09621e-05 -2.28967e-06
1.09621e-05 0.000673926 1.17884e-06
-2.28967e-06 1.17884e-06 0.00069609
0.00237902 1.3958e-05 -8.30825e-06
1.3958e-05 0.000686734 4.07137e-06
-8.30825e-06 4.07137e-06 0.000707833
0.00122128 -1.98413e-05 -1.08955e-06
-1.98413e-05 1.53614e-05 6.91768e-08
-1.08955e-06 6.91768e-08 -4.58862e-05
0.00131976 3.8727e-07 -1.23701e-06
3.8727e-07 8.03739e-05 -1.20772e-06
-1.23701e-06 -1.20772e-06 1.25537e-05
0.00127716 -2.18538e-05 4.75572e-06
-2.18538e-05 4.53554e-05 1.77989e-06
4.75572e-06 1.77989e-06 -6.229e-06
0.00133114 -4.21664e-05 -2.73641e-06
-4.21664e-05 9.21866e-06 -2.56024e-06
-2.73641e-06 -2.56024e-06 9.37193e-06
0.00125656 -7.47277e-07 -6.41192e-07
-7.47277e-07 4.16695e-05 -6.82449e-07
-6.41192e-07 -6.82449e-07 -2.05803e-05
0.00111988 5.39379e-06 -4.37525e-07
5.39379e-06 -7.54119e-05 -7.19392e-07
-4.37525e-07 -7.19392e-07 -0.000107581
0.00119443 2.501e-05 -8.80902e-07
2.501e-05 -4.89164e-05 2.99709e-06
-8.80902e-07 2.99709e-06 -0.000112143
0.00187526 -7.26302e-05 0.000114382
-7.26302e-05 0.000317325 3.43351e-05
0.000114382 3.43351e-05 0.000150068
0.00102788 -1.16751e-07 -6.84893e-06
-1.16751e-07 6.99975e-05 9.84981e-07
-6.84893e-06 9.84981e-07 5.51086e-05
0.00103814 -1.89731e-07 -4.82646e-08
-1.89731e-07 3.17457e-05 -1.13193e-06
-4.82646e-08 -1.13193e-06 -1.14883e-05
0.00104475 -7.1892e-06 -8.8186e-08
-7.1892e-06 3.56452e-05 7.5073e-09
-8.8186e-08 7.5073e-09 -8.40995e-06
0.00105889 1.83489e-05 -2.26421e-07
1.83489e-05 5.09222e-05 -6.41864e-07
-2.26421e-07 -6.41864e-07 -6.92822e-06
0.00105467 -3.94226e-06 -1.89772e-07
-3.94226e-06 4.73111e-05 -3.84856e-07
-1.89772e-07 -3.84856e-07 -8.41387e-06
0.00140997 2.98726e-05 -1.51552e-06
2.98726e-05 6.92341e-05 -5.98702e-07
-1.51552e-06 -5.98702e-07 -2.93479e-06
0.00163366 1.15476e-06 1.6357e-06
1.15476e-06 0.000140405 1.8004e-06
1.6357e-06 1.8004e-06 9.11467e-05
0.00119471 -3.7074e-05 -2.02493e-06
-3.7074e-05 -9.29452e-05 -1.0479e-06
-2.02493e-06 -1.0479e-06 -0.00012104
0.00115624 -3.94779e-05 -5.86519e-07
-3.94779e-05 8.5911e-05 2.12092e-06
-5.86519e-07 2.12092e-06 7.80008e-06
0.000802631 -4.24209e-05 -4.73011e-07
-4.24209e-05 -8.25934e-05 1.59783e-06
-4.73011e-07 1.59783e-06 -0.000179182
0.00106906 -4.50352e-05 -2.31167e-06
-4.50352e-05 -4.67791e-05 -9.63852e-07
-2.31167e-06 -9.63852e-07 -0.000113678
0.00116881 -4.17179e-05 -1.84107e-06
-4.17179e-05 9.29354e-05 9.96766e-07
-1.84107e-06 9.96766e-07 8.4285e-06
0.00118311 -3.61575e-05 -1.49937e-06
-3.61575e-05 0.000116612 4.53612e-07
-1.49937e-06 4.53612e-07 2.12257e-05
0.00113395 -3.23153e-05 -5.01243e-07
-3.23153e-05 9.588e-05 1.76993e-06
-5.01243e-07 1.76993e-06 3.2829e-06
0.00103578 1.37865e-07 -4.08052e-07
1.37865e-07 3.56346e-05 1.23705e-06
-4.08052e-07 1.23705e-06 -1.35628e-05
0.00121416 -2.88435e-05 -2.89142e-07
-2.88435e-05 0.000132441 5.99217e-07
-2.89142e-07 5.99217e-07 5.0036e-05
0.00108667 -5.53885e-06 -1.89024e-07
-5.53885e-06 7.1308e-05 1.19563e-06
-1.89024e-07 1.19563e-06 3.18216e-06
0.00104623 -1.09423e-06 -1.235e-07
-1.09423e-06 3.66818e-05 6.54746e-07
-1.235e-07 6.54746e-07 -8.22413e-06
0.000922695 5.69849e-06 -1.99756e-07
5.69849e-06 -1.30839e-05 1.56599e-06
-1.99756e-07 1.56599e-06 -7.66059e-05
0.00145217 2.96596e-05 1.71281e-07
2.96596e-05 7.35406e-05 1.18126e-06
1.71281e-07 1.18126e-06 4.51726e-06
0.00104308 1.77065e-05 -6.41784e-08
1.77065e-05 4.51538e-05 -5.09363e-07
-6.41784e-08 -5.09363e-07 -1.42225e-05
0.000990342 -3.64864e-06 2.68291e-07
-3.64864e-06 2.20378e-05 3.05297e-08
2.68291e-07 3.05297e-08 -4.3408e-05
0.0010954 1.23858e-05 1.10721e-07
1.23858e-05 7.59539e-05 9.87426e-07
1.10721e-07 9.87426e-07 3.45309e-06
0.00157792 -1.77229e-05 -1.39157e-06
-1.77229e-05 5.96912e-05 2.27797e-07
-1.39157e-06 2.27797e-07 4.63998e-05
0.00133592 -5.14547e-05 -6.44225e-07
-5.14547e-05 -3.36067e-06 -5.90272e-07
-6.44225e-07 -5.90272e-07 -4.93254e-05
0.00109125 -4.37931e-05 1.67864e-07
-4.37931e-05 7.12368e-05 -3.21283e-07
1.67864e-07 -3.21283e-07 -1.76817e-05
0.00143905 -5.53096e-05 3.35157e-07
-5.53096e-05 0.000201283 4.82679e-07
3.35157e-07 4.82679e-07 0.000108582
0.00120249 -2.58222e-05 -6.7142e-08
-2.58222e-05 0.000131085 2.72058e-08
-6.7142e-08 2.72058e-08 4.9414e-05
0.0010743 -3.06771e-05 -3.51519e-07
-3.06771e-05 6.34334e-05 8.81379e-07
-3.51519e-07 8.81379e-07 -2.52501e-05
0.00112435 -4.05052e-05 2.06276e-07
-4.05052e-05 9.88255e-05 -1.02624e-07
2.06276e-07 -1.02624e-07 -4.2695e-06
0.00122664 -3.38553e-05 4.31976e-07
-3.38553e-05 0.000149572 -4.77964e-07
4.31976e-07 -4.77964e-07 4.70431e-05
0.00103108 2.62429e-05 7.97662e-07
2.62429e-05 -0.000191501 -1.57057e-06
7.97662e-07 -1.57057e-06 -0.000241588
0.0020623 -5.78112e-05 4.90589e-06
-5.78112e-05 0.00024262 -2.81652e-06
4.90589e-06 -2.81652e-06 0.00022953
0.00153278 -6.43038e-05 5.28331e-06
-6.43038e-05 0.000175161 3.77641e-07
5.28331e-06 3.77641e-07 8.60566e-05
0.00122314 -5.51888e-05 1.20083e-06
-5.51888e-05 0.000143448 -2.09174e-06
1.20083e-06 -2.09174e-06 4.36496e-05
0.00101605 1.32912e-05 -3.15191e-07
1.32912e-05 3.87677e-05 -6.84014e-07
-3.15191e-07 -6.84014e-07 -3.64617e-05
0.00102803 -2.10643e-05 2.15515e-07
-2.10643e-05 4.38992e-05 -1.40872e-06
2.15515e-07 -1.40872e-06 -3.47212e-05
0.00109343 -3.06811e-05 3.65496e-08
-3.06811e-05 8.06394e-05 -1.0899e-06
3.65496e-08 -1.0899e-06 -1.47187e-05
0.0011816 -3.39269e-05 1.13655e-06
-3.39269e-05 0.000144334 -2.84218e-07
1.13655e-06 -2.84218e-07 2.32432e-05
0.00133444 1.90386e-05 1.14947e-05
1.90386e-05 -0.000209128 -2.38014e-06
1.14947e-05 -2.38014e-06 -0.00056417
0.0011935 3.4902e-05 -2.7015e-07
3.4902e-05 0.000122076 -3.75686e-07
-2.7015e-07 -3.75686e-07 3.70532e-05
0.00106213 3.57755e-05 -1.08099e-08
3.57755e-05 4.5468e-05 6.63084e-08
-1.08099e-08 6.63084e-08 -4.31518e-05
0.00118967 2.51771e-05 -4.09834e-06
2.51771e-05 -0.000142862 1.01579e-06
-4.09834e-06 1.01579e-06 -0.000174261
0.00154373 5.88649e-05 -3.23092e-06
5.88649e-05 6.98671e-05 -1.4878e-06
-3.23092e-06 -1.4878e-06 4.88465e-06
0.00141804 5.72101e-05 -1.71579e-06
5.72101e-05 0.000207949 6.64624e-08
-1.71579e-06 6.64624e-08 8.76767e-05
0.000976513 3.75438e-05 7.6884e-07
3.75438e-05 2.06994e-05 -5.92551e-07
7.6884e-07 -5.92551e-07 -7.89649e-05
0.00184305 -2.67373e-05 3.16615e-06
-2.67373e-05 0.000112505 6.73331e-06
3.16615e-06 6.73331e-06 0.000107681
0.00119952 3.52842e-05 -1.14055e-08
3.52842e-05 0.000125332 -1.24259e-07
-1.14055e-08 -1.24259e-07 3.52678e-05
0.00145007 7.14662e-05 1.83955e-06
7.14662e-05 -6.16287e-05 2.48078e-07
1.83955e-06 2.48078e-07 -0.00012663
0.0011603 3.73301e-05 1.72691e-07
3.73301e-05 0.000106001 1.1832e-07
1.72691e-07 1.1832e-07 1.13718e-05
0.00111706 4.57753e-05 -2.61117e-07
4.57753e-05 0.000117167 -1.6381e-07
-2.61117e-07 -1.6381e-07 -5.07304e-06
0.000717868 6.86723e-05 -1.27182e-06
6.86723e-05 -0.000193987 -1.34067e-07
-1.27182e-06 -1.34067e-07 -0.000300362
0.00100835 -1.25623e-05 -1.36666e-05
-1.25623e-05 -7.10354e-05 -7.18336e-06
-1.36666e-05 -7.18336e-06 -0.000483068
0.00173407 -7.18263e-05 4.67452e-06
-7.18263e-05 0.000214876 -2.1716e-06
4.67452e-06 -2.1716e-06 -8.13246e-05
0.00255256 2.515e-05 -2.6092e-06
2.515e-05 0.000282174 -5.16211e-07
-2.6092e-06 -5.16211e-07 0.000324882
-0.000368899 -7.46888e-05 -1.06416e-05
-7.46888e-05 -0.000476515 -1.84111e-06
-1.06416e-05 -1.84111e-06 -0.000528166
0.000638474 -7.52749e-05 -3.40834e-06
-7.52749e-05 -0.00023199 -2.73393e-06
-3.40834e-06 -2.73393e-06 2.64021e-05
0.00112534 3.40407e-05 1.15839e-06
3.40407e-05 9.66487e-05 6.46083e-08
1.15839e-06 6.46083e-08 2.75656e-06
0.000414987 1.75572e-05 -7.4784e-05
1.75572e-05 -6.85366e-05 -9.20968e-06
-7.4784e-05 -9.20968e-06 -0.000227774
0.00208006 -3.92317e-05 6.48926e-06
-3.92317e-05 0.000828425 5.22682e-06
6.48926e-06 5.22682e-06 0.00091503
0.00154152 9.55039e-05 8.15923e-06
9.55039e-05 9.20662e-05 6.81017e-06
8.15923e-06 6.81017e-06 -2.91871e-06
0.000925751 3.02839e-05 3.43988e-08
3.02839e-05 8.93092e-06 -8.03646e-07
3.43988e-08 -8.03646e-07 -9.81342e-05
0.00154957 4.73345e-05 -3.4877e-06
4.73345e-05 0.000377829 1.51997e-06
-3.4877e-06 1.51997e-06 0.000216977
0.00207974 1.51351e-05 -2.13804e-05
1.51351e-05 0.000168035 -2.23915e-05
-2.13804e-05 -2.23915e-05 9.82746e-05
0.00554169 -8.37164e-05 -5.36023e-05
-8.37164e-05 0.00167448 -1.72019e-05
-5.36023e-05 -1.72019e-05 0.00114559
0.00125583 -4.53641e-06 3.17725e-05
-4.53641e-06 0.000240886 2.3585e-05
3.17725e-05 2.3585e-05 -0.000211687
0.000117814 -0.000131813 -5.03402e-05
-0.000131813 -0.000169263 -2.60909e-05
-5.03402e-05 -2.60909e-05 -7.18441e-05
-0.00113516 -3.69778e-05 3.95661e-06
-3.69778e-05 -0.00120492 4.21882e-06
3.95661e-06 4.21882e-06 -0.00108535
0.00114295 3.34304e-05 -9.078e-07
3.34304e-05 9.52134e-05 -7.77003e-07
-9.078e-07 -7.77003e-07 6.5066e-06
0.00120404 3.27547e-05 -4.26865e-07
3.27547e-05 0.000115252 1.98357e-07
-4.26865e-07 1.98357e-07 2.16476e-05
0.00122733 3.28239e-05 -7.78102e-08
3.28239e-05 0.000116658 2.65167e-07
-7.78102e-08 2.65167e-07 1.79801e-05
0.00103795 -1.41157e-06 6.48441e-08
-1.41157e-06 4.05733e-05 -6.91231e-07
6.48441e-08 -6.91231e-07 -1.28038e-05
0.00106915 1.54825e-06 1.28757e-07
1.54825e-06 6.11344e-05 -9.73438e-07
1.28757e-07 -9.73438e-07 -8.36665e-06
0.000989025 2.13737e-05 -6.22341e-07
2.13737e-05 2.1087e-05 -9.60518e-07
-6.22341e-07 -9.60518e-07 -5.92328e-05
0.00111689 2.58949e-05 -6.76578e-07
2.58949e-05 8.22879e-05 -1.01639e-06
-6.76578e-07 -1.01639e-06 -4.14036e-06
0.00115537 2.4665e-05 -5.60172e-07
2.4665e-05 9.303e-05 -9.2782e-07
-5.60172e-07 -9.2782e-07 2.62983e-06
0.000823454 -4.94311e-06 5.93133e-08
-4.94311e-06 -6.58471e-05 5.19747e-07
5.93133e-08 5.19747e-07 -0.000120562
0.00117461 2.97832e-05 -2.51694e-07
2.97832e-05 0.000111689 -5.8197e-07
-2.51694e-07 -5.8197e-07 2.58115e-05
0.00112184 1.53658e-05 -5.08306e-09
1.53658e-05 8.76172e-05 3.95713e-07
-5.08306e-09 3.95713e-07 6.74113e-06
0.000994896 2.19854e-06 1.63687e-07
2.19854e-06 2.40046e-05 -4.27874e-07
1.63687e-07 -4.27874e-07 -4.62047e-05
0.00110148 2.78185e-05 2.68069e-08
2.78185e-05 7.36511e-05 2.11179e-07
2.68069e-08 2.11179e-07 -2.0565e-05
0.00113961 2.70874e-05 1.12608e-07
2.70874e-05 9.86287e-05 2.42349e-07
1.12608e-07 2.42349e-07 8.86255e-06
0.00110542 2.6003e-05 6.39387e-07
2.6003e-05 9.21058e-05 9.66951e-07
6.39387e-07 9.66951e-07 -1.01578e-05
0.00110707 -1.33242e-05 -3.63347e-07
-1.33242e-05 8.06887e-05 7.74151e-07
-3.63347e-07 7.74151e-07 -1.80087e-06
0.00112227 -1.23734e-05 -2.00478e-07
-1.23734e-05 8.67329e-05 3.66715e-07
-2.00478e-07 3.66715e-07 1.81274e-05
0.00112246 -7.65962e-06 -2.27136e-08
-7.65962e-06 8.67546e-05 -8.17334e-08
-2.27136e-08 -8.17334e-08 1.906e-05
0.0011312 -6.31993e-06 -4.53844e-08
-6.31993e-06 9.27802e-05 -3.98483e-07
-4.53844e-08 -3.98483e-07 1.31566e-05
0.0011174 4.36498e-06 -6.65847e-08
4.36498e-06 8.56308e-05 9.89702e-07
-6.65847e-08 9.89702e-07 5.77548e-06
0.00109704 -1.67607e-05 -1.81698e-07
-1.67607e-05 7.81516e-05 8.78735e-07
-1.81698e-07 8.78735e-07 -3.12695e-06
0.00119804 -1.42726e-05 -4.40413e-08
-1.42726e-05 0.000125074 9.5417e-09
-4.40413e-08 9.5417e-09 3.80176e-05
0.00107735 -3.0342e-05 -1.06232e-06
-3.0342e-05 6.5125e-05 4.95935e-07
-1.06232e-06 4.95935e-07 -1.75825e-05
0.00106863 -2.04384e-05 -3.40568e-07
-2.04384e-05 6.11729e-05 9.23283e-07
-3.40568e-07 9.23283e-07 -1.07105e-05
0.0010699 -1.64445e-05 4.03296e-08
-1.64445e-05 6.21112e-05 1.9853e-09
4.03296e-08 1.9853e-09 -8.04656e-06
0.00103936 -1.07839e-05 -4.56579e-07
-1.07839e-05 3.9298e-05 1.27263e-06
-4.56579e-07 1.27263e-06 -1.57173e-05
0.000919925 -1.12204e-05 4.12516e-07
-1.12204e-05 -1.27535e-05 -1.42152e-06
4.12516e-07 -1.42152e-06 -8.24161e-05
0.000941798 -8.80238e-06 6.94211e-08
-8.80238e-06 -8.51864e-06 -2.11e-08
6.94211e-08 -2.11e-08 -6.29203e-05
0.00100525 -2.6309e-07 -5.38429e-07
-2.6309e-07 1.09884e-05 1.92542e-06
-5.38429e-07 1.92542e-06 -2.21224e-05
0.000840105 -3.48113e-06 1.52061e-07
-3.48113e-06 -5.84021e-05 -6.57955e-07
1.52061e-07 -6.57955e-07 -0.000112757
0.00100492 -3.68997e-07 2.60948e-08
-3.68997e-07 1.06841e-05 -7.38675e-09
2.60948e-08 -7.38675e-09 -2.19559e-05
0.00159684 3.90997e-06 -1.81656e-06
3.90997e-06 0.000290966 4.59855e-06
-1.81656e-06 4.59855e-06 0.000291451
0.00100037 -3.49666e-06 3.30169e-07
-3.49666e-06 8.7992e-06 -1.86634e-06
3.30169e-07 -1.86634e-06 -2.35923e-05
0.00127483 1.80705e-06 -5.28936e-07
1.80705e-06 0.000129955 6.45515e-07
-5.28936e-07 6.45515e-07 0.000129252
0.00115515 1.3174e-06 -1.31428e-06
1.3174e-06 6.62231e-05 4.15061e-06
-1.31428e-06 4.15061e-06 8.30299e-05
0.000953479 -3.67286e-07 7.71592e-08
-3.67286e-07 -2.97866e-05 -3.32162e-06
7.71592e-08 -3.32162e-06 -3.17816e-05
0.00239994 -6.64473e-07 6.93728e-07
-6.64473e-07 0.000684063 2.62788e-10
6.93728e-07 2.62788e-10 0.000707003
0.00114443 -2.39458e-06 -6.00188e-07
-2.39458e-06 6.19818e-05 -4.15708e-06
-6.00188e-07 -4.15708e-06 7.88543e-05
0.00105035 6.86162e-06 2.17249e-08
6.86162e-06 3.75404e-05 -6.46804e-07
2.17249e-08 -6.46804e-07 -5.94185e-06
0.00101122 2.92879e-07 -1.34409e-08
2.92879e-07 6.42347e-06 -1.9134e-06
-1.34409e-08 -1.9134e-06 -1.90389e-05
0.00101294 1.96317e-06 -4.01652e-08
1.96317e-06 7.99155e-06 -1.14822e-08
-4.01652e-08 -1.14822e-08 -1.77871e-05
0.0009438 2.32063e-06 2.87095e-07
2.32063e-06 -3.51167e-05 -3.27837e-06
2.87095e-07 -3.27837e-06 -3.31487e-05
0.00100937 3.58828e-06 -4.35819e-07
3.58828e-06 7.55568e-06 1.89871e-06
-4.35819e-07 1.89871e-06 -1.90095e-05
0.000939963 4.49369e-06 2.50229e-08
4.49369e-06 -3.56827e-05 -6.34753e-07
2.50229e-08 -6.34753e-07 -3.43497e-05
0.00228176 5.61666e-06 3.08528e-06
5.61666e-06 0.000626848 -4.02376e-06
3.08528e-06 -4.02376e-06 0.000650943
0.00151085 7.63365e-06 -1.14984e-06
7.63365e-06 0.000250501 1.9845e-06
-1.14984e-06 1.9845e-06 0.000253398
0.0017389 7.64956e-06 5.37071e-08
7.64956e-06 0.000360702 1.22484e-06
5.37071e-08 1.22484e-06 0.000381042
0.00119201 9.14155e-06 -6.87209e-06
9.14155e-06 9.34671e-05 6.57943e-06
-6.87209e-06 6.57943e-06 0.000109703
0.000724157 -3.62001e-05 -1.77174e-06
-3.62001e-05 -0.000287992 1.5096e-06
-1.77174e-06 1.5096e-06 -0.000273495
0.00106191 -2.4114e-06 -7.38418e-07
-2.4114e-06 -4.80159e-05 -9.10405e-07
-7.38418e-07 -9.10405e-07 -0.000110881
0.000958847 4.87657e-06 -2.72678e-06
4.87657e-06 -0.000151839 -3.53245e-06
-2.72678e-06 -3.53245e-06 -0.000191255
0.000834617 -7.01728e-05 3.87036e-05
-7.01728e-05 9.30065e-06 5.10308e-06
3.87036e-05 5.10308e-06 -0.00012954
0.000853112 -6.401e-06 -2.20668e-06
-6.401e-06 -1.56516e-05 -1.30715e-07
-2.20668e-06 -1.30715e-07 -2.2778e-05
0.00116337 2.74273e-05 -1.17733e-06
2.74273e-05 -6.53288e-05 -1.38284e-06
-1.17733e-06 -1.38284e-06 -0.000129955
0.00126739 4.41169e-05 -1.28568e-06
4.41169e-05 0.000146299 4.54242e-06
-1.28568e-06 4.54242e-06 9.63083e-05
0.000430594 -7.12148e-06 9.33235e-05
-7.12148e-06 -0.000241293 7.42632e-06
9.33235e-05 7.42632e-06 -0.000423928
0.00511739 -7.38128e-06 -8.97614e-06
-7.38128e-06 0.00145318 3.53984e-06
-8.97614e-06 3.53984e-06 0.000950233
0.00247912 0.000108172 -2.48357e-05
0.000108172 0.000902035 1.29787e-05
-2.48357e-05 1.29787e-05 0.000814574
0.000759656 5.42178e-05 -2.31235e-06
5.42178e-05 -0.000104452 -4.01083e-07
-2.31235e-06 -4.01083e-07 8.93323e-05
0.000864488 1.68738e-06 2.38711e-07
1.68738e-06 -4.54998e-05 -1.26936e-06
2.38711e-07 -1.26936e-06 -0.000103014
0.00104232 -1.34091e-06 4.76713e-09
-1.34091e-06 3.39182e-05 1.14807e-08
4.76713e-09 1.14807e-08 -9.37448e-06
0.00105102 -9.42542e-06 -3.93498e-07
-9.42542e-06 3.88846e-05 1.13748e-06
-3.93498e-07 1.13748e-06 -5.27301e-06
0.000987087 1.79026e-05 -6.23361e-08
1.79026e-05 1.63037e-05 -3.39879e-08
-6.23361e-08 -3.39879e-08 -4.18173e-05
0.00117406 3.0645e-05 1.25736e-07
3.0645e-05 0.000113491 4.88598e-08
1.25736e-07 4.88598e-08 4.57414e-05
0.00114357 2.44965e-05 8.61337e-08
2.44965e-05 9.33937e-05 -2.90613e-08
8.61337e-08 -2.90613e-08 2.92119e-05
0.00109254 1.53725e-06 1.38542e-07
1.53725e-06 6.70218e-05 -1.52751e-06
1.38542e-07 -1.52751e-06 9.86221e-06
0.00100253 -7.07623e-06 -2.36526e-08
-7.07623e-06 2.1773e-05 4.6717e-07
-2.36526e-08 4.6717e-07 -3.44697e-05
0.00155684 2.94793e-05 -8.42574e-07
2.94793e-05 0.00012256 8.85963e-07
-8.42574e-07 8.85963e-07 5.58106e-05
0.00141752 -1.88703e-05 -8.7399e-08
-1.88703e-05 -2.65398e-06 1.02389e-06
-8.7399e-08 1.02389e-06 -2.18631e-05
0.000985954 -4.77052e-05 -5.7338e-06
-4.77052e-05 -0.000171789 -2.11826e-06
-5.7338e-06 -2.11826e-06 -0.000216094
0.00127351 -4.59998e-05 -1.55018e-07
-4.59998e-05 0.000157573 1.70825e-06
-1.55018e-07 1.70825e-06 6.84176e-05
0.00119514 -5.23789e-05 -1.25381e-06
-5.23789e-05 8.44529e-05 1.58239e-06
-1.25381e-06 1.58239e-06 -7.34941e-06
0.00117035 -4.11175e-05 -1.71343e-06
-4.11175e-05 0.000118817 6.39816e-07
-1.71343e-06 6.39816e-07 1.81691e-05
0.00123615 -3.39222e-05 2.58259e-07
-3.39222e-05 0.000155852 5.91987e-07
2.58259e-07 5.91987e-07 5.28798e-05
0.00105409 -3.04109e-05 -5.05168e-07
-3.04109e-05 5.28841e-05 1.30363e-06
-5.05168e-07 1.30363e-06 -3.49146e-05
0.00107077 -9.00115e-06 -1.67381e-07
-9.00115e-06 6.17236e-05 1.08041e-06
-1.67381e-07 1.08041e-06 -2.7882e-06
0.00123728 -2.39109e-05 -1.10932e-07
-2.39109e-05 0.000148672 8.20019e-07
-1.10932e-07 8.20019e-07 6.71614e-05
0.00124911 1.74802e-05 -8.50035e-08
1.74802e-05 0.000146543 4.17482e-07
-8.50035e-08 4.17482e-07 8.84944e-05
0.000994226 8.52882e-06 1.52953e-07
8.52882e-06 2.547e-05 1.84527e-06
1.52953e-07 1.84527e-06 -4.63751e-05
0.00168316 3.20644e-05 9.26294e-07
3.20644e-05 0.000105571 -1.51042e-06
9.26294e-07 -1.51042e-06 5.73806e-05
0.00104742 1.28816e-05 -1.48096e-07
1.28816e-05 5.37343e-05 2.62709e-07
-1.48096e-07 2.62709e-07 -2.10403e-05
0.0010956 -2.16274e-05 1.10455e-07
-2.16274e-05 7.77016e-05 -4.42595e-07
1.10455e-07 -4.42595e-07 -8.36719e-07
0.0015805 -5.39984e-05 -3.22676e-06
-5.39984e-05 1.42138e-05 -1.32314e-06
-3.22676e-06 -1.32314e-06 7.04051e-06
0.00088061 -5.76639e-05 1.65949e-06
-5.76639e-05 -0.000131717 9.51618e-07
1.65949e-06 9.51618e-07 -0.00021907
0.00121864 -5.56e-05 -4.36099e-07
-5.56e-05 0.00013892 -2.4292e-07
-4.36099e-07 -2.4292e-07 3.49994e-05
0.00110671 -2.98264e-05 -8.34103e-08
-2.98264e-05 8.68352e-05 -2.47819e-07
-8.34103e-08 -2.47819e-07 -8.77255e-06
0.00114339 -3.26955e-05 5.63765e-07
-3.26955e-05 0.000124866 3.32085e-07
5.63765e-07 3.32085e-07 5.12096e-06
0.00166966 -1.08239e-05 -3.40599e-06
-1.08239e-05 -0.000138038 8.76338e-06
-3.40599e-06 8.76338e-06 -7.56769e-05
0.00229908 -0.000100272 9.57583e-06
-0.000100272 0.000499142 -6.11138e-08
9.57583e-06 -6.11138e-08 0.000405746
0.000350476 -5.81846e-05 1.38793e-06
-5.81846e-05 -0.000303832 -2.17473e-06
1.38793e-06 -2.17473e-06 -0.000409073
0.00140695 -4.68378e-05 1.026e-06
-4.68378e-05 0.000259717 -6.47002e-07
1.026e-06 -6.47002e-07 0.000123565
0.00101658 -1.96672e-05 -2.57685e-07
-1.96672e-05 4.10888e-05 -1.13883e-06
-2.57685e-07 -1.13883e-06 -4.07705e-05
0.00112995 -1.62538e-05 7.09597e-08
-1.62538e-05 9.77958e-05 -9.55788e-07
7.09597e-08 -9.55788e-07 8.00992e-06
0.00128417 -2.34658e-05 -3.7576e-07
-2.34658e-05 0.000185691 -8.93852e-07
-3.7576e-07 -8.93852e-07 7.3599e-05
-0.00118678 3.03583e-06 -6.69399e-05
3.03583e-06 -0.000631624 -7.02972e-07
-6.69399e-05 -7.02972e-07 -0.000615756
0.00498886 2.30836e-07 -2.41802e-05
2.30836e-07 0.00157938 -8.80995e-07
-2.41802e-05 -8.80995e-07 0.00120356
0.00120015 3.53183e-05 -1.9938e-07
3.53183e-05 0.000125957 -1.94572e-07
-1.9938e-07 -1.94572e-07 3.62201e-05
0.00102473 3.51829e-05 4.34564e-07
3.51829e-05 4.15712e-05 -5.36244e-07
4.34564e-07 -5.36244e-07 -5.29209e-05
0.00197129 7.34109e-05 -7.66644e-06
7.34109e-05 0.000179182 -5.65453e-07
-7.66644e-06 -5.65453e-07 0.000114695
0.0010872 7.05735e-05 -1.79282e-06
7.05735e-05 -2.23769e-05 -9.32125e-07
-1.79282e-06 -9.32125e-07 -0.000123965
0.00106499 4.40059e-05 1.05423e-06
4.40059e-05 9.22231e-05 -1.63739e-06
1.05423e-06 -1.63739e-06 -2.72814e-05
0.00510884 2.81287e-05 -5.97394e-06
2.81287e-05 0.00142201 -7.00015e-06
-5.97394e-06 -7.00015e-06 0.000909673
0.000179352 -7.9323e-05 -3.06154e-05
-7.9323e-05 -0.000125383 -1.25497e-05
-3.06154e-05 -1.25497e-05 -0.000344367
0.00230342 3.33979e-05 1.31717e-05
3.33979e-05 0.000168137 3.99358e-06
1.31717e-05 3.99358e-06 0.000200328
0.00276782 -0.000119651 2.3841e-05
-0.000119651 0.00110001 9.66906e-06
2.3841e-05 9.66906e-06 0.00103755
-3.80026e-06 -7.54425e-05 2.98074e-06
-7.54425e-05 -0.000559203 1.922e-06
2.98074e-06 1.922e-06 -0.000328205
0.00114011 3.43843e-05 3.32933e-07
3.43843e-05 0.000100183 -1.77122e-07
3.32933e-07 -1.77122e-07 6.4583e-06
-0.000892208 -2.15823e-06 -1.47042e-05
-2.15823e-06 -0.000398309 -8.50417e-07
-1.47042e-05 -8.50417e-07 -0.000426282
0.001333 -3.736e-05 -1.18195e-07
-3.736e-05 0.000419408 -1.238e-07
-1.18195e-07 -1.238e-07 0.000497094
0.00154601 9.69077e-05 2.05529e-06
9.69077e-05 9.55838e-05 2.03167e-06
2.05529e-06 2.03167e-06 7.30298e-07
0.00117637 3.20085e-05 1.37515e-07
3.20085e-05 0.000131547 -1.02149e-06
1.37515e-07 -1.02149e-06 2.8541e-05
0.00136299 4.8116e-05 4.25046e-07
4.8116e-05 0.000292125 -7.17202e-08
4.25046e-07 -7.17202e-08 0.000135336
0.0021229 1.73719e-05 -2.43604e-05
1.73719e-05 0.000214298 -2.04244e-05
-2.43604e-05 -2.04244e-05 0.000141092
0.00370194 -2.32264e-05 1.01509e-05
-2.32264e-05 0.000754075 6.68995e-06
1.01509e-05 6.68995e-06 0.000148498
3.90605e-05 -2.58783e-05 -7.02681e-06
-2.58783e-05 -9.30826e-05 -1.22519e-05
-7.02681e-06 -1.22519e-05 -0.000310461
0.00172988 -0.000176971 1.29905e-06
-0.000176971 0.000236162 2.31098e-06
1.29905e-06 2.31098e-06 0.000235964
-0.000413061 -4.35696e-05 -9.63403e-07
-4.35696e-05 -0.000798903 -6.96045e-06
-9.63403e-07 -6.96045e-06 -0.000641477
0.00101108 2.26125e-05 -4.39728e-07
2.26125e-05 1.13865e-05 -4.7607e-07
-4.39728e-07 -4.7607e-07 -8.39281e-05
0.000363142 -8.87265e-06 9.09772e-06
-8.87265e-06 -5.77249e-05 2.50643e-06
9.09772e-06 2.50643e-06 -6.53458e-05
0.00047399 -8.59242e-06 8.4077e-06
-8.59242e-06 -8.09668e-05 1.46222e-05
8.4077e-06 1.46222e-05 -0.000116734
0.00102087 3.74525e-05 1.34674e-05
3.74525e-05 7.10288e-05 9.04378e-06
1.34674e-05 9.04378e-06 -0.00012534
0.00158507 2.21994e-05 -4.06784e-06
2.21994e-05 0.000381999 -1.60707e-06
-4.06784e-06 -1.60707e-06 0.000255516
0.00204603 -3.34989e-05 -6.08028e-06
-3.34989e-05 0.000565035 -3.4044e-06
-6.08028e-06 -3.4044e-06 0.000540909
0.000125832 7.34609e-05 -3.37915e-05
7.34609e-05 6.40472e-05 -6.36064e-06
-3.37915e-05 -6.36064e-06 -0.000157303
0.00314561 -0.000109864 3.83185e-05
-0.000109864 0.000366107 2.37133e-05
3.83185e-05 2.37133e-05 -0.0002333
0.00242243 -0.000199066 -2.28283e-05
-0.000199066 0.000444692 -2.07363e-05
-2.28283e-05 -2.07363e-05 0.000436036
-0.000318014 -1.35356e-05 2.0415e-06
-1.35356e-05 -0.000672139 4.07059e-06
2.0415e-06 4.07059e-06 -0.000649381
0.00124301 3.40707e-05 -7.67048e-07
3.40707e-05 0.00013513 3.0382e-07
-7.67048e-07 3.0382e-07 4.14649e-05
0.00115929 3.11257e-05 2.21228e-07
3.11257e-05 8.46751e-05 2.40209e-07
2.21228e-07 2.40209e-07 -1.4265e-05
0.00103129 3.09276e-05 1.41089e-06
3.09276e-05 4.63392e-05 1.173e-08
1.41089e-06 1.173e-08 -5.95426e-05
0.000828348 2.81755e-06 1.71417e-07
2.81755e-06 -6.34426e-05 -6.75417e-07
1.71417e-07 -6.75417e-07 -0.000118206
0.0011004 5.22626e-06 1.01319e-07
5.22626e-06 7.60388e-05 -1.36761e-06
1.01319e-07 -1.36761e-06 6.59552e-06
0.00124202 4.92771e-06 -7.16e-08
4.92771e-06 0.000147085 3.15683e-09
-7.16e-08 3.15683e-09 6.72681e-05
0.00105675 2.54223e-05 -2.64315e-08
2.54223e-05 5.34208e-05 -1.13418e-06
-2.64315e-08 -1.13418e-06 -3.248e-05
0.00100122 2.73741e-05 -1.52235e-07
2.73741e-05 2.32382e-05 -3.52158e-07
-1.52235e-07 -3.52158e-07 -7.17352e-05
0.00111113 2.1686e-06 1.82831e-07
2.1686e-06 8.1428e-05 -5.15203e-07
1.82831e-07 -5.15203e-07 1.26988e-05
0.00110722 2.52791e-05 2.41645e-08
2.52791e-05 8.22604e-05 1.05905e-08
2.41645e-08 1.05905e-08 -6.74584e-06
0.00112029 -2.40972e-06 -5.22782e-08
-2.40972e-06 8.73828e-05 1.74553e-07
-5.22782e-08 1.74553e-07 4.8076e-06
0.0010868 2.63467e-05 2.38463e-07
2.63467e-05 8.30483e-05 1.25611e-07
2.38463e-07 1.25611e-07 -2.05666e-05
0.000981984 1.63336e-05 3.27242e-07
1.63336e-05 3.5701e-05 -4.81919e-08
3.27242e-07 -4.81919e-08 -7.65653e-05
0.00119307 1.54789e-05 9.89982e-08
1.54789e-05 0.000130462 1.12763e-06
9.89982e-08 1.12763e-06 3.4956e-05
0.00114172 5.6761e-06 5.85088e-08
5.6761e-06 9.75159e-05 6.94355e-07
5.85088e-08 6.94355e-07 1.65035e-05
0.00111809 -8.55495e-06 9.44363e-08
-8.55495e-06 8.47143e-05 -9.2192e-07
9.44363e-08 -9.2192e-07 1.69645e-05
0.00100185 -2.04875e-05 3.6097e-07
-2.04875e-05 2.8453e-05 -1.33178e-06
3.6097e-07 -1.33178e-06 -5.22115e-05
0.00111917 5.769e-07 1.71141e-07
5.769e-07 8.62005e-05 5.88073e-08
1.71141e-07 5.88073e-08 6.51501e-06
0.0011036 -1.85127e-05 -1.51549e-08
-1.85127e-05 8.15137e-05 1.69112e-08
-1.51549e-08 1.69112e-08 1.4413e-07
0.00112933 -2.0471e-05 2.21428e-07
-2.0471e-05 9.02338e-05 -7.16701e-07
2.21428e-07 -7.16701e-07 3.19194e-06
0.00106655 -2.55899e-05 -5.79424e-07
-2.55899e-05 6.50933e-05 1.1407e-06
-5.79424e-07 1.1407e-06 -1.84337e-05
0.00120312 -4.36247e-06 -1.85188e-07
-4.36247e-06 0.000125767 2.67547e-07
-1.85188e-07 2.67547e-07 3.71504e-05
0.00100164 -2.87371e-05 -1.68445e-07
-2.87371e-05 3.24097e-05 3.86885e-07
-1.68445e-07 3.86885e-07 -5.89523e-05
0.00113448 -3.28401e-05 -3.38909e-07
-3.28401e-05 8.9771e-05 -1.03348e-06
-3.38909e-07 -1.03348e-06 4.67696e-06
0.00090591 -3.23824e-05 1.46592e-07
-3.23824e-05 -1.75046e-05 1.94499e-07
1.46592e-07 1.94499e-07 -9.47596e-05
0.0010068 -3.13451e-05 -8.83234e-07
-3.13451e-05 2.66644e-05 -3.38476e-07
-8.83234e-07 -3.38476e-07 -5.20276e-05
0.00109896 -3.02307e-05 -3.6517e-07
-3.02307e-05 7.50534e-05 1.93209e-07
-3.6517e-07 1.93209e-07 -7.44152e-06
0.00107945 -2.57225e-05 -1.10671e-06
-2.57225e-05 6.35176e-05 1.18304e-06
-1.10671e-06 1.18304e-06 -8.71111e-06
0.00107621 -2.21529e-05 2.09387e-08
-2.21529e-05 6.49592e-05 1.10341e-08
2.09387e-08 1.10341e-08 -6.99818e-06
0.00103997 -1.09421e-05 -5.91977e-07
-1.09421e-05 3.88486e-05 1.31929e-06
-5.91977e-07 1.31929e-06 -1.77254e-05
0.00107342 -1.79925e-05 4.15995e-07
-1.79925e-05 6.40417e-05 -9.00349e-07
4.15995e-07 -9.00349e-07 -6.21166e-06
0.00104186 -9.60284e-06 9.69952e-08
-9.60284e-06 4.05025e-05 -2.4625e-08
9.69952e-08 -2.4625e-08 -1.45109e-05
0.00100001 -3.27841e-07 -7.874e-07
-3.27841e-07 9.12286e-06 1.98353e-06
-7.874e-07 1.98353e-06 -2.48371e-05
0.000846234 -5.73746e-06 3.23915e-07
-5.73746e-06 -5.56888e-05 -1.21857e-06
3.23915e-07 -1.21857e-06 -0.000110735
0.00100345 3.75576e-07 4.66179e-08
3.75576e-07 9.99172e-06 -1.08768e-08
4.66179e-08 -1.08768e-08 -2.31307e-05
0.00159747 6.00662e-06 -2.82915e-06
6.00662e-06 0.000293117 4.5892e-06
-2.82915e-06 4.5892e-06 0.000293193
0.00100239 -2.16484e-06 5.03024e-07
-2.16484e-06 9.27503e-06 -1.89743e-06
5.03024e-07 -1.89743e-06 -2.33436e-05
0.00127262 3.93104e-06 -8.27003e-07
3.93104e-06 0.000130024 6.45159e-07
-8.27003e-07 6.45159e-07 0.000129015
0.00110907 4.19957e-06 -6.87092e-07
4.19957e-06 4.48773e-05 1.64333e-06
-6.87092e-07 1.64333e-06 6.15761e-05
0.000950736 1.68271e-06 4.09951e-07
1.68271e-06 -3.10666e-05 -3.32017e-06
4.09951e-07 -3.32017e-06 -3.32201e-05
0.00240907 2.18451e-06 6.40271e-07
2.18451e-06 0.000688646 4.64074e-09
6.40271e-07 4.64074e-09 0.000711503
0.00239714 -5.41172e-07 8.41872e-07
-5.41172e-07 0.00068267 -4.23879e-06
8.41872e-07 -4.23879e-06 0.000705614
0.00129497 8.64361e-06 -4.20444e-07
8.64361e-06 0.000157872 -9.70409e-07
-4.20444e-07 -9.70409e-07 0.000114979
0.00101153 -9.62625e-07 -2.4757e-07
-9.62625e-07 6.75257e-06 -1.91295e-06
-2.4757e-07 -1.91295e-06 -1.90123e-05
0.0010432 3.88959e-06 1.11298e-07
3.88959e-06 3.39783e-05 4.44521e-07
1.11298e-07 4.44521e-07 -9.4595e-06
0.00094877 1.33501e-07 -6.50948e-08
1.33501e-07 -3.31357e-05 -3.28467e-06
-6.50948e-08 -3.28467e-06 -3.10175e-05
0.00101372 1.76384e-07 -3.30422e-08
1.76384e-07 7.66602e-06 -2.13773e-09
-3.30422e-08 -2.13773e-09 -1.78212e-05
0.00101285 1.852e-06 -2.45213e-07
1.852e-06 7.84827e-06 1.92336e-06
-2.45213e-07 1.92336e-06 -1.79303e-05
0.000948962 2.36699e-06 -6.01351e-08
2.36699e-06 -3.25667e-05 9.03925e-10
-6.01351e-08 9.03925e-10 -3.06301e-05
0.00226854 2.81162e-06 1.39317e-06
2.81162e-06 0.000618914 -4.04808e-06
1.39317e-06 -4.04808e-06 0.000643385
0.00150671 5.25743e-06 -8.24186e-07
5.25743e-06 0.000245705 1.99847e-06
-8.24186e-07 1.99847e-06 0.000249744
0.00170637 5.25388e-06 8.14919e-07
5.25388e-06 0.000341506 2.70299e-08
8.14919e-07 2.70299e-08 0.000362783
0.00118875 6.86097e-06 -5.55155e-06
6.86097e-06 8.73095e-05 6.4846e-06
-5.55155e-06 6.4846e-06 0.000104889
-0.00353367 2.046e-05 -3.75278e-05
2.046e-05 -0.00187474 1.08645e-05
-3.75278e-05 1.08645e-05 -0.00189921
-0.000988131 2.46063e-05 -2.27335e-06
2.46063e-05 -0.000938572 5.46568e-07
-2.27335e-06 5.46568e-07 -0.000912871
0.000429185 -5.51919e-05 -4.11186e-05
-5.51919e-05 -5.63027e-05 -1.14671e-05
-4.11186e-05 -1.14671e-05 -0.000177861
0.000845214 -1.23282e-05 6.29082e-07
-1.23282e-05 -1.63363e-05 9.60922e-08
6.29082e-07 9.60922e-08 -1.69329e-05
0.0011855 3.07314e-05 -7.21925e-06
3.07314e-05 -5.59162e-05 -2.41717e-06
-7.21925e-06 -2.41717e-06 -0.000122039
0.0004993 -1.97563e-05 1.62894e-05
-1.97563e-05 7.51128e-05 4.61363e-08
1.62894e-05 4.61363e-08 1.0989e-06
0.00133768 4.72141e-05 1.86899e-06
4.72141e-05 0.000146215 2.11479e-06
1.86899e-06 2.11479e-06 9.21789e-05
0.00344183 1.98029e-05 -1.7158e-05
1.98029e-05 0.000823384 1.55458e-08
-1.7158e-05 1.55458e-08 0.000376747
-0.0013953 5.62364e-05 1.08459e-05
5.62364e-05 -0.000713304 -4.0719e-06
1.08459e-05 -4.0719e-06 -0.000734724
0.000371586 5.8222e-05 -7.75281e-07
5.8222e-05 -0.000310638 2.15066e-06
-7.75281e-07 2.15066e-06 -0.000126481
0.000885559 3.60781e-05 1.876e-05
3.60781e-05 0.000272988 -1.11584e-05
1.876e-05 -1.11584e-05 0.000134835
0.00453104 8.61038e-05 -1.98001e-05
8.61038e-05 0.00129411 1.73492e-05
-1.98001e-05 1.73492e-05 0.000818786
0.0003966 0.000113325 -4.11844e-05
0.000113325 -2.42927e-05 3.63509e-05
-4.11844e-05 3.63509e-05 6.22491e-05
0.00133018 3.31945e-05 3.52463e-06
3.31945e-05 0.000242781 -4.14857e-06
3.52463e-06 -4.14857e-06 0.000396365
0.000982865 1.34602e-05 -2.63174e-07
1.34602e-05 2.04311e-05 -1.14644e-06
-2.63174e-07 -1.14644e-06 -4.9357e-05
0.000966557 6.27261e-06 -2.74528e-09
6.27261e-06 4.35208e-06 -3.86008e-07
-2.74528e-09 -3.86008e-07 -5.26047e-05
0.00104698 -4.92452e-06 -1.0143e-07
-4.92452e-06 3.63647e-05 1.17094e-06
-1.0143e-07 1.17094e-06 -7.00474e-06
0.000914144 1.74909e-05 -1.24905e-07
1.74909e-05 -1.86722e-05 8.44749e-07
-1.24905e-07 8.44749e-07 -7.70967e-05
0.0011058 2.95013e-05 4.38062e-07
2.95013e-05 8.02313e-05 9.07832e-07
4.38062e-07 9.07832e-07 1.35816e-05
0.00114865 1.6552e-05 -1.02445e-07
1.6552e-05 9.79037e-05 -6.11318e-07
-1.02445e-07 -6.11318e-07 3.04907e-05
0.0010891 1.11673e-05 3.80101e-07
1.11673e-05 6.65889e-05 9.14257e-07
3.80101e-07 9.14257e-07 2.92171e-06
0.00108783 3.11295e-06 1.68452e-07
3.11295e-06 6.59969e-05 -5.01052e-07
1.68452e-07 -5.01052e-07 4.8667e-06
0.00102306 -6.21979e-07 1.46829e-08
-6.21979e-07 3.26733e-05 -4.89802e-07
1.46829e-08 -4.89802e-07 -2.52206e-05
0.00094554 -9.03617e-06 -4.73776e-08
-9.03617e-06 -6.18218e-06 1.32926e-06
-4.73776e-08 1.32926e-06 -6.28993e-05
0.00229379 3.75687e-05 -2.24353e-07
3.75687e-05 0.000382882 2.83023e-06
-2.24353e-07 2.83023e-06 0.000336225
0.00108004 -5.06417e-05 -1.0081e-05
-5.06417e-05 -0.000226794 -3.28769e-07
-1.0081e-05 -3.28769e-07 -0.000228965
0.000181625 -5.05999e-05 -2.84825e-06
-5.05999e-05 -0.000460592 1.80919e-06
-2.84825e-06 1.80919e-06 -0.000546126
0.00120996 -5.58149e-05 -1.49836e-06
-5.58149e-05 0.000132649 2.16991e-06
-1.49836e-06 2.16991e-06 2.48781e-05
0.00110278 -3.14546e-05 9.75589e-08
-3.14546e-05 0.000103861 8.01577e-07
9.75589e-08 8.01577e-07 -1.40234e-05
0.001124 -2.98545e-05 -4.67836e-08
-2.98545e-05 9.50403e-05 4.33515e-07
-4.67836e-08 4.33515e-07 -8.58054e-07
0.00116154 -2.4055e-05 2.93537e-08
-2.4055e-05 0.000110701 3.49819e-07
2.93537e-08 3.49819e-07 3.22988e-05
0.00107399 1.25685e-05 3.87296e-07
1.25685e-05 6.63791e-05 1.06122e-06
3.87296e-07 1.06122e-06 -7.92717e-06
0.00198307 -2.05486e-05 -3.1265e-06
-2.05486e-05 2.064e-05 2.02219e-07
-3.1265e-06 2.02219e-07 5.46711e-05
0.00100016 -8.41386e-06 -1.85743e-08
-8.41386e-06 3.38184e-05 -1.72759e-07
-1.85743e-08 -1.72759e-07 -4.84109e-05
0.00106277 -2.07586e-05 1.79357e-07
-2.07586e-05 6.43822e-05 -4.54179e-07
1.79357e-07 -4.54179e-07 -2.65017e-05
0.00157507 -8.84291e-05 2.41092e-06
-8.84291e-05 0.000138179 9.33791e-07
2.41092e-06 9.33791e-07 5.99837e-05
0.000725169 -6.2366e-05 -8.12733e-07
-6.2366e-05 -0.000124863 3.63036e-07
-8.12733e-07 3.63036e-07 -0.000232247
0.00125123 -4.42215e-05 8.39277e-07
-4.42215e-05 0.000176945 5.77293e-08
8.39277e-07 5.77293e-08 4.35425e-05
0.00124913 -2.14862e-05 -1.59631e-07
-2.14862e-05 0.000168847 -3.83662e-07
-1.59631e-07 -3.83662e-07 5.36547e-05
0.00229757 -7.05855e-05 -1.44566e-06
-7.05855e-05 5.3827e-05 5.51219e-06
-1.44566e-06 5.51219e-06 0.000154114
0.00127396 -8.45516e-05 2.00777e-06
-8.45516e-05 0.000209602 -4.13226e-06
2.00777e-06 -4.13226e-06 5.29573e-05
0.00111262 -1.17943e-05 -9.09763e-07
-1.17943e-05 0.000123283 -3.66982e-07
-9.09763e-07 -3.66982e-07 -1.97146e-05
0.00103135 1.52911e-05 -5.44172e-08
1.52911e-05 4.53191e-05 -3.84959e-08
-5.44172e-08 -3.84959e-08 -3.66234e-05
0.00112504 -2.15025e-05 -2.94725e-07
-2.15025e-05 9.35627e-05 -9.05377e-07
-2.94725e-07 -9.05377e-07 4.12304e-06
0.00121051 -6.40543e-06 -5.0748e-07
-6.40543e-06 0.000134834 -7.38672e-07
-5.0748e-07 -7.38672e-07 3.47825e-05
0.000873021 -7.95482e-07 1.23628e-05
-7.95482e-07 0.000178815 2.59407e-07
1.23628e-05 2.59407e-07 0.00016331
0.00148519 5.97605e-06 2.29312e-06
5.97605e-06 0.000421746 -2.56565e-06
2.29312e-06 -2.56565e-06 0.000317219
0.000711471 6.8976e-05 -6.24241e-05
6.8976e-05 -0.000541711 7.86548e-06
-6.24241e-05 7.86548e-06 -0.000915169
0.00116019 3.48074e-05 -3.41726e-07
3.48074e-05 0.000105988 -4.76484e-07
-3.41726e-07 -4.76484e-07 1.24553e-05
0.00143697 3.37283e-05 1.63926e-06
3.37283e-05 0.000257195 -1.76419e-07
1.63926e-06 -1.76419e-07 0.000158443
0.00154029 9.81956e-05 -2.14567e-06
9.81956e-05 9.43361e-05 -2.43677e-06
-2.14567e-06 -2.43677e-06 -4.46565e-07
0.00115536 4.9346e-05 3.1044e-06
4.9346e-05 0.000197497 -2.16925e-06
3.1044e-06 -2.16925e-06 4.38528e-05
0.00304169 -5.97443e-05 2.2197e-05
-5.97443e-05 0.00118001 5.28535e-06
2.2197e-05 5.28535e-06 0.00109897
0.000706752 -9.98888e-05 5.60587e-05
-9.98888e-05 -0.000326319 3.43763e-05
5.60587e-05 3.43763e-05 -0.000665627
0.00156892 -5.17904e-06 -7.08184e-05
-5.17904e-06 0.00018735 -6.02814e-05
-7.08184e-05 -6.02814e-05 -0.000105484
0.00186078 1.28998e-05 6.51765e-06
1.28998e-05 0.000124543 -4.13009e-06
6.51765e-06 -4.13009e-06 4.21131e-05
-0.00181184 -0.000125513 4.4675e-05
-0.000125513 -0.00130873 3.03245e-05
4.4675e-05 3.03245e-05 -0.00121898
0.00312703 -3.49831e-05 -2.36886e-06
-3.49831e-05 0.00149578 -3.42973e-06
-2.36886e-06 -3.42973e-06 0.00156799
0.00145159 -5.36303e-05 -9.96594e-06
-5.36303e-05 0.000292385 -1.43278e-05
-9.96594e-06 -1.43278e-05 0.000469239
0.00123126 2.68763e-05 -8.80922e-08
2.68763e-05 0.000123409 5.13925e-07
-8.80922e-08 5.13925e-07 2.66946e-05
0.000725103 -1.20068e-05 4.3258e-06
-1.20068e-05 0.000120871 1.23524e-06
4.3258e-06 1.23524e-06 0.000118164
0.000521527 -6.87894e-06 1.76314e-06
-6.87894e-06 -5.01678e-05 3.84902e-06
1.76314e-06 3.84902e-06 -8.56017e-05
0.00117961 4.75411e-05 2.71218e-06
4.75411e-05 0.000157852 3.92491e-06
2.71218e-06 3.92491e-06 -4.12225e-05
0.00104327 1.58382e-05 1.38798e-07
1.58382e-05 0.000127675 -8.40768e-07
1.38798e-07 -8.40768e-07 -1.7652e-06
0.0021309 -2.44537e-05 4.88302e-06
-2.44537e-05 0.000443345 1.31204e-05
4.88302e-06 1.31204e-05 0.000300914
0.00198612 9.96771e-05 -1.50582e-05
9.96771e-05 0.000532949 -3.58388e-05
-1.50582e-05 -3.58388e-05 0.000144026
0.00494289 -0.000151696 9.32687e-06
-0.000151696 0.00117666 4.50519e-06
9.32687e-06 4.50519e-06 0.000659062
-0.000311938 -0.000150565 8.02349e-06
-0.000150565 -0.000504829 1.55465e-05
8.02349e-06 1.55465e-05 -0.000530471
0.00106746 -2.29102e-05 -1.53871e-06
-2.29102e-05 0.000116508 -1.33772e-06
-1.53871e-06 -1.33772e-06 0.000169485
0.00109488 2.7614e-05 5.70527e-07
2.7614e-05 7.26785e-05 -1.38524e-06
5.70527e-07 -1.38524e-06 -1.69882e-05
0.00193479 -1.71515e-06 1.0656e-05
-1.71515e-06 0.000859491 3.83204e-06
1.0656e-05 3.83204e-06 0.000795535
0.00100818 3.31432e-06 3.4978e-06
3.31432e-06 0.000152359 4.87485e-06
3.4978e-06 4.87485e-06 0.000115835
0.000454213 -8.74529e-06 2.80531e-06
-8.74529e-06 -7.2095e-05 8.04407e-06
2.80531e-06 8.04407e-06 -0.000198425
0.000648853 7.30312e-05 5.02022e-06
7.30312e-05 0.000366887 2.63588e-05
5.02022e-06 2.63588e-05 0.000268381
0.00587025 -0.000107338 -2.52147e-05
-0.000107338 0.00147331 -1.94435e-05
-2.52147e-05 -1.94435e-05 0.000872209
-0.00112959 -0.000116895 -1.58714e-05
-0.000116895 -0.0015639 -4.22212e-05
-1.58714e-05 -4.22212e-05 -0.00128617
0.00127464 -1.16921e-05 -7.33104e-07
-1.16921e-05 0.000258904 -7.30518e-08
-7.33104e-07 -7.30518e-08 0.000257412
0.00108098 3.01667e-05 -5.05832e-07
3.01667e-05 4.77609e-05 -7.42281e-07
-5.05832e-07 -7.42281e-07 -5.14815e-05
0.00119531 3.07817e-05 1.6936e-07
3.07817e-05 0.000122042 2.81324e-07
1.6936e-07 2.81324e-07 1.80358e-05
0.00168654 3.12163e-05 4.39454e-07
3.12163e-05 0.000366323 -5.5669e-07
4.39454e-07 -5.5669e-07 0.000256742
0.00110278 1.63479e-05 -2.73652e-08
1.63479e-05 7.73574e-05 -1.39545e-06
-2.73652e-08 -1.39545e-06 8.54838e-06
0.00113567 7.2697e-06 -7.63309e-08
7.2697e-06 9.50058e-05 -4.31837e-07
-7.63309e-08 -4.31837e-07 1.23942e-05
0.0010723 2.31906e-05 8.02315e-08
2.31906e-05 6.46366e-05 -5.01914e-07
8.02315e-08 -5.01914e-07 -2.35898e-05
0.00105222 2.54223e-05 -3.37491e-07
2.54223e-05 6.61041e-05 -4.65746e-07
-3.37491e-07 -4.65746e-07 -3.87681e-05
0.00112975 1.20974e-05 7.2441e-08
1.20974e-05 9.19008e-05 2.75685e-08
7.2441e-08 2.75685e-08 1.08871e-05
0.00120489 2.01838e-05 4.30029e-08
2.01838e-05 0.000135216 3.5815e-07
4.30029e-08 3.5815e-07 4.00544e-05
0.00106487 1.74509e-05 1.70488e-07
1.74509e-05 7.88189e-05 -5.56142e-07
1.70488e-07 -5.56142e-07 -3.48683e-05
0.00116563 9.59109e-06 -5.32051e-08
9.59109e-06 0.000135881 4.03782e-07
-5.32051e-08 4.03782e-07 2.23927e-05
0.00108133 -4.07925e-07 -3.87671e-07
-4.07925e-07 7.6358e-05 1.25258e-06
-3.87671e-07 1.25258e-06 -3.15357e-05
0.00127594 1.60165e-05 1.38239e-07
1.60165e-05 0.000162742 5.62152e-07
1.38239e-07 5.62152e-07 7.19626e-05
0.00112174 -3.4367e-06 2.9478e-07
-3.4367e-06 8.72164e-05 -8.41776e-07
2.9478e-07 -8.41776e-07 7.63498e-06
0.0011091 -1.88303e-05 2.33816e-07
-1.88303e-05 8.42972e-05 -8.4148e-07
2.33816e-07 -8.4148e-07 2.86174e-06
0.00106292 -2.63767e-05 7.35402e-07
-2.63767e-05 5.64734e-05 -1.68559e-06
7.35402e-07 -1.68559e-06 -3.05257e-05
0.00120245 -5.83752e-06 -1.1035e-07
-5.83752e-06 0.000125149 -4.65204e-07
-1.1035e-07 -4.65204e-07 3.69087e-05
0.00109174 -2.24161e-05 -5.21351e-08
-2.24161e-05 7.74876e-05 2.3779e-07
-5.21351e-08 2.3779e-07 -5.95569e-06
0.00103453 -2.68249e-05 8.89572e-08
-2.68249e-05 4.71405e-05 -1.8215e-07
8.89572e-08 -1.8215e-07 -4.36262e-05
0.00110182 -3.05456e-05 -1.12588e-06
-3.05456e-05 8.12647e-05 -6.39733e-08
-1.12588e-06 -6.39733e-08 -1.0609e-05
0.0011057 -3.06005e-05 -8.62959e-08
-3.06005e-05 8.29174e-05 3.67076e-07
-8.62959e-08 3.67076e-07 -1.25197e-05
0.00114472 -3.57579e-05 9.4655e-08
-3.57579e-05 9.76211e-05 -1.01875e-07
9.4655e-08 -1.01875e-07 7.93555e-06
0.0011565 -3.32439e-05 -4.52575e-07
-3.32439e-05 0.000100491 -1.19169e-07
-4.52575e-07 -1.19169e-07 1.51402e-05
0.000940757 -3.34768e-05 -2.2706e-07
-3.34768e-05 -1.16314e-06 5.04289e-07
-2.2706e-07 5.04289e-07 -8.33132e-05
0.00113119 -3.74114e-05 -1.05819e-06
-3.74114e-05 7.89378e-05 1.32978e-06
-1.05819e-06 1.32978e-06 1.2961e-06
0.00120804 -3.36551e-05 -2.47757e-07
-3.36551e-05 0.00012164 -6.0594e-07
-2.47757e-07 -6.0594e-07 5.0989e-05
0.000966818 -3.32454e-05 5.06637e-07
-3.32454e-05 1.36318e-05 -8.27328e-07
5.06637e-07 -8.27328e-07 -6.16291e-05
0.00109581 -3.24559e-05 4.04296e-07
-3.24559e-05 6.95394e-05 -1.95866e-07
4.04296e-07 -1.95866e-07 -8.65208e-06
0.000969507 -2.51081e-05 -1.0557e-06
-2.51081e-05 5.92137e-06 4.83182e-07
-1.0557e-06 4.83182e-07 -6.48308e-05
0.00111819 -3.01799e-05 2.1226e-07
-3.01799e-05 8.38454e-05 5.27019e-08
2.1226e-07 5.27019e-08 1.56101e-06
0.00108042 -2.54731e-05 -2.44388e-07
-2.54731e-05 6.40477e-05 4.01222e-07
-2.44388e-07 4.01222e-07 -8.09262e-06
0.00105285 -1.30582e-05 -8.74162e-07
-1.30582e-05 4.3741e-05 1.32674e-06
-8.74162e-07 1.32674e-06 -1.38083e-05
0.00108217 -2.32483e-05 4.84045e-07
-2.32483e-05 6.7876e-05 -9.07325e-07
4.84045e-07 -9.07325e-07 -4.10863e-06
0.00104659 -1.16996e-05 7.98052e-08
-1.16996e-05 4.2045e-05 -1.49399e-08
7.98052e-08 -1.49399e-08 -1.45482e-05
0.000996604 1.24927e-07 -1.03484e-06
1.24927e-07 8.36466e-06 2.04952e-06
-1.03484e-06 2.04952e-06 -2.66953e-05
0.00104673 -8.74244e-06 5.21862e-07
-8.74244e-06 4.28787e-05 -1.26877e-06
5.21862e-07 -1.26877e-06 -1.21397e-05
0.00100196 -3.81984e-07 6.1295e-08
-3.81984e-07 1.0017e-05 -1.40813e-08
6.1295e-08 -1.40813e-08 -2.39766e-05
0.00159963 8.00372e-06 -3.78969e-06
8.00372e-06 0.000296679 4.59143e-06
-3.78969e-06 4.59143e-06 0.000296142
0.00100465 -1.21157e-06 7.09701e-07
-1.21157e-06 1.0476e-05 -1.95752e-06
7.09701e-07 -1.95752e-06 -2.26613e-05
0.00127101 5.91417e-06 -1.12028e-06
5.91417e-06 0.000131198 6.38519e-07
-1.12028e-06 6.38519e-07 0.000129741
0.00110625 6.55695e-06 -1.0814e-06
6.55695e-06 4.62086e-05 1.63282e-06
-1.0814e-06 1.63282e-06 6.24276e-05
0.000947422 3.66966e-06 7.78168e-07
3.66966e-06 -3.1566e-05 -3.32675e-06
7.78168e-07 -3.32675e-06 -3.40225e-05
0.00177028 4.84445e-06 1.74569e-06
4.84445e-06 0.000372751 -1.27897e-06
1.74569e-06 -1.27897e-06 0.000392402
0.00240769 2.40333e-06 2.54848e-06
2.40333e-06 0.000688237 -4.22994e-06
2.54848e-06 -4.22994e-06 0.000711048
0.00111413 -2.36884e-06 -1.1409e-07
-2.36884e-06 6.99515e-05 -1.08461e-06
-1.1409e-07 -1.08461e-06 2.3677e-05
0.0010114 -2.37992e-06 -4.41724e-07
-2.37992e-06 7.55495e-06 -1.89282e-06
-4.41724e-07 -1.89282e-06 -1.88509e-05
0.00108273 2.38345e-06 9.12785e-08
2.38345e-06 5.35798e-05 1.09132e-07
9.12785e-08 1.09132e-07 9.38976e-06
0.000951763 -1.89139e-06 -4.54095e-07
-1.89139e-06 -3.12441e-05 -3.27459e-06
-4.54095e-07 -3.27459e-06 -2.94542e-05
0.00101201 -1.07088e-06 -6.22942e-08
-1.07088e-06 7.08689e-06 7.73382e-09
-6.22942e-08 7.73382e-09 -1.86822e-05
0.00103709 3.64741e-06 9.13821e-08
3.64741e-06 3.09487e-05 1.61543e-06
9.13821e-08 1.61543e-06 -1.24566e-05
0.00226948 7.26436e-08 -5.47928e-07
7.26436e-08 0.000619006 -4.07406e-06
-5.47928e-07 -4.07406e-06 0.000643528
0.000948507 1.77528e-07 -9.9855e-08
1.77528e-07 -3.3282e-05 -7.89724e-09
-9.9855e-08 -7.89724e-09 -3.11582e-05
0.00101589 5.34783e-08 -7.11571e-08
5.34783e-08 8.74309e-06 1.93037e-06
-7.11571e-08 1.93037e-06 -1.67665e-05
0.000954254 2.41199e-06 -4.06722e-07
2.41199e-06 -2.99556e-05 3.25345e-06
-4.06722e-07 3.25345e-06 -2.8051e-05
0.0022668 2.89891e-06 -6.29264e-07
2.89891e-06 0.000618192 -5.7213e-09
-6.29264e-07 -5.7213e-09 0.000642629
0.00228124 5.55428e-06 -4.15711e-06
5.55428e-06 0.000626807 4.02745e-06
-4.15711e-06 4.02745e-06 0.000650838
-0.00114275 6.41151e-06 8.77756e-06
6.41151e-06 -0.000966797 -8.27973e-07
8.77756e-06 -8.27973e-07 -0.000987281
-0.000396669 2.42085e-05 2.00732e-05
2.42085e-05 -0.00025455 -4.48458e-06
2.00732e-05 -4.48458e-06 -0.000328631
0.00086987 -4.06531e-06 1.53367e-05
-4.06531e-06 0.000184927 -4.77771e-06
1.53367e-05 -4.77771e-06 0.000147974
-0.00128391 2.87677e-05 -8.22097e-06
2.87677e-05 -0.00113429 1.51824e-06
-8.22097e-06 1.51824e-06 -0.00109048
0.00143374 8.78057e-06 -5.21406e-05
8.78057e-06 0.000222369 -3.29988e-06
-5.21406e-05 -3.29988e-06 8.34504e-05
0.00121448 4.79135e-05 3.19426e-06
4.79135e-05 5.84837e-05 -1.80153e-06
3.19426e-06 -1.80153e-06 1.01325e-06
0.000888461 -4.56689e-05 -1.90537e-05
-4.56689e-05 -0.00010986 -8.36628e-07
-1.90537e-05 -8.36628e-07 -0.000465255
0.00263497 5.45679e-05 7.27715e-05
5.45679e-05 0.00117698 -2.56426e-05
7.27715e-05 -2.56426e-05 0.00107815
2.98933e-05 6.17565e-05 6.55343e-07
6.17565e-05 -0.000487216 -2.58949e-06
6.55343e-07 -2.58949e-06 -0.000311772
0.00104056 3.37195e-05 -4.07784e-06
3.37195e-05 0.000163585 2.79505e-06
-4.07784e-06 2.79505e-06 1.09249e-05
0.00235527 4.71005e-06 7.47265e-06
4.71005e-06 0.000266979 -6.1883e-06
7.47265e-06 -6.1883e-06 -0.000363081
0.00229116 0.000160537 2.81504e-06
0.000160537 0.000621177 4.53547e-06
2.81504e-06 4.53547e-06 0.000588296
0.000912828 2.48474e-05 -1.15794e-06
2.48474e-05 9.52444e-06 -5.70878e-07
-1.15794e-06 -5.70878e-07 0.000170199
0.000742354 2.21002e-05 7.23448e-06
2.21002e-05 0.000281401 3.01322e-07
7.23448e-06 3.01322e-07 3.57399e-05
0.00286721 8.16013e-05 4.58415e-05
8.16013e-05 0.000307525 -1.84998e-05
4.58415e-05 -1.84998e-05 -0.000366215
-0.00120787 0.000140704 -3.044e-05
0.000140704 -0.00110894 4.53457e-05
-3.044e-05 4.53457e-05 -0.00108989
9.02341e-05 -4.47542e-06 6.57145e-06
-4.47542e-06 -0.000417706 2.01419e-07
6.57145e-06 2.01419e-07 -0.000397958
0.00113446 -2.14744e-06 2.61586e-07
-2.14744e-06 9.33932e-05 -8.18654e-07
2.61586e-07 -8.18654e-07 1.78016e-05
0.00108489 1.73401e-05 -4.071e-07
1.73401e-05 6.96669e-05 -2.27657e-07
-4.071e-07 -2.27657e-07 8.24214e-07
0.00107483 9.62385e-06 1.5805e-07
9.62385e-06 5.7204e-05 4.83522e-07
1.5805e-07 4.83522e-07 7.68849e-07
0.00105388 2.86437e-05 6.04704e-07
2.86437e-05 5.47509e-05 1.56438e-06
6.04704e-07 1.56438e-06 -1.08141e-05
0.00105528 7.44631e-06 -1.57588e-07
7.44631e-06 5.17558e-05 -4.41478e-07
-1.57588e-07 -4.41478e-07 -2.09106e-05
0.00118032 1.36746e-05 9.92071e-08
1.36746e-05 0.000112852 4.39692e-07
9.92071e-08 4.39692e-07 4.61374e-05
0.00103872 6.06814e-07 -1.4114e-07
6.06814e-07 4.16523e-05 1.87341e-06
-1.4114e-07 1.87341e-06 -2.14684e-05
0.00121224 1.79368e-05 -2.71913e-07
1.79368e-05 0.000128415 -8.15169e-07
-2.71913e-07 -8.15169e-07 6.48208e-05
0.00116636 9.66377e-06 3.69123e-08
9.66377e-06 0.000104683 4.61657e-07
3.69123e-08 4.61657e-07 4.417e-05
0.0009527 -3.67606e-06 -1.98991e-07
-3.67606e-06 -2.10699e-06 4.98601e-07
-1.98991e-07 4.98601e-07 -6.07233e-05
0.0021094 -2.98951e-05 -6.21575e-06
-2.98951e-05 9.39937e-05 1.06576e-07
-6.21575e-06 1.06576e-07 0.000100331
0.000874953 -7.68675e-05 -6.44062e-06
-7.68675e-05 -0.000209611 3.70804e-06
-6.44062e-06 3.70804e-06 -0.000272305
0.00117603 -6.75587e-05 -1.22367e-06
-6.75587e-05 8.99962e-05 3.15202e-06
-1.22367e-06 3.15202e-06 -1.96006e-05
0.00109591 -4.17706e-05 -2.42674e-07
-4.17706e-05 9.52069e-05 8.30047e-07
-2.42674e-07 8.30047e-07 -3.67131e-05
0.0012133 -1.91804e-05 2.98559e-07
-1.91804e-05 0.000151779 3.62906e-07
2.98559e-07 3.62906e-07 3.33049e-05
0.000997738 -2.4256e-05 2.96468e-07
-2.4256e-05 3.20368e-05 -2.22188e-09
2.96468e-07 -2.22188e-09 -5.99377e-05
0.000994359 3.26505e-06 1.13346e-07
3.26505e-06 3.14248e-05 6.0707e-07
1.13346e-07 6.0707e-07 -5.10593e-05
0.00106465 -5.4709e-06 3.64486e-09
-5.4709e-06 6.22039e-05 6.8732e-07
3.64486e-09 6.8732e-07 -1.95812e-05
0.00196769 -7.67095e-05 8.76853e-07
-7.67095e-05 -6.55131e-05 2.57024e-07
8.76853e-07 2.57024e-07 6.46308e-06
0.00114262 -9.42413e-06 1.65212e-07
-9.42413e-06 0.000103558 -2.36249e-07
1.65212e-07 -2.36249e-07 1.47139e-05
0.00128861 -9.67807e-06 -9.19739e-08
-9.67807e-06 0.000174921 1.31084e-07
-9.19739e-08 1.31084e-07 7.2974e-05
0.00141712 -8.37861e-05 5.88695e-07
-8.37861e-05 0.000276878 -1.0837e-06
5.88695e-07 -1.0837e-06 0.000119056
0.00120211 -1.36106e-05 -2.57734e-07
-1.36106e-05 0.000161667 1.24841e-07
-2.57734e-07 1.24841e-07 1.98807e-05
0.00183331 -9.87924e-05 -1.0338e-05
-9.87924e-05 1.90662e-05 2.87655e-06
-1.0338e-05 2.87655e-06 1.99139e-05
0.00114913 -2.12944e-05 -1.05151e-07
-2.12944e-05 0.000248008 -3.88351e-06
-1.05151e-07 -3.88351e-06 3.90407e-05
0.00116195 -9.4216e-07 -1.05315e-06
-9.4216e-07 0.000112159 -1.05351e-07
-1.05315e-06 -1.05351e-07 -2.27579e-06
0.00109235 1.61239e-05 -2.47838e-07
1.61239e-05 7.32742e-05 -3.09863e-07
-2.47838e-07 -3.09863e-07 -1.42386e-05
0.00115866 1.0646e-05 -3.95073e-07
1.0646e-05 0.000101259 -1.56725e-06
-3.95073e-07 -1.56725e-06 5.77126e-06
0.00197942 -2.64579e-06 3.88438e-06
-2.64579e-06 0.000922298 8.42677e-07
3.88438e-06 8.42677e-07 0.000846189
-0.000198329 -4.40586e-07 6.86937e-06
-4.40586e-07 -0.00043136 -1.73237e-07
6.86937e-06 -1.73237e-07 -0.000454705
-0.00330795 1.10149e-06 6.61212e-05
1.10149e-06 -0.00184626 3.59454e-07
6.61212e-05 3.59454e-07 -0.00184259
0.00148545 3.14894e-05 2.61581e-08
3.14894e-05 0.000252535 1.33694e-06
2.61581e-08 1.33694e-06 0.000154306
0.000547295 1.15154e-05 1.83347e-06
1.15154e-05 -0.000103864 -9.84611e-07
1.83347e-06 -9.84611e-07 -0.000235631
0.00126172 5.66241e-05 1.13839e-06
5.66241e-05 0.000199306 -8.84507e-06
1.13839e-06 -8.84507e-06 2.82452e-06
-0.000602555 -8.40848e-06 -2.03376e-06
-8.40848e-06 -0.000647818 -9.77073e-07
-2.03376e-06 -9.77073e-07 -0.000669024
0.00228477 -0.000121407 3.46013e-06
-0.000121407 -1.84347e-05 1.53593e-05
3.46013e-06 1.53593e-05 -0.000654547
0.000191713 6.38069e-05 1.0813e-06
6.38069e-05 2.99943e-05 -3.25975e-05
1.0813e-06 -3.25975e-05 -0.000190529
0.00315862 -2.00203e-05 6.52802e-05
-2.00203e-05 0.000731194 1.14111e-05
6.52802e-05 1.14111e-05 0.000484742
0.00355154 -0.000207837 4.62403e-05
-0.000207837 0.00114683 5.32555e-05
4.62403e-05 5.32555e-05 0.0010834
0.000589248 -5.8509e-06 -1.14878e-05
-5.8509e-06 -5.81592e-06 -6.81522e-06
-1.14878e-05 -6.81522e-06 -4.09643e-05
0.000722826 -1.88713e-05 -6.46428e-06
-1.88713e-05 -7.50939e-05 -6.83741e-06
-6.46428e-06 -6.83741e-06 -4.29698e-05
0.00105209 3.01779e-05 6.16134e-07
3.01779e-05 4.97083e-05 7.95452e-07
6.16134e-07 7.95452e-07 -3.86299e-05
0.00140655 -1.18448e-06 1.24228e-06
-1.18448e-06 0.000534073 1.19852e-06
1.24228e-06 1.19852e-06 0.000463602
0.000913242 2.90093e-06 5.02754e-07
2.90093e-06 8.81355e-05 -7.2798e-07
5.02754e-07 -7.2798e-07 5.15027e-05
-9.81895e-05 -3.26474e-06 1.06462e-05
-3.26474e-06 -0.000361809 2.0621e-06
1.06462e-05 2.0621e-06 -0.000512756
0.00109651 7.72205e-05 -2.43964e-05
7.72205e-05 0.000417722 -6.50537e-06
-2.43964e-05 -6.50537e-06 0.000211466
0.00468199 -3.18706e-05 1.14849e-05
-3.18706e-05 0.000627939 9.51345e-06
1.14849e-05 9.51345e-06 -3.49577e-06
0.000849193 -1.02581e-05 -1.51685e-06
-1.02581e-05 3.6696e-05 2.24286e-06
-1.51685e-06 2.24286e-06 2.32008e-05
0.00103823 -0.000161466 3.22387e-06
-0.000161466 -0.000328475 1.55025e-05
3.22387e-06 1.55025e-05 -0.000258328
0.0011064 1.65233e-05 8.32658e-07
1.65233e-05 7.63836e-05 -7.06823e-06
8.32658e-07 -7.06823e-06 -3.2344e-06
0.00091187 2.40926e-06 3.8138e-07
2.40926e-06 0.000136124 2.81333e-06
3.8138e-07 2.81333e-06 5.39721e-05
0.0015509 -8.86048e-06 1.61173e-06
-8.86048e-06 0.000443111 5.21431e-06
1.61173e-06 5.21431e-06 0.000414106
0.00011972 -1.06187e-05 -6.87756e-06
-1.06187e-05 -0.000420978 4.49956e-06
-6.87756e-06 4.49956e-06 -0.000382954
-0.00124845 3.83707e-05 -6.729e-06
3.83707e-05 -0.00077693 3.9973e-07
-6.729e-06 3.9973e-07 -0.000844505
0.00631112 -5.0827e-05 -4.36575e-06
-5.0827e-05 0.0016651 1.37625e-05
-4.36575e-06 1.37625e-05 0.00107345
-0.0002035 -6.02622e-06 6.47374e-06
-6.02622e-06 -0.00128152 -6.44448e-05
6.47374e-06 -6.44448e-05 -0.00091025
0.00134851 3.22633e-05 4.31919e-08
3.22633e-05 0.000192242 8.79928e-07
4.31919e-08 8.79928e-07 8.9984e-05
0.00143402 2.75301e-05 -5.9282e-07
2.75301e-05 0.000244445 -1.23549e-07
-5.9282e-07 -1.23549e-07 0.00013423
0.00105216 2.34166e-05 -1.19347e-07
2.34166e-05 9.67053e-05 5.7835e-07
-1.19347e-07 5.7835e-07 -2.8001e-05
0.00111588 2.02071e-05 7.21205e-08
2.02071e-05 8.54496e-05 -6.57263e-07
7.21205e-08 -6.57263e-07 4.40278e-06
0.0012196 2.6425e-05 -6.27869e-09
2.6425e-05 0.000141588 -2.89621e-07
-6.27869e-09 -2.89621e-07 4.67217e-05
0.00113186 1.80468e-05 -6.01525e-07
1.80468e-05 0.000114221 -1.04915e-06
-6.01525e-07 -1.04915e-06 -1.54201e-06
0.00126046 1.28482e-05 -5.80922e-08
1.28482e-05 0.000155255 -1.5526e-07
-5.80922e-08 -1.5526e-07 6.4925e-05
0.0011753 -5.56456e-07 -2.20141e-08
-5.56456e-07 0.000123669 4.51845e-07
-2.20141e-08 4.51845e-07 1.53228e-05
0.00105133 1.05017e-05 3.98781e-07
1.05017e-05 7.65923e-05 5.13021e-07
3.98781e-07 5.13021e-07 -3.93778e-05
0.00104599 8.23069e-06 -4.29164e-07
8.23069e-06 8.77681e-05 1.98917e-07
-4.29164e-07 1.98917e-07 -2.18622e-05
0.00111679 -2.25539e-05 -5.16087e-07
-2.25539e-05 8.79565e-05 7.80439e-07
-5.16087e-07 7.80439e-07 -1.27808e-05
0.00120575 -6.9424e-06 -2.973e-07
-6.9424e-06 0.00012643 -1.10922e-06
-2.973e-07 -1.10922e-06 3.85748e-05
0.00111844 -1.95418e-05 1.47476e-07
-1.95418e-05 9.06979e-05 -3.44377e-07
1.47476e-07 -3.44377e-07 7.32057e-06
0.0010638 -2.53417e-05 1.79267e-07
-2.53417e-05 6.01412e-05 -7.70557e-07
1.79267e-07 -7.70557e-07 -3.00438e-05
0.00111085 -2.95886e-05 8.65801e-08
-2.95886e-05 8.40645e-05 1.68677e-09
8.65801e-08 1.68677e-09 -1.10562e-05
0.00105633 -2.83405e-05 -4.50663e-07
-2.83405e-05 5.87254e-05 2.32866e-07
-4.50663e-07 2.32866e-07 -3.33033e-05
0.00112322 -3.36111e-05 -5.83494e-07
-3.36111e-05 0.0001025 8.45903e-07
-5.83494e-07 8.45903e-07 4.784e-06
0.00109488 -3.50304e-05 4.87992e-07
-3.50304e-05 7.68471e-05 -4.57365e-07
4.87992e-07 -4.57365e-07 -9.82652e-06
0.0010674 -3.77047e-05 3.83832e-07
-3.77047e-05 6.75167e-05 9.77098e-07
3.83832e-07 9.77098e-07 -2.7897e-05
0.00119269 -3.3795e-05 7.38138e-07
-3.3795e-05 0.000117799 1.07851e-07
7.38138e-07 1.07851e-07 3.22042e-05
0.00114493 -3.63865e-05 7.98826e-08
-3.63865e-05 9.55333e-05 6.98161e-07
7.98826e-08 6.98161e-07 1.33147e-05
0.00098319 -3.80731e-05 -1.67626e-07
-3.80731e-05 3.64094e-06 1.58018e-06
-1.67626e-07 1.58018e-06 -8.17832e-05
0.00111224 -3.64144e-05 -9.85833e-07
-3.64144e-05 7.24031e-05 5.54441e-07
-9.85833e-07 5.54441e-07 -2.16685e-06
0.00111508 -3.26142e-05 -1.16354e-06
-3.26142e-05 7.71696e-05 3.78621e-07
-1.16354e-06 3.78621e-07 8.23452e-06
0.00104068 -3.59942e-05 -4.99381e-07
-3.59942e-05 3.77395e-05 7.82338e-09
-4.99381e-07 7.82338e-09 -3.99656e-05
0.00110212 -2.68032e-05 -8.47917e-07
-2.68032e-05 6.7406e-05 3.29678e-07
-8.47917e-07 3.29678e-07 1.44936e-06
0.001176 -3.35561e-05 -7.56563e-08
-3.35561e-05 0.000106027 -1.93772e-07
-7.56563e-08 -1.93772e-07 3.49803e-05
0.0010321 -3.41031e-05 4.39653e-07
-3.41031e-05 4.69069e-05 -1.32553e-06
4.39653e-07 -1.32553e-06 -2.63678e-05
0.00118932 -3.36133e-05 1.36014e-06
-3.36133e-05 0.000114463 -3.01184e-07
1.36014e-06 -3.01184e-07 3.67807e-05
0.00101728 -2.5939e-05 5.54429e-08
-2.5939e-05 2.94245e-05 -1.18088e-08
5.54429e-08 -1.18088e-08 -4.09809e-05
0.00105753 -1.35755e-05 -1.21809e-06
-1.35755e-05 4.38667e-05 1.2171e-06
-1.21809e-06 1.2171e-06 -1.32391e-05
0.00107784 -2.44198e-05 5.98607e-07
-2.44198e-05 6.28457e-05 -3.93026e-07
5.98607e-07 -3.93026e-07 -9.18776e-06
0.00104896 -1.23745e-05 9.74189e-08
-1.23745e-05 4.15579e-05 3.36911e-08
9.74189e-08 3.36911e-08 -1.58936e-05
0.000996212 8.18216e-07 -1.32405e-06
8.18216e-07 9.21981e-06 2.10057e-06
-1.32405e-06 2.10057e-06 -2.68932e-05
0.00105084 -1.19862e-05 7.49437e-07
-1.19862e-05 4.40969e-05 -1.29836e-06
7.49437e-07 -1.29836e-06 -1.25294e-05
0.000997681 7.44656e-08 7.3702e-08
7.44656e-08 8.8867e-06 -8.82931e-09
7.3702e-08 -8.82931e-09 -2.62124e-05
0.00157477 9.88091e-06 -4.10837e-06
9.88091e-06 0.00028748 3.29109e-06
-4.10837e-06 3.29109e-06 0.000286211
0.00100214 -5.4086e-07 9.3754e-07
-5.4086e-07 1.00371e-05 -2.0193e-06
9.3754e-07 -2.0193e-06 -2.39846e-05
0.00126935 7.7869e-06 -1.3788e-06
7.7869e-06 0.000133037 6.33298e-07
-1.3788e-06 6.33298e-07 0.000130908
0.00110194 8.79545e-06 -1.46284e-06
8.79545e-06 4.75973e-05 1.63198e-06
-1.46284e-06 1.63198e-06 6.31306e-05
0.000945008 5.54513e-06 1.14296e-06
5.54513e-06 -3.07248e-05 -3.33169e-06
1.14296e-06 -3.33169e-06 -3.36536e-05
0.00177768 7.46156e-06 2.32668e-06
7.46156e-06 0.00037882 -1.26798e-06
2.32668e-06 -1.26798e-06 0.000398017
0.00241946 5.29216e-06 4.23926e-06
5.29216e-06 0.000695537 -4.20997e-06
4.23926e-06 -4.20997e-06 0.000718038
0.000854311 -1.32157e-06 -2.81108e-07
-1.32157e-06 -5.68937e-05 -1.6924e-06
-2.81108e-07 -1.6924e-06 -0.000107674
0.000748262 -4.01684e-06 -5.95305e-07
-4.01684e-06 -0.000120044 -2.49924e-06
-5.95305e-07 -2.49924e-06 -0.000149332
0.00112237 -1.51818e-06 2.90276e-08
-1.51818e-06 7.38235e-05 1.1785e-07
2.90276e-08 1.1785e-07 2.74882e-05
0.000954432 -3.91657e-06 -8.02527e-07
-3.91657e-06 -2.87776e-05 -3.25224e-06
-8.02527e-07 -3.25224e-06 -2.7676e-05
0.000882324 -2.45388e-06 -8.21927e-09
-2.45388e-06 -5.57662e-05 1.57538e-09
-8.21927e-09 1.57538e-09 -8.30058e-05
0.000871123 -3.50801e-06 1.04392e-07
-3.50801e-06 -5.04087e-05 1.27564e-06
1.04392e-07 1.27564e-06 -9.59148e-05
0.00227671 -2.64547e-06 -2.46939e-06
-2.64547e-06 0.000623081 -4.08281e-06
-2.46939e-06 -4.08281e-06 0.000647418
0.000947174 -1.85312e-06 -1.05142e-07
-1.85312e-06 -3.35264e-05 -5.02718e-09
-1.05142e-07 -5.02718e-09 -3.17032e-05
0.00101275 -1.18027e-06 1.04732e-07
-1.18027e-06 7.55186e-06 1.8891e-06
1.04732e-07 1.8891e-06 -1.82229e-05
0.0022677 1.2781e-07 -7.39799e-07
1.2781e-07 0.000618114 6.30293e-10
-7.39799e-07 6.30293e-10 0.000642654
0.00094854 2.20874e-07 -1.33106e-07
2.20874e-07 -3.32781e-05 3.28132e-06
-1.33106e-07 3.28132e-06 -3.11504e-05
0.00226472 2.98262e-06 -2.23683e-06
2.98262e-06 0.000617307 4.04954e-06
-2.23683e-06 4.04954e-06 0.000641713
0.00109463 -7.40145e-06 9.13652e-06
-7.40145e-06 0.000371522 -1.20211e-06
9.13652e-06 -1.20211e-06 0.000303346
0.000840147 9.89389e-06 6.5835e-07
9.89389e-06 0.00016406 7.62843e-07
6.5835e-07 7.62843e-07 0.000158746
0.000750555 -4.56509e-06 9.0459e-05
-4.56509e-06 8.32977e-05 -1.37887e-05
9.0459e-05 -1.37887e-05 -6.51127e-05
0.00107025 1.64214e-05 -4.51795e-07
1.64214e-05 5.60133e-05 -9.05997e-07
-4.51795e-07 -9.05997e-07 -1.22635e-05
0.000788343 -1.89098e-05 -3.30621e-07
-1.89098e-05 5.05825e-05 -6.33708e-06
-3.30621e-07 -6.33708e-06 1.52733e-05
0.000972507 -4.76434e-06 5.63041e-06
-4.76434e-06 0.00024486 -2.68269e-07
5.63041e-06 -2.68269e-07 0.000211368
0.000678827 3.4765e-05 -1.20185e-05
3.4765e-05 -2.42946e-05 8.33086e-06
-1.20185e-05 8.33086e-06 4.82028e-05
0.000851958 2.73199e-05 -3.6958e-05
2.73199e-05 -0.00010867 1.0865e-05
-3.6958e-05 1.0865e-05 -0.000306923
0.00516143 8.5982e-05 -6.18903e-07
8.5982e-05 0.00173316 -7.12243e-06
-6.18903e-07 -7.12243e-06 0.00114057
-0.000524655 0.000111966 4.93698e-05
0.000111966 -0.000452923 -3.09462e-05
4.93698e-05 -3.09462e-05 -0.000430557
0.00202846 2.20552e-05 -3.08508e-06
2.20552e-05 0.000713667 3.93494e-06
-3.08508e-06 3.93494e-06 0.000846428
0.00171135 -4.5522e-06 -2.30012e-05
-4.5522e-06 0.000423826 8.67497e-06
-2.30012e-05 8.67497e-06 3.30094e-05
0.0043071 0.000121544 1.66821e-05
0.000121544 0.000961167 -2.21497e-05
1.66821e-05 -2.21497e-05 0.00036942
0.000131616 0.000151941 -5.84953e-06
0.000151941 -0.000660735 1.13383e-05
-5.84953e-06 1.13383e-05 -0.000652231
0.00171568 1.92072e-07 1.03569e-06
1.92072e-07 0.000561453 -3.60513e-06
1.03569e-06 -3.60513e-06 0.000595207
0.000957819 -6.87889e-05 2.96629e-05
-6.87889e-05 2.84558e-05 -3.33266e-05
2.96629e-05 -3.33266e-05 -0.000401527
0.00697201 0.000105908 2.59528e-05
0.000105908 0.00161852 -2.40446e-05
2.59528e-05 -2.40446e-05 0.000875498
0.00157791 0.000150074 8.30139e-06
0.000150074 -0.000396678 5.9982e-05
8.30139e-06 5.9982e-05 -0.000408988
0.00122055 7.23228e-06 6.33325e-07
7.23228e-06 0.000242943 7.09269e-06
6.33325e-07 7.09269e-06 0.000219436
0.00103505 -1.08605e-06 -1.08893e-08
-1.08605e-06 3.94582e-05 -8.78669e-07
-1.08893e-08 -8.78669e-07 -4.19576e-05
0.00110668 -7.71761e-06 1.22642e-07
-7.71761e-06 7.997e-05 -3.22637e-08
1.22642e-07 -3.22637e-08 3.63361e-06
0.00117658 1.91221e-05 -5.66697e-08
1.91221e-05 0.000114132 7.96577e-07
-5.66697e-08 7.96577e-07 4.6128e-05
0.00106024 1.2661e-05 -1.39709e-07
1.2661e-05 5.41541e-05 -1.36313e-06
-1.39709e-07 -1.36313e-06 -2.08989e-05
0.0011329 1.67643e-05 -9.62161e-08
1.67643e-05 8.9483e-05 4.08109e-07
-9.62161e-08 4.08109e-07 1.7806e-05
0.00121224 8.13014e-06 3.28922e-07
8.13014e-06 0.000128005 1.5063e-06
3.28922e-07 1.5063e-06 6.19811e-05
0.00124473 1.75877e-05 -1.45169e-07
1.75877e-05 0.000143742 4.12295e-08
-1.45169e-07 4.12295e-08 8.06618e-05
0.00124872 1.79113e-05 3.291e-07
1.79113e-05 0.000145012 1.45243e-06
3.291e-07 1.45243e-06 8.52267e-05
0.00181264 -8.4023e-05 -3.8151e-07
-8.4023e-05 -0.000103651 -2.92678e-06
-3.8151e-07 -2.92678e-06 -6.16031e-05
0.00150915 -8.22104e-05 -2.19765e-06
-8.22104e-05 0.000319449 2.76564e-06
-2.19765e-06 2.76564e-06 0.000161068
0.00111237 -3.04365e-05 4.87258e-08
-3.04365e-05 8.65922e-05 1.09881e-06
4.87258e-08 1.09881e-06 4.65254e-06
0.00132001 -1.56432e-05 2.86747e-07
-1.56432e-05 0.000212918 5.22623e-07
2.86747e-07 5.22623e-07 7.30188e-05
0.00134208 -1.29676e-05 2.03599e-07
-1.29676e-05 0.00020239 5.71539e-07
2.03599e-07 5.71539e-07 9.87377e-05
0.0011759 4.65758e-07 2.03713e-07
4.65758e-07 0.000121462 4.94513e-07
2.03713e-07 4.94513e-07 3.30904e-05
0.00111034 1.30283e-05 -2.03359e-08
1.30283e-05 8.21946e-05 2.91845e-08
-2.03359e-08 2.91845e-08 -5.26924e-06
0.00184409 -9.58864e-05 6.79299e-07
-9.58864e-05 2.86348e-05 -8.19045e-07
6.79299e-07 -8.19045e-07 3.59811e-05
0.00112427 5.66283e-06 4.45936e-08
5.66283e-06 8.44548e-05 2.73695e-07
4.45936e-08 2.73695e-07 -1.1679e-05
0.00118876 -4.81123e-06 -2.93876e-09
-4.81123e-06 0.000128316 -1.39154e-08
-2.93876e-09 -1.39154e-08 9.61065e-06
0.00110215 -2.2106e-05 -2.35362e-07
-2.2106e-05 0.000228723 3.72538e-07
-2.35362e-07 3.72538e-07 1.57015e-05
0.00112733 2.23499e-05 -9.21694e-08
2.23499e-05 8.64529e-05 2.69508e-08
-9.21694e-08 2.69508e-08 -2.56774e-06
0.00205142 -7.65479e-05 -1.86018e-05
-7.65479e-05 0.000397529 8.33176e-06
-1.86018e-05 8.33176e-06 0.000260593
0.00126307 2.46277e-05 -2.0747e-06
2.46277e-05 0.000281388 -3.11523e-06
-2.0747e-06 -3.11523e-06 0.000100104
0.001206 3.70122e-06 -5.39984e-07
3.70122e-06 0.000117258 -1.61311e-06
-5.39984e-07 -1.61311e-06 1.70667e-05
0.00122789 1.94247e-05 -2.91029e-07
1.94247e-05 0.000133392 -5.22062e-07
-2.91029e-07 -5.22062e-07 3.92155e-05
0.00144909 -3.89113e-06 4.022e-07
-3.89113e-06 0.000495682 1.29548e-07
4.022e-07 1.29548e-07 0.000401134
0.00159881 -2.37951e-06 -5.11689e-06
-2.37951e-06 0.000683068 3.22789e-07
-5.11689e-06 3.22789e-07 0.000606775
-0.00124515 2.18252e-08 2.26979e-06
2.18252e-08 -0.00102705 2.90574e-07
2.26979e-06 2.90574e-07 -0.00105645
0.00094582 2.99105e-05 -2.81168e-07
2.99105e-05 -5.17191e-06 2.04719e-06
-2.81168e-07 2.04719e-06 -9.17901e-05
-0.000743959 -9.63271e-06 -4.15789e-06
-9.63271e-06 -0.000684161 2.37856e-06
-4.15789e-06 2.37856e-06 -0.0008666
0.000903502 -5.74823e-07 -1.07081e-05
-5.74823e-07 0.000223423 -1.53166e-06
-1.07081e-05 -1.53166e-06 0.000146456
0.00381674 -0.000157377 1.77286e-05
-0.000157377 0.000728038 7.30419e-06
1.77286e-05 7.30419e-06 2.14985e-05
0.00368922 0.000112978 -1.83941e-05
0.000112978 0.00119927 -5.51622e-05
-1.83941e-05 -5.51622e-05 0.000879745
0.0025355 -0.000183089 -2.65817e-06
-0.000183089 1.71576e-05 7.62334e-05
-2.65817e-06 7.62334e-05 0.000183988
0.000695865 2.83606e-06 -2.91789e-06
2.83606e-06 -5.21724e-05 -6.63045e-06
-2.91789e-06 -6.63045e-06 -8.83972e-05
0.000380398 -8.9258e-06 1.14186e-06
-8.9258e-06 -0.000213909 -1.13248e-07
1.14186e-06 -1.13248e-07 -0.000239324
0.00129915 2.0833e-05 -8.53368e-07
2.0833e-05 0.000173797 -7.80439e-07
-8.53368e-07 -7.80439e-07 9.17279e-05
0.000800004 2.1106e-06 -4.45758e-08
2.1106e-06 6.80757e-05 1.03471e-06
-4.45758e-08 1.03471e-06 -1.4261e-05
0.000948514 -9.40712e-06 -4.84978e-07
-9.40712e-06 7.24466e-05 -2.68989e-07
-4.84978e-07 -2.68989e-07 3.82188e-05
0.000246242 2.32585e-05 4.13955e-06
2.32585e-05 -4.88842e-05 -4.14674e-06
4.13955e-06 -4.14674e-06 -8.94383e-05
0.00156295 -5.95656e-06 -1.08035e-06
-5.95656e-06 0.000451008 2.48844e-06
-1.08035e-06 2.48844e-06 0.000499885
0.00327301 8.74534e-06 9.35607e-06
8.74534e-06 -1.38505e-05 8.10722e-06
9.35607e-06 8.10722e-06 -0.000386088
0.00310476 -4.58332e-06 -1.90707e-06
-4.58332e-06 9.9661e-05 8.05107e-07
-1.90707e-06 8.05107e-07 0.000480933
-0.000336162 2.18606e-05 2.14755e-06
2.18606e-05 -0.000508599 -6.85598e-06
2.14755e-06 -6.85598e-06 -0.000589285
0.00118617 -5.53316e-06 4.51401e-07
-5.53316e-06 0.000268889 2.7592e-06
4.51401e-07 2.7592e-06 0.000194454
0.000827683 -1.85893e-05 -7.54753e-07
-1.85893e-05 4.78436e-05 9.34988e-06
-7.54753e-07 9.34988e-06 5.75863e-09
0.00125529 3.13841e-05 -6.49903e-06
3.13841e-05 0.000190035 8.11375e-06
-6.49903e-06 8.11375e-06 0.000354368
0.00194083 0.000174509 -5.14949e-06
0.000174509 -6.88418e-05 -5.64731e-05
-5.14949e-06 -5.64731e-05 -6.71762e-05
0.00121966 2.87928e-05 1.60965e-05
2.87928e-05 0.000683203 -1.07866e-05
1.60965e-05 -1.07866e-05 0.000616064
0.00357782 -6.25104e-05 3.48317e-05
-6.25104e-05 0.000384299 3.13665e-05
3.48317e-05 3.13665e-05 -0.000287076
0.00113887 2.27148e-05 -1.09181e-06
2.27148e-05 0.000102774 4.53571e-07
-1.09181e-06 4.53571e-07 -7.77258e-06
0.0011611 2.20435e-05 -6.80437e-07
2.20435e-05 0.000143813 -7.89549e-07
-6.80437e-07 -7.89549e-07 2.33045e-05
0.000613476 8.0795e-06 -9.94551e-07
8.0795e-06 -4.7583e-05 -1.7317e-06
-9.94551e-07 -1.7317e-06 -0.000235008
0.00123728 9.16692e-06 -5.31877e-08
9.16692e-06 0.000144027 -6.45411e-07
-5.31877e-08 -6.45411e-07 5.41483e-05
0.00126508 9.25482e-07 2.7651e-07
9.25482e-07 0.000168796 -5.4337e-07
2.7651e-07 -5.4337e-07 6.01847e-05
0.00108472 1.22319e-05 3.4619e-07
1.22319e-05 8.91554e-05 1.06379e-06
3.4619e-07 1.06379e-06 -2.78625e-05
0.00111249 -2.29831e-05 -1.62512e-07
-2.29831e-05 8.64663e-05 1.61185e-07
-1.62512e-07 1.61185e-07 -1.41529e-05
0.00103694 1.09441e-06 9.14951e-08
1.09441e-06 8.14505e-05 8.15683e-07
9.14951e-08 8.15683e-07 -2.86637e-05
0.00102292 -2.0673e-05 3.27722e-07
-2.0673e-05 0.000100729 -2.41825e-07
3.27722e-07 -2.41825e-07 -2.40713e-05
0.00111842 -2.95852e-05 1.34408e-07
-2.95852e-05 8.65518e-05 -4.18724e-07
1.34408e-07 -4.18724e-07 -8.31865e-06
0.00101127 -2.60589e-05 1.17415e-07
-2.60589e-05 3.64643e-05 1.39626e-07
1.17415e-07 1.39626e-07 -5.5726e-05
0.0011833 -3.51976e-05 1.43047e-07
-3.51976e-05 0.000130019 4.916e-07
1.43047e-07 4.916e-07 3.11806e-05
0.00103204 -3.89301e-05 -4.97156e-07
-3.89301e-05 7.9608e-05 1.54918e-06
-4.97156e-07 1.54918e-06 -3.19533e-05
0.00102655 -3.40069e-05 6.07828e-07
-3.40069e-05 4.74988e-05 5.1639e-08
6.07828e-07 5.1639e-08 -3.61772e-05
0.000962822 -3.59188e-05 7.01843e-07
-3.59188e-05 2.0558e-05 -5.64798e-07
7.01843e-07 -5.64798e-07 -7.39966e-05
0.00117511 -4.3363e-05 1.6329e-07
-4.3363e-05 0.000112256 1.57867e-06
1.6329e-07 1.57867e-06 1.39735e-05
0.00121596 -4.2171e-05 -1.56399e-06
-4.2171e-05 0.000103199 1.73144e-06
-1.56399e-06 1.73144e-06 2.05754e-05
0.0013382 -3.91634e-05 3.84456e-07
-3.91634e-05 0.000187096 -7.22435e-08
3.84456e-07 -7.22435e-08 0.000104811
0.00106717 -3.94684e-05 -2.05319e-07
-3.94684e-05 4.35367e-05 -1.06793e-07
-2.05319e-07 -1.06793e-07 -4.28409e-05
0.00125578 -3.7384e-05 8.9816e-08
-3.7384e-05 0.000141266 3.3403e-07
8.9816e-08 3.3403e-07 7.10987e-05
0.000993161 -2.94113e-05 -7.04814e-07
-2.94113e-05 2.56603e-05 2.58576e-07
-7.04814e-07 2.58576e-07 -4.30443e-05
0.00111066 -3.62436e-05 4.66214e-07
-3.62436e-05 7.09926e-05 8.31314e-08
4.66214e-07 8.31314e-08 -2.54939e-06
0.00109401 -2.34493e-05 -1.03929e-06
-2.34493e-05 6.57895e-05 1.57504e-07
-1.03929e-06 1.57504e-07 2.36309e-06
0.00112845 -3.2776e-05 -6.52092e-07
-3.2776e-05 8.32914e-05 4.01819e-07
-6.52092e-07 4.01819e-07 1.42256e-05
0.000947443 -3.45561e-05 1.73469e-08
-3.45561e-05 -4.7976e-06 -7.22291e-07
1.73469e-08 -7.22291e-07 -8.25585e-05
0.00106126 -1.2668e-05 -1.41618e-06
-1.2668e-05 4.40547e-05 1.04629e-06
-1.41618e-06 1.04629e-06 -1.13339e-05
0.00106095 -2.6396e-05 6.24866e-08
-2.6396e-05 4.68252e-05 9.55765e-08
6.24866e-08 9.55765e-08 -1.94398e-05
0.00113951 -3.34142e-05 1.41011e-06
-3.34142e-05 8.83433e-05 -3.60585e-07
1.41011e-06 -3.60585e-07 1.68972e-05
0.00106462 -2.66997e-05 1.02998e-06
-2.66997e-05 5.28215e-05 -5.14143e-07
1.02998e-06 -5.14143e-07 -1.72464e-05
0.00105235 -1.29743e-05 6.06176e-08
-1.29743e-05 4.09445e-05 4.42092e-08
6.06176e-08 4.42092e-08 -1.60008e-05
0.000995603 1.42622e-06 -1.66306e-06
1.42622e-06 9.71023e-06 2.11973e-06
-1.66306e-06 2.11973e-06 -2.69295e-05
0.00104852 -1.22944e-05 1.03702e-06
-1.22944e-05 4.10557e-05 -1.16009e-06
1.03702e-06 -1.16009e-06 -1.62908e-05
0.00099403 9.93703e-07 8.38153e-08
9.93703e-07 8.10105e-06 1.59782e-09
8.38153e-08 1.59782e-09 -2.80035e-05
0.000910519 1.04041e-05 -2.06419e-06
1.04041e-05 -3.82976e-05 3.37301e-06
-2.06419e-06 3.37301e-06 -4.35521e-05
0.000999402 -5.71575e-08 1.20531e-06
-5.71575e-08 9.72403e-06 -2.06874e-06
1.20531e-06 -2.06874e-06 -2.54161e-05
0.000923667 8.90675e-06 1.10421e-07
8.90675e-06 -3.50931e-05 1.34553e-08
1.10421e-07 1.34553e-08 -3.95591e-05
0.00242247 1.46139e-05 -3.14595e-06
1.46139e-05 0.000705528 1.69187e-06
-3.14595e-06 1.69187e-06 0.000726462
0.000941653 7.30309e-06 1.52306e-06
7.30309e-06 -2.96104e-05 -3.34682e-06
1.52306e-06 -3.34682e-06 -3.32425e-05
0.00178587 9.99138e-06 2.86295e-06
9.99138e-06 0.000386083 -1.25267e-06
2.86295e-06 -1.25267e-06 0.000404648
0.00243062 8.10708e-06 5.82698e-06
8.10708e-06 0.000703423 -4.18798e-06
5.82698e-06 -4.18798e-06 0.000725467
0.000838186 -9.41541e-07 -3.90316e-07
-9.41541e-07 -6.47062e-05 -1.88604e-06
-3.90316e-07 -1.88604e-06 -0.000118793
0.000733627 -5.40747e-06 -7.61674e-07
-5.40747e-06 -0.000124537 -2.538e-06
-7.61674e-07 -2.538e-06 -0.000156184
0.0009951 -2.3159e-06 -4.74647e-08
-2.3159e-06 1.21509e-05 -5.25584e-07
-4.74647e-08 -5.25584e-07 -3.80076e-05
0.000955446 -5.94083e-06 -1.10398e-06
-5.94083e-06 -2.61755e-05 -3.23768e-06
-1.10398e-06 -3.23768e-06 -2.61478e-05
0.000743504 -4.0698e-06 -1.00973e-07
-4.0698e-06 -0.000122214 -5.97316e-07
-1.00973e-07 -5.97316e-07 -0.000151729
0.00112956 -1.3352e-06 2.4134e-07
-1.3352e-06 7.73114e-05 1.31151e-06
2.4134e-07 1.31151e-06 3.08444e-05
0.00228952 -5.40715e-06 -4.15415e-06
-5.40715e-06 0.000630794 -4.07414e-06
-4.15415e-06 -4.07414e-06 0.000654729
0.00094532 -3.88576e-06 -8.82101e-08
-3.88576e-06 -3.32563e-05 -1.52465e-09
-8.82101e-08 -1.52465e-09 -3.20952e-05
0.000753378 -2.50421e-06 3.12185e-07
-2.50421e-06 -0.000119001 1.88695e-06
3.12185e-07 1.88695e-06 -0.000147077
0.00227987 -2.58846e-06 -7.13809e-07
-2.58846e-06 0.000624518 7.83988e-09
-7.13809e-07 7.83988e-09 0.000648883
0.00094244 -1.81373e-06 2.44815e-07
-1.81373e-06 -3.58777e-05 3.29501e-06
2.44815e-07 3.29501e-06 -3.40212e-05
0.0022665 1.85467e-07 -5.17574e-07
1.85467e-07 0.000617506 4.0476e-06
-5.17574e-07 4.0476e-06 0.000642062
0.000946274 -1.62741e-05 9.89186e-07
-1.62741e-05 0.00018177 -6.90972e-07
9.89186e-07 -6.90972e-07 0.0001025
0.000925232 -7.71637e-06 6.24092e-08
-7.71637e-06 0.00026257 6.13567e-07
6.24092e-08 6.13567e-07 0.000196121
0.000769136 8.011e-06 -7.40824e-06
8.011e-06 0.000116454 1.65618e-06
-7.40824e-06 1.65618e-06 0.000109256
0.00110973 2.23217e-05 -2.63208e-07
2.23217e-05 7.54096e-05 6.20003e-08
-2.63208e-07 6.20003e-08 7.61914e-06
0.000983088 2.53977e-05 -6.76639e-07
2.53977e-05 8.49183e-06 -8.17625e-07
-6.76639e-07 -8.17625e-07 -6.17249e-05
0.00121056 2.16842e-05 2.8598e-08
2.16842e-05 0.000127854 9.65515e-09
2.8598e-08 9.65515e-09 5.13394e-05
0.00124867 2.76748e-06 -4.13456e-06
2.76748e-06 0.000286359 -9.51268e-07
-4.13456e-06 -9.51268e-07 0.000262913
0.000935125 -1.91471e-05 1.22334e-07
-1.91471e-05 0.000138488 6.65834e-07
1.22334e-07 6.65834e-07 0.000103261
0.00111988 -5.54305e-06 -3.52636e-06
-5.54305e-06 0.000334392 5.98428e-06
-3.52636e-06 5.98428e-06 0.00030384
0.000334071 2.58717e-05 -2.37852e-05
2.58717e-05 0.000120026 1.10857e-05
-2.37852e-05 1.10857e-05 -0.00016612
0.00390652 6.41718e-05 -2.65481e-06
6.41718e-05 0.000806833 -1.71297e-05
-2.65481e-06 -1.71297e-05 0.000128583
0.00311765 0.000199205 2.05504e-05
0.000199205 0.000824587 -2.34712e-05
2.05504e-05 -2.34712e-05 0.000784259
0.00135032 -6.61953e-06 -3.88463e-06
-6.61953e-06 0.000405064 -6.74371e-07
-3.88463e-06 -6.74371e-07 0.00040954
0.000102986 -2.36839e-05 -1.45002e-05
-2.36839e-05 2.17013e-05 1.0117e-05
-1.45002e-05 1.0117e-05 -0.000268096
0.0050868 7.41874e-05 2.90262e-05
7.41874e-05 0.00098585 -4.56257e-05
2.90262e-05 -4.56257e-05 0.000298413
0.00020565 0.000107656 3.37403e-06
0.000107656 -0.000612413 1.10597e-05
3.37403e-06 1.10597e-05 -0.000574516
0.000888405 8.26482e-06 3.23601e-06
8.26482e-06 7.83297e-05 -1.02871e-06
3.23601e-06 -1.02871e-06 4.88536e-05
-0.000130292 -0.000105239 2.51877e-05
-0.000105239 -0.000332275 -4.1385e-05
2.51877e-05 -4.1385e-05 -0.000523342
0.00768698 8.52758e-05 2.67483e-05
8.52758e-05 0.00183149 -3.47326e-05
2.67483e-05 -3.47326e-05 0.00148266
0.000618873 5.47542e-06 -6.77524e-06
5.47542e-06 -0.000936859 6.47433e-05
-6.77524e-06 6.47433e-05 -0.000670725
-0.000409879 1.7335e-05 -3.95053e-06
1.7335e-05 -0.000700827 3.08084e-06
-3.95053e-06 3.08084e-06 -0.000686475
0.00113107 1.97749e-05 -2.47697e-07
1.97749e-05 8.73133e-05 -5.69098e-07
-2.47697e-07 -5.69098e-07 2.65837e-06
0.00105166 -9.21428e-07 2.07546e-09
-9.21428e-07 4.81766e-05 -2.76235e-07
2.07546e-09 -2.76235e-07 -3.33912e-05
0.00107192 -1.07167e-05 1.84611e-07
-1.07167e-05 6.28013e-05 9.34202e-07
1.84611e-07 9.34202e-07 -1.41134e-05
0.00108214 1.56726e-05 -1.99978e-07
1.56726e-05 6.48867e-05 -7.57152e-07
-1.99978e-07 -7.57152e-07 -1.03941e-05
0.00121267 2.7812e-05 4.96353e-07
2.7812e-05 0.000128436 1.29621e-06
4.96353e-07 1.29621e-06 5.76441e-05
0.00127635 1.74208e-05 -3.70294e-08
1.74208e-05 0.00015866 9.95596e-07
-3.70294e-08 9.95596e-07 9.60902e-05
0.00188385 -9.10122e-05 7.63741e-06
-9.10122e-05 5.09349e-05 -3.12987e-06
7.63741e-06 -3.12987e-06 6.60491e-05
0.00110455 -1.35897e-05 -9.48951e-07
-1.35897e-05 0.000229707 5.46593e-06
-9.48951e-07 5.46593e-06 1.5203e-05
0.0011104 1.35546e-05 2.44949e-07
1.35546e-05 8.21684e-05 6.00829e-07
2.44949e-07 6.00829e-07 -5.09139e-06
0.00120496 -8.84072e-06 9.34469e-07
-8.84072e-06 0.00013956 6.29607e-07
9.34469e-07 6.29607e-07 1.67758e-05
0.00112073 2.38742e-06 5.89396e-07
2.38742e-06 8.26828e-05 1.32788e-06
5.89396e-07 1.32788e-06 -1.42134e-05
0.00113289 1.95734e-05 1.61779e-07
1.95734e-05 8.93132e-05 3.54915e-07
1.61779e-07 3.54915e-07 4.15025e-07
0.00114929 1.77209e-05 8.8973e-08
1.77209e-05 9.36647e-05 2.63443e-07
8.8973e-08 2.63443e-07 -8.74098e-07
0.00138263 -7.03241e-05 4.64419e-07
-7.03241e-05 3.4891e-05 8.7826e-07
4.64419e-07 8.7826e-07 -7.32983e-05
0.00124379 -9.3823e-08 2.20594e-07
-9.3823e-08 0.0001339 -9.10887e-07
2.20594e-07 -9.10887e-07 3.44954e-05
0.00139378 2.95819e-05 -8.32504e-07
2.95819e-05 0.000342476 -4.87159e-07
-8.32504e-07 -4.87159e-07 0.000161087
0.000962616 1.52192e-05 -5.41888e-07
1.52192e-05 3.72057e-06 -1.21031e-06
-5.41888e-07 -1.21031e-06 -9.26152e-05
0.00172216 -2.2479e-05 -1.00131e-05
-2.2479e-05 0.000519128 1.04483e-05
-1.00131e-05 1.04483e-05 0.000320722
0.00095128 1.50741e-05 -9.0481e-07
1.50741e-05 8.35478e-06 -2.86466e-06
-9.0481e-07 -2.86466e-06 -8.44144e-05
0.00110232 -2.11412e-07 -4.60513e-07
-2.11412e-07 7.28114e-05 -7.42072e-07
-4.60513e-07 -7.42072e-07 -2.62115e-05
0.00122922 -2.38803e-06 5.28973e-07
-2.38803e-06 0.000315173 -5.39579e-07
5.28973e-07 -5.39579e-07 0.00022691
0.000919677 -4.58379e-06 4.45999e-07
-4.58379e-06 0.000164195 3.21682e-07
4.45999e-07 3.21682e-07 6.94266e-05
0.00116244 -2.25788e-06 -1.45421e-05
-2.25788e-06 0.000409088 1.4264e-06
-1.45421e-05 1.4264e-06 0.000332722
0.00148449 3.36619e-05 -4.9071e-08
3.36619e-05 0.000267533 4.45048e-06
-4.9071e-08 4.45048e-06 0.000182788
0.000804506 1.36135e-05 2.19666e-06
1.36135e-05 0.000175401 -2.9473e-06
2.19666e-06 -2.9473e-06 0.000137419
0.000689349 1.7532e-06 -3.80428e-07
1.7532e-06 8.36646e-07 -6.99484e-07
-3.80428e-07 -6.99484e-07 -8.17069e-05
0.00430174 -2.58425e-05 -8.94198e-06
-2.58425e-05 0.000846043 -1.20115e-05
-8.94198e-06 -1.20115e-05 0.000768011
-0.000484879 2.38154e-06 -1.14697e-06
2.38154e-06 -0.00143288 6.44653e-05
-1.14697e-06 6.44653e-05 -0.00103724
0.00042655 -1.01312e-05 -2.36944e-07
-1.01312e-05 -0.000247919 -2.27351e-06
-2.36944e-07 -2.27351e-06 -0.000287754
0.00117993 -1.19268e-05 4.44806e-06
-1.19268e-05 0.000283136 -4.14856e-06
4.44806e-06 -4.14856e-06 0.000300123
0.000920861 1.24891e-05 3.92412e-06
1.24891e-05 4.97052e-05 1.38372e-06
3.92412e-06 1.38372e-06 -2.6782e-05
0.000979964 -6.63186e-06 4.53724e-07
-6.63186e-06 0.000141387 2.16293e-06
4.53724e-07 2.16293e-06 6.41694e-05
0.000982462 -2.01312e-05 -9.74478e-07
-2.01312e-05 0.000139218 -3.96306e-07
-9.74478e-07 -3.96306e-07 9.208e-05
0.000625308 8.15917e-05 -2.41323e-06
8.15917e-05 0.00013222 6.13806e-09
-2.41323e-06 6.13806e-09 -0.000166386
0.00102887 2.43195e-05 1.06773e-06
2.43195e-05 8.57635e-05 -8.96777e-07
1.06773e-06 -8.96777e-07 0.000243572
-0.000351145 0.000123495 -8.55957e-07
0.000123495 -0.000794495 -1.15746e-05
-8.55957e-07 -1.15746e-05 -0.000719002
0.00710628 -3.11157e-05 9.44953e-06
-3.11157e-05 0.00144882 -2.34859e-05
9.44953e-06 -2.34859e-05 0.00159517
0.000686154 -1.60136e-06 3.28775e-07
-1.60136e-06 0.00026785 -1.1722e-05
3.28775e-07 -1.1722e-05 9.95701e-05
0.000970153 -1.27387e-05 -1.78661e-06
-1.27387e-05 0.000180799 1.33541e-06
-1.78661e-06 1.33541e-06 8.95571e-05
0.000885042 -2.38011e-06 -1.64339e-05
-2.38011e-06 0.000172938 7.02918e-06
-1.64339e-05 7.02918e-06 0.000128523
0.000521997 5.48341e-05 1.70215e-06
5.48341e-05 -0.000267218 2.23025e-06
1.70215e-06 2.23025e-06 -5.52378e-05
-0.00168808 0.000153805 2.51831e-05
0.000153805 -0.00121767 -4.33095e-05
2.51831e-05 -4.33095e-05 -0.00121191
0.00768469 0.000110605 -9.7045e-06
0.000110605 0.00212568 -5.95726e-06
-9.7045e-06 -5.95726e-06 0.0015933
0.000123911 -2.34505e-05 -1.72803e-05
-2.34505e-05 0.000109004 7.94583e-05
-1.72803e-05 7.94583e-05 -0.000462053
0.00132845 2.11645e-05 2.87252e-07
2.11645e-05 0.000217015 -6.41928e-07
2.87252e-07 -6.41928e-07 0.000101005
0.000857096 8.16089e-06 8.95403e-07
8.16089e-06 6.78295e-05 -2.00386e-06
8.95403e-07 -2.00386e-06 -0.000117867
0.000779203 -7.95909e-06 -1.79923e-07
-7.95909e-06 9.95108e-05 5.43606e-07
-1.79923e-07 5.43606e-07 -0.000128842
0.00110888 -2.41264e-05 1.74882e-07
-2.41264e-05 8.50462e-05 -6.78582e-07
1.74882e-07 -6.78582e-07 -1.54033e-05
0.00102364 -1.95506e-06 7.36011e-07
-1.95506e-06 7.29376e-05 1.22481e-06
7.36011e-07 1.22481e-06 -3.7881e-05
0.000983954 -1.72852e-05 -1.29012e-07
-1.72852e-05 8.01439e-05 5.34112e-07
-1.29012e-07 5.34112e-07 -4.23334e-05
0.000880236 -3.89432e-05 1.0645e-06
-3.89432e-05 7.3438e-05 -1.37014e-06
1.0645e-06 -1.37014e-06 -9.19393e-05
0.00125275 -3.6848e-05 3.52103e-07
-3.6848e-05 0.000161808 -4.5986e-08
3.52103e-07 -4.5986e-08 6.20426e-05
0.0012276 -4.33665e-05 -3.58722e-07
-4.33665e-05 0.00017194 4.76784e-07
-3.58722e-07 4.76784e-07 5.7338e-05
0.00132205 -5.2455e-05 1.0577e-07
-5.2455e-05 0.000213331 2.24862e-06
1.0577e-07 2.24862e-06 8.7376e-05
0.000861585 -3.41975e-05 4.2455e-07
-3.41975e-05 -2.49898e-05 -1.30192e-06
4.2455e-07 -1.30192e-06 -0.000118669
0.00122362 -4.38843e-05 -1.49319e-07
-4.38843e-05 0.000135464 3.89949e-08
-1.49319e-07 3.89949e-08 3.62531e-05
0.00145494 -5.06641e-05 -1.80531e-06
-5.06641e-05 0.000222394 1.45617e-06
-1.80531e-06 1.45617e-06 0.000124722
0.00137497 -4.52516e-05 -1.38277e-06
-4.52516e-05 0.000174154 1.62985e-06
-1.38277e-06 1.62985e-06 8.9685e-05
0.000938635 -3.4766e-05 -4.38523e-07
-3.4766e-05 -2.11399e-05 1.5433e-06
-4.38523e-07 1.5433e-06 -9.44967e-05
0.0011353 -4.12674e-05 -1.99548e-07
-4.12674e-05 6.5614e-05 2.15879e-07
-1.99548e-07 2.15879e-07 -1.82719e-05
0.00114513 -4.0754e-05 -4.32928e-09
-4.0754e-05 8.07561e-05 -8.25718e-07
-4.32928e-09 -8.25718e-07 -6.59345e-06
0.00123305 -3.46622e-05 1.50898e-07
-3.46622e-05 0.000130891 3.52746e-08
1.50898e-07 3.52746e-08 6.52055e-05
0.00113181 -3.55039e-05 7.52229e-07
-3.55039e-05 8.17711e-05 -5.36217e-07
7.52229e-07 -5.36217e-07 1.27738e-05
0.000966466 -1.86604e-05 -4.95807e-07
-1.86604e-05 1.11557e-05 6.03453e-07
-4.95807e-07 6.03453e-07 -5.22729e-05
0.00107501 -3.03435e-05 1.6078e-07
-3.03435e-05 6.48456e-05 -1.07166e-07
1.6078e-07 -1.07166e-07 -3.23649e-06
0.00110711 -3.60364e-05 2.19591e-06
-3.60364e-05 6.86341e-05 -1.20386e-06
2.19591e-06 -1.20386e-06 -3.87958e-06
0.00104304 -6.31127e-06 -1.5568e-06
-6.31127e-06 3.77174e-05 8.82604e-07
-1.5568e-06 8.82604e-07 -1.61039e-05
0.00110406 -2.39375e-05 -2.61043e-07
-2.39375e-05 6.97547e-05 -4.56337e-08
-2.61043e-07 -4.56337e-08 6.45732e-06
0.00114768 -3.30234e-05 3.58187e-07
-3.30234e-05 9.23163e-05 -1.39072e-07
3.58187e-07 -1.39072e-07 2.31003e-05
0.00098887 2.91457e-06 -2.05442e-06
2.91457e-06 7.71845e-06 2.01557e-06
-2.05442e-06 2.01557e-06 -2.87105e-05
0.00105574 -1.26014e-05 8.49652e-08
-1.26014e-05 4.08862e-05 8.73199e-08
8.49652e-08 8.73199e-08 -1.43189e-05
0.00102584 -2.62582e-05 1.22932e-06
-2.62582e-05 2.9115e-05 -1.92713e-07
1.22932e-06 -1.92713e-07 -3.74676e-05
0.00104694 -1.27032e-05 1.29964e-06
-1.27032e-05 3.78991e-05 -1.06696e-06
1.29964e-06 -1.06696e-06 -1.88803e-05
0.000990951 1.79158e-06 1.24469e-07
1.79158e-06 7.39302e-06 2.923e-08
1.24469e-07 2.923e-08 -2.91959e-05
0.000902072 1.1823e-05 -2.45917e-06
1.1823e-05 -3.92875e-05 3.38065e-06
-2.45917e-06 3.38065e-06 -4.52677e-05
0.000992648 8.3664e-07 1.46158e-06
8.3664e-07 7.36525e-06 -2.0608e-06
1.46158e-06 -2.0608e-06 -2.87332e-05
0.000918437 1.04436e-05 9.83236e-08
1.04436e-05 -3.4442e-05 8.18709e-09
9.83236e-08 8.18709e-09 -3.97431e-05
0.00250256 1.60651e-05 -9.22011e-06
1.60651e-05 0.000748398 4.07541e-06
-9.22011e-06 4.07541e-06 0.00076843
0.00093541 8.9214e-06 1.91487e-06
8.9214e-06 -2.94952e-05 -3.35645e-06
1.91487e-06 -3.35645e-06 -3.39829e-05
0.00179139 1.24611e-05 3.33978e-06
1.24611e-05 0.000392756 -1.23057e-06
3.33978e-06 -1.23057e-06 0.000410521
0.00244595 1.08396e-05 7.30757e-06
1.08396e-05 0.000714042 -4.16679e-06
7.30757e-06 -4.16679e-06 0.000735471
0.00103217 9.54717e-06 -7.42285e-07
9.54717e-06 3.03245e-05 -1.26965e-06
-7.42285e-07 -1.26965e-06 -2.48065e-05
0.000989894 -7.02754e-06 -8.72052e-07
-7.02754e-06 4.28949e-06 -2.00519e-06
-8.72052e-07 -2.00519e-06 -2.80137e-05
0.000937627 4.26493e-06 -3.57951e-07
4.26493e-06 -1.52602e-05 -5.66365e-07
-3.57951e-07 -5.66365e-07 -6.89114e-05
0.000953041 -7.85092e-06 -1.40899e-06
-7.85092e-06 -2.43219e-05 -3.23832e-06
-1.40899e-06 -3.23832e-06 -2.57595e-05
0.000866527 -5.62937e-06 -1.80003e-07
-5.62937e-06 -5.91073e-05 -6.03995e-07
-1.80003e-07 -6.03995e-07 -9.00182e-05
0.00113547 -3.37969e-06 1.88364e-07
-3.37969e-06 8.10015e-05 7.0385e-07
1.88364e-07 7.0385e-07 3.14696e-05
0.00231315 -8.1867e-06 -5.63619e-06
-8.1867e-06 0.000644822 -4.06431e-06
-5.63619e-06 -4.06431e-06 0.000668097
0.000942233 -5.91998e-06 -7.48673e-08
-5.91998e-06 -3.2657e-05 -5.53389e-09
-7.48673e-08 -5.53389e-09 -3.25427e-05
0.000737418 -4.0999e-06 3.67613e-07
-4.0999e-06 -0.00012504 1.30156e-06
3.67613e-07 1.30156e-06 -0.000154777
0.00229632 -5.33848e-06 -6.15809e-07
-5.33848e-06 0.000633909 1.54454e-08
-6.15809e-07 1.54454e-08 0.000657886
0.000936362 -3.85239e-06 6.22928e-07
-3.85239e-06 -3.76596e-05 3.28288e-06
6.22928e-07 3.28288e-06 -3.64397e-05
0.00228227 -2.53197e-06 1.45562e-06
-2.53197e-06 0.000625572 4.06301e-06
1.45562e-06 4.06301e-06 0.000649968
0.00108454 -2.65181e-06 7.47979e-07
-2.65181e-06 0.000226047 -3.30672e-06
7.47979e-07 -3.30672e-06 0.000160568
0.00097872 -1.61696e-05 3.682e-07
-1.61696e-05 0.000201014 3.44989e-08
3.682e-07 3.44989e-08 0.000123061
0.00079744 -7.97051e-06 -9.4493e-06
-7.97051e-06 0.000179486 2.19862e-06
-9.4493e-06 2.19862e-06 0.00011488
0.00100646 2.5748e-05 -7.02156e-07
2.5748e-05 1.73025e-05 -5.54909e-07
-7.02156e-07 -5.54909e-07 -5.20235e-05
0.00116196 3.15622e-05 -2.72773e-07
3.15622e-05 9.28633e-05 6.42826e-08
-2.72773e-07 6.42826e-08 2.01464e-05
0.00114976 2.70661e-05 4.62298e-07
2.70661e-05 9.51683e-05 1.01185e-06
4.62298e-07 1.01185e-06 2.77965e-05
0.000982014 2.52815e-05 2.51383e-08
2.52815e-05 8.31099e-06 3.63244e-08
2.51383e-08 3.63244e-08 -6.20129e-05
0.00113114 2.2154e-05 5.03052e-08
2.2154e-05 8.857e-05 4.09379e-07
5.03052e-08 4.09379e-07 1.1196e-05
0.00114737 3.12256e-05 -4.5415e-07
3.12256e-05 9.19298e-05 -2.42398e-07
-4.5415e-07 -2.42398e-07 1.39171e-05
0.00114332 2.99312e-05 -2.50078e-08
2.99312e-05 9.49523e-05 1.14861e-07
-2.50078e-08 1.14861e-07 1.20076e-05
0.000886874 2.17546e-05 -3.30814e-06
2.17546e-05 0.000112719 -5.1822e-06
-3.30814e-06 -5.1822e-06 7.55739e-05
0.000813321 1.85867e-06 4.95865e-09
1.85867e-06 2.24594e-05 6.99195e-07
4.95865e-09 6.99195e-07 -5.80152e-06
0.00105725 -1.94201e-05 7.35548e-07
-1.94201e-05 0.000210325 -8.53325e-07
7.35548e-07 -8.53325e-07 0.000175313
0.000538028 8.86767e-06 6.45472e-07
8.86767e-06 -9.82231e-05 -3.97539e-06
6.45472e-07 -3.97539e-06 -0.000133783
0.00228441 -5.41701e-05 -6.49871e-05
-5.41701e-05 0.00071687 5.90846e-05
-6.49871e-05 5.90846e-05 0.000242644
0.00180826 7.21377e-05 3.92372e-05
7.21377e-05 -0.000171445 -5.76527e-05
3.92372e-05 -5.76527e-05 -0.000751073
0.00528578 0.000145069 4.84833e-06
0.000145069 0.00130093 -2.94369e-05
4.84833e-06 -2.94369e-05 0.00146282
0.000710084 -0.000105911 -3.12141e-05
-0.000105911 -7.80206e-05 2.82422e-05
-3.12141e-05 2.82422e-05 -0.000374152
0.00308287 -5.36055e-06 1.30441e-05
-5.36055e-06 -0.000337479 -4.67503e-05
1.30441e-05 -4.67503e-05 -0.000841011
0.00334928 1.95131e-05 -7.11463e-06
1.95131e-05 0.000102439 -3.30798e-07
-7.11463e-06 -3.30798e-07 0.000397487
0.00105345 8.99598e-06 2.48518e-06
8.99598e-06 0.000125391 3.33195e-06
2.48518e-06 3.33195e-06 0.000163986
0.00111667 -0.000104074 2.38412e-05
-0.000104074 0.000263892 -1.7492e-05
2.38412e-05 -1.7492e-05 0.000109387
0.00362711 -9.63148e-05 -1.7594e-05
-9.63148e-05 -0.00016243 -0.000107476
-1.7594e-05 -0.000107476 -0.00067003
-0.000393582 -6.78694e-05 8.36897e-06
-6.78694e-05 -0.00114498 4.95948e-05
8.36897e-06 4.95948e-05 -0.000968523
-0.00114681 -1.62506e-05 -5.05968e-06
-1.62506e-05 -0.00116621 -5.18743e-07
-5.05968e-06 -5.18743e-07 -0.00107697
0.0011531 2.96902e-05 -1.8028e-06
2.96902e-05 9.62048e-05 -4.58857e-07
-1.8028e-06 -4.58857e-07 7.82971e-06
0.00115358 1.70925e-05 4.09892e-08
1.70925e-05 9.85621e-05 -1.61778e-07
4.09892e-08 -1.61778e-07 1.3635e-05
0.00106493 -1.07469e-07 1.66569e-08
-1.07469e-07 5.52007e-05 3.09449e-07
1.66569e-08 3.09449e-07 -2.64968e-05
0.0011023 1.49812e-05 -6.10085e-08
1.49812e-05 7.46039e-05 -2.25102e-08
-6.10085e-08 -2.25102e-08 -7.94628e-07
0.00132823 -7.03212e-05 1.15344e-05
-7.03212e-05 -3.23196e-05 -3.69483e-06
1.15344e-05 -3.69483e-06 -0.000109406
0.00142409 2.60223e-05 7.89953e-07
2.60223e-05 0.000362588 4.56342e-06
7.89953e-07 4.56342e-06 0.00017739
0.00113185 2.08117e-05 4.2169e-07
2.08117e-05 8.89308e-05 8.24545e-07
4.2169e-07 8.24545e-07 9.54159e-08
0.00107691 1.122e-05 -2.42263e-07
1.122e-05 5.74289e-05 5.7413e-07
-2.42263e-07 5.7413e-07 -3.74294e-05
0.0012559 -1.04903e-06 3.61705e-07
-1.04903e-06 0.000137654 1.03836e-06
3.61705e-07 1.03836e-06 3.91956e-05
0.00106877 1.92761e-05 -7.37572e-07
1.92761e-05 5.65974e-05 -1.27255e-07
-7.37572e-07 -1.27255e-07 -3.92726e-05
0.00108592 -8.37163e-07 -4.36405e-07
-8.37163e-07 6.22653e-05 -4.46936e-08
-4.36405e-07 -4.46936e-08 -3.68855e-05
0.00110742 -1.14492e-05 1.21218e-05
-1.14492e-05 0.000282679 -2.06491e-06
1.21218e-05 -2.06491e-06 0.000124355
0.00100467 5.76266e-06 1.35781e-06
5.76266e-06 3.71488e-05 7.56008e-09
1.35781e-06 7.56008e-09 -5.30944e-05
0.00120463 1.14876e-05 -5.57489e-07
1.14876e-05 0.000128625 -1.15147e-06
-5.57489e-07 -1.15147e-06 2.38002e-05
0.00115984 1.49028e-05 1.07086e-05
1.49028e-05 0.000495591 1.31585e-05
1.07086e-05 1.31585e-05 0.000431018
0.00142891 -1.59129e-05 2.91733e-06
-1.59129e-05 0.000249961 -5.18277e-06
2.91733e-06 -5.18277e-06 0.000112512
0.0013915 -5.81254e-07 -7.03787e-07
-5.81254e-07 0.000469032 -8.46257e-09
-7.03787e-07 -8.46257e-09 0.000366489
0.000921107 -3.46805e-06 2.51816e-07
-3.46805e-06 0.000122341 -5.08455e-07
2.51816e-07 -5.08455e-07 3.43545e-05
0.000407959 -5.17801e-06 5.379e-07
-5.17801e-06 -0.000156181 6.43805e-07
5.379e-07 6.43805e-07 -0.000251193
0.00216938 5.0288e-06 -4.78704e-06
5.0288e-06 0.000605567 9.25266e-06
-4.78704e-06 9.25266e-06 0.000532346
0.00028403 3.81548e-05 -4.11259e-06
3.81548e-05 0.000133784 1.61384e-05
-4.11259e-06 1.61384e-05 0.000108059
0.000720654 -7.64169e-06 6.8222e-07
-7.64169e-06 -1.82413e-05 -4.0807e-07
6.8222e-07 -4.0807e-07 -9.83564e-05
0.00291937 9.1385e-05 2.5596e-06
9.1385e-05 0.000146923 -8.42455e-05
2.5596e-06 -8.42455e-05 -0.000591878
0.00514379 0.00015847 -5.1709e-06
0.00015847 0.0013275 2.60835e-05
-5.1709e-06 2.60835e-05 0.00154096
0.00110981 -2.15668e-05 -1.09622e-06
-2.15668e-05 0.000213082 -3.90783e-06
-1.09622e-06 -3.90783e-06 0.000166855
0.00197074 2.02143e-05 4.32681e-06
2.02143e-05 0.000676578 -8.21851e-06
4.32681e-06 -8.21851e-06 0.000815822
0.000575354 6.51607e-08 -5.51371e-06
6.51607e-08 0.000162232 -7.96375e-07
-5.51371e-06 -7.96375e-07 2.05514e-05
0.00103295 -1.30353e-05 -1.02815e-06
-1.30353e-05 0.000219281 1.35943e-08
-1.02815e-06 1.35943e-08 0.000129137
0.00104484 -3.73461e-06 -5.5027e-06
-3.73461e-06 0.000271062 5.79026e-07
-5.5027e-06 5.79026e-07 0.000229188
0.00119237 -2.00879e-05 -4.49382e-07
-2.00879e-05 0.000632041 1.27754e-05
-4.49382e-07 1.27754e-05 0.000424384
0.000193078 5.81057e-05 1.17636e-06
5.81057e-05 -0.000430518 -3.92212e-06
1.17636e-06 -3.92212e-06 -0.000230839
2.74734e-05 0.000166325 2.6537e-06
0.000166325 -0.000585569 -8.75926e-06
2.6537e-06 -8.75926e-06 -0.000592849
0.00224754 1.38537e-05 1.28413e-05
1.38537e-05 -9.66467e-05 -1.86495e-05
1.28413e-05 -1.86495e-05 -0.000731779
0.000301448 -2.28264e-05 2.95094e-06
-2.28264e-05 0.000104484 -2.21928e-05
2.95094e-06 -2.21928e-05 -0.000118945
0.00114512 -6.5032e-06 -9.86471e-06
-6.5032e-06 0.000388161 2.21065e-06
-9.86471e-06 2.21065e-06 0.000310771
-0.000981397 2.56839e-05 1.30355e-06
2.56839e-05 -0.000952574 1.04022e-06
1.30355e-06 1.04022e-06 -0.000921534
-1.48e-05 0.000124282 4.36567e-05
0.000124282 -0.000200414 -3.14879e-05
4.36567e-05 -3.14879e-05 -0.000110402
0.00605291 0.00019348 2.0053e-05
0.00019348 0.00172102 -4.07465e-05
2.0053e-05 -4.07465e-05 0.001101
0.00182123 -0.000106731 -3.58497e-05
-0.000106731 0.00027186 9.51599e-05
-3.58497e-05 9.51599e-05 -0.000263962
0.001071 6.70492e-06 -1.85002e-07
6.70492e-06 0.000169606 -3.62607e-06
-1.85002e-07 -3.62607e-06 -1.51565e-05
0.000911742 -3.55591e-06 -1.27662e-07
-3.55591e-06 0.000158738 -6.32812e-07
-1.27662e-07 -6.32812e-07 -6.75911e-05
0.00104949 -4.68072e-05 -1.97856e-07
-4.68072e-05 0.000213117 4.13559e-06
-1.97856e-07 4.13559e-06 -3.1724e-05
0.000950544 -1.76066e-05 -3.2163e-07
-1.76066e-05 6.2877e-05 4.37402e-07
-3.2163e-07 4.37402e-07 -5.75847e-05
0.000815006 -3.52504e-05 2.57831e-07
-3.52504e-05 4.42125e-05 -1.07926e-07
2.57831e-07 -1.07926e-07 -0.000118331
0.00116416 -6.48518e-05 1.91554e-06
-6.48518e-05 0.000162998 2.20835e-06
1.91554e-06 2.20835e-06 -3.47041e-07
0.00144432 -4.83833e-05 -5.09245e-07
-4.83833e-05 0.000274388 -4.06276e-07
-5.09245e-07 -4.06276e-07 0.000156352
0.00130107 -5.25559e-05 -3.01783e-07
-5.25559e-05 0.00019974 8.22893e-07
-3.01783e-07 8.22893e-07 7.19226e-05
0.00149441 -6.13488e-05 -2.1232e-06
-6.13488e-05 0.000247875 -1.90715e-07
-2.1232e-06 -1.90715e-07 0.000129888
0.0013079 -4.49597e-05 1.20941e-07
-4.49597e-05 0.000175877 -1.42296e-06
1.20941e-07 -1.42296e-06 7.57106e-05
0.0014084 -5.02786e-05 -3.95398e-07
-5.02786e-05 0.000197808 -5.00506e-08
-3.95398e-07 -5.00506e-08 9.91456e-05
0.00133787 -4.8716e-05 -1.02225e-06
-4.8716e-05 0.000150122 1.30191e-07
-1.02225e-06 1.30191e-07 5.84516e-05
0.00126671 -4.1607e-05 -1.19824e-06
-4.1607e-05 0.000101341 -6.17542e-08
-1.19824e-06 -6.17542e-08 2.24766e-05
0.00138091 -4.19804e-05 -1.29307e-06
-4.19804e-05 0.000177465 1.83627e-06
-1.29307e-06 1.83627e-06 0.000101207
0.00129403 -4.42509e-05 -1.1628e-07
-4.42509e-05 0.000135397 -6.97025e-09
-1.1628e-07 -6.97025e-09 5.0464e-05
0.00092639 -3.23469e-05 -1.58802e-07
-3.23469e-05 -2.33495e-05 4.48353e-07
-1.58802e-07 4.48353e-07 -9.02301e-05
0.00106017 -3.6299e-05 5.22378e-07
-3.6299e-05 3.8275e-05 -1.37145e-07
5.22378e-07 -1.37145e-07 -3.45312e-05
0.00107738 -4.07134e-05 6.26091e-07
-4.07134e-05 3.86106e-05 -1.46295e-06
6.26091e-07 -1.46295e-06 -4.65272e-05
0.00112037 -2.58914e-05 -2.31349e-07
-2.58914e-05 7.86179e-05 3.89117e-07
-2.31349e-07 3.89117e-07 1.58181e-05
0.0011544 -3.35752e-05 6.04602e-08
-3.35752e-05 9.33917e-05 -1.51222e-07
6.04602e-08 -1.51222e-07 2.73893e-05
0.00101291 -3.37119e-05 1.26482e-06
-3.37119e-05 2.47564e-05 -9.86428e-07
1.26482e-06 -9.86428e-07 -4.30823e-05
0.00101055 8.14115e-07 -9.30908e-07
8.14115e-07 2.79044e-05 9.829e-07
-9.30908e-07 9.829e-07 -2.62831e-05
0.00100743 -1.82478e-05 -1.57338e-07
-1.82478e-05 3.0395e-05 1.09768e-07
-1.57338e-07 1.09768e-07 -3.2684e-05
0.00115378 -3.12114e-05 6.25719e-07
-3.12114e-05 0.00010247 -4.30486e-07
6.25719e-07 -4.30486e-07 3.50274e-05
0.000966788 7.92838e-06 -2.27294e-06
7.92838e-06 1.81979e-07 1.84234e-06
-2.27294e-06 1.84234e-06 -3.58022e-05
0.00104949 -6.57377e-06 -2.29947e-07
-6.57377e-06 4.0169e-05 -2.80992e-08
-2.29947e-07 -2.80992e-08 -1.35204e-05
0.00111141 -2.42971e-05 5.44715e-07
-2.42971e-05 7.24059e-05 -2.89304e-07
5.44715e-07 -2.89304e-07 9.24824e-06
0.000934918 1.33055e-05 -3.90981e-06
1.33055e-05 -2.0421e-05 4.54069e-06
-3.90981e-06 4.54069e-06 -2.70051e-05
0.000986622 3.90909e-06 9.42829e-08
3.90909e-06 6.62414e-06 5.26135e-08
9.42829e-08 5.26135e-08 -2.97404e-05
0.00105046 -1.24011e-05 1.56232e-06
-1.24011e-05 3.78244e-05 -8.64634e-07
1.56232e-06 -8.64634e-07 -1.72041e-05
0.000986729 2.33741e-06 1.82955e-06
2.33741e-06 5.27063e-06 -2.01159e-06
1.82955e-06 -2.01159e-06 -3.12657e-05
0.000908299 1.18921e-05 1.31104e-07
1.18921e-05 -3.61244e-05 2.49921e-08
1.31104e-07 2.49921e-08 -4.21493e-05
0.0025295 1.86355e-05 -1.02878e-05
1.86355e-05 0.000765444 4.01403e-06
-1.02878e-05 4.01403e-06 0.000784688
0.000926112 1.04837e-05 2.28103e-06
1.04837e-05 -3.07033e-05 -3.35752e-06
2.28103e-06 -3.35752e-06 -3.60516e-05
0.00249195 1.60733e-05 3.35771e-07
1.60733e-05 0.000743493 3.74448e-08
3.35771e-07 3.74448e-08 0.000763505
0.0024634 1.34916e-05 8.61111e-06
1.34916e-05 0.000726103 -4.12866e-06
8.61111e-06 -4.12866e-06 0.00074683
0.00108155 2.56624e-05 -7.3444e-07
2.56624e-05 5.39181e-05 -4.04686e-07
-7.3444e-07 -4.04686e-07 -1.42307e-05
0.00104647 7.26712e-06 -8.73296e-07
7.26712e-06 3.53127e-05 -1.18486e-06
-8.73296e-07 -1.18486e-06 -2.12569e-05
0.000977434 -6.8699e-06 -1.31128e-06
-6.8699e-06 6.3329e-07 -2.04829e-06
-1.31128e-06 -2.04829e-06 -3.40593e-05
0.00104566 9.74675e-06 -6.5103e-08
9.74675e-06 3.69809e-05 9.47072e-09
-6.5103e-08 9.47072e-09 -1.82631e-05
0.000946818 -9.5184e-06 -1.78202e-06
-9.5184e-06 -2.36624e-05 -3.27834e-06
-1.78202e-06 -3.27834e-06 -2.6849e-05
0.000992244 -8.0706e-06 -3.76318e-08
-8.0706e-06 5.48079e-06 -1.33522e-08
-3.76318e-08 -1.33522e-08 -2.68028e-05
0.00103893 1.06209e-05 1.55028e-07
1.06209e-05 3.49815e-05 8.43755e-07
1.55028e-07 8.43755e-07 -1.81709e-05
0.00235107 -1.09254e-05 -7.02786e-06
-1.09254e-05 0.000666834 -4.07292e-06
-7.02786e-06 -4.07292e-06 0.000689178
0.000936831 -7.84478e-06 -8.26965e-08
-7.84478e-06 -3.21755e-05 -1.37093e-08
-8.26965e-08 -1.37093e-08 -3.35198e-05
0.00100109 -5.84748e-06 4.91857e-07
-5.84748e-06 7.14367e-06 1.29281e-06
4.91857e-07 1.29281e-06 -2.30382e-05
0.00231954 -8.12516e-06 -5.28947e-07
-8.12516e-06 0.000647592 2.11442e-08
-5.28947e-07 2.11442e-08 0.000670948
0.000929431 -5.89701e-06 9.44742e-07
-5.89701e-06 -3.89371e-05 3.26298e-06
9.44742e-07 3.26298e-06 -3.87369e-05
0.00230289 -5.26696e-06 3.345e-06
-5.26696e-06 0.000636907 4.0604e-06
3.345e-06 4.0604e-06 0.000660927
0.000837906 8.21129e-06 1.05867e-06
8.21129e-06 0.000118032 -3.17568e-06
1.05867e-06 -3.17568e-06 3.06667e-05
0.000908343 -4.10917e-06 -1.78115e-07
-4.10917e-06 0.000115109 -2.77342e-06
-1.78115e-07 -2.77342e-06 4.57337e-05
0.00101774 -1.60956e-05 -1.99706e-07
-1.60956e-05 0.000224427 2.18192e-06
-1.99706e-07 2.18192e-06 0.000147756
0.00104955 2.58337e-05 8.59853e-08
2.58337e-05 3.93423e-05 4.96329e-08
8.59853e-08 4.96329e-08 -2.97546e-05
0.00111651 3.08157e-05 2.8446e-07
3.08157e-05 7.05463e-05 1.30793e-07
2.8446e-07 1.30793e-07 -2.50369e-06
0.00106942 2.71963e-05 -6.58057e-07
2.71963e-05 4.76938e-05 -2.95738e-07
-6.58057e-07 -2.95738e-07 -2.41386e-05
0.00105308 3.00761e-05 -8.59436e-07
3.00761e-05 4.00606e-05 -3.48682e-07
-8.59436e-07 -3.48682e-07 -3.47841e-05
0.00117478 3.23072e-05 -6.35039e-08
3.23072e-05 9.93739e-05 9.16713e-08
-6.35039e-08 9.16713e-08 2.39637e-05
0.000980011 2.51478e-05 7.19585e-07
2.51478e-05 7.71703e-06 8.07281e-07
7.19585e-07 8.07281e-07 -6.27171e-05
0.00104914 2.33291e-05 2.69209e-07
2.33291e-05 4.80824e-05 9.47537e-07
2.69209e-07 9.47537e-07 -3.01839e-05
0.00113939 3.11755e-05 6.3095e-09
3.11755e-05 8.7768e-05 2.67413e-09
6.3095e-09 2.67413e-09 9.88007e-06
0.00109991 2.82779e-05 2.59229e-07
2.82779e-05 7.33378e-05 4.04006e-07
2.59229e-07 4.04006e-07 -9.36112e-06
0.00118717 3.22214e-05 -5.20533e-07
3.22214e-05 0.000113621 1.50487e-07
-5.20533e-07 1.50487e-07 3.15671e-05
0.000490182 -4.06186e-06 -7.80284e-06
-4.06186e-06 -2.90314e-05 -1.40189e-05
-7.80284e-06 -1.40189e-05 -8.11929e-05
0.000815151 2.03632e-05 -1.95837e-06
2.03632e-05 6.49254e-05 -1.15745e-06
-1.95837e-06 -1.15745e-06 2.63449e-05
0.000449458 9.13492e-07 -3.80347e-07
9.13492e-07 -0.000198041 -1.39365e-06
-3.80347e-07 -1.39365e-06 -0.00023103
0.000373269 1.26445e-05 1.01445e-05
1.26445e-05 -0.000277121 3.90086e-06
1.01445e-05 3.90086e-06 -0.000257852
0.000181312 1.35857e-05 -4.56677e-07
1.35857e-05 -0.0011759 -6.40129e-05
-4.56677e-07 -6.40129e-05 -0.000886454
0.00143584 -0.000138059 -4.83066e-05
-0.000138059 0.000125786 9.76963e-05
-4.83066e-05 9.76963e-05 -0.000285735
0.006669 7.52631e-05 -4.19091e-06
7.52631e-05 0.00147041 -3.68417e-05
-4.19091e-06 -3.68417e-05 0.00109288
0.000535997 -0.000129194 -1.55487e-05
-0.000129194 -0.000180657 2.33771e-05
-1.55487e-05 2.33771e-05 -0.000564278
0.00682552 -1.63738e-05 -6.31173e-06
-1.63738e-05 0.000927303 4.21347e-06
-6.31173e-06 4.21347e-06 0.00108539
0.00193989 -0.000118106 3.17032e-06
-0.000118106 5.49295e-05 -1.8557e-05
3.17032e-06 -1.8557e-05 4.25188e-05
-0.000411076 -1.85004e-05 -7.78141e-08
-1.85004e-05 -0.000743571 5.94628e-06
-7.78141e-08 5.94628e-06 -0.000626284
0.0010874 -6.34816e-05 1.11525e-06
-6.34816e-05 0.000295052 -5.34768e-05
1.11525e-06 -5.34768e-05 -0.000135186
0.00689705 -0.000137543 -1.4482e-05
-0.000137543 0.00170382 4.23607e-05
-1.4482e-05 4.23607e-05 0.00121585
0.00341415 -0.000172313 6.17834e-06
-0.000172313 0.000966131 2.32995e-05
6.17834e-06 2.32995e-05 0.00096208
0.00151601 -5.81323e-05 -2.08643e-06
-5.81323e-05 0.000358353 -1.27762e-06
-2.08643e-06 -1.27762e-06 0.000549812
0.00107637 3.31453e-05 -1.17525e-06
3.31453e-05 6.68749e-05 2.22603e-07
-1.17525e-06 2.22603e-07 -1.79633e-05
0.00115894 3.02777e-05 -2.80369e-07
3.02777e-05 0.00010106 -6.27944e-08
-2.80369e-07 -6.27944e-08 1.29153e-05
0.00118165 1.34977e-05 2.68361e-07
1.34977e-05 0.00011254 2.70849e-07
2.68361e-07 2.70849e-07 2.73372e-05
0.000393117 1.68905e-07 6.55472e-06
1.68905e-07 -2.23966e-05 -9.14789e-06
6.55472e-06 -9.14789e-06 -0.000142831
0.00102956 -6.03426e-06 6.33236e-07
-6.03426e-06 5.28512e-05 4.52109e-06
6.33236e-07 4.52109e-06 -3.50067e-05
0.00117457 2.06988e-05 4.53807e-07
2.06988e-05 0.000109322 1.11285e-06
4.53807e-07 1.11285e-06 1.39754e-05
0.00108072 2.31374e-06 3.22601e-07
2.31374e-06 5.71586e-05 6.11537e-07
3.22601e-07 6.11537e-07 -4.21651e-05
0.00118316 9.8182e-06 5.59282e-07
9.8182e-06 0.000121304 -2.38245e-08
5.59282e-07 -2.38245e-08 1.64286e-05
0.00106665 -1.03063e-05 1.42145e-07
-1.03063e-05 9.05222e-05 -5.93862e-07
1.42145e-07 -5.93862e-07 -5.52939e-05
0.000177913 5.6884e-06 -4.13624e-06
5.6884e-06 5.45793e-05 5.64899e-06
-4.13624e-06 5.64899e-06 -3.28928e-05
0.000927782 2.46323e-05 -3.45855e-06
2.46323e-05 3.4226e-05 -8.26613e-07
-3.45855e-06 -8.26613e-07 -0.000102591
0.000720072 1.39687e-05 -5.71936e-06
1.39687e-05 0.000237884 1.58206e-05
-5.71936e-06 1.58206e-05 0.00012107
0.00209567 -4.92585e-06 -1.20269e-05
-4.92585e-06 0.00100016 1.69887e-07
-1.20269e-05 1.69887e-07 0.000917695
0.00088697 -6.56145e-07 -6.29876e-07
-6.56145e-07 0.00015301 -5.28939e-07
-6.29876e-07 -5.28939e-07 5.0727e-05
0.00067875 -4.48695e-06 5.53268e-07
-4.48695e-06 -2.96184e-05 -2.87425e-07
5.53268e-07 -2.87425e-07 -0.000117538
-0.000134569 2.04842e-05 9.60903e-06
2.04842e-05 -0.000214206 1.74412e-05
9.60903e-06 1.74412e-05 -0.000328655
0.000190943 1.91039e-05 1.08209e-05
1.91039e-05 3.0943e-05 -4.32497e-05
1.08209e-05 -4.32497e-05 -0.000628553
0.00108603 -1.33625e-05 -3.10955e-07
-1.33625e-05 0.000251576 -2.22175e-06
-3.10955e-07 -2.22175e-06 0.000162575
0.00713772 0.000112826 2.24226e-05
0.000112826 0.00187087 -2.39055e-05
2.24226e-05 -2.39055e-05 0.00101829
0.00297183 0.000215576 -1.83031e-05
0.000215576 0.00091185 2.02757e-05
-1.83031e-05 2.02757e-05 0.000828003
0.00116402 -5.11113e-06 4.9606e-06
-5.11113e-06 0.000343599 -9.48019e-06
4.9606e-06 -9.48019e-06 0.000304842
5.71081e-05 6.09046e-05 7.40634e-07
6.09046e-05 -0.000466834 1.47296e-06
7.40634e-07 1.47296e-06 -0.000287075
0.000353464 -4.24052e-06 -2.11612e-07
-4.24052e-06 0.000130251 2.50264e-07
-2.11612e-07 2.50264e-07 -7.47794e-05
0.00099721 -6.39136e-06 1.39588e-07
-6.39136e-06 0.000292886 -1.09886e-07
1.39588e-07 -1.09886e-07 0.000216862
-0.00130345 2.98825e-05 8.50608e-06
2.98825e-05 -0.00116235 -1.60286e-06
8.50608e-06 -1.60286e-06 -0.0011132
0.00133551 -7.10226e-05 -3.09402e-07
-7.10226e-05 0.000385846 3.65647e-05
-3.09402e-07 3.65647e-05 -4.4627e-05
0.00228091 0.000177327 -2.31683e-06
0.000177327 0.000699743 -3.87929e-06
-2.31683e-06 -3.87929e-06 0.00065528
0.00517152 0.000103095 1.25349e-05
0.000103095 0.00111152 -1.22215e-05
1.25349e-05 -1.22215e-05 0.000221971
0.00109595 -2.80368e-05 8.78674e-06
-2.80368e-05 0.000206436 -8.37633e-06
8.78674e-06 -8.37633e-06 5.92327e-05
-0.00110698 5.93203e-06 -9.33956e-06
5.93203e-06 -0.000956405 8.6267e-07
-9.33956e-06 8.6267e-07 -0.000979946
0.00253852 0.00012123 2.61197e-05
0.00012123 0.000902236 -1.16481e-05
2.61197e-05 -1.16481e-05 0.000820341
0.00324556 0.000135525 -4.44314e-05
0.000135525 0.000522047 2.37527e-05
-4.44314e-05 2.37527e-05 -0.00014396
0.00054891 -3.52819e-05 -3.71898e-06
-3.52819e-05 -0.000151457 4.24787e-05
-3.71898e-06 4.24787e-05 -0.000359338
0.00106764 -1.43302e-06 6.29513e-07
-1.43302e-06 0.000224323 7.27074e-08
6.29513e-07 7.27074e-08 3.17467e-06
0.000894747 -4.69523e-05 -4.39788e-07
-4.69523e-05 0.000155345 3.67279e-07
-4.39788e-07 3.67279e-07 -0.000101831
0.00182754 -9.78454e-05 -1.16176e-06
-9.78454e-05 0.000492986 4.52783e-06
-1.16176e-06 4.52783e-06 0.000295859
0.000743855 -3.1747e-05 -6.72903e-07
-3.1747e-05 1.06415e-05 1.2284e-06
-6.72903e-07 1.2284e-06 -0.000148006
0.00102111 -6.07087e-05 6.10482e-07
-6.07087e-05 0.000100294 -3.60996e-07
6.10482e-07 -3.60996e-07 -6.31718e-05
0.00129417 -7.75287e-05 -2.85342e-06
-7.75287e-05 0.000119068 -1.06408e-06
-2.85342e-06 -1.06408e-06 -2.89993e-06
0.00123552 -5.18618e-05 -6.83805e-07
-5.18618e-05 0.000164377 -1.06623e-06
-6.83805e-07 -1.06623e-06 3.48539e-05
0.00122444 -5.7024e-05 -8.32465e-07
-5.7024e-05 0.000114279 -1.2066e-06
-8.32465e-07 -1.2066e-06 -1.56312e-06
0.00161224 -5.85863e-05 -1.64425e-06
-5.85863e-05 0.000252282 -8.89754e-07
-1.64425e-06 -8.89754e-07 0.000166592
0.0013456 -4.96115e-05 4.31213e-07
-4.96115e-05 0.000165067 -1.81332e-06
4.31213e-07 -1.81332e-06 6.54489e-05
0.00123935 -4.69552e-05 4.68128e-07
-4.69552e-05 9.95143e-05 -5.61364e-07
4.68128e-07 -5.61364e-07 9.24865e-06
0.00131474 -4.24591e-05 -1.16745e-06
-4.24591e-05 0.000104398 -1.07207e-06
-1.16745e-06 -1.07207e-06 3.21852e-05
0.00126962 -3.70486e-05 -8.78371e-07
-3.70486e-05 7.23472e-05 -5.22463e-07
-8.78371e-07 -5.22463e-07 5.67591e-06
0.00118656 -3.89891e-05 -9.93322e-07
-3.89891e-05 6.79041e-05 7.55683e-07
-9.93322e-07 7.55683e-07 -7.67116e-06
0.00121267 -4.05074e-05 1.53002e-07
-4.05074e-05 7.25701e-05 -5.31021e-07
1.53002e-07 -5.31021e-07 -5.42721e-06
0.00120578 -3.70192e-05 -6.61982e-07
-3.70192e-05 0.000100753 1.42957e-06
-6.61982e-07 1.42957e-06 3.08304e-05
0.00119764 -3.97747e-05 -2.91744e-07
-3.97747e-05 9.06093e-05 2.31775e-07
-2.91744e-07 2.31775e-07 1.31791e-05
0.00119636 -4.2987e-05 7.22921e-07
-4.2987e-05 8.87624e-05 -1.30388e-06
7.22921e-07 -1.30388e-06 3.36577e-06
0.00107528 -2.99574e-05 -4.49893e-07
-2.99574e-05 5.10765e-05 1.61771e-07
-4.49893e-07 1.61771e-07 -1.05778e-05
0.000998736 -3.32196e-05 -8.18536e-08
-3.32196e-05 1.21058e-05 -3.81904e-07
-8.18536e-08 -3.81904e-07 -5.41425e-05
0.00118339 -3.78529e-05 1.20213e-06
-3.78529e-05 9.8438e-05 -1.72025e-06
1.20213e-06 -1.72025e-06 2.61867e-05
0.00101896 -2.95226e-06 -8.06505e-07
-2.95226e-06 3.39297e-05 9.78484e-07
-8.06505e-07 9.78484e-07 -2.13367e-05
0.00105574 -2.40712e-05 1.37223e-07
-2.40712e-05 4.82379e-05 1.62941e-07
1.37223e-07 1.62941e-07 -1.45953e-05
0.00107248 -3.24734e-05 4.93219e-07
-3.24734e-05 5.43099e-05 -2.80088e-07
4.93219e-07 -2.80088e-07 -1.20052e-05
0.000944586 1.43601e-05 -2.09068e-06
1.43601e-05 -4.87565e-06 1.75871e-06
-2.09068e-06 1.75871e-06 -4.14288e-05
0.00103293 -5.77995e-07 -6.47071e-08
-5.77995e-07 3.78781e-05 -2.85776e-08
-6.47071e-08 -2.85776e-08 -1.62659e-05
0.0010479 -1.82143e-05 1.0732e-07
-1.82143e-05 4.94163e-05 -2.76099e-07
1.0732e-07 -2.76099e-07 -1.33195e-05
0.00155835 1.70596e-05 -6.65434e-06
1.70596e-05 0.00029286 3.07698e-06
-6.65434e-06 3.07698e-06 0.000289248
0.00097643 8.16842e-06 -3.51376e-08
8.16842e-06 4.83425e-06 2.55434e-08
-3.51376e-08 2.55434e-08 -3.11301e-05
0.00105288 -6.85503e-06 1.07571e-06
-6.85503e-06 4.11281e-05 -8.98711e-07
1.07571e-06 -8.98711e-07 -1.24116e-05
0.00118972 1.52822e-05 -9.51324e-06
1.52822e-05 0.000105881 3.90664e-06
-9.51324e-06 3.90664e-06 0.000118158
0.00124899 1.44315e-05 -2.06985e-06
1.44315e-05 0.000135808 6.01251e-07
-2.06985e-06 6.01251e-07 0.000130859
0.000983298 4.37481e-06 2.08008e-06
4.37481e-06 4.97791e-06 -1.86722e-06
2.08008e-06 -1.86722e-06 -3.1309e-05
0.000914676 1.19649e-05 2.73293e-06
1.19649e-05 -3.29059e-05 -3.31906e-06
2.73293e-06 -3.31906e-06 -3.89733e-05
0.00250815 1.86058e-05 3.02528e-07
1.86058e-05 0.000755226 4.58276e-08
3.02528e-07 4.58276e-08 0.000774511
0.00247864 1.60713e-05 9.72287e-06
1.60713e-05 0.000737256 -4.08074e-06
9.72287e-06 -4.08074e-06 0.00075726
0.00104172 2.1384e-05 -8.89783e-07
2.1384e-05 3.42968e-05 -4.27471e-07
-8.89783e-07 -4.27471e-07 -3.34464e-05
0.00105763 4.18744e-06 -1.07156e-06
4.18744e-06 4.01217e-05 -1.059e-06
-1.07156e-06 -1.059e-06 -1.71686e-05
0.00106542 2.40764e-05 -2.44818e-08
2.40764e-05 4.6147e-05 5.59904e-08
-2.44818e-08 5.59904e-08 -2.22228e-05
0.000974427 -6.60292e-06 -1.64708e-06
-6.60292e-06 1.69873e-07 -2.02126e-06
-1.64708e-06 -2.02126e-06 -3.63403e-05
0.00105162 7.38371e-06 -2.09872e-08
7.38371e-06 3.81383e-05 1.11657e-08
-2.09872e-08 1.11657e-08 -1.8566e-05
0.000934588 -1.08745e-05 -2.21687e-06
-1.08745e-05 -2.55799e-05 -3.30793e-06
-2.21687e-06 -3.30793e-06 -3.05689e-05
0.000984514 -7.01239e-06 -2.02593e-07
-7.01239e-06 3.84598e-06 -6.76303e-09
-2.02593e-07 -6.76303e-09 -3.07951e-05
0.00105786 9.93143e-06 6.6436e-07
9.93143e-06 4.2993e-05 1.44244e-06
6.6436e-07 1.44244e-06 -1.2359e-05
0.00240252 -1.35768e-05 -8.39587e-06
-1.35768e-05 0.000696199 -4.08373e-06
-8.39587e-06 -4.08373e-06 0.000717415
0.000928656 -9.50561e-06 -1.03575e-07
-9.50561e-06 -3.24159e-05 -1.51541e-08
-1.03575e-07 -1.51541e-08 -3.55023e-05
0.000993322 -7.6393e-06 7.74348e-07
-7.6393e-06 5.9981e-06 1.945e-06
7.74348e-07 1.945e-06 -2.62349e-05
0.00235634 -1.08935e-05 -4.67691e-07
-1.08935e-05 0.000668958 2.72012e-08
-4.67691e-07 2.72012e-08 0.000691418
0.000919895 -7.8357e-06 1.23157e-06
-7.8357e-06 -4.03908e-05 3.25581e-06
1.23157e-06 3.25581e-06 -4.16391e-05
0.00232703 -8.05194e-06 4.9632e-06
-8.05194e-06 0.00065091 4.04185e-06
4.9632e-06 4.04185e-06 0.00067434
0.000541877 -6.95164e-06 -1.28537e-05
-6.95164e-06 2.90842e-05 -3.82479e-06
-1.28537e-05 -3.82479e-06 -6.22339e-05
0.000768781 7.47732e-06 3.7155e-08
7.47732e-06 7.68784e-05 -1.40134e-06
3.7155e-08 -1.40134e-06 -1.04611e-05
0.000675683 -5.477e-06 -8.94326e-07
-5.477e-06 -3.02066e-05 1.47203e-07
-8.94326e-07 1.47203e-07 -0.000103546
0.001123 2.77791e-05 -4.20647e-07
2.77791e-05 7.35983e-05 2.60585e-07
-4.20647e-07 2.60585e-07 3.51068e-06
0.00109226 2.55374e-05 7.27217e-07
2.55374e-05 6.11391e-05 6.15798e-07
7.27217e-07 6.15798e-07 -7.70958e-06
0.00106909 3.00413e-05 7.10373e-07
3.00413e-05 4.73047e-05 2.46235e-07
7.10373e-07 2.46235e-07 -2.60788e-05
0.00112708 3.11387e-05 -2.04782e-07
3.11387e-05 7.71181e-05 -1.82171e-07
-2.04782e-07 -1.82171e-07 2.58302e-06
0.00113647 2.85546e-05 -2.31634e-07
2.85546e-05 8.06377e-05 -1.27099e-07
-2.31634e-07 -1.27099e-07 9.08581e-06
0.00112788 3.14959e-05 3.10884e-07
3.14959e-05 7.62095e-05 1.80928e-07
3.10884e-07 1.80928e-07 1.15192e-06
0.0011068 3.19344e-05 -5.58146e-07
3.19344e-05 6.5306e-05 -2.07829e-07
-5.58146e-07 -2.07829e-07 -9.90358e-06
0.00106782 3.09958e-05 -4.75952e-07
3.09958e-05 5.04276e-05 -5.07636e-08
-4.75952e-07 -5.07636e-08 -2.74249e-05
0.00113274 3.11376e-05 4.68381e-07
3.11376e-05 8.42674e-05 2.53711e-07
4.68381e-07 2.53711e-07 6.50124e-06
0.00106094 2.73077e-05 6.09597e-07
2.73077e-05 5.39697e-05 4.17417e-07
6.09597e-07 4.17417e-07 -2.85242e-05
0.00115528 3.1715e-05 -1.28926e-07
3.1715e-05 9.78366e-05 -1.59626e-08
-1.28926e-07 -1.59626e-08 1.58668e-05
0.00141265 3.62867e-05 2.01133e-07
3.62867e-05 0.000218566 1.61741e-07
2.01133e-07 1.61741e-07 0.000136729
0.0022573 -3.6322e-05 -6.28359e-06
-3.6322e-05 0.000990707 -2.63099e-06
-6.28359e-06 -2.63099e-06 0.00104679
0.00059857 -3.39935e-06 -1.82941e-06
-3.39935e-06 4.24135e-05 -3.26385e-06
-1.82941e-06 -3.26385e-06 -9.45002e-06
0.000781894 1.88428e-05 5.22559e-07
1.88428e-05 4.08573e-05 3.26233e-06
5.22559e-07 3.26233e-06 7.86933e-07
0.00197773 -2.81069e-05 1.28851e-05
-2.81069e-05 0.000699317 1.28292e-05
1.28851e-05 1.28292e-05 0.000802829
0.00129137 -0.000114281 3.87372e-06
-0.000114281 -0.000676598 -8.80514e-05
3.87372e-06 -8.80514e-05 -0.000615418
0.00336258 1.6743e-05 -5.23548e-06
1.6743e-05 -0.000240776 0.0001082
-5.23548e-06 0.0001082 -0.000740881
4.16127e-05 -9.84577e-05 -4.29028e-05
-9.84577e-05 -4.38995e-05 4.18828e-05
-4.29028e-05 4.18828e-05 -0.00017163
0.000852995 -2.21561e-05 -8.53405e-06
-2.21561e-05 0.000447466 -5.01159e-06
-8.53405e-06 -5.01159e-06 0.000223882
0.000745315 -5.75487e-05 3.25943e-06
-5.75487e-05 -5.55944e-05 6.94949e-07
3.25943e-06 6.94949e-07 0.000107534
0.00562383 -5.14393e-05 1.25288e-05
-5.14393e-05 0.000669436 4.89318e-05
1.25288e-05 4.89318e-05 0.000177871
-0.00096021 -0.000121922 -6.06891e-06
-0.000121922 -0.000885021 -1.26282e-05
-6.06891e-06 -1.26282e-05 -0.000861364
0.00114499 6.15994e-05 -3.84626e-05
6.15994e-05 0.000411307 -4.04534e-05
-3.84626e-05 -4.04534e-05 0.000249368
0.00567481 -0.000155615 4.35633e-06
-0.000155615 0.00142277 3.17374e-05
4.35633e-06 3.17374e-05 0.000795893
5.26892e-05 -0.000104826 3.6832e-05
-0.000104826 -0.0001477 2.1294e-05
3.6832e-05 2.1294e-05 -7.61837e-05
0.00110621 4.49265e-05 -2.70953e-06
4.49265e-05 9.32689e-05 3.30426e-07
-2.70953e-06 3.30426e-07 1.26668e-05
0.0011902 3.39854e-05 1.68736e-06
3.39854e-05 0.000116726 2.14758e-07
1.68736e-06 2.14758e-07 3.24667e-05
0.00117392 3.10784e-05 2.68524e-07
3.10784e-05 0.000110148 -6.58961e-09
2.68524e-07 -6.58961e-09 2.22345e-05
-0.000874454 5.53601e-06 1.31904e-06
5.53601e-06 -0.000424354 -2.39531e-06
1.31904e-06 -2.39531e-06 -0.000532992
0.000819303 -3.86312e-06 7.83308e-07
-3.86312e-06 -1.60614e-05 3.79999e-06
7.83308e-07 3.79999e-06 -0.000170366
0.00113822 7.94919e-06 2.85738e-06
7.94919e-06 0.000103471 1.37576e-06
2.85738e-06 1.37576e-06 -1.42668e-06
0.00120649 2.90318e-05 1.39436e-07
2.90318e-05 0.000167821 3.00189e-07
1.39436e-07 3.00189e-07 3.25637e-05
0.000559934 1.14435e-05 3.75629e-06
1.14435e-05 0.000170417 7.32938e-06
3.75629e-06 7.32938e-06 3.971e-05
-0.000829179 5.43971e-05 -8.10041e-06
5.43971e-05 -0.000653116 1.13799e-05
-8.10041e-06 1.13799e-05 -0.000750185
0.00257709 -5.05023e-06 -1.17053e-05
-5.05023e-06 0.00123445 -5.31323e-07
-1.17053e-05 -5.31323e-07 0.0012391
0.000769963 -3.53515e-06 -9.6046e-07
-3.53515e-06 0.000180614 -2.85274e-07
-9.6046e-07 -2.85274e-07 8.83389e-05
0.000375151 -7.306e-07 2.75466e-07
-7.306e-07 -0.000167409 -1.14712e-06
2.75466e-07 -1.14712e-06 -0.00026942
0.000860643 -7.73498e-06 -7.23623e-06
-7.73498e-06 0.000361843 2.0691e-05
-7.23623e-06 2.0691e-05 0.000166785
0.00128397 -5.74286e-05 -1.24644e-07
-5.74286e-05 0.00039352 -3.46566e-05
-1.24644e-07 -3.46566e-05 0.000123357
0.000875186 -6.39341e-06 1.06047e-05
-6.39341e-06 0.000213706 -2.21286e-06
1.06047e-05 -2.21286e-06 0.000139166
0.00103758 0.00011229 -2.93989e-05
0.00011229 -0.000319875 3.88828e-05
-2.93989e-05 3.88828e-05 -0.00106654
-0.000340296 0.000123779 -4.79519e-05
0.000123779 -0.000290667 2.76694e-05
-4.79519e-05 2.76694e-05 -0.000274079
0.000741767 3.61093e-05 1.29443e-05
3.61093e-05 -1.92071e-06 -9.51098e-06
1.29443e-05 -9.51098e-06 7.85657e-05
0.0013252 -3.20601e-05 1.80575e-06
-3.20601e-05 0.000337221 8.99533e-07
1.80575e-06 8.99533e-07 0.000168987
0.000865784 9.62232e-06 -5.43234e-07
9.62232e-06 0.000165437 -8.26997e-07
-5.43234e-07 -8.26997e-07 0.000160441
-0.00158904 6.27688e-05 -1.1757e-05
6.27688e-05 -0.000787345 3.99768e-06
-1.1757e-05 3.99768e-06 -0.000801304
0.00227094 -7.83992e-05 -1.35986e-05
-7.83992e-05 0.000551414 3.20825e-05
-1.35986e-05 3.20825e-05 1.82961e-05
0.00415481 0.000166116 -2.56342e-06
0.000166116 0.000937083 6.04552e-06
-2.56342e-06 6.04552e-06 0.000332097
0.00197023 -6.06212e-05 1.3481e-05
-6.06212e-05 6.65753e-05 -4.63912e-06
1.3481e-05 -4.63912e-06 0.000139323
-0.00350747 2.55121e-05 3.81718e-05
2.55121e-05 -0.00193975 -1.13547e-05
3.81718e-05 -1.13547e-05 -0.00194864
0.00478229 0.000119904 1.94099e-05
0.000119904 0.00141386 -1.38495e-05
1.94099e-05 -1.38495e-05 0.000930174
0.00103498 -1.10045e-05 -2.39601e-05
-1.10045e-05 0.000108873 2.95419e-05
-2.39601e-05 2.95419e-05 -0.000367714
0.000844659 -4.45896e-05 -6.4167e-07
-4.45896e-05 0.000148208 -2.09566e-06
-6.4167e-07 -2.09566e-06 -0.000122495
0.00115592 -8.61785e-05 -6.72239e-08
-8.61785e-05 0.000187126 1.21088e-06
-6.72239e-08 1.21088e-06 -2.2701e-05
0.00110802 -0.000108896 -5.96402e-06
-0.000108896 4.06889e-06 3.81627e-06
-5.96402e-06 3.81627e-06 -0.000111194
0.000886303 -5.67037e-05 -7.91038e-07
-5.67037e-05 4.2369e-05 -1.45048e-06
-7.91038e-07 -1.45048e-06 -0.000122004
0.00122403 -7.61646e-05 -1.74435e-06
-7.61646e-05 7.81871e-05 -1.64721e-06
-1.74435e-06 -1.64721e-06 -4.02735e-05
0.00180443 -7.24585e-05 -3.63921e-06
-7.24585e-05 0.000256484 -1.34053e-06
-3.63921e-06 -1.34053e-06 0.000197091
0.000902232 -5.19077e-05 5.42753e-07
-5.19077e-05 -4.41938e-05 -2.35964e-06
5.42753e-07 -2.35964e-06 -0.00015782
0.00123954 -5.29454e-05 9.0413e-07
-5.29454e-05 6.7844e-05 -4.66357e-07
9.0413e-07 -4.66357e-07 -1.55611e-05
0.00143602 -4.37098e-05 -1.25583e-06
-4.37098e-05 0.000116546 -1.79072e-06
-1.25583e-06 -1.79072e-06 6.55045e-05
0.0011212 -4.4891e-05 1.57999e-06
-4.4891e-05 3.9764e-05 -9.44221e-07
1.57999e-06 -9.44221e-07 -4.91003e-05
0.00120759 -4.06409e-05 1.5278e-08
-4.06409e-05 4.8356e-05 -4.03877e-07
1.5278e-08 -4.03877e-07 -2.26243e-05
0.00128169 -3.43477e-05 -5.16914e-07
-3.43477e-05 4.98778e-05 -1.32844e-06
-5.16914e-07 -1.32844e-06 -1.98116e-06
0.00127 -3.15799e-05 -6.82152e-07
-3.15799e-05 5.98804e-05 -5.38993e-07
-6.82152e-07 -5.38993e-07 5.14138e-06
0.00128751 -3.72013e-05 -1.10383e-06
-3.72013e-05 9.2096e-05 -4.72265e-08
-1.10383e-06 -4.72265e-08 2.43765e-05
0.00123149 -3.56927e-05 3.10053e-07
-3.56927e-05 5.41109e-05 3.35208e-07
3.10053e-07 3.35208e-07 -1.16167e-05
0.00100932 -3.43425e-05 -1.02038e-06
-3.43425e-05 -9.08739e-06 9.84117e-07
-1.02038e-06 9.84117e-07 -7.95183e-05
0.00122904 -3.92311e-05 4.93945e-07
-3.92311e-05 8.91685e-05 -3.329e-07
4.93945e-07 -3.329e-07 1.43791e-05
0.00114294 -3.91789e-05 1.1484e-06
-3.91789e-05 3.62199e-05 -6.97676e-07
1.1484e-06 -6.97676e-07 -4.08775e-05
0.00109544 -3.24889e-05 -4.12707e-07
-3.24889e-05 5.64506e-05 8.60287e-07
-4.12707e-07 8.60287e-07 -6.50461e-06
0.00107098 -3.52271e-05 1.21381e-07
-3.52271e-05 3.80608e-05 -9.668e-08
1.21381e-07 -9.668e-08 -3.20617e-05
0.00101312 -3.75557e-05 6.82075e-07
-3.75557e-05 3.15721e-06 -1.37697e-06
6.82075e-07 -1.37697e-06 -7.54442e-05
0.00103352 -1.12115e-05 -1.03584e-06
-1.12115e-05 3.90934e-05 6.6429e-07
-1.03584e-06 6.6429e-07 -1.63247e-05
0.0010985 -2.97088e-05 -1.12861e-07
-2.97088e-05 6.17129e-05 -1.43192e-07
-1.12861e-07 -1.43192e-07 3.54144e-08
0.00107784 -3.42022e-05 1.56605e-07
-3.42022e-05 5.08878e-05 -1.09978e-06
1.56605e-07 -1.09978e-06 -1.47479e-05
0.00094838 1.45873e-05 -1.95633e-06
1.45873e-05 2.88846e-06 1.79644e-06
-1.95633e-06 1.79644e-06 -3.54446e-05
0.00103294 -3.81276e-06 1.33329e-07
-3.81276e-06 3.99189e-05 1.18345e-07
1.33329e-07 1.18345e-07 -1.52315e-05
0.000991975 -2.20328e-05 5.86033e-07
-2.20328e-05 1.82738e-05 -1.60537e-07
5.86033e-07 -1.60537e-07 -4.45939e-05
0.000869425 1.66879e-05 -3.63845e-06
1.66879e-05 -4.25676e-05 2.99456e-06
-3.63845e-06 2.99456e-06 -4.99641e-05
0.000966215 1.32738e-05 -9.5979e-08
1.32738e-05 5.42751e-06 -1.65713e-08
-9.5979e-08 -1.65713e-08 -3.11371e-05
0.00105627 -1.84762e-06 8.5299e-07
-1.84762e-06 4.83435e-05 -1.00762e-06
8.5299e-07 -1.00762e-06 -5.76132e-06
0.0024529 2.51777e-05 -4.89502e-06
2.51777e-05 0.000737058 1.53961e-06
-4.89502e-06 1.53961e-06 0.000755082
0.00088116 1.4975e-05 8.87608e-08
1.4975e-05 -4.206e-05 5.12358e-08
8.87608e-08 5.12358e-08 -4.88474e-05
0.000986329 9.15377e-06 2.08701e-06
9.15377e-06 9.6093e-06 -1.78667e-06
2.08701e-06 -1.78667e-06 -2.6342e-05
0.00253017 2.11456e-05 2.20635e-07
2.11456e-05 0.000769775 4.86586e-08
2.20635e-07 4.86586e-08 0.00078835
0.000904388 1.34538e-05 3.15255e-06
1.34538e-05 -3.44543e-05 -3.21027e-06
3.15255e-06 -3.21027e-06 -4.09907e-05
0.00248649 1.85982e-05 1.0675e-05
1.85982e-05 0.000744896 -3.99368e-06
1.0675e-05 -3.99368e-06 0.000764216
0.00117569 2.04106e-05 -4.46492e-07
2.04106e-05 0.000101583 1.35742e-07
-4.46492e-07 1.35742e-07 3.55602e-05
0.00107613 2.02635e-05 -1.3954e-07
2.02635e-05 5.16766e-05 -9.59395e-08
-1.3954e-07 -9.59395e-08 -1.58544e-05
0.00105966 1.59445e-06 -1.15734e-06
1.59445e-06 4.25087e-05 -9.50959e-07
-1.15734e-06 -9.50959e-07 -1.52317e-05
0.000979528 -5.07983e-06 -1.98142e-06
-5.07983e-06 3.61196e-06 -1.9627e-06
-1.98142e-06 -1.9627e-06 -3.41099e-05
0.0010522 4.92488e-06 -5.2554e-08
4.92488e-06 3.79349e-05 3.23995e-08
-5.2554e-08 3.23995e-08 -1.9489e-05
0.00104982 2.28227e-05 7.01317e-07
2.28227e-05 3.86509e-05 5.16218e-07
7.01317e-07 5.16218e-07 -2.9953e-05
0.000918203 -1.20013e-05 -2.71847e-06
-1.20013e-05 -3.00489e-05 -3.29489e-06
-2.71847e-06 -3.29489e-06 -3.65243e-05
0.000980108 -3.19514e-06 -1.3003e-07
-3.19514e-06 2.59172e-06 2.70482e-09
-1.3003e-07 2.70482e-09 -3.38583e-05
0.00105573 7.84408e-06 8.81557e-07
7.84408e-06 4.04797e-05 1.3133e-06
8.81557e-07 1.3133e-06 -1.63673e-05
0.00245982 -1.61258e-05 -9.72221e-06
-1.61258e-05 0.000728714 -4.0844e-06
-9.72221e-06 -4.0844e-06 0.000748743
0.000916965 -1.08405e-05 -1.19119e-07
-1.08405e-05 -3.41664e-05 -1.42003e-08
-1.19119e-07 -1.42003e-08 -3.90435e-05
0.000990403 -5.60577e-06 9.9349e-07
-5.60577e-06 6.44671e-06 2.04751e-06
9.9349e-07 2.04751e-06 -2.81323e-05
0.00240511 -1.35767e-05 -4.2142e-07
-1.35767e-05 0.000696959 3.39973e-08
-4.2142e-07 3.39973e-08 0.000718316
0.000909495 -9.49137e-06 1.55307e-06
-9.49137e-06 -4.16585e-05 3.28173e-06
1.55307e-06 3.28173e-06 -4.46411e-05
0.00235999 -1.08418e-05 6.36467e-06
-1.08418e-05 0.00067027 4.01833e-06
6.36467e-06 4.01833e-06 0.000692857
0.00023562 -1.44807e-05 -6.23398e-06
-1.44807e-05 -0.00012631 -3.40752e-06
-6.23398e-06 -3.40752e-06 -0.000125887
0.000594938 -3.87124e-06 2.46273e-07
-3.87124e-06 6.38124e-05 -1.57348e-06
2.46273e-07 -1.57348e-06 -2.71407e-05
0.000698208 6.80013e-06 2.05623e-07
6.80013e-06 3.49542e-05 2.34889e-07
2.05623e-07 2.34889e-07 -5.23957e-05
0.00110333 2.75742e-05 1.29237e-07
2.75742e-05 6.34404e-05 1.09349e-07
1.29237e-07 1.09349e-07 -6.94015e-06
0.00118535 3.05091e-05 -3.8731e-07
3.05091e-05 0.000107014 2.76399e-07
-3.8731e-07 2.76399e-07 3.84609e-05
0.0011099 3.27598e-05 -2.75839e-07
3.27598e-05 6.41246e-05 1.96956e-07
-2.75839e-07 1.96956e-07 -8.31002e-06
0.00120071 3.21969e-05 2.86483e-07
3.21969e-05 0.000114 -8.46409e-08
2.86483e-07 -8.46409e-08 3.97755e-05
0.00120673 2.99425e-05 3.58671e-07
2.99425e-05 0.000115138 2.12834e-08
3.58671e-07 2.12834e-08 4.38613e-05
0.0010842 3.07378e-05 6.16372e-07
3.07378e-05 5.45604e-05 3.81087e-07
6.16372e-07 3.81087e-07 -2.01445e-05
0.00110695 3.1501e-05 -1.09673e-07
3.1501e-05 6.88727e-05 3.48161e-08
-1.09673e-07 3.48161e-08 -8.72745e-06
0.00112915 3.22616e-05 2.72564e-08
3.22616e-05 7.59052e-05 1.95593e-08
2.72564e-08 1.95593e-08 1.02013e-06
0.00110979 3.31059e-05 -7.54402e-07
3.31059e-05 7.65587e-05 -3.02181e-08
-7.54402e-07 -3.02181e-08 -2.30062e-06
0.00120372 3.60029e-05 -7.62383e-07
3.60029e-05 0.000115157 8.98337e-07
-7.62383e-07 8.98337e-07 3.63791e-05
0.00111584 3.11394e-05 1.62196e-07
3.11394e-05 7.84888e-05 -2.23759e-07
1.62196e-07 -2.23759e-07 -3.39777e-06
0.00122982 3.36356e-05 4.7625e-08
3.36356e-05 0.000132381 -2.03764e-07
4.7625e-08 -2.03764e-07 5.06957e-05
-0.00268572 -6.0663e-05 4.46933e-05
-6.0663e-05 -0.00142217 1.53625e-05
4.46933e-05 1.53625e-05 -0.00145105
0.00111751 -3.53468e-05 8.82364e-08
-3.53468e-05 0.000330602 -4.72721e-07
8.82364e-08 -4.72721e-07 0.000382698
0.000748216 -1.96715e-06 1.28946e-05
-1.96715e-06 0.000139958 6.65372e-06
1.28946e-05 6.65372e-06 8.87035e-05
0.000148354 -5.55514e-05 3.58134e-06
-5.55514e-05 -0.000358235 -3.55439e-07
3.58134e-06 -3.55439e-07 -0.000227706
0.00397922 -0.000180054 -1.77216e-05
-0.000180054 0.00124766 -5.35758e-05
-1.77216e-05 -5.35758e-05 0.00124103
0.00272139 -6.65662e-05 2.69487e-05
-6.65662e-05 -0.000196275 2.9791e-05
2.69487e-05 2.9791e-05 -0.000530821
-0.000167033 -5.85425e-06 -4.27368e-06
-5.85425e-06 -0.000185367 4.78166e-05
-4.27368e-06 4.78166e-05 -0.000696176
0.00113053 6.96599e-05 -1.78966e-05
6.96599e-05 0.000185687 -3.41427e-05
-1.78966e-05 -3.41427e-05 -0.000223304
0.00176797 -0.000145879 9.76653e-07
-0.000145879 0.00032153 -4.20946e-06
9.76653e-07 -4.20946e-06 0.000310568
0.00377306 -6.69367e-05 2.71259e-05
-6.69367e-05 0.000489096 4.37998e-05
2.71259e-05 4.37998e-05 -9.79226e-05
0.000436879 9.3158e-05 -5.78184e-05
9.3158e-05 -0.000369438 -8.38696e-05
-5.78184e-05 -8.38696e-05 -0.000726754
0.00336055 -2.20228e-06 -7.66671e-06
-2.20228e-06 0.000410965 1.2221e-05
-7.66671e-06 1.2221e-05 -0.000171222
0.00201918 6.91371e-05 2.58386e-06
6.91371e-05 0.000561741 -8.72742e-07
2.58386e-06 -8.72742e-07 0.000463065
0.000991164 4.09764e-05 5.43598e-08
4.09764e-05 3.29191e-05 -1.66509e-07
5.43598e-08 -1.66509e-07 -4.62875e-05
0.00133541 3.5114e-05 2.22821e-06
3.5114e-05 0.000181255 -3.11273e-07
2.22821e-06 -3.11273e-07 9.75941e-05
0.000100039 3.84236e-06 -1.364e-06
3.84236e-06 -2.88508e-05 1.28197e-07
-1.364e-06 1.28197e-07 -0.000173904
0.00149564 3.26413e-05 3.33759e-06
3.26413e-05 0.000304991 3.7808e-07
3.33759e-06 3.7808e-07 0.000171142
0.000969481 7.34371e-05 3.77789e-06
7.34371e-05 0.000159334 2.24485e-06
3.77789e-06 2.24485e-06 6.92566e-05
-0.000722332 6.49101e-05 4.86567e-06
6.49101e-05 -0.000695409 5.44704e-06
4.86567e-06 5.44704e-06 -0.000761961
-0.00108798 9.83398e-07 6.02868e-05
9.83398e-07 -0.000639469 -2.94752e-06
6.02868e-05 -2.94752e-06 -0.000595496
0.000668098 -4.45416e-06 -7.58702e-06
-4.45416e-06 0.000106277 2.29139e-07
-7.58702e-06 2.29139e-07 9.25235e-05
-0.000596479 -2.13213e-06 1.24299e-05
-2.13213e-06 -0.000664646 -1.50594e-06
1.24299e-05 -1.50594e-06 -0.000766793
0.00136238 -2.40651e-05 -1.22015e-05
-2.40651e-05 0.00038606 7.00358e-06
-1.22015e-05 7.00358e-06 0.000197311
0.000399003 -5.39279e-05 -2.11874e-05
-5.39279e-05 0.000210572 3.56045e-06
-2.11874e-05 3.56045e-06 -0.000219068
0.00086645 7.51299e-06 8.46603e-06
7.51299e-06 0.000161238 -1.99865e-06
8.46603e-06 -1.99865e-06 0.000154577
0.00367387 0.000109456 3.81451e-05
0.000109456 0.00069309 -3.0453e-05
3.81451e-05 -3.0453e-05 3.15806e-05
0.00308321 7.28736e-05 -7.52442e-05
7.28736e-05 0.00138754 2.31753e-05
-7.52442e-05 2.31753e-05 0.00129357
0.00164064 -6.54054e-05 8.58057e-07
-6.54054e-05 0.000106828 -3.75892e-07
8.58057e-07 -3.75892e-07 6.99025e-05
-0.000237231 3.13439e-05 -2.24352e-05
3.13439e-05 -0.000246304 4.38224e-06
-2.24352e-05 4.38224e-06 -0.000308398
0.00234076 2.83908e-05 -9.86898e-06
2.83908e-05 0.000245489 6.43316e-06
-9.86898e-06 6.43316e-06 -0.000398479
3.2733e-05 2.56582e-05 4.16892e-06
2.56582e-05 1.04702e-05 2.10331e-06
4.16892e-06 2.10331e-06 -0.000326144
0.0017161 -5.77901e-05 9.48469e-06
-5.77901e-05 -0.000163179 -3.55247e-06
9.48469e-06 -3.55247e-06 -6.36182e-05
0.00491154 2.78885e-05 6.8793e-06
2.78885e-05 0.0013269 -4.08677e-07
6.8793e-06 -4.08677e-07 0.000819962
0.000866199 4.01565e-05 -4.69099e-06
4.01565e-05 0.000371635 -1.03289e-06
-4.69099e-06 -1.03289e-06 9.56741e-05
0.000362234 -7.4166e-05 2.63312e-06
-7.4166e-05 -0.000171138 -7.57428e-06
2.63312e-06 -7.57428e-06 -0.000397605
0.00116012 -0.000107463 -7.68839e-08
-0.000107463 4.33014e-05 -4.71978e-07
-7.68839e-08 -4.71978e-07 -7.38704e-05
0.00121288 -9.41332e-05 -1.40504e-05
-9.41332e-05 -0.000102136 5.59841e-06
-1.40504e-05 5.59841e-06 -0.000140053
0.00116276 -7.48325e-05 -2.21052e-07
-7.48325e-05 4.29185e-05 -2.32844e-06
-2.21052e-07 -2.32844e-06 -7.22737e-05
0.00134898 -6.73701e-05 -1.03649e-08
-6.73701e-05 3.55192e-05 6.90633e-07
-1.03649e-08 6.90633e-07 -2.17358e-05
0.00169951 -4.69189e-05 -2.0663e-06
-4.69189e-05 0.000161664 9.53023e-07
-2.0663e-06 9.53023e-07 0.000146342
0.000931043 -4.81809e-05 3.21317e-06
-4.81809e-05 -8.48265e-05 3.48117e-07
3.21317e-06 3.48117e-07 -0.000166103
0.00127503 -4.19377e-05 -8.47905e-08
-4.19377e-05 3.24098e-05 5.09746e-08
-8.47905e-08 5.09746e-08 -1.72356e-05
0.00136101 -3.23842e-05 2.06316e-07
-3.23842e-05 3.96273e-05 -3.23825e-07
2.06316e-07 -3.23825e-07 1.03762e-05
0.00109018 -3.88258e-05 1.48143e-06
-3.88258e-05 -1.24295e-05 2.50532e-07
1.48143e-06 2.50532e-07 -8.21649e-05
0.00123935 -3.37944e-05 1.86188e-07
-3.37944e-05 2.89044e-05 3.04759e-07
1.86188e-07 3.04759e-07 -2.28493e-05
0.00121606 -2.80356e-05 6.58107e-08
-2.80356e-05 7.73764e-06 4.14002e-09
6.58107e-08 4.14002e-09 -3.47921e-05
0.0013594 -2.79479e-05 -4.16143e-07
-2.79479e-05 9.70925e-05 9.21179e-08
-4.16143e-07 9.21179e-08 4.77165e-05
0.00126907 -3.09642e-05 -3.17387e-07
-3.09642e-05 5.87434e-05 8.74941e-07
-3.17387e-07 8.74941e-07 5.10806e-06
0.00126064 -3.19651e-05 -5.32199e-07
-3.19651e-05 6.70412e-05 -9.88813e-07
-5.32199e-07 -9.88813e-07 9.07853e-06
0.00124792 -3.48037e-05 -1.02608e-06
-3.48037e-05 8.25989e-05 2.07224e-07
-1.02608e-06 2.07224e-07 1.68554e-05
0.00128917 -3.69577e-05 4.10511e-07
-3.69577e-05 9.45788e-05 -6.55281e-08
4.10511e-07 -6.55281e-08 2.68563e-05
0.00119571 -3.44173e-05 1.46331e-06
-3.44173e-05 3.71043e-05 1.08877e-06
1.46331e-06 1.08877e-06 -2.76969e-05
0.000972947 -3.14554e-05 -1.18919e-06
-3.14554e-05 -1.75653e-05 1.2914e-06
-1.18919e-06 1.2914e-06 -8.23845e-05
0.00115047 -3.60083e-05 8.93999e-08
-3.60083e-05 6.01353e-05 -4.96401e-08
8.93999e-08 -4.96401e-08 -9.77347e-06
0.00125668 -3.92703e-05 1.5605e-06
-3.92703e-05 0.000103186 -1.21832e-06
1.5605e-06 -1.21832e-06 2.92173e-05
0.00103882 -1.75977e-05 -8.53044e-07
-1.75977e-05 3.89139e-05 7.43979e-07
-8.53044e-07 7.43979e-07 -1.73389e-05
0.00111145 -3.22637e-05 4.66003e-08
-3.22637e-05 6.3686e-05 -5.62988e-08
4.66003e-08 -5.62988e-08 6.92888e-07
0.000954332 -3.36886e-05 5.3312e-07
-3.36886e-05 -1.62568e-05 -1.55158e-06
5.3312e-07 -1.55158e-06 -8.65636e-05
0.000950608 9.82445e-06 -2.22395e-06
9.82445e-06 7.74792e-06 1.68157e-06
-2.22395e-06 1.68157e-06 -3.26624e-05
0.00104532 -1.1681e-05 -4.3985e-08
-1.1681e-05 4.38765e-05 3.14222e-08
-4.3985e-08 3.14222e-08 -1.14299e-05
0.00111852 -2.93613e-05 4.67794e-07
-2.93613e-05 7.08258e-05 -6.11922e-07
4.67794e-07 -6.11922e-07 9.12917e-06
0.000854329 1.83809e-05 -3.81674e-06
1.83809e-05 -4.28251e-05 2.9067e-06
-3.81674e-06 2.9067e-06 -5.16641e-05
0.000961511 1.30493e-05 6.79043e-08
1.30493e-05 8.80827e-06 1.55719e-08
6.79043e-08 1.55719e-08 -2.94562e-05
0.00104605 -5.1408e-06 1.07423e-06
-5.1408e-06 4.54676e-05 -7.37344e-07
1.07423e-06 -7.37344e-07 -9.55063e-06
0.00251799 2.62502e-05 -1.22531e-05
2.62502e-05 0.000773837 3.59714e-06
-1.22531e-05 3.59714e-06 0.000790921
0.000886656 1.68256e-05 4.96282e-09
1.68256e-05 -3.40815e-05 2.67279e-08
4.96282e-09 2.67279e-08 -4.15654e-05
0.000987056 1.23008e-05 2.02611e-06
1.23008e-05 1.53841e-05 -1.80359e-06
2.02611e-06 -1.80359e-06 -2.12103e-05
0.00179185 2.14347e-05 4.46722e-06
2.14347e-05 0.000409637 -1.07747e-06
4.46722e-06 -1.07747e-06 0.000424534
0.000901406 1.51099e-05 3.53508e-06
1.51099e-05 -3.20861e-05 -3.05719e-06
3.53508e-06 -3.05719e-06 -3.89522e-05
0.00247648 2.1113e-05 1.13544e-05
2.1113e-05 0.00074408 -3.86126e-06
1.13544e-05 -3.86126e-06 0.000762787
0.00114137 1.86017e-05 -4.63852e-07
1.86017e-05 8.72724e-05 2.96505e-07
-4.63852e-07 2.96505e-07 2.23648e-05
0.00109259 1.75889e-05 2.19344e-07
1.75889e-05 6.03851e-05 3.10839e-07
2.19344e-07 3.10839e-07 -6.05964e-06
0.00104138 -9.33649e-07 -1.24342e-06
-9.33649e-07 3.66965e-05 -7.81811e-07
-1.24342e-06 -7.81811e-07 -2.14451e-05
0.00111015 1.91133e-05 5.03119e-07
1.91133e-05 6.88686e-05 2.06272e-07
5.03119e-07 2.06272e-07 1.55136e-06
0.00104797 1.72149e-06 1.80404e-08
1.72149e-06 3.74019e-05 3.95117e-08
1.80404e-08 3.95117e-08 -2.0446e-05
0.000983672 -6.4713e-06 -2.20514e-06
-6.4713e-06 7.86671e-06 -1.86621e-06
-2.20514e-06 -1.86621e-06 -3.08368e-05
0.00090567 -1.3236e-05 -3.18238e-06
-1.3236e-05 -3.29364e-05 -3.24312e-06
-3.18238e-06 -3.24312e-06 -4.04755e-05
0.000979856 -3.79905e-06 -1.19803e-07
-3.79905e-06 3.35883e-06 1.37488e-08
-1.19803e-07 1.37488e-08 -3.43092e-05
0.00104786 5.3148e-06 1.00901e-06
5.3148e-06 3.62903e-05 1.18813e-06
1.00901e-06 1.18813e-06 -2.12599e-05
0.00250211 -1.86161e-05 -1.0815e-05
-1.86161e-05 0.000753684 -4.03031e-06
-1.0815e-05 -4.03031e-06 0.000772675
0.000904091 -1.19532e-05 -1.33651e-07
-1.19532e-05 -3.69522e-05 7.93279e-09
-1.33651e-07 7.93279e-09 -4.33362e-05
0.000990501 -2.2245e-06 1.55932e-06
-2.2245e-06 7.36503e-06 2.06923e-06
1.55932e-06 2.06923e-06 -2.90661e-05
0.00246207 -1.61476e-05 -3.72303e-07
-1.61476e-05 0.000729367 3.91066e-08
-3.72303e-07 3.91066e-08 0.000749523
0.000900239 -1.08115e-05 1.94777e-06
-1.08115e-05 -4.22724e-05 3.31016e-06
1.94777e-06 3.31016e-06 -4.70452e-05
0.00240849 -1.35655e-05 7.68355e-06
-1.35655e-05 0.00069811 4.01018e-06
7.68355e-06 4.01018e-06 0.000719603
0.000492174 2.34672e-05 7.55888e-05
2.34672e-05 -0.000111953 6.56902e-06
7.55888e-05 6.56902e-06 -0.000249696
0.00145538 -1.73541e-05 4.35928e-08
-1.73541e-05 0.000581426 -1.23469e-06
4.35928e-08 -1.23469e-06 0.000590618
0.000601383 -9.71682e-07 1.16341e-05
-9.71682e-07 7.00083e-05 3.7991e-07
1.16341e-05 3.7991e-07 -2.06066e-05
0.00108075 2.72132e-05 8.72335e-07
2.72132e-05 5.18139e-05 1.61939e-08
8.72335e-07 1.61939e-08 -1.88418e-05
0.00109824 3.24771e-05 6.08899e-07
3.24771e-05 5.90697e-05 5.96624e-08
6.08899e-07 5.96624e-08 -1.3402e-05
0.00115204 3.04835e-05 5.61054e-08
3.04835e-05 9.19124e-05 6.81028e-09
5.61054e-08 6.81028e-09 2.35856e-05
0.00115088 3.29167e-05 -1.25026e-07
3.29167e-05 9.49522e-05 1.80001e-07
-1.25026e-07 1.80001e-07 2.6891e-05
0.00113706 3.36358e-05 -8.40736e-07
3.36358e-05 8.3915e-05 2.1312e-07
-8.40736e-07 2.1312e-07 1.19568e-05
0.00114564 3.19961e-05 3.9623e-07
3.19961e-05 8.7069e-05 1.12304e-07
3.9623e-07 1.12304e-07 9.72618e-06
0.00114722 3.25155e-05 7.49245e-07
3.25155e-05 8.4461e-05 1.02497e-07
7.49245e-07 1.02497e-07 9.90523e-06
0.00106035 3.2477e-05 -2.36839e-07
3.2477e-05 5.29163e-05 -8.61162e-08
-2.36839e-07 -8.61162e-08 -2.57799e-05
0.000821972 3.11027e-05 -5.36478e-07
3.11027e-05 -6.02419e-05 4.0574e-07
-5.36478e-07 4.0574e-07 -0.000134036
0.000991938 3.68085e-05 -8.9091e-07
3.68085e-05 2.13424e-05 6.25988e-07
-8.9091e-07 6.25988e-07 -5.91611e-05
0.00164341 5.38572e-05 1.34737e-07
5.38572e-05 0.000334978 -2.30055e-07
1.34737e-07 -2.30055e-07 0.000253487
0.0011851 3.6215e-05 -5.42507e-07
3.6215e-05 0.000110966 9.379e-08
-5.42507e-07 9.379e-08 3.05987e-05
0.00105005 3.10634e-05 3.96146e-07
3.10634e-05 4.78288e-05 -2.05971e-07
3.96146e-07 -2.05971e-07 -3.37294e-05
0.00667004 -2.43753e-05 -1.66238e-05
-2.43753e-05 0.00169663 -6.21702e-06
-1.66238e-05 -6.21702e-06 0.00118469
-1.68122e-05 -7.22467e-05 1.00018e-05
-7.22467e-05 -0.00031016 2.85151e-06
1.00018e-05 2.85151e-06 -0.000386074
0.00198252 -3.63859e-05 1.90415e-06
-3.63859e-05 0.000820165 3.7947e-06
1.90415e-06 3.7947e-06 0.000876782
-0.00191698 -0.0001032 -2.85373e-05
-0.0001032 -0.00131275 -3.17715e-05
-2.85373e-05 -3.17715e-05 -0.00123886
0.00672164 -0.000136306 5.07732e-05
-0.000136306 0.00160039 5.44109e-05
5.07732e-05 5.44109e-05 0.000774453
0.00114154 4.95299e-05 1.82215e-05
4.95299e-05 0.000468156 -3.1385e-06
1.82215e-05 -3.1385e-06 0.000280879
0.00115936 9.02809e-05 -1.99812e-05
9.02809e-05 8.81349e-05 -2.40472e-05
-1.99812e-05 -2.40472e-05 -0.000155715
0.00423225 -0.000101354 1.22683e-05
-0.000101354 0.000904345 1.47593e-05
1.22683e-05 1.47593e-05 0.000418731
0.00105755 5.40993e-05 -4.8573e-05
5.40993e-05 -3.48212e-05 -3.99434e-05
-4.8573e-05 -3.99434e-05 -0.000265144
0.00174724 7.58731e-05 1.21344e-05
7.58731e-05 0.000327339 5.67008e-07
1.21344e-05 5.67008e-07 0.000212026
0.0011999 5.85445e-05 -1.72647e-06
5.85445e-05 0.000178106 -2.13547e-06
-1.72647e-06 -2.13547e-06 7.33367e-05
0.000893708 3.68257e-05 2.10917e-06
3.68257e-05 -1.77297e-05 -3.86455e-07
2.10917e-06 -3.86455e-07 -9.52931e-05
0.00229437 8.91684e-05 -8.19163e-06
8.91684e-05 0.000759033 -9.52008e-06
-8.19163e-06 -9.52008e-06 0.000675832
6.22889e-05 7.99919e-05 -3.72279e-06
7.99919e-05 -0.000444069 -1.42086e-06
-3.72279e-06 -1.42086e-06 -0.00048465
0.00131287 5.69957e-05 -1.51951e-05
5.69957e-05 -0.000323964 -1.65028e-06
-1.51951e-05 -1.65028e-06 -0.000654587
0.00154543 1.30231e-05 3.46753e-07
1.30231e-05 0.000374088 3.58582e-06
3.46753e-07 3.58582e-06 0.00029863
-0.00121412 -4.03796e-06 -3.18801e-07
-4.03796e-06 -0.00100577 6.0837e-07
-3.18801e-07 6.0837e-07 -0.00103624
0.00151787 -7.24379e-05 -1.65318e-05
-7.24379e-05 0.000247392 2.04604e-06
-1.65318e-05 2.04604e-06 8.74344e-05
0.00192901 -2.1211e-06 2.55695e-05
-2.1211e-06 0.000606991 -2.19135e-05
2.55695e-05 -2.19135e-05 7.08827e-05
0.00054622 3.16346e-06 -9.30296e-05
3.16346e-06 -7.5724e-05 1.56701e-05
-9.30296e-05 1.56701e-05 -0.000215749
0.0051472 0.000113742 -4.00753e-06
0.000113742 0.0017038 4.20076e-06
-4.00753e-06 4.20076e-06 0.00111412
0.00187664 -5.65096e-05 1.29976e-06
-5.65096e-05 -8.57092e-05 -6.20675e-07
1.29976e-06 -6.20675e-07 1.39448e-05
0.00373973 5.88941e-05 1.7659e-05
5.88941e-05 0.000926787 1.60301e-06
1.7659e-05 1.60301e-06 0.000479478
0.00149048 2.78751e-05 2.47472e-05
2.78751e-05 0.000349781 -9.93393e-06
2.47472e-05 -9.93393e-06 -7.15153e-05
0.00215776 -3.25497e-05 -1.93143e-06
-3.25497e-05 -5.57426e-05 -6.97914e-06
-1.93143e-06 -6.97914e-06 0.000101345
0.00102529 4.76335e-05 -1.97595e-05
4.76335e-05 0.000382992 1.25829e-05
-1.97595e-05 1.25829e-05 0.000225858
0.00140406 -0.000107426 8.41864e-06
-0.000107426 0.000172156 -5.68877e-06
8.41864e-06 -5.68877e-06 5.47349e-05
0.00150054 -9.37494e-05 -2.64847e-06
-9.37494e-05 2.56752e-05 1.31104e-06
-2.64847e-06 1.31104e-06 -1.50125e-06
0.00172611 -4.45344e-05 -5.08525e-06
-4.45344e-05 7.43025e-05 2.51143e-06
-5.08525e-06 2.51143e-06 8.80107e-05
0.000811432 -6.1332e-05 5.8617e-06
-6.1332e-05 -0.00022519 1.06138e-06
5.8617e-06 1.06138e-06 -0.000279081
0.00131747 -4.43822e-05 9.19989e-07
-4.43822e-05 -1.87987e-05 9.08005e-07
9.19989e-07 9.08005e-07 -3.21139e-05
0.00134457 -2.44239e-05 8.80158e-07
-2.44239e-05 -1.68916e-05 2.01708e-06
8.80158e-07 2.01708e-06 -2.37261e-05
0.00109639 -4.02291e-05 1.88387e-06
-4.02291e-05 -6.15993e-05 1.4635e-06
1.88387e-06 1.4635e-06 -0.000109579
0.00129496 -3.21117e-05 3.38125e-07
-3.21117e-05 9.54477e-06 1.19189e-06
3.38125e-07 1.19189e-06 -2.05431e-05
0.00128345 -2.27636e-05 1.09616e-06
-2.27636e-05 9.69243e-06 1.43356e-06
1.09616e-06 1.43356e-06 -2.19638e-05
0.00121574 -3.34195e-05 1.34983e-06
-3.34195e-05 1.68092e-05 1.6687e-06
1.34983e-06 1.6687e-06 -3.48627e-05
0.00127351 -2.89639e-05 1.07516e-07
-2.89639e-05 3.57314e-05 7.19315e-07
1.07516e-07 7.19315e-07 -7.5683e-06
0.00126976 -2.41761e-05 -2.51265e-08
-2.41761e-05 3.82972e-05 6.2681e-07
-2.51265e-08 6.2681e-07 -6.84791e-06
0.00125979 -2.76059e-05 -7.12392e-07
-2.76059e-05 5.04545e-05 5.86961e-07
-7.12392e-07 5.86961e-07 2.112e-06
0.00134982 -2.85576e-05 2.47078e-07
-2.85576e-05 0.000100842 -4.10048e-07
2.47078e-07 -4.10048e-07 4.69513e-05
0.00126868 -3.03855e-05 8.99688e-07
-3.03855e-05 5.77669e-05 1.69852e-06
8.99688e-07 1.69852e-06 5.24834e-06
0.00126983 -3.18769e-05 4.00256e-08
-3.18769e-05 7.07123e-05 -2.72601e-07
4.00256e-08 -2.72601e-07 1.26495e-05
0.00126374 -3.11208e-05 -4.82597e-07
-3.11208e-05 7.50604e-05 -2.29095e-07
-4.82597e-07 -2.29095e-07 1.48045e-05
0.00104152 -3.04962e-05 -1.26151e-06
-3.04962e-05 -4.91397e-06 7.55589e-07
-1.26151e-06 7.55589e-07 -6.83577e-05
0.00124281 -3.47595e-05 3.77202e-08
-3.47595e-05 8.07072e-05 -1.29014e-07
3.77202e-08 -1.29014e-07 1.46862e-05
0.00130192 -3.68646e-05 1.31981e-06
-3.68646e-05 0.000102543 -2.20936e-08
1.31981e-06 -2.20936e-08 3.47833e-05
0.00107022 -2.31135e-05 -9.96978e-07
-2.31135e-05 4.48239e-05 9.94297e-07
-9.96978e-07 9.94297e-07 -1.28379e-05
0.00104051 -3.22966e-05 -2.44039e-07
-3.22966e-05 1.67581e-05 2.55125e-07
-2.44039e-07 2.55125e-07 -4.78494e-05
0.00126915 -3.73433e-05 9.29017e-07
-3.73433e-05 0.000118891 -1.07323e-06
9.29017e-07 -1.07323e-06 4.94971e-05
0.00094491 6.72868e-06 -2.23996e-06
6.72868e-06 8.23303e-06 1.59348e-06
-2.23996e-06 1.59348e-06 -3.48249e-05
0.00105623 -1.77562e-05 -4.96153e-08
-1.77562e-05 4.65202e-05 -1.02111e-08
-4.96153e-08 -1.02111e-08 -9.69671e-06
0.00112956 -3.20526e-05 5.31595e-07
-3.20526e-05 7.1925e-05 -9.86334e-07
5.31595e-07 -9.86334e-07 8.892e-06
0.000832276 1.95792e-05 -4.083e-06
1.95792e-05 -4.62915e-05 2.81786e-06
-4.083e-06 2.81786e-06 -5.71615e-05
0.000961388 9.01837e-06 5.64848e-08
9.01837e-06 1.18697e-05 1.43298e-08
5.64848e-08 1.43298e-08 -2.83741e-05
0.00105523 -1.17918e-05 1.06186e-06
-1.17918e-05 4.77999e-05 -7.01903e-07
1.06186e-06 -7.01903e-07 -7.40281e-06
0.00250531 2.87988e-05 -1.23949e-05
2.87988e-05 0.000774888 3.40776e-06
-1.23949e-05 3.40776e-06 0.000790831
0.000876965 1.85176e-05 3.49643e-08
1.85176e-05 -3.17776e-05 1.62824e-08
3.49643e-08 1.62824e-08 -4.07409e-05
0.000975021 1.14835e-05 2.16315e-06
1.14835e-05 1.49397e-05 -1.67048e-06
2.16315e-06 -1.67048e-06 -2.325e-05
0.00246445 2.61849e-05 1.60811e-07
2.61849e-05 0.000748534 5.64932e-08
1.60811e-07 5.64932e-08 0.000765687
0.000904207 1.69555e-05 3.75877e-06
1.69555e-05 -2.54675e-05 -2.95444e-06
3.75877e-06 -2.95444e-06 -3.30358e-05
0.00244341 2.36175e-05 1.17365e-05
2.36175e-05 0.000732806 -3.67524e-06
1.17365e-05 -3.67524e-06 0.000750903
0.00106391 2.23871e-05 -4.62495e-07
2.23871e-05 5.33508e-05 2.86186e-08
-4.62495e-07 2.86186e-08 -1.23012e-05
0.00112543 1.90312e-05 1.50626e-07
1.90312e-05 8.02255e-05 1.3288e-07
1.50626e-07 1.3288e-07 1.52886e-05
0.00093017 -2.46957e-06 -1.45903e-06
-2.46957e-06 -1.34127e-05 -7.34339e-07
-1.45903e-06 -7.34339e-07 -7.25368e-05
0.00100931 1.50031e-05 9.86668e-07
1.50031e-05 1.91052e-05 4.21715e-07
9.86668e-07 4.21715e-07 -4.77686e-05
0.000984851 -1.72129e-06 -4.53222e-09
-1.72129e-06 9.43664e-06 8.79845e-08
-4.53222e-09 8.79845e-08 -4.9178e-05
0.000980755 -8.23257e-06 -2.29135e-06
-8.23257e-06 1.05709e-05 -1.70438e-06
-2.29135e-06 -1.70438e-06 -2.92957e-05
0.001036 1.81359e-06 1.19109e-06
1.81359e-06 3.2175e-05 1.04235e-06
1.19109e-06 1.04235e-06 -2.57826e-05
0.00097596 -5.76037e-06 -5.79358e-08
-5.76037e-06 3.85952e-06 2.443e-08
-5.79358e-08 2.443e-08 -3.48001e-05
0.000898266 -1.47587e-05 -3.56946e-06
-1.47587e-05 -3.28796e-05 -3.1396e-06
-3.56946e-06 -3.1396e-06 -4.13209e-05
0.00251727 -2.11082e-05 -1.15742e-05
-2.11082e-05 0.000765294 -3.92239e-06
-1.15742e-05 -3.92239e-06 0.000783448
0.000893585 -1.31367e-05 -1.08907e-07
-1.31367e-05 -3.90454e-05 2.58728e-08
-1.08907e-07 2.58728e-08 -4.64846e-05
0.000978031 -3.18451e-06 1.92194e-06
-3.18451e-06 2.04737e-06 2.03782e-06
1.92194e-06 2.03782e-06 -3.55587e-05
0.0025164 -1.864e-05 -3.09963e-07
-1.864e-05 0.000760373 4.89528e-08
-3.09963e-07 4.89528e-08 0.000779403
0.00089025 -1.19054e-05 2.41054e-06
-1.19054e-05 -4.37257e-05 3.33264e-06
2.41054e-06 3.33264e-06 -5.00202e-05
0.00246582 -1.61731e-05 9.00154e-06
-1.61731e-05 0.000730744 4.01146e-06
9.00154e-06 4.01146e-06 0.000751024
0.00532324 4.07149e-05 6.77779e-06
4.07149e-05 0.00155245 1.05386e-06
6.77779e-06 1.05386e-06 0.00117296
-0.000756419 -5.85414e-07 1.45788e-05
-5.85414e-07 -0.000377994 6.37193e-07
1.45788e-05 6.37193e-07 -0.000388012
0.000628277 -1.46242e-05 7.13703e-06
-1.46242e-05 0.000114957 1.39456e-06
7.13703e-06 1.39456e-06 0.000116048
0.00109355 3.23024e-05 1.23232e-06
3.23024e-05 5.74187e-05 -1.93446e-07
1.23232e-06 -1.93446e-07 -1.51071e-05
0.00112431 3.05264e-05 5.29379e-07
3.05264e-05 7.94456e-05 -1.12208e-07
5.29379e-07 -1.12208e-07 1.1342e-05
0.00116746 3.41097e-05 1.09985e-09
3.41097e-05 9.86327e-05 1.86708e-09
1.09985e-09 1.86708e-09 2.67976e-05
0.00114393 3.31413e-05 -4.82367e-08
3.31413e-05 9.166e-05 -9.14843e-08
-4.82367e-08 -9.14843e-08 2.36194e-05
0.00114833 3.37887e-05 7.08922e-07
3.37887e-05 9.89054e-05 4.96548e-07
7.08922e-07 4.96548e-07 2.99314e-05
0.00100008 3.2689e-05 -7.74755e-07
3.2689e-05 2.46105e-05 4.48384e-07
-7.74755e-07 4.48384e-07 -4.60845e-05
0.00100137 3.16968e-05 5.75615e-07
3.16968e-05 2.46672e-05 -2.55476e-08
5.75615e-07 -2.55476e-08 -5.38504e-05
0.000972376 3.29319e-05 5.64083e-07
3.29319e-05 1.17989e-05 -1.79081e-07
5.64083e-07 -1.79081e-07 -6.23084e-05
0.00100032 3.71132e-05 5.48714e-07
3.71132e-05 3.06754e-05 7.28652e-08
5.48714e-07 7.28652e-08 -5.00563e-05
0.000798662 3.62878e-05 -2.91138e-07
3.62878e-05 -7.40378e-05 6.25556e-08
-2.91138e-07 6.25556e-08 -0.000147552
0.00217626 5.97017e-05 3.03501e-07
5.97017e-05 0.00056671 5.10911e-07
3.03501e-07 5.10911e-07 0.000488295
0.0015502 6.64608e-05 2.46947e-07
6.64608e-05 0.000217161 -2.84197e-06
2.46947e-07 -2.84197e-06 0.000115534
0.00118546 4.72971e-05 5.16865e-08
4.72971e-05 0.000108853 2.64419e-07
5.16865e-08 2.64419e-07 2.77213e-05
0.00114485 3.61795e-05 -6.01132e-08
3.61795e-05 9.61993e-05 -1.39771e-06
-6.01132e-08 -1.39771e-06 1.42906e-05
0.000274879 -1.29354e-05 -2.97516e-05
-1.29354e-05 -9.39133e-05 -1.14954e-05
-2.97516e-05 -1.14954e-05 -0.000175667
0.0031994 -2.71538e-05 -2.07131e-05
-2.71538e-05 0.000504909 -2.94348e-06
-2.07131e-05 -2.94348e-06 0.000110645
0.00213857 -8.96926e-05 -2.38253e-05
-8.96926e-05 0.000823608 -8.00203e-06
-2.38253e-05 -8.00203e-06 0.000735967
0.00382108 -3.86475e-05 5.32759e-05
-3.86475e-05 0.000556812 1.37122e-05
5.32759e-05 1.37122e-05 -1.63523e-05
0.00247235 9.6078e-05 2.06259e-05
9.6078e-05 0.000866283 3.22866e-05
2.06259e-05 3.22866e-05 0.000727738
0.000765386 4.30653e-05 -8.80418e-06
4.30653e-05 2.12995e-06 -2.66987e-06
-8.80418e-06 -2.66987e-06 -0.000103782
0.00163566 2.38797e-05 1.99317e-05
2.38797e-05 7.83477e-05 6.53034e-06
1.99317e-05 6.53034e-06 -1.15874e-06
0.000638648 6.94755e-05 3.47928e-07
6.94755e-05 -0.000206294 2.5646e-06
3.47928e-07 2.5646e-06 -0.000321813
0.000291511 4.67211e-05 6.61612e-07
4.67211e-05 -0.000249297 2.96225e-07
6.61612e-07 2.96225e-07 -0.000359811
0.00110483 9.85375e-05 -2.07131e-05
9.85375e-05 -7.73305e-05 -2.18632e-05
-2.07131e-05 -2.18632e-05 -9.16344e-05
0.0013031 2.05954e-05 -9.34767e-05
2.05954e-05 0.000195169 -6.0929e-06
-9.34767e-05 -6.0929e-06 -8.36381e-06
0.00491278 4.86553e-05 1.73375e-05
4.86553e-05 0.0014696 -9.39648e-07
1.73375e-05 -9.39648e-07 0.00111111
-0.00331012 -1.441e-06 -6.04357e-05
-1.441e-06 -0.0019119 3.46661e-06
-6.04357e-05 3.46661e-06 -0.00188161
0.00207305 -5.458e-05 -4.73543e-06
-5.458e-05 1.15207e-05 3.53494e-06
-4.73543e-06 3.53494e-06 0.000110617
0.000389739 5.1954e-05 2.361e-05
5.1954e-05 0.000163542 -1.13072e-05
2.361e-05 -1.13072e-05 -0.0001532
0.000638048 -2.01748e-05 2.14754e-05
-2.01748e-05 -0.000230853 -9.23657e-07
2.14754e-05 -9.23657e-07 -0.000605536
0.00179892 -4.1676e-05 -2.60382e-06
-4.1676e-05 -0.000188328 1.90341e-06
-2.60382e-06 1.90341e-06 -5.92107e-05
0.000999019 6.36838e-05 4.6384e-06
6.36838e-05 0.000186059 -3.21418e-06
4.6384e-06 -3.21418e-06 1.96199e-05
0.00168772 1.1588e-05 4.80784e-06
1.1588e-05 -0.000135258 -1.13069e-05
4.80784e-06 -1.13069e-05 -4.01517e-05
0.000820959 5.37311e-05 2.46931e-06
5.37311e-05 -0.000113173 -3.86406e-06
2.46931e-06 -3.86406e-06 -0.000167188
0.00165922 -9.19646e-05 7.41014e-06
-9.19646e-05 9.53274e-05 -1.1973e-06
7.41014e-06 -1.1973e-06 7.83327e-05
0.0015347 -4.29177e-05 2.52301e-06
-4.29177e-05 -1.66379e-05 -2.44904e-07
2.52301e-06 -2.44904e-07 3.20597e-06
0.00160055 3.2788e-06 3.33851e-07
3.2788e-06 7.37364e-05 2.21461e-06
3.33851e-07 2.21461e-06 7.55173e-05
0.00103232 -4.28959e-05 4.55195e-06
-4.28959e-05 -0.00015162 6.79556e-07
4.55195e-06 6.79556e-07 -0.000164467
0.00144581 -2.52576e-05 1.15716e-06
-2.52576e-05 3.866e-05 6.00659e-07
1.15716e-06 6.00659e-07 2.90912e-05
0.00135362 -8.36617e-06 8.06293e-07
-8.36617e-06 1.69942e-05 1.69024e-06
8.06293e-07 1.69024e-06 -1.39052e-05
0.00123441 -3.17779e-05 1.59295e-06
-3.17779e-05 -1.6542e-05 1.64237e-06
1.59295e-06 1.64237e-06 -4.77013e-05
0.00132727 -2.32958e-05 2.28269e-07
-2.32958e-05 3.48982e-05 5.26323e-07
2.28269e-07 5.26323e-07 1.80169e-06
0.00136835 -1.63381e-05 -6.9453e-08
-1.63381e-05 6.31879e-05 1.04687e-06
-6.9453e-08 1.04687e-06 1.75415e-05
0.00133115 -2.98514e-05 3.42742e-07
-2.98514e-05 6.40326e-05 1.02741e-06
3.42742e-07 1.02741e-06 1.99299e-05
0.00126296 -2.51938e-05 -2.44071e-07
-2.51938e-05 3.91054e-05 5.56501e-09
-2.44071e-07 5.56501e-09 -6.4317e-06
0.00126344 -2.48551e-05 5.56991e-07
-2.48551e-05 5.00925e-05 5.48357e-07
5.56991e-07 5.48357e-07 -4.06643e-06
0.00118012 -2.73732e-05 -2.33824e-07
-2.73732e-05 1.3493e-05 8.11849e-07
-2.33824e-07 8.11849e-07 -3.38633e-05
0.0012662 -2.74819e-05 -4.50605e-07
-2.74819e-05 6.04866e-05 -3.25969e-07
-4.50605e-07 -3.25969e-07 7.45921e-06
0.00133251 -2.85592e-05 -7.43508e-08
-2.85592e-05 9.97376e-05 -5.34276e-08
-7.43508e-08 -5.34276e-08 4.15448e-05
0.00127989 -3.17856e-05 6.62411e-07
-3.17856e-05 7.47949e-05 4.30459e-07
6.62411e-07 4.30459e-07 1.66319e-05
0.00126082 -3.1009e-05 9.62564e-08
-3.1009e-05 7.34902e-05 -2.18347e-07
9.62564e-08 -2.18347e-07 1.30787e-05
0.00125665 -2.95427e-05 -6.66525e-07
-2.95427e-05 8.35046e-05 2.14117e-07
-6.66525e-07 2.14117e-07 2.34612e-05
0.000946466 -2.30895e-05 -1.64424e-06
-2.30895e-05 -3.21123e-05 1.08319e-06
-1.64424e-06 1.08319e-06 -9.05723e-05
0.00111254 -3.14384e-05 -2.15534e-07
-3.14384e-05 3.11424e-05 1.02399e-07
-2.15534e-07 1.02399e-07 -3.2147e-05
0.00123667 -3.47068e-05 1.0033e-06
-3.47068e-05 7.82868e-05 -5.74741e-07
1.0033e-06 -5.74741e-07 1.19942e-05
0.000957539 1.95169e-06 -2.16113e-06
1.95169e-06 1.45166e-05 1.65789e-06
-2.16113e-06 1.65789e-06 -3.17263e-05
0.00107095 -2.22789e-05 2.43062e-08
-2.22789e-05 4.53203e-05 6.41553e-08
2.43062e-08 6.41553e-08 -1.23217e-05
0.00111851 -3.32852e-05 5.0889e-07
-3.32852e-05 5.59694e-05 -7.26033e-07
5.0889e-07 -7.26033e-07 -8.42673e-06
0.000800915 2.04898e-05 -4.34795e-06
2.04898e-05 -5.37302e-05 2.69441e-06
-4.34795e-06 2.69441e-06 -6.70705e-05
0.000962415 5.07211e-06 -6.20484e-09
5.07211e-06 1.47923e-05 -2.1693e-08
-6.20484e-09 -2.1693e-08 -2.80592e-05
0.00107349 -1.78256e-05 9.90297e-07
-1.78256e-05 5.40642e-05 -9.08547e-07
9.90297e-07 -9.08547e-07 -2.12241e-06
0.00252955 3.12611e-05 -1.27132e-05
3.12611e-05 0.000794862 3.24696e-06
-1.27132e-05 3.24696e-06 0.000809248
0.000860358 1.97551e-05 6.67925e-08
1.97551e-05 -3.259e-05 3.42057e-08
6.67925e-08 3.42057e-08 -4.36099e-05
0.000971025 8.16292e-06 2.25007e-06
8.16292e-06 1.54824e-05 -1.51837e-06
2.25007e-06 -1.51837e-06 -2.45953e-05
0.00245946 2.86669e-05 1.66608e-07
2.86669e-05 0.000753544 6.22301e-08
1.66608e-07 6.22301e-08 0.000769448
0.000900078 1.86602e-05 3.98531e-06
1.86602e-05 -2.05208e-05 -2.85892e-06
3.98531e-06 -2.85892e-06 -2.96064e-05
0.00241117 2.60852e-05 1.19907e-05
2.60852e-05 0.000723368 -3.50724e-06
1.19907e-05 -3.50724e-06 0.000740589
0.0011018 2.69524e-05 -5.77577e-07
2.69524e-05 7.43643e-05 -2.60137e-07
-5.77577e-07 -2.60137e-07 8.19021e-06
0.00114224 2.37004e-05 6.44962e-08
2.37004e-05 9.13464e-05 5.68787e-08
6.44962e-08 5.68787e-08 2.60928e-05
0.000947786 2.24569e-06 -1.25842e-06
2.24569e-06 7.40216e-07 -5.89022e-07
-1.25842e-06 -5.89022e-07 -5.91134e-05
0.00110863 1.94557e-05 6.52112e-07
1.94557e-05 7.27618e-05 1.2626e-07
6.52112e-07 1.2626e-07 7.7968e-06
0.000936368 -2.0536e-06 -2.33144e-07
-2.0536e-06 -9.37679e-06 -1.16267e-07
-2.33144e-07 -1.16267e-07 -6.86157e-05
0.000973436 -9.29231e-06 -2.33696e-06
-9.29231e-06 1.25541e-05 -1.50845e-06
-2.33696e-06 -1.50845e-06 -2.88781e-05
0.000928435 -3.05543e-06 1.21195e-06
-3.05543e-06 -1.77303e-05 8.95891e-07
1.21195e-06 8.95891e-07 -7.68424e-05
0.000969781 -8.08953e-06 -9.3191e-09
-8.08953e-06 5.18744e-06 2.86008e-08
-9.3191e-09 2.86008e-08 -3.46706e-05
0.000892858 -1.6574e-05 -3.85283e-06
-1.6574e-05 -3.05156e-05 -2.9952e-06
-3.85283e-06 -2.9952e-06 -4.01185e-05
0.000968482 -5.09272e-06 2.22083e-06
-5.09272e-06 -3.51085e-08 1.96523e-06
2.22083e-06 1.96523e-06 -3.8654e-05
0.000886139 -1.46281e-05 -7.87846e-08
-1.46281e-05 -3.91142e-05 3.40076e-08
-7.87846e-08 3.40076e-08 -4.74439e-05
0.00250931 -2.36301e-05 -1.204e-05
-2.36301e-05 0.000766167 -3.77396e-06
-1.204e-05 -3.77396e-06 0.000783511
0.00254663 -2.11283e-05 -2.46401e-07
-2.11283e-05 0.000779345 5.53068e-08
-2.46401e-07 5.53068e-08 0.000797458
0.000881674 -1.30398e-05 2.91282e-06
-1.30398e-05 -4.50988e-05 3.29396e-06
2.91282e-06 3.29396e-06 -5.24337e-05
0.00252685 -1.86826e-05 1.02792e-05
-1.86826e-05 0.000765173 3.99687e-06
1.02792e-05 3.99687e-06 0.000784257
0.000242207 -2.09004e-05 -4.22579e-05
-2.09004e-05 -0.000178145 -6.6392e-06
-4.22579e-05 -6.6392e-06 -0.000260212
0.00162491 2.82028e-05 -1.33235e-05
2.82028e-05 -0.000134974 -4.40118e-06
-1.33235e-05 -4.40118e-06 -0.000498635
0.00291413 -6.35377e-05 -2.33167e-05
-6.35377e-05 0.00105987 -3.55455e-06
-2.33167e-05 -3.55455e-06 0.000999335
0.00119692 3.64173e-05 1.34279e-06
3.64173e-05 0.000113535 3.86789e-07
1.34279e-06 3.86789e-07 4.36919e-05
0.00118809 3.44377e-05 7.09416e-07
3.44377e-05 0.00010886 -2.6686e-07
7.09416e-07 -2.6686e-07 3.71368e-05
0.00112969 3.31699e-05 3.85193e-07
3.31699e-05 8.48805e-05 -1.89359e-07
3.85193e-07 -1.89359e-07 1.68745e-05
0.00109058 3.39934e-05 8.1546e-09
3.39934e-05 6.79992e-05 1.00891e-08
8.1546e-09 1.00891e-08 -2.80895e-06
0.00111612 3.38094e-05 -1.70542e-07
3.38094e-05 8.45325e-05 -1.69192e-07
-1.70542e-07 -1.69192e-07 1.52554e-05
0.000916866 3.45071e-05 -8.41665e-07
3.45071e-05 -1.12286e-05 5.41373e-07
-8.41665e-07 5.41373e-07 -7.89251e-05
0.00115319 3.52126e-05 1.39236e-06
3.52126e-05 9.84636e-05 -7.47497e-07
1.39236e-06 -7.47497e-07 2.39996e-05
0.00105024 3.80349e-05 7.39542e-07
3.80349e-05 5.99027e-05 -1.36062e-06
7.39542e-07 -1.36062e-06 -2.11043e-05
0.00108917 4.00829e-05 -4.75795e-08
4.00829e-05 6.45303e-05 -5.10967e-08
-4.75795e-08 -5.10967e-08 -8.73772e-06
0.00160717 5.23579e-05 1.7064e-07
5.23579e-05 0.000304762 1.82274e-07
1.7064e-07 1.82274e-07 0.000228025
0.00134608 5.52141e-05 -1.72164e-07
5.52141e-05 0.000128956 -2.16274e-06
-1.72164e-07 -2.16274e-06 4.43557e-05
0.0016565 6.21359e-05 -6.79732e-06
6.21359e-05 0.000133841 -1.38846e-06
-6.79732e-06 -1.38846e-06 2.458e-05
0.00124176 6.1408e-05 2.15931e-06
6.1408e-05 7.69065e-05 1.7429e-06
2.15931e-06 1.7429e-06 -2.29005e-05
0.00080978 4.18372e-05 -3.92202e-07
4.18372e-05 -7.82646e-05 1.49803e-06
-3.92202e-07 1.49803e-06 -0.000159086
0.00188325 -3.43659e-05 5.90638e-06
-3.43659e-05 3.05557e-05 6.39968e-06
5.90638e-06 6.39968e-06 -3.99729e-05
0.000848506 7.22542e-06 2.87013e-06
7.22542e-06 -4.16136e-05 1.26372e-06
2.87013e-06 1.26372e-06 -0.000170867
0.000513964 -2.73463e-05 -2.86797e-05
-2.73463e-05 -0.000483294 -1.5708e-05
-2.86797e-05 -1.5708e-05 -0.000803386
0.0029932 8.827e-05 1.65687e-05
8.827e-05 0.000597402 2.80287e-05
1.65687e-05 2.80287e-05 0.000400468
0.00171271 3.4901e-05 7.69878e-06
3.4901e-05 5.34633e-05 1.15666e-06
7.69878e-06 1.15666e-06 -4.67506e-05
-0.000421865 6.32445e-05 2.47041e-09
6.32445e-05 -0.000719424 6.29819e-06
2.47041e-09 6.29819e-06 -0.000835566
0.00185163 5.72e-06 7.43955e-06
5.72e-06 0.000517393 -4.16394e-06
7.43955e-06 -4.16394e-06 0.000465887
0.000322516 7.218e-06 -1.72691e-05
7.218e-06 1.03918e-05 -3.17756e-07
-1.72691e-05 -3.17756e-07 -9.7373e-05
0.00109572 0.000104192 6.27374e-05
0.000104192 -0.000484037 -5.12618e-06
6.27374e-05 -5.12618e-06 -0.000819213
0.00190595 -5.42904e-05 6.50084e-07
-5.42904e-05 -0.000102082 5.86352e-06
6.50084e-07 5.86352e-06 -3.97434e-06
0.000783644 5.22253e-05 3.83712e-05
5.22253e-05 -8.41922e-05 -1.37735e-05
3.83712e-05 -1.37735e-05 -0.000313007
0.00201166 2.43434e-07 3.5298e-06
2.43434e-07 3.62289e-05 1.13682e-07
3.5298e-06 1.13682e-07 0.00010198
0.0010772 5.85974e-05 9.5928e-07
5.85974e-05 1.62047e-05 -2.90985e-06
9.5928e-07 -2.90985e-06 -4.07837e-05
0.000931009 4.65631e-05 -3.65309e-06
4.65631e-05 -0.000277657 5.32937e-07
-3.65309e-06 5.32937e-07 -0.000328135
0.000384884 3.59904e-05 -2.88495e-06
3.59904e-05 -0.000438475 -4.26884e-06
-2.88495e-06 -4.26884e-06 -0.000514731
0.00135952 -4.10106e-05 6.92022e-06
-4.10106e-05 -0.00010226 -7.66736e-07
6.92022e-06 -7.66736e-07 -7.57918e-05
0.00149429 1.5341e-06 1.35476e-06
1.5341e-06 3.60915e-05 3.62806e-07
1.35476e-06 3.62806e-07 3.08309e-05
0.00155487 1.91116e-05 -3.77106e-07
1.91116e-05 0.00012432 7.00408e-07
-3.77106e-07 7.00408e-07 7.9129e-05
0.00159725 -2.58246e-05 -3.10185e-08
-2.58246e-05 0.000117189 2.98265e-07
-3.10185e-08 2.98265e-07 0.000105039
0.0014801 -8.70732e-06 -3.41154e-07
-8.70732e-06 8.18138e-05 -2.03541e-08
-3.41154e-07 -2.03541e-08 4.94967e-05
0.00143716 -1.1198e-06 1.53072e-07
-1.1198e-06 8.01449e-05 1.25709e-06
1.53072e-07 1.25709e-06 2.89208e-05
0.00139984 -2.39539e-05 -8.69104e-07
-2.39539e-05 7.34963e-05 -1.39482e-07
-8.69104e-07 -1.39482e-07 3.89613e-05
0.00135585 -1.76021e-05 -7.60117e-07
-1.76021e-05 6.33935e-05 -4.9964e-07
-7.60117e-07 -4.9964e-07 1.78233e-05
0.00129015 -1.8276e-05 -7.81139e-09
-1.8276e-05 4.40334e-05 1.23336e-06
-7.81139e-09 1.23336e-06 -1.42788e-05
0.00125279 -2.61456e-05 -8.1133e-07
-2.61456e-05 3.81844e-05 -8.6764e-07
-8.1133e-07 -8.6764e-07 -7.71917e-06
0.00125585 -2.45618e-05 6.80135e-08
-2.45618e-05 4.70334e-05 -3.05858e-07
6.80135e-08 -3.05858e-07 -7.14623e-06
0.00125864 -2.60991e-05 -4.60407e-08
-2.60991e-05 5.67149e-05 4.53336e-07
-4.60407e-08 4.53336e-07 -2.88181e-06
0.00117886 -2.64439e-05 -6.0651e-07
-2.64439e-05 1.83118e-05 1.79764e-07
-6.0651e-07 1.79764e-07 -3.38429e-05
0.00125001 -2.72066e-05 -1.21673e-07
-2.72066e-05 5.93583e-05 -2.15351e-07
-1.21673e-07 -2.15351e-07 1.70075e-06
0.00120983 -2.62591e-05 -6.44419e-07
-2.62591e-05 5.11705e-05 2.31781e-07
-6.44419e-07 2.31781e-07 -8.38152e-06
0.00125863 -3.09032e-05 7.31889e-07
-3.09032e-05 7.22749e-05 -1.35691e-07
7.31889e-07 -1.35691e-07 1.17071e-05
0.00117895 -2.86978e-05 1.34666e-07
-2.86978e-05 4.57106e-05 -1.33549e-07
1.34666e-07 -1.33549e-07 -1.46497e-05
0.00114748 -2.40334e-05 -1.31356e-06
-2.40334e-05 4.95784e-05 7.2691e-07
-1.31356e-06 7.2691e-07 -7.72326e-06
0.000974597 -3.07551e-06 -2.30037e-06
-3.07551e-06 1.65513e-05 1.55642e-06
-2.30037e-06 1.55642e-06 -3.20197e-05
0.00101545 -2.34752e-05 -3.48017e-07
-2.34752e-05 2.93194e-06 2.21849e-07
-3.48017e-07 2.21849e-07 -5.52402e-05
0.00117451 -3.22541e-05 7.32569e-07
-3.22541e-05 6.29522e-05 -5.88565e-07
7.32569e-07 -5.88565e-07 -1.81095e-07
0.000766241 2.13655e-05 -4.46358e-06
2.13655e-05 -6.31933e-05 2.68171e-06
-4.46358e-06 2.68171e-06 -7.96445e-05
0.000965154 -2.12422e-07 2.89557e-08
-2.12422e-07 1.61614e-05 3.79332e-08
2.89557e-08 3.79332e-08 -2.98501e-05
0.00107453 -2.15791e-05 1.11296e-06
-2.15791e-05 4.71344e-05 -9.14196e-07
1.11296e-06 -9.14196e-07 -1.04881e-05
0.00257775 3.36476e-05 -1.31445e-05
3.36476e-05 0.000827073 3.08298e-06
-1.31445e-05 3.08298e-06 0.000839664
0.000840689 2.08032e-05 2.65175e-09
2.08032e-05 -3.4404e-05 7.32224e-09
2.65175e-09 7.32224e-09 -4.79438e-05
0.000978194 3.25484e-06 2.24296e-06
3.25484e-06 2.0577e-05 -1.55072e-06
2.24296e-06 -1.55072e-06 -2.20771e-05
0.00248816 3.10684e-05 1.84145e-07
3.10684e-05 0.000775792 7.31042e-08
1.84145e-07 7.31042e-08 0.000790088
0.000887538 1.99231e-05 4.29753e-06
1.99231e-05 -1.93304e-05 -2.72229e-06
4.29753e-06 -2.72229e-06 -3.04972e-05
0.00241487 2.85105e-05 1.23615e-05
2.85105e-05 0.000732796 -3.36863e-06
1.23615e-05 -3.36863e-06 0.000748661
0.00102952 3.04986e-05 -5.10925e-07
3.04986e-05 3.47083e-05 -3.82794e-07
-5.10925e-07 -3.82794e-07 -3.25577e-05
0.00108215 2.69078e-05 -7.70432e-08
2.69078e-05 6.45642e-05 -1.38544e-07
-7.70432e-08 -1.38544e-07 -1.49591e-06
0.00106484 1.10107e-05 -1.00896e-06
1.10107e-05 5.92473e-05 -3.663e-07
-1.00896e-06 -3.663e-07 -9.20707e-07
0.00122386 2.51856e-05 4.79813e-07
2.51856e-05 0.000130894 -8.09426e-08
4.79813e-07 -8.09426e-08 6.60306e-05
0.000995513 3.59496e-06 -2.17089e-07
3.59496e-06 2.46459e-05 -1.10377e-07
-2.17089e-07 -1.10377e-07 -3.49662e-05
0.00096939 -8.76891e-06 -2.31066e-06
-8.76891e-06 1.68732e-05 -1.35917e-06
-2.31066e-06 -1.35917e-06 -2.66802e-05
0.000941826 -8.99191e-07 9.17721e-07
-8.99191e-07 -5.73923e-06 4.51113e-07
9.17721e-07 4.51113e-07 -6.50603e-05
0.000961448 -9.68891e-06 -8.51877e-09
-9.68891e-06 7.07687e-06 2.85966e-08
-8.51877e-09 2.85966e-08 -3.44143e-05
0.000885579 -1.84773e-05 -4.08937e-06
-1.84773e-05 -2.71824e-05 -2.82205e-06
-4.08937e-06 -2.82205e-06 -3.84467e-05
0.000958208 -8.09637e-06 2.34354e-06
-8.09637e-06 -4.73719e-07 1.8301e-06
2.34354e-06 1.8301e-06 -4.03265e-05
0.000878135 -1.64115e-05 -4.21963e-08
-1.64115e-05 -3.80342e-05 3.32964e-08
-4.21963e-08 3.32964e-08 -4.75102e-05
0.00249532 -2.61675e-05 -1.23381e-05
-2.61675e-05 0.000765482 -3.60555e-06
-1.23381e-05 -3.60555e-06 0.000781798
0.000874085 -1.44977e-05 3.35747e-06
-1.44977e-05 -4.53346e-05 3.21612e-06
3.35747e-06 3.21612e-06 -5.35499e-05
0.00255379 -2.36712e-05 -2.07045e-07
-2.36712e-05 0.000787418 5.98988e-08
-2.07045e-07 5.98988e-08 0.00080469
0.00257704 -2.11765e-05 1.13751e-05
-2.11765e-05 0.000793956 3.9455e-06
1.13751e-05 3.9455e-06 0.000812014
0.00133786 -5.11374e-05 7.18782e-06
-5.11374e-05 -9.53765e-05 6.53392e-08
7.18782e-06 6.53392e-08 -0.00013152
0.00113899 4.62608e-06 -6.49723e-06
4.62608e-06 5.51189e-05 6.43534e-06
-6.49723e-06 6.43534e-06 -0.000113662
0.00429345 4.15271e-05 -5.04233e-05
4.15271e-05 0.00114072 -1.54733e-05
-5.04233e-05 -1.54733e-05 0.000776339
0.000978432 3.46841e-05 5.65419e-07
3.46841e-05 5.86897e-06 3.7559e-07
5.65419e-07 3.7559e-07 -6.18513e-05
0.00130788 4.06439e-05 8.34397e-07
4.06439e-05 0.000135637 -7.05429e-07
8.34397e-07 -7.05429e-07 6.3647e-05
0.00098914 3.41542e-05 2.70539e-07
3.41542e-05 1.88272e-05 -1.41069e-07
2.70539e-07 -1.41069e-07 -5.09918e-05
0.00117905 3.52862e-05 5.54205e-07
3.52862e-05 0.000110134 -5.74235e-07
5.54205e-07 -5.74235e-07 3.92487e-05
0.0010935 3.39894e-05 -6.57682e-08
3.39894e-05 7.46486e-05 -2.08219e-07
-6.57682e-08 -2.08219e-07 5.06552e-06
0.00107796 3.70947e-05 1.91805e-07
3.70947e-05 6.3316e-05 3.99245e-07
1.91805e-07 3.99245e-07 -4.63142e-06
0.00126857 4.8486e-05 -8.28356e-07
4.8486e-05 8.7391e-05 -1.43535e-06
-8.28356e-07 -1.43535e-06 9.07798e-06
0.00135173 4.34966e-05 1.1251e-06
4.34966e-05 0.000190037 1.21801e-08
1.1251e-06 1.21801e-08 0.000117009
0.00100391 4.45669e-05 -2.06222e-06
4.45669e-05 2.70615e-05 -8.55538e-08
-2.06222e-06 -8.55538e-08 -4.80279e-05
0.00123035 5.37804e-05 1.58395e-07
5.37804e-05 7.50736e-05 4.7962e-08
1.58395e-07 4.7962e-08 -1.02187e-05
0.00124308 5.11209e-05 -4.96826e-07
5.11209e-05 -2.89343e-05 -1.43976e-06
-4.96826e-07 -1.43976e-06 -0.000125113
0.00169312 1.43848e-05 -4.7064e-06
1.43848e-05 0.000103864 2.44854e-06
-4.7064e-06 2.44854e-06 3.23849e-05
0.00172045 6.0507e-05 -1.95131e-06
6.0507e-05 0.000165797 8.35248e-07
-1.95131e-06 8.35248e-07 5.93844e-05
0.000883039 5.57705e-05 1.07343e-06
5.57705e-05 -8.69758e-05 5.24724e-06
1.07343e-06 5.24724e-06 -0.000184931
0.00198036 -2.90335e-05 8.07767e-07
-2.90335e-05 7.94966e-05 2.225e-07
8.07767e-07 2.225e-07 9.31437e-06
0.00140247 1.51276e-06 6.44237e-05
1.51276e-06 8.66493e-05 1.99153e-05
6.44237e-05 1.99153e-05 -9.86982e-05
0.00220607 4.79474e-05 -7.14344e-06
4.79474e-05 0.000226383 -6.94266e-07
-7.14344e-06 -6.94266e-07 0.000104728
0.00154241 1.73989e-05 -2.02147e-06
1.73989e-05 0.00015594 -3.67707e-06
-2.02147e-06 -3.67707e-06 0.000103522
0.00109545 -2.45641e-06 2.80859e-06
-2.45641e-06 0.000131946 -5.6624e-07
2.80859e-06 -5.6624e-07 9.24147e-05
0.000928571 3.8159e-05 4.28517e-05
3.8159e-05 -4.87119e-05 1.71855e-06
4.28517e-05 1.71855e-06 -0.000198913
0.00196692 -1.18418e-05 6.80683e-06
-1.18418e-05 3.43959e-05 -1.57658e-08
6.80683e-06 -1.57658e-08 7.28915e-05
0.00110442 6.11891e-05 -3.7429e-06
6.11891e-05 4.10173e-05 5.91299e-07
-3.7429e-06 5.91299e-07 -1.73995e-05
0.00152669 5.0898e-05 -1.57607e-06
5.0898e-05 4.92135e-06 2.62844e-06
-1.57607e-06 2.62844e-06 -3.98044e-05
0.00117242 4.43367e-05 3.29639e-07
4.43367e-05 -5.06879e-05 1.23394e-06
3.29639e-07 1.23394e-06 -0.00012409
0.00138189 3.87859e-05 -2.28602e-06
3.87859e-05 5.88365e-05 -1.0383e-06
-2.28602e-06 -1.0383e-06 -8.83506e-06
0.00132255 3.56285e-05 -1.59911e-06
3.56285e-05 7.86621e-05 -2.15285e-06
-1.59911e-06 -2.15285e-06 2.06753e-05
0.00128573 -2.81594e-07 1.73692e-06
-2.81594e-07 -5.15132e-05 -1.20582e-06
1.73692e-06 -1.20582e-06 -6.33124e-05
0.00147497 1.75864e-05 -8.04215e-07
1.75864e-05 8.64115e-05 -1.38536e-06
-8.04215e-07 -1.38536e-06 4.18937e-05
0.00150209 2.44196e-05 -6.72167e-07
2.44196e-05 0.000111464 5.0031e-07
-6.72167e-07 5.0031e-07 4.82923e-05
0.00150619 -8.90192e-06 -2.37084e-06
-8.90192e-06 9.77028e-05 -1.31495e-06
-2.37084e-06 -1.31495e-06 6.43148e-05
0.00141239 -1.06674e-06 -2.54144e-07
-1.06674e-06 7.12819e-05 -2.34335e-07
-2.54144e-07 -2.34335e-07 1.97633e-05
0.00126905 -8.20208e-07 -4.20112e-07
-8.20208e-07 1.36303e-05 1.10721e-06
-4.20112e-07 1.10721e-06 -4.90194e-05
0.00132441 -1.86973e-05 -1.8624e-06
-1.86973e-05 5.434e-05 -1.63405e-06
-1.8624e-06 -1.63405e-06 8.907e-06
0.0012967 -1.78e-05 1.35233e-07
-1.78e-05 4.72983e-05 -9.48399e-08
1.35233e-07 -9.48399e-08 -1.10261e-05
0.00128465 -2.07133e-05 -3.43863e-07
-2.07133e-05 5.26827e-05 8.86284e-07
-3.43863e-07 8.86284e-07 -1.0609e-05
0.00124943 -2.42539e-05 -3.83808e-07
-2.42539e-05 4.45127e-05 -1.16041e-06
-3.83808e-07 -1.16041e-06 -9.68584e-06
0.00125723 -2.56791e-05 1.45181e-08
-2.56791e-05 5.58107e-05 -2.13392e-07
1.45181e-08 -2.13392e-07 -3.75983e-06
0.00123337 -2.57779e-05 -5.89871e-07
-2.57779e-05 5.56583e-05 4.57852e-07
-5.89871e-07 4.57852e-07 -5.55858e-06
0.00116687 -2.59193e-05 8.66727e-08
-2.59193e-05 1.86719e-05 -2.06665e-07
8.66727e-08 -2.06665e-07 -3.84517e-05
0.00116876 -2.57319e-05 -1.08578e-07
-2.57319e-05 3.12022e-05 -9.89104e-08
-1.08578e-07 -9.89104e-08 -2.82369e-05
0.00115971 -2.23926e-05 -1.31999e-06
-2.23926e-05 4.62706e-05 6.01085e-07
-1.31999e-06 6.01085e-07 -1.10218e-05
0.00110531 -2.79103e-05 1.05184e-06
-2.79103e-05 9.85527e-06 -5.05835e-07
1.05184e-06 -5.05835e-07 -5.0828e-05
0.00105775 -2.26367e-05 -1.1806e-09
-2.26367e-05 6.76419e-06 1.17552e-08
-1.1806e-09 1.17552e-08 -5.07278e-05
0.000983585 -5.72009e-06 -2.37135e-06
-5.72009e-06 1.09886e-05 1.28808e-06
-2.37135e-06 1.28808e-06 -3.84007e-05
0.000796323 2.28414e-05 -4.60594e-06
2.28414e-05 -4.40425e-05 2.63992e-06
-4.60594e-06 2.63992e-06 -6.37372e-05
0.000969107 -4.45866e-06 -1.85528e-08
-4.45866e-06 1.2414e-05 1.06954e-07
-1.85528e-08 1.06954e-07 -3.59148e-05
0.00109226 -2.39852e-05 8.54689e-07
-2.39852e-05 4.163e-05 -6.18168e-07
8.54689e-07 -6.18168e-07 -1.62533e-05
0.00265185 3.60658e-05 -1.35425e-05
3.60658e-05 0.000871857 2.92659e-06
-1.35425e-05 2.92659e-06 0.000882454
0.000818407 2.19012e-05 2.26817e-08
2.19012e-05 -3.79976e-05 -7.32751e-09
2.26817e-08 -7.32751e-09 -5.4679e-05
0.000974905 -2.18261e-06 2.31937e-06
-2.18261e-06 1.88535e-05 -1.54043e-06
2.31937e-06 -1.54043e-06 -2.69266e-05
0.00253953 3.34401e-05 1.55125e-07
3.34401e-05 0.00080948 7.40359e-08
1.55125e-07 7.40359e-08 0.00082195
0.000878962 2.11071e-05 4.43585e-06
2.11071e-05 -1.579e-05 -2.65926e-06
4.43585e-06 -2.65926e-06 -2.95279e-05
0.00244686 3.08824e-05 1.2787e-05
3.08824e-05 0.000756735 -3.20078e-06
1.2787e-05 -3.20078e-06 0.000770946
0.000875202 3.1976e-05 -5.52119e-07
3.1976e-05 -5.31625e-05 -6.30651e-07
-5.52119e-07 -6.30651e-07 -0.000123254
0.000937898 2.96521e-05 -5.07093e-08
2.96521e-05 -1.01507e-05 -9.56678e-08
-5.07093e-08 -9.56678e-08 -7.77628e-05
0.00109357 1.84079e-05 -1.1066e-06
1.84079e-05 6.71699e-05 -3.31661e-07
-1.1066e-06 -3.31661e-07 6.30513e-06
0.00106115 2.67917e-05 2.59206e-07
2.67917e-05 5.41425e-05 -1.12795e-07
2.59206e-07 -1.12795e-07 -1.18031e-05
0.00103614 1.00713e-05 2.72919e-09
1.00713e-05 4.5973e-05 1.84745e-08
2.72919e-09 1.84745e-08 -1.42156e-05
0.000971691 -6.65693e-06 -2.34902e-06
-6.65693e-06 2.28468e-05 -1.19047e-06
-2.34902e-06 -1.19047e-06 -2.30844e-05
0.00104336 4.77769e-06 8.82246e-07
4.77769e-06 4.86243e-05 2.99338e-07
8.82246e-07 2.99338e-07 -1.07544e-05
0.000954326 -9.55923e-06 7.37119e-09
-9.55923e-06 1.04491e-05 9.55262e-09
7.37119e-09 9.55262e-09 -3.32242e-05
0.000877045 -2.03033e-05 -4.26497e-06
-2.03033e-05 -2.26316e-05 -2.65483e-06
-4.26497e-06 -2.65483e-06 -3.61302e-05
0.000949874 -1.00378e-05 2.37685e-06
-1.00378e-05 1.82047e-06 1.65512e-06
2.37685e-06 1.65512e-06 -3.97331e-05
0.000866465 -1.82801e-05 -3.25976e-08
-1.82801e-05 -3.67558e-05 3.27615e-08
-3.25976e-08 3.27615e-08 -4.7884e-05
0.00248921 -2.86565e-05 -1.2615e-05
-2.86565e-05 0.000770482 -3.424e-06
-1.2615e-05 -3.424e-06 0.000785411
0.000863725 -1.62494e-05 3.7112e-06
-1.62494e-05 -4.54231e-05 3.08586e-06
3.7112e-06 3.08586e-06 -5.47695e-05
0.00254833 -2.62589e-05 -1.78728e-07
-2.62589e-05 0.000790516 6.3839e-08
-1.78728e-07 6.3839e-08 0.000806797
0.00259802 -2.37255e-05 1.21138e-05
-2.37255e-05 0.000808578 3.8314e-06
1.21138e-05 3.8314e-06 0.000825772
0.00164827 -1.48297e-05 -3.74445e-07
-1.48297e-05 0.000140664 -5.35599e-07
-3.74445e-07 -5.35599e-07 9.73393e-05
0.00119136 -4.57478e-05 -8.73605e-07
-4.57478e-05 -7.72199e-05 -2.02174e-06
-8.73605e-07 -2.02174e-06 -0.000111779
-0.000407318 -3.63183e-06 3.50453e-05
-3.63183e-06 -0.000247147 9.5033e-06
3.50453e-05 9.5033e-06 -0.000328427
0.00157772 4.50033e-05 7.73815e-07
4.50033e-05 0.000234139 -1.09927e-06
7.73815e-07 -1.09927e-06 0.000161657
0.00097297 3.51419e-05 -3.87681e-07
3.51419e-05 9.65446e-06 1.14194e-07
-3.87681e-07 1.14194e-07 -5.63692e-05
0.000812752 3.66695e-05 -1.23448e-06
3.66695e-05 -0.000140702 7.33778e-08
-1.23448e-06 7.33778e-08 -0.000218072
0.00126527 4.01811e-05 8.99695e-08
4.01811e-05 0.000114989 4.96094e-08
8.99695e-08 4.96094e-08 4.25906e-05
0.000783734 3.18827e-05 -4.31852e-07
3.18827e-05 -7.45228e-05 4.46743e-07
-4.31852e-07 4.46743e-07 -0.000144345
0.0015369 4.81992e-05 -1.20873e-06
4.81992e-05 0.000123887 -3.08526e-06
-1.20873e-06 -3.08526e-06 3.88825e-05
0.0012414 3.96828e-05 1.51235e-07
3.96828e-05 0.000139013 -2.27074e-07
1.51235e-07 -2.27074e-07 7.08119e-05
0.00125872 4.80452e-05 4.20684e-08
4.80452e-05 8.04213e-05 8.28556e-07
4.20684e-08 8.28556e-07 2.83806e-06
0.00143515 1.15709e-05 1.12419e-08
1.15709e-05 -4.01626e-06 2.79988e-06
1.12419e-08 2.79988e-06 -7.83043e-05
0.00112545 5.24129e-05 7.49887e-07
5.24129e-05 2.59793e-05 1.97055e-06
7.49887e-07 1.97055e-06 -5.99709e-05
0.0014825 5.43172e-05 -4.17778e-07
5.43172e-05 7.19353e-05 -5.15975e-07
-4.17778e-07 -5.15975e-07 -2.59097e-05
0.00161548 1.33997e-05 -4.27309e-08
1.33997e-05 5.94296e-05 3.96656e-07
-4.27309e-08 3.96656e-07 -1.22151e-05
0.00175524 5.83746e-05 1.05474e-06
5.83746e-05 0.000183754 1.76868e-06
1.05474e-06 1.76868e-06 8.02125e-05
0.00180597 -2.34444e-05 -1.07539e-05
-2.34444e-05 8.73471e-07 -8.1501e-06
-1.07539e-05 -8.1501e-06 -6.81612e-05
0.00152601 -6.08406e-07 -7.7548e-07
-6.08406e-07 0.000172395 -2.00564e-06
-7.7548e-07 -2.00564e-06 0.00012558
0.00104233 1.42781e-05 1.77246e-06
1.42781e-05 -8.3972e-05 5.25196e-07
1.77246e-06 5.25196e-07 -0.000135479
0.000285097 -8.88113e-06 -1.56113e-06
-8.88113e-06 -0.000276165 2.6194e-06
-1.56113e-06 2.6194e-06 -0.000304798
0.00215137 5.51389e-05 -1.35434e-06
5.51389e-05 0.000302391 -2.38529e-06
-1.35434e-06 -2.38529e-06 0.000262539
0.00194422 5.21914e-05 9.17782e-06
5.21914e-05 0.000330759 5.44955e-06
9.17782e-06 5.44955e-06 0.000260149
0.00152825 4.07485e-05 -1.87456e-06
4.07485e-05 0.000117372 -1.16199e-06
-1.87456e-06 -1.16199e-06 5.0431e-05
0.00141081 3.57086e-05 8.51822e-07
3.57086e-05 0.000117913 1.76048e-06
8.51822e-07 1.76048e-06 6.01982e-05
0.00138155 3.40322e-05 -2.40321e-06
3.40322e-05 9.47801e-05 -2.75876e-06
-2.40321e-06 -2.75876e-06 3.37961e-05
0.00145526 1.60085e-05 -2.04248e-06
1.60085e-05 7.87637e-05 -1.97344e-06
-2.04248e-06 -1.97344e-06 3.45641e-05
0.00145973 2.32137e-05 -1.09437e-08
2.32137e-05 8.93092e-05 -3.07836e-07
-1.09437e-08 -3.07836e-07 2.71999e-05
0.00144665 2.43784e-05 -1.73959e-06
2.43784e-05 9.48214e-05 -8.06911e-07
-1.73959e-06 -8.06911e-07 2.81551e-05
0.00140135 -1.1402e-06 -8.38337e-07
-1.1402e-06 6.9268e-05 -1.49444e-06
-8.38337e-07 -1.49444e-06 1.7392e-05
0.00132703 -3.03929e-07 2.15272e-07
-3.03929e-07 4.22479e-05 1.58262e-07
2.15272e-07 1.58262e-07 -2.09066e-05
0.00134255 -1.35338e-06 -8.11606e-07
-1.35338e-06 6.18669e-05 6.25179e-07
-8.11606e-07 6.25179e-07 -4.99044e-06
0.00130173 -1.72549e-05 -3.03974e-08
-1.72549e-05 4.98625e-05 -1.38916e-06
-3.03974e-08 -1.38916e-06 -8.47514e-06
0.0012935 -2.01165e-05 1.00794e-07
-2.01165e-05 5.62997e-05 -5.03178e-08
1.00794e-07 -5.03178e-08 -7.02639e-06
0.00125596 -2.2136e-05 -7.89491e-07
-2.2136e-05 5.26486e-05 6.60639e-07
-7.89491e-07 6.60639e-07 -1.14046e-05
0.00125603 -2.53033e-05 1.07076e-07
-2.53033e-05 5.50101e-05 -8.72212e-07
1.07076e-07 -8.72212e-07 -4.53518e-06
0.00123259 -2.55429e-05 -1.09844e-08
-2.55429e-05 5.4994e-05 -1.29989e-07
-1.09844e-08 -1.29989e-07 -6.20601e-06
0.00116771 -2.19516e-05 -1.26588e-06
-2.19516e-05 4.25259e-05 6.05572e-07
-1.26588e-06 6.05572e-07 -1.63651e-05
0.00112439 -2.51332e-05 6.09579e-07
-2.51332e-05 9.6536e-06 -4.49195e-07
6.09579e-07 -4.49195e-07 -4.96666e-05
0.00114749 -2.18527e-05 -1.12676e-08
-2.18527e-05 4.05239e-05 -3.53581e-08
-1.12676e-08 -3.53581e-08 -1.67366e-05
0.00099548 -7.79687e-06 -2.387e-06
-7.79687e-06 7.71401e-06 1.06385e-06
-2.387e-06 1.06385e-06 -4.21127e-05
0.000961942 -2.11348e-05 1.24112e-06
-2.11348e-05 -3.88869e-05 -6.46698e-07
1.24112e-06 -6.46698e-07 -9.65697e-05
0.000974394 -6.23706e-06 -5.63096e-08
-6.23706e-06 6.1583e-06 1.00882e-07
-5.63096e-08 1.00882e-07 -4.30971e-05
0.00161467 2.92189e-05 -4.25897e-06
2.92189e-05 0.000363055 1.42795e-06
-4.25897e-06 1.42795e-06 0.00034403
0.00119868 2.64942e-05 -1.52433e-05
2.64942e-05 0.000160884 4.78566e-06
-1.52433e-05 4.78566e-06 0.000161084
0.0012253 2.63502e-05 -4.2841e-07
2.63502e-05 0.000167252 2.43422e-08
-4.2841e-07 2.43422e-08 0.000149246
0.000965191 -5.80852e-06 2.43118e-06
-5.80852e-06 9.01662e-06 -1.3773e-06
2.43118e-06 -1.3773e-06 -3.90696e-05
0.00261882 3.57842e-05 1.55287e-07
3.57842e-05 0.000856612 8.02453e-08
1.55287e-07 8.02453e-08 0.000867036
0.000870358 2.24553e-05 4.43954e-06
2.24553e-05 -1.2902e-05 -2.61698e-06
4.43954e-06 -2.61698e-06 -2.98138e-05
0.0024995 3.31838e-05 1.32768e-05
3.31838e-05 0.000791011 -3.05984e-06
1.32768e-05 -3.05984e-06 0.000803368
0.00113052 3.80335e-05 -4.24715e-10
3.80335e-05 -1.11603e-05 -8.28244e-09
-4.24715e-10 -8.28244e-09 -8.3487e-05
0.000899158 3.42278e-05 2.89565e-07
3.42278e-05 -6.08822e-05 -3.35031e-08
2.89565e-07 -3.35031e-08 -0.000133569
0.000932073 3.30185e-05 -4.6533e-08
3.30185e-05 -2.89633e-05 -2.88181e-08
-4.6533e-08 -2.88181e-08 -9.93916e-05
0.0011133 2.38447e-05 -1.09901e-06
2.38447e-05 6.82713e-05 -5.09594e-07
-1.09901e-06 -5.09594e-07 6.38951e-06
0.000843891 2.87579e-05 3.32541e-07
2.87579e-05 -5.62062e-05 3.0103e-07
3.32541e-07 3.0103e-07 -0.000124153
0.00105672 1.71628e-05 -3.50432e-08
1.71628e-05 5.01591e-05 2.01254e-08
-3.50432e-08 2.01254e-08 -1.06528e-05
0.000977328 -3.29462e-06 -2.39357e-06
-3.29462e-06 2.75109e-05 -1.00147e-06
-2.39357e-06 -1.00147e-06 -2.04281e-05
0.00100836 9.12096e-06 9.85632e-07
9.12096e-06 3.31255e-05 3.67433e-07
9.85632e-07 3.67433e-07 -2.70828e-05
0.000950614 -7.74368e-06 -2.79447e-08
-7.74368e-06 1.4011e-05 3.035e-08
-2.79447e-08 3.035e-08 -3.20807e-05
0.000867269 -2.19314e-05 -4.43698e-06
-2.19314e-05 -1.7848e-05 -2.45867e-06
-4.43698e-06 -2.45867e-06 -3.39625e-05
0.000938903 -1.02647e-05 2.37227e-06
-1.02647e-05 3.86846e-06 1.4655e-06
2.37227e-06 1.4655e-06 -3.99254e-05
0.000849848 -2.00222e-05 -1.16232e-08
-2.00222e-05 -3.60033e-05 2.45215e-08
-1.16232e-08 2.45215e-08 -4.93481e-05
0.00249992 -3.10365e-05 -1.29623e-05
-3.10365e-05 0.000785402 -3.24289e-06
-1.29623e-05 -3.24289e-06 0.00079857
0.000847255 -1.80836e-05 3.9694e-06
-1.80836e-05 -4.63957e-05 2.92576e-06
3.9694e-06 2.92576e-06 -5.73847e-05
0.00254457 -2.8814e-05 -1.73256e-07
-2.8814e-05 0.000796223 6.81634e-08
-1.73256e-07 6.81634e-08 0.000811191
0.00260206 -2.63399e-05 1.25488e-05
-2.63399e-05 0.000815922 3.67394e-06
1.25488e-05 3.67394e-06 0.000832162
0.00153601 -2.58186e-05 8.17593e-07
-2.58186e-05 9.5106e-05 9.32565e-07
8.17593e-07 9.32565e-07 4.35441e-05
0.00150692 -1.43755e-05 2.35805e-06
-1.43755e-05 6.48523e-05 -1.2526e-06
2.35805e-06 -1.2526e-06 1.94486e-05
0.00135184 -4.24033e-05 -7.56482e-06
-4.24033e-05 8.14142e-05 -5.48372e-06
-7.56482e-06 -5.48372e-06 4.77433e-05
0.00142143 4.23839e-05 -1.22042e-06
4.23839e-05 8.37593e-05 -1.64712e-06
-1.22042e-06 -1.64712e-06 4.44751e-06
0.00142272 4.30404e-05 -9.90929e-08
4.30404e-05 0.000170536 2.58073e-07
-9.90929e-08 2.58073e-07 9.96771e-05
0.000949321 3.54198e-05 -1.81342e-06
3.54198e-05 4.75605e-06 -1.2034e-07
-1.81342e-06 -1.2034e-07 -5.95563e-05
0.00123163 4.11714e-05 4.82543e-07
4.11714e-05 5.44717e-05 6.21223e-07
4.82543e-07 6.21223e-07 -2.13285e-05
0.00121686 3.96602e-05 -6.86785e-07
3.96602e-05 9.14115e-05 7.50922e-07
-6.86785e-07 7.50922e-07 1.86313e-05
0.00149458 1.17676e-05 -7.31908e-07
1.17676e-05 4.94239e-05 1.00817e-06
-7.31908e-07 1.00817e-06 -2.90345e-05
0.0015065 4.83855e-05 -9.69177e-07
4.83855e-05 0.000107911 -1.09138e-06
-9.69177e-07 -1.09138e-06 2.15397e-05
0.00124109 4.75548e-05 8.83434e-07
4.75548e-05 6.99976e-05 3.1027e-06
8.83434e-07 3.1027e-06 -6.8819e-06
0.00156778 1.17557e-05 1.17071e-08
1.17557e-05 5.4311e-05 6.7232e-07
1.17071e-08 6.7232e-07 -2.02605e-05
0.00170493 5.73673e-05 -3.21292e-07
5.73673e-05 0.000164656 7.28166e-07
-3.21292e-07 7.28166e-07 6.51716e-05
0.00155956 1.29084e-05 5.23842e-06
1.29084e-05 2.5156e-05 -1.53538e-06
5.23842e-06 -1.53538e-06 -4.6664e-05
0.000981458 1.17401e-06 -7.07978e-07
1.17401e-06 -6.73137e-05 -7.59989e-07
-7.07978e-07 -7.59989e-07 -0.000119164
0.00131101 5.76488e-07 -4.55967e-07
5.76488e-07 7.41722e-05 -4.80758e-07
-4.55967e-07 -4.80758e-07 2.65718e-05
0.0005139 1.10275e-05 5.36397e-06
1.10275e-05 -0.00033778 5.25926e-06
5.36397e-06 5.25926e-06 -0.000388301
0.00170265 4.30538e-05 3.03035e-06
4.30538e-05 0.000189109 -1.08381e-06
3.03035e-06 -1.08381e-06 0.000122942
0.00146145 3.56104e-05 4.29206e-06
3.56104e-05 0.000139562 5.17248e-06
4.29206e-06 5.17248e-06 8.2089e-05
0.0014173 3.4264e-05 -8.70778e-07
3.4264e-05 0.00010985 -1.77455e-07
-8.70778e-07 -1.77455e-07 4.90163e-05
0.00129234 2.92456e-05 -7.07146e-07
2.92456e-05 6.20163e-05 -1.41823e-06
-7.07146e-07 -1.41823e-06 -9.65897e-07
0.00141202 2.18794e-05 5.29212e-07
2.18794e-05 6.44245e-05 -2.86386e-07
5.29212e-07 -2.86386e-07 3.41236e-06
0.00143099 2.29362e-05 -3.8103e-07
2.29362e-05 8.3429e-05 -1.30495e-07
-3.8103e-07 -1.30495e-07 1.68422e-05
0.00132697 1.83158e-05 -1.69849e-06
1.83158e-05 4.86155e-05 -1.42007e-06
-1.69849e-06 -1.42007e-06 -1.74953e-05
0.00138115 6.60777e-08 3.53784e-07
6.60777e-08 6.89725e-05 -6.0598e-07
3.53784e-07 -6.0598e-07 5.32397e-06
0.00133817 -1.75844e-06 3.34989e-08
-1.75844e-06 5.94233e-05 3.01448e-07
3.34989e-08 3.01448e-07 -7.50093e-06
0.00129716 -7.52839e-06 -1.12467e-06
-7.52839e-06 5.64911e-05 4.1429e-07
-1.12467e-06 4.1429e-07 -1.02941e-05
0.00130218 -1.94417e-05 5.88711e-07
-1.94417e-05 5.98366e-05 -9.73159e-07
5.88711e-07 -9.73159e-07 -3.52217e-06
0.0012643 -2.19523e-05 5.26141e-08
-2.19523e-05 5.61018e-05 1.61293e-08
5.26141e-08 1.61293e-08 -7.9892e-06
0.00118962 -2.04383e-05 -1.38655e-06
-2.04383e-05 4.20875e-05 6.55326e-07
-1.38655e-06 6.55326e-07 -1.9226e-05
0.00123191 -2.53457e-05 6.21412e-07
-2.53457e-05 5.43801e-05 -7.17624e-07
6.21412e-07 -7.17624e-07 -6.80455e-06
0.00116711 -2.1624e-05 -2.666e-09
-2.1624e-05 4.19437e-05 -7.27148e-08
-2.666e-09 -7.27148e-08 -1.69288e-05
0.00101125 -9.86755e-06 -2.34823e-06
-9.86755e-06 7.39784e-06 9.85151e-07
-2.34823e-06 9.85151e-07 -4.37513e-05
0.00113429 -2.13257e-05 1.20383e-06
-2.13257e-05 3.43151e-05 -6.2597e-07
1.20383e-06 -6.2597e-07 -2.29141e-05
0.000985087 -7.48781e-06 -6.27741e-08
-7.48781e-06 2.95766e-06 3.8989e-08
-6.27741e-08 3.8989e-08 -4.68495e-05
0.00164353 2.50052e-05 -4.39104e-06
2.50052e-05 0.000380173 1.19014e-06
-4.39104e-06 1.19014e-06 0.000358176
0.00096433 -6.84339e-06 2.45947e-06
-6.84339e-06 8.51205e-07 -1.17459e-06
2.45947e-06 -1.17459e-06 -4.82607e-05
0.00161979 2.63917e-05 3.03527e-06
2.63917e-05 0.000364708 -8.48933e-07
3.03527e-06 -8.48933e-07 0.000345503
0.00120109 2.71586e-05 -1.64849e-05
2.71586e-05 0.000171551 4.62704e-06
-1.64849e-05 4.62704e-06 0.000168189
0.00194724 3.22086e-05 -9.32909e-06
3.22086e-05 0.00053162 1.66921e-06
-9.32909e-06 1.66921e-06 0.000535862
0.00165129 2.74054e-05 8.32387e-06
2.74054e-05 0.000376955 -2.28423e-06
8.32387e-06 -2.28423e-06 0.000360758
0.00258478 3.54528e-05 1.39934e-05
3.54528e-05 0.0008409 -2.96021e-06
1.39934e-05 -2.96021e-06 0.000851151
0.00136731 3.78921e-05 -1.02966e-06
3.78921e-05 5.5486e-05 -1.75138e-06
-1.02966e-06 -1.75138e-06 -1.98856e-05
0.00134793 3.89015e-05 1.16926e-06
3.89015e-05 0.000125485 -8.45554e-08
1.16926e-06 -8.45554e-08 5.51646e-05
0.00116117 3.84444e-05 7.55271e-07
3.84444e-05 9.78942e-06 4.98008e-07
7.55271e-07 4.98008e-07 -5.91519e-05
0.00111748 2.8351e-05 -9.67887e-07
2.8351e-05 5.84791e-05 -8.63725e-07
-9.67887e-07 -8.63725e-07 -6.02939e-06
0.00109991 3.71026e-05 -1.96487e-07
3.71026e-05 3.36018e-05 1.04499e-07
-1.96487e-07 1.04499e-07 -3.90686e-05
0.000987194 3.40429e-05 5.36633e-07
3.40429e-05 -5.51366e-06 6.66618e-07
5.36633e-07 6.66618e-07 -7.62876e-05
0.00108876 2.33114e-05 -5.31364e-09
2.33114e-05 5.7319e-05 -6.72758e-08
-5.31364e-09 -6.72758e-08 -4.56509e-06
0.000981938 1.42954e-06 -2.27864e-06
1.42954e-06 2.97511e-05 -1.00708e-06
-2.27864e-06 -1.00708e-06 -2.02497e-05
0.00102059 1.59153e-05 8.54599e-07
1.59153e-05 3.34726e-05 2.64624e-07
8.54599e-07 2.64624e-07 -2.7284e-05
0.000955161 -4.565e-06 -2.28186e-08
-4.565e-06 1.85259e-05 4.62848e-08
-2.28186e-08 4.62848e-08 -2.96207e-05
0.000857423 -2.33509e-05 -4.51345e-06
-2.33509e-05 -1.35123e-05 -2.25158e-06
-4.51345e-06 -2.25158e-06 -3.23779e-05
0.000930123 -8.73786e-06 2.3219e-06
-8.73786e-06 5.46747e-06 1.31545e-06
2.3219e-06 1.31545e-06 -4.07864e-05
0.000830522 -2.15287e-05 -2.60868e-08
-2.15287e-05 -3.56879e-05 2.99182e-08
-2.60868e-08 2.99182e-08 -5.16424e-05
0.00252665 -3.32561e-05 -1.34154e-05
-3.32561e-05 0.000809282 -3.05082e-06
-1.34154e-05 -3.05082e-06 0.000820423
0.000822307 -1.9741e-05 4.18712e-06
-1.9741e-05 -4.95547e-05 2.746e-06
4.18712e-06 2.746e-06 -6.27431e-05
0.00255212 -3.12645e-05 -1.60452e-07
-3.12645e-05 0.000809237 7.12613e-08
-1.60452e-07 7.12613e-08 0.000822526
0.00260019 -2.89536e-05 1.27914e-05
-2.89536e-05 0.000822098 3.4933e-06
1.27914e-05 3.4933e-06 0.000837102
0.00145033 -2.25492e-05 -1.15646e-06
-2.25492e-05 7.85985e-05 2.33198e-06
-1.15646e-06 2.33198e-06 1.70454e-05
0.00146823 -2.49062e-05 3.03059e-07
-2.49062e-05 6.45016e-05 -7.90851e-07
3.03059e-07 -7.90851e-07 1.29823e-05
0.00140245 -1.42631e-05 5.37462e-06
-1.42631e-05 5.49448e-06 -5.45865e-07
5.37462e-06 -5.45865e-07 -4.19726e-05
0.00123353 1.53312e-05 -9.80662e-07
1.53312e-05 -5.53832e-05 5.24103e-07
-9.80662e-07 5.24103e-07 -0.00013156
0.00144408 4.22229e-05 5.10574e-08
4.22229e-05 9.46014e-05 -5.79567e-07
5.10574e-08 -5.79567e-07 1.54327e-05
0.00128989 4.13216e-05 -7.58023e-07
4.13216e-05 0.00011748 1.32592e-06
-7.58023e-07 1.32592e-06 4.82312e-05
0.00165369 4.57065e-05 4.15361e-07
4.57065e-05 0.000251222 4.13376e-07
4.15361e-07 4.13376e-07 0.000176983
0.00161743 1.32487e-05 4.25257e-08
1.32487e-05 0.000106603 1.84504e-08
4.25257e-08 1.84504e-08 2.81326e-05
0.0014697 4.8475e-05 3.37036e-08
4.8475e-05 8.90714e-05 7.09201e-07
3.37036e-08 7.09201e-07 1.31811e-06
0.0017033 1.19676e-05 7.28148e-08
1.19676e-05 0.000114059 -1.41132e-06
7.28148e-08 -1.41132e-06 3.91981e-05
0.00116929 9.28708e-07 8.18364e-07
9.28708e-07 2.06146e-05 -7.7282e-08
8.18364e-07 -7.7282e-08 -3.77442e-05
0.00114766 2.28069e-06 -5.22653e-08
2.28069e-06 5.79468e-06 -1.20049e-07
-5.22653e-08 -1.20049e-07 -4.78483e-05
0.00111898 2.31015e-06 1.54945e-07
2.31015e-06 -1.32743e-05 1.60879e-06
1.54945e-07 1.60879e-06 -6.16619e-05
0.00131236 3.01079e-05 1.66517e-09
3.01079e-05 8.44761e-05 -6.23747e-07
1.66517e-09 -6.23747e-07 1.89894e-05
0.00147651 3.48083e-05 2.09291e-06
3.48083e-05 0.00013594 1.81103e-06
2.09291e-06 1.81103e-06 7.52555e-05
0.00129245 2.94099e-05 3.27517e-07
2.94099e-05 6.18907e-05 9.65476e-08
3.27517e-07 9.65476e-08 -1.42507e-06
0.00133224 2.70848e-05 -5.07208e-07
2.70848e-05 7.28492e-05 -5.68034e-07
-5.07208e-07 -5.68034e-07 8.47725e-06
0.00143394 2.17069e-05 9.46666e-07
2.17069e-05 8.09102e-05 5.77839e-07
9.46666e-07 5.77839e-07 1.43832e-05
0.00134172 1.82019e-05 -5.4828e-07
1.82019e-05 5.57256e-05 -3.33857e-07
-5.4828e-07 -3.33857e-07 -1.03255e-05
0.00131153 1.5242e-05 -1.68534e-06
1.5242e-05 5.82959e-05 -8.32628e-07
-1.68534e-06 -8.32628e-07 -9.09079e-06
0.00133456 -1.58892e-06 1.3424e-06
-1.58892e-06 5.73538e-05 -5.49631e-08
1.3424e-06 -5.49631e-08 -9.64495e-06
0.00129446 -6.32781e-06 2.81548e-08
-6.32781e-06 5.52198e-05 9.15154e-08
2.81548e-08 9.15154e-08 -1.16106e-05
0.00122098 -1.34847e-05 -1.61112e-06
-1.34847e-05 4.51133e-05 4.03665e-07
-1.61112e-06 4.03665e-07 -1.83695e-05
0.00127321 -2.171e-05 1.00349e-06
-2.171e-05 5.98118e-05 -6.34823e-07
1.00349e-06 -6.34823e-07 -4.31431e-06
0.00119437 -2.01709e-05 2.14054e-08
-2.01709e-05 4.3994e-05 4.90418e-08
2.14054e-08 4.90418e-08 -1.73254e-05
0.00103746 -1.11075e-05 -2.46619e-06
-1.11075e-05 1.09901e-05 9.57076e-07
-2.46619e-06 9.57076e-07 -4.2208e-05
0.00116614 -2.12324e-05 1.26763e-06
-2.12324e-05 4.11921e-05 -7.37639e-07
1.26763e-06 -7.37639e-07 -1.76607e-05
0.00100441 -9.23727e-06 -1.34052e-08
-9.23727e-06 4.3548e-06 -1.30484e-08
-1.34052e-08 -1.30484e-08 -4.68389e-05
0.00165265 2.01581e-05 -4.38316e-06
2.01581e-05 0.000387785 9.71732e-07
-4.38316e-06 9.71732e-07 0.000363006
0.000974906 -7.17786e-06 2.40808e-06
-7.17786e-06 -1.7412e-06 -1.0445e-06
2.40808e-06 -1.0445e-06 -5.15231e-05
0.00163999 2.26882e-05 3.16302e-06
2.26882e-05 0.000377155 -7.852e-07
3.16302e-06 -7.852e-07 0.000355033
0.00122033 2.76852e-05 -1.74854e-05
2.76852e-05 0.000192688 4.23834e-06
-1.74854e-05 4.23834e-06 0.000185718
0.00162794 2.52088e-05 1.0304e-05
2.52088e-05 0.000367911 -3.06113e-06
1.0304e-05 -3.06113e-06 0.000348446
0.00117241 2.83508e-05 -6.04905e-06
2.83508e-05 0.000157865 1.77453e-06
-6.04905e-06 1.77453e-06 0.000154775
0.00269819 3.99389e-05 6.28739e-06
3.99389e-05 0.000903701 -1.14708e-06
6.28739e-06 -1.14708e-06 0.000911851
0.00157582 2.00442e-05 -1.12383e-06
2.00442e-05 0.000125308 -5.07443e-07
-1.12383e-06 -5.07443e-07 4.92184e-05
0.00137873 3.64232e-05 -4.8184e-08
3.64232e-05 8.70302e-05 -1.55487e-06
-4.8184e-08 -1.55487e-06 1.44918e-05
0.00141357 3.86209e-05 -8.59883e-07
3.86209e-05 8.39562e-05 8.01426e-07
-8.59883e-07 8.01426e-07 9.29303e-06
0.00138834 3.33632e-05 -5.44769e-07
3.33632e-05 0.000165355 -3.01089e-07
-5.44769e-07 -3.01089e-07 0.000100327
0.00123499 3.807e-05 4.23382e-07
3.807e-05 7.04842e-05 -5.05846e-07
4.23382e-07 -5.05846e-07 1.18876e-07
0.00118194 3.87201e-05 1.19112e-06
3.87201e-05 2.58701e-05 8.71279e-07
1.19112e-06 8.71279e-07 -3.96638e-05
0.00099405 9.051e-06 -2.23532e-06
9.051e-06 2.91191e-05 -1.25221e-06
-2.23532e-06 -1.25221e-06 -2.39273e-05
0.00111721 2.86099e-05 -3.42286e-08
2.86099e-05 5.87646e-05 -1.19386e-07
-3.42286e-08 -1.19386e-07 -5.80674e-06
0.00130506 4.00381e-05 8.49303e-07
4.00381e-05 0.000130134 7.74129e-07
8.49303e-07 7.74129e-07 5.74815e-05
0.00106272 2.28673e-05 9.39395e-07
2.28673e-05 4.5625e-05 3.04921e-07
9.39395e-07 3.04921e-07 -1.62609e-05
0.00096046 -2.8294e-07 5.45933e-08
-2.8294e-07 2.11161e-05 -5.5793e-09
5.45933e-08 -5.5793e-09 -2.90907e-05
0.00085403 -2.3699e-05 -4.41252e-06
-2.3699e-05 -7.90535e-06 -2.17892e-06
-4.41252e-06 -2.17892e-06 -2.99963e-05
0.000933353 -5.84581e-06 2.32385e-06
-5.84581e-06 9.72271e-06 1.10667e-06
2.32385e-06 1.10667e-06 -3.86334e-05
0.000810682 -2.27915e-05 -2.18908e-08
-2.27915e-05 -3.58579e-05 1.6734e-08
-2.18908e-08 1.6734e-08 -5.4597e-05
0.00256514 -3.52821e-05 -1.39846e-05
-3.52821e-05 0.000839493 -2.86861e-06
-1.39846e-05 -2.86861e-06 0.000848441
0.000793993 -2.11313e-05 4.35345e-06
-2.11313e-05 -5.34288e-05 2.56854e-06
4.35345e-06 2.56854e-06 -6.92223e-05
0.00257362 -3.35438e-05 -1.61639e-07
-3.35438e-05 0.000830362 7.62484e-08
-1.61639e-07 7.62484e-08 0.000841685
0.00260454 -3.14613e-05 1.30217e-05
-3.14613e-05 0.000833191 3.30259e-06
1.30217e-05 3.30259e-06 0.000846601
0.0014293 -1.63887e-05 -1.77081e-07
-1.63887e-05 7.57754e-05 1.17392e-06
-1.77081e-07 1.17392e-06 1.07769e-05
0.00150923 -2.22419e-05 -9.78905e-08
-2.22419e-05 9.93428e-05 6.21564e-07
-9.78905e-08 6.21564e-07 3.69878e-05
0.00139446 -2.39715e-05 -2.119e-07
-2.39715e-05 3.11147e-05 -2.47169e-06
-2.119e-07 -2.47169e-06 -2.03635e-05
0.00139553 1.52279e-05 -5.52372e-09
1.52279e-05 1.30056e-05 -1.95481e-07
-5.52372e-09 -1.95481e-07 -6.3523e-05
0.00145513 4.19542e-05 4.17796e-07
4.19542e-05 9.98172e-05 5.1899e-07
4.17796e-07 5.1899e-07 2.08085e-05
0.00175114 1.48846e-05 8.83212e-07
1.48846e-05 0.000168647 -1.08384e-06
8.83212e-07 -1.08384e-06 9.02037e-05
0.00122215 -1.26744e-06 1.85302e-07
-1.26744e-06 4.26849e-05 1.32931e-07
1.85302e-07 1.32931e-07 -2.26682e-05
0.00117934 1.77584e-06 5.31139e-07
1.77584e-06 2.99146e-05 -9.88196e-08
5.31139e-07 -9.88196e-08 -2.86568e-05
0.00130343 3.0326e-06 8.0426e-07
3.0326e-06 7.41494e-05 6.96311e-07
8.0426e-07 6.96311e-07 1.86939e-05
0.00129829 2.37963e-05 -4.72335e-07
2.37963e-05 7.79167e-05 7.05514e-08
-4.72335e-07 7.05514e-08 1.22089e-05
0.00130202 2.22642e-05 1.37572e-07
2.22642e-05 7.92108e-05 -2.899e-07
1.37572e-07 -2.899e-07 1.09118e-05
0.00128458 2.95933e-05 9.73284e-07
2.95933e-05 5.81413e-05 1.14524e-06
9.73284e-07 1.14524e-06 -5.52628e-06
0.00130244 2.66502e-05 2.83532e-07
2.66502e-05 5.93239e-05 3.91543e-07
2.83532e-07 3.91543e-07 -5.10686e-06
0.0014027 2.61318e-05 -3.58542e-07
2.61318e-05 0.000112084 -4.72532e-07
-3.58542e-07 -4.72532e-07 4.64061e-05
0.00135402 1.74914e-05 1.08534e-06
1.74914e-05 6.17079e-05 6.98741e-07
1.08534e-06 6.98741e-07 -4.2777e-06
0.00130601 1.37835e-05 -4.00514e-07
1.37835e-05 5.55602e-05 -1.46682e-07
-4.00514e-07 -1.46682e-07 -1.16197e-05
0.0012341 7.80315e-06 -2.11331e-06
7.80315e-06 4.66159e-05 -3.82545e-08
-2.11331e-06 -3.82545e-08 -1.83238e-05
0.00129115 -6.57891e-06 1.09785e-06
-6.57891e-06 5.35922e-05 -2.10508e-07
1.09785e-06 -2.10508e-07 -1.32541e-05
0.00122303 -1.27455e-05 1.87301e-08
-1.27455e-05 4.58637e-05 2.46482e-08
1.87301e-08 2.46482e-08 -1.76357e-05
0.0010562 -7.53391e-06 -2.66832e-06
-7.53391e-06 1.16937e-05 7.19509e-07
-2.66832e-06 7.19509e-07 -4.33535e-05
0.0011999 -1.98597e-05 1.5139e-06
-1.98597e-05 4.6256e-05 -5.59558e-07
1.5139e-06 -5.59558e-07 -1.50673e-05
0.00103066 -1.04857e-05 4.25456e-08
-1.04857e-05 7.76796e-06 4.74473e-08
4.25456e-08 4.74473e-08 -4.54921e-05
0.00163915 1.48614e-05 -4.40421e-06
1.48614e-05 0.000383947 7.80778e-07
-4.40421e-06 7.80778e-07 0.000356632
0.000998095 -8.70417e-06 2.40747e-06
-8.70417e-06 1.54397e-06 -1.01514e-06
2.40747e-06 -1.01514e-06 -4.96935e-05
0.00165895 1.78549e-05 3.33411e-06
1.78549e-05 0.000389184 -6.94435e-07
3.33411e-06 -6.94435e-07 0.00036428
0.00122479 2.75284e-05 -1.83944e-05
2.75284e-05 0.00020836 3.74356e-06
-1.83944e-05 3.74356e-06 0.000197857
0.00163928 2.02108e-05 1.07229e-05
2.02108e-05 0.000375484 -2.72652e-06
1.07229e-05 -2.72652e-06 0.000353242
0.00119398 2.90295e-05 -6.39433e-06
2.90295e-05 0.000179921 1.64886e-06
-6.39433e-06 1.64886e-06 0.000173223
0.00114282 2.96059e-05 4.56949e-06
2.96059e-05 0.000143826 -1.11164e-06
4.56949e-06 -1.11164e-06 0.000140995
0.00150382 -8.05206e-06 -2.82447e-07
-8.05206e-06 9.86478e-05 8.18609e-07
-2.82447e-07 8.18609e-07 3.43185e-05
0.00141669 2.23591e-05 -1.25327e-06
2.23591e-05 7.22156e-05 -3.80418e-07
-1.25327e-06 -3.80418e-07 -2.20204e-06
0.00154755 1.95763e-05 -5.24755e-07
1.95763e-05 0.000108588 -5.10703e-07
-5.24755e-07 -5.10703e-07 3.23213e-05
0.00134563 3.26954e-05 -9.37865e-07
3.26954e-05 0.000106159 -7.3836e-07
-9.37865e-07 -7.3836e-07 3.8905e-05
0.00143862 3.69169e-05 4.73731e-07
3.69169e-05 0.000118657 4.56736e-07
4.73731e-07 4.56736e-07 4.65153e-05
0.00146456 3.94347e-05 1.38395e-06
3.94347e-05 0.000114787 1.83998e-06
1.38395e-06 1.83998e-06 4.08188e-05
0.000975245 1.4998e-05 -2.40487e-06
1.4998e-05 2.12639e-06 -1.06633e-06
-2.40487e-06 -1.06633e-06 -5.33894e-05
0.00116328 3.13485e-05 5.65681e-07
3.13485e-05 5.54178e-05 4.64753e-07
5.65681e-07 4.64753e-07 -1.06447e-05
0.00112333 3.72753e-05 6.09378e-07
3.72753e-05 1.6196e-05 1.05824e-06
6.09378e-07 1.05824e-06 -5.42286e-05
0.000860676 -1.80525e-05 -4.76406e-06
-1.80525e-05 -2.77848e-06 -2.24901e-06
-4.76406e-06 -2.24901e-06 -2.90435e-05
0.000970276 7.31917e-06 -1.39209e-08
7.31917e-06 1.89014e-05 -5.67027e-08
-1.39209e-08 -5.67027e-08 -3.42382e-05
0.00111605 2.87799e-05 9.8265e-07
2.87799e-05 5.86455e-05 6.58155e-07
9.8265e-07 6.58155e-07 -5.98686e-06
0.000938922 -2.09044e-06 2.24312e-06
-2.09044e-06 1.24679e-05 9.50516e-07
2.24312e-06 9.50516e-07 -3.79482e-05
0.000793107 -2.39237e-05 6.23693e-09
-2.39237e-05 -3.6271e-05 -4.86996e-08
6.23693e-09 -4.86996e-08 -5.83267e-05
0.00264499 -3.71783e-05 -1.49211e-05
-3.71783e-05 0.000889736 -2.77209e-06
-1.49211e-05 -2.77209e-06 0.000896161
0.000764628 -2.22351e-05 4.52494e-06
-2.22351e-05 -5.78737e-05 2.37106e-06
4.52494e-06 2.37106e-06 -7.64866e-05
0.00260769 -3.56379e-05 -1.58593e-07
-3.56379e-05 0.000858368 7.86003e-08
-1.58593e-07 7.86003e-08 0.000867536
0.00262193 -3.38166e-05 1.33079e-05
-3.38166e-05 0.000852083 3.10788e-06
1.33079e-05 3.10788e-06 0.000863586
0.0013709 -2.21107e-05 4.61828e-07
-2.21107e-05 7.77874e-05 -5.07638e-07
4.61828e-07 -5.07638e-07 7.82672e-06
0.00144417 -1.62436e-05 -2.28713e-07
-1.62436e-05 7.95992e-05 3.38781e-07
-2.28713e-07 3.38781e-07 1.42397e-05
0.00155819 -2.19174e-05 1.97898e-07
-2.19174e-05 0.000115351 -1.2961e-06
1.97898e-07 -1.2961e-06 5.2195e-05
0.00156633 1.5134e-05 1.26512e-06
1.5134e-05 8.57556e-05 -3.43535e-07
1.26512e-06 -3.43535e-07 8.84231e-06
0.0012456 -2.80292e-06 -1.04707e-07
-2.80292e-06 4.80226e-05 -9.39785e-08
-1.04707e-07 -9.39785e-08 -2.1884e-05
0.00126088 -1.37855e-06 -2.37264e-07
-1.37855e-06 6.26378e-05 -6.58765e-08
-2.37264e-07 -6.58765e-08 -2.28831e-06
0.00118862 2.62096e-06 -2.29433e-07
2.62096e-06 3.86165e-05 2.8024e-07
-2.29433e-07 2.8024e-07 -2.01347e-05
0.00126662 2.02938e-05 -8.23984e-07
2.02938e-05 6.30912e-05 8.91842e-07
-8.23984e-07 8.91842e-07 -2.95453e-06
0.00127902 2.58144e-05 1.44798e-07
2.58144e-05 6.89528e-05 1.36165e-09
1.44798e-07 1.36165e-09 7.06381e-07
0.00127646 2.35878e-05 -7.40316e-07
2.35878e-05 7.08589e-05 -2.31372e-07
-7.40316e-07 -2.31372e-07 3.85362e-06
0.00127289 2.6182e-05 1.19908e-06
2.6182e-05 4.58126e-05 1.45447e-06
1.19908e-06 1.45447e-06 -1.86631e-05
0.00135135 2.58498e-05 3.0001e-07
2.58498e-05 8.86457e-05 2.77905e-07
3.0001e-07 2.77905e-07 2.30043e-05
0.00122747 2.49233e-05 -1.47993e-06
2.49233e-05 4.67326e-05 -5.45067e-07
-1.47993e-06 -5.45067e-07 -1.83336e-05
0.00129689 1.37509e-05 8.15561e-07
1.37509e-05 5.12216e-05 5.5539e-07
8.15561e-07 5.5539e-07 -1.57838e-05
0.0012281 9.17607e-06 -2.12305e-07
9.17607e-06 4.38522e-05 1.18815e-07
-2.12305e-07 1.18815e-07 -2.09797e-05
0.00106783 6.51916e-06 -2.7961e-06
6.51916e-06 1.37013e-05 4.15868e-07
-2.7961e-06 4.15868e-07 -4.29743e-05
0.00122356 -9.83604e-06 1.61463e-06
-9.83604e-06 4.59399e-05 -3.43349e-07
1.61463e-06 -3.43349e-07 -1.75754e-05
0.0010555 -8.89082e-06 3.93154e-08
-8.89082e-06 1.12089e-05 5.68586e-08
3.93154e-08 5.68586e-08 -4.38975e-05
0.000709831 4.36865e-06 -5.19488e-06
4.36865e-06 -7.29518e-05 1.15263e-06
-5.19488e-06 1.15263e-06 -0.000107399
0.00102518 -9.9032e-06 2.5536e-06
-9.9032e-06 5.17519e-06 -8.32557e-07
2.5536e-06 -8.32557e-07 -4.81501e-05
0.0011991 9.0971e-06 4.10863e-06
9.0971e-06 0.000164859 -5.57987e-07
4.10863e-06 -5.57987e-07 0.000134754
0.00310105 4.55418e-05 -1.79302e-05
4.55418e-05 0.00114621 1.89354e-06
-1.79302e-05 1.89354e-06 0.00114382
0.00166547 1.57336e-05 1.11732e-05
1.57336e-05 0.000390697 -2.38732e-06
1.11732e-05 -2.38732e-06 0.000365672
0.0012107 2.91373e-05 -6.77192e-06
2.91373e-05 0.000201573 1.46813e-06
-6.77192e-06 1.46813e-06 0.000191265
0.00116382 3.04103e-05 4.83539e-06
3.04103e-05 0.000165362 -9.96152e-07
4.83539e-06 -9.96152e-07 0.000158939
0.00148687 -1.69982e-05 3.98164e-07
-1.69982e-05 0.000118311 -5.91529e-07
3.98164e-07 -5.91529e-07 5.09606e-05
0.00135937 -1.34631e-06 -7.53141e-07
-1.34631e-06 4.32353e-05 6.38366e-07
-7.53141e-07 6.38366e-07 -2.38021e-05
0.00140783 -7.74121e-06 1.50232e-07
-7.74121e-06 5.65901e-05 -5.86074e-09
1.50232e-07 -5.86074e-09 -8.30714e-06
0.00103963 2.27724e-05 -1.72465e-06
2.27724e-05 -7.12371e-05 -6.46086e-07
-1.72465e-06 -6.46086e-07 -0.000141299
0.00145077 2.23687e-05 1.33103e-07
2.23687e-05 9.09132e-05 4.50108e-09
1.33103e-07 4.50108e-09 1.76317e-05
0.0015185 1.91449e-05 7.3186e-07
1.91449e-05 9.14012e-05 -4.53417e-07
7.3186e-07 -4.53417e-07 1.49736e-05
0.000763527 1.58803e-05 -3.19886e-06
1.58803e-05 -0.000129161 -1.42561e-06
-3.19886e-06 -1.42561e-06 -0.00018793
0.0013491 3.29119e-05 3.32175e-07
3.29119e-05 0.000107632 1.38771e-08
3.32175e-07 1.38771e-08 4.03201e-05
0.00150385 3.75123e-05 9.30079e-07
3.75123e-05 0.000152652 1.4065e-06
9.30079e-07 1.4065e-06 8.0925e-05
0.000853372 -7.50694e-06 -5.32073e-06
-7.50694e-06 -1.16294e-05 -2.09791e-06
-5.32073e-06 -2.09791e-06 -4.22324e-05
0.000844582 1.35768e-05 -4.75923e-08
1.35768e-05 -6.27036e-05 9.41395e-08
-4.75923e-08 9.41395e-08 -0.000119124
0.000939553 2.93043e-05 1.63141e-06
2.93043e-05 -5.38499e-05 1.35576e-06
1.63141e-06 1.35576e-06 -0.000120951
0.00281796 -3.91047e-05 -1.66087e-05
-3.91047e-05 0.000983923 -2.74247e-06
-1.66087e-05 -2.74247e-06 0.000987331
0.000784504 -1.88731e-05 -1.65862e-07
-1.88731e-05 -3.72132e-05 -8.18341e-08
-1.65862e-07 -8.18341e-08 -6.3473e-05
0.000944445 5.57218e-06 2.01386e-06
5.57218e-06 7.68196e-06 1.07496e-06
2.01386e-06 1.07496e-06 -4.55376e-05
0.000730124 -2.31136e-05 4.56593e-06
-2.31136e-05 -6.56608e-05 2.23531e-06
4.56593e-06 2.23531e-06 -8.76368e-05
0.0026724 -3.76403e-05 -1.42977e-07
-3.76403e-05 0.00090148 7.65673e-08
-1.42977e-07 7.65673e-08 0.000908215
0.0026517 -3.5974e-05 1.37253e-05
-3.5974e-05 0.000877901 2.91015e-06
1.37253e-05 2.91015e-06 0.000887291
0.0012746 -2.09259e-05 -2.95571e-07
-2.09259e-05 5.01402e-05 -3.79198e-08
-2.95571e-07 -3.79198e-08 -2.01216e-05
0.00133318 -2.15384e-05 -2.54544e-07
-2.15384e-05 6.23107e-05 -5.44851e-07
-2.54544e-07 -5.44851e-07 -6.60648e-06
0.00145952 -1.60516e-05 1.61943e-07
-1.60516e-05 8.37079e-05 -6.90444e-07
1.61943e-07 -6.90444e-07 1.79831e-05
0.00130075 1.1252e-05 -2.83967e-07
1.1252e-05 7.47126e-05 -6.30687e-08
-2.83967e-07 -6.30687e-08 4.8825e-06
0.00129845 2.57601e-07 -1.61806e-07
2.57601e-07 7.28411e-05 -3.1515e-09
-1.61806e-07 -3.1515e-09 2.72411e-06
0.00130789 -3.84047e-06 -9.50151e-07
-3.84047e-06 8.64172e-05 1.54593e-07
-9.50151e-07 1.54593e-07 2.20137e-05
0.00126215 2.82641e-05 9.88846e-08
2.82641e-05 6.15228e-05 -4.95814e-08
9.88846e-08 -4.95814e-08 -6.60068e-06
0.00127601 2.51642e-05 1.6171e-07
2.51642e-05 6.99804e-05 1.87268e-07
1.6171e-07 1.87268e-07 3.07378e-06
0.00129688 1.98446e-05 -8.90253e-07
1.98446e-05 9.44277e-05 -9.82451e-08
-8.90253e-07 -9.82451e-08 3.02353e-05
0.00130418 2.56022e-05 1.29227e-06
2.56022e-05 6.71765e-05 1.33661e-06
1.29227e-06 1.33661e-06 1.57056e-06
0.00129553 2.62854e-05 5.65012e-08
2.62854e-05 8.19297e-05 4.73797e-08
5.65012e-08 4.73797e-08 1.7421e-05
0.000907767 2.11448e-05 -3.21474e-06
2.11448e-05 -6.43137e-05 1.77527e-08
-3.21474e-06 1.77527e-08 -0.000123187
0.00121631 8.22498e-06 1.49548e-06
8.22498e-06 3.83732e-05 3.0505e-07
1.49548e-06 3.0505e-07 -2.63603e-05
0.00106056 7.51579e-06 -2.22042e-08
7.51579e-06 1.02556e-05 8.09598e-08
-2.22042e-08 8.09598e-08 -4.63972e-05
0.00070474 6.34593e-06 -5.18492e-06
6.34593e-06 -7.19718e-05 8.14683e-07
-5.18492e-06 8.14683e-07 -0.000107913
0.00105407 -8.5394e-06 2.74635e-06
-8.5394e-06 1.03738e-05 -5.82602e-07
2.74635e-06 -5.82602e-07 -4.47923e-05
0.000737006 7.66212e-06 -5.47126e-08
7.66212e-06 -6.12972e-05 1.03656e-07
-5.47126e-08 1.03656e-07 -9.57325e-05
0.0031878 4.74387e-05 -1.86254e-05
4.74387e-05 0.00119762 1.46205e-06
-1.86254e-05 1.46205e-06 0.00119351
0.000755904 4.5868e-06 7.14685e-06
4.5868e-06 -5.56382e-05 -2.09609e-06
7.14685e-06 -2.09609e-06 -8.86129e-05
0.00215862 3.80091e-05 4.55117e-06
3.80091e-05 0.000682715 2.92933e-07
4.55117e-06 2.92933e-07 0.000674667
0.00119451 3.08463e-05 5.08318e-06
3.08463e-05 0.000193781 -8.58196e-07
5.08318e-06 -8.58196e-07 0.000183665
0.00151071 -2.42214e-05 -9.17417e-08
-2.42214e-05 0.0001511 -2.08219e-07
-9.17417e-08 -2.08219e-07 8.15885e-05
0.00135707 -1.29095e-05 -4.43459e-07
-1.29095e-05 6.19138e-05 -2.49282e-07
-4.43459e-07 -2.49282e-07 -3.85513e-06
0.00136866 -1.63772e-05 -3.3044e-07
-1.63772e-05 6.19059e-05 2.34905e-08
-3.3044e-07 2.34905e-08 -5.44612e-06
0.00123737 5.41891e-06 -1.39565e-06
5.41891e-06 1.93525e-05 3.50609e-07
-1.39565e-06 3.50609e-07 -4.70204e-05
0.00132637 -1.82547e-06 4.01256e-07
-1.82547e-06 3.04921e-05 -2.38735e-07
4.01256e-07 -2.38735e-07 -3.63338e-05
0.0013147 -7.4962e-06 6.27316e-07
-7.4962e-06 1.58726e-05 -5.00801e-07
6.27316e-07 -5.00801e-07 -4.95941e-05
0.00079518 1.47084e-05 -3.45709e-06
1.47084e-05 -0.000137231 -1.20911e-06
-3.45709e-06 -1.20911e-06 -0.000197749
0.0013136 2.55301e-05 -4.44902e-07
2.55301e-05 6.17022e-05 7.0767e-09
-4.44902e-07 7.0767e-09 -7.24955e-06
0.0014775 2.22813e-05 1.36303e-06
2.22813e-05 0.000106232 -2.58185e-07
1.36303e-06 -2.58185e-07 3.40745e-05
0.000827419 -5.32279e-07 -5.84231e-06
-5.32279e-07 -3.19761e-05 -1.9162e-06
-5.84231e-06 -1.9162e-06 -6.60289e-05
0.000792364 1.67947e-05 -7.54223e-07
1.67947e-05 -0.000117811 -3.90135e-07
-7.54223e-07 -3.90135e-07 -0.000177002
0.00135252 3.31681e-05 1.56665e-06
3.31681e-05 0.000109083 9.13328e-07
1.56665e-06 9.13328e-07 4.17115e-05
0.00305619 -4.11163e-05 -1.87015e-05
-4.11163e-05 0.00110818 -2.57643e-06
-1.87015e-05 -2.57643e-06 0.0011085
0.000783949 -9.52628e-06 -2.35337e-07
-9.52628e-06 -4.19598e-05 4.63892e-08
-2.35337e-07 4.63892e-08 -7.26752e-05
0.000713611 1.21917e-05 2.11707e-06
1.21917e-05 -0.000127718 1.30232e-06
2.11707e-06 1.30232e-06 -0.000185042
0.00281501 -3.972e-05 -1.44117e-07
-3.972e-05 0.000981523 8.90537e-08
-1.44117e-07 8.90537e-08 0.000985371
0.000708192 -2.09194e-05 4.42095e-06
-2.09194e-05 -7.15444e-05 2.28658e-06
4.42095e-06 2.28658e-06 -9.78788e-05
0.00270217 -3.80112e-05 1.42243e-05
-3.80112e-05 0.000914277 2.72633e-06
1.42243e-05 2.72633e-06 0.000921331
0.00128364 -6.80654e-06 -4.73445e-07
-6.80654e-06 6.02994e-05 -9.88275e-08
-4.73445e-07 -9.88275e-08 -9.48097e-06
0.00131432 -2.02791e-05 3.69933e-07
-2.02791e-05 6.76673e-05 -2.02238e-07
3.69933e-07 -2.02238e-07 -2.57568e-06
0.00129613 -2.08832e-05 -6.36747e-07
-2.08832e-05 4.71048e-05 -7.08147e-07
-6.36747e-07 -7.08147e-07 -2.07589e-05
0.00131164 4.23136e-07 -9.9288e-07
4.23136e-07 9.28621e-05 -3.30734e-08
-9.9288e-07 -3.30734e-08 2.60433e-05
0.00132874 1.13917e-05 7.60286e-08
1.13917e-05 8.88801e-05 -8.11064e-08
7.60286e-08 -8.11064e-08 1.89773e-05
0.00134857 5.242e-06 2.62006e-07
5.242e-06 9.658e-05 2.69239e-07
2.62006e-07 2.69239e-07 2.61246e-05
0.00127811 2.56942e-05 6.58376e-07
2.56942e-05 7.03078e-05 7.48983e-08
6.58376e-07 7.48983e-08 3.53492e-06
0.0012924 2.01997e-05 2.81143e-07
2.01997e-05 9.15254e-05 -2.80319e-08
2.81143e-07 -2.80319e-08 2.75057e-05
0.000878854 1.5361e-05 -2.86053e-06
1.5361e-05 -7.50768e-05 8.25815e-08
-2.86053e-06 8.25815e-08 -0.000134622
0.00137127 2.7719e-05 1.56241e-06
2.7719e-05 0.000120744 6.07945e-07
1.56241e-06 6.07945e-07 5.6794e-05
0.000990949 2.29316e-05 -5.04151e-07
2.29316e-05 -2.30296e-05 1.03794e-07
-5.04151e-07 1.03794e-07 -8.13821e-05
0.000710601 1.41344e-05 -5.41055e-06
1.41344e-05 -6.49945e-05 6.31889e-07
-5.41055e-06 6.31889e-07 -0.000103142
0.00105297 6.27637e-06 2.66823e-06
6.27637e-06 6.60868e-06 -2.33646e-07
2.66823e-06 -2.33646e-07 -4.99934e-05
0.000720173 1.27382e-05 6.88553e-08
1.27382e-05 -6.54474e-05 3.82724e-08
6.88553e-08 3.82724e-08 -0.00010151
0.00320967 4.84965e-05 -1.95663e-05
4.84965e-05 0.0012192 1.03623e-06
-1.95663e-05 1.03623e-06 0.0012134
0.000761574 9.84268e-06 5.14065e-06
9.84268e-06 -5.08853e-05 -9.52514e-07
5.14065e-06 -9.52514e-07 -8.5293e-05
0.00315387 4.6632e-05 1.49184e-07
4.6632e-05 0.0011834 1.22093e-07
1.49184e-07 1.22093e-07 0.00117908
0.00122293 2.72598e-05 1.62565e-05
2.72598e-05 0.00022221 -1.66267e-06
1.62565e-05 -1.66267e-06 0.000208705
0.00145402 -1.91318e-05 -6.2491e-07
-1.91318e-05 0.00013097 -1.66447e-07
-6.2491e-07 -1.66447e-07 6.32446e-05
0.00141099 -2.38965e-05 3.22881e-07
-2.38965e-05 0.000102584 5.45016e-08
3.22881e-07 5.45016e-08 3.26082e-05
0.00124936 -1.232e-05 -1.04497e-06
-1.232e-05 3.56337e-05 -1.09603e-07
-1.04497e-06 -1.09603e-07 -2.93769e-05
0.00133731 -1.3297e-05 1.75639e-07
-1.3297e-05 5.29276e-05 -2.24012e-07
1.75639e-07 -2.24012e-07 -1.27537e-05
0.00124955 -1.57548e-05 2.34946e-07
-1.57548e-05 5.15074e-06 6.21544e-07
2.34946e-07 6.21544e-07 -6.22122e-05
0.00107848 5.21932e-06 -2.90478e-06
5.21932e-06 -6.20505e-06 -3.63995e-07
-2.90478e-06 -3.63995e-07 -6.49575e-05
0.0012746 5.51624e-06 2.08613e-08
5.51624e-06 3.6046e-05 1.28718e-07
2.08613e-08 1.28718e-07 -3.04205e-05
0.00129238 -2.25492e-06 5.7438e-07
-2.25492e-06 1.72579e-05 -9.56973e-07
5.7438e-07 -9.56973e-07 -4.93552e-05
0.000792379 2.28859e-06 -6.13378e-06
2.28859e-06 -5.33396e-05 -1.64767e-06
-6.13378e-06 -1.64767e-06 -8.94341e-05
0.000957053 1.66614e-05 -9.00451e-07
1.66614e-05 -5.9425e-05 -2.32629e-07
-9.00451e-07 -2.32629e-07 -0.000119407
0.00158667 2.81828e-05 1.27118e-06
2.81828e-05 0.000194176 4.87292e-07
1.27118e-06 4.87292e-07 0.000126344
0.00326652 -4.29358e-05 -2.06308e-05
-4.29358e-05 0.00121819 -2.27891e-06
-2.06308e-05 -2.27891e-06 0.00121593
0.000779245 -1.30982e-06 -1.29858e-07
-1.30982e-06 -5.22284e-05 8.96013e-08
-1.29858e-07 8.96013e-08 -8.64196e-05
0.000823608 1.77735e-05 1.82119e-06
1.77735e-05 -0.000105344 8.08054e-07
1.82119e-06 8.08054e-07 -0.000164956
0.00303339 -4.1779e-05 -1.97288e-07
-4.1779e-05 0.00109647 1.31526e-07
-1.97288e-07 1.31526e-07 0.00109725
0.000715196 -1.13703e-05 4.71579e-06
-1.13703e-05 -7.19063e-05 2.36255e-06
4.71579e-06 2.36255e-06 -0.00010273
0.0028129 -4.01264e-05 1.4963e-05
-4.01264e-05 0.000979403 2.60673e-06
1.4963e-05 2.60673e-06 0.000983714
0.0013421 -2.40317e-06 -8.30193e-07
-2.40317e-06 0.000102551 -2.99242e-07
-8.30193e-07 -2.99242e-07 3.58721e-05
0.00130538 -9.16623e-06 3.61908e-08
-9.16623e-06 7.08279e-05 1.24625e-08
3.61908e-08 1.24625e-08 1.23615e-06
0.00135495 -2.0006e-05 6.44394e-07
-2.0006e-05 8.57293e-05 -1.43559e-07
6.44394e-07 -1.43559e-07 1.54844e-05
0.00089439 -9.08885e-06 -2.9837e-06
-9.08885e-06 -7.32432e-05 4.32083e-08
-2.9837e-06 4.32083e-08 -0.000134438
0.00131816 6.87815e-06 2.92602e-07
6.87815e-06 9.63874e-05 8.17712e-08
2.92602e-07 8.17712e-08 2.95676e-05
0.00135395 1.18223e-05 6.78449e-07
1.18223e-05 0.000101706 -3.42379e-08
6.78449e-07 -3.42379e-08 3.1744e-05
0.00128716 2.02211e-05 1.363e-06
2.02211e-05 8.82508e-05 2.46374e-07
1.363e-06 2.46374e-07 2.4407e-05
0.000892948 1.50166e-05 -4.1054e-07
1.50166e-05 -6.83381e-05 3.15915e-08
-4.1054e-07 3.15915e-08 -0.000127685
0.000707605 1.56776e-05 -5.47e-06
1.56776e-05 -6.46255e-05 3.16513e-07
-5.47e-06 3.16513e-07 -0.000104441
0.00106867 2.51544e-05 2.23641e-06
2.51544e-05 1.56878e-05 8.78491e-08
2.23641e-06 8.78491e-08 -4.21584e-05
0.000717027 1.89604e-05 1.24482e-07
1.89604e-05 -6.26342e-05 7.7866e-08
1.24482e-07 7.7866e-08 -0.000100791
0.00323538 4.98551e-05 -2.05905e-05
4.98551e-05 0.00124082 6.3916e-07
-2.05905e-05 6.3916e-07 0.0012335
0.000739899 1.87326e-05 5.16392e-06
1.87326e-05 -5.70859e-05 -7.13097e-07
5.16392e-06 -7.13097e-07 -9.31466e-05
0.00318341 4.7755e-05 2.43854e-07
4.7755e-05 0.00120816 1.10571e-07
2.43854e-07 1.10571e-07 0.0012022
0.00313059 4.58042e-05 1.9742e-05
4.58042e-05 0.00117415 -1.20789e-06
1.9742e-05 -1.20789e-06 0.00116963
0.001294 -1.57663e-05 -1.1338e-06
-1.57663e-05 7.1858e-05 -3.47571e-07
-1.1338e-06 -3.47571e-07 5.7145e-06
0.00138595 -1.98892e-05 8.07904e-08
-1.98892e-05 9.71495e-05 2.60608e-07
8.07904e-08 2.60608e-07 2.91486e-05
0.00130802 -2.34559e-05 3.86577e-07
-2.34559e-05 5.24099e-05 3.37028e-07
3.86577e-07 3.37028e-07 -1.80112e-05
0.00107442 -1.13227e-05 -2.59295e-06
-1.13227e-05 -1.2372e-06 -5.57926e-07
-2.59295e-06 -5.57926e-07 -5.97837e-05
0.00125973 -1.26824e-05 1.81164e-07
-1.26824e-05 4.054e-05 -1.70389e-07
1.81164e-07 -1.70389e-07 -2.45051e-05
0.00131822 -1.36766e-05 2.37169e-07
-1.36766e-05 4.42374e-05 -3.55625e-07
2.37169e-07 -3.55625e-07 -2.13538e-05
0.000747516 -1.38472e-06 -6.03093e-06
-1.38472e-06 -7.27799e-05 -1.26577e-06
-6.03093e-06 -1.26577e-06 -0.000109492
0.00110532 4.86915e-06 -1.90788e-08
4.86915e-06 6.27772e-06 1.71989e-07
-1.90788e-08 1.71989e-07 -5.2572e-05
0.00131149 5.55909e-06 1.50331e-06
5.55909e-06 5.25776e-05 -4.45573e-08
1.50331e-06 -4.45573e-08 -1.39835e-05
0.00339083 -4.44953e-05 -2.20263e-05
-4.44953e-05 0.00128677 -1.87005e-06
-2.20263e-05 -1.87005e-06 0.0012826
0.00076634 2.15165e-06 -4.04286e-08
2.15165e-06 -6.38585e-05 1.56078e-07
-4.04286e-08 1.56078e-07 -0.00010006
0.001119 1.87191e-05 2.15224e-06
1.87191e-05 1.84652e-05 8.29204e-07
2.15224e-06 8.29204e-07 -4.09899e-05
0.00325175 -4.36824e-05 -1.67899e-07
-4.36824e-05 0.00121017 1.47529e-07
-1.67899e-07 1.47529e-07 0.00120825
0.000730723 -2.41073e-06 5.37713e-06
-2.41073e-06 -7.26462e-05 2.16423e-06
5.37713e-06 2.16423e-06 -0.000106966
0.00301005 -4.23525e-05 1.6414e-05
-4.23525e-05 0.00108442 2.53127e-06
1.6414e-05 2.53127e-06 0.00108568
0.0010838 -6.75856e-06 -2.55698e-06
-6.75856e-06 1.60304e-05 -3.69601e-07
-2.55698e-06 -3.69601e-07 -4.42214e-05
0.00125763 -6.77706e-06 2.34732e-07
-6.77706e-06 6.12798e-05 -3.00854e-08
2.34732e-07 -3.00854e-08 -6.11727e-06
0.00132469 -1.25068e-05 8.98414e-07
-1.25068e-05 8.00955e-05 3.40801e-07
8.98414e-07 3.40801e-07 1.06899e-05
0.000700155 1.67201e-06 -5.45808e-06
1.67201e-06 -6.9461e-05 -9.16203e-08
-5.45808e-06 -9.16203e-08 -0.00010981
0.000906317 -2.58895e-06 -4.11015e-07
-2.58895e-06 -6.69013e-05 1.96312e-07
-4.11015e-07 1.96312e-07 -0.000127833
0.00132801 1.28309e-05 1.50397e-06
1.28309e-05 0.000101576 -6.14515e-08
1.50397e-06 -6.14515e-08 3.47367e-05
0.000909849 1.54993e-05 1.98789e-06
1.54993e-05 -6.02878e-05 1.50923e-07
1.98789e-06 1.50923e-07 -0.000119452
0.00070907 1.8178e-05 6.96516e-08
1.8178e-05 -6.42454e-05 1.05479e-07
6.96516e-08 1.05479e-07 -0.000104146
0.00327192 5.14143e-05 -2.12784e-05
5.14143e-05 0.00126482 2.32313e-07
-2.12784e-05 2.32313e-07 0.00125625
0.000720405 2.58484e-05 5.35467e-06
2.58484e-05 -6.1428e-05 -4.28417e-07
5.35467e-06 -4.28417e-07 -9.97709e-05
0.00321798 4.90558e-05 5.41081e-07
4.90558e-05 0.00123353 1.34426e-07
5.41081e-07 1.34426e-07 0.00122607
0.00315055 4.66053e-05 2.11298e-05
4.66053e-05 0.00119399 -8.12703e-07
2.11298e-05 -8.12703e-07 0.00118789
0.00107737 -1.45233e-05 -2.65945e-06
-1.45233e-05 9.73412e-06 -6.9353e-07
-2.65945e-06 -6.9353e-07 -4.96791e-05
0.00124865 -1.69313e-05 -3.31727e-08
-1.69313e-05 4.95785e-05 3.93429e-09
-3.31727e-08 3.93429e-09 -1.67849e-05
0.00132127 -2.07433e-05 6.61587e-07
-2.07433e-05 6.50328e-05 3.48037e-07
6.61587e-07 3.48037e-07 -3.25985e-06
0.0017514 -1.75403e-05 -1.17184e-05
-1.75403e-05 0.000430922 -9.72831e-07
-1.17184e-05 -9.72831e-07 0.000399652
0.0010986 -1.18704e-05 1.67847e-07
-1.18704e-05 1.01781e-05 -4.57563e-08
1.67847e-07 -4.57563e-08 -4.84684e-05
0.00127288 -1.32693e-05 1.23539e-06
-1.32693e-05 4.67778e-05 -2.29453e-07
1.23539e-06 -2.29453e-07 -1.83102e-05
0.00338316 -4.57604e-05 -2.25267e-05
-4.57604e-05 0.00129332 -1.38441e-06
-2.25267e-05 -1.38441e-06 0.00128783
0.00075027 -3.47667e-07 2.51691e-08
-3.47667e-07 -7.06799e-05 1.83307e-07
2.51691e-08 1.83307e-07 -0.000107501
0.00113371 3.86481e-06 3.08699e-06
3.86481e-06 1.95302e-05 7.86278e-07
3.08699e-06 7.86278e-07 -3.94443e-05
0.00339545 -4.52019e-05 -1.48495e-07
-4.52019e-05 0.0012877 1.58148e-07
-1.48495e-07 1.58148e-07 0.00128374
0.000743043 2.18028e-06 5.84415e-06
2.18028e-06 -7.31457e-05 1.94335e-06
5.84415e-06 1.94335e-06 -0.00010945
0.00323063 -4.4302e-05 1.85471e-05
-4.4302e-05 0.00119917 2.36761e-06
1.85471e-05 2.36761e-06 0.00119761
0.000698991 -5.91847e-06 -7.86902e-06
-5.91847e-06 -7.35244e-05 -8.34789e-07
-7.86902e-06 -8.34789e-07 -0.000113862
0.00100672 -1.00425e-05 9.17498e-08
-1.00425e-05 -2.19097e-05 1.47866e-07
9.17498e-08 1.47866e-07 -8.26637e-05
0.00116729 -1.07945e-05 1.49705e-06
-1.07945e-05 1.70822e-05 3.56156e-07
1.49705e-06 3.56156e-07 -5.09771e-05
0.00331327 -6.97958e-06 -2.06746e-05
-6.97958e-06 0.00128779 -1.92897e-07
-2.06746e-05 -1.92897e-07 0.00127858
0.000712528 4.28948e-06 4.61344e-08
4.28948e-06 -6.39416e-05 1.29791e-07
4.61344e-08 1.29791e-07 -0.000104363
0.000912711 4.08431e-06 2.047e-06
4.08431e-06 -6.32484e-05 2.21392e-07
2.047e-06 2.21392e-07 -0.0001239
0.000717422 1.91991e-05 5.4329e-06
1.91991e-05 -6.08713e-05 -8.65835e-08
5.4329e-06 -8.65835e-08 -0.00010076
0.00328475 5.07863e-05 1.26896e-06
5.07863e-05 0.00127142 1.69686e-07
1.26896e-06 1.69686e-07 0.00126277
0.00321093 4.81453e-05 2.28516e-05
4.81453e-05 0.00123104 -3.91587e-07
2.28516e-05 -3.91587e-07 0.00122345
0.00172239 -2.66902e-05 -1.4366e-05
-2.66902e-05 0.00042586 -1.20717e-06
-1.4366e-05 -1.20717e-06 0.000392903
0.00109116 -1.35299e-05 1.44827e-09
-1.35299e-05 1.60119e-05 2.51804e-08
1.44827e-09 2.51804e-08 -4.33692e-05
0.00120345 -1.79933e-05 1.02634e-06
-1.79933e-05 2.73691e-05 3.47517e-07
1.02634e-06 3.47517e-07 -3.92099e-05
0.00331219 -5.26051e-05 -9.02432e-06
-5.26051e-05 0.00127021 -4.61555e-07
-9.02432e-06 -4.61555e-07 0.00126326
0.000750334 -9.92631e-06 5.96227e-08
-9.92631e-06 -6.24172e-05 4.25045e-08
5.96227e-08 4.25045e-08 -9.98732e-05
0.00112264 -1.14716e-05 2.87274e-06
-1.14716e-05 2.14666e-05 4.74121e-07
2.87274e-06 4.74121e-07 -3.72442e-05
0.00342237 -4.63339e-05 -1.71798e-07
-4.63339e-05 0.00131015 1.58144e-07
-1.71798e-07 1.58144e-07 0.00130476
0.000750044 1.10601e-06 6.1607e-06
1.10601e-06 -6.99972e-05 1.59736e-06
6.1607e-06 1.59736e-06 -0.000106928
0.00339815 -4.59418e-05 2.04654e-05
-4.59418e-05 0.00128781 2.07538e-06
2.04654e-05 2.07538e-06 0.00128406
0.00127458 -1.45247e-05 -2.19209e-05
-1.45247e-05 0.000280512 -3.52699e-07
-2.19209e-05 -3.52699e-07 0.000259585
0.00124062 -1.00736e-05 -4.61279e-06
-1.00736e-05 0.000192837 1.7355e-07
-4.61279e-06 1.7355e-07 0.00015589
0.000935135 -9.43891e-06 2.652e-06
-9.43891e-06 -5.7242e-05 6.25421e-07
2.652e-06 6.25421e-07 -0.000118412
0.00331659 3.19139e-06 8.75434e-07
3.19139e-06 0.00128895 -4.16821e-08
8.75434e-07 -4.16821e-08 0.00127995
0.000713506 7.28453e-06 5.56401e-06
7.28453e-06 -6.3556e-05 3.48842e-07
5.56401e-06 3.48842e-07 -0.000104098
0.00327785 4.85278e-05 2.28807e-05
4.85278e-05 0.00126888 3.82729e-08
2.28807e-05 3.82729e-08 0.00126019
0.00123848 -2.98293e-05 -5.79243e-06
-2.98293e-05 0.000257327 -5.21093e-07
-5.79243e-06 -5.21093e-07 0.000237144
0.00126753 -1.5212e-05 -4.3413e-06
-1.5212e-05 0.000200802 3.27055e-08
-4.3413e-06 3.27055e-08 0.000165068
0.00110488 -1.55878e-05 2.52605e-06
-1.55878e-05 2.2384e-05 7.27943e-07
2.52605e-06 7.27943e-07 -3.70836e-05
0.0023348 -3.82888e-05 8.01126e-06
-3.82888e-05 0.000786508 2.88657e-07
8.01126e-06 2.88657e-07 0.000773817
0.000746957 -5.52578e-06 6.0775e-06
-5.52578e-06 -6.35783e-05 1.26053e-06
6.0775e-06 1.26053e-06 -0.00010105
0.0034665 -4.71518e-05 2.19525e-05
-4.71518e-05 0.00132934 1.67123e-06
2.19525e-05 1.67123e-06 0.00132404
0.00332585 -4.90354e-05 -1.2376e-06
-4.90354e-05 0.00129143 1.82902e-07
-1.2376e-06 1.82902e-07 0.00128253
0.000725615 -5.07369e-06 5.78698e-06
-5.07369e-06 -6.05838e-05 9.08276e-07
5.78698e-06 9.08276e-07 -0.000100738
0.00333442 9.57998e-06 2.28287e-05
9.57998e-06 0.00129706 -7.16784e-08
2.28287e-05 -7.16784e-08 0.00128794
0.00229349 -3.90393e-05 8.16823e-06
-3.90393e-05 0.000777384 1.58505e-07
8.16823e-06 1.58505e-07 0.000763094
0.00073626 -6.7606e-06 5.76878e-06
-6.7606e-06 -5.99443e-05 1.23907e-06
5.76878e-06 1.23907e-06 -9.88042e-05
0.00342224 -4.81162e-05 2.24887e-05
-4.81162e-05 0.00131889 1.21635e-06
2.24887e-05 1.21635e-06 0.00131237
0.00334925 -5.08148e-05 2.22324e-05
-5.08148e-05 0.00130107 3.75995e-07
2.22324e-05 3.75995e-07 0.00129227
0.00337168 -4.97267e-05 2.23069e-05
-4.97267e-05 0.00130485 8.10159e-07
2.23069e-05 8.10159e-07 0.00129709
