# vtk DataFile Version 2.0
Wound Healing Simulation
ASCII
DATASET UNSTRUCTURED_GRID
POINTS 3012 float
69.9759 18.75 4
67.2507 60.3285 4
69.976 18.75 2
73.0099 25.446 4
71.1327 20.9142 4
68.6801 16.6661 4
67.8277 19.9236 3.98836
67.2507 60.3286 2
71.1327 54.0858 4
68.6801 58.3339 4
65.6939 62.2254 4
65.3141 59.0049 3.98961
74.6784 42.3946 4
73.7221 47.2057 4
69.9759 18.75 0
73.0099 25.446 2
68.6801 16.6661 2
71.1327 20.9142 2
67.8282 19.9244 2
74.6792 32.6053 4
73.7222 27.7943 4
72.1454 23.1494 4
70.6162 26.2223 3.98724
68.8881 21.9572 3.98807
67.2507 14.6715 4
66.6391 17.9682 3.989
65.804 21.0197 3.98389
67.2507 60.3285 0
71.1327 54.0858 2
68.6801 58.3339 2
65.694 62.2255 2
65.3143 59.0048 2
72.1454 51.8506 4
69.9759 56.25 4
68.839 53.1136 3.98792
64.0165 64.0165 4
66.6128 57.1369 3.98916
63.8873 60.7695 3.99073
63.5058 57.7803 3.98511
60.3285 67.2507 4
74.6792 42.3947 2
73.7222 47.2057 2
74.9194 39.9526 4
74.2788 44.8158 4
72.1695 42.0852 3.98582
73.0099 49.554 4
71.2513 46.5968 3.9872
73.0099 25.446 0
71.1327 20.9142 0
68.6801 16.6661 0
67.8277 19.9236 0.0116372
74.6792 32.6053 2
73.7222 27.7943 2
67.2508 14.6715 2
72.1455 23.1494 2
70.6164 26.2233 2
66.6395 17.9684 2
68.8885 21.9583 2
65.8042 21.0192 2
74.9197 35.0474 4
74.2794 30.1841 4
72.186 32.9434 3.98606
71.28 28.4325 3.98696
69.8179 24.0602 3.98773
68.3525 26.951 3.98044
66.7695 22.9298 3.98304
65.694 12.7746 4
65.3254 16.0992 3.98999
64.7201 19.1868 3.98483
63.8981 22.0258 3.98132
71.1327 54.0858 0
65.6939 62.2254 0
68.6801 58.3339 0
65.3141 59.0049 0.0103892
72.1455 51.8506 2
69.9759 56.25 2
68.8393 53.1126 2
64.0165 64.0165 2
66.6131 57.1366 2
63.8875 60.7695 2
63.5059 57.7807 2
62.2254 65.694 4
58.8944 65.4165 3.9926
69.7716 50.9881 3.98759
67.7862 55.1694 3.9886
66.657 52.2123 3.98291
62.3373 62.4304 3.9917
64.6675 56.0387 3.98518
62.2067 59.4136 3.98538
61.832 56.6939 3.98293
58.3339 68.6801 4
60.3285 67.2508 2
73.7221 47.2057 0
74.6784 42.3946 0
74.9197 39.9526 2
74.2794 44.8159 2
72.1695 42.0856 2
73.0099 49.554 2
71.2513 46.5966 2
75 37.5 4
72.4063 39.802 3.98486
71.7842 44.3521 3.9867
69.8083 41.7889 3.97893
70.5775 48.8121 3.98746
68.9181 46.0144 3.97989
74.6792 32.6053 0
73.7222 27.7943 0
67.2507 14.6715 0
72.1454 23.1494 0
70.6162 26.2223 0.0127608
68.8881 21.9572 0.0119323
66.6391 17.9682 0.0109961
65.804 21.0197 0.0161089
74.9197 35.0474 2
74.2794 30.1841 2
72.1861 32.9435 2
71.28 28.4331 2
65.694 12.7745 2
65.3257 16.0991 2
69.8182 24.0614 2
68.3524 26.951 2
64.7204 19.1862 2
66.7696 22.9294 2
63.8984 22.0252 2
72.4141 35.224 3.98489
71.8054 30.6768 3.98677
69.844 33.2686 3.97911
68.9713 29.0383 3.97976
67.6178 24.9103 3.98181
66.2033 27.6318 3.97778
64.0165 10.9835 4
64.7676 23.823 3.98053
63.8914 14.3233 3.99093
63.5183 17.4371 3.98577
62.9173 20.3082 3.9821
62.1075 22.9302 3.98003
60.6846 11.0948 3.99207
57.613 11.4392 3.98722
72.1454 51.8506 0
69.9759 56.25 0
68.839 53.1136 0.012076
64.0165 64.0165 0
63.8873 60.7695 0.00926786
66.6128 57.1369 0.0108437
63.5058 57.7803 0.014893
62.2255 65.694 2
58.8946 65.4165 2
69.7717 50.9871 2
67.7866 55.1687 2
66.657 52.2127 2
62.3375 62.4304 2
64.6677 56.0393 2
62.2067 59.414 2
61.8321 56.6944 2
60.6693 63.9796 3.99219
57.0249 66.7371 3.99305
57.5584 63.6978 3.98747
67.5146 50.1782 3.98166
65.7095 54.1785 3.98426
64.5497 51.3919 3.97996
60.7755 60.9464 3.9861
62.8311 55.0793 3.98318
60.665 58.1725 3.98294
60.3396 55.8016 3.98203
56.25 69.9759 4
58.3339 68.6801 2
60.3285 67.2507 0
58.9216 9.65315 3.99252
62.2254 9.30607 4
73.0099 49.554 0
74.2788 44.8158 0
71.2513 46.5968 0.0128022
72.1695 42.0852 0.0141773
74.9194 39.9526 0
75 37.5 2
72.4063 39.8024 2
71.7841 44.3523 2
69.8083 41.789 2
70.5776 48.8114 2
68.9179 46.0144 2
72.4895 37.5119 3.9844
70.0443 39.6567 3.97777
69.4355 43.9068 3.97957
67.6043 41.4977 3.97608
68.2724 48.1075 3.98067
66.7189 45.4413 3.97732
74.9197 35.0474 0
74.2794 30.1841 0
72.186 32.9434 0.0139426
71.28 28.4325 0.0130364
65.694 12.7746 0
65.3254 16.0992 0.0100102
69.8179 24.0602 0.0122689
68.3525 26.951 0.0195595
66.7695 22.9298 0.0169569
64.7201 19.1868 0.0151737
63.8981 22.0258 0.0186775
72.4142 35.2241 2
71.8055 30.6771 2
69.8442 33.2687 2
68.9712 29.0384 2
64.0165 10.9835 2
63.8915 14.3232 2
63.5186 17.4365 2
67.6178 24.9101 2
66.2033 27.6315 2
62.9177 20.3076 2
64.7678 23.8225 2
62.1078 22.9298 2
60.6848 11.0947 2
57.613 11.4386 2
70.061 35.392 3.97809
69.4718 31.1497 3.97964
67.6621 33.5898 3.97622
66.7802 29.6208 3.97697
65.5342 25.6946 3.97915
64.1577 28.2499 3.97695
62.3426 12.6518 3.99158
62.8714 24.6268 3.97947
62.2023 15.7749 3.986
61.8222 18.6709 3.98327
61.2312 21.3263 3.98032
60.4432 23.7116 3.97974
59.2475 12.7702 3.9863
55.8747 10.226 3.98851
56.4066 13.1015 3.98422
69.7716 50.9881 0.0124064
62.2254 65.694 0
58.8944 65.4165 0.0073978
67.7862 55.1694 0.0114014
66.657 52.2123 0.0170926
62.3373 62.4304 0.00829587
62.2067 59.4136 0.0146237
64.6675 56.0387 0.0148212
61.832 56.6939 0.0170666
60.6695 63.9796 2
57.0251 66.7371 2
57.5584 63.6982 2
67.5145 50.1784 2
65.7097 54.179 2
64.5498 51.3926 2
60.7755 60.947 2
62.8313 55.0799 2
60.665 58.173 2
60.3397 55.802 2
55.0703 67.9339 3.99336
59.2207 62.3736 3.98656
55.8045 64.9149 3.98858
56.3284 62.0987 3.98452
65.3431 49.4127 3.97872
63.7182 53.3016 3.98166
62.4578 50.6619 3.97849
59.3376 59.569 3.984
61.0912 54.3237 3.98232
59.2979 57.0285 3.98125
59.2554 55.2006 3.9823
48.1027 68.5819 3.99024
50.9481 69.9332 3.99384
54.0858 71.1327 4
56.25 69.976 2
58.3339 68.6801 0
57.0586 8.33308 3.99303
60.3285 7.74928 4
58.9218 9.65305 2
62.2255 9.30602 2
70.5775 48.8121 0.0125366
71.7842 44.3521 0.0132999
68.9181 46.0144 0.0201107
69.8083 41.7889 0.0210667
72.4063 39.802 0.0151449
75 37.5 0
72.4896 37.5122 2
70.0444 39.6568 2
69.4354 43.9068 2
67.6043 41.4979 2
68.2723 48.1076 2
66.7188 45.4416 2
70.1319 37.5212 3.97735
67.8397 39.512 3.97494
67.2318 43.4707 3.97685
65.5653 41.2112 3.97524
66.079 47.4207 3.97801
64.6643 44.8518 3.97643
72.4141 35.224 0.015108
71.8054 30.6768 0.0132266
69.844 33.2686 0.0208869
68.9713 29.0383 0.0202391
64.0165 10.9835 0
63.8914 14.3233 0.00907014
63.5183 17.4371 0.0142296
67.6178 24.9103 0.0181897
66.2033 27.6318 0.0222178
64.7676 23.823 0.0194672
62.9173 20.3082 0.0179032
62.1075 22.9302 0.0199674
60.6846 11.0948 0.00792502
57.613 11.4392 0.0127798
70.0611 35.3921 2
69.4719 31.1498 2
67.6622 33.5897 2
66.7802 29.6206 2
62.3427 12.6517 2
62.2024 15.7744 2
61.8225 18.6703 2
65.5342 25.6942 2
64.1577 28.2496 2
61.2316 21.3258 2
62.8716 24.6264 2
60.4435 23.7113 2
59.2474 12.7697 2
56.4066 13.1009 2
55.8747 10.2253 2
67.8758 35.5468 3.97536
67.2729 31.6208 3.97695
65.7066 33.9248 3.9751
64.6734 30.1877 3.97583
63.5513 26.4064 3.97804
62.2711 28.7695 3.97739
60.7772 14.2145 3.98596
61.0625 25.3244 3.97925
60.6182 17.1143 3.98411
60.2335 19.7996 3.9817
59.6772 22.2406 3.97908
58.9979 24.3024 3.98001
54.0377 9.12955 3.98922
57.9124 14.3198 3.98416
54.7875 12.0009 3.98514
55.3145 14.632 3.98301
67.5146 50.1782 0.0183364
57.0249 66.7371 0.00694605
60.6693 63.9796 0.00781225
57.5584 63.6978 0.0125325
65.7095 54.1785 0.0157377
64.5497 51.3919 0.0200388
60.7755 60.9464 0.0139014
60.665 58.1725 0.0170565
62.8311 55.0793 0.0168172
60.3396 55.8016 0.0179694
55.0706 67.9339 2
59.2207 62.3742 2
55.8045 64.9153 2
56.3283 62.0992 2
65.343 49.4132 2
63.7183 53.3023 2
62.4578 50.6625 2
59.3376 59.5696 2
61.0913 54.3242 2
59.2979 57.0289 2
59.2555 55.2009 2
53.0422 69.0016 3.99362
53.9666 66.0168 3.98925
57.8834 60.8804 3.98426
54.6843 63.2144 3.98539
55.2138 60.6266 3.9831
63.2092 48.6684 3.97742
61.7575 52.5877 3.98035
60.2932 50.0321 3.97771
58.024 58.2754 3.98231
59.3431 53.9643 3.98153
58.1375 55.8307 3.97962
50.1092 67.8599 3.99
47.4631 66.5863 3.98798
46.0565 69.1615 3.9905
48.1028 68.5823 2
48.8024 70.7244 3.99404
50.9484 69.9333 2
51.8506 72.1454 4
54.0858 71.1327 2
56.25 69.9759 0
55.1029 7.1377 3.99333
58.3339 6.31992 4
57.0588 8.33291 2
60.3286 7.74926 2
58.9216 9.65315 0.00748171
62.2254 9.30607 0
68.2724 48.1075 0.0193326
69.4355 43.9068 0.0204257
66.7189 45.4413 0.0226847
67.6043 41.4977 0.0239222
70.0443 39.6567 0.0222284
72.4895 37.5119 0.0156041
70.132 37.5213 2
67.8398 39.5122 2
67.2318 43.4709 2
65.5654 41.2115 2
66.0789 47.4211 2
64.6642 44.8522 2
67.9353 37.5215 3.9743
65.7949 39.3706 3.97415
65.1869 43.0277 3.97593
63.7674 40.9322 3.97508
63.9791 46.7218 3.97693
62.8218 44.2217 3.97707
70.061 35.392 0.0219133
69.4718 31.1497 0.020362
67.6621 33.5898 0.0237791
66.7802 29.6208 0.0230284
62.3426 12.6518 0.00842111
62.2023 15.7749 0.0139963
61.8222 18.6709 0.0167311
65.5342 25.6946 0.0208522
64.1577 28.2499 0.0230542
62.8714 24.6268 0.0205347
61.2312 21.3263 0.0196792
60.4432 23.7116 0.0202588
59.2475 12.7702 0.0137001
56.4066 13.1015 0.0157849
55.8747 10.226 0.0114941
67.876 35.5468 2
67.273 31.6206 2
65.7068 33.9246 2
64.6734 30.1874 2
60.7772 14.2139 2
60.6184 17.1136 2
60.234 19.799 2
63.5514 26.406 2
62.2711 28.7692 2
59.6776 22.2402 2
61.0627 25.324 2
58.9982 24.3022 2
57.9124 14.3193 2
55.3144 14.6313 2
54.0377 9.12897 2
54.7876 12.0001 2
65.8838 35.6654 3.97436
65.1963 32.1506 3.97574
64.2947 34.2469 3.97505
62.6078 30.6289 3.97568
61.667 27.0616 3.97763
60.8661 29.1299 3.97945
59.3138 15.6564 3.98427
59.3511 25.7807 3.98054
59.1307 18.3394 3.98316
58.753 20.8351 3.98005
58.3027 23.0728 3.97791
57.9889 24.646 3.98062
52.1123 8.14833 3.98964
53.0583 11.0074 3.98613
56.6792 15.728 3.98338
53.8108 13.6672 3.98337
54.3787 15.9828 3.98283
55.0703 67.9339 0.00663616
65.3431 49.4127 0.0212778
55.8045 64.9149 0.0114166
59.2207 62.3736 0.0134411
56.3284 62.0987 0.0154776
63.7182 53.3016 0.0183369
62.4578 50.6619 0.0215119
59.3376 59.569 0.0160031
59.2979 57.0285 0.0187466
61.0912 54.3237 0.0176821
59.2554 55.2006 0.0176961
53.0425 69.0016 2
53.9666 66.0172 2
57.8833 60.8809 2
54.6842 63.2149 2
55.2137 60.6272 2
63.2091 48.6689 2
61.7576 52.5882 2
60.2931 50.0326 2
58.0241 58.276 2
59.3433 53.9646 2
58.1376 55.8311 2
52.0701 67.0031 3.9897
52.9532 64.2244 3.98632
56.6521 59.5011 3.98313
53.6822 61.6311 3.98374
54.2633 59.3332 3.98208
61.0121 47.8907 3.97667
59.7287 52.1206 3.98002
58.0482 49.633 3.97859
56.7842 57.0045 3.98003
57.1361 54.1415 3.97932
50.1092 67.8603 2
49.3367 65.9265 3.98762
47.4631 66.5868 2
46.892 64.7436 3.98618
45.5584 67.104 3.98803
43.9736 69.5941 3.99067
46.0566 69.1619 2
46.6091 71.3689 3.99428
48.1027 68.5819 0.00976379
48.8026 70.7246 2
49.554 73.0099 4
50.9481 69.9332 0.00615797
51.8506 72.1455 2
54.0858 71.1327 0
53.0639 6.06932 3.99356
55.1031 7.13754 2
56.25 5.02411 4
58.3339 6.3199 2
57.0586 8.33308 0.0069661
60.3285 7.74928 0
66.079 47.4207 0.0219896
67.2318 43.4707 0.0231461
64.6643 44.8518 0.0235664
65.5653 41.2112 0.0247631
67.8397 39.512 0.0250635
70.1319 37.5212 0.0226496
67.9354 37.5216 2
65.7952 39.3708 2
65.1869 43.0281 2
63.7675 40.9325 2
63.979 46.7223 2
62.8217 44.2221 2
65.8968 37.5012 3.97307
63.9096 39.2677 3.97407
63.3423 42.5542 3.97579
62.4454 40.7008 3.9752
61.9842 45.9266 3.97691
61.4687 43.6901 3.97814
67.8758 35.5468 0.0246355
67.2729 31.6208 0.0230548
65.7066 33.9248 0.0248977
64.6734 30.1877 0.0241676
60.7772 14.2145 0.0140379
60.6182 17.1143 0.0158904
60.2335 19.7996 0.0182978
63.5513 26.4064 0.0219557
62.2711 28.7695 0.0226072
61.0625 25.3244 0.0207549
59.6772 22.2406 0.0209208
58.9979 24.3024 0.0199896
57.9124 14.3198 0.0158412
55.3145 14.632 0.0169936
54.0377 9.12955 0.0107783
54.7875 12.0009 0.0148634
65.8841 35.6653 2
65.1965 32.1503 2
64.295 34.2466 2
62.6078 30.6286 2
59.3139 15.6557 2
59.1311 18.3387 2
58.7536 20.8345 2
61.6671 27.0613 2
60.8661 29.1296 2
58.3031 23.0725 2
59.3513 25.7805 2
57.9892 24.6458 2
56.6792 15.7273 2
54.3787 15.9821 2
53.8108 13.6664 2
52.1123 8.14779 2
53.0582 11.0068 2
64.1003 35.6303 3.97395
62.9437 33.0413 3.97481
60.6306 30.6021 3.97601
59.591 27.8971 3.97872
57.9434 16.9684 3.98356
57.762 25.7079 3.98199
57.7234 19.4579 3.98201
57.3854 21.8199 3.97791
57.2055 23.9272 3.97766
50.1124 7.28064 3.98986
51.2325 10.1162 3.98686
52.1727 12.7845 3.98451
55.5406 16.9562 3.98329
52.9793 15.2483 3.98188
53.761 16.9641 3.98309
53.0422 69.0016 0.00637734
53.9666 66.0168 0.0107454
63.2092 48.6684 0.022582
54.6843 63.2144 0.014608
57.8834 60.8804 0.0157449
55.2138 60.6266 0.016903
61.7575 52.5877 0.0196535
60.2932 50.0321 0.0222934
58.024 58.2754 0.017693
58.1375 55.8307 0.0203813
59.3431 53.9643 0.0184725
52.0702 67.0034 2
52.9531 64.2249 2
56.6521 59.5017 2
53.6821 61.6317 2
54.2632 59.3339 2
61.012 47.8912 2
59.7287 52.121 2
58.0481 49.6334 2
56.7844 57.0051 2
57.1362 54.1417 2
51.1676 65.1333 3.98707
52.0464 62.5461 3.98454
55.4852 58.2637 3.98261
52.8364 60.1455 3.98257
53.6439 58.4838 3.98182
58.3297 46.8617 3.97931
57.581 51.8046 3.97894
56.272 49.571 3.98157
55.4811 55.8118 3.97847
55.3735 53.4019 3.97566
50.1092 67.8599 0.0100045
49.3367 65.9269 2
48.6177 64.1296 3.98576
47.4631 66.5863 0.0120166
45.5583 67.1045 2
46.8919 64.744 2
46.3814 63.0621 3.9848
45.1322 65.2053 3.98643
43.6316 67.4751 3.98821
41.8609 69.8817 3.99074
43.9736 69.5945 2
44.3766 71.8638 3.99436
46.0565 69.1615 0.0094996
46.6093 71.3691 2
47.2057 73.7222 4
48.8024 70.7244 0.00595538
49.554 73.0099 2
51.8506 72.1454 0
50.9536 5.12984 3.99373
53.0641 6.06913 2
54.0858 3.86728 4
55.1029 7.1377 0.00667059
56.25 5.02406 2
58.3339 6.31992 0
63.9791 46.7218 0.0230668
65.1869 43.0277 0.0240719
62.8218 44.2217 0.022926
63.7674 40.9322 0.024917
65.7949 39.3706 0.0258454
67.9353 37.5215 0.0257035
65.897 37.5013 2
63.9099 39.2679 2
63.3424 42.5545 2
62.4456 40.7011 2
61.9841 45.927 2
61.4687 43.6906 2
63.9684 37.4564 3.97286
62.172 39.3566 3.97461
61.2359 41.9637 3.97584
60.27 44.779 3.97851
65.8838 35.6654 0.0256366
65.1963 32.1506 0.0242634
64.2947 34.2469 0.0249526
62.6078 30.6289 0.0243213
59.3138 15.6564 0.0157262
59.1307 18.3394 0.0168402
58.753 20.8351 0.0199482
61.667 27.0616 0.0223679
60.8661 29.1299 0.0205472
59.3511 25.7807 0.0194567
58.3027 23.0728 0.0220896
57.9889 24.646 0.0193767
56.6792 15.728 0.0166226
54.3787 15.9828 0.0171732
53.8108 13.6672 0.0166328
52.1123 8.14833 0.0103606
53.0583 11.0074 0.0138655
64.1007 35.6302 2
62.9439 33.041 2
60.6306 30.6016 2
57.9436 16.9677 2
57.7241 19.4571 2
57.386 21.8194 2
59.591 27.8969 2
57.2059 23.9271 2
57.7623 25.7079 2
50.1124 7.28013 2
55.5407 16.9554 2
53.761 16.9633 2
52.9793 15.2474 2
52.1727 12.7839 2
51.2325 10.1156 2
62.2036 35.3561 3.9735
60.3095 32.7383 3.97426
58.6425 30.0627 3.97633
57.3159 27.3634 3.98102
56.6408 18.1394 3.98338
56.315 25.0828 3.97835
56.3671 20.5022 3.97998
56.1253 22.8481 3.97484
48.0562 6.52388 3.99012
49.3243 9.32452 3.98739
50.4333 11.9832 3.98488
51.379 14.4838 3.98285
54.4185 17.9042 3.98307
52.3635 17.02 3.98192
52.0701 67.0031 0.0102952
52.9532 64.2244 0.0136783
61.0121 47.8907 0.0233328
53.6822 61.6311 0.0162567
56.6521 59.5011 0.0168708
54.2633 59.3332 0.0179152
59.7287 52.1206 0.0199846
58.0482 49.633 0.0214109
56.7842 57.0045 0.0199698
57.1361 54.1415 0.0206826
51.1675 65.1337 2
52.0462 62.5466 2
55.4853 58.2644 2
52.8363 60.1461 2
53.6439 58.4844 2
58.3296 46.8622 2
57.5809 51.8049 2
56.2718 49.5714 2
55.4813 55.8123 2
55.3736 53.4022 2
50.346 63.3876 3.98525
51.245 60.9442 3.98297
54.225 57.2788 3.98144
52.3157 58.6457 3.98135
56.7476 44.1972 3.9772
55.5219 47.9127 3.98131
55.0912 51.4066 3.9761
54.0161 54.564 3.97631
49.3367 65.9265 0.0123751
48.6176 64.1301 2
47.9617 62.4828 3.98447
45.5584 67.104 0.0119666
46.892 64.7436 0.013815
43.6316 67.4757 2
46.3812 63.0624 2
45.1322 65.2058 2
45.9868 61.5954 3.98371
44.7666 63.4636 3.9853
43.3562 65.5154 3.98658
41.6638 67.6945 3.98823
39.7025 70.0289 3.99065
41.8609 69.8822 2
42.1111 72.2086 3.99434
43.9736 69.5941 0.00933039
44.3768 71.864 2
44.8159 74.2794 4
46.6091 71.3689 0.00571548
47.2057 73.7222 2
49.554 73.0099 0
48.7841 4.32093 3.99394
50.9538 5.12962 2
51.8506 2.85458 4
53.0639 6.06932 0.00644252
54.0858 3.86728 2
56.25 5.02411 0
61.9842 45.9266 0.0230851
63.3423 42.5542 0.0242097
61.4687 43.6901 0.0218602
62.4454 40.7008 0.0247975
63.9096 39.2677 0.0259303
65.8968 37.5012 0.0269251
63.9686 37.4564 2
62.1723 39.3568 2
61.236 41.9641 2
60.27 44.7795 2
62.0088 37.4439 3.97321
60.2696 39.8507 3.97543
59.0194 42.9265 3.97611
64.1003 35.6303 0.0260483
62.9437 33.0413 0.0251869
60.6306 30.6021 0.023992
57.9434 16.9684 0.016441
57.7234 19.4579 0.0179879
57.3854 21.8199 0.0220906
59.591 27.8971 0.0212807
57.762 25.7079 0.0180096
57.2055 23.9272 0.0223364
55.5406 16.9562 0.0167129
53.761 16.9641 0.0169063
52.9793 15.2483 0.0181224
50.1124 7.28064 0.0101358
52.1727 12.7845 0.0154907
51.2325 10.1162 0.0131415
62.2041 35.3561 2
60.3098 32.738 2
58.6423 30.0623 2
56.6412 18.1386 2
56.368 20.5014 2
56.126 22.848 2
57.3159 27.3632 2
56.3154 25.0832 2
48.0562 6.52345 2
49.3243 9.32397 2
54.4187 17.9034 2
52.3635 17.0192 2
51.3789 14.483 2
50.4332 11.9825 2
59.915 35.1156 3.97355
58.0199 32.2598 3.97477
56.5716 29.3217 3.97719
55.4749 26.5809 3.98195
55.3477 19.1725 3.98296
54.9497 24.0356 3.97349
55.0133 21.5423 3.97832
45.9621 5.879 3.99044
43.3734 7.46799 3.98851
47.3547 8.61851 3.98765
48.5999 11.285 3.98559
49.7145 13.7313 3.98372
50.6352 16.1176 3.98114
53.1286 18.6435 3.98183
51.3055 18.0331 3.98404
51.1676 65.1333 0.0129335
52.0464 62.5461 0.0154633
58.3297 46.8617 0.0206892
52.8364 60.1455 0.0174284
55.4852 58.2637 0.0173949
53.6439 58.4838 0.0181793
57.581 51.8046 0.0210647
56.272 49.571 0.0184328
55.4811 55.8118 0.0215317
55.3735 53.4019 0.0243416
50.3459 63.3881 2
51.2448 60.9446 2
54.2252 57.2794 2
52.3155 58.6463 2
56.7477 44.1979 2
55.5217 47.9134 2
55.0911 51.4066 2
54.0164 54.5645 2
49.5919 61.7525 3.98392
55.6815 41.7167 3.97651
50.5687 59.3383 3.98121
52.1912 56.5027 3.97918
54.2227 45.5834 3.98009
53.3714 49.3448 3.97724
52.6852 52.87 3.97494
48.6177 64.1296 0.0142376
47.9615 62.4832 2
47.3291 61.0181 3.9832
43.6316 67.4751 0.0117931
45.1322 65.2053 0.0135683
46.3814 63.0621 0.0151968
41.6637 67.695 2
43.3562 65.5159 2
45.9866 61.5957 2
44.7664 63.4641 2
45.7659 60.6399 3.98297
44.4826 61.8454 3.98394
43.1458 63.7364 3.98512
41.5458 65.6538 3.98676
39.6328 67.7745 3.98822
37.526 70.0542 3.99063
39.7025 70.0294 2
39.8179 72.4057 3.99424
41.8609 69.8817 0.00926257
42.1112 72.2089 2
42.3947 74.6792 4
44.3766 71.8638 0.00563655
44.8159 74.2794 2
47.2057 73.7222 0
43.8515 5.35613 3.99067
46.5702 3.64555 3.99418
48.7843 4.32073 2
49.554 1.99015 4
50.9536 5.12984 0.00627473
51.8506 2.85453 2
54.0858 3.86728 0
60.27 44.779 0.0214917
61.2359 41.9637 0.0241552
62.172 39.3566 0.0253868
63.9684 37.4564 0.0271438
62.0089 37.444 2
60.27 39.8508 2
59.0195 42.9269 2
59.7862 37.5669 3.9742
58.0333 40.6624 3.97486
55.1611 39.7272 3.97538
62.2036 35.3561 0.0265019
60.3095 32.7383 0.0257383
58.6425 30.0627 0.0236694
56.6408 18.1394 0.0166212
56.3671 20.5022 0.0200227
56.1253 22.8481 0.0251615
57.3159 27.3634 0.0189815
56.315 25.0828 0.0216519
54.4185 17.9042 0.0169299
52.3635 17.02 0.0180803
51.379 14.4838 0.0171513
48.0562 6.52388 0.00988213
49.3243 9.32452 0.0126126
50.4333 11.9832 0.0151174
59.9157 35.1156 2
45.9621 5.87855 2
43.3735 7.46754 2
58.0201 32.2595 2
56.5715 29.3212 2
55.3483 19.1715 2
55.0143 21.5415 2
54.9504 24.0366 2
55.475 26.5813 2
47.3547 8.61809 2
48.5998 11.2844 2
53.1289 18.6426 2
51.3057 18.0322 2
50.6352 16.1167 2
49.7144 13.7306 2
57.4299 34.7538 3.97647
55.7608 31.5036 3.97269
54.5449 28.3842 3.98139
53.7975 25.4786 3.97605
53.9754 20.1193 3.983
53.5955 22.6869 3.97372
41.3985 7.07316 3.98868
45.3594 7.98993 3.988
42.865 9.40839 3.98692
46.666 10.646 3.98581
47.7453 13.0918 3.98398
48.9324 15.3884 3.98275
50.0082 17.6867 3.97932
51.6562 19.3105 3.98551
50.346 63.3876 0.0147457
51.245 60.9442 0.0170272
56.7476 44.1972 0.0228045
55.5219 47.9127 0.018687
52.3157 58.6457 0.0186478
54.225 57.2788 0.0185566
55.0912 51.4066 0.0239035
54.0161 54.564 0.0236872
49.5917 61.753 2
55.6822 41.7165 2
50.5685 59.3388 2
52.1914 56.5035 2
54.2227 45.5844 2
53.371 49.3442 2
52.6854 52.8697 2
48.8496 60.2108 3.9826
52.5918 42.6604 3.97482
49.7927 57.6385 3.98073
50.6053 54.4387 3.97657
51.863 47.2873 3.98058
51.2407 50.9638 3.97261
48.2647 43.7797 3.98487
47.9617 62.4828 0.0155339
47.3289 61.0184 2
46.6189 59.8048 3.98246
41.6638 67.6945 0.0117693
43.3562 65.5154 0.0134204
44.7666 63.4636 0.0147016
45.9868 61.5954 0.0162895
39.6328 67.775 2
41.5458 65.6542 2
45.7657 60.6401 2
43.1457 63.7369 2
44.4824 61.8458 2
44.6233 60.3024 3.98316
42.9497 62.0944 3.98459
41.5991 63.8305 3.98522
39.6474 65.6226 3.98685
37.5634 67.7572 3.98818
31.6973 65.1417 3.98711
33.392 67.4948 3.98816
35.3333 69.9644 3.99062
37.526 70.0547 2
37.5096 72.4603 3.99419
39.7025 70.0289 0.00934671
39.8179 72.406 2
39.9526 74.9197 4
42.1111 72.2086 0.00565644
42.3947 74.6792 2
44.8159 74.2794 0
41.7361 4.96521 3.99093
43.8515 5.35569 2
44.3255 3.10889 3.99429
46.5704 3.64531 2
47.2057 1.27793 4
48.7841 4.32093 0.0060553
49.554 1.99013 2
51.8506 2.85458 0
59.0194 42.9265 0.0238853
60.2696 39.8507 0.0245717
62.0088 37.4439 0.0267893
59.7864 37.5671 2
58.0338 40.6623 2
55.1612 39.7271 2
56.8673 37.8956 3.97602
49.7156 41.3261 3.97946
53.2029 39.3115 3.9742
39.4418 6.79663 3.98888
59.915 35.1156 0.0264501
58.0199 32.2598 0.0252311
56.5716 29.3217 0.0228082
55.3477 19.1725 0.0170361
55.0133 21.5423 0.0216811
54.9497 24.0356 0.0265136
55.4749 26.5809 0.0180547
53.1286 18.6435 0.0181652
51.3055 18.0331 0.0159582
50.6352 16.1176 0.0188614
45.9621 5.879 0.0095589
49.7145 13.7313 0.0162816
47.3547 8.61851 0.0123548
48.5999 11.285 0.0144133
43.3734 7.46799 0.0114875
57.4308 34.754 2
41.3985 7.07265 2
45.3595 7.98951 2
42.865 9.40791 2
55.7609 31.5034 2
54.5446 28.3846 2
53.9762 20.118 2
53.5963 22.6842 2
53.7977 25.4795 2
46.666 10.6457 2
47.7452 13.0912 2
51.6566 19.3094 2
50.0083 17.6858 2
48.9323 15.3876 2
54.936 33.962 3.97737
53.5375 30.4653 3.97668
52.6232 27.1823 3.97819
52.1644 24.071 3.97392
52.3999 21.0493 3.98044
41.013 9.04159 3.98708
44.7232 9.98875 3.9863
42.4677 10.8941 3.98526
46.0048 12.7199 3.98447
47.682 14.5732 3.98341
48.1151 16.9754 3.98107
49.8205 19.5856 3.97774
49.5919 61.7525 0.0160765
50.5687 59.3383 0.0187949
55.6815 41.7167 0.0234931
54.2227 45.5834 0.0199091
53.3714 49.3448 0.0227644
52.1912 56.5027 0.0208212
52.6852 52.87 0.0250564
48.8493 60.2112 2
52.593 42.66 2
49.7926 57.6388 2
50.6055 54.4398 2
51.8623 47.2865 2
51.2407 50.9627 2
48.2592 43.7813 2
47.9882 58.7532 3.98157
50.1752 45.2961 3.97661
48.604 55.9306 3.98126
49.1461 52.6165 3.97707
49.7085 49.064 3.97159
46.1342 39.888 3.91554
46.5185 42.7126 3.96189
46.5728 45.8234 3.98751
43.9751 41.1983 3.94021
42.1117 41.9952 3.92696
47.3291 61.0181 0.0167999
46.6187 59.805 2
45.4687 58.8014 3.98214
39.6328 67.7745 0.0117772
41.5458 65.6538 0.0132351
43.1458 63.7364 0.0148824
44.4826 61.8454 0.0160561
45.7659 60.6399 0.0170269
41.599 63.8308 2
37.5634 67.7576 2
39.6474 65.623 2
44.6231 60.3028 2
42.9496 62.0948 2
41.7528 62.5058 3.9852
42.4811 59.9951 3.98375
39.8927 63.5665 3.9854
37.6421 65.522 3.98659
35.4634 67.6666 3.98815
33.5754 65.3553 3.98695
31.9597 63.3157 3.98601
29.8834 64.7325 3.98696
31.6973 65.1422 2
31.3766 67.2045 3.98826
33.3921 67.4953 2
33.1561 69.7577 3.99063
35.3333 69.9648 2
35.195 72.3747 3.99419
37.526 70.0542 0.00936964
37.5096 72.4606 2
37.5 75 4
39.8179 72.4057 0.00575785
39.9526 74.9197 2
42.3947 74.6792 0
39.6236 4.71237 3.99106
41.7361 4.96476 2
42.062 2.71652 3.99446
43.8515 5.35613 0.00932793
44.3257 3.10864 2
44.8158 0.721173 4
46.5702 3.64555 0.00582159
47.2057 1.27779 2
49.554 1.99015 0
58.0333 40.6624 0.0251357
59.7862 37.5669 0.0257963
55.1611 39.7272 0.0246238
49.7166 41.3273 2
56.8673 37.8957 2
53.2027 39.311 2
54.0562 36.622 3.97637
47.6482 40.4374 3.98028
50.687 38.5013 3.97901
37.5155 6.66769 3.98889
39.4418 6.7961 2
39.2106 8.68408 3.9873
35.941 8.48399 3.98746
57.4299 34.7538 0.0235281
55.7608 31.5036 0.0273135
54.5449 28.3842 0.0186093
53.9754 20.1193 0.017
53.5955 22.6869 0.0262792
53.7975 25.4786 0.0239511
51.6562 19.3105 0.0144877
50.0082 17.6867 0.0206819
48.9324 15.3884 0.0172466
45.3594 7.98993 0.0119951
47.7453 13.0918 0.0160228
46.666 10.646 0.014192
41.3985 7.07316 0.0113231
42.865 9.40839 0.0130753
54.937 33.9622 2
41.0131 9.041 2
44.7231 9.98838 2
42.4676 10.8935 2
53.537 30.4637 2
52.6233 27.1845 2
52.4007 21.0479 2
52.1654 24.0718 2
46.0046 12.7196 2
47.6819 14.5726 2
49.8208 19.5846 2
48.1151 16.9745 2
52.4841 32.8594 3.9758
51.3867 29.1407 3.97677
50.8207 25.7081 3.97125
49.9486 22.1643 3.97859
40.5684 11.5972 3.98483
43.8575 11.9091 3.985
45.8032 15.4082 3.98334
47.5065 19.208 3.97945
46.4751 37.5004 3.91694
48.8496 60.2108 0.0173981
49.7927 57.6385 0.0192707
52.5918 42.6604 0.0251814
51.863 47.2873 0.019416
51.2407 50.9638 0.0273893
50.6053 54.4387 0.0234282
48.2647 43.7797 0.0151313
47.9881 58.7535 2
50.1748 45.2997 2
48.6038 55.931 2
49.1461 52.618 2
49.7078 49.0625 2
46.1427 39.8911 2
46.5262 42.7204 2
46.5685 45.8227 2
43.9843 41.204 2
42.1182 41.997 2
46.8407 57.3563 3.98258
44.7431 39.4778 3.93408
42.4963 40.8711 3.93719
48.1467 47.2604 3.97938
47.1779 54.265 3.98123
47.6139 50.7752 3.97716
44.8627 47.3634 3.99306
45.1973 41.9876 3.91772
44.9887 44.6176 3.9621
42.7779 42.7131 3.94135
40.9621 42.3374 3.94554
46.6189 59.8048 0.0175388
45.4684 58.8015 2
43.8769 57.7259 3.98261
37.5634 67.7572 0.011821
39.6474 65.6226 0.013148
41.5991 63.8305 0.0147848
42.9497 62.0944 0.0154139
44.6233 60.3024 0.0168351
35.4635 67.6671 2
41.7527 62.506 2
39.8925 63.5667 2
37.6422 65.5224 2
42.4809 59.9954 2
40.6227 61.665 3.98447
40.4449 58.2289 3.98276
37.8363 63.2287 3.98611
35.5729 65.4444 3.98664
33.5755 65.3557 2
31.9598 63.3161 2
33.6292 63.3558 3.98604
30.3787 62.8742 3.98578
32.1232 62.023 3.98493
26.8678 61.5169 3.98439
28.0622 64.1605 3.98671
29.8835 64.733 2
29.406 66.768 3.98829
31.6973 65.1417 0.012892
31.3766 67.2049 2
31.0134 69.4226 3.99057
33.392 67.4948 0.0118422
33.1561 69.7581 2
32.8921 72.149 3.9942
35.3333 69.9644 0.00937728
35.1949 72.375 2
35.0474 74.9194 4
37.5096 72.4603 0.00580881
37.5 75 2
39.9526 74.9197 0
35.62 6.71882 3.98888
37.5227 4.61184 3.99116
39.6236 4.71192 2
39.7885 2.47298 3.99457
41.7361 4.96521 0.00907399
42.0621 2.71624 2
42.3946 0.32156 4
44.3255 3.10889 0.00570956
44.8159 0.72056 2
47.2057 1.27793 0
49.7156 41.3261 0.0205401
56.8673 37.8956 0.0239792
53.2029 39.3115 0.0257997
47.6497 40.4369 2
50.6859 38.5018 2
54.0564 36.6221 2
51.4736 35.5764 3.96623
48.3216 37.7664 3.98315
46.1384 35.1135 3.916
43.9768 33.7954 3.93869
42.106 33.0097 3.92679
37.4573 8.52574 3.98745
37.5155 6.66721 2
39.4418 6.79663 0.0111194
39.2106 8.68344 2
38.9755 10.1159 3.98669
35.8975 9.76303 3.98639
34.1495 8.81349 3.98719
35.941 8.4834 2
54.936 33.962 0.0226256
53.5375 30.4653 0.0233239
52.6232 27.1823 0.0218108
52.3999 21.0493 0.0195627
52.1644 24.071 0.0260825
49.8205 19.5856 0.0222579
48.1151 16.9754 0.0189348
47.682 14.5732 0.0165926
44.7232 9.98875 0.0136987
46.0048 12.7199 0.0155318
41.013 9.04159 0.0129165
42.4677 10.8941 0.0147364
52.4854 32.8586 2
40.5683 11.5966 2
43.8573 11.9086 2
51.3861 29.1425 2
50.8216 25.7101 2
49.9495 22.1631 2
45.803 15.4078 2
47.5066 19.2069 2
50.0907 31.3978 3.97216
49.3295 27.4623 3.9697
49.427 24.3771 3.98148
47.1915 21.9094 3.9782
38.301 12.7216 3.98421
42.1007 14.2922 3.98294
44.8023 18.4421 3.98206
45.0276 37.5008 3.93293
46.4895 37.5019 2
47.9882 58.7532 0.0184295
48.604 55.9306 0.0187365
50.1752 45.2961 0.023389
49.7085 49.064 0.028409
49.1461 52.6165 0.0229288
46.1342 39.888 0.0844611
46.5185 42.7126 0.0381143
46.5728 45.8234 0.012485
43.9751 41.1983 0.0597907
42.1117 41.9952 0.0730432
46.8405 57.3566 2
44.7547 39.481 2
42.4976 40.8712 2
48.1453 47.2582 2
47.1775 54.2651 2
47.6138 50.7755 2
44.8621 47.3565 2
45.2032 41.9927 2
44.9983 44.6272 2
42.7928 42.7169 2
40.9689 42.339 2
45.4008 55.9428 3.98121
42.8269 39.2601 3.94862
40.9375 40.7987 3.9675
46.137 48.937 3.983
45.5603 52.564 3.98258
43.5024 48.4732 3.97382
43.3912 46.1881 3.96861
43.751 43.802 3.91375
41.254 43.8758 3.94486
39.325 42.6619 3.94225
45.4687 58.8014 0.0178617
43.8765 57.726 2
42.1075 56.3521 3.98277
35.4634 67.6666 0.0118475
37.6421 65.522 0.0134104
39.8927 63.5665 0.0146043
41.7528 62.5058 0.014797
42.4811 59.9951 0.0162455
35.573 65.4448 2
40.6225 61.6652 2
37.8362 63.2289 2
40.4447 58.2291 2
38.9258 56.5231 3.98461
38.2503 60.3511 3.98471
35.6069 63.2224 3.98596
33.5754 65.3553 0.0130479
31.9597 63.3157 0.0139896
33.6292 63.3561 2
30.3789 62.8745 2
32.1232 62.0233 2
28.6809 62.2195 3.98548
33.3459 61.5363 3.98507
31.0659 61.2402 3.98459
27.5654 59.6153 3.98293
23.7871 59.1015 3.98371
25.0326 60.8888 3.98344
26.868 61.5173 2
26.2286 63.4922 3.98607
28.0624 64.1607 2
27.4626 66.1917 3.98829
29.8834 64.7325 0.0130398
29.4061 66.7685 2
28.9056 68.9481 3.99054
31.3766 67.2045 0.0117377
31.0133 69.423 2
30.6145 71.78 3.99422
33.1561 69.7577 0.00937304
32.892 72.1492 2
32.6054 74.6784 4
35.195 72.3747 0.00580945
35.0474 74.9197 2
37.5 75 0
33.7225 6.97351 3.98864
35.4341 4.68228 3.99106
35.6199 6.71826 2
37.514 2.38561 3.99463
37.5228 4.61143 2
39.6236 4.71237 0.00894098
39.7885 2.4727 2
39.9526 0.0806499 4
42.062 2.71652 0.00553734
42.3947 0.320817 2
44.8158 0.721173 0
44.754 35.5136 3.93345
42.4963 34.1254 3.93696
47.6482 40.4374 0.0197183
50.687 38.5013 0.0209942
54.0562 36.622 0.0236299
48.3214 37.7652 2
51.4738 35.5756 2
46.1435 35.112 2
43.9905 33.7861 2
42.1095 33.0101 2
48.4865 34.2656 4.00179
45.193 33.0058 3.91026
42.7746 32.2897 3.93959
40.9537 32.6664 3.94412
37.3095 10.6188 3.98583
37.4573 8.52513 2
37.5155 6.66769 0.0111086
39.2106 8.68408 0.0127031
38.9755 10.1152 2
34.7526 10.3686 3.98575
35.8974 9.76237 2
32.3761 9.36016 3.9864
34.1494 8.81275 2
35.941 8.48399 0.0125398
52.4841 32.8594 0.0241997
51.3867 29.1407 0.023232
50.8207 25.7081 0.0287472
49.9486 22.1643 0.0214068
47.5065 19.208 0.0205546
45.8032 15.4082 0.0166616
43.8575 11.9091 0.0150017
40.5684 11.5972 0.0151697
50.0894 31.3978 2
38.3007 12.7207 2
42.1004 14.2917 2
49.3291 27.4634 2
49.4281 24.376 2
47.1922 21.91 2
44.8022 18.4413 2
47.8679 29.5973 3.96914
47.1299 25.1 3.98105
44.2917 21.293 3.98055
36.5806 12.9181 3.98392
38.6802 14.7911 3.98268
41.7503 17.8209 3.98049
42.9636 37.4878 3.94574
45.0448 37.5009 2
46.4751 37.5004 0.0830602
46.8407 57.3563 0.0174247
47.1779 54.265 0.0187673
48.1467 47.2604 0.0206235
47.6139 50.7752 0.0228377
44.7431 39.4778 0.0659228
45.1973 41.9876 0.0822752
44.9887 44.6176 0.0378992
44.8627 47.3634 0.00694395
42.7779 42.7131 0.0586488
42.4963 40.8711 0.0628136
40.9621 42.3374 0.054464
45.4008 55.9431 2
42.8292 39.2592 2
40.9375 40.7983 2
46.1368 48.9337 2
45.5603 52.5629 2
43.5011 48.4775 2
43.4191 46.199 2
43.7614 43.808 2
41.2644 43.8738 2
39.329 42.6627 2
43.7403 54.4535 3.98691
41.0103 39.1697 3.9703
39.2536 40.8679 3.96743
43.7361 50.5313 3.98518
42.0029 47.722 3.99646
41.9154 45.1983 3.9073
39.4797 44.6344 3.94829
37.4984 42.7937 3.94111
43.8769 57.7259 0.0173866
42.1072 56.3521 2
40.4207 54.9584 3.98126
35.5729 65.4444 0.013359
37.8363 63.2287 0.0138907
40.6227 61.665 0.0155291
40.4449 58.2289 0.017236
35.6069 63.2227 2
38.2501 60.3511 2
38.9255 56.5242 2
37.9997 55.2802 3.98346
36.9349 57.6558 3.98342
35.3634 60.9356 3.98526
33.6292 63.3558 0.0139613
30.3787 62.8742 0.0142219
32.1232 62.023 0.0150742
33.3459 61.5365 2
28.6811 62.2197 2
31.066 61.2404 2
29.4012 60.31 3.98407
32.3552 59.769 3.98415
28.0168 58.395 3.98335
27.5656 59.6156 2
25.3739 58.614 3.98219
22.7493 58.2603 3.98041
23.3974 60.3679 3.98266
23.7873 59.102 2
25.0327 60.8892 2
24.4308 62.784 3.98522
26.8678 61.5169 0.0156104
26.2288 63.4926 2
25.5467 65.5015 3.988
28.0622 64.1605 0.0132934
27.4627 66.1921 2
26.8353 68.3363 3.99046
29.406 66.768 0.0117077
28.9056 68.9485 2
28.3696 71.2652 3.99423
31.0134 69.4226 0.0094273
30.6143 71.7803 2
30.1842 74.2788 4
32.8921 72.149 0.00580458
32.6053 74.6792 2
35.0474 74.9194 0
31.7869 7.41323 3.98831
33.346 4.92148 3.99088
33.7225 6.97281 2
35.2443 2.46178 3.99457
35.4341 4.6818 2
35.62 6.71882 0.0111165
37.5 0 4
37.514 2.38534 2
37.5227 4.61184 0.00884324
39.7885 2.47298 0.00543381
39.9526 0.0802889 2
42.3946 0.32156 0
42.8354 35.7239 3.94735
44.762 35.5127 2
40.938 34.2019 3.9669
42.4971 34.126 2
48.3216 37.7664 0.0168457
51.4736 35.5764 0.0337705
46.1384 35.1135 0.0839969
43.9768 33.7954 0.061309
42.106 33.0097 0.0732128
48.4893 34.2643 2
45.2017 33.0004 2
42.788 32.2868 2
40.9567 32.6638 2
46.4131 31.5222 3.98182
43.7417 31.2016 3.91437
41.252 31.1273 3.9378
39.314 32.3446 3.9419
35.6909 11.7632 3.98424
37.3095 10.6181 2
37.4573 8.52574 0.0125459
38.9755 10.1159 0.0133066
33.0965 11.2053 3.9846
34.7525 10.3678 2
35.8975 9.76303 0.0136074
30.4808 10.0083 3.98586
32.376 9.35942 2
34.1495 8.81349 0.012806
50.0907 31.3978 0.0278381
49.3295 27.4623 0.0303004
49.427 24.3771 0.0185196
47.1915 21.9094 0.0217981
44.8023 18.4421 0.0179393
42.1007 14.2922 0.0170584
38.301 12.7216 0.0157945
36.5804 12.9175 2
47.8653 29.597 2
38.6798 14.7902 2
41.75 17.8202 2
47.1312 25.0998 2
44.2922 21.2918 2
45.6202 27.7808 3.97968
43.8184 24.0245 3.98141
41.3429 20.6985 3.98001
35.7703 14.7429 3.98299
38.6808 17.5775 3.98078
41.0562 37.4825 3.967
42.967 37.4888 2
45.0276 37.5008 0.0670665
45.4008 55.9428 0.0187894
45.5603 52.564 0.0174158
46.137 48.937 0.016996
42.8269 39.2601 0.0513825
43.751 43.802 0.0862537
43.3912 46.1881 0.0313897
43.5024 48.4732 0.0261832
41.254 43.8758 0.0551413
40.9375 40.7987 0.0325045
39.325 42.6619 0.0577462
43.7405 54.4539 2
41.0109 39.1697 2
39.253 40.8695 2
43.7354 50.534 2
42.0052 47.7288 2
41.9315 45.2025 2
37.5007 42.7981 2
39.4929 44.6321 2
41.889 53.0245 3.98895
39.2394 39.1613 3.93739
37.5001 40.9039 3.9404
35.6782 42.6701 3.94231
40.9739 49.7647 3.99934
39.8157 46.0791 3.90678
37.5033 44.8929 3.94994
42.1075 56.3521 0.0172328
40.4202 54.9582 2
38.7291 53.8906 3.98487
35.6069 63.2224 0.0140436
38.2503 60.3511 0.015293
38.9258 56.5231 0.0153946
35.3633 60.9357 2
36.9345 57.6553 2
37.9992 55.2797 2
36.3186 55.4171 3.9856
34.4869 58.5484 3.98437
33.3459 61.5363 0.0149254
28.6809 62.2195 0.0145208
31.0659 61.2402 0.0154136
32.3553 59.769 2
29.4014 60.3101 2
30.2928 57.842 3.98395
28.017 58.3952 2
26.9345 56.8445 3.98119
27.5654 59.6153 0.0170733
25.374 58.6144 2
23.8278 56.826 3.97832
21.324 57.4197 3.98076
21.9886 59.6402 3.98278
22.7494 58.2607 2
22.734 62.0348 3.98432
23.3975 60.3683 2
23.7871 59.1015 0.0162914
25.0326 60.8888 0.0165616
24.431 62.7845 2
23.6805 64.7194 3.98727
26.2286 63.4922 0.0139288
25.5468 65.5019 2
24.8076 67.5974 3.99033
27.4626 66.1917 0.011706
26.8353 68.3367 2
26.1649 70.606 3.99417
28.9056 68.9481 0.00946228
28.3694 71.2654 2
27.7943 73.7221 4
30.6145 71.78 0.00578119
30.1841 74.2794 2
32.6054 74.6784 0
29.8095 7.9865 3.98778
31.2511 5.32857 3.99057
31.7869 7.41252 2
32.98 2.69989 3.99445
33.346 4.9209 2
33.7225 6.97351 0.0113601
35.0474 0.080333 4
35.2443 2.46148 2
35.4341 4.68228 0.0089362
37.5 0 2
37.514 2.38561 0.00537399
39.9526 0.0806499 0
41.0186 35.8068 3.96861
42.8364 35.7256 2
44.754 35.5136 0.0665528
28.5416 10.6836 3.98565
39.2512 34.1375 3.96666
40.9367 34.2028 2
42.4963 34.1254 0.0630362
48.4865 34.2656 -0.00179362
45.193 33.0058 0.0897446
42.7746 32.2897 0.060411
40.9537 32.6664 0.0558809
46.4247 31.5182 2
43.7467 31.1948 2
41.2641 31.1232 2
39.3173 32.3425 2
44.4378 29.6949 3.97248
41.9089 29.8104 3.9109
39.4731 30.3765 3.94815
37.4848 32.2101 3.94218
34.0907 12.9213 3.98357
35.6908 11.7625 2
37.3095 10.6188 0.0141706
31.1845 11.9735 3.98468
33.0964 11.2045 2
34.7526 10.3686 0.0142509
30.4807 10.0076 2
32.3761 9.36016 0.0135973
47.8679 29.5973 0.0308571
47.1299 25.1 0.0189456
36.5806 12.9181 0.0160799
44.2917 21.293 0.0194504
41.7503 17.8209 0.0195098
38.6802 14.7911 0.0173154
35.7699 14.7425 2
45.6188 27.7819 2
38.6803 17.5765 2
41.3428 20.6971 2
43.8194 24.0275 2
33.6055 15.8599 3.98291
43.0999 26.5144 3.98905
40.9237 23.2721 3.98026
38.4214 20.3061 3.98154
35.8465 17.4908 3.98204
39.2505 37.4837 3.92896
41.0563 37.4826 2
42.9636 37.4878 0.0542633
43.7403 54.4535 0.0130893
43.7361 50.5313 0.0148169
41.0103 39.1697 0.0297021
41.9154 45.1983 0.0927022
42.0029 47.722 0.00354375
39.4797 44.6344 0.0517115
39.2536 40.8679 0.0325673
37.4984 42.7937 0.0588855
41.889 53.0257 2
39.2398 39.1622 2
37.5002 40.9075 2
40.9724 49.7647 2
35.6755 42.6702 2
39.8341 46.0921 2
37.5006 44.8861 2
39.8303 51.9494 3.99559
37.4988 39.172 3.91625
35.749 40.8795 3.9668
34.0397 42.3428 3.94502
35.5102 44.6394 3.94669
38.764 48.7599 4.01986
37.5079 46.3912 3.90489
40.4207 54.9584 0.0187387
38.7288 53.8891 2
36.7162 53.2496 3.99404
35.3634 60.9356 0.0147378
36.9349 57.6558 0.0165752
37.9997 55.2802 0.0165351
34.4868 58.5482 2
36.3183 55.4157 2
33.2214 55.534 3.98452
32.3552 59.769 0.015854
29.4012 60.31 0.0159348
30.2929 57.8418 2
28.6737 55.3347 3.98075
28.0168 58.395 0.0166539
26.9347 56.8448 2
25.2925 55.1644 3.97876
21.7911 55.3685 3.97827
25.3739 58.614 0.017814
23.8279 56.8265 2
20.2072 57.0502 3.98275
20.6383 58.7983 3.98224
21.324 57.4202 2
21.1633 61.1846 3.98407
21.9887 59.6406 2
22.7493 58.2603 0.0195867
21.8937 63.847 3.98645
22.7342 62.0352 2
23.3974 60.3679 0.0173352
24.4308 62.784 0.0147839
23.6807 64.7199 2
22.836 66.741 3.99005
25.5467 65.5015 0.0119999
24.8076 67.5978 2
24.0092 69.8072 3.99406
26.8353 68.3363 0.00954123
26.1647 70.6062 2
25.446 73.0099 4
28.3696 71.2652 0.00577412
27.7943 73.7222 2
30.1842 74.2788 0
27.8194 8.64615 3.98748
29.1531 5.87432 3.99017
29.8094 7.98585 2
30.7253 3.097 3.99425
31.2511 5.32798 2
31.7869 7.41323 0.0116905
32.6053 0.320823 4
32.98 2.69957 2
33.346 4.92148 0.00912176
35.0474 0.0802903 2
35.2443 2.46178 0.00543457
37.5 0 0
39.2465 35.8188 3.9364
41.0187 35.8072 2
42.8354 35.7239 0.0526475
28.5416 10.6831 2
26.6206 11.379 3.98532
29.2234 12.6301 3.9846
37.4955 34.1002 3.93894
39.2497 34.1352 2
40.938 34.2019 0.0330959
46.4131 31.5222 0.0181808
43.7417 31.2016 0.0856262
41.252 31.1273 0.0622032
39.314 32.3446 0.0581039
44.4499 29.6862 2
41.9261 29.8012 2
39.4846 30.3763 2
37.4861 32.2042 2
42.3565 28.3529 3.96656
39.8208 28.9269 3.91184
37.4884 30.1063 3.94972
35.6627 32.3333 3.94235
31.912 14.4666 3.98346
34.0906 12.9206 2
35.6909 11.7632 0.015756
31.1845 11.9728 2
33.0965 11.2053 0.0153979
30.4808 10.0083 0.0141352
45.6202 27.7808 0.0203187
43.8184 24.0245 0.0185906
35.7703 14.7429 0.0170053
41.3429 20.6985 0.019992
38.6808 17.5775 0.0192211
33.6052 15.8598 2
35.846 17.4906 2
43.0988 26.5163 2
38.4213 20.3055 2
40.9242 23.2693 2
33.5473 17.3679 3.98379
40.4737 25.6177 4.00868
38.0807 22.8352 3.98779
35.5818 20.0576 3.98353
37.5012 37.4928 3.91317
39.2506 37.4837 2
41.0562 37.4825 0.0330003
41.889 53.0245 0.0110459
40.9739 49.7647 0.000657999
39.2394 39.1613 0.0626086
39.8157 46.0791 0.0932224
37.5033 44.8929 0.0500618
37.5001 40.9039 0.0595987
35.6782 42.6701 0.0576861
39.8307 51.9486 2
37.4994 39.1738 2
35.7496 40.8815 2
38.7603 48.7807 2
34.0355 42.3459 2
35.5028 44.6366 2
37.5062 46.4086 2
37.6688 51.0457 3.99769
35.763 39.1774 3.93663
34.0702 40.8108 3.96633
32.8868 41.9981 3.92719
33.7332 43.8811 3.94284
35.1898 46.0829 3.91195
36.8939 48.4059 4.00578
38.7291 53.8906 0.0151265
36.716 53.2476 2
34.3505 52.5087 3.98553
34.4869 58.5484 0.0156329
36.3186 55.4171 0.0143988
33.2214 55.5333 2
30.4998 53.4356 3.98352
30.2928 57.842 0.0160527
28.6738 55.3344 2
26.8565 53.4696 3.97842
26.9345 56.8445 0.0188117
25.2925 55.1649 2
23.5461 53.5066 3.97556
20.4408 53.2511 3.97557
19.9167 55.8543 3.98165
21.7908 55.369 2
23.8278 56.826 0.0216764
19.4291 57.9108 3.98212
20.2071 57.0507 2
19.7017 60.2186 3.98324
20.6383 58.7988 2
21.324 57.4197 0.0192383
20.2055 62.8682 3.9857
21.1634 61.1851 2
21.9886 59.6402 0.0172172
20.9374 65.7699 3.98952
21.8938 63.8475 2
22.734 62.0348 0.0156764
23.6805 64.7194 0.0127281
22.836 66.7414 2
21.9117 68.8743 3.99388
24.8076 67.5974 0.00967022
24.009 69.8073 2
23.1494 72.1454 4
26.1649 70.606 0.00583018
25.446 73.0099 2
27.7943 73.7221 0
25.8587 9.37417 3.98699
27.0679 6.53841 3.98979
27.8194 8.64559 2
28.4875 3.64289 3.994
29.153 5.87379 2
29.8095 7.9865 0.012221
30.1841 0.720592 4
30.7252 3.0967 2
31.2511 5.32857 0.0094265
32.6053 0.320817 2
32.98 2.69989 0.00555456
35.0474 0.080333 0
37.5018 35.8194 3.91395
39.2464 35.8177 2
41.0186 35.8068 0.0313867
24.7753 12.0619 3.98528
23.749 14.3459 3.98418
28.5416 10.6836 0.014348
26.6206 11.3785 2
29.2234 12.6297 2
27.2895 13.3632 3.98452
29.778 14.1888 3.98372
35.7454 34.1225 3.96695
37.4951 34.0963 2
39.2512 34.1375 0.0333416
37.4848 32.2101 0.0578208
44.4378 29.6949 0.0275172
41.9089 29.8104 0.0891034
39.4731 30.3765 0.0518543
42.3655 28.3403 2
39.8373 28.9169 2
37.4871 30.1148 2
35.6611 32.3314 2
40.0372 27.5257 3.98137
37.4949 28.6041 3.90743
35.4936 30.3668 3.94677
34.0306 32.6513 3.94285
30.923 16.823 3.98308
31.9121 14.4659 2
34.0907 12.9213 0.0164308
31.1845 11.9735 0.0153192
43.0999 26.5144 0.0109493
40.9237 23.2721 0.0197425
33.6055 15.8599 0.0170901
35.8465 17.4908 0.0179608
38.4214 20.3061 0.0184615
33.547 17.3682 2
35.5818 20.0571 2
40.4713 25.6196 2
38.0808 22.836 2
32.8595 19.7734 3.98316
37.7868 25.1315 4.02635
35.2015 22.6152 3.9799
35.755 37.4978 3.92844
37.5018 37.493 2
39.2505 37.4837 0.0710429
39.8303 51.9494 0.00440709
38.764 48.7599 -0.0198565
37.4988 39.172 0.0837502
37.5079 46.3912 0.0951092
35.5102 44.6394 0.0533096
35.749 40.8795 0.0331967
34.0397 42.3428 0.0549791
37.6693 51.0539 2
35.7638 39.1785 2
34.0708 40.8099 2
36.8907 48.4138 2
32.8825 41.9983 2
33.7253 43.8838 2
35.1699 46.0949 2
35.4259 50.18 3.99826
33.999 39.1873 3.96616
32.5025 40.8777 3.93801
32.214 42.7134 3.94015
33.0974 45.1933 3.91512
34.2852 47.4899 3.98076
36.7162 53.2496 0.0059649
34.3503 52.5087 2
31.9692 51.2375 3.98569
33.2214 55.534 0.015485
30.4999 53.4368 2
28.3934 51.6561 3.98095
28.6737 55.3347 0.0192503
26.8566 53.4707 2
25.042 51.7935 3.97434
25.2925 55.1644 0.0212443
23.5458 53.5075 2
21.929 51.8377 3.97383
19.1691 51.6606 3.97505
18.9005 54.3315 3.97838
20.4406 53.2515 2
18.4349 56.7434 3.98279
19.9164 55.8548 2
21.7911 55.3685 0.0217327
18.3623 59.1266 3.98226
19.4291 57.9113 2
20.2072 57.0502 0.0172514
18.6157 61.7762 3.98485
19.7018 60.2192 2
20.6383 58.7983 0.0177559
19.1261 64.6808 3.98878
20.2057 62.8687 2
21.1633 61.1846 0.0159266
19.8858 67.8109 3.99354
20.9374 65.7703 2
21.8937 63.847 0.0135545
22.836 66.741 0.00994635
21.9115 68.8744 2
20.9142 71.1327 4
24.0092 69.8072 0.0059447
23.1494 72.1455 2
25.446 73.0099 0
23.0945 12.7766 3.98491
23.9713 10.1607 3.98673
25.0218 7.30839 3.98958
25.8587 9.37363 2
26.2793 4.32708 3.99372
27.0678 6.53792 2
27.8194 8.64615 0.0125206
27.7943 1.27781 4
28.4873 3.64264 2
29.1531 5.87432 0.00982693
30.1841 0.720551 2
30.7253 3.097 0.00574804
32.6053 0.320823 0
35.7597 35.8201 3.93541
37.5021 35.818 2
39.2465 35.8188 0.0635955
24.7754 12.0615 2
23.7492 14.3457 2
22.4772 15.022 3.98382
25.3555 13.8952 3.98421
24.0215 15.6074 3.98355
26.6206 11.379 0.014677
29.2234 12.6301 0.015403
27.2895 13.3629 2
29.778 14.1883 2
28.3536 15.9628 3.98376
34.0735 34.1918 3.96613
35.7462 34.1207 2
37.4955 34.1002 0.0610623
35.6627 32.3333 0.0576525
37.4884 30.1063 0.050285
42.3565 28.3529 0.0334417
39.8208 28.9269 0.0881573
40.041 27.5191 2
37.4947 28.5889 2
35.4842 30.3664 2
34.0311 32.6468 2
37.628 27.2157 3.98718
35.1517 28.9139 3.91145
33.7151 31.1182 3.94027
32.8838 32.999 3.92684
30.2029 19.3258 3.98418
30.9229 16.8225 2
31.912 14.4666 0.0165424
40.4737 25.6177 -0.0086825
38.0807 22.8352 0.0122107
33.5473 17.3679 0.0162137
35.5818 20.0576 0.016467
32.8591 19.7741 2
35.2015 22.6133 2
37.786 25.1351 2
32.3034 22.3868 3.98234
34.9426 25.144 4.00155
33.9557 37.499 3.96428
35.7561 37.498 2
37.5012 37.4928 0.0868307
37.6688 51.0457 0.00231312
36.8939 48.4059 -0.00577822
35.763 39.1774 0.0633671
35.1898 46.0829 0.0880525
33.7332 43.8811 0.0571632
34.0702 40.8108 0.033675
32.8868 41.9981 0.0728147
35.4255 50.1868 2
33.9998 39.1866 2
32.5013 40.876 2
34.2771 47.5103 2
32.2019 42.7126 2
33.0804 45.2051 2
33.1889 49.1725 4.001
32.1708 39.2719 3.94853
31.017 41.1997 3.93926
31.2502 43.7957 3.91493
32.2306 46.414 3.97488
34.3505 52.5087 0.0144745
31.969 51.2399 2
29.8 49.7616 3.98301
30.4998 53.4356 0.0164812
28.3934 51.6542 2
26.454 50.0364 3.97573
26.8565 53.4696 0.0215787
25.0418 51.7935 2
23.2932 50.2313 3.9741
23.5461 53.5066 0.024441
21.9288 51.8374 2
20.4256 50.3432 3.97463
17.9564 50.3513 3.97685
17.8086 52.814 3.97707
19.1693 51.6606 2
17.4209 55.36 3.98064
18.9002 54.3319 2
20.4408 53.2511 0.0244295
17.1263 57.8893 3.98317
18.4347 56.7439 2
19.9167 55.8543 0.0183501
17.1322 60.5601 3.98382
18.3624 59.1271 2
19.4291 57.9108 0.0178818
17.4061 63.4737 3.98783
18.6158 61.7767 2
19.7017 60.2186 0.0167609
17.9419 66.6194 3.99317
19.1262 64.6812 2
20.2055 62.8682 0.0143027
18.75 69.9759 4
19.8856 67.811 2
20.9374 65.7699 0.0104756
21.9117 68.8743 0.00612064
20.9142 71.1327 2
23.1494 72.1454 0
21.5849 13.5963 3.98459
22.1893 11.0198 3.98619
23.0946 12.7763 2
23.0399 8.17369 3.98941
23.9714 10.1602 2
24.1169 5.1417 3.99357
25.0217 7.30796 2
25.8587 9.37417 0.0130114
25.446 1.99014 4
26.279 4.32689 2
27.0679 6.53841 0.0102101
27.7943 1.27778 2
28.4875 3.64289 0.00600068
30.1841 0.720592 0
33.9928 35.8121 3.96632
35.7603 35.8195 2
37.5018 35.8194 0.0860479
21.3017 15.8176 3.98335
24.7753 12.0619 0.0147219
23.749 14.3459 0.0158177
25.3556 13.8949 2
22.4774 15.022 2
24.0218 15.6073 2
23.2602 16.2386 3.98325
25.3768 16.0751 3.98391
27.2895 13.3632 0.0154764
29.778 14.1888 0.0162769
28.3537 15.9626 2
27.4345 18.7839 3.9841
32.5151 34.1203 3.9386
34.0751 34.1905 2
35.7454 34.1225 0.033053
34.0306 32.6513 0.0571473
35.4936 30.3668 0.0532258
37.4949 28.6041 0.092569
40.0372 27.5257 0.0186261
37.6243 27.1862 2
32.8841 32.9997 2
35.1307 28.9015 2
33.7034 31.1092 2
35.0557 27.3295 3.98707
33.0592 29.8044 3.91432
32.2006 32.275 3.93863
29.5643 21.9202 3.99027
30.203 19.3258 2
30.923 16.823 0.0169244
37.7868 25.1315 -0.0263519
35.2015 22.6152 0.0201046
32.8595 19.7734 0.0168424
32.3033 22.3881 2
34.9445 25.1506 2
31.6408 25.6033 3.99138
32.0436 37.5003 3.94599
33.9571 37.4983 2
35.755 37.4978 0.0715638
35.4259 50.18 0.00173555
34.2852 47.4899 0.0192388
33.999 39.1873 0.033842
33.0974 45.1933 0.0848795
32.214 42.7134 0.0598475
32.5025 40.8777 0.0619935
33.1885 49.1583 2
32.1697 39.2699 2
31.0038 41.205 2
32.2166 46.4281 2
31.2421 43.8011 2
31.0652 47.954 3.99422
30.2435 39.4757 3.93358
29.7997 41.9874 3.91114
30.3484 44.9895 3.97205
31.9692 51.2375 0.0143127
29.7999 49.7574 2
27.7947 48.2364 3.98306
28.3934 51.6561 0.0190536
26.4539 50.0351 2
24.5856 48.5087 3.97493
25.042 51.7935 0.0256574
23.2935 50.231 2
21.6003 48.8209 3.97616
21.929 51.8377 0.0261704
20.426 50.3427 2
18.9946 49.1149 3.97839
16.8648 49.3485 3.97947
16.7483 51.4261 3.97736
17.9568 50.3514 2
16.3706 53.8889 3.9791
17.8086 52.8142 2
19.1691 51.6606 0.0249545
15.9656 56.4912 3.98227
17.4206 55.3604 2
18.9005 54.3315 0.0216178
15.7445 59.2214 3.98381
17.1262 57.8898 2
18.4349 56.7434 0.0172065
15.7861 62.1446 3.98667
17.1323 60.5607 2
18.3623 59.1266 0.0177397
16.0884 65.302 3.99285
17.4062 63.4742 2
18.6157 61.7762 0.0151505
16.6661 68.6801 4
17.9417 66.6194 2
19.1261 64.6808 0.0112207
18.75 69.9759 2
19.8858 67.8109 0.00645825
20.9142 71.1327 0
20.2165 14.585 3.98401
21.5852 13.5963 2
20.5284 11.9893 3.98574
21.143 9.1432 3.98922
22.1895 11.0194 2
23.0945 12.7766 0.0150894
22.016 6.08064 3.9934
23.0398 8.17331 2
23.9713 10.1607 0.0132702
23.1494 2.85457 4
24.1166 5.14157 2
25.0218 7.30839 0.0104166
25.446 1.99012 2
26.2793 4.32708 0.00628194
27.7943 1.27781 0
32.175 35.7256 3.94742
33.9938 35.8113 2
35.7597 35.8201 0.064586
21.3019 15.8173 2
20.298 16.951 3.98388
22.093 16.6227 3.98275
25.3555 13.8952 0.0157867
22.4772 15.022 0.0161805
24.0215 15.6074 0.016445
25.3771 16.075 2
23.2606 16.2386 2
24.1987 18.437 3.98204
27.0012 21.4422 3.98358
28.3536 15.9628 0.0162361
27.4347 18.7841 2
31.024 33.7912 3.93673
32.5139 34.1227 2
34.0735 34.1918 0.0338736
32.8838 32.999 0.0731644
33.7151 31.1182 0.0597338
35.1517 28.9139 0.0885491
37.628 27.2157 0.0128155
35.045 27.3149 2
32.1994 32.2787 2
33.0487 29.7924 2
32.4794 28.0524 3.99398
31.2206 31.1991 3.91648
28.7585 24.3849 3.98745
29.564 21.921 2
30.2029 19.3258 0.0158234
34.9426 25.144 -0.00155106
32.3034 22.3868 0.0176562
31.6414 25.5923 2
29.5737 27.2912 3.98055
29.97 37.4912 3.93269
32.0435 37.4999 2
33.9557 37.499 0.0357214
33.1889 49.1725 -0.00100283
32.2306 46.414 0.0251155
32.1708 39.2719 0.0514668
31.2502 43.7957 0.0850749
31.017 41.1997 0.0607395
31.0666 47.9496 2
30.2339 39.4818 2
29.7916 41.9932 2
30.3349 45.0002 2
29.0773 46.5164 3.98241
28.8561 39.8797 3.91222
28.5429 43.2073 3.97015
29.8 49.7616 0.0169885
27.7954 48.233 2
25.857 46.6962 3.97766
26.454 50.0364 0.0242679
24.5863 48.5079 2
22.7366 47.1149 3.97993
23.2932 50.2313 0.025898
21.6011 48.8201 2
19.9389 47.6428 3.98103
20.4256 50.3432 0.0253729
18.9952 49.1148 2
17.6387 48.1959 3.98109
16.1169 48.6979 3.98142
16.8652 49.3487 2
15.8265 50.1856 3.97871
15.3592 52.4313 3.97855
16.7485 51.4262 2
17.9564 50.3513 0.0231461
14.8556 54.9916 3.98075
16.3704 53.8892 2
17.8086 52.814 0.0229271
14.4524 57.7504 3.98349
15.9654 56.4917 2
17.4209 55.36 0.01936
14.2636 60.6991 3.98584
15.7445 59.222 2
17.1263 57.8893 0.0168311
14.3324 63.8613 3.99235
15.7862 62.1452 2
17.1322 60.5601 0.0161794
14.6715 67.2507 4
16.0882 65.3021 2
17.4061 63.4737 0.0121661
16.6661 68.6801 2
17.9419 66.6194 0.0068317
18.75 69.9759 0
18.9295 15.7716 3.98373
20.2167 14.5848 2
18.9778 13.1001 3.98509
21.5849 13.5963 0.0154128
20.5286 11.9892 2
19.3423 10.2307 3.98886
19.9906 7.14521 3.99334
21.143 9.14287 2
22.1893 11.0198 0.0138103
20.9142 3.86727 4
22.0157 6.08059 2
23.0399 8.17369 0.0105925
23.1494 2.85451 2
24.1169 5.1417 0.00643036
25.446 1.99014 0
30.2558 35.5247 3.93767
32.1735 35.7266 2
33.9928 35.8121 0.033676
21.3017 15.8176 0.0166538
22.0933 16.6225 2
20.2982 16.9505 2
19.2357 18.3971 3.98346
21.7764 17.8381 3.98306
25.3768 16.0751 0.0160865
23.2602 16.2386 0.0167547
24.199 18.4371 2
22.268 19.8783 3.98177
24.5775 21.3072 3.98297
26.3844 23.7078 3.98178
27.0017 21.443 2
27.4345 18.7839 0.0158981
29.7985 32.999 3.91396
31.0114 33.7805 2
32.5151 34.1203 0.0614013
32.2006 32.275 0.0613681
33.0592 29.8044 0.0856765
35.0557 27.3295 0.0129331
32.4656 28.0478 2
31.2274 31.1995 2
30.0232 29.5011 3.98692
27.8158 26.5296 3.97159
28.7587 24.3896 2
29.5643 21.9202 0.00972688
31.6408 25.6033 0.00861895
29.5657 27.256 2
28.5211 37.4936 3.91919
29.9609 37.4937 2
32.0436 37.5003 0.0540125
31.0652 47.954 0.00577638
30.3484 44.9895 0.027951
30.2435 39.4757 0.0664152
29.7997 41.9874 0.0888608
29.0814 46.5297 2
28.8482 39.881 2
28.5316 43.2155 2
27.1519 44.8251 3.97329
26.6359 40.634 4.00327
27.7947 48.2364 0.0169382
25.8592 46.6952 2
23.8917 45.2438 3.97265
24.5856 48.5087 0.0250663
22.738 47.1138 2
20.869 45.9239 3.97938
21.6003 48.8209 0.0238412
19.9398 47.6429 2
18.284 46.7563 3.98255
18.9946 49.1149 0.0216073
17.6392 48.1962 2
16.307 47.7274 3.98105
16.1174 48.6982 2
15.1737 49.0282 3.98004
16.8648 49.3485 0.0205252
15.8268 50.1858 2
14.4733 50.9972 3.97879
13.8168 53.4461 3.97985
15.3592 52.4315 2
16.7483 51.4261 0.0226385
13.2463 56.1777 3.98251
14.8554 54.9919 2
16.3706 53.8889 0.0209028
12.8454 59.1328 3.98569
14.4524 57.7509 2
15.9656 56.4912 0.0177283
12.6777 62.304 3.99154
14.2637 60.6996 2
15.7445 59.2214 0.0161853
12.7746 65.6939 4
14.3323 63.8613 2
15.7861 62.1446 0.013329
14.6714 67.2507 2
16.0884 65.302 0.00714533
16.6661 68.6801 0
17.6628 17.1466 3.98343
18.9296 15.7712 2
17.5087 14.3641 3.98459
20.2165 14.585 0.0159909
18.978 13.0998 2
17.6379 11.4496 3.98803
20.5284 11.9893 0.0142575
19.3425 10.2305 2
18.0507 8.338 3.99321
18.75 5.0241 4
19.9903 7.14524 2
21.143 9.1432 0.0107816
20.9142 3.86727 2
22.016 6.08064 0.0065966
23.1494 2.85457 0
28.8609 35.1052 3.91647
30.2455 35.5223 2
32.175 35.7256 0.0525801
22.093 16.6227 0.0172478
20.298 16.951 0.0161209
21.7766 17.8376 2
19.2358 18.3965 2
17.9696 19.9285 3.98286
20.8672 19.3649 3.98325
24.1987 18.437 0.0179578
22.2684 19.8776 2
24.5782 21.3076 2
22.3411 21.7025 3.98305
24.6683 23.1523 3.98201
25.4049 25.9366 3.97275
26.3853 23.7074 2
27.0012 21.4422 0.0164167
28.1847 32.2709 3.96639
29.7918 32.9982 2
31.024 33.7912 0.063268
31.2206 31.1991 0.0835183
32.4794 28.0524 0.0060206
29.999 29.4931 2
26.9221 29.1229 3.98039
27.8115 26.527 2
28.7585 24.3849 0.0125501
29.5737 27.2912 0.0194494
26.749 37.352 3.97875
28.5142 37.4926 2
29.97 37.4912 0.0673058
29.0773 46.5164 0.0175942
28.5429 43.2073 0.0298452
28.8561 39.8797 0.0877774
27.1573 44.826 2
26.6333 40.6386 2
25.1246 43.1942 3.96717
23.8804 39.4282 3.96728
25.857 46.6962 0.0223425
23.8929 45.2445 2
21.8437 43.9742 3.97668
22.7366 47.1149 0.0200713
20.8702 45.9245 2
18.944 44.9892 3.97746
19.9389 47.6428 0.0189668
18.2847 46.757 2
16.5978 46.2259 3.97886
17.6387 48.1959 0.0189089
16.3074 47.7279 2
14.9037 47.6812 3.9796
16.1169 48.6979 0.0185836
15.174 49.0286 2
13.7718 49.5561 3.97925
15.8265 50.1856 0.0212857
14.4735 50.9976 2
12.8838 51.8829 3.97943
12.1333 54.5348 3.98159
13.8167 53.4465 2
15.3592 52.4313 0.0214488
11.5293 57.4644 3.98513
13.2462 56.1781 2
14.8556 54.9916 0.0192504
11.1321 60.6302 3.99081
12.8454 59.1331 2
14.4524 57.7504 0.0165064
10.9835 64.0165 4
12.6776 62.3039 2
14.2636 60.6991 0.0141552
12.7745 65.694 2
14.3324 63.8613 0.00765438
14.6715 67.2507 0
16.3939 18.64 3.98337
17.6628 17.1461 2
16.0991 15.7728 3.98448
18.9295 15.7716 0.0162743
17.5089 14.3636 2
16.0193 12.803 3.98687
18.9778 13.1001 0.0149068
17.6381 11.4492 2
16.2018 9.6611 3.99288
19.3423 10.2307 0.0111394
18.0505 8.33808 2
16.6661 6.31991 4
18.75 5.02404 2
19.9906 7.14521 0.00665759
20.9142 3.86727 0
27.2564 34.7337 3.96502
28.8514 35.1036 2
30.2558 35.5247 0.0623283
16.6678 21.3638 3.9806
21.7764 17.8381 0.0169417
19.2357 18.3971 0.0165435
20.8674 19.3641 2
17.9697 19.9279 2
19.7089 21.557 3.98492
22.268 19.8783 0.0182331
24.5775 21.3072 0.0170328
22.3417 21.7011 2
24.6683 23.1522 2
22.8108 24.5863 3.97669
24.4681 28.5142 3.97012
25.4022 25.9348 2
26.3844 23.7078 0.0182233
26.024 31.6927 3.9864
28.1767 32.2643 2
29.7985 32.999 0.0860378
30.0232 29.5011 0.0130785
26.9276 29.1233 2
27.8158 26.5296 0.0284112
24.5652 36.8541 3.98052
26.7472 37.3566 2
28.5211 37.4936 0.0808054
27.1519 44.8251 0.0267076
26.6359 40.634 -0.0032719
25.1243 43.196 2
23.88 39.4302 2
22.8864 41.8116 3.9782
21.6335 38.4966 3.97276
23.8917 45.2438 0.027346
21.8439 43.9764 2
19.6911 42.9003 3.97164
20.869 45.9239 0.0206155
18.9446 44.9904 2
16.9264 44.3911 3.97473
18.284 46.7563 0.0174473
16.5983 46.2267 2
14.8254 46.0999 3.97714
16.307 47.7274 0.0189467
14.9041 47.6817 2
13.2795 48.0167 3.97856
15.1737 49.0282 0.019957
13.7721 49.5565 2
12.1034 50.2594 3.97925
14.4733 50.9972 0.0212064
12.8839 51.8834 2
11.129 52.842 3.98084
10.3195 55.7153 3.98427
12.1332 54.5353 2
13.8168 53.4461 0.0201545
9.69861 58.8525 3.98976
11.5292 57.465 2
13.2463 56.1777 0.0174949
9.30605 62.2254 4
11.132 60.6303 2
12.8454 59.1328 0.0143077
10.9835 64.0165 2
12.6777 62.304 0.00846265
12.7746 65.6939 0
15.1373 20.174 3.98182
16.3939 18.6394 2
14.744 17.2952 3.98385
17.6628 17.1466 0.0165749
16.0992 15.7721 2
14.4813 14.2846 3.98615
17.5087 14.3641 0.0154126
16.0194 12.8023 2
14.4445 11.1122 3.99243
17.6379 11.4496 0.0119682
16.2017 9.66108 2
14.6715 7.74927 4
18.0507 8.338 0.00678848
16.6661 6.31988 2
18.75 5.0241 0
25.2039 34.2548 3.9856
27.2531 34.7345 2
28.8609 35.1052 0.0835327
17.8384 22.3083 3.98553
15.5113 22.9075 3.97864
16.6677 21.363 2
20.8672 19.3649 0.0167477
17.9696 19.9285 0.0171358
19.7092 21.556 2
19.6355 24.3627 3.97964
22.3411 21.7025 0.0169468
24.6683 23.1523 0.017988
22.809 24.5843 2
21.8522 27.8073 3.97173
23.6351 31.1714 3.97282
24.4705 28.5138 2
25.4049 25.9366 0.0272537
26.0296 31.6887 2
28.1847 32.2709 0.0336099
26.9221 29.1229 0.0196119
22.3436 36.2627 3.98159
24.5649 36.8548 2
26.749 37.352 0.0212462
25.1246 43.1942 0.0328296
23.8804 39.4282 0.0327166
22.8845 41.8128 2
21.633 38.497 2
20.6119 40.6318 3.97539
19.9953 37.7764 3.97428
21.8437 43.9742 0.0233157
19.6907 42.9013 2
17.3182 42.1066 3.97461
18.944 44.9892 0.022541
16.9267 44.3921 2
14.8265 44.208 3.97464
16.5978 46.2259 0.0211355
14.8258 46.1006 2
12.9529 46.3019 3.97635
14.9037 47.6812 0.0204004
13.2798 48.0173 2
11.4756 48.5547 3.97837
13.7718 49.5561 0.0207453
12.1036 50.2599 2
10.2552 51.0838 3.98022
12.8838 51.8829 0.0205695
11.129 52.8425 2
9.22834 53.892 3.98354
8.38209 56.9846 3.98876
10.3193 55.7158 2
12.1333 54.5348 0.0184117
7.74927 60.3285 4
9.6984 58.8525 2
11.5293 57.4644 0.0148714
9.306 62.2255 2
11.1321 60.6302 0.00919495
10.9835 64.0165 0
13.9485 21.7407 3.98039
15.1373 20.1732 2
13.4437 18.892 3.98297
16.3939 18.64 0.0166283
14.744 17.2945 2
13.0263 15.8772 3.98564
16.0991 15.7728 0.0155205
14.4815 14.2839 2
12.7817 12.6854 3.99181
16.0193 12.803 0.0131332
14.4444 11.1122 2
12.7746 9.30605 4
16.2018 9.6611 0.00711639
14.6715 7.74924 2
16.6661 6.31991 0
22.9375 33.7852 3.97759
25.2019 34.2544 2
27.2564 34.7337 0.0349815
17.6042 24.0272 3.98044
17.8382 22.3072 2
14.2935 24.4403 3.97695
15.5107 22.9063 2
16.6678 21.3638 0.0194014
18.9909 27.1856 3.97067
19.7089 21.557 0.0150788
19.6341 24.362 2
21.0851 30.646 3.97395
22.8108 24.5863 0.0233122
21.8531 27.8069 2
23.6323 31.1715 2
24.4681 28.5142 0.0298813
26.024 31.6927 0.0136047
20.111 35.9111 3.98119
22.3429 36.2641 2
24.5652 36.8541 0.0194825
22.8864 41.8116 0.0218004
21.6335 38.4966 0.0272368
20.6106 40.6317 2
19.9945 37.7767 2
17.991 39.0001 3.97633
19.6911 42.9003 0.0283586
17.3178 42.1074 2
14.7718 41.923 3.97492
16.9264 44.3911 0.0252676
14.8267 44.2088 2
12.6929 44.3968 3.97492
14.8254 46.0999 0.0228625
12.9531 46.3026 2
10.9785 46.737 3.97652
13.2795 48.0167 0.0214412
11.4758 48.5553 2
9.51913 49.2422 3.97925
12.1034 50.2594 0.0207531
10.2553 51.0844 2
8.26152 52.0035 3.98283
11.129 52.842 0.0191582
9.22822 53.8925 2
7.19104 55.0338 3.98813
6.31991 58.3339 4
8.38178 56.9843 2
10.3195 55.7153 0.0157345
7.74924 60.3285 2
9.69861 58.8525 0.0102375
9.30605 62.2254 0
13.215 25.3546 3.98169
12.8154 23.2709 3.97908
13.9481 21.7396 2
12.2284 20.5413 3.98223
15.1373 20.174 0.0181752
13.4437 18.8912 2
11.6555 17.5581 3.98545
14.744 17.2952 0.0161496
13.0264 15.8765 2
11.219 14.3701 3.99095
14.4813 14.2846 0.0138517
12.7816 12.6853 2
10.9835 10.9835 4
14.4445 11.1122 0.00756517
12.7745 9.306 2
14.6715 7.74927 0
20.4983 33.3794 3.97582
22.9359 33.7862 2
25.2039 34.2548 0.0144047
15.8769 26.3897 3.97436
17.6033 24.0261 2
17.8384 22.3083 0.0144728
14.2933 24.4399 2
15.5113 22.9075 0.0213648
18.3292 30.158 3.97257
18.9915 27.1853 2
19.6355 24.3627 0.0203557
21.0836 30.645 2
21.8522 27.8073 0.0282743
23.6351 31.1714 0.0271839
17.6157 35.9571 3.97778
20.1104 35.9116 2
22.3436 36.2627 0.0184146
20.6119 40.6318 0.0246126
19.9953 37.7764 0.0257223
17.99 39.0004 2
14.2784 39.1769 3.9751
17.3182 42.1066 0.0253899
14.7714 41.9237 2
12.3788 42.2803 3.97498
14.8265 44.208 0.0253649
12.6931 44.3975 2
10.5559 44.8049 3.97563
12.9529 46.3019 0.0236543
10.9787 46.7376 2
8.90262 47.3201 3.97769
11.4756 48.5547 0.0216252
9.51931 49.2428 2
7.42893 50.0356 3.98181
10.2552 51.0838 0.0197841
8.26154 52.0039 2
6.13164 53.0074 3.98782
9.22834 53.892 0.0164578
7.19069 55.0332 2
5.0241 56.25 4
6.31988 58.3339 2
8.38209 56.9846 0.0112382
7.74927 60.3285 0
13.4516 26.8062 3.97586
11.9296 24.7815 3.97822
13.2149 25.354 2
11.1312 22.2273 3.98096
12.8151 23.2702 2
13.9485 21.7407 0.0196079
12.2281 20.5403 2
10.3853 19.3134 3.98503
13.4437 18.892 0.017034
11.6555 17.5573 2
9.75969 16.1534 3.99001
13.0263 15.8772 0.0143617
11.2189 14.37 2
9.30607 12.7746 4
12.7817 12.6854 0.00818741
10.9835 10.9835 2
12.7746 9.30605 0
17.7962 33.0998 3.97386
20.497 33.3797 2
22.9375 33.7852 0.0224116
15.4652 29.627 3.97384
15.8772 26.3894 2
17.6042 24.0272 0.0195629
14.2935 24.4403 0.0230456
18.3282 30.1573 2
18.9909 27.1856 0.0293345
21.0851 30.646 0.0260534
14.8729 36.0136 3.97524
17.6152 35.9573 2
20.111 35.9111 0.0188062
12.5771 37.8282 3.97502
17.991 39.0001 0.0236661
14.2777 39.1774 2
11.8929 40.1424 3.97482
14.7718 41.923 0.025083
12.3786 42.281 2
10.1545 42.7799 3.97555
12.6929 44.3968 0.0250841
10.556 44.8056 2
8.38102 45.3215 3.97693
10.9785 46.737 0.0234772
8.90281 47.3207 2
6.72094 47.9999 3.98045
9.51913 49.2422 0.0207483
7.42906 50.0359 2
5.20851 50.9095 3.98759
8.26152 52.0035 0.0171737
6.13136 53.0064 2
3.86727 54.0858 4
7.19104 55.0338 0.0118658
5.02404 56.25 2
6.31991 58.3339 0
12.9077 29.0268 3.97249
11.3601 26.4827 3.97704
13.4517 26.8054 2
10.1912 23.9631 3.97924
11.9295 24.7808 2
13.215 25.3546 0.018313
9.23738 21.1336 3.98386
11.1311 22.2264 2
12.8154 23.2709 0.0209175
12.2284 20.5413 0.0177694
10.3851 19.3124 2
8.41541 18.0248 3.98917
11.6555 17.5581 0.0145531
9.75955 16.1532 2
7.74928 14.6715 4
11.219 14.3701 0.0090541
9.30602 12.7745 2
10.9835 10.9835 0
14.4579 32.8549 3.9742
17.7953 33.0997 2
20.4983 33.3794 0.0241821
15.4643 29.6264 2
15.8769 26.3897 0.0256393
18.3292 30.158 0.0274287
12.8662 36.2058 3.97369
14.8724 36.0137 2
17.6157 35.9571 0.0222225
12.5766 37.8284 2
11.2522 38.3095 3.97432
14.2784 39.1769 0.0249048
11.8924 40.1429 2
9.74075 40.7555 3.97525
12.3788 42.2803 0.0250216
10.1544 42.7805 2
7.93012 43.2703 3.97674
10.5559 44.8049 0.0243655
8.38118 45.322 2
6.1276 45.9046 3.9797
8.90262 47.3201 0.0223113
6.7211 48.0001 2
4.42036 48.7497 3.98728
7.42893 50.0356 0.0181939
5.20837 50.9085 2
2.85457 51.8506 4
6.13164 53.0074 0.0121823
3.86727 54.0858 2
5.0241 56.25 0
12.049 31.2517 3.97448
10.7735 28.4114 3.97496
12.9071 29.0261 2
9.40677 25.7952 3.97819
11.3601 26.482 2
13.4516 26.8062 0.0241447
8.22503 23.0206 3.98207
10.1912 23.9624 2
11.9296 24.7815 0.0217778
7.19745 19.9758 3.98839
9.23723 21.1327 2
11.1312 22.2273 0.019042
10.3853 19.3134 0.0149735
8.4151 18.0249 2
6.31992 16.6661 4
9.75969 16.1534 0.00998862
7.74926 14.6714 2
9.30607 12.7746 0
12.0686 34.2907 3.97412
14.4574 32.8549 2
17.7962 33.0998 0.0261404
15.4652 29.627 0.0261577
10.8173 36.6089 3.97314
12.8658 36.2059 2
14.8729 36.0136 0.0247577
12.5771 37.8282 0.0249792
11.2518 38.3097 2
9.33743 38.8236 3.97458
11.8929 40.1424 0.0251788
9.74046 40.756 2
7.54214 41.2113 3.97627
10.1545 42.7799 0.0244474
7.93007 43.2708 2
5.63969 43.7676 3.9798
8.38102 45.3215 0.023074
6.12775 45.9048 2
3.7663 46.5357 3.98703
6.72094 47.9999 0.0195512
4.42031 48.749 2
1.99014 49.554 4
5.20851 50.9095 0.0124069
2.85451 51.8506 2
3.86727 54.0858 0
10.9129 32.9158 3.97539
10.0872 30.3791 3.97511
12.0486 31.2514 2
8.71566 27.7301 3.97692
10.7731 28.4107 2
12.9077 29.0268 0.0275079
7.35097 24.9811 3.98099
9.40683 25.7945 2
11.3601 26.4827 0.0229561
6.11448 22.0009 3.98747
8.225 23.0199 2
10.1912 23.9631 0.0207628
5.02411 18.75 4
7.19707 19.9763 2
9.23738 21.1336 0.0161415
8.41541 18.0248 0.0108253
6.3199 16.6661 2
7.74928 14.6715 0
10.4283 34.9975 3.97482
12.0682 34.2907 2
14.4579 32.8549 0.0257955
9.01176 36.9839 3.97309
10.817 36.6089 2
12.8662 36.2058 0.0263093
11.2522 38.3095 0.0256817
9.33713 38.8238 2
7.22429 39.1816 3.9756
9.74075 40.7555 0.0247522
7.54198 41.2117 2
5.25557 41.6134 3.97921
7.93012 43.2703 0.0232551
5.63969 43.7678 2
3.24421 44.2812 3.9869
6.1276 45.9046 0.0203034
3.76633 46.5354 2
1.27781 47.2057 4
4.42036 48.7497 0.0127186
1.99012 49.554 2
2.85457 51.8506 0
10.0806 33.8789 3.97542
9.38147 32.1521 3.97547
10.9125 32.9156 2
8.06568 29.6942 3.97645
10.0869 30.3788 2
12.049 31.2517 0.0255155
6.5952 27.008 3.98001
8.71544 27.7295 2
10.7735 28.4114 0.0250411
5.16981 24.0952 3.98712
7.35109 24.9807 2
9.40677 25.7952 0.0218097
3.86728 20.9142 4
6.11419 22.0018 2
8.22503 23.0206 0.0179301
5.02406 18.75 2
7.19745 19.9758 0.011611
6.31992 16.6661 0
8.83793 35.2779 3.97447
10.428 34.9974 2
12.0686 34.2907 0.0258774
7.00987 37.2052 3.97436
9.01152 36.984 2
10.8173 36.6089 0.0268568
9.33743 38.8236 0.0254207
7.22411 39.1819 2
4.98445 39.4667 3.97815
7.54214 41.2113 0.0237274
5.2555 41.6135 2
2.85498 42.0021 3.98627
5.63969 43.7676 0.0202028
3.24421 44.2813 2
0.720592 44.8159 4
3.7663 46.5357 0.012965
1.27778 47.2057 2
1.99014 49.554 0
8.87885 33.6959 3.9754
10.0802 33.8788 2
7.50415 31.6082 3.97632
9.38114 32.1519 2
10.9129 32.9158 0.0246134
5.94094 29.0696 3.97935
8.06547 29.6939 2
10.0872 30.3791 0.0248894
4.35765 26.2484 3.98698
6.59513 27.0077 2
8.71566 27.7301 0.0230781
2.85458 23.1494 4
5.1697 24.0961 2
7.35097 24.9811 0.0190128
3.86728 20.9142 2
6.11448 22.0009 0.0125287
5.02411 18.75 0
6.9602 35.3053 3.97482
8.83767 35.2778 2
10.4283 34.9975 0.0251836
4.8356 37.3394 3.97738
7.00973 37.2053 2
9.01176 36.9839 0.0269091
7.22429 39.1816 0.0244046
4.98436 39.4669 2
2.60347 39.7139 3.98507
5.25557 41.6134 0.0207877
2.85496 42.0024 2
0.320823 42.3947 4
3.24421 44.2812 0.0130999
0.720551 44.8159 2
1.27781 47.2057 0
7.11912 33.4601 3.97585
8.87854 33.6957 2
10.0806 33.8789 0.0245761
5.4125 31.1337 3.97896
7.50389 31.608 2
9.38147 32.1521 0.0245254
3.67968 28.4443 3.9867
5.94085 29.0695 2
8.06568 29.6942 0.023551
1.99015 25.446 4
4.35752 26.249 2
6.5952 27.008 0.0199891
2.85453 23.1494 2
5.16981 24.0952 0.0128786
3.86728 20.9142 0
4.85004 35.2515 3.97754
6.96001 35.3054 2
8.83793 35.2779 0.0255313
2.49518 37.4285 3.98455
4.83553 37.3396 2
7.00987 37.2052 0.0256409
4.98445 39.4667 0.0218489
2.60345 39.7143 2
0.080333 39.9526 4
2.85498 42.0021 0.013726
0.320817 42.3947 2
0.720592 44.8159 0
5.04274 33.1903 3.97842
7.11887 33.46 2
8.87885 33.6959 0.0246007
3.14435 30.6666 3.98607
5.41233 31.1338 2
7.50415 31.6082 0.0236788
1.27793 27.7943 4
3.6796 28.4447 2
5.94094 29.0696 0.0206469
1.99013 25.446 2
4.35765 26.2484 0.0130166
2.85458 23.1494 0
2.54739 35.1591 3.98454
4.84991 35.2517 2
6.9602 35.3053 0.0251779
0 37.5 4
2.4952 37.429 2
4.8356 37.3394 0.0226228
2.60347 39.7139 0.014927
0.0802903 39.9526 2
0.320823 42.3947 0
2.76474 32.906 3.98523
5.04256 33.1905 2
7.11912 33.4601 0.0241508
0.721173 30.1842 4
3.14426 30.6669 2
5.4125 31.1337 0.0210386
1.27779 27.7943 2
3.67968 28.4443 0.0133034
1.99015 25.446 0
0.0806499 35.0474 4
2.54735 35.1595 2
4.85004 35.2515 0.022464
0 37.5 2
2.49518 37.4285 0.0154482
0.080333 39.9526 0
0.32156 32.6054 4
2.76466 32.9062 2
5.04274 33.1903 0.0215794
0.72056 30.1841 2
3.14435 30.6666 0.0139284
1.27793 27.7943 0
0.0802889 35.0474 2
2.54739 35.1591 0.0154611
0 37.5 0
0.320817 32.6053 2
2.76474 32.906 0.0147698
0.721173 30.1842 0
0.0806499 35.0474 0
0.32156 32.6054 0
CELLS 1910 17190
8 18 6 25 56 2 0 5 16
8 57 23 6 18 17 4 0 2
8 78 36 9 29 31 11 1 7
8 31 11 1 7 79 37 10 30
8 110 57 18 50 48 17 2 14
8 50 18 56 111 14 2 16 49
8 116 62 22 55 52 20 3 15
8 56 25 67 118 16 5 24 53
8 119 63 23 57 54 21 4 17
8 55 22 63 119 15 3 21 54
8 58 26 68 121 18 6 25 56
8 122 65 26 58 57 23 6 18
8 73 31 7 27 142 79 30 71
8 143 78 29 72 73 31 7 27
8 83 147 76 34 32 74 28 8
8 84 148 78 36 33 75 29 9
8 76 34 8 28 148 84 33 75
8 37 79 150 86 10 30 77 35
8 151 87 36 78 80 38 11 31
8 80 38 11 31 152 88 37 79
8 175 100 42 94 96 44 12 40
8 44 96 176 101 12 40 95 43
8 101 176 98 46 43 95 41 13
8 46 98 178 103 13 41 97 45
8 178 103 45 97 147 83 32 74
8 189 116 55 109 106 52 15 47
8 111 56 118 191 49 16 53 107
8 192 119 57 110 108 54 17 48
8 109 55 119 192 47 15 54 108
8 194 122 58 112 110 57 18 50
8 112 58 121 195 50 18 56 111
8 115 61 19 51 197 124 59 113
8 115 61 125 198 51 19 60 114
8 198 125 62 116 114 60 20 52
8 200 127 64 120 116 62 22 55
8 118 67 132 202 53 24 66 117
8 121 68 133 203 56 25 67 118
8 120 64 128 204 55 22 63 119
8 204 128 65 122 119 63 23 57
8 206 134 68 121 123 69 26 58
8 123 69 26 58 207 131 65 122
8 226 147 74 138 140 76 28 70
8 229 148 75 139 143 78 29 72
8 140 76 28 70 229 148 75 139
8 142 79 30 71 231 150 77 141
8 144 80 31 73 232 152 79 142
8 233 151 78 143 144 80 31 73
8 150 86 35 77 235 154 81 145
8 235 154 81 145 146 82 39 91
8 146 82 39 91 236 155 90 165
8 238 157 83 147 149 85 34 76
8 239 158 84 148 151 87 36 78
8 149 85 34 76 239 158 84 148
8 152 88 37 79 241 160 86 150
8 242 161 87 151 153 89 38 80
8 153 89 38 80 243 162 88 152
8 171 98 41 92 265 178 97 169
8 265 178 97 169 226 147 74 138
8 172 96 40 93 266 176 95 170
8 266 176 95 170 171 98 41 92
8 269 175 94 173 172 96 40 93
8 271 180 99 174 175 100 42 94
8 197 124 59 113 271 180 99 174
8 272 181 100 175 177 102 44 96
8 273 182 101 176 179 104 46 98
8 177 102 44 96 273 182 101 176
8 179 104 46 98 275 184 103 178
8 275 184 103 178 238 157 83 147
8 188 115 51 105 283 197 113 186
8 188 115 198 284 105 51 114 187
8 284 198 116 189 187 114 52 106
8 286 200 120 193 189 116 55 109
8 191 118 202 288 107 53 117 190
8 195 121 203 289 111 56 118 191
8 193 120 204 290 109 55 119 192
8 290 204 122 194 192 119 57 110
8 196 123 58 112 292 207 122 194
8 293 206 121 195 196 123 58 112
8 199 126 61 115 297 211 124 197
8 298 212 127 200 198 125 62 116
8 199 126 212 298 115 61 125 198
8 205 129 64 120 300 214 127 200
8 301 217 130 201 202 132 66 117
8 209 136 168 264 301 217 130 201
8 302 219 132 202 203 133 67 118
8 303 220 133 203 206 134 68 121
8 205 129 215 304 120 64 128 204
8 304 215 131 207 204 128 65 122
8 306 221 134 206 208 135 69 123
8 208 135 69 123 307 218 131 207
8 210 137 167 263 309 223 136 209
8 328 238 147 226 230 149 76 140
8 228 146 91 166 329 236 165 260
8 231 150 77 141 330 235 145 227
8 330 235 145 227 228 146 91 166
8 332 239 148 229 233 151 78 143
8 230 149 76 140 332 239 148 229
8 232 152 79 142 334 241 150 231
8 234 153 80 144 335 243 152 232
8 336 242 151 233 234 153 80 144
8 236 155 90 165 338 245 164 259
8 241 160 86 150 339 246 154 235
8 339 246 154 235 237 156 82 146
8 237 156 82 146 340 247 155 236
8 342 249 157 238 240 159 85 149
8 343 250 158 239 242 161 87 151
8 240 159 85 149 343 250 158 239
8 243 162 88 152 345 252 160 241
8 244 163 253 346 153 89 161 242
8 244 163 89 153 347 254 162 243
8 311 224 261 371 210 137 167 263
8 263 167 262 372 209 136 168 264
8 267 179 98 171 375 275 178 265
8 375 275 178 265 328 238 147 226
8 376 273 176 266 267 179 98 171
8 268 177 96 172 376 273 176 266
8 379 272 175 269 268 177 96 172
8 380 271 174 270 269 175 94 173
8 283 197 113 186 380 271 174 270
8 381 277 180 271 272 181 100 175
8 297 211 124 197 381 277 180 271
8 382 278 181 272 274 183 102 177
8 274 183 102 177 383 279 182 273
8 383 279 182 273 276 185 104 179
8 385 281 184 275 342 249 157 238
8 276 185 104 179 385 281 184 275
8 285 199 115 188 393 297 197 283
8 394 298 200 286 284 198 116 189
8 285 199 298 394 188 115 198 284
8 291 205 120 193 396 300 200 286
8 397 301 201 287 288 202 117 190
8 295 209 264 374 397 301 201 287
8 398 302 202 288 289 203 118 191
8 399 303 203 289 293 206 121 195
8 291 205 304 400 193 120 204 290
8 400 304 207 292 290 204 122 194
8 294 208 123 196 402 307 207 292
8 403 306 206 293 294 208 123 196
8 296 210 263 373 405 309 209 295
8 408 312 213 299 297 211 126 199
8 299 213 313 409 199 126 212 298
8 409 313 214 300 298 212 127 200
8 305 216 129 205 411 315 214 300
8 412 318 217 301 302 219 132 202
8 309 223 136 209 412 318 217 301
8 413 320 219 302 303 220 133 203
8 306 221 321 414 206 134 220 303
8 307 218 131 207 415 316 215 304
8 305 216 316 415 205 129 215 304
8 417 322 221 306 308 222 135 208
8 308 222 135 208 418 319 218 307
8 310 225 137 210 420 325 223 309
8 423 326 224 311 310 225 137 210
8 329 236 165 260 441 338 259 368
8 442 342 238 328 333 240 149 230
8 331 237 146 228 443 340 236 329
8 334 241 150 231 444 339 235 330
8 444 339 235 330 331 237 146 228
8 446 343 239 332 336 242 151 233
8 333 240 149 230 446 343 239 332
8 335 243 152 232 448 345 241 334
8 337 244 153 234 449 347 243 335
8 337 244 346 450 234 153 242 336
8 338 245 164 259 452 349 258 367
8 340 247 155 236 453 350 245 338
8 345 252 160 241 454 351 246 339
8 454 351 246 339 341 248 156 237
8 341 248 156 237 455 352 247 340
8 240 159 251 344 342 249 354 457
8 242 161 253 346 343 250 355 458
8 343 250 355 458 240 159 251 344
8 347 254 162 243 460 357 252 345
8 348 255 358 461 244 163 253 346
8 348 255 163 244 462 359 254 347
8 473 360 257 365 363 256 364 482
8 452 349 258 367 365 257 366 485
8 422 324 369 488 311 224 261 371
8 371 261 370 490 263 167 262 372
8 407 311 371 491 296 210 263 373
8 373 263 372 492 295 209 264 374
8 493 385 275 375 442 342 238 328
8 377 276 179 267 493 385 275 375
8 378 274 177 268 494 383 273 376
8 494 383 273 376 377 276 179 267
8 497 382 272 379 378 274 177 268
8 498 381 271 380 379 272 175 269
8 393 297 197 283 498 381 271 380
8 499 387 277 381 382 278 181 272
8 408 312 211 297 499 387 277 381
8 500 388 278 382 384 280 183 274
8 501 389 279 383 386 282 185 276
8 384 280 183 274 501 389 279 383
8 386 282 185 276 503 391 281 385
8 503 391 281 385 457 354 249 342
8 511 408 299 395 393 297 199 285
8 395 299 409 512 285 199 298 394
8 512 409 300 396 394 298 200 286
8 401 305 205 291 514 411 300 396
8 515 412 301 397 398 302 202 288
8 405 309 209 295 515 412 301 397
8 516 413 302 398 399 303 203 289
8 403 306 414 517 293 206 303 399
8 402 307 207 292 518 415 304 400
8 401 305 415 518 291 205 304 400
8 404 308 208 294 520 418 307 402
8 521 417 306 403 404 308 208 294
8 406 310 210 296 523 420 309 405
8 526 423 311 407 406 310 210 296
8 410 314 213 299 527 424 312 408
8 528 425 315 411 409 313 214 300
8 410 314 425 528 299 213 313 409
8 416 317 216 305 530 427 315 411
8 531 430 318 412 413 320 219 302
8 420 325 223 309 531 430 318 412
8 532 432 320 413 414 321 220 303
8 417 322 433 533 306 221 321 414
8 418 319 218 307 534 428 316 415
8 416 317 428 534 305 216 316 415
8 419 323 434 536 308 222 322 417
8 419 323 222 308 537 431 319 418
8 421 327 225 310 539 438 325 420
8 421 327 439 541 310 225 326 423
8 543 437 324 422 423 326 224 311
8 441 338 259 368 559 452 367 486
8 443 340 236 329 560 453 338 441
8 333 240 344 447 442 342 457 561
8 445 341 237 331 562 455 340 443
8 448 345 241 334 563 454 339 444
8 563 454 339 444 445 341 237 331
8 336 242 346 450 446 343 458 565
8 446 343 458 565 333 240 344 447
8 449 347 243 335 567 460 345 448
8 451 348 244 337 568 462 347 449
8 451 348 461 569 337 244 346 450
8 570 463 349 452 473 360 257 365
8 453 350 245 338 570 463 349 452
8 455 352 247 340 571 464 350 453
8 460 357 252 345 572 465 351 454
8 572 465 351 454 456 353 248 341
8 456 353 248 341 573 466 352 455
8 344 251 356 459 457 354 468 575
8 458 355 469 576 344 251 356 459
8 346 253 358 461 458 355 469 576
8 462 359 254 347 578 471 357 460
8 348 255 359 462 461 358 472 579
8 591 474 360 473 475 361 256 363
8 475 361 256 363 594 477 362 479
8 363 256 364 482 479 362 480 603
8 590 473 365 484 481 363 482 605
8 482 364 257 365 606 483 366 485
8 559 452 367 486 484 365 485 607
8 542 436 487 609 422 324 369 488
8 525 422 488 611 407 311 371 491
8 488 369 489 612 371 261 370 490
8 491 371 490 613 373 263 372 492
8 495 386 276 377 614 503 385 493
8 614 503 385 493 561 457 342 442
8 615 501 383 494 495 386 276 377
8 496 384 274 378 615 501 383 494
8 618 500 382 497 496 384 274 378
8 619 499 381 498 497 382 272 379
8 511 408 297 393 619 499 381 498
8 620 505 387 499 500 388 278 382
8 527 424 312 408 620 505 387 499
8 502 390 506 621 384 280 388 500
8 622 507 389 501 504 392 282 386
8 502 390 280 384 622 507 389 501
8 504 392 282 386 624 509 391 503
8 624 509 391 503 575 468 354 457
8 513 410 299 395 630 527 408 511
8 631 528 411 514 512 409 300 396
8 513 410 528 631 395 299 409 512
8 519 416 305 401 633 530 411 514
8 634 531 412 515 516 413 302 398
8 523 420 309 405 634 531 412 515
8 635 532 413 516 517 414 303 399
8 521 417 533 636 403 306 414 517
8 520 418 307 402 637 534 415 518
8 519 416 534 637 401 305 415 518
8 522 419 308 404 639 537 418 520
8 522 419 536 640 404 308 417 521
8 524 421 310 406 642 539 420 523
8 524 421 541 644 406 310 423 526
8 646 543 422 525 526 423 311 407
8 529 426 314 410 647 544 424 527
8 528 425 545 648 411 315 427 530
8 529 426 545 648 410 314 425 528
8 535 429 317 416 649 546 427 530
8 650 548 430 531 532 432 320 413
8 539 438 325 420 650 548 430 531
8 533 433 550 651 414 321 432 532
8 536 434 551 652 417 322 433 533
8 537 431 319 418 653 547 428 534
8 535 429 547 653 416 317 428 534
8 538 435 552 654 419 323 434 536
8 538 435 323 419 655 549 431 537
8 540 440 327 421 657 556 438 539
8 540 440 557 659 421 327 439 541
8 541 439 555 660 423 326 437 543
8 661 554 436 542 543 437 324 422
8 676 570 452 559 590 473 365 484
8 560 453 338 441 676 570 452 559
8 562 455 340 443 677 571 453 560
8 447 344 459 566 561 457 575 678
8 564 456 341 445 679 573 455 562
8 567 460 345 448 680 572 454 563
8 680 572 454 563 564 456 341 445
8 565 458 576 682 447 344 459 566
8 450 346 461 569 565 458 576 682
8 568 462 347 449 684 578 460 567
8 451 348 462 568 569 461 579 685
8 686 580 463 570 591 474 360 473
8 571 464 350 453 686 580 463 570
8 573 466 352 455 687 581 464 571
8 572 465 582 688 460 357 471 578
8 574 467 582 688 456 353 465 572
8 574 467 353 456 689 583 466 573
8 459 356 470 577 575 468 585 691
8 576 469 586 692 459 356 470 577
8 461 358 472 579 576 469 586 692
8 462 359 471 578 579 472 588 694
8 704 591 473 590 593 475 363 481
8 595 476 592 705 475 361 474 591
8 593 475 363 481 707 594 479 602
8 594 477 362 479 709 598 478 600
8 595 476 361 475 711 597 477 594
8 479 362 480 603 600 478 601 720
8 481 363 482 605 602 479 603 722
8 603 480 364 482 723 604 483 606
8 605 482 365 484 724 606 485 607
8 656 553 608 726 542 436 487 609
8 645 542 609 728 525 422 488 611
8 609 487 610 729 488 369 489 612
8 611 488 612 730 491 371 490 613
8 616 504 386 495 731 624 503 614
8 731 624 503 614 678 575 457 561
8 732 622 501 615 616 504 386 495
8 617 502 384 496 732 622 501 615
8 617 502 621 735 496 384 500 618
8 736 620 499 619 618 500 382 497
8 630 527 408 511 736 620 499 619
8 621 506 626 737 500 388 505 620
8 647 544 424 527 737 626 505 620
8 623 508 627 738 502 390 506 621
8 623 508 390 502 739 628 507 622
8 625 510 628 739 504 392 507 622
8 740 629 509 624 691 585 468 575
8 625 510 392 504 740 629 509 624
8 632 529 410 513 744 647 527 630
8 631 528 648 745 514 411 530 633
8 632 529 648 745 513 410 528 631
8 638 535 416 519 746 649 530 633
8 747 650 531 634 635 532 413 516
8 642 539 420 523 747 650 531 634
8 636 533 651 748 517 414 532 635
8 640 536 652 749 521 417 533 636
8 639 537 418 520 750 653 534 637
8 638 535 653 750 519 416 534 637
8 641 538 419 522 751 655 537 639
8 641 538 654 752 522 419 536 640
8 643 540 421 524 753 657 539 642
8 643 540 659 755 524 421 541 644
8 644 541 660 757 526 423 543 646
8 758 661 542 645 646 543 422 525
8 529 426 544 647 648 545 662 759
8 530 427 545 648 649 546 663 760
8 535 429 546 649 653 547 664 761
8 762 666 548 650 651 550 432 532
8 657 556 438 539 762 666 548 650
8 652 551 668 763 533 433 550 651
8 654 552 669 764 536 434 551 652
8 655 549 431 537 765 665 547 653
8 538 435 549 655 654 552 667 766
8 661 554 671 768 542 436 553 656
8 658 558 440 540 769 674 556 657
8 658 558 675 770 540 440 557 659
8 659 557 673 771 541 439 555 660
8 660 555 672 772 543 437 554 661
8 788 686 570 676 704 591 473 590
8 677 571 453 560 788 686 570 676
8 679 573 455 562 789 687 571 677
8 566 459 577 683 678 575 691 790
8 681 574 456 564 791 689 573 679
8 680 572 688 792 567 460 578 684
8 681 574 688 792 564 456 572 680
8 682 576 692 794 566 459 577 683
8 569 461 579 685 682 576 692 794
8 568 462 578 684 685 579 694 796
8 687 581 464 571 798 696 580 686
8 798 696 580 686 705 592 474 591
8 689 583 466 573 799 697 581 687
8 688 582 698 800 578 471 588 694
8 690 584 698 800 574 467 582 688
8 690 584 467 574 801 699 583 689
8 693 587 701 803 577 470 585 691
8 693 587 470 577 804 702 586 692
8 695 589 702 804 579 472 586 692
8 695 589 472 579 805 703 588 694
8 708 595 705 813 593 475 591 704
8 710 596 706 814 595 476 592 705
8 707 594 479 602 816 709 600 719
8 708 595 475 593 817 711 594 707
8 709 598 478 600 819 715 599 717
8 711 597 477 594 820 714 598 709
8 710 596 476 595 822 713 597 711
8 600 478 601 720 717 599 718 832
8 602 479 603 722 719 600 720 834
8 720 601 480 603 835 721 604 723
8 722 603 482 605 836 723 606 724
8 767 670 725 839 656 553 608 726
8 756 656 726 841 645 542 609 728
8 726 608 727 842 609 487 610 729
8 728 609 729 843 611 488 612 730
8 844 740 624 731 790 691 575 678
8 733 625 504 616 844 740 624 731
8 734 623 502 617 845 739 622 732
8 733 625 739 845 616 504 622 732
8 734 623 738 846 617 502 621 735
8 735 621 737 847 618 500 620 736
8 744 647 527 630 847 737 620 736
8 621 506 627 738 737 626 741 848
8 647 544 626 737 759 662 741 848
8 623 508 628 739 738 627 742 849
8 740 629 585 691 850 743 700 802
8 625 510 629 740 739 628 743 850
8 632 529 647 744 745 648 759 854
8 633 530 648 745 746 649 760 855
8 638 535 649 746 750 653 761 856
8 857 762 650 747 748 651 532 635
8 753 657 539 642 857 762 650 747
8 749 652 763 858 636 533 651 748
8 752 654 764 859 640 536 652 749
8 751 655 537 639 860 765 653 750
8 641 538 655 751 752 654 766 861
8 754 658 540 643 862 769 657 753
8 754 658 770 863 643 540 659 755
8 755 659 771 864 644 541 660 757
8 758 661 768 866 645 542 656 756
8 757 660 772 867 646 543 661 758
8 759 662 773 868 648 545 663 760
8 649 546 663 760 761 664 774 871
8 765 665 547 653 872 775 664 761
8 873 777 666 762 763 668 550 651
8 769 674 556 657 873 777 666 762
8 764 669 779 874 652 551 668 763
8 654 552 667 766 764 669 778 875
8 655 549 665 765 766 667 776 876
8 768 671 782 877 656 553 670 767
8 772 672 783 878 661 554 671 768
8 658 558 674 769 770 675 786 879
8 659 557 675 770 771 673 785 881
8 882 784 672 772 771 673 555 660
8 789 687 571 677 897 798 686 788
8 897 798 686 788 813 705 591 704
8 791 689 573 679 898 799 687 789
8 795 693 803 900 683 577 691 790
8 793 690 574 681 901 801 689 791
8 792 688 800 902 684 578 694 796
8 793 690 800 902 681 574 688 792
8 795 693 577 683 903 804 692 794
8 797 695 804 903 685 579 692 794
8 797 695 579 685 904 805 694 796
8 905 806 697 799 798 696 581 687
8 814 706 806 905 705 592 696 798
8 689 583 697 799 801 699 808 907
8 800 698 809 908 694 588 703 805
8 690 584 699 801 800 698 809 908
8 803 701 810 909 691 585 700 802
8 693 587 702 804 803 701 811 910
8 695 589 703 805 804 702 812 911
8 818 710 814 919 708 595 705 813
8 821 712 815 920 710 596 706 814
8 816 709 600 719 922 819 717 831
8 817 711 594 707 923 820 709 816
8 818 710 595 708 924 822 711 817
8 819 715 599 717 926 827 716 829
8 820 714 598 709 927 826 715 819
8 929 825 713 822 820 714 597 711
8 821 712 596 710 930 824 713 822
8 717 599 718 832 829 716 830 942
8 719 600 720 834 831 717 832 944
8 832 718 601 720 945 833 721 835
8 834 720 603 722 946 835 723 836
8 869 780 838 950 767 670 725 839
8 865 767 839 952 756 656 726 841
8 839 725 840 953 726 608 727 842
8 841 726 842 954 728 609 729 843
8 844 740 691 790 955 850 802 899
8 733 625 740 844 845 739 850 955
8 734 623 739 845 846 738 849 956
8 735 621 738 846 847 737 848 957
8 744 647 737 847 854 759 848 957
8 738 627 742 849 848 741 851 958
8 848 741 851 958 759 662 773 868
8 850 743 700 802 959 852 807 906
8 849 742 628 739 959 852 743 850
8 854 759 868 965 745 648 760 855
8 746 649 760 855 856 761 871 966
8 860 765 653 750 967 872 761 856
8 968 873 762 857 858 763 651 748
8 862 769 657 753 968 873 762 857
8 859 764 874 969 749 652 763 858
8 752 654 766 861 859 764 875 970
8 751 655 765 860 861 766 876 971
8 754 658 769 862 863 770 879 972
8 755 659 770 863 864 771 881 974
8 976 882 772 867 864 771 660 757
8 866 768 877 977 756 656 767 865
8 867 772 878 978 758 661 768 866
8 760 663 773 868 871 774 883 980
8 870 781 837 948 982 890 780 869
8 982 890 780 869 877 782 670 767
8 761 664 774 871 872 775 884 984
8 876 776 665 765 985 885 775 872
8 873 777 668 763 986 887 779 874
8 769 674 777 873 879 786 887 986
8 764 669 778 875 874 779 888 987
8 766 667 776 876 875 778 886 988
8 878 783 892 989 768 671 782 877
8 878 783 672 772 990 893 784 882
8 880 787 675 770 991 896 786 879
8 880 787 895 992 770 675 785 881
8 881 785 894 993 771 673 784 882
8 1006 905 799 898 897 798 687 789
8 919 814 905 1006 813 705 798 897
8 791 689 799 898 901 801 907 1007
8 900 803 909 1009 790 691 802 899
8 795 693 804 903 900 803 910 1010
8 902 800 908 1011 796 694 805 904
8 793 690 801 901 902 800 908 1011
8 797 695 805 904 903 804 911 1012
8 799 697 806 905 907 808 912 1013
8 920 815 912 1013 814 706 806 905
8 802 700 810 909 906 807 913 1014
8 801 699 808 907 908 809 914 1015
8 805 703 809 908 911 812 915 1016
8 803 701 811 910 909 810 916 1017
8 911 812 917 1018 804 702 811 910
8 925 821 920 1030 818 710 814 919
8 928 823 921 1031 821 712 815 920
8 922 819 717 831 1033 926 829 941
8 923 820 709 816 1034 927 819 922
8 1035 929 822 924 923 820 711 817
8 925 821 710 818 1036 930 822 924
8 1038 933 825 929 927 826 714 820
8 926 827 716 829 1039 935 828 939
8 927 826 715 819 1040 934 827 926
8 928 823 712 821 1041 931 824 930
8 1042 932 824 930 929 825 713 822
8 829 716 830 942 939 828 940 1058
8 831 717 832 944 941 829 942 1060
8 942 830 718 832 1061 943 833 945
8 944 832 720 834 1062 945 835 946
8 981 889 947 1064 870 781 837 948
8 948 837 949 1067 869 780 838 950
8 975 869 950 1069 865 767 839 952
8 950 838 951 1070 839 725 840 953
8 952 839 953 1071 841 726 842 954
8 955 850 802 899 1072 959 906 1008
8 956 849 739 845 1072 959 850 955
8 846 738 849 956 957 848 958 1073
8 957 848 958 1073 854 759 868 965
8 849 742 852 959 958 851 961 1076
8 960 853 961 1076 906 807 852 959
8 958 851 961 1076 868 773 883 980
8 960 853 807 906 1077 963 913 1014
8 855 760 868 965 966 871 980 1085
8 856 761 871 966 967 872 984 1086
8 971 876 765 860 1087 985 872 967
8 968 873 763 858 1088 986 874 969
8 862 769 873 968 972 879 986 1088
8 859 764 875 970 969 874 987 1089
8 861 766 876 971 970 875 988 1090
8 973 880 770 863 1091 991 879 972
8 973 880 992 1092 863 770 881 974
8 974 881 993 1093 864 771 882 976
8 979 870 948 1066 1094 982 869 975
8 1094 982 869 975 977 877 767 865
8 978 878 772 867 1095 990 882 976
8 978 878 989 1096 866 768 877 977
8 871 774 883 980 984 884 994 1099
8 983 891 999 1100 870 781 889 981
8 1101 1000 890 982 989 892 782 877
8 983 891 781 870 1101 1000 890 982
8 872 775 884 984 985 885 995 1103
8 876 776 885 985 988 886 996 1104
8 986 887 779 874 1105 998 888 987
8 879 786 887 986 991 896 998 1105
8 875 778 886 988 987 888 997 1106
8 990 893 1002 1107 878 783 892 989
8 1108 1003 893 990 993 894 784 882
8 880 787 896 991 992 895 1005 1109
8 993 894 785 881 1110 1004 895 992
8 898 799 905 1006 1007 907 1013 1120
8 1030 920 1013 1120 919 814 905 1006
8 901 801 907 1007 1011 908 1015 1121
8 899 802 909 1009 1008 906 1014 1122
8 900 803 910 1010 1009 909 1017 1123
8 1012 911 1018 1124 903 804 910 1010
8 904 805 908 1011 1012 911 1016 1125
8 1013 912 1020 1127 907 808 914 1015
8 1031 921 1020 1127 920 815 912 1013
8 1019 918 962 1075 1128 1021 913 1014
8 1128 1021 913 1014 1017 916 810 909
8 1015 914 1022 1129 908 809 915 1016
8 1016 915 1023 1130 911 812 917 1018
8 1018 917 1024 1131 910 811 916 1017
8 1037 928 1031 1148 925 821 920 1030
8 928 823 931 1041 1031 921 1032 1149
8 1033 926 829 941 1151 1039 939 1057
8 1034 927 819 922 1152 1040 926 1033
8 1153 1038 929 1035 1034 927 820 923
8 1154 1042 930 1036 1035 929 822 924
8 1037 928 821 925 1155 1041 930 1036
8 1039 935 828 939 1156 1047 938 1055
8 1157 1043 932 1042 1038 933 825 929
8 1038 933 826 927 1158 1045 934 1040
8 1040 934 827 926 1159 1046 935 1039
8 930 824 932 1042 1041 931 1044 1160
8 1051 936 1048 1165 1175 1052 937 1053
8 1156 1047 938 1055 1053 937 1054 1178
8 939 828 940 1058 1055 938 1056 1181
8 941 829 942 1060 1057 939 1058 1183
8 942 830 943 1061 1058 940 1059 1184
8 1060 942 832 944 1185 1061 945 1062
8 1082 964 1063 1188 981 889 947 1064
8 1097 981 1064 1190 979 870 948 1066
8 1064 947 1065 1191 948 837 949 1067
8 1066 948 1067 1193 975 869 950 1069
8 1067 949 1068 1194 950 838 951 1070
8 1069 950 1070 1195 952 839 953 1071
8 956 849 959 1072 1073 958 1076 1197
8 1074 960 1076 1197 1008 906 959 1072
8 1073 958 1076 1197 965 868 980 1085
8 1074 960 906 1008 1198 1077 1014 1122
8 1133 1026 1079 1199 1019 918 962 1075
8 1077 963 913 1014 1200 1080 962 1075
8 960 853 963 1077 1076 961 1078 1201
8 980 883 961 1076 1099 994 1078 1201
8 1210 1083 964 1082 1100 999 889 981
8 966 871 980 1085 1086 984 1099 1215
8 967 872 984 1086 1087 985 1103 1216
8 971 876 985 1087 1090 988 1104 1217
8 1088 986 874 969 1218 1105 987 1089
8 972 879 986 1088 1091 991 1105 1218
8 970 875 988 1090 1089 987 1106 1219
8 973 880 991 1091 1092 992 1109 1220
8 1093 993 881 974 1221 1110 992 1092
8 1222 1108 990 1095 1093 993 882 976
8 1223 1101 982 1094 1096 989 877 977
8 1098 983 870 979 1223 1101 982 1094
8 1095 990 1107 1224 978 878 989 1096
8 1098 983 1100 1225 979 870 981 1097
8 984 884 994 1099 1103 995 1111 1227
8 1102 1001 1115 1228 983 891 999 1100
8 1101 1000 892 989 1229 1116 1002 1107
8 1102 1001 891 983 1229 1116 1000 1101
8 985 885 995 1103 1104 996 1112 1230
8 988 886 996 1104 1106 997 1113 1231
8 1105 998 888 987 1232 1114 997 1106
8 991 896 998 1105 1109 1005 1114 1232
8 1108 1003 1117 1233 990 893 1002 1107
8 1108 1003 894 993 1233 1117 1004 1110
8 992 895 1005 1109 1110 1004 1118 1234
8 1120 1013 1127 1244 1007 907 1015 1121
8 1148 1031 1127 1244 1030 920 1013 1120
8 1121 1015 1129 1245 1011 908 1016 1125
8 1126 1019 1075 1196 1246 1128 1014 1122
8 1246 1128 1014 1122 1123 1017 909 1009
8 1124 1018 1131 1247 1010 910 1017 1123
8 1125 1016 1130 1248 1012 911 1018 1124
8 1127 1020 1137 1254 1015 914 1022 1129
8 1031 921 1032 1149 1127 1020 1137 1254
8 1134 1027 918 1019 1257 1140 1021 1128
8 1257 1140 1021 1128 1131 1024 916 1017
8 1129 1022 1141 1258 1016 915 1023 1130
8 1130 1023 1142 1259 1018 917 1024 1131
8 1261 1144 1025 1132 1133 1026 1079 1199
8 1255 1138 1025 1132 1135 1028 1144 1261
8 1133 1026 918 1019 1262 1145 1027 1134
8 1136 1029 1139 1256 1263 1146 1028 1135
8 1037 928 1041 1155 1148 1031 1149 1275
8 1041 931 1044 1160 1149 1032 1150 1276
8 1151 1039 939 1057 1278 1156 1055 1180
8 1152 1040 926 1033 1279 1159 1039 1151
8 1153 1038 927 1034 1280 1158 1040 1152
8 1281 1157 1042 1154 1153 1038 929 1035
8 1036 930 1042 1154 1155 1041 1160 1282
8 1283 1164 1046 1159 1156 1047 935 1039
8 1165 1048 1164 1283 1053 937 1047 1156
8 1157 1043 933 1038 1284 1161 1045 1158
8 1157 1043 1161 1284 1042 932 1044 1160
8 1040 934 1046 1159 1158 1045 1163 1285
8 1166 1049 1167 1292 1051 936 1048 1165
8 1166 1049 936 1051 1293 1168 1050 1172
8 1051 936 1052 1175 1172 1050 1173 1306
8 1174 1051 1165 1290 1308 1175 1053 1177
8 1053 937 1054 1178 1175 1052 1176 1309
8 1278 1156 1055 1180 1177 1053 1178 1311
8 1055 938 1056 1181 1178 1054 1179 1312
8 1057 939 1058 1183 1180 1055 1181 1314
8 1058 940 1059 1184 1181 1056 1182 1315
8 1060 942 1061 1185 1183 1058 1184 1316
8 1208 1081 1187 1321 1082 964 1063 1188
8 1209 1082 1188 1322 1097 981 1064 1190
8 1188 1063 1189 1323 1064 947 1065 1191
8 1190 1064 1191 1325 1066 948 1067 1193
8 1191 1065 1192 1326 1067 949 1068 1194
8 1067 1193 1069 950 1194 1327 1195 1070
8 1250 1133 1199 1330 1126 1019 1075 1196
8 1198 1077 1014 1122 1331 1200 1075 1196
8 1074 960 1077 1198 1197 1076 1201 1332
8 1085 980 1076 1197 1215 1099 1201 1332
8 1199 1079 1203 1333 1075 962 1080 1200
8 1132 1025 1119 1243 1199 1079 1203 1333
8 1201 1078 963 1077 1334 1202 1080 1200
8 1099 994 1078 1201 1227 1111 1202 1334
8 1343 1207 1081 1208 1210 1083 964 1082
8 1214 1084 1186 1319 1343 1207 1081 1208
8 1345 1210 1082 1209 1225 1100 981 1097
8 1346 1211 1083 1210 1228 1115 999 1100
8 1086 984 1099 1215 1216 1103 1227 1352
8 1087 985 1103 1216 1217 1104 1230 1353
8 1090 988 1104 1217 1219 1106 1231 1354
8 1218 1105 987 1089 1355 1232 1106 1219
8 1091 991 1105 1218 1220 1109 1232 1355
8 1092 992 1109 1220 1221 1110 1234 1356
8 1222 1108 1233 1357 1095 990 1107 1224
8 1222 1108 993 1093 1357 1233 1110 1221
8 1223 1101 989 1096 1358 1229 1107 1224
8 1226 1102 983 1098 1358 1229 1101 1223
8 1226 1102 1228 1359 1098 983 1100 1225
8 1103 995 1111 1227 1230 1112 1235 1360
8 1107 1002 1117 1233 1229 1116 1240 1362
8 1102 1001 1116 1229 1228 1115 1240 1362
8 1104 996 1112 1230 1231 1113 1236 1363
8 1364 1237 1114 1232 1231 1113 997 1106
8 1109 1005 1114 1232 1234 1118 1238 1365
8 1110 1004 1118 1234 1233 1117 1241 1366
8 1242 1374 1255 1138 1119 1243 1132 1025
8 1244 1127 1254 1376 1121 1015 1129 1245
8 1148 1031 1149 1275 1244 1127 1254 1376
8 1245 1129 1258 1377 1125 1016 1130 1248
8 1251 1134 1019 1126 1378 1257 1128 1246
8 1378 1257 1128 1246 1247 1131 1017 1123
8 1248 1130 1259 1379 1124 1018 1131 1247
8 1261 1381 1250 1133 1132 1249 1330 1199
8 1255 1380 1252 1135 1132 1249 1381 1261
8 1250 1133 1019 1126 1382 1262 1134 1251
8 1253 1136 1256 1385 1384 1263 1135 1252
8 1254 1137 1265 1387 1129 1022 1141 1258
8 1149 1032 1150 1276 1254 1137 1265 1387
8 1028 1135 1255 1138 1139 1256 1388 1266
8 1136 1029 1147 1264 1256 1139 1267 1389
8 1390 1268 1140 1257 1259 1142 1024 1131
8 1260 1143 1027 1134 1390 1268 1140 1257
8 1258 1141 1269 1391 1130 1023 1142 1259
8 1262 1145 1027 1134 1393 1271 1143 1260
8 1261 1144 1026 1133 1394 1272 1145 1262
8 1135 1028 1144 1261 1263 1146 1272 1394
8 1136 1029 1146 1263 1264 1147 1273 1395
8 1155 1041 1160 1282 1275 1149 1276 1405
8 1276 1150 1044 1160 1406 1277 1162 1286
8 1408 1283 1159 1279 1278 1156 1039 1151
8 1290 1165 1283 1408 1177 1053 1156 1278
8 1152 1040 1159 1279 1280 1158 1285 1409
8 1281 1157 1038 1153 1410 1284 1158 1280
8 1281 1157 1284 1410 1154 1042 1160 1282
8 1159 1046 1164 1283 1285 1163 1289 1412
8 1292 1167 1289 1412 1165 1048 1164 1283
8 1158 1045 1163 1285 1284 1161 1288 1413
8 1284 1161 1288 1413 1160 1044 1162 1286
8 1291 1166 1292 1418 1174 1051 1165 1290
8 1291 1166 1051 1174 1419 1293 1172 1305
8 1294 1169 1296 1421 1166 1049 1167 1292
8 1293 1168 1050 1172 1422 1295 1171 1303
8 1294 1169 1049 1166 1423 1297 1168 1293
8 1422 1295 1171 1303 1301 1170 1302 1435
8 1172 1050 1173 1306 1303 1171 1304 1438
8 1174 1051 1175 1308 1305 1172 1306 1440
8 1175 1052 1176 1309 1306 1173 1307 1441
8 1177 1053 1178 1311 1308 1175 1309 1443
8 1178 1054 1179 1312 1309 1176 1310 1444
8 1180 1055 1181 1314 1311 1178 1312 1446
8 1056 1181 1312 1179 1182 1315 1447 1313
8 1183 1058 1184 1316 1314 1181 1315 1448
8 1319 1186 1084 1214 1451 1317 1213 1350
8 1319 1186 1318 1453 1208 1081 1187 1321
8 1321 1187 1320 1456 1188 1063 1189 1323
8 1344 1208 1321 1457 1209 1082 1188 1322
8 1322 1188 1323 1458 1190 1064 1191 1325
8 1323 1189 1324 1459 1191 1065 1192 1326
8 1191 1325 1193 1067 1326 1460 1327 1194
8 1242 1374 1243 1119 1328 1462 1335 1204
8 1330 1199 1333 1465 1196 1075 1200 1331
8 1132 1249 1330 1199 1243 1375 1465 1333
8 1332 1201 1077 1198 1466 1334 1200 1331
8 1215 1099 1201 1332 1352 1227 1334 1466
8 1119 1243 1333 1203 1204 1335 1470 1338
8 1333 1203 1338 1470 1200 1080 1202 1334
8 1227 1111 1202 1334 1360 1235 1338 1470
8 1328 1462 1335 1204 1205 1336 1471 1339
8 1337 1206 1340 1472 1464 1329 1205 1336
8 1346 1211 1342 1479 1210 1083 1207 1343
8 1346 1211 1115 1228 1479 1342 1239 1361
8 1348 1212 1084 1214 1479 1342 1207 1343
8 1480 1343 1208 1344 1345 1210 1082 1209
8 1351 1214 1319 1454 1480 1343 1208 1344
8 1481 1346 1210 1345 1359 1228 1100 1225
8 1348 1212 1347 1483 1214 1084 1213 1350
8 1216 1103 1227 1352 1353 1230 1360 1488
8 1217 1104 1230 1353 1354 1231 1363 1489
8 1490 1364 1232 1355 1354 1231 1106 1219
8 1220 1109 1232 1355 1356 1234 1365 1491
8 1221 1110 1234 1356 1357 1233 1366 1492
8 1224 1107 1233 1357 1358 1229 1362 1493
8 1226 1102 1229 1358 1359 1228 1362 1493
8 1230 1112 1235 1360 1363 1236 1367 1496
8 1361 1239 1115 1228 1497 1371 1240 1362
8 1366 1241 1372 1498 1233 1117 1240 1362
8 1364 1237 1113 1231 1499 1368 1236 1363
8 1364 1237 1368 1499 1232 1114 1238 1365
8 1234 1118 1238 1365 1366 1241 1369 1500
8 1507 1373 1242 1374 1388 1266 1138 1255
8 1508 1374 1243 1375 1380 1255 1132 1249
8 1376 1254 1387 1509 1245 1129 1258 1377
8 1275 1149 1276 1405 1376 1254 1387 1509
8 1377 1258 1391 1510 1248 1130 1259 1379
8 1511 1390 1257 1378 1379 1259 1131 1247
8 1383 1260 1134 1251 1511 1390 1257 1378
8 1252 1135 1256 1385 1380 1255 1388 1512
8 1261 1381 1513 1394 1133 1250 1382 1262
8 1135 1252 1384 1263 1261 1381 1513 1394
8 1382 1262 1134 1251 1514 1393 1260 1383
8 1253 1136 1263 1384 1386 1264 1395 1516
8 1253 1136 1264 1386 1385 1256 1389 1517
8 1387 1265 1397 1519 1258 1141 1269 1391
8 1276 1150 1277 1406 1387 1265 1397 1519
8 1256 1139 1267 1389 1388 1266 1398 1520
8 1264 1147 1274 1396 1389 1267 1399 1521
8 1392 1270 1143 1260 1522 1400 1268 1390
8 1390 1268 1142 1259 1522 1400 1269 1391
8 1392 1270 1401 1523 1260 1143 1271 1393
8 1272 1394 1524 1402 1145 1262 1393 1271
8 1395 1273 1146 1263 1524 1402 1272 1394
8 1273 1395 1264 1147 1403 1526 1396 1274
8 1405 1276 1160 1282 1534 1406 1286 1411
8 1414 1287 1407 1535 1286 1162 1277 1406
8 1279 1159 1283 1408 1409 1285 1412 1537
8 1418 1292 1412 1537 1290 1165 1283 1408
8 1280 1158 1285 1409 1410 1284 1413 1538
8 1410 1284 1413 1538 1282 1160 1286 1411
8 1285 1163 1289 1412 1413 1288 1417 1540
8 1421 1296 1417 1540 1292 1167 1289 1412
8 1414 1287 1162 1286 1541 1416 1288 1413
8 1420 1294 1421 1545 1291 1166 1292 1418
8 1419 1293 1172 1305 1546 1422 1303 1437
8 1420 1294 1166 1291 1547 1423 1293 1419
8 1294 1169 1297 1423 1421 1296 1425 1548
8 1423 1297 1168 1293 1549 1424 1295 1422
8 1301 1170 1298 1427 1422 1295 1424 1549
8 1432 1300 1428 1554 1301 1170 1298 1427
8 1431 1299 1428 1554 1560 1430 1300 1432
8 1563 1433 1300 1432 1435 1302 1170 1301
8 1546 1422 1303 1437 1434 1301 1435 1565
8 1303 1171 1304 1438 1435 1302 1436 1566
8 1305 1172 1306 1440 1437 1303 1438 1568
8 1306 1173 1307 1441 1438 1304 1439 1569
8 1308 1175 1309 1443 1440 1306 1441 1571
8 1309 1176 1310 1444 1441 1307 1442 1572
8 1311 1178 1312 1446 1443 1309 1444 1574
8 1179 1312 1444 1310 1313 1447 1575 1445
8 1314 1181 1315 1448 1446 1312 1447 1576
8 1350 1213 1349 1486 1451 1317 1449 1579
8 1451 1317 1450 1581 1319 1186 1318 1453
8 1454 1319 1214 1351 1582 1451 1350 1487
8 1453 1318 1452 1584 1321 1187 1320 1456
8 1454 1319 1453 1585 1344 1208 1321 1457
8 1456 1320 1455 1586 1323 1189 1324 1459
8 1457 1321 1456 1587 1322 1188 1323 1458
8 1458 1323 1459 1588 1325 1191 1326 1460
8 1205 1336 1464 1329 1328 1462 1590 1461
8 1507 1373 1461 1590 1374 1242 1328 1462
8 1508 1374 1462 1591 1375 1243 1335 1467
8 1337 1206 1329 1464 1473 1341 1463 1594
8 1375 1243 1335 1467 1465 1333 1470 1596
8 1465 1333 1470 1596 1331 1200 1334 1466
8 1352 1227 1334 1466 1488 1360 1470 1596
8 1591 1462 1336 1468 1467 1335 1471 1597
8 1469 1337 1472 1598 1595 1464 1336 1468
8 1471 1339 1474 1600 1335 1204 1338 1470
8 1600 1474 1367 1496 1470 1338 1235 1360
8 1336 1205 1340 1472 1471 1339 1475 1601
8 1337 1206 1341 1473 1472 1340 1476 1602
8 1495 1370 1478 1609 1361 1239 1342 1479
8 1348 1212 1342 1479 1483 1347 1478 1609
8 1481 1346 1479 1610 1345 1210 1343 1480
8 1481 1346 1228 1359 1610 1479 1361 1494
8 1484 1348 1214 1351 1610 1479 1343 1480
8 1483 1347 1482 1612 1350 1213 1349 1486
8 1484 1348 1483 1613 1351 1214 1350 1487
8 1353 1230 1360 1488 1489 1363 1496 1616
8 1490 1364 1231 1354 1617 1499 1363 1489
8 1490 1364 1499 1617 1355 1232 1365 1491
8 1356 1234 1365 1491 1492 1366 1500 1619
8 1492 1366 1498 1620 1357 1233 1362 1493
8 1494 1361 1228 1359 1621 1497 1362 1493
8 1495 1370 1239 1361 1622 1504 1371 1497
8 1363 1236 1367 1496 1499 1368 1501 1623
8 1497 1371 1240 1362 1624 1505 1372 1498
8 1625 1503 1372 1498 1500 1369 1241 1366
8 1365 1238 1368 1499 1500 1369 1502 1626
8 1520 1398 1506 1633 1388 1266 1373 1507
8 1634 1507 1374 1508 1512 1388 1255 1380
8 1509 1387 1519 1635 1377 1258 1391 1510
8 1405 1276 1406 1534 1509 1387 1519 1635
8 1515 1392 1260 1383 1636 1522 1390 1511
8 1511 1390 1259 1379 1636 1522 1391 1510
8 1385 1256 1389 1517 1512 1388 1520 1637
8 1513 1394 1262 1382 1638 1524 1393 1514
8 1395 1516 1638 1524 1263 1384 1513 1394
8 1515 1392 1523 1639 1383 1260 1393 1514
8 1516 1395 1526 1640 1386 1264 1396 1518
8 1386 1264 1396 1518 1517 1389 1521 1641
8 1519 1397 1527 1643 1391 1269 1400 1522
8 1535 1407 1527 1643 1406 1277 1397 1519
8 1389 1267 1399 1521 1520 1398 1528 1644
8 1645 1529 1399 1521 1525 1404 1274 1396
8 1392 1270 1400 1522 1523 1401 1531 1646
8 1524 1402 1271 1393 1648 1532 1401 1523
8 1403 1526 1648 1532 1273 1395 1524 1402
8 1525 1404 1274 1396 1649 1533 1403 1526
8 1539 1414 1535 1657 1411 1286 1406 1534
8 1542 1415 1536 1658 1414 1287 1407 1535
8 1409 1285 1412 1537 1538 1413 1540 1660
8 1545 1421 1540 1660 1418 1292 1412 1537
8 1539 1414 1286 1411 1661 1541 1413 1538
8 1540 1417 1544 1663 1413 1288 1416 1541
8 1421 1296 1425 1548 1540 1417 1544 1663
8 1542 1415 1287 1414 1664 1543 1416 1541
8 1420 1294 1423 1547 1545 1421 1548 1666
8 1547 1423 1293 1419 1667 1549 1422 1546
8 1434 1301 1427 1553 1546 1422 1549 1667
8 1423 1297 1424 1549 1548 1425 1550 1668
8 1551 1426 1550 1668 1427 1298 1424 1549
8 1551 1426 1298 1427 1671 1552 1428 1554
8 1562 1432 1554 1674 1434 1301 1427 1553
8 1431 1299 1429 1558 1554 1428 1555 1675
8 1431 1299 1430 1560 1558 1429 1557 1680
8 1560 1430 1300 1432 1683 1559 1433 1563
8 1561 1431 1554 1674 1684 1560 1432 1562
8 1685 1563 1432 1562 1565 1435 1301 1434
8 1435 1302 1436 1566 1563 1433 1564 1686
8 1437 1303 1438 1568 1565 1435 1566 1688
8 1438 1304 1439 1569 1566 1436 1567 1689
8 1440 1306 1441 1571 1568 1438 1569 1691
8 1441 1307 1442 1572 1569 1439 1570 1692
8 1443 1309 1444 1574 1571 1441 1572 1694
8 1310 1444 1572 1442 1445 1575 1695 1573
8 1446 1312 1447 1576 1574 1444 1575 1696
8 1486 1349 1485 1614 1579 1449 1577 1699
8 1451 1317 1449 1579 1581 1450 1578 1701
8 1487 1350 1486 1615 1582 1451 1579 1702
8 1581 1450 1580 1704 1453 1318 1452 1584
8 1582 1451 1581 1705 1454 1319 1453 1585
8 1584 1452 1583 1706 1456 1320 1455 1586
8 1585 1453 1584 1707 1457 1321 1456 1587
8 1587 1456 1586 1708 1458 1323 1459 1588
8 1633 1506 1589 1710 1507 1373 1461 1590
8 1464 1329 1461 1590 1594 1463 1589 1710
8 1468 1336 1462 1591 1595 1464 1590 1711
8 1634 1507 1590 1711 1508 1374 1462 1591
8 1473 1341 1463 1594 1603 1477 1593 1716
8 1469 1337 1464 1595 1599 1473 1594 1717
8 1471 1597 1467 1335 1600 1718 1596 1470
8 1718 1600 1496 1616 1596 1470 1360 1488
8 1336 1468 1597 1471 1472 1598 1719 1601
8 1469 1337 1473 1599 1598 1472 1602 1720
8 1722 1604 1501 1623 1600 1474 1367 1496
8 1475 1601 1471 1339 1604 1722 1600 1474
8 1602 1476 1605 1723 1472 1340 1475 1601
8 1476 1602 1724 1606 1341 1473 1603 1477
8 1483 1347 1478 1609 1612 1482 1608 1731
8 1495 1370 1504 1622 1609 1478 1608 1731
8 1618 1495 1609 1732 1494 1361 1479 1610
8 1484 1348 1479 1610 1613 1483 1609 1732
8 1486 1349 1482 1612 1614 1485 1611 1733
8 1613 1483 1612 1734 1487 1350 1486 1615
8 1489 1363 1496 1616 1617 1499 1623 1736
8 1491 1365 1499 1617 1619 1500 1626 1737
8 1618 1495 1361 1494 1738 1622 1497 1621
8 1739 1625 1498 1620 1619 1500 1366 1492
8 1621 1497 1362 1493 1740 1624 1498 1620
8 1742 1631 1504 1622 1624 1505 1371 1497
8 1743 1628 1502 1626 1623 1501 1368 1499
8 1744 1630 1505 1624 1625 1503 1372 1498
8 1745 1629 1503 1625 1626 1502 1369 1500
8 1520 1398 1528 1644 1633 1506 1632 1751
8 1637 1520 1633 1752 1512 1388 1507 1634
8 1635 1519 1643 1753 1510 1391 1522 1636
8 1657 1535 1643 1753 1534 1406 1519 1635
8 1515 1392 1522 1636 1639 1523 1646 1754
8 1517 1389 1521 1641 1637 1520 1644 1755
8 1524 1638 1756 1648 1393 1514 1639 1523
8 1640 1526 1395 1516 1756 1648 1524 1638
8 1642 1525 1396 1518 1757 1649 1526 1640
8 1758 1645 1521 1641 1642 1525 1396 1518
8 1646 1531 1400 1522 1760 1650 1527 1643
8 1535 1407 1536 1658 1643 1527 1650 1760
8 1521 1399 1529 1645 1644 1528 1651 1761
8 1647 1530 1652 1762 1525 1404 1529 1645
8 1401 1523 1648 1532 1531 1646 1763 1655
8 1525 1404 1533 1649 1647 1530 1654 1765
8 1533 1649 1766 1656 1403 1526 1648 1532
8 1662 1542 1658 1774 1539 1414 1535 1657
8 1542 1415 1543 1664 1658 1536 1659 1775
8 1660 1540 1663 1777 1538 1413 1541 1661
8 1545 1421 1548 1666 1660 1540 1663 1777
8 1662 1542 1414 1539 1778 1664 1541 1661
8 1664 1543 1416 1541 1779 1665 1544 1663
8 1548 1425 1550 1668 1663 1544 1665 1779
8 1547 1423 1549 1667 1666 1548 1668 1781
8 1670 1551 1668 1781 1553 1427 1549 1667
8 1551 1426 1552 1671 1668 1550 1669 1782
8 1670 1551 1427 1553 1784 1671 1554 1674
8 1675 1555 1672 1785 1554 1428 1552 1671
8 1678 1556 1673 1789 1558 1429 1555 1675
8 1561 1431 1558 1681 1674 1554 1675 1790
8 1794 1677 1556 1678 1680 1557 1429 1558
8 1560 1430 1559 1683 1680 1557 1679 1797
8 1561 1431 1560 1684 1681 1558 1680 1798
8 1563 1433 1564 1686 1683 1559 1682 1800
8 1684 1560 1432 1562 1801 1683 1563 1685
8 1565 1435 1566 1688 1685 1563 1686 1802
8 1566 1436 1567 1689 1686 1564 1687 1803
8 1568 1438 1569 1691 1688 1566 1689 1805
8 1569 1439 1570 1692 1689 1567 1690 1806
8 1571 1441 1572 1694 1691 1569 1692 1808
8 1442 1572 1692 1570 1573 1695 1809 1693
8 1574 1444 1575 1696 1694 1572 1695 1810
8 1614 1485 1592 1712 1699 1577 1697 1813
8 1579 1449 1577 1699 1701 1578 1698 1815
8 1615 1486 1614 1735 1702 1579 1699 1816
8 1701 1578 1700 1818 1581 1450 1580 1704
8 1582 1451 1579 1702 1705 1581 1701 1819
8 1704 1580 1703 1820 1584 1452 1583 1706
8 1705 1581 1704 1821 1585 1453 1584 1707
8 1707 1584 1706 1822 1587 1456 1586 1708
8 1710 1589 1506 1633 1824 1709 1632 1751
8 1594 1463 1589 1710 1716 1593 1709 1824
8 1752 1633 1710 1825 1634 1507 1590 1711
8 1595 1464 1590 1711 1717 1594 1710 1825
8 1830 1714 1592 1712 1733 1611 1485 1614
8 1603 1477 1593 1716 1725 1607 1715 1834
8 1599 1473 1594 1717 1721 1603 1716 1835
8 1837 1722 1623 1736 1718 1600 1496 1616
8 1719 1601 1722 1837 1597 1471 1600 1718
8 1602 1720 1598 1472 1723 1838 1719 1601
8 1720 1602 1473 1599 1839 1724 1603 1721
8 1723 1605 1726 1840 1601 1475 1604 1722
8 1840 1726 1628 1743 1722 1604 1501 1623
8 1724 1606 1727 1841 1602 1476 1605 1723
8 1725 1607 1728 1842 1603 1477 1606 1724
8 1612 1482 1608 1731 1733 1611 1730 1849
8 1741 1627 1730 1849 1622 1504 1608 1731
8 1613 1483 1609 1732 1734 1612 1731 1850
8 1618 1495 1622 1738 1732 1609 1731 1850
8 1615 1486 1612 1734 1735 1614 1733 1851
8 1852 1743 1626 1737 1736 1623 1499 1617
8 1853 1745 1625 1739 1737 1626 1500 1619
8 1855 1742 1622 1738 1740 1624 1497 1621
8 1856 1744 1624 1740 1739 1625 1498 1620
8 1741 1627 1504 1622 1857 1746 1631 1742
8 1742 1631 1505 1624 1858 1749 1630 1744
8 1859 1747 1629 1745 1743 1628 1502 1626
8 1860 1748 1630 1744 1745 1629 1503 1625
8 1644 1528 1651 1761 1751 1632 1750 1865
8 1637 1520 1644 1755 1752 1633 1751 1866
8 1754 1646 1522 1636 1867 1760 1643 1753
8 1657 1535 1658 1774 1753 1643 1760 1867
8 1639 1523 1646 1754 1756 1648 1763 1868
8 1641 1521 1645 1758 1755 1644 1761 1869
8 1757 1649 1526 1640 1870 1766 1648 1756
8 1642 1525 1649 1757 1759 1647 1765 1871
8 1759 1647 1762 1872 1642 1525 1645 1758
8 1760 1650 1767 1874 1646 1531 1655 1763
8 1658 1536 1659 1775 1760 1650 1767 1874
8 1762 1652 1768 1875 1645 1529 1651 1761
8 1764 1653 1769 1876 1647 1530 1652 1762
8 1656 1766 1877 1773 1532 1648 1763 1655
8 1771 1879 1765 1654 1653 1764 1647 1530
8 1533 1649 1765 1654 1656 1766 1880 1772
8 1662 1542 1664 1778 1774 1658 1775 1887
8 1664 1543 1665 1779 1775 1659 1776 1888
8 1778 1664 1541 1661 1890 1779 1663 1777
8 1666 1548 1668 1781 1777 1663 1779 1890
8 1782 1669 1780 1891 1668 1550 1665 1779
8 1670 1551 1671 1784 1781 1668 1782 1893
8 1671 1552 1672 1785 1782 1669 1783 1894
8 1790 1675 1785 1896 1674 1554 1671 1784
8 1675 1555 1673 1789 1785 1672 1786 1897
8 1792 1676 1788 1903 1678 1556 1673 1789
8 1795 1678 1789 1904 1681 1558 1675 1790
8 1792 1676 1556 1678 1906 1791 1677 1794
8 1680 1557 1679 1797 1794 1677 1793 1909
8 1910 1794 1678 1795 1798 1680 1558 1681
8 1683 1559 1682 1800 1797 1679 1796 1912
8 1684 1560 1683 1801 1798 1680 1797 1913
8 1686 1564 1687 1803 1800 1682 1799 1915
8 1685 1563 1686 1802 1801 1683 1800 1916
8 1688 1566 1689 1805 1802 1686 1803 1917
8 1689 1567 1690 1806 1803 1687 1804 1918
8 1691 1569 1692 1808 1805 1689 1806 1920
8 1692 1570 1693 1809 1806 1690 1807 1921
8 1694 1572 1695 1810 1808 1692 1809 1922
8 1829 1713 1811 1926 1712 1592 1697 1813
8 1813 1697 1812 1928 1699 1577 1698 1815
8 1735 1614 1712 1828 1816 1699 1813 1929
8 1815 1698 1814 1931 1701 1578 1700 1818
8 1702 1579 1699 1816 1819 1701 1815 1932
8 1818 1700 1817 1933 1704 1580 1703 1820
8 1819 1701 1818 1934 1705 1581 1704 1821
8 1821 1704 1820 1935 1707 1584 1706 1822
8 1824 1709 1632 1751 1937 1823 1750 1865
8 1716 1593 1709 1824 1834 1715 1823 1937
8 1825 1710 1633 1752 1938 1824 1751 1866
8 1717 1594 1710 1825 1835 1716 1824 1938
8 1945 1830 1712 1828 1851 1733 1614 1735
8 1830 1714 1831 1946 1712 1592 1713 1829
8 1947 1832 1714 1830 1849 1730 1611 1733
8 1843 1729 1607 1725 1950 1833 1715 1834
8 1721 1603 1716 1835 1836 1725 1834 1951
8 1836 1725 1842 1953 1721 1603 1724 1839
8 1723 1838 1719 1601 1840 1954 1837 1722
8 1954 1840 1743 1852 1837 1722 1623 1736
8 1724 1839 1720 1602 1841 1955 1838 1723
8 1841 1727 1844 1956 1723 1605 1726 1840
8 1956 1844 1747 1859 1840 1726 1628 1743
8 1728 1842 1724 1606 1845 1957 1841 1727
8 1725 1607 1729 1843 1842 1728 1846 1958
8 1741 1627 1746 1857 1849 1730 1848 1965
8 1734 1612 1731 1850 1851 1733 1849 1966
8 1854 1741 1849 1966 1738 1622 1731 1850
8 1967 1859 1745 1853 1852 1743 1626 1737
8 1968 1860 1744 1856 1853 1745 1625 1739
8 1854 1741 1622 1738 1969 1857 1742 1855
8 1855 1742 1624 1740 1970 1858 1744 1856
8 1857 1746 1631 1742 1971 1861 1749 1858
8 1858 1749 1630 1744 1972 1863 1748 1860
8 1859 1747 1862 1973 1745 1629 1748 1860
8 1875 1768 1864 1977 1761 1651 1750 1865
8 1755 1644 1761 1869 1866 1751 1865 1978
8 1867 1760 1874 1979 1754 1646 1763 1868
8 1774 1658 1775 1887 1867 1760 1874 1979
8 1870 1766 1648 1756 1980 1877 1763 1868
8 1872 1762 1875 1981 1758 1645 1761 1869
8 1757 1649 1766 1870 1871 1765 1880 1982
8 1983 1879 1764 1873 1871 1765 1647 1759
8 1873 1764 1876 1984 1759 1647 1762 1872
8 1877 1773 1655 1763 1986 1881 1767 1874
8 1775 1659 1776 1888 1874 1767 1881 1986
8 1876 1769 1882 1987 1762 1652 1768 1875
8 1878 1770 1883 1988 1764 1653 1769 1876
8 1880 1772 1656 1766 1989 1886 1773 1877
8 1878 1770 1653 1764 1990 1884 1771 1879
8 1765 1654 1772 1880 1879 1771 1885 1991
8 1778 1664 1779 1890 1887 1775 1888 1997
8 1998 1889 1776 1888 1891 1780 1665 1779
8 1893 1782 1891 2000 1781 1668 1779 1890
8 1894 1783 1892 2001 1782 1669 1780 1891
8 1784 1671 1785 1896 1893 1782 1894 2003
8 1897 1786 1895 2004 1785 1672 1783 1894
8 1790 1675 1789 1904 1896 1785 1897 2006
8 1901 1787 1898 2007 1789 1673 1786 1897
8 1903 1788 1900 2013 1789 1673 1787 1901
8 1792 1676 1791 1906 1903 1788 1902 2016
8 1907 1792 1903 2017 1795 1678 1789 1904
8 1906 1791 1677 1794 2019 1905 1793 1909
8 1907 1792 1678 1795 2020 1906 1794 1910
8 1797 1679 1796 1912 1909 1793 1908 2022
8 1798 1680 1797 1913 1910 1794 1909 2023
8 1800 1682 1799 1915 1912 1796 1911 2025
8 1801 1683 1800 1916 1913 1797 1912 2026
8 1803 1687 1804 1918 1915 1799 1914 2028
8 1802 1686 1803 1917 1916 1800 1915 2029
8 1805 1689 1806 1920 1917 1803 1918 2030
8 1806 1690 1807 1921 1918 1804 1919 2031
8 1808 1692 1809 1922 1920 1806 1921 2032
8 1939 1826 1924 2037 1829 1713 1811 1926
8 1926 1811 1925 2039 1813 1697 1812 1928
8 1944 1829 1926 2040 1828 1712 1813 1929
8 1928 1812 1927 2042 1815 1698 1814 1931
8 1929 1813 1928 2043 1816 1699 1815 1932
8 1931 1814 1930 2044 1818 1700 1817 1933
8 1932 1815 1931 2045 1819 1701 1818 1934
8 1934 1818 1933 2046 1821 1704 1820 1935
8 2048 1936 1823 1937 1977 1864 1750 1865
8 1950 1833 1715 1834 2048 1936 1823 1937
8 1938 1824 1751 1866 2049 1937 1865 1978
8 1835 1716 1824 1938 1951 1834 1937 2049
8 1939 1826 1713 1829 2053 1942 1831 1946
8 1940 1827 1923 2035 2053 1942 1826 1939
8 1945 1830 1946 2058 1828 1712 1829 1944
8 2059 1947 1830 1945 1966 1849 1733 1851
8 1947 1832 1730 1849 2060 1948 1848 1965
8 1947 1832 1948 2060 1830 1714 1831 1946
8 1959 1847 1729 1843 2063 1949 1833 1950
8 1952 1843 1725 1836 2064 1950 1834 1951
8 1836 1725 1843 1952 1953 1842 1958 2066
8 1953 1842 1957 2067 1839 1724 1841 1955
8 1841 1955 1838 1723 1956 2068 1954 1840
8 2068 1956 1859 1967 1954 1840 1743 1852
8 1956 1844 1960 2069 1859 1747 1862 1973
8 1845 1957 1841 1727 1960 2069 1956 1844
8 1728 1842 1957 1845 1846 1958 2071 1961
8 1962 2072 1959 1847 1846 1958 1843 1729
8 1971 1861 1964 2077 1857 1746 1848 1965
8 1854 1741 1857 1969 1966 1849 1965 2078
8 1967 1859 1973 2079 1853 1745 1860 1968
8 1970 1858 1744 1856 2080 1972 1860 1968
8 1969 1857 1742 1855 2081 1971 1858 1970
8 1971 1861 1749 1858 2082 1974 1863 1972
8 1973 1862 1975 2083 1860 1748 1863 1972
8 1987 1882 1976 2086 1875 1768 1864 1977
8 1981 1875 1977 2087 1869 1761 1865 1978
8 1980 1877 1763 1868 2088 1986 1874 1979
8 1887 1775 1888 1997 1979 1874 1986 2088
8 1880 1982 2089 1989 1766 1870 1980 1877
8 1984 1876 1987 2090 1872 1762 1875 1981
8 1765 1871 1983 1879 1880 1982 2091 1991
8 1985 1878 1764 1873 2092 1990 1879 1983
8 1985 1878 1988 2093 1873 1764 1876 1984
8 2094 1992 1881 1986 1998 1889 1776 1888
8 1986 1881 1992 2094 1877 1773 1886 1989
8 1988 1883 1993 2095 1876 1769 1882 1987
8 1878 1770 1884 1990 1988 1883 1994 2096
8 1991 1885 1772 1880 2097 1996 1886 1989
8 1879 1771 1885 1991 1990 1884 1995 2098
8 2103 1998 1888 1997 2000 1891 1779 1890
8 2104 1999 1889 1998 2001 1892 1780 1891
8 2003 1894 2001 2106 1893 1782 1891 2000
8 2004 1895 2002 2107 1894 1783 1892 2001
8 2006 1897 2004 2109 1896 1785 1894 2003
8 2007 1898 2005 2110 1897 1786 1895 2004
8 2014 1901 2007 2112 1904 1789 1897 2006
8 2011 1899 2008 2113 1901 1787 1898 2007
8 2119 2010 1899 2011 2013 1900 1787 1901
8 2016 1902 2012 2122 1903 1788 1900 2013
8 2017 1903 2013 2123 1904 1789 1901 2014
8 1906 1791 1905 2019 2016 1902 2015 2125
8 1907 1792 1906 2020 2017 1903 2016 2126
8 1909 1793 1908 2022 2019 1905 2018 2128
8 2020 1906 1794 1910 2129 2019 1909 2023
8 1912 1796 1911 2025 2022 1908 2021 2131
8 1913 1797 1912 2026 2023 1909 2022 2132
8 1915 1799 1914 2028 2025 1911 2024 2134
8 1916 1800 1915 2029 2026 1912 2025 2135
8 1918 1804 1919 2031 2028 1914 2027 2136
8 1917 1803 1918 2030 2029 1915 2028 2137
8 1920 1806 1921 2032 2030 1918 2031 2138
8 1940 1827 1941 2054 2035 1923 2033 2140
8 2035 1923 2034 2143 1939 1826 1924 2037
8 2037 1924 2036 2146 1926 1811 1925 2039
8 2051 1939 2037 2147 1944 1829 1926 2040
8 2039 1925 2038 2149 1928 1812 1927 2042
8 2040 1926 2039 2150 1929 1813 1928 2043
8 2042 1927 2041 2151 1931 1814 1930 2044
8 2043 1928 2042 2152 1932 1815 1931 2045
8 2045 1931 2044 2153 1934 1818 1933 2046
8 2155 2047 1936 2048 2086 1976 1864 1977
8 2063 1949 1833 1950 2155 2047 1936 2048
8 2156 2048 1937 2049 2087 1977 1865 1978
8 2064 1950 1834 1951 2156 2048 1937 2049
8 2051 1939 1829 1944 2160 2053 1946 2058
8 2052 1940 2035 2144 2160 2053 1939 2051
8 2053 1942 1831 1946 2163 2057 1948 2060
8 2055 1943 1827 1940 2163 2057 1942 2053
8 2055 1943 2056 2164 1940 1827 1941 2054
8 2059 1947 1849 1966 2167 2060 1965 2078
8 2059 1947 2060 2167 1945 1830 1946 2058
8 2077 1964 2061 2168 1965 1848 1948 2060
8 2070 1963 1847 1959 2170 2062 1949 2063
8 2065 1959 1843 1952 2171 2063 1950 2064
8 2173 2072 1958 2066 2065 1959 1843 1952
8 1953 1842 1958 2066 2067 1957 2071 2174
8 2068 1956 2069 2175 1967 1859 1973 2079
8 2067 1957 2069 2175 1955 1841 1956 2068
8 1845 1957 2069 1960 1961 2071 2176 2073
8 2069 1960 2073 2176 1973 1862 1975 2083
8 2070 1963 2075 2177 1959 1847 1962 2072
8 1846 1958 2071 1961 1962 2072 2178 2074
8 2077 1964 1861 1971 2182 2076 1974 2082
8 2081 1971 2077 2183 1969 1857 1965 2078
8 2079 1973 2083 2184 1968 1860 1972 2080
8 2081 1971 1858 1970 2185 2082 1972 2080
8 2083 1975 2084 2186 1972 1863 1974 2082
8 2086 1976 1882 1987 2189 2085 1993 2095
8 2090 1987 2086 2190 1981 1875 1977 2087
8 2191 2094 1986 2088 2103 1998 1888 1997
8 2088 1986 2094 2191 1980 1877 1989 2089
8 1991 2091 2192 2097 1880 1982 2089 1989
8 2093 1988 2095 2193 1984 1876 1987 2090
8 1879 1983 2092 1990 1991 2091 2194 2098
8 1985 1878 1990 2092 2093 1988 2096 2195
8 2097 1996 1886 1989 2196 2099 1992 2094
8 2196 2099 1992 2094 2104 1999 1889 1998
8 1994 2096 1988 1883 2100 2197 2095 1993
8 2096 1994 1884 1990 2198 2101 1995 2098
8 1995 2098 2199 2102 1885 1991 2097 1996
8 2203 2104 1998 2103 2106 2001 1891 2000
8 2107 2002 2105 2204 2001 1892 1999 2104
8 2109 2004 2107 2206 2003 1894 2001 2106
8 2110 2005 2108 2207 2004 1895 2002 2107
8 2112 2007 2110 2209 2006 1897 2004 2109
8 2113 2008 2111 2210 2007 1898 2005 2110
8 2120 2011 2113 2212 2014 1901 2007 2112
8 2117 2009 2114 2213 2011 1899 2008 2113
8 2219 2116 2009 2117 2119 2010 1899 2011
8 2222 2118 2010 2119 2122 2012 1900 2013
8 2223 2119 2011 2120 2123 2013 1901 2014
8 2016 1902 2015 2125 2122 2012 2121 2225
8 2126 2016 2122 2226 2017 1903 2013 2123
8 2019 1905 2018 2128 2125 2015 2124 2228
8 2020 1906 2019 2129 2126 2016 2125 2229
8 2022 1908 2021 2131 2128 2018 2127 2231
8 2023 1909 2022 2132 2129 2019 2128 2232
8 2025 1911 2024 2134 2131 2021 2130 2234
8 2026 1912 2025 2135 2132 2022 2131 2235
8 1914 2028 2134 2024 2027 2136 2236 2133
8 2029 1915 2028 2137 2135 2025 2134 2237
8 2030 1918 2031 2138 2137 2028 2136 2238
8 2157 2050 2139 2240 2054 1941 2033 2140
8 2052 1940 2054 2161 2144 2035 2140 2242
8 2140 2033 2141 2243 2035 1923 2034 2143
8 2143 2034 2142 2246 2037 1924 2036 2146
8 2144 2035 2143 2247 2051 1939 2037 2147
8 2146 2036 2145 2249 2039 1925 2038 2149
8 2147 2037 2146 2250 2040 1926 2039 2150
8 2149 2038 2148 2251 2042 1927 2041 2151
8 2150 2039 2149 2252 2043 1928 2042 2152
8 2152 2042 2151 2253 2045 1931 2044 2153
8 2255 2154 2047 2155 2189 2085 1976 2086
8 2170 2062 1949 2063 2255 2154 2047 2155
8 2256 2155 2048 2156 2190 2086 1977 2087
8 2171 2063 1950 2064 2256 2155 2048 2156
8 2258 2159 2050 2157 2164 2056 1941 2054
8 2160 2053 1946 2058 2262 2163 2060 2167
8 2162 2055 1940 2052 2262 2163 2053 2160
8 2162 2055 2164 2263 2052 1940 2054 2161
8 2163 2057 1948 2060 2264 2165 2061 2168
8 2055 1943 2057 2163 2164 2056 2165 2264
8 2182 2076 2166 2268 2077 1964 2061 2168
8 2183 2077 2168 2269 2078 1965 2060 2167
8 2070 1963 2062 2170 2177 2075 2169 2271
8 2172 2070 1959 2065 2272 2170 2063 2171
8 2172 2070 2177 2273 2065 1959 2072 2173
8 2066 1958 2072 2173 2174 2071 2178 2274
8 2067 1957 2071 2174 2175 2069 2176 2275
8 2175 2069 2176 2275 2079 1973 2083 2184
8 2071 1961 2074 2178 2176 2073 2179 2276
8 2176 2073 2179 2276 2083 1975 2084 2186
8 2072 1962 2075 2177 2178 2074 2180 2277
8 2182 2076 1974 2082 2280 2181 2084 2186
8 2183 2077 1971 2081 2281 2182 2082 2185
8 2184 2083 2186 2282 2080 1972 2082 2185
8 2189 2085 1993 2095 2285 2188 2100 2197
8 2190 2086 1987 2090 2286 2189 2095 2193
8 2192 2097 1989 2089 2287 2196 2094 2191
8 2287 2196 2094 2191 2203 2104 1998 2103
8 2194 2098 1991 2091 2288 2199 2097 2192
8 2195 2096 2197 2289 2093 1988 2095 2193
8 2096 2195 2290 2198 1990 2092 2194 2098
8 2097 1996 2099 2196 2199 2102 2200 2291
8 2196 2099 1999 2104 2291 2200 2105 2204
8 2100 2197 2292 2201 1994 2096 2198 2101
8 1995 2098 2198 2101 2102 2199 2293 2202
8 2206 2107 2204 2296 2106 2001 2104 2203
8 2207 2108 2205 2297 2107 2002 2105 2204
8 2209 2110 2207 2299 2109 2004 2107 2206
8 2210 2111 2208 2300 2110 2005 2108 2207
8 2212 2113 2210 2302 2112 2007 2110 2209
8 2213 2114 2211 2303 2113 2008 2111 2210
8 2220 2117 2213 2305 2120 2011 2113 2212
8 2216 2115 2214 2306 2117 2009 2114 2213
8 2216 2115 2009 2117 2311 2217 2116 2219
8 2219 2116 2010 2119 2314 2218 2118 2222
8 2315 2219 2117 2220 2223 2119 2011 2120
8 2122 2012 2121 2225 2222 2118 2221 2317
8 2318 2222 2119 2223 2226 2122 2013 2123
8 2125 2015 2124 2228 2225 2121 2224 2320
8 2126 2016 2125 2229 2226 2122 2225 2321
8 2128 2018 2127 2231 2228 2124 2227 2323
8 2129 2019 2128 2232 2229 2125 2228 2324
8 2131 2021 2130 2234 2231 2127 2230 2326
8 2132 2022 2131 2235 2232 2128 2231 2327
8 2134 2024 2133 2236 2234 2130 2233 2328
8 2135 2025 2134 2237 2235 2131 2234 2329
8 2137 2028 2136 2238 2237 2134 2236 2330
8 2157 2050 2158 2259 2240 2139 2239 2332
8 2257 2157 2240 2334 2161 2054 2140 2242
8 2240 2139 2241 2335 2140 2033 2141 2243
8 2242 2140 2243 2337 2144 2035 2143 2247
8 2243 2141 2244 2338 2143 2034 2142 2246
8 2246 2142 2245 2341 2146 2036 2145 2249
8 2247 2143 2246 2342 2147 2037 2146 2250
8 2249 2145 2248 2343 2149 2038 2148 2251
8 2250 2146 2249 2344 2150 2039 2149 2252
8 2252 2149 2251 2345 2152 2042 2151 2253
8 2169 2271 2347 2254 2062 2170 2255 2154
8 2189 2085 2188 2285 2255 2154 2254 2347
8 2348 2255 2155 2256 2286 2189 2086 2190
8 2272 2170 2063 2171 2348 2255 2155 2256
8 2349 2258 2157 2257 2263 2164 2054 2161
8 2258 2159 2261 2351 2157 2050 2158 2259
8 2258 2159 2056 2164 2351 2261 2165 2264
8 2262 2163 2060 2167 2355 2264 2168 2269
8 2162 2055 2163 2262 2263 2164 2264 2355
8 2357 2266 2165 2264 2268 2166 2061 2168
8 2268 2166 2076 2182 2361 2267 2181 2280
8 2281 2182 2268 2362 2183 2077 2168 2269
8 2271 2169 2270 2364 2177 2075 2180 2277
8 2172 2070 2170 2272 2273 2177 2271 2365
8 2072 2173 2274 2178 2177 2273 2366 2277
8 2071 2174 2275 2176 2178 2274 2367 2276
8 2275 2176 2276 2367 2184 2083 2186 2282
8 2283 2187 2084 2186 2368 2278 2179 2276
8 2178 2074 2180 2277 2276 2179 2278 2368
8 2283 2187 2279 2370 2186 2084 2181 2280
8 2281 2182 2082 2185 2371 2280 2186 2282
8 2188 2285 2374 2284 2100 2197 2292 2201
8 2286 2189 2095 2193 2375 2285 2197 2289
8 2192 2097 2196 2287 2288 2199 2291 2376
8 2287 2196 2104 2203 2376 2291 2204 2296
8 2194 2098 2199 2288 2290 2198 2293 2377
8 2289 2197 2096 2195 2378 2292 2198 2290
8 2291 2200 2105 2204 2379 2294 2205 2297
8 2199 2102 2200 2291 2293 2202 2294 2379
8 2198 2101 2202 2293 2292 2201 2295 2380
8 2299 2207 2297 2383 2206 2107 2204 2296
8 2300 2208 2298 2384 2207 2108 2205 2297
8 2302 2210 2300 2386 2209 2110 2207 2299
8 2303 2211 2301 2387 2210 2111 2208 2300
8 2305 2213 2303 2389 2212 2113 2210 2302
8 2306 2214 2304 2390 2213 2114 2211 2303
8 2310 2216 2306 2392 2220 2117 2213 2305
8 2308 2215 2307 2393 2216 2115 2214 2306
8 2308 2215 2115 2216 2396 2309 2217 2311
8 2310 2216 2117 2220 2398 2311 2219 2315
8 2311 2217 2116 2219 2399 2312 2218 2314
8 2314 2218 2118 2222 2402 2313 2221 2317
8 2315 2219 2119 2223 2403 2314 2222 2318
8 2225 2121 2224 2320 2317 2221 2316 2405
8 2226 2122 2225 2321 2318 2222 2317 2406
8 2228 2124 2227 2323 2320 2224 2319 2408
8 2229 2125 2228 2324 2321 2225 2320 2409
8 2231 2127 2230 2326 2323 2227 2322 2411
8 2232 2128 2231 2327 2324 2228 2323 2412
8 2234 2130 2233 2328 2326 2230 2325 2413
8 2235 2131 2234 2329 2327 2231 2326 2414
8 2237 2134 2236 2330 2329 2234 2328 2415
8 2259 2158 2260 2352 2332 2239 2331 2417
8 2257 2157 2259 2350 2334 2240 2332 2419
8 2240 2139 2239 2332 2335 2241 2333 2420
8 2334 2240 2335 2422 2242 2140 2243 2337
8 2335 2241 2336 2423 2243 2141 2244 2338
8 2337 2243 2338 2425 2247 2143 2246 2342
8 2338 2244 2339 2426 2246 2142 2245 2341
8 2341 2245 2340 2428 2249 2145 2248 2343
8 2342 2246 2341 2429 2250 2146 2249 2344
8 2344 2249 2343 2430 2252 2149 2251 2345
8 2188 2285 2347 2254 2284 2374 2432 2346
8 2347 2254 2346 2432 2271 2169 2270 2364
8 2365 2271 2170 2272 2433 2347 2255 2348
8 2286 2189 2285 2375 2348 2255 2347 2433
8 2349 2258 2351 2435 2257 2157 2259 2350
8 2349 2258 2164 2263 2435 2351 2264 2355
8 2259 2158 2261 2351 2352 2260 2354 2437
8 2356 2265 2354 2437 2264 2165 2261 2351
8 2441 2357 2264 2355 2362 2268 2168 2269
8 2356 2265 2165 2264 2442 2358 2266 2357
8 2443 2359 2266 2357 2361 2267 2166 2268
8 2370 2279 2360 2446 2280 2181 2267 2361
8 2362 2268 2182 2281 2447 2361 2280 2371
8 2180 2277 2368 2278 2270 2364 2449 2363
8 2271 2365 2273 2177 2364 2450 2366 2277
8 2372 2283 2186 2282 2451 2368 2276 2367
8 2178 2274 2367 2276 2277 2366 2451 2368
8 2283 2187 2278 2368 2370 2279 2369 2452
8 2372 2283 2370 2453 2282 2186 2280 2371
8 2284 2374 2455 2373 2201 2292 2380 2295
8 2375 2285 2197 2289 2456 2374 2292 2378
8 2376 2291 2204 2296 2457 2379 2297 2383
8 2288 2199 2291 2376 2377 2293 2379 2457
8 2198 2290 2378 2292 2293 2377 2458 2380
8 2293 2202 2294 2379 2380 2295 2381 2459
8 2384 2298 2381 2459 2297 2205 2294 2379
8 2386 2300 2384 2463 2299 2207 2297 2383
8 2387 2301 2385 2464 2300 2208 2298 2384
8 2389 2303 2387 2466 2302 2210 2300 2386
8 2390 2304 2388 2467 2303 2211 2301 2387
8 2392 2306 2390 2469 2305 2213 2303 2389
8 2393 2307 2391 2470 2306 2214 2304 2390
8 2395 2308 2393 2472 2310 2216 2306 2392
8 2308 2215 2309 2396 2393 2307 2394 2473
8 2395 2308 2216 2310 2475 2396 2311 2398
8 2396 2309 2217 2311 2476 2397 2312 2399
8 2398 2311 2219 2315 2478 2399 2314 2403
8 2399 2312 2218 2314 2479 2400 2313 2402
8 2317 2221 2316 2405 2402 2313 2401 2482
8 2403 2314 2222 2318 2483 2402 2317 2406
8 2320 2224 2319 2408 2405 2316 2404 2485
8 2321 2225 2320 2409 2406 2317 2405 2486
8 2323 2227 2322 2411 2408 2319 2407 2488
8 2324 2228 2323 2412 2409 2320 2408 2489
8 2326 2230 2325 2413 2411 2322 2410 2490
8 2327 2231 2326 2414 2412 2323 2411 2491
8 2329 2234 2328 2415 2414 2326 2413 2492
8 2417 2331 2260 2352 2494 2416 2353 2438
8 2350 2259 2352 2436 2419 2332 2417 2496
8 2332 2239 2331 2417 2420 2333 2418 2497
8 2334 2240 2332 2419 2422 2335 2420 2499
8 2420 2333 2421 2500 2335 2241 2336 2423
8 2422 2335 2423 2502 2337 2243 2338 2425
8 2423 2336 2424 2503 2338 2244 2339 2426
8 2425 2338 2426 2505 2342 2246 2341 2429
8 2426 2339 2427 2506 2341 2245 2340 2428
8 2429 2341 2428 2507 2344 2249 2343 2430
8 2432 2346 2284 2374 2509 2431 2373 2455
8 2432 2346 2431 2509 2364 2270 2363 2449
8 2375 2285 2374 2456 2433 2347 2432 2510
8 2347 2433 2365 2271 2432 2510 2450 2364
8 2350 2259 2351 2435 2436 2352 2437 2514
8 2440 2356 2437 2514 2355 2264 2351 2435
8 2352 2260 2354 2437 2438 2353 2439 2516
8 2356 2265 2358 2442 2437 2354 2439 2516
8 2440 2356 2264 2355 2518 2442 2357 2441
8 2519 2443 2357 2441 2447 2361 2268 2362
8 2443 2359 2444 2520 2357 2266 2358 2442
8 2443 2359 2267 2361 2520 2444 2360 2446
8 2446 2360 2279 2370 2523 2445 2369 2452
8 2453 2370 2446 2524 2371 2280 2361 2447
8 2449 2363 2448 2525 2368 2278 2369 2452
8 2366 2277 2364 2450 2451 2368 2449 2526
8 2372 2283 2368 2451 2453 2370 2452 2527
8 2455 2373 2295 2380 2529 2454 2382 2460
8 2456 2374 2292 2378 2530 2455 2380 2458
8 2377 2293 2379 2457 2458 2380 2459 2531
8 2463 2384 2459 2531 2383 2297 2379 2457
8 2533 2461 2382 2460 2459 2381 2295 2380
8 2464 2385 2461 2533 2384 2298 2381 2459
8 2466 2387 2464 2537 2386 2300 2384 2463
8 2467 2388 2465 2538 2387 2301 2385 2464
8 2469 2390 2467 2540 2389 2303 2387 2466
8 2470 2391 2468 2541 2390 2304 2388 2467
8 2472 2393 2470 2543 2392 2306 2390 2469
8 2393 2307 2394 2473 2470 2391 2471 2544
8 2395 2308 2396 2475 2472 2393 2473 2546
8 2396 2309 2397 2476 2473 2394 2474 2547
8 2475 2396 2311 2398 2549 2476 2399 2478
8 2476 2397 2312 2399 2550 2477 2400 2479
8 2478 2399 2314 2403 2552 2479 2402 2483
8 2479 2400 2313 2402 2553 2480 2401 2482
8 2405 2316 2404 2485 2482 2401 2481 2556
8 2406 2317 2405 2486 2483 2402 2482 2557
8 2408 2319 2407 2488 2485 2404 2484 2559
8 2409 2320 2408 2489 2486 2405 2485 2560
8 2411 2322 2410 2490 2488 2407 2487 2561
8 2412 2323 2411 2491 2489 2408 2488 2562
8 2414 2326 2413 2492 2491 2411 2490 2563
8 2513 2434 2493 2565 2438 2353 2416 2494
8 2496 2417 2352 2436 2567 2494 2438 2515
8 2494 2416 2495 2568 2417 2331 2418 2497
8 2419 2332 2417 2496 2499 2420 2497 2570
8 2497 2418 2498 2571 2420 2333 2421 2500
8 2499 2420 2500 2573 2422 2335 2423 2502
8 2500 2421 2501 2574 2423 2336 2424 2503
8 2502 2423 2503 2576 2425 2338 2426 2505
8 2503 2424 2504 2577 2426 2339 2427 2506
8 2505 2426 2506 2578 2429 2341 2428 2507
8 2509 2431 2373 2455 2580 2508 2454 2529
8 2509 2431 2508 2580 2449 2363 2448 2525
8 2432 2510 2581 2509 2374 2456 2530 2455
8 2432 2510 2450 2364 2509 2581 2526 2449
8 2583 2511 2434 2513 2516 2439 2353 2438
8 2436 2352 2437 2514 2515 2438 2516 2588
8 2440 2356 2442 2518 2514 2437 2516 2588
8 2442 2358 2444 2520 2516 2439 2517 2589
8 2519 2443 2520 2591 2441 2357 2442 2518
8 2519 2443 2361 2447 2591 2520 2446 2524
8 2446 2360 2445 2523 2520 2444 2521 2592
8 2525 2448 2522 2593 2452 2369 2445 2523
8 2524 2446 2370 2453 2594 2523 2452 2527
8 2526 2449 2525 2595 2451 2368 2452 2527
8 2534 2462 2528 2597 2460 2382 2454 2529
8 2530 2455 2380 2458 2598 2529 2460 2532
8 2599 2533 2460 2532 2531 2459 2380 2458
8 2537 2464 2533 2599 2463 2384 2459 2531
8 2534 2462 2382 2460 2601 2535 2461 2533
8 2538 2465 2535 2601 2464 2385 2461 2533
8 2540 2467 2538 2604 2466 2387 2464 2537
8 2541 2468 2539 2605 2467 2388 2465 2538
8 2543 2470 2541 2607 2469 2390 2467 2540
8 2470 2391 2471 2544 2541 2468 2542 2608
8 2472 2393 2473 2546 2543 2470 2544 2610
8 2473 2394 2474 2547 2544 2471 2545 2611
8 2475 2396 2476 2549 2546 2473 2547 2613
8 2476 2397 2477 2550 2547 2474 2548 2614
8 2549 2476 2399 2478 2616 2550 2479 2552
8 2479 2400 2480 2553 2550 2477 2551 2617
8 2552 2479 2402 2483 2619 2553 2482 2557
8 2482 2401 2481 2556 2553 2480 2554 2620
8 2485 2404 2484 2559 2556 2481 2555 2623
8 2486 2405 2485 2560 2557 2482 2556 2624
8 2488 2407 2487 2561 2559 2484 2558 2625
8 2489 2408 2488 2562 2560 2485 2559 2626
8 2491 2411 2490 2563 2562 2488 2561 2627
8 2513 2434 2512 2585 2565 2493 2564 2630
8 2586 2513 2565 2632 2515 2438 2494 2567
8 2565 2493 2566 2633 2494 2416 2495 2568
8 2567 2494 2568 2635 2496 2417 2497 2570
8 2568 2495 2569 2636 2497 2418 2498 2571
8 2570 2497 2571 2638 2499 2420 2500 2573
8 2571 2498 2572 2639 2500 2421 2501 2574
8 2573 2500 2574 2641 2502 2423 2503 2576
8 2574 2501 2575 2642 2503 2424 2504 2577
8 2576 2503 2577 2643 2505 2426 2506 2578
8 2597 2528 2579 2645 2529 2454 2508 2580
8 2580 2508 2579 2645 2525 2448 2522 2593
8 2581 2509 2455 2530 2646 2580 2529 2598
8 2581 2509 2580 2646 2526 2449 2525 2595
8 2583 2511 2582 2648 2513 2434 2512 2585
8 2583 2511 2439 2516 2648 2582 2517 2589
8 2649 2583 2513 2586 2588 2516 2438 2515
8 2589 2517 2444 2520 2653 2587 2521 2592
8 2518 2442 2520 2591 2588 2516 2589 2654
8 2593 2522 2590 2655 2523 2445 2521 2592
8 2524 2446 2523 2594 2591 2520 2592 2656
8 2595 2525 2593 2657 2527 2452 2523 2594
8 2602 2536 2596 2659 2534 2462 2528 2597
8 2600 2534 2597 2660 2532 2460 2529 2598
8 2600 2534 2460 2532 2661 2601 2533 2599
8 2604 2538 2601 2661 2537 2464 2533 2599
8 2602 2536 2462 2534 2663 2603 2535 2601
8 2601 2535 2465 2538 2663 2603 2539 2605
8 2607 2541 2605 2665 2540 2467 2538 2604
8 2608 2542 2606 2666 2541 2468 2539 2605
8 2543 2470 2544 2610 2607 2541 2608 2668
8 2544 2471 2545 2611 2608 2542 2609 2669
8 2546 2473 2547 2613 2610 2544 2611 2671
8 2547 2474 2548 2614 2611 2545 2612 2672
8 2549 2476 2550 2616 2613 2547 2614 2674
8 2550 2477 2551 2617 2614 2548 2615 2675
8 2552 2479 2553 2619 2616 2550 2617 2677
8 2553 2480 2554 2620 2617 2551 2618 2678
8 2557 2482 2556 2624 2619 2553 2620 2680
8 2556 2481 2555 2623 2620 2554 2621 2681
8 2559 2484 2558 2625 2623 2555 2622 2683
8 2560 2485 2559 2626 2624 2556 2623 2684
8 2562 2488 2561 2627 2626 2559 2625 2685
8 2690 2629 2564 2630 2650 2584 2512 2585
8 2586 2513 2585 2651 2632 2565 2630 2691
8 2630 2564 2631 2692 2565 2493 2566 2633
8 2632 2565 2633 2694 2567 2494 2568 2635
8 2633 2566 2634 2695 2568 2495 2569 2636
8 2635 2568 2636 2697 2570 2497 2571 2638
8 2636 2569 2637 2698 2571 2498 2572 2639
8 2638 2571 2639 2700 2573 2500 2574 2641
8 2639 2572 2640 2701 2574 2501 2575 2642
8 2641 2574 2642 2702 2576 2503 2577 2643
8 2597 2528 2596 2659 2645 2579 2644 2704
8 2645 2579 2644 2704 2593 2522 2590 2655
8 2660 2597 2645 2705 2598 2529 2580 2646
8 2646 2580 2645 2705 2595 2525 2593 2657
8 2650 2584 2512 2585 2707 2647 2582 2648
8 2648 2582 2517 2589 2707 2647 2587 2653
8 2649 2583 2648 2708 2586 2513 2585 2651
8 2649 2583 2516 2588 2708 2648 2589 2654
8 2655 2590 2652 2710 2592 2521 2587 2653
8 2654 2589 2520 2591 2711 2653 2592 2656
8 2657 2593 2655 2712 2594 2523 2592 2656
8 2602 2536 2603 2663 2659 2596 2658 2714
8 2662 2602 2659 2715 2600 2534 2597 2660
8 2662 2602 2534 2600 2717 2663 2601 2661
8 2661 2601 2538 2604 2717 2663 2605 2665
8 2666 2606 2664 2718 2605 2539 2603 2663
8 2668 2608 2666 2720 2607 2541 2605 2665
8 2608 2542 2609 2669 2666 2606 2667 2721
8 2610 2544 2611 2671 2668 2608 2669 2723
8 2611 2545 2612 2672 2669 2609 2670 2724
8 2613 2547 2614 2674 2671 2611 2672 2726
8 2614 2548 2615 2675 2672 2612 2673 2727
8 2616 2550 2617 2677 2674 2614 2675 2729
8 2617 2551 2618 2678 2675 2615 2676 2730
8 2619 2553 2620 2680 2677 2617 2678 2732
8 2620 2554 2621 2681 2678 2618 2679 2733
8 2624 2556 2623 2684 2680 2620 2681 2735
8 2681 2621 2555 2623 2736 2682 2622 2683
8 2626 2559 2625 2685 2684 2623 2683 2737
8 2688 2628 2584 2650 2740 2686 2647 2707
8 2688 2628 2687 2742 2650 2584 2629 2690
8 2690 2629 2689 2745 2630 2564 2631 2692
8 2746 2690 2630 2691 2709 2650 2585 2651
8 2691 2630 2692 2747 2632 2565 2633 2694
8 2692 2631 2693 2748 2633 2566 2634 2695
8 2694 2633 2695 2750 2635 2568 2636 2697
8 2695 2634 2696 2751 2636 2569 2637 2698
8 2697 2636 2698 2753 2638 2571 2639 2700
8 2698 2637 2699 2754 2639 2572 2640 2701
8 2700 2639 2701 2755 2641 2574 2642 2702
8 2659 2596 2658 2714 2704 2644 2703 2757
8 2704 2644 2703 2757 2655 2590 2652 2710
8 2660 2597 2659 2715 2705 2645 2704 2758
8 2705 2645 2704 2758 2657 2593 2655 2712
8 2759 2706 2647 2707 2710 2652 2587 2653
8 2709 2650 2585 2651 2760 2707 2648 2708
8 2708 2648 2589 2654 2760 2707 2653 2711
8 2712 2655 2710 2761 2656 2592 2653 2711
8 2763 2713 2658 2714 2718 2664 2603 2663
8 2662 2602 2663 2717 2715 2659 2714 2764
8 2720 2666 2718 2767 2665 2605 2663 2717
8 2768 2719 2664 2718 2721 2667 2606 2666
8 2668 2608 2669 2723 2720 2666 2721 2770
8 2669 2609 2670 2724 2721 2667 2722 2771
8 2671 2611 2672 2726 2723 2669 2724 2773
8 2672 2612 2673 2727 2724 2670 2725 2774
8 2674 2614 2675 2729 2726 2672 2727 2776
8 2675 2615 2676 2730 2727 2673 2728 2777
8 2677 2617 2678 2732 2729 2675 2730 2779
8 2678 2618 2679 2733 2730 2676 2731 2780
8 2680 2620 2681 2735 2732 2678 2733 2782
8 2733 2679 2621 2681 2783 2734 2682 2736
8 2735 2681 2623 2684 2784 2736 2683 2737
8 2740 2686 2647 2707 2787 2738 2706 2759
8 2688 2628 2686 2740 2742 2687 2739 2789
8 2743 2688 2650 2709 2790 2740 2707 2760
8 2742 2687 2741 2792 2690 2629 2689 2745
8 2743 2688 2742 2793 2709 2650 2690 2746
8 2745 2689 2744 2795 2692 2631 2693 2748
8 2746 2690 2745 2796 2691 2630 2692 2747
8 2747 2692 2748 2797 2694 2633 2695 2750
8 2748 2693 2749 2798 2695 2634 2696 2751
8 2750 2695 2751 2800 2697 2636 2698 2753
8 2751 2696 2752 2801 2698 2637 2699 2754
8 2753 2698 2754 2802 2700 2639 2701 2755
8 2763 2713 2756 2804 2714 2658 2703 2757
8 2759 2706 2652 2710 2804 2756 2703 2757
8 2715 2659 2714 2764 2758 2704 2757 2805
8 2758 2704 2757 2805 2712 2655 2710 2761
8 2806 2759 2707 2760 2761 2710 2653 2711
8 2765 2716 2762 2808 2718 2664 2713 2763
8 2809 2763 2714 2764 2767 2718 2663 2717
8 2765 2716 2664 2718 2811 2766 2719 2768
8 2813 2768 2718 2767 2770 2721 2666 2720
8 2814 2769 2719 2768 2771 2722 2667 2721
8 2723 2669 2724 2773 2770 2721 2771 2816
8 2724 2670 2725 2774 2771 2722 2772 2817
8 2726 2672 2727 2776 2773 2724 2774 2819
8 2727 2673 2728 2777 2774 2725 2775 2820
8 2729 2675 2730 2779 2776 2727 2777 2822
8 2730 2676 2731 2780 2777 2728 2778 2823
8 2732 2678 2733 2782 2779 2730 2780 2825
8 2780 2731 2679 2733 2826 2781 2734 2783
8 2782 2733 2681 2735 2827 2783 2736 2784
8 2830 2785 2738 2787 2804 2756 2706 2759
8 2789 2739 2686 2740 2832 2786 2738 2787
8 2790 2740 2707 2760 2833 2787 2759 2806
8 2742 2687 2739 2789 2792 2741 2788 2835
8 2743 2688 2740 2790 2793 2742 2789 2836
8 2792 2741 2791 2838 2745 2689 2744 2795
8 2793 2742 2792 2839 2746 2690 2745 2796
8 2795 2744 2794 2841 2748 2693 2749 2798
8 2796 2745 2795 2842 2747 2692 2748 2797
8 2797 2748 2798 2843 2750 2695 2751 2800
8 2798 2749 2799 2844 2751 2696 2752 2801
8 2800 2751 2801 2845 2753 2698 2754 2802
8 2808 2762 2803 2847 2763 2713 2756 2804
8 2809 2763 2804 2848 2764 2714 2757 2805
8 2806 2759 2710 2761 2848 2804 2757 2805
8 2765 2716 2766 2811 2808 2762 2807 2850
8 2810 2765 2808 2851 2767 2718 2763 2809
8 2810 2765 2718 2767 2852 2811 2768 2813
8 2811 2766 2719 2768 2853 2812 2769 2814
8 2855 2814 2768 2813 2816 2771 2721 2770
8 2856 2815 2769 2814 2817 2772 2722 2771
8 2773 2724 2774 2819 2816 2771 2817 2858
8 2774 2725 2775 2820 2817 2772 2818 2859
8 2776 2727 2777 2822 2819 2774 2820 2861
8 2777 2728 2778 2823 2820 2775 2821 2862
8 2779 2730 2780 2825 2822 2777 2823 2864
8 2823 2778 2731 2780 2865 2824 2781 2826
8 2825 2780 2733 2782 2866 2826 2783 2827
8 2869 2828 2785 2830 2847 2803 2756 2804
8 2871 2829 2786 2832 2830 2785 2738 2787
8 2872 2830 2787 2833 2848 2804 2759 2806
8 2789 2739 2786 2832 2835 2788 2831 2874
8 2836 2789 2740 2790 2875 2832 2787 2833
8 2792 2741 2788 2835 2838 2791 2834 2877
8 2793 2742 2789 2836 2839 2792 2835 2878
8 2838 2791 2837 2880 2795 2744 2794 2841
8 2839 2792 2838 2881 2796 2745 2795 2842
8 2841 2794 2840 2882 2798 2749 2799 2844
8 2842 2795 2841 2883 2797 2748 2798 2843
8 2843 2798 2844 2884 2800 2751 2801 2845
8 2886 2846 2803 2847 2850 2807 2762 2808
8 2851 2808 2847 2887 2809 2763 2804 2848
8 2850 2807 2766 2811 2889 2849 2812 2853
8 2810 2765 2811 2852 2851 2808 2850 2890
8 2852 2811 2768 2813 2891 2853 2814 2855
8 2853 2812 2769 2814 2892 2854 2815 2856
8 2894 2856 2814 2855 2858 2817 2771 2816
8 2817 2772 2818 2859 2856 2815 2857 2895
8 2819 2774 2820 2861 2858 2817 2859 2897
8 2820 2775 2821 2862 2859 2818 2860 2898
8 2822 2777 2823 2864 2861 2820 2862 2900
8 2823 2778 2824 2865 2862 2821 2863 2901
8 2864 2823 2780 2825 2902 2865 2826 2866
8 2904 2867 2828 2869 2886 2846 2803 2847
8 2869 2828 2868 2906 2830 2785 2829 2871
8 2907 2869 2830 2872 2887 2847 2804 2848
8 2871 2829 2870 2909 2832 2786 2831 2874
8 2910 2871 2832 2875 2872 2830 2787 2833
8 2835 2788 2831 2874 2877 2834 2873 2912
8 2836 2789 2832 2875 2878 2835 2874 2913
8 2877 2834 2876 2915 2838 2791 2837 2880
8 2839 2792 2835 2878 2881 2838 2877 2916
8 2880 2837 2879 2917 2841 2794 2840 2882
8 2881 2838 2880 2918 2842 2795 2841 2883
8 2883 2841 2882 2919 2843 2798 2844 2884
8 2921 2885 2846 2886 2889 2849 2807 2850
8 2922 2886 2847 2887 2890 2850 2808 2851
8 2889 2849 2812 2853 2924 2888 2854 2892
8 2890 2850 2811 2852 2925 2889 2853 2891
8 2891 2853 2814 2855 2926 2892 2856 2894
8 2892 2854 2815 2856 2927 2893 2857 2895
8 2858 2817 2859 2897 2894 2856 2895 2929
8 2859 2818 2860 2898 2895 2857 2896 2930
8 2861 2820 2862 2900 2897 2859 2898 2932
8 2862 2821 2863 2901 2898 2860 2899 2933
8 2864 2823 2865 2902 2900 2862 2901 2934
8 2904 2867 2846 2886 2936 2903 2885 2921
8 2904 2867 2903 2936 2869 2828 2868 2906
8 2937 2904 2869 2907 2922 2886 2847 2887
8 2906 2868 2905 2939 2871 2829 2870 2909
8 2907 2869 2906 2940 2872 2830 2871 2910
8 2909 2870 2908 2942 2874 2831 2873 2912
8 2910 2871 2909 2943 2875 2832 2874 2913
8 2912 2873 2911 2945 2877 2834 2876 2915
8 2878 2835 2874 2913 2916 2877 2912 2946
8 2915 2876 2914 2947 2880 2837 2879 2917
8 2916 2877 2915 2948 2881 2838 2880 2918
8 2918 2880 2917 2949 2883 2841 2882 2919
8 2921 2885 2849 2889 2951 2920 2888 2924
8 2952 2921 2886 2922 2925 2889 2850 2890
8 2924 2888 2854 2892 2954 2923 2893 2927
8 2925 2889 2853 2891 2955 2924 2892 2926
8 2926 2892 2856 2894 2956 2927 2895 2929
8 2895 2857 2896 2930 2927 2893 2928 2957
8 2897 2859 2898 2932 2929 2895 2930 2959
8 2898 2860 2899 2933 2930 2896 2931 2960
8 2900 2862 2901 2934 2932 2898 2933 2961
8 2936 2903 2885 2921 2963 2935 2920 2951
8 2936 2903 2935 2963 2906 2868 2905 2939
8 2937 2904 2886 2922 2964 2936 2921 2952
8 2937 2904 2936 2964 2907 2869 2906 2940
8 2939 2905 2938 2966 2909 2870 2908 2942
8 2940 2906 2939 2967 2910 2871 2909 2943
8 2942 2908 2941 2969 2912 2873 2911 2945
8 2943 2909 2942 2970 2913 2874 2912 2946
8 2945 2911 2944 2971 2915 2876 2914 2947
8 2946 2912 2945 2972 2916 2877 2915 2948
8 2948 2915 2947 2973 2918 2880 2917 2949
8 2951 2920 2888 2924 2975 2950 2923 2954
8 2952 2921 2889 2925 2976 2951 2924 2955
8 2927 2893 2928 2957 2954 2923 2953 2978
8 2955 2924 2892 2926 2979 2954 2927 2956
8 2929 2895 2930 2959 2956 2927 2957 2980
8 2930 2896 2931 2960 2957 2928 2958 2981
8 2932 2898 2933 2961 2959 2930 2960 2982
8 2951 2920 2950 2975 2963 2935 2962 2984
8 2963 2935 2962 2984 2939 2905 2938 2966
8 2964 2936 2921 2952 2985 2963 2951 2976
8 2964 2936 2963 2985 2940 2906 2939 2967
8 2966 2938 2965 2987 2942 2908 2941 2969
8 2967 2939 2966 2988 2943 2909 2942 2970
8 2969 2941 2968 2989 2945 2911 2944 2971
8 2970 2942 2969 2990 2946 2912 2945 2972
8 2972 2945 2971 2991 2948 2915 2947 2973
8 2954 2923 2953 2978 2975 2950 2974 2993
8 2976 2951 2924 2955 2994 2975 2954 2979
8 2957 2928 2958 2981 2978 2953 2977 2995
8 2956 2927 2957 2980 2979 2954 2978 2996
8 2959 2930 2960 2982 2980 2957 2981 2997
8 2984 2962 2983 2999 2966 2938 2965 2987
8 2975 2950 2974 2993 2984 2962 2983 2999
8 2976 2951 2975 2994 2985 2963 2984 3000
8 2985 2963 2984 3000 2967 2939 2966 2988
8 2987 2965 2986 3001 2969 2941 2968 2989
8 2988 2966 2987 3002 2970 2942 2969 2990
8 2990 2969 2989 3003 2972 2945 2971 2991
8 2978 2953 2977 2995 2993 2974 2992 3004
8 2979 2954 2978 2996 2994 2975 2993 3005
8 2980 2957 2981 2997 2996 2978 2995 3006
8 2974 2993 2999 2983 2992 3004 3007 2998
8 2983 2999 2987 2965 2998 3007 3001 2986
8 3000 2984 2999 3008 2988 2966 2987 3002
8 2994 2975 2993 3005 3000 2984 2999 3008
8 3002 2987 3001 3009 2990 2969 2989 3003
8 2996 2978 2995 3006 3005 2993 3004 3010
8 3005 2993 3004 3010 3008 2999 3007 3011
8 3008 2999 3007 3011 3002 2987 3001 3009

CELL_TYPES 1910
12
12
12
12
12
12
12
12
12
12
12
12
12
12
12
12
12
12
12
12
12
12
12
12
12
12
12
12
12
12
12
12
12
12
12
12
12
12
12
12
12
12
12
12
12
12
12
12
12
12
12
12
12
12
12
12
12
12
12
12
12
12
12
12
12
12
12
12
12
12
12
12
12
12
12
12
12
12
12
12
12
12
12
12
12
12
12
12
12
12
12
12
12
12
12
12
12
12
12
12
12
12
12
12
12
12
12
12
12
12
12
12
12
12
12
12
12
12
12
12
12
12
12
12
12
12
12
12
12
12
12
12
12
12
12
12
12
12
12
12
12
12
12
12
12
12
12
12
12
12
12
12
12
12
12
12
12
12
12
12
12
12
12
12
12
12
12
12
12
12
12
12
12
12
12
12
12
12
12
12
12
12
12
12
12
12
12
12
12
12
12
12
12
12
12
12
12
12
12
12
12
12
12
12
12
12
12
12
12
12
12
12
12
12
12
12
12
12
12
12
12
12
12
12
12
12
12
12
12
12
12
12
12
12
12
12
12
12
12
12
12
12
12
12
12
12
12
12
12
12
12
12
12
12
12
12
12
12
12
12
12
12
12
12
12
12
12
12
12
12
12
12
12
12
12
12
12
12
12
12
12
12
12
12
12
12
12
12
12
12
12
12
12
12
12
12
12
12
12
12
12
12
12
12
12
12
12
12
12
12
12
12
12
12
12
12
12
12
12
12
12
12
12
12
12
12
12
12
12
12
12
12
12
12
12
12
12
12
12
12
12
12
12
12
12
12
12
12
12
12
12
12
12
12
12
12
12
12
12
12
12
12
12
12
12
12
12
12
12
12
12
12
12
12
12
12
12
12
12
12
12
12
12
12
12
12
12
12
12
12
12
12
12
12
12
12
12
12
12
12
12
12
12
12
12
12
12
12
12
12
12
12
12
12
12
12
12
12
12
12
12
12
12
12
12
12
12
12
12
12
12
12
12
12
12
12
12
12
12
12
12
12
12
12
12
12
12
12
12
12
12
12
12
12
12
12
12
12
12
12
12
12
12
12
12
12
12
12
12
12
12
12
12
12
12
12
12
12
12
12
12
12
12
12
12
12
12
12
12
12
12
12
12
12
12
12
12
12
12
12
12
12
12
12
12
12
12
12
12
12
12
12
12
12
12
12
12
12
12
12
12
12
12
12
12
12
12
12
12
12
12
12
12
12
12
12
12
12
12
12
12
12
12
12
12
12
12
12
12
12
12
12
12
12
12
12
12
12
12
12
12
12
12
12
12
12
12
12
12
12
12
12
12
12
12
12
12
12
12
12
12
12
12
12
12
12
12
12
12
12
12
12
12
12
12
12
12
12
12
12
12
12
12
12
12
12
12
12
12
12
12
12
12
12
12
12
12
12
12
12
12
12
12
12
12
12
12
12
12
12
12
12
12
12
12
12
12
12
12
12
12
12
12
12
12
12
12
12
12
12
12
12
12
12
12
12
12
12
12
12
12
12
12
12
12
12
12
12
12
12
12
12
12
12
12
12
12
12
12
12
12
12
12
12
12
12
12
12
12
12
12
12
12
12
12
12
12
12
12
12
12
12
12
12
12
12
12
12
12
12
12
12
12
12
12
12
12
12
12
12
12
12
12
12
12
12
12
12
12
12
12
12
12
12
12
12
12
12
12
12
12
12
12
12
12
12
12
12
12
12
12
12
12
12
12
12
12
12
12
12
12
12
12
12
12
12
12
12
12
12
12
12
12
12
12
12
12
12
12
12
12
12
12
12
12
12
12
12
12
12
12
12
12
12
12
12
12
12
12
12
12
12
12
12
12
12
12
12
12
12
12
12
12
12
12
12
12
12
12
12
12
12
12
12
12
12
12
12
12
12
12
12
12
12
12
12
12
12
12
12
12
12
12
12
12
12
12
12
12
12
12
12
12
12
12
12
12
12
12
12
12
12
12
12
12
12
12
12
12
12
12
12
12
12
12
12
12
12
12
12
12
12
12
12
12
12
12
12
12
12
12
12
12
12
12
12
12
12
12
12
12
12
12
12
12
12
12
12
12
12
12
12
12
12
12
12
12
12
12
12
12
12
12
12
12
12
12
12
12
12
12
12
12
12
12
12
12
12
12
12
12
12
12
12
12
12
12
12
12
12
12
12
12
12
12
12
12
12
12
12
12
12
12
12
12
12
12
12
12
12
12
12
12
12
12
12
12
12
12
12
12
12
12
12
12
12
12
12
12
12
12
12
12
12
12
12
12
12
12
12
12
12
12
12
12
12
12
12
12
12
12
12
12
12
12
12
12
12
12
12
12
12
12
12
12
12
12
12
12
12
12
12
12
12
12
12
12
12
12
12
12
12
12
12
12
12
12
12
12
12
12
12
12
12
12
12
12
12
12
12
12
12
12
12
12
12
12
12
12
12
12
12
12
12
12
12
12
12
12
12
12
12
12
12
12
12
12
12
12
12
12
12
12
12
12
12
12
12
12
12
12
12
12
12
12
12
12
12
12
12
12
12
12
12
12
12
12
12
12
12
12
12
12
12
12
12
12
12
12
12
12
12
12
12
12
12
12
12
12
12
12
12
12
12
12
12
12
12
12
12
12
12
12
12
12
12
12
12
12
12
12
12
12
12
12
12
12
12
12
12
12
12
12
12
12
12
12
12
12
12
12
12
12
12
12
12
12
12
12
12
12
12
12
12
12
12
12
12
12
12
12
12
12
12
12
12
12
12
12
12
12
12
12
12
12
12
12
12
12
12
12
12
12
12
12
12
12
12
12
12
12
12
12
12
12
12
12
12
12
12
12
12
12
12
12
12
12
12
12
12
12
12
12
12
12
12
12
12
12
12
12
12
12
12
12
12
12
12
12
12
12
12
12
12
12
12
12
12
12
12
12
12
12
12
12
12
12
12
12
12
12
12
12
12
12
12
12
12
12
12
12
12
12
12
12
12
12
12
12
12
12
12
12
12
12
12
12
12
12
12
12
12
12
12
12
12
12
12
12
12
12
12
12
12
12
12
12
12
12
12
12
12
12
12
12
12
12
12
12
12
12
12
12
12
12
12
12
12
12
12
12
12
12
12
12
12
12
12
12
12
12
12
12
12
12
12
12
12
12
12
12
12
12
12
12
12
12
12
12
12
12
12
12
12
12
12
12
12
12
12
12
12
12
12
12
12
12
12
12
12
12
12
12
12
12
12
12
12
12
12
12
12
12
12
12
12
12
12
12
12
12
12
12
12
12
12
12
12
12
12
12
12
12
12
12
12
12
12
12
12
12
12
12
12
12
12
12
12
12
12
12
12
12
12
12
12
12
12
12
12
12
12
12
12
12
12
12
12
12
12
12
12
12
12
12
12
12
12
12
12
12
12
12
12
12
12
12
12
12
12
12
12
12
12
12
12
12
12
12
12
12
12
12
12
12
12
12
12
12
12
12
12
12
12
12
12
12
12
12
12
12
12
12
12
12
12
12
12
12
12
12
12
12
12
12
12
12
12
12
12
12
12
12
12
12
12
12
12
12
12
12
12
12
12
12
12
12
12
12
12
12
12
12
12
12
12
12
12
12
12
12
12
12
12
12
12
12
12
12
12
12
12
12
12
12
12
12
12
12
12
12
12
12
12
12
12
12
12
12
12
12
12
12
12
12
12
12
12
12
12
12
12
12
12
12
12
12
12
12
12
12
12
12
12
12
12
12
12
12
12
12
12
12
12
12
12
12
12
12
12
12
12
12
12
12
12
12
12
12
12
12
12
12
12
12
12
12
12
12
12
12
12
12
12
12
12
12
12
12
12
12
12
12
12
12
12
12
12
12
12
12
12
12
12
12
12
12
12
12
12
12
12
12
12
12
12
12
12
12
12
12
12
12
12
12
12
12
12
12
12
12
12
12
12
12
12
12
12
12
12
12
12
12
12
12
12
12
12
12
12
12
12
12
12
12
12
12
12
12
12
12
12
12
12
12
12
12
12
12
12
12
12
12
12
12
12
12
12
12
12
12
12
12
12
12
12
12
12
12
12
12
12
12
12
12
12
12
12
12
12
12
12
12
12
12
12
12
12
12
12
12
12
12
12
12
12
12
12
12
12
12
12
12
12
12
12
12
12
12
12
12
12
12
12
12
12
12
12
12
12
12
12
12
12
12
12
12
12
12
12
12
12
12
12
12
12
12
12
12
12
12
12
12
12
12
12
12
12
12
12
12
12
12
12
12
12
12
12
12
12
12
12
12
12
12
12
12
12
12
12
12
12
12
12
12
12
12
12
12
12
12
12
12
12
12
12
12
12
12
12
12
12
12
12
12
12
12
12
12
12

POINT_DATA 3012
SCALARS Jp_lamdaP float 4
LOOKUP_TABLE default
1 1 1 1
1 1 1 1
1 1 1 1
1 1 1 1
1 1 1 1
1 1 1 1
0.999945 1 1 0.999945
1 1 1 1
1 1 1 1
1 1 1 1
1 1 1 1
0.999992 1 1 0.999992
0.999996 1 1 0.999996
1 1 1 1
1 1 1 1
1 1 1 1
1 1 1 1
1 1 1 1
0.999945 1 1 0.999945
1 1 1 1
0.999999 1 1 0.999999
1 1 1 1
0.9999 1 1 0.9999
0.999933 1 1 0.999933
1 1 1 1
0.999959 1 1 0.999959
0.999828 1 1 0.999828
1 1 1 1
1 1 1 1
1 1 1 1
1 1 1 1
0.999994 1 1 0.999994
1 1 1 1
1 1 1 1
0.999962 1 1 0.999962
1 1 1 1
0.999985 1 1 0.999985
0.999997 1 1 0.999997
0.999857 1 1 0.999857
1 1 1 1
1 1 1 1
1 1 1 1
1 1 1 1
0.999999 1 1 0.999999
0.999912 1 1 0.999912
1 1 1 1
0.999939 1 1 0.999939
1 1 1 1
1 1 1 1
1 1 1 1
0.999946 1 1 0.999946
0.999998 1 1 0.999998
1 1 1 1
1 1 1 1
1 1 1 1
0.999901 1 1 0.999901
0.99996 1 1 0.99996
0.999933 1 1 0.999933
0.999824 1 1 0.999824
1 1 1 1
0.999998 1 1 0.999998
0.99992 1 1 0.99992
0.999889 1 1 0.999889
0.999917 1 1 0.999917
0.999718 1 1 0.999718
0.999783 1 1 0.999783
1 1 1 1
0.999974 1 1 0.999974
0.99986 1 1 0.99986
0.999665 1 1 0.999665
1 1 1 1
1 1 1 1
1 1 1 1
0.999995 1 1 0.999995
1 1 1 1
1 1 1 1
0.999966 1 1 0.999966
1 1 1 1
0.999987 1 1 0.999987
0.999998 1 1 0.999998
0.999856 1 1 0.999856
1 1 1 1
1 1 1 1
0.999952 1 1 0.999952
0.999975 1 1 0.999975
0.999767 1 1 0.999767
1 1 1 1
0.999842 1 1 0.999842
0.999872 1 1 0.999872
0.999734 1 1 0.999734
1 1 1 1
1 1 1 1
1 1 1 1
1 1 1 1
1 1 1 1
0.999999 1 1 0.999999
0.999917 1 1 0.999917
1 1 1 1
0.999941 1 1 0.999941
1 1 1 1
0.999899 1 1 0.999899
0.99993 1 1 0.99993
0.999623 1 1 0.999623
0.999945 1 1 0.999945
0.999667 1 1 0.999667
0.999997 1 1 0.999997
1 1 1 1
1 1 1 1
1 1 1 1
0.999902 1 1 0.999902
0.999934 1 1 0.999934
0.99996 1 1 0.99996
0.99982 1 1 0.99982
1 1 1 1
0.999999 1 1 0.999999
0.999896 1 1 0.999896
0.99989 1 1 0.99989
1 1 1 1
0.999985 1 1 0.999985
0.999918 1 1 0.999918
0.999707 1 1 0.999707
0.999855 1 1 0.999855
0.99979 1 1 0.99979
0.999665 1 1 0.999665
0.999905 1 1 0.999905
0.999886 1 1 0.999886
0.999649 1 1 0.999649
0.999677 1 1 0.999677
0.999742 1 1 0.999742
0.999559 1 1 0.999559
1 1 1 1
0.999643 1 1 0.999643
1 1 1 1
0.999866 1 1 0.999866
0.999687 1 1 0.999687
0.9996 1 1 0.9996
1 1 1 1
0.999909 1 1 0.999909
1 1 1 1
1 1 1 1
0.99997 1 1 0.99997
1 1 1 1
0.999999 1 1 0.999999
0.999989 1 1 0.999989
0.999856 1 1 0.999856
1 1 1 1
1 1 1 1
0.999955 1 1 0.999955
0.999978 1 1 0.999978
0.999767 1 1 0.999767
1 1 1 1
0.999842 1 1 0.999842
0.999872 1 1 0.999872
0.99973 1 1 0.99973
1 1 1 1
1 1 1 1
0.999918 1 1 0.999918
0.999725 1 1 0.999725
0.999811 1 1 0.999811
0.999629 1 1 0.999629
0.999892 1 1 0.999892
0.999717 1 1 0.999717
0.999742 1 1 0.999742
0.99968 1 1 0.99968
1 1 1 1
1 1 1 1
1 1 1 1
1 1 1 1
1 1 1 1
1 1 1 1
1 1 1 1
0.999942 1 1 0.999942
0.999918 1 1 0.999918
1 1 1 1
1 1 1 1
0.9999 1 1 0.9999
0.999932 1 1 0.999932
0.999623 1 1 0.999623
0.999947 1 1 0.999947
0.999667 1 1 0.999667
0.999895 1 1 0.999895
0.9996 1 1 0.9996
0.999646 1 1 0.999646
0.99949 1 1 0.99949
0.999692 1 1 0.999692
0.999538 1 1 0.999538
1 1 1 1
0.999999 1 1 0.999999
0.999872 1 1 0.999872
0.99989 1 1 0.99989
1 1 1 1
0.999996 1 1 0.999996
0.99992 1 1 0.99992
0.999697 1 1 0.999697
0.999797 1 1 0.999797
0.999851 1 1 0.999851
0.999666 1 1 0.999666
0.999904 1 1 0.999904
0.999886 1 1 0.999886
0.999628 1 1 0.999628
0.999683 1 1 0.999683
1 1 1 1
0.999999 1 1 0.999999
0.999875 1 1 0.999875
0.999743 1 1 0.999743
0.999547 1 1 0.999547
0.999685 1 1 0.999685
0.999648 1 1 0.999648
0.999601 1 1 0.999601
1 1 1 1
0.999909 1 1 0.999909
0.999606 1 1 0.999606
0.999664 1 1 0.999664
0.999506 1 1 0.999506
0.999506 1 1 0.999506
0.999614 1 1 0.999614
0.999499 1 1 0.999499
1 1 1 1
0.999583 1 1 0.999583
0.999881 1 1 0.999881
0.999718 1 1 0.999718
0.99962 1 1 0.99962
0.999583 1 1 0.999583
0.999895 1 1 0.999895
0.999934 1 1 0.999934
0.999753 1 1 0.999753
0.999957 1 1 0.999957
1 1 1 1
1 1 1 1
0.999982 1 1 0.999982
0.999768 1 1 0.999768
1 1 1 1
0.999873 1 1 0.999873
0.999842 1 1 0.999842
0.999726 1 1 0.999726
1 1 1 1
1 1 1 1
0.999918 1 1 0.999918
0.999725 1 1 0.999725
0.999812 1 1 0.999812
0.999629 1 1 0.999629
0.999892 1 1 0.999892
0.999721 1 1 0.999721
0.999741 1 1 0.999741
0.999674 1 1 0.999674
1 1 1 1
0.999906 1 1 0.999906
0.999935 1 1 0.999935
0.999773 1 1 0.999773
0.999589 1 1 0.999589
0.999683 1 1 0.999683
0.999561 1 1 0.999561
0.999758 1 1 0.999758
0.999664 1 1 0.999664
0.999662 1 1 0.999662
0.999634 1 1 0.999634
0.99998 1 1 0.99998
1 1 1 1
1 1 1 1
1 1 1 1
1 1 1 1
1 1 1 1
1 1 1 1
1 1 1 1
1 1 1 1
0.999949 1 1 0.999949
0.999933 1 1 0.999933
0.999668 1 1 0.999668
0.999623 1 1 0.999623
0.999901 1 1 0.999901
1 1 1 1
0.999894 1 1 0.999894
0.9996 1 1 0.9996
0.999646 1 1 0.999646
0.99949 1 1 0.99949
0.999693 1 1 0.999693
0.999538 1 1 0.999538
0.999594 1 1 0.999594
0.999467 1 1 0.999467
0.999514 1 1 0.999514
0.999449 1 1 0.999449
0.999563 1 1 0.999563
0.999492 1 1 0.999492
0.999902 1 1 0.999902
0.999886 1 1 0.999886
0.999607 1 1 0.999607
0.99969 1 1 0.99969
1 1 1 1
0.999999 1 1 0.999999
0.999884 1 1 0.999884
0.999744 1 1 0.999744
0.999535 1 1 0.999535
0.999654 1 1 0.999654
0.999683 1 1 0.999683
0.999602 1 1 0.999602
1 1 1 1
0.99991 1 1 0.99991
0.999598 1 1 0.999598
0.999664 1 1 0.999664
0.999501 1 1 0.999501
0.999519 1 1 0.999519
1 1 1 1
0.99988 1 1 0.99988
0.999726 1 1 0.999726
0.999614 1 1 0.999614
0.999496 1 1 0.999496
0.999611 1 1 0.999611
0.999583 1 1 0.999583
0.999582 1 1 0.999582
0.999895 1 1 0.999895
0.999749 1 1 0.999749
0.999933 1 1 0.999933
0.999491 1 1 0.999491
0.999508 1 1 0.999508
0.999438 1 1 0.999438
0.999457 1 1 0.999457
0.999553 1 1 0.999553
0.999501 1 1 0.999501
0.999888 1 1 0.999888
0.999574 1 1 0.999574
0.999756 1 1 0.999756
0.999639 1 1 0.999639
0.999565 1 1 0.999565
0.999603 1 1 0.999603
0.999959 1 1 0.999959
0.999758 1 1 0.999758
0.999748 1 1 0.999748
0.99969 1 1 0.99969
0.999726 1 1 0.999726
1 1 1 1
1 1 1 1
0.999918 1 1 0.999918
0.999813 1 1 0.999813
0.999629 1 1 0.999629
0.999892 1 1 0.999892
0.99974 1 1 0.99974
0.999726 1 1 0.999726
0.999668 1 1 0.999668
1 1 1 1
0.999905 1 1 0.999905
0.999935 1 1 0.999935
0.999772 1 1 0.999772
0.999589 1 1 0.999589
0.999684 1 1 0.999684
0.999561 1 1 0.999561
0.999758 1 1 0.999758
0.999669 1 1 0.999669
0.99966 1 1 0.99966
0.999647 1 1 0.999647
1 1 1 1
0.999952 1 1 0.999952
0.999768 1 1 0.999768
0.999784 1 1 0.999784
0.999687 1 1 0.999687
0.99953 1 1 0.99953
0.999619 1 1 0.999619
0.999536 1 1 0.999536
0.999671 1 1 0.999671
0.999629 1 1 0.999629
0.999579 1 1 0.999579
0.999973 1 1 0.999973
0.999857 1 1 0.999857
0.999986 1 1 0.999986
0.999982 1 1 0.999982
1 1 1 1
1 1 1 1
1 1 1 1
1 1 1 1
1 1 1 1
1 1 1 1
1 1 1 1
1 1 1 1
1 1 1 1
1 1 1 1
1 1 1 1
0.999693 1 1 0.999693
0.999646 1 1 0.999646
0.999538 1 1 0.999538
0.999489 1 1 0.999489
0.9996 1 1 0.9996
0.999894 1 1 0.999894
0.999594 1 1 0.999594
0.999467 1 1 0.999467
0.999514 1 1 0.999514
0.999448 1 1 0.999448
0.999562 1 1 0.999562
0.999493 1 1 0.999493
0.99946 1 1 0.99946
0.999431 1 1 0.999431
0.999467 1 1 0.999467
0.99944 1 1 0.99944
0.999514 1 1 0.999514
0.99951 1 1 0.99951
0.999591 1 1 0.999591
0.999664 1 1 0.999664
0.999497 1 1 0.999497
0.999532 1 1 0.999532
1 1 1 1
0.99988 1 1 0.99988
0.999734 1 1 0.999734
0.999615 1 1 0.999615
0.999493 1 1 0.999493
0.999584 1 1 0.999584
0.999602 1 1 0.999602
0.999581 1 1 0.999581
0.999896 1 1 0.999896
0.999746 1 1 0.999746
0.999933 1 1 0.999933
0.999481 1 1 0.999481
0.999507 1 1 0.999507
0.999431 1 1 0.999431
0.99946 1 1 0.99946
0.999889 1 1 0.999889
0.999756 1 1 0.999756
0.999648 1 1 0.999648
0.999557 1 1 0.999557
0.999506 1 1 0.999506
0.999557 1 1 0.999557
0.999574 1 1 0.999574
0.999607 1 1 0.999607
0.999759 1 1 0.999759
0.999682 1 1 0.999682
0.999957 1 1 0.999957
0.999751 1 1 0.999751
0.999421 1 1 0.999421
0.999437 1 1 0.999437
0.999401 1 1 0.999401
0.999451 1 1 0.999451
0.999556 1 1 0.999556
0.999526 1 1 0.999526
0.999763 1 1 0.999763
0.999614 1 1 0.999614
0.999681 1 1 0.999681
0.999576 1 1 0.999576
0.999529 1 1 0.999529
0.999609 1 1 0.999609
0.999972 1 1 0.999972
0.999772 1 1 0.999772
0.999696 1 1 0.999696
0.999668 1 1 0.999668
0.999656 1 1 0.999656
1 1 1 1
0.999588 1 1 0.999588
0.999936 1 1 0.999936
0.999905 1 1 0.999905
0.999771 1 1 0.999771
0.999685 1 1 0.999685
0.999561 1 1 0.999561
0.999758 1 1 0.999758
0.999657 1 1 0.999657
0.999675 1 1 0.999675
0.999659 1 1 0.999659
1 1 1 1
0.999953 1 1 0.999953
0.999768 1 1 0.999768
0.999783 1 1 0.999783
0.999684 1 1 0.999684
0.999529 1 1 0.999529
0.999619 1 1 0.999619
0.999533 1 1 0.999533
0.999672 1 1 0.999672
0.999632 1 1 0.999632
0.999585 1 1 0.999585
0.999965 1 1 0.999965
0.9998 1 1 0.9998
0.999682 1 1 0.999682
0.999691 1 1 0.999691
0.999648 1 1 0.999648
0.999517 1 1 0.999517
0.999586 1 1 0.999586
0.999559 1 1 0.999559
0.999596 1 1 0.999596
0.999538 1 1 0.999538
0.999975 1 1 0.999975
0.999821 1 1 0.999821
0.999848 1 1 0.999848
0.999762 1 1 0.999762
0.999867 1 1 0.999867
0.99999 1 1 0.99999
0.999987 1 1 0.999987
1 1 1 1
0.999984 1 1 0.999984
1 1 1 1
1 1 1 1
1 1 1 1
1 1 1 1
1 1 1 1
1 1 1 1
1 1 1 1
1 1 1 1
1 1 1 1
1 1 1 1
1 1 1 1
0.999562 1 1 0.999562
0.999514 1 1 0.999514
0.999493 1 1 0.999493
0.999446 1 1 0.999446
0.999468 1 1 0.999468
0.999594 1 1 0.999594
0.999461 1 1 0.999461
0.999428 1 1 0.999428
0.999467 1 1 0.999467
0.999439 1 1 0.999439
0.999513 1 1 0.999513
0.99951 1 1 0.99951
0.999417 1 1 0.999417
0.999422 1 1 0.999422
0.999465 1 1 0.999465
0.999431 1 1 0.999431
0.999519 1 1 0.999519
0.999532 1 1 0.999532
0.999472 1 1 0.999472
0.999507 1 1 0.999507
0.999425 1 1 0.999425
0.999462 1 1 0.999462
0.999889 1 1 0.999889
0.999755 1 1 0.999755
0.999657 1 1 0.999657
0.99956 1 1 0.99956
0.99951 1 1 0.99951
0.999575 1 1 0.999575
0.999549 1 1 0.999549
0.999611 1 1 0.999611
0.99976 1 1 0.99976
0.999675 1 1 0.999675
0.999955 1 1 0.999955
0.999754 1 1 0.999754
0.999422 1 1 0.999422
0.999439 1 1 0.999439
0.999398 1 1 0.999398
0.999452 1 1 0.999452
0.999764 1 1 0.999764
0.999688 1 1 0.999688
0.999575 1 1 0.999575
0.999552 1 1 0.999552
0.999543 1 1 0.999543
0.999525 1 1 0.999525
0.999615 1 1 0.999615
0.999622 1 1 0.999622
0.999696 1 1 0.999696
0.999654 1 1 0.999654
0.999666 1 1 0.999666
0.999959 1 1 0.999959
0.999776 1 1 0.999776
0.999395 1 1 0.999395
0.999389 1 1 0.999389
0.999474 1 1 0.999474
0.999586 1 1 0.999586
0.999705 1 1 0.999705
0.999657 1 1 0.999657
0.99963 1 1 0.99963
0.999496 1 1 0.999496
0.9995 1 1 0.9995
0.999959 1 1 0.999959
0.999822 1 1 0.999822
0.999684 1 1 0.999684
0.999671 1 1 0.999671
0.999606 1 1 0.999606
0.999629 1 1 0.999629
1 1 1 1
0.999954 1 1 0.999954
0.999528 1 1 0.999528
0.999783 1 1 0.999783
0.999768 1 1 0.999768
0.999682 1 1 0.999682
0.999619 1 1 0.999619
0.999531 1 1 0.999531
0.999673 1 1 0.999673
0.999592 1 1 0.999592
0.999636 1 1 0.999636
0.999966 1 1 0.999966
0.9998 1 1 0.9998
0.999687 1 1 0.999687
0.99969 1 1 0.99969
0.999643 1 1 0.999643
0.999515 1 1 0.999515
0.999584 1 1 0.999584
0.999562 1 1 0.999562
0.999591 1 1 0.999591
0.999528 1 1 0.999528
0.999818 1 1 0.999818
0.999686 1 1 0.999686
0.999626 1 1 0.999626
0.999627 1 1 0.999627
0.999611 1 1 0.999611
0.999598 1 1 0.999598
0.999524 1 1 0.999524
0.999545 1 1 0.999545
0.999538 1 1 0.999538
0.999436 1 1 0.999436
0.999977 1 1 0.999977
0.999828 1 1 0.999828
0.999717 1 1 0.999717
0.999839 1 1 0.999839
0.999867 1 1 0.999867
0.999749 1 1 0.999749
0.999679 1 1 0.999679
0.999745 1 1 0.999745
0.999875 1 1 0.999875
0.999992 1 1 0.999992
0.999991 1 1 0.999991
1 1 1 1
0.999988 1 1 0.999988
1 1 1 1
1 1 1 1
1 1 1 1
1 1 1 1
1 1 1 1
1 1 1 1
1 1 1 1
1 1 1 1
1 1 1 1
1 1 1 1
1 1 1 1
0.999512 1 1 0.999512
0.999467 1 1 0.999467
0.999511 1 1 0.999511
0.999437 1 1 0.999437
0.999425 1 1 0.999425
0.999461 1 1 0.999461
0.999416 1 1 0.999416
0.999423 1 1 0.999423
0.99946 1 1 0.99946
0.999425 1 1 0.999425
0.999519 1 1 0.999519
0.999544 1 1 0.999544
0.999414 1 1 0.999414
0.999425 1 1 0.999425
0.999464 1 1 0.999464
0.999588 1 1 0.999588
0.999422 1 1 0.999422
0.999441 1 1 0.999441
0.999396 1 1 0.999396
0.999454 1 1 0.999454
0.999764 1 1 0.999764
0.999695 1 1 0.999695
0.999574 1 1 0.999574
0.999549 1 1 0.999549
0.99956 1 1 0.99956
0.999616 1 1 0.999616
0.999521 1 1 0.999521
0.999635 1 1 0.999635
0.999696 1 1 0.999696
0.999651 1 1 0.999651
0.999664 1 1 0.999664
0.999946 1 1 0.999946
0.99978 1 1 0.99978
0.999393 1 1 0.999393
0.999394 1 1 0.999394
0.999481 1 1 0.999481
0.999705 1 1 0.999705
0.999639 1 1 0.999639
0.999494 1 1 0.999494
0.999579 1 1 0.999579
0.999518 1 1 0.999518
0.999654 1 1 0.999654
0.99996 1 1 0.99996
0.99967 1 1 0.99967
0.999635 1 1 0.999635
0.999607 1 1 0.999607
0.999688 1 1 0.999688
0.999812 1 1 0.999812
0.999387 1 1 0.999387
0.999384 1 1 0.999384
0.999523 1 1 0.999523
0.999647 1 1 0.999647
0.999669 1 1 0.999669
0.999561 1 1 0.999561
0.999543 1 1 0.999543
0.999433 1 1 0.999433
0.99997 1 1 0.99997
0.999848 1 1 0.999848
0.999717 1 1 0.999717
0.999589 1 1 0.999589
0.999636 1 1 0.999636
0.999584 1 1 0.999584
0.999968 1 1 0.999968
0.999799 1 1 0.999799
0.999514 1 1 0.999514
0.999689 1 1 0.999689
0.999692 1 1 0.999692
0.999637 1 1 0.999637
0.999581 1 1 0.999581
0.999565 1 1 0.999565
0.999586 1 1 0.999586
0.999518 1 1 0.999518
0.999818 1 1 0.999818
0.99969 1 1 0.99969
0.999634 1 1 0.999634
0.999632 1 1 0.999632
0.999615 1 1 0.999615
0.999602 1 1 0.999602
0.999527 1 1 0.999527
0.999571 1 1 0.999571
0.999531 1 1 0.999531
0.999426 1 1 0.999426
0.9997 1 1 0.9997
0.999608 1 1 0.999608
0.999573 1 1 0.999573
0.999578 1 1 0.999578
0.999595 1 1 0.999595
0.999611 1 1 0.999611
0.99943 1 1 0.99943
0.999899 1 1.0005 0.999404
0.999834 1 1 0.999834
0.999723 1 1 0.999723
0.999655 1 1 0.999655
0.999867 1 1 0.999867
0.999736 1 1 0.999736
0.999875 1 1 0.999875
0.999669 1 1 0.999669
0.99975 1 1 0.99975
0.999615 1 1 0.999615
0.999666 1 1 0.999666
0.999753 1 1 0.999753
0.99988 1 1 0.99988
0.999993 1 1 0.999993
0.999992 1 1 0.999992
1 1 1 1
0.999991 1 1 0.999991
1 1 1 1
1 1 1 1
1 1 1 1
1 1 1 1
1 1 1 1
1 1 1 1
1 1 1 1
1 1 1 1
1 1 1 1
1 1 1 1
1 1 1 1
0.999519 1 1 0.999519
0.999456 1 1 0.999456
0.999556 1 1 0.999556
0.999418 1 1 0.999418
0.999424 1 1 0.999424
0.999414 1 1 0.999414
0.999413 1 1 0.999413
0.999425 1 1 0.999425
0.99947 1 1 0.99947
0.999584 1 1 0.999584
0.999418 1 1 0.999418
0.999448 1 1 0.999448
0.999526 1 1 0.999526
0.999392 1 1 0.999392
0.999399 1 1 0.999399
0.999487 1 1 0.999487
0.999704 1 1 0.999704
0.999648 1 1 0.999648
0.999492 1 1 0.999492
0.999572 1 1 0.999572
0.99965 1 1 0.99965
0.999537 1 1 0.999537
0.999669 1 1 0.999669
0.99964 1 1 0.99964
0.999608 1 1 0.999608
0.99996 1 1 0.99996
0.999692 1 1 0.999692
0.999802 1 1 0.999802
0.999392 1 1 0.999392
0.999382 1 1 0.999382
0.999513 1 1 0.999513
0.999667 1 1 0.999667
0.999556 1 1 0.999556
0.999462 1 1.00002 0.999438
0.999654 1 1 0.999654
0.99956 1 1 0.99956
0.99998 1 1 0.99998
0.999849 1 1 0.999849
0.999636 1 1 0.999636
0.999587 1 1 0.999587
0.999595 1 1 0.999595
0.99971 1 1 0.99971
0.999408 1 1 0.999408
0.999401 1 1 0.999401
0.999536 1 0.999905 0.999631
0.999662 1 1 0.999662
0.999615 1 1 0.999615
1.00055 1 1.00115 0.999405
0.999477 1 1 0.999477
0.999996 1 1 0.999996
0.999902 1 1 0.999902
0.999853 1 1 0.999853
0.999725 1 1 0.999725
0.999617 1 1 0.999617
0.999534 1 1 0.999534
0.999613 1 1 0.999613
0.999556 1 1 0.999556
0.999818 1 1 0.999818
0.999694 1 1 0.999694
0.999605 1 1 0.999605
0.999637 1 1 0.999637
0.999641 1 1 0.999641
0.99962 1 1 0.99962
0.999531 1 1 0.999531
0.999596 1 1 0.999596
0.999525 1 1 0.999525
0.999415 1 1 0.999415
0.999698 1 1 0.999698
0.999615 1 1 0.999615
0.99958 1 1 0.99958
0.999584 1 1 0.999584
0.999594 1 1 0.999594
0.999606 1 1 0.999606
0.999442 1 1 0.999442
0.999726 1 1.00033 0.9994
0.999635 1 1 0.999635
0.99952 1 1 0.99952
0.999563 1 1 0.999563
0.99951 1 1 0.99951
0.99974 1.0003 0.999824 0.999621
0.999411 1 1 0.999411
1.00023 1 1.00089 0.999346
0.99973 1 1 0.99973
0.999655 1 1 0.999655
0.999599 1 1 0.999599
0.999875 1 1 0.999875
0.999756 1 1 0.999756
0.999659 1 1 0.999659
0.99988 1 1 0.99988
0.999752 1 1 0.999752
0.999608 1 1 0.999608
0.999677 1 1 0.999677
0.999569 1 1 0.999569
0.999602 1 1 0.999602
0.999685 1 1 0.999685
0.999768 1 1 0.999768
0.999881 1 1 0.999881
0.999992 1 1 0.999992
0.999993 1 1 0.999993
1 1 1 1
0.999993 1 1 0.999993
1 1 1 1
1 1 1 1
1 1 1 1
1 1 1 1
1 1 1 1
0.999999 1 1 0.999999
1 1 1 1
1 1 1 1
1 1 1 1
1 1 1 1
1 1 1 1
1 1 1 1
0.99958 1 1 0.99958
0.999476 1 1 0.999476
0.999424 1 1 0.999424
0.999413 1 1 0.999413
0.999424 1 1 0.999424
0.999441 1 1 0.999441
0.99954 1 1 0.99954
0.999444 1 1 0.999444
0.999466 1 1 0.999466
0.999543 1 1 0.999543
0.999397 1 1 0.999397
0.999379 1 1 0.999379
0.999502 1 1 0.999502
0.999666 1 1 0.999666
0.999569 1 1 0.999569
0.999444 1 1 0.999444
0.999661 1 1 0.999661
0.999558 1 1 0.999558
0.999636 1 1 0.999636
0.99959 1 1 0.99959
0.9996 1 1 0.9996
0.999989 1 1 0.999989
0.999849 1 1 0.999849
0.999702 1 1 0.999702
0.999407 1 1 0.999407
0.999995 1 1 0.999995
0.999895 1 1 0.999895
0.999403 1 1 0.999403
0.999611 1 1 0.999611
0.999621 1 1 0.999621
0.999501 1 1.00004 0.999463
0.999907 1 1.0005 0.99941
0.999659 1 1 0.999659
0.999872 1 1 0.999872
0.999724 1 1 0.999724
0.999613 1 1 0.999613
0.999571 1 1 0.999571
0.999523 1 1 0.999523
0.999618 1 1 0.999618
0.999413 1 1 0.999413
0.999502 1.00002 1 0.999487
0.999436 1.0001 0.999601 0.99974
0.9995 1 1 0.9995
0.999577 1 1 0.999577
1.00138 1 1.00201 0.999369
0.999901 1 1 0.999901
0.999888 1 1 0.999888
0.999807 1 1 0.999807
0.99973 1 1 0.99973
0.999643 1 1 0.999643
0.999537 1 1 0.999537
0.999475 1 1 0.999475
0.999572 1 1 0.999572
0.999695 1 1 0.999695
0.999623 1 1 0.999623
0.999594 1 1 0.999594
0.999602 1 1 0.999602
0.999589 1 1 0.999589
0.999587 1 1 0.999587
0.999454 1 1 0.999454
0.99958 1 1.00019 0.999395
0.999635 1 1 0.999635
0.999536 1 1 0.999536
0.999563 1 1 0.999563
0.999574 1 1.00008 0.999498
0.999657 1.00016 0.999888 0.999614
0.999414 1 1 0.999414
1.00012 1 1.00078 0.999344
0.999574 1 1 0.999574
1.00265 1.00365 0.999451 0.999555
0.999522 1 1 0.999522
0.999953 1 1.00055 0.999406
0.998132 1.00028 0.998429 0.999422
1.00065 1 1.00135 0.999304
1.00276 1.00662 0.996794 0.999374
0.999655 1 1 0.999655
0.999599 1 1 0.999599
0.99956 1 1 0.99956
0.99988 1 1 0.99988
0.999752 1 1 0.999752
0.999687 1 1 0.999687
0.9996 1 1 0.9996
0.999881 1 1 0.999881
0.999761 1 1 0.999761
0.999567 1 1 0.999567
0.999685 1 1 0.999685
0.999611 1 1 0.999611
0.999547 1 1 0.999547
0.999627 1 1 0.999627
0.999692 1 1 0.999692
0.999752 1 1 0.999752
0.999862 1 1 0.999862
0.999782 1 1 0.999782
0.999862 1 1 0.999862
0.999992 1 1 0.999992
0.999992 1 1 0.999992
1 1 1 1
0.999992 1 1 0.999992
1 1 1 1
1 1 1 1
1 1 1 1
1 1 1 1
1 1 1 1
1 1 1 1
0.999999 1 1 0.999999
1 1 1 1
1 1 1 1
1 1 1 1
1 1 1 1
1 1 1 1
1 1 1 1
0.999554 1 1 0.999554
0.999434 1 1 0.999434
0.999429 1 1 0.999429
0.999444 1 1 0.999444
0.999473 1 1 0.999473
0.999548 1 1 0.999548
0.999485 1 1 0.999485
0.999664 1.00474 0.995308 0.999642
1.00059 1.00125 0.999705 0.999638
0.999926 1 1 0.999926
0.999407 1 1 0.999407
0.999405 1 1 0.999405
0.999592 1 1 0.999592
0.999628 1 1 0.999628
0.999684 1 1.00024 0.999448
0.9995 1 1.00008 0.999416
0.999656 1 1 0.999656
0.999613 1 1 0.999613
0.999586 1 1 0.999586
0.999512 1 1 0.999512
0.999994 1 1 0.999994
0.99962 1 1 0.99962
0.999891 1 1 0.999891
0.999723 1 1 0.999723
0.999888 1 1 0.999888
0.999406 1 1 0.999406
0.999909 1 1 0.999909
0.999887 1 1 0.999887
0.999792 1 1 0.999792
0.999553 1.00006 1 0.99949
0.999225 1.00004 0.999469 0.999713
0.999581 1 1 0.999581
1.00141 1 1.00205 0.999363
0.999645 1 1.00014 0.999505
0.999741 1 1 0.999741
0.999639 1 1 0.999639
0.999566 1 1 0.999566
0.99952 1 1.00003 0.999486
0.999544 1 1 0.999544
0.999463 1.00002 1.00004 0.999396
0.997413 1.00041 0.997374 0.999628
0.999389 1.00009 0.999716 0.999579
1.00065 1 1.00127 0.999384
1.00087 1 1.00136 0.999508
0.999793 1 1 0.999793
0.999757 1 1 0.999757
0.999712 1 1 0.999712
0.999648 1 1 0.999648
0.999576 1 1 0.999576
0.999489 1 1 0.999489
1.00105 1 1.0016 0.999455
0.999635 1 1 0.999635
0.999563 1 1 0.999563
0.999552 1 1 0.999552
0.999475 1 0.999868 0.999607
0.999417 1 1 0.999417
0.999606 1 1.00012 0.999486
0.999956 1 1.00061 0.999342
0.999579 1 1 0.999579
1.00274 1.00379 0.999387 0.999563
0.999523 1 1 0.999523
0.999904 1 1.0005 0.999405
0.998706 1.00051 0.998749 0.999443
1.00127 1 1.00197 0.9993
1.00485 1.00903 0.996456 0.999399
0.999537 1 1 0.999537
0.999869 1.00351 0.996953 0.999412
0.999487 1 1 0.999487
1.00283 1 1.00348 0.999348
1.00039 1 1.00109 0.9993
0.960844 0.963823 0.999454 0.997454
1.00002 1.00115 0.999721 0.999149
0.985395 1.00928 0.976912 0.999407
0.938077 0.950966 0.987118 0.99932
0.950098 0.977788 0.972056 0.999614
0.999599 1 1 0.999599
0.999561 1 1 0.999561
0.99953 1 1 0.99953
0.999881 1 1 0.999881
0.999754 1 1 0.999754
0.999685 1 1 0.999685
0.99962 1 1 0.99962
0.999564 1 1 0.999564
0.999681 1 1 0.999681
0.99987 1 1 0.99987
0.99976 1 1 0.99976
0.999552 1 1 0.999552
0.999624 1 1 0.999624
0.999633 1 1 0.999633
0.999564 1 1 0.999564
0.999664 1 1 0.999664
0.999752 1 1 0.999752
0.999861 1 1 0.999861
0.999773 1 1 0.999773
0.999694 1 1 0.999694
0.999757 1 1 0.999757
0.999768 1 1 0.999768
0.999875 1 1 0.999875
0.999862 1 1 0.999862
0.999991 1 1 0.999991
0.999991 1 1 0.999991
1 1 1 1
0.999992 1 1 0.999992
1 1 1 1
1 1 1 1
1 1 1 1
1 1 1 1
1 1 1 1
1 1 1 1
1 1 1 1
1 1 1 1
0.999998 1 1 0.999998
1 1 1 1
1 1 1 1
1 1 1 1
1 1 1 1
1 1 1 1
0.99948 1 1 0.99948
0.999444 1 1 0.999444
0.999554 1 1 0.999554
1.0003 1.00457 0.996112 0.999644
0.99948 1 1 0.99948
1.00044 1.00097 0.999863 0.999604
0.999682 1.00024 1.00004 0.999401
0.980114 0.984914 0.996247 0.998875
1.00036 1.0012 0.999437 0.999721
0.999931 1 1 0.999931
0.999925 1 1 0.999925
0.999823 1 1 0.999823
0.999834 1 1 0.999834
0.9994 1 1 0.9994
0.999593 1.0001 1 0.999493
0.999167 1 0.999481 0.999687
0.999585 1 1 0.999585
1.001 1 1.00164 0.999356
0.999611 1 1.0001 0.99951
0.999561 1 1 0.999561
0.999568 1 1.00007 0.999497
0.999552 1 1 0.999552
0.999887 1 1 0.999887
0.999634 1 1 0.999634
0.999751 1 1 0.999751
0.999918 1 1 0.999918
0.999778 1 1 0.999778
0.999453 1.00001 1.00003 0.99941
0.999808 1 1 0.999808
0.999766 1 1 0.999766
0.999712 1 1 0.999712
0.998413 1.00048 0.998305 0.99963
0.999169 1.00005 0.999541 0.99958
1.00079 1 1.00128 0.999507
1.00078 1 1.0014 0.999383
0.999651 1 1 0.999651
0.999579 1 1 0.999579
1.00045 1 1.001 0.999456
0.999518 1 1.00004 0.999483
1.0003 1.00088 0.999954 0.999466
0.998213 1.00092 0.997704 0.99959
1.00004 1 1.0007 0.999342
1.0008 1 1.00136 0.999437
0.999683 1 1 0.999683
0.999668 1 1 0.999668
0.999541 1 1 0.999541
1.00149 1 1.00209 0.999399
0.958507 0.963719 0.997225 0.99736
0.999584 1 1 0.999584
0.999524 1 1 0.999524
1.00295 1.0039 0.999484 0.999571
0.99949 1.00076 0.999267 0.999464
1.00195 1 1.00266 0.999297
0.999925 1 1.00052 0.999404
1.00723 1.01132 0.996538 0.999424
0.999541 1 1 0.999541
1.00002 1.00402 0.996606 0.999407
0.999489 1 1 0.999489
1.0025 1 1.00315 0.999352
0.999938 1.00001 1.00062 0.999312
0.960617 0.964303 0.998518 0.997656
0.994628 0.997788 0.998191 0.998639
0.989406 1.01109 0.979118 0.999425
0.943592 0.95375 0.99029 0.99905
0.945481 0.973856 0.971244 0.999608
0.999533 1 1 0.999533
0.950509 0.956568 0.994915 0.998745
0.96096 0.976744 0.984149 0.999686
0.984075 1.00105 0.983651 0.999382
1.00141 1 1.00194 0.999471
1.0083 1 1.00894 0.999366
1.00098 1.01017 0.9915 0.999396
0.97236 0.97145 1.00368 0.997271
0.999653 1.00484 0.996285 0.998545
0.941493 0.958272 0.983236 0.999241
0.987185 1.00597 0.981566 0.99975
0.999562 1 1 0.999562
0.999531 1 1 0.999531
0.999507 1 1 0.999507
0.999878 1 1 0.999878
0.999768 1 1 0.999768
0.999671 1 1 0.999671
0.99962 1 1 0.99962
0.999558 1 1 0.999558
0.999861 1 1 0.999861
0.999632 1 1 0.999632
0.999675 1 1 0.999675
0.99976 1 1 0.99976
0.999554 1 1 0.999554
0.999599 1 1 0.999599
0.999712 1 1.0002 0.999515
0.999674 1 1 0.999674
0.999769 1 1 0.999769
0.999773 1 1 0.999773
0.999683 1 1 0.999683
0.999685 1 1 0.999685
0.99967 1 1 0.99967
0.999627 1 1 0.999627
0.999629 1 1 0.999629
0.999739 1 1 0.999739
0.999757 1 1 0.999757
0.999868 1 1 0.999868
0.999755 1 1 0.999755
0.999867 1 1 0.999867
0.99999 1 1 0.99999
0.999862 1 1 0.999862
0.999991 1 1 0.999991
1 1 1 1
0.999991 1 1 0.999991
1 1 1 1
1 1 1 1
1 1 1 1
1 1 1 1
1 1 1 1
0.999928 1 1 0.999928
1 1 1 1
1 1 1 1
1 1 1 1
1 1 1 1
1 1 1 1
1 1 1 1
1 1 1 1
1 1 1 1
1 1 1 1
1.001 1.00475 0.996614 0.999647
0.999475 1 1 0.999475
1.00026 1.00069 1 0.99957
0.980909 0.98446 0.997199 0.999192
1.00046 1.00097 0.999768 0.999725
0.999699 1.00028 1.00003 0.999384
1.00162 1.00058 1.00159 0.999449
0.986936 0.986526 1.0014 0.99902
0.964128 0.967083 1.00011 0.996831
0.934155 0.951403 0.983199 0.998649
0.945242 0.969809 0.975034 0.999625
0.999818 1 1 0.999818
0.99993 1 1 0.99993
0.999925 1 1 0.999925
0.999818 1 1 0.999818
0.999749 1 1 0.999749
0.999767 1 1 0.999767
0.999822 1 1 0.999822
0.999828 1 1 0.999828
0.99945 1 1.00003 0.999424
0.999342 1.00058 0.999126 0.999633
0.998897 1 0.999317 0.999581
1.00081 1 1.0013 0.999506
1.0013 1 1.00192 0.999382
0.999902 1 1.00045 0.999457
0.999545 1 1.00007 0.999477
0.999583 1 1 0.999583
0.999775 1 1 0.999775
0.999655 1 1 0.999655
0.999823 1 1 0.999823
0.999713 1 1 0.999713
0.999956 1.00104 0.999465 0.999452
0.999688 1 1 0.999688
0.99967 1 1 0.99967
0.997647 1.00078 0.997283 0.999588
0.999759 1 1.00039 0.999363
1.00129 1 1.00187 0.999419
0.999538 1 1 0.999538
1.00149 1 1.00208 0.999402
0.991515 1.00594 0.986212 0.99944
1.00229 1.0005 1.00242 0.999377
1.00035 1 1.001 0.999345
1.00446 1 1.0051 0.999365
0.999623 1 1 0.999623
0.999573 1 1 0.999573
0.999986 1 1.00054 0.999442
0.949547 0.959959 0.990016 0.999129
0.962923 0.965575 0.999781 0.997471
0.999545 1 1 0.999545
0.99949 1 1 0.99949
0.999992 1.00466 0.995952 0.999402
0.999332 1.00006 0.999944 0.999324
1.0021 1 1.00274 0.999356
0.961089 0.964993 0.999145 0.996807
0.995162 0.998094 0.997833 0.999229
0.993757 1.01331 0.981254 0.999442
0.938588 0.952892 0.986242 0.99873
0.940116 0.969639 0.969939 0.999601
0.999532 1 1 0.999532
0.946092 0.958459 0.987891 0.999197
0.962578 0.974921 0.987633 0.999702
0.986621 1.00116 0.98609 0.999375
1.00062 1 1.00114 0.999474
1.00753 1 1.00816 0.999377
0.995473 1.0076 0.98858 0.999375
0.97345 0.97311 1.00334 0.997021
0.995298 1.00032 0.995875 0.999096
0.942456 0.95873 0.984325 0.998681
0.98107 1.00391 0.977508 0.999734
0.999506 1 1 0.999506
0.98084 0.983153 0.997854 0.999793
1.01472 1.01696 0.997934 0.999864
1.00459 1 1.00515 0.999436
1.00636 1 1.00681 0.99956
1.00579 1.00361 1.00252 0.999649
0.991767 0.997941 0.994299 0.999512
0.977464 0.974611 1.00579 0.99715
0.958784 0.978088 0.981587 0.998651
1.00305 1.01796 0.985547 0.999798
0.999532 1 1 0.999532
0.999502 1 1 0.999502
0.999912 1 1.00042 0.999491
0.999861 1 1 0.999861
0.999768 1 1 0.999768
0.999687 1 1 0.999687
0.999631 1 1 0.999631
0.999545 1 1 0.999545
0.999769 1 1 0.999769
0.999606 1 1 0.999606
0.999674 1 1 0.999674
0.999754 1 1.00024 0.999509
1.00003 1 1.00055 0.999479
0.999663 1 1.00009 0.999576
0.99968 1 1 0.99968
0.999773 1 1 0.999773
0.999671 1 1 0.999671
0.999685 1 1 0.999685
0.999669 1 1 0.999669
0.999625 1 1 0.999625
0.999648 1 1 0.999648
0.999619 1 1 0.999619
0.99959 1 1 0.99959
0.999583 1 1 0.999583
0.999608 1 1 0.999608
0.999626 1 1 0.999626
0.99963 1 1 0.99963
0.999719 1 1 0.999719
0.999738 1 1 0.999738
0.999855 1 1 0.999855
0.999757 1 1 0.999757
0.999868 1 1 0.999868
0.999987 1 1 0.999987
0.99986 1 1 0.99986
0.999989 1 1 0.999989
1 1 1 1
0.99999 1 1 0.99999
1 1 1 1
1 1 1 1
1 1 1 1
1 1 1 1
1 1 1 1
0.999934 1 1 0.999934
1 1 1 1
0.999928 1 1 0.999928
1 1 1 1
1 1 1 1
1 1 1 1
1 1 1 1
1 1 1 1
1 1 1 1
1 1 1 1
1 1 1 1
0.944176 0.955299 0.989075 0.999274
0.966125 0.978 0.988091 0.999763
0.983156 0.98512 0.998552 0.999454
1.00046 1.00075 0.999984 0.999727
0.999722 1.00033 1.00003 0.999367
0.986435 0.985026 1.00181 0.999621
1.0009 1.00064 1.0008 0.999459
0.967916 0.96931 1.00112 0.997445
0.94041 0.952766 0.987738 0.999285
0.942935 0.97034 0.972125 0.999621
0.999976 0.99587 1.00446 0.999664
0.973261 0.972805 1.00309 0.997386
0.939829 0.9575 0.982286 0.999246
0.979099 1.00102 0.978406 0.99969
0.999723 1 1 0.999723
0.999825 1 1 0.999825
0.99993 1 1 0.99993
0.999813 1 1 0.999813
0.999756 1 1 0.999756
0.999738 1 1 0.999738
0.999769 1 1 0.999769
0.999784 1 1 0.999784
0.999813 1 1 0.999813
0.999822 1 1 0.999822
0.99955 1.00109 0.999025 0.999438
0.997295 1.00065 0.997063 0.999585
0.999511 1 1.00013 0.999384
1.00156 1 1.00216 0.999401
1.00138 1 1.00198 0.999405
0.999536 1 1 0.999536
0.999672 1 1 0.999672
0.999694 1 1 0.999694
0.994024 1.00497 0.989686 0.999414
0.999619 1 1 0.999619
0.999562 1 1 0.999562
1.00048 1.00036 1.00076 0.999365
1.00067 1 1.00131 0.999361
1.00351 1 1.00416 0.999355
1.00055 1 1.00112 0.999433
0.989834 1.01263 0.978195 0.999275
1.00822 1 1.00886 0.999367
1.00411 1 1.00476 0.999357
0.999615 1 1 0.999615
0.99955 1 1 0.99955
0.999473 1 1 0.999473
0.981748 0.985191 0.996783 0.999721
0.950915 0.959033 0.992862 0.998665
0.96078 0.965399 0.997863 0.997347
0.999531 1 1 0.999531
0.999825 1 1.00035 0.999478
0.989472 1.00119 0.988922 0.999368
1.00696 1 1.00758 0.999389
0.942887 0.956365 0.987228 0.998662
0.971189 0.97207 1.00121 0.997888
0.996911 1.00132 0.996996 0.998592
0.990629 1.00518 0.986154 0.999361
0.9449 0.958718 0.986271 0.999305
0.965163 0.977281 0.987926 0.99967
0.974495 0.998291 0.976457 0.999699
0.999504 1 1 0.999504
0.977293 0.982205 0.995242 0.999755
1.01451 1.01687 0.997817 0.999864
1.00394 1 1.0045 0.999441
1.00656 1 1.00701 0.999561
1.00828 1.00315 1.00585 0.999269
0.991746 0.997942 0.995033 0.998753
0.976342 0.97596 1.00332 0.997078
0.966084 0.980753 0.985673 0.99936
0.99817 1.01441 0.984229 0.999762
0.99982 1 1.00021 0.999611
1.01772 1.01802 0.999791 0.999908
1.01907 1.0218 0.997403 0.999919
1.00795 1 1.00821 0.999743
0.997053 0.993303 1.00397 0.999804
0.983879 0.981537 1.00521 0.997191
0.980581 0.995982 0.985153 0.999374
1.00006 1.01654 0.984039 0.999748
0.999497 1 1 0.999497
0.999857 1 1.00036 0.999502
1.00083 1 1.0013 0.999526
0.999769 1 1 0.999769
0.999674 1 1 0.999674
0.999613 1 1 0.999613
0.999785 1 1.00028 0.999503
0.999679 1 1 0.999679
0.999608 1 1.00003 0.999577
1.00041 1 1.00093 0.999478
1.00037 1 1.00086 0.999511
0.999707 1 1.00021 0.999495
0.999607 1 1 0.999607
0.999685 1 1 0.999685
0.999669 1 1 0.999669
0.999623 1 1 0.999623
0.999621 1 1 0.999621
0.999648 1 1 0.999648
0.999594 1 1 0.999594
0.999574 1 1 0.999574
0.999566 1 1 0.999566
0.999554 1 1 0.999554
0.999584 1 1 0.999584
0.999583 1 1 0.999583
0.999575 1 1 0.999575
0.999664 1 1 0.999664
0.999631 1 1 0.999631
0.999634 1 1 0.999634
0.999696 1 1 0.999696
0.999631 1 1 0.999631
0.999719 1 1 0.999719
0.999837 1 1 0.999837
0.999738 1 1 0.999738
0.999855 1 1 0.999855
0.999984 1 1 0.999984
0.999867 1 1 0.999867
0.999987 1 1 0.999987
1 1 1 1
0.999988 1 1 0.999988
1 1 1 1
1 1 1 1
1 1 1 1
1 1 1 1
1 1 1 1
0.9999 1 1 0.9999
1 1 1 1
0.999919 1 1 0.999919
1 1 1 1
1 1 1 1
0.999928 1 1 0.999928
1 1 1 1
1 1 1 1
1 1 1 1
1 1 1 1
1 1 1 1
1 1 1 1
0.981259 0.983664 0.997746 0.999809
0.946949 0.956686 0.990855 0.998957
1.01276 1.01739 0.995579 0.99987
0.962622 0.974666 0.987893 0.999746
0.983203 0.983685 1.00054 0.998972
1.00029 1.00078 1.00004 0.999472
0.967681 0.969125 1.00043 0.998084
0.937695 0.952916 0.985331 0.998677
0.94112 0.971085 0.969512 0.999619
0.997006 0.997357 1.00022 0.999427
0.972627 0.970836 1.00458 0.997274
0.942362 0.960824 0.982097 0.998665
0.978385 1.00139 0.977324 0.999698
0.997352 1.00424 0.993552 0.99959
0.974154 0.971973 1.00512 0.997143
0.967082 0.983653 0.983812 0.99933
1.00036 1.0171 0.983766 0.999778
0.999668 1 1 0.999668
0.999732 1 1 0.999732
0.999831 1 1 0.999831
0.999764 1 1 0.999764
0.999687 1 1 0.999687
0.999744 1 1 0.999744
0.999772 1 1 0.999772
0.999773 1 1 0.999773
0.999793 1 1 0.999793
0.999805 1 1 0.999805
0.996885 1.00434 0.993186 0.999387
0.998583 1.00019 0.999038 0.999354
1.00096 1 1.00158 0.999378
1.00283 1 1.00349 0.999344
1.00118 1 1.00176 0.999425
0.999552 1 1 0.999552
0.999615 1 1 0.999615
0.999616 1 1 0.999616
0.991118 1.01027 0.981751 0.999281
0.999556 1 1 0.999556
0.99956 1 1.00009 0.99947
1.00778 1 1.00843 0.999352
1.00397 1 1.00462 0.999357
0.992609 1.01062 0.982844 0.999324
1.01737 1 1.01794 0.999439
1.0002 1 1.00078 0.999417
0.999565 1 1 0.999565
0.999479 1 1 0.999479
1.01742 1.01773 0.999768 0.999921
0.982374 0.984922 0.997642 0.999771
0.950369 0.959692 0.991042 0.999236
0.999502 1 1 0.999502
1.00657 1 1.00701 0.999563
1.00283 1 1.00338 0.999445
0.981889 0.984157 0.997893 0.999802
0.976113 0.973855 1.00529 0.997046
0.992384 0.997388 0.995563 0.999417
1.00914 1.002 1.00827 0.998866
0.96021 0.977392 0.983744 0.998656
1.01454 1.01701 0.997703 0.999864
0.998503 1.01361 0.985328 0.999762
0.999757 1 1.00013 0.999622
1.01849 1.01866 0.999921 0.999915
1.02036 1.02342 0.997089 0.999919
1.0085 0.999985 1.00888 0.999642
0.997701 0.995084 1.00307 0.999563
0.986535 0.983563 1.00595 0.997092
1.00218 1.01863 0.984068 0.999782
0.976864 0.991465 0.986192 0.999069
0.99998 1 1.00026 0.999717
1.01405 1.01572 0.998379 0.999973
1.01984 1.02244 0.997527 0.999934
1.00168 1.01598 0.986137 0.999781
1.00688 0.995286 1.01176 0.999888
0.982444 0.981317 1.00375 0.997404
0.972451 0.990571 0.98243 0.999265
0.999781 1 1.00027 0.999513
1.00059 1 1.00109 0.999499
1.00315 1 1.00355 0.999598
0.999679 1 1 0.999679
0.999578 1 1 0.999578
1.00085 1 1.00138 0.999477
0.99961 1 1 0.99961
0.999819 1 1.00033 0.999494
1.00076 1 1.00126 0.999493
0.999895 1 1.00035 0.999541
0.999529 1 1 0.999529
0.999622 1 1 0.999622
0.999649 1 1 0.999649
0.999597 1 1 0.999597
0.999566 1 1 0.999566
0.999575 1 1 0.999575
0.999546 1 1 0.999546
0.999574 1 1 0.999574
0.999768 1 1.00029 0.999481
0.999585 1 1 0.999585
0.999582 1 1 0.999582
0.999504 1 1 0.999504
0.99959 1 1 0.99959
0.999663 1 1 0.999663
0.999577 1 1 0.999577
0.999708 1 1 0.999708
0.99966 1 1 0.99966
0.999654 1 1 0.999654
0.999641 1 1 0.999641
0.999703 1 1 0.999703
0.999819 1 1 0.999819
0.99972 1 1 0.99972
0.999837 1 1 0.999837
0.999979 1 1 0.999979
0.999854 1 1 0.999854
0.999983 1 1 0.999983
1 1 1 1
0.999986 1 1 0.999986
1 1 1 1
1 1 1 1
1 1 1 1
1 1 1 1
1 1 1 1
0.999858 1 1 0.999858
0.99998 1 1 0.99998
0.999899 1 1 0.999899
1 1 1 1
0.999992 1 1 0.999992
0.999905 1 1 0.999905
1 1 1 1
1 1 1 1
1 1 1 1
1 1 1 1
1 1 1 1
1 1 1 1
1.0163 1.01673 0.999662 0.999915
0.976403 0.982147 0.994428 0.999721
0.949493 0.956699 0.993743 0.998717
0.999737 1 1 0.999737
1.02166 1.02432 0.99747 0.999934
1.01425 1.01798 0.996462 0.999871
0.959735 0.975263 0.984395 0.999678
0.994252 0.998388 0.99669 0.999165
0.974934 0.971501 1.00621 0.997339
0.946234 0.963319 0.982964 0.999288
0.977366 0.998699 0.978965 0.999668
0.996694 1.00777 0.990076 0.998919
0.97557 0.97321 1.00524 0.997204
0.965824 0.983373 0.98311 0.999028
0.997693 1.01619 0.982045 0.999751
0.982283 0.999797 0.983697 0.998766
0.978591 0.977018 1.00506 0.996567
0.977005 0.992724 0.985428 0.99872
1.00059 1.01849 0.982687 0.999731
0.999612 1 1 0.999612
0.999662 1 1 0.999662
0.999742 1 1 0.999742
0.999672 1 1 0.999672
0.999697 1 1 0.999697
0.999751 1 1 0.999751
0.999776 1 1 0.999776
0.999801 1 1 0.999801
0.992186 1.00774 0.985266 0.999286
1.00723 1 1.0079 0.999338
0.999618 1 1 0.999618
1.00373 1 1.00438 0.999357
0.999633 1 1.00017 0.999466
0.999562 1 1 0.999562
0.999566 1 1 0.999566
0.993603 1.00979 0.984637 0.999327
0.999483 1 1 0.999483
1.00102 1 1.0016 0.999412
1.01749 1 1.01807 0.999429
0.999562 1 1 0.999562
1.00419 1.00289 1.00171 0.999588
1.01314 1 1.01363 0.999519
0.999474 1 1 0.999474
0.99951 1 1 0.99951
1.01215 1.01279 0.999382 0.999978
1.01632 1.01668 0.999723 0.999923
0.98292 0.984518 0.998555 0.99982
0.999633 1 1 0.999633
1.00939 0.999979 1.00987 0.999542
1.01924 1.01932 0.999995 0.999923
0.982704 0.978176 1.00752 0.997129
1.00067 0.9981 1.00367 0.998912
0.974079 0.991172 0.983958 0.998778
1.02138 1.02474 0.996807 0.99992
1.00495 1.02116 0.984305 0.999815
1.00016 1 1.00047 0.999696
1.01432 1.01606 0.998312 0.999974
1.01915 1.02152 0.997726 0.999945
1.0069 0.995653 1.01137 0.999932
0.998692 1.01494 0.984234 0.999752
0.980271 0.983498 0.999133 0.997584
0.971358 0.990227 0.982244 0.998678
1.00657 0.998213 1.0086 0.999777
1.00656 1.00809 0.998502 0.999988
1.02282 1.02473 0.998201 0.999931
0.980954 1.00074 0.980529 0.99969
0.975853 0.990891 0.986075 0.998731
1.00385 0.992761 1.01101 1.00016
0.975899 0.978345 1.00013 0.99737
1.00036 1 1.00089 0.999472
1.00226 1 1.00268 0.999585
1.0122 1 1.01262 0.999585
0.999613 1 1 0.999613
0.999859 1 1.00037 0.999493
1.00101 1 1.00154 0.999475
0.999529 1 1 0.999529
0.999971 1 1.00043 0.999538
1.00288 1 1.00337 0.99951
0.999567 1 1 0.999567
0.999576 1 1 0.999576
0.999718 1 1.00018 0.999539
1.00129 1 1.00183 0.999459
0.999594 1 1 0.999594
0.999653 1 1.00016 0.999495
0.999883 1 1.00047 0.999417
0.99949 1 1 0.99949
0.999581 1 1 0.999581
0.999493 1 1 0.999493
0.99963 1 1 0.99963
0.999657 1 1 0.999657
0.999601 1 1 0.999601
0.999716 1 1 0.999716
0.999662 1 1 0.999662
0.999578 1 1 0.999578
0.999808 1 1 0.999808
0.999705 1 1 0.999705
0.999655 1 1 0.999655
0.99971 1 1 0.99971
0.99982 1 1 0.99982
0.999971 1 1 0.999971
0.999837 1 1 0.999837
0.999977 1 1 0.999977
1 1 1 1
0.999982 1 1 0.999982
1 1 1 1
1 1 1 1
1 1 1 1
1 1 1 1
1 1 1 1
0.999837 1 1 0.999837
0.999968 1 1 0.999968
0.999866 1 1 0.999866
1 1 1 1
0.999979 1 1 0.999979
0.999898 1 1 0.999898
1 1 1 1
1 1 1 1
0.999984 1 1 0.999984
1 1 1 1
1 1 1 1
1 1 1 1
1.01399 1.01477 0.99926 0.999973
1.01636 1.01698 0.999473 0.999916
0.97852 0.98297 0.995752 0.99972
0.999741 1 1 0.999741
0.999716 1 1 0.999716
0.999673 1 1 0.999673
1.01875 1.02152 0.997354 0.999935
1.02296 1.02529 0.997799 0.999934
1.01638 1.01857 0.997973 0.999871
1.0009 1.01157 0.989922 0.999529
0.975464 0.971975 1.00643 0.997177
0.962557 0.980218 0.983289 0.998671
0.999167 1.01756 0.982147 0.999769
0.980329 0.997904 0.982994 0.999383
0.981814 0.978241 1.00643 0.997236
0.978858 0.994894 0.984573 0.999298
1.00199 1.02007 0.9825 0.999771
0.976909 0.99239 0.984868 0.999524
0.979654 0.979156 1.00317 0.997344
0.976762 0.99418 0.983274 0.999193
1.00003 1.0167 0.983803 0.999796
0.999596 1 1 0.999596
0.999612 1 1 0.999612
0.999656 1 1 0.999656
0.999671 1 1 0.999671
0.999707 1 1 0.999707
0.99978 1 1 0.99978
0.994567 1.00883 0.986526 0.99933
1.01735 1 1.01794 0.999419
0.999567 1 1 0.999567
1.00172 1 1.00231 0.999408
0.999487 1 1 0.999487
0.999561 1 1 0.999561
0.999506 1 1 0.999506
1.00206 1.0039 0.998592 0.999579
0.999483 1 1 0.999483
1.01365 1 1.01412 0.999541
0.999523 1 1 0.999523
1.01957 0.998451 1.02141 0.999755
1.00007 0.999994 1.00044 0.999645
0.999476 1 1 0.999476
1.00288 1.00346 0.999431 0.999995
1.01034 1.01104 0.999322 0.999982
1.01519 1.01562 0.99965 0.999925
1.00038 1 1.0007 0.999675
1.00317 0.99528 1.00794 0.999986
1.01455 1.01635 0.998259 0.999974
0.986438 0.986865 1.00102 0.998551
0.978438 0.99547 0.98356 0.999319
1.01872 1.02068 0.998117 0.999955
1.00014 1.01633 0.984299 0.999771
1.00568 0.999069 1.00683 0.999791
1.0054 1.00657 0.998847 0.99999
1.0242 1.0257 0.998602 0.999931
1.00606 0.99207 1.01459 0.999517
0.980683 1.0012 0.979801 0.999696
0.977791 0.993423 0.984943 0.999311
0.976876 0.979099 1.00026 0.997468
1.02512 1 1.02523 0.999888
1.01411 1.01468 0.999468 0.999972
1.01448 1.0178 0.99687 0.999866
0.94527 0.968921 0.975958 0.999623
0.967651 0.982066 0.985973 0.999339
0.988964 0.984374 1.0073 0.997379
0.984715 0.990797 0.994565 0.999293
1.00124 1 1.00167 0.999573
1.01336 1 1.01377 0.999589
1.01952 1 1.01998 0.999549
0.99953 1 1 0.99953
1.00009 1 1.00055 0.999535
1.00232 1 1.00281 0.999514
1.01008 1 1.01067 0.999416
0.999852 1 1.00032 0.999533
1.00157 1 1.00212 0.999445
1.00437 1 1.00503 0.999344
0.999508 1 1 0.999508
1.00027 1 1.00085 0.999414
1.00025 1 1.00088 0.999367
0.999436 1 1 0.999436
0.999584 1 1 0.999584
0.999479 1 1 0.999479
0.999482 1 1 0.999482
0.999672 1 1 0.999672
0.999641 1 1 0.999641
0.999704 1 1 0.999704
0.999664 1 1 0.999664
0.999611 1 1 0.999611
0.999803 1 1 0.999803
0.999716 1 1 0.999716
0.99966 1 1 0.99966
0.999962 1 1 0.999962
0.999809 1 1 0.999809
0.999701 1 1 0.999701
0.99982 1 1 0.99982
0.99997 1 1 0.99997
1 1 1 1
0.999976 1 1 0.999976
1 1 1 1
1 1 1 1
1 1 1 1
1 1 1 1
1 1 1 1
0.999834 1 1 0.999834
0.99998 1 1 0.99998
0.999844 1 1 0.999844
1 1 1 1
0.999979 1 1 0.999979
0.999874 1 1 0.999874
1 1 1 1
1 1 1 1
0.999979 1 1 0.999979
1 1 1 1
1 1 1 1
1 1 1 1
1.00667 1.00791 0.998776 0.999988
1.01409 1.01497 0.999159 0.999973
1.0163 1.01723 0.999175 0.999917
0.999708 1 1 0.999708
0.999666 1 1 0.999666
0.999745 1 1 0.999745
0.999714 1 1 0.999714
0.999664 1 1 0.999664
0.999656 1 1 0.999656
0.999617 1 1 0.999617
1.01779 1.02015 0.997775 0.99992
1.01825 1.0209 0.997455 0.999945
1.02393 1.02628 0.997777 0.999934
1.00449 1.02207 0.982982 0.99981
0.984015 1.0029 0.982384 0.998761
0.983168 0.978504 1.00693 0.997854
0.975032 0.991674 0.984546 0.998651
0.980941 0.992701 0.988991 0.999154
0.983478 0.982608 1.00361 0.997285
0.97593 0.993822 0.983334 0.99864
0.996733 1.01474 0.982503 0.999745
0.983455 0.98681 0.996901 0.999699
0.974582 0.983195 0.993995 0.997229
0.984093 0.999912 0.984868 0.999302
0.986624 1.00482 0.982136 0.99975
0.999575 1 1 0.999575
0.999594 1 1 0.999594
0.999612 1 1 0.999612
0.99967 1 1 0.99967
0.999206 1.00489 0.994769 0.99957
1.01453 1 1.01497 0.999562
0.999559 1 1 0.999559
0.999502 1 1 0.999502
0.999493 1 1 0.999493
0.999527 1 1 0.999527
0.99947 1 1 0.99947
1.01049 0.996521 1.01424 0.999772
1.00009 0.999977 1.00044 0.999677
0.999476 1 1 0.999476
1.02263 0.992513 1.03044 0.999911
1.00343 1 1.00395 0.999478
1.01232 1.01266 0.999681 0.999977
1.00165 1.00203 0.999629 0.999997
1.00863 1.00928 0.999365 0.999985
1.00478 0.999867 1.00511 0.999805
1.00639 0.991535 1.01487 1.00011
1.00422 1.00509 0.999138 0.999993
0.975733 0.978011 1.00032 0.997351
0.97444 0.990235 0.985362 0.998668
1.0252 1.02669 0.998619 0.999931
0.979801 0.998367 0.981727 0.999671
1.02734 0.999298 1.0282 0.999872
1.01414 1.01485 0.999323 0.999972
1.01584 1.01838 0.997648 0.999866
0.989496 0.993371 0.996042 1.00006
0.942977 0.969379 0.973134 0.99962
0.965197 0.981011 0.984835 0.999031
0.990262 0.983484 1.00933 0.997585
1.01354 0.999828 1.01388 0.999835
1.01678 1.01683 1.00004 0.999911
0.967314 0.977819 0.989493 0.999762
0.938714 0.955937 0.982725 0.999245
0.981418 0.977305 1.00702 0.997212
0.985702 0.995483 0.991145 0.999021
1.01471 1 1.01513 0.999594
1.0202 1 1.02066 0.999546
1.01905 1 1.0196 0.999461
1.00181 1 1.0023 0.999518
1.01055 1 1.01112 0.999429
1.00774 1 1.00843 0.999319
1.00203 1 1.0026 0.99943
1.00433 1 1.005 0.999331
1.00277 1 1.00349 0.999284
1.00069 1 1.00128 0.999412
1.00041 1 1.00106 0.999354
1.00019 1 1.00084 0.999352
0.999434 1 1 0.999434
0.999521 1 1 0.999521
0.999426 1 1 0.999426
0.999647 1 1 0.999647
0.999592 1 1 0.999592
0.999468 1 1 0.999468
0.999696 1 1 0.999696
0.999669 1 1 0.999669
0.999652 1 1 0.999652
0.99979 1 1 0.99979
0.999708 1 1 0.999708
0.999672 1 1 0.999672
0.99995 1 1 0.99995
0.999803 1 1 0.999803
0.999717 1 1 0.999717
1 1 1 1
0.999961 1 1 0.999961
0.99981 1 1 0.99981
0.999968 1 1 0.999968
1 1 1 1
1 1 1 1
1 1 1 1
1 1 1 1
1 1 1 1
0.99971 1 1 0.99971
0.999816 1 1 0.999816
0.999972 1 1 0.999972
0.999834 1 1 0.999834
1 1 1 1
0.999982 1 1 0.999982
0.999851 1 1 0.999851
1 1 1 1
1 1 1 1
0.99999 1 1 0.99999
1 1 1 1
1 1 1 1
1 1 1 1
1.01427 1.01497 0.999346 0.999973
1.00558 1.00646 0.999133 0.99999
1.01421 1.01517 0.999078 0.999974
0.999712 1 1 0.999712
0.999661 1 1 0.999661
0.999655 1 1 0.999655
0.999654 1 1 0.999654
0.999636 1 1 0.999636
0.999713 1 1 0.999713
0.999654 1 1 0.999654
0.999657 1 1 0.999657
0.999617 1 1 0.999617
0.999615 1 1 0.999615
1.01398 1.01496 0.999178 0.999862
1.01891 1.02155 0.997493 0.99992
1.0174 1.01998 0.997513 0.999956
0.99702 1.01393 0.98357 0.999745
0.980415 0.997125 0.983962 0.999268
0.983574 0.9919 0.992755 0.998842
0.977968 0.982141 0.998376 0.99737
0.987226 0.986427 1.00179 0.999023
0.976589 0.981068 0.998113 0.997316
0.98013 0.99557 0.985476 0.999
0.981477 1.00294 0.978855 0.999736
1.00624 0.98469 1.02279 0.999121
0.980261 0.983487 0.999313 0.997405
0.958095 0.978839 0.9801 0.998681
0.951632 0.978173 0.973227 0.99963
0.999626 1 1 0.999626
0.999577 1 1 0.999577
0.999592 1 1 0.999592
1.00246 0.994876 1.00784 0.999789
1.00011 1 1.00041 0.999709
0.999531 1 1 0.999531
0.999463 1 1 0.999463
0.999516 1 1.00003 0.999482
1.00391 1 1.00444 0.999474
1.02297 0.994399 1.02882 0.999911
1.00385 1 1.00435 0.999492
1.01275 0.999006 1.01406 0.999706
1.01665 1.01673 1 0.999915
1.01054 1.01088 0.99968 0.999981
1.00039 1.00064 0.999755 0.999999
1.02939 0.998709 1.03087 0.999855
0.989806 0.992374 0.998185 0.999226
1.0142 1.01502 0.999214 0.999973
0.982119 0.981695 1.00376 0.996684
0.963453 0.97866 0.985764 0.998678
1.01775 1.01895 0.99895 0.999866
0.941506 0.970279 0.970718 0.999616
1.01362 0.999928 1.01385 0.999838
1.01691 1.0171 0.999899 0.999912
0.963165 0.974167 0.988957 0.999746
0.982224 0.993477 0.989265 0.999402
0.941725 0.959713 0.982561 0.998673
0.984302 0.979068 1.00854 0.996832
0.996629 0.999935 0.997001 0.999693
0.981866 0.983987 0.998038 0.999806
0.934443 0.951182 0.983731 0.998648
0.975845 0.973644 1.00513 0.997143
0.993915 0.999457 0.995067 0.999385
1.02044 1 1.02091 0.999543
1.02079 1 1.02134 0.99946
1.00787 1 1.00851 0.999369
1.0108 1 1.01137 0.999442
1.00732 1 1.008 0.999325
1.00171 1 1.00242 0.999294
1.00408 1 1.00476 0.999317
1.00218 1 1.00289 0.999287
0.999377 1 1 0.999377
1.00045 1 1.00111 0.999341
0.999856 1 1.0005 0.999358
0.999452 1 1 0.999452
0.999502 1 1 0.999502
0.999487 1 1 0.999487
0.999438 1 1 0.999438
0.999596 1 1 0.999596
0.999507 1 1 0.999507
0.999416 1 1 0.999416
0.9997 1 1 0.9997
0.999656 1 1 0.999656
0.9996 1 1 0.9996
0.999772 1 1 0.999772
0.999697 1 1 0.999697
0.999665 1 1 0.999665
0.999934 1 1 0.999934
0.99979 1 1 0.99979
0.999713 1 1 0.999713
1 1 1 1
0.99995 1 1 0.99995
0.999804 1 1 0.999804
1 1 1 1
1 1 1 1
0.99996 1 1 0.99996
1 1 1 1
1 1 1 1
1 1 1 1
0.999696 1 1 0.999696
0.9998 1 1 0.9998
0.999706 1 1 0.999706
0.999965 1 1 0.999965
0.999816 1 1 0.999816
1 1 1 1
0.999974 1 1 0.999974
0.999834 1 1 0.999834
1 1 1 1
1 1 1 1
0.999984 1 1 0.999984
1 1 1 1
1 1 1 1
1 1 1 1
1.01652 1.0166 1 0.999919
1.01473 1.01544 0.999324 0.999973
1.00448 1.00507 0.999423 0.999992
0.999665 1 1 0.999665
0.999715 1 1 0.999715
0.999656 1 1 0.999656
0.99966 1 1 0.99966
0.99966 1 1 0.99966
0.999636 1 1 0.999636
0.999625 1 1 0.999625
0.99962 1 1 0.99962
0.999657 1 1 0.999657
0.999617 1 1 0.999617
0.999615 1 1 0.999615
0.999604 1 1 0.999604
0.964124 0.977629 0.986501 0.999681
1.01344 1.01452 0.99907 0.999862
1.02038 1.02323 0.997295 0.999921
0.976879 0.998672 0.978483 0.999688
0.978807 0.996019 0.983988 0.99871
0.973742 0.982453 0.993879 0.997237
0.989631 0.982832 1.00715 0.999767
1.00634 0.984196 1.02267 0.999833
0.947299 0.973988 0.972961 0.999628
0.98261 0.983923 1.00169 0.996983
0.961053 0.978758 0.982572 0.999327
1.00075 0.993212 1.00779 0.999797
0.980847 0.978229 1.00524 0.997454
0.938336 0.955697 0.982531 0.999291
1.00012 1 1.00041 0.999709
0.999627 1 1 0.999627
0.999579 1 1 0.999579
1.02337 0.99644 1.02711 0.999911
1.00453 1 1.00506 0.999471
0.999539 1 1.00005 0.999488
1.00414 1 1.00465 0.999494
1.01179 0.999575 1.01251 0.999712
1.00909 1 1.00939 0.999704
0.981308 0.984474 0.997077 0.999706
1.01578 1.01587 0.999986 0.999926
1.00885 1.0091 0.999768 0.999985
1.01366 1 1.01382 0.999843
0.982637 0.995332 0.987574 0.999668
1.01695 1.01738 0.999666 0.999912
0.988533 0.980713 1.01014 0.997852
0.945228 0.962243 0.983018 0.999288
0.959478 0.974635 0.984768 0.999676
0.995437 1.00074 0.995002 0.999699
0.976616 0.982327 0.994466 0.999718
0.940883 0.952196 0.988826 0.999285
0.993875 0.999473 0.99563 0.998763
0.977882 0.975845 1.00491 0.997189
0.993297 1.00817 0.985765 0.999474
0.944755 0.955853 0.989103 0.999278
0.97373 0.973214 1.0032 0.99734
0.995 1.0046 0.991717 0.998713
1.02327 1 1.02382 0.999458
1.00649 1 1.00712 0.999376
1.0006 1 1.00121 0.999391
1.00713 1 1.0078 0.999332
1.00167 1 1.00238 0.999297
0.999475 1 1 0.999475
1.00172 1 1.00243 0.99929
0.999546 1 1.00016 0.999386
0.999569 1 1 0.999569
0.999611 1 1.00025 0.999365
0.999456 1 1 0.999456
0.999592 1 1 0.999592
0.999602 1 1 0.999602
0.999518 1 1 0.999518
0.999512 1 1 0.999512
0.999554 1 1 0.999554
0.999496 1 1 0.999496
0.999443 1 1 0.999443
0.999676 1 1 0.999676
0.999595 1 1 0.999595
0.999493 1 1 0.999493
0.999763 1 1 0.999763
0.999699 1 1 0.999699
0.999665 1 1 0.999665
0.999914 1 1 0.999914
0.999773 1 1 0.999773
0.999697 1 1 0.999697
1 1 1 1
0.999934 1 1 0.999934
0.99979 1 1 0.99979
1 1 1 1
1 1 1 1
0.99995 1 1 0.99995
1 1 1 1
1 1 1 1
1 1 1 1
0.999706 1 1 0.999706
0.999698 1 1 0.999698
0.999785 1 1 0.999785
0.999955 1 1 0.999955
0.9998 1 1 0.9998
0.999702 1 1 0.999702
1 1 1 1
0.999967 1 1 0.999967
0.999816 1 1 0.999816
1 1 1 1
1 1 1 1
0.999977 1 1 0.999977
1 1 1 1
1 1 1 1
1 1 1 1
0.980118 0.98257 0.997708 0.999795
1.01719 1.01727 1 0.999919
1.01514 1.01586 0.999318 0.999973
0.99966 1 1 0.99966
0.999676 1 1 0.999676
0.99964 1 1 0.99964
0.999667 1 1 0.999667
0.999665 1 1 0.999665
0.999636 1 1 0.999636
0.999622 1 1 0.999622
0.999627 1 1 0.999627
0.9996 1 1 0.9996
0.999613 1 1 0.999613
0.999614 1 1 0.999614
0.999605 1 1 0.999605
0.94093 0.95288 0.988137 0.999313
0.963881 0.975903 0.987973 0.999705
1.01316 1.01424 0.99907 0.999862
0.943074 0.970337 0.972267 0.999626
0.957279 0.976381 0.98172 0.998692
0.9889 0.988318 1.00258 0.998014
1.01245 0.984502 1.02932 0.999095
1.0006 0.992843 1.00874 0.999086
0.940566 0.957749 0.983304 0.998733
0.984897 0.982038 1.00521 0.997716
0.997668 0.992801 1.00582 0.999084
0.977832 0.97625 1.00422 0.997408
1.00778 1 1.00819 0.999594
0.999974 1 1.00027 0.999708
0.999627 1 1 0.999627
1.01053 0.999917 1.0109 0.999717
1.00443 1 1.00494 0.999496
1.00887 1 1.00918 0.999695
1.00165 1.0006 1.00146 0.999584
0.948209 0.960621 0.987914 0.999155
0.98198 0.984302 0.99788 0.99976
1.0148 1.01495 0.999918 0.999936
0.993526 1.00122 0.992608 0.999706
0.993752 0.99797 0.996352 0.999419
0.97887 0.983322 0.995755 0.999716
0.977774 0.974453 1.00624 0.997181
0.937456 0.952196 0.985829 0.998672
0.994776 1.00739 0.987982 0.999491
0.947498 0.95737 0.990732 0.998947
0.974355 0.972148 1.00503 0.997252
0.994885 1.00319 0.992375 0.999339
1.00257 1.01242 0.990943 0.999319
0.964358 0.967187 1.00026 0.996818
0.99558 1.00177 0.994292 0.999523
1.00519 1 1.00581 0.999382
1.00047 1 1.00109 0.999382
0.999084 1.00033 0.999258 0.999494
1.00156 1 1.00226 0.999299
0.99938 1 0.999906 0.999474
0.999349 1.00023 0.999403 0.99972
0.999654 1 1.00026 0.999395
0.999571 1 1 0.999571
0.999719 1 1 0.999719
0.999461 1 1 0.999461
0.999592 1 1 0.999592
0.999677 1 1 0.999677
0.999653 1 1 0.999653
0.999613 1 1 0.999613
0.999591 1 1 0.999591
0.999557 1 1 0.999557
0.99952 1 1 0.99952
0.999522 1 1 0.999522
0.999623 1 1 0.999623
0.999564 1 1 0.999564
0.999505 1 1 0.999505
0.999748 1 1 0.999748
0.999675 1 1 0.999675
0.999594 1 1 0.999594
0.999895 1 1 0.999895
0.999764 1 1 0.999764
0.999698 1 1 0.999698
1 1 1 1
0.999914 1 1 0.999914
0.999773 1 1 0.999773
1 1 1 1
1 1 1 1
0.999933 1 1 0.999933
1 1 1 1
1 1 1 1
1 1 1 1
0.999707 1 1 0.999707
0.999699 1 1 0.999699
0.999773 1 1 0.999773
0.9997 1 1 0.9997
0.999785 1 1 0.999785
0.99994 1 1 0.99994
1 1 1 1
0.999956 1 1 0.999956
0.9998 1 1 0.9998
1 1 1 1
1 1 1 1
0.999968 1 1 0.999968
1 1 1 1
1 1 1 1
1 1 1 1
0.951533 0.958193 0.994266 0.998776
0.978011 0.982116 0.996068 0.999751
1.01787 1.01795 1 0.999919
0.999656 1 1 0.999656
0.999639 1 1 0.999639
0.99968 1 1 0.99968
0.999681 1 1 0.999681
0.999646 1 1 0.999646
0.999624 1 1 0.999624
0.999629 1 1 0.999629
0.999602 1 1 0.999602
0.999631 1 1 0.999631
0.999593 1 1 0.999593
0.999793 1 1.00026 0.999536
0.999608 1 1 0.999608
0.999605 1 1 0.999605
0.974604 0.97684 1.00086 0.996851
0.945344 0.955461 0.990361 0.999041
0.964816 0.976871 0.987986 0.99967
0.942091 0.958586 0.983447 0.999335
0.981063 0.978098 1.00633 0.996717
1.00369 0.993643 1.01031 0.99981
0.998773 0.994276 1.00507 0.999452
0.978724 0.977478 1.00379 0.99749
0.992479 0.999105 0.994196 0.999167
1.00624 1.00128 1.0057 0.999271
1.00624 1 1.00666 0.999585
0.999706 1 1 0.999706
1.00773 1 1.00804 0.999687
1.00067 1.00085 1.00017 0.999645
0.959288 0.965271 0.996391 0.997401
0.950399 0.959842 0.991441 0.99871
0.982914 0.984169 0.998909 0.999815
0.995908 1.00691 0.989565 0.999508
0.999635 1.00791 0.993061 0.998717
0.950586 0.957339 0.994233 0.998705
0.975078 0.971796 1.00607 0.997322
0.998568 1.01103 0.98835 0.999316
0.967493 0.968883 1.00114 0.997431
0.995048 1.0042 0.991997 0.998881
0.993542 1.00997 0.984452 0.999268
0.997795 0.99351 1.00466 0.999655
0.999564 1 1.00019 0.999372
0.998026 1.00034 0.998201 0.999487
0.99798 1.00169 0.996675 0.999618
0.999211 1 0.999738 0.999473
0.998976 1.00011 0.999144 0.999718
0.999087 1.00023 0.99908 0.999779
0.999573 1 1 0.999573
0.999705 1 0.999994 0.999711
0.999711 1 0.999987 0.999724
0.999592 1 1 0.999592
0.999672 1 1 0.999672
0.999667 1 1 0.999667
0.999664 1 1 0.999664
0.999622 1 1 0.999622
0.999624 1 1 0.999624
0.999589 1 1 0.999589
0.999582 1 1 0.999582
0.999598 1 1 0.999598
0.999554 1 1 0.999554
0.999522 1 1 0.999522
0.999717 1 1 0.999717
0.99963 1 1 0.99963
0.999574 1 1 0.999574
0.999877 1 1 0.999877
0.999748 1 1 0.999748
0.999674 1 1 0.999674
1 1 1 1
0.999895 1 1 0.999895
0.999764 1 1 0.999764
1 1 1 1
1 1 1 1
0.999913 1 1 0.999913
1 1 1 1
1 1 1 1
1 1 1 1
0.999697 1 1 0.999697
0.999707 1 1 0.999707
0.999756 1 1 0.999756
0.999691 1 1 0.999691
0.999767 1 1 0.999767
0.99992 1 1 0.99992
0.999784 1 1 0.999784
0.99994 1 1 0.99994
1 1 1 1
1 1 1 1
1 1 1 1
0.999957 1 1 0.999957
1 1 1 1
1 1 1 1
1 1 1 1
0.968513 0.970669 1.00031 0.997472
0.948847 0.960427 0.9887 0.999234
0.980853 0.98344 0.997581 0.999787
0.999637 1 1 0.999637
0.999684 1 1 0.999684
0.999649 1 1 0.999649
0.999681 1 1 0.999681
0.999668 1 1 0.999668
0.999662 1 1 0.999662
0.999605 1 1 0.999605
0.999625 1 1 0.999625
0.999593 1 1 0.999593
0.999617 1 1 0.999617
0.999556 1 1 0.999556
0.999421 1 1.00011 0.999307
0.999595 1 1.00006 0.999538
0.999603 1 1 0.999603
0.990911 0.994079 0.997342 0.999469
0.972147 0.973864 1.00085 0.99739
0.940867 0.95454 0.986959 0.998699
0.976296 0.975274 1.00371 0.997348
0.996453 0.993562 1.00309 0.999819
0.993084 0.997056 0.996317 0.999699
0.996969 1.00432 0.993324 0.999348
1.00326 1.00056 1.00337 0.99932
1.0052 1 1.00563 0.999575
0.998537 1.0009 0.997932 0.999704
0.987799 0.986386 1.00245 0.998989
0.96468 0.966874 1.00021 0.99752
0.948963 0.960137 0.98909 0.999264
0.996141 1.00946 0.987484 0.999313
1.00016 1.00773 0.993035 0.999451
0.967861 0.96849 1.00129 0.998065
0.99224 1.00773 0.985336 0.999279
0.993873 0.994327 1.00013 0.99941
0.989717 1.00527 0.98509 0.999428
1.00289 1.00103 1.00249 0.999369
0.997159 1.00022 0.997457 0.999479
0.997257 1.00135 0.99629 0.999619
0.998261 1.00132 0.997308 0.999633
0.998754 1 0.999038 0.999715
0.999115 1.00013 0.999214 0.999773
0.999455 1 0.999799 0.999656
0.999704 1 1 0.999704
0.999718 1 1 0.999718
0.999619 1 1 0.999619
0.999667 1 1 0.999667
0.99967 1 1 0.99967
0.999602 1 1 0.999602
0.999676 1 1 0.999676
0.999629 1 1 0.999629
0.99959 1 1 0.99959
0.999587 1 1 0.999587
0.99958 1 1 0.99958
0.999604 1 1 0.999604
0.999674 1 1 0.999674
0.999604 1 1 0.999604
0.999552 1 1 0.999552
0.999851 1 1 0.999851
0.999716 1 1 0.999716
0.999637 1 1 0.999637
0.999999 1 1 0.999999
0.999877 1 1 0.999877
0.999747 1 1 0.999747
1 1 1 1
1 1 1 1
0.999895 1 1 0.999895
1 1 1 1
1 1 1 1
1 1 1 1
0.999687 1 1 0.999687
0.999702 1 1 0.999702
0.999748 1 1 0.999748
0.999708 1 1 0.999708
0.999755 1 1 0.999755
0.999901 1 1 0.999901
0.999761 1 1 0.999761
0.999921 1 1 0.999921
1 1 1 1
0.999941 1 1 0.999941
1 1 1 1
1 1 1 1
1 1 1 1
1 1 1 1
1 1 1 1
0.984279 0.986272 0.998582 0.999397
0.963649 0.967849 0.998224 0.997432
0.945787 0.958886 0.987621 0.998701
0.999637 1 1 0.999637
0.999651 1 1 0.999651
0.999681 1 1 0.999681
0.999661 1 1 0.999661
0.999666 1 1 0.999666
0.999688 1 1 0.999688
0.999619 1 1 0.999619
0.999593 1 1 0.999593
0.999625 1 1 0.999625
0.999579 1 1 0.999579
0.999424 1 1 0.999424
0.999942 1.00081 1 0.999132
0.999441 1 1.00013 0.999312
0.999541 1 1 0.999541
0.997147 1.00171 0.996055 0.999384
0.991534 0.995444 0.996885 0.999184
0.973628 0.974818 1.00081 0.997968
0.996088 0.998571 0.998425 0.999088
1.00081 1.00487 0.996689 0.999266
1.00168 1 1.00231 0.999371
0.999658 1 1.00002 0.999639
0.988799 0.985341 1.00397 0.999537
0.962063 0.966694 0.997772 0.997432
0.99011 1.00542 0.985473 0.999289
0.99059 0.994681 0.996746 0.999139
0.992086 1.0049 0.987838 0.999407
1.00149 1.0007 1.00136 0.99944
1.00153 1.00265 0.999492 0.999391
0.999468 1.00012 1 0.999345
0.996711 1.00114 0.995951 0.99962
0.999065 1.00129 0.998138 0.999636
0.99965 1.00013 1 0.999518
0.999222 1.00007 0.999384 0.999767
0.999646 1.00004 0.999957 0.999654
0.999525 1 1 0.999525
0.999711 1 1 0.999711
0.999631 1 1 0.999631
0.999529 1 1 0.999529
0.999672 1 1 0.999672
0.999602 1 1 0.999602
0.99956 1 1 0.99956
0.999635 1 1 0.999635
0.999593 1 1 0.999593
0.999589 1 1 0.999589
0.999578 1 1 0.999578
0.999599 1 1 0.999599
0.999658 1 1 0.999658
0.99982 1 1 0.99982
0.999681 1 1 0.999681
0.999611 1 1 0.999611
0.999995 1 1 0.999995
0.999851 1 1 0.999851
0.999716 1 1 0.999716
1 1 1 1
0.999998 1 1 0.999998
0.999876 1 1 0.999876
1 1 1 1
1 1 1 1
1 1 1 1
0.999659 1 1 0.999659
0.999688 1 1 0.999688
0.999742 1 1 0.999742
0.999707 1 1 0.999707
0.999752 1 1 0.999752
0.999884 1 1 0.999884
0.999754 1 1 0.999754
0.999901 1 1 0.999901
1 1 1 1
0.999921 1 1 0.999921
1 1 1 1
1 1 1 1
1 1 1 1
1 1 1 1
1 1 1 1
0.99844 1.00154 0.997273 0.999631
0.984475 0.987573 0.998002 0.998859
0.965343 0.968098 0.999659 0.997495
0.999653 1 1 0.999653
0.999566 1 1 0.999566
0.999642 1 1 0.999642
0.99966 1 1 0.99966
0.999663 1 1 0.999663
0.99968 1 1 0.99968
0.999483 1 1 0.999483
0.999634 1 1 0.999634
0.999601 1 1 0.999601
0.99943 1 1 0.99943
0.999223 1 1 0.999223
1.00026 1.00141 0.999519 0.999329
0.999935 1.00079 1 0.999143
0.999317 1 1 0.999317
0.99898 1.00331 0.996274 0.999406
0.990234 0.994916 0.996435 0.998855
1.00303 1.00516 0.998694 0.999185
0.999641 1 1 0.999641
1.00082 1 1.00116 0.999656
0.986979 0.98512 1.00298 0.99891
0.994959 1.00485 0.990765 0.999386
1.00022 1.00044 1.00027 0.999514
1.00161 1.00302 0.999187 0.999403
0.99959 1.00021 1 0.999377
0.999506 1.00009 1 0.999412
0.999546 1 1 0.999546
0.999837 1.00125 0.998947 0.999639
0.999736 1.00021 1 0.999524
0.999428 1 1 0.999428
0.999681 1.00003 1 0.999652
0.999531 1 1 0.999531
0.999457 1 1 0.999457
0.999642 1 1 0.999642
0.999529 1 1 0.999529
0.999496 1 1 0.999496
0.999602 1 1 0.999602
0.99956 1 1 0.99956
0.999558 1 1 0.999558
0.999595 1 1 0.999595
0.99959 1 1 0.99959
0.999638 1 1 0.999638
0.999594 1 1 0.999594
0.999655 1 1 0.999655
0.999792 1 1 0.999792
0.999986 1 1 0.999986
0.99982 1 1 0.99982
0.999688 1 1 0.999688
1 1 1 1
0.999993 1 1 0.999993
0.99985 1 1 0.99985
1 1 1 1
0.999998 1 1 0.999998
1 1 1 1
0.999602 1 1 0.999602
0.999653 1 1 0.999653
0.999719 1 1 0.999719
0.999688 1 1 0.999688
0.999742 1 1 0.999742
0.999867 1 1 0.999867
0.999755 1 1 0.999755
0.999884 1 1 0.999884
1 1 1 1
0.999901 1 1 0.999901
1 1 1 1
1 1 1 1
1 1 1 1
1 1 1 1
1 1 1 1
0.999302 1.00016 0.999547 0.999593
0.997584 1.00075 0.997199 0.999636
0.983952 0.986214 0.998319 0.999386
0.999529 1 1 0.999529
0.999684 1 1 0.999684
0.999464 1 1 0.999464
0.999561 1 1 0.999561
0.999647 1 1 0.999647
0.999309 1 1 0.999309
0.999673 1 1 0.999673
0.99948 1 1 0.99948
0.999304 1 1 0.999304
0.999436 1 1 0.999436
0.999212 1.00001 1 0.999206
1.0002 1.00121 0.999671 0.999323
0.999672 1.00052 1 0.999155
1.00054 1.00447 0.996656 0.999426
0.999656 1 1 0.999656
0.999636 1 1 0.999636
1.00191 1 1.00224 0.999673
1.00163 1.00331 0.998911 0.999415
0.999724 1.00031 1 0.99941
0.999624 1.00022 1 0.999405
0.999566 1.00002 1 0.999548
0.999508 1 1 0.999508
0.999826 1.0003 1 0.99953
0.999433 1 1 0.999433
0.999423 1 1 0.999423
0.999536 1 1 0.999536
0.999453 1 1 0.999453
0.999439 1 1 0.999439
0.999528 1 1 0.999528
0.999495 1 1 0.999495
0.999506 1 1 0.999506
0.99956 1 1 0.99956
0.999558 1 1 0.999558
0.999604 1 1 0.999604
0.99959 1 1 0.99959
0.999639 1 1 0.999639
0.999765 1 1 0.999765
0.999653 1 1 0.999653
0.999792 1 1 0.999792
0.999975 1 1 0.999975
1 1 1 1
0.999983 1 1 0.999983
0.99982 1 1 0.99982
1 1 1 1
0.99999 1 1 0.99999
1 1 1 1
0.999484 1 1 0.999484
0.99955 1 1 0.99955
0.999594 1 1 0.999594
0.99969 1 1 0.99969
0.999646 1 1 0.999646
0.99972 1 1 0.99972
0.999852 1 1 0.999852
0.999742 1 1 0.999742
0.999867 1 1 0.999867
0.999998 1 1 0.999998
0.999884 1 1 0.999884
1 1 1 1
1 1 1 1
1 1 1 1
1 1 1 1
1 1 1 1
0.999524 1 1 0.999524
0.999935 1.00069 0.999655 0.999594
0.997376 1.00062 0.997113 0.99964
0.999373 1 1 0.999373
0.999558 1 1 0.999558
0.999715 1 1 0.999715
0.999477 1 1 0.999477
0.999556 1 1 0.999556
0.999278 1 1 0.999278
0.999295 1 1 0.999295
0.999478 1 1 0.999478
0.999341 1.00004 1 0.999298
0.999275 1.00009 1 0.999189
1.00065 1.00155 0.99979 0.999317
0.9996 1 1 0.9996
0.999647 1 1 0.999647
0.99963 1 1 0.99963
0.999729 1.00033 1 0.999399
0.999565 1.00001 1 0.99955
0.999512 1 1 0.999508
0.999489 1 1 0.999489
0.999439 1 1 0.999439
0.999419 1 1 0.999419
0.999437 1 1 0.999437
0.99945 1 1 0.99945
0.999438 1 1 0.999438
0.999459 1 1 0.999459
0.999494 1 1 0.999494
0.999505 1 1 0.999505
0.999559 1 1 0.999559
0.999558 1 1 0.999558
0.999604 1 1 0.999604
0.999731 1 1 0.999731
0.999639 1 1 0.999639
0.999765 1 1 0.999765
0.999966 1 1 0.999966
0.999792 1 1 0.999792
0.999972 1 1 0.999972
1 1 1 1
1 1 1 1
0.99998 1 1 0.99998
1 1 1 1
0.999395 1 1 0.999395
0.999541 1 1 0.999541
0.999526 1 1 0.999526
0.999644 1 1 0.999644
0.99955 1 1 0.99955
0.999587 1 1 0.999587
0.999691 1 1 0.999691
0.99983 1 1 0.99983
0.999721 1 1 0.999721
0.999852 1 1 0.999852
0.999993 1 1 0.999993
0.999868 1 1 0.999868
0.999999 1 1 0.999999
1 1 1 1
1 1 1 1
1 1 1 1
1 1 1 1
0.999446 1 1 0.999446
0.999524 1 1 0.999524
1.00031 1.00092 0.999796 0.999594
0.999316 1 1 0.999316
0.999374 1 1 0.999374
0.999587 1 1 0.999587
0.999489 1 1 0.999489
0.999279 1 1 0.999279
0.999281 1 1 0.999281
0.999305 1.00001 1 0.999292
0.999536 1 1 0.999536
0.99958 1 1 0.99958
0.999639 1 1 0.999639
0.999477 1 1 0.999477
0.999529 1.00002 1 0.999508
0.999487 1 1 0.999487
0.999471 1 1 0.999471
0.999415 1 1 0.999415
0.999438 1 1 0.999438
0.99945 1 1 0.99945
0.999436 1 1 0.999436
0.999459 1 1 0.999459
0.99952 1 1 0.99952
0.999504 1 1 0.999504
0.999558 1 1 0.999558
0.999691 1 1 0.999691
0.999604 1 1 0.999604
0.999731 1 1 0.999731
0.999957 1 1 0.999957
0.999765 1 1 0.999765
0.999963 1 1 0.999963
1 1 1 1
0.99997 1 1 0.99997
1 1 1 1
1 1 1 1
0.999342 1 1 0.999342
0.999451 1 1 0.999451
0.999411 1 1 0.999411
0.999612 1 1 0.999612
0.999539 1 1 0.999539
0.999567 1 1 0.999567
0.999787 1 1 0.999787
0.999644 1 1 0.999644
0.99955 1 1 0.99955
0.999691 1 1 0.999691
0.99983 1 1 0.99983
0.999983 1 1 0.999983
0.999852 1 1 0.999852
0.999995 1 1 0.999995
1 1 1 1
1 1 1 1
1 1 1 1
1 1 1 1
0.999421 1 1 0.999421
0.999431 1 1 0.999431
0.999523 1 1 0.999523
0.999309 1 1 0.999309
0.999375 1 1 0.999375
0.999279 1 1 0.999279
0.999475 1 1 0.999475
0.999538 1 1 0.999538
0.99956 1 1 0.99956
0.999475 1 1 0.999475
0.999458 1 1 0.999458
0.999485 1 1 0.999485
0.999471 1 1 0.999471
0.999471 1 1 0.999471
0.999438 1 1 0.999438
0.999451 1 1 0.999451
0.999504 1 1 0.999504
0.999459 1 1 0.999459
0.99952 1 1 0.99952
0.99966 1 1 0.99966
0.999558 1 1 0.999558
0.99969 1 1 0.99969
0.999949 1 1 0.999949
0.99973 1 1 0.99973
0.999955 1 1 0.999955
1 1 1 1
0.999961 1 1 0.999961
1 1 1 1
1 1 1 1
0.999419 1 1 0.999419
0.999385 1 1 0.999385
0.999336 1 1 0.999336
0.99954 1 1 0.99954
0.999459 1 1 0.999459
0.999426 1 1 0.999426
0.999736 1 1 0.999736
0.999597 1 1 0.999597
0.999537 1 1 0.999537
0.999968 1 1 0.999968
0.999788 1 1 0.999788
0.999644 1 1 0.999644
0.999831 1 1 0.999831
0.999986 1 1 0.999986
1 1 1 1
0.999997 1 1 0.999997
1 1 1 1
1 1 1 1
0.999418 1 1 0.999418
0.999416 1 1 0.999416
0.999415 1 1 0.999415
0.999301 1 1 0.999301
0.999438 1 1 0.999438
0.99948 1 1 0.99948
0.99954 1 1 0.99954
0.999473 1 1 0.999473
0.999459 1 1 0.999459
0.999474 1 1 0.999474
0.999471 1 1 0.999471
0.999474 1 1 0.999474
0.999504 1 1 0.999504
0.999453 1 1 0.999453
0.999504 1 1 0.999504
0.999644 1 1 0.999644
0.999519 1 1 0.999519
0.999659 1 1 0.999659
0.999941 1 1 0.999941
0.999689 1 1 0.999689
0.999946 1 1 0.999946
1 1 1 1
0.999952 1 1 0.999952
1 1 1 1
1 1 1 1
0.999432 1 1 0.999432
0.999424 1 1 0.999424
0.999419 1 1 0.999419
0.999465 1 1 0.999465
0.999396 1 1 0.999396
0.999331 1 1 0.999331
0.999663 1 1 0.999663
0.99954 1 1 0.99954
0.999467 1 1 0.999467
0.99995 1 1 0.99995
0.999723 1 1 0.999723
0.999582 1 1 0.999582
1 1 1 1
0.999973 1 1 0.999973
0.999789 1 1 0.999789
0.999989 1 1 0.999989
1 1 1 1
1 1 1 1
0.999429 1 1 0.999429
0.999427 1 1 0.999427
0.999411 1 1 0.999411
0.999442 1 1 0.999442
0.999436 1 1 0.999436
0.999485 1 1 0.999485
0.99946 1 1 0.99946
0.999475 1 1 0.999475
0.999523 1 1 0.999523
0.999476 1 1 0.999476
0.999515 1 1 0.999515
0.99962 1 1 0.99962
0.999505 1 1 0.999505
0.999644 1 1 0.999644
0.999935 1 1 0.999935
0.999659 1 1 0.999659
0.999939 1 1 0.999939
1 1 1 1
0.999944 1 1 0.999944
1 1 1 1
1 1 1 1
0.999439 1 1 0.999439
0.999454 1 1 0.999454
0.999432 1 1 0.999432
0.999481 1 1 0.999481
0.999428 1 1 0.999428
0.99942 1 1 0.99942
0.999616 1 1 0.999616
0.999481 1 1 0.999481
0.999407 1 1 0.999407
0.999936 1 1 0.999936
0.999657 1 1 0.999657
0.999539 1 1 0.999539
1 1 1 1
0.999955 1 1 0.999955
0.999711 1 1 0.999711
1 1 1 1
0.999978 1 1 0.999978
1 1 1 1
0.999443 1 1 0.999443
0.99943 1 1 0.99943
0.999435 1 1 0.999435
0.999493 1 1 0.999493
0.999443 1 1 0.999443
0.999433 1 1 0.999433
0.999475 1 1 0.999475
0.999523 1 1 0.999523
0.999612 1 1 0.999612
0.999525 1 1 0.999525
0.999629 1 1 0.999629
0.999924 1 1 0.999924
0.999644 1 1 0.999644
0.999933 1 1 0.999933
1 1 1 1
0.999938 1 1 0.999938
1 1 1 1
1 1 1 1
0.999462 1 1 0.999462
0.999435 1 1 0.999435
0.999495 1 1 0.999495
0.999454 1 1 0.999454
0.999433 1 1 0.999433
0.999622 1 1 0.999622
0.99948 1 1 0.99948
0.999432 1 1 0.999432
0.999928 1 1 0.999928
0.999623 1 1 0.999623
0.999497 1 1 0.999497
1 1 1 1
0.99994 1 1 0.99994
0.99965 1 1 0.99965
1 1 1 1
0.99996 1 1 0.99996
1 1 1 1
0.999496 1 1 0.999496
0.999445 1 1 0.999445
0.99943 1 1 0.99943
0.999593 1 1 0.999593
0.999493 1 1 0.999493
0.999444 1 1 0.999444
0.999524 1 1 0.999524
0.999614 1 1 0.999614
0.999911 1 1 0.999911
0.999638 1 1 0.999638
0.999923 1 1 0.999923
1 1 1 1
0.999932 1 1 0.999932
1 1 1 1
1 1 1 1
0.999497 1 1 0.999497
0.999458 1 1 0.999458
0.999432 1 1 0.999432
0.999623 1 1 0.999623
0.999494 1 1 0.999494
0.999455 1 1 0.999455
0.999924 1 1 0.999924
0.999621 1 1 0.999621
0.999478 1 1 0.999478
1 1 1 1
0.99993 1 1 0.99993
0.999631 1 1 0.999631
1 1 1 1
0.999943 1 1 0.999943
1 1 1 1
0.999611 1 1 0.999611
0.999486 1 1 0.999486
0.999447 1 1 0.999447
0.999902 1 1 0.999902
0.999595 1 1 0.999595
0.999493 1 1 0.999493
0.999616 1 1 0.999616
0.99991 1 1 0.99991
1 1 1 1
0.999922 1 1 0.999922
1 1 1 1
1 1 1 1
0.99962 1 1 0.99962
0.999493 1 1 0.999493
0.999454 1 1 0.999454
0.999922 1 1 0.999922
0.999622 1 1 0.999622
0.999494 1 1 0.999494
1 1 1 1
0.999924 1 1 0.999924
0.99962 1 1 0.99962
1 1 1 1
0.999932 1 1 0.999932
1 1 1 1
0.999899 1 1 0.999899
0.999602 1 1 0.999602
0.999477 1 1 0.999477
1 1 1 1
0.999901 1 1 0.999901
0.999597 1 1 0.999597
0.999909 1 1 0.999909
1 1 1 1
1 1 1 1
0.999912 1 1 0.999912
0.999619 1 1 0.999619
0.99949 1 1 0.99949
1 1 1 1
0.99992 1 1 0.99992
0.999622 1 1 0.999622
1 1 1 1
0.999924 1 1 0.999924
1 1 1 1
0.999989 1 1 0.999989
0.999904 1 1 0.999904
0.999594 1 1 0.999594
1 1 1 1
0.999901 1 1 0.999901
1 1 1 1
0.999993 1 1 0.999993
0.999913 1 1 0.999913
0.999619 1 1 0.999619
0.999998 1 1 0.999998
0.999919 1 1 0.999919
1 1 1 1
1 1 1 1
0.999902 1 1 0.999902
1 1 1 1
0.999996 1 1 0.999996
0.999911 1 1 0.999911
1 1 1 1
1 1 1 1
1 1 1 1

VECTORS lamdaE float
0.998957 0.999879 0.99702
0.999165 0.998887 0.998846
0.998899 0.999949 0.997064
0.99909 1.0001 0.996707
0.998899 1.00012 0.996936
0.999084 0.999433 0.997183
0.999535 1.00053 0.995125
0.999196 0.998782 0.998876
0.998781 1.00014 0.998726
0.998955 0.999307 0.998849
0.999338 0.998428 0.997637
0.999559 1.00018 0.995186
0.999421 0.999951 0.996342
0.999055 1 0.996801
0.99884 1.00003 0.997112
0.999018 1.00015 0.996766
0.999042 0.999458 0.99723
0.998837 1.0002 0.996978
0.999574 1.00051 0.995123
0.999358 0.999983 0.998419
0.999215 0.99999 0.996628
0.998947 1.00018 0.996832
1.00013 1.00016 0.994455
0.999672 1.00049 0.994938
0.99926 0.998842 0.997423
0.99943 1.00044 0.995387
1.0006 1.0011 0.992605
0.99923 0.998665 0.998906
0.998824 1.00015 0.997823
0.999004 0.999408 0.998034
0.999327 0.998312 0.998967
0.999514 1.00024 0.995187
0.998955 1.00034 0.996831
0.998918 1.00007 0.997079
0.999802 1.00049 0.995227
0.999414 0.997878 0.999115
0.999579 1.00033 0.995689
0.999546 0.999873 0.995495
1.00009 1.00151 0.992877
0.999555 0.997441 0.999183
0.999398 0.999997 0.998381
0.999121 1.00002 0.997661
0.999533 0.999994 0.99827
0.999161 0.999922 0.996682
1.00061 0.999976 0.993276
0.998951 1.00018 0.998669
1.00032 1.00004 0.994785
0.998946 1.00021 0.996824
0.998769 1.00031 0.997024
0.998999 0.999472 0.997282
0.999613 1.00047 0.99512
0.999342 0.99996 0.997442
0.999148 1 0.996687
0.999233 0.998809 0.997471
0.998881 1.00025 0.996888
1.00016 1.00015 0.994449
0.999463 1.00042 0.995389
0.999717 1.00045 0.994938
1.00065 1.00112 0.992551
0.999448 0.999997 0.99834
0.999285 0.999951 0.996551
1.00054 0.999957 0.994379
1.00031 0.999979 0.994315
0.999876 1.00036 0.99471
1.00186 1.00017 0.991228
1.00096 1.00072 0.99208
0.999462 0.998223 0.997684
0.999384 1.00012 0.995781
1.0002 1.00141 0.993007
1.00123 1.00113 0.99105
0.998851 1 0.998686
0.999364 0.998197 0.999018
0.999053 0.999187 0.998821
0.999466 1.0003 0.995188
0.998953 1.00021 0.998615
0.998886 0.999829 0.998723
0.999714 1.00057 0.994409
0.999433 0.997924 0.998482
0.999519 1.00046 0.99494
0.999526 0.999823 0.995881
1.00008 1.00151 0.992865
0.999498 0.997666 0.999131
0.999716 0.998644 0.996409
0.999978 1.00037 0.994161
0.99964 1.00059 0.994623
1.00101 1.00079 0.991799
0.999569 0.99937 0.996533
1.00028 1.0013 0.992726
0.999971 1.00158 0.993034
1.00049 1.00174 0.991812
0.999613 0.997194 0.999232
0.999558 0.997404 0.999199
0.999116 1.00007 0.99857
0.999334 1.00001 0.998431
0.9995 0.999999 0.998296
0.999226 0.999978 0.997556
1.00059 0.99998 0.993827
0.998986 1.00012 0.997722
1.00027 1.00001 0.994371
0.999547 0.999996 0.998262
1.00076 0.999951 0.992984
1.00045 0.999992 0.994581
1.00245 0.999777 0.989991
1.00015 1.00016 0.994931
1.00202 1.00005 0.990564
0.999406 0.999928 0.996387
0.99908 1.00002 0.996746
0.999201 0.998754 0.997523
0.998811 1.00035 0.99694
1.00019 1.00013 0.994443
0.999765 1.00039 0.994935
0.999497 1.0004 0.995388
1.0007 1.00114 0.992498
0.999491 0.999994 0.998306
0.999221 0.999936 0.996619
1.00058 0.999929 0.993615
1.00034 0.999973 0.994297
0.999413 0.998175 0.998347
0.999435 1.00009 0.995897
0.999916 1.00033 0.99471
1.00186 1.00016 0.991123
1.00026 1.00144 0.992944
1.00099 1.00075 0.992145
1.00123 1.00113 0.991056
1.00071 0.999973 0.993043
1.00039 0.999911 0.994227
1.00244 0.999724 0.990313
1.00209 0.999865 0.990825
1.00143 1.00042 0.991546
1.00271 0.999992 0.989586
0.999504 0.997791 0.999097
1.00161 1.0007 0.990718
0.999545 0.999658 0.995703
0.999921 1.00151 0.993103
1.00084 1.00165 0.991373
1.00164 1.001 0.990409
0.999706 0.998863 0.99616
1.00007 1.00053 0.99387
0.998903 1.00015 0.998631
0.998898 0.99966 0.998758
0.999672 1.00063 0.994417
0.999452 0.997863 0.999106
0.9995 0.999836 0.995569
0.999449 1.00058 0.994928
1.00008 1.00151 0.992851
0.999504 0.997642 0.999148
0.999723 0.998602 0.996424
0.999946 1.00034 0.994627
0.999575 1.00058 0.995065
1.001 1.00078 0.991813
0.999584 0.999333 0.995967
1.00027 1.00129 0.992727
0.999956 1.00159 0.993025
1.0005 1.00174 0.991784
0.999645 0.998987 0.996195
0.999785 0.998307 0.996622
1.00004 1.00048 0.993957
1.00143 1.00047 0.991282
1.00057 1.0011 0.992346
1.00167 1.00086 0.99048
1 1.00124 0.9933
1.00076 1.00139 0.991645
1.00029 1.00216 0.991905
1.00062 1.00201 0.991377
0.999679 0.996948 0.999274
0.999619 0.997153 0.999246
0.999562 0.997366 0.999214
0.999759 0.998539 0.996401
0.999556 0.997561 0.999153
0.999002 1.00014 0.9986
0.999222 1.00002 0.998517
1.00025 0.999978 0.993924
1.00055 0.999974 0.99336
0.99946 1 0.998328
0.999551 0.999998 0.998256
1.00074 0.999962 0.992995
1.00041 0.999978 0.994166
1.00245 0.999782 0.989992
1.00009 1.00015 0.994073
1.00201 1.00007 0.990566
1.00082 0.999953 0.992849
1.00271 0.999679 0.989586
1.00223 0.999892 0.990326
1.00332 0.999517 0.988601
1.00177 1.00024 0.990866
1.00285 0.999815 0.989234
0.999528 0.999991 0.998275
0.999155 0.99991 0.996689
1.00059 0.99991 0.992887
1.00037 0.999971 0.99428
0.999346 0.998115 0.999035
0.999484 1.00008 0.996013
0.999958 1.00028 0.994712
1.00186 1.00016 0.991019
1.00102 1.00078 0.992209
1.00033 1.00148 0.992881
1.00123 1.00112 0.991062
1.00073 0.99996 0.993032
1.00042 0.999903 0.994207
1.00242 0.999719 0.990118
1.00211 0.999909 0.990892
0.999485 0.997824 0.999077
0.999541 0.999655 0.996009
0.999984 1.00152 0.993211
1.00141 1.00044 0.991558
1.0027 0.999942 0.989466
1.00079 1.00166 0.991358
1.00166 1.00071 0.990756
1.00163 1.001 0.990421
0.999689 0.99892 0.99615
1.00007 1.00052 0.993869
1.0027 0.999656 0.98961
1.00223 0.999759 0.99068
1.00331 0.999516 0.98889
1.003 0.999543 0.989082
1.00209 1.00034 0.990255
1.00317 0.999572 0.989019
0.999623 0.999231 0.995926
1.00209 1.00044 0.990083
0.99993 1.00138 0.993237
1.00036 1.00188 0.991819
1.00122 1.00179 0.990719
1.00191 1.00076 0.990217
1.00006 1.00093 0.993498
1.00008 1.00006 0.994331
1.00024 1.00162 0.992472
0.999894 1.00039 0.994216
0.999508 0.997612 0.999164
0.999728 0.998564 0.99644
0.999497 1.00071 0.994686
1.00099 1.00077 0.991828
0.99958 0.999292 0.995948
0.999936 1.0016 0.993018
1.00026 1.00128 0.992729
1.0005 1.00172 0.991755
0.999654 0.998939 0.996205
0.999783 0.998285 0.996636
1.00004 1.00049 0.99396
1.00143 1.00047 0.991293
1.00056 1.00109 0.992361
1.00166 1.00086 0.990483
0.999972 1.00129 0.993299
1.00077 1.0014 0.991688
1.00028 1.00216 0.991901
1.00061 1.00201 0.991332
0.999845 0.99802 0.996797
1.00005 1.00083 0.993595
1.00004 1.00007 0.994371
1.00021 1.00153 0.992649
1.00217 1.00044 0.989922
1.00113 1.00122 0.991179
1.00204 1.0008 0.989812
1.00022 1.00203 0.99217
1.00098 1.00149 0.991212
1.00031 1.00278 0.991226
1.00074 1.00201 0.990988
1.00013 0.999076 0.995219
0.99994 0.997605 0.997024
0.999749 0.996729 0.999306
0.999689 0.996913 0.999284
0.999627 0.997114 0.999259
0.999805 0.998233 0.99663
0.999598 0.997324 0.999208
0.999753 0.998581 0.996384
0.99955 0.997587 0.999137
1.00009 1.00013 0.994078
1.00039 0.999945 0.993693
1.002 1.00008 0.990569
1.00244 0.999787 0.989993
1.00073 0.999972 0.993006
0.999548 1 0.998257
1.00082 0.999957 0.992846
1.00271 0.999678 0.989588
1.00221 0.999905 0.990325
1.00333 0.999524 0.988601
1.00176 1.00025 0.990873
1.00286 0.999812 0.989233
1.00281 0.999623 0.989436
1.00361 0.999413 0.988157
1.0031 0.999612 0.988963
1.0037 0.999179 0.98823
1.00255 1.0001 0.989531
1.0033 0.999393 0.988783
1.00074 0.99995 0.993019
1.00046 0.999907 0.994187
1.0024 0.999704 0.989923
1.00212 0.999948 0.990959
0.999467 0.997859 0.999057
0.999549 0.999658 0.996303
1.00005 1.00152 0.993318
1.0014 1.00046 0.99157
1.00268 0.999891 0.989346
1.00171 1.00071 0.990794
1.00073 1.00166 0.991343
1.00162 1.001 0.990433
0.999674 0.998978 0.996141
1.00007 1.0005 0.993869
1.00268 0.999646 0.989552
1.00224 0.999765 0.990676
1.00332 0.999488 0.988822
1.003 0.999604 0.989208
0.999616 0.999281 0.995924
0.999956 1.00137 0.993241
1.00036 1.00186 0.9919
1.00213 1.00037 0.990243
1.00316 0.9995 0.988993
1.00117 1.00181 0.990628
1.00209 1.00043 0.990083
1.00187 1.00075 0.990209
1.00007 1.00088 0.993505
1.00024 1.00159 0.992474
1.00007 1.00006 0.994323
1.00356 0.999451 0.988453
1.00314 0.999484 0.989113
1.00374 0.99928 0.988178
1.0035 0.999151 0.988646
1.00252 0.999938 0.989611
1.00342 0.99897 0.989056
0.999992 1.00122 0.993323
1.00231 1.0001 0.989967
1.00027 1.00177 0.992275
1.00054 1.00227 0.991099
1.00142 1.00186 0.990127
1.00205 1.0005 0.990361
1.00011 0.999649 0.994681
1.00028 1.00163 0.9924
1.00022 1.00134 0.992716
1.00024 1.00217 0.992014
1.00142 1.00047 0.991304
0.99978 0.998261 0.99665
0.999666 0.998889 0.996215
1.00004 1.0005 0.993962
1.00055 1.00107 0.992375
1.00165 1.00087 0.990485
0.999943 1.00134 0.993297
1.00028 1.00216 0.991896
1.00078 1.0014 0.99173
1.00059 1.00202 0.991286
0.99984 0.998008 0.996806
1.00004 1.00087 0.993592
1.00004 1.00006 0.994378
1.0002 1.00155 0.992639
1.00217 1.00045 0.989917
1.00111 1.00122 0.99119
1.00204 1.0008 0.989816
1.0002 1.00204 0.992175
1.00099 1.00151 0.991258
1.00033 1.00278 0.991202
1.00071 1.00199 0.99112
0.999896 0.997792 0.996928
1.00006 0.999701 0.994704
1.00025 1.00171 0.99242
1.00019 1.0012 0.992997
1.00019 1.00225 0.991968
1.00258 1.00026 0.989294
1.00141 1.00125 0.990597
1.0022 1.00074 0.989575
1.00021 1.00282 0.991431
1.0011 1.00154 0.990921
1.00042 1.00304 0.990442
1.00011 0.999238 0.995091
1.00015 1.00012 0.994151
1.00014 0.998943 0.995325
1.00012 0.999092 0.995217
0.999968 0.997404 0.997555
0.999932 0.997585 0.997255
0.99985 0.996558 0.998451
0.999758 0.996699 0.999315
0.999698 0.996879 0.999295
0.999858 0.99797 0.996797
0.999653 0.997077 0.999257
0.999809 0.998255 0.996615
0.999597 0.997358 0.999191
0.999747 0.998624 0.996367
0.999545 0.997615 0.99912
1.00175 1.00027 0.990881
1.00221 0.999915 0.990324
1.00285 0.999818 0.989232
1.00333 0.999529 0.988601
1.0027 0.999677 0.989591
1.00082 0.999959 0.992844
1.00281 0.999621 0.989433
1.00361 0.999415 0.988162
1.00309 0.999622 0.988964
1.00373 0.999166 0.988187
1.00255 1.0001 0.989526
1.0033 0.999404 0.988782
1.00372 0.999354 0.987992
1.00395 0.999137 0.98775
1.00355 0.999175 0.988512
1.00393 0.998882 0.988155
1.00297 0.999795 0.989015
1.00353 0.998754 0.988972
1.00266 0.999639 0.989494
1.00225 0.999761 0.990672
1.00333 0.999466 0.988755
1.003 0.999667 0.989333
0.999609 0.999326 0.995921
0.999978 1.00136 0.993246
1.00037 1.00184 0.991981
1.00218 1.0004 0.990231
1.00315 0.999427 0.988966
1.0021 1.00043 0.990083
1.00112 1.00182 0.990537
1.00183 1.00074 0.9902
1.00008 1.00084 0.993512
1.00025 1.00156 0.992476
1.00007 1.00007 0.994314
1.00358 0.999431 0.988328
1.00315 0.999455 0.989114
1.00374 0.999243 0.988132
1.00351 0.999183 0.988669
1.00002 1.00117 0.993331
1.0003 1.00176 0.992263
1.00052 1.00227 0.991197
1.00254 1.00001 0.989652
1.00342 0.99885 0.98911
1.00135 1.00193 0.990051
1.00232 1.00009 0.989972
1.00202 1.00042 0.990385
1.00028 1.00162 0.992412
1.00025 1.00217 0.991961
1.0001 0.999667 0.994674
1.00022 1.00128 0.99278
1.00395 0.999215 0.98773
1.00363 0.999162 0.988471
1.00395 0.999038 0.987931
1.00376 0.998716 0.988567
1.00281 0.999422 0.989621
1.00368 0.998266 0.98926
1.00026 1.00168 0.992392
1.00241 0.999499 0.990365
1.00028 1.00219 0.991692
1.00073 1.00271 0.990445
1.00153 1.00197 0.989662
1.00216 1.00037 0.990313
1.00012 0.99944 0.99487
1.00023 1.00085 0.993166
1.0003 1.002 0.992002
1.00018 1.00213 0.99211
1.00026 1.0023 0.99182
0.999834 0.997997 0.996815
1.00217 1.00046 0.989913
1.00005 1.00005 0.994386
1.00002 1.00092 0.99359
1.0002 1.00157 0.992629
1.0011 1.00123 0.991201
1.00204 1.00079 0.989819
1.00018 1.00205 0.99218
1.00034 1.00279 0.991179
1.00101 1.00152 0.991304
1.00068 1.00197 0.991252
0.999891 0.997782 0.996934
1.00007 0.999691 0.994711
1.00023 1.00172 0.992416
1.00019 1.00121 0.992995
1.00018 1.00227 0.991934
1.00259 1.00027 0.989286
1.0014 1.00125 0.990601
1.0022 1.00074 0.989552
1.00018 1.00282 0.991443
1.00111 1.00156 0.990949
1.00049 1.00302 0.990504
1.00008 0.999439 0.99493
1.00019 1.00079 0.993395
1.00025 1.00241 0.99173
1.00015 1.00207 0.992225
1.00015 1.00275 0.991576
1.00279 1.00002 0.989116
1.00156 1.0012 0.990325
1.00209 1.00044 0.989916
1.00015 1.00355 0.990723
1.00099 1.00264 0.990051
1.0001 0.999244 0.995092
1.00016 1.00028 0.993859
1.00015 1.00014 0.994083
1.00014 1.00095 0.993488
1.00015 1.00007 0.994205
1.00016 0.998839 0.995396
1.00014 0.998952 0.995323
1.00001 0.997224 0.997635
1.00012 0.999109 0.995215
0.999974 0.997392 0.997567
0.999914 0.996364 0.998513
0.999924 0.997569 0.997483
0.999832 0.996527 0.998897
0.999768 0.996669 0.999324
0.999902 0.997773 0.996908
0.999862 0.997982 0.996788
0.999719 0.996856 0.999291
0.999649 0.997116 0.999242
0.999812 0.998275 0.996599
0.999594 0.997394 0.999174
1.00256 1.00011 0.98952
1.00309 0.999625 0.988966
1.0033 0.999412 0.988782
1.00375 0.999153 0.988143
1.00361 0.999415 0.988166
1.00282 0.999619 0.98943
1.00373 0.999353 0.987992
1.00397 0.999159 0.987677
1.00355 0.999183 0.988518
1.00394 0.998839 0.988159
1.00298 0.999802 0.989002
1.00356 0.998722 0.98896
1.00411 0.999149 0.987435
1.00415 0.998988 0.987577
1.0038 0.998619 0.988517
1.00404 0.998698 0.988147
1.00323 0.999238 0.989014
1.0038 0.998292 0.989045
1.0036 0.999408 0.988203
1.00316 0.99943 0.989114
1.00374 0.999206 0.988087
1.00351 0.999212 0.988692
1.00004 1.00111 0.993339
1.00033 1.00176 0.992251
1.00049 1.00228 0.991295
1.00255 1.00008 0.989693
1.00342 0.99873 0.989165
1.00233 1.00008 0.989977
1.00128 1.00199 0.989976
1.00198 1.00034 0.99041
1.00029 1.00161 0.992425
1.00026 1.00217 0.991908
1.00009 0.999685 0.994666
1.00023 1.00121 0.992844
1.00395 0.999217 0.987727
1.00364 0.999154 0.988486
1.00392 0.999012 0.987985
1.00377 0.998711 0.988569
1.00028 1.00166 0.992393
1.00028 1.00216 0.991769
1.00071 1.00276 0.99044
1.00283 0.999517 0.989583
1.00356 0.998163 0.989505
1.00152 1.00203 0.98962
1.0024 0.999515 0.990383
1.00212 1.00015 0.990413
1.00032 1.00199 0.992005
1.00027 1.00228 0.991811
1.00018 1.00215 0.992097
1.00011 0.999439 0.99479
1.00024 1.0008 0.993219
1.00418 0.999026 0.987472
1.00399 0.998818 0.988017
1.00398 0.998217 0.988629
1.00313 0.998493 0.989902
1.00029 1.00199 0.992029
1.00265 0.998945 0.990695
1.0002 1.0026 0.991276
1.00094 1.00325 0.989506
1.00182 1.00194 0.989213
1.00013 0.999295 0.994847
1.00023 1.00053 0.993652
1.00018 1.00169 0.992572
1.00032 1.00205 0.991929
1.00019 1.00264 0.991657
1.00032 1.00224 0.991689
0.999886 0.997772 0.99694
1.00007 0.999681 0.994719
1.00259 1.00027 0.989278
1.00018 1.00123 0.992993
1.00022 1.00172 0.992411
1.00018 1.00229 0.991899
1.0014 1.00125 0.990605
1.0022 1.00074 0.98953
1.00016 1.00281 0.991455
1.00056 1.003 0.990567
1.00112 1.00157 0.990979
1.00008 0.999437 0.994935
1.00019 1.00079 0.993398
1.00023 1.0024 0.991764
1.00015 1.00207 0.992219
1.00014 1.00278 0.991523
1.00278 1.00006 0.989107
1.00158 1.00119 0.990304
1.00215 1.00035 0.989966
1.00013 1.00355 0.990677
1.00099 1.00277 0.989932
1.00017 1.00048 0.993731
1.00018 1.00169 0.992482
1.00018 1.00309 0.991229
1.00013 1.00271 0.99157
1.00021 1.00298 0.991201
1.00306 0.9986 0.989999
1.00166 1.00174 0.989762
1.00224 0.999616 0.990011
1.0004 1.00392 0.990184
1.00084 1.00326 0.989064
1.0001 0.99925 0.995094
1.00017 1.00027 0.993909
1.00017 1.00108 0.993091
1.00016 1.00016 0.994014
1.00015 1.00008 0.994205
1.00014 1.00093 0.99339
1.00012 1.00157 0.99287
1.00013 1.00087 0.993389
1.00016 1.00001 0.994255
1.00018 0.998795 0.995417
1.00016 0.998837 0.995396
1.00005 0.997094 0.997681
1.00014 0.998963 0.995321
1.00002 0.997218 0.997644
0.999963 0.996202 0.998568
0.999979 0.997378 0.997579
0.999907 0.996341 0.99851
0.999812 0.996488 0.999349
0.999946 0.997599 0.996999
0.999907 0.99778 0.996903
0.999782 0.996667 0.999316
0.999866 0.997995 0.996779
0.999711 0.996886 0.999281
0.999644 0.99715 0.999228
1.00298 0.999808 0.988989
1.00355 0.999193 0.988523
1.00358 0.998691 0.988949
1.00394 0.998798 0.988163
1.004 0.999179 0.987604
1.00373 0.999354 0.987993
1.00413 0.999165 0.987407
1.00413 0.999009 0.987604
1.00383 0.998635 0.988471
1.00404 0.998632 0.988159
1.00323 0.999272 0.989015
1.00374 0.998177 0.989173
1.00433 0.999047 0.987156
1.00417 0.998777 0.987751
1.00402 0.998274 0.988505
1.0036 0.998318 0.989346
1.00395 0.999218 0.987724
1.00364 0.999144 0.988502
1.00389 0.998984 0.988038
1.00377 0.998711 0.98857
1.0003 1.00165 0.992393
1.00029 1.00212 0.991846
1.0007 1.0028 0.990435
1.00284 0.999611 0.989545
1.00344 0.998064 0.989749
1.00238 0.99953 0.990401
1.00151 1.0021 0.989577
1.00208 0.999948 0.990513
1.00033 1.00199 0.992009
1.00029 1.00226 0.991802
1.00017 1.00218 0.992084
1.00011 0.999439 0.994708
1.00025 1.00075 0.993271
1.00414 0.999001 0.987546
1.004 0.998848 0.988017
1.00395 0.998239 0.98872
1.00032 1.00199 0.992021
1.00027 1.00257 0.991366
1.0009 1.00333 0.989491
1.00317 0.998555 0.989813
1.00179 1.00177 0.989395
1.00256 0.998928 0.990667
1.00013 0.999271 0.994865
1.00033 1.00206 0.991924
1.00032 1.0022 0.991747
1.00018 1.00268 0.99162
1.00019 1.00167 0.992608
1.00023 1.00052 0.993587
1.00423 0.998916 0.987547
1.00424 0.998438 0.987894
1.00386 0.99803 0.98891
1.00351 0.997401 0.990387
1.00029 1.00219 0.991838
1.00238 1.00043 0.98956
1.00033 1.0034 0.990362
1.00114 1.00372 0.988775
1.00013 0.99914 0.994991
1.00021 1.00032 0.993912
1.0002 1.00138 0.992914
1.00015 1.00247 0.991834
1.00036 1.00214 0.991769
1.00028 1.00257 0.991469
1.00008 0.999433 0.994939
1.00019 1.00078 0.993402
1.00277 1.0001 0.989097
1.00015 1.00207 0.992213
1.00021 1.00239 0.991799
1.00012 1.00282 0.99147
1.00161 1.00118 0.990282
1.00221 1.00024 0.990016
1.00011 1.00355 0.990632
1.00098 1.00291 0.989813
1.00018 1.00048 0.993735
1.00018 1.0017 0.992503
1.00016 1.00306 0.991296
1.00012 1.00274 0.991587
1.00016 1.00302 0.991224
1.00315 0.99861 0.989926
1.00171 1.00161 0.989786
1.00221 0.999642 0.99032
1.00033 1.00393 0.990128
1.00096 1.00352 0.988887
1.00019 1.00128 0.99288
1.00015 1.00245 0.991775
1.00017 1.00358 0.990744
1.00012 1.00321 0.990947
1.00409 0.997653 0.98937
1.00324 0.997456 0.9905
1.00174 1.00226 0.988908
1.00039 1.0045 0.989006
1.00017 1.00027 0.993959
1.00017 1.0011 0.993134
1.00015 1.00173 0.992573
1.00015 1.00008 0.994204
1.00015 1.00092 0.993292
1.00016 1.00001 0.994256
1.00013 1.00158 0.99279
1.00012 1.00087 0.993425
1.00011 1.00207 0.992346
1.00011 1.00147 0.992825
1.00011 1.00083 0.99345
1.00018 0.999954 0.994281
1.00018 0.998801 0.995401
1.00018 0.998787 0.995418
1.00008 0.997035 0.997684
1.00016 0.998833 0.995396
1.00005 0.997101 0.997683
1 0.996099 0.998587
1.00002 0.997212 0.997654
0.999958 0.996178 0.998566
0.999899 0.99632 0.998505
0.999988 0.997421 0.997096
0.99995 0.997606 0.996995
0.99984 0.99649 0.999338
0.999912 0.997787 0.996898
0.999774 0.996692 0.999308
0.999703 0.996918 0.999271
1.00323 0.999306 0.989017
1.00385 0.99865 0.988425
1.00368 0.998059 0.9893
1.00403 0.998561 0.98817
1.00411 0.999029 0.987631
1.00414 0.999182 0.987379
1.00428 0.99905 0.987256
1.00415 0.998786 0.987755
1.004 0.998282 0.988529
1.00361 0.998228 0.989319
1.00428 0.998944 0.987391
1.00424 0.998309 0.988115
1.00401 0.998066 0.988717
1.00411 0.998977 0.987621
1.004 0.998876 0.988017
1.00392 0.998258 0.98881
1.00034 1.00197 0.992012
1.00036 1.00253 0.991457
1.00085 1.00342 0.989475
1.00321 0.998617 0.989724
1.00248 0.998903 0.990639
1.00177 1.00161 0.989579
1.00033 1.00207 0.99192
1.0003 1.00218 0.991805
1.00018 1.00272 0.991582
1.00012 0.999247 0.994884
1.00019 1.00165 0.992644
1.00023 1.00051 0.993521
1.00423 0.998918 0.987492
1.00424 0.998464 0.987893
1.00392 0.998055 0.988805
1.00032 1.00219 0.991818
1.0003 1.00333 0.990543
1.00116 1.00374 0.988776
1.00344 0.997488 0.990434
1.0024 1.00031 0.989555
1.00013 0.999125 0.995079
1.00021 1.00031 0.993915
1.00032 1.00215 0.99176
1.00029 1.00252 0.991531
1.00015 1.00245 0.991837
1.00019 1.00141 0.992858
1.00427 0.998708 0.987595
1.00436 0.9982 0.987894
1.00412 0.996914 0.989617
1.00351 0.99781 0.990284
1.00014 1.00269 0.991513
1.00155 1.00349 0.988107
1.00056 1.004 0.989707
1.00015 0.998965 0.995288
1.00016 0.999923 0.994334
1.00018 1.00021 0.993904
1.00017 1.0012 0.993078
1.00013 1.00212 0.992201
1.0001 1.00312 0.991231
1.00041 1.00182 0.991816
1.00023 1.00303 0.991547
1.00018 1.00047 0.993739
1.00018 1.00171 0.992523
1.00325 0.998619 0.989853
1.00012 1.00276 0.991605
1.00013 1.00304 0.991363
1.00011 1.00306 0.991247
1.00177 1.00148 0.98981
1.00219 0.999669 0.990629
1.00026 1.00394 0.99007
1.00107 1.00376 0.98871
1.00018 1.00132 0.992836
1.00014 1.00245 0.991805
1.00015 1.00356 0.990802
1.00016 1.00323 0.991
1.00408 0.997637 0.989225
1.00316 0.997707 0.990512
1.00181 1.00214 0.989074
1.00049 1.00448 0.988918
1.00015 1.00199 0.992306
1.00416 0.997834 0.988631
1.00012 1.00315 0.991287
1.00024 1.00394 0.990203
1.0044 0.996386 0.989731
1.0028 1.00005 0.988923
1.00103 1.00443 0.988454
1.00017 1.00111 0.993176
1.00015 1.00174 0.992572
1.00013 1.00229 0.992058
1.00016 1.00001 0.994257
1.00012 1.00087 0.993461
1.00014 1.00158 0.99271
1.00018 0.999942 0.994283
1.00011 1.00084 0.993443
1.00012 1.00208 0.992284
1.0001 1.00148 0.992901
1.00014 1.00239 0.991971
1.00011 1.00198 0.99234
1.0001 1.00141 0.993003
1.00011 1.00074 0.99361
1.0002 0.999921 0.994279
1.00017 0.998821 0.995384
1.00018 0.998797 0.995402
1.00009 0.997035 0.997656
1.00018 0.998781 0.995419
1.00008 0.997054 0.997681
1.00003 0.996047 0.998581
1.00005 0.997108 0.997686
1 0.99607 0.998588
0.999953 0.996155 0.998562
1.00016 0.998808 0.995416
1.00003 0.99725 0.99719
0.999991 0.997432 0.997092
0.999893 0.996322 0.999364
0.999953 0.997614 0.996991
0.999833 0.996517 0.999331
0.999766 0.996716 0.999301
1.00362 0.998142 0.989291
1.00399 0.998288 0.988553
1.00414 0.998795 0.987759
1.00423 0.999054 0.987356
1.00427 0.998946 0.98739
1.00424 0.998296 0.9881
1.00398 0.998061 0.988747
1.00424 0.998587 0.987785
1.00425 0.998235 0.988218
1.00411 0.997993 0.988205
1.00424 0.998921 0.987436
1.00424 0.9985 0.987893
1.00399 0.998084 0.9887
1.00034 1.00219 0.991797
1.00026 1.00325 0.990724
1.00118 1.00369 0.988776
1.00337 0.997576 0.990481
1.00242 1.00018 0.98955
1.00029 1.00214 0.99175
1.0003 1.00246 0.991591
1.00015 1.00244 0.99184
1.00014 0.999108 0.995167
1.0002 1.00031 0.993918
1.00019 1.00144 0.992801
1.00426 0.998644 0.987712
1.00015 0.99896 0.995286
1.00015 0.999924 0.994288
1.0044 0.998188 0.987872
1.00404 0.997052 0.989491
1.00013 1.00263 0.991608
1.00056 1.00417 0.989495
1.00154 1.00336 0.988168
1.00338 0.997792 0.990317
1.00018 1.00021 0.994039
1.00017 1.0012 0.993078
1.00048 1.00189 0.991731
1.00016 1.00265 0.991797
1.00008 1.00321 0.991142
1.00014 1.0021 0.992209
1.00428 0.997724 0.988463
1.00451 0.998064 0.987902
1.00454 0.995626 0.990184
1.00257 1.00067 0.988844
1.00026 1.00283 0.991316
1.00092 1.00483 0.988287
1.00014 0.999821 0.994359
1.00016 1.00008 0.994172
1.0001 1.00082 0.993696
1.00014 1.00112 0.99311
1.00012 1.00193 0.992513
1.00002 1.00277 0.991634
0.999969 1.00398 0.990782
1.00014 1.0024 0.991853
1.00018 1.00136 0.992791
1.00014 1.00246 0.991836
1.00406 0.99763 0.989081
1.00308 0.997965 0.990523
1.0002 1.00325 0.991053
1.00013 1.00353 0.99086
1.00189 1.00205 0.989239
1.00061 1.00446 0.98883
1.00014 1.00201 0.992301
1.00415 0.997897 0.988566
1.0001 1.00311 0.991304
1.00025 1.00389 0.990129
1.00428 0.996343 0.989675
1.00293 1.00006 0.988977
1.00096 1.00448 0.988491
1.00011 1.00276 0.991644
1.00474 0.996876 0.989031
1.00035 1.00334 0.990821
1.00054 1.00449 0.989456
1.00428 0.996765 0.989221
1.00148 1.00322 0.988218
1.0019 1.00024 0.990855
1.00015 1.00174 0.99257
1.00013 1.0023 0.992054
1.0002 1.00256 0.991695
1.00018 0.99993 0.994285
1.00011 1.00085 0.993436
1.0001 1.00149 0.992977
1.00014 1.00209 0.992222
1.0002 0.99991 0.994279
1.00012 1.00074 0.993557
1.00013 1.00238 0.991958
1.00011 1.00141 0.992996
1.0001 1.00199 0.9924
1.00015 1.00233 0.991966
1.00005 1.00181 0.9927
1.00013 1.00128 0.993113
1.00015 1.00066 0.993542
1.00021 0.999905 0.994166
1.00016 1.00052 0.993835
1.0002 0.999877 0.994205
1.00017 0.99883 0.99538
1.00017 0.998821 0.995384
1.00011 0.997068 0.99722
1.00018 0.998794 0.995402
1.0001 0.997056 0.997445
1.00002 0.996002 0.999392
1.00008 0.997072 0.997678
1.00003 0.996015 0.998583
1 0.996041 0.998587
1.00017 0.998694 0.99552
1.00017 0.998806 0.995413
1.00006 0.99711 0.997266
1.00002 0.997258 0.997395
0.999939 0.996179 0.999385
0.999993 0.997444 0.997087
0.999886 0.996348 0.999356
0.999826 0.996541 0.999324
1.00395 0.998053 0.988776
1.00425 0.998287 0.988085
1.00425 0.998953 0.987388
1.00426 0.998578 0.987764
1.00419 0.998217 0.988266
1.00423 0.998081 0.988183
1.00424 0.997963 0.988374
1.00295 0.999266 0.989368
1.00478 0.997018 0.988176
1.00015 0.999752 0.994526
1.00425 0.998576 0.987828
1.00444 0.998166 0.98785
1.00395 0.997203 0.989366
1.00011 1.0026 0.991703
1.00056 1.00435 0.989281
1.00151 1.00321 0.988229
1.00325 0.997812 0.990351
1.00053 1.00196 0.991646
1.00009 1.00226 0.992047
1.00005 1.00328 0.991053
1.00016 0.998958 0.995283
1.00016 1.00207 0.992218
1.00017 1.00022 0.994175
1.00017 1.00119 0.993078
1.00015 0.999922 0.994241
1.00427 0.997768 0.988546
1.00015 0.99981 0.994415
1.00016 1.00009 0.994168
1.0001 1.0008 0.993591
1.00457 0.997793 0.987943
1.00436 0.995991 0.990059
1.0003 1.0026 0.991378
1.00074 1.00488 0.988177
1.00254 1.00065 0.98888
1.00014 1.00111 0.993184
1.00012 1.00193 0.992478
1.00013 1.00252 0.991709
0.999963 1.00386 0.990874
1.00004 1.00276 0.991701
1.00439 0.997487 0.988593
1.00483 0.997002 0.988351
1.00418 0.997616 0.988917
1.00142 1.00356 0.988389
1.0002 1.00361 0.990601
1.00009 1.00067 0.993614
1.00011 1.00099 0.993329
1.0001 1.00145 0.99304
1.00007 1.00182 0.992644
1.00008 1.00241 0.99208
0.999923 1.00338 0.991331
0.999833 1.00427 0.990581
1.00013 1.00203 0.992295
1.00007 1.00307 0.99132
1.00416 0.997949 0.9885
1.00416 0.996308 0.989618
1.00306 1.00006 0.989031
1.00026 1.00386 0.990054
1.00089 1.00451 0.988529
1.0001 1.00272 0.991716
1.00471 0.996575 0.988976
1.00026 1.00333 0.990869
1.00037 1.00452 0.989473
1.00432 0.996431 0.989478
1.0015 1.00341 0.988191
1.00194 1.00023 0.990236
1.0002 1.00297 0.991271
1.00502 0.994852 0.990409
1.00021 1.00365 0.990699
1.00026 1.00489 0.989132
1.00222 1.00077 0.988532
0.999539 0.995503 0.969383
0.997669 1.00163 0.982498
1.00158 0.999989 0.991991
0.996669 0.997377 0.968712
0.995996 0.995594 0.970652
1.00012 1.00231 0.99205
1.00017 1.00256 0.991736
1.00025 1.00244 0.991705
1.0002 0.9999 0.994278
1.00012 1.00074 0.993504
1.00011 1.00141 0.992989
1.0001 1.002 0.99246
1.00013 1.00237 0.991945
1.00013 1.00128 0.993057
1.00021 0.999909 0.994214
1.00015 1.00066 0.993589
1.00013 1.00233 0.991987
1.00007 1.00179 0.992686
1.00006 1.00166 0.99278
1.00011 1.00206 0.992359
1.00018 1.00115 0.993012
1.00019 1.00057 0.99357
1.00021 0.999897 0.994163
1.00019 1.0005 0.993734
1.00016 1.00099 0.99336
1.00014 1.00058 0.993722
1.00016 1.00052 0.993767
1.0002 0.999866 0.994313
1.0002 0.999883 0.994199
1.00017 0.998832 0.995376
1.00017 0.998828 0.99538
1.00011 0.997097 0.997214
1.00017 0.99882 0.995384
1.00011 0.997069 0.99722
1.00002 0.996 0.999388
1.00011 0.997078 0.997235
1.00003 0.996002 0.998977
1.00003 0.995983 0.998586
1.00018 0.99861 0.995594
1.00017 0.998688 0.995519
1.00009 0.997001 0.997332
1.00017 0.998804 0.995411
1.00006 0.997105 0.99747
0.999976 0.996064 0.999402
1.00003 0.997276 0.997175
0.999932 0.996221 0.999376
0.99988 0.996376 0.999348
1.00413 0.998197 0.988313
1.00427 0.998569 0.987743
1.00432 0.998176 0.988162
1.00278 0.998543 0.989547
1.00429 0.997942 0.988371
1.0047 0.997245 0.988211
1.00482 0.99754 0.987627
0.998858 0.998373 0.982213
1.00401 0.996922 0.989452
1.00015 0.99973 0.994553
1.00015 0.999748 0.994526
1.00008 1.00058 0.993843
1.00007 1.00056 0.993894
1.00425 0.997812 0.988629
1.00463 0.997605 0.987983
1.00418 0.996302 0.989934
1.00034 1.00228 0.99144
1.00057 1.00503 0.988067
1.00253 1.00066 0.988918
1.00012 1.00266 0.991565
0.999962 1.00374 0.990965
1.00006 1.00276 0.991768
1.00016 1.00009 0.994164
1.00011 1.00193 0.992444
1.00014 1.0011 0.993259
1.00016 0.9998 0.99447
1.0001 1.00079 0.993486
1.0043 0.997516 0.988668
1.00009 1.00068 0.993721
1.00011 1.00096 0.993386
1.0001 1.00141 0.993007
1.00482 0.996779 0.988396
1.00403 0.997653 0.988907
1.00027 1.00341 0.990604
1.00142 1.00382 0.988226
1.00007 1.00182 0.992667
1.00006 1.00239 0.992091
0.999852 1.00425 0.990575
0.999953 1.00354 0.991203
1.00481 0.996806 0.988479
1.00501 0.996954 0.987897
1.00253 1.00236 0.98762
1.00015 1.00437 0.989985
1.00008 1.00156 0.992813
1.00005 1.00167 0.992792
1.00004 1.00251 0.99201
0.999976 1.00418 0.990456
0.998843 0.995691 0.966332
1.00008 1.00269 0.991788
1.00016 1.00331 0.990918
1.00467 0.996228 0.988921
1.00433 0.996088 0.989736
1.0015 1.00359 0.988164
1.00021 1.00456 0.989489
1.00188 1.00024 0.989619
1.00016 1.00299 0.991324
1.00497 0.994934 0.990286
1.00013 1.00366 0.990711
1.00024 1.00491 0.989164
1.00242 1.00058 0.988544
0.999375 0.995836 0.967993
0.997327 1.0014 0.979567
1.00154 0.999983 0.992249
0.996462 0.997789 0.968175
0.995976 0.99557 0.968729
1.00012 1.00295 0.991475
0.997612 0.994902 0.967836
0.996883 0.996872 0.971224
1.00381 0.996608 0.990691
1.00002 1.00374 0.990713
1.00011 1.00472 0.989867
1.00142 0.999892 0.993296
0.997885 0.998866 0.967829
0.996555 1.00232 0.978255
0.995511 0.99956 0.969441
0.999232 0.994864 0.974554
1.00013 1.00257 0.991777
1.00022 1.00247 0.991712
1.00028 1.00233 0.991857
1.0002 0.99991 0.994261
1.00016 1.00065 0.993636
1.00014 1.00128 0.993001
1.00008 1.00176 0.992673
1.00012 1.00234 0.992008
1.00021 0.999904 0.994161
1.00006 1.00162 0.992831
1.00018 1.00117 0.993077
1.0002 1.00056 0.993621
1.00012 1.00207 0.992298
1.00017 1.0016 0.992617
1.00014 1.00214 0.992242
1.0002 1.00095 0.993256
1.00021 1.00054 0.993663
1.00019 1.0005 0.993734
1.00016 1.00098 0.993293
1.00019 1.0009 0.993316
1.00014 1.0011 0.99321
1.00021 1.00126 0.992966
1.00002 1.00192 0.992594
1.00013 1.00072 0.993588
1.00013 1.00059 0.993718
1.00018 0.999894 0.994323
1.00015 1.00053 0.993698
1.0002 0.999869 0.994275
1.00017 0.998846 0.995367
1.00021 0.99989 0.994194
1.00017 0.99883 0.995377
1.00008 0.997121 0.997635
1.00017 0.998827 0.995379
1.0001 0.997091 0.997424
1.00006 0.996013 0.998548
1.00011 0.997071 0.997219
1.00002 0.996001 0.999388
1.00005 0.996003 0.998563
1.00014 0.999761 0.994526
1.00017 0.998587 0.995621
1.00018 0.998608 0.995593
1.0001 0.996925 0.997382
1.00018 0.998683 0.995519
1.00009 0.996994 0.997334
1 0.995972 0.999417
1.00005 0.997119 0.997662
0.999985 0.996105 0.998981
0.99996 0.99625 0.998536
1.0025 0.997813 0.989725
1.00436 0.997934 0.988367
1.00464 0.997443 0.988247
0.99845 0.998272 0.984286
1.00395 0.997433 0.989609
1.00479 0.997301 0.987675
1.00475 0.997547 0.989364
0.999442 0.997241 0.984493
0.998513 0.996791 0.965512
0.996969 0.997178 0.966614
0.99646 0.994809 0.969992
1.00006 1.00055 0.993798
1.00015 0.999735 0.994552
1.00016 0.999746 0.994525
1.00007 1.00059 0.99381
1.00004 1.0012 0.993323
1.00007 1.00107 0.993405
1.00008 1.00068 0.993781
1.00007 1.00057 0.993845
1.00422 0.997546 0.988743
1.00481 0.996469 0.988442
1.00387 0.99771 0.988897
1.00033 1.00328 0.990608
1.0014 1.00396 0.988061
0.99987 1.00423 0.99057
0.999983 1.0037 0.991075
1.00004 1.00236 0.992102
1.0001 1.00093 0.993443
1.00007 1.00183 0.99269
1.0001 1.00068 0.993828
1.0001 1.00136 0.992975
1.00473 0.997022 0.988328
1.00007 1.00155 0.992864
1.00006 1.00168 0.992775
1.00489 0.99691 0.987873
1.00212 1.00208 0.987915
1.00022 1.00438 0.98987
1.00007 1.00252 0.991937
0.999995 1.00416 0.990468
1.00475 0.998712 0.987837
1.00346 1.00054 0.987863
1.00008 1.00448 0.989256
1.00002 1.00419 0.990411
1.00003 1.00199 0.992429
1.0001 1.00236 0.992046
1.00011 1.00328 0.991194
0.997993 0.99475 0.96707
0.999374 0.996042 0.969822
1.00012 1.00301 0.991376
1.00006 1.00366 0.990723
1.00495 0.994986 0.990162
1.00263 1.00055 0.988556
1.00023 1.00493 0.989197
0.99947 0.995769 0.965281
0.997595 1.0015 0.981244
1.00147 0.999977 0.992512
0.996386 0.997342 0.968044
0.995886 0.995617 0.966803
1.00014 1.00287 0.991473
0.997867 0.994774 0.967645
0.996682 0.997088 0.970646
1.00396 0.996848 0.990606
0.999935 1.00399 0.990739
0.999954 1.00472 0.989876
1.00152 0.999346 0.993308
0.997624 0.999127 0.965767
0.996512 1.0037 0.981088
0.995499 0.999714 0.967821
0.998586 0.994903 0.974037
1.00031 1.00256 0.991478
0.996847 0.997713 0.974283
1.00324 0.996115 0.979472
1.00138 0.999648 0.99223
0.999695 1.00415 0.991635
1.00077 1.00398 0.993964
0.997528 1.00277 0.984855
0.995472 1.00186 0.965912
0.995208 0.999674 0.968856
1.00325 0.996363 0.974325
1.0002 1.00249 0.99172
1.00026 1.00233 0.991796
1.00002 1.00234 0.991976
1.00021 0.999911 0.994159
1.0002 1.00055 0.993672
1.00018 1.00119 0.993141
1.00004 1.00158 0.992883
1.00012 1.00209 0.992238
1.00021 1.00054 0.993664
1.00014 1.00162 0.992676
1.0002 1.00095 0.993249
1.00011 1.00217 0.992247
1.00015 1.00211 0.992385
1.00022 1.00145 0.992728
1.0002 1.00091 0.993295
1.00019 1.0005 0.993735
1.00017 1.00098 0.993226
1.00019 1.0009 0.993322
1.00013 1.0011 0.993207
1.00024 1.00122 0.992931
1.00009 1.00138 0.992994
1.00023 1.00116 0.993002
1.00024 1.0014 0.992675
1.00006 1.00251 0.991929
0.999827 1.00341 0.991409
0.999968 1.0024 0.992148
1.00002 1.00195 0.99259
1.00011 1.00105 0.99331
1.00012 1.00075 0.99358
1.00016 0.999959 0.994292
1.00013 1.0006 0.993714
1.00018 0.999895 0.994321
1.00015 0.998896 0.995351
1.00019 0.999871 0.994237
1.00017 0.998844 0.995369
1.00005 0.997159 0.997638
1.00017 0.998827 0.995378
1.00008 0.997116 0.997426
1.00004 0.996019 0.99855
1.00011 0.997082 0.997214
1.00002 0.996012 0.999386
1.00002 0.996001 0.999387
1.00015 0.999842 0.994599
1.00017 0.998634 0.995588
1.00014 0.999771 0.994526
1.00011 0.996905 0.997399
1.00017 0.998586 0.995621
1.00018 0.998604 0.995593
1.0001 0.996929 0.99738
1.00002 0.995913 0.999427
1.00007 0.996995 0.997728
1.00001 0.995987 0.999011
1 0.996114 0.998576
0.997827 0.995205 0.96838
0.996999 0.996085 0.97279
0.998649 0.997719 0.985653
1.00392 0.998059 0.989762
1.00476 0.997094 0.987722
0.999477 0.997105 0.987761
1.00476 0.997744 0.989267
0.999315 0.995811 0.968707
0.996378 0.997306 0.968208
0.996347 0.995075 0.968233
1.0009 0.996655 0.991028
0.997647 0.999004 0.96889
0.99569 0.999718 0.968538
0.998682 0.996573 0.971924
1.00005 1.00134 0.99311
1.00007 1.00055 0.993842
1.00015 0.999732 0.994551
1.00007 1.00059 0.993776
1.00003 1.00116 0.993388
1.00005 1.00138 0.993147
1.00007 1.00104 0.993409
1.00009 1.00096 0.993421
1.00008 1.00069 0.993718
1.00006 1.00058 0.993796
1.00464 0.997224 0.98818
1.00475 0.996802 0.987844
1.0017 1.00178 0.988212
1.00028 1.00444 0.989756
1.00002 1.00412 0.99048
1.0001 1.00254 0.991863
1.00005 1.00169 0.992759
1.00005 1.00155 0.992915
1.00481 0.998048 0.987695
1.00004 1.00202 0.992396
1.00012 1.00238 0.991945
1.00314 1.00084 0.987394
0.999957 1.00442 0.989848
1.00011 1.0041 0.990337
1.00016 1.00315 0.991196
1.0027 1.00341 0.987444
1.00065 1.00309 0.990719
1.00006 1.00379 0.990663
1.00003 1.00217 0.992316
1.00015 1.00245 0.991791
1.00029 1.00291 0.991169
0.998151 0.997049 0.974595
0.997837 0.995074 0.966891
0.999052 0.995752 0.966195
1.00016 1.00278 0.991471
0.999867 1.00423 0.990764
1.00416 0.996942 0.990522
0.999791 1.00466 0.989881
0.998268 0.994734 0.966985
0.997396 0.998889 0.969136
0.99668 1.0035 0.978192
1.00157 0.999101 0.993353
0.99551 0.999869 0.969006
0.996564 0.99722 0.970624
0.998394 0.994829 0.973458
1.00025 1.00268 0.991476
0.996996 0.997675 0.973991
1.00296 0.996393 0.979675
1.00145 0.999485 0.992507
0.999453 1.00397 0.991649
1.00138 1.00326 0.992534
0.997522 1.00296 0.98083
0.995631 1.00312 0.967115
0.995797 0.999224 0.970836
1.00121 0.996662 0.975008
0.999649 1.00283 0.992815
1.00493 0.997779 0.979932
1.0101 0.99726 0.975987
0.998583 1.00423 0.99324
0.998211 1.00282 0.990419
0.995392 1.00271 0.966577
0.996729 0.999873 0.971645
1.0018 0.999589 0.972214
1.00025 1.00232 0.991735
1.00013 1.0023 0.992077
1.00003 1.00157 0.99275
1.00021 1.00054 0.993664
1.00019 1.00094 0.993241
1.00012 1.00164 0.992736
1.00008 1.0022 0.992253
1.0002 1.00092 0.993295
1.00021 1.00145 0.992732
1.00011 1.002 0.992423
1.00002 1.00181 0.99297
1.00029 1.00148 0.992556
1.00023 1.00114 0.992989
1.00019 1.00089 0.993328
1.00013 1.00111 0.993204
1.00026 1.00117 0.992895
1.00024 1.00116 0.992995
1.00008 1.00141 0.992988
1.00026 1.00135 0.992702
1.00017 1.00181 0.992409
1.00034 1.00131 0.992618
1.00005 1.00264 0.991811
1.00008 1.00249 0.99197
0.999799 1.00335 0.991515
1.00009 1.00362 0.990824
1.00002 1.00268 0.991946
0.99979 1.00329 0.991616
0.999979 1.00239 0.992232
1.0001 1.0015 0.992797
1.00001 1.00198 0.992586
1.00011 1.00107 0.993302
1.00015 1.00013 0.994144
1.00012 1.00077 0.993572
1.00016 0.999967 0.994287
1.00012 0.998986 0.995318
1.00018 0.999893 0.994319
1.00016 0.998889 0.995353
1.00002 0.997224 0.997636
1.00017 0.998842 0.99537
1.00006 0.997158 0.997429
1 0.996077 0.998555
1.00009 0.997105 0.997216
1.00002 0.996031 0.998967
1.00002 0.996017 0.999386
1.00015 1.00003 0.994301
1.00016 0.998723 0.995516
1.00014 0.999851 0.994478
1.0001 0.996945 0.997376
1.00017 0.998631 0.995589
1.00014 0.999782 0.994525
1.00002 0.9959 0.999429
1.00011 0.996902 0.997399
1.00018 0.998584 0.995621
1.0001 0.996933 0.997378
1.00002 0.995922 0.999425
1 0.995982 0.999413
0.997434 0.997217 0.975292
0.997535 0.995042 0.967432
1.00341 0.996541 0.978329
0.997044 0.996102 0.971986
0.999715 0.997168 0.983533
1.00477 0.997926 0.989126
0.998755 0.995846 0.971916
0.996785 0.998286 0.967077
0.996207 0.995318 0.966474
1.00055 0.997286 0.988967
0.998215 0.998003 0.965657
0.995672 0.999551 0.966837
0.998667 0.996634 0.971442
0.998853 0.998206 0.988607
0.996565 1.00091 0.965653
0.995302 1.00012 0.969239
1.00233 0.99832 0.9723
1.00007 1.00184 0.992646
1.00004 1.00133 0.993175
1.00007 1.00055 0.993887
1.00001 1.00111 0.993454
1.00008 1.00167 0.992711
1.00005 1.00133 0.993204
1.00007 1.00102 0.993413
1.00014 1.00105 0.993334
1.0001 1.00095 0.993486
1.00008 1.0007 0.993656
1.00487 0.997378 0.987553
1.00283 1.00115 0.986928
0.999854 1.00434 0.990438
1.0002 1.00399 0.990264
1.0002 1.00304 0.991198
1.00013 1.00239 0.991844
1.00005 1.00206 0.992363
1.00005 1.00217 0.99232
1.00291 1.00234 0.987695
1.00013 1.0025 0.991847
1.0003 1.00291 0.991197
1.00066 1.00307 0.990304
1.00019 1.00363 0.990677
1.00084 1.0029 0.989786
1.00022 1.00279 0.991777
1.00029 1.00284 0.991023
1.00018 1.00228 0.991941
1.00033 1.00283 0.991093
1.0067 0.997611 0.979227
0.998109 0.997444 0.974911
0.997845 0.995331 0.968019
1.00018 1.00283 0.991472
0.999212 1.00388 0.991663
1.00149 0.999341 0.992771
0.996941 0.997692 0.974959
0.995802 1.0019 0.965305
0.99744 1.00299 0.983206
1.00211 1.00214 0.991051
0.99533 0.99961 0.968861
1.0025 0.996665 0.979877
1.00075 0.996756 0.975186
0.99961 1.00257 0.992891
1.00466 0.99758 0.98118
1.00978 0.997541 0.976364
0.998593 1.00392 0.993457
0.998223 1.00209 0.989428
0.995558 1.00282 0.964897
1.00338 0.998879 0.972281
0.99583 0.999486 0.970721
0.998843 1.00248 0.994279
1.01785 0.995175 0.971467
1.01318 0.997591 0.972676
1.00261 0.998113 0.972335
0.995862 1.00354 0.995833
0.995355 0.999817 0.970447
0.994602 0.999992 0.97271
1.00025 1.00223 0.992177
1.0002 1.00175 0.992384
1.00005 1.00042 0.99422
1.0002 1.00092 0.993295
1.0002 1.00146 0.992737
1.00009 1.00185 0.992462
1.00024 1.00115 0.992999
1.00029 1.00143 0.992546
1.0001 1.0017 0.992774
0.999729 1.00115 0.993814
1.0004 1.0012 0.992604
1.00024 1.00117 0.992989
1.00007 1.00145 0.992982
1.00028 1.00131 0.992729
1.00033 1.00131 0.992617
1.00019 1.00175 0.99246
1.00002 1.00218 0.992324
1 1.00265 0.991877
0.999887 1.00393 0.990886
1.00009 1.00249 0.992012
0.999901 1.00335 0.991476
1.00002 1.00396 0.990346
1.00011 1.00354 0.990803
1.00002 1.00291 0.991658
1.00004 1.00362 0.990847
1.0001 1.0019 0.992483
1.00003 1.0027 0.991887
0.999752 1.00317 0.991823
0.99999 1.00238 0.992317
1.0001 1.00147 0.992883
1.00014 1.00044 0.993848
1.00011 1.00109 0.993294
1.00014 1.00015 0.994135
1.00009 0.999126 0.995244
1.00015 0.999979 0.994282
1.00013 0.998976 0.995318
0.999969 0.997335 0.99761
1.00016 0.998882 0.995354
1.00003 0.997231 0.997424
0.999961 0.996159 0.998554
1.00007 0.99715 0.99722
0.999991 0.996085 0.99897
0.999997 0.996052 0.999387
1.00016 1.00022 0.99393
1.00014 0.998892 0.995233
1.00015 1.00003 0.994297
1.00009 0.997037 0.997315
1.00015 0.998734 0.995434
1.00013 0.999863 0.994356
1.00001 0.995934 0.999421
1.0001 0.996936 0.997378
1.00017 0.998627 0.995589
1.00002 0.995899 0.999429
1.00011 0.996902 0.997399
1.00001 0.995929 0.999422
1.00734 0.997261 0.977408
0.997599 0.996871 0.974312
0.997681 0.994909 0.967273
1.0002 1.00107 0.993122
1.01021 0.996002 0.977539
1.00308 0.9968 0.978526
0.997125 0.996153 0.971629
1.00049 0.997837 0.986751
0.998066 0.998697 0.968906
0.995696 0.999633 0.967951
0.999189 0.995564 0.970763
0.998335 0.998772 0.983639
0.99588 1.00127 0.968008
0.996093 1.00024 0.968958
1.00167 0.997837 0.97273
0.997326 1.00196 0.980287
0.995463 1.00153 0.964045
0.995709 0.999709 0.969254
1.00165 0.999572 0.972318
1.00015 1.00202 0.99224
1.00007 1.00186 0.992607
1.00004 1.00132 0.99324
1.00014 1.00164 0.992664
1.00008 1.00165 0.992798
1.00005 1.00128 0.99326
1.00014 1.00105 0.993352
1.00011 1.00094 0.993551
1.00309 1.00136 0.987946
1.00066 1.00314 0.989888
1.00006 1.00215 0.992324
1.00032 1.00354 0.990691
1.00031 1.00288 0.991225
1.00011 1.00254 0.991903
1.00017 1.00232 0.991951
1.00132 1.00321 0.989983
1.0003 1.00279 0.991213
1.00034 1.00302 0.990969
1.00025 1.00234 0.991578
1.00026 1.00211 0.992056
0.999936 0.999828 0.994674
0.999485 1.0032 0.992536
1.00035 1.00239 0.991362
1.00029 1.0024 0.991701
1.01994 0.994822 0.969572
1.00764 0.997514 0.978053
0.998061 0.997822 0.975235
0.999549 1.0023 0.99297
0.99862 1.00357 0.993669
1.00442 0.997348 0.982424
0.99549 1.00139 0.967183
0.998275 1.00271 0.984106
0.995706 0.999726 0.969448
1.00954 0.997792 0.976741
1.00498 0.99815 0.972349
0.998922 1.00281 0.993891
1.01789 0.995204 0.97167
1.01402 0.998152 0.972067
0.996021 1.00441 0.998054
1.0019 0.99741 0.972818
0.995011 0.999905 0.968807
0.99571 0.99973 0.969702
0.998107 1.00162 0.997349
1.02485 0.992826 0.964847
1.01014 0.995791 0.977722
0.998671 0.995846 0.972615
0.995771 0.999148 0.969631
0.995506 1.0004 1.00034
0.995016 1.00023 0.966188
1.00034 1.002 0.992019
1.00008 1.00049 0.994064
0.998778 1.00029 0.99632
1.00025 1.00116 0.993009
1.00029 1.0014 0.992536
1.00016 1.00167 0.992577
1.00037 1.00127 0.992588
0.999853 1.00093 0.993793
0.999688 1.00225 0.992741
1.00033 1.0013 0.992616
1.00021 1.00168 0.99251
1.00012 1.00218 0.992249
0.999675 1.00387 0.99132
0.99996 1.00267 0.991943
0.999795 1.0038 0.991046
0.999972 1.00475 0.989895
1.00053 1.00373 0.989846
1 1.00334 0.991437
1.00009 1.0041 0.990164
1.00026 1.00309 0.99119
0.999923 1.00319 0.991412
1.00011 1.00343 0.990916
1.00009 1.00217 0.99226
1.00005 1.0029 0.991645
0.999987 1.00363 0.990871
1.00014 1.00083 0.993476
1.00011 1.00187 0.992464
1.00003 1.00273 0.991828
1.0001 1.00144 0.99297
1.00014 1.00045 0.99384
1.00005 0.999361 0.99509
1.00014 1.00017 0.994127
1.00009 0.999124 0.99524
0.999928 0.997497 0.997139
1.00013 0.998969 0.995319
0.999985 0.997344 0.997188
0.999872 0.996272 0.999383
1.00004 0.997226 0.997215
0.99995 0.996163 0.99897
0.999967 0.996109 0.999387
1.0002 1.0003 0.993777
1.00012 0.999106 0.995025
1.00017 1.00022 0.993996
1.00006 0.997181 0.997223
1.00014 0.998909 0.995209
1.00015 1.00004 0.994293
0.999994 0.996007 0.999405
1.00008 0.997027 0.997319
1.00015 0.998744 0.995351
1.00001 0.995925 0.999424
1.0001 0.996929 0.99738
1.00002 0.9959 0.999429
1.01919 0.994546 0.970127
1.00708 0.997363 0.97776
0.997573 0.996583 0.974518
1.00019 1.00109 0.993142
1.00024 1.00112 0.992966
1.00015 1.00163 0.992712
1.0131 0.997833 0.972334
1.00946 0.997036 0.97794
1.00274 0.996957 0.978723
0.997863 0.999308 0.986952
0.996366 1.00104 0.96557
0.995395 1.00027 0.967623
1.00217 0.99688 0.972885
0.996714 1.00145 0.984172
0.995513 1.00149 0.966227
0.995021 0.999919 0.972201
1.00315 0.99919 0.97235
0.996919 1.00098 0.983897
0.995123 1.00082 0.968652
0.99463 1.0001 0.972881
1.0028 0.996985 0.974091
1.00022 1.002 0.992168
1.00015 1.00204 0.992232
1.00007 1.0019 0.992569
1.00014 1.00164 0.992658
1.00008 1.00162 0.992884
1.00015 1.00105 0.993371
1.00183 1.00346 0.990179
1.00023 1.00191 0.991381
1.00016 1.00238 0.991962
1.0004 1.00308 0.990915
1.00027 1.00281 0.991334
1.00027 1.00206 0.992016
1.00028 1.00239 0.991712
1.00009 1.00075 0.994616
1.00037 1.0024 0.991481
0.999081 1.00297 0.993687
1.00024 1.00192 0.992183
0.997952 0.999873 0.998247
0.998582 1.00067 0.99695
1.00023 1.00223 0.99179
1.02773 0.992431 0.96144
1.02162 0.99436 0.967619
1.0086 0.997436 0.97688
0.999004 1.00309 0.993501
0.996261 1.00204 0.998214
1.01793 0.995219 0.971874
0.99505 1.00103 0.976957
0.99666 0.999919 0.971895
1.01488 0.9986 0.971459
1.00248 0.99665 0.972943
0.998148 1.00148 0.997159
1.02579 0.992493 0.963692
1.00937 0.99706 0.978072
0.995342 1.00134 0.993368
0.998733 0.996011 0.972054
0.995017 0.999933 0.972013
0.994994 1.00016 0.970204
0.997022 1.00262 1.00051
1.01902 0.994859 0.970129
1.00332 0.996619 0.978319
0.996408 0.994682 0.970444
0.995167 0.998949 0.970423
0.995002 1.0001 0.96946
0.995374 1.00013 0.990582
1.00008 1.00058 0.993908
0.998918 1 0.996301
0.998588 1.00233 0.994976
1.00034 1.0013 0.992572
0.999974 1.00069 0.993771
0.999568 1.00241 0.992851
0.999645 1.00299 0.992203
1.00022 1.00218 0.992175
0.999879 1.0038 0.991156
0.999976 1.00477 0.989836
0.9997 1.00367 0.991206
1.00002 1.00468 0.989869
1.00067 1.00481 0.988805
1.00095 1.004 0.988856
1.00033 1.00299 0.990776
1.00052 1.00384 0.98973
1.00018 1.00423 0.989982
1.00022 1.00277 0.991527
1.00018 1.00296 0.991332
0.999998 1.00264 0.991867
0.999961 1.00315 0.991481
1.00012 1.00331 0.99103
1.00014 1.0012 0.993097
1.0001 1.00215 0.992268
1.00008 1.00288 0.991633
1.00001 0.999675 0.994836
1.00014 1.00082 0.993476
1.00012 1.00185 0.992444
1.00013 1.00047 0.993833
1.00005 0.999364 0.995084
0.999862 0.997713 0.997047
1.0001 0.99912 0.995236
0.999932 0.997504 0.997136
0.999826 0.996424 0.999369
0.99999 0.997346 0.997188
0.999893 0.996288 0.99896
0.999925 0.996193 0.999384
1.00022 1.0004 0.993735
1.00013 0.999259 0.995014
1.00019 1.00031 0.993826
1.00002 0.997368 0.997106
1.00013 0.99912 0.995087
1.00018 1.00023 0.994062
0.999964 0.996124 0.999382
1.00006 0.99717 0.997228
1.00014 0.998928 0.995185
0.999997 0.995995 0.99941
1.00008 0.997017 0.997323
1.00002 0.995915 0.999427
1.02501 0.993007 0.964184
1.01902 0.994673 0.970325
1.00682 0.997516 0.978114
1.00024 1.00121 0.992848
1.00021 1.00175 0.992475
1.00018 1.0011 0.993162
1.00023 1.00114 0.992951
1.00017 1.00163 0.99265
1.00019 1.00164 0.992603
1.00016 1.00193 0.992345
1.00997 0.997841 0.975509
1.014 0.998514 0.971641
1.00868 0.998111 0.978343
1.00468 0.998504 0.972381
0.995921 1.00135 0.980877
0.995523 1.00202 0.968475
0.994834 1.00054 0.969759
0.996332 1.00022 0.982052
0.995125 1.00014 0.966236
0.995684 0.999818 0.970103
1.00102 0.997434 0.974599
0.99594 0.998011 0.989354
0.99491 1.00015 0.966279
0.996947 1.0005 0.971226
0.999263 0.995381 0.973725
1.00026 1.00195 0.992195
1.00022 1.00197 0.992159
1.00013 1.00206 0.992224
1.00014 1.00165 0.992652
1.00027 1.00222 0.994552
0.998646 1.0028 0.994838
1.00029 1.00198 0.991976
1.00027 1.00235 0.991723
1.00037 1.00247 0.991599
1.00025 1.00193 0.992142
1.00022 1.00226 0.991731
0.99736 1.00104 0.998134
0.998729 1.00052 0.997232
1.00014 1.00218 0.992081
0.995934 0.998129 1.00207
0.999226 1.0028 0.99434
1.02005 0.995446 0.96892
1.02901 0.991936 0.96
1.0233 0.993833 0.965665
0.998254 1.00132 0.996989
0.995484 1.0004 1.00032
1.02674 0.992232 0.962536
0.994937 1.00023 0.966518
0.994754 1.00006 0.970047
1.00858 0.998284 0.978423
0.99932 0.995395 0.971368
0.997124 1.00226 1.00053
1.01884 0.994983 0.970322
1.00297 0.996955 0.978522
0.995502 1.00013 0.996116
0.996278 0.994933 0.96861
0.995783 0.999602 0.97006
0.995125 1.00006 0.96864
0.99691 1.00364 0.998375
1.00724 0.99794 0.976994
0.99689 0.996226 0.97303
0.995621 0.999522 0.969016
0.995584 1.00041 0.969118
0.9954 1.00025 0.985641
0.999168 0.99963 0.996283
0.99854 1.0026 0.994938
1.00054 0.999761 0.994802
0.999436 1.00258 0.99296
0.999381 1.00308 0.992326
1.00022 1.00359 0.990661
1.00009 1.00372 0.990993
1.00009 1.00476 0.989735
1.00077 1.00449 0.988481
1.00008 1.00466 0.989844
1.0007 1.00481 0.98864
1.00113 1.00447 0.987931
1.00147 1.00334 0.988415
1.00093 1.00329 0.989781
1.00098 1.00411 0.988687
1.00029 1.00253 0.991308
1.00034 1.00299 0.99085
1.00051 1.00397 0.989615
1.00018 1.00264 0.991647
1.00019 1.00281 0.99151
1.00011 1.00283 0.991474
1.00012 1.00161 0.992681
1.00002 1.00257 0.99193
1 1.0031 0.99155
1.00001 1.00002 0.994495
1.00014 1.00119 0.993101
1.00011 1.00213 0.992277
0.999811 0.997956 0.996922
1.00001 0.999682 0.99483
1.00014 1.00081 0.993477
1.00005 0.999365 0.995077
0.999868 0.997724 0.997041
0.999755 0.996611 0.999349
0.999936 0.997511 0.997133
0.999817 0.996449 0.999364
0.999871 0.996314 0.999375
1.00024 1.00131 0.992802
1.00024 1.00051 0.99358
1.00012 0.999395 0.994895
1.00022 1.0004 0.993735
0.999983 0.997553 0.996994
1.00013 0.999269 0.995015
1.00018 1.00032 0.993874
0.999924 0.996277 0.999353
1.00002 0.997355 0.997112
1.00013 0.999132 0.995148
0.999967 0.996105 0.999389
1.00005 0.997159 0.997234
1 0.995978 0.999415
1.01795 0.995726 0.970761
1.02593 0.99283 0.963064
1.01885 0.994753 0.970523
1.00024 1.00122 0.992874
1.00022 1.00175 0.992431
1.00018 1.00201 0.992179
1.00019 1.0017 0.992462
1.00018 1.00209 0.992198
1.00022 1.00115 0.992936
1.00018 1.00162 0.992589
1.00017 1.00164 0.992607
1.00019 1.00191 0.992315
1.00013 1.00202 0.992347
1.00351 0.996744 0.978523
1.00972 0.998097 0.975903
1.01492 0.999276 0.970948
1.00035 0.997351 0.974914
0.996586 1.00006 0.972217
0.995832 0.999734 0.980365
0.995107 1.00004 0.968466
0.995778 0.997071 0.984182
0.994964 1.00014 0.968855
0.995729 0.999812 0.970616
0.998577 0.995825 0.973102
0.994951 0.995652 0.988795
0.995076 0.999775 0.969527
0.995514 1.00016 0.968477
0.996168 0.995472 0.969915
0.999971 1.00173 0.992871
1.00022 1.00202 0.992174
1.00022 1.00195 0.992151
0.9968 1.00166 0.99802
0.998843 1.00024 0.99753
1.00026 1.00195 0.992101
1.00022 1.00232 0.991673
1.00011 1.00214 0.992146
0.999055 1.00279 0.994067
0.996155 0.997592 1.00211
0.998885 1.00328 0.993263
0.997546 1.00194 0.997035
1.00637 0.998696 0.97846
1.02167 0.99483 0.967073
1.03024 0.991572 0.95856
0.997079 1.00196 1.00052
0.995579 1.00005 0.98852
1.01868 0.995059 0.970514
0.995282 0.999871 0.964618
0.995332 0.999147 0.969317
1.00263 0.99724 0.978726
0.996127 0.995198 0.966779
0.997016 1.00368 0.998583
1.00698 0.997992 0.977344
0.996937 0.996154 0.972237
0.995405 1.00023 0.988197
0.99557 0.999329 0.967434
0.995681 0.999785 0.966122
0.998627 1.00137 0.996106
0.997307 0.997613 0.975352
0.996854 0.997285 0.9668
0.996566 1.00024 0.966339
0.995872 1.00062 0.987002
0.998516 1.00284 0.994899
1.0003 0.999584 0.994805
1.0021 0.998325 0.99246
0.999124 1.00315 0.992449
1 1.00348 0.990852
1.00114 1.00299 0.9893
1.00019 1.00474 0.989634
1.00079 1.00454 0.98847
1.00175 1.00325 0.987993
1.00074 1.00482 0.988476
1.00114 1.00442 0.987963
1.00195 1.00257 0.988276
1.00206 1.00168 0.988901
1.0012 1.00298 0.989211
1.00149 1.00323 0.988453
1.00069 1.00276 0.990609
1.00086 1.00337 0.989624
1.00101 1.00419 0.988517
1.0003 1.00231 0.991686
1.00029 1.0025 0.991402
1.00036 1.00298 0.990923
1.00015 1.00195 0.992321
1.00016 1.00263 0.991676
1.00016 1.00284 0.991493
0.999997 1.00046 0.994071
1.00013 1.00162 0.992684
1.00005 1.00251 0.991993
0.999742 0.998234 0.99721
1 1.00003 0.994488
1.00014 1.00117 0.993105
0.999697 0.996865 0.998375
0.999805 0.997989 0.997125
1.00001 0.999688 0.994824
0.999874 0.997735 0.997035
0.999746 0.996647 0.999341
0.999807 0.996475 0.999359
1.00021 1.0016 0.992534
1.00026 1.00067 0.993392
1.00024 1.00134 0.992763
1.0001 0.999532 0.9948
1.00024 1.00052 0.99358
0.99994 0.997718 0.996909
1.00012 0.999404 0.994896
1.00022 1.0004 0.993735
0.999877 0.996438 0.999327
0.99998 0.997543 0.996998
1.00013 0.999281 0.995016
0.999928 0.996252 0.999362
1.00002 0.997343 0.997118
0.999971 0.996084 0.999397
1.00535 0.998368 0.980226
1.01798 0.995751 0.970943
1.02684 0.992756 0.961944
1.00014 1.00221 0.992129
1.00023 1.00124 0.9929
1.00023 1.00175 0.992388
1.00019 1.00171 0.992506
1.00019 1.00199 0.992222
1.00019 1.00205 0.992185
1.00017 1.0023 0.991969
1.00012 1.00213 0.992148
1.00016 1.00165 0.99261
1.00021 1.00188 0.992287
1.00013 1.00202 0.992334
1.00013 1.00237 0.992293
0.99704 0.996586 0.970986
1.00306 0.997095 0.978733
1.00948 0.99828 0.976296
0.998319 0.995664 0.972506
0.995818 1 0.969604
0.994932 1.00014 0.966288
0.995528 0.996137 0.988176
0.994943 0.995377 0.993683
0.9962 0.995421 0.968183
0.994928 1.00011 0.9658
0.995659 0.999808 0.969739
0.995836 0.997835 0.991581
0.995572 0.999354 0.970807
0.995723 0.999737 0.968318
0.999404 1.00163 0.993966
1.00008 1.00167 0.992879
1.00017 1.00209 0.992152
0.996398 0.996943 1.00214
0.999027 1.0027 0.993792
1.00005 1.00211 0.99221
0.999182 1.00323 0.993151
0.99718 1.0021 0.99713
0.998585 1.00136 0.994976
0.997832 0.997798 0.972941
1.00758 0.998403 0.977903
1.02329 0.994134 0.965225
0.997171 1.00378 0.998842
0.995295 1.00028 0.989967
1.00671 0.998196 0.977698
0.995696 0.998944 0.970392
0.995487 0.999566 0.96837
0.997017 0.996102 0.971852
0.998381 1.00129 0.996303
0.997475 0.997214 0.974315
0.99628 0.997409 0.968486
0.995613 1.00107 0.982813
0.996238 1.00038 0.968355
1.00017 1.0003 0.994304
0.99782 0.995202 0.968502
0.997704 0.999671 0.967769
0.996698 1.00096 0.980488
1.00004 0.999459 0.994811
1.00181 0.998275 0.992917
1.00257 0.997468 0.991384
0.999793 1.00337 0.991043
1.00119 1.00284 0.98929
1.00282 1.0003 0.988785
1.00081 1.00452 0.988459
1.00174 1.0031 0.988023
1.00285 1.00028 0.988869
1.00113 1.00435 0.987996
1.00196 1.0024 0.988315
1.00268 0.999896 0.989505
1.00245 0.999962 0.989907
1.00177 1.00187 0.989284
1.00205 1.00157 0.989022
1.00092 1.00254 0.989999
1.00123 1.00295 0.989299
1.0015 1.00311 0.988491
1.00044 1.00233 0.991391
1.0006 1.00277 0.990607
1.00079 1.00346 0.989466
1.00023 1.00197 0.992162
1.00032 1.00231 0.991678
1.00029 1.00247 0.991496
0.999965 1.00101 0.993611
1.00016 1.00194 0.992334
1.00014 1.00261 0.991704
0.999695 0.998539 0.996531
0.999995 1.00047 0.994064
1.00014 1.00162 0.992686
0.999586 0.997119 0.999277
0.99975 0.998278 0.996704
0.999996 1.00005 0.994481
0.999677 0.996863 0.999311
0.999812 0.998006 0.996882
0.999736 0.996685 0.999331
1.00016 1.00186 0.992455
1.00022 1.00159 0.992545
1.00022 1.00097 0.993161
1.00008 0.999682 0.994689
1.00025 1.00068 0.993394
1.00024 1.00137 0.992724
0.999897 0.997863 0.996845
1.0001 0.999527 0.994803
1.00024 1.00052 0.993581
0.999823 0.996593 0.999307
0.999936 0.997711 0.996912
1.00012 0.999409 0.994898
0.999882 0.996415 0.999335
0.999977 0.997533 0.997003
0.999933 0.996226 0.999371
0.997331 0.997831 0.973806
1.00513 0.998378 0.980577
1.01804 0.995761 0.971125
1.00013 1.00224 0.992091
1.00011 1.00238 0.992083
1.00014 1.0024 0.991929
1.00019 1.00172 0.992551
1.00019 1.00198 0.992265
1.00019 1.00201 0.992172
1.00013 1.00214 0.992145
1.00016 1.0023 0.991962
1.00002 1.00285 0.991752
1.00004 1.00218 0.992205
1.00013 1.00202 0.992321
1.00008 1.00226 0.992301
0.996508 0.997759 0.968051
0.996909 0.996879 0.970486
1.00256 0.997326 0.978943
0.996301 0.995385 0.966447
0.995088 1.00007 0.968243
0.995329 1.00011 0.971754
0.995047 0.995336 0.988499
0.995587 0.997858 0.987321
0.995771 0.998892 0.967044
0.995379 0.99974 0.969525
0.99747 0.996216 0.986779
0.996424 1.00053 0.966683
1.00031 1.00219 0.99246
0.999595 1.00142 0.993888
1.00017 1.00161 0.992889
0.996602 1.00233 0.997236
0.999458 1.00319 0.993038
0.999279 1.00158 0.994607
1.00168 0.999295 0.992112
0.997934 0.99473 0.967253
0.997736 0.998093 0.974005
1.00881 0.998048 0.977345
0.998232 1.00119 0.996483
0.995404 1.00086 0.985983
0.997449 0.996799 0.974534
0.996229 1.00053 0.965997
0.996756 0.998471 0.967301
1.00034 1.00025 0.993992
0.997632 0.995085 0.967375
0.998401 0.998274 0.965235
0.996297 1.00116 0.98422
1.00086 1.0019 0.991576
0.998553 0.997388 0.964968
0.998619 0.99873 0.985896
1.00147 0.998259 0.99337
1.00228 0.998499 0.991279
1.00392 0.996718 0.989256
1.00122 1.00271 0.989279
1.00285 1.00019 0.988691
1.00419 0.997088 0.989326
1.00172 1.00301 0.988054
1.00283 1.0001 0.988865
1.00369 0.99715 0.990274
1.00197 1.00222 0.988353
1.00268 0.999787 0.98952
1.00301 0.998102 0.990561
1.00271 0.998998 0.990509
1.00244 0.999847 0.990032
1.00218 1.00049 0.98989
1.00158 1.00177 0.989791
1.00177 1.00191 0.989298
1.00204 1.00146 0.989142
1.00075 1.00225 0.990716
1.00096 1.00254 0.990114
1.00125 1.00291 0.989386
1.00033 1.00194 0.991981
1.00046 1.00234 0.991374
1.00052 1.00279 0.990605
0.999968 1.00132 0.993275
1.00026 1.00194 0.992169
1.00035 1.0023 0.99167
0.999632 0.998904 0.996265
0.999981 1.00096 0.993613
1.00018 1.00192 0.992348
0.999545 0.997338 0.999236
0.999692 0.998575 0.996515
0.999996 1.00047 0.994056
0.999604 0.997136 0.998784
0.999756 0.998289 0.996701
0.999664 0.996929 0.999293
1.00014 1.00207 0.992267
1.00016 1.00188 0.992406
1.00017 1.00132 0.992925
1.00022 1.00159 0.992556
1.00022 1.00097 0.993159
1.00002 0.99997 0.994498
0.999852 0.998006 0.99679
1.00008 0.999677 0.994694
1.00024 1.0007 0.993395
0.999763 0.996745 0.999292
0.999892 0.997859 0.996848
1.0001 0.999526 0.994806
0.99983 0.996576 0.999313
0.999933 0.997705 0.996915
0.999887 0.996392 0.999342
0.997141 0.996032 0.967784
0.997157 0.99807 0.973025
1.00492 0.998393 0.980927
1.00013 1.00228 0.992054
1.00012 1.00247 0.991877
1.00007 1.00237 0.992123
1.00011 1.00244 0.992027
1.00005 1.00267 0.991872
1.00015 1.00215 0.992142
1.00016 1.00229 0.991955
0.999988 1.00277 0.991787
0.999852 1.00276 0.991745
1 1.00266 0.991791
1.00096 1.00267 0.990508
0.999921 1.00252 0.992233
1.00005 1.00216 0.992309
0.998302 0.998897 0.964801
0.996316 0.998381 0.9677
0.996755 0.997182 0.970307
0.996047 0.998892 0.967988
0.995336 1.00033 0.965794
0.995402 0.997861 0.992317
0.997623 0.996397 0.989334
0.996532 0.998637 0.969892
1.00065 0.996587 0.984867
1.00256 1.0006 0.989238
0.999911 1.00207 0.992403
0.999749 1.0012 0.993807
0.999811 1.00176 0.99424
1.00231 0.999106 0.991608
0.99864 0.996261 0.966143
0.997789 0.995093 0.967302
0.997643 0.998496 0.975072
1.00056 1.00018 0.993674
0.995809 1.00155 0.980706
0.997812 0.994854 0.967115
0.997902 0.998995 0.968128
1.00142 1.00151 0.991584
0.999467 0.996184 0.967991
0.998136 0.999795 0.982224
1.00264 1.0031 0.987885
1.00059 0.996765 0.99023
1.00201 0.999428 0.991174
1.00367 0.997693 0.989117
1.00506 0.996446 0.987835
1.00281 1.00012 0.9886
1.00405 0.997276 0.989269
1.00474 0.995645 0.989611
1.00282 0.999913 0.988863
1.00362 0.997197 0.990212
1.0038 0.996502 0.990698
1.00267 0.999682 0.989535
1.00301 0.998163 0.990515
1.00312 0.997934 0.99059
1.00264 0.998857 0.990649
1.00257 0.999522 0.990254
1.00243 0.999739 0.990157
1.00218 1.00051 0.989863
1.00203 1.00077 0.989913
1.00125 1.00172 0.990287
1.00156 1.00181 0.989771
1.00178 1.00195 0.989312
1.00053 1.00193 0.991598
1.00073 1.00225 0.990795
1.00099 1.00254 0.990229
0.999973 1.00147 0.993066
1.00036 1.00194 0.991969
1.00049 1.00234 0.991357
0.999588 0.99929 0.995936
0.99999 1.00127 0.993284
1.00028 1.00192 0.992176
0.999493 0.99759 0.999184
0.999624 0.998957 0.99625
0.999992 1.00092 0.993616
0.999542 0.997375 0.999222
0.999689 0.998614 0.996499
0.999597 0.997171 0.999253
1.00016 1.00226 0.992069
1.00013 1.00206 0.992272
1.00014 1.00164 0.992611
1.00016 1.0019 0.992356
1.00016 1.00137 0.992869
0.999992 1.00037 0.99416
1.00022 1.00097 0.993158
1.00004 0.99995 0.994503
0.999785 0.998228 0.996698
0.999694 0.996905 0.999279
0.999846 0.998004 0.996794
1.00008 0.999667 0.9947
0.999771 0.996731 0.999296
0.999888 0.997854 0.996851
0.999836 0.996558 0.999319
0.999195 0.997574 0.967939
0.997111 0.995786 0.968472
0.996797 0.998317 0.973267
1.0001 1.00255 0.991824
1.00003 1.00235 0.992163
1.00005 1.00266 0.991897
1.00009 1.00244 0.992022
1.00011 1.00274 0.991726
0.999935 1.00262 0.991959
0.999963 1.00267 0.991823
0.999948 1.00291 0.991609
0.999907 1.00291 0.991733
1.00017 1.00238 0.991408
1.00126 1.00239 0.99075
1.0025 1.0015 0.988441
1.00076 1.00253 0.99066
0.999791 1.00286 0.992262
1.00053 0.997219 0.983589
0.997757 0.999328 0.966494
0.996449 0.997859 0.967013
0.996866 1.00017 0.966652
0.997789 0.99646 0.99176
1.00066 0.996581 0.988867
1.00421 0.996595 0.990442
1.00261 1.0001 0.98974
0.999743 1.00198 0.992343
1.00338 0.99908 0.991094
0.998898 0.999263 0.983877
0.999217 0.996598 0.969468
0.997777 0.995361 0.968437
1.00184 1.00148 0.99159
0.997964 1.00081 0.984177
0.998976 0.996017 0.971237
1.00274 1.00257 0.988189
1.00016 0.998041 0.988246
1.00445 1.00002 0.987253
1.00448 0.997835 0.989159
1.0035 0.998828 0.988976
1.00497 0.996689 0.987838
1.0049 0.9972 0.987749
1.00393 0.997412 0.989208
1.00464 0.995957 0.98956
1.00455 0.996835 0.988989
1.00355 0.997253 0.990151
1.0037 0.996679 0.990649
1.00378 0.997521 0.989773
1.003 0.998234 0.990469
1.00302 0.998032 0.990639
1.00292 0.998936 0.98997
1.00257 0.998723 0.990788
1.00254 0.99942 0.990316
1.00245 1.00005 0.989969
1.00219 1.00053 0.989835
1.00203 1.0008 0.98989
1.00181 1.00098 0.99021
1.00088 1.00161 0.991068
1.00123 1.00175 0.990366
1.00155 1.00184 0.98975
1.00006 1.0016 0.992789
1.00055 1.00193 0.99159
1.00072 1.00226 0.990873
0.999525 0.999777 0.995585
1 1.00147 0.993069
1.00039 1.00193 0.991957
0.999456 0.997853 0.999108
0.999583 0.999347 0.995929
1.00001 1.00123 0.993293
0.999493 0.997628 0.999162
0.999618 0.999007 0.996235
0.999539 0.997411 0.999207
1.00019 1.00247 0.991812
1.00016 1.00224 0.992099
1.00014 1.00191 0.99241
1.00012 1.00205 0.992277
1.00014 1.00168 0.99258
0.99998 1.0008 0.993756
1.00016 1.00142 0.992812
0.999993 1.00037 0.994163
0.999713 0.998536 0.996528
1.00005 0.999932 0.994508
0.999785 0.998208 0.996707
0.99962 0.997113 0.999254
0.999706 0.996891 0.999283
0.999841 0.998001 0.996799
0.999779 0.996718 0.999301
0.999753 0.998759 0.983286
0.998959 0.996785 0.965856
0.997563 0.995959 0.967184
1.00049 1.00249 0.991212
1.00005 1.00267 0.991922
1.00007 1.00243 0.992017
0.999973 1.00269 0.991945
1.00007 1.00279 0.9917
1.00005 1.00214 0.992159
1.00005 1.00311 0.991472
0.99987 1.00319 0.991676
1.00031 1.00239 0.991532
1.00097 1.00233 0.990923
1.00213 1.00134 0.989137
1.00445 0.998636 0.987036
1.00243 1.00129 0.988401
1.00063 1.0023 0.990813
1.00416 0.995798 0.991422
1.00035 0.997808 0.981913
0.99773 0.999387 0.968728
1.00056 0.996507 0.985158
1.00421 0.996338 0.990702
1.00229 0.999493 0.990257
1.003 0.99948 0.989957
0.998839 0.998714 0.986682
0.99879 0.996279 0.966284
1.00292 1.00174 0.988482
1.00017 0.999115 0.985974
1.00444 0.99938 0.987257
1.0045 0.998001 0.989533
1.00483 0.997227 0.987668
1.00474 0.997896 0.98747
1.00482 0.996841 0.987844
1.00495 0.997016 0.987826
1.00445 0.998331 0.98761
1.00451 0.99625 0.989509
1.00448 0.996881 0.988992
1.00418 0.998317 0.988263
1.00361 0.996864 0.9906
1.00363 0.997605 0.989959
1.00349 0.998668 0.989085
1.00293 0.99812 0.990688
1.00291 0.998946 0.989972
1.00278 0.999608 0.989572
1.0025 0.999316 0.990379
1.00242 0.999983 0.989987
1.00219 1.00042 0.98998
1.00202 1.00083 0.989867
1.00177 1.00099 0.990162
1.0014 1.00114 0.990787
1.00033 1.00145 0.992427
1.00087 1.00162 0.991148
1.0012 1.00177 0.990445
0.999467 1.0003 0.995188
1.00008 1.0016 0.99279
1.00057 1.00193 0.991583
0.999375 0.998171 0.999018
0.999548 0.999768 0.995579
1.00002 1.00145 0.993073
0.999442 0.997893 0.999081
0.999578 0.999392 0.99592
0.999492 0.997663 0.999138
1.00037 1.00242 0.991355
1.00018 1.00244 0.991822
1.00021 1.00204 0.992203
1.00017 1.00222 0.992128
1.00013 1.0019 0.992431
0.999959 1.00119 0.993417
1.00013 1.00172 0.992549
0.999969 1.00083 0.993752
0.999631 0.998917 0.996295
0.999993 1.00038 0.994166
0.999716 0.9985 0.996543
0.999552 0.997351 0.999214
0.999786 0.998189 0.996716
0.999632 0.99708 0.999263
0.999715 0.996878 0.999287
1.00354 0.996881 0.991099
0.999759 0.998647 0.98011
0.998791 0.997739 0.968251
1.00055 1.00186 0.991497
1.00139 1.00173 0.990252
1.00032 1.00253 0.991297
1.00002 1.00273 0.991931
1.00004 1.00284 0.991673
1.00021 1.00211 0.99204
1.00205 1.001 0.989662
1.00041 1.00241 0.991657
1.00056 1.00227 0.991096
1.00209 1.00128 0.989269
1.00392 0.999278 0.987314
1.00508 0.996418 0.987971
1.00443 0.998725 0.987079
1.00246 1.00119 0.988361
1.00431 0.995786 0.99163
1.00028 0.998199 0.979498
1.00447 0.996216 0.99095
1.0039 0.997482 0.990177
1.00282 0.999012 0.99027
0.999183 0.998369 0.982316
1.00444 0.998742 0.987268
1.00453 0.998179 0.989859
1.00476 0.997163 0.987801
1.00483 0.997595 0.987574
1.00443 0.997911 0.988036
1.0043 0.997151 0.988748
1.00502 0.996753 0.987904
1.00457 0.998078 0.987624
1.00423 0.998606 0.987692
1.00445 0.996974 0.988995
1.00412 0.998193 0.988445
1.00393 0.998657 0.988244
1.00347 0.997684 0.990144
1.00351 0.998671 0.989065
1.00334 0.999251 0.988828
1.00289 0.998955 0.989975
1.00279 0.999604 0.989571
1.00255 1.00009 0.989559
1.0024 0.999913 0.990005
1.00215 1.0004 0.989987
1.00174 1.00071 0.990501
1.00173 1.00101 0.990113
1.00135 1.00113 0.990767
1.0007 1.00109 0.992085
0.999504 1.00056 0.994832
1.00034 1.00146 0.992427
1.00087 1.00163 0.991228
0.999233 0.998625 0.998917
0.999524 1.00023 0.995179
1.0001 1.0016 0.992791
0.999347 0.99825 0.998988
0.99957 0.999771 0.995574
0.999431 0.997945 0.999054
1.00079 1.00219 0.990573
1.00038 1.0024 0.991277
1.00044 1.00198 0.991828
1.00017 1.0024 0.991831
1.00018 1.00203 0.99221
0.999947 1.0015 0.993167
1.00012 1.0019 0.992452
0.999933 1.00125 0.993411
0.99956 0.999338 0.996006
0.999957 1.00087 0.993749
0.999641 0.998867 0.996309
0.999489 0.997611 0.999156
0.99972 0.998463 0.996558
0.999561 0.997313 0.999227
0.999645 0.997056 0.999271
1.00464 0.995882 0.98919
1.00358 0.996965 0.990757
0.999972 0.998395 0.98202
1.00213 1.00087 0.989941
1.00038 1.0018 0.991918
1.00216 1.00078 0.989174
1.00141 1.00175 0.990193
1.00014 1.00259 0.991383
1.00375 0.999603 0.987767
1.00038 1.00208 0.991923
1.00213 1.00091 0.989566
1.00477 0.997674 0.987546
1.00208 1.00117 0.989401
1.00407 0.999285 0.987191
1.00497 0.996545 0.987966
1.00425 0.998856 0.987122
1.00434 0.995668 0.991827
1.00394 0.997163 0.989799
1.00375 0.997367 0.990234
1.00264 0.998525 0.990581
1.00467 0.997064 0.987935
1.00493 0.997386 0.987676
1.00438 0.997817 0.988043
1.00452 0.997322 0.988418
1.00422 0.99794 0.988492
1.00467 0.997897 0.987639
1.00425 0.998615 0.987706
1.00406 0.998601 0.988029
1.00406 0.998075 0.988626
1.00397 0.998632 0.988218
1.0038 0.998951 0.98824
1.00354 0.998674 0.989045
1.00336 0.999251 0.988813
1.00306 0.999716 0.988928
1.00279 0.9996 0.98957
1.00255 1.00008 0.989556
1.00213 1.00041 0.990032
1.00212 1.00037 0.989994
1.00173 1.00071 0.990505
1.00106 1.00074 0.991744
1.0013 1.00112 0.990747
1.0007 1.0011 0.992082
0.999563 1.00059 0.99538
0.999134 0.999319 0.997158
0.999561 1.00046 0.995215
1.00034 1.00147 0.992427
0.999206 0.998743 0.998881
0.999577 1.00017 0.995171
0.999324 0.998323 0.998957
1.00266 0.999845 0.98939
1.00136 1.00168 0.989994
1.00089 1.00217 0.99048
1.00072 1.00182 0.991403
1.00038 1.00237 0.991199
1.0004 1.00197 0.991845
1 1.00162 0.992962
1.00016 1.00203 0.992217
0.99992 1.00152 0.993164
0.999521 0.999771 0.99566
0.999907 1.00131 0.993406
0.999564 0.999291 0.996016
0.999417 0.997902 0.999078
0.999649 0.998817 0.996323
0.999496 0.997571 0.999175
0.999572 0.997275 0.999241
1.00438 0.997208 0.988766
1.00456 0.996174 0.989587
1.00366 0.997196 0.99042
1.00349 0.999523 0.988245
1.00186 1.0009 0.990281
1.0002 1.00171 0.992335
1.00234 1.00072 0.989305
1.00143 1.00177 0.990134
1.00466 0.998311 0.987218
1.00375 0.999665 0.987586
1.0022 1.00085 0.989469
1.00477 0.997737 0.987519
1.00425 0.999289 0.987068
1.00488 0.996623 0.987963
1.0041 0.997797 0.988845
1.00401 0.997119 0.989598
1.00358 0.99718 0.990291
1.00436 0.997707 0.988052
1.00473 0.997455 0.988086
1.00421 0.998007 0.988456
1.00401 0.99874 0.988081
1.00428 0.9986 0.98772
1.00407 0.998644 0.988012
1.00391 0.99895 0.98804
1.00401 0.998614 0.988192
1.00381 0.998951 0.988231
1.00349 0.999336 0.988492
1.00338 0.999252 0.988797
1.00307 0.999714 0.988919
1.00259 1.00008 0.989469
1.00256 1.00008 0.989554
1.00214 1.0004 0.99003
1.0014 1.0005 0.99131
1.00173 1.00071 0.99051
1.00106 1.00075 0.991736
0.999692 1.00053 0.995226
1.00069 1.00112 0.992078
0.999646 1.00056 0.995336
0.998988 0.999881 0.996962
0.999084 0.999322 0.997963
0.999632 1.00038 0.995578
0.999183 0.998849 0.998842
1.00356 0.999216 0.988418
1.0021 1.00072 0.989883
1.00252 0.99966 0.989885
1.00109 1.00164 0.990845
1.00148 1.00169 0.989972
1.001 1.00215 0.990387
1.00068 1.00186 0.991411
1.00017 1.0016 0.992669
1.00037 1.00196 0.991862
0.999984 1.00161 0.992961
0.99951 1.00017 0.995296
0.999895 1.00154 0.993162
0.999507 0.999754 0.995666
0.999307 0.998291 0.99898
0.999569 0.999243 0.996025
0.99943 0.997858 0.999104
0.999505 0.997529 0.999193
1.00451 0.997834 0.987939
1.00443 0.997174 0.98874
1.00447 0.99644 0.989981
1.0044 0.998482 0.987441
1.00349 0.999548 0.988268
1.0016 1.00092 0.990623
1.00251 1.00064 0.989437
1.00469 0.998321 0.987199
1.00379 0.999716 0.987405
1.00476 0.997816 0.987492
1.0042 0.998359 0.988081
1.00413 0.997834 0.988695
1.00409 0.997095 0.989398
1.00403 0.999028 0.987758
1.00419 0.998103 0.988422
1.004 0.998746 0.988097
1.00384 0.999157 0.987985
1.00408 0.998689 0.987995
1.00391 0.998957 0.988046
1.00361 0.999272 0.988319
1.00382 0.998951 0.988223
1.00348 0.99934 0.988489
1.00297 0.99974 0.989097
1.00308 0.999713 0.98891
1.0026 1.00008 0.989465
1.00177 1.00029 0.990827
1.00214 1.0004 0.990027
1.00142 1.0005 0.991296
0.999863 1.00037 0.995101
1.00106 1.00076 0.991728
0.999773 1.00052 0.995186
0.998923 1.00013 0.996878
0.999731 1.00053 0.99529
0.998939 0.999938 0.997006
0.998999 0.999295 0.998812
1.00408 0.999094 0.987712
1.0031 0.999672 0.988948
1.00347 0.999309 0.988582
1.00169 1.00105 0.990458
1.00209 1.00063 0.989888
1.0024 0.999504 0.990377
1.0005 1.00146 0.992146
1.00108 1.00165 0.990839
1.00158 1.00171 0.989951
1.00064 1.0019 0.991419
1.00014 1.00159 0.992672
0.99953 1.00051 0.994935
0.999967 1.00159 0.99296
0.999467 1.00022 0.995299
0.99915 0.998803 0.998878
0.999494 0.99973 0.995671
0.999332 0.998213 0.999012
0.999442 0.99781 0.999129
1.00456 0.998027 0.987701
1.0046 0.997823 0.9878
1.00451 0.997132 0.988713
1.00445 0.998398 0.987489
1.00349 0.999584 0.988289
1.00469 0.998327 0.987179
1.00427 0.998662 0.987639
1.0042 0.998408 0.988025
1.00418 0.997867 0.988544
1.00402 0.998961 0.987833
1.00393 0.999314 0.987727
1.004 0.998747 0.988113
1.00385 0.999172 0.98799
1.0036 0.999434 0.988151
1.0039 0.998964 0.988052
1.0036 0.999279 0.988322
1.00311 0.999641 0.988919
1.00348 0.999341 0.988486
1.00296 0.999741 0.989095
1.00205 1.00004 0.99052
1.0026 1.00008 0.98946
1.00178 1.00027 0.990814
1.0001 1.00016 0.994942
1.00142 1.0005 0.991281
0.99994 1.00038 0.995053
0.998947 1.00021 0.996806
0.999859 1.00049 0.995144
0.998872 1.0002 0.996919
0.998888 1 0.997054
1.00428 0.998399 0.987793
1.00364 0.999338 0.988188
1.00408 0.999042 0.987666
1.00244 1.00021 0.989749
1.00307 0.999726 0.989025
1.00336 0.999388 0.988751
1.00099 1.001 0.991582
1.00167 1.001 0.990326
1.00208 1.00054 0.989893
0.999618 1.00072 0.994553
1.00049 1.00144 0.992155
1.00108 1.00166 0.990833
1.00012 1.0016 0.992675
0.999455 1.0006 0.994944
0.998987 0.999395 0.998775
0.999419 1.00028 0.995303
0.99918 0.998698 0.998911
0.999361 0.998141 0.999042
1.00443 0.998223 0.987795
1.00456 0.998052 0.987693
1.00467 0.997821 0.98766
1.0045 0.998308 0.987536
1.00425 0.998898 0.987502
1.00429 0.998663 0.987656
1.0042 0.998457 0.987969
1.00403 0.998898 0.987908
1.00394 0.999267 0.987701
1.00376 0.999505 0.987867
1.00386 0.999189 0.987994
1.0036 0.999448 0.988202
1.00316 0.999674 0.988672
1.00359 0.999288 0.988325
1.00311 0.99964 0.988919
1.00218 0.999911 0.990383
1.00296 0.999746 0.989093
1.00206 1.00002 0.990517
1.00027 0.999982 0.993887
1.00179 1.00026 0.990801
1.00014 1.00017 0.99444
0.999051 1.00016 0.99858
1.00002 1.00037 0.995007
0.998893 1.00026 0.996856
0.998814 1.00029 0.996964
1.00424 0.998341 0.988025
1.00377 0.999024 0.988126
1.00427 0.998446 0.987837
1.00298 0.999644 0.988942
1.00361 0.999346 0.988252
1.00407 0.998999 0.987621
1.00154 1.00038 0.990869
1.00244 1.0002 0.98974
1.00303 0.999792 0.989102
0.999814 1.00065 0.9942
1.001 1.00097 0.991465
1.00165 1.00095 0.990193
0.998914 0.99991 0.998673
0.999537 1.0008 0.994571
1.00048 1.00143 0.992165
0.999379 1.0007 0.994953
0.99901 0.999266 0.998813
0.999217 0.998583 0.998942
1.00432 0.998448 0.987773
1.00444 0.998213 0.987772
1.00456 0.998079 0.987685
1.00416 0.999221 0.987398
1.00425 0.998911 0.987453
1.00431 0.998663 0.987673
1.00396 0.999217 0.987675
1.00376 0.999493 0.987865
1.00342 0.999622 0.988438
1.0036 0.999462 0.988254
1.00316 0.999699 0.988803
1.00231 0.99988 0.989927
1.0031 0.999637 0.98892
1.00219 0.999902 0.990383
1.00036 0.999941 0.993763
1.00207 1.00001 0.990513
1.00027 0.999994 0.993883
0.999126 1.00008 0.998558
1.00017 1.00018 0.993968
0.999032 1.00019 0.997692
0.998836 1.00035 0.996903
1.00414 0.998522 0.988131
1.00384 0.998839 0.98827
1.00423 0.998303 0.988051
1.00321 0.999445 0.988872
1.00379 0.999012 0.988152
1.00426 0.998489 0.987882
1.00202 0.999939 0.990398
1.003 0.999708 0.989095
1.00359 0.999349 0.988316
1.00005 1.00037 0.993974
1.00159 1.00036 0.990811
1.00245 1.0002 0.989731
0.998951 1.0002 0.998593
0.999755 1.0007 0.994217
1.00101 1.00094 0.991349
0.9989 0.999793 0.998709
0.999461 1.00087 0.994588
0.999028 0.999132 0.998844
1.00413 0.998896 0.987756
1.00431 0.998468 0.987782
1.00446 0.9982 0.98775
1.00376 0.999395 0.987998
1.00412 0.999239 0.987444
1.00425 0.998925 0.987404
1.00376 0.999484 0.987863
1.00342 0.999625 0.988439
1.00261 0.999781 0.989456
1.00317 0.999726 0.988935
1.00229 0.999895 0.990062
1.00047 0.99999 0.993498
1.0022 0.999888 0.990384
1.00036 0.999942 0.993761
0.999202 1.00002 0.998528
1.00026 1.00001 0.993879
0.99915 1.00007 0.998549
0.999064 1.0002 0.996743
1.00391 0.998876 0.988257
1.00413 0.998434 0.988175
1.00336 0.999302 0.988722
1.00386 0.998838 0.988257
1.00421 0.998264 0.988077
1.00228 0.99979 0.99031
1.00323 0.999434 0.988861
1.0038 0.999002 0.988178
1.00026 1.00006 0.993843
1.00203 0.99998 0.990473
1.00302 0.999773 0.989247
0.999054 1.00024 0.998554
1.00002 1.00038 0.99399
1.00164 1.00035 0.990754
0.998914 1.00012 0.998618
0.999699 1.00074 0.994237
0.998886 0.999669 0.998748
1.00368 0.999266 0.988304
1.0041 0.998921 0.98779
1.0043 0.998489 0.987791
1.00284 0.999631 0.989153
1.00375 0.999428 0.987994
1.00408 0.999255 0.98749
1.00342 0.999629 0.988441
1.00257 0.999792 0.98952
1.00065 1 0.993116
1.00227 0.999906 0.990198
1.00048 0.999989 0.993487
0.999278 1.00001 0.998471
1.00036 0.999946 0.993759
0.999228 1.00001 0.998513
0.999183 1.00007 0.998539
1.0035 0.999273 0.988539
1.00391 0.998798 0.988245
1.00411 0.998344 0.98822
1.00245 0.999697 0.990071
1.00338 0.999303 0.988713
1.00387 0.998837 0.988245
1.00043 0.999897 0.993681
1.00228 0.999803 0.990308
1.00325 0.999424 0.988851
0.999174 1.00013 0.998522
1.00025 1.00007 0.993855
1.00205 1.00002 0.990548
0.999009 1.00021 0.998564
0.999995 1.00039 0.994004
0.998868 1.00005 0.998647
1.00279 0.999632 0.989474
1.0037 0.999259 0.988171
1.00408 0.998943 0.987823
1.0008 0.999967 0.992863
1.00282 0.99964 0.989175
1.00375 0.999462 0.987989
1.00253 0.999802 0.989584
1.00067 1 0.993104
0.999408 1 0.998366
1.00049 0.999988 0.993476
0.999323 1 0.998436
0.999255 1 0.998495
1.00263 0.999655 0.989768
1.00351 0.999238 0.988488
1.00392 0.998722 0.988233
1.00061 0.999887 0.994406
1.00245 0.999709 0.990065
1.00339 0.999304 0.988704
0.999294 1.00002 0.998471
1.00042 0.999891 0.99369
1.00227 0.999816 0.990306
0.999134 1.00014 0.998533
1.00023 1.00007 0.993867
0.998967 1.00018 0.998575
1.00085 0.999948 0.992816
1.00279 0.999605 0.98938
1.00371 0.999249 0.988038
0.999528 1 0.998279
1.00081 0.999962 0.992857
1.0028 0.999649 0.989196
1.00068 1 0.99309
0.999456 1 0.998331
0.99937 0.999996 0.998398
1.00079 0.999923 0.994076
1.00263 0.999652 0.989768
1.00353 0.999203 0.988436
0.999256 0.999984 0.998518
1.00056 0.999878 0.993456
1.00245 0.999717 0.990058
0.999252 1.00004 0.99849
1.00042 0.999886 0.993699
0.999089 1.00014 0.998542
0.99955 1 0.996056
1.00084 0.99995 0.993397
1.00279 0.999584 0.989286
0.999544 0.999997 0.998264
1.00082 0.999957 0.992855
0.999498 1 0.998297
0.999343 0.999955 0.996338
1.00073 0.999938 0.993633
1.00263 0.99965 0.989768
0.999305 0.999972 0.997453
1.00056 0.999884 0.99344
0.999217 1.00005 0.998508
0.999556 0.999993 0.998255
1.00081 0.999946 0.992882
0.999561 0.999993 0.998253
0.999419 0.999989 0.997301
1.00069 0.999943 0.993125
0.999327 0.999996 0.998448
0.999524 0.999989 0.998284
0.999433 0.999989 0.998363

TENSORS stress float
0.0011835 2.21848e-05 4.87124e-05
2.21848e-05 0.000261687 -6.40613e-06
4.87124e-05 -6.40613e-06 0.000242519
0.00301605 -7.38196e-05 4.3633e-05
-7.38196e-05 0.00119324 3.28015e-06
4.3633e-05 3.28015e-06 0.00119139
0.00118045 3.75579e-05 2.17798e-05
3.75579e-05 0.00026599 -2.10561e-06
2.17798e-05 -2.10561e-06 0.000244576
0.00144769 1.27037e-06 6.39511e-05
1.27037e-06 0.000388813 -5.12103e-06
6.39511e-05 -5.12103e-06 0.000367505
0.00124547 8.67496e-06 5.47525e-05
8.67496e-06 0.000298993 -6.28523e-06
5.47525e-05 -6.28523e-06 0.000278679
0.00114371 3.58422e-05 4.00078e-05
3.58422e-05 0.000228981 -6.48054e-06
4.00078e-05 -6.48054e-06 0.000212531
0.00110954 3.73823e-06 8.23764e-06
3.73823e-06 0.000182698 -3.03551e-06
8.23764e-06 -3.03551e-06 0.000140756
0.00299911 -7.68728e-05 9.92767e-07
-7.68728e-05 0.00118141 -2.00202e-07
9.92767e-07 -2.00202e-07 0.00117999
0.00353281 -0.000127941 6.96177e-06
-0.000127941 0.00150427 1.52756e-06
6.96177e-06 1.52756e-06 0.0014873
0.00301219 -9.71324e-05 1.29882e-05
-9.71324e-05 0.00121175 1.34343e-06
1.29882e-05 1.34343e-06 0.00120367
0.00109706 -3.64458e-05 3.38755e-05
-3.64458e-05 0.00017774 4.04779e-06
3.38755e-05 4.04779e-06 0.000171528
0.00075987 3.56851e-07 6.53651e-06
3.56851e-07 -6.62267e-06 3.72272e-06
6.53651e-06 3.72272e-06 -4.26805e-05
0.0016819 -7.64336e-06 7.86917e-05
-7.64336e-06 0.000485916 4.45277e-07
7.86917e-05 4.45277e-07 0.000463947
0.00133927 -1.52831e-05 1.14669e-05
-1.52831e-05 0.000333886 1.09135e-06
1.14669e-05 1.09135e-06 0.000310833
0.00119047 5.82546e-05 -6.29205e-06
5.82546e-05 0.000277764 2.15084e-06
-6.29205e-06 2.15084e-06 0.000253491
0.00139763 2.35681e-05 2.91796e-05
2.35681e-05 0.000369444 -1.64904e-06
2.91796e-05 -1.64904e-06 0.000345871
0.00112681 4.31082e-05 1.76176e-05
4.31082e-05 0.000223907 -2.23769e-06
1.76176e-05 -2.23769e-06 0.000206469
0.00124227 3.34227e-05 2.50221e-05
3.34227e-05 0.000304535 -1.90672e-06
2.50221e-05 -1.90672e-06 0.000281079
0.00118653 1.08532e-07 -8.79437e-06
1.08532e-07 0.000218976 3.83124e-07
-8.79437e-06 3.83124e-07 0.000178176
0.00458933 2.22792e-05 7.908e-05
2.22792e-05 0.00199923 -7.16429e-07
7.908e-05 -7.16429e-07 0.00199274
0.00154424 3.09833e-06 6.80913e-05
3.09833e-06 0.000428633 -3.94975e-06
6.80913e-05 -3.94975e-06 0.000407687
0.00132747 3.34507e-06 5.91584e-05
3.34507e-06 0.00033815 -5.95485e-06
5.91584e-05 -5.95485e-06 0.000316986
0.00136442 -3.18118e-06 1.1713e-05
-3.18118e-06 0.000265518 -3.22246e-06
1.1713e-05 -3.22246e-06 0.000220419
0.00118074 1.60045e-06 8.45015e-06
1.60045e-06 0.000209638 -3.42544e-06
8.45015e-06 -3.42544e-06 0.000165901
0.00115577 3.96943e-05 3.51184e-05
3.96943e-05 0.000217291 -6.53844e-06
3.51184e-05 -6.53844e-06 0.000206157
0.0010419 1.0755e-05 7.57646e-06
1.0755e-05 0.000153862 -2.74548e-06
7.57646e-06 -2.74548e-06 0.000115435
0.00144459 -6.02632e-05 2.88625e-06
-6.02632e-05 0.000277014 -9.88873e-07
2.88625e-06 -9.88873e-07 0.000210046
0.00297534 -7.84911e-05 -3.81601e-05
-7.84911e-05 0.00116563 -3.32394e-06
-3.81601e-05 -3.32394e-06 0.00116486
0.00235675 -6.62595e-05 -2.20074e-05
-6.62595e-05 0.000886286 -5.89804e-07
-2.20074e-05 -5.89804e-07 0.00086753
0.00211853 -6.66063e-05 -1.70293e-05
-6.66063e-05 0.000742935 -6.71894e-07
-1.70293e-05 -6.71894e-07 0.000730607
0.00283219 -7.0965e-05 6.13186e-07
-7.0965e-05 0.00108102 -1.09297e-07
6.13186e-07 -1.09297e-07 0.00108357
0.000709571 -7.36667e-06 -8.20328e-08
-7.36667e-06 -2.80132e-05 -8.74941e-08
-8.20328e-08 -8.74941e-08 -6.48961e-05
0.00157949 1.80108e-06 5.88573e-05
1.80108e-06 0.000469047 3.61679e-06
5.88573e-05 3.61679e-06 0.000447343
0.00144196 -1.5474e-05 4.97506e-05
-1.5474e-05 0.00039969 3.98803e-06
4.97506e-05 3.98803e-06 0.00038033
0.00199839 3.5797e-05 3.09765e-05
3.5797e-05 0.000623484 3.6828e-06
3.09765e-05 3.6828e-06 0.000585043
0.00267179 -7.2618e-05 1.25949e-05
-7.2618e-05 0.000987914 1.45716e-06
1.25949e-05 1.45716e-06 0.000993253
0.00177613 2.0692e-06 2.35564e-05
2.0692e-06 0.000522268 2.97542e-06
2.35564e-05 2.97542e-06 0.000488871
0.000721143 -2.5834e-05 6.90344e-06
-2.5834e-05 -2.59303e-05 5.75314e-06
6.90344e-06 5.75314e-06 -5.86533e-05
0.00090633 3.72459e-05 3.27493e-06
3.72459e-05 4.12036e-05 9.59835e-07
3.27493e-06 9.59835e-07 -2.60738e-05
0.00254749 -5.25504e-05 3.13566e-05
-5.25504e-05 0.000908708 3.68747e-06
3.13566e-05 3.68747e-06 0.000919729
0.00467293 -2.20679e-05 2.26451e-06
-2.20679e-05 0.00204006 -2.90071e-07
2.26451e-06 -2.90071e-07 0.00203342
0.00282177 -2.37416e-05 -3.01791e-05
-2.37416e-05 0.00109896 -4.7647e-07
-3.01791e-05 -4.7647e-07 0.00108377
0.00490989 -1.41692e-05 8.68905e-05
-1.41692e-05 0.00215364 1.35824e-07
8.68905e-05 1.35824e-07 0.00214696
0.001367 -9.21054e-06 1.168e-05
-9.21054e-06 0.00033969 6.3452e-07
1.168e-05 6.3452e-07 0.000316344
0.000788639 -7.44265e-06 1.30944e-05
-7.44265e-06 -7.5679e-05 1.62034e-06
1.30944e-05 1.62034e-06 -0.000126257
0.00402796 -7.96268e-05 1.41208e-05
-7.96268e-05 0.00174038 9.10837e-07
1.41208e-05 9.10837e-07 0.00172809
0.00222564 -3.18746e-06 3.99994e-05
-3.18746e-06 0.000694905 2.6624e-06
3.99994e-05 2.6624e-06 0.000657898
0.00135781 2.81973e-05 -9.89031e-06
2.81973e-05 0.000353771 1.89088e-06
-9.89031e-06 1.89088e-06 0.000329016
0.00126389 6.23877e-05 -4.59734e-06
6.23877e-05 0.000324059 2.37453e-06
-4.59734e-06 2.37453e-06 0.00029683
0.00109899 5.40791e-05 -7.25669e-06
5.40791e-05 0.000213481 1.87348e-06
-7.25669e-06 1.87348e-06 0.000194607
0.0012475 -6.43396e-06 -2.63232e-05
-6.43396e-06 0.000246676 3.79976e-06
-2.63232e-05 3.79976e-06 0.000207322
0.00307569 4.18944e-05 -3.19842e-05
4.18944e-05 0.00121533 -9.58964e-07
-3.19842e-05 -9.58964e-07 0.00119863
0.00145287 1.70039e-05 2.94063e-05
1.70039e-05 0.000386401 -1.29492e-06
2.94063e-05 -1.29492e-06 0.000363894
0.0010979 4.47485e-05 1.42799e-05
4.47485e-05 0.000189307 -2.34626e-06
1.42799e-05 -2.34626e-06 0.000177849
0.00131613 3.25e-05 2.84093e-05
3.25e-05 0.000340004 -1.73279e-06
2.84093e-05 -1.73279e-06 0.000315526
0.00142823 -1.38521e-05 -1.06289e-05
-1.38521e-05 0.000295087 1.10669e-07
-1.06289e-05 1.10669e-07 0.00025172
0.00111056 1.0221e-05 -6.6089e-06
1.0221e-05 0.00018665 4.26615e-07
-6.6089e-06 4.26615e-07 0.000148978
0.00126304 -5.56076e-06 -1.04604e-05
-5.56076e-06 0.000247804 3.13845e-07
-1.04604e-05 3.13845e-07 0.000205608
0.00154459 -6.43468e-05 -1.75434e-06
-6.43468e-05 0.000325269 6.08078e-07
-1.75434e-06 6.08078e-07 0.000257573
0.00476517 2.64764e-05 7.92842e-05
2.64764e-05 0.00208448 4.3461e-08
7.92842e-05 4.3461e-08 0.00207739
0.00158004 8.51261e-06 7.12758e-05
8.51261e-06 0.000441978 -2.90069e-06
7.12758e-05 -2.90069e-06 0.000420844
0.0021924 2.97667e-05 1.12245e-05
2.97667e-05 0.000659541 -1.10891e-06
1.12245e-05 -1.10891e-06 0.00061711
0.0014337 -5.78418e-06 1.4161e-05
-5.78418e-06 0.000284475 -2.39039e-06
1.4161e-05 -2.39039e-06 0.000240269
0.0012649 3.71448e-06 8.75427e-06
3.71448e-06 0.000237183 -3.69347e-06
8.75427e-06 -3.69347e-06 0.000191888
0.00182599 -5.8288e-05 4.70229e-06
-5.8288e-05 0.000367912 -1.80601e-06
4.70229e-06 -1.80601e-06 0.000294835
0.00120056 -5.59085e-05 4.08375e-06
-5.59085e-05 0.000119476 -1.87447e-06
4.08375e-06 -1.87447e-06 4.98168e-05
0.00123247 3.99596e-05 3.35231e-05
3.99596e-05 0.000236649 -6.39508e-06
3.35231e-05 -6.39508e-06 0.000231721
0.00102143 3.59159e-05 5.59579e-06
3.59159e-05 0.000144677 -2.67333e-06
5.59579e-06 -2.67333e-06 0.000111557
0.00130003 -4.88029e-05 2.31115e-06
-4.88029e-05 0.000234142 -7.62542e-07
2.31115e-06 -7.62542e-07 0.000169434
0.0011197 -7.24601e-05 2.05752e-06
-7.24601e-05 5.84965e-05 -5.50086e-07
2.05752e-06 -5.50086e-07 -2.5595e-05
0.00348758 -8.73169e-05 -4.74086e-05
-8.73169e-05 0.00147141 -2.94354e-06
-4.74086e-05 -2.94354e-06 0.00146024
0.00284774 -7.18919e-05 -3.55992e-05
-7.18919e-05 0.00108549 -3.38768e-06
-3.55992e-05 -3.38768e-06 0.00108899
0.0030866 -8.37448e-05 -4.11313e-05
-8.37448e-05 0.00124118 -3.10249e-06
-4.11313e-05 -3.10249e-06 0.00123616
0.000667294 -6.99005e-06 -5.38342e-06
-6.99005e-06 -4.66403e-05 -4.29692e-06
-5.38342e-06 -4.29692e-06 -8.33098e-05
0.00399729 -6.7453e-05 -1.65343e-06
-6.7453e-05 0.00172721 -8.65153e-08
-1.65343e-06 -8.65153e-08 0.00171621
0.00339327 -8.1288e-05 1.56645e-06
-8.1288e-05 0.00141784 -1.52977e-07
1.56645e-06 -1.52977e-07 0.00140863
0.000660147 4.17455e-05 -1.17321e-07
4.17455e-05 -6.49836e-05 -1.56053e-07
-1.17321e-07 -1.56053e-07 -0.000110905
0.00187522 -5.36499e-05 -1.35275e-05
-5.36499e-05 0.00057175 -8.9734e-07
-1.35275e-05 -8.9734e-07 0.000573576
0.000698161 1.35388e-05 -1.54411e-07
1.35388e-05 -3.29738e-05 -7.8391e-08
-1.54411e-07 -7.8391e-08 -7.30749e-05
0.00115308 -3.40567e-05 7.4269e-06
-3.40567e-05 0.000199378 5.09207e-07
7.4269e-06 5.09207e-07 0.000170346
0.000873849 3.61372e-05 1.35559e-07
3.61372e-05 2.3936e-05 -2.30493e-07
1.35559e-07 -2.30493e-07 -4.2943e-05
0.00263369 -5.82526e-05 3.34495e-05
-5.82526e-05 0.000959648 3.60932e-06
3.34495e-05 3.60932e-06 0.000968485
0.000765808 -3.94257e-05 3.13625e-06
-3.94257e-05 -2.42385e-05 4.02554e-06
3.13625e-06 4.02554e-06 -4.17467e-05
0.000784895 4.50396e-05 1.20503e-05
4.50396e-05 -2.14794e-05 5.22442e-06
1.20503e-05 5.22442e-06 -6.83731e-05
0.00077536 3.20241e-05 9.83037e-06
3.20241e-05 3.03854e-08 5.73288e-06
9.83037e-06 5.73288e-06 -4.41477e-05
0.00102486 5.74726e-05 4.64236e-06
5.74726e-05 2.5276e-05 1.81918e-06
4.64236e-06 1.81918e-06 -4.76322e-05
0.00156747 -5.21188e-05 1.59799e-05
-5.21188e-05 0.000409826 3.55766e-06
1.59799e-05 3.55766e-06 0.000388041
0.0009479 5.14396e-05 3.34657e-06
5.14396e-05 4.66372e-05 1.16164e-06
3.34657e-06 1.16164e-06 -2.07352e-05
0.000892382 2.41759e-05 3.08497e-06
2.41759e-05 4.29547e-05 1.7238e-06
3.08497e-06 1.7238e-06 -2.30348e-05
0.000917407 6.66156e-05 1.82036e-06
6.66156e-05 1.76697e-05 -1.89385e-07
1.82036e-06 -1.89385e-07 -6.29368e-05
0.0024278 -4.69663e-05 2.84622e-05
-4.69663e-05 0.000840176 3.76121e-06
2.84622e-05 3.76121e-06 0.00085347
0.0025257 -5.26321e-05 4.95129e-07
-5.26321e-05 0.000896908 -9.06453e-08
4.95129e-07 -9.06453e-08 0.000908195
0.00421619 -2.82362e-05 -6.78111e-05
-2.82362e-05 0.00182329 -1.85775e-06
-6.78111e-05 -1.85775e-06 0.00181617
0.00456962 -1.84507e-05 -7.59489e-05
-1.84507e-05 0.00199078 -6.90638e-07
-7.59489e-05 -6.90638e-07 0.0019841
0.00485573 -5.14141e-06 3.67052e-06
-5.14141e-06 0.00212817 -3.82229e-07
3.67052e-06 -3.82229e-07 0.00212132
0.00292321 -1.72556e-05 -3.15346e-05
-1.72556e-05 0.00114348 -4.08244e-07
-3.15346e-05 -4.08244e-07 0.00112815
0.00155714 3.06672e-06 1.76251e-05
3.06672e-06 0.000325114 1.0355e-07
1.76251e-05 1.0355e-07 0.000279863
0.00266435 -4.14742e-05 -3.02203e-05
-4.14742e-05 0.00102995 -4.31138e-07
-3.02203e-05 -4.31138e-07 0.00101306
0.00143048 1.55766e-05 1.49382e-05
1.55766e-05 0.000286462 1.77322e-07
1.49382e-05 1.77322e-07 0.000245074
0.00494069 4.84968e-05 8.07737e-05
4.84968e-05 0.00216961 1.01019e-06
8.07737e-05 1.01019e-06 0.00216187
0.000783951 -6.48874e-07 1.1333e-05
-6.48874e-07 -9.10228e-05 1.40168e-07
1.1333e-05 1.40168e-07 -0.000143829
0.0022646 -2.33576e-05 4.24191e-05
-2.33576e-05 0.000704315 1.77435e-06
4.24191e-05 1.77435e-06 0.000665727
0.00123816 1.00682e-05 6.68796e-06
1.00682e-05 7.273e-06 1.26328e-06
6.68796e-06 1.26328e-06 -7.37841e-05
0.00211982 3.44016e-05 3.65491e-05
3.44016e-05 0.000655767 2.89158e-06
3.65491e-05 2.89158e-06 0.000618283
0.00118018 3.59029e-05 6.50743e-06
3.59029e-05 1.67255e-05 1.43625e-06
6.50743e-06 1.43625e-06 -6.13129e-05
0.00166783 1.6368e-05 -7.68654e-05
1.6368e-05 0.000479685 4.84563e-07
-7.68654e-05 4.84563e-07 0.000457879
0.00135468 1.48775e-05 -1.21137e-05
1.48775e-05 0.000340011 1.42097e-06
-1.21137e-05 1.42097e-06 0.000316469
0.00100051 4.99297e-05 -7.47509e-06
4.99297e-05 0.000141152 1.66857e-06
-7.47509e-06 1.66857e-06 0.000129369
0.00132977 5.37239e-05 -5.35174e-06
5.37239e-05 0.000353674 2.2945e-06
-5.35174e-06 2.2945e-06 0.000326673
0.00148374 -1.53455e-05 -3.49398e-05
-1.53455e-05 0.000321125 3.48001e-06
-3.49398e-05 3.48001e-06 0.000278953
0.00131234 -1.43802e-05 -2.9228e-05
-1.43802e-05 0.000268257 3.92302e-06
-2.9228e-05 3.92302e-06 0.000227995
0.00118864 7.29963e-06 -2.22016e-05
7.29963e-06 0.000224038 3.57111e-06
-2.22016e-05 3.57111e-06 0.000187352
0.0016613 -6.84356e-05 -6.6397e-06
-6.84356e-05 0.000381958 2.34884e-06
-6.6397e-06 2.34884e-06 0.000313523
0.00483777 3.76159e-05 -3.1464e-06
3.76159e-05 0.00211951 -3.92768e-07
-3.1464e-06 -3.92768e-07 0.00211231
0.00147001 1.51577e-05 3.04096e-05
1.51577e-05 0.000389377 -8.40295e-07
3.04096e-05 -8.40295e-07 0.000367041
0.0011481 1.09127e-05 -1.92839e-05
1.09127e-05 0.000113548 2.58539e-07
-1.92839e-05 2.58539e-07 6.61612e-05
0.0014795 -1.09492e-05 -1.08035e-05
-1.09492e-05 0.000305799 9.6875e-08
-1.08035e-05 9.6875e-08 0.000262728
0.001984 5.48013e-05 2.5075e-05
5.48013e-05 0.000631559 -1.7919e-06
2.5075e-05 -1.7919e-06 0.000631123
0.00129834 3.09753e-05 -4.91016e-06
3.09753e-05 0.000284417 4.21604e-07
-4.91016e-06 4.21604e-07 0.00025287
0.00134313 -9.32646e-06 -1.10037e-05
-9.32646e-06 0.000272695 1.93129e-07
-1.10037e-05 1.93129e-07 0.000229646
0.00166895 -5.43992e-05 -3.21574e-06
-5.43992e-05 0.000285896 6.17289e-07
-3.21574e-06 6.17289e-07 0.000211774
0.00144606 -5.56267e-05 -1.42717e-06
-5.56267e-05 0.000305635 6.63068e-07
-1.42717e-06 6.63068e-07 0.000239916
0.00142145 -6.12534e-05 -7.81491e-07
-6.12534e-05 0.000232092 1.20563e-07
-7.81491e-07 1.20563e-07 0.000162958
0.00112136 -7.20524e-05 -2.04898e-08
-7.20524e-05 5.93639e-05 -2.33523e-08
-2.04898e-08 -2.33523e-08 -2.45843e-05
0.000762621 3.23637e-06 1.12376e-05
3.23637e-06 -9.76806e-05 -1.70887e-06
1.12376e-05 -1.70887e-06 -0.000150097
0.00145233 -2.61958e-07 1.45065e-05
-2.61958e-07 0.000286224 -1.83338e-06
1.45065e-05 -1.83338e-06 0.000242279
0.00160637 3.34825e-06 6.00918e-06
3.34825e-06 0.000199459 -1.28008e-06
6.00918e-06 -1.28008e-06 0.000121931
0.00150339 -3.98853e-05 5.97592e-06
-3.98853e-05 0.000177732 -1.38253e-06
5.97592e-06 -1.38253e-06 0.000103119
0.00136767 -5.75445e-05 4.97333e-06
-5.75445e-05 0.000167062 -2.33979e-06
4.97333e-06 -2.33979e-06 9.44758e-05
0.00175352 -6.79373e-05 1.76792e-06
-6.79373e-05 0.000257812 -6.21114e-07
1.76792e-06 -6.21114e-07 0.000168689
0.00278633 6.52042e-05 3.44295e-05
6.52042e-05 0.00103941 -3.34934e-06
3.44295e-05 -3.34934e-06 0.00104667
0.00113302 -6.87675e-05 1.96006e-06
-6.87675e-05 3.18476e-05 -5.77276e-07
1.96006e-06 -5.77276e-07 -5.222e-05
0.000709685 5.32385e-05 2.81916e-06
5.32385e-05 -3.07949e-05 -3.9147e-06
2.81916e-06 -3.9147e-06 -6.20957e-05
0.000739856 -3.11073e-05 2.36074e-06
-3.11073e-05 -3.42569e-05 -1.00489e-06
2.36074e-06 -1.00489e-06 -9.84224e-05
0.00119314 -7.79682e-05 2.00627e-06
-7.79682e-05 0.000132173 -9.0153e-07
2.00627e-06 -9.0153e-07 4.73607e-05
0.0012236 -8.13399e-05 1.01321e-06
-8.13399e-05 7.74484e-05 2.13237e-08
1.01321e-06 2.13237e-08 -1.29909e-05
0.000690323 4.1425e-05 3.73545e-06
4.1425e-05 -6.01968e-05 -4.00231e-06
3.73545e-06 -4.00231e-06 -8.13725e-05
0.000870534 1.63596e-05 1.623e-06
1.63596e-05 1.5048e-05 -2.37281e-06
1.623e-06 -2.37281e-06 -3.48294e-05
0.0037847 -7.1224e-05 -5.38215e-05
-7.1224e-05 0.00162018 -2.77953e-06
-5.38215e-05 -2.77953e-06 0.00160954
0.00322849 -8.85761e-05 -4.33093e-05
-8.85761e-05 0.00133073 -2.87304e-06
-4.33093e-05 -2.87304e-06 0.001322
0.000624762 3.58475e-05 -7.76919e-06
3.58475e-05 -8.03818e-05 -4.5196e-06
-7.76919e-06 -4.5196e-06 -0.000126357
0.00274747 -6.50341e-05 -3.41172e-05
-6.50341e-05 0.00102397 -3.42127e-06
-3.41172e-05 -3.42127e-06 0.00103078
0.00063943 -4.75543e-05 -2.68646e-06
-4.75543e-05 -6.31401e-05 -4.52971e-06
-2.68646e-06 -4.52971e-06 -9.61376e-05
0.000636016 1.17042e-05 -6.61185e-06
1.17042e-05 -5.92491e-05 -3.96735e-06
-6.61185e-06 -3.96735e-06 -0.000100008
0.00084588 3.62354e-05 -3.10689e-06
3.62354e-05 8.81457e-06 -1.30804e-06
-3.10689e-06 -1.30804e-06 -5.77279e-05
0.00263973 -5.84686e-05 4.32394e-07
-5.84686e-05 0.000962161 -1.07765e-07
4.32394e-07 -1.07765e-07 0.000971196
0.000744586 -3.74002e-05 1.55277e-07
-3.74002e-05 -3.62487e-05 3.35744e-08
1.55277e-07 3.35744e-08 -5.32155e-05
0.00132688 4.18399e-05 1.26835e-05
4.18399e-05 0.000262007 6.98445e-08
1.26835e-05 6.98445e-08 0.000219725
0.00121514 2.21705e-05 1.03494e-05
2.21705e-05 0.000233209 2.13171e-07
1.03494e-05 2.13171e-07 0.000193118
0.00100568 5.75319e-05 2.48448e-07
5.75319e-05 1.60189e-05 2.64473e-09
2.48448e-07 2.64473e-09 -5.67572e-05
0.000733985 -4.94348e-05 2.08384e-08
-4.94348e-05 -2.40746e-05 4.44731e-08
2.08384e-08 4.44731e-08 -5.06619e-05
0.000906316 4.93589e-05 4.28371e-10
4.93589e-05 2.54489e-05 1.74559e-07
4.28371e-10 1.74559e-07 -4.16798e-05
0.000859119 2.02341e-05 1.27006e-07
2.02341e-05 2.66631e-05 -2.47209e-07
1.27006e-07 -2.47209e-07 -3.92995e-05
0.000877127 6.52173e-05 -5.90013e-08
6.52173e-05 -3.68824e-06 -1.60046e-07
-5.90013e-08 -1.60046e-07 -8.44915e-05
0.00074203 -4.49908e-05 3.03434e-06
-4.49908e-05 -2.77396e-05 4.08956e-06
3.03434e-06 4.08956e-06 -4.97517e-05
0.000790421 -3.347e-05 3.19607e-06
-3.347e-05 -2.02749e-05 3.85737e-06
3.19607e-06 3.85737e-06 -3.33498e-05
0.000827868 -2.78759e-06 2.64818e-06
-2.78759e-06 -4.05302e-06 2.24578e-06
2.64818e-06 2.24578e-06 -5.35663e-05
0.00107284 5.25796e-05 5.36334e-06
5.25796e-05 1.34581e-05 1.86928e-06
5.36334e-06 1.86928e-06 -6.17203e-05
0.000989405 5.75491e-05 3.88316e-06
5.75491e-05 4.37256e-05 1.60718e-06
3.88316e-06 1.60718e-06 -2.62424e-05
0.00119832 7.46452e-05 2.64442e-06
7.46452e-05 6.22383e-05 9.0959e-07
2.64442e-06 9.0959e-07 -2.56574e-05
0.00088073 1.48021e-05 2.80782e-06
1.48021e-05 3.23652e-05 2.02334e-06
2.80782e-06 2.02334e-06 -2.88778e-05
0.000943762 6.94325e-05 1.46889e-06
6.94325e-05 8.29672e-06 1.34656e-07
1.46889e-06 1.34656e-07 -7.19901e-05
0.0010498 6.67757e-05 1.9326e-06
6.67757e-05 0.000104803 3.25337e-07
1.9326e-06 3.25337e-07 2.28432e-05
0.00106627 8.01832e-05 -6.35236e-08
8.01832e-05 8.62623e-05 -8.92636e-07
-6.35236e-08 -8.92636e-07 -1.62766e-06
0.00232659 -4.17892e-05 2.54869e-05
-4.17892e-05 0.000780526 3.79017e-06
2.54869e-05 3.79017e-06 0.000796022
0.00240844 -4.71429e-05 5.15883e-07
-4.71429e-05 0.000829323 -7.49639e-08
5.15883e-07 -7.49639e-08 0.0008429
0.00250511 -5.27531e-05 -2.89834e-05
-5.27531e-05 0.000885606 -3.58159e-06
-2.89834e-05 -3.58159e-06 0.000897172
0.000727212 3.49981e-05 3.45439e-06
3.49981e-05 -4.86866e-05 -3.8027e-06
3.45439e-06 -3.8027e-06 -6.52292e-05
0.00268524 5.90427e-05 3.21498e-05
5.90427e-05 0.000981093 -3.46744e-06
3.21498e-05 -3.46744e-06 0.000990637
0.00402427 -4.12147e-05 -6.22489e-05
-4.12147e-05 0.00173339 -2.35087e-06
-6.22489e-05 -2.35087e-06 0.00172517
0.00438155 -2.2096e-05 -7.2079e-05
-2.2096e-05 0.00190097 -1.28576e-06
-7.2079e-05 -1.28576e-06 0.00189433
0.000686244 2.50542e-05 -1.00921e-05
2.50542e-05 -9.91009e-05 -2.68176e-06
-1.00921e-05 -2.68176e-06 -0.000144429
0.000737548 1.58316e-05 -1.09196e-05
1.58316e-05 -9.73042e-05 -1.31012e-06
-1.09196e-05 -1.31012e-06 -0.000147173
0.00478964 -1.57237e-05 -7.88261e-05
-1.57237e-05 0.00209644 -4.70776e-08
-7.88261e-05 -4.70776e-08 0.00208954
0.0049473 1.21767e-05 -1.18696e-06
1.21767e-05 0.00217204 4.32982e-07
-1.18696e-06 4.32982e-07 0.00216509
0.000771093 1.15882e-06 2.335e-08
1.15882e-06 -9.63535e-05 -2.70261e-07
2.335e-08 -2.70261e-07 -0.000149137
0.00149825 8.94984e-07 1.62994e-05
8.94984e-07 0.000309645 2.22201e-07
1.62994e-05 2.22201e-07 0.000267134
0.00123139 1.35414e-05 1.07023e-07
1.35414e-05 4.33675e-06 3.56245e-08
1.07023e-07 3.56245e-08 -7.67713e-05
0.000662773 3.3601e-05 -4.16867e-08
3.3601e-05 -9.64453e-05 -5.41121e-08
-4.16867e-08 -5.41121e-08 -0.000141878
0.00117897 3.71906e-05 9.01018e-08
3.71906e-05 1.70323e-05 -1.75243e-07
9.01018e-08 -1.75243e-07 -6.11676e-05
0.000767537 -3.53429e-06 1.15138e-05
-3.53429e-06 -0.000104197 -9.06217e-07
1.15138e-05 -9.06217e-07 -0.000158241
0.00128075 4.62051e-06 6.79074e-06
4.62051e-06 7.14053e-06 5.34482e-07
6.79074e-06 5.34482e-07 -7.72602e-05
0.00121146 2.30566e-05 6.64313e-06
2.30566e-05 1.39015e-05 1.25093e-06
6.64313e-06 1.25093e-06 -6.48947e-05
0.00146785 1.14911e-05 2.99509e-06
1.14911e-05 5.15765e-05 9.03074e-07
2.99509e-06 9.03074e-07 -4.21113e-05
0.00113096 4.49167e-05 5.99289e-06
4.49167e-05 1.39308e-05 1.82847e-06
5.99289e-06 1.82847e-06 -6.29809e-05
0.00139507 4.122e-05 2.92787e-06
4.122e-05 5.71922e-05 2.96147e-07
2.92787e-06 2.96147e-07 -3.30688e-05
0.00489529 4.27705e-05 -8.76586e-05
4.27705e-05 0.00214713 -6.69935e-07
-8.76586e-05 -6.69935e-07 0.00213989
0.00133909 8.68961e-06 -1.18848e-05
8.68961e-06 0.000325513 9.78717e-07
-1.18848e-05 9.78717e-07 0.000302338
7.28699e-05 1.74184e-06 -1.21001e-05
1.74184e-06 -0.000446181 2.47535e-06
-1.21001e-05 2.47535e-06 -0.00050061
0.00153445 -8.6229e-06 -3.70508e-05
-8.6229e-06 0.00033225 2.61389e-06
-3.70508e-05 2.61389e-06 0.000289985
0.00269994 7.84237e-05 -1.29733e-05
7.84237e-05 0.00100961 1.34498e-06
-1.29733e-05 1.34498e-06 0.00101231
0.00160248 2.76969e-05 -1.88569e-05
2.76969e-05 0.000437032 3.5835e-06
-1.88569e-05 3.5835e-06 0.000407974
0.00139466 -1.78682e-05 -3.2147e-05
-1.78682e-05 0.000294845 3.90467e-06
-3.2147e-05 3.90467e-06 0.00025371
0.00151188 -5.09255e-05 -1.04574e-05
-5.09255e-05 0.000203908 2.95553e-06
-1.04574e-05 2.95553e-06 0.000128733
0.00166395 -6.69969e-05 -6.31e-06
-6.69969e-05 0.000355988 2.16431e-06
-6.31e-06 2.16431e-06 0.000287301
0.00159102 -6.19624e-05 -5.77477e-06
-6.19624e-05 0.000376734 2.21572e-06
-5.77477e-06 2.21572e-06 0.000309987
0.00112471 -7.17507e-05 -1.68268e-06
-7.17507e-05 6.10874e-05 3.95984e-07
-1.68268e-06 3.95984e-07 -2.27274e-05
0.000770242 4.72437e-06 -1.30299e-07
4.72437e-06 -9.50296e-05 -2.65645e-07
-1.30299e-07 -2.65645e-07 -0.000147474
0.00150036 -1.17766e-06 -1.16233e-05
-1.17766e-06 0.000308849 5.52905e-08
-1.16233e-05 5.52905e-08 0.000265837
0.0012509 2.24691e-06 -2.10949e-06
2.24691e-06 1.63907e-05 7.94997e-08
-2.10949e-06 7.94997e-08 -6.32033e-05
0.00171329 -4.17894e-05 -1.72393e-06
-4.17894e-05 0.000285568 1.72991e-07
-1.72393e-06 1.72991e-07 0.000211648
0.00274823 6.46385e-05 -4.32529e-07
6.46385e-05 0.00102135 -1.15969e-07
-4.32529e-07 -1.15969e-07 0.00102831
0.00114044 4.629e-05 1.23393e-06
4.629e-05 0.000191348 1.05686e-07
1.23393e-06 1.05686e-07 0.00016348
0.00110269 -3.06885e-05 1.00936e-07
-3.06885e-05 0.000150153 -6.02661e-08
1.00936e-07 -6.02661e-08 8.62988e-05
0.00137217 -5.70211e-05 -1.37197e-06
-5.70211e-05 0.000170347 1.49325e-07
-1.37197e-06 1.49325e-07 9.78563e-05
0.00146517 -6.25855e-05 -1.34037e-06
-6.25855e-05 0.00010859 5.0404e-07
-1.34037e-06 5.0404e-07 1.83607e-05
0.00101177 -7.167e-05 -2.6984e-07
-7.167e-05 4.18306e-05 -1.48973e-07
-2.6984e-07 -1.48973e-07 -4.29397e-05
0.00135046 -7.31278e-05 1.07605e-07
-7.31278e-05 0.000140691 9.54706e-08
1.07605e-07 9.54706e-08 5.70953e-05
0.00121586 -8.07291e-05 1.14811e-07
-8.07291e-05 7.38838e-05 3.56475e-08
1.14811e-07 3.56475e-08 -1.63655e-05
0.000709934 4.37132e-05 -1.53711e-07
4.37132e-05 -4.81595e-05 1.65678e-08
-1.53711e-07 1.65678e-08 -6.9981e-05
0.000847811 1.45382e-05 -3.18596e-07
1.45382e-05 2.97803e-06 4.19167e-08
-3.18596e-07 4.19167e-08 -4.68277e-05
0.0012646 1.47154e-06 6.50979e-06
1.47154e-06 -5.55134e-07 -1.50221e-06
6.50979e-06 -1.50221e-06 -8.44538e-05
0.00153622 -1.34003e-05 5.88691e-06
-1.34003e-05 0.000181453 -1.16175e-06
5.88691e-06 -1.16175e-06 0.00010713
0.00183347 -1.10251e-06 2.0269e-06
-1.10251e-06 0.000242983 -5.4086e-07
2.0269e-06 -5.4086e-07 0.000152745
0.0012231 -4.25816e-05 3.56333e-06
-4.25816e-05 -4.6042e-05 -7.41018e-07
3.56333e-06 -7.41018e-07 -0.000136753
0.0013567 -7.04073e-05 1.76437e-06
-7.04073e-05 0.000106464 -9.53283e-07
1.76437e-06 -9.53283e-07 2.0604e-05
0.00171615 -6.74947e-05 2.78011e-07
-6.74947e-05 0.000194536 -1.05408e-07
2.78011e-07 -1.05408e-07 0.000102203
0.000639879 4.75207e-05 3.17674e-06
4.75207e-05 -7.62959e-05 -4.04996e-06
3.17674e-06 -4.04996e-06 -0.000102458
0.00128219 -7.73306e-05 5.40978e-07
-7.73306e-05 6.62845e-05 -2.13469e-07
5.40978e-07 -2.13469e-07 -2.29901e-05
0.000775594 -9.68082e-06 2.15482e-06
-9.68082e-06 -1.54459e-05 -1.01169e-06
2.15482e-06 -1.01169e-06 -7.84499e-05
0.000710061 -5.91901e-05 1.64112e-06
-5.91901e-05 -7.89391e-05 -1.13438e-06
1.64112e-06 -1.13438e-06 -0.00016026
0.00159176 -9.93424e-05 6.15827e-07
-9.93424e-05 0.000308604 -2.09764e-07
6.15827e-07 -2.09764e-07 0.000215104
0.00143105 -8.98789e-05 -1.78342e-07
-8.98789e-05 0.000157737 1.04283e-06
-1.78342e-07 1.04283e-06 6.66814e-05
0.000884688 -1.32955e-06 2.47769e-06
-1.32955e-06 2.70978e-05 -2.09151e-06
2.47769e-06 -2.09151e-06 -2.96157e-05
0.000860321 2.40407e-05 1.14065e-06
2.40407e-05 6.64832e-06 -2.02765e-06
1.14065e-06 -2.02765e-06 -3.62457e-05
0.000929534 -2.73794e-05 9.02866e-07
-2.73794e-05 4.25825e-05 -8.06674e-07
9.02866e-07 -8.06674e-07 -2.9717e-05
0.000636084 4.1343e-05 -8.90899e-06
4.1343e-05 -9.26452e-05 -4.20692e-06
-8.90899e-06 -4.20692e-06 -0.000138942
0.00263366 -5.86407e-05 -3.18882e-05
-5.86407e-05 0.000958471 -3.50546e-06
-3.18882e-05 -3.50546e-06 0.000967726
0.00072783 -3.53992e-05 -3.63652e-06
-3.53992e-05 -4.58421e-05 -3.89858e-06
-3.63652e-06 -3.89858e-06 -6.23055e-05
0.000617079 2.30245e-05 -6.76206e-06
2.30245e-05 -7.12661e-05 -4.2527e-06
-6.76206e-06 -4.2527e-06 -0.000115156
0.00098781 5.76912e-05 -4.49649e-06
5.76912e-05 7.62371e-06 -1.96271e-06
-4.49649e-06 -1.96271e-06 -6.50555e-05
0.000633577 -4.68195e-05 -3.22802e-06
-4.68195e-05 -7.60038e-05 -4.29972e-06
-3.22802e-06 -4.29972e-06 -0.000102371
0.000798056 1.55119e-05 -2.35054e-06
1.55119e-05 -3.93827e-06 -1.96777e-06
-2.35054e-06 -1.96777e-06 -6.97115e-05
0.00087346 4.70476e-05 -3.16768e-06
4.70476e-05 8.69782e-06 -8.17111e-07
-3.16768e-06 -8.17111e-07 -5.8188e-05
0.000834382 6.37577e-05 -2.13438e-06
6.37577e-05 -2.63889e-05 -1.14905e-07
-2.13438e-06 -1.14905e-07 -0.000107373
0.000713847 -4.34646e-05 1.33336e-07
-4.34646e-05 -4.34688e-05 2.74586e-08
1.33336e-07 2.74586e-08 -6.49896e-05
0.000770031 -3.20366e-05 8.64325e-08
-3.20366e-05 -3.09744e-05 5.84091e-08
8.64325e-08 5.84091e-08 -4.37249e-05
0.000846785 -1.48664e-05 1.30895e-07
-1.48664e-05 4.89749e-06 6.27307e-08
1.30895e-07 6.27307e-08 -4.39453e-05
0.00107502 5.33726e-05 2.91924e-07
5.33726e-05 1.51401e-05 -4.41153e-08
2.91924e-07 -4.41153e-08 -6.00169e-05
0.000944954 5.5877e-05 1.67968e-07
5.5877e-05 2.1565e-05 1.16434e-07
1.67968e-07 1.16434e-07 -4.81138e-05
0.00118582 7.47638e-05 1.6889e-07
7.47638e-05 5.64848e-05 4.88944e-08
1.6889e-07 4.88944e-08 -3.1474e-05
0.000858458 1.23156e-05 -2.61215e-07
1.23156e-05 2.34031e-05 2.17526e-10
-2.61215e-07 2.17526e-10 -3.80823e-05
0.00104171 7.30147e-05 -7.12011e-08
7.30147e-05 5.89599e-05 -8.97188e-08
-7.12011e-08 -8.97188e-08 -2.11144e-05
0.00101981 6.58437e-05 1.76644e-07
6.58437e-05 8.95848e-05 -2.4918e-07
1.76644e-07 -2.4918e-07 7.66169e-06
0.00096544 7.70456e-05 -5.86322e-07
7.70456e-05 3.48598e-05 2.44244e-07
-5.86322e-07 2.44244e-07 -5.34466e-05
0.000805999 -2.87604e-05 3.00615e-06
-2.87604e-05 -1.97349e-05 3.62807e-06
3.00615e-06 3.62807e-06 -2.91705e-05
0.00084393 1.6448e-06 2.88234e-06
1.6448e-06 5.83539e-06 1.8745e-06
2.88234e-06 1.8745e-06 -4.91971e-05
0.000830632 -1.77213e-05 1.71341e-06
-1.77213e-05 -6.28811e-06 2.39917e-06
1.71341e-06 2.39917e-06 -4.8809e-05
0.000952715 1.93892e-05 1.25221e-06
1.93892e-05 5.59497e-05 8.55298e-07
1.25221e-06 8.55298e-07 -1.35922e-05
0.00126858 6.53764e-05 3.32898e-06
6.53764e-05 5.42308e-05 8.4868e-07
3.32898e-06 8.4868e-07 -3.52657e-05
0.00113203 7.71282e-05 2.07583e-06
7.71282e-05 7.44964e-05 9.82513e-07
2.07583e-06 9.82513e-07 -9.45219e-06
0.00127981 8.17251e-05 1.38207e-06
8.17251e-05 7.11043e-05 8.02802e-07
1.38207e-06 8.02802e-07 -2.37738e-05
0.00105538 4.75146e-05 1.7735e-06
4.75146e-05 0.000111452 9.0103e-07
1.7735e-06 9.0103e-07 3.35236e-05
0.0011471 8.28228e-05 3.74001e-07
8.28228e-05 9.51473e-05 -1.14793e-07
3.74001e-07 -1.14793e-07 8.85944e-06
0.00105202 7.9354e-05 1.01e-06
7.9354e-05 0.000107273 -6.49867e-07
1.01e-06 -6.49867e-07 1.3353e-05
0.000846839 7.43109e-05 5.33745e-07
7.43109e-05 -3.90387e-05 -7.87588e-07
5.33745e-07 -7.87588e-07 -0.0001308
0.00087719 -1.16246e-05 8.89111e-07
-1.16246e-05 3.61554e-06 1.78366e-06
8.89111e-07 1.78366e-06 -2.47234e-05
0.000815545 -2.1889e-05 2.1192e-06
-2.1889e-05 -2.62587e-05 3.43602e-06
2.1192e-06 3.43602e-06 -3.07012e-05
0.00226031 -3.69525e-05 2.26688e-05
-3.69525e-05 0.000739015 3.83638e-06
2.26688e-05 3.83638e-06 0.000756435
0.00231941 -4.20081e-05 6.40051e-07
-4.20081e-05 0.000775847 -6.94888e-08
6.40051e-07 -6.94888e-08 0.000791571
0.00239187 -4.7217e-05 -2.62684e-05
-4.7217e-05 0.000819884 -3.64434e-06
-2.62684e-05 -3.64434e-06 0.000833752
0.000752544 3.088e-05 3.11358e-06
3.088e-05 -4.22575e-05 -3.48333e-06
3.11358e-06 -3.48333e-06 -5.4644e-05
0.00254242 5.33761e-05 2.8727e-05
5.33761e-05 0.000901903 -3.51752e-06
2.8727e-05 -3.51752e-06 0.00091368
0.000745062 3.73758e-05 -2.64516e-07
3.73758e-05 -3.83616e-05 1.92966e-08
-2.64516e-07 1.92966e-08 -5.54765e-05
0.00268163 5.87024e-05 -4.12201e-07
5.87024e-05 0.000979835 -1.01465e-07
-4.12201e-07 -1.01465e-07 0.00098918
0.000653604 3.64997e-05 -9.56015e-06
3.64997e-05 -0.000101122 -3.51032e-06
-9.56015e-06 -3.51032e-06 -0.000146719
0.00072072 2.36896e-05 -1.05488e-05
2.36896e-05 -9.31562e-05 -1.88756e-06
-1.05488e-05 -1.88756e-06 -0.000140152
0.00116245 3.71644e-05 -6.39446e-06
3.71644e-05 9.67973e-06 -1.68247e-06
-6.39446e-06 -1.68247e-06 -6.86448e-05
0.00122327 1.49857e-05 -6.50972e-06
1.49857e-05 7.554e-07 -1.13685e-06
-6.50972e-06 -1.13685e-06 -8.03905e-05
0.000753617 5.31118e-06 -1.14084e-05
5.31118e-06 -0.00010395 -7.32232e-07
-1.14084e-05 -7.32232e-07 -0.00015674
0.0049464 6.13585e-06 -8.41451e-05
6.13585e-06 0.00217223 6.3658e-07
-8.41451e-05 6.3658e-07 0.00216498
0.000775412 1.27119e-09 4.85077e-08
1.27119e-09 -0.000100348 -3.81238e-07
4.85077e-08 -3.81238e-07 -0.000154388
0.00127518 8.27615e-06 3.73439e-08
8.27615e-06 4.52225e-06 -2.59242e-07
3.73439e-08 -2.59242e-07 -7.983e-05
0.00119864 2.27982e-05 -1.45157e-08
2.27982e-05 8.24772e-06 -2.55279e-08
-1.45157e-08 -2.55279e-08 -7.0671e-05
0.00148799 1.0905e-05 9.17616e-08
1.0905e-05 6.17417e-05 7.80241e-08
9.17616e-08 7.80241e-08 -3.19434e-05
0.00113249 4.63191e-05 2.25896e-07
4.63191e-05 1.58864e-05 -6.42074e-08
2.25896e-07 -6.42074e-08 -6.11741e-05
0.00140644 4.34638e-05 3.98969e-08
4.34638e-05 6.28649e-05 -8.42572e-08
3.98969e-08 -8.42572e-08 -2.75119e-05
0.00129232 1.18815e-06 6.74744e-06
1.18815e-06 4.27365e-06 -7.97053e-07
6.74744e-06 -7.97053e-07 -8.11498e-05
0.00152258 1.07436e-05 3.09507e-06
1.07436e-05 5.55833e-05 6.31694e-07
3.09507e-06 6.31694e-07 -4.2009e-05
0.00144424 2.62951e-05 3.03616e-06
2.62951e-05 5.98413e-05 5.32467e-07
3.03616e-06 5.32467e-07 -3.11759e-05
0.00159384 6.45166e-06 1.08181e-06
6.45166e-06 8.09132e-05 5.64009e-07
1.08181e-06 5.64009e-07 -1.43618e-05
0.00133332 5.52432e-05 2.7666e-06
5.52432e-05 5.33934e-05 3.84967e-07
2.7666e-06 3.84967e-07 -3.66993e-05
0.00150314 4.5363e-05 9.51672e-07
4.5363e-05 7.02603e-05 -1.43288e-07
9.51672e-07 -1.43288e-07 -2.20473e-05
0.000779969 8.73883e-06 -1.11497e-05
8.73883e-06 -9.10904e-05 1.13303e-06
-1.11497e-05 1.13303e-06 -0.000143744
0.00156774 5.321e-06 -3.85478e-05
5.321e-06 0.000341878 1.76112e-06
-3.85478e-05 1.76112e-06 0.000299534
0.000881307 2.57306e-06 -7.10898e-06
2.57306e-06 -0.000173949 1.55115e-06
-7.10898e-06 1.55115e-06 -0.000255647
0.00191715 -4.29416e-05 -1.00204e-05
-4.29416e-05 0.000390192 1.99543e-06
-1.00204e-05 1.99543e-06 0.000317044
0.00271604 6.41605e-05 -3.47144e-05
6.41605e-05 0.00100626 3.45382e-06
-3.47144e-05 3.45382e-06 0.00101293
0.00159607 4.12268e-05 -1.73857e-05
4.12268e-05 0.000427612 2.92558e-06
-1.73857e-05 2.92558e-06 0.00040235
0.00145416 -3.98149e-05 -4.16115e-06
-3.98149e-05 0.000327746 1.45593e-06
-4.16115e-06 1.45593e-06 0.000264795
0.00138904 -5.70199e-05 -7.60255e-06
-5.70199e-05 0.000180104 2.61416e-06
-7.60255e-06 2.61416e-06 0.000107649
0.00117511 -5.71822e-05 -3.83692e-06
-5.71822e-05 -4.14937e-05 1.42675e-06
-3.83692e-06 1.42675e-06 -0.000132825
0.00156387 -7.74679e-05 -2.32667e-06
-7.74679e-05 0.000247482 8.54766e-07
-2.32667e-06 8.54766e-07 0.00016436
0.000819896 -6.49004e-05 -1.65836e-06
-6.49004e-05 -5.36753e-05 5.99495e-07
-1.65836e-06 5.99495e-07 -0.000138381
0.00120637 -8.0051e-05 -4.22181e-07
-8.0051e-05 6.94369e-05 -2.34115e-08
-4.22181e-07 -2.34115e-08 -2.06178e-05
0.00073503 4.54211e-05 -2.86875e-06
4.54211e-05 -3.34899e-05 3.97397e-06
-2.86875e-06 3.97397e-06 -5.58768e-05
0.000826105 1.31377e-05 -2.24808e-06
1.31377e-05 -8.58352e-06 1.97944e-06
-2.24808e-06 1.97944e-06 -5.83305e-05
0.00110252 4.97584e-06 -2.56994e-07
4.97584e-06 -8.30006e-05 -1.06371e-07
-2.56994e-07 -1.06371e-07 -0.000167703
0.001569 -1.60932e-05 -1.88851e-06
-1.60932e-05 0.000197751 2.33029e-07
-1.88851e-06 2.33029e-07 0.00012333
0.00173741 1.2776e-06 -1.4339e-06
1.2776e-06 0.000191747 3.0067e-07
-1.4339e-06 3.0067e-07 0.000100874
0.00150427 -4.5799e-05 6.95255e-07
-4.5799e-05 0.000100046 -3.79916e-07
6.95255e-07 -3.79916e-07 1.05719e-05
0.000689569 4.89314e-05 -5.24374e-08
4.89314e-05 -4.98012e-05 3.27092e-08
-5.24374e-08 3.27092e-08 -7.63668e-05
0.000849671 -1.80999e-05 5.80284e-08
-1.80999e-05 2.0747e-05 -1.10059e-07
5.80284e-08 -1.10059e-07 -4.19961e-05
0.000808148 -6.25877e-05 6.2264e-07
-6.25877e-05 -2.80893e-05 -4.23542e-07
6.2264e-07 -4.23542e-07 -0.000108605
0.00151658 -7.31729e-05 -5.95392e-07
-7.31729e-05 0.00018593 9.4675e-08
-5.95392e-07 9.4675e-08 9.99475e-05
0.00154081 -6.31859e-05 -4.18921e-07
-6.31859e-05 0.000103629 5.57577e-07
-4.18921e-07 5.57577e-07 1.14244e-05
0.00132874 -9.03782e-05 -8.184e-07
-9.03782e-05 0.000175829 2.58703e-07
-8.184e-07 2.58703e-07 8.15665e-05
0.00128966 -7.71413e-05 6.72894e-08
-7.71413e-05 6.95489e-05 2.22921e-07
6.72894e-08 2.22921e-07 -1.963e-05
0.00128347 -8.51611e-05 3.64312e-07
-8.51611e-05 8.41246e-05 4.57476e-07
3.64312e-07 4.57476e-07 -6.8706e-06
0.000860908 -1.339e-06 -1.85344e-07
-1.339e-06 1.34867e-05 -6.24474e-08
-1.85344e-07 -6.24474e-08 -4.28699e-05
0.000902725 -1.80165e-05 -2.68985e-07
-1.80165e-05 2.6492e-05 -2.1686e-07
-2.68985e-07 -2.1686e-07 -4.46299e-05
0.000846106 2.24422e-05 -8.89601e-08
2.24422e-05 -7.24825e-07 1.66479e-07
-8.89601e-08 1.66479e-07 -4.3662e-05
0.00185717 9.90556e-06 2.11365e-06
9.90556e-06 0.000233822 -7.50338e-07
2.11365e-06 -7.50338e-07 0.000139631
0.00161539 -1.9056e-05 2.82119e-06
-1.9056e-05 0.000143777 -4.07719e-07
2.82119e-06 -4.07719e-07 5.53342e-05
0.00177383 3.53026e-06 9.23675e-07
3.53026e-06 0.000172538 -1.52016e-07
9.23675e-07 -1.52016e-07 7.62034e-05
0.00155654 -4.00408e-05 1.14751e-06
-4.00408e-05 7.9456e-05 -5.11354e-07
1.14751e-06 -5.11354e-07 -1.27428e-05
0.00116068 -7.03076e-05 7.62887e-07
-7.03076e-05 -3.6627e-05 -9.38329e-07
7.62887e-07 -9.38329e-07 -0.000126853
0.00166378 -6.19741e-05 -1.52717e-06
-6.19741e-05 0.000138702 5.8208e-07
-1.52717e-06 5.8208e-07 5.10857e-05
0.000851074 -9.55805e-06 2.6778e-06
-9.55805e-06 1.81213e-05 -1.48262e-06
2.6778e-06 -1.48262e-06 -4.29923e-05
0.00130605 -8.04316e-05 -7.53677e-07
-8.04316e-05 5.44286e-05 5.26991e-09
-7.53677e-07 5.26991e-09 -3.39885e-05
0.000956633 -6.28745e-05 1.06084e-06
-6.28745e-05 5.62374e-05 1.71857e-07
1.06084e-06 1.71857e-07 -1.98391e-05
0.000799825 -7.29561e-05 1.2364e-06
-7.29561e-05 -4.46522e-05 -1.56086e-06
1.2364e-06 -1.56086e-06 -0.000137026
0.00144669 -9.8677e-05 1.28677e-06
-9.8677e-05 0.000214101 4.70343e-07
1.28677e-06 4.70343e-07 0.000113993
0.00171345 -9.91478e-05 -1.55151e-06
-9.91478e-05 0.000286559 2.16478e-06
-1.55151e-06 2.16478e-06 0.000198583
0.000861084 2.45499e-05 1.20165e-06
2.45499e-05 2.21065e-06 -1.74663e-06
1.20165e-06 -1.74663e-06 -3.49504e-05
0.000957676 -3.80223e-05 1.41036e-06
-3.80223e-05 5.34899e-05 -4.76974e-08
1.41036e-06 -4.76974e-08 -1.91508e-05
0.00081461 -1.08517e-05 1.0705e-06
-1.08517e-05 -1.85688e-05 -1.53428e-06
1.0705e-06 -1.53428e-06 -8.63289e-05
0.00106507 -6.81042e-05 1.36098e-07
-6.81042e-05 0.000117194 8.57898e-07
1.36098e-07 8.57898e-07 3.5537e-05
0.00107284 5.42886e-05 -5.53072e-06
5.42886e-05 1.47699e-05 -2.08897e-06
-5.53072e-06 -2.08897e-06 -6.03961e-05
0.000748704 -3.08265e-05 -3.29877e-06
-3.08265e-05 -4.21289e-05 -3.6951e-06
-3.29877e-06 -3.6951e-06 -5.45714e-05
0.000690449 -4.14111e-05 -3.75445e-06
-4.14111e-05 -5.70119e-05 -4.08351e-06
-3.75445e-06 -4.08351e-06 -7.79637e-05
0.000858622 -2.10849e-05 -1.69023e-06
-2.10849e-05 1.12287e-05 -2.49553e-06
-1.69023e-06 -2.49553e-06 -3.76438e-05
0.000908508 5.44785e-05 -3.3611e-06
5.44785e-05 3.53826e-06 -1.44767e-06
-3.3611e-06 -1.44767e-06 -6.58829e-05
0.00117152 7.48075e-05 -2.60388e-06
7.48075e-05 4.98665e-05 -9.00374e-07
-2.60388e-06 -9.00374e-07 -3.81546e-05
0.00084357 8.99549e-06 -2.69154e-06
8.99549e-06 1.82125e-05 -1.95322e-06
-2.69154e-06 -1.95322e-06 -4.35378e-05
0.000993352 6.48619e-05 -1.88943e-06
6.48619e-05 7.62705e-05 -9.73503e-07
-1.88943e-06 -9.73503e-07 -5.63401e-06
0.00114422 7.67317e-05 -1.59082e-06
7.67317e-05 0.000111798 -2.27548e-07
-1.59082e-06 -2.27548e-07 3.19458e-05
0.000861231 7.37765e-05 -1.98463e-06
7.37765e-05 -1.82032e-05 5.36308e-07
-1.98463e-06 5.36308e-07 -0.000106924
0.000785221 -2.80093e-05 1.15487e-07
-2.80093e-05 -3.02392e-05 3.51311e-08
1.15487e-07 3.51311e-08 -3.95156e-05
0.000857159 4.16537e-06 8.93169e-09
4.16537e-06 1.4645e-05 -3.56714e-08
8.93169e-09 -3.56714e-08 -4.10446e-05
0.000844286 -2.17688e-05 -6.7721e-09
-2.17688e-05 5.49037e-07 1.38466e-07
-6.7721e-09 1.38466e-07 -4.18997e-05
0.000954367 1.55034e-05 1.96636e-07
1.55034e-05 5.6712e-05 -1.99393e-07
1.96636e-07 -1.99393e-07 -1.26556e-05
0.00126906 6.59028e-05 6.24049e-07
6.59028e-05 5.46761e-05 3.03782e-07
6.24049e-07 3.03782e-07 -3.49682e-05
0.00110454 7.67199e-05 7.22866e-08
7.67199e-05 6.17535e-05 4.07872e-08
7.22866e-08 4.07872e-08 -2.21748e-05
0.00127528 8.16934e-05 4.29068e-08
8.16934e-05 6.88346e-05 2.1477e-07
4.29068e-08 2.1477e-07 -2.59985e-05
0.00100598 4.87186e-05 1.11851e-07
4.87186e-05 8.71509e-05 1.43977e-07
1.11851e-07 1.43977e-07 9.56059e-06
0.00127385 8.71211e-05 -4.13108e-07
8.71211e-05 0.000160495 -6.52761e-07
-4.13108e-07 -6.52761e-07 7.44268e-05
0.00106841 8.03253e-05 2.0448e-07
8.03253e-05 0.000114989 -5.19266e-07
2.0448e-07 -5.19266e-07 2.07013e-05
0.000931995 7.7291e-05 -1.47334e-06
7.7291e-05 7.65716e-06 2.51713e-08
-1.47334e-06 2.51713e-08 -8.2791e-05
0.000817101 -2.52016e-05 2.56983e-06
-2.52016e-05 -2.01685e-05 3.50804e-06
2.56983e-06 3.50804e-06 -2.68143e-05
0.000843142 -2.16432e-05 1.32644e-06
-2.16432e-05 -3.93643e-06 2.24578e-06
1.32644e-06 2.24578e-06 -4.11849e-05
0.00101414 2.89768e-05 1.55061e-06
2.89768e-05 8.60854e-05 5.7504e-07
1.55061e-06 5.7504e-07 1.31367e-05
0.000931228 4.61883e-06 9.02573e-07
4.61883e-06 4.27017e-05 1.3787e-06
9.02573e-07 1.3787e-06 -2.08038e-05
0.000987088 5.47467e-05 1.07297e-06
5.47467e-05 7.92842e-05 1.6579e-08
1.07297e-06 1.6579e-08 -2.29029e-06
0.00135742 6.8763e-05 1.92458e-06
6.8763e-05 6.20914e-05 5.03826e-07
1.92458e-06 5.03826e-07 -3.28105e-05
0.00117709 8.43877e-05 8.63947e-07
8.43877e-05 7.30807e-05 1.02652e-06
8.63947e-07 1.02652e-06 -1.76429e-05
0.00135026 8.70052e-05 6.36367e-08
8.70052e-05 8.96281e-05 5.93656e-07
6.36367e-08 5.93656e-07 -7.64738e-06
0.00109075 7.71506e-05 2.11902e-06
7.71506e-05 0.00013621 1.7404e-06
2.11902e-06 1.7404e-06 4.44183e-05
0.00117195 8.74131e-05 1.65606e-06
8.74131e-05 9.55537e-05 -1.83497e-09
1.65606e-06 -1.83497e-09 5.58169e-06
0.000642913 6.7961e-05 1.58714e-06
6.7961e-05 -0.000114513 -1.06568e-06
1.58714e-06 -1.06568e-06 -0.000217847
0.000868228 -1.51182e-05 1.0198e-06
-1.51182e-05 1.91715e-06 1.93007e-06
1.0198e-06 1.93007e-06 -2.86876e-05
0.00090887 8.12323e-06 3.07739e-07
8.12323e-06 2.79621e-05 9.76318e-07
3.07739e-07 9.76318e-07 -1.80554e-05
0.000888954 -7.38186e-06 7.10117e-07
-7.38186e-06 7.16361e-06 1.72322e-06
7.10117e-07 1.72322e-06 -1.93082e-05
0.000878796 -9.74152e-06 1.26139e-07
-9.74152e-06 5.07226e-06 3.97937e-09
1.26139e-07 3.97937e-09 -2.33723e-05
0.00137653 -2.35478e-05 2.18091e-06
-2.35478e-05 0.000262277 2.05897e-06
2.18091e-06 2.05897e-06 0.000262899
0.00109376 -2.40373e-05 7.62035e-07
-2.40373e-05 0.000119408 -1.51974e-08
7.62035e-07 -1.51974e-08 0.000116599
0.00107169 -2.22972e-05 1.8756e-05
-2.22972e-05 0.000109988 6.4886e-06
1.8756e-05 6.4886e-06 0.000123266
0.00225602 -3.71291e-05 7.73558e-07
-3.71291e-05 0.000735857 -6.33805e-08
7.73558e-07 -6.33805e-08 0.000753482
0.0023112 -4.21402e-05 -2.36182e-05
-4.21402e-05 0.000770639 -3.7064e-06
-2.36182e-05 -3.7064e-06 0.000786605
0.000771116 2.79458e-05 2.67187e-06
2.79458e-05 -3.93266e-05 -3.32347e-06
2.67187e-06 -3.32347e-06 -4.84195e-05
0.00241165 4.79512e-05 2.56905e-05
4.79512e-05 0.000827905 -3.55551e-06
2.56905e-05 -3.55551e-06 0.000841953
0.000772461 3.20135e-05 -9.29115e-08
3.20135e-05 -3.18806e-05 6.93907e-08
-9.29115e-08 6.93907e-08 -4.45735e-05
0.00256263 5.30271e-05 -5.59229e-07
5.30271e-05 0.000912738 -9.33922e-08
-5.59229e-07 -9.33922e-08 0.00092428
0.000764686 3.96975e-05 -2.92476e-06
3.96975e-05 -2.71573e-05 3.94551e-06
-2.92476e-06 3.94551e-06 -4.48526e-05
0.00268152 5.86017e-05 -3.35818e-05
5.86017e-05 0.000980379 3.55382e-06
-3.35818e-05 3.55382e-06 0.000989487
0.00113815 4.77978e-05 -6.16762e-06
4.77978e-05 1.98376e-05 -1.98593e-06
-6.16762e-06 -1.98593e-06 -5.736e-05
0.00119221 2.55705e-05 -6.44194e-06
2.55705e-05 5.60287e-06 -1.16872e-06
-6.44194e-06 -1.16872e-06 -7.34504e-05
0.00140973 4.16239e-05 -2.92694e-06
4.16239e-05 6.46625e-05 -4.71405e-07
-2.92694e-06 -4.71405e-07 -2.57189e-05
0.001509 1.06079e-05 -3.04546e-06
1.06079e-05 7.23077e-05 -7.21994e-07
-3.04546e-06 -7.21994e-07 -2.137e-05
0.00126896 1.0766e-05 -6.75191e-06
1.0766e-05 1.61812e-06 -1.07322e-06
-6.75191e-06 -1.07322e-06 -8.27236e-05
0.000781907 2.53072e-06 -1.15152e-05
2.53072e-06 -9.71232e-05 1.46554e-07
-1.15152e-05 1.46554e-07 -0.000151192
0.00128896 2.99345e-06 3.71923e-09
2.99345e-06 2.42219e-06 -3.99211e-07
3.71923e-09 -3.99211e-07 -8.30662e-05
0.00153314 1.23579e-05 1.89564e-08
1.23579e-05 6.10634e-05 -1.70264e-07
1.89564e-08 -1.70264e-07 -3.64946e-05
0.00144767 2.29651e-05 9.59159e-08
2.29651e-05 6.18948e-05 5.71438e-08
9.59159e-08 5.71438e-08 -2.90555e-05
0.00158465 5.69414e-06 -4.03953e-08
5.69414e-06 7.39194e-05 1.29829e-07
-4.03953e-08 1.29829e-07 -2.17312e-05
0.00134438 5.56621e-05 -4.49646e-08
5.56621e-05 5.87877e-05 -3.15029e-08
-4.49646e-08 -3.15029e-08 -3.13916e-05
0.00151774 4.50234e-05 -1.03842e-08
4.50234e-05 7.78445e-05 4.58712e-08
-1.03842e-08 4.58712e-08 -1.44996e-05
0.00154663 8.0007e-06 3.41258e-06
8.0007e-06 5.80061e-05 -8.62917e-07
3.41258e-06 -8.62917e-07 -4.08314e-05
0.0015756 8.2394e-06 8.65005e-07
8.2394e-06 5.11142e-05 1.1673e-06
8.65005e-07 1.1673e-06 -4.90112e-05
0.00153837 2.57819e-05 1.15289e-06
2.57819e-05 6.54312e-05 1.19523e-07
1.15289e-06 1.19523e-07 -2.75042e-05
0.00175374 -3.16481e-07 5.73328e-07
-3.16481e-07 0.000140542 1.33177e-07
5.73328e-07 1.33177e-07 4.66524e-05
0.00143995 5.54443e-05 7.36731e-07
5.54443e-05 6.81514e-05 -3.91449e-07
7.36731e-07 -3.91449e-07 -2.5135e-05
0.00156355 3.54727e-05 -1.69606e-06
3.54727e-05 7.3469e-05 1.02443e-07
-1.69606e-06 1.02443e-07 -1.2035e-05
0.000941542 6.40795e-06 -6.55321e-06
6.40795e-06 -0.000164749 1.11289e-06
-6.55321e-06 1.11289e-06 -0.000250287
0.00159324 -2.0746e-05 -9.81459e-06
-2.0746e-05 0.000209333 1.46626e-06
-9.81459e-06 1.46626e-06 0.000134919
0.00164055 7.48739e-06 -4.62867e-06
7.48739e-06 0.000140346 1.23309e-06
-4.62867e-06 1.23309e-06 4.88274e-05
0.00178764 -4.91393e-05 -3.06609e-06
-4.91393e-05 0.000247282 2.16895e-07
-3.06609e-06 2.16895e-07 0.000159034
0.000731226 4.58133e-05 -3.32592e-06
4.58133e-05 -2.82347e-05 3.76844e-06
-3.32592e-06 3.76844e-06 -5.46547e-05
0.000902951 -1.97054e-05 -2.64101e-06
-1.97054e-05 4.72174e-05 1.19627e-06
-2.64101e-06 1.19627e-06 -1.57928e-05
0.000920585 -6.66283e-05 -6.91291e-07
-6.66283e-05 2.97136e-05 1.94013e-07
-6.91291e-07 1.94013e-07 -5.00161e-05
0.00168212 -7.60437e-05 -3.24542e-06
-7.60437e-05 0.000268331 1.30852e-06
-3.24542e-06 1.30852e-06 0.000182209
0.00136668 -5.88594e-05 -1.20792e-06
-5.88594e-05 1.32821e-05 9.42676e-07
-1.20792e-06 9.42676e-07 -7.87861e-05
0.0012942 -7.6887e-05 -4.34123e-07
-7.6887e-05 7.13752e-05 6.73408e-07
-4.34123e-07 6.73408e-07 -1.77095e-05
0.00106581 -8.14452e-05 -1.29279e-06
-8.14452e-05 4.3082e-05 7.29227e-07
-1.29279e-06 7.29227e-07 -5.19437e-05
0.00112647 -8.01331e-05 1.0313e-06
-8.01331e-05 5.81848e-06 -6.3315e-07
1.0313e-06 -6.3315e-07 -8.50983e-05
0.000839726 -1.857e-06 -2.81612e-06
-1.857e-06 1.26444e-06 1.62683e-06
-2.81612e-06 1.62683e-06 -5.47335e-05
0.000879428 -1.49811e-05 -1.38063e-06
-1.49811e-05 1.34409e-05 3.1891e-07
-1.38063e-06 3.1891e-07 -5.73348e-05
0.000831153 2.1364e-05 -1.39415e-06
2.1364e-05 -8.41481e-06 2.10024e-06
-1.39415e-06 2.10024e-06 -5.14318e-05
0.00170752 1.03536e-05 -1.47586e-06
1.03536e-05 0.000154391 3.65949e-07
-1.47586e-06 3.65949e-07 5.88073e-05
0.00161172 -2.42223e-05 -6.46924e-07
-2.42223e-05 0.000140656 7.83146e-08
-6.46924e-07 7.83146e-08 5.23618e-05
0.00164821 6.07032e-06 -6.06624e-07
6.07032e-06 0.000107246 4.38547e-07
-6.06624e-07 4.38547e-07 1.04869e-05
0.00165061 -3.86426e-05 9.37138e-08
-3.86426e-05 0.000127898 -3.78342e-07
9.37138e-08 -3.78342e-07 3.59381e-05
0.000858393 -1.18568e-05 1.54016e-07
-1.18568e-05 1.95795e-05 -1.57975e-07
1.54016e-07 -1.57975e-07 -4.11096e-05
0.00101908 -6.55186e-05 -5.79329e-08
-6.55186e-05 8.63131e-05 1.85426e-07
-5.79329e-08 1.85426e-07 1.00488e-05
0.000883702 -7.52431e-05 4.52565e-07
-7.52431e-05 5.08346e-07 -6.17629e-07
4.52565e-07 -6.17629e-07 -9.09117e-05
0.00137356 -7.44687e-05 5.54467e-08
-7.44687e-05 7.31233e-05 -4.28706e-07
5.54467e-08 -4.28706e-07 -1.70157e-05
0.00156307 -6.01329e-05 3.78624e-07
-6.01329e-05 8.55108e-05 1.08392e-06
3.78624e-07 1.08392e-06 -8.08451e-07
0.00122282 -9.15123e-05 3.23623e-08
-9.15123e-05 0.0001037 1.20788e-07
3.23623e-08 1.20788e-07 2.5335e-06
0.00131849 -7.97686e-05 -1.20251e-08
-7.97686e-05 6.01401e-05 3.7534e-07
-1.20251e-08 3.7534e-07 -2.80518e-05
0.00153155 -9.35876e-05 6.17056e-07
-9.35876e-05 0.000194529 4.39137e-07
6.17056e-07 4.39137e-07 0.000107384
0.000985305 -3.99773e-05 -7.89128e-08
-3.99773e-05 6.80597e-05 -1.66659e-07
-7.89128e-08 -1.66659e-07 -4.76347e-06
0.00102459 -6.85619e-05 -3.12893e-07
-6.85619e-05 9.57641e-05 3.25271e-07
-3.12893e-07 3.25271e-07 1.32982e-05
0.000850599 2.45732e-05 -4.86858e-08
2.45732e-05 -2.59697e-06 8.87551e-08
-4.86858e-08 8.87551e-08 -3.99373e-05
0.000833038 4.34645e-07 4.3693e-08
4.34645e-07 -1.1476e-05 -5.46767e-07
4.3693e-08 -5.46767e-07 -7.72012e-05
0.00165318 9.24613e-06 1.48416e-06
9.24613e-06 9.23606e-05 -8.82281e-07
1.48416e-06 -8.82281e-07 -8.40787e-06
0.00170159 -1.66474e-05 1.24882e-06
-1.66474e-05 0.000142986 2.45048e-07
1.24882e-06 2.45048e-07 5.00254e-05
0.00169653 8.33438e-06 4.45113e-07
8.33438e-06 0.000112239 5.36787e-08
4.45113e-07 5.36787e-08 1.4607e-05
0.00159143 -3.24468e-05 -7.63651e-07
-3.24468e-05 7.03103e-05 -1.16896e-06
-7.63651e-07 -1.16896e-06 -1.9436e-05
0.00131858 -7.36864e-05 -1.37794e-06
-7.36864e-05 1.39084e-05 -6.95438e-08
-1.37794e-06 -6.95438e-08 -7.26425e-05
0.00173686 -5.94478e-05 6.59353e-07
-5.94478e-05 0.000145279 -4.23919e-08
6.59353e-07 -4.23919e-08 6.49942e-05
0.0009615 -5.95828e-05 1.28496e-06
-5.95828e-05 5.88732e-05 3.8062e-07
1.28496e-06 3.8062e-07 -1.5136e-05
0.00131386 -8.05933e-05 -2.36606e-06
-8.05933e-05 4.23007e-05 8.80362e-07
-2.36606e-06 8.80362e-07 -3.79671e-05
0.000776713 -6.84752e-05 1.18281e-07
-6.84752e-05 -3.56024e-05 -4.57758e-07
1.18281e-07 -4.57758e-07 -0.000121396
0.00108967 -8.73598e-05 1.39737e-06
-8.73598e-05 9.1003e-05 -1.34259e-06
1.39737e-06 -1.34259e-06 -1.13658e-05
0.00128947 -9.79366e-05 1.3217e-06
-9.79366e-05 0.000119836 1.99734e-06
1.3217e-06 1.99734e-06 1.41883e-05
0.00181336 -0.000101884 -3.78085e-07
-0.000101884 0.000324025 1.50985e-06
-3.78085e-07 1.50985e-06 0.000236451
0.000862176 1.83442e-05 1.37738e-06
1.83442e-05 1.61442e-07 -1.6456e-06
1.37738e-06 -1.6456e-06 -3.37242e-05
0.000771723 -1.44905e-06 6.83664e-07
-1.44905e-06 -4.4083e-05 -1.57847e-06
6.83664e-07 -1.57847e-06 -0.000104788
0.00100374 -7.28055e-05 4.88952e-07
-7.28055e-05 8.04856e-05 1.0598e-06
4.88952e-07 1.0598e-06 -1.00238e-06
0.0010035 -5.54333e-05 9.60395e-07
-5.54333e-05 8.66282e-05 2.40112e-08
9.60395e-07 2.40112e-08 6.98871e-06
0.00105811 -7.56997e-05 -3.68794e-08
-7.56997e-05 0.000112715 1.7386e-06
-3.68794e-08 1.7386e-06 2.73229e-05
0.000765017 -2.73314e-05 -2.82942e-06
-2.73314e-05 -4.04597e-05 -3.57638e-06
-2.82942e-06 -3.57638e-06 -4.95806e-05
0.00127925 6.66701e-05 -2.26084e-06
6.66701e-05 5.99768e-05 -2.89614e-07
-2.26084e-06 -2.89614e-07 -2.98264e-05
0.000854419 -2.49169e-05 -1.33339e-06
-2.49169e-05 5.64587e-06 -2.32997e-06
-1.33339e-06 -2.32997e-06 -3.67811e-05
0.000884521 -5.86487e-07 -2.33769e-06
-5.86487e-07 2.98397e-05 -2.20702e-06
-2.33769e-06 -2.20702e-06 -2.57999e-05
0.000952138 1.30013e-05 -8.59886e-07
1.30013e-05 5.55639e-05 -1.1661e-06
-8.59886e-07 -1.1661e-06 -1.3708e-05
0.0010664 7.60103e-05 -2.10512e-06
7.60103e-05 4.3741e-05 -9.78062e-07
-2.10512e-06 -9.78062e-07 -4.0161e-05
0.00127095 8.16541e-05 -1.23529e-06
8.16541e-05 6.66819e-05 -3.69265e-07
-1.23529e-06 -3.69265e-07 -2.81093e-05
0.000963999 5.78847e-05 -1.57568e-06
5.78847e-05 6.77234e-05 -5.31558e-07
-1.57568e-06 -5.31558e-07 -1.01642e-05
0.0010949 8.16812e-05 -1.73708e-06
8.16812e-05 0.00012781 -9.2818e-07
-1.73708e-06 -9.2818e-07 3.31239e-05
0.00139991 9.13928e-05 -1.57006e-06
9.13928e-05 0.000225465 -8.87846e-07
-1.57006e-06 -8.87846e-07 0.000139622
0.00102201 8.0389e-05 -3.1369e-06
8.0389e-05 5.6642e-05 1.39571e-06
-3.1369e-06 1.39571e-06 -3.24775e-05
0.000796064 -2.46809e-05 1.1364e-07
-2.46809e-05 -3.08259e-05 2.95663e-08
1.1364e-07 2.95663e-08 -3.7357e-05
0.000850045 -2.2241e-05 -1.22989e-09
-2.2241e-05 -5.97134e-07 7.19099e-08
-1.22989e-09 7.19099e-08 -3.77182e-05
0.000982806 3.27883e-05 1.69743e-07
3.27883e-05 7.08399e-05 -8.08157e-08
1.69743e-07 -8.08157e-08 -2.25588e-06
0.000931963 1.70249e-06 1.53079e-07
1.70249e-06 4.30429e-05 1.89157e-09
1.53079e-07 1.89157e-09 -2.02344e-05
0.00095028 5.00638e-05 2.2965e-07
5.00638e-05 5.98221e-05 -2.50747e-07
2.2965e-07 -2.50747e-07 -2.16565e-05
0.00136431 6.93855e-05 7.60739e-07
6.93855e-05 6.53949e-05 5.85976e-07
7.60739e-07 5.85976e-07 -2.96587e-05
0.00117654 8.48664e-05 1.02967e-07
8.48664e-05 7.32859e-05 6.12747e-08
1.02967e-07 6.12747e-08 -1.74904e-05
0.00131687 8.7146e-05 8.44626e-07
8.7146e-05 7.25498e-05 4.50001e-07
8.44626e-07 4.50001e-07 -2.51019e-05
0.00104208 7.57294e-05 6.15647e-07
7.57294e-05 0.000112966 6.56531e-07
6.15647e-07 6.56531e-07 2.12579e-05
0.0012626 8.99449e-05 2.294e-07
8.99449e-05 0.000142383 -5.7455e-07
2.294e-07 -5.7455e-07 5.25873e-05
0.000917781 7.8314e-05 -1.08932e-06
7.8314e-05 2.281e-05 -6.00796e-07
-1.08932e-06 -6.00796e-07 -8.01157e-05
0.000856514 -1.89562e-05 1.10778e-06
-1.89562e-05 -6.66949e-07 2.08752e-06
1.10778e-06 2.08752e-06 -3.41016e-05
0.000916634 -6.25613e-06 5.37721e-07
-6.25613e-06 3.12223e-05 1.40648e-06
5.37721e-07 1.40648e-06 -2.51763e-05
0.00105045 7.18781e-05 7.62185e-07
7.18781e-05 0.000110096 -7.48083e-08
7.62185e-07 -7.48083e-08 2.40008e-05
0.000989977 2.93701e-05 6.92232e-07
2.93701e-05 7.90041e-05 5.95648e-07
6.92232e-07 5.95648e-07 3.08328e-06
0.0010433 5.43465e-05 3.48106e-07
5.43465e-05 0.000112647 -7.20735e-07
3.48106e-07 -7.20735e-07 2.46269e-05
0.00138756 6.8874e-05 -1.46742e-06
6.8874e-05 5.50406e-05 -7.97058e-07
-1.46742e-06 -7.97058e-07 -3.99658e-05
0.00121155 9.12728e-05 1.31244e-06
9.12728e-05 7.32661e-05 8.19333e-07
1.31244e-06 8.19333e-07 -2.06172e-05
0.00112637 8.99224e-05 -1.31975e-06
8.99224e-05 -2.46062e-05 -9.31478e-07
-1.31975e-06 -9.31478e-07 -0.000117459
0.000995113 7.85821e-05 9.65918e-07
7.85821e-05 9.33053e-05 2.0311e-06
9.65918e-07 2.0311e-06 -1.03397e-05
0.0012063 9.41247e-05 3.23302e-06
9.41247e-05 0.000128011 -3.82792e-07
3.23302e-06 -3.82792e-07 2.19391e-05
0.00086954 -1.38418e-05 8.30039e-08
-1.38418e-05 2.91315e-06 8.94556e-09
8.30039e-08 8.94556e-09 -2.76954e-05
0.000754923 -1.09645e-05 4.43986e-07
-1.09645e-05 -5.38467e-05 1.66862e-06
4.43986e-07 1.66862e-06 -0.000102736
0.000846152 -2.97897e-06 -5.07334e-07
-2.97897e-06 -5.48069e-06 1.13847e-08
-5.07334e-07 1.13847e-08 -5.1905e-05
0.00113255 1.25267e-05 6.49584e-07
1.25267e-05 0.000148658 2.84013e-07
6.49584e-07 2.84013e-07 9.11162e-05
0.000899235 4.64335e-06 1.1284e-06
4.64335e-06 2.3258e-05 9.66958e-07
1.1284e-06 9.66958e-07 -2.21848e-05
0.000900641 -1.87147e-06 6.20806e-07
-1.87147e-06 1.07862e-05 1.70297e-06
6.20806e-07 1.70297e-06 -1.43557e-05
0.000889192 -7.94607e-06 9.45868e-08
-7.94607e-06 7.68199e-06 1.89106e-08
9.45868e-08 1.89106e-08 -1.88818e-05
0.00136317 -1.93362e-05 1.63388e-06
-1.93362e-05 0.000250187 1.98801e-06
1.63388e-06 1.98801e-06 0.000252837
0.000882619 -8.41347e-06 -9.67339e-07
-8.41347e-06 7.63393e-06 -1.82395e-06
-9.67339e-07 -1.82395e-06 -2.09244e-05
0.00138961 -2.21645e-05 -3.26058e-06
-2.21645e-05 0.000268692 -1.20192e-06
-3.26058e-06 -1.20192e-06 0.000269592
0.00106998 -1.9236e-05 1.58908e-05
-1.9236e-05 0.00010249 6.31978e-06
1.58908e-05 6.31978e-06 0.000117672
0.00138037 -2.45288e-05 -8.35511e-06
-2.45288e-05 0.000269451 -3.24858e-06
-8.35511e-06 -3.24858e-06 0.00026842
0.00161978 -2.74945e-05 1.40925e-05
-2.74945e-05 0.000396977 2.1894e-06
1.40925e-05 2.1894e-06 0.000413279
0.00225335 -3.7251e-05 -2.09268e-05
-3.7251e-05 0.000733555 -3.75733e-06
-2.09268e-05 -3.75733e-06 0.000751383
0.000778789 2.53974e-05 2.26841e-06
2.53974e-05 -4.07671e-05 -3.24671e-06
2.26841e-06 -3.24671e-06 -4.74888e-05
0.00078716 2.83804e-05 -1.40292e-07
2.83804e-05 -3.11246e-05 3.5531e-08
-1.40292e-07 3.5531e-08 -4.03698e-05
0.00233442 4.30706e-05 2.2877e-05
4.30706e-05 0.000780976 -3.61438e-06
2.2877e-05 -3.61438e-06 0.000796995
0.00243629 4.78113e-05 -5.84901e-07
4.78113e-05 0.000841268 -7.37077e-08
-5.84901e-07 -7.37077e-08 0.000855032
0.000789835 3.34391e-05 -2.96636e-06
3.34391e-05 -2.28012e-05 3.69932e-06
-2.96636e-06 3.69932e-06 -3.58204e-05
0.00258228 5.28066e-05 -3.13906e-05
5.28066e-05 0.000923355 3.6523e-06
-3.13906e-05 3.6523e-06 0.000934638
0.00135652 5.62315e-05 -2.94096e-06
5.62315e-05 6.47415e-05 -4.70046e-07
-2.94096e-06 -4.70046e-07 -2.5537e-05
0.00145535 2.3348e-05 -2.99567e-06
2.3348e-05 6.5958e-05 -3.98711e-07
-2.99567e-06 -3.98711e-07 -2.50353e-05
0.0015319 4.58359e-05 -8.59178e-07
4.58359e-05 8.51827e-05 2.3133e-07
-8.59178e-07 2.3133e-07 -7.22859e-06
0.00157062 4.85862e-06 -1.02071e-06
4.85862e-06 6.45974e-05 -3.68634e-07
-1.02071e-06 -3.68634e-07 -3.14415e-05
0.00154801 1.5761e-05 -3.02384e-06
1.5761e-05 6.86839e-05 -9.45505e-07
-3.02384e-06 -9.45505e-07 -2.88731e-05
0.00129753 7.7253e-06 -6.73069e-06
7.7253e-06 6.38084e-06 -6.11143e-08
-6.73069e-06 -6.11143e-08 -7.91036e-05
0.00155824 1.24406e-05 6.40168e-08
1.24406e-05 6.38222e-05 -5.69511e-07
6.40168e-08 -5.69511e-07 -3.50833e-05
0.00157548 2.03253e-07 1.64137e-07
2.03253e-07 4.90765e-05 3.8968e-07
1.64137e-07 3.8968e-07 -5.19061e-05
0.00156208 2.49935e-05 3.6935e-08
2.49935e-05 7.75477e-05 3.37694e-08
3.6935e-08 3.37694e-08 -1.52878e-05
0.00171673 -1.0624e-06 -5.86103e-09
-1.0624e-06 0.000120369 -2.74122e-07
-5.86103e-09 -2.74122e-07 2.67346e-05
0.00144764 5.65767e-05 -6.27077e-08
5.65767e-05 7.17932e-05 -4.38918e-09
-6.27077e-08 -4.38918e-09 -2.17311e-05
0.00156901 3.56248e-05 -1.29331e-07
3.56248e-05 7.39023e-05 7.41443e-07
-1.29331e-07 7.41443e-07 -1.14611e-05
0.00161299 2.12408e-06 1.82831e-06
2.12408e-06 5.75847e-05 -5.41264e-07
1.82831e-06 -5.41264e-07 -4.59027e-05
0.00170944 7.8505e-06 9.15822e-08
7.8505e-06 0.000102244 4.93275e-07
9.15822e-08 4.93275e-07 1.32967e-06
0.00151409 1.63517e-05 -2.12534e-07
1.63517e-05 2.43065e-05 1.05147e-06
-2.12534e-07 1.05147e-06 -6.46368e-05
0.00179804 -6.33013e-06 2.23973e-07
-6.33013e-06 0.000152173 -1.83606e-07
2.23973e-07 -1.83606e-07 5.94141e-05
0.00140764 5.06195e-05 -1.24559e-06
5.06195e-05 2.23863e-05 -1.31432e-06
-1.24559e-06 -1.31432e-06 -6.69391e-05
0.00184043 2.90132e-05 -2.83798e-07
2.90132e-05 0.000186137 -3.92673e-07
-2.83798e-07 -3.92673e-07 0.000105388
0.00154862 1.00719e-05 -4.47009e-06
1.00719e-05 7.02711e-05 1.44866e-06
-4.47009e-06 1.44866e-06 -2.66931e-05
0.00160144 -2.60872e-05 -4.14616e-06
-2.60872e-05 0.000134427 4.76095e-07
-4.14616e-06 4.76095e-07 4.62712e-05
0.00153186 6.46337e-06 -1.95397e-06
6.46337e-06 4.65209e-05 7.64923e-07
-1.95397e-06 7.64923e-07 -5.06686e-05
0.00173634 -3.77901e-05 -1.50013e-06
-3.77901e-05 0.000172148 -1.75529e-07
-1.50013e-06 -1.75529e-07 8.04266e-05
0.000872763 -1.41142e-05 -2.74694e-06
-1.41142e-05 2.4671e-05 1.24042e-06
-2.74694e-06 1.24042e-06 -3.56266e-05
0.00107879 -6.80826e-05 -1.36251e-06
-6.80826e-05 0.00011519 2.54671e-07
-1.36251e-06 2.54671e-07 3.87147e-05
0.000958579 -7.7077e-05 -2.84201e-07
-7.7077e-05 4.13257e-05 2.54253e-07
-2.84201e-07 2.54253e-07 -4.91275e-05
0.00159078 -7.86665e-05 -7.48249e-07
-7.86665e-05 0.000185048 3.19362e-07
-7.48249e-07 3.19362e-07 9.49955e-05
0.00146094 -5.82997e-05 7.59659e-07
-5.82997e-05 3.16136e-05 7.5491e-07
7.59659e-07 7.5491e-07 -5.34018e-05
0.00133099 -7.9166e-05 1.25165e-06
-7.9166e-05 6.59374e-05 6.2521e-07
1.25165e-06 6.2521e-07 -2.20412e-05
0.00100469 -8.45325e-05 -9.26477e-07
-8.45325e-05 -3.88927e-06 1.28574e-07
-9.26477e-07 1.28574e-07 -0.000106119
0.00135124 -8.80425e-05 2.16607e-06
-8.80425e-05 0.000103074 -2.55328e-06
2.16607e-06 -2.55328e-06 1.67887e-05
0.00100525 -3.6069e-05 -1.42084e-06
-3.6069e-05 7.77935e-05 -1.79339e-07
-1.42084e-06 -1.79339e-07 5.32843e-06
0.000991239 -6.32988e-05 -1.05623e-06
-6.32988e-05 7.65175e-05 -5.10768e-07
-1.05623e-06 -5.10768e-07 -5.94481e-06
0.000838971 2.45089e-05 -1.15422e-06
2.45089e-05 -7.92985e-06 1.90995e-06
-1.15422e-06 1.90995e-06 -4.5469e-05
0.000858834 5.79649e-06 -3.74005e-07
5.79649e-06 6.94639e-07 4.79087e-07
-3.74005e-07 4.79087e-07 -6.38978e-05
0.00165537 9.78144e-06 -1.27836e-07
9.78144e-06 9.3406e-05 1.11281e-07
-1.27836e-07 1.11281e-07 -7.39792e-06
0.00172586 -1.41955e-05 -4.53796e-07
-1.41955e-05 0.000155095 1.01131e-07
-4.53796e-07 1.01131e-07 6.24438e-05
0.00165425 7.96425e-06 -7.90814e-07
7.96425e-06 9.24107e-05 5.9901e-07
-7.90814e-07 5.9901e-07 -4.58051e-06
0.00160623 -3.31216e-05 -1.45425e-07
-3.31216e-05 7.74718e-05 -4.22239e-07
-1.45425e-07 -4.22239e-07 -1.22163e-05
0.00100664 -5.33913e-05 -6.39361e-08
-5.33913e-05 8.00236e-05 1.62058e-08
-6.39361e-08 1.62058e-08 6.44558e-06
0.000838294 -6.99177e-05 4.03459e-07
-6.99177e-05 -3.936e-06 -2.83235e-07
4.03459e-07 -2.83235e-07 -8.87225e-05
0.00109394 -8.71688e-05 7.83751e-08
-8.71688e-05 9.45171e-05 -2.03687e-07
7.83751e-08 -2.03687e-07 -8.07818e-06
0.00144308 -7.56898e-05 -7.36223e-07
-7.56898e-05 7.81997e-05 -3.37887e-07
-7.36223e-07 -3.37887e-07 -9.26126e-06
0.00157837 -5.82688e-05 1.37057e-07
-5.82688e-05 7.29351e-05 9.51541e-07
1.37057e-07 9.51541e-07 -4.33351e-06
0.00128967 -9.71724e-05 -1.50076e-07
-9.71724e-05 0.000121346 5.96575e-07
-1.50076e-07 5.96575e-07 1.48776e-05
0.00133598 -8.02499e-05 -7.62157e-09
-8.02499e-05 5.44814e-05 7.07193e-07
-7.62157e-09 7.07193e-07 -2.56471e-05
0.0015037 -9.31218e-05 9.09194e-07
-9.31218e-05 0.000166087 -1.69238e-06
9.09194e-07 -1.69238e-06 8.11446e-05
0.00104002 -7.40936e-05 7.47825e-08
-7.40936e-05 9.82789e-05 -3.06634e-08
7.47825e-08 -3.06634e-08 1.6821e-05
0.00104904 -7.52178e-05 3.3961e-08
-7.52178e-05 0.000106983 1.697e-07
3.3961e-08 1.697e-07 2.16378e-05
0.00100439 -4.58585e-05 -3.28092e-07
-4.58585e-05 8.6224e-05 5.83433e-08
-3.28092e-07 5.83433e-08 7.16153e-06
0.000735439 2.346e-05 -2.32263e-07
2.346e-05 -6.52192e-05 1.76111e-08
-2.32263e-07 1.76111e-08 -0.000100215
0.000811647 1.07177e-05 1.09266e-07
1.07177e-05 -2.59798e-05 -4.0555e-07
1.09266e-07 -4.0555e-07 -8.48896e-05
0.00169422 1.45358e-05 6.40301e-07
1.45358e-05 9.21029e-05 -7.23971e-07
6.40301e-07 -7.23971e-07 -1.02952e-05
0.00164613 1.58961e-06 1.2201e-06
1.58961e-06 7.9399e-05 -1.00013e-07
1.2201e-06 -1.00013e-07 -1.60672e-05
0.00163893 -3.73103e-05 9.31252e-07
-3.73103e-05 6.90646e-05 -1.98397e-06
9.31252e-07 -1.98397e-06 -1.64304e-05
0.00135776 -6.72712e-05 -4.4689e-08
-6.72712e-05 -4.37217e-06 -1.16964e-06
-4.4689e-08 -1.16964e-06 -8.08959e-05
0.000983536 -7.33059e-05 9.39417e-08
-7.33059e-05 7.13513e-05 1.02985e-06
9.39417e-08 1.02985e-06 -9.95276e-06
0.00178308 -9.26058e-05 -9.86145e-07
-9.26058e-05 0.000252417 1.3982e-06
-9.86145e-07 1.3982e-06 0.000179347
0.000529379 -6.12848e-05 -1.00234e-07
-6.12848e-05 -0.000157067 -1.53038e-06
-1.00234e-07 -1.53038e-06 -0.000249437
0.00117027 -9.54125e-05 2.62884e-06
-9.54125e-05 0.000115345 -1.34519e-06
2.62884e-06 -1.34519e-06 -2.84455e-07
0.00149709 -0.000106017 1.67314e-06
-0.000106017 0.000198764 2.26977e-06
1.67314e-06 2.26977e-06 8.86895e-05
0.000649578 1.72358e-05 1.08068e-06
1.72358e-05 -0.000112321 -2.20419e-06
1.08068e-06 -2.20419e-06 -0.000145785
0.00100878 -5.48077e-07 1.1638e-06
-5.48077e-07 7.76538e-05 -8.69499e-07
1.1638e-06 -8.69499e-07 2.36372e-05
0.00101447 -2.71994e-05 3.11025e-07
-2.71994e-05 8.67603e-05 -3.83963e-07
3.11025e-07 -3.83963e-07 1.63137e-05
0.00102502 -7.45484e-05 -1.71807e-07
-7.45484e-05 8.98673e-05 1.67471e-06
-1.71807e-07 1.67471e-06 7.04055e-06
0.00110911 -6.20223e-05 5.71988e-07
-6.20223e-05 0.000142822 1.31875e-06
5.71988e-07 1.31875e-06 5.54775e-05
0.000963936 -7.24352e-05 -3.47316e-08
-7.24352e-05 5.78775e-05 1.51564e-06
-3.47316e-08 1.51564e-06 -2.84399e-05
0.000775838 -2.42065e-05 -2.35509e-06
-2.42065e-05 -4.10626e-05 -3.50908e-06
-2.35509e-06 -3.50908e-06 -4.74824e-05
0.00085925 -2.25862e-05 -1.35038e-06
-2.25862e-05 4.00677e-06 -2.10138e-06
-1.35038e-06 -2.10138e-06 -3.30444e-05
0.00137325 7.01162e-05 -6.9283e-07
7.01162e-05 6.96639e-05 6.0617e-07
-6.9283e-07 6.0617e-07 -2.55395e-05
0.000939192 -3.25749e-06 -5.6068e-07
-3.25749e-06 4.65318e-05 -1.45457e-06
-5.6068e-07 -1.45457e-06 -1.6419e-05
0.000939487 2.89797e-05 -1.30203e-06
2.89797e-05 4.83841e-05 -5.31152e-07
-1.30203e-06 -5.31152e-07 -2.42015e-05
0.000916146 4.74342e-05 -5.15471e-07
4.74342e-05 4.19535e-05 -2.71492e-07
-5.15471e-07 -2.71492e-07 -3.95773e-05
0.00117397 8.52511e-05 -1.09225e-06
8.52511e-05 7.25179e-05 -1.01958e-06
-1.09225e-06 -1.01958e-06 -1.83076e-05
0.00127952 8.71113e-05 7.60458e-08
8.71113e-05 5.3507e-05 1.64324e-08
7.60458e-08 1.64324e-08 -4.45068e-05
0.000985458 7.39562e-05 -5.75417e-07
7.39562e-05 8.54129e-05 -2.80661e-07
-5.75417e-07 -2.80661e-07 -6.14626e-06
0.0011806 8.81495e-05 -1.87392e-06
8.81495e-05 0.00015405 2.17441e-07
-1.87392e-06 2.17441e-07 5.157e-05
0.00134937 9.23705e-05 -2.38914e-06
9.23705e-05 0.000187404 -7.15463e-07
-2.38914e-06 -7.15463e-07 9.77738e-05
0.000860499 -1.84975e-05 6.98102e-08
-1.84975e-05 1.48554e-06 3.2046e-08
6.98102e-08 3.2046e-08 -3.19084e-05
0.000919843 -7.63155e-06 -8.79835e-09
-7.63155e-06 3.2801e-05 9.13079e-08
-8.79835e-09 9.13079e-08 -2.3556e-05
0.00103345 7.14267e-05 -2.9294e-07
7.14267e-05 0.000102778 -2.11367e-07
-2.9294e-07 -2.11367e-07 1.70624e-05
0.000980508 2.90609e-05 1.14493e-07
2.90609e-05 7.36734e-05 -4.25874e-08
1.14493e-07 -4.25874e-08 -2.06344e-06
0.000971039 5.64e-05 -1.07114e-07
5.64e-05 7.70138e-05 -3.23918e-07
-1.07114e-07 -3.23918e-07 -1.21235e-05
0.00140017 7.10523e-05 -5.74577e-07
7.10523e-05 6.27301e-05 4.70646e-08
-5.74577e-07 4.70646e-08 -3.28309e-05
0.00122951 9.16141e-05 7.18511e-07
9.16141e-05 8.11742e-05 -1.03128e-08
7.18511e-07 -1.03128e-08 -1.28575e-05
0.0012284 9.15145e-05 3.55975e-07
9.15145e-05 2.26436e-05 5.62395e-07
3.55975e-07 5.62395e-07 -6.89164e-05
0.000854611 7.34326e-05 4.7801e-07
7.34326e-05 2.2189e-05 1.05363e-06
4.7801e-07 1.05363e-06 -8.17924e-05
0.00120951 9.42745e-05 -1.96864e-07
9.42745e-05 0.00013068 -4.97983e-07
-1.96864e-07 -4.97983e-07 2.25923e-05
0.00090689 -6.75781e-06 5.58069e-07
-6.75781e-06 2.54233e-05 1.30286e-06
5.58069e-07 1.30286e-06 -2.58148e-05
0.000875631 1.40099e-05 5.32513e-07
1.40099e-05 1.43261e-05 1.34975e-06
5.32513e-07 1.34975e-06 -5.60953e-05
0.00112113 8.11411e-05 2.14979e-07
8.11411e-05 0.000155596 -2.53597e-07
2.14979e-07 -2.53597e-07 5.95868e-05
0.000914206 4.44212e-05 3.76265e-07
4.44212e-05 4.56277e-05 1.34027e-07
3.76265e-07 1.34027e-07 -4.15212e-05
0.00100425 6.24789e-05 1.15909e-07
6.24789e-05 9.01466e-05 -8.19578e-07
1.15909e-07 -8.19578e-07 -3.82568e-06
0.00147139 7.02664e-05 -1.70875e-06
7.02664e-05 5.71797e-05 -5.79037e-07
-1.70875e-06 -5.79037e-07 -1.91154e-05
0.00151564 0.000108853 1.43706e-06
0.000108853 0.00022155 -8.16646e-07
1.43706e-06 -8.16646e-07 0.000117532
0.000549281 7.76078e-05 9.43515e-07
7.76078e-05 -0.000344886 -1.48628e-06
9.43515e-07 -1.48628e-06 -0.000431783
0.00150878 0.000100364 3.32639e-06
0.000100364 0.000340633 3.01384e-06
3.32639e-06 3.01384e-06 0.00022863
0.000223979 6.38623e-05 8.11581e-07
6.38623e-05 -0.000367703 -1.31379e-07
8.11581e-07 -1.31379e-07 -0.000487614
0.0008705 -1.16752e-05 -1.20061e-06
-1.16752e-05 3.70633e-06 -1.85633e-06
-1.20061e-06 -1.85633e-06 -2.6889e-05
0.000833135 -6.38821e-06 2.03828e-07
-6.38821e-06 -1.30984e-05 5.84058e-07
2.03828e-07 5.84058e-07 -6.16581e-05
0.000843462 -2.65506e-06 4.21541e-07
-2.65506e-06 -5.17933e-06 1.21699e-06
4.21541e-07 1.21699e-06 -6.62532e-05
0.000789683 -1.46001e-05 -5.11607e-07
-1.46001e-05 -3.57672e-05 -9.34633e-07
-5.11607e-07 -9.34633e-07 -8.25503e-05
0.000915718 4.46557e-06 1.98299e-07
4.46557e-06 3.0972e-05 -3.24618e-08
1.98299e-07 -3.24618e-08 -1.38918e-05
0.000982961 -7.38225e-06 1.1451e-07
-7.38225e-06 6.88272e-05 -4.5744e-07
1.1451e-07 -4.5744e-07 1.14269e-05
0.00108715 9.0772e-06 3.34246e-07
9.0772e-06 0.000126906 2.39408e-07
3.34246e-07 2.39408e-07 6.07087e-05
0.00084047 -2.21944e-05 2.4611e-08
-2.21944e-05 -3.25469e-06 9.23761e-07
2.4611e-08 9.23761e-07 -6.08943e-05
0.000919081 -2.02795e-05 -1.13978e-08
-2.02795e-05 3.05483e-05 8.78784e-07
-1.13978e-08 8.78784e-07 -1.28335e-05
0.000899247 3.50112e-06 6.79221e-07
3.50112e-06 8.88969e-06 1.64019e-06
6.79221e-07 1.64019e-06 -1.57813e-05
0.000894411 -6.43542e-06 -1.32556e-07
-6.43542e-06 7.73959e-06 3.0056e-08
-1.32556e-07 3.0056e-08 -1.74367e-05
0.00135345 -1.4603e-05 1.26872e-06
-1.4603e-05 0.000240877 1.91206e-06
1.26872e-06 1.91206e-06 0.000244922
0.000889436 -8.25582e-06 -5.20627e-07
-8.25582e-06 8.20601e-06 -1.77244e-06
-5.20627e-07 -1.77244e-06 -1.84369e-05
0.00137678 -1.8165e-05 -2.66631e-06
-1.8165e-05 0.000257097 -1.16763e-06
-2.66631e-06 -1.16763e-06 0.000259917
0.00105907 -1.60426e-05 1.27607e-05
-1.60426e-05 9.16916e-05 6.15526e-06
1.27607e-05 6.15526e-06 0.000108487
0.00140185 -2.11542e-05 -7.2856e-06
-2.11542e-05 0.000274656 -4.42378e-06
-7.2856e-06 -4.42378e-06 0.000275786
0.0010133 -2.03921e-05 5.22209e-06
-2.03921e-05 7.31545e-05 2.39886e-06
5.22209e-06 2.39886e-06 8.82308e-05
0.00215592 -3.59337e-05 -5.97219e-06
-3.59337e-05 0.00067773 -1.60133e-06
-5.97219e-06 -1.60133e-06 0.000696755
0.000788644 2.28282e-05 1.80397e-06
2.28282e-05 -4.08013e-05 -3.22739e-06
1.80397e-06 -3.22739e-06 -4.54695e-05
0.000795593 2.56153e-05 -1.09946e-07
2.56153e-05 -3.23165e-05 2.56584e-08
-1.09946e-07 2.56584e-08 -3.91139e-05
0.00228118 3.81444e-05 2.02361e-05
3.81444e-05 0.000746901 -3.68173e-06
2.02361e-05 -3.68173e-06 0.000764617
0.000804177 2.88985e-05 -2.92545e-06
2.88985e-05 -2.24167e-05 3.39319e-06
-2.92545e-06 3.39319e-06 -3.18185e-05
0.00233956 4.28075e-05 -7.67263e-07
4.28075e-05 0.000784466 -6.78248e-08
-7.67263e-07 -6.78248e-08 0.000800292
0.00245183 4.73923e-05 -2.82396e-05
4.73923e-05 0.000849909 3.6987e-06
-2.82396e-05 3.6987e-06 0.000863449
0.00145518 5.76378e-05 -1.3891e-06
5.76378e-05 7.53618e-05 2.53638e-07
-1.3891e-06 2.53638e-07 -1.83986e-05
0.00159063 2.32819e-05 -7.23804e-07
2.32819e-05 9.20982e-05 1.88525e-08
-7.23804e-07 1.88525e-08 -6.09214e-07
0.00157743 3.58081e-05 1.72687e-06
3.58081e-05 7.58225e-05 8.39311e-07
1.72687e-06 8.39311e-07 -9.40365e-06
0.00167986 -1.90652e-06 -4.26972e-07
-1.90652e-06 0.00010035 -6.33104e-07
-4.26972e-07 -6.33104e-07 6.95764e-06
0.00158547 -4.49621e-06 -8.83849e-07
-4.49621e-06 5.1949e-05 -5.66156e-07
-8.83849e-07 -5.66156e-07 -4.98934e-05
0.00156802 1.5965e-05 -3.10939e-06
1.5965e-05 6.87383e-05 -2.38483e-07
-3.10939e-06 -2.38483e-07 -3.0208e-05
0.00164535 5.85776e-06 2.54302e-07
5.85776e-06 7.30891e-05 -3.76285e-07
2.54302e-07 -3.76285e-07 -3.07463e-05
0.00171038 3.72403e-06 8.66938e-08
3.72403e-06 0.000104825 -4.05566e-07
8.66938e-08 -4.05566e-07 4.12534e-06
0.00154646 1.47011e-05 -3.6462e-08
1.47011e-05 3.90377e-05 3.0387e-07
-3.6462e-08 3.0387e-07 -5.04132e-05
0.00171201 -6.36455e-06 1.61203e-08
-6.36455e-06 0.000107338 -5.95143e-07
1.61203e-08 -5.95143e-07 1.49642e-05
0.00146849 5.22496e-05 -3.74731e-07
5.22496e-05 5.38922e-05 -7.56615e-08
-3.74731e-07 -7.56615e-08 -3.56261e-05
0.00166427 2.85438e-05 1.4045e-06
2.85438e-05 9.94735e-05 -5.32019e-07
1.4045e-06 -5.32019e-07 2.06788e-05
0.00171784 1.35362e-05 3.2726e-07
1.35362e-05 9.24539e-05 8.03756e-09
3.2726e-07 8.03756e-09 -1.32885e-05
0.00171374 -2.97713e-06 -1.07636e-07
-2.97713e-06 0.000100697 4.22021e-07
-1.07636e-07 4.22021e-07 3.08826e-06
0.00165667 7.41413e-06 3.04935e-07
7.41413e-06 7.43975e-05 6.23163e-07
3.04935e-07 6.23163e-07 -1.18749e-05
0.00172372 4.66732e-05 -1.06539e-06
4.66732e-05 0.000140557 -9.24886e-07
-1.06539e-06 -9.24886e-07 6.20238e-05
0.00165376 1.02716e-05 -1.46223e-06
1.02716e-05 9.25966e-05 1.12929e-06
-1.46223e-06 1.12929e-06 -8.24779e-06
0.00175848 -1.34916e-05 -2.49907e-06
-1.34916e-05 0.000171228 1.85049e-07
-2.49907e-06 1.85049e-07 7.88827e-05
0.00159008 7.49061e-06 -1.84989e-06
7.49061e-06 6.18054e-05 9.81773e-07
-1.84989e-06 9.81773e-07 -3.45697e-05
0.00163295 -3.32842e-05 -3.64739e-07
-3.32842e-05 9.06541e-05 1.21346e-07
-3.64739e-07 1.21346e-07 1.01574e-06
0.00104901 -5.26309e-05 -1.32316e-06
-5.26309e-05 0.000100578 -3.02872e-07
-1.32316e-06 -3.02872e-07 2.69616e-05
0.000919051 -7.22051e-05 3.46663e-07
-7.22051e-05 3.72084e-05 -2.70629e-07
3.46663e-07 -2.70629e-07 -4.66149e-05
0.00109818 -8.6963e-05 -7.86422e-07
-8.6963e-05 9.81201e-05 1.41781e-06
-7.86422e-07 1.41781e-06 -4.7105e-06
0.00156757 -7.76541e-05 1.96842e-07
-7.76541e-05 0.000142432 4.76114e-08
1.96842e-07 4.76114e-08 5.40696e-05
0.00143383 -5.73538e-05 4.39809e-07
-5.73538e-05 7.47996e-06 2.0967e-06
4.39809e-07 2.0967e-06 -6.67947e-05
0.00134563 -7.96809e-05 2.30592e-06
-7.96809e-05 6.05994e-05 5.50114e-07
2.30592e-06 5.50114e-07 -1.93946e-05
0.00127627 -9.59933e-05 -1.27558e-06
-9.59933e-05 0.000115985 -6.30948e-07
-1.27558e-06 -6.30948e-07 8.72343e-06
0.00121778 -8.49702e-05 -3.99773e-07
-8.49702e-05 2.07277e-05 -5.94678e-06
-3.99773e-07 -5.94678e-06 -6.17226e-05
0.00107642 -7.54762e-05 -4.60975e-07
-7.54762e-05 0.000116247 -1.02244e-06
-4.60975e-07 -1.02244e-06 3.47934e-05
0.00104362 -7.4875e-05 -6.62064e-07
-7.4875e-05 0.000103006 -1.64769e-06
-6.62064e-07 -1.64769e-06 1.77096e-05
0.00100194 -3.6887e-05 -4.06248e-07
-3.6887e-05 8.45701e-05 3.16512e-07
-4.06248e-07 3.16512e-07 5.92344e-06
0.000612178 2.46445e-05 -9.11774e-07
2.46445e-05 -0.000129082 1.74898e-06
-9.11774e-07 1.74898e-06 -0.000165028
0.000854605 1.94592e-05 -1.37459e-07
1.94592e-05 -5.61857e-06 5.65969e-07
-1.37459e-07 5.65969e-07 -6.32409e-05
0.00165516 1.35595e-05 -3.6699e-07
1.35595e-05 7.48009e-05 2.66953e-07
-3.6699e-07 2.66953e-07 -2.6726e-05
0.00169467 5.34247e-07 -1.36537e-07
5.34247e-07 0.00010473 -1.18365e-07
-1.36537e-07 -1.18365e-07 9.15228e-06
0.00171147 -3.82685e-05 -1.28038e-06
-3.82685e-05 0.000109372 1.04426e-07
-1.28038e-06 1.04426e-07 2.46781e-05
0.00104733 -7.52987e-05 2.3663e-08
-7.52987e-05 0.000102029 1.47129e-07
2.3663e-08 1.47129e-07 2.06754e-05
0.000841649 -7.25322e-05 8.1226e-07
-7.25322e-05 -1.01287e-06 -6.89026e-07
8.1226e-07 -6.89026e-07 -9.26071e-05
0.00113315 -9.35724e-05 -1.51839e-07
-9.35724e-05 9.97455e-05 -3.37174e-07
-1.51839e-07 -3.37174e-07 -1.63727e-05
0.00144443 -6.82012e-05 5.23192e-07
-6.82012e-05 3.75112e-05 -5.95624e-07
5.23192e-07 -5.95624e-07 -4.02669e-05
0.00141727 -0.000101199 -2.45267e-07
-0.000101199 0.000159761 -2.72927e-07
-2.45267e-07 -2.72927e-07 5.28549e-05
0.00143814 -8.72576e-05 -6.09964e-07
-8.72576e-05 8.2224e-05 -7.45114e-07
-6.09964e-07 -7.45114e-07 8.7553e-06
0.000639823 2.08289e-05 2.74885e-08
2.08289e-05 -0.000117479 -5.88757e-07
2.74885e-08 -5.88757e-07 -0.000150672
0.00105145 -7.55301e-05 1.48372e-08
-7.55301e-05 0.000103176 7.15102e-08
1.48372e-08 7.15102e-08 2.02042e-05
0.000975415 -7.26337e-05 -6.63572e-07
-7.26337e-05 6.42759e-05 2.83553e-08
-6.63572e-07 2.83553e-08 -2.12644e-05
0.00109726 -6.45998e-05 -3.82795e-07
-6.45998e-05 0.000138342 7.11639e-07
-3.82795e-07 7.11639e-07 4.98579e-05
0.00106198 -3.02857e-05 -1.69805e-08
-3.02857e-05 0.000111774 -7.43818e-09
-1.69805e-08 -7.43818e-09 4.11462e-05
0.000905682 6.48246e-06 -9.24265e-08
6.48246e-06 2.25076e-05 1.69176e-07
-9.24265e-08 1.69176e-07 -3.12684e-05
0.00180647 1.63545e-05 8.7792e-07
1.63545e-05 0.000144146 -5.85439e-07
8.7792e-07 -5.85439e-07 4.33308e-05
0.00167015 -2.31366e-07 6.00022e-07
-2.31366e-07 6.61733e-05 -2.04489e-07
6.00022e-07 -2.04489e-07 -2.80544e-05
0.00144138 -4.49812e-05 1.89419e-06
-4.49812e-05 -2.83531e-05 -2.94741e-06
1.89419e-06 -2.94741e-06 -0.000110034
0.00168638 -8.10693e-05 1.31528e-07
-8.10693e-05 0.000115033 -9.91298e-07
1.31528e-07 -9.91298e-07 5.10361e-05
0.00100744 -7.54209e-05 -3.29319e-07
-7.54209e-05 8.34806e-05 1.02577e-06
-3.29319e-07 1.02577e-06 -1.2057e-06
0.00151304 -0.000101851 2.36747e-06
-0.000101851 0.000143986 3.21811e-06
2.36747e-06 3.21811e-06 4.79744e-05
0.000795711 -7.52731e-05 -6.55403e-07
-7.52731e-05 -2.75502e-05 -2.36108e-06
-6.55403e-07 -2.36108e-06 -0.00013447
0.00141967 -0.000107126 1.4824e-06
-0.000107126 0.000227282 4.71348e-07
1.4824e-06 4.71348e-07 0.000101076
0.000651544 1.68205e-05 7.76273e-07
1.68205e-05 -0.000113358 -2.2759e-06
7.76273e-07 -2.2759e-06 -0.000144389
0.00102742 -5.57544e-07 9.76394e-07
-5.57544e-07 8.6688e-05 -7.9043e-07
9.76394e-07 -7.9043e-07 3.6959e-05
0.00110573 -2.54202e-05 1.87424e-07
-2.54202e-05 0.000132594 5.08183e-07
1.87424e-07 5.08183e-07 6.65984e-05
0.00102135 -4.09228e-05 5.05024e-07
-4.09228e-05 9.675e-05 -8.06085e-07
5.05024e-07 -8.06085e-07 1.3045e-05
0.00104731 -7.60299e-05 -1.62627e-07
-7.60299e-05 9.74608e-05 1.53294e-06
-1.62627e-07 1.53294e-06 1.23052e-05
0.00100686 -7.50559e-05 6.81612e-09
-7.50559e-05 8.4583e-05 2.30481e-06
6.81612e-09 2.30481e-06 -6.2208e-06
0.000861732 -1.76434e-05 -1.30137e-06
-1.76434e-05 2.13774e-06 -1.95816e-06
-1.30137e-06 -1.95816e-06 -3.11665e-05
0.000921614 -8.57156e-06 -5.17726e-07
-8.57156e-06 3.36921e-05 -1.39898e-06
-5.17726e-07 -1.39898e-06 -2.26346e-05
0.00141876 7.34138e-05 5.1803e-08
7.34138e-05 7.33822e-05 9.17687e-07
5.1803e-08 9.17687e-07 -2.27429e-05
0.000973795 2.58935e-05 -5.57879e-07
2.58935e-05 6.94819e-05 -7.38438e-07
-5.57879e-07 -7.38438e-07 -5.8781e-06
0.00101348 7.09317e-05 -5.85383e-07
7.09317e-05 9.41775e-05 -1.53538e-07
-5.85383e-07 -1.53538e-07 8.81324e-06
0.000908093 5.25147e-05 -8.02143e-07
5.25147e-05 4.49322e-05 -1.40902e-07
-8.02143e-07 -1.40902e-07 -4.44833e-05
0.00124859 9.20057e-05 -1.22466e-06
9.20057e-05 8.96329e-05 -1.074e-06
-1.22466e-06 -1.074e-06 -4.55003e-06
0.00131535 9.26982e-05 5.28739e-07
9.26982e-05 6.19386e-05 1.08003e-06
5.28739e-07 1.08003e-06 -2.82493e-05
0.000719123 6.85285e-05 -5.04878e-07
6.85285e-05 -4.62307e-05 -8.63274e-08
-5.04878e-07 -8.63274e-08 -0.000150591
0.00123607 9.53525e-05 -2.03687e-06
9.53525e-05 0.000145287 -1.83164e-08
-2.03687e-06 -1.83164e-08 3.50972e-05
0.000911566 -8.28127e-06 -4.48129e-08
-8.28127e-06 2.75994e-05 8.57973e-08
-4.48129e-08 8.57973e-08 -2.36237e-05
0.00091754 1.82526e-05 2.11149e-07
1.82526e-05 3.64008e-05 4.93117e-07
2.11149e-07 4.93117e-07 -3.40649e-05
0.00110913 8.05734e-05 -1.28827e-07
8.05734e-05 0.000151476 -6.98225e-07
-1.28827e-07 -6.98225e-07 5.62441e-05
0.000959317 3.73983e-05 -1.21891e-07
3.73983e-05 6.81854e-05 -4.06844e-08
-1.21891e-07 -4.06844e-08 -1.78514e-05
0.000968394 6.06606e-05 -9.7528e-07
6.06606e-05 7.50369e-05 -5.88951e-07
-9.7528e-07 -5.88951e-07 -1.87812e-05
0.00167464 7.2726e-05 -1.36743e-06
7.2726e-05 0.000153603 -2.33492e-07
-1.36743e-06 -2.33492e-07 7.67746e-05
0.00151338 0.000108442 1.0847e-06
0.000108442 0.000215503 6.00209e-08
1.0847e-06 6.00209e-08 0.000112549
0.000933293 8.76348e-05 -6.17876e-07
8.76348e-05 -0.000143136 9.88099e-07
-6.17876e-07 9.88099e-07 -0.00022708
0.00123455 9.04039e-05 1.17452e-06
9.04039e-05 0.000203819 1.25358e-06
1.17452e-06 1.25358e-06 9.13895e-05
0.000718346 8.2072e-05 -1.31e-06
8.2072e-05 -0.000119594 -5.18633e-07
-1.31e-06 -5.18633e-07 -0.00024323
0.000877699 8.83574e-06 6.04946e-07
8.83574e-06 1.23595e-05 1.30112e-06
6.04946e-07 1.30112e-06 -5.19479e-05
0.000875733 4.15041e-05 5.19568e-07
4.15041e-05 2.2178e-05 3.22524e-07
5.19568e-07 3.22524e-07 -6.15619e-05
0.00110779 8.15137e-05 7.18245e-07
8.15137e-05 0.000151058 1.87906e-07
7.18245e-07 1.87906e-07 4.7337e-05
0.00072286 5.1675e-05 7.05018e-07
5.1675e-05 -4.95313e-05 1.86324e-07
7.05018e-07 1.86324e-07 -0.000146824
0.0023206 5.62365e-05 -1.14099e-07
5.62365e-05 0.000393121 6.33888e-07
-1.14099e-07 6.33888e-07 0.000319685
0.00112968 8.4336e-05 2.51512e-06
8.4336e-05 -0.000149129 -1.48054e-06
2.51512e-06 -1.48054e-06 -0.000214104
0.00129686 0.000108134 2.01904e-06
0.000108134 0.000101668 -1.88281e-06
2.01904e-06 -1.88281e-06 -1.50298e-05
0.000619944 7.25071e-05 1.08337e-06
7.25071e-05 -0.000115808 1.76067e-06
1.08337e-06 1.76067e-06 -0.000247692
0.000908147 6.53028e-06 -3.04242e-07
6.53028e-06 2.72763e-05 -6.53777e-07
-3.04242e-07 -6.53777e-07 -2.17768e-05
0.000927336 8.24938e-06 4.04563e-08
8.24938e-06 3.91562e-05 4.09793e-07
4.04563e-08 4.09793e-07 -2.20401e-05
0.00100362 1.09874e-05 4.0522e-07
1.09874e-05 8.09303e-05 7.65746e-07
4.0522e-07 7.65746e-07 1.1135e-05
0.00092305 -5.21664e-07 -5.36634e-07
-5.21664e-07 3.39358e-05 -8.90275e-07
-5.36634e-07 -8.90275e-07 -1.03605e-05
0.000830469 -1.28137e-05 -2.00154e-08
-1.28137e-05 -1.10277e-05 -1.21282e-06
-2.00154e-08 -1.21282e-06 -6.92588e-05
0.000920616 -9.84413e-06 2.47627e-07
-9.84413e-06 3.11536e-05 1.44393e-08
2.47627e-07 1.44393e-08 -1.21078e-05
0.00100958 1.65766e-05 -7.90717e-08
1.65766e-05 8.77681e-05 -3.83982e-07
-7.90717e-08 -3.83982e-07 1.94693e-05
0.000874658 -7.0028e-06 1.65063e-07
-7.0028e-06 1.58637e-05 3.90999e-07
1.65063e-07 3.90999e-07 -4.21394e-05
0.00105175 1.15064e-05 3.77323e-07
1.15064e-05 0.000110115 3.29189e-07
3.77323e-07 3.29189e-07 3.61075e-05
0.000840341 -2.22884e-05 -1.78175e-07
-2.22884e-05 1.77596e-07 9.16941e-07
-1.78175e-07 9.16941e-07 -6.67116e-05
0.000827864 2.23361e-05 3.7917e-07
2.23361e-05 -7.13977e-06 1.05179e-06
3.7917e-07 1.05179e-06 -6.50929e-05
0.000939444 -1.14933e-05 -1.55494e-07
-1.14933e-05 3.87572e-05 8.81602e-07
-1.55494e-07 8.81602e-07 -3.71255e-06
0.000886939 6.42594e-06 5.7801e-07
6.42594e-06 2.48952e-06 1.60283e-06
5.7801e-07 1.60283e-06 -2.23733e-05
0.000890773 -3.8559e-06 -2.70086e-07
-3.8559e-06 4.44223e-06 2.58076e-08
-2.70086e-07 2.58076e-08 -2.02105e-05
0.00135173 -9.59326e-06 1.02708e-06
-9.59326e-06 0.000237286 1.84226e-06
1.02708e-06 1.84226e-06 0.000241876
0.000884769 -1.18244e-05 -1.37691e-07
-1.18244e-05 2.86184e-06 -1.70455e-06
-1.37691e-07 -1.70455e-06 -2.23292e-05
0.00137174 -1.36188e-05 -2.08099e-06
-1.36188e-05 0.00025045 -1.16211e-06
-2.08099e-06 -1.16211e-06 0.000254496
0.00105431 -1.25168e-05 9.8051e-06
-1.25168e-05 8.52133e-05 6.09186e-06
9.8051e-06 6.09186e-06 0.000102938
0.00139101 -1.73679e-05 -5.42998e-06
-1.73679e-05 0.000264334 -4.2876e-06
-5.42998e-06 -4.2876e-06 0.000267275
0.00100746 -1.69058e-05 3.82137e-06
-1.69058e-05 6.47712e-05 2.35648e-06
3.82137e-06 2.35648e-06 8.15597e-05
0.000953747 -2.07819e-05 -2.36635e-06
-2.07819e-05 4.23924e-05 -1.61099e-06
-2.36635e-06 -1.61099e-06 5.74748e-05
0.000798196 1.98868e-05 1.37872e-06
1.98868e-05 -4.0928e-05 -3.19612e-06
1.37872e-06 -3.19612e-06 -4.34613e-05
0.00080456 2.29392e-05 -1.43866e-07
2.29392e-05 -3.27582e-05 1.90762e-08
-1.43866e-07 1.90762e-08 -3.74871e-05
0.00222911 3.30337e-05 1.73818e-05
3.30337e-05 0.000713864 -3.73314e-06
1.73818e-05 -3.73314e-06 0.000733168
0.000813832 2.58624e-05 -2.51964e-06
2.58624e-05 -2.31579e-05 3.25544e-06
-2.51964e-06 3.25544e-06 -3.00315e-05
0.00228339 3.80294e-05 -8.50306e-07
3.80294e-05 0.000748816 -6.28712e-08
-8.50306e-07 -6.28712e-08 0.000766368
0.00235045 4.25104e-05 -2.5028e-05
4.25104e-05 0.000790898 3.68952e-06
-2.5028e-05 3.68952e-06 0.000806526
0.00152567 5.39204e-05 1.13195e-06
5.39204e-05 8.35825e-05 1.38771e-06
1.13195e-06 1.38771e-06 -6.13476e-06
0.00157894 1.29742e-05 -1.0905e-07
1.29742e-05 5.37718e-05 -1.3048e-07
-1.0905e-07 -1.3048e-07 -3.61757e-05
0.00148873 2.80686e-05 2.37122e-06
2.80686e-05 1.29951e-05 -1.34551e-06
2.37122e-06 -1.34551e-06 -6.38295e-05
0.00161691 -6.27942e-06 -2.08073e-07
-6.27942e-06 5.78464e-05 -7.7065e-07
-2.08073e-07 -7.7065e-07 -3.41226e-05
0.00171724 8.50279e-07 8.8167e-08
8.50279e-07 0.000110285 -1.32501e-06
8.8167e-08 -1.32501e-06 9.76007e-06
0.00166705 4.66705e-06 -1.17978e-06
4.66705e-06 8.3389e-05 -2.2141e-07
-1.17978e-06 -2.2141e-07 -2.0783e-05
0.00173324 1.53728e-05 -1.97667e-08
1.53728e-05 0.00010426 -1.35509e-08
-1.97667e-08 -1.35509e-08 -4.41883e-07
0.00168554 -7.0797e-06 1.28126e-07
-7.0797e-06 8.74669e-05 -4.83868e-07
1.28126e-07 -4.83868e-07 -1.01826e-05
0.00165806 7.74862e-06 6.15013e-07
7.74862e-06 7.64836e-05 -5.21513e-08
6.15013e-07 -5.21513e-08 -9.59635e-06
0.00157104 4.26755e-05 -1.18167e-07
4.26755e-05 6.06681e-05 -5.81824e-07
-1.18167e-07 -5.81824e-07 -1.75498e-05
0.00176841 9.09435e-06 -3.50782e-07
9.09435e-06 0.000121503 6.24887e-07
-3.50782e-07 6.24887e-07 1.89797e-05
0.00181203 -1.20877e-05 1.92002e-07
-1.20877e-05 0.000137333 2.5753e-07
1.92002e-07 2.5753e-07 4.69224e-05
0.00168518 2.44839e-05 6.53873e-07
2.44839e-05 8.31632e-05 1.37662e-06
6.53873e-07 1.37662e-06 5.80929e-07
0.00163771 1.27783e-05 -1.38443e-06
1.27783e-05 6.80537e-05 1.18909e-06
-1.38443e-06 1.18909e-06 -3.25657e-05
0.00173101 -5.67925e-07 -1.1877e-06
-5.67925e-07 0.000123982 5.21829e-07
-1.1877e-06 5.21829e-07 2.82927e-05
0.00177364 -3.9279e-05 -1.08886e-06
-3.9279e-05 0.000144445 1.36848e-06
-1.08886e-06 1.36848e-06 6.05678e-05
0.00110043 -7.6764e-05 -3.53714e-07
-7.6764e-05 0.000127266 -5.37866e-07
-3.53714e-07 -5.37866e-07 4.59162e-05
0.00116499 -8.42305e-05 2.40118e-07
-8.42305e-05 0.000160462 1.44564e-07
2.40118e-07 1.44564e-07 6.96288e-05
0.00110353 -9.19162e-05 -1.39544e-06
-9.19162e-05 8.83504e-05 2.00569e-06
-1.39544e-06 2.00569e-06 -2.83132e-05
0.00152488 -6.90315e-05 9.52325e-08
-6.90315e-05 7.63767e-05 6.61508e-07
9.52325e-08 6.61508e-07 -2.65048e-06
0.00111082 -8.21139e-05 -1.62498e-06
-8.21139e-05 -7.98602e-05 -1.45256e-06
-1.62498e-06 -1.45256e-06 -0.000153672
0.00137281 -9.78211e-05 -2.30348e-06
-9.78211e-05 0.000138419 -3.30771e-06
-2.30348e-06 -3.30771e-06 3.46279e-05
0.00107392 -7.63555e-05 -1.0216e-07
-7.63555e-05 0.000114387 -1.34678e-06
-1.0216e-07 -1.34678e-06 3.12957e-05
0.000961298 -7.17702e-05 -1.62831e-06
-7.17702e-05 5.81781e-05 -1.64955e-06
-1.62831e-06 -1.64955e-06 -2.65615e-05
0.00107857 -6.50139e-05 -2.11684e-07
-6.50139e-05 0.000129769 -1.82369e-07
-2.11684e-07 -1.82369e-07 4.04895e-05
0.000624524 2.24141e-05 -8.68396e-07
2.24141e-05 -0.000125349 1.00738e-06
-8.68396e-07 1.00738e-06 -0.000158301
0.0010991 -2.70983e-05 -2.72798e-07
-2.70983e-05 0.000130233 4.75117e-07
-2.72798e-07 4.75117e-07 6.02735e-05
0.000791861 1.61282e-05 2.19658e-08
1.61282e-05 -3.77017e-05 1.19188e-06
2.19658e-08 1.19188e-06 -9.14662e-05
0.00173171 1.60777e-05 6.2047e-08
1.60777e-05 0.00010544 -2.62142e-07
6.2047e-08 -2.62142e-07 3.96765e-06
0.00170301 -2.05962e-06 6.89139e-07
-2.05962e-06 8.32164e-05 -1.96858e-07
6.89139e-07 -1.96858e-07 -1.11766e-05
0.0015223 -4.54903e-05 -9.34981e-08
-4.54903e-05 8.47277e-06 -3.02693e-07
-9.34981e-08 -3.02693e-07 -7.43912e-05
0.00105972 -7.7349e-05 3.00079e-08
-7.7349e-05 0.00010828 4.66693e-07
3.00079e-08 4.66693e-07 2.33613e-05
0.000856213 -7.70103e-05 -9.98937e-08
-7.70103e-05 6.1965e-06 1.87108e-07
-9.98937e-08 1.87108e-07 -9.85548e-05
0.00150388 -0.000109804 -1.61014e-06
-0.000109804 0.000269568 1.57052e-06
-1.61014e-06 1.57052e-06 0.000143185
0.00169583 -8.34473e-05 -5.79419e-07
-8.34473e-05 0.000125048 7.81774e-07
-5.79419e-07 7.81774e-07 6.06833e-05
0.00138694 -9.831e-05 6.19969e-07
-9.831e-05 7.69358e-05 -8.30993e-07
6.19969e-07 -8.30993e-07 -1.82956e-05
0.000760595 1.69585e-05 1.21424e-07
1.69585e-05 -5.69009e-05 -5.71818e-07
1.21424e-07 -5.71818e-07 -8.69519e-05
0.00101193 1.16662e-05 -3.31498e-07
1.16662e-05 7.8601e-05 1.1285e-07
-3.31498e-07 1.1285e-07 2.91466e-05
0.000932739 -7.18183e-05 -7.38229e-07
-7.18183e-05 4.06255e-05 1.50821e-07
-7.38229e-07 1.50821e-07 -4.44961e-05
0.00103895 -7.59906e-05 7.0211e-07
-7.59906e-05 0.000100392 3.1245e-07
7.0211e-07 3.1245e-07 1.04525e-05
0.000991698 -3.79823e-05 -1.04604e-07
-3.79823e-05 8.13743e-05 -2.51919e-07
-1.04604e-07 -2.51919e-07 -2.11761e-06
0.00104478 -2.58874e-05 -5.44447e-07
-2.58874e-05 0.000101523 9.13408e-07
-5.44447e-07 9.13408e-07 3.48074e-05
0.00171821 2.07242e-05 -1.20222e-06
2.07242e-05 9.18886e-05 9.90915e-08
-1.20222e-06 9.90915e-08 -7.15486e-06
0.00169566 -1.1946e-05 4.07146e-07
-1.1946e-05 6.46294e-05 4.26311e-07
4.07146e-07 4.26311e-07 -2.7903e-05
0.00173982 -6.33727e-05 1.72765e-06
-6.33727e-05 8.26056e-05 -4.23441e-06
1.72765e-06 -4.23441e-06 1.70244e-05
0.0022359 -0.000112691 1.47644e-06
-0.000112691 0.000387489 -9.66716e-08
1.47644e-06 -9.66716e-08 0.000317932
0.00083532 -7.04824e-05 -1.12727e-06
-7.04824e-05 6.18517e-06 8.71965e-07
-1.12727e-06 8.71965e-07 -8.47108e-05
0.00138932 -0.000109944 1.0149e-06
-0.000109944 0.000177546 3.41503e-06
1.0149e-06 3.41503e-06 3.69038e-05
0.00144436 -0.000102572 6.84486e-07
-0.000102572 0.000290518 -3.00293e-06
6.84486e-07 -3.00293e-06 0.000172509
0.000883488 1.36621e-05 6.13245e-07
1.36621e-05 3.97141e-06 -1.63466e-06
6.13245e-07 -1.63466e-06 -2.30027e-05
0.000907558 -3.32757e-05 8.31692e-07
-3.32757e-05 2.77212e-05 -9.01328e-07
8.31692e-07 -9.01328e-07 -1.6495e-05
0.000772807 1.22559e-05 2.67542e-07
1.22559e-05 -4.33762e-05 -1.551e-06
2.67542e-07 -1.551e-06 -9.28703e-05
0.00100322 -2.58517e-05 6.15152e-07
-2.58517e-05 8.08278e-05 -6.60443e-08
6.15152e-07 -6.60443e-08 1.71764e-05
0.000968799 -8.80925e-06 -1.06889e-07
-8.80925e-06 6.63597e-05 -3.79256e-07
-1.06889e-07 -3.79256e-07 -9.45468e-06
0.00094998 -7.43454e-05 1.9584e-06
-7.43454e-05 7.11398e-05 1.4806e-06
1.9584e-06 1.4806e-06 -2.56455e-05
0.000815254 -6.84209e-05 -8.79946e-07
-6.84209e-05 -3.08264e-05 1.84112e-06
-8.79946e-07 1.84112e-06 -0.000113547
0.00168066 -0.000103045 -3.98754e-07
-0.000103045 0.000439054 2.33232e-06
-3.98754e-07 2.33232e-06 0.000344822
0.000921711 -1.03015e-05 -4.14886e-07
-1.03015e-05 3.26165e-05 -1.28616e-06
-4.14886e-07 -1.28616e-06 -1.86049e-05
0.000958019 2.24925e-05 -3.9017e-07
2.24925e-05 5.7659e-05 -4.07195e-07
-3.9017e-07 -4.07195e-07 -1.28161e-05
0.00186781 7.5045e-05 3.86316e-07
7.5045e-05 0.000245053 5.87092e-07
3.86316e-07 5.87092e-07 0.000167695
0.00100507 3.83843e-05 -6.25957e-07
3.83843e-05 9.23271e-05 -3.74772e-07
-6.25957e-07 -3.74772e-07 6.40725e-06
0.00110222 8.02212e-05 -8.29001e-07
8.02212e-05 0.000149778 -1.52823e-06
-8.29001e-07 -1.52823e-06 5.53279e-05
0.000911294 5.87217e-05 -1.47955e-06
5.87217e-05 4.93046e-05 -1.15332e-07
-1.47955e-06 -1.15332e-07 -4.43683e-05
0.00150721 0.000107855 -6.41123e-07
0.000107855 0.000207203 3.50525e-07
-6.41123e-07 3.50525e-07 0.000105362
0.0013507 9.8714e-05 7.5478e-07
9.8714e-05 7.49548e-05 4.30851e-06
7.5478e-07 4.30851e-06 -6.04545e-06
0.000948107 7.98867e-05 -1.15924e-07
7.98867e-05 6.09192e-05 8.54716e-08
-1.15924e-07 8.54716e-08 -5.19042e-05
0.00114925 9.79353e-05 -4.02629e-06
9.79353e-05 9.62619e-05 -9.04146e-07
-4.02629e-06 -9.04146e-07 -3.09141e-05
0.000867705 1.55444e-05 2.62799e-07
1.55444e-05 8.51742e-06 4.6758e-07
2.62799e-07 4.6758e-07 -5.71488e-05
0.000919527 4.74327e-05 -2.19998e-07
4.74327e-05 4.58771e-05 -6.41162e-07
-2.19998e-07 -6.41162e-07 -3.80488e-05
0.00110027 8.12019e-05 -3.5823e-07
8.12019e-05 0.00014868 -9.08175e-07
-3.5823e-07 -9.08175e-07 4.56591e-05
0.000939869 5.81207e-05 -1.86796e-07
5.81207e-05 6.03586e-05 -2.40956e-07
-1.86796e-07 -2.40956e-07 -3.66007e-05
0.00204154 5.03072e-05 -6.85858e-07
5.03072e-05 0.000251221 3.4526e-07
-6.85858e-07 3.4526e-07 0.000176465
0.001258 8.60698e-05 1.17369e-06
8.60698e-05 -7.3104e-05 -8.33022e-07
1.17369e-06 -8.33022e-07 -0.000139782
0.00159839 0.000117172 -1.3947e-06
0.000117172 0.000249456 -8.4236e-08
-1.3947e-06 -8.4236e-08 0.000135176
0.000781865 8.02411e-05 6.81962e-07
8.02411e-05 -4.20179e-05 6.16376e-07
6.81962e-07 6.16376e-07 -0.000173293
0.00100168 2.39742e-05 3.70527e-07
2.39742e-05 8.18336e-05 2.89785e-07
3.70527e-07 2.89785e-07 7.53934e-06
0.00162376 1.76157e-05 4.10775e-07
1.76157e-05 3.72128e-05 1.21741e-06
4.10775e-07 1.21741e-06 -4.45968e-05
0.00113011 7.19127e-05 4.6789e-07
7.19127e-05 0.000162494 1.12396e-06
4.6789e-07 1.12396e-06 6.72905e-05
0.0010908 8.19045e-05 6.54325e-07
8.19045e-05 0.000135961 1.01451e-06
6.54325e-07 1.01451e-06 2.4617e-05
0.00218747 8.19927e-05 3.10419e-06
8.19927e-05 0.0002627 4.69917e-07
3.10419e-06 4.69917e-07 0.000201668
0.00134157 0.000110751 4.98175e-06
0.000110751 1.19049e-05 -2.48966e-06
4.98175e-06 -2.48966e-06 -9.06386e-05
0.00168671 0.000118476 1.18133e-06
0.000118476 0.000381655 1.74521e-06
1.18133e-06 1.74521e-06 0.000240353
0.00101041 1.07933e-05 -7.99368e-07
1.07933e-05 8.1789e-05 -4.05507e-07
-7.99368e-07 -4.05507e-07 2.13026e-05
0.00100775 1.05387e-05 7.1087e-09
1.05387e-05 8.31671e-05 2.24173e-08
7.1087e-09 2.24173e-08 1.33732e-05
0.00101731 1.73123e-05 4.50643e-07
1.73123e-05 9.17159e-05 6.72377e-07
4.50643e-07 6.72377e-07 1.36064e-05
0.000922879 -2.20406e-06 4.32124e-09
-2.20406e-06 3.28206e-05 -8.31192e-07
4.32124e-09 -8.31192e-07 -1.07407e-05
0.000918072 2.17025e-06 1.10345e-07
2.17025e-06 3.92322e-05 -1.55564e-07
1.10345e-07 -1.55564e-07 -1.88348e-05
0.00092713 1.44056e-05 -4.15072e-07
1.44056e-05 4.48242e-05 -1.20988e-06
-4.15072e-07 -1.20988e-06 -2.47246e-05
0.000926267 -2.03918e-05 1.13069e-08
-2.03918e-05 3.30349e-05 2.18928e-08
1.13069e-08 2.18928e-08 -1.01583e-05
0.000825499 -7.35919e-06 -3.31044e-07
-7.35919e-06 -9.35342e-06 4.39398e-07
-3.31044e-07 4.39398e-07 -6.66832e-05
0.00101166 6.52695e-06 9.72182e-08
6.52695e-06 8.87296e-05 -4.1117e-07
9.72182e-08 -4.1117e-07 1.38571e-05
0.000960484 5.19418e-06 5.67065e-08
5.19418e-06 6.44865e-05 4.54067e-07
5.67065e-08 4.54067e-07 -2.81294e-06
0.00104945 2.34555e-05 3.01026e-07
2.34555e-05 0.000108989 -4.3179e-08
3.01026e-07 -4.3179e-08 2.90566e-05
0.00089435 -1.23126e-05 1.25485e-07
-1.23126e-05 2.90836e-05 6.32419e-07
1.25485e-07 6.32419e-07 -4.49688e-05
0.00100923 1.08981e-05 6.43369e-08
1.08981e-05 8.7979e-05 1.14399e-08
6.43369e-08 1.14399e-08 2.31755e-05
0.000927769 9.77178e-06 6.73138e-07
9.77178e-06 4.50327e-05 7.30702e-07
6.73138e-07 7.30702e-07 -1.14083e-05
0.000944276 -3.66172e-06 -9.77222e-08
-3.66172e-06 3.95712e-05 8.16171e-07
-9.77222e-08 8.16171e-07 -2.62763e-06
0.000878236 9.58134e-06 3.34876e-07
9.58134e-06 -1.38332e-06 1.56302e-06
3.34876e-07 1.56302e-06 -2.65736e-05
0.000883766 -9.71863e-07 -1.82773e-07
-9.71863e-07 7.94942e-07 1.32653e-08
-1.82773e-07 1.32653e-08 -2.40369e-05
0.00135495 -4.71505e-06 7.36127e-07
-4.71505e-06 0.000237684 1.80149e-06
7.36127e-07 1.80149e-06 0.000242142
0.000884817 -1.10159e-05 -1.0354e-07
-1.10159e-05 1.30493e-06 -1.61326e-06
-1.0354e-07 -1.61326e-06 -2.33295e-05
0.00137345 -8.76819e-06 -1.51874e-06
-8.76819e-06 0.00024886 -1.16798e-06
-1.51874e-06 -1.16798e-06 0.000253313
0.00105478 -8.69124e-06 7.12473e-06
-8.69124e-06 8.27251e-05 6.11592e-06
7.12473e-06 6.11592e-06 0.000100817
0.00139003 -1.29645e-05 -3.93414e-06
-1.29645e-05 0.000260018 -4.17839e-06
-3.93414e-06 -4.17839e-06 0.000264031
0.00101042 -1.30491e-05 2.62207e-06
-1.30491e-05 6.19645e-05 2.33574e-06
2.62207e-06 2.33574e-06 7.98133e-05
0.00095471 -1.70315e-05 -1.74606e-06
-1.70315e-05 3.7263e-05 -1.53913e-06
-1.74606e-06 -1.53913e-06 5.41427e-05
0.00088279 1.04215e-05 3.60959e-07
1.04215e-05 9.23866e-07 -1.60102e-06
3.60959e-07 -1.60102e-06 -2.38729e-05
0.000809269 1.6394e-05 1.0811e-06
1.6394e-05 -4.00931e-05 -3.11099e-06
1.0811e-06 -3.11099e-06 -4.05758e-05
0.000815244 2.00711e-05 -1.21412e-07
2.00711e-05 -3.21572e-05 2.7911e-08
-1.21412e-07 2.7911e-08 -3.4792e-05
0.00217605 2.76542e-05 1.45481e-05
2.76542e-05 0.000680841 -3.75271e-06
1.45481e-05 -3.75271e-06 0.000701684
0.000820977 2.30711e-05 -2.11749e-06
2.30711e-05 -2.4418e-05 3.1885e-06
-2.11749e-06 3.1885e-06 -2.92163e-05
0.00223651 3.30459e-05 -1.02671e-06
3.30459e-05 0.000718474 -5.61018e-08
-1.02671e-06 -5.61018e-08 0.000737587
0.00228471 3.77982e-05 -2.20036e-05
3.77982e-05 0.000750293 3.73723e-06
-2.20036e-05 3.73723e-06 0.000767695
0.00142557 3.87319e-05 5.47695e-07
3.87319e-05 -1.55182e-05 -3.1904e-07
5.47695e-07 -3.1904e-07 -9.34394e-05
0.00165571 8.02516e-06 9.58653e-08
8.02516e-06 7.66566e-05 -6.5707e-07
9.58653e-08 -6.5707e-07 -9.22049e-06
0.00167124 -7.30345e-06 1.55507e-07
-7.30345e-06 8.09098e-05 -1.34085e-06
1.55507e-07 -1.34085e-06 -1.66916e-05
0.00173148 1.74559e-05 -3.05043e-07
1.74559e-05 0.000107585 -2.12663e-07
-3.05043e-07 -2.12663e-07 3.95791e-06
0.00173916 9.67552e-06 2.12376e-08
9.67552e-06 0.000107116 3.77625e-07
2.12376e-08 3.77625e-07 4.64301e-06
0.00177762 -1.12905e-05 -1.50695e-07
-1.12905e-05 0.000119573 -3.06593e-07
-1.50695e-07 -3.06593e-07 2.90279e-05
0.0016375 2.47749e-05 1.62636e-07
2.47749e-05 6.08622e-05 4.48146e-07
1.62636e-07 4.48146e-07 -2.13417e-05
0.00173321 2.6283e-06 -6.23571e-08
2.6283e-06 0.000101279 7.07127e-07
-6.23571e-08 7.07127e-07 5.25955e-06
0.00187752 -3.32381e-06 2.97379e-08
-3.32381e-06 0.000168107 5.66264e-07
2.97379e-08 5.66264e-07 7.95445e-05
0.00135451 -5.38308e-06 6.85836e-07
-5.38308e-06 -0.000107367 4.97558e-07
6.85836e-07 4.97558e-07 -0.000194771
0.00167857 1.60463e-05 -1.06847e-07
1.60463e-05 7.73677e-05 5.109e-07
-1.06847e-07 5.109e-07 -2.47374e-05
0.00176218 -4.05711e-06 -3.38165e-07
-4.05711e-06 0.000113613 3.13263e-07
-3.38165e-07 3.13263e-07 1.90208e-05
0.00162576 -4.63261e-05 -1.62888e-06
-4.63261e-05 5.63744e-05 6.97031e-07
-1.62888e-06 6.97031e-07 -2.76791e-05
0.00110463 -7.90016e-05 -8.51793e-08
-7.90016e-05 0.000129518 8.50246e-08
-8.51793e-08 8.50246e-08 4.4366e-05
0.000887128 -7.77423e-05 5.36731e-07
-7.77423e-05 2.44094e-05 2.21574e-06
5.36731e-07 2.21574e-06 -7.80376e-05
0.00149336 -0.00010896 -2.04102e-06
-0.00010896 0.000262229 3.26399e-06
-2.04102e-06 3.26399e-06 0.00013643
0.00167635 -8.52985e-05 2.66164e-06
-8.52985e-05 0.000121269 2.0266e-06
2.66164e-06 2.0266e-06 5.65318e-05
0.00122709 -9.36007e-05 -3.02115e-06
-9.36007e-05 -7.22246e-06 -3.21624e-06
-3.02115e-06 -3.21624e-06 -0.000101598
0.000807745 -6.72845e-05 -9.90408e-07
-6.72845e-05 -2.1807e-05 -9.77482e-07
-9.90408e-07 -9.77482e-07 -0.000106827
0.00108562 -7.74872e-05 7.71034e-07
-7.74872e-05 0.000123445 -2.36052e-06
7.71034e-07 -2.36052e-06 3.43429e-05
0.000970861 -1.5745e-05 -9.13176e-09
-1.5745e-05 6.77803e-05 -2.55526e-07
-9.13176e-09 -2.55526e-07 -1.36141e-05
0.000870939 1.67111e-05 -7.68377e-07
1.67111e-05 7.89301e-08 1.11569e-06
-7.68377e-07 1.11569e-06 -2.8969e-05
0.00100056 2.68793e-05 -4.33257e-07
2.68793e-05 7.29335e-05 9.68748e-07
-4.33257e-07 9.68748e-07 2.35418e-05
0.000992208 -1.94891e-05 -8.04956e-07
-1.94891e-05 7.46333e-05 1.40926e-06
-8.04956e-07 1.40926e-06 7.2495e-06
0.00177257 2.14311e-05 3.46102e-07
2.14311e-05 0.000120218 3.65649e-07
3.46102e-07 3.65649e-07 2.28384e-05
0.000884012 1.30694e-05 -5.37405e-10
1.30694e-05 3.89836e-06 1.52683e-08
-5.37405e-10 1.52683e-08 -2.30503e-05
0.000825134 -1.9276e-06 -4.62073e-07
-1.9276e-06 -1.63456e-05 5.01704e-08
-4.62073e-07 5.01704e-08 -6.00256e-05
0.00178301 -1.24908e-05 -2.15133e-07
-1.24908e-05 0.00010539 -7.57575e-07
-2.15133e-07 -7.57575e-07 1.28279e-05
0.00147623 -6.20889e-05 -5.03137e-07
-6.20889e-05 -4.22016e-05 -5.48295e-07
-5.03137e-07 -5.48295e-07 -0.000111344
0.000839751 -7.03771e-05 7.0143e-08
-7.03771e-05 9.33283e-06 1.16249e-06
7.0143e-08 1.16249e-06 -8.0284e-05
0.00138365 -0.000100773 -7.16678e-07
-0.000100773 0.000259626 4.78548e-07
-7.16678e-07 4.78548e-07 0.000138275
0.00123825 -0.000102875 9.57411e-07
-0.000102875 9.58001e-05 1.48277e-06
9.57411e-07 1.48277e-06 -3.79143e-05
0.00185302 -0.000106015 -4.95139e-08
-0.000106015 0.000203582 -7.05216e-07
-4.95139e-08 -7.05216e-07 0.000134402
0.000960493 -4.3304e-06 8.28341e-07
-4.3304e-06 5.46582e-05 -4.89344e-07
8.28341e-07 -4.89344e-07 6.40317e-06
0.000984288 -1.29272e-05 -4.82353e-07
-1.29272e-05 7.21571e-05 4.653e-07
-4.82353e-07 4.653e-07 7.93105e-06
0.000969562 -7.39743e-05 3.36702e-07
-7.39743e-05 4.52368e-05 5.647e-07
3.36702e-07 5.647e-07 -3.8875e-05
0.00126089 -8.72509e-05 -2.17497e-07
-8.72509e-05 0.000224579 -6.81172e-07
-2.17497e-07 -6.81172e-07 0.000135459
0.000878196 -5.55695e-05 1.51383e-07
-5.55695e-05 3.3782e-05 3.16344e-07
1.51383e-07 3.16344e-07 -6.29331e-05
0.000980479 -8.48715e-06 1.36824e-07
-8.48715e-06 7.21811e-05 -2.60713e-07
1.36824e-07 -2.60713e-07 -3.96502e-06
0.00157174 1.96523e-05 -1.31817e-06
1.96523e-05 6.22771e-06 -4.43459e-07
-1.31817e-06 -4.43459e-07 -7.74596e-05
0.00202471 -2.5574e-05 1.45646e-06
-2.5574e-05 0.000213867 1.29867e-06
1.45646e-06 1.29867e-06 0.000123227
0.00207196 -0.000101043 -1.24626e-06
-0.000101043 0.000185876 -4.42792e-06
-1.24626e-06 -4.42792e-06 0.000136377
0.00145359 -0.000117164 2.71225e-06
-0.000117164 8.88299e-05 2.70588e-06
2.71225e-06 2.70588e-06 -1.8e-05
0.00111297 -7.93869e-05 -1.61757e-06
-7.93869e-05 0.000140208 -6.6694e-08
-1.61757e-06 -6.6694e-08 4.63951e-05
0.00171396 -0.000126523 -8.49659e-09
-0.000126523 0.000410495 -1.81765e-06
-8.49659e-09 -1.81765e-06 0.000256521
0.000747805 2.66239e-05 -7.82184e-07
2.66239e-05 -5.6581e-05 -1.22706e-06
-7.82184e-07 -1.22706e-06 -9.88351e-05
0.00089963 -1.51919e-05 7.24105e-07
-1.51919e-05 2.2312e-05 -1.04263e-06
7.24105e-07 -1.04263e-06 -2.28312e-05
0.0011266 -2.88926e-05 3.24109e-07
-2.88926e-05 0.000151838 -4.00444e-07
3.24109e-07 -4.00444e-07 9.49892e-05
0.000830072 1.88783e-05 -6.22441e-07
1.88783e-05 -2.95333e-06 -8.75172e-07
-6.22441e-07 -8.75172e-07 -6.83281e-05
0.00110781 -1.33578e-05 -1.56179e-08
-1.33578e-05 0.00013928 -5.92166e-08
-1.56179e-08 -5.92166e-08 6.70685e-05
0.000772252 -1.91765e-05 2.8751e-08
-1.91765e-05 -2.22839e-05 4.30868e-07
2.8751e-08 4.30868e-07 -0.000109328
0.00118052 -6.08588e-05 3.4957e-06
-6.08588e-05 0.000200728 3.24285e-07
3.4957e-06 3.24285e-07 9.58559e-05
0.000925231 -7.9502e-05 -2.72014e-06
-7.9502e-05 4.8133e-05 1.91861e-06
-2.72014e-06 1.91861e-06 -3.92069e-05
0.000856642 2.30934e-05 -3.25327e-07
2.30934e-05 4.1745e-06 -4.12319e-07
-3.25327e-07 -4.12319e-07 -6.28841e-05
0.000961061 5.04128e-05 -1.28079e-06
5.04128e-05 6.80291e-05 -1.38209e-06
-1.28079e-06 -1.38209e-06 -1.57676e-05
0.00176511 4.4374e-05 -6.324e-07
4.4374e-05 0.000111133 -6.26572e-07
-6.324e-07 -6.26572e-07 3.49915e-05
0.0014035 8.80186e-05 -8.09459e-07
8.80186e-05 1.15488e-05 1.20597e-06
-8.09459e-07 1.20597e-06 -5.68693e-05
0.00116882 6.4078e-05 -1.37257e-06
6.4078e-05 0.000176091 -3.87978e-07
-1.37257e-06 -3.87978e-07 7.95348e-05
0.00110208 8.11683e-05 -1.55936e-06
8.11683e-05 0.000150966 -1.98124e-06
-1.55936e-06 -1.98124e-06 4.86332e-05
0.00193439 0.000127384 -2.25986e-06
0.000127384 0.000415219 1.17239e-06
-2.25986e-06 1.17239e-06 0.000303202
0.000975827 8.91055e-05 -1.06965e-06
8.91055e-05 4.82607e-05 -1.09944e-06
-1.06965e-06 -1.09944e-06 -8.27941e-05
0.000985243 3.19329e-05 -9.69675e-08
3.19329e-05 7.54394e-05 -4.71468e-07
-9.69675e-08 -4.71468e-07 2.009e-07
0.00166736 1.57947e-05 2.17493e-07
1.57947e-05 5.7365e-05 3.4937e-07
2.17493e-07 3.4937e-07 -2.5439e-05
0.00102522 6.54183e-05 2.65891e-07
6.54183e-05 0.000108952 6.60663e-07
2.65891e-07 6.60663e-07 1.46287e-05
0.000927012 7.53841e-05 1.16161e-07
7.53841e-05 5.11784e-05 -1.83646e-07
1.16161e-07 -1.83646e-07 -6.12477e-05
0.00166506 7.29727e-05 9.90048e-07
7.29727e-05 8.23874e-06 -2.94644e-07
9.90048e-07 -2.94644e-07 -5.36939e-05
0.00182453 0.00012595 1.21136e-06
0.00012595 0.000246757 -3.96483e-07
1.21136e-06 -3.96483e-07 0.000144659
0.00161434 0.000116483 1.24754e-07
0.000116483 0.000349162 5.47861e-07
1.24754e-07 5.47861e-07 0.000208808
0.00103488 4.1377e-05 1.73682e-07
4.1377e-05 0.000107757 7.19395e-07
1.73682e-07 7.19395e-07 2.10237e-05
0.00226013 4.75812e-05 8.24842e-07
4.75812e-05 0.000288903 9.74675e-07
8.24842e-07 9.74675e-07 0.000220545
0.00143292 8.3859e-05 -4.41921e-07
8.3859e-05 0.000301307 1.21581e-07
-4.41921e-07 1.21581e-07 0.000200003
0.0017173 0.000111317 -1.39215e-06
0.000111317 0.000438841 1.6263e-06
-1.39215e-06 1.6263e-06 0.000311716
0.00182246 0.000129312 7.544e-06
0.000129312 6.05177e-05 -1.22249e-06
7.544e-06 -1.22249e-06 -1.60291e-06
0.000965317 0.000100693 2.67758e-07
0.000100693 -4.08643e-05 1.89587e-06
2.67758e-07 1.89587e-06 -0.000181599
0.000855985 3.98821e-05 1.25483e-05
3.98821e-05 -0.000216061 -3.01951e-07
1.25483e-05 -3.01951e-07 -0.000268254
0.00101449 1.09986e-05 -4.1138e-07
1.09986e-05 8.66915e-05 -6.95394e-07
-4.1138e-07 -6.95394e-07 1.68747e-05
0.00100717 1.81489e-05 -1.72952e-08
1.81489e-05 8.70356e-05 -7.8785e-08
-1.72952e-08 -7.8785e-08 8.78045e-06
0.0010825 3.21679e-05 1.68314e-07
3.21679e-05 0.000122846 9.83095e-08
1.68314e-07 9.83095e-08 3.87799e-05
0.000913401 -2.22511e-05 3.18158e-07
-2.22511e-05 2.71033e-05 -8.41342e-07
3.18158e-07 -8.41342e-07 -1.65811e-05
0.000825049 -3.09508e-05 -1.38617e-07
-3.09508e-05 -9.37429e-06 -1.509e-07
-1.38617e-07 -1.509e-07 -6.68486e-05
0.00108088 3.27391e-05 -7.03136e-07
3.27391e-05 0.000129305 -1.06113e-07
-7.03136e-07 -1.06113e-07 6.14193e-05
0.000972014 3.71968e-06 -1.67686e-07
3.71968e-06 6.7718e-05 -1.04661e-06
-1.67686e-07 -1.04661e-06 -8.06441e-06
0.000922593 -1.75437e-05 -2.63926e-07
-1.75437e-05 3.05715e-05 3.93563e-08
-2.63926e-07 3.93563e-08 -1.30645e-05
0.00086934 -6.67029e-06 1.84755e-07
-6.67029e-06 1.22007e-05 3.44461e-08
1.84755e-07 3.44461e-08 -4.34597e-05
0.000996947 1.90914e-05 1.13037e-08
1.90914e-05 8.20027e-05 -5.9258e-07
1.13037e-08 -5.9258e-07 2.11669e-06
0.001007 -5.20629e-06 -2.55265e-07
-5.20629e-06 8.66888e-05 -2.39385e-07
-2.55265e-07 -2.39385e-07 2.17338e-05
0.000983958 -8.93493e-06 2.1427e-07
-8.93493e-06 7.59492e-05 -2.44012e-08
2.1427e-07 -2.44012e-08 2.46909e-06
0.000997935 1.36544e-05 -1.1832e-07
1.36544e-05 8.07781e-05 3.70688e-07
-1.1832e-07 3.70688e-07 9.80003e-07
0.0010112 9.54837e-06 1.85166e-07
9.54837e-06 9.33874e-05 -1.1979e-07
1.85166e-07 -1.1979e-07 2.35649e-05
0.00105793 9.30264e-06 2.61388e-07
9.30264e-06 0.000109487 -2.06847e-07
2.61388e-07 -2.06847e-07 4.70421e-05
0.000811554 2.95246e-06 -4.22996e-07
2.95246e-06 -1.91842e-05 6.83951e-07
-4.22996e-07 6.83951e-07 -7.55693e-05
0.000795249 8.8302e-06 3.61001e-07
8.8302e-06 -3.84963e-05 1.18451e-06
3.61001e-07 1.18451e-06 -8.21107e-05
0.00107327 -1.60474e-06 2.40753e-07
-1.60474e-06 0.000118802 -4.47124e-08
2.40753e-07 -4.47124e-08 6.35479e-05
0.000786338 1.14446e-06 -4.94385e-07
1.14446e-06 -4.21707e-05 1.00338e-06
-4.94385e-07 1.00338e-06 -8.56276e-05
0.000880918 1.17272e-05 2.04156e-07
1.17272e-05 2.45168e-07 1.56316e-06
2.04156e-07 1.56316e-06 -2.50807e-05
0.000877574 1.44059e-06 -2.53613e-07
1.44059e-06 -1.76219e-06 6.6084e-09
-2.53613e-07 6.6084e-09 -2.69246e-05
0.000828895 3.83508e-07 1.95277e-07
3.83508e-07 -3.80965e-05 2.95953e-06
1.95277e-07 2.95953e-06 -3.67308e-05
0.000881441 -8.5994e-06 1.63544e-07
-8.5994e-06 -4.4484e-07 -1.57136e-06
1.63544e-07 -1.57136e-06 -2.5252e-05
0.00110526 -3.81273e-06 -9.18993e-07
-3.81273e-06 0.000107009 -1.21052e-06
-9.18993e-07 -1.21052e-06 0.000109932
0.002118 -5.9683e-06 4.26007e-06
-5.9683e-06 0.000638177 3.853e-06
4.26007e-06 3.853e-06 0.000661917
0.00139569 -8.2691e-06 -2.46262e-06
-8.2691e-06 0.000260705 -4.13637e-06
-2.46262e-06 -4.13637e-06 0.000264995
0.00101759 -8.9582e-06 1.40458e-06
-8.9582e-06 6.27167e-05 2.34423e-06
1.40458e-06 2.34423e-06 8.10184e-05
0.000965658 -1.29265e-05 -1.2518e-06
-1.29265e-05 3.82818e-05 -1.4874e-06
-1.2518e-06 -1.4874e-06 5.63241e-05
0.000891235 7.00347e-06 2.81704e-07
7.00347e-06 3.5841e-06 -1.57658e-06
2.81704e-07 -1.57658e-06 -1.95496e-05
0.000887332 9.95282e-06 -3.75826e-08
9.95282e-06 2.98687e-06 8.27732e-09
-3.75826e-08 8.27732e-09 -2.18054e-05
0.000818671 1.26066e-05 6.58582e-07
1.26066e-05 -3.93214e-05 -3.06291e-06
6.58582e-07 -3.06291e-06 -3.81217e-05
0.00110068 1.8082e-05 -4.57011e-07
1.8082e-05 0.000112447 3.6091e-08
-4.57011e-07 3.6091e-08 0.00011324
0.00213209 2.20908e-05 1.18548e-05
2.20908e-05 0.000653258 -3.78955e-06
1.18548e-05 -3.78955e-06 0.000675429
0.000832622 2.02642e-05 -1.62606e-06
2.02642e-05 -2.32029e-05 3.17364e-06
-1.62606e-06 3.17364e-06 -2.594e-05
0.00218187 2.77931e-05 -1.09864e-06
2.77931e-05 0.000684586 -4.83857e-08
-1.09864e-06 -4.83857e-08 0.000705226
0.00224031 3.29714e-05 -1.91491e-05
3.29714e-05 0.000721188 3.7828e-06
-1.91491e-05 3.7828e-06 0.000740137
0.0015667 2.50552e-05 -7.74989e-07
2.50552e-05 2.71412e-05 -2.1751e-07
-7.74989e-07 -2.1751e-07 -5.46948e-05
0.00175181 -9.81753e-06 -1.54312e-07
-9.81753e-06 0.000106205 -7.2085e-07
-1.54312e-07 -7.2085e-07 1.55198e-05
0.0016969 6.16576e-06 6.22159e-09
6.16576e-06 8.66041e-05 4.13155e-09
6.22159e-09 4.13155e-09 -1.59237e-05
0.00173861 5.47517e-06 3.32629e-07
5.47517e-06 0.000102769 2.13534e-07
3.32629e-07 2.13534e-07 6.59308e-06
0.00174408 -3.21201e-06 -2.35111e-07
-3.21201e-06 0.000104365 1.88811e-07
-2.35111e-07 1.88811e-07 1.62192e-05
0.00162345 -9.03807e-06 9.0988e-07
-9.03807e-06 3.29639e-05 -1.54114e-07
9.0988e-07 -1.54114e-07 -5.46178e-05
0.00164466 7.95307e-06 3.25742e-07
7.95307e-06 5.12018e-05 -6.13876e-07
3.25742e-07 -6.13876e-07 -3.44103e-05
0.00299492 -5.57053e-05 -8.52484e-07
-5.57053e-05 0.00065795 -4.94999e-06
-8.52484e-07 -4.94999e-06 0.000616151
0.00154226 -5.53253e-06 1.38815e-06
-5.53253e-06 -6.87793e-05 4.86652e-07
1.38815e-06 4.86652e-07 -0.000146316
0.000923722 8.29886e-06 2.01614e-07
8.29886e-06 3.20955e-05 -7.31521e-07
2.01614e-07 -7.31521e-07 -7.02242e-06
0.00180912 2.19848e-05 5.8468e-07
2.19848e-05 0.000139599 -9.92288e-08
5.8468e-07 -9.92288e-08 4.38922e-05
0.00184446 -1.30477e-05 -1.75917e-06
-1.30477e-05 0.000133043 -8.29197e-08
-1.75917e-06 -8.29197e-08 4.04909e-05
0.00125798 -6.10987e-05 1.42745e-07
-6.10987e-05 -0.000145521 2.52363e-06
1.42745e-07 2.52363e-06 -0.000217523
0.000897554 -7.21725e-05 1.07086e-06
-7.21725e-05 3.99461e-05 3.53413e-07
1.07086e-06 3.53413e-07 -4.85942e-05
0.00131268 -9.85589e-05 -3.54563e-07
-9.85589e-05 0.000225233 3.38843e-06
-3.54563e-07 3.38843e-06 9.92197e-05
0.00102488 -9.41113e-05 9.41273e-08
-9.41113e-05 -1.53216e-05 -1.34088e-07
9.41273e-08 -1.34088e-07 -0.00014407
0.00153493 -0.000100619 -2.26851e-06
-0.000100619 5.22977e-05 -1.9814e-06
-2.26851e-06 -1.9814e-06 -1.67612e-05
0.00112751 -7.96009e-05 2.0523e-06
-7.96009e-05 0.000123662 -2.24087e-06
2.0523e-06 -2.24087e-06 3.81002e-05
0.000835598 -7.13273e-05 -3.25031e-06
-7.13273e-05 7.52736e-06 -5.46566e-06
-3.25031e-06 -5.46566e-06 -7.65197e-05
0.000788625 -5.21454e-05 2.03373e-07
-5.21454e-05 -1.0608e-05 3.39261e-07
2.03373e-07 3.39261e-07 -0.000108481
0.00088712 1.26394e-05 -7.2423e-07
1.26394e-05 5.24277e-06 1.68798e-06
-7.2423e-07 1.68798e-06 -2.1703e-05
0.000990256 -1.47952e-05 3.22825e-08
-1.47952e-05 7.71305e-05 -3.81471e-07
3.22825e-08 -3.81471e-07 5.15239e-07
0.00115184 -2.73304e-05 -4.0319e-07
-2.73304e-05 0.000155223 5.52621e-07
-4.0319e-07 5.52621e-07 0.000107763
0.000969871 1.04023e-06 -2.32223e-07
1.04023e-06 6.55687e-05 1.11291e-06
-2.32223e-07 1.11291e-06 8.56922e-07
0.000740256 1.16748e-05 2.33282e-07
1.16748e-05 -6.23815e-05 8.76775e-07
2.33282e-07 8.76775e-07 -0.00010509
0.001716 1.90409e-05 -5.5838e-07
1.90409e-05 8.19802e-05 -3.07922e-08
-5.5838e-07 -3.07922e-08 -1.01687e-06
0.000836909 8.34243e-06 2.5382e-07
8.34243e-06 -1.08964e-05 -4.63002e-07
2.5382e-07 -4.63002e-07 -5.25693e-05
0.000906445 -1.55376e-05 -3.83511e-07
-1.55376e-05 2.67363e-05 2.45113e-08
-3.83511e-07 2.45113e-08 -1.91406e-05
0.000953458 -1.02205e-05 -7.4198e-07
-1.02205e-05 6.18187e-05 4.82162e-07
-7.4198e-07 4.82162e-07 3.89273e-06
0.00187046 -2.50976e-05 1.57519e-06
-2.50976e-05 0.000126376 6.32782e-07
1.57519e-06 6.32782e-07 3.79109e-05
0.00186153 -9.95592e-05 -1.6118e-06
-9.95592e-05 9.70087e-05 -1.00595e-06
-1.6118e-06 -1.00595e-06 4.45081e-05
0.000982521 -7.54715e-05 -6.88526e-07
-7.54715e-05 6.76736e-05 6.32115e-07
-6.88526e-07 6.32115e-07 -2.40623e-05
0.00107133 -0.000100861 5.99109e-07
-0.000100861 9.75461e-05 -8.39182e-07
5.99109e-07 -8.39182e-07 -5.94728e-05
0.00139752 -0.000117742 4.64919e-07
-0.000117742 6.25862e-05 8.99896e-07
4.64919e-07 8.99896e-07 -4.44758e-05
0.000928867 1.03e-05 -1.74512e-07
1.03e-05 4.75148e-05 4.7346e-08
-1.74512e-07 4.7346e-08 -1.65239e-05
0.0010433 -2.22468e-05 -1.12153e-07
-2.22468e-05 0.00010846 -6.34817e-09
-1.12153e-07 -6.34817e-09 3.43874e-05
0.000852464 -7.65423e-05 -2.70723e-06
-7.65423e-05 1.21278e-05 5.48983e-07
-2.70723e-06 5.48983e-07 -7.71246e-05
0.00111751 -4.96869e-05 3.14853e-07
-4.96869e-05 0.000167333 -3.47545e-07
3.14853e-07 -3.47545e-07 6.46295e-05
0.000919905 -3.01405e-05 9.14404e-08
-3.01405e-05 5.34728e-05 7.01336e-07
9.14404e-08 7.01336e-07 -3.33304e-05
0.0018592 1.28266e-05 -4.06258e-07
1.28266e-05 0.000133598 4.12488e-07
-4.06258e-07 4.12488e-07 5.29447e-05
0.00237731 -6.28912e-05 1.17803e-06
-6.28912e-05 0.000311777 -2.1763e-06
1.17803e-06 -2.1763e-06 0.000253579
0.00205652 -0.000138869 5.32957e-06
-0.000138869 0.000217879 -2.09552e-06
5.32957e-06 -2.09552e-06 0.000136283
0.00153782 -0.000127674 -2.14539e-06
-0.000127674 0.000259273 -3.17131e-07
-2.14539e-06 -3.17131e-07 0.000118524
0.00107683 -9.00147e-05 3.409e-07
-9.00147e-05 0.000138994 -1.47266e-06
3.409e-07 -1.47266e-06 1.83386e-05
0.000753392 1.19298e-05 8.91996e-08
1.19298e-05 -4.24202e-05 -8.05435e-07
8.91996e-08 -8.05435e-07 -9.88257e-05
0.000865469 2.24366e-05 2.35157e-07
2.24366e-05 1.7679e-05 -9.80368e-07
2.35157e-07 -9.80368e-07 -4.49837e-05
0.0011008 1.00707e-05 3.83748e-07
1.00707e-05 0.000139982 2.96897e-07
3.83748e-07 2.96897e-07 7.29497e-05
0.000987563 -3.57975e-05 7.58031e-07
-3.57975e-05 8.48581e-05 -4.23781e-07
7.58031e-07 -4.23781e-07 1.13276e-05
0.00106594 -9.55813e-06 1.86674e-07
-9.55813e-06 0.000121767 6.22428e-07
1.86674e-07 6.22428e-07 4.29126e-05
0.000945023 -2.57602e-05 -4.90397e-07
-2.57602e-05 7.62296e-05 -1.00525e-06
-4.90397e-07 -1.00525e-06 -1.73393e-05
0.0009015 -5.94172e-05 5.13454e-06
-5.94172e-05 7.76262e-05 1.05422e-06
5.13454e-06 1.05422e-06 -4.4429e-05
0.000966665 3.88418e-05 -6.815e-07
3.88418e-05 6.78928e-05 -1.3175e-06
-6.815e-07 -1.3175e-06 -8.22844e-06
0.000915448 6.02204e-05 -6.96428e-08
6.02204e-05 5.33909e-05 -7.40201e-08
-6.96428e-08 -7.40201e-08 -4.02765e-05
0.00173439 1.34109e-05 -1.10631e-07
1.34109e-05 8.83573e-05 -6.17493e-07
-1.10631e-07 -6.17493e-07 4.67003e-06
0.00116001 6.45435e-05 -6.74218e-07
6.45435e-05 -0.000237803 -1.21067e-06
-6.74218e-07 -1.21067e-06 -0.000299999
0.00230448 0.000141286 -2.7666e-06
0.000141286 0.000479431 2.63223e-07
-2.7666e-06 2.63223e-07 0.000377831
0.000785844 6.98643e-05 -2.61888e-07
6.98643e-05 -2.19005e-05 -8.84158e-07
-2.61888e-07 -8.84158e-07 -0.00013526
0.00150571 0.000113264 -6.94776e-07
0.000113264 0.000297882 -9.03468e-08
-6.94776e-07 -9.03468e-08 0.000159009
0.00104993 3.7283e-05 4.07244e-08
3.7283e-05 0.000115366 9.34671e-08
4.07244e-08 9.34671e-08 3.01681e-05
0.00169436 4.19524e-05 -1.55153e-06
4.19524e-05 -7.42925e-06 -1.61516e-07
-1.55153e-06 -1.61516e-07 -7.30032e-05
0.00120254 7.84608e-05 -5.00499e-07
7.84608e-05 0.000189727 -1.11884e-07
-5.00499e-07 -1.11884e-07 8.88268e-05
0.0012984 9.41506e-05 -4.95412e-07
9.41506e-05 0.000235849 5.53828e-07
-4.95412e-07 5.53828e-07 0.000109029
0.00180108 0.000122734 1.84892e-06
0.000122734 4.61836e-05 -1.13094e-06
1.84892e-06 -1.13094e-06 -1.3567e-05
0.00127474 0.000112258 -1.10169e-06
0.000112258 0.000120453 1.4476e-06
-1.10169e-06 1.4476e-06 -2.68896e-05
0.00178814 2.29277e-05 1.12997e-06
2.29277e-05 0.000118287 -2.47693e-06
1.12997e-06 -2.47693e-06 6.85935e-05
0.00108344 5.23253e-05 -4.9337e-07
5.23253e-05 0.000127218 -4.47916e-07
-4.9337e-07 -4.47916e-07 3.48599e-05
0.0020262 0.000107644 3.47292e-06
0.000107644 9.81329e-05 -4.87344e-06
3.47292e-06 -4.87344e-06 7.54103e-05
0.00127766 8.98938e-05 -1.44708e-06
8.98938e-05 0.000232911 -4.0255e-07
-1.44708e-06 -4.0255e-07 0.000127228
0.00101425 9.07576e-05 -1.48135e-06
9.07576e-05 0.000109045 1.2094e-06
-1.48135e-06 1.2094e-06 -4.51354e-05
0.000378333 0.000118308 -1.31666e-06
0.000118308 -0.000445891 -8.15575e-07
-1.31666e-06 -8.15575e-07 -0.000572748
0.0061186 -0.000105789 -2.76062e-05
-0.000105789 0.00200342 -3.48813e-06
-2.76062e-05 -3.48813e-06 0.00146783
0.00228891 -6.29721e-05 6.0042e-05
-6.29721e-05 -2.97728e-05 4.18296e-06
6.0042e-05 4.18296e-06 -0.000343761
0.0010169 0.000139448 1.1519e-05
0.000139448 -0.000278049 7.4026e-06
1.1519e-05 7.4026e-06 -0.00020068
-0.00257158 -0.000218147 -3.00135e-05
-0.000218147 -0.00129503 -2.09198e-05
-3.00135e-05 -2.09198e-05 -0.00119476
0.00189166 -0.000313916 -1.83657e-05
-0.000313916 2.91773e-05 -4.01686e-06
-1.83657e-05 -4.01686e-06 0.000766626
0.00100177 1.84926e-05 -4.52721e-07
1.84926e-05 8.46213e-05 -8.58205e-07
-4.52721e-07 -8.58205e-07 6.2483e-06
0.00106242 2.92429e-05 1.38128e-07
2.92429e-05 0.000114221 -1.58051e-07
1.38128e-07 -1.58051e-07 3.0726e-05
0.00108012 4.09155e-05 3.00783e-08
4.09155e-05 0.000118463 2.00482e-07
3.00783e-08 2.00482e-07 3.39374e-05
0.000904118 -3.30974e-05 2.91058e-07
-3.30974e-05 2.30176e-05 -8.57797e-07
2.91058e-07 -8.57797e-07 -2.19151e-05
0.000804296 8.32479e-06 -4.94116e-08
8.32479e-06 -2.17714e-05 -6.4199e-07
-4.94116e-08 -6.4199e-07 -7.81252e-05
0.00100265 -2.31733e-05 -2.07294e-08
-2.31733e-05 8.35178e-05 -4.84398e-07
-2.07294e-08 -4.84398e-07 1.89293e-05
0.00106845 -2.7698e-06 -1.76697e-07
-2.7698e-06 0.000120202 -3.54352e-07
-1.76697e-07 -3.54352e-07 4.73901e-05
0.000956853 1.36928e-05 2.56196e-09
1.36928e-05 6.10548e-05 -1.30938e-06
2.56196e-09 -1.30938e-06 -1.87674e-05
0.000985908 1.68506e-05 -3.81091e-07
1.68506e-05 7.29361e-05 -3.98428e-07
-3.81091e-07 -3.98428e-07 9.21951e-06
0.000855657 5.28779e-06 1.34981e-07
5.28779e-06 -4.96904e-06 4.03526e-07
1.34981e-07 4.03526e-07 -4.9257e-05
0.000892982 -8.10929e-07 -1.74055e-07
-8.10929e-07 2.37695e-05 2.49435e-08
-1.74055e-07 2.49435e-08 -3.28099e-05
0.000982216 1.44893e-05 -2.70784e-08
1.44893e-05 7.38935e-05 1.10078e-07
-2.70784e-08 1.10078e-07 -5.61692e-06
0.000994106 7.72324e-06 1.10808e-07
7.72324e-06 8.32253e-05 -6.27475e-08
1.10808e-07 -6.27475e-08 1.348e-05
0.000939266 2.47025e-05 2.56581e-07
2.47025e-05 5.45089e-05 -2.82641e-07
2.56581e-07 -2.82641e-07 -1.38015e-05
0.00104487 3.20862e-05 3.01915e-07
3.20862e-05 0.000107824 4.78874e-07
3.01915e-07 4.78874e-07 3.22956e-05
0.000857628 6.36621e-06 4.90816e-08
6.36621e-06 7.566e-07 6.34698e-07
4.90816e-08 6.34698e-07 -6.19578e-05
0.000851501 -7.84536e-08 5.33931e-07
-7.84536e-08 -1.00854e-06 1.22706e-07
5.33931e-07 1.22706e-07 -5.73071e-05
0.000762146 -3.0209e-05 -1.23643e-06
-3.0209e-05 -5.34991e-05 1.1914e-06
-1.23643e-06 1.1914e-06 -9.82904e-05
0.000980582 7.10866e-06 -2.01757e-07
7.10866e-06 6.6728e-05 1.92049e-07
-2.01757e-07 1.92049e-07 1.18655e-05
0.00106499 5.41603e-05 1.47195e-07
5.41603e-05 0.000113885 2.34361e-07
1.47195e-07 2.34361e-07 5.22036e-05
0.000926857 4.02425e-06 -3.96451e-07
4.02425e-06 4.21059e-05 4.52839e-07
-3.96451e-07 4.52839e-07 -1.28989e-05
0.000967371 1.23197e-05 3.61107e-07
1.23197e-05 6.12402e-05 -3.40009e-07
3.61107e-07 -3.40009e-07 7.16128e-06
0.000921561 -1.69679e-05 -1.05149e-06
-1.69679e-05 2.84228e-05 6.36287e-07
-1.05149e-06 6.36287e-07 -1.40445e-05
0.000790445 3.8377e-06 1.01641e-07
3.8377e-06 -3.84532e-05 3.45122e-07
1.01641e-07 3.45122e-07 -8.30812e-05
0.000882836 1.17084e-05 -9.23449e-08
1.17084e-05 1.10917e-06 1.58842e-06
-9.23449e-08 1.58842e-06 -2.42421e-05
0.000876536 3.4037e-06 -1.89717e-07
3.4037e-06 -2.10615e-06 6.56752e-10
-1.89717e-07 6.56752e-10 -2.73541e-05
0.00084518 4.1217e-06 -3.31603e-07
4.1217e-06 -2.88192e-05 4.16217e-06
-3.31603e-07 4.16217e-06 -2.77333e-05
0.000876104 -6.96062e-06 3.52606e-07
-6.96062e-06 -2.56386e-06 -1.55801e-06
3.52606e-07 -1.55801e-06 -2.76878e-05
0.000830853 3.71166e-07 1.19694e-07
3.71166e-07 -3.70918e-05 2.44856e-09
1.19694e-07 2.44856e-09 -3.57348e-05
0.00212692 -9.7238e-07 5.97566e-08
-9.7238e-07 0.000642354 3.88367e-06
5.97566e-08 3.88367e-06 0.000666074
0.000849019 -3.2815e-06 -5.16712e-07
-3.2815e-06 -2.70088e-05 -4.16421e-06
-5.16712e-07 -4.16421e-06 -2.56341e-05
0.00156918 -5.15044e-06 -1.88807e-07
-5.15044e-06 0.000350347 1.6545e-08
-1.88807e-07 1.6545e-08 0.000371353
0.000979806 -8.57601e-06 -7.79777e-07
-8.57601e-06 4.24071e-05 -1.46968e-06
-7.79777e-07 -1.46968e-06 6.09681e-05
0.000894744 3.39113e-06 7.24236e-08
3.39113e-06 4.08812e-06 -1.62072e-06
7.24236e-08 -1.62072e-06 -1.78407e-05
0.000889845 6.46705e-06 2.55474e-08
6.46705e-06 2.595e-06 1.37319e-09
2.55474e-08 1.37319e-09 -2.04928e-05
0.000826226 8.56856e-06 4.26643e-07
8.56856e-06 -3.82858e-05 -3.01942e-06
4.26643e-07 -3.01942e-06 -3.57273e-05
0.000890443 9.51065e-06 -5.44869e-07
9.51065e-06 4.29788e-06 1.62244e-06
-5.44869e-07 1.62244e-06 -2.04829e-05
0.00109197 1.37777e-05 -2.05689e-07
1.37777e-05 0.00010365 -5.94906e-07
-2.05689e-07 -5.94906e-07 0.000106219
0.00209893 1.6566e-05 8.8076e-06
1.6566e-05 0.000632202 -3.8114e-06
8.8076e-06 -3.8114e-06 0.000655431
0.000831293 1.6777e-05 -1.22149e-06
1.6777e-05 -2.85533e-05 3.13235e-06
-1.22149e-06 3.13235e-06 -2.93182e-05
0.00216037 2.1692e-05 -4.77063e-06
2.1692e-05 0.000669026 1.09283e-06
-4.77063e-06 1.09283e-06 0.000690911
0.00219294 2.78917e-05 -1.61363e-05
2.78917e-05 0.000691066 3.83058e-06
-1.61363e-05 3.83058e-06 0.000711485
0.00159084 -2.49304e-06 2.52214e-08
-2.49304e-06 3.08565e-05 1.34071e-07
2.52214e-08 1.34071e-07 -5.68759e-05
0.0017349 7.60577e-06 -1.74542e-09
7.60577e-06 9.97991e-05 -2.90499e-07
-1.74542e-09 -2.90499e-07 3.44362e-06
0.00180811 -1.1319e-05 9.86309e-07
-1.1319e-05 0.000132221 -8.74569e-07
9.86309e-07 -8.74569e-07 4.43088e-05
0.00162164 -3.44701e-05 -5.7257e-07
-3.44701e-05 -2.07332e-05 2.74526e-07
-5.7257e-07 2.74526e-07 -6.31343e-05
0.00178673 7.51139e-06 -6.81735e-07
7.51139e-06 0.000118447 1.72034e-07
-6.81735e-07 1.72034e-07 3.30454e-05
0.00162531 1.96518e-06 8.40182e-07
1.96518e-06 -1.21726e-05 5.49759e-07
8.40182e-07 5.49759e-07 -9.20364e-05
0.00205107 2.33548e-05 1.81185e-06
2.33548e-05 0.000183791 7.71197e-07
1.81185e-06 7.71197e-07 9.24514e-05
0.00255492 -0.000126674 0.000134991
-0.000126674 0.000385567 2.82376e-05
0.000134991 2.82376e-05 0.000167742
0.00110885 -3.94771e-05 -7.29246e-06
-3.94771e-05 -0.000246469 3.45868e-07
-7.29246e-06 3.45868e-07 -0.000308627
0.000921689 1.15116e-05 -5.45491e-07
1.15116e-05 3.18647e-05 -8.05014e-07
-5.45491e-07 -8.05014e-07 -7.34858e-06
0.00092209 -1.42534e-05 4.91021e-07
-1.42534e-05 3.25523e-05 -2.58404e-08
4.91021e-07 -2.58404e-08 -7.55821e-06
0.000924294 -1.91397e-05 -1.75173e-07
-1.91397e-05 4.35617e-05 -1.02128e-07
-1.75173e-07 -1.02128e-07 -7.82813e-06
0.000927927 -2.29106e-05 -5.66133e-07
-2.29106e-05 5.16141e-05 1.58389e-08
-5.66133e-07 1.58389e-08 -2.60333e-06
0.00186297 1.82408e-05 1.45276e-06
1.82408e-05 0.00015899 -7.5066e-07
1.45276e-06 -7.5066e-07 7.66886e-05
0.00183027 -2.53923e-05 2.13691e-06
-2.53923e-05 9.84053e-05 4.8395e-07
2.13691e-06 4.8395e-07 1.15995e-05
0.00155603 -9.73865e-05 -4.02092e-06
-9.73865e-05 -3.90191e-05 1.38104e-06
-4.02092e-06 1.38104e-06 -9.55055e-05
0.000729241 -6.70848e-05 8.49861e-07
-6.70848e-05 -6.92e-05 2.10022e-06
8.49861e-07 2.10022e-06 -0.00015828
0.00062021 -8.19137e-05 1.87245e-06
-8.19137e-05 -0.000121755 5.10859e-07
1.87245e-06 5.10859e-07 -0.000278141
0.00143278 -0.000121268 -1.36606e-06
-0.000121268 8.14268e-05 -1.07763e-06
-1.36606e-06 -1.07763e-06 -2.45779e-05
0.000806739 -7.45252e-05 -4.74821e-06
-7.45252e-05 -1.02788e-05 1.01411e-07
-4.74821e-06 1.01411e-07 -0.000101537
0.00106364 -3.85179e-05 -7.93621e-07
-3.85179e-05 0.000138347 -6.18796e-07
-7.93621e-07 -6.18796e-07 3.7822e-05
0.00107398 -4.21549e-05 -5.5288e-07
-4.21549e-05 0.000132639 1.0468e-06
-5.5288e-07 1.0468e-06 4.60231e-05
0.000913147 2.49972e-07 -8.41324e-07
2.49972e-07 3.0369e-05 1.07359e-06
-8.41324e-07 1.07359e-06 -1.5786e-05
0.000981182 -3.32152e-05 -1.40658e-07
-3.32152e-05 7.86973e-05 1.67411e-07
-1.40658e-07 1.67411e-07 2.88959e-06
0.00101669 1.02709e-05 -6.51999e-07
1.02709e-05 9.18122e-05 7.76366e-07
-6.51999e-07 7.76366e-07 2.95509e-05
0.000926039 -4.43014e-06 -1.52273e-08
-4.43014e-06 3.53496e-05 3.22652e-07
-1.52273e-08 3.22652e-07 -6.08859e-06
0.000772081 1.72329e-05 1.61191e-07
1.72329e-05 -3.16873e-05 1.16059e-06
1.61191e-07 1.16059e-06 -9.10481e-05
0.00173622 1.09028e-05 -8.90125e-07
1.09028e-05 7.87567e-05 7.41115e-07
-8.90125e-07 7.41115e-07 -1.31781e-06
0.000925609 1.01914e-05 3.42702e-07
1.01914e-05 4.57917e-05 -5.0078e-07
3.42702e-07 -5.0078e-07 -8.84771e-06
0.000893273 1.00748e-05 4.83649e-07
1.00748e-05 3.14464e-05 9.01173e-09
4.83649e-07 9.01173e-09 -2.98955e-05
0.000986582 3.24233e-05 -2.41123e-07
3.24233e-05 8.05204e-05 8.70762e-07
-2.41123e-07 8.70762e-07 1.35447e-05
0.0020604 -6.16249e-05 -3.59834e-06
-6.16249e-05 0.000154626 4.54318e-07
-3.59834e-06 4.54318e-07 9.14406e-05
0.00158527 -0.000124748 -6.28485e-07
-0.000124748 -6.25059e-06 -8.24943e-07
-6.28485e-07 -8.24943e-07 -8.65738e-05
0.000989398 -8.75027e-05 1.42922e-08
-8.75027e-05 8.33376e-05 -3.08353e-07
1.42922e-08 -3.08353e-07 -3.38405e-05
0.0016715 -0.000132662 -2.2766e-08
-0.000132662 0.000330832 -9.21892e-07
-2.2766e-08 -9.21892e-07 0.000184908
0.00102767 -1.62369e-05 -3.40787e-07
-1.62369e-05 0.000103365 9.21047e-08
-3.40787e-07 9.21047e-08 3.15344e-05
0.00099575 -1.73378e-05 4.67239e-08
-1.73378e-05 8.81291e-05 7.22027e-07
4.67239e-08 7.22027e-07 8.59852e-06
0.000933436 -6.06203e-05 2.52453e-06
-6.06203e-05 8.77704e-05 -6.73956e-07
2.52453e-06 -6.73956e-07 -2.93972e-05
0.00108959 -4.20982e-05 1.4311e-07
-4.20982e-05 0.000151479 -6.78961e-07
1.4311e-07 -6.78961e-07 5.43159e-05
0.00166121 7.56456e-06 9.48421e-07
7.56456e-06 -7.29363e-06 1.40504e-06
9.48421e-07 1.40504e-06 -8.27771e-05
0.0026518 -0.000138631 1.06063e-05
-0.000138631 0.000382352 -3.49706e-06
1.06063e-05 -3.49706e-06 0.000312009
0.00201821 -0.000145684 1.88852e-06
-0.000145684 0.000384769 -3.55879e-06
1.88852e-06 -3.55879e-06 0.00024851
0.00116038 -0.000105369 -1.16028e-06
-0.000105369 0.000179603 -7.5366e-08
-1.16028e-06 -7.5366e-08 4.74091e-05
0.000895089 1.88768e-05 -6.86196e-07
1.88768e-05 3.63781e-05 -2.23704e-07
-6.86196e-07 -2.23704e-07 -3.48052e-05
0.000928769 -3.90661e-05 9.37805e-07
-3.90661e-05 5.6958e-05 -9.20044e-07
9.37805e-07 -9.20044e-07 -1.52272e-05
0.000991696 -3.89594e-05 4.63296e-07
-3.89594e-05 8.82814e-05 -4.13408e-07
4.63296e-07 -4.13408e-07 6.1738e-06
0.00103127 -1.75223e-05 -1.30087e-06
-1.75223e-05 0.000133305 4.36085e-07
-1.30087e-06 4.36085e-07 9.80521e-06
0.000208615 -1.58746e-05 -5.99115e-06
-1.58746e-05 -0.000746005 -2.8608e-06
-5.99115e-06 -2.8608e-06 -0.00124859
0.00105686 3.50182e-05 -2.38064e-07
3.50182e-05 0.000119253 -6.94356e-07
-2.38064e-07 -6.94356e-07 3.5408e-05
0.000948711 6.92201e-05 7.06816e-07
6.92201e-05 6.52942e-05 2.00442e-07
7.06816e-07 2.00442e-07 -3.462e-05
0.00110093 3.59482e-05 9.10996e-08
3.59482e-05 -0.000320668 -2.54292e-07
9.10996e-08 -2.54292e-07 -0.000384463
0.00167551 0.000112454 -4.06062e-06
0.000112454 -1.72666e-05 9.77758e-07
-4.06062e-06 9.77758e-07 -7.56736e-05
0.00151128 0.000121406 -2.76251e-06
0.000121406 0.000247123 5.5964e-07
-2.76251e-06 5.5964e-07 9.23642e-05
0.000864962 7.63894e-05 1.09792e-06
7.63894e-05 2.58788e-05 2.58367e-07
1.09792e-06 2.58367e-07 -0.000101079
0.00257702 1.47505e-05 -8.45642e-06
1.47505e-05 0.000390984 1.30638e-06
-8.45642e-06 1.30638e-06 0.000339349
0.00106156 5.20283e-05 1.37253e-07
5.20283e-05 0.000119424 -2.8995e-07
1.37253e-07 -2.8995e-07 2.74588e-05
0.00184047 0.000104034 -2.06379e-06
0.000104034 5.22633e-06 -1.28051e-06
-2.06379e-06 -1.28051e-06 -1.7758e-05
0.00108692 8.21747e-05 7.37647e-07
8.21747e-05 0.000140445 -1.75016e-07
7.37647e-07 -1.75016e-07 3.50372e-05
0.00104209 9.29373e-05 -2.04373e-07
9.29373e-05 0.000125183 -1.61803e-07
-2.04373e-07 -1.61803e-07 -2.76688e-05
0.000759668 0.000129307 -3.46582e-06
0.000129307 -0.000279531 1.82076e-07
-3.46582e-06 1.82076e-07 -0.000399705
0.0018132 -0.000147951 -1.95112e-05
-0.000147951 1.83492e-05 -6.58304e-06
-1.95112e-05 -6.58304e-06 -0.000486588
0.00292476 -0.000116769 7.71608e-06
-0.000116769 0.000162744 -9.68208e-06
7.71608e-06 -9.68208e-06 -0.000216181
0.00112069 0.000131966 2.65264e-06
0.000131966 -0.000214396 8.86385e-07
2.65264e-06 8.86385e-07 -0.000142546
-0.000937647 -0.000224601 3.6077e-06
-0.000224601 -0.00050505 -9.10262e-07
3.6077e-06 -9.10262e-07 -0.000566739
0.000457222 -0.00033943 6.58642e-06
-0.00033943 -0.000757999 1.29137e-06
6.58642e-06 1.29137e-06 3.60418e-05
0.00112383 6.2833e-05 3.52255e-07
6.2833e-05 0.000154972 -3.05449e-07
3.52255e-07 -3.05449e-07 6.34157e-05
-5.93351e-05 3.99577e-05 -9.1595e-05
3.99577e-05 -0.000146719 -1.74575e-05
-9.1595e-05 -1.74575e-05 -0.00035023
0.00171236 -0.000194044 -1.98525e-05
-0.000194044 0.000532744 -1.35101e-05
-1.98525e-05 -1.35101e-05 0.000876321
0.00123746 0.0001298 6.35156e-07
0.0001298 -0.000225171 -4.24843e-07
6.35156e-07 -4.24843e-07 -0.00020023
0.000879944 3.46455e-05 -3.65569e-07
3.46455e-05 4.65194e-05 -3.17784e-07
-3.65569e-07 -3.17784e-07 -6.95805e-05
0.00142559 8.60031e-05 -5.30395e-06
8.60031e-05 0.000356518 9.63769e-07
-5.30395e-06 9.63769e-07 0.000166347
0.00148104 0.000171736 4.14512e-06
0.000171736 0.000106791 1.19873e-05
4.14512e-06 1.19873e-05 0.000101192
0.0060985 -0.000266527 -6.26692e-05
-0.000266527 0.00188742 -1.84706e-05
-6.26692e-05 -1.84706e-05 0.00104474
0.00168695 -8.46051e-06 1.75919e-05
-8.46051e-06 -0.000547054 2.29007e-05
1.75919e-05 2.29007e-05 -0.00101118
-0.000176957 -0.000325288 -5.25657e-05
-0.000325288 -0.000241638 -2.21464e-05
-5.25657e-05 -2.21464e-05 -5.50444e-05
4.38585e-05 -0.000154994 -1.77706e-05
-0.000154994 -0.00130583 -5.16601e-07
-1.77706e-05 -5.16601e-07 -0.000878122
0.00102309 2.43731e-05 -2.55657e-07
2.43731e-05 9.60251e-05 -8.04581e-07
-2.55657e-07 -8.04581e-07 1.32073e-05
0.00104936 3.91062e-05 -3.96816e-07
3.91062e-05 0.000104161 1.10957e-07
-3.96816e-07 1.10957e-07 1.98314e-05
0.00121364 6.29284e-05 -4.36146e-07
6.29284e-05 0.000187283 -3.19825e-07
-4.36146e-07 -3.19825e-07 0.000103081
0.00091193 2.22584e-06 1.4352e-08
2.22584e-06 2.65564e-05 -4.47666e-07
1.4352e-08 -4.47666e-07 -1.84987e-05
0.000969565 -1.45635e-05 -1.60026e-08
-1.45635e-05 6.3496e-05 -5.8131e-07
-1.60026e-08 -5.8131e-07 7.20935e-06
0.000922715 -1.5611e-06 -4.24405e-08
-1.5611e-06 3.84383e-05 -9.13805e-07
-4.24405e-08 -9.13805e-07 -2.50093e-05
0.000981289 6.85106e-06 1.33797e-07
6.85106e-06 7.51969e-05 -3.49645e-07
1.33797e-07 -3.49645e-07 5.47179e-06
0.00096657 1.1832e-05 -5.56116e-08
1.1832e-05 6.70419e-05 -3.87178e-07
-5.56116e-08 -3.87178e-07 -1.22375e-05
0.000783105 -6.55729e-06 2.99599e-07
-6.55729e-06 -4.27113e-05 3.76226e-07
2.99599e-07 3.76226e-07 -8.76958e-05
0.000929547 1.64313e-05 -1.15001e-07
1.64313e-05 4.99233e-05 -3.6474e-07
-1.15001e-07 -3.6474e-07 -1.7663e-05
0.000990296 -1.16307e-05 -2.41285e-07
-1.16307e-05 7.11225e-05 3.93768e-07
-2.41285e-07 3.93768e-07 7.93559e-06
0.000921267 1.41121e-05 2.85628e-07
1.41121e-05 3.58525e-05 -1.68631e-07
2.85628e-07 -1.68631e-07 -2.0519e-05
0.00100207 3.11411e-05 -3.1215e-08
3.11411e-05 8.51124e-05 1.14125e-07
-3.1215e-08 1.14125e-07 8.98622e-06
0.000926349 1.29125e-05 2.2702e-07
1.29125e-05 3.86499e-05 4.00072e-07
2.2702e-07 4.00072e-07 -3.09285e-05
0.00110611 4.47122e-05 -3.00395e-07
4.47122e-05 0.000138376 1.39199e-07
-3.00395e-07 1.39199e-07 5.83844e-05
0.000986027 -4.88719e-05 -2.37925e-07
-4.88719e-05 6.82784e-05 1.83125e-07
-2.37925e-07 1.83125e-07 6.57135e-06
0.00100174 -3.08803e-05 -4.20938e-07
-3.08803e-05 7.6028e-05 -1.21823e-07
-4.20938e-07 -1.21823e-07 2.04771e-05
0.000993233 -1.9464e-06 -2.59474e-07
-1.9464e-06 7.21104e-05 -5.16915e-08
-2.59474e-07 -5.16915e-08 1.78682e-05
0.000976366 3.82128e-05 -2.24132e-07
3.82128e-05 6.53125e-05 -3.23035e-07
-2.24132e-07 -3.23035e-07 4.39457e-06
0.000974092 2.37164e-05 1.53634e-07
2.37164e-05 6.41923e-05 3.79891e-07
1.53634e-07 3.79891e-07 2.2168e-06
0.000957508 2.74156e-05 1.1204e-07
2.74156e-05 5.61287e-05 6.86596e-07
1.1204e-07 6.86596e-07 -5.31484e-06
0.00106772 3.65945e-05 -7.86916e-08
3.65945e-05 0.00010849 -2.35031e-08
-7.86916e-08 -2.35031e-08 4.31187e-05
0.000920246 -1.72407e-06 4.15754e-07
-1.72407e-06 4.82e-05 1.42477e-06
4.15754e-07 1.42477e-06 -2.27279e-05
0.000918957 1.32362e-05 -7.995e-08
1.32362e-05 3.53018e-05 6.38934e-07
-7.995e-08 6.38934e-07 -1.94611e-05
0.000920625 4.51607e-06 4.58571e-10
4.51607e-06 3.77261e-05 -4.55796e-08
4.58571e-10 -4.55796e-08 -1.6477e-05
0.000911287 4.55738e-06 -8.12225e-07
4.55738e-06 2.45119e-05 6.45037e-07
-8.12225e-07 6.45037e-07 -1.78374e-05
0.000863409 1.92484e-05 1.37684e-07
1.92484e-05 4.77843e-06 -5.73542e-07
1.37684e-07 -5.73542e-07 -4.82542e-05
0.000863072 -7.29147e-06 1.06639e-07
-7.29147e-06 -1.81442e-06 1.83403e-08
1.06639e-07 1.83403e-08 -4.46822e-05
0.000882833 1.10653e-05 -3.81013e-07
1.10653e-05 1.36384e-06 1.62426e-06
-3.81013e-07 1.62426e-06 -2.41405e-05
0.000802415 4.53178e-06 3.35602e-07
4.53178e-06 -3.2104e-05 -3.75021e-07
3.35602e-07 -3.75021e-07 -7.70408e-05
0.000880067 4.63876e-06 -1.62846e-07
4.63876e-06 -4.27166e-07 -7.77828e-09
-1.62846e-07 -7.77828e-09 -2.57038e-05
0.0013996 8.81759e-06 -2.60824e-06
8.81759e-06 0.000263218 4.12486e-06
-2.60824e-06 4.12486e-06 0.000266839
0.000872811 -4.87399e-06 5.60923e-07
-4.87399e-06 -4.05227e-06 -1.56238e-06
5.60923e-07 -1.56238e-06 -2.92591e-05
0.00111556 4.55471e-06 -1.06461e-06
4.55471e-06 0.000112903 5.98334e-07
-1.06461e-06 5.98334e-07 0.000115416
0.00103294 2.53383e-06 -2.28122e-06
2.53383e-06 6.88554e-05 3.78146e-06
-2.28122e-06 3.78146e-06 8.69783e-05
0.000833909 3.54232e-07 1.71518e-08
3.54232e-07 -3.54979e-05 -2.94409e-06
1.71518e-08 -2.94409e-06 -3.41572e-05
0.00212666 -6.48347e-07 1.58309e-06
-6.48347e-07 0.000642216 4.27647e-10
1.58309e-06 4.27647e-10 0.00066593
0.00103325 -3.44303e-06 -1.32997e-06
-3.44303e-06 6.9127e-05 -3.77528e-06
-1.32997e-06 -3.77528e-06 8.74272e-05
0.000912041 3.05166e-05 2.00014e-07
3.05166e-05 2.89712e-05 -2.40568e-07
2.00014e-07 -2.40568e-07 -1.1724e-05
0.000896664 -6.28486e-08 2.83499e-08
-6.28486e-08 4.97966e-06 -1.62146e-06
2.83499e-08 -1.62146e-06 -1.65557e-05
0.000894399 2.82517e-06 -5.04597e-08
2.82517e-06 3.82036e-06 -1.38051e-09
-5.04597e-08 -1.38051e-09 -1.80943e-05
0.000834694 4.30064e-06 1.40652e-07
4.30064e-06 -3.57944e-05 -2.99953e-06
1.40652e-07 -2.99953e-06 -3.2261e-05
0.000888832 5.96503e-06 -3.0508e-07
5.96503e-06 1.80604e-06 1.55801e-06
-3.0508e-07 1.55801e-06 -2.12388e-05
0.000828173 8.68076e-06 6.02718e-08
8.68076e-06 -3.75738e-05 -6.08343e-07
6.02718e-08 -6.08343e-07 -3.49422e-05
0.002065 1.09455e-05 5.83005e-06
1.09455e-05 0.000611799 -3.82537e-06
5.83005e-06 -3.82537e-06 0.000635886
0.00135758 1.58282e-05 -1.2811e-06
1.58282e-05 0.000243218 1.87962e-06
-1.2811e-06 1.87962e-06 0.000246922
0.00157713 1.44916e-05 2.93106e-07
1.44916e-05 0.00035953 1.18642e-06
2.93106e-07 1.18642e-06 0.000379696
0.00107365 1.65014e-05 -1.24485e-05
1.65014e-05 9.98197e-05 6.24823e-06
-1.24485e-05 6.24823e-06 0.000116007
-0.000162986 -3.05621e-06 2.33417e-06
-3.05621e-06 -0.000903289 1.69834e-06
2.33417e-06 1.69834e-06 -0.000939201
0.00200548 6.30796e-06 2.24101e-07
6.30796e-06 0.000223795 4.55544e-07
2.24101e-07 4.55544e-07 0.000138609
0.00167743 8.85611e-06 -3.62021e-06
8.85611e-06 2.86135e-05 -2.03247e-06
-3.62021e-06 -2.03247e-06 -5.3372e-05
0.00106507 -6.92262e-05 3.195e-05
-6.92262e-05 -0.000156348 4.656e-06
3.195e-05 4.656e-06 -0.000349542
0.00162471 -3.74102e-05 -2.874e-06
-3.74102e-05 4.84967e-05 -4.25444e-07
-2.874e-06 -4.25444e-07 -2.19094e-05
0.00176419 2.36576e-05 -2.84571e-06
2.36576e-05 3.22491e-05 -2.04138e-06
-2.84571e-06 -2.04138e-06 -5.76898e-05
0.00161357 4.18408e-05 -5.37457e-06
4.18408e-05 9.55081e-05 7.24519e-07
-5.37457e-06 7.24519e-07 2.1134e-05
0.00146924 -6.09295e-05 0.000115282
-6.09295e-05 2.63773e-05 3.51024e-06
0.000115282 3.51024e-06 -0.000241697
0.00555214 0.000113545 -2.02892e-05
0.000113545 0.0016325 -1.95236e-06
-2.02892e-05 -1.95236e-06 0.000911563
0.00368702 0.000388622 -3.20888e-05
0.000388622 0.00153398 1.41035e-05
-3.20888e-05 1.41035e-05 0.00168253
0.00139507 0.000326814 -1.37603e-05
0.000326814 5.09612e-05 5.6854e-06
-1.37603e-05 5.6854e-06 0.000724939
0.000757184 -2.46177e-05 1.07777e-06
-2.46177e-05 -3.95806e-05 -7.12439e-07
1.07777e-06 -7.12439e-07 -9.2739e-05
0.000926339 -9.75998e-06 1.19194e-07
-9.75998e-06 3.46831e-05 -1.40453e-08
1.19194e-07 -1.40453e-08 -4.82079e-06
0.000924997 -3.61049e-05 -7.44902e-07
-3.61049e-05 3.55045e-05 8.04169e-07
-7.44902e-07 8.04169e-07 -5.70423e-06
0.000873375 -2.44209e-06 -2.9211e-07
-2.44209e-06 1.85541e-05 1.7583e-08
-2.9211e-07 1.7583e-08 -3.39845e-05
0.000959911 3.86942e-05 9.60952e-08
3.86942e-05 7.14206e-05 6.47653e-07
9.60952e-08 6.47653e-07 8.23621e-06
0.000967586 4.44098e-05 1.82388e-07
4.44098e-05 7.1417e-05 5.58744e-07
1.82388e-07 5.58744e-07 1.11115e-05
0.000969018 -1.30903e-05 6.55564e-07
-1.30903e-05 7.12355e-05 -9.59298e-07
6.55564e-07 -9.59298e-07 1.62839e-05
0.00087296 -3.66795e-05 -4.8726e-07
-3.66795e-05 2.11267e-05 4.6879e-07
-4.8726e-07 4.6879e-07 -3.23107e-05
0.00162351 9.22262e-06 -6.88298e-07
9.22262e-06 2.90655e-05 -1.94704e-07
-6.88298e-07 -1.94704e-07 -5.04185e-05
0.00163489 -5.9408e-05 -2.01969e-06
-5.9408e-05 -6.04451e-05 7.86238e-07
-2.01969e-06 7.86238e-07 -0.000127386
0.00113954 -0.000110932 -7.41685e-06
-0.000110932 -0.000217738 1.27947e-06
-7.41685e-06 1.27947e-06 -0.000296448
0.000975863 -8.75842e-05 5.94425e-07
-8.75842e-05 6.79468e-05 9.39542e-07
5.94425e-07 9.39542e-07 -4.71705e-05
0.00160295 -0.000131334 4.28277e-07
-0.000131334 0.000301377 1.16668e-06
4.28277e-07 1.16668e-06 0.000147562
0.000953635 -6.11576e-05 -4.75734e-09
-6.11576e-05 9.23505e-05 -7.45375e-07
-4.75734e-09 -7.45375e-07 -2.03274e-05
0.00122674 -5.82211e-05 2.87538e-07
-5.82211e-05 0.000222854 -2.96362e-07
2.87538e-07 -2.96362e-07 0.000122146
0.000914269 -2.45894e-05 -3.72769e-07
-2.45894e-05 4.84671e-05 4.22611e-07
-3.72769e-07 4.22611e-07 -3.1631e-05
0.000926151 1.40676e-06 2.52903e-07
1.40676e-06 4.79919e-05 7.33943e-07
2.52903e-07 7.33943e-07 -1.22001e-05
0.00108157 -4.56708e-06 -6.26354e-07
-4.56708e-06 0.000129225 4.40961e-07
-6.26354e-07 4.40961e-07 5.88284e-05
0.00111108 2.93491e-06 1.46889e-07
2.93491e-06 0.000140121 1.42348e-08
1.46889e-07 1.42348e-08 8.75905e-05
0.00088284 5.37173e-05 9.79126e-07
5.37173e-05 2.64007e-05 1.56338e-06
9.79126e-07 1.56338e-06 -4.06098e-05
0.00172568 1.20625e-05 2.42685e-06
1.20625e-05 1.84534e-05 -2.46755e-06
2.42685e-06 -2.46755e-06 -5.59612e-05
0.000910907 1.97527e-05 -3.50016e-07
1.97527e-05 4.51572e-05 3.63052e-07
-3.50016e-07 3.63052e-07 -2.50171e-05
0.00092843 -2.97008e-05 -1.89245e-07
-2.97008e-05 5.5016e-05 -3.71018e-07
-1.89245e-07 -3.71018e-07 -1.63328e-05
0.00218836 -0.00012955 -3.80425e-06
-0.00012955 0.000157274 -8.0845e-07
-3.80425e-06 -8.0845e-07 9.19002e-05
0.000868685 -0.000110967 7.5464e-07
-0.000110967 -0.000173051 2.07601e-06
7.5464e-07 2.07601e-06 -0.000302967
0.00123079 -0.00010958 1.24595e-06
-0.00010958 0.00021301 -8.24252e-07
1.24595e-06 -8.24252e-07 7.5827e-05
0.00099752 -3.77729e-05 1.1914e-07
-3.77729e-05 9.00415e-05 -1.34223e-07
1.1914e-07 -1.34223e-07 6.36041e-06
0.00107319 -2.81114e-05 3.1165e-08
-2.81114e-05 0.00015443 2.57608e-07
3.1165e-08 2.57608e-07 3.05323e-05
0.00294872 -6.98508e-05 -8.02632e-06
-6.98508e-05 0.000625434 9.12367e-06
-8.02632e-06 9.12367e-06 0.000571129
0.00304859 -0.000210172 8.61418e-06
-0.000210172 0.000757762 -4.19979e-06
8.61418e-06 -4.19979e-06 0.000622882
0.000284759 -9.27503e-05 -2.67361e-06
-9.27503e-05 -0.0002853 -1.68422e-06
-2.67361e-06 -1.68422e-06 -0.000424459
0.00123099 -7.38685e-05 -1.42113e-06
-7.38685e-05 0.000243902 1.31747e-06
-1.42113e-06 1.31747e-06 8.96873e-05
0.000817765 -4.92933e-05 6.22274e-07
-4.92933e-05 -1.79944e-07 -1.53798e-07
6.22274e-07 -1.53798e-07 -7.66273e-05
0.00101199 -3.92222e-05 1.47991e-06
-3.92222e-05 9.55628e-05 -5.11967e-07
1.47991e-06 -5.11967e-07 1.36331e-05
0.00116065 -1.91529e-05 -6.62052e-07
-1.91529e-05 0.000174986 1.48366e-07
-6.62052e-07 1.48366e-07 7.64295e-05
-0.00141962 -1.79248e-05 -5.71788e-05
-1.79248e-05 -0.000817023 -1.0295e-06
-5.71788e-05 -1.0295e-06 -0.000760026
0.00615292 -1.76071e-05 -2.32972e-05
-1.76071e-05 0.00207085 -2.5615e-06
-2.32972e-05 -2.5615e-06 0.00153325
0.00106133 5.59743e-05 4.41482e-07
5.59743e-05 0.000123082 -1.79353e-07
4.41482e-07 -1.79353e-07 3.09688e-05
0.000873001 7.34023e-05 1.27333e-06
7.34023e-05 3.59693e-05 -1.18905e-06
1.27333e-06 -1.18905e-06 -6.90362e-05
0.00169522 0.000102362 -8.59793e-06
0.000102362 -7.33294e-05 3.17428e-06
-8.59793e-06 3.17428e-06 -9.37025e-05
0.00138989 0.000148356 -2.88248e-06
0.000148356 1.02e-05 1.32656e-07
-2.88248e-06 1.32656e-07 -0.000102107
0.00106852 9.48594e-05 1.42288e-06
9.48594e-05 0.000140105 -1.56872e-06
1.42288e-06 -1.56872e-06 -1.07807e-05
0.00536316 -2.57785e-05 2.79794e-05
-2.57785e-05 0.00154248 -8.63084e-06
2.79794e-05 -8.63084e-06 0.000900504
0.00283822 -0.000140059 -5.88885e-05
-0.000140059 0.000153524 -1.52531e-05
-5.88885e-05 -1.52531e-05 -0.000132352
0.00114193 0.000115692 -5.63051e-06
0.000115692 -0.000198539 -8.39856e-06
-5.63051e-06 -8.39856e-06 -0.000127965
0.00279477 -0.000325151 3.03735e-05
-0.000325151 0.0012987 1.79218e-05
3.03735e-05 1.79218e-05 0.00132713
-0.0010176 -0.00036951 1.98841e-05
-0.00036951 -0.00157158 -1.32276e-06
1.98841e-05 -1.32276e-06 -0.000703272
0.00104305 6.85932e-05 -3.38125e-08
6.85932e-05 0.000113252 -2.42457e-07
-3.38125e-08 -2.42457e-07 2.11522e-05
-0.0015857 -8.55765e-05 -6.58037e-06
-8.55765e-05 -0.000893596 -1.26014e-06
-6.58037e-06 -1.26014e-06 -0.000775319
0.000543697 -0.000180531 -6.78947e-06
-0.000180531 -1.53211e-06 -5.56515e-07
-6.78947e-06 -5.56515e-07 0.000218455
0.00193325 0.000141467 -2.08999e-08
0.000141467 0.000118702 2.08704e-07
-2.08999e-08 2.08704e-07 0.000133719
0.0010333 5.40574e-05 -2.3347e-07
5.40574e-05 0.000132213 -1.01095e-06
-2.3347e-07 -1.01095e-06 1.90733e-05
0.00102881 8.62044e-05 2.7768e-07
8.62044e-05 0.000158978 3.40477e-07
2.7768e-07 3.40477e-07 -2.98772e-05
0.000510613 0.000123303 5.38588e-06
0.000123303 -0.000368452 1.45414e-06
5.38588e-06 1.45414e-06 -0.000355646
0.00463377 -0.000175676 4.24666e-06
-0.000175676 0.00109694 3.64242e-06
4.24666e-06 3.64242e-06 0.000195401
0.00292692 4.54613e-05 -2.03621e-05
4.54613e-05 0.000212385 -1.3663e-05
-2.03621e-05 -1.3663e-05 -2.86178e-05
0.00332293 -0.000445601 8.2485e-06
-0.000445601 0.00114227 -7.15391e-07
8.2485e-06 -7.15391e-07 0.00119587
0.000205198 -0.000196461 4.07317e-06
-0.000196461 -0.00136448 1.15162e-05
4.07317e-06 1.15162e-05 -0.000775097
0.00110914 2.94244e-05 -2.06201e-06
2.94244e-05 0.000130363 -1.0189e-06
-2.06201e-06 -1.0189e-06 4.22705e-05
-0.000313799 -4.48551e-05 -2.0803e-05
-4.48551e-05 -0.000323057 -4.37617e-06
-2.0803e-05 -4.37617e-06 -0.000400626
0.00128706 -1.57731e-05 -1.53999e-05
-1.57731e-05 2.96933e-05 -1.5799e-05
-1.53999e-05 -1.5799e-05 -1.53023e-05
0.000387334 0.000132471 -7.38352e-07
0.000132471 -0.000289333 -3.20485e-06
-7.38352e-07 -3.20485e-06 -0.000420634
0.00183337 7.44384e-05 -7.45693e-06
7.44384e-05 0.000600839 -1.13784e-08
-7.45693e-06 -1.13784e-08 0.000454418
0.00389994 -4.59228e-05 -9.23072e-06
-4.59228e-05 0.00168864 -1.70591e-06
-9.23072e-06 -1.70591e-06 0.00164146
0.00169509 0.000230117 -7.11307e-05
0.000230117 -5.84587e-05 9.77209e-06
-7.11307e-05 9.77209e-06 -0.000316868
0.000958669 -0.000268595 1.15742e-05
-0.000268595 -0.000370124 1.44909e-05
1.15742e-05 1.44909e-05 -0.00146734
0.00508877 -0.000451784 -4.8277e-05
-0.000451784 0.00132297 -1.30508e-05
-4.8277e-05 -1.30508e-05 0.00145655
0.000673105 -7.24681e-05 -7.30993e-07
-7.24681e-05 -0.000825841 -6.75764e-06
-7.30993e-07 -6.75764e-06 -0.000596719
0.00102363 4.49504e-05 2.59596e-07
4.49504e-05 9.3831e-05 6.02817e-07
2.59596e-07 6.02817e-07 8.7272e-06
0.00108679 5.76092e-05 1.01028e-06
5.76092e-05 0.000121878 4.66504e-07
1.01028e-06 4.66504e-07 3.73015e-05
0.000626952 5.35148e-05 1.32493e-06
5.35148e-05 -9.35641e-05 -4.12493e-07
1.32493e-06 -4.12493e-07 -0.000181644
0.00080235 1.48109e-05 2.13266e-07
1.48109e-05 -3.25501e-05 -4.39131e-07
2.13266e-07 -4.39131e-07 -7.78874e-05
0.000989772 2.45338e-05 -1.8309e-07
2.45338e-05 7.23027e-05 -4.11711e-07
-1.8309e-07 -4.11711e-07 1.5776e-05
0.00113031 -3.39351e-05 2.16028e-07
-3.39351e-05 0.000144975 -9.08225e-08
2.16028e-07 -9.08225e-08 8.14486e-05
0.000911056 1.0925e-05 -3.34477e-07
1.0925e-05 4.12749e-05 -4.62522e-07
-3.34477e-07 -4.62522e-07 -2.57056e-05
0.000956671 2.88948e-05 -2.88097e-07
2.88948e-05 6.0975e-05 -4.77729e-08
-2.88097e-07 -4.77729e-08 -1.56099e-05
0.000983252 8.87501e-06 3.49025e-07
8.87501e-06 6.77266e-05 -3.63736e-07
3.49025e-07 -3.63736e-07 1.15681e-05
0.000973089 9.44538e-06 -9.7081e-08
9.44538e-06 6.5296e-05 -2.13494e-07
-9.7081e-08 -2.13494e-07 -4.01431e-06
0.000959343 -3.03461e-05 1.47639e-07
-3.03461e-05 5.44993e-05 -8.77015e-08
1.47639e-07 -8.77015e-08 -7.13608e-06
0.00105587 3.38758e-05 -4.31732e-08
3.38758e-05 0.000114637 4.6318e-07
-4.31732e-08 4.6318e-07 3.45865e-05
0.0013153 -1.30632e-05 8.43765e-08
-1.30632e-05 0.000245627 7.3349e-08
8.43765e-08 7.3349e-08 0.000164375
0.0010139 -6.8054e-07 -5.59268e-07
-6.8054e-07 8.12105e-05 6.60413e-07
-5.59268e-07 6.60413e-07 1.1068e-05
0.000985107 3.56475e-06 1.91221e-07
3.56475e-06 6.99133e-05 1.07584e-07
1.91221e-07 1.07584e-07 7.33126e-06
0.00099199 -1.90868e-05 1.91188e-07
-1.90868e-05 7.2918e-05 -3.33426e-07
1.91188e-07 -3.33426e-07 1.77375e-05
0.000885105 1.54622e-05 -2.7385e-07
1.54622e-05 1.52423e-05 -8.56743e-07
-2.7385e-07 -8.56743e-07 -4.47048e-05
0.000966332 3.95583e-06 3.12974e-07
3.95583e-06 6.03273e-05 2.45345e-08
3.12974e-07 2.45345e-08 -1.47643e-06
0.000945162 2.54833e-05 2.05368e-08
2.54833e-05 5.00276e-05 -3.44629e-09
2.05368e-08 -3.44629e-09 -1.13682e-05
0.00101978 2.51121e-05 -4.59766e-07
2.51121e-05 8.07563e-05 -6.71728e-07
-4.59766e-07 -6.71728e-07 1.59616e-05
0.000917985 1.41994e-05 2.57012e-07
1.41994e-05 3.8857e-05 1.2035e-06
2.57012e-07 1.2035e-06 -2.53771e-05
0.00102077 2.77704e-05 3.26129e-07
2.77704e-05 8.43308e-05 1.5192e-07
3.26129e-07 1.5192e-07 1.83603e-05
0.000934341 9.49898e-06 -9.32487e-08
9.49898e-06 3.52397e-05 4.82076e-07
-9.32487e-08 4.82076e-07 -3.23964e-05
0.000944389 -1.45777e-05 6.35193e-07
-1.45777e-05 6.078e-05 1.06372e-07
6.35193e-07 1.06372e-07 -2.03483e-05
0.000809551 -4.76265e-05 -2.23276e-08
-4.76265e-05 1.81072e-05 1.52507e-07
-2.23276e-08 1.52507e-07 -7.53616e-05
0.000818766 -1.40374e-05 -5.79345e-07
-1.40374e-05 2.78677e-06 -2.77531e-08
-5.79345e-07 -2.77531e-08 -7.51358e-05
0.000947405 -1.99604e-06 1.12047e-07
-1.99604e-06 6.26309e-05 3.5711e-07
1.12047e-07 3.5711e-07 -8.48133e-06
0.000932856 2.66709e-06 3.37423e-08
2.66709e-06 4.51321e-05 1.30578e-06
3.37423e-08 1.30578e-06 -1.371e-05
0.000934827 7.54581e-06 -9.31619e-08
7.54581e-06 4.40862e-05 -9.90374e-08
-9.31619e-08 -9.90374e-08 -1.09246e-05
0.000912844 1.82311e-05 -3.86441e-07
1.82311e-05 2.67016e-05 7.41e-07
-3.86441e-07 7.41e-07 -1.63364e-05
0.000926356 1.4902e-05 3.10391e-07
1.4902e-05 3.92842e-05 -4.0981e-07
3.10391e-07 -4.0981e-07 -1.39734e-05
0.000917147 7.51586e-06 2.35867e-08
7.51586e-06 2.711e-05 2.45632e-08
2.35867e-08 2.45632e-08 -1.51239e-05
0.000881882 1.35406e-05 -6.9756e-07
1.35406e-05 2.72996e-06 1.60333e-06
-6.9756e-07 1.60333e-06 -2.33381e-05
0.00079883 1.19151e-05 2.60071e-07
1.19151e-05 -3.58216e-05 -6.52401e-07
2.60071e-07 -6.52401e-07 -7.84834e-05
0.000884983 6.46322e-06 -7.78691e-08
6.46322e-06 2.37053e-06 -8.54668e-09
-7.78691e-08 -8.54668e-09 -2.30987e-05
0.00139637 1.32912e-05 -4.12481e-06
1.32912e-05 0.000263647 4.11936e-06
-4.12481e-06 4.11936e-06 0.000266949
0.000877843 -1.36691e-06 6.53593e-07
-1.36691e-06 -1.69379e-06 -1.55465e-06
6.53593e-07 -1.55465e-06 -2.69079e-05
0.00111286 8.79549e-06 -1.65276e-06
8.79549e-06 0.000112886 5.89585e-07
-1.65276e-06 5.89585e-07 0.000115188
0.000987004 8.02618e-06 -7.28362e-07
8.02618e-06 4.61723e-05 1.4847e-06
-7.28362e-07 1.4847e-06 6.42131e-05
0.000830679 4.202e-06 3.31473e-07
4.202e-06 -3.67273e-05 -2.94401e-06
3.31473e-07 -2.94401e-06 -3.55219e-05
0.00212962 4.88775e-06 1.49063e-06
4.88775e-06 0.000644136 9.83117e-09
1.49063e-06 9.83117e-09 0.000667755
0.00212658 -3.21583e-07 1.08397e-06
-3.21583e-07 0.000642167 -3.87548e-06
1.08397e-06 -3.87548e-06 0.000665873
0.00115216 1.94502e-05 -7.37739e-07
1.94502e-05 0.00015285 -4.46642e-07
-7.37739e-07 -4.46642e-07 0.000113016
0.000896762 -2.87588e-06 -1.49867e-07
-2.87588e-06 5.99528e-06 -1.53629e-06
-1.49867e-07 -1.53629e-06 -1.61258e-05
0.000918338 3.50116e-06 5.92107e-07
3.50116e-06 3.20386e-05 4.61401e-07
5.92107e-07 4.61401e-07 -8.39347e-06
0.000841627 -6.60518e-08 -3.89123e-08
-6.60518e-08 -3.26809e-05 -2.99421e-06
-3.89123e-08 -2.99421e-06 -2.88501e-05
0.00089558 -5.09249e-07 2.52129e-08
-5.09249e-07 4.39096e-06 -3.25008e-09
2.52129e-08 -3.25008e-09 -1.714e-05
0.000891149 2.28669e-06 -2.47651e-07
2.28669e-06 2.01678e-06 1.5929e-06
-2.47651e-07 1.5929e-06 -1.98706e-05
0.000838285 4.44128e-06 -1.19299e-07
4.44128e-06 -3.39174e-05 7.11508e-09
-1.19299e-07 7.11508e-09 -3.04202e-05
0.00203956 5.39588e-06 2.5189e-06
5.39588e-06 0.000596913 -3.83774e-06
2.5189e-06 -3.83774e-06 0.000621552
0.00134945 1.0808e-05 -8.17853e-07
1.0808e-05 0.00023581 1.8412e-06
-8.17853e-07 1.8412e-06 0.000240994
0.00153644 9.92372e-06 1.70228e-06
9.92372e-06 0.000334917 2.27825e-08
1.70228e-06 2.27825e-08 0.000356235
0.00106722 1.23105e-05 -1.02178e-05
1.23105e-05 9.18711e-05 6.20011e-06
-1.02178e-05 6.20011e-06 0.000109422
-0.00317846 9.23626e-05 -4.09564e-05
9.23626e-05 -0.00178928 1.10868e-05
-4.09564e-05 1.10868e-05 -0.00170419
-0.00130302 0.000152093 -7.99596e-06
0.000152093 -0.00112586 9.89592e-06
-7.99596e-06 9.89592e-06 -0.000898427
0.00064271 -4.90005e-05 -7.00458e-05
-4.90005e-05 -0.000365535 -8.55282e-06
-7.00458e-05 -8.55282e-06 -0.00055216
0.00238351 -3.89105e-05 -2.5105e-07
-3.89105e-05 0.000465465 -1.86738e-07
-2.5105e-07 -1.86738e-07 0.000387257
0.00148981 2.5032e-05 -1.14441e-05
2.5032e-05 -0.000111574 5.90705e-08
-1.14441e-05 5.90705e-08 -0.000200221
0.00103558 -2.60962e-05 2.36463e-05
-2.60962e-05 -1.37186e-05 -2.17196e-06
2.36463e-05 -2.17196e-06 -0.000198677
0.00188959 4.74214e-05 1.58237e-06
4.74214e-05 0.000234562 1.36384e-06
1.58237e-06 1.36384e-06 0.000156952
0.00496921 0.000224594 -2.75027e-05
0.000224594 0.00132625 -2.73923e-06
-2.75027e-05 -2.73923e-06 0.000684464
-0.00291541 0.000189449 -3.63674e-06
0.000189449 -0.0013178 -3.01523e-06
-3.63674e-06 -3.01523e-06 -0.00125041
0.000295786 0.000349295 4.15608e-06
0.000349295 -0.000733633 -5.37407e-06
4.15608e-06 -5.37407e-06 4.18227e-05
0.001198 2.90284e-05 3.76569e-05
2.90284e-05 0.000128909 -1.21668e-05
3.76569e-05 -1.21668e-05 -9.87871e-05
0.00630812 0.000359992 -7.80336e-06
0.000359992 0.00192204 3.32268e-07
-7.80336e-06 3.32268e-07 0.00114031
-8.54943e-05 0.000327426 -5.10105e-05
0.000327426 -0.000223004 2.63141e-05
-5.10105e-05 2.63141e-05 6.17874e-06
0.00258336 0.000196502 -2.35819e-05
0.000196502 0.000110367 1.4543e-05
-2.35819e-05 1.4543e-05 0.000620744
0.000878616 2.90679e-05 -4.74349e-07
2.90679e-05 3.02045e-05 -3.9681e-07
-4.74349e-07 -3.9681e-07 -3.66109e-05
0.000833675 -4.2436e-06 1.01385e-07
-4.2436e-06 -6.90239e-07 -4.1836e-07
1.01385e-07 -4.1836e-07 -5.31598e-05
0.000920336 -3.29623e-05 -7.13814e-07
-3.29623e-05 3.27509e-05 8.22314e-07
-7.13814e-07 8.22314e-07 -7.53266e-06
0.000812848 1.0855e-05 5.79286e-08
1.0855e-05 -1.17105e-05 3.24222e-07
5.79286e-08 3.24222e-07 -6.51224e-05
0.000953057 4.26045e-05 6.42646e-07
4.26045e-05 6.91371e-05 8.80686e-07
6.42646e-07 8.80686e-07 6.64425e-06
0.000990321 3.05819e-05 -4.07906e-07
3.05819e-05 8.85817e-05 -2.05573e-08
-4.07906e-07 -2.05573e-08 2.21217e-05
0.000935087 2.93211e-05 9.75973e-07
2.93211e-05 5.7357e-05 1.01936e-06
9.75973e-07 1.01936e-06 -4.64922e-06
0.000915132 -1.99791e-06 7.19641e-07
-1.99791e-06 4.33196e-05 3.36005e-08
7.19641e-07 3.36005e-08 -1.70681e-05
0.000897945 -1.86512e-05 2.74196e-07
-1.86512e-05 3.45633e-05 -5.23804e-07
2.74196e-07 -5.23804e-07 -2.13235e-05
0.000809771 -3.02343e-05 -4.19674e-07
-3.02343e-05 -1.13984e-05 7.36911e-07
-4.19674e-07 7.36911e-07 -6.54123e-05
0.00178861 1.80628e-05 -8.77958e-07
1.80628e-05 4.31e-05 9.12054e-07
-8.77958e-07 9.12054e-07 -3.06849e-05
0.00159684 -0.000118417 -1.17819e-05
-0.000118417 -0.000132932 1.07661e-06
-1.17819e-05 1.07661e-06 -0.000193438
-0.000330879 -7.4111e-05 1.68427e-06
-7.4111e-05 -0.000755492 4.56183e-06
1.68427e-06 4.56183e-06 -0.000878685
0.00133472 -0.000114893 9.81269e-07
-0.000114893 0.000263602 4.22538e-07
9.81269e-07 4.22538e-07 0.000123001
0.00109664 -3.91296e-05 1.52524e-06
-3.91296e-05 0.000165078 -5.11218e-07
1.52524e-06 -5.11218e-07 4.16475e-05
0.00101222 -3.87517e-05 -2.56229e-07
-3.87517e-05 9.50086e-05 -1.85442e-07
-2.56229e-07 -1.85442e-07 1.05344e-05
0.000910684 -2.59368e-05 -7.31816e-07
-2.59368e-05 4.43671e-05 1.97155e-07
-7.31816e-07 1.97155e-07 -2.61444e-05
0.000926823 2.08679e-05 -3.25978e-07
2.08679e-05 5.40929e-05 4.59811e-07
-3.25978e-07 4.59811e-07 -1.51023e-05
0.00199534 -5.53126e-05 -4.7554e-06
-5.53126e-05 0.000120807 1.27493e-06
-4.7554e-06 1.27493e-06 6.96696e-05
0.000844648 -2.32789e-05 -1.62917e-07
-2.32789e-05 1.31515e-05 3.13853e-08
-1.62917e-07 3.13853e-08 -6.38146e-05
0.000933674 -4.22826e-05 5.47761e-07
-4.22826e-05 5.38445e-05 -4.51934e-07
5.47761e-07 -4.51934e-07 -2.93121e-05
0.00202502 -0.000175628 2.40751e-06
-0.000175628 0.000254605 -2.84276e-08
2.40751e-06 -2.84276e-08 0.000126065
0.000538167 -9.74212e-05 1.09477e-06
-9.74212e-05 -0.000140034 2.87019e-06
1.09477e-06 2.87019e-06 -0.000273019
0.00116095 -6.98947e-05 8.96859e-07
-6.98947e-05 0.000199325 8.34272e-10
8.96859e-07 8.34272e-10 5.24503e-05
0.00113945 -2.77913e-05 -3.94618e-07
-2.77913e-05 0.000163777 -3.40052e-07
-3.94618e-07 -3.40052e-07 6.10284e-05
0.00273386 -0.000142019 3.16357e-06
-0.000142019 0.000592797 -8.30786e-07
3.16357e-06 -8.30786e-07 0.00057108
0.00242052 -0.000189501 -2.56771e-06
-0.000189501 0.00072629 -3.40162e-06
-2.56771e-06 -3.40162e-06 0.000572136
0.000937768 -2.65993e-06 -1.81071e-06
-2.65993e-06 9.96815e-05 9.22845e-07
-1.81071e-06 9.22845e-07 -4.21867e-05
0.000907971 3.41036e-05 4.02038e-07
3.41036e-05 4.77604e-05 7.69885e-07
4.02038e-07 7.69885e-07 -3.08791e-05
0.000924123 -6.43191e-05 1.01712e-06
-6.43191e-05 4.82508e-05 -8.74016e-08
1.01712e-06 -8.74016e-08 -3.82231e-05
0.00112263 -2.16233e-05 4.36157e-07
-2.16233e-05 0.000135651 8.85375e-07
4.36157e-07 8.85375e-07 4.43774e-05
0.00120206 -5.88638e-06 -2.17016e-05
-5.88638e-06 0.000539633 1.55562e-07
-2.17016e-05 1.55562e-07 0.000502451
0.00129476 -9.91992e-06 9.98255e-06
-9.91992e-06 0.000450068 5.36377e-07
9.98255e-06 5.36377e-07 0.000335151
0.000370647 0.000114725 -4.15625e-05
0.000114725 -0.00075683 7.05602e-06
-4.15625e-05 7.05602e-06 -0.00129281
0.000981796 6.8167e-05 7.58661e-08
6.8167e-05 7.99482e-05 8.30578e-08
7.58661e-08 8.30578e-08 -1.18231e-05
0.00122062 7.35804e-05 1.91381e-06
7.35804e-05 0.000233167 -2.79079e-07
1.91381e-06 -2.79079e-07 0.000123409
0.00259316 0.000150585 -6.43125e-07
0.000150585 0.000445958 2.60327e-07
-6.43125e-07 2.60327e-07 0.000445583
0.000521205 8.53818e-05 2.38033e-06
8.53818e-05 -9.15541e-05 -2.94552e-06
2.38033e-06 -2.94552e-06 -0.00028267
0.00342018 -0.000226915 4.66047e-05
-0.000226915 0.00139022 8.94949e-06
4.66047e-05 8.94949e-06 0.00146009
0.000828313 -0.000240987 2.24382e-05
-0.000240987 -0.000578193 2.66127e-05
2.24382e-05 2.66127e-05 -0.00121481
0.00422799 5.36726e-05 -7.09805e-05
5.36726e-05 0.000602192 -5.35539e-05
-7.09805e-05 -5.35539e-05 0.000220092
-0.000174574 0.000108097 1.26538e-06
0.000108097 -0.000677946 4.2323e-07
1.26538e-06 4.2323e-07 -0.000656505
-0.00195549 -0.000274581 5.79834e-05
-0.000274581 -0.00116703 2.96356e-05
5.79834e-05 2.96356e-05 -0.00108873
0.00191487 -0.000178478 2.16356e-05
-0.000178478 0.000683899 1.30031e-05
2.16356e-05 1.30031e-05 0.000889303
0.00229089 -0.000241134 2.29508e-05
-0.000241134 -0.000106045 1.23311e-05
2.29508e-05 1.23311e-05 0.00054514
0.00108366 4.31715e-05 -6.36989e-08
4.31715e-05 0.000122806 8.21425e-08
-6.36989e-08 8.21425e-08 3.34587e-05
0.000387582 -6.34507e-05 -8.90273e-06
-6.34507e-05 3.81145e-05 -1.72894e-06
-8.90273e-06 -1.72894e-06 4.62564e-05
0.0013849 -1.27137e-05 -2.79161e-06
-1.27137e-05 8.15788e-05 -5.1072e-06
-2.79161e-06 -5.1072e-06 3.79226e-05
0.000843932 0.000127191 -4.90783e-07
0.000127191 -5.63477e-05 2.01041e-07
-4.90783e-07 2.01041e-07 -0.000199368
0.0008296 4.53382e-05 -3.40591e-07
4.53382e-05 0.000111351 4.2361e-08
-3.40591e-07 4.2361e-08 -4.15665e-05
0.00217718 9.88058e-06 1.60338e-05
9.88058e-06 0.000805342 -3.60197e-06
1.60338e-05 -3.60197e-06 0.000721663
0.00455889 0.000333849 -3.21174e-05
0.000333849 0.0011138 -1.71937e-05
-3.21174e-05 -1.71937e-05 0.000658001
0.00696519 -0.00030232 2.87923e-06
-0.00030232 0.00212957 4.30931e-06
2.87923e-06 4.30931e-06 0.00119217
-3.86686e-05 -0.000281622 6.39511e-06
-0.000281622 -0.000908616 1.3665e-05
6.39511e-06 1.3665e-05 -0.00082976
0.00231223 -0.000100195 8.66036e-08
-0.000100195 0.000118118 -9.65884e-08
8.66036e-08 -9.65884e-08 0.00042995
0.00149764 8.73818e-05 -1.60537e-06
8.73818e-05 0.000383837 -3.30806e-06
-1.60537e-06 -3.30806e-06 0.000302686
0.00175308 8.6864e-06 -2.62247e-06
8.6864e-06 0.000464537 -2.12899e-07
-2.62247e-06 -2.12899e-07 0.000386131
0.00109946 9.10325e-06 1.64975e-06
9.10325e-06 4.29894e-05 -6.16773e-06
1.64975e-06 -6.16773e-06 -2.74316e-05
0.000653046 -5.36813e-05 -1.08948e-05
-5.36813e-05 0.000116315 -7.82173e-07
-1.08948e-05 -7.82173e-07 -2.61286e-05
0.001983 0.000178538 -1.54861e-05
0.000178538 0.000699132 4.42515e-05
-1.54861e-05 4.42515e-05 0.000382825
0.00758046 -0.000179754 -3.65194e-06
-0.000179754 0.00205656 -1.79083e-05
-3.65194e-06 -1.79083e-05 0.000948248
-0.000542632 -0.000153989 -4.01726e-05
-0.000153989 -0.00154253 -4.02858e-05
-4.01726e-05 -4.02858e-05 -0.00144632
0.00279692 2.6113e-05 -6.00671e-08
2.6113e-05 0.000432709 -1.61319e-06
-6.00671e-08 -1.61319e-06 0.000700067
0.000931418 5.43387e-05 2.95919e-08
5.43387e-05 4.25407e-05 -1.65321e-07
2.95919e-08 -1.65321e-07 -4.26226e-05
0.00105306 6.72363e-05 1.86806e-07
6.72363e-05 0.000118075 -2.50136e-07
1.86806e-07 -2.50136e-07 3.16707e-05
0.00069035 4.17571e-05 -6.30494e-07
4.17571e-05 -6.34576e-05 -1.45392e-06
-6.30494e-07 -1.45392e-06 -0.000145628
0.00098191 4.35263e-05 -5.47596e-07
4.35263e-05 6.64109e-05 -6.15073e-07
-5.47596e-07 -6.15073e-07 1.06344e-05
0.000936888 -1.63817e-05 3.59469e-07
-1.63817e-05 4.37168e-05 -3.34705e-07
3.59469e-07 -3.34705e-07 -1.85262e-05
0.00101412 6.50551e-06 -3.65472e-07
6.50551e-06 8.88444e-05 -2.17676e-07
-3.65472e-07 -2.17676e-07 1.99057e-05
0.00102014 2.09129e-05 2.028e-07
2.09129e-05 9.76768e-05 -7.50648e-08
2.028e-07 -7.50648e-08 1.78675e-05
0.000994886 1.25585e-05 3.05813e-07
1.25585e-05 7.31091e-05 -4.48929e-09
3.05813e-07 -4.48929e-09 1.16729e-05
0.00100757 6.04674e-07 -2.10312e-07
6.04674e-07 7.752e-05 3.1501e-07
-2.10312e-07 3.1501e-07 8.26314e-06
0.00107118 -4.15836e-06 2.96947e-07
-4.15836e-06 0.000125233 -9.83438e-08
2.96947e-07 -9.83438e-08 4.17795e-05
0.00133184 -2.38218e-05 -7.36344e-07
-2.38218e-05 0.000261952 4.27293e-07
-7.36344e-07 4.27293e-07 0.000186012
0.0010428 -3.94874e-05 3.46642e-07
-3.94874e-05 8.83769e-05 5.52321e-07
3.46642e-07 5.52321e-07 1.53646e-05
0.000974003 2.79942e-05 7.35127e-07
2.79942e-05 6.04346e-05 4.7441e-07
7.35127e-07 4.7441e-07 -5.96058e-06
0.000969596 -7.79008e-06 6.5065e-07
-7.79008e-06 6.09339e-05 -3.13884e-07
6.5065e-07 -3.13884e-07 4.15269e-09
0.000930907 2.53156e-05 6.59014e-09
2.53156e-05 4.31399e-05 -6.21771e-07
6.59014e-09 -6.21771e-07 -1.83371e-05
0.000980451 1.95389e-05 -7.61504e-07
1.95389e-05 5.72203e-05 -1.24513e-06
-7.61504e-07 -1.24513e-06 -6.99452e-06
0.00103235 2.66533e-05 -2.81751e-07
2.66533e-05 8.89846e-05 -3.36118e-07
-2.81751e-07 -3.36118e-07 2.37189e-05
0.000935582 1.76248e-05 1.81358e-07
1.76248e-05 4.94806e-05 3.37399e-07
1.81358e-07 3.37399e-07 -1.53693e-05
0.000962128 1.94899e-05 6.99588e-09
1.94899e-05 4.82987e-05 -1.37529e-07
6.99588e-09 -1.37529e-07 -1.89306e-05
0.000946555 4.86866e-07 5.81528e-07
4.86866e-07 4.85398e-05 1.06977e-06
5.81528e-07 1.06977e-06 -2.39332e-05
0.0010097 6.07624e-06 1.92136e-07
6.07624e-06 6.55918e-05 4.49235e-07
1.92136e-07 4.49235e-07 -1.96831e-06
0.000935885 -4.3363e-05 1.31259e-07
-4.3363e-05 6.01273e-05 2.13843e-07
1.31259e-07 2.13843e-07 -2.51914e-05
0.00103159 -1.85326e-05 -1.93953e-07
-1.85326e-05 0.000104899 -1.02965e-08
-1.93953e-07 -1.02965e-08 2.40438e-05
0.000787419 -4.21183e-05 -1.70315e-07
-4.21183e-05 7.05604e-06 1.58116e-06
-1.70315e-07 1.58116e-06 -8.46054e-05
0.0010565 -7.66938e-05 -1.42151e-06
-7.66938e-05 0.000128693 2.22802e-06
-1.42151e-06 2.22802e-06 2.60322e-05
0.00109605 -4.17254e-05 3.24288e-07
-4.17254e-05 0.000147058 -7.7943e-07
3.24288e-07 -7.7943e-07 6.4387e-05
0.000826906 -5.03383e-05 2.81542e-07
-5.03383e-05 2.97171e-05 -1.4979e-06
2.81542e-07 -1.4979e-06 -6.12063e-05
0.000958866 -1.60764e-05 -8.7095e-08
-1.60764e-05 7.44019e-05 -6.30864e-07
-8.7095e-08 -6.30864e-07 -2.49691e-06
0.000823063 -3.35782e-06 -6.5813e-08
-3.35782e-06 -8.84868e-06 1.04315e-06
-6.5813e-08 1.04315e-06 -7.50439e-05
0.00097202 -2.49561e-06 -2.0101e-07
-2.49561e-06 7.58155e-05 -4.4024e-07
-2.0101e-07 -4.4024e-07 4.52582e-06
0.000943234 1.2792e-06 8.64924e-08
1.2792e-06 5.07448e-05 4.04922e-07
8.64924e-08 4.04922e-07 -8.31086e-06
0.000905133 1.823e-05 -2.75517e-07
1.823e-05 2.44733e-05 9.45721e-07
-2.75517e-07 9.45721e-07 -2.10215e-05
0.000933492 -5.28827e-06 1.20196e-07
-5.28827e-06 4.4903e-05 -7.80091e-07
1.20196e-07 -7.80091e-07 -1.0919e-05
0.000905139 9.1306e-06 -2.56536e-07
9.1306e-06 2.30443e-05 -2.06324e-08
-2.56536e-07 -2.06324e-08 -2.01132e-05
0.000877746 1.60096e-05 -8.66334e-07
1.60096e-05 3.74368e-06 1.59522e-06
-8.66334e-07 1.59522e-06 -2.3318e-05
0.000921263 4.34269e-06 7.65666e-07
4.34269e-06 2.9033e-05 -7.41348e-07
7.65666e-07 -7.41348e-07 -1.32572e-05
0.000885063 8.9721e-06 -1.51081e-07
8.9721e-06 3.98472e-06 -2.56381e-11
-1.51081e-07 -2.56381e-11 -2.19834e-05
0.00139138 1.77482e-05 -5.63491e-06
1.77482e-05 0.000264326 4.11897e-06
-5.63491e-06 4.11897e-06 0.000267045
0.000884644 1.02895e-06 9.52327e-07
1.02895e-06 2.05325e-06 -1.56697e-06
9.52327e-07 -1.56697e-06 -2.33554e-05
0.00110816 1.29966e-05 -2.20456e-06
1.29966e-05 0.000112788 5.72306e-07
-2.20456e-06 5.72306e-07 0.000114735
0.000982971 1.24195e-05 -1.24282e-06
1.24195e-05 4.71048e-05 1.49135e-06
-1.24282e-06 1.49135e-06 6.4659e-05
0.000827357 8.14285e-06 6.10059e-07
8.14285e-06 -3.71227e-05 -2.97274e-06
6.10059e-07 -2.97274e-06 -3.61245e-05
0.00155942 9.78462e-06 3.38666e-06
9.78462e-06 0.000346369 -1.1589e-06
3.38666e-06 -1.1589e-06 0.000367082
0.00212748 5.43819e-06 4.23066e-06
5.43819e-06 0.000643289 -3.84636e-06
4.23066e-06 -3.84636e-06 0.000666881
0.000978242 -1.49496e-05 5.00932e-07
-1.49496e-05 6.35185e-05 -5.92492e-07
5.00932e-07 -5.92492e-07 1.98593e-05
0.000894541 -5.59155e-06 -2.44198e-07
-5.59155e-06 6.36434e-06 -1.42612e-06
-2.44198e-07 -1.42612e-06 -1.69577e-05
0.000958034 -2.69664e-06 4.00723e-07
-2.69664e-06 5.26446e-05 1.2202e-07
4.00723e-07 1.2202e-07 1.16791e-05
0.000845502 -4.2777e-06 -3.3492e-07
-4.2777e-06 -2.97688e-05 -2.9803e-06
-3.3492e-07 -2.9803e-06 -2.64148e-05
0.000894688 -3.37303e-06 -5.02223e-08
-3.37303e-06 4.81619e-06 -1.16337e-08
-5.02223e-08 -1.16337e-08 -1.72838e-05
0.000928641 -1.64332e-05 -6.92182e-07
-1.64332e-05 3.59165e-05 1.08589e-06
-6.92182e-07 1.08589e-06 -3.45034e-06
0.00203383 -1.26045e-07 -7.82289e-07
-1.26045e-07 0.000593549 -3.85936e-06
-7.82289e-07 -3.85936e-06 0.000618317
0.000839497 1.11897e-07 -7.30474e-08
1.11897e-07 -3.38315e-05 -3.78125e-09
-7.30474e-08 -3.78125e-09 -2.99859e-05
0.000893302 -9.8226e-07 -5.1083e-08
-9.8226e-07 3.16392e-06 1.60789e-06
-5.1083e-08 1.60789e-06 -1.83522e-05
0.000841796 4.58078e-06 -3.20499e-07
4.58078e-06 -3.20721e-05 2.98942e-06
-3.20499e-07 2.98942e-06 -2.86136e-05
0.00204334 5.65211e-06 -1.60214e-06
5.65211e-06 0.000599064 -1.05246e-08
-1.60214e-06 -1.05246e-08 0.000623632
0.00206885 1.09337e-05 -7.64973e-06
1.09337e-05 0.00061398 3.81954e-06
-7.64973e-06 3.81954e-06 0.000638018
-0.00107576 3.44702e-05 -1.07874e-05
3.44702e-05 -0.00075966 5.68714e-07
-1.07874e-05 5.68714e-07 -0.000822249
-0.000901534 0.000167779 1.94468e-05
0.000167779 -0.000508203 8.74937e-07
1.94468e-05 8.74937e-07 -0.000534085
0.00110673 2.81257e-05 -1.84921e-05
2.81257e-05 -0.000154212 1.13777e-05
-1.84921e-05 1.13777e-05 -0.000158141
-0.00126732 0.000169847 1.15408e-05
0.000169847 -0.00100083 -3.32741e-06
1.15408e-05 -3.32741e-06 -0.00076313
0.0019222 2.5031e-05 -7.14485e-05
2.5031e-05 0.000307843 -4.53882e-06
-7.14485e-05 -4.53882e-06 4.21224e-05
0.00179352 4.49332e-05 1.53743e-05
4.49332e-05 0.000196662 -2.25549e-06
1.53743e-05 -2.25549e-06 0.000117057
0.00133435 -1.88518e-05 -3.49843e-05
-1.88518e-05 -0.000282944 7.70781e-07
-3.49843e-05 7.70781e-07 -0.00076959
0.0046591 0.000296545 9.03878e-05
0.000296545 0.00219726 -2.98104e-05
9.03878e-05 -2.98104e-05 0.00226868
-0.000839607 0.000372079 1.61502e-05
0.000372079 -0.00154011 -4.79737e-07
1.61502e-05 -4.79737e-07 -0.00066599
0.00132942 7.50199e-05 -1.78379e-06
7.50199e-05 2.26301e-05 4.01422e-06
-1.78379e-06 4.01422e-06 -0.000172014
0.00265152 0.000244781 6.84505e-06
0.000244781 0.000287334 -1.11766e-05
6.84505e-06 -1.11766e-05 -0.000683567
0.00322204 0.000461222 -7.78508e-07
0.000461222 0.000908506 -2.50039e-06
-7.78508e-07 -2.50039e-06 0.0010674
0.00192326 0.000192649 -2.75973e-06
0.000192649 -0.000307553 1.51422e-06
-2.75973e-06 1.51422e-06 0.00021658
0.00202025 5.70784e-05 -9.46964e-06
5.70784e-05 0.000194866 5.67409e-07
-9.46964e-06 5.67409e-07 -2.31107e-05
0.00369003 0.00032488 3.62774e-05
0.00032488 0.000863822 -2.26517e-05
3.62774e-05 -2.26517e-05 -0.000205879
-0.00286555 0.00025065 -6.82473e-05
0.00025065 -0.00242534 3.82988e-05
-6.82473e-05 3.82988e-05 -0.00229488
0.000958216 8.74393e-05 -4.73622e-06
8.74393e-05 -0.000730693 8.29761e-06
-4.73622e-06 8.29761e-06 -0.000479125
0.00102203 -5.23553e-06 9.65811e-07
-5.23553e-06 0.000106122 -1.14883e-07
9.65811e-07 -1.14883e-07 3.07625e-05
0.000960316 2.94508e-05 -1.02212e-06
2.94508e-05 7.20754e-05 -3.25534e-07
-1.02212e-06 -3.25534e-07 6.47441e-06
0.00091719 6.1155e-06 5.41164e-07
6.1155e-06 4.18153e-05 -7.89563e-08
5.41164e-07 -7.89563e-08 -9.99213e-06
0.000945525 4.61218e-05 1.41629e-06
4.61218e-05 6.64077e-05 1.03612e-06
1.41629e-06 1.03612e-06 4.62334e-06
0.000891416 9.73193e-06 -1.46347e-07
9.73193e-06 3.64221e-05 2.76262e-07
-1.46347e-07 2.76262e-07 -3.66838e-05
0.00101616 3.07489e-05 1.75003e-07
3.07489e-05 0.000102251 5.05162e-07
1.75003e-07 5.05162e-07 3.61838e-05
0.000915205 5.68809e-07 -3.91676e-07
5.68809e-07 4.53385e-05 1.38178e-06
-3.91676e-07 1.38178e-06 -1.54225e-05
0.00104051 4.52073e-05 -8.35923e-07
4.52073e-05 0.000108745 -1.12751e-07
-8.35923e-07 -1.12751e-07 4.48614e-05
0.00101628 1.99144e-05 -2.49156e-07
1.99144e-05 9.72472e-05 4.2473e-07
-2.49156e-07 4.2473e-07 3.63021e-05
0.000830016 -2.16831e-05 -7.9147e-07
-2.16831e-05 5.67014e-07 -1.42388e-07
-7.9147e-07 -1.42388e-07 -5.70547e-05
0.000980678 -4.77505e-05 -2.05825e-06
-4.77505e-05 -0.000414924 -2.03591e-06
-2.05825e-06 -2.03591e-06 -0.00046106
0.00102333 -0.000139991 -3.1983e-06
-0.000139991 -0.000234052 4.60693e-06
-3.1983e-06 4.60693e-06 -0.000357508
0.000859119 -0.000105302 6.97648e-06
-0.000105302 3.78755e-05 3.05021e-06
6.97648e-06 3.05021e-06 -8.9325e-05
0.00110822 -6.58801e-05 2.26696e-06
-6.58801e-05 0.000164665 -3.66425e-07
2.26696e-06 -3.66425e-07 2.28039e-05
0.0010986 -2.23226e-05 -2.47894e-08
-2.23226e-05 0.000144222 -7.98606e-07
-2.47894e-08 -7.98606e-07 3.66133e-05
0.00084809 -4.78999e-05 -4.55494e-07
-4.78999e-05 1.08433e-05 -2.04207e-07
-4.55494e-07 -2.04207e-07 -7.50286e-05
0.00087477 2.90959e-05 -6.30143e-08
2.90959e-05 2.82012e-05 -1.17242e-07
-6.30143e-08 -1.17242e-07 -4.92403e-05
0.000959322 -1.16071e-05 1.7328e-07
-1.16071e-05 7.3918e-05 6.42354e-07
1.7328e-07 6.42354e-07 -5.10788e-06
0.00178008 -0.00014421 3.34488e-06
-0.00014421 8.67665e-05 1.96896e-07
3.34488e-06 1.96896e-07 8.80119e-05
0.00102155 -4.6812e-06 -1.98294e-07
-4.6812e-06 9.94096e-05 -3.26332e-07
-1.98294e-07 -3.26332e-07 1.39679e-05
0.00118361 -2.65948e-05 -3.71665e-07
-2.65948e-05 0.000169125 -8.44415e-08
-3.71665e-07 -8.44415e-08 7.60117e-05
0.00167308 -0.000160303 -9.86835e-07
-0.000160303 0.000374645 -2.187e-06
-9.86835e-07 -2.187e-06 0.000203193
0.00112427 -1.72202e-05 -4.99226e-07
-1.72202e-05 0.00018279 3.54964e-08
-4.99226e-07 3.54964e-08 4.38364e-05
-0.000608352 -0.000121155 -7.48843e-06
-0.000121155 -0.000967177 -8.88518e-06
-7.48843e-06 -8.88518e-06 -0.000950478
0.00199708 -6.85378e-05 -1.97152e-06
-6.85378e-05 0.000634612 6.02322e-06
-1.97152e-06 6.02322e-06 0.000431248
0.000786014 3.08359e-05 -1.11277e-06
3.08359e-05 -3.18057e-05 3.18533e-06
-1.11277e-06 3.18533e-06 -0.000131605
0.000973162 1.97301e-05 2.33167e-07
1.97301e-05 6.74063e-05 1.49301e-07
2.33167e-07 1.49301e-07 -1.38789e-05
0.00101178 2.14673e-05 -3.75221e-07
2.14673e-05 7.81464e-05 7.77538e-07
-3.75221e-07 7.77538e-07 -1.52422e-05
0.00153052 -5.60638e-06 6.04048e-06
-5.60638e-06 0.000367901 6.83662e-07
6.04048e-06 6.83662e-07 0.000289383
0.000109625 -9.13296e-06 3.22562e-06
-9.13296e-06 -6.88043e-05 -4.32077e-07
3.22562e-06 -4.32077e-07 -0.000132206
-0.00355202 -3.28905e-05 4.98464e-05
-3.28905e-05 -0.00205559 2.36808e-06
4.98464e-05 2.36808e-06 -0.00202742
0.00110735 5.89816e-05 1.34116e-06
5.89816e-05 0.000141133 1.10557e-06
1.34116e-06 1.10557e-06 5.02596e-05
-3.44197e-05 2.10358e-05 1.82481e-06
2.10358e-05 -0.000308395 -1.15589e-06
1.82481e-06 -1.15589e-06 -0.000465273
0.00120787 0.00011522 2.25789e-06
0.00011522 0.000123917 -3.06925e-06
2.25789e-06 -3.06925e-06 -2.18615e-05
-0.00118232 -3.15721e-05 9.76888e-06
-3.15721e-05 -0.000850549 2.42999e-06
9.76888e-06 2.42999e-06 -0.000924343
0.00248796 -0.000333026 2.38445e-05
-0.000333026 0.000229609 1.65254e-05
2.38445e-05 1.65254e-05 -0.000866993
0.00377775 0.000284266 6.41903e-05
0.000284266 0.000856827 -3.39545e-05
6.41903e-05 -3.39545e-05 0.00055163
0.000433595 1.12557e-05 1.30588e-05
1.12557e-05 -0.000127335 1.04605e-05
1.30588e-05 1.04605e-05 -0.000237038
0.00459198 -0.000432233 4.61077e-05
-0.000432233 0.00128806 5.00063e-05
4.61077e-05 5.00063e-05 0.00131285
0.00131962 -9.11469e-06 9.22473e-06
-9.11469e-06 2.86837e-05 5.00611e-06
9.22473e-06 5.00611e-06 -1.40651e-05
0.00176529 -8.36284e-05 7.50854e-06
-8.36284e-05 -0.000132538 4.8972e-06
7.50854e-06 4.8972e-06 0.000144325
0.00107482 7.54242e-05 1.05958e-06
7.54242e-05 0.000168999 -8.76377e-07
1.05958e-06 -8.76377e-07 9.0547e-05
0.00130522 1.04727e-05 -2.33814e-06
1.04727e-05 0.000217398 -8.44594e-07
-2.33814e-06 -8.44594e-07 0.000145427
0.00115729 8.82474e-06 -4.12935e-06
8.82474e-06 7.26684e-05 -5.14265e-06
-4.12935e-06 -5.14265e-06 4.55024e-06
0.000112762 -9.96383e-06 7.15441e-06
-9.96383e-06 -0.000139832 -2.30421e-07
7.15441e-06 -2.30421e-07 -0.000290326
0.00248857 0.000237373 -2.71953e-05
0.000237373 0.00064053 -2.00119e-05
-2.71953e-05 -2.00119e-05 0.000373381
0.00508488 3.42744e-05 2.67178e-05
3.42744e-05 0.000907589 5.27791e-06
2.67178e-05 5.27791e-06 -0.000265234
0.00181493 1.12794e-05 2.00663e-06
1.12794e-05 -0.000127525 -5.21528e-06
2.00663e-06 -5.21528e-06 0.000111859
0.00148101 -0.000229652 -5.82503e-06
-0.000229652 -0.000508789 2.33372e-05
-5.82503e-06 2.33372e-05 -0.000463419
0.000774044 2.9705e-05 -3.41589e-06
2.9705e-05 6.71107e-05 -7.07365e-06
-3.41589e-06 -7.07365e-06 3.62229e-06
0.000840836 1.2832e-05 9.9838e-06
1.2832e-05 3.02831e-06 1.2642e-05
9.9838e-06 1.2642e-05 -9.36837e-05
0.00125602 -1.70106e-06 -9.25558e-06
-1.70106e-06 0.000154225 -1.5129e-07
-9.25558e-06 -1.5129e-07 5.6884e-05
0.00106156 7.3704e-05 2.52016e-06
7.3704e-05 -0.000588943 -6.48692e-06
2.52016e-06 -6.48692e-06 -0.000394663
-0.00147744 5.53322e-05 -8.51666e-08
5.53322e-05 -0.000785571 -2.04033e-06
-8.51666e-08 -2.04033e-06 -0.000991943
0.00719154 -2.51596e-05 2.82313e-05
-2.51596e-05 0.00182638 6.75862e-06
2.82313e-05 6.75862e-06 0.000956071
5.4708e-05 -7.86584e-07 5.85203e-06
-7.86584e-07 -0.00109157 -6.51674e-05
5.85203e-06 -6.51674e-05 -0.000824034
0.001459 8.28635e-05 1.80898e-06
8.28635e-05 0.000318494 2.21817e-06
1.80898e-06 2.21817e-06 0.000233824
0.000898065 5.42644e-05 -7.91722e-07
5.42644e-05 3.20144e-05 1.25354e-06
-7.91722e-07 1.25354e-06 -5.34718e-05
0.00124421 4.28491e-05 -1.83763e-06
4.28491e-05 0.000217592 -2.89546e-06
-1.83763e-06 -2.89546e-06 0.000139708
0.000984903 4.78583e-05 -6.39967e-08
4.78583e-05 6.83587e-05 -1.49738e-07
-6.39967e-08 -1.49738e-07 6.8639e-06
0.000997037 1.13531e-05 -1.67506e-07
1.13531e-05 7.15992e-05 -4.81221e-07
-1.67506e-07 -4.81221e-07 3.37879e-06
0.000849189 -1.38016e-05 -1.94469e-08
-1.38016e-05 1.47631e-05 8.52312e-07
-1.94469e-08 8.52312e-07 -7.15775e-05
0.00102664 3.09429e-05 4.05168e-08
3.09429e-05 8.55852e-05 -7.3463e-08
4.05168e-08 -7.3463e-08 2.02393e-05
0.000958974 -4.51395e-05 -1.40044e-07
-4.51395e-05 4.69495e-05 -9.58263e-08
-1.40044e-07 -9.58263e-08 -2.77466e-05
0.00111112 -4.43389e-05 2.21844e-06
-4.43389e-05 0.000145668 1.00509e-06
2.21844e-06 1.00509e-06 6.44242e-05
0.000797971 -1.37431e-05 -1.96638e-07
-1.37431e-05 5.3844e-07 5.02103e-07
-1.96638e-07 5.02103e-07 -6.15468e-05
0.00101438 -1.88636e-05 -3.93039e-08
-1.88636e-05 6.31678e-05 2.70907e-07
-3.93039e-08 2.70907e-07 -5.11161e-06
0.00104354 2.6332e-05 -7.98109e-07
2.6332e-05 9.33477e-05 -6.62321e-07
-7.98109e-07 -6.62321e-07 2.88437e-05
0.00095435 2.11628e-05 -5.13175e-08
2.11628e-05 6.05089e-05 -4.44274e-07
-5.13175e-08 -4.44274e-07 -4.91646e-06
0.00098497 2.3318e-05 -3.15217e-07
2.3318e-05 5.89464e-05 -8.32297e-07
-3.15217e-07 -8.32297e-07 -7.90245e-06
0.000987394 1.00892e-06 5.78684e-08
1.00892e-06 5.43226e-05 1.06209e-07
5.78684e-08 1.06209e-07 -1.32738e-05
0.000983592 1.59991e-06 3.58138e-07
1.59991e-06 6.62184e-05 4.26836e-07
3.58138e-07 4.26836e-07 -5.57344e-06
0.000946061 -4.6669e-05 8.2562e-08
-4.6669e-05 6.4056e-05 1.17879e-06
8.2562e-08 1.17879e-06 -1.43644e-05
0.000912615 -3.79906e-05 -1.33795e-07
-3.79906e-05 5.11305e-05 -7.17201e-07
-1.33795e-07 -7.17201e-07 -3.28491e-05
0.00101245 -5.811e-05 6.22896e-07
-5.811e-05 0.000120575 9.8727e-07
6.22896e-07 9.8727e-07 1.59685e-05
0.00112871 -2.2994e-05 -2.93687e-07
-2.2994e-05 0.000154188 -7.24439e-07
-2.93687e-07 -7.24439e-07 7.35615e-05
0.00104013 -5.12583e-05 -1.46926e-07
-5.12583e-05 0.000130206 8.66169e-07
-1.46926e-07 8.66169e-07 3.785e-05
0.000654528 -6.40683e-05 -9.06203e-07
-6.40683e-05 -7.34351e-05 2.00687e-06
-9.06203e-07 2.00687e-06 -0.000183067
0.00096312 -7.44415e-05 -2.48353e-06
-7.44415e-05 7.92449e-05 1.27075e-07
-2.48353e-06 1.27075e-07 -2.3141e-05
0.00101678 -6.46777e-05 -1.01717e-06
-6.46777e-05 0.00011072 6.76885e-07
-1.01717e-06 6.76885e-07 2.1716e-05
0.000948159 -7.21396e-05 -8.13858e-08
-7.21396e-05 7.64155e-05 -5.27853e-08
-8.13858e-08 -5.27853e-08 -2.58699e-05
0.000966242 -2.08296e-05 -2.36332e-07
-2.08296e-05 6.83295e-05 9.78276e-07
-2.36332e-07 9.78276e-07 -3.33579e-06
0.0010555 -4.32844e-05 -4.52744e-07
-4.32844e-05 0.000126044 -4.61054e-07
-4.52744e-07 -4.61054e-07 4.24351e-05
0.00083471 -5.21809e-05 2.91112e-07
-5.21809e-05 3.63423e-05 -1.99203e-06
2.91112e-07 -1.99203e-06 -5.19663e-05
0.00110188 -1.83885e-05 -1.88126e-07
-1.83885e-05 0.000147556 -1.12567e-06
-1.88126e-07 -1.12567e-06 7.16623e-05
0.000900587 -3.99664e-06 4.07637e-08
-3.99664e-06 3.12449e-05 -2.93823e-08
4.07637e-08 -2.93823e-08 -3.38624e-05
0.000918987 1.51052e-05 -2.139e-07
1.51052e-05 3.40132e-05 1.21655e-06
-2.139e-07 1.21655e-06 -1.60924e-05
0.000958503 -1.21253e-06 1.64929e-07
-1.21253e-06 5.91833e-05 -4.97676e-07
1.64929e-07 -4.97676e-07 -2.89207e-07
0.000908701 1.48322e-05 -1.72324e-07
1.48322e-05 2.67399e-05 -1.09016e-07
-1.72324e-07 -1.09016e-07 -1.8891e-05
0.000868785 1.97434e-05 -9.96698e-07
1.97434e-05 3.19154e-06 1.61319e-06
-9.96698e-07 1.61319e-06 -2.56045e-05
0.00090603 4.55412e-06 5.27883e-07
4.55412e-06 2.36015e-05 -9.04069e-07
5.27883e-07 -9.04069e-07 -1.9562e-05
0.00087801 1.50241e-05 -8.77977e-08
1.50241e-05 3.42671e-06 -2.42237e-09
-8.77977e-08 -2.42237e-09 -2.35654e-05
0.0013583 2.20659e-05 -6.31856e-06
2.20659e-05 0.000252364 2.97011e-06
-6.31856e-06 2.97011e-06 0.000253968
0.000886588 5.14555e-06 1.00689e-06
5.14555e-06 4.38186e-06 -1.55737e-06
1.00689e-06 -1.55737e-06 -2.14864e-05
0.00110437 1.71748e-05 -2.73495e-06
1.71748e-05 0.000114333 5.43708e-07
-2.73495e-06 5.43708e-07 0.000115605
0.000973231 1.66481e-05 -1.76227e-06
1.66481e-05 4.61988e-05 1.49457e-06
-1.76227e-06 1.49457e-06 6.30014e-05
0.000825969 1.21139e-05 9.33945e-07
1.21139e-05 -3.54339e-05 -3.00167e-06
9.33945e-07 -3.00167e-06 -3.48233e-05
0.0015552 1.47824e-05 4.51595e-06
1.47824e-05 0.000346978 -1.11831e-06
4.51595e-06 -1.11831e-06 0.000367233
0.00212397 1.11334e-05 7.1972e-06
1.11334e-05 0.000643253 -3.79334e-06
7.1972e-06 -3.79334e-06 0.000666562
0.000759366 -6.62161e-07 -3.67967e-07
-6.62161e-07 -4.75487e-05 -1.20758e-06
-3.67967e-07 -1.20758e-06 -9.7586e-05
0.000655813 -9.07082e-06 -2.40693e-07
-9.07082e-06 -0.000114133 -1.93519e-06
-2.40693e-07 -1.93519e-06 -0.000141172
0.00099086 -5.60321e-06 -5.01204e-08
-5.60321e-06 7.08787e-05 1.92479e-08
-5.01204e-08 1.92479e-08 2.65091e-05
0.00084587 -8.34772e-06 -5.36178e-07
-8.34772e-06 -2.75419e-05 -2.98187e-06
-5.36178e-07 -2.98187e-06 -2.53396e-05
0.000771452 -6.13995e-06 3.31324e-08
-6.13995e-06 -5.69992e-05 -6.11761e-10
3.31324e-08 -6.11761e-10 -8.11806e-05
0.00076856 -2.59673e-05 -4.8965e-08
-2.59673e-05 -4.46699e-05 6.5801e-07
-4.8965e-08 6.5801e-07 -8.70968e-05
0.00204707 -5.56266e-06 -4.26845e-06
-5.56266e-06 0.000601313 -3.87078e-06
-4.26845e-06 -3.87078e-06 0.000625779
0.000838762 -4.13106e-06 -1.44564e-07
-4.13106e-06 -3.34173e-05 -1.59121e-08
-1.44564e-07 -1.59121e-08 -2.99885e-05
0.000892979 -3.93016e-06 -3.49838e-08
-3.93016e-06 3.83793e-06 1.55826e-06
-3.49838e-08 1.55826e-06 -1.82426e-05
0.00203222 1.29176e-07 -1.58481e-06
1.29176e-07 0.000592693 -6.37792e-11
-1.58481e-06 -6.37792e-11 0.000617474
0.000839576 2.86197e-07 -4.02251e-08
2.86197e-07 -3.38216e-05 2.99107e-06
-4.02251e-08 2.99107e-06 -2.99725e-05
0.0020457 5.90245e-06 -3.95284e-06
5.90245e-06 0.000600469 3.85189e-06
-3.95284e-06 3.85189e-06 0.000624971
0.00123705 -1.18073e-05 -4.12903e-06
-1.18073e-05 0.000152704 2.56273e-06
-4.12903e-06 2.56273e-06 6.32604e-05
0.00116858 6.696e-05 1.68845e-06
6.696e-05 0.000507531 -1.37499e-06
1.68845e-06 -1.37499e-06 0.000548529
0.000475043 1.70982e-05 8.65368e-05
1.70982e-05 4.32414e-05 -1.70675e-05
8.65368e-05 -1.70675e-05 -0.000113838
0.000952742 1.84884e-05 -2.39697e-07
1.84884e-05 5.65437e-05 -3.14541e-07
-2.39697e-07 -3.14541e-07 -8.5049e-06
0.00103247 6.77579e-06 5.20839e-06
6.77579e-06 -6.48492e-06 2.66257e-06
5.20839e-06 2.66257e-06 -6.65295e-05
0.00113489 2.05049e-05 -7.48655e-06
2.05049e-05 -0.000116016 4.79137e-06
-7.48655e-06 4.79137e-06 -0.000143882
0.00130726 0.000198868 2.48058e-05
0.000198868 0.000356151 -1.50203e-05
2.48058e-05 -1.50203e-05 0.000712203
0.00257151 8.83805e-05 -3.95199e-05
8.83805e-05 0.000396852 1.29733e-05
-3.95199e-05 1.29733e-05 0.000186321
0.00734316 0.000406531 1.8486e-05
0.000406531 0.00254826 -1.19791e-05
1.8486e-05 -1.19791e-05 0.00161579
-0.00189235 0.000317527 5.33953e-05
0.000317527 -0.00146451 -2.56799e-05
5.33953e-05 -2.56799e-05 -0.00123765
0.00263059 0.000198248 1.50229e-05
0.000198248 0.00019442 -1.33816e-05
1.50229e-05 -1.33816e-05 0.000663724
0.00181594 6.55776e-05 -3.2102e-05
6.55776e-05 -0.000294569 5.7668e-06
-3.2102e-05 5.7668e-06 -0.000583231
0.00565918 0.000288684 2.93625e-05
0.000288684 0.00174216 -1.53546e-05
2.93625e-05 -1.53546e-05 0.000741335
0.00238442 0.000342662 -5.11416e-06
0.000342662 -0.000202238 9.16755e-06
-5.11416e-06 9.16755e-06 -6.7034e-05
0.00238518 9.94136e-05 -1.79907e-06
9.94136e-05 4.03018e-05 1.76405e-06
-1.79907e-06 1.76405e-06 0.000353296
0.00433814 -0.00012252 2.70377e-05
-0.00012252 0.000853054 -2.92305e-05
2.70377e-05 -2.92305e-05 0.000545769
0.007824 0.000325967 2.68005e-05
0.000325967 0.0023796 -2.59334e-06
2.68005e-05 -2.59334e-06 0.00116154
0.00171698 0.000282165 7.75071e-06
0.000282165 -0.000649797 5.65057e-05
7.75071e-06 5.65057e-05 -0.000647899
0.00280398 4.0359e-05 -2.67809e-07
4.0359e-05 0.000352 1.54238e-06
-2.67809e-07 1.54238e-06 0.000651957
0.000937222 -1.19242e-05 3.2325e-07
-1.19242e-05 5.40496e-05 -1.12983e-07
3.2325e-07 -1.12983e-07 -2.49366e-05
0.000991699 -2.08107e-05 3.65605e-07
-2.08107e-05 9.0785e-05 -1.13285e-08
3.65605e-07 -1.13285e-08 1.47551e-05
0.00103934 3.55171e-05 -7.18229e-07
3.55171e-05 0.000114031 2.55459e-07
-7.18229e-07 2.55459e-07 4.85574e-05
0.000951244 -4.5675e-07 -2.12872e-07
-4.5675e-07 5.84776e-05 -4.97983e-07
-2.12872e-07 -4.97983e-07 -1.21514e-05
0.000985622 3.37184e-05 -4.33683e-07
3.37184e-05 8.49226e-05 3.37964e-07
-4.33683e-07 3.37964e-07 1.30515e-05
0.00103701 1.52333e-05 3.44946e-07
1.52333e-05 0.00011255 1.11506e-06
3.44946e-07 1.11506e-06 4.73411e-05
0.00108945 4.52045e-05 -4.35742e-07
4.52045e-05 0.000133821 1.21037e-07
-4.35742e-07 1.21037e-07 7.00665e-05
0.00111598 4.63201e-05 7.20755e-07
4.63201e-05 0.00015002 9.85826e-07
7.20755e-07 9.85826e-07 8.88345e-05
0.000885267 -0.000143964 5.1545e-06
-0.000143964 -0.00039047 -5.21892e-06
5.1545e-06 -5.21892e-06 -0.000365555
0.0010481 -0.000134458 9.44353e-07
-0.000134458 8.338e-05 1.49116e-06
9.44353e-07 1.49116e-06 -0.000103817
0.000968377 -7.59624e-05 -1.72715e-06
-7.59624e-05 8.08992e-05 3.97263e-07
-1.72715e-06 3.97263e-07 -6.47091e-08
0.00138526 -3.32112e-05 9.43891e-07
-3.32112e-05 0.00030363 -1.10066e-06
9.43891e-07 -1.10066e-06 0.000168765
0.00122389 -3.85264e-05 -1.25114e-06
-3.85264e-05 0.00018931 -5.05393e-07
-1.25114e-06 -5.05393e-07 9.5625e-05
0.00110734 -3.69323e-06 -6.94803e-07
-3.69323e-06 0.000142633 -6.01936e-07
-6.94803e-07 -6.01936e-07 5.94691e-05
0.00102659 1.96929e-05 4.75296e-08
1.96929e-05 9.75361e-05 1.04517e-07
4.75296e-08 1.04517e-07 1.49102e-05
0.00137419 -0.000187783 -2.22707e-06
-0.000187783 -1.276e-05 -2.56875e-07
-2.22707e-06 -2.56875e-07 4.79235e-06
0.00102866 9.34262e-06 1.9864e-08
9.34262e-06 9.20344e-05 -6.26101e-07
1.9864e-08 -6.26101e-07 -1.47374e-06
0.00110734 -5.30884e-06 -6.93573e-07
-5.30884e-06 0.000135984 8.48704e-08
-6.93573e-07 8.48704e-08 2.975e-05
0.00110922 -4.864e-05 -8.11088e-07
-4.864e-05 0.000207978 2.33859e-07
-8.11088e-07 2.33859e-07 -1.58679e-05
0.00114867 1.65549e-05 1.0791e-07
1.65549e-05 0.000149556 4.74171e-07
1.0791e-07 4.74171e-07 7.10485e-05
-0.000897011 -0.000157666 -1.53558e-05
-0.000157666 -0.000797387 -9.0811e-06
-1.53558e-05 -9.0811e-06 -0.00089586
0.00133643 5.06091e-05 -4.53843e-06
5.06091e-05 0.000389444 1.11331e-05
-4.53843e-06 1.11331e-05 0.000205752
0.000819546 1.21638e-05 -9.72404e-07
1.21638e-05 -2.7045e-05 2.23867e-06
-9.72404e-07 2.23867e-06 -0.000114436
0.00107775 6.75691e-05 -2.38212e-07
6.75691e-05 0.000119192 6.62893e-07
-2.38212e-07 6.62893e-07 3.21428e-05
0.00127372 -2.14788e-06 2.0424e-05
-2.14788e-06 0.000275038 2.42895e-06
2.0424e-05 2.42895e-06 0.000164323
0.00144787 -6.09502e-06 3.39022e-06
-6.09502e-06 0.000317444 4.33548e-07
3.39022e-06 4.33548e-07 0.000232756
-0.00101214 -8.21569e-06 1.36672e-05
-8.21569e-06 -0.000693736 4.57279e-07
1.36672e-05 4.57279e-07 -0.000785831
0.000598686 5.85586e-05 3.45279e-06
5.85586e-05 -7.25878e-05 5.68214e-07
3.45279e-06 5.68214e-07 -0.000147438
-0.000495348 1.81777e-05 -2.74618e-06
1.81777e-05 -0.000418262 1.90981e-06
-2.74618e-06 1.90981e-06 -0.000580049
0.000850051 1.17739e-05 -3.9437e-07
1.17739e-05 -3.72068e-05 -1.57957e-06
-3.9437e-07 -1.57957e-06 -0.000101642
0.00495092 -0.000384729 5.54915e-05
-0.000384729 0.00118448 1.75055e-05
5.54915e-05 1.75055e-05 1.43822e-06
0.00488958 0.000325782 -2.63287e-05
0.000325782 0.00145157 -6.78909e-05
-2.63287e-05 -6.78909e-05 0.000937257
0.00281016 -0.000306483 1.04335e-05
-0.000306483 -0.000202243 8.97672e-05
1.04335e-05 8.97672e-05 -9.05713e-05
0.00127008 8.24463e-06 -1.1644e-05
8.24463e-06 0.000142376 -3.75626e-06
-1.1644e-05 -3.75626e-06 7.54064e-05
0.000858039 7.58818e-06 -3.07053e-07
7.58818e-06 -0.000693621 -5.78111e-07
-3.07053e-07 -5.78111e-07 -0.000480984
0.000922527 4.6795e-05 -1.29589e-06
4.6795e-05 0.000141013 -4.85054e-07
-1.29589e-06 -4.85054e-07 6.97445e-05
0.000964948 1.22475e-05 5.87352e-07
1.22475e-05 9.17455e-05 2.83938e-06
5.87352e-07 2.83938e-06 -4.41749e-06
0.00117677 -2.71562e-06 -5.95021e-06
-2.71562e-06 0.000154224 7.96911e-07
-5.95021e-06 7.96911e-07 5.18303e-05
-0.000421077 6.10898e-05 5.23821e-06
6.10898e-05 -0.000167751 -2.2486e-06
5.23821e-06 -2.2486e-06 -0.000308931
0.00234693 8.86694e-05 1.11004e-06
8.86694e-05 8.5823e-05 -1.1589e-06
1.11004e-06 -1.1589e-06 0.000351437
0.00527586 0.000129006 2.8875e-05
0.000129006 0.000595858 -2.91147e-06
2.8875e-05 -2.91147e-06 -1.9384e-05
0.0033704 7.99911e-05 -3.57606e-05
7.99911e-05 0.000302608 -4.17227e-06
-3.57606e-05 -4.17227e-06 0.000463592
0.000645853 6.67879e-05 -7.25928e-07
6.67879e-05 0.000152944 -9.96199e-06
-7.25928e-07 -9.96199e-06 6.72804e-05
0.00132374 -2.87425e-06 -3.0414e-06
-2.87425e-06 0.00025546 1.28256e-05
-3.0414e-06 1.28256e-05 0.000128679
0.000948634 -2.82588e-06 -4.20497e-06
-2.82588e-06 -5.638e-05 -2.12196e-06
-4.20497e-06 -2.12196e-06 -0.000122969
0.00248641 0.000193991 2.16841e-05
0.000193991 0.000114001 -1.23776e-05
2.16841e-05 -1.23776e-05 0.000577741
0.00176299 0.000322916 -7.54898e-06
0.000322916 -0.00057857 -5.65132e-05
-7.54898e-06 -5.65132e-05 -0.000561959
0.00148716 0.000177235 1.19694e-05
0.000177235 0.00050895 -9.11628e-06
1.19694e-05 -9.11628e-06 0.000556836
0.00326851 -0.000174532 6.55801e-05
-0.000174532 0.000124756 8.97295e-06
6.55801e-05 8.97295e-06 -0.000632918
0.00114746 6.7991e-05 -4.77186e-07
6.7991e-05 0.000151115 4.0727e-06
-4.77186e-07 4.0727e-06 6.19734e-05
0.00120927 2.63292e-05 1.35257e-07
2.63292e-05 0.000194271 1.87252e-06
1.35257e-07 1.87252e-06 0.000121551
0.000195574 -2.82749e-05 1.6237e-06
-2.82749e-05 -0.000135097 -6.40788e-06
1.6237e-06 -6.40788e-06 -0.000277423
0.0010917 1.59593e-05 -3.532e-07
1.59593e-05 0.0001165 -4.63492e-07
-3.532e-07 -4.63492e-07 5.25248e-05
0.000892484 -4.90377e-05 -2.27303e-07
-4.90377e-05 1.37516e-05 3.90247e-08
-2.27303e-07 3.90247e-08 -6.18255e-05
0.000945862 -4.12753e-05 3.59607e-07
-4.12753e-05 5.86838e-05 1.02947e-06
3.59607e-07 1.02947e-06 -2.68136e-05
0.0010074 -3.19692e-05 7.91733e-08
-3.19692e-05 6.29094e-05 -5.57076e-08
7.91733e-08 -5.57076e-08 -6.61511e-06
0.000800698 -2.43751e-05 -8.01201e-07
-2.43751e-05 -9.0972e-06 1.87012e-06
-8.01201e-07 1.87012e-06 -7.04533e-05
0.000706613 -4.48871e-05 9.49632e-07
-4.48871e-05 -5.43017e-06 -3.91785e-07
9.49632e-07 -3.91785e-07 -0.000114588
0.000960092 -4.39969e-06 -1.54515e-07
-4.39969e-06 4.09777e-05 -2.91334e-07
-1.54515e-07 -2.91334e-07 -2.6864e-05
0.00103118 1.35529e-05 -8.78128e-09
1.35529e-05 8.86542e-05 -2.47329e-07
-8.78128e-09 -2.47329e-07 1.78149e-05
0.00110567 -4.57499e-05 8.9441e-08
-4.57499e-05 0.00014015 2.07876e-07
8.9441e-08 2.07876e-07 5.99232e-05
0.000910685 -5.91851e-05 1.07087e-06
-5.91851e-05 9.61329e-05 1.18369e-06
1.07087e-06 1.18369e-06 -1.84615e-05
0.000898472 -3.26861e-05 -1.06976e-06
-3.26861e-05 4.68031e-05 -1.02459e-06
-1.06976e-06 -1.02459e-06 -3.58795e-05
0.000778176 -5.25382e-05 4.4274e-07
-5.25382e-05 5.19498e-06 -6.01688e-08
4.4274e-07 -6.01688e-08 -9.62433e-05
0.00104385 -8.15972e-05 1.03982e-06
-8.15972e-05 0.000135583 6.78243e-07
1.03982e-06 6.78243e-07 1.248e-05
0.00112974 -8.76309e-05 -2.81673e-06
-8.76309e-05 0.000130084 2.0959e-06
-2.81673e-06 2.0959e-06 1.5811e-05
0.00128403 -6.02766e-05 -6.98125e-08
-6.02766e-05 0.00024884 -5.9353e-07
-6.98125e-08 -5.9353e-07 0.000155804
0.000829767 -7.10315e-05 -6.01749e-07
-7.10315e-05 1.16726e-05 1.47776e-07
-6.01749e-07 1.47776e-07 -0.000100663
0.0012961 -8.86063e-05 -2.28867e-07
-8.86063e-05 0.000240038 -5.99379e-07
-2.28867e-07 -5.99379e-07 0.000143333
0.000765148 -6.16859e-05 -1.40604e-06
-6.16859e-05 -1.00536e-05 2.9224e-08
-1.40604e-06 2.9224e-08 -0.000103405
0.00096514 -7.41784e-05 3.1096e-07
-7.41784e-05 7.97475e-05 -6.83571e-08
3.1096e-07 -6.83571e-08 -2.08429e-05
0.000992119 -2.86041e-05 -8.63866e-07
-2.86041e-05 8.50422e-05 6.54896e-07
-8.63866e-07 6.54896e-07 9.5773e-06
0.00106024 -6.45597e-05 -9.9771e-07
-6.45597e-05 0.00013076 7.27959e-07
-9.9771e-07 7.27959e-07 4.17974e-05
0.000836139 -6.74608e-05 1.71686e-07
-6.74608e-05 2.24827e-05 -1.0811e-06
1.71686e-07 -1.0811e-06 -7.94421e-05
0.000944054 9.90012e-06 -5.18364e-07
9.90012e-06 4.95725e-05 1.347e-06
-5.18364e-07 1.347e-06 -6.42691e-06
0.000917164 -1.92247e-05 3.17957e-07
-1.92247e-05 4.23043e-05 1.17008e-07
3.17957e-07 1.17008e-07 -2.94219e-05
0.00101704 -4.47277e-05 1.34267e-06
-4.47277e-05 0.000106041 -1.19892e-06
1.34267e-06 -1.19892e-06 2.1502e-05
0.000977012 -4.61851e-06 1.3442e-07
-4.61851e-06 7.08111e-05 -1.01578e-06
1.3442e-07 -1.01578e-06 6.78924e-06
0.000914414 1.47254e-05 6.27502e-08
1.47254e-05 3.18355e-05 -1.04085e-07
6.27502e-08 -1.04085e-07 -1.83334e-05
0.000865069 2.35835e-05 -1.00823e-06
2.35835e-05 6.45596e-06 1.75242e-06
-1.00823e-06 1.75242e-06 -2.53834e-05
0.000906046 1.10751e-05 2.30535e-07
1.10751e-05 2.57769e-05 -1.10903e-06
2.30535e-07 -1.10903e-06 -1.99596e-05
0.0008703 2.08234e-05 4.43849e-10
2.08234e-05 3.74414e-06 -2.30506e-08
4.43849e-10 -2.30506e-08 -2.51239e-05
0.000790954 2.29111e-05 -1.72675e-06
2.29111e-05 -3.89594e-05 3.13585e-06
-1.72675e-06 3.13585e-06 -4.18828e-05
0.000881919 1.34747e-05 8.85165e-07
1.34747e-05 4.99724e-06 -1.60085e-06
8.85165e-07 -1.60085e-06 -2.19199e-05
0.000811492 1.96823e-05 1.30529e-07
1.96823e-05 -3.42943e-05 6.68194e-09
1.30529e-07 6.68194e-09 -3.55926e-05
0.00206992 2.96788e-05 -4.60607e-06
2.96788e-05 0.000626478 1.49737e-06
-4.60607e-06 1.49737e-06 0.000647593
0.00082613 1.60559e-05 1.23005e-06
1.60559e-05 -3.18012e-05 -3.02662e-06
1.23005e-06 -3.02662e-06 -3.1896e-05
0.00154872 1.9622e-05 5.54109e-06
1.9622e-05 0.000347504 -1.076e-06
5.54109e-06 -1.076e-06 0.000367078
0.00211631 1.6646e-05 1.00815e-05
1.6646e-05 0.000642165 -3.72306e-06
1.00815e-05 -3.72306e-06 0.000665011
0.000774065 -1.70409e-05 2.02968e-08
-1.70409e-05 -4.44768e-05 -1.19871e-06
2.02968e-08 -1.19871e-06 -9.51586e-05
0.000628592 -1.15732e-05 -4.0803e-07
-1.15732e-05 -0.000125303 -2.05277e-06
-4.0803e-07 -2.05277e-06 -0.000155626
0.000889463 -2.15696e-06 -1.86868e-07
-2.15696e-06 1.92773e-05 -5.33482e-07
-1.86868e-07 -5.33482e-07 -3.00544e-05
0.000844355 -1.24943e-05 -6.81297e-07
-1.24943e-05 -2.49729e-05 -3.05635e-06
-6.81297e-07 -3.05635e-06 -2.45601e-05
0.000644464 -9.22705e-06 -2.60864e-08
-9.22705e-06 -0.000119829 -5.88593e-07
-2.60864e-08 -5.88593e-07 -0.00014721
0.00100389 -3.12748e-08 -3.74669e-08
-3.12748e-08 7.87107e-05 6.56601e-07
-3.74669e-08 6.56601e-07 3.34233e-05
0.00207479 -1.10703e-05 -7.4084e-06
-1.10703e-05 0.000617779 -3.88196e-06
-7.4084e-06 -3.88196e-06 0.000641562
0.000835799 -8.22755e-06 -1.12602e-07
-8.22755e-06 -3.28208e-05 -1.92168e-08
-1.12602e-07 -1.92168e-08 -3.05273e-05
0.000644733 -6.54905e-06 9.38172e-08
-6.54905e-06 -0.000122137 1.4012e-06
9.38172e-08 1.4012e-06 -0.000147183
0.00204288 -5.34829e-06 -1.68908e-06
-5.34829e-06 0.00059893 9.93481e-09
-1.68908e-06 9.93481e-09 0.000623478
0.000833053 -3.98957e-06 1.28378e-07
-3.98957e-06 -3.65112e-05 2.98247e-06
1.28378e-07 2.98247e-06 -3.3015e-05
0.00203386 3.90695e-07 -6.05542e-07
3.90695e-07 0.000593535 3.85031e-06
-6.05542e-07 3.85031e-06 0.000618309
0.00124642 -1.24986e-05 1.63086e-05
-1.24986e-05 0.000224642 -4.29411e-06
1.63086e-05 -4.29411e-06 0.000116485
0.00123179 -1.27746e-05 -5.22491e-06
-1.27746e-05 0.000155124 9.79729e-07
-5.22491e-06 9.79729e-07 6.87431e-05
0.00104399 4.40166e-05 2.0036e-05
4.40166e-05 0.000467081 -2.14206e-06
2.0036e-05 -2.14206e-06 0.000464066
0.000983449 2.29501e-05 9.16696e-08
2.29501e-05 7.16787e-05 7.1757e-08
9.16696e-08 7.1757e-08 7.70518e-06
0.000906492 4.2821e-06 -7.23678e-08
4.2821e-06 2.58186e-05 -2.44184e-07
-7.23678e-08 -2.44184e-07 -3.83662e-05
0.00106126 3.21694e-05 -2.76267e-07
3.21694e-05 0.000115816 3.42415e-07
-2.76267e-07 3.42415e-07 4.46788e-05
0.00112796 1.19581e-05 8.06782e-06
1.19581e-05 7.30921e-05 6.86138e-07
8.06782e-06 6.86138e-07 -2.16871e-05
0.00111058 1.7257e-06 -3.61951e-06
1.7257e-06 6.59213e-05 2.50663e-06
-3.61951e-06 2.50663e-06 -3.4272e-07
0.00109072 1.25474e-05 3.28223e-06
1.25474e-05 -0.000116039 -8.20997e-06
3.28223e-06 -8.20997e-06 -0.000176353
0.00163174 5.38558e-05 -4.03632e-05
5.38558e-05 -0.000381322 1.145e-05
-4.03632e-05 1.145e-05 -0.000507682
0.00206313 0.000256727 9.25561e-06
0.000256727 0.000285371 -6.50045e-06
9.25561e-06 -6.50045e-06 -0.000847633
0.00437877 0.000435524 4.99842e-05
0.000435524 0.00103074 -2.81845e-05
4.99842e-05 -2.81845e-05 0.00109057
0.00116914 7.54751e-05 3.12397e-06
7.54751e-05 -0.000691323 -9.35973e-06
3.12397e-06 -9.35973e-06 -0.000396578
0.00161942 -7.86648e-05 -4.6822e-06
-7.86648e-05 -0.000290794 7.97355e-06
-4.6822e-06 7.97355e-06 -0.000309394
0.00498026 0.000134556 3.39062e-05
0.000134556 0.00112636 -3.77271e-05
3.39062e-05 -3.77271e-05 -3.62029e-05
0.000901495 0.000128736 -5.67375e-06
0.000128736 -0.000816509 1.11098e-05
-5.67375e-06 1.11098e-05 -0.000645911
0.00189977 2.78372e-05 1.88383e-07
2.78372e-05 -0.000140357 4.6329e-06
1.88383e-07 4.6329e-06 0.000129208
0.00467428 -0.000337923 1.00905e-05
-0.000337923 0.00104459 -5.77827e-05
1.00905e-05 -5.77827e-05 0.000928969
0.0084222 0.00018934 3.36033e-05
0.00018934 0.00255662 -2.6421e-05
3.36033e-05 -2.6421e-05 0.00162063
0.000360965 1.76238e-05 6.71787e-06
1.76238e-05 -0.00101496 5.87452e-05
6.71787e-06 5.87452e-05 -0.000798
0.000563816 -4.87511e-05 1.30298e-06
-4.87511e-05 -0.000915943 5.40811e-06
1.30298e-06 5.40811e-06 -0.000643608
0.00102074 1.14823e-06 -5.49169e-08
1.14823e-06 8.90705e-05 4.55842e-07
-5.49169e-08 4.55842e-07 1.10505e-05
0.000942551 -8.33414e-06 -8.67318e-08
-8.33414e-06 5.84435e-05 -1.9209e-07
-8.67318e-08 -1.9209e-07 -2.13901e-05
0.000989584 -3.0077e-05 -3.52092e-07
-3.0077e-05 8.92418e-05 2.04746e-07
-3.52092e-07 2.04746e-07 1.30039e-05
0.000954344 1.44721e-05 -3.94839e-07
1.44721e-05 6.03288e-05 -5.37127e-07
-3.94839e-07 -5.37127e-07 -1.06227e-05
0.00107649 6.29951e-05 1.11579e-06
6.29951e-05 0.000131888 4.49826e-07
1.11579e-06 4.49826e-07 6.1164e-05
0.0011355 4.50864e-05 1.16131e-07
4.50864e-05 0.000157384 4.44926e-07
1.16131e-07 4.44926e-07 9.37642e-05
0.00336633 -0.000250661 2.8639e-06
-0.000250661 0.000953313 2.44892e-07
2.8639e-06 2.44892e-07 0.000964613
0.000123388 -1.93841e-05 2.50304e-06
-1.93841e-05 -0.000265479 4.56891e-07
2.50304e-06 4.56891e-07 -0.000510395
0.00110772 3.37101e-05 4.08551e-07
3.37101e-05 0.000141528 -4.17958e-08
4.08551e-07 -4.17958e-08 5.78516e-05
0.00128499 -4.37355e-05 7.30141e-07
-4.37355e-05 0.000228959 -2.09892e-06
7.30141e-07 -2.09892e-06 0.000116481
0.00111793 -8.75335e-07 2.54788e-07
-8.75335e-07 0.000140385 -1.19394e-06
2.54788e-07 -1.19394e-06 4.8701e-05
0.00104286 4.59999e-06 5.0952e-07
4.59999e-06 9.30355e-05 -1.68973e-08
5.0952e-07 -1.68973e-08 1.49342e-05
0.00104808 3.55681e-05 3.43532e-07
3.55681e-05 0.000101688 -2.05535e-07
3.43532e-07 -2.05535e-07 1.65227e-05
0.000728098 -0.000165522 -4.20662e-06
-0.000165522 -4.35091e-05 2.23641e-06
-4.20662e-06 2.23641e-06 -0.00010615
0.00113083 -1.26332e-05 7.00831e-07
-1.26332e-05 0.000129719 -9.48633e-07
7.00831e-07 -9.48633e-07 4.30767e-05
0.000918845 3.94076e-05 -1.70477e-06
3.94076e-05 0.000233049 -1.27553e-06
-1.70477e-06 -1.27553e-06 5.89009e-05
0.000953653 -9.83846e-07 6.051e-07
-9.83846e-07 4.99958e-05 -1.69847e-07
6.051e-07 -1.69847e-07 -2.64118e-05
-0.00082174 -5.58817e-05 -5.55683e-07
-5.58817e-05 -0.000439397 -9.89192e-06
-5.55683e-07 -9.89192e-06 -0.00065969
5.99375e-05 -1.72864e-06 -4.30886e-06
-1.72864e-06 -0.000241747 1.93567e-05
-4.30886e-06 1.93567e-05 -0.000282104
0.00103047 -1.48221e-05 -1.02633e-07
-1.48221e-05 8.14334e-05 1.2996e-06
-1.02633e-07 1.2996e-06 -1.48544e-06
0.00132538 -1.66486e-07 -4.59684e-07
-1.66486e-07 0.000239681 6.99042e-07
-4.59684e-07 6.99042e-07 9.27123e-05
0.00110169 -1.86369e-06 6.71655e-06
-1.86369e-06 0.00015769 1.41461e-06
6.71655e-06 1.41461e-06 3.83751e-05
0.00139314 -6.02858e-06 5.89385e-07
-6.02858e-06 0.000285383 1.41863e-06
5.89385e-07 1.41863e-06 0.000194005
0.00101066 6.54821e-05 4.07898e-06
6.54821e-05 0.00018348 3.70869e-06
4.07898e-06 3.70869e-06 0.000104106
0.000543333 0.000110254 1.23649e-05
0.000110254 0.000160704 -1.4363e-05
1.23649e-05 -1.4363e-05 3.75783e-05
0.00107668 1.16315e-05 -1.61748e-05
1.16315e-05 0.000172948 -6.11851e-06
-1.61748e-05 -6.11851e-06 7.75899e-05
0.00354353 3.02751e-05 -1.99565e-05
3.02751e-05 0.000358678 -4.57435e-06
-1.99565e-05 -4.57435e-06 -0.000226523
-0.00125451 3.13058e-05 -8.29127e-06
3.13058e-05 -0.00187678 6.87938e-05
-8.29127e-06 6.87938e-05 -0.00170781
0.00104972 -3.52289e-06 -7.4164e-06
-3.52289e-06 0.000122483 -4.25493e-06
-7.4164e-06 -4.25493e-06 1.38147e-05
0.0013056 6.38019e-05 -1.36934e-06
6.38019e-05 -0.000537152 7.72089e-06
-1.36934e-06 7.72089e-06 -0.000292135
0.000553264 4.18413e-05 -3.73968e-06
4.18413e-05 8.87334e-05 -2.16646e-06
-3.73968e-06 -2.16646e-06 6.86628e-06
0.00117894 -3.00809e-06 -3.72669e-06
-3.00809e-06 0.000159508 5.54147e-06
-3.72669e-06 5.54147e-06 2.61198e-05
0.00110941 -8.66798e-06 3.44804e-06
-8.66798e-06 7.15687e-05 -2.16675e-06
3.44804e-06 -2.16675e-06 -1.8101e-06
0.00120979 0.000213698 4.47125e-05
0.000213698 5.43415e-05 1.6591e-06
4.47125e-05 1.6591e-06 -2.90551e-05
0.00191775 0.000188557 2.68705e-06
0.000188557 -0.000244189 -2.37952e-06
2.68705e-06 -2.37952e-06 0.00022118
0.000864641 0.000161252 5.00594e-06
0.000161252 -0.000800291 -1.09722e-05
5.00594e-06 -1.09722e-05 -0.00062521
0.00729701 6.98632e-05 5.95423e-06
6.98632e-05 0.00211379 -1.80674e-05
5.95423e-06 -1.80674e-05 0.00140621
-0.000603716 8.28079e-06 -3.27341e-05
8.28079e-06 -0.000119781 -1.48136e-05
-3.27341e-05 -1.48136e-05 -0.000260237
0.00123021 -1.68285e-05 -1.5762e-05
-1.68285e-05 0.000221167 4.80184e-06
-1.5762e-05 4.80184e-06 0.000111722
0.00102075 2.07174e-05 1.80079e-05
2.07174e-05 -0.000190539 -1.02703e-05
1.80079e-05 -1.02703e-05 -0.000217953
0.00141535 0.000336448 1.38873e-05
0.000336448 0.000115959 -2.80033e-06
1.38873e-05 -2.80033e-06 0.000765748
-0.00339412 0.000285297 5.86296e-05
0.000285297 -0.00253082 -3.43352e-05
5.86296e-05 -3.43352e-05 -0.00245633
0.00798395 0.000245539 1.34725e-05
0.000245539 0.00228104 -3.37273e-05
1.34725e-05 -3.37273e-05 0.00112978
0.00129125 -3.56387e-05 -1.73468e-05
-3.56387e-05 3.72368e-05 9.622e-05
-1.73468e-05 9.622e-05 -0.00013702
0.00109391 1.02971e-05 2.5419e-06
1.02971e-05 0.000133987 7.08637e-06
2.5419e-06 7.08637e-06 6.63371e-05
0.000218306 -2.66462e-05 2.63196e-07
-2.66462e-05 -0.000123709 -2.71156e-07
2.63196e-07 -2.71156e-07 -0.000279193
0.000216403 -5.36992e-05 2.42199e-06
-5.36992e-05 -2.09323e-05 -5.57526e-06
2.42199e-06 -5.57526e-06 -0.00024204
0.000972356 -4.06474e-05 2.88827e-07
-4.06474e-05 4.77244e-05 -8.10708e-07
2.88827e-07 -8.10708e-07 -2.29248e-05
0.00077654 -3.00798e-05 4.24202e-07
-3.00798e-05 -3.20394e-05 3.27816e-06
4.24202e-07 3.27816e-06 -9.28944e-05
0.000736196 -2.06447e-05 -1.15315e-07
-2.06447e-05 1.13118e-05 2.80965e-07
-1.15315e-07 2.80965e-07 -8.9012e-05
0.00095065 -8.70348e-05 3.38751e-06
-8.70348e-05 0.000174516 -1.37689e-06
3.38751e-06 -1.37689e-06 -4.93496e-06
0.00127357 -4.85556e-05 -5.08604e-07
-4.85556e-05 0.000220049 -3.855e-07
-5.08604e-07 -3.855e-07 0.000138491
0.0011973 -7.73843e-05 4.47216e-07
-7.73843e-05 0.000227425 2.0325e-07
4.47216e-07 2.0325e-07 0.00010968
0.00099286 -8.38505e-05 2.2468e-06
-8.38505e-05 0.000141018 1.25701e-06
2.2468e-06 1.25701e-06 -2.26811e-05
0.000538478 -4.44239e-05 -2.01811e-07
-4.44239e-05 -0.000113701 -1.26023e-06
-2.01811e-07 -1.26023e-06 -0.000211316
0.00107032 -8.23301e-05 -3.102e-07
-8.23301e-05 0.000146404 -5.42652e-08
-3.102e-07 -5.42652e-08 2.05811e-05
0.00167074 -0.000116186 -9.31522e-07
-0.000116186 0.000404129 1.45355e-06
-9.31522e-07 1.45355e-06 0.000264512
0.00136176 -0.000104536 -2.94209e-06
-0.000104536 0.000215432 2.54655e-06
-2.94209e-06 2.54655e-06 8.84824e-05
0.000786063 -7.29825e-05 -9.20653e-07
-7.29825e-05 -3.31241e-05 1.60871e-06
-9.20653e-07 1.60871e-06 -0.000133289
0.00108188 -8.65595e-05 -8.03439e-07
-8.65595e-05 0.000106395 6.64814e-07
-8.03439e-07 6.64814e-07 -9.70764e-06
0.000993937 -7.76642e-05 -3.09406e-07
-7.76642e-05 9.06907e-05 -5.89712e-07
-3.09406e-07 -5.89712e-07 -2.42743e-05
0.00119629 -8.26439e-05 3.85355e-07
-8.26439e-05 0.000190395 -1.15807e-06
3.85355e-07 -1.15807e-06 9.93393e-05
0.00109282 -8.03346e-05 1.47936e-06
-8.03346e-05 0.000139336 -5.7667e-07
1.47936e-06 -5.7667e-07 4.51127e-05
0.000835278 -4.13207e-05 -5.93913e-07
-4.13207e-05 1.50315e-05 9.01741e-07
-5.93913e-07 9.01741e-07 -6.82144e-05
0.000917156 -6.42989e-05 3.20475e-07
-6.42989e-05 6.54584e-05 -1.16583e-07
3.20475e-07 -1.16583e-07 -2.68242e-05
0.000979963 -7.43962e-05 3.30493e-06
-7.43962e-05 8.65342e-05 -1.3434e-06
3.30493e-06 -1.3434e-06 -1.22705e-05
0.00093747 1.21986e-05 -8.57563e-07
1.21986e-05 4.94906e-05 1.28514e-06
-8.57563e-07 1.28514e-06 -1.27896e-05
0.00100845 -3.34368e-05 -1.58276e-07
-3.34368e-05 9.35443e-05 -2.29596e-08
-1.58276e-07 -2.29596e-08 1.76676e-05
0.0010967 -6.41518e-05 4.30003e-07
-6.41518e-05 0.000147255 -2.65321e-07
4.30003e-07 -2.65321e-07 5.84305e-05
0.000857004 2.45003e-05 -1.14722e-06
2.45003e-05 7.05388e-06 1.98029e-06
-1.14722e-06 1.98029e-06 -2.90342e-05
0.000925925 9.05034e-06 1.32242e-07
9.05034e-06 3.99976e-05 -2.92855e-08
1.32242e-07 -2.92855e-08 -1.57413e-05
0.000872288 -1.84695e-05 9.18812e-07
-1.84695e-05 1.84598e-05 -7.64244e-07
9.18812e-07 -7.64244e-07 -5.33686e-05
0.000911791 1.38861e-05 4.60273e-07
1.38861e-05 3.06642e-05 -1.29923e-06
4.60273e-07 -1.29923e-06 -1.95496e-05
0.000861268 2.57877e-05 1.02034e-07
2.57877e-05 4.60712e-06 -4.52166e-08
1.02034e-07 -4.52166e-08 -2.74297e-05
0.000774892 2.61979e-05 -2.05543e-06
2.61979e-05 -4.00833e-05 3.21152e-06
-2.05543e-06 3.21152e-06 -4.54172e-05
0.000871741 2.20511e-05 7.5975e-07
2.20511e-05 4.21565e-06 -1.75764e-06
7.5975e-07 -1.75764e-06 -2.47124e-05
0.000808638 2.32374e-05 8.72469e-08
2.32374e-05 -3.00135e-05 -1.73801e-08
8.72469e-08 -1.73801e-08 -3.30054e-05
0.00213441 3.20786e-05 -1.66464e-05
3.20786e-05 0.000665175 3.53386e-06
-1.66464e-05 3.53386e-06 0.000685207
0.000827508 1.98843e-05 1.57032e-06
1.98843e-05 -2.63296e-05 -3.06233e-06
1.57032e-06 -3.06233e-06 -2.76296e-05
0.00154453 2.44497e-05 6.54794e-06
2.44497e-05 0.000350889 -1.02372e-06
6.54794e-06 -1.02372e-06 0.000369328
0.00210955 2.19855e-05 1.27696e-05
2.19855e-05 0.000642649 -3.65897e-06
1.27696e-05 -3.65897e-06 0.000664783
0.000910331 1.62043e-05 -6.57986e-07
1.62043e-05 2.65434e-05 -7.8635e-07
-6.57986e-07 -7.8635e-07 -2.57402e-05
0.000859309 -1.37721e-05 -7.20994e-07
-1.37721e-05 -4.52505e-06 -1.61564e-06
-7.20994e-07 -1.61564e-06 -3.57813e-05
0.000832582 8.99076e-06 -6.05165e-07
8.99076e-06 -1.14322e-05 -5.24951e-07
-6.05165e-07 -5.24951e-07 -6.28975e-05
0.000837782 -1.64743e-05 -8.44238e-07
-1.64743e-05 -2.37502e-05 -3.18041e-06
-8.44238e-07 -3.18041e-06 -2.56474e-05
0.000753665 -1.17969e-05 -1.78265e-07
-1.17969e-05 -6.05768e-05 -6.0037e-07
-1.78265e-07 -6.0037e-07 -9.03544e-05
0.00102084 -3.29502e-06 9.82507e-08
-3.29502e-06 8.68298e-05 2.11512e-07
9.82507e-08 2.11512e-07 3.82071e-05
0.00212135 -1.66522e-05 -1.03454e-05
-1.66522e-05 0.000645232 -3.90762e-06
-1.03454e-05 -3.90762e-06 0.000667939
0.000829344 -1.23168e-05 -1.03896e-07
-1.23168e-05 -3.26917e-05 -2.33963e-08
-1.03896e-07 -2.33963e-08 -3.21708e-05
0.000635835 -9.33006e-06 5.78493e-08
-9.33006e-06 -0.000124124 8.39326e-07
5.78493e-08 8.39326e-07 -0.000151853
0.00207191 -1.08511e-05 -1.5229e-06
-1.08511e-05 0.00061596 2.32373e-08
-1.5229e-06 2.32373e-08 0.00063986
0.000824425 -8.10543e-06 4.02018e-07
-8.10543e-06 -3.87652e-05 2.98391e-06
4.02018e-07 2.98391e-06 -3.6379e-05
0.00203945 -5.12524e-06 2.69327e-06
-5.12524e-06 0.000596916 3.84097e-06
2.69327e-06 3.84097e-06 0.000621543
0.00120643 1.60225e-06 3.12127e-06
1.60225e-06 0.000177839 -1.27867e-05
3.12127e-06 -1.27867e-05 4.53256e-05
0.00122527 -1.19199e-05 6.05863e-07
-1.19199e-05 0.00021993 -1.17203e-08
6.05863e-07 -1.17203e-08 0.000113233
0.0012602 -1.42573e-05 -5.67849e-06
-1.42573e-05 0.000177573 6.76973e-06
-5.67849e-06 6.76973e-06 9.57569e-05
0.000892881 -1.36794e-05 1.31325e-09
-1.36794e-05 1.60703e-05 -4.54481e-07
1.31325e-09 -4.54481e-07 -4.79347e-05
0.0010522 4.91141e-06 -1.06199e-07
4.91141e-06 0.000102739 -2.52996e-07
-1.06199e-07 -2.52996e-07 3.22553e-05
0.00101569 2.26887e-05 1.08683e-06
2.26887e-05 8.73745e-05 3.42198e-07
1.08683e-06 3.42198e-07 2.46839e-05
0.000892504 -2.75807e-06 1.98136e-08
-2.75807e-06 1.76578e-05 2.97985e-08
1.98136e-08 2.97985e-08 -4.58179e-05
0.000997141 1.53485e-05 1.24236e-07
1.53485e-05 7.99215e-05 3.37223e-07
1.24236e-07 3.37223e-07 9.25284e-06
0.000996527 1.53815e-05 -4.94488e-07
1.53815e-05 7.70033e-05 1.05457e-08
-4.94488e-07 1.05457e-08 6.67636e-06
0.00097585 6.85634e-05 -3.45251e-08
6.85634e-05 7.45561e-05 5.85081e-07
-3.45251e-08 5.85081e-07 -3.78604e-06
0.00104867 1.9433e-05 -6.00087e-06
1.9433e-05 2.50148e-05 9.72889e-06
-6.00087e-06 9.72889e-06 -4.98306e-05
0.00111886 9.97185e-06 3.93975e-06
9.97185e-06 0.00011713 -4.4608e-07
3.93975e-06 -4.4608e-07 1.45342e-05
0.00119567 -3.41396e-06 -1.15985e-05
-3.41396e-06 0.000139884 2.59802e-06
-1.15985e-05 2.59802e-06 7.07297e-05
0.000850498 1.86132e-05 5.92015e-06
1.86132e-05 -0.000736419 -1.7893e-06
5.92015e-06 -1.7893e-06 -0.000502636
0.000444513 -4.77266e-05 -5.80301e-05
-4.77266e-05 -0.00125175 5.6727e-05
-5.80301e-05 5.6727e-05 -0.00132166
0.00235522 0.000100809 4.96701e-05
0.000100809 0.000149586 -5.00321e-05
4.96701e-05 -5.00321e-05 -0.00091248
0.00538488 0.000305615 2.56428e-05
0.000305615 0.00124524 -2.5325e-05
2.56428e-05 -2.5325e-05 0.00128786
0.00204415 -0.000261639 -1.99501e-05
-0.000261639 -0.000263574 1.4087e-05
-1.99501e-05 1.4087e-05 -0.000521711
0.00284069 -6.87677e-05 2.76703e-05
-6.87677e-05 -0.000129896 -4.5849e-05
2.76703e-05 -4.5849e-05 -0.00113761
0.0035669 -3.2832e-06 -1.49108e-05
-3.2832e-06 0.000304189 2.6549e-06
-1.49108e-05 2.6549e-06 0.000396062
0.0025039 -7.23999e-05 1.49331e-06
-7.23999e-05 0.000177595 -3.45861e-06
1.49331e-06 -3.45861e-06 0.000525279
0.00327085 -0.000220856 1.80544e-05
-0.000220856 0.000802125 -1.8745e-05
1.80544e-05 -1.8745e-05 0.000685058
0.00324318 -0.000340168 -6.84021e-06
-0.000340168 -0.000672361 -0.000100156
-6.84021e-06 -0.000100156 -0.000969664
0.000335569 -0.000136745 3.45426e-05
-0.000136745 -0.00122245 3.93843e-05
3.45426e-05 3.93843e-05 -0.00114852
-2.87456e-05 -0.000132473 1.10157e-05
-0.000132473 -0.00133203 5.64117e-06
1.10157e-05 5.64117e-06 -0.000910556
0.00111728 -1.86731e-05 -2.61492e-07
-1.86731e-05 0.000131201 8.88489e-07
-2.61492e-07 8.88489e-07 5.60373e-05
0.000947466 4.19474e-06 7.27121e-08
4.19474e-06 5.21003e-05 -1.14108e-07
7.27121e-08 -1.14108e-07 -2.63879e-05
0.00091971 -1.797e-06 -2.41457e-07
-1.797e-06 4.86421e-05 -6.46231e-07
-2.41457e-07 -6.46231e-07 -3.20451e-05
0.000964542 2.20838e-05 -4.32798e-08
2.20838e-05 6.58878e-05 -7.80002e-07
-4.32798e-08 -7.80002e-07 -5.41497e-06
0.00321657 -0.000195145 1.23357e-05
-0.000195145 0.00114836 4.11892e-06
1.23357e-05 4.11892e-06 0.00112243
0.000485823 1.88903e-05 3.97915e-06
1.88903e-05 7.8059e-05 -4.64773e-06
3.97915e-06 -4.64773e-06 -8.9314e-05
0.00091582 -5.75203e-06 4.52689e-08
-5.75203e-06 2.51782e-05 -6.29419e-07
4.52689e-08 -6.29419e-07 -5.25287e-05
0.000989741 2.89796e-05 5.42118e-07
2.89796e-05 7.28343e-05 -8.1112e-07
5.42118e-07 -8.1112e-07 -1.26794e-05
0.00148013 -4.24232e-06 6.84153e-07
-4.24232e-06 0.000309515 -3.13417e-06
6.84153e-07 -3.13417e-06 0.0002222
0.000943136 1.11987e-05 -3.67779e-07
1.11987e-05 4.39526e-05 2.21207e-08
-3.67779e-07 2.21207e-08 -3.28756e-05
0.000948822 -4.86614e-06 -1.27822e-06
-4.86614e-06 4.21194e-05 6.34075e-07
-1.27822e-06 6.34075e-07 -4.27114e-05
0.00030154 -7.59467e-05 3.1019e-06
-7.59467e-05 0.000126852 -3.77385e-06
3.1019e-06 -3.77385e-06 -5.65338e-05
0.000815186 -3.56963e-07 3.9451e-06
-3.56963e-07 0.000132889 6.92884e-06
3.9451e-06 6.92884e-06 9.68874e-05
0.00106353 -8.17599e-06 4.9286e-07
-8.17599e-06 0.000109055 -1.12322e-06
4.9286e-07 -1.12322e-06 2.7897e-05
-0.000337753 2.56344e-05 1.77085e-06
2.56344e-05 0.000222365 -1.06782e-05
1.77085e-06 -1.06782e-05 -0.000253888
0.0015705 -3.82776e-05 6.8583e-06
-3.82776e-05 0.000509606 8.88627e-06
6.8583e-06 8.88627e-06 0.00041644
0.00134804 -8.88306e-07 -2.06517e-05
-8.88306e-07 0.000324992 -1.51449e-06
-2.06517e-05 -1.51449e-06 0.000208273
0.00128641 -1.30137e-06 8.77947e-08
-1.30137e-06 0.000194576 4.31484e-07
8.77947e-08 4.31484e-07 4.01664e-05
0.000907005 -1.54621e-06 -1.00328e-05
-1.54621e-06 2.56368e-05 2.35662e-07
-1.00328e-05 2.35662e-07 -0.000102274
0.000695089 2.22187e-05 4.87e-07
2.22187e-05 0.000134339 5.05176e-06
4.87e-07 5.05176e-06 5.71436e-05
0.00153878 0.000127022 -5.862e-05
0.000127022 0.000523381 1.05812e-05
-5.862e-05 1.05812e-05 0.000579343
0.00108322 -3.19447e-06 -2.61205e-06
-3.19447e-06 9.47093e-05 -3.70502e-06
-2.61205e-06 -3.70502e-06 -4.51866e-05
0.00328126 0.000224876 3.27211e-05
0.000224876 0.000127158 -7.74197e-05
3.27211e-05 -7.74197e-05 -0.000643381
0.00535974 0.000340689 -2.80047e-05
0.000340689 0.00123811 2.58913e-05
-2.80047e-05 2.58913e-05 0.0012788
0.00123212 -1.45231e-05 1.0701e-05
-1.45231e-05 0.000170281 -2.42942e-06
1.0701e-05 -2.42942e-06 9.41886e-05
0.00293794 0.000191141 -1.38178e-05
0.000191141 0.000479106 9.88035e-06
-1.38178e-05 9.88035e-06 0.000866674
-0.000264264 -1.72585e-05 2.39118e-05
-1.72585e-05 9.40086e-07 -1.55728e-06
2.39118e-05 -1.55728e-06 -0.000133316
0.00120094 -1.5984e-05 -5.86252e-07
-1.5984e-05 0.000211934 -1.42717e-07
-5.86252e-07 -1.42717e-07 0.000103909
0.0010793 1.34564e-05 6.84263e-06
1.34564e-05 -0.000132468 -4.57263e-06
6.84263e-06 -4.57263e-06 -0.000181775
0.00200362 -4.71995e-05 -7.33683e-06
-4.71995e-05 0.000486458 1.96499e-05
-7.33683e-06 1.96499e-05 0.000471608
0.000255268 0.000354908 -4.16858e-06
0.000354908 -0.000698171 3.49652e-06
-4.16858e-06 3.49652e-06 5.38904e-05
0.00195111 0.000381925 3.32457e-06
0.000381925 -0.000252438 -6.4565e-06
3.32457e-06 -6.4565e-06 -0.000157348
0.00302385 1.49658e-05 3.05552e-05
1.49658e-05 0.000264625 -1.30314e-05
3.05552e-05 -1.30314e-05 -0.00100432
8.96202e-05 -6.06102e-05 1.24935e-05
-6.06102e-05 7.90748e-05 -1.17152e-05
1.24935e-05 -1.17152e-05 -5.16778e-05
0.00122877 -1.50229e-05 2.47146e-06
-1.50229e-05 0.000156659 -1.82163e-06
2.47146e-06 -1.82163e-06 5.85538e-05
-0.00128875 0.000152063 8.77604e-06
0.000152063 -0.00106512 -9.32282e-06
8.77604e-06 -9.32282e-06 -0.000876976
-0.000189012 0.000351892 5.13437e-05
0.000351892 -0.000194646 -1.60363e-05
5.13437e-05 -1.60363e-05 2.20086e-05
0.0081812 0.000518694 2.75958e-05
0.000518694 0.00259106 -5.21335e-05
2.75958e-05 -5.21335e-05 0.00152042
0.0027768 -0.000231995 -6.07554e-05
-0.000231995 0.000385536 9.84572e-05
-6.07554e-05 9.84572e-05 -0.000173407
0.00045161 -3.13722e-05 -1.50972e-06
-3.13722e-05 -1.87817e-05 4.86449e-06
-1.50972e-06 4.86449e-06 -0.000183015
0.000467042 -3.20079e-05 7.1435e-07
-3.20079e-05 0.0001036 -9.11618e-07
7.1435e-07 -9.11618e-07 -0.000113208
0.0017798 -0.000150424 8.31828e-06
-0.000150424 0.00056781 -3.14337e-06
8.31828e-06 -3.14337e-06 0.000399282
0.000730033 -4.24395e-06 -1.74918e-06
-4.24395e-06 1.27424e-05 -7.25433e-07
-1.74918e-06 -7.25433e-07 -8.02454e-05
0.000457747 -5.7538e-05 2.50982e-07
-5.7538e-05 -4.84951e-05 -2.89521e-07
2.50982e-07 -2.89521e-07 -0.000235841
0.00124825 -0.000108178 3.61005e-06
-0.000108178 0.000255836 3.00991e-06
3.61005e-06 3.00991e-06 8.02738e-05
0.00148668 -9.81881e-05 -1.40295e-06
-9.81881e-05 0.000360567 -1.54167e-07
-1.40295e-06 -1.54167e-07 0.000238129
0.00117642 -9.00715e-05 2.28924e-07
-9.00715e-05 0.00022248 6.03131e-07
2.28924e-07 6.03131e-07 6.0218e-05
0.00105112 -0.000103647 8.53005e-07
-0.000103647 8.45955e-05 1.92222e-07
8.53005e-07 1.92222e-07 -7.99515e-05
0.00116787 -8.56438e-05 -7.43198e-07
-8.56438e-05 0.000193917 -4.48915e-07
-7.43198e-07 -4.48915e-07 6.49063e-05
0.00152358 -0.000111592 -7.63609e-09
-0.000111592 0.000325372 4.93672e-07
-7.63609e-09 4.93672e-07 0.000183206
0.00129073 -0.000109391 -4.18477e-07
-0.000109391 0.000165896 1.26554e-07
-4.18477e-07 1.26554e-07 1.91944e-05
0.00133976 -0.000104586 -2.32276e-06
-0.000104586 0.000156242 -7.50492e-07
-2.32276e-06 -7.50492e-07 2.8897e-05
0.00158772 -0.000107685 -3.15057e-06
-0.000107685 0.000334033 3.08566e-06
-3.15057e-06 3.08566e-06 0.000221002
0.00136683 -0.000105669 -5.82715e-07
-0.000105669 0.000215768 5.65579e-07
-5.82715e-07 5.65579e-07 8.6426e-05
0.000728887 -6.82018e-05 7.33769e-08
-6.82018e-05 -6.02228e-05 -6.71992e-07
7.33769e-08 -6.71992e-07 -0.00015185
0.000918349 -7.7454e-05 1.14498e-06
-7.7454e-05 3.45046e-05 -3.99959e-07
1.14498e-06 -3.99959e-07 -6.49597e-05
0.00107555 -8.70432e-05 1.09618e-06
-8.70432e-05 0.000104353 -1.14737e-06
1.09618e-06 -1.14737e-06 -1.37638e-05
0.00106883 -7.21436e-05 -3.26896e-07
-7.21436e-05 0.000126085 9.64669e-09
-3.26896e-07 9.64669e-09 3.80254e-05
0.00114213 -8.02557e-05 -1.22554e-07
-8.02557e-05 0.000164283 -2.91698e-07
-1.22554e-07 -2.91698e-07 7.29697e-05
0.000874307 -7.14932e-05 2.69356e-06
-7.14932e-05 3.11188e-05 2.33871e-07
2.69356e-06 2.33871e-07 -6.06072e-05
0.000888245 6.64029e-06 -3.73566e-07
6.64029e-06 2.9655e-05 1.17028e-06
-3.73566e-07 1.17028e-06 -4.03954e-05
0.000904669 -4.23167e-05 1.66747e-09
-4.23167e-05 4.9184e-05 3.61718e-07
1.66747e-09 3.61718e-07 -3.33085e-05
0.00107145 -6.71362e-05 1.08647e-06
-6.71362e-05 0.000142222 -5.99578e-07
1.08647e-06 -5.99578e-07 5.09052e-05
0.000837678 3.06613e-05 -1.4935e-06
3.06613e-05 7.58533e-07 2.16127e-06
-1.4935e-06 2.16127e-06 -4.09596e-05
0.000924188 6.11899e-06 -1.60933e-07
6.11899e-06 4.31318e-05 -2.66353e-08
-1.60933e-07 -2.66353e-08 -1.94825e-05
0.00102246 -3.5822e-05 5.39615e-07
-3.5822e-05 0.000100445 -6.50629e-07
5.39615e-07 -6.50629e-07 2.43977e-05
0.000792372 2.9371e-05 -3.46554e-06
2.9371e-05 -2.46317e-05 4.56813e-06
-3.46554e-06 4.56813e-06 -3.27751e-05
0.000848224 2.88231e-05 2.56756e-07
2.88231e-05 3.18071e-06 -6.20248e-08
2.56756e-07 -6.20248e-08 -3.33095e-05
0.000906075 8.65678e-06 8.4257e-07
8.65678e-06 2.95825e-05 -1.24157e-06
8.4257e-07 -1.24157e-06 -2.59377e-05
0.00085589 2.79496e-05 7.66132e-07
2.79496e-05 1.89128e-06 -1.95123e-06
7.66132e-07 -1.95123e-06 -3.03125e-05
0.000798797 2.67265e-05 7.55139e-08
2.67265e-05 -2.80003e-05 -4.54374e-08
7.55139e-08 -4.54374e-08 -3.34552e-05
0.00216744 3.71776e-05 -1.89272e-05
3.71776e-05 0.000689392 3.47982e-06
-1.89272e-05 3.47982e-06 0.000707761
0.000827047 2.35854e-05 1.88751e-06
2.35854e-05 -2.07016e-05 -3.12691e-06
1.88751e-06 -3.12691e-06 -2.37632e-05
0.00213567 3.21894e-05 8.43153e-07
3.21894e-05 0.000666753 5.08055e-08
8.43153e-07 5.08055e-08 0.0006866
0.00211479 2.71681e-05 1.53736e-05
2.71681e-05 0.000650543 -3.60768e-06
1.53736e-05 -3.60768e-06 0.000671624
0.000974204 1.50231e-05 -2.98745e-07
1.50231e-05 6.06987e-05 -5.45165e-07
-2.98745e-07 -5.45165e-07 -5.69993e-06
0.000917903 1.68105e-05 -7.6675e-07
1.68105e-05 3.04704e-05 -1.03121e-06
-7.6675e-07 -1.03121e-06 -2.48552e-05
0.000852534 -2.03862e-05 -7.49825e-07
-2.03862e-05 -5.70332e-06 -1.73713e-06
-7.49825e-07 -1.73713e-06 -3.91206e-05
0.000918483 9.24765e-06 -8.48318e-08
9.24765e-06 2.97705e-05 -4.39011e-08
-8.48318e-08 -4.39011e-08 -2.1992e-05
0.000823902 -1.97643e-05 -1.3255e-06
-1.97643e-05 -2.60105e-05 -3.27475e-06
-1.3255e-06 -3.27475e-06 -3.01736e-05
0.000867133 -1.52362e-05 -7.48667e-08
-1.52362e-05 -1.3451e-07 6.17827e-09
-7.48667e-08 6.17827e-09 -3.14845e-05
0.000889698 1.3377e-05 1.63449e-07
1.3377e-05 1.7083e-05 2.96612e-07
1.63449e-07 2.96612e-07 -3.26493e-05
0.00218511 -2.22128e-05 -1.3232e-05
-2.22128e-05 0.000682664 -3.94147e-06
-1.3232e-05 -3.94147e-06 0.000703961
0.000819012 -1.62446e-05 -1.07154e-07
-1.62446e-05 -3.33914e-05 -2.82396e-08
-1.07154e-07 -2.82396e-08 -3.51659e-05
0.000877533 -1.21929e-05 1.27695e-07
-1.21929e-05 3.4283e-06 9.91389e-07
1.27695e-07 9.91389e-07 -2.57909e-05
0.0021156 -1.64537e-05 -1.38057e-06
-1.64537e-05 0.000641805 3.68341e-08
-1.38057e-06 3.68341e-08 0.00066468
0.000813428 -1.21335e-05 5.54996e-07
-1.21335e-05 -4.08672e-05 3.0453e-06
5.54996e-07 3.0453e-06 -4.02372e-05
0.0020653 -1.06033e-05 6.12785e-06
-1.06033e-05 0.000612159 3.83738e-06
6.12785e-06 3.83738e-06 0.000636197
0.000838004 1.42948e-05 -1.0704e-05
1.42948e-05 7.98482e-06 -1.32656e-05
-1.0704e-05 -1.32656e-05 -9.85751e-05
0.00115173 1.28824e-06 3.98943e-06
1.28824e-06 0.000140569 -5.95821e-06
3.98943e-06 -5.95821e-06 1.31514e-06
0.00118252 -1.12984e-05 -1.462e-05
-1.12984e-05 0.000201625 9.37863e-06
-1.462e-05 9.37863e-06 9.62245e-05
0.000930143 7.30692e-06 -1.55184e-07
7.30692e-06 3.83349e-05 4.82949e-09
-1.55184e-07 4.82949e-09 -2.71217e-05
0.00100789 3.19182e-06 -1.44415e-08
3.19182e-06 7.92258e-05 2.33896e-07
-1.44415e-08 2.33896e-07 8.28442e-06
0.000928277 8.10094e-06 -2.73143e-07
8.10094e-06 4.18767e-05 -1.1774e-06
-2.73143e-07 -1.1774e-06 -3.29743e-05
0.000892705 -1.21712e-06 -6.8568e-08
-1.21712e-06 2.13529e-05 -6.34303e-07
-6.8568e-08 -6.34303e-07 -4.92347e-05
0.00106588 3.35937e-05 -3.99295e-07
3.35937e-05 0.00011644 -1.65325e-07
-3.99295e-07 -1.65325e-07 3.91245e-05
0.000876213 -4.35518e-06 -4.22318e-08
-4.35518e-06 9.03703e-06 3.35815e-07
-4.22318e-08 3.35815e-07 -5.42886e-05
0.000932376 -2.16632e-07 1.65112e-07
-2.16632e-07 4.35811e-05 2.02032e-07
1.65112e-07 2.02032e-07 -2.65838e-05
0.000973747 2.79333e-05 -1.71173e-07
2.79333e-05 6.77497e-05 -3.16659e-08
-1.71173e-07 -3.16659e-08 -3.58925e-06
0.00099496 2.58513e-05 4.20858e-07
2.58513e-05 7.80097e-05 4.17567e-07
4.20858e-07 4.17567e-07 2.25553e-06
0.00104566 2.38041e-05 -2.59481e-07
2.38041e-05 0.000108648 1.04954e-07
-2.59481e-07 1.04954e-07 3.27205e-05
0.0013113 -1.27297e-05 1.06833e-05
-1.27297e-05 0.000100973 1.75566e-05
1.06833e-05 1.75566e-05 2.43067e-05
0.00116058 1.86849e-05 2.05484e-06
1.86849e-05 9.2828e-05 8.8612e-06
2.05484e-06 8.8612e-06 2.10778e-05
0.00118568 8.38885e-06 4.14408e-06
8.38885e-06 0.000212915 5.34962e-06
4.14408e-06 5.34962e-06 0.000103842
0.00173094 -6.17691e-05 -3.24912e-06
-6.17691e-05 -0.000231684 -1.09314e-05
-3.24912e-06 -1.09314e-05 9.39577e-05
-0.00100413 4.55652e-05 -3.11601e-06
4.55652e-05 -0.00178553 -6.31194e-05
-3.11601e-06 -6.31194e-05 -0.00165584
0.0011831 -0.000272004 -8.79671e-05
-0.000272004 -0.000774317 8.64538e-05
-8.79671e-05 8.64538e-05 -0.00113732
0.00775799 0.000197047 -2.47372e-05
0.000197047 0.00180293 -4.53024e-05
-2.47372e-05 -4.53024e-05 0.00123254
0.00196572 -0.000246675 -3.46549e-05
-0.000246675 -4.1135e-05 3.62276e-05
-3.46549e-05 3.62276e-05 -0.000451418
0.00801145 -0.000120834 4.07815e-05
-0.000120834 0.00209884 2.12016e-07
4.07815e-05 2.12016e-07 0.00145982
0.00133205 -0.000205889 1.17004e-05
-0.000205889 -0.000682967 -1.93426e-05
1.17004e-05 -1.93426e-05 -0.00063303
0.000265893 -0.000158111 -3.69424e-06
-0.000158111 -0.00126639 -1.14649e-05
-3.69424e-06 -1.14649e-05 -0.000725314
0.00200025 -5.23905e-05 -5.16363e-05
-5.23905e-05 0.000259754 -5.40567e-05
-5.16363e-05 -5.40567e-05 -0.000192445
0.00763107 -0.000369574 -2.33221e-05
-0.000369574 0.00175907 4.92963e-05
-2.33221e-05 4.92963e-05 0.00115621
0.00671575 -0.00047744 2.47567e-05
-0.00047744 0.00198197 2.17344e-05
2.47567e-05 2.17344e-05 0.00220293
0.00169751 -0.000272952 7.33429e-06
-0.000272952 -5.1355e-05 2.94849e-06
7.33429e-06 2.94849e-06 0.000654436
0.000893616 1.99615e-05 -2.83533e-07
1.99615e-05 3.99114e-05 1.34203e-06
-2.83533e-07 1.34203e-06 -3.01208e-05
0.00105786 -1.29606e-05 -1.412e-07
-1.29606e-05 0.000105006 1.81018e-07
-1.412e-07 1.81018e-07 2.86952e-05
0.000918404 4.42998e-06 2.53441e-07
4.42998e-06 3.67542e-05 -5.60232e-07
2.53441e-07 -5.60232e-07 -4.18096e-05
0.000930389 -7.02561e-05 2.16843e-05
-7.02561e-05 0.000417596 -2.69889e-06
2.16843e-05 -2.69889e-06 0.000284146
0.00131484 -1.39053e-05 -2.43031e-06
-1.39053e-05 0.000379124 -4.90583e-06
-2.43031e-06 -4.90583e-06 0.000347012
0.000941501 1.81757e-06 -2.12359e-07
1.81757e-06 4.15511e-05 2.32474e-07
-2.12359e-07 2.32474e-07 -3.52246e-05
0.000932558 -2.96611e-05 -7.53811e-07
-2.96611e-05 3.30565e-05 1.58336e-07
-7.53811e-07 1.58336e-07 -5.14783e-05
0.000969836 -1.35435e-05 -2.87474e-07
-1.35435e-05 6.42452e-05 -9.90565e-10
-2.87474e-07 -9.90565e-10 -1.60455e-05
0.00068576 -4.05657e-05 6.43187e-07
-4.05657e-05 7.39373e-05 4.05177e-06
6.43187e-07 4.05177e-06 -2.51792e-05
-0.000280304 1.72918e-05 6.87511e-06
1.72918e-05 0.000144645 -1.5821e-05
6.87511e-06 -1.5821e-05 -0.000314798
0.000127554 -5.06716e-06 -7.32658e-07
-5.06716e-06 -0.000207548 4.46345e-06
-7.32658e-07 4.46345e-06 -0.000324476
0.00164559 0.000100647 1.93338e-05
0.000100647 0.000696834 -1.6741e-06
1.93338e-05 -1.6741e-06 0.000466073
0.00148126 -2.96628e-06 -4.52268e-06
-2.96628e-06 0.000358445 -2.05542e-07
-4.52268e-06 -2.05542e-07 0.00026833
0.00109755 -4.38777e-07 -6.5216e-06
-4.38777e-07 0.000157827 -1.17153e-06
-6.5216e-06 -1.17153e-06 3.30374e-05
0.00127012 -2.21472e-06 5.88742e-07
-2.21472e-06 0.000165238 -7.40536e-08
5.88742e-07 -7.40536e-08 3.07029e-06
-0.000975615 -2.08862e-05 -1.4556e-05
-2.08862e-05 -0.000329739 1.47395e-05
-1.4556e-05 1.47395e-05 -0.00047178
0.00101907 8.11834e-06 3.47919e-05
8.11834e-06 -0.000147706 -4.72168e-05
3.47919e-05 -4.72168e-05 -0.000484434
0.00115056 -1.51188e-05 1.41431e-05
-1.51188e-05 0.000189194 -9.40993e-06
1.41431e-05 -9.40993e-06 8.24449e-05
0.0087904 0.000242791 4.85325e-05
0.000242791 0.00242108 6.6258e-06
4.85325e-05 6.6258e-06 0.00126968
0.00471044 0.000507383 -4.24695e-05
0.000507383 0.00129562 2.62083e-05
-4.24695e-05 2.62083e-05 0.00128394
0.00111048 5.85893e-06 -3.97135e-06
5.85893e-06 -8.6304e-05 7.03623e-06
-3.97135e-06 7.03623e-06 -0.000163392
-0.000910968 0.000372997 -1.68287e-05
0.000372997 -0.00151814 -1.30025e-06
-1.68287e-05 -1.30025e-06 -0.000673967
-0.000137939 -3.37959e-05 -9.812e-08
-3.37959e-05 1.67765e-05 -6.28021e-07
-9.812e-08 -6.28021e-07 -0.000123976
0.00119048 -1.61291e-05 4.83218e-06
-1.61291e-05 0.000138234 -1.03031e-06
4.83218e-06 -1.03031e-06 4.28269e-05
-0.00129781 0.000171942 -1.10341e-05
0.000171942 -0.000967792 2.83818e-06
-1.10341e-05 2.83818e-06 -0.000758198
0.00191459 -0.000183419 4.84187e-06
-0.000183419 0.000235868 2.90723e-05
4.84187e-06 2.90723e-05 -0.000168588
0.00321011 0.000496269 3.01169e-06
0.000496269 0.000937404 1.87394e-06
3.01169e-06 1.87394e-06 0.00108544
0.00568611 0.000170761 2.91029e-05
0.000170761 0.00140077 -1.5342e-05
2.91029e-05 -1.5342e-05 4.88447e-05
0.002369 -0.000130882 1.73769e-05
-0.000130882 0.000695823 6.43248e-06
1.73769e-05 6.43248e-06 0.00076512
-0.00102378 3.37254e-05 9.69707e-06
3.37254e-05 -0.000723721 -6.14555e-07
9.69707e-06 -6.14555e-07 -0.000793823
0.00344193 0.000377458 3.51342e-05
0.000377458 0.00145136 -1.34036e-05
3.51342e-05 -1.34036e-05 0.00157557
0.00403432 0.000406253 -2.84335e-05
0.000406253 0.000799858 2.98319e-05
-2.84335e-05 2.98319e-05 -0.000252583
0.00198575 -0.000204056 -4.55372e-06
-0.000204056 0.000179235 3.49728e-05
-4.55372e-06 3.49728e-05 -0.000228819
0.000813568 -1.05718e-05 -2.9835e-06
-1.05718e-05 0.000269008 5.66617e-06
-2.9835e-06 5.66617e-06 6.00383e-05
0.000833157 -0.000121819 1.40493e-06
-0.000121819 0.000128215 -3.05121e-06
1.40493e-06 -3.05121e-06 -7.34082e-05
0.00218951 -0.000179411 4.43351e-06
-0.000179411 0.000495571 7.86001e-07
4.43351e-06 7.86001e-07 0.00037057
-4.22304e-05 -2.68681e-05 -1.31426e-06
-2.68681e-05 -0.000277761 1.20515e-06
-1.31426e-06 1.20515e-06 -0.000470622
0.00077489 -9.01307e-05 1.86163e-06
-9.01307e-05 2.90262e-05 -3.94703e-07
1.86163e-06 -3.94703e-07 -0.000145921
0.0012505 -0.000125753 2.49818e-06
-0.000125753 0.000119643 1.31069e-06
2.49818e-06 1.31069e-06 -2.0486e-05
0.00132099 -9.43594e-05 -1.82117e-06
-9.43594e-05 0.000283457 4.96235e-07
-1.82117e-06 4.96235e-07 0.000124226
0.00116817 -0.000105783 -6.7814e-07
-0.000105783 0.000137876 -4.41797e-07
-6.7814e-07 -4.41797e-07 -2.13703e-05
0.00153073 -0.000125317 -1.15745e-06
-0.000125317 0.000212671 -9.05415e-07
-1.15745e-06 -9.05415e-07 7.96367e-05
0.00141983 -0.000108367 -1.78468e-07
-0.000108367 0.000267722 -5.77776e-07
-1.78468e-07 -5.77776e-07 0.00012387
0.00128502 -0.000107553 3.35681e-07
-0.000107553 0.000160043 -6.79517e-07
3.35681e-07 -6.79517e-07 1.70856e-05
0.00146849 -0.000109452 -2.08826e-06
-0.000109452 0.000172936 -2.3036e-06
-2.08826e-06 -2.3036e-06 4.91143e-05
0.00135157 -9.78552e-05 -1.8671e-06
-9.78552e-05 0.000102886 -2.09038e-06
-1.8671e-06 -2.09038e-06 -8.0526e-06
0.00112026 -9.26769e-05 -1.92591e-06
-9.26769e-05 6.63e-05 4.69556e-07
-1.92591e-06 4.69556e-07 -5.02446e-05
0.00126072 -0.000101057 3.61255e-07
-0.000101057 0.000113961 -8.55113e-07
3.61255e-07 -8.55113e-07 -1.21839e-05
0.00128372 -9.20543e-05 -1.41699e-06
-9.20543e-05 0.000195299 1.8307e-06
-1.41699e-06 1.8307e-06 9.45037e-05
0.00126533 -9.66906e-05 -2.7049e-07
-9.66906e-05 0.000172652 6.29856e-07
-2.7049e-07 6.29856e-07 5.7766e-05
0.00132563 -0.000104975 1.23232e-06
-0.000104975 0.000192186 -1.10158e-06
1.23232e-06 -1.10158e-06 6.06485e-05
0.000980059 -7.37377e-05 -5.50106e-07
-7.37377e-05 6.96422e-05 -9.08354e-07
-5.50106e-07 -9.08354e-07 -1.66559e-05
0.000820358 -7.11449e-05 -2.13788e-07
-7.11449e-05 -1.28387e-05 -9.21334e-07
-2.13788e-07 -9.21334e-07 -0.00010342
0.00105619 -8.21789e-05 3.13313e-06
-8.21789e-05 0.000104798 -2.05988e-06
3.13313e-06 -2.05988e-06 6.03119e-06
0.000934397 -2.96222e-05 -5.75646e-07
-2.96222e-05 5.41905e-05 9.30599e-07
-5.75646e-07 9.30599e-07 -2.1782e-05
0.00102971 -6.89318e-05 1.41543e-07
-6.89318e-05 0.000106702 4.13272e-07
1.41543e-07 4.13272e-07 1.92739e-05
0.00108692 -7.7848e-05 7.95075e-07
-7.7848e-05 0.000137571 9.90613e-07
7.95075e-07 9.90613e-07 4.60109e-05
0.000842228 4.6388e-05 -1.2599e-06
4.6388e-05 8.61447e-06 2.30421e-06
-1.2599e-06 2.30421e-06 -4.09717e-05
0.000929463 6.96779e-07 -2.19588e-08
6.96779e-07 5.12422e-05 1.81961e-09
-2.19588e-08 1.81961e-09 -1.94308e-05
0.000972308 -4.65721e-05 3.28467e-07
-4.65721e-05 8.30751e-05 -2.26554e-07
3.28467e-07 -2.26554e-07 1.01322e-06
0.00140887 3.76593e-05 -1.17363e-05
3.76593e-05 0.000304719 3.15951e-06
-1.17363e-05 3.15951e-06 0.000296408
0.000833821 2.96602e-05 7.75635e-08
2.96602e-05 -1.21834e-06 -1.05659e-07
7.75635e-08 -1.05659e-07 -4.28776e-05
0.00091619 8.26536e-07 7.89807e-07
8.26536e-07 3.93887e-05 -1.26008e-06
7.89807e-07 -1.26008e-06 -2.3492e-05
0.000956116 2.63595e-05 -1.77735e-05
2.63595e-05 6.42866e-05 3.58854e-06
-1.77735e-05 3.58854e-06 7.44475e-05
0.00111769 3.27347e-05 -4.59407e-06
3.27347e-05 0.000145651 4.19163e-07
-4.59407e-06 4.19163e-07 0.000138691
0.000839316 3.32504e-05 9.04741e-07
3.32504e-05 -8.97007e-07 -2.07995e-06
9.04741e-07 -2.07995e-06 -3.7702e-05
0.000822717 2.73001e-05 2.16344e-06
2.73001e-05 -1.59226e-05 -3.2503e-06
2.16344e-06 -3.2503e-06 -2.14983e-05
0.00217973 3.72802e-05 6.84726e-07
3.72802e-05 0.000696787 5.42135e-08
6.84726e-07 5.42135e-08 0.000714872
0.00213718 3.2227e-05 1.78844e-05
3.2227e-05 0.000668482 -3.56863e-06
1.78844e-05 -3.56863e-06 0.000688147
0.000920591 4.54138e-06 -3.29562e-07
4.54138e-06 3.4589e-05 -1.15612e-06
-3.29562e-07 -1.15612e-06 -3.46513e-05
0.000927633 -3.67887e-06 -4.01342e-07
-3.67887e-06 3.40647e-05 -1.28203e-06
-4.01342e-07 -1.28203e-06 -2.34253e-05
0.000965197 3.03141e-06 -7.88605e-08
3.03141e-06 5.48637e-05 -2.16276e-08
-7.88605e-08 -2.16276e-08 -1.12541e-05
0.000846513 -2.88208e-05 -6.73901e-07
-2.88208e-05 -5.38168e-06 -1.94038e-06
-6.73901e-07 -1.94038e-06 -4.10017e-05
0.000927495 2.26779e-06 4.00372e-07
2.26779e-06 3.4589e-05 -8.54262e-08
4.00372e-07 -8.54262e-08 -2.00769e-05
0.000811058 -2.26703e-05 -1.7347e-06
-2.26703e-05 -2.76305e-05 -3.35525e-06
-1.7347e-06 -3.35525e-06 -3.37345e-05
0.000861782 -1.65987e-05 -2.1736e-07
-1.65987e-05 -7.64959e-07 6.29803e-09
-2.1736e-07 6.29803e-09 -3.41466e-05
0.000930052 2.32178e-05 8.84291e-07
2.32178e-05 3.83039e-05 9.51259e-07
8.84291e-07 9.51259e-07 -1.52434e-05
0.002244 -2.74981e-05 -1.63687e-05
-2.74981e-05 0.000718182 -3.9089e-06
-1.63687e-05 -3.9089e-06 0.000738033
0.000807504 -1.95364e-05 -2.10164e-07
-1.95364e-05 -3.43914e-05 -6.11025e-09
-2.10164e-07 -6.11025e-09 -3.84647e-05
0.000878117 -1.47929e-05 4.89342e-07
-1.47929e-05 5.84195e-06 1.61684e-06
4.89342e-07 1.61684e-06 -2.55563e-05
0.00217508 -2.20809e-05 -1.22341e-06
-2.20809e-05 0.000676908 4.73842e-08
-1.22341e-06 4.73842e-08 0.000698417
0.000801088 -1.60268e-05 7.1151e-07
-1.60268e-05 -4.25808e-05 3.1737e-06
7.1151e-07 3.1737e-06 -4.42385e-05
0.00210759 -1.6206e-05 9.12194e-06
-1.6206e-05 0.00063718 3.8333e-06
9.12194e-06 3.8333e-06 0.000660237
0.000875163 9.73704e-06 1.31976e-07
9.73704e-06 1.49682e-05 -2.21537e-07
1.31976e-07 -2.21537e-07 -6.37915e-05
0.000948353 1.41231e-05 -6.70807e-07
1.41231e-05 8.67522e-05 -3.44036e-06
-6.70807e-07 -3.44036e-06 -1.91069e-05
0.00115226 9.12482e-07 3.21023e-06
9.12482e-07 0.000138553 3.39876e-06
3.21023e-06 3.39876e-06 -7.22275e-06
0.000998785 4.02074e-05 -7.48159e-07
4.02074e-05 8.69941e-05 2.63021e-08
-7.48159e-07 2.63021e-08 8.33556e-06
0.000983828 4.58072e-06 1.85861e-07
4.58072e-06 6.62296e-05 4.22047e-07
1.85861e-07 4.22047e-07 1.16529e-06
0.000982898 3.11604e-06 1.22005e-07
3.11604e-06 6.54812e-05 5.84718e-07
1.22005e-07 5.84718e-07 -5.99474e-06
0.000986532 -2.13021e-06 9.32077e-08
-2.13021e-06 6.98203e-05 -1.94813e-07
9.32077e-08 -1.94813e-07 -3.23558e-07
0.000985507 2.13763e-05 -1.47774e-08
2.13763e-05 7.22894e-05 -2.68834e-07
-1.47774e-08 -2.68834e-07 -2.90389e-06
0.00100482 2.90456e-05 1.21034e-08
2.90456e-05 8.35738e-05 4.42147e-07
1.21034e-08 4.42147e-07 6.80027e-06
0.00101067 3.82064e-05 -6.6212e-07
3.82064e-05 8.96775e-05 -1.02183e-06
-6.6212e-07 -1.02183e-06 9.05717e-06
0.000874864 1.93196e-05 -1.16586e-07
1.93196e-05 1.98565e-05 -3.14568e-07
-1.16586e-07 -3.14568e-07 -5.69754e-05
0.000953188 4.09714e-05 4.15843e-07
4.09714e-05 5.89956e-05 3.15639e-08
4.15843e-07 3.15639e-08 -1.29551e-05
0.000973868 -1.51947e-05 3.17907e-07
-1.51947e-05 6.21963e-05 4.88277e-08
3.17907e-07 4.88277e-08 -1.14539e-05
0.00101051 2.01103e-05 -1.08552e-07
2.01103e-05 9.01857e-05 3.41495e-08
-1.08552e-07 3.41495e-08 1.45328e-05
0.00147181 2.46175e-05 1.98574e-06
2.46175e-05 0.00033036 2.11757e-07
1.98574e-06 2.11757e-07 0.00025269
0.00158489 -0.000167449 1.84194e-05
-0.000167449 0.000500573 1.44624e-05
1.84194e-05 1.44624e-05 0.000763489
0.00129316 -8.53836e-06 3.17859e-06
-8.53836e-06 8.56512e-05 5.91729e-06
3.17859e-06 5.91729e-06 9.91016e-06
0.00125416 1.73424e-05 1.15711e-05
1.73424e-05 0.000145079 7.78167e-06
1.15711e-05 7.78167e-06 7.4892e-05
0.00228343 -0.000198102 -1.50379e-05
-0.000198102 -5.69055e-05 -1.74277e-05
-1.50379e-05 -1.74277e-05 0.000519762
0.00354118 -0.000301424 -5.6533e-08
-0.000301424 -2.5593e-05 -8.12276e-05
-5.6533e-08 -8.12276e-05 5.02478e-05
0.00317246 3.89262e-05 -5.76844e-05
3.89262e-05 -0.000663803 0.000101296
-5.76844e-05 0.000101296 -0.00094975
0.00155328 -0.000237809 -5.8918e-05
-0.000237809 5.03556e-05 8.27759e-05
-5.8918e-05 8.27759e-05 -0.000308519
0.00285677 -9.23577e-05 -1.93389e-05
-9.23577e-05 0.000862397 9.98174e-06
-1.93389e-05 9.98174e-06 0.000574487
0.000390895 -0.000292421 -7.74785e-06
-0.000292421 -0.000730177 -3.4784e-06
-7.74785e-06 -3.4784e-06 1.15049e-06
0.00526602 -0.000111702 1.73192e-05
-0.000111702 0.00077033 5.1556e-05
1.73192e-05 5.1556e-05 -0.000125757
-0.00066519 -0.000263063 -4.44292e-06
-0.000263063 -0.00121125 -7.83648e-06
-4.44292e-06 -7.83648e-06 -0.00101692
0.00306872 0.000166577 -6.355e-05
0.000166577 0.000731836 -4.70888e-05
-6.355e-05 -4.70888e-05 0.000485036
0.00800157 -0.000334965 1.62709e-07
-0.000334965 0.00248333 3.59131e-05
1.62709e-07 3.59131e-05 0.00154707
-1.56768e-05 -0.000287552 2.2436e-05
-0.000287552 -0.00010368 8.98197e-06
2.2436e-05 8.98197e-06 0.000126624
0.000704002 8.38705e-05 -2.4781e-06
8.38705e-05 -2.86984e-05 -5.65242e-07
-2.4781e-06 -5.65242e-07 -9.5295e-05
0.00112215 1.95292e-05 1.97479e-06
1.95292e-05 0.000150333 2.03852e-07
1.97479e-06 2.03852e-07 8.1585e-05
0.000989728 3.12515e-06 -3.71637e-07
3.12515e-06 7.5034e-05 -6.56878e-07
-3.71637e-07 -6.56878e-07 -2.7729e-06
-0.000354869 1.59038e-05 -1.22738e-05
1.59038e-05 3.57802e-06 -2.26263e-05
-1.22738e-05 -2.26263e-05 -0.000445467
0.00010234 -3.00943e-05 -1.15813e-06
-3.00943e-05 -0.000218157 -2.70466e-06
-1.15813e-06 -2.70466e-06 -0.000324282
0.000812504 3.05873e-06 1.76131e-06
3.05873e-06 -1.06366e-05 1.86437e-06
1.76131e-06 1.86437e-06 -9.06436e-05
0.000882006 3.51168e-05 7.32805e-07
3.51168e-05 0.000144344 3.99378e-07
7.32805e-07 3.99378e-07 2.81935e-05
0.000794564 5.44062e-05 2.22127e-07
5.44062e-05 0.000257379 -8.23104e-06
2.22127e-07 -8.23104e-06 6.44397e-05
-0.000948434 6.2204e-05 6.19747e-06
6.2204e-05 -0.000714617 1.36602e-05
6.19747e-06 1.36602e-05 -0.000861725
0.00200715 -1.34679e-05 1.51748e-05
-1.34679e-05 0.00100887 -8.0123e-07
1.51748e-05 -8.0123e-07 0.000951933
0.000962111 -1.66021e-06 -1.08725e-07
-1.66021e-06 6.90573e-05 -8.19993e-07
-1.08725e-07 -8.19993e-07 -2.09036e-05
0.000804507 1.20349e-08 1.08617e-05
1.20349e-08 -3.67178e-05 -8.34571e-07
1.08617e-05 -8.34571e-07 -0.000169555
0.000630348 -4.8009e-05 -6.15829e-07
-4.8009e-05 0.000412574 1.08655e-05
-6.15829e-07 1.08655e-05 0.000260679
0.00115222 -0.00016308 1.41115e-05
-0.00016308 -0.000127858 -4.39391e-05
1.41115e-05 -4.39391e-05 -0.000396623
0.00123641 -1.7233e-05 6.6133e-06
-1.7233e-05 0.000173808 -7.45957e-06
6.6133e-06 -7.45957e-06 8.19234e-05
0.00190184 0.000187775 -1.52048e-05
0.000187775 -0.000152548 2.63271e-05
-1.52048e-05 2.63271e-05 -0.00137236
-0.00223563 0.00033677 -5.22303e-05
0.00033677 -0.00156795 1.86154e-05
-5.22303e-05 1.86154e-05 -0.00133957
0.00119336 0.000205199 -2.40491e-05
0.000205199 0.000316899 1.29658e-05
-2.40491e-05 1.29658e-05 0.000669786
0.0016164 -0.00012674 -2.30836e-06
-0.00012674 0.000316689 3.77765e-06
-2.30836e-06 3.77765e-06 0.000405639
0.00115207 6.50214e-05 -2.31163e-06
6.50214e-05 0.000497597 1.43103e-06
-2.31163e-06 1.43103e-06 0.000541058
-0.00295414 0.000184877 2.64765e-06
0.000184877 -0.00126621 1.94814e-06
2.64765e-06 1.94814e-06 -0.00124355
0.00323931 -0.0002539 -1.23485e-05
-0.0002539 0.000535513 1.89555e-05
-1.23485e-05 1.89555e-05 -4.67204e-05
0.00653938 0.000347362 -1.58728e-05
0.000347362 0.00192085 4.02971e-06
-1.58728e-05 4.02971e-06 0.000944605
0.000494335 -0.000147621 6.331e-07
-0.000147621 -0.000371272 5.892e-06
6.331e-07 5.892e-06 -0.000303887
-0.00322464 8.72699e-05 3.96631e-05
8.72699e-05 -0.00183522 -1.56277e-05
3.96631e-05 -1.56277e-05 -0.00175508
0.00618259 0.00032242 6.00329e-06
0.00032242 0.00185574 8.34256e-07
6.00329e-06 8.34256e-07 0.00103059
0.00335429 -5.10397e-05 -1.47539e-05
-5.10397e-05 0.000158615 3.06105e-05
-1.47539e-05 3.06105e-05 -0.000194811
-0.000103336 -9.06834e-05 -4.75047e-06
-9.06834e-05 -0.000293723 -4.47717e-07
-4.75047e-06 -4.47717e-07 -0.000538333
0.00141836 -0.000152567 -1.90052e-07
-0.000152567 0.000148086 2.43205e-07
-1.90052e-07 2.43205e-07 3.54886e-05
0.00112223 -0.000148553 1.43772e-06
-0.000148553 -0.000162031 1.80787e-06
1.43772e-06 1.80787e-06 -0.000237196
0.000338528 -7.35576e-05 -1.92529e-06
-7.35576e-05 -0.000178213 -2.16985e-06
-1.92529e-06 -2.16985e-06 -0.000354797
0.00116639 -0.00012147 -3.83799e-07
-0.00012147 7.25129e-05 -6.62702e-07
-3.83799e-07 -6.62702e-07 -6.71268e-05
0.00170784 -0.000137533 -4.21562e-06
-0.000137533 0.00016999 -8.51634e-07
-4.21562e-06 -8.51634e-07 6.39153e-05
0.00119014 -0.000104957 -1.22773e-06
-0.000104957 0.000143748 -1.24198e-06
-1.22773e-06 -1.24198e-06 -1.12177e-05
0.00130164 -0.000116827 2.68471e-07
-0.000116827 9.79601e-05 -7.7611e-07
2.68471e-07 -7.7611e-07 -3.51458e-05
0.00176155 -0.000117073 -3.02235e-06
-0.000117073 0.000220089 -3.0663e-06
-3.02235e-06 -3.0663e-06 0.000118126
0.0011928 -0.000102661 3.5913e-07
-0.000102661 0.000111262 -1.25188e-06
3.5913e-07 -1.25188e-06 -2.86288e-05
0.00131757 -0.000103132 -3.56401e-07
-0.000103132 9.29796e-05 -8.80954e-07
-3.56401e-07 -8.80954e-07 -2.91918e-05
0.00155162 -9.76632e-05 -1.98946e-06
-9.76632e-05 0.000134449 -3.63615e-06
-1.98946e-06 -3.63615e-06 4.24241e-05
0.00148116 -9.0803e-05 -1.73771e-06
-9.0803e-05 0.000125065 -2.64146e-06
-1.73771e-06 -2.64146e-06 3.68957e-05
0.00129458 -9.52953e-05 -2.23345e-06
-9.52953e-05 0.000102846 -1.05924e-06
-2.23345e-06 -1.05924e-06 -5.50549e-06
0.0013406 -9.52655e-05 7.55348e-07
-9.52655e-05 9.78536e-05 7.63684e-08
7.55348e-07 7.63684e-08 -1.09747e-05
0.000758673 -7.59956e-05 -1.7181e-06
-7.59956e-05 -9.82804e-05 1.19406e-06
-1.7181e-06 1.19406e-06 -0.000203514
0.00127967 -9.72874e-05 9.31337e-07
-9.72874e-05 0.000146584 -9.08308e-07
9.31337e-07 -9.08308e-07 3.11578e-05
0.00117026 -9.71321e-05 2.15323e-06
-9.71321e-05 6.6005e-05 -6.39661e-07
2.15323e-06 -6.39661e-07 -5.89107e-05
0.00102865 -7.91126e-05 -5.34153e-07
-7.91126e-05 8.30897e-05 5.9069e-07
-5.34153e-07 5.9069e-07 -6.73596e-06
0.00102326 -8.25091e-05 3.59227e-07
-8.25091e-05 6.70118e-05 -1.85796e-07
3.59227e-07 -1.85796e-07 -3.3585e-05
0.000941518 -8.55969e-05 1.39828e-06
-8.55969e-05 1.06037e-05 -1.63654e-06
1.39828e-06 -1.63654e-06 -0.000106138
0.000983736 -5.80799e-05 -1.55968e-06
-5.80799e-05 7.30437e-05 1.24209e-07
-1.55968e-06 1.24209e-07 -4.46267e-06
0.00104589 -7.57357e-05 -2.13741e-07
-7.57357e-05 0.000101563 -3.45747e-07
-2.13741e-07 -3.45747e-07 1.51966e-05
0.000916084 -7.42621e-05 2.72279e-07
-7.42621e-05 3.67417e-05 -9.9989e-07
2.72279e-07 -9.9989e-07 -5.28117e-05
0.000889449 1.28978e-05 -1.50398e-06
1.28978e-05 3.71691e-05 2.35055e-06
-1.50398e-06 2.35055e-06 -1.89123e-05
0.00097147 -2.96875e-05 5.49168e-07
-2.96875e-05 7.25025e-05 3.05286e-07
5.49168e-07 3.05286e-07 -3.34737e-06
0.000991591 -6.47106e-05 9.72597e-07
-6.47106e-05 8.75743e-05 7.28719e-07
9.72597e-07 7.28719e-07 8.82399e-07
0.000728716 3.58977e-05 -3.57092e-06
3.58977e-05 -4.31855e-05 3.61784e-06
-3.57092e-06 3.61784e-06 -5.88398e-05
0.000834059 2.0731e-05 -2.02005e-07
2.0731e-05 2.33477e-06 -1.33182e-07
-2.02005e-07 -1.33182e-07 -4.59992e-05
0.00096172 -6.24514e-06 6.02182e-07
-6.24514e-06 6.82599e-05 -1.23472e-06
6.02182e-07 -1.23472e-06 -3.01864e-06
0.00230546 5.24257e-05 -8.88853e-06
5.24257e-05 0.000778095 1.45628e-06
-8.88853e-06 1.45628e-06 0.000791173
0.000763457 3.28434e-05 1.76004e-07
3.28434e-05 -3.19817e-05 8.73345e-09
1.76004e-07 8.73345e-09 -4.42434e-05
0.000828873 2.84717e-05 1.59988e-06
2.84717e-05 -3.35818e-06 -2.16094e-06
1.59988e-06 -2.16094e-06 -4.52387e-05
0.00224729 4.21232e-05 6.89088e-07
4.21232e-05 0.000738942 4.94159e-08
6.89088e-07 4.94159e-08 0.000755117
0.000811469 3.07376e-05 2.66083e-06
3.07376e-05 -1.43725e-05 -3.41323e-06
2.66083e-06 -3.41323e-06 -2.32019e-05
0.00219233 3.72651e-05 2.05444e-05
3.72651e-05 0.000704352 -3.57602e-06
2.05444e-05 -3.57602e-06 0.000722167
0.0010278 3.86239e-05 -5.42976e-07
3.86239e-05 9.90235e-05 -1.79502e-07
-5.42976e-07 -1.79502e-07 2.56373e-05
0.000933969 9.02942e-06 2.57452e-08
9.02942e-06 4.19387e-05 -3.05837e-07
2.57452e-08 -3.05837e-07 -2.75801e-05
0.000922572 -5.50598e-06 -5.92148e-07
-5.50598e-06 3.65245e-05 -1.51459e-06
-5.92148e-07 -1.51459e-06 -2.5429e-05
0.000838893 -3.07349e-05 -1.08658e-06
-3.07349e-05 -6.5491e-06 -2.17823e-06
-1.08658e-06 -2.17823e-06 -4.42856e-05
0.000915413 -6.51221e-06 2.99118e-07
-6.51221e-06 2.86357e-05 -2.32371e-08
2.99118e-07 -2.32371e-08 -2.89947e-05
0.000931689 1.30492e-05 5.0168e-07
1.30492e-05 3.94112e-05 7.26167e-07
5.0168e-07 7.26167e-07 -2.82348e-05
0.000803313 -2.53744e-05 -2.36158e-06
-2.53744e-05 -2.68628e-05 -3.43052e-06
-2.36158e-06 -3.43052e-06 -3.46179e-05
0.000851668 -2.25438e-05 -2.08503e-07
-2.25438e-05 -3.30718e-06 -3.42024e-09
-2.08503e-07 -3.42024e-09 -3.85738e-05
0.000923754 -4.8625e-06 7.86477e-07
-4.8625e-06 3.2483e-05 1.03613e-06
7.86477e-07 1.03613e-06 -2.19602e-05
0.00228403 -3.2554e-05 -1.91666e-05
-3.2554e-05 0.000744363 -3.85554e-06
-1.91666e-05 -3.85554e-06 0.000762837
0.000795473 -2.23671e-05 -1.357e-07
-2.23671e-05 -3.55498e-05 -6.08153e-09
-1.357e-07 -6.08153e-09 -4.15879e-05
0.000869723 -1.54945e-05 8.76279e-07
-1.54945e-05 3.303e-06 1.67694e-06
8.76279e-07 1.67694e-06 -2.99906e-05
0.00223715 -2.74692e-05 -1.25605e-06
-2.74692e-05 0.000714044 5.83469e-08
-1.25605e-06 5.83469e-08 0.000734067
0.000790249 -1.93027e-05 9.75933e-07
-1.93027e-05 -4.32016e-05 3.30938e-06
9.75933e-07 3.30938e-06 -4.71836e-05
0.00216485 -2.18713e-05 1.18864e-05
-2.18713e-05 0.000671044 3.84377e-06
1.18864e-05 3.84377e-06 0.000692772
-0.000284156 -5.19265e-05 1.24293e-05
-5.19265e-05 -0.000291522 3.43977e-06
1.24293e-05 3.43977e-06 -0.000367283
0.000877779 9.81724e-06 2.61967e-06
9.81724e-06 9.30452e-06 2.50779e-07
2.61967e-06 2.50779e-07 -6.76357e-05
0.00106242 1.39056e-05 1.67037e-05
1.39056e-05 0.000167866 5.52972e-06
1.67037e-05 5.52972e-06 6.30485e-05
0.000992919 3.25235e-05 -2.54715e-07
3.25235e-05 8.29916e-05 4.37385e-07
-2.54715e-07 4.37385e-07 4.57365e-06
0.0011071 7.01973e-05 -4.66704e-07
7.01973e-05 0.000149907 8.74547e-07
-4.66704e-07 8.74547e-07 6.73083e-05
0.00101086 4.63652e-05 -5.98409e-07
4.63652e-05 9.39583e-05 2.19739e-07
-5.98409e-07 2.19739e-07 1.19033e-05
0.00106768 -6.07311e-06 -1.04213e-08
-6.07311e-06 0.000111685 -1.54131e-07
-1.04213e-08 -1.54131e-07 4.21328e-05
0.00103032 1.83547e-05 3.33916e-07
1.83547e-05 9.41914e-05 5.06869e-07
3.33916e-07 5.06869e-07 2.02454e-05
0.000922563 7.97097e-06 -2.1312e-07
7.97097e-06 3.8319e-05 1.08793e-06
-2.1312e-07 1.08793e-06 -3.672e-05
0.000911943 2.17217e-05 -3.32555e-07
2.17217e-05 3.94123e-05 3.9945e-08
-3.32555e-07 3.9945e-08 -3.82281e-05
0.000976793 2.70002e-05 1.52438e-07
2.70002e-05 7.12782e-05 1.36378e-08
1.52438e-07 1.36378e-08 -8.517e-06
0.00104961 4.62118e-05 -2.62075e-07
4.62118e-05 0.00012503 -8.8577e-07
-2.62075e-07 -8.8577e-07 3.79223e-05
0.000806878 4.06027e-05 7.27252e-07
4.06027e-05 -7.42022e-06 -1.41035e-06
7.27252e-07 -1.41035e-06 -8.74495e-05
0.000979151 4.04059e-05 4.28916e-08
4.04059e-05 7.69539e-05 -2.46285e-07
4.28916e-08 -2.46285e-07 -6.17003e-07
0.00115929 3.17331e-05 3.76834e-07
3.17331e-05 0.000173154 1.39194e-07
3.76834e-07 1.39194e-07 9.52251e-05
-0.00294622 -0.000190588 2.49846e-05
-0.000190588 -0.00148274 2.70839e-05
2.49846e-05 2.70839e-05 -0.00143282
0.000599459 -0.000163262 4.94565e-06
-0.000163262 1.02141e-05 9.13881e-07
4.94565e-06 9.13881e-07 0.000217345
0.0011622 -3.56122e-06 -5.42178e-06
-3.56122e-06 -2.28762e-06 -5.49647e-06
-5.42178e-06 -5.49647e-06 -7.82961e-05
-0.000821612 -0.000308425 -7.75135e-06
-0.000308425 -0.00138064 -8.40937e-07
-7.75135e-06 -8.40937e-07 -0.000608237
0.00419765 -0.000403896 -1.97072e-05
-0.000403896 0.00111413 -5.02668e-05
-1.97072e-05 -5.02668e-05 0.00124348
0.0047154 -7.58356e-05 4.89937e-05
-7.58356e-05 0.000653272 2.62185e-05
4.89937e-05 2.62185e-05 -0.000104687
0.00135192 -8.89005e-05 -4.8015e-05
-8.89005e-05 6.96317e-05 7.67957e-05
-4.8015e-05 7.67957e-05 -0.000534672
0.00246229 0.000128083 -4.66846e-05
0.000128083 0.000284845 -2.24936e-05
-4.66846e-05 -2.24936e-05 -0.000109764
0.00287078 -0.000396904 -4.47331e-06
-0.000396904 0.000905493 3.66986e-06
-4.47331e-06 3.66986e-06 0.00102785
0.00297808 -9.68202e-05 2.95753e-05
-9.68202e-05 8.47984e-05 4.00625e-05
2.95753e-05 4.00625e-05 -0.000877676
0.00168873 0.000190182 -8.26362e-05
0.000190182 -2.18821e-05 -8.83518e-05
-8.26362e-05 -8.83518e-05 -0.000548863
0.00341745 2.51504e-05 -6.51786e-05
2.51504e-05 0.00060766 -1.67461e-05
-6.51786e-05 -1.67461e-05 -0.00036661
0.00236196 0.000194534 1.00701e-05
0.000194534 0.000723791 -5.90824e-06
1.00701e-05 -5.90824e-06 0.000594833
0.00087961 8.41978e-05 -7.17574e-07
8.41978e-05 4.81141e-05 -3.40209e-07
-7.17574e-07 -3.40209e-07 -1.63931e-05
0.00129638 2.81771e-05 9.31309e-07
2.81771e-05 0.000235581 -1.63426e-06
9.31309e-07 -1.63426e-06 0.000166576
-0.000538059 -3.66046e-07 -1.64485e-05
-3.66046e-07 -0.000404036 -1.26555e-05
-1.64485e-05 -1.26555e-05 -0.000562356
0.00163313 6.89614e-05 6.75198e-09
6.89614e-05 0.000490743 -3.89745e-06
6.75198e-09 -3.89745e-06 0.000376328
0.000950594 0.000132247 7.8256e-06
0.000132247 0.000147197 4.77686e-07
7.8256e-06 4.77686e-07 2.58511e-05
0.000195124 0.000142776 2.65028e-05
0.000142776 -0.000444983 2.17516e-05
2.65028e-05 2.17516e-05 -0.000534873
-0.00142771 -2.14213e-05 3.69958e-05
-2.14213e-05 -0.000936772 -8.15951e-06
3.69958e-05 -8.15951e-06 -0.000787237
0.000446762 -5.63476e-06 -2.1168e-06
-5.63476e-06 0.000129664 7.66673e-07
-2.1168e-06 7.66673e-07 5.31052e-05
0.000420418 -4.51627e-07 5.73664e-06
-4.51627e-07 -0.000234856 -2.37576e-06
5.73664e-06 -2.37576e-06 -0.000324343
0.000708762 -0.000121427 -3.27414e-05
-0.000121427 -0.00010539 -1.54094e-06
-3.27414e-05 -1.54094e-06 -3.76349e-05
0.00250757 -0.000241801 -4.44607e-05
-0.000241801 0.000266551 -3.78672e-06
-4.44607e-05 -3.78672e-06 -8.97757e-05
0.000970185 4.58875e-05 -1.85143e-05
4.58875e-05 0.000410472 3.13004e-06
-1.85143e-05 3.13004e-06 0.000411702
0.00174112 0.000291742 1.22631e-05
0.000291742 -8.64504e-05 -3.71823e-05
1.22631e-05 -3.71823e-05 -0.00119861
0.00488223 0.0003149 -9.41138e-05
0.0003149 0.0023278 2.21788e-05
-9.41138e-05 2.21788e-05 0.00238168
0.00163682 -0.000193706 1.40404e-05
-0.000193706 0.000126324 -1.98548e-06
1.40404e-05 -1.98548e-06 0.000189251
-0.00078774 0.00014659 -2.53701e-05
0.00014659 -0.000510321 -3.232e-07
-2.53701e-05 -3.232e-07 -0.000537659
0.0028526 0.000217402 -4.92978e-06
0.000217402 0.00033231 9.76745e-06
-4.92978e-06 9.76745e-06 -0.000674875
0.00267387 -3.77112e-05 -4.56277e-06
-3.77112e-05 7.1782e-05 4.20588e-06
-4.56277e-06 4.20588e-06 -9.25089e-05
-2.09903e-05 -0.000113404 -2.33149e-06
-0.000113404 -0.000642474 -1.11399e-06
-2.33149e-06 -1.11399e-06 -0.000636854
0.00553878 9.27352e-05 1.98307e-05
9.27352e-05 0.00163577 2.15962e-06
1.98307e-05 2.15962e-06 0.000888266
0.000904735 6.88338e-05 6.45897e-07
6.88338e-05 -0.000547726 -5.76255e-06
6.45897e-07 -5.76255e-06 -0.000775369
0.000542393 -0.000125853 -1.96773e-07
-0.000125853 -0.000247281 -5.06549e-06
-1.96773e-07 -5.06549e-06 -0.000348479
0.00158206 -0.000161749 -1.01304e-06
-0.000161749 0.000100219 -2.42549e-07
-1.01304e-06 -2.42549e-07 1.68464e-05
0.00111015 -0.000140822 -9.976e-06
-0.000140822 -0.000308485 7.51603e-06
-9.976e-06 7.51603e-06 -0.00038025
0.00106892 -0.000116332 -3.27412e-06
-0.000116332 1.83766e-05 -1.73137e-06
-3.27412e-06 -1.73137e-06 -0.000119991
0.00146534 -0.00012948 -3.06074e-06
-0.00012948 4.51984e-05 7.13891e-07
-3.06074e-06 7.13891e-07 -5.98436e-05
0.00195397 -0.000122032 -8.53693e-06
-0.000122032 0.0001532 2.49602e-06
-8.53693e-06 2.49602e-06 8.4099e-05
0.00115779 -0.000111208 1.21471e-06
-0.000111208 2.6419e-05 -4.18378e-07
1.21471e-06 -4.18378e-07 -0.000106443
0.00145442 -0.000107743 -9.32843e-07
-0.000107743 6.21307e-05 -9.55105e-08
-9.32843e-07 -9.55105e-08 -3.84537e-05
0.00180204 -9.89728e-05 -3.24685e-06
-9.89728e-05 0.000143376 -1.37925e-06
-3.24685e-06 -1.37925e-06 7.96893e-05
0.00114191 -9.62508e-05 1.6956e-06
-9.62508e-05 5.54541e-07 4.68825e-07
1.6956e-06 4.68825e-07 -0.000119908
0.00139351 -9.30376e-05 2.95278e-08
-9.30376e-05 5.28696e-05 8.05006e-08
2.95278e-08 8.05006e-08 -3.82071e-05
0.0014634 -8.49461e-05 -8.8424e-07
-8.49461e-05 4.74187e-05 -1.67303e-06
-8.8424e-07 -1.67303e-06 -2.04981e-05
0.00172914 -8.58955e-05 -6.33531e-07
-8.58955e-05 0.00022475 -1.5144e-06
-6.33531e-07 -1.5144e-06 0.000150166
0.00146209 -8.84589e-05 -8.75674e-07
-8.84589e-05 0.00011539 1.33922e-06
-8.75674e-07 1.33922e-06 2.94187e-05
0.00137691 -8.83325e-05 -9.90535e-07
-8.83325e-05 0.000102108 -3.05084e-06
-9.90535e-07 -3.05084e-06 1.01176e-05
0.0012919 -9.12912e-05 -2.12358e-06
-9.12912e-05 0.000120324 -2.5552e-08
-2.12358e-06 -2.5552e-08 1.80407e-05
0.0013969 -9.7539e-05 8.73755e-07
-9.7539e-05 0.000155595 -3.90142e-07
8.73755e-07 -3.90142e-07 4.72003e-05
0.00132352 -9.26712e-05 2.63902e-06
-9.26712e-05 8.96672e-05 2.19026e-06
2.63902e-06 2.19026e-06 -1.7033e-05
0.000825031 -7.45434e-05 -1.92293e-06
-7.45434e-05 -4.84751e-05 1.73013e-06
-1.92293e-06 1.73013e-06 -0.000144376
0.00104509 -8.49178e-05 1.17637e-07
-8.49178e-05 4.72127e-05 -5.6009e-08
1.17637e-07 -5.6009e-08 -5.69439e-05
0.00143459 -0.000101736 3.17204e-06
-0.000101736 0.000224609 -2.05481e-06
3.17204e-06 -2.05481e-06 0.000110318
0.00096689 -6.43121e-05 -1.27944e-06
-6.43121e-05 5.74439e-05 3.33106e-07
-1.27944e-06 3.33106e-07 -2.24169e-05
0.0010745 -8.01928e-05 8.97847e-08
-8.01928e-05 0.000104887 -1.93096e-07
8.97847e-08 -1.93096e-07 1.49415e-05
0.000800649 -7.43966e-05 8.36439e-07
-7.43966e-05 -4.25396e-05 -2.09343e-06
8.36439e-07 -2.09343e-06 -0.000142998
0.000859485 -8.5044e-06 -2.57671e-06
-8.5044e-06 2.41352e-05 2.04349e-06
-2.57671e-06 2.04349e-06 -3.7546e-05
0.00102043 -6.00034e-05 -4.33624e-08
-6.00034e-05 9.04382e-05 -2.77444e-09
-4.33624e-08 -2.77444e-09 1.29999e-05
0.00110444 -7.74064e-05 8.26493e-07
-7.74064e-05 0.00012984 -1.43862e-07
8.26493e-07 -1.43862e-07 4.34283e-05
0.000683135 4.1815e-05 -3.33671e-06
4.1815e-05 -5.81551e-05 3.93826e-06
-3.33671e-06 3.93826e-06 -7.88952e-05
0.00085754 7.53193e-06 -2.23301e-08
7.53193e-06 2.01969e-05 2.43056e-08
-2.23301e-08 2.43056e-08 -3.63427e-05
0.00101163 -3.1824e-05 1.52108e-06
-3.1824e-05 9.25313e-05 -2.84128e-07
1.52108e-06 -2.84128e-07 1.66582e-05
0.00244394 5.30342e-05 -2.69364e-05
5.30342e-05 0.000855038 3.37098e-06
-2.69364e-05 3.37098e-06 0.000866827
0.000748443 3.76223e-05 -3.82795e-08
3.76223e-05 -3.22536e-05 -5.67588e-08
-3.82795e-08 -5.67588e-08 -4.83775e-05
0.000827042 7.23268e-06 2.45736e-06
7.23268e-06 -1.69551e-06 -2.29454e-06
2.45736e-06 -2.29454e-06 -4.999e-05
0.00166822 4.15069e-05 1.02616e-05
4.15069e-05 0.000444672 -8.90554e-07
1.02616e-05 -8.90554e-07 0.000454948
0.000794095 3.41301e-05 3.23862e-06
3.41301e-05 -1.63717e-05 -3.58275e-06
3.23862e-06 -3.58275e-06 -2.877e-05
0.00228095 4.23647e-05 2.34848e-05
4.23647e-05 0.000757867 -3.57932e-06
2.34848e-05 -3.57932e-06 0.000773505
0.00100815 4.85156e-05 -1.69625e-07
4.85156e-05 9.1556e-05 6.91585e-07
-1.69625e-07 6.91585e-07 1.49456e-05
0.000996962 2.25543e-05 -4.1832e-09
2.25543e-05 8.05513e-05 4.75587e-07
-4.1832e-09 4.75587e-07 8.07281e-06
0.000936814 -1.45791e-05 -7.77011e-07
-1.45791e-05 4.93484e-05 -1.18362e-06
-7.77011e-07 -1.18362e-06 -1.64384e-05
0.0009675 2.12131e-05 4.17959e-07
2.12131e-05 6.01972e-05 6.28627e-07
4.17959e-07 6.28627e-07 -1.00743e-05
0.000928244 -2.06823e-05 2.10566e-08
-2.06823e-05 3.78476e-05 -9.69132e-09
2.10566e-08 -9.69132e-09 -2.30562e-05
0.000827227 -2.67621e-05 -1.54485e-06
-2.67621e-05 -7.34662e-06 -2.34926e-06
-1.54485e-06 -2.34926e-06 -4.84081e-05
0.000794438 -2.86486e-05 -2.80943e-06
-2.86486e-05 -2.63875e-05 -3.53664e-06
-2.80943e-06 -3.53664e-06 -3.57726e-05
0.000845398 -2.72585e-05 -1.94764e-07
-2.72585e-05 -3.60682e-06 -2.16738e-08
-1.94764e-07 -2.16738e-08 -4.10311e-05
0.000923275 -2.57085e-05 1.01781e-07
-2.57085e-05 3.19153e-05 1.35042e-06
1.01781e-07 1.35042e-06 -2.47693e-05
0.00230431 -3.7372e-05 -2.16508e-05
-3.7372e-05 0.000760789 -3.74563e-06
-2.16508e-05 -3.74563e-06 0.000777934
0.000787257 -2.50381e-05 -1.92766e-07
-2.50381e-05 -3.48746e-05 1.52729e-08
-1.92766e-07 1.52729e-08 -4.25802e-05
0.000860924 -1.52508e-05 1.48436e-06
-1.52508e-05 9.57781e-07 1.83544e-06
1.48436e-06 1.83544e-06 -3.39893e-05
0.00228594 -3.2621e-05 -9.8895e-07
-3.2621e-05 0.00074475 6.32447e-08
-9.8895e-07 6.32447e-08 0.000763332
0.000780877 -2.21067e-05 1.50454e-06
-2.21067e-05 -4.29065e-05 3.38606e-06
1.50454e-06 3.38606e-06 -4.88913e-05
0.00223036 -2.74324e-05 1.46271e-05
-2.74324e-05 0.000709936 3.85568e-06
1.46271e-05 3.85568e-06 0.000730129
0.000187297 6.51379e-05 9.46834e-05
6.51379e-05 -9.33107e-05 1.70538e-05
9.46834e-05 1.70538e-05 -0.000288766
0.000941752 -6.52191e-05 4.9116e-06
-6.52191e-05 0.000375123 1.66094e-06
4.9116e-06 1.66094e-06 0.000344647
0.000888423 1.00604e-05 2.67713e-06
1.00604e-05 8.41546e-06 4.99752e-07
2.67713e-06 4.99752e-07 -6.68289e-05
0.000982267 2.74704e-05 7.28571e-07
2.74704e-05 7.69799e-05 4.6497e-07
7.28571e-07 4.6497e-07 -1.47409e-06
0.000973854 3.40563e-05 3.45841e-07
3.40563e-05 7.51586e-05 2.52488e-07
3.45841e-07 2.52488e-07 -6.74787e-06
0.00101768 6.91248e-05 -6.74809e-08
6.91248e-05 0.00010701 -1.74231e-08
-6.74809e-08 -1.74231e-08 2.46972e-05
0.00110976 7.9671e-05 1.74219e-07
7.9671e-05 0.000152642 9.40293e-07
1.74219e-07 9.40293e-07 6.79993e-05
0.00103654 6.28569e-05 -1.33129e-06
6.28569e-05 0.000118466 5.44722e-07
-1.33129e-06 5.44722e-07 3.24729e-05
0.000960552 2.58289e-05 2.47597e-07
2.58289e-05 6.39831e-05 7.93616e-07
2.47597e-07 7.93616e-07 -1.38794e-05
0.000946343 2.88815e-05 6.60344e-07
2.88815e-05 5.58332e-05 7.02165e-07
6.60344e-07 7.02165e-07 -2.39768e-05
0.000891414 5.02398e-05 -4.38168e-07
5.02398e-05 4.55159e-05 -4.88683e-07
-4.38168e-07 -4.88683e-07 -4.1084e-05
0.000401898 5.36877e-05 -8.79255e-07
5.36877e-05 -0.000195397 1.26283e-06
-8.79255e-07 1.26283e-06 -0.000283871
0.000814449 6.69092e-05 -6.23514e-07
6.69092e-05 -1.61502e-06 -1.0333e-06
-6.23514e-07 -1.0333e-06 -9.01268e-05
0.00185097 0.000134754 2.35435e-06
0.000134754 0.000449848 -3.77984e-06
2.35435e-06 -3.77984e-06 0.000343554
0.000980958 4.82738e-05 -1.68145e-06
4.82738e-05 9.38998e-05 -2.0054e-07
-1.68145e-06 -2.0054e-07 1.17881e-05
0.000953482 2.39858e-05 2.91451e-07
2.39858e-05 6.69999e-05 9.22237e-08
2.91451e-07 9.22237e-08 -9.77823e-06
0.00846083 -0.000139692 -1.72359e-05
-0.000139692 0.00249022 -9.05839e-06
-1.72359e-05 -9.05839e-06 0.00167972
-0.000751973 -0.000215313 -5.11591e-06
-0.000215313 -0.000485095 4.22883e-06
-5.11591e-06 4.22883e-06 -0.000554444
0.00190561 -0.000169062 -1.8993e-05
-0.000169062 0.000708743 -1.25149e-05
-1.8993e-05 -1.25149e-05 0.000908554
-0.00226873 -0.00024197 -2.86758e-05
-0.00024197 -0.00146302 -2.06087e-05
-2.86758e-05 -2.06087e-05 -0.00125916
0.00853741 -0.000314698 6.33045e-05
-0.000314698 0.0025961 3.66715e-05
6.33045e-05 3.66715e-05 0.00135816
0.00190836 0.000109625 2.71411e-05
0.000109625 0.000258939 1.54779e-05
2.71411e-05 1.54779e-05 2.10954e-05
0.00184095 0.000188355 -3.38508e-05
0.000188355 7.2816e-05 -2.40656e-05
-3.38508e-05 -2.40656e-05 -0.000330699
0.00570334 -0.000219953 3.62645e-05
-0.000219953 0.00144203 1.7697e-05
3.62645e-05 1.7697e-05 0.000609958
0.00183283 0.000106507 -2.90604e-05
0.000106507 -8.76514e-05 -4.56999e-05
-2.90604e-05 -4.56999e-05 -0.000437677
0.00222828 0.000225006 1.76731e-05
0.000225006 0.000438578 1.00631e-05
1.76731e-05 1.00631e-05 0.000290957
0.000873778 0.00012726 2.4447e-07
0.00012726 4.37385e-05 -4.66342e-06
2.4447e-07 -4.66342e-06 -9.93996e-05
0.000915909 6.15008e-05 -3.20381e-07
6.15008e-05 5.60403e-05 1.28314e-06
-3.20381e-07 1.28314e-06 -3.91786e-06
0.00194851 0.000174697 -2.98927e-05
0.000174697 0.000610944 -1.92559e-05
-2.98927e-05 -1.92559e-05 0.00049921
0.00017943 0.000156373 -7.01665e-06
0.000156373 -0.00048101 1.24744e-05
-7.01665e-06 1.24744e-05 -0.000570248
0.000204108 7.15716e-06 -3.4981e-06
7.15716e-06 -0.000871206 -7.89431e-06
-3.4981e-06 -7.89431e-06 -0.00133946
0.00155285 7.8265e-06 -1.61752e-06
7.8265e-06 0.000477313 1.8498e-06
-1.61752e-06 1.8498e-06 0.000428977
-0.00106078 -1.43841e-07 -9.96693e-06
-1.43841e-07 -0.000711524 4.05675e-08
-9.96693e-06 4.05675e-08 -0.000815961
0.00302944 -0.000237795 -4.26236e-05
-0.000237795 0.000743025 3.65669e-06
-4.26236e-05 3.65669e-06 0.000820928
0.00206048 -5.47845e-05 1.67507e-05
-5.47845e-05 -0.00048597 -2.39319e-05
1.67507e-05 -2.39319e-05 -0.000841155
0.000355579 4.24362e-06 -9.66839e-05
4.24362e-06 -4.53577e-05 2.60272e-05
-9.66839e-05 2.60272e-05 -0.000228503
0.00645599 0.000365629 -2.58994e-05
0.000365629 0.00211515 1.36708e-05
-2.58994e-05 1.36708e-05 0.00115773
0.00100664 -0.000138412 2.83751e-06
-0.000138412 -0.000158601 -7.28996e-07
2.83751e-06 -7.28996e-07 -0.000140542
0.00492012 0.000191413 2.68718e-05
0.000191413 0.00131579 4.61171e-06
2.68718e-05 4.61171e-06 0.000654397
0.00288926 8.55032e-05 3.49184e-05
8.55032e-05 0.000151198 -3.65254e-06
3.49184e-05 -3.65254e-06 -0.000179124
0.00231424 -0.000100855 -8.32265e-06
-0.000100855 0.000430284 5.10662e-07
-8.32265e-06 5.10662e-07 0.000387891
0.000718825 4.4804e-05 -3.92549e-05
4.4804e-05 -0.00010794 9.13054e-07
-3.92549e-05 9.13054e-07 -0.000361304
0.0019611 -0.000169624 6.84146e-06
-0.000169624 0.000314058 -5.14648e-06
6.84146e-06 -5.14648e-06 0.000229941
0.0016357 -0.00015124 -3.50778e-06
-0.00015124 -2.69372e-05 2.1078e-06
-3.50778e-06 2.1078e-06 -9.75222e-05
0.00194985 -0.000106643 -1.2705e-05
-0.000106643 8.88607e-06 1.08327e-06
-1.2705e-05 1.08327e-06 -4.69923e-05
0.00109762 -0.000118532 2.50741e-06
-0.000118532 -0.000137061 -9.02088e-07
2.50741e-06 -9.02088e-07 -0.000240598
0.00165297 -0.000114027 1.16794e-06
-0.000114027 1.75087e-05 9.27295e-07
1.16794e-06 9.27295e-07 -5.08583e-05
0.00187555 -8.59182e-05 -4.03217e-06
-8.59182e-05 6.40199e-05 3.13811e-06
-4.03217e-06 3.13811e-06 1.41085e-05
0.00114393 -9.88458e-05 2.71019e-06
-9.88458e-05 -9.76368e-05 1.76617e-06
2.71019e-06 1.76617e-06 -0.000196754
0.00156182 -9.49936e-05 -3.45279e-07
-9.49936e-05 2.76619e-05 1.57918e-06
-3.45279e-07 1.57918e-06 -3.69283e-05
0.00175162 -8.08084e-05 4.44154e-07
-8.08084e-05 0.000109182 2.22539e-06
4.44154e-07 2.22539e-06 5.57745e-05
0.00125004 -8.88634e-05 3.05602e-06
-8.88634e-05 -2.14371e-05 3.36506e-06
3.05602e-06 3.36506e-06 -0.000111588
0.00146376 -8.57273e-05 1.62206e-07
-8.57273e-05 4.9004e-05 1.18665e-06
1.62206e-07 1.18665e-06 -1.98743e-05
0.00155525 -7.77454e-05 1.91461e-07
-7.77454e-05 8.87312e-05 -4.12041e-07
1.91461e-07 -4.12041e-07 2.29582e-05
0.00150595 -8.18779e-05 -1.58397e-06
-8.18779e-05 0.000114334 1.1112e-06
-1.58397e-06 1.1112e-06 4.19858e-05
0.00168544 -8.47032e-05 1.20743e-06
-8.47032e-05 0.000221949 -2.2433e-06
1.20743e-06 -2.2433e-06 0.000141147
0.00145465 -8.6485e-05 1.82704e-06
-8.6485e-05 0.00011175 4.30905e-06
1.82704e-06 4.30905e-06 2.79324e-05
0.00138631 -8.77232e-05 1.87343e-07
-8.77232e-05 0.000106564 -5.29033e-07
1.87343e-07 -5.29033e-07 1.42009e-05
0.00136445 -8.55315e-05 -1.06583e-06
-8.55315e-05 0.000113472 -1.29869e-06
-1.06583e-06 -1.29869e-06 1.99513e-05
0.000937829 -7.69407e-05 -2.30597e-06
-7.69407e-05 -3.43839e-05 9.35915e-07
-2.30597e-06 9.35915e-07 -0.000130929
0.00128374 -9.03607e-05 5.56412e-08
-9.03607e-05 0.000117034 -1.38114e-07
5.56412e-08 -1.38114e-07 1.43775e-05
0.00150372 -9.9972e-05 2.78404e-06
-9.9972e-05 0.000210714 8.48183e-08
2.78404e-06 8.48183e-08 0.000102249
0.00100366 -7.12258e-05 -1.72878e-06
-7.12258e-05 6.0601e-05 9.32717e-07
-1.72878e-06 9.32717e-07 -2.35442e-05
0.000905658 -7.6807e-05 -5.0796e-07
-7.6807e-05 -5.55729e-06 5.82736e-07
-5.0796e-07 5.82736e-07 -0.000100698
0.00129342 -9.24058e-05 2.0544e-06
-9.24058e-05 0.000173855 -1.4221e-06
2.0544e-06 -1.4221e-06 7.0832e-05
0.000787632 -1.61116e-05 -2.39182e-06
-1.61116e-05 -1.30067e-05 1.50999e-06
-2.39182e-06 1.50999e-06 -7.74134e-05
0.0010333 -6.71826e-05 2.3194e-08
-6.71826e-05 8.9551e-05 -1.53121e-07
2.3194e-08 -1.53121e-07 9.47346e-06
0.0011257 -8.15083e-05 9.97725e-07
-8.15083e-05 0.000129439 -1.03685e-06
9.97725e-07 -1.03685e-06 3.93477e-05
0.000636394 4.69874e-05 -2.81252e-06
4.69874e-05 -7.5186e-05 4.20401e-06
-2.81252e-06 4.20401e-06 -0.000101636
0.000865986 -1.10533e-05 -2.26908e-08
-1.10533e-05 2.56082e-05 1.81495e-07
-2.26908e-08 1.81495e-07 -3.5731e-05
0.00105848 -5.99739e-05 1.53057e-06
-5.99739e-05 0.000108479 -1.4707e-07
1.53057e-06 -1.4707e-07 3.12199e-05
0.00258213 5.95582e-05 -2.89791e-05
5.95582e-05 0.000932857 3.29787e-06
-2.89791e-05 3.29787e-06 0.0009422
0.000714558 4.38316e-05 -3.63754e-09
4.38316e-05 -4.06816e-05 -8.94361e-08
-3.63754e-09 -8.94361e-08 -6.20269e-05
0.000832628 -9.83937e-06 2.50952e-06
-9.83937e-06 5.12534e-06 -2.01324e-06
2.50952e-06 -2.01324e-06 -5.05471e-05
0.00246742 5.33021e-05 3.19813e-07
5.33021e-05 0.000867769 7.69377e-08
3.19813e-07 7.69377e-08 0.000879245
0.000772656 3.94706e-05 2.9632e-06
3.94706e-05 -1.89632e-05 -3.81975e-06
2.9632e-06 -3.81975e-06 -3.5589e-05
0.00237827 4.76654e-05 2.62083e-05
4.76654e-05 0.000815531 -3.50982e-06
2.62083e-05 -3.50982e-06 0.000828973
0.00104389 6.93339e-05 -2.35325e-07
6.93339e-05 0.000112688 5.39949e-07
-2.35325e-07 5.39949e-07 3.08883e-05
0.000968795 5.19763e-05 2.96746e-07
5.19763e-05 7.24335e-05 1.42481e-07
2.96746e-07 1.42481e-07 -4.49082e-06
0.000875144 -7.65774e-06 -1.16885e-06
-7.65774e-06 2.0773e-05 -5.4509e-07
-1.16885e-06 -5.4509e-07 -5.00132e-05
0.000954601 1.47696e-05 6.1392e-07
1.47696e-05 5.77207e-05 9.30809e-07
6.1392e-07 9.30809e-07 -1.49686e-05
0.000911094 -1.72814e-05 -7.49406e-08
-1.72814e-05 3.60114e-05 1.63506e-07
-7.49406e-08 1.63506e-07 -3.02322e-05
0.0008242 -2.23804e-05 -1.8604e-06
-2.23804e-05 -4.25874e-06 -2.16424e-06
-1.8604e-06 -2.16424e-06 -5.0706e-05
0.000912449 -2.2399e-05 4.78135e-07
-2.2399e-05 2.96304e-05 1.49238e-06
4.78135e-07 1.49238e-06 -3.11876e-05
0.00084015 -2.66091e-05 -4.41401e-08
-2.66091e-05 -1.54138e-06 -9.43627e-08
-4.41401e-08 -9.43627e-08 -4.24135e-05
0.000785946 -3.33579e-05 -3.07096e-06
-3.33579e-05 -2.32874e-05 -3.66768e-06
-3.07096e-06 -3.66768e-06 -3.52522e-05
0.00231381 -4.21246e-05 -2.36146e-05
-4.21246e-05 0.000772391 -3.6157e-06
-2.36146e-05 -3.6157e-06 0.000788124
0.000782071 -2.80518e-05 -6.24914e-08
-2.80518e-05 -3.2417e-05 1.12224e-08
-6.24914e-08 1.12224e-08 -4.17406e-05
0.000847463 -2.39861e-05 1.4443e-06
-2.39861e-05 -2.96703e-06 2.05571e-06
1.4443e-06 2.05571e-06 -4.01109e-05
0.00231631 -3.74937e-05 -8.82302e-07
-3.74937e-05 0.000766291 7.34587e-08
-8.82302e-07 7.34587e-08 0.000783505
0.000771855 -2.46944e-05 1.96477e-06
-2.46944e-05 -4.25967e-05 3.47375e-06
1.96477e-06 3.47375e-06 -5.02476e-05
0.00228552 -3.26196e-05 1.77268e-05
-3.26196e-05 0.00074393 3.83007e-06
1.77268e-05 3.83007e-06 0.000762636
0.00651877 -1.64779e-05 3.52096e-05
-1.64779e-05 0.00193165 2.7498e-06
3.52096e-05 2.7498e-06 0.0013035
-0.00153779 -4.93077e-05 7.13222e-06
-4.93077e-05 -0.000849023 9.1058e-07
7.13222e-06 9.1058e-07 -0.000762719
-0.000283623 -4.05647e-05 -1.06598e-05
-4.05647e-05 -0.00034814 -9.90627e-07
-1.06598e-05 -9.90627e-07 -0.000429785
0.000961285 2.21906e-05 8.8277e-07
2.21906e-05 6.90558e-05 2.89857e-07
8.8277e-07 2.89857e-07 -1.28189e-05
0.000926742 6.40702e-05 3.51281e-07
6.40702e-05 6.23687e-05 -4.09402e-07
3.51281e-07 -4.09402e-07 -1.90522e-05
0.00108198 6.6013e-05 2.56158e-07
6.6013e-05 0.000142039 -6.45066e-08
2.56158e-07 -6.45066e-08 5.6056e-05
0.00104925 7.757e-05 -5.18952e-07
7.757e-05 0.000122557 -1.91674e-07
-5.18952e-07 -1.91674e-07 3.79393e-05
0.0011392 8.28722e-05 3.761e-06
8.28722e-05 0.000168246 1.57875e-06
3.761e-06 1.57875e-06 7.87448e-05
0.000762805 6.72823e-05 -1.29472e-06
6.72823e-05 -1.41561e-05 1.42251e-06
-1.29472e-06 1.42251e-06 -0.000100219
0.000714328 4.98117e-05 4.8285e-07
4.98117e-05 -4.38497e-05 6.85114e-08
4.8285e-07 6.85114e-08 -0.000130068
0.000719221 6.59796e-05 5.47738e-07
6.59796e-05 -3.68176e-05 -4.60102e-08
5.47738e-07 -4.60102e-08 -0.000127953
0.000812766 6.11887e-05 6.85197e-07
6.11887e-05 6.23402e-06 5.1894e-08
6.85197e-07 5.1894e-08 -8.38357e-05
0.0003623 6.55813e-05 8.98828e-07
6.55813e-05 -0.000247768 7.97567e-07
8.98828e-07 7.97567e-07 -0.000338809
0.00269014 0.000158335 8.80055e-07
0.000158335 0.000855517 -1.96632e-07
8.80055e-07 -1.96632e-07 0.000754651
0.00197113 0.000154897 1.63619e-06
0.000154897 0.000351998 -1.54852e-06
1.63619e-06 -1.54852e-06 0.000230566
0.00126386 0.000114952 1.07714e-06
0.000114952 0.000165252 -2.73792e-07
1.07714e-06 -2.73792e-07 6.23416e-05
0.0011381 4.74772e-05 -2.25821e-06
4.74772e-05 0.000184975 7.3652e-07
-2.25821e-06 7.3652e-07 0.000101514
0.00168946 -7.17023e-05 -1.59621e-05
-7.17023e-05 -0.000237638 -1.53134e-05
-1.59621e-05 -1.53134e-05 -0.00041654
0.00407778 -0.000129251 -1.49165e-07
-0.000129251 0.000753465 -4.26105e-07
-1.49165e-07 -4.26105e-07 3.13761e-05
0.00321129 -0.000296526 -3.65117e-05
-0.000296526 0.00145226 -2.18932e-05
-3.65117e-05 -2.18932e-05 0.00146612
0.00559256 -0.000120933 0.000138592
-0.000120933 0.00142943 4.11557e-05
0.000138592 4.11557e-05 0.000481449
0.00305874 0.000214749 3.73565e-05
0.000214749 0.000722998 4.80262e-05
3.73565e-05 4.80262e-05 0.00050695
0.00147081 6.45422e-05 -2.8954e-05
6.45422e-05 -5.82836e-05 -1.01564e-05
-2.8954e-05 -1.01564e-05 -0.000241767
0.00143998 0.000120848 2.08303e-05
0.000120848 -8.97267e-05 1.4529e-05
2.08303e-05 1.4529e-05 -0.000124213
0.00191128 0.000217664 -9.78982e-07
0.000217664 0.000285465 5.68493e-06
-9.78982e-07 5.68493e-06 0.000156649
0.000193931 9.32146e-05 -2.44516e-06
9.32146e-05 -0.000281349 3.30777e-06
-2.44516e-06 3.30777e-06 -0.000421833
0.00184267 0.000230438 -6.23563e-05
0.000230438 0.000239353 -5.21234e-05
-6.23563e-05 -5.21234e-05 0.000183843
0.00258808 -3.30744e-05 -0.00012088
-3.30744e-05 0.000646197 -4.21644e-06
-0.00012088 -4.21644e-06 0.000326734
0.00620663 4.14855e-05 8.29292e-06
4.14855e-05 0.00205827 -2.38322e-06
8.29292e-06 -2.38322e-06 0.00149814
-0.00340028 -3.94873e-05 -3.29626e-05
-3.94873e-05 -0.00207294 6.57878e-06
-3.29626e-05 6.57878e-06 -0.00195793
0.00209516 -0.000170341 3.6295e-06
-0.000170341 0.000364854 3.64276e-06
3.6295e-06 3.64276e-06 0.000383143
0.00310311 7.5282e-05 4.64872e-05
7.5282e-05 0.000315979 2.79594e-07
4.64872e-05 2.79594e-07 6.11725e-05
0.001347 -3.14148e-05 3.50382e-05
-3.14148e-05 -0.000227639 4.302e-06
3.50382e-05 4.302e-06 -0.000764932
0.00175251 -0.00010681 8.95493e-07
-0.00010681 0.000163314 2.6854e-06
8.95493e-07 2.6854e-06 0.000138281
0.00142988 9.34996e-05 4.94012e-07
9.34996e-05 0.000116408 -4.55095e-06
4.94012e-07 -4.55095e-06 -0.000103931
0.00285771 -2.45924e-05 6.56239e-07
-2.45924e-05 0.000583244 -1.2854e-05
6.56239e-07 -1.2854e-05 0.00054157
0.0011217 6.21492e-05 1.17767e-05
6.21492e-05 -0.000147353 -2.89946e-06
1.17767e-05 -2.89946e-06 -0.000232565
0.00265601 -0.00017481 6.20399e-06
-0.00017481 0.000503276 -2.30223e-06
6.20399e-06 -2.30223e-06 0.000426378
0.00208074 -0.000106603 -3.16384e-08
-0.000106603 8.42967e-05 -1.73612e-06
-3.16384e-08 -1.73612e-06 2.85298e-05
0.00198032 -3.06014e-05 5.99573e-08
-3.06014e-05 9.65504e-05 -3.3956e-07
5.99573e-08 -3.3956e-07 3.38243e-05
0.00138504 -0.000107959 9.35749e-06
-0.000107959 -0.000105712 -7.34186e-07
9.35749e-06 -7.34186e-07 -0.000174099
0.00191889 -8.68006e-05 2.54258e-06
-8.68006e-05 0.000100248 1.73357e-07
2.54258e-06 1.73357e-07 4.68444e-05
0.00201816 -5.25753e-05 -1.0547e-06
-5.25753e-05 0.000184766 2.64253e-06
-1.0547e-06 2.64253e-06 0.000115859
0.00131853 -9.10241e-05 5.37279e-06
-9.10241e-05 -8.90135e-05 2.3913e-06
5.37279e-06 2.3913e-06 -0.000154712
0.00163407 -7.976e-05 1.57076e-06
-7.976e-05 6.00668e-05 8.89036e-07
1.57076e-06 8.89036e-07 4.62805e-06
0.00176467 -6.57644e-05 -2.21132e-07
-6.57644e-05 0.000136002 1.07373e-06
-2.21132e-07 1.07373e-06 6.63697e-05
0.0014797 -8.66204e-05 1.90165e-06
-8.66204e-05 5.85276e-05 3.31756e-06
1.90165e-06 3.31756e-06 -1.13851e-05
0.00146905 -7.84325e-05 -7.0018e-08
-7.84325e-05 5.34465e-05 -1.18602e-07
-7.0018e-08 -1.18602e-07 -1.2807e-05
0.00146776 -7.49433e-05 1.82149e-06
-7.49433e-05 7.50423e-05 -1.96461e-07
1.82149e-06 -1.96461e-07 -4.20388e-06
0.00129814 -7.8108e-05 -1.82561e-07
-7.8108e-05 1.16877e-05 3.41811e-06
-1.82561e-07 3.41811e-06 -5.84739e-05
0.00152089 -8.0623e-05 -9.79283e-07
-8.0623e-05 0.000138574 -7.69803e-07
-9.79283e-07 -7.69803e-07 5.91024e-05
0.00163853 -8.27528e-05 1.18779e-07
-8.27528e-05 0.000216524 -1.2365e-06
1.18779e-07 -1.2365e-06 0.00012929
0.00139495 -8.7099e-05 1.30335e-06
-8.7099e-05 0.000110554 1.80828e-06
1.30335e-06 1.80828e-06 1.78292e-05
0.00136541 -8.48488e-05 2.09528e-07
-8.48488e-05 0.000114447 -3.35176e-07
2.09528e-07 -3.35176e-07 2.05326e-05
0.00141635 -8.4189e-05 -1.35443e-06
-8.4189e-05 0.000163577 -4.01524e-07
-1.35443e-06 -4.01524e-07 7.18414e-05
0.000788338 -6.55593e-05 -2.87155e-06
-6.55593e-05 -8.12067e-05 1.28484e-06
-2.87155e-06 1.28484e-06 -0.000168389
0.00102563 -7.89923e-05 -4.05997e-07
-7.89923e-05 1.30337e-05 3.95468e-07
-4.05997e-07 3.95468e-07 -8.28646e-05
0.00127541 -8.94369e-05 1.92612e-06
-8.94369e-05 0.000113661 -4.75989e-07
1.92612e-06 -4.75989e-07 1.06319e-05
0.000833166 -3.62321e-05 -2.71363e-06
-3.62321e-05 4.24159e-06 1.48263e-06
-2.71363e-06 1.48263e-06 -6.33883e-05
0.00104688 -7.22976e-05 8.61993e-08
-7.22976e-05 8.14526e-05 9.26729e-09
8.61993e-08 9.26729e-09 -2.72011e-06
0.00100633 -7.97734e-05 7.21648e-07
-7.97734e-05 4.72258e-05 -4.95249e-07
7.21648e-07 -4.95249e-07 -4.7175e-05
0.000648295 5.09864e-05 -2.78255e-06
5.09864e-05 -6.01609e-05 4.05419e-06
-2.78255e-06 4.05419e-06 -9.30415e-05
0.000870402 -2.02914e-05 3.99488e-09
-2.02914e-05 2.83425e-05 6.61113e-08
3.99488e-09 6.61113e-08 -3.63441e-05
0.00109441 -6.96705e-05 1.70432e-06
-6.96705e-05 0.000119085 -7.87117e-07
1.70432e-06 -7.87117e-07 3.88036e-05
0.00274857 6.64628e-05 -3.16555e-05
6.64628e-05 0.00102417 3.26728e-06
-3.16555e-05 3.26728e-06 0.00103084
0.000695451 4.86235e-05 1.97271e-07
4.86235e-05 -4.39384e-05 -2.10852e-08
1.97271e-07 -2.10852e-08 -7.08833e-05
0.000875932 -1.33538e-05 2.79735e-06
-1.33538e-05 2.88146e-05 -1.66512e-06
2.79735e-06 -1.66512e-06 -3.21967e-05
0.00260772 5.9617e-05 3.17098e-07
5.9617e-05 0.000946359 8.96102e-08
3.17098e-07 8.96102e-08 0.000955363
0.000749178 4.53205e-05 2.48526e-06
4.53205e-05 -2.18952e-05 -4.04618e-06
2.48526e-06 -4.04618e-06 -4.37589e-05
0.00249058 5.33629e-05 2.87079e-05
5.33629e-05 0.000880276 -3.45321e-06
2.87079e-05 -3.45321e-06 0.000891474
0.00108584 7.61935e-05 -5.0488e-07
7.61935e-05 0.00013289 -3.42245e-07
-5.0488e-07 -3.42245e-07 4.67115e-05
0.00108468 7.1163e-05 1.86777e-07
7.1163e-05 0.000133492 1.12905e-07
1.86777e-07 1.12905e-07 5.19753e-05
0.000965128 3.09925e-05 -1.32506e-06
3.09925e-05 6.95617e-05 -1.29425e-07
-1.32506e-06 -1.29425e-07 -5.01523e-06
0.000938898 6.15279e-05 5.96916e-07
6.15279e-05 5.92496e-05 -8.99345e-08
5.96916e-07 -8.99345e-08 -1.87061e-05
0.000878295 5.09497e-07 -3.81352e-07
5.09497e-07 2.32413e-05 -3.11779e-08
-3.81352e-07 -3.11779e-08 -4.82609e-05
0.000821632 -5.441e-06 -2.49046e-06
-5.441e-06 -1.00836e-06 -1.5996e-06
-2.49046e-06 -1.5996e-06 -5.44431e-05
0.000892834 -2.31441e-05 5.53614e-07
-2.31441e-05 2.68902e-05 1.2601e-06
5.53614e-07 1.2601e-06 -4.02024e-05
0.000834381 -2.38369e-05 1.45575e-08
-2.38369e-05 1.20338e-06 -1.26538e-07
1.45575e-08 -1.26538e-07 -4.53099e-05
0.000770945 -3.953e-05 -3.01989e-06
-3.953e-05 -2.22148e-05 -3.75098e-06
-3.01989e-06 -3.75098e-06 -3.81116e-05
0.00085352 -2.69799e-05 1.46815e-06
-2.69799e-05 4.5841e-06 2.30014e-06
1.46815e-06 2.30014e-06 -3.61307e-05
0.000768615 -3.21121e-05 -1.57171e-08
-3.21121e-05 -3.25344e-05 -2.7026e-08
-1.57171e-08 -2.7026e-08 -4.42284e-05
0.00236456 -4.72145e-05 -2.57592e-05
-4.72145e-05 0.000806094 -3.49696e-06
-2.57592e-05 -3.49696e-06 0.000819973
0.00233458 -4.23171e-05 -5.27617e-07
-4.23171e-05 0.000782166 7.38276e-08
-5.27617e-07 7.38276e-08 0.000797974
0.000768496 -2.74637e-05 2.64326e-06
-2.74637e-05 -3.91598e-05 3.5152e-06
2.64326e-06 3.5152e-06 -4.8408e-05
0.00232522 -3.76535e-05 2.03678e-05
-3.76535e-05 0.000770269 3.75154e-06
2.03678e-05 3.75154e-06 0.000787548
0.00104573 -4.52788e-05 -5.67354e-05
-4.52788e-05 -0.000261269 -4.46228e-06
-5.67354e-05 -4.46228e-06 -0.000459923
0.00147287 -8.20593e-05 -4.27866e-06
-8.20593e-05 -0.00035995 -3.42566e-06
-4.27866e-06 -3.42566e-06 -0.000929126
0.00339355 -0.000241878 -4.04271e-05
-0.000241878 0.00134957 -6.66256e-06
-4.04271e-05 -6.66256e-06 0.00141003
0.00117293 8.76273e-05 4.29016e-06
8.76273e-05 0.000152539 1.56725e-06
4.29016e-06 1.56725e-06 5.92679e-05
0.00112491 6.70921e-05 8.32232e-07
6.70921e-05 0.000164392 -7.15019e-07
8.32232e-07 -7.15019e-07 7.85975e-05
0.000982607 7.51546e-05 -7.20839e-08
7.51546e-05 8.94202e-05 -6.82696e-07
-7.20839e-08 -6.82696e-07 4.85475e-06
0.000958042 7.49444e-05 8.33827e-08
7.49444e-05 8.49761e-05 2.36637e-07
8.33827e-08 2.36637e-07 -1.97099e-06
0.00104284 7.96278e-05 -1.11099e-07
7.96278e-05 0.000121696 -5.06092e-07
-1.11099e-07 -5.06092e-07 3.17506e-05
0.00070323 7.16227e-05 -7.73416e-07
7.16227e-05 -6.06228e-05 1.69221e-06
-7.73416e-07 1.69221e-06 -0.000142418
0.00110233 8.12793e-05 1.39543e-06
8.12793e-05 0.000156026 -1.65643e-06
1.39543e-06 -1.65643e-06 6.18418e-05
0.00103032 6.16724e-05 -4.0523e-07
6.16724e-05 0.000122306 7.0952e-07
-4.0523e-07 7.0952e-07 3.03606e-05
0.000979034 8.82114e-05 -9.76764e-09
8.82114e-05 5.96532e-05 -1.55931e-07
-9.76764e-09 -1.55931e-07 -3.09636e-05
0.00199865 0.000134802 3.90602e-07
0.000134802 0.00052309 1.64224e-06
3.90602e-07 1.64224e-06 0.000424872
0.001528 0.00012754 1.25317e-06
0.00012754 0.000170302 -1.03096e-06
1.25317e-06 -1.03096e-06 5.97607e-05
0.00194602 0.000124723 5.07027e-07
0.000124723 0.000139253 4.6502e-06
5.07027e-07 4.6502e-06 2.43905e-05
0.0013741 0.000134677 1.98081e-06
0.000134677 5.60077e-05 4.66537e-07
1.98081e-06 4.66537e-07 -6.47262e-05
0.000750086 9.54332e-05 -1.3448e-06
9.54332e-05 -8.9338e-05 3.39989e-06
-1.3448e-06 3.39989e-06 -0.000188669
0.000871109 3.2022e-06 -1.07186e-05
3.2022e-06 -0.000315969 2.85288e-06
-1.07186e-05 2.85288e-06 -0.000329195
0.00317038 -6.12291e-05 -6.04207e-06
-6.12291e-05 0.000277921 7.72049e-07
-6.04207e-06 7.72049e-07 5.21101e-05
0.00120794 -0.000156702 -1.78921e-06
-0.000156702 -0.00051218 -2.70541e-06
-1.78921e-06 -2.70541e-06 -0.0011347
0.00277646 0.000151044 3.58541e-05
0.000151044 0.000234224 2.25441e-05
3.58541e-05 2.25441e-05 -6.67718e-05
0.00127856 0.000111496 -1.24876e-06
0.000111496 -0.000154527 1.29745e-06
-1.24876e-06 1.29745e-06 -0.000194549
0.00026762 0.000156799 -1.37437e-05
0.000156799 -0.000461208 -8.92196e-06
-1.37437e-05 -8.92196e-06 -0.000596515
0.00256746 -4.51789e-05 1.02789e-05
-4.51789e-05 0.000623532 -6.47351e-06
1.02789e-05 -6.47351e-06 0.000543169
0.000893749 -1.24941e-05 -2.23089e-05
-1.24941e-05 -1.23883e-05 2.24728e-06
-2.23089e-05 2.24728e-06 -0.000279309
0.000676341 0.000150407 5.12066e-05
0.000150407 -0.00070051 -1.69498e-06
5.12066e-05 -1.69498e-06 -0.00122949
0.00100784 -9.46555e-05 -4.48094e-06
-9.46555e-05 -0.000198422 1.0996e-05
-4.48094e-06 1.0996e-05 -0.000204288
0.0034063 0.000142748 4.21732e-05
0.000142748 0.000904089 -9.58158e-06
4.21732e-05 -9.58158e-06 0.000643216
0.00186119 -1.73675e-05 5.81764e-06
-1.73675e-05 7.80356e-05 -2.33787e-06
5.81764e-06 -2.33787e-06 3.30632e-05
0.00207039 8.13767e-05 1.40238e-06
8.13767e-05 0.000338541 -4.14505e-06
1.40238e-06 -4.14505e-06 0.000256653
0.00113343 4.10458e-05 1.98342e-08
4.10458e-05 -0.0002936 -3.4552e-06
1.98342e-08 -3.4552e-06 -0.000379716
0.00194498 5.50504e-05 -2.18882e-06
5.50504e-05 0.000145689 -5.23168e-06
-2.18882e-06 -5.23168e-06 4.94804e-05
0.00189487 -9.974e-05 9.40912e-06
-9.974e-05 2.32486e-06 -2.09238e-06
9.40912e-06 -2.09238e-06 -5.00869e-05
0.00198094 -2.98532e-05 4.45645e-06
-2.98532e-05 9.71514e-05 1.61168e-07
4.45645e-06 1.61168e-07 2.97452e-05
0.00181865 -1.90705e-07 -2.85204e-07
-1.90705e-07 0.000112729 -1.82822e-06
-2.85204e-07 -1.82822e-06 1.74728e-05
0.00187756 -8.75583e-05 3.42539e-06
-8.75583e-05 9.48762e-05 -9.84228e-08
3.42539e-06 -9.84228e-08 3.75624e-05
0.00188049 -5.29324e-05 3.14383e-07
-5.29324e-05 0.000121402 -2.67837e-07
3.14383e-07 -2.67837e-07 5.06575e-05
0.00190525 -3.3943e-05 -8.85591e-07
-3.3943e-05 0.000184095 6.73068e-07
-8.85591e-07 6.73068e-07 9.52387e-05
0.00154983 -7.90464e-05 1.61354e-06
-7.90464e-05 2.73392e-05 4.21946e-07
1.61354e-06 4.21946e-07 -3.00853e-05
0.00169336 -6.7263e-05 -7.41644e-07
-6.7263e-05 0.000113272 -1.51539e-06
-7.41644e-07 -1.51539e-06 4.46394e-05
0.00148554 -6.09991e-05 3.62613e-07
-6.09991e-05 3.49033e-05 1.57859e-06
3.62613e-07 1.57859e-06 -5.0483e-05
0.00137375 -7.89361e-05 -8.45773e-07
-7.89361e-05 1.33006e-05 -4.73193e-07
-8.45773e-07 -4.73193e-07 -5.33583e-05
0.00143759 -7.40423e-05 2.60258e-07
-7.40423e-05 6.08341e-05 -7.69982e-07
2.60258e-07 -7.69982e-07 -1.84358e-05
0.0014208 -7.40761e-05 3.55353e-07
-7.40761e-05 7.21769e-05 -1.22666e-07
3.55353e-07 -1.22666e-07 -1.58253e-05
0.00135372 -7.65467e-05 -1.79845e-06
-7.65467e-05 5.38794e-05 1.82581e-06
-1.79845e-06 1.82581e-06 -2.42618e-05
0.00148768 -7.84179e-05 -2.59028e-07
-7.84179e-05 0.000139499 -5.15586e-07
-2.59028e-07 -5.15586e-07 5.29675e-05
0.00138979 -7.51675e-05 -1.16074e-06
-7.51675e-05 0.000114474 -4.60704e-07
-1.16074e-06 -4.60704e-07 2.50217e-05
0.00136715 -8.41854e-05 1.43047e-06
-8.41854e-05 0.000115782 5.80509e-07
1.43047e-06 5.80509e-07 2.14773e-05
0.00124135 -7.92092e-05 3.14485e-07
-7.92092e-05 7.58205e-05 -1.8844e-07
3.14485e-07 -1.8844e-07 -1.64513e-05
0.00124633 -7.44971e-05 -2.61234e-06
-7.44971e-05 0.000111445 5.70454e-07
-2.61234e-06 5.70454e-07 2.50416e-05
0.000902528 -4.84638e-05 -3.25394e-06
-4.84638e-05 1.86436e-05 1.50293e-06
-3.25394e-06 1.50293e-06 -5.20538e-05
0.000894438 -6.8533e-05 -6.7106e-07
-6.8533e-05 -2.5426e-05 4.73696e-07
-6.7106e-07 4.73696e-07 -0.000111878
0.00109505 -8.03609e-05 1.29938e-06
-8.03609e-05 5.13384e-05 -2.37424e-07
1.29938e-06 -2.37424e-07 -4.38841e-05
0.000660933 8.8597e-06 -5.00437e-06
8.8597e-06 -5.0099e-05 3.98112e-06
-5.00437e-06 3.98112e-06 -8.66787e-05
0.000886191 -3.74248e-05 1.25425e-07
-3.74248e-05 3.11301e-05 3.16051e-08
1.25425e-07 3.16051e-08 -3.69871e-05
0.0010902 -7.35116e-05 2.01664e-06
-7.35116e-05 0.000102204 -9.73322e-07
2.01664e-06 -9.73322e-07 1.80081e-05
0.00284525 7.23367e-05 -3.43481e-05
7.23367e-05 0.00108301 3.2098e-06
-3.43481e-05 3.2098e-06 0.00108659
0.000700006 2.71464e-05 2.05529e-08
2.71464e-05 -3.85488e-05 -1.02875e-07
2.05529e-08 -1.02875e-07 -6.93686e-05
0.000920579 -2.3898e-05 2.93332e-06
-2.3898e-05 5.29137e-05 -1.70122e-06
2.93332e-06 -1.70122e-06 -1.18722e-05
0.0027271 6.5474e-05 5.6724e-07
6.5474e-05 0.00101434 1.14844e-07
5.6724e-07 1.14844e-07 0.0010207
0.000736274 3.83105e-05 4.05745e-06
3.83105e-05 -2.37576e-05 -3.88084e-06
4.05745e-06 -3.88084e-06 -5.00339e-05
0.00262058 5.92337e-05 3.13787e-05
5.92337e-05 0.000953386 -3.49473e-06
3.13787e-05 -3.49473e-06 0.00096211
0.000899524 7.50803e-05 -4.34143e-07
7.50803e-05 2.03179e-05 -3.43531e-07
-4.34143e-07 -3.43531e-07 -7.03538e-05
0.00101943 7.34028e-05 -1.59844e-08
7.34028e-05 9.9034e-05 -3.85284e-07
-1.59844e-08 -3.85284e-07 1.32658e-05
0.00107417 6.16968e-05 -1.03871e-06
6.16968e-05 0.000121495 -8.41363e-09
-1.03871e-06 -8.41363e-09 4.36395e-05
0.00112058 7.2928e-05 2.55073e-07
7.2928e-05 0.000151769 -6.31404e-07
2.55073e-07 -6.31404e-07 7.05371e-05
0.000961083 3.38401e-05 -5.2042e-07
3.38401e-05 6.78105e-05 -1.95098e-07
-5.2042e-07 -1.95098e-07 -6.28205e-06
0.000844936 3.01354e-06 -2.4527e-06
3.01354e-06 1.56625e-05 -1.2222e-06
-2.4527e-06 -1.2222e-06 -4.37255e-05
0.000877301 1.02792e-05 5.28959e-07
1.02792e-05 2.29208e-05 1.22814e-07
5.28959e-07 1.22814e-07 -4.87485e-05
0.000837637 -1.95857e-05 -6.42863e-08
-1.95857e-05 7.81378e-06 2.51132e-08
-6.42863e-08 2.51132e-08 -4.543e-05
0.000744462 -4.5946e-05 -2.71749e-06
-4.5946e-05 -2.57968e-05 -3.71323e-06
-2.71749e-06 -3.71323e-06 -4.6708e-05
0.000843924 -2.59952e-05 1.73688e-06
-2.59952e-05 6.47859e-06 2.32552e-06
1.73688e-06 2.32552e-06 -4.01188e-05
0.000750087 -3.76263e-05 -3.05726e-08
-3.76263e-05 -3.37627e-05 -4.28071e-08
-3.05726e-08 -4.28071e-08 -4.91656e-05
0.00245092 -5.27403e-05 -2.80571e-05
-5.27403e-05 0.000858116 -3.36742e-06
-2.80571e-05 -3.36742e-06 0.000869787
0.000758457 -3.11278e-05 3.13518e-06
-3.11278e-05 -3.8143e-05 3.57438e-06
3.13518e-06 3.57438e-06 -4.95859e-05
0.00236466 -4.72997e-05 -3.84828e-07
-4.72997e-05 0.000804989 6.84986e-08
-3.84828e-07 6.84986e-08 0.000819098
0.00235023 -4.2397e-05 2.29223e-05
-4.2397e-05 0.000789469 3.64373e-06
2.29223e-05 3.64373e-06 0.00080535
0.000510745 -4.33789e-05 -4.6298e-06
-4.33789e-05 -0.00044879 4.0242e-07
-4.6298e-06 4.0242e-07 -0.000481199
0.00281889 -2.57526e-05 -3.53562e-06
-2.57526e-05 0.000370976 7.96402e-06
-3.53562e-06 7.96402e-06 8.41061e-05
0.00537366 4.62648e-05 -6.93007e-05
4.62648e-05 0.00160781 -8.99712e-06
-6.93007e-05 -8.99712e-06 0.00102016
0.000820502 7.36146e-05 2.2344e-06
7.36146e-05 -4.0949e-05 1.54271e-06
2.2344e-06 1.54271e-06 -0.000127025
0.0013722 9.86923e-05 3.16261e-06
9.86923e-05 0.000175684 -6.72238e-07
3.16261e-06 -6.72238e-07 7.7093e-05
0.000835086 7.64675e-05 2.02286e-07
7.64675e-05 -9.42725e-06 -4.6042e-07
2.02286e-07 -4.6042e-07 -0.000101846
0.00112673 8.15821e-05 1.08646e-07
8.15821e-05 0.000169664 -1.80994e-06
1.08646e-07 -1.80994e-06 8.20485e-05
0.000978307 7.76047e-05 -4.65214e-07
7.76047e-05 9.09269e-05 -1.01998e-06
-4.65214e-07 -1.01998e-06 4.59692e-07
0.000992282 8.34893e-05 1.51143e-06
8.34893e-05 7.5983e-05 9.35518e-07
1.51143e-06 9.35518e-07 -7.37927e-06
0.00150811 0.000116856 -1.99708e-06
0.000116856 0.000172852 -2.52853e-06
-1.99708e-06 -2.52853e-06 7.061e-05
0.00147974 0.000106431 1.50489e-06
0.000106431 0.000310927 -4.55684e-07
1.50489e-06 -4.55684e-07 0.00022078
0.000924332 9.81203e-05 -1.93e-06
9.81203e-05 4.26918e-06 4.1951e-06
-1.93e-06 4.1951e-06 -9.10614e-05
0.00150059 0.000126474 -1.14721e-06
0.000126474 0.000160635 -1.38465e-07
-1.14721e-06 -1.38465e-07 5.15119e-05
0.00135665 0.000105845 -2.3147e-06
0.000105845 -8.49595e-05 2.7369e-07
-2.3147e-06 2.7369e-07 -0.000199984
0.00194568 2.90166e-05 1.21118e-06
2.90166e-05 6.42878e-05 4.36432e-06
1.21118e-06 4.36432e-06 -1.39874e-05
0.00207275 0.000127255 2.43496e-06
0.000127255 0.000205844 1.46921e-06
2.43496e-06 1.46921e-06 9.12388e-05
0.0012419 0.00012795 -2.41387e-06
0.00012795 -1.20867e-05 2.16274e-06
-2.41387e-06 2.16274e-06 -0.000131701
0.00137592 1.15031e-06 8.72394e-07
1.15031e-06 -6.56431e-05 -4.05072e-07
8.72394e-07 -4.05072e-07 -8.06652e-05
0.00386679 -0.000112929 4.59674e-05
-0.000112929 0.000512336 2.31521e-05
4.59674e-05 2.31521e-05 0.000220864
0.00200094 0.000118881 -4.86042e-07
0.000118881 0.00021393 -6.43326e-06
-4.86042e-07 -6.43326e-06 0.000167308
0.00198392 8.62444e-07 4.99973e-07
8.62444e-07 0.000271607 -5.48615e-06
4.99973e-07 -5.48615e-06 0.000208812
0.00156739 -3.30319e-05 -1.49363e-07
-3.30319e-05 0.00014491 5.35827e-07
-1.49363e-07 5.35827e-07 5.71895e-05
0.000839431 5.9326e-05 5.62548e-05
5.9326e-05 -0.000249958 1.07429e-06
5.62548e-05 1.07429e-06 -0.000577305
0.000802387 -1.97955e-05 -8.8986e-07
-1.97955e-05 -0.00045249 2.36919e-06
-8.8986e-07 2.36919e-06 -0.000501097
0.00266532 9.03926e-05 -1.85753e-05
9.03926e-05 0.000656392 4.14355e-06
-1.85753e-05 4.14355e-06 0.000580332
0.00121483 4.32394e-05 -6.88358e-07
4.32394e-05 -0.000263979 5.25207e-06
-6.88358e-07 5.25207e-06 -0.000344458
0.00204253 5.59036e-05 1.51714e-06
5.59036e-05 0.000180465 -1.67754e-07
1.51714e-06 -1.67754e-07 8.73793e-05
0.00188382 3.36725e-05 -1.77762e-06
3.36725e-05 0.000140586 9.03401e-07
-1.77762e-06 9.03401e-07 5.1244e-05
0.00139183 3.14756e-05 -7.98889e-08
3.14756e-05 -0.000103292 -2.64989e-06
-7.98889e-08 -2.64989e-06 -0.000179987
0.00191568 -2.76401e-05 7.13239e-06
-2.76401e-05 6.19914e-05 1.64556e-06
7.13239e-06 1.64556e-06 -9.45539e-06
0.00184094 2.57952e-07 -2.04318e-06
2.57952e-07 0.000110935 2.54077e-07
-2.04318e-06 2.54077e-07 1.77772e-05
0.00162929 7.37449e-06 -2.6925e-07
7.37449e-06 4.26949e-05 -3.28489e-06
-2.6925e-07 -3.28489e-06 -5.44972e-05
0.00191338 -5.44277e-05 -3.19751e-07
-5.44277e-05 0.000142234 -1.98089e-06
-3.19751e-07 -1.98089e-06 7.02729e-05
0.00180689 -3.38195e-05 -9.25397e-08
-3.38195e-05 0.000137584 -8.69909e-07
-9.25397e-08 -8.69909e-07 5.12298e-05
0.00156588 -2.59867e-05 -3.82616e-07
-2.59867e-05 3.96262e-05 5.61173e-07
-3.82616e-07 5.61173e-07 -5.27902e-05
0.00160237 -6.83856e-05 -3.34709e-06
-6.83856e-05 8.05563e-05 -2.91224e-06
-3.34709e-06 -2.91224e-06 1.29655e-05
0.00154415 -6.09239e-05 3.88763e-07
-6.09239e-05 6.28576e-05 2.83457e-08
3.88763e-07 2.83457e-08 -2.26203e-05
0.00149046 -6.215e-05 -1.65602e-07
-6.215e-05 5.88894e-05 9.25908e-07
-1.65602e-07 9.25908e-07 -3.33236e-05
0.00140847 -7.31621e-05 -1.10615e-06
-7.31621e-05 4.71305e-05 -1.34904e-06
-1.10615e-06 -1.34904e-06 -3.21615e-05
0.0014258 -7.33396e-05 9.09097e-08
-7.33396e-05 7.43485e-05 -5.269e-07
9.09097e-08 -5.269e-07 -1.35571e-05
0.00137571 -7.18273e-05 -9.68974e-07
-7.18273e-05 7.49058e-05 1.04068e-07
-9.68974e-07 1.04068e-07 -1.63342e-05
0.00133499 -7.40991e-05 -2.04526e-07
-7.40991e-05 6.1562e-05 7.31151e-07
-2.04526e-07 7.31151e-07 -2.42718e-05
0.00126071 -7.19406e-05 -1.87551e-07
-7.19406e-05 4.99074e-05 -2.17413e-07
-1.87551e-07 -2.17413e-07 -3.93315e-05
0.00121513 -6.79719e-05 -2.68409e-06
-6.79719e-05 6.44624e-05 3.62054e-07
-2.68409e-06 3.62054e-07 -2.13586e-05
0.00106606 -7.42452e-05 1.88172e-06
-7.42452e-05 -1.204e-05 -7.60562e-08
1.88172e-06 -7.60562e-08 -0.00010486
0.00106299 -6.89208e-05 1.50578e-07
-6.89208e-05 1.96112e-05 4.20116e-08
1.50578e-07 4.20116e-08 -6.6852e-05
0.000963058 -5.24462e-05 -3.88321e-06
-5.24462e-05 1.92935e-05 1.44949e-06
-3.88321e-06 1.44949e-06 -5.24625e-05
0.000632978 -1.0928e-05 -6.16986e-06
-1.0928e-05 -6.53408e-05 4.06989e-06
-6.16986e-06 4.06989e-06 -0.000106661
0.00092829 -5.0561e-05 1.09025e-07
-5.0561e-05 3.19909e-05 5.12298e-08
1.09025e-07 5.12298e-08 -3.89333e-05
0.00101295 -7.19764e-05 1.39047e-06
-7.19764e-05 3.64744e-05 -3.25315e-07
1.39047e-06 -3.25315e-07 -4.92648e-05
0.00293923 7.89396e-05 -3.5665e-05
7.89396e-05 0.00114633 3.12084e-06
-3.5665e-05 3.12084e-06 0.00114573
0.000720301 1.10886e-05 -1.6564e-07
1.10886e-05 -2.30588e-05 -6.77136e-08
-1.6564e-07 -6.77136e-08 -6.00965e-05
0.000949375 -3.90328e-05 3.22101e-06
-3.90328e-05 6.31164e-05 -1.58867e-06
3.22101e-06 -1.58867e-06 -5.5645e-06
0.00283318 7.1815e-05 5.28068e-07
7.1815e-05 0.00107948 1.17399e-07
5.28068e-07 1.17399e-07 0.00108242
0.000762405 2.83932e-05 5.18875e-06
2.83932e-05 -7.19822e-06 -3.76729e-06
5.18875e-06 -3.76729e-06 -3.86222e-05
0.00273176 6.51305e-05 3.37613e-05
6.51305e-05 0.00101794 -3.43948e-06
3.37613e-05 -3.43948e-06 0.00102387
0.000671824 7.25841e-05 -1.01574e-07
7.25841e-05 -0.000134061 -2.57925e-07
-1.01574e-07 -2.57925e-07 -0.000231373
0.000760718 7.02859e-05 -9.02244e-09
7.02859e-05 -5.19e-05 -9.47591e-08
-9.02244e-09 -9.47591e-08 -0.000143105
0.00111585 7.12454e-05 -1.40969e-06
7.12454e-05 0.000125801 -5.36569e-08
-1.40969e-06 -5.36569e-08 4.38171e-05
0.000954501 7.06552e-05 3.40651e-08
7.06552e-05 6.58463e-05 -6.36338e-07
3.40651e-08 -6.36338e-07 -1.94996e-05
0.000999084 5.82049e-05 -1.12862e-07
5.82049e-05 8.41698e-05 -1.33529e-07
-1.12862e-07 -1.33529e-07 6.63593e-06
0.000899167 1.49765e-05 -2.58711e-06
1.49765e-05 4.75608e-05 -9.92518e-07
-2.58711e-06 -9.92518e-07 -1.67936e-05
0.00096037 3.61097e-05 6.01188e-07
3.61097e-05 6.7793e-05 -4.39659e-07
6.01188e-07 -4.39659e-07 -5.85685e-06
0.000847421 -7.24232e-07 8.79234e-08
-7.24232e-07 1.95938e-05 6.9155e-08
8.79234e-08 6.9155e-08 -4.03702e-05
0.000728909 -5.13274e-05 -2.52133e-06
-5.13274e-05 -2.47034e-05 -3.67233e-06
-2.52133e-06 -3.67233e-06 -5.12628e-05
0.000849084 -2.59711e-05 1.94594e-06
-2.59711e-05 1.50145e-05 2.02298e-06
1.94594e-06 2.02298e-06 -3.84885e-05
0.000720003 -4.43826e-05 -2.83857e-08
-4.43826e-05 -3.9687e-05 -4.88486e-08
-2.83857e-08 -4.88486e-08 -6.00471e-05
0.00256339 -5.88271e-05 -3.04087e-05
-5.88271e-05 0.000923414 -3.26099e-06
-3.04087e-05 -3.26099e-06 0.000932587
0.000729583 -3.58092e-05 3.48769e-06
-3.58092e-05 -4.51461e-05 3.60799e-06
3.48769e-06 3.60799e-06 -6.00659e-05
0.00244348 -5.27954e-05 -3.59009e-07
-5.27954e-05 0.000853254 7.22613e-08
-3.59009e-07 7.22613e-08 0.000865216
0.00237827 -4.74184e-05 2.4732e-05
-4.74184e-05 0.000810934 3.49156e-06
2.4732e-05 3.49156e-06 0.000825221
0.00160441 -3.37369e-05 5.88812e-06
-3.37369e-05 -6.85573e-05 1.46447e-06
5.88812e-06 1.46447e-06 -0.000127393
0.00091318 -5.46934e-05 1.12877e-06
-5.46934e-05 -0.000274681 1.36393e-06
1.12877e-06 1.36393e-06 -0.000313237
0.00160256 -7.29647e-05 5.26873e-05
-7.29647e-05 -0.000102564 1.68953e-05
5.26873e-05 1.68953e-05 -0.000318261
0.00190592 0.00011315 1.36011e-06
0.00011315 0.000382227 -1.84035e-06
1.36011e-06 -1.84035e-06 0.000285866
0.000842704 7.62709e-05 -9.7632e-07
7.62709e-05 -1.65952e-05 4.941e-07
-9.7632e-07 4.941e-07 -9.85987e-05
0.000723017 8.14565e-05 -2.67904e-06
8.14565e-05 -0.000233611 9.5155e-07
-2.67904e-06 9.5155e-07 -0.000337153
0.00136177 9.85116e-05 2.95544e-07
9.85116e-05 0.000169397 1.18213e-07
2.95544e-07 1.18213e-07 7.01099e-05
0.000502926 6.53141e-05 -2.10931e-06
6.53141e-05 -0.000167708 2.73581e-07
-2.10931e-06 2.73581e-07 -0.00025937
0.00181883 0.000106482 -2.41764e-06
0.000106482 0.000182295 -3.08497e-06
-2.41764e-06 -3.08497e-06 7.20232e-05
0.00127163 9.48056e-05 -5.07063e-07
9.48056e-05 0.000207768 -9.64321e-07
-5.07063e-07 -9.64321e-07 0.000122937
0.00148073 0.000114492 -1.27271e-07
0.000114492 0.000152932 4.00072e-07
-1.27271e-07 4.00072e-07 5.05777e-05
0.00171095 4.60489e-05 1.80397e-06
4.60489e-05 2.56752e-05 2.61787e-06
1.80397e-06 2.61787e-06 -6.95534e-05
0.00148511 0.000126137 1.12089e-06
0.000126137 0.000155393 2.29808e-06
1.12089e-06 2.29808e-06 4.78242e-05
0.0015956 0.000112659 -1.03491e-06
0.000112659 2.67024e-05 -7.29378e-07
-1.03491e-06 -7.29378e-07 -8.95328e-05
0.00182746 3.41582e-05 3.05492e-10
3.41582e-05 1.50463e-05 2.30732e-07
3.05492e-10 2.30732e-07 -6.55247e-05
0.00173118 0.000114905 1.01326e-06
0.000114905 5.23589e-05 -9.79829e-07
1.01326e-06 -9.79829e-07 -6.24507e-05
0.00136389 5.05087e-06 -3.29828e-06
5.05087e-06 -6.94514e-05 -7.18367e-06
-3.29828e-06 -7.18367e-06 -8.43349e-05
0.00164235 4.79019e-07 1.10943e-06
4.79019e-07 6.53422e-05 -3.20517e-06
1.10943e-06 -3.20517e-06 4.33089e-07
0.00169384 1.84636e-07 5.97663e-08
1.84636e-07 0.000121295 -2.27213e-07
5.97663e-08 -2.27213e-07 5.93995e-05
0.000521059 -1.64577e-05 -2.35198e-06
-1.64577e-05 -0.000356225 3.56642e-06
-2.35198e-06 3.56642e-06 -0.000451227
0.00128455 4.64689e-05 8.50339e-07
4.64689e-05 -0.000243005 2.43085e-06
8.50339e-07 2.43085e-06 -0.000317943
0.00222319 5.76636e-05 1.10122e-05
5.76636e-05 0.00026058 4.30653e-06
1.10122e-05 4.30653e-06 0.000170254
0.00161953 3.13662e-05 -3.10202e-06
3.13662e-05 5.32569e-06 6.71082e-07
-3.10202e-06 6.71082e-07 -8.37986e-05
0.00170702 3.33344e-05 3.49118e-07
3.33344e-05 4.85929e-05 2.48294e-06
3.49118e-07 2.48294e-06 -3.1972e-05
0.00176379 2.66477e-05 -6.51172e-07
2.66477e-05 0.000110387 -1.37858e-06
-6.51172e-07 -1.37858e-06 2.64614e-05
0.00188591 8.82462e-09 -4.00081e-06
8.82462e-09 0.000123578 1.27063e-06
-4.00081e-06 1.27063e-06 3.19765e-05
0.00172059 7.988e-06 -1.71594e-07
7.988e-06 8.78815e-05 -2.20726e-07
-1.71594e-07 -2.20726e-07 -9.08687e-06
0.00157749 1.19806e-05 -5.0211e-07
1.19806e-05 3.35048e-05 -1.71867e-06
-5.0211e-07 -1.71867e-06 -6.03459e-05
0.00171513 -3.40433e-05 -5.63771e-07
-3.40433e-05 9.45695e-05 -1.50377e-06
-5.63771e-07 -1.50377e-06 1.06678e-05
0.00162113 -2.67329e-05 1.06091e-07
-2.67329e-05 6.45218e-05 8.2914e-07
1.06091e-07 8.2914e-07 -2.79251e-05
0.00157725 -2.73147e-05 -9.52095e-07
-2.73147e-05 6.21024e-05 -1.97617e-07
-9.52095e-07 -1.97617e-07 -3.2515e-05
0.00160286 -6.0778e-05 2.60466e-07
-6.0778e-05 9.08881e-05 -1.42326e-06
2.60466e-07 -1.42326e-06 5.32077e-06
0.0015203 -6.13884e-05 2.51071e-07
-6.13884e-05 7.27728e-05 2.30946e-07
2.51071e-07 2.30946e-07 -1.94861e-05
0.00145752 -6.27243e-05 -1.31314e-06
-6.27243e-05 7.13866e-05 6.0858e-07
-1.31314e-06 6.0858e-07 -2.29468e-05
0.00143176 -7.26904e-05 -1.96647e-07
-7.26904e-05 7.70118e-05 -9.08238e-07
-1.96647e-07 -9.08238e-07 -1.08028e-05
0.00138001 -7.13486e-05 3.44097e-08
-7.13486e-05 7.6515e-05 -3.00815e-07
3.44097e-08 -3.00815e-07 -1.46473e-05
0.0012698 -6.53425e-05 -2.6052e-06
-6.53425e-05 5.82316e-05 5.48764e-07
-2.6052e-06 5.48764e-07 -2.98486e-05
0.00113197 -6.86867e-05 9.56448e-07
-6.86867e-05 -1.45288e-05 1.14836e-07
9.56448e-07 1.14836e-07 -0.000103543
0.00120701 -6.72347e-05 9.38193e-09
-6.72347e-05 6.03314e-05 -7.06617e-08
9.38193e-09 -7.06617e-08 -2.53468e-05
0.00101988 -5.16585e-05 -4.55442e-06
-5.16585e-05 1.82545e-05 1.55393e-06
-4.55442e-06 1.55393e-06 -5.42627e-05
0.000873791 -6.31081e-05 2.28906e-06
-6.31081e-05 -7.51039e-05 -3.79538e-07
2.28906e-06 -3.79538e-07 -0.000161617
0.000972183 -5.31615e-05 1.4581e-07
-5.31615e-05 2.43831e-05 4.01434e-09
1.4581e-07 4.01434e-09 -4.75319e-05
0.00165381 1.20556e-06 -7.45255e-06
1.20556e-06 0.000462967 2.4973e-06
-7.45255e-06 2.4973e-06 0.000423683
0.00109052 3.72433e-05 -3.69696e-05
3.72433e-05 0.000196593 6.37109e-06
-3.69696e-05 6.37109e-06 0.000180339
0.00122181 -1.4426e-06 -1.39896e-06
-1.4426e-06 0.000236247 -2.75881e-08
-1.39896e-06 -2.75881e-08 0.000197621
0.000964257 -5.26575e-05 3.54676e-06
-5.26575e-05 5.05204e-05 -1.34469e-06
3.54676e-06 -1.34469e-06 -2.06476e-05
0.00298056 7.82833e-05 8.58664e-07
7.82833e-05 0.00117068 1.65483e-07
8.58664e-07 1.65483e-07 0.00116927
0.000783907 1.23865e-06 6.2356e-06
1.23865e-06 4.36318e-06 -3.76927e-06
6.2356e-06 -3.76927e-06 -3.17664e-05
0.00282598 7.04167e-05 3.65885e-05
7.04167e-05 0.00107803 -3.35492e-06
3.65885e-05 -3.35492e-06 0.00108049
0.00117727 8.59201e-05 -6.44361e-07
8.59201e-05 -4.63961e-05 6.88056e-07
-6.44361e-07 6.88056e-07 -0.000140538
0.000798786 7.94412e-05 1.49393e-06
7.94412e-05 -0.000118442 1.1309e-06
1.49393e-06 1.1309e-06 -0.000218828
0.00082355 7.82791e-05 -1.62458e-07
7.82791e-05 -6.32105e-05 -9.13443e-08
-1.62458e-07 -9.13443e-08 -0.000161576
0.00113242 7.70052e-05 -1.52721e-06
7.70052e-05 0.000110419 -2.76459e-07
-1.52721e-06 -2.76459e-07 2.47732e-05
0.000615552 6.5259e-05 -5.72753e-08
6.5259e-05 -0.000127362 1.63245e-07
-5.72753e-08 1.63245e-07 -0.000219081
0.00103071 6.70481e-05 -2.33581e-07
6.70481e-05 8.39256e-05 -5.90543e-08
-2.33581e-07 -5.90543e-08 2.40078e-06
0.000940169 3.09042e-05 -2.89357e-06
3.09042e-05 6.47583e-05 -7.30974e-07
-2.89357e-06 -7.30974e-07 -1.97917e-06
0.00093229 5.49665e-05 1.03107e-06
5.49665e-05 5.10686e-05 -1.12521e-07
1.03107e-06 -1.12521e-07 -2.61671e-05
0.000846926 1.12459e-05 8.21277e-08
1.12459e-05 2.24395e-05 1.54247e-07
8.21277e-08 1.54247e-07 -4.19186e-05
0.000743211 -3.46239e-05 -4.51318e-06
-3.46239e-05 -1.33475e-05 -3.43612e-06
-4.51318e-06 -3.43612e-06 -4.42787e-05
0.000857247 -1.1115e-05 1.99405e-06
-1.1115e-05 2.66904e-05 1.39545e-06
1.99405e-06 1.39545e-06 -3.34192e-05
0.000686008 -4.97613e-05 -3.28411e-08
-4.97613e-05 -4.75369e-05 -7.9956e-08
-3.28411e-08 -7.9956e-08 -7.36408e-05
0.00266142 -6.49813e-05 -3.25346e-05
-6.49813e-05 0.000982243 -3.2305e-06
-3.25346e-05 -3.2305e-06 0.000988544
0.000693852 -4.22445e-05 3.51846e-06
-4.22445e-05 -5.44619e-05 3.6481e-06
3.51846e-06 3.6481e-06 -7.42115e-05
0.0025531 -5.89153e-05 -3.40723e-07
-5.89153e-05 0.000917239 8.41498e-08
-3.40723e-07 8.41498e-08 0.000926733
0.00243777 -5.28042e-05 2.65834e-05
-5.28042e-05 0.00084919 3.33521e-06
2.65834e-05 3.33521e-06 0.00086146
0.00162653 -1.59212e-05 3.54929e-06
-1.59212e-05 1.17509e-05 3.42653e-06
3.54929e-06 3.42653e-06 -6.44125e-05
0.00191067 -3.329e-05 -5.23639e-07
-3.329e-05 0.000118334 -1.07121e-06
-5.23639e-07 -1.07121e-06 6.09647e-05
0.00179753 -7.68077e-05 3.74591e-06
-7.68077e-05 0.000132955 -2.77684e-07
3.74591e-06 -2.77684e-07 8.59638e-05
0.00158362 9.55494e-05 -4.88219e-06
9.55494e-05 8.83498e-05 -2.14009e-06
-4.88219e-06 -2.14009e-06 -1.54887e-05
0.00159807 0.000103933 -1.93137e-07
0.000103933 0.000247091 4.76628e-07
-1.93137e-07 4.76628e-07 0.000154004
0.0007884 7.68586e-05 -5.85042e-06
7.68586e-05 -3.10347e-05 -1.3991e-07
-5.85042e-06 -1.3991e-07 -0.000108835
0.00138318 9.94697e-05 1.45645e-06
9.94697e-05 9.27531e-05 1.25954e-06
1.45645e-06 1.25954e-06 -8.9434e-06
0.00137624 9.90569e-05 -2.41403e-06
9.90569e-05 0.00017569 2.2386e-07
-2.41403e-06 2.2386e-07 7.56537e-05
0.00185276 4.57844e-05 1.04092e-06
4.57844e-05 0.000116556 1.99907e-06
1.04092e-06 1.99907e-06 1.34201e-05
0.0016773 0.000104819 -2.11495e-06
0.000104819 0.000108408 -1.5754e-06
-2.11495e-06 -1.5754e-06 -4.5769e-06
0.00145375 0.000112469 1.55797e-06
0.000112469 0.00013384 4.19056e-06
1.55797e-06 4.19056e-06 3.11827e-05
0.00178028 4.53718e-05 -3.08616e-07
4.53718e-05 6.07446e-05 5.98715e-08
-3.08616e-07 5.98715e-08 -3.51725e-05
0.00189374 0.000121264 1.7846e-06
0.000121264 0.000165929 -1.00839e-06
1.7846e-06 -1.00839e-06 4.85375e-05
0.00171363 3.63787e-05 -3.40415e-06
3.63787e-05 -3.92784e-05 -3.96904e-06
-3.40415e-06 -3.96904e-06 -0.000121339
0.00170026 -4.033e-07 3.23098e-07
-4.033e-07 8.76239e-05 3.62632e-08
3.23098e-07 3.62632e-08 8.70274e-06
0.00162026 3.251e-09 -1.26722e-06
3.251e-09 4.18082e-05 -1.06006e-06
-1.26722e-06 -1.06006e-06 -2.50254e-05
0.00124422 -2.29181e-06 1.29034e-06
-2.29181e-06 -0.000110521 4.69224e-06
1.29034e-06 4.69224e-06 -0.000171123
0.00143637 2.99375e-05 -9.50601e-07
2.99375e-05 -9.07804e-05 1.98451e-06
-9.50601e-07 1.98451e-06 -0.000179457
0.00194337 3.47253e-05 6.32491e-06
3.47253e-05 0.000160073 7.53888e-06
6.32491e-06 7.53888e-06 7.5844e-05
0.00176562 2.67406e-05 -4.8933e-07
2.67406e-05 0.000113081 -3.13638e-07
-4.8933e-07 -3.13638e-07 2.83256e-05
0.00166734 2.34819e-05 1.11879e-06
2.34819e-05 8.86384e-05 -1.04327e-06
1.11879e-06 -1.04327e-06 -5.10596e-06
0.00180251 8.31673e-06 1.35426e-06
8.31673e-06 0.000127284 4.98881e-07
1.35426e-06 4.98881e-07 3.06901e-05
0.00163289 1.04582e-05 -4.96697e-07
1.04582e-05 6.17142e-05 1.10244e-07
-4.96697e-07 1.10244e-07 -3.25331e-05
0.0016324 5.25149e-06 -1.63927e-06
5.25149e-06 7.95817e-05 -1.29593e-06
-1.63927e-06 -1.29593e-06 -1.61943e-05
0.00167247 -2.76398e-05 8.31183e-07
-2.76398e-05 8.7783e-05 1.19247e-06
8.31183e-07 1.19247e-06 -4.74673e-06
0.00160089 -2.77601e-05 8.48931e-08
-2.77601e-05 7.32674e-05 4.6802e-07
8.48931e-08 4.6802e-07 -2.13877e-05
0.00154237 -3.55542e-05 -1.88284e-06
-3.55542e-05 7.56129e-05 -3.69742e-07
-1.88284e-06 -3.69742e-07 -1.90978e-05
0.00155305 -6.05626e-05 9.63117e-07
-6.05626e-05 8.8083e-05 -4.49061e-07
9.63117e-07 -4.49061e-07 -4.21138e-06
0.00146706 -6.22658e-05 1.42819e-07
-6.22658e-05 7.55084e-05 2.7151e-07
1.42819e-07 2.7151e-07 -1.88479e-05
0.00135153 -5.87818e-05 -2.8993e-06
-5.87818e-05 6.00307e-05 7.84694e-07
-2.8993e-06 7.84694e-07 -3.08963e-05
0.00138422 -7.09181e-05 1.05735e-06
-7.09181e-05 7.8096e-05 -6.83989e-07
1.05735e-06 -6.83989e-07 -1.29945e-05
0.00127572 -6.49566e-05 3.30137e-08
-6.49566e-05 6.06972e-05 -1.53199e-07
3.30137e-08 -1.53199e-07 -2.73157e-05
0.00107129 -5.01981e-05 -5.18093e-06
-5.01981e-05 1.53549e-05 1.82087e-06
-5.18093e-06 1.82087e-06 -5.95028e-05
0.00119784 -6.64818e-05 2.35635e-06
-6.64818e-05 5.56949e-05 -4.0389e-07
2.35635e-06 -4.0389e-07 -2.98439e-05
0.0010209 -5.16729e-05 2.00973e-07
-5.16729e-05 1.86407e-05 -7.71116e-08
2.00973e-07 -7.71116e-08 -5.39664e-05
0.00172792 -3.18748e-06 -7.46493e-06
-3.18748e-06 0.000492321 2.69144e-06
-7.46493e-06 2.69144e-06 0.00045155
0.000987245 -5.41942e-05 3.96585e-06
-5.41942e-05 3.25544e-05 -1.29422e-06
3.96585e-06 -1.29422e-06 -3.95517e-05
0.00179879 -7.08039e-06 1.01396e-05
-7.08039e-06 0.000531546 -9.29249e-07
1.01396e-05 -9.29249e-07 0.000492788
0.00119573 2.34018e-05 -4.82252e-05
2.34018e-05 0.000265501 6.36191e-06
-4.82252e-05 6.36191e-06 0.000245756
0.00212407 5.62666e-05 -3.2822e-05
5.62666e-05 0.000738291 1.43566e-06
-3.2822e-05 1.43566e-06 0.00072759
0.0018426 -2.07791e-06 2.36244e-05
-2.07791e-06 0.000552986 -3.04286e-06
2.36244e-05 -3.04286e-06 0.000518333
0.0030092 7.45902e-05 4.18941e-05
7.45902e-05 0.00118794 -3.22682e-06
4.18941e-05 -3.22682e-06 0.00118615
0.00155707 8.64567e-05 -3.19663e-06
8.64567e-05 7.03469e-05 -2.05054e-06
-3.19663e-06 -2.05054e-06 -2.85985e-05
0.00145924 9.41416e-05 2.8127e-06
9.41416e-05 0.000157095 6.7359e-07
2.8127e-06 6.7359e-07 6.22597e-05
0.00120347 8.73448e-05 1.33637e-06
8.73448e-05 -2.21868e-05 8.06545e-07
1.33637e-06 8.06545e-07 -0.000110112
0.0011456 8.18352e-05 -1.6071e-06
8.18352e-05 8.60283e-05 -6.0619e-07
-1.6071e-06 -6.0619e-07 -4.42894e-06
0.00113826 9.13806e-05 -4.95428e-07
9.13806e-05 4.8138e-05 2.51076e-07
-4.95428e-07 2.51076e-07 -5.27858e-05
0.000993067 8.48673e-05 1.11551e-07
8.48673e-05 1.62198e-05 2.56178e-07
1.11551e-07 2.56178e-07 -8.32144e-05
0.00108351 7.51593e-05 -1.17532e-07
7.51593e-05 8.84027e-05 -1.34306e-07
-1.17532e-07 -1.34306e-07 2.63772e-06
0.000973541 4.73734e-05 -2.86574e-06
4.73734e-05 6.86643e-05 -8.40475e-07
-2.86574e-06 -8.40475e-07 -6.67757e-07
0.000944628 6.2849e-05 8.6368e-07
6.2849e-05 4.15458e-05 -1.07404e-07
8.6368e-07 -1.07404e-07 -3.95189e-05
0.000869484 2.60548e-05 -1.72921e-07
2.60548e-05 2.91298e-05 7.58987e-08
-1.72921e-07 7.58987e-08 -3.74025e-05
0.0007667 -1.99936e-05 -5.37723e-06
-1.99936e-05 1.58981e-06 -3.27199e-06
-5.37723e-06 -3.27199e-06 -3.44355e-05
0.000795729 6.46401e-06 2.06114e-06
6.46401e-06 -2.05166e-06 1.01235e-06
2.06114e-06 1.01235e-06 -6.65524e-05
0.000682116 -4.93945e-05 -1.4121e-07
-4.93945e-05 -4.22224e-05 -5.67442e-08
-1.4121e-07 -5.67442e-08 -7.40618e-05
0.00276021 -7.11517e-05 -3.50742e-05
-7.11517e-05 0.00104522 -3.15305e-06
-3.50742e-05 -3.15305e-06 0.00104788
0.000641082 -4.8206e-05 3.02279e-06
-4.8206e-05 -7.14139e-05 3.76721e-06
3.02279e-06 3.76721e-06 -9.70532e-05
0.00267237 -6.54899e-05 -3.85725e-07
-6.54899e-05 0.000986599 1.01572e-07
-3.85725e-07 1.01572e-07 0.00099327
0.00254452 -5.88952e-05 2.87008e-05
-5.88952e-05 0.000911793 3.18793e-06
2.87008e-05 3.18793e-06 0.000921642
0.00172119 -1.07453e-05 1.47318e-06
-1.07453e-05 5.95301e-05 2.40634e-06
1.47318e-06 2.40634e-06 -2.97041e-05
0.00168018 -1.54144e-05 5.83577e-07
-1.54144e-05 3.54043e-05 7.42459e-07
5.83577e-07 7.42459e-07 -4.07333e-05
0.00217365 -3.30517e-05 -8.19744e-06
-3.30517e-05 0.000284965 -2.95748e-06
-8.19744e-06 -2.95748e-06 0.000228793
0.0016187 4.85324e-05 -2.10943e-07
4.85324e-05 2.20652e-05 1.32223e-06
-2.10943e-07 1.32223e-06 -7.98891e-05
0.00164587 9.73049e-05 3.13645e-07
9.73049e-05 0.000121332 -8.7768e-07
3.13645e-07 -8.7768e-07 1.74702e-05
0.00136699 9.68932e-05 -2.28197e-06
9.68932e-05 0.00014938 1.4618e-06
-2.28197e-06 1.4618e-06 5.96009e-05
0.00197518 0.000115574 1.76111e-06
0.000115574 0.00038465 1.41027e-07
1.76111e-06 1.41027e-07 0.00028494
0.00193085 4.88605e-05 -5.04751e-07
4.88605e-05 0.000154045 -2.7467e-07
-5.04751e-07 -2.7467e-07 5.06885e-05
0.00161118 0.000104596 1.3323e-06
0.000104596 7.11499e-05 1.00446e-07
1.3323e-06 1.00446e-07 -4.43853e-05
0.00182671 4.62826e-05 -8.92682e-07
4.62826e-05 8.62875e-05 -2.52364e-06
-8.92682e-07 -2.52364e-06 -1.05028e-05
0.00171161 -1.32804e-06 2.57306e-06
-1.32804e-06 9.10644e-05 4.62227e-07
2.57306e-06 4.62227e-07 3.17055e-07
0.00163223 2.16108e-07 7.12102e-08
2.16108e-07 5.00327e-05 -5.89798e-07
7.12102e-08 -5.89798e-07 -3.08145e-05
0.0016309 6.83355e-07 -1.94405e-06
6.83355e-07 3.55022e-05 1.50076e-06
-1.94405e-06 1.50076e-06 -3.33913e-05
0.0016506 2.55858e-05 1.05917e-06
2.55858e-05 8.35975e-05 -2.64415e-07
1.05917e-06 -2.64415e-07 -1.55498e-05
0.00178715 2.70737e-05 -3.95443e-07
2.70737e-05 0.000126731 1.61521e-06
-3.95443e-07 1.61521e-06 4.0951e-05
0.00168977 2.41172e-05 1.07655e-07
2.41172e-05 0.000100454 2.89989e-07
1.07655e-07 2.89989e-07 6.81939e-06
0.0016388 1.94563e-05 6.13978e-07
1.94563e-05 9.12406e-05 -1.07067e-06
6.13978e-07 -1.07067e-06 -6.33055e-06
0.00171224 9.14765e-06 3.92345e-07
9.14765e-06 0.00010176 1.74357e-06
3.92345e-07 1.74357e-06 7.12939e-06
0.00163256 5.44542e-06 -6.49538e-07
5.44542e-06 8.03239e-05 4.13229e-08
-6.49538e-07 4.13229e-08 -1.54471e-05
0.00158587 -1.51628e-06 -2.61549e-06
-1.51628e-06 8.54159e-05 -7.25083e-07
-2.61549e-06 -7.25083e-07 -9.63049e-06
0.00162449 -2.75443e-05 1.63504e-06
-2.75443e-05 8.44101e-05 1.12116e-06
1.63504e-06 1.12116e-06 -1.02765e-05
0.0015387 -3.40187e-05 4.02053e-08
-3.40187e-05 7.38288e-05 2.57426e-07
4.02053e-08 2.57426e-07 -2.09364e-05
0.00142867 -4.14018e-05 -3.35814e-06
-4.14018e-05 6.53004e-05 4.36287e-08
-3.35814e-06 4.36287e-08 -2.59521e-05
0.00147991 -6.17942e-05 1.89502e-06
-6.17942e-05 8.12474e-05 -7.82276e-08
1.89502e-06 -7.82276e-08 -1.3123e-05
0.0013546 -5.83201e-05 9.46804e-08
-5.83201e-05 6.11809e-05 2.30369e-07
9.46804e-08 2.30369e-07 -2.97298e-05
0.00113632 -4.62244e-05 -5.91759e-06
-4.62244e-05 1.78265e-05 1.92931e-06
-5.91759e-06 1.92931e-06 -5.99061e-05
0.00128162 -6.45202e-05 2.64923e-06
-6.45202e-05 6.31782e-05 -8.24136e-07
2.64923e-06 -8.24136e-07 -2.47668e-05
0.00107976 -4.97738e-05 2.84693e-07
-4.97738e-05 1.85523e-05 -9.73093e-08
2.84693e-07 -9.73093e-08 -5.63407e-05
0.0018218 -2.19151e-06 -7.28961e-06
-2.19151e-06 0.000527429 2.71213e-06
-7.28961e-06 2.71213e-06 0.000486295
0.00102428 -5.17017e-05 4.48063e-06
-5.17017e-05 2.03729e-05 -1.52899e-06
4.48063e-06 -1.52899e-06 -5.23449e-05
0.00188937 -1.40755e-05 1.18283e-05
-1.40755e-05 0.000569339 -8.75232e-07
1.18283e-05 -8.75232e-07 0.000529402
0.00125095 1.1649e-05 -5.36904e-05
1.1649e-05 0.000299939 6.04561e-06
-5.36904e-05 6.04561e-06 0.000278902
0.00193585 -1.74915e-05 2.94217e-05
-1.74915e-05 0.000595551 -4.76913e-06
2.94217e-05 -4.76913e-06 0.000557648
0.00119666 3.83105e-05 -2.11502e-05
3.83105e-05 0.00027114 2.11717e-06
-2.11502e-05 2.11717e-06 0.000249316
0.00307491 9.75494e-05 1.30749e-05
9.75494e-05 0.00124045 -1.34024e-06
1.30749e-05 -1.34024e-06 0.00123226
0.00190179 6.15745e-05 -1.34475e-06
6.15745e-05 0.000203633 -6.16214e-07
-1.34475e-06 -6.16214e-07 0.000100631
0.00156756 8.45319e-05 -7.36335e-07
8.45319e-05 0.000122121 -1.94145e-06
-7.36335e-07 -1.94145e-06 2.59611e-05
0.00164538 9.00216e-05 -2.2171e-06
9.00216e-05 0.000125034 1.36657e-06
-2.2171e-06 1.36657e-06 2.70256e-05
0.00151414 9.03295e-05 -1.09291e-06
9.03295e-05 0.0002245 1.84591e-07
-1.09291e-06 1.84591e-07 0.000134125
0.00131063 9.16478e-05 4.94713e-07
9.16478e-05 8.00096e-05 -1.19495e-06
4.94713e-07 -1.19495e-06 -1.44032e-05
0.00131266 9.07354e-05 2.91749e-06
9.07354e-05 4.36878e-05 9.16716e-07
2.91749e-06 9.16716e-07 -3.8209e-05
0.0010075 5.96964e-05 -3.39281e-06
5.96964e-05 5.94036e-05 -1.43513e-06
-3.39281e-06 -1.43513e-06 -1.48192e-05
0.00113909 8.18579e-05 -1.04979e-07
8.18579e-05 8.30652e-05 -8.92924e-08
-1.04979e-07 -8.92924e-08 -7.54806e-06
0.00145981 0.000102518 1.59475e-06
0.000102518 0.000206363 5.61289e-07
1.59475e-06 5.61289e-07 0.000104861
0.00101909 7.27106e-05 1.1343e-06
7.27106e-05 5.85604e-05 -7.69683e-08
1.1343e-06 -7.69683e-08 -2.72774e-05
0.000913226 4.4945e-05 -1.267e-07
4.4945e-05 3.86399e-05 -1.28296e-07
-1.267e-07 -1.28296e-07 -3.04525e-05
0.000791421 1.11723e-05 -6.36573e-06
1.11723e-05 1.43482e-05 -3.52054e-06
-6.36573e-06 -3.52054e-06 -2.61316e-05
0.000785129 2.23718e-05 2.07585e-06
2.23718e-05 -1.39012e-05 6.145e-07
2.07585e-06 6.145e-07 -8.00095e-05
0.000704716 -1.84115e-05 -1.56193e-08
-1.84115e-05 -2.70641e-05 -5.1683e-08
-1.56193e-08 -5.1683e-08 -6.30927e-05
0.0028949 -7.69016e-05 -3.90566e-05
-7.69016e-05 0.00113148 -2.94434e-06
-3.90566e-05 -2.94434e-06 0.00112982
0.000613427 -5.18377e-05 2.62601e-06
-5.18377e-05 -7.59434e-05 3.81442e-06
2.62601e-06 3.81442e-06 -0.000108073
0.00276502 -7.19748e-05 -5.55776e-07
-7.19748e-05 0.00104522 1.24202e-07
-5.55776e-07 1.24202e-07 0.00104846
0.00267523 -6.57507e-05 3.07851e-05
-6.57507e-05 0.000986773 3.06932e-06
3.07851e-05 3.06932e-06 0.000993857
0.00178171 1.65148e-06 3.64387e-07
1.65148e-06 9.11303e-05 6.39942e-07
3.64387e-07 6.39942e-07 -1.75439e-06
0.00176394 -9.52612e-06 -1.43215e-07
-9.52612e-06 7.37318e-05 8.77598e-07
-1.43215e-07 8.77598e-07 -1.68812e-05
0.0018112 -1.54416e-05 -2.76655e-06
-1.54416e-05 9.60881e-05 -1.9818e-06
-2.76655e-06 -1.9818e-06 2.01586e-05
0.00171953 5.00529e-05 9.05604e-07
5.00529e-05 6.8627e-05 -1.19796e-07
9.05604e-07 -1.19796e-07 -3.21533e-05
0.00173059 9.97983e-05 1.20936e-06
9.97983e-05 0.000165895 -2.51174e-07
1.20936e-06 -2.51174e-07 6.19096e-05
0.00191805 5.01692e-05 -2.80285e-07
5.01692e-05 0.000147163 -1.89289e-06
-2.80285e-07 -1.89289e-06 4.35061e-05
0.00169258 2.27193e-06 7.062e-07
2.27193e-06 7.98566e-05 5.05714e-07
7.062e-07 5.05714e-07 -1.78455e-05
0.00168973 2.46291e-06 3.91006e-07
2.46291e-06 8.08936e-05 -4.61096e-07
3.91006e-07 -4.61096e-07 -1.07474e-05
0.00159514 5.69592e-07 -1.81633e-06
5.69592e-07 2.73157e-05 -4.4621e-07
-1.81633e-06 -4.4621e-07 -5.53862e-05
0.00165643 1.69093e-05 -7.44162e-07
1.69093e-05 8.61016e-05 -3.32697e-07
-7.44162e-07 -3.32697e-07 -1.16705e-05
0.00172217 1.41997e-05 1.30539e-06
1.41997e-05 0.000131278 -1.27681e-07
1.30539e-06 -1.27681e-07 3.00829e-05
0.00170328 2.47522e-05 -6.76095e-07
2.47522e-05 0.000107689 1.00832e-06
-6.76095e-07 1.00832e-06 1.41871e-05
0.00168863 1.98507e-05 4.36775e-07
1.98507e-05 0.000116752 -7.61252e-08
4.36775e-07 -7.61252e-08 1.91898e-05
0.00152763 1.37996e-05 -9.09146e-08
1.37996e-05 5.77771e-05 -6.19323e-07
-9.09146e-08 -6.19323e-07 -3.99649e-05
0.00163236 4.97787e-06 5.49753e-07
4.97787e-06 8.08951e-05 1.37064e-06
5.49753e-07 1.37064e-06 -1.48755e-05
0.00156713 -2.40258e-06 -8.5157e-07
-2.40258e-06 7.67374e-05 1.95095e-07
-8.5157e-07 1.95095e-07 -1.84025e-05
0.0014671 -1.08109e-05 -4.06196e-06
-1.08109e-05 7.0874e-05 -2.02206e-07
-4.06196e-06 -2.02206e-07 -2.05788e-05
0.00153689 -3.4013e-05 2.0073e-06
-3.4013e-05 7.28694e-05 8.7283e-07
2.0073e-06 8.7283e-07 -2.1954e-05
0.00142099 -4.04539e-05 1.0037e-07
-4.04539e-05 6.13872e-05 1.86791e-07
1.0037e-07 1.86791e-07 -2.98597e-05
0.00117532 -3.38211e-05 -6.49635e-06
-3.38211e-05 1.21013e-05 1.25021e-06
-6.49635e-06 1.25021e-06 -6.62541e-05
0.00135791 -5.78018e-05 3.21777e-06
-5.78018e-05 6.2445e-05 -3.20124e-07
3.21777e-06 -3.20124e-07 -2.8448e-05
0.00113936 -4.51415e-05 2.82537e-07
-4.51415e-05 1.79948e-05 1.67411e-07
2.82537e-07 1.67411e-07 -5.96699e-05
0.00197255 -4.62063e-06 -9.24701e-06
-4.62063e-06 0.000584416 2.27708e-06
-9.24701e-06 2.27708e-06 0.000544273
0.00108413 -4.93539e-05 5.24453e-06
-4.93539e-05 1.97984e-05 -1.89869e-06
5.24453e-06 -1.89869e-06 -5.51454e-05
0.00198777 -1.77262e-05 1.27837e-05
-1.77262e-05 0.000606504 -8.46373e-07
1.27837e-05 -8.46373e-07 0.000566575
0.00132332 6.96804e-06 -5.75426e-05
6.96804e-06 0.000335974 5.47706e-06
-5.75426e-05 5.47706e-06 0.000314277
0.0020415 -2.7221e-05 3.24436e-05
-2.7221e-05 0.000640792 -4.74444e-06
3.24436e-05 -4.74444e-06 0.000601984
0.00125589 3.50521e-05 -2.40289e-05
3.50521e-05 0.000308717 1.90206e-06
-2.40289e-05 1.90206e-06 0.000284754
0.00121135 5.79109e-05 6.96077e-06
5.79109e-05 0.000284562 -2.08754e-06
6.96077e-06 -2.08754e-06 0.000260096
0.00160564 1.63653e-05 -4.15408e-07
1.63653e-05 2.68969e-05 1.24043e-06
-4.15408e-07 1.24043e-06 -6.79832e-05
0.0016086 6.26614e-05 -2.21728e-06
6.26614e-05 9.36699e-05 -3.48904e-07
-2.21728e-06 -3.48904e-07 -6.28718e-06
0.00175939 5.96394e-05 -1.52403e-06
5.96394e-05 0.000129218 -1.04275e-06
-1.52403e-06 -1.04275e-06 2.58143e-05
0.00150792 8.18789e-05 -2.39542e-06
8.18789e-05 0.000153176 -6.21263e-07
-2.39542e-06 -6.21263e-07 6.19459e-05
0.00167018 8.7312e-05 9.71746e-07
8.7312e-05 0.000178546 7.1941e-07
9.71746e-07 7.1941e-07 8.28584e-05
0.00168019 9.2239e-05 3.87546e-06
9.2239e-05 0.00015326 2.42487e-06
3.87546e-06 2.42487e-06 5.62724e-05
0.000966751 6.21139e-05 -4.28972e-06
6.21139e-05 -3.34091e-06 -1.42338e-06
-4.28972e-06 -1.42338e-06 -8.03718e-05
0.00119249 8.25278e-05 1.29268e-06
8.25278e-05 5.85651e-05 7.55898e-07
1.29268e-06 7.55898e-07 -3.29298e-05
0.00114745 8.88229e-05 1.04281e-06
8.88229e-05 -4.99906e-06 7.34427e-07
1.04281e-06 7.34427e-07 -9.88739e-05
0.000799076 3.3712e-05 -7.84377e-06
3.3712e-05 1.41399e-05 -4.2447e-06
-7.84377e-06 -4.2447e-06 -3.14081e-05
0.000961147 5.69752e-05 -2.68596e-07
5.69752e-05 3.59413e-05 -1.88146e-07
-2.68596e-07 -1.88146e-07 -3.79171e-05
0.00113997 8.21655e-05 1.71908e-06
8.21655e-05 8.38654e-05 5.26973e-07
1.71908e-06 5.26973e-07 -6.92939e-06
0.000856953 4.20104e-05 2.5359e-06
4.20104e-05 1.06698e-05 5.9195e-07
2.5359e-06 5.9195e-07 -5.81754e-05
0.000719891 7.29173e-06 -2.02995e-08
7.29173e-06 -1.64792e-05 -2.61557e-08
-2.02995e-08 -2.61557e-08 -5.73471e-05
0.00312874 -7.03558e-05 -4.87886e-05
-7.03558e-05 0.00126925 -3.04567e-06
-4.87886e-05 -3.04567e-06 0.00126404
0.000657581 -3.10128e-05 3.28141e-06
-3.10128e-05 -4.65249e-05 3.64816e-06
3.28141e-06 3.64816e-06 -8.33889e-05
0.00287959 -7.89277e-05 -8.45667e-07
-7.89277e-05 0.00112041 1.59563e-07
-8.45667e-07 1.59563e-07 0.00111928
0.00279395 -7.27899e-05 3.29325e-05
-7.27899e-05 0.0010574 2.99251e-06
3.29325e-05 2.99251e-06 0.00106121
0.00177109 -6.79799e-06 -8.56432e-08
-6.79799e-06 0.000101261 -6.21858e-07
-8.56432e-08 -6.21858e-07 7.9372e-06
0.00180984 1.02106e-06 -2.70111e-07
1.02106e-06 0.000105483 1.97628e-07
-2.70111e-07 1.97628e-07 1.23078e-05
0.00178492 -7.86889e-06 -2.21925e-06
-7.86889e-06 7.76556e-05 -1.54637e-06
-2.21925e-06 -1.54637e-06 -1.44022e-05
0.00181261 5.11417e-05 4.15503e-07
5.11417e-05 0.000111096 -1.13765e-06
4.15503e-07 -1.13765e-06 1.1541e-05
0.00177545 -3.12715e-06 5.04064e-07
-3.12715e-06 0.000127024 -9.69666e-07
5.04064e-07 -9.69666e-07 2.63372e-05
0.00177658 2.06609e-06 -2.43707e-07
2.06609e-06 0.000121712 -2.55203e-07
-2.43707e-07 -2.55203e-07 2.43239e-05
0.00166121 6.10339e-06 -2.01642e-06
6.10339e-06 6.74954e-05 -6.88071e-09
-2.01642e-06 -6.88071e-09 -2.5055e-05
0.00167819 1.16856e-05 -2.44722e-06
1.16856e-05 9.67091e-05 -7.77924e-07
-2.44722e-06 -7.77924e-07 2.01153e-07
0.00167248 1.9112e-05 -5.2726e-08
1.9112e-05 0.000103692 -5.43071e-07
-5.2726e-08 -5.43071e-07 2.38782e-06
0.00170019 1.52543e-05 -4.28109e-07
1.52543e-05 0.000135417 5.64282e-07
-4.28109e-07 5.64282e-07 3.45636e-05
0.00174388 2.02886e-05 4.69207e-07
2.02886e-05 0.000145026 7.10025e-07
4.69207e-07 7.10025e-07 4.74652e-05
0.00162943 1.5006e-05 5.41998e-07
1.5006e-05 0.000110541 -1.24485e-07
5.41998e-07 -1.24485e-07 1.33674e-05
0.00131524 1.09382e-05 -2.73479e-06
1.09382e-05 -1.26609e-05 1.22429e-08
-2.73479e-06 1.22429e-08 -0.000106742
0.0015405 -1.74976e-06 7.65193e-07
-1.74976e-06 6.42737e-05 1.11093e-06
7.65193e-07 1.11093e-06 -3.09635e-05
0.00144766 -8.44944e-06 -4.95782e-07
-8.44944e-06 6.11992e-05 1.02824e-07
-4.95782e-07 1.02824e-07 -3.02002e-05
0.0011829 -1.26276e-05 -6.52214e-06
-1.26276e-05 3.19968e-06 5.76975e-07
-6.52214e-06 5.76975e-07 -7.50821e-05
0.00141129 -3.72782e-05 3.37357e-06
-3.72782e-05 5.65219e-05 3.61407e-07
3.37357e-06 3.61407e-07 -3.46592e-05
0.00118109 -3.44437e-05 1.16328e-07
-3.44437e-05 1.41478e-05 2.64962e-07
1.16328e-07 2.64962e-07 -6.4153e-05
0.000682973 -1.9556e-05 -9.96853e-06
-1.9556e-05 -0.000102128 2.67967e-06
-9.96853e-06 2.67967e-06 -0.000147533
0.00114271 -4.42544e-05 6.10044e-06
-4.42544e-05 1.82953e-05 -1.57873e-06
6.10044e-06 -1.57873e-06 -5.93102e-05
0.00139232 -3.00401e-05 1.46111e-05
-3.00401e-05 0.0002784 -5.13659e-07
1.46111e-05 -5.13659e-07 0.0002364
0.00417461 5.34499e-05 -6.42902e-05
5.34499e-05 0.00180863 2.22306e-06
-6.42902e-05 2.22306e-06 0.00179954
0.00214351 -3.079e-05 3.54802e-05
-3.079e-05 0.000680422 -4.45097e-06
3.54802e-05 -4.45097e-06 0.000641522
0.00132343 3.42717e-05 -2.69233e-05
3.42717e-05 0.00034263 1.65441e-06
-2.69233e-05 1.65441e-06 0.000317803
0.00128325 6.20504e-05 5.5988e-06
6.20504e-05 0.000330203 -2.22013e-06
5.5988e-06 -2.22013e-06 0.000302729
0.00171681 3.11001e-06 6.51379e-07
3.11001e-06 8.93706e-05 2.03023e-07
6.51379e-07 2.03023e-07 -2.36587e-06
0.00144041 2.65816e-05 -9.54411e-07
2.65816e-05 -7.94658e-06 8.92918e-07
-9.54411e-07 8.92918e-07 -0.000104259
0.00170732 1.6289e-05 -4.92269e-08
1.6289e-05 8.10649e-05 -3.74435e-08
-4.92269e-08 -3.74435e-08 -1.35361e-05
0.00113722 5.85348e-05 -3.30232e-06
5.85348e-05 -8.98217e-05 -9.94295e-07
-3.30232e-06 -9.94295e-07 -0.000184357
0.00162366 6.28609e-05 9.64887e-08
6.28609e-05 0.000104293 -5.91153e-08
9.64887e-08 -5.91153e-08 4.99116e-06
0.00162089 5.79007e-05 -5.08052e-08
5.79007e-05 5.71017e-05 -1.103e-06
-5.08052e-08 -1.103e-06 -4.67685e-05
0.000672319 5.10462e-05 -6.53656e-06
5.10462e-05 -0.000205445 -2.13175e-06
-6.53656e-06 -2.13175e-06 -0.000285179
0.00150677 8.29519e-05 7.50616e-07
8.29519e-05 0.000152151 5.86413e-09
7.50616e-07 5.86413e-09 6.07542e-05
0.00176507 9.00714e-05 2.6384e-06
9.00714e-05 0.000231766 1.5205e-06
2.6384e-06 1.5205e-06 0.000136445
0.000769667 5.04161e-05 -9.64397e-06
5.04161e-05 -1.54705e-05 -4.44473e-06
-9.64397e-06 -4.44473e-06 -6.39337e-05
0.000786601 5.69304e-05 -1.61405e-07
5.69304e-05 -9.80627e-05 1.06592e-07
-1.61405e-07 1.06592e-07 -0.000176043
0.000871193 7.47646e-05 3.27639e-06
7.47646e-05 -0.000107225 1.42358e-06
3.27639e-06 1.42358e-06 -0.000199837
0.00352079 -6.32401e-05 -5.66528e-05
-6.32401e-05 0.00148183 -3.52808e-06
-5.66528e-05 -3.52808e-06 0.00147304
0.00070264 2.84996e-05 -8.52972e-08
2.84996e-05 -2.94255e-05 -1.38024e-08
-8.52972e-08 -1.38024e-08 -7.50981e-05
0.000926306 5.45719e-05 3.05294e-06
5.45719e-05 1.8459e-05 1.24425e-06
3.05294e-06 1.24425e-06 -5.50784e-05
0.000645012 4.2343e-06 5.42716e-06
4.2343e-06 -4.91147e-05 3.61798e-06
5.42716e-06 3.61798e-06 -9.02824e-05
0.00306283 -8.54562e-05 -2.03154e-06
-8.54562e-05 0.0012334 2.09503e-07
-2.03154e-06 2.09503e-07 0.00122762
0.00286574 -7.93133e-05 3.47446e-05
-7.93133e-05 0.00110942 2.91172e-06
3.47446e-05 2.91172e-06 0.00110912
0.00173656 -9.34531e-06 -5.12211e-07
-9.34531e-06 9.56322e-05 -7.31062e-07
-5.12211e-07 -7.31062e-07 5.81272e-07
0.00177455 -6.93762e-06 -3.9816e-07
-6.93762e-06 0.000101522 -1.79427e-08
-3.9816e-07 -1.79427e-08 8.10714e-06
0.00183443 4.77485e-07 -8.47614e-07
4.77485e-07 0.000118176 -1.31778e-06
-8.47614e-07 -1.31778e-06 2.4697e-05
0.0018069 1.02194e-05 -5.01514e-07
1.02194e-05 0.000154721 -2.252e-07
-5.01514e-07 -2.252e-07 5.09268e-05
0.00172324 8.84276e-07 -5.27217e-07
8.84276e-07 0.00010007 -4.88221e-07
-5.27217e-07 -4.88221e-07 -1.31592e-06
0.00185937 -9.39298e-07 -2.2124e-06
-9.39298e-07 0.00016278 2.03633e-07
-2.2124e-06 2.03633e-07 6.58031e-05
0.00160862 2.26295e-05 -9.67437e-07
2.26295e-05 6.89458e-05 -8.97615e-07
-9.67437e-07 -8.97615e-07 -3.23936e-05
0.00168256 1.74193e-05 5.00621e-07
1.74193e-05 0.000126154 -5.69722e-08
5.00621e-07 -5.69722e-08 2.52913e-05
0.00167751 1.21051e-05 -2.08115e-06
1.21051e-05 0.000153601 7.71693e-07
-2.08115e-06 7.71693e-07 5.80096e-05
0.0017356 1.62469e-05 1.72646e-06
1.62469e-05 0.000165438 2.99656e-07
1.72646e-06 2.99656e-07 6.88386e-05
0.00154281 1.37655e-05 -2.94684e-08
1.37655e-05 0.00010566 5.83655e-08
-2.94684e-08 5.83655e-08 1.30645e-05
0.000881036 5.84676e-06 -7.35743e-06
5.84676e-06 -0.000165491 1.06275e-06
-7.35743e-06 1.06275e-06 -0.000248211
0.00142382 -8.57757e-06 2.65102e-06
-8.57757e-06 4.93587e-05 4.24607e-07
2.65102e-06 4.24607e-07 -4.20688e-05
0.00118978 -1.03539e-05 -6.54727e-08
-1.03539e-05 6.04521e-06 -5.55834e-08
-6.54727e-08 -5.55834e-08 -7.20949e-05
0.000710381 -9.36719e-06 -1.01184e-05
-9.36719e-06 -9.62676e-05 1.68579e-06
-1.01184e-05 1.68579e-06 -0.000142047
0.00118026 -3.33517e-05 6.70673e-06
-3.33517e-05 1.28758e-05 -8.12977e-07
6.70673e-06 -8.12977e-07 -6.53103e-05
0.000691773 -1.67827e-05 -2.91359e-08
-1.67827e-05 -9.7479e-05 1.79826e-07
-2.91359e-08 1.79826e-07 -0.000142941
0.00423865 4.65519e-05 -6.6772e-05
4.65519e-05 0.0018348 1.53626e-06
-6.6772e-05 1.53626e-06 0.00182681
0.000791422 -3.43106e-05 1.22088e-05
-3.43106e-05 -3.54347e-05 -4.35082e-06
1.22088e-05 -4.35082e-06 -8.19217e-05
0.00284679 5.24731e-05 2.41904e-05
5.24731e-05 0.0011213 8.31218e-07
2.41904e-05 8.31218e-07 0.0011036
0.00134378 5.66642e-05 5.88704e-06
5.66642e-05 0.000359294 -2.0652e-06
5.88704e-06 -2.0652e-06 0.000331728
0.00182552 -6.38407e-06 2.82991e-07
-6.38407e-06 0.000157005 -1.30928e-08
2.82991e-07 -1.30928e-08 6.53524e-05
0.00159271 9.41345e-06 -2.83611e-07
9.41345e-06 6.39543e-05 2.80489e-07
-2.83611e-07 2.80489e-07 -2.87002e-05
0.00166183 2.50432e-06 2.76603e-07
2.50432e-06 6.16984e-05 2.1265e-07
2.76603e-07 2.1265e-07 -2.95884e-05
0.00141369 3.54568e-05 -2.60306e-06
3.54568e-05 3.21152e-05 -4.51013e-08
-2.60306e-06 -4.51013e-08 -5.95722e-05
0.00151311 2.67129e-05 4.19025e-07
2.67129e-05 2.82033e-05 -1.22499e-07
4.19025e-07 -1.22499e-07 -6.75907e-05
0.0018105 1.60887e-05 2.32434e-07
1.60887e-05 0.000135743 -1.00237e-06
2.32434e-07 -1.00237e-06 4.14537e-05
0.000776597 4.41597e-05 -7.22554e-06
4.41597e-05 -0.000193967 -2.1175e-06
-7.22554e-06 -2.1175e-06 -0.000274717
0.00151743 6.6524e-05 -1.10485e-06
6.6524e-05 0.000106255 -3.32164e-07
-1.10485e-06 -3.32164e-07 1.31256e-05
0.0016671 6.35155e-05 2.56749e-06
6.35155e-05 0.000128589 -3.36753e-07
2.56749e-06 -3.36753e-07 3.00077e-05
0.000730648 5.21705e-05 -1.06451e-05
5.21705e-05 -5.59206e-05 -4.15738e-06
-1.06451e-05 -4.15738e-06 -0.000104296
0.000723805 5.26965e-05 -1.74747e-06
5.26965e-05 -0.00018278 -6.52627e-07
-1.74747e-06 -6.52627e-07 -0.00026306
0.00150781 8.40902e-05 3.72736e-06
8.40902e-05 0.000152219 8.48721e-07
3.72736e-06 8.48721e-07 6.06536e-05
0.00394791 -6.73367e-05 -6.09263e-05
-6.73367e-05 0.00170322 -3.58069e-06
-6.09263e-05 -3.58069e-06 0.00169161
0.000694199 4.44075e-05 5.18036e-08
4.44075e-05 -5.0272e-05 1.79443e-07
5.18036e-08 1.79443e-07 -9.8704e-05
0.000602375 5.15968e-05 4.15448e-06
5.15968e-05 -0.000194702 1.85942e-06
4.15448e-06 1.85942e-06 -0.000273643
0.00335746 -7.93584e-05 -2.73844e-06
-7.93584e-05 0.00139834 1.67047e-07
-2.73844e-06 1.67047e-07 0.00138935
0.000614762 2.35239e-05 6.28061e-06
2.35239e-05 -6.91691e-05 4.1051e-06
6.28061e-06 4.1051e-06 -0.000114937
0.00296672 -8.63524e-05 3.63772e-05
-8.63524e-05 0.00118107 2.79263e-06
3.63772e-05 2.79263e-06 0.00117597
0.00178069 3.04366e-06 -2.25942e-07
3.04366e-06 0.000140094 -8.05476e-07
-2.25942e-07 -8.05476e-07 4.19974e-05
0.00175253 -8.35809e-06 1.2876e-07
-8.35809e-06 0.00010489 6.28744e-07
1.2876e-07 6.28744e-07 9.83445e-06
0.00177405 -6.94022e-06 -7.15102e-07
-6.94022e-06 9.97186e-05 1.53321e-07
-7.15102e-07 1.53321e-07 6.22473e-06
0.00173362 -1.09427e-06 -2.70012e-06
-1.09427e-06 0.000152135 -1.06669e-07
-2.70012e-06 -1.06669e-07 5.3489e-05
0.00177691 9.86815e-06 5.71355e-07
9.86815e-06 0.000142842 -1.66492e-08
5.71355e-07 -1.66492e-08 3.93407e-05
0.00167326 7.24012e-06 -4.81596e-08
7.24012e-06 7.44542e-05 -2.64939e-07
-4.81596e-08 -2.64939e-07 -2.77513e-05
0.00167222 1.82937e-05 9.81622e-07
1.82937e-05 0.000120539 -5.81306e-07
9.81622e-07 -5.81306e-07 1.96928e-05
0.00167541 1.2362e-05 7.75133e-07
1.2362e-05 0.000152633 -8.53767e-08
7.75133e-07 -8.53767e-08 5.70969e-05
0.000941213 5.43708e-06 -7.20306e-06
5.43708e-06 -0.00015942 1.32679e-06
-7.20306e-06 1.32679e-06 -0.000246149
0.00178043 1.65994e-05 3.32227e-06
1.65994e-05 0.000228991 -1.0565e-07
3.32227e-06 -1.0565e-07 0.000137892
0.00103927 8.17212e-06 -1.42146e-06
8.17212e-06 -8.16315e-05 3.2985e-07
-1.42146e-06 3.2985e-07 -0.000162898
0.000723934 -1.45868e-06 -1.04312e-05
-1.45868e-06 -9.75456e-05 1.31258e-06
-1.04312e-05 1.31258e-06 -0.000146244
0.00120029 -1.00074e-05 6.38724e-06
-1.00074e-05 1.05487e-05 -7.9861e-07
6.38724e-06 -7.9861e-07 -6.7479e-05
0.00071179 -9.51853e-07 2.39779e-07
-9.51853e-07 -9.53417e-05 -3.63088e-08
2.39779e-07 -3.63088e-08 -0.00014139
0.00433974 4.58951e-05 -7.01663e-05
4.58951e-05 0.00188144 8.45809e-07
-7.01663e-05 8.45809e-07 0.00187398
0.000693849 -1.20581e-05 9.78713e-06
-1.20581e-05 -9.63207e-05 -2.29386e-06
9.78713e-06 -2.29386e-06 -0.000141612
0.00429244 5.24612e-05 -2.23374e-07
5.24612e-05 0.00186161 2.19389e-07
-2.23374e-07 2.19389e-07 0.00185342
0.0015717 3.98933e-06 6.15534e-05
3.98933e-06 0.00045576 -2.62967e-06
6.15534e-05 -2.62967e-06 0.000434379
0.0018071 -7.96462e-07 -7.33237e-08
-7.96462e-07 0.000171612 -3.53454e-07
-7.33237e-08 -3.53454e-07 7.90467e-05
0.00172507 -6.85619e-06 5.10439e-07
-6.85619e-06 0.000105363 3.98267e-07
5.10439e-07 3.98267e-07 1.45762e-05
0.00145921 9.66038e-06 -2.19801e-06
9.66038e-06 4.11726e-05 -3.77504e-07
-2.19801e-06 -3.77504e-07 -4.98703e-05
0.00162111 8.96195e-06 3.34129e-07
8.96195e-06 7.72609e-05 -9.79106e-08
3.34129e-07 -9.79106e-08 -1.54504e-05
0.00160314 1.87865e-06 1.0207e-06
1.87865e-06 3.22045e-05 -1.28904e-07
1.0207e-06 -1.28904e-07 -5.86349e-05
0.0012048 3.15453e-05 -6.40117e-06
3.15453e-05 5.14955e-06 -1.401e-06
-6.40117e-06 -1.401e-06 -7.37903e-05
0.00145613 3.61109e-05 -4.56457e-08
3.61109e-05 5.19492e-05 1.2457e-07
-4.56457e-08 1.2457e-07 -3.97339e-05
0.0015776 2.67559e-05 1.06801e-06
2.67559e-05 6.0392e-05 -5.66787e-07
1.06801e-06 -5.66787e-07 -3.49067e-05
0.000720533 4.20419e-05 -1.11074e-05
4.20419e-05 -8.07534e-05 -3.59121e-06
-1.11074e-05 -3.59121e-06 -0.000127745
0.000988265 4.88243e-05 -2.08733e-06
4.88243e-05 -8.47202e-05 -5.04154e-07
-2.08733e-06 -5.04154e-07 -0.000164882
0.00189406 7.43483e-05 2.76843e-06
7.43483e-05 0.000300594 2.84644e-07
2.76843e-06 2.84644e-07 0.000208873
0.00425637 -7.24824e-05 -6.3617e-05
-7.24824e-05 0.0018561 -3.26149e-06
-6.3617e-05 -3.26149e-06 0.00184375
0.000689886 4.86499e-05 2.26826e-07
4.86499e-05 -7.51045e-05 1.60827e-07
2.26826e-07 1.60827e-07 -0.000123429
0.000766291 5.42867e-05 3.94076e-06
5.42867e-05 -0.0001645 1.17992e-06
3.94076e-06 1.17992e-06 -0.000245349
0.00375321 -7.39738e-05 -2.41867e-06
-7.39738e-05 0.00160478 2.75165e-07
-2.41867e-06 2.75165e-07 0.00159348
0.000614254 3.93502e-05 7.88571e-06
3.93502e-05 -8.77864e-05 4.57941e-06
7.88571e-06 4.57941e-06 -0.000136071
0.00319107 -9.34547e-05 4.00026e-05
-9.34547e-05 0.00131322 2.70414e-06
4.00026e-05 2.70414e-06 0.00130373
0.00174105 8.04112e-06 -1.74645e-06
8.04112e-06 0.000161782 -9.65443e-07
-1.74645e-06 -9.65443e-07 6.71492e-05
0.00178586 7.3544e-07 3.51072e-07
7.3544e-07 0.00014527 3.4437e-07
3.51072e-07 3.4437e-07 4.74369e-05
0.00177429 -7.88282e-06 1.13652e-06
-7.88282e-06 0.00011707 1.80229e-06
1.13652e-06 1.80229e-06 2.20056e-05
0.000974782 -1.23693e-05 -7.90359e-06
-1.23693e-05 -0.000161983 2.91666e-07
-7.90359e-06 2.91666e-07 -0.000250998
0.00175382 5.75094e-06 8.14922e-07
5.75094e-06 0.000163548 1.16475e-07
8.14922e-07 1.16475e-07 6.46462e-05
0.00174143 9.83134e-06 1.48573e-06
9.83134e-06 0.000128187 -2.59178e-07
1.48573e-06 -2.59178e-07 2.49886e-05
0.00167501 1.23084e-05 3.47914e-06
1.23084e-05 0.00015255 -5.33133e-07
3.47914e-06 -5.33133e-07 5.70642e-05
0.000922819 4.91882e-06 -1.04352e-06
4.91882e-06 -0.000165488 3.48535e-07
-1.04352e-06 3.48535e-07 -0.000251645
0.000739405 5.94325e-06 -1.09306e-05
5.94325e-06 -0.000104948 8.75e-07
-1.09306e-05 8.75e-07 -0.00015692
0.00118825 1.1287e-05 4.89238e-06
1.1287e-05 -2.52179e-06 -6.2936e-07
4.89238e-06 -6.2936e-07 -8.23281e-05
0.000740719 7.91968e-06 3.08152e-07
7.91968e-06 -8.99264e-05 -3.81608e-08
3.08152e-07 -3.81608e-08 -0.000138704
0.00446066 4.51605e-05 -7.31748e-05
4.51605e-05 0.00193894 1.89216e-07
-7.31748e-05 1.89216e-07 0.00193158
0.000714897 7.98823e-06 9.87019e-06
7.98823e-06 -9.3793e-05 -1.57447e-06
9.87019e-06 -1.57447e-06 -0.000139855
0.0043842 5.2658e-05 1.12103e-06
5.2658e-05 0.00190336 2.14075e-07
1.12103e-06 2.14075e-07 0.00189574
0.00436669 5.55879e-05 7.13621e-05
5.55879e-05 0.00189802 -1.06447e-06
7.13621e-05 -1.06447e-06 0.00188992
0.00154053 1.44943e-06 -2.29027e-06
1.44943e-06 7.28698e-05 -9.5338e-07
-2.29027e-06 -9.5338e-07 -1.95724e-05
0.00169649 -1.94023e-06 3.62747e-07
-1.94023e-06 0.000112965 7.29866e-08
3.62747e-07 7.29866e-08 2.06021e-05
0.00161575 -7.15147e-06 1.97905e-07
-7.15147e-06 4.92853e-05 7.70438e-07
1.97905e-07 7.70438e-07 -4.06335e-05
0.00122362 7.53374e-06 -6.24795e-06
7.53374e-06 -2.86766e-07 -1.41442e-06
-6.24795e-06 -1.41442e-06 -8.0021e-05
0.00148821 9.68385e-06 1.37711e-07
9.68385e-06 5.501e-05 -5.92829e-08
1.37711e-07 -5.92829e-08 -3.60911e-05
0.00164793 8.51503e-06 5.24902e-07
8.51503e-06 8.97955e-05 -4.669e-07
5.24902e-07 -4.669e-07 -2.97496e-06
0.000726683 2.49181e-05 -1.09605e-05
2.49181e-05 -9.25795e-05 -3.01364e-06
-1.09605e-05 -3.01364e-06 -0.000139318
0.00121122 3.2063e-05 -8.96527e-08
3.2063e-05 8.89651e-06 1.47907e-07
-8.96527e-08 1.47907e-07 -7.02113e-05
0.00149962 3.67575e-05 2.93299e-06
3.67575e-05 7.22914e-05 3.54751e-07
2.93299e-06 3.54751e-07 -1.93897e-05
0.00441315 -3.90558e-05 -7.32827e-05
-3.90558e-05 0.00192217 -2.43713e-06
-7.32827e-05 -2.43713e-06 0.00191415
0.000696346 4.02571e-05 2.04605e-08
4.02571e-05 -9.1815e-05 1.15835e-07
2.04605e-08 1.15835e-07 -0.000138954
0.00120358 5.37869e-05 4.602e-06
5.37869e-05 2.63982e-05 1.27385e-06
4.602e-06 1.27385e-06 -5.31992e-05
0.00408417 -5.4859e-05 2.18428e-06
-5.4859e-05 0.00176729 1.25722e-07
2.18428e-06 1.25722e-07 0.00175688
0.000639561 4.41051e-05 9.35346e-06
4.41051e-05 -9.89995e-05 4.24972e-06
9.35346e-06 4.24972e-06 -0.000147351
0.00355236 -8.73594e-05 4.7913e-05
-8.73594e-05 0.00150469 3.10162e-06
4.7913e-05 3.10162e-06 0.00149291
0.00130268 8.71733e-07 -6.64859e-06
8.71733e-07 1.17057e-05 -7.92332e-07
-6.64859e-06 -7.92332e-07 -7.34746e-05
0.00158701 2.81105e-06 9.58719e-07
2.81105e-06 8.05313e-05 -1.7218e-07
9.58719e-07 -1.7218e-07 -1.56604e-05
0.00178881 -2.76912e-06 1.08836e-06
-2.76912e-06 0.000149203 1.73326e-06
1.08836e-06 1.73326e-06 5.16359e-05
0.000755058 1.19206e-05 -1.15767e-05
1.19206e-05 -0.000110394 -1.23577e-07
-1.15767e-05 -1.23577e-07 -0.000163562
0.000958566 -5.01431e-06 -1.30906e-06
-5.01431e-06 -0.000168843 3.54547e-07
-1.30906e-06 3.54547e-07 -0.000257638
0.00177426 1.23281e-05 4.22953e-06
1.23281e-05 0.000175097 -3.05218e-07
4.22953e-06 -3.05218e-07 7.59372e-05
0.000903454 4.85296e-06 4.72939e-06
4.85296e-06 -0.000172109 -3.63978e-07
4.72939e-06 -3.63978e-07 -0.000257681
0.000756134 8.8954e-06 2.22019e-07
8.8954e-06 -9.727e-05 2.36708e-07
2.22019e-07 2.36708e-07 -0.00014941
0.00469391 4.54285e-05 -7.63488e-05
4.54285e-05 0.00205113 -4.50918e-07
-7.63488e-05 -4.50918e-07 0.00204347
0.000755372 1.6305e-05 1.03213e-05
1.6305e-05 -8.29865e-05 -1.20017e-06
1.03213e-05 -1.20017e-06 -0.000132055
0.00453637 4.79803e-05 1.17871e-06
4.79803e-05 0.00197541 2.62088e-07
1.17871e-06 2.62088e-07 0.00196802
0.0044238 5.33947e-05 7.56425e-05
5.33947e-05 0.00192212 -3.81564e-07
7.56425e-05 -3.81564e-07 0.0019147
0.00126648 -4.30995e-07 -6.52424e-06
-4.30995e-07 6.57455e-06 -1.54121e-06
-6.52424e-06 -1.54121e-06 -7.56818e-05
0.0014675 -3.04257e-08 -3.51802e-08
-3.04257e-08 3.32331e-05 -1.49485e-07
-3.51802e-08 -1.49485e-07 -5.96422e-05
0.00158962 -3.17241e-06 4.18472e-07
-3.17241e-06 5.62584e-05 4.7851e-07
4.18472e-07 4.7851e-07 -3.59116e-05
0.00232677 1.16452e-06 -4.29923e-05
1.16452e-06 0.000723157 -1.78012e-06
-4.29923e-05 -1.78012e-06 0.0006841
0.0012358 8.10869e-06 1.24971e-07
8.10869e-06 6.04868e-06 6.44035e-08
1.24971e-07 6.44035e-08 -7.38756e-05
0.0015213 9.55981e-06 2.61297e-06
9.55981e-06 7.08795e-05 3.11089e-07
2.61297e-06 3.11089e-07 -2.02803e-05
0.00453379 -2.96033e-05 -7.97617e-05
-2.96033e-05 0.00197424 -1.72036e-06
-7.97617e-05 -1.72036e-06 0.00196759
0.000719825 2.58678e-05 -7.61725e-08
2.58678e-05 -9.57835e-05 7.24574e-08
-7.61725e-08 7.24574e-08 -0.000142543
0.00121786 3.23568e-05 6.58601e-06
3.23568e-05 1.27643e-05 1.64991e-06
6.58601e-06 1.64991e-06 -6.65309e-05
0.00431563 -3.51902e-05 2.02326e-06
-3.51902e-05 0.00187479 2.254e-07
2.02326e-06 2.254e-07 0.00186657
0.000672809 3.87646e-05 1.01927e-05
3.87646e-05 -0.000102568 3.68726e-06
1.01927e-05 3.68726e-06 -0.00014979
0.00394479 -5.53608e-05 5.93494e-05
-5.53608e-05 0.00169699 3.01382e-06
5.93494e-05 3.01382e-06 0.00168728
0.000800454 5.81045e-06 -1.4044e-05
5.81045e-06 -8.97698e-05 -1.67155e-06
-1.4044e-05 -1.67155e-06 -0.000143878
0.00112689 -2.0114e-06 2.2387e-07
-2.0114e-06 -7.96848e-05 3.01214e-07
2.2387e-07 3.01214e-07 -0.000165851
0.00142659 -2.38766e-06 3.50605e-06
-2.38766e-06 -4.11171e-06 9.47979e-07
3.50605e-06 9.47979e-07 -0.0001018
0.00491354 -4.20929e-05 -7.68901e-05
-4.20929e-05 0.00216241 -1.31361e-06
-7.68901e-05 -1.31361e-06 0.00215095
0.000773292 8.24769e-06 5.45445e-08
8.24769e-06 -0.00010102 3.12074e-07
5.45445e-08 3.12074e-07 -0.000154762
0.000944495 1.93426e-06 5.1077e-06
1.93426e-06 -0.000174605 2.22684e-07
5.1077e-06 2.22684e-07 -0.000263192
0.000778151 1.61926e-05 1.10146e-05
1.61926e-05 -8.66632e-05 -3.1923e-07
1.10146e-05 -3.1923e-07 -0.000139183
0.00478062 6.84316e-05 3.41556e-06
6.84316e-05 0.00209474 3.76749e-07
3.41556e-06 3.76749e-07 0.00208594
0.00461401 5.9261e-05 8.13443e-05
5.9261e-05 0.00201319 2.46877e-07
8.13443e-05 2.46877e-07 0.00200542
0.00242915 -1.73552e-05 -4.75011e-05
-1.73552e-05 0.000762265 -1.88312e-06
-4.75011e-05 -1.88312e-06 0.000720222
0.00126934 1.10044e-06 -5.59706e-08
1.10044e-06 7.85157e-06 2.39772e-09
-5.59706e-08 2.39772e-09 -7.43828e-05
0.00139459 -1.3286e-06 2.2822e-06
-1.3286e-06 -6.38987e-06 7.22883e-07
2.2822e-06 7.22883e-07 -9.96901e-05
0.00443644 -2.71431e-05 -2.25506e-05
-2.71431e-05 0.0019254 -6.6919e-07
-2.25506e-05 -6.6919e-07 0.00191601
0.000759339 8.185e-06 -1.58744e-07
8.185e-06 -8.67421e-05 8.57876e-08
-1.58744e-07 8.57876e-08 -0.000135068
0.0012515 9.67999e-06 6.42799e-06
9.67999e-06 1.39073e-05 1.48873e-06
6.42799e-06 1.48873e-06 -6.61484e-05
0.00445946 -2.51695e-05 6.74238e-08
-2.51695e-05 0.0019388 2.83581e-07
6.74238e-08 2.83581e-07 0.001932
0.00070869 2.7563e-05 1.09678e-05
2.7563e-05 -0.000100937 3.18579e-06
1.09678e-05 3.18579e-06 -0.000147716
0.00420087 -2.75799e-05 6.86173e-05
-2.75799e-05 0.00181774 2.69324e-06
6.86173e-05 2.69324e-06 0.00180997
0.00172068 -9.49956e-06 -8.08512e-05
-9.49956e-06 0.000496802 -2.36061e-07
-8.08512e-05 -2.36061e-07 0.000472156
0.001639 2.61138e-06 -1.89065e-05
2.61138e-06 0.000346299 4.94419e-07
-1.89065e-05 4.94419e-07 0.00029823
0.000963227 -1.33272e-06 6.52688e-06
-1.33272e-06 -0.000164884 1.38184e-06
6.52688e-06 1.38184e-06 -0.000252032
0.00493339 -2.56733e-05 3.54998e-06
-2.56733e-05 0.00216963 -6.94523e-07
3.54998e-06 -6.94523e-07 0.00215972
0.00077782 6.41654e-06 1.17438e-05
6.41654e-06 -9.88694e-05 7.41204e-07
1.17438e-05 7.41204e-07 -0.0001528
0.00485446 4.81062e-05 8.54355e-05
4.81062e-05 0.00212851 9.37295e-07
8.54355e-05 9.37295e-07 0.00212091
0.00145289 -2.71222e-05 -1.01397e-05
-2.71222e-05 0.000371748 -8.41069e-07
-1.01397e-05 -8.41069e-07 0.000344753
0.00162564 8.87414e-07 -1.79543e-05
8.87414e-07 0.000349201 1.982e-07
-1.79543e-05 1.982e-07 0.000302808
0.00127224 2.83453e-07 6.22517e-06
2.83453e-07 9.24306e-06 1.54113e-06
6.22517e-06 1.54113e-06 -7.30151e-05
0.00299962 -1.72203e-05 3.28364e-05
-1.72203e-05 0.00117671 2.63297e-07
3.28364e-05 2.63297e-07 0.0011608
0.000754114 1.46764e-05 1.13726e-05
1.46764e-05 -8.9733e-05 2.77546e-06
1.13726e-05 2.77546e-06 -0.000138196
0.00440101 -1.83863e-05 7.46148e-05
-1.83863e-05 0.0019108 2.21533e-06
7.46148e-05 2.21533e-06 0.00190401
0.00495346 -6.58482e-05 -3.39158e-06
-6.58482e-05 0.00217752 4.11167e-07
-3.39158e-06 4.11167e-07 0.00216837
0.000777234 8.26924e-06 1.18065e-05
8.26924e-06 -9.9021e-05 1.7997e-06
1.18065e-05 1.7997e-06 -0.000152185
0.00496537 3.40222e-05 8.3239e-05
3.40222e-05 0.00218464 -8.25082e-07
8.3239e-05 -8.25082e-07 0.00217477
0.00314348 -2.07741e-05 3.42982e-05
-2.07741e-05 0.00124355 -3.51768e-09
3.42982e-05 -3.51768e-09 0.00122643
0.000782755 7.51756e-06 1.1474e-05
7.51756e-06 -8.58801e-05 2.39284e-06
1.1474e-05 2.39284e-06 -0.00013727
0.00456153 -2.03233e-05 7.76558e-05
-2.03233e-05 0.00198579 1.57413e-06
7.76558e-05 1.57413e-06 0.00197922
0.00489331 -0.000104434 7.78156e-05
-0.000104434 0.00215278 -7.46354e-08
7.78156e-05 -7.46354e-08 0.00214041
0.00474213 -4.55548e-05 7.8609e-05
-4.55548e-05 0.00207328 7.12527e-07
7.8609e-05 7.12527e-07 0.00206572
